# vtk DataFile Version 2.0
Wound Healing Simulation
ASCII
DATASET UNSTRUCTURED_GRID
POINTS 3012 float
69.9759 18.75 4
67.2507 60.3285 4
69.976 18.75 2
73.0099 25.446 4
71.1327 20.9142 4
68.6801 16.6661 4
67.822 19.9262 3.97484
67.2507 60.3286 2
71.1327 54.0858 4
68.6801 58.3339 4
65.6939 62.2254 4
65.309 58.999 3.97328
74.6784 42.3946 4
73.7221 47.2057 4
69.9759 18.75 0
73.0099 25.446 2
68.6801 16.6661 2
71.1327 20.9142 2
67.8229 19.9303 2
74.6792 32.6053 4
73.7222 27.7943 4
72.1454 23.1494 4
70.6116 26.2216 3.97464
68.8824 21.9578 3.97523
67.2507 14.6715 4
66.6333 17.973 3.97359
65.7785 21.0316 3.9634
67.2507 60.3285 0
71.1327 54.0858 2
68.6801 58.3339 2
65.694 62.2255 2
65.3099 58.9945 2
72.1454 51.8506 4
69.9759 56.25 4
68.833 53.1137 3.97478
64.0165 64.0165 4
66.6072 57.1327 3.97458
63.8822 60.7632 3.97295
63.4917 57.7637 3.965
60.3285 67.2507 4
74.6792 42.3947 2
73.7222 47.2057 2
74.9194 39.9526 4
74.2788 44.8158 4
72.1664 42.0857 3.97608
73.0099 49.554 4
71.2468 46.5981 3.97449
73.0099 25.446 0
71.1327 20.9142 0
68.6801 16.6661 0
67.822 19.9262 0.0251583
74.6792 32.6053 2
73.7222 27.7943 2
67.2508 14.6715 2
72.1455 23.1494 2
70.6111 26.2223 2
66.6348 17.9777 2
68.8828 21.9607 2
65.7757 21.0339 2
74.9197 35.0474 4
74.2794 30.1841 4
72.1831 32.9444 3.97647
71.276 28.4323 3.97499
69.8126 24.0596 3.97495
68.3374 26.9555 3.96416
66.7464 22.9384 3.96358
65.694 12.7746 4
65.3194 16.1058 3.97169
64.699 19.2023 3.96328
63.7845 22.0751 3.96427
71.1327 54.0858 0
65.6939 62.2254 0
68.6801 58.3339 0
65.309 58.999 0.0267229
72.1455 51.8506 2
69.9759 56.25 2
68.8332 53.111 2
64.0165 64.0165 2
66.6083 57.1285 2
63.8835 60.758 2
63.4896 57.7637 2
62.2254 65.694 4
58.8916 65.4127 3.98264
69.7658 50.9896 3.97449
67.7802 55.1674 3.97489
66.6287 52.2046 3.96366
62.3324 62.4245 3.97669
64.6501 56.0268 3.96398
62.195 59.3907 3.96487
61.7605 56.6485 3.96117
58.3339 68.6801 4
60.3285 67.2508 2
73.7221 47.2057 0
74.6784 42.3946 0
74.9197 39.9526 2
74.2794 44.8159 2
72.1655 42.0855 2
73.0099 49.554 2
71.2462 46.5976 2
75 37.5 4
72.4037 39.8025 3.97723
71.7805 44.353 3.97589
69.7984 41.7898 3.96667
70.5724 48.8139 3.97421
68.9032 46.0132 3.96528
74.6792 32.6053 0
73.7222 27.7943 0
67.2507 14.6715 0
72.1454 23.1494 0
70.6116 26.2216 0.0253634
68.8824 21.9578 0.024774
66.6333 17.973 0.0264085
65.7785 21.0316 0.0365995
74.9197 35.0474 2
74.2794 30.1841 2
72.1823 32.9447 2
71.2756 28.4327 2
65.694 12.7745 2
65.3209 16.111 2
69.8125 24.0614 2
68.3392 26.9565 2
64.693 19.2049 2
66.7463 22.9403 2
63.7838 22.0761 2
72.4116 35.225 3.97729
71.802 30.6774 3.97597
69.8347 33.2714 3.96668
68.96 29.0417 3.96506
67.5991 24.9164 3.96379
66.0775 27.6655 3.96869
64.0165 10.9835 4
64.6461 23.8676 3.96589
63.8855 14.3307 3.97227
63.5025 17.4574 3.96334
62.8104 20.3631 3.96233
61.894 23.0193 3.96875
60.6807 11.102 3.97758
57.605 11.4763 3.96885
72.1454 51.8506 0
69.9759 56.25 0
68.833 53.1137 0.0252248
64.0165 64.0165 0
63.8822 60.7632 0.027047
66.6072 57.1327 0.0254171
63.4917 57.7637 0.0350028
62.2255 65.694 2
58.8937 65.4086 2
69.7656 50.9878 2
67.7809 55.1637 2
66.6282 52.2033 2
62.3347 62.4196 2
64.6445 56.0252 2
62.1921 59.3906 2
61.7594 56.6489 2
60.6657 63.9734 3.9793
57.0223 66.7335 3.98539
57.5516 63.6725 3.97106
67.4878 50.1726 3.96401
65.6854 54.1688 3.9637
64.4101 51.348 3.96608
60.7673 60.9173 3.96795
62.7342 55.0335 3.96336
60.6129 58.1252 3.95995
60.202 55.7257 3.96482
56.25 69.9759 4
58.3339 68.6801 2
60.3285 67.2507 0
58.9179 9.65996 3.97892
62.2254 9.30607 4
73.0099 49.554 0
74.2788 44.8158 0
71.2468 46.5981 0.0255051
72.1664 42.0857 0.0239241
74.9194 39.9526 0
75 37.5 2
72.4035 39.8025 2
71.7802 44.3525 2
69.7976 41.7895 2
70.5718 48.813 2
68.9051 46.0128 2
72.4871 37.5126 3.97684
70.0361 39.6582 3.96713
69.4248 43.9071 3.96633
67.4917 41.4879 3.97332
68.2498 48.104 3.96451
66.5788 45.416 3.97096
74.9197 35.0474 0
74.2794 30.1841 0
72.1831 32.9444 0.0235278
71.276 28.4323 0.0250104
65.694 12.7746 0
65.3194 16.1058 0.0283085
69.8126 24.0596 0.0250487
68.3374 26.9555 0.0358381
66.7464 22.9384 0.0364201
64.699 19.2023 0.0367176
63.7845 22.0751 0.0357305
72.4114 35.225 2
71.8018 30.6779 2
69.834 33.272 2
68.9596 29.0426 2
64.0165 10.9835 2
63.8874 14.3362 2
63.4999 17.4588 2
67.6003 24.9179 2
66.0766 27.6664 2
62.8086 20.364 2
64.6449 23.8687 2
61.8929 23.0203 2
60.6834 11.1066 2
57.6059 11.4695 2
70.053 35.3943 3.96719
69.4614 31.1529 3.96574
67.5564 33.6044 3.97241
66.6565 29.6487 3.9698
65.4093 25.7338 3.96747
63.9054 28.3157 3.97553
62.3375 12.659 3.97572
62.6394 24.7096 3.97111
62.1894 15.8017 3.96508
61.7335 18.7289 3.96018
61.0298 21.4226 3.96562
60.1357 23.8375 3.97278
59.2386 12.8109 3.96575
55.8679 10.2607 3.97256
56.3929 13.1745 3.96932
69.7658 50.9896 0.0255062
62.2254 65.694 0
58.8916 65.4127 0.0173585
67.7802 55.1674 0.0251083
66.6287 52.2046 0.0363431
62.3324 62.4245 0.0233126
62.195 59.3907 0.0351333
64.6501 56.0268 0.0360211
61.7605 56.6485 0.0388283
60.668 63.9704 2
57.025 66.731 2
57.5526 63.677 2
67.4888 50.1716 2
65.6822 54.1673 2
64.4096 51.3475 2
60.7655 60.919 2
62.7329 55.0335 2
60.6153 58.127 2
60.2006 55.7256 2
55.0682 67.9311 3.98736
59.2128 62.336 3.96844
55.8001 64.8995 3.97369
56.3152 62.0426 3.9715
65.1937 49.373 3.96751
63.5936 53.2552 3.96464
62.1925 50.5807 3.97017
59.313 59.5235 3.96092
60.9048 54.2435 3.96741
59.1715 56.9472 3.96128
59.0604 55.1036 3.96792
48.0994 68.5735 3.98327
50.946 69.9312 3.98942
54.0858 71.1327 4
56.25 69.976 2
58.3339 68.6801 0
57.0554 8.33894 3.98133
60.3285 7.74928 4
58.9211 9.66412 2
62.2255 9.30602 2
70.5724 48.8139 0.0257872
71.7805 44.353 0.0241137
68.9032 46.0132 0.0347179
69.7984 41.7898 0.0333296
72.4037 39.8025 0.022769
75 37.5 0
72.4864 37.5126 2
70.0359 39.6582 2
69.4241 43.9065 2
67.4895 41.4876 2
68.252 48.1034 2
66.577 45.4154 2
70.1242 37.5231 3.96723
67.7372 39.5089 3.97346
67.1023 43.4533 3.97192
65.3075 41.187 3.9764
65.9302 47.3875 3.96949
64.3792 44.7991 3.97619
72.4116 35.225 0.0227127
71.802 30.6774 0.0240307
69.8347 33.2714 0.0333246
68.96 29.0417 0.0349415
64.0165 10.9835 0
63.8855 14.3307 0.0277317
63.5025 17.4574 0.0366608
67.5991 24.9164 0.0362087
66.0775 27.6655 0.031307
64.6461 23.8676 0.0341063
62.8104 20.3631 0.0376717
61.894 23.0193 0.0312501
60.6807 11.102 0.0224181
57.605 11.4763 0.0311541
70.0527 35.3947 2
69.4611 31.1535 2
67.5545 33.6049 2
66.6542 29.6495 2
62.3402 12.6643 2
62.1875 15.8028 2
61.7323 18.7294 2
65.408 25.735 2
63.9033 28.317 2
61.0287 21.4234 2
62.6376 24.7108 2
60.1339 23.8388 2
59.2392 12.8113 2
56.3942 13.1723 2
55.8703 10.259 2
67.7754 35.5554 3.97292
67.1606 31.6419 3.97149
65.4642 33.9532 3.9767
64.4158 30.2436 3.97623
63.3074 26.4811 3.97347
61.9027 28.8687 3.97595
60.7675 14.2473 3.96613
60.7291 25.444 3.97512
60.561 17.1713 3.95948
60.0451 19.9025 3.96194
59.3823 22.3751 3.96846
58.6151 24.4611 3.97446
54.0334 9.14905 3.97207
57.8948 14.3808 3.96414
54.7745 12.0731 3.96729
55.2903 14.7227 3.96411
67.4878 50.1726 0.0359878
57.0223 66.7335 0.0146108
60.6657 63.9734 0.0206964
57.5516 63.6725 0.0289406
65.6854 54.1688 0.0362985
64.4101 51.348 0.033923
60.7673 60.9173 0.0320515
60.6129 58.1252 0.0400542
62.7342 55.0335 0.0366418
60.202 55.7257 0.0351808
55.0707 67.929 2
59.2125 62.3389 2
55.8008 64.8977 2
56.3139 62.0428 2
65.1924 49.3723 2
63.5935 53.255 2
62.1918 50.5802 2
59.3142 59.5271 2
60.9047 54.2434 2
59.1777 56.949 2
59.065 55.1045 2
53.0402 68.9992 3.98884
53.9629 66.0041 3.97751
57.8664 60.8314 3.96835
54.6722 63.1703 3.97074
55.1922 60.5622 3.97513
62.9277 48.5941 3.97246
61.5271 52.505 3.96869
59.911 49.9154 3.97281
57.9486 58.2071 3.96055
59.0912 53.8576 3.96968
57.9158 55.7193 3.96312
50.106 67.8513 3.98222
47.46 66.569 3.97781
46.0535 69.153 3.98459
48.1006 68.5733 2
48.8 70.7224 3.98995
50.948 69.9302 2
51.8506 72.1454 4
54.0858 71.1327 2
56.25 69.9759 0
55.1004 7.14328 3.98503
58.3339 6.31992 4
57.0587 8.34256 2
60.3286 7.74926 2
58.9179 9.65996 0.0210782
62.2254 9.30607 0
68.2498 48.104 0.0354921
69.4248 43.9071 0.0336742
66.5788 45.416 0.0290439
67.4917 41.4879 0.0266779
70.0361 39.6582 0.0328692
72.4871 37.5126 0.0231589
70.1235 37.5233 2
67.7348 39.5088 2
67.101 43.4529 2
65.3046 41.1866 2
65.9291 47.3868 2
64.3777 44.7984 2
67.8376 37.5244 3.9733
65.5471 39.3607 3.97657
64.9185 42.9873 3.97664
63.3993 40.8982 3.97657
63.6879 46.6575 3.97461
62.4155 44.1438 3.9762
70.053 35.3943 0.0328071
69.4614 31.1529 0.0342601
67.5564 33.6044 0.0275864
66.6565 29.6487 0.0301959
62.3375 12.659 0.0242764
62.1894 15.8017 0.0349219
61.7335 18.7289 0.0398223
65.4093 25.7338 0.0325292
63.9054 28.3157 0.0244657
62.6394 24.7096 0.0288909
61.0298 21.4226 0.0343848
60.1357 23.8375 0.027221
59.2386 12.8109 0.034248
56.3929 13.1745 0.0306798
55.8679 10.2607 0.0274429
67.7729 35.5557 2
67.1591 31.6425 2
65.4604 33.9539 2
64.4128 30.2449 2
60.767 14.2485 2
60.557 17.1719 2
60.0432 19.9034 2
63.3054 26.4824 2
61.9007 28.8694 2
59.3835 22.3759 2
60.7268 25.4453 2
58.6126 24.4627 2
57.8935 14.3816 2
55.2917 14.7192 2
54.0359 9.1487 2
54.7755 12.0696 2
65.6457 35.6817 3.97659
64.9377 32.1933 3.97633
63.968 34.282 3.97649
62.22 30.7082 3.97613
61.3135 27.1729 3.97568
60.4182 29.2486 3.9762
59.2847 15.7127 3.95988
58.9285 25.9392 3.97611
58.9947 18.4377 3.95993
58.4847 20.9752 3.96373
57.9365 23.2394 3.9699
57.5691 24.8259 3.97537
52.1091 8.16411 3.976
53.0475 11.061 3.96921
56.6426 15.8127 3.95957
53.7879 13.7619 3.96657
54.3286 16.0938 3.96031
55.0682 67.9311 0.0126399
65.1937 49.373 0.0324851
55.8001 64.8995 0.0263142
59.2128 62.336 0.0315644
56.3152 62.0426 0.0285032
63.5936 53.2552 0.0353617
62.1925 50.5807 0.0298288
59.313 59.5235 0.0390848
59.1715 56.9472 0.0387159
60.9048 54.2435 0.0325901
59.0604 55.1036 0.0320838
53.0425 68.998 2
53.964 66.0034 2
57.8652 60.8326 2
54.6716 63.1716 2
55.1897 60.5621 2
62.926 48.5933 2
61.5275 52.5048 2
59.9121 49.9151 2
57.9466 58.2084 2
59.0955 53.8581 2
57.912 55.7179 2
52.0671 66.9932 3.98082
52.9461 64.1982 3.97482
56.6162 59.4405 3.96376
53.6592 61.5633 3.97193
54.2236 59.2644 3.97131
60.5851 47.7789 3.97417
59.4007 52.0048 3.97074
57.5714 49.4811 3.97405
56.656 56.9091 3.96285
56.8225 54.0052 3.96677
50.1071 67.8508 2
49.3333 65.9091 3.97786
47.4606 66.5685 2
46.8873 64.7168 3.97628
45.5558 67.087 3.9793
43.9712 69.5852 3.98567
46.0547 69.1531 2
46.6065 71.3668 3.99058
48.0994 68.5735 0.0167318
48.8018 70.7219 2
49.554 73.0099 4
50.946 69.9312 0.0105787
51.8506 72.1455 2
54.0858 71.1327 0
53.0628 6.07365 3.98828
55.1038 7.14486 2
56.25 5.02411 4
58.3339 6.3199 2
57.0554 8.33894 0.0186712
60.3285 7.74928 0
65.9302 47.3875 0.0305109
67.1023 43.4533 0.0280774
64.3792 44.7991 0.0238088
65.3075 41.187 0.0236029
67.7372 39.5089 0.0265355
70.1242 37.5231 0.0327723
67.8353 37.5245 2
65.5439 39.3605 2
64.9152 42.9864 2
63.3986 40.8978 2
63.686 46.6565 2
62.4145 44.1436 2
65.6562 37.5049 3.97654
63.5491 39.2532 3.97664
62.952 42.5034 3.97629
61.9912 40.6594 3.97661
61.5607 45.8298 3.97574
60.9649 43.6036 3.97606
67.7754 35.5554 0.0270758
67.1606 31.6419 0.0285052
65.4642 33.9532 0.0233028
64.4158 30.2436 0.0237737
60.7675 14.2473 0.0338705
60.561 17.1713 0.0405205
60.0451 19.9025 0.0380594
63.3074 26.4811 0.0265275
61.9027 28.8687 0.024053
60.7291 25.444 0.0248836
59.3823 22.3751 0.0315388
58.6151 24.4611 0.0255388
57.8948 14.3808 0.0358633
55.2903 14.7227 0.0358859
54.0334 9.14905 0.0279309
54.7745 12.0731 0.032709
65.6422 35.6818 2
64.9343 32.1942 2
63.9666 34.2824 2
62.2184 30.7084 2
59.2838 15.7116 2
59.0046 18.4353 2
58.4834 20.9766 2
61.3117 27.174 2
60.4178 29.2492 2
57.9268 23.2428 2
58.9273 25.9403 2
57.5734 24.8275 2
56.6394 15.8131 2
54.3342 16.0878 2
53.7868 13.7516 2
52.1113 8.16364 2
53.0491 11.0591 2
63.7592 35.6517 3.97643
62.5447 33.098 3.97615
60.1321 30.7142 3.97585
59.1145 28.0447 3.97596
57.8664 17.0578 3.95876
57.2799 25.9013 3.97595
57.5092 19.5942 3.95973
57.0338 21.9966 3.96424
56.7615 24.1236 3.97084
50.1103 7.29295 3.98156
51.225 10.1503 3.97279
52.1531 12.8682 3.96759
55.4643 17.0686 3.95805
52.9388 15.3626 3.9631
53.6853 17.0939 3.95768
53.0402 68.9992 0.0111639
53.9629 66.0041 0.0224894
62.9277 48.5941 0.0275374
54.6722 63.1703 0.0292554
57.8664 60.8314 0.0316538
55.1922 60.5622 0.0248729
61.5271 52.505 0.0313095
59.911 49.9154 0.0271853
57.9486 58.2071 0.0394535
57.9158 55.7193 0.0368782
59.0912 53.8576 0.0303163
52.0682 66.9931 2
52.9457 64.2003 2
56.6147 59.4409 2
53.6575 61.5644 2
54.2195 59.2662 2
60.5846 47.7783 2
59.4022 52.0047 2
57.5709 49.4804 2
56.6515 56.9124 2
56.8196 54.004 2
51.1636 65.1148 3.97688
52.0298 62.504 3.97148
55.4117 58.1865 3.96076
52.7941 60.0583 3.96935
53.5842 58.405 3.96611
57.7464 46.7014 3.97586
57.1795 51.658 3.97089
55.7139 49.3932 3.97329
55.2984 55.6945 3.96349
55.0064 53.2499 3.96318
50.106 67.8513 0.0177846
49.3336 65.9086 2
48.6114 64.1048 3.97792
47.46 66.569 0.0221945
45.5564 67.0877 2
46.888 64.716 2
46.3735 63.0274 3.98216
45.1295 65.1793 3.97761
43.6296 67.4593 3.98126
41.859 69.8722 3.98538
43.9721 69.5856 2
44.374 71.8614 3.991
46.0535 69.153 0.015411
46.608 71.3666 2
47.2057 73.7222 4
48.8 70.7224 0.0100491
49.554 73.0099 2
51.8506 72.1454 0
50.9538 5.13422 3.99024
53.0654 6.07448 2
54.0858 3.86728 4
55.1004 7.14328 0.0149734
56.25 5.02406 2
58.3339 6.31992 0
63.6879 46.6575 0.0253879
64.9185 42.9873 0.0233647
62.4155 44.1438 0.0237989
63.3993 40.8982 0.0234317
65.5471 39.3607 0.0234323
67.8376 37.5244 0.026699
65.6526 37.5049 2
63.5487 39.2531 2
62.9515 42.5031 2
61.9922 40.6593 2
61.5595 45.829 2
60.9647 43.6037 2
63.6134 37.4594 3.97654
61.6984 39.3335 3.97676
60.7093 41.8936 3.9766
59.7201 44.6562 3.97611
65.6457 35.6817 0.0234095
64.9377 32.1933 0.0236721
63.968 34.282 0.0235144
62.22 30.7082 0.0238674
59.2847 15.7127 0.0401187
58.9947 18.4377 0.0400745
58.4847 20.9752 0.0362711
61.3135 27.1729 0.0243184
60.4182 29.2486 0.0237975
58.9285 25.9392 0.0238892
57.9365 23.2394 0.0301035
57.5691 24.8259 0.0246273
56.6426 15.8127 0.0404265
54.3286 16.0938 0.0396889
53.7879 13.7619 0.0334262
52.1091 8.16411 0.0239987
53.0475 11.061 0.0307949
63.7585 35.6517 2
62.545 33.0983 2
60.1326 30.7144 2
57.8686 17.0573 2
57.5257 19.5899 2
57.0293 21.9993 2
59.114 28.0453 2
56.7764 24.1246 2
57.2822 25.9039 2
50.1123 7.29054 2
55.4696 17.0658 2
53.6969 17.0837 2
52.9371 15.3546 2
52.154 12.8719 2
51.2271 10.147 2
61.742 35.3866 3.97651
59.7503 32.8229 3.97608
58.0461 30.2093 3.97571
56.7558 27.5617 3.97634
56.5145 18.2605 3.95975
55.8036 25.3031 3.97506
56.0969 20.6706 3.96063
55.7044 23.0558 3.96414
48.0558 6.53271 3.98581
49.3201 9.34741 3.97558
50.4185 12.0446 3.97139
51.342 14.5815 3.96366
54.3034 18.0419 3.95903
52.3 17.1634 3.95851
52.0671 66.9932 0.0191825
52.9461 64.1982 0.0251756
60.5851 47.7789 0.0258274
53.6592 61.5633 0.0280732
56.6162 59.4405 0.03624
54.2236 59.2644 0.0286863
59.4007 52.0048 0.0292632
57.5714 49.4811 0.0259523
56.656 56.9091 0.0371468
56.8225 54.0052 0.0332293
51.1634 65.1145 2
52.0286 62.5053 2
55.4093 58.1876 2
52.793 60.0614 2
53.5817 58.4077 2
57.7461 46.7008 2
57.1763 51.6569 2
55.7091 49.3918 2
55.2953 55.6943 2
55.0065 53.2502 2
50.3363 63.3625 3.97831
51.2115 60.8732 3.97497
54.1213 57.1916 3.96667
52.2268 58.5518 3.96648
55.9665 44.024 3.97643
54.8603 47.7149 3.97519
54.5871 51.2301 3.96592
53.7624 54.4287 3.96556
49.3333 65.9091 0.0221365
48.6113 64.103 2
47.9483 62.4521 3.98185
45.5558 67.087 0.0207027
46.8873 64.7168 0.0237182
43.63 67.4599 2
46.3734 63.0277 2
45.1301 65.1788 2
45.9736 61.5564 3.99001
44.7618 63.4254 3.97687
43.3558 65.4914 3.97827
41.6622 67.6778 3.98093
39.7014 70.0182 3.98478
41.8597 69.8726 2
42.1087 72.2057 3.99137
43.9712 69.5852 0.014329
44.3752 71.8612 2
44.8159 74.2794 4
46.6065 71.3668 0.00941571
47.2057 73.7222 2
49.554 73.0099 0
48.7852 4.32446 3.99112
50.9556 5.13376 2
51.8506 2.85458 4
53.0628 6.07365 0.0117202
54.0858 3.86728 2
56.25 5.02411 0
61.5607 45.8298 0.0242576
62.952 42.5034 0.0237147
60.9649 43.6036 0.0239381
61.9912 40.6594 0.0233908
63.5491 39.2532 0.0233584
65.6562 37.5049 0.0234566
63.6129 37.4593 2
61.6996 39.3335 2
60.7109 41.8938 2
59.7205 44.6557 2
61.527 37.4459 3.97692
59.6599 39.8067 3.9768
58.3403 42.8182 3.976
63.7592 35.6517 0.0235718
62.5447 33.098 0.0238464
60.1321 30.7142 0.0241481
57.8664 17.0578 0.041242
57.5092 19.5942 0.0402675
57.0338 21.9966 0.0357557
59.1145 28.0447 0.0240361
57.2799 25.9013 0.0240488
56.7615 24.1236 0.0291641
55.4643 17.0686 0.0419459
53.6853 17.0939 0.0423164
52.9388 15.3626 0.0368951
50.1103 7.29295 0.0184351
52.1531 12.8682 0.032413
51.225 10.1503 0.0272057
61.743 35.3866 2
59.7506 32.8227 2
58.0473 30.2086 2
56.5173 18.2591 2
56.1214 20.6637 2
55.7142 23.06 2
56.7565 27.5635 2
55.8111 25.3087 2
48.0568 6.53158 2
49.3221 9.34536 2
54.3216 18.0397 2
52.2923 17.1565 2
51.3388 14.5823 2
50.4206 12.0446 2
59.2949 35.1584 3.97657
57.3144 32.3769 3.97557
55.9028 29.515 3.97603
54.8548 26.8335 3.97552
55.1829 19.3179 3.96211
54.483 24.2722 3.97335
54.6844 21.7401 3.96052
45.9626 5.88633 3.9878
43.3744 7.48052 3.98351
47.3532 8.63445 3.98054
48.5898 11.3259 3.9733
49.6826 13.8007 3.96824
50.579 16.2345 3.96119
52.9969 18.8104 3.96327
51.2173 18.2204 3.96027
51.1636 65.1148 0.0231193
52.0298 62.504 0.0285228
57.7464 46.7014 0.0241375
52.7941 60.0583 0.0306548
55.4117 58.1865 0.0392443
53.5842 58.405 0.0338867
57.1795 51.658 0.0291135
55.7139 49.3932 0.0267141
55.2984 55.6945 0.0365141
55.0064 53.2499 0.0368187
50.3356 63.3611 2
51.2095 60.8721 2
54.1195 57.1932 2
52.2228 58.5541 2
55.9673 44.0243 2
54.8579 47.7135 2
54.5835 51.229 2
53.7603 54.4304 2
49.5705 61.7232 3.97498
54.6985 41.6226 3.97401
50.503 59.262 3.96995
52.032 56.3979 3.96638
53.3687 45.3487 3.9743
52.7186 49.141 3.96962
52.2876 52.7094 3.96005
48.6114 64.1048 0.0220824
47.9475 62.4486 2
47.3062 60.9827 3.99423
43.6296 67.4593 0.0187372
45.1295 65.1793 0.0223934
46.3735 63.0274 0.0178419
41.663 67.6771 2
43.357 65.4921 2
45.973 61.5567 2
44.7621 63.4243 2
45.7406 60.6021 3.99087
44.4741 61.7994 3.97911
43.1435 63.7014 3.97822
41.5458 65.6299 3.97618
39.632 67.755 3.98007
37.5258 70.0425 3.98395
39.702 70.0183 2
39.8161 72.4023 3.99138
41.859 69.8722 0.0146248
42.1096 72.2059 2
42.3947 74.6792 4
44.374 71.8614 0.00900074
44.8159 74.2794 2
47.2057 73.7222 0
43.852 5.36296 3.98709
46.5715 3.64882 3.99171
48.786 4.32414 2
49.554 1.99015 4
50.9538 5.13422 0.00976388
51.8506 2.85453 2
54.0858 3.86728 0
59.7201 44.6562 0.0238907
60.7093 41.8936 0.0234048
61.6984 39.3335 0.0232418
63.6134 37.4594 0.0234637
61.5278 37.4458 2
59.6616 39.8062 2
58.341 42.8186 2
59.1496 37.5658 3.97732
57.2632 40.5878 3.9773
54.0971 39.6388 3.97545
61.742 35.3866 0.0234922
59.7503 32.8229 0.0239208
58.0461 30.2093 0.0242871
56.5145 18.2605 0.0402479
56.0969 20.6706 0.0393666
55.7044 23.0558 0.0358622
56.7558 27.5617 0.023665
55.8036 25.3031 0.0249407
54.3034 18.0419 0.040975
52.3 17.1634 0.0414925
51.342 14.5815 0.0363389
48.0558 6.53271 0.0141926
49.3201 9.34741 0.0244249
50.4185 12.0446 0.0286134
59.2957 35.1578 2
45.9631 5.88488 2
43.3747 7.47794 2
57.3153 32.3775 2
55.9025 29.5144 2
55.1734 19.3236 2
54.7236 21.7409 2
54.4846 24.2788 2
54.8539 26.835 2
47.3549 8.63172 2
48.5921 11.3231 2
53.0097 18.7825 2
51.2235 18.2131 2
50.5762 16.2336 2
49.6817 13.8055 2
56.6347 34.8167 3.97714
54.9565 31.6647 3.97559
53.8169 28.6275 3.97702
53.2329 25.7503 3.9745
53.7717 20.2901 3.9606
53.2233 22.9309 3.95784
41.4004 7.08442 3.98341
45.3599 8.00023 3.98665
42.8667 9.42759 3.97637
46.6625 10.6714 3.97839
47.72 13.1387 3.97318
48.8852 15.4767 3.96833
49.9218 17.7968 3.95695
51.5113 19.5069 3.97434
50.3363 63.3625 0.0216892
51.2115 60.8732 0.025033
55.9665 44.024 0.0235688
54.8603 47.7149 0.0248093
52.2268 58.5518 0.0335164
54.1213 57.1916 0.0333319
54.5871 51.2301 0.0340791
53.7624 54.4287 0.034439
49.5689 61.7209 2
54.6894 41.6182 2
50.4996 59.2644 2
52.035 56.4018 2
53.3636 45.3466 2
52.7154 49.1389 2
52.2905 52.7097 2
48.8061 60.1728 3.97929
51.4446 42.4918 3.98341
49.6824 57.5572 3.96388
50.3371 54.3216 3.96162
51.0391 47.0518 3.97559
50.7217 50.7817 3.95473
47.1388 43.5336 3.97341
47.9483 62.4521 0.0181472
47.3049 60.9792 2
46.5813 59.7735 3.99371
41.6622 67.6778 0.0190687
43.3558 65.4914 0.0217337
44.7618 63.4254 0.0231255
45.9736 61.5564 0.00999148
39.633 67.7555 2
41.5468 65.6275 2
45.7407 60.6023 2
43.1432 63.7003 2
44.4724 61.8006 2
44.5975 60.2564 3.9959
42.9428 62.0536 3.97485
41.5988 63.7986 3.977
39.6468 65.5942 3.97554
37.5633 67.7358 3.97828
31.6984 65.1123 3.97525
33.3932 67.474 3.97817
35.3341 69.9531 3.98428
37.5259 70.044 2
37.509 72.4566 3.99193
39.7014 70.0182 0.0152189
39.8168 72.4024 2
39.9526 74.9197 4
42.1087 72.2057 0.00862568
42.3947 74.6792 2
44.8159 74.2794 0
41.7368 4.97098 3.98798
43.8523 5.36106 2
44.327 3.11174 3.99237
46.572 3.64828 2
47.2057 1.27793 4
48.7852 4.32446 0.00887716
49.554 1.99013 2
51.8506 2.85458 0
58.3403 42.8182 0.0239951
59.6599 39.8067 0.023201
61.527 37.4459 0.023075
59.151 37.5663 2
57.2646 40.5894 2
54.0881 39.647 2
55.9879 37.8742 3.97682
48.47 41.2118 3.97015
52.0307 39.2741 3.98174
39.444 6.80768 3.98384
59.2949 35.1584 0.023429
57.3144 32.3769 0.0244321
55.9028 29.515 0.0239734
55.1829 19.3179 0.0378923
54.6844 21.7401 0.039478
54.483 24.2722 0.0266524
54.8548 26.8335 0.0244846
52.9969 18.8104 0.0367327
51.2173 18.2204 0.0397299
50.579 16.2345 0.0388062
45.9626 5.88633 0.0121975
49.6826 13.8007 0.0317627
47.3532 8.63445 0.0194569
48.5898 11.3259 0.0267002
43.3744 7.48052 0.0164938
56.6343 34.8167 2
41.4005 7.08403 2
45.3605 7.99816 2
42.867 9.42519 2
54.9587 31.664 2
53.8159 28.6287 2
53.7771 20.3072 2
53.2095 22.935 2
53.2292 25.7514 2
46.6644 10.666 2
47.721 13.1345 2
51.5336 19.5055 2
49.9214 17.8008 2
48.8779 15.4904 2
53.9183 34.0188 3.97486
52.6524 30.7252 3.97523
51.9289 27.485 3.97493
51.7267 24.378 3.97841
52.1651 21.2539 3.97543
41.0136 9.0584 3.97716
44.7265 10.0024 3.98541
42.4595 10.9116 4.00465
45.9825 12.7469 3.96822
47.6428 14.6528 3.96608
48.031 17.0521 3.96685
49.7247 19.907 3.98093
49.5705 61.7232 0.0250151
50.503 59.262 0.030052
54.6985 41.6226 0.0259896
53.3687 45.3487 0.0257
52.7186 49.141 0.0303764
52.032 56.3979 0.0336219
52.2876 52.7094 0.0399549
48.8028 60.1694 2
51.4568 42.5033 2
49.6794 57.5573 2
50.3387 54.3242 2
51.0417 47.051 2
50.726 50.7815 2
47.1493 43.5674 2
47.9173 58.6853 3.98952
49.1296 45.0768 3.98101
48.431 55.8405 3.95826
48.7872 52.4706 3.97633
49.075 48.8566 3.96999
44.8655 39.7688 3.84645
45.3713 42.4599 3.88741
45.6542 45.5263 3.98256
42.7066 40.9914 3.65331
41.4951 41.7453 3.45288
47.3062 60.9827 0.00576648
46.5799 59.7682 2
45.418 58.7682 3.99485
39.632 67.755 0.0199346
41.5458 65.6299 0.0238201
43.1435 63.7014 0.021782
44.4741 61.7994 0.020893
45.7406 60.6021 0.00913189
41.5991 63.796 2
37.5639 67.7376 2
39.6483 65.5947 2
44.5985 60.2578 2
42.9408 62.0533 2
41.7465 62.4598 3.97679
42.4604 59.9475 3.98301
39.8939 63.5305 3.97628
37.6417 65.4902 3.97482
35.4638 67.6455 3.97822
33.5763 65.3235 3.97433
31.9608 63.2712 3.97684
29.8864 64.702 3.97928
31.6979 65.1117 2
31.3783 67.1851 3.97865
33.3928 67.4751 2
33.1578 69.7467 3.98421
35.3336 69.9546 2
35.1959 72.3712 3.99202
37.5258 70.0425 0.0160545
37.5094 72.4571 2
37.5 75 4
39.8161 72.4023 0.0086206
39.9526 74.9197 2
42.3947 74.6792 0
39.6249 4.71864 3.98901
41.7369 4.97043 2
42.0636 2.71875 3.99275
43.852 5.36296 0.0129144
44.3271 3.11077 2
44.8158 0.721173 4
46.5715 3.64882 0.00829081
47.2057 1.27779 2
49.554 1.99015 0
57.2632 40.5878 0.0226979
59.1496 37.5658 0.0226779
54.0971 39.6388 0.0245484
48.4926 41.2193 2
55.9899 37.8708 2
52.0248 39.2378 2
52.8886 36.6138 3.97761
46.4005 40.2881 3.89319
49.4083 38.5021 3.9828
37.518 6.67713 3.98506
39.4446 6.80592 2
39.2115 8.70045 3.98155
35.9441 8.49808 3.98327
56.6347 34.8167 0.0228638
54.9565 31.6647 0.0244082
53.8169 28.6275 0.022982
53.7717 20.2901 0.0393959
53.2233 22.9309 0.0421559
53.2329 25.7503 0.0254987
51.5113 19.5069 0.025658
49.9218 17.7968 0.0430535
48.8852 15.4767 0.0316666
45.3599 8.00023 0.0133543
47.72 13.1387 0.0268174
46.6625 10.6714 0.0216131
41.4004 7.08442 0.0165884
42.8667 9.42759 0.0236313
53.9164 34.0153 2
41.0148 9.05983 2
44.7264 9.9995 2
42.4607 10.9127 2
52.6456 30.7225 2
51.9367 27.4871 2
52.1624 21.2639 2
51.7131 24.382 2
45.9836 12.7391 2
47.6349 14.6236 2
49.7451 19.8922 2
48.0276 17.0627 2
51.4105 32.9429 3.98203
50.4858 29.4459 3.97734
50.233 25.9805 3.97004
49.7301 22.5051 3.98573
40.5629 11.6204 3.98424
43.838 11.9165 3.97567
45.7597 15.5008 3.98984
47.4324 19.5205 3.98073
45.3245 37.4834 3.84519
48.8061 60.1728 0.0207113
49.6824 57.5572 0.0361155
51.4446 42.4918 0.0165895
51.0391 47.0518 0.0244109
50.7217 50.7817 0.0452748
50.3371 54.3216 0.0383844
47.1388 43.5336 0.0265875
47.9134 58.6911 2
49.1457 45.0924 2
48.4268 55.843 2
48.7883 52.4759 2
49.0798 48.8589 2
44.9675 39.7947 2
45.3994 42.4801 2
45.6621 45.546 2
42.764 41.0459 2
41.5344 41.7701 2
46.739 57.2908 3.98054
43.417 39.3479 3.65147
41.8746 40.6905 3.4579
47.3311 47.1033 3.98382
46.9414 54.1443 3.95929
47.1577 50.6119 3.97741
44.2127 47.1552 3.98457
44.0215 41.802 3.84551
44.1511 44.261 3.88106
41.7793 42.3845 3.69886
40.5403 42.0339 3.42368
46.5813 59.7735 0.00629062
45.4179 58.7668 2
43.8254 57.6473 3.98315
37.5633 67.7358 0.0217176
39.6468 65.5942 0.0244557
41.5988 63.7986 0.0230026
42.9428 62.0536 0.025153
44.5975 60.2564 0.00409834
35.4639 67.6477 2
41.7448 62.4624 2
39.8932 63.5307 2
37.6426 65.4922 2
42.463 59.9448 2
40.6167 61.6008 3.98232
40.4239 58.1218 3.98469
37.837 63.1864 3.97257
35.5729 65.413 3.97647
33.5764 65.3236 2
31.9627 63.2748 2
33.6295 63.3144 3.97544
30.3811 62.8338 3.98136
32.1301 61.9739 3.98743
26.8838 61.4509 3.98072
28.0679 64.131 3.97977
29.8859 64.7021 2
29.4083 66.7478 3.9788
31.6984 65.1123 0.024755
31.378 67.1849 2
31.0157 69.4124 3.98412
33.3932 67.474 0.0218309
33.1571 69.7477 2
32.8941 72.1456 3.99133
35.3341 69.9531 0.0157182
35.1956 72.372 2
35.0474 74.9194 4
37.509 72.4566 0.0080659
37.5 75 2
39.9526 74.9197 0
35.6224 6.72869 3.98422
37.5248 4.61762 3.98935
39.6249 4.71708 2
39.7901 2.47539 3.99286
41.7368 4.97098 0.0120171
42.0633 2.71834 2
42.3946 0.32156 4
44.327 3.11174 0.00762768
44.8159 0.72056 2
47.2057 1.27793 0
48.47 41.2118 0.0298516
55.9879 37.8742 0.023185
52.0307 39.2741 0.0182563
46.4202 40.2952 2
49.4068 38.4987 2
52.892 36.6418 2
50.2144 35.5568 3.97432
47.056 37.7527 3.89801
44.893 35.1973 3.84546
42.7563 33.9601 3.65272
41.5324 33.2093 3.45171
37.4594 8.53781 3.98438
37.5185 6.67662 2
39.444 6.80768 0.0161599
39.2133 8.69804 2
38.9756 10.1369 3.98574
35.9002 9.78096 3.98006
34.154 8.83008 3.98118
35.945 8.49556 2
53.9183 34.0188 0.0251437
52.6524 30.7252 0.0247695
51.9289 27.485 0.025073
52.1651 21.2539 0.024567
51.7267 24.378 0.0215892
49.7247 19.907 0.0190727
48.031 17.0521 0.033151
47.6428 14.6528 0.0339241
44.7265 10.0024 0.0145904
45.9825 12.7469 0.0317847
41.0136 9.0584 0.022841
42.4595 10.9116 -0.00464785
51.4233 32.9358 2
40.5657 11.6243 2
43.8374 11.9081 2
50.5028 29.4466 2
50.2288 25.988 2
49.7135 22.4903 2
45.7477 15.4452 2
47.4354 19.5511 2
49 31.5581 3.98511
48.5962 27.7494 3.97628
48.9938 24.6212 3.981
47.0533 22.2922 3.9903
38.2987 12.7534 3.97719
42.0797 14.3323 3.98089
44.7476 18.6279 3.97347
43.8384 37.4843 3.66522
45.4242 37.4875 2
47.9173 58.6853 0.0104787
48.431 55.8405 0.0417355
49.1296 45.0768 0.0189904
49.075 48.8566 0.0300112
48.7872 52.4706 0.0236719
44.8655 39.7688 0.153547
45.3713 42.4599 0.112587
45.6542 45.5263 0.0174351
42.7066 40.9914 0.346692
41.4951 41.7453 0.547123
46.7354 57.2974 2
43.4925 39.3747 2
41.8842 40.7035 2
47.3392 47.1006 2
46.9361 54.1488 2
47.1599 50.6211 2
44.2478 47.1539 2
44.0849 41.8364 2
44.2091 44.2897 2
41.8356 42.4458 2
40.5753 42.0502 2
45.267 55.8683 4.00051
42.2185 39.1842 3.46845
40.4295 40.5722 3.56891
45.5633 48.7457 4.00155
45.2206 52.4043 3.98624
42.9783 48.1483 3.99351
42.8591 45.7869 3.87629
42.9489 43.5656 3.82997
40.6736 43.3631 3.67319
39.1623 42.2912 3.47975
45.418 58.7682 0.00514863
43.8231 57.6568 2
42.0481 56.224 3.9893
35.4638 67.6455 0.0217762
37.6417 65.4902 0.0251783
39.8939 63.5305 0.0237223
41.7465 62.4598 0.0232053
42.4604 59.9475 0.0169865
35.5738 65.4163 2
40.6167 61.5989 2
37.8376 63.1852 2
40.4242 58.1261 2
38.9029 56.3654 3.99386
38.245 60.282 3.98198
35.607 63.1807 3.9723
33.5763 65.3235 0.0256696
31.9608 63.2712 0.0231564
33.6315 63.316 2
30.3825 62.8365 2
32.1324 61.9767 2
28.6891 62.1726 3.98003
33.349 61.4797 3.97928
31.0808 61.1999 3.98508
27.6001 59.5454 3.9793
23.8364 59.0189 3.99281
25.0549 60.8168 3.97661
26.885 61.4516 2
26.2379 63.4608 3.97573
28.0672 64.1291 2
27.4656 66.1709 3.97855
29.8864 64.702 0.0207227
29.4078 66.7471 2
28.9083 68.9375 3.98308
31.3783 67.1851 0.0213469
31.0148 69.4122 2
30.6171 71.7773 3.99071
33.1578 69.7467 0.0157873
32.8932 72.1461 2
32.6054 74.6784 4
35.1959 72.3712 0.00798446
35.0474 74.9197 2
37.5 75 0
33.7255 6.98482 3.98287
35.4369 4.68774 3.98892
35.6229 6.72736 2
37.5159 2.38776 3.99298
37.5247 4.61692 2
39.6249 4.71864 0.0109856
39.7897 2.47455 2
39.9526 0.0806499 4
42.0636 2.71875 0.00724748
42.3947 0.320817 2
44.8158 0.721173 0
43.4376 35.616 3.6563
41.8997 34.2592 3.44419
46.4005 40.2881 0.106805
49.4083 38.5021 0.0172029
52.8886 36.6138 0.0223857
47.0522 37.7332 2
50.2274 35.5595 2
44.9774 35.1788 2
42.8002 33.9102 2
41.5604 33.1838 2
47.2667 34.3675 3.94032
44.0783 33.1601 3.8356
41.8333 32.5721 3.69713
40.5703 32.9299 3.42268
37.3117 10.6352 3.98136
37.4609 8.53785 2
37.518 6.67713 0.0149357
39.2115 8.70045 0.0184543
38.9793 10.1348 2
34.7571 10.3908 3.97975
35.9027 9.77584 2
32.381 9.37637 3.97749
34.1533 8.82569 2
35.9441 8.49808 0.0167284
51.4105 32.9429 0.0179686
50.4858 29.4459 0.0226573
50.233 25.9805 0.0299619
49.7301 22.5051 0.014272
47.4324 19.5205 0.0192745
45.7597 15.5008 0.0101551
43.838 11.9165 0.0243321
40.5629 11.6204 0.0157596
49.0207 31.5421 2
38.3007 12.7486 2
42.0865 14.3453 2
48.5963 27.7512 2
48.9859 24.6278 2
47.0386 22.2931 2
44.7521 18.6965 2
46.9302 29.7444 3.98311
46.6773 25.3366 3.97335
44.1956 21.6322 3.98123
36.586 12.9673 3.97478
38.6761 14.8702 3.97557
41.7178 17.9622 3.97738
42.3873 37.4631 3.50494
43.902 37.4858 2
45.3245 37.4834 0.15481
46.739 57.2908 0.0194599
46.9414 54.1443 0.0407072
47.3311 47.1033 0.0161774
47.1577 50.6119 0.0225918
43.417 39.3479 0.348534
44.0215 41.802 0.154491
44.1511 44.261 0.118941
44.2127 47.1552 0.0154294
41.7793 42.3845 0.301137
41.8746 40.6905 0.542105
40.5403 42.0339 0.576324
45.2633 55.8713 2
42.2245 39.1915 2
40.472 40.5593 2
45.5646 48.7657 2
45.2158 52.407 2
43.014 48.1637 2
42.9183 45.8394 2
42.9994 43.5986 2
40.7186 43.4342 2
39.1565 42.3108 2
43.5879 54.3219 3.99702
40.5281 39.0282 3.59099
39.058 40.6499 3.53813
43.2975 50.2382 4.00336
41.6239 47.2906 3.92372
41.5329 44.8826 3.83998
39.3475 44.0126 3.64163
37.503 42.4147 3.52657
43.8254 57.6473 0.016845
42.0524 56.2167 2
40.3618 54.7822 3.99478
35.5729 65.413 0.0235253
37.837 63.1864 0.0274306
40.6167 61.6008 0.0176775
40.4239 58.1218 0.0153123
35.6085 63.178 2
38.2434 60.2816 2
38.9056 56.3472 2
37.9768 55.041 3.99485
36.9259 57.5595 3.9913
35.3643 60.8777 3.97985
33.6295 63.3144 0.0245557
30.3811 62.8338 0.018636
32.1301 61.9739 0.012567
33.3505 61.4798 2
28.6902 62.1767 2
31.0828 61.2052 2
29.4263 60.2561 3.97723
32.3693 59.6911 3.99634
28.0736 58.3324 4.01604
27.6019 59.5437 2
25.4253 58.5396 3.97902
22.8261 58.1749 3.96812
23.4256 60.2834 3.97641
23.8387 59.0191 2
25.0567 60.816 2
24.4442 62.7402 3.97614
26.8838 61.4509 0.0192791
26.2382 63.4593 2
25.5507 65.4798 3.97713
28.0679 64.131 0.0202322
27.4653 66.1712 2
26.8382 68.3252 3.98278
29.4083 66.7478 0.0212014
28.9075 68.937 2
28.3723 71.2625 3.98989
31.0157 69.4124 0.0158813
30.6159 71.777 2
30.1842 74.2788 4
32.8941 72.1456 0.00867166
32.6053 74.6792 2
35.0474 74.9194 0
31.7899 7.42419 3.98144
33.3494 4.9275 3.98788
33.7253 6.98225 2
35.2463 2.46363 3.99302
35.4367 4.68704 2
35.6224 6.72869 0.0157819
37.5 0 4
37.5151 2.38733 2
37.5248 4.61762 0.0106468
39.7901 2.47539 0.00713661
39.9526 0.0802889 2
42.3946 0.32156 0
42.2131 35.7399 3.45015
43.5221 35.5859 2
40.4755 34.378 3.56976
41.9004 34.2417 2
47.056 37.7527 0.101992
50.2144 35.5568 0.0256826
44.893 35.1973 0.15454
42.7563 33.9601 0.347283
41.5324 33.2093 0.548293
47.2983 34.383 2
44.1234 33.1211 2
41.8853 32.5098 2
40.6014 32.9133 2
45.3927 31.7913 3.89809
43.0002 31.3946 3.82238
40.7182 31.5974 3.67284
39.1807 32.6898 3.47515
35.6965 11.7891 3.9762
37.3162 10.6344 2
37.4594 8.53781 0.0156174
38.9756 10.1369 0.0142589
33.1023 11.229 3.97279
34.7568 10.3828 2
35.9002 9.78096 0.0199435
30.4867 10.0284 3.97702
32.3803 9.37495 2
34.154 8.83008 0.018823
49 31.5581 0.0148914
48.5962 27.7494 0.0237188
48.9938 24.6212 0.0190042
47.0533 22.2922 0.00970417
44.7476 18.6279 0.0265287
42.0797 14.3323 0.0191076
38.2987 12.7534 0.0228058
36.5832 12.9456 2
46.935 29.6898 2
38.6754 14.8488 2
41.7099 17.9643 2
46.676 25.3382 2
44.1797 21.6096 2
44.9208 27.8851 3.99389
43.5391 24.2737 4.02395
41.2734 20.9767 3.99114
35.7708 14.8072 3.9804
38.6583 17.6906 3.98334
40.5845 37.4431 3.60882
42.4005 37.4677 2
43.8384 37.4843 0.334778
45.267 55.8683 -0.000506413
45.2206 52.4043 0.013764
45.5633 48.7457 -0.00154969
42.2185 39.1842 0.531549
42.9489 43.5656 0.170027
42.8591 45.7869 0.123711
42.9783 48.1483 0.006486
40.6736 43.3631 0.32681
40.4295 40.5722 0.431092
39.1623 42.2912 0.520245
43.5847 54.3185 2
40.543 39.029 2
39.0561 40.6475 2
43.2895 50.252 2
41.6251 47.3259 2
41.5541 44.9286 2
37.4984 42.438 2
39.3672 44.0839 2
41.7379 52.7831 4.00023
39.067 39.0712 3.54302
37.5055 40.7045 3.57611
35.8517 42.3013 3.47623
40.7731 49.3756 3.99377
39.6984 45.6004 3.80466
37.5005 44.2849 3.67773
42.0481 56.224 0.0107037
40.3614 54.7905 2
38.7181 53.5751 3.99657
35.607 63.1807 0.0276969
38.245 60.282 0.0180218
38.9029 56.3654 0.00613569
35.3639 60.8678 2
36.9274 57.5699 2
37.9765 55.0378 2
36.3142 55.1264 3.99745
34.4934 58.4733 3.99343
33.349 61.4797 0.0207162
28.6891 62.1726 0.0199678
31.0808 61.1999 0.0149154
32.3686 59.6933 2
29.4277 60.2561 2
30.3427 57.7745 3.98671
28.0768 58.3302 2
27.0481 56.7782 3.96937
27.6001 59.5454 0.0206999
25.4281 58.5389 2
23.9597 56.7287 3.96
21.451 57.3142 3.95835
22.0284 59.5579 3.98003
22.828 58.1762 2
22.7515 61.9797 3.97286
23.4273 60.2835 2
23.8364 59.0189 0.00718866
25.0549 60.8168 0.0233948
24.4451 62.7421 2
23.6869 64.6945 3.97488
26.2379 63.4608 0.0242744
25.5507 65.4813 2
24.8106 67.5866 3.98179
27.4656 66.1709 0.021446
26.8372 68.3265 2
26.1677 70.6032 3.98961
28.9083 68.9375 0.0169162
28.3711 71.2621 2
27.7943 73.7221 4
30.6171 71.7773 0.00928706
30.1841 74.2794 2
32.6054 74.6784 0
29.8128 8.00035 3.97959
31.2548 5.33419 3.98689
31.7894 7.42266 2
32.9824 2.70182 3.99259
33.3489 4.926 2
33.7255 6.98482 0.0171302
35.0474 0.080333 4
35.2455 2.46338 2
35.4369 4.68774 0.0110798
37.5 0 2
37.5159 2.38776 0.00701718
39.9526 0.0806499 0
40.5862 35.887 3.5977
42.2227 35.7404 2
43.4376 35.616 0.343703
28.547 10.7025 3.97708
39.0711 34.3305 3.53401
40.4873 34.3841 2
41.8997 34.2592 0.555812
47.2667 34.3675 0.059678
44.0783 33.1601 0.164399
41.8333 32.5721 0.302874
40.5703 32.9299 0.577317
45.4278 31.7742 2
43.0483 31.3569 2
40.7638 31.5253 2
39.1821 32.6694 2
43.791 30.0277 3.88922
41.5579 30.0704 3.84041
39.3772 30.9556 3.64105
37.5321 32.5751 3.52378
34.1001 12.9531 3.97532
35.6967 11.7757 2
37.3117 10.6352 0.0186406
31.1929 12.0007 3.97787
33.1028 11.2274 2
34.7571 10.3908 0.0202522
30.4843 10.0229 2
32.381 9.37637 0.0225066
46.9302 29.7444 0.0168881
46.6773 25.3366 0.0266496
36.586 12.9673 0.0252214
44.1956 21.6322 0.0187681
41.7178 17.9622 0.0226233
38.6761 14.8702 0.0244253
35.7738 14.8129 2
44.9141 27.883 2
38.658 17.6941 2
41.2568 20.9674 2
43.5251 24.2551 2
33.6173 15.9111 3.98791
42.6965 26.7166 3.98202
40.7719 23.5807 3.99406
38.3832 20.472 3.99441
35.8449 17.5757 3.9874
39.088 37.4868 3.55293
40.5913 37.4482 2
42.3873 37.4631 0.495065
43.5879 54.3219 0.00297768
43.2975 50.2382 -0.00335569
40.5281 39.0282 0.409011
41.5329 44.8826 0.160023
41.6239 47.2906 0.0762755
39.3475 44.0126 0.358366
39.058 40.6499 0.461873
37.503 42.4147 0.473428
41.7289 52.784 2
39.0588 39.0591 2
37.5005 40.6967 2
40.7528 49.3903 2
35.8529 42.3192 2
39.7176 45.6616 2
37.4956 44.3513 2
39.7083 51.5711 4.00262
37.5103 39.0724 3.58444
35.9612 40.665 3.53936
34.4664 42.0509 3.42535
35.6516 44.0298 3.63379
38.6522 48.2536 3.93296
37.532 45.894 3.83871
40.3618 54.7822 0.00522055
38.7168 53.5742 2
36.7664 52.9014 3.99688
35.3643 60.8777 0.0201544
36.9259 57.5595 0.00869569
37.9768 55.041 0.00515201
34.4915 58.473 2
36.318 55.116 2
33.2766 55.3302 3.99292
32.3693 59.6911 0.00366161
29.4263 60.2561 0.0227661
30.3455 57.7696 2
28.8476 55.2821 3.98956
28.0736 58.3324 -0.0160431
27.0516 56.7759 2
25.4989 55.0588 3.95466
22.0166 55.2412 3.96071
25.4253 58.5396 0.0209781
23.9627 56.7302 2
20.3257 56.9459 3.96279
20.6913 58.7136 3.96447
21.4539 57.3154 2
21.1872 61.1079 3.97238
22.0297 59.5592 2
22.8261 58.1749 0.031877
21.903 63.8132 3.97413
22.753 61.9806 2
23.4256 60.2834 0.0235895
24.4442 62.7402 0.0238558
23.6868 64.694 2
22.8392 66.7284 3.97856
25.5507 65.4798 0.0228727
24.8096 67.587 2
24.0119 69.8049 3.98951
26.8382 68.3252 0.0172175
26.1659 70.6033 2
25.446 73.0099 4
28.3723 71.2625 0.010106
27.7943 73.7222 2
30.1842 74.2788 0
27.8227 8.66001 3.98004
29.157 5.88109 3.98506
29.8112 7.99639 2
30.7279 3.09861 3.9923
31.2541 5.33275 2
31.7899 7.42419 0.018558
32.6053 0.320823 4
32.9812 2.70131 2
33.3494 4.9275 0.0121212
35.0474 0.0802903 2
35.2463 2.46363 0.00697726
37.5 0 0
39.0454 35.91 3.55441
40.5676 35.8855 2
42.2131 35.7399 0.549854
28.5446 10.6996 2
26.626 11.4007 3.97756
29.2339 12.6512 3.98135
37.5292 34.2915 3.57582
39.0909 34.3463 2
40.4755 34.378 0.430239
45.3927 31.7913 0.101912
43.0002 31.3946 0.177621
40.7182 31.5974 0.327161
39.1807 32.6898 0.524846
43.8203 29.9951 2
41.5864 30.0262 2
39.3887 30.8858 2
37.5347 32.549 2
41.9797 28.7215 3.86163
39.7041 29.3579 3.82706
37.5288 30.7044 3.68334
35.8708 32.6901 3.48221
31.9302 14.4997 3.9814
34.1002 12.958 2
35.6965 11.7891 0.0237985
31.1905 11.9917 2
33.1023 11.229 0.0272108
30.4867 10.0284 0.0229839
44.9208 27.8851 0.00610811
43.5391 24.2737 -0.0239507
35.7708 14.8072 0.0196007
41.2734 20.9767 0.00886088
38.6583 17.6906 0.0166626
33.6102 15.8941 2
35.8401 17.5659 2
42.7393 26.6946 2
38.3667 20.526 2
40.7638 23.5652 2
33.553 17.4554 3.98323
40.2058 26.0303 3.95959
38.0274 23.3335 3.99762
35.5535 20.2377 3.99629
37.518 37.4859 3.60008
39.0728 37.4779 2
40.5845 37.4431 0.391176
41.7379 52.7831 -0.000227642
40.7731 49.3756 0.00623198
39.067 39.0712 0.456978
39.6984 45.6004 0.195339
37.5005 44.2849 0.322273
37.5055 40.7045 0.423894
35.8517 42.3013 0.523765
39.689 51.5732 2
37.5116 39.07 2
35.958 40.6537 2
38.6712 48.3145 2
34.4367 42.0669 2
35.6328 44.0954 2
37.5219 45.9538 2
37.6813 50.561 3.99365
35.9765 39.0814 3.55414
34.5814 40.5984 3.57263
33.5058 41.7648 3.45555
34.343 43.3776 3.66593
35.2658 45.6282 3.82514
36.9204 47.8622 3.89756
38.7181 53.5751 0.00342826
36.7623 52.8667 2
34.4657 52.2245 3.99912
34.4934 58.4733 0.0065721
36.3142 55.1264 0.00254634
33.2822 55.3385 2
30.6909 53.2444 3.99557
30.3427 57.7745 0.0132908
28.8503 55.2771 2
27.1427 53.3443 3.95702
27.0481 56.7782 0.0306338
25.503 55.0595 2
23.8749 53.3518 3.95433
20.8366 53.078 3.95821
20.1142 55.7309 3.96154
22.0168 55.2428 2
23.9597 56.7287 0.0399993
19.5083 57.8173 3.96224
20.323 56.9479 2
19.7284 60.1405 3.97489
20.6906 58.715 2
21.451 57.3142 0.0416456
20.2185 62.8183 3.97144
21.1883 61.1097 2
22.0284 59.5579 0.0199658
20.9413 65.7539 3.97579
21.9033 63.8166 2
22.7515 61.9797 0.0271406
23.6869 64.6945 0.0251245
22.8384 66.7284 2
21.9147 68.8719 3.9886
24.8106 67.5866 0.0182067
24.0096 69.8041 2
23.1494 72.1454 4
26.1677 70.6032 0.0103942
25.446 73.0099 2
27.7943 73.7221 0
25.8621 9.38984 3.97855
27.0717 6.54545 3.98363
27.8203 8.65774 2
28.4904 3.64456 3.99145
29.1557 5.87873 2
29.8128 8.00035 0.0204117
30.1841 0.720592 4
30.7262 3.09828 2
31.2548 5.33419 0.0131066
32.6053 0.320817 2
32.9824 2.70182 0.00740699
35.0474 0.080333 0
37.5136 35.9051 3.57862
39.0286 35.9001 2
40.5862 35.887 0.402298
24.7841 12.0876 3.97623
23.7693 14.4018 3.97803
28.547 10.7025 0.0229204
26.6234 11.3967 2
29.2307 12.6496 2
27.3012 13.3859 3.97759
29.7976 14.2103 3.98353
35.9694 34.3306 3.54056
37.5376 34.2967 2
39.0711 34.3305 0.46599
37.5321 32.5751 0.476223
43.791 30.0277 0.110776
41.5579 30.0704 0.159591
39.3772 30.9556 0.358955
42.0158 28.6588 2
39.7291 29.2988 2
37.5307 30.638 2
35.873 32.6736 2
39.8684 27.9913 3.87458
37.4891 29.0862 3.83035
35.6848 30.9732 3.64302
34.4851 32.9425 3.42701
30.9478 16.8546 3.99268
31.9235 14.4847 2
34.1001 12.9531 0.0246803
31.1929 12.0007 0.0221288
42.6965 26.7166 0.0179802
40.7719 23.5807 0.00594065
33.6173 15.9111 0.0120872
35.8449 17.5757 0.0125998
38.3832 20.472 0.00558832
33.5452 17.4623 2
35.558 20.2455 2
40.2738 26.008 2
38.0169 23.2979 2
32.9005 19.8619 3.99555
37.6659 25.6665 3.96416
35.2641 22.9861 4.00393
35.9543 37.4815 3.55556
37.5084 37.4852 2
39.088 37.4868 0.447073
39.7083 51.5711 -0.00262114
38.6522 48.2536 0.0670432
37.5103 39.0724 0.415562
37.532 45.894 0.161288
35.6516 44.0298 0.366208
35.9612 40.665 0.460636
34.4664 42.0509 0.574647
37.6618 50.6003 2
35.999 39.0691 2
34.5405 40.5953 2
36.9098 47.925 2
33.468 41.7918 2
34.294 43.4462 2
35.2448 45.6835 2
35.5675 49.7555 3.98451
34.4757 39.0731 3.59504
33.1344 40.7167 3.45008
33.2197 42.402 3.70323
33.5058 44.89 3.82916
34.5106 47.0168 3.87011
36.7664 52.9014 0.00312492
34.4541 52.2365 2
32.2673 51.0383 4.00841
33.2766 55.3302 0.00708265
30.6952 53.2452 2
28.7478 51.4448 3.98141
28.8476 55.2821 0.0104367
27.1454 53.3416 2
25.4586 51.5848 3.95292
25.4989 55.0588 0.045344
23.8776 53.3585 2
22.4082 51.6391 3.95217
19.7026 51.4663 3.96182
19.2185 54.1829 3.96135
20.84 53.0761 2
18.5834 56.6359 3.96306
20.1132 55.7322 2
22.0166 55.2412 0.0392935
18.4018 59.0515 3.96446
19.506 57.8189 2
20.3257 56.9459 0.0372052
18.6329 61.7112 3.97164
19.7291 60.1424 2
20.6913 58.7136 0.0355324
19.131 64.6642 3.97465
20.2192 62.8222 2
21.1872 61.1079 0.0276221
19.889 67.8081 3.98603
20.9405 65.7532 2
21.903 63.8132 0.0258718
22.8392 66.7284 0.0214417
21.9119 68.8705 2
20.9142 71.1327 4
24.0119 69.8049 0.0104923
23.1494 72.1455 2
25.446 73.0099 0
23.1071 12.8167 3.97692
23.9747 10.1783 3.97562
25.0252 7.31667 3.98197
25.8591 9.38747 2
26.2822 4.32866 3.99053
27.0698 6.54419 2
27.8227 8.66001 0.0199552
27.7943 1.27781 4
28.488 3.64434 2
29.157 5.88109 0.014937
30.1841 0.720551 2
30.7279 3.09861 0.00769847
32.6053 0.320823 0
35.9583 35.894 3.54347
37.5368 35.9139 2
39.0454 35.91 0.445594
24.7803 12.0873 2
23.7693 14.405 2
22.5046 15.0934 3.97747
25.3709 13.9449 3.97167
24.0592 15.6606 3.98666
26.626 11.4007 0.0224439
29.2339 12.6512 0.0186531
27.3015 13.3836 2
29.7894 14.2088 2
28.3853 15.9769 3.98573
34.601 34.4003 3.56781
35.9686 34.3329 2
37.5292 34.2915 0.424179
35.8708 32.6901 0.517795
37.5288 30.7044 0.316655
41.9797 28.7215 0.138366
39.7041 29.3579 0.172945
39.8968 27.9452 2
37.4884 29.0281 2
35.6699 30.899 2
34.4505 32.9278 2
37.6282 27.7206 3.87105
35.3269 29.3731 3.8251
34.3475 31.6145 3.6718
33.5235 33.2268 3.45324
30.2449 19.4557 3.98108
30.9387 16.8413 2
31.9302 14.4997 0.018605
40.2058 26.0303 0.0404074
38.0274 23.3335 0.00237864
33.553 17.4554 0.0167702
35.5535 20.2377 0.00370766
32.9017 19.89 2
35.2557 22.9767 2
37.7124 25.6464 2
32.4597 22.6026 3.99729
35.1467 25.5727 3.98965
34.4362 37.5051 3.61356
35.9536 37.4926 2
37.518 37.4859 0.399922
37.6813 50.561 0.00635242
36.9204 47.8622 0.102443
35.9765 39.0814 0.445865
35.2658 45.6282 0.174864
34.343 43.3776 0.334074
34.5814 40.5984 0.427366
33.5058 41.7648 0.544454
35.5493 49.7695 2
34.4681 39.0718 2
33.1267 40.7294 2
34.4778 47.0758 2
33.1732 42.4629 2
33.4771 44.9377 2
33.4393 48.8565 3.97297
32.8072 39.2256 3.45495
32.2783 41.0128 3.65431
32.0487 43.5807 3.82826
32.7065 46.0078 3.87066
34.4657 52.2245 0.000882701
32.2799 51.0442 2
30.2953 49.5935 4.0006
30.6909 53.2444 0.00442657
28.752 51.4422 2
26.982 49.8088 3.97482
27.1427 53.3443 0.0429775
25.4602 51.5875 2
23.8635 49.9942 3.96607
23.8749 53.3518 0.0456748
22.4113 51.637 2
21.0345 50.1247 3.96419
18.4793 50.171 3.97034
18.2462 52.6473 3.96436
19.6996 51.4655 2
17.6743 55.2333 3.96236
19.2177 54.1825 2
20.8366 53.078 0.0417887
17.218 57.8055 3.96083
18.5803 56.6371 2
20.1142 55.7309 0.0384576
17.1482 60.5 3.96637
18.4012 59.0526 2
19.5083 57.8173 0.0377589
17.4145 63.4394 3.96916
18.6344 61.7122 2
19.7284 60.1405 0.0251132
17.9449 66.6155 3.98417
19.1306 64.6624 2
20.2185 62.8183 0.0285576
18.75 69.9759 4
19.8861 67.8055 2
20.9413 65.7539 0.0242144
21.9147 68.8719 0.0114033
20.9142 71.1327 2
23.1494 72.1454 0
21.6033 13.6508 3.97441
22.1953 11.0477 3.97326
23.1049 12.8182 2
23.0424 8.18353 3.97931
23.9723 10.1801 2
24.12 5.14352 3.98999
25.0226 7.31541 2
25.8621 9.38984 0.0214488
25.446 1.99014 4
26.2792 4.32928 2
27.0717 6.54545 0.0163735
27.7943 1.27778 2
28.4904 3.64456 0.00855494
30.1841 0.720592 0
34.5056 35.9296 3.58999
35.9711 35.9095 2
37.5136 35.9051 0.421381
21.3403 15.8981 3.97642
24.7841 12.0876 0.0237735
23.7693 14.4018 0.0219746
25.3697 13.9209 2
22.5063 15.0874 2
24.0631 15.6653 2
23.3104 16.301 3.96598
25.4166 16.1303 3.98642
27.3012 13.3859 0.022415
29.7976 14.2103 0.016471
28.376 15.9923 2
27.4849 18.8887 3.98314
33.147 34.2824 3.46043
34.5585 34.4128 2
35.9694 34.3306 0.459443
34.4851 32.9425 0.57299
35.6848 30.9732 0.356981
37.4891 29.0862 0.169654
39.8684 27.9913 0.125416
37.5991 27.6811 2
33.4898 33.2017 2
35.3242 29.3099 2
34.3028 31.5442 2
35.2142 27.8112 3.88487
33.4973 30.0918 3.8311
33.2403 32.5888 3.70135
29.7751 22.0597 4.00713
30.2464 19.4713 2
30.9478 16.8546 0.00731805
37.6659 25.6665 0.0358358
35.2641 22.9861 -0.00393397
32.9005 19.8619 0.00444532
32.4614 22.5905 2
35.1739 25.5645 2
32.043 25.8747 4.00737
32.6312 37.5023 3.50321
34.4451 37.4988 2
35.9543 37.4815 0.444445
35.5675 49.7555 0.0154884
34.5106 47.0168 0.129894
34.4757 39.0731 0.404959
33.5058 44.89 0.170836
33.2197 42.402 0.296767
33.1344 40.7167 0.549922
33.4214 48.8575 2
32.8142 39.2345 2
32.2324 41.0641 2
32.6796 46.0607 2
31.9958 43.615 2
31.6448 47.7013 3.98192
31.5918 39.3663 3.65662
30.9639 41.8245 3.84009
31.1278 44.6431 3.88107
32.2673 51.0383 -0.00841335
30.3034 49.6233 2
28.4667 47.9838 3.96844
28.7478 51.4448 0.0185855
26.9823 49.8116 2
25.2837 48.2498 3.96559
25.4586 51.5848 0.0470831
23.8669 49.9928 2
22.3278 48.5694 3.97113
22.4082 51.6391 0.0478347
21.0351 50.1234 2
19.6029 48.9117 3.97368
17.3545 49.1868 3.9751
17.1873 51.2697 3.96938
18.4813 50.1692 2
16.6907 53.7552 3.96562
18.2435 52.6471 2
19.7026 51.4663 0.0381823
16.1217 56.3976 3.96197
17.6743 55.2335 2
19.2185 54.1829 0.0386513
15.7689 59.168 3.96223
17.2128 57.8075 2
18.5834 56.6359 0.0369364
15.7938 62.1003 3.96804
17.1501 60.502 2
18.4018 59.0515 0.0355363
16.0915 65.2976 3.98202
17.4135 63.4442 2
18.6329 61.7112 0.0283581
16.6661 68.6801 4
17.9421 66.6125 2
19.131 64.6642 0.0253487
18.75 69.9759 2
19.889 67.8081 0.0139704
20.9142 71.1327 0
20.2394 14.6584 3.96808
21.601 13.6623 2
20.5379 12.0325 3.97359
21.1458 9.15685 3.97696
22.1922 11.0457 2
23.1071 12.8167 0.0230836
22.0191 6.08212 3.98916
23.0401 8.18395 2
23.9747 10.1783 0.0243768
23.1494 2.85457 4
24.1162 5.14445 2
25.0252 7.31667 0.0180311
25.446 1.99012 2
26.2822 4.32866 0.00947397
27.7943 1.27781 0
32.7973 35.7842 3.46874
34.4867 35.9293 2
35.9583 35.894 0.456534
21.3439 15.8913 2
20.3574 17.0247 3.96629
22.1435 16.698 3.96389
25.3709 13.9449 0.0283331
22.5046 15.0934 0.0225291
24.0592 15.6606 0.0133351
25.4184 16.127 2
23.3151 16.2971 2
24.267 18.5808 3.97036
27.2079 21.6831 3.99378
28.3853 15.9769 0.0142703
27.4825 18.9307 2
32.3166 33.9787 3.64864
33.1415 34.2661 2
34.601 34.4003 0.432191
33.5235 33.2268 0.546757
34.3475 31.6145 0.328197
35.3269 29.3731 0.174898
37.6282 27.7206 0.128952
35.2145 27.7636 2
33.1672 32.5264 2
33.4669 30.0492 2
32.9508 28.4551 3.89313
32.0565 31.4099 3.81899
29.1772 24.5552 4.00931
29.7606 22.0863 2
30.2449 19.4557 0.0189218
35.1467 25.5727 0.0103453
32.4597 22.6026 0.00271389
32.0317 25.8476 2
30.1956 27.5384 3.97619
31.1835 37.4911 3.66187
32.6342 37.5016 2
34.4362 37.5051 0.386441
33.4393 48.8565 0.0270344
32.7065 46.0078 0.129341
32.8072 39.2256 0.545054
32.0487 43.5807 0.171742
32.2783 41.0128 0.345687
31.5964 47.7275 2
31.5127 39.3862 2
30.9135 41.8643 2
31.0836 44.6833 2
29.9001 46.31 3.98951
30.1307 39.7877 3.84847
29.6451 42.933 3.89345
30.2953 49.5935 -0.000595204
28.4648 47.9855 2
26.7061 46.4149 3.98019
26.982 49.8088 0.0251839
25.2856 48.2483 2
23.5857 46.8319 3.97321
23.8635 49.9942 0.0339322
22.3283 48.5693 2
20.6171 47.4184 3.97651
21.0345 50.1247 0.0358127
19.6039 48.91 2
18.1949 48.0169 3.97695
16.5863 48.5483 3.97655
17.3546 49.1857 2
16.2499 50.0437 3.97361
15.6987 52.3045 3.96944
17.1887 51.2686 2
18.4793 50.171 0.0296639
15.0773 54.8911 3.96407
16.6915 53.7549 2
18.2462 52.6473 0.0356385
14.5127 57.6961 3.96139
16.1225 56.3977 2
17.6743 55.2333 0.0376413
14.2717 60.667 3.96726
15.7717 59.1687 2
17.218 57.8055 0.0391741
14.3364 63.8539 3.97767
15.7947 62.1017 2
17.1482 60.5 0.0336273
14.6715 67.2507 4
16.0892 65.2939 2
17.4145 63.4394 0.0308353
16.6661 68.6801 2
17.9449 66.6155 0.0158297
18.75 69.9759 0
18.9604 15.8402 3.975
20.241 14.6558 2
18.9918 13.1564 3.97251
21.6033 13.6508 0.0255908
20.5363 12.0325 2
19.3464 10.2481 3.97402
19.9939 7.14755 3.98709
21.143 9.1572 2
22.1953 11.0477 0.0267406
20.9142 3.86727 4
22.0148 6.08444 2
23.0424 8.18353 0.020685
23.1494 2.85451 2
24.12 5.14352 0.0100063
25.446 1.99014 0
31.619 35.6311 3.65139
32.7994 35.7755 2
34.5056 35.9296 0.410008
21.3403 15.8981 0.0235769
22.1466 16.691 2
20.3596 17.021 2
19.3715 18.4968 3.95773
21.8421 17.9506 3.97657
25.4166 16.1303 0.0135827
23.3104 16.301 0.0340181
24.2562 18.6022 2
22.4563 20.0252 3.97629
24.7907 21.541 3.98832
26.8038 23.8368 3.9848
27.2129 21.5977 2
27.4849 18.8887 0.0168625
31.0165 33.1744 3.84114
32.2704 33.9248 2
33.147 34.2824 0.539573
33.2403 32.5888 0.298655
33.4973 30.0918 0.168902
35.2142 27.8112 0.115126
32.912 28.4224 2
32.0007 31.3655 2
30.819 29.8336 3.91892
28.4629 26.7204 3.99732
29.1642 24.5517 2
29.7751 22.0597 -0.00713453
32.043 25.8747 -0.00737398
30.1876 27.5137 2
29.6889 37.4881 3.84639
31.1154 37.4892 2
32.6312 37.5023 0.49679
31.6448 47.7013 0.018076
31.1278 44.6431 0.118929
31.5918 39.3663 0.343377
30.9639 41.8245 0.159905
29.9032 46.3151 2
30.0531 39.8028 2
29.6129 42.9593 2
28.189 44.6366 3.96839
27.8867 40.5031 3.93007
28.4667 47.9838 0.0315645
26.7049 46.4156 2
24.901 44.9454 3.97925
25.2837 48.2498 0.0344141
23.5848 46.831 2
21.6495 45.7026 3.97784
22.3278 48.5694 0.0288662
20.6179 47.4172 2
18.9356 46.5706 3.97646
19.6029 48.9117 0.0263223
18.1957 48.0155 2
16.8308 47.5723 3.97626
16.5877 48.5472 2
15.5976 48.8955 3.97552
17.3545 49.1868 0.0249019
16.2518 50.0426 2
14.8107 50.8824 3.97283
14.0482 53.3535 3.96705
15.6999 52.3038 2
17.1873 51.2697 0.0306199
13.3532 56.12 3.9613
15.0775 54.8909 2
16.6907 53.7552 0.0343753
12.8596 59.1064 3.96545
14.5173 57.6957 2
16.1217 56.3976 0.038032
12.6824 62.2967 3.97579
14.2731 60.6669 2
15.7689 59.168 0.0377685
12.7746 65.6939 4
14.3342 63.8505 2
15.7938 62.1003 0.0319588
14.6714 67.2507 2
16.0915 65.2976 0.0179769
16.6661 68.6801 0
17.7341 17.223 3.96213
18.9604 15.839 2
17.5283 14.4242 3.96785
20.2394 14.6584 0.0319175
18.9914 13.161 2
17.6443 11.4737 3.97307
20.5379 12.0325 0.0264099
19.3428 10.2489 2
18.0541 8.34118 3.9847
18.75 5.0241 4
19.9891 7.15034 2
21.1458 9.15685 0.0230368
20.9142 3.86727 2
22.0191 6.08212 0.0108366
23.1494 2.85457 0
30.1593 35.2116 3.84699
31.5404 35.607 2
32.7973 35.7842 0.531261
22.1435 16.698 0.0361107
20.3574 17.0247 0.0337058
21.8409 17.9493 2
19.3639 18.4904 2
18.2131 20.0533 3.96164
21.038 19.4956 3.96565
24.267 18.5808 0.0296386
22.447 20.0314 2
24.7974 21.5261 2
22.6417 21.8713 3.9802
25.0828 23.2733 3.97243
26.0703 26.094 3.97871
26.801 23.831 2
27.2079 21.6831 0.00621678
29.4099 32.5226 3.89345
30.9437 33.1392 2
32.3166 33.9787 0.351356
32.0565 31.4099 0.181014
32.9508 28.4551 0.106869
30.7965 29.8231 2
27.8393 29.3036 4.01365
28.451 26.725 2
29.1772 24.5552 -0.0093056
30.1956 27.5384 0.0238098
28.0401 37.3676 3.89324
29.6134 37.4828 2
31.1835 37.4911 0.338128
29.9001 46.31 0.01049
29.6451 42.933 0.106552
30.1307 39.7877 0.15153
28.1845 44.6917 2
27.8544 40.505 2
26.2841 43.0189 3.98498
25.1637 39.435 3.97176
26.7061 46.4149 0.019813
24.8907 44.9474 2
22.8203 43.7399 3.97531
23.5857 46.8319 0.0267932
21.6463 45.7039 2
19.7159 44.8085 3.97605
20.6171 47.4184 0.0234933
18.9354 46.571 2
17.1931 46.0714 3.97604
18.1949 48.0169 0.0230459
16.8319 47.5717 2
15.3661 47.5501 3.97586
16.5863 48.5483 0.0234466
15.5995 48.8946 2
14.1211 49.4497 3.97493
16.2499 50.0437 0.02639
14.812 50.8816 2
13.1175 51.8002 3.96963
12.2595 54.4809 3.96346
14.0486 53.353 2
15.6987 52.3045 0.0305569
11.5474 57.4455 3.96334
13.3538 56.1198 2
15.0773 54.8911 0.0359343
11.1378 60.6217 3.9715
12.8614 59.1056 2
14.5127 57.6961 0.038608
10.9835 64.0165 4
12.6806 62.2922 2
14.2717 60.667 0.0327364
12.7745 65.694 2
14.3364 63.8539 0.0223296
14.6715 67.2507 0
16.5456 18.7324 3.96176
17.7262 17.2191 2
16.1231 15.8275 3.96451
18.9604 15.8402 0.024996
17.5286 14.4215 2
16.0284 12.8437 3.96955
18.9918 13.1564 0.0274937
17.642 11.4827 2
16.2053 9.66559 3.98221
19.3464 10.2481 0.0259761
18.049 8.34616 2
16.6661 6.31991 4
18.75 5.02404 2
19.9939 7.14755 0.0129061
20.9142 3.86727 0
28.5533 34.8554 3.89573
30.0691 35.1741 2
31.619 35.6311 0.348613
16.9573 21.4907 3.96755
21.8421 17.9506 0.0234291
19.3715 18.4968 0.0422746
21.0264 19.4914 2
18.2138 20.0512 2
20.0454 21.7153 3.97171
22.4563 20.0252 0.0237124
24.7907 21.541 0.0116766
22.6395 21.8765 2
25.0739 23.2793 2
23.3828 24.7596 3.97183
25.3922 28.6936 3.98382
26.0632 26.1005 2
26.8038 23.8368 0.0152045
27.2657 31.8821 3.98162
29.3725 32.5004 2
31.0165 33.1744 0.158864
30.819 29.8336 0.0810775
27.8514 29.2795 2
28.4629 26.7204 0.00268485
25.8634 36.847 3.97227
28.0179 37.3681 2
29.6889 37.4881 0.153607
28.189 44.6366 0.031608
27.8867 40.5031 0.0699276
26.2612 43.042 2
25.137 39.4389 2
24.0403 41.758 3.98195
22.882 38.5211 3.97914
24.901 44.9454 0.0207463
22.818 43.741 2
20.6026 42.7614 3.9752
21.6495 45.7026 0.0221571
19.7165 44.809 2
17.6061 44.253 3.97543
18.9356 46.5706 0.0235373
17.1936 46.0716 2
15.332 45.9772 3.97565
16.8308 47.5723 0.0237415
15.3675 47.5493 2
13.6526 47.9155 3.97562
15.5976 48.8955 0.024481
14.1229 49.4488 2
12.3499 50.184 3.97176
14.8107 50.8824 0.0271678
13.1184 51.7994 2
11.2554 52.7955 3.96502
10.3477 55.7005 3.96359
12.2601 54.4804 2
14.0482 53.3535 0.0329487
9.70462 58.8454 3.97244
11.5497 57.4443 2
13.3532 56.12 0.0387042
9.30605 62.2254 4
11.1364 60.6175 2
12.8596 59.1064 0.0345476
10.9835 64.0165 2
12.6824 62.2967 0.0242097
12.7746 65.6939 0
15.3396 20.2716 3.964
16.5486 18.732 2
14.7984 17.3512 3.9628
17.7341 17.223 0.0378692
16.1251 15.8259 2
14.4904 14.3241 3.96813
17.5283 14.4242 0.0321464
16.0278 12.8404 2
14.4477 11.1176 3.97962
17.6443 11.4737 0.0269296
16.2007 9.67137 2
14.6715 7.74927 4
18.0541 8.34118 0.0152964
16.6661 6.31988 2
18.75 5.0241 0
26.5124 34.3704 3.97416
28.5362 34.863 2
30.1593 35.2116 0.153005
18.2233 22.4601 3.97491
15.8634 23.0347 3.97163
16.961 21.4905 2
21.038 19.4956 0.0343546
18.2131 20.0533 0.0383581
20.0454 21.7135 2
20.1743 24.5567 3.97195
22.6417 21.8713 0.0197991
25.0828 23.2733 0.0275656
23.3785 24.761 2
22.755 28.0314 3.97154
24.8315 31.3832 3.98241
25.3982 28.6801 2
26.0703 26.094 0.0212934
27.2383 31.8435 2
29.4099 32.5226 0.106555
27.8393 29.3036 -0.0136514
23.6132 36.3028 3.97839
25.842 36.8421 2
28.0401 37.3676 0.106759
26.2841 43.0189 0.0150209
25.1637 39.435 0.0282363
24.0185 41.7563 2
22.8676 38.5165 2
21.7186 40.5817 3.97444
21.0632 37.7988 3.97674
22.8203 43.7399 0.0246866
20.6028 42.7615 2
18.0872 42.0073 3.97565
19.7159 44.8085 0.0239515
17.6064 44.2532 2
15.3814 44.1 3.97534
17.1931 46.0714 0.0239623
15.3324 45.977 2
13.3532 46.2074 3.9757
15.3661 47.5501 0.0241394
13.6542 47.9147 2
11.7404 48.4857 3.97375
14.1211 49.4497 0.0250738
12.3517 50.183 2
10.3865 51.043 3.9664
13.1175 51.8002 0.0303748
11.256 52.7947 2
9.25931 53.8814 3.96375
8.38808 56.9801 3.97393
10.3525 55.6984 2
12.2595 54.4809 0.0365399
7.74927 60.3285 4
9.70332 58.8411 2
11.5474 57.4455 0.0366646
9.306 62.2255 2
11.1378 60.6217 0.0284993
10.9835 64.0165 0
14.1783 21.8348 3.96762
15.3385 20.2705 2
13.5299 18.9485 3.96236
16.5456 18.7324 0.0382445
14.7995 17.3502 2
13.0366 15.9091 3.96847
16.1231 15.8275 0.0354908
14.4925 14.3226 2
12.7856 12.6931 3.97671
16.0284 12.8437 0.0304546
14.4446 11.1247 2
12.7746 9.30605 4
16.2053 9.66559 0.0177937
14.6715 7.74924 2
16.6661 6.31991 0
24.1863 33.8849 3.98089
26.4924 34.3704 2
28.5533 34.8554 0.104269
18.0996 24.1937 3.97319
18.2319 22.4608 2
14.6973 24.5631 3.97363
15.8653 23.0345 2
16.9573 21.4907 0.0324527
19.7193 27.3955 3.97395
20.0454 21.7153 0.0282852
20.1677 24.555 2
22.1359 30.846 3.97436
23.3828 24.7596 0.0281729
22.755 28.0339 2
24.7956 31.3836 2
25.3922 28.6936 0.016178
27.2657 31.8821 0.0183777
21.1793 35.9653 3.97666
23.6112 36.3027 2
25.8634 36.847 0.0277261
24.0403 41.758 0.0180494
22.882 38.5211 0.0208637
21.7234 40.5846 2
21.0635 37.798 2
18.8529 38.9802 3.97703
20.6026 42.7614 0.0248017
18.0872 42.0072 2
15.3663 41.8542 3.97598
17.6061 44.253 0.0245703
15.381 44.1 2
13.1166 44.3186 3.97568
15.332 45.9772 0.0243471
13.3545 46.2068 2
11.2558 46.6753 3.97535
13.6526 47.9155 0.0243817
11.7425 48.4846 2
9.65653 49.206 3.96799
12.3499 50.184 0.028236
10.3875 51.042 2
8.28961 51.9965 3.96391
11.2554 52.7955 0.0349769
9.26108 53.8795 2
7.19719 55.032 3.97494
6.31991 58.3339 4
8.38683 56.9758 2
10.3477 55.7005 0.0364102
7.74924 60.3285 2
9.70462 58.8454 0.0275594
9.30605 62.2254 0
13.5564 25.4552 3.97613
13.0812 23.3608 3.97062
14.1781 21.8342 2
12.3494 20.5976 3.96379
15.3396 20.2716 0.0360033
13.5307 18.9476 2
11.6703 17.5818 3.96631
14.7984 17.3512 0.0372028
13.0402 15.9082 2
11.2238 14.3791 3.97271
14.4904 14.3241 0.0318726
12.7835 12.6992 2
10.9835 10.9835 4
14.4477 11.1176 0.0203817
12.7745 9.306 2
14.6715 7.74927 0
21.5271 33.5065 3.9763
24.1904 33.8696 2
26.5124 34.3704 0.0258357
16.4267 26.5455 3.97462
18.1031 24.1935 2
18.2233 22.4601 0.0250917
14.6963 24.563 2
15.8634 23.0347 0.028368
19.122 30.3351 3.97465
19.7196 27.3959 2
20.1743 24.5567 0.0280514
22.1543 30.8474 2
22.755 28.0314 0.0284607
24.8315 31.3832 0.0175891
18.4537 36.0027 3.97778
21.1818 35.9653 2
23.6132 36.3028 0.0216138
21.7186 40.5817 0.0255618
21.0632 37.7988 0.0232585
18.8516 38.9795 2
14.8607 39.1562 3.97694
18.0872 42.0073 0.0243522
15.3657 41.854 2
12.811 42.2289 3.97601
15.3814 44.1 0.0246642
13.1172 44.3183 2
10.8438 44.752 3.97623
13.3532 46.2074 0.024298
11.2584 46.6741 2
9.04358 47.2891 3.96927
11.7404 48.4857 0.026254
9.65781 49.2051 2
7.45214 50.0313 3.96402
10.3865 51.043 0.0336016
8.28943 51.9949 2
6.13774 53.0079 3.97516
9.25931 53.8814 0.0362475
7.19638 55.0283 2
5.0241 56.25 4
6.31988 58.3339 2
8.38808 56.9801 0.0260684
7.74927 60.3285 0
13.8403 26.9134 3.9758
12.19 24.8584 3.97376
13.5558 25.4552 2
11.2797 22.2806 3.96581
13.0814 23.3608 2
14.1783 21.8348 0.0323819
12.3518 20.5975 2
10.407 19.3307 3.96429
13.5299 18.9485 0.0376392
11.674 17.5815 2
9.76483 16.1625 3.97174
13.0366 15.9091 0.0315256
11.2226 14.3847 2
9.30607 12.7746 4
12.7856 12.6931 0.0232875
10.9835 10.9835 2
12.7746 9.30605 0
18.6134 33.1936 3.97594
21.5253 33.5102 2
24.1863 33.8849 0.0191125
16.0524 29.7616 3.97539
16.4261 26.5453 2
18.0996 24.1937 0.0268142
14.6973 24.5631 0.0263693
19.1202 30.335 2
19.7193 27.3955 0.02605
22.1359 30.846 0.0256356
15.4969 36.0383 3.97742
18.4533 36.0033 2
21.1793 35.9653 0.023338
13.0419 37.828 3.97697
18.8529 38.9802 0.0229698
14.8604 39.1561 2
12.3102 40.1143 3.97653
15.3663 41.8542 0.024025
12.8112 42.2284 2
10.4448 42.7401 3.9761
13.1166 44.3186 0.0243181
10.8461 44.7509 2
8.51985 45.2966 3.97048
11.2558 46.6753 0.0246545
9.04463 47.2884 2
6.73941 47.9974 3.96423
9.65653 49.206 0.0320063
7.45082 50.0301 2
5.21432 50.9113 3.97474
8.28961 51.9965 0.0360913
6.13739 53.005 2
3.86727 54.0858 4
7.19719 55.032 0.0250563
5.02404 56.25 2
6.31991 58.3339 0
13.3229 29.1178 3.97512
11.6352 26.5525 3.9747
13.8401 26.9136 2
10.3318 24.0065 3.9679
12.1929 24.8591 2
13.5564 25.4552 0.0238651
9.27246 21.1476 3.9644
11.2799 22.2806 2
13.0812 23.3608 0.0293809
12.3494 20.5976 0.0362103
10.4167 19.3326 2
8.42093 18.0319 3.97362
11.6703 17.5818 0.0336939
9.76414 16.1671 2
7.74928 14.6715 4
11.2238 14.3791 0.0272937
9.30602 12.7745 2
10.9835 10.9835 0
15.0379 32.9249 3.97622
18.6123 33.193 2
21.5271 33.5065 0.0236991
16.0526 29.7616 2
16.4267 26.5455 0.0253796
19.122 30.3351 0.0253454
13.3452 36.2215 3.97673
15.4965 36.0383 2
18.4537 36.0027 0.0222249
13.0417 37.8279 2
11.6334 38.3038 3.9768
14.8607 39.1562 0.0230632
12.3108 40.1142 2
10.0203 40.7328 3.97632
12.811 42.2289 0.0239924
10.4479 42.7395 2
8.06043 43.2523 3.97187
10.8438 44.752 0.0237737
8.52246 45.2958 2
6.14035 45.9033 3.96481
9.04358 47.2891 0.030727
6.73748 47.9965 2
4.42541 48.7517 3.97437
7.45214 50.0313 0.0359827
5.21438 50.9094 2
2.85457 51.8506 4
6.13774 53.0079 0.0248388
3.86727 54.0858 2
5.0241 56.25 0
12.4522 31.3129 3.976
11.0466 28.4706 3.97574
13.3231 29.1179 2
9.54657 25.8316 3.96901
11.638 26.5532 2
13.8403 26.9134 0.0242038
8.25534 23.0291 3.96458
10.3337 24.0071 2
12.19 24.8584 0.0262444
7.20303 19.9797 3.9749
9.27885 21.1494 2
11.2797 22.2806 0.0341877
10.407 19.3307 0.035707
8.41979 18.036 2
6.31992 16.6661 4
9.76483 16.1625 0.0282562
7.74926 14.6714 2
9.30607 12.7746 0
12.4881 34.3271 3.97651
15.0373 32.9255 2
18.6134 33.1936 0.0240614
16.0524 29.7616 0.0246071
11.1677 36.6204 3.97659
13.345 36.2215 2
15.4969 36.0383 0.0225818
13.0419 37.828 0.0230342
11.6344 38.3034 2
9.5989 38.816 3.97662
12.3102 40.1143 0.0234657
10.0233 40.7323 2
7.66256 41.2005 3.97262
10.4448 42.7401 0.0238969
8.0615 43.2517 2
5.65127 43.7666 3.9655
8.51985 45.2966 0.0295195
6.14032 45.9026 2
3.77071 46.5369 3.97448
6.73941 47.9974 0.0357705
4.42594 48.7506 2
1.99014 49.554 4
5.21432 50.9113 0.0252595
2.85451 51.8506 2
3.86727 54.0858 0
11.256 32.9584 3.9765
10.3526 30.4255 3.97602
12.4524 31.3135 2
8.85346 27.7602 3.96945
11.0491 28.4714 2
13.3229 29.1178 0.0248758
7.3749 24.986 3.96456
9.5484 25.8323 2
11.6352 26.5525 0.0252957
6.12001 22.0018 3.9755
8.25701 23.0305 2
10.3318 24.0065 0.0320952
5.02411 18.75 4
7.20245 19.9833 2
9.27246 21.1476 0.0355985
8.42093 18.0319 0.0263751
6.3199 16.6661 2
7.74928 14.6715 0
10.7505 35.019 3.9765
12.4875 34.3273 2
15.0379 32.9249 0.0237812
9.25478 36.9886 3.97672
11.169 36.6204 2
13.3452 36.2215 0.023272
11.6334 38.3038 0.023201
9.60213 38.8156 2
7.33707 39.1775 3.97273
10.0203 40.7328 0.0236846
7.66467 41.2 2
5.2661 41.6127 3.96594
8.06043 43.2523 0.0281328
5.65165 43.766 2
3.24813 44.2815 3.97527
6.14035 45.9033 0.0351931
3.77122 46.5364 2
1.27781 47.2057 4
4.42541 48.7517 0.0256325
1.99012 49.554 2
2.85457 51.8506 0
10.3834 33.9069 3.97623
9.62697 32.1848 3.97642
11.2574 32.9589 2
8.19045 29.7172 3.97028
10.3551 30.4264 2
12.4522 31.3129 0.0239989
6.6122 27.0106 3.96475
8.85511 27.7608 2
11.0466 28.4706 0.0242591
5.17508 24.0941 3.97522
7.37374 24.9869 2
9.54657 25.8316 0.030987
3.86728 20.9142 4
6.11976 22.0043 2
8.25534 23.0291 0.0354173
5.02406 18.75 2
7.20303 19.9797 0.025098
6.31992 16.6661 0
9.06737 35.2921 3.97692
10.7521 35.0191 2
12.4881 34.3271 0.0234904
7.11416 37.2067 3.97241
9.25816 36.9884 2
11.1677 36.6204 0.0234134
9.5989 38.816 0.0233807
7.33962 39.1772 2
4.99318 39.4667 3.96665
7.66256 41.2005 0.027378
5.26683 41.6122 2
2.85838 42.0017 3.97571
5.65127 43.7666 0.0345043
3.24839 44.281 2
0.720592 44.8159 4
3.77071 46.5369 0.0255205
1.27778 47.2057 2
1.99014 49.554 0
9.10724 33.718 3.97695
10.3859 33.9072 2
7.6185 31.6247 3.97115
9.63014 32.1855 2
11.256 32.9584 0.023499
5.95228 29.0711 3.96509
8.19215 29.7178 2
10.3526 30.4255 0.0239791
4.36225 26.2468 3.97491
6.60983 27.0111 2
8.85346 27.7602 0.0305533
2.85458 23.1494 4
5.17526 24.0956 2
7.3749 24.986 0.0354421
3.86728 20.9142 2
6.12001 22.0018 0.024504
5.02411 18.75 0
7.06268 35.3116 3.972
9.07115 35.2922 2
10.7505 35.019 0.0234958
4.84326 37.3397 3.96711
7.11705 37.2066 2
9.25478 36.9886 0.023281
7.33707 39.1775 0.0272685
4.99392 39.4665 2
2.60621 39.7133 3.97627
5.2661 41.6127 0.0340571
2.85899 42.0015 2
0.320823 42.3947 4
3.24813 44.2815 0.0247336
0.720551 44.8159 2
1.27781 47.2057 0
7.2262 33.4712 3.9717
9.11091 33.7185 2
10.3834 33.9069 0.0237658
5.42233 31.1348 3.96578
7.62055 31.6251 2
9.62697 32.1848 0.0235799
3.68361 28.4433 3.97494
5.95242 29.0715 2
8.19045 29.7172 0.0297247
1.99015 25.446 4
4.36278 26.2476 2
6.6122 27.0106 0.0352494
2.85453 23.1494 2
5.17508 24.0941 0.0247818
3.86728 20.9142 0
4.85752 35.2521 3.96697
7.06478 35.3117 2
9.06737 35.2921 0.0230824
2.49764 37.4281 3.97716
4.84346 37.3399 2
7.11416 37.2067 0.027592
4.99318 39.4667 0.0333461
2.60692 39.7137 2
0.080333 39.9526 4
2.85838 42.0017 0.0242857
0.320817 42.3947 2
0.720592 44.8159 0
5.05109 33.1912 3.96658
7.22847 33.4714 2
9.10724 33.718 0.0230451
3.14764 30.6662 3.97559
5.42273 31.1354 2
7.6185 31.6247 0.0288478
1.27793 27.7943 4
3.68419 28.4436 2
5.95228 29.0711 0.0349142
1.99013 25.446 2
4.36225 26.2468 0.0250887
2.85458 23.1494 0
2.54971 35.1588 3.97689
4.85836 35.2525 2
7.06268 35.3116 0.0280047
0 37.5 4
2.49784 37.4285 2
4.84326 37.3397 0.0328868
2.60621 39.7133 0.0237301
0.0802903 39.9526 2
0.320823 42.3947 0
2.76743 32.9057 3.97682
5.05144 33.1917 2
7.2262 33.4712 0.0283009
0.721173 30.1842 4
3.14811 30.6667 2
5.42233 31.1348 0.034222
1.27779 27.7943 2
3.68361 28.4433 0.0250567
1.99015 25.446 0
0.0806499 35.0474 4
2.55051 35.1593 2
4.85752 35.2521 0.0330316
0 37.5 2
2.49764 37.4281 0.0228408
0.080333 39.9526 0
0.32156 32.6054 4
2.76772 32.9064 2
5.05109 33.1912 0.0334217
0.72056 30.1841 2
3.14764 30.6662 0.0244139
1.27793 27.7943 0
0.0802889 35.0474 2
2.54971 35.1588 0.0231057
0 37.5 0
0.320817 32.6053 2
2.76743 32.9057 0.023184
0.721173 30.1842 0
0.0806499 35.0474 0
0.32156 32.6054 0
CELLS 1910 17190
8 18 6 25 56 2 0 5 16
8 57 23 6 18 17 4 0 2
8 78 36 9 29 31 11 1 7
8 31 11 1 7 79 37 10 30
8 110 57 18 50 48 17 2 14
8 50 18 56 111 14 2 16 49
8 116 62 22 55 52 20 3 15
8 56 25 67 118 16 5 24 53
8 119 63 23 57 54 21 4 17
8 55 22 63 119 15 3 21 54
8 58 26 68 121 18 6 25 56
8 122 65 26 58 57 23 6 18
8 73 31 7 27 142 79 30 71
8 143 78 29 72 73 31 7 27
8 83 147 76 34 32 74 28 8
8 84 148 78 36 33 75 29 9
8 76 34 8 28 148 84 33 75
8 37 79 150 86 10 30 77 35
8 151 87 36 78 80 38 11 31
8 80 38 11 31 152 88 37 79
8 175 100 42 94 96 44 12 40
8 44 96 176 101 12 40 95 43
8 101 176 98 46 43 95 41 13
8 46 98 178 103 13 41 97 45
8 178 103 45 97 147 83 32 74
8 189 116 55 109 106 52 15 47
8 111 56 118 191 49 16 53 107
8 192 119 57 110 108 54 17 48
8 109 55 119 192 47 15 54 108
8 194 122 58 112 110 57 18 50
8 112 58 121 195 50 18 56 111
8 115 61 19 51 197 124 59 113
8 115 61 125 198 51 19 60 114
8 198 125 62 116 114 60 20 52
8 200 127 64 120 116 62 22 55
8 118 67 132 202 53 24 66 117
8 121 68 133 203 56 25 67 118
8 120 64 128 204 55 22 63 119
8 204 128 65 122 119 63 23 57
8 206 134 68 121 123 69 26 58
8 123 69 26 58 207 131 65 122
8 226 147 74 138 140 76 28 70
8 229 148 75 139 143 78 29 72
8 140 76 28 70 229 148 75 139
8 142 79 30 71 231 150 77 141
8 144 80 31 73 232 152 79 142
8 233 151 78 143 144 80 31 73
8 150 86 35 77 235 154 81 145
8 235 154 81 145 146 82 39 91
8 146 82 39 91 236 155 90 165
8 238 157 83 147 149 85 34 76
8 239 158 84 148 151 87 36 78
8 149 85 34 76 239 158 84 148
8 152 88 37 79 241 160 86 150
8 242 161 87 151 153 89 38 80
8 153 89 38 80 243 162 88 152
8 171 98 41 92 265 178 97 169
8 265 178 97 169 226 147 74 138
8 172 96 40 93 266 176 95 170
8 266 176 95 170 171 98 41 92
8 269 175 94 173 172 96 40 93
8 271 180 99 174 175 100 42 94
8 197 124 59 113 271 180 99 174
8 272 181 100 175 177 102 44 96
8 273 182 101 176 179 104 46 98
8 177 102 44 96 273 182 101 176
8 179 104 46 98 275 184 103 178
8 275 184 103 178 238 157 83 147
8 188 115 51 105 283 197 113 186
8 188 115 198 284 105 51 114 187
8 284 198 116 189 187 114 52 106
8 286 200 120 193 189 116 55 109
8 191 118 202 288 107 53 117 190
8 195 121 203 289 111 56 118 191
8 193 120 204 290 109 55 119 192
8 290 204 122 194 192 119 57 110
8 196 123 58 112 292 207 122 194
8 293 206 121 195 196 123 58 112
8 199 126 61 115 297 211 124 197
8 298 212 127 200 198 125 62 116
8 199 126 212 298 115 61 125 198
8 205 129 64 120 300 214 127 200
8 301 217 130 201 202 132 66 117
8 209 136 168 264 301 217 130 201
8 302 219 132 202 203 133 67 118
8 303 220 133 203 206 134 68 121
8 205 129 215 304 120 64 128 204
8 304 215 131 207 204 128 65 122
8 306 221 134 206 208 135 69 123
8 208 135 69 123 307 218 131 207
8 210 137 167 263 309 223 136 209
8 328 238 147 226 230 149 76 140
8 228 146 91 166 329 236 165 260
8 231 150 77 141 330 235 145 227
8 330 235 145 227 228 146 91 166
8 332 239 148 229 233 151 78 143
8 230 149 76 140 332 239 148 229
8 232 152 79 142 334 241 150 231
8 234 153 80 144 335 243 152 232
8 336 242 151 233 234 153 80 144
8 236 155 90 165 338 245 164 259
8 241 160 86 150 339 246 154 235
8 339 246 154 235 237 156 82 146
8 237 156 82 146 340 247 155 236
8 342 249 157 238 240 159 85 149
8 343 250 158 239 242 161 87 151
8 240 159 85 149 343 250 158 239
8 243 162 88 152 345 252 160 241
8 244 163 253 346 153 89 161 242
8 244 163 89 153 347 254 162 243
8 311 224 261 371 210 137 167 263
8 263 167 262 372 209 136 168 264
8 267 179 98 171 375 275 178 265
8 375 275 178 265 328 238 147 226
8 376 273 176 266 267 179 98 171
8 268 177 96 172 376 273 176 266
8 379 272 175 269 268 177 96 172
8 380 271 174 270 269 175 94 173
8 283 197 113 186 380 271 174 270
8 381 277 180 271 272 181 100 175
8 297 211 124 197 381 277 180 271
8 382 278 181 272 274 183 102 177
8 274 183 102 177 383 279 182 273
8 383 279 182 273 276 185 104 179
8 385 281 184 275 342 249 157 238
8 276 185 104 179 385 281 184 275
8 285 199 115 188 393 297 197 283
8 394 298 200 286 284 198 116 189
8 285 199 298 394 188 115 198 284
8 291 205 120 193 396 300 200 286
8 397 301 201 287 288 202 117 190
8 295 209 264 374 397 301 201 287
8 398 302 202 288 289 203 118 191
8 399 303 203 289 293 206 121 195
8 291 205 304 400 193 120 204 290
8 400 304 207 292 290 204 122 194
8 294 208 123 196 402 307 207 292
8 403 306 206 293 294 208 123 196
8 296 210 263 373 405 309 209 295
8 408 312 213 299 297 211 126 199
8 299 213 313 409 199 126 212 298
8 409 313 214 300 298 212 127 200
8 305 216 129 205 411 315 214 300
8 412 318 217 301 302 219 132 202
8 309 223 136 209 412 318 217 301
8 413 320 219 302 303 220 133 203
8 306 221 321 414 206 134 220 303
8 307 218 131 207 415 316 215 304
8 305 216 316 415 205 129 215 304
8 417 322 221 306 308 222 135 208
8 308 222 135 208 418 319 218 307
8 310 225 137 210 420 325 223 309
8 423 326 224 311 310 225 137 210
8 329 236 165 260 441 338 259 368
8 442 342 238 328 333 240 149 230
8 331 237 146 228 443 340 236 329
8 334 241 150 231 444 339 235 330
8 444 339 235 330 331 237 146 228
8 446 343 239 332 336 242 151 233
8 333 240 149 230 446 343 239 332
8 335 243 152 232 448 345 241 334
8 337 244 153 234 449 347 243 335
8 337 244 346 450 234 153 242 336
8 338 245 164 259 452 349 258 367
8 340 247 155 236 453 350 245 338
8 345 252 160 241 454 351 246 339
8 454 351 246 339 341 248 156 237
8 341 248 156 237 455 352 247 340
8 240 159 251 344 342 249 354 457
8 242 161 253 346 343 250 355 458
8 343 250 355 458 240 159 251 344
8 347 254 162 243 460 357 252 345
8 348 255 358 461 244 163 253 346
8 348 255 163 244 462 359 254 347
8 473 360 257 365 363 256 364 482
8 452 349 258 367 365 257 366 485
8 422 324 369 488 311 224 261 371
8 371 261 370 490 263 167 262 372
8 407 311 371 491 296 210 263 373
8 373 263 372 492 295 209 264 374
8 493 385 275 375 442 342 238 328
8 377 276 179 267 493 385 275 375
8 378 274 177 268 494 383 273 376
8 494 383 273 376 377 276 179 267
8 497 382 272 379 378 274 177 268
8 498 381 271 380 379 272 175 269
8 393 297 197 283 498 381 271 380
8 499 387 277 381 382 278 181 272
8 408 312 211 297 499 387 277 381
8 500 388 278 382 384 280 183 274
8 501 389 279 383 386 282 185 276
8 384 280 183 274 501 389 279 383
8 386 282 185 276 503 391 281 385
8 503 391 281 385 457 354 249 342
8 511 408 299 395 393 297 199 285
8 395 299 409 512 285 199 298 394
8 512 409 300 396 394 298 200 286
8 401 305 205 291 514 411 300 396
8 515 412 301 397 398 302 202 288
8 405 309 209 295 515 412 301 397
8 516 413 302 398 399 303 203 289
8 403 306 414 517 293 206 303 399
8 402 307 207 292 518 415 304 400
8 401 305 415 518 291 205 304 400
8 404 308 208 294 520 418 307 402
8 521 417 306 403 404 308 208 294
8 406 310 210 296 523 420 309 405
8 526 423 311 407 406 310 210 296
8 410 314 213 299 527 424 312 408
8 528 425 315 411 409 313 214 300
8 410 314 425 528 299 213 313 409
8 416 317 216 305 530 427 315 411
8 531 430 318 412 413 320 219 302
8 420 325 223 309 531 430 318 412
8 532 432 320 413 414 321 220 303
8 417 322 433 533 306 221 321 414
8 418 319 218 307 534 428 316 415
8 416 317 428 534 305 216 316 415
8 419 323 434 536 308 222 322 417
8 419 323 222 308 537 431 319 418
8 421 327 225 310 539 438 325 420
8 421 327 439 541 310 225 326 423
8 543 437 324 422 423 326 224 311
8 441 338 259 368 559 452 367 486
8 443 340 236 329 560 453 338 441
8 333 240 344 447 442 342 457 561
8 445 341 237 331 562 455 340 443
8 448 345 241 334 563 454 339 444
8 563 454 339 444 445 341 237 331
8 336 242 346 450 446 343 458 565
8 446 343 458 565 333 240 344 447
8 449 347 243 335 567 460 345 448
8 451 348 244 337 568 462 347 449
8 451 348 461 569 337 244 346 450
8 570 463 349 452 473 360 257 365
8 453 350 245 338 570 463 349 452
8 455 352 247 340 571 464 350 453
8 460 357 252 345 572 465 351 454
8 572 465 351 454 456 353 248 341
8 456 353 248 341 573 466 352 455
8 344 251 356 459 457 354 468 575
8 458 355 469 576 344 251 356 459
8 346 253 358 461 458 355 469 576
8 462 359 254 347 578 471 357 460
8 348 255 359 462 461 358 472 579
8 591 474 360 473 475 361 256 363
8 475 361 256 363 594 477 362 479
8 363 256 364 482 479 362 480 603
8 590 473 365 484 481 363 482 605
8 482 364 257 365 606 483 366 485
8 559 452 367 486 484 365 485 607
8 542 436 487 609 422 324 369 488
8 525 422 488 611 407 311 371 491
8 488 369 489 612 371 261 370 490
8 491 371 490 613 373 263 372 492
8 495 386 276 377 614 503 385 493
8 614 503 385 493 561 457 342 442
8 615 501 383 494 495 386 276 377
8 496 384 274 378 615 501 383 494
8 618 500 382 497 496 384 274 378
8 619 499 381 498 497 382 272 379
8 511 408 297 393 619 499 381 498
8 620 505 387 499 500 388 278 382
8 527 424 312 408 620 505 387 499
8 502 390 506 621 384 280 388 500
8 622 507 389 501 504 392 282 386
8 502 390 280 384 622 507 389 501
8 504 392 282 386 624 509 391 503
8 624 509 391 503 575 468 354 457
8 513 410 299 395 630 527 408 511
8 631 528 411 514 512 409 300 396
8 513 410 528 631 395 299 409 512
8 519 416 305 401 633 530 411 514
8 634 531 412 515 516 413 302 398
8 523 420 309 405 634 531 412 515
8 635 532 413 516 517 414 303 399
8 521 417 533 636 403 306 414 517
8 520 418 307 402 637 534 415 518
8 519 416 534 637 401 305 415 518
8 522 419 308 404 639 537 418 520
8 522 419 536 640 404 308 417 521
8 524 421 310 406 642 539 420 523
8 524 421 541 644 406 310 423 526
8 646 543 422 525 526 423 311 407
8 529 426 314 410 647 544 424 527
8 528 425 545 648 411 315 427 530
8 529 426 545 648 410 314 425 528
8 535 429 317 416 649 546 427 530
8 650 548 430 531 532 432 320 413
8 539 438 325 420 650 548 430 531
8 533 433 550 651 414 321 432 532
8 536 434 551 652 417 322 433 533
8 537 431 319 418 653 547 428 534
8 535 429 547 653 416 317 428 534
8 538 435 552 654 419 323 434 536
8 538 435 323 419 655 549 431 537
8 540 440 327 421 657 556 438 539
8 540 440 557 659 421 327 439 541
8 541 439 555 660 423 326 437 543
8 661 554 436 542 543 437 324 422
8 676 570 452 559 590 473 365 484
8 560 453 338 441 676 570 452 559
8 562 455 340 443 677 571 453 560
8 447 344 459 566 561 457 575 678
8 564 456 341 445 679 573 455 562
8 567 460 345 448 680 572 454 563
8 680 572 454 563 564 456 341 445
8 565 458 576 682 447 344 459 566
8 450 346 461 569 565 458 576 682
8 568 462 347 449 684 578 460 567
8 451 348 462 568 569 461 579 685
8 686 580 463 570 591 474 360 473
8 571 464 350 453 686 580 463 570
8 573 466 352 455 687 581 464 571
8 572 465 582 688 460 357 471 578
8 574 467 582 688 456 353 465 572
8 574 467 353 456 689 583 466 573
8 459 356 470 577 575 468 585 691
8 576 469 586 692 459 356 470 577
8 461 358 472 579 576 469 586 692
8 462 359 471 578 579 472 588 694
8 704 591 473 590 593 475 363 481
8 595 476 592 705 475 361 474 591
8 593 475 363 481 707 594 479 602
8 594 477 362 479 709 598 478 600
8 595 476 361 475 711 597 477 594
8 479 362 480 603 600 478 601 720
8 481 363 482 605 602 479 603 722
8 603 480 364 482 723 604 483 606
8 605 482 365 484 724 606 485 607
8 656 553 608 726 542 436 487 609
8 645 542 609 728 525 422 488 611
8 609 487 610 729 488 369 489 612
8 611 488 612 730 491 371 490 613
8 616 504 386 495 731 624 503 614
8 731 624 503 614 678 575 457 561
8 732 622 501 615 616 504 386 495
8 617 502 384 496 732 622 501 615
8 617 502 621 735 496 384 500 618
8 736 620 499 619 618 500 382 497
8 630 527 408 511 736 620 499 619
8 621 506 626 737 500 388 505 620
8 647 544 424 527 737 626 505 620
8 623 508 627 738 502 390 506 621
8 623 508 390 502 739 628 507 622
8 625 510 628 739 504 392 507 622
8 740 629 509 624 691 585 468 575
8 625 510 392 504 740 629 509 624
8 632 529 410 513 744 647 527 630
8 631 528 648 745 514 411 530 633
8 632 529 648 745 513 410 528 631
8 638 535 416 519 746 649 530 633
8 747 650 531 634 635 532 413 516
8 642 539 420 523 747 650 531 634
8 636 533 651 748 517 414 532 635
8 640 536 652 749 521 417 533 636
8 639 537 418 520 750 653 534 637
8 638 535 653 750 519 416 534 637
8 641 538 419 522 751 655 537 639
8 641 538 654 752 522 419 536 640
8 643 540 421 524 753 657 539 642
8 643 540 659 755 524 421 541 644
8 644 541 660 757 526 423 543 646
8 758 661 542 645 646 543 422 525
8 529 426 544 647 648 545 662 759
8 530 427 545 648 649 546 663 760
8 535 429 546 649 653 547 664 761
8 762 666 548 650 651 550 432 532
8 657 556 438 539 762 666 548 650
8 652 551 668 763 533 433 550 651
8 654 552 669 764 536 434 551 652
8 655 549 431 537 765 665 547 653
8 538 435 549 655 654 552 667 766
8 661 554 671 768 542 436 553 656
8 658 558 440 540 769 674 556 657
8 658 558 675 770 540 440 557 659
8 659 557 673 771 541 439 555 660
8 660 555 672 772 543 437 554 661
8 788 686 570 676 704 591 473 590
8 677 571 453 560 788 686 570 676
8 679 573 455 562 789 687 571 677
8 566 459 577 683 678 575 691 790
8 681 574 456 564 791 689 573 679
8 680 572 688 792 567 460 578 684
8 681 574 688 792 564 456 572 680
8 682 576 692 794 566 459 577 683
8 569 461 579 685 682 576 692 794
8 568 462 578 684 685 579 694 796
8 687 581 464 571 798 696 580 686
8 798 696 580 686 705 592 474 591
8 689 583 466 573 799 697 581 687
8 688 582 698 800 578 471 588 694
8 690 584 698 800 574 467 582 688
8 690 584 467 574 801 699 583 689
8 693 587 701 803 577 470 585 691
8 693 587 470 577 804 702 586 692
8 695 589 702 804 579 472 586 692
8 695 589 472 579 805 703 588 694
8 708 595 705 813 593 475 591 704
8 710 596 706 814 595 476 592 705
8 707 594 479 602 816 709 600 719
8 708 595 475 593 817 711 594 707
8 709 598 478 600 819 715 599 717
8 711 597 477 594 820 714 598 709
8 710 596 476 595 822 713 597 711
8 600 478 601 720 717 599 718 832
8 602 479 603 722 719 600 720 834
8 720 601 480 603 835 721 604 723
8 722 603 482 605 836 723 606 724
8 767 670 725 839 656 553 608 726
8 756 656 726 841 645 542 609 728
8 726 608 727 842 609 487 610 729
8 728 609 729 843 611 488 612 730
8 844 740 624 731 790 691 575 678
8 733 625 504 616 844 740 624 731
8 734 623 502 617 845 739 622 732
8 733 625 739 845 616 504 622 732
8 734 623 738 846 617 502 621 735
8 735 621 737 847 618 500 620 736
8 744 647 527 630 847 737 620 736
8 621 506 627 738 737 626 741 848
8 647 544 626 737 759 662 741 848
8 623 508 628 739 738 627 742 849
8 740 629 585 691 850 743 700 802
8 625 510 629 740 739 628 743 850
8 632 529 647 744 745 648 759 854
8 633 530 648 745 746 649 760 855
8 638 535 649 746 750 653 761 856
8 857 762 650 747 748 651 532 635
8 753 657 539 642 857 762 650 747
8 749 652 763 858 636 533 651 748
8 752 654 764 859 640 536 652 749
8 751 655 537 639 860 765 653 750
8 641 538 655 751 752 654 766 861
8 754 658 540 643 862 769 657 753
8 754 658 770 863 643 540 659 755
8 755 659 771 864 644 541 660 757
8 758 661 768 866 645 542 656 756
8 757 660 772 867 646 543 661 758
8 759 662 773 868 648 545 663 760
8 649 546 663 760 761 664 774 871
8 765 665 547 653 872 775 664 761
8 873 777 666 762 763 668 550 651
8 769 674 556 657 873 777 666 762
8 764 669 779 874 652 551 668 763
8 654 552 667 766 764 669 778 875
8 655 549 665 765 766 667 776 876
8 768 671 782 877 656 553 670 767
8 772 672 783 878 661 554 671 768
8 658 558 674 769 770 675 786 879
8 659 557 675 770 771 673 785 881
8 882 784 672 772 771 673 555 660
8 789 687 571 677 897 798 686 788
8 897 798 686 788 813 705 591 704
8 791 689 573 679 898 799 687 789
8 795 693 803 900 683 577 691 790
8 793 690 574 681 901 801 689 791
8 792 688 800 902 684 578 694 796
8 793 690 800 902 681 574 688 792
8 795 693 577 683 903 804 692 794
8 797 695 804 903 685 579 692 794
8 797 695 579 685 904 805 694 796
8 905 806 697 799 798 696 581 687
8 814 706 806 905 705 592 696 798
8 689 583 697 799 801 699 808 907
8 800 698 809 908 694 588 703 805
8 690 584 699 801 800 698 809 908
8 803 701 810 909 691 585 700 802
8 693 587 702 804 803 701 811 910
8 695 589 703 805 804 702 812 911
8 818 710 814 919 708 595 705 813
8 821 712 815 920 710 596 706 814
8 816 709 600 719 922 819 717 831
8 817 711 594 707 923 820 709 816
8 818 710 595 708 924 822 711 817
8 819 715 599 717 926 827 716 829
8 820 714 598 709 927 826 715 819
8 929 825 713 822 820 714 597 711
8 821 712 596 710 930 824 713 822
8 717 599 718 832 829 716 830 942
8 719 600 720 834 831 717 832 944
8 832 718 601 720 945 833 721 835
8 834 720 603 722 946 835 723 836
8 869 780 838 950 767 670 725 839
8 865 767 839 952 756 656 726 841
8 839 725 840 953 726 608 727 842
8 841 726 842 954 728 609 729 843
8 844 740 691 790 955 850 802 899
8 733 625 740 844 845 739 850 955
8 734 623 739 845 846 738 849 956
8 735 621 738 846 847 737 848 957
8 744 647 737 847 854 759 848 957
8 738 627 742 849 848 741 851 958
8 848 741 851 958 759 662 773 868
8 850 743 700 802 959 852 807 906
8 849 742 628 739 959 852 743 850
8 854 759 868 965 745 648 760 855
8 746 649 760 855 856 761 871 966
8 860 765 653 750 967 872 761 856
8 968 873 762 857 858 763 651 748
8 862 769 657 753 968 873 762 857
8 859 764 874 969 749 652 763 858
8 752 654 766 861 859 764 875 970
8 751 655 765 860 861 766 876 971
8 754 658 769 862 863 770 879 972
8 755 659 770 863 864 771 881 974
8 976 882 772 867 864 771 660 757
8 866 768 877 977 756 656 767 865
8 867 772 878 978 758 661 768 866
8 760 663 773 868 871 774 883 980
8 870 781 837 948 982 890 780 869
8 982 890 780 869 877 782 670 767
8 761 664 774 871 872 775 884 984
8 876 776 665 765 985 885 775 872
8 873 777 668 763 986 887 779 874
8 769 674 777 873 879 786 887 986
8 764 669 778 875 874 779 888 987
8 766 667 776 876 875 778 886 988
8 878 783 892 989 768 671 782 877
8 878 783 672 772 990 893 784 882
8 880 787 675 770 991 896 786 879
8 880 787 895 992 770 675 785 881
8 881 785 894 993 771 673 784 882
8 1006 905 799 898 897 798 687 789
8 919 814 905 1006 813 705 798 897
8 791 689 799 898 901 801 907 1007
8 900 803 909 1009 790 691 802 899
8 795 693 804 903 900 803 910 1010
8 902 800 908 1011 796 694 805 904
8 793 690 801 901 902 800 908 1011
8 797 695 805 904 903 804 911 1012
8 799 697 806 905 907 808 912 1013
8 920 815 912 1013 814 706 806 905
8 802 700 810 909 906 807 913 1014
8 801 699 808 907 908 809 914 1015
8 805 703 809 908 911 812 915 1016
8 803 701 811 910 909 810 916 1017
8 911 812 917 1018 804 702 811 910
8 925 821 920 1030 818 710 814 919
8 928 823 921 1031 821 712 815 920
8 922 819 717 831 1033 926 829 941
8 923 820 709 816 1034 927 819 922
8 1035 929 822 924 923 820 711 817
8 925 821 710 818 1036 930 822 924
8 1038 933 825 929 927 826 714 820
8 926 827 716 829 1039 935 828 939
8 927 826 715 819 1040 934 827 926
8 928 823 712 821 1041 931 824 930
8 1042 932 824 930 929 825 713 822
8 829 716 830 942 939 828 940 1058
8 831 717 832 944 941 829 942 1060
8 942 830 718 832 1061 943 833 945
8 944 832 720 834 1062 945 835 946
8 981 889 947 1064 870 781 837 948
8 948 837 949 1067 869 780 838 950
8 975 869 950 1069 865 767 839 952
8 950 838 951 1070 839 725 840 953
8 952 839 953 1071 841 726 842 954
8 955 850 802 899 1072 959 906 1008
8 956 849 739 845 1072 959 850 955
8 846 738 849 956 957 848 958 1073
8 957 848 958 1073 854 759 868 965
8 849 742 852 959 958 851 961 1076
8 960 853 961 1076 906 807 852 959
8 958 851 961 1076 868 773 883 980
8 960 853 807 906 1077 963 913 1014
8 855 760 868 965 966 871 980 1085
8 856 761 871 966 967 872 984 1086
8 971 876 765 860 1087 985 872 967
8 968 873 763 858 1088 986 874 969
8 862 769 873 968 972 879 986 1088
8 859 764 875 970 969 874 987 1089
8 861 766 876 971 970 875 988 1090
8 973 880 770 863 1091 991 879 972
8 973 880 992 1092 863 770 881 974
8 974 881 993 1093 864 771 882 976
8 979 870 948 1066 1094 982 869 975
8 1094 982 869 975 977 877 767 865
8 978 878 772 867 1095 990 882 976
8 978 878 989 1096 866 768 877 977
8 871 774 883 980 984 884 994 1099
8 983 891 999 1100 870 781 889 981
8 1101 1000 890 982 989 892 782 877
8 983 891 781 870 1101 1000 890 982
8 872 775 884 984 985 885 995 1103
8 876 776 885 985 988 886 996 1104
8 986 887 779 874 1105 998 888 987
8 879 786 887 986 991 896 998 1105
8 875 778 886 988 987 888 997 1106
8 990 893 1002 1107 878 783 892 989
8 1108 1003 893 990 993 894 784 882
8 880 787 896 991 992 895 1005 1109
8 993 894 785 881 1110 1004 895 992
8 898 799 905 1006 1007 907 1013 1120
8 1030 920 1013 1120 919 814 905 1006
8 901 801 907 1007 1011 908 1015 1121
8 899 802 909 1009 1008 906 1014 1122
8 900 803 910 1010 1009 909 1017 1123
8 1012 911 1018 1124 903 804 910 1010
8 904 805 908 1011 1012 911 1016 1125
8 1013 912 1020 1127 907 808 914 1015
8 1031 921 1020 1127 920 815 912 1013
8 1019 918 962 1075 1128 1021 913 1014
8 1128 1021 913 1014 1017 916 810 909
8 1015 914 1022 1129 908 809 915 1016
8 1016 915 1023 1130 911 812 917 1018
8 1018 917 1024 1131 910 811 916 1017
8 1037 928 1031 1148 925 821 920 1030
8 928 823 931 1041 1031 921 1032 1149
8 1033 926 829 941 1151 1039 939 1057
8 1034 927 819 922 1152 1040 926 1033
8 1153 1038 929 1035 1034 927 820 923
8 1154 1042 930 1036 1035 929 822 924
8 1037 928 821 925 1155 1041 930 1036
8 1039 935 828 939 1156 1047 938 1055
8 1157 1043 932 1042 1038 933 825 929
8 1038 933 826 927 1158 1045 934 1040
8 1040 934 827 926 1159 1046 935 1039
8 930 824 932 1042 1041 931 1044 1160
8 1051 936 1048 1165 1175 1052 937 1053
8 1156 1047 938 1055 1053 937 1054 1178
8 939 828 940 1058 1055 938 1056 1181
8 941 829 942 1060 1057 939 1058 1183
8 942 830 943 1061 1058 940 1059 1184
8 1060 942 832 944 1185 1061 945 1062
8 1082 964 1063 1188 981 889 947 1064
8 1097 981 1064 1190 979 870 948 1066
8 1064 947 1065 1191 948 837 949 1067
8 1066 948 1067 1193 975 869 950 1069
8 1067 949 1068 1194 950 838 951 1070
8 1069 950 1070 1195 952 839 953 1071
8 956 849 959 1072 1073 958 1076 1197
8 1074 960 1076 1197 1008 906 959 1072
8 1073 958 1076 1197 965 868 980 1085
8 1074 960 906 1008 1198 1077 1014 1122
8 1133 1026 1079 1199 1019 918 962 1075
8 1077 963 913 1014 1200 1080 962 1075
8 960 853 963 1077 1076 961 1078 1201
8 980 883 961 1076 1099 994 1078 1201
8 1210 1083 964 1082 1100 999 889 981
8 966 871 980 1085 1086 984 1099 1215
8 967 872 984 1086 1087 985 1103 1216
8 971 876 985 1087 1090 988 1104 1217
8 1088 986 874 969 1218 1105 987 1089
8 972 879 986 1088 1091 991 1105 1218
8 970 875 988 1090 1089 987 1106 1219
8 973 880 991 1091 1092 992 1109 1220
8 1093 993 881 974 1221 1110 992 1092
8 1222 1108 990 1095 1093 993 882 976
8 1223 1101 982 1094 1096 989 877 977
8 1098 983 870 979 1223 1101 982 1094
8 1095 990 1107 1224 978 878 989 1096
8 1098 983 1100 1225 979 870 981 1097
8 984 884 994 1099 1103 995 1111 1227
8 1102 1001 1115 1228 983 891 999 1100
8 1101 1000 892 989 1229 1116 1002 1107
8 1102 1001 891 983 1229 1116 1000 1101
8 985 885 995 1103 1104 996 1112 1230
8 988 886 996 1104 1106 997 1113 1231
8 1105 998 888 987 1232 1114 997 1106
8 991 896 998 1105 1109 1005 1114 1232
8 1108 1003 1117 1233 990 893 1002 1107
8 1108 1003 894 993 1233 1117 1004 1110
8 992 895 1005 1109 1110 1004 1118 1234
8 1120 1013 1127 1244 1007 907 1015 1121
8 1148 1031 1127 1244 1030 920 1013 1120
8 1121 1015 1129 1245 1011 908 1016 1125
8 1126 1019 1075 1196 1246 1128 1014 1122
8 1246 1128 1014 1122 1123 1017 909 1009
8 1124 1018 1131 1247 1010 910 1017 1123
8 1125 1016 1130 1248 1012 911 1018 1124
8 1127 1020 1137 1254 1015 914 1022 1129
8 1031 921 1032 1149 1127 1020 1137 1254
8 1134 1027 918 1019 1257 1140 1021 1128
8 1257 1140 1021 1128 1131 1024 916 1017
8 1129 1022 1141 1258 1016 915 1023 1130
8 1130 1023 1142 1259 1018 917 1024 1131
8 1261 1144 1025 1132 1133 1026 1079 1199
8 1255 1138 1025 1132 1135 1028 1144 1261
8 1133 1026 918 1019 1262 1145 1027 1134
8 1136 1029 1139 1256 1263 1146 1028 1135
8 1037 928 1041 1155 1148 1031 1149 1275
8 1041 931 1044 1160 1149 1032 1150 1276
8 1151 1039 939 1057 1278 1156 1055 1180
8 1152 1040 926 1033 1279 1159 1039 1151
8 1153 1038 927 1034 1280 1158 1040 1152
8 1281 1157 1042 1154 1153 1038 929 1035
8 1036 930 1042 1154 1155 1041 1160 1282
8 1283 1164 1046 1159 1156 1047 935 1039
8 1165 1048 1164 1283 1053 937 1047 1156
8 1157 1043 933 1038 1284 1161 1045 1158
8 1157 1043 1161 1284 1042 932 1044 1160
8 1040 934 1046 1159 1158 1045 1163 1285
8 1166 1049 1167 1292 1051 936 1048 1165
8 1166 1049 936 1051 1293 1168 1050 1172
8 1051 936 1052 1175 1172 1050 1173 1306
8 1174 1051 1165 1290 1308 1175 1053 1177
8 1053 937 1054 1178 1175 1052 1176 1309
8 1278 1156 1055 1180 1177 1053 1178 1311
8 1055 938 1056 1181 1178 1054 1179 1312
8 1057 939 1058 1183 1180 1055 1181 1314
8 1058 940 1059 1184 1181 1056 1182 1315
8 1060 942 1061 1185 1183 1058 1184 1316
8 1208 1081 1187 1321 1082 964 1063 1188
8 1209 1082 1188 1322 1097 981 1064 1190
8 1188 1063 1189 1323 1064 947 1065 1191
8 1190 1064 1191 1325 1066 948 1067 1193
8 1191 1065 1192 1326 1067 949 1068 1194
8 1067 1193 1069 950 1194 1327 1195 1070
8 1250 1133 1199 1330 1126 1019 1075 1196
8 1198 1077 1014 1122 1331 1200 1075 1196
8 1074 960 1077 1198 1197 1076 1201 1332
8 1085 980 1076 1197 1215 1099 1201 1332
8 1199 1079 1203 1333 1075 962 1080 1200
8 1132 1025 1119 1243 1199 1079 1203 1333
8 1201 1078 963 1077 1334 1202 1080 1200
8 1099 994 1078 1201 1227 1111 1202 1334
8 1343 1207 1081 1208 1210 1083 964 1082
8 1214 1084 1186 1319 1343 1207 1081 1208
8 1345 1210 1082 1209 1225 1100 981 1097
8 1346 1211 1083 1210 1228 1115 999 1100
8 1086 984 1099 1215 1216 1103 1227 1352
8 1087 985 1103 1216 1217 1104 1230 1353
8 1090 988 1104 1217 1219 1106 1231 1354
8 1218 1105 987 1089 1355 1232 1106 1219
8 1091 991 1105 1218 1220 1109 1232 1355
8 1092 992 1109 1220 1221 1110 1234 1356
8 1222 1108 1233 1357 1095 990 1107 1224
8 1222 1108 993 1093 1357 1233 1110 1221
8 1223 1101 989 1096 1358 1229 1107 1224
8 1226 1102 983 1098 1358 1229 1101 1223
8 1226 1102 1228 1359 1098 983 1100 1225
8 1103 995 1111 1227 1230 1112 1235 1360
8 1107 1002 1117 1233 1229 1116 1240 1362
8 1102 1001 1116 1229 1228 1115 1240 1362
8 1104 996 1112 1230 1231 1113 1236 1363
8 1364 1237 1114 1232 1231 1113 997 1106
8 1109 1005 1114 1232 1234 1118 1238 1365
8 1110 1004 1118 1234 1233 1117 1241 1366
8 1242 1374 1255 1138 1119 1243 1132 1025
8 1244 1127 1254 1376 1121 1015 1129 1245
8 1148 1031 1149 1275 1244 1127 1254 1376
8 1245 1129 1258 1377 1125 1016 1130 1248
8 1251 1134 1019 1126 1378 1257 1128 1246
8 1378 1257 1128 1246 1247 1131 1017 1123
8 1248 1130 1259 1379 1124 1018 1131 1247
8 1261 1381 1250 1133 1132 1249 1330 1199
8 1255 1380 1252 1135 1132 1249 1381 1261
8 1250 1133 1019 1126 1382 1262 1134 1251
8 1253 1136 1256 1385 1384 1263 1135 1252
8 1254 1137 1265 1387 1129 1022 1141 1258
8 1149 1032 1150 1276 1254 1137 1265 1387
8 1028 1135 1255 1138 1139 1256 1388 1266
8 1136 1029 1147 1264 1256 1139 1267 1389
8 1390 1268 1140 1257 1259 1142 1024 1131
8 1260 1143 1027 1134 1390 1268 1140 1257
8 1258 1141 1269 1391 1130 1023 1142 1259
8 1262 1145 1027 1134 1393 1271 1143 1260
8 1261 1144 1026 1133 1394 1272 1145 1262
8 1135 1028 1144 1261 1263 1146 1272 1394
8 1136 1029 1146 1263 1264 1147 1273 1395
8 1155 1041 1160 1282 1275 1149 1276 1405
8 1276 1150 1044 1160 1406 1277 1162 1286
8 1408 1283 1159 1279 1278 1156 1039 1151
8 1290 1165 1283 1408 1177 1053 1156 1278
8 1152 1040 1159 1279 1280 1158 1285 1409
8 1281 1157 1038 1153 1410 1284 1158 1280
8 1281 1157 1284 1410 1154 1042 1160 1282
8 1159 1046 1164 1283 1285 1163 1289 1412
8 1292 1167 1289 1412 1165 1048 1164 1283
8 1158 1045 1163 1285 1284 1161 1288 1413
8 1284 1161 1288 1413 1160 1044 1162 1286
8 1291 1166 1292 1418 1174 1051 1165 1290
8 1291 1166 1051 1174 1419 1293 1172 1305
8 1294 1169 1296 1421 1166 1049 1167 1292
8 1293 1168 1050 1172 1422 1295 1171 1303
8 1294 1169 1049 1166 1423 1297 1168 1293
8 1422 1295 1171 1303 1301 1170 1302 1435
8 1172 1050 1173 1306 1303 1171 1304 1438
8 1174 1051 1175 1308 1305 1172 1306 1440
8 1175 1052 1176 1309 1306 1173 1307 1441
8 1177 1053 1178 1311 1308 1175 1309 1443
8 1178 1054 1179 1312 1309 1176 1310 1444
8 1180 1055 1181 1314 1311 1178 1312 1446
8 1056 1181 1312 1179 1182 1315 1447 1313
8 1183 1058 1184 1316 1314 1181 1315 1448
8 1319 1186 1084 1214 1451 1317 1213 1350
8 1319 1186 1318 1453 1208 1081 1187 1321
8 1321 1187 1320 1456 1188 1063 1189 1323
8 1344 1208 1321 1457 1209 1082 1188 1322
8 1322 1188 1323 1458 1190 1064 1191 1325
8 1323 1189 1324 1459 1191 1065 1192 1326
8 1191 1325 1193 1067 1326 1460 1327 1194
8 1242 1374 1243 1119 1328 1462 1335 1204
8 1330 1199 1333 1465 1196 1075 1200 1331
8 1132 1249 1330 1199 1243 1375 1465 1333
8 1332 1201 1077 1198 1466 1334 1200 1331
8 1215 1099 1201 1332 1352 1227 1334 1466
8 1119 1243 1333 1203 1204 1335 1470 1338
8 1333 1203 1338 1470 1200 1080 1202 1334
8 1227 1111 1202 1334 1360 1235 1338 1470
8 1328 1462 1335 1204 1205 1336 1471 1339
8 1337 1206 1340 1472 1464 1329 1205 1336
8 1346 1211 1342 1479 1210 1083 1207 1343
8 1346 1211 1115 1228 1479 1342 1239 1361
8 1348 1212 1084 1214 1479 1342 1207 1343
8 1480 1343 1208 1344 1345 1210 1082 1209
8 1351 1214 1319 1454 1480 1343 1208 1344
8 1481 1346 1210 1345 1359 1228 1100 1225
8 1348 1212 1347 1483 1214 1084 1213 1350
8 1216 1103 1227 1352 1353 1230 1360 1488
8 1217 1104 1230 1353 1354 1231 1363 1489
8 1490 1364 1232 1355 1354 1231 1106 1219
8 1220 1109 1232 1355 1356 1234 1365 1491
8 1221 1110 1234 1356 1357 1233 1366 1492
8 1224 1107 1233 1357 1358 1229 1362 1493
8 1226 1102 1229 1358 1359 1228 1362 1493
8 1230 1112 1235 1360 1363 1236 1367 1496
8 1361 1239 1115 1228 1497 1371 1240 1362
8 1366 1241 1372 1498 1233 1117 1240 1362
8 1364 1237 1113 1231 1499 1368 1236 1363
8 1364 1237 1368 1499 1232 1114 1238 1365
8 1234 1118 1238 1365 1366 1241 1369 1500
8 1507 1373 1242 1374 1388 1266 1138 1255
8 1508 1374 1243 1375 1380 1255 1132 1249
8 1376 1254 1387 1509 1245 1129 1258 1377
8 1275 1149 1276 1405 1376 1254 1387 1509
8 1377 1258 1391 1510 1248 1130 1259 1379
8 1511 1390 1257 1378 1379 1259 1131 1247
8 1383 1260 1134 1251 1511 1390 1257 1378
8 1252 1135 1256 1385 1380 1255 1388 1512
8 1261 1381 1513 1394 1133 1250 1382 1262
8 1135 1252 1384 1263 1261 1381 1513 1394
8 1382 1262 1134 1251 1514 1393 1260 1383
8 1253 1136 1263 1384 1386 1264 1395 1516
8 1253 1136 1264 1386 1385 1256 1389 1517
8 1387 1265 1397 1519 1258 1141 1269 1391
8 1276 1150 1277 1406 1387 1265 1397 1519
8 1256 1139 1267 1389 1388 1266 1398 1520
8 1264 1147 1274 1396 1389 1267 1399 1521
8 1392 1270 1143 1260 1522 1400 1268 1390
8 1390 1268 1142 1259 1522 1400 1269 1391
8 1392 1270 1401 1523 1260 1143 1271 1393
8 1272 1394 1524 1402 1145 1262 1393 1271
8 1395 1273 1146 1263 1524 1402 1272 1394
8 1273 1395 1264 1147 1403 1526 1396 1274
8 1405 1276 1160 1282 1534 1406 1286 1411
8 1414 1287 1407 1535 1286 1162 1277 1406
8 1279 1159 1283 1408 1409 1285 1412 1537
8 1418 1292 1412 1537 1290 1165 1283 1408
8 1280 1158 1285 1409 1410 1284 1413 1538
8 1410 1284 1413 1538 1282 1160 1286 1411
8 1285 1163 1289 1412 1413 1288 1417 1540
8 1421 1296 1417 1540 1292 1167 1289 1412
8 1414 1287 1162 1286 1541 1416 1288 1413
8 1420 1294 1421 1545 1291 1166 1292 1418
8 1419 1293 1172 1305 1546 1422 1303 1437
8 1420 1294 1166 1291 1547 1423 1293 1419
8 1294 1169 1297 1423 1421 1296 1425 1548
8 1423 1297 1168 1293 1549 1424 1295 1422
8 1301 1170 1298 1427 1422 1295 1424 1549
8 1432 1300 1428 1554 1301 1170 1298 1427
8 1431 1299 1428 1554 1560 1430 1300 1432
8 1563 1433 1300 1432 1435 1302 1170 1301
8 1546 1422 1303 1437 1434 1301 1435 1565
8 1303 1171 1304 1438 1435 1302 1436 1566
8 1305 1172 1306 1440 1437 1303 1438 1568
8 1306 1173 1307 1441 1438 1304 1439 1569
8 1308 1175 1309 1443 1440 1306 1441 1571
8 1309 1176 1310 1444 1441 1307 1442 1572
8 1311 1178 1312 1446 1443 1309 1444 1574
8 1179 1312 1444 1310 1313 1447 1575 1445
8 1314 1181 1315 1448 1446 1312 1447 1576
8 1350 1213 1349 1486 1451 1317 1449 1579
8 1451 1317 1450 1581 1319 1186 1318 1453
8 1454 1319 1214 1351 1582 1451 1350 1487
8 1453 1318 1452 1584 1321 1187 1320 1456
8 1454 1319 1453 1585 1344 1208 1321 1457
8 1456 1320 1455 1586 1323 1189 1324 1459
8 1457 1321 1456 1587 1322 1188 1323 1458
8 1458 1323 1459 1588 1325 1191 1326 1460
8 1205 1336 1464 1329 1328 1462 1590 1461
8 1507 1373 1461 1590 1374 1242 1328 1462
8 1508 1374 1462 1591 1375 1243 1335 1467
8 1337 1206 1329 1464 1473 1341 1463 1594
8 1375 1243 1335 1467 1465 1333 1470 1596
8 1465 1333 1470 1596 1331 1200 1334 1466
8 1352 1227 1334 1466 1488 1360 1470 1596
8 1591 1462 1336 1468 1467 1335 1471 1597
8 1469 1337 1472 1598 1595 1464 1336 1468
8 1471 1339 1474 1600 1335 1204 1338 1470
8 1600 1474 1367 1496 1470 1338 1235 1360
8 1336 1205 1340 1472 1471 1339 1475 1601
8 1337 1206 1341 1473 1472 1340 1476 1602
8 1495 1370 1478 1609 1361 1239 1342 1479
8 1348 1212 1342 1479 1483 1347 1478 1609
8 1481 1346 1479 1610 1345 1210 1343 1480
8 1481 1346 1228 1359 1610 1479 1361 1494
8 1484 1348 1214 1351 1610 1479 1343 1480
8 1483 1347 1482 1612 1350 1213 1349 1486
8 1484 1348 1483 1613 1351 1214 1350 1487
8 1353 1230 1360 1488 1489 1363 1496 1616
8 1490 1364 1231 1354 1617 1499 1363 1489
8 1490 1364 1499 1617 1355 1232 1365 1491
8 1356 1234 1365 1491 1492 1366 1500 1619
8 1492 1366 1498 1620 1357 1233 1362 1493
8 1494 1361 1228 1359 1621 1497 1362 1493
8 1495 1370 1239 1361 1622 1504 1371 1497
8 1363 1236 1367 1496 1499 1368 1501 1623
8 1497 1371 1240 1362 1624 1505 1372 1498
8 1625 1503 1372 1498 1500 1369 1241 1366
8 1365 1238 1368 1499 1500 1369 1502 1626
8 1520 1398 1506 1633 1388 1266 1373 1507
8 1634 1507 1374 1508 1512 1388 1255 1380
8 1509 1387 1519 1635 1377 1258 1391 1510
8 1405 1276 1406 1534 1509 1387 1519 1635
8 1515 1392 1260 1383 1636 1522 1390 1511
8 1511 1390 1259 1379 1636 1522 1391 1510
8 1385 1256 1389 1517 1512 1388 1520 1637
8 1513 1394 1262 1382 1638 1524 1393 1514
8 1395 1516 1638 1524 1263 1384 1513 1394
8 1515 1392 1523 1639 1383 1260 1393 1514
8 1516 1395 1526 1640 1386 1264 1396 1518
8 1386 1264 1396 1518 1517 1389 1521 1641
8 1519 1397 1527 1643 1391 1269 1400 1522
8 1535 1407 1527 1643 1406 1277 1397 1519
8 1389 1267 1399 1521 1520 1398 1528 1644
8 1645 1529 1399 1521 1525 1404 1274 1396
8 1392 1270 1400 1522 1523 1401 1531 1646
8 1524 1402 1271 1393 1648 1532 1401 1523
8 1403 1526 1648 1532 1273 1395 1524 1402
8 1525 1404 1274 1396 1649 1533 1403 1526
8 1539 1414 1535 1657 1411 1286 1406 1534
8 1542 1415 1536 1658 1414 1287 1407 1535
8 1409 1285 1412 1537 1538 1413 1540 1660
8 1545 1421 1540 1660 1418 1292 1412 1537
8 1539 1414 1286 1411 1661 1541 1413 1538
8 1540 1417 1544 1663 1413 1288 1416 1541
8 1421 1296 1425 1548 1540 1417 1544 1663
8 1542 1415 1287 1414 1664 1543 1416 1541
8 1420 1294 1423 1547 1545 1421 1548 1666
8 1547 1423 1293 1419 1667 1549 1422 1546
8 1434 1301 1427 1553 1546 1422 1549 1667
8 1423 1297 1424 1549 1548 1425 1550 1668
8 1551 1426 1550 1668 1427 1298 1424 1549
8 1551 1426 1298 1427 1671 1552 1428 1554
8 1562 1432 1554 1674 1434 1301 1427 1553
8 1431 1299 1429 1558 1554 1428 1555 1675
8 1431 1299 1430 1560 1558 1429 1557 1680
8 1560 1430 1300 1432 1683 1559 1433 1563
8 1561 1431 1554 1674 1684 1560 1432 1562
8 1685 1563 1432 1562 1565 1435 1301 1434
8 1435 1302 1436 1566 1563 1433 1564 1686
8 1437 1303 1438 1568 1565 1435 1566 1688
8 1438 1304 1439 1569 1566 1436 1567 1689
8 1440 1306 1441 1571 1568 1438 1569 1691
8 1441 1307 1442 1572 1569 1439 1570 1692
8 1443 1309 1444 1574 1571 1441 1572 1694
8 1310 1444 1572 1442 1445 1575 1695 1573
8 1446 1312 1447 1576 1574 1444 1575 1696
8 1486 1349 1485 1614 1579 1449 1577 1699
8 1451 1317 1449 1579 1581 1450 1578 1701
8 1487 1350 1486 1615 1582 1451 1579 1702
8 1581 1450 1580 1704 1453 1318 1452 1584
8 1582 1451 1581 1705 1454 1319 1453 1585
8 1584 1452 1583 1706 1456 1320 1455 1586
8 1585 1453 1584 1707 1457 1321 1456 1587
8 1587 1456 1586 1708 1458 1323 1459 1588
8 1633 1506 1589 1710 1507 1373 1461 1590
8 1464 1329 1461 1590 1594 1463 1589 1710
8 1468 1336 1462 1591 1595 1464 1590 1711
8 1634 1507 1590 1711 1508 1374 1462 1591
8 1473 1341 1463 1594 1603 1477 1593 1716
8 1469 1337 1464 1595 1599 1473 1594 1717
8 1471 1597 1467 1335 1600 1718 1596 1470
8 1718 1600 1496 1616 1596 1470 1360 1488
8 1336 1468 1597 1471 1472 1598 1719 1601
8 1469 1337 1473 1599 1598 1472 1602 1720
8 1722 1604 1501 1623 1600 1474 1367 1496
8 1475 1601 1471 1339 1604 1722 1600 1474
8 1602 1476 1605 1723 1472 1340 1475 1601
8 1476 1602 1724 1606 1341 1473 1603 1477
8 1483 1347 1478 1609 1612 1482 1608 1731
8 1495 1370 1504 1622 1609 1478 1608 1731
8 1618 1495 1609 1732 1494 1361 1479 1610
8 1484 1348 1479 1610 1613 1483 1609 1732
8 1486 1349 1482 1612 1614 1485 1611 1733
8 1613 1483 1612 1734 1487 1350 1486 1615
8 1489 1363 1496 1616 1617 1499 1623 1736
8 1491 1365 1499 1617 1619 1500 1626 1737
8 1618 1495 1361 1494 1738 1622 1497 1621
8 1739 1625 1498 1620 1619 1500 1366 1492
8 1621 1497 1362 1493 1740 1624 1498 1620
8 1742 1631 1504 1622 1624 1505 1371 1497
8 1743 1628 1502 1626 1623 1501 1368 1499
8 1744 1630 1505 1624 1625 1503 1372 1498
8 1745 1629 1503 1625 1626 1502 1369 1500
8 1520 1398 1528 1644 1633 1506 1632 1751
8 1637 1520 1633 1752 1512 1388 1507 1634
8 1635 1519 1643 1753 1510 1391 1522 1636
8 1657 1535 1643 1753 1534 1406 1519 1635
8 1515 1392 1522 1636 1639 1523 1646 1754
8 1517 1389 1521 1641 1637 1520 1644 1755
8 1524 1638 1756 1648 1393 1514 1639 1523
8 1640 1526 1395 1516 1756 1648 1524 1638
8 1642 1525 1396 1518 1757 1649 1526 1640
8 1758 1645 1521 1641 1642 1525 1396 1518
8 1646 1531 1400 1522 1760 1650 1527 1643
8 1535 1407 1536 1658 1643 1527 1650 1760
8 1521 1399 1529 1645 1644 1528 1651 1761
8 1647 1530 1652 1762 1525 1404 1529 1645
8 1401 1523 1648 1532 1531 1646 1763 1655
8 1525 1404 1533 1649 1647 1530 1654 1765
8 1533 1649 1766 1656 1403 1526 1648 1532
8 1662 1542 1658 1774 1539 1414 1535 1657
8 1542 1415 1543 1664 1658 1536 1659 1775
8 1660 1540 1663 1777 1538 1413 1541 1661
8 1545 1421 1548 1666 1660 1540 1663 1777
8 1662 1542 1414 1539 1778 1664 1541 1661
8 1664 1543 1416 1541 1779 1665 1544 1663
8 1548 1425 1550 1668 1663 1544 1665 1779
8 1547 1423 1549 1667 1666 1548 1668 1781
8 1670 1551 1668 1781 1553 1427 1549 1667
8 1551 1426 1552 1671 1668 1550 1669 1782
8 1670 1551 1427 1553 1784 1671 1554 1674
8 1675 1555 1672 1785 1554 1428 1552 1671
8 1678 1556 1673 1789 1558 1429 1555 1675
8 1561 1431 1558 1681 1674 1554 1675 1790
8 1794 1677 1556 1678 1680 1557 1429 1558
8 1560 1430 1559 1683 1680 1557 1679 1797
8 1561 1431 1560 1684 1681 1558 1680 1798
8 1563 1433 1564 1686 1683 1559 1682 1800
8 1684 1560 1432 1562 1801 1683 1563 1685
8 1565 1435 1566 1688 1685 1563 1686 1802
8 1566 1436 1567 1689 1686 1564 1687 1803
8 1568 1438 1569 1691 1688 1566 1689 1805
8 1569 1439 1570 1692 1689 1567 1690 1806
8 1571 1441 1572 1694 1691 1569 1692 1808
8 1442 1572 1692 1570 1573 1695 1809 1693
8 1574 1444 1575 1696 1694 1572 1695 1810
8 1614 1485 1592 1712 1699 1577 1697 1813
8 1579 1449 1577 1699 1701 1578 1698 1815
8 1615 1486 1614 1735 1702 1579 1699 1816
8 1701 1578 1700 1818 1581 1450 1580 1704
8 1582 1451 1579 1702 1705 1581 1701 1819
8 1704 1580 1703 1820 1584 1452 1583 1706
8 1705 1581 1704 1821 1585 1453 1584 1707
8 1707 1584 1706 1822 1587 1456 1586 1708
8 1710 1589 1506 1633 1824 1709 1632 1751
8 1594 1463 1589 1710 1716 1593 1709 1824
8 1752 1633 1710 1825 1634 1507 1590 1711
8 1595 1464 1590 1711 1717 1594 1710 1825
8 1830 1714 1592 1712 1733 1611 1485 1614
8 1603 1477 1593 1716 1725 1607 1715 1834
8 1599 1473 1594 1717 1721 1603 1716 1835
8 1837 1722 1623 1736 1718 1600 1496 1616
8 1719 1601 1722 1837 1597 1471 1600 1718
8 1602 1720 1598 1472 1723 1838 1719 1601
8 1720 1602 1473 1599 1839 1724 1603 1721
8 1723 1605 1726 1840 1601 1475 1604 1722
8 1840 1726 1628 1743 1722 1604 1501 1623
8 1724 1606 1727 1841 1602 1476 1605 1723
8 1725 1607 1728 1842 1603 1477 1606 1724
8 1612 1482 1608 1731 1733 1611 1730 1849
8 1741 1627 1730 1849 1622 1504 1608 1731
8 1613 1483 1609 1732 1734 1612 1731 1850
8 1618 1495 1622 1738 1732 1609 1731 1850
8 1615 1486 1612 1734 1735 1614 1733 1851
8 1852 1743 1626 1737 1736 1623 1499 1617
8 1853 1745 1625 1739 1737 1626 1500 1619
8 1855 1742 1622 1738 1740 1624 1497 1621
8 1856 1744 1624 1740 1739 1625 1498 1620
8 1741 1627 1504 1622 1857 1746 1631 1742
8 1742 1631 1505 1624 1858 1749 1630 1744
8 1859 1747 1629 1745 1743 1628 1502 1626
8 1860 1748 1630 1744 1745 1629 1503 1625
8 1644 1528 1651 1761 1751 1632 1750 1865
8 1637 1520 1644 1755 1752 1633 1751 1866
8 1754 1646 1522 1636 1867 1760 1643 1753
8 1657 1535 1658 1774 1753 1643 1760 1867
8 1639 1523 1646 1754 1756 1648 1763 1868
8 1641 1521 1645 1758 1755 1644 1761 1869
8 1757 1649 1526 1640 1870 1766 1648 1756
8 1642 1525 1649 1757 1759 1647 1765 1871
8 1759 1647 1762 1872 1642 1525 1645 1758
8 1760 1650 1767 1874 1646 1531 1655 1763
8 1658 1536 1659 1775 1760 1650 1767 1874
8 1762 1652 1768 1875 1645 1529 1651 1761
8 1764 1653 1769 1876 1647 1530 1652 1762
8 1656 1766 1877 1773 1532 1648 1763 1655
8 1771 1879 1765 1654 1653 1764 1647 1530
8 1533 1649 1765 1654 1656 1766 1880 1772
8 1662 1542 1664 1778 1774 1658 1775 1887
8 1664 1543 1665 1779 1775 1659 1776 1888
8 1778 1664 1541 1661 1890 1779 1663 1777
8 1666 1548 1668 1781 1777 1663 1779 1890
8 1782 1669 1780 1891 1668 1550 1665 1779
8 1670 1551 1671 1784 1781 1668 1782 1893
8 1671 1552 1672 1785 1782 1669 1783 1894
8 1790 1675 1785 1896 1674 1554 1671 1784
8 1675 1555 1673 1789 1785 1672 1786 1897
8 1792 1676 1788 1903 1678 1556 1673 1789
8 1795 1678 1789 1904 1681 1558 1675 1790
8 1792 1676 1556 1678 1906 1791 1677 1794
8 1680 1557 1679 1797 1794 1677 1793 1909
8 1910 1794 1678 1795 1798 1680 1558 1681
8 1683 1559 1682 1800 1797 1679 1796 1912
8 1684 1560 1683 1801 1798 1680 1797 1913
8 1686 1564 1687 1803 1800 1682 1799 1915
8 1685 1563 1686 1802 1801 1683 1800 1916
8 1688 1566 1689 1805 1802 1686 1803 1917
8 1689 1567 1690 1806 1803 1687 1804 1918
8 1691 1569 1692 1808 1805 1689 1806 1920
8 1692 1570 1693 1809 1806 1690 1807 1921
8 1694 1572 1695 1810 1808 1692 1809 1922
8 1829 1713 1811 1926 1712 1592 1697 1813
8 1813 1697 1812 1928 1699 1577 1698 1815
8 1735 1614 1712 1828 1816 1699 1813 1929
8 1815 1698 1814 1931 1701 1578 1700 1818
8 1702 1579 1699 1816 1819 1701 1815 1932
8 1818 1700 1817 1933 1704 1580 1703 1820
8 1819 1701 1818 1934 1705 1581 1704 1821
8 1821 1704 1820 1935 1707 1584 1706 1822
8 1824 1709 1632 1751 1937 1823 1750 1865
8 1716 1593 1709 1824 1834 1715 1823 1937
8 1825 1710 1633 1752 1938 1824 1751 1866
8 1717 1594 1710 1825 1835 1716 1824 1938
8 1945 1830 1712 1828 1851 1733 1614 1735
8 1830 1714 1831 1946 1712 1592 1713 1829
8 1947 1832 1714 1830 1849 1730 1611 1733
8 1843 1729 1607 1725 1950 1833 1715 1834
8 1721 1603 1716 1835 1836 1725 1834 1951
8 1836 1725 1842 1953 1721 1603 1724 1839
8 1723 1838 1719 1601 1840 1954 1837 1722
8 1954 1840 1743 1852 1837 1722 1623 1736
8 1724 1839 1720 1602 1841 1955 1838 1723
8 1841 1727 1844 1956 1723 1605 1726 1840
8 1956 1844 1747 1859 1840 1726 1628 1743
8 1728 1842 1724 1606 1845 1957 1841 1727
8 1725 1607 1729 1843 1842 1728 1846 1958
8 1741 1627 1746 1857 1849 1730 1848 1965
8 1734 1612 1731 1850 1851 1733 1849 1966
8 1854 1741 1849 1966 1738 1622 1731 1850
8 1967 1859 1745 1853 1852 1743 1626 1737
8 1968 1860 1744 1856 1853 1745 1625 1739
8 1854 1741 1622 1738 1969 1857 1742 1855
8 1855 1742 1624 1740 1970 1858 1744 1856
8 1857 1746 1631 1742 1971 1861 1749 1858
8 1858 1749 1630 1744 1972 1863 1748 1860
8 1859 1747 1862 1973 1745 1629 1748 1860
8 1875 1768 1864 1977 1761 1651 1750 1865
8 1755 1644 1761 1869 1866 1751 1865 1978
8 1867 1760 1874 1979 1754 1646 1763 1868
8 1774 1658 1775 1887 1867 1760 1874 1979
8 1870 1766 1648 1756 1980 1877 1763 1868
8 1872 1762 1875 1981 1758 1645 1761 1869
8 1757 1649 1766 1870 1871 1765 1880 1982
8 1983 1879 1764 1873 1871 1765 1647 1759
8 1873 1764 1876 1984 1759 1647 1762 1872
8 1877 1773 1655 1763 1986 1881 1767 1874
8 1775 1659 1776 1888 1874 1767 1881 1986
8 1876 1769 1882 1987 1762 1652 1768 1875
8 1878 1770 1883 1988 1764 1653 1769 1876
8 1880 1772 1656 1766 1989 1886 1773 1877
8 1878 1770 1653 1764 1990 1884 1771 1879
8 1765 1654 1772 1880 1879 1771 1885 1991
8 1778 1664 1779 1890 1887 1775 1888 1997
8 1998 1889 1776 1888 1891 1780 1665 1779
8 1893 1782 1891 2000 1781 1668 1779 1890
8 1894 1783 1892 2001 1782 1669 1780 1891
8 1784 1671 1785 1896 1893 1782 1894 2003
8 1897 1786 1895 2004 1785 1672 1783 1894
8 1790 1675 1789 1904 1896 1785 1897 2006
8 1901 1787 1898 2007 1789 1673 1786 1897
8 1903 1788 1900 2013 1789 1673 1787 1901
8 1792 1676 1791 1906 1903 1788 1902 2016
8 1907 1792 1903 2017 1795 1678 1789 1904
8 1906 1791 1677 1794 2019 1905 1793 1909
8 1907 1792 1678 1795 2020 1906 1794 1910
8 1797 1679 1796 1912 1909 1793 1908 2022
8 1798 1680 1797 1913 1910 1794 1909 2023
8 1800 1682 1799 1915 1912 1796 1911 2025
8 1801 1683 1800 1916 1913 1797 1912 2026
8 1803 1687 1804 1918 1915 1799 1914 2028
8 1802 1686 1803 1917 1916 1800 1915 2029
8 1805 1689 1806 1920 1917 1803 1918 2030
8 1806 1690 1807 1921 1918 1804 1919 2031
8 1808 1692 1809 1922 1920 1806 1921 2032
8 1939 1826 1924 2037 1829 1713 1811 1926
8 1926 1811 1925 2039 1813 1697 1812 1928
8 1944 1829 1926 2040 1828 1712 1813 1929
8 1928 1812 1927 2042 1815 1698 1814 1931
8 1929 1813 1928 2043 1816 1699 1815 1932
8 1931 1814 1930 2044 1818 1700 1817 1933
8 1932 1815 1931 2045 1819 1701 1818 1934
8 1934 1818 1933 2046 1821 1704 1820 1935
8 2048 1936 1823 1937 1977 1864 1750 1865
8 1950 1833 1715 1834 2048 1936 1823 1937
8 1938 1824 1751 1866 2049 1937 1865 1978
8 1835 1716 1824 1938 1951 1834 1937 2049
8 1939 1826 1713 1829 2053 1942 1831 1946
8 1940 1827 1923 2035 2053 1942 1826 1939
8 1945 1830 1946 2058 1828 1712 1829 1944
8 2059 1947 1830 1945 1966 1849 1733 1851
8 1947 1832 1730 1849 2060 1948 1848 1965
8 1947 1832 1948 2060 1830 1714 1831 1946
8 1959 1847 1729 1843 2063 1949 1833 1950
8 1952 1843 1725 1836 2064 1950 1834 1951
8 1836 1725 1843 1952 1953 1842 1958 2066
8 1953 1842 1957 2067 1839 1724 1841 1955
8 1841 1955 1838 1723 1956 2068 1954 1840
8 2068 1956 1859 1967 1954 1840 1743 1852
8 1956 1844 1960 2069 1859 1747 1862 1973
8 1845 1957 1841 1727 1960 2069 1956 1844
8 1728 1842 1957 1845 1846 1958 2071 1961
8 1962 2072 1959 1847 1846 1958 1843 1729
8 1971 1861 1964 2077 1857 1746 1848 1965
8 1854 1741 1857 1969 1966 1849 1965 2078
8 1967 1859 1973 2079 1853 1745 1860 1968
8 1970 1858 1744 1856 2080 1972 1860 1968
8 1969 1857 1742 1855 2081 1971 1858 1970
8 1971 1861 1749 1858 2082 1974 1863 1972
8 1973 1862 1975 2083 1860 1748 1863 1972
8 1987 1882 1976 2086 1875 1768 1864 1977
8 1981 1875 1977 2087 1869 1761 1865 1978
8 1980 1877 1763 1868 2088 1986 1874 1979
8 1887 1775 1888 1997 1979 1874 1986 2088
8 1880 1982 2089 1989 1766 1870 1980 1877
8 1984 1876 1987 2090 1872 1762 1875 1981
8 1765 1871 1983 1879 1880 1982 2091 1991
8 1985 1878 1764 1873 2092 1990 1879 1983
8 1985 1878 1988 2093 1873 1764 1876 1984
8 2094 1992 1881 1986 1998 1889 1776 1888
8 1986 1881 1992 2094 1877 1773 1886 1989
8 1988 1883 1993 2095 1876 1769 1882 1987
8 1878 1770 1884 1990 1988 1883 1994 2096
8 1991 1885 1772 1880 2097 1996 1886 1989
8 1879 1771 1885 1991 1990 1884 1995 2098
8 2103 1998 1888 1997 2000 1891 1779 1890
8 2104 1999 1889 1998 2001 1892 1780 1891
8 2003 1894 2001 2106 1893 1782 1891 2000
8 2004 1895 2002 2107 1894 1783 1892 2001
8 2006 1897 2004 2109 1896 1785 1894 2003
8 2007 1898 2005 2110 1897 1786 1895 2004
8 2014 1901 2007 2112 1904 1789 1897 2006
8 2011 1899 2008 2113 1901 1787 1898 2007
8 2119 2010 1899 2011 2013 1900 1787 1901
8 2016 1902 2012 2122 1903 1788 1900 2013
8 2017 1903 2013 2123 1904 1789 1901 2014
8 1906 1791 1905 2019 2016 1902 2015 2125
8 1907 1792 1906 2020 2017 1903 2016 2126
8 1909 1793 1908 2022 2019 1905 2018 2128
8 2020 1906 1794 1910 2129 2019 1909 2023
8 1912 1796 1911 2025 2022 1908 2021 2131
8 1913 1797 1912 2026 2023 1909 2022 2132
8 1915 1799 1914 2028 2025 1911 2024 2134
8 1916 1800 1915 2029 2026 1912 2025 2135
8 1918 1804 1919 2031 2028 1914 2027 2136
8 1917 1803 1918 2030 2029 1915 2028 2137
8 1920 1806 1921 2032 2030 1918 2031 2138
8 1940 1827 1941 2054 2035 1923 2033 2140
8 2035 1923 2034 2143 1939 1826 1924 2037
8 2037 1924 2036 2146 1926 1811 1925 2039
8 2051 1939 2037 2147 1944 1829 1926 2040
8 2039 1925 2038 2149 1928 1812 1927 2042
8 2040 1926 2039 2150 1929 1813 1928 2043
8 2042 1927 2041 2151 1931 1814 1930 2044
8 2043 1928 2042 2152 1932 1815 1931 2045
8 2045 1931 2044 2153 1934 1818 1933 2046
8 2155 2047 1936 2048 2086 1976 1864 1977
8 2063 1949 1833 1950 2155 2047 1936 2048
8 2156 2048 1937 2049 2087 1977 1865 1978
8 2064 1950 1834 1951 2156 2048 1937 2049
8 2051 1939 1829 1944 2160 2053 1946 2058
8 2052 1940 2035 2144 2160 2053 1939 2051
8 2053 1942 1831 1946 2163 2057 1948 2060
8 2055 1943 1827 1940 2163 2057 1942 2053
8 2055 1943 2056 2164 1940 1827 1941 2054
8 2059 1947 1849 1966 2167 2060 1965 2078
8 2059 1947 2060 2167 1945 1830 1946 2058
8 2077 1964 2061 2168 1965 1848 1948 2060
8 2070 1963 1847 1959 2170 2062 1949 2063
8 2065 1959 1843 1952 2171 2063 1950 2064
8 2173 2072 1958 2066 2065 1959 1843 1952
8 1953 1842 1958 2066 2067 1957 2071 2174
8 2068 1956 2069 2175 1967 1859 1973 2079
8 2067 1957 2069 2175 1955 1841 1956 2068
8 1845 1957 2069 1960 1961 2071 2176 2073
8 2069 1960 2073 2176 1973 1862 1975 2083
8 2070 1963 2075 2177 1959 1847 1962 2072
8 1846 1958 2071 1961 1962 2072 2178 2074
8 2077 1964 1861 1971 2182 2076 1974 2082
8 2081 1971 2077 2183 1969 1857 1965 2078
8 2079 1973 2083 2184 1968 1860 1972 2080
8 2081 1971 1858 1970 2185 2082 1972 2080
8 2083 1975 2084 2186 1972 1863 1974 2082
8 2086 1976 1882 1987 2189 2085 1993 2095
8 2090 1987 2086 2190 1981 1875 1977 2087
8 2191 2094 1986 2088 2103 1998 1888 1997
8 2088 1986 2094 2191 1980 1877 1989 2089
8 1991 2091 2192 2097 1880 1982 2089 1989
8 2093 1988 2095 2193 1984 1876 1987 2090
8 1879 1983 2092 1990 1991 2091 2194 2098
8 1985 1878 1990 2092 2093 1988 2096 2195
8 2097 1996 1886 1989 2196 2099 1992 2094
8 2196 2099 1992 2094 2104 1999 1889 1998
8 1994 2096 1988 1883 2100 2197 2095 1993
8 2096 1994 1884 1990 2198 2101 1995 2098
8 1995 2098 2199 2102 1885 1991 2097 1996
8 2203 2104 1998 2103 2106 2001 1891 2000
8 2107 2002 2105 2204 2001 1892 1999 2104
8 2109 2004 2107 2206 2003 1894 2001 2106
8 2110 2005 2108 2207 2004 1895 2002 2107
8 2112 2007 2110 2209 2006 1897 2004 2109
8 2113 2008 2111 2210 2007 1898 2005 2110
8 2120 2011 2113 2212 2014 1901 2007 2112
8 2117 2009 2114 2213 2011 1899 2008 2113
8 2219 2116 2009 2117 2119 2010 1899 2011
8 2222 2118 2010 2119 2122 2012 1900 2013
8 2223 2119 2011 2120 2123 2013 1901 2014
8 2016 1902 2015 2125 2122 2012 2121 2225
8 2126 2016 2122 2226 2017 1903 2013 2123
8 2019 1905 2018 2128 2125 2015 2124 2228
8 2020 1906 2019 2129 2126 2016 2125 2229
8 2022 1908 2021 2131 2128 2018 2127 2231
8 2023 1909 2022 2132 2129 2019 2128 2232
8 2025 1911 2024 2134 2131 2021 2130 2234
8 2026 1912 2025 2135 2132 2022 2131 2235
8 1914 2028 2134 2024 2027 2136 2236 2133
8 2029 1915 2028 2137 2135 2025 2134 2237
8 2030 1918 2031 2138 2137 2028 2136 2238
8 2157 2050 2139 2240 2054 1941 2033 2140
8 2052 1940 2054 2161 2144 2035 2140 2242
8 2140 2033 2141 2243 2035 1923 2034 2143
8 2143 2034 2142 2246 2037 1924 2036 2146
8 2144 2035 2143 2247 2051 1939 2037 2147
8 2146 2036 2145 2249 2039 1925 2038 2149
8 2147 2037 2146 2250 2040 1926 2039 2150
8 2149 2038 2148 2251 2042 1927 2041 2151
8 2150 2039 2149 2252 2043 1928 2042 2152
8 2152 2042 2151 2253 2045 1931 2044 2153
8 2255 2154 2047 2155 2189 2085 1976 2086
8 2170 2062 1949 2063 2255 2154 2047 2155
8 2256 2155 2048 2156 2190 2086 1977 2087
8 2171 2063 1950 2064 2256 2155 2048 2156
8 2258 2159 2050 2157 2164 2056 1941 2054
8 2160 2053 1946 2058 2262 2163 2060 2167
8 2162 2055 1940 2052 2262 2163 2053 2160
8 2162 2055 2164 2263 2052 1940 2054 2161
8 2163 2057 1948 2060 2264 2165 2061 2168
8 2055 1943 2057 2163 2164 2056 2165 2264
8 2182 2076 2166 2268 2077 1964 2061 2168
8 2183 2077 2168 2269 2078 1965 2060 2167
8 2070 1963 2062 2170 2177 2075 2169 2271
8 2172 2070 1959 2065 2272 2170 2063 2171
8 2172 2070 2177 2273 2065 1959 2072 2173
8 2066 1958 2072 2173 2174 2071 2178 2274
8 2067 1957 2071 2174 2175 2069 2176 2275
8 2175 2069 2176 2275 2079 1973 2083 2184
8 2071 1961 2074 2178 2176 2073 2179 2276
8 2176 2073 2179 2276 2083 1975 2084 2186
8 2072 1962 2075 2177 2178 2074 2180 2277
8 2182 2076 1974 2082 2280 2181 2084 2186
8 2183 2077 1971 2081 2281 2182 2082 2185
8 2184 2083 2186 2282 2080 1972 2082 2185
8 2189 2085 1993 2095 2285 2188 2100 2197
8 2190 2086 1987 2090 2286 2189 2095 2193
8 2192 2097 1989 2089 2287 2196 2094 2191
8 2287 2196 2094 2191 2203 2104 1998 2103
8 2194 2098 1991 2091 2288 2199 2097 2192
8 2195 2096 2197 2289 2093 1988 2095 2193
8 2096 2195 2290 2198 1990 2092 2194 2098
8 2097 1996 2099 2196 2199 2102 2200 2291
8 2196 2099 1999 2104 2291 2200 2105 2204
8 2100 2197 2292 2201 1994 2096 2198 2101
8 1995 2098 2198 2101 2102 2199 2293 2202
8 2206 2107 2204 2296 2106 2001 2104 2203
8 2207 2108 2205 2297 2107 2002 2105 2204
8 2209 2110 2207 2299 2109 2004 2107 2206
8 2210 2111 2208 2300 2110 2005 2108 2207
8 2212 2113 2210 2302 2112 2007 2110 2209
8 2213 2114 2211 2303 2113 2008 2111 2210
8 2220 2117 2213 2305 2120 2011 2113 2212
8 2216 2115 2214 2306 2117 2009 2114 2213
8 2216 2115 2009 2117 2311 2217 2116 2219
8 2219 2116 2010 2119 2314 2218 2118 2222
8 2315 2219 2117 2220 2223 2119 2011 2120
8 2122 2012 2121 2225 2222 2118 2221 2317
8 2318 2222 2119 2223 2226 2122 2013 2123
8 2125 2015 2124 2228 2225 2121 2224 2320
8 2126 2016 2125 2229 2226 2122 2225 2321
8 2128 2018 2127 2231 2228 2124 2227 2323
8 2129 2019 2128 2232 2229 2125 2228 2324
8 2131 2021 2130 2234 2231 2127 2230 2326
8 2132 2022 2131 2235 2232 2128 2231 2327
8 2134 2024 2133 2236 2234 2130 2233 2328
8 2135 2025 2134 2237 2235 2131 2234 2329
8 2137 2028 2136 2238 2237 2134 2236 2330
8 2157 2050 2158 2259 2240 2139 2239 2332
8 2257 2157 2240 2334 2161 2054 2140 2242
8 2240 2139 2241 2335 2140 2033 2141 2243
8 2242 2140 2243 2337 2144 2035 2143 2247
8 2243 2141 2244 2338 2143 2034 2142 2246
8 2246 2142 2245 2341 2146 2036 2145 2249
8 2247 2143 2246 2342 2147 2037 2146 2250
8 2249 2145 2248 2343 2149 2038 2148 2251
8 2250 2146 2249 2344 2150 2039 2149 2252
8 2252 2149 2251 2345 2152 2042 2151 2253
8 2169 2271 2347 2254 2062 2170 2255 2154
8 2189 2085 2188 2285 2255 2154 2254 2347
8 2348 2255 2155 2256 2286 2189 2086 2190
8 2272 2170 2063 2171 2348 2255 2155 2256
8 2349 2258 2157 2257 2263 2164 2054 2161
8 2258 2159 2261 2351 2157 2050 2158 2259
8 2258 2159 2056 2164 2351 2261 2165 2264
8 2262 2163 2060 2167 2355 2264 2168 2269
8 2162 2055 2163 2262 2263 2164 2264 2355
8 2357 2266 2165 2264 2268 2166 2061 2168
8 2268 2166 2076 2182 2361 2267 2181 2280
8 2281 2182 2268 2362 2183 2077 2168 2269
8 2271 2169 2270 2364 2177 2075 2180 2277
8 2172 2070 2170 2272 2273 2177 2271 2365
8 2072 2173 2274 2178 2177 2273 2366 2277
8 2071 2174 2275 2176 2178 2274 2367 2276
8 2275 2176 2276 2367 2184 2083 2186 2282
8 2283 2187 2084 2186 2368 2278 2179 2276
8 2178 2074 2180 2277 2276 2179 2278 2368
8 2283 2187 2279 2370 2186 2084 2181 2280
8 2281 2182 2082 2185 2371 2280 2186 2282
8 2188 2285 2374 2284 2100 2197 2292 2201
8 2286 2189 2095 2193 2375 2285 2197 2289
8 2192 2097 2196 2287 2288 2199 2291 2376
8 2287 2196 2104 2203 2376 2291 2204 2296
8 2194 2098 2199 2288 2290 2198 2293 2377
8 2289 2197 2096 2195 2378 2292 2198 2290
8 2291 2200 2105 2204 2379 2294 2205 2297
8 2199 2102 2200 2291 2293 2202 2294 2379
8 2198 2101 2202 2293 2292 2201 2295 2380
8 2299 2207 2297 2383 2206 2107 2204 2296
8 2300 2208 2298 2384 2207 2108 2205 2297
8 2302 2210 2300 2386 2209 2110 2207 2299
8 2303 2211 2301 2387 2210 2111 2208 2300
8 2305 2213 2303 2389 2212 2113 2210 2302
8 2306 2214 2304 2390 2213 2114 2211 2303
8 2310 2216 2306 2392 2220 2117 2213 2305
8 2308 2215 2307 2393 2216 2115 2214 2306
8 2308 2215 2115 2216 2396 2309 2217 2311
8 2310 2216 2117 2220 2398 2311 2219 2315
8 2311 2217 2116 2219 2399 2312 2218 2314
8 2314 2218 2118 2222 2402 2313 2221 2317
8 2315 2219 2119 2223 2403 2314 2222 2318
8 2225 2121 2224 2320 2317 2221 2316 2405
8 2226 2122 2225 2321 2318 2222 2317 2406
8 2228 2124 2227 2323 2320 2224 2319 2408
8 2229 2125 2228 2324 2321 2225 2320 2409
8 2231 2127 2230 2326 2323 2227 2322 2411
8 2232 2128 2231 2327 2324 2228 2323 2412
8 2234 2130 2233 2328 2326 2230 2325 2413
8 2235 2131 2234 2329 2327 2231 2326 2414
8 2237 2134 2236 2330 2329 2234 2328 2415
8 2259 2158 2260 2352 2332 2239 2331 2417
8 2257 2157 2259 2350 2334 2240 2332 2419
8 2240 2139 2239 2332 2335 2241 2333 2420
8 2334 2240 2335 2422 2242 2140 2243 2337
8 2335 2241 2336 2423 2243 2141 2244 2338
8 2337 2243 2338 2425 2247 2143 2246 2342
8 2338 2244 2339 2426 2246 2142 2245 2341
8 2341 2245 2340 2428 2249 2145 2248 2343
8 2342 2246 2341 2429 2250 2146 2249 2344
8 2344 2249 2343 2430 2252 2149 2251 2345
8 2188 2285 2347 2254 2284 2374 2432 2346
8 2347 2254 2346 2432 2271 2169 2270 2364
8 2365 2271 2170 2272 2433 2347 2255 2348
8 2286 2189 2285 2375 2348 2255 2347 2433
8 2349 2258 2351 2435 2257 2157 2259 2350
8 2349 2258 2164 2263 2435 2351 2264 2355
8 2259 2158 2261 2351 2352 2260 2354 2437
8 2356 2265 2354 2437 2264 2165 2261 2351
8 2441 2357 2264 2355 2362 2268 2168 2269
8 2356 2265 2165 2264 2442 2358 2266 2357
8 2443 2359 2266 2357 2361 2267 2166 2268
8 2370 2279 2360 2446 2280 2181 2267 2361
8 2362 2268 2182 2281 2447 2361 2280 2371
8 2180 2277 2368 2278 2270 2364 2449 2363
8 2271 2365 2273 2177 2364 2450 2366 2277
8 2372 2283 2186 2282 2451 2368 2276 2367
8 2178 2274 2367 2276 2277 2366 2451 2368
8 2283 2187 2278 2368 2370 2279 2369 2452
8 2372 2283 2370 2453 2282 2186 2280 2371
8 2284 2374 2455 2373 2201 2292 2380 2295
8 2375 2285 2197 2289 2456 2374 2292 2378
8 2376 2291 2204 2296 2457 2379 2297 2383
8 2288 2199 2291 2376 2377 2293 2379 2457
8 2198 2290 2378 2292 2293 2377 2458 2380
8 2293 2202 2294 2379 2380 2295 2381 2459
8 2384 2298 2381 2459 2297 2205 2294 2379
8 2386 2300 2384 2463 2299 2207 2297 2383
8 2387 2301 2385 2464 2300 2208 2298 2384
8 2389 2303 2387 2466 2302 2210 2300 2386
8 2390 2304 2388 2467 2303 2211 2301 2387
8 2392 2306 2390 2469 2305 2213 2303 2389
8 2393 2307 2391 2470 2306 2214 2304 2390
8 2395 2308 2393 2472 2310 2216 2306 2392
8 2308 2215 2309 2396 2393 2307 2394 2473
8 2395 2308 2216 2310 2475 2396 2311 2398
8 2396 2309 2217 2311 2476 2397 2312 2399
8 2398 2311 2219 2315 2478 2399 2314 2403
8 2399 2312 2218 2314 2479 2400 2313 2402
8 2317 2221 2316 2405 2402 2313 2401 2482
8 2403 2314 2222 2318 2483 2402 2317 2406
8 2320 2224 2319 2408 2405 2316 2404 2485
8 2321 2225 2320 2409 2406 2317 2405 2486
8 2323 2227 2322 2411 2408 2319 2407 2488
8 2324 2228 2323 2412 2409 2320 2408 2489
8 2326 2230 2325 2413 2411 2322 2410 2490
8 2327 2231 2326 2414 2412 2323 2411 2491
8 2329 2234 2328 2415 2414 2326 2413 2492
8 2417 2331 2260 2352 2494 2416 2353 2438
8 2350 2259 2352 2436 2419 2332 2417 2496
8 2332 2239 2331 2417 2420 2333 2418 2497
8 2334 2240 2332 2419 2422 2335 2420 2499
8 2420 2333 2421 2500 2335 2241 2336 2423
8 2422 2335 2423 2502 2337 2243 2338 2425
8 2423 2336 2424 2503 2338 2244 2339 2426
8 2425 2338 2426 2505 2342 2246 2341 2429
8 2426 2339 2427 2506 2341 2245 2340 2428
8 2429 2341 2428 2507 2344 2249 2343 2430
8 2432 2346 2284 2374 2509 2431 2373 2455
8 2432 2346 2431 2509 2364 2270 2363 2449
8 2375 2285 2374 2456 2433 2347 2432 2510
8 2347 2433 2365 2271 2432 2510 2450 2364
8 2350 2259 2351 2435 2436 2352 2437 2514
8 2440 2356 2437 2514 2355 2264 2351 2435
8 2352 2260 2354 2437 2438 2353 2439 2516
8 2356 2265 2358 2442 2437 2354 2439 2516
8 2440 2356 2264 2355 2518 2442 2357 2441
8 2519 2443 2357 2441 2447 2361 2268 2362
8 2443 2359 2444 2520 2357 2266 2358 2442
8 2443 2359 2267 2361 2520 2444 2360 2446
8 2446 2360 2279 2370 2523 2445 2369 2452
8 2453 2370 2446 2524 2371 2280 2361 2447
8 2449 2363 2448 2525 2368 2278 2369 2452
8 2366 2277 2364 2450 2451 2368 2449 2526
8 2372 2283 2368 2451 2453 2370 2452 2527
8 2455 2373 2295 2380 2529 2454 2382 2460
8 2456 2374 2292 2378 2530 2455 2380 2458
8 2377 2293 2379 2457 2458 2380 2459 2531
8 2463 2384 2459 2531 2383 2297 2379 2457
8 2533 2461 2382 2460 2459 2381 2295 2380
8 2464 2385 2461 2533 2384 2298 2381 2459
8 2466 2387 2464 2537 2386 2300 2384 2463
8 2467 2388 2465 2538 2387 2301 2385 2464
8 2469 2390 2467 2540 2389 2303 2387 2466
8 2470 2391 2468 2541 2390 2304 2388 2467
8 2472 2393 2470 2543 2392 2306 2390 2469
8 2393 2307 2394 2473 2470 2391 2471 2544
8 2395 2308 2396 2475 2472 2393 2473 2546
8 2396 2309 2397 2476 2473 2394 2474 2547
8 2475 2396 2311 2398 2549 2476 2399 2478
8 2476 2397 2312 2399 2550 2477 2400 2479
8 2478 2399 2314 2403 2552 2479 2402 2483
8 2479 2400 2313 2402 2553 2480 2401 2482
8 2405 2316 2404 2485 2482 2401 2481 2556
8 2406 2317 2405 2486 2483 2402 2482 2557
8 2408 2319 2407 2488 2485 2404 2484 2559
8 2409 2320 2408 2489 2486 2405 2485 2560
8 2411 2322 2410 2490 2488 2407 2487 2561
8 2412 2323 2411 2491 2489 2408 2488 2562
8 2414 2326 2413 2492 2491 2411 2490 2563
8 2513 2434 2493 2565 2438 2353 2416 2494
8 2496 2417 2352 2436 2567 2494 2438 2515
8 2494 2416 2495 2568 2417 2331 2418 2497
8 2419 2332 2417 2496 2499 2420 2497 2570
8 2497 2418 2498 2571 2420 2333 2421 2500
8 2499 2420 2500 2573 2422 2335 2423 2502
8 2500 2421 2501 2574 2423 2336 2424 2503
8 2502 2423 2503 2576 2425 2338 2426 2505
8 2503 2424 2504 2577 2426 2339 2427 2506
8 2505 2426 2506 2578 2429 2341 2428 2507
8 2509 2431 2373 2455 2580 2508 2454 2529
8 2509 2431 2508 2580 2449 2363 2448 2525
8 2432 2510 2581 2509 2374 2456 2530 2455
8 2432 2510 2450 2364 2509 2581 2526 2449
8 2583 2511 2434 2513 2516 2439 2353 2438
8 2436 2352 2437 2514 2515 2438 2516 2588
8 2440 2356 2442 2518 2514 2437 2516 2588
8 2442 2358 2444 2520 2516 2439 2517 2589
8 2519 2443 2520 2591 2441 2357 2442 2518
8 2519 2443 2361 2447 2591 2520 2446 2524
8 2446 2360 2445 2523 2520 2444 2521 2592
8 2525 2448 2522 2593 2452 2369 2445 2523
8 2524 2446 2370 2453 2594 2523 2452 2527
8 2526 2449 2525 2595 2451 2368 2452 2527
8 2534 2462 2528 2597 2460 2382 2454 2529
8 2530 2455 2380 2458 2598 2529 2460 2532
8 2599 2533 2460 2532 2531 2459 2380 2458
8 2537 2464 2533 2599 2463 2384 2459 2531
8 2534 2462 2382 2460 2601 2535 2461 2533
8 2538 2465 2535 2601 2464 2385 2461 2533
8 2540 2467 2538 2604 2466 2387 2464 2537
8 2541 2468 2539 2605 2467 2388 2465 2538
8 2543 2470 2541 2607 2469 2390 2467 2540
8 2470 2391 2471 2544 2541 2468 2542 2608
8 2472 2393 2473 2546 2543 2470 2544 2610
8 2473 2394 2474 2547 2544 2471 2545 2611
8 2475 2396 2476 2549 2546 2473 2547 2613
8 2476 2397 2477 2550 2547 2474 2548 2614
8 2549 2476 2399 2478 2616 2550 2479 2552
8 2479 2400 2480 2553 2550 2477 2551 2617
8 2552 2479 2402 2483 2619 2553 2482 2557
8 2482 2401 2481 2556 2553 2480 2554 2620
8 2485 2404 2484 2559 2556 2481 2555 2623
8 2486 2405 2485 2560 2557 2482 2556 2624
8 2488 2407 2487 2561 2559 2484 2558 2625
8 2489 2408 2488 2562 2560 2485 2559 2626
8 2491 2411 2490 2563 2562 2488 2561 2627
8 2513 2434 2512 2585 2565 2493 2564 2630
8 2586 2513 2565 2632 2515 2438 2494 2567
8 2565 2493 2566 2633 2494 2416 2495 2568
8 2567 2494 2568 2635 2496 2417 2497 2570
8 2568 2495 2569 2636 2497 2418 2498 2571
8 2570 2497 2571 2638 2499 2420 2500 2573
8 2571 2498 2572 2639 2500 2421 2501 2574
8 2573 2500 2574 2641 2502 2423 2503 2576
8 2574 2501 2575 2642 2503 2424 2504 2577
8 2576 2503 2577 2643 2505 2426 2506 2578
8 2597 2528 2579 2645 2529 2454 2508 2580
8 2580 2508 2579 2645 2525 2448 2522 2593
8 2581 2509 2455 2530 2646 2580 2529 2598
8 2581 2509 2580 2646 2526 2449 2525 2595
8 2583 2511 2582 2648 2513 2434 2512 2585
8 2583 2511 2439 2516 2648 2582 2517 2589
8 2649 2583 2513 2586 2588 2516 2438 2515
8 2589 2517 2444 2520 2653 2587 2521 2592
8 2518 2442 2520 2591 2588 2516 2589 2654
8 2593 2522 2590 2655 2523 2445 2521 2592
8 2524 2446 2523 2594 2591 2520 2592 2656
8 2595 2525 2593 2657 2527 2452 2523 2594
8 2602 2536 2596 2659 2534 2462 2528 2597
8 2600 2534 2597 2660 2532 2460 2529 2598
8 2600 2534 2460 2532 2661 2601 2533 2599
8 2604 2538 2601 2661 2537 2464 2533 2599
8 2602 2536 2462 2534 2663 2603 2535 2601
8 2601 2535 2465 2538 2663 2603 2539 2605
8 2607 2541 2605 2665 2540 2467 2538 2604
8 2608 2542 2606 2666 2541 2468 2539 2605
8 2543 2470 2544 2610 2607 2541 2608 2668
8 2544 2471 2545 2611 2608 2542 2609 2669
8 2546 2473 2547 2613 2610 2544 2611 2671
8 2547 2474 2548 2614 2611 2545 2612 2672
8 2549 2476 2550 2616 2613 2547 2614 2674
8 2550 2477 2551 2617 2614 2548 2615 2675
8 2552 2479 2553 2619 2616 2550 2617 2677
8 2553 2480 2554 2620 2617 2551 2618 2678
8 2557 2482 2556 2624 2619 2553 2620 2680
8 2556 2481 2555 2623 2620 2554 2621 2681
8 2559 2484 2558 2625 2623 2555 2622 2683
8 2560 2485 2559 2626 2624 2556 2623 2684
8 2562 2488 2561 2627 2626 2559 2625 2685
8 2690 2629 2564 2630 2650 2584 2512 2585
8 2586 2513 2585 2651 2632 2565 2630 2691
8 2630 2564 2631 2692 2565 2493 2566 2633
8 2632 2565 2633 2694 2567 2494 2568 2635
8 2633 2566 2634 2695 2568 2495 2569 2636
8 2635 2568 2636 2697 2570 2497 2571 2638
8 2636 2569 2637 2698 2571 2498 2572 2639
8 2638 2571 2639 2700 2573 2500 2574 2641
8 2639 2572 2640 2701 2574 2501 2575 2642
8 2641 2574 2642 2702 2576 2503 2577 2643
8 2597 2528 2596 2659 2645 2579 2644 2704
8 2645 2579 2644 2704 2593 2522 2590 2655
8 2660 2597 2645 2705 2598 2529 2580 2646
8 2646 2580 2645 2705 2595 2525 2593 2657
8 2650 2584 2512 2585 2707 2647 2582 2648
8 2648 2582 2517 2589 2707 2647 2587 2653
8 2649 2583 2648 2708 2586 2513 2585 2651
8 2649 2583 2516 2588 2708 2648 2589 2654
8 2655 2590 2652 2710 2592 2521 2587 2653
8 2654 2589 2520 2591 2711 2653 2592 2656
8 2657 2593 2655 2712 2594 2523 2592 2656
8 2602 2536 2603 2663 2659 2596 2658 2714
8 2662 2602 2659 2715 2600 2534 2597 2660
8 2662 2602 2534 2600 2717 2663 2601 2661
8 2661 2601 2538 2604 2717 2663 2605 2665
8 2666 2606 2664 2718 2605 2539 2603 2663
8 2668 2608 2666 2720 2607 2541 2605 2665
8 2608 2542 2609 2669 2666 2606 2667 2721
8 2610 2544 2611 2671 2668 2608 2669 2723
8 2611 2545 2612 2672 2669 2609 2670 2724
8 2613 2547 2614 2674 2671 2611 2672 2726
8 2614 2548 2615 2675 2672 2612 2673 2727
8 2616 2550 2617 2677 2674 2614 2675 2729
8 2617 2551 2618 2678 2675 2615 2676 2730
8 2619 2553 2620 2680 2677 2617 2678 2732
8 2620 2554 2621 2681 2678 2618 2679 2733
8 2624 2556 2623 2684 2680 2620 2681 2735
8 2681 2621 2555 2623 2736 2682 2622 2683
8 2626 2559 2625 2685 2684 2623 2683 2737
8 2688 2628 2584 2650 2740 2686 2647 2707
8 2688 2628 2687 2742 2650 2584 2629 2690
8 2690 2629 2689 2745 2630 2564 2631 2692
8 2746 2690 2630 2691 2709 2650 2585 2651
8 2691 2630 2692 2747 2632 2565 2633 2694
8 2692 2631 2693 2748 2633 2566 2634 2695
8 2694 2633 2695 2750 2635 2568 2636 2697
8 2695 2634 2696 2751 2636 2569 2637 2698
8 2697 2636 2698 2753 2638 2571 2639 2700
8 2698 2637 2699 2754 2639 2572 2640 2701
8 2700 2639 2701 2755 2641 2574 2642 2702
8 2659 2596 2658 2714 2704 2644 2703 2757
8 2704 2644 2703 2757 2655 2590 2652 2710
8 2660 2597 2659 2715 2705 2645 2704 2758
8 2705 2645 2704 2758 2657 2593 2655 2712
8 2759 2706 2647 2707 2710 2652 2587 2653
8 2709 2650 2585 2651 2760 2707 2648 2708
8 2708 2648 2589 2654 2760 2707 2653 2711
8 2712 2655 2710 2761 2656 2592 2653 2711
8 2763 2713 2658 2714 2718 2664 2603 2663
8 2662 2602 2663 2717 2715 2659 2714 2764
8 2720 2666 2718 2767 2665 2605 2663 2717
8 2768 2719 2664 2718 2721 2667 2606 2666
8 2668 2608 2669 2723 2720 2666 2721 2770
8 2669 2609 2670 2724 2721 2667 2722 2771
8 2671 2611 2672 2726 2723 2669 2724 2773
8 2672 2612 2673 2727 2724 2670 2725 2774
8 2674 2614 2675 2729 2726 2672 2727 2776
8 2675 2615 2676 2730 2727 2673 2728 2777
8 2677 2617 2678 2732 2729 2675 2730 2779
8 2678 2618 2679 2733 2730 2676 2731 2780
8 2680 2620 2681 2735 2732 2678 2733 2782
8 2733 2679 2621 2681 2783 2734 2682 2736
8 2735 2681 2623 2684 2784 2736 2683 2737
8 2740 2686 2647 2707 2787 2738 2706 2759
8 2688 2628 2686 2740 2742 2687 2739 2789
8 2743 2688 2650 2709 2790 2740 2707 2760
8 2742 2687 2741 2792 2690 2629 2689 2745
8 2743 2688 2742 2793 2709 2650 2690 2746
8 2745 2689 2744 2795 2692 2631 2693 2748
8 2746 2690 2745 2796 2691 2630 2692 2747
8 2747 2692 2748 2797 2694 2633 2695 2750
8 2748 2693 2749 2798 2695 2634 2696 2751
8 2750 2695 2751 2800 2697 2636 2698 2753
8 2751 2696 2752 2801 2698 2637 2699 2754
8 2753 2698 2754 2802 2700 2639 2701 2755
8 2763 2713 2756 2804 2714 2658 2703 2757
8 2759 2706 2652 2710 2804 2756 2703 2757
8 2715 2659 2714 2764 2758 2704 2757 2805
8 2758 2704 2757 2805 2712 2655 2710 2761
8 2806 2759 2707 2760 2761 2710 2653 2711
8 2765 2716 2762 2808 2718 2664 2713 2763
8 2809 2763 2714 2764 2767 2718 2663 2717
8 2765 2716 2664 2718 2811 2766 2719 2768
8 2813 2768 2718 2767 2770 2721 2666 2720
8 2814 2769 2719 2768 2771 2722 2667 2721
8 2723 2669 2724 2773 2770 2721 2771 2816
8 2724 2670 2725 2774 2771 2722 2772 2817
8 2726 2672 2727 2776 2773 2724 2774 2819
8 2727 2673 2728 2777 2774 2725 2775 2820
8 2729 2675 2730 2779 2776 2727 2777 2822
8 2730 2676 2731 2780 2777 2728 2778 2823
8 2732 2678 2733 2782 2779 2730 2780 2825
8 2780 2731 2679 2733 2826 2781 2734 2783
8 2782 2733 2681 2735 2827 2783 2736 2784
8 2830 2785 2738 2787 2804 2756 2706 2759
8 2789 2739 2686 2740 2832 2786 2738 2787
8 2790 2740 2707 2760 2833 2787 2759 2806
8 2742 2687 2739 2789 2792 2741 2788 2835
8 2743 2688 2740 2790 2793 2742 2789 2836
8 2792 2741 2791 2838 2745 2689 2744 2795
8 2793 2742 2792 2839 2746 2690 2745 2796
8 2795 2744 2794 2841 2748 2693 2749 2798
8 2796 2745 2795 2842 2747 2692 2748 2797
8 2797 2748 2798 2843 2750 2695 2751 2800
8 2798 2749 2799 2844 2751 2696 2752 2801
8 2800 2751 2801 2845 2753 2698 2754 2802
8 2808 2762 2803 2847 2763 2713 2756 2804
8 2809 2763 2804 2848 2764 2714 2757 2805
8 2806 2759 2710 2761 2848 2804 2757 2805
8 2765 2716 2766 2811 2808 2762 2807 2850
8 2810 2765 2808 2851 2767 2718 2763 2809
8 2810 2765 2718 2767 2852 2811 2768 2813
8 2811 2766 2719 2768 2853 2812 2769 2814
8 2855 2814 2768 2813 2816 2771 2721 2770
8 2856 2815 2769 2814 2817 2772 2722 2771
8 2773 2724 2774 2819 2816 2771 2817 2858
8 2774 2725 2775 2820 2817 2772 2818 2859
8 2776 2727 2777 2822 2819 2774 2820 2861
8 2777 2728 2778 2823 2820 2775 2821 2862
8 2779 2730 2780 2825 2822 2777 2823 2864
8 2823 2778 2731 2780 2865 2824 2781 2826
8 2825 2780 2733 2782 2866 2826 2783 2827
8 2869 2828 2785 2830 2847 2803 2756 2804
8 2871 2829 2786 2832 2830 2785 2738 2787
8 2872 2830 2787 2833 2848 2804 2759 2806
8 2789 2739 2786 2832 2835 2788 2831 2874
8 2836 2789 2740 2790 2875 2832 2787 2833
8 2792 2741 2788 2835 2838 2791 2834 2877
8 2793 2742 2789 2836 2839 2792 2835 2878
8 2838 2791 2837 2880 2795 2744 2794 2841
8 2839 2792 2838 2881 2796 2745 2795 2842
8 2841 2794 2840 2882 2798 2749 2799 2844
8 2842 2795 2841 2883 2797 2748 2798 2843
8 2843 2798 2844 2884 2800 2751 2801 2845
8 2886 2846 2803 2847 2850 2807 2762 2808
8 2851 2808 2847 2887 2809 2763 2804 2848
8 2850 2807 2766 2811 2889 2849 2812 2853
8 2810 2765 2811 2852 2851 2808 2850 2890
8 2852 2811 2768 2813 2891 2853 2814 2855
8 2853 2812 2769 2814 2892 2854 2815 2856
8 2894 2856 2814 2855 2858 2817 2771 2816
8 2817 2772 2818 2859 2856 2815 2857 2895
8 2819 2774 2820 2861 2858 2817 2859 2897
8 2820 2775 2821 2862 2859 2818 2860 2898
8 2822 2777 2823 2864 2861 2820 2862 2900
8 2823 2778 2824 2865 2862 2821 2863 2901
8 2864 2823 2780 2825 2902 2865 2826 2866
8 2904 2867 2828 2869 2886 2846 2803 2847
8 2869 2828 2868 2906 2830 2785 2829 2871
8 2907 2869 2830 2872 2887 2847 2804 2848
8 2871 2829 2870 2909 2832 2786 2831 2874
8 2910 2871 2832 2875 2872 2830 2787 2833
8 2835 2788 2831 2874 2877 2834 2873 2912
8 2836 2789 2832 2875 2878 2835 2874 2913
8 2877 2834 2876 2915 2838 2791 2837 2880
8 2839 2792 2835 2878 2881 2838 2877 2916
8 2880 2837 2879 2917 2841 2794 2840 2882
8 2881 2838 2880 2918 2842 2795 2841 2883
8 2883 2841 2882 2919 2843 2798 2844 2884
8 2921 2885 2846 2886 2889 2849 2807 2850
8 2922 2886 2847 2887 2890 2850 2808 2851
8 2889 2849 2812 2853 2924 2888 2854 2892
8 2890 2850 2811 2852 2925 2889 2853 2891
8 2891 2853 2814 2855 2926 2892 2856 2894
8 2892 2854 2815 2856 2927 2893 2857 2895
8 2858 2817 2859 2897 2894 2856 2895 2929
8 2859 2818 2860 2898 2895 2857 2896 2930
8 2861 2820 2862 2900 2897 2859 2898 2932
8 2862 2821 2863 2901 2898 2860 2899 2933
8 2864 2823 2865 2902 2900 2862 2901 2934
8 2904 2867 2846 2886 2936 2903 2885 2921
8 2904 2867 2903 2936 2869 2828 2868 2906
8 2937 2904 2869 2907 2922 2886 2847 2887
8 2906 2868 2905 2939 2871 2829 2870 2909
8 2907 2869 2906 2940 2872 2830 2871 2910
8 2909 2870 2908 2942 2874 2831 2873 2912
8 2910 2871 2909 2943 2875 2832 2874 2913
8 2912 2873 2911 2945 2877 2834 2876 2915
8 2878 2835 2874 2913 2916 2877 2912 2946
8 2915 2876 2914 2947 2880 2837 2879 2917
8 2916 2877 2915 2948 2881 2838 2880 2918
8 2918 2880 2917 2949 2883 2841 2882 2919
8 2921 2885 2849 2889 2951 2920 2888 2924
8 2952 2921 2886 2922 2925 2889 2850 2890
8 2924 2888 2854 2892 2954 2923 2893 2927
8 2925 2889 2853 2891 2955 2924 2892 2926
8 2926 2892 2856 2894 2956 2927 2895 2929
8 2895 2857 2896 2930 2927 2893 2928 2957
8 2897 2859 2898 2932 2929 2895 2930 2959
8 2898 2860 2899 2933 2930 2896 2931 2960
8 2900 2862 2901 2934 2932 2898 2933 2961
8 2936 2903 2885 2921 2963 2935 2920 2951
8 2936 2903 2935 2963 2906 2868 2905 2939
8 2937 2904 2886 2922 2964 2936 2921 2952
8 2937 2904 2936 2964 2907 2869 2906 2940
8 2939 2905 2938 2966 2909 2870 2908 2942
8 2940 2906 2939 2967 2910 2871 2909 2943
8 2942 2908 2941 2969 2912 2873 2911 2945
8 2943 2909 2942 2970 2913 2874 2912 2946
8 2945 2911 2944 2971 2915 2876 2914 2947
8 2946 2912 2945 2972 2916 2877 2915 2948
8 2948 2915 2947 2973 2918 2880 2917 2949
8 2951 2920 2888 2924 2975 2950 2923 2954
8 2952 2921 2889 2925 2976 2951 2924 2955
8 2927 2893 2928 2957 2954 2923 2953 2978
8 2955 2924 2892 2926 2979 2954 2927 2956
8 2929 2895 2930 2959 2956 2927 2957 2980
8 2930 2896 2931 2960 2957 2928 2958 2981
8 2932 2898 2933 2961 2959 2930 2960 2982
8 2951 2920 2950 2975 2963 2935 2962 2984
8 2963 2935 2962 2984 2939 2905 2938 2966
8 2964 2936 2921 2952 2985 2963 2951 2976
8 2964 2936 2963 2985 2940 2906 2939 2967
8 2966 2938 2965 2987 2942 2908 2941 2969
8 2967 2939 2966 2988 2943 2909 2942 2970
8 2969 2941 2968 2989 2945 2911 2944 2971
8 2970 2942 2969 2990 2946 2912 2945 2972
8 2972 2945 2971 2991 2948 2915 2947 2973
8 2954 2923 2953 2978 2975 2950 2974 2993
8 2976 2951 2924 2955 2994 2975 2954 2979
8 2957 2928 2958 2981 2978 2953 2977 2995
8 2956 2927 2957 2980 2979 2954 2978 2996
8 2959 2930 2960 2982 2980 2957 2981 2997
8 2984 2962 2983 2999 2966 2938 2965 2987
8 2975 2950 2974 2993 2984 2962 2983 2999
8 2976 2951 2975 2994 2985 2963 2984 3000
8 2985 2963 2984 3000 2967 2939 2966 2988
8 2987 2965 2986 3001 2969 2941 2968 2989
8 2988 2966 2987 3002 2970 2942 2969 2990
8 2990 2969 2989 3003 2972 2945 2971 2991
8 2978 2953 2977 2995 2993 2974 2992 3004
8 2979 2954 2978 2996 2994 2975 2993 3005
8 2980 2957 2981 2997 2996 2978 2995 3006
8 2974 2993 2999 2983 2992 3004 3007 2998
8 2983 2999 2987 2965 2998 3007 3001 2986
8 3000 2984 2999 3008 2988 2966 2987 3002
8 2994 2975 2993 3005 3000 2984 2999 3008
8 3002 2987 3001 3009 2990 2969 2989 3003
8 2996 2978 2995 3006 3005 2993 3004 3010
8 3005 2993 3004 3010 3008 2999 3007 3011
8 3008 2999 3007 3011 3002 2987 3001 3009

CELL_TYPES 1910
12
12
12
12
12
12
12
12
12
12
12
12
12
12
12
12
12
12
12
12
12
12
12
12
12
12
12
12
12
12
12
12
12
12
12
12
12
12
12
12
12
12
12
12
12
12
12
12
12
12
12
12
12
12
12
12
12
12
12
12
12
12
12
12
12
12
12
12
12
12
12
12
12
12
12
12
12
12
12
12
12
12
12
12
12
12
12
12
12
12
12
12
12
12
12
12
12
12
12
12
12
12
12
12
12
12
12
12
12
12
12
12
12
12
12
12
12
12
12
12
12
12
12
12
12
12
12
12
12
12
12
12
12
12
12
12
12
12
12
12
12
12
12
12
12
12
12
12
12
12
12
12
12
12
12
12
12
12
12
12
12
12
12
12
12
12
12
12
12
12
12
12
12
12
12
12
12
12
12
12
12
12
12
12
12
12
12
12
12
12
12
12
12
12
12
12
12
12
12
12
12
12
12
12
12
12
12
12
12
12
12
12
12
12
12
12
12
12
12
12
12
12
12
12
12
12
12
12
12
12
12
12
12
12
12
12
12
12
12
12
12
12
12
12
12
12
12
12
12
12
12
12
12
12
12
12
12
12
12
12
12
12
12
12
12
12
12
12
12
12
12
12
12
12
12
12
12
12
12
12
12
12
12
12
12
12
12
12
12
12
12
12
12
12
12
12
12
12
12
12
12
12
12
12
12
12
12
12
12
12
12
12
12
12
12
12
12
12
12
12
12
12
12
12
12
12
12
12
12
12
12
12
12
12
12
12
12
12
12
12
12
12
12
12
12
12
12
12
12
12
12
12
12
12
12
12
12
12
12
12
12
12
12
12
12
12
12
12
12
12
12
12
12
12
12
12
12
12
12
12
12
12
12
12
12
12
12
12
12
12
12
12
12
12
12
12
12
12
12
12
12
12
12
12
12
12
12
12
12
12
12
12
12
12
12
12
12
12
12
12
12
12
12
12
12
12
12
12
12
12
12
12
12
12
12
12
12
12
12
12
12
12
12
12
12
12
12
12
12
12
12
12
12
12
12
12
12
12
12
12
12
12
12
12
12
12
12
12
12
12
12
12
12
12
12
12
12
12
12
12
12
12
12
12
12
12
12
12
12
12
12
12
12
12
12
12
12
12
12
12
12
12
12
12
12
12
12
12
12
12
12
12
12
12
12
12
12
12
12
12
12
12
12
12
12
12
12
12
12
12
12
12
12
12
12
12
12
12
12
12
12
12
12
12
12
12
12
12
12
12
12
12
12
12
12
12
12
12
12
12
12
12
12
12
12
12
12
12
12
12
12
12
12
12
12
12
12
12
12
12
12
12
12
12
12
12
12
12
12
12
12
12
12
12
12
12
12
12
12
12
12
12
12
12
12
12
12
12
12
12
12
12
12
12
12
12
12
12
12
12
12
12
12
12
12
12
12
12
12
12
12
12
12
12
12
12
12
12
12
12
12
12
12
12
12
12
12
12
12
12
12
12
12
12
12
12
12
12
12
12
12
12
12
12
12
12
12
12
12
12
12
12
12
12
12
12
12
12
12
12
12
12
12
12
12
12
12
12
12
12
12
12
12
12
12
12
12
12
12
12
12
12
12
12
12
12
12
12
12
12
12
12
12
12
12
12
12
12
12
12
12
12
12
12
12
12
12
12
12
12
12
12
12
12
12
12
12
12
12
12
12
12
12
12
12
12
12
12
12
12
12
12
12
12
12
12
12
12
12
12
12
12
12
12
12
12
12
12
12
12
12
12
12
12
12
12
12
12
12
12
12
12
12
12
12
12
12
12
12
12
12
12
12
12
12
12
12
12
12
12
12
12
12
12
12
12
12
12
12
12
12
12
12
12
12
12
12
12
12
12
12
12
12
12
12
12
12
12
12
12
12
12
12
12
12
12
12
12
12
12
12
12
12
12
12
12
12
12
12
12
12
12
12
12
12
12
12
12
12
12
12
12
12
12
12
12
12
12
12
12
12
12
12
12
12
12
12
12
12
12
12
12
12
12
12
12
12
12
12
12
12
12
12
12
12
12
12
12
12
12
12
12
12
12
12
12
12
12
12
12
12
12
12
12
12
12
12
12
12
12
12
12
12
12
12
12
12
12
12
12
12
12
12
12
12
12
12
12
12
12
12
12
12
12
12
12
12
12
12
12
12
12
12
12
12
12
12
12
12
12
12
12
12
12
12
12
12
12
12
12
12
12
12
12
12
12
12
12
12
12
12
12
12
12
12
12
12
12
12
12
12
12
12
12
12
12
12
12
12
12
12
12
12
12
12
12
12
12
12
12
12
12
12
12
12
12
12
12
12
12
12
12
12
12
12
12
12
12
12
12
12
12
12
12
12
12
12
12
12
12
12
12
12
12
12
12
12
12
12
12
12
12
12
12
12
12
12
12
12
12
12
12
12
12
12
12
12
12
12
12
12
12
12
12
12
12
12
12
12
12
12
12
12
12
12
12
12
12
12
12
12
12
12
12
12
12
12
12
12
12
12
12
12
12
12
12
12
12
12
12
12
12
12
12
12
12
12
12
12
12
12
12
12
12
12
12
12
12
12
12
12
12
12
12
12
12
12
12
12
12
12
12
12
12
12
12
12
12
12
12
12
12
12
12
12
12
12
12
12
12
12
12
12
12
12
12
12
12
12
12
12
12
12
12
12
12
12
12
12
12
12
12
12
12
12
12
12
12
12
12
12
12
12
12
12
12
12
12
12
12
12
12
12
12
12
12
12
12
12
12
12
12
12
12
12
12
12
12
12
12
12
12
12
12
12
12
12
12
12
12
12
12
12
12
12
12
12
12
12
12
12
12
12
12
12
12
12
12
12
12
12
12
12
12
12
12
12
12
12
12
12
12
12
12
12
12
12
12
12
12
12
12
12
12
12
12
12
12
12
12
12
12
12
12
12
12
12
12
12
12
12
12
12
12
12
12
12
12
12
12
12
12
12
12
12
12
12
12
12
12
12
12
12
12
12
12
12
12
12
12
12
12
12
12
12
12
12
12
12
12
12
12
12
12
12
12
12
12
12
12
12
12
12
12
12
12
12
12
12
12
12
12
12
12
12
12
12
12
12
12
12
12
12
12
12
12
12
12
12
12
12
12
12
12
12
12
12
12
12
12
12
12
12
12
12
12
12
12
12
12
12
12
12
12
12
12
12
12
12
12
12
12
12
12
12
12
12
12
12
12
12
12
12
12
12
12
12
12
12
12
12
12
12
12
12
12
12
12
12
12
12
12
12
12
12
12
12
12
12
12
12
12
12
12
12
12
12
12
12
12
12
12
12
12
12
12
12
12
12
12
12
12
12
12
12
12
12
12
12
12
12
12
12
12
12
12
12
12
12
12
12
12
12
12
12
12
12
12
12
12
12
12
12
12
12
12
12
12
12
12
12
12
12
12
12
12
12
12
12
12
12
12
12
12
12
12
12
12
12
12
12
12
12
12
12
12
12
12
12
12
12
12
12
12
12
12
12
12
12
12
12
12
12
12
12
12
12
12
12
12
12
12
12
12
12
12
12
12
12
12
12
12
12
12
12
12
12
12
12
12
12
12
12
12
12
12
12
12
12
12
12
12
12
12
12
12
12
12
12
12
12
12
12
12
12
12
12
12
12
12
12
12
12
12
12
12
12
12
12
12
12
12
12
12
12
12
12
12
12
12
12
12
12
12
12
12
12
12
12
12
12
12
12
12
12
12
12
12
12
12
12
12
12
12
12
12
12
12
12
12
12
12
12
12
12
12
12
12
12
12
12
12
12
12
12
12
12
12
12
12
12
12
12
12
12
12
12
12
12
12
12
12
12
12
12
12
12
12
12
12
12
12
12
12
12
12
12
12
12
12
12
12
12
12
12
12
12
12
12
12
12
12
12
12
12
12
12
12
12
12
12
12
12
12
12
12
12
12
12
12
12
12
12
12
12
12
12
12
12
12
12
12
12
12
12
12
12
12
12
12
12
12
12
12
12
12
12
12
12
12
12
12
12
12
12
12
12
12
12
12
12
12
12
12
12
12
12
12
12
12
12
12
12
12
12
12
12
12
12
12
12
12
12
12
12
12
12
12
12
12
12
12
12
12
12
12
12
12
12
12
12
12
12
12
12
12
12
12
12
12
12
12
12
12
12
12
12
12
12
12
12
12
12
12
12
12
12
12
12
12
12
12
12
12
12
12
12
12
12
12
12
12
12
12
12
12
12
12
12
12
12
12
12
12
12
12
12
12
12
12
12
12
12
12
12
12
12
12
12
12
12
12
12
12
12
12
12
12
12
12
12
12
12
12
12
12
12
12
12
12
12
12
12
12
12
12
12
12
12
12

POINT_DATA 3012
SCALARS Jp_lamdaP float 4
LOOKUP_TABLE default
0.999623 1 1 0.999623
1 1 1 1
0.999635 1 1 0.999635
0.999568 1 1 0.999568
0.999626 1 1 0.999626
0.999602 1 1 0.999602
1.00081 1.00209 1 0.998732
1 1 1 1
1 1 1 1
1 1 1 1
0.999698 1 1 0.999698
0.99899 1.00017 1 0.998824
0.999575 1 1 0.999575
0.999576 1 1 0.999576
0.999638 1 1 0.999638
0.999597 1 1 0.999597
0.999609 1 1 0.999609
0.999645 1 1 0.999645
1.00092 1.00219 1 0.998733
1 1 1 1
0.999551 1 1 0.999551
0.999601 1 1 0.999601
0.999067 1.00046 1 0.998612
1.00046 1.00175 1 0.998712
0.999602 1 1 0.999602
0.999881 1.00114 1 0.998741
1.01842 1.0211 1 0.997382
1 1 1 1
0.999805 1 1 0.999805
0.999818 1 1 0.999818
1 1 1 1
0.999038 1.0002 1 0.998834
0.999601 1 1 0.999601
0.999629 1 1 0.999629
1.0013 1.00241 1 0.998894
1 1 1 1
1.00009 1.00112 1 0.998974
0.998924 1 1 0.998924
1.01016 1.01284 1 0.997356
1 1 1 1
1 1 1 1
0.999789 1 1 0.999789
1 1 1 1
0.999586 1 1 0.999586
0.998545 1 1 0.998545
1 1 1 1
0.998956 1.00016 1 0.998798
0.999622 1 1 0.999622
0.999658 1 1 0.999658
0.999611 1 1 0.999611
1.00103 1.00229 1 0.998737
0.999774 1 1 0.999774
0.999577 1 1 0.999577
0.999616 1 1 0.999616
0.999627 1 1 0.999627
0.99892 1.00031 1 0.998608
1.00018 1.00144 1 0.998744
1.00045 1.00174 1 0.998712
1.01852 1.02121 1 0.997369
1 1 1 1
0.999556 1 1 0.999556
0.99884 1 1 0.99884
0.998615 1.00003 1 0.998586
0.999649 1.00099 1 0.998664
1.02093 1.02386 1 0.997132
1.01936 1.02218 1 0.99724
0.999667 1 1 0.999667
0.998839 1 1 0.998839
1.0156 1.01818 1 0.997467
1.03868 1.04233 1 0.996491
1 1 1 1
1 1 1 1
1 1 1 1
0.99894 1.0001 1 0.998842
1 1 1 1
1 1 1 1
1.00102 1.00233 1 0.998693
0.999886 1 1 0.999886
0.99955 1.00076 1 0.998793
0.999101 1 1.00005 0.999055
1.00872 1.0114 1 0.997352
1 1 1 1
1.00134 1 1.00164 0.999703
1.00065 1.00204 1 0.998612
1.00079 1.00207 1 0.998725
1.02286 1.02601 1 0.996936
0.999702 1 1.00037 0.999332
1.01476 1.01755 1 0.997255
1.00514 1.00765 1 0.99751
1.02125 1.02472 1 0.996612
1 1 1 1
1 1 1 1
1 1 1 1
1 1 1 1
1 1 1 1
0.999792 1 1 0.999792
0.998684 1 1 0.998684
0.999789 1 1 0.999789
0.999191 1.0005 1 0.998693
1 1 1 1
0.998565 1 1 0.998565
0.998797 1 1 0.998797
1.01862 1.02191 1 0.996786
0.999907 1.00108 1 0.998831
1.02381 1.0271 1 0.996803
0.999597 1 1 0.999597
0.999601 1 1 0.999601
0.999627 1 1 0.999627
0.99965 1 1 0.99965
0.998798 1.00019 1 0.998605
1.00045 1.00174 1 0.998715
1.00037 1.00162 1 0.99875
1.01856 1.02127 1 0.997355
1 1 1 1
0.999581 1 1 0.999581
0.998595 1 1 0.998595
0.998604 1.00002 1 0.998579
0.999835 1 1 0.999835
0.999027 1.00011 1 0.998919
0.999561 1.0009 1 0.998663
1.02104 1.02401 1 0.997099
1.01567 1.01827 1 0.997451
1.01974 1.02253 1 0.997265
1.0386 1.04225 1 0.996499
0.998588 1 1 0.998588
0.998589 1 1 0.998589
1.01786 1.02088 1 0.997046
1.02067 1.02368 1 0.997055
1.02058 1.0235 1 0.997146
1.04917 1.05289 1 0.996468
1 1 1 1
1.04224 1.04591 1 0.996482
0.999328 1 1.0003 0.999033
1.0094 1.01199 1 0.997435
1.03527 1.03891 1 0.996499
1.04402 1.04778 1 0.99641
1.00146 1 1.00207 0.999393
1.00656 1 1.00833 0.998242
1 1 1 1
1 1 1 1
1.00089 1.0022 1 0.998698
1 1 1 1
0.999218 1 1.00022 0.998998
0.999433 1.00063 1 0.9988
1.00775 1.01043 1 0.997349
1 1 1 1
1.00107 1 1.00134 0.999726
1.00091 1.00217 1 0.998738
1.00059 1.00175 1 0.998841
1.02226 1.0254 1 0.996936
0.999995 1 1.00074 0.999257
1.01406 1.01685 1 0.997257
1.00388 1.00634 1.00004 0.997509
1.02268 1.02616 1 0.996604
1.00116 1 1.00168 0.999484
1.00036 1 1.00051 0.999852
1.00384 1 1.0053 0.998552
1.02484 1.02809 1 0.996839
1.01946 1.02243 1 0.997093
1.04541 1.04924 1 0.996357
1.0017 1.00323 1.00067 0.997803
1.03134 1.03488 1 0.996584
1.01467 1.01745 1.00057 0.996695
1.0309 1.03456 1 0.996465
1 1 1 1
1 1 1 1
1 1 1 1
1.00145 1 1.0019 0.999551
1 1 1 1
1 1 1 1
1 1 1 1
0.999312 1.00072 1 0.998589
0.998579 1 1 0.998579
1 1 1 1
1 1 1 1
0.998566 1 1 0.998566
0.998695 1 1 0.998693
1.01937 1.02265 1 0.996786
1 1.0014 1 0.998601
1.0237 1.02698 1 0.996802
0.998565 1 1 0.998565
1.01717 1.02048 1 0.996758
1.02102 1.02429 1 0.996807
1.05431 1.05807 1 0.996446
1.02516 1.02845 1 0.996802
1.05581 1.05959 1 0.996428
1 1 1 1
0.999606 1 1 0.999606
0.998324 1 1 0.998324
0.998574 1 1 0.998574
1 1 1 1
0.999365 1.00036 1 0.999002
0.999483 1.00082 1 0.998664
1.02115 1.02416 1 0.997065
1.02023 1.023 1 0.997289
1.01569 1.01831 1 0.997434
1.0386 1.04224 1 0.996507
0.998586 1 1 0.998586
0.998582 1 1 0.998582
1.0178 1.02095 1 0.996914
1.02079 1.02378 1 0.997074
1 1 1 1
0.999251 1.00003 1.00013 0.999091
1.01099 1.01351 1 0.997518
1.02081 1.02374 1 0.99714
1.04909 1.05281 1 0.996461
1.03488 1.03852 1 0.996494
1.04248 1.04613 1 0.996516
1.0436 1.04735 1 0.99642
1.00128 1 1.0019 0.999381
1.00527 1 1.00703 0.998244
1.01709 1.02038 1 0.996779
1.0188 1.02181 1 0.997059
1.0513 1.055 1 0.996496
1.04992 1.05384 0.99982 0.996456
1.04628 1.04992 1 0.996535
1.05428 1.05833 0.999564 0.996604
1.00043 1 1.00121 0.999214
1.04688 1.05054 1 0.996516
1.004 1.00629 1.00011 0.997626
1.02874 1.03229 1 0.99656
1.0413 1.04514 1 0.996323
1.04364 1.04716 1 0.996642
1.00319 1.0005 1.00471 0.997995
1.00584 1 1.0073 0.998547
1.00363 1.00064 1.00546 0.997547
1.00093 1.00229 1 0.998643
1 1 1 1
1.00034 1 1.00059 0.99975
1.00019 1.00143 1 0.99876
1.02174 1.02488 1 0.996936
1.00018 1 1.00092 0.999259
1.00231 1.00477 1.00004 0.997507
1.01291 1.01569 1 0.997259
1.02403 1.02752 1 0.996595
1.00113 1 1.00163 0.999506
0.999955 1 1.00009 0.99987
1.00474 1 1.0062 0.998552
1.02421 1.02746 1 0.996837
1.01883 1.0218 1 0.997096
1.04554 1.04937 1 0.996352
1.00047 1.00216 1.00051 0.997808
1.0324 1.03594 1 0.996586
1.01508 1.01797 1.00047 0.996689
1.0318 1.03546 1 0.996464
0.999927 1 1 0.999927
1.00202 1.00067 1.0032 0.998148
1.00336 1 1.0044 0.998969
1.00498 1.00067 1.00645 0.997862
1.04986 1.05371 1 0.99634
1.03966 1.04335 1 0.996463
1.04838 1.05224 1 0.996335
1.00777 1.01028 1.00049 0.997038
1.03619 1.03981 1 0.996519
1.0272 1.02931 1.00158 0.996386
1.03956 1.04332 1 0.996401
0.99962 1 1 0.99962
0.999981 1 1 0.999981
1 1 1 1
1 1 1 1
1 1 1 1
1.00069 1 1.00099 0.999701
1 1 1 1
1.00171 1 1.00217 0.999536
1 1 1 1
1.00028 1.00168 1 0.998602
0.998716 1.00013 1 0.998588
1.02381 1.0271 1 0.996801
1.0201 1.02339 1 0.996786
0.998568 1 1 0.998568
1 1 1 1
0.998564 1 1 0.998564
1.01752 1.02083 1 0.996758
1.02182 1.02509 1 0.996806
1.05337 1.05713 1 0.996444
1.02469 1.02798 1 0.996799
1.0556 1.05939 1 0.996425
1.01679 1.0201 1 0.996756
1.05218 1.05595 1 0.996422
1.05583 1.05959 1 0.99645
1.05692 1.06383 0.99674 0.996763
1.05419 1.05802 1 0.996381
1.05907 1.06361 0.999072 0.996657
0.998583 1 1 0.998583
0.998575 1 1 0.998575
1.01775 1.02103 1 0.996782
1.0209 1.02388 1 0.997092
1 1 1 1
0.99915 1 1 0.99915
1.01247 1.0149 1 0.9976
1.02102 1.02396 1 0.997135
1.04901 1.05274 1 0.996455
1.0426 1.0462 1 0.996551
1.03464 1.03828 1 0.996489
1.04331 1.04705 1 0.996429
1.00127 1 1.00191 0.999369
1.00457 1 1.00633 0.998246
1.01697 1.02027 1 0.996764
1.01891 1.02192 1 0.997053
1.05101 1.05486 0.999829 0.996521
1.05019 1.05403 0.999898 0.996458
1.0001 1 1.0009 0.999203
1.00559 1.00789 1.0001 0.997624
1.02805 1.03157 1 0.99659
1.04638 1.05004 1 0.996516
1.05395 1.05818 0.999351 0.99665
1.04108 1.04494 1 0.996308
1.04669 1.05035 1 0.996521
1.04377 1.04729 1 0.996638
1.00314 1.00074 1.00441 0.997996
1.00428 1.0008 1.00594 0.997546
1.00606 1 1.00753 0.998546
1.05063 1.05435 1 0.996471
1.05128 1.05522 0.999741 0.99653
1.05668 1.06247 0.99785 0.996695
1.05501 1.05996 0.998668 0.996656
1.04965 1.05358 0.999657 0.996618
1.04788 1.05591 0.995439 0.996949
1.00043 1.00201 1.0006 0.997822
1.04565 1.04945 0.999589 0.996789
1.01577 1.01897 1 0.996853
1.03311 1.03707 1 0.996176
1.03981 1.04366 1 0.996313
1.03771 1.041 0.999936 0.996904
1.00395 1 1.00512 0.998835
1.0004 1.00232 1.00067 0.997416
1.00866 1 1.01098 0.997708
1.0034 1.00349 1.00266 0.997267
1.02363 1.02688 1 0.996834
0.999888 1 1 0.999888
1.00129 1 1.00176 0.999528
1.00647 1 1.00793 0.998552
1.01813 1.0211 1 0.997099
1.04561 1.04944 1 0.996346
0.999244 1.00103 1.00041 0.997813
1.01528 1.01833 1.00033 0.996682
1.03364 1.03718 1 0.996588
1.03168 1.03534 1 0.996462
0.999939 1 1 0.999939
1.00264 1.00037 1.00412 0.99815
1.00313 1 1.00416 0.998978
1.0051 1.00037 1.00689 0.997856
1.04987 1.05373 1 0.996334
1.03981 1.0435 1 0.99646
1.04792 1.05178 1 0.996332
1.00614 1.00867 1.00045 0.997044
1.03581 1.03944 1 0.996515
1.02587 1.02783 1.00173 0.996373
1.03926 1.04293 1 0.996485
0.999964 1 1 0.999964
1.00102 1 1.00174 0.99928
1.0037 1.0043 1.00191 0.99749
1.00666 1 1.00845 0.998233
1.00254 1.00175 1.00322 0.997577
1.05331 1.05711 1 0.996407
1.04202 1.04579 1 0.996394
1.04325 1.04693 1 0.99648
1.01091 1.01229 1.00199 0.99665
1.03484 1.03844 1 0.996532
1.0228 1.02585 1.00086 0.996173
0.999567 1 1 0.999567
0.999023 1 1 0.999023
0.999662 1 1 0.999662
0.999622 1 1 0.999622
0.999989 1 1 0.999989
0.999984 1 1 0.999984
1 1 1 1
1 1 1 1
1 1 1 1
1 1 1.00016 0.999845
1 1 1 1
1.00113 1 1.00145 0.999685
1 1 1 1
1.00159 1 1.00207 0.999521
1 1 1 1
1.02429 1.02758 1 0.996796
1.02236 1.02564 1 0.996806
1.05511 1.0589 1 0.996422
1.05239 1.05615 1 0.996443
1.01792 1.02123 1 0.996759
0.998563 1 1 0.998563
1.01686 1.02017 1 0.996756
1.05189 1.05567 1 0.996422
1.05482 1.05858 1 0.996448
1.05706 1.06432 0.996387 0.99678
1.05367 1.0575 1 0.996376
1.05917 1.06355 0.999222 0.996655
1.05078 1.05457 1 0.996414
1.05681 1.06402 0.996425 0.996785
1.05786 1.06397 0.997521 0.996731
1.05241 1.06182 0.994117 0.996997
1.05641 1.06018 0.999903 0.99654
1.05299 1.06342 0.99317 0.997003
1.01689 1.0202 1 0.99675
1.01903 1.02205 1 0.997048
1.05073 1.05474 0.999645 0.996547
1.0505 1.05423 1 0.99646
0.99978 1 1.00059 0.999193
1.00736 1.00968 1.00007 0.997623
1.02796 1.03144 1 0.99662
1.0465 1.05018 1 0.996496
1.0536 1.05805 0.999099 0.996696
1.04653 1.05018 1 0.996526
1.04077 1.04464 1 0.996292
1.04393 1.04746 1 0.996633
1.00286 1.00106 1.00382 0.997997
1.00495 1.00113 1.00629 0.997545
1.00612 1 1.00758 0.998545
1.05068 1.05442 1 0.99645
1.05132 1.05526 0.999733 0.996528
1.05621 1.06233 0.997493 0.99674
1.05471 1.05965 0.998699 0.996635
1.00181 1.00322 1.00077 0.99782
1.01643 1.01964 1 0.99685
1.03182 1.03571 1.00003 0.996215
1.04989 1.05369 0.999811 0.996581
1.04759 1.05616 0.994875 0.996998
1.04062 1.04451 1 0.996274
1.04586 1.04966 0.999587 0.996792
1.03868 1.04192 0.999949 0.99694
1.00196 1.00339 1.00117 0.997415
1.00375 1.00376 1.00277 0.997231
1.00425 1 1.00542 0.998831
1.00817 1 1.01044 0.997749
1.05626 1.06249 0.997392 0.996735
1.05719 1.0629 0.997942 0.996685
1.04743 1.05716 0.993861 0.996913
1.04629 1.05786 0.992013 0.997025
1.04684 1.0523 0.997879 0.996929
1.04495 1.05566 0.992658 0.997179
1.00518 1.00803 1 0.997171
1.03887 1.04502 0.996946 0.997156
1.01969 1.02336 1 0.996417
1.03042 1.03438 1.00018 0.995993
1.04122 1.04508 1 0.996306
1.03982 1.04297 1 0.996971
1.00053 1 1.00145 0.999082
1.00992 1 1.01194 0.998008
1.00319 1.0061 1 0.997103
1.00496 1.0011 1.00645 0.997415
1.00481 1.00532 1.00239 0.99711
0.99995 1 1 0.99995
1.04981 1.05368 1 0.996328
1.00231 1 1.00333 0.998987
1.00317 1.00023 1.0048 0.998151
1.00494 1.00008 1.00703 0.99785
1.04002 1.04372 1 0.996458
1.04752 1.05138 1 0.996329
1.0052 1.00766 1.00051 0.997051
1.02624 1.028 1.00193 0.996361
1.03559 1.03921 1 0.996511
1.03969 1.04327 1 0.996569
0.99997 1 1 0.99997
1.00057 1 1.00128 0.99929
1.00195 1.00313 1.00134 0.997494
1.00785 1 1.00963 0.99823
1.00259 1.00141 1.00363 0.997554
1.05315 1.05695 1 0.996401
1.04183 1.0456 1 0.996392
1.04327 1.04697 1 0.996468
1.01168 1.01293 1.00213 0.996652
1.03751 1.04113 1 0.996522
1.02317 1.02609 1.00096 0.996198
0.999676 1 1.00021 0.999468
1.00323 1 1.00463 0.998607
1.00131 1.00371 1.00048 0.997138
1.00863 1.00139 1.00939 0.997862
1.00336 1.00383 1.00203 0.997505
1.05034 1.05414 0.999769 0.99662
1.03751 1.04118 1 0.996473
1.04285 1.04634 0.999978 0.996693
1.00423 1.00397 1.00379 0.996482
1.02101 1.02496 1 0.99615
0.99957 1 1 0.99957
0.99894 1 1 0.99894
0.999069 1 1.00007 0.998997
0.998835 1 1.00009 0.99874
0.999106 1 1.00005 0.999053
0.999688 1 1 0.999688
0.999664 1 1 0.999664
0.999995 1 1 0.999995
0.999624 1 1 0.999624
0.999991 1 1 0.999991
1 1 1 1
0.999986 1 1 0.999986
1 1 1 1
1 1 1 1
0.999946 1 1 0.999946
1.00037 1 1.00054 0.999825
1 1 1 1
1 1 1 1
1.00164 1 1.00197 0.999668
1 1 1 1
1.05318 1.05701 1 0.996372
1.05412 1.05788 1 0.996446
1.0595 1.06374 0.999359 0.996653
1.05726 1.06487 0.99604 0.996798
1.05152 1.0553 1 0.996423
1.01687 1.02018 1 0.996756
1.05085 1.05463 1 0.996415
1.05663 1.06377 0.996494 0.99678
1.05846 1.06453 0.997566 0.996731
1.05176 1.06171 0.993584 0.997027
1.05714 1.0609 0.999923 0.996533
1.05328 1.06336 0.993473 0.997025
1.05662 1.06337 0.996893 0.996755
1.05024 1.06056 0.993274 0.996973
1.05256 1.06319 0.992919 0.997068
1.05205 1.06508 0.990594 0.997149
1.05419 1.06013 0.997551 0.996841
1.05155 1.0657 0.989457 0.997231
1.05065 1.05442 1 0.99643
1.05133 1.05528 0.999729 0.996526
1.05572 1.06216 0.997149 0.996785
1.05429 1.05924 0.998707 0.996615
1.00305 1.00429 1.00096 0.997817
1.01588 1.01909 1 0.996846
1.02991 1.03359 1.00018 0.996254
1.05011 1.05375 1 0.996544
1.04732 1.05636 0.994376 0.997048
1.04595 1.04975 0.999581 0.996794
1.04126 1.04519 1 0.996236
1.0389 1.04207 0.999981 0.996976
1.00359 1.00439 1.00179 0.997415
1.0039 1.00381 1.0029 0.997194
1.00449 1 1.00567 0.998828
1.00741 1.00004 1.0096 0.997789
1.05621 1.06246 0.997377 0.996735
1.05675 1.06229 0.998105 0.996665
1.04756 1.05737 0.993765 0.996945
1.04723 1.05813 0.992667 0.997008
1.00589 1.00875 1 0.997163
1.01811 1.0217 1.00003 0.996457
1.03024 1.034 1.00039 0.995982
1.04723 1.05225 0.99835 0.996879
1.04377 1.05483 0.992255 0.997236
1.03734 1.0412 1 0.996291
1.03979 1.04587 0.997017 0.997157
1.04064 1.04374 1 0.997032
1.00288 1.00579 1 0.997104
1.0043 1.00549 1.00172 0.997103
1.00611 1.00141 1.00731 0.997409
1.00114 1 1.0021 0.999047
1.00957 1 1.01155 0.99805
1.04871 1.05932 0.993 0.996959
1.04869 1.05987 0.992441 0.996986
1.04452 1.05978 0.988357 0.99722
1.04007 1.05159 0.991782 0.997242
1.00869 1.01191 1 0.996825
1.04402 1.05038 0.996609 0.997332
1.01092 1.01451 1.00029 0.996173
1.02566 1.02946 1.00051 0.995801
1.03358 1.03742 1 0.996295
0.999551 1 1.00026 0.999287
1.00639 1 1.00801 0.998395
1.00704 1 1.00931 0.99775
1.00366 1.00671 1 0.996972
1.00496 1.00146 1.0064 0.997108
1.00576 1.00659 1.00224 0.996948
0.999975 1 1 0.999975
0.999959 1 1.00066 0.9993
1.05298 1.05679 1 0.996395
1.00921 1 1.011 0.998228
0.999726 1.00149 1.00074 0.997498
1.00257 1.00114 1.0039 0.997531
1.04146 1.04523 1 0.99639
1.04329 1.047 1 0.996456
1.01157 1.01265 1.00229 0.996654
1.02231 1.02539 1.00077 0.996223
1.04021 1.04385 1 0.996514
0.999513 1 1.00004 0.999474
1.00358 1 1.00498 0.998611
1.00242 1.00488 1.00041 0.997131
1.0095 1.00111 1.01055 0.997856
1.00361 1.00438 1.00174 0.997503
1.04993 1.05366 0.999847 0.996614
1.03834 1.04203 1 0.996461
1.04302 1.0465 0.999955 0.996719
1.00535 1.00567 1.00324 0.996445
1.01963 1.02354 1.00006 0.996121
0.99981 1 1.00095 0.998865
1.00943 1 1.01128 0.99817
1.00341 1.00444 1.002 0.99699
1.00918 1.00429 1.00726 0.997628
1.01189 1.01356 1.001 0.997361
1.04621 1.05349 0.995968 0.997111
1.03859 1.04238 1 0.996363
1.04144 1.04492 0.999975 0.996701
1.00726 1.00659 1.00433 0.996344
1.00944 1.01357 1 0.99593
0.999573 1 1 0.999573
0.998958 1 1 0.998958
0.998672 1 1 0.998672
0.999017 1 1.00005 0.998972
0.999074 1 1.00002 0.999051
0.998945 1 1.00023 0.998713
0.998995 1 1.00035 0.998643
0.999289 1 1.00064 0.998652
0.99908 1 1 0.99908
0.999682 1 1 0.999682
0.999688 1 1 0.999688
0.999999 1 1 0.999999
0.999667 1 1 0.999667
0.999996 1 1 0.999996
1 1 1 1
0.999993 1 1 0.999993
1 1 1 1
1 1 1 1
0.999989 1 1 0.999989
0.999928 1 1 0.999928
1 1 1 1
1.00083 1 1.00103 0.999805
1 1 1 1
1 1 1 1
1.05784 1.06158 0.999949 0.996527
1.0588 1.06482 0.997614 0.996731
1.0535 1.06323 0.993789 0.997048
1.05108 1.06156 0.993052 0.997057
1.05647 1.06354 0.996569 0.996774
1.05101 1.05479 1 0.996415
1.05656 1.06314 0.997061 0.996736
1.05082 1.06075 0.993657 0.996966
1.05175 1.06252 0.992789 0.997053
1.05082 1.06457 0.989892 0.99716
1.05389 1.05954 0.997821 0.996843
1.04936 1.06427 0.988689 0.99727
1.0509 1.06045 0.99403 0.996948
1.05201 1.0662 0.989518 0.997147
1.05236 1.06716 0.988851 0.997245
1.04612 1.06152 0.988167 0.997292
1.05622 1.06248 0.997362 0.996734
1.05638 1.06178 0.998262 0.996646
1.04773 1.0576 0.993678 0.996977
1.04827 1.05853 0.993297 0.99699
1.00723 1.0101 1 0.997156
1.01739 1.02097 1 0.996498
1.03013 1.03369 1.00058 0.995971
1.0476 1.05223 0.99877 0.996828
1.04251 1.05399 0.991801 0.997292
1.04099 1.04704 0.997059 0.997158
1.0344 1.03827 1 0.996276
1.04291 1.04595 1 0.997093
1.00209 1.00501 1 0.997104
1.00408 1.00629 1.0007 0.997096
1.0074 1.0014 1.00861 0.997403
1.00162 1 1.00261 0.999012
1.0094 1 1.01133 0.998092
1.04897 1.05954 0.993047 0.996961
1.04925 1.06051 0.992381 0.996981
1.04451 1.059 0.989071 0.997212
1.00829 1.0115 1 0.996821
1.01149 1.01508 1.00026 0.996213
1.02398 1.02752 1.00076 0.995789
1.04048 1.0516 0.992173 0.997228
1.0371 1.04084 1 0.996407
1.0404 1.047 0.996389 0.997299
0.999563 1 1.00024 0.999326
1.00367 1.00661 1.00012 0.996964
1.00359 1.00527 1.00127 0.997068
1.00746 1.00277 1.0076 0.9971
1.00744 1 1.00968 0.997775
1.00641 1 1.00806 0.99836
1.05041 1.06415 0.990023 0.997036
1.04844 1.06693 0.985479 0.997149
1.03829 1.05761 0.98439 0.997301
1.03747 1.05411 0.98673 0.997442
1.00739 1.0108 1 0.99663
1.03583 1.04024 0.998865 0.996896
1.00507 1.00768 1.00165 0.995775
1.01397 1.01735 1.00104 0.99564
0.999594 1 1 0.999594
1.00139 1 1.00267 0.998724
1.00653 1 1.0085 0.998051
1.0068 1 1.00952 0.997299
1.00327 1.00491 1.00157 0.996803
1.00854 1.00318 1.00859 0.996777
0.99948 1 1 0.99948
1.00408 1 1.00547 0.998616
1.04969 1.05334 0.999927 0.996608
1.01017 1.00071 1.01163 0.997849
1.00357 1.00619 1.00027 0.997124
1.00324 1.00422 1.00152 0.9975
1.03935 1.04306 1 0.996448
1.04329 1.04676 0.99994 0.996744
1.00689 1.00777 1.00273 0.996408
1.01823 1.02195 1.00027 0.996092
0.999708 1 1.00084 0.998868
1.00974 1 1.01161 0.998155
1.00392 1.00495 1.00198 0.996999
1.00855 1.00427 1.00664 0.997633
1.01286 1.01498 1.00048 0.997429
1.04776 1.05509 0.995885 0.997158
1.03807 1.04183 1 0.996388
1.0426 1.04603 0.999945 0.996776
1.00746 1.00658 1.00458 0.996312
1.00949 1.01366 1.00003 0.995855
1.00082 1 1.00228 0.998544
1.00968 1.00077 1.01113 0.997789
1.00967 1.00899 1.00378 0.996904
1.0107 1.01186 1.00161 0.997245
1.04447 1.0706 0.978125 0.997411
1.04213 1.04734 0.997837 0.997181
1.02564 1.02971 1 0.996045
1.01242 1.01224 1.00426 0.995932
0.998976 1 1 0.998976
0.998722 1 1.00004 0.998684
0.998656 1 1 0.998656
0.999183 1 1.00013 0.99905
0.999126 1 1.00044 0.998686
0.999104 1 1.00003 0.999078
0.998839 1 1.00019 0.998654
0.999519 1 1.00086 0.998662
0.998718 1 1 0.998718
0.999896 1 1.00139 0.998508
0.999586 1 1.00097 0.998615
0.99906 1 1 0.99906
0.99965 1 1 0.99965
0.999681 1 1 0.999681
1 1 1 1
0.999688 1 1 0.999688
0.999999 1 1 0.999999
1 1 1 1
0.999998 1 1 0.999998
1 1 1 1
1 1 1 1
1 1 1 1
0.99998 1 1 0.99998
1 1 1 1
0.999909 1 1 0.999909
1 1 1 1
1 1 1 1
1.05351 1.05887 0.998088 0.996844
1.05107 1.062 0.992651 0.997038
1.04727 1.06291 0.987942 0.997309
1.04962 1.06413 0.989166 0.997171
1.05141 1.06095 0.99403 0.996959
1.05645 1.06288 0.997224 0.996717
1.05068 1.06033 0.993935 0.996948
1.05186 1.06586 0.989697 0.997138
1.0509 1.06632 0.988265 0.997244
1.04727 1.06239 0.988437 0.997303
1.05308 1.06615 0.990616 0.997092
1.05359 1.07281 0.984748 0.997298
1.0522 1.07308 0.983143 0.997361
1.04922 1.05975 0.993085 0.996963
1.04975 1.06107 0.992334 0.996977
1.0446 1.05823 0.989886 0.997204
1.00819 1.0114 1 0.996817
1.01137 1.01499 1.00018 0.996253
1.02195 1.02541 1.00085 0.995777
1.04094 1.05166 0.992575 0.997214
1.03618 1.04325 0.995945 0.997265
1.03945 1.04308 1 0.99652
1.00301 1.00555 1.00052 0.996956
0.999326 1.00195 1.00019 0.997188
1.00922 1.0037 1.00843 0.997093
0.999597 1 1.00023 0.999365
1.0069 1.00003 1.0091 0.997799
1.00663 1 1.00832 0.998324
1.05121 1.06466 0.990289 0.997044
1.04774 1.06665 0.985078 0.997155
1.03853 1.05732 0.984893 0.997293
1.00475 1.00815 1 0.996623
1.00503 1.0078 1.0014 0.995851
1.01416 1.01759 1.0009 0.995725
1.03771 1.05378 0.987268 0.997445
1.03247 1.03762 0.998157 0.996875
0.99966 1 1 0.99966
1.00142 1 1.0027 0.998722
1.00072 1.00335 1.00054 0.996848
1.01062 1.00248 1.01123 0.996931
1.00634 1.00032 1.00869 0.997347
1.00634 1 1.00835 0.998013
1.05097 1.07054 0.984451 0.997219
1.03962 1.06808 0.976035 0.997255
1.03534 1.0575 0.981508 0.997488
1.02782 1.04169 0.989206 0.997447
1.00244 1.00479 1.00133 0.996333
1.01534 1.01798 1.0014 0.996011
1.0059 1.00772 1.00264 0.995566
0.999827 1 1 0.999827
0.999312 1 1 0.999312
0.999258 1 1.00024 0.999022
1.00207 1 1.00384 0.998243
1.00737 1 1.00974 0.997662
1.00929 1.00042 1.0118 0.997097
0.999998 1.00192 1.00113 0.996953
1.03423 1.00119 1.0359 0.997197
0.999559 1 1.00069 0.998872
1.01026 1 1.01215 0.998141
1.04936 1.05671 0.995835 0.997205
1.00926 1.00532 1.0063 0.997637
1.00464 1.00548 1.00215 0.997007
1.01362 1.01613 1.00004 0.997498
1.03736 1.0411 1 0.996414
1.04367 1.04706 0.999906 0.996852
1.00759 1.0065 1.00482 0.996279
1.00924 1.01352 1 0.99578
1.0013 1 1.0028 0.998507
1.00862 1.00031 1.01053 0.997794
1.01229 1.01121 1.00415 0.996929
1.01018 1.0115 1.00142 0.997282
1.04641 1.0729 0.977818 0.997431
1.04358 1.04826 0.998397 0.997129
1.0252 1.02922 1 0.996096
1.01404 1.01441 1.00377 0.995879
1.00243 1 1.00413 0.998303
1.04884 1.07751 0.975888 0.997437
1.00306 1.00063 1.00501 0.997433
1.01203 1.01268 1.00268 0.996684
1.03729 1.05863 0.982253 0.997538
1.02215 1.02616 0.999909 0.996186
1.01035 1.01148 1.00323 0.995668
0.998696 1 1 0.998696
0.998616 0.999965 1.00001 0.998646
0.998986 1 1.00024 0.998743
0.999076 1 1 0.999076
0.999663 1 1.00099 0.998672
0.998902 1 1.00024 0.998664
0.999057 1 1 0.999057
0.999674 1 1.00105 0.998621
0.998735 1 1 0.998735
0.999538 1 1.00102 0.998524
0.998815 1 1 0.998815
0.998759 1 1.00015 0.998606
0.999918 1 1.00153 0.998385
0.998637 1 1.00008 0.998553
0.998988 1 1 0.998988
0.999608 1 1 0.999608
0.999647 1 1 0.999647
1 1 1 1
0.999679 1 1 0.999679
1 1 1 1
1 1 1 1
1 1 1 1
1 1 1 1
1 1 1 1
0.999854 1 1 0.999854
1 1 1 1
0.999998 1 1 0.999998
1 1 1 1
0.999971 1 1 0.999971
1 1 1 1
1 1 1 1
1.04838 1.06325 0.988672 0.997313
1.04942 1.0654 0.987725 0.997243
1.05169 1.06549 0.989894 0.997129
1.05044 1.06018 0.993846 0.996948
1.05271 1.06606 0.990338 0.997111
1.05339 1.07224 0.985091 0.997289
1.04994 1.07074 0.983164 0.997369
1.05316 1.07274 0.984424 0.99728
1.06341 1.08471 0.982934 0.997388
1.05745 1.08236 0.979288 0.997654
1.05197 1.06513 0.990559 0.997052
1.04697 1.06639 0.984583 0.997161
1.0387 1.05706 0.98531 0.997285
1.00398 1.00733 1.00006 0.996616
1.00571 1.00855 1.00126 0.99593
1.01676 1.02025 1.00078 0.99581
1.03801 1.05325 0.98805 0.997449
1.02925 1.03483 0.997741 0.996855
1.00128 1.00369 1.00071 0.996895
1.01399 1.00307 1.01384 0.997082
1.0072 1.00062 1.0092 0.997395
0.999726 1 1 0.999726
1.00131 1 1.0026 0.99872
1.00633 1 1.00837 0.997974
1.05084 1.07086 0.984037 0.997229
0.999822 1 1 0.999822
0.999276 1 1 0.999276
1.04038 1.06725 0.977504 0.997257
1.03363 1.0563 0.981027 0.997457
1.00321 1.00492 1.00189 0.996418
1.006 1.00714 1.00332 0.995562
1.01579 1.01926 1.00059 0.996001
1.02675 1.04128 0.988593 0.997421
0.999357 1 1.00025 0.999105
1.00207 1 1.00384 0.998235
1.00154 1.00183 1.00288 0.996847
1.02958 1.00124 1.03103 0.997351
1.00741 1.00029 1.01003 0.997114
1.00685 1 1.00919 0.997678
1.06063 1.08442 0.980671 0.997342
1.02088 1.06562 0.960521 0.997392
1.02262 1.0485 0.977628 0.997638
1.00862 1.02243 0.989321 0.99714
1.00527 1.00275 1.00602 0.996519
1.00561 1.00456 1.0055 0.995563
0.999237 1 1 0.999237
0.999276 1 1 0.999276
0.998973 1 1 0.998973
0.998701 1 1.00026 0.998442
1.00537 1 1.00741 0.997979
1.00567 1.00019 1.00817 0.99732
1.04945 1 1.05246 0.997135
1.00127 1.00049 1.00324 0.997543
1.0019 1 1.00343 0.99847
1.00723 1 1.00945 0.997799
1.0476 1.07418 0.977755 0.99745
1.04456 1.04878 0.998897 0.997076
1.00964 1.01119 1.00115 0.997318
1.01515 1.01378 1.00441 0.996954
1.02511 1.02904 1.00004 0.996146
1.01603 1.01688 1.00335 0.995826
1.00258 1 1.0043 0.998285
1.0517 1.081 0.975333 0.997495
1.00366 1.00039 1.00582 0.997462
1.01016 1.01087 1.00269 0.996621
1.03622 1.05773 0.98211 0.997512
1.02119 1.0251 0.999922 0.99627
1.01151 1.01236 1.00348 0.995684
1.0057 1 1.00773 0.997986
1.01359 1.0484 0.968809 0.997921
1.00433 1.00321 1.00396 0.997163
1.00482 1.00488 1.00379 0.996171
1.0177 1.02978 0.991163 0.997077
1.00266 1.00457 1.00221 0.995891
0.975645 1.0034 0.975004 0.997265
0.998477 0.999775 1.00007 0.998636
0.999162 0.999424 1.001 0.998743
0.999532 1 1.00087 0.998668
0.999054 1 1 0.999054
0.999993 1 1.00137 0.998626
0.998995 1 1.00046 0.998539
0.998752 1 1 0.998752
0.998987 1 1 0.998987
0.998767 1 1.00022 0.998546
0.998781 1 1 0.998781
0.999793 1 1.00141 0.998387
0.998727 1 1.00014 0.998587
0.998922 1 1.00015 0.99877
0.998778 1 1.00057 0.998206
1.00077 1 1.00241 0.998359
0.998527 1 1.0001 0.99843
0.998843 1 1 0.998843
0.9992 1 1.00059 0.998612
0.998868 1 1.00006 0.998812
0.999588 1 1 0.999588
0.999605 1 1 0.999605
1 1 1 1
0.999643 1 1 0.999643
1 1 1 1
1 1 1 1
1 1 1 1
1 1 1 1
1 1 1 1
0.999882 1 1 0.999882
0.999854 1 1 0.999854
1 1 1 1
1 1 1 1
1 1 1 1
0.999996 1 1 0.999996
1 1 1 1
1 1 1 1
1.04792 1.06875 0.983084 0.997377
1.05305 1.07166 0.985312 0.99728
1.0524 1.06602 0.99006 0.99713
1.05312 1.07263 0.984496 0.997278
1.0609 1.08238 0.982725 0.997385
1.05654 1.08045 0.980246 0.997577
1.06559 1.09128 0.978949 0.997453
0.971913 1.01605 0.960865 0.995515
1.01455 1.04754 0.970104 0.998358
0.999381 1 1 0.999381
1.05073 1.07115 0.983651 0.99724
1.04126 1.06648 0.979032 0.997259
1.03182 1.05521 0.980355 0.997427
1.00008 1.00277 1.00082 0.9965
1.00462 1.00506 1.00402 0.995556
1.0149 1.01891 1.00008 0.995992
1.0255 1.04086 0.987809 0.997395
0.998856 1.00199 1.00013 0.996744
1.02278 1.00035 1.02498 0.99751
1.00528 1 1.00817 0.997132
0.999817 1 1 0.999817
1.00754 1 1.00987 0.997694
0.999455 1 1.00027 0.999188
1.00212 1 1.0039 0.998226
0.99924 1 1 0.99924
1.05715 1.08462 0.977264 0.997349
0.999282 1 1 0.999282
0.999275 1 1 0.999275
0.99877 1.00006 0.99977 0.998937
1.02538 1.06608 0.964341 0.99739
1.02297 1.04865 0.977865 0.99759
1.00174 1.00213 1.00308 0.996549
1.00941 1.00819 1.00555 0.995688
1.00764 1.0202 0.99054 0.997123
0.998817 1 1.00032 0.998498
1.0054 1 1.00749 0.997929
1.00783 1.00031 1.01012 0.997427
1.03936 1.00009 1.04223 0.99716
1.00499 1.00027 1.00736 0.99737
1.03786 1.07303 0.969697 0.997456
1.00289 1.05517 0.952789 0.997545
1.01515 1.03135 0.986969 0.99729
0.991653 1.0084 0.986469 0.99688
1.00365 1 1.0065 0.997168
0.998808 1 1 0.998808
0.998744 1 1 0.998744
0.999839 1 1.00116 0.998681
1.00545 1 1.00724 0.99823
1.00819 1 1.01039 0.997818
1.03668 0.999858 1.03952 0.997412
1.03071 1.00168 1.03159 0.997479
1.00253 1 1.00427 0.998265
1.00389 1 1.00642 0.997492
1.05365 1.08533 0.973198 0.997551
1.03571 1.05766 0.981715 0.997486
1.02061 1.02443 0.999912 0.996353
1.00785 1.00863 1.00268 0.996559
1.01226 1.01298 1.0036 0.995701
1.00522 1 1.0072 0.998027
1.01315 1.04885 0.967932 0.99796
1.00154 1.00204 1.00233 0.997173
1.00393 1.00369 1.00408 0.996173
1.01673 1.02984 0.990048 0.997195
1.00316 1.00456 1.00273 0.995885
0.975354 1.00339 0.975697 0.996274
1.0059 1.00065 1.00738 0.997881
1.0023 1.02413 0.980746 0.997905
1.0005 1.00137 1.0021 0.997031
1.00433 1.00149 1.00644 0.996426
0.992175 1.00605 0.989224 0.996948
0.915264 0.977196 0.960587 0.975053
0.911935 0.968728 0.953648 0.98713
0.969159 0.984575 0.986896 0.997412
0.731983 0.839121 0.917107 0.951166
0.651432 0.800848 0.868729 0.936343
0.999116 0.998887 1.00149 0.998744
1.0005 0.999262 1.00252 0.998721
1.00017 1 1.00147 0.998704
0.998986 1 1 0.998986
0.998635 1 1.0001 0.998539
0.999419 1 1.00103 0.998388
0.998687 1 1.00012 0.998567
0.998747 1 1 0.998747
1.00141 1 1.00308 0.998335
0.998878 1 1 0.998878
0.998504 1 1.00005 0.99845
0.998964 1 1.00024 0.998726
0.999071 1 1.00082 0.99825
1.00262 1 1.00436 0.998262
1.00318 1 1.0048 0.998382
1.00212 1 1.00386 0.99827
0.998906 1 1.00055 0.998354
0.998808 1 1 0.998808
0.998814 1 1.00037 0.998444
0.999024 1 1.00057 0.998454
0.999019 1 1.00038 0.998639
0.999265 1 1.00069 0.998572
0.99893 1 1 0.99893
0.99893 1 1.00012 0.998808
0.999582 1 1 0.999582
0.999588 1 1 0.999588
1 1 1 1
0.999603 1 1 0.999603
1 1 1 1
1 1 1 1
1 1 1 1
1 1 1 1
1 1 1 1
0.999914 1 1 0.999914
0.999879 1 1 0.999879
1 1 1 1
0.999855 1 1 0.999855
1 1 1 1
1 1 1 1
1 1 1 1
1 1 1 1
1 1 1 1
1.05802 1.07974 0.982462 0.997381
1.05316 1.07255 0.98461 0.997276
1.05605 1.07877 0.981383 0.997502
0.973037 1.01587 0.962079 0.995593
1.06255 1.08861 0.978556 0.997453
1.02696 1.05106 0.978804 0.998228
1.04527 1.06308 0.985628 0.997582
0.927915 0.98001 0.960051 0.986242
0.991555 1.01935 0.976234 0.996412
0.999404 1 1 0.999404
0.999377 1 1 0.999377
0.99892 1 1 0.99892
0.999016 1 1 0.999016
1.0547 1.08482 0.974806 0.997357
1.02947 1.06595 0.968306 0.997388
1.02341 1.04862 0.97837 0.997543
1.00047 1.00091 1.003 0.996578
1.01418 1.0132 1.00518 0.995812
1.00686 1.01842 0.991524 0.997105
1.01806 1 1.02081 0.99731
1.03179 1.00016 1.03454 0.997183
1.00347 1.00017 1.0059 0.997418
0.999275 1 1 0.999275
1.00376 1 1.00589 0.99788
0.99888 1 1.00033 0.998555
0.999328 1 1 0.999328
0.99892 1.00015 0.999873 0.998901
1.03567 1.07298 0.967677 0.997471
0.998845 1 1 0.998845
0.998816 1.00007 0.999936 0.998806
0.999527 0.999929 1.00076 0.998841
1.00844 1.05797 0.955543 0.997536
1.01486 1.03137 0.986668 0.997289
1.00367 1.00063 1.0059 0.997151
0.994865 1.0085 0.989494 0.996954
1.00385 1 1.0057 0.998168
1.00742 1 1.00974 0.997704
1.03748 1.00164 1.03841 0.997459
1.0371 1.00018 1.03968 0.997332
0.996056 1.04582 0.954656 0.997658
0.99527 1.03536 0.963659 0.997535
1.00552 1.01225 0.996379 0.996956
0.98303 1.00095 0.9842 0.997863
1.00046 1 1.00192 0.998537
1.0017 1 1.00329 0.998413
1.01429 0.999731 1.01636 0.998229
1.05746 1.00005 1.06008 0.997491
0.892855 0.968114 0.948929 0.971898
1.00556 1 1.0075 0.998068
0.999293 1.00091 1.00121 0.997182
1.01414 1.049 0.968704 0.998002
1.01585 1.02936 0.98953 0.997312
1.0036 1.00445 1.0033 0.995876
1.00349 1.00287 1.00447 0.996173
0.975754 1.00467 0.975845 0.995254
1.00444 1.00018 1.00634 0.997937
1.00182 1.02521 0.979248 0.997889
1.00028 1.00145 1.00179 0.997047
1.00459 1.00206 1.00611 0.99643
0.995807 1.00717 0.99175 0.996942
0.913023 0.9835 0.955135 0.971948
0.905282 0.965271 0.952786 0.984326
0.973074 0.985247 0.99018 0.997441
0.728613 0.834479 0.916923 0.952244
0.637534 0.790768 0.865312 0.931712
1.00184 0.999756 1.00398 0.99811
0.759762 0.85496 0.930793 0.954726
0.688631 0.807572 0.909647 0.937416
0.987863 1.00613 0.983911 0.997897
1.0077 1.00158 1.00859 0.997545
1.0134 1.00504 1.01104 0.997314
0.96313 0.976768 0.98828 0.99773
0.895543 0.957293 0.961242 0.973216
0.877762 0.938528 0.951767 0.98265
0.720016 0.833946 0.903841 0.955239
0.70866 0.854446 0.887097 0.934935
1.00207 0.998766 1.00454 0.998773
1.00109 0.999537 1.00288 0.998678
1.00502 1 1.00619 0.99884
0.998913 1 1 0.998913
0.998471 1 1 0.998471
1.00203 1 1.00373 0.998312
0.99965 1 1.00136 0.998294
0.998681 1 1 0.998681
0.998809 1 1 0.998809
1.00295 1 1.00471 0.998248
1.00247 1 1.0042 0.998278
0.998562 1 1.00017 0.998394
1.00347 1 1.00507 0.998411
1.00515 1 1.00683 0.998335
1.01307 1 1.01457 0.998523
1.00092 1 1.00272 0.9982
0.998923 1 1.00051 0.99841
0.998557 1 1.00012 0.99844
0.999404 1 1.00094 0.998464
0.999684 1 1.00141 0.998272
0.99929 1 1.00079 0.998503
1.00123 1 1.00274 0.998496
1.00545 1 1.00718 0.998286
0.999878 1 1.00128 0.998601
0.998907 1 1.00027 0.998641
0.998968 1 1 0.998968
0.999036 1 1.0005 0.998532
0.998901 1 1 0.998901
0.99957 1 1 0.99957
0.998945 1 1.00014 0.998805
0.999584 1 1 0.999584
0.999999 1 1 0.999999
0.999587 1 1 0.999587
1 1 1 1
1 1 1 1
1 1 1 1
1 1 1 1
1 1 1 1
0.999357 1 1 0.999357
0.99992 1 1 0.99992
0.99991 1 1 0.99991
1 1 1 1
0.999875 1 1 0.999875
1 1 1 1
1 1 1 1
1 1 1 1
1 1 1 1
1 1 1 1
0.974865 1.01561 0.96405 0.995674
1.06032 1.08574 0.979083 0.997453
1.03467 1.05431 0.983247 0.998096
0.92068 0.974118 0.95722 0.987382
0.9909 1.01912 0.975634 0.996591
1.0444 1.06703 0.981208 0.997537
1.0021 1.02806 0.977961 0.996715
0.935282 0.975211 0.969938 0.988781
0.91375 0.977155 0.961202 0.972858
0.730157 0.836982 0.91334 0.955141
0.616479 0.758882 0.86838 0.93548
0.998961 1 1 0.998961
0.999402 1 1 0.999402
0.999372 1 1 0.999372
0.998915 1 1 0.998915
0.998691 1 1 0.998691
0.998701 1 1 0.998701
0.998884 1 1 0.998884
0.998974 1 1 0.998974
1.03226 1.07341 0.964088 0.997485
1.01449 1.06194 0.957682 0.997527
1.01439 1.03143 0.986151 0.997289
1.00325 1.00181 1.00431 0.997134
0.997525 1.00804 0.992515 0.997028
1.04149 1.00114 1.04298 0.997437
1.03713 1.00077 1.03919 0.997252
1.00803 1 1.01046 0.997591
0.998535 1.00013 0.99954 0.998869
1.00392 1 1.00583 0.998104
0.998884 1 1 0.998884
0.999002 1 1 0.999002
0.994951 1.04656 0.952902 0.997677
1.00032 1 1.00177 0.99855
1.00209 1 1.00363 0.998466
0.993294 1.03377 0.963246 0.997509
1.00266 1.01276 0.992902 0.997099
0.985286 1.00121 0.98633 0.997738
1.02318 1.00003 1.02518 0.998012
1.05338 1.00141 1.05451 0.997525
0.978089 1.02764 0.954057 0.997612
0.987333 1.011 0.979009 0.997527
0.976339 1.00166 0.977095 0.997571
0.986524 1.00118 0.987314 0.998027
1.00492 1 1.00682 0.998118
1.01163 1 1.01345 0.998206
1.05068 1 1.05296 0.99784
0.763514 0.86446 0.923241 0.956659
0.910548 0.975819 0.956012 0.976046
1.00189 0.999567 1.00434 0.997994
0.999972 1.00131 1.00161 0.997063
1.00147 1.02662 0.977578 0.997874
0.998895 1.00869 0.993331 0.996937
1.00495 1.00282 1.00571 0.996438
0.910622 0.974677 0.959947 0.973263
0.909882 0.972733 0.94969 0.984939
0.974714 0.984032 0.993048 0.997465
0.734352 0.836295 0.918452 0.956066
0.624835 0.780985 0.863125 0.926933
1.00111 0.999719 1.00329 0.998111
0.760794 0.862258 0.923383 0.955537
0.673561 0.793624 0.907918 0.934793
0.987815 1.00718 0.982843 0.997893
1.00777 1.00202 1.00819 0.997563
1.01161 1.00334 1.0108 0.997465
0.956277 0.970795 0.987108 0.997911
0.906687 0.96941 0.963684 0.970544
0.87353 0.935158 0.948176 0.985154
0.726331 0.832049 0.91571 0.953296
0.708099 0.86087 0.880722 0.933936
1.00325 1 1.00464 0.998619
0.719451 0.819876 0.935218 0.938297
0.791052 0.893574 0.93582 0.945979
0.986987 0.994786 0.993489 0.998663
1.01506 1.00261 1.01385 0.99859
0.965164 0.962333 1.00543 0.997521
0.885245 0.92544 0.969743 0.986412
0.860049 0.92342 0.961128 0.969043
0.730842 0.826227 0.926972 0.954239
0.75896 0.904755 0.894044 0.938272
1.00201 0.999286 1.00408 0.998653
1.00401 1 1.00522 0.998799
1.00673 0.999382 1.00829 0.999074
0.99881 1 1 0.99881
0.998434 1 1 0.998434
1.0032 1 1.00492 0.998286
1.00355 1 1.00533 0.998234
1.0035 1 1.00507 0.998439
0.99882 1 1.00041 0.998408
1.00378 1 1.00548 0.99831
1.00096 1 1.00276 0.998202
1.0125 0.999823 1.01412 0.998583
1.03216 0.998769 1.03437 0.999094
1.00729 1 1.00896 0.998347
1.00026 1 1.0021 0.998159
0.998484 1 1.00005 0.998435
0.999861 1 1.00139 0.998474
1.00012 1 1.00186 0.998264
0.999652 1 1.00116 0.99849
0.999918 1 1.00133 0.998588
1.00307 1 1.00464 0.998429
1.00231 1 1.00394 0.998385
1.00224 0.999703 1.00394 0.998605
0.999234 1 1.00088 0.998354
0.998897 1.00024 1.00093 0.99773
1.00459 1 1.00642 0.998183
1.00454 1 1.00627 0.998287
1.0041 1 1.00563 0.998481
1.00061 1 1.00202 0.998598
0.998947 1 1 0.998947
0.999083 1 1.00044 0.998642
0.99897 1 1 0.99897
0.999558 1 1 0.999558
0.998872 1 1 0.998872
0.999572 1 1 0.999572
0.999995 1 1 0.999995
0.999585 1 1 0.999585
0.999998 1 1 0.999998
1 1 1 1
1 1 1 1
1 1 1 1
1 1 1 1
0.999362 1 1 0.999362
0.999896 1 1 0.999896
0.999358 1 1 0.999358
1 1 1 1
0.999921 1 1 0.999921
0.999906 1 1 0.999906
1 1 1 1
1 1 1 1
1 1 1 1
1 1 1 1
1 1 1 1
0.753812 0.853117 0.927992 0.952161
0.67921 0.802329 0.903958 0.936491
0.920946 0.976656 0.954487 0.987921
0.992491 1.01907 0.977067 0.996777
1.04654 1.071 0.979624 0.997492
0.917688 0.958338 0.967087 0.990173
1.00265 1.02723 0.979128 0.996873
0.92612 0.989389 0.961166 0.973872
0.727708 0.83848 0.911546 0.952107
0.619088 0.76981 0.863987 0.930812
0.949599 0.996072 0.960398 0.992655
0.91108 0.968624 0.965997 0.9737
0.719253 0.833942 0.903538 0.95455
0.695047 0.846106 0.879405 0.934114
1.00006 1 1.00153 0.998529
0.998998 1 1 0.998998
0.9994 1 1 0.9994
0.99891 1 1 0.99891
0.998765 1 1.00001 0.998751
0.999562 1 1.00109 0.998477
0.998677 1 1 0.998677
0.998555 1 1 0.998555
0.998842 1 1 0.998842
0.998932 1 1 0.998932
0.994313 1.04661 0.95223 0.997695
0.990011 1.03102 0.962644 0.997486
1.00063 1.01357 0.989957 0.997242
0.98758 1.00143 0.988531 0.997613
1.0478 1.00318 1.04704 0.997559
1.03251 1.00027 1.03451 0.997796
1.00116 1 1.00265 0.998521
1.00012 0.999915 1.00165 0.998561
0.978724 1.02802 0.954251 0.997687
1.00596 1 1.0079 0.998078
1.01139 1 1.01326 0.998157
0.983962 1.00911 0.977556 0.997466
0.974271 1.00137 0.975207 0.997669
0.987056 1.00201 0.987092 0.997962
1.04408 0.999969 1.04642 0.997791
0.976642 1.00366 0.975107 0.997919
0.968312 0.998953 0.970912 0.998367
1.01355 1.00088 1.0145 0.998182
1.00871 1 1.0107 0.998023
1.01032 1 1.01242 0.997931
1.0274 1 1.02951 0.997948
0.746012 0.835764 0.942681 0.946885
0.770136 0.863245 0.932342 0.956881
0.899082 0.972311 0.951301 0.972022
1.00054 0.999449 1.00299 0.99811
1.00742 1.00203 1.00783 0.997579
0.990333 1.00825 0.984303 0.99789
1.01016 1.002 1.01056 0.997611
0.757543 0.85737 0.92304 0.957234
0.900807 0.965841 0.959553 0.97198
0.871338 0.932174 0.951137 0.982757
0.95331 0.966775 0.987966 0.998084
0.720869 0.833299 0.910342 0.950278
0.672666 0.793667 0.905718 0.935767
0.701917 0.85363 0.87768 0.936871
1.0034 0.999792 1.00501 0.998605
0.721382 0.821962 0.932372 0.941292
0.803179 0.904928 0.938513 0.94571
0.986733 0.992775 0.995153 0.998755
1.01526 1.00174 1.01498 0.998544
0.962389 0.960724 1.00374 0.998005
0.87742 0.929229 0.959561 0.98404
0.88212 0.934182 0.971206 0.972265
0.747421 0.846256 0.928387 0.951338
0.74803 0.894222 0.88926 0.940687
1.00745 0.998817 1.00922 0.999431
0.821195 0.911132 0.946345 0.952392
0.791893 0.902873 0.923247 0.949997
0.984996 0.970339 1.01539 0.999715
0.909658 0.926284 0.99128 0.990691
0.886044 0.921032 0.990852 0.970894
0.799318 0.885935 0.950545 0.949173
0.787701 0.933823 0.896995 0.940387
1.00382 1 1.00507 0.998757
1.00718 0.998976 1.00915 0.999066
1.02356 0.995791 1.02855 0.999354
0.998974 1 1.00057 0.998406
1.0009 1 1.0027 0.998205
1.00196 1 1.00368 0.998285
1.01217 0.999639 1.01391 0.998643
1.00072 1 1.00257 0.998159
1.00689 1 1.00856 0.998337
1.03704 0.999572 1.03835 0.999173
1.04459 0.996028 1.04934 0.999446
1.03658 0.999163 1.03841 0.999068
1.00126 1 1.00298 0.998278
1.00031 1 1.00205 0.998255
0.99968 1 1.0012 0.998477
0.998834 1 1.00016 0.998679
1.00199 1 1.00359 0.998405
1.00216 1 1.00374 0.99843
1.00324 0.999951 1.00467 0.998625
1.00132 1 1.00288 0.998448
1.00767 0.998977 1.00975 0.998962
0.996644 1.00039 0.997782 0.998468
0.999855 1.0006 1.00089 0.998368
0.99865 1 1.00069 0.997957
1.00189 1.00351 1.00153 0.996867
1.00291 1.00017 1.00467 0.998075
0.998823 1.00005 1.00079 0.997982
1.00436 1 1.00618 0.998194
1.00763 1 1.00933 0.998313
1.00328 1 1.005 0.998287
1.00382 1 1.00535 0.998481
0.999438 1 1.0006 0.99884
1.00099 1 1.0024 0.998596
0.998944 1 1 0.998944
0.999539 1 1 0.999539
0.998972 1 1 0.998972
0.999559 1 1 0.999559
0.999985 1 1 0.999985
0.999575 1 1 0.999575
0.999992 1 1 0.999992
1 1 1 1
0.999998 1 1 0.999998
1 1 1 1
1 1 1 1
0.999116 1 1 0.999116
0.999853 1 1 0.999853
0.999287 1 1 0.999287
1 1 1 1
0.999901 1 1 0.999901
0.99936 1 1 0.99936
1 1 1 1
1 1 1 1
0.999922 1 1 0.999922
1 1 1 1
1 1 1 1
1 1 1 1
0.71288 0.817783 0.926082 0.941303
0.760688 0.860244 0.926633 0.954283
0.796681 0.903265 0.933135 0.945203
0.675504 0.799818 0.903204 0.935085
0.918492 0.967905 0.9608 0.987664
1.00062 1.02667 0.97751 0.997041
0.930164 0.98667 0.96725 0.97465
0.738341 0.841567 0.918403 0.95529
0.625085 0.78389 0.861084 0.92606
0.948749 0.990578 0.965728 0.991763
0.903974 0.96789 0.963795 0.969048
0.733216 0.842191 0.913831 0.952698
0.694153 0.8484 0.878213 0.931655
0.922176 0.975224 0.955979 0.989148
0.875701 0.926712 0.975807 0.968384
0.756182 0.863025 0.923121 0.949171
0.753722 0.902061 0.893217 0.935445
1.00172 1 1.00349 0.998232
0.999344 1 1.00077 0.998576
0.999034 1 1 0.999034
0.998812 1 1 0.998812
0.998519 1 1.0004 0.998118
0.998874 1 1.00035 0.998524
0.998653 1 1 0.998653
0.998523 1 1 0.998523
0.998602 1 1.00001 0.998594
0.9988 1 1 0.9988
0.979916 1.02918 0.95427 0.997762
0.98263 1.00798 0.977385 0.997409
0.971377 1.00129 0.972298 0.997766
0.989831 1.00326 0.988693 0.9979
1.03641 1 1.03876 0.997742
1.01111 1 1.01303 0.99811
1.00639 1 1.00837 0.998039
1.00788 1 1.00992 0.99798
0.974583 1.00389 0.972815 0.997939
1.00894 1 1.01105 0.997916
1.02759 1 1.02972 0.99793
0.967062 0.999516 0.969122 0.998357
1.0094 1.00197 1.0093 0.998139
0.951604 0.981159 0.971514 0.998315
0.981011 0.986662 0.995036 0.999233
1.03936 0.999609 1.04145 0.998392
1.00478 1 1.00685 0.99794
1.01929 1 1.0213 0.998038
0.831892 0.918223 0.947625 0.956053
0.746263 0.834843 0.94478 0.946143
0.759254 0.857905 0.927667 0.954017
1.00342 0.999774 1.00506 0.998592
1.01578 1.00072 1.01657 0.998497
0.983271 0.990752 0.993592 0.998849
0.723103 0.82315 0.932496 0.94205
0.87488 0.927383 0.973862 0.968706
0.881865 0.927095 0.965163 0.985546
0.953898 0.956335 0.998964 0.998486
0.750368 0.851858 0.922722 0.954632
0.81041 0.910651 0.941175 0.945546
0.752352 0.896858 0.891571 0.940896
1.00581 0.998745 1.0077 0.99938
0.818625 0.910329 0.94265 0.953974
0.791742 0.902507 0.923359 0.950085
0.987166 0.973973 1.01401 0.999543
0.922179 0.936732 0.993922 0.990483
0.85835 0.913865 0.970971 0.967334
0.787392 0.93314 0.896795 0.940916
0.814262 0.89296 0.959202 0.950654
1.00101 0.97813 1.02369 0.999711
0.803055 0.89726 0.932136 0.960168
0.818939 0.927656 0.927352 0.951963
0.752378 0.900619 0.892826 0.935682
0.959442 0.948532 1.01398 0.997556
0.91531 0.93663 1.00519 0.97219
0.860803 0.931821 0.96974 0.952613
1.00802 0.998553 1.01044 0.999057
1.02328 0.995942 1.0282 0.99927
1.02307 0.984198 1.03995 0.999566
1.0008 1 1.00264 0.998158
1.0058 1 1.00749 0.998327
1.04149 0.999645 1.04264 0.999251
1.00179 1 1.00351 0.998284
1.03581 0.999249 1.03754 0.999079
1.04622 0.99583 1.05121 0.999421
1.0352 0.991175 1.04495 0.999489
1.02227 0.99838 1.0249 0.999058
1.00151 1 1.00309 0.998425
1.00166 1 1.00323 0.998432
1.00406 1 1.00542 0.998646
1.00707 0.999301 1.00885 0.998933
1.00096 1 1.00251 0.998446
1.00196 1 1.00312 0.998841
0.997741 1.00015 0.998844 0.998749
1.0025 1.00036 1.00465 0.9975
1.00039 1.00116 1.00084 0.998387
0.999334 1.00091 1.00057 0.997863
0.998886 1.00128 1.00101 0.996597
1.01375 1.01597 1.00129 0.996526
1.00264 1.00217 1.00276 0.997714
1.00065 1.00235 1.00138 0.996924
1.00946 1 1.01138 0.998101
1.00404 1.00063 1.00534 0.998074
0.998876 1 1.00065 0.998231
1.00435 1 1.00615 0.998205
1.0069 1 1.00856 0.998349
1.00082 1 1.00213 0.998697
1.00368 1 1.00521 0.99848
0.99941 1 1.00057 0.99884
0.999472 1 1 0.999472
0.998941 1 1 0.998941
0.999536 1 1 0.999536
0.999979 1 1 0.999979
0.99956 1 1 0.99956
0.999983 1 1 0.999983
1 1 1 1
0.999989 1 1 0.999989
1 1 1 1
1 1 1 1
0.998861 1 1 0.998861
0.999655 1 1 0.999655
0.999114 1 1 0.999114
1 1 1 1
0.999802 1 1 0.999802
0.999213 1 1 0.999213
1 1 1 1
1 1 1 1
0.999906 1 1 0.999906
1 1 1 1
1 1 1 1
1 1 1 1
0.81897 0.915826 0.938454 0.952888
0.712421 0.81779 0.923074 0.943753
0.75588 0.855836 0.926013 0.953774
0.998403 1 1 0.998403
0.798455 0.900967 0.930325 0.952593
0.795528 0.902911 0.932298 0.945053
0.680973 0.808168 0.898763 0.937526
0.957009 0.993693 0.972184 0.990639
0.898686 0.95835 0.963737 0.973028
0.736158 0.854874 0.906888 0.949543
0.688483 0.835541 0.882914 0.933269
0.919133 0.970665 0.96021 0.98615
0.880157 0.930598 0.973118 0.971924
0.761425 0.859541 0.932803 0.949665
0.749986 0.896996 0.893066 0.936223
0.875896 0.928679 0.959496 0.982978
0.871094 0.912394 0.985084 0.969191
0.827746 0.904371 0.962299 0.951132
0.789148 0.933144 0.899352 0.94033
1.00108 1 1.00307 0.99801
1.00298 1 1.0048 0.998187
0.998858 1 1.00024 0.998623
0.998222 1 1.00002 0.998206
0.998752 1 1.00056 0.998189
0.998571 1 1 0.998571
0.998528 1 1 0.998528
0.998658 1 1.00003 0.998633
0.971734 1.00459 0.969281 0.997952
0.96588 1.00076 0.966738 0.998354
1.00749 1 1.00958 0.997937
1.00543 1.00297 1.00437 0.998094
1.02937 1 1.03153 0.997912
1.00855 1 1.01068 0.997901
1.00534 1 1.0074 0.997952
0.954827 0.980861 0.974991 0.998428
1.01765 1 1.01962 0.998062
1.02904 1.00031 1.03034 0.99843
0.978174 0.988229 0.990533 0.999285
1.00732 1 1.00923 0.998103
0.945734 0.964378 0.982555 0.998078
1.0022 0.984465 1.01855 0.999475
1.05206 0.997236 1.05653 0.998536
1.01775 0.99995 1.01961 0.998232
0.812571 0.899765 0.937708 0.963085
0.831506 0.918379 0.947178 0.955899
0.748154 0.83369 0.949241 0.945387
1.00375 0.998648 1.00578 0.999332
0.99001 0.97697 1.01398 0.999376
0.818609 0.911874 0.939517 0.955514
0.884546 0.914606 0.995308 0.971691
0.91098 0.93456 0.987468 0.98714
0.81246 0.891487 0.960107 0.949221
0.792686 0.903707 0.923172 0.950148
0.788408 0.933607 0.896996 0.941448
1.00566 0.985295 1.021 0.999669
0.804698 0.898751 0.932525 0.960137
0.818561 0.92548 0.927021 0.954102
0.968678 0.954182 1.01584 0.999365
0.748187 0.895216 0.892566 0.936358
0.891742 0.91979 0.999692 0.969805
0.866062 0.937403 0.970314 0.95216
0.998461 0.972284 1.02719 0.999743
0.829563 0.920434 0.936271 0.96262
0.795797 0.897461 0.930584 0.952864
0.692484 0.844121 0.87803 0.934319
0.826089 0.903412 0.961931 0.950599
0.94825 0.947747 1.00602 0.994547
0.923756 0.935087 1.02264 0.966008
1.02093 0.996799 1.02504 0.999188
1.02518 0.984706 1.04158 0.999534
1.01296 0.972864 1.04165 0.999582
1.00265 1 1.00437 0.99829
1.03835 0.99931 1.04002 0.999091
1.04976 0.996802 1.05377 0.999396
1.01742 0.998657 1.01977 0.999045
1.03501 0.993001 1.04283 0.999488
1.01024 0.988081 1.02321 0.999235
1.00661 0.999767 1.00795 0.998903
1.00075 1 1.00231 0.998445
1.00463 1 1.00582 0.99882
1.01117 0.999759 1.01331 0.998126
0.999028 1 1 0.999028
0.999982 1.00026 1.00203 0.997699
1.00244 1.00111 1.0051 0.996245
1.00518 1.00746 1.00188 0.995865
1.00007 1.00191 1.0004 0.997765
0.999506 1.00193 1.00118 0.996404
1.01493 1.01785 1.00053 0.996614
1.0087 1.00893 1.00261 0.997167
1.01277 1.01493 1.00125 0.996621
1.00755 1.00004 1.00962 0.997904
1.00514 1.00411 1.00335 0.997686
0.999067 1.00081 1.00128 0.996982
1.00562 1 1.00713 0.998499
1.00876 1 1.01066 0.998121
1.0053 1.00111 1.00613 0.998072
1.00641 1 1.00804 0.998384
1.00136 1 1.00267 0.998697
0.999567 1 1.00022 0.999347
0.999575 1 1.00074 0.998841
0.999471 1 1 0.999468
0.999972 1 1 0.999972
0.999533 1 1 0.999533
0.999978 1 1 0.999978
1 1 1 1
0.999981 1 1 0.999981
1 1 1 1
1 1 1 1
0.998773 1 1 0.998773
0.999501 1 1 0.999501
0.998908 1 1 0.998908
1 1 1 1
0.999639 1 1 0.999639
0.999111 1 1 0.999111
1 1 1 1
1 1 1 1
0.99975 1 1 0.99975
1 1 1 1
1 1 1 1
1 1 1 1
0.809601 0.900322 0.935399 0.961339
0.821457 0.915273 0.941882 0.95288
0.713196 0.817592 0.924139 0.94392
0.99844 1 1 0.99844
0.998365 1 1 0.998365
0.998321 1 1 0.998321
0.818588 0.929391 0.925477 0.951703
0.794988 0.900378 0.926807 0.952678
0.794448 0.902316 0.93178 0.944917
0.925347 0.976434 0.959018 0.988177
0.860319 0.922782 0.962866 0.968265
0.755435 0.844939 0.936897 0.954288
0.760475 0.90571 0.898303 0.934702
0.878578 0.933578 0.954674 0.985768
0.880269 0.918338 0.988719 0.969482
0.808267 0.883157 0.961387 0.95196
0.787643 0.933567 0.896794 0.940786
0.879604 0.924226 0.967718 0.983468
0.896133 0.923902 0.999278 0.970644
0.860814 0.929776 0.97159 0.952901
0.762918 0.907887 0.895609 0.93827
0.998747 1 1.00064 0.998105
1.00173 1 1.00376 0.997978
1.00288 1 1.00474 0.998142
0.998206 1 1.00001 0.998194
0.998599 1 1.00034 0.998261
0.998533 1 1 0.998533
0.956312 0.977378 0.979892 0.998525
0.973867 0.987444 0.986923 0.999319
1.00569 1 1.00775 0.997964
1.02044 1.00052 1.02148 0.998466
1.018 1 1.01995 0.998085
1.00943 1 1.01135 0.998102
1.0151 0.998543 1.01835 0.998262
0.953465 0.964456 0.990414 0.998172
1.04923 0.996312 1.05451 0.998678
1.00599 0.980263 1.0269 0.999361
1.01013 0.997752 1.01401 0.99842
0.975451 0.959297 1.019 0.997881
1.00782 0.976241 1.03301 0.999355
1.03549 0.985749 1.05173 0.998792
0.842553 0.92599 0.94282 0.965078
0.814638 0.900545 0.938795 0.963581
0.830914 0.918434 0.946598 0.955746
1.01122 0.992179 1.01958 0.999627
0.957548 0.95122 1.00859 0.998079
0.806057 0.899673 0.933172 0.960107
0.887645 0.90807 1.00371 0.973892
0.860869 0.935189 0.969007 0.949972
0.818916 0.923967 0.926866 0.956238
0.760922 0.90481 0.899476 0.93496
0.994158 0.969379 1.02579 0.999777
0.830354 0.919742 0.937084 0.963427
0.797047 0.900614 0.928694 0.952954
0.943948 0.943337 1.01004 0.990701
0.692262 0.846388 0.877588 0.931987
0.803288 0.880956 0.958689 0.951127
0.932744 0.9416 1.0202 0.970981
1.00213 0.957894 1.04745 0.998787
0.810453 0.899254 0.937338 0.9615
0.805232 0.909284 0.936498 0.945615
0.616016 0.756846 0.869493 0.936092
0.747917 0.855068 0.921617 0.94908
0.897303 0.920803 1.00473 0.969886
0.92228 0.93854 0.994754 0.987858
1.02616 0.985113 1.04218 0.999501
1.01762 0.979879 1.03895 0.999586
1.01034 0.983101 1.02821 0.999509
1.01174 0.999016 1.01372 0.999032
1.03194 0.994266 1.03842 0.999487
1.01398 0.985699 1.02939 0.999319
1.0081 0.999389 1.00993 0.998798
1.00734 1 1.00855 0.998798
1.00893 0.99991 1.01111 0.99793
1.02113 1.00086 1.02386 0.996477
0.99737 1.00005 0.999416 0.997901
1.00389 1.00135 1.00631 0.996252
1.00454 1.00252 1.00668 0.995368
1.00657 1.00924 1.00191 0.995456
1.00833 1.01106 1.00108 0.996228
1.00509 1.00733 1.00197 0.995812
0.999809 1.00237 1.00124 0.996213
1.00768 1.00968 1.0011 0.996928
1.01532 1.01819 1.00048 0.9967
1.00274 1.00063 1.00464 0.997484
1.01043 1.01046 1.00274 0.997239
1.01237 1.01452 1.00117 0.996717
1.00955 1 1.01138 0.998188
1.00719 1.00055 1.00876 0.997901
1.00766 1.00616 1.00383 0.997658
1.00016 1 1.00097 0.999188
1.00491 1 1.00642 0.998497
1.00765 1 1.00953 0.99814
1.00128 1 1.00258 0.998697
0.999654 1 1.00031 0.999343
0.999952 1 1 0.999952
0.999463 1 1 0.999463
0.999967 1 1 0.999967
1 1 1 1
0.999977 1 1 0.999977
1 1 1 1
1 1 1 1
0.998733 1 1 0.998733
0.999478 1 1 0.999478
0.9988 1 1 0.9988
0.999997 1 1 0.999997
0.999544 1 1 0.999544
0.998955 1 1 0.998955
1 1 1 1
1 1 1 1
0.999623 1 1 0.999623
1 1 1 1
1 1 1 1
1 1 1 1
0.82866 0.920243 0.935651 0.962409
0.8124 0.901211 0.937729 0.961315
0.823196 0.914194 0.944964 0.952905
1.00088 1 1.00264 0.998247
1.00102 1 1.00291 0.998117
0.998477 1 1 0.998477
0.998351 1 1 0.998351
0.998316 1 1 0.998316
0.998743 1 1.00044 0.998301
0.998298 1 1 0.998298
0.7938 0.906529 0.921939 0.94979
0.821045 0.927563 0.92797 0.953871
0.794021 0.89864 0.927384 0.952768
0.787096 0.934102 0.895208 0.941259
0.875159 0.931765 0.95519 0.983312
0.879826 0.91431 0.992355 0.969697
0.817155 0.895024 0.957436 0.953587
0.86904 0.925375 0.955849 0.982501
0.895831 0.91676 1.01055 0.966973
0.864453 0.935469 0.969824 0.952839
0.749802 0.896281 0.889325 0.94068
0.898691 0.930778 0.980008 0.985224
0.910469 0.92711 1.01593 0.96665
0.80351 0.889343 0.951479 0.949562
0.70991 0.857034 0.886201 0.934701
1.0175 1 1.01913 0.9984
1.00033 1 1.00221 0.998127
1.00279 1 1.00486 0.997946
0.998183 1 1 0.998183
0.961806 0.965215 0.998167 0.998298
1.00801 0.97819 1.03127 0.999241
1.00881 1 1.01073 0.998103
1.01227 0.998404 1.01562 0.998291
1.04083 0.993379 1.049 0.998821
1.00913 0.999288 1.01144 0.998422
1.03787 0.985884 1.05401 0.998779
0.975281 0.95902 1.0205 0.996523
1.0064 0.967039 1.04122 0.999505
1.01158 0.987475 1.02553 0.998906
0.95358 0.929438 1.03001 0.99608
1.0096 0.962756 1.04939 0.999295
0.813914 0.899304 0.939627 0.963201
0.840531 0.924966 0.940374 0.966335
0.81672 0.901166 0.940066 0.964073
0.989661 0.964922 1.02584 0.999805
0.94985 0.947524 1.00759 0.994904
0.829144 0.918196 0.936501 0.964244
0.932306 0.945155 1.02038 0.9667
0.80779 0.888276 0.9544 0.95284
0.798419 0.902777 0.927984 0.953038
0.68765 0.83375 0.883457 0.933568
1.00323 0.960433 1.04564 0.998974
0.811977 0.902339 0.935909 0.961481
0.799169 0.904427 0.93458 0.945471
0.924666 0.938793 0.994492 0.990407
0.619453 0.769052 0.86472 0.931488
0.752094 0.851675 0.930252 0.949287
0.89622 0.918161 1.00911 0.967293
0.994736 0.96613 1.0325 0.997203
0.820666 0.917893 0.937994 0.953179
0.679191 0.800782 0.90505 0.937141
0.72157 0.836126 0.903533 0.95513
0.861732 0.900058 0.986493 0.970526
0.885237 0.917312 0.980725 0.984
1.0237 0.984136 1.04062 0.99959
1.01248 0.980625 1.03299 0.99951
0.983503 0.978119 1.00621 0.999303
1.01895 0.983905 1.03624 0.999402
1.00558 0.991816 1.015 0.998891
1.00204 1.0008 1.00349 0.997754
1.00685 1.00003 1.00911 0.997734
1.01895 1.0008 1.02185 0.996361
1.01032 1.00051 1.01437 0.995501
1.0057 1.00186 1.0076 0.99626
1.00526 1.00229 1.00772 0.995277
1.00182 1.00229 1.00448 0.995073
1.02347 1.02795 1 0.995636
1.01487 1.01842 1.00077 0.995753
1.0069 1.00936 1.00218 0.995399
1.00641 1.00979 1.00013 0.99653
1.0071 1.01009 1.00074 0.996292
1.00509 1.00714 1.00222 0.995759
1.00505 1.00696 1.00112 0.996991
1.00745 1.00949 1.00108 0.996902
1.01544 1.01828 1.00043 0.996786
1.006 1.00038 1.00785 0.997788
1.00362 1.00145 1.00463 0.997555
1.01191 1.01172 1.00288 0.997312
1.00372 1 1.00481 0.998917
1.00821 1 1.01003 0.998194
1.00692 1.00107 1.00796 0.997898
0.999914 1 1 0.999914
1.00081 1 1.00163 0.999182
1.00458 1 1.00609 0.998495
0.999897 1 1.00056 0.999338
0.999943 1 1 0.999943
1 1 1 1
0.999963 1 1 0.999963
1 1 1 1
1 1 1 1
1.00377 1 1.00554 0.998239
0.999229 1 1.00065 0.998581
0.999351 1 1 0.999351
0.998729 1 1 0.998729
0.999984 1 1 0.999984
0.99948 1 1 0.99948
0.998828 1 1 0.998828
1 1 1 1
0.999998 1 1 0.999998
0.999587 1 1 0.999587
1 1 1 1
1 1 1 1
1 1 1 1
0.803105 0.897632 0.931924 0.960049
0.826477 0.91771 0.934962 0.963234
0.813228 0.903703 0.936126 0.961286
1.00148 1 1.00323 0.998258
1.00271 1 1.0046 0.998122
1.00056 1 1.00242 0.998144
1.00283 1 1.00471 0.998131
1.00738 1 1.00931 0.998089
0.998596 1 1.00026 0.998338
0.998311 1 1 0.998311
0.998664 1 1.00036 0.998304
0.998304 1 1 0.998304
1.01071 1 1.01237 0.998365
0.791629 0.895493 0.934783 0.94569
0.793928 0.905203 0.923321 0.94991
0.822489 0.926902 0.928166 0.956029
0.752078 0.898338 0.889775 0.940899
0.861887 0.933866 0.971145 0.950347
0.864134 0.921063 0.956274 0.981091
0.90436 0.92484 1.00784 0.970249
0.893761 0.933466 0.974938 0.982078
0.91955 0.938265 1.01003 0.970326
0.817812 0.893487 0.961912 0.951546
0.709986 0.863805 0.880373 0.933614
0.908936 0.92507 0.998083 0.984445
0.90174 0.918895 1.01067 0.97097
0.734674 0.829317 0.928705 0.953885
0.651131 0.800273 0.869673 0.935566
1.01734 1 1.01838 0.998974
1.01899 1 1.02061 0.998413
1.00314 1 1.005 0.998149
0.977081 0.961142 1.02158 0.995107
1.00855 0.960773 1.05009 0.999664
1.00925 1 1.01085 0.998423
1.04172 0.985284 1.05859 0.998767
1.01358 0.990839 1.02406 0.998912
1.01575 0.970412 1.04747 0.999284
0.958894 0.93935 1.02488 0.996026
1.01669 0.991886 1.02568 0.999345
0.970398 0.956502 1.018 0.996593
0.830919 0.918082 0.947065 0.955647
0.817343 0.901347 0.940969 0.963688
0.838253 0.923615 0.93797 0.967598
1.00451 0.966801 1.03991 0.999135
0.920152 0.935574 0.997348 0.986132
0.816068 0.905366 0.937506 0.961454
0.899223 0.924887 1.00483 0.967577
0.744741 0.835088 0.934961 0.95385
0.792396 0.899582 0.931765 0.945356
0.624685 0.782342 0.861555 0.92679
0.99246 0.964387 1.03176 0.997435
0.821253 0.914799 0.941859 0.953159
0.676 0.799489 0.903585 0.935762
0.895012 0.927202 0.979502 0.985484
0.734853 0.843373 0.914124 0.953182
0.857756 0.90772 0.976021 0.968173
0.951443 0.950561 1.00524 0.995706
0.713563 0.818737 0.925385 0.941816
0.730546 0.8368 0.913451 0.955741
0.872703 0.926994 0.972074 0.96848
0.863424 0.916115 0.955535 0.986342
1.01149 0.977744 1.03502 0.999512
0.985807 0.9751 1.01171 0.999278
0.994912 0.991969 1.00453 0.998442
1.00179 0.982709 1.02046 0.998979
1.00191 1.00075 1.00333 0.997841
0.997992 1.00208 0.999119 0.996802
1.01671 1.00071 1.01982 0.996242
1.00904 1.00093 1.01266 0.995504
0.999158 1.00204 1.00137 0.995762
1.00546 1.00199 1.00831 0.995187
1.00206 1.00328 1.0037 0.995108
1.02105 1.02529 1 0.995861
1.04566 1.04959 1 0.996255
1.03376 1.03819 1.00002 0.995723
1.02362 1.02807 1 0.995666
1.01777 1.02182 1 0.996041
1.01349 1.01677 1.00107 0.995699
1.00759 1.00985 1.00244 0.995342
1.0101 1.01346 1 0.996686
1.00479 1.00819 1.00002 0.996605
1.00562 1.00898 1.00032 0.996356
1.00192 1.00247 1.00208 0.997375
1.004 1.00569 1.0013 0.99703
1.00746 1.00952 1.0011 0.996875
1.00833 1 1.00988 0.998466
1.00685 1.00083 1.00824 0.997791
1.00455 1.00213 1.0048 0.997625
0.999968 1 1.00012 0.999849
1.00412 1 1.00521 0.998909
1.00747 1 1.00929 0.9982
0.999994 1 1 0.999994
0.999901 1 1 0.999901
1.00135 1 1.00218 0.999175
0.999934 1 1 0.999934
1 1 1 1
1 1 1 1
1.00573 1 1.00761 0.998128
1.00161 1 1.0032 0.998422
1.00464 1 1.00644 0.998218
0.999496 1 1.00028 0.999216
0.999456 1 1.00088 0.998578
0.999959 1 1 0.999959
0.999355 1 1 0.999355
0.998725 1 1 0.998725
1 1 1 1
0.999989 1 1 0.999989
0.999483 1 1 0.999483
1 1 1 1
1 1 1 1
1 1 1 1
0.817417 0.9118 0.937839 0.955908
0.806624 0.900287 0.93327 0.960026
0.826786 0.914908 0.937371 0.96406
0.999206 1.00068 1.00039 0.998139
1.00155 1 1.00329 0.998269
1.00219 1 1.00407 0.998127
1.00079 1 1.00268 0.99812
1.00053 1 1.00237 0.998168
1.00443 1 1.00624 0.998196
1.01238 1 1.01466 0.997759
1.0159 1 1.01777 0.998162
0.998449 1 1.00014 0.998307
0.998309 1 1 0.998309
1.011 1 1.01267 0.998348
1.02488 0.999684 1.02669 0.998559
0.688815 0.806953 0.911071 0.936918
0.803126 0.906554 0.937046 0.945429
0.794764 0.904929 0.924483 0.950003
0.704564 0.857433 0.877427 0.936502
0.817213 0.895171 0.960386 0.950568
0.914047 0.931474 1.01507 0.966726
0.893967 0.925585 0.982732 0.982811
0.907481 0.925237 0.994295 0.986436
0.638572 0.792065 0.865934 0.931031
0.895474 0.918312 1.00766 0.967713
0.750879 0.848564 0.930627 0.950844
0.907861 0.934271 0.983791 0.987744
0.884159 0.918408 0.990239 0.972197
0.721535 0.835792 0.905177 0.95373
0.995236 1 0.995697 0.999538
1.01643 1 1.01747 0.998979
1.01939 1 1.021 0.998425
0.958394 0.941348 1.02214 0.996052
1.02221 0.978203 1.04574 0.999273
1.01512 0.994831 1.0215 0.998919
1.01565 0.991865 1.02465 0.999344
0.96674 0.955037 1.01567 0.996638
0.991693 0.985448 1.00861 0.997745
0.746255 0.835036 0.947122 0.943575
0.827956 0.917207 0.942692 0.957568
0.817802 0.902462 0.939871 0.964164
0.993588 0.96359 1.03362 0.997591
0.885104 0.923117 0.972081 0.98636
0.819717 0.911869 0.943094 0.953183
0.865762 0.900618 0.991905 0.969142
0.739892 0.85819 0.907395 0.950142
0.682879 0.808726 0.900054 0.938152
0.952101 0.947601 1.00901 0.995777
0.713368 0.818478 0.923067 0.94422
0.72893 0.838741 0.912198 0.952727
0.862286 0.917354 0.956238 0.982989
0.879198 0.933526 0.96894 0.971993
0.946396 0.962057 0.985757 0.997934
0.751197 0.850033 0.927769 0.952529
0.913009 0.971039 0.965698 0.973637
0.869974 0.929423 0.952478 0.982738
0.989008 0.973265 1.01693 0.999258
0.986314 0.991782 0.995951 0.99853
0.994807 1.00106 0.996198 0.997541
1.00224 1.00085 1.00347 0.997928
1.00112 1.0025 1.00186 0.996778
1.00053 1.00437 0.999428 0.996752
1.00784 1.00132 1.01105 0.995508
0.999071 1.00164 1.00167 0.99577
1.02508 1.02987 0.998636 0.996705
1.00236 1.00406 1.00319 0.995142
1.01981 1.02404 1 0.995872
1.04625 1.05029 0.999284 0.996868
1.04831 1.05177 0.99979 0.996927
1.04788 1.0519 1 0.996171
1.04612 1.05 1 0.996301
1.03547 1.03968 1 0.995948
1.03206 1.03643 1 0.995785
1.02321 1.02763 1 0.995696
1.02425 1.02797 1 0.996375
1.01808 1.02195 1.00014 0.996067
1.0122 1.01513 1.00148 0.995644
1.00601 1.00902 1 0.997021
1.00981 1.01317 1 0.996681
1.00309 1.00643 1 0.996679
1.00351 1.00031 1.0052 0.998014
1.00381 1.0041 1.00234 0.99737
1.00258 1.00408 1.00145 0.997068
1.00116 1 1.00146 0.999698
1.00623 1 1.00777 0.998463
1.0068 1.00133 1.00769 0.997794
1 1 1 1
1.00033 1 1.00051 0.999824
1.00391 1 1.00501 0.998901
1 1 1 1
0.999889 1 1 0.999889
1 1 1 1
1.00035 1.00051 1.00185 0.997996
1.00462 1 1.00652 0.998112
1.00527 1 1.00701 0.998273
1.00058 1 1.00151 0.999071
1.00223 1 1.00382 0.99842
1.00532 1 1.00713 0.998197
0.999922 1 1 0.999922
0.999302 1 1.00008 0.99922
0.999238 1 1.00066 0.998575
1 1 1 1
0.999966 1 1 0.999966
0.999359 1 1 0.999359
1 1 1 1
0.999993 1 1 0.999993
1 1 1 1
0.719387 0.82002 0.934374 0.938896
0.819143 0.913431 0.938118 0.955931
0.810421 0.903233 0.934625 0.960005
1.00147 1.00026 1.0031 0.998117
1.00566 1.00291 1.00498 0.997774
1.00951 1.00024 1.01135 0.997946
1.0022 1 1.0041 0.998109
1.00027 1 1.00208 0.998191
1.00483 1 1.00654 0.998302
1.01503 1 1.01694 0.998119
1.01205 1.00009 1.01417 0.997826
1.01525 1.00086 1.01668 0.997729
0.986132 1.00109 0.986076 0.998968
1.00959 1 1.01128 0.998331
1.02077 0.999849 1.02242 0.998538
0.729893 0.835232 0.919595 0.950289
0.673074 0.792653 0.908849 0.934303
0.810669 0.912854 0.939469 0.945278
0.626651 0.78301 0.863923 0.926368
0.753803 0.852258 0.927015 0.954114
0.883469 0.912695 0.998356 0.969572
0.913614 0.930887 0.997612 0.983793
0.896067 0.92595 0.98203 0.985436
0.724598 0.830582 0.916105 0.952292
0.865926 0.908054 0.983949 0.969163
0.882894 0.93151 0.960489 0.986798
0.862819 0.930959 0.956448 0.969009
1.00247 1 1.00345 0.999021
0.996052 1 0.996567 0.999483
1.01566 1 1.01669 0.998984
0.962872 0.953591 1.01309 0.996686
1.0143 0.991112 1.02407 0.999344
0.992851 0.987135 1.00812 0.997687
0.97854 0.990879 0.990778 0.996739
0.764997 0.866465 0.922976 0.956575
0.745432 0.833248 0.947507 0.944173
0.829431 0.918848 0.940838 0.959449
0.955373 0.954433 1.00506 0.995942
0.865436 0.917089 0.95952 0.983489
0.71452 0.81896 0.923887 0.944351
0.857301 0.922668 0.959247 0.968629
0.741165 0.844117 0.918516 0.955928
0.949356 0.964538 0.987387 0.996833
0.761315 0.859948 0.927353 0.954657
0.90683 0.970061 0.964407 0.969319
0.873078 0.931804 0.950919 0.985338
0.958228 0.983711 0.976241 0.997803
0.918766 0.97923 0.964324 0.972965
0.917383 0.973797 0.953742 0.98776
0.977183 0.990584 0.987851 0.998603
0.990917 1.00147 0.991928 0.997513
0.98207 1.00795 0.976869 0.997391
1.00306 1.00283 1.00349 0.996756
0.999888 1.00451 0.998648 0.996747
1.02396 1.03767 0.989342 0.997412
0.998891 1.00126 1.00186 0.995779
1.02386 1.02953 0.997806 0.996685
1.03985 1.05178 0.991173 0.997459
1.01891 1.02313 1 0.995883
1.04515 1.04982 0.99868 0.996861
1.04534 1.05255 0.995718 0.99743
1.04461 1.04881 0.998679 0.997308
1.04919 1.0528 0.999566 0.997
1.04715 1.05053 1 0.996777
1.04936 1.05332 1 0.996235
1.04791 1.05191 1 0.99619
1.04695 1.05079 1 0.996347
1.03722 1.04119 1 0.996188
1.03717 1.04136 1 0.995978
1.03039 1.03469 1 0.995847
1.01866 1.02202 1 0.996719
1.02366 1.02739 1 0.996372
1.01831 1.02213 1.00017 0.996093
0.999407 1.00144 1.00026 0.997709
1.00755 1.01056 1 0.997018
1.01026 1.01363 1 0.996677
1.00192 1 1.00248 0.999442
1.00344 1.00058 1.00486 0.998015
1.00628 1.00592 1.003 0.997366
1 1 1 1
1.00186 1 1.00219 0.999673
1.00519 1.00001 1.00674 0.99846
0.999993 1 1 0.999993
1.00092 1 1.00111 0.99981
1 1 1 1
0.999326 1.00144 1 0.997887
1.00124 1.00034 1.00289 0.998014
1.00481 1 1.00669 0.998127
1.0028 1 1.00471 0.998095
1.00559 1 1.00733 0.998274
1.00279 1 1.00389 0.998899
0.999873 1 1 0.999873
1.00021 1 1.00113 0.999073
1.00327 1 1.00486 0.998417
1 1 1 1
0.999934 1 1 0.999934
0.999225 1 1 0.999225
1 1 1 1
0.999974 1 1 0.999974
1 1 1 1
0.758824 0.85475 0.930091 0.954501
0.72197 0.821756 0.934982 0.939665
0.81928 0.914 0.937673 0.955949
1.004 1 1.00592 0.998095
1.01166 1 1.01391 0.997783
1.00334 1.00185 1.00364 0.997848
1.00414 1.00629 1.00093 0.99693
1.01173 1.00134 1.0126 0.997797
1.01364 1 1.01559 0.998078
1.01022 1 1.01235 0.997892
1.01764 1.00075 1.0191 0.997817
0.999265 1.00273 0.999033 0.997508
0.977069 1.00174 0.976807 0.998534
0.974894 1.00035 0.9768 0.997699
0.986117 1.00087 0.986243 0.999006
1.01537 1 1.01687 0.998517
0.896095 0.960618 0.960035 0.971665
0.725367 0.830592 0.917699 0.951634
0.671283 0.792181 0.906063 0.93524
0.721971 0.83453 0.911443 0.949179
0.876184 0.9189 0.983729 0.969285
0.900119 0.922048 0.988255 0.987819
0.883641 0.930299 0.960879 0.988517
0.885711 0.937335 0.971137 0.973009
0.909415 0.966839 0.952375 0.987642
0.993791 1.00132 0.994255 0.998218
1.00126 1 1.00226 0.998999
0.99706 1 0.997631 0.999428
0.9951 0.990119 1.00738 0.997671
0.98406 0.99378 0.993203 0.996996
0.895059 0.966379 0.952961 0.971917
0.771346 0.864943 0.931924 0.956932
0.743542 0.829818 0.948374 0.944808
0.953867 0.969794 0.987857 0.995667
0.878856 0.938812 0.9524 0.982923
0.757901 0.856467 0.927443 0.954145
0.898273 0.958412 0.96324 0.97302
0.965178 0.983358 0.983591 0.997887
0.928253 0.989446 0.963452 0.973743
0.914685 0.969693 0.957443 0.9852
0.974325 1.0037 0.973385 0.997278
0.946908 0.993236 0.961516 0.991515
0.991265 1.00379 0.989988 0.997509
0.980635 1.00768 0.975755 0.997343
0.995316 1.03627 0.962704 0.997694
0.999263 1.00441 0.998123 0.996742
1.02541 1.03856 0.989927 0.997383
1.03683 1.05955 0.980773 0.997746
1.0225 1.02913 0.996888 0.996666
1.0395 1.05194 0.990712 0.997435
1.03417 1.0513 0.986 0.997673
1.04371 1.04908 0.998026 0.996854
1.04516 1.0528 0.99532 0.997408
1.04247 1.05184 0.993566 0.997509
1.04465 1.04918 0.998311 0.997363
1.04319 1.04706 0.999182 0.997119
1.04979 1.05359 0.999313 0.997073
1.04697 1.05036 1 0.996769
1.04889 1.05251 1 0.996566
1.04654 1.05047 1 0.996262
1.04915 1.05313 1 0.996223
1.04789 1.05188 1 0.996208
1.03218 1.0358 1 0.99651
1.03707 1.04103 1 0.996195
1.03901 1.04317 1 0.996009
1.00339 1.00593 1 0.997477
1.01806 1.02141 1 0.996718
1.02284 1.02657 1 0.996369
1.00032 1 1.00116 0.999155
1.00085 1.00264 1.00051 0.99771
1.00876 1.01178 1 0.997014
1 1 1 1
1.00164 1 1.00222 0.999417
1.00287 1.00083 1.00403 0.998015
1 1 1 1
1.0022 1 1.00255 0.999647
1 1 1 1
1.00583 1.00878 1 0.997069
0.999756 1.00189 1 0.997873
1.00058 1.00043 1.00226 0.997905
1.00264 1 1.00461 0.998033
1.00418 1 1.0061 0.998093
1.00466 1 1.00601 0.998658
1.00645 1 1.00819 0.998274
1.00263 1 1.00374 0.998899
1.00027 1 1.00047 0.999805
1 1 1 1
0.999886 1 1 0.999886
0.999682 1 1.00061 0.999075
1 1 1 1
0.999944 1 1 0.999944
1 1 1 1
0.918117 0.979657 0.96125 0.974962
0.76054 0.861837 0.923664 0.955395
0.725591 0.824203 0.938367 0.938176
1.0133 1 1.01572 0.997619
1.00126 1.00138 1.00196 0.997923
1.00991 1.0015 1.01069 0.997744
1.0051 1.00696 1.00114 0.997019
1.01632 1.01966 1.00016 0.996566
0.999943 1.00259 1 0.997356
1.02144 1.00108 1.02248 0.997903
1.00037 1.00339 0.999674 0.997311
0.983237 1.00218 0.982554 0.998517
0.995476 1.00198 0.995945 0.997551
0.972652 1.00344 0.971491 0.997758
0.994504 1.00142 0.995812 0.997271
0.976962 1.00082 0.978295 0.99782
0.990276 1.00075 0.990484 0.999044
0.918263 0.974501 0.95409 0.987633
0.903292 0.967479 0.960849 0.971699
0.731896 0.831803 0.92106 0.955303
0.88206 0.937011 0.971984 0.968489
0.891593 0.93129 0.967516 0.989518
0.9113 0.96158 0.956143 0.991181
0.981484 1.00377 0.980425 0.997324
0.991703 1.00067 0.99285 0.998176
0.999961 1 1.00098 0.998978
0.985621 0.995682 0.992641 0.997234
0.933168 0.973389 0.970321 0.988003
0.910283 0.973513 0.95805 0.975993
0.759586 0.859162 0.926719 0.954011
0.964146 0.979242 0.986589 0.997967
0.919893 0.975641 0.955386 0.986889
0.930998 0.986979 0.968034 0.974428
0.967378 1.00191 0.968113 0.997336
0.945978 0.989195 0.965276 0.990713
0.968345 1.02459 0.947601 0.997362
0.989411 1.01725 0.976376 0.996162
0.978113 1.00741 0.97356 0.997289
0.992883 1.03437 0.962115 0.997689
1.00526 1.05998 0.950565 0.997695
1.02743 1.04001 0.990525 0.997355
1.03647 1.05929 0.980691 0.997725
1.03357 1.05623 0.980875 0.997624
1.03962 1.05236 0.990462 0.99741
1.03433 1.05074 0.986705 0.997654
1.04309 1.0577 0.988682 0.997476
1.04524 1.0532 0.995048 0.997386
1.04055 1.04962 0.99384 0.997501
1.04364 1.05088 0.995871 0.99723
1.04489 1.0497 0.997995 0.997418
1.04354 1.04734 0.999204 0.997165
1.0475 1.05094 0.99994 0.99679
1.0469 1.0503 1 0.99676
1.04897 1.0526 1 0.996554
1.04842 1.05214 1 0.996462
1.03965 1.04337 1 0.996433
1.04673 1.05066 1 0.99626
1.04888 1.05287 1 0.996211
1.01126 1.01402 1 0.997275
1.03106 1.03466 1 0.996514
1.03685 1.04081 1 0.996202
0.999151 1 1.00023 0.998922
1.00551 1.00805 1 0.997475
1.01726 1.02061 1 0.996716
1 1 1 1
0.999992 1 1.00085 0.999139
1.00224 1.00379 1.00075 0.99771
1 1 1 1
1.00154 1 1.00215 0.999393
1 1 1 1
1.01725 1.02066 1 0.996659
1.00798 1.01091 1 0.9971
1.00596 1.00792 1.00066 0.997396
0.999411 1.00156 1 0.997858
1.00021 1.00015 1.0022 0.997858
1.00308 1.00048 1.00427 0.998339
1.00358 1 1.00553 0.998058
1.00503 1 1.00638 0.99866
1.00184 1 1.00213 0.999705
1.00291 1 1.00401 0.998899
1.00018 1 1.00036 0.999815
1 1 1 1
1 1 1 1
0.999899 1 1 0.999899
1 1 1 1
0.923317 0.974968 0.958151 0.988386
0.908826 0.978778 0.955928 0.971339
0.754669 0.854675 0.922636 0.957029
1.03281 1.03647 1.00007 0.99641
1.00813 1.00133 1.00912 0.997693
1.0062 1.00776 1.00135 0.997108
1.00024 1.0029 1 0.997346
1.01517 1.01825 1.00042 0.996547
1.00445 1.00733 0.999843 0.997301
1.00007 1.00297 1 0.997114
0.984835 1.00184 0.984503 0.9985
0.993498 1.00243 0.993508 0.997562
0.96627 1.00244 0.966202 0.997633
1.00546 1.01266 0.995994 0.996884
0.997996 1.00701 0.993715 0.997315
0.995058 1.00204 0.99578 0.997239
0.977905 1.00134 0.978614 0.997942
0.979395 1.00613 0.975555 0.997823
0.912844 0.971421 0.952757 0.986295
0.90304 0.968886 0.958746 0.972144
0.906021 0.955017 0.959327 0.988919
0.984402 1.00518 0.9812 0.998093
0.991626 1.0002 0.993289 0.998126
0.981686 1.00678 0.979281 0.995703
0.918349 0.958263 0.968571 0.989446
0.897832 0.970477 0.95175 0.972045
0.964862 0.99973 0.967645 0.997393
0.953559 0.991234 0.972034 0.98967
0.972295 1.02598 0.950068 0.997481
0.992428 1.01708 0.979244 0.996444
0.992281 1.04189 0.95475 0.997528
1.04464 1.06225 0.986 0.997384
0.989797 1.03191 0.961418 0.997684
1.00999 1.06134 0.953835 0.997679
1.02319 1.06855 0.95997 0.997479
1.03539 1.05853 0.980392 0.997704
1.03125 1.05474 0.98006 0.99762
1.04294 1.06457 0.982275 0.997359
1.03414 1.04999 0.98724 0.997634
1.04145 1.05633 0.98839 0.997489
1.04557 1.05675 0.992213 0.997179
1.03849 1.04735 0.994032 0.997493
1.04414 1.05136 0.995894 0.997228
1.04955 1.05396 0.99891 0.996903
1.04382 1.04756 0.999222 0.997211
1.04792 1.0513 0.999954 0.996834
1.05042 1.05407 1 0.996542
1.04904 1.05268 1 0.996543
1.04817 1.0519 1 0.996445
1.04216 1.04585 1 0.996472
1.01791 1.02081 1 0.997153
1.03902 1.04273 1 0.996446
1.04691 1.05084 1 0.996259
0.999232 1.00046 1 0.998771
1.01259 1.01535 1 0.997275
1.03013 1.03373 1 0.996518
1 1 1 1
0.999074 1.00009 1.00008 0.998909
1.00787 1.01042 1 0.997474
1 1 1 1
0.999555 1 1.00043 0.999122
1 1 1 1
1.03195 1.0357 1 0.996377
1.01928 1.0227 1 0.996655
1.01629 1.01936 1 0.996988
1.01062 1.01353 1.00001 0.99713
1.00542 1.00749 1.00056 0.997389
1.00311 1.00297 1.00214 0.998006
0.999767 1 1.00196 0.99781
1.00366 1.00017 1.00516 0.998341
1.00186 1 1.00231 0.999553
1.00448 1 1.00582 0.998661
1.00094 1 1.00122 0.999716
1 1 1 1
0.999865 1 1.00004 0.999826
1 1 1 1
1 1 1 1
0.977203 1.01057 0.969379 0.997532
0.917997 0.972353 0.957688 0.985809
0.90738 0.970035 0.959084 0.975316
1.02333 1.02654 1.00001 0.996861
1.04288 1.04653 1 0.996512
1.03089 1.03439 1.00013 0.996483
1.00091 1.00358 1 0.997335
1.01395 1.01674 1.00073 0.996527
1.0058 1.00958 0.998969 0.99728
1.02416 1.02953 0.997948 0.99683
0.992915 1.00353 0.991832 0.997574
0.963057 1.00189 0.963644 0.997506
1.00656 1.01451 0.995165 0.99698
1.02344 1.03461 0.992452 0.996721
1.00235 1.02561 0.979741 0.997531
1.00166 1.00896 0.995487 0.997269
0.996373 1.00262 0.996548 0.997207
0.983737 1.00784 0.977958 0.998087
0.916827 0.974375 0.9554 0.984863
0.984557 1.00538 0.980381 0.998886
1.0244 1.04873 0.978772 0.997984
0.979619 1.00556 0.97828 0.995834
0.921915 0.969299 0.963454 0.987193
0.975288 1.0277 0.951291 0.997593
0.995319 1.01739 0.981499 0.996742
0.989346 1.04234 0.951366 0.997677
1.04379 1.06351 0.984014 0.997403
1.03967 1.07475 0.969889 0.997391
1.07549 1.09543 0.984229 0.99753
1.01462 1.06345 0.956321 0.997663
1.02895 1.07008 0.963995 0.997479
1.04623 1.07446 0.976397 0.997265
1.02916 1.05339 0.979341 0.997616
1.04264 1.06365 0.982837 0.997359
1.04618 1.06257 0.987391 0.997145
1.03988 1.05499 0.988141 0.997503
1.04613 1.05731 0.992234 0.997176
1.05054 1.05792 0.996099 0.996912
1.04462 1.05182 0.995919 0.997226
1.04993 1.05431 0.998946 0.996902
1.0537 1.05731 1 0.996581
1.04834 1.05166 0.999969 0.996878
1.04993 1.05356 1 0.996557
1.04537 1.04908 1 0.996466
1.04794 1.05169 1 0.996429
1.0421 1.04579 1 0.996472
1.02018 1.02315 1 0.997089
1.00058 1.00187 1 0.998717
1.01786 1.02076 1 0.997153
1.03861 1.0423 1 0.996459
1 1 1 1
0.999543 1.00078 1 0.99876
1.0139 1.01667 1 0.997275
1 1 1 1
0.998979 1.00008 1 0.998895
1 1 1 1
1.04041 1.04422 1 0.996346
1.03147 1.03523 1 0.996371
1.02556 1.02897 1 0.996689
1.02054 1.02397 1 0.996652
1.01539 1.01845 1 0.996995
1.00609 1.00804 1.00035 0.997716
1.00416 1.00633 1.00046 0.997382
1.00253 1.00197 1.00256 0.998008
1.00051 1 1.00119 0.999321
1.00516 1 1.00682 0.998343
1.00186 1 1.00229 0.99957
1 1 1 1
1.00061 1 1.00088 0.999728
1 1 1 1
1 1 1 1
1.00437 1.04101 0.966763 0.997975
0.974151 1.00952 0.968157 0.996702
0.919128 0.974292 0.956266 0.986526
1.03779 1.04122 0.999991 0.996714
1.02473 1.02775 1 0.997061
1.0578 1.06148 0.999936 0.996601
1.04341 1.04708 1 0.996496
1.02901 1.03238 1.00018 0.996557
1.04831 1.05713 0.995038 0.996604
1.00724 1.0121 0.997929 0.997259
1.02434 1.02916 0.998547 0.996768
1.04294 1.06668 0.98079 0.996889
1.00631 1.01623 0.993139 0.997077
1.02413 1.03537 0.992456 0.996658
1.00334 1.02802 0.978377 0.997567
1.00266 1.00922 0.996268 0.99722
0.988692 1.00957 0.980953 0.998331
1.06152 1.08621 0.979649 0.997569
1.0276 1.04855 0.981981 0.99801
0.97848 1.00434 0.978198 0.995961
0.987149 1.042 0.949427 0.997825
1.0418 1.0636 0.982039 0.997423
1.03491 1.07348 0.966573 0.997414
1.07761 1.0979 0.983959 0.997522
1.06369 1.08843 0.97981 0.997408
1.03445 1.07125 0.968094 0.997479
1.04695 1.0738 0.977662 0.997275
1.04736 1.06783 0.983609 0.997173
1.0423 1.0627 0.983399 0.997358
1.04622 1.06239 0.987622 0.997125
1.04924 1.06031 0.992636 0.996899
1.04672 1.05788 0.992257 0.997173
1.05087 1.05823 0.996126 0.996908
1.05665 1.06065 0.999627 0.996607
1.05032 1.05467 0.99898 0.9969
1.05359 1.0572 1 0.996584
1.04974 1.0535 1 0.996437
1.04945 1.05306 1 0.996571
1.04534 1.04904 1 0.996472
1.02101 1.02406 1 0.997021
1.04199 1.04568 1 0.996471
1.02043 1.02341 1 0.997088
1.00179 1.00285 1 0.998943
0.999585 1 1 0.999585
1.00093 1.00212 1 0.998813
1.01742 1.02032 1 0.997152
1 1 1 1
0.999858 1.00111 1 0.998747
1 1 1 1
1.06322 1.06679 0.999955 0.996696
1.04933 1.05303 1 0.996486
1.04123 1.04504 1 0.996354
1.03346 1.03703 1 0.996554
1.03144 1.0352 1 0.996365
1.02672 1.03014 1 0.996686
1.01132 1.01388 1 0.99747
1.01513 1.01819 1 0.997002
1.00454 1.00635 1.00048 0.997718
0.999164 1 1.00012 0.999042
1.00172 1.00089 1.00282 0.99801
1.00082 1 1.00148 0.99934
1 1 1 1
1.0014 1 1.00182 0.999588
1 1 1 1
1 1 1 1
1.05312 1.08423 0.973923 0.997316
1.00908 1.0478 0.964949 0.998022
0.97095 1.00962 0.965674 0.995885
1.05401 1.06 0.997704 0.996633
1.03441 1.03779 0.999984 0.996763
1.02584 1.02866 1 0.997258
1.05624 1.05989 0.999944 0.996617
1.04399 1.04768 1 0.996479
1.05539 1.07723 0.982802 0.996868
1.04486 1.05407 0.994687 0.996564
1.02433 1.02838 0.999349 0.996705
1.04096 1.06455 0.980892 0.996885
1.02783 1.03847 0.993131 0.996595
1.00842 1.03489 0.976761 0.997611
1.06375 1.08468 0.983155 0.997509
1.06462 1.08876 0.980171 0.997605
1.03005 1.04873 0.984123 0.998036
1.03176 1.07355 0.963542 0.997435
1.08082 1.10133 0.983818 0.997514
1.06386 1.08942 0.97907 0.997415
1.05391 1.06953 0.988092 0.997274
1.04768 1.07306 0.979002 0.997284
1.04779 1.06758 0.984259 0.99716
1.05085 1.06248 0.992097 0.996936
1.0463 1.06224 0.987853 0.997106
1.04999 1.06106 0.99265 0.996897
1.05827 1.06354 0.998418 0.996622
1.05118 1.05852 0.996156 0.996904
1.05674 1.06074 0.999617 0.996607
1.05286 1.05667 1 0.996399
1.05351 1.05711 1 0.996587
1.04974 1.05349 1 0.996441
1.02219 1.02534 1 0.996931
1.04529 1.04898 1 0.996478
1.02177 1.02483 1 0.997021
1.00158 1.00262 1 0.998956
1.02074 1.02372 1 0.997087
1.00181 1.00287 1 0.998937
0.99961 1 1 0.99961
0.999802 1 1 0.999802
1.00149 1.00257 1 0.998918
1 1 1 1
1.05707 1.06267 0.998024 0.996702
1.05434 1.05798 1 0.99656
1.06202 1.06553 0.999877 0.996822
1.04426 1.04792 1 0.996504
1.05146 1.05518 1 0.996474
1.04208 1.04588 1 0.996363
1.03446 1.03805 1 0.996546
1.01651 1.01929 1 0.997266
1.02764 1.03106 1 0.996683
1.00954 1.0121 1 0.997471
0.999306 1.00047 1 0.998832
1.00285 1.00461 1.00052 0.997721
0.999462 1 1.0004 0.999061
1 1 1 1
1.00126 1 1.0019 0.999361
1 1 1 1
1 1 1 1
1.05443 1.07853 0.980398 0.997203
1.04942 1.08028 0.974056 0.997312
1.01204 1.05159 0.964259 0.99806
1.05464 1.06897 0.989768 0.996788
1.05106 1.0573 0.99746 0.996633
1.0314 1.0347 1 0.996814
1.05448 1.05809 0.999948 0.996633
1.05383 1.07529 0.983139 0.996844
1.04133 1.05091 0.994343 0.996524
1.03436 1.05747 0.98121 0.996882
1.0581 1.07299 0.988755 0.997336
1.06203 1.08273 0.983366 0.997469
1.06738 1.09075 0.980883 0.997641
1.0526 1.0642 0.991908 0.997174
1.06338 1.09 0.978107 0.997421
1.05381 1.0696 0.987945 0.99726
1.05282 1.0634 0.992982 0.99704
1.04825 1.06733 0.984931 0.997146
1.05093 1.06261 0.992045 0.996938
1.05847 1.06495 0.997267 0.996642
1.05071 1.06177 0.99267 0.996896
1.05775 1.06301 0.998426 0.996622
1.05401 1.05784 1 0.996377
1.05671 1.06073 0.999609 0.996607
1.05301 1.05682 1 0.996403
1.02296 1.0262 1 0.996845
1.04967 1.05341 1 0.996446
1.02291 1.02606 1 0.996932
1.00075 1.00182 1 0.99893
1.0226 1.02566 1 0.997021
1.00138 1.00243 1 0.998944
0.999615 1 1 0.999615
1.00179 1.00286 1 0.998934
0.99962 1 1 0.99962
1 1 1 1
1.05479 1.06328 0.995394 0.996608
1.05665 1.06062 0.999728 0.99653
1.05876 1.0644 0.997993 0.9967
1.05067 1.05432 1 0.996542
1.05577 1.05942 0.999957 0.996598
1.06102 1.06447 0.999804 0.996947
1.0226 1.02556 1 0.99711
1.04397 1.04764 1 0.996494
1.05373 1.05747 1 0.996462
1.03552 1.03912 1 0.996537
1.01616 1.01894 1 0.997267
1.00126 1.00253 1 0.998734
1.00819 1.01075 1 0.997472
0.999312 1.00047 1 0.998847
1 1 1 1
0.999732 1 1.00065 0.999079
1 1 1 1
1 1 1 1
1.05254 1.0686 0.987859 0.997078
1.05446 1.07885 0.980155 0.997185
1.04835 1.07927 0.973971 0.997309
1.05411 1.06847 0.989719 0.996805
1.04776 1.05425 0.997206 0.996632
1.0534 1.07451 0.983474 0.99682
1.05449 1.06619 0.991825 0.997173
1.05827 1.07313 0.988794 0.99733
1.06041 1.08095 0.983528 0.997429
1.05306 1.06442 0.992106 0.997195
1.05184 1.06119 0.994181 0.996992
1.0537 1.06968 0.987775 0.997246
1.05305 1.06335 0.993298 0.997
1.05812 1.06526 0.996556 0.99673
1.05102 1.06276 0.991992 0.99694
1.05801 1.06454 0.997213 0.996645
1.05404 1.05789 1 0.996366
1.0574 1.06267 0.998419 0.996623
1.05486 1.0587 1 0.996379
1.02287 1.02616 1 0.996791
1.05325 1.05705 1 0.996406
1.02333 1.02657 1 0.996846
0.999862 1.00099 1 0.998874
1.02369 1.02684 1 0.996932
1.0005 1.00159 1 0.998912
0.999592 1 1 0.999592
1.00115 1.00222 1 0.998936
0.999634 1 1 0.999634
0.999624 1 1 0.999624
1.05419 1.06469 0.993247 0.996867
1.05784 1.06245 0.99921 0.996455
1.05492 1.06448 0.994364 0.996636
1.05351 1.05722 1 0.99649
1.05593 1.05986 0.999774 0.996517
1.06041 1.06609 0.997966 0.996698
1.02526 1.02834 1 0.997007
1.05055 1.05422 1 0.996519
1.057 1.06065 0.999917 0.996637
1.00246 1.00375 1 0.998715
1.02236 1.02532 1 0.997112
1.04394 1.04762 1 0.996484
1.01523 1.01801 1 0.997268
1.00055 1.00181 1 0.998746
1 1 1 1
0.999101 1.00024 1 0.998862
1 1 1 1
1 1 1 1
1.05137 1.0632 0.991781 0.997067
1.05289 1.06876 0.988043 0.99707
1.0539 1.0785 0.979961 0.997167
1.05362 1.06802 0.989661 0.996822
1.05238 1.0601 0.995762 0.99695
1.05457 1.06625 0.991843 0.997184
1.05848 1.07325 0.988888 0.997323
1.05355 1.06466 0.992328 0.997215
1.05199 1.06147 0.994045 0.997002
1.05835 1.06449 0.997506 0.996714
1.05333 1.06331 0.993638 0.996961
1.05849 1.06515 0.997057 0.996679
1.05342 1.05762 0.999597 0.996427
1.05749 1.06406 0.997171 0.996647
1.05487 1.05872 1 0.996368
1.02153 1.02486 1 0.996754
1.05548 1.05932 1 0.99638
1.02267 1.02596 1 0.996792
0.998986 1.00038 1 0.998612
1.02381 1.02705 1 0.996848
0.999549 1.00079 1 0.998759
1 1 1 1
1.00025 1.00135 1 0.998896
0.999617 1 1 0.999617
0.999646 1 1 0.999646
1.05265 1.06127 0.994899 0.996961
1.05679 1.06264 0.997895 0.99659
1.05466 1.06435 0.994021 0.996858
1.05413 1.05797 1 0.996369
1.05687 1.0619 0.998793 0.996466
1.05509 1.06572 0.993346 0.996664
1.02476 1.028 1 0.996846
1.05349 1.0572 1 0.99649
1.05523 1.05914 0.99981 0.996503
1.00175 1.00304 1 0.998721
1.0246 1.02772 1 0.99697
1.05026 1.05395 1 0.996496
1 1 1 1
1.00217 1.00344 1 0.998726
1.02186 1.02482 1 0.997114
1.00018 1.00142 1 0.998759
1 1 1 1
1 1 1 1
1.05086 1.05832 0.995983 0.996961
1.05172 1.0633 0.992012 0.997073
1.05318 1.06891 0.988186 0.997061
1.05808 1.06338 0.998354 0.996653
1.05182 1.0599 0.995404 0.996962
1.05466 1.06631 0.991857 0.997195
1.05209 1.06176 0.993861 0.997011
1.05797 1.06427 0.99736 0.996715
1.05239 1.05641 0.99971 0.996482
1.05878 1.06498 0.997536 0.996627
1.05379 1.0578 0.999794 0.996416
1.01982 1.02321 1 0.996682
1.05585 1.0597 1 0.99637
1.02107 1.02439 1 0.996755
0.998585 1.00001 1 0.998579
1.02246 1.02575 1 0.996793
0.998789 1.00018 1 0.99861
1 1 1 1
0.999124 1.0005 1 0.998625
0.999787 1 1 0.999787
0.999639 1 1 0.999639
1.05087 1.05811 0.996227 0.996918
1.05775 1.06274 0.998643 0.996663
1.05245 1.06095 0.995009 0.996968
1.05429 1.05814 1 0.99636
1.0578 1.06335 0.998205 0.996575
1.05511 1.06399 0.994786 0.996848
1.02349 1.02682 1 0.996759
1.05373 1.05755 1 0.996382
1.05585 1.06132 0.998364 0.996477
1.00038 1.00168 1 0.998698
1.02442 1.02767 1 0.996833
1.05345 1.05716 1 0.996491
1 1 1 1
1.00206 1.00334 1 0.99873
1.02421 1.02736 1 0.996932
1 1 1 1
1.00192 1.00319 1 0.998737
1 1 1 1
1.05743 1.06256 0.998466 0.996698
1.05045 1.05792 0.995981 0.996946
1.05201 1.06332 0.992254 0.99708
1.05176 1.05574 0.999753 0.996479
1.05747 1.06309 0.998031 0.996675
1.05126 1.05969 0.995057 0.996974
1.05762 1.06405 0.99724 0.996716
1.05222 1.05634 0.999609 0.996482
1.01869 1.02209 1 0.996676
1.05419 1.05799 1 0.996406
1.01965 1.02303 1 0.996702
0.998538 1 1 0.998538
1.02049 1.02381 1 0.996756
0.998577 1 1 0.998577
1 1 1 1
0.99865 1.00004 1 0.998608
1 1 1 1
0.999612 1 1 0.999612
1.0585 1.06339 0.998728 0.996674
1.05013 1.05792 0.995686 0.996939
1.05344 1.05724 1 0.996404
1.05823 1.06324 0.998625 0.996662
1.0523 1.06068 0.995109 0.996976
1.02138 1.02467 1 0.996784
1.0535 1.05735 1 0.996357
1.05884 1.06406 0.998529 0.99656
0.99916 1.00052 1 0.998645
1.02357 1.02687 1 0.996779
1.05323 1.05704 1 0.996395
1 1 1 1
1.00074 1.00204 1 0.998703
1.02414 1.02741 1 0.99682
1 1 1 1
1.00231 1.00358 1 0.998739
1 1 1 1
1.05183 1.05568 0.999853 0.996503
1.05731 1.06236 0.998562 0.996686
1.05005 1.05753 0.99599 0.996931
1.01812 1.0215 1 0.996691
1.05157 1.05562 0.999686 0.996479
1.05681 1.06278 0.997685 0.996696
1.05205 1.05628 0.999509 0.996482
1.0188 1.0222 1 0.996674
0.998517 1 1 0.998517
1.01951 1.02287 1 0.996721
0.998536 1 1 0.998536
1 1 1 1
0.998575 1 1 0.998575
1 1 1 1
1 1 1 1
1.05291 1.05669 1 0.996428
1.05817 1.06327 0.998474 0.99672
1.04938 1.05772 0.995134 0.99696
1.02002 1.02331 1 0.996789
1.05304 1.05684 1 0.996401
1.05871 1.06374 0.998608 0.996661
0.99863 1.00003 1 0.998599
1.02186 1.02516 1 0.996781
1.05279 1.05664 1 0.996353
1 1 1 1
0.999534 1.00089 1 0.998648
1.02387 1.02716 1 0.996798
1 1 1 1
1.00106 1.00235 1 0.998709
1 1 1 1
1.01851 1.02183 1 0.996751
1.05155 1.05551 0.999762 0.996481
1.05719 1.06217 0.998635 0.996673
0.998537 1 1 0.998537
1.01829 1.02168 1 0.996688
1.05141 1.05551 0.99963 0.996479
1.01891 1.02231 1 0.996673
0.998517 1 1 0.998517
1 1 1 1
0.998533 1 1 0.998533
1 1 1 1
1 1 1 1
1.01917 1.02246 1 0.99678
1.05253 1.05636 0.999923 0.996453
1.05787 1.06315 0.998265 0.996766
0.998818 1 1 0.998818
1.02037 1.02366 1 0.996787
1.05264 1.05645 1 0.996397
1 1 1 1
0.998756 1.00016 1 0.9986
1.02217 1.02548 1 0.996779
1 1 1 1
0.999776 1.00113 1 0.998651
1 1 1 1
0.998525 1 1 0.998525
1.01867 1.022 1 0.996732
1.0513 1.05537 0.999682 0.996458
1 1 1 1
0.998536 1 1 0.998536
1.01845 1.02184 1 0.996685
0.998516 1 1 0.998516
1 1 1 1
1 1 1 1
0.998783 1 1 0.998783
1.01944 1.02273 1 0.99678
1.0521 1.05602 0.999814 0.996478
1 1 1 1
0.998579 1 1 0.998579
1.0207 1.02399 1 0.996786
1 1 1 1
0.998959 1.00036 1 0.998601
1 1 1 1
0.99957 1 1 0.99957
0.998666 1 1 0.998666
1.0188 1.02216 1 0.996713
1 1 1 1
0.998537 1 1 0.998537
1 1 1 1
0.999584 1 1 0.999584
0.998679 1 1 0.998679
1.01974 1.02303 1 0.99678
0.999789 1 1 0.999789
0.998589 1.00001 1 0.99858
1 1 1 1
1 1 1 1
0.998559 1 1 0.998559
1 1 1 1
0.99979 1 1 0.99979
0.998574 1 1 0.998574
1 1 1 1
1 1 1 1
1 1 1 1

VECTORS lamdaE float
1.00169 1.00005 0.993347
1.00126 1.0008 0.996673
1.00117 1.00028 0.993676
1.00173 1.00005 0.993238
1.00174 0.999938 0.993383
1.00167 1.00029 0.993126
1.00298 1.00048 0.990293
1.00127 1.00076 0.996642
1.00111 1.00012 0.997241
1.00062 1.00089 0.997255
1.00106 1.00106 0.993177
1.00285 1.00121 0.988753
1.0012 0.999994 0.993892
1.00102 1.00001 0.993984
1.00071 1.00054 0.993976
1.00138 1.00004 0.993603
1.0011 1.00067 0.993418
1.00132 0.999997 0.993729
1.00322 1.00032 0.990138
1.00123 1.00002 0.996884
1.00162 1.00011 0.993346
1.00177 0.999974 0.993298
1.00307 1.00016 0.990504
1.00306 1.00021 0.990433
1.00175 1.00051 0.992765
1.00287 1.00097 0.989969
1.00527 1.00099 0.985686
1.00128 1.00073 0.996638
1.00134 0.999998 0.995373
1.00098 1.00063 0.995339
1.00116 1.00084 0.996692
1.00275 1.00138 0.988773
1.00163 0.99979 0.993423
1.00141 1.00014 0.993521
1.00337 1.00009 0.990735
1.00011 1.00113 0.997517
1.00322 1.00066 0.990518
1.00244 1.00198 0.988671
1.00484 1.00139 0.985238
1.00031 0.999783 0.997791
1.00124 0.999993 0.996867
1.00125 0.999997 0.995378
1.00115 0.99997 0.996939
1.00079 1.00002 0.994268
1.0029 0.999949 0.99004
1.00121 0.999951 0.997159
1.00337 1.00007 0.990795
1.00104 0.999961 0.993967
1.00092 1.00005 0.994062
1.00057 1.00107 0.993689
1.00343 1.00014 0.989998
1.00103 1.00004 0.995565
1.00124 1.00013 0.993708
1.00114 1.00101 0.993044
1.0014 0.999944 0.993658
1.00323 1.00011 0.99032
1.00316 1.00071 0.989822
1.00326 1.00011 0.990271
1.00526 1.00097 0.985726
1.00112 1 0.996936
1.00146 1.00008 0.993571
1.00263 0.999995 0.991815
1.00291 1.00018 0.990724
1.0031 1.00014 0.990454
1.00524 1.00018 0.986497
1.00525 1.00037 0.986234
1.00138 1.00056 0.99306
1.00255 1.0019 0.989584
1.00527 1.00137 0.985303
1.00528 1.0002 0.985703
1.00165 1.00002 0.996742
1.00104 1.00073 0.996887
1.00135 1.00054 0.996685
1.00265 1.00152 0.98878
1.0017 0.999909 0.996682
1.00152 1.0002 0.996764
1.00323 1.00003 0.989276
1.00038 1.0009 0.995702
1.00297 1.00067 0.989062
1.00231 1.0022 0.989649
1.00495 1.00126 0.985225
1.0006 1.00023 0.997391
1.00046 1.0023 0.991831
1.00339 1 0.989123
1.00327 1.00012 0.989202
1.00527 1.00043 0.985605
1.00169 1.00266 0.991136
1.00514 1.00092 0.985246
1.00391 1.00279 0.985459
1.00535 1.00145 0.984268
1.00012 0.998965 0.998206
1.00016 0.999522 0.997965
1.00158 0.999978 0.996674
1.0013 0.999991 0.996848
1.00119 0.999977 0.996932
1.00106 1 0.995564
1.00294 0.999941 0.990752
1.0014 0.999956 0.995289
1.00327 1.00009 0.990079
1.00115 0.999983 0.996957
1.00273 0.999829 0.990378
1.00315 1.00004 0.991145
1.005 0.999258 0.987346
1.0034 1.00004 0.990711
1.00526 0.999547 0.986612
1.00118 0.999998 0.993944
1.00086 1.00011 0.994074
1.00052 1.00151 0.993319
1.00104 0.9999 0.994014
1.0034 1.00012 0.990136
1.00345 1.00002 0.990116
1.00343 1.00046 0.989684
1.00526 1.00094 0.985763
1.00117 0.999983 0.996946
1.00108 1.00009 0.993931
1.00282 0.999949 0.990657
1.00307 1.00014 0.990536
1.00114 1.00101 0.99484
1.00292 1.00169 0.989638
1.00328 1.00009 0.990283
1.00524 1.00002 0.986692
1.00525 1.00136 0.985354
1.00525 1.00055 0.986109
1.00528 1.00021 0.985735
1.00271 0.999866 0.990397
1.00275 1.00007 0.991032
1.00491 0.999057 0.98823
1.00511 0.999639 0.987226
1.00524 1.00005 0.986595
1.00534 0.998365 0.987711
1.00066 1.00087 0.997136
1.00529 0.999447 0.986442
1.00192 1.00287 0.98848
1.00505 1.00168 0.984626
1.00527 1.00107 0.984934
1.00525 0.998019 0.987767
1.00105 1.00304 0.989968
1.00224 1.00443 0.986692
1.00171 0.999926 0.996703
1.00151 1.00024 0.996752
1.00325 0.999998 0.989259
1.00061 1.00057 0.997281
1.00192 1.0025 0.988911
1.00299 1.00065 0.989085
1.00502 1.00116 0.985217
1.00043 1.00022 0.997539
1.00038 1.00237 0.991847
1.00341 1.00003 0.989911
1.0033 1.00018 0.989935
1.00527 1.00044 0.985579
1.00126 1.00283 0.989798
1.00518 1.00088 0.985233
1.00414 1.00238 0.985436
1.00534 1.00135 0.984441
1.00085 1.0026 0.990744
1.00024 1.00165 0.992886
1.00189 1.00465 0.987573
1.00528 1.00016 0.9859
1.00526 1.00067 0.985363
1.00529 0.999225 0.986766
1.00321 1.00332 0.986018
1.00531 1.00045 0.98552
1.00519 1.00214 0.983904
1.00531 1.00029 0.985322
1.00004 0.998444 0.998517
1.00004 0.99891 0.998335
1.00007 0.999399 0.998126
1.00077 1.00292 0.990661
1.00037 1.00068 0.997391
1.0017 0.999937 0.996661
1.0014 0.999989 0.996755
1.00311 1.00013 0.989431
1.0028 0.999952 0.990124
1.00118 0.999976 0.996914
1.00113 0.999975 0.996953
1.00272 0.999842 0.990369
1.00307 1.00003 0.990435
1.00497 0.999274 0.987345
1.00325 1.00009 0.989219
1.00523 0.999581 0.986607
1.00267 0.99983 0.990462
1.00494 0.999135 0.987549
1.00509 0.999407 0.987025
1.00532 0.996353 0.98987
1.00528 0.999867 0.986231
1.00535 0.997228 0.988931
1.00114 0.999982 0.996946
1.00069 1.00015 0.994289
1.00285 0.999941 0.989649
1.00324 1.00013 0.990345
1.0004 1.0016 0.997084
1.00339 1.00129 0.989695
1.00345 1.00005 0.990114
1.00525 0.999843 0.986888
1.00526 1.00071 0.985981
1.00523 1.00134 0.985409
1.00528 1.00021 0.985768
1.00269 0.99986 0.990401
1.00291 1.00009 0.990844
1.00494 0.999028 0.987959
1.00515 0.999822 0.987037
1.00081 1.00089 0.997016
1.00219 1.00262 0.989383
1.00487 1.00199 0.984887
1.00525 1.00011 0.986551
1.00535 0.997999 0.988118
1.00529 1.00096 0.985009
1.00529 0.999588 0.986393
1.00525 0.998045 0.987781
1.00111 1.00297 0.989948
1.00229 1.00434 0.986694
1.0049 0.999194 0.987561
1.005 0.999389 0.987773
1.00532 0.997049 0.98916
1.00536 0.997151 0.988881
1.00531 0.998635 0.98734
1.00526 0.995749 0.990308
1.00139 1.0031 0.989224
1.00526 0.996903 0.988915
1.00428 1.00263 0.984899
1.00533 1.00174 0.984008
1.00524 0.99957 0.986379
1.00522 0.996304 0.989656
1.00307 1.0037 0.985788
1.00151 1.00499 0.987509
1.00387 1.00229 0.986128
1.00328 1.00001 0.989215
1.00023 1.00005 0.997707
1.00026 1.00246 0.991861
1.00315 1.00017 0.989248
1.00527 1.00045 0.985552
1.0012 1.003 0.989714
1.00434 1.00199 0.985412
1.00525 1.00084 0.985213
1.00535 1.00123 0.984614
1.0008 1.0027 0.990756
1.00012 1.0017 0.992918
1.00156 1.00475 0.987544
1.00527 1.00018 0.985872
1.00526 1.00067 0.985339
1.00529 0.999226 0.986745
1.00335 1.00314 0.986029
1.0053 1.00055 0.985417
1.00531 1.00208 0.983857
1.00532 1 0.985538
1.00014 1.00086 0.99379
1.00272 1.00383 0.986736
1.00114 1.00472 0.988511
1.00305 1.00246 0.987429
1.00529 0.998514 0.98753
1.00529 0.999928 0.986018
1.00524 0.997138 0.988708
1.00483 1.00225 0.98439
1.00523 0.998726 0.98725
1.00534 1.00131 0.984629
1.00535 0.999025 0.986598
1.00023 1.0024 0.992123
1.00027 0.999556 0.994849
1.00005 0.9979 0.998721
1.00001 0.998314 0.998596
0.999974 0.998771 0.998443
1.00032 1.00266 0.991585
1.00018 1.00031 0.997659
1.00082 1.00282 0.990619
1.00049 1.00072 0.997304
1.00323 1.00012 0.989219
1.00296 1.00002 0.989797
1.00519 0.999619 0.986604
1.00496 0.999298 0.987343
1.00273 0.99986 0.990368
1.00118 0.999963 0.99695
1.00269 0.999823 0.990464
1.00492 0.999146 0.987555
1.00509 0.999406 0.987021
1.00532 0.996373 0.989877
1.00527 0.999885 0.986207
1.00534 0.997211 0.988932
1.0049 0.99912 0.987617
1.0053 0.996227 0.990066
1.00537 0.996712 0.989445
1.00531 0.99494 0.991255
1.00529 0.997833 0.988296
1.00523 0.995145 0.990995
1.0027 0.999859 0.99041
1.00308 1.00007 0.990657
1.00497 0.998979 0.98769
1.00517 0.999986 0.986849
1.00096 1.00094 0.99687
1.00257 1.00244 0.990068
1.00481 1.00224 0.985144
1.00526 1.00015 0.986507
1.00535 0.997638 0.988523
1.00529 0.999735 0.986346
1.00531 1.00084 0.985084
1.00524 0.99807 0.987796
1.00114 1.0029 0.989929
1.00235 1.00422 0.986696
1.00491 0.998981 0.987767
1.00502 0.999356 0.987746
1.00532 0.996918 0.989311
1.00538 0.997551 0.988478
1.00145 1.00306 0.989228
1.00416 1.00283 0.98493
1.00532 1.00187 0.983871
1.0053 0.998857 0.987184
1.00524 0.99554 0.990525
1.00524 0.999334 0.986615
1.00526 0.99693 0.988908
1.00521 0.996269 0.989568
1.0031 1.00386 0.985736
1.00377 1.00255 0.985935
1.0015 1.00484 0.987557
1.00531 0.996836 0.989418
1.00535 0.997146 0.989042
1.00527 0.995171 0.991045
1.00528 0.995022 0.99102
1.00526 0.995977 0.989857
1.00523 0.994938 0.990939
1.00359 1.00344 0.985264
1.00522 0.9953 0.990406
1.0053 1.00269 0.98321
1.00527 1.00069 0.984966
1.00521 0.997904 0.987986
1.00519 0.995798 0.990117
1.00092 1.00506 0.98816
1.00464 1.00268 0.984665
1.00298 1.00359 0.98622
1.00507 1.00227 0.984669
1.00526 1.0002 0.985843
1.00006 1.0017 0.992947
1.00065 1.00292 0.990778
1.00126 1.00477 0.987514
1.00527 1.00067 0.985313
1.00529 0.999229 0.986724
1.00348 1.00284 0.986045
1.00534 1.00206 0.98381
1.0053 1.00067 0.985314
1.00532 0.999725 0.985753
1.00011 1.00081 0.993832
1.00261 1.00367 0.986779
1.00093 1.00483 0.98849
1.00299 1.00247 0.987459
1.0053 0.998518 0.987509
1.00529 0.999926 0.985996
1.00524 0.997125 0.988706
1.00495 1.00223 0.984377
1.00523 0.998909 0.987024
1.00531 1.00118 0.984606
1.00534 0.998885 0.98677
1.00022 1.00006 0.994471
1.00077 1.00411 0.989741
1.00385 1.00228 0.986042
1.00216 1.00392 0.987945
1.00376 1.00009 0.988677
1.00525 0.996288 0.989609
1.00523 0.99795 0.987841
1.00522 0.995913 0.989748
1.00508 1.00203 0.984248
1.00525 0.997648 0.988084
1.00514 1.00006 0.985823
1.0004 1.00259 0.991642
1.00034 1.00414 0.990266
1.00009 1.00213 0.992631
1.0002 1.00242 0.992124
1.00022 0.999272 0.995857
1.00025 0.999497 0.995258
1.00023 0.997475 0.997326
1.00005 0.997845 0.998762
0.99999 0.99821 0.998662
0.999929 1.00207 0.992814
0.999997 0.999789 0.998046
1.00042 1.00257 0.991577
1.0003 1.0004 0.997551
1.0009 1.00272 0.990578
1.00062 1.00075 0.997217
1.00525 0.999902 0.986184
1.0051 0.999394 0.987015
1.00532 0.997218 0.988933
1.00532 0.99639 0.989885
1.0049 0.999157 0.987561
1.00268 0.999808 0.990462
1.0049 0.999121 0.987622
1.0053 0.996234 0.990069
1.00535 0.996735 0.989456
1.0053 0.994935 0.991258
1.00531 0.997817 0.988281
1.00524 0.995122 0.991012
1.00531 0.996272 0.990031
1.00529 0.994958 0.991295
1.00527 0.994955 0.991217
1.00523 0.994959 0.991224
1.00524 0.995591 0.990434
1.00525 0.994888 0.990994
1.00492 0.998771 0.987975
1.00505 0.999344 0.98772
1.00532 0.996821 0.989461
1.00539 0.997948 0.988076
1.00152 1.00302 0.989237
1.00394 1.00316 0.984966
1.00533 1.002 0.983735
1.00529 0.999065 0.987029
1.00522 0.995336 0.990742
1.00527 0.996959 0.988901
1.00525 0.999101 0.986851
1.00521 0.996217 0.989478
1.00313 1.00413 0.985681
1.00366 1.00268 0.985741
1.00148 1.00466 0.987604
1.00531 0.996627 0.989662
1.00535 0.997106 0.989055
1.00527 0.99507 0.991148
1.00526 0.995237 0.990815
1.00352 1.00362 0.985268
1.00529 1.00271 0.983261
1.00527 1.00087 0.984767
1.00526 0.996229 0.989596
1.00524 0.99493 0.99092
1.00522 0.997778 0.987962
1.00523 0.995319 0.99038
1.00519 0.9957 0.990157
1.00436 1.00296 0.984643
1.0049 1.00226 0.984437
1.0011 1.00491 0.988175
1.00285 1.0035 0.986227
1.00527 0.99496 0.991341
1.00528 0.995267 0.9908
1.00522 0.994948 0.991281
1.00522 0.994907 0.990979
1.00525 0.994945 0.990761
1.00528 0.994913 0.990772
1.00519 1.00295 0.983369
1.00521 0.994973 0.990625
1.00524 1.00215 0.983609
1.00522 0.999839 0.98575
1.0052 0.997144 0.988492
1.00522 0.995787 0.990007
1.00065 1.00457 0.989171
1.00167 1.00507 0.986536
1.00513 1.00318 0.983159
1.00469 1.00283 0.985453
1.00493 1.00374 0.983146
1.00008 1.00072 0.993875
1.0053 0.99852 0.987488
1.00072 1.00496 0.988469
1.00246 1.00366 0.986822
1.00297 1.00235 0.987488
1.00529 0.999926 0.985975
1.00524 0.997113 0.988704
1.00518 1.00203 0.984361
1.0053 1.0011 0.984584
1.00523 0.99908 0.986798
1.00534 0.998764 0.986941
1.0002 1 0.994502
1.00053 1.00425 0.989752
1.00411 1.0019 0.986121
1.0018 1.00399 0.987867
1.00373 1.00013 0.988208
1.00525 0.996259 0.989618
1.00523 0.997931 0.98784
1.00522 0.995863 0.989751
1.00511 1.0021 0.984162
1.00527 0.997737 0.987905
1.00518 1.00008 0.985982
1.00047 1.00324 0.990931
1.00118 1.00502 0.988649
1.00449 1.00179 0.985485
1.00286 1.00205 0.988312
1.00488 1.00048 0.987557
1.00527 0.995265 0.990414
1.00522 0.996655 0.988883
1.00523 0.995466 0.98989
1.00496 1.00128 0.984713
1.00513 0.998691 0.986872
1.00038 1.00264 0.991638
1.00054 1.00374 0.990105
1.0001 1.00425 0.990243
1.00053 1.00434 0.990063
1.00013 1.00398 0.990818
1.00001 1.00185 0.993024
1.00005 1.00214 0.992647
1.00018 0.999061 0.996101
1.00018 1.00245 0.992125
1.00024 0.999214 0.995893
1.00026 0.997209 0.997488
1.00024 0.999468 0.995658
1.00014 0.99753 0.998092
1.00005 0.997749 0.998798
0.999792 1.00095 0.994121
1.00002 1.00195 0.99281
0.999801 0.999053 0.998491
1.00013 0.999849 0.997887
1.00051 1.00243 0.991571
1.0004 1.00049 0.997451
1.00532 0.997798 0.988267
1.00532 0.996737 0.989467
1.00525 0.9951 0.991028
1.00529 0.994929 0.99126
1.00531 0.996239 0.990071
1.0049 0.999122 0.987626
1.00531 0.996275 0.990031
1.00529 0.994958 0.991303
1.00528 0.994949 0.991232
1.00524 0.99496 0.9912
1.00524 0.995539 0.990451
1.00526 0.994891 0.990988
1.00528 0.994959 0.991324
1.00525 0.994941 0.991314
1.00524 0.99495 0.991105
1.00528 0.994939 0.991139
1.00528 0.994942 0.990814
1.00532 0.994897 0.990851
1.00531 0.996413 0.989904
1.00534 0.997064 0.989068
1.00528 0.994949 0.991252
1.00525 0.995459 0.99061
1.00345 1.00371 0.985273
1.00524 1.0027 0.983308
1.00526 1.00098 0.984564
1.00526 0.99648 0.989334
1.00524 0.994908 0.990901
1.00523 0.995338 0.990353
1.00523 0.997661 0.987938
1.0052 0.995552 0.990203
1.00398 1.00347 0.984624
1.00494 1.00237 0.984208
1.00129 1.00478 0.988191
1.00277 1.00324 0.986237
1.00528 0.994961 0.991335
1.00529 0.995235 0.990846
1.00522 0.994945 0.991255
1.00522 0.994913 0.990994
1.00499 1.00316 0.983384
1.00525 1.00223 0.983494
1.00522 0.999816 0.985734
1.00525 0.994972 0.990715
1.00527 0.994911 0.990751
1.0052 0.997146 0.988493
1.00522 0.994942 0.990609
1.00522 0.995601 0.990131
1.0051 1.00327 0.983227
1.00482 1.00394 0.982952
1.00413 1.00258 0.985486
1.00064 1.00439 0.989234
1.00159 1.00507 0.986673
1.00524 0.994949 0.991264
1.00525 0.994937 0.991094
1.00529 0.994898 0.990696
1.00526 0.994896 0.99072
1.00518 1.00331 0.982787
1.00523 0.994981 0.9905
1.00515 1.00147 0.984005
1.00518 0.999191 0.986307
1.00519 0.996805 0.988695
1.00001 1.00369 0.990843
1.00127 1.00508 0.98795
1.00228 1.00506 0.986163
1.00495 1.00437 0.982515
1.00503 1.0028 0.984284
1.00493 1.00333 0.982691
1.00018 0.999958 0.994532
1.00035 1.00445 0.989763
1.00524 0.996232 0.989627
1.00145 1.00413 0.987789
1.00435 1.00177 0.986206
1.00373 1.00034 0.987745
1.00523 0.997912 0.987838
1.00522 0.995816 0.989753
1.00519 1.00207 0.984077
1.00519 1.00011 0.986143
1.00529 0.997812 0.987725
1.0004 1.00333 0.990932
1.00075 1.00508 0.988639
1.00479 1.00166 0.985188
1.00273 1.00201 0.988323
1.00448 0.999875 0.987357
1.00526 0.995227 0.990438
1.00524 0.996673 0.98886
1.00523 0.995507 0.989859
1.00499 1.00132 0.984812
1.00514 0.998805 0.986838
1.00078 1.00445 0.989607
1.00062 1.00451 0.988681
1.00484 1.00202 0.984695
1.00355 1.00073 0.987539
1.00494 1.00095 0.986293
1.00523 0.994923 0.99051
1.00527 0.996816 0.988464
1.00529 0.995832 0.989287
1.00503 1.00021 0.985882
1.00512 0.999025 0.98671
1.00036 1.00266 0.991634
1.00055 1.00387 0.990077
0.999973 1.00398 0.990699
0.999946 1.00431 0.990219
0.999981 1.00412 0.990815
0.999968 1.00466 0.990193
0.999942 1.00341 0.991596
0.999784 1.00482 0.990231
0.999939 1.00371 0.991357
0.999996 1.00184 0.993056
1 1.00183 0.993027
1.00009 0.998977 0.996302
1.00001 1.0021 0.992661
1.00019 0.999031 0.996137
1.00022 0.997086 0.997643
1.00026 0.999161 0.995933
1.00022 0.997259 0.997484
1.00003 0.99756 0.998881
0.999814 0.999898 0.995134
0.999841 1.00098 0.994074
0.999735 0.998413 0.998804
1.00016 1.00182 0.992806
0.999926 0.999229 0.998328
1.00024 0.999995 0.99774
1.00524 0.995486 0.990468
1.00529 0.994941 0.991247
1.00526 0.994893 0.990984
1.00525 0.994961 0.991176
1.00528 0.994958 0.99131
1.00531 0.99628 0.990031
1.00528 0.994961 0.991339
1.00525 0.994941 0.991318
1.00524 0.99495 0.991116
1.00528 0.994937 0.991126
1.00527 0.994948 0.990839
1.00531 0.994896 0.990794
1.00524 0.994946 0.991311
1.00528 0.994927 0.991223
1.0053 0.994931 0.990988
1.00531 0.994861 0.990665
1.00528 0.994961 0.991329
1.0053 0.995208 0.990891
1.00523 0.994942 0.991229
1.00522 0.994918 0.99101
1.00484 1.00321 0.983398
1.00525 1.00236 0.983383
1.00521 0.999848 0.985718
1.00526 0.995005 0.990669
1.00527 0.994909 0.990731
1.00522 0.994933 0.990593
1.00519 0.997117 0.988491
1.0052 0.995523 0.990253
1.00478 1.00339 0.983294
1.00481 1.00409 0.982762
1.00367 1.00275 0.985517
1.00065 1.00416 0.989308
1.00159 1.00509 0.986811
1.00523 0.99495 0.991257
1.00525 0.994936 0.991118
1.00529 0.994904 0.990723
1.00518 1.00332 0.982843
1.00514 1.00171 0.983898
1.00517 0.99922 0.986308
1.00525 0.994897 0.990724
1.00519 0.996687 0.988918
1.00523 0.994995 0.990465
0.999955 1.0035 0.991084
1.00473 1.00428 0.982601
1.00466 1.00474 0.982325
1.00466 1.00308 0.984405
1.00263 1.00477 0.986127
1.00101 1.00509 0.987974
1.00528 0.994934 0.991169
1.0053 0.994908 0.990886
1.00529 0.994894 0.99061
1.00525 0.99486 0.990594
1.00506 1.00322 0.983051
1.00519 0.995256 0.99037
1.00504 1.00106 0.98473
1.00512 0.999097 0.986503
0.99994 1.00178 0.992773
1.00034 1.00494 0.989623
1.00189 1.00509 0.987559
1.00314 1.00483 0.984777
1.00456 1.00472 0.983311
1.00486 1.00392 0.982975
1.00032 1.00341 0.990934
1.00029 1.00511 0.98863
1.00524 0.995187 0.990462
1.0026 1.00191 0.988329
1.00514 1.0015 0.984887
1.00379 0.999847 0.98715
1.00525 0.996692 0.988837
1.00524 0.995546 0.989827
1.00502 1.00144 0.984907
1.00516 0.998941 0.986803
1.00056 1.00449 0.989617
1.0011 1.00448 0.98842
1.00483 1.00201 0.984669
1.0039 1.00075 0.987519
1.00473 1.00123 0.986074
1.00525 0.994975 0.990532
1.00527 0.996719 0.988692
1.00528 0.995878 0.98938
1.00499 1.00019 0.985908
1.00506 0.999263 0.986489
0.999612 1.00442 0.98994
1.00089 1.00351 0.988839
1.00483 1.00093 0.985776
1.00459 1.00045 0.986166
1.00534 0.994846 0.990424
1.00527 0.99537 0.990127
1.00524 0.998015 0.987147
1.0051 0.999523 0.986115
1.00073 1.00384 0.990048
1.00014 1.00395 0.990631
0.999205 1.00373 0.992961
0.999829 1.00426 0.990815
0.999377 1.00495 0.990324
0.999921 1.0037 0.991341
0.999596 1.00348 0.992014
0.999859 1.00488 0.990157
0.999749 1.00102 0.994305
0.999749 1.00445 0.990928
0.999738 1.00459 0.990404
1.00007 1.00348 0.991358
0.999961 1.00206 0.992834
0.999957 1.00184 0.993046
0.999976 0.999013 0.996421
0.999978 1.00181 0.993034
1.0001 0.998971 0.996321
1.00014 0.997103 0.997752
1.00019 0.999 0.996175
1.00021 0.997111 0.997636
1.00018 0.997315 0.997472
0.999956 0.99912 0.995737
0.999815 1.00003 0.995068
0.999724 0.99791 0.998979
0.999852 1.00108 0.994023
0.999784 0.998517 0.998718
1.00007 0.999292 0.998149
1.00527 0.994953 0.990864
1.00524 0.994949 0.991128
1.0053 0.994895 0.990737
1.00527 0.994934 0.991113
1.00525 0.99494 0.991322
1.00528 0.994963 0.991352
1.00524 0.994945 0.991321
1.00528 0.994926 0.991218
1.00529 0.994926 0.990968
1.00531 0.994858 0.990675
1.00527 0.994927 0.991248
1.00528 0.994918 0.991134
1.00533 0.994885 0.990772
1.00523 0.994951 0.991249
1.00525 0.994937 0.991142
1.00529 0.99491 0.99075
1.00522 1.00327 0.982901
1.00514 1.00187 0.983788
1.00516 0.999107 0.986307
1.00525 0.994897 0.990727
1.00524 0.995008 0.990428
1.00522 0.996474 0.989137
1.00462 1.00412 0.982686
1.00483 1.0049 0.981981
1.0043 1.00315 0.984526
0.999992 1.00332 0.991333
1.00307 1.00446 0.986091
1.00069 1.00509 0.98799
1.00528 0.994936 0.991187
1.0053 0.994905 0.990853
1.0053 0.994891 0.990601
1.00505 1.00326 0.983075
1.00495 1.00095 0.984643
1.00512 0.998859 0.986843
1.00525 0.994864 0.990564
1.00503 0.99529 0.990316
0.999949 1.00176 0.992992
1.00024 1.00493 0.989599
1.00458 1.00347 0.983177
1.0047 1.00379 0.983167
1.00358 1.00449 0.984923
1.00163 1.00508 0.98736
1.00529 0.994908 0.991118
1.00533 0.994854 0.9906
1.00529 0.994887 0.990559
1.0052 0.994889 0.990363
1.00446 1.00245 0.984112
1.00515 0.996628 0.989049
1.00497 1.00109 0.984969
1.00013 1.00084 0.993844
1.00024 1.00202 0.992627
0.999573 1.00366 0.991743
1.0008 1.00504 0.988699
1.00152 1.00507 0.98663
1.00409 1.00425 0.983408
1.0033 1.00433 0.984769
1.00373 1.00515 0.984557
1.00028 1.00455 0.989627
1.00155 1.00446 0.988159
1.00527 0.995023 0.990554
1.0043 0.999828 0.987502
1.00483 1.002 0.984647
1.00465 1.0015 0.985864
1.00526 0.996599 0.988921
1.00527 0.995908 0.989475
1.00498 1.00012 0.985933
1.00501 0.999433 0.98627
1.00024 1.00415 0.989765
1.0014 1.00363 0.98855
1.00491 1.00093 0.985631
1.00492 1.00067 0.986308
1.00534 0.994824 0.990424
1.00529 0.995315 0.990066
1.00519 0.997961 0.98726
1.00513 0.999603 0.986131
0.99957 1.00437 0.990429
1.00537 0.994889 0.990419
1.00308 1.00296 0.98816
1.00486 1.00021 0.986139
1.0053 0.994795 0.990754
1.0052 0.99714 0.987104
1.00506 1.00056 0.985643
1.00027 1.00397 0.990563
0.999054 1.00357 0.992876
0.998039 1.00226 0.996027
0.999925 1.00362 0.991324
0.999885 1.00499 0.990082
0.998491 1.00421 0.992426
1.00009 1.00337 0.991347
0.999751 1.00466 0.990414
0.998751 1.00186 0.994707
0.999871 1.0044 0.9908
0.999297 0.999605 0.997272
0.998924 1.00288 0.993549
0.999655 1.005 0.990263
1.00031 1.00452 0.989826
1.00019 1.00361 0.990951
0.999925 1.00233 0.992635
0.999894 1.0022 0.992812
0.999852 0.999205 0.996481
0.999913 1.00194 0.993035
0.999991 0.99905 0.996421
1.00002 0.997227 0.997835
1.00011 0.99895 0.996344
1.00015 0.997115 0.997747
1.0002 0.99714 0.997623
1.00013 1.00079 0.993941
1.00003 0.998681 0.996068
0.999941 0.999216 0.995691
0.9998 0.997551 0.999071
0.999815 1.00014 0.995003
0.999759 0.998033 0.998939
0.999863 0.998663 0.998601
1.0053 0.994857 0.990686
1.00529 0.99492 0.990949
1.00528 0.994925 0.991212
1.00524 0.994945 0.991332
1.00528 0.994925 0.991254
1.00528 0.994917 0.991145
1.00531 0.994888 0.990732
1.00528 0.994911 0.991188
1.00534 0.994902 0.990982
1.00549 0.995101 0.991083
1.00527 0.994938 0.991205
1.0053 0.994898 0.990821
1.00531 0.994891 0.990593
1.00481 1.00335 0.983101
1.00499 1.00136 0.984581
1.00488 0.99873 0.987176
1.00525 0.994875 0.990534
1.00499 0.995386 0.990266
1.00421 1.00396 0.983046
1.00438 1.0043 0.983313
1.00361 1.00409 0.985068
0.999951 1.00167 0.99321
1.00014 1.00497 0.989573
1.00143 1.00508 0.987158
1.00529 0.994906 0.991098
1.00012 1.00083 0.993834
1.00016 1.00205 0.992477
1.00533 0.994867 0.990613
1.00528 0.994888 0.990569
1.00471 1.00268 0.984015
1.00473 1.001 0.985215
1.00507 0.996513 0.988961
1.00521 0.99488 0.990321
0.999672 1.00358 0.991904
1.00077 1.00504 0.988647
1.00353 1.00421 0.984633
1.00372 1.00473 0.983878
1.00431 1.00438 0.983377
1.00171 1.00508 0.986575
1.00538 0.994869 0.990845
1.00533 0.994844 0.990487
1.00524 0.994851 0.990471
1.00518 0.994904 0.990388
1.004 1.00215 0.985414
1.0046 1.00026 0.986882
1.00009 1.00248 0.992033
0.999924 1.00215 0.992848
1.00155 1.00055 0.99228
1.00059 1.00385 0.989885
1.00104 1.0051 0.988135
1.00266 1.0045 0.986264
1.00264 1.00509 0.984156
1.00221 1.0013 0.989066
1.00074 1.00395 0.989593
1.00192 1.00381 0.988257
1.00535 0.994802 0.990422
1.00531 0.995314 0.990005
1.00523 1.00111 0.986447
1.00495 1.00097 0.985483
1.00514 0.997924 0.987372
1.00515 0.99971 0.986149
1.0002 1.00399 0.990309
1.00539 0.994918 0.990651
1.00228 1.00315 0.988358
1.00499 1.00034 0.985986
1.0053 0.994805 0.990771
1.00519 0.997324 0.987305
1.00495 1.00043 0.985608
0.999282 1.00501 0.99159
1.00495 0.994781 0.990769
1.00236 1.00242 0.988248
1.00467 1.00151 0.984873
1.0051 0.995593 0.989967
1.00371 1.00099 0.986297
0.998801 0.994912 0.985938
0.998808 1.00362 0.992799
0.9977 1.00259 0.996066
0.997926 1.00173 0.997217
1 1.00342 0.991335
0.999659 1.00485 0.990426
1.00034 1.00411 0.990675
0.998241 1.00212 0.995126
1.00012 1.0037 0.990951
1.00022 1.00447 0.989921
0.999257 0.999381 0.997153
0.999714 1.00496 0.990268
0.999353 1.00291 0.993081
0.998016 1.00139 0.997405
1.0004 1.00405 0.990277
1.00011 1.00489 0.990022
1.00073 1.00433 0.989565
1.00014 1.00401 0.990385
1.00036 1.00484 0.989891
1.00008 1.00427 0.990173
0.9999 1.00239 0.992584
0.999913 1.00234 0.992619
0.999728 0.99928 0.995944
0.999885 1.00219 0.992791
0.999837 0.999246 0.996158
0.999991 0.997364 0.999093
1 0.999094 0.996422
1.00004 0.997204 0.997833
1.00016 0.997125 0.997736
1.00004 1.00065 0.994134
1.00015 1.00068 0.993974
1.00008 0.998417 0.996305
1.00002 0.998698 0.996352
0.999859 0.997272 0.999142
0.999918 0.999343 0.995645
0.9998 0.997629 0.999051
0.999794 0.998066 0.9989
1.00529 0.99489 0.990693
1.00528 0.994915 0.991156
1.00528 0.994922 0.99126
1.00528 0.994911 0.991189
1.00534 0.994903 0.99095
1.00548 0.99502 0.990858
1.00543 0.994874 0.990972
1.00129 0.99484 0.981383
1.00486 0.995063 0.991903
1.00012 1.00188 0.992778
1.00529 0.994906 0.991077
1.00533 0.994878 0.990626
1.00527 0.994882 0.990578
1.00478 1.00237 0.983893
1.00498 1.00051 0.98544
1.00484 0.996348 0.988868
1.00522 0.994872 0.990282
1.00411 1.00334 0.98455
1.00432 1.00432 0.983271
1.00414 1.00434 0.983344
1.0001 1.00086 0.993826
1.0023 1.00508 0.986518
0.99973 1.00351 0.992048
1.00075 1.00505 0.988594
1.00011 1.00207 0.99233
1.00537 0.994861 0.990847
1.00006 1.00245 0.992201
0.999897 1.00223 0.992875
1.00104 1.00076 0.992699
1.00534 0.994846 0.990461
1.00523 0.994851 0.990429
1.00322 1.00309 0.985511
1.00483 0.998988 0.987357
1.00518 0.994904 0.99033
1.00043 1.00386 0.990084
1.0013 1.00509 0.987972
1.00254 1.0026 0.98832
1.00321 1.005 0.983872
1.00308 1.00372 0.986426
1.00536 0.994768 0.990985
1.00525 0.994807 0.99071
1.00519 0.994922 0.989984
1.00509 0.996767 0.990458
1.00176 1.00157 0.989334
0.999489 1.00347 0.991859
1.00156 1.00093 0.991614
1.00009 1.00028 0.993051
1.00091 1.00434 0.990039
1.0006 1.005 0.989098
1.00095 1.00411 0.988194
1.00169 1.00012 0.991488
1.00116 1.00353 0.990182
1.00131 1.0033 0.988562
1.0054 0.994963 0.990875
1.00531 0.994774 0.99078
1.00518 0.997472 0.987506
1.00506 1.00043 0.985828
1.00484 1.00028 0.985578
0.999769 1.00474 0.991594
1.00466 0.994819 0.990976
1.00264 1.00232 0.988078
1.00479 1.0015 0.984796
1.00506 0.99548 0.990258
1.00398 1.00088 0.986375
0.998564 0.996018 0.984016
0.998218 1.00439 0.993144
1.00311 0.995558 0.991119
1.00326 1.00239 0.986071
1.00304 1.00114 0.986977
1.00351 0.997538 0.990635
0.999959 0.994877 0.942842
0.995133 0.994774 0.964242
0.995738 0.999109 0.987918
0.999032 0.994797 0.856856
0.994708 0.994851 0.818103
0.997474 1.00278 0.996096
0.997506 1.00188 0.997385
0.997428 1.00306 0.996992
1.00009 1.00374 0.990953
1.00021 1.00439 0.990014
0.999865 1.0049 0.990275
0.999639 1.0031 0.992592
0.999164 0.998926 0.997025
0.999997 1.00494 0.990084
1.00019 1.00399 0.990464
1.00063 1.00435 0.989576
0.998399 1.00048 0.996853
0.999948 1.00432 0.990667
1.00047 1.00443 0.990737
0.998579 1.00426 0.992756
0.99996 1.00471 0.990418
1.00056 1.00465 0.98904
1.00016 1.0041 0.990335
1.00026 1.00499 0.98942
1.00038 1.00406 0.990739
0.999676 1.00491 0.990615
1.00018 1.00478 0.989892
1.00025 1.00404 0.990484
1.00013 1.00425 0.990178
0.999899 1.00244 0.992571
0.999909 1.00241 0.992589
0.999702 0.99933 0.995978
0.999873 1.00245 0.992603
0.999713 0.999322 0.995941
0.999941 0.997357 0.999126
0.999814 0.999301 0.995838
0.999959 0.997363 0.998482
1.00007 0.997185 0.997828
0.999914 1.00047 0.994476
1.00002 1.0007 0.994139
1.00009 0.99823 0.996497
1.00018 1.00056 0.994005
1.00007 0.998362 0.996595
0.999915 0.99697 0.999201
1.00004 0.998766 0.99601
0.999859 0.997407 0.999112
0.999811 0.997735 0.999032
1.00533 0.994902 0.990919
1.00528 0.994911 0.99119
1.00546 0.994905 0.990641
1.00059 0.994836 0.98155
1.00543 0.994875 0.990973
1.0047 0.994961 0.991751
1.00531 0.99561 0.991174
0.996112 0.994889 0.964045
1.00168 0.995104 0.983272
1.00018 1.00158 0.993063
1.00009 1.00204 0.99274
0.999424 1.00383 0.991837
0.999853 1.00248 0.99253
1.00537 0.994858 0.99085
1.00534 0.994855 0.990434
1.00522 0.994858 0.990386
1.00412 1.00359 0.985617
1.00465 0.997201 0.987864
1.00517 0.994904 0.990274
1.00217 1.00319 0.987533
1.00471 1.00484 0.983576
1.00329 1.00202 0.986577
0.99985 1.00233 0.992905
1.00113 1.00508 0.987825
1.00034 1.00394 0.990283
0.999968 1.00259 0.992367
1.0005 1.00106 0.993088
1.00537 0.994775 0.990988
0.999835 1.00347 0.991615
1.00156 1.00054 0.991916
0.998148 1.0011 0.995758
1.00526 0.994829 0.990634
1.00519 0.994982 0.989999
1.00312 1.00044 0.989357
1.00471 0.995832 0.990682
1.00101 1.00445 0.989334
1.00087 1.00463 0.988194
1.00147 1.00139 0.991434
1.00251 1.0034 0.987589
1.00425 0.995319 0.991453
1.00515 0.995006 0.990989
1.00508 0.995823 0.989693
1.00352 0.99619 0.993393
0.997765 1.00463 0.993582
1.00125 1.00156 0.991078
0.998042 1.00461 0.993339
0.99918 1.00446 0.991689
0.999992 0.994888 0.929045
0.999987 1.00456 0.991598
1.0027 1.00264 0.987898
1.00427 0.994848 0.991215
1.00502 0.995402 0.990544
1.00416 1.00081 0.986431
1.00469 1.00158 0.984709
0.998442 0.996796 0.981947
0.998783 1.00419 0.993125
1.003 0.995874 0.991006
1.00323 1.00279 0.986056
1.00362 1.00101 0.987096
1.00381 0.997667 0.990402
0.999947 0.994863 0.929599
0.995518 0.994803 0.960831
0.995705 0.999577 0.988168
0.997973 0.994769 0.861669
0.99472 0.994849 0.809538
0.999112 1.00421 0.991863
0.999768 0.994819 0.867833
0.994728 0.994817 0.809869
1.00048 0.999298 0.992599
1.00156 1.00196 0.989516
1.0015 0.999631 0.992519
0.994908 0.998075 0.990842
0.997562 0.994815 0.941926
0.994892 0.994779 0.956793
0.99622 0.994827 0.880428
0.994732 0.994821 0.799595
0.997119 1.00211 0.997566
0.997238 1.0025 0.996879
0.997311 1.00462 0.995824
1.00026 1.00393 0.99054
1.00058 1.00434 0.989588
0.99951 1.00504 0.990146
0.999633 1.00458 0.991056
0.998934 0.999738 0.996311
1.00022 1.00402 0.990338
1.0002 1.00448 0.99057
0.999838 1.00487 0.99021
1.00073 1.00465 0.989183
0.998512 1.00406 0.993057
0.999353 1.00425 0.992313
0.99725 1.00503 0.993907
1.00001 1.00506 0.989596
1.0005 1.0047 0.989474
1.00041 1.00498 0.989393
1.00015 1.00359 0.991067
1.00018 1.00497 0.989952
0.999993 1.00337 0.99167
0.999106 1.00241 0.99262
0.998976 1.00499 0.991233
0.999422 1.00478 0.990777
0.999795 1.00472 0.99064
1.0001 1.00411 0.990553
1.00005 1.00478 0.989894
1.00026 1.00403 0.990413
0.99999 1.00245 0.992431
1.00019 1.00425 0.990182
0.999924 1.00238 0.992582
0.999899 0.999301 0.996406
0.999876 1.00243 0.992593
0.999752 0.999299 0.996233
0.999893 0.997327 0.997972
0.9997 0.999333 0.995936
0.999934 0.997372 0.999135
0.999947 0.997393 0.997868
1.00028 1.00155 0.992862
0.999922 1.00034 0.994619
0.999916 1.00051 0.994469
1.00005 0.998155 0.996608
0.999997 1.00076 0.994144
1.00009 0.998195 0.996493
0.999963 0.996848 0.999234
1.00006 0.998358 0.996841
0.999916 0.997145 0.998621
0.999881 0.997472 0.997928
1.00011 0.99482 0.981689
1.00544 0.994874 0.99097
1.0046 0.995245 0.991586
0.996344 0.994838 0.964571
1.00183 0.99506 0.983656
1.00528 0.995521 0.991157
1.00345 0.996199 0.986339
0.997406 0.994842 0.967094
0.999959 0.994863 0.941367
0.997417 0.994811 0.882019
0.994662 0.99481 0.816679
0.999674 1.00257 0.992568
1.00019 1.00154 0.993049
1.0002 1.00194 0.992699
0.999752 1.00325 0.99202
0.998954 1.00431 0.99254
1.00053 1.00216 0.991834
1.00023 1.00302 0.991774
1.00013 1.00224 0.992405
1.00538 0.994791 0.990981
1.00527 0.994846 0.990563
1.00518 0.995056 0.990008
1.00306 1.00082 0.989376
1.00456 0.995487 0.990901
1.0012 1.002 0.99136
1.00386 1.00362 0.986996
1.00194 1.00488 0.987299
1.00145 1.00026 0.992209
1.00117 1.00458 0.988589
1.00038 1.00316 0.991387
0.99681 1.00192 0.998405
1.00426 0.994876 0.991738
0.998174 1.00435 0.993472
1.00095 1.00187 0.991935
1.00486 0.994906 0.990959
1.00469 0.995839 0.990078
1.00278 0.996368 0.993081
0.999499 1.00505 0.99149
1.00026 1.00311 0.991932
1.00338 0.994967 0.990898
1.00378 0.998607 0.990575
1.00449 0.995482 0.991438
1.00085 0.99755 0.994443
0.999268 1.00482 0.991168
0.998613 1.00471 0.992386
0.99939 1.005 0.992046
0.999788 0.99492 0.870186
1.0002 0.994864 0.943443
0.999828 1.00366 0.993115
1.0034 1.00306 0.986054
1.0029 0.99652 0.990889
1.00409 0.997819 0.990183
1.00412 1.00096 0.987243
0.999987 0.994847 0.941098
0.995814 0.994798 0.96035
0.995702 0.999607 0.988455
0.997464 0.994827 0.880028
0.99474 0.994833 0.800467
0.999407 1.00422 0.99183
0.999813 0.994853 0.866722
0.994696 0.9948 0.803105
1.00054 0.999251 0.992535
1.00158 1.00216 0.989532
1.00139 0.99978 0.992941
0.994904 0.999124 0.991627
0.998281 0.994895 0.935449
0.99494 0.994794 0.957849
0.995649 0.994899 0.880219
0.994749 0.994815 0.797876
0.99828 1.00426 0.994558
0.994723 0.994798 0.799818
0.994744 0.994775 0.807521
0.996953 1.00186 0.996877
0.999885 1.0017 0.995022
0.994905 0.999309 0.988628
0.99506 0.994873 0.959709
0.995219 0.994778 0.930653
0.994754 0.994887 0.884792
0.994832 0.994847 0.805649
0.997324 1.00191 0.996774
0.997829 1.00398 0.995524
0.996603 1.00391 0.996221
1.00026 1.00395 0.99034
1.00082 1.00452 0.989326
0.999906 1.00501 0.99
0.999852 1.00457 0.990405
0.998098 1.0039 0.993361
1.00049 1.00474 0.989455
0.999426 1.00399 0.991904
1.00026 1.00499 0.989618
0.996858 1.00493 0.994237
0.995979 1.00517 0.996579
0.99864 1.00484 0.992345
1.00058 1.00505 0.989485
1.00055 1.00474 0.989368
0.999997 1.0032 0.991388
1.00007 1.0049 0.989895
1.00011 1.00322 0.99157
0.998855 1.00295 0.993218
0.998885 1.00453 0.9917
0.998471 1.0051 0.991884
0.998526 1.00277 0.994231
1.00027 1.00192 0.99267
1.00296 0.999249 0.990838
0.99904 1.0049 0.991058
0.999222 1.00488 0.991275
0.999506 1.00502 0.990068
0.999507 1.00495 0.990787
1.00009 1.0042 0.990439
0.999711 1.00479 0.990663
1.00013 1.00411 0.990596
1.00002 1.00255 0.992181
1.00027 1.00408 0.990341
0.999972 1.00245 0.992444
1.00003 0.999281 0.996186
0.999925 1.00236 0.992594
0.999879 0.999274 0.996052
1.00001 0.997257 0.997814
0.999746 0.999285 0.995943
0.999951 0.997314 0.999146
0.99993 0.997367 0.999145
1.00036 1.00195 0.992694
0.999959 1.00049 0.994446
1.00017 1.00174 0.992874
1.00005 0.99811 0.996652
0.99991 1.00036 0.994616
0.999907 1.00057 0.994462
1.00006 0.998155 0.996597
0.999992 0.99676 0.99925
1.00007 0.998213 0.996997
0.999972 0.996852 0.998699
0.999933 0.997155 0.998099
0.999762 0.994828 0.854346
0.994699 0.994781 0.799482
0.99641 0.994843 0.965007
1.00148 0.994897 0.984152
1.00527 0.99478 0.991155
0.997112 0.994988 0.966412
1.0035 0.995167 0.986873
1.00053 0.994871 0.937556
0.997976 0.994773 0.862298
0.994706 0.994834 0.808416
0.997815 0.994764 0.973046
0.998055 0.994852 0.942192
0.996518 0.994846 0.880388
0.994763 0.994832 0.806905
0.99997 1.00349 0.991753
0.999813 1.00236 0.992682
1.00012 1.00167 0.993038
0.999882 1.00297 0.992203
0.998765 1.00416 0.992943
1.00031 1.00355 0.990751
1.00021 1.00295 0.991723
1.0006 1.00344 0.990356
1.00018 1.00301 0.991654
0.999959 1.00261 0.992274
1.00407 0.994765 0.992009
1.00473 0.994844 0.990928
1.00425 0.995844 0.990465
1.00227 0.99684 0.992765
1.00071 1.00261 0.992168
0.999516 1.00512 0.989676
1.00033 1.00202 0.992896
0.998372 1.00415 0.99334
1.00241 0.995049 0.991371
0.999345 1.00493 0.990939
0.998307 1.00495 0.992296
1.00346 0.997722 0.990719
1.00417 0.995546 0.991705
1.00103 0.997896 0.99468
0.999166 1.00499 0.991661
1.00019 0.995332 0.989847
1.00116 0.998836 0.993878
0.998331 1.00183 0.995518
0.99874 1.00446 0.99062
0.998307 1.00499 0.991509
0.998736 1.00499 0.992186
0.99472 0.994834 0.823075
0.999786 0.994881 0.875638
1.00001 0.994879 0.929455
0.999299 1.00416 0.991774
1.00184 1.0024 0.989515
1.0006 0.999028 0.992463
1.00115 0.999814 0.993367
0.999819 0.994884 0.879832
0.997813 0.994826 0.929826
0.994852 0.994811 0.95686
0.994907 1.00043 0.992301
0.996518 0.99483 0.864883
0.994666 0.994792 0.808989
0.99478 0.994827 0.81276
0.998161 1.00364 0.994264
0.99471 0.994807 0.809815
0.994766 0.99478 0.806915
0.997116 1.00031 0.997491
0.999399 1.00155 0.994912
0.994888 0.998132 0.990914
0.995359 0.994826 0.958569
0.996263 0.995523 0.942043
0.99472 0.997181 0.86699
0.995022 0.994844 0.815934
0.996914 1.00355 0.997337
0.994776 0.994825 0.815758
0.994812 0.994802 0.804384
0.994959 1.00229 0.999989
0.995184 0.996873 0.967596
0.99482 0.996762 0.940599
0.995018 0.995171 0.859811
0.995496 0.99488 0.825533
0.998291 1.00284 0.995185
0.996963 1.0042 0.996359
0.995594 1.00416 0.998236
1.00036 1.00479 0.989436
1.0004 1.00506 0.989643
0.999551 1.00367 0.991494
0.996683 1.00476 0.99457
1.00017 1.00506 0.9895
0.998571 1.00489 0.992303
0.995702 1.00514 0.996879
0.995009 1.00497 0.998307
0.995882 1.00516 0.996774
0.999278 1.0051 0.991563
1.00011 1.00503 0.989834
1.00017 1.00283 0.991471
0.998474 1.00329 0.993798
0.998527 1.00509 0.991986
0.999206 1.00444 0.991682
0.998323 1.00313 0.994329
0.998509 1.00455 0.992708
0.995915 1.00513 0.996623
1.00195 0.997761 0.994169
0.99981 1.00161 0.993419
1.00145 1.00069 0.991467
1.00487 1.00011 0.987212
1.00207 1.00141 0.990742
1.00183 0.998896 0.992737
0.999594 1.00464 0.990804
0.999748 1.00513 0.989496
0.99954 1.00468 0.991316
0.999874 1.00507 0.990069
1.0002 1.00457 0.989829
0.999918 1.00481 0.990795
1.00033 1.00399 0.990426
1.00011 1.00275 0.991916
1.00031 1.00383 0.990639
1.00011 1.00254 0.992188
1.00016 0.999342 0.995937
1.00002 1.00239 0.992458
1.00002 0.999292 0.995797
1.0001 0.997311 0.99765
0.999887 0.999245 0.995756
0.999999 0.997264 0.998478
0.999963 0.997284 0.999126
1.00028 1.00257 0.991814
1.00011 1.00061 0.994139
1.00025 1.002 0.992511
1.00005 0.998158 0.996597
0.999976 1.00044 0.994454
1.00016 1.00172 0.992886
1.00002 0.996715 0.999259
1.00004 0.998112 0.996652
0.999911 1.00039 0.994614
1.00007 0.998144 0.996586
0.999992 0.996799 0.999246
0.999958 0.99685 0.99923
0.994691 0.99477 0.802268
0.99975 0.994844 0.866764
0.994753 0.994769 0.804721
0.994716 0.994776 0.798986
0.997284 0.994875 0.964646
1.00339 0.994791 0.98741
0.999817 0.994841 0.933041
0.999002 0.99482 0.881804
0.994752 0.994833 0.799939
0.998415 0.994824 0.97206
0.998525 0.99551 0.928069
0.9958 0.99553 0.879018
0.994726 0.994824 0.799476
0.995086 0.994822 0.964565
0.996167 0.995495 0.929146
0.994858 0.997398 0.85927
0.994828 0.994871 0.805329
1.00071 1.00454 0.990451
0.999621 1.00344 0.99187
1.00001 1.00206 0.992791
0.998425 1.00379 0.993352
1.00095 1.00359 0.98958
1.00022 1.00347 0.990952
0.999748 1.00341 0.991616
1.00111 1.00286 0.990425
1.00068 1.00357 0.990437
1.00025 1.00279 0.991535
1.00201 0.994784 0.991832
1.00319 0.997095 0.990868
1.00369 0.995643 0.991975
1.00072 0.99724 0.994934
1.00031 1.00496 0.991257
0.998683 1.00511 0.992217
0.999406 1.00502 0.990707
0.999992 1.00461 0.990326
0.999866 0.995802 0.990385
0.99925 1.00499 0.991227
0.99947 1.00488 0.992017
1.00102 0.998601 0.994452
0.999375 1.00061 0.99533
0.996422 1.00025 0.989349
0.996774 0.999492 1.00019
0.996275 1.00397 0.996247
0.99899 1.00431 0.992207
0.997564 1.0051 0.993758
0.994804 0.994812 0.822004
0.994713 0.994812 0.818874
0.999801 0.994896 0.857991
0.99821 1.00336 0.994031
0.999119 1.00117 0.994799
0.99732 0.999754 0.998104
0.994683 0.994791 0.808143
0.996275 0.995292 0.930458
0.995452 0.994856 0.958014
0.99485 0.996272 0.993535
0.994774 0.99677 0.885939
0.994774 0.994784 0.807045
0.995213 0.994848 0.817293
0.997283 1.00346 0.997261
0.994786 0.994825 0.818561
0.9948 0.994803 0.805356
0.99521 1.00151 0.999072
0.995189 0.996024 0.969476
0.994806 0.995906 0.928861
0.99519 0.99487 0.821325
0.995078 0.99863 0.86837
0.994918 1.00466 1.00018
0.994793 0.99483 0.808873
0.994869 0.994832 0.814188
0.994821 0.994861 0.805598
0.994774 0.998739 0.989902
0.994867 0.998045 0.943821
0.997638 0.996283 0.877259
0.997408 1.00478 0.996523
0.995734 1.00471 0.997999
0.995105 1.00496 0.999175
1.00008 1.00506 0.989517
0.998593 1.00498 0.992258
0.995489 1.0052 0.997172
0.998888 1.0051 0.991561
0.995978 1.00517 0.996778
0.99513 1.00498 0.998246
0.994941 1.00519 0.998477
0.995603 1.0051 0.997065
0.998388 1.00508 0.992108
0.999448 1.0045 0.991664
0.998315 1.00372 0.994447
0.996166 1.00496 0.996499
0.998443 1.00468 0.992652
0.998819 1.00179 0.995133
0.999212 0.997905 0.998034
1.00229 0.999822 0.989828
0.999396 1.00128 0.994108
1.00198 1.0006 0.991059
1.00452 1.00158 0.985972
1.00489 1.00251 0.984253
1.00393 0.99893 0.989869
1.00393 1.00011 0.987589
1.00101 1.00495 0.988621
1.00127 1.00185 0.991154
1.00057 0.99857 0.994609
1.00016 1.00445 0.990551
0.999994 1.00512 0.989505
1.0003 1.00507 0.98907
1.00026 1.00507 0.990074
1.00036 1.0045 0.989832
1.00015 1.00315 0.991357
1.00046 1.00388 0.990411
1.00017 1.00265 0.991908
1.00019 0.999454 0.995771
1.00011 1.00253 0.992195
1.00013 0.999374 0.99554
1.0002 0.997352 0.99747
1.00003 0.999312 0.99547
1.00009 0.997291 0.998361
1.00004 0.997249 0.999063
1.00062 1.00272 0.990973
1.00014 1.00097 0.99342
1.00043 1.00243 0.991808
1.00012 0.998208 0.996437
1.00008 1.00063 0.993982
1.00018 1.00205 0.992331
1.00005 0.996727 0.999244
1.00006 0.998127 0.996608
0.99999 1.00037 0.994462
1.00002 0.996739 0.999257
1.00003 0.99813 0.996653
0.999992 0.996779 0.999243
0.99482 0.994819 0.812212
0.9947 0.994806 0.815558
0.999745 0.994814 0.865638
1.00115 1.00263 0.990467
0.994817 0.994801 0.810927
0.994754 0.994771 0.80468
0.994747 0.994782 0.812243
0.998968 0.994857 0.971288
0.997562 0.994828 0.941455
0.996198 0.994851 0.862419
0.994693 0.994825 0.808874
0.996247 0.994825 0.962255
0.996329 0.996535 0.940576
0.994761 0.996131 0.862745
0.99484 0.994863 0.809086
0.994813 0.99478 0.956485
0.994808 0.99506 0.938449
0.995507 0.999808 0.871924
0.995171 0.994889 0.825749
0.999456 1.00464 0.99101
1.00009 1.00434 0.990431
0.999811 1.00338 0.991989
1.0008 1.00276 0.990717
1.00073 1.00401 0.98981
1.00016 1.00382 0.991149
1.00112 1.00301 0.990374
1.00067 1.00361 0.990511
0.998669 0.997368 0.990768
1.00046 0.998197 0.994948
1.0002 1.00471 0.990026
1.00051 0.999721 0.99515
0.999684 1.00471 0.991853
0.999748 1.00505 0.990948
0.998852 1.00425 0.992177
0.996 0.999687 0.989938
0.998024 1.00489 0.993911
0.997169 1.00322 0.996517
0.996189 1.00033 1.0003
0.998499 1.00403 0.993537
0.994774 1.00158 0.987103
0.9954 1.00279 0.998679
0.995845 1.00484 0.997245
0.997178 1.00511 0.995265
0.994777 0.99481 0.814242
0.994808 0.994814 0.819391
0.994703 0.994797 0.814552
0.997503 1.00352 0.997161
0.995454 1.00054 0.998135
0.994802 0.994827 0.821172
0.994766 0.99622 0.94156
0.995579 0.996039 0.966685
0.995195 0.997591 0.866667
0.994802 0.994804 0.806104
0.994892 0.994864 0.817109
0.995295 1.00454 0.999866
0.994796 0.994827 0.808988
0.99487 0.994843 0.814782
0.994792 0.99935 0.993644
0.994835 0.99485 0.809236
0.994847 0.996445 0.936015
0.996199 0.997441 0.879464
0.994817 1.00326 0.998368
0.994839 0.994842 0.816321
0.994803 0.994806 0.812258
0.994759 0.994824 0.806933
0.995907 0.999798 0.8707
0.994861 1.00105 0.973945
0.995612 0.997524 0.928977
0.996058 1.00501 0.997774
0.995101 1.00513 0.999164
0.994887 1.00522 0.998384
0.998357 1.00513 0.991557
0.99569 1.0052 0.996787
0.99498 1.00518 0.998196
0.995634 1.00497 0.997005
0.994942 1.00516 0.998494
0.997625 1.00228 0.997913
0.996207 1.00487 0.996358
0.998339 1.0047 0.992618
0.998549 1.00202 0.99578
0.998659 1.00118 0.993589
0.996607 0.99816 1.0017
1.00195 0.999628 0.991132
1.0044 1.00455 0.982299
1.00446 1.00291 0.984125
1.00247 1.00048 0.990593
1.00432 1.00195 0.98541
1.0051 1.00226 0.984031
1.00506 1.00005 0.986514
1.00458 1.00224 0.984589
1.00221 1.00253 0.988768
1.00339 0.999635 0.989622
1.00312 1.00011 0.987994
1.00051 1.00512 0.988436
1.00052 1.00491 0.988854
1.00043 1.00219 0.991553
1.00018 1.00511 0.989514
1.00048 1.00504 0.989094
1.00023 1.00415 0.990299
1.00049 1.00459 0.989835
1.00021 1.00321 0.991342
1.00016 0.999682 0.994848
1.00029 1.00261 0.991902
1.00021 0.999466 0.995015
1.00011 0.997354 0.998904
1.00013 0.999444 0.995192
1.00015 0.997343 0.998225
1.0001 0.997282 0.998984
1.00053 1.0029 0.990906
1.00031 1.00141 0.992751
1.00056 1.00277 0.991132
1.00019 0.998362 0.996184
1.00023 1.00093 0.993342
1.00047 1.0024 0.991799
1.00008 0.99672 0.999207
1.00012 0.998182 0.996452
1.00009 1.00062 0.993826
1.00005 0.996713 0.99925
1.00007 0.998094 0.996619
1.00001 0.996778 0.999255
0.994797 0.994829 0.816472
0.994816 0.994817 0.812537
0.994692 0.994822 0.815333
1.00108 1.00263 0.990627
1.00057 1.00317 0.990416
1.00126 1.00173 0.991477
0.994877 0.994838 0.813236
0.994816 0.994796 0.811745
0.994756 0.994759 0.804745
0.996864 0.994804 0.962667
0.995465 0.99476 0.928667
0.994797 0.997593 0.884406
0.994834 0.994843 0.803432
0.994997 0.994961 0.958678
0.994886 0.997048 0.934443
0.995486 0.997435 0.868609
0.995149 0.994878 0.821244
0.995568 0.995059 0.955963
0.994837 0.997122 0.938929
0.996504 0.996131 0.878871
0.994839 0.994847 0.806803
0.999636 1.00262 0.992559
1.00014 1.00387 0.990816
1.00016 1.00396 0.990409
1.00096 1.00266 0.990657
1.00039 1.00429 0.990041
1.00108 1.00319 0.990324
0.996039 0.998403 0.990691
0.99608 1.00127 1.00055
0.999349 1.0035 0.992146
0.998395 1.00248 0.996694
0.998391 1.00445 0.994057
0.997864 1.00383 0.994131
0.996752 1.00473 0.99556
0.994774 1.0021 0.98696
0.995544 1.00515 0.997618
0.995383 1.00347 0.998031
0.996791 1.00503 0.995356
0.994963 1.00217 0.984944
0.995376 1.00524 0.995145
0.99497 1.00415 0.998816
0.994851 0.994837 0.81335
0.994781 0.99482 0.813422
0.99481 0.994812 0.816823
0.995704 1.00389 0.999517
0.99481 0.999564 0.989432
0.994793 0.994826 0.809115
0.994823 0.997573 0.935576
0.99678 0.996289 0.86424
0.994871 0.994843 0.815352
0.99483 0.994836 0.803861
0.994795 1.00312 0.99885
0.994828 0.994843 0.816389
0.99482 0.994804 0.81314
0.994871 0.999974 0.971415
0.994719 0.99482 0.799935
0.995741 0.999104 0.866414
0.994892 0.995637 0.942655
0.994868 1.00518 0.990119
0.994789 0.994837 0.816931
0.994773 0.994784 0.806101
0.994676 0.994818 0.818168
0.994803 0.997384 0.858284
0.99486 0.998318 0.937961
0.994871 1.00124 0.965757
0.995108 1.00511 0.999116
0.994909 1.00522 0.998312
0.996025 1.00422 0.997436
0.99587 1.00475 0.996951
0.994939 1.00511 0.998529
0.996263 1.0039 0.997883
0.999211 0.999299 0.998054
0.998209 1.00239 0.996413
1.00109 1.00091 0.992607
1.0022 1.00499 0.985823
1.00139 0.999456 0.992718
1.00428 1.00425 0.983237
1.00428 1.00463 0.982341
1.00501 1.00133 0.98439
1.00503 1.00178 0.984435
1.00446 1.00301 0.983963
1.0044 1.00223 0.984867
1.0051 1.00158 0.9847
1.00511 1.00214 0.984119
1.00426 1.00034 0.987504
1.00468 1.00014 0.986836
1.00422 1.00198 0.984926
1.00098 1.00492 0.987931
1.00212 1.00286 0.988699
1.00281 1.00044 0.989367
1.00049 1.00476 0.989286
1.00086 1.00511 0.988439
1.00023 1.00489 0.989087
1.00072 1.005 0.989118
1.00038 1.00396 0.990309
1.00008 1.00031 0.994305
1.00035 1.00308 0.991327
1.00018 0.999726 0.994822
1.00014 0.997497 0.998863
1.00022 0.99947 0.995016
1.00018 0.997383 0.99815
1.00015 0.997356 0.998916
1.00083 1.00321 0.990512
1.00043 1.00169 0.992468
1.00069 1.00272 0.990965
1.00027 0.998595 0.995815
1.0003 1.0014 0.992837
1.00056 1.00275 0.991295
1.00012 0.996786 0.99915
1.0002 0.998306 0.996203
1.00027 1.00089 0.993267
1.00008 0.996736 0.999219
1.00013 0.998157 0.996467
1.00005 0.996732 0.999257
0.994835 0.994839 0.815281
0.9948 0.994845 0.81661
0.994813 0.994826 0.812891
0.999944 1.0049 0.989732
1.00098 1.00419 0.990374
1.00089 1.00272 0.990795
1.0005 1.00356 0.990306
1.00066 1.00188 0.991714
1.00025 1.00292 0.991364
0.999867 1.00166 0.99314
0.994831 0.994808 0.805128
0.994882 0.994848 0.81393
0.994809 0.994824 0.812581
0.994896 0.994876 0.81679
0.995316 0.995148 0.956725
0.994828 0.998049 0.929126
0.995565 0.994953 0.88264
0.995145 0.995172 0.955247
0.994862 0.998269 0.926098
0.995666 0.99744 0.880047
0.994919 0.994845 0.816902
0.99583 0.996467 0.959569
0.994962 0.998489 0.927944
0.994902 0.995663 0.860515
0.994742 0.994821 0.800671
0.997429 1.00461 0.994576
0.999332 1.0032 0.992936
1.00023 1.00404 0.990624
1.00099 1.0029 0.990605
0.99482 1.00179 0.986927
0.995439 1.00394 0.997257
0.99742 1.00473 0.994724
0.996828 1.00463 0.995864
0.995357 1.00514 0.998086
0.996549 1.00503 0.995503
0.99535 1.00427 0.998849
0.995506 1.00171 0.981675
0.995194 1.00524 0.995346
0.99575 1.00408 0.997616
0.995013 1.00435 0.979494
0.995254 1.00302 0.9991
0.994775 0.99482 0.814958
0.994843 0.994837 0.816695
0.994788 0.994836 0.81258
0.994787 1.00315 0.999319
0.994864 1.00022 0.974701
0.994819 0.99484 0.816503
0.995028 0.997633 0.930066
0.996437 0.995792 0.880924
0.994828 0.994828 0.813924
0.994687 0.994825 0.809055
0.994879 1.00477 0.99103
0.994807 0.994837 0.817094
0.994758 0.994783 0.806118
0.994866 0.999828 0.96578
0.994715 0.994828 0.809967
0.994729 0.997081 0.861045
0.994875 0.998483 0.92585
0.994886 1.00464 0.984985
0.994834 0.994816 0.812384
0.994689 0.994786 0.801123
0.996209 0.994835 0.882009
0.994762 0.996552 0.937872
0.994792 0.999978 0.95916
0.994925 1.00528 0.998638
0.995466 1.0045 0.997517
0.996672 1.00048 0.998603
0.995207 1.00511 0.997844
0.997364 1.00099 0.998433
1.00193 1.00046 0.992518
1.00359 1.00048 0.991635
1.0031 1.00503 0.985081
1.0041 1.00308 0.983858
1.00391 1.00403 0.984175
1.00441 1.00458 0.982288
1.00449 1.00368 0.983224
1.00524 0.999425 0.985846
1.00512 1.00075 0.985237
1.00505 1.00151 0.984332
1.0051 1.00159 0.984564
1.00502 1.00163 0.984442
1.00438 1.00315 0.9838
1.00512 1.0013 0.985218
1.00506 1.00181 0.984571
1.00512 1.00204 0.984211
1.00284 1.00306 0.987405
1.00363 1.0008 0.987968
1.00434 1.00018 0.987162
1.00066 1.00501 0.988326
1.00137 1.00468 0.987992
1.00178 1.00326 0.988628
1.0002 1.0009 0.993527
1.00062 1.00459 0.989302
1.00112 1.00509 0.988441
1.00048 1.00387 0.990317
1.0001 1.00038 0.99427
1.00009 0.997751 0.998779
1.00019 0.99977 0.994797
1.00014 0.997492 0.998848
1.00016 0.997339 0.998882
1.00014 1.00509 0.989913
1.00072 1.00456 0.989562
1.00061 1.00216 0.991726
1.00064 1.00336 0.990489
1.00027 0.998957 0.995426
1.00043 1.00171 0.992462
1.00072 1.00269 0.991025
1.00014 0.996941 0.999059
1.00026 0.998587 0.995836
1.00031 1.0014 0.99292
1.00011 0.996777 0.999168
1.00021 0.998275 0.996224
1.00008 0.996721 0.999231
0.9948 0.994838 0.809407
0.994821 0.994834 0.815379
0.994809 0.994834 0.816743
1.0002 1.00495 0.989724
1.00018 1.0036 0.990576
1.00063 1.00302 0.989225
0.999182 1.00444 0.990567
1.00124 1.00335 0.990822
1.00066 1.00393 0.990194
1.00048 1.00203 0.99195
1.00028 1.00321 0.991393
1.00026 1.00155 0.993216
0.998893 1.00393 0.993356
0.994754 0.994775 0.807963
0.994813 0.994811 0.806172
0.994883 0.994839 0.814558
0.995127 0.994847 0.818175
0.995571 0.996136 0.865454
0.994869 0.995074 0.954212
0.99482 0.997138 0.938355
0.995375 0.996236 0.955719
0.994874 0.996035 0.939945
0.995033 0.998685 0.869187
0.994757 0.994822 0.799006
0.994907 0.998365 0.958811
0.994849 1.00009 0.939511
0.994791 0.99598 0.884889
0.994713 0.994865 0.81967
0.998542 1.00138 0.996253
0.997064 1.00441 0.995021
0.999326 1.003 0.99333
0.995536 1.00216 0.978132
0.995 1.00522 0.995455
0.996332 1.00493 0.995641
0.994926 1.00455 0.998876
0.99603 1.00401 0.997591
0.995163 1.00232 0.999479
0.994875 1.00243 0.979016
0.996078 1.00106 1.00012
0.995553 1.00023 0.985787
0.994811 0.99482 0.821129
0.994791 0.994831 0.814148
0.994832 0.994835 0.820099
0.994908 1.00436 0.991318
0.994848 0.999748 0.96341
0.994823 0.994844 0.817252
0.994836 0.998871 0.93777
0.994769 0.99755 0.881906
0.994745 0.994761 0.806328
0.994743 0.994839 0.801495
0.995339 1.00477 0.985704
0.994816 0.994821 0.812588
0.994713 0.994788 0.800683
0.99503 0.998953 0.960242
0.995616 0.995022 0.879954
0.994827 0.997271 0.9323
0.995204 1.00256 0.982732
0.994696 0.994777 0.803131
0.997602 0.994821 0.883153
0.995971 0.995493 0.929415
0.994849 0.996155 0.961187
0.995603 1.00505 0.997615
0.996186 1.00202 0.9985
0.998931 1.0019 0.995674
0.995756 1.00324 0.998813
1.00071 1.00057 0.993539
1.00404 0.998519 0.989851
1.00393 1.00503 0.984324
1.00391 1.00334 0.983749
1.00447 1.00013 0.986157
1.00465 1.0046 0.982237
1.00456 1.00318 0.983317
1.00501 0.999536 0.986253
1.00532 0.996862 0.98817
1.00524 0.998962 0.986219
1.00524 0.999353 0.985918
1.00517 1.00065 0.985413
1.00512 1.00079 0.985157
1.00507 1.00164 0.984273
1.0052 1.002 0.984323
1.00506 1.0015 0.984573
1.005 1.00151 0.984447
1.00452 1.00155 0.986062
1.00461 1.00169 0.985409
1.00502 1.00208 0.984443
1.00137 1.0047 0.987228
1.00261 1.00309 0.987393
1.00318 1.00113 0.988428
1.00017 1.00196 0.993604
1.00098 1.00496 0.988344
1.00172 1.00438 0.988054
1.00015 0.998349 0.996501
1.00019 1.00111 0.993903
1.00076 1.00447 0.989317
1.00013 1.00047 0.994234
1.00011 0.997848 0.99872
1.00014 0.997515 0.998829
1.0009 1.00464 0.988951
1.00096 1.0051 0.98882
0.999583 1.00511 0.98985
1.00052 1.00332 0.990761
1.00059 1.00449 0.989536
1.00023 0.99938 0.995069
1.00052 1.00229 0.991746
1.00065 1.00344 0.990462
1.00013 0.997214 0.998972
1.00028 0.998926 0.995444
1.00042 1.00174 0.992455
1.00013 0.996941 0.999088
1.00025 0.998557 0.995856
1.00011 0.996775 0.999186
0.994783 0.994822 0.822138
0.994806 0.994838 0.809552
0.994807 0.994851 0.815483
1.00246 1.00137 0.988527
0.999844 1.00502 0.989712
0.999901 1.00362 0.990804
1.00012 1.00507 0.990223
1.0016 1.00256 0.98935
1.00048 1.00328 0.991963
1.00329 1.00263 0.986951
0.997651 1.00498 0.99255
1.00008 1.00333 0.991416
1.00006 1.001 0.993291
0.998294 1.00381 0.993293
0.998331 1.00414 0.99382
0.994728 0.994812 0.810372
0.994771 0.994779 0.807403
0.994813 0.994812 0.807014
0.994797 0.994933 0.813611
0.994956 0.99817 0.867762
0.994863 0.998436 0.928115
0.99507 0.995212 0.955758
0.994932 0.998783 0.958452
0.994731 0.994925 0.810881
0.994874 0.996441 0.931327
0.994738 0.997372 0.867336
0.994883 0.996424 0.963794
0.994817 0.998155 0.940999
0.995681 0.994853 0.88205
0.999955 0.994864 1.00042
0.998452 1.00136 0.996159
0.996835 1.0043 0.995438
0.994903 1.00187 0.978823
0.995271 1.00139 0.999819
0.996549 1.00399 0.997581
0.9971 1.00036 1.00038
0.995166 0.99914 0.98593
0.996211 0.998502 0.992184
0.99471 0.994828 0.817773
0.994808 0.994813 0.822249
0.994802 0.994831 0.813236
0.994976 1.00447 0.985946
0.994853 0.999964 0.959818
0.994799 0.994828 0.812996
0.994829 0.998087 0.927156
0.995986 0.994843 0.863876
0.994755 0.994807 0.813563
0.994801 1.00485 0.982632
0.994704 0.994818 0.816158
0.997734 0.994765 0.863358
0.994861 0.995753 0.956966
0.996102 0.996272 0.940999
0.994887 1.00215 0.989432
0.999801 0.994849 0.854509
0.997844 0.994835 0.943021
0.994843 0.99482 0.955958
0.995433 1.00321 0.998427
0.998246 1.00148 0.995493
1.00106 1.00211 0.991971
0.999728 1.00047 0.994559
1.0033 0.99916 0.989635
1.00453 0.998874 0.988244
1.00383 1.0036 0.983638
1.00439 1.00031 0.986057
1.00506 0.996566 0.988597
1.00461 1.00261 0.983412
1.00493 0.99939 0.986227
1.00533 0.99582 0.989238
1.00528 0.995503 0.990017
1.00529 0.997036 0.988156
1.00533 0.996814 0.988281
1.00526 0.998857 0.986394
1.00524 0.998942 0.986404
1.00523 0.999307 0.985991
1.00526 1.00111 0.984674
1.00518 1.00056 0.985366
1.00512 1.00078 0.985076
1.00518 1.0016 0.984612
1.00508 1.00196 0.984365
1.00502 1.00139 0.984583
1.0028 1.00346 0.986518
1.00421 1.00191 0.98597
1.00402 1.00208 0.985602
1.00036 1.00264 0.991478
1.00187 1.00464 0.987246
1.00243 1.00332 0.987377
0.999858 0.999288 0.998325
1.00026 1.00191 0.992458
1.00124 1.00488 0.988363
1.00013 0.998287 0.998511
1.00021 1.00117 0.993384
1.00013 0.997906 0.998652
1.00331 1.00272 0.987698
1.001 1.00447 0.988813
1.00122 1.00505 0.988363
1.00065 1.00419 0.98973
1.00066 1.00513 0.988798
0.999795 1.00518 0.989792
1.00013 1.00011 0.994556
1.00049 1.0033 0.990774
1.00045 1.00437 0.989508
1.00011 0.997416 0.99889
1.00023 0.999348 0.995087
1.00043 1.00238 0.991764
1.00013 0.997158 0.998997
1.00028 0.998898 0.99546
1.00012 0.996894 0.999116
0.994724 0.994795 0.802199
0.994802 0.994824 0.82248
0.994812 0.994836 0.809728
1.00231 1.00224 0.988399
1.00485 1.00174 0.986469
1.00241 1.00313 0.987631
0.999918 1.00496 0.989875
1.00288 1.00221 0.989475
0.998995 1.00235 0.993065
0.998721 1.00456 0.992018
1.00215 1.00314 0.988012
1.0022 1.00184 0.98967
0.998927 0.99968 0.996359
0.99908 1.00385 0.993214
0.998584 1.00437 0.993699
0.998571 0.994802 0.856733
0.994699 0.994801 0.803906
0.994778 0.994782 0.807548
0.99475 0.994842 0.801565
0.994803 0.997244 0.886091
0.994858 0.997264 0.926955
0.994856 0.996961 0.957015
0.994864 0.996766 0.961523
0.995927 0.996198 0.880092
0.994839 0.996417 0.9287
0.994861 0.997376 0.964857
0.995748 0.994776 0.929516
0.999671 0.995367 1.00233
0.999625 0.995939 1.0004
0.998241 1.00124 0.996142
0.994862 0.998891 0.986238
0.997708 0.999617 1.00064
0.996635 0.998712 0.991788
0.996243 0.996611 0.990258
0.999792 0.994932 0.869078
0.994701 0.994816 0.815018
0.994814 0.994816 0.82318
0.994791 1.00498 0.982985
0.994854 0.994887 0.955182
0.994698 0.994829 0.815769
0.995371 0.994768 0.930006
0.998705 0.99482 0.883139
0.994896 1.00015 0.986102
0.999761 0.994854 0.867036
0.998061 0.995003 0.929277
0.994835 0.994792 0.957414
0.996545 0.998342 0.987305
0.99997 0.994886 0.942026
0.995136 0.994813 0.963111
0.997366 1.00082 0.995304
1.00014 1.00092 0.991992
1.00358 0.999614 0.990755
1.00245 1.00012 0.989439
1.00425 0.998778 0.988192
1.00518 0.996289 0.989161
1.00434 1.00054 0.985963
1.00492 0.997073 0.988545
1.00529 0.994927 0.990065
1.00488 0.99926 0.986199
1.00533 0.995844 0.989184
1.00527 0.994927 0.990509
1.00528 0.99508 0.990544
1.00528 0.995468 0.990143
1.00524 0.995835 0.989969
1.00529 0.997406 0.988135
1.00529 0.997084 0.988291
1.00534 0.996752 0.988394
1.00529 0.999704 0.985939
1.00526 0.998908 0.986344
1.00523 0.998898 0.98659
1.00531 1.00167 0.984189
1.00528 1.00112 0.984704
1.00518 1.0005 0.985317
1.00358 1.00275 0.985968
1.00513 1.00167 0.984615
1.00491 1.00194 0.984411
1.00084 1.00306 0.990339
1.00286 1.00349 0.986484
1.00402 1.00199 0.985883
1.0001 0.999526 0.998022
1.00053 1.00253 0.991454
1.00223 1.00453 0.987264
1.00004 0.999176 0.997151
1.00042 1.00177 0.992472
1.00014 0.998546 0.998386
1.0045 1.0008 0.987204
1.00253 1.00269 0.987772
1.00132 1.00466 0.987887
1.00094 1.00442 0.988667
1.00085 1.00509 0.988405
1.00096 1.00475 0.988848
1.00016 1.00091 0.993745
1.00057 1.00431 0.989709
1.00015 1.00513 0.988776
1.00008 0.997809 0.998734
1.00013 0.999993 0.994584
1.00049 1.00333 0.990789
1.0001 0.997436 0.998915
1.00021 0.999319 0.995114
1.00012 0.997139 0.999022
0.999723 0.994818 0.867169
0.994709 0.994803 0.808052
0.994812 0.994823 0.82286
1.00201 1.0025 0.988276
1.00261 1.00354 0.986789
1.00445 1.00228 0.986436
1.00493 1.00343 0.98354
1.0022 1.00297 0.988122
0.999486 1.00484 0.991536
1.00177 1.00354 0.989065
1.00151 1.00187 0.990349
1.00455 0.996694 0.98943
1.00213 0.998637 0.993405
1.00216 0.996408 0.994939
1.00021 0.998882 0.996064
0.999677 1.00279 0.993577
0.997638 0.994849 0.939579
0.998615 0.994771 0.861347
0.994673 0.994797 0.809578
0.996073 0.994848 0.865831
0.994822 0.997907 0.938603
0.994861 0.995831 0.962917
0.994858 0.996751 0.966529
0.996482 0.997129 0.941832
0.995736 0.994793 0.965543
0.998995 0.996796 1.00024
0.998901 0.99602 1.00239
0.999275 0.997186 1.00031
0.997129 0.998072 0.99151
0.997288 0.997092 0.990385
0.999983 0.994895 0.928893
0.999793 0.994886 0.874979
0.994688 0.994798 0.812383
0.994904 0.999315 0.982451
0.995109 0.994781 0.956292
0.999792 0.994812 0.866096
0.997675 0.994815 0.942327
0.996289 0.998144 0.987547
1.00016 0.994869 0.937751
0.995871 0.994829 0.960962
1.00041 0.99498 0.986913
0.997985 0.994798 0.971217
0.999255 0.999331 0.992049
1.00273 0.998083 0.990792
1.0051 0.995175 0.991256
1.00408 0.998472 0.98813
1.00512 0.996107 0.989073
1.00529 0.994837 0.990367
1.00469 0.997526 0.988493
1.00529 0.994989 0.990014
1.00527 0.994827 0.990504
1.00532 0.995857 0.989132
1.00526 0.994957 0.990481
1.00529 0.994849 0.99063
1.00528 0.995033 0.990601
1.00527 0.995245 0.99054
1.00528 0.995428 0.990269
1.00524 0.995817 0.989972
1.00522 0.996343 0.989452
1.00528 0.998465 0.987315
1.00529 0.997469 0.988119
1.00529 0.997132 0.988426
1.00535 1.00119 0.984547
1.0053 0.999796 0.985793
1.00527 0.998962 0.986295
1.00442 1.00204 0.985335
1.00526 1.00169 0.984247
1.0053 1.00114 0.984732
1.0013 1.00315 0.989311
1.00339 1.00303 0.985975
1.0049 1.00189 0.984617
1.00023 1.0003 0.997599
1.00095 1.00288 0.990328
1.00308 1.00358 0.986449
1.00017 0.999731 0.997868
1.00066 1.0024 0.99143
1.00017 0.999127 0.998107
1.00518 1.00273 0.984103
1.00411 1.00077 0.987137
1.00281 1.00282 0.987076
1.002 1.00266 0.98786
1.00139 1.00459 0.98773
1.00123 1.00506 0.988003
1.00061 1.00513 0.988444
1.00069 1.00489 0.988815
1.00023 1.00171 0.992781
1.00006 0.998357 0.998476
1.00011 1.00085 0.993769
1.0004 1.00439 0.989689
1.00006 0.997721 0.998792
1.00015 0.999889 0.994596
1.00009 0.997388 0.998939
0.999966 0.994886 0.942635
0.999814 0.994852 0.866363
0.994686 0.994791 0.802094
1.00227 1.00469 0.985942
1.00373 1.00265 0.986405
1.00331 1.0029 0.987451
1.0045 1.00324 0.983921
1.00518 1.00071 0.984993
1.00366 1.00012 0.987101
1.00066 1.00234 0.990991
1.00455 0.995924 0.98989
1.00212 0.998343 0.993442
1.00433 0.995323 0.990557
1.00366 0.997293 0.992508
1.00228 0.997181 0.993634
1.00176 0.996649 0.994782
0.999665 0.999637 0.99578
0.99567 0.994804 0.96384
0.998565 0.995843 0.934974
0.997487 0.994829 0.878855
0.995708 0.995906 0.929245
0.994902 0.996777 0.966931
0.995529 0.995718 0.971276
0.999272 0.994808 0.992042
0.999833 0.996103 0.999637
0.998187 0.996513 1.00246
0.998692 0.998936 0.990556
0.99737 0.995043 0.965555
1.00004 0.994873 0.94316
0.999806 0.994907 0.85723
0.995915 0.998194 0.987904
0.996308 0.994831 0.96129
0.999784 0.994836 0.933026
0.999761 0.995864 0.987315
0.998342 0.994835 0.970302
1.00293 0.995498 0.989319
1.00352 0.996101 0.984726
1.00172 0.997001 0.990816
1.00458 0.995155 0.991277
1.00526 0.994851 0.990732
1.00506 0.996047 0.988986
1.00529 0.994833 0.990315
1.00531 0.994908 0.990468
1.00529 0.995069 0.989961
1.00527 0.994839 0.990485
1.00532 0.994898 0.990499
1.00525 0.994993 0.990451
1.00528 0.994864 0.990637
1.0053 0.994901 0.990633
1.00527 0.994991 0.990657
1.00527 0.995201 0.990551
1.00524 0.99566 0.990281
1.00524 0.995806 0.989974
1.00522 0.99636 0.989451
1.00526 0.997653 0.988266
1.00531 1.00022 0.985611
1.00529 0.99865 0.987065
1.00528 0.997535 0.988103
1.00521 1.00108 0.984976
1.00534 1.00122 0.984596
1.00531 0.999893 0.985648
1.00199 1.00277 0.988509
1.0042 1.00233 0.985351
1.00523 1.00172 0.984304
1.00065 1.00081 0.997146
1.0014 1.00305 0.989301
1.00322 1.00331 0.985981
1.00045 1.00045 0.997418
1.00099 1.00275 0.990325
1.00033 0.999945 0.997687
1.00524 1.00147 0.984608
1.00518 1.00227 0.984234
1.00457 1.00203 0.985118
1.00403 1.00135 0.987069
1.00288 1.0029 0.986872
1.00229 1.00408 0.987058
1.00139 1.00454 0.987577
1.00107 1.00506 0.988016
1.00047 1.00241 0.991781
1.00044 1.0051 0.988788
1.00012 1.00187 0.9928
1.00004 0.999189 0.998168
1.00003 0.998301 0.998573
1.00006 1.00088 0.9938
1.00005 0.997695 0.998842
0.996644 0.994884 0.965998
0.99991 0.994878 0.928392
0.999818 0.994881 0.879231
1.00527 0.998566 0.986797
1.00452 1.00282 0.9868
1.00411 1.00302 0.984301
1.00431 0.999893 0.987571
1.00518 1.00092 0.984951
1.00499 0.997242 0.988508
1.00492 0.996689 0.990359
1.00191 0.99749 0.993497
1.00476 0.995989 0.99058
1.00338 0.997645 0.99151
1.0046 0.996624 0.989716
1.00328 0.994894 0.994295
1.00227 0.996766 0.993742
1.0017 0.996845 0.994614
0.998659 0.994785 0.990637
0.995759 0.994812 0.962286
0.998344 0.994815 0.929437
0.995224 0.996227 0.970882
0.99888 0.994829 0.994773
1.00007 0.995409 0.998981
1.00233 0.994864 0.981406
0.997401 0.994876 0.9653
0.999994 0.994879 0.929026
0.998793 0.996108 0.987715
0.998624 0.994852 0.969655
1.00206 0.995079 0.989845
1.00325 0.995506 0.985562
1.00388 0.99543 0.990691
1.00521 0.996251 0.990792
1.00409 0.995048 0.99129
1.00523 0.994869 0.990651
1.00538 0.994916 0.990323
1.00528 0.994831 0.990266
1.00529 0.994894 0.990477
1.00536 0.9949 0.990424
1.00528 0.994852 0.990467
1.00531 0.99489 0.990514
1.00531 0.994907 0.990633
1.00528 0.994878 0.990644
1.0053 0.9949 0.990624
1.00527 0.995016 0.990746
1.00526 0.995158 0.990562
1.00524 0.995527 0.990362
1.00526 0.996695 0.989311
1.00523 0.996373 0.989451
1.00526 0.997552 0.988364
1.00529 0.999769 0.986238
1.00529 1.00088 0.985073
1.00532 1.00039 0.985436
1.0053 0.99883 0.986814
1.00286 1.00146 0.988448
1.00509 1.00122 0.984973
1.00532 1.00123 0.984647
1.00103 1.001 0.996775
1.00224 1.00247 0.988486
1.00401 1.00254 0.985374
1.00079 1.00086 0.997002
1.00156 1.00296 0.989298
1.00059 1.00056 0.997263
1.00524 1.00007 0.985608
1.00524 1.00148 0.984523
1.00515 1.00141 0.984761
1.00518 1.00177 0.984365
1.0048 1.00182 0.985034
1.00318 1.00333 0.986479
1.00309 1.00259 0.986668
1.00223 1.00419 0.987073
1.00074 1.00281 0.990765
1.00095 1.00511 0.988015
1.00028 1.00254 0.991807
1.00005 0.999897 0.997831
0.999972 1.00195 0.99282
0.999989 0.998998 0.998283
1.00001 0.998138 0.99866
1.0002 0.995209 0.986409
0.996538 0.99489 0.962169
0.99998 0.994863 0.942414
1.00524 0.996809 0.988657
1.00523 0.996531 0.98899
1.00526 0.998283 0.987069
1.00492 0.999241 0.988035
1.00517 1.00119 0.984916
1.00511 0.997186 0.988743
1.00525 0.995418 0.989552
1.00501 0.995759 0.990604
1.00312 0.998246 0.99052
1.0044 0.997041 0.990152
1.00514 0.994954 0.990813
1.00372 0.994794 0.993045
1.00293 0.994928 0.993982
1.00254 0.996342 0.993865
0.999348 0.994777 0.990687
0.995853 0.99482 0.960972
0.99888 0.994926 0.99764
1.005 0.994939 0.990403
1.00225 0.995139 0.981538
0.997591 0.994871 0.963978
1.00174 0.994795 0.990318
1.00299 0.994814 0.986413
1.00393 0.995187 0.991362
1.00521 0.995479 0.990887
1.00542 0.994811 0.990869
1.00551 0.994835 0.991106
1.00525 0.994884 0.990569
1.0054 0.994913 0.990303
1.00537 0.994896 0.99053
1.00528 0.994879 0.990486
1.00536 0.994899 0.990451
1.00532 0.994911 0.990635
1.0053 0.994883 0.990529
1.00532 0.994907 0.99063
1.00527 0.994908 0.990892
1.0053 0.9949 0.990616
1.00527 0.995005 0.990721
1.00526 0.995918 0.990019
1.00524 0.99539 0.990443
1.00526 0.996638 0.989333
1.00531 0.999155 0.98683
1.00525 0.997455 0.988462
1.00529 0.999663 0.986367
1.00528 1.00063 0.985347
1.00306 1.00065 0.988866
1.00526 1.0009 0.985086
1.00533 1.00057 0.98526
1.00139 1.0009 0.996545
1.00289 1.00142 0.988435
1.0049 1.00146 0.984969
1.00118 1.00104 0.996644
1.00242 1.00229 0.988454
1.00096 1.00097 0.996836
1.00524 0.998216 0.987447
1.00524 0.99992 0.985811
1.00527 1.00099 0.985014
1.00523 1.00144 0.984433
1.00521 1.00139 0.984726
1.00369 1.00253 0.986231
1.00505 1.00169 0.984954
1.00315 1.00298 0.986468
1.00111 1.00316 0.989717
1.002 1.00418 0.987094
1.00067 1.00295 0.990785
1.00021 1.00071 0.997461
1.00016 1.00269 0.991831
0.999992 0.999779 0.997962
0.999933 0.998875 0.99839
1.00429 0.995216 0.991851
1.00026 0.995083 0.984178
0.996506 0.994916 0.961857
1.00527 0.995646 0.989835
1.00523 0.996358 0.989001
1.00524 0.9955 0.990175
1.00523 0.996605 0.988954
1.00526 0.997965 0.987337
1.00535 0.994869 0.990204
1.00514 0.997344 0.988969
1.00526 0.995674 0.989561
1.00531 0.994799 0.990576
1.00428 0.997378 0.990584
1.00514 0.995043 0.990493
1.00334 0.994961 0.993313
1.00227 0.995417 0.993678
0.999724 0.994772 0.99051
1.00551 0.994859 0.990833
1.00504 0.995365 0.990383
1.00199 0.995405 0.981758
1.00386 0.994806 0.992024
1.00517 0.994797 0.990993
1.00539 0.994821 0.990903
1.00554 0.994844 0.991041
1.0054 0.994858 0.990999
1.00542 0.994911 0.990285
1.00536 0.994897 0.990545
1.00531 0.994903 0.99084
1.00536 0.994898 0.990477
1.00533 0.994911 0.990629
1.00526 0.994919 0.990962
1.00532 0.994907 0.990626
1.00527 0.994908 0.990873
1.00528 0.99533 0.990678
1.00528 0.994996 0.990696
1.00527 0.995949 0.99
1.00533 0.998471 0.987552
1.00526 0.99658 0.989355
1.0053 0.999159 0.986854
1.00527 1.00046 0.985562
1.00529 0.999556 0.986496
1.00529 1.00062 0.985364
1.00307 1.00033 0.990935
1.00173 1.0002 0.99319
1.0031 1.00067 0.989722
1.00524 1.00092 0.985095
1.00139 1.00087 0.996573
1.00299 1.00124 0.988419
1.00125 1.0011 0.996563
1.00522 0.995377 0.990525
1.00524 0.99689 0.988948
1.00523 0.998186 0.987651
1.00526 1.00031 0.985661
1.00524 0.999779 0.986015
1.00526 1.00105 0.984939
1.00446 1.00138 0.985779
1.00525 1.00137 0.98469
1.00387 1.00203 0.986206
1.00189 1.00287 0.988746
1.00333 1.00261 0.986455
1.00108 1.00324 0.989705
1.00054 1.00127 0.997005
1.00055 1.003 0.990811
1.00009 1.00046 0.997608
0.999922 0.999616 0.998083
1.00546 0.994804 0.990811
1.00425 0.995113 0.991503
1.00066 0.99489 0.982015
1.00528 0.994952 0.99055
1.00524 0.995687 0.989724
1.00522 0.995932 0.989347
1.00523 0.995664 0.990124
1.00523 0.996685 0.988918
1.00537 0.994829 0.990575
1.00535 0.99487 0.990189
1.00526 0.995859 0.989567
1.00527 0.994798 0.990621
1.00512 0.995092 0.990172
1.00316 0.994702 0.993575
1.00533 0.994895 0.991119
1.00552 0.994843 0.990894
1.00514 0.995604 0.990359
1.00536 0.994832 0.990916
1.00557 0.994865 0.990979
1.00541 0.994861 0.990949
1.0053 0.994915 0.991138
1.00536 0.9949 0.990559
1.00531 0.994905 0.990801
1.00526 0.994939 0.991061
1.00533 0.99491 0.990623
1.00526 0.994918 0.990959
1.0053 0.994996 0.991054
1.00528 0.994908 0.990854
1.00526 0.995345 0.99066
1.00535 0.99782 0.988227
1.00527 0.995981 0.989982
1.00532 0.998482 0.987573
1.00527 1.00027 0.985777
1.0053 0.999163 0.986877
1.00528 1.00044 0.985588
1.00314 1.00012 0.991031
1.00529 1.00061 0.985379
1.00329 1.00022 0.990799
1.00179 0.999865 0.993405
1.0014 1.00051 0.995011
1.0033 1.00065 0.990398
1.00137 1.00086 0.996607
1.00522 0.994911 0.991006
1.00523 0.996534 0.989356
1.00522 0.995304 0.990632
1.00528 0.999352 0.986589
1.00525 0.996937 0.98894
1.00523 0.998157 0.987854
1.00526 1.00031 0.985604
1.00509 1.00073 0.985475
1.00526 1.0011 0.984865
1.00467 1.00115 0.985776
1.00267 1.00179 0.988416
1.00402 1.00164 0.986186
1.0017 1.00305 0.988757
1.00091 1.00154 0.996623
1.00095 1.00337 0.989704
1.00037 1.0011 0.997191
0.999999 1.00032 0.99775
1.00533 0.994895 0.990826
1.00539 0.994808 0.990871
1.00403 0.995109 0.991157
1.00528 0.994859 0.990802
1.00527 0.995006 0.990487
1.00521 0.99571 0.989622
1.00522 0.995826 0.990071
1.00537 0.99483 0.990575
1.00534 0.994871 0.990175
1.00524 0.994801 0.990665
1.00528 0.994939 0.991186
1.00532 0.994896 0.991092
1.00552 0.994818 0.990951
1.00528 0.994935 0.991226
1.00542 0.994862 0.990899
1.0053 0.994916 0.991128
1.00526 0.994937 0.991175
1.00532 0.994907 0.990762
1.00526 0.994939 0.99107
1.00531 0.994927 0.991189
1.00526 0.994917 0.990957
1.00528 0.995001 0.991036
1.00536 0.997261 0.988838
1.00525 0.99536 0.99064
1.00536 0.997836 0.988237
1.00526 1.00007 0.986039
1.00531 0.998494 0.987593
1.00529 1.00025 0.985805
1.00317 1.00013 0.990976
1.00529 1.00041 0.985614
1.00333 1.00004 0.990864
1.00184 0.999782 0.993391
1.0035 1.00009 0.990672
1.00131 1.00006 0.993722
1.00073 1.00087 0.997188
1.00521 0.994886 0.991089
1.00523 0.995693 0.990271
1.00521 0.994965 0.990963
1.00529 0.998938 0.987066
1.00524 0.996237 0.989601
1.00523 0.99523 0.99074
1.00529 1.0003 0.985655
1.00528 0.999341 0.986553
1.00525 0.996982 0.988934
1.00526 1.00032 0.985546
1.00514 1.00065 0.985475
1.00293 1.00091 0.988826
1.0048 1.00092 0.985779
1.00251 1.00202 0.988455
1.00112 1.00138 0.996577
1.00161 1.00315 0.988757
1.00079 1.00141 0.996762
1.0002 1.00092 0.997361
1.00528 0.99494 0.991004
1.00534 0.994892 0.990775
1.00534 0.994808 0.990934
1.00529 0.99486 0.990804
1.00526 0.995073 0.990425
1.00537 0.994831 0.990575
1.00527 0.994953 0.991209
1.00527 0.994936 0.991206
1.00532 0.994899 0.991064
1.00528 0.994938 0.991221
1.00523 0.994945 0.991344
1.0053 0.994917 0.991119
1.00526 0.994939 0.9912
1.00531 0.994949 0.991208
1.00525 0.994938 0.991079
1.00531 0.994927 0.991175
1.00535 0.996819 0.989366
1.00527 0.995006 0.991018
1.00538 0.99726 0.988833
1.00518 0.999907 0.986375
1.00536 0.997853 0.988246
1.00527 1.00005 0.986057
1.0031 1.00021 0.990946
1.0053 1.00023 0.985833
1.00334 1.00008 0.990797
1.00186 0.999864 0.993274
1.00351 0.999971 0.990706
1.00143 0.999839 0.993735
1.00085 1.00028 0.994023
1.0052 0.994943 0.991117
1.00524 0.995043 0.990997
1.00519 0.994884 0.991055
1.00534 0.997883 0.988103
1.00524 0.995748 0.990214
1.00521 0.995015 0.99092
1.00529 1.00007 0.985929
1.00529 0.998544 0.987408
1.00524 0.99594 0.989846
1.00302 1.00029 0.989306
1.00528 1.00031 0.985635
1.00528 0.999329 0.986519
1.00525 1.00055 0.98547
1.0029 1.00095 0.988835
1.0012 1.00097 0.996711
1.00233 1.00227 0.988485
1.00109 1.00136 0.996567
1.00064 1.00131 0.996921
1.00527 0.994955 0.991155
1.00528 0.994941 0.990978
1.00534 0.99489 0.990724
1.00529 0.994861 0.990806
1.00522 0.994961 0.991355
1.00527 0.994949 0.991215
1.00527 0.994932 0.991225
1.00528 0.994942 0.991217
1.00524 0.994943 0.991337
1.00528 0.99509 0.991087
1.00526 0.994941 0.991226
1.00531 0.995046 0.991116
1.00534 0.996398 0.989891
1.00531 0.994928 0.991162
1.00536 0.996807 0.989355
1.00509 0.999688 0.986743
1.00541 0.997274 0.988827
1.0052 0.99986 0.986387
1.00304 1.00032 0.989339
1.00529 1.00003 0.986078
1.00327 1.00019 0.989949
1.00161 0.999946 0.996678
1.00351 1.00003 0.990618
1.00149 0.999846 0.993628
1.00103 0.999894 0.994064
1.0052 0.994963 0.991196
1.00526 0.994949 0.991081
1.0052 0.994944 0.991147
1.00539 0.997093 0.98891
1.00525 0.995232 0.990736
1.00518 0.994881 0.991021
1.00529 0.999538 0.986493
1.00533 0.997879 0.988119
1.00525 0.995801 0.990157
1.00315 0.999909 0.989494
1.00528 0.999887 0.98608
1.00529 0.998146 0.987748
1.00134 1.00051 0.99681
1.00307 1.00024 0.989301
1.00528 1.00033 0.98561
1.00291 1.00099 0.988855
1.00124 1.00099 0.996656
1.00104 1.00133 0.996602
1.0052 0.994965 0.991286
1.00527 0.994959 0.991153
1.00529 0.994942 0.990951
1.00526 0.995139 0.991141
1.00522 0.994959 0.99133
1.00527 0.994944 0.991221
1.00524 0.994941 0.991331
1.00529 0.995142 0.991085
1.00533 0.996695 0.98955
1.00531 0.995156 0.991023
1.00534 0.996709 0.989527
1.005 0.999075 0.987593
1.00538 0.996781 0.989345
1.00509 0.99968 0.986748
1.00297 1.00019 0.989613
1.00522 0.999817 0.986398
1.00308 1.00027 0.989349
1.00152 1.00002 0.996683
1.0033 1.00018 0.989101
1.00145 0.999965 0.995188
1.00112 0.999822 0.99398
1.00517 0.99496 0.991342
1.00526 0.994962 0.991235
1.0052 0.994965 0.991203
1.00539 0.997246 0.988776
1.00526 0.994947 0.991118
1.00519 0.994947 0.991176
1.00526 0.999363 0.98672
1.00538 0.997492 0.988507
1.00526 0.995427 0.990474
1.00321 0.999854 0.989476
1.00528 0.999498 0.986512
1.00532 0.997879 0.988135
1.00151 1.00011 0.99681
1.00318 0.999864 0.989491
1.00527 0.999705 0.98623
1.00135 1.00052 0.996777
1.0031 1.00017 0.989296
1.0012 1.00103 0.996601
1.00524 0.995196 0.991051
1.00521 0.994964 0.991307
1.00526 0.994963 0.99115
1.00532 0.996708 0.989557
1.00526 0.995184 0.991115
1.00522 0.994957 0.991304
1.00529 0.995193 0.991081
1.00532 0.99673 0.989558
1.00493 0.998892 0.987877
1.00534 0.997005 0.989164
1.00502 0.999268 0.987312
1.00288 1.00004 0.989902
1.00509 0.999667 0.986754
1.00294 1.00021 0.989623
1.0014 1.00004 0.996724
1.00309 1.00023 0.989357
1.00148 1.00003 0.996691
1.00155 0.999931 0.993396
1.00523 0.995266 0.991022
1.00517 0.994958 0.991276
1.00535 0.997024 0.989095
1.00526 0.994961 0.991245
1.00519 0.994967 0.991209
1.00521 0.99965 0.986545
1.00538 0.997262 0.988783
1.00526 0.994943 0.991155
1.00319 0.999959 0.989439
1.00526 0.999555 0.986526
1.00537 0.997895 0.988106
1.0016 0.999932 0.996748
1.00323 0.999845 0.989473
1.00527 0.999456 0.986534
1.00151 1.00014 0.996815
1.00322 0.99983 0.989486
1.0014 1.00054 0.996743
1.00532 0.996809 0.989425
1.00524 0.995235 0.991079
1.00521 0.994962 0.991329
1.00491 0.998838 0.987951
1.00532 0.996747 0.989558
1.00526 0.995232 0.991088
1.00532 0.996768 0.989565
1.00496 0.998864 0.987842
1.00276 0.999957 0.990192
1.00503 0.999463 0.98703
1.00286 1.00005 0.989912
1.00133 1.00002 0.99679
1.00294 1.00022 0.989635
1.00136 1.00006 0.996754
1.00145 1.00004 0.99671
1.00532 0.996902 0.989333
1.00523 0.995125 0.991147
1.00518 0.994957 0.991209
1.00509 0.999582 0.98685
1.00535 0.997038 0.989103
1.00525 0.99496 0.991254
1.0031 1.00003 0.989539
1.00518 0.999706 0.986542
1.00537 0.997275 0.988789
1.00158 0.999927 0.996697
1.00319 0.999976 0.989437
1.00525 0.999734 0.986335
1.0016 0.999959 0.996773
1.00324 0.999846 0.989469
1.00154 1.00015 0.996809
1.00494 0.999268 0.987427
1.00532 0.996646 0.989638
1.00524 0.995276 0.991106
1.0027 0.999869 0.99041
1.00492 0.998806 0.987946
1.00531 0.99678 0.98956
1.00499 0.998831 0.987808
1.00277 0.99993 0.990202
1.00125 1.00002 0.99684
1.00284 1.00006 0.989921
1.0013 1.00003 0.996802
1.00131 1.00008 0.996775
1.00501 0.999404 0.987195
1.00533 0.996742 0.989509
1.00523 0.994966 0.991272
1.00306 1.00005 0.99121
1.00507 0.999589 0.986855
1.00536 0.997057 0.98911
1.00147 0.999963 0.996712
1.00308 1.00008 0.989537
1.00514 0.999767 0.986536
1.00159 0.999934 0.996716
1.00318 0.999994 0.989433
1.00162 0.99997 0.996795
1.00281 0.999864 0.990303
1.00493 0.999071 0.987636
1.00532 0.996481 0.98985
1.00115 0.999979 0.996919
1.00269 0.999865 0.990405
1.00493 0.998777 0.987941
1.00277 0.999904 0.990209
1.00121 1.00001 0.996869
1.00126 1.00005 0.996823
1.00301 0.999952 0.991457
1.00499 0.999409 0.987198
1.00533 0.996598 0.989685
1.00084 1.00001 0.997324
1.00294 1.00006 0.989806
1.00505 0.99959 0.986861
1.0015 0.999974 0.99671
1.00305 1.00013 0.989533
1.00162 0.999937 0.996734
1.00113 0.999935 0.994062
1.00283 0.999871 0.990991
1.00493 0.998873 0.987843
1.00118 0.999982 0.996928
1.00269 0.999866 0.990408
1.00122 0.999994 0.996891
1.00065 0.999995 0.994506
1.00291 0.999932 0.990793
1.00496 0.99942 0.987202
1.00108 1 0.995541
1.00293 1.00006 0.98983
1.00153 0.999973 0.996712
1.00117 0.999965 0.996922
1.0027 0.999861 0.990398
1.00114 0.999983 0.996927
1.00094 0.999963 0.995717
1.0028 0.999924 0.990189
1.00139 0.999991 0.996752
1.00119 0.999967 0.996923
1.00125 0.999976 0.99685

TENSORS stress float
0.00231917 -0.000160414 0.000268694
-0.000160414 0.00113213 -4.67012e-05
0.000268694 -4.67012e-05 0.00110568
0.00721252 7.82973e-05 0.000314402
7.82973e-05 0.00423048 3.63644e-05
0.000314402 3.63644e-05 0.00423807
0.00193006 -9.04608e-05 0.000111808
-9.04608e-05 0.000884755 -1.81858e-05
0.000111808 -1.81858e-05 0.000845998
0.0022698 -9.05925e-05 0.000258775
-9.05925e-05 0.00107725 -2.66328e-05
0.000258775 -2.66328e-05 0.00106067
0.00233806 -0.000140759 0.000262216
-0.000140759 0.00113417 -4.11245e-05
0.000262216 -4.11245e-05 0.00111126
0.0023146 -0.000165121 0.00028034
-0.000165121 0.0011299 -4.84819e-05
0.00028034 -4.84819e-05 0.00110359
0.00189949 -0.000154623 5.32745e-05
-0.000154623 0.000765337 -1.49064e-05
5.32745e-05 -1.49064e-05 0.000646399
0.00715081 7.03146e-05 -7.93732e-06
7.03146e-05 0.00418323 -1.84714e-06
-7.93732e-06 -1.84714e-06 0.0041955
0.0066761 0.000226584 0.000155293
0.000226584 0.00388922 1.57916e-05
0.000155293 1.57916e-05 0.00386151
0.00669649 -6.40945e-06 9.04723e-05
-6.40945e-06 0.00388086 4.78802e-06
9.04723e-05 4.78802e-06 0.00386137
0.00204615 0.000210638 0.000290413
0.000210638 0.000969062 3.91725e-05
0.000290413 3.91725e-05 0.000957548
0.000358965 0.000263312 2.65325e-05
0.000263312 -0.000166955 2.03992e-05
2.65325e-05 2.03992e-05 -0.000312372
0.00184791 -3.27507e-05 0.000252252
-3.27507e-05 0.000811056 4.1296e-06
0.000252252 4.1296e-06 0.000812903
0.00155338 3.52837e-06 6.74514e-05
3.52837e-06 0.000645533 2.0038e-06
6.74514e-05 2.0038e-06 0.000597605
0.00162573 -8.95908e-05 -6.06236e-05
-8.95908e-05 0.000704554 1.12871e-05
-6.06236e-05 1.12871e-05 0.000647382
0.00192194 -9.01724e-05 8.40582e-05
-9.01724e-05 0.000875393 -5.30896e-06
8.40582e-05 -5.30896e-06 0.000839908
0.00194516 -7.91094e-05 0.0001219
-7.91094e-05 0.000898782 -1.96415e-05
0.0001219 -1.96415e-05 0.000856129
0.00193027 -9.66499e-05 9.97305e-05
-9.66499e-05 0.00087909 -1.39547e-05
9.97305e-05 -1.39547e-05 0.000843229
0.0019877 -0.000190833 -4.23669e-05
-0.000190833 0.000819604 6.37411e-06
-4.23669e-05 6.37411e-06 0.000709877
0.00626882 -0.00014972 0.000329077
-0.00014972 0.0036413 -1.47146e-05
0.000329077 -1.47146e-05 0.00366113
0.0022157 -6.72805e-05 0.00025572
-6.72805e-05 0.00104426 -1.97242e-05
0.00025572 -1.97242e-05 0.00103106
0.00233237 -0.000116533 0.000260529
-0.000116533 0.00112147 -3.41951e-05
0.000260529 -3.41951e-05 0.00110201
0.00186578 -0.000144118 7.25054e-05
-0.000144118 0.000745917 -1.13149e-05
7.25054e-05 -1.13149e-05 0.000644173
0.00189265 -0.000156605 6.1606e-05
-0.000156605 0.000754971 -1.44543e-05
6.1606e-05 -1.44543e-05 0.000644952
0.00229332 -0.000144737 0.00028565
-0.000144737 0.0011048 -4.54975e-05
0.00028565 -4.54975e-05 0.00108085
0.00190242 -0.000154127 4.72133e-05
-0.000154127 0.0007876 -1.5197e-05
4.72133e-05 -1.5197e-05 0.000655709
0.00207535 -0.000349805 2.00099e-05
-0.000349805 0.000629008 -8.64266e-06
2.00099e-05 -8.64266e-06 0.000400793
0.00711311 5.40679e-05 -0.000313813
5.40679e-05 0.00414844 -2.67942e-05
-0.000313813 -2.67942e-05 0.00416525
0.00435722 0.00016694 -0.000150658
0.00016694 0.00241685 -1.7381e-05
-0.000150658 -1.7381e-05 0.00239388
0.00438549 8.53034e-05 -0.000152168
8.53034e-05 0.00244062 -1.57822e-05
-0.000152168 -1.57822e-05 0.00241935
0.00704435 -3.95258e-06 -3.12193e-06
-3.95258e-06 0.00412597 -6.37739e-07
-3.12193e-06 -6.37739e-07 0.00413451
0.000407155 0.000247393 -7.35347e-07
0.000247393 -0.000134797 -1.32211e-06
-7.35347e-07 -1.32211e-06 -0.000280388
0.00191793 7.17379e-05 0.000262497
7.17379e-05 0.000854253 2.5104e-05
0.000262497 2.5104e-05 0.000842426
0.0020447 0.000162492 0.000269796
0.000162492 0.000967991 3.87684e-05
0.000269796 3.87684e-05 0.000943659
0.00286242 0.000219201 0.000160915
0.000219201 0.00135894 2.39516e-05
0.000160915 2.39516e-05 0.00127265
0.00616352 -0.000278706 2.02967e-05
-0.000278706 0.00363267 4.39988e-06
2.02967e-05 4.39988e-06 0.00358061
0.00298405 0.000298 0.000169651
0.000298 0.00147882 2.97483e-05
0.000169651 2.97483e-05 0.00137511
0.00039828 0.000232648 2.60679e-05
0.000232648 -0.000133644 2.79961e-05
2.60679e-05 2.79961e-05 -0.000279546
0.000881148 0.000282854 1.59708e-05
0.000282854 -1.67551e-05 6.24602e-06
1.59708e-05 6.24602e-06 -0.000253382
0.00502875 -0.000113627 0.000189434
-0.000113627 0.00292044 1.92867e-05
0.000189434 1.92867e-05 0.00291609
0.00625285 8.49184e-05 3.22487e-06
8.49184e-05 0.003617 -1.95015e-06
3.22487e-06 -1.95015e-06 0.00364458
0.00410947 9.49e-05 -0.000126171
9.49e-05 0.0022571 -5.93177e-06
-0.000126171 -5.93177e-06 0.00224596
0.00609403 5.78983e-05 0.000319566
5.78983e-05 0.00351985 4.48657e-06
0.000319566 4.48657e-06 0.00354825
0.00144908 8.94593e-05 6.85101e-05
8.94593e-05 0.000585305 4.55096e-06
6.85101e-05 4.55096e-06 0.000542646
0.000482958 1.20921e-05 1.49204e-05
1.20921e-05 -0.0001516 1.63583e-06
1.49204e-05 1.63583e-06 -0.000240394
0.00650773 0.000240056 0.000185968
0.000240056 0.00380546 1.82325e-05
0.000185968 1.82325e-05 0.00377959
0.00288882 8.02323e-05 0.000151111
8.02323e-05 0.00135424 9.74837e-06
0.000151111 9.74837e-06 0.00129406
0.00150749 -9.05678e-05 -8.19833e-05
-9.05678e-05 0.000632304 1.06761e-05
-8.19833e-05 1.06761e-05 0.000577425
0.00153722 -0.000115973 -7.38263e-05
-0.000115973 0.000655664 1.35106e-05
-7.38263e-05 1.35106e-05 0.000596296
0.0016861 -4.77131e-05 -4.83426e-05
-4.77131e-05 0.000736302 9.38461e-06
-4.83426e-05 9.38461e-06 0.000679039
0.00203502 -0.000192744 -0.00014527
-0.000192744 0.000840306 2.76614e-05
-0.00014527 2.76614e-05 0.000742704
0.00393184 -2.48584e-05 -0.000128111
-2.48584e-05 0.00215702 -1.54852e-06
-0.000128111 -1.54852e-06 0.0021459
0.00186157 -6.98414e-05 8.90176e-05
-6.98414e-05 0.000835536 -4.19215e-06
8.90176e-05 -4.19215e-06 0.000804627
0.00200342 -5.7385e-05 0.000128949
-5.7385e-05 0.000933168 -1.9132e-05
0.000128949 -1.9132e-05 0.0008881
0.00193238 -9.40202e-05 9.05414e-05
-9.40202e-05 0.000879197 -9.15995e-06
9.05414e-05 -9.15995e-06 0.000843954
0.00193889 -0.000121973 -3.42782e-05
-0.000121973 0.00078105 2.50853e-06
-3.42782e-05 2.50853e-06 0.000691664
0.00199431 -0.000196153 -4.96222e-05
-0.000196153 0.000837341 7.37079e-06
-4.96222e-05 7.37079e-06 0.00071855
0.00197947 -0.000173456 -3.67352e-05
-0.000173456 0.0008082 4.56875e-06
-3.67352e-05 4.56875e-06 0.000706771
0.00210211 -0.000352405 -1.04662e-05
-0.000352405 0.000643389 2.73455e-06
-1.04662e-05 2.73455e-06 0.00041576
0.00607788 5.19204e-07 0.000315614
5.19204e-07 0.0035075 -2.80359e-06
0.000315614 -2.80359e-06 0.0035372
0.00212152 -4.18493e-05 0.000250059
-4.18493e-05 0.000988883 -1.35993e-05
0.000250059 -1.35993e-05 0.00097965
0.00245018 -1.25924e-05 5.38518e-05
-1.25924e-05 0.00110793 -1.01169e-06
5.38518e-05 -1.01169e-06 0.00103801
0.00182572 -0.00011678 6.52932e-05
-0.00011678 0.000719818 -7.37905e-06
6.52932e-05 -7.37905e-06 0.000627483
0.00188609 -0.000152076 6.85643e-05
-0.000152076 0.000754134 -1.3482e-05
6.85643e-05 -1.3482e-05 0.000648446
0.00193665 -0.000227648 8.24948e-06
-0.000227648 0.000463982 -2.83807e-06
8.24948e-06 -2.83807e-06 0.000290486
0.00194892 -0.000306111 1.63811e-05
-0.000306111 0.000509496 -6.1564e-06
1.63811e-05 -6.1564e-06 0.000305768
0.00190391 -0.000100906 0.000255812
-0.000100906 0.000865624 -3.7084e-05
0.000255812 -3.7084e-05 0.000845524
0.00194845 -0.000121247 3.75775e-05
-0.000121247 0.000831755 -1.41751e-05
3.75775e-05 -1.41751e-05 0.000695917
0.00206495 -0.000382246 2.24054e-05
-0.000382246 0.000669179 -9.58817e-06
2.24054e-05 -9.58817e-06 0.000419464
0.00177375 -0.000462047 7.42286e-06
-0.000462047 0.00020427 -7.92755e-07
7.42286e-06 -7.92755e-07 -7.04898e-05
0.00707874 0.000282154 -0.000360103
0.000282154 0.00414158 -4.16655e-05
-0.000360103 -4.16655e-05 0.00414794
0.00688746 -3.30676e-05 -0.000278382
-3.30676e-05 0.0040294 -2.13188e-05
-0.000278382 -2.13188e-05 0.00403962
0.00705917 0.000133111 -0.000330148
0.000133111 0.00411154 -3.19786e-05
-0.000330148 -3.19786e-05 0.0041299
0.000398207 0.000236554 -2.54732e-05
0.000236554 -0.000133767 -2.07627e-05
-2.54732e-05 -2.07627e-05 -0.00028188
0.00694896 0.000250173 -2.2818e-06
0.000250173 0.00405442 -2.46225e-06
-2.2818e-06 -2.46225e-06 0.00406605
0.00708989 0.00023562 -9.0526e-06
0.00023562 0.00414011 -3.20696e-06
-9.0526e-06 -3.20696e-06 0.00414966
0.000344313 0.000137319 3.69838e-07
0.000137319 -0.00023517 -2.70638e-07
3.69838e-07 -2.70638e-07 -0.000354858
0.0038468 -8.12962e-05 -0.000124749
-8.12962e-05 0.00214805 -5.81893e-06
-0.000124749 -5.81893e-06 0.00211609
0.000308305 0.000214378 8.26579e-07
0.000214378 -0.000208495 -5.39342e-07
8.26579e-07 -5.39342e-07 -0.000348137
0.00179663 0.000245728 6.15069e-05
0.000245728 0.000752943 3.82138e-06
6.15069e-05 3.82138e-06 0.00063142
0.00090254 0.000282271 7.58465e-07
0.000282271 4.73061e-06 2.55749e-07
7.58465e-07 2.55749e-07 -0.000230635
0.00578677 -0.000137336 0.000214317
-0.000137336 0.00340953 2.65314e-05
0.000214317 2.65314e-05 0.00339281
0.000595212 8.14131e-05 1.92932e-05
8.14131e-05 4.61487e-05 1.4173e-05
1.92932e-05 1.4173e-05 -3.38778e-05
0.000457049 0.000106907 1.47632e-05
0.000106907 -0.000181877 1.10375e-05
1.47632e-05 1.10375e-05 -0.000294822
0.000459425 0.0001668 1.9449e-05
0.0001668 -0.000149358 1.88072e-05
1.9449e-05 1.88072e-05 -0.000277137
0.00122461 0.000273793 1.55672e-05
0.000273793 2.07727e-05 5.86382e-06
1.55672e-05 5.86382e-06 -0.000191243
0.00311772 0.000235448 0.000152716
0.000235448 0.00159751 2.21789e-05
0.000152716 2.21789e-05 0.00151289
0.00101056 0.0003011 2.03029e-05
0.0003011 1.57858e-06 7.30621e-06
2.03029e-05 7.30621e-06 -0.000234583
0.000872638 0.000280589 1.40325e-05
0.000280589 8.44145e-05 5.75554e-06
1.40325e-05 5.75554e-06 -0.000157775
0.00137591 0.00047002 4.50799e-06
0.00047002 0.000168823 -2.56343e-06
4.50799e-06 -2.56343e-06 -0.000156461
0.00397288 -0.000129111 0.000122703
-0.000129111 0.00223718 9.01785e-06
0.000122703 9.01785e-06 0.00223364
0.00452569 -0.000171595 2.47687e-05
-0.000171595 0.00260969 -5.89664e-07
2.47687e-05 -5.89664e-07 0.0025925
0.00675868 6.7445e-05 -0.000340359
6.7445e-05 0.00391827 -1.75273e-05
-0.000340359 -1.75273e-05 0.00394448
0.00634821 7.62739e-05 -0.000330703
7.62739e-05 0.00367302 -1.06593e-05
-0.000330703 -1.06593e-05 0.00370174
0.00618868 8.38547e-05 -1.18037e-08
8.38547e-05 0.00358421 -3.97082e-06
-1.18037e-08 -3.97082e-06 0.00360955
0.00394253 3.62981e-05 -0.000136998
3.62981e-05 0.00215367 -7.4514e-06
-0.000136998 -7.4514e-06 0.00214802
0.0015934 3.97269e-05 6.52866e-05
3.97269e-05 0.000550657 1.82655e-06
6.52866e-05 1.82655e-06 0.000480413
0.00429126 0.000155333 -0.000129515
0.000155333 0.00237693 -7.85007e-06
-0.000129515 -7.85007e-06 0.00235739
0.00163645 9.49067e-05 6.67564e-05
9.49067e-05 0.000567916 3.37464e-06
6.67564e-05 3.37464e-06 0.000485627
0.00613071 0.000118431 0.000322065
0.000118431 0.00355659 7.32172e-06
0.000322065 7.32172e-06 0.00357712
0.00038169 1.03217e-05 1.81965e-05
1.03217e-05 -0.000210332 7.33042e-07
1.81965e-05 7.33042e-07 -0.000295169
0.00280611 4.19671e-05 0.000147861
4.19671e-05 0.00130922 6.44634e-06
0.000147861 6.44634e-06 0.00125549
0.0011245 7.03865e-05 1.14069e-05
7.03865e-05 -4.76025e-05 6.19724e-07
1.14069e-05 6.19724e-07 -0.000182202
0.00280779 0.000126505 0.000156157
0.000126505 0.00130404 1.3371e-05
0.000156157 1.3371e-05 0.00123621
0.0012272 0.00015563 8.8346e-06
0.00015563 -2.51155e-05 1.36082e-06
8.8346e-06 1.36082e-06 -0.000184122
0.00186864 4.12021e-05 -0.000251209
4.12021e-05 0.000822061 3.37035e-06
-0.000251209 3.37035e-06 0.000826331
0.00145213 -2.08021e-05 -6.7268e-05
-2.08021e-05 0.000589987 3.15428e-06
-6.7268e-05 3.15428e-06 0.000541894
0.00168244 -1.83802e-05 -4.24704e-05
-1.83802e-05 0.000733173 8.86163e-06
-4.24704e-05 8.86163e-06 0.000673857
0.00150734 -0.000107459 -8.29733e-05
-0.000107459 0.000635366 1.32459e-05
-8.29733e-05 1.32459e-05 0.000578264
0.00207243 -0.000100587 -0.000136057
-0.000100587 0.000854229 1.32563e-05
-0.000136057 1.32563e-05 0.000777219
0.00207484 -0.000159589 -0.000140369
-0.000159589 0.000855486 2.33133e-05
-0.000140369 2.33133e-05 0.000767622
0.00203485 -0.000212384 -0.000150766
-0.000212384 0.000856209 2.94459e-05
-0.000150766 2.94459e-05 0.000749058
0.0021342 -0.000355203 -3.62894e-05
-0.000355203 0.000662498 1.2846e-05
-3.62894e-05 1.2846e-05 0.000435551
0.006174 -0.000109806 2.39528e-06
-0.000109806 0.00358094 -1.94473e-06
2.39528e-06 -1.94473e-06 0.00360264
0.00176052 2.61902e-05 9.58982e-05
2.61902e-05 0.000764907 -4.89416e-06
9.58982e-05 -4.89416e-06 0.000743419
0.00116808 -1.28153e-05 -6.83565e-05
-1.28153e-05 0.000287914 2.21621e-06
-6.83565e-05 2.21621e-06 0.000217117
0.00188241 -8.05067e-05 -3.74256e-05
-8.05067e-05 0.000746765 3.16892e-06
-3.74256e-05 3.16892e-06 0.000665074
0.00458582 -5.89244e-05 0.000265391
-5.89244e-05 0.0025733 -1.96581e-05
0.000265391 -1.96581e-05 0.00256727
0.0025815 -0.000206385 -4.62457e-05
-0.000206385 0.00122023 4.50718e-06
-4.62457e-05 4.50718e-06 0.00109746
0.00197241 -0.000148786 -3.40066e-05
-0.000148786 0.000802188 3.2521e-06
-3.40066e-05 3.2521e-06 0.000707256
0.00200481 -0.000227969 -9.53189e-06
-0.000227969 0.000502807 1.78117e-06
-9.53189e-06 1.78117e-06 0.000333345
0.00210094 -0.000388853 -8.93531e-06
-0.000388853 0.000691145 2.46902e-06
-8.93531e-06 2.46902e-06 0.00044038
0.00202964 -0.000309548 -9.23214e-06
-0.000309548 0.000560782 2.42655e-06
-9.23214e-06 2.42655e-06 0.000355381
0.00182398 -0.000464964 9.51354e-07
-0.000464964 0.000237343 -1.92696e-07
9.51354e-07 -1.92696e-07 -3.71013e-05
0.000415763 8.86054e-06 1.89619e-05
8.86054e-06 -0.000192331 -6.14347e-07
1.89619e-05 -6.14347e-07 -0.000273522
0.00172626 -7.86484e-06 5.56704e-05
-7.86484e-06 0.000646795 -2.73596e-06
5.56704e-05 -2.73596e-06 0.000568429
0.00188003 -7.59804e-05 9.37668e-06
-7.59804e-05 0.000433765 -2.7989e-07
9.37668e-06 -2.7989e-07 0.000314589
0.00185882 -0.00017883 9.47914e-06
-0.00017883 0.000407454 -1.15253e-06
9.47914e-06 -1.15253e-06 0.000256271
0.00196 -0.000267872 1.17295e-05
-0.000267872 0.000489558 -4.08741e-06
1.17295e-05 -4.08741e-06 0.000305525
0.00195239 -0.000323826 -4.1659e-07
-0.000323826 0.00017838 -2.2637e-07
-4.1659e-07 -2.2637e-07 -6.87279e-07
0.0065253 8.2275e-05 0.000239328
8.2275e-05 0.00382604 -1.9242e-05
0.000239328 -1.9242e-05 0.00382557
0.00176307 -0.000423426 5.00254e-06
-0.000423426 0.000141453 -6.14728e-07
5.00254e-06 -6.14728e-07 -0.000100847
0.000194987 -0.000190446 2.01649e-05
-0.000190446 -0.000275131 -2.25709e-05
2.01649e-05 -2.25709e-05 -0.000404364
0.000963241 -0.000306605 1.72988e-05
-0.000306605 3.96451e-05 -9.90363e-06
1.72988e-05 -9.90363e-06 -0.000213769
0.00189584 -0.000518532 1.10874e-05
-0.000518532 0.000346819 -1.32002e-06
1.10874e-05 -1.32002e-06 3.02051e-05
0.00197912 -0.000533917 2.5093e-06
-0.000533917 0.000228072 2.38001e-06
2.5093e-06 2.38001e-06 -3.08712e-05
0.000453717 -0.000159856 2.27196e-05
-0.000159856 -7.47243e-05 -1.80561e-05
2.27196e-05 -1.80561e-05 -0.000183981
0.000718729 -0.000147105 -6.37712e-07
-0.000147105 0.000140983 -1.0951e-06
-6.37712e-07 -1.0951e-06 -0.000108853
0.00703614 0.00027496 -0.000367511
0.00027496 0.00411532 -3.91059e-05
-0.000367511 -3.91059e-05 0.00412366
0.00710455 0.000225126 -0.00034786
0.000225126 0.00414735 -3.84687e-05
-0.00034786 -3.84687e-05 0.00416073
0.000331579 0.000135452 -1.82785e-05
0.000135452 -0.000244746 -1.35923e-05
-1.82785e-05 -1.35923e-05 -0.000364825
0.00615855 -0.000108362 -0.000223707
-0.000108362 0.00360585 -1.67537e-05
-0.000223707 -1.67537e-05 0.00360443
0.000256423 0.000208709 -2.29073e-05
0.000208709 -0.000222677 -2.15661e-05
-2.29073e-05 -2.15661e-05 -0.000352581
0.000372186 0.000206774 -2.1651e-05
0.000206774 -0.000167521 -1.87379e-05
-2.1651e-05 -1.87379e-05 -0.000308839
0.000910855 0.000280584 -1.76667e-05
0.000280584 1.51528e-05 -6.92356e-06
-1.76667e-05 -6.92356e-06 -0.000219133
0.00559121 -0.000119784 -5.10609e-06
-0.000119784 0.00326894 1.42934e-06
-5.10609e-06 1.42934e-06 0.0032627
0.000519126 6.48929e-05 1.7951e-06
6.48929e-05 1.2579e-06 3.57229e-07
1.7951e-06 3.57229e-07 -7.53931e-05
0.00168477 0.000150261 6.8994e-05
0.000150261 0.000597588 6.19178e-06
6.8994e-05 6.19178e-06 0.000500686
0.00167547 0.000214022 7.07781e-05
0.000214022 0.000626947 7.19119e-06
7.07781e-05 7.19119e-06 0.000513867
0.00119753 0.0002729 5.37306e-09
0.0002729 9.07495e-06 -3.32195e-07
5.37306e-09 -3.32195e-07 -0.000203918
0.000424582 0.00018234 -3.46377e-07
0.00018234 -9.94284e-05 -3.90693e-07
-3.46377e-07 -3.90693e-07 -0.000212562
0.00102113 0.000298684 1.47514e-06
0.000298684 1.25918e-05 1.07398e-07
1.47514e-06 1.07398e-07 -0.000222586
0.000788422 0.00026333 4.13895e-07
0.00026333 2.5482e-05 -1.01449e-06
4.13895e-07 -1.01449e-06 -0.000210366
0.00151997 0.000492807 -4.51962e-07
0.000492807 0.00024664 -4.53808e-07
-4.51962e-07 -4.53808e-07 -8.22709e-05
0.000425271 0.000139696 1.94521e-05
0.000139696 -7.60667e-05 1.71703e-05
1.94521e-05 1.71703e-05 -0.000178567
0.000622155 2.59787e-05 1.0877e-05
2.59787e-05 7.66603e-05 1.30815e-05
1.0877e-05 1.30815e-05 1.53343e-05
0.00140888 0.000227875 4.9743e-06
0.000227875 0.000598716 3.34231e-06
4.9743e-06 3.34231e-06 0.000372742
0.00125091 0.000238579 1.14396e-05
0.000238579 2.17981e-06 4.16349e-06
1.14396e-05 4.16349e-06 -0.000191928
0.00117062 0.0003 1.97319e-05
0.0003 3.81874e-05 7.23048e-06
1.97319e-05 7.23048e-06 -0.000189881
0.00196894 0.000453912 4.00572e-06
0.000453912 0.000249809 -2.69421e-07
4.00572e-06 -2.69421e-07 3.171e-06
0.000612645 0.000227196 1.02151e-05
0.000227196 -6.83045e-06 5.73345e-06
1.02151e-05 5.73345e-06 -0.000235727
0.00191798 0.000535614 5.50366e-06
0.000535614 0.000385312 -1.52369e-06
5.50366e-06 -1.52369e-06 7.3541e-05
0.00126329 0.000449037 1.92504e-06
0.000449037 0.000209706 -3.14292e-06
1.92504e-06 -3.14292e-06 -0.000131543
0.0015904 0.000570122 -5.9227e-06
0.000570122 0.000189479 -5.54985e-06
-5.9227e-06 -5.54985e-06 -0.000154674
0.00349634 -0.000135654 8.08544e-05
-0.000135654 0.00192793 5.05445e-06
8.08544e-05 5.05445e-06 0.00192315
0.00389882 -0.00016946 1.61462e-05
-0.00016946 0.00219815 -1.04765e-06
1.61462e-05 -1.04765e-06 0.00218391
0.00436651 -0.000216378 -9.17591e-05
-0.000216378 0.00251568 -8.31675e-06
-9.17591e-05 -8.31675e-06 0.00248735
0.000547264 -0.00014755 2.21862e-05
-0.00014755 4.56896e-06 -1.58658e-05
2.21862e-05 -1.58658e-05 -9.13423e-05
0.00592595 0.000130711 0.000199951
0.000130711 0.00348261 -1.92549e-05
0.000199951 -1.92549e-05 0.00347018
0.00695573 0.000229395 -0.000365715
0.000229395 0.00405803 -3.22284e-05
-0.000365715 -3.22284e-05 0.00407334
0.00645617 0.000100648 -0.000334164
0.000100648 0.00373677 -1.50257e-05
-0.000334164 -1.50257e-05 0.0037638
0.000393056 9.98895e-05 -1.87437e-05
9.98895e-05 -0.000216014 -5.80913e-06
-1.87437e-05 -5.80913e-06 -0.000316351
0.000350252 4.30071e-05 -1.85365e-05
4.30071e-05 -0.000229039 -2.6875e-06
-1.85365e-05 -2.6875e-06 -0.000318554
0.00613131 -4.55794e-06 -0.000317555
-4.55794e-06 0.00353908 -2.84486e-06
-0.000317555 -2.84486e-06 0.00356889
0.00606946 3.52735e-06 -7.65492e-08
3.52735e-06 0.00350179 -1.10135e-06
-7.65492e-08 -1.10135e-06 0.00353178
0.000357801 7.60906e-07 3.64879e-08
7.60906e-07 -0.000228052 2.12798e-07
3.64879e-08 2.12798e-07 -0.00031115
0.00158022 4.19656e-05 6.58699e-05
4.19656e-05 0.000536279 3.20259e-06
6.58699e-05 3.20259e-06 0.000463137
0.00108062 7.37594e-05 1.44011e-07
7.37594e-05 -7.93419e-05 -1.02315e-07
1.44011e-07 -1.02315e-07 -0.000215109
0.000372044 8.80037e-05 -7.1285e-07
8.80037e-05 -0.000232394 -3.92485e-07
-7.1285e-07 -3.92485e-07 -0.000339878
0.0012044 0.000157125 7.91466e-09
0.000157125 -3.74965e-05 -1.87298e-07
7.91466e-09 -1.87298e-07 -0.000197764
0.000357307 -3.21191e-05 1.87296e-05
-3.21191e-05 -0.000229423 -8.95734e-07
1.87296e-05 -8.95734e-07 -0.000309584
0.00107888 3.09791e-05 1.09126e-05
3.09791e-05 -6.52553e-05 1.9988e-07
1.09126e-05 1.9988e-07 -0.000193993
0.00113844 0.000113953 1.0133e-05
0.000113953 -5.58737e-05 1.20697e-06
1.0133e-05 1.20697e-06 -0.000201327
0.00187397 0.000116512 1.32661e-06
0.000116512 4.1639e-05 -3.53509e-07
1.32661e-06 -3.53509e-07 -5.54385e-05
0.00126342 0.000196549 8.7459e-06
0.000196549 -5.59002e-06 2.52049e-06
8.7459e-06 2.52049e-06 -0.000181274
0.00206343 0.000270672 2.29304e-07
0.000270672 0.000175422 -8.99907e-07
2.29304e-07 -8.99907e-07 3.37219e-05
0.00609121 -7.14562e-05 -0.000321228
-7.14562e-05 0.00352294 3.69452e-06
-0.000321228 3.69452e-06 0.00354867
0.00140711 -0.000159231 -6.79655e-05
-0.000159231 0.000581024 8.39265e-06
-6.79655e-05 8.39265e-06 0.000527332
-0.00023543 -7.62668e-06 -1.17862e-05
-7.62668e-06 -0.000593644 1.63079e-06
-1.17862e-05 1.63079e-06 -0.00069109
0.00200512 -7.20267e-05 -0.000134193
-7.20267e-05 0.000816685 9.13046e-06
-0.000134193 9.13046e-06 0.00074514
0.00695101 0.000242323 -4.0437e-05
0.000242323 0.00408744 3.51481e-06
-4.0437e-05 3.51481e-06 0.00404065
0.00315528 -0.000287095 -0.000156859
-0.000287095 0.00158054 3.07078e-05
-0.000156859 3.07078e-05 0.00146388
0.0020848 -0.000128676 -0.000138023
-0.000128676 0.000859954 1.82566e-05
-0.000138023 1.82566e-05 0.000778489
0.00206043 -0.000227913 -2.90816e-05
-0.000227913 0.000533788 5.49963e-06
-2.90816e-05 5.49963e-06 0.000368538
0.00208529 -0.000311518 -3.25205e-05
-0.000311518 0.000594818 1.1101e-05
-3.25205e-05 1.1101e-05 0.000388109
0.00211687 -0.000392107 -3.75839e-05
-0.000392107 0.000700362 1.37891e-05
-3.75839e-05 1.37891e-05 0.000449538
0.00186914 -0.000467655 -6.04272e-06
-0.000467655 0.000266611 6.01324e-07
-6.04272e-06 6.01324e-07 -7.52352e-06
0.000358101 3.90194e-06 -7.62096e-10
3.90194e-06 -0.000226653 3.55898e-07
-7.62096e-10 3.55898e-07 -0.000308841
0.00186008 -9.04503e-05 -3.58252e-05
-9.04503e-05 0.000738541 5.45221e-07
-3.58252e-05 5.45221e-07 0.000661566
0.00153691 -7.16402e-05 -1.14161e-05
-7.16402e-05 0.000216445 7.50625e-07
-1.14161e-05 7.50625e-07 9.31299e-05
0.00193655 -0.000180185 -9.70117e-06
-0.000180185 0.000454991 1.58522e-06
-9.70117e-06 1.58522e-06 0.000301694
0.00675084 8.13101e-05 4.90012e-06
8.13101e-05 0.00397003 4.23177e-07
4.90012e-06 4.23177e-07 0.00396752
0.00177629 -0.00019999 6.57395e-06
-0.00019999 0.000735166 7.59189e-07
6.57395e-06 7.59189e-07 0.000596458
0.00137327 -0.000335415 9.38977e-07
-0.000335415 0.000295677 -1.25221e-06
9.38977e-07 -1.25221e-06 4.08023e-05
0.00200334 -0.00027097 -9.56951e-06
-0.00027097 0.000513925 2.52906e-06
-9.56951e-06 2.52906e-06 0.000329152
0.00205126 -0.00033135 1.86469e-07
-0.00033135 0.000237467 -1.958e-07
1.86469e-07 -1.958e-07 6.43915e-05
0.00188546 -0.000517613 1.03473e-06
-0.000517613 0.000341381 -1.65209e-07
1.03473e-06 -1.65209e-07 2.6334e-05
0.00187911 -0.000427707 4.49518e-07
-0.000427707 0.000218197 -2.6523e-07
4.49518e-07 -2.6523e-07 -2.47551e-05
0.00202137 -0.000535679 8.72721e-07
-0.000535679 0.000259337 1.69466e-07
8.72721e-07 1.69466e-07 3.8088e-07
0.000454262 -0.000173485 1.95328e-06
-0.000173485 -8.0121e-05 3.91988e-07
1.95328e-06 3.91988e-07 -0.000188875
0.000702162 -0.000195389 1.60156e-06
-0.000195389 0.000123665 4.56838e-07
1.60156e-06 4.56838e-07 -0.000120041
0.00107875 -3.54568e-05 1.12097e-05
-3.54568e-05 -6.14762e-05 -5.15578e-07
1.12097e-05 -5.15578e-07 -0.000190312
0.00194856 -0.000124687 8.67359e-06
-0.000124687 0.000472787 -5.41591e-07
8.67359e-06 -5.41591e-07 0.000340929
0.00183622 -0.000125864 1.58764e-06
-0.000125864 4.80842e-05 -4.61383e-08
1.58764e-06 -4.61383e-08 -6.15512e-05
0.00190111 -0.000266126 -2.33921e-08
-0.000266126 0.000107862 7.20621e-07
-2.33921e-08 7.20621e-07 -3.2025e-05
0.00187912 -0.000382075 2.33498e-07
-0.000382075 0.000164145 2.34004e-07
2.33498e-07 2.34004e-07 -4.20929e-05
0.00209234 -0.000370466 3.39357e-06
-0.000370466 0.000159793 -1.00559e-06
3.39357e-06 -1.00559e-06 2.15765e-05
0.000304633 -0.000177118 2.02383e-05
-0.000177118 -0.000183505 -2.15293e-05
2.02383e-05 -2.15293e-05 -0.000306425
0.00201512 -0.000490975 1.30442e-06
-0.000490975 0.000198367 1.5126e-06
1.30442e-06 1.5126e-06 -1.64105e-05
0.000709266 -0.000264589 1.19598e-05
-0.000264589 -2.59679e-05 -9.42743e-06
1.19598e-05 -9.42743e-06 -0.00027089
0.00159803 -0.000541257 1.38592e-05
-0.000541257 0.000249131 -1.94215e-06
1.38592e-05 -1.94215e-06 -0.000108841
0.00220942 -0.000599873 3.6288e-06
-0.000599873 0.000443364 1.42359e-06
3.6288e-06 1.42359e-06 0.000126081
0.00229716 -0.00057371 2.54066e-07
-0.00057371 0.000394618 3.75271e-06
2.54066e-07 3.75271e-06 0.000164262
0.000431784 -0.000204618 8.40466e-07
-0.000204618 -6.81548e-05 -4.70643e-06
8.40466e-07 -4.70643e-06 -0.000327675
0.000891622 -0.000135054 -3.32334e-07
-0.000135054 0.000276064 -1.50702e-06
-3.32334e-07 -1.50702e-06 5.21281e-05
0.00086687 -0.000271864 -7.88313e-07
-0.000271864 0.000210388 1.9387e-06
-7.88313e-07 1.9387e-06 -8.49116e-05
0.000344866 0.000112835 -1.7257e-05
0.000112835 -0.00024794 -1.05137e-05
-1.7257e-05 -1.05137e-05 -0.00036227
0.00508806 -0.000167604 -0.000155885
-0.000167604 0.00296111 -1.24083e-05
-0.000155885 -1.24083e-05 0.00294557
0.000378396 5.31632e-05 -1.43758e-05
5.31632e-05 -8.57818e-05 -1.38992e-05
-1.43758e-05 -1.38992e-05 -0.000155813
0.000299843 0.000165715 -1.975e-05
0.000165715 -0.000240557 -1.66887e-05
-1.975e-05 -1.66887e-05 -0.000369373
0.00116258 0.000271848 -1.66129e-05
0.000271848 -8.23209e-06 -6.45113e-06
-1.66129e-05 -6.45113e-06 -0.000222211
0.000390396 0.000173335 -2.29406e-05
0.000173335 -0.000123774 -1.96692e-05
-2.29406e-05 -1.96692e-05 -0.000235442
0.000646298 0.000245934 -1.25371e-05
0.000245934 -6.37313e-05 -7.64097e-06
-1.25371e-05 -7.64097e-06 -0.000293669
0.00107808 0.000298347 -2.12855e-05
0.000298347 5.46733e-05 -8.36182e-06
-2.12855e-05 -8.36182e-06 -0.000179409
0.00163609 0.000512601 -6.19392e-06
0.000512601 0.000306296 1.17371e-06
-6.19392e-06 1.17371e-06 -2.54345e-05
0.00048089 0.000138895 -1.8214e-06
0.000138895 -4.9481e-05 1.42682e-06
-1.8214e-06 1.42682e-06 -0.000143978
0.000439145 3.91954e-06 1.06475e-06
3.91954e-06 -2.97851e-05 4.49038e-07
1.06475e-06 4.49038e-07 -9.03787e-05
0.000722568 0.000147704 2.13589e-06
0.000147704 0.000151239 -5.15391e-07
2.13589e-06 -5.15391e-07 -5.66495e-05
0.00122319 0.000238138 -1.52598e-07
0.000238138 -9.67373e-06 -3.02392e-07
-1.52598e-07 -3.02392e-07 -0.000204911
0.00112823 0.000296234 3.68764e-07
0.000296234 1.70282e-05 -2.01285e-07
3.68764e-07 -2.01285e-07 -0.00021112
0.00194194 0.000451987 -3.14231e-07
0.000451987 0.000231344 -1.36509e-07
-3.14231e-07 -1.36509e-07 -1.53629e-05
0.000684254 0.000229314 -2.97848e-07
0.000229314 4.01144e-05 5.96821e-08
-2.97848e-07 5.96821e-08 -0.000185627
0.00187592 0.000529034 -3.04297e-07
0.000529034 0.000354985 -4.19856e-07
-3.04297e-07 -4.19856e-07 4.31058e-05
0.00139344 0.000467621 -2.10334e-07
0.000467621 0.00028629 -1.10027e-06
-2.10334e-07 -1.10027e-06 -5.96783e-05
0.00158946 0.000580511 -7.69386e-07
0.000580511 0.000170096 2.01657e-06
-7.69386e-07 2.01657e-06 -0.000173553
0.000522792 -1.0522e-05 3.20613e-06
-1.0522e-05 2.2082e-05 1.14938e-05
3.20613e-06 1.14938e-05 -2.74369e-05
0.00107195 0.000201445 5.72735e-06
0.000201445 0.000338629 2.51888e-06
5.72735e-06 2.51888e-06 0.000110369
0.00100856 0.00010142 2.46696e-06
0.00010142 0.000328534 5.83933e-06
2.46696e-06 5.83933e-06 0.000161548
0.000888769 0.000218379 2.80547e-07
0.000218379 0.000268582 1.11354e-06
2.80547e-07 1.11354e-06 -6.98105e-06
0.00200944 0.000400566 1.33829e-06
0.000400566 0.000213115 -1.80844e-06
1.33829e-06 -1.80844e-06 3.85638e-06
0.00190585 0.000498832 5.25579e-06
0.000498832 0.000286104 -3.36563e-07
5.25579e-06 -3.36563e-07 2.67521e-06
0.00211911 0.000519628 1.98672e-07
0.000519628 0.000253374 -1.34344e-06
1.98672e-07 -1.34344e-06 2.20382e-05
0.000968296 0.000360176 3.24696e-06
0.000360176 9.95251e-05 -4.79018e-07
3.24696e-06 -4.79018e-07 -0.000204019
0.00230082 0.000648198 -3.9205e-06
0.000648198 0.000515298 -2.74919e-06
-3.9205e-06 -2.74919e-06 0.000197479
0.00194092 0.000635228 -5.40312e-06
0.000635228 0.000523785 -8.11429e-06
-5.40312e-06 -8.11429e-06 0.000115653
0.00199334 0.000630168 -1.41218e-06
0.000630168 0.000326521 -2.41964e-06
-1.41218e-06 -2.41964e-06 -5.18127e-06
0.000575632 5.72325e-05 1.76553e-06
5.72325e-05 7.50398e-05 5.49162e-06
1.76553e-06 5.49162e-06 -9.73852e-06
0.000473986 -9.52455e-06 2.07907e-06
-9.52455e-06 -1.956e-05 8.14289e-06
2.07907e-06 8.14289e-06 -5.29345e-05
0.00303108 -0.000123548 5.26242e-05
-0.000123548 0.00162378 4.59248e-06
5.26242e-05 4.59248e-06 0.00162194
0.00334308 -0.00015213 9.67585e-06
-0.00015213 0.00183407 -9.37886e-07
9.67585e-06 -9.37886e-07 0.00182441
0.00369887 -0.000186424 -6.37445e-05
-0.000186424 0.00207471 -5.09614e-06
-6.37445e-05 -5.09614e-06 0.00205492
0.000405565 -0.000129482 2.00258e-05
-0.000129482 -6.05497e-05 -1.49304e-05
2.00258e-05 -1.49304e-05 -0.000141868
0.00530249 0.000160992 0.000158456
0.000160992 0.00310625 -1.77534e-05
0.000158456 -1.77534e-05 0.00308613
0.000492073 -0.00014862 1.5122e-06
-0.00014862 -3.28023e-05 5.70141e-07
1.5122e-06 5.70141e-07 -0.000132175
0.00613001 0.000110813 5.89617e-06
0.000110813 0.00360493 6.33198e-07
5.89617e-06 6.33198e-07 0.00359526
0.000373841 0.000113491 -1.82749e-05
0.000113491 -0.000229493 -8.2326e-06
-1.82749e-05 -8.2326e-06 -0.000339359
0.000374605 3.49958e-05 -1.7278e-05
3.49958e-05 -0.000222953 -3.16503e-06
-1.7278e-05 -3.16503e-06 -0.000315138
0.00115259 0.000157488 -9.0275e-06
0.000157488 -6.86689e-05 -1.70735e-06
-9.0275e-06 -1.70735e-06 -0.000230267
0.00109219 7.74538e-05 -1.15686e-05
7.74538e-05 -7.70988e-05 -7.83234e-07
-1.15686e-05 -7.83234e-07 -0.000213675
0.000415828 -7.59465e-06 -1.8882e-05
-7.59465e-06 -0.000194662 -5.69953e-07
-1.8882e-05 -5.69953e-07 -0.000276019
0.00616404 -0.000101086 -0.000328106
-0.000101086 0.00357341 5.8101e-06
-0.000328106 5.8101e-06 0.00359722
0.00040415 -2.67768e-06 5.76151e-08
-2.67768e-06 -0.000200934 -7.05533e-07
5.76151e-08 -7.05533e-07 -0.000280956
0.00105855 3.62372e-05 -1.30163e-07
3.62372e-05 -7.99088e-05 7.64378e-08
-1.30163e-07 7.64378e-08 -0.000209152
0.00114912 0.000116521 -4.98927e-08
0.000116521 -5.62331e-05 7.122e-08
-4.98927e-08 7.122e-08 -0.000202514
0.00190519 0.000115378 -2.30596e-07
0.000115378 7.07143e-05 3.421e-07
-2.30596e-07 3.421e-07 -2.61661e-05
0.00122709 0.000197574 -3.11653e-07
0.000197574 -2.39105e-05 -2.67126e-07
-3.11653e-07 -2.67126e-07 -0.000201083
0.00198852 0.000266955 -1.64526e-07
0.000266955 0.000128364 1.54142e-07
-1.64526e-07 1.54142e-07 -1.3278e-05
0.00104681 -3.98309e-06 1.0985e-05
-3.98309e-06 -8.06759e-05 -3.55929e-07
1.0985e-05 -3.55929e-07 -0.00020806
0.00186493 5.66716e-05 1.97539e-06
5.66716e-05 4.92189e-05 2.94562e-08
1.97539e-06 2.94562e-08 -3.94438e-05
0.00197537 0.000191577 7.36206e-07
0.000191577 0.000106765 -1.03524e-06
7.36206e-07 -1.03524e-06 -8.7843e-06
0.00210197 0.000144967 5.00407e-06
0.000144967 7.58754e-05 7.54441e-07
5.00407e-06 7.54441e-07 3.3141e-05
0.00201783 0.000338184 8.4658e-07
0.000338184 0.00016913 -1.06124e-06
8.4658e-07 -1.06124e-06 -4.20984e-06
0.00204952 0.000292862 2.48455e-06
0.000292862 7.26359e-05 3.47956e-07
2.48455e-06 3.47956e-07 -2.7498e-05
0.000390073 -3.31419e-06 -1.79778e-05
-3.31419e-06 -0.000203231 8.57677e-07
-1.79778e-05 8.57677e-07 -0.000287656
0.00195855 -4.61708e-05 -0.000131776
-4.61708e-05 0.000790418 6.14685e-06
-0.000131776 6.14685e-06 0.000724742
0.00115696 -6.65281e-05 -1.87041e-05
-6.65281e-05 -2.39288e-05 1.57639e-06
-1.87041e-05 1.57639e-06 -0.000151779
0.00196349 -0.000179088 -2.83416e-05
-0.000179088 0.000469814 4.18377e-06
-2.83416e-05 4.18377e-06 0.00031464
0.00696708 5.69963e-05 -0.000274805
5.69963e-05 0.00409954 2.75355e-05
-0.000274805 2.75355e-05 0.00409938
0.00342204 -0.000282758 -0.000166067
-0.000282758 0.00176734 2.64365e-05
-0.000166067 2.64365e-05 0.00165919
0.00196255 -0.000388071 -2.93089e-05
-0.000388071 0.000664894 1.16316e-05
-2.93089e-05 1.16316e-05 0.000402844
0.00203747 -0.00027339 -3.04449e-05
-0.00027339 0.000532393 8.51165e-06
-3.04449e-05 8.51165e-06 0.000347093
0.00214853 -0.00033894 -1.75898e-06
-0.00033894 0.000295518 -4.32573e-07
-1.75898e-06 -4.32573e-07 0.000128325
0.0019972 -0.00043197 -3.8081e-06
-0.00043197 0.000297871 1.00695e-06
-3.8081e-06 1.00695e-06 5.42552e-05
0.00188904 -0.000518157 -8.70368e-06
-0.000518157 0.000342944 5.62918e-07
-8.70368e-06 5.62918e-07 2.92616e-05
0.00205922 -0.000537466 -8.01497e-07
-0.000537466 0.000286699 -2.03951e-06
-8.01497e-07 -2.03951e-06 2.76601e-05
0.000415752 -0.000182479 -2.17186e-05
-0.000182479 -9.95238e-05 1.92609e-05
-2.17186e-05 1.92609e-05 -0.000213929
0.000684271 -0.000223832 9.3566e-08
-0.000223832 0.000117502 9.07165e-07
9.3566e-08 9.07165e-07 -0.000129805
0.00109634 -3.05112e-05 4.55285e-07
-3.05112e-05 -5.19699e-05 5.1082e-08
4.55285e-07 5.1082e-08 -0.000176986
0.00192781 -0.000124745 -1.00104e-05
-0.000124745 0.000456602 1.31263e-06
-1.00104e-05 1.31263e-06 0.000324961
0.00187286 -0.000122814 7.68491e-07
-0.000122814 6.88027e-05 -2.38895e-07
7.68491e-07 -2.38895e-07 -3.57322e-05
0.00190651 -0.000266786 -2.59582e-06
-0.000266786 0.000117412 8.51955e-07
-2.59582e-06 8.51955e-07 -3.03844e-05
0.000413547 -0.00019941 3.7135e-07
-0.00019941 -0.000115295 2.51646e-07
3.7135e-07 2.51646e-07 -0.000239572
0.000781112 -0.000275995 -6.09991e-07
-0.000275995 1.21796e-05 -6.67269e-08
-6.09991e-07 -6.67269e-08 -0.000236667
0.00156412 -0.000535557 1.97278e-06
-0.000535557 0.000234888 -2.60545e-07
1.97278e-06 -2.60545e-07 -0.000123593
0.00192618 -0.00038319 -2.79741e-06
-0.00038319 0.000198618 8.57667e-07
-2.79741e-06 8.57667e-07 -1.07239e-05
0.00209628 -0.000372556 2.35017e-06
-0.000372556 0.000155075 -8.85965e-07
2.35017e-06 -8.85965e-07 2.26583e-05
0.0022504 -0.000607904 -5.75854e-07
-0.000607904 0.000463952 -8.1841e-07
-5.75854e-07 -8.1841e-07 0.000148323
0.00205273 -0.00049369 5.23584e-07
-0.00049369 0.000223697 2.68508e-08
5.23584e-07 2.68508e-08 8.26088e-06
0.00212822 -0.000565519 7.55299e-07
-0.000565519 0.000281864 8.72228e-07
7.55299e-07 8.72228e-07 5.08113e-05
0.000647213 -0.000212241 3.72447e-07
-0.000212241 6.71316e-05 -6.24468e-07
3.72447e-07 -6.24468e-07 -0.000192064
0.000712262 -0.00021745 1.20099e-06
-0.00021745 8.67067e-05 8.89625e-07
1.20099e-06 8.89625e-07 -0.000190438
0.000731162 -0.000152971 5.59207e-07
-0.000152971 0.000180116 9.48021e-08
5.59207e-07 9.48021e-08 -4.86177e-05
0.0018255 -5.76729e-05 1.77735e-06
-5.76729e-05 4.33447e-05 -1.32855e-07
1.77735e-06 -1.32855e-07 -5.59233e-05
0.00197933 -0.000191413 -5.80805e-07
-0.000191413 0.000139968 6.07221e-07
-5.80805e-07 6.07221e-07 2.1736e-05
0.00200684 -0.000135447 7.17549e-06
-0.000135447 3.59905e-05 -8.11502e-07
7.17549e-06 -8.11502e-07 -2.05673e-05
0.00207474 -0.000307081 2.0879e-06
-0.000307081 0.000105923 -9.19426e-07
2.0879e-06 -9.19426e-07 8.39617e-06
0.00198443 -0.000440103 -5.74719e-08
-0.000440103 0.000127603 1.42058e-06
-5.74719e-08 1.42058e-06 -4.43134e-05
0.00212325 -0.000391024 3.89973e-06
-0.000391024 0.000107208 -1.25499e-06
3.89973e-06 -1.25499e-06 1.84201e-05
0.000615614 -0.000242349 7.32052e-06
-0.000242349 -4.06748e-06 -7.9279e-06
7.32052e-06 -7.9279e-06 -0.000246658
0.00201542 -0.000520031 9.7103e-07
-0.000520031 0.000153097 7.82579e-07
9.7103e-07 7.82579e-07 -3.56558e-05
0.00140005 -0.00050135 1.06572e-05
-0.00050135 0.000286075 -3.4967e-06
1.06572e-05 -3.4967e-06 -8.21291e-05
0.0019504 -0.000681362 7.33136e-06
-0.000681362 0.00036791 2.33448e-06
7.33136e-06 2.33448e-06 -2.93628e-05
0.00231277 -0.000636252 6.38838e-06
-0.000636252 0.00046288 3.48799e-06
6.38838e-06 3.48799e-06 0.000164844
0.00233307 -0.000595839 -1.67575e-07
-0.000595839 0.000423738 1.92294e-06
-1.67575e-07 1.92294e-06 0.000198898
0.000432955 -0.000119394 -5.62791e-07
-0.000119394 1.30154e-05 -5.7938e-06
-5.62791e-07 -5.7938e-06 -0.000183997
0.00133258 -0.000334889 2.16488e-07
-0.000334889 0.000410804 -4.77855e-06
2.16488e-07 -4.77855e-06 0.000130832
0.000578087 -0.000219007 -1.10956e-06
-0.000219007 0.000120072 5.25769e-06
-1.10956e-06 5.25769e-06 -0.000214445
0.00181541 -0.000421607 -4.53278e-06
-0.000421607 0.000741232 3.12345e-06
-4.53278e-06 3.12345e-06 0.00041083
0.00119171 0.00023781 -1.2729e-05
0.00023781 -2.43436e-05 -4.68999e-06
-1.2729e-05 -4.68999e-06 -0.000220746
0.000320585 -2.27778e-05 4.02086e-07
-2.27778e-05 -8.86737e-05 -1.40149e-05
4.02086e-07 -1.40149e-05 -0.000155329
0.000436049 0.00011386 -2.26748e-05
0.00011386 -7.4923e-05 -1.46506e-05
-2.26748e-05 -1.46506e-05 -0.00016487
-3.97265e-05 0.000113817 -3.47309e-06
0.000113817 -0.000312185 -1.79063e-06
-3.47309e-06 -1.79063e-06 -0.000527219
0.0011098 0.000294298 -2.04342e-05
0.000294298 1.14021e-05 -7.78317e-06
-2.04342e-05 -7.78317e-06 -0.00021706
0.00191451 0.000449795 -3.76808e-06
0.000449795 0.000213028 3.24425e-07
-3.76808e-06 3.24425e-07 -3.36694e-05
0.000569448 0.000216978 -7.107e-06
0.000216978 -3.26169e-05 -3.66148e-06
-7.107e-06 -3.66148e-06 -0.000252284
0.00137038 0.000468751 -4.69992e-06
0.000468751 0.000267952 1.70558e-07
-4.69992e-06 1.70558e-07 -7.85011e-05
0.00188409 0.000527655 -6.15517e-06
0.000527655 0.000355528 8.94963e-07
-6.15517e-06 8.94963e-07 4.24803e-05
0.00155865 0.000584718 3.98217e-06
0.000584718 0.00013983 8.13091e-06
3.98217e-06 8.13091e-06 -0.00020152
0.000444539 -2.57246e-05 -3.75001e-06
-2.57246e-05 -1.86559e-05 8.80471e-07
-3.75001e-06 8.80471e-07 -7.13716e-05
0.000640159 0.000211268 -1.43153e-06
0.000211268 8.27744e-05 -7.41662e-07
-1.43153e-06 -7.41662e-07 -0.000153501
0.000638126 8.70133e-05 1.08874e-06
8.70133e-05 9.86834e-05 -4.1101e-07
1.08874e-06 -4.1101e-07 -6.29292e-05
0.000801871 0.000202198 -6.47045e-07
0.000202198 0.000194856 2.41556e-07
-6.47045e-07 2.41556e-07 -6.75418e-05
0.0019916 0.000398891 -1.4628e-06
0.000398891 0.000201465 -1.18755e-06
-1.4628e-06 -1.18755e-06 -7.87402e-06
0.00187648 0.000497255 -5.13181e-07
0.000497255 0.000266908 -2.55828e-07
-5.13181e-07 -2.55828e-07 -1.69069e-05
0.00209575 0.000516012 2.29419e-07
0.000516012 0.000242836 2.09195e-07
2.29419e-07 2.09195e-07 1.23827e-05
0.00117164 0.000372129 3.293e-06
0.000372129 0.000243206 -9.99844e-08
3.293e-06 -9.99844e-08 -6.0334e-05
0.00219508 0.000630907 5.32717e-07
0.000630907 0.000459068 5.6615e-07
5.32717e-07 5.6615e-07 0.000142104
0.00168143 0.000608301 -1.08726e-06
0.000608301 0.000365611 -1.88922e-06
-1.08726e-06 -1.88922e-06 -3.89175e-05
0.00199115 0.000618535 -4.95986e-06
0.000618535 0.000330267 2.22909e-06
-4.95986e-06 2.22909e-06 7.75871e-06
0.000543574 -1.56276e-05 2.08737e-06
-1.56276e-05 2.96599e-05 9.44293e-06
2.08737e-06 9.44293e-06 -1.00876e-05
0.000940232 7.73448e-05 1.34327e-06
7.73448e-05 0.000295458 7.6449e-06
1.34327e-06 7.6449e-06 0.000165168
0.000734944 0.000250371 -3.44195e-07
0.000250371 4.49509e-05 2.20321e-06
-3.44195e-07 2.20321e-06 -0.000206521
0.0015191 0.00018549 1.22513e-06
0.00018549 0.000726798 -1.2108e-06
1.22513e-06 -1.2108e-06 0.000446883
0.00109554 0.000287223 -2.85659e-06
0.000287223 0.000325892 4.6553e-06
-2.85659e-06 4.6553e-06 8.22e-05
0.00216414 0.000459872 8.08031e-08
0.000459872 0.000212959 -3.11523e-06
8.08031e-08 -3.11523e-06 2.67611e-05
0.00210438 0.000582453 -1.19048e-06
0.000582453 0.000315993 -1.7566e-06
-1.19048e-06 -1.7566e-06 3.79865e-05
0.00211517 0.000565023 -2.64343e-06
0.000565023 0.000235247 -1.60939e-06
-2.64343e-06 -1.60939e-06 9.80718e-06
0.00147857 0.000558621 4.6863e-06
0.000558621 0.000414012 -1.3513e-06
4.6863e-06 -1.3513e-06 6.64139e-06
0.00237461 0.000692692 -3.40182e-06
0.000692692 0.000508621 -2.43788e-06
-3.40182e-06 -2.43788e-06 0.000193473
0.00166577 0.000655856 6.93879e-06
0.000655856 0.000288452 -4.67552e-06
6.93879e-06 -4.67552e-06 -0.000106685
0.00056142 5.31193e-05 1.63153e-06
5.31193e-05 6.11499e-05 5.83611e-06
1.63153e-06 5.83611e-06 -2.98801e-05
0.000674879 0.000114986 -6.50715e-07
0.000114986 0.000181888 3.22319e-06
-6.50715e-07 3.22319e-06 3.82937e-05
0.00059344 6.2505e-05 1.42981e-06
6.2505e-05 9.23527e-05 4.96925e-06
1.42981e-06 4.96925e-06 1.24119e-05
0.000523817 1.58186e-05 -6.80033e-07
1.58186e-05 4.31974e-05 -5.86001e-08
-6.80033e-07 -5.86001e-08 -4.13373e-05
0.00138828 -2.98168e-05 1.60981e-06
-2.98168e-05 0.000560941 4.8154e-06
1.60981e-06 4.8154e-06 0.000534841
0.000919588 -2.26575e-05 2.3817e-07
-2.26575e-05 0.000264435 -1.64051e-07
2.3817e-07 -1.64051e-07 0.000233222
0.000848732 -4.63938e-05 3.85526e-05
-4.63938e-05 0.000221069 1.01061e-05
3.85526e-05 1.01061e-05 0.000218104
0.00299946 -0.000128936 8.37485e-06
-0.000128936 0.00160453 -7.99567e-07
8.37485e-06 -7.99567e-07 0.00160124
0.00324106 -0.000155715 -5.07069e-05
-0.000155715 0.00177033 -4.55414e-06
-5.07069e-05 -4.55414e-06 0.0017596
0.000378259 -7.63198e-05 1.08908e-05
-7.63198e-05 -5.83393e-05 -1.24355e-05
1.08908e-05 -1.24355e-05 -0.000122343
0.00465904 0.000175953 0.000111924
0.000175953 0.00269998 -1.24129e-05
0.000111924 -1.24129e-05 0.00267726
0.000519801 -0.000122895 -9.3313e-07
-0.000122895 1.20363e-05 8.50436e-07
-9.3313e-07 8.50436e-07 -7.48801e-05
0.00555674 0.000136503 -5.68429e-06
0.000136503 0.00326126 -5.45686e-08
-5.68429e-06 -5.45686e-08 0.00324572
0.000487379 -0.000148921 -2.12579e-05
-0.000148921 -3.87475e-05 1.67852e-05
-2.12579e-05 1.67852e-05 -0.000140538
0.00634644 0.000114276 -0.000230317
0.000114276 0.0037453 2.6046e-05
-0.000230317 2.6046e-05 0.00373315
0.00116954 0.000197752 -9.59973e-06
0.000197752 -5.59792e-05 -3.00325e-06
-9.59973e-06 -3.00325e-06 -0.000234604
0.00115872 0.000120524 -1.1372e-05
0.000120524 -5.59198e-05 -1.07016e-06
-1.1372e-05 -1.07016e-06 -0.0002032
0.0019577 0.000261162 -1.18018e-06
0.000261162 0.000111026 1.25548e-06
-1.18018e-06 1.25548e-06 -2.9751e-05
0.00192654 0.000114166 -1.24371e-06
0.000114166 9.35863e-05 1.20828e-06
-1.24371e-06 1.20828e-06 -3.12774e-06
0.00103356 4.10427e-05 -1.09111e-05
4.10427e-05 -9.78872e-05 -7.47653e-08
-1.09111e-05 -7.47653e-08 -0.000227688
0.000364541 2.88186e-05 -1.87279e-05
2.88186e-05 -0.000227989 -6.18661e-07
-1.87279e-05 -6.18661e-07 -0.000306526
0.00104089 2.55115e-09 -4.54542e-08
2.55115e-09 -8.43563e-05 -3.9415e-08
-4.54542e-08 -3.9415e-08 -0.000211761
0.00188755 5.74412e-05 -5.18758e-08
5.74412e-05 6.75952e-05 1.79571e-07
-5.18758e-08 1.79571e-07 -2.10562e-05
0.00196395 0.000187199 -1.04662e-07
0.000187199 0.000106033 -1.52138e-08
-1.04662e-07 -1.52138e-08 -8.91418e-06
0.00209585 0.000141395 -1.43665e-07
0.000141395 6.2715e-05 1.94343e-08
-1.43665e-07 1.94343e-08 2.39208e-05
0.00200662 0.000335829 -5.4254e-07
0.000335829 0.000164671 -9.36575e-09
-5.4254e-07 -9.36575e-09 -8.2632e-06
0.00207811 0.000295488 -3.55854e-07
0.000295488 9.34868e-05 3.35427e-07
-3.55854e-07 3.35427e-07 -7.89876e-06
0.00187695 -4.71919e-07 2.21346e-06
-4.71919e-07 6.78382e-05 1.11358e-07
2.21346e-06 1.11358e-07 -1.96375e-05
0.00206714 6.85269e-05 4.05001e-06
6.85269e-05 4.92945e-05 3.51424e-07
4.05001e-06 3.51424e-07 1.80072e-05
0.0020532 0.000213448 3.92736e-06
0.000213448 5.53201e-05 9.96989e-07
3.92736e-06 9.96989e-07 -7.62186e-06
0.00202587 0.000127163 5.53957e-06
0.000127163 9.61319e-07 8.32995e-07
5.53957e-06 8.32995e-07 -1.31583e-05
0.00216565 0.000387986 1.51473e-06
0.000387986 0.000175296 -7.06811e-07
1.51473e-06 -7.06811e-07 3.16957e-05
0.00212714 0.000310755 2.49044e-06
0.000310755 2.28843e-05 6.03054e-07
2.49044e-06 6.03054e-07 -2.03667e-05
0.00110821 -2.65485e-05 -1.17628e-05
-2.65485e-05 -4.57774e-05 7.06259e-07
-1.17628e-05 7.06259e-07 -0.000167096
0.001935 -0.000125725 -2.83394e-05
-0.000125725 0.000458507 2.93256e-06
-2.83394e-05 2.93256e-06 0.000326968
0.00196414 -0.000118961 -2.18235e-06
-0.000118961 0.000124816 -3.75771e-07
-2.18235e-06 -3.75771e-07 2.58622e-05
0.00191353 -0.000267167 -3.03513e-06
-0.000267167 0.000128025 6.88382e-07
-3.03513e-06 6.88382e-07 -2.77853e-05
0.000558865 -0.000231895 -2.65138e-05
-0.000231895 -2.49944e-05 2.15807e-05
-2.65138e-05 2.15807e-05 -0.000150671
0.000837792 -0.000286332 -1.29948e-05
-0.000286332 4.45184e-05 9.15939e-06
-1.29948e-05 9.15939e-06 -0.000208473
0.00156624 -0.000536335 -9.81782e-06
-0.000536335 0.000239052 2.05121e-06
-9.81782e-06 2.05121e-06 -0.000121858
0.00195506 -0.000383001 -4.39317e-06
-0.000383001 0.000220719 1.24366e-06
-4.39317e-06 1.24366e-06 8.53097e-06
0.00210522 -0.000374907 3.57726e-08
-0.000374907 0.000152983 -4.52493e-07
3.57726e-08 -4.52493e-07 2.66644e-05
0.00209062 -0.000496461 -1.23327e-06
-0.000496461 0.000249137 -1.10986e-06
-1.23327e-06 -1.10986e-06 3.30192e-05
0.00229539 -0.000615345 -3.0175e-06
-0.000615345 0.000488684 -4.17766e-06
-3.0175e-06 -4.17766e-06 0.000174999
0.00193752 -0.000552302 3.59185e-07
-0.000552302 0.000155413 -2.09949e-06
3.59185e-07 -2.09949e-06 -7.46977e-05
0.00101686 -0.000233043 -6.06068e-06
-0.000233043 0.000291663 5.5266e-06
-6.06068e-06 5.5266e-06 3.6943e-05
0.000360088 -0.000171651 2.48199e-06
-0.000171651 -0.000143472 -1.18548e-07
2.48199e-06 -1.18548e-07 -0.000415564
0.00047859 -0.000183783 -3.01564e-07
-0.000183783 2.13839e-05 1.1134e-06
-3.01564e-07 1.1134e-06 -0.000207904
0.00187517 -5.44896e-05 9.70605e-07
-5.44896e-05 7.28936e-05 -8.7456e-08
9.70605e-07 -8.7456e-08 -2.20972e-05
0.00193752 -0.000198231 -1.95071e-06
-0.000198231 0.000113442 8.21994e-08
-1.95071e-06 8.21994e-08 -6.04331e-06
0.00204896 -0.000133587 2.14077e-06
-0.000133587 5.69546e-05 -3.07462e-07
2.14077e-06 -3.07462e-07 6.8045e-06
0.00202708 -0.000296442 -1.24129e-06
-0.000296442 8.10435e-05 4.7894e-07
-1.24129e-06 4.7894e-07 -1.88321e-05
0.000746606 -0.000255938 9.31412e-07
-0.000255938 7.63128e-05 -3.59719e-07
9.31412e-07 -3.59719e-07 -0.00017222
0.00148723 -0.000513387 -7.00463e-07
-0.000513387 0.000335773 -3.91497e-07
-7.00463e-07 -3.91497e-07 -3.45785e-05
0.00187025 -0.000671948 5.18363e-07
-0.000671948 0.000332101 1.09513e-06
5.18363e-07 1.09513e-06 -6.75217e-05
0.00194617 -0.000435324 -1.07508e-06
-0.000435324 0.000109076 9.84509e-07
-1.07508e-06 9.84509e-07 -6.8641e-05
0.00212991 -0.00039637 5.22937e-07
-0.00039637 0.00010079 -3.39146e-07
5.22937e-07 -3.39146e-07 1.65644e-05
0.00217374 -0.000630865 -2.4748e-07
-0.000630865 0.00036216 3.77349e-07
-2.4748e-07 3.77349e-07 6.3477e-05
0.00201406 -0.000518943 -3.97119e-07
-0.000518943 0.000149457 8.12198e-07
-3.97119e-07 8.12198e-07 -3.92855e-05
0.00224761 -0.000579056 5.65043e-07
-0.000579056 0.000361437 -4.75537e-07
5.65043e-07 -4.75537e-07 0.000143249
0.00104345 -0.000317232 -1.47552e-06
-0.000317232 0.000239188 6.65786e-07
-1.47552e-06 6.65786e-07 -4.83765e-05
0.00106798 -0.000345224 -1.55349e-06
-0.000345224 0.000261874 2.23453e-06
-1.55349e-06 2.23453e-06 -5.81574e-05
0.000681481 -0.000137571 8.96883e-08
-0.000137571 0.000164931 -8.31096e-07
8.96883e-08 -8.31096e-07 -3.57823e-05
0.000129667 -0.000136073 2.06022e-06
-0.000136073 -0.000192801 -1.65266e-06
2.06022e-06 -1.65266e-06 -0.000496942
0.00207268 -7.1111e-05 6.34988e-06
-7.1111e-05 7.55486e-05 -3.69494e-07
6.34988e-06 -3.69494e-07 3.49371e-05
0.00198552 -0.00021694 4.62402e-06
-0.00021694 1.4712e-05 -1.13688e-06
4.62402e-06 -1.13688e-06 -5.92849e-05
0.00203018 -0.000125092 6.63377e-06
-0.000125092 4.13597e-05 -9.1806e-07
6.63377e-06 -9.1806e-07 2.97292e-05
0.00209817 -0.000319604 1.41766e-06
-0.000319604 3.05554e-05 -6.41229e-07
1.41766e-06 -6.41229e-07 -4.55446e-06
0.00202641 -0.000466711 -1.07997e-07
-0.000466711 0.000101415 -6.09319e-07
-1.07997e-07 -6.09319e-07 -3.96813e-05
0.00215498 -0.000413848 3.72398e-06
-0.000413848 7.52888e-05 -1.41265e-06
3.72398e-06 -1.41265e-06 8.74323e-06
0.0013733 -0.000432084 7.06472e-06
-0.000432084 0.000392726 -5.72801e-06
7.06472e-06 -5.72801e-06 5.35352e-05
0.00205547 -0.00055442 -2.03273e-06
-0.00055442 0.00014708 7.31299e-08
-2.03273e-06 7.31299e-08 -1.83904e-05
0.00170017 -0.000686886 -7.01273e-06
-0.000686886 0.00039548 4.38833e-06
-7.01273e-06 4.38833e-06 -5.07505e-05
0.00211236 -0.000739512 5.96426e-06
-0.000739512 0.000423497 2.75129e-06
5.96426e-06 2.75129e-06 1.9287e-05
0.00212801 -0.000638718 3.43992e-06
-0.000638718 0.000293237 3.592e-06
3.43992e-06 3.592e-06 3.45259e-06
0.00229567 -0.000615701 -9.37693e-06
-0.000615701 0.00035689 -1.77524e-06
-9.37693e-06 -1.77524e-06 0.000127271
0.000494664 -0.000125542 -1.82967e-06
-0.000125542 3.95663e-05 -6.63696e-06
-1.82967e-06 -6.63696e-06 -0.000112562
-6.71841e-05 -0.00014381 -2.99069e-06
-0.00014381 -0.000213218 -1.48031e-06
-2.99069e-06 -1.48031e-06 -0.000547461
0.00130764 -0.000453673 -1.92021e-06
-0.000453673 0.000384122 -3.07474e-06
-1.92021e-06 -3.07474e-06 2.17651e-05
0.00270164 -0.000459331 -3.25856e-06
-0.000459331 0.0013734 1.01254e-05
-3.25856e-06 1.01254e-05 0.00102912
0.00160696 -0.000465187 -1.58893e-05
-0.000465187 0.000612078 9.06398e-06
-1.58893e-05 9.06398e-06 0.000225198
0.000281831 -3.17294e-05 -1.47769e-06
-3.17294e-05 -0.000119037 -1.07859e-05
-1.47769e-06 -1.07859e-05 -0.000170539
0.00197012 0.000396681 -3.70382e-06
0.000396681 0.000188036 -3.01695e-07
-3.70382e-06 -3.01695e-07 -2.12741e-05
0.00026325 4.79582e-05 -5.5946e-07
4.79582e-05 -0.000126606 -6.72986e-06
-5.5946e-07 -6.72986e-06 -0.000284542
0.000321642 0.000205967 -7.01357e-06
0.000205967 -0.00014271 2.9787e-07
-7.01357e-06 2.9787e-07 -0.000360888
0.000617999 0.000191155 -9.71607e-07
0.000191155 6.08941e-05 2.78138e-06
-9.71607e-07 2.78138e-06 -0.000187643
0.00183486 0.000494826 -5.0942e-06
0.000494826 0.0002395 2.8535e-07
-5.0942e-06 2.8535e-07 -4.46226e-05
0.00207524 0.000512754 1.06977e-06
0.000512754 0.000233593 1.94988e-06
1.06977e-06 1.94988e-06 3.94604e-06
0.00138268 0.000408016 -2.24759e-06
0.000408016 0.000399154 -3.27965e-06
-2.24759e-06 -3.27965e-06 8.2917e-05
0.00156554 0.000605427 1.06821e-06
0.000605427 0.000287559 4.39896e-06
1.06821e-06 4.39896e-06 -0.000120686
0.00207257 0.000611265 1.90997e-06
0.000611265 0.000390828 3.98597e-06
1.90997e-06 3.98597e-06 7.53929e-05
0.00203965 0.000617435 5.36574e-06
0.000617435 0.000363095 1.11493e-05
5.36574e-06 1.11493e-05 4.61792e-05
0.000449838 -1.13983e-05 -8.54181e-07
-1.13983e-05 -2.81999e-05 2.77661e-07
-8.54181e-07 2.77661e-07 -6.72357e-05
0.000585424 5.65401e-05 -1.8959e-07
5.65401e-05 7.79465e-05 4.466e-07
-1.8959e-07 4.466e-07 -4.8229e-05
0.000910726 0.00028477 1.44009e-06
0.00028477 0.000164739 1.73032e-06
1.44009e-06 1.73032e-06 -8.94585e-05
0.000621802 0.000132186 7.79675e-07
0.000132186 0.000151329 -1.47592e-06
7.79675e-07 -1.47592e-06 -0.000115608
0.000427755 0.00020173 -1.37609e-06
0.00020173 -0.000124977 3.45415e-06
-1.37609e-06 3.45415e-06 -0.000346567
0.00213626 0.000458242 -1.91945e-06
0.000458242 0.000195884 -1.9579e-06
-1.91945e-06 -1.9579e-06 1.00531e-05
0.00206356 0.000577799 5.15554e-07
0.000577799 0.000293127 1.79706e-07
5.15554e-07 1.79706e-07 1.62045e-05
0.00205345 0.000561102 1.65864e-06
0.000561102 0.000198813 1.3572e-07
1.65864e-06 1.3572e-07 -2.63185e-05
0.0015196 0.00056271 1.79385e-06
0.00056271 0.00044448 -4.30467e-07
1.79385e-06 -4.30467e-07 3.28587e-05
0.00226589 0.000680535 2.57119e-06
0.000680535 0.000425582 4.73504e-07
2.57119e-06 4.73504e-07 0.00011076
0.00202057 0.000692774 -3.91803e-06
0.000692774 0.000514608 6.17e-08
-3.91803e-06 6.17e-08 0.00011439
0.000655373 5.90677e-05 8.226e-07
5.90677e-05 0.000120631 6.18035e-06
8.226e-07 6.18035e-06 1.7473e-05
0.00172279 0.000206215 -3.63053e-09
0.000206215 0.000862858 1.64868e-06
-3.63053e-09 1.64868e-06 0.000634813
0.0010636 0.000402246 -8.36098e-07
0.000402246 0.000255073 5.59878e-06
-8.36098e-07 5.59878e-06 -6.02685e-05
0.00113036 0.000148261 5.47053e-06
0.000148261 0.000397725 -2.12318e-06
5.47053e-06 -2.12318e-06 0.000136684
0.00301373 0.000422665 -4.33144e-06
0.000422665 0.00140452 7.79406e-08
-4.33144e-06 7.79406e-08 0.00114079
0.00212931 0.000483817 -3.93066e-06
0.000483817 0.000160575 -2.14608e-06
-3.93066e-06 -2.14608e-06 -1.18203e-05
0.00209121 0.000630876 -2.54117e-06
0.000630876 0.000274874 -1.34222e-06
-2.54117e-06 -1.34222e-06 2.72853e-08
0.00201314 0.000613462 3.99139e-06
0.000613462 0.000131714 -4.49706e-07
3.99139e-06 -4.49706e-07 -0.000105476
0.00115021 0.000600504 1.15137e-05
0.000600504 0.000233221 -4.93219e-06
1.15137e-05 -4.93219e-06 -0.000214236
0.00168645 0.000682387 1.21967e-05
0.000682387 0.000197395 -2.14357e-06
1.21967e-05 -2.14357e-06 -0.000164772
0.000582587 4.72481e-05 -3.76084e-07
4.72481e-05 7.25413e-05 1.53866e-07
-3.76084e-07 1.53866e-07 -1.68093e-05
0.000353505 7.94768e-05 9.73656e-07
7.94768e-05 -5.19151e-05 3.29784e-06
9.73656e-07 3.29784e-06 -0.000182956
0.000259966 6.61277e-05 -3.02101e-08
6.61277e-05 -9.9974e-05 -4.47447e-07
-3.02101e-08 -4.47447e-07 -0.000226077
0.00117362 0.000180703 -2.1142e-06
0.000180703 0.000504371 -1.506e-06
-2.1142e-06 -1.506e-06 0.000339818
0.000754818 0.00012896 3.24054e-07
0.00012896 0.000237046 3.19177e-06
3.24054e-07 3.19177e-06 0.000100818
0.000539802 7.01264e-05 1.88507e-06
7.01264e-05 6.39998e-05 4.21066e-06
1.88507e-06 4.21066e-06 -1.30469e-05
0.000519182 1.99712e-05 -8.12156e-07
1.99712e-05 4.62523e-05 -1.23305e-08
-8.12156e-07 -1.23305e-08 -3.29296e-05
0.00132544 -1.43753e-05 1.47745e-06
-1.43753e-05 0.000520278 4.17919e-06
1.47745e-06 4.17919e-06 0.000498277
0.000533369 3.49998e-05 -6.09233e-07
3.49998e-05 4.32239e-05 -5.527e-06
-6.09233e-07 -5.527e-06 -3.72967e-05
0.00139309 -2.30088e-05 -9.12045e-06
-2.30088e-05 0.000562935 -1.69606e-06
-9.12045e-06 -1.69606e-06 0.000538852
0.000769531 -3.28542e-05 3.65734e-05
-3.28542e-05 0.000164538 9.85277e-06
3.65734e-05 9.85277e-06 0.000166218
0.00142675 -2.90835e-05 -1.70286e-05
-2.90835e-05 0.000588133 -6.35563e-06
-1.70286e-05 -6.35563e-06 0.000560583
0.00181839 -7.6176e-05 3.73404e-05
-7.6176e-05 0.000841829 1.39048e-06
3.73404e-05 1.39048e-06 0.000841091
0.00290809 -0.000125664 -4.2841e-05
-0.000125664 0.00154543 -4.72017e-06
-4.2841e-05 -4.72017e-06 0.00154281
0.000283883 6.94412e-05 -5.4875e-06
6.94412e-05 -9.00955e-05 -9.71436e-06
-5.4875e-06 -9.71436e-06 -0.00015012
0.000407807 -5.68547e-05 -6.16832e-07
-5.68547e-05 -3.62266e-05 5.65407e-07
-6.16832e-07 5.65407e-07 -0.000106815
0.00377558 0.000191003 1.94884e-05
0.000191003 0.00212805 -7.56712e-06
1.94884e-05 -7.56712e-06 0.00210229
0.00481996 0.000136649 -1.68774e-05
0.000136649 0.00279603 -1.68466e-06
-1.68774e-05 -1.68466e-06 0.00278196
0.000533318 -0.000126851 -1.87127e-05
-0.000126851 1.62979e-05 1.42776e-05
-1.87127e-05 1.42776e-05 -7.35598e-05
0.00577766 0.000136719 -0.00019625
0.000136719 0.00340798 2.5662e-05
-0.00019625 2.5662e-05 0.00338876
0.00198929 0.000333479 -1.83868e-06
0.000333479 0.000155839 1.25016e-06
-1.83868e-06 1.25016e-06 -1.67614e-05
0.00191955 0.000185107 -8.30526e-07
0.000185107 8.2836e-05 1.17293e-06
-8.30526e-07 1.17293e-06 -3.22848e-05
0.0020915 0.000298751 -2.39895e-06
0.000298751 0.000102901 5.09446e-07
-2.39895e-06 5.09446e-07 3.77342e-08
0.00209081 0.000137853 -4.53237e-06
0.000137853 4.97826e-05 -6.6786e-07
-4.53237e-06 -6.6786e-07 1.48917e-05
0.00191474 5.94593e-05 -1.99395e-06
5.94593e-05 8.95836e-05 3.7401e-07
-1.99395e-06 3.7401e-07 9.49297e-07
0.00104945 4.7776e-06 -1.0647e-05
4.7776e-06 -7.88708e-05 1.57543e-07
-1.0647e-05 1.57543e-07 -0.000206165
0.00188254 2.5691e-06 9.60421e-08
2.5691e-06 7.20827e-05 1.42891e-07
9.60421e-08 1.42891e-07 -1.54645e-05
0.00206153 5.9744e-05 -7.01565e-07
5.9744e-05 4.84737e-05 -1.12297e-08
-7.01565e-07 -1.12297e-08 1.70448e-05
0.00208694 0.000214598 -5.11319e-09
0.000214598 7.29082e-05 2.45138e-07
-5.11319e-09 2.45138e-07 9.88296e-06
0.00203174 0.000127236 8.61673e-08
0.000127236 -1.64578e-06 5.0573e-08
8.61673e-08 5.0573e-08 -1.07195e-05
0.00212701 0.000387973 -4.11415e-07
0.000387973 0.000144391 1.29015e-07
-4.11415e-07 1.29015e-07 6.80563e-07
0.00211074 0.000303227 1.82025e-07
0.000303227 1.41613e-05 1.22224e-07
1.82025e-07 1.22224e-07 -2.9573e-05
0.00204617 -5.87523e-06 5.05016e-06
-5.87523e-06 4.65282e-05 1.30389e-07
5.05016e-06 1.30389e-07 1.31019e-05
0.00204513 5.53247e-05 4.83278e-06
5.53247e-05 2.24691e-05 2.8818e-07
4.83278e-06 2.8818e-07 2.33356e-05
0.00207999 0.00020437 1.9233e-06
0.00020437 2.5353e-06 2.35674e-07
1.9233e-06 2.35674e-07 -1.39883e-05
0.00212389 0.000132526 1.18566e-06
0.000132526 -7.73129e-06 3.61999e-07
1.18566e-06 3.61999e-07 1.07086e-05
0.00208277 0.000385756 1.00152e-06
0.000385756 5.87155e-05 2.98343e-07
1.00152e-06 2.98343e-07 -4.95614e-05
0.00228702 0.00030861 1.94054e-06
0.00030861 4.81543e-05 4.41414e-07
1.94054e-06 4.41414e-07 4.08216e-05
0.00191778 -5.12001e-05 -2.09697e-06
-5.12001e-05 9.84427e-05 -1.86248e-07
-2.09697e-06 -1.86248e-07 7.76034e-06
0.00190079 -0.0002033 -3.11757e-06
-0.0002033 8.83183e-05 -2.40252e-07
-3.11757e-06 -2.40252e-07 -3.20333e-05
0.00206005 -0.000131854 -2.68631e-06
-0.000131854 5.76839e-05 1.99153e-07
-2.68631e-06 1.99153e-07 1.36641e-05
0.00199099 -0.000286866 -3.65031e-06
-0.000286866 6.49635e-05 9.00041e-07
-3.65031e-06 9.00041e-07 -3.72362e-05
0.000726938 -0.000257213 -1.02809e-05
-0.000257213 6.00794e-05 9.27651e-06
-1.02809e-05 9.27651e-06 -0.000191333
0.00143619 -0.00050612 -1.10615e-05
-0.00050612 0.000305947 2.60163e-06
-1.10615e-05 2.60163e-06 -6.12535e-05
0.00167644 -0.000649599 1.49459e-06
-0.000649599 0.000230762 -2.09875e-06
1.49459e-06 -2.09875e-06 -0.000168917
0.00190761 -0.000430417 -2.16611e-06
-0.000430417 9.11095e-05 4.7891e-07
-2.16611e-06 4.7891e-07 -9.26771e-05
0.00211352 -0.000399967 -1.81382e-06
-0.000399967 8.03312e-05 6.43802e-07
-1.81382e-06 6.43802e-07 4.39855e-07
0.00201786 -0.000517926 -1.06542e-06
-0.000517926 0.000149906 5.97417e-07
-1.06542e-06 5.97417e-07 -3.87899e-05
0.00204282 -0.000631709 -4.88126e-06
-0.000631709 0.000267259 -3.29856e-06
-4.88126e-06 -3.29856e-06 -3.44515e-05
0.00211419 -0.000565901 5.66093e-06
-0.000565901 0.00027375 -3.93128e-06
5.66093e-06 -3.93128e-06 6.02409e-05
0.000825873 -0.000297229 -6.04021e-07
-0.000297229 0.000113571 3.2662e-06
-6.04021e-07 3.2662e-06 -0.000178621
0.00101628 -0.000317705 3.65697e-06
-0.000317705 0.0001992 5.81752e-08
3.65697e-06 5.81752e-08 -0.000109234
0.000981336 -0.000147545 -2.11659e-07
-0.000147545 0.000346274 5.4321e-06
-2.11659e-07 5.4321e-06 0.000143621
-0.000422512 -8.41127e-05 1.05626e-06
-8.41127e-05 -0.000566157 -6.55634e-06
1.05626e-06 -6.55634e-06 -0.000844001
0.0020741 -7.10666e-05 -2.23995e-07
-7.10666e-05 7.64649e-05 7.49768e-08
-2.23995e-07 7.49768e-08 3.59288e-05
0.00202 -0.000218495 2.73136e-06
-0.000218495 4.28547e-05 -7.70176e-07
2.73136e-06 -7.70176e-07 -3.23268e-05
0.0020018 -0.000123744 8.28993e-07
-0.000123744 1.81333e-05 -1.9856e-07
8.28993e-07 -1.9856e-07 7.7418e-06
0.00209895 -0.000319089 -5.9454e-07
-0.000319089 3.82917e-05 1.5894e-07
-5.9454e-07 1.5894e-07 -2.83422e-06
0.00124462 -0.000403871 -2.92997e-06
-0.000403871 0.000294579 1.33342e-07
-2.92997e-06 1.33342e-07 -3.3087e-05
0.00160657 -0.00066528 1.38656e-06
-0.00066528 0.000350503 -2.19087e-07
1.38656e-06 -2.19087e-07 -8.9874e-05
0.00204468 -0.000747046 -5.40469e-07
-0.000747046 0.000379612 4.41302e-07
-5.40469e-07 4.41302e-07 -3.16503e-05
0.00199812 -0.000460147 -1.26773e-06
-0.000460147 9.03595e-05 4.60483e-07
-1.26773e-06 4.60483e-07 -5.50212e-05
0.00212025 -0.000412638 1.03888e-06
-0.000412638 5.47096e-05 -2.99744e-07
1.03888e-06 -2.99744e-07 -7.64206e-06
0.00212881 -0.000642278 -4.41242e-07
-0.000642278 0.000318743 4.18316e-07
-4.41242e-07 4.18316e-07 2.68021e-05
0.00201497 -0.00055367 -9.12976e-07
-0.00055367 0.000114389 9.48862e-07
-9.12976e-07 9.48862e-07 -5.16658e-05
0.00218764 -0.000604564 3.80974e-06
-0.000604564 0.000282383 -4.34511e-06
3.80974e-06 -4.34511e-06 5.93619e-05
0.00147711 -0.000472744 -9.15878e-07
-0.000472744 0.000495529 -1.26259e-06
-9.15878e-07 -1.26259e-06 0.00012901
0.00138428 -0.000439831 -1.30535e-06
-0.000439831 0.000456235 1.55695e-06
-1.30535e-06 1.55695e-06 8.09119e-05
0.00100902 -0.000301299 1.89875e-06
-0.000301299 0.000296678 -9.0147e-07
1.89875e-06 -9.0147e-07 -2.26587e-05
0.000297493 -9.65099e-05 -2.48927e-06
-9.65099e-05 -8.6279e-05 1.06188e-06
-2.48927e-06 1.06188e-06 -0.000239465
-5.51602e-05 -0.000107531 -1.19382e-06
-0.000107531 -0.00022991 -1.26563e-06
-1.19382e-06 -1.26563e-06 -0.000542864
0.00199072 -7.0469e-05 4.21404e-06
-7.0469e-05 -8.4412e-06 -1.9329e-07
4.21404e-06 -1.9329e-07 -6.34457e-06
0.00203998 -0.000191135 2.99421e-06
-0.000191135 -5.55047e-06 -6.80744e-07
2.99421e-06 -6.80744e-07 -1.4966e-05
0.00217044 -0.000378345 4.86149e-07
-0.000378345 -3.9962e-06 -4.08368e-07
4.86149e-07 -4.08368e-07 -1.94607e-05
0.00214059 -0.00048675 1.44166e-06
-0.00048675 8.89205e-05 -1.77021e-06
1.44166e-06 -1.77021e-06 5.1571e-06
0.00143799 -0.000563565 -4.29784e-06
-0.000563565 0.000396891 3.54351e-07
-4.29784e-06 3.54351e-07 -2.05157e-05
0.0022938 -0.000667722 -7.7009e-06
-0.000667722 0.000190279 -5.08445e-06
-7.7009e-06 -5.08445e-06 -2.771e-06
0.00138662 -0.000731439 -2.20916e-05
-0.000731439 0.000203257 8.24869e-06
-2.20916e-05 8.24869e-06 -0.000267987
0.00218188 -0.000810811 6.14438e-07
-0.000810811 0.00042652 1.00956e-06
6.14438e-07 1.00956e-06 3.06459e-06
0.00199852 -0.00061421 -1.44721e-05
-0.00061421 0.000234848 7.90575e-07
-1.44721e-05 7.90575e-07 -4.12068e-05
8.69191e-05 -2.18047e-05 -2.54916e-06
-2.18047e-05 -0.000203937 -5.85992e-06
-2.54916e-06 -5.85992e-06 -0.000322836
0.00100276 -0.000170429 -3.66141e-06
-0.000170429 0.000456001 -1.01571e-06
-3.66141e-06 -1.01571e-06 0.000173638
0.000934828 -0.000251938 -1.09974e-06
-0.000251938 0.000365496 -3.59222e-06
-1.09974e-06 -3.59222e-06 4.88228e-05
0.00191906 -0.000587257 -1.66729e-05
-0.000587257 0.000761072 5.43945e-06
-1.66729e-05 5.43945e-06 0.000335765
0.00202936 -0.000392787 -2.43868e-06
-0.000392787 0.000882181 1.01861e-05
-2.43868e-06 1.01861e-05 0.000537588
0.000669871 -0.000409523 -1.80151e-05
-0.000409523 -2.76324e-05 1.73628e-05
-1.80151e-05 1.73628e-05 -0.000412437
0.000374393 -9.03892e-06 -2.65657e-06
-9.03892e-06 -7.49409e-05 -8.85763e-06
-2.65657e-06 -8.85763e-06 -0.000113359
0.000449487 4.17779e-05 -4.14801e-07
4.17779e-05 -2.11335e-06 -7.85309e-06
-4.14801e-07 -7.85309e-06 -0.000124828
0.00211235 0.000456741 -3.01993e-06
0.000456741 0.00018171 -4.98695e-07
-3.01993e-06 -4.98695e-07 -3.75439e-06
-0.000152869 4.54037e-05 2.21402e-07
4.54037e-05 -0.000341908 -6.03203e-07
2.21402e-07 -6.03203e-07 -0.000600049
0.00140259 0.000319588 8.82741e-07
0.000319588 0.00047426 -1.47683e-07
8.82741e-07 -1.47683e-07 0.000224481
6.14268e-05 0.000149337 -4.19532e-06
0.000149337 -0.000380775 9.40376e-07
-4.19532e-06 9.40376e-07 -0.000588721
0.00202637 0.000572959 2.13854e-06
0.000572959 0.000273925 2.01282e-06
2.13854e-06 2.01282e-06 -1.78192e-06
0.00200237 0.000557928 2.73453e-06
0.000557928 0.000168758 1.19581e-06
2.73453e-06 1.19581e-06 -5.61413e-05
0.00153463 0.000559918 -6.65279e-07
0.000559918 0.000462486 9.53794e-07
-6.65279e-07 9.53794e-07 4.8685e-05
0.00230776 0.000714996 -5.12506e-06
0.000714996 0.000702957 4.40539e-06
-5.12506e-06 4.40539e-06 0.000304309
0.00214651 0.000668535 1.88325e-06
0.000668535 0.000334904 3.29855e-06
1.88325e-06 3.29855e-06 2.01871e-05
0.000614183 5.33806e-05 -2.14514e-07
5.33806e-05 9.71329e-05 5.5224e-07
-2.14514e-07 5.5224e-07 -5.21713e-06
0.000751656 9.74881e-05 -1.25393e-06
9.74881e-05 0.000242555 -1.17398e-07
-1.25393e-06 -1.17398e-07 3.16312e-05
0.00116104 0.000418093 8.80532e-07
0.000418093 0.000299503 2.07958e-06
8.80532e-07 2.07958e-06 -2.16885e-05
0.000765091 0.000113487 1.0942e-06
0.000113487 0.000162734 -1.27286e-06
1.0942e-06 -1.27286e-06 -9.34339e-05
0.000872721 0.000240925 3.7293e-06
0.000240925 4.42168e-05 -2.38516e-06
3.7293e-06 -2.38516e-06 -0.000182829
0.00206912 0.000481967 -2.29582e-06
0.000481967 0.00013054 -1.38439e-06
-2.29582e-06 -1.38439e-06 -4.29594e-05
0.00213128 0.000634293 2.04303e-06
0.000634293 0.000294689 6.3141e-07
2.04303e-06 6.3141e-07 1.91768e-05
0.00206211 0.000613695 1.18006e-06
0.000613695 0.000156987 1.91267e-07
1.18006e-06 1.91267e-07 -7.90381e-05
0.00143488 0.00064605 2.17785e-06
0.00064605 0.000388259 7.1834e-07
2.17785e-06 7.1834e-07 -6.49781e-05
0.00181665 0.000699893 -1.97861e-06
0.000699893 0.000295205 -2.0518e-06
-1.97861e-06 -2.0518e-06 -7.48111e-05
0.00126376 0.000150902 1.37659e-06
0.000150902 0.000547367 3.52801e-06
1.37659e-06 3.52801e-06 0.000380793
-0.000287693 1.41729e-05 -7.74913e-07
1.41729e-05 -0.000366973 6.71554e-07
-7.74913e-07 6.71554e-07 -0.000636555
0.00139528 0.000505457 -4.50941e-07
0.000505457 0.000442817 -3.44952e-06
-4.50941e-07 -3.44952e-06 6.20437e-05
4.64307e-06 0.000164789 5.60773e-06
0.000164789 -0.000462148 3.7689e-07
5.60773e-06 3.7689e-07 -0.000689642
0.00232121 0.0005544 -4.0649e-07
0.0005544 0.000906381 -4.17216e-06
-4.0649e-07 -4.17216e-06 0.000581569
0.00205861 0.000529075 -4.1436e-07
0.000529075 2.91925e-05 -4.08077e-07
-4.1436e-07 -4.08077e-07 -0.000111592
0.00219375 0.0006972 9.30747e-06
0.0006972 0.000293785 -2.50792e-06
9.30747e-06 -2.50792e-06 -1.27854e-05
0.00216726 0.000651174 9.59504e-06
0.000651174 0.000179752 1.35241e-06
9.59504e-06 1.35241e-06 -7.56742e-05
0.00166077 0.000698118 1.32891e-05
0.000698118 0.000470565 -1.63759e-07
1.32891e-05 -1.63759e-07 1.68269e-05
0.00212699 0.00080869 4.86486e-06
0.00080869 0.000498202 -7.33046e-07
4.86486e-06 -7.33046e-07 8.59079e-05
0.000556776 3.88653e-05 -1.30949e-06
3.88653e-05 5.47609e-05 -5.952e-06
-1.30949e-06 -5.952e-06 -3.31141e-05
0.000521603 9.2376e-05 1.21062e-06
9.2376e-05 5.84871e-05 4.46864e-08
1.21062e-06 4.46864e-08 -7.58505e-05
0.000244438 7.40308e-05 -4.18645e-07
7.40308e-05 -0.000118966 9.85651e-07
-4.18645e-07 9.85651e-07 -0.000239482
-6.05605e-05 -2.09132e-05 1.28885e-06
-2.09132e-05 -0.000297338 -4.01937e-06
1.28885e-06 -4.01937e-06 -0.000423085
0.000599838 7.36288e-05 -6.28336e-07
7.36288e-05 0.00013823 1.83847e-07
-6.28336e-07 1.83847e-07 6.19438e-06
0.000493935 0.000101877 2.00431e-07
0.000101877 6.32615e-05 -1.64811e-07
2.00431e-07 -1.64811e-07 -7.79899e-05
0.000641042 0.000145205 -2.47647e-06
0.000145205 0.000167246 -5.05569e-06
-2.47647e-06 -5.05569e-06 2.81328e-05
0.000322142 4.43875e-05 -2.94481e-06
4.43875e-05 -2.54603e-05 1.73776e-07
-2.94481e-06 1.73776e-07 -0.000176704
0.000686575 0.000105426 -9.89888e-08
0.000105426 0.000181609 2.85776e-06
-9.89888e-08 2.85776e-06 6.35584e-05
0.000549385 7.71403e-05 2.79375e-06
7.71403e-05 7.25387e-05 4.09981e-06
2.79375e-06 4.09981e-06 -5.83987e-06
0.000510483 2.69819e-05 -2.69182e-06
2.69819e-05 4.29362e-05 5.73072e-08
-2.69182e-06 5.73072e-08 -3.23659e-05
0.00128346 9.72557e-07 2.06483e-06
9.72557e-07 0.000496809 3.6496e-06
2.06483e-06 3.6496e-06 0.000477049
0.000387367 -6.96668e-05 3.78272e-06
-6.96668e-05 -2.8201e-05 -4.65752e-06
3.78272e-06 -4.65752e-06 -0.000111616
0.00135255 -1.02827e-05 -7.93626e-06
-1.02827e-05 0.000536993 -1.71221e-06
-7.93626e-06 -1.71221e-06 0.000516419
0.000734737 -2.35352e-05 3.16017e-05
-2.35352e-05 0.000141253 9.63332e-06
3.16017e-05 9.63332e-06 0.000145375
0.00141118 -1.84542e-05 -1.46824e-05
-1.84542e-05 0.000573426 -8.04573e-06
-1.46824e-05 -8.04573e-06 0.000550528
0.000756725 -3.90209e-05 1.31965e-05
-3.90209e-05 0.000156514 3.62225e-06
1.31965e-05 3.62225e-06 0.000155406
0.00271408 -0.000119662 -9.07453e-07
-0.000119662 0.00141447 -3.19688e-06
-9.07453e-07 -3.19688e-06 0.00141237
0.000276946 6.56886e-05 -4.39074e-06
6.56886e-05 -0.000103542 -6.2219e-06
-4.39074e-06 -6.2219e-06 -0.000147631
0.000395425 3.55962e-06 -3.66563e-06
3.55962e-06 -3.64047e-05 3.17757e-07
-3.66563e-06 3.17757e-07 -8.96755e-05
0.00314042 0.000166423 -4.01471e-06
0.000166423 0.00171874 -7.46373e-06
-4.01471e-06 -7.46373e-06 0.00170209
0.000559438 -8.88604e-05 -1.29665e-05
-8.88604e-05 5.1166e-05 1.24077e-05
-1.29665e-05 1.24077e-05 -2.07722e-05
0.00409231 0.000142451 -3.68363e-05
0.000142451 0.00232153 -7.71856e-08
-3.68363e-05 -7.71856e-08 0.00230857
0.00510293 0.000107331 -0.000175699
0.000107331 0.00296788 2.0751e-05
-0.000175699 2.0751e-05 0.00296011
0.00208864 0.000387829 -2.41106e-06
0.000387829 0.000114133 1.07292e-06
-2.41106e-06 1.07292e-06 -2.96754e-05
0.00212807 0.000214693 -3.63263e-06
0.000214693 9.68893e-05 -4.72773e-07
-3.63263e-06 -4.72773e-07 3.40982e-05
0.00209084 0.000295031 -8.71413e-07
0.000295031 3.92458e-06 -2.39402e-08
-8.71413e-07 -2.39402e-08 -4.02774e-05
0.00203932 0.000127477 -1.88606e-06
0.000127477 -2.80665e-06 -3.67756e-07
-1.88606e-06 -3.67756e-07 -6.89511e-06
0.0020536 5.24382e-05 -5.74175e-06
5.24382e-05 4.62103e-05 -1.15493e-07
-5.74175e-06 -1.15493e-07 1.45239e-05
0.00188659 4.94923e-06 -2.15273e-06
4.94923e-06 7.44105e-05 2.27955e-07
-2.15273e-06 2.27955e-07 -1.31685e-05
0.00205579 -6.99041e-06 -8.01659e-08
-6.99041e-06 5.751e-05 1.90196e-08
-8.01659e-08 1.90196e-08 2.24861e-05
0.00204248 5.60774e-05 1.24598e-06
5.60774e-05 2.39646e-05 3.82159e-08
1.24598e-06 3.82159e-08 2.12071e-05
0.00209439 0.000202461 -1.71049e-07
0.000202461 1.56306e-05 -4.45358e-08
-1.71049e-07 -4.45358e-08 7.17884e-07
0.00210832 0.000133648 6.25787e-07
0.000133648 -2.25369e-05 1.80228e-07
6.25787e-07 1.80228e-07 2.53281e-06
0.00210175 0.000386593 -4.8184e-07
0.000386593 8.02996e-05 2.95002e-07
-4.8184e-07 2.95002e-07 -3.02086e-05
0.00221862 0.000308849 2.66744e-06
0.000308849 3.86304e-06 3.38687e-07
2.66744e-06 3.38687e-07 3.35482e-06
0.00199674 -1.32096e-05 4.01334e-06
-1.32096e-05 1.69244e-06 2.33812e-07
4.01334e-06 2.33812e-07 -3.34196e-06
0.00211902 6.37892e-05 -2.73497e-07
6.37892e-05 -2.16057e-05 6.7898e-08
-2.73497e-07 6.7898e-08 1.38111e-05
0.00218885 0.000204896 -1.19368e-06
0.000204896 -1.61757e-05 -3.62961e-07
-1.19368e-06 -3.62961e-07 6.90374e-06
0.00225572 0.000423834 -9.51136e-07
0.000423834 2.9856e-05 3.70187e-07
-9.51136e-07 3.70187e-07 2.48234e-06
0.00207594 -7.11721e-05 -6.57743e-06
-7.11721e-05 7.71994e-05 4.85656e-07
-6.57743e-06 4.85656e-07 3.67136e-05
0.00205133 -0.000220738 -1.70835e-06
-0.000220738 6.94424e-05 2.10577e-07
-1.70835e-06 2.10577e-07 -7.04904e-06
0.00197187 -0.000122742 -4.7807e-06
-0.000122742 -5.99047e-06 7.71228e-07
-4.7807e-06 7.71228e-07 -1.52904e-05
0.00210548 -0.000318991 -5.25178e-06
-0.000318991 4.78867e-05 1.15528e-06
-5.25178e-06 1.15528e-06 8.85185e-07
0.001013 -0.000386997 -7.32938e-06
-0.000386997 0.000138753 3.22501e-06
-7.32938e-06 3.22501e-06 -0.000186925
0.00157826 -0.00065246 1.34498e-05
-0.00065246 0.000340351 -4.5125e-06
1.34498e-05 -4.5125e-06 -9.59491e-05
0.00204785 -0.000762465 -3.35209e-06
-0.000762465 0.000378219 -2.55703e-06
-3.35209e-06 -2.55703e-06 -4.20529e-05
0.00197385 -0.000454146 -3.7367e-06
-0.000454146 8.13566e-05 1.34107e-06
-3.7367e-06 1.34107e-06 -6.79922e-05
0.00209392 -0.000412333 -2.92039e-07
-0.000412333 3.9322e-05 1.24212e-06
-2.92039e-07 1.24212e-06 -1.86445e-05
0.00199174 -0.000555053 -2.27415e-07
-0.000555053 9.01359e-05 1.86962e-06
-2.27415e-07 1.86962e-06 -7.67826e-05
0.00207456 -0.000628295 -3.59849e-06
-0.000628295 0.000305943 -2.30004e-06
-3.59849e-06 -2.30004e-06 1.77579e-05
0.00218238 -0.000597004 1.42677e-05
-0.000597004 0.000267425 -6.1611e-06
1.42677e-05 -6.1611e-06 5.04713e-05
0.000959739 -0.000408944 -3.91244e-07
-0.000408944 0.000175337 8.45794e-07
-3.91244e-07 8.45794e-07 -0.000174698
0.00134006 -0.000441053 1.78238e-05
-0.000441053 0.000409622 -7.83692e-06
1.78238e-05 -7.83692e-06 4.02326e-05
0.000128598 -0.000165621 2.16974e-07
-0.000165621 -0.000254883 -1.20275e-05
2.16974e-07 -1.20275e-05 -0.00056046
0.000102316 -8.7331e-05 3.84579e-07
-8.7331e-05 -0.00021039 5.07852e-06
3.84579e-07 5.07852e-06 -0.00036524
0.00016933 -8.59084e-05 4.91432e-06
-8.59084e-05 -0.000103251 2.83907e-08
4.91432e-06 2.83907e-08 -0.000404053
0.00197757 -7.88794e-05 1.17934e-07
-7.88794e-05 -1.86741e-05 -1.62575e-07
1.17934e-07 -1.62575e-07 -1.77591e-05
0.00207256 -0.000192513 1.48532e-06
-0.000192513 1.12905e-05 -1.38857e-08
1.48532e-06 -1.38857e-08 1.87605e-06
0.00217655 -0.000371925 -6.55054e-07
-0.000371925 1.6792e-05 7.73954e-08
-6.55054e-07 7.73954e-08 -4.03213e-06
0.00153018 -0.000572846 -1.3027e-06
-0.000572846 0.000453774 -6.84978e-07
-1.3027e-06 -6.84978e-07 3.56664e-05
0.0015232 -0.000728546 3.793e-06
-0.000728546 0.000285703 -8.1896e-07
3.793e-06 -8.1896e-07 -0.000181714
0.00218321 -0.000819829 -3.71491e-07
-0.000819829 0.000433863 -3.66293e-07
-3.71491e-07 -3.66293e-07 3.6344e-06
0.00212258 -0.000482771 4.49918e-07
-0.000482771 8.16793e-05 5.90286e-08
4.49918e-07 5.90286e-08 -4.63758e-06
0.00216659 -0.000649746 2.59111e-06
-0.000649746 0.000308032 -3.92091e-06
2.59111e-06 -3.92091e-06 2.80085e-05
0.00221024 -0.000645563 -1.4387e-06
-0.000645563 0.00017268 -2.69336e-07
-1.4387e-06 -2.69336e-07 -1.44453e-05
3.07703e-05 4.44113e-05 -1.94728e-06
4.44113e-05 -0.000250294 -9.40825e-07
-1.94728e-06 -9.40825e-07 -0.000357728
0.00134563 -0.000512496 8.30534e-08
-0.000512496 0.000403466 -1.99354e-06
8.30534e-08 -1.99354e-06 -1.04903e-06
0.00151277 -0.000511331 -4.1392e-06
-0.000511331 0.000520373 1.57449e-06
-4.1392e-06 1.57449e-06 0.000104348
0.00165935 -0.000374998 -1.12166e-06
-0.000374998 0.000682833 2.45588e-06
-1.12166e-06 2.45588e-06 0.000321658
0.00129273 -0.000293569 1.69408e-06
-0.000293569 0.000581746 -2.08147e-06
1.69408e-06 -2.08147e-06 0.000258658
0.000416826 -9.07273e-05 -9.31886e-07
-9.07273e-05 7.49251e-05 1.27637e-06
-9.31886e-07 1.27637e-06 -0.000192397
0.00207564 -0.000101466 9.12875e-07
-0.000101466 -3.11695e-05 1.75302e-07
9.12875e-07 1.75302e-07 -4.78447e-06
0.00224028 -0.000259298 2.79369e-08
-0.000259298 -2.87828e-05 1.71691e-07
2.79369e-08 1.71691e-07 1.35547e-05
0.00225099 -0.000458133 4.8524e-07
-0.000458133 1.31564e-05 -4.55986e-07
4.8524e-07 -4.55986e-07 1.14556e-05
0.00228446 -0.000579176 4.51288e-07
-0.000579176 7.49406e-05 -2.8974e-06
4.51288e-07 -2.8974e-06 1.05479e-05
0.00173825 -0.00067315 -1.54507e-05
-0.00067315 0.000543742 6.57628e-06
-1.54507e-05 6.57628e-06 8.68357e-05
0.00248964 -0.000764342 -9.72903e-06
-0.000764342 0.000391759 -7.45481e-06
-9.72903e-06 -7.45481e-06 0.000130264
0.00193532 -0.000855425 -4.95947e-05
-0.000855425 0.000508805 7.61118e-06
-4.95947e-05 7.61118e-06 -2.77663e-06
0.00231786 -0.000877807 -2.97812e-05
-0.000877807 0.000531957 1.23509e-06
-2.97812e-05 1.23509e-06 8.14628e-05
-9.69751e-05 5.05624e-05 -6.23447e-06
5.05624e-05 -0.000334116 -2.81036e-06
-6.23447e-06 -2.81036e-06 -0.000414735
0.000955083 -2.6163e-06 -3.69607e-06
-2.6163e-06 0.000396108 2.94543e-08
-3.69607e-06 2.94543e-08 0.000202197
0.00197347 -0.000303806 -6.7731e-06
-0.000303806 0.00107282 -4.85381e-08
-6.7731e-06 -4.85381e-08 0.000756268
0.000755547 -0.000185121 1.94019e-08
-0.000185121 0.000188742 -6.03723e-06
1.94019e-08 -6.03723e-06 -0.000135368
0.00290886 -0.000732957 -2.53728e-05
-0.000732957 0.00134482 1.47884e-05
-2.53728e-05 1.47884e-05 0.000878567
0.00170053 -0.000509126 -2.98801e-06
-0.000509126 0.000685334 2.11759e-05
-2.98801e-06 2.11759e-05 0.000227976
0.000547539 3.86752e-05 -1.01919e-06
3.86752e-05 5.63052e-05 -6.34663e-06
-1.01919e-06 -6.34663e-06 -4.46335e-05
-0.000335047 2.89524e-05 9.48003e-07
2.89524e-05 -0.000445431 -7.59327e-07
9.48003e-07 -7.59327e-07 -0.000641862
0.00200336 0.000480318 -1.69762e-06
0.000480318 9.55118e-05 -8.02384e-07
-1.69762e-06 -8.02384e-07 -7.92303e-05
0.000297019 8.32104e-05 -2.52174e-06
8.32104e-05 -0.000138835 2.81591e-06
-2.52174e-06 2.81591e-06 -0.000387585
0.00133987 0.000444227 -9.38125e-07
0.000444227 0.000394026 -5.29663e-06
-9.38125e-07 -5.29663e-06 6.5258e-05
-0.00115567 4.36301e-05 -5.87321e-06
4.36301e-05 -0.00123639 -3.42782e-06
-5.87321e-06 -3.42782e-06 -0.00141172
0.00217027 0.000637995 3.44595e-06
0.000637995 0.000312509 1.93203e-06
3.44595e-06 1.93203e-06 3.62179e-05
0.00208985 0.000611636 -5.89081e-06
0.000611636 0.00016896 3.37374e-07
-5.89081e-06 3.37374e-07 -6.55813e-05
0.00182268 0.00070324 -6.12472e-06
0.00070324 0.000607928 4.5098e-06
-6.12472e-06 4.5098e-06 0.000145261
0.00201556 0.000724801 -7.77678e-06
0.000724801 0.000437636 1.47945e-06
-7.77678e-06 1.47945e-06 5.68611e-05
0.000826915 0.000113524 -6.12123e-07
0.000113524 0.000261447 3.44151e-08
-6.12123e-07 3.44151e-08 0.000108114
0.000459132 0.000101291 1.79819e-06
0.000101291 9.62147e-05 -4.49505e-07
1.79819e-06 -4.49505e-07 -0.000187998
0.00130415 0.000487833 -3.65199e-06
0.000487833 0.000382977 -1.24156e-06
-3.65199e-06 -1.24156e-06 8.38695e-06
0.000856555 0.000196284 1.04659e-07
0.000196284 5.81694e-05 -2.72909e-07
1.04659e-07 -2.72909e-07 -0.000167292
0.0018917 0.000457087 2.0919e-06
0.000457087 0.000618218 -2.64217e-06
2.0919e-06 -2.64217e-06 0.000323715
0.00221835 0.000545377 -2.48159e-06
0.000545377 0.000113197 -8.43347e-07
-2.48159e-06 -8.43347e-07 -2.91833e-05
0.00234297 0.00069743 2.8517e-06
0.00069743 0.000390193 -6.04051e-07
2.8517e-06 -6.04051e-07 9.06287e-05
0.00234307 0.000674106 1.79117e-06
0.000674106 0.000280117 2.75672e-06
1.79117e-06 2.75672e-06 2.09815e-05
0.00159977 0.00069608 4.24789e-06
0.00069608 0.00043563 1.12679e-06
4.24789e-06 1.12679e-06 -2.16231e-05
0.00200684 0.000822092 -4.87708e-06
0.000822092 0.000429587 4.83164e-07
-4.87708e-06 4.83164e-07 3.38756e-06
-0.00107725 1.05725e-05 -4.60761e-06
1.05725e-05 -0.000919216 6.6262e-06
-4.60761e-06 6.6262e-06 -0.00106655
-0.000869027 0.000205901 1.37062e-06
0.000205901 -0.000671675 8.85993e-07
1.37062e-06 8.85993e-07 -0.00100046
0.00154164 0.000552844 5.15364e-06
0.000552844 0.000483347 -2.75878e-06
5.15364e-06 -2.75878e-06 9.01339e-05
0.000517569 0.000286308 4.72749e-06
0.000286308 -0.000256122 -1.46944e-06
4.72749e-06 -1.46944e-06 -0.000504359
0.00248294 0.000551213 4.83765e-06
0.000551213 -3.22539e-05 1.9401e-06
4.83765e-06 1.9401e-06 -4.37984e-06
0.00267196 0.000673367 8.51754e-06
0.000673367 0.000400639 1.04373e-06
8.51754e-06 1.04373e-06 0.000195618
0.0022705 0.000805673 8.12196e-06
0.000805673 0.000363076 -3.69217e-06
8.12196e-06 -3.69217e-06 -1.36484e-05
0.00168318 0.000798044 2.67136e-06
0.000798044 0.000346561 -1.26134e-06
2.67136e-06 -1.26134e-06 -0.000136402
0.000865594 0.000138906 -5.32802e-07
0.000138906 0.000287746 -3.01628e-06
-5.32802e-07 -3.01628e-06 0.000141538
0.000490398 0.000131772 -1.70586e-06
0.000131772 5.19264e-05 -9.54949e-07
-1.70586e-06 -9.54949e-07 -8.29521e-05
0.00133542 0.000124356 -8.78207e-06
0.000124356 0.000588558 -3.9029e-06
-8.78207e-06 -3.9029e-06 0.000483588
0.000464913 4.76253e-05 1.15972e-07
4.76253e-05 2.74481e-05 -3.25364e-06
1.15972e-07 -3.25364e-06 -8.56563e-05
-0.000308954 4.23918e-05 5.01997e-07
4.23918e-05 -0.000435875 -1.44103e-06
5.01997e-07 -1.44103e-06 -0.00056552
0.000605864 5.602e-05 -7.81127e-07
5.602e-05 0.000132264 2.05961e-07
-7.81127e-07 2.05961e-07 1.35853e-05
0.00050062 0.00014399 7.6559e-07
0.00014399 0.000100576 1.04021e-06
7.6559e-07 1.04021e-06 -3.79939e-05
0.000485039 6.77349e-05 7.40311e-07
6.77349e-05 9.0366e-05 3.27061e-07
7.40311e-07 3.27061e-07 -7.27692e-05
0.000652182 0.000124566 4.91266e-06
0.000124566 0.000131184 -3.63162e-06
4.91266e-06 -3.63162e-06 4.60088e-05
0.000732193 3.01633e-05 2.647e-06
3.01633e-05 0.000237725 -4.73863e-06
2.647e-06 -4.73863e-06 8.22228e-05
0.000129645 7.03874e-05 -3.43061e-07
7.03874e-05 -0.000143889 2.65718e-06
-3.43061e-07 2.65718e-06 -0.000294734
0.000670314 0.000116742 1.94382e-06
0.000116742 0.000172288 4.04028e-06
1.94382e-06 4.04028e-06 5.05906e-05
0.000455995 8.19053e-05 2.79184e-06
8.19053e-05 2.01652e-05 3.98389e-06
2.79184e-06 3.98389e-06 -6.4372e-05
0.000445653 1.80661e-05 -1.55698e-06
1.80661e-05 4.75535e-06 -3.48261e-07
-1.55698e-06 -3.48261e-07 -7.13774e-05
0.00123933 8.25252e-06 1.04359e-06
8.25252e-06 0.000474569 3.17502e-06
1.04359e-06 3.17502e-06 0.000455173
0.000433579 -4.20497e-05 8.71349e-07
-4.20497e-05 -8.10634e-06 -3.58214e-06
8.71349e-07 -3.58214e-06 -8.11543e-05
0.00132607 -4.40981e-06 -7.52954e-06
-4.40981e-06 0.000523399 -1.71835e-06
-7.52954e-06 -1.71835e-06 0.00050459
0.000720228 -1.3761e-05 2.88578e-05
-1.3761e-05 0.000134482 9.48629e-06
2.88578e-05 9.48629e-06 0.00013965
0.00137001 -1.7898e-05 -1.11065e-05
-1.7898e-05 0.000548159 -7.33613e-06
-1.11065e-05 -7.33613e-06 0.000528329
0.000741765 -2.82906e-05 1.14118e-05
-2.82906e-05 0.000144109 3.61449e-06
1.14118e-05 3.61449e-06 0.000146326
0.000734778 -4.1152e-05 7.43244e-07
-4.1152e-05 0.000142447 -3.57e-06
7.43244e-07 -3.57e-06 0.000140101
0.000370304 4.61699e-05 -1.88965e-06
4.61699e-05 -6.78919e-05 -4.30795e-06
-1.88965e-06 -4.30795e-06 -9.65711e-05
0.000387244 7.02782e-05 -6.48369e-07
7.02782e-05 -3.361e-05 2.95682e-07
-6.48369e-07 2.95682e-07 -7.93647e-05
0.00263753 0.000126312 3.71659e-06
0.000126312 0.00138745 -5.70927e-06
3.71659e-06 -5.70927e-06 0.00138195
0.000497647 1.93175e-06 -6.94518e-06
1.93175e-06 2.89502e-05 1.05478e-05
-6.94518e-06 1.05478e-05 -2.67672e-05
0.00328436 0.000162448 -2.20279e-05
0.000162448 0.00180743 -2.26037e-06
-2.20279e-05 -2.26037e-06 0.00179138
0.00426324 8.36779e-05 -0.000144241
8.36779e-05 0.00242412 1.5233e-05
-0.000144241 1.5233e-05 0.00242507
0.00212317 0.000387317 -7.92235e-07
0.000387317 0.000104126 4.09241e-07
-7.92235e-07 4.09241e-07 -8.54424e-06
0.00211136 0.000201248 -3.85408e-06
0.000201248 2.92539e-05 -7.10634e-07
-3.85408e-06 -7.10634e-07 1.58909e-05
0.00214606 0.000308774 9.71211e-07
0.000308774 -4.34651e-05 7.1241e-07
9.71211e-07 7.1241e-07 -3.71928e-05
0.0020894 0.000134911 7.294e-07
0.000134911 -4.01489e-05 -8.5151e-08
7.294e-07 -8.5151e-08 -8.2041e-06
0.00203914 5.70125e-05 -3.84464e-06
5.70125e-05 2.47256e-05 -3.712e-07
-3.84464e-06 -3.712e-07 1.84563e-05
0.0020696 -1.00076e-05 -7.28047e-06
-1.00076e-05 7.12302e-05 5.14411e-08
-7.28047e-06 5.14411e-08 3.47028e-05
0.00200867 -1.15574e-05 1.48206e-07
-1.15574e-05 1.04523e-05 -1.97746e-08
1.48206e-07 -1.97746e-08 6.20694e-06
0.00210159 6.65648e-05 1.12468e-06
6.65648e-05 -2.83856e-05 1.22984e-07
1.12468e-06 1.22984e-07 5.1479e-06
0.00218279 0.000211595 1.09091e-06
0.000211595 -2.14819e-05 2.10616e-07
1.09091e-06 2.10616e-07 5.27127e-06
0.00225009 0.000412124 5.45703e-07
0.000412124 1.94556e-05 1.53105e-07
5.45703e-07 1.53105e-07 -6.2291e-06
0.00206864 -1.67948e-05 -7.49588e-07
-1.67948e-05 -3.82775e-05 1.04822e-07
-7.49588e-07 1.04822e-07 -1.09659e-05
0.00222947 0.000118107 -2.63847e-06
0.000118107 -6.42072e-05 -4.23078e-07
-2.63847e-06 -4.23078e-07 1.0631e-05
0.00241782 0.000320572 8.42104e-07
0.000320572 -2.0516e-06 -3.70744e-07
8.42104e-07 -3.70744e-07 4.52275e-05
0.00196473 -8.71573e-05 -3.80942e-06
-8.71573e-05 -2.87547e-05 1.81146e-07
-3.80942e-06 1.81146e-07 -2.8927e-05
0.00210569 -0.000193325 -3.24184e-06
-0.000193325 2.92398e-05 5.06813e-07
-3.24184e-06 5.06813e-07 1.97988e-05
0.00217566 -0.00036475 -1.95546e-06
-0.00036475 3.40517e-05 5.54731e-07
-1.95546e-06 5.54731e-07 7.16831e-06
0.00167099 -0.000589761 2.87356e-06
-0.000589761 0.000535936 -1.21417e-06
2.87356e-06 -1.21417e-06 0.000115431
0.00155086 -0.000706502 2.49083e-05
-0.000706502 0.000308129 -8.13622e-06
2.49083e-05 -8.13622e-06 -0.000148955
0.00199616 -0.000807577 1.06853e-06
-0.000807577 0.000338215 4.17717e-08
1.06853e-06 4.17717e-08 -9.28418e-05
0.00210402 -0.000478771 -1.49974e-06
-0.000478771 7.35951e-05 1.51257e-06
-1.49974e-06 1.51257e-06 -1.52554e-05
0.00215573 -0.00062545 8.61973e-06
-0.00062545 0.000171623 2.9652e-06
8.61973e-06 2.9652e-06 -7.82923e-06
0.00225353 -0.000683679 1.41634e-05
-0.000683679 0.000335619 -6.91811e-06
1.41634e-05 -6.91811e-06 5.13702e-05
0.000975924 -0.000459786 9.00738e-06
-0.000459786 0.000171715 -6.58562e-06
9.00738e-06 -6.58562e-06 -0.00021893
0.00169807 -0.000550904 2.06586e-05
-0.000550904 0.000650809 -1.72687e-05
2.06586e-05 -1.72687e-05 0.00022647
0.00101776 -0.000381138 -2.45033e-06
-0.000381138 0.000316265 -9.54013e-06
-2.45033e-06 -9.54013e-06 -6.31769e-05
0.000213855 3.92497e-05 4.17747e-06
3.92497e-05 -0.000138693 1.93698e-06
4.17747e-06 1.93698e-06 -0.000241608
0.00189116 -0.000323955 2.65576e-06
-0.000323955 0.000921987 4.39915e-06
2.65576e-06 4.39915e-06 0.000608043
-0.000340654 4.71136e-06 7.03052e-06
4.71136e-06 -0.000413564 -1.00271e-07
7.03052e-06 -1.00271e-07 -0.000665065
0.00209122 -9.87161e-05 -5.70554e-07
-9.87161e-05 -2.13286e-05 1.36745e-07
-5.70554e-07 1.36745e-07 2.99754e-06
0.00221109 -0.000267656 1.11552e-07
-0.000267656 -5.06244e-05 -1.15193e-07
1.11552e-07 -1.15193e-07 -6.40972e-06
0.00223975 -0.000450008 -6.61656e-07
-0.000450008 1.15463e-05 3.37019e-07
-6.61656e-07 3.37019e-07 7.41086e-06
0.00179437 -0.000677775 -7.4652e-07
-0.000677775 0.000594258 8.66861e-07
-7.4652e-07 8.66861e-07 0.000136228
0.00136676 -0.000777569 6.36589e-06
-0.000777569 0.000180936 -2.30355e-06
6.36589e-06 -2.30355e-06 -0.000310262
0.00245181 -0.000869772 -3.41094e-06
-0.000869772 0.000610271 -4.24497e-07
-3.41094e-06 -4.24497e-07 0.00017543
0.00225415 -0.000588147 2.77115e-07
-0.000588147 5.9352e-05 -3.95937e-07
2.77115e-07 -3.95937e-07 -1.33089e-05
0.00199145 -0.000702888 2.46022e-06
-0.000702888 0.000121749 -8.89206e-07
2.46022e-06 -8.89206e-07 -0.000121649
0.000226922 6.04886e-05 -1.90455e-06
6.04886e-05 -0.000131189 -1.37579e-06
-1.90455e-06 -1.37579e-06 -0.000208507
0.000656227 -3.70134e-05 -9.73059e-07
-3.70134e-05 0.000196658 9.94847e-07
-9.73059e-07 9.94847e-07 1.26509e-05
0.000962396 -0.00051139 -2.9346e-06
-0.00051139 0.000140449 1.90012e-06
-2.9346e-06 1.90012e-06 -0.000266188
0.00134327 -0.000442309 -5.81514e-06
-0.000442309 0.000473335 1.39937e-06
-5.81514e-06 1.39937e-06 2.33881e-05
0.00158067 -0.000239378 -8.8287e-07
-0.000239378 0.00069492 -1.63198e-06
-8.8287e-07 -1.63198e-06 0.000363149
0.00106757 -0.000214594 -2.96645e-07
-0.000214594 0.000491221 1.79756e-06
-2.96645e-07 1.79756e-06 0.000187326
0.00220358 -0.000136725 -2.03686e-06
-0.000136725 -6.33925e-05 1.16124e-06
-2.03686e-06 1.16124e-06 1.18345e-05
0.00235549 -0.000385046 -2.01953e-06
-0.000385046 -9.19789e-05 8.8071e-07
-2.01953e-06 8.8071e-07 7.1307e-06
0.00233911 -0.000554158 2.32166e-06
-0.000554158 1.55664e-05 -1.08571e-06
2.32166e-06 -1.08571e-06 1.68914e-05
0.0024077 -0.000753996 5.75739e-06
-0.000753996 0.000166256 -4.21702e-06
5.75739e-06 -4.21702e-06 1.22152e-05
0.0010013 -0.000621782 -1.25861e-05
-0.000621782 0.000103662 -7.20988e-06
-1.25861e-05 -7.20988e-06 -0.000347147
0.00275062 -0.000952186 -7.68497e-06
-0.000952186 0.000691011 -1.42175e-06
-7.68497e-06 -1.42175e-06 0.000283646
0.00242252 -0.000990831 -5.58243e-05
-0.000990831 0.0007201 -2.00441e-06
-5.58243e-05 -2.00441e-06 0.000160578
0.000545757 4.47188e-05 -1.19488e-07
4.47188e-05 5.21917e-05 -6.71149e-08
-1.19488e-07 -6.71149e-08 -5.90251e-06
0.000724052 -0.00015253 3.87766e-06
-0.00015253 0.000229981 -1.17757e-06
3.87766e-06 -1.17757e-06 0.000109676
0.000294358 8.87656e-05 -8.83469e-06
8.87656e-05 -3.863e-05 -2.57324e-08
-8.83469e-06 -2.57324e-08 -0.000164437
0.000908565 -7.08589e-05 -4.80042e-06
-7.08589e-05 0.000381425 3.46484e-06
-4.80042e-06 3.46484e-06 0.000141784
-0.000223849 -0.0001602 2.16923e-06
-0.0001602 -0.000371339 -8.82733e-06
2.16923e-06 -8.82733e-06 -0.000657826
0.000339372 -0.000192571 6.86083e-06
-0.000192571 -2.29424e-05 -3.57065e-06
6.86083e-06 -3.57065e-06 -0.000439453
0.0011845 -0.000568649 -4.12526e-05
-0.000568649 0.00030025 2.93316e-05
-4.12526e-05 2.93316e-05 -0.000107402
0.00306397 -0.000579876 -3.2635e-05
-0.000579876 0.00172786 1.96454e-05
-3.2635e-05 1.96454e-05 0.00103155
0.000256827 5.8374e-05 -1.67648e-07
5.8374e-05 -0.000116479 -1.9013e-06
-1.67648e-07 -1.9013e-06 -0.000249788
0.00115127 0.000250291 -7.18787e-07
0.000250291 0.000508522 2.54946e-07
-7.18787e-07 2.54946e-07 0.000217615
0.00237545 0.000561972 -2.26125e-06
0.000561972 0.000195682 -1.2877e-06
-2.26125e-06 -1.2877e-06 5.14297e-05
0.000456731 0.000195346 -4.6692e-06
0.000195346 -0.000178516 -9.33871e-08
-4.6692e-06 -9.33871e-08 -0.00042593
0.00120115 0.000470333 -2.43579e-06
0.000470333 0.000315967 -7.46157e-08
-2.43579e-06 -7.46157e-08 -5.44036e-05
0.00180679 0.000400372 -6.3762e-06
0.000400372 0.000545702 -1.7199e-06
-6.3762e-06 -1.7199e-06 0.00027087
0.00246927 0.000693345 -7.22993e-06
0.000693345 0.000474497 -1.22868e-07
-7.22993e-06 -1.22868e-07 0.000183399
0.00250009 0.000695433 -1.06962e-05
0.000695433 0.000370088 5.28117e-06
-1.06962e-05 5.28117e-06 0.000107853
0.00160036 0.000705046 -5.59955e-06
0.000705046 0.000432649 1.73977e-06
-5.59955e-06 1.73977e-06 -2.93849e-05
0.0018272 0.000830471 -7.96148e-06
0.000830471 0.00032386 1.73304e-07
-7.96148e-06 1.73304e-07 -0.000114254
-0.000212597 7.30274e-05 1.24014e-06
7.30274e-05 -0.000366717 1.38881e-06
1.24014e-06 1.38881e-06 -0.000542518
0.000120932 0.000286449 2.98113e-07
0.000286449 -5.56606e-05 -2.39867e-06
2.98113e-07 -2.39867e-06 -0.000391804
0.00156783 0.000567202 2.03807e-06
0.000567202 0.000478 1.99608e-07
2.03807e-06 1.99608e-07 7.54615e-05
0.00181412 0.000407317 -4.36633e-06
0.000407317 0.000582298 1.60553e-06
-4.36633e-06 1.60553e-06 0.000308508
0.00244443 0.000528799 6.17425e-07
0.000528799 -7.95052e-05 -9.04333e-07
6.17425e-07 -9.04333e-07 -3.78953e-05
0.0025825 0.000676326 3.33316e-06
0.000676326 0.000346764 1.63652e-09
3.33316e-06 1.63652e-09 0.000132624
0.00217843 0.000781134 -2.68877e-06
0.000781134 0.000328982 5.91268e-09
-2.68877e-06 5.91268e-09 -3.85201e-05
0.00191976 0.000817759 1.25705e-06
0.000817759 0.000466442 1.44845e-07
1.25705e-06 1.44845e-07 -1.22575e-05
-0.000530368 3.71338e-05 -3.77438e-06
3.71338e-05 -0.000551258 4.92123e-06
-3.77438e-06 4.92123e-06 -0.000721345
0.00231869 0.000397452 1.18136e-05
0.000397452 -0.000194656 3.13739e-06
1.18136e-05 3.13739e-06 -0.000104097
0.00289277 0.000581631 7.64458e-06
0.000581631 0.00161493 9.27474e-06
7.64458e-06 9.27474e-06 0.00124427
0.0013941 0.000549313 3.84857e-06
0.000549313 0.000290949 -4.20681e-06
3.84857e-06 -4.20681e-06 -8.27109e-05
0.00256775 0.000658468 -1.26806e-05
0.000658468 0.000145021 -7.80625e-06
-1.26806e-05 -7.80625e-06 9.0573e-05
0.00128569 0.000729186 4.2244e-06
0.000729186 -0.000293672 -8.82123e-06
4.2244e-06 -8.82123e-06 -0.000639468
0.00282704 0.000947111 1.62873e-06
0.000947111 0.000928202 3.52012e-06
1.62873e-06 3.52012e-06 0.000419656
0.000721377 0.000132738 -1.26155e-06
0.000132738 0.000199445 -2.952e-06
-1.26155e-06 -2.952e-06 6.07474e-05
0.000583141 0.000123035 -3.71836e-06
0.000123035 0.000141623 -1.50646e-06
-3.71836e-06 -1.50646e-06 2.99449e-05
0.000779405 0.000104874 -2.88169e-06
0.000104874 0.000279443 4.52216e-06
-2.88169e-06 4.52216e-06 0.000206693
0.000466779 9.13204e-06 1.38955e-06
9.13204e-06 4.47954e-05 -3.88708e-06
1.38955e-06 -3.88708e-06 -7.36356e-05
0.000604206 8.94256e-05 2.7608e-06
8.94256e-05 0.000168889 -1.70747e-06
2.7608e-06 -1.70747e-06 1.51185e-06
-0.000511232 0.000101405 -3.17716e-06
0.000101405 -0.000496377 6.66979e-06
-3.17716e-06 6.66979e-06 -0.000624509
0.000536672 2.47798e-05 -1.59988e-06
2.47798e-05 9.23069e-05 1.24717e-08
-1.59988e-06 1.24717e-08 -3.2155e-05
0.000272604 -3.59986e-06 -8.57586e-07
-3.59986e-06 -3.80543e-05 -2.76957e-07
-8.57586e-07 -2.76957e-07 -0.000199523
4.02834e-05 6.58149e-05 -1.83548e-06
6.58149e-05 -0.000221802 2.41072e-06
-1.83548e-06 2.41072e-06 -0.000293748
0.000761254 0.000118939 1.16899e-06
0.000118939 0.000269873 -1.67663e-06
1.16899e-06 -1.67663e-06 0.000103132
0.00180653 0.000160274 -1.17749e-06
0.000160274 0.000842541 -1.72846e-06
-1.17749e-06 -1.72846e-06 0.000794942
0.000264674 2.97219e-05 1.05994e-05
2.97219e-05 -8.34653e-05 -8.42168e-06
1.05994e-05 -8.42168e-06 -0.000172244
0.000338188 0.000118572 6.72241e-07
0.000118572 1.41595e-05 3.08295e-06
6.72241e-07 3.08295e-06 -0.000160792
0.000558648 5.86e-05 1.25281e-06
5.86e-05 0.000132827 4.4031e-06
1.25281e-06 4.4031e-06 -3.92662e-05
0.000547158 2.9341e-05 2.16357e-06
2.9341e-05 8.77558e-05 3.52533e-06
2.16357e-06 3.52533e-06 -3.74596e-05
0.000484481 -6.39657e-05 -1.21742e-06
-6.39657e-05 3.34609e-05 3.16686e-06
-1.21742e-06 3.16686e-06 -5.06331e-05
0.000478298 1.34171e-05 4.88555e-07
1.34171e-05 2.42741e-05 -4.15788e-07
4.88555e-07 -4.15788e-07 -5.33662e-05
0.00131 2.96584e-05 3.47188e-06
2.96584e-05 0.000527036 3.40872e-06
3.47188e-06 3.40872e-06 0.000505682
0.000481613 8.47662e-06 5.9859e-07
8.47662e-06 1.63006e-05 -3.71281e-06
5.9859e-07 -3.71281e-06 -5.24763e-05
0.00132443 1.51893e-05 -7.4092e-06
1.51893e-05 0.000529036 -1.79593e-06
-7.4092e-06 -1.79593e-06 0.000509297
0.000744948 -6.75555e-06 2.39608e-05
-6.75555e-06 0.00015528 9.15048e-06
2.39608e-05 9.15048e-06 0.000159973
0.00134646 -1.12623e-05 -8.70853e-06
-1.12623e-05 0.000536006 -7.0295e-06
-8.70853e-06 -7.0295e-06 0.000517851
0.000763966 -1.86929e-05 9.0656e-06
-1.86929e-05 0.000159249 3.60235e-06
9.0656e-06 3.60235e-06 0.000162896
0.000755451 -3.07278e-05 5.73183e-07
-3.07278e-05 0.00015067 -3.12489e-06
5.73183e-07 -3.12489e-06 0.000152033
0.000617968 -1.53153e-05 1.52983e-06
-1.53153e-05 9.18045e-05 -1.30819e-06
1.52983e-06 -1.30819e-06 3.82351e-05
0.000386433 2.8275e-05 -1.72894e-07
2.8275e-05 -7.02163e-05 -3.76521e-06
-1.72894e-07 -3.76521e-06 -9.0478e-05
0.000406819 4.89419e-05 3.22639e-07
4.89419e-05 -4.22019e-05 2.77901e-07
3.22639e-07 2.77901e-07 -7.24172e-05
0.00243061 9.8598e-05 9.67165e-06
9.8598e-05 0.00124448 -4.89877e-06
9.67165e-06 -4.89877e-06 0.00124662
0.000461594 5.77917e-05 4.44203e-06
5.77917e-05 5.64697e-06 7.66489e-06
4.44203e-06 7.66489e-06 -3.7184e-05
0.00284128 0.000137843 -4.78122e-06
0.000137843 0.00151893 -5.53518e-07
-4.78122e-06 -5.53518e-07 0.00151077
0.00352051 0.000116998 -5.83868e-05
0.000116998 0.00194483 6.60039e-06
-5.83868e-05 6.60039e-06 0.00193848
0.0022507 0.000401335 1.00143e-06
0.000401335 1.27388e-05 6.51789e-08
1.00143e-06 6.51789e-08 -1.12303e-05
0.00218024 0.000218473 2.12759e-07
0.000218473 -2.34935e-05 3.48529e-07
2.12759e-07 3.48529e-07 6.38162e-06
0.00208458 7.0322e-05 3.40949e-07
7.0322e-05 -3.40525e-05 -1.1131e-07
3.40949e-07 -1.1131e-07 -2.61517e-06
0.00201886 -9.81717e-06 -4.15481e-06
-9.81717e-06 1.83713e-05 -2.98139e-07
-4.15481e-06 -2.98139e-07 1.48856e-05
0.0020777 -1.16491e-05 -9.58914e-07
-1.16491e-05 -3.3936e-05 -3.56344e-08
-9.58914e-07 -3.56344e-08 -3.86167e-06
0.00221761 0.000111663 4.64929e-08
0.000111663 -6.19418e-05 3.97779e-07
4.64929e-08 3.97779e-07 1.03773e-05
0.0023379 0.000327689 -1.17738e-06
0.000327689 -3.717e-05 -1.5035e-07
-1.17738e-06 -1.5035e-07 8.86789e-06
0.00219805 -1.13638e-05 -2.77164e-06
-1.13638e-05 -8.00312e-05 3.07631e-07
-2.77164e-06 3.07631e-07 4.50446e-06
0.00245373 0.000167317 2.54914e-06
0.000167317 -5.35806e-05 -1.40129e-06
2.54914e-06 -1.40129e-06 3.31115e-05
0.00260245 0.000126935 1.26429e-05
0.000126935 0.000106279 1.25559e-05
1.26429e-05 1.25559e-05 0.000200074
0.00210725 -9.65286e-05 -8.15681e-07
-9.65286e-05 -1.08689e-05 -1.29359e-07
-8.15681e-07 -1.29359e-07 1.13354e-05
0.00218491 -0.000277432 -4.10707e-07
-0.000277432 -7.19967e-05 -2.96505e-07
-4.10707e-07 -2.96505e-07 -2.53427e-05
0.00223511 -0.000441441 -2.20362e-08
-0.000441441 1.42072e-05 -1.84906e-07
-2.20362e-08 -1.84906e-07 8.34699e-06
0.00136155 -0.00063471 1.15075e-05
-0.00063471 0.000330586 -4.45676e-06
1.15075e-05 -4.45676e-06 -0.000120256
0.00194884 -0.000846163 3.53486e-05
-0.000846163 0.000515063 -2.76197e-06
3.53486e-05 -2.76197e-06 8.27387e-06
0.00201793 -0.000792779 1.59048e-05
-0.000792779 0.000371707 -1.99056e-06
1.59048e-05 -1.99056e-06 -3.57346e-05
0.00221943 -0.000594103 2.03379e-06
-0.000594103 4.5958e-05 2.97469e-06
2.03379e-06 2.97469e-06 -3.6291e-05
0.00192343 -0.000683171 1.31593e-05
-0.000683171 0.000103656 4.46345e-06
1.31593e-05 4.46345e-06 -0.000131788
0.000535656 -0.000450448 2.08823e-05
-0.000450448 -0.00011101 -2.16193e-05
2.08823e-05 -2.16193e-05 -0.00050935
0.00136812 -0.000421295 1.81512e-05
-0.000421295 0.000541217 -2.14601e-05
1.81512e-05 -2.14601e-05 7.82807e-05
0.00126721 -0.000164641 -3.99344e-06
-0.000164641 0.000462445 2.80165e-06
-3.99344e-06 2.80165e-06 0.000156133
0.000410113 1.6207e-05 2.7819e-06
1.6207e-05 -1.73551e-05 9.14437e-07
2.7819e-06 9.14437e-07 -9.04721e-05
0.000467649 2.43617e-05 7.7122e-06
2.43617e-05 6.97083e-05 7.75564e-07
7.7122e-06 7.75564e-07 -0.000106642
0.000304561 -0.000152421 1.93825e-06
-0.000152421 -7.18142e-06 7.33672e-06
1.93825e-06 7.33672e-06 -0.000296666
0.00221377 -0.000139445 5.67101e-07
-0.000139445 -6.62686e-05 -5.17565e-08
5.67101e-07 -5.17565e-08 1.1491e-05
0.000478028 7.14842e-06 1.86365e-06
7.14842e-06 9.69382e-06 3.53498e-07
1.86365e-06 3.53498e-07 -4.84339e-05
0.00038598 -7.75339e-05 -2.71704e-06
-7.75339e-05 -1.98708e-05 -6.77471e-07
-2.71704e-06 -6.77471e-07 -0.000117797
0.00232949 -0.000374139 -2.26399e-07
-0.000374139 -8.40538e-05 1.02649e-07
-2.26399e-07 1.02649e-07 3.72629e-06
0.00228863 -0.00053984 -1.87795e-06
-0.00053984 -3.69763e-06 4.12899e-07
-1.87795e-06 4.12899e-07 5.39981e-06
0.00184495 -0.000737141 -1.15161e-06
-0.000737141 0.000600673 2.09128e-06
-1.15161e-06 2.09128e-06 0.000115565
0.00193737 -0.000925973 1.01276e-05
-0.000925973 0.00046806 3.74481e-07
1.01276e-05 3.74481e-07 -8.24159e-05
0.00221365 -0.00089556 1.87955e-06
-0.00089556 0.000371431 -5.83361e-06
1.87955e-06 -5.83361e-06 -1.8304e-05
0.00236612 -0.000750391 2.91871e-06
-0.000750391 0.000142782 -9.28405e-07
2.91871e-06 -9.28405e-07 -6.21397e-06
0.000650316 1.02183e-05 -9.25017e-07
1.02183e-05 0.000193679 -1.40484e-06
-9.25017e-07 -1.40484e-06 6.37227e-05
0.000770532 -6.30733e-05 1.45624e-06
-6.30733e-05 0.000292436 2.15512e-06
1.45624e-06 2.15512e-06 5.52759e-05
0.00143993 -0.000572535 5.60512e-06
-0.000572535 0.000481088 6.75268e-06
5.60512e-06 6.75268e-06 5.74982e-05
0.00136426 -0.000432836 1.25459e-05
-0.000432836 0.000662139 -9.24321e-06
1.25459e-05 -9.24321e-06 6.84418e-05
0.000996768 -0.000182742 -1.05829e-08
-0.000182742 0.000320462 -2.65428e-07
-1.05829e-08 -2.65428e-07 -4.88719e-05
0.00015835 -0.000123545 8.87414e-07
-0.000123545 -0.000123181 -2.9112e-06
8.87414e-07 -2.9112e-06 -0.000419493
0.00221831 -0.000163584 6.52181e-07
-0.000163584 -0.000224194 8.76059e-07
6.52181e-07 8.76059e-07 -0.00011507
0.00233979 -0.000482896 -6.16358e-07
-0.000482896 -0.00023617 3.03151e-06
-6.16358e-07 3.03151e-06 -1.18831e-05
0.00258563 -0.000754362 -4.29121e-06
-0.000754362 0.000105277 -2.29588e-06
-4.29121e-06 -2.29588e-06 7.06522e-05
0.00259876 -0.000979768 1.27693e-05
-0.000979768 0.000361025 -5.90519e-06
1.27693e-05 -5.90519e-06 0.000106511
0.00120824 -0.000701947 -5.49029e-06
-0.000701947 0.000271877 -2.07701e-05
-5.49029e-06 -2.07701e-05 -0.000228729
0.00330804 -0.00117887 -1.33896e-05
-0.00117887 0.00113035 6.37504e-06
-1.33896e-05 6.37504e-06 0.000536217
0.000217174 5.84979e-05 -2.81911e-06
5.84979e-05 -0.000122259 -4.43565e-06
-2.81911e-06 -4.43565e-06 -0.000226875
0.000512123 -4.70633e-05 4.4739e-06
-4.70633e-05 6.61469e-05 9.23328e-07
4.4739e-06 9.23328e-07 -2.6895e-05
0.00130424 -0.000178998 -3.98326e-06
-0.000178998 0.000526471 1.65655e-05
-3.98326e-06 1.65655e-05 0.000402836
0.00038465 1.1404e-05 -4.64521e-06
1.1404e-05 8.36212e-06 5.47544e-06
-4.64521e-06 5.47544e-06 -0.000165444
0.000801036 -0.000119573 -5.26554e-06
-0.000119573 0.000294547 9.3031e-06
-5.26554e-06 9.3031e-06 3.62535e-05
0.00118253 -9.50182e-05 1.35922e-05
-9.50182e-05 0.000429792 -1.40388e-05
1.35922e-05 -1.40388e-05 0.00016308
-0.000880465 -0.000358654 -2.08497e-06
-0.000358654 -0.000340428 -9.87538e-07
-2.08497e-06 -9.87538e-07 -0.00120611
0.000219444 -0.000594635 -6.30361e-05
-0.000594635 -0.000307833 3.06468e-05
-6.30361e-05 3.06468e-05 -0.000680798
0.000421843 0.000104926 -1.08133e-06
0.000104926 6.11995e-05 -2.46365e-06
-1.08133e-06 -2.46365e-06 -0.000152591
0.001279 0.000329215 -1.13086e-05
0.000329215 0.000634117 -6.40865e-06
-1.13086e-05 -6.40865e-06 0.000313801
0.0024059 0.000505589 -8.82653e-06
0.000505589 -0.000118088 -2.35715e-06
-8.82653e-06 -2.35715e-06 -6.53702e-05
0.00256194 0.000684096 -8.38879e-06
0.000684096 0.000337656 -8.70188e-07
-8.38879e-06 -8.70188e-07 0.000113648
0.00341658 0.000515554 -6.28262e-06
0.000515554 0.00158087 1.78916e-06
-6.28262e-06 1.78916e-06 0.00129906
0.00153943 0.000572985 -6.02417e-06
0.000572985 0.000443728 -1.79224e-06
-6.02417e-06 -1.79224e-06 3.36935e-05
0.00211666 0.000759812 -6.28616e-06
0.000759812 0.000311815 2.10186e-06
-6.28616e-06 2.10186e-06 -4.7582e-05
0.00220139 0.000839219 -5.94486e-06
0.000839219 0.000614238 -4.74265e-07
-5.94486e-06 -4.74265e-07 0.000139251
0.000240385 0.000124249 1.55916e-06
0.000124249 -3.53806e-05 -1.15228e-06
1.55916e-06 -1.15228e-06 -0.00025057
0.00247024 0.000382234 -2.28186e-06
0.000382234 -9.75229e-05 -2.01614e-06
-2.28186e-06 -2.01614e-06 -1.06838e-06
0.00147138 0.000381375 1.12173e-06
0.000381375 0.000711803 1.81038e-06
1.12173e-06 1.81038e-06 0.000394331
0.00164276 0.000570429 2.21905e-06
0.000570429 0.000476591 1.22325e-06
2.21905e-06 1.22325e-06 9.45159e-05
0.00262499 0.000651273 1.48225e-06
0.000651273 0.000199023 2.95835e-07
1.48225e-06 2.95835e-07 0.000142187
0.0017804 0.000777062 -1.97417e-06
0.000777062 2.226e-06 -4.80336e-06
-1.97417e-06 -4.80336e-06 -0.000350065
0.00227603 0.000865552 -3.17457e-07
0.000865552 0.00062932 2.14553e-07
-3.17457e-07 2.14553e-07 0.000137532
0.00136194 0.000327035 -2.7029e-06
0.000327035 0.000776364 -6.9723e-08
-2.7029e-06 -6.9723e-08 0.000484588
0.00364447 0.000574207 -8.14672e-05
0.000574207 0.000578108 -2.04084e-05
-8.14672e-05 -2.04084e-05 0.000754506
0.000769642 0.000481616 -9.79164e-06
0.000481616 0.00022032 5.85486e-06
-9.79164e-06 5.85486e-06 -0.000142828
0.00153334 0.000650372 -4.19858e-06
0.000650372 0.00034534 -8.26058e-06
-4.19858e-06 -8.26058e-06 -9.79106e-05
0.00247396 0.000868482 -3.35777e-05
0.000868482 0.000241566 -2.12069e-05
-3.35777e-05 -2.12069e-05 4.38517e-06
0.00114545 0.000745729 -2.41479e-05
0.000745729 -4.78242e-05 -3.49576e-06
-2.41479e-05 -3.49576e-06 -0.000494623
0.000458924 0.000934759 3.50179e-05
0.000934759 -0.00194682 -3.68169e-05
3.50179e-05 -3.68169e-05 -0.00146412
-9.41489e-05 0.000140633 4.81833e-06
0.000140633 -0.000240479 -1.0145e-06
4.81833e-06 -1.0145e-06 -0.00036479
0.000461306 0.000115455 2.88169e-06
0.000115455 0.000125783 2.46738e-06
2.88169e-06 2.46738e-06 3.91393e-05
0.00142501 0.000158443 1.85573e-06
0.000158443 0.000690507 2.6564e-06
1.85573e-06 2.6564e-06 0.000614962
0.00038328 -6.53814e-05 1.26916e-06
-6.53814e-05 2.86906e-06 -4.62368e-06
1.26916e-06 -4.62368e-06 -0.000124342
0.000351435 -3.14407e-05 -5.29873e-07
-3.14407e-05 8.88499e-06 -1.85859e-06
-5.29873e-07 -1.85859e-06 -0.000149509
0.00128519 0.000214797 2.295e-07
0.000214797 0.000600573 2.9173e-07
2.295e-07 2.9173e-07 0.00042168
-0.000218358 4.26641e-05 -7.17311e-06
4.26641e-05 -0.000359314 1.49366e-05
-7.17311e-06 1.49366e-05 -0.000428141
0.00050648 -1.56928e-05 -2.52788e-07
-1.56928e-05 7.98665e-05 -1.777e-07
-2.52788e-07 -1.777e-07 -5.47864e-05
0.000411343 7.50394e-05 2.21323e-07
7.50394e-05 1.53857e-05 -7.52434e-07
2.21323e-07 -7.52434e-07 -0.000137807
0.001201 0.000136844 2.64537e-06
0.000136844 0.000462786 4.50739e-06
2.64537e-06 4.50739e-06 0.000417998
0.000444441 7.80565e-05 1.67631e-06
7.80565e-05 5.83132e-05 8.28024e-07
1.67631e-06 8.28024e-07 -0.000103988
0.000683507 6.79554e-05 -1.04382e-06
6.79554e-05 0.000172616 -2.09505e-06
-1.04382e-06 -2.09505e-06 7.05919e-05
0.00144594 0.000144656 -3.58785e-06
0.000144656 0.000665911 -1.40151e-05
-3.58785e-06 -1.40151e-05 0.000610008
0.00082893 0.000152378 -2.54293e-06
0.000152378 0.000241824 -2.57201e-06
-2.54293e-06 -2.57201e-06 9.35681e-05
0.000937164 0.000139595 1.7355e-06
0.000139595 0.000360169 2.53181e-06
1.7355e-06 2.53181e-06 0.000184743
0.000886957 0.000110007 -4.27069e-07
0.000110007 0.000333363 2.0607e-06
-4.27069e-07 2.0607e-06 0.000151361
0.0002174 -2.45115e-05 -1.39334e-06
-2.45115e-05 -0.000124841 2.09971e-06
-1.39334e-06 2.09971e-06 -0.000253511
0.00122033 -0.0001013 5.63952e-07
-0.0001013 0.000596858 -1.26733e-06
5.63952e-07 -1.26733e-06 0.00039135
0.000136268 -4.6502e-05 -1.11583e-06
-4.6502e-05 -0.000170783 3.90402e-06
-1.11583e-06 3.90402e-06 -0.000304653
0.000435973 3.54661e-06 -2.17788e-06
3.54661e-06 9.25757e-06 3.04269e-06
-2.17788e-06 3.04269e-06 -7.91713e-05
0.00045448 4.01498e-05 2.51591e-06
4.01498e-05 1.8799e-05 -1.29054e-07
2.51591e-06 -1.29054e-07 -6.78515e-05
0.00036526 2.13206e-05 -6.88502e-07
2.13206e-05 -6.50408e-05 4.70445e-06
-6.88502e-07 4.70445e-06 -9.03874e-05
0.000404629 4.98437e-06 -2.02875e-06
4.98437e-06 -1.20436e-05 -4.05538e-06
-2.02875e-06 -4.05538e-06 -9.59668e-05
0.000876536 1.66818e-05 -3.81531e-06
1.66818e-05 0.000252885 -1.52625e-06
-3.81531e-06 -1.52625e-06 0.000230342
0.00265268 -2.06244e-06 2.22953e-05
-2.06244e-06 0.00136367 5.68649e-06
2.22953e-05 5.68649e-06 0.0013761
0.00140952 3.13651e-05 -1.20353e-05
3.13651e-05 0.000584144 -7.16992e-06
-1.20353e-05 -7.16992e-06 0.000563747
0.000767217 -9.13582e-06 8.24505e-06
-9.13582e-06 0.000165865 3.52481e-06
8.24505e-06 3.52481e-06 0.000169894
0.000810266 -2.07673e-05 8.28381e-07
-2.07673e-05 0.000184896 -2.86194e-06
8.28381e-07 -2.86194e-06 0.000188093
0.000468632 1.3532e-05 -2.04212e-06
1.3532e-05 4.98988e-06 -2.29593e-06
-2.04212e-06 -2.29593e-06 -4.87535e-05
0.000547156 -2.97978e-05 7.31978e-07
-2.97978e-05 5.06841e-05 -3.43695e-07
7.31978e-07 -3.43695e-07 -4.76649e-06
0.000477045 2.33457e-05 2.67037e-07
2.33457e-05 -1.9365e-05 -3.47453e-06
2.67037e-07 -3.47453e-06 -3.53702e-05
0.000795341 4.07944e-05 -8.88974e-09
4.07944e-05 0.000190872 1.78771e-07
-8.88974e-09 1.78771e-07 0.000171533
0.0022685 7.64357e-05 7.59944e-06
7.64357e-05 0.00113301 -4.71025e-06
7.59944e-06 -4.71025e-06 0.00114056
0.000467157 5.95909e-05 5.3035e-06
5.95909e-05 2.26332e-06 5.89544e-06
5.3035e-06 5.89544e-06 -3.18357e-05
0.00251512 0.000105318 -2.78901e-06
0.000105318 0.00129991 -2.80001e-07
-2.78901e-06 -2.80001e-07 0.00130039
0.00291327 0.000144316 1.28171e-05
0.000144316 0.00156582 8.50232e-06
1.28171e-05 8.50232e-06 0.00155624
0.00225205 0.000334267 -8.65187e-07
0.000334267 -7.95465e-05 4.45135e-07
-8.65187e-07 4.45135e-07 -3.34881e-05
0.00220195 0.000106818 3.81207e-06
0.000106818 -6.31626e-05 2.5643e-07
3.81207e-06 2.5643e-07 7.81428e-06
0.00208754 -7.16125e-06 4.96111e-07
-7.16125e-06 -2.97791e-05 -3.76312e-07
4.96111e-07 -3.76312e-07 3.09803e-06
0.00218063 -6.82988e-06 6.10935e-08
-6.82988e-06 -8.96686e-05 -2.96452e-07
6.10935e-08 -2.96452e-07 -5.33247e-06
0.00240103 0.000173447 -9.69742e-08
0.000173447 -7.2423e-05 4.05699e-07
-9.69742e-08 4.05699e-07 1.34598e-05
0.00240267 0.000102409 8.14029e-06
0.000102409 -3.10016e-05 -6.65129e-06
8.14029e-06 -6.65129e-06 5.61603e-05
0.00248451 2.94993e-06 -1.5383e-06
2.94993e-06 -0.000106609 -1.26149e-06
-1.5383e-06 -1.26149e-06 2.62017e-05
0.00472481 0.000976092 7.21308e-05
0.000976092 -0.000615412 1.56551e-05
7.21308e-05 1.56551e-05 0.000200746
0.00297585 8.48324e-05 -2.27518e-05
8.48324e-05 0.000471097 3.0881e-05
-2.27518e-05 3.0881e-05 0.00070744
0.000480158 0.000113538 -2.78911e-06
0.000113538 5.16432e-05 -1.054e-06
-2.78911e-06 -1.054e-06 -4.88233e-05
0.00221796 -0.00014029 1.40363e-06
-0.00014029 -7.24897e-05 -1.26307e-06
1.40363e-06 -1.26307e-06 7.74959e-06
0.00230402 -0.000363186 2.14112e-06
-0.000363186 -7.6595e-05 -5.20012e-07
2.14112e-06 -5.20012e-07 -4.32752e-07
0.00224292 -0.000528894 6.99149e-08
-0.000528894 -2.39909e-05 7.98808e-07
6.99149e-08 7.98808e-07 -6.19819e-06
0.00133755 -0.000687465 4.56027e-06
-0.000687465 0.000312484 1.03305e-05
4.56027e-06 1.03305e-05 -0.000157987
0.00226089 -0.000951999 3.42995e-05
-0.000951999 0.000650647 9.2589e-06
3.42995e-05 9.2589e-06 0.000103289
0.00121309 -0.000784437 -8.84245e-07
-0.000784437 -0.000193007 -1.30073e-06
-8.84245e-07 -1.30073e-06 -0.000555682
0.00233478 -0.000749392 -3.64663e-06
-0.000749392 0.000123733 2.3653e-06
-3.64663e-06 2.3653e-06 -1.95227e-05
0.001598 -0.000561915 4.99325e-05
-0.000561915 0.000484808 -3.88557e-05
4.99325e-05 -3.88557e-05 0.000106381
0.0014446 -0.000462396 2.66149e-05
-0.000462396 0.000648688 -4.05372e-05
2.66149e-05 -4.05372e-05 0.000107859
0.000442576 -6.58015e-05 6.65764e-07
-6.58015e-05 -6.73029e-05 7.43399e-06
6.65764e-07 7.43399e-06 -0.000394077
0.000475466 1.06234e-05 2.63999e-06
1.06234e-05 9.49715e-06 8.82674e-07
2.63999e-06 8.82674e-07 -4.95843e-05
0.00154373 -0.00013557 1.06975e-06
-0.00013557 0.000746215 9.90574e-06
1.06975e-06 9.90574e-06 0.00042816
0.000880509 -2.31299e-05 8.07836e-06
-2.31299e-05 0.000351213 -1.59871e-06
8.07836e-06 -1.59871e-06 0.000216151
0.000654397 -6.32678e-05 3.69916e-06
-6.32678e-05 0.00020916 -2.96216e-06
3.69916e-06 -2.96216e-06 -2.23369e-05
6.78772e-05 -4.54353e-05 -3.7978e-06
-4.54353e-05 -0.000229952 -8.03009e-07
-3.7978e-06 -8.03009e-07 -0.000322518
0.002297 -0.000182128 -2.0189e-07
-0.000182128 -0.000207392 2.2652e-07
-2.0189e-07 2.2652e-07 -7.03877e-05
0.000335598 3.04754e-05 5.47943e-07
3.04754e-05 -3.55632e-05 -2.68926e-06
5.47943e-07 -2.68926e-06 -0.000144924
0.000596086 -6.46851e-05 2.9212e-06
-6.46851e-05 0.000139114 1.08121e-06
2.9212e-06 1.08121e-06 3.4174e-05
0.00101861 -0.000147578 5.27196e-06
-0.000147578 0.000348618 -5.42959e-08
5.27196e-06 -5.42959e-08 0.000236996
0.00235602 -0.000498008 2.14882e-06
-0.000498008 -0.000207347 -9.37717e-07
2.14882e-06 -9.37717e-07 -2.36536e-05
0.00247098 -0.000745717 4.708e-07
-0.000745717 4.30132e-05 -4.82793e-07
4.708e-07 -4.82793e-07 9.42193e-06
0.000550614 -0.000554817 7.16139e-06
-0.000554817 -0.000113107 -1.2832e-07
7.16139e-06 -1.2832e-07 -0.000541134
0.00275933 -0.00112614 2.09171e-05
-0.00112614 0.000796332 4.40668e-07
2.09171e-05 4.40668e-07 0.000229294
0.00250535 -0.00097686 -6.41367e-07
-0.00097686 0.000324165 2.20277e-06
-6.41367e-07 2.20277e-06 5.94123e-05
0.000278826 -2.64882e-05 -3.01132e-07
-2.64882e-05 -5.67012e-05 2.8827e-07
-3.01132e-07 2.8827e-07 -0.000224393
0.00117456 -0.000144647 -5.72412e-08
-0.000144647 0.000551143 3.4695e-06
-5.72412e-08 3.4695e-06 0.000265883
0.00192065 -0.000813935 3.05312e-07
-0.000813935 0.000687611 1.84379e-06
3.05312e-07 1.84379e-06 0.000208697
0.000146332 -0.000267074 -1.82925e-06
-0.000267074 3.01631e-05 4.13071e-06
-1.82925e-06 4.13071e-06 -0.000637298
0.00129486 -0.00014425 1.4922e-06
-0.00014425 0.000503229 6.13396e-06
1.4922e-06 6.13396e-06 0.000230019
0.00274227 -0.000347173 -8.24523e-06
-0.000347173 5.14242e-05 3.95883e-06
-8.24523e-06 3.95883e-06 0.000202286
0.00211152 -0.000555509 -1.52514e-05
-0.000555509 -0.000330782 7.59416e-06
-1.52514e-05 7.59416e-06 -6.90302e-05
0.00225483 -0.000877924 -7.51135e-06
-0.000877924 5.48715e-05 -4.03261e-06
-7.51135e-06 -4.03261e-06 -0.000134025
0.00484405 -0.00134529 -3.16406e-06
-0.00134529 0.00176664 -3.16639e-06
-3.16406e-06 -3.16639e-06 0.00137191
-0.000161372 -0.000663222 -1.79404e-05
-0.000663222 -0.000561149 -5.54652e-06
-1.79404e-05 -5.54652e-06 -0.00102176
-3.6206e-06 -2.90364e-05 1.06239e-06
-2.90364e-05 -0.000245178 2.6046e-06
1.06239e-06 2.6046e-06 -0.000357033
0.000926293 -3.08422e-06 -5.22867e-06
-3.08422e-06 0.000255258 1.58897e-05
-5.22867e-06 1.58897e-05 0.000143203
-0.00146816 -0.000141259 -7.25956e-06
-0.000141259 -0.00120098 2.80307e-06
-7.25956e-06 2.80307e-06 -0.00128762
0.00213316 -0.000314548 -3.07002e-05
-0.000314548 0.00112236 2.91056e-05
-3.07002e-05 2.91056e-05 0.000883905
0.000970612 -0.000127668 -4.83448e-06
-0.000127668 0.000407327 2.7558e-05
-4.83448e-06 2.7558e-05 0.000145002
-0.00139645 -0.000142921 6.10712e-06
-0.000142921 -0.000445404 -1.67546e-06
6.10712e-06 -1.67546e-06 -0.00123865
0.000642071 -0.000873316 -2.52765e-05
-0.000873316 0.000248431 1.34053e-05
-2.52765e-05 1.34053e-05 -0.00044013
0.00173394 0.000333133 -5.61532e-06
0.000333133 0.000901478 -6.51241e-06
-5.61532e-06 -6.51241e-06 0.000649688
-0.000425186 0.000136451 -5.50476e-06
0.000136451 -0.00047508 -2.02553e-06
-5.50476e-06 -2.02553e-06 -0.000730702
0.00261495 0.000357767 1.70369e-06
0.000357767 -1.33734e-05 1.49966e-06
1.70369e-06 1.49966e-06 9.8832e-05
0.00262723 0.000640776 1.17735e-05
0.000640776 0.000212441 6.12443e-06
1.17735e-05 6.12443e-06 0.000158145
0.00221298 0.000818109 5.37275e-06
0.000818109 0.000261375 3.35495e-06
5.37275e-06 3.35495e-06 -9.55592e-05
0.00165188 0.000563658 -2.39176e-06
0.000563658 0.00051522 2.94873e-06
-2.39176e-06 2.94873e-06 0.00013162
0.00173029 0.000787469 2.24838e-06
0.000787469 0.000333008 3.8628e-06
2.24838e-06 3.8628e-06 -0.000142176
0.00220767 0.000384202 9.67778e-07
0.000384202 0.00122162 -9.38709e-07
9.67778e-07 -9.38709e-07 0.000966289
0.00286249 0.000463341 6.83109e-06
0.000463341 0.000164439 3.57914e-06
6.83109e-06 3.57914e-06 0.000379344
0.00108151 0.000439527 -4.62645e-06
0.000439527 0.000374971 5.23001e-06
-4.62645e-06 5.23001e-06 4.91999e-05
0.00168014 0.000674672 3.26953e-06
0.000674672 0.000470998 -7.99236e-07
3.26953e-06 -7.99236e-07 9.32611e-06
0.00245689 0.000850393 -2.96034e-06
0.000850393 0.000249415 -3.81904e-06
-2.96034e-06 -3.81904e-06 3.45437e-05
0.00187988 0.000841234 -4.40184e-06
0.000841234 0.000366191 5.60768e-06
-4.40184e-06 5.60768e-06 -0.000103266
0.0030971 0.00127205 3.60707e-05
0.00127205 -0.000825098 7.59193e-06
3.60707e-05 7.59193e-06 -0.000522626
8.70223e-05 0.000279849 6.51374e-07
0.000279849 2.77895e-05 3.14798e-07
6.51374e-07 3.14798e-07 -0.00025211
0.00281774 0.000848973 -8.48474e-05
0.000848973 0.000262035 -4.07307e-05
-8.48474e-05 -4.07307e-05 0.00023197
0.000545961 0.000433252 -9.25655e-06
0.000433252 -0.000146816 3.72754e-06
-9.25655e-06 3.72754e-06 -0.000490069
-2.49646e-05 0.000517841 -2.80281e-06
0.000517841 -0.000536319 -1.80932e-05
-2.80281e-06 -1.80932e-05 -0.000963605
0.00165794 0.000940401 -4.25409e-05
0.000940401 1.27339e-05 -1.60055e-05
-4.25409e-05 -1.60055e-05 -0.000296727
0.0151972 0.00048337 -0.000574429
0.00048337 0.00205272 -9.42221e-05
-0.000574429 -9.42221e-05 0.00180705
0.00331022 0.00195019 -7.25998e-05
0.00195019 -0.00249706 -6.91054e-05
-7.25998e-05 -6.91054e-05 -0.000817098
0.000677934 0.00147675 1.87453e-05
0.00147675 -0.000816314 -1.31296e-07
1.87453e-05 -1.31296e-07 -0.00105586
0.00393035 -0.00261554 0.0017916
-0.00261554 0.00246255 0.000331068
0.0017916 0.000331068 -0.00147537
0.0243756 -0.0098697 -5.05171e-05
-0.0098697 0.0102858 8.31413e-05
-5.05171e-05 8.31413e-05 0.00637895
0.000201181 0.000124574 7.34745e-06
0.000124574 -4.96825e-06 1.94168e-06
7.34745e-06 1.94168e-06 -0.000101229
0.000847462 0.00012423 -2.09269e-06
0.00012423 0.000370984 -2.95005e-06
-2.09269e-06 -2.95005e-06 0.000287691
0.00171458 0.00027593 2.70424e-06
0.00027593 0.000931497 -1.06094e-06
2.70424e-06 -1.06094e-06 0.000796738
0.000497683 -5.82007e-05 2.22051e-07
-5.82007e-05 8.45386e-05 -3.10099e-06
2.22051e-07 -3.10099e-06 -5.57614e-05
0.00040739 6.98079e-05 -5.97575e-07
6.98079e-05 1.68778e-05 -3.90003e-06
-5.97575e-07 -3.90003e-06 -0.000136896
0.000726291 -1.81056e-05 -3.75481e-07
-1.81056e-05 0.000234124 -1.90797e-06
-3.75481e-07 -1.90797e-06 6.99285e-05
0.000943591 9.23574e-05 -2.58752e-06
9.23574e-05 0.000325736 1.06559e-05
-2.58752e-06 1.06559e-05 0.000217388
0.000114713 9.33473e-05 3.48868e-06
9.33473e-05 -0.000212777 8.14992e-06
3.48868e-06 8.14992e-06 -0.000251151
0.00081551 0.000162543 -1.31955e-06
0.000162543 0.000319726 -1.82373e-07
-1.31955e-06 -1.82373e-07 0.000122499
0.000399156 -1.58078e-05 3.22094e-07
-1.58078e-05 -2.77151e-07 1.11307e-06
3.22094e-07 1.11307e-06 -0.000135228
0.000713592 5.99766e-05 -8.20065e-07
5.99766e-05 0.000217659 3.92028e-08
-8.20065e-07 3.92028e-08 4.30894e-05
0.000243706 9.86394e-05 -1.21221e-06
9.86394e-05 -9.01396e-05 -2.64941e-06
-1.21221e-06 -2.64941e-06 -0.000143046
0.000681051 0.000127536 -1.5597e-06
0.000127536 0.000169421 -2.99218e-07
-1.5597e-06 -2.99218e-07 2.40906e-05
0.00219389 0.000264409 -1.52083e-06
0.000264409 0.00116239 -2.44634e-07
-1.52083e-06 -2.44634e-07 0.000956493
0.000200142 0.000106525 -5.06134e-07
0.000106525 -2.98574e-05 -4.16467e-06
-5.06134e-07 -4.16467e-06 -0.00020096
0.000881147 0.000106159 2.86536e-06
0.000106159 0.00034312 3.5075e-07
2.86536e-06 3.5075e-07 0.000160354
0.000224979 -2.10261e-06 1.10239e-07
-2.10261e-06 -0.000112377 1.88407e-07
1.10239e-07 1.88407e-07 -0.000279694
0.000323451 -7.30597e-05 -8.64608e-07
-7.30597e-05 -4.70059e-05 6.36056e-07
-8.64608e-07 6.36056e-07 -0.000184199
0.000537999 -2.8068e-05 -8.33337e-07
-2.8068e-05 0.000104434 -1.3406e-06
-8.33337e-07 -1.3406e-06 -6.3568e-05
0.00140541 -2.9641e-05 8.00565e-07
-2.9641e-05 0.000647027 -1.15515e-05
8.00565e-07 -1.15515e-05 0.000483208
0.000750985 -5.42129e-05 -1.65745e-06
-5.42129e-05 0.000283435 -8.76878e-07
-1.65745e-06 -8.76878e-07 0.000113398
0.000725731 -8.40539e-05 1.91422e-06
-8.40539e-05 0.000244028 -9.24918e-07
1.91422e-06 -9.24918e-07 6.88275e-05
0.000642741 -0.00012923 -2.01598e-06
-0.00012923 0.000161655 4.32085e-06
-2.01598e-06 4.32085e-06 2.016e-05
0.000238808 -2.58048e-05 2.5389e-07
-2.58048e-05 -0.000101074 9.54028e-07
2.5389e-07 9.54028e-07 -0.000239586
0.000495996 -6.20342e-05 -1.89593e-06
-6.20342e-05 3.77253e-05 3.99463e-06
-1.89593e-06 3.99463e-06 -4.5228e-05
0.000495183 -4.1671e-05 1.99587e-06
-4.1671e-05 4.42544e-05 1.14797e-07
1.99587e-06 1.14797e-07 -4.30152e-05
0.000418753 2.09046e-06 3.14888e-06
2.09046e-06 -2.77175e-05 6.54816e-06
3.14888e-06 6.54816e-06 -5.46517e-05
0.000492246 5.64468e-05 -1.465e-06
5.64468e-05 3.619e-05 -3.46899e-06
-1.465e-06 -3.46899e-06 -4.60783e-05
0.000386111 3.219e-05 3.88165e-07
3.219e-05 -5.00444e-05 8.80226e-08
3.88165e-07 8.80226e-08 -7.62983e-05
0.00257174 7.09258e-06 8.3071e-06
7.09258e-06 0.00131438 5.47125e-06
8.3071e-06 5.47125e-06 0.00132637
0.000440711 4.69568e-05 -3.95423e-06
4.69568e-05 -1.84558e-05 -7.689e-06
-3.95423e-06 -7.689e-06 -4.63256e-05
0.00171263 -3.74295e-06 -5.2399e-06
-3.74295e-06 0.000768071 1.87367e-07
-5.2399e-06 1.87367e-07 0.000775453
0.000814211 -1.03048e-05 5.69254e-07
-1.03048e-05 0.000190872 -2.43879e-06
5.69254e-07 -2.43879e-06 0.000194848
0.000419 1.05791e-05 -1.94137e-07
1.05791e-05 -3.24726e-05 -1.68963e-06
-1.94137e-07 -1.68963e-06 -7.64713e-05
0.000515833 -4.03545e-05 1.49985e-07
-4.03545e-05 3.83871e-05 6.36897e-08
1.49985e-07 6.36897e-08 -1.7554e-05
0.000508114 1.1566e-05 1.32918e-06
1.1566e-05 -3.11812e-06 -3.25114e-06
1.32918e-06 -3.25114e-06 -1.55304e-05
0.000480823 -4.28595e-05 -1.43643e-06
-4.28595e-05 9.46718e-06 7.81303e-08
-1.43643e-06 7.81303e-08 -4.65574e-05
0.000790226 2.83379e-05 -1.5018e-07
2.83379e-05 0.000179851 -7.37256e-07
-1.5018e-07 -7.37256e-07 0.000166073
0.00204797 5.5733e-05 4.76283e-06
5.5733e-05 0.000985912 -4.70289e-06
4.76283e-06 -4.70289e-06 0.000998192
0.000457894 3.73473e-05 1.4161e-06
3.73473e-05 -2.28786e-05 4.00569e-06
1.4161e-06 4.00569e-06 -4.51876e-05
0.00241953 8.35355e-05 -5.12598e-06
8.35355e-05 0.00123238 1.24323e-06
-5.12598e-06 1.24323e-06 0.00123809
0.00266863 0.000115387 4.6748e-06
0.000115387 0.0014002 6.47626e-06
4.6748e-06 6.47626e-06 0.00139844
0.00234815 0.00018235 -6.94199e-07
0.00018235 -8.89971e-05 -8.12521e-07
-6.94199e-07 -8.12521e-07 -3.60745e-06
0.00217031 -5.24671e-06 3.00862e-06
-5.24671e-06 -9.4371e-05 -7.76525e-07
3.00862e-06 -7.76525e-07 -1.06946e-05
0.00215898 7.30355e-05 -7.70593e-06
7.30355e-05 -0.000207778 4.40579e-06
-7.70593e-06 4.40579e-06 -0.000121843
0.00258308 0.000735929 0.000103215
0.000735929 -0.00173421 2.33256e-05
0.000103215 2.33256e-05 -0.000805654
0.00246162 -2.86521e-05 2.68033e-07
-2.86521e-05 -9.6165e-05 -3.02201e-06
2.68033e-07 -3.02201e-06 3.47038e-05
0.0022955 7.3731e-05 -1.48948e-06
7.3731e-05 5.80367e-05 -1.00588e-05
-1.48948e-06 -1.00588e-05 0.000229257
0.00295323 -4.84243e-05 -2.56041e-05
-4.84243e-05 0.000561807 -3.57003e-06
-2.56041e-05 -3.57003e-06 0.000617047
0.00335101 0.000256279 -3.03283e-05
0.000256279 -0.00210615 -4.49319e-05
-3.03283e-05 -4.49319e-05 -0.000794648
0.00240115 0.000250327 0.000141026
0.000250327 -0.00108933 5.26537e-05
0.000141026 5.26537e-05 -0.000496928
0.000585112 9.11163e-05 2.91044e-07
9.11163e-05 0.000121005 -9.37601e-07
2.91044e-07 -9.37601e-07 2.10278e-05
0.000576794 -4.18868e-06 1.89515e-07
-4.18868e-06 0.000127084 -1.35611e-07
1.89515e-07 -1.35611e-07 1.76947e-05
0.000326572 -9.42915e-05 -6.14879e-06
-9.42915e-05 -2.23896e-05 2.43864e-06
-6.14879e-06 2.43864e-06 -0.000142227
0.000366374 -4.53685e-05 -3.64751e-06
-4.53685e-05 1.0011e-05 2.13771e-06
-3.64751e-06 2.13771e-06 -0.000112586
0.00237268 -0.0002023 -3.51088e-06
-0.0002023 -0.00018435 -1.99051e-06
-3.51088e-06 -1.99051e-06 -2.90538e-05
0.00234285 -0.000506392 7.01192e-09
-0.000506392 -0.000188518 -1.97805e-06
7.01192e-09 -1.97805e-06 -4.4419e-05
0.002375 -0.000735891 -2.64371e-06
-0.000735891 -5.42677e-06 2.01787e-06
-2.64371e-06 2.01787e-06 -4.02023e-05
0.00393471 -0.00094006 2.4377e-05
-0.00094006 0.0018305 1.46264e-05
2.4377e-05 1.46264e-05 0.00132763
0.000298616 -0.000855796 -2.45845e-06
-0.000855796 -0.000593688 4.37661e-06
-2.45845e-06 4.37661e-06 -0.00110422
0.00240565 -0.00097492 -1.40039e-06
-0.00097492 0.000280931 -7.91675e-07
-1.40039e-06 -7.91675e-07 6.69589e-06
0.000736831 -0.00074247 2.75957e-05
-0.00074247 -2.2033e-05 -2.69146e-05
2.75957e-05 -2.69146e-05 -0.000533828
0.0035372 -0.000369402 1.36702e-05
-0.000369402 0.00171202 -6.80559e-06
1.36702e-05 -6.80559e-06 0.00129507
-0.000390965 -2.62063e-05 -7.35227e-06
-2.62063e-05 -0.000602622 6.73763e-06
-7.35227e-06 6.73763e-06 -0.000831569
0.000678932 -6.96141e-05 4.01167e-06
-6.96141e-05 0.000192386 -1.0153e-06
4.01167e-06 -1.0153e-06 8.68623e-05
0.000524555 -0.000133302 -6.01771e-06
-0.000133302 0.000166909 -1.34593e-05
-6.01771e-06 -1.34593e-05 -0.000123486
0.000457658 -2.42654e-05 5.99438e-06
-2.42654e-05 5.67134e-05 -2.35625e-06
5.99438e-06 -2.35625e-06 -0.000107147
0.00055257 -2.62191e-07 4.71116e-07
-2.62191e-07 0.000126793 1.47979e-06
4.71116e-07 1.47979e-06 5.28363e-06
0.00073463 -8.47506e-05 -9.09252e-06
-8.47506e-05 0.000169585 -8.12696e-07
-9.09252e-06 -8.12696e-07 7.1641e-05
0.00267495 -0.000328158 2.16378e-06
-0.000328158 2.2357e-05 1.5722e-06
2.16378e-06 1.5722e-06 0.000190023
0.00046154 -3.05619e-05 -8.32149e-07
-3.05619e-05 6.80432e-05 2.52699e-06
-8.32149e-07 2.52699e-06 -6.62349e-05
0.0008174 -5.63372e-05 7.75147e-06
-5.63372e-05 0.00020365 -7.90255e-07
7.75147e-06 -7.90255e-07 8.27616e-05
-0.00104812 -4.7376e-05 6.37797e-06
-4.7376e-05 -0.000866433 -1.135e-06
6.37797e-06 -1.135e-06 -0.00093046
0.00212189 -0.000571038 7.68226e-07
-0.000571038 -0.000343225 -1.23167e-06
7.68226e-07 -1.23167e-06 -0.000103697
0.00234347 -0.00088888 2.27788e-06
-0.00088888 9.80141e-05 -1.44943e-06
2.27788e-06 -1.44943e-06 -8.73117e-05
0.00203172 -0.000953125 -6.35458e-06
-0.000953125 0.00065752 9.94684e-07
-6.35458e-06 9.94684e-07 0.00014367
0.00272817 -0.00112359 -6.07549e-06
-0.00112359 0.000611753 1.57919e-06
-6.07549e-06 1.57919e-06 0.000250177
0.00151139 -0.000174532 5.76809e-06
-0.000174532 0.000728831 -3.41864e-06
5.76809e-06 -3.41864e-06 0.000493103
-0.00018564 -4.20749e-05 7.1075e-06
-4.20749e-05 -0.000335108 8.85128e-06
7.1075e-06 8.85128e-06 -0.000597807
0.00179204 -0.0011413 -8.17206e-08
-0.0011413 0.00098453 -2.52698e-06
-8.17206e-08 -2.52698e-06 0.000195789
0.00138634 -0.000450606 -9.93909e-06
-0.000450606 0.000664179 7.31107e-10
-9.93909e-06 7.31107e-10 0.000139083
0.00357093 -0.000484392 -4.86638e-05
-0.000484392 0.000483657 1.07833e-05
-4.86638e-05 1.07833e-05 0.000763763
0.00276067 -0.00074296 -4.11444e-05
-0.00074296 0.000248361 1.26879e-05
-4.11444e-05 1.26879e-05 0.000313593
0.00270629 -0.00103486 3.38384e-06
-0.00103486 0.000507566 -1.50141e-05
3.38384e-06 -1.50141e-05 0.000153014
0.00318551 -0.00114883 1.2628e-05
-0.00114883 0.00109642 1.29492e-05
1.2628e-05 1.29492e-05 0.000712434
1.04856e-05 -8.30341e-05 -2.93543e-06
-8.30341e-05 -0.000119023 -7.09034e-06
-2.93543e-06 -7.09034e-06 -0.000259937
0.000362836 -0.000147763 -1.461e-05
-0.000147763 1.84023e-05 1.40331e-07
-1.461e-05 1.40331e-07 -0.000197491
3.45147e-05 -0.000195394 -6.11347e-06
-0.000195394 0.000107267 5.51211e-05
-6.11347e-06 5.51211e-05 -0.000240554
5.87445e-05 -0.00100473 -3.52938e-06
-0.00100473 0.000694555 -2.89662e-05
-3.52938e-06 -2.89662e-05 -0.000471259
0.00324773 -0.000452177 6.49868e-05
-0.000452177 -0.00564841 -2.53672e-05
6.49868e-05 -2.53672e-05 -0.00570126
0.00248113 0.000337199 3.42964e-06
0.000337199 0.00136598 -3.36486e-06
3.42964e-06 -3.36486e-06 0.00111287
0.0014159 0.000409434 -1.71178e-06
0.000409434 0.000566436 -1.44255e-07
-1.71178e-06 -1.44255e-07 0.000263111
0.00189519 0.000372483 5.39554e-05
0.000372483 -0.000379826 1.60566e-05
5.39554e-05 1.60566e-05 -0.000132595
0.00251283 0.000839089 2.50176e-05
0.000839089 0.000299283 1.1763e-05
2.50176e-05 1.1763e-05 0.000101923
0.0023624 0.000901616 1.03559e-05
0.000901616 0.000647219 1.25748e-05
1.03559e-05 1.25748e-05 0.000161041
0.00139375 0.000645282 9.35888e-06
0.000645282 0.000334071 9.24797e-06
9.35888e-06 9.24797e-06 -0.000133827
0.0054923 0.00163746 0.000111524
0.00163746 7.55363e-05 3.37101e-05
0.000111524 3.37101e-05 0.000176548
0.00119897 0.000334918 5.09608e-06
0.000334918 0.000667423 1.13594e-07
5.09608e-06 1.13594e-07 0.000396506
0.00264434 0.000805969 -2.62075e-05
0.000805969 0.000152362 9.22486e-07
-2.62075e-05 9.22486e-07 0.000163271
0.000928802 0.000481452 -6.10228e-06
0.000481452 0.000132977 4.45579e-06
-6.10228e-06 4.45579e-06 -0.000231543
0.00153202 0.00073343 4.9552e-07
0.00073343 0.000357446 -7.19102e-06
4.9552e-07 -7.19102e-06 -0.000115049
0.00240853 0.00099832 -1.14705e-05
0.00099832 0.000425518 -3.01061e-07
-1.14705e-05 -3.01061e-07 9.18638e-05
0.00507408 -0.000629176 -0.000177215
-0.000629176 -0.00519355 -0.000102632
-0.000177215 -0.000102632 -0.00588834
0.00686887 0.00205572 -0.000157907
0.00205572 -0.000694946 -6.51969e-05
-0.000157907 -6.51969e-05 0.000717983
0.00146185 0.00148469 -5.16922e-07
0.00148469 -0.000377017 3.80518e-06
-5.16922e-07 3.80518e-06 -0.000737444
0.0021647 -0.00240203 0.000624553
-0.00240203 0.00330292 0.000231049
0.000624553 0.000231049 5.78427e-05
0.0167739 -0.0101944 -0.000532317
-0.0101944 0.00864561 -0.000478084
-0.000532317 -0.000478084 0.00453079
0.0004985 0.000259455 -1.3622e-05
0.000259455 8.99154e-05 -2.72929e-06
-1.3622e-05 -2.72929e-06 -0.000142996
0.00182793 0.000523642 0.000899841
0.000523642 0.00455148 7.79277e-05
0.000899841 7.79277e-05 0.00246088
0.00481743 -0.00388713 -0.000169785
-0.00388713 0.00663385 -0.00022416
-0.000169785 -0.00022416 0.0005934
0.00344955 0.00131995 -6.61766e-05
0.00131995 0.000728577 -1.95224e-05
-6.61766e-05 -1.95224e-05 0.000495926
0.000574334 0.000381951 -2.97907e-05
0.000381951 -9.3761e-05 -6.96434e-06
-2.97907e-05 -6.96434e-06 -0.000411706
0.00106759 0.000750639 -3.89536e-05
0.000750639 0.000147197 -3.1889e-05
-3.89536e-05 -3.1889e-05 -0.000253689
-0.000464989 0.00130766 6.96688e-05
0.00130766 -0.00106962 0.000102523
6.96688e-05 0.000102523 -0.00144136
0.0128265 0.00281242 8.12589e-05
0.00281242 0.00111634 -1.08294e-05
8.12589e-05 -1.08294e-05 0.000618273
0.00538154 0.00304849 -6.10058e-05
0.00304849 -0.000392674 -5.81387e-05
-6.10058e-05 -5.81387e-05 0.000635108
0.0181467 -0.00708534 0.00112011
-0.00708534 0.00623273 0.000522293
0.00112011 0.000522293 0.00149404
0.0144182 -0.00317855 -0.000139622
-0.00317855 0.00476331 0.000669276
-0.000139622 0.000669276 0.00251584
0.000496683 9.27259e-05 2.39254e-06
9.27259e-05 0.000194385 -4.49552e-06
2.39254e-06 -4.49552e-06 9.43742e-05
0.000248998 0.000147579 7.69083e-06
0.000147579 3.98465e-05 1.49815e-06
7.69083e-06 1.49815e-06 -8.17487e-05
0.00183986 0.000314674 3.10175e-06
0.000314674 0.00103127 -3.31823e-06
3.10175e-06 -3.31823e-06 0.000829622
0.000587551 2.78313e-06 1.77578e-06
2.78313e-06 0.000145908 1.59646e-07
1.77578e-06 1.59646e-07 -6.75034e-06
0.000602431 7.24281e-05 1.96764e-08
7.24281e-05 0.000138431 -2.47705e-06
1.96764e-08 -2.47705e-06 -2.86e-05
-0.000107761 3.76188e-05 -1.39388e-06
3.76188e-05 -0.00028476 5.84308e-07
-1.39388e-06 5.84308e-07 -0.000454322
0.000854803 0.000133704 -7.32527e-06
0.000133704 0.00030248 2.01138e-06
-7.32527e-06 2.01138e-06 0.000151212
-0.000315759 7.31574e-05 -2.76007e-06
7.31574e-05 -0.000459005 7.60239e-07
-2.76007e-06 7.60239e-07 -0.000508734
0.000332865 -1.25053e-05 -1.56261e-07
-1.25053e-05 -3.5932e-05 7.27678e-07
-1.56261e-07 7.27678e-07 -0.000177432
0.0013882 0.000164806 2.37608e-06
0.000164806 0.000633354 6.17084e-07
2.37608e-06 6.17084e-07 0.000446984
0.000513162 6.22625e-05 -2.92391e-07
6.22625e-05 0.000123936 -2.58412e-07
-2.92391e-07 -2.58412e-07 -6.7044e-05
0.000800904 4.20019e-05 1.46889e-06
4.20019e-05 0.000286346 -3.24791e-07
1.46889e-06 -3.24791e-07 9.52103e-05
0.000172469 0.000100849 -7.24858e-07
0.000100849 -4.42634e-05 -3.32242e-06
-7.24858e-07 -3.32242e-06 -0.000214786
0.00152875 0.000151523 -2.45535e-06
0.000151523 0.000751778 -2.83511e-06
-2.45535e-06 -2.83511e-06 0.00057444
-0.000364995 6.87403e-05 -7.23391e-06
6.87403e-05 -0.000209994 -4.71068e-06
-7.23391e-06 -4.71068e-06 -0.000474555
0.000310513 -6.74365e-05 -8.71022e-08
-6.74365e-05 -1.81348e-05 1.45443e-06
-8.71022e-08 1.45443e-06 -0.000204108
0.000746206 -8.5916e-05 -2.40609e-06
-8.5916e-05 0.000258793 -1.11618e-06
-2.40609e-06 -1.11618e-06 7.09253e-05
0.000827418 -5.9787e-05 -3.809e-07
-5.9787e-05 0.000309643 -8.19447e-07
-3.809e-07 -8.19447e-07 0.000124042
0.000657977 -4.17643e-05 -4.03621e-06
-4.17643e-05 0.000161799 7.41605e-07
-4.03621e-06 7.41605e-07 1.79964e-05
0.0010712 1.403e-05 -7.90387e-06
1.403e-05 0.000503484 -5.58607e-06
-7.90387e-06 -5.58607e-06 0.000293613
0.00083722 -9.04256e-05 2.40828e-06
-9.04256e-05 0.000273719 -1.22221e-05
2.40828e-06 -1.22221e-05 0.000139976
-0.00136801 2.68961e-06 -5.2945e-06
2.68961e-06 -0.00107016 -8.7344e-06
-5.2945e-06 -8.7344e-06 -0.00119312
9.83504e-05 -3.97598e-05 1.96078e-06
-3.97598e-05 -0.000105418 -2.2218e-06
1.96078e-06 -2.2218e-06 -0.0003063
0.000203922 -7.37611e-05 9.73332e-07
-7.37611e-05 -0.000100239 2.80494e-07
9.73332e-07 2.80494e-07 -0.000242068
0.000796011 -0.0001234 -1.06359e-06
-0.0001234 0.00029436 4.22166e-07
-1.06359e-06 4.22166e-07 0.000131832
0.000509607 -8.99929e-05 -1.31222e-06
-8.99929e-05 5.84454e-05 3.17241e-06
-1.31222e-06 3.17241e-06 -6.65933e-05
0.000443189 -9.77002e-05 3.6606e-06
-9.77002e-05 2.89938e-05 3.54277e-07
3.6606e-06 3.54277e-07 -0.000119352
0.000548433 -0.000120966 8.68219e-09
-0.000120966 9.9253e-05 1.40994e-07
8.68219e-09 1.40994e-07 -4.14805e-05
0.00052642 -6.13917e-05 -2.2678e-06
-6.13917e-05 5.39758e-05 5.24519e-06
-2.2678e-06 5.24519e-06 -3.05265e-05
0.000374374 -7.62669e-06 8.10985e-07
-7.62669e-06 2.76272e-06 -1.0207e-06
8.10985e-07 -1.0207e-06 -0.000148661
0.000478117 1.50924e-07 2.4297e-06
1.50924e-07 3.416e-05 1.54955e-07
2.4297e-06 1.54955e-07 -5.38669e-05
0.00144716 -3.7648e-05 -1.10417e-05
-3.7648e-05 0.000614499 7.0167e-06
-1.10417e-05 7.0167e-06 0.000591722
0.00045646 7.11564e-05 -2.0339e-06
7.11564e-05 1.99166e-05 -3.21132e-06
-2.0339e-06 -3.21132e-06 -6.65957e-05
0.000855571 -2.01267e-05 -4.39022e-06
-2.01267e-05 0.00024765 7.31438e-07
-4.39022e-06 7.31438e-07 0.000222779
0.000794796 3.29337e-06 -3.05785e-06
3.29337e-06 0.000192113 4.78191e-06
-3.05785e-06 4.78191e-06 0.000196286
0.000365362 -2.50301e-05 4.2134e-06
-2.50301e-05 -6.37108e-05 -5.13195e-06
4.2134e-06 -5.13195e-06 -8.92129e-05
0.00259184 4.44799e-06 8.02229e-06
4.44799e-06 0.00132751 -3.50715e-09
8.02229e-06 -3.50715e-09 0.00133941
0.000869339 4.16938e-06 -1.0751e-05
4.16938e-06 0.000237071 -5.50447e-06
-1.0751e-05 -5.50447e-06 0.000240173
0.00050249 7.03663e-05 2.6077e-06
7.03663e-05 6.97456e-05 7.64723e-07
2.6077e-06 7.64723e-07 -3.57161e-05
0.000445391 5.66489e-05 -2.32736e-06
5.66489e-05 -3.47687e-06 -2.38857e-06
-2.32736e-06 -2.38857e-06 -5.37796e-05
0.000464873 -1.10987e-06 1.56721e-06
-1.10987e-06 9.42499e-06 1.81285e-07
1.56721e-06 1.81285e-07 -4.26587e-05
0.000466017 9.79477e-06 1.2515e-06
9.79477e-06 -2.88991e-05 -3.09284e-06
1.2515e-06 -3.09284e-06 -3.98217e-05
0.000552458 -6.74707e-05 -2.05775e-06
-6.74707e-05 7.06852e-05 1.96741e-06
-2.05775e-06 1.96741e-06 9.56389e-06
0.000463045 1.28916e-05 1.41707e-07
1.28916e-05 -3.19148e-05 -7.25465e-07
1.41707e-07 -7.25465e-07 -4.41684e-05
0.00203142 3.89136e-05 3.13904e-06
3.89136e-05 0.000970674 -4.74784e-06
3.13904e-06 -4.74784e-06 0.000985517
0.00110682 3.72025e-05 -1.36043e-08
3.72025e-05 0.000382046 1.62486e-06
-1.36043e-08 1.62486e-06 0.000369344
0.0014897 4.82198e-05 -5.10003e-07
4.82198e-05 0.000632673 1.41998e-06
-5.10003e-07 1.41998e-06 0.000639903
0.000898582 5.24699e-05 -4.01627e-06
5.24699e-05 0.000264304 8.60895e-06
-4.01627e-06 8.60895e-06 0.000262988
0.000994498 0.000526477 7.60961e-05
0.000526477 -0.00248268 1.61507e-05
7.60961e-05 1.61507e-05 -0.00152244
0.00243015 -5.1608e-05 -2.52683e-06
-5.1608e-05 -8.09537e-05 6.28505e-06
-2.52683e-06 6.28505e-06 4.08418e-05
0.00223992 7.26273e-05 3.29444e-05
7.26273e-05 4.90041e-05 -1.2797e-05
3.29444e-05 -1.2797e-05 0.000187263
0.00296533 0.000477444 -6.42278e-05
0.000477444 -0.00213046 -3.95788e-05
-6.42278e-05 -3.95788e-05 -0.00046654
0.00286943 0.000120054 5.53752e-05
0.000120054 -0.0006314 -1.80524e-06
5.53752e-05 -1.80524e-06 -0.000105335
0.00277407 -5.1988e-05 1.48502e-06
-5.1988e-05 0.000381009 -1.02985e-05
1.48502e-06 -1.02985e-05 0.000471921
0.00504502 -0.000427331 -6.41555e-05
-0.000427331 0.00107555 -2.4294e-05
-6.41555e-05 -2.4294e-05 0.0013422
0.00356246 -0.000376822 2.97623e-05
-0.000376822 -0.000643379 -4.19796e-06
2.97623e-05 -4.19796e-06 0.000294202
0.017889 -0.000958193 7.44469e-05
-0.000958193 0.00299153 -4.46306e-05
7.44469e-05 -4.46306e-05 0.00214567
0.0155382 0.00653041 0.00167614
0.00653041 0.00609244 -0.000469685
0.00167614 -0.000469685 0.00238759
0.0221278 0.00753058 7.88468e-05
0.00753058 0.0142243 2.14806e-05
7.88468e-05 2.14806e-05 0.0102451
0.000135084 -0.000101322 4.63777e-07
-0.000101322 -0.000141795 -4.95146e-07
4.63777e-07 -4.95146e-07 -0.00025729
0.000532474 -5.63177e-06 1.68509e-06
-5.63177e-06 8.61825e-05 -4.4845e-08
1.68509e-06 -4.4845e-08 -1.30953e-05
0.0006136 -9.05929e-05 -8.3356e-07
-9.05929e-05 0.000156648 3.26668e-06
-8.3356e-07 3.26668e-06 4.06949e-05
0.0005323 -3.53879e-05 1.18917e-06
-3.53879e-05 9.57208e-05 2.9998e-07
1.18917e-06 2.9998e-07 -2.24156e-05
0.000927772 0.000119903 -5.05132e-06
0.000119903 0.000403121 1.14583e-06
-5.05132e-06 1.14583e-06 0.000263383
0.00052252 0.000138998 5.94097e-07
0.000138998 7.29453e-05 7.45708e-06
5.94097e-07 7.45708e-06 -5.45817e-05
0.0009577 2.83271e-06 2.52604e-06
2.83271e-06 0.000384702 4.10815e-06
2.52604e-06 4.10815e-06 0.000239519
0.000518906 -2.596e-05 -1.52365e-06
-2.596e-05 8.72896e-05 1.31021e-06
-1.52365e-06 1.31021e-06 -3.25964e-05
0.00265556 -0.000314167 1.2492e-05
-0.000314167 4.2495e-06 -4.57674e-06
1.2492e-05 -4.57674e-06 0.000202644
0.00216961 -0.000597427 1.41586e-05
-0.000597427 -0.000346899 -6.58118e-06
1.41586e-05 -6.58118e-06 -0.000129007
0.002421 -0.000897814 3.6986e-07
-0.000897814 0.000133747 6.0735e-06
3.6986e-07 6.0735e-06 -4.53204e-05
0.00253085 -0.000984143 1.65122e-05
-0.000984143 0.000892422 7.67918e-06
1.65122e-05 7.67918e-06 0.000401941
0.00218059 -0.00108345 -2.38349e-05
-0.00108345 0.000311288 4.39442e-06
-2.38349e-05 4.39442e-06 -5.81202e-05
0.00174014 -0.00119684 3.90158e-05
-0.00119684 0.00105767 -1.42154e-05
3.90158e-05 -1.42154e-05 0.000166647
0.00469728 -0.000808035 7.09649e-06
-0.000808035 0.00236396 6.47553e-06
7.09649e-06 6.47553e-06 0.00193196
0.00145472 -0.000307656 1.31209e-05
-0.000307656 0.00075801 -5.04655e-05
1.31209e-05 -5.04655e-05 0.000399487
0.000592757 -0.000113841 2.13323e-06
-0.000113841 4.38446e-05 -4.35266e-07
2.13323e-06 -4.35266e-07 -5.94967e-05
0.000992141 -8.58856e-05 1.1934e-05
-8.58856e-05 0.000369459 -2.32408e-05
1.1934e-05 -2.32408e-05 0.000148493
0.000989174 -5.30899e-05 3.92099e-06
-5.30899e-05 0.000390551 1.12852e-06
3.92099e-06 1.12852e-06 0.00024582
0.000792569 1.21942e-05 9.54945e-06
1.21942e-05 0.000304453 -7.68674e-06
9.54945e-06 -7.68674e-06 0.000275523
0.00246134 -0.000427072 -5.55872e-07
-0.000427072 -0.000124427 2.90329e-06
-5.55872e-07 2.90329e-06 0.000197627
0.000426403 -8.99427e-05 -4.34454e-06
-8.99427e-05 0.000121886 -8.82914e-07
-4.34454e-06 -8.82914e-07 -2.10138e-05
0.00132737 -0.000203699 -9.12897e-06
-0.000203699 0.000591645 4.15364e-06
-9.12897e-06 4.15364e-06 0.000409469
0.00171876 -0.000674112 8.75052e-06
-0.000674112 -0.000362158 -4.01368e-06
8.75052e-06 -4.01368e-06 -0.000233569
0.0019347 -0.00091084 1.6988e-06
-0.00091084 8.18352e-05 1.48456e-06
1.6988e-06 1.48456e-06 -0.000190051
0.000989466 -0.000876271 -3.66858e-06
-0.000876271 -0.000169017 -8.1059e-06
-3.66858e-06 -8.1059e-06 -0.000478104
0.00183792 -0.000392009 3.90905e-07
-0.000392009 0.00108931 -2.72418e-05
3.90905e-07 -2.72418e-05 0.000669646
0.001478 -0.000702585 9.19361e-06
-0.000702585 0.00126239 3.95514e-06
9.19361e-06 3.95514e-06 0.000356279
0.00565513 -0.000941364 -5.83257e-05
-0.000941364 0.00145278 2.94548e-05
-5.83257e-05 2.94548e-05 0.00167025
0.00408447 -0.00104517 -4.67371e-05
-0.00104517 0.00127978 1.02895e-05
-4.67371e-05 1.02895e-05 0.00106037
0.00221679 -0.00106185 1.47681e-05
-0.00106185 0.000352019 -3.58044e-06
1.47681e-05 -3.58044e-06 6.74971e-05
-0.00108687 -0.00047608 -1.53542e-06
-0.00047608 -0.00103642 1.40839e-05
-1.53542e-06 1.40839e-05 -0.00115416
0.000421092 -0.000156125 9.14013e-07
-0.000156125 0.000155918 8.48575e-06
9.14013e-07 8.48575e-06 -8.77601e-05
0.000385375 -0.000177274 4.37757e-06
-0.000177274 0.000209966 1.00313e-06
4.37757e-06 1.00313e-06 -8.60303e-05
0.00211141 -0.000252292 -1.13185e-05
-0.000252292 0.00157257 -2.48809e-05
-1.13185e-05 -2.48809e-05 0.000849491
-0.00713639 -0.000455941 0.000655846
-0.000455941 -0.00401009 -4.00662e-05
0.000655846 -4.00662e-05 -0.00421465
0.0119364 -0.000394701 7.61296e-05
-0.000394701 0.000686097 2.96618e-05
7.61296e-05 2.96618e-05 0.00104958
0.00305531 0.00043321 1.16641e-05
0.00043321 0.00171688 -1.13186e-05
1.16641e-05 -1.13186e-05 0.00147877
0.00170645 0.000578248 -2.49098e-06
0.000578248 0.000648696 6.96846e-06
-2.49098e-06 6.96846e-06 0.000251127
0.00292725 0.000767531 0.000107247
0.000767531 0.000321336 4.67606e-05
0.000107247 4.67606e-05 0.000358245
0.0031578 0.00106767 2.8415e-05
0.00106767 0.000832916 1.2864e-05
2.8415e-05 1.2864e-05 0.000477267
0.00300034 0.000932963 2.08572e-05
0.000932963 0.00119383 7.75215e-06
2.08572e-05 7.75215e-06 0.00068248
0.0166749 0.000778428 9.91112e-05
0.000778428 0.00274666 -5.11519e-05
9.91112e-05 -5.11519e-05 0.00223144
0.00853234 0.00260306 -0.000241443
0.00260306 -0.000990997 -3.51992e-05
-0.000241443 -3.51992e-05 0.000777124
0.00158949 0.00140502 1.15681e-05
0.00140502 -0.000115228 -3.12575e-05
1.15681e-05 -3.12575e-05 -0.000597193
0.0144208 -0.0050156 -0.000572413
-0.0050156 0.00623616 1.11492e-05
-0.000572413 1.11492e-05 0.00281089
0.00734973 -0.0108219 -0.0026918
-0.0108219 0.00690106 -0.00162029
-0.0026918 -0.00162029 0.00232552
0.00103238 0.00035171 3.09222e-06
0.00035171 0.000484047 -2.29439e-06
3.09222e-06 -2.29439e-06 0.000211347
-0.00119582 -0.0029587 0.000575615
-0.0029587 -0.00248711 8.81508e-05
0.000575615 8.81508e-05 -0.00490394
-0.00164519 -0.00300719 -0.000609393
-0.00300719 0.00668339 -0.000206577
-0.000609393 -0.000206577 0.000598062
0.00358822 0.00123316 -1.70461e-05
0.00123316 0.000758036 2.20295e-06
-1.70461e-05 2.20295e-06 0.000587102
0.000830151 0.000477561 -9.74796e-06
0.000477561 0.000118237 8.52078e-06
-9.74796e-06 8.52078e-06 -0.000253156
0.0015228 0.000874666 6.19498e-06
0.000874666 0.00039184 1.86486e-06
6.19498e-06 1.86486e-06 -5.99756e-05
0.00117215 0.00131676 5.62351e-05
0.00131676 8.96877e-05 4.15009e-05
5.62351e-05 4.15009e-05 -0.000230444
0.0142423 0.00307503 -0.000157744
0.00307503 0.00071237 -0.000100699
-0.000157744 -0.000100699 -0.000828975
0.00407703 0.00320043 -2.54953e-05
0.00320043 -0.000782051 -3.97677e-05
-2.54953e-05 -3.97677e-05 0.000438013
0.0189471 -0.00568316 0.000632498
-0.00568316 0.00790878 -1.78033e-05
0.000632498 -1.78033e-05 0.00305191
0.0182535 -0.00475724 9.70454e-05
-0.00475724 0.00418224 0.000779587
9.70454e-05 0.000779587 0.00128401
0.00196923 0.000421576 -2.04808e-05
0.000421576 0.00100093 -1.65039e-05
-2.04808e-05 -1.65039e-05 0.000760292
-0.010184 0.00133035 -0.000137376
0.00133035 0.00425363 -0.000148441
-0.000137376 -0.000148441 -0.00297177
0.00554382 0.00108732 -0.000428753
0.00108732 0.00449056 -0.000535911
-0.000428753 -0.000535911 -0.000484645
0.00261401 0.000915422 -3.43405e-05
0.000915422 0.000632145 -9.76808e-06
-3.43405e-05 -9.76808e-06 0.000563309
0.00277537 0.000920706 -8.13852e-05
0.000920706 0.00121037 -3.05155e-05
-8.13852e-05 -3.05155e-05 0.000788279
0.00118973 0.000964204 -9.82169e-05
0.000964204 0.000908375 -2.73406e-05
-9.82169e-05 -2.73406e-05 0.000170565
-0.00264713 0.0020274 2.76672e-06
0.0020274 -0.00112338 -3.4892e-05
2.76672e-06 -3.4892e-05 -0.00131305
0.00181711 0.00387995 0.000462032
0.00387995 -0.00197837 0.000144042
0.000462032 0.000144042 -0.00394975
0.0193968 -0.0072391 0.000127857
-0.0072391 0.0105935 0.000774554
0.000127857 0.000774554 0.00507969
0.00913616 -0.000557563 -0.000193976
-0.000557563 -0.00199401 -0.000173017
-0.000193976 -0.000173017 -0.00112747
-0.000598152 0.000140221 1.15237e-06
0.000140221 -0.000435128 -5.32796e-06
1.15237e-06 -5.32796e-06 -0.000583927
0.00178952 0.000333842 1.07827e-05
0.000333842 0.000984693 2.56163e-06
1.07827e-05 2.56163e-06 0.00078066
-0.000625474 8.36607e-05 -2.54137e-06
8.36607e-05 -0.000406676 -1.67689e-06
-2.54137e-06 -1.67689e-06 -0.000581502
0.000339746 5.2252e-05 2.20006e-06
5.2252e-05 -3.31479e-05 1.33042e-06
2.20006e-06 1.33042e-06 -0.000174488
0.00104427 9.13666e-05 3.7452e-08
9.13666e-05 0.000449081 -1.65682e-06
3.7452e-08 -1.65682e-06 0.000252232
0.00057038 2.81465e-05 -2.01647e-06
2.81465e-05 0.000166247 1.42839e-06
-2.01647e-06 1.42839e-06 -3.5142e-05
0.000429027 0.000105869 6.24953e-06
0.000105869 5.01151e-05 5.85532e-06
6.24953e-06 5.85532e-06 -0.000140643
-0.000669087 4.17303e-05 -4.09217e-06
4.17303e-05 -0.000542898 1.05058e-06
-4.09217e-06 1.05058e-06 -0.000707111
0.000774591 4.0524e-05 3.37921e-07
4.0524e-05 0.000280021 -7.75413e-07
3.37921e-07 -7.75413e-07 9.00213e-05
0.00071932 9.57032e-05 6.96101e-07
9.57032e-05 0.00024034 -1.57441e-07
6.96101e-07 -1.57441e-07 7.04115e-05
0.000836585 -3.98544e-05 -1.29683e-06
-3.98544e-05 0.000324323 2.18856e-06
-1.29683e-06 2.18856e-06 0.000124547
-0.00101939 3.37379e-05 2.14834e-06
3.37379e-05 -0.000597585 5.00065e-07
2.14834e-06 5.00065e-07 -0.000852922
0.000402292 6.29183e-05 -3.12095e-06
6.29183e-05 0.000442011 5.64689e-06
-3.12095e-06 5.64689e-06 6.031e-05
0.000634695 -2.46089e-05 -9.97787e-07
-2.46089e-05 0.000292903 -6.78238e-06
-9.97787e-07 -6.78238e-06 7.64436e-05
0.00146545 -1.33372e-05 -2.01028e-06
-1.33372e-05 0.000765301 2.45338e-06
-2.01028e-06 2.45338e-06 0.000529584
0.000801941 -8.40589e-05 -3.10084e-07
-8.40589e-05 0.000294234 -1.53147e-06
-3.10084e-07 -1.53147e-06 0.000104958
0.000182184 -0.000100257 4.99225e-06
-0.000100257 -0.000145619 1.08974e-05
4.99225e-06 1.08974e-05 -0.000278845
0.000657806 -8.89629e-05 5.1082e-07
-8.89629e-05 0.000220306 -8.89238e-07
5.1082e-07 -8.89238e-07 2.57511e-05
0.000762319 -9.35932e-05 -2.30251e-06
-9.35932e-05 0.000216683 -5.25227e-07
-2.30251e-06 -5.25227e-07 8.32012e-05
-0.00031137 -6.7151e-05 2.09188e-06
-6.7151e-05 -0.000405417 5.05304e-06
2.09188e-06 5.05304e-06 -0.000521135
-0.000115261 -5.76235e-05 -2.62745e-07
-5.76235e-05 -0.000257459 -4.42318e-06
-2.62745e-07 -4.42318e-06 -0.000420695
-7.10758e-05 -3.2827e-05 -8.65249e-06
-3.2827e-05 -0.000166245 -3.56203e-06
-8.65249e-06 -3.56203e-06 -0.00035349
3.51946e-05 -9.75943e-05 2.33305e-06
-9.75943e-05 -0.000159797 -7.91301e-06
2.33305e-06 -7.91301e-06 -0.000289674
0.000974478 -0.000121037 1.31475e-05
-0.000121037 0.000291386 -1.63723e-05
1.31475e-05 -1.63723e-05 0.000183169
0.00127579 -0.000281393 -1.38809e-06
-0.000281393 0.000416171 4.14653e-06
-1.38809e-06 4.14653e-06 0.000225977
-0.000126284 -6.22759e-05 -7.37369e-06
-6.22759e-05 -0.000259626 -2.36476e-06
-7.37369e-06 -2.36476e-06 -0.00045319
0.000609258 -5.40397e-05 1.83417e-06
-5.40397e-05 0.000197664 -8.31138e-07
1.83417e-06 -8.31138e-07 2.97739e-06
-0.000264915 -3.13026e-05 2.59304e-06
-3.13026e-05 -0.000365682 -1.50605e-07
2.59304e-06 -1.50605e-07 -0.000553126
0.000670272 -0.000129499 -7.01528e-07
-0.000129499 0.000217329 -4.00485e-07
-7.01528e-07 -4.00485e-07 5.1933e-05
0.000434935 -3.1287e-05 5.7726e-07
-3.1287e-05 1.43044e-05 1.1771e-06
5.7726e-07 1.1771e-06 -0.000114722
0.000745401 -0.000128918 -1.42388e-07
-0.000128918 0.000248888 3.21281e-07
-1.42388e-07 3.21281e-07 9.53552e-05
0.00062252 -8.80692e-05 -6.00581e-07
-8.80692e-05 0.000145922 2.05111e-07
-6.00581e-07 2.05111e-07 1.03503e-05
0.00037833 3.17955e-05 6.56863e-08
3.17955e-05 -4.06638e-05 4.7057e-06
6.56863e-08 4.7057e-06 -0.000127296
0.000553146 -0.000116517 9.07458e-07
-0.000116517 9.60336e-05 -2.74547e-06
9.07458e-07 -2.74547e-06 -4.24092e-05
0.000505967 -4.42281e-05 -5.43499e-07
-4.42281e-05 3.70113e-05 1.17423e-07
-5.43499e-07 1.17423e-07 -4.43459e-05
0.00141698 1.72073e-05 -7.9363e-06
1.72073e-05 0.00058634 7.54193e-06
-7.9363e-06 7.54193e-06 0.000564391
0.000478509 -6.6673e-05 1.3988e-06
-6.6673e-05 2.85803e-05 -3.72198e-06
1.3988e-06 -3.72198e-06 -5.57279e-05
0.000861006 -2.08959e-05 -8.15013e-06
-2.08959e-05 0.000243478 8.55813e-07
-8.15013e-06 8.55813e-07 0.000218965
0.000747948 1.16618e-05 1.25353e-06
1.16618e-05 0.00015294 2.25463e-06
1.25353e-06 2.25463e-06 0.00015621
0.000417556 -2.32513e-05 3.14651e-06
-2.32513e-05 -3.42322e-05 -4.73907e-06
3.14651e-06 -4.73907e-06 -5.89123e-05
0.00256138 1.14822e-05 7.17138e-06
1.14822e-05 0.00130729 1.59727e-08
7.17138e-06 1.59727e-08 0.00131971
0.0025883 8.96483e-07 2.66938e-06
8.96483e-07 0.00132521 -5.06662e-06
2.66938e-06 -5.06662e-06 0.00133715
0.00104094 8.33235e-05 -6.53102e-07
8.33235e-05 0.000410661 8.33318e-07
-6.53102e-07 8.33318e-07 0.00029943
0.000502105 6.57195e-05 -1.67291e-06
6.57195e-05 3.59688e-05 -2.65469e-06
-1.67291e-06 -2.65469e-06 -1.98252e-05
0.000533809 -1.37156e-05 -3.58637e-07
-1.37156e-05 9.47849e-05 7.89652e-07
-3.58637e-07 7.89652e-07 -1.17118e-05
0.000464099 8.36776e-06 1.29943e-06
8.36776e-06 -3.04607e-05 -3.40498e-06
1.29943e-06 -3.40498e-06 -4.0634e-05
0.000440941 -1.12252e-05 1.21643e-06
-1.12252e-05 -7.98494e-06 -2.07956e-07
1.21643e-06 -2.07956e-07 -5.70722e-05
0.000512097 -6.18771e-05 -2.01159e-06
-6.18771e-05 4.37404e-05 2.14981e-06
-2.01159e-06 2.14981e-06 -1.12148e-05
0.000468906 7.3373e-06 -5.14833e-07
7.3373e-06 -2.74222e-05 2.35543e-09
-5.14833e-07 2.35543e-09 -3.83167e-05
0.00199438 2.44629e-05 -2.24934e-06
2.44629e-05 0.000944225 -4.83445e-06
-2.24934e-06 -4.83445e-06 0.000960708
0.00113382 2.47812e-05 -7.10929e-07
2.47812e-05 0.000395672 2.026e-06
-7.10929e-07 2.026e-06 0.000386248
0.00131081 3.09658e-05 -2.14679e-06
3.09658e-05 0.000511667 -3.25229e-08
-2.14679e-06 -3.25229e-08 0.000523075
0.000811416 3.73093e-05 -7.20158e-06
3.73093e-05 0.000200942 7.52136e-06
-7.20158e-06 7.52136e-06 0.00020519
-0.00811094 0.00153253 0.000645438
0.00153253 -0.00272178 -7.40257e-05
0.000645438 -7.40257e-05 -0.00594225
-3.03982e-05 0.000613584 0.00141097
0.000613584 0.00724558 -0.000337301
0.00141097 -0.000337301 0.00294365
0.00217944 0.000443482 -0.000165355
0.000443482 -0.00265478 -3.2136e-05
-0.000165355 -3.2136e-05 -0.000710466
0.00199662 -9.67348e-06 1.35733e-05
-9.67348e-06 -0.00108576 -2.91023e-05
1.35733e-05 -2.91023e-05 -0.000504669
0.00175456 -7.98865e-05 1.29991e-05
-7.98865e-05 -0.000336624 2.40086e-05
1.29991e-05 2.40086e-05 -0.000232094
-0.00166142 1.04407e-05 -0.000109637
1.04407e-05 -0.00213783 -2.98907e-05
-0.000109637 -2.98907e-05 -0.000777646
0.00391263 -0.000481187 3.54501e-06
-0.000481187 0.000271578 5.4767e-06
3.54501e-06 5.4767e-06 0.00051188
0.0123949 -0.000160684 0.000212121
-0.000160684 -0.00123172 -9.36739e-05
0.000212121 -9.36739e-05 -0.00180667
0.00250293 0.00429916 -5.77947e-08
0.00429916 0.00118223 -7.18459e-05
-5.77947e-08 -7.18459e-05 -0.00268401
0.0164019 0.00878152 -0.000608387
0.00878152 0.0109385 0.000280836
-0.000608387 0.000280836 0.00688809
0.00175228 -0.000938853 1.20844e-05
-0.000938853 -0.00271542 -3.722e-05
1.20844e-05 -3.722e-05 -0.00125621
0.0157673 -0.00286499 0.000248016
-0.00286499 0.00152886 -7.30091e-05
0.000248016 -7.30091e-05 0.000245404
0.0200077 0.00676987 0.00040532
0.00676987 0.00666666 -0.000542292
0.00040532 -0.000542292 0.00198239
0.0223279 0.00484156 -0.000333126
0.00484156 0.00725716 0.000303486
-0.000333126 0.000303486 0.0044596
0.00101334 0.000175068 -3.40308e-06
0.000175068 0.00046334 3.20135e-06
-3.40308e-06 3.20135e-06 0.000278451
0.000324595 4.10749e-05 4.402e-07
4.10749e-05 -3.81986e-05 -1.04182e-06
4.402e-07 -1.04182e-06 -0.000145813
0.000542862 -9.81712e-05 1.73393e-06
-9.81712e-05 0.000105663 1.47786e-06
1.73393e-06 1.47786e-06 -3.97401e-07
0.000686589 6.17995e-06 6.72806e-06
6.17995e-06 0.000202504 -1.52278e-06
6.72806e-06 -1.52278e-06 7.77752e-05
0.000832128 8.67593e-05 2.84664e-06
8.67593e-05 0.000354135 1.08226e-06
2.84664e-06 1.08226e-06 0.000216801
0.00048243 2.94192e-05 -6.04303e-08
2.94192e-05 8.61191e-05 8.48547e-06
-6.04303e-08 8.48547e-06 -8.30502e-05
0.000741029 9.59269e-05 5.57435e-07
9.59269e-05 0.000239194 3.22516e-06
5.57435e-07 3.22516e-06 9.80401e-05
0.000444646 6.95651e-05 5.37945e-06
6.95651e-05 1.71343e-05 2.86898e-06
5.37945e-06 2.86898e-06 -0.000126425
0.000672459 -2.18163e-05 2.57799e-06
-2.18163e-05 0.00020279 -1.18148e-06
2.57799e-06 -1.18148e-06 5.98061e-05
0.000464051 -1.55901e-05 2.21137e-06
-1.55901e-05 4.40607e-05 -2.75369e-06
2.21137e-06 -2.75369e-06 -6.8273e-05
0.00132689 -0.000357263 3.73521e-05
-0.000357263 -0.000731206 -1.1215e-05
3.73521e-05 -1.1215e-05 -0.000375933
0.00108152 -0.000620808 2.80533e-05
-0.000620808 -0.000708389 -9.18654e-06
2.80533e-05 -9.18654e-06 -0.000542358
0.00102776 -0.000776501 1.35018e-06
-0.000776501 -0.000423566 7.91414e-06
1.35018e-06 7.91414e-06 -0.000612139
-0.000146438 -0.000733246 -1.98735e-05
-0.000733246 -0.000785514 2.46622e-06
-1.98735e-05 2.46622e-06 -0.00106332
0.00246741 -0.000505959 7.30488e-06
-0.000505959 0.00160885 3.75694e-05
7.30488e-06 3.75694e-05 0.000910948
-0.000516723 -0.000572521 -7.15805e-06
-0.000572521 -0.000322111 -7.96607e-06
-7.15805e-06 -7.96607e-06 -0.000890683
0.00143627 -0.000279944 7.18319e-06
-0.000279944 0.000667411 -5.76136e-06
7.18319e-06 -5.76136e-06 0.000509499
0.00041998 -6.25152e-05 1.01461e-06
-6.25152e-05 9.94417e-05 2.62716e-06
1.01461e-06 2.62716e-06 -3.75571e-05
0.00253179 -0.000664883 1.38554e-05
-0.000664883 -0.00025355 -9.5179e-06
1.38554e-05 -9.5179e-06 8.13045e-05
0.000451465 -7.61123e-05 4.06782e-07
-7.61123e-05 0.000173647 1.77429e-06
4.06782e-07 1.77429e-06 -7.93413e-05
-0.000158097 -0.000217288 -2.45653e-06
-0.000217288 -0.000108356 -5.83974e-06
-2.45653e-06 -5.83974e-06 -0.000408763
0.0018188 -0.000827267 1.89703e-05
-0.000827267 -2.46601e-06 -1.23041e-06
1.89703e-05 -1.23041e-06 -8.3348e-05
0.0019691 -0.00102921 -1.33954e-06
-0.00102921 0.000150002 9.79007e-07
-1.33954e-06 9.79007e-07 -5.57939e-05
0.000291337 -0.000764719 2.01567e-05
-0.000764719 -0.000225268 -1.64725e-05
2.01567e-05 -1.64725e-05 -0.000483112
0.000981001 -0.00037412 1.02333e-05
-0.00037412 0.00092799 -2.09885e-05
1.02333e-05 -2.09885e-05 0.000192871
0.00201742 -0.00100255 -7.13292e-05
-0.00100255 -4.82307e-05 4.61039e-05
-7.13292e-05 4.61039e-05 -0.000282966
0.00112661 -0.000785086 -2.63574e-05
-0.000785086 -0.000143959 2.48429e-06
-2.63574e-05 2.48429e-06 -0.000161563
-0.000222974 -0.000636846 -6.37209e-05
-0.000636846 -8.20767e-05 3.88408e-05
-6.37209e-05 3.88408e-05 -0.000511186
-0.00219987 -0.000204659 -9.08377e-06
-0.000204659 -0.00148391 1.26449e-05
-9.08377e-06 1.26449e-05 -0.0017295
-0.00121677 -2.04159e-05 -7.29038e-10
-2.04159e-05 -0.000768864 1.20919e-05
-7.29038e-10 1.20919e-05 -0.00106844
0.00084101 -9.43217e-05 7.66705e-06
-9.43217e-05 0.000540321 -1.49541e-05
7.66705e-06 -1.49541e-05 0.000150071
-0.00267732 0.00139594 -0.00047472
0.00139594 0.00745671 2.25982e-05
-0.00047472 2.25982e-05 0.00200933
5.56216e-06 -0.00174781 -1.67566e-05
-0.00174781 0.00272812 1.88817e-06
-1.67566e-05 1.88817e-06 0.001509
0.00332197 0.000999856 -0.000142022
0.000999856 -0.00570996 -2.07802e-05
-0.000142022 -2.07802e-05 -0.00588505
0.00048438 0.000306773 1.37577e-05
0.000306773 0.000183592 -3.06719e-06
1.37577e-05 -3.06719e-06 -8.88351e-05
0.00179801 0.000665361 1.4732e-05
0.000665361 0.000737852 2.33558e-05
1.4732e-05 2.33558e-05 0.000294843
0.00351456 0.0010878 7.57262e-05
0.0010878 0.000701911 2.72736e-05
7.57262e-05 2.72736e-05 0.000580525
0.00141038 0.000922535 1.75167e-05
0.000922535 0.000361573 2.44745e-05
1.75167e-05 2.44745e-05 -0.000130575
0.0136344 -0.00343943 0.000274729
-0.00343943 0.00540848 8.96454e-05
0.000274729 8.96454e-05 0.00362769
0.00359466 0.00180689 -0.000402654
0.00180689 -0.00496992 -9.58155e-05
-0.000402654 -9.58155e-05 -0.00634546
0.00536592 0.00310068 5.11811e-05
0.00310068 0.000336887 2.86941e-05
5.11811e-05 2.86941e-05 0.00109032
0.00323078 0.00137781 6.08369e-05
0.00137781 0.00135035 -7.14094e-06
6.08369e-05 -7.14094e-06 0.00106243
0.0110457 -0.00342552 -0.000462228
-0.00342552 0.00462193 -0.000370652
-0.000462228 -0.000370652 0.000341844
0.00037078 -0.00417984 -0.00085969
-0.00417984 0.00736072 -0.000250038
-0.00085969 -0.000250038 0.00117294
0.027122 -0.00628495 0.000861631
-0.00628495 0.00801964 0.000416345
0.000861631 0.000416345 0.00467486
0.000304025 0.000275109 1.74991e-05
0.000275109 2.29647e-05 -4.63394e-06
1.74991e-05 -4.63394e-06 -0.000206327
-0.00397325 0.000460468 -0.000194752
0.000460468 0.00628652 -3.44013e-05
-0.000194752 -3.44013e-05 0.000108412
0.00625152 0.00149122 -0.000164228
0.00149122 0.00358789 -0.000184971
-0.000164228 -0.000184971 -0.00195448
0.00178823 0.000941295 9.1658e-06
0.000941295 0.00029207 2.78301e-06
9.1658e-06 2.78301e-06 0.000151459
0.000776188 0.000701664 1.60634e-05
0.000701664 0.000236983 5.69438e-06
1.60634e-05 5.69438e-06 -0.000197375
0.00084156 0.00108695 -6.51251e-05
0.00108695 0.000575019 -6.59032e-05
-6.51251e-05 -6.59032e-05 -3.20148e-05
0.00410834 0.00356507 3.74501e-05
0.00356507 0.00117547 3.76148e-05
3.74501e-05 3.76148e-05 0.00109629
0.0159527 0.00502117 1.23135e-05
0.00502117 0.00301863 7.85638e-06
1.23135e-05 7.85638e-06 0.000774115
0.00976312 -0.00407238 9.17297e-05
-0.00407238 0.005035 -0.000108402
9.17297e-05 -0.000108402 -0.000838066
0.0162929 -0.00219152 -1.90758e-05
-0.00219152 0.00232851 -7.13046e-05
-1.90758e-05 -7.13046e-05 0.00334362
0.000702075 0.000534224 -1.49905e-05
0.000534224 0.00025194 -9.84429e-06
-1.49905e-05 -9.84429e-06 -6.66717e-05
0.00173092 0.000259308 -0.000398096
0.000259308 0.00247416 -0.000100493
-0.000398096 -0.000100493 -0.00279279
0.00130562 0.00100705 -0.000151008
0.00100705 -0.000125708 -0.00018534
-0.000151008 -0.00018534 -0.00179083
-0.000752236 0.00034622 -6.42175e-06
0.00034622 -0.000161116 -2.09468e-05
-6.42175e-06 -2.09468e-05 -0.000451813
-0.00120434 0.000760273 -0.000189705
0.000760273 0.000908208 -1.33014e-05
-0.000189705 -1.33014e-05 0.000121938
0.01195 0.00547203 0.000130346
0.00547203 0.00392655 -3.94371e-05
0.000130346 -3.94371e-05 -0.000700029
-0.00115984 -0.00594211 -2.04563e-05
-0.00594211 9.05058e-06 0.000236927
-2.04563e-05 0.000236927 -0.00552962
0.012709 -1.70104e-05 7.13074e-05
-1.70104e-05 -0.00158832 -0.000337589
7.13074e-05 -0.000337589 0.000834906
0.000842587 0.000210488 -3.50146e-06
0.000210488 0.000357555 1.86836e-05
-3.50146e-06 1.86836e-05 0.000197952
0.000943666 0.000255561 -9.40426e-06
0.000255561 0.000560712 -5.52179e-06
-9.40426e-06 -5.52179e-06 0.000339136
-0.000316477 0.000141074 9.85871e-07
0.000141074 -8.21158e-06 -2.07778e-06
9.85871e-07 -2.07778e-06 -0.000344061
0.000520066 8.66574e-05 -6.42533e-07
8.66574e-05 9.7734e-05 -1.01674e-06
-6.42533e-07 -1.01674e-06 -7.58632e-05
0.00128651 -2.88055e-05 -2.36282e-06
-2.88055e-05 0.000627297 3.72614e-06
-2.36282e-06 3.72614e-06 0.00041166
-4.9879e-05 7.75281e-05 3.14545e-06
7.75281e-05 -0.000248538 2.16175e-06
3.14545e-06 2.16175e-06 -0.000411918
-0.00123495 4.54848e-05 2.34879e-06
4.54848e-05 -0.000715501 1.12592e-06
2.34879e-06 1.12592e-06 -0.000970608
0.000535634 -2.12876e-05 1.26679e-06
-2.12876e-05 0.000138005 4.83918e-07
1.26679e-06 4.83918e-07 -6.20381e-05
0.00048002 5.08853e-05 7.11283e-07
5.08853e-05 0.000187965 -2.33677e-06
7.11283e-07 -2.33677e-06 -2.15685e-05
8.06669e-05 4.77408e-05 2.64825e-06
4.77408e-05 0.000307 2.87457e-06
2.64825e-06 2.87457e-06 -0.000117993
-0.000511764 5.86107e-05 -2.96036e-06
5.86107e-05 0.000106471 1.22889e-05
-2.96036e-06 1.22889e-05 -0.000411097
0.000581275 1.06305e-05 -2.39797e-06
1.06305e-05 0.000590412 -5.47031e-06
-2.39797e-06 -5.47031e-06 0.000181297
0.00142593 2.97281e-05 -2.11305e-06
2.97281e-05 0.00075922 -9.71448e-07
-2.11305e-06 -9.71448e-07 0.0005587
0.000853315 -0.00016798 3.80569e-06
-0.00016798 0.000339192 2.00197e-06
3.80569e-06 2.00197e-06 0.000145097
0.000202782 -6.69599e-05 1.60289e-06
-6.69599e-05 -0.000153331 5.93639e-06
1.60289e-06 5.93639e-06 -0.000275357
0.000109567 -8.80224e-05 5.69326e-06
-8.80224e-05 -0.000139893 1.63851e-05
5.69326e-06 1.63851e-05 -0.000240289
0.00020406 -3.4697e-05 2.06907e-06
-3.4697e-05 -1.0127e-05 2.07945e-06
2.06907e-06 2.07945e-06 -0.000185763
0.000513675 -4.76988e-05 -9.44271e-08
-4.76988e-05 0.000118523 1.01544e-06
-9.44271e-08 1.01544e-06 -4.00076e-05
0.00022956 -5.22217e-05 -9.97318e-07
-5.22217e-05 -3.21319e-05 -1.79705e-06
-9.97318e-07 -1.79705e-06 -0.0001628
0.000460174 -7.30393e-05 -7.30064e-06
-7.30393e-05 9.25456e-05 -5.29773e-06
-7.30064e-06 -5.29773e-06 -4.23788e-05
0.000530517 -8.52477e-05 8.99676e-06
-8.52477e-05 0.00033158 -8.2769e-06
8.99676e-06 -8.2769e-06 0.000159121
0.00139939 -0.000278353 2.01339e-06
-0.000278353 0.000463887 5.18145e-06
2.01339e-06 5.18145e-06 0.000371763
0.000516249 -0.000134742 -1.56896e-05
-0.000134742 2.99191e-05 -4.81888e-07
-1.56896e-05 -4.81888e-07 -8.27532e-05
0.000530382 -0.000234851 7.50709e-06
-0.000234851 -3.2546e-07 6.73597e-06
7.50709e-06 6.73597e-06 -0.000174259
0.00236587 -0.000623721 -3.79182e-06
-0.000623721 0.00103908 2.2428e-05
-3.79182e-06 2.2428e-05 0.000670753
0.00187837 -0.000269912 4.56425e-06
-0.000269912 0.000861599 -1.06419e-05
4.56425e-06 -1.06419e-05 0.000656129
0.000633219 -0.000222851 -5.87089e-06
-0.000222851 5.49695e-05 -6.90163e-06
-5.87089e-06 -6.90163e-06 -9.83659e-05
0.000503101 -8.83074e-05 -3.52601e-07
-8.83074e-05 0.000102833 -1.05125e-06
-3.52601e-07 -1.05125e-06 -8.90291e-05
-0.000355849 -4.59712e-05 -6.67104e-07
-4.59712e-05 -0.000397255 -1.51548e-06
-6.67104e-07 -1.51548e-06 -0.000630607
0.00117036 -5.64665e-05 1.06605e-06
-5.64665e-05 0.000533906 1.43916e-06
1.06605e-06 1.43916e-06 0.000344239
0.000709456 -0.00014441 2.89755e-07
-0.00014441 0.000245033 -1.3781e-08
2.89755e-07 -1.3781e-08 4.57001e-05
0.000402562 -6.50276e-05 5.39535e-07
-6.50276e-05 -2.12615e-05 1.25536e-06
5.39535e-07 1.25536e-06 -0.000154596
0.00147281 -0.000215593 -2.67964e-06
-0.000215593 0.000741809 -4.68418e-07
-2.67964e-06 -4.68418e-07 0.000549063
0.000693355 -0.000119663 -5.21022e-07
-0.000119663 0.000179463 1.26043e-08
-5.21022e-07 1.26043e-08 4.2524e-05
0.000513754 2.16969e-07 -1.60857e-06
2.16969e-07 3.7011e-05 3.59578e-06
-1.60857e-06 3.59578e-06 -5.00043e-05
0.000717178 -0.000136627 9.05526e-07
-0.000136627 0.000206849 -2.38585e-06
9.05526e-07 -2.38585e-06 6.68131e-05
0.000585127 -6.14074e-05 -7.7808e-08
-6.14074e-05 8.65405e-05 1.17964e-07
-7.7808e-08 1.17964e-07 -1.70382e-07
0.00144516 9.18079e-06 -1.30906e-05
9.18079e-06 0.000599932 7.88746e-06
-1.30906e-05 7.88746e-06 0.000575668
0.000535654 -7.22946e-05 1.72586e-06
-7.22946e-05 6.47404e-05 -4.90406e-06
1.72586e-06 -4.90406e-06 -2.28876e-05
0.000856684 -1.55048e-05 -9.48937e-06
-1.55048e-05 0.000233696 7.3911e-07
-9.48937e-06 7.3911e-07 0.000208083
0.0008109 2.09209e-05 1.22622e-06
2.09209e-05 0.000189765 3.01401e-06
1.22622e-06 3.01401e-06 0.000190952
0.00042308 -3.61746e-05 2.89437e-06
-3.61746e-05 -3.56741e-05 -5.25916e-06
2.89437e-06 -5.25916e-06 -6.23429e-05
0.00166449 1.97243e-05 1.21088e-05
1.97243e-05 0.000736541 -1.51181e-06
1.21088e-05 -1.51181e-06 0.00074456
0.00251792 9.92072e-06 1.35094e-05
9.92072e-06 0.00127905 -5.19066e-06
1.35094e-05 -5.19066e-06 0.0012917
0.000480692 5.78568e-05 1.62775e-06
5.78568e-05 3.21244e-05 -7.17172e-07
1.62775e-06 -7.17172e-07 -7.37704e-05
0.000589731 6.73617e-05 -1.12068e-06
6.73617e-05 8.52026e-05 -2.12835e-06
-1.12068e-06 -2.12835e-06 2.63057e-05
0.000575796 5.41155e-06 6.97837e-07
5.41155e-06 0.000108125 8.51619e-07
6.97837e-07 8.51619e-07 2.96745e-06
0.000454165 5.95637e-06 2.02363e-06
5.95637e-06 -3.60436e-05 -3.76305e-06
2.02363e-06 -3.76305e-06 -4.68633e-05
0.000483078 5.68231e-05 -6.73491e-09
5.68231e-05 1.89313e-05 -1.873e-07
-6.73491e-09 -1.873e-07 -3.37688e-05
0.000495904 -0.000114924 -2.99408e-06
-0.000114924 5.9516e-05 9.17359e-07
-2.99408e-06 9.17359e-07 -3.97155e-05
0.00201478 1.04667e-05 -7.46328e-06
1.04667e-05 0.000954923 -4.88398e-06
-7.46328e-06 -4.88398e-06 0.000972371
0.000443609 6.53575e-06 -2.58099e-07
6.53575e-06 -4.29805e-05 2.94122e-08
-2.58099e-07 2.94122e-08 -5.31331e-05
0.000491932 -6.3155e-06 -1.60402e-06
-6.3155e-06 1.90112e-05 2.19627e-06
-1.60402e-06 2.19627e-06 -2.68904e-05
0.000457458 5.06318e-06 -1.86279e-06
5.06318e-06 -3.53022e-05 3.33521e-06
-1.86279e-06 3.33521e-06 -4.61749e-05
0.00204703 2.60518e-05 -5.55288e-06
2.60518e-05 0.000977943 -1.18072e-07
-5.55288e-06 -1.18072e-07 0.000994056
0.0020172 4.02653e-05 -3.93687e-06
4.02653e-05 0.000961981 4.76796e-06
-3.93687e-06 4.76796e-06 0.000976723
-0.00597978 -0.00197082 -0.000220632
-0.00197082 0.00640305 6.13981e-05
-0.000220632 6.13981e-05 0.00193607
0.00272684 0.00170681 -0.000306332
0.00170681 0.00109624 9.87356e-05
-0.000306332 9.87356e-05 -0.00149913
0.00292453 -0.00108037 -0.000650942
-0.00108037 0.00128461 0.000277986
-0.000650942 0.000277986 -0.00348041
0.00109664 0.0011743 0.00123237
0.0011743 0.0071099 -0.000335838
0.00123237 -0.000335838 0.00226968
0.00348368 0.000699769 -5.41447e-05
0.000699769 -0.000829246 1.23479e-05
-5.41447e-05 1.23479e-05 0.00025162
0.00313795 -0.000544127 9.65206e-05
-0.000544127 -0.000206711 1.1507e-05
9.65206e-05 1.1507e-05 -1.19982e-05
0.00104523 -0.000395845 0.000327804
-0.000395845 -0.00561629 -5.49526e-05
0.000327804 -5.49526e-05 -0.00693676
0.0246276 0.00374327 -0.00105167
0.00374327 0.0108971 7.42717e-05
-0.00105167 7.42717e-05 0.0072705
0.0088412 0.0103045 -0.00258565
0.0103045 0.00676038 0.00160956
-0.00258565 0.00160956 0.00233684
0.00504837 -0.000779882 3.7086e-05
-0.000779882 -0.000589167 5.42947e-06
3.7086e-05 5.42947e-06 0.000355224
0.00852361 -0.00273771 0.000193276
-0.00273771 -0.00256227 -0.000156662
0.000193276 -0.000156662 -0.00460112
0.021259 0.00621573 -0.000373173
0.00621573 0.00718632 -0.000122735
-0.000373173 -0.000122735 0.00242064
0.0166762 0.0048442 4.348e-05
0.0048442 0.00418058 0.000434805
4.348e-05 0.000434805 0.0012144
0.00174388 -0.00200574 -0.000121151
-0.00200574 -0.00355743 3.57459e-05
-0.000121151 3.57459e-05 -0.00201157
0.0066373 -0.00433829 0.000506323
-0.00433829 -0.000218231 -0.000239033
0.000506323 -0.000239033 -0.00381298
0.00978808 0.00369487 5.35864e-05
0.00369487 0.00259483 -0.000901814
5.35864e-05 -0.000901814 -0.00232252
0.00908302 0.000501292 -0.000334558
0.000501292 -0.00182694 2.17599e-05
-0.000334558 2.17599e-05 -0.00134496
0.00247513 -7.99183e-05 9.41267e-07
-7.99183e-05 0.00143519 1.76326e-05
9.41267e-07 1.76326e-05 0.00115799
0.000283588 9.29417e-05 -1.59944e-06
9.29417e-05 -3.02871e-05 -2.22599e-06
-1.59944e-06 -2.22599e-06 -0.000175982
0.000521408 0.000106318 2.82865e-06
0.000106318 7.32075e-05 -7.51485e-07
2.82865e-06 -7.51485e-07 -2.95654e-05
7.8206e-05 -1.60156e-05 5.51727e-06
-1.60156e-05 -0.000150167 -3.56783e-06
5.51727e-06 -3.56783e-06 -0.000251406
0.000439695 0.000111084 4.0706e-06
0.000111084 3.24236e-05 6.86099e-06
4.0706e-06 6.86099e-06 -0.000152475
0.000460926 5.14064e-05 -6.55782e-08
5.14064e-05 6.39448e-05 1.84602e-06
-6.55782e-08 1.84602e-06 -9.28066e-05
0.000177747 2.53094e-05 1.56952e-06
2.53094e-05 -0.000116077 -3.64491e-06
1.56952e-06 -3.64491e-06 -0.000248152
0.000905309 0.00018501 5.73421e-06
0.00018501 0.000345516 9.46507e-06
5.73421e-06 9.46507e-06 0.00016567
0.000915492 0.000140807 -2.9178e-07
0.000140807 0.000362583 -5.04767e-07
-2.9178e-07 -5.04767e-07 0.000185248
0.000339778 -1.02332e-05 -3.74599e-06
-1.02332e-05 -2.22895e-05 -6.78219e-06
-3.74599e-06 -6.78219e-06 -0.000158337
0.000442188 -0.000519234 9.21527e-05
-0.000519234 -0.0013912 -5.0366e-05
9.21527e-05 -5.0366e-05 -0.000998397
0.00010551 -0.00067127 7.9981e-06
-0.00067127 -0.000976977 -6.64849e-06
7.9981e-06 -6.64849e-06 -0.000963484
0.00128443 -0.00094772 -1.43216e-05
-0.00094772 -0.000285507 2.2801e-05
-1.43216e-05 2.2801e-05 -0.00037431
-0.00114832 -0.000745047 3.51813e-06
-0.000745047 -0.00100442 -2.05392e-06
3.51813e-06 -2.05392e-06 -0.00133849
0.00342769 -0.000481166 -3.14808e-05
-0.000481166 0.00215269 7.41447e-05
-3.14808e-05 7.41447e-05 0.00160936
0.000890795 -0.000220016 -2.44221e-06
-0.000220016 0.000550666 7.07096e-06
-2.44221e-06 7.07096e-06 0.000227017
0.000395405 0.000121714 -2.0281e-06
0.000121714 0.000122552 -1.65393e-05
-2.0281e-06 -1.65393e-05 -0.000124323
0.000706774 -4.64074e-05 -3.20038e-06
-4.64074e-05 0.000316232 8.95261e-06
-3.20038e-06 8.95261e-06 3.52157e-05
0.00198575 -0.000929816 -1.45295e-05
-0.000929816 -0.00016135 -2.61279e-06
-1.45295e-05 -2.61279e-06 -0.000195406
0.000731722 -4.0456e-05 1.2697e-06
-4.0456e-05 0.000376153 4.62291e-06
1.2697e-06 4.62291e-06 9.25698e-05
0.00230693 -0.000332133 2.9462e-06
-0.000332133 0.00141203 -2.45416e-06
2.9462e-06 -2.45416e-06 0.00100109
0.0013762 -0.000810235 1.04952e-05
-0.000810235 -1.26787e-05 1.3625e-06
1.04952e-05 1.3625e-06 -4.6376e-05
0.000483591 -0.000680184 -3.56721e-05
-0.000680184 0.000243402 9.30813e-06
-3.56721e-05 9.30813e-06 -0.000146111
0.00210918 -0.00161692 6.80202e-05
-0.00161692 1.38722e-05 -2.71942e-05
6.80202e-05 -2.71942e-05 -0.000148647
-0.000205513 -0.000546884 -4.77023e-06
-0.000546884 -0.000323707 2.31022e-05
-4.77023e-06 2.31022e-05 -0.000422141
-0.00160809 -9.45876e-05 1.88622e-05
-9.45876e-05 -0.000698525 -2.12962e-06
1.88622e-05 -2.12962e-06 -0.00118142
0.000531355 5.3226e-05 -4.23595e-06
5.3226e-05 0.000197224 5.68617e-06
-4.23595e-06 5.68617e-06 -1.56373e-05
0.000378204 -4.92758e-05 3.70994e-06
-4.92758e-05 0.000283254 -3.52355e-06
3.70994e-06 -3.52355e-06 -5.51082e-05
0.00135695 0.000177413 -5.85646e-05
0.000177413 0.00199318 -2.26822e-05
-5.85646e-05 -2.26822e-05 -0.00234943
-0.007094 0.000455745 -0.00042622
0.000455745 0.00686875 -2.13298e-05
-0.00042622 -2.13298e-05 0.00137267
-0.0136418 -0.00291135 -0.000832216
-0.00291135 -0.00501502 -6.18901e-06
-0.000832216 -6.18901e-06 -0.00630223
-0.000390134 0.000251404 1.27882e-05
0.000251404 -0.000324712 -3.80061e-06
1.27882e-05 -3.80061e-06 -0.000586961
-0.000882135 0.000537612 -2.04783e-06
0.000537612 -0.00058943 1.03383e-05
-2.04783e-06 1.03383e-05 -0.00103567
0.00253713 0.00111924 3.92337e-05
0.00111924 0.00070301 3.32788e-05
3.92337e-05 3.32788e-05 0.000504596
-0.0053257 0.00218727 0.000101793
0.00218727 0.00698082 6.16174e-05
0.000101793 6.16174e-05 0.00200359
0.00686114 0.00428092 -0.000364619
0.00428092 -0.000156935 -0.000189286
-0.000364619 -0.000189286 -0.00338475
0.00100863 0.00229009 0.000449587
0.00229009 -1.22384e-05 0.000170129
0.000449587 0.000170129 -7.47813e-05
-0.000244194 0.000991206 7.94084e-06
0.000991206 -9.14062e-05 -4.89307e-05
7.94084e-06 -4.89307e-05 -0.000395803
0.028667 -0.004024 -0.000152927
-0.004024 0.00962486 -0.00041796
-0.000152927 -0.00041796 0.00544127
0.00686935 0.00194112 0.000645802
0.00194112 0.00340317 0.000230038
0.000645802 0.000230038 -0.00263466
0.0139707 -0.00169621 0.000179375
-0.00169621 0.00248607 4.58199e-05
0.000179375 4.58199e-05 0.00379153
0.00136046 0.00060298 5.01772e-06
0.00060298 0.000711413 -1.63616e-06
5.01772e-06 -1.63616e-06 0.000377624
0.00384536 0.000735433 -2.11362e-05
0.000735433 0.00344572 1.14325e-05
-2.11362e-05 1.14325e-05 -0.000535217
0.00185829 0.000898458 8.1903e-05
0.000898458 0.000181018 -3.63911e-06
8.1903e-05 -3.63911e-06 -0.00150253
-0.000472584 0.000539143 -2.02246e-06
0.000539143 -0.000113542 -5.44867e-06
-2.02246e-06 -5.44867e-06 -0.000475159
-0.000164142 0.00144018 -0.000126942
0.00144018 0.000703302 -6.56331e-05
-0.000126942 -6.56331e-05 -0.000584594
0.00196767 0.00531076 0.000253997
0.00531076 0.00101553 0.00012043
0.000253997 0.00012043 -0.00342639
0.0103364 -0.000205633 3.04478e-06
-0.000205633 -0.00349394 -0.000222756
3.04478e-06 -0.000222756 -0.000761674
0.00679639 -0.00268824 -8.49631e-05
-0.00268824 0.0039777 -0.000179807
-8.49631e-05 -0.000179807 -0.00141034
0.00103357 0.000482783 -7.91341e-06
0.000482783 0.000838621 -1.52598e-05
-7.91341e-06 -1.52598e-05 0.000450814
-0.00338612 0.000336038 2.00608e-05
0.000336038 0.000204476 3.6344e-05
2.00608e-05 3.6344e-05 -0.000498093
0.00564408 -0.0003432 0.000147804
-0.0003432 -0.000154622 -0.000155221
0.000147804 -0.000155221 -0.00153921
0.00888452 0.00064819 0.000315853
0.00064819 -0.0017205 -1.95629e-05
0.000315853 -1.95629e-05 -0.00116581
-0.00277078 0.000168241 4.76156e-05
0.000168241 -9.16507e-05 -2.58919e-05
4.76156e-05 -2.58919e-05 -0.000967129
0.0124473 0.00376208 0.000365043
0.00376208 0.0062484 9.86356e-05
0.000365043 9.86356e-05 0.000616677
0.00359395 -0.000676097 5.3173e-06
-0.000676097 0.00311453 0.0004116
5.3173e-06 0.0004116 -0.000814548
0.00317299 0.00049246 2.68867e-05
0.00049246 0.0019448 1.20214e-05
2.68867e-05 1.20214e-05 0.00166146
0.000395538 0.000238508 -6.83854e-06
0.000238508 0.000445676 -1.74427e-06
-6.83854e-06 -1.74427e-06 6.67279e-05
0.000239916 0.00020898 4.38036e-06
0.00020898 0.000517067 -4.24799e-06
4.38036e-06 -4.24799e-06 3.23076e-05
0.000344536 0.000131247 1.51043e-06
0.000131247 2.73772e-05 -2.73663e-06
1.51043e-06 -2.73663e-06 -0.000176239
0.000613631 0.000102755 1.0489e-06
0.000102755 0.000248269 1.13239e-06
1.0489e-06 1.13239e-06 5.59028e-05
0.000116468 -5.8549e-06 6.87818e-06
-5.8549e-06 0.000351614 -3.61339e-06
6.87818e-06 -3.61339e-06 -8.35961e-05
0.000495386 3.59791e-05 1.65433e-07
3.59791e-05 0.000160967 -8.04681e-07
1.65433e-07 -8.04681e-07 -2.07764e-05
0.000803987 -4.12401e-05 -5.97655e-07
-4.12401e-05 0.000737647 -2.54234e-06
-5.97655e-07 -2.54234e-06 0.000323322
-3.20733e-05 2.84696e-05 5.9473e-09
2.84696e-05 0.000396072 -6.91999e-07
5.9473e-09 -6.91999e-07 -0.000117738
-6.30839e-05 -3.36448e-05 -2.40321e-06
-3.36448e-05 0.000345131 1.26851e-05
-2.40321e-06 1.26851e-05 -0.000100192
0.000314537 -3.21273e-05 -1.37578e-06
-3.21273e-05 0.000380212 -8.22946e-06
-1.37578e-06 -8.22946e-06 5.73747e-05
4.69021e-05 -6.19246e-05 5.44748e-06
-6.19246e-05 -0.000137827 9.31159e-06
5.44748e-06 9.31159e-06 -0.000289765
0.00116389 -5.09066e-05 4.32547e-07
-5.09066e-05 0.000510518 4.06584e-06
4.32547e-07 4.06584e-06 0.000355159
0.00127327 -7.99903e-05 -1.60044e-05
-7.99903e-05 0.000612744 1.35324e-05
-1.60044e-05 1.35324e-05 0.000480763
0.000740999 -9.28916e-05 5.49042e-06
-9.28916e-05 0.000437986 -6.91962e-07
5.49042e-06 -6.91962e-07 0.000274656
0.000394446 -5.56494e-05 -1.3055e-06
-5.56494e-05 5.50258e-05 -1.45991e-06
-1.3055e-06 -1.45991e-06 -7.82837e-05
0.000657928 -0.000217361 -7.47363e-07
-0.000217361 0.000202465 4.22352e-06
-7.47363e-07 4.22352e-06 6.6789e-05
0.000287201 -0.000182248 -1.48913e-05
-0.000182248 -9.89336e-05 -5.29351e-07
-1.48913e-05 -5.29351e-07 -0.000149875
-0.000973486 -0.000288129 1.18599e-05
-0.000288129 -0.000811783 2.28703e-05
1.18599e-05 2.28703e-05 -0.00111672
4.12494e-05 -0.00015171 4.92721e-06
-0.00015171 -0.000238498 -4.72161e-07
4.92721e-06 -4.72161e-07 -0.000353521
0.00116152 -0.00030967 -4.54132e-06
-0.00030967 0.000371451 1.17555e-05
-4.54132e-06 1.17555e-05 0.000175108
0.00213739 -0.000625276 -6.76194e-06
-0.000625276 0.000895934 1.44562e-05
-6.76194e-06 1.44562e-05 0.000499384
0.00178446 -0.000602088 -7.23884e-06
-0.000602088 0.000579457 -6.53693e-07
-7.23884e-06 -6.53693e-07 0.000160403
0.00169475 -0.000416709 8.01428e-07
-0.000416709 0.000699348 1.1566e-06
8.01428e-07 1.1566e-06 0.000440051
0.000539299 -0.000385113 9.18947e-06
-0.000385113 -8.90018e-05 -4.17739e-06
9.18947e-06 -4.17739e-06 -0.000389505
0.00125352 -0.000191113 2.58372e-06
-0.000191113 0.000583689 -3.36383e-06
2.58372e-06 -3.36383e-06 0.000302844
0.00113855 -0.000233264 -8.59856e-06
-0.000233264 0.000450773 2.03215e-06
-8.59856e-06 2.03215e-06 0.000233712
-0.000290536 -0.000129717 1.73393e-05
-0.000129717 -0.000497323 -1.70175e-05
1.73393e-05 -1.70175e-05 -0.000603171
0.00126821 -0.000122403 -2.08429e-06
-0.000122403 0.00054888 1.96744e-06
-2.08429e-06 1.96744e-06 0.000356756
0.000257814 -9.2661e-05 8.30531e-07
-9.2661e-05 -2.43407e-05 1.389e-08
8.30531e-07 1.389e-08 -0.000255009
0.000289935 -5.60013e-05 1.07971e-06
-5.60013e-05 -8.56132e-05 6.14219e-07
1.07971e-06 6.14219e-07 -0.000242755
0.00165593 -0.000260612 -2.09934e-06
-0.000260612 0.00084099 -3.96259e-07
-2.09934e-06 -3.96259e-07 0.000626192
0.000672331 -0.000107976 -3.44052e-07
-0.000107976 0.000165512 -3.95068e-08
-3.44052e-07 -3.95068e-08 1.67489e-05
0.000376827 6.40333e-06 2.55357e-06
6.40333e-06 -3.64416e-05 4.44859e-06
2.55357e-06 4.44859e-06 -0.000139389
0.000808751 -0.00014961 -5.1038e-08
-0.00014961 0.000264622 -2.16341e-06
-5.1038e-08 -2.16341e-06 0.000116156
0.000467447 5.09579e-06 -2.20993e-06
5.09579e-06 1.90752e-05 -1.89293e-07
-2.20993e-06 -1.89293e-07 -7.6022e-05
0.00144271 2.29552e-06 -1.8757e-05
2.29552e-06 0.000598438 5.55029e-06
-1.8757e-05 5.55029e-06 0.000572401
0.000587191 -7.04239e-05 2.28768e-06
-7.04239e-05 9.3413e-05 -4.72896e-06
2.28768e-06 -4.72896e-06 3.46088e-06
0.000874223 -1.14867e-05 -9.22447e-06
-1.14867e-05 0.000239334 5.50369e-07
-9.22447e-06 5.50369e-07 0.000212266
0.000839367 3.10763e-05 4.74548e-07
3.10763e-05 0.000205161 3.19795e-06
4.74548e-07 3.19795e-06 0.000203897
0.000443838 -2.90827e-05 3.02211e-06
-2.90827e-05 -2.96452e-05 -6.29191e-06
3.02211e-06 -6.29191e-06 -5.79896e-05
0.00173997 3.19841e-05 1.51583e-05
3.19841e-05 0.000781654 -1.24812e-06
1.51583e-05 -1.24812e-06 0.00078824
0.00254569 2.36627e-05 1.86073e-05
2.36627e-05 0.00129391 -5.52029e-06
1.86073e-05 -5.52029e-06 0.0013063
0.00030514 2.04722e-05 1.96696e-06
2.04722e-05 -6.09828e-05 2.47112e-06
1.96696e-06 2.47112e-06 -0.000197602
0.000132237 2.14306e-05 1.99867e-07
2.14306e-05 -0.00020847 -3.76883e-06
1.99867e-07 -3.76883e-06 -0.000274587
0.000612827 5.65455e-05 1.15718e-07
5.65455e-05 0.000127103 2.47054e-07
1.15718e-07 2.47054e-07 1.04114e-05
0.000455793 6.19968e-06 1.79454e-06
6.19968e-06 -3.7142e-05 -3.94706e-06
1.79454e-06 -3.94706e-06 -4.95106e-05
0.000317187 7.78839e-06 1.66593e-06
7.78839e-06 -9.35113e-05 5.25798e-08
1.66593e-06 5.25798e-08 -0.000149473
0.000227497 -9.47594e-05 -1.03116e-06
-9.47594e-05 -0.000114028 -5.75015e-07
-1.03116e-06 -5.75015e-07 -0.000218584
0.002067 -3.62122e-06 -1.21714e-05
-3.62122e-06 0.000987032 -4.91612e-06
-1.21714e-05 -4.91612e-06 0.00100453
0.000450384 4.75804e-06 1.89586e-08
4.75804e-06 -3.92697e-05 -6.69268e-08
1.89586e-08 -6.69268e-08 -4.97981e-05
0.000422499 -1.42134e-05 -3.11084e-06
-1.42134e-05 -2.47677e-05 2.45078e-06
-3.11084e-06 2.45078e-06 -7.39448e-05
0.0020348 1.18563e-05 -4.78291e-06
1.18563e-05 0.000968077 5.65228e-09
-4.78291e-06 5.65228e-09 0.000985271
0.000444779 5.70308e-06 -1.68152e-06
5.70308e-06 -4.16185e-05 3.30574e-06
-1.68152e-06 3.30574e-06 -5.18519e-05
0.00201359 2.70751e-05 2.28404e-06
2.70751e-05 0.00095672 4.9296e-06
2.28404e-06 4.9296e-06 0.000972827
-0.000456011 -0.000941408 -0.000270978
-0.000941408 -0.000126621 0.000108687
-0.000270978 0.000108687 -0.0036093
0.00220477 0.00083685 -0.000136722
0.00083685 0.00829664 3.05274e-05
-0.000136722 3.05274e-05 0.00360574
0.00278344 0.000109771 -0.00100665
0.000109771 0.00407551 0.000220224
-0.00100665 0.000220224 0.00209119
0.000715509 0.000124813 6.8944e-06
0.000124813 0.000195651 7.15768e-06
6.8944e-06 7.15768e-06 3.49855e-05
0.00542953 -0.00104899 -0.000121483
-0.00104899 0.00337554 0.000264882
-0.000121483 0.000264882 0.00108932
0.00421385 -0.00138772 -0.000293949
-0.00138772 0.0018115 2.92044e-05
-0.000293949 2.92044e-05 -0.0029728
0.0130559 0.00418568 0.000341635
0.00418568 0.0085965 -0.000383661
0.000341635 -0.000383661 0.00363335
0.0075676 -0.00123052 0.000135882
-0.00123052 0.000653756 -2.21255e-05
0.000135882 -2.21255e-05 0.00113932
0.0132768 -0.00262029 0.000285462
-0.00262029 0.000900133 -0.000161783
0.000285462 -0.000161783 7.68245e-05
0.011562 0.00510512 -0.00076679
0.00510512 0.00180214 0.000439429
-0.00076679 0.000439429 -0.00260779
0.014546 0.00451615 0.000149098
0.00451615 0.00598806 0.000248803
0.000149098 0.000248803 0.00297189
0.00776689 -0.00257191 -0.00011693
-0.00257191 5.36885e-05 -3.76836e-06
-0.00011693 -3.76836e-06 0.00075576
0.0167536 -0.00477872 2.43448e-05
-0.00477872 0.0034957 -3.7551e-05
2.43448e-05 -3.7551e-05 0.000973552
0.00930412 0.00296199 0.000137386
0.00296199 0.00399476 -0.00038163
0.000137386 -0.00038163 -0.00100149
0.0130021 0.00127947 6.56667e-06
0.00127947 9.03848e-05 4.58264e-05
6.56667e-06 4.58264e-05 -0.000105029
0.00278137 -0.00261313 -6.97516e-05
-0.00261313 2.99957e-05 8.57369e-05
-6.97516e-05 8.57369e-05 0.000224389
0.0103149 -0.00485702 0.000194302
-0.00485702 0.00437648 -0.000113575
0.000194302 -0.000113575 0.000106339
0.0102343 -0.00031537 0.000119061
-0.00031537 0.00528642 -0.000476919
0.000119061 -0.000476919 0.00193578
0.0127097 0.000163064 -0.000157697
0.000163064 -0.00120963 0.000276992
-0.000157697 0.000276992 0.000737109
0.000404329 8.14252e-05 6.37869e-06
8.14252e-05 0.000106773 1.39834e-05
6.37869e-06 1.39834e-05 -0.000106863
0.000652084 -0.000128408 5.99254e-07
-0.000128408 0.000276475 3.16499e-08
5.99254e-07 3.16499e-08 2.94898e-05
0.000812291 0.000115833 2.31877e-06
0.000115833 0.000319752 -4.85135e-06
2.31877e-06 -4.85135e-06 0.000162007
0.000514244 0.000145479 4.21424e-06
0.000145479 4.5319e-05 1.39078e-05
4.21424e-06 1.39078e-05 -9.93506e-05
0.00083256 0.000201274 2.33898e-07
0.000201274 0.00031168 3.44211e-07
2.33898e-07 3.44211e-07 0.000112436
0.00108204 0.000115644 -4.48086e-06
0.000115644 0.000475595 -5.38532e-06
-4.48086e-06 -5.38532e-06 0.000310098
0.001062 0.000180694 -1.57506e-06
0.000180694 0.000448818 3.88336e-08
-1.57506e-06 3.88336e-08 0.000265164
0.0010641 0.000191439 1.18757e-06
0.000191439 0.000474915 1.47749e-06
1.18757e-06 1.47749e-06 0.000286754
0.000749545 -0.000712203 0.000130223
-0.000712203 -0.000908749 -7.30161e-05
0.000130223 -7.30161e-05 -0.000713125
0.000120119 -0.000706364 -3.3641e-05
-0.000706364 -0.000789036 -8.29801e-07
-3.3641e-05 -8.29801e-07 -0.000730617
0.000908639 -0.00022549 4.79026e-06
-0.00022549 0.00045988 -3.12886e-05
4.79026e-06 -3.12886e-05 0.000161571
0.00188699 -0.000733762 2.26626e-05
-0.000733762 0.000986567 -2.15343e-05
2.26626e-05 -2.15343e-05 0.000634818
0.00246282 -0.000498688 -2.25461e-05
-0.000498688 0.00144471 2.32461e-05
-2.25461e-05 2.32461e-05 0.00103838
0.00165551 -0.000167438 6.53117e-06
-0.000167438 0.000938027 -2.26254e-05
6.53117e-06 -2.26254e-05 0.000635439
7.20556e-05 -1.93978e-06 3.60566e-06
-1.93978e-06 -9.52521e-05 7.22892e-06
3.60566e-06 7.22892e-06 -0.000304638
0.000705439 -0.0013622 -9.1169e-06
-0.0013622 -0.000562185 -5.58274e-06
-9.1169e-06 -5.58274e-06 -0.000711041
0.0013708 -2.0648e-05 -9.09634e-07
-2.0648e-05 0.000892098 -5.33869e-07
-9.09634e-07 -5.33869e-07 0.000548438
7.33191e-05 -0.000239882 -5.10312e-06
-0.000239882 0.000210913 6.51641e-06
-5.10312e-06 6.51641e-06 -0.000238371
-0.000495974 -0.000435905 2.35136e-05
-0.000435905 -0.000548361 -6.64879e-07
2.35136e-05 -6.64879e-07 -0.000530729
0.000857465 0.000119159 3.10444e-06
0.000119159 0.000399789 8.24756e-06
3.10444e-06 8.24756e-06 0.00020766
0.000180792 -0.00130205 -6.87756e-05
-0.00130205 -0.000141783 -2.56892e-05
-6.87756e-05 -2.56892e-05 -0.00050875
-0.00105193 -0.000456127 -1.95394e-05
-0.000456127 -0.000490197 2.76341e-05
-1.95394e-05 2.76341e-05 -0.000825089
0.000118278 0.000159149 1.38533e-05
0.000159149 0.000435071 -2.34921e-05
1.38533e-05 -2.34921e-05 -8.80572e-05
0.00153093 0.000256284 -9.95176e-07
0.000256284 0.00104486 1.41357e-07
-9.95176e-07 1.41357e-07 0.000708437
-0.00119933 0.000117592 0.000144447
0.000117592 0.00186309 3.18405e-05
0.000144447 3.18405e-05 0.000741597
0.000318586 -4.92162e-06 0.000172592
-4.92162e-06 0.00126148 -3.55011e-05
0.000172592 -3.55011e-05 -0.00314627
-0.0123111 -0.000397076 -0.000307776
-0.000397076 0.00636683 2.84785e-05
-0.000307776 2.84785e-05 0.000590061
0.00174854 0.000625648 2.07693e-05
0.000625648 0.00102623 3.73702e-06
2.07693e-05 3.73702e-06 0.000686339
-0.000601585 0.000761671 1.36183e-05
0.000761671 -0.000215602 1.07918e-05
1.36183e-05 1.07918e-05 -0.000703407
0.00567867 0.000992417 0.0003699
0.000992417 0.00400268 7.75778e-05
0.0003699 7.75778e-05 0.00120629
0.00825745 0.00412748 0.00025124
0.00412748 0.00302832 0.000210694
0.00025124 0.000210694 -0.00112856
0.00437381 0.00277414 -0.000118496
0.00277414 0.00246136 -0.000111832
-0.000118496 -0.000111832 0.000991922
0.00428331 -0.00233738 -0.000169847
-0.00233738 0.00450384 -0.000474074
-0.000169847 -0.000474074 0.000293641
0.00296514 0.000726069 0.000142522
0.000726069 0.000463886 0.000186967
0.000142522 0.000186967 -0.00121057
0.00819442 -0.000324515 -5.28697e-05
-0.000324515 -0.00547673 -0.000247508
-5.28697e-05 -0.000247508 -0.00233831
0.00100753 0.00056454 5.30027e-06
0.00056454 0.000776127 1.1916e-06
5.30027e-06 1.1916e-06 0.000352878
-0.0027836 0.0001629 -2.76032e-06
0.0001629 0.000304007 4.04065e-06
-2.76032e-06 4.04065e-06 -0.000546462
0.00485789 -0.000192028 0.000129541
-0.000192028 -0.000213 2.07983e-05
0.000129541 2.07983e-05 -0.000987388
-0.00185157 0.000487407 -1.59524e-05
0.000487407 -0.000218416 -1.17461e-05
-1.59524e-05 -1.17461e-05 -0.00100486
0.012752 0.0014449 -1.71339e-06
0.0014449 8.10658e-05 -4.96636e-05
-1.71339e-06 -4.96636e-05 -0.000122555
0.00299726 0.00213461 0.00025126
0.00213461 0.00420008 0.000150675
0.00025126 0.000150675 -0.00170383
0.00806349 0.000728065 -0.000187028
0.000728065 0.00341478 5.97171e-06
-0.000187028 5.97171e-06 -0.000574562
0.00029295 0.000477397 8.2175e-06
0.000477397 0.000546538 -2.32302e-05
8.2175e-06 -2.32302e-05 -2.3801e-05
0.00174337 -2.65231e-05 8.45734e-07
-2.65231e-05 0.00053421 -9.94986e-06
8.45734e-07 -9.94986e-06 -0.000115218
0.0040282 -0.00141156 0.000106688
-0.00141156 0.00336729 -0.000256881
0.000106688 -0.000256881 0.00137306
0.0221377 0.00532721 0.000328385
0.00532721 0.0071253 -0.000302079
0.000328385 -0.000302079 0.0042474
0.00964637 -0.000231879 -0.000128839
-0.000231879 0.00552491 0.000500637
-0.000128839 0.000500637 0.00188249
-0.00022388 0.000468439 -3.75166e-05
0.000468439 0.000723109 -0.00013682
-3.75166e-05 -0.00013682 -5.10565e-05
0.00466349 0.00138573 0.000275809
0.00138573 0.00653384 2.74052e-05
0.000275809 2.74052e-05 -0.00213686
0.00126661 0.000373469 8.7161e-06
0.000373469 0.000943211 1.16708e-05
8.7161e-06 1.16708e-05 0.000544388
0.00069574 0.000274697 4.31733e-06
0.000274697 0.000780235 3.52326e-06
4.31733e-06 3.52326e-06 0.000316039
0.000558177 -4.29572e-05 -1.2341e-05
-4.29572e-05 0.000868441 6.75004e-06
-1.2341e-05 6.75004e-06 0.000458403
-0.000751753 -2.13042e-05 2.07592e-06
-2.13042e-05 -0.000629809 -1.85261e-07
2.07592e-06 -1.85261e-07 -0.000795483
8.51935e-05 -2.61876e-05 4.08455e-06
-2.61876e-05 0.00035079 1.92943e-06
4.08455e-06 1.92943e-06 -0.000102084
-6.72365e-05 4.40389e-05 3.00253e-06
4.40389e-05 0.000396163 -6.4297e-06
3.00253e-06 -6.4297e-06 -0.000130866
0.000121062 -2.83809e-05 1.06314e-07
-2.83809e-05 0.000203582 7.87919e-07
1.06314e-07 7.87919e-07 -6.60597e-05
-9.84645e-05 -4.73114e-05 2.75498e-06
-4.73114e-05 0.000312879 1.2822e-06
2.75498e-06 1.2822e-06 -0.000132723
0.00171084 -0.000409018 5.38216e-06
-0.000409018 0.0011441 -1.02984e-05
5.38216e-06 -1.02984e-05 0.000800614
0.000524473 -8.3141e-05 -5.78308e-06
-8.3141e-05 0.000292563 6.14015e-06
-5.78308e-06 6.14015e-06 0.000135727
0.000112364 5.21012e-06 -1.24924e-07
5.21012e-06 -0.000114493 2.62755e-06
-1.24924e-07 2.62755e-06 -0.000245807
0.0013078 -0.000302316 3.77153e-07
-0.000302316 0.000597093 5.87794e-06
3.77153e-07 5.87794e-06 0.000421965
-0.00341247 -6.82801e-05 1.92636e-05
-6.82801e-05 -0.00204642 2.33481e-05
1.92636e-05 2.33481e-05 -0.00238907
-0.000584558 -0.000101133 1.56616e-05
-0.000101133 -0.000536525 -2.03514e-06
1.56616e-05 -2.03514e-06 -0.000550088
-0.000125405 -0.000347372 -1.4005e-06
-0.000347372 -0.000349846 -5.86082e-06
-1.4005e-06 -5.86082e-06 -0.000617838
0.00141531 -0.000599034 -1.8217e-06
-0.000599034 0.000422543 8.4389e-07
-1.8217e-06 8.4389e-07 -7.74764e-05
0.00175128 -0.000707738 -9.85177e-06
-0.000707738 0.000514568 1.1915e-06
-9.85177e-06 1.1915e-06 4.21261e-05
0.00158548 -0.000369853 6.44732e-06
-0.000369853 0.000615399 -5.31302e-06
6.44732e-06 -5.31302e-06 0.00039912
0.00137626 -0.000533408 6.93472e-07
-0.000533408 0.000422246 4.04392e-07
6.93472e-07 4.04392e-07 3.71642e-05
0.00162826 -0.000606671 3.23975e-06
-0.000606671 0.000443772 -3.95855e-06
3.23975e-06 -3.95855e-06 3.0864e-05
0.00149181 -0.000455416 -2.82726e-06
-0.000455416 0.000473158 8.45158e-06
-2.82726e-06 8.45158e-06 0.000147403
0.00106092 -0.000509375 2.26234e-06
-0.000509375 0.000142549 -4.57319e-06
2.26234e-06 -4.57319e-06 -0.000247519
0.000884155 -0.000196979 5.86259e-07
-0.000196979 0.000285286 -5.6255e-06
5.86259e-07 -5.6255e-06 2.06531e-05
0.00105529 -0.000365673 -5.46884e-06
-0.000365673 0.000308919 2.86111e-06
-5.46884e-06 2.86111e-06 4.38206e-05
-0.00092669 -0.00018815 1.82482e-06
-0.00018815 -0.000983693 -9.9722e-06
1.82482e-06 -9.9722e-06 -0.00122645
-5.79633e-05 -6.43539e-05 4.7977e-07
-6.43539e-05 -0.000268419 -2.6713e-06
4.7977e-07 -2.6713e-06 -0.000484067
0.000302982 -0.000149554 2.35844e-07
-0.000149554 2.04503e-05 1.87705e-07
2.35844e-07 1.87705e-07 -0.000259547
0.000141557 -0.000183131 1.25371e-05
-0.000183131 -0.000115692 6.47324e-07
1.25371e-05 6.47324e-07 -0.000344598
0.000716502 -0.000143607 1.35473e-08
-0.000143607 0.000249625 1.47362e-06
1.35473e-08 1.47362e-06 2.40956e-05
0.000699322 -0.000128318 1.09354e-07
-0.000128318 0.000186036 3.69386e-07
1.09354e-07 3.69386e-07 1.18941e-05
0.000506362 -1.21601e-05 1.28603e-06
-1.21601e-05 3.4256e-05 6.16737e-06
1.28603e-06 6.16737e-06 -7.84815e-05
0.00113366 -0.0001677 -1.24989e-06
-0.0001677 0.000475323 -1.04752e-06
-1.24989e-06 -1.04752e-06 0.000308495
0.000589936 -1.89679e-05 -1.25523e-06
-1.89679e-05 8.47326e-05 -3.43068e-07
-1.25523e-06 -3.43068e-07 -1.21704e-05
0.000379086 5.0572e-05 2.7856e-06
5.0572e-05 -6.50037e-05 7.40736e-06
2.7856e-06 7.40736e-06 -0.000104865
0.000710201 -7.29038e-05 1.64247e-06
-7.29038e-05 0.000162334 -3.78441e-06
1.64247e-06 -3.78441e-06 6.9957e-05
0.000444948 -1.90044e-06 -1.64489e-06
-1.90044e-06 -3.51538e-05 -7.45257e-08
-1.64489e-06 -7.45257e-08 -6.76524e-05
0.00265876 9.25242e-05 -1.76166e-06
9.25242e-05 0.00136739 2.68948e-06
-1.76166e-06 2.68948e-06 0.00137119
0.000469883 -2.12687e-05 3.11038e-06
-2.12687e-05 -1.7598e-05 -6.46856e-06
3.11038e-06 -6.46856e-06 -4.81372e-05
0.00178013 4.56087e-05 1.8253e-05
4.56087e-05 0.000806506 -1.04416e-06
1.8253e-05 -1.04416e-06 0.000810956
0.00263991 3.97995e-05 2.56744e-05
3.97995e-05 0.00135224 -5.76727e-06
2.56744e-05 -5.76727e-06 0.00136354
0.000257819 2.73023e-05 2.70576e-06
2.73023e-05 -0.000109433 1.77635e-06
2.70576e-06 1.77635e-06 -0.000233946
0.000205729 1.08513e-05 1.94605e-06
1.08513e-05 -0.000163674 -2.54263e-06
1.94605e-06 -2.54263e-06 -0.000241175
0.000455513 3.81833e-05 -5.26389e-07
3.81833e-05 2.84794e-05 -1.26869e-06
-5.26389e-07 -1.26869e-06 -0.000101005
0.000479157 7.5989e-06 1.61648e-06
7.5989e-06 -2.29669e-05 -4.43621e-06
1.61648e-06 -4.43621e-06 -3.83957e-05
0.000179824 1.83823e-05 -6.54033e-07
1.83823e-05 -0.00017921 -1.80013e-06
-6.54033e-07 -1.80013e-06 -0.000247493
0.000659766 5.95374e-05 -2.48869e-07
5.95374e-05 0.000170367 1.28917e-06
-2.48869e-07 1.28917e-06 4.42137e-05
0.00209232 -1.72559e-05 -1.74978e-05
-1.72559e-05 0.00100176 -4.83415e-06
-1.74978e-05 -4.83415e-06 0.0010191
0.000458508 3.9904e-06 -7.22692e-07
3.9904e-06 -3.5971e-05 -7.87158e-08
-7.22692e-07 -7.87158e-08 -4.79703e-05
9.49202e-05 1.72798e-05 1.44907e-06
1.72798e-05 -0.000230933 1.94763e-06
1.44907e-06 1.94763e-06 -0.000290836
0.00205505 -2.48118e-06 -4.11625e-06
-2.48118e-06 0.00097937 5.40435e-08
-4.11625e-06 5.40435e-08 0.00099696
0.000440536 4.1918e-06 -1.94889e-06
4.1918e-06 -4.60852e-05 3.56501e-06
-1.94889e-06 3.56501e-06 -5.62569e-05
0.00207986 1.3416e-05 7.90971e-06
1.3416e-05 0.000997165 4.99583e-06
7.90971e-06 4.99583e-06 0.00101392
0.000498435 -5.46208e-05 0.000156669
-5.46208e-05 0.00262977 7.03675e-05
0.000156669 7.03675e-05 0.00175725
-0.000352103 -0.000434931 -5.92854e-05
-0.000434931 0.000445491 -7.96521e-06
-5.92854e-05 -7.96521e-06 -0.0037128
0.000217896 0.000823817 -7.50033e-05
0.000823817 0.00790847 -5.49621e-05
-7.50033e-05 -5.49621e-05 0.00299095
0.00078824 0.000140041 8.01845e-07
0.000140041 0.000227033 2.2024e-07
8.01845e-07 2.2024e-07 7.85878e-05
7.06395e-05 8.62114e-05 7.09105e-06
8.62114e-05 -0.000230855 5.22189e-06
7.09105e-06 5.22189e-06 -0.000366342
0.0011721 0.000208809 1.19221e-05
0.000208809 0.000471938 9.40365e-06
1.19221e-05 9.40365e-06 0.000319788
0.00666147 -0.000520296 -0.000132575
-0.000520296 -0.000326137 0.000221789
-0.000132575 0.000221789 -0.00156684
0.00540108 -0.00130849 0.000109119
-0.00130849 0.00301605 1.26584e-05
0.000109119 1.26584e-05 0.00144737
0.00463887 -0.00208771 0.00022898
-0.00208771 0.00192995 -0.000280224
0.00022898 -0.000280224 -0.0028913
0.00930103 -0.00311694 -5.5785e-06
-0.00311694 0.000153853 -4.28234e-05
-5.5785e-06 -4.28234e-05 0.0010348
0.00140192 -0.00382182 -0.000491501
-0.00382182 -0.00216953 8.73267e-05
-0.000491501 8.73267e-05 -0.00449209
0.0268998 0.00472804 0.000289856
0.00472804 0.0115069 0.000194641
0.000289856 0.000194641 0.00577774
0.00772032 -0.000311827 0.00033563
-0.000311827 -0.00247745 -0.000263182
0.00033563 -0.000263182 -0.00291807
0.00381278 -0.00299742 -2.93481e-05
-0.00299742 -0.000267366 1.79674e-05
-2.93481e-05 1.79674e-05 0.000406694
0.00740306 -0.00486136 -0.000144736
-0.00486136 0.00270018 2.14792e-05
-0.000144736 2.14792e-05 -0.00213044
-0.000646977 0.0039886 -9.65489e-05
0.0039886 0.00461079 -0.000331556
-9.65489e-05 -0.000331556 -0.000683397
0.0107377 -4.34558e-05 -9.17796e-05
-4.34558e-05 -0.00342754 0.000155138
-9.17796e-05 0.000155138 -0.000734832
0.000859909 -0.00209581 -0.000119467
-0.00209581 0.000870141 5.2691e-05
-0.000119467 5.2691e-05 0.000440444
0.0108148 -0.00337979 -0.000334291
-0.00337979 0.00601743 0.000202961
-0.000334291 0.000202961 0.000751683
0.000861765 -0.000215388 6.03375e-05
-0.000215388 0.00272669 -0.000348475
6.03375e-05 -0.000348475 -0.00132977
0.00939441 -0.000604615 0.000130118
-0.000604615 -0.00192263 8.29197e-05
0.000130118 8.29197e-05 -0.00128177
0.000145035 0.000103894 1.11637e-05
0.000103894 -0.000127404 2.38389e-05
1.11637e-05 2.38389e-05 -0.000268104
0.000676178 -1.0587e-08 2.53057e-06
-1.0587e-08 0.000252017 -2.96099e-06
2.53057e-06 -2.96099e-06 2.96331e-05
0.000298759 -0.000164593 2.83411e-06
-0.000164593 -2.49359e-05 -1.21638e-05
2.83411e-06 -1.21638e-05 -0.000232151
0.000643855 0.000143629 -1.93351e-06
0.000143629 0.000131755 1.89777e-06
-1.93351e-06 1.89777e-06 -2.03915e-05
0.000771679 0.000152349 1.82169e-06
0.000152349 0.00027813 -7.5547e-06
1.82169e-06 -7.5547e-06 8.92628e-05
0.00116532 0.0002034 -5.11904e-06
0.0002034 0.000514716 -5.84385e-06
-5.11904e-06 -5.84385e-06 0.000330327
-5.58984e-05 -0.00117276 3.97722e-05
-0.00117276 -0.000841257 -1.79172e-05
3.97722e-05 -1.79172e-05 -0.000961094
0.00100945 -0.000418531 2.2838e-05
-0.000418531 0.000271088 -2.25204e-05
2.2838e-05 -2.25204e-05 0.00031468
0.00014508 0.000101138 -2.29498e-06
0.000101138 -3.68341e-05 -1.98925e-05
-2.29498e-06 -1.98925e-05 -0.000264986
0.00256246 -0.000501872 6.75495e-05
-0.000501872 0.00157127 -2.75677e-05
6.75495e-05 -2.75677e-05 0.00116864
0.00184903 -0.000148185 9.1391e-07
-0.000148185 0.00112444 1.19908e-06
9.1391e-07 1.19908e-06 0.000817421
-0.000164632 0.000100615 4.50523e-06
0.000100615 -0.000164001 4.1419e-06
4.50523e-06 4.1419e-06 -0.000381693
0.000396598 8.83072e-05 1.25788e-06
8.83072e-05 0.000323345 1.3525e-07
1.25788e-06 1.3525e-07 3.82025e-05
0.00087521 -0.00136042 -4.32625e-05
-0.00136042 0.000161674 2.49153e-06
-4.32625e-05 2.49153e-06 -0.000283805
0.000181699 -3.61734e-05 -5.14826e-06
-3.61734e-05 0.000517182 3.63982e-06
-5.14826e-06 3.63982e-06 -2.83999e-05
0.000857051 -0.000395227 -9.14341e-06
-0.000395227 0.000678902 -6.7011e-06
-9.14341e-06 -6.7011e-06 0.00024148
0.000636792 0.000173791 4.76251e-06
0.000173791 0.000454694 -9.75684e-06
4.76251e-06 -9.75684e-06 0.000192065
-0.00186689 -0.000353349 -3.36126e-05
-0.000353349 6.28419e-06 -2.14817e-05
-3.36126e-05 -2.14817e-05 -0.000950217
0.000838358 -0.000241383 -3.01147e-05
-0.000241383 0.00103157 3.79257e-06
-3.01147e-05 3.79257e-06 0.0005422
-0.00111504 -6.73441e-06 -1.30891e-05
-6.73441e-06 -0.000109337 5.44554e-07
-1.30891e-05 5.44554e-07 -0.000633489
-0.000141653 0.000251272 -1.26845e-05
0.000251272 -0.0005708 3.06342e-06
-1.26845e-05 3.06342e-06 -0.00206093
-0.00194535 0.000271418 7.42129e-05
0.000271418 0.00159516 -1.14984e-05
7.42129e-05 -1.14984e-05 0.000437214
-0.000589127 -0.000152142 0.000361286
-0.000152142 0.000606815 3.3848e-05
0.000361286 3.3848e-05 -0.00378944
0.00020748 0.000551143 5.28582e-06
0.000551143 0.000290206 1.80816e-05
5.28582e-06 1.80816e-05 -0.000160531
0.000142069 0.000852894 -2.44338e-05
0.000852894 0.000418562 -1.40593e-05
-2.44338e-05 -1.40593e-05 -0.000289568
-0.00250423 0.000114009 -5.94715e-05
0.000114009 0.000401762 -2.68558e-05
-5.94715e-05 -2.68558e-05 -0.00059843
-0.00482857 0.000736786 8.32205e-05
0.000736786 0.00283334 0.000202034
8.32205e-05 0.000202034 -0.00275169
0.000442426 0.0010448 -0.000169914
0.0010448 -0.00147555 -0.000500283
-0.000169914 -0.000500283 -0.00639386
0.00405695 -2.81593e-05 9.34834e-05
-2.81593e-05 -0.000322241 8.81545e-05
9.34834e-05 8.81545e-05 -0.000547509
0.00706403 -0.000103537 -0.000326832
-0.000103537 -0.00237914 0.000258458
-0.000326832 0.000258458 -0.00298892
0.000179734 0.000391057 -1.23053e-06
0.000391057 0.000526833 -5.86092e-07
-1.23053e-06 -5.86092e-07 3.15993e-05
0.00114278 4.68774e-05 3.55864e-05
4.68774e-05 0.000458153 -6.55729e-06
3.55864e-05 -6.55729e-06 -0.000173567
0.0044905 -0.00100309 -0.000103897
-0.00100309 0.00300386 -2.47691e-06
-0.000103897 -2.47691e-06 0.00138306
-0.000523384 0.000726467 -0.000143681
0.000726467 0.00127582 -8.41899e-06
-0.000143681 -8.41899e-06 -0.00026652
0.0159647 0.00537533 -2.61526e-05
0.00537533 0.00418399 -0.000426113
-2.61526e-05 -0.000426113 0.00118508
0.000949893 0.00344021 9.1827e-05
0.00344021 0.00491493 0.000345853
9.1827e-05 0.000345853 -0.00064981
0.00515033 0.00088453 6.51688e-05
0.00088453 0.00596514 -1.87042e-05
6.51688e-05 -1.87042e-05 -0.00151491
0.000402441 -3.59233e-06 3.77565e-05
-3.59233e-06 0.00140265 -2.48255e-05
3.77565e-05 -2.48255e-05 0.000278895
1.26597e-05 -0.000152077 -0.000141911
-0.000152077 0.00280918 3.1908e-06
-0.000141911 3.1908e-06 0.00173144
0.00175761 -0.000947689 0.000763182
-0.000947689 0.000620991 -0.000266616
0.000763182 -0.000266616 -0.00446163
0.0213234 0.00813754 -7.81819e-05
0.00813754 0.014402 -1.07439e-05
-7.81819e-05 -1.07439e-05 0.0101971
0.00831294 0.00403313 -6.88328e-05
0.00403313 0.00270872 0.00087416
-6.88328e-05 0.00087416 -0.00216334
0.0120879 -0.00381501 0.000317918
-0.00381501 0.00636153 -0.00025499
0.000317918 -0.00025499 0.00026937
0.00328787 -0.000802701 -6.9755e-05
-0.000802701 0.00331273 3.55138e-05
-6.9755e-05 3.55138e-05 0.00230089
0.000849071 0.000258456 -4.90298e-06
0.000258456 0.000883046 2.86929e-06
-4.90298e-06 2.86929e-06 0.00043729
-1.81014e-05 -6.21234e-05 -5.53238e-06
-6.21234e-05 0.000463627 -4.10049e-06
-5.53238e-06 -4.10049e-06 1.00186e-05
0.00119881 -0.000549073 4.4261e-05
-0.000549073 0.00093459 -1.25445e-05
4.4261e-05 -1.25445e-05 0.000384345
0.000283416 -7.60906e-05 -2.35006e-06
-7.60906e-05 0.000254753 6.24478e-06
-2.35006e-06 6.24478e-06 3.14108e-05
-0.000110647 -6.65642e-05 -2.0621e-06
-6.65642e-05 0.000269963 -1.53007e-05
-2.0621e-06 -1.53007e-05 -0.000149277
0.000539537 -0.000318615 -4.75594e-06
-0.000318615 0.000588965 3.94424e-07
-4.75594e-06 3.94424e-07 0.000227303
0.0011841 -0.000656268 2.43593e-05
-0.000656268 0.000524358 -1.7195e-05
2.43593e-05 -1.7195e-05 0.000198899
0.00193921 -0.000391882 8.35136e-07
-0.000391882 0.00100629 2.96237e-07
8.35136e-07 2.96237e-07 0.000772686
0.00155406 -0.000651521 1.56298e-05
-0.000651521 0.000692655 -2.80852e-06
1.56298e-05 -2.80852e-06 0.000274141
0.00117329 -0.000615027 8.11904e-06
-0.000615027 0.000472872 2.36151e-06
8.11904e-06 2.36151e-06 -0.000195377
0.000607386 -0.00036827 -5.88824e-06
-0.00036827 5.3862e-05 -7.82051e-06
-5.88824e-06 -7.82051e-06 -0.000162659
0.00209911 -0.00068366 -3.20195e-06
-0.00068366 0.000784923 -1.90002e-06
-3.20195e-06 -1.90002e-06 0.000285787
0.0019474 -0.000822193 -1.16451e-05
-0.000822193 0.000582511 -7.05468e-07
-1.16451e-05 -7.05468e-07 -1.38555e-05
0.00204076 -0.000903845 -1.36433e-05
-0.000903845 0.000481013 2.35585e-06
-1.36433e-05 2.35585e-06 -4.49467e-05
0.00189676 -0.000773732 -4.87155e-06
-0.000773732 0.000563109 4.18109e-07
-4.87155e-06 4.18109e-07 8.58359e-05
0.00169178 -0.000701751 -4.60217e-06
-0.000701751 0.000469088 9.50249e-07
-4.60217e-06 9.50249e-07 -5.31592e-06
0.00125704 -0.000524117 1.80358e-06
-0.000524117 0.000324908 -7.08618e-06
1.80358e-06 -7.08618e-06 -6.61342e-05
0.00144319 -0.000549001 8.6562e-06
-0.000549001 0.000405132 -2.43527e-06
8.6562e-06 -2.43527e-06 2.10792e-05
0.00161711 -0.000614416 6.49059e-06
-0.000614416 0.000440882 -1.68109e-06
6.49059e-06 -1.68109e-06 2.6426e-05
0.0010651 -0.000282968 5.31792e-07
-0.000282968 0.000275992 -3.66147e-07
5.31792e-07 -3.66147e-07 1.77445e-05
0.00113499 -0.000426361 5.67991e-06
-0.000426361 0.000250373 -4.71753e-06
5.67991e-06 -4.71753e-06 -6.84448e-05
0.000224639 -0.000405296 -2.44775e-06
-0.000405296 -0.000367617 -8.30286e-06
-2.44775e-06 -8.30286e-06 -0.000726799
7.86809e-05 -7.87972e-05 -7.47771e-08
-7.87972e-05 -0.000170312 -3.47188e-06
-7.47771e-08 -3.47188e-06 -0.000434624
0.00103809 -0.000237927 -3.35318e-07
-0.000237927 0.000395479 6.44918e-07
-3.35318e-07 6.44918e-07 0.000123972
0.000447929 -0.000314252 -3.73712e-06
-0.000314252 -6.38094e-05 -1.64979e-06
-3.73712e-06 -1.64979e-06 -0.000333547
0.00056197 -5.61089e-05 -2.71984e-07
-5.61089e-05 6.38329e-05 6.97913e-06
-2.71984e-07 6.97913e-06 -6.82797e-05
0.000771911 -0.000120703 -3.39351e-07
-0.000120703 0.000244833 2.03111e-08
-3.39351e-07 2.03111e-08 2.63669e-05
-0.000102192 -0.000117135 8.30566e-08
-0.000117135 -0.000227155 4.5021e-06
8.30566e-08 4.5021e-06 -0.000493322
0.00125372 -0.000157198 3.89373e-07
-0.000157198 0.000545808 -5.34497e-07
3.89373e-07 -5.34497e-07 0.000358848
0.000613457 -5.91892e-05 -4.1323e-07
-5.91892e-05 0.000100524 -3.28073e-07
-4.1323e-07 -3.28073e-07 -1.54306e-05
0.000331336 2.12262e-05 2.02463e-06
2.12262e-05 -9.08182e-05 9.74243e-06
2.02463e-06 9.74243e-06 -0.00013702
0.000698222 -6.66182e-05 5.13398e-07
-6.66182e-05 0.000151371 -4.586e-06
5.13398e-07 -4.586e-06 5.21379e-05
0.00046764 1.06801e-05 -3.35011e-06
1.06801e-05 -1.62187e-05 -2.99579e-07
-3.35011e-06 -2.99579e-07 -5.30046e-05
0.00285349 9.85257e-05 -4.05174e-05
9.85257e-05 0.00149794 4.83768e-06
-4.05174e-05 4.83768e-06 0.00150161
0.000488016 -1.30168e-05 3.01566e-06
-1.30168e-05 -1.08421e-05 -6.50621e-06
3.01566e-06 -6.50621e-06 -4.23709e-05
0.00179557 6.28798e-05 2.16411e-05
6.28798e-05 0.00081848 -7.39402e-07
2.16411e-05 -7.39402e-07 0.000820301
0.00275193 5.97245e-05 3.17748e-05
5.97245e-05 0.00142417 -5.39568e-06
3.17748e-05 -5.39568e-06 0.00143345
0.00085114 0.000109281 5.73287e-06
0.000109281 0.000276073 4.5451e-07
5.73287e-06 4.5451e-07 0.000131186
0.000509226 5.02249e-05 2.92556e-06
5.02249e-05 2.94776e-05 -2.08644e-06
2.92556e-06 -2.08644e-06 -5.47663e-05
0.000448497 5.1135e-05 -7.54954e-07
5.1135e-05 2.66234e-05 -1.39924e-06
-7.54954e-07 -1.39924e-06 -0.000110368
0.000472406 8.07799e-06 1.16624e-06
8.07799e-06 -2.7273e-05 -5.44521e-06
1.16624e-06 -5.44521e-06 -4.74386e-05
0.000311799 4.10376e-05 -2.37833e-06
4.10376e-05 -9.50399e-05 -1.93237e-06
-2.37833e-06 -1.93237e-06 -0.000172088
0.000658467 8.23124e-05 -1.76098e-06
8.23124e-05 0.000161405 -3.57586e-06
-1.76098e-06 -3.57586e-06 3.08765e-05
0.00218435 -3.28998e-05 -2.11793e-05
-3.28998e-05 0.00106012 -4.90989e-06
-2.11793e-05 -4.90989e-06 0.00107614
0.00045268 -1.4901e-06 1.85582e-07
-1.4901e-06 -4.08356e-05 -1.44185e-07
1.85582e-07 -1.44185e-07 -5.55961e-05
0.000117425 1.58545e-05 -1.85165e-06
1.58545e-05 -0.000219264 2.20411e-07
-1.85165e-06 2.20411e-07 -0.000288782
0.00212797 -1.66749e-05 -5.60709e-06
-1.66749e-05 0.00102459 1.30008e-07
-5.60709e-06 1.30008e-07 0.00104181
0.000451914 2.55787e-07 -2.92664e-06
2.55787e-07 -4.0577e-05 3.7497e-06
-2.92664e-06 3.7497e-06 -5.22629e-05
0.00209445 -9.89736e-07 1.28553e-05
-9.89736e-07 0.00100448 4.98083e-06
1.28553e-05 4.98083e-06 0.00102187
0.00166905 -0.000289859 -7.48919e-05
-0.000289859 0.000386022 3.40559e-05
-7.48919e-05 3.40559e-05 -0.000282843
-0.000934819 -0.000201969 7.72382e-05
-0.000201969 0.0022179 -4.2731e-06
7.72382e-05 -4.2731e-06 0.00109092
-0.000966297 -0.000386383 0.00016183
-0.000386383 0.000787048 -0.000172087
0.00016183 -0.000172087 -0.00391541
0.000125163 5.00883e-05 4.41444e-06
5.00883e-05 -0.00016961 8.31057e-06
4.41444e-06 8.31057e-06 -0.000329508
0.00256499 0.00010705 3.03226e-06
0.00010705 0.00135552 7.88172e-06
3.03226e-06 7.88172e-06 0.0011666
0.000725075 0.000156797 -4.88109e-06
0.000156797 0.000196515 -6.29697e-06
-4.88109e-06 -6.29697e-06 4.83951e-05
0.00031502 8.29586e-05 1.02778e-06
8.29586e-05 -8.24989e-05 1.03161e-06
1.02778e-06 1.03161e-06 -0.000214731
0.000319274 8.8935e-05 4.99955e-07
8.8935e-05 -8.4821e-05 -1.24963e-06
4.99955e-07 -1.24963e-06 -0.000206226
0.000338235 9.94514e-05 8.64862e-06
9.94514e-05 -5.18223e-05 1.85199e-06
8.64862e-06 1.85199e-06 -0.00018298
0.000123992 0.000115133 1.64225e-05
0.000115133 -0.000157721 6.46907e-06
1.64225e-05 6.46907e-06 -0.000276939
0.00218038 0.00120838 0.000242466
0.00120838 -0.000411617 0.000253151
0.000242466 0.000253151 -0.00184916
0.00546056 -0.000326148 -6.09363e-05
-0.000326148 -0.000149156 5.38251e-05
-6.09363e-05 5.38251e-05 -0.0012699
0.004252 -0.000798088 0.000256297
-0.000798088 0.00300361 -0.000117627
0.000256297 -0.000117627 0.00150455
0.00859835 -0.000196253 -2.01052e-06
-0.000196253 -0.00575712 0.000187551
-2.01052e-06 0.000187551 -0.00229467
0.00578421 -0.00338164 -0.000127774
-0.00338164 0.000872774 3.53129e-05
-0.000127774 3.53129e-05 0.00120655
0.00115493 -0.00440615 -0.000307445
-0.00440615 0.00155568 0.000100974
-0.000307445 0.000100974 -0.00431254
0.0166106 0.00450411 0.000150626
0.00450411 0.00751562 -0.000178976
0.000150626 -0.000178976 0.00253476
0.00236174 -0.0026454 -6.12374e-05
-0.0026454 0.000163071 2.49313e-05
-6.12374e-05 2.49313e-05 0.000529865
-0.00140331 -0.000977573 -5.6591e-05
-0.000977573 0.00416164 5.3608e-05
-5.6591e-05 5.3608e-05 -0.00316386
0.0096314 0.0005572 0.000227468
0.0005572 0.00377594 -3.01232e-05
0.000227468 -3.01232e-05 1.74641e-05
0.016178 -0.00201378 -7.99399e-05
-0.00201378 0.00209771 -1.41757e-05
-7.99399e-05 -1.41757e-05 0.00325294
-0.00148856 -0.000590239 -0.000172738
-0.000590239 0.000468775 0.000158527
-0.000172738 0.000158527 0.00029183
0.00286539 0.00215558 -0.000213187
0.00215558 0.00544326 -0.000113457
-0.000213187 -0.000113457 -0.00207607
-0.000945816 -0.00567162 3.77591e-06
-0.00567162 -0.000141008 -0.000251989
3.77591e-06 -0.000251989 -0.00559754
0.0147629 -0.00302578 0.000161148
-0.00302578 0.00456199 -0.000669368
0.000161148 -0.000669368 0.00255486
0.000554662 1.97155e-05 1.86555e-05
1.97155e-05 0.00033135 3.46105e-07
1.86555e-05 3.46105e-07 7.30859e-05
0.000796275 0.000187003 -1.60058e-06
0.000187003 0.000308737 -4.12729e-06
-1.60058e-06 -4.12729e-06 0.00015042
0.000888531 -1.57909e-05 -1.5774e-06
-1.57909e-05 0.000402692 -6.46183e-06
-1.5774e-06 -6.46183e-06 0.000154524
0.000985245 0.000157368 -6.00217e-06
0.000157368 0.000371078 -1.20401e-05
-6.00217e-06 -1.20401e-05 0.000199778
0.000478855 -0.00116311 4.2814e-05
-0.00116311 1.94322e-05 3.18606e-05
4.2814e-05 3.18606e-05 -0.000481797
0.00240421 -0.000382176 8.19155e-06
-0.000382176 0.00159971 -2.62741e-05
8.19155e-06 -2.62741e-05 0.00108045
0.000942769 0.000110787 -1.60597e-05
0.000110787 0.00051281 -2.23034e-05
-1.60597e-05 -2.23034e-05 0.000317042
0.000891776 3.92429e-05 -1.25203e-08
3.92429e-05 0.000600837 -8.35973e-06
-1.25203e-08 -8.35973e-06 0.00034375
0.000298484 -3.32922e-05 -1.61699e-06
-3.32922e-05 0.000585895 1.46639e-05
-1.61699e-06 1.46639e-05 0.000108075
0.000303138 8.1524e-05 2.10284e-06
8.1524e-05 0.000186053 3.78475e-06
2.10284e-06 3.78475e-06 -2.81771e-05
0.000116758 3.05209e-06 7.51218e-07
3.05209e-06 0.000565672 8.95806e-07
7.51218e-07 8.95806e-07 5.78248e-05
0.000389944 -0.000474303 -8.11916e-06
-0.000474303 0.00113119 6.87381e-06
-8.11916e-06 6.87381e-06 -0.000130442
0.000385931 -0.000135091 7.3976e-06
-0.000135091 0.000935288 -2.63906e-06
7.3976e-06 -2.63906e-06 0.000448639
-0.000607755 0.00011168 3.89623e-06
0.00011168 -0.000169576 -1.37525e-05
3.89623e-06 -1.37525e-05 -0.000441843
0.00148775 5.00376e-05 -0.000132301
5.00376e-05 0.00348178 -2.16123e-05
-0.000132301 -2.16123e-05 0.00153505
0.00106588 0.000360571 -2.16379e-05
0.000360571 0.00125117 7.70438e-06
-2.16379e-05 7.70438e-06 0.000685802
-0.00213929 5.21218e-05 -8.77619e-05
5.21218e-05 0.00189584 -2.82263e-05
-8.77619e-05 -2.82263e-05 0.00066718
0.00104723 8.82947e-05 1.89125e-05
8.82947e-05 4.46637e-05 7.90856e-06
1.89125e-05 7.90856e-06 -0.000660281
-0.00308358 0.000384908 -2.71628e-05
0.000384908 0.00114301 -6.86939e-05
-2.71628e-05 -6.86939e-05 -8.13097e-05
0.000338533 0.000311474 -2.5742e-05
0.000311474 0.000706177 5.4177e-06
-2.5742e-05 5.4177e-06 0.00030076
-0.0013293 0.000865757 0.000155972
0.000865757 0.000171152 0.000111658
0.000155972 0.000111658 -0.0006639
0.000764623 4.34442e-05 7.26337e-05
4.34442e-05 0.000402376 -7.33631e-06
7.26337e-05 -7.33631e-06 1.36957e-05
0.00583026 -0.00228519 0.000269419
-0.00228519 0.00595567 -0.000187069
0.000269419 -0.000187069 -0.00258439
0.0193375 0.00385257 -0.000187698
0.00385257 0.00837737 0.000167529
-0.000187698 0.000167529 0.00339672
0.00327741 -0.00072157 -0.000228637
-0.00072157 0.00225727 0.000115108
-0.000228637 0.000115108 0.000905572
0.0135725 0.00484575 -0.000105327
0.00484575 0.00607529 -0.000240075
-0.000105327 -0.000240075 0.00285597
0.000468768 0.00023613 -5.6409e-05
0.00023613 0.00127343 1.35558e-05
-5.6409e-05 1.35558e-05 0.000207076
-2.28317e-05 -0.000247897 -8.65781e-05
-0.000247897 0.00221932 1.11254e-06
-8.65781e-05 1.11254e-06 0.00141995
0.00312359 -0.00155435 0.000286366
-0.00155435 0.00160499 -4.277e-05
0.000286366 -4.277e-05 -0.00330904
-0.00296575 -0.000114525 5.11108e-05
-0.000114525 -0.00045324 3.25114e-05
5.11108e-05 3.25114e-05 -0.000954606
0.0155198 0.00929597 0.00066625
0.00929597 0.0109789 -0.000279326
0.00066625 -0.000279326 0.00677374
0.00897348 0.00314169 -0.000161768
0.00314169 0.00417571 0.000384281
-0.000161768 0.000384281 -0.000780643
-0.003081 -0.00122994 0.000180156
-0.00122994 0.00291619 -0.000148011
0.000180156 -0.000148011 -0.00488933
-0.00115919 -0.000418085 7.74941e-06
-0.000418085 0.00043958 -3.00845e-05
7.74941e-06 -3.00845e-05 -0.00064844
0.000445548 -0.000851503 0.000313457
-0.000851503 -0.000140932 -7.9608e-05
0.000313457 -7.9608e-05 -0.00359193
-0.00026534 0.000856182 -0.00133221
0.000856182 0.007524 0.000342941
-0.00133221 0.000342941 0.00316425
0.0200005 0.00723157 -0.00056943
0.00723157 0.00652503 0.000541124
-0.00056943 0.000541124 0.00182482
0.00717957 -0.00365176 -0.000187263
-0.00365176 0.00328486 6.08518e-05
-0.000187263 6.08518e-05 -0.000358243
0.00279549 -0.00165488 3.82443e-05
-0.00165488 0.00289403 -1.99283e-07
3.82443e-05 -1.99283e-07 0.0019425
0.000187315 -5.20244e-05 3.33431e-06
-5.20244e-05 0.000531789 -8.43231e-06
3.33431e-06 -8.43231e-06 4.85714e-05
1.25617e-05 -0.000391269 3.53833e-06
-0.000391269 0.000372184 -1.79322e-06
3.53833e-06 -1.79322e-06 -0.000203543
-0.00015678 -0.000691173 -4.61325e-06
-0.000691173 -1.66845e-05 1.02947e-06
-4.61325e-06 1.02947e-06 -0.000354589
-0.000438018 -0.000223346 -8.53069e-09
-0.000223346 0.000132647 7.03865e-06
-8.53069e-09 7.03865e-06 -0.000241165
-0.000727493 -0.000390943 6.67288e-07
-0.000390943 -0.000405213 1.58017e-06
6.67288e-07 1.58017e-06 -0.000698562
0.00313065 -0.000943326 3.86566e-05
-0.000943326 0.00133439 -1.71849e-05
3.86566e-05 -1.71849e-05 0.000910218
0.00650731 -0.00125873 -1.21711e-05
-0.00125873 0.00341499 -2.19815e-06
-1.21711e-05 -2.19815e-06 0.00291275
0.00288234 -0.00084709 1.03157e-05
-0.00084709 0.00132427 -2.87453e-06
1.03157e-05 -2.87453e-06 0.000663202
0.00186527 -0.000895056 4.54821e-06
-0.000895056 0.000482339 -1.74072e-05
4.54821e-06 -1.74072e-05 -0.000173844
0.00219623 -0.000690477 -9.99683e-06
-0.000690477 0.000812743 -7.737e-06
-9.99683e-06 -7.737e-06 0.000328195
0.00220073 -0.00086013 1.45889e-06
-0.00086013 0.000711281 -2.02677e-06
1.45889e-06 -2.02677e-06 0.000101753
0.00266842 -0.000996083 -4.7012e-06
-0.000996083 0.00086136 -1.14449e-05
-4.7012e-06 -1.14449e-05 0.000259312
0.00220409 -0.000786368 -5.23682e-06
-0.000786368 0.000390606 -4.46714e-06
-5.23682e-06 -4.46714e-06 -1.80606e-05
0.00255134 -0.00095886 -9.8593e-06
-0.00095886 0.000738858 1.78343e-06
-9.8593e-06 1.78343e-06 0.000230196
0.00238133 -0.00094788 -3.08287e-06
-0.00094788 0.000664847 7.47947e-09
-3.08287e-06 7.47947e-09 0.000125906
0.00176691 -0.000734984 7.09675e-06
-0.000734984 0.00051145 -3.61708e-06
7.09675e-06 -3.61708e-06 6.12993e-05
0.00158508 -0.000722609 2.94508e-06
-0.000722609 0.00038512 -1.04572e-06
2.94508e-06 -1.04572e-06 -7.28124e-05
0.00150331 -0.000677897 6.95902e-06
-0.000677897 0.000346009 -4.39952e-07
6.95902e-06 -4.39952e-07 -0.000126628
0.00163998 -0.000497634 8.84432e-06
-0.000497634 0.000565244 5.02995e-06
8.84432e-06 5.02995e-06 0.000216766
0.00150026 -0.000552176 -1.3943e-06
-0.000552176 0.000447037 -2.24153e-06
-1.3943e-06 -2.24153e-06 6.01189e-05
0.00162474 -0.000623263 6.45687e-06
-0.000623263 0.000448981 2.51651e-06
6.45687e-06 2.51651e-06 3.3371e-05
0.00122856 -0.00022711 8.11103e-07
-0.00022711 0.000464345 -4.51974e-06
8.11103e-07 -4.51974e-06 0.00019604
0.000833806 -0.000272192 -3.72888e-06
-0.000272192 0.00015887 2.59646e-06
-3.72888e-06 2.59646e-06 -9.43313e-05
0.000827939 -0.000402364 -4.07996e-07
-0.000402364 5.94976e-05 -1.2202e-05
-4.07996e-07 -1.2202e-05 -0.000253552
-1.12675e-05 -7.3293e-05 -2.20942e-06
-7.3293e-05 -0.000280003 4.69654e-06
-2.20942e-06 4.69654e-06 -0.000458193
0.000781736 -0.000149349 3.02557e-07
-0.000149349 0.000266123 8.61794e-07
3.02557e-07 8.61794e-07 -1.92243e-06
0.000688127 -0.000269997 3.99562e-06
-0.000269997 0.00020942 1.63446e-06
3.99562e-06 1.63446e-06 -7.53276e-05
0.000342055 -1.74432e-05 -6.64912e-06
-1.74432e-05 -9.72026e-05 1.47795e-05
-6.64912e-06 1.47795e-05 -0.000147362
0.000669885 -7.87195e-05 7.76347e-07
-7.87195e-05 0.000124193 1.61589e-07
7.76347e-07 1.61589e-07 -8.78048e-06
0.00141011 -0.00020229 -1.21813e-06
-0.00020229 0.000637541 2.13782e-06
-1.21813e-06 2.13782e-06 0.000416129
0.000719976 -6.97268e-05 1.86636e-07
-6.97268e-05 0.000165011 -5.47446e-06
1.86636e-07 -5.47446e-06 4.74448e-05
0.000432095 7.62715e-06 -6.20396e-07
7.62715e-06 -3.36032e-05 -5.12432e-07
-6.20396e-07 -5.12432e-07 -7.76212e-05
0.00298624 0.000125005 -4.05946e-05
0.000125005 0.0015919 4.82031e-06
-4.05946e-05 4.82031e-06 0.00158931
0.000518249 -2.29285e-06 2.34685e-06
-2.29285e-06 1.1066e-05 -7.90395e-06
2.34685e-06 -7.90395e-06 -2.37554e-05
0.00282234 0.000100798 5.08701e-06
0.000100798 0.00147837 5.99296e-07
5.08701e-06 5.99296e-07 0.00148169
0.0027118 7.88993e-05 3.4586e-05
7.88993e-05 0.00140148 -4.91672e-06
3.4586e-05 -4.91672e-06 0.00140886
0.00111548 0.000100947 4.18642e-06
0.000100947 0.000543671 -2.1591e-06
4.18642e-06 -2.1591e-06 0.000308865
0.00119151 0.000144558 7.02175e-06
0.000144558 0.000544325 -1.48514e-06
7.02175e-06 -1.48514e-06 0.000351464
0.000544249 3.87365e-05 4.53248e-06
3.87365e-05 4.65197e-05 -4.29237e-06
4.53248e-06 -4.29237e-06 -4.8166e-05
0.000596321 0.000111786 1.89008e-07
0.000111786 0.00011896 -2.26612e-07
1.89008e-07 -2.26612e-07 -2.357e-05
0.000448091 -6.20813e-07 1.88939e-06
-6.20813e-07 -3.95281e-05 -6.66206e-06
1.88939e-06 -6.66206e-06 -6.48099e-05
0.000521659 5.29808e-05 2.35781e-07
5.29808e-05 3.75001e-05 -2.18578e-07
2.35781e-07 -2.18578e-07 -4.67206e-05
0.000563919 5.67864e-05 -5.52533e-06
5.67864e-05 8.5291e-05 -2.74324e-06
-5.52533e-06 -2.74324e-06 -4.26451e-05
0.00232853 -4.9231e-05 -2.7317e-05
-4.9231e-05 0.00115332 -5.10073e-06
-2.7317e-05 -5.10073e-06 0.00116703
0.000462995 2.84774e-06 -8.23895e-07
2.84774e-06 -3.26664e-05 -1.59952e-07
-8.23895e-07 -1.59952e-07 -5.23036e-05
0.00046216 5.81921e-05 -4.1334e-06
5.81921e-05 1.68801e-06 -7.8844e-08
-4.1334e-06 -7.8844e-08 -7.50327e-05
0.00218822 -3.23245e-05 -4.86463e-06
-3.23245e-05 0.00106255 2.44091e-07
-4.86463e-06 2.44091e-07 0.00107864
0.000463463 -2.32833e-08 -2.96932e-06
-2.32833e-08 -3.47591e-05 4.11237e-06
-2.96932e-06 4.11237e-06 -4.91221e-05
0.00212336 -1.61547e-05 1.67514e-05
-1.61547e-05 0.00102154 4.84575e-06
1.67514e-05 4.84575e-06 0.00103875
-0.00254687 0.000310046 -1.52633e-05
0.000310046 0.000537669 -5.67363e-05
-1.52633e-05 -5.67363e-05 -0.000146215
0.00176605 -0.000232297 -1.57306e-05
-0.000232297 0.000671966 -4.10222e-06
-1.57306e-05 -4.10222e-06 0.000196636
-6.574e-05 -0.000239161 1.10851e-05
-0.000239161 0.00203749 -4.24677e-05
1.10851e-05 -4.24677e-05 0.00114128
0.000792899 0.000107347 5.81685e-07
0.000107347 0.000304148 -1.34174e-06
5.81685e-07 -1.34174e-06 0.000100521
5.25274e-05 9.50492e-05 6.33519e-06
9.50492e-05 -0.000204418 -2.36061e-06
6.33519e-06 -2.36061e-06 -0.000384184
-0.00166254 -7.40081e-06 -5.9285e-07
-7.40081e-06 -0.00131543 -9.84006e-06
-5.9285e-07 -9.84006e-06 -0.00147799
-0.00119489 1.42387e-05 -1.21738e-06
1.42387e-05 -0.000940467 2.02941e-05
-1.21738e-06 2.02941e-05 -0.00111989
0.00276278 0.000389981 5.09172e-07
0.000389981 0.00150489 3.73317e-07
5.09172e-07 3.73317e-07 0.00122524
0.00110745 5.09483e-05 -6.86176e-06
5.09483e-05 0.000404658 -5.12208e-06
-6.86176e-06 -5.12208e-06 0.000271509
0.000437477 0.00011372 -1.18473e-05
0.00011372 -5.08113e-06 -1.05914e-05
-1.18473e-05 -1.05914e-05 -0.000124463
0.000869724 4.81727e-05 1.17177e-06
4.81727e-05 0.000271168 -4.07075e-07
1.17177e-06 -4.07075e-07 0.000146192
0.00104194 0.000177282 -1.27143e-06
0.000177282 0.000406433 -3.45023e-06
-1.27143e-06 -3.45023e-06 0.000280956
0.00135206 0.000144805 8.84482e-06
0.000144805 0.000761247 -1.86438e-05
8.84482e-06 -1.86438e-05 0.000517668
0.00604641 0.00116194 0.000448323
0.00116194 0.00432695 0.000523397
0.000448323 0.000523397 -0.00052089
0.00257719 0.000965214 2.33976e-05
0.000965214 0.000187418 9.16096e-05
2.33976e-05 9.16096e-05 -0.00149393
0.00480056 -0.000248717 6.16772e-05
-0.000248717 -0.00022538 -2.04781e-05
6.16772e-05 -2.04781e-05 -0.000858775
0.0142328 -0.00151654 -0.000292772
-0.00151654 0.00216388 -0.000135837
-0.000292772 -0.000135837 0.00387287
-0.00283723 0.00119139 7.75307e-05
0.00119139 -0.00235079 0.000427133
7.75307e-05 0.000427133 -0.00724156
0.00215897 -0.0026558 -5.10494e-05
-0.0026558 0.000580967 -3.82478e-05
-5.10494e-05 -3.82478e-05 0.000719685
0.00781558 -0.00220919 -0.000167674
-0.00220919 0.00534781 3.88599e-05
-0.000167674 3.88599e-05 -9.1283e-05
0.000843877 -0.00113213 -0.000112853
-0.00113213 0.000979726 0.000122737
-0.000112853 0.000122737 0.000596514
0.0100857 -4.37624e-05 -0.000186822
-4.37624e-05 0.00692223 -7.36934e-08
-0.000186822 -7.36934e-08 0.000143288
0.00635248 -0.00272133 9.75763e-05
-0.00272133 0.0040617 0.000202704
9.75763e-05 0.000202704 -0.00121595
0.0184446 -0.00455398 -9.92258e-05
-0.00455398 0.00397228 -0.000775201
-9.92258e-05 -0.000775201 0.00124151
0.00208282 0.000142031 -0.000153852
0.000142031 0.00294106 0.000113771
-0.000153852 0.000113771 0.00166345
0.0124732 0.00276234 -0.000243712
0.00276234 0.00735291 -1.09774e-05
-0.000243712 -1.09774e-05 0.00189729
0.0202399 -0.00735614 -7.86366e-05
-0.00735614 0.0106186 -0.000774108
-7.86366e-05 -0.000774108 0.00508384
0.0247355 -0.0094782 9.53828e-05
-0.0094782 0.0105263 -7.39693e-05
9.53828e-05 -7.39693e-05 0.00665673
0.000859813 0.000299034 1.96529e-05
0.000299034 0.000533735 -1.15633e-05
1.96529e-05 -1.15633e-05 0.000181751
-6.27078e-05 4.46679e-05 4.18218e-06
4.46679e-05 3.20936e-05 2.01349e-06
4.18218e-06 2.01349e-06 -0.000279814
0.00106185 0.000196265 -1.8152e-05
0.000196265 0.000492777 -1.87762e-05
-1.8152e-05 -1.87762e-05 0.000318758
0.00244995 -0.000755707 6.17204e-05
-0.000755707 0.00183104 1.51858e-05
6.17204e-05 1.51858e-05 0.000318488
-0.000322561 -0.000124311 3.87079e-05
-0.000124311 0.000730489 -2.88496e-05
3.87079e-05 -2.88496e-05 0.000172799
-0.000122684 7.36881e-05 -7.05077e-06
7.36881e-05 -8.10676e-05 -1.98291e-06
-7.05077e-06 -1.98291e-06 -0.000287555
-0.000382325 -4.79147e-05 1.51673e-05
-4.79147e-05 0.000313263 -2.68532e-06
1.51673e-05 -2.68532e-06 -0.000233855
-2.94374e-05 0.000135587 -7.87116e-07
0.000135587 0.000146325 -8.65284e-07
-7.87116e-07 -8.65284e-07 -0.00013277
0.000188604 0.000321237 1.55336e-05
0.000321237 0.000614696 2.63814e-06
1.55336e-05 2.63814e-06 3.2156e-05
-0.00229507 -1.85314e-05 0.000240804
-1.85314e-05 0.00100676 -2.88435e-05
0.000240804 -2.88435e-05 -0.000964145
-0.00068806 0.000440856 1.82463e-06
0.000440856 -0.000348055 1.47214e-05
1.82463e-06 1.47214e-05 -0.000744617
0.00266915 0.000962289 -0.000146204
0.000962289 0.00221168 -9.37434e-05
-0.000146204 -9.37434e-05 0.000714588
0.00111075 0.000166768 0.000204007
0.000166768 0.00175447 7.06586e-05
0.000204007 7.06586e-05 -0.00265271
-0.00244083 0.000243447 -8.08198e-05
0.000243447 0.00163519 1.29463e-05
-8.08198e-05 1.29463e-05 0.000242331
0.00265803 -0.000269401 -3.84022e-05
-0.000269401 0.000937507 -3.4548e-06
-3.84022e-05 -3.4548e-06 0.000924446
-0.000335569 0.000549199 0.000115854
0.000549199 0.000644305 1.37368e-05
0.000115854 1.37368e-05 -0.000484358
0.00128331 0.000309393 -0.000112053
0.000309393 0.00264584 0.00010661
-0.000112053 0.00010661 0.00114329
-0.00044208 -0.000266177 -7.27749e-06
-0.000266177 0.00186356 -1.69921e-05
-7.27749e-06 -1.69921e-05 0.000844036
0.0165699 -0.00447214 0.000251371
-0.00447214 0.00867368 -0.000122684
0.000251371 -0.000122684 0.00218223
0.0236864 0.00525857 -0.000219033
0.00525857 0.0111762 -0.000178603
-0.000219033 -0.000178603 0.00541644
0.00519983 -0.00181102 -0.000316279
-0.00181102 0.0026944 0.000275366
-0.000316279 0.000275366 -0.0018868
0.00801647 0.0107484 0.00268239
0.0107484 0.00678692 -0.00164564
0.00268239 -0.00164564 0.00235083
0.00116604 -0.000576552 4.33475e-05
-0.000576552 0.00160006 -1.31642e-05
4.33475e-05 -1.31642e-05 0.000437016
-0.000362238 -0.000604339 5.25392e-05
-0.000604339 0.000506772 1.21095e-05
5.25392e-05 1.21095e-05 -0.00358095
0.0009751 0.00131821 -0.0012664
0.00131821 0.00715465 0.0003361
-0.0012664 0.0003361 0.00239277
0.000333623 -0.000903517 2.08604e-05
-0.000903517 0.00135044 2.99168e-05
2.08604e-05 2.99168e-05 0.000516457
0.0204488 0.00675335 0.000382387
0.00675335 0.00682219 0.000104992
0.000382387 0.000104992 0.00197517
0.00780147 -0.00553495 0.000235723
-0.00553495 0.00262687 -8.25976e-05
0.000235723 -8.25976e-05 -0.00142386
0.00046725 -0.00134083 6.83781e-07
-0.00134083 0.000550205 2.87892e-05
6.83781e-07 2.87892e-05 -0.000390387
-0.00585702 -0.00190195 0.000162742
-0.00190195 0.00620316 -9.01184e-05
0.000162742 -9.01184e-05 0.00194478
0.0165534 0.00670377 -0.00170186
0.00670377 0.00654452 0.000523957
-0.00170186 0.000523957 0.00285379
0.00641847 -0.00411995 -0.000476816
-0.00411995 -0.000557668 0.000201383
-0.000476816 0.000201383 -0.00371796
0.000579415 -0.00207461 0.000193272
-0.00207461 -7.04991e-05 -0.000135094
0.000193272 -0.000135094 0.000860673
0.00127155 -0.000583227 -0.000109746
-0.000583227 0.000933419 3.48589e-05
-0.000109746 3.48589e-05 0.000413832
0.000825765 -0.000651526 -8.50336e-06
-0.000651526 0.00058051 1.19466e-05
-8.50336e-06 1.19466e-05 0.000179194
0.00304142 -0.000968354 1.65216e-05
-0.000968354 0.00138884 -1.81795e-05
1.65216e-05 -1.81795e-05 0.000961479
-0.00111809 -0.000225724 9.58912e-06
-0.000225724 -0.000454218 7.5117e-06
9.58912e-06 7.5117e-06 -0.000745348
0.00120219 -0.000697519 2.87402e-06
-0.000697519 0.000321622 -3.34907e-06
2.87402e-06 -3.34907e-06 -7.12564e-05
0.00324861 -0.00108397 7.67369e-06
-0.00108397 0.00103462 -4.62364e-06
7.67369e-06 -4.62364e-06 0.000600873
0.00423653 -0.00102735 -2.85984e-05
-0.00102735 0.00199843 1.03647e-06
-2.85984e-05 1.03647e-06 0.00134775
0.00148559 -0.000814662 -1.69139e-06
-0.000814662 0.000273614 -1.42103e-06
-1.69139e-06 -1.42103e-06 -0.000357074
0.00216016 -0.00102064 -1.50722e-07
-0.00102064 0.000386107 -1.11974e-05
-1.50722e-07 -1.11974e-05 -0.000119913
0.00286643 -0.000950322 5.33925e-06
-0.000950322 0.0010675 7.07535e-06
5.33925e-06 7.07535e-06 0.00044061
0.00228762 -0.000951022 1.79566e-06
-0.000951022 0.000626396 -4.30834e-06
1.79566e-06 -4.30834e-06 4.65714e-05
0.00260253 -0.000845788 -3.07041e-06
-0.000845788 0.000569748 -9.31154e-06
-3.07041e-06 -9.31154e-06 0.000162061
0.00180198 -0.000541161 -4.13308e-06
-0.000541161 4.37542e-07 -2.25265e-06
-4.13308e-06 -2.25265e-06 -0.000252199
0.00193925 -0.000783501 -7.25884e-07
-0.000783501 0.000183661 -1.5887e-06
-7.25884e-07 -1.5887e-06 -0.000223061
0.00222065 -0.000793255 3.1892e-06
-0.000793255 0.000389313 -2.69616e-06
3.1892e-06 -2.69616e-06 -1.93424e-05
0.00238738 -0.000845807 -4.99298e-06
-0.000845807 0.000706146 -5.54352e-07
-4.99298e-06 -5.54352e-07 0.000248778
0.00251485 -0.000953814 -3.247e-06
-0.000953814 0.000727149 -2.83285e-08
-3.247e-06 -2.83285e-08 0.000214081
0.00258984 -0.000976894 9.54091e-06
-0.000976894 0.00077207 -5.29392e-06
9.54091e-06 -5.29392e-06 0.000222711
0.0019057 -0.000646923 7.07153e-06
-0.000646923 0.000647297 -3.19502e-07
7.07153e-06 -3.19502e-07 0.000234056
0.00151213 -0.000695672 2.39203e-06
-0.000695672 0.000372641 -5.71253e-07
2.39203e-06 -5.71253e-07 -6.49732e-05
0.00131499 -0.00067982 4.07901e-06
-0.00067982 0.000230515 1.47318e-06
4.07901e-06 1.47318e-06 -0.000210087
0.00138071 -0.000352899 2.57383e-07
-0.000352899 0.00046109 5.48743e-07
2.57383e-07 5.48743e-07 0.000182533
0.00118929 -0.000433865 1.1589e-06
-0.000433865 0.000304454 4.78775e-08
1.1589e-06 4.78775e-08 -2.72389e-05
0.00159961 -0.000558871 -4.92035e-06
-0.000558871 0.000517014 5.45832e-07
-4.92035e-06 5.45832e-07 0.000126194
-0.000297211 -0.000115807 -2.25335e-06
-0.000115807 -0.000470969 2.24015e-06
-2.25335e-06 2.24015e-06 -0.000702625
0.000686224 -0.000240223 -1.05774e-06
-0.000240223 0.000148233 -8.66291e-07
-1.05774e-06 -8.66291e-07 -0.000132482
0.000885334 -0.000290599 -3.84297e-06
-0.000290599 0.000218659 1.76961e-07
-3.84297e-06 1.76961e-07 -3.78552e-05
0.00191535 9.43072e-06 -5.1886e-05
9.43072e-06 0.000907182 9.37663e-06
-5.1886e-05 9.37663e-06 0.000854649
0.000714505 -0.000125492 -2.92846e-07
-0.000125492 0.000157401 -4.21043e-07
-2.92846e-07 -4.21043e-07 -2.10489e-05
0.00130395 -0.000217965 6.55617e-07
-0.000217965 0.000593232 4.63238e-06
6.55617e-07 4.63238e-06 0.0003172
0.000758462 3.15021e-05 -5.6324e-05
3.15021e-05 0.000173879 6.35569e-06
-5.6324e-05 6.35569e-06 0.000162229
0.00116532 3.74539e-06 -1.86332e-05
3.74539e-06 0.000427869 -6.22336e-07
-1.86332e-05 -6.22336e-07 0.000379437
0.000863872 -9.89984e-05 3.9365e-06
-9.89984e-05 0.000239356 -5.91494e-06
3.9365e-06 -5.91494e-06 0.000105036
0.000592379 -2.12071e-06 3.2954e-06
-2.12071e-06 6.2636e-05 -1.0009e-05
3.2954e-06 -1.0009e-05 1.95101e-05
0.00308333 0.000125082 9.00517e-06
0.000125082 0.00165354 7.81154e-07
9.00517e-06 7.81154e-07 0.00165107
0.00283799 0.000100642 3.95854e-05
0.000100642 0.0014884 -4.78274e-06
3.95854e-05 -4.78274e-06 0.00149195
0.000941795 0.000174387 1.3323e-05
0.000174387 0.000393497 -1.28914e-06
1.3323e-05 -1.28914e-06 0.000143504
0.00151309 0.000189918 5.15783e-06
0.000189918 0.000766787 -1.86626e-06
5.15783e-06 -1.86626e-06 0.000531473
-0.000278154 3.5751e-05 1.20334e-06
3.5751e-05 -0.000363466 -2.93206e-08
1.20334e-06 -2.93206e-08 -0.000567335
0.000627671 5.24889e-05 2.95215e-06
5.24889e-05 0.000107797 -6.29522e-06
2.95215e-06 -6.29522e-06 -4.57658e-06
0.00075632 0.000117436 5.05173e-07
0.000117436 0.000243146 2.55035e-07
5.05173e-07 2.55035e-07 6.84093e-05
0.000439441 9.82707e-06 -1.01366e-06
9.82707e-06 -3.84386e-05 -8.79312e-06
-1.01366e-06 -8.79312e-06 -7.03127e-05
0.000556146 4.87415e-05 -1.00497e-07
4.87415e-05 6.13269e-05 -4.18632e-07
-1.00497e-07 -4.18632e-07 -3.54378e-05
0.00066953 5.01023e-05 -5.05741e-06
5.01023e-05 0.000189193 4.34514e-07
-5.05741e-06 4.34514e-07 3.18596e-05
0.00258641 -6.83806e-05 -3.60112e-05
-6.83806e-05 0.00132145 -4.99905e-06
-3.60112e-05 -4.99905e-06 0.0013318
0.000437104 2.56943e-06 -2.18159e-07
2.56943e-06 -4.56806e-05 -6.40609e-08
-2.18159e-07 -6.40609e-08 -7.10115e-05
0.000530543 5.89125e-05 -1.8773e-06
5.89125e-05 4.4391e-05 2.48294e-06
-1.8773e-06 2.48294e-06 -4.04203e-05
0.00235479 -5.00542e-05 -6.29555e-06
-5.00542e-05 0.00117012 3.89816e-07
-6.29555e-06 3.89816e-07 0.00118363
0.000424543 -1.11665e-05 -5.23297e-06
-1.11665e-05 -5.66566e-05 5.08087e-06
-5.23297e-06 5.08087e-06 -7.59368e-05
0.00221374 -3.10896e-05 2.22838e-05
-3.10896e-05 0.0010787 4.82317e-06
2.22838e-05 4.82317e-06 0.00109491
0.00668516 0.000795058 0.000379779
0.000795058 0.00409712 8.75899e-05
0.000379779 8.75899e-05 0.00156137
-0.00219487 0.000221737 -4.61142e-06
0.000221737 0.000481201 -9.19039e-06
-4.61142e-06 -9.19039e-06 -0.000482727
0.000517807 0.000229179 -9.77691e-06
0.000229179 0.000772394 -1.18989e-05
-9.77691e-06 -1.18989e-05 0.000135947
-0.000536979 0.000123198 -9.74332e-06
0.000123198 -0.000691107 2.58894e-06
-9.74332e-06 2.58894e-06 -0.000864036
3.95772e-05 3.2889e-05 -6.72379e-06
3.2889e-05 -0.000215779 -2.42194e-06
-6.72379e-06 -2.42194e-06 -0.000380406
-0.000248742 5.19691e-05 -4.01147e-06
5.19691e-05 -0.000389227 -1.12647e-05
-4.01147e-06 -1.12647e-05 -0.00055834
0.00152637 8.04128e-05 2.61556e-06
8.04128e-05 0.000716333 6.01064e-07
2.61556e-06 6.01064e-07 0.000542463
0.000232259 0.000117514 -3.22602e-06
0.000117514 -0.000158291 -4.18277e-06
-3.22602e-06 -4.18277e-06 -0.000328456
0.0024144 0.000339884 -8.99879e-06
0.000339884 0.00128686 -3.65351e-06
-8.99879e-06 -3.65351e-06 0.0010689
0.00111946 0.000273338 -4.30001e-06
0.000273338 0.000408808 -1.30623e-05
-4.30001e-06 -1.30623e-05 8.11147e-05
-0.00142853 0.0001293 1.51549e-06
0.0001293 -0.00078405 4.21069e-07
1.51549e-06 4.21069e-07 -0.001161
0.000592492 0.000130393 -7.88664e-06
0.000130393 0.000132363 -3.97817e-06
-7.88664e-06 -3.97817e-06 -8.64502e-06
-0.000118197 5.5696e-05 -1.48477e-05
5.5696e-05 -0.000375709 -7.79688e-06
-1.48477e-05 -7.79688e-06 -0.000458098
-0.000390201 3.27771e-05 -1.00354e-06
3.27771e-05 -0.00030525 1.9321e-06
-1.00354e-06 1.9321e-06 -0.000547704
0.00100903 0.000345817 2.04865e-05
0.000345817 0.000692621 -7.30163e-07
2.04865e-05 -7.30163e-07 0.000238692
0.00445264 -0.00379923 0.000100879
-0.00379923 0.00670171 0.000248118
0.000100879 0.000248118 0.000458529
0.00683784 0.00160641 0.000166989
0.00160641 0.0034423 0.00018179
0.000166989 0.00018179 -0.00190833
0.00342518 0.000588844 -3.23596e-05
0.000588844 0.000788192 -8.20851e-05
-3.23596e-05 -8.20851e-05 -0.00114092
0.0273196 -0.00597249 -0.000856702
-0.00597249 0.00780235 -0.000412435
-0.000856702 -0.000412435 0.00461472
0.00562017 -0.0016897 0.000294416
-0.0016897 0.00410327 0.000525667
0.000294416 0.000525667 0.000261817
0.00299826 -0.00180008 -0.000267618
-0.00180008 0.0051397 0.000113495
-0.000267618 0.000113495 -0.00236975
-0.00154111 -0.000599451 0.000114271
-0.000599451 0.00112014 2.04166e-05
0.000114271 2.04166e-05 9.69967e-05
-0.000706138 -0.000155864 0.000125524
-0.000155864 0.00122175 5.28007e-05
0.000125524 5.28007e-05 0.000411628
0.0174477 -0.0100348 0.00049772
-0.0100348 0.00876694 0.000469315
0.00049772 0.000469315 0.00457032
0.00207237 0.00171725 -0.000111461
0.00171725 0.00449484 -9.15847e-05
-0.000111461 -9.15847e-05 -0.00226548
0.0094627 -0.00409594 -0.00013733
-0.00409594 0.00499207 0.000119741
-0.00013733 0.000119741 -0.00100282
0.000274815 0.000784806 -1.91743e-05
0.000784806 0.00118083 5.26381e-05
-1.91743e-05 5.26381e-05 0.000700599
0.011028 0.00451657 -0.000134605
0.00451657 0.0036908 4.08688e-06
-0.000134605 4.08688e-06 -0.000203349
0.017612 -0.00718428 -0.000890099
-0.00718428 0.00584562 -0.000504116
-0.000890099 -0.000504116 0.000831512
0.000377944 0.000582771 7.66329e-06
0.000582771 -0.000188134 -1.17678e-05
7.66329e-06 -1.17678e-05 -0.000346842
0.000496373 0.000205178 7.54629e-06
0.000205178 0.000286639 5.81113e-06
7.54629e-06 5.81113e-06 -6.64623e-06
-0.000209953 4.72084e-05 -1.54824e-05
4.72084e-05 -6.63453e-05 -3.26111e-06
-1.54824e-05 -3.26111e-06 -0.000369562
-0.00364873 -0.000330439 -0.00012645
-0.000330439 4.6121e-05 -6.27837e-05
-0.00012645 -6.27837e-05 -0.00182538
-0.000613884 0.000237342 8.32251e-06
0.000237342 -6.563e-05 -1.4137e-05
8.32251e-06 -1.4137e-05 -0.000609639
0.00119879 0.000245804 -5.60985e-06
0.000245804 0.000838178 1.32974e-05
-5.60985e-06 1.32974e-05 0.00053633
0.00123004 0.000722908 1.31219e-05
0.000722908 0.000646556 3.5886e-06
1.31219e-05 3.5886e-06 0.000214799
-0.000388175 0.000555964 4.07647e-05
0.000555964 0.000790589 -3.21486e-05
4.07647e-05 -3.21486e-05 -0.000487492
0.00105054 0.00149812 7.44248e-05
0.00149812 0.000197476 4.73914e-06
7.44248e-05 4.73914e-06 -0.000733722
-0.00638115 0.00120434 0.000396465
0.00120434 0.00569907 -4.26771e-07
0.000396465 -4.26771e-07 -0.00175621
0.00228315 -0.00024008 -1.1416e-05
-0.00024008 0.00208738 7.30107e-05
-1.1416e-05 7.30107e-05 -0.000894118
-0.0028129 -4.13531e-05 -1.63905e-05
-4.13531e-05 0.00109132 6.27442e-05
-1.63905e-05 6.27442e-05 -5.6144e-05
-0.000624839 -0.000320942 -6.31197e-05
-0.000320942 0.000747635 1.71303e-05
-6.31197e-05 1.71303e-05 -0.000479119
-0.00162652 -0.000532697 -7.53809e-05
-0.000532697 -0.000237425 5.97036e-05
-7.53809e-05 5.97036e-05 -4.62023e-05
-0.000474868 -0.000540529 -0.000208271
-0.000540529 0.000970647 0.000135557
-0.000208271 0.000135557 -0.00343286
-0.000916266 -0.00423585 0.000266794
-0.00423585 0.00205991 -0.000107139
0.000266794 -0.000107139 -0.00403742
0.0123603 0.00557925 0.000759758
0.00557925 0.00179709 -0.000465977
0.000759758 -0.000465977 -0.00265681
0.0123022 0.00415725 -0.000432221
0.00415725 0.00845968 0.000367023
-0.000432221 0.000367023 0.00337731
0.0011105 -0.000940903 -1.41167e-05
-0.000940903 0.00138679 -2.91412e-07
-1.41167e-05 -2.91412e-07 0.000489783
0.00231246 0.000714745 0.000155066
0.000714745 0.00809658 -2.94912e-05
0.000155066 -2.94912e-05 0.00346637
0.00192998 0.00458685 8.02663e-06
0.00458685 0.00110132 7.67077e-05
8.02663e-06 7.67077e-05 -0.00285449
0.00250474 -0.00293241 8.61665e-05
-0.00293241 0.000813592 -4.78597e-05
8.61665e-05 -4.78597e-05 0.00104178
0.016667 -0.00462209 8.75553e-06
-0.00462209 0.00281471 2.52547e-06
8.75553e-06 2.52547e-06 0.000905125
0.0032023 -0.00181154 5.04307e-07
-0.00181154 0.00130706 1.89697e-05
5.04307e-07 1.89697e-05 0.000861027
-0.00769866 0.0014192 -0.000680156
0.0014192 -0.0020982 0.000111835
-0.000680156 0.000111835 -0.00526715
0.0159251 -0.00296175 -0.000229892
-0.00296175 0.00174644 6.62342e-05
-0.000229892 6.62342e-05 0.000494232
0.00400157 -0.00292979 0.000119327
-0.00292979 1.296e-05 -7.59363e-05
0.000119327 -7.59363e-05 0.000753409
0.000584028 -0.000540425 -7.0385e-06
-0.000540425 0.000505591 1.07093e-05
-7.0385e-06 1.07093e-05 5.58415e-05
0.00158268 -0.000925691 2.30804e-06
-0.000925691 0.000492193 -3.92614e-06
2.30804e-06 -3.92614e-06 0.000176569
0.00473218 -0.00110223 2.23346e-05
-0.00110223 0.00187759 -1.68538e-05
2.23346e-05 -1.68538e-05 0.00149189
-0.000366465 -0.000501993 -6.62602e-06
-0.000501993 -0.000475675 9.52366e-06
-6.62602e-06 9.52366e-06 -0.00086536
0.0016308 -0.000894903 -3.08908e-06
-0.000894903 0.000206212 1.11828e-06
-3.08908e-06 1.11828e-06 -0.000223723
0.00331318 -0.0011371 2.36629e-06
-0.0011371 0.000877458 -8.18302e-06
2.36629e-06 -8.18302e-06 0.000438104
0.00146595 -0.00078385 -1.00231e-05
-0.00078385 0.000241334 9.95299e-06
-1.00231e-05 9.95299e-06 -0.000368702
0.00205506 -0.000998856 -8.55997e-07
-0.000998856 0.000337912 2.3836e-06
-8.55997e-07 2.3836e-06 -0.000171849
0.00201431 -0.000804077 -3.07996e-06
-0.000804077 7.21097e-05 -5.40655e-06
-3.07996e-06 -5.40655e-06 -0.000242571
0.00171381 -0.000882512 2.7007e-06
-0.000882512 0.000289449 4.32978e-06
2.7007e-06 4.32978e-06 -0.000266431
0.00211197 -0.000779239 -1.71728e-06
-0.000779239 0.00030274 1.62843e-06
-1.71728e-06 1.62843e-06 -8.90491e-05
0.00212292 -0.000576589 -2.53372e-06
-0.000576589 0.000117253 -3.35551e-06
-2.53372e-06 -3.35551e-06 -0.000102756
0.00193494 -0.000482738 -4.22224e-06
-0.000482738 7.26689e-05 -1.39047e-07
-4.22224e-06 -1.39047e-07 -0.000108952
0.00176133 -0.000556944 -4.7151e-06
-0.000556944 -3.03355e-06 -1.71623e-06
-4.7151e-06 -1.71623e-06 -0.000267764
0.00187106 -0.000541006 1.67487e-06
-0.000541006 4.30927e-05 2.63559e-06
1.67487e-06 2.63559e-06 -0.000206038
0.00174502 -0.000680864 -5.53378e-06
-0.000680864 0.000130763 -2.78773e-06
-5.53378e-06 -2.78773e-06 -0.000234619
0.00212196 -0.000792857 2.84019e-06
-0.000792857 0.000314159 -1.62469e-07
2.84019e-06 -1.62469e-07 -8.94328e-05
0.00222342 -0.000795502 5.79956e-06
-0.000795502 0.000385193 1.09575e-06
5.79956e-06 1.09575e-06 -2.21289e-05
0.0017959 -0.000708747 -1.51488e-06
-0.000708747 0.000389681 -2.00714e-06
-1.51488e-06 -2.00714e-06 -3.51775e-05
0.00221795 -0.000832494 2.14266e-06
-0.000832494 0.000599882 -6.9802e-07
2.14266e-06 -6.9802e-07 0.000142406
0.00241284 -0.000939093 3.25451e-06
-0.000939093 0.000677988 -2.6578e-06
3.25451e-06 -2.6578e-06 0.000162458
0.00126654 -0.000421002 -7.2837e-06
-0.000421002 0.000283383 3.51539e-06
-7.2837e-06 3.51539e-06 -2.79818e-05
0.0016215 -0.000607082 1.70507e-06
-0.000607082 0.000466289 9.65005e-07
1.70507e-06 9.65005e-07 6.58148e-05
0.00122555 -0.000650382 -3.35323e-06
-0.000650382 0.000216341 1.69049e-06
-3.35323e-06 1.69049e-06 -0.0002073
0.000473688 -0.000224347 -8.1942e-06
-0.000224347 -8.00536e-05 -6.65543e-08
-8.1942e-06 -6.65543e-08 -0.000297191
0.00104831 -0.000335239 1.16274e-06
-0.000335239 0.00024176 -8.78042e-07
1.16274e-06 -8.78042e-07 -3.21683e-05
0.000554403 -0.000355791 -8.37318e-06
-0.000355791 -6.58181e-05 2.36954e-07
-8.37318e-06 2.36954e-07 -0.000378402
0.000331854 -6.74992e-05 -1.39972e-05
-6.74992e-05 -0.000116058 1.36901e-05
-1.39972e-05 1.36901e-05 -0.000196109
0.00086733 -0.000201526 3.34711e-06
-0.000201526 0.000261611 1.44508e-06
3.34711e-06 1.44508e-06 1.98658e-05
0.000579902 -0.000265481 -8.43422e-08
-0.000265481 9.81728e-05 1.44574e-06
-8.43422e-08 1.44574e-06 -0.00018936
0.00401524 0.000246382 7.83624e-06
0.000246382 0.00229003 6.05582e-06
7.83624e-06 6.05582e-06 0.00224933
0.000433408 -3.9456e-05 3.8342e-07
-3.9456e-05 -4.21505e-05 -2.11855e-07
3.8342e-07 -2.11855e-07 -0.00010793
0.00128374 -0.000124857 1.59786e-07
-0.000124857 0.000514286 -5.88213e-06
1.59786e-07 -5.88213e-06 0.000329902
0.0034593 0.000143117 9.58342e-06
0.000143117 0.00189961 7.10967e-07
9.58342e-06 7.10967e-07 0.00189257
0.000557815 -1.62551e-05 5.69046e-06
-1.62551e-05 3.91454e-05 -1.17791e-05
5.69046e-06 -1.17791e-05 -1.44441e-05
0.00311992 0.000116745 5.80266e-05
0.000116745 0.0016749 -5.22797e-06
5.80266e-05 -5.22797e-06 0.00167458
0.00226062 0.000370659 5.61466e-06
0.000370659 0.00111902 1.59921e-06
5.61466e-06 1.59921e-06 0.00086263
0.000727703 0.000182246 3.59798e-07
0.000182246 0.00026618 -4.75047e-06
3.59798e-07 -4.75047e-06 9.64467e-06
0.00143248 0.000223796 -3.41481e-07
0.000223796 0.000718974 -4.84906e-06
-3.41481e-07 -4.84906e-06 0.000449094
0.000760179 8.30794e-05 2.19957e-06
8.30794e-05 0.000191401 -6.54436e-06
2.19957e-06 -6.54436e-06 5.56511e-05
0.000809068 0.000109477 5.44708e-07
0.000109477 0.000310532 1.45581e-06
5.44708e-07 1.45581e-06 8.90432e-05
0.000224039 0.000117508 -2.56424e-06
0.000117508 -3.8044e-06 2.93152e-06
-2.56424e-06 2.93152e-06 -0.000243917
0.000531926 2.05487e-07 -1.61251e-06
2.05487e-07 2.82101e-05 -1.09592e-05
-1.61251e-06 -1.09592e-05 -1.29531e-05
0.000557615 4.54572e-05 -2.60109e-07
4.54572e-05 6.71669e-05 -2.54842e-07
-2.60109e-07 -2.54842e-07 -4.572e-05
0.000203541 8.73107e-05 -5.49359e-06
8.73107e-05 -0.000129286 2.1989e-06
-5.49359e-06 2.1989e-06 -0.000283752
0.00270686 -8.49864e-05 -4.45611e-05
-8.49864e-05 0.00140349 -5.06233e-06
-4.45611e-05 -5.06233e-06 0.00141103
0.000404865 -2.28386e-05 2.89038e-06
-2.28386e-05 -5.73874e-05 -2.34057e-07
2.89038e-06 -2.34057e-07 -9.00736e-05
0.000476993 4.60605e-05 -3.44633e-06
4.60605e-05 1.65215e-05 4.01974e-06
-3.44633e-06 4.01974e-06 -8.09331e-05
0.00252544 -6.8248e-05 -6.91046e-06
-6.8248e-05 0.00128257 5.20426e-07
-6.91046e-06 5.20426e-07 0.00129285
0.000427409 2.12682e-07 -2.5755e-06
2.12682e-07 -5.18352e-05 6.40155e-06
-2.5755e-06 6.40155e-06 -7.66623e-05
0.002312 -4.92042e-05 2.41161e-05
-4.92042e-05 0.00114286 4.84487e-06
2.41161e-05 4.84487e-06 0.00115664
-0.00937408 0.0011173 -0.000146668
0.0011173 0.00426746 7.97663e-05
-0.000146668 7.97663e-05 -0.00265366
0.00628927 0.000601029 1.24794e-05
0.000601029 0.00381708 -1.07637e-06
1.24794e-05 -1.07637e-06 0.00140128
-0.00172774 0.00014414 6.7167e-05
0.00014414 0.000504903 3.40705e-05
6.7167e-05 3.40705e-05 -0.000726251
0.000148517 0.000156938 6.42188e-08
0.000156938 -0.000219313 3.92142e-06
6.42188e-08 3.92142e-06 -0.000433391
0.00329652 0.000722111 1.75706e-05
0.000722111 0.00168475 1.22865e-05
1.75706e-05 1.22865e-05 0.00129523
0.000505654 0.000183089 -8.72429e-06
0.000183089 0.000140265 3.47597e-06
-8.72429e-06 3.47597e-06 -0.000207158
0.000369238 6.67139e-05 -8.0275e-06
6.67139e-05 5.84633e-06 -2.23161e-05
-8.0275e-06 -2.23161e-05 -0.00017682
0.00306541 0.000342719 3.62148e-06
0.000342719 0.00157557 -1.54543e-06
3.62148e-06 -1.54543e-06 0.00138195
-0.00109265 1.45357e-05 -1.43485e-05
1.45357e-05 -0.00086789 1.06827e-05
-1.43485e-05 1.06827e-05 -0.00102566
-8.19925e-05 0.00014462 -1.04971e-06
0.00014462 -8.91435e-05 7.68154e-06
-1.04971e-06 7.68154e-06 -0.000395515
0.000480577 0.000160723 -3.50523e-06
0.000160723 8.8044e-05 -5.89802e-06
-3.50523e-06 -5.89802e-06 -0.000243171
0.00159363 0.000591659 8.39012e-06
0.000591659 0.000785239 -2.34888e-05
8.39012e-06 -2.34888e-05 0.000300392
-0.000351293 0.00049495 -1.81595e-05
0.00049495 -0.000529274 5.51771e-05
-1.81595e-05 5.51771e-05 -0.000687797
0.00150306 6.39374e-05 -1.72754e-05
6.39374e-05 0.000805536 1.79163e-05
-1.72754e-05 1.79163e-05 0.000590978
0.00162413 0.000329529 6.95698e-06
0.000329529 0.00105445 -9.82765e-06
6.95698e-06 -9.82765e-06 0.000649897
0.00143749 -0.0027662 -0.00182373
-0.0027662 0.00207675 -0.000279333
-0.00182373 -0.000279333 -0.00230276
-0.00152226 -0.00292488 0.000608766
-0.00292488 0.00681649 0.000201715
0.000608766 0.000201715 0.000561221
0.00760677 0.00203657 -0.00065262
0.00203657 0.00318236 -0.000223115
-0.00065262 -0.000223115 -0.00261865
0.00776456 -0.0107248 0.0026637
-0.0107248 0.00687104 0.00159912
0.0026637 0.00159912 0.00209527
0.0281596 -0.00416501 5.36604e-05
-0.00416501 0.00979768 0.00040325
5.36604e-05 0.00040325 0.00556835
-0.00356085 0.00143899 -2.35706e-05
0.00143899 0.00253412 -0.000195958
-2.35706e-05 -0.000195958 -0.00342568
-0.00258056 0.000146795 -0.000347546
0.000146795 0.00110687 -6.1921e-05
-0.000347546 -6.1921e-05 -0.00066628
0.000754425 0.000800298 7.83155e-05
0.000800298 0.00168049 5.61247e-05
7.83155e-05 5.61247e-05 0.00127583
0.0208745 -0.00551259 -0.000731505
-0.00551259 0.00873085 1.27849e-05
-0.000731505 1.27849e-05 0.00381985
-0.0023829 0.00349574 -0.000136429
0.00349574 0.000416762 -4.89942e-05
-0.000136429 -4.89942e-05 -0.00441124
0.0033748 0.00247336 2.3542e-05
0.00247336 0.00107624 -7.7126e-05
2.3542e-05 -7.7126e-05 0.00180923
0.00389452 0.00554237 -0.000479707
0.00554237 -0.00195235 -0.000115026
-0.000479707 -0.000115026 -0.0044581
0.00329213 0.00125978 2.48191e-05
0.00125978 0.00126096 -8.40623e-06
2.48191e-05 -8.40623e-06 0.000879126
0.00105697 0.000618042 -4.568e-06
0.000618042 0.000289578 -2.70922e-06
-4.568e-06 -2.70922e-06 0.000128172
-0.000219446 0.000179382 -1.43781e-05
0.000179382 -0.000150724 1.26969e-05
-1.43781e-05 1.26969e-05 -0.000439034
-0.00167399 0.000400273 -9.45833e-05
0.000400273 0.000181945 -7.13129e-05
-9.45833e-05 -7.13129e-05 -0.00091547
0.00194876 0.000826517 -4.37108e-05
0.000826517 0.000967623 -2.38753e-05
-4.37108e-05 -2.38753e-05 0.000531213
0.0021223 0.00164842 1.10331e-05
0.00164842 0.00062032 -8.81814e-06
1.10331e-05 -8.81814e-06 -0.000298194
-0.0010642 0.0017045 0.000102555
0.0017045 -0.00186172 5.3173e-05
0.000102555 5.3173e-05 -0.00224508
-0.00653155 -0.000548379 -0.00068181
-0.000548379 -0.00403011 5.43204e-05
-0.00068181 5.43204e-05 -0.00438675
-0.00919558 0.000516035 0.000452366
0.000516035 0.00603313 1.8384e-05
0.000452366 1.8384e-05 -0.000691814
0.00288858 -6.20743e-05 -0.000140157
-6.20743e-05 0.00211038 3.38473e-05
-0.000140157 3.38473e-05 0.000211072
0.00202109 -0.00109642 -6.32359e-05
-0.00109642 0.00141873 -4.561e-05
-6.32359e-05 -4.561e-05 0.000556623
-0.000837371 -0.00214728 8.32499e-05
-0.00214728 -0.00059697 4.33763e-05
8.32499e-05 4.33763e-05 -0.000344977
0.000796024 0.000822294 0.000103532
0.000822294 0.00777673 5.46643e-05
0.000103532 5.46643e-05 0.00294274
0.00307677 -0.00395786 0.000532369
-0.00395786 -0.00179945 -0.000104111
0.000532369 -0.000104111 -0.00366856
0.0244416 0.0039379 0.00101202
0.0039379 0.0107907 -9.60676e-05
0.00101202 -9.60676e-05 0.00716159
0.00166617 -0.00190774 -2.08301e-05
-0.00190774 0.000396515 3.89185e-06
-2.08301e-05 3.89185e-06 -0.000315112
0.0027838 0.00174462 0.000305916
0.00174462 0.00114981 -9.37909e-05
0.000305916 -9.37909e-05 -0.0015195
0.00757874 -0.0026102 -0.000190665
-0.0026102 -0.00294537 0.000158095
-0.000190665 0.000158095 -0.00496761
0.00322319 -0.00286128 -8.62489e-06
-0.00286128 -0.000764689 2.55545e-05
-8.62489e-06 2.55545e-05 0.000354735
0.00259373 -0.00158266 7.53418e-05
-0.00158266 0.000227896 -2.08429e-05
7.53418e-05 -2.08429e-05 1.58683e-05
0.0181841 -0.000958524 -9.48072e-05
-0.000958524 0.00351081 5.88919e-05
-9.48072e-05 5.88919e-05 0.00242182
0.00272735 -0.00201374 0.00013615
-0.00201374 -0.0033654 -8.62874e-05
0.00013615 -8.62874e-05 -0.00159231
-0.000767271 -0.000741773 -2.45613e-05
-0.000741773 -0.000871288 3.61035e-05
-2.45613e-05 3.61035e-05 -0.0010242
0.000255906 -0.000658193 -4.08305e-05
-0.000658193 -0.000565739 4.3135e-06
-4.08305e-05 4.3135e-06 -0.000734567
0.00627316 -0.0012429 6.17241e-05
-0.0012429 0.00235621 -2.57134e-05
6.17241e-05 -2.57134e-05 0.0021045
0.000155872 -0.000707179 -9.28019e-06
-0.000707179 -0.000528984 4.56845e-06
-9.28019e-06 4.56845e-06 -0.000949912
0.00220943 -0.000996842 -3.04298e-06
-0.000996842 0.000310403 -3.28677e-06
-3.04298e-06 -3.28677e-06 -9.41052e-05
0.00286856 -0.000897612 -1.51145e-07
-0.000897612 0.000354054 -4.91979e-06
-1.51145e-07 -4.91979e-06 0.000137042
0.00210895 -0.00099654 6.16783e-06
-0.00099654 0.000372471 1.02233e-05
6.16783e-06 1.02233e-05 -0.000143338
0.00227729 -0.000822321 -1.66475e-06
-0.000822321 0.00022379 2.71946e-07
-1.66475e-06 2.71946e-07 -9.13487e-05
0.00218619 -0.000599549 -7.53298e-07
-0.000599549 1.47777e-05 -7.58768e-07
-7.53298e-07 -7.58768e-07 -0.000106637
0.00169577 -0.000722287 8.02977e-06
-0.000722287 7.35789e-05 7.11278e-06
8.02977e-06 7.11278e-06 -0.000304427
0.00205493 -0.000563758 -3.67818e-07
-0.000563758 7.6539e-05 2.53833e-06
-3.67818e-07 2.53833e-06 -0.000135334
0.00213655 -0.00054109 -2.86293e-06
-0.00054109 8.63493e-05 2.07171e-06
-2.86293e-06 2.07171e-06 -5.27219e-05
0.00209188 -0.000510892 -4.22768e-06
-0.000510892 0.000155501 1.45317e-06
-4.22768e-06 1.45317e-06 -4.65593e-06
0.00206416 -0.000493366 -3.07682e-06
-0.000493366 0.000144637 3.13267e-06
-3.07682e-06 3.13267e-06 -3.34232e-05
0.00212559 -0.000499948 -2.39926e-06
-0.000499948 0.000238356 -3.14059e-06
-2.39926e-06 -3.14059e-06 4.39141e-05
0.00208237 -0.000591104 -6.45411e-06
-0.000591104 0.000221527 -2.62432e-06
-6.45411e-06 -2.62432e-06 -5.34978e-05
0.00200052 -0.000574629 1.61114e-06
-0.000574629 0.000151456 9.74654e-07
1.61114e-06 9.74654e-07 -0.000114015
0.00195115 -0.000542856 5.37741e-06
-0.000542856 8.85617e-05 7.15541e-06
5.37741e-06 7.15541e-06 -0.000157435
0.00199432 -0.000679618 -7.46852e-06
-0.000679618 0.000344731 -2.76681e-06
-7.46852e-06 -2.76681e-06 -2.62174e-05
0.00174998 -0.0006897 -5.88796e-07
-0.0006897 0.000119403 1.41044e-07
-5.88796e-07 1.41044e-07 -0.000249938
0.00228185 -0.000801384 8.07768e-06
-0.000801384 0.000428955 1.43966e-06
8.07768e-06 1.43966e-06 2.84625e-05
0.00143732 -0.000528472 -1.18971e-05
-0.000528472 0.000259019 3.22533e-06
-1.18971e-05 3.22533e-06 -9.84469e-05
0.00190162 -0.000720894 -5.38895e-07
-0.000720894 0.000454156 8.20179e-07
-5.38895e-07 8.20179e-07 2.71043e-05
0.00209781 -0.00082668 4.55477e-06
-0.00082668 0.000521602 5.61808e-07
4.55477e-06 5.61808e-07 6.23984e-05
0.000647542 -0.00022382 -7.9875e-06
-0.00022382 -4.69688e-06 5.51329e-06
-7.9875e-06 5.51329e-06 -0.000224838
0.00127881 -0.000429791 1.44344e-06
-0.000429791 0.000281554 3.19202e-07
1.44344e-06 3.19202e-07 -3.38755e-05
0.00123678 -0.000559349 -2.271e-06
-0.000559349 0.000217179 2.08725e-06
-2.271e-06 2.08725e-06 -0.000169647
0.000495986 -0.000143821 -2.49504e-05
-0.000143821 -4.60671e-05 1.51434e-05
-2.49504e-05 1.51434e-05 -0.00014704
0.000608233 -0.000225221 -2.66999e-06
-0.000225221 3.34747e-05 8.66097e-07
-2.66999e-06 8.66097e-07 -0.000204413
0.000595568 -0.000337004 1.76719e-06
-0.000337004 -4.74857e-05 -1.09215e-06
1.76719e-06 -1.09215e-06 -0.000328086
0.00448309 0.000218025 -9.24273e-05
0.000218025 0.00258682 8.43999e-06
-9.24273e-05 8.43999e-06 0.00255706
0.000558897 -8.59761e-05 1.86745e-06
-8.59761e-05 2.15129e-05 -2.08696e-07
1.86745e-06 -2.08696e-07 -6.47335e-05
0.00164018 -0.000286674 7.08298e-06
-0.000286674 0.000740272 -3.08142e-06
7.08298e-06 -3.08142e-06 0.000493195
0.00261341 0.000135472 5.66318e-05
0.000135472 0.00137805 1.42326e-06
5.66318e-05 1.42326e-06 0.00135187
0.000631246 -4.64982e-05 1.21354e-05
-4.64982e-05 7.63468e-05 -1.3639e-05
1.21354e-05 -1.3639e-05 7.11237e-06
0.00369038 0.000132805 8.81948e-05
0.000132805 0.00204588 -5.79459e-06
8.81948e-05 -5.79459e-06 0.00204143
0.00185185 0.000373629 3.00959e-06
0.000373629 0.000738614 -4.25952e-06
3.00959e-06 -4.25952e-06 0.000502324
0.000435588 0.000164144 -4.64885e-06
0.000164144 -6.3051e-05 -3.22369e-08
-4.64885e-06 -3.22369e-08 -0.000266762
0.000467074 0.000181064 9.87162e-07
0.000181064 6.17248e-05 -7.84927e-06
9.87162e-07 -7.84927e-06 -0.000190221
0.000310729 0.000144729 -2.29498e-06
0.000144729 -1.9373e-05 1.03185e-05
-2.29498e-06 1.03185e-05 -0.000250703
0.00066017 0.000111126 5.50278e-07
0.000111126 0.000212941 1.95126e-07
5.50278e-07 1.95126e-07 -3.41744e-05
0.00110257 0.000128445 -3.37027e-07
0.000128445 0.00039886 -9.49459e-06
-3.37027e-07 -9.49459e-06 0.000235081
0.00058754 3.99208e-05 -6.00518e-06
3.99208e-05 6.23389e-05 -1.33698e-05
-6.00518e-06 -1.33698e-05 1.05655e-05
0.000708069 7.5472e-05 4.98557e-07
7.5472e-05 0.000163881 -1.39935e-07
4.98557e-07 -1.39935e-07 2.81658e-05
-0.000434627 2.39583e-05 -6.25365e-06
2.39583e-05 -0.000500623 8.77641e-07
-6.25365e-06 8.77641e-07 -0.000695954
0.002981 -9.95076e-05 -6.31343e-05
-9.95076e-05 0.00158581 -5.67277e-06
-6.31343e-05 -5.67277e-06 0.00159035
0.000395027 1.88171e-05 1.06586e-06
1.88171e-05 -5.67583e-05 -3.3517e-07
1.06586e-06 -3.3517e-07 -9.75494e-05
0.000609098 5.59388e-05 -3.58322e-06
5.59388e-05 0.000104999 6.60222e-06
-3.58322e-06 6.60222e-06 -1.0484e-05
0.00274639 -8.77623e-05 -7.71033e-06
-8.77623e-05 0.00142937 6.55027e-07
-7.71033e-06 6.55027e-07 0.00143588
0.000363434 -1.34584e-05 -9.88294e-07
-1.34584e-05 -8.2006e-05 7.97544e-06
-9.88294e-07 7.97544e-06 -0.000114462
0.00252848 -6.84499e-05 3.01106e-05
-6.84499e-05 0.00128426 5.05018e-06
3.01106e-05 5.05018e-06 0.00129434
0.00169794 -1.08877e-05 -0.00100097
-1.08877e-05 0.00410295 -6.96085e-05
-0.00100097 -6.96085e-05 0.00185364
-0.00578909 0.000115741 3.11432e-05
0.000115741 0.00537109 -9.82871e-06
3.11432e-05 -9.82871e-06 -0.00182584
0.00604266 0.000290338 -0.000300918
0.000290338 0.00365895 -8.1345e-05
-0.000300918 -8.1345e-05 0.00141271
-0.000396544 5.64789e-05 4.40233e-06
5.64789e-05 -0.000550379 -6.48265e-06
4.40233e-06 -6.48265e-06 -0.000766838
0.000422901 0.00011353 6.92334e-06
0.00011353 1.94477e-05 7.0832e-06
6.92334e-06 7.0832e-06 -0.000303314
0.00296065 0.000657396 -3.51602e-06
0.000657396 0.00150964 3.70811e-06
-3.51602e-06 3.70811e-06 0.00112819
0.00230276 0.000759524 1.84118e-05
0.000759524 0.000959822 8.83695e-06
1.84118e-05 8.83695e-06 0.000470495
0.000835376 0.00049176 1.12851e-05
0.00049176 0.000352585 7.12979e-06
1.12851e-05 7.12979e-06 -7.48592e-05
0.00151833 0.000226016 -8.71644e-06
0.000226016 0.000871297 6.93502e-06
-8.71644e-06 6.93502e-06 0.000566966
0.00160694 0.000234839 1.02379e-05
0.000234839 0.000814814 9.85039e-06
1.02379e-05 9.85039e-06 0.000503439
0.000769279 0.000509096 -4.37406e-06
0.000509096 0.000346129 -3.85838e-07
-4.37406e-06 -3.85838e-07 -0.000134301
0.000162981 0.000682402 1.86294e-05
0.000682402 -0.000420648 -9.62529e-06
1.86294e-05 -9.62529e-06 -0.000789618
0.00266429 0.000917259 -8.4484e-06
0.000917259 0.001021 2.68424e-05
-8.4484e-06 2.68424e-05 0.000754849
0.00156958 0.000959698 3.244e-05
0.000959698 0.000113797 1.23997e-05
3.244e-05 1.23997e-05 -4.23626e-05
0.00148506 0.000701999 -5.37191e-06
0.000701999 0.000560103 -2.93989e-06
-5.37191e-06 -2.93989e-06 0.000308168
0.00206367 0.000445675 -7.31977e-06
0.000445675 0.00119427 3.38869e-05
-7.31977e-06 3.38869e-05 0.00080662
0.0139376 0.00290941 -0.000135252
0.00290941 0.00150461 5.96049e-05
-0.000135252 5.96049e-05 0.00038668
0.00369305 -0.00236827 -0.000638298
-0.00236827 0.00417671 -0.00022264
-0.000638298 -0.00022264 0.00074563
0.000620529 -0.0042283 0.000931511
-0.0042283 0.00753419 0.000233362
0.000931511 0.000233362 0.00117836
0.0103997 -0.0032514 0.000360221
-0.0032514 0.00425899 0.000322706
0.000360221 0.000322706 -0.000165095
0.0140518 0.00553791 -0.000110408
0.00553791 0.00462636 -5.49549e-05
-0.000110408 -5.49549e-05 0.000546114
-0.00301312 0.000308673 -4.9109e-05
0.000308673 0.000169436 -4.30496e-05
-4.9109e-05 -4.30496e-05 -0.000335462
0.00206422 0.00212453 -6.94159e-05
0.00212453 0.000510186 -2.63751e-05
-6.94159e-05 -2.63751e-05 0.00137964
0.0167679 0.00535457 1.95187e-05
0.00535457 0.00320082 3.91032e-05
1.95187e-05 3.91032e-05 0.000686905
0.00678579 0.00403634 -0.000106495
0.00403634 -0.000283544 -0.000117109
-0.000106495 -0.000117109 0.000343183
0.00180904 0.00131887 5.28285e-06
0.00131887 0.000207559 4.7885e-06
5.28285e-06 4.7885e-06 -8.76553e-05
0.00162147 0.000999955 1.17809e-05
0.000999955 0.000468296 -4.32485e-06
1.17809e-05 -4.32485e-06 0.00014669
0.00177711 0.000632896 -3.17487e-05
0.000632896 0.000814287 5.66862e-06
-3.17487e-05 5.66862e-06 0.000642484
0.00247828 0.00178359 -7.42292e-05
0.00178359 0.000644545 -2.75142e-05
-7.42292e-05 -2.75142e-05 -0.000253801
0.00148554 0.00200803 8.40136e-05
0.00200803 -0.000772867 4.4484e-05
8.40136e-05 4.4484e-05 -0.00126511
0.00295902 -0.000289034 -0.000138292
-0.000289034 -0.0052567 5.3222e-05
-0.000138292 5.3222e-05 -0.00551032
0.000543549 -0.00190172 1.30298e-05
-0.00190172 0.00253674 1.80878e-05
1.30298e-05 1.80878e-05 0.00124516
-0.0124844 -0.000331424 0.00035958
-0.000331424 0.006643 -2.29576e-05
0.00035958 -2.29576e-05 0.000769583
0.000949529 -0.00215949 -6.66541e-05
-0.00215949 -0.00027724 3.02589e-05
-6.66541e-05 3.02589e-05 -0.00120969
0.00623329 -0.00362423 2.91223e-05
-0.00362423 0.000316395 4.88716e-05
2.91223e-05 4.88716e-05 0.000930095
0.00303192 0.000130368 0.00107679
0.000130368 0.00424671 -0.000255991
0.00107679 -0.000255991 0.00218846
0.0145418 -0.00279208 -0.00032397
-0.00279208 0.00152534 0.000175242
-0.00032397 0.000175242 0.000824871
0.00175061 -0.00156091 -3.07421e-05
-0.00156091 -0.00015882 2.71896e-06
-3.07421e-05 2.71896e-06 -0.000493031
0.0117106 -0.000154905 -0.000212177
-0.000154905 -0.00144338 7.66526e-05
-0.000212177 7.66526e-05 -0.00215986
0.00724909 -0.0023341 9.78029e-05
-0.0023341 -0.000564526 1.07899e-05
9.78029e-05 1.07899e-05 0.000484462
0.00366469 -0.00133629 6.55447e-05
-0.00133629 0.00026782 -4.42056e-05
6.55447e-05 -4.42056e-05 0.000115863
0.00242896 -0.00087826 8.04982e-06
-0.00087826 -0.00240067 3.20665e-06
8.04982e-06 3.20665e-06 -0.000981757
-0.00463792 -0.000186453 1.12181e-05
-0.000186453 -0.00322784 1.59964e-05
1.12181e-05 1.59964e-05 -0.00321891
0.00142293 -0.000793523 -2.00313e-05
-0.000793523 -0.000325214 2.51112e-06
-2.00313e-05 2.51112e-06 -0.000337627
0.0037951 -0.000841125 3.87483e-05
-0.000841125 0.000730586 -1.4615e-05
3.87483e-05 -1.4615e-05 0.000783123
0.00115116 -0.000870217 -9.75841e-06
-0.000870217 -0.000238726 7.49114e-06
-9.75841e-06 7.49114e-06 -0.000612209
0.00225471 -0.000839226 -3.92391e-06
-0.000839226 2.67234e-05 3.26701e-06
-3.92391e-06 3.26701e-06 -0.000183704
0.00248861 -0.000680171 5.36323e-06
-0.000680171 -1.00814e-05 -8.55417e-07
5.36323e-06 -8.55417e-07 -3.38086e-05
0.00222134 -0.000802021 -3.26777e-06
-0.000802021 0.000207426 9.33146e-06
-3.26777e-06 9.33146e-06 -9.94825e-05
0.00218433 -0.000597618 4.78731e-07
-0.000597618 1.2802e-05 1.42268e-06
4.78731e-07 1.42268e-06 -0.000105628
0.00232922 -0.000593959 -6.57093e-07
-0.000593959 7.48043e-05 6.32168e-07
-6.57093e-07 6.32168e-07 1.69774e-05
0.0019436 -0.000545673 5.37758e-06
-0.000545673 1.24994e-05 5.91078e-06
5.37758e-06 5.91078e-06 -0.000189824
0.00210784 -0.000538524 3.98664e-08
-0.000538524 6.80873e-05 1.28774e-06
3.98664e-08 1.28774e-06 -6.84357e-05
0.00226129 -0.000576463 -2.32977e-06
-0.000576463 0.000137123 1.84824e-06
-2.32977e-06 1.84824e-06 1.32993e-05
0.00210141 -0.000518745 -4.5308e-06
-0.000518745 0.000152219 2.19458e-06
-4.5308e-06 2.19458e-06 -5.28171e-06
0.00221594 -0.000513391 -1.43818e-06
-0.000513391 0.000274527 -4.71585e-07
-1.43818e-06 -4.71585e-07 0.000104269
0.0021748 -0.000503043 2.55681e-06
-0.000503043 0.000206934 4.78224e-06
2.55681e-06 4.78224e-06 3.26728e-05
0.00211222 -0.000499026 6.9095e-07
-0.000499026 0.000228942 -5.99645e-07
6.9095e-07 -5.99645e-07 3.47684e-05
0.00202458 -0.000516754 -3.21464e-06
-0.000516754 0.000179313 -2.24509e-06
-3.21464e-06 -2.24509e-06 -3.54223e-05
0.00211616 -0.000575717 -3.89652e-06
-0.000575717 0.000317044 -4.21027e-06
-3.89652e-06 -4.21027e-06 2.97942e-05
0.00214723 -0.000599407 -5.07015e-07
-0.000599407 0.000264833 5.23338e-08
-5.07015e-07 5.23338e-08 -1.3126e-05
0.00223488 -0.000591392 7.81881e-06
-0.000591392 0.000304694 4.05748e-06
7.81881e-06 4.05748e-06 3.87008e-05
0.00168696 -0.000568715 -1.11296e-05
-0.000568715 0.000259881 2.41927e-06
-1.11296e-05 2.41927e-06 -9.42617e-05
0.00191792 -0.00067053 -1.90909e-06
-0.00067053 0.000297896 -3.20595e-07
-1.90909e-06 -3.20595e-07 -7.36399e-05
0.00176961 -0.000699429 5.98546e-06
-0.000699429 0.000116435 2.19561e-06
5.98546e-06 2.19561e-06 -0.00025699
0.000844817 -0.000273726 -1.16431e-05
-0.000273726 4.35039e-05 8.15035e-06
-1.16431e-05 8.15035e-06 -0.000193307
0.00143199 -0.000527948 5.04928e-07
-0.000527948 0.000260968 3.11985e-07
5.04928e-07 3.11985e-07 -9.58665e-05
0.00200253 -0.000730944 3.32758e-06
-0.000730944 0.000518104 2.35508e-06
3.32758e-06 2.35508e-06 8.9651e-05
0.000277803 -0.000190111 -2.15392e-05
-0.000190111 -0.000188817 1.92279e-05
-2.15392e-05 1.92279e-05 -0.000315726
0.000616124 -0.000228962 -4.69798e-07
-0.000228962 -1.9348e-05 2.76076e-07
-4.69798e-07 2.76076e-07 -0.00024585
0.00107002 -0.00040658 8.36613e-06
-0.00040658 0.000142534 -1.60525e-06
8.36613e-06 -1.60525e-06 -0.000167779
0.00533107 0.000159848 -0.00015631
0.000159848 0.00310375 1.03192e-05
-0.00015631 1.03192e-05 0.00308927
0.000501422 -0.000164675 -3.93226e-06
-0.000164675 -3.99675e-05 -8.61138e-07
-3.93226e-06 -8.61138e-07 -0.00014694
0.0012237 -0.000279722 5.83602e-06
-0.000279722 0.000437605 -3.10806e-06
5.83602e-06 -3.10806e-06 0.000181092
0.00472486 0.000178187 2.15102e-05
0.000178187 0.00273168 3.50466e-07
2.15102e-05 3.50466e-07 0.00271239
0.0006638 -0.000111813 2.22462e-05
-0.000111813 8.40005e-05 -1.46331e-05
2.22462e-05 -1.46331e-05 -7.14741e-06
0.00419333 0.000140926 0.000120246
0.000140926 0.00237476 -8.26478e-06
0.000120246 -8.26478e-06 0.00236791
0.00235271 0.000656928 6.71794e-06
0.000656928 0.00100737 -1.36394e-07
6.71794e-06 -1.36394e-07 0.00059141
0.00072142 0.00028444 -1.63105e-06
0.00028444 4.56055e-05 -3.04814e-06
-1.63105e-06 -3.04814e-06 -0.000183052
0.000339561 0.000172086 4.77158e-06
0.000172086 -0.000146287 2.33902e-06
4.77158e-06 2.33902e-06 -0.000357478
-0.000755721 5.14739e-05 -2.40019e-06
5.14739e-05 -0.000794886 1.49049e-06
-2.40019e-06 1.49049e-06 -0.000998514
0.000336426 0.000136709 2.79839e-07
0.000136709 -5.56295e-05 2.09943e-06
2.79839e-07 2.09943e-06 -0.000285276
0.00101578 0.000121793 -3.0215e-07
0.000121793 0.000351126 -1.21678e-05
-3.0215e-07 -1.21678e-05 0.000150749
0.000207848 6.79289e-05 -3.48645e-06
6.79289e-05 -8.6227e-05 2.76241e-06
-3.48645e-06 2.76241e-06 -0.000320214
0.000589051 9.45292e-05 -9.94531e-08
9.45292e-05 9.25831e-05 6.23484e-07
-9.94531e-08 6.23484e-07 -7.37668e-05
0.00053071 5.07601e-05 -9.16832e-06
5.07601e-05 2.43665e-05 -1.61325e-05
-9.16832e-06 -1.61325e-05 -4.15516e-05
0.00334494 -0.000107272 -9.16392e-05
-0.000107272 0.0018269 -7.57398e-06
-9.16392e-05 -7.57398e-06 0.00182913
0.000400274 1.75655e-05 1.37879e-06
1.75655e-05 -4.94267e-05 -4.54586e-07
1.37879e-06 -4.54586e-07 -0.000102116
0.000382374 5.98403e-05 -3.32095e-06
5.98403e-05 -3.67336e-05 7.66053e-06
-3.32095e-06 7.66053e-06 -0.000169081
0.00289299 -0.000106961 -8.78895e-06
-0.000106961 0.00153073 8.33313e-07
-8.78895e-06 8.33313e-07 0.00153285
0.000280091 -5.41033e-05 -7.4955e-06
-5.41033e-05 -0.000120673 1.04772e-05
-7.4955e-06 1.04772e-05 -0.000165407
0.00268247 -8.74206e-05 3.74102e-05
-8.74206e-05 0.00138875 5.1189e-06
3.74102e-05 5.1189e-06 0.00139497
0.0153664 0.00066027 0.000534602
0.00066027 0.00175151 0.000130235
0.000534602 0.000130235 0.00161473
-0.000642241 -0.00329405 -0.000599764
-0.00329405 -0.0022513 -9.04789e-05
-0.000599764 -9.04789e-05 -0.00492835
-0.00949461 0.00161935 -0.000232666
0.00161935 0.00489178 -0.000129797
-0.000232666 -0.000129797 -0.00249564
3.79677e-05 5.30752e-05 1.5239e-05
5.30752e-05 -0.000215502 -1.00595e-05
1.5239e-05 -1.00595e-05 -0.000552374
0.00159038 0.000487725 -8.30247e-06
0.000487725 0.000682964 -8.84871e-07
-8.30247e-06 -8.84871e-07 0.000333317
0.00265531 0.000686127 -1.08949e-05
0.000686127 0.00140603 -2.75034e-06
-1.08949e-05 -2.75034e-06 0.00093166
0.00142101 0.000644904 1.06488e-06
0.000644904 0.000427341 -9.18996e-07
1.06488e-06 -9.18996e-07 -3.15973e-05
0.00152304 0.000708579 1.16574e-05
0.000708579 0.000282255 1.9289e-05
1.16574e-05 1.9289e-05 -0.000155512
-0.000540482 0.000506987 3.49584e-05
0.000506987 -0.000782163 8.60625e-06
3.49584e-05 8.60625e-06 -0.00115838
7.30254e-05 0.000382108 -1.44072e-05
0.000382108 5.71102e-06 9.79131e-06
-1.44072e-05 9.79131e-06 -0.000488412
-0.000237696 0.000613681 7.83152e-06
0.000613681 -0.000668404 -1.78519e-06
7.83152e-06 -1.78519e-06 -0.00101194
0.00224668 0.00087335 9.29745e-06
0.00087335 0.000837054 7.39056e-06
9.29745e-06 7.39056e-06 0.000527822
-0.000140748 0.000644212 6.46715e-06
0.000644212 -0.000742632 -6.23996e-06
6.46715e-06 -6.23996e-06 -0.00101638
0.0038971 0.00112819 6.64926e-06
0.00112819 0.00137885 1.33572e-05
6.64926e-06 1.33572e-05 0.00115893
0.00135542 0.000944565 2.22542e-05
0.000944565 1.44012e-05 6.87749e-06
2.22542e-05 6.87749e-06 -0.000301391
0.000551703 0.000830123 4.46087e-06
0.000830123 -0.000476102 -1.64162e-07
4.46087e-06 -1.64162e-07 -0.000551388
0.0007819 0.000577428 -3.8355e-06
0.000577428 0.000152169 -5.88167e-05
-3.8355e-06 -5.88167e-05 -6.80504e-05
0.0047269 0.00194318 2.33514e-05
0.00194318 -0.00200083 3.09399e-05
2.33514e-05 3.09399e-05 -0.00023743
0.0140031 0.00351887 0.000310259
0.00351887 0.000566026 0.000170172
0.000310259 0.000170172 -0.000910754
0.0123246 -0.00489745 0.000625721
-0.00489745 0.00597121 -4.81959e-05
0.000625721 -4.81959e-05 0.0021231
0.00588304 0.00563823 0.000630745
0.00563823 -0.00112952 0.000349379
0.000630745 0.000349379 -0.0052518
-6.56264e-05 0.00146563 -5.37128e-05
0.00146563 8.3409e-05 9.06361e-06
-5.37128e-05 9.06361e-06 0.000747236
0.00384783 0.00271571 -0.000104837
0.00271571 -0.00078227 -5.48473e-05
-0.000104837 -5.48473e-05 0.000241356
0.00634953 0.00238332 6.68438e-05
0.00238332 0.00115271 3.45395e-05
6.68438e-05 3.45395e-05 0.00091238
0.00463918 0.00174282 2.19817e-05
0.00174282 0.00146685 9.56545e-06
2.19817e-05 9.56545e-06 0.00107627
0.000131112 0.000777477 -2.95491e-05
0.000777477 -0.000311106 5.07326e-06
-2.95491e-05 5.07326e-06 -0.000553944
0.00750148 0.00277427 -0.000191345
0.00277427 0.00201896 -2.06074e-05
-0.000191345 -2.06074e-05 0.0013166
0.00316712 -0.000594967 1.11716e-05
-0.000594967 -0.000972801 1.9579e-05
1.11716e-05 1.9579e-05 -1.04126e-05
0.0116474 -0.000586622 -5.31669e-05
-0.000586622 0.000802355 -1.98058e-05
-5.31669e-05 -1.98058e-05 0.000987582
-0.0129498 -0.00312301 0.000881578
-0.00312301 -0.00494868 1.1401e-06
0.000881578 1.1401e-06 -0.00638648
0.00105891 -0.00136967 -0.000120995
-0.00136967 -0.000404559 3.73605e-05
-0.000120995 3.73605e-05 -0.000685324
0.00847889 -0.00284043 -2.63644e-05
-0.00284043 -0.000664067 8.75059e-05
-2.63644e-05 8.75059e-05 0.000629463
0.00120393 -0.000308595 -0.000316883
-0.000308595 -0.00540066 3.94311e-05
-0.000316883 3.94311e-05 -0.00685425
0.00305429 -0.00115785 3.50934e-05
-0.00115785 -8.49465e-05 1.17351e-06
3.50934e-05 1.17351e-06 6.16092e-05
0.00522639 -0.000831586 -5.36281e-05
-0.000831586 -0.000696931 1.39166e-06
-5.36281e-05 1.39166e-06 0.000303169
0.00620729 -0.000984717 5.25931e-05
-0.000984717 0.00142746 -3.54613e-05
5.25931e-05 -3.54613e-05 0.0018112
0.00591083 -0.000528126 0.000115688
-0.000528126 0.00128883 -6.70389e-07
0.000115688 -6.70389e-07 0.00162991
-0.00318053 -0.000395593 1.06936e-05
-0.000395593 -0.00294718 1.21162e-05
1.06936e-05 1.21162e-05 -0.00267177
0.00214165 -0.00070814 -7.76129e-06
-0.00070814 -0.000222669 2.23277e-06
-7.76129e-06 2.23277e-06 -4.91322e-05
0.00239456 -0.000537476 2.5789e-05
-0.000537476 -0.000248601 -6.55983e-06
2.5789e-05 -6.55983e-06 3.75989e-05
0.00183046 -0.000804364 2.11075e-06
-0.000804364 -0.000205367 5.67369e-06
2.11075e-06 5.67369e-06 -0.000415408
0.00241996 -0.000674902 1.32389e-06
-0.000674902 -4.22317e-05 1.66975e-06
1.32389e-06 1.66975e-06 -6.70087e-05
0.0024696 -0.000592069 1.64543e-06
-0.000592069 1.89617e-05 -3.25313e-07
1.64543e-06 -3.25313e-07 2.63195e-05
0.002213 -0.000600442 3.03428e-06
-0.000600442 2.77091e-05 5.0056e-06
3.03428e-06 5.0056e-06 -9.0409e-05
0.00228652 -0.000587038 2.54952e-07
-0.000587038 6.30079e-05 4.41686e-07
2.54952e-07 4.41686e-07 6.97186e-07
0.00228248 -0.000522243 -2.118e-06
-0.000522243 4.99633e-05 2.89059e-07
-2.118e-06 2.89059e-07 -9.01744e-06
0.00209431 -0.000538017 3.90061e-06
-0.000538017 5.80752e-05 9.44062e-07
3.90061e-06 9.44062e-07 -7.72839e-05
0.00223732 -0.00057047 -8.98697e-08
-0.00057047 0.000148083 9.13459e-09
-8.98697e-08 9.13459e-09 2.23692e-05
0.00212992 -0.000507804 -1.93264e-09
-0.000507804 0.000125953 6.74495e-07
-1.93264e-09 6.74495e-07 -4.95289e-06
0.0021243 -0.000527343 -1.28442e-06
-0.000527343 0.000156944 1.13398e-06
-1.28442e-06 1.13398e-06 1.55214e-06
0.00215021 -0.000503762 -1.69792e-06
-0.000503762 0.000229276 2.08328e-07
-1.69792e-06 2.08328e-07 6.23604e-05
0.00222508 -0.000504145 -2.36298e-06
-0.000504145 0.000293269 -2.44193e-07
-2.36298e-06 -2.44193e-07 0.000108061
0.00210848 -0.000497435 4.52757e-06
-0.000497435 0.000225479 2.22009e-06
4.52757e-06 2.22009e-06 3.19169e-05
0.00206584 -0.000519596 -3.42448e-07
-0.000519596 0.000204267 -8.91099e-08
-3.42448e-07 -8.91099e-08 -1.11036e-05
0.00211225 -0.000515617 -1.12455e-06
-0.000515617 0.000277584 -2.48345e-06
-1.12455e-06 -2.48345e-06 3.98768e-05
0.00177983 -0.000508526 -8.58201e-06
-0.000508526 0.000216802 -9.53874e-07
-8.58201e-06 -9.53874e-07 -8.23756e-05
0.00205469 -0.000576504 -7.11533e-07
-0.000576504 0.000276738 -1.24526e-06
-7.11533e-07 -1.24526e-06 -1.66836e-05
0.00221409 -0.000608284 4.75172e-06
-0.000608284 0.000309955 2.70365e-06
4.75172e-06 2.70365e-06 2.88654e-05
0.00100632 -0.000315001 -1.73123e-05
-0.000315001 3.19859e-05 9.2439e-06
-1.73123e-05 9.2439e-06 -0.000215577
0.0017417 -0.000566146 -1.47768e-07
-0.000566146 0.000303796 9.61082e-07
-1.47768e-07 9.61082e-07 -4.72441e-05
0.00185515 -0.000662416 3.15591e-06
-0.000662416 0.000260123 1.90751e-06
3.15591e-06 1.90751e-06 -0.000112097
0.000248546 -0.000196855 -1.82742e-05
-0.000196855 -0.000230047 2.08372e-05
-1.82742e-05 2.08372e-05 -0.000367187
0.000773968 -0.000278144 1.2969e-06
-0.000278144 -5.85439e-06 -6.34283e-08
1.2969e-06 -6.34283e-08 -0.00024724
0.00146307 -0.000530279 1.20983e-05
-0.000530279 0.000287138 -2.29482e-06
1.20983e-05 -2.29482e-06 -6.95107e-05
0.00643261 8.01541e-05 -0.000235441
8.01541e-05 0.00376492 1.52159e-05
-0.000235441 1.52159e-05 0.00376614
0.000361293 -0.000199939 -1.712e-06
-0.000199939 -0.000136626 -2.93231e-07
-1.712e-06 -2.93231e-07 -0.000264588
0.000615118 -0.000235322 9.53047e-06
-0.000235322 -1.50975e-05 -6.67553e-06
9.53047e-06 -6.67553e-06 -0.000247835
0.00580479 0.000114023 -7.85042e-06
0.000114023 0.00339706 -1.92002e-06
-7.85042e-06 -1.92002e-06 0.00338922
0.000408552 -0.000163349 2.06612e-05
-0.000163349 -9.01228e-05 -1.7168e-05
2.06612e-05 -1.7168e-05 -0.000203828
0.00515182 0.000114942 0.000187596
0.000114942 0.00299355 -1.80424e-05
0.000187596 -1.80424e-05 0.00298686
0.00185691 0.000667669 -4.46237e-06
0.000667669 0.000534454 4.18686e-06
-4.46237e-06 4.18686e-06 0.000119196
0.00182409 0.000593397 -1.49183e-06
0.000593397 0.00065458 -1.38948e-06
-1.49183e-06 -1.38948e-06 0.000259958
0.000945123 0.000357395 -1.19622e-06
0.000357395 0.000127771 -2.87898e-06
-1.19622e-06 -2.87898e-06 -0.00016396
0.0012803 0.000371243 -9.08553e-06
0.000371243 0.000439425 -2.582e-06
-9.08553e-06 -2.582e-06 0.000175373
0.000330217 0.000185569 1.90163e-06
0.000185569 -0.000136509 -4.09131e-07
1.90163e-06 -4.09131e-07 -0.000358455
0.00081085 0.000243469 -2.77835e-06
0.000243469 0.000211153 -6.9999e-06
-2.77835e-06 -6.9999e-06 -2.61458e-05
3.78767e-05 8.47282e-05 -4.21633e-07
8.47282e-05 -0.00025909 3.40557e-06
-4.21633e-07 3.40557e-06 -0.000476212
0.000637502 0.00014065 9.74748e-07
0.00014065 0.00013292 -5.31658e-07
9.74748e-07 -5.31658e-07 -7.88078e-05
0.000700288 9.12146e-05 -1.7007e-05
9.12146e-05 0.000117956 -1.80155e-05
-1.7007e-05 -1.80155e-05 3.44731e-05
0.000234346 6.53048e-05 -2.97579e-06
6.53048e-05 -0.000107444 1.06567e-05
-2.97579e-06 1.06567e-05 -0.000283133
0.000523479 5.82112e-05 1.67787e-07
5.82112e-05 2.49437e-05 -1.68704e-07
1.67787e-07 -1.68704e-07 -4.00526e-05
0.00405991 -0.00013113 -0.000118248
-0.00013113 0.00229533 -1.02394e-05
-0.000118248 -1.02394e-05 0.0022901
0.00333796 -0.000130475 -1.17387e-05
-0.000130475 0.00182581 1.02081e-06
-1.17387e-05 1.02081e-06 0.00182179
0.000372731 4.65815e-05 6.30233e-06
4.65815e-05 -6.5602e-05 1.33374e-05
6.30233e-06 1.33374e-05 -0.000117064
0.00290177 -0.000109056 4.57462e-05
-0.000109056 0.00153657 5.26074e-06
4.57462e-05 5.26074e-06 0.00153799
0.00387888 0.000193128 9.25708e-05
0.000193128 -0.00143114 3.15659e-05
9.25708e-05 3.15659e-05 0.000219821
0.00556736 -0.000920925 0.000198357
-0.000920925 -0.00467917 9.35713e-05
0.000198357 9.35713e-05 -0.00549845
0.0134871 -0.00357648 -0.000248814
-0.00357648 0.00568768 -0.000109519
-0.000248814 -0.000109519 0.00382688
0.00154395 0.000684404 5.4143e-06
0.000684404 9.31133e-05 9.13937e-06
5.4143e-06 9.13937e-06 -0.000276836
0.0047549 0.000903035 -1.40593e-05
0.000903035 0.00259864 -1.25483e-06
-1.40593e-05 -1.25483e-06 0.00209431
0.000617922 0.00053875 -1.06048e-05
0.00053875 -5.4644e-05 -6.62449e-06
-1.06048e-05 -6.62449e-06 -0.000484934
0.00151912 0.000759676 1.28312e-06
0.000759676 0.000452383 -3.36724e-06
1.28312e-06 -3.36724e-06 1.95493e-05
0.00175406 0.000736069 -1.7083e-06
0.000736069 0.000446792 3.72581e-06
-1.7083e-06 3.72581e-06 -3.87357e-06
0.00154729 0.000794879 2.20458e-05
0.000794879 0.000255888 1.26755e-05
2.20458e-05 1.26755e-05 -0.000130717
0.00258292 0.000921518 -4.51651e-05
0.000921518 0.00102659 -2.52548e-06
-4.51651e-05 -2.52548e-06 0.000602569
0.000472117 0.000675215 1.58057e-05
0.000675215 -0.000150252 -3.6606e-05
1.58057e-05 -3.6606e-05 -0.000440516
0.00197428 0.000928026 7.90416e-07
0.000928026 0.000460912 -1.64796e-06
7.90416e-07 -1.64796e-06 0.000124556
0.0022211 0.000955758 9.25464e-06
0.000955758 0.00035959 -2.31609e-06
9.25464e-06 -2.31609e-06 0.000289306
0.00225172 0.00097249 1.62271e-05
0.00097249 0.000339982 -3.4133e-06
1.62271e-05 -3.4133e-06 -5.07512e-06
0.0019263 0.000826386 2.52684e-05
0.000826386 0.000242317 2.39604e-05
2.52684e-05 2.39604e-05 4.19537e-05
0.000786923 0.000879632 -7.15655e-06
0.000879632 -0.000289567 -6.30266e-06
-7.15655e-06 -6.30266e-06 -0.000577376
0.000375972 0.000804324 -2.09746e-05
0.000804324 -0.00055898 -2.52706e-05
-2.09746e-05 -2.52706e-05 -0.000621005
0.00147267 0.000870038 5.43227e-05
0.000870038 -0.00115615 3.71971e-05
5.43227e-05 3.71971e-05 -0.000699998
0.00611502 0.00203113 -9.66608e-05
0.00203113 -0.0014599 -2.9514e-05
-9.66608e-05 -2.9514e-05 0.000212148
0.0043561 0.00239039 0.000606985
0.00239039 -0.00493579 0.000142705
0.000606985 0.000142705 -0.00647311
0.00242291 0.00220213 -0.000196376
0.00220213 -0.000639089 -7.97877e-05
-0.000196376 -7.97877e-05 0.000227094
0.00479155 0.0019405 -3.08416e-05
0.0019405 0.000788338 -9.51299e-06
-3.08416e-05 -9.51299e-06 0.000642193
0.00540636 0.00186365 -0.000157923
0.00186365 0.00174999 -4.67699e-05
-0.000157923 -4.67699e-05 0.00133934
0.00289317 -0.000243329 -5.5883e-05
-0.000243329 -0.000591353 -1.79528e-05
-5.5883e-05 -1.79528e-05 -0.000165511
-0.000665904 -0.000333056 9.76169e-05
-0.000333056 -0.00153413 2.16392e-05
9.76169e-05 2.16392e-05 -0.000402406
0.00396919 0.000754287 0.000246258
0.000754287 -0.00530185 -1.92476e-05
0.000246258 -1.92476e-05 -0.00548894
0.000546949 -0.000872922 -5.48088e-05
-0.000872922 -0.00134034 7.73905e-05
-5.48088e-05 7.73905e-05 -0.00099284
0.00684595 -0.000933534 -0.000178449
-0.000933534 0.000215745 5.228e-05
-0.000178449 5.228e-05 0.000745764
0.00270733 -0.000727389 -2.28794e-05
-0.000727389 -0.000503644 1.18248e-05
-2.28794e-05 1.18248e-05 -1.84782e-05
0.00439247 -0.000521545 -1.05835e-05
-0.000521545 0.000451115 -2.81237e-06
-1.05835e-05 -2.81237e-06 0.000705563
0.00300365 -0.000404808 6.86633e-05
-0.000404808 5.27704e-06 -1.00071e-05
6.86633e-05 -1.00071e-05 0.000367168
0.00380443 -0.000115195 5.24906e-05
-0.000115195 0.00107712 1.40828e-06
5.24906e-05 1.40828e-06 0.00111379
0.000411161 -0.000556428 -2.16285e-05
-0.000556428 -0.00119014 1.32415e-05
-2.16285e-05 1.32415e-05 -0.000899757
0.00226799 -0.000558185 -2.80869e-06
-0.000558185 -0.000341094 1.24794e-06
-2.80869e-06 1.24794e-06 -6.93998e-05
0.00247905 -0.000463677 4.2732e-06
-0.000463677 -0.000199018 -1.38532e-06
4.2732e-06 -1.38532e-06 2.62686e-05
0.00234255 -0.000664216 -1.5587e-06
-0.000664216 -7.35649e-05 3.27659e-06
-1.5587e-06 3.27659e-06 -9.6582e-05
0.00244817 -0.000576915 7.72789e-09
-0.000576915 2.78673e-05 -4.77724e-07
7.72789e-09 -4.77724e-07 4.16359e-05
0.00234303 -0.00045273 -9.49483e-07
-0.00045273 -2.81758e-05 -1.12727e-07
-9.49483e-07 -1.12727e-07 -7.09867e-06
0.00224217 -0.00057844 -1.28625e-07
-0.00057844 5.17642e-05 6.31505e-07
-1.28625e-07 6.31505e-07 -1.3395e-05
0.00227354 -0.000526808 -8.47264e-07
-0.000526808 5.60188e-05 5.88384e-08
-8.47264e-07 5.88384e-08 -2.74468e-06
0.00216641 -0.000444455 -1.40698e-06
-0.000444455 6.41394e-05 9.88317e-07
-1.40698e-06 9.88317e-07 -1.0499e-05
0.0022086 -0.000563746 4.93004e-07
-0.000563746 0.00015626 -1.398e-06
4.93004e-07 -1.398e-06 2.95041e-05
0.00211523 -0.000508147 9.85733e-07
-0.000508147 0.000113555 -4.5402e-07
9.85733e-07 -4.5402e-07 -1.78096e-05
0.00210276 -0.000468446 -1.2807e-06
-0.000468446 0.000156364 2.43091e-07
-1.2807e-06 2.43091e-07 4.84704e-06
0.0020822 -0.000494398 -1.28994e-06
-0.000494398 0.000183136 1.05844e-06
-1.28994e-06 1.05844e-06 1.94738e-05
0.00216221 -0.000498102 -1.64569e-06
-0.000498102 0.000246121 6.61623e-07
-1.64569e-06 6.61623e-07 6.47017e-05
0.00219417 -0.000490201 -1.33435e-06
-0.000490201 0.000288793 -1.81335e-06
-1.33435e-06 -1.81335e-06 8.57569e-05
0.00210327 -0.000522468 2.96169e-06
-0.000522468 0.000226304 2.57846e-06
2.96169e-06 2.57846e-06 1.02645e-05
0.00211535 -0.000517864 3.04031e-07
-0.000517864 0.00027956 -3.76065e-07
3.04031e-07 -3.76065e-07 4.25161e-05
0.00189965 -0.000454106 -5.96738e-06
-0.000454106 0.000251532 2.98824e-07
-5.96738e-06 2.98824e-07 -6.52394e-06
0.00111621 -0.000318316 -2.03174e-05
-0.000318316 2.78341e-05 8.48729e-06
-2.03174e-05 8.48729e-06 -0.0002142
0.00178602 -0.000507215 -1.11312e-06
-0.000507215 0.000228874 -6.68694e-07
-1.11312e-06 -6.68694e-07 -7.28562e-05
0.00198069 -0.000576482 2.37765e-06
-0.000576482 0.000228137 1.39237e-06
2.37765e-06 1.39237e-06 -7.13995e-05
0.000347532 -0.000238535 -2.24423e-05
-0.000238535 -0.000180302 1.96225e-05
-2.24423e-05 1.96225e-05 -0.000332204
0.000947964 -0.00031341 1.93069e-06
-0.00031341 -1.1479e-05 7.8812e-08
1.93069e-06 7.8812e-08 -0.000260366
0.0017851 -0.000563436 9.87912e-06
-0.000563436 0.000338457 -4.22792e-07
9.87912e-06 -4.22792e-07 -9.56493e-06
0.00710327 3.46941e-05 -0.000277726
3.46941e-05 0.00416272 2.03106e-05
-0.000277726 2.03106e-05 0.00416923
0.000386827 -0.000250731 -1.31851e-06
-0.000250731 -0.00013452 1.06665e-06
-1.31851e-06 1.06665e-06 -0.000283337
0.000688314 -0.000284729 1.21493e-05
-0.000284729 -6.6862e-05 -7.66691e-06
1.21493e-05 -7.66691e-06 -0.000313357
0.00662488 6.44348e-05 -4.74738e-06
6.44348e-05 0.00388824 -1.86513e-07
-4.74738e-06 -1.86513e-07 0.00388796
0.000614866 -0.000248527 2.62878e-05
-0.000248527 1.97237e-05 -2.01346e-05
2.62878e-05 -2.01346e-05 -0.000110648
0.00607243 0.000128144 0.000216306
0.000128144 0.00358392 -2.62318e-05
0.000216306 -2.62318e-05 0.00356578
0.00161382 0.000624583 -2.56083e-06
0.000624583 0.000202276 6.10294e-06
-2.56083e-06 6.10294e-06 -0.000166763
0.0017444 0.000661686 -1.59817e-06
0.000661686 0.000453081 5.68131e-07
-1.59817e-06 5.68131e-07 3.66012e-05
0.00127099 0.000471444 -8.00593e-06
0.000471444 0.00020478 -2.73701e-07
-8.00593e-06 -2.73701e-07 -0.000124581
0.00128428 0.000531296 -6.1833e-06
0.000531296 0.000283687 -1.66047e-06
-6.1833e-06 -1.66047e-06 -8.94981e-05
0.00105511 0.000348934 -4.05459e-06
0.000348934 0.000185276 -1.97378e-06
-4.05459e-06 -1.97378e-06 -9.84497e-05
0.00110964 0.000252678 -9.29113e-06
0.000252678 0.000329371 -2.90263e-06
-9.29113e-06 -2.90263e-06 9.46089e-05
8.33225e-05 0.000154757 -3.41923e-06
0.000154757 -0.000302685 -1.02522e-06
-3.41923e-06 -1.02522e-06 -0.000520846
0.000840639 0.000175178 -6.8526e-07
0.000175178 0.000208122 -1.67834e-07
-6.8526e-07 -1.67834e-07 -1.33341e-05
0.000519799 0.000137451 -2.50938e-05
0.000137451 -2.17316e-05 -1.79298e-05
-2.50938e-05 -1.79298e-05 -0.000115641
0.000413784 0.000108908 9.00928e-07
0.000108908 -2.01568e-05 1.1268e-05
9.00928e-07 1.1268e-05 -0.000217567
0.000458574 8.43043e-05 -9.14067e-07
8.43043e-05 -2.78814e-05 -3.17484e-07
-9.14067e-07 -3.17484e-07 -0.000105989
0.00463895 -0.000153041 -0.000142087
-0.000153041 0.00267784 -1.37912e-05
-0.000142087 -1.37912e-05 0.00266374
0.000309468 6.26349e-05 9.98175e-06
6.26349e-05 -0.000104222 1.58827e-05
9.98175e-06 1.58827e-05 -0.000166871
0.00383409 -0.00014991 -1.11365e-05
-0.00014991 0.00215652 1.1827e-06
-1.11365e-05 1.1827e-06 0.00214604
0.00318104 -0.000135936 5.42445e-05
-0.000135936 0.00172585 5.85837e-06
5.42445e-05 5.85837e-06 0.00171987
0.000725402 0.000185757 -3.33426e-06
0.000185757 -0.00183258 8.96377e-06
-3.33426e-06 8.96377e-06 -0.00103594
0.00502567 8.31696e-05 6.7186e-05
8.31696e-05 -0.000909159 2.11132e-05
6.7186e-05 2.11132e-05 0.0006424
0.0148616 0.000841332 -7.04388e-06
0.000841332 0.00203469 2.22398e-05
-7.04388e-06 2.22398e-05 0.00198753
0.00197272 0.000796702 -1.21631e-06
0.000796702 0.000318547 5.29758e-06
-1.21631e-06 5.29758e-06 -4.27702e-05
0.0021883 0.000758344 -1.24348e-07
0.000758344 0.000289049 4.17198e-06
-1.24348e-07 4.17198e-06 -3.24881e-05
0.00156803 0.000689186 -5.80881e-07
0.000689186 0.00011853 -4.00133e-06
-5.80881e-07 -4.00133e-06 -0.000248207
0.00287313 0.000929584 -1.56435e-05
0.000929584 0.00125109 1.72873e-06
-1.56435e-05 1.72873e-06 0.000786276
0.00206337 0.000771358 -5.62325e-06
0.000771358 0.000661189 -9.80086e-06
-5.62325e-06 -9.80086e-06 0.000195319
0.002119 0.000886115 7.55933e-06
0.000886115 0.00054892 3.87452e-06
7.55933e-06 3.87452e-06 0.00015078
0.00211477 0.000888358 -2.1631e-06
0.000888358 0.000185862 -3.37927e-06
-2.1631e-06 -3.37927e-06 -0.000141908
0.00233715 0.000996643 -1.71843e-05
0.000996643 0.000615635 5.72578e-06
-1.71843e-05 5.72578e-06 0.000273224
0.000952443 0.000823618 -1.66378e-05
0.000823618 -0.000431793 1.85928e-05
-1.66378e-05 1.85928e-05 -0.000367446
0.00279589 0.00103655 6.31262e-07
0.00103655 0.000653053 3.57201e-06
6.31262e-07 3.57201e-06 0.000297188
0.00276775 0.000884913 -4.6024e-06
0.000884913 0.000420023 4.43621e-06
-4.6024e-06 4.43621e-06 0.000182543
0.00133356 0.000421133 4.18333e-05
0.000421133 -0.000286612 1.61973e-05
4.18333e-05 1.61973e-05 -0.00020979
0.000380555 0.00068063 9.08219e-06
0.00068063 -0.000568524 -4.84936e-06
9.08219e-06 -4.84936e-06 -0.000751847
0.0010412 0.000907067 -3.54477e-05
0.000907067 -0.000151094 -4.44047e-06
-3.54477e-05 -4.44047e-06 -0.000447855
0.00322308 0.00101989 1.10276e-05
0.00101989 -0.000188411 9.11612e-06
1.10276e-05 9.11612e-06 0.000118781
0.00755614 0.0016897 -3.57027e-05
0.0016897 -0.00073051 -4.30379e-05
-3.57027e-05 -4.30379e-05 0.000560449
0.00468534 0.00164081 -5.05108e-05
0.00164081 0.00117409 -6.26745e-05
-5.05108e-05 -6.26745e-05 0.0010945
0.00256258 -9.88346e-05 4.52976e-05
-9.88346e-05 0.000145196 4.8639e-06
4.52976e-05 4.8639e-06 0.000345807
0.00293559 -0.000242531 -6.81561e-05
-0.000242531 -0.000549671 4.3437e-06
-6.81561e-05 4.3437e-06 -5.39483e-05
0.00444844 0.000419935 2.37877e-05
0.000419935 -0.000159463 -2.1845e-05
2.37877e-05 -2.1845e-05 0.00065525
0.000835157 -0.000612667 -7.32211e-05
-0.000612667 -0.0015129 5.43034e-05
-7.32211e-05 5.43034e-05 -0.000990916
0.002705 -0.000562023 -0.000100384
-0.000562023 -0.00047084 5.94163e-07
-0.000100384 5.94163e-07 -0.000298901
0.00274133 -0.000397383 8.341e-06
-0.000397383 -7.58212e-05 -2.75424e-06
8.341e-06 -2.75424e-06 0.000304262
0.00258007 -0.000105941 -1.76218e-05
-0.000105941 0.000266905 7.50909e-07
-1.76218e-05 7.50909e-07 0.000332058
0.00255041 -0.000257576 1.5165e-05
-0.000257576 -2.56687e-05 -1.1916e-06
1.5165e-05 -1.1916e-06 0.000140762
0.00236688 1.66119e-05 1.09317e-05
1.66119e-05 -0.000116559 2.55364e-06
1.09317e-05 2.55364e-06 -2.94148e-05
0.00229081 -0.000588467 -1.90881e-05
-0.000588467 -0.000346361 5.57674e-06
-1.90881e-05 5.57674e-06 -9.67641e-05
0.00250278 -0.000481849 -2.66907e-06
-0.000481849 -0.00018426 7.84653e-07
-2.66907e-06 7.84653e-07 2.79191e-06
0.00241545 -0.000334144 -2.78656e-07
-0.000334144 -0.000104625 -7.96708e-07
-2.78656e-07 -7.96708e-07 3.49064e-06
0.00242411 -0.000562602 -3.56932e-06
-0.000562602 3.19043e-05 6.6022e-07
-3.56932e-06 6.6022e-07 5.18709e-05
0.00235211 -0.000450525 2.29515e-08
-0.000450525 -9.7627e-06 -1.98443e-07
2.29515e-08 -1.98443e-07 6.60877e-06
0.00225319 -0.000372443 -5.75657e-07
-0.000372443 1.12302e-05 4.78173e-07
-5.75657e-07 4.78173e-07 4.13778e-06
0.00226816 -0.000531774 -3.96801e-07
-0.000531774 6.36273e-05 -8.45089e-07
-3.96801e-07 -8.45089e-07 4.69237e-06
0.00217461 -0.00044414 4.62827e-07
-0.00044414 6.4745e-05 -1.2449e-07
4.62827e-07 -1.2449e-07 -9.75609e-06
0.00212474 -0.000404249 -2.4637e-06
-0.000404249 0.000101514 1.04259e-06
-2.4637e-06 1.04259e-06 1.19923e-06
0.00210314 -0.000508543 2.35434e-06
-0.000508543 0.000102755 -1.48695e-06
2.35434e-06 -1.48695e-06 -2.90616e-05
0.00206844 -0.00046582 6.95645e-07
-0.00046582 0.000130524 -4.62333e-07
6.95645e-07 -4.62333e-07 -2.10093e-05
0.00206241 -0.000437761 -1.48949e-06
-0.000437761 0.0001635 -1.03731e-06
-1.48949e-06 -1.03731e-06 -7.68381e-06
0.00209566 -0.000491942 -3.76648e-07
-0.000491942 0.000196406 1.73906e-06
-3.76648e-07 1.73906e-06 1.87755e-05
0.00215834 -0.000488844 -3.85213e-07
-0.000488844 0.000267307 -1.74571e-07
-3.85213e-07 -1.74571e-07 6.48674e-05
0.00189226 -0.000419726 -4.53745e-06
-0.000419726 0.000198244 1.567e-07
-4.53745e-06 1.567e-07 -3.25762e-05
0.00212006 -0.000520192 2.18541e-06
-0.000520192 0.00028267 2.29649e-06
2.18541e-06 2.29649e-06 4.62656e-05
0.00194136 -0.000459208 -8.39518e-07
-0.000459208 0.000277518 -2.84823e-09
-8.39518e-07 -2.84823e-09 2.03877e-05
0.00113303 -0.000283529 -1.82287e-05
-0.000283529 -1.27992e-06 8.03329e-06
-1.82287e-05 8.03329e-06 -0.000222871
0.000249109 -0.000203327 -1.92081e-05
-0.000203327 -0.000261804 1.83328e-05
-1.92081e-05 1.83328e-05 -0.000403545
0.00109987 -0.000317526 4.64492e-07
-0.000317526 1.78871e-05 -5.58983e-08
4.64492e-07 -5.58983e-08 -0.000223957
0.00180777 -0.000507734 6.49624e-06
-0.000507734 0.000249584 -8.6215e-07
6.49624e-06 -8.6215e-07 -5.50994e-05
0.00748821 -5.25623e-05 -0.000320529
-5.25623e-05 0.00437878 2.51287e-05
-0.000320529 2.51287e-05 0.00439397
0.000341745 -0.000235757 -1.17253e-06
-0.000235757 -0.000193556 1.50041e-06
-1.17253e-06 1.50041e-06 -0.000340182
0.000852375 -0.000308757 1.65562e-05
-0.000308757 -7.62222e-05 -7.30846e-06
1.65562e-05 -7.30846e-06 -0.000326262
0.00732637 1.06505e-06 -1.15184e-06
1.06505e-06 0.00429962 8.48586e-07
-1.15184e-06 8.48586e-07 0.00430783
0.000503068 -0.00025582 2.452e-05
-0.00025582 -6.81646e-05 -2.09795e-05
2.452e-05 -2.09795e-05 -0.000217509
0.00695578 2.42221e-05 0.000286236
2.42221e-05 0.00408693 -2.67413e-05
0.000286236 -2.67413e-05 0.00409151
0.00191897 0.000679675 -6.68596e-07
0.000679675 0.000243721 6.53975e-06
-6.68596e-07 6.53975e-06 -9.35449e-05
0.00169311 0.00063829 -3.73667e-08
0.00063829 0.000256382 7.61561e-07
-3.73667e-08 7.61561e-07 -0.000113526
0.00163129 0.000535738 -8.62317e-06
0.000535738 0.000309204 1.09542e-06
-8.62317e-06 1.09542e-06 -2.79674e-05
0.00153366 0.000641577 6.67651e-07
0.000641577 0.000315995 -3.13912e-06
6.67651e-07 -3.13912e-06 -9.77121e-05
0.00132704 0.000471773 -9.29625e-07
0.000471773 0.000246066 9.99274e-08
-9.29625e-07 9.99274e-08 -8.23103e-05
0.00103094 0.000264373 -1.27313e-05
0.000264373 0.000185829 -4.34992e-06
-1.27313e-05 -4.34992e-06 -4.19708e-05
0.00134071 0.000351987 1.49603e-06
0.000351987 0.000360356 -1.03718e-06
1.49603e-06 -1.03718e-06 8.22519e-05
0.000512991 0.000204466 9.05899e-07
0.000204466 -4.73366e-05 9.7266e-07
9.05899e-07 9.7266e-07 -0.000273886
0.000439845 0.000205912 -2.89107e-05
0.000205912 -8.73257e-05 -1.96828e-05
-2.89107e-05 -1.96828e-05 -0.000199436
0.00028619 0.000123559 1.4562e-06
0.000123559 -0.000129117 6.82297e-06
1.4562e-06 6.82297e-06 -0.000355567
0.000550758 0.000120196 -5.13214e-07
0.000120196 3.12966e-06 -6.39889e-07
-5.13214e-07 -6.39889e-07 -8.98166e-05
0.00565082 -0.000171267 -0.000185242
-0.000171267 0.00333395 -1.96306e-05
-0.000185242 -1.96306e-05 0.00330997
0.000412171 7.95724e-05 1.48161e-05
7.95724e-05 -5.12419e-05 1.82693e-05
1.48161e-05 1.82693e-05 -0.000127829
0.00451121 -0.000179038 -1.12191e-05
-0.000179038 0.00260405 1.35331e-06
-1.12191e-05 1.35331e-06 0.00258351
0.00367739 -0.000164054 7.56531e-05
-0.000164054 0.00205976 7.35637e-06
7.56531e-05 7.35637e-06 0.00204494
0.00154897 0.000198208 3.36237e-05
0.000198208 -0.000337985 1.77764e-05
3.36237e-05 1.77764e-05 -8.28046e-05
0.00256769 0.000245522 -2.41106e-05
0.000245522 -0.00116819 -2.15544e-06
-2.41106e-05 -2.15544e-06 -0.000303219
0.00437503 0.000365022 0.000233063
0.000365022 -0.00171983 6.87744e-05
0.000233063 6.87744e-05 0.000284137
0.00254862 0.000809385 -8.40151e-06
0.000809385 0.000453275 2.20669e-07
-8.40151e-06 2.20669e-07 0.00014583
0.0018817 0.000810688 -7.03339e-06
0.000810688 0.000243492 -5.24889e-06
-7.03339e-06 -5.24889e-06 -0.000115019
0.00225418 0.000614581 1.85251e-06
0.000614581 0.00020356 4.81938e-06
1.85251e-06 4.81938e-06 -3.01244e-05
0.00221527 0.000750445 1.48267e-06
0.000750445 0.000309221 5.05152e-07
1.48267e-06 5.05152e-07 -9.95872e-06
0.00155553 0.000690306 4.57735e-06
0.000690306 0.00012027 -1.15654e-05
4.57735e-06 -1.15654e-05 -0.00024248
0.00231594 0.000690242 -2.65752e-06
0.000690242 0.000113167 9.43649e-07
-2.65752e-06 9.43649e-07 -8.89472e-05
0.00274446 0.000983169 -7.67809e-06
0.000983169 0.000875789 -3.98707e-06
-7.67809e-06 -3.98707e-06 0.000463539
0.00249716 0.000906201 1.07581e-06
0.000906201 0.000419902 2.04159e-07
1.07581e-06 2.04159e-07 8.42832e-05
0.0021211 0.000447146 -1.42837e-05
0.000447146 -0.000177063 -1.15335e-06
-1.42837e-05 -1.15335e-06 -0.000156773
0.00343886 0.00112222 -6.31815e-06
0.00112222 0.00100523 7.59041e-06
-6.31815e-06 7.59041e-06 0.000641925
0.00256752 0.000867169 1.54628e-07
0.000867169 0.000308282 -6.87436e-07
1.54628e-07 -6.87436e-07 6.88486e-05
0.000678726 0.000414464 -2.51794e-06
0.000414464 -0.000663825 1.60832e-06
-2.51794e-06 1.60832e-06 -0.000565511
-0.00134848 0.000513914 -2.48549e-05
0.000513914 -0.00146274 -1.10294e-05
-2.48549e-05 -1.10294e-05 -0.00161438
0.00381288 0.00112859 -0.000132925
0.00112859 0.000113862 -4.41635e-05
-0.000132925 -4.41635e-05 0.000301774
0.00227764 0.000120406 -1.49784e-06
0.000120406 -0.000178619 -9.12762e-07
-1.49784e-06 -9.12762e-07 -6.33063e-05
0.00279507 -8.27761e-05 1.32115e-06
-8.27761e-05 0.000393714 -5.49435e-07
1.32115e-06 -5.49435e-07 0.000524825
0.00266427 -0.000268934 -0.0001015
-0.000268934 -0.000691924 1.44389e-06
-0.0001015 1.44389e-06 -0.000145148
0.00200622 -0.00037593 -7.52155e-05
-0.00037593 -0.00044292 8.1066e-06
-7.52155e-05 8.1066e-06 -4.53756e-05
0.00142444 -0.000113065 -1.6311e-05
-0.000113065 -0.000496326 9.80029e-07
-1.6311e-05 9.80029e-07 -0.000405998
0.00252019 -0.000262456 1.91295e-06
-0.000262456 -6.72901e-05 -1.87832e-06
1.91295e-06 -1.87832e-06 0.000125278
0.00245377 2.19021e-05 -2.8805e-06
2.19021e-05 -8.81985e-05 8.09737e-08
-2.8805e-06 8.09737e-08 -8.4794e-07
0.00244303 -7.77581e-05 5.88788e-08
-7.77581e-05 -0.000107475 -9.96681e-07
5.88788e-08 -9.96681e-07 1.60925e-05
0.00251941 -0.00049674 -5.01558e-06
-0.00049674 -0.000166549 7.95849e-07
-5.01558e-06 7.95849e-07 -1.84402e-05
0.0023632 -0.000321862 3.66708e-07
-0.000321862 -0.000118724 -2.21494e-07
3.66708e-07 -2.21494e-07 -1.91022e-05
0.00229545 -0.000246657 4.149e-07
-0.000246657 -3.05844e-05 -2.2612e-07
4.149e-07 -2.2612e-07 3.01865e-05
0.00236134 -0.000448543 -1.06225e-07
-0.000448543 9.48495e-06 8.84487e-08
-1.06225e-07 8.84487e-08 2.09228e-05
0.00224274 -0.000368879 1.02504e-07
-0.000368879 8.37424e-06 2.14695e-07
1.02504e-07 2.14695e-07 6.54427e-08
0.00213788 -0.00031213 -2.75482e-06
-0.00031213 4.83084e-05 9.82984e-07
-2.75482e-06 9.82984e-07 7.70748e-06
0.0021823 -0.000443746 2.05333e-06
-0.000443746 6.48376e-05 -1.12866e-06
2.05333e-06 -1.12866e-06 -9.51748e-06
0.00211747 -0.000403597 6.2383e-07
-0.000403597 9.36702e-05 -1.99634e-07
6.2383e-07 -1.99634e-07 -6.84298e-06
0.00211648 -0.000376558 -2.19499e-06
-0.000376558 0.000154917 -3.40297e-08
-2.19499e-06 -3.40297e-08 2.10445e-05
0.0020335 -0.000463239 2.19641e-06
-0.000463239 0.000104276 -9.68601e-07
2.19641e-06 -9.68601e-07 -4.72796e-05
0.00209141 -0.000439736 -2.52153e-07
-0.000439736 0.000182004 -2.06701e-07
-2.52153e-07 -2.06701e-07 1.02089e-05
0.00194276 -0.000380348 -2.6781e-06
-0.000380348 0.000180805 -3.14855e-07
-2.6781e-06 -3.14855e-07 -2.08255e-05
0.00212362 -0.000487397 9.80488e-07
-0.000487397 0.000246357 1.45151e-06
9.80488e-07 1.45151e-06 4.45944e-05
0.00191626 -0.000421326 -6.28419e-07
-0.000421326 0.000214644 1.84474e-07
-6.28419e-07 1.84474e-07 -1.60029e-05
0.00114472 -0.000249632 -1.46945e-05
-0.000249632 -1.57416e-05 6.76174e-06
-1.46945e-05 6.76174e-06 -0.000220621
0.00197937 -0.000463942 5.15549e-06
-0.000463942 0.000301251 -6.71809e-08
5.15549e-06 -6.71809e-08 4.5129e-05
0.00116057 -0.000284371 1.22279e-07
-0.000284371 1.2443e-05 1.22018e-07
1.22279e-07 1.22018e-07 -0.000208376
0.00280295 -0.000198023 -5.20579e-05
-0.000198023 0.00132817 1.33322e-05
-5.20579e-05 1.33322e-05 0.00121752
0.00242361 -0.000114747 -0.000276967
-0.000114747 0.00117974 3.88178e-05
-0.000276967 3.88178e-05 0.00116151
0.00159526 -0.000217138 -1.49875e-05
-0.000217138 0.000581424 -1.51164e-08
-1.49875e-05 -1.51164e-08 0.000450066
0.00109482 -0.000316367 1.93489e-05
-0.000316367 1.81373e-05 -7.86291e-06
1.93489e-05 -7.86291e-06 -0.000223233
0.00748487 -6.96508e-05 -7.95241e-06
-6.96508e-05 0.00438527 1.62381e-06
-7.95241e-06 1.62381e-06 0.00439693
0.000282316 -0.000262539 2.55603e-05
-0.000262539 -0.000228913 -1.96249e-05
2.55603e-05 -1.96249e-05 -0.000378371
0.00747549 -1.98472e-05 0.000312038
-1.98472e-05 0.00439816 -3.10137e-05
0.000312038 -3.10137e-05 0.00440302
0.00213342 0.000468898 -1.73287e-07
0.000468898 0.000125937 7.90746e-07
-1.73287e-07 7.90746e-07 -4.5431e-05
0.00218357 0.000619314 3.22586e-06
0.000619314 0.000302077 6.00548e-06
3.22586e-06 6.00548e-06 3.21288e-05
0.00217657 0.000699727 5.05655e-07
0.000699727 0.000399468 1.75516e-07
5.05655e-07 1.75516e-07 6.26988e-05
0.00185179 0.000565826 -8.36087e-06
0.000565826 0.000331152 1.95813e-06
-8.36087e-06 1.95813e-06 6.21405e-06
0.00179881 0.000656439 6.06454e-06
0.000656439 0.000323339 -4.07294e-06
6.06454e-06 -4.07294e-06 -4.88114e-05
0.0015966 0.000537507 -2.88347e-07
0.000537507 0.000277796 7.40103e-07
-2.88347e-07 7.40103e-07 -6.19764e-05
0.0007487 0.000286575 -1.70844e-05
0.000286575 -9.37338e-05 -5.47625e-06
-1.70844e-05 -5.47625e-06 -0.000327565
0.00132341 0.00046871 8.26882e-06
0.00046871 0.000244987 1.49361e-06
8.26882e-06 1.49361e-06 -8.21657e-05
0.000660761 0.000243299 8.49215e-07
0.000243299 -4.22486e-05 1.0302e-07
8.49215e-07 1.0302e-07 -0.000264581
0.000524562 0.000270755 -2.89627e-05
0.000270755 -4.61844e-05 -2.06736e-05
-2.89627e-05 -2.06736e-05 -0.000183571
0.000403784 0.000191574 5.97318e-06
0.000191574 -0.000126597 2.25198e-06
5.97318e-06 2.25198e-06 -0.00034593
0.00045775 0.000185761 2.36645e-06
0.000185761 -8.05798e-05 -1.15199e-06
2.36645e-06 -1.15199e-06 -0.000188606
0.00662389 -0.000117206 -0.000242681
-0.000117206 0.00392152 -2.50036e-05
-0.000242681 -2.50036e-05 0.00390514
0.000367174 0.00011184 2.11479e-05
0.00011184 -0.000109668 1.83491e-05
2.11479e-05 1.83491e-05 -0.000196709
0.00521833 -0.000180633 -3.4033e-06
-0.000180633 0.00305064 -7.29512e-07
-3.4033e-06 -7.29512e-07 0.00302838
0.00427948 -0.000195844 9.94435e-05
-0.000195844 0.00246205 1.01103e-05
9.94435e-05 1.01103e-05 0.00243674
0.00232732 0.000228161 -7.1039e-06
0.000228161 -0.000196272 -1.5901e-06
-7.1039e-06 -1.5901e-06 -4.30452e-05
0.00206193 0.000150537 1.8249e-05
0.000150537 -0.000196821 -3.02797e-06
1.8249e-05 -3.02797e-06 0.000120137
0.00531337 0.000358275 -0.000120344
0.000358275 3.18132e-05 -1.9214e-06
-0.000120344 -1.9214e-06 0.000950432
0.00226642 0.000563931 -2.94629e-06
0.000563931 0.000144516 1.40238e-06
-2.94629e-06 1.40238e-06 -3.38189e-05
0.00227861 0.000768888 -4.21465e-06
0.000768888 0.000335497 -4.22934e-07
-4.21465e-06 -4.22934e-07 3.48422e-05
0.00181101 0.000825786 -2.28633e-06
0.000825786 0.00018231 -1.05963e-05
-2.28633e-06 -1.05963e-05 -0.000173002
0.00233188 0.00060592 2.63471e-06
0.00060592 0.000269916 1.40979e-06
2.63471e-06 1.40979e-06 3.92315e-05
0.00224212 0.000742555 5.55511e-07
0.000742555 0.000329713 -5.37273e-06
5.55511e-07 -5.37273e-06 1.27858e-05
0.002492 0.000450777 -1.45118e-07
0.000450777 1.00313e-05 4.7451e-07
-1.45118e-07 4.7451e-07 1.95389e-05
0.00230339 0.000695392 -8.34765e-07
0.000695392 0.000120821 1.61375e-07
-8.34765e-07 1.61375e-07 -8.0678e-05
0.00278568 0.000913905 -6.79766e-06
0.000913905 0.000603758 -2.44698e-06
-6.79766e-06 -2.44698e-06 0.000261013
0.0020705 0.000432427 6.59725e-08
0.000432427 -0.00017954 -2.43497e-07
6.59725e-08 -2.43497e-07 -0.000156555
0.0022589 0.000834513 1.40242e-05
0.000834513 0.000124812 2.418e-06
1.40242e-05 2.418e-06 -0.000112523
-8.86389e-05 0.000370118 -4.12523e-05
0.000370118 -0.0011135 -1.85508e-05
-4.12523e-05 -1.85508e-05 -0.000988376
0.002432 9.48779e-05 3.78994e-07
9.48779e-05 -4.84902e-05 1.45354e-07
3.78994e-07 1.45354e-07 4.37998e-05
0.00225425 0.000126707 -1.03222e-06
0.000126707 -0.000191886 5.9758e-07
-1.03222e-06 5.9758e-07 -8.05327e-05
0.00292118 -6.72456e-05 -5.12126e-05
-6.72456e-05 0.000559561 -3.01639e-08
-5.12126e-05 -3.01639e-08 0.000634905
0.00246048 -0.000261515 -2.44426e-05
-0.000261515 -0.000132765 3.25674e-06
-2.44426e-05 3.25674e-06 8.55921e-05
0.00255572 3.23133e-05 -6.84006e-06
3.23133e-05 -5.55548e-05 -2.96485e-06
-6.84006e-06 -2.96485e-06 3.12749e-05
0.00240735 -8.69975e-05 -2.40751e-07
-8.69975e-05 -0.000144509 -7.74843e-08
-2.40751e-07 -7.74843e-08 -1.56137e-05
0.00216277 -7.42653e-05 3.30631e-07
-7.42653e-05 -4.53913e-05 3.2589e-08
3.30631e-07 3.2589e-08 2.20759e-06
0.00231019 -0.000308812 3.53882e-07
-0.000308812 -0.000131597 -5.42202e-08
3.53882e-07 -5.42202e-08 -4.10207e-05
0.00224421 -0.000252395 -1.38012e-07
-0.000252395 -5.59696e-05 3.59362e-08
-1.38012e-07 3.59362e-08 -2.58115e-06
0.00210545 -0.000209872 -1.56659e-06
-0.000209872 9.27475e-06 1.1842e-07
-1.56659e-06 1.1842e-07 -1.61877e-06
0.00223076 -0.000365276 6.72955e-07
-0.000365276 4.46565e-06 3.26069e-08
6.72955e-07 3.26069e-08 -5.05188e-06
0.00213733 -0.000313224 1.93522e-07
-0.000313224 4.25692e-05 5.84054e-08
1.93522e-07 5.84054e-08 1.73289e-06
0.00214659 -0.000303166 -3.2571e-06
-0.000303166 0.000122264 7.099e-07
-3.2571e-06 7.099e-07 2.84313e-05
0.00211377 -0.000402986 3.18729e-06
-0.000402986 8.81701e-05 -1.28416e-06
3.18729e-06 -1.28416e-06 -1.252e-05
0.00207547 -0.000374146 -1.57637e-07
-0.000374146 0.00012648 -2.46599e-07
-1.57637e-07 -2.46599e-07 -7.48138e-06
0.00193031 -0.000324697 -1.80446e-06
-0.000324697 0.000132015 -3.7736e-07
-1.80446e-06 -3.7736e-07 -3.92476e-05
0.00212105 -0.000441829 2.02703e-06
-0.000441829 0.000200841 3.12508e-07
2.02703e-06 3.12508e-07 2.84008e-05
0.00195841 -0.000381511 -5.65766e-07
-0.000381511 0.000191989 5.83649e-09
-5.65766e-07 5.83649e-09 -9.53772e-06
0.00114217 -0.000220377 -1.17271e-05
-0.000220377 -3.81852e-05 5.18289e-06
-1.17271e-05 5.18289e-06 -0.000229833
0.001939 -0.000422759 3.63965e-06
-0.000422759 0.000230411 6.67161e-10
3.63965e-06 6.67161e-10 -2.89109e-08
0.00118117 -0.00025147 -4.08509e-08
-0.00025147 -4.18901e-07 2.07039e-07
-4.08509e-08 2.07039e-07 -0.000204528
0.00278862 -0.000188396 -5.96808e-05
-0.000188396 0.00131163 1.29454e-05
-5.96808e-05 1.29454e-05 0.00121038
0.00118519 -0.000285433 1.77015e-05
-0.000285433 2.40317e-05 -7.62672e-06
1.77015e-05 -7.62672e-06 -0.000196124
0.00294748 -0.000235548 5.12986e-05
-0.000235548 0.00142038 -8.2363e-06
5.12986e-05 -8.2363e-06 0.00131812
0.00236694 -0.000146354 -0.000269597
-0.000146354 0.00115109 4.32739e-05
-0.000269597 4.32739e-05 0.00113002
0.00472096 -0.000132059 -0.000264228
-0.000132059 0.00264856 2.87276e-05
-0.000264228 2.87276e-05 0.00264356
0.00303055 -0.00029316 0.00016826
-0.00029316 0.00149076 -2.81908e-05
0.00016826 -2.81908e-05 0.00138649
0.00747194 -8.14947e-05 0.000318892
-8.14947e-05 0.00438588 -3.50437e-05
0.000318892 -3.50437e-05 0.00439316
0.00230247 0.000463134 -2.39061e-06
0.000463134 0.000209018 -5.29462e-07
-2.39061e-06 -5.29462e-07 7.1224e-05
0.00198377 0.000479653 5.85838e-07
0.000479653 0.000137302 1.64215e-06
5.85838e-07 1.64215e-06 -6.71466e-05
0.00216678 0.000461286 1.99916e-07
0.000461286 0.000155603 -1.48944e-06
1.99916e-07 -1.48944e-06 -9.07543e-06
0.0019469 0.00052092 -5.86318e-06
0.00052092 0.000269843 2.22269e-06
-5.86318e-06 2.22269e-06 -1.09841e-05
0.00226351 0.000628663 7.89649e-07
0.000628663 0.000336705 4.20708e-07
7.89649e-07 4.20708e-07 6.52633e-05
0.00244426 0.000722304 4.45388e-07
0.000722304 0.000561612 -5.688e-06
4.45388e-07 -5.688e-06 0.000224604
0.00178327 0.000562672 4.41762e-07
0.000562672 0.000280143 5.79284e-07
4.41762e-07 5.79284e-07 -4.59184e-05
0.00102734 0.000332775 -2.48853e-05
0.000332775 -4.31855e-06 -6.82133e-06
-2.48853e-05 -6.82133e-06 -0.000248657
0.00156094 0.000538347 1.04008e-05
0.000538347 0.000247391 9.8308e-07
1.04008e-05 9.8308e-07 -9.4643e-05
0.00089498 0.000293573 -1.5903e-06
0.000293573 5.01853e-06 -3.35053e-07
-1.5903e-06 -3.35053e-07 -0.000227334
0.000328274 0.000270107 -2.65855e-05
0.000270107 -0.000184861 -1.99452e-05
-2.65855e-05 -1.99452e-05 -0.000334303
0.000398478 0.000223744 1.03406e-05
0.000223744 -0.000200518 3.09817e-06
1.03406e-05 3.09817e-06 -0.000417592
0.000323198 0.000227712 3.27536e-06
0.000227712 -0.000173656 4.80207e-07
3.27536e-06 4.80207e-07 -0.000305125
0.00738326 -2.44193e-05 -0.000292993
-2.44193e-05 0.00436533 -3.1406e-05
-0.000292993 -3.1406e-05 0.00435919
0.000318691 0.000143533 2.39607e-05
0.000143533 -0.000164934 1.86072e-05
2.39607e-05 1.86072e-05 -0.000269459
0.00624728 -0.000150469 7.1564e-06
-0.000150469 0.0036859 -2.73542e-06
7.1564e-06 -2.73542e-06 0.00366753
0.00500748 -0.00022604 0.000125669
-0.00022604 0.0029375 1.27535e-05
0.000125669 1.27535e-05 0.00290203
0.00243504 0.000267763 3.90546e-07
0.000267763 -5.50929e-05 7.20129e-07
3.90546e-07 7.20129e-07 3.09719e-05
0.00222613 0.000232619 1.91314e-06
0.000232619 -0.00022641 -3.04612e-07
1.91314e-06 -3.04612e-07 -7.34094e-05
0.00224505 0.000106839 -7.16244e-05
0.000106839 -0.00023626 -8.82675e-06
-7.16244e-05 -8.82675e-06 0.000145733
0.00225531 0.000402349 9.56226e-07
0.000402349 1.56258e-05 3.44688e-07
9.56226e-07 3.44688e-07 -2.60729e-05
0.00222147 0.000557983 -7.52619e-07
0.000557983 0.000139002 3.35075e-07
-7.52619e-07 3.35075e-07 -3.72555e-05
0.00199823 0.000727089 6.97724e-06
0.000727089 0.000209655 -2.72307e-06
6.97724e-06 -2.72307e-06 -8.3938e-05
0.00240683 0.000596865 -9.89463e-07
0.000596865 0.000334647 -3.00891e-06
-9.89463e-07 -3.00891e-06 0.000107174
0.002433 0.000433007 -1.03795e-06
0.000433007 -8.64501e-06 -1.48854e-07
-1.03795e-06 -1.48854e-07 2.39101e-06
0.00228254 0.000700099 -2.82843e-06
0.000700099 0.000123643 -3.11247e-07
-2.82843e-06 -3.11247e-07 -7.71808e-05
0.00201682 0.000422128 1.33727e-05
0.000422128 -0.000150587 5.73107e-07
1.33727e-05 5.73107e-07 -0.000127672
0.00221852 7.27007e-05 1.95038e-06
7.27007e-05 -2.8891e-05 3.14899e-07
1.95038e-06 3.14899e-07 1.30679e-05
0.00235846 8.93836e-05 1.59543e-07
8.93836e-05 -8.00883e-05 7.74454e-09
1.59543e-07 7.74454e-09 1.02308e-05
0.00219451 0.000138349 -7.21192e-06
0.000138349 -0.000224472 -1.53715e-06
-7.21192e-06 -1.53715e-06 -0.00011854
0.00207283 -1.3785e-05 -2.47076e-06
-1.3785e-05 -1.16021e-05 2.782e-07
-2.47076e-06 2.782e-07 4.28526e-06
0.00237151 -0.000102847 2.84389e-07
-0.000102847 -0.000180914 9.60152e-08
2.84389e-07 9.60152e-08 -4.49216e-05
0.00217522 -7.76345e-05 -6.15462e-07
-7.76345e-05 -4.15488e-05 2.43659e-07
-6.15462e-07 2.43659e-07 6.02198e-06
0.00203324 -0.000113754 -2.97652e-06
-0.000113754 -2.42072e-05 3.3212e-07
-2.97652e-06 3.3212e-07 -2.65662e-05
0.00219383 -0.000257914 1.33509e-07
-0.000257914 -8.06501e-05 1.81261e-07
1.33509e-07 1.81261e-07 -3.48459e-05
0.00209987 -0.000207331 9.95132e-07
-0.000207331 5.18381e-06 -3.01569e-07
9.95132e-07 -3.01569e-07 -4.79757e-06
0.00214942 -0.000212596 -2.35357e-06
-0.000212596 9.46309e-05 4.61974e-07
-2.35357e-06 4.61974e-07 3.43579e-05
0.00213814 -0.000314035 2.93183e-06
-0.000314035 3.7669e-05 -9.43757e-07
2.93183e-06 -9.43757e-07 -3.36885e-06
0.00209687 -0.000297448 1.28637e-07
-0.000297448 9.3381e-05 -3.01184e-07
1.28637e-07 -3.01184e-07 8.3614e-09
0.00192777 -0.000254176 -1.59267e-06
-0.000254176 0.000104782 -5.0007e-07
-1.59267e-06 -5.0007e-07 -3.62726e-05
0.00203333 -0.000371412 2.72524e-06
-0.000371412 9.81563e-05 -6.50913e-07
2.72524e-06 -6.50913e-07 -3.58118e-05
0.00198138 -0.000326689 -3.41898e-07
-0.000326689 0.000165509 1.12725e-08
-3.41898e-07 1.12725e-08 -5.58706e-06
0.00116399 -0.00019044 -1.03937e-05
-0.00019044 -4.06764e-05 3.59588e-06
-1.03937e-05 3.59588e-06 -0.000219217
0.00197609 -0.000382525 1.82811e-06
-0.000382525 0.000204944 7.61384e-08
1.82811e-06 7.61384e-08 3.59874e-06
0.00119152 -0.000221575 -2.21453e-07
-0.000221575 -1.43631e-05 2.3921e-07
-2.21453e-07 2.3921e-07 -0.000204893
0.00275499 -0.000178252 -6.68683e-05
-0.000178252 0.00129225 1.23893e-05
-6.68683e-05 1.23893e-05 0.0011956
0.00121039 -0.000253085 1.40555e-05
-0.000253085 9.7814e-06 -6.3825e-06
1.40555e-05 -6.3825e-06 -0.000193524
0.00288356 -0.000209611 4.68428e-05
-0.000209611 0.00137183 -6.50598e-06
4.68428e-05 -6.50598e-06 0.00127882
0.00236077 -0.000124093 -0.000262636
-0.000124093 0.00113842 3.7902e-05
-0.000262636 3.7902e-05 0.00111999
0.0030667 -0.000242309 0.000161855
-0.000242309 0.00149018 -2.92115e-05
0.000161855 -2.92115e-05 0.00139901
0.00197153 -8.29736e-05 -0.000108475
-8.29736e-05 0.000903468 1.62581e-05
-0.000108475 1.62581e-05 0.000868485
0.00683874 -1.70466e-05 0.000100736
-1.70466e-05 0.00396984 -5.50676e-06
0.000100736 -5.50676e-06 0.00395061
0.00226898 0.000400528 -1.31691e-06
0.000400528 0.000148585 -5.92585e-07
-1.31691e-06 -5.92585e-07 5.61596e-05
0.00214448 0.00043651 -2.92276e-06
0.00043651 0.000174024 -8.02727e-07
-2.92276e-06 -8.02727e-07 1.00352e-05
0.0022949 0.000464762 -3.47352e-06
0.000464762 0.000195546 -1.07188e-07
-3.47352e-06 -1.07188e-07 5.65288e-05
0.00193825 0.000443141 -2.87168e-06
0.000443141 0.000197491 4.80087e-07
-2.87168e-06 4.80087e-07 -3.87404e-05
0.00197694 0.000487017 -1.10885e-06
0.000487017 0.00011291 -2.3369e-06
-1.10885e-06 -2.3369e-06 -8.82965e-05
0.00219877 0.000453628 -3.35789e-06
0.000453628 0.000184151 -3.94445e-06
-3.35789e-06 -3.94445e-06 2.61787e-05
0.00121739 0.000323605 -2.42035e-05
0.000323605 3.38332e-05 -7.03592e-06
-2.42035e-05 -7.03592e-06 -0.000196344
0.00187912 0.000516004 1.28849e-06
0.000516004 0.00022835 4.39485e-07
1.28849e-06 4.39485e-07 -5.24266e-05
0.00233785 0.000637026 1.29104e-06
0.000637026 0.000367548 -4.81657e-06
1.29104e-06 -4.81657e-06 9.48351e-05
0.00173327 0.000561366 9.90676e-06
0.000561366 0.00024048 -7.85914e-07
9.90676e-06 -7.85914e-07 -8.70903e-05
0.001017 0.00032824 -2.03353e-06
0.00032824 -9.62347e-06 -5.15642e-08
-2.03353e-06 -5.15642e-08 -0.000251972
0.000278939 0.000248683 -2.57199e-05
0.000248683 -0.000231061 -1.84709e-05
-2.57199e-05 -1.84709e-05 -0.00037779
0.000857767 0.000287884 1.77606e-05
0.000287884 -1.18238e-05 6.49333e-06
1.77606e-05 6.49333e-06 -0.000241388
0.000338814 0.000257553 1.16291e-06
0.000257553 -0.00017264 1.33478e-06
1.16291e-06 1.33478e-06 -0.000322643
0.00759262 6.44258e-05 -0.000309386
6.44258e-05 0.00448006 -3.79661e-05
-0.000309386 -3.79661e-05 0.00447514
0.000264342 0.000204627 2.41272e-05
0.000204627 -0.000214449 2.05976e-05
2.41272e-05 2.05976e-05 -0.000342206
0.00708884 -7.15906e-05 4.41454e-06
-7.15906e-05 0.00417731 -6.16719e-07
4.41454e-06 -6.16719e-07 0.00417207
0.00583105 -0.000178635 0.000174185
-0.000178635 0.00342238 1.17163e-05
0.000174185 1.17163e-05 0.00340214
0.00221159 0.000213921 3.1651e-07
0.000213921 -1.92065e-05 -1.82564e-07
3.1651e-07 -1.82564e-07 8.15821e-06
0.0024057 0.0002727 -2.1559e-07
0.0002727 -8.18528e-05 5.62339e-07
-2.1559e-07 5.62339e-07 6.22105e-06
0.00221391 0.000235262 3.50017e-06
0.000235262 -0.000225425 5.80054e-07
3.50017e-06 5.80054e-07 -7.20087e-05
0.00226099 0.000397284 -9.27128e-08
0.000397284 2.2155e-05 5.27576e-08
-9.27128e-08 5.27576e-08 -1.68649e-05
0.00219201 0.000552381 2.98953e-07
0.000552381 0.000146003 -8.5648e-07
2.98953e-07 -8.5648e-07 -2.8244e-05
0.00239377 0.000417006 1.98974e-06
0.000417006 -2.25581e-05 -2.66748e-07
1.98974e-06 -2.66748e-07 -1.04038e-05
0.00210647 6.55117e-05 -3.98141e-07
6.55117e-05 -1.01248e-05 1.46284e-07
-3.98141e-07 1.46284e-07 3.66484e-06
0.00220493 6.84472e-05 3.30452e-07
6.84472e-05 -3.5358e-05 -1.96894e-07
3.30452e-07 -1.96894e-07 7.17428e-06
0.00228914 8.37007e-05 -8.80258e-07
8.37007e-05 -0.000110589 -1.01355e-07
-8.80258e-07 -1.01355e-07 -2.16629e-05
0.002073 -1.16324e-05 -8.51725e-07
-1.16324e-05 -1.23334e-05 5.9215e-08
-8.51725e-07 5.9215e-08 2.02289e-06
0.00204717 -3.7079e-05 -5.77229e-06
-3.7079e-05 2.7884e-05 5.54861e-07
-5.77229e-06 5.54861e-07 2.16208e-05
0.00218857 -8.07861e-05 -3.19421e-07
-8.07861e-05 -3.75718e-05 2.91011e-07
-3.19421e-07 2.91011e-07 1.01657e-05
0.00205298 -0.000113518 -1.53957e-06
-0.000113518 -5.438e-06 2.51186e-07
-1.53957e-06 2.51186e-07 -1.08168e-05
0.00208012 -0.00013396 -6.25266e-06
-0.00013396 4.25427e-05 6.23946e-07
-6.25266e-06 6.23946e-07 2.50978e-06
0.00209383 -0.000205111 3.69076e-06
-0.000205111 1.07044e-06 -8.37372e-07
3.69076e-06 -8.37372e-07 -8.08323e-06
0.00212058 -0.000212155 2.69487e-06
-0.000212155 7.95807e-05 -4.98055e-07
2.69487e-06 -4.98055e-07 1.94181e-05
0.00196633 -0.000185751 5.9103e-07
-0.000185751 0.00011259 -1.11722e-06
5.9103e-07 -1.11722e-06 -4.12713e-06
0.00204018 -0.000292723 3.32689e-06
-0.000292723 5.92108e-05 -1.29352e-06
3.32689e-06 -1.29352e-06 -3.39099e-05
0.00197698 -0.000258214 -1.98106e-07
-0.000258214 0.000129831 1.05588e-08
-1.98106e-07 1.05588e-08 -1.16011e-05
0.00118112 -0.000153632 -1.10317e-05
-0.000153632 -3.59662e-05 2.30654e-06
-1.10317e-05 2.30654e-06 -0.000200276
0.00201968 -0.000328279 1.00727e-06
-0.000328279 0.000190016 2.09667e-07
1.00727e-06 2.09667e-07 1.9033e-05
0.0011926 -0.000188694 -3.82305e-07
-0.000188694 -2.69888e-05 2.95677e-07
-3.82305e-07 2.95677e-07 -0.000204094
0.00266486 -0.000176007 -6.89685e-05
-0.000176007 0.00124004 1.03788e-05
-6.89685e-05 1.03788e-05 0.00114692
0.00123325 -0.00022256 1.11473e-05
-0.00022256 4.09714e-06 -4.80825e-06
1.11473e-05 -4.80825e-06 -0.000185309
0.00283408 -0.000178276 4.477e-05
-0.000178276 0.00133708 -4.99365e-06
4.477e-05 -4.99365e-06 0.0012504
0.00235898 -0.000102975 -0.000260463
-0.000102975 0.00113036 3.17409e-05
-0.000260463 3.17409e-05 0.00111334
0.00297741 -0.000201473 0.000157555
-0.000201473 0.00142271 -2.49027e-05
0.000157555 -2.49027e-05 0.0013418
0.00195346 -8.36647e-05 -9.831e-05
-8.36647e-05 0.000886817 1.28995e-05
-9.831e-05 1.28995e-05 0.000854227
0.00164148 -7.98698e-05 6.49798e-05
-7.98698e-05 0.000708942 -1.07449e-05
6.49798e-05 -1.07449e-05 0.000655211
0.00209741 0.000249871 -1.50282e-06
0.000249871 2.93246e-08 -7.26057e-07
-1.50282e-06 -7.26057e-07 -3.00236e-05
0.00215287 0.000362701 -3.22815e-06
0.000362701 0.000143979 -2.07005e-07
-3.22815e-06 -2.07005e-07 2.2642e-05
0.00221628 0.000400076 -4.26964e-07
0.000400076 9.35501e-05 -1.47117e-07
-4.26964e-07 -1.47117e-07 1.05535e-05
0.00205875 0.000405003 -4.4741e-08
0.000405003 0.00021201 6.44723e-07
-4.4741e-08 6.44723e-07 1.39697e-05
0.00214288 0.000433893 -1.56403e-06
0.000433893 0.000181432 -6.47434e-07
-1.56403e-06 -6.47434e-07 1.67176e-05
0.00228133 0.000466743 2.39397e-06
0.000466743 0.000178129 4.26637e-07
2.39397e-06 4.26637e-07 3.76635e-05
0.00125453 0.000279633 -1.87028e-05
0.000279633 1.50417e-05 -6.23737e-06
-1.87028e-05 -6.23737e-06 -0.00019228
0.0019065 0.000446198 1.82536e-06
0.000446198 0.000169458 -3.0904e-07
1.82536e-06 -3.0904e-07 -6.20535e-05
0.00198111 0.00049539 -1.72332e-06
0.00049539 9.56752e-05 -5.08695e-06
-1.72332e-06 -5.08695e-06 -0.000102477
0.000286482 0.000197067 -2.21754e-05
0.000197067 -0.000249742 -1.59692e-05
-2.21754e-05 -1.59692e-05 -0.000382582
0.0011666 0.000318972 -6.08228e-07
0.000318972 4.6912e-06 3.73624e-08
-6.08228e-07 3.73624e-08 -0.000225288
0.00180477 0.000511312 7.63979e-06
0.000511312 0.000180818 -1.55065e-06
7.63979e-06 -1.55065e-06 -0.000100087
0.00111147 0.000330151 2.60178e-05
0.000330151 5.28715e-05 8.5786e-06
2.60178e-05 8.5786e-06 -0.000187928
0.000276903 0.00023754 3.95277e-07
0.00023754 -0.000228144 1.05987e-06
3.95277e-07 1.05987e-06 -0.000375964
0.00739958 0.000163486 -0.000313137
0.000163486 0.00434538 -4.20376e-05
-0.000313137 -4.20376e-05 0.00434229
0.000316033 0.000236078 2.25451e-05
0.000236078 -0.000183345 1.91535e-05
2.25451e-05 1.91535e-05 -0.000331178
0.0074737 3.83218e-05 7.80267e-06
3.83218e-05 0.00439343 5.60968e-07
7.80267e-06 5.60968e-07 0.00439693
0.00684207 -0.000102809 0.000239535
-0.000102809 0.00401938 1.50852e-05
0.000239535 1.50852e-05 0.00401474
0.00212781 0.000129743 -2.50222e-06
0.000129743 2.04448e-05 -5.83419e-07
-2.50222e-06 -5.83419e-07 2.75221e-05
0.00220144 0.000218433 7.16257e-07
0.000218433 -2.8478e-05 3.4617e-07
7.16257e-07 3.4617e-07 -3.7931e-06
0.00235926 0.000277861 -3.78984e-07
0.000277861 -0.000115046 -6.60602e-07
-3.78984e-07 -6.60602e-07 -2.52943e-05
0.00226136 0.000391031 1.52409e-06
0.000391031 2.50053e-05 -1.74064e-07
1.52409e-06 -1.74064e-07 -1.08695e-05
0.00201776 2.17902e-05 -5.76069e-06
2.17902e-05 3.42403e-05 3.67031e-07
-5.76069e-06 3.67031e-07 1.331e-05
0.00209869 5.63319e-05 -3.68612e-08
5.63319e-05 -1.46415e-05 -2.84955e-08
-3.68612e-08 -2.84955e-08 -1.52409e-07
0.00219041 6.40998e-05 -1.07793e-06
6.40998e-05 -4.18064e-05 -7.29568e-08
-1.07793e-06 -7.29568e-08 7.64956e-07
0.0020722 -8.5922e-06 -4.04673e-07
-8.5922e-06 -1.32179e-05 -3.26859e-07
-4.04673e-07 -3.26859e-07 -6.50206e-07
0.00205043 -3.13643e-05 -7.0724e-07
-3.13643e-05 2.57246e-05 -1.44127e-07
-7.0724e-07 -1.44127e-07 2.09162e-05
0.001911 -5.78871e-05 -5.32016e-06
-5.78871e-05 -4.71233e-05 4.89396e-07
-5.32016e-06 4.89396e-07 -9.22535e-05
0.00207134 -0.000113361 3.33754e-06
-0.000113361 1.24793e-05 -4.01706e-08
3.33754e-06 -4.01706e-08 3.87969e-06
0.00206677 -0.000135272 -1.90751e-06
-0.000135272 4.2318e-05 3.73976e-07
-1.90751e-06 3.73976e-07 -4.90587e-06
0.00204857 -0.000125519 -1.93233e-06
-0.000125519 0.000151777 -2.45331e-07
-1.93233e-06 -2.45331e-07 5.85586e-05
0.00209775 -0.000210812 7.33562e-06
-0.000210812 6.81112e-05 -1.33589e-06
7.33562e-06 -1.33589e-06 8.25414e-06
0.00196814 -0.000184562 1.45378e-06
-0.000184562 0.000105244 -5.80733e-07
1.45378e-06 -5.80733e-07 -1.10423e-05
0.00115127 -0.000114972 -1.17648e-05
-0.000114972 -5.19297e-05 1.56679e-06
-1.17648e-05 1.56679e-06 -0.000203143
0.00205679 -0.000261157 1.61193e-06
-0.000261157 0.000176115 3.75528e-07
1.61193e-06 3.75528e-07 3.47948e-05
0.00117577 -0.000152411 -9.74442e-08
-0.000152411 -3.91589e-05 1.65235e-07
-9.74442e-08 1.65235e-07 -0.000202482
0.000355095 -9.05395e-05 -1.93987e-05
-9.05395e-05 -0.000232094 5.90049e-06
-1.93987e-05 5.90049e-06 -0.000333644
0.00123809 -0.000187766 1.00343e-05
-0.000187766 -3.66092e-06 -3.16195e-06
1.00343e-05 -3.16195e-06 -0.000179309
0.00158534 -0.000115786 6.60178e-05
-0.000115786 0.000542959 -5.20596e-06
6.60178e-05 -5.20596e-06 0.000453999
0.00679553 -0.000172757 -0.000345815
-0.000172757 0.0039502 2.65437e-05
-0.000345815 2.65437e-05 0.00397054
0.00292251 -0.000160943 0.000154544
-0.000160943 0.00138216 -1.96403e-05
0.000154544 -1.96403e-05 0.00130793
0.0019543 -8.0412e-05 -8.91831e-05
-8.0412e-05 0.000886075 8.44648e-06
-8.91831e-05 8.44648e-06 0.000853329
0.00156253 -0.000102272 7.69884e-05
-0.000102272 0.000662937 -1.25897e-05
7.69884e-05 -1.25897e-05 0.000608272
0.00204477 0.000169499 -3.4205e-06
0.000169499 1.41244e-05 -1.05795e-06
-3.4205e-06 -1.05795e-06 -1.3942e-05
0.00205857 0.000274642 -1.87193e-06
0.000274642 5.43218e-05 -4.88513e-08
-1.87193e-06 -4.88513e-08 -2.76009e-05
0.00211306 0.000243903 -1.52055e-07
0.000243903 2.14588e-05 -4.31322e-08
-1.52055e-07 -4.31322e-08 -1.45839e-05
0.00208199 0.000330225 4.55124e-07
0.000330225 0.00019759 1.32503e-06
4.55124e-07 1.32503e-06 3.8928e-05
0.00207626 0.000358403 9.71826e-07
0.000358403 9.48657e-05 2.18244e-07
9.71826e-07 2.18244e-07 -2.60661e-05
0.00216363 0.000399844 9.70678e-07
0.000399844 3.8587e-05 2.25909e-07
9.70678e-07 2.25909e-07 -3.51791e-05
0.00128919 0.000246018 -1.41511e-05
0.000246018 1.83039e-05 -3.98109e-06
-1.41511e-05 -3.98109e-06 -0.00016742
0.00204643 0.000401402 2.12785e-06
0.000401402 0.000205349 5.43651e-07
2.12785e-06 5.43651e-07 8.50825e-06
0.00212951 0.000430186 9.62553e-07
0.000430186 0.000181562 -1.3507e-06
9.62553e-07 -1.3507e-06 1.63791e-05
0.000320753 0.000139875 -1.93852e-05
0.000139875 -0.000251262 -1.24808e-05
-1.93852e-05 -1.24808e-05 -0.000368247
0.0011982 0.000276736 4.88294e-07
0.000276736 -1.82007e-05 4.70446e-07
4.88294e-07 4.70446e-07 -0.000223233
0.00186183 0.000447333 6.69976e-06
0.000447333 0.000133973 -1.8332e-06
6.69976e-06 -1.8332e-06 -9.23327e-05
0.00718631 0.000235455 -0.000320232
0.000235455 0.00420178 -4.17418e-05
-0.000320232 -4.17418e-05 0.00420255
0.000312168 0.00019001 1.31179e-07
0.00019001 -0.000235312 7.08067e-07
1.31179e-07 7.08067e-07 -0.000368551
0.00114935 0.000316305 2.52712e-05
0.000316305 -9.88909e-07 7.65789e-06
2.52712e-05 7.65789e-06 -0.000230938
0.000378588 0.000230946 2.27158e-05
0.000230946 -0.000162238 1.78332e-05
2.27158e-05 1.78332e-05 -0.000312036
0.00744237 0.000156467 1.06925e-05
0.000156467 0.004366 1.71178e-06
1.06925e-05 1.71178e-06 0.00436947
0.00736672 -1.16099e-06 0.000292855
-1.16099e-06 0.00431495 2.14729e-05
0.000292855 2.14729e-05 0.00432291
0.0019858 7.41539e-05 -7.45348e-06
7.41539e-05 1.7836e-05 -1.38514e-07
-7.45348e-06 -1.38514e-07 -8.24615e-06
0.00211694 0.00012587 7.95487e-08
0.00012587 1.49478e-05 -1.05098e-08
7.95487e-08 -1.05098e-08 2.04247e-05
0.00219417 0.000222957 1.35703e-07
0.000222957 -3.62173e-05 1.39524e-07
1.35703e-07 1.39524e-07 -1.3876e-05
0.0019516 6.41378e-06 -6.62579e-06
6.41378e-06 2.00303e-06 2.05126e-07
-6.62579e-06 2.05126e-07 -4.96299e-05
0.0019993 2.68165e-05 4.95731e-07
2.68165e-05 1.85464e-05 4.45433e-09
4.95731e-07 4.45433e-09 6.35036e-07
0.00209308 4.61533e-05 -1.93015e-07
4.61533e-05 -1.81179e-05 -9.70809e-08
-1.93015e-07 -9.70809e-08 -2.85285e-06
0.00205451 -2.62273e-05 3.55162e-06
-2.62273e-05 2.35535e-05 -3.72369e-07
3.55162e-06 -3.72369e-07 2.06623e-05
0.00197847 -5.67136e-05 -1.14332e-06
-5.67136e-05 2.06918e-07 1.48412e-07
-1.14332e-06 1.48412e-07 -4.34707e-05
0.00188426 -6.08691e-05 -9.58131e-07
-6.08691e-05 5.83131e-05 -1.50588e-07
-9.58131e-07 -1.50588e-07 -3.55372e-05
0.00207042 -0.000136719 2.77659e-06
-0.000136719 5.42965e-05 -5.88329e-08
2.77659e-06 -5.88329e-08 9.285e-08
0.00196514 -0.000126192 5.49754e-07
-0.000126192 0.00010106 2.56737e-08
5.49754e-07 2.56737e-08 -5.0752e-07
0.00123904 -7.1104e-05 -1.16312e-05
-7.1104e-05 1.14113e-05 6.67993e-07
-1.16312e-05 6.67993e-07 -0.000120084
0.00194889 -0.000184992 3.07188e-06
-0.000184992 8.36476e-05 -1.85838e-07
3.07188e-06 -1.85838e-07 -3.26908e-05
0.00114249 -0.000110041 -1.11264e-08
-0.000110041 -5.37334e-05 3.64453e-08
-1.11264e-08 3.64453e-08 -0.000203812
0.000379056 -2.4941e-05 -1.81403e-05
-2.4941e-05 -0.000219699 3.21384e-06
-1.81403e-05 3.21384e-06 -0.000313486
0.00118175 -0.000150004 1.06102e-05
-0.000150004 -3.59451e-05 -1.99603e-06
1.06102e-05 -1.99603e-06 -0.000198002
0.000373182 -7.61213e-05 -2.84176e-07
-7.61213e-05 -0.000220239 5.04113e-07
-2.84176e-07 5.04113e-07 -0.000321861
0.00669186 -6.26259e-05 -0.00033464
-6.26259e-05 0.0038794 1.65254e-05
-0.00033464 1.65254e-05 0.00390517
0.000436031 -7.904e-05 1.40547e-05
-7.904e-05 -0.00018608 -8.20646e-06
1.40547e-05 -8.20646e-06 -0.000293432
0.00427145 -0.000112643 0.000147185
-0.000112643 0.00235785 -7.99326e-06
0.000147185 -7.99326e-06 0.00234172
0.00153935 -9.33977e-05 8.32736e-05
-9.33977e-05 0.000646921 -1.2173e-05
8.32736e-05 -1.2173e-05 0.000593161
0.0020533 0.000131992 -8.12195e-06
0.000131992 6.48438e-05 -8.31737e-07
-8.12195e-06 -8.31737e-07 3.05474e-05
0.00211931 0.000203521 -3.42549e-06
0.000203521 0.000104143 -3.51373e-08
-3.42549e-06 -3.51373e-08 3.39631e-05
0.00203318 0.000163811 -6.77458e-07
0.000163811 1.03183e-05 -1.47922e-07
-6.77458e-07 -1.47922e-07 -1.76039e-05
0.00199699 0.000256981 -5.24551e-07
0.000256981 0.000129566 9.52765e-07
-5.24551e-07 9.52765e-07 -1.12393e-05
0.00210954 0.00027565 -2.168e-08
0.00027565 8.51616e-05 -6.97023e-08
-2.168e-08 -6.97023e-08 9.75816e-07
0.00212596 0.000237933 2.7609e-06
0.000237933 4.11486e-05 8.53279e-07
2.7609e-06 8.53279e-07 -7.62694e-07
0.00124443 0.000198784 -1.15575e-05
0.000198784 -1.35077e-05 -2.54745e-06
-1.15575e-05 -2.54745e-06 -0.000181831
0.00203723 0.000326027 2.53564e-06
0.000326027 0.000177687 8.73113e-07
2.53564e-06 8.73113e-07 1.25389e-05
0.00201357 0.000354794 2.00375e-06
0.000354794 5.50223e-05 -1.32742e-07
2.00375e-06 -1.32742e-07 -6.54553e-05
0.000337433 9.89579e-05 -1.78831e-05
9.89579e-05 -0.000251298 -9.09287e-06
-1.78831e-05 -9.09287e-06 -0.000358418
0.00123246 0.000240874 -2.05497e-07
0.000240874 -1.45052e-05 5.31522e-07
-2.05497e-07 5.31522e-07 -0.000199149
0.00204343 0.000398746 4.75104e-06
0.000398746 0.000205016 5.65176e-07
4.75104e-06 5.65176e-07 9.14053e-06
0.00700495 0.00028486 -0.000335897
0.00028486 0.00409102 -4.00881e-05
-0.000335897 -4.00881e-05 0.0040929
0.000322428 0.000139378 3.88552e-08
0.000139378 -0.00025373 4.00935e-07
3.88552e-08 4.00935e-07 -0.000371461
0.00113219 0.000274607 1.83805e-05
0.000274607 -5.92971e-05 5.91825e-06
1.83805e-05 5.91825e-06 -0.000262378
0.00719126 0.000253988 1.39545e-05
0.000253988 0.00421351 4.18501e-06
1.39545e-05 4.18501e-06 0.00421176
0.000291209 0.000180954 2.00081e-05
0.000180954 -0.000250716 1.58856e-05
2.00081e-05 1.58856e-05 -0.000384057
0.00732934 0.000123998 0.000322207
0.000123998 0.00428147 3.06319e-05
0.000322207 3.06319e-05 0.00429392
0.00191603 5.68253e-05 -6.85478e-06
5.68253e-05 -1.96627e-05 9.74056e-08
-6.85478e-06 9.74056e-08 -7.45917e-05
0.00201479 8.03481e-05 -9.18142e-07
8.03481e-05 4.24676e-05 -1.71068e-07
-9.18142e-07 -1.71068e-07 1.58681e-05
0.00210353 0.000122319 2.16506e-06
0.000122319 8.64985e-06 3.55982e-07
2.16506e-06 3.55982e-07 1.23947e-05
0.00187567 -8.07216e-06 -2.85037e-07
-8.07216e-06 5.95875e-05 -1.84023e-07
-2.85037e-07 -1.84023e-07 -3.27253e-05
0.00197894 7.71016e-06 -1.52642e-06
7.71016e-06 2.0122e-05 8.81471e-08
-1.52642e-06 8.81471e-08 -2.86208e-05
0.00198038 3.2956e-05 6.25599e-06
3.2956e-05 2.72389e-06 -1.2225e-07
6.25599e-06 -1.2225e-07 -1.23181e-05
0.00204407 -5.55579e-05 2.79222e-06
-5.55579e-05 4.66026e-05 -1.50165e-07
2.79222e-06 -1.50165e-07 4.12606e-06
0.00193005 -6.07983e-05 1.53922e-06
-6.07983e-05 8.99426e-05 1.12067e-08
1.53922e-06 1.12067e-08 -2.81609e-06
0.00120178 -3.12999e-05 -1.13801e-05
-3.12999e-05 -2.64325e-06 -7.1396e-08
-1.13801e-05 -7.1396e-08 -0.000126566
0.00186176 -0.000126739 8.89125e-07
-0.000126739 3.65217e-05 2.61586e-07
8.89125e-07 2.61586e-07 -7.34916e-05
0.00115591 -7.00278e-05 9.32652e-07
-7.00278e-05 -4.05044e-05 -1.73518e-07
9.32652e-07 -1.73518e-07 -0.000176211
0.000371826 -9.12671e-06 -1.83595e-05
-9.12671e-06 -0.000223411 1.9738e-06
-1.83595e-05 1.9738e-06 -0.000312941
0.00111422 -0.000105997 1.07298e-05
-0.000105997 -6.64847e-05 -1.43497e-06
1.07298e-05 -1.43497e-06 -0.000215673
0.000338202 -3.65347e-05 9.10662e-07
-3.65347e-05 -0.000244474 -3.12447e-07
9.10662e-07 -3.12447e-07 -0.000337762
0.00647707 -0.000157476 -0.000335611
-0.000157476 0.00376244 1.79128e-05
-0.000335611 1.79128e-05 0.0037817
0.000355728 -6.01829e-05 1.7497e-05
-6.01829e-05 -0.000231755 -4.38793e-06
1.7497e-05 -4.38793e-06 -0.000332507
0.00663409 -9.94625e-05 7.78513e-06
-9.94625e-05 0.00384685 2.91851e-08
7.78513e-06 2.91851e-08 0.00387177
0.00186172 -3.87976e-05 0.000259385
-3.87976e-05 0.000818148 -1.79794e-05
0.000259385 -1.79794e-05 0.000808831
0.00203134 0.000135187 -6.67772e-06
0.000135187 5.31202e-05 -5.64567e-07
-6.67772e-06 -5.64567e-07 -1.26274e-05
0.00200971 0.000133184 -1.75333e-06
0.000133184 2.75848e-05 -1.26743e-07
-1.75333e-06 -1.26743e-07 -2.32152e-06
0.00194769 0.000185777 -1.82111e-07
0.000185777 9.3218e-05 9.2088e-07
-1.82111e-07 9.2088e-07 -2.65246e-05
0.00212298 0.00020329 7.2631e-07
0.00020329 0.000102104 2.29457e-08
7.2631e-07 2.29457e-08 3.23829e-05
0.00202149 0.000157951 4.32849e-06
0.000157951 5.83272e-06 6.31941e-07
4.32849e-06 6.31941e-07 -2.18276e-05
0.0011916 0.000150407 -1.10324e-05
0.000150407 -3.14123e-05 -1.66902e-06
-1.10324e-05 -1.66902e-06 -0.000190899
0.00200081 0.000254961 1.77745e-07
0.000254961 0.000138926 7.00121e-08
1.77745e-07 7.00121e-08 -1.55282e-06
0.00215748 0.000276363 3.18424e-06
0.000276363 0.000114167 3.54493e-07
3.18424e-06 3.54493e-07 2.76115e-05
0.000357333 7.18868e-05 -1.75315e-05
7.18868e-05 -0.000239682 -6.35917e-06
-1.75315e-05 -6.35917e-06 -0.00034146
0.00121077 0.00019762 4.55715e-07
0.00019762 -3.05795e-05 5.51897e-07
4.55715e-07 5.51897e-07 -0.000202292
0.00198646 0.000321396 1.82683e-06
0.000321396 0.000154927 3.64387e-07
1.82683e-06 3.64387e-07 -1.66689e-05
0.00684498 0.000291159 -0.000351171
0.000291159 0.00400118 -3.68924e-05
-0.000351171 -3.68924e-05 0.00400308
0.000358777 0.000102686 3.41036e-07
0.000102686 -0.000240742 2.3198e-07
3.41036e-07 2.3198e-07 -0.000348799
0.00117434 0.000235358 1.09189e-05
0.000235358 -4.88136e-05 4.48729e-06
1.09189e-05 4.48729e-06 -0.000232194
0.00705153 0.000309998 1.02911e-05
0.000309998 0.00413283 5.08599e-06
1.02911e-05 5.08599e-06 0.00412891
0.000354908 0.000139303 1.84211e-05
0.000139303 -0.000237189 1.28819e-05
1.84211e-05 1.28819e-05 -0.000355509
0.00727558 0.000259876 0.000342026
0.000259876 0.00425848 4.09192e-05
0.000342026 4.09192e-05 0.00426277
0.0018459 5.35683e-05 1.31488e-06
5.35683e-05 4.26686e-05 -1.00611e-07
1.31488e-06 -1.00611e-07 -5.40582e-05
0.00198255 5.82747e-05 -3.29268e-06
5.82747e-05 3.14276e-05 -1.02738e-07
-3.29268e-06 -1.02738e-07 -2.43039e-05
0.0020433 8.59964e-05 7.16805e-06
8.59964e-05 6.67835e-05 2.50512e-07
7.16805e-06 2.50512e-07 3.96325e-05
0.00116426 -1.16504e-05 -1.18489e-05
-1.16504e-05 -2.04008e-05 -2.78115e-07
-1.18489e-05 -2.78115e-07 -0.000142406
0.0019178 -4.08612e-06 2.06081e-06
-4.08612e-06 8.98624e-05 -2.09956e-08
2.06081e-06 -2.09956e-08 -1.87112e-06
0.00200978 8.47186e-06 2.70593e-06
8.47186e-06 4.07071e-05 3.18081e-09
2.70593e-06 3.18081e-09 -4.92456e-06
0.0019809 -6.12049e-05 3.67445e-06
-6.12049e-05 0.00012511 1.62787e-07
3.67445e-06 1.62787e-07 3.3422e-05
0.00117773 -3.28129e-05 7.23795e-07
-3.28129e-05 -2.13093e-05 -8.47675e-08
7.23795e-07 -8.47675e-08 -0.000145548
0.000380042 -3.25511e-05 -1.89277e-05
-3.25511e-05 -0.000216119 7.79666e-07
-1.89277e-05 7.79666e-07 -0.000301572
0.00106578 -6.81638e-05 1.20361e-05
-6.81638e-05 -9.68153e-05 -1.13233e-06
1.20361e-05 -1.13233e-06 -0.000236714
0.000356644 2.2609e-06 4.24152e-07
2.2609e-06 -0.000234195 9.5561e-08
4.24152e-07 9.5561e-08 -0.00032245
0.00638758 -0.000127321 -0.000335539
-0.000127321 0.00370519 1.34427e-05
-0.000335539 1.34427e-05 0.00372778
0.000376547 -4.4835e-05 1.83799e-05
-4.4835e-05 -0.000218168 -2.9814e-06
1.83799e-05 -2.9814e-06 -0.000312601
0.00648106 -5.24708e-05 -2.98733e-06
-5.24708e-05 0.00375186 3.03011e-06
-2.98733e-06 3.03011e-06 0.0037792
0.00658099 -0.000112933 0.000334535
-0.000112933 0.00381507 -1.60034e-05
0.000334535 -1.60034e-05 0.00384002
0.0019097 0.000116987 -2.83764e-07
0.000116987 7.75846e-05 2.64937e-07
-2.83764e-07 2.64937e-07 -2.85152e-05
0.00203685 0.000133381 -3.13079e-06
0.000133381 4.96547e-05 -4.42841e-07
-3.13079e-06 -4.42841e-07 -1.04435e-05
0.00196987 0.000134918 6.3399e-06
0.000134918 -7.26159e-06 6.3707e-07
6.3399e-06 6.3707e-07 -3.27697e-05
0.00117677 0.000101609 -1.16467e-05
0.000101609 -2.85722e-05 -1.01797e-06
-1.16467e-05 -1.01797e-06 -0.000174747
0.00197809 0.00018498 3.22667e-07
0.00018498 0.000117322 -1.41373e-07
3.22667e-07 -1.41373e-07 -2.28117e-06
0.00212518 0.000202936 3.57985e-06
0.000202936 9.91671e-05 -1.38713e-07
3.57985e-06 -1.38713e-07 2.99062e-05
0.000381643 4.97112e-05 -1.71904e-05
4.97112e-05 -0.000222456 -4.21026e-06
-1.71904e-05 -4.21026e-06 -0.000319714
0.00118438 0.000152576 2.70911e-07
0.000152576 -3.58109e-05 2.95552e-07
2.70911e-07 2.95552e-07 -0.000196732
0.00200854 0.000253262 9.74577e-07
0.000253262 0.000150103 -9.22494e-07
9.74577e-07 -9.22494e-07 9.9173e-06
0.0067013 0.000242506 -0.000360305
0.000242506 0.00390948 -3.00686e-05
-0.000360305 -3.00686e-05 0.00391993
0.000383744 7.89011e-05 7.88701e-07
7.89011e-05 -0.000224416 2.01179e-07
7.88701e-07 2.01179e-07 -0.000327714
0.00117937 0.000196452 8.9873e-06
0.000196452 -4.92106e-05 3.23515e-06
8.9873e-06 3.23515e-06 -0.000224186
0.00692355 0.000308824 5.62786e-06
0.000308824 0.0040555 3.49506e-06
5.62786e-06 3.49506e-06 0.00405527
0.000383577 0.000108453 1.73579e-05
0.000108453 -0.000226681 9.95717e-06
1.73579e-05 9.95717e-06 -0.000336272
0.00710779 0.000345166 0.00035271
0.000345166 0.00417777 4.72108e-05
0.00035271 4.72108e-05 0.00416888
0.00108482 2.86651e-05 -1.20092e-05
2.86651e-05 -6.95151e-05 -6.10673e-07
-1.20092e-05 -6.10673e-07 -0.000200551
0.00191535 5.13809e-05 2.25025e-06
5.13809e-05 8.7291e-05 1.05682e-08
2.25025e-06 1.05682e-08 -4.99348e-06
0.00205387 6.01634e-05 1.70953e-06
6.01634e-05 8.51465e-05 1.05854e-07
1.70953e-06 1.05854e-07 2.87594e-05
0.000418874 3.19981e-05 -1.94284e-05
3.19981e-05 -0.000199081 -9.71057e-07
-1.94284e-05 -9.71057e-07 -0.000275748
0.00113468 -6.29737e-06 5.02006e-07
-6.29737e-06 -4.22089e-05 2.94741e-08
5.02006e-07 2.94741e-08 -0.000164243
0.00195363 1.34771e-06 4.19711e-06
1.34771e-06 0.000115751 -9.98605e-09
4.19711e-06 -9.98605e-09 2.4487e-05
0.00114885 -3.38626e-05 1.2744e-05
-3.38626e-05 -4.33701e-05 -4.30628e-07
1.2744e-05 -4.30628e-07 -0.000167911
0.000376441 -5.92512e-06 4.82445e-07
-5.92512e-06 -0.000218589 3.73573e-07
4.82445e-07 3.73573e-07 -0.000303939
0.00626455 9.69415e-06 -0.000336915
9.69415e-06 0.0036201 2.11811e-06
-0.000336915 2.11811e-06 0.00365046
0.000330432 1.41482e-05 1.77825e-05
1.41482e-05 -0.000252421 -8.77622e-07
1.77825e-05 -8.77622e-07 -0.000339178
0.00634018 -0.000124721 -7.95032e-06
-0.000124721 0.00367736 2.10653e-06
-7.95032e-06 2.10653e-06 0.00369947
0.00640742 -3.46804e-05 0.000321352
-3.46804e-05 0.00370594 -8.69066e-06
0.000321352 -8.69066e-06 0.00373349
0.00114807 6.08206e-05 -1.19324e-05
6.08206e-05 -3.71821e-05 -1.02581e-06
-1.19324e-05 -1.02581e-06 -0.000173171
0.00195476 0.000113951 -2.80884e-07
0.000113951 0.000105757 -3.94103e-07
-2.80884e-07 -3.94103e-07 4.04641e-06
0.00201774 0.000130824 2.07629e-07
0.000130824 2.96497e-05 -5.44188e-07
2.07629e-07 -5.44188e-07 -2.51428e-05
0.00271872 6.66636e-05 -0.000154122
6.66636e-05 0.00125711 -5.54544e-06
-0.000154122 -5.54544e-06 0.00120284
0.00115342 0.000103633 3.18425e-07
0.000103633 -4.54724e-05 1.6834e-07
3.18425e-07 1.6834e-07 -0.000192584
0.00202146 0.000184498 1.22885e-06
0.000184498 0.000149918 -1.15413e-06
1.22885e-06 -1.15413e-06 3.04664e-05
0.0065244 0.000175298 -0.000357547
0.000175298 0.0037919 -2.13681e-05
-0.000357547 -2.13681e-05 0.00381215
0.000390781 6.8324e-05 1.1529e-06
6.8324e-05 -0.000213421 5.18697e-07
1.1529e-06 5.18697e-07 -0.000313046
0.00118566 0.000154372 1.11441e-05
0.000154372 -3.36327e-05 2.15359e-06
1.11441e-05 2.15359e-06 -0.000195868
0.00677612 0.000258182 8.86962e-07
0.000258182 0.0039578 1.56563e-06
8.86962e-07 1.56563e-06 0.00396668
0.000389776 8.74592e-05 1.75174e-05
8.74592e-05 -0.000219797 7.49837e-06
1.75174e-05 7.49837e-06 -0.000325239
0.00700244 0.000345085 0.000362885
0.000345085 0.00411871 4.62656e-05
0.000362885 4.62656e-05 0.00411142
0.00050716 1.25396e-05 -1.53838e-05
1.25396e-05 -0.000132945 -2.03635e-06
-1.53838e-05 -2.03635e-06 -0.000218875
0.00110109 2.82344e-05 1.18535e-08
2.82344e-05 -6.36849e-05 1.71878e-07
1.18535e-08 1.71878e-07 -0.000191507
0.00197976 4.78101e-05 4.25167e-06
4.78101e-05 0.000128398 -1.52124e-07
4.25167e-06 -1.52124e-07 4.05044e-05
0.0060806 -0.000103767 -0.000318172
-0.000103767 0.00352365 4.54486e-06
-0.000318172 4.54486e-06 0.00354267
0.000376189 9.89658e-06 -5.87526e-07
9.89658e-06 -0.000221596 -1.5164e-07
-5.87526e-07 -1.5164e-07 -0.00030091
0.00112184 -2.24399e-06 1.26982e-05
-2.24399e-06 -5.36403e-05 3.39923e-08
1.26982e-05 3.39923e-08 -0.000175637
0.000334361 2.08252e-05 1.81266e-05
2.08252e-05 -0.000246782 4.99719e-07
1.81266e-05 4.99719e-07 -0.00033079
0.00619934 -2.5631e-05 1.88096e-06
-2.5631e-05 0.00358593 -1.72637e-06
1.88096e-06 -1.72637e-06 0.00361126
0.00632479 -4.80019e-05 0.000325516
-4.80019e-05 0.00365534 -6.20826e-06
0.000325516 -6.20826e-06 0.00368369
0.00278791 1.86265e-05 -0.000147351
1.86265e-05 0.00130106 -3.09097e-06
-0.000147351 -3.09097e-06 0.00125136
0.00111738 6.39084e-05 6.84274e-08
6.39084e-05 -5.86642e-05 -8.05591e-08
6.84274e-08 -8.05591e-08 -0.000195479
0.00201617 0.000111351 1.84222e-06
0.000111351 0.000145503 -7.88729e-07
1.84222e-06 -7.88729e-07 4.84309e-05
0.00597612 -2.88827e-05 -0.000143468
-2.88827e-05 0.00346041 1.35046e-07
-0.000143468 1.35046e-07 0.00344963
0.000381924 5.99924e-05 2.24011e-07
5.99924e-05 -0.000216033 2.97018e-07
2.24011e-07 2.97018e-07 -0.000309057
0.00111256 0.0001054 1.18105e-05
0.0001054 -7.34242e-05 1.32446e-06
1.18105e-05 1.32446e-06 -0.000221516
0.00661012 0.000152418 -1.06623e-05
0.000152418 0.00384012 -1.85128e-06
-1.06623e-05 -1.85128e-06 0.00386151
0.000399261 9.07699e-05 1.91433e-05
9.07699e-05 -0.000206517 6.0021e-06
1.91433e-05 6.0021e-06 -0.000307637
0.00687295 0.000282716 0.000368434
0.000282716 0.00402417 3.87629e-05
0.000368434 3.87629e-05 0.00403079
0.0018433 -5.38696e-05 -0.000250314
-5.38696e-05 0.000812768 1.50279e-06
-0.000250314 1.50279e-06 0.000813981
0.00157332 3.24302e-05 -6.36008e-05
3.24302e-05 0.000533059 2.58789e-08
-6.36008e-05 2.58789e-08 0.000470652
0.00110971 3.04026e-05 1.25766e-05
3.04026e-05 -6.20502e-05 6.11522e-07
1.25766e-05 6.11522e-07 -0.000186739
0.00615419 -5.04916e-05 6.67326e-06
-5.04916e-05 0.00356321 2.8539e-06
6.67326e-06 2.8539e-06 0.00358796
0.000392807 -1.10965e-05 1.87409e-05
-1.10965e-05 -0.0002045 9.01991e-07
1.87409e-05 9.01991e-07 -0.000287792
0.00623081 -8.76894e-05 0.000336625
-8.76894e-05 0.00361032 -5.6714e-06
0.000336625 -5.6714e-06 0.00363507
0.00140149 2.38338e-05 -6.70371e-05
2.38338e-05 0.000562234 -1.21032e-06
-6.70371e-05 -1.21032e-06 0.000521995
0.00156939 2.06816e-05 -6.47864e-05
2.06816e-05 0.000532186 -1.60703e-06
-6.47864e-05 -1.60703e-06 0.000464703
0.00108643 6.5603e-05 1.19077e-05
6.5603e-05 -8.02451e-05 8.41374e-07
1.19077e-05 8.41374e-07 -0.000217863
0.00395093 7.26855e-05 0.000126427
7.26855e-05 0.00216069 4.02284e-06
0.000126427 4.02284e-06 0.00215397
0.000405819 7.0347e-05 1.95705e-05
7.0347e-05 -0.000201125 4.40368e-06
1.95705e-05 4.40368e-06 -0.000294061
0.00669071 0.000139542 0.000350577
0.000139542 0.00388248 2.32218e-05
0.000350577 2.32218e-05 0.0039076
0.00610231 -1.96769e-05 -8.73189e-06
-1.96769e-05 0.00353416 -3.40239e-06
-8.73189e-06 -3.40239e-06 0.00355748
0.00038668 5.13633e-05 2.04094e-05
5.13633e-05 -0.000219842 2.59775e-06
2.04094e-05 2.59775e-06 -0.000296064
0.00606344 3.38513e-05 0.000324218
3.38513e-05 0.00350151 1.69605e-07
0.000324218 1.69605e-07 0.00353006
0.00380293 3.41296e-05 0.000137385
3.41296e-05 0.00207338 5.57833e-06
0.000137385 5.57833e-06 0.00206923
0.000415449 1.03741e-05 1.88092e-05
1.03741e-05 -0.000193731 2.56433e-06
1.88092e-05 2.56433e-06 -0.000279504
0.00644381 7.90871e-06 0.000336934
7.90871e-06 0.00372871 1.04852e-05
0.000336934 1.04852e-05 0.00375629
0.00616132 -0.000115885 0.000323116
-0.000115885 0.00357489 -4.41519e-06
0.000323116 -4.41519e-06 0.00359405
0.00621773 1.38309e-05 0.000327907
1.38309e-05 0.00358825 6.13372e-06
0.000327907 6.13372e-06 0.00361885
