# vtk DataFile Version 2.0
Wound Healing Simulation
ASCII
DATASET UNSTRUCTURED_GRID
POINTS 3012 float
69.9759 18.75 4
67.2507 60.3285 4
69.976 18.75 2
73.0099 25.446 4
71.1327 20.9142 4
68.6801 16.6661 4
67.8274 19.9255 3.98667
67.2507 60.3286 2
71.1327 54.0858 4
68.6801 58.3339 4
65.6939 62.2254 4
65.3139 59.0033 3.98768
74.6784 42.3946 4
73.7221 47.2057 4
69.9759 18.75 0
73.0099 25.446 2
68.6801 16.6661 2
71.1327 20.9142 2
67.8279 19.9274 2
74.6792 32.6053 4
73.7222 27.7943 4
72.1454 23.1494 4
70.6154 26.2223 3.98541
68.8875 21.9587 3.98634
67.2507 14.6715 4
66.639 17.9701 3.9873
65.8021 21.023 3.98062
67.2507 60.3285 0
71.1327 54.0858 2
68.6801 58.3339 2
65.694 62.2255 2
65.3146 59.0023 2
72.1454 51.8506 4
69.9759 56.25 4
68.8381 53.1128 3.9858
64.0165 64.0165 4
66.6125 57.1353 3.98734
63.8873 60.7682 3.98916
63.5045 57.7772 3.9826
60.3285 67.2507 4
74.6792 42.3947 2
73.7222 47.2057 2
74.9194 39.9526 4
74.2788 44.8158 4
72.1689 42.0857 3.98368
73.0099 49.554 4
71.2504 46.5977 3.98498
73.0099 25.446 0
71.1327 20.9142 0
68.6801 16.6661 0
67.8274 19.9255 0.0133275
74.6792 32.6053 2
73.7222 27.7943 2
67.2508 14.6715 2
72.1455 23.1494 2
70.6154 26.2229 2
66.6397 17.9714 2
68.8878 21.9604 2
65.802 21.0225 2
74.9197 35.0474 4
74.2794 30.1841 4
72.1855 32.9434 3.98408
71.2794 28.4321 3.98535
69.8171 24.061 3.98588
68.3498 26.952 3.97686
66.7669 22.9326 3.97908
65.694 12.7746 4
65.3255 16.101 3.98842
64.7189 19.1904 3.98213
63.8941 22.0311 3.97707
71.1327 54.0858 0
65.6939 62.2254 0
68.6801 58.3339 0
65.3139 59.0033 0.0123248
72.1455 51.8506 2
69.9759 56.25 2
68.8384 53.1109 2
64.0165 64.0165 2
66.6133 57.1337 2
63.8879 60.7677 2
63.5047 57.778 2
62.2254 65.694 4
58.895 65.4155 3.9926
69.7704 50.9881 3.98535
67.7855 55.168 3.98664
66.6535 52.2105 3.97843
62.3374 62.4294 3.99084
64.6657 56.0359 3.98231
62.206 59.4106 3.98333
61.8292 56.6895 3.97974
58.3339 68.6801 4
60.3285 67.2508 2
73.7221 47.2057 0
74.6784 42.3946 0
74.9197 39.9526 2
74.2794 44.8159 2
72.1687 42.0857 2
73.0099 49.554 2
71.2504 46.5975 2
75 37.5 4
72.4059 39.8023 3.98321
71.7835 44.3529 3.98442
69.806 41.79 3.9754
70.5764 48.8128 3.98517
68.9153 46.0153 3.97644
74.6792 32.6053 0
73.7222 27.7943 0
67.2507 14.6715 0
72.1454 23.1494 0
70.6154 26.2223 0.0145861
68.8875 21.9587 0.0136559
66.639 17.9701 0.0126987
65.8021 21.023 0.0193812
74.9197 35.0474 2
74.2794 30.1841 2
72.1854 32.9434 2
71.2794 28.4322 2
65.694 12.7745 2
65.3262 16.1015 2
69.8172 24.0622 2
68.3497 26.9521 2
64.7191 19.1895 2
66.7666 22.9325 2
63.894 22.0305 2
72.4137 35.2242 3.98327
71.8049 30.6766 3.98506
69.8421 33.2685 3.97575
68.9693 29.0384 3.97706
67.6148 24.9123 3.97763
66.1983 27.6342 3.97358
64.0165 10.9835 4
64.7624 23.8279 3.97552
63.8915 14.3246 3.98964
63.5178 17.4405 3.98379
62.9145 20.3136 3.97843
62.1008 22.9375 3.97512
60.6848 11.0957 3.99154
57.6134 11.4412 3.9864
72.1454 51.8506 0
69.9759 56.25 0
68.8381 53.1128 0.014199
64.0165 64.0165 0
63.8873 60.7682 0.0108411
66.6125 57.1353 0.012661
63.5045 57.7772 0.017398
62.2255 65.694 2
58.8953 65.4156 2
69.7706 50.9867 2
67.7862 55.166 2
66.6534 52.2105 2
62.3379 62.4291 2
64.6659 56.0366 2
62.2061 59.4114 2
61.8295 56.6904 2
60.6696 63.9785 3.99182
57.0256 66.7363 3.9932
57.559 63.6962 3.98719
67.5108 50.1773 3.977
65.7068 54.176 3.98053
64.543 51.3884 3.9745
60.7752 60.9438 3.98449
62.8274 55.0749 3.97953
60.663 58.1684 3.97997
60.3353 55.7958 3.97857
56.25 69.9759 4
58.3339 68.6801 2
60.3285 67.2507 0
58.9219 9.65405 3.99222
62.2254 9.30607 4
73.0099 49.554 0
74.2788 44.8158 0
71.2504 46.5977 0.0150238
72.1689 42.0857 0.0163228
74.9194 39.9526 0
75 37.5 2
72.4058 39.8024 2
71.7834 44.3527 2
69.8059 41.79 2
70.5765 48.812 2
68.9152 46.015 2
72.4892 37.5121 3.98314
70.0424 39.6576 3.97438
69.4329 43.9079 3.97608
67.6 41.4987 3.97201
68.269 48.1075 3.97659
66.7139 45.4416 3.97318
74.9197 35.0474 0
74.2794 30.1841 0
72.1855 32.9434 0.0159192
71.2794 28.4321 0.0146483
65.694 12.7746 0
65.3255 16.101 0.0115758
69.8171 24.061 0.0141245
68.3498 26.952 0.023144
66.7669 22.9326 0.0209215
64.7189 19.1904 0.0178676
63.8941 22.0311 0.0229281
72.4137 35.2241 2
71.805 30.6765 2
69.842 33.2687 2
68.9693 29.0386 2
64.0165 10.9835 2
63.892 14.3249 2
63.5181 17.4395 2
67.6146 24.9124 2
66.1982 27.6341 2
62.9147 20.3127 2
64.7621 23.8275 2
62.1008 22.937 2
60.6853 11.096 2
57.6135 11.4405 2
70.0592 35.3922 3.97468
69.47 31.1496 3.97679
67.6582 33.5907 3.97217
66.7766 29.622 3.97374
65.5284 25.6985 3.97417
64.1504 28.2541 3.9727
62.3427 12.6528 3.99064
62.8631 24.6339 3.97365
62.2022 15.7778 3.9845
61.8206 18.6758 3.98037
61.2263 21.3335 3.97601
60.4339 23.7207 3.97449
59.2476 12.7726 3.98483
55.8752 10.2279 3.98784
56.4066 13.1042 3.9832
69.7704 50.9881 0.0146526
62.2254 65.694 0
58.895 65.4155 0.00739567
67.7855 55.168 0.0133568
66.6535 52.2105 0.0215672
62.3374 62.4294 0.00916283
62.206 59.4106 0.0166712
64.6657 56.0359 0.0176935
61.8292 56.6895 0.0202588
60.67 63.9784 2
57.0259 66.7364 2
57.5589 63.6971 2
67.5107 50.177 2
65.7068 54.1764 2
64.543 51.3888 2
60.7753 60.9447 2
62.8276 55.0759 2
60.6632 58.1693 2
60.3356 55.7966 2
55.071 67.9333 3.99348
59.2207 62.3713 3.98535
55.8055 64.9138 3.98894
56.3283 62.0971 3.98386
65.336 49.4104 3.97325
63.7128 53.2974 3.97694
62.4474 50.6567 3.97246
59.3364 59.5656 3.98198
61.0853 54.3179 3.97845
59.2946 57.0229 3.97751
59.2499 55.1936 3.9798
48.1035 68.5815 3.99026
50.9487 69.9329 3.9939
54.0858 71.1327 4
56.25 69.976 2
58.3339 68.6801 0
57.0591 8.33399 3.99257
60.3285 7.74928 4
58.9224 9.65414 2
62.2255 9.30602 2
70.5764 48.8128 0.0148268
71.7835 44.3529 0.0155812
68.9153 46.0153 0.0235604
69.806 41.79 0.0245995
72.4059 39.8023 0.0167936
75 37.5 0
72.4891 37.5121 2
70.0424 39.6576 2
69.4329 43.9078 2
67.5999 41.4987 2
68.2689 48.1072 2
66.7138 45.4417 2
70.1305 37.5218 3.97455
67.836 39.513 3.971
67.2272 43.4714 3.97269
65.5591 41.2117 3.97116
66.0728 47.4199 3.97342
64.6569 44.8514 3.97213
72.4137 35.2242 0.0167347
71.8049 30.6766 0.0149416
69.8421 33.2685 0.0242528
68.9693 29.0384 0.0229366
64.0165 10.9835 0
63.8915 14.3246 0.0103579
63.5178 17.4405 0.0162063
67.6148 24.9123 0.0223683
66.1983 27.6342 0.0264176
64.7624 23.8279 0.0244819
62.9145 20.3136 0.021567
62.1008 22.9375 0.0248757
60.6848 11.0957 0.00846156
57.6134 11.4412 0.0135982
70.0592 35.3924 2
69.4701 31.1497 2
67.6582 33.5907 2
66.7766 29.6219 2
62.3431 12.6532 2
62.2022 15.7773 2
61.8209 18.6747 2
65.5283 25.6982 2
64.1504 28.2539 2
61.2265 21.3328 2
62.8629 24.6336 2
60.4339 23.7203 2
59.2476 12.7721 2
56.4065 13.1033 2
55.8752 10.2272 2
67.8723 35.5478 3.9714
67.2694 31.6217 3.97333
65.7008 33.9268 3.97104
64.668 30.1903 3.97253
63.5426 26.4125 3.97264
62.2616 28.7754 3.97252
60.7772 14.2172 3.98443
61.051 25.3334 3.97308
60.6176 17.1183 3.98209
60.2304 19.8062 3.97808
59.6699 22.2495 3.97432
58.986 24.3124 3.97537
54.0382 9.13129 3.98847
57.9121 14.3231 3.9828
54.7877 12.0034 3.98454
55.314 14.6351 3.98176
67.5108 50.1773 0.0229998
57.0256 66.7363 0.00680462
60.6696 63.9785 0.00818335
57.559 63.6962 0.0128111
65.7068 54.176 0.0194711
64.543 51.3884 0.0255028
60.7752 60.9438 0.0155083
60.663 58.1684 0.0200261
62.8274 55.0749 0.0204735
60.3353 55.7958 0.0214251
55.0713 67.9334 2
59.2207 62.3723 2
55.8054 64.9146 2
56.3283 62.0981 2
65.3359 49.4105 2
63.7129 53.2981 2
62.4474 50.657 2
59.3365 59.5667 2
61.0857 54.3187 2
59.2948 57.0237 2
59.2503 55.1943 2
53.0428 69.0011 3.99372
53.9677 66.016 3.98958
57.8826 60.8777 3.98288
54.6849 63.2137 3.98547
55.213 60.6249 3.98216
63.1986 48.6646 3.97154
61.749 52.5819 3.97514
60.2787 50.0255 3.97122
58.0218 58.2709 3.97928
59.3354 53.9573 3.97769
58.1326 55.8229 3.97553
50.1102 67.8595 3.99013
47.4642 66.586 3.988
46.0572 69.1611 3.99044
48.1035 68.582 2
48.8028 70.7241 3.99404
50.9489 69.933 2
51.8506 72.1454 4
54.0858 71.1327 2
56.25 69.9759 0
55.1033 7.13853 3.99283
58.3339 6.31992 4
57.0594 8.33396 2
60.3286 7.74926 2
58.9219 9.65405 0.00778366
62.2254 9.30607 0
68.269 48.1075 0.0234124
69.4329 43.9079 0.0239182
66.7139 45.4416 0.0268243
67.6 41.4987 0.0279941
70.0424 39.6576 0.0256198
72.4892 37.5121 0.0168628
70.1305 37.5218 2
67.836 39.5131 2
67.2271 43.4715 2
65.559 41.2118 2
66.0727 47.4199 2
64.6568 44.8515 2
67.9325 37.5225 3.97124
65.7894 39.3715 3.97031
65.18 43.0278 3.97154
63.7594 40.9319 3.97144
63.9703 46.72 3.97245
62.8123 44.2205 3.97199
70.0592 35.3922 0.0253169
69.47 31.1496 0.0232076
67.6582 33.5907 0.0278253
66.7766 29.622 0.0262571
62.3427 12.6528 0.00936179
62.2022 15.7778 0.0154966
61.8206 18.6758 0.0196317
65.5284 25.6985 0.0258346
64.1504 28.2541 0.0272969
62.8631 24.6339 0.0263489
61.2263 21.3335 0.0239888
60.4339 23.7207 0.0255098
59.2476 12.7726 0.015168
56.4066 13.1042 0.0167991
55.8752 10.2279 0.0121596
67.8723 35.5478 2
67.2695 31.6215 2
65.7009 33.9267 2
64.668 30.1901 2
60.7772 14.2167 2
60.6176 17.1175 2
60.2308 19.8052 2
63.5426 26.4121 2
62.2616 28.7753 2
59.6702 22.2489 2
61.0508 25.3331 2
58.9861 24.3121 2
57.9119 14.3224 2
55.3138 14.6343 2
54.0382 9.13073 2
54.7877 12.0025 2
65.8784 35.667 3.97049
65.1909 32.1528 3.97178
64.2875 34.2496 3.9713
62.6008 30.6336 3.9725
61.6554 27.0693 3.97192
60.855 29.1369 3.97263
59.3134 15.66 3.98271
59.3364 25.7902 3.97502
59.1293 18.3447 3.98072
58.748 20.8433 3.9756
58.2929 23.083 3.97321
57.9753 24.6568 3.97648
52.1128 8.14992 3.98885
53.0586 11.0099 3.98542
56.6786 15.7319 3.98189
53.8105 13.6699 3.98299
54.378 15.9864 3.98149
55.071 67.9333 0.00652467
65.336 49.4104 0.0267501
55.8055 64.9138 0.0110616
59.2207 62.3713 0.014655
56.3283 62.0971 0.0161361
63.7128 53.2974 0.0230638
62.4474 50.6567 0.0275372
59.3364 59.5656 0.0180154
59.2946 57.0229 0.0224911
61.0853 54.3179 0.0215474
59.2499 55.1936 0.0201987
53.0431 69.0012 2
53.9676 66.0166 2
57.8827 60.8786 2
54.6847 63.2147 2
55.213 60.6262 2
63.1985 48.6647 2
61.7493 52.5825 2
60.2788 50.0258 2
58.0221 58.272 2
59.3359 53.9579 2
58.133 55.8235 2
52.0713 67.0025 3.98993
52.9541 64.224 3.98677
56.6506 59.4979 3.98138
53.6822 61.6307 3.98347
54.2621 59.3312 3.98022
60.9977 47.8855 3.97087
59.717 52.1135 3.97453
58.0296 49.6262 3.97249
56.7809 56.9976 3.97555
57.1275 54.132 3.97591
50.1101 67.8599 2
49.3379 65.9262 3.98789
47.464 66.5866 2
46.893 64.7434 3.98657
45.5593 67.1035 3.98784
43.9741 69.5934 3.99042
46.0572 69.1615 2
46.6094 71.3686 3.99417
48.1035 68.5815 0.00974001
48.8031 70.7243 2
49.554 73.0099 4
50.9487 69.9329 0.0060982
51.8506 72.1455 2
54.0858 71.1327 0
53.0643 6.07007 3.99303
55.1036 7.13848 2
56.25 5.02411 4
58.3339 6.3199 2
57.0591 8.33399 0.00742874
60.3285 7.74928 0
66.0728 47.4199 0.0265783
67.2272 43.4714 0.0273127
64.6569 44.8514 0.0278717
65.5591 41.2117 0.0288442
67.836 39.513 0.0290022
70.1305 37.5218 0.025453
67.9325 37.5225 2
65.7894 39.3716 2
65.18 43.028 2
63.7594 40.9319 2
63.9701 46.72 2
62.8121 44.2206 2
65.8927 37.5025 3.97021
63.8994 39.2683 3.97079
63.3335 42.5533 3.97141
62.4336 40.7005 3.97189
61.973 45.9243 3.97294
61.4573 43.6881 3.97312
67.8723 35.5478 0.0286042
67.2694 31.6217 0.0266655
65.7008 33.9268 0.0289589
64.668 30.1903 0.0274683
60.7772 14.2172 0.0155733
60.6176 17.1183 0.0179146
60.2304 19.8062 0.021921
63.5426 26.4125 0.0273604
62.2616 28.7754 0.027485
61.051 25.3334 0.0269184
59.6699 22.2495 0.0256848
58.986 24.3124 0.0246256
57.9121 14.3231 0.0171986
55.314 14.6351 0.0182404
54.0382 9.13129 0.0115271
54.7877 12.0034 0.0154627
65.8784 35.667 2
65.191 32.1526 2
64.2875 34.2496 2
62.6008 30.6335 2
59.3132 15.6592 2
59.1294 18.3438 2
58.7485 20.8423 2
61.6554 27.0691 2
60.855 29.1368 2
58.2932 23.0826 2
59.3362 25.79 2
57.9754 24.6568 2
56.6783 15.7311 2
54.3777 15.9856 2
53.8105 13.669 2
52.1127 8.14941 2
53.0585 11.0092 2
64.0931 35.6325 3.97068
62.9358 33.0452 3.97139
60.6219 30.6092 3.97292
59.5751 27.9051 3.97215
57.9427 16.9729 3.98184
57.7454 25.7188 3.97638
57.7208 19.4644 3.97903
57.3779 21.83 3.97289
57.1931 23.939 3.97314
50.1127 7.28197 3.98915
51.2329 10.1185 3.98612
52.1727 12.7874 3.98414
55.5398 16.9606 3.98181
52.9788 15.2511 3.98125
53.7602 16.9679 3.98166
53.0428 69.0011 0.00627809
53.9677 66.016 0.0104161
63.1986 48.6646 0.0284636
54.6849 63.2137 0.014529
57.8826 60.8777 0.0171225
55.213 60.6249 0.0178417
61.749 52.5819 0.024857
60.2787 50.0255 0.0287754
58.0218 58.2709 0.0207207
58.1326 55.8229 0.0244702
59.3354 53.9573 0.0223061
52.0712 67.003 2
52.9539 64.2248 2
56.6508 59.499 2
53.6821 61.6318 2
54.2621 59.3326 2
60.9976 47.8855 2
59.7175 52.114 2
58.0297 49.6263 2
56.7814 56.9989 2
57.1281 54.1324 2
51.1687 65.1331 3.98753
52.0469 62.5462 3.98494
55.4834 58.2595 3.98014
52.8358 60.1448 3.98161
53.6422 58.4814 3.98005
58.3106 46.8564 3.9733
57.5662 51.7964 3.9745
56.2509 49.5615 3.97939
55.476 55.8013 3.97514
55.3621 53.3894 3.97018
50.1102 67.8595 0.0098722
49.3376 65.9268 2
48.6187 64.1297 3.98614
47.4642 66.586 0.0120009
45.559 67.1041 2
46.8928 64.744 2
46.3823 63.0623 3.98544
45.1333 65.205 3.98666
43.6323 67.4744 3.98794
41.8612 69.8809 3.99031
43.9741 69.5939 2
44.3768 71.8635 3.99411
46.0572 69.1611 0.00955931
46.6097 71.3688 2
47.2057 73.7222 4
48.8028 70.7241 0.00596225
49.554 73.0099 2
51.8506 72.1454 0
50.9539 5.13047 3.99323
53.0646 6.06997 2
54.0858 3.86728 4
55.1033 7.13853 0.00716654
56.25 5.02406 2
58.3339 6.31992 0
63.9703 46.72 0.0275467
65.18 43.0278 0.0284616
62.8123 44.2205 0.0280133
63.7594 40.9319 0.0285609
65.7894 39.3715 0.0296886
67.9325 37.5225 0.028762
65.8926 37.5025 2
63.8994 39.2684 2
63.3335 42.5534 2
62.4338 40.7006 2
61.9728 45.9243 2
61.4572 43.6881 2
63.9601 37.4579 3.97059
62.1546 39.357 3.97148
61.2236 41.9624 3.97258
60.2575 44.7769 3.97365
65.8784 35.667 0.0295149
65.1909 32.1528 0.0282231
64.2875 34.2496 0.028704
62.6008 30.6336 0.0274976
59.3134 15.66 0.0172911
59.1293 18.3447 0.0192776
58.748 20.8433 0.0244025
61.6554 27.0693 0.0280791
60.855 29.1369 0.0273743
59.3364 25.7902 0.0249781
58.2929 23.083 0.0267925
57.9753 24.6568 0.0235243
56.6786 15.7319 0.0181136
54.378 15.9864 0.0185098
53.8105 13.6699 0.0170144
52.1128 8.14992 0.0111515
53.0586 11.0099 0.0145768
64.0931 35.6325 2
62.9361 33.0451 2
60.6219 30.6091 2
57.9426 16.972 2
57.7212 19.4634 2
57.3786 21.8292 2
59.5755 27.9049 2
57.1934 23.9389 2
57.7452 25.7188 2
50.1127 7.28155 2
55.5395 16.9597 2
53.7599 16.967 2
52.9786 15.2501 2
52.1726 12.7867 2
51.2328 10.1179 2
62.191 35.3594 3.97101
60.2992 32.744 3.97222
58.6296 30.072 3.97282
57.2959 27.3748 3.97274
56.6396 18.1447 3.98165
56.2985 25.0954 3.97355
56.3629 20.5102 3.97553
56.1152 22.8609 3.97011
48.0564 6.52512 3.98947
49.3246 9.32654 3.9865
50.4334 11.9858 3.98446
51.3786 14.4867 3.98283
54.4174 17.9089 3.982
52.3627 17.023 3.98085
52.0713 67.0025 0.0100733
52.9541 64.224 0.0132256
60.9977 47.8855 0.0291335
53.6822 61.6307 0.0165335
56.6506 59.4979 0.0186235
54.2621 59.3312 0.0197778
59.717 52.1135 0.0254702
58.0296 49.6262 0.0275054
56.7809 56.9976 0.0244504
57.1275 54.132 0.0240897
51.1684 65.1337 2
52.0467 62.5471 2
55.4836 58.2609 2
52.8357 60.146 2
53.6423 58.4828 2
58.3105 46.8564 2
57.5668 51.7966 2
56.2511 49.5613 2
55.4767 55.8024 2
55.3629 53.39 2
50.3469 63.3878 3.98573
51.2449 60.9444 3.98301
54.2224 57.2752 3.97959
52.3142 58.6443 3.97988
56.7254 44.1918 3.97536
55.4985 47.9047 3.97462
55.0735 51.3921 3.97123
54.0082 54.5508 3.97339
49.3379 65.9262 0.0121108
48.6185 64.1303 2
47.9625 62.4833 3.98497
45.5593 67.1035 0.012162
46.893 64.7434 0.0134312
43.632 67.4749 2
46.382 63.0631 2
45.133 65.2056 2
45.9877 61.596 3.98466
44.7676 63.4637 3.98601
43.3572 65.5149 3.98678
41.6641 67.6935 3.98784
39.7027 70.0281 3.99018
41.8612 69.8814 2
42.1111 72.2082 3.994
43.9741 69.5934 0.00958102
44.377 71.8637 2
44.8159 74.2794 4
46.6094 71.3686 0.00582528
47.2057 73.7222 2
49.554 73.0099 0
48.7844 4.3215 3.99348
50.9542 5.13035 2
51.8506 2.85458 4
53.0643 6.07007 0.00696741
54.0858 3.86728 2
56.25 5.02411 0
61.973 45.9243 0.0270553
63.3335 42.5533 0.0285947
61.4573 43.6881 0.0268779
62.4336 40.7005 0.0281061
63.8994 39.2683 0.02921
65.8927 37.5025 0.0297858
63.9598 37.4579 2
62.1546 39.3571 2
61.2237 41.9624 2
60.2572 44.7769 2
61.9889 37.4456 3.9714
60.2469 39.8506 3.97275
59.0008 42.9246 3.97333
64.0931 35.6325 0.0293163
62.9358 33.0452 0.0286107
60.6219 30.6092 0.0270786
57.9427 16.9729 0.0181612
57.7208 19.4644 0.0209704
57.3779 21.83 0.027109
59.5751 27.9051 0.0278546
57.7454 25.7188 0.023616
57.1931 23.939 0.0268637
55.5398 16.9606 0.0181875
53.7602 16.9679 0.018335
52.9788 15.2511 0.0187531
50.1127 7.28197 0.0108542
52.1727 12.7874 0.0158632
51.2329 10.1185 0.0138765
62.1909 35.3593 2
60.2994 32.7439 2
58.6298 30.0721 2
56.6397 18.1437 2
56.3635 20.5091 2
56.1159 22.8606 2
57.2961 27.3748 2
56.2987 25.0958 2
48.0564 6.52463 2
49.3245 9.32614 2
54.4173 17.9079 2
52.3623 17.0222 2
51.3784 14.4859 2
50.4333 11.9852 2
59.8924 35.1197 3.97196
58.0061 32.2681 3.97385
56.5521 29.3352 3.97316
55.4518 26.5922 3.97585
55.3456 19.1781 3.981
54.9354 24.0502 3.96921
55.0066 21.5517 3.97369
45.9623 5.88013 3.98981
43.3734 7.46982 3.98779
47.3549 8.62046 3.98683
48.6 11.2875 3.98494
49.7144 13.7342 3.98354
50.6345 16.1202 3.98088
53.127 18.6475 3.97955
51.3041 18.0357 3.98578
51.1687 65.1331 0.0124715
52.0469 62.5462 0.0150564
58.3106 46.8564 0.0266962
52.8358 60.1448 0.0183852
55.4834 58.2595 0.0198579
53.6422 58.4814 0.0199521
57.5662 51.7964 0.0254964
56.2509 49.5615 0.0206112
55.476 55.8013 0.0248614
55.3621 53.3894 0.0298182
50.3466 63.3885 2
51.2448 60.9454 2
54.2228 57.2768 2
52.3142 58.6454 2
56.7246 44.1917 2
55.4985 47.9045 2
55.0743 51.3921 2
54.009 54.5527 2
49.5923 61.7532 3.98441
55.6359 41.7132 3.97553
50.568 59.3383 3.98011
52.1877 56.4997 3.9764
54.1882 45.5731 3.97662
53.3422 49.3333 3.97503
52.6714 52.8531 3.96992
48.6187 64.1297 0.0138595
47.9622 62.4837 2
47.3296 61.0188 3.98412
43.6323 67.4744 0.0120579
45.1333 65.205 0.0133423
46.3823 63.0623 0.0145638
41.6639 67.694 2
43.3569 65.5155 2
45.9875 61.5968 2
44.7673 63.4643 2
45.7665 60.6408 3.98379
44.4836 61.8461 3.98471
43.1469 63.7365 3.98588
41.5466 65.6529 3.98666
39.6329 67.7733 3.98764
37.526 70.0532 3.99006
39.7027 70.0286 2
39.8179 72.4053 3.99392
41.8612 69.8809 0.00968749
42.1113 72.2085 2
42.3947 74.6792 4
44.3768 71.8635 0.00588918
44.8159 74.2794 2
47.2057 73.7222 0
43.8515 5.35719 3.99005
46.5704 3.64604 3.99372
48.7847 4.32131 2
49.554 1.99015 4
50.9539 5.13047 0.00676545
51.8506 2.85453 2
54.0858 3.86728 0
60.2575 44.7769 0.0263482
61.2236 41.9624 0.0274152
62.1546 39.357 0.0285213
63.9601 37.4579 0.0294102
61.9889 37.4456 2
60.2467 39.8506 2
59.0003 42.9246 2
59.7518 37.5683 3.97219
57.9953 40.6623 3.97346
55.1066 39.7267 3.975
62.191 35.3594 0.0289854
60.2992 32.744 0.0277776
58.6296 30.072 0.0271784
56.6396 18.1447 0.0183505
56.3629 20.5102 0.0244747
56.1152 22.8609 0.0298907
57.2959 27.3748 0.0272633
56.2985 25.0954 0.0264455
54.4174 17.9089 0.0180004
52.3627 17.023 0.0191513
51.3786 14.4867 0.0171727
48.0564 6.52512 0.0105288
49.3246 9.32654 0.0134958
50.4334 11.9858 0.0155403
59.8921 35.1196 2
45.9623 5.87967 2
43.3735 7.46939 2
58.0064 32.2682 2
56.5536 29.3352 2
55.3459 19.177 2
55.0073 21.5503 2
54.936 24.0503 2
55.4505 26.5929 2
47.3549 8.61992 2
48.5999 11.2872 2
53.127 18.6464 2
51.304 18.0352 2
50.6342 16.1194 2
49.7142 13.7336 2
57.3973 34.7605 3.97464
55.7378 31.5165 3.9744
54.5008 28.3977 3.97621
53.7761 25.4914 3.97416
53.9727 20.1258 3.98075
53.5856 22.7012 3.96976
41.3985 7.0751 3.98807
45.3595 7.99183 3.98711
42.8651 9.41098 3.98628
46.6662 10.6486 3.98508
47.7455 13.0948 3.98364
48.9318 15.3914 3.98258
50.0076 17.6896 3.97965
51.6531 19.3115 3.9881
50.3469 63.3878 0.0142741
51.2449 60.9444 0.01699
56.7254 44.1918 0.0246403
55.4985 47.9047 0.0253828
52.3142 58.6443 0.0201211
54.2224 57.2752 0.0204088
55.0735 51.3921 0.0287686
54.0082 54.5508 0.0266075
49.5921 61.7537 2
55.6355 41.7131 2
50.5679 59.3394 2
52.1883 56.5009 2
54.1916 45.5729 2
53.3431 49.3323 2
52.6726 52.8529 2
48.8496 60.2117 3.98294
52.5407 42.6516 3.97631
49.7908 57.6371 3.97866
50.5958 54.4351 3.97465
51.8088 47.2778 3.97697
51.2168 50.9466 3.9694
48.1626 43.8172 3.9908
47.9625 62.4833 0.0150298
47.3293 61.0193 2
46.6191 59.806 3.98319
41.6641 67.6935 0.0121567
43.3572 65.5149 0.013222
44.7676 63.4637 0.0139888
45.9877 61.596 0.0153437
39.6328 67.7738 2
41.5463 65.6533 2
45.7663 60.6416 2
43.1466 63.7369 2
44.4834 61.8468 2
44.6239 60.3038 3.98416
42.9507 62.095 3.9852
41.6002 63.8302 3.98586
39.6479 65.6212 3.98633
37.5633 67.7557 3.98765
31.6967 65.1399 3.98658
33.3917 67.4932 3.98759
35.3332 69.9633 3.99002
37.526 70.0538 2
37.5095 72.4599 3.99379
39.7027 70.0281 0.00982141
39.818 72.4057 2
39.9526 74.9197 4
42.1111 72.2082 0.00599622
42.3947 74.6792 2
44.8159 74.2794 0
41.7361 4.96637 3.99026
43.8516 5.35677 2
44.3257 3.10933 3.99385
46.5706 3.64582 2
47.2057 1.27793 4
48.7844 4.3215 0.00651964
49.554 1.99013 2
51.8506 2.85458 0
59.0008 42.9246 0.0266737
60.2469 39.8506 0.0272517
61.9889 37.4456 0.0286006
59.7522 37.5683 2
57.9948 40.6623 2
55.1062 39.7266 2
56.8185 37.899 3.97527
49.5852 41.3447 3.98617
53.1427 39.3112 3.97694
39.4418 6.7986 3.9882
59.8924 35.1197 0.0280439
58.0061 32.2681 0.026149
56.5521 29.3352 0.0268352
55.3456 19.1781 0.0189951
55.0066 21.5517 0.0263063
54.9354 24.0502 0.0307934
55.4518 26.5922 0.0241461
53.127 18.6475 0.0204504
51.3041 18.0357 0.01422
50.6345 16.1202 0.0191202
45.9623 5.88013 0.0101871
49.7144 13.7342 0.0164573
47.3549 8.62046 0.0131653
48.6 11.2875 0.0150554
43.3734 7.46982 0.0122113
57.3975 34.7606 2
41.3985 7.07457 2
45.3596 7.99137 2
42.8651 9.41053 2
55.7351 31.5167 2
54.5018 28.3982 2
53.9731 20.1243 2
53.5861 22.6979 2
53.7765 25.4915 2
46.6661 10.6481 2
47.7452 13.0944 2
51.6534 19.311 2
50.0075 17.6889 2
48.9316 15.3906 2
54.892 33.9709 3.97582
53.4923 30.4808 3.97431
52.59 27.1913 3.97618
52.149 24.0871 3.97298
52.3941 21.0477 3.98132
41.0131 9.04417 3.98625
44.7233 9.99156 3.9854
42.4679 10.897 3.98449
46.0049 12.7233 3.98357
47.6818 14.5766 3.98331
48.115 16.9797 3.98008
49.8192 19.5927 3.97628
49.5923 61.7532 0.0155945
50.568 59.3383 0.0198856
55.6359 41.7132 0.0244709
54.1882 45.5731 0.0233792
53.3422 49.3333 0.0249697
52.1877 56.4997 0.0236002
52.6714 52.8531 0.0300837
48.8493 60.2122 2
52.5423 42.6505 2
49.7909 57.6385 2
50.5966 54.4371 2
51.8094 47.2764 2
51.2183 50.9451 2
48.1633 43.8235 2
47.9879 58.7541 3.98193
50.0958 45.2898 3.97513
48.5995 55.9281 3.97973
49.1307 52.6016 3.97382
49.6684 49.0534 3.97233
45.9929 39.8867 3.90075
46.409 42.7028 3.94852
46.4944 45.8726 3.99707
43.8439 41.1881 3.89922
42.0349 42.0305 3.85823
47.3296 61.0188 0.0158801
46.6188 59.8065 2
45.4688 58.8031 3.98368
39.6329 67.7733 0.0123579
41.5466 65.6529 0.0133362
43.1469 63.7365 0.0141224
44.4836 61.8461 0.0152876
45.7665 60.6408 0.0162137
41.6 63.8305 2
37.5633 67.7563 2
39.6477 65.6217 2
44.6236 60.3045 2
42.9505 62.0955 2
41.7538 62.5059 3.98553
42.4818 59.9969 3.98528
39.8937 63.5655 3.98555
37.6423 65.5203 3.98596
35.4632 67.665 3.98758
33.5751 65.3533 3.98627
31.959 63.3139 3.98571
29.8827 64.7308 3.9867
31.6967 65.1404 2
31.3761 67.2029 3.98769
33.3918 67.4938 2
33.1558 69.7566 3.99004
35.3331 69.9639 2
35.1949 72.3743 3.99377
37.526 70.0532 0.00994329
37.5095 72.4602 2
37.5 75 4
39.8179 72.4053 0.00607769
39.9526 74.9197 2
42.3947 74.6792 0
39.6235 4.71351 3.99036
41.7361 4.96589 2
42.062 2.71698 3.99396
43.8515 5.35719 0.00995433
44.3259 3.10909 2
44.8158 0.721173 4
46.5704 3.64604 0.00627567
47.2057 1.27779 2
49.554 1.99015 0
57.9953 40.6623 0.0265439
59.7518 37.5683 0.0278122
55.1066 39.7267 0.0250033
49.5932 41.3482 2
56.8186 37.899 2
53.1422 39.3102 2
53.989 36.6294 3.97732
47.5142 40.4373 3.95221
50.5359 38.5132 3.98255
37.5156 6.66957 3.98817
39.4419 6.79809 2
39.2106 8.68667 3.98652
35.9409 8.48624 3.98676
57.3973 34.7605 0.0253642
55.7378 31.5165 0.0256026
54.5008 28.3977 0.0237859
53.9727 20.1258 0.0192502
53.5856 22.7012 0.0302372
53.7761 25.4914 0.02584
51.6531 19.3115 0.0118973
50.0076 17.6896 0.0203482
48.9318 15.3914 0.0174186
45.3595 7.99183 0.0128878
47.7455 13.0948 0.0163561
46.6662 10.6486 0.014919
41.3985 7.0751 0.0119337
42.8651 9.41098 0.0137184
54.8944 33.9709 2
41.0131 9.04364 2
44.7232 9.99118 2
42.4677 10.8966 2
53.4899 30.4797 2
52.5912 27.1926 2
52.3947 21.0471 2
52.1497 24.0875 2
46.0047 12.7227 2
47.6815 14.576 2
49.8194 19.5914 2
48.1147 16.9787 2
52.4434 32.872 3.97767
51.3195 29.1493 3.97354
50.7946 25.7168 3.97201
49.9437 22.1745 3.97852
40.5687 11.6004 3.9842
43.8576 11.9126 3.98462
45.8032 15.4126 3.98269
47.5053 19.2126 3.97787
46.3291 37.503 3.90783
48.8496 60.2117 0.0170565
49.7908 57.6371 0.0213408
52.5407 42.6516 0.0236893
51.8088 47.2778 0.023034
51.2168 50.9466 0.0305979
50.5958 54.4351 0.0253534
48.1626 43.8172 0.00920044
47.9876 58.7546 2
50.0994 45.2911 2
48.5999 55.9296 2
49.1318 52.6046 2
49.6697 49.0522 2
46.0079 39.8931 2
46.4219 42.7115 2
46.4939 45.8646 2
43.859 41.1963 2
42.0408 42.0349 2
46.8397 57.3579 3.98334
44.595 39.4702 3.88885
42.3963 40.895 3.87724
48.0835 47.2548 3.9785
47.1686 54.2629 3.97975
47.5878 50.7586 3.97549
44.8011 47.4489 3.99923
45.0806 41.9832 3.90729
44.9185 44.6099 3.95254
42.6694 42.7139 3.9
40.9142 42.3785 3.88718
46.6191 59.806 0.0168114
45.4684 58.8039 2
43.8771 57.7289 3.98472
37.5633 67.7557 0.0123472
39.6479 65.6212 0.0136678
41.6002 63.8302 0.0141375
42.9507 62.095 0.014801
44.6239 60.3038 0.0158407
35.4632 67.6656 2
41.7536 62.5063 2
39.8935 63.5659 2
37.6422 65.5208 2
42.4815 59.9976 2
40.6235 61.6651 3.98491
40.4459 58.232 3.98534
37.8369 63.2271 3.9854
35.5729 65.4425 3.98607
33.5751 65.3538 2
31.959 63.3143 2
33.6287 63.3538 3.98536
30.3779 62.8724 3.98591
32.1227 62.0215 3.98554
26.8675 61.5154 3.98498
28.0614 64.1585 3.98641
29.8827 64.7313 2
29.4054 66.7665 3.9878
31.6967 65.1399 0.0134206
31.3762 67.2034 2
31.0129 69.4216 3.99005
33.3917 67.4932 0.0124063
33.1558 69.7571 2
32.8919 72.1485 3.9938
35.3332 69.9633 0.00998378
35.1948 72.3746 2
35.0474 74.9194 4
37.5095 72.4599 0.00620584
37.5 75 2
39.9526 74.9197 0
35.62 6.72048 3.98826
37.5226 4.61294 3.9905
39.6236 4.71306 2
39.7884 2.47342 3.99407
41.7361 4.96637 0.0097375
42.0622 2.71669 2
42.3946 0.32156 4
44.3257 3.10933 0.00615442
44.8159 0.72056 2
47.2057 1.27793 0
49.5852 41.3447 0.0138289
56.8185 37.899 0.0247293
53.1427 39.3112 0.0230575
47.5222 40.4402 2
50.5414 38.5147 2
53.9887 36.6294 2
51.3294 35.5836 3.97023
48.1749 37.7697 3.96949
45.9953 35.14 3.90703
43.8458 33.83 3.89486
42.0334 32.988 3.85629
37.4572 8.52838 3.98646
37.5156 6.66904 2
39.4418 6.7986 0.0118041
39.2106 8.68612 2
38.9756 10.1189 3.98603
35.8974 9.76557 3.98555
34.1492 8.8155 3.98668
35.9409 8.48561 2
54.892 33.9709 0.0241809
53.4923 30.4808 0.0256895
52.59 27.1913 0.0238204
52.3941 21.0477 0.0186769
52.149 24.0871 0.0270156
49.8192 19.5927 0.0237196
48.115 16.9797 0.0199249
47.6818 14.5766 0.0166897
44.7233 9.99156 0.0146037
46.0049 12.7233 0.0164336
41.0131 9.04417 0.0137531
42.4679 10.897 0.0155093
52.4444 32.8711 2
40.5684 11.6 2
43.8574 11.9122 2
51.3252 29.1501 2
50.7957 25.7187 2
49.9442 22.1729 2
45.8027 15.412 2
47.5054 19.2117 2
49.9842 31.4058 3.96793
49.2879 27.4641 3.9773
49.4093 24.3871 3.97847
47.1895 21.9256 3.97534
38.3009 12.7243 3.98477
42.1011 14.2954 3.9835
44.8017 18.4461 3.98291
44.8784 37.515 3.88855
46.3506 37.5087 2
47.9879 58.7541 0.018068
48.5995 55.9281 0.0202692
50.0958 45.2898 0.0248683
49.6684 49.0534 0.0276694
49.1307 52.6016 0.0261754
45.9929 39.8867 0.0992476
46.409 42.7028 0.0514806
46.4944 45.8726 0.00293261
43.8439 41.1881 0.100779
42.0349 42.0305 0.141769
46.8394 57.3587 2
44.6096 39.4773 2
42.3957 40.8948 2
48.0851 47.2548 2
47.1692 54.2652 2
47.5896 50.7605 2
44.8051 47.4266 2
45.0921 41.992 2
44.9316 44.6222 2
42.6905 42.7288 2
40.9168 42.3768 2
45.3991 55.9457 3.98463
42.7381 39.2791 3.89166
40.858 40.8203 3.93518
46.0923 48.9306 3.98317
45.5446 52.5564 3.98077
43.4555 48.4792 4.01093
43.355 46.1809 3.96092
43.6692 43.8036 3.90371
41.1697 43.8903 3.89908
39.3054 42.7252 3.90371
45.4688 58.8031 0.0163188
43.8766 57.7297 2
42.1079 56.3573 3.98692
35.4632 67.665 0.0124192
37.6423 65.5203 0.0140376
39.8937 63.5655 0.0144529
41.7538 62.5059 0.0144672
42.4818 59.9969 0.0147177
35.5728 65.443 2
40.6231 61.6655 2
37.8367 63.2274 2
40.4456 58.2326 2
38.9262 56.5299 3.98938
38.2507 60.3505 3.98538
35.6069 63.2206 3.98526
33.5751 65.3533 0.0137256
31.959 63.3139 0.0142949
33.6287 63.3543 2
30.3779 62.8728 2
32.1226 62.0219 2
28.6803 62.2173 3.98562
33.3455 61.5348 3.98542
31.0656 61.2391 3.98559
27.5662 59.6143 3.98333
23.7888 59.0991 3.9825
25.0329 60.8876 3.98377
26.8676 61.5158 2
26.2279 63.4907 3.98617
28.0616 64.1589 2
27.4619 66.1902 3.98778
29.8827 64.7308 0.0132994
29.4055 66.7671 2
28.9051 68.947 3.9901
31.3761 67.2029 0.0123075
31.0129 69.422 2
30.6142 71.7796 3.99384
33.1558 69.7566 0.0099568
32.8917 72.1488 2
32.6054 74.6784 4
35.1949 72.3743 0.00622529
35.0474 74.9197 2
37.5 75 0
33.7225 6.97493 3.98795
35.4339 4.68331 3.99048
35.6199 6.71991 2
37.5139 2.38604 3.99416
37.5226 4.61249 2
39.6235 4.71351 0.00963664
39.7885 2.47313 2
39.9526 0.0806499 4
42.062 2.71698 0.00603789
42.3947 0.320817 2
44.8158 0.721173 0
44.606 35.5481 3.88766
42.399 34.1185 3.87581
47.5142 40.4373 0.0477906
50.5359 38.5132 0.0174546
53.989 36.6294 0.0226791
48.1818 37.7693 2
51.3326 35.5826 2
46.0056 35.1294 2
43.8634 33.8171 2
42.0395 32.9849 2
48.3472 34.2815 3.98979
45.0783 33.0375 3.90399
42.6709 32.307 3.90003
40.9114 32.6424 3.88751
37.3095 10.6221 3.98527
37.4572 8.52771 2
37.5156 6.66957 0.0118281
39.2106 8.68667 0.0134824
38.9756 10.1183 2
34.7525 10.3708 3.98543
35.8975 9.7649 2
32.3758 9.36183 3.98619
34.1492 8.8148 2
35.9409 8.48624 0.0132354
52.4434 32.872 0.022331
51.3195 29.1493 0.0264555
50.7946 25.7168 0.027986
49.9437 22.1745 0.021479
47.5053 19.2126 0.0221252
45.8032 15.4126 0.0173126
43.8576 11.9126 0.0153779
40.5687 11.6004 0.015796
49.9857 31.4043 2
38.3006 12.7239 2
42.1005 14.295 2
49.2888 27.466 2
49.4103 24.3862 2
47.1904 21.9272 2
44.8017 18.4456 2
47.7941 29.5551 3.98217
47.1089 25.1179 3.98172
44.292 21.2931 3.98234
36.5804 12.9204 3.98426
38.6803 14.7921 3.98395
41.75 17.8219 3.98159
42.891 37.4971 3.88971
44.9025 37.5133 2
46.3291 37.503 0.0921747
46.8397 57.3579 0.0166593
47.1686 54.2629 0.0202488
48.0835 47.2548 0.0214975
47.5878 50.7586 0.0245101
44.595 39.4702 0.111147
45.0806 41.9832 0.0927052
44.9185 44.6099 0.047461
44.8011 47.4489 0.000771012
42.6694 42.7139 0.0999988
42.3963 40.895 0.122764
40.9142 42.3785 0.112823
45.3988 55.9468 2
42.7423 39.2775 2
40.8566 40.8173 2
46.0937 48.9323 2
45.5463 52.5589 2
43.4575 48.5019 2
43.3784 46.1956 2
43.6845 43.8136 2
41.1855 43.8963 2
39.3072 42.7217 2
43.7379 54.4589 3.99041
40.9646 39.1828 3.96205
39.2165 40.9136 3.96158
43.706 50.5351 3.99463
41.9655 47.716 3.98519
41.8722 45.2107 3.90394
39.4144 44.6286 3.90849
37.4927 42.8546 3.90913
43.8771 57.7289 0.0152828
42.1073 56.3578 2
40.4204 54.9689 3.98785
35.5729 65.4425 0.0139313
37.8369 63.2271 0.0145983
40.6235 61.6651 0.0150883
40.4459 58.232 0.0146566
35.6068 63.221 2
38.2503 60.3506 2
38.9257 56.5315 2
38.0001 55.2894 3.98775
36.9349 57.6578 3.98635
35.3634 60.9347 3.98551
33.6287 63.3538 0.0146416
30.3779 62.8724 0.01409
32.1227 62.0215 0.0144623
33.3454 61.5352 2
28.6804 62.2176 2
31.0656 61.2394 2
29.4016 60.3083 3.98497
32.3551 59.7684 3.98543
28.0185 58.3941 3.98392
27.5663 59.6146 2
25.3757 58.6122 3.98099
22.7517 58.2567 3.97819
23.3983 60.3661 3.98188
23.7887 59.0997 2
25.033 60.8881 2
24.4304 62.7827 3.98552
26.8675 61.5154 0.0150174
26.2281 63.4911 2
25.5459 65.5001 3.9878
28.0614 64.1585 0.0135911
27.462 66.1907 2
26.8346 68.3353 3.99006
29.4054 66.7665 0.0121972
28.905 68.9475 2
28.3693 71.2647 3.99389
31.0129 69.4216 0.00995127
30.614 71.7798 2
30.1842 74.2788 4
32.8919 72.1485 0.00620436
32.6053 74.6792 2
35.0474 74.9194 0
31.7867 7.41464 3.98778
33.3457 4.92241 3.99041
33.7224 6.97433 2
35.2441 2.46219 3.99414
35.4339 4.68282 2
35.62 6.72048 0.0117429
37.5 0 4
37.514 2.38574 2
37.5226 4.61294 0.00949636
39.7884 2.47342 0.00593142
39.9526 0.0802889 2
42.3946 0.32156 0
42.752 35.7233 3.88982
44.6192 35.5428 2
40.8613 34.1923 3.93483
42.3997 34.1189 2
48.1749 37.7697 0.0305096
51.3294 35.5836 0.0297688
45.9953 35.14 0.0929679
43.8458 33.83 0.105141
42.0334 32.988 0.143713
48.3531 34.2764 2
45.0907 33.0275 2
42.6888 32.2957 2
40.9113 32.643 2
46.3199 31.5569 3.97186
43.6672 31.2252 3.90389
41.1781 31.1281 3.89557
39.3033 32.282 3.90388
35.6906 11.7657 3.98429
37.3096 10.6214 2
37.4572 8.52838 0.0135417
38.9756 10.1189 0.0139742
33.0962 11.207 3.9843
34.7525 10.37 2
35.8974 9.76557 0.0144476
30.4804 10.0098 3.98554
32.3757 9.36111 2
34.1492 8.8155 0.0133203
49.9842 31.4058 0.0320696
49.2879 27.4641 0.0226957
49.4093 24.3871 0.0215275
47.1895 21.9256 0.0246636
44.8017 18.4461 0.0170941
42.1011 14.2954 0.0165013
38.3009 12.7243 0.0152315
36.5801 12.9198 2
47.7942 29.5518 2
38.6797 14.7918 2
41.7496 17.8212 2
47.1106 25.1202 2
44.2929 21.2923 2
45.564 27.6509 4.00119
43.8077 24.0133 3.99806
41.3425 20.6969 3.98156
35.7701 14.7442 3.98372
38.6806 17.576 3.98276
41.0105 37.4884 3.97077
42.8983 37.4982 2
44.8784 37.515 0.111448
45.3991 55.9457 0.0153675
45.5446 52.5564 0.0192308
46.0923 48.9306 0.0168339
42.7381 39.2791 0.108338
43.6692 43.8036 0.0962948
43.355 46.1809 0.039084
43.4555 48.4792 -0.0109281
41.1697 43.8903 0.100915
40.858 40.8203 0.0648171
39.3054 42.7252 0.0962943
43.7376 54.4605 2
40.9648 39.181 2
39.2147 40.909 2
43.7072 50.5439 2
41.969 47.7296 2
41.8931 45.2206 2
37.4942 42.8525 2
39.4317 44.6309 2
41.8836 53.0365 3.99739
39.2188 39.1836 3.97796
37.4935 40.9639 3.97032
35.6862 42.7244 3.90405
40.9426 49.7675 4.00467
39.7998 46.112 3.89279
37.4924 44.8806 3.90911
42.1079 56.3573 0.0130817
40.4197 54.9693 2
38.7301 53.9027 3.98959
35.6069 63.2206 0.0147395
38.2507 60.3505 0.0146235
38.9262 56.5299 0.010619
35.3632 60.9349 2
36.9343 57.6576 2
37.999 55.2899 2
36.3186 55.423 3.9906
34.4869 58.5488 3.98594
33.3455 61.5348 0.0145813
28.6803 62.2173 0.0143755
31.0656 61.2391 0.0144095
32.3551 59.7686 2
29.4017 60.3085 2
30.294 57.8419 3.98701
28.0185 58.3944 2
26.9381 56.8428 3.98082
27.5662 59.6143 0.0166675
25.3756 58.6128 2
23.8318 56.8216 3.97581
21.3273 57.4146 3.97746
21.9902 59.6374 3.98146
22.7515 58.2575 2
22.734 62.0335 3.98418
23.3983 60.3668 2
23.7888 59.0991 0.0175006
25.0329 60.8876 0.0162295
24.4305 62.7833 2
23.6798 64.7182 3.98735
26.2279 63.4907 0.0138254
25.546 65.5005 2
24.8068 67.5963 3.99002
27.4619 66.1902 0.01222
26.8346 68.3357 2
26.1645 70.6055 3.9939
28.9051 68.947 0.00990063
28.369 71.265 2
27.7943 73.7221 4
30.6142 71.7796 0.00615525
30.1841 74.2794 2
32.6054 74.6784 0
29.8092 7.98776 3.98733
31.2508 5.32957 3.99013
31.7867 7.41391 2
32.9798 2.7003 3.99407
33.3457 4.92186 2
33.7225 6.97493 0.012046
35.0474 0.080333 4
35.2441 2.46188 2
35.4339 4.68331 0.00951956
37.5 0 2
37.5139 2.38604 0.00583723
39.9526 0.0806499 0
40.9711 35.8055 3.96266
42.7549 35.7253 2
44.606 35.5481 0.112344
28.5411 10.6849 3.98556
39.2165 34.0967 3.96088
40.8603 34.1958 2
42.399 34.1185 0.124185
48.3472 34.2815 0.0102082
45.0783 33.0375 0.0960113
42.6709 32.307 0.0999719
40.9114 32.6424 0.11249
46.3332 31.5512 2
43.6762 31.2145 2
41.1942 31.118 2
39.3044 32.2851 2
44.4044 29.7374 3.95865
41.8856 29.8101 3.90683
39.4247 30.3792 3.9094
37.4894 32.1473 3.90976
34.0903 12.9231 3.98375
35.6905 11.7649 2
37.3095 10.6221 0.0147297
31.184 11.975 3.98467
33.0962 11.2062 2
34.7525 10.3708 0.01457
30.4803 10.0089 2
32.3758 9.36183 0.013811
47.7941 29.5551 0.0178294
47.1089 25.1179 0.0182792
36.5804 12.9204 0.0157379
44.292 21.2931 0.0176551
41.75 17.8219 0.0184137
38.6803 14.7921 0.0160457
35.7696 14.7437 2
45.5641 27.6453 2
38.68 17.5754 2
41.3426 20.6951 2
43.8099 24.017 2
33.6053 15.8603 3.98346
43.073 26.4842 4.00223
40.9202 23.2646 3.99098
38.4219 20.3021 3.98369
35.8466 17.4899 3.98408
39.2268 37.4875 3.9832
41.0093 37.4884 2
42.891 37.4971 0.110295
43.7379 54.4589 0.00959415
43.706 50.5351 0.00536932
40.9646 39.1828 0.0379505
41.8722 45.2107 0.0960605
41.9655 47.716 0.0148076
39.4144 44.6286 0.0915079
39.2165 40.9136 0.0384176
37.4927 42.8546 0.0908687
41.8829 53.0381 2
39.2193 39.1823 2
37.4938 40.9596 2
40.9438 49.7717 2
35.6844 42.7221 2
39.8218 46.128 2
37.4906 44.8774 2
39.8294 51.9579 3.99948
37.4917 39.1991 3.96955
35.7718 40.9191 3.96117
34.0754 42.3718 3.88746
35.5551 44.6301 3.90647
38.7327 48.7695 3.99707
37.4906 46.4376 3.89287
40.4204 54.9689 0.0121469
38.7288 53.9027 2
36.7199 53.2617 4.00178
35.3634 60.9347 0.0144869
36.9349 57.6578 0.0136496
38.0001 55.2894 0.0122533
34.4866 58.5487 2
36.3177 55.4221 2
33.2219 55.5368 3.98758
32.3551 59.7684 0.0145724
29.4016 60.3083 0.0150261
30.2941 57.8421 2
28.6799 55.3346 3.98088
28.0185 58.3941 0.0160838
26.9379 56.8432 2
25.2993 55.1598 3.97674
21.7976 55.3609 3.97349
25.3757 58.6122 0.0190112
23.8315 56.8223 2
20.2111 57.0437 3.97994
20.6405 58.7946 3.98011
21.3271 57.4153 2
21.164 61.1825 3.98318
21.9902 59.6382 2
22.7517 58.2567 0.0218107
21.8931 63.8459 3.98659
22.7341 62.0341 2
23.3983 60.3661 0.0181193
24.4304 62.7827 0.0144785
23.68 64.7187 2
22.835 66.7398 3.9899
25.5459 65.5001 0.0122035
24.8068 67.5967 2
24.0087 69.8066 3.99383
26.8346 68.3353 0.00993559
26.1642 70.6057 2
25.446 73.0099 4
28.3693 71.2647 0.00611102
27.7943 73.7222 2
30.1842 74.2788 0
27.8189 8.64732 3.98704
29.1526 5.87528 3.98982
29.809 7.98699 2
30.725 3.09747 3.99388
31.2507 5.32895 2
31.7867 7.41464 0.0122224
32.6053 0.320823 4
32.9798 2.69998 2
33.3457 4.92241 0.00959124
35.0474 0.0802903 2
35.2441 2.46219 0.00586127
37.5 0 0
39.2263 35.8035 3.97906
40.9708 35.8079 2
42.752 35.7233 0.110175
28.5411 10.6842 2
26.6199 11.3799 3.98534
29.2228 12.6313 3.98494
37.4915 34.0411 3.97016
39.2147 34.1003 2
40.8613 34.1923 0.0651668
46.3199 31.5569 0.0281406
43.6672 31.2252 0.0961076
41.1781 31.1281 0.104432
39.3033 32.282 0.0961241
44.4208 29.7259 2
41.9065 29.7963 2
39.4393 30.3754 2
37.4901 32.1494 2
42.3525 28.3731 3.94517
39.8369 28.8968 3.90381
37.4978 30.1145 3.90915
35.6803 32.2717 3.90279
31.9115 14.4673 3.98411
34.0901 12.9223 2
35.6906 11.7657 0.0157129
31.1841 11.9742 2
33.0962 11.207 0.0156954
30.4804 10.0098 0.0144639
45.564 27.6509 -0.00119442
43.8077 24.0133 0.001937
35.7701 14.7442 0.0162809
41.3425 20.6969 0.0184412
38.6806 17.576 0.0172369
33.6049 15.8601 2
35.846 17.4896 2
43.0746 26.4815 2
38.4213 20.3013 2
40.9213 23.2602 2
33.5475 17.3674 3.98516
40.4493 25.6051 4.01286
38.0773 22.8276 3.99204
35.5824 20.0542 3.98536
37.4943 37.4948 3.97075
39.2259 37.4866 2
41.0105 37.4884 0.0292297
41.8836 53.0365 0.00260847
40.9426 49.7675 -0.00466944
39.2188 39.1836 0.0220366
39.7998 46.112 0.107207
37.4924 44.8806 0.0908915
37.4935 40.9639 0.0296823
35.6862 42.7244 0.0959481
39.829 51.9597 2
37.4926 39.1967 2
35.7743 40.9162 2
38.7305 48.7967 2
34.0747 42.371 2
35.5444 44.6367 2
37.4877 46.4584 2
37.672 51.0612 4.01136
35.7697 39.1961 3.97892
34.1348 40.8227 3.93505
32.9517 42.0228 3.85733
33.8019 43.8809 3.89633
35.1627 46.1054 3.90047
36.8623 48.4212 3.98412
38.7301 53.9027 0.0104149
36.7192 53.26 2
34.3575 52.5163 3.98946
34.4869 58.5488 0.0140584
36.3186 55.423 0.00939616
33.2217 55.536 2
30.508 53.4296 3.98264
30.294 57.8419 0.0129874
28.6797 55.3354 2
26.8668 53.4512 3.97536
26.9381 56.8428 0.0191771
25.2991 55.1606 2
23.5576 53.4981 3.97238
20.452 53.2371 3.97006
19.9222 55.8462 3.9778
21.7973 55.3614 2
23.8318 56.8216 0.0241901
19.4323 57.9052 3.97927
20.2109 57.0443 2
19.7031 60.2158 3.9819
20.6404 58.7954 2
21.3273 57.4146 0.0225433
20.2055 62.8667 3.98522
21.164 61.1833 2
21.9902 59.6374 0.0185444
20.9365 65.7688 3.98956
21.8933 63.8465 2
22.734 62.0335 0.0158188
23.6798 64.7182 0.0126476
22.8351 66.7403 2
21.9112 68.8737 3.99372
24.8068 67.5963 0.00997676
24.0084 69.8067 2
23.1494 72.1454 4
26.1645 70.6055 0.00610262
25.446 73.0099 2
27.7943 73.7221 0
25.858 9.3752 3.98677
27.0673 6.53932 3.98947
27.8188 8.64656 2
28.4871 3.64338 3.99371
29.1525 5.87464 2
29.8092 7.98776 0.0126714
30.1841 0.720592 4
30.7249 3.09715 2
31.2508 5.32957 0.00986896
32.6053 0.320817 2
32.9798 2.7003 0.00592903
35.0474 0.080333 0
37.4959 35.7961 3.96961
39.2254 35.8033 2
40.9711 35.8055 0.0373422
24.7747 12.0627 3.9855
23.7489 14.3466 3.98443
28.5411 10.6849 0.0144381
26.6201 11.3794 2
29.2229 12.6304 2
27.289 13.3639 3.98472
29.7774 14.1896 3.98396
35.7721 34.0813 3.96091
37.4914 34.045 2
39.2165 34.0967 0.0391235
37.4894 32.1473 0.0902359
44.4044 29.7374 0.0413465
41.8856 29.8101 0.0931718
39.4247 30.3792 0.090602
42.3698 28.3605 2
39.8541 28.8793 2
37.4997 30.1172 2
35.6798 32.2739 2
40.0387 27.5159 3.9476
37.5098 28.5571 3.90024
35.5608 30.3691 3.90951
34.0761 32.6202 3.88641
30.9229 16.8222 3.98416
31.9115 14.4667 2
34.0903 12.9231 0.0162514
31.184 11.975 0.0153251
43.073 26.4842 -0.00222524
40.9202 23.2646 0.00901749
33.6053 15.8603 0.0165357
35.8466 17.4899 0.0159233
38.4219 20.3021 0.0163124
33.5469 17.3677 2
35.5816 20.0533 2
40.4474 25.6019 2
38.0779 22.8273 2
32.8604 19.7706 3.98604
37.7994 25.1334 4.02436
35.2011 22.6084 3.98805
35.7649 37.498 3.98241
37.4945 37.4939 2
39.2268 37.4875 0.0167995
39.8294 51.9579 0.000515671
38.7327 48.7695 0.00292792
37.4917 39.1991 0.0304546
37.4906 46.4376 0.107126
35.5551 44.6301 0.0935332
35.7718 40.9191 0.0388332
34.0754 42.3718 0.112542
37.6722 51.069 2
35.7712 39.195 2
34.1366 40.8194 2
36.8608 48.4348 2
32.9457 42.0258 2
33.7904 43.8907 2
35.1412 46.1193 2
35.4455 50.1961 4.015
34.0306 39.1912 3.96213
32.5856 40.8916 3.87638
32.3101 42.7031 3.89947
33.1199 45.1969 3.90645
34.2685 47.4825 3.95576
36.7199 53.2617 -0.0017839
34.3572 52.516 2
31.9834 51.2361 3.99262
33.2219 55.5368 0.0124202
30.5079 53.4309 2
28.4097 51.632 3.97943
28.6799 55.3346 0.0191161
26.8667 53.4514 2
25.0577 51.7714 3.97022
25.2993 55.1598 0.0232644
23.5575 53.4977 2
21.9447 51.82 3.96908
19.1835 51.6471 3.9703
18.909 54.3214 3.97251
20.4518 53.2371 2
18.4392 56.7367 3.97955
19.9219 55.8467 2
21.7976 55.3609 0.0265125
18.3646 59.1221 3.9796
19.4322 57.9058 2
20.2111 57.0437 0.0200552
18.6163 61.7739 3.98376
19.7031 60.2166 2
20.6405 58.7946 0.0198909
19.1254 64.6795 3.98871
20.2056 62.8676 2
21.164 61.1825 0.0168204
19.8852 67.8102 3.99349
20.9366 65.7693 2
21.8931 63.8459 0.0134133
22.835 66.7398 0.0101036
21.9109 68.8738 2
20.9142 71.1327 4
24.0087 69.8066 0.00616742
23.1494 72.1455 2
25.446 73.0099 0
23.0941 12.7774 3.98503
23.9705 10.1616 3.9867
25.0211 7.30934 3.98931
25.8581 9.37457 2
26.2789 4.32757 3.99352
27.0672 6.53867 2
27.8189 8.64732 0.0129561
27.7943 1.27781 4
28.4869 3.64309 2
29.1526 5.87528 0.0101824
30.1841 0.720551 2
30.725 3.09747 0.00611702
32.6053 0.320823 0
35.7682 35.8022 3.97949
37.4958 35.797 2
39.2263 35.8035 0.0209367
24.775 12.0621 2
23.7492 14.3464 2
22.4774 15.0229 3.98391
25.3551 13.8958 3.98426
24.0218 15.6082 3.98343
26.6199 11.3799 0.0146598
29.2228 12.6313 0.0150591
27.2892 13.3637 2
29.7775 14.1888 2
28.3532 15.9633 3.98429
34.141 34.176 3.93387
35.7739 34.0846 2
37.4915 34.0411 0.0298387
35.6803 32.2717 0.0972053
37.4978 30.1145 0.09085
42.3525 28.3731 0.0548302
39.8369 28.8968 0.0961861
40.0489 27.5036 2
37.5113 28.5392 2
35.5473 30.3656 2
34.0777 32.6202 2
37.6209 27.1851 3.95435
35.1643 28.8775 3.90157
33.8006 31.1126 3.89671
32.9583 32.9691 3.85779
30.2042 19.3234 3.98604
30.9228 16.822 2
31.9115 14.4673 0.0158932
40.4493 25.6051 -0.012859
38.0773 22.8276 0.00795828
33.5475 17.3674 0.0148392
35.5824 20.0542 0.014641
32.8591 19.7714 2
35.1998 22.6049 2
37.7964 25.1351 2
32.3059 22.3807 3.9873
34.9602 25.1322 4.01492
33.985 37.497 3.96861
35.7662 37.4972 2
37.4943 37.4948 0.0292525
37.672 51.0612 -0.0113595
36.8623 48.4212 0.0158761
35.7697 39.1961 0.0210815
35.1627 46.1054 0.0995331
33.8019 43.8809 0.103669
34.1348 40.8227 0.0649488
32.9517 42.0228 0.142668
35.4442 50.2023 2
34.0331 39.1892 2
32.585 40.8899 2
34.261 47.513 2
32.2932 42.7123 2
33.0981 45.2162 2
33.2152 49.1901 4.00665
32.2375 39.281 3.89085
31.1352 41.1772 3.89648
31.3194 43.7895 3.90272
32.2277 46.4072 3.95429
34.3575 52.5163 0.0105423
31.983 51.2391 2
29.8271 49.7461 3.98626
30.508 53.4296 0.017356
28.4096 51.6289 2
26.4788 50.0116 3.97055
26.8668 53.4512 0.0246352
25.0579 51.7697 2
23.3153 50.2143 3.97355
23.5576 53.4981 0.0276206
21.9449 51.8196 2
20.444 50.3288 3.9708
17.9718 50.3401 3.97264
17.8198 52.8028 3.97133
19.1837 51.6472 2
17.427 55.3521 3.97599
18.9088 54.3218 2
20.452 53.2371 0.0299361
17.1292 57.884 3.98027
18.439 56.7373 2
19.9222 55.8462 0.0222039
17.1335 60.5567 3.98178
18.3645 59.1228 2
19.4323 57.9052 0.0207284
17.4059 63.4719 3.98719
18.6163 61.7748 2
19.7031 60.2158 0.0180968
17.9413 66.6186 3.99318
19.1254 64.6801 2
20.2055 62.8667 0.0147819
18.75 69.9759 4
19.8849 67.8103 2
20.9365 65.7688 0.0104352
21.9112 68.8737 0.00628298
20.9142 71.1327 2
23.1494 72.1454 0
21.5848 13.5973 3.98456
22.1886 11.0208 3.98627
23.0944 12.7773 2
23.039 8.17469 3.98919
23.9707 10.1613 2
24.1165 5.14225 3.99338
25.0209 7.30885 2
25.858 9.3752 0.0132279
25.446 1.99014 4
26.2785 4.32735 2
27.0673 6.53932 0.0105307
27.7943 1.27778 2
28.4871 3.64338 0.00629028
30.1841 0.720592 0
34.0266 35.8038 3.96049
35.7689 35.802 2
37.4959 35.7961 0.0303868
21.3024 15.8188 3.98299
24.7747 12.0627 0.0145026
23.7489 14.3466 0.0155749
25.3554 13.8954 2
22.4779 15.023 2
24.0223 15.6081 2
23.2608 16.2395 3.98309
25.377 16.0758 3.98416
27.289 13.3639 0.0152759
29.7774 14.1896 0.0160402
28.3536 15.963 2
27.4357 18.7842 3.98511
32.6031 34.1021 3.87756
34.145 34.1778 2
35.7721 34.0813 0.0390913
34.0761 32.6202 0.11359
35.5608 30.3691 0.0904933
37.5098 28.5571 0.0997562
40.0387 27.5159 0.0524047
37.6185 27.1533 2
32.9552 32.9669 2
35.148 28.8578 2
33.7851 31.095 2
35.0683 27.3172 3.96317
33.1096 29.7965 3.90134
32.308 32.2786 3.89691
29.568 21.9164 3.9936
30.2037 19.324 2
30.9229 16.8222 0.015835
37.7994 25.1334 -0.024358
35.2011 22.6084 0.0119469
32.8604 19.7706 0.0139557
32.3045 22.3823 2
34.968 25.1343 2
31.6677 25.5959 3.99876
32.0981 37.5005 3.88993
33.9876 37.4969 2
35.7649 37.498 0.0175901
35.4455 50.1961 -0.0150046
34.2685 47.4825 0.0442424
34.0306 39.1912 0.0378713
33.1199 45.1969 0.0935469
32.3101 42.7031 0.100527
32.5856 40.8916 0.123619
33.2138 49.1754 2
32.2344 39.2778 2
31.1181 41.1842 2
32.2088 46.4227 2
31.3063 43.8006 2
31.1076 48.0138 3.99811
30.378 39.4535 3.8879
29.9041 41.9746 3.90171
30.3895 44.9825 3.95592
31.9834 51.2361 0.00738335
29.8269 49.741 2
27.8337 48.2097 3.97548
28.4097 51.632 0.0205727
26.4796 50.0092 2
24.6152 48.4944 3.97927
25.0577 51.7714 0.0297834
23.3158 50.2135 2
21.6265 48.8093 3.97358
21.9447 51.82 0.0309234
20.4445 50.3287 2
19.0136 49.1047 3.97563
16.88 49.3398 3.97559
16.7608 51.4158 3.97239
17.9724 50.3399 2
16.3789 53.88 3.97378
17.8198 52.8031 2
19.1835 51.6471 0.0297033
15.9697 56.4851 3.9785
17.4267 55.3526 2
18.909 54.3214 0.0274859
15.7463 59.2173 3.98129
17.1291 57.8847 2
18.4392 56.7367 0.0204465
15.7864 62.142 3.98506
17.1335 60.5576 2
18.3646 59.1221 0.020396
16.0879 65.3011 3.99264
17.4058 63.4726 2
18.6163 61.7739 0.016237
16.6661 68.6801 4
17.941 66.6186 2
19.1254 64.6795 0.0112902
18.75 69.9759 2
19.8852 67.8102 0.00650966
20.9142 71.1327 0
20.2167 14.5863 3.98375
21.5852 13.5974 2
20.5278 11.9904 3.98564
21.1421 9.1444 3.98911
22.1889 11.0206 2
23.0941 12.7774 0.0149715
22.0155 6.08124 3.99327
23.039 8.17436 2
23.9705 10.1616 0.0133024
23.1494 2.85457 4
24.1161 5.14214 2
25.0211 7.30934 0.0106875
25.446 1.99012 2
26.2789 4.32757 0.00647853
27.7943 1.27781 0
32.2492 35.7151 3.89108
34.029 35.8055 2
35.7682 35.8022 0.0205073
21.3027 15.8183 2
20.2995 16.9533 3.98299
22.0939 16.624 3.98177
25.3551 13.8958 0.0157361
22.4774 15.0229 0.016089
24.0218 15.6082 0.016567
25.3775 16.0756 2
23.2613 16.2396 2
24.2 18.4383 3.98138
27.0052 21.4414 3.98635
28.3532 15.9633 0.0157062
27.4356 18.7841 2
31.1498 33.8164 3.89557
32.6024 34.1057 2
34.141 34.176 0.0661252
32.9583 32.9691 0.142207
33.8006 31.1126 0.103293
35.1643 28.8775 0.0984335
37.6209 27.1851 0.045646
35.0521 27.2979 2
32.3 32.2808 2
33.091 29.7739 2
32.5139 28.0508 3.97727
31.3056 31.2071 3.90305
28.7801 24.382 3.98762
29.5665 21.9182 2
30.2042 19.3234 0.0139571
34.9602 25.1322 -0.0149204
32.3059 22.3807 0.0127012
31.672 25.5839 2
29.6141 27.2893 3.97255
30.1012 37.4869 3.88807
32.0956 37.4989 2
33.985 37.497 0.0313866
33.2152 49.1901 -0.00665216
32.2277 46.4072 0.0457125
32.2375 39.281 0.109153
31.3194 43.7895 0.097282
31.1352 41.1772 0.103519
31.1089 48.0132 2
30.3629 39.4633 2
29.892 41.9843 2
30.3713 44.9967 2
29.1346 46.5983 3.99748
28.9861 39.8628 3.90269
28.6329 43.1889 3.95939
29.8271 49.7461 0.0137365
27.8343 48.2032 2
25.9045 46.6896 3.97804
26.4788 50.0116 0.0294528
24.6159 48.4933 2
22.7746 47.1049 3.97883
23.3153 50.2143 0.0264519
21.6271 48.8089 2
19.9607 47.6351 3.97719
20.444 50.3288 0.0291955
19.0144 49.1044 2
17.6568 48.188 3.97554
16.132 48.6903 3.97697
16.8806 49.34 2
15.8394 50.1772 3.97436
15.3689 52.4227 3.97332
16.7611 51.4159 2
17.9718 50.3401 0.027364
14.8613 54.9846 3.97606
16.3788 53.8804 2
17.8198 52.8028 0.0286675
14.4548 57.7459 3.98043
15.9695 56.4858 2
17.427 55.3521 0.0240113
14.2643 60.6962 3.98383
15.7463 59.2181 2
17.1292 57.884 0.0197309
14.3323 63.8603 3.99171
15.7863 62.1427 2
17.1335 60.5567 0.0182192
14.6715 67.2507 4
16.0876 65.301 2
17.4059 63.4719 0.0128069
16.6661 68.6801 2
17.9413 66.6186 0.00681983
18.75 69.9759 0
18.9306 15.7739 3.98277
20.217 14.5859 2
18.9775 13.1014 3.9848
21.5848 13.5973 0.0154447
20.5282 11.9903 2
19.3414 10.232 3.9889
19.99 7.1459 3.99322
21.1421 9.14411 2
22.1886 11.0208 0.0137316
20.9142 3.86727 4
22.0151 6.08126 2
23.039 8.17469 0.0108079
23.1494 2.85451 2
24.1165 5.14225 0.00661641
25.446 1.99014 0
30.3922 35.5411 3.89114
32.2472 35.7169 2
34.0266 35.8038 0.0395142
21.3024 15.8188 0.0170074
22.0942 16.6237 2
20.2996 16.9525 2
19.2381 18.4004 3.98183
21.778 17.8404 3.98215
25.377 16.0758 0.0158403
23.2608 16.2395 0.0169077
24.2001 18.4384 2
22.2715 19.8821 3.97904
24.5824 21.31 3.98243
26.4013 23.7067 3.98029
27.0051 21.442 2
27.4357 18.7842 0.0148938
29.9112 33.0133 3.90158
31.1322 33.7956 2
32.6031 34.1021 0.12244
32.308 32.2786 0.103087
33.1096 29.7965 0.0986604
35.0683 27.3172 0.0368342
32.5049 28.0432 2
31.3075 31.2041 2
30.0794 29.5132 3.96935
27.8536 26.5238 3.97237
28.7814 24.388 2
29.568 21.9164 0.0063957
31.6677 25.5959 0.00124488
29.6091 27.2519 2
28.6488 37.4997 3.90794
30.0845 37.4909 2
32.0981 37.5005 0.110069
31.1076 48.0138 0.00189175
30.3895 44.9825 0.0440751
30.378 39.4535 0.1121
29.9041 41.9746 0.0982914
29.1362 46.615 2
28.973 39.8717 2
28.6183 43.1989 2
27.2268 44.8511 3.98828
26.7608 40.6189 3.98464
27.8337 48.2097 0.0245226
25.9041 46.6913 2
23.9617 45.2358 3.97576
24.6152 48.4944 0.0207285
22.7752 47.1043 2
20.9076 45.9158 3.97774
21.6265 48.8093 0.0264182
19.9617 47.6347 2
18.3047 46.748 3.97625
19.0136 49.1047 0.0243712
17.6574 48.1884 2
16.3234 47.7205 3.97496
16.1325 48.6906 2
15.1871 49.021 3.97522
16.88 49.3398 0.0244128
15.8399 50.1774 2
14.4837 50.9899 3.97395
13.8238 53.4393 3.97493
15.3691 52.423 2
16.7608 51.4158 0.0276123
13.2498 56.1726 3.97861
14.8611 54.9853 2
16.3789 53.88 0.0262241
12.8464 59.1296 3.98347
14.4547 57.7467 2
15.9697 56.4851 0.0214975
12.6778 62.3028 3.99025
14.2642 60.6967 2
15.7463 59.2173 0.0187148
12.7746 65.6939 4
14.3319 63.86 2
15.7864 62.142 0.0149412
14.6714 67.2507 2
16.0879 65.3011 0.00736384
16.6661 68.6801 0
17.6643 17.1497 3.9818
18.9306 15.7733 2
17.5091 14.3663 3.98365
20.2167 14.5863 0.0162493
18.9778 13.1009 2
17.6372 11.451 3.98802
20.5278 11.9904 0.014357
19.3417 10.2317 2
18.0501 8.33874 3.99318
18.75 5.0241 4
19.9896 7.14602 2
21.1421 9.1444 0.0108924
20.9142 3.86727 2
22.0155 6.08124 0.00673134
23.1494 2.85457 0
28.9908 35.1108 3.90204
30.3752 35.5343 2
32.2492 35.7151 0.108915
22.0939 16.624 0.0182343
20.2995 16.9533 0.0170138
21.7781 17.8397 2
19.2382 18.3996 2
17.9738 19.9336 3.97985
20.8702 19.3689 3.98119
24.2 18.4383 0.0186221
22.2717 19.8814 2
24.5827 21.3109 2
22.3476 21.7083 3.98101
24.6815 23.1554 3.97879
25.4373 25.9347 3.96926
26.4031 23.7064 2
27.0052 21.4414 0.0136482
28.2892 32.2907 3.9484
29.8997 33.0108 2
31.1498 33.8164 0.104426
31.3056 31.2071 0.0969542
32.5139 28.0508 0.0227335
30.058 29.4999 2
26.9872 29.1168 3.99057
27.8502 26.5215 2
28.7801 24.382 0.0123835
29.6141 27.2893 0.0274529
26.8762 37.3595 3.96391
28.634 37.4945 2
30.1012 37.4869 0.111925
29.1346 46.5983 0.00251939
28.6329 43.1889 0.0406087
28.9861 39.8628 0.0973144
27.2278 44.8554 2
26.7521 40.6297 2
25.2256 43.1891 3.97197
24.0057 39.4302 3.97368
25.9045 46.6896 0.0219624
23.9564 45.2373 2
21.8692 43.9675 3.97811
22.7746 47.1049 0.0211709
20.9097 45.9151 2
18.9581 44.9806 3.97614
19.9607 47.6351 0.0228106
18.3054 46.7485 2
16.6121 46.2191 3.97335
17.6568 48.188 0.0244578
16.3239 47.7208 2
14.9178 47.675 3.97367
16.132 48.6903 0.0230281
15.1876 49.0213 2
13.7828 49.5497 3.97394
15.8394 50.1772 0.0256368
14.484 50.9902 2
12.8915 51.8771 3.97459
12.1377 54.5299 3.97725
13.8239 53.4398 2
15.3689 52.4227 0.0266782
11.5309 57.4611 3.98226
13.2496 56.1734 2
14.8613 54.9846 0.0239392
11.1323 60.6287 3.989
12.8463 59.1301 2
14.4548 57.7459 0.0195747
10.9835 64.0165 4
12.6773 62.3024 2
14.2643 60.6962 0.0161724
12.7745 65.694 2
14.3323 63.8603 0.00829146
14.6715 67.2507 0
16.3964 18.6443 3.98083
17.6643 17.149 2
16.1 15.7755 3.9832
18.9306 15.7739 0.0172336
17.5093 14.3655 2
16.019 12.8047 3.98613
18.9775 13.1014 0.0152032
17.6374 11.4504 2
16.2013 9.66191 3.99291
19.3414 10.232 0.0110973
18.0498 8.33892 2
16.6661 6.31991 4
18.75 5.02404 2
19.99 7.1459 0.00678233
20.9142 3.86727 0
27.3832 34.7509 3.94949
28.9738 35.1028 2
30.3922 35.5411 0.108859
16.6744 21.3711 3.97619
21.778 17.8404 0.017852
19.2381 18.4004 0.0181727
20.8703 19.3681 2
17.974 19.9328 2
19.7154 21.564 3.98213
22.2715 19.8821 0.0209569
24.5824 21.31 0.0175728
22.3481 21.7072 2
24.682 23.1556 2
22.8302 24.5928 3.97197
24.5288 28.5151 3.96741
25.4352 25.9327 2
26.4013 23.7067 0.0197069
26.1312 31.6901 3.99237
28.2757 32.2792 2
29.9112 33.0133 0.0984197
30.0794 29.5132 0.0306533
26.994 29.1171 2
27.8536 26.5238 0.0276307
24.6946 36.8551 3.98007
26.8667 37.361 2
28.6488 37.4997 0.0920555
27.2268 44.8511 0.0117199
26.7608 40.6189 0.0153561
25.2205 43.1932 2
23.9997 39.4316 2
22.9327 41.8099 3.97936
21.724 38.501 3.97367
23.9617 45.2358 0.0242426
21.8713 43.9685 2
19.7095 42.896 3.97592
20.9076 45.9158 0.0222557
18.9578 44.981 2
16.9365 44.3851 3.97352
18.3047 46.748 0.0237452
16.6124 46.2194 2
14.8366 46.0948 3.97232
16.3234 47.7205 0.0250361
14.9182 47.6753 2
13.2909 48.0113 3.9729
15.1871 49.021 0.0247792
13.7833 49.55 2
12.1117 50.2545 3.9741
14.4837 50.9899 0.0260481
12.8918 51.8775 2
11.134 52.8378 3.97641
10.3216 55.7122 3.98092
12.1377 54.5306 2
13.8238 53.4393 0.0250737
9.69888 58.8508 3.98769
11.5306 57.4619 2
13.2498 56.1726 0.0213934
9.30605 62.2254 4
11.1317 60.6283 2
12.8464 59.1296 0.0165257
10.9835 64.0165 2
12.6778 62.3028 0.00974614
12.7746 65.6939 0
15.1416 20.1799 3.97783
16.3965 18.6436 2
14.7453 17.2986 3.98172
17.6643 17.1497 0.0181983
16.1001 15.7746 2
14.4815 14.2868 3.98485
17.5091 14.3663 0.0163488
16.0192 12.804 2
14.4441 11.1131 3.99229
17.6372 11.451 0.0119808
16.201 9.66203 2
14.6715 7.74927 4
18.0501 8.33874 0.00681658
16.6661 6.31988 2
18.75 5.0241 0
25.3342 34.2554 3.98755
27.3721 34.7483 2
28.9908 35.1108 0.0979632
17.8473 22.3166 3.9826
15.5205 22.9158 3.9728
16.6746 21.3702 2
20.8702 19.3689 0.0188132
17.9738 19.9336 0.0201475
19.7157 21.5632 2
19.6519 24.3722 3.97389
22.3476 21.7083 0.0189938
24.6815 23.1554 0.0212148
22.8289 24.5913 2
21.8997 27.8113 3.96985
23.709 31.1758 3.97223
24.5332 28.515 2
25.4373 25.9347 0.0307392
26.1314 31.6842 2
28.2892 32.2907 0.0515975
26.9872 29.1168 0.00942843
22.4567 36.2711 3.97589
24.686 36.8551 2
26.8762 37.3595 0.0360895
25.2256 43.1891 0.0280337
24.0057 39.4302 0.0263176
22.9316 41.8105 2
21.7233 38.5013 2
20.6696 40.635 3.97497
20.0719 37.781 3.97549
21.8692 43.9675 0.0218888
19.7106 42.8963 2
17.3376 42.1037 3.97372
18.9581 44.9806 0.0238638
16.9366 44.3853 2
14.8353 44.2038 3.97265
16.6121 46.2191 0.026646
14.8368 46.0951 2
12.9618 46.2982 3.9724
14.9178 47.675 0.0263284
13.2913 48.0116 2
11.4842 48.5508 3.97299
13.7828 49.5497 0.0260604
12.1121 50.2548 2
10.2606 51.0806 3.97553
12.8915 51.8771 0.0254096
11.1343 52.8383 2
9.23088 53.8895 3.97997
8.38252 56.9829 3.98663
10.3215 55.7127 2
12.1377 54.5299 0.0227456
7.74927 60.3285 4
9.69816 58.8499 2
11.5309 57.4611 0.0177424
9.306 62.2255 2
11.1323 60.6287 0.0109971
10.9835 64.0165 0
13.9545 21.7476 3.97531
15.1417 20.179 2
13.4461 18.8963 3.97974
16.3964 18.6443 0.0191697
14.7455 17.2976 2
13.0268 15.8797 3.98404
16.1 15.7755 0.0168041
14.4816 14.286 2
12.7815 12.6864 3.9912
16.019 12.8047 0.013874
14.4438 11.1133 2
12.7746 9.30605 4
16.2013 9.66191 0.00708912
14.6715 7.74924 2
16.6661 6.31991 0
23.0302 33.7923 3.97438
25.3241 34.2541 2
27.3832 34.7509 0.0505078
17.618 24.0374 3.974
17.8473 22.3158 2
14.3033 24.4474 3.973
15.5204 22.9149 2
16.6744 21.3711 0.023808
19.0219 27.1915 3.96881
19.7154 21.564 0.0178668
19.651 24.3719 2
21.1494 30.6524 3.97133
22.8302 24.5928 0.0280345
21.9008 27.8112 2
23.7012 31.1762 2
24.5288 28.5151 0.0325857
26.1312 31.6901 0.00763107
20.2119 35.9178 3.97454
22.4548 36.2717 2
24.6946 36.8551 0.0199313
22.9327 41.8099 0.0206366
21.724 38.501 0.0263279
20.6674 40.6355 2
20.0704 37.7812 2
18.0495 39.0015 3.97389
19.7095 42.896 0.0240821
17.3379 42.104 2
14.7873 41.9202 3.97171
16.9365 44.3851 0.0264766
14.8353 44.2041 2
12.7002 44.3943 3.97202
14.8366 46.0948 0.0276834
12.962 46.2986 2
10.9854 46.7348 3.97272
13.2909 48.0113 0.0270969
11.4845 48.5511 2
9.52489 49.2398 3.97433
12.1117 50.2545 0.0258952
10.2611 51.0809 2
8.26434 52.0019 3.97901
11.134 52.8378 0.0235939
9.23108 53.8898 2
7.19162 55.0324 3.98619
6.31991 58.3339 4
8.38178 56.9813 2
10.3216 55.7122 0.0190836
7.74924 60.3285 2
9.69888 58.8508 0.0123117
9.30605 62.2254 0
13.2243 25.3602 3.97719
12.8224 23.2774 3.97477
13.9545 21.7466 2
12.2319 20.5463 3.97811
15.1416 20.1799 0.022173
13.4462 18.8953 2
11.6564 17.5611 3.98319
14.7453 17.2986 0.0182843
13.0268 15.8789 2
11.2189 14.3713 3.98972
14.4815 14.2868 0.0151451
12.7812 12.6866 2
10.9835 10.9835 4
14.4441 11.1131 0.00770775
12.7745 9.306 2
14.6715 7.74927 0
20.583 33.3865 3.97337
23.0297 33.7928 2
25.3342 34.2554 0.0124522
15.8904 26.3958 3.97157
17.6175 24.0368 2
17.8473 22.3166 0.0174022
14.3032 24.4468 2
15.5205 22.9158 0.0272006
18.3691 30.1636 3.97082
19.0221 27.1914 2
19.6519 24.3722 0.0261091
21.1493 30.6523 2
21.8997 27.8113 0.0301548
23.709 31.1758 0.0277662
17.6922 35.9609 3.97372
20.2121 35.9179 2
22.4567 36.2711 0.0241099
20.6696 40.635 0.0250276
20.0719 37.781 0.024507
18.0491 39.0017 2
14.3124 39.1762 3.972
17.3376 42.1037 0.0262771
14.7873 41.9204 2
12.3896 42.278 3.97063
14.8353 44.2038 0.0273505
12.7003 44.3946 2
10.5614 44.8039 3.97239
12.9618 46.2982 0.0275978
10.9856 46.7351 2
8.90736 47.3191 3.97388
11.4842 48.5508 0.0270132
9.52525 49.2401 2
7.43198 50.0347 3.97773
10.2606 51.0806 0.0244744
8.26472 52.0018 2
6.13235 53.0065 3.98612
9.23088 53.8895 0.0200251
7.19111 55.0304 2
5.0241 56.25 4
6.31988 58.3339 2
8.38252 56.9829 0.0133715
7.74927 60.3285 0
13.4627 26.8113 3.97106
11.9369 24.7863 3.97409
13.2241 25.3597 2
11.1358 22.2322 3.97657
12.8225 23.2766 2
13.9545 21.7476 0.0246897
12.232 20.5451 2
10.3868 19.3166 3.98199
13.4461 18.8963 0.0202576
11.6564 17.5601 2
9.75977 16.155 3.9883
13.0268 15.8797 0.0159598
11.2185 14.3716 2
9.30607 12.7746 4
12.7815 12.6864 0.00879899
10.9835 10.9835 2
12.7746 9.30605 0
17.8546 33.1048 3.97276
20.5837 33.3866 2
23.0302 33.7923 0.0256213
15.4795 29.6311 3.97181
15.89 26.3956 2
17.618 24.0374 0.0259988
14.3033 24.4474 0.0270005
18.3703 30.1637 2
19.0219 27.1915 0.0311876
21.1494 30.6524 0.028669
14.9207 36.0159 3.97256
17.6925 35.961 2
20.2119 35.9178 0.0254643
12.6016 37.8289 3.97203
18.0495 39.0015 0.0261057
14.3126 39.1764 2
11.9074 40.1411 3.97067
14.7873 41.9202 0.0282918
12.3895 42.2782 2
10.1622 42.7785 3.9706
12.7002 44.3943 0.0279785
10.5615 44.8042 2
8.38474 45.3215 3.9738
10.9854 46.7348 0.0272842
8.90758 47.3194 2
6.72353 47.9998 3.97713
9.52489 49.2398 0.0256722
7.4323 50.0346 2
5.20941 50.9093 3.98584
8.26434 52.0019 0.0209884
6.13215 53.0047 2
3.86727 54.0858 4
7.19162 55.0324 0.0138072
5.02404 56.25 2
6.31991 58.3339 0
12.9156 29.0297 3.97044
11.3681 26.4864 3.972
13.4625 26.811 2
10.196 23.9668 3.97498
11.9369 24.7857 2
13.2243 25.3602 0.0228142
9.23956 21.1366 3.98028
11.136 22.2312 2
12.8224 23.2774 0.0252314
12.2319 20.5463 0.0218931
10.3868 19.3156 2
8.4156 18.0266 3.98729
11.6564 17.5611 0.0168078
9.75921 16.1555 2
7.74928 14.6715 4
11.2189 14.3713 0.0102822
9.30602 12.7745 2
10.9835 10.9835 0
14.4859 32.8585 3.97225
17.857 33.1049 2
20.583 33.3865 0.0266337
15.4799 29.6311 2
15.8904 26.3958 0.0284255
18.3691 30.1636 0.0291794
12.8958 36.2079 3.97151
14.9212 36.016 2
17.6922 35.9609 0.0262814
12.6019 37.8289 2
11.2655 38.3097 3.97114
14.3124 39.1762 0.0279964
11.9076 40.1412 2
9.7497 40.7545 3.97013
12.3896 42.278 0.0293681
10.1621 42.7788 2
7.93496 43.2702 3.97211
10.5614 44.8039 0.0276103
8.38481 45.3217 2
6.12957 45.9052 3.97706
8.90736 47.3191 0.0261228
6.72373 47.9998 2
4.4212 48.7502 3.98561
7.43198 50.0347 0.0222688
5.20933 50.9081 2
2.85457 51.8506 4
6.13235 53.0065 0.0138846
3.86727 54.0858 2
5.0241 56.25 0
12.0586 31.2538 3.97094
10.7799 28.4136 3.97144
12.9155 29.0296 2
9.412 25.798 3.97356
11.368 26.486 2
13.4627 26.8113 0.0289427
8.22744 23.0228 3.97849
10.1963 23.9662 2
11.9369 24.7863 0.0259116
7.19786 19.9775 3.9864
9.23985 21.136 2
11.1358 22.2322 0.0234349
10.3868 19.3166 0.018009
8.41499 18.0278 2
6.31992 16.6661 4
9.75977 16.155 0.0117016
7.74926 14.6714 2
9.30607 12.7746 0
12.0851 34.293 3.97153
14.4857 32.8585 2
17.8546 33.1048 0.0272412
15.4795 29.6311 0.0281928
10.8299 36.6107 3.97111
12.8963 36.2079 2
14.9207 36.0159 0.0274395
12.6016 37.8289 0.027968
11.2657 38.3098 2
9.34489 38.8236 3.9703
11.9074 40.1411 0.0293334
9.74991 40.7547 2
7.54805 41.2109 3.97086
10.1622 42.7785 0.0293989
7.93491 43.2704 2
5.64212 43.7682 3.97625
8.38474 45.3215 0.0262018
6.12965 45.9052 2
3.76691 46.5365 3.98554
6.72353 47.9998 0.0228749
4.42119 48.7496 2
1.99014 49.554 4
5.20941 50.9093 0.0141644
2.85451 51.8506 2
3.86727 54.0858 0
10.9195 32.9177 3.97156
10.0936 30.381 3.97081
12.0584 31.2538 2
8.72006 27.7316 3.97319
10.7798 28.4134 2
12.9156 29.0297 0.0295642
7.35366 24.9827 3.97715
9.41205 25.7976 2
11.3681 26.4864 0.0280017
6.115 22.0023 3.98581
8.2278 23.0225 2
10.196 23.9668 0.0250159
5.02411 18.75 4
7.19746 19.9792 2
9.23956 21.1366 0.0197228
8.4156 18.0266 0.0127086
6.3199 16.6661 2
7.74928 14.6715 0
10.4386 34.9993 3.97099
12.085 34.293 2
14.4859 32.8585 0.0277524
9.01665 36.9849 3.97035
10.8304 36.6107 2
12.8958 36.2079 0.0284941
11.2655 38.3097 0.0288633
9.34492 38.8237 2
7.22941 39.1817 3.97099
9.7497 40.7545 0.0298734
7.54822 41.211 2
5.25867 41.6138 3.97463
7.93496 43.2702 0.0278903
5.64208 43.7682 2
3.24489 44.2817 3.98479
6.12957 45.9052 0.0229357
3.76695 46.5364 2
1.27781 47.2057 4
4.4212 48.7502 0.0143867
1.99012 49.554 2
2.85457 51.8506 0
10.0867 33.8807 3.97138
9.38694 32.1535 3.97143
10.9194 32.9176 2
8.06989 29.6954 3.97228
10.0935 30.3808 2
12.0586 31.2538 0.0290649
6.59757 27.0088 3.97671
8.72006 27.7314 2
10.7799 28.4136 0.0285573
5.17054 24.0958 3.98551
7.35384 24.9825 2
9.412 25.798 0.0264389
3.86728 20.9142 4
6.11489 22.0037 2
8.22744 23.0228 0.0215105
5.02406 18.75 2
7.19786 19.9775 0.0136003
6.31992 16.6661 0
8.84316 35.2792 3.97045
10.4387 34.9993 2
12.0851 34.293 0.0284666
7.01325 37.2058 3.97105
9.01668 36.985 2
10.8299 36.6107 0.0288941
9.34489 38.8236 0.0296975
7.22946 39.1818 2
4.98719 39.4672 3.97389
7.54805 41.2109 0.029145
5.25882 41.6138 2
2.85582 42.0022 3.98343
5.64212 43.7682 0.0237503
3.24489 44.282 2
0.720592 44.8159 4
3.76691 46.5365 0.0144639
1.27778 47.2057 2
1.99014 49.554 0
8.88376 33.6972 3.97139
10.0867 33.8807 2
7.50792 31.6091 3.97256
9.38682 32.1534 2
10.9195 32.9177 0.0284414
5.94317 29.0698 3.97607
8.06979 29.6953 2
10.0936 30.381 0.029189
4.35837 26.2484 3.98533
6.59764 27.0088 2
8.72006 27.7316 0.026806
2.85458 23.1494 4
5.17048 24.0967 2
7.35366 24.9827 0.0228546
3.86728 20.9142 2
6.115 22.0023 0.0141876
5.02411 18.75 0
6.96366 35.306 3.97092
8.84329 35.2791 2
10.4386 34.9993 0.0290144
4.83736 37.3398 3.97425
7.01329 37.2058 2
9.01665 36.9849 0.0296524
7.22941 39.1817 0.029014
4.98722 39.4672 2
2.60423 39.7139 3.98257
5.25867 41.6138 0.0253666
2.856 42.0025 2
0.320823 42.3947 4
3.24489 44.2817 0.0152086
0.720551 44.8159 2
1.27781 47.2057 0
7.12249 33.4608 3.97223
8.88373 33.6971 2
10.0867 33.8807 0.0286198
5.41455 31.1338 3.97577
7.50778 31.609 2
9.38694 32.1535 0.0285683
3.68034 28.444 3.98484
5.94311 29.0699 2
8.06989 29.6954 0.0277234
1.99015 25.446 4
4.35836 26.2487 2
6.59757 27.0088 0.0232872
2.85453 23.1494 2
5.17054 24.0958 0.0144931
3.86728 20.9142 0
4.85177 35.2516 3.97421
6.96378 35.306 2
8.84316 35.2792 0.0295473
2.49563 37.4286 3.9829
4.83742 37.3399 2
7.01325 37.2058 0.0289504
4.98719 39.4672 0.0261139
2.6043 39.7144 2
0.080333 39.9526 4
2.85582 42.0022 0.0165708
0.320817 42.3947 2
0.720592 44.8159 0
5.0445 33.1903 3.97528
7.12246 33.4607 2
8.88376 33.6972 0.0286123
3.14494 30.6664 3.98406
5.4144 31.1339 2
7.50792 31.6091 0.0274422
1.27793 27.7943 4
3.68034 28.444 2
5.94317 29.0698 0.0239292
1.99013 25.446 2
4.35837 26.2484 0.0146651
2.85458 23.1494 0
2.5478 35.1591 3.98288
4.8519 35.2518 2
6.96366 35.306 0.0290758
0 37.5 4
2.49575 37.4289 2
4.83736 37.3398 0.0257505
2.60423 39.7139 0.0174295
0.0802903 39.9526 2
0.320823 42.3947 0
2.76519 32.9058 3.98346
5.04446 33.1905 2
7.12249 33.4608 0.0277744
0.721173 30.1842 4
3.14491 30.6664 2
5.41455 31.1338 0.0242339
1.27779 27.7943 2
3.68034 28.444 0.0151589
1.99015 25.446 0
0.0806499 35.0474 4
2.54796 35.1595 2
4.85177 35.2516 0.025794
0 37.5 2
2.49563 37.4286 0.017096
0.080333 39.9526 0
0.32156 32.6054 4
2.76523 32.9062 2
5.0445 33.1903 0.0247233
0.72056 30.1841 2
3.14494 30.6664 0.015942
1.27793 27.7943 0
0.0802889 35.0474 2
2.5478 35.1591 0.0171229
0 37.5 0
0.320817 32.6053 2
2.76519 32.9058 0.0165413
0.721173 30.1842 0
0.0806499 35.0474 0
0.32156 32.6054 0
CELLS 1910 17190
8 18 6 25 56 2 0 5 16
8 57 23 6 18 17 4 0 2
8 78 36 9 29 31 11 1 7
8 31 11 1 7 79 37 10 30
8 110 57 18 50 48 17 2 14
8 50 18 56 111 14 2 16 49
8 116 62 22 55 52 20 3 15
8 56 25 67 118 16 5 24 53
8 119 63 23 57 54 21 4 17
8 55 22 63 119 15 3 21 54
8 58 26 68 121 18 6 25 56
8 122 65 26 58 57 23 6 18
8 73 31 7 27 142 79 30 71
8 143 78 29 72 73 31 7 27
8 83 147 76 34 32 74 28 8
8 84 148 78 36 33 75 29 9
8 76 34 8 28 148 84 33 75
8 37 79 150 86 10 30 77 35
8 151 87 36 78 80 38 11 31
8 80 38 11 31 152 88 37 79
8 175 100 42 94 96 44 12 40
8 44 96 176 101 12 40 95 43
8 101 176 98 46 43 95 41 13
8 46 98 178 103 13 41 97 45
8 178 103 45 97 147 83 32 74
8 189 116 55 109 106 52 15 47
8 111 56 118 191 49 16 53 107
8 192 119 57 110 108 54 17 48
8 109 55 119 192 47 15 54 108
8 194 122 58 112 110 57 18 50
8 112 58 121 195 50 18 56 111
8 115 61 19 51 197 124 59 113
8 115 61 125 198 51 19 60 114
8 198 125 62 116 114 60 20 52
8 200 127 64 120 116 62 22 55
8 118 67 132 202 53 24 66 117
8 121 68 133 203 56 25 67 118
8 120 64 128 204 55 22 63 119
8 204 128 65 122 119 63 23 57
8 206 134 68 121 123 69 26 58
8 123 69 26 58 207 131 65 122
8 226 147 74 138 140 76 28 70
8 229 148 75 139 143 78 29 72
8 140 76 28 70 229 148 75 139
8 142 79 30 71 231 150 77 141
8 144 80 31 73 232 152 79 142
8 233 151 78 143 144 80 31 73
8 150 86 35 77 235 154 81 145
8 235 154 81 145 146 82 39 91
8 146 82 39 91 236 155 90 165
8 238 157 83 147 149 85 34 76
8 239 158 84 148 151 87 36 78
8 149 85 34 76 239 158 84 148
8 152 88 37 79 241 160 86 150
8 242 161 87 151 153 89 38 80
8 153 89 38 80 243 162 88 152
8 171 98 41 92 265 178 97 169
8 265 178 97 169 226 147 74 138
8 172 96 40 93 266 176 95 170
8 266 176 95 170 171 98 41 92
8 269 175 94 173 172 96 40 93
8 271 180 99 174 175 100 42 94
8 197 124 59 113 271 180 99 174
8 272 181 100 175 177 102 44 96
8 273 182 101 176 179 104 46 98
8 177 102 44 96 273 182 101 176
8 179 104 46 98 275 184 103 178
8 275 184 103 178 238 157 83 147
8 188 115 51 105 283 197 113 186
8 188 115 198 284 105 51 114 187
8 284 198 116 189 187 114 52 106
8 286 200 120 193 189 116 55 109
8 191 118 202 288 107 53 117 190
8 195 121 203 289 111 56 118 191
8 193 120 204 290 109 55 119 192
8 290 204 122 194 192 119 57 110
8 196 123 58 112 292 207 122 194
8 293 206 121 195 196 123 58 112
8 199 126 61 115 297 211 124 197
8 298 212 127 200 198 125 62 116
8 199 126 212 298 115 61 125 198
8 205 129 64 120 300 214 127 200
8 301 217 130 201 202 132 66 117
8 209 136 168 264 301 217 130 201
8 302 219 132 202 203 133 67 118
8 303 220 133 203 206 134 68 121
8 205 129 215 304 120 64 128 204
8 304 215 131 207 204 128 65 122
8 306 221 134 206 208 135 69 123
8 208 135 69 123 307 218 131 207
8 210 137 167 263 309 223 136 209
8 328 238 147 226 230 149 76 140
8 228 146 91 166 329 236 165 260
8 231 150 77 141 330 235 145 227
8 330 235 145 227 228 146 91 166
8 332 239 148 229 233 151 78 143
8 230 149 76 140 332 239 148 229
8 232 152 79 142 334 241 150 231
8 234 153 80 144 335 243 152 232
8 336 242 151 233 234 153 80 144
8 236 155 90 165 338 245 164 259
8 241 160 86 150 339 246 154 235
8 339 246 154 235 237 156 82 146
8 237 156 82 146 340 247 155 236
8 342 249 157 238 240 159 85 149
8 343 250 158 239 242 161 87 151
8 240 159 85 149 343 250 158 239
8 243 162 88 152 345 252 160 241
8 244 163 253 346 153 89 161 242
8 244 163 89 153 347 254 162 243
8 311 224 261 371 210 137 167 263
8 263 167 262 372 209 136 168 264
8 267 179 98 171 375 275 178 265
8 375 275 178 265 328 238 147 226
8 376 273 176 266 267 179 98 171
8 268 177 96 172 376 273 176 266
8 379 272 175 269 268 177 96 172
8 380 271 174 270 269 175 94 173
8 283 197 113 186 380 271 174 270
8 381 277 180 271 272 181 100 175
8 297 211 124 197 381 277 180 271
8 382 278 181 272 274 183 102 177
8 274 183 102 177 383 279 182 273
8 383 279 182 273 276 185 104 179
8 385 281 184 275 342 249 157 238
8 276 185 104 179 385 281 184 275
8 285 199 115 188 393 297 197 283
8 394 298 200 286 284 198 116 189
8 285 199 298 394 188 115 198 284
8 291 205 120 193 396 300 200 286
8 397 301 201 287 288 202 117 190
8 295 209 264 374 397 301 201 287
8 398 302 202 288 289 203 118 191
8 399 303 203 289 293 206 121 195
8 291 205 304 400 193 120 204 290
8 400 304 207 292 290 204 122 194
8 294 208 123 196 402 307 207 292
8 403 306 206 293 294 208 123 196
8 296 210 263 373 405 309 209 295
8 408 312 213 299 297 211 126 199
8 299 213 313 409 199 126 212 298
8 409 313 214 300 298 212 127 200
8 305 216 129 205 411 315 214 300
8 412 318 217 301 302 219 132 202
8 309 223 136 209 412 318 217 301
8 413 320 219 302 303 220 133 203
8 306 221 321 414 206 134 220 303
8 307 218 131 207 415 316 215 304
8 305 216 316 415 205 129 215 304
8 417 322 221 306 308 222 135 208
8 308 222 135 208 418 319 218 307
8 310 225 137 210 420 325 223 309
8 423 326 224 311 310 225 137 210
8 329 236 165 260 441 338 259 368
8 442 342 238 328 333 240 149 230
8 331 237 146 228 443 340 236 329
8 334 241 150 231 444 339 235 330
8 444 339 235 330 331 237 146 228
8 446 343 239 332 336 242 151 233
8 333 240 149 230 446 343 239 332
8 335 243 152 232 448 345 241 334
8 337 244 153 234 449 347 243 335
8 337 244 346 450 234 153 242 336
8 338 245 164 259 452 349 258 367
8 340 247 155 236 453 350 245 338
8 345 252 160 241 454 351 246 339
8 454 351 246 339 341 248 156 237
8 341 248 156 237 455 352 247 340
8 240 159 251 344 342 249 354 457
8 242 161 253 346 343 250 355 458
8 343 250 355 458 240 159 251 344
8 347 254 162 243 460 357 252 345
8 348 255 358 461 244 163 253 346
8 348 255 163 244 462 359 254 347
8 473 360 257 365 363 256 364 482
8 452 349 258 367 365 257 366 485
8 422 324 369 488 311 224 261 371
8 371 261 370 490 263 167 262 372
8 407 311 371 491 296 210 263 373
8 373 263 372 492 295 209 264 374
8 493 385 275 375 442 342 238 328
8 377 276 179 267 493 385 275 375
8 378 274 177 268 494 383 273 376
8 494 383 273 376 377 276 179 267
8 497 382 272 379 378 274 177 268
8 498 381 271 380 379 272 175 269
8 393 297 197 283 498 381 271 380
8 499 387 277 381 382 278 181 272
8 408 312 211 297 499 387 277 381
8 500 388 278 382 384 280 183 274
8 501 389 279 383 386 282 185 276
8 384 280 183 274 501 389 279 383
8 386 282 185 276 503 391 281 385
8 503 391 281 385 457 354 249 342
8 511 408 299 395 393 297 199 285
8 395 299 409 512 285 199 298 394
8 512 409 300 396 394 298 200 286
8 401 305 205 291 514 411 300 396
8 515 412 301 397 398 302 202 288
8 405 309 209 295 515 412 301 397
8 516 413 302 398 399 303 203 289
8 403 306 414 517 293 206 303 399
8 402 307 207 292 518 415 304 400
8 401 305 415 518 291 205 304 400
8 404 308 208 294 520 418 307 402
8 521 417 306 403 404 308 208 294
8 406 310 210 296 523 420 309 405
8 526 423 311 407 406 310 210 296
8 410 314 213 299 527 424 312 408
8 528 425 315 411 409 313 214 300
8 410 314 425 528 299 213 313 409
8 416 317 216 305 530 427 315 411
8 531 430 318 412 413 320 219 302
8 420 325 223 309 531 430 318 412
8 532 432 320 413 414 321 220 303
8 417 322 433 533 306 221 321 414
8 418 319 218 307 534 428 316 415
8 416 317 428 534 305 216 316 415
8 419 323 434 536 308 222 322 417
8 419 323 222 308 537 431 319 418
8 421 327 225 310 539 438 325 420
8 421 327 439 541 310 225 326 423
8 543 437 324 422 423 326 224 311
8 441 338 259 368 559 452 367 486
8 443 340 236 329 560 453 338 441
8 333 240 344 447 442 342 457 561
8 445 341 237 331 562 455 340 443
8 448 345 241 334 563 454 339 444
8 563 454 339 444 445 341 237 331
8 336 242 346 450 446 343 458 565
8 446 343 458 565 333 240 344 447
8 449 347 243 335 567 460 345 448
8 451 348 244 337 568 462 347 449
8 451 348 461 569 337 244 346 450
8 570 463 349 452 473 360 257 365
8 453 350 245 338 570 463 349 452
8 455 352 247 340 571 464 350 453
8 460 357 252 345 572 465 351 454
8 572 465 351 454 456 353 248 341
8 456 353 248 341 573 466 352 455
8 344 251 356 459 457 354 468 575
8 458 355 469 576 344 251 356 459
8 346 253 358 461 458 355 469 576
8 462 359 254 347 578 471 357 460
8 348 255 359 462 461 358 472 579
8 591 474 360 473 475 361 256 363
8 475 361 256 363 594 477 362 479
8 363 256 364 482 479 362 480 603
8 590 473 365 484 481 363 482 605
8 482 364 257 365 606 483 366 485
8 559 452 367 486 484 365 485 607
8 542 436 487 609 422 324 369 488
8 525 422 488 611 407 311 371 491
8 488 369 489 612 371 261 370 490
8 491 371 490 613 373 263 372 492
8 495 386 276 377 614 503 385 493
8 614 503 385 493 561 457 342 442
8 615 501 383 494 495 386 276 377
8 496 384 274 378 615 501 383 494
8 618 500 382 497 496 384 274 378
8 619 499 381 498 497 382 272 379
8 511 408 297 393 619 499 381 498
8 620 505 387 499 500 388 278 382
8 527 424 312 408 620 505 387 499
8 502 390 506 621 384 280 388 500
8 622 507 389 501 504 392 282 386
8 502 390 280 384 622 507 389 501
8 504 392 282 386 624 509 391 503
8 624 509 391 503 575 468 354 457
8 513 410 299 395 630 527 408 511
8 631 528 411 514 512 409 300 396
8 513 410 528 631 395 299 409 512
8 519 416 305 401 633 530 411 514
8 634 531 412 515 516 413 302 398
8 523 420 309 405 634 531 412 515
8 635 532 413 516 517 414 303 399
8 521 417 533 636 403 306 414 517
8 520 418 307 402 637 534 415 518
8 519 416 534 637 401 305 415 518
8 522 419 308 404 639 537 418 520
8 522 419 536 640 404 308 417 521
8 524 421 310 406 642 539 420 523
8 524 421 541 644 406 310 423 526
8 646 543 422 525 526 423 311 407
8 529 426 314 410 647 544 424 527
8 528 425 545 648 411 315 427 530
8 529 426 545 648 410 314 425 528
8 535 429 317 416 649 546 427 530
8 650 548 430 531 532 432 320 413
8 539 438 325 420 650 548 430 531
8 533 433 550 651 414 321 432 532
8 536 434 551 652 417 322 433 533
8 537 431 319 418 653 547 428 534
8 535 429 547 653 416 317 428 534
8 538 435 552 654 419 323 434 536
8 538 435 323 419 655 549 431 537
8 540 440 327 421 657 556 438 539
8 540 440 557 659 421 327 439 541
8 541 439 555 660 423 326 437 543
8 661 554 436 542 543 437 324 422
8 676 570 452 559 590 473 365 484
8 560 453 338 441 676 570 452 559
8 562 455 340 443 677 571 453 560
8 447 344 459 566 561 457 575 678
8 564 456 341 445 679 573 455 562
8 567 460 345 448 680 572 454 563
8 680 572 454 563 564 456 341 445
8 565 458 576 682 447 344 459 566
8 450 346 461 569 565 458 576 682
8 568 462 347 449 684 578 460 567
8 451 348 462 568 569 461 579 685
8 686 580 463 570 591 474 360 473
8 571 464 350 453 686 580 463 570
8 573 466 352 455 687 581 464 571
8 572 465 582 688 460 357 471 578
8 574 467 582 688 456 353 465 572
8 574 467 353 456 689 583 466 573
8 459 356 470 577 575 468 585 691
8 576 469 586 692 459 356 470 577
8 461 358 472 579 576 469 586 692
8 462 359 471 578 579 472 588 694
8 704 591 473 590 593 475 363 481
8 595 476 592 705 475 361 474 591
8 593 475 363 481 707 594 479 602
8 594 477 362 479 709 598 478 600
8 595 476 361 475 711 597 477 594
8 479 362 480 603 600 478 601 720
8 481 363 482 605 602 479 603 722
8 603 480 364 482 723 604 483 606
8 605 482 365 484 724 606 485 607
8 656 553 608 726 542 436 487 609
8 645 542 609 728 525 422 488 611
8 609 487 610 729 488 369 489 612
8 611 488 612 730 491 371 490 613
8 616 504 386 495 731 624 503 614
8 731 624 503 614 678 575 457 561
8 732 622 501 615 616 504 386 495
8 617 502 384 496 732 622 501 615
8 617 502 621 735 496 384 500 618
8 736 620 499 619 618 500 382 497
8 630 527 408 511 736 620 499 619
8 621 506 626 737 500 388 505 620
8 647 544 424 527 737 626 505 620
8 623 508 627 738 502 390 506 621
8 623 508 390 502 739 628 507 622
8 625 510 628 739 504 392 507 622
8 740 629 509 624 691 585 468 575
8 625 510 392 504 740 629 509 624
8 632 529 410 513 744 647 527 630
8 631 528 648 745 514 411 530 633
8 632 529 648 745 513 410 528 631
8 638 535 416 519 746 649 530 633
8 747 650 531 634 635 532 413 516
8 642 539 420 523 747 650 531 634
8 636 533 651 748 517 414 532 635
8 640 536 652 749 521 417 533 636
8 639 537 418 520 750 653 534 637
8 638 535 653 750 519 416 534 637
8 641 538 419 522 751 655 537 639
8 641 538 654 752 522 419 536 640
8 643 540 421 524 753 657 539 642
8 643 540 659 755 524 421 541 644
8 644 541 660 757 526 423 543 646
8 758 661 542 645 646 543 422 525
8 529 426 544 647 648 545 662 759
8 530 427 545 648 649 546 663 760
8 535 429 546 649 653 547 664 761
8 762 666 548 650 651 550 432 532
8 657 556 438 539 762 666 548 650
8 652 551 668 763 533 433 550 651
8 654 552 669 764 536 434 551 652
8 655 549 431 537 765 665 547 653
8 538 435 549 655 654 552 667 766
8 661 554 671 768 542 436 553 656
8 658 558 440 540 769 674 556 657
8 658 558 675 770 540 440 557 659
8 659 557 673 771 541 439 555 660
8 660 555 672 772 543 437 554 661
8 788 686 570 676 704 591 473 590
8 677 571 453 560 788 686 570 676
8 679 573 455 562 789 687 571 677
8 566 459 577 683 678 575 691 790
8 681 574 456 564 791 689 573 679
8 680 572 688 792 567 460 578 684
8 681 574 688 792 564 456 572 680
8 682 576 692 794 566 459 577 683
8 569 461 579 685 682 576 692 794
8 568 462 578 684 685 579 694 796
8 687 581 464 571 798 696 580 686
8 798 696 580 686 705 592 474 591
8 689 583 466 573 799 697 581 687
8 688 582 698 800 578 471 588 694
8 690 584 698 800 574 467 582 688
8 690 584 467 574 801 699 583 689
8 693 587 701 803 577 470 585 691
8 693 587 470 577 804 702 586 692
8 695 589 702 804 579 472 586 692
8 695 589 472 579 805 703 588 694
8 708 595 705 813 593 475 591 704
8 710 596 706 814 595 476 592 705
8 707 594 479 602 816 709 600 719
8 708 595 475 593 817 711 594 707
8 709 598 478 600 819 715 599 717
8 711 597 477 594 820 714 598 709
8 710 596 476 595 822 713 597 711
8 600 478 601 720 717 599 718 832
8 602 479 603 722 719 600 720 834
8 720 601 480 603 835 721 604 723
8 722 603 482 605 836 723 606 724
8 767 670 725 839 656 553 608 726
8 756 656 726 841 645 542 609 728
8 726 608 727 842 609 487 610 729
8 728 609 729 843 611 488 612 730
8 844 740 624 731 790 691 575 678
8 733 625 504 616 844 740 624 731
8 734 623 502 617 845 739 622 732
8 733 625 739 845 616 504 622 732
8 734 623 738 846 617 502 621 735
8 735 621 737 847 618 500 620 736
8 744 647 527 630 847 737 620 736
8 621 506 627 738 737 626 741 848
8 647 544 626 737 759 662 741 848
8 623 508 628 739 738 627 742 849
8 740 629 585 691 850 743 700 802
8 625 510 629 740 739 628 743 850
8 632 529 647 744 745 648 759 854
8 633 530 648 745 746 649 760 855
8 638 535 649 746 750 653 761 856
8 857 762 650 747 748 651 532 635
8 753 657 539 642 857 762 650 747
8 749 652 763 858 636 533 651 748
8 752 654 764 859 640 536 652 749
8 751 655 537 639 860 765 653 750
8 641 538 655 751 752 654 766 861
8 754 658 540 643 862 769 657 753
8 754 658 770 863 643 540 659 755
8 755 659 771 864 644 541 660 757
8 758 661 768 866 645 542 656 756
8 757 660 772 867 646 543 661 758
8 759 662 773 868 648 545 663 760
8 649 546 663 760 761 664 774 871
8 765 665 547 653 872 775 664 761
8 873 777 666 762 763 668 550 651
8 769 674 556 657 873 777 666 762
8 764 669 779 874 652 551 668 763
8 654 552 667 766 764 669 778 875
8 655 549 665 765 766 667 776 876
8 768 671 782 877 656 553 670 767
8 772 672 783 878 661 554 671 768
8 658 558 674 769 770 675 786 879
8 659 557 675 770 771 673 785 881
8 882 784 672 772 771 673 555 660
8 789 687 571 677 897 798 686 788
8 897 798 686 788 813 705 591 704
8 791 689 573 679 898 799 687 789
8 795 693 803 900 683 577 691 790
8 793 690 574 681 901 801 689 791
8 792 688 800 902 684 578 694 796
8 793 690 800 902 681 574 688 792
8 795 693 577 683 903 804 692 794
8 797 695 804 903 685 579 692 794
8 797 695 579 685 904 805 694 796
8 905 806 697 799 798 696 581 687
8 814 706 806 905 705 592 696 798
8 689 583 697 799 801 699 808 907
8 800 698 809 908 694 588 703 805
8 690 584 699 801 800 698 809 908
8 803 701 810 909 691 585 700 802
8 693 587 702 804 803 701 811 910
8 695 589 703 805 804 702 812 911
8 818 710 814 919 708 595 705 813
8 821 712 815 920 710 596 706 814
8 816 709 600 719 922 819 717 831
8 817 711 594 707 923 820 709 816
8 818 710 595 708 924 822 711 817
8 819 715 599 717 926 827 716 829
8 820 714 598 709 927 826 715 819
8 929 825 713 822 820 714 597 711
8 821 712 596 710 930 824 713 822
8 717 599 718 832 829 716 830 942
8 719 600 720 834 831 717 832 944
8 832 718 601 720 945 833 721 835
8 834 720 603 722 946 835 723 836
8 869 780 838 950 767 670 725 839
8 865 767 839 952 756 656 726 841
8 839 725 840 953 726 608 727 842
8 841 726 842 954 728 609 729 843
8 844 740 691 790 955 850 802 899
8 733 625 740 844 845 739 850 955
8 734 623 739 845 846 738 849 956
8 735 621 738 846 847 737 848 957
8 744 647 737 847 854 759 848 957
8 738 627 742 849 848 741 851 958
8 848 741 851 958 759 662 773 868
8 850 743 700 802 959 852 807 906
8 849 742 628 739 959 852 743 850
8 854 759 868 965 745 648 760 855
8 746 649 760 855 856 761 871 966
8 860 765 653 750 967 872 761 856
8 968 873 762 857 858 763 651 748
8 862 769 657 753 968 873 762 857
8 859 764 874 969 749 652 763 858
8 752 654 766 861 859 764 875 970
8 751 655 765 860 861 766 876 971
8 754 658 769 862 863 770 879 972
8 755 659 770 863 864 771 881 974
8 976 882 772 867 864 771 660 757
8 866 768 877 977 756 656 767 865
8 867 772 878 978 758 661 768 866
8 760 663 773 868 871 774 883 980
8 870 781 837 948 982 890 780 869
8 982 890 780 869 877 782 670 767
8 761 664 774 871 872 775 884 984
8 876 776 665 765 985 885 775 872
8 873 777 668 763 986 887 779 874
8 769 674 777 873 879 786 887 986
8 764 669 778 875 874 779 888 987
8 766 667 776 876 875 778 886 988
8 878 783 892 989 768 671 782 877
8 878 783 672 772 990 893 784 882
8 880 787 675 770 991 896 786 879
8 880 787 895 992 770 675 785 881
8 881 785 894 993 771 673 784 882
8 1006 905 799 898 897 798 687 789
8 919 814 905 1006 813 705 798 897
8 791 689 799 898 901 801 907 1007
8 900 803 909 1009 790 691 802 899
8 795 693 804 903 900 803 910 1010
8 902 800 908 1011 796 694 805 904
8 793 690 801 901 902 800 908 1011
8 797 695 805 904 903 804 911 1012
8 799 697 806 905 907 808 912 1013
8 920 815 912 1013 814 706 806 905
8 802 700 810 909 906 807 913 1014
8 801 699 808 907 908 809 914 1015
8 805 703 809 908 911 812 915 1016
8 803 701 811 910 909 810 916 1017
8 911 812 917 1018 804 702 811 910
8 925 821 920 1030 818 710 814 919
8 928 823 921 1031 821 712 815 920
8 922 819 717 831 1033 926 829 941
8 923 820 709 816 1034 927 819 922
8 1035 929 822 924 923 820 711 817
8 925 821 710 818 1036 930 822 924
8 1038 933 825 929 927 826 714 820
8 926 827 716 829 1039 935 828 939
8 927 826 715 819 1040 934 827 926
8 928 823 712 821 1041 931 824 930
8 1042 932 824 930 929 825 713 822
8 829 716 830 942 939 828 940 1058
8 831 717 832 944 941 829 942 1060
8 942 830 718 832 1061 943 833 945
8 944 832 720 834 1062 945 835 946
8 981 889 947 1064 870 781 837 948
8 948 837 949 1067 869 780 838 950
8 975 869 950 1069 865 767 839 952
8 950 838 951 1070 839 725 840 953
8 952 839 953 1071 841 726 842 954
8 955 850 802 899 1072 959 906 1008
8 956 849 739 845 1072 959 850 955
8 846 738 849 956 957 848 958 1073
8 957 848 958 1073 854 759 868 965
8 849 742 852 959 958 851 961 1076
8 960 853 961 1076 906 807 852 959
8 958 851 961 1076 868 773 883 980
8 960 853 807 906 1077 963 913 1014
8 855 760 868 965 966 871 980 1085
8 856 761 871 966 967 872 984 1086
8 971 876 765 860 1087 985 872 967
8 968 873 763 858 1088 986 874 969
8 862 769 873 968 972 879 986 1088
8 859 764 875 970 969 874 987 1089
8 861 766 876 971 970 875 988 1090
8 973 880 770 863 1091 991 879 972
8 973 880 992 1092 863 770 881 974
8 974 881 993 1093 864 771 882 976
8 979 870 948 1066 1094 982 869 975
8 1094 982 869 975 977 877 767 865
8 978 878 772 867 1095 990 882 976
8 978 878 989 1096 866 768 877 977
8 871 774 883 980 984 884 994 1099
8 983 891 999 1100 870 781 889 981
8 1101 1000 890 982 989 892 782 877
8 983 891 781 870 1101 1000 890 982
8 872 775 884 984 985 885 995 1103
8 876 776 885 985 988 886 996 1104
8 986 887 779 874 1105 998 888 987
8 879 786 887 986 991 896 998 1105
8 875 778 886 988 987 888 997 1106
8 990 893 1002 1107 878 783 892 989
8 1108 1003 893 990 993 894 784 882
8 880 787 896 991 992 895 1005 1109
8 993 894 785 881 1110 1004 895 992
8 898 799 905 1006 1007 907 1013 1120
8 1030 920 1013 1120 919 814 905 1006
8 901 801 907 1007 1011 908 1015 1121
8 899 802 909 1009 1008 906 1014 1122
8 900 803 910 1010 1009 909 1017 1123
8 1012 911 1018 1124 903 804 910 1010
8 904 805 908 1011 1012 911 1016 1125
8 1013 912 1020 1127 907 808 914 1015
8 1031 921 1020 1127 920 815 912 1013
8 1019 918 962 1075 1128 1021 913 1014
8 1128 1021 913 1014 1017 916 810 909
8 1015 914 1022 1129 908 809 915 1016
8 1016 915 1023 1130 911 812 917 1018
8 1018 917 1024 1131 910 811 916 1017
8 1037 928 1031 1148 925 821 920 1030
8 928 823 931 1041 1031 921 1032 1149
8 1033 926 829 941 1151 1039 939 1057
8 1034 927 819 922 1152 1040 926 1033
8 1153 1038 929 1035 1034 927 820 923
8 1154 1042 930 1036 1035 929 822 924
8 1037 928 821 925 1155 1041 930 1036
8 1039 935 828 939 1156 1047 938 1055
8 1157 1043 932 1042 1038 933 825 929
8 1038 933 826 927 1158 1045 934 1040
8 1040 934 827 926 1159 1046 935 1039
8 930 824 932 1042 1041 931 1044 1160
8 1051 936 1048 1165 1175 1052 937 1053
8 1156 1047 938 1055 1053 937 1054 1178
8 939 828 940 1058 1055 938 1056 1181
8 941 829 942 1060 1057 939 1058 1183
8 942 830 943 1061 1058 940 1059 1184
8 1060 942 832 944 1185 1061 945 1062
8 1082 964 1063 1188 981 889 947 1064
8 1097 981 1064 1190 979 870 948 1066
8 1064 947 1065 1191 948 837 949 1067
8 1066 948 1067 1193 975 869 950 1069
8 1067 949 1068 1194 950 838 951 1070
8 1069 950 1070 1195 952 839 953 1071
8 956 849 959 1072 1073 958 1076 1197
8 1074 960 1076 1197 1008 906 959 1072
8 1073 958 1076 1197 965 868 980 1085
8 1074 960 906 1008 1198 1077 1014 1122
8 1133 1026 1079 1199 1019 918 962 1075
8 1077 963 913 1014 1200 1080 962 1075
8 960 853 963 1077 1076 961 1078 1201
8 980 883 961 1076 1099 994 1078 1201
8 1210 1083 964 1082 1100 999 889 981
8 966 871 980 1085 1086 984 1099 1215
8 967 872 984 1086 1087 985 1103 1216
8 971 876 985 1087 1090 988 1104 1217
8 1088 986 874 969 1218 1105 987 1089
8 972 879 986 1088 1091 991 1105 1218
8 970 875 988 1090 1089 987 1106 1219
8 973 880 991 1091 1092 992 1109 1220
8 1093 993 881 974 1221 1110 992 1092
8 1222 1108 990 1095 1093 993 882 976
8 1223 1101 982 1094 1096 989 877 977
8 1098 983 870 979 1223 1101 982 1094
8 1095 990 1107 1224 978 878 989 1096
8 1098 983 1100 1225 979 870 981 1097
8 984 884 994 1099 1103 995 1111 1227
8 1102 1001 1115 1228 983 891 999 1100
8 1101 1000 892 989 1229 1116 1002 1107
8 1102 1001 891 983 1229 1116 1000 1101
8 985 885 995 1103 1104 996 1112 1230
8 988 886 996 1104 1106 997 1113 1231
8 1105 998 888 987 1232 1114 997 1106
8 991 896 998 1105 1109 1005 1114 1232
8 1108 1003 1117 1233 990 893 1002 1107
8 1108 1003 894 993 1233 1117 1004 1110
8 992 895 1005 1109 1110 1004 1118 1234
8 1120 1013 1127 1244 1007 907 1015 1121
8 1148 1031 1127 1244 1030 920 1013 1120
8 1121 1015 1129 1245 1011 908 1016 1125
8 1126 1019 1075 1196 1246 1128 1014 1122
8 1246 1128 1014 1122 1123 1017 909 1009
8 1124 1018 1131 1247 1010 910 1017 1123
8 1125 1016 1130 1248 1012 911 1018 1124
8 1127 1020 1137 1254 1015 914 1022 1129
8 1031 921 1032 1149 1127 1020 1137 1254
8 1134 1027 918 1019 1257 1140 1021 1128
8 1257 1140 1021 1128 1131 1024 916 1017
8 1129 1022 1141 1258 1016 915 1023 1130
8 1130 1023 1142 1259 1018 917 1024 1131
8 1261 1144 1025 1132 1133 1026 1079 1199
8 1255 1138 1025 1132 1135 1028 1144 1261
8 1133 1026 918 1019 1262 1145 1027 1134
8 1136 1029 1139 1256 1263 1146 1028 1135
8 1037 928 1041 1155 1148 1031 1149 1275
8 1041 931 1044 1160 1149 1032 1150 1276
8 1151 1039 939 1057 1278 1156 1055 1180
8 1152 1040 926 1033 1279 1159 1039 1151
8 1153 1038 927 1034 1280 1158 1040 1152
8 1281 1157 1042 1154 1153 1038 929 1035
8 1036 930 1042 1154 1155 1041 1160 1282
8 1283 1164 1046 1159 1156 1047 935 1039
8 1165 1048 1164 1283 1053 937 1047 1156
8 1157 1043 933 1038 1284 1161 1045 1158
8 1157 1043 1161 1284 1042 932 1044 1160
8 1040 934 1046 1159 1158 1045 1163 1285
8 1166 1049 1167 1292 1051 936 1048 1165
8 1166 1049 936 1051 1293 1168 1050 1172
8 1051 936 1052 1175 1172 1050 1173 1306
8 1174 1051 1165 1290 1308 1175 1053 1177
8 1053 937 1054 1178 1175 1052 1176 1309
8 1278 1156 1055 1180 1177 1053 1178 1311
8 1055 938 1056 1181 1178 1054 1179 1312
8 1057 939 1058 1183 1180 1055 1181 1314
8 1058 940 1059 1184 1181 1056 1182 1315
8 1060 942 1061 1185 1183 1058 1184 1316
8 1208 1081 1187 1321 1082 964 1063 1188
8 1209 1082 1188 1322 1097 981 1064 1190
8 1188 1063 1189 1323 1064 947 1065 1191
8 1190 1064 1191 1325 1066 948 1067 1193
8 1191 1065 1192 1326 1067 949 1068 1194
8 1067 1193 1069 950 1194 1327 1195 1070
8 1250 1133 1199 1330 1126 1019 1075 1196
8 1198 1077 1014 1122 1331 1200 1075 1196
8 1074 960 1077 1198 1197 1076 1201 1332
8 1085 980 1076 1197 1215 1099 1201 1332
8 1199 1079 1203 1333 1075 962 1080 1200
8 1132 1025 1119 1243 1199 1079 1203 1333
8 1201 1078 963 1077 1334 1202 1080 1200
8 1099 994 1078 1201 1227 1111 1202 1334
8 1343 1207 1081 1208 1210 1083 964 1082
8 1214 1084 1186 1319 1343 1207 1081 1208
8 1345 1210 1082 1209 1225 1100 981 1097
8 1346 1211 1083 1210 1228 1115 999 1100
8 1086 984 1099 1215 1216 1103 1227 1352
8 1087 985 1103 1216 1217 1104 1230 1353
8 1090 988 1104 1217 1219 1106 1231 1354
8 1218 1105 987 1089 1355 1232 1106 1219
8 1091 991 1105 1218 1220 1109 1232 1355
8 1092 992 1109 1220 1221 1110 1234 1356
8 1222 1108 1233 1357 1095 990 1107 1224
8 1222 1108 993 1093 1357 1233 1110 1221
8 1223 1101 989 1096 1358 1229 1107 1224
8 1226 1102 983 1098 1358 1229 1101 1223
8 1226 1102 1228 1359 1098 983 1100 1225
8 1103 995 1111 1227 1230 1112 1235 1360
8 1107 1002 1117 1233 1229 1116 1240 1362
8 1102 1001 1116 1229 1228 1115 1240 1362
8 1104 996 1112 1230 1231 1113 1236 1363
8 1364 1237 1114 1232 1231 1113 997 1106
8 1109 1005 1114 1232 1234 1118 1238 1365
8 1110 1004 1118 1234 1233 1117 1241 1366
8 1242 1374 1255 1138 1119 1243 1132 1025
8 1244 1127 1254 1376 1121 1015 1129 1245
8 1148 1031 1149 1275 1244 1127 1254 1376
8 1245 1129 1258 1377 1125 1016 1130 1248
8 1251 1134 1019 1126 1378 1257 1128 1246
8 1378 1257 1128 1246 1247 1131 1017 1123
8 1248 1130 1259 1379 1124 1018 1131 1247
8 1261 1381 1250 1133 1132 1249 1330 1199
8 1255 1380 1252 1135 1132 1249 1381 1261
8 1250 1133 1019 1126 1382 1262 1134 1251
8 1253 1136 1256 1385 1384 1263 1135 1252
8 1254 1137 1265 1387 1129 1022 1141 1258
8 1149 1032 1150 1276 1254 1137 1265 1387
8 1028 1135 1255 1138 1139 1256 1388 1266
8 1136 1029 1147 1264 1256 1139 1267 1389
8 1390 1268 1140 1257 1259 1142 1024 1131
8 1260 1143 1027 1134 1390 1268 1140 1257
8 1258 1141 1269 1391 1130 1023 1142 1259
8 1262 1145 1027 1134 1393 1271 1143 1260
8 1261 1144 1026 1133 1394 1272 1145 1262
8 1135 1028 1144 1261 1263 1146 1272 1394
8 1136 1029 1146 1263 1264 1147 1273 1395
8 1155 1041 1160 1282 1275 1149 1276 1405
8 1276 1150 1044 1160 1406 1277 1162 1286
8 1408 1283 1159 1279 1278 1156 1039 1151
8 1290 1165 1283 1408 1177 1053 1156 1278
8 1152 1040 1159 1279 1280 1158 1285 1409
8 1281 1157 1038 1153 1410 1284 1158 1280
8 1281 1157 1284 1410 1154 1042 1160 1282
8 1159 1046 1164 1283 1285 1163 1289 1412
8 1292 1167 1289 1412 1165 1048 1164 1283
8 1158 1045 1163 1285 1284 1161 1288 1413
8 1284 1161 1288 1413 1160 1044 1162 1286
8 1291 1166 1292 1418 1174 1051 1165 1290
8 1291 1166 1051 1174 1419 1293 1172 1305
8 1294 1169 1296 1421 1166 1049 1167 1292
8 1293 1168 1050 1172 1422 1295 1171 1303
8 1294 1169 1049 1166 1423 1297 1168 1293
8 1422 1295 1171 1303 1301 1170 1302 1435
8 1172 1050 1173 1306 1303 1171 1304 1438
8 1174 1051 1175 1308 1305 1172 1306 1440
8 1175 1052 1176 1309 1306 1173 1307 1441
8 1177 1053 1178 1311 1308 1175 1309 1443
8 1178 1054 1179 1312 1309 1176 1310 1444
8 1180 1055 1181 1314 1311 1178 1312 1446
8 1056 1181 1312 1179 1182 1315 1447 1313
8 1183 1058 1184 1316 1314 1181 1315 1448
8 1319 1186 1084 1214 1451 1317 1213 1350
8 1319 1186 1318 1453 1208 1081 1187 1321
8 1321 1187 1320 1456 1188 1063 1189 1323
8 1344 1208 1321 1457 1209 1082 1188 1322
8 1322 1188 1323 1458 1190 1064 1191 1325
8 1323 1189 1324 1459 1191 1065 1192 1326
8 1191 1325 1193 1067 1326 1460 1327 1194
8 1242 1374 1243 1119 1328 1462 1335 1204
8 1330 1199 1333 1465 1196 1075 1200 1331
8 1132 1249 1330 1199 1243 1375 1465 1333
8 1332 1201 1077 1198 1466 1334 1200 1331
8 1215 1099 1201 1332 1352 1227 1334 1466
8 1119 1243 1333 1203 1204 1335 1470 1338
8 1333 1203 1338 1470 1200 1080 1202 1334
8 1227 1111 1202 1334 1360 1235 1338 1470
8 1328 1462 1335 1204 1205 1336 1471 1339
8 1337 1206 1340 1472 1464 1329 1205 1336
8 1346 1211 1342 1479 1210 1083 1207 1343
8 1346 1211 1115 1228 1479 1342 1239 1361
8 1348 1212 1084 1214 1479 1342 1207 1343
8 1480 1343 1208 1344 1345 1210 1082 1209
8 1351 1214 1319 1454 1480 1343 1208 1344
8 1481 1346 1210 1345 1359 1228 1100 1225
8 1348 1212 1347 1483 1214 1084 1213 1350
8 1216 1103 1227 1352 1353 1230 1360 1488
8 1217 1104 1230 1353 1354 1231 1363 1489
8 1490 1364 1232 1355 1354 1231 1106 1219
8 1220 1109 1232 1355 1356 1234 1365 1491
8 1221 1110 1234 1356 1357 1233 1366 1492
8 1224 1107 1233 1357 1358 1229 1362 1493
8 1226 1102 1229 1358 1359 1228 1362 1493
8 1230 1112 1235 1360 1363 1236 1367 1496
8 1361 1239 1115 1228 1497 1371 1240 1362
8 1366 1241 1372 1498 1233 1117 1240 1362
8 1364 1237 1113 1231 1499 1368 1236 1363
8 1364 1237 1368 1499 1232 1114 1238 1365
8 1234 1118 1238 1365 1366 1241 1369 1500
8 1507 1373 1242 1374 1388 1266 1138 1255
8 1508 1374 1243 1375 1380 1255 1132 1249
8 1376 1254 1387 1509 1245 1129 1258 1377
8 1275 1149 1276 1405 1376 1254 1387 1509
8 1377 1258 1391 1510 1248 1130 1259 1379
8 1511 1390 1257 1378 1379 1259 1131 1247
8 1383 1260 1134 1251 1511 1390 1257 1378
8 1252 1135 1256 1385 1380 1255 1388 1512
8 1261 1381 1513 1394 1133 1250 1382 1262
8 1135 1252 1384 1263 1261 1381 1513 1394
8 1382 1262 1134 1251 1514 1393 1260 1383
8 1253 1136 1263 1384 1386 1264 1395 1516
8 1253 1136 1264 1386 1385 1256 1389 1517
8 1387 1265 1397 1519 1258 1141 1269 1391
8 1276 1150 1277 1406 1387 1265 1397 1519
8 1256 1139 1267 1389 1388 1266 1398 1520
8 1264 1147 1274 1396 1389 1267 1399 1521
8 1392 1270 1143 1260 1522 1400 1268 1390
8 1390 1268 1142 1259 1522 1400 1269 1391
8 1392 1270 1401 1523 1260 1143 1271 1393
8 1272 1394 1524 1402 1145 1262 1393 1271
8 1395 1273 1146 1263 1524 1402 1272 1394
8 1273 1395 1264 1147 1403 1526 1396 1274
8 1405 1276 1160 1282 1534 1406 1286 1411
8 1414 1287 1407 1535 1286 1162 1277 1406
8 1279 1159 1283 1408 1409 1285 1412 1537
8 1418 1292 1412 1537 1290 1165 1283 1408
8 1280 1158 1285 1409 1410 1284 1413 1538
8 1410 1284 1413 1538 1282 1160 1286 1411
8 1285 1163 1289 1412 1413 1288 1417 1540
8 1421 1296 1417 1540 1292 1167 1289 1412
8 1414 1287 1162 1286 1541 1416 1288 1413
8 1420 1294 1421 1545 1291 1166 1292 1418
8 1419 1293 1172 1305 1546 1422 1303 1437
8 1420 1294 1166 1291 1547 1423 1293 1419
8 1294 1169 1297 1423 1421 1296 1425 1548
8 1423 1297 1168 1293 1549 1424 1295 1422
8 1301 1170 1298 1427 1422 1295 1424 1549
8 1432 1300 1428 1554 1301 1170 1298 1427
8 1431 1299 1428 1554 1560 1430 1300 1432
8 1563 1433 1300 1432 1435 1302 1170 1301
8 1546 1422 1303 1437 1434 1301 1435 1565
8 1303 1171 1304 1438 1435 1302 1436 1566
8 1305 1172 1306 1440 1437 1303 1438 1568
8 1306 1173 1307 1441 1438 1304 1439 1569
8 1308 1175 1309 1443 1440 1306 1441 1571
8 1309 1176 1310 1444 1441 1307 1442 1572
8 1311 1178 1312 1446 1443 1309 1444 1574
8 1179 1312 1444 1310 1313 1447 1575 1445
8 1314 1181 1315 1448 1446 1312 1447 1576
8 1350 1213 1349 1486 1451 1317 1449 1579
8 1451 1317 1450 1581 1319 1186 1318 1453
8 1454 1319 1214 1351 1582 1451 1350 1487
8 1453 1318 1452 1584 1321 1187 1320 1456
8 1454 1319 1453 1585 1344 1208 1321 1457
8 1456 1320 1455 1586 1323 1189 1324 1459
8 1457 1321 1456 1587 1322 1188 1323 1458
8 1458 1323 1459 1588 1325 1191 1326 1460
8 1205 1336 1464 1329 1328 1462 1590 1461
8 1507 1373 1461 1590 1374 1242 1328 1462
8 1508 1374 1462 1591 1375 1243 1335 1467
8 1337 1206 1329 1464 1473 1341 1463 1594
8 1375 1243 1335 1467 1465 1333 1470 1596
8 1465 1333 1470 1596 1331 1200 1334 1466
8 1352 1227 1334 1466 1488 1360 1470 1596
8 1591 1462 1336 1468 1467 1335 1471 1597
8 1469 1337 1472 1598 1595 1464 1336 1468
8 1471 1339 1474 1600 1335 1204 1338 1470
8 1600 1474 1367 1496 1470 1338 1235 1360
8 1336 1205 1340 1472 1471 1339 1475 1601
8 1337 1206 1341 1473 1472 1340 1476 1602
8 1495 1370 1478 1609 1361 1239 1342 1479
8 1348 1212 1342 1479 1483 1347 1478 1609
8 1481 1346 1479 1610 1345 1210 1343 1480
8 1481 1346 1228 1359 1610 1479 1361 1494
8 1484 1348 1214 1351 1610 1479 1343 1480
8 1483 1347 1482 1612 1350 1213 1349 1486
8 1484 1348 1483 1613 1351 1214 1350 1487
8 1353 1230 1360 1488 1489 1363 1496 1616
8 1490 1364 1231 1354 1617 1499 1363 1489
8 1490 1364 1499 1617 1355 1232 1365 1491
8 1356 1234 1365 1491 1492 1366 1500 1619
8 1492 1366 1498 1620 1357 1233 1362 1493
8 1494 1361 1228 1359 1621 1497 1362 1493
8 1495 1370 1239 1361 1622 1504 1371 1497
8 1363 1236 1367 1496 1499 1368 1501 1623
8 1497 1371 1240 1362 1624 1505 1372 1498
8 1625 1503 1372 1498 1500 1369 1241 1366
8 1365 1238 1368 1499 1500 1369 1502 1626
8 1520 1398 1506 1633 1388 1266 1373 1507
8 1634 1507 1374 1508 1512 1388 1255 1380
8 1509 1387 1519 1635 1377 1258 1391 1510
8 1405 1276 1406 1534 1509 1387 1519 1635
8 1515 1392 1260 1383 1636 1522 1390 1511
8 1511 1390 1259 1379 1636 1522 1391 1510
8 1385 1256 1389 1517 1512 1388 1520 1637
8 1513 1394 1262 1382 1638 1524 1393 1514
8 1395 1516 1638 1524 1263 1384 1513 1394
8 1515 1392 1523 1639 1383 1260 1393 1514
8 1516 1395 1526 1640 1386 1264 1396 1518
8 1386 1264 1396 1518 1517 1389 1521 1641
8 1519 1397 1527 1643 1391 1269 1400 1522
8 1535 1407 1527 1643 1406 1277 1397 1519
8 1389 1267 1399 1521 1520 1398 1528 1644
8 1645 1529 1399 1521 1525 1404 1274 1396
8 1392 1270 1400 1522 1523 1401 1531 1646
8 1524 1402 1271 1393 1648 1532 1401 1523
8 1403 1526 1648 1532 1273 1395 1524 1402
8 1525 1404 1274 1396 1649 1533 1403 1526
8 1539 1414 1535 1657 1411 1286 1406 1534
8 1542 1415 1536 1658 1414 1287 1407 1535
8 1409 1285 1412 1537 1538 1413 1540 1660
8 1545 1421 1540 1660 1418 1292 1412 1537
8 1539 1414 1286 1411 1661 1541 1413 1538
8 1540 1417 1544 1663 1413 1288 1416 1541
8 1421 1296 1425 1548 1540 1417 1544 1663
8 1542 1415 1287 1414 1664 1543 1416 1541
8 1420 1294 1423 1547 1545 1421 1548 1666
8 1547 1423 1293 1419 1667 1549 1422 1546
8 1434 1301 1427 1553 1546 1422 1549 1667
8 1423 1297 1424 1549 1548 1425 1550 1668
8 1551 1426 1550 1668 1427 1298 1424 1549
8 1551 1426 1298 1427 1671 1552 1428 1554
8 1562 1432 1554 1674 1434 1301 1427 1553
8 1431 1299 1429 1558 1554 1428 1555 1675
8 1431 1299 1430 1560 1558 1429 1557 1680
8 1560 1430 1300 1432 1683 1559 1433 1563
8 1561 1431 1554 1674 1684 1560 1432 1562
8 1685 1563 1432 1562 1565 1435 1301 1434
8 1435 1302 1436 1566 1563 1433 1564 1686
8 1437 1303 1438 1568 1565 1435 1566 1688
8 1438 1304 1439 1569 1566 1436 1567 1689
8 1440 1306 1441 1571 1568 1438 1569 1691
8 1441 1307 1442 1572 1569 1439 1570 1692
8 1443 1309 1444 1574 1571 1441 1572 1694
8 1310 1444 1572 1442 1445 1575 1695 1573
8 1446 1312 1447 1576 1574 1444 1575 1696
8 1486 1349 1485 1614 1579 1449 1577 1699
8 1451 1317 1449 1579 1581 1450 1578 1701
8 1487 1350 1486 1615 1582 1451 1579 1702
8 1581 1450 1580 1704 1453 1318 1452 1584
8 1582 1451 1581 1705 1454 1319 1453 1585
8 1584 1452 1583 1706 1456 1320 1455 1586
8 1585 1453 1584 1707 1457 1321 1456 1587
8 1587 1456 1586 1708 1458 1323 1459 1588
8 1633 1506 1589 1710 1507 1373 1461 1590
8 1464 1329 1461 1590 1594 1463 1589 1710
8 1468 1336 1462 1591 1595 1464 1590 1711
8 1634 1507 1590 1711 1508 1374 1462 1591
8 1473 1341 1463 1594 1603 1477 1593 1716
8 1469 1337 1464 1595 1599 1473 1594 1717
8 1471 1597 1467 1335 1600 1718 1596 1470
8 1718 1600 1496 1616 1596 1470 1360 1488
8 1336 1468 1597 1471 1472 1598 1719 1601
8 1469 1337 1473 1599 1598 1472 1602 1720
8 1722 1604 1501 1623 1600 1474 1367 1496
8 1475 1601 1471 1339 1604 1722 1600 1474
8 1602 1476 1605 1723 1472 1340 1475 1601
8 1476 1602 1724 1606 1341 1473 1603 1477
8 1483 1347 1478 1609 1612 1482 1608 1731
8 1495 1370 1504 1622 1609 1478 1608 1731
8 1618 1495 1609 1732 1494 1361 1479 1610
8 1484 1348 1479 1610 1613 1483 1609 1732
8 1486 1349 1482 1612 1614 1485 1611 1733
8 1613 1483 1612 1734 1487 1350 1486 1615
8 1489 1363 1496 1616 1617 1499 1623 1736
8 1491 1365 1499 1617 1619 1500 1626 1737
8 1618 1495 1361 1494 1738 1622 1497 1621
8 1739 1625 1498 1620 1619 1500 1366 1492
8 1621 1497 1362 1493 1740 1624 1498 1620
8 1742 1631 1504 1622 1624 1505 1371 1497
8 1743 1628 1502 1626 1623 1501 1368 1499
8 1744 1630 1505 1624 1625 1503 1372 1498
8 1745 1629 1503 1625 1626 1502 1369 1500
8 1520 1398 1528 1644 1633 1506 1632 1751
8 1637 1520 1633 1752 1512 1388 1507 1634
8 1635 1519 1643 1753 1510 1391 1522 1636
8 1657 1535 1643 1753 1534 1406 1519 1635
8 1515 1392 1522 1636 1639 1523 1646 1754
8 1517 1389 1521 1641 1637 1520 1644 1755
8 1524 1638 1756 1648 1393 1514 1639 1523
8 1640 1526 1395 1516 1756 1648 1524 1638
8 1642 1525 1396 1518 1757 1649 1526 1640
8 1758 1645 1521 1641 1642 1525 1396 1518
8 1646 1531 1400 1522 1760 1650 1527 1643
8 1535 1407 1536 1658 1643 1527 1650 1760
8 1521 1399 1529 1645 1644 1528 1651 1761
8 1647 1530 1652 1762 1525 1404 1529 1645
8 1401 1523 1648 1532 1531 1646 1763 1655
8 1525 1404 1533 1649 1647 1530 1654 1765
8 1533 1649 1766 1656 1403 1526 1648 1532
8 1662 1542 1658 1774 1539 1414 1535 1657
8 1542 1415 1543 1664 1658 1536 1659 1775
8 1660 1540 1663 1777 1538 1413 1541 1661
8 1545 1421 1548 1666 1660 1540 1663 1777
8 1662 1542 1414 1539 1778 1664 1541 1661
8 1664 1543 1416 1541 1779 1665 1544 1663
8 1548 1425 1550 1668 1663 1544 1665 1779
8 1547 1423 1549 1667 1666 1548 1668 1781
8 1670 1551 1668 1781 1553 1427 1549 1667
8 1551 1426 1552 1671 1668 1550 1669 1782
8 1670 1551 1427 1553 1784 1671 1554 1674
8 1675 1555 1672 1785 1554 1428 1552 1671
8 1678 1556 1673 1789 1558 1429 1555 1675
8 1561 1431 1558 1681 1674 1554 1675 1790
8 1794 1677 1556 1678 1680 1557 1429 1558
8 1560 1430 1559 1683 1680 1557 1679 1797
8 1561 1431 1560 1684 1681 1558 1680 1798
8 1563 1433 1564 1686 1683 1559 1682 1800
8 1684 1560 1432 1562 1801 1683 1563 1685
8 1565 1435 1566 1688 1685 1563 1686 1802
8 1566 1436 1567 1689 1686 1564 1687 1803
8 1568 1438 1569 1691 1688 1566 1689 1805
8 1569 1439 1570 1692 1689 1567 1690 1806
8 1571 1441 1572 1694 1691 1569 1692 1808
8 1442 1572 1692 1570 1573 1695 1809 1693
8 1574 1444 1575 1696 1694 1572 1695 1810
8 1614 1485 1592 1712 1699 1577 1697 1813
8 1579 1449 1577 1699 1701 1578 1698 1815
8 1615 1486 1614 1735 1702 1579 1699 1816
8 1701 1578 1700 1818 1581 1450 1580 1704
8 1582 1451 1579 1702 1705 1581 1701 1819
8 1704 1580 1703 1820 1584 1452 1583 1706
8 1705 1581 1704 1821 1585 1453 1584 1707
8 1707 1584 1706 1822 1587 1456 1586 1708
8 1710 1589 1506 1633 1824 1709 1632 1751
8 1594 1463 1589 1710 1716 1593 1709 1824
8 1752 1633 1710 1825 1634 1507 1590 1711
8 1595 1464 1590 1711 1717 1594 1710 1825
8 1830 1714 1592 1712 1733 1611 1485 1614
8 1603 1477 1593 1716 1725 1607 1715 1834
8 1599 1473 1594 1717 1721 1603 1716 1835
8 1837 1722 1623 1736 1718 1600 1496 1616
8 1719 1601 1722 1837 1597 1471 1600 1718
8 1602 1720 1598 1472 1723 1838 1719 1601
8 1720 1602 1473 1599 1839 1724 1603 1721
8 1723 1605 1726 1840 1601 1475 1604 1722
8 1840 1726 1628 1743 1722 1604 1501 1623
8 1724 1606 1727 1841 1602 1476 1605 1723
8 1725 1607 1728 1842 1603 1477 1606 1724
8 1612 1482 1608 1731 1733 1611 1730 1849
8 1741 1627 1730 1849 1622 1504 1608 1731
8 1613 1483 1609 1732 1734 1612 1731 1850
8 1618 1495 1622 1738 1732 1609 1731 1850
8 1615 1486 1612 1734 1735 1614 1733 1851
8 1852 1743 1626 1737 1736 1623 1499 1617
8 1853 1745 1625 1739 1737 1626 1500 1619
8 1855 1742 1622 1738 1740 1624 1497 1621
8 1856 1744 1624 1740 1739 1625 1498 1620
8 1741 1627 1504 1622 1857 1746 1631 1742
8 1742 1631 1505 1624 1858 1749 1630 1744
8 1859 1747 1629 1745 1743 1628 1502 1626
8 1860 1748 1630 1744 1745 1629 1503 1625
8 1644 1528 1651 1761 1751 1632 1750 1865
8 1637 1520 1644 1755 1752 1633 1751 1866
8 1754 1646 1522 1636 1867 1760 1643 1753
8 1657 1535 1658 1774 1753 1643 1760 1867
8 1639 1523 1646 1754 1756 1648 1763 1868
8 1641 1521 1645 1758 1755 1644 1761 1869
8 1757 1649 1526 1640 1870 1766 1648 1756
8 1642 1525 1649 1757 1759 1647 1765 1871
8 1759 1647 1762 1872 1642 1525 1645 1758
8 1760 1650 1767 1874 1646 1531 1655 1763
8 1658 1536 1659 1775 1760 1650 1767 1874
8 1762 1652 1768 1875 1645 1529 1651 1761
8 1764 1653 1769 1876 1647 1530 1652 1762
8 1656 1766 1877 1773 1532 1648 1763 1655
8 1771 1879 1765 1654 1653 1764 1647 1530
8 1533 1649 1765 1654 1656 1766 1880 1772
8 1662 1542 1664 1778 1774 1658 1775 1887
8 1664 1543 1665 1779 1775 1659 1776 1888
8 1778 1664 1541 1661 1890 1779 1663 1777
8 1666 1548 1668 1781 1777 1663 1779 1890
8 1782 1669 1780 1891 1668 1550 1665 1779
8 1670 1551 1671 1784 1781 1668 1782 1893
8 1671 1552 1672 1785 1782 1669 1783 1894
8 1790 1675 1785 1896 1674 1554 1671 1784
8 1675 1555 1673 1789 1785 1672 1786 1897
8 1792 1676 1788 1903 1678 1556 1673 1789
8 1795 1678 1789 1904 1681 1558 1675 1790
8 1792 1676 1556 1678 1906 1791 1677 1794
8 1680 1557 1679 1797 1794 1677 1793 1909
8 1910 1794 1678 1795 1798 1680 1558 1681
8 1683 1559 1682 1800 1797 1679 1796 1912
8 1684 1560 1683 1801 1798 1680 1797 1913
8 1686 1564 1687 1803 1800 1682 1799 1915
8 1685 1563 1686 1802 1801 1683 1800 1916
8 1688 1566 1689 1805 1802 1686 1803 1917
8 1689 1567 1690 1806 1803 1687 1804 1918
8 1691 1569 1692 1808 1805 1689 1806 1920
8 1692 1570 1693 1809 1806 1690 1807 1921
8 1694 1572 1695 1810 1808 1692 1809 1922
8 1829 1713 1811 1926 1712 1592 1697 1813
8 1813 1697 1812 1928 1699 1577 1698 1815
8 1735 1614 1712 1828 1816 1699 1813 1929
8 1815 1698 1814 1931 1701 1578 1700 1818
8 1702 1579 1699 1816 1819 1701 1815 1932
8 1818 1700 1817 1933 1704 1580 1703 1820
8 1819 1701 1818 1934 1705 1581 1704 1821
8 1821 1704 1820 1935 1707 1584 1706 1822
8 1824 1709 1632 1751 1937 1823 1750 1865
8 1716 1593 1709 1824 1834 1715 1823 1937
8 1825 1710 1633 1752 1938 1824 1751 1866
8 1717 1594 1710 1825 1835 1716 1824 1938
8 1945 1830 1712 1828 1851 1733 1614 1735
8 1830 1714 1831 1946 1712 1592 1713 1829
8 1947 1832 1714 1830 1849 1730 1611 1733
8 1843 1729 1607 1725 1950 1833 1715 1834
8 1721 1603 1716 1835 1836 1725 1834 1951
8 1836 1725 1842 1953 1721 1603 1724 1839
8 1723 1838 1719 1601 1840 1954 1837 1722
8 1954 1840 1743 1852 1837 1722 1623 1736
8 1724 1839 1720 1602 1841 1955 1838 1723
8 1841 1727 1844 1956 1723 1605 1726 1840
8 1956 1844 1747 1859 1840 1726 1628 1743
8 1728 1842 1724 1606 1845 1957 1841 1727
8 1725 1607 1729 1843 1842 1728 1846 1958
8 1741 1627 1746 1857 1849 1730 1848 1965
8 1734 1612 1731 1850 1851 1733 1849 1966
8 1854 1741 1849 1966 1738 1622 1731 1850
8 1967 1859 1745 1853 1852 1743 1626 1737
8 1968 1860 1744 1856 1853 1745 1625 1739
8 1854 1741 1622 1738 1969 1857 1742 1855
8 1855 1742 1624 1740 1970 1858 1744 1856
8 1857 1746 1631 1742 1971 1861 1749 1858
8 1858 1749 1630 1744 1972 1863 1748 1860
8 1859 1747 1862 1973 1745 1629 1748 1860
8 1875 1768 1864 1977 1761 1651 1750 1865
8 1755 1644 1761 1869 1866 1751 1865 1978
8 1867 1760 1874 1979 1754 1646 1763 1868
8 1774 1658 1775 1887 1867 1760 1874 1979
8 1870 1766 1648 1756 1980 1877 1763 1868
8 1872 1762 1875 1981 1758 1645 1761 1869
8 1757 1649 1766 1870 1871 1765 1880 1982
8 1983 1879 1764 1873 1871 1765 1647 1759
8 1873 1764 1876 1984 1759 1647 1762 1872
8 1877 1773 1655 1763 1986 1881 1767 1874
8 1775 1659 1776 1888 1874 1767 1881 1986
8 1876 1769 1882 1987 1762 1652 1768 1875
8 1878 1770 1883 1988 1764 1653 1769 1876
8 1880 1772 1656 1766 1989 1886 1773 1877
8 1878 1770 1653 1764 1990 1884 1771 1879
8 1765 1654 1772 1880 1879 1771 1885 1991
8 1778 1664 1779 1890 1887 1775 1888 1997
8 1998 1889 1776 1888 1891 1780 1665 1779
8 1893 1782 1891 2000 1781 1668 1779 1890
8 1894 1783 1892 2001 1782 1669 1780 1891
8 1784 1671 1785 1896 1893 1782 1894 2003
8 1897 1786 1895 2004 1785 1672 1783 1894
8 1790 1675 1789 1904 1896 1785 1897 2006
8 1901 1787 1898 2007 1789 1673 1786 1897
8 1903 1788 1900 2013 1789 1673 1787 1901
8 1792 1676 1791 1906 1903 1788 1902 2016
8 1907 1792 1903 2017 1795 1678 1789 1904
8 1906 1791 1677 1794 2019 1905 1793 1909
8 1907 1792 1678 1795 2020 1906 1794 1910
8 1797 1679 1796 1912 1909 1793 1908 2022
8 1798 1680 1797 1913 1910 1794 1909 2023
8 1800 1682 1799 1915 1912 1796 1911 2025
8 1801 1683 1800 1916 1913 1797 1912 2026
8 1803 1687 1804 1918 1915 1799 1914 2028
8 1802 1686 1803 1917 1916 1800 1915 2029
8 1805 1689 1806 1920 1917 1803 1918 2030
8 1806 1690 1807 1921 1918 1804 1919 2031
8 1808 1692 1809 1922 1920 1806 1921 2032
8 1939 1826 1924 2037 1829 1713 1811 1926
8 1926 1811 1925 2039 1813 1697 1812 1928
8 1944 1829 1926 2040 1828 1712 1813 1929
8 1928 1812 1927 2042 1815 1698 1814 1931
8 1929 1813 1928 2043 1816 1699 1815 1932
8 1931 1814 1930 2044 1818 1700 1817 1933
8 1932 1815 1931 2045 1819 1701 1818 1934
8 1934 1818 1933 2046 1821 1704 1820 1935
8 2048 1936 1823 1937 1977 1864 1750 1865
8 1950 1833 1715 1834 2048 1936 1823 1937
8 1938 1824 1751 1866 2049 1937 1865 1978
8 1835 1716 1824 1938 1951 1834 1937 2049
8 1939 1826 1713 1829 2053 1942 1831 1946
8 1940 1827 1923 2035 2053 1942 1826 1939
8 1945 1830 1946 2058 1828 1712 1829 1944
8 2059 1947 1830 1945 1966 1849 1733 1851
8 1947 1832 1730 1849 2060 1948 1848 1965
8 1947 1832 1948 2060 1830 1714 1831 1946
8 1959 1847 1729 1843 2063 1949 1833 1950
8 1952 1843 1725 1836 2064 1950 1834 1951
8 1836 1725 1843 1952 1953 1842 1958 2066
8 1953 1842 1957 2067 1839 1724 1841 1955
8 1841 1955 1838 1723 1956 2068 1954 1840
8 2068 1956 1859 1967 1954 1840 1743 1852
8 1956 1844 1960 2069 1859 1747 1862 1973
8 1845 1957 1841 1727 1960 2069 1956 1844
8 1728 1842 1957 1845 1846 1958 2071 1961
8 1962 2072 1959 1847 1846 1958 1843 1729
8 1971 1861 1964 2077 1857 1746 1848 1965
8 1854 1741 1857 1969 1966 1849 1965 2078
8 1967 1859 1973 2079 1853 1745 1860 1968
8 1970 1858 1744 1856 2080 1972 1860 1968
8 1969 1857 1742 1855 2081 1971 1858 1970
8 1971 1861 1749 1858 2082 1974 1863 1972
8 1973 1862 1975 2083 1860 1748 1863 1972
8 1987 1882 1976 2086 1875 1768 1864 1977
8 1981 1875 1977 2087 1869 1761 1865 1978
8 1980 1877 1763 1868 2088 1986 1874 1979
8 1887 1775 1888 1997 1979 1874 1986 2088
8 1880 1982 2089 1989 1766 1870 1980 1877
8 1984 1876 1987 2090 1872 1762 1875 1981
8 1765 1871 1983 1879 1880 1982 2091 1991
8 1985 1878 1764 1873 2092 1990 1879 1983
8 1985 1878 1988 2093 1873 1764 1876 1984
8 2094 1992 1881 1986 1998 1889 1776 1888
8 1986 1881 1992 2094 1877 1773 1886 1989
8 1988 1883 1993 2095 1876 1769 1882 1987
8 1878 1770 1884 1990 1988 1883 1994 2096
8 1991 1885 1772 1880 2097 1996 1886 1989
8 1879 1771 1885 1991 1990 1884 1995 2098
8 2103 1998 1888 1997 2000 1891 1779 1890
8 2104 1999 1889 1998 2001 1892 1780 1891
8 2003 1894 2001 2106 1893 1782 1891 2000
8 2004 1895 2002 2107 1894 1783 1892 2001
8 2006 1897 2004 2109 1896 1785 1894 2003
8 2007 1898 2005 2110 1897 1786 1895 2004
8 2014 1901 2007 2112 1904 1789 1897 2006
8 2011 1899 2008 2113 1901 1787 1898 2007
8 2119 2010 1899 2011 2013 1900 1787 1901
8 2016 1902 2012 2122 1903 1788 1900 2013
8 2017 1903 2013 2123 1904 1789 1901 2014
8 1906 1791 1905 2019 2016 1902 2015 2125
8 1907 1792 1906 2020 2017 1903 2016 2126
8 1909 1793 1908 2022 2019 1905 2018 2128
8 2020 1906 1794 1910 2129 2019 1909 2023
8 1912 1796 1911 2025 2022 1908 2021 2131
8 1913 1797 1912 2026 2023 1909 2022 2132
8 1915 1799 1914 2028 2025 1911 2024 2134
8 1916 1800 1915 2029 2026 1912 2025 2135
8 1918 1804 1919 2031 2028 1914 2027 2136
8 1917 1803 1918 2030 2029 1915 2028 2137
8 1920 1806 1921 2032 2030 1918 2031 2138
8 1940 1827 1941 2054 2035 1923 2033 2140
8 2035 1923 2034 2143 1939 1826 1924 2037
8 2037 1924 2036 2146 1926 1811 1925 2039
8 2051 1939 2037 2147 1944 1829 1926 2040
8 2039 1925 2038 2149 1928 1812 1927 2042
8 2040 1926 2039 2150 1929 1813 1928 2043
8 2042 1927 2041 2151 1931 1814 1930 2044
8 2043 1928 2042 2152 1932 1815 1931 2045
8 2045 1931 2044 2153 1934 1818 1933 2046
8 2155 2047 1936 2048 2086 1976 1864 1977
8 2063 1949 1833 1950 2155 2047 1936 2048
8 2156 2048 1937 2049 2087 1977 1865 1978
8 2064 1950 1834 1951 2156 2048 1937 2049
8 2051 1939 1829 1944 2160 2053 1946 2058
8 2052 1940 2035 2144 2160 2053 1939 2051
8 2053 1942 1831 1946 2163 2057 1948 2060
8 2055 1943 1827 1940 2163 2057 1942 2053
8 2055 1943 2056 2164 1940 1827 1941 2054
8 2059 1947 1849 1966 2167 2060 1965 2078
8 2059 1947 2060 2167 1945 1830 1946 2058
8 2077 1964 2061 2168 1965 1848 1948 2060
8 2070 1963 1847 1959 2170 2062 1949 2063
8 2065 1959 1843 1952 2171 2063 1950 2064
8 2173 2072 1958 2066 2065 1959 1843 1952
8 1953 1842 1958 2066 2067 1957 2071 2174
8 2068 1956 2069 2175 1967 1859 1973 2079
8 2067 1957 2069 2175 1955 1841 1956 2068
8 1845 1957 2069 1960 1961 2071 2176 2073
8 2069 1960 2073 2176 1973 1862 1975 2083
8 2070 1963 2075 2177 1959 1847 1962 2072
8 1846 1958 2071 1961 1962 2072 2178 2074
8 2077 1964 1861 1971 2182 2076 1974 2082
8 2081 1971 2077 2183 1969 1857 1965 2078
8 2079 1973 2083 2184 1968 1860 1972 2080
8 2081 1971 1858 1970 2185 2082 1972 2080
8 2083 1975 2084 2186 1972 1863 1974 2082
8 2086 1976 1882 1987 2189 2085 1993 2095
8 2090 1987 2086 2190 1981 1875 1977 2087
8 2191 2094 1986 2088 2103 1998 1888 1997
8 2088 1986 2094 2191 1980 1877 1989 2089
8 1991 2091 2192 2097 1880 1982 2089 1989
8 2093 1988 2095 2193 1984 1876 1987 2090
8 1879 1983 2092 1990 1991 2091 2194 2098
8 1985 1878 1990 2092 2093 1988 2096 2195
8 2097 1996 1886 1989 2196 2099 1992 2094
8 2196 2099 1992 2094 2104 1999 1889 1998
8 1994 2096 1988 1883 2100 2197 2095 1993
8 2096 1994 1884 1990 2198 2101 1995 2098
8 1995 2098 2199 2102 1885 1991 2097 1996
8 2203 2104 1998 2103 2106 2001 1891 2000
8 2107 2002 2105 2204 2001 1892 1999 2104
8 2109 2004 2107 2206 2003 1894 2001 2106
8 2110 2005 2108 2207 2004 1895 2002 2107
8 2112 2007 2110 2209 2006 1897 2004 2109
8 2113 2008 2111 2210 2007 1898 2005 2110
8 2120 2011 2113 2212 2014 1901 2007 2112
8 2117 2009 2114 2213 2011 1899 2008 2113
8 2219 2116 2009 2117 2119 2010 1899 2011
8 2222 2118 2010 2119 2122 2012 1900 2013
8 2223 2119 2011 2120 2123 2013 1901 2014
8 2016 1902 2015 2125 2122 2012 2121 2225
8 2126 2016 2122 2226 2017 1903 2013 2123
8 2019 1905 2018 2128 2125 2015 2124 2228
8 2020 1906 2019 2129 2126 2016 2125 2229
8 2022 1908 2021 2131 2128 2018 2127 2231
8 2023 1909 2022 2132 2129 2019 2128 2232
8 2025 1911 2024 2134 2131 2021 2130 2234
8 2026 1912 2025 2135 2132 2022 2131 2235
8 1914 2028 2134 2024 2027 2136 2236 2133
8 2029 1915 2028 2137 2135 2025 2134 2237
8 2030 1918 2031 2138 2137 2028 2136 2238
8 2157 2050 2139 2240 2054 1941 2033 2140
8 2052 1940 2054 2161 2144 2035 2140 2242
8 2140 2033 2141 2243 2035 1923 2034 2143
8 2143 2034 2142 2246 2037 1924 2036 2146
8 2144 2035 2143 2247 2051 1939 2037 2147
8 2146 2036 2145 2249 2039 1925 2038 2149
8 2147 2037 2146 2250 2040 1926 2039 2150
8 2149 2038 2148 2251 2042 1927 2041 2151
8 2150 2039 2149 2252 2043 1928 2042 2152
8 2152 2042 2151 2253 2045 1931 2044 2153
8 2255 2154 2047 2155 2189 2085 1976 2086
8 2170 2062 1949 2063 2255 2154 2047 2155
8 2256 2155 2048 2156 2190 2086 1977 2087
8 2171 2063 1950 2064 2256 2155 2048 2156
8 2258 2159 2050 2157 2164 2056 1941 2054
8 2160 2053 1946 2058 2262 2163 2060 2167
8 2162 2055 1940 2052 2262 2163 2053 2160
8 2162 2055 2164 2263 2052 1940 2054 2161
8 2163 2057 1948 2060 2264 2165 2061 2168
8 2055 1943 2057 2163 2164 2056 2165 2264
8 2182 2076 2166 2268 2077 1964 2061 2168
8 2183 2077 2168 2269 2078 1965 2060 2167
8 2070 1963 2062 2170 2177 2075 2169 2271
8 2172 2070 1959 2065 2272 2170 2063 2171
8 2172 2070 2177 2273 2065 1959 2072 2173
8 2066 1958 2072 2173 2174 2071 2178 2274
8 2067 1957 2071 2174 2175 2069 2176 2275
8 2175 2069 2176 2275 2079 1973 2083 2184
8 2071 1961 2074 2178 2176 2073 2179 2276
8 2176 2073 2179 2276 2083 1975 2084 2186
8 2072 1962 2075 2177 2178 2074 2180 2277
8 2182 2076 1974 2082 2280 2181 2084 2186
8 2183 2077 1971 2081 2281 2182 2082 2185
8 2184 2083 2186 2282 2080 1972 2082 2185
8 2189 2085 1993 2095 2285 2188 2100 2197
8 2190 2086 1987 2090 2286 2189 2095 2193
8 2192 2097 1989 2089 2287 2196 2094 2191
8 2287 2196 2094 2191 2203 2104 1998 2103
8 2194 2098 1991 2091 2288 2199 2097 2192
8 2195 2096 2197 2289 2093 1988 2095 2193
8 2096 2195 2290 2198 1990 2092 2194 2098
8 2097 1996 2099 2196 2199 2102 2200 2291
8 2196 2099 1999 2104 2291 2200 2105 2204
8 2100 2197 2292 2201 1994 2096 2198 2101
8 1995 2098 2198 2101 2102 2199 2293 2202
8 2206 2107 2204 2296 2106 2001 2104 2203
8 2207 2108 2205 2297 2107 2002 2105 2204
8 2209 2110 2207 2299 2109 2004 2107 2206
8 2210 2111 2208 2300 2110 2005 2108 2207
8 2212 2113 2210 2302 2112 2007 2110 2209
8 2213 2114 2211 2303 2113 2008 2111 2210
8 2220 2117 2213 2305 2120 2011 2113 2212
8 2216 2115 2214 2306 2117 2009 2114 2213
8 2216 2115 2009 2117 2311 2217 2116 2219
8 2219 2116 2010 2119 2314 2218 2118 2222
8 2315 2219 2117 2220 2223 2119 2011 2120
8 2122 2012 2121 2225 2222 2118 2221 2317
8 2318 2222 2119 2223 2226 2122 2013 2123
8 2125 2015 2124 2228 2225 2121 2224 2320
8 2126 2016 2125 2229 2226 2122 2225 2321
8 2128 2018 2127 2231 2228 2124 2227 2323
8 2129 2019 2128 2232 2229 2125 2228 2324
8 2131 2021 2130 2234 2231 2127 2230 2326
8 2132 2022 2131 2235 2232 2128 2231 2327
8 2134 2024 2133 2236 2234 2130 2233 2328
8 2135 2025 2134 2237 2235 2131 2234 2329
8 2137 2028 2136 2238 2237 2134 2236 2330
8 2157 2050 2158 2259 2240 2139 2239 2332
8 2257 2157 2240 2334 2161 2054 2140 2242
8 2240 2139 2241 2335 2140 2033 2141 2243
8 2242 2140 2243 2337 2144 2035 2143 2247
8 2243 2141 2244 2338 2143 2034 2142 2246
8 2246 2142 2245 2341 2146 2036 2145 2249
8 2247 2143 2246 2342 2147 2037 2146 2250
8 2249 2145 2248 2343 2149 2038 2148 2251
8 2250 2146 2249 2344 2150 2039 2149 2252
8 2252 2149 2251 2345 2152 2042 2151 2253
8 2169 2271 2347 2254 2062 2170 2255 2154
8 2189 2085 2188 2285 2255 2154 2254 2347
8 2348 2255 2155 2256 2286 2189 2086 2190
8 2272 2170 2063 2171 2348 2255 2155 2256
8 2349 2258 2157 2257 2263 2164 2054 2161
8 2258 2159 2261 2351 2157 2050 2158 2259
8 2258 2159 2056 2164 2351 2261 2165 2264
8 2262 2163 2060 2167 2355 2264 2168 2269
8 2162 2055 2163 2262 2263 2164 2264 2355
8 2357 2266 2165 2264 2268 2166 2061 2168
8 2268 2166 2076 2182 2361 2267 2181 2280
8 2281 2182 2268 2362 2183 2077 2168 2269
8 2271 2169 2270 2364 2177 2075 2180 2277
8 2172 2070 2170 2272 2273 2177 2271 2365
8 2072 2173 2274 2178 2177 2273 2366 2277
8 2071 2174 2275 2176 2178 2274 2367 2276
8 2275 2176 2276 2367 2184 2083 2186 2282
8 2283 2187 2084 2186 2368 2278 2179 2276
8 2178 2074 2180 2277 2276 2179 2278 2368
8 2283 2187 2279 2370 2186 2084 2181 2280
8 2281 2182 2082 2185 2371 2280 2186 2282
8 2188 2285 2374 2284 2100 2197 2292 2201
8 2286 2189 2095 2193 2375 2285 2197 2289
8 2192 2097 2196 2287 2288 2199 2291 2376
8 2287 2196 2104 2203 2376 2291 2204 2296
8 2194 2098 2199 2288 2290 2198 2293 2377
8 2289 2197 2096 2195 2378 2292 2198 2290
8 2291 2200 2105 2204 2379 2294 2205 2297
8 2199 2102 2200 2291 2293 2202 2294 2379
8 2198 2101 2202 2293 2292 2201 2295 2380
8 2299 2207 2297 2383 2206 2107 2204 2296
8 2300 2208 2298 2384 2207 2108 2205 2297
8 2302 2210 2300 2386 2209 2110 2207 2299
8 2303 2211 2301 2387 2210 2111 2208 2300
8 2305 2213 2303 2389 2212 2113 2210 2302
8 2306 2214 2304 2390 2213 2114 2211 2303
8 2310 2216 2306 2392 2220 2117 2213 2305
8 2308 2215 2307 2393 2216 2115 2214 2306
8 2308 2215 2115 2216 2396 2309 2217 2311
8 2310 2216 2117 2220 2398 2311 2219 2315
8 2311 2217 2116 2219 2399 2312 2218 2314
8 2314 2218 2118 2222 2402 2313 2221 2317
8 2315 2219 2119 2223 2403 2314 2222 2318
8 2225 2121 2224 2320 2317 2221 2316 2405
8 2226 2122 2225 2321 2318 2222 2317 2406
8 2228 2124 2227 2323 2320 2224 2319 2408
8 2229 2125 2228 2324 2321 2225 2320 2409
8 2231 2127 2230 2326 2323 2227 2322 2411
8 2232 2128 2231 2327 2324 2228 2323 2412
8 2234 2130 2233 2328 2326 2230 2325 2413
8 2235 2131 2234 2329 2327 2231 2326 2414
8 2237 2134 2236 2330 2329 2234 2328 2415
8 2259 2158 2260 2352 2332 2239 2331 2417
8 2257 2157 2259 2350 2334 2240 2332 2419
8 2240 2139 2239 2332 2335 2241 2333 2420
8 2334 2240 2335 2422 2242 2140 2243 2337
8 2335 2241 2336 2423 2243 2141 2244 2338
8 2337 2243 2338 2425 2247 2143 2246 2342
8 2338 2244 2339 2426 2246 2142 2245 2341
8 2341 2245 2340 2428 2249 2145 2248 2343
8 2342 2246 2341 2429 2250 2146 2249 2344
8 2344 2249 2343 2430 2252 2149 2251 2345
8 2188 2285 2347 2254 2284 2374 2432 2346
8 2347 2254 2346 2432 2271 2169 2270 2364
8 2365 2271 2170 2272 2433 2347 2255 2348
8 2286 2189 2285 2375 2348 2255 2347 2433
8 2349 2258 2351 2435 2257 2157 2259 2350
8 2349 2258 2164 2263 2435 2351 2264 2355
8 2259 2158 2261 2351 2352 2260 2354 2437
8 2356 2265 2354 2437 2264 2165 2261 2351
8 2441 2357 2264 2355 2362 2268 2168 2269
8 2356 2265 2165 2264 2442 2358 2266 2357
8 2443 2359 2266 2357 2361 2267 2166 2268
8 2370 2279 2360 2446 2280 2181 2267 2361
8 2362 2268 2182 2281 2447 2361 2280 2371
8 2180 2277 2368 2278 2270 2364 2449 2363
8 2271 2365 2273 2177 2364 2450 2366 2277
8 2372 2283 2186 2282 2451 2368 2276 2367
8 2178 2274 2367 2276 2277 2366 2451 2368
8 2283 2187 2278 2368 2370 2279 2369 2452
8 2372 2283 2370 2453 2282 2186 2280 2371
8 2284 2374 2455 2373 2201 2292 2380 2295
8 2375 2285 2197 2289 2456 2374 2292 2378
8 2376 2291 2204 2296 2457 2379 2297 2383
8 2288 2199 2291 2376 2377 2293 2379 2457
8 2198 2290 2378 2292 2293 2377 2458 2380
8 2293 2202 2294 2379 2380 2295 2381 2459
8 2384 2298 2381 2459 2297 2205 2294 2379
8 2386 2300 2384 2463 2299 2207 2297 2383
8 2387 2301 2385 2464 2300 2208 2298 2384
8 2389 2303 2387 2466 2302 2210 2300 2386
8 2390 2304 2388 2467 2303 2211 2301 2387
8 2392 2306 2390 2469 2305 2213 2303 2389
8 2393 2307 2391 2470 2306 2214 2304 2390
8 2395 2308 2393 2472 2310 2216 2306 2392
8 2308 2215 2309 2396 2393 2307 2394 2473
8 2395 2308 2216 2310 2475 2396 2311 2398
8 2396 2309 2217 2311 2476 2397 2312 2399
8 2398 2311 2219 2315 2478 2399 2314 2403
8 2399 2312 2218 2314 2479 2400 2313 2402
8 2317 2221 2316 2405 2402 2313 2401 2482
8 2403 2314 2222 2318 2483 2402 2317 2406
8 2320 2224 2319 2408 2405 2316 2404 2485
8 2321 2225 2320 2409 2406 2317 2405 2486
8 2323 2227 2322 2411 2408 2319 2407 2488
8 2324 2228 2323 2412 2409 2320 2408 2489
8 2326 2230 2325 2413 2411 2322 2410 2490
8 2327 2231 2326 2414 2412 2323 2411 2491
8 2329 2234 2328 2415 2414 2326 2413 2492
8 2417 2331 2260 2352 2494 2416 2353 2438
8 2350 2259 2352 2436 2419 2332 2417 2496
8 2332 2239 2331 2417 2420 2333 2418 2497
8 2334 2240 2332 2419 2422 2335 2420 2499
8 2420 2333 2421 2500 2335 2241 2336 2423
8 2422 2335 2423 2502 2337 2243 2338 2425
8 2423 2336 2424 2503 2338 2244 2339 2426
8 2425 2338 2426 2505 2342 2246 2341 2429
8 2426 2339 2427 2506 2341 2245 2340 2428
8 2429 2341 2428 2507 2344 2249 2343 2430
8 2432 2346 2284 2374 2509 2431 2373 2455
8 2432 2346 2431 2509 2364 2270 2363 2449
8 2375 2285 2374 2456 2433 2347 2432 2510
8 2347 2433 2365 2271 2432 2510 2450 2364
8 2350 2259 2351 2435 2436 2352 2437 2514
8 2440 2356 2437 2514 2355 2264 2351 2435
8 2352 2260 2354 2437 2438 2353 2439 2516
8 2356 2265 2358 2442 2437 2354 2439 2516
8 2440 2356 2264 2355 2518 2442 2357 2441
8 2519 2443 2357 2441 2447 2361 2268 2362
8 2443 2359 2444 2520 2357 2266 2358 2442
8 2443 2359 2267 2361 2520 2444 2360 2446
8 2446 2360 2279 2370 2523 2445 2369 2452
8 2453 2370 2446 2524 2371 2280 2361 2447
8 2449 2363 2448 2525 2368 2278 2369 2452
8 2366 2277 2364 2450 2451 2368 2449 2526
8 2372 2283 2368 2451 2453 2370 2452 2527
8 2455 2373 2295 2380 2529 2454 2382 2460
8 2456 2374 2292 2378 2530 2455 2380 2458
8 2377 2293 2379 2457 2458 2380 2459 2531
8 2463 2384 2459 2531 2383 2297 2379 2457
8 2533 2461 2382 2460 2459 2381 2295 2380
8 2464 2385 2461 2533 2384 2298 2381 2459
8 2466 2387 2464 2537 2386 2300 2384 2463
8 2467 2388 2465 2538 2387 2301 2385 2464
8 2469 2390 2467 2540 2389 2303 2387 2466
8 2470 2391 2468 2541 2390 2304 2388 2467
8 2472 2393 2470 2543 2392 2306 2390 2469
8 2393 2307 2394 2473 2470 2391 2471 2544
8 2395 2308 2396 2475 2472 2393 2473 2546
8 2396 2309 2397 2476 2473 2394 2474 2547
8 2475 2396 2311 2398 2549 2476 2399 2478
8 2476 2397 2312 2399 2550 2477 2400 2479
8 2478 2399 2314 2403 2552 2479 2402 2483
8 2479 2400 2313 2402 2553 2480 2401 2482
8 2405 2316 2404 2485 2482 2401 2481 2556
8 2406 2317 2405 2486 2483 2402 2482 2557
8 2408 2319 2407 2488 2485 2404 2484 2559
8 2409 2320 2408 2489 2486 2405 2485 2560
8 2411 2322 2410 2490 2488 2407 2487 2561
8 2412 2323 2411 2491 2489 2408 2488 2562
8 2414 2326 2413 2492 2491 2411 2490 2563
8 2513 2434 2493 2565 2438 2353 2416 2494
8 2496 2417 2352 2436 2567 2494 2438 2515
8 2494 2416 2495 2568 2417 2331 2418 2497
8 2419 2332 2417 2496 2499 2420 2497 2570
8 2497 2418 2498 2571 2420 2333 2421 2500
8 2499 2420 2500 2573 2422 2335 2423 2502
8 2500 2421 2501 2574 2423 2336 2424 2503
8 2502 2423 2503 2576 2425 2338 2426 2505
8 2503 2424 2504 2577 2426 2339 2427 2506
8 2505 2426 2506 2578 2429 2341 2428 2507
8 2509 2431 2373 2455 2580 2508 2454 2529
8 2509 2431 2508 2580 2449 2363 2448 2525
8 2432 2510 2581 2509 2374 2456 2530 2455
8 2432 2510 2450 2364 2509 2581 2526 2449
8 2583 2511 2434 2513 2516 2439 2353 2438
8 2436 2352 2437 2514 2515 2438 2516 2588
8 2440 2356 2442 2518 2514 2437 2516 2588
8 2442 2358 2444 2520 2516 2439 2517 2589
8 2519 2443 2520 2591 2441 2357 2442 2518
8 2519 2443 2361 2447 2591 2520 2446 2524
8 2446 2360 2445 2523 2520 2444 2521 2592
8 2525 2448 2522 2593 2452 2369 2445 2523
8 2524 2446 2370 2453 2594 2523 2452 2527
8 2526 2449 2525 2595 2451 2368 2452 2527
8 2534 2462 2528 2597 2460 2382 2454 2529
8 2530 2455 2380 2458 2598 2529 2460 2532
8 2599 2533 2460 2532 2531 2459 2380 2458
8 2537 2464 2533 2599 2463 2384 2459 2531
8 2534 2462 2382 2460 2601 2535 2461 2533
8 2538 2465 2535 2601 2464 2385 2461 2533
8 2540 2467 2538 2604 2466 2387 2464 2537
8 2541 2468 2539 2605 2467 2388 2465 2538
8 2543 2470 2541 2607 2469 2390 2467 2540
8 2470 2391 2471 2544 2541 2468 2542 2608
8 2472 2393 2473 2546 2543 2470 2544 2610
8 2473 2394 2474 2547 2544 2471 2545 2611
8 2475 2396 2476 2549 2546 2473 2547 2613
8 2476 2397 2477 2550 2547 2474 2548 2614
8 2549 2476 2399 2478 2616 2550 2479 2552
8 2479 2400 2480 2553 2550 2477 2551 2617
8 2552 2479 2402 2483 2619 2553 2482 2557
8 2482 2401 2481 2556 2553 2480 2554 2620
8 2485 2404 2484 2559 2556 2481 2555 2623
8 2486 2405 2485 2560 2557 2482 2556 2624
8 2488 2407 2487 2561 2559 2484 2558 2625
8 2489 2408 2488 2562 2560 2485 2559 2626
8 2491 2411 2490 2563 2562 2488 2561 2627
8 2513 2434 2512 2585 2565 2493 2564 2630
8 2586 2513 2565 2632 2515 2438 2494 2567
8 2565 2493 2566 2633 2494 2416 2495 2568
8 2567 2494 2568 2635 2496 2417 2497 2570
8 2568 2495 2569 2636 2497 2418 2498 2571
8 2570 2497 2571 2638 2499 2420 2500 2573
8 2571 2498 2572 2639 2500 2421 2501 2574
8 2573 2500 2574 2641 2502 2423 2503 2576
8 2574 2501 2575 2642 2503 2424 2504 2577
8 2576 2503 2577 2643 2505 2426 2506 2578
8 2597 2528 2579 2645 2529 2454 2508 2580
8 2580 2508 2579 2645 2525 2448 2522 2593
8 2581 2509 2455 2530 2646 2580 2529 2598
8 2581 2509 2580 2646 2526 2449 2525 2595
8 2583 2511 2582 2648 2513 2434 2512 2585
8 2583 2511 2439 2516 2648 2582 2517 2589
8 2649 2583 2513 2586 2588 2516 2438 2515
8 2589 2517 2444 2520 2653 2587 2521 2592
8 2518 2442 2520 2591 2588 2516 2589 2654
8 2593 2522 2590 2655 2523 2445 2521 2592
8 2524 2446 2523 2594 2591 2520 2592 2656
8 2595 2525 2593 2657 2527 2452 2523 2594
8 2602 2536 2596 2659 2534 2462 2528 2597
8 2600 2534 2597 2660 2532 2460 2529 2598
8 2600 2534 2460 2532 2661 2601 2533 2599
8 2604 2538 2601 2661 2537 2464 2533 2599
8 2602 2536 2462 2534 2663 2603 2535 2601
8 2601 2535 2465 2538 2663 2603 2539 2605
8 2607 2541 2605 2665 2540 2467 2538 2604
8 2608 2542 2606 2666 2541 2468 2539 2605
8 2543 2470 2544 2610 2607 2541 2608 2668
8 2544 2471 2545 2611 2608 2542 2609 2669
8 2546 2473 2547 2613 2610 2544 2611 2671
8 2547 2474 2548 2614 2611 2545 2612 2672
8 2549 2476 2550 2616 2613 2547 2614 2674
8 2550 2477 2551 2617 2614 2548 2615 2675
8 2552 2479 2553 2619 2616 2550 2617 2677
8 2553 2480 2554 2620 2617 2551 2618 2678
8 2557 2482 2556 2624 2619 2553 2620 2680
8 2556 2481 2555 2623 2620 2554 2621 2681
8 2559 2484 2558 2625 2623 2555 2622 2683
8 2560 2485 2559 2626 2624 2556 2623 2684
8 2562 2488 2561 2627 2626 2559 2625 2685
8 2690 2629 2564 2630 2650 2584 2512 2585
8 2586 2513 2585 2651 2632 2565 2630 2691
8 2630 2564 2631 2692 2565 2493 2566 2633
8 2632 2565 2633 2694 2567 2494 2568 2635
8 2633 2566 2634 2695 2568 2495 2569 2636
8 2635 2568 2636 2697 2570 2497 2571 2638
8 2636 2569 2637 2698 2571 2498 2572 2639
8 2638 2571 2639 2700 2573 2500 2574 2641
8 2639 2572 2640 2701 2574 2501 2575 2642
8 2641 2574 2642 2702 2576 2503 2577 2643
8 2597 2528 2596 2659 2645 2579 2644 2704
8 2645 2579 2644 2704 2593 2522 2590 2655
8 2660 2597 2645 2705 2598 2529 2580 2646
8 2646 2580 2645 2705 2595 2525 2593 2657
8 2650 2584 2512 2585 2707 2647 2582 2648
8 2648 2582 2517 2589 2707 2647 2587 2653
8 2649 2583 2648 2708 2586 2513 2585 2651
8 2649 2583 2516 2588 2708 2648 2589 2654
8 2655 2590 2652 2710 2592 2521 2587 2653
8 2654 2589 2520 2591 2711 2653 2592 2656
8 2657 2593 2655 2712 2594 2523 2592 2656
8 2602 2536 2603 2663 2659 2596 2658 2714
8 2662 2602 2659 2715 2600 2534 2597 2660
8 2662 2602 2534 2600 2717 2663 2601 2661
8 2661 2601 2538 2604 2717 2663 2605 2665
8 2666 2606 2664 2718 2605 2539 2603 2663
8 2668 2608 2666 2720 2607 2541 2605 2665
8 2608 2542 2609 2669 2666 2606 2667 2721
8 2610 2544 2611 2671 2668 2608 2669 2723
8 2611 2545 2612 2672 2669 2609 2670 2724
8 2613 2547 2614 2674 2671 2611 2672 2726
8 2614 2548 2615 2675 2672 2612 2673 2727
8 2616 2550 2617 2677 2674 2614 2675 2729
8 2617 2551 2618 2678 2675 2615 2676 2730
8 2619 2553 2620 2680 2677 2617 2678 2732
8 2620 2554 2621 2681 2678 2618 2679 2733
8 2624 2556 2623 2684 2680 2620 2681 2735
8 2681 2621 2555 2623 2736 2682 2622 2683
8 2626 2559 2625 2685 2684 2623 2683 2737
8 2688 2628 2584 2650 2740 2686 2647 2707
8 2688 2628 2687 2742 2650 2584 2629 2690
8 2690 2629 2689 2745 2630 2564 2631 2692
8 2746 2690 2630 2691 2709 2650 2585 2651
8 2691 2630 2692 2747 2632 2565 2633 2694
8 2692 2631 2693 2748 2633 2566 2634 2695
8 2694 2633 2695 2750 2635 2568 2636 2697
8 2695 2634 2696 2751 2636 2569 2637 2698
8 2697 2636 2698 2753 2638 2571 2639 2700
8 2698 2637 2699 2754 2639 2572 2640 2701
8 2700 2639 2701 2755 2641 2574 2642 2702
8 2659 2596 2658 2714 2704 2644 2703 2757
8 2704 2644 2703 2757 2655 2590 2652 2710
8 2660 2597 2659 2715 2705 2645 2704 2758
8 2705 2645 2704 2758 2657 2593 2655 2712
8 2759 2706 2647 2707 2710 2652 2587 2653
8 2709 2650 2585 2651 2760 2707 2648 2708
8 2708 2648 2589 2654 2760 2707 2653 2711
8 2712 2655 2710 2761 2656 2592 2653 2711
8 2763 2713 2658 2714 2718 2664 2603 2663
8 2662 2602 2663 2717 2715 2659 2714 2764
8 2720 2666 2718 2767 2665 2605 2663 2717
8 2768 2719 2664 2718 2721 2667 2606 2666
8 2668 2608 2669 2723 2720 2666 2721 2770
8 2669 2609 2670 2724 2721 2667 2722 2771
8 2671 2611 2672 2726 2723 2669 2724 2773
8 2672 2612 2673 2727 2724 2670 2725 2774
8 2674 2614 2675 2729 2726 2672 2727 2776
8 2675 2615 2676 2730 2727 2673 2728 2777
8 2677 2617 2678 2732 2729 2675 2730 2779
8 2678 2618 2679 2733 2730 2676 2731 2780
8 2680 2620 2681 2735 2732 2678 2733 2782
8 2733 2679 2621 2681 2783 2734 2682 2736
8 2735 2681 2623 2684 2784 2736 2683 2737
8 2740 2686 2647 2707 2787 2738 2706 2759
8 2688 2628 2686 2740 2742 2687 2739 2789
8 2743 2688 2650 2709 2790 2740 2707 2760
8 2742 2687 2741 2792 2690 2629 2689 2745
8 2743 2688 2742 2793 2709 2650 2690 2746
8 2745 2689 2744 2795 2692 2631 2693 2748
8 2746 2690 2745 2796 2691 2630 2692 2747
8 2747 2692 2748 2797 2694 2633 2695 2750
8 2748 2693 2749 2798 2695 2634 2696 2751
8 2750 2695 2751 2800 2697 2636 2698 2753
8 2751 2696 2752 2801 2698 2637 2699 2754
8 2753 2698 2754 2802 2700 2639 2701 2755
8 2763 2713 2756 2804 2714 2658 2703 2757
8 2759 2706 2652 2710 2804 2756 2703 2757
8 2715 2659 2714 2764 2758 2704 2757 2805
8 2758 2704 2757 2805 2712 2655 2710 2761
8 2806 2759 2707 2760 2761 2710 2653 2711
8 2765 2716 2762 2808 2718 2664 2713 2763
8 2809 2763 2714 2764 2767 2718 2663 2717
8 2765 2716 2664 2718 2811 2766 2719 2768
8 2813 2768 2718 2767 2770 2721 2666 2720
8 2814 2769 2719 2768 2771 2722 2667 2721
8 2723 2669 2724 2773 2770 2721 2771 2816
8 2724 2670 2725 2774 2771 2722 2772 2817
8 2726 2672 2727 2776 2773 2724 2774 2819
8 2727 2673 2728 2777 2774 2725 2775 2820
8 2729 2675 2730 2779 2776 2727 2777 2822
8 2730 2676 2731 2780 2777 2728 2778 2823
8 2732 2678 2733 2782 2779 2730 2780 2825
8 2780 2731 2679 2733 2826 2781 2734 2783
8 2782 2733 2681 2735 2827 2783 2736 2784
8 2830 2785 2738 2787 2804 2756 2706 2759
8 2789 2739 2686 2740 2832 2786 2738 2787
8 2790 2740 2707 2760 2833 2787 2759 2806
8 2742 2687 2739 2789 2792 2741 2788 2835
8 2743 2688 2740 2790 2793 2742 2789 2836
8 2792 2741 2791 2838 2745 2689 2744 2795
8 2793 2742 2792 2839 2746 2690 2745 2796
8 2795 2744 2794 2841 2748 2693 2749 2798
8 2796 2745 2795 2842 2747 2692 2748 2797
8 2797 2748 2798 2843 2750 2695 2751 2800
8 2798 2749 2799 2844 2751 2696 2752 2801
8 2800 2751 2801 2845 2753 2698 2754 2802
8 2808 2762 2803 2847 2763 2713 2756 2804
8 2809 2763 2804 2848 2764 2714 2757 2805
8 2806 2759 2710 2761 2848 2804 2757 2805
8 2765 2716 2766 2811 2808 2762 2807 2850
8 2810 2765 2808 2851 2767 2718 2763 2809
8 2810 2765 2718 2767 2852 2811 2768 2813
8 2811 2766 2719 2768 2853 2812 2769 2814
8 2855 2814 2768 2813 2816 2771 2721 2770
8 2856 2815 2769 2814 2817 2772 2722 2771
8 2773 2724 2774 2819 2816 2771 2817 2858
8 2774 2725 2775 2820 2817 2772 2818 2859
8 2776 2727 2777 2822 2819 2774 2820 2861
8 2777 2728 2778 2823 2820 2775 2821 2862
8 2779 2730 2780 2825 2822 2777 2823 2864
8 2823 2778 2731 2780 2865 2824 2781 2826
8 2825 2780 2733 2782 2866 2826 2783 2827
8 2869 2828 2785 2830 2847 2803 2756 2804
8 2871 2829 2786 2832 2830 2785 2738 2787
8 2872 2830 2787 2833 2848 2804 2759 2806
8 2789 2739 2786 2832 2835 2788 2831 2874
8 2836 2789 2740 2790 2875 2832 2787 2833
8 2792 2741 2788 2835 2838 2791 2834 2877
8 2793 2742 2789 2836 2839 2792 2835 2878
8 2838 2791 2837 2880 2795 2744 2794 2841
8 2839 2792 2838 2881 2796 2745 2795 2842
8 2841 2794 2840 2882 2798 2749 2799 2844
8 2842 2795 2841 2883 2797 2748 2798 2843
8 2843 2798 2844 2884 2800 2751 2801 2845
8 2886 2846 2803 2847 2850 2807 2762 2808
8 2851 2808 2847 2887 2809 2763 2804 2848
8 2850 2807 2766 2811 2889 2849 2812 2853
8 2810 2765 2811 2852 2851 2808 2850 2890
8 2852 2811 2768 2813 2891 2853 2814 2855
8 2853 2812 2769 2814 2892 2854 2815 2856
8 2894 2856 2814 2855 2858 2817 2771 2816
8 2817 2772 2818 2859 2856 2815 2857 2895
8 2819 2774 2820 2861 2858 2817 2859 2897
8 2820 2775 2821 2862 2859 2818 2860 2898
8 2822 2777 2823 2864 2861 2820 2862 2900
8 2823 2778 2824 2865 2862 2821 2863 2901
8 2864 2823 2780 2825 2902 2865 2826 2866
8 2904 2867 2828 2869 2886 2846 2803 2847
8 2869 2828 2868 2906 2830 2785 2829 2871
8 2907 2869 2830 2872 2887 2847 2804 2848
8 2871 2829 2870 2909 2832 2786 2831 2874
8 2910 2871 2832 2875 2872 2830 2787 2833
8 2835 2788 2831 2874 2877 2834 2873 2912
8 2836 2789 2832 2875 2878 2835 2874 2913
8 2877 2834 2876 2915 2838 2791 2837 2880
8 2839 2792 2835 2878 2881 2838 2877 2916
8 2880 2837 2879 2917 2841 2794 2840 2882
8 2881 2838 2880 2918 2842 2795 2841 2883
8 2883 2841 2882 2919 2843 2798 2844 2884
8 2921 2885 2846 2886 2889 2849 2807 2850
8 2922 2886 2847 2887 2890 2850 2808 2851
8 2889 2849 2812 2853 2924 2888 2854 2892
8 2890 2850 2811 2852 2925 2889 2853 2891
8 2891 2853 2814 2855 2926 2892 2856 2894
8 2892 2854 2815 2856 2927 2893 2857 2895
8 2858 2817 2859 2897 2894 2856 2895 2929
8 2859 2818 2860 2898 2895 2857 2896 2930
8 2861 2820 2862 2900 2897 2859 2898 2932
8 2862 2821 2863 2901 2898 2860 2899 2933
8 2864 2823 2865 2902 2900 2862 2901 2934
8 2904 2867 2846 2886 2936 2903 2885 2921
8 2904 2867 2903 2936 2869 2828 2868 2906
8 2937 2904 2869 2907 2922 2886 2847 2887
8 2906 2868 2905 2939 2871 2829 2870 2909
8 2907 2869 2906 2940 2872 2830 2871 2910
8 2909 2870 2908 2942 2874 2831 2873 2912
8 2910 2871 2909 2943 2875 2832 2874 2913
8 2912 2873 2911 2945 2877 2834 2876 2915
8 2878 2835 2874 2913 2916 2877 2912 2946
8 2915 2876 2914 2947 2880 2837 2879 2917
8 2916 2877 2915 2948 2881 2838 2880 2918
8 2918 2880 2917 2949 2883 2841 2882 2919
8 2921 2885 2849 2889 2951 2920 2888 2924
8 2952 2921 2886 2922 2925 2889 2850 2890
8 2924 2888 2854 2892 2954 2923 2893 2927
8 2925 2889 2853 2891 2955 2924 2892 2926
8 2926 2892 2856 2894 2956 2927 2895 2929
8 2895 2857 2896 2930 2927 2893 2928 2957
8 2897 2859 2898 2932 2929 2895 2930 2959
8 2898 2860 2899 2933 2930 2896 2931 2960
8 2900 2862 2901 2934 2932 2898 2933 2961
8 2936 2903 2885 2921 2963 2935 2920 2951
8 2936 2903 2935 2963 2906 2868 2905 2939
8 2937 2904 2886 2922 2964 2936 2921 2952
8 2937 2904 2936 2964 2907 2869 2906 2940
8 2939 2905 2938 2966 2909 2870 2908 2942
8 2940 2906 2939 2967 2910 2871 2909 2943
8 2942 2908 2941 2969 2912 2873 2911 2945
8 2943 2909 2942 2970 2913 2874 2912 2946
8 2945 2911 2944 2971 2915 2876 2914 2947
8 2946 2912 2945 2972 2916 2877 2915 2948
8 2948 2915 2947 2973 2918 2880 2917 2949
8 2951 2920 2888 2924 2975 2950 2923 2954
8 2952 2921 2889 2925 2976 2951 2924 2955
8 2927 2893 2928 2957 2954 2923 2953 2978
8 2955 2924 2892 2926 2979 2954 2927 2956
8 2929 2895 2930 2959 2956 2927 2957 2980
8 2930 2896 2931 2960 2957 2928 2958 2981
8 2932 2898 2933 2961 2959 2930 2960 2982
8 2951 2920 2950 2975 2963 2935 2962 2984
8 2963 2935 2962 2984 2939 2905 2938 2966
8 2964 2936 2921 2952 2985 2963 2951 2976
8 2964 2936 2963 2985 2940 2906 2939 2967
8 2966 2938 2965 2987 2942 2908 2941 2969
8 2967 2939 2966 2988 2943 2909 2942 2970
8 2969 2941 2968 2989 2945 2911 2944 2971
8 2970 2942 2969 2990 2946 2912 2945 2972
8 2972 2945 2971 2991 2948 2915 2947 2973
8 2954 2923 2953 2978 2975 2950 2974 2993
8 2976 2951 2924 2955 2994 2975 2954 2979
8 2957 2928 2958 2981 2978 2953 2977 2995
8 2956 2927 2957 2980 2979 2954 2978 2996
8 2959 2930 2960 2982 2980 2957 2981 2997
8 2984 2962 2983 2999 2966 2938 2965 2987
8 2975 2950 2974 2993 2984 2962 2983 2999
8 2976 2951 2975 2994 2985 2963 2984 3000
8 2985 2963 2984 3000 2967 2939 2966 2988
8 2987 2965 2986 3001 2969 2941 2968 2989
8 2988 2966 2987 3002 2970 2942 2969 2990
8 2990 2969 2989 3003 2972 2945 2971 2991
8 2978 2953 2977 2995 2993 2974 2992 3004
8 2979 2954 2978 2996 2994 2975 2993 3005
8 2980 2957 2981 2997 2996 2978 2995 3006
8 2974 2993 2999 2983 2992 3004 3007 2998
8 2983 2999 2987 2965 2998 3007 3001 2986
8 3000 2984 2999 3008 2988 2966 2987 3002
8 2994 2975 2993 3005 3000 2984 2999 3008
8 3002 2987 3001 3009 2990 2969 2989 3003
8 2996 2978 2995 3006 3005 2993 3004 3010
8 3005 2993 3004 3010 3008 2999 3007 3011
8 3008 2999 3007 3011 3002 2987 3001 3009

CELL_TYPES 1910
12
12
12
12
12
12
12
12
12
12
12
12
12
12
12
12
12
12
12
12
12
12
12
12
12
12
12
12
12
12
12
12
12
12
12
12
12
12
12
12
12
12
12
12
12
12
12
12
12
12
12
12
12
12
12
12
12
12
12
12
12
12
12
12
12
12
12
12
12
12
12
12
12
12
12
12
12
12
12
12
12
12
12
12
12
12
12
12
12
12
12
12
12
12
12
12
12
12
12
12
12
12
12
12
12
12
12
12
12
12
12
12
12
12
12
12
12
12
12
12
12
12
12
12
12
12
12
12
12
12
12
12
12
12
12
12
12
12
12
12
12
12
12
12
12
12
12
12
12
12
12
12
12
12
12
12
12
12
12
12
12
12
12
12
12
12
12
12
12
12
12
12
12
12
12
12
12
12
12
12
12
12
12
12
12
12
12
12
12
12
12
12
12
12
12
12
12
12
12
12
12
12
12
12
12
12
12
12
12
12
12
12
12
12
12
12
12
12
12
12
12
12
12
12
12
12
12
12
12
12
12
12
12
12
12
12
12
12
12
12
12
12
12
12
12
12
12
12
12
12
12
12
12
12
12
12
12
12
12
12
12
12
12
12
12
12
12
12
12
12
12
12
12
12
12
12
12
12
12
12
12
12
12
12
12
12
12
12
12
12
12
12
12
12
12
12
12
12
12
12
12
12
12
12
12
12
12
12
12
12
12
12
12
12
12
12
12
12
12
12
12
12
12
12
12
12
12
12
12
12
12
12
12
12
12
12
12
12
12
12
12
12
12
12
12
12
12
12
12
12
12
12
12
12
12
12
12
12
12
12
12
12
12
12
12
12
12
12
12
12
12
12
12
12
12
12
12
12
12
12
12
12
12
12
12
12
12
12
12
12
12
12
12
12
12
12
12
12
12
12
12
12
12
12
12
12
12
12
12
12
12
12
12
12
12
12
12
12
12
12
12
12
12
12
12
12
12
12
12
12
12
12
12
12
12
12
12
12
12
12
12
12
12
12
12
12
12
12
12
12
12
12
12
12
12
12
12
12
12
12
12
12
12
12
12
12
12
12
12
12
12
12
12
12
12
12
12
12
12
12
12
12
12
12
12
12
12
12
12
12
12
12
12
12
12
12
12
12
12
12
12
12
12
12
12
12
12
12
12
12
12
12
12
12
12
12
12
12
12
12
12
12
12
12
12
12
12
12
12
12
12
12
12
12
12
12
12
12
12
12
12
12
12
12
12
12
12
12
12
12
12
12
12
12
12
12
12
12
12
12
12
12
12
12
12
12
12
12
12
12
12
12
12
12
12
12
12
12
12
12
12
12
12
12
12
12
12
12
12
12
12
12
12
12
12
12
12
12
12
12
12
12
12
12
12
12
12
12
12
12
12
12
12
12
12
12
12
12
12
12
12
12
12
12
12
12
12
12
12
12
12
12
12
12
12
12
12
12
12
12
12
12
12
12
12
12
12
12
12
12
12
12
12
12
12
12
12
12
12
12
12
12
12
12
12
12
12
12
12
12
12
12
12
12
12
12
12
12
12
12
12
12
12
12
12
12
12
12
12
12
12
12
12
12
12
12
12
12
12
12
12
12
12
12
12
12
12
12
12
12
12
12
12
12
12
12
12
12
12
12
12
12
12
12
12
12
12
12
12
12
12
12
12
12
12
12
12
12
12
12
12
12
12
12
12
12
12
12
12
12
12
12
12
12
12
12
12
12
12
12
12
12
12
12
12
12
12
12
12
12
12
12
12
12
12
12
12
12
12
12
12
12
12
12
12
12
12
12
12
12
12
12
12
12
12
12
12
12
12
12
12
12
12
12
12
12
12
12
12
12
12
12
12
12
12
12
12
12
12
12
12
12
12
12
12
12
12
12
12
12
12
12
12
12
12
12
12
12
12
12
12
12
12
12
12
12
12
12
12
12
12
12
12
12
12
12
12
12
12
12
12
12
12
12
12
12
12
12
12
12
12
12
12
12
12
12
12
12
12
12
12
12
12
12
12
12
12
12
12
12
12
12
12
12
12
12
12
12
12
12
12
12
12
12
12
12
12
12
12
12
12
12
12
12
12
12
12
12
12
12
12
12
12
12
12
12
12
12
12
12
12
12
12
12
12
12
12
12
12
12
12
12
12
12
12
12
12
12
12
12
12
12
12
12
12
12
12
12
12
12
12
12
12
12
12
12
12
12
12
12
12
12
12
12
12
12
12
12
12
12
12
12
12
12
12
12
12
12
12
12
12
12
12
12
12
12
12
12
12
12
12
12
12
12
12
12
12
12
12
12
12
12
12
12
12
12
12
12
12
12
12
12
12
12
12
12
12
12
12
12
12
12
12
12
12
12
12
12
12
12
12
12
12
12
12
12
12
12
12
12
12
12
12
12
12
12
12
12
12
12
12
12
12
12
12
12
12
12
12
12
12
12
12
12
12
12
12
12
12
12
12
12
12
12
12
12
12
12
12
12
12
12
12
12
12
12
12
12
12
12
12
12
12
12
12
12
12
12
12
12
12
12
12
12
12
12
12
12
12
12
12
12
12
12
12
12
12
12
12
12
12
12
12
12
12
12
12
12
12
12
12
12
12
12
12
12
12
12
12
12
12
12
12
12
12
12
12
12
12
12
12
12
12
12
12
12
12
12
12
12
12
12
12
12
12
12
12
12
12
12
12
12
12
12
12
12
12
12
12
12
12
12
12
12
12
12
12
12
12
12
12
12
12
12
12
12
12
12
12
12
12
12
12
12
12
12
12
12
12
12
12
12
12
12
12
12
12
12
12
12
12
12
12
12
12
12
12
12
12
12
12
12
12
12
12
12
12
12
12
12
12
12
12
12
12
12
12
12
12
12
12
12
12
12
12
12
12
12
12
12
12
12
12
12
12
12
12
12
12
12
12
12
12
12
12
12
12
12
12
12
12
12
12
12
12
12
12
12
12
12
12
12
12
12
12
12
12
12
12
12
12
12
12
12
12
12
12
12
12
12
12
12
12
12
12
12
12
12
12
12
12
12
12
12
12
12
12
12
12
12
12
12
12
12
12
12
12
12
12
12
12
12
12
12
12
12
12
12
12
12
12
12
12
12
12
12
12
12
12
12
12
12
12
12
12
12
12
12
12
12
12
12
12
12
12
12
12
12
12
12
12
12
12
12
12
12
12
12
12
12
12
12
12
12
12
12
12
12
12
12
12
12
12
12
12
12
12
12
12
12
12
12
12
12
12
12
12
12
12
12
12
12
12
12
12
12
12
12
12
12
12
12
12
12
12
12
12
12
12
12
12
12
12
12
12
12
12
12
12
12
12
12
12
12
12
12
12
12
12
12
12
12
12
12
12
12
12
12
12
12
12
12
12
12
12
12
12
12
12
12
12
12
12
12
12
12
12
12
12
12
12
12
12
12
12
12
12
12
12
12
12
12
12
12
12
12
12
12
12
12
12
12
12
12
12
12
12
12
12
12
12
12
12
12
12
12
12
12
12
12
12
12
12
12
12
12
12
12
12
12
12
12
12
12
12
12
12
12
12
12
12
12
12
12
12
12
12
12
12
12
12
12
12
12
12
12
12
12
12
12
12
12
12
12
12
12
12
12
12
12
12
12
12
12
12
12
12
12
12
12
12
12
12
12
12
12
12
12
12
12
12
12
12
12
12
12
12
12
12
12
12
12
12
12
12
12
12
12
12
12
12
12
12
12
12
12
12
12
12
12
12
12
12
12
12
12
12
12
12
12
12
12
12
12
12
12
12
12
12
12
12
12
12
12
12
12
12
12
12
12
12
12
12
12
12
12
12
12
12
12
12
12
12
12
12
12
12
12
12
12
12
12
12
12
12
12
12
12
12
12
12
12
12
12
12
12
12
12
12
12
12
12
12
12
12
12
12
12
12
12
12
12
12
12
12
12
12
12
12
12
12
12
12
12
12
12
12
12
12
12
12
12
12
12
12
12
12
12
12
12
12
12
12
12
12
12
12
12
12
12
12
12
12
12
12
12
12
12
12
12
12
12
12
12
12
12
12
12
12
12
12
12
12
12
12
12
12
12
12
12
12
12
12
12
12
12
12
12
12
12
12
12
12
12
12
12
12
12
12
12
12
12
12
12
12
12
12
12
12
12
12
12
12
12
12
12
12
12
12
12
12
12
12
12
12
12
12
12
12
12
12
12
12
12
12
12
12
12
12
12
12
12
12
12
12
12
12
12
12
12
12
12
12
12
12
12
12
12
12
12
12
12
12
12
12
12
12
12
12
12
12
12
12
12
12
12
12
12
12
12
12
12
12
12
12
12
12
12
12
12
12
12
12
12
12
12
12
12
12
12

POINT_DATA 3012
SCALARS Jp_lamdaP float 4
LOOKUP_TABLE default
0.999998 1 1 0.999998
1 1 1 1
0.999999 1 1 0.999999
0.999982 1 1 0.999982
0.999995 1 1 0.999995
1 1 1 1
0.999863 1 1 0.999863
1 1 1 1
1 1 1 1
1 1 1 1
1 1 1 1
0.999954 1 1 0.999954
0.999963 1 1 0.999963
0.999984 1 1 0.999984
0.999999 1 1 0.999999
0.999985 1 1 0.999985
1 1 1 1
0.999996 1 1 0.999996
0.999865 1 1 0.999865
1 1 1 1
0.999979 1 1 0.999979
0.999989 1 1 0.999989
0.999771 1 1 0.999771
0.999836 1 1 0.999836
1 1 1 1
0.999893 1 1 0.999893
0.999623 1 1 0.999623
1 1 1 1
0.999996 1 1 0.999996
1 1 1 1
1 1 1 1
0.999959 1 1 0.999959
0.99999 1 1 0.99999
0.999999 1 1 0.999999
0.999888 1 1 0.999888
1 1 1 1
0.999938 1 1 0.999938
0.999972 1 1 0.999972
0.999678 1 1 0.999678
1 1 1 1
1 1 1 1
0.999991 1 1 0.999991
1 1 1 1
0.999977 1 1 0.999977
0.999758 1 1 0.999758
1 1 1 1
0.999837 1 1 0.999837
0.999987 1 1 0.999987
0.999997 1 1 0.999997
1 1 1 1
0.999866 1 1 0.999866
0.999983 1 1 0.999983
0.999981 1 1 0.999981
1 1 1 1
0.999991 1 1 0.999991
0.999772 1 1 0.999772
0.999894 1 1 0.999894
0.999838 1 1 0.999838
0.999614 1 1 0.999614
1 1 1 1
0.999974 1 1 0.999974
0.999794 1 1 0.999794
0.999755 1 1 0.999755
0.999804 1 1 0.999804
0.999406 1 1 0.999406
0.99953 1 1 0.99953
1 1 1 1
0.99993 1 1 0.99993
0.999689 1 1 0.999689
0.999334 1 1 0.999334
1 1 1 1
1 1 1 1
1 1 1 1
0.999964 1 1 0.999964
1 1 1 1
1 1 1 1
0.99989 1 1 0.99989
1 1 1 1
0.999943 1 1 0.999943
0.999979 1 1 0.999979
0.999677 1 1 0.999677
1 1 1 1
1 1 1 1
0.999858 1 1 0.999858
0.999913 1 1 0.999913
0.999485 1 1 0.999485
0.999992 1 1 0.999992
0.999647 1 1 0.999647
0.99971 1 1 0.99971
0.999475 1 1 0.999475
1 1 1 1
1 1 1 1
1 1 1 1
1 1 1 1
1 1 1 1
0.999986 1 1 0.999986
0.999777 1 1 0.999777
0.999993 1 1 0.999993
0.999836 1 1 0.999836
1 1 1 1
0.999729 1 1 0.999729
0.999814 1 1 0.999814
0.999227 1 1 0.999227
0.999852 1 1 0.999852
0.99931 1 1 0.99931
0.999969 1 1 0.999969
0.999983 1 1 0.999983
1 1 1 1
0.999993 1 1 0.999993
0.999774 1 1 0.999774
0.99984 1 1 0.99984
0.999895 1 1 0.999895
0.999605 1 1 0.999605
1 1 1 1
0.999977 1 1 0.999977
0.999745 1 1 0.999745
0.999756 1 1 0.999756
1 1 1 1
0.999948 1 1 0.999948
0.999806 1 1 0.999806
0.999389 1 1 0.999389
0.999679 1 1 0.999679
0.999542 1 1 0.999542
0.999335 1 1 0.999335
0.999743 1 1 0.999743
0.999747 1 1 0.999747
0.999283 1 1 0.999283
0.999345 1 1 0.999345
0.999446 1 1 0.999446
0.999124 1 1 0.999124
1 1 1 1
0.999278 1 1 0.999278
0.999989 1 1 0.999989
0.99971 1 1 0.99971
0.999389 1 1 0.999389
0.999215 1 1 0.999215
1 1 1 1
0.999822 1 1 0.999822
1 1 1 1
1 1 1 1
0.999896 1 1 0.999896
1 1 1 1
0.999985 1 1 0.999985
0.999947 1 1 0.999947
0.999675 1 1 0.999675
1 1 1 1
1 1 1 1
0.999866 1 1 0.999866
0.99992 1 1 0.99992
0.999487 1 1 0.999487
0.999995 1 1 0.999995
0.999647 1 1 0.999647
0.99971 1 1 0.99971
0.999468 1 1 0.999468
1 1 1 1
1 1 1 1
0.999845 1 1 0.999845
0.999405 1 1 0.999405
0.999579 1 1 0.999579
0.999242 1 1 0.999242
0.999755 1 1 0.999755
0.999438 1 1 0.999438
0.999494 1 1 0.999494
0.999388 1 1 0.999388
1 1 1 1
1 1 1 1
1 1 1 1
1 1 1 1
1 1 1 1
1 1 1 1
1 1 1 1
0.999832 1 1 0.999832
0.99977 1 1 0.99977
1 1 1 1
1 1 1 1
0.999731 1 1 0.999731
0.999813 1 1 0.999813
0.999227 1 1 0.999227
0.999847 1 1 0.999847
0.99931 1 1 0.99931
0.999719 1 1 0.999719
0.999177 1 1 0.999177
0.999275 1 1 0.999275
0.998991 1 1 0.998991
0.999349 1 1 0.999349
0.999081 1 1 0.999081
1 1 1 1
0.99998 1 1 0.99998
0.999694 1 1 0.999694
0.999756 1 1 0.999756
1 1 1 1
0.999967 1 1 0.999967
0.999809 1 1 0.999809
0.999371 1 1 0.999371
0.999553 1 1 0.999553
0.999669 1 1 0.999669
0.999336 1 1 0.999336
0.99974 1 1 0.99974
0.999748 1 1 0.999748
0.999247 1 1 0.999247
0.999358 1 1 0.999358
1 1 1 1
0.999985 1 1 0.999985
0.999725 1 1 0.999725
0.999448 1 1 0.999448
0.999102 1 1 0.999102
0.999386 1 1 0.999386
0.999287 1 1 0.999287
0.999217 1 1 0.999217
1 1 1 1
0.999822 1 1 0.999822
0.999188 1 1 0.999188
0.999327 1 1 0.999327
0.999034 1 1 0.999034
0.999045 1 1 0.999045
0.999213 1 1 0.999213
0.99902 1 1 0.99902
0.999998 1 1 0.999998
0.999163 1 1 0.999163
0.999737 1 1 0.999737
0.999461 1 1 0.999461
0.99927 1 1 0.99927
0.999177 1 1 0.999177
0.999775 1 1 0.999775
0.999881 1 1 0.999881
0.999569 1 1 0.999569
0.999868 1 1 0.999868
1 1 1 1
1 1 1 1
0.999927 1 1 0.999927
0.999489 1 1 0.999489
0.999998 1 1 0.999998
0.99971 1 1 0.99971
0.999648 1 1 0.999648
0.999461 1 1 0.999461
1 1 1 1
1 1 1 1
0.999845 1 1 0.999845
0.999406 1 1 0.999406
0.999581 1 1 0.999581
0.999243 1 1 0.999243
0.999755 1 1 0.999755
0.999445 1 1 0.999445
0.999493 1 1 0.999493
0.999379 1 1 0.999379
1 1 1 1
0.999797 1 1 0.999797
0.999896 1 1 0.999896
0.999608 1 1 0.999608
0.999163 1 1 0.999163
0.999358 1 1 0.999358
0.999121 1 1 0.999121
0.999538 1 1 0.999538
0.999351 1 1 0.999351
0.999359 1 1 0.999359
0.999313 1 1 0.999313
0.999977 1 1 0.999977
1 1 1 1
1 1 1 1
1 1 1 1
1 1 1 1
1 1 1 1
1 1 1 1
1 1 1 1
1 1 1 1
0.999849 1 1 0.999849
0.999808 1 1 0.999808
0.99931 1 1 0.99931
0.999228 1 1 0.999228
0.999733 1 1 0.999733
1 1 1 1
0.999719 1 1 0.999719
0.999177 1 1 0.999177
0.999275 1 1 0.999275
0.99899 1 1 0.99899
0.999349 1 1 0.999349
0.999081 1 1 0.999081
0.999164 1 1 0.999164
0.998939 1 1 0.998939
0.999041 1 1 0.999041
0.99897 1.00005 1 0.998923
0.999118 1 1 0.999118
0.999003 1 1 0.999003
0.999738 1 1 0.999738
0.999748 1 1 0.999748
0.999212 1 1 0.999212
0.999371 1 1 0.999371
1 1 1 1
0.999981 1 1 0.999981
0.99974 1 1 0.99974
0.999449 1 1 0.999449
0.999081 1 1 0.999081
0.999296 1 1 0.999296
0.999383 1 1 0.999383
0.999219 1 1 0.999219
0.999999 1 1 0.999999
0.999822 1 1 0.999822
0.999176 1 1 0.999176
0.999326 1 1 0.999326
0.999024 1 1 0.999024
0.999067 1 1 0.999067
0.999996 1 1 0.999996
0.999737 1 1 0.999737
0.999476 1 1 0.999476
0.999212 1 1 0.999212
0.999015 1 1 0.999015
0.999253 1 1 0.999253
0.999163 1 1 0.999163
0.999177 1 1 0.999177
0.999776 1 1 0.999776
0.999566 1 1 0.999566
0.99988 1 1 0.99988
0.998987 1 1 0.998987
0.999055 1 1 0.999055
0.998914 1 1 0.998914
0.998965 1 1 0.998965
0.999095 1 1 0.999095
0.999027 1.00001 1 0.99902
0.999753 1 1 0.999753
0.999137 1 1 0.999137
0.999542 1 1 0.999542
0.999323 1 1 0.999323
0.999168 1 1 0.999168
0.999211 1 1 0.999211
0.999928 1 1 0.999928
0.999564 1 1 0.999564
0.999588 1 1 0.999588
0.999473 1 1 0.999473
0.999406 1 1 0.999406
1 1 1 1
1 1 1 1
0.999845 1 1 0.999845
0.999584 1 1 0.999584
0.999243 1 1 0.999243
0.999755 1 1 0.999755
0.999492 1 1 0.999492
0.999453 1 1 0.999453
0.99937 1 1 0.99937
1 1 1 1
0.999797 1 1 0.999797
0.999898 1 1 0.999898
0.999607 1 1 0.999607
0.999162 1 1 0.999162
0.99936 1 1 0.99936
0.999121 1 1 0.999121
0.999539 1 1 0.999539
0.99936 1 1 0.99936
0.999355 1 1 0.999355
0.999339 1 1 0.999339
1 1 1 1
0.999932 1 1 0.999932
0.999577 1 1 0.999577
0.999652 1 1 0.999652
0.999473 1 1 0.999473
0.999056 1 1 0.999056
0.999247 1 1 0.999247
0.999077 1 1 0.999077
0.999391 1 1 0.999391
0.999297 1 1 0.999297
0.999216 1 1 0.999216
0.999967 1 1 0.999967
0.999801 1 1 0.999801
0.999985 1 1 0.999985
0.999979 1 1 0.999979
1 1 1 1
1 1 1 1
1 1 1 1
1 1 1 1
1 1 1 1
1 1 1 1
1 1 1 1
1 1 1 1
1 1 1 1
1 1 1 1
1 1 1 1
0.99935 1 1 0.99935
0.999275 1 1 0.999275
0.999081 1 1 0.999081
0.99899 1 1 0.99899
0.999178 1 1 0.999178
0.999718 1 1 0.999718
0.999164 1 1 0.999164
0.998939 1 1 0.998939
0.999041 1 1 0.999041
0.998947 1.00003 1 0.998918
0.999117 1 1 0.999117
0.999003 1 1 0.999003
0.998924 1 1 0.998924
0.999523 1.00065 1 0.998871
0.998961 1 1 0.998961
0.999752 1.00084 1 0.998909
0.999032 1 1 0.999032
0.999085 1.00006 1 0.999029
0.999164 1 1 0.999164
0.999326 1 1 0.999326
0.999015 1 1 0.999015
0.999089 1 1 0.999089
0.999994 1 1 0.999994
0.999737 1 1 0.999737
0.999491 1 1 0.999491
0.999212 1 1 0.999212
0.99901 1 1 0.99901
0.999163 1 1 0.999163
0.999237 1 1 0.999237
0.999176 1 1 0.999176
0.999777 1 1 0.999777
0.999563 1 1 0.999563
0.999879 1 1 0.999879
0.998968 1 1 0.998968
0.999054 1 1 0.999054
0.998914 1.00001 1 0.998905
0.998969 1 1 0.998969
0.999754 1 1 0.999754
0.999541 1 1 0.999541
0.99934 1 1 0.99934
0.999103 1 1 0.999103
0.999043 1.00002 1 0.999026
0.999155 1 1 0.999155
0.999137 1 1 0.999137
0.999217 1 1 0.999217
0.999566 1 1 0.999566
0.999462 1 1 0.999462
0.999925 1 1 0.999925
0.999596 1 1 0.999596
0.998971 1.00011 1 0.998866
0.998939 1 1 0.998939
0.999209 1.00034 1 0.998865
0.998949 1 1 0.998949
0.999214 1.00013 1 0.999086
0.999151 1.00011 1 0.999043
0.999564 1 1 0.999564
0.999206 1 1 0.999206
0.999421 1 1 0.999421
0.999208 1 1 0.999208
0.999099 1 1 0.999099
0.999215 1 1 0.999215
0.999951 1 1 0.999951
0.999644 1 1 0.999644
0.999474 1 1 0.999474
0.999469 1 1 0.999469
0.999425 1 1 0.999425
1 1 1 1
0.999161 1 1 0.999161
0.9999 1 1 0.9999
0.999797 1 1 0.999797
0.999606 1 1 0.999606
0.999361 1 1 0.999361
0.999122 1 1 0.999122
0.99954 1 1 0.99954
0.99935 1 1 0.99935
0.999369 1 1 0.999369
0.999364 1 1 0.999364
1 1 1 1
0.999935 1 1 0.999935
0.999577 1 1 0.999577
0.999652 1 1 0.999652
0.999467 1 1 0.999467
0.999054 1 1 0.999054
0.999248 1 1 0.999248
0.999073 1 1 0.999073
0.999393 1 1 0.999393
0.999303 1 1 0.999303
0.999228 1 1 0.999228
0.999953 1 1 0.999953
0.999701 1 1 0.999701
0.999436 1 1 0.999436
0.999504 1 1 0.999504
0.999399 1 1 0.999399
0.999028 1 1 0.999028
0.999195 1 1 0.999195
0.999139 1 1 0.999139
0.999557 1 1.0003 0.999255
0.999149 1 1 0.999149
0.99997 1 1 0.99997
0.999751 1 1 0.999751
0.999788 1 1 0.999788
0.999667 1 1 0.999667
0.999812 1 1 0.999812
0.99999 1 1 0.99999
0.999986 1 1 0.999986
1 1 1 1
0.999982 1 1 0.999982
1 1 1 1
1 1 1 1
1 1 1 1
1 1 1 1
1 1 1 1
1 1 1 1
1 1 1 1
1 1 1 1
1 1 1 1
1 1 1 1
1 1 1 1
0.999116 1 1 0.999116
0.999041 1 1 0.999041
0.999003 1 1 0.999003
0.998925 1.00001 1 0.998913
0.998939 1 1 0.998939
0.999163 1 1 0.999163
0.998924 1 1 0.998924
0.999523 1.00066 1 0.998864
0.998961 1 1 0.998961
0.999642 1.00073 1 0.998908
0.99903 1 1 0.99903
0.999073 1.00004 1 0.999028
0.999322 1.00048 1 0.998842
1.0014 1.00255 1 0.998854
0.999387 1.00043 1 0.998957
1.00064 1.00174 1 0.998902
0.999036 1 1 0.999036
0.999774 1.00072 1 0.999051
0.99895 1 1 0.99895
0.999054 1 1 0.999054
0.998914 1.00002 1 0.998896
0.998973 1 1 0.998973
0.999755 1 1 0.999755
0.999539 1 1 0.999539
0.999358 1 1 0.999358
0.999111 1 1 0.999111
0.999055 1.00002 1 0.999032
0.999137 1 1 0.999137
0.999143 1 1 0.999143
0.999223 1 1 0.999223
0.999568 1 1 0.999568
0.999451 1 1 0.999451
0.999923 1 1 0.999923
0.999603 1 1 0.999603
0.999086 1.00022 1 0.998866
0.998941 1 1 0.998941
0.999087 1.00022 1 0.998867
0.998951 1 1 0.998951
0.999564 1 1 0.999564
0.999434 1 1 0.999434
0.999207 1 1 0.999207
0.999188 1.00011 1 0.999082
0.999161 1.00009 1 0.999071
0.999092 1 1 0.999092
0.999217 1.00001 1 0.999207
0.999235 1 1 0.999235
0.999474 1 1 0.999474
0.999422 1 1 0.999422
0.999467 1 1 0.999467
0.999932 1 1 0.999932
0.999651 1 1 0.999651
1.0003 1.00147 1 0.99883
0.999265 1.0004 1 0.998864
0.999297 1.00033 1 0.998966
0.999293 1.00017 1 0.999126
0.99948 1 1 0.99948
0.999415 1.00015 1 0.999263
0.999336 1 1 0.999336
0.99915 1 1.00009 0.999058
0.999036 1 1 0.999036
0.999933 1 1 0.999933
0.999725 1 1 0.999725
0.999521 1 1 0.999521
0.999444 1 1 0.999444
0.999377 1 1 0.999377
0.999389 1 1 0.999389
1 1 1 1
0.999938 1 1 0.999938
0.999052 1 1 0.999052
0.999652 1 1 0.999652
0.999576 1 1 0.999576
0.999461 1 1 0.999461
0.999249 1 1 0.999249
0.999069 1 1 0.999069
0.999395 1 1 0.999395
0.99924 1 1 0.99924
0.99931 1 1 0.99931
0.999956 1 1 0.999956
0.999701 1 1 0.999701
0.999443 1 1 0.999443
0.999503 1 1 0.999503
0.999389 1 1 0.999389
0.99903 1 1 0.999027
0.999191 1 1 0.999191
0.999148 1 1 0.999148
0.999395 1 1.00015 0.999248
0.999128 1 1 0.999128
0.999741 1 1 0.999741
0.999524 1 1 0.999524
0.999625 1 1.00029 0.999336
0.999385 1 1 0.999385
0.999328 1 1 0.999328
0.999638 1.00047 1 0.999166
0.999103 1 1 0.999103
0.999264 1.00013 1 0.999133
1.00015 1 1.00098 0.999164
0.998972 1 1 0.998972
0.999973 1 1 0.999973
0.999761 1 1 0.999761
0.999598 1 1 0.999598
0.999775 1 1 0.999775
0.999812 1 1 0.999812
0.999648 1 1 0.999648
0.999549 1 1 0.999549
0.999645 1 1 0.999645
0.999821 1 1 0.999821
0.999991 1 1 0.999991
0.99999 1 1 0.99999
1 1 1 1
0.999988 1 1 0.999988
1 1 1 1
1 1 1 1
1 1 1 1
1 1 1 1
1 1 1 1
1 1 1 1
1 1 1 1
1 1 1 1
1 1 1 1
1 1 1 1
1 1 1 1
0.999029 1 1 0.999029
0.998962 1 1 0.998962
0.999062 1.00004 1 0.999027
0.999523 1.00062 1 0.998907
0.999523 1.00067 1 0.998857
0.998925 1 1 0.998925
0.999428 1.00059 1 0.998839
1.00127 1.00242 1 0.998855
0.999299 1.00035 1 0.99895
1.00072 1.00183 1 0.998897
0.99904 1 1 0.999036
0.999572 1.00051 1 0.999068
1.00181 1.00299 1 0.998827
1.00247 1.0036 1 0.998873
1.00095 1.00199 1 0.99896
0.999926 1.00081 1 0.99912
0.999191 1.00032 1 0.998867
0.998944 1 1 0.998944
0.998973 1.0001 1 0.998869
0.998953 1 1 0.998953
0.999564 1 1 0.999564
0.999448 1 1 0.999448
0.999205 1 1 0.999205
0.999163 1.00009 1 0.999078
0.999178 1.00008 1 0.9991
0.999226 1.00002 1 0.999208
0.999085 1 1 0.999085
0.999254 1 1 0.999254
0.999475 1 1 0.999475
0.999418 1 1 0.999418
0.999464 1 1 0.999464
0.999913 1 1 0.999913
0.999659 1 1 0.999659
1.00018 1.00135 1 0.998833
0.999408 1.00054 1 0.998869
0.999342 1.00037 1 0.998976
0.999478 1 1 0.999478
0.999353 1 1 0.999353
0.999255 1 1.0002 0.999054
0.99933 1.00021 1 0.999117
0.999066 1 1 0.999066
0.999314 1.00005 1 0.999263
0.999933 1 1 0.999933
0.999443 1 1 0.999443
0.999398 1 1 0.999398
0.999375 1 1 0.999375
0.999527 1 1 0.999527
0.999711 1 1 0.999711
1.00125 1.00242 1 0.998832
1.0005 1.00164 1 0.99886
1.00007 1.00106 1 0.999013
1.00055 1.00137 1 0.999187
0.999429 1 1 0.999429
0.999142 1.00003 1 0.999108
0.999315 1 1.00015 0.999169
0.999533 1 1.00059 0.998943
0.999949 1 1 0.999949
0.999766 1 1 0.999766
0.999575 1 1 0.999575
0.999381 1 1 0.999381
0.999399 1 1 0.999399
0.999337 1 1 0.999337
0.999959 1 1 0.999959
0.999701 1 1 0.999701
0.999032 1.00001 1 0.999025
0.999501 1 1 0.999501
0.999451 1 1 0.999451
0.999379 1 1 0.999379
0.999187 1 1 0.999187
0.999156 1 1 0.999156
0.999257 1 1.00002 0.999242
0.999107 1 1 0.999107
0.999741 1 1 0.999741
0.999529 1 1 0.999529
0.999491 1 1.00014 0.999349
0.999391 1 1 0.999391
0.999332 1 1 0.999332
0.999683 1.00052 1 0.999165
0.999108 1 1 0.999108
0.999279 1.00008 1 0.999196
1.00025 1 1.0011 0.999155
0.998972 1 1.00003 0.998942
0.999568 1 1 0.999568
0.999392 1 1 0.999392
1.00024 1 1.001 0.99925
0.99928 1 1 0.99928
1.00255 1.00341 1 0.999145
1.00116 1.00207 0.999872 0.999215
0.999049 1.0001 1 0.998946
1.00144 1 1.0025 0.998947
0.999771 1 1 0.999771
0.999607 1 1 0.999607
0.999505 1 1 0.999505
0.999812 1 1 0.999812
0.999629 1 1 0.999629
0.999821 1 1 0.999821
0.999535 1 1 0.999535
0.999651 1 1 0.999651
0.999454 1 1 0.999454
0.999535 1 1 0.999535
0.999655 1 1 0.999655
0.999825 1 1 0.999825
0.999991 1 1 0.999991
0.999991 1 1 0.999991
1 1 1 1
0.999991 1 1 0.999991
1 1 1 1
1 1 1 1
1 1 1 1
1 1 1 1
1 1 1 1
1 1 1 1
1 1 1 1
1 1 1 1
1 1 1 1
1 1 1 1
1 1 1 1
0.999044 1.00001 1 0.999037
0.999217 1.00027 1 0.998943
0.999385 1.0003 1 0.999084
1.00081 1.00192 1 0.998892
1.00114 1.00229 1 0.998857
0.999542 1.00071 1 0.998837
1.00157 1.00274 1 0.998832
1.00237 1.0035 1 0.998873
1.00098 1.00202 1 0.998966
1.00004 1.00093 1 0.999115
1.00321 1.00437 1 0.99885
1.00354 1.00462 1 0.998929
1.00208 1.00304 1 0.999038
1.00007 1.00123 1 0.998837
0.999547 1.00067 1 0.998874
0.999389 1.0004 1 0.998987
0.999477 1 1 0.999477
0.99937 1 1 0.99937
0.999398 1 1.00035 0.99905
0.999417 1.00031 1 0.999107
0.999264 1 1 0.999264
0.999097 1 1 0.999097
0.999442 1 1 0.999442
0.999407 1 1 0.999407
0.999373 1 1 0.999373
0.999934 1 1 0.999934
0.999533 1 1 0.999533
0.999697 1 1 0.999697
1.00162 1.00279 1 0.998833
1.00025 1.00139 1 0.998857
1.00008 1.00108 1 0.999
0.999426 1 1 0.999426
0.9993 1 1.0001 0.999198
0.999583 1 1.00064 0.998948
1.00115 1.00195 1 0.999205
0.999145 1.00004 1 0.999105
0.999963 1 1 0.999963
0.999766 1 1 0.999766
0.999398 1 1 0.999398
0.999347 1 1 0.999347
0.999385 1 1 0.999385
0.999564 1 1 0.999564
1.00272 1.00385 1 0.998868
1.00216 1.00328 1 0.998885
1.00328 1.00425 0.999905 0.999137
1.00244 1.00321 1 0.999228
0.999348 1 1 0.999348
1.00025 1 1.00137 0.998876
1.00005 1 1.001 0.999053
0.999991 1 1 0.999991
0.999847 1 1 0.999847
0.999768 1 1 0.999768
0.999591 1 1 0.999591
0.999432 1 1 0.999432
0.999282 1 1 0.999282
0.999392 1 1 0.999392
0.999582 1 1.00025 0.999334
0.999742 1 1 0.999742
0.999535 1 1 0.999535
0.999679 1.00052 1 0.999163
0.999397 1 1 0.999397
0.999368 1 1.00001 0.999362
0.999336 1 1 0.999336
0.999112 1 1 0.999112
0.99926 1 1 0.99926
1.00036 1 1.00121 0.999145
0.998912 1 1 0.998912
0.999563 1 1 0.999563
0.999401 1 1 0.999401
1.00036 1 1.0011 0.999261
0.999289 1 1 0.999289
1.00254 1.0034 1 0.999136
1.00091 1.00175 0.999949 0.999215
0.9992 1.00023 1 0.998974
1.00101 1 1.00208 0.998933
0.999465 1 1 0.999465
1.00252 1.00346 1 0.999063
0.999304 1 1 0.999304
1.00014 1 1.00099 0.999149
1.0056 1.00668 0.999722 0.999201
1.00135 1.00241 1 0.998944
1.00168 1 1.00285 0.99884
0.999616 1 1 0.999616
0.999505 1 1 0.999505
0.999417 1 1 0.999417
0.999821 1 1 0.999821
0.999658 1 1 0.999658
0.99952 1 1 0.99952
0.999825 1 1 0.999825
0.999654 1 1 0.999654
0.999443 1 1 0.999443
0.99955 1 1 0.99955
0.999384 1 1 0.999384
0.999442 1 1 0.999442
0.999563 1 1 0.999563
0.999673 1 1 0.999673
0.999823 1 1 0.999823
0.999989 1 1 0.999989
0.99999 1 1 0.99999
1 1 1 1
0.999991 1 1 0.999991
1 1 1 1
1 1 1 1
1 1 1 1
1 1 1 1
1 1 1 1
0.999997 1 1 0.999997
1 1 1 1
1 1 1 1
1 1 1 1
1 1 1 1
1 1 1 1
1 1 1 1
1.00015 1.00104 1 0.99911
1.00101 1.00204 1 0.998972
1.00228 1.00341 1 0.998872
1.00134 1.0025 1 0.998837
1.00319 1.00434 1 0.998856
1.00381 1.00489 1 0.99892
1.00232 1.00327 1 0.999052
1.00319 1.00429 1 0.998909
1.0045 1.00553 1 0.998974
1.0021 1.00302 1 0.999091
1.00197 1.00314 1 0.998835
0.999985 1.00113 1 0.998855
1.00008 1.00109 1 0.998988
0.999423 1 1 0.999423
0.999228 1 1 0.999227
0.999538 1 1.00059 0.998952
1.0017 1.00248 1 0.999222
0.999101 1 1 0.999101
0.999398 1 1 0.999398
0.999356 1 1 0.999356
0.999389 1 1 0.999389
0.999978 1 1 0.999978
0.999767 1 1 0.999767
0.999553 1 1 0.999553
1.00236 1.00349 1 0.998875
0.999988 1 1 0.999988
0.999837 1 1 0.999837
1.00215 1.00327 1 0.998885
1.00377 1.00467 1 0.999112
0.999364 1 1 0.999364
1.00043 1 1.00141 0.999028
0.999683 1 1.0008 0.998883
1.00206 1.00284 1 0.999227
0.999796 1 1 0.999796
0.99959 1 1 0.99959
0.99938 1 1 0.99938
0.999512 1 1.00014 0.999373
0.999265 1 1 0.999265
0.999434 1 1 0.999434
1.00347 1.00454 1 0.998934
1.0049 1.00594 1 0.998969
1.00543 1.00653 0.999601 0.9993
0.999412 1.00038 1 0.999029
1.00013 1 1.00082 0.999309
1.00286 1 1.004 0.998869
0.999848 1 1 0.999848
0.99982 1 1 0.99982
0.999711 1 1 0.999711
0.999596 1 1 0.999596
0.999477 1 1 0.999477
0.999314 1 1 0.999314
0.999402 1 1.00021 0.999194
0.999381 1 1 0.999381
0.999557 1 1 0.999557
0.999409 1 1 0.999409
1.00267 1.00355 1 0.999127
1.0008 1.00158 1 0.999214
0.999298 1 1 0.999298
1.00043 1 1.00116 0.999272
0.99939 1.00035 1.00004 0.999002
1.00064 1 1.00172 0.998919
0.999464 1 1 0.999464
1.00292 1.00384 1 0.99908
0.999306 1 1 0.999306
1.00031 1 1.00118 0.999134
1.00477 1.00585 0.99974 0.999191
1.00176 1.00281 1 0.998952
1.00179 1 1.00295 0.998843
0.999354 1 1 0.999354
1.01345 1.01515 0.999153 0.999166
0.999224 1 1 0.999224
1.00171 1 1.00271 0.998995
1.00177 1.00556 0.997225 0.998997
1.00153 1.00052 1.00221 0.998804
1.00845 1.01016 0.99917 0.999138
0.999505 1 1 0.999505
0.999416 1 1 0.999416
0.999353 1 1 0.999353
0.999826 1 1 0.999826
0.999653 1 1 0.999653
0.999564 1 1 0.999564
0.999431 1 1 0.999431
0.999823 1 1 0.999823
0.999664 1 1 0.999664
0.99938 1 1 0.99938
0.999563 1 1 0.999563
0.999454 1 1 0.999454
0.999365 1 1 0.999365
0.999488 1 1 0.999488
0.999572 1 1 0.999572
0.999649 1 1 0.999649
0.999795 1 1 0.999795
0.999692 1 1 0.999692
0.999796 1 1 0.999796
0.999988 1 1 0.999988
0.999989 1 1 0.999989
1 1 1 1
0.99999 1 1 0.99999
1 1 1 1
1 1 1 1
1 1 1 1
1 1 1 1
1 1 1 1
0.999999 1 1 0.999999
0.999996 1 1 0.999996
1 1 1 1
1 1 1 1
1 1 1 1
1 1 1 1
1 1 1 1
1 1 1 1
1.00254 1.00347 1 0.999066
1.00409 1.00519 1 0.998911
1.00318 1.00432 1 0.998861
1.00351 1.0046 1 0.998908
1.00411 1.00514 1 0.998979
1.00211 1.00301 1 0.999099
1.00398 1.00497 1 0.999013
1.00941 1.01485 0.995434 0.999196
1.01479 1.01621 0.999371 0.999229
0.999884 1 1 0.999884
1.00206 1.00318 1 0.998881
1.00205 1.00317 1 0.998884
1.00412 1.00504 1 0.999087
0.99938 1 1 0.99938
1.00103 1 1.00203 0.999002
0.999298 1 1.00041 0.99889
1.00172 1.0025 1 0.999227
0.999369 1 1 0.999369
0.999412 1 1 0.999412
0.999248 1 1 0.999248
0.999985 1 1 0.999985
0.999437 1 1 0.999437
0.999824 1 1 0.999824
0.99959 1 1 0.99959
0.999827 1 1 0.999827
1.00344 1.00452 1 0.998931
0.999861 1 1 0.999861
0.99982 1 1 0.99982
0.999689 1 1 0.999689
1.00535 1.00638 1 0.998973
1.00411 1.00538 0.999469 0.999267
0.999789 1 1.00047 0.999318
1.00312 1 1.00426 0.998859
0.999643 1.00045 1.00016 0.999034
0.999611 1 1 0.999611
0.99947 1 1 0.99947
0.999398 1 1.00004 0.99936
0.999519 1 1.00031 0.999213
0.999326 1 1 0.999326
1.00662 1.00764 1.00004 0.99894
1.0058 1.00936 0.997374 0.999102
1.00118 1.00234 0.999716 0.999123
1.00155 1 1.00263 0.998921
1.00265 1 1.00344 0.999214
0.999691 1 1 0.999691
0.999637 1 1 0.999637
0.999576 1 1 0.999576
0.999487 1 1 0.999487
0.999383 1 1 0.999383
0.999244 1 1 0.999244
1.00187 1 1.00271 0.99916
0.999462 1 1 0.999462
0.999307 1 1 0.999307
1.00326 1.00417 1 0.999096
1.00381 1.00492 0.999712 0.999181
1.00208 1.00312 1 0.998961
1.00046 1 1.00134 0.999118
1.00175 1 1.00291 0.998847
0.999365 1 1 0.999365
1.01289 1.01513 0.998622 0.999171
0.999227 1 1 0.999227
1.00166 1 1.00267 0.999
1.00313 1.00628 0.99784 0.999032
1.00191 1.00042 1.00269 0.998798
1.01009 1.01194 0.999092 0.999084
0.99929 1 1 0.99929
1.0006 1.0107 0.990901 0.999103
0.99986 1 1.00067 0.99919
1.00489 1 1.00597 0.998924
1.0008 1.00085 1.00109 0.998864
0.958388 0.964613 0.998279 0.99526
1.00347 0.999233 1.00618 0.998069
0.990334 1.00956 0.981703 0.999242
0.924855 0.941398 0.984797 0.997594
0.925151 0.959542 0.966001 0.998093
0.999416 1 1 0.999416
0.999358 1 1 0.999358
0.999332 1 1 0.999332
0.999823 1 1 0.999823
0.999655 1 1 0.999655
0.999562 1 1 0.999562
0.999467 1 1 0.999467
0.999376 1 1 0.999376
0.999559 1 1 0.999559
0.999807 1 1 0.999807
0.999659 1 1 0.999659
0.999371 1 1 0.999371
0.999484 1 1 0.999484
0.999496 1 1 0.999496
0.99941 1 1 0.99941
0.999535 1 1 0.999535
0.999643 1 1 0.999643
0.999794 1 1 0.999794
0.999674 1 1 0.999674
0.999577 1 1 0.999577
0.999662 1 1 0.999662
0.999674 1 1 0.999674
0.999816 1 1 0.999816
0.999796 1 1 0.999796
0.999987 1 1 0.999987
0.999988 1 1 0.999988
1 1 1 1
0.999988 1 1 0.999988
1 1 1 1
1 1 1 1
1 1 1 1
1 1 1 1
1 1 1 1
1 1 1 1
0.999999 1 1 0.999999
1 1 1 1
0.999994 1 1 0.999994
1 1 1 1
1 1 1 1
1 1 1 1
1 1 1 1
1 1 1 1
1.00372 1.00474 1 0.998985
1.00376 1.00486 1 0.998907
1.00209 1.00299 1 0.999107
1.01073 1.01482 0.996762 0.99921
1.00378 1.00477 1 0.999011
1.01537 1.0167 0.999499 0.999191
1.01468 1.01574 1.00004 0.998922
0.978605 0.984914 0.995936 0.997648
1.01416 1.01584 0.99904 0.999312
0.999891 1 1 0.999891
0.999884 1 1 0.999884
0.999735 1 1 0.999735
0.999752 1 1 0.999752
1.00346 1.00454 1 0.998928
1.00595 1.00698 1 0.998977
1.00273 1.00401 0.999481 0.999235
0.999327 1 1 0.999327
1.00293 1 1.00409 0.998849
0.999642 1.00047 1.00013 0.99904
0.999435 1 1.0001 0.999339
0.999686 1 1.00045 0.999232
0.999338 1 1 0.999338
0.999819 1 1 0.999819
0.999464 1 1 0.999464
0.999626 1 1 0.999626
0.999873 1 1 0.999873
0.999667 1 1 0.999667
1.00545 1.00647 1.00003 0.998957
0.999713 1 1 0.999713
0.999649 1 1 0.999649
0.999573 1 1 0.999573
1.0071 1.00971 0.998305 0.99911
1.0002 1.00154 0.999541 0.999121
1.00235 1 1.00314 0.999212
1.00133 1 1.00242 0.99891
0.999491 1 1 0.999491
0.999389 1 1 0.999389
1.00095 1 1.00179 0.999161
0.999455 1 1.00023 0.999228
1.01473 1.01581 0.999954 0.998987
1.0034 1.00768 0.996666 0.999078
1.00026 1.00067 1.00073 0.998869
1.00161 1 1.0025 0.999108
0.999535 1 1 0.999535
0.999519 1 1 0.999519
0.999346 1 1 0.999346
1.00232 1 1.00323 0.999094
0.951032 0.963779 0.991594 0.995139
0.999376 1 1 0.999376
0.999231 1 1 0.999231
1.01222 1.015 0.99809 0.999177
1.00453 1.00691 0.99857 0.999066
1.0024 1.00032 1.0033 0.998793
1.00174 1 1.00273 0.999005
1.01179 1.01359 0.999193 0.99903
0.999297 1 1 0.999297
1.00028 1.0106 0.990684 0.999092
0.999601 1 1.00041 0.999193
1.00473 1 1.00581 0.998928
1.00018 1.001 1.00031 0.998875
0.956658 0.964698 0.996148 0.995501
0.997803 0.996098 1.00444 0.997285
0.993978 1.01069 0.984173 0.999279
0.93154 0.94412 0.989417 0.99723
0.91714 0.953905 0.963422 0.997961
0.99931 1 1 0.99931
0.930996 0.942148 0.991287 0.996849
0.94342 0.961879 0.982504 0.998274
0.977976 1.00238 0.976532 0.999102
1.00264 1 1.00346 0.999187
1.00895 1 1.00996 0.999006
0.993169 1.00921 0.984771 0.999323
0.968989 0.970711 1.00325 0.994988
1.00449 0.999971 1.00745 0.997089
0.922751 0.947694 0.976129 0.997492
0.960485 0.989811 0.971619 0.998717
0.999362 1 1 0.999362
0.999333 1 1 0.999333
0.999342 1 1 0.999342
0.999818 1 1 0.999818
0.999669 1 1 0.999669
0.999546 1 1 0.999546
0.99948 1 1 0.99948
0.999378 1 1 0.999378
0.999794 1 1 0.999794
0.999498 1 1 0.999498
0.999549 1 1 0.999549
0.999655 1 1 0.999655
0.999399 1 1 0.999399
0.999452 1 1 0.999452
0.999567 1 1.0002 0.99937
0.99955 1 1 0.99955
0.999666 1 1 0.999666
0.999674 1 1 0.999674
0.999563 1 1 0.999563
0.999562 1 1 0.999562
0.999549 1 1 0.999549
0.999494 1 1 0.999494
0.999475 1 1 0.999475
0.999639 1 1 0.999639
0.999662 1 1 0.999662
0.99981 1 1 0.99981
0.999656 1 1 0.999656
0.999806 1 1 0.999806
0.999986 1 1 0.999986
0.999796 1 1 0.999796
0.999987 1 1 0.999987
1 1 1 1
0.999987 1 1 0.999987
1 1 1 1
1 1 1 1
1 1 1 1
1 1 1 1
1 1 1 1
0.999887 1 1 0.999887
1 1 1 1
1 1 1 1
1 1 1 1
0.999998 1 1 0.999998
1 1 1 1
1 1 1 1
1 1 1 1
1 1 1 1
1 1 1 1
1.01232 1.01518 0.997958 0.999223
1.00359 1.00458 1 0.999009
1.01597 1.01721 0.999627 0.999153
0.98034 0.98446 0.997683 0.998128
1.01435 1.01561 0.999428 0.999332
1.01565 1.01676 0.999999 0.998908
1.01829 1.01765 1.00159 0.99904
0.985287 0.986526 1.00067 0.998077
0.959125 0.966747 0.997671 0.994432
0.916486 0.94054 0.97778 0.99657
0.919314 0.951852 0.967686 0.998068
0.999729 1 1 0.999729
0.999891 1 1 0.999891
0.999884 1 1 0.999884
0.999729 1 1 0.999729
0.999631 1 1 0.999631
0.999655 1 1 0.999655
0.999735 1 1 0.999735
0.999743 1 1 0.999743
1.00409 1.00509 1.00003 0.998974
1.00853 1.0103 0.999126 0.999118
0.99954 1.00111 0.999317 0.999118
1.00233 1 1.00312 0.999211
1.00157 1 1.00268 0.998898
1.00006 1 1.0009 0.999161
0.99964 1 1.00043 0.999213
0.999394 1 1 0.999394
0.999662 1 1 0.999662
0.999495 1 1 0.999495
0.999735 1 1 0.999735
0.99957 1 1 0.99957
1.01498 1.01657 0.999465 0.998964
0.999544 1 1 0.999544
0.999519 1 1 0.999519
1.00281 1.00689 0.996866 0.999074
1.00021 1.00089 1.0004 0.998912
1.00247 1 1.00339 0.999078
0.999339 1 1 0.999339
1.0022 1 1.00311 0.999098
1.00729 1.01673 0.991791 0.998915
0.995847 1.00129 0.995596 0.998967
1.00002 1 1.00103 0.998993
1.00499 1 1.0059 0.999088
0.99946 1 1 0.99946
0.999385 1 1 0.999385
0.999747 1 1.00054 0.999204
0.923329 0.943021 0.981825 0.997244
0.957835 0.965713 0.996433 0.995393
0.999305 1 1 0.999305
0.999336 1 1.00014 0.999196
1.00051 1.01084 0.990686 0.999081
0.999478 1.00118 0.999411 0.998886
1.00444 1 1.00551 0.998932
0.958165 0.965657 0.997872 0.994357
0.997434 0.996737 1.00272 0.997989
0.99753 1.01195 0.986423 0.999316
0.926059 0.94474 0.983396 0.996777
0.908471 0.947587 0.960806 0.997829
0.999309 1 1 0.999309
0.925341 0.944878 0.981943 0.997332
0.945826 0.960328 0.986604 0.998272
0.980009 1.00253 0.978426 0.999092
1.00224 1 1.00305 0.999193
1.00815 1 1.00914 0.999024
0.986917 1.00622 0.981484 0.999322
0.970306 0.972295 1.00332 0.994654
1.00091 0.996596 1.00645 0.997886
0.924444 0.947185 0.979227 0.996696
0.957552 0.988576 0.969966 0.998609
0.999309 1 1 0.999309
0.958481 0.962373 0.997271 0.998681
1.00636 1.00816 0.998903 0.999307
0.986649 1 0.987361 0.999279
1.00724 1 1.00789 0.999353
1.00697 1.00214 1.00518 0.999633
0.994307 0.993451 1.00224 0.998621
0.97492 0.972757 1.00746 0.994804
0.941657 0.968605 0.975429 0.996668
0.982128 1.01063 0.972724 0.999046
0.999334 1 1 0.999334
0.999331 1 1 0.999331
0.999787 1 1.00042 0.999366
0.999794 1 1 0.999794
0.999668 1 1 0.999668
0.999564 1 1 0.999564
0.999499 1 1 0.999499
0.999388 1 1 0.999388
0.999666 1 1 0.999666
0.999462 1 1 0.999462
0.999549 1 1 0.999549
0.999613 1 1.00024 0.999368
0.999926 1 1.00055 0.999372
0.999527 1 1.00009 0.99944
0.999554 1 1 0.999554
0.999673 1 1 0.999673
0.999549 1 1 0.999549
0.999562 1 1 0.999562
0.999548 1 1 0.999548
0.999491 1 1 0.999491
0.999517 1 1 0.999517
0.999485 1 1 0.999485
0.999447 1 1 0.999447
0.999379 1 1 0.999379
0.99935 1 1 0.99935
0.999438 1 1 0.999438
0.999475 1 1 0.999475
0.999607 1 1 0.999607
0.999638 1 1 0.999638
0.999797 1 1 0.999797
0.999662 1 1 0.999662
0.99981 1 1 0.99981
0.999984 1 1 0.999984
0.999796 1 1 0.999796
0.999985 1 1 0.999985
1 1 1 1
0.999986 1 1 0.999986
1 1 1 1
1 1 1 1
1 1 1 1
1 1 1 1
1 1 1 1
0.999898 1 1 0.999898
1 1 1 1
0.999887 1 1 0.999887
1 1 1 1
1 1 1 1
1 1 1 1
1 1 1 1
1 1 1 1
1 1 1 1
1 1 1 1
1 1 1 1
0.925924 0.94267 0.984681 0.997517
0.948333 0.961188 0.988077 0.998531
0.98336 0.98512 0.99972 0.998494
1.01435 1.01536 0.999651 0.999351
1.01665 1.01785 0.999926 0.998894
0.984985 0.985026 1.00105 0.998906
1.01724 1.0174 1.00079 0.999047
0.962053 0.968946 0.997528 0.995346
0.925302 0.94177 0.985002 0.997474
0.913763 0.950175 0.963664 0.99794
1.00088 0.998851 1.0028 0.999236
0.968859 0.970994 1.00258 0.995238
0.919436 0.945709 0.974692 0.997462
0.95794 0.985915 0.973147 0.998436
0.999593 1 1 0.999593
0.999738 1 1 0.999738
0.999891 1 1 0.999891
0.999722 1 1 0.999722
0.999643 1 1 0.999643
0.999611 1 1 0.999611
0.999656 1 1 0.999656
0.999676 1 1 0.999676
0.999723 1 1 0.999723
0.999733 1 1 0.999733
1.01524 1.01731 0.999025 0.998942
1.00178 1.00567 0.997063 0.99907
1.0001 1.00102 1.00013 0.998955
1.00307 1 1.00402 0.999049
1.00197 1 1.00287 0.999101
0.999333 1 1 0.999333
0.999519 1 1 0.999519
0.999554 1 1 0.999554
1.00867 1.01698 0.992935 0.998887
0.999454 1 1 0.999454
0.99937 1 1 0.99937
0.996398 1.00097 0.99649 0.998936
1.00036 1 1.00133 0.999031
1.00391 1 1.00485 0.999064
1.00059 1 1.00139 0.999197
1.01007 1.01172 0.999511 0.998853
1.00119 1 1.00201 0.999182
1.00441 1 1.0053 0.999113
0.999444 1 1 0.999444
0.999354 1 1 0.999354
0.999244 1 1 0.999244
0.960292 0.966497 0.99493 0.998643
0.926629 0.942718 0.986205 0.996683
0.954888 0.965734 0.993625 0.995113
0.999307 1 1 0.999307
1.00184 1 1.00265 0.999198
0.98219 1.00261 0.980537 0.999082
1.00754 1 1.0085 0.999042
0.923868 0.945202 0.980725 0.99664
0.968921 0.971405 1.00162 0.995834
1.00243 0.998227 1.0071 0.997137
0.984433 1.00389 0.981276 0.999327
0.927956 0.946191 0.983119 0.997568
0.946254 0.961119 0.986316 0.998193
0.951822 0.985059 0.967756 0.998452
0.999307 1 1 0.999307
0.955554 0.962849 0.993804 0.998611
1.00581 1.00749 0.999025 0.999312
0.989676 1 0.990381 0.999288
1.00733 1 1.00798 0.999356
1.00666 1.00261 1.00479 0.999247
0.995505 0.993814 1.00422 0.997489
0.973425 0.974131 1.0046 0.994705
0.945167 0.971048 0.975574 0.997717
0.975364 1.00417 0.972386 0.998895
0.999728 1 1.00021 0.999519
1.01237 1.01308 0.999791 0.999508
1.02059 1.02142 0.999552 0.999631
1.00749 0.999973 1.0078 0.999715
0.996771 0.991345 1.00614 0.999334
0.978539 0.977897 1.00605 0.994642
0.970079 0.986376 0.985566 0.997881
0.978688 1.00952 0.970567 0.998859
0.999321 1 1 0.999321
0.999737 1 1.00036 0.999382
1.00075 1 1.0013 0.999452
0.999666 1 1 0.999666
0.999549 1 1 0.999549
0.999473 1 1 0.999473
0.999648 1 1.00028 0.999367
0.999554 1 1 0.999554
0.999471 1 1.00003 0.99944
1.00031 1 1.00093 0.999376
1.00031 1 1.00086 0.999456
0.999593 1 1.00021 0.99938
0.999474 1 1 0.999474
0.999562 1 1 0.999562
0.999547 1 1 0.999547
0.999488 1 1 0.999488
0.999487 1 1 0.999487
0.999517 1 1 0.999517
0.999452 1 1 0.999452
0.999415 1 1 0.999415
0.999423 1 1 0.999423
0.99935 1 1 0.99935
0.999384 1 1 0.999384
0.999338 1 1 0.999338
0.999263 1 1 0.999263
0.999452 1 1 0.999452
0.999385 1 1 0.999385
0.999453 1 1 0.999453
0.999554 1 1 0.999554
0.999475 1 1 0.999475
0.999606 1 1 0.999606
0.999774 1 1 0.999774
0.999637 1 1 0.999637
0.999796 1 1 0.999796
0.99998 1 1 0.99998
0.99981 1 1 0.99981
0.999983 1 1 0.999983
1 1 1 1
0.999985 1 1 0.999985
1 1 1 1
1 1 1 1
1 1 1 1
1 1 1 1
1 1 1 1
0.999848 1 1 0.999848
1 1 1 1
0.999876 1 1 0.999876
1 1 1 1
1 1 1 1
0.999887 1 1 0.999887
1 1 1 1
1 1 1 1
1 1 1 1
1 1 1 1
1 1 1 1
1 1 1 1
0.960451 0.964379 0.997111 0.998813
0.925688 0.942187 0.985413 0.997031
1.0045 1.00825 0.997008 0.999272
0.944508 0.959164 0.98625 0.998449
0.981077 0.983685 0.999431 0.997917
1.01626 1.01719 1.00003 0.999054
0.962981 0.968635 0.997876 0.996278
0.922994 0.943564 0.9815 0.996638
0.907934 0.948474 0.959356 0.997811
0.998266 0.99931 1.0001 0.998851
0.96902 0.969996 1.00405 0.994963
0.922107 0.949331 0.974612 0.996625
0.95737 0.985867 0.972636 0.998415
0.99851 1.00084 0.998704 0.998964
0.970431 0.970762 1.00493 0.994751
0.948055 0.972571 0.977081 0.997657
0.980725 1.0095 0.972539 0.99893
0.999512 1 1 0.999512
0.999607 1 1 0.999607
0.999747 1 1 0.999747
0.999655 1 1 0.999655
0.999533 1 1 0.999533
0.999621 1 1 0.999621
0.999658 1 1 0.999658
0.99966 1 1 0.99966
0.999689 1 1 0.999689
0.999711 1 1 0.999711
1.01053 1.01776 0.994034 0.998859
0.99705 1.00081 0.997337 0.998905
1.00066 1 1.00159 0.999069
1.00313 1 1.0041 0.99904
1.00151 1 1.00233 0.99919
0.999355 1 1 0.999355
0.999448 1 1 0.999448
0.999445 1 1 0.999445
1.00562 1.00986 0.996931 0.998874
0.999363 1 1 0.999363
0.999333 1 1.00009 0.999242
0.999511 1 1.00037 0.999141
1.004 1 1.00489 0.999114
0.997637 1.00781 0.990762 0.999133
1.01393 1 1.01459 0.999352
0.999981 1 1.00078 0.999202
0.999375 1 1 0.999375
0.999247 1 1 0.999247
1.0169 1.01756 0.999768 0.999584
0.961237 0.965676 0.996643 0.998756
0.926451 0.943747 0.984146 0.997487
0.999305 1 1 0.999305
1.00724 1 1.00788 0.999359
0.991116 1 0.991814 0.999296
0.96014 0.96388 0.997337 0.99878
0.972783 0.971872 1.00635 0.994617
0.998232 0.99505 1.00482 0.998385
1.00159 1.002 1.00075 0.998837
0.942563 0.96794 0.977036 0.99667
1.00485 1.00641 0.999129 0.999318
0.972014 1.00099 0.972099 0.998919
0.999668 1 1.00014 0.999533
1.0112 1.01168 0.999932 0.999594
1.02225 1.02293 0.999702 0.999637
1.00707 0.999838 1.00764 0.9996
0.996278 0.993108 1.0042 0.999001
0.983037 0.980096 1.00851 0.994536
0.982139 1.01395 0.969603 0.998995
0.957957 0.979429 0.980664 0.997363
1.00014 1 1.00043 0.999711
1.02424 1.02485 0.999524 0.999879
1.02703 1.02779 0.999574 0.999682
0.98216 1.00937 0.974087 0.998932
1.00374 0.992174 1.01189 0.999774
0.979741 0.979069 1.00571 0.995002
0.952508 0.969855 0.984335 0.997743
0.999665 1 1.00027 0.999398
1.00051 1 1.00109 0.999416
1.00312 1 1.00355 0.999566
0.999554 1 1 0.999554
0.99944 1 1 0.99944
1.00076 1 1.00138 0.999381
0.999476 1 1 0.999476
0.999704 1 1.00033 0.999379
1.00069 1 1.00126 0.99943
0.999854 1 1.00035 0.999499
0.999396 1 1 0.999396
0.999488 1 1 0.999488
0.999516 1 1 0.999516
0.999456 1 1 0.999456
0.999423 1 1 0.999423
0.99942 1 1 0.99942
0.999393 1 1 0.999393
0.999375 1 1 0.999375
1.00086 1 1.00167 0.999199
0.999389 1 1 0.999389
0.999365 1 1.00003 0.999334
0.999209 1 1.00005 0.999155
0.999266 1 1 0.999266
0.999421 1 1 0.999421
0.99929 1 1.00002 0.999265
0.999539 1 1 0.999539
0.999442 1 1 0.999442
0.99942 1 1 0.99942
0.999467 1 1 0.999467
0.999566 1 1 0.999566
0.999743 1 1 0.999743
0.999606 1 1 0.999606
0.999774 1 1 0.999774
0.999974 1 1 0.999974
0.999796 1 1 0.999796
0.999979 1 1 0.999979
1 1 1 1
0.999982 1 1 0.999982
1 1 1 1
1 1 1 1
1 1 1 1
1 1 1 1
1 1 1 1
0.999782 1 1 0.999782
0.999969 1 1 0.999969
0.999847 1 1 0.999847
1 1 1 1
0.999988 1 1 0.999988
0.999854 1 1 0.999854
1 1 1 1
1 1 1 1
1 1 1 1
1 1 1 1
1 1 1 1
1 1 1 1
1.01313 1.01393 0.999662 0.999548
0.95462 0.963895 0.991788 0.998578
0.92855 0.942327 0.98858 0.996762
0.999611 1 1 0.999611
1.02167 1.02205 0.999923 0.999708
1.00543 1.0083 0.99787 0.999277
0.93833 0.958461 0.980683 0.99828
0.996465 0.99984 0.998191 0.998431
0.970703 0.971441 1.00409 0.995167
0.926322 0.952903 0.974547 0.997494
0.953624 0.983948 0.970824 0.998309
1.00123 1.00394 0.999398 0.997906
0.969481 0.970368 1.00421 0.994896
0.949348 0.972516 0.978864 0.997256
0.979219 1.00833 0.972292 0.998807
0.994961 0.995078 1.00246 0.997427
0.975744 0.972878 1.00918 0.99382
0.958812 0.981671 0.97971 0.996941
0.979685 1.0111 0.970048 0.998847
0.999435 1 1 0.999435
0.999504 1 1 0.999504
0.99962 1 1 0.99962
0.999518 1 1 0.999518
0.999549 1 1 0.999549
0.999631 1 1 0.999631
0.999664 1 1 0.999664
0.999702 1 1 0.999702
1.00121 1.00784 0.994525 0.998894
0.997789 1 0.998689 0.999099
0.999447 1 1 0.999447
1.00349 1 1.00438 0.999114
0.999407 1 1.00017 0.99924
0.999372 1 1 0.999372
0.999377 1 1 0.999377
1.002 1.00821 0.994702 0.99914
0.999259 1 1 0.999259
1.0008 1 1.0016 0.999196
1.01112 1 1.01178 0.999339
0.999382 1 1 0.999382
0.993867 1.00098 0.993347 0.999543
1.01308 1 1.01363 0.999454
0.999276 1 1 0.999276
0.999315 1 1 0.999315
1.02531 1.02609 0.99935 0.999894
1.01641 1.01711 0.999723 0.99959
0.962167 0.964648 0.998555 0.998872
0.999548 1 1 0.999548
1.00753 0.999629 1.00843 0.999486
1.01017 1.0105 0.999995 0.999679
0.978431 0.975774 1.00807 0.994695
0.999915 0.994272 1.00775 0.997938
0.9592 0.980728 0.981075 0.996915
1.02374 1.02427 0.999848 0.999643
0.986416 1.01893 0.968931 0.999131
1.00007 0.999764 1.00063 0.999678
1.02507 1.02588 0.999327 0.99988
1.02651 1.02743 0.999363 0.999745
1.00587 0.994218 1.01179 0.999931
0.979773 1.00792 0.973241 0.998805
0.979579 0.979393 1.00508 0.995132
0.956092 0.976372 0.982352 0.996822
1.00516 0.996818 1.0086 0.999771
1.02527 1.02576 0.999614 0.999908
1.02148 1.02252 0.999269 0.999709
0.958677 0.986198 0.973603 0.99845
0.957535 0.981211 0.978878 0.996928
0.99795 0.99061 1.00734 1.00007
0.977926 0.973373 1.00999 0.994739
1.00027 1 1.00089 0.99938
1.00223 1 1.00268 0.99955
1.01139 0.999204 1.01262 0.999581
0.999478 1 1 0.999478
0.999743 1 1.00037 0.999377
1.00094 1 1.00154 0.999403
0.999395 1 1 0.999395
0.999931 1 1.00043 0.999498
1.00284 1 1.00343 0.999415
0.999422 1 1 0.999422
0.999425 1 1 0.999425
0.999559 1 1.00018 0.99938
1.00365 1 1.00443 0.999223
0.999399 1 1 0.999399
1.00035 1 1.00112 0.999226
1.00195 1 1.00291 0.999043
0.99955 1 1.00047 0.99908
0.999382 1 1.00005 0.999329
0.999192 1 1.00006 0.999129
0.99933 1 1 0.99933
0.999386 1 1 0.999386
0.999285 1 1 0.999285
0.999523 1 1 0.999523
0.999418 1 1 0.999418
0.999312 1 1.00004 0.999268
0.999708 1 1 0.999708
0.999534 1 1 0.999534
0.999431 1 1 0.999431
0.999579 1 1 0.999579
0.999742 1 1 0.999742
0.999964 1 1 0.999964
0.999773 1 1 0.999773
0.999972 1 1 0.999972
1 1 1 1
0.999977 1 1 0.999977
1 1 1 1
1 1 1 1
1 1 1 1
1 1 1 1
1 1 1 1
0.999752 1 1 0.999752
0.999949 1 1 0.999949
0.999795 1 1 0.999795
1 1 1 1
0.999968 1 1 0.999968
0.999846 1 1 0.999846
1 1 1 1
1 1 1 1
0.999976 1 1 0.999976
1 1 1 1
1 1 1 1
1 1 1 1
1.02588 1.02624 0.99977 0.999871
1.01311 1.01392 0.999652 0.999553
0.95525 0.963597 0.992738 0.99859
0.999617 1 1 0.999617
0.999581 1 1 0.999581
0.999524 1 1 0.999524
1.02756 1.02672 1.00114 0.999677
1.02193 1.02217 1.00005 0.999715
1.00626 1.00836 0.998628 0.999283
1.00772 1.00611 1.00281 0.9988
0.971428 0.970795 1.00586 0.994818
0.946011 0.969918 0.978625 0.996656
0.980021 1.01 0.971411 0.998874
0.990499 0.991501 1.0006 0.998387
0.973439 0.972715 1.00606 0.99472
0.959999 0.979755 0.982028 0.997768
0.982982 1.01483 0.969595 0.998987
0.984062 0.986745 0.998936 0.998343
0.981501 0.975411 1.01142 0.994879
0.955457 0.972109 0.98513 0.997707
0.980948 1.00892 0.973212 0.999036
0.999416 1 1 0.999416
0.999434 1 1 0.999434
0.999496 1 1 0.999496
0.999517 1 1 0.999517
0.999565 1 1 0.999565
0.999668 1 1 0.999668
1.00624 1.0084 0.99871 0.999148
1.008 1 1.00868 0.999327
0.999379 1 1 0.999379
1.0015 1 1.00231 0.999191
0.999271 1 1 0.999271
0.999376 1 1 0.999376
0.999313 1 1 0.999313
1.00071 1.00288 0.998298 0.999534
0.9993 1 1 0.9993
1.01232 0.998812 1.01405 0.999479
0.999365 1 1 0.999365
1.01632 0.995672 1.02099 0.999754
0.997494 0.997431 1.00044 0.999627
0.999311 1 1 0.999311
1.02335 1.02394 0.999494 0.999929
1.02519 1.026 0.999306 0.999902
1.0159 1.01666 0.99965 0.999595
1.00001 0.999631 1.00073 0.999644
1.00047 0.994243 1.0063 0.999962
1.02579 1.02678 0.99915 0.999882
0.987616 0.983126 1.00775 0.99684
0.963226 0.979236 0.985731 0.997889
1.02614 1.02717 0.999191 0.999809
0.980822 1.00969 0.972509 0.998873
1.00447 0.997832 1.00687 0.999788
1.02472 1.0253 0.999519 0.999913
1.02182 1.02263 0.999488 0.999716
0.998624 0.988865 1.01103 0.998856
0.958337 0.98652 0.972965 0.998424
0.958081 0.979503 0.980344 0.997741
0.984674 0.977836 1.01202 0.995035
1.02262 0.997073 1.02574 0.999889
1.02592 1.02644 0.99962 0.999869
1.00608 1.00941 0.997427 0.999269
0.920164 0.951866 0.968558 0.998076
0.947021 0.971285 0.97727 0.997697
0.986219 0.978464 1.01307 0.99492
0.975441 0.985011 0.99176 0.998512
1.0012 1 1.00167 0.999534
1.01281 0.99955 1.01369 0.999586
1.0195 1 1.01998 0.999529
0.999394 1 1 0.999394
1.00005 1 1.00055 0.999497
1.00227 1 1.00285 0.999427
1.01134 1 1.01209 0.999264
0.999686 1 1.00032 0.999367
1.00361 1 1.00442 0.999192
1.00812 1 1.00917 0.998966
0.999854 1 1.0006 0.999254
1.00269 1 1.00365 0.999038
1.00292 1 1.00402 0.998899
0.9994 1 1.00045 0.99895
0.999468 1 1.00022 0.999246
0.999581 1 1.00052 0.999065
0.999231 1 1.00013 0.999104
0.999401 1 1 0.999401
0.999352 1 1 0.999352
0.999471 1 1 0.999471
0.999399 1 1 0.999399
0.999305 1 1 0.999305
0.999672 1 1 0.999672
0.999524 1 1 0.999524
0.999416 1 1 0.999416
0.999947 1 1 0.999947
0.999709 1 1 0.999709
0.999529 1 1 0.999529
0.999742 1 1 0.999742
0.99996 1 1 0.99996
1 1 1 1
0.999969 1 1 0.999969
1 1 1 1
1 1 1 1
1 1 1 1
1 1 1 1
1 1 1 1
0.999748 1 1 0.999748
0.999966 1 1 0.999966
0.999762 1 1 0.999762
1 1 1 1
0.999966 1 1 0.999966
0.999807 1 1 0.999807
1 1 1 1
1 1 1 1
0.999967 1 1 0.999967
1 1 1 1
1 1 1 1
1 1 1 1
1.02642 1.02551 1.00098 0.999904
1.02657 1.02647 1.00023 0.999873
1.01325 1.01386 0.999839 0.999558
0.999566 1 1 0.999566
0.9995 1 1 0.9995
0.999622 1 1 0.999622
0.999579 1 1 0.999579
0.999511 1 1 0.999511
0.999501 1 1 0.999501
0.999449 1 1 0.999449
1.02014 1.01958 1.00092 0.999626
1.02715 1.0267 1.0007 0.99974
1.02222 1.02232 1.00018 0.999722
0.987351 1.01942 0.969384 0.999128
0.991082 0.99322 1.00037 0.997483
0.976762 0.975106 1.00614 0.995587
0.960996 0.975915 0.987902 0.996772
0.983366 0.986754 0.998733 0.99783
0.979145 0.975695 1.00881 0.994769
0.959862 0.979161 0.983377 0.996861
0.976088 1.00418 0.973128 0.998866
0.976568 0.981477 0.996218 0.998776
0.975286 0.977096 1.00349 0.994674
0.975214 0.989826 0.987394 0.997816
0.959921 0.98846 0.972392 0.9987
0.999408 1 1 0.999408
0.999414 1 1 0.999414
0.999433 1 1 0.999433
0.999516 1 1 0.999516
1.00743 1.0047 1.00319 0.999525
1.01207 0.997638 1.01497 0.999504
0.99937 1 1 0.99937
0.999312 1 1 0.999312
0.999323 1 1 0.999323
0.999365 1 1 0.999365
0.999301 1 1 0.999301
1.00961 0.993755 1.01624 0.999716
0.998844 0.998726 1.00044 0.999679
0.999333 1 1 0.999333
1.01357 0.989093 1.02485 0.999901
1.00324 0.9999 1.00395 0.999393
1.02603 1.0264 0.99975 0.999891
1.02206 1.02267 0.999468 0.999935
1.02515 1.02593 0.999332 0.999911
1.00369 0.998778 1.00511 0.999805
0.999505 0.988432 1.01118 1.00002
1.02436 1.02497 0.999482 0.999919
0.977399 0.973273 1.00951 0.994776
0.959384 0.975189 0.986989 0.996762
1.02205 1.02276 0.99958 0.999723
0.955558 0.984575 0.972155 0.998328
1.02466 0.996273 1.02863 0.999873
1.02616 1.02659 0.999713 0.999871
1.00712 1.00952 0.998355 0.999274
0.979592 0.987789 0.991966 0.999733
0.914543 0.950192 0.964459 0.997951
0.946749 0.970062 0.978618 0.997291
0.988907 0.979051 1.01491 0.99523
1.00983 0.994115 1.01598 0.999826
1.0143 1.01472 1.00004 0.999542
0.949357 0.961797 0.988507 0.998543
0.920506 0.944816 0.976745 0.997466
0.979932 0.974955 1.01032 0.994837
0.97347 0.984568 0.990804 0.997905
1.01446 1 1.01487 0.99959
1.02002 0.999849 1.02066 0.999524
1.01392 1 1.01451 0.999421
1.00174 1 1.0023 0.999439
1.01183 1 1.01255 0.99929
1.00916 1 1.01018 0.99899
1.00368 1 1.00452 0.999162
1.00835 1 1.00942 0.998941
1.00387 1 1.00508 0.998794
1.00338 1 1.00435 0.999033
1.00263 1 1.00376 0.998877
1.00142 1 1.00261 0.998821
0.998919 1 1 0.998919
0.999194 1 1.0001 0.999096
0.999598 1 1.00067 0.998927
0.999352 1 1 0.999352
0.999359 1 1.0001 0.99926
0.999565 1 1.00052 0.999049
0.999436 1 1 0.999436
0.999395 1 1 0.999395
0.999373 1 1 0.999373
0.99962 1 1 0.99962
0.999482 1 1 0.999482
0.999413 1 1 0.999413
0.999915 1 1 0.999915
0.999672 1 1 0.999672
0.999526 1 1 0.999526
1 1 1 1
0.999944 1 1 0.999944
0.999709 1 1 0.999709
0.999957 1 1 0.999957
1 1 1 1
1 1 1 1
1 1 1 1
1 1 1 1
1 1 1 1
0.999566 1 1 0.999566
0.999721 1 1 0.999721
0.999955 1 1 0.999955
0.999747 1 1 0.999747
1 1 1 1
0.99997 1 1 0.99997
0.999772 1 1 0.999772
1 1 1 1
1 1 1 1
0.999983 1 1 0.999983
1 1 1 1
1 1 1 1
1 1 1 1
1.02505 1.02425 1.0009 0.999876
1.02586 1.02517 1.00077 0.99991
1.02689 1.02668 1.00034 0.999875
0.999572 1 1 0.999572
0.999492 1 1 0.999492
0.999465 1 1 0.999465
0.999488 1 1 0.999488
0.999451 1 1 0.999451
0.999577 1 1 0.999577
0.999498 1 1 0.999498
0.999502 1 1 0.999502
0.999445 1 1 0.999445
0.999449 1 1 0.999449
1.00525 1.00648 0.999485 0.999296
1.02182 1.02106 1.00111 0.999633
1.0264 1.02635 1.00025 0.999803
0.972367 1.00083 0.972636 0.998893
0.963882 0.979896 0.985748 0.997879
0.978454 0.983792 0.997221 0.997345
0.979508 0.978677 1.00601 0.99487
0.97769 0.981233 0.998669 0.997718
0.981003 0.978403 1.00787 0.994824
0.962978 0.98284 0.982409 0.997335
0.958112 0.987394 0.971713 0.998592
0.989972 0.981331 1.01076 0.998065
0.977175 0.97935 1.00281 0.994984
0.943809 0.969135 0.977124 0.996667
0.925136 0.95963 0.96592 0.99807
0.999514 1 1 0.999514
0.999409 1 1 0.999409
0.999412 1 1 0.999412
1.00327 0.99219 1.0115 0.999677
0.99973 0.999588 1.00041 0.999736
0.999365 1 1 0.999365
0.99929 1 1 0.99929
0.999376 1 1.00003 0.999342
1.00357 0.99974 1.00444 0.99939
1.01298 0.990393 1.0229 0.999907
1.00376 1 1.00435 0.999411
1.01062 0.996986 1.01406 0.999626
1.01504 1.01548 1 0.999571
1.02576 1.02616 0.999706 0.9999
1.02074 1.02141 0.999408 0.999941
1.02651 0.995493 1.03131 0.999855
0.978709 0.987056 0.993296 0.998236
1.02624 1.02672 0.999662 0.999873
0.979939 0.97687 1.00939 0.993813
0.944803 0.968709 0.978518 0.996734
1.00805 1.00964 0.999149 0.99928
0.908931 0.94876 0.960107 0.997825
1.01057 0.994836 1.01598 0.999834
1.01431 1.01484 0.999934 0.999547
0.945654 0.959745 0.986838 0.99846
0.971658 0.985044 0.987884 0.998509
0.923083 0.94882 0.976144 0.996652
0.976839 0.975083 1.00754 0.9943
0.990557 0.994092 0.99688 0.999563
0.960999 0.964648 0.997391 0.998824
0.91814 0.940452 0.979617 0.996589
0.974098 0.972371 1.00705 0.994765
0.993198 0.992108 1.00256 0.99854
1.02015 0.999735 1.02091 0.999519
1.01634 1 1.01693 0.999418
0.994283 1 0.995084 0.999195
1.01216 1 1.01286 0.999316
1.00874 1 1.00973 0.999016
1.00182 1.00025 1.00272 0.998861
1.00843 1 1.00952 0.998916
1.00349 1 1.0047 0.998798
0.998898 1 1.00003 0.998864
1.00235 1 1.0035 0.998855
1.00081 1 1.00199 0.998829
0.999115 1.00017 1 0.998943
0.999024 1 1 0.999024
0.999018 1 1 0.999018
0.998926 1 1 0.998926
0.999236 1 1 0.999236
0.999295 1 1.00022 0.999071
0.999814 1 1.00091 0.998904
0.999435 1 1 0.999435
0.999369 1 1 0.999369
0.999274 1 1 0.999274
0.999566 1 1 0.999566
0.999439 1 1 0.999439
0.99939 1 1 0.99939
0.999863 1 1 0.999863
0.99962 1 1 0.99962
0.999493 1 1 0.999493
1 1 1 1
0.999913 1 1 0.999913
0.999673 1 1 0.999673
1 1 1 1
1 1 1 1
0.99994 1 1 0.99994
1 1 1 1
1 1 1 1
1 1 1 1
0.999531 1 1 0.999531
0.999693 1 1 0.999693
0.999559 1 1 0.999559
0.999946 1 1 0.999946
0.999721 1 1 0.999721
1 1 1 1
0.999958 1 1 0.999958
0.999747 1 1 0.999747
1 1 1 1
1 1 1 1
0.999973 1 1 0.999973
1 1 1 1
1 1 1 1
1 1 1 1
1.01237 1.01272 1 0.999653
1.02602 1.02539 1.00075 0.999878
1.0255 1.02491 1.00065 0.999916
0.999467 1 1 0.999467
0.999577 1 1 0.999577
0.999484 1 1 0.999484
0.999497 1 1 0.999497
0.999473 1 1 0.999473
0.999449 1 1 0.999449
0.99942 1 1 0.99942
0.999434 1 1 0.999434
0.999502 1 1 0.999502
0.999442 1 1 0.999442
0.999447 1 1 0.999447
0.99944 1 1 0.99944
0.945489 0.962071 0.984485 0.998252
1.00444 1.00549 0.999651 0.9993
1.02378 1.02279 1.00133 0.999639
0.952981 0.984828 0.969202 0.998412
0.966062 0.985463 0.983326 0.996935
0.974511 0.976603 1.00318 0.994694
0.979157 0.978896 1.00146 0.998804
0.989555 0.980119 1.0105 0.999137
0.917953 0.953888 0.964304 0.997951
0.981061 0.978047 1.0088 0.994329
0.94285 0.968807 0.97552 0.997629
0.988041 0.987908 1.00096 0.999173
0.975333 0.97399 1.00624 0.995169
0.920492 0.945015 0.976544 0.997447
1.00007 1 1.00041 0.999668
0.999515 1 1 0.999515
0.999409 1 1 0.999409
1.01315 0.992635 1.02076 0.999907
1.00445 1 1.00506 0.999386
0.999402 1 1.00005 0.999352
1.00406 1 1.00465 0.999414
1.0099 0.997777 1.01251 0.99964
1.00849 0.999452 1.00939 0.999659
0.960441 0.966017 0.995732 0.998489
1.01584 1.0162 0.999986 0.999658
1.02559 1.02596 0.999735 0.99991
1.0111 0.995374 1.01596 0.999844
0.973769 0.987593 0.987043 0.998947
1.01436 1.01493 0.999887 0.999553
0.978949 0.97647 1.00686 0.995704
0.927333 0.952111 0.976411 0.997507
0.939422 0.959146 0.98111 0.998293
0.9898 0.994536 0.995647 0.999589
0.954984 0.964075 0.99197 0.998589
0.926903 0.941228 0.987246 0.997503
0.99173 0.989012 1.00521 0.997548
0.975183 0.974464 1.0059 0.994872
0.980563 1.00133 0.979787 0.999465
0.926274 0.942793 0.984901 0.99754
0.972315 0.972319 1.00492 0.995101
1.00057 0.99929 1.00389 0.997395
1.01968 1 1.02027 0.999414
0.990824 1 0.991601 0.999216
0.983621 1.00044 0.984045 0.99913
1.00852 1 1.00949 0.999042
1.00186 1.00042 1.00258 0.998863
0.9995 1.00086 0.999602 0.999044
1.0032 1 1.00441 0.998801
0.999265 1.00002 1.00037 0.998876
1.00037 1.00126 1 0.999114
1.00021 1 1.00137 0.998838
0.999034 1.00009 1 0.998949
0.99933 1.00017 1 0.99916
0.999193 1 1 0.999193
0.999061 1 1 0.999061
0.999041 1 1 0.999041
0.999144 1 1 0.999144
0.999035 1 1 0.999035
0.998933 1 1 0.998933
0.999381 1 1 0.999381
0.999235 1 1 0.999235
0.999385 1 1.00034 0.999045
0.999538 1 1 0.999538
0.999434 1 1 0.999434
0.999386 1 1 0.999386
0.9998 1 1 0.9998
0.999568 1 1 0.999568
0.999443 1 1 0.999443
1 1 1 1
0.999862 1 1 0.999862
0.99962 1 1 0.99962
1 1 1 1
1 1 1 1
0.999911 1 1 0.999911
1 1 1 1
1 1 1 1
1 1 1 1
0.999531 1 1 0.999531
0.999534 1 1 0.999534
0.999661 1 1 0.999661
0.999932 1 1 0.999932
0.999693 1 1 0.999693
0.999552 1 1 0.999552
1 1 1 1
0.999948 1 1 0.999948
0.999721 1 1 0.999721
1 1 1 1
1 1 1 1
0.999961 1 1 0.999961
1 1 1 1
1 1 1 1
1 1 1 1
0.960515 0.964294 0.997393 0.998685
1.01188 1.01222 1 0.99966
1.02695 1.02647 1.00058 0.99988
0.99946 1 1 0.99946
0.999463 1 1 0.999463
0.999425 1 1 0.999425
0.999506 1 1 0.999506
0.999481 1 1 0.999481
0.999447 1 1 0.999447
0.999435 1 1 0.999435
0.999421 1 1 0.999421
0.999379 1 1 0.999379
0.999438 1 1 0.999438
0.999445 1 1 0.999445
0.999442 1 1 0.999442
0.925588 0.942491 0.984503 0.997525
0.946152 0.960564 0.986715 0.998259
1.00357 1.00445 0.999821 0.999305
0.911025 0.948415 0.962665 0.997831
0.941459 0.965773 0.978083 0.996668
0.989923 0.983324 1.01082 0.995938
0.99436 0.979947 1.01674 0.997998
0.987878 0.986932 1.00288 0.998082
0.922723 0.945971 0.978693 0.996661
0.978968 0.976342 1.00724 0.995485
0.990926 0.988242 1.00454 0.998182
0.976 0.975042 1.00599 0.995024
1.00762 1 1.00819 0.999433
0.999926 1 1.00027 0.999659
0.999516 1 1 0.999516
1.00738 0.996868 1.0109 0.999653
1.00436 1 1.00494 0.999418
1.0083 0.999514 1.00918 0.999615
1.00144 1.00067 1.00146 0.999307
0.922975 0.94389 0.980508 0.997281
0.960382 0.964395 0.997155 0.99868
1.01656 1.01691 0.999918 0.999745
0.98794 0.994686 0.993596 0.999619
0.992115 0.988911 1.00481 0.998437
0.955755 0.963915 0.992925 0.998599
0.976565 0.97318 1.00871 0.994814
0.923899 0.942795 0.983249 0.996653
0.984041 1.00179 0.982864 0.999408
0.926184 0.942335 0.985789 0.99703
0.972376 0.971529 1.006 0.9949
0.999902 0.995216 1.00639 0.998325
1.00398 1.0079 0.996863 0.99924
0.960292 0.967241 0.998441 0.994366
0.996909 0.999047 0.999172 0.998687
0.987383 1 0.988138 0.999237
0.985838 1.00053 0.986189 0.999114
0.988409 1.00145 0.987825 0.999145
1.00163 1.00054 1.00222 0.998865
0.999462 1.00117 0.999252 0.999039
1.00195 1.004 0.998627 0.999333
0.999633 1.00003 1.00071 0.998889
1.0006 1.00149 1 0.999114
1.00188 1.00256 1 0.999326
0.998955 1 1 0.998955
0.999248 1.00009 1 0.999159
0.999439 1.00014 1 0.999303
0.999278 1 1 0.999278
0.999212 1 1 0.999212
0.999179 1 1 0.999179
0.999134 1 1 0.999134
0.999064 1 1 0.999064
0.999059 1 1 0.999059
0.999271 1 1 0.999271
0.999163 1 1 0.999163
0.999051 1 1 0.999051
0.999502 1 1 0.999502
0.999378 1 1 0.999378
0.999235 1 1 0.999235
0.999751 1 1 0.999751
0.999538 1 1 0.999538
0.999432 1 1 0.999432
1 1 1 1
0.9998 1 1 0.9998
0.999569 1 1 0.999569
1 1 1 1
1 1 1 1
0.99986 1 1 0.99986
1 1 1 1
1 1 1 1
1 1 1 1
0.999508 1 1 0.999508
0.999521 1 1 0.999521
0.99963 1 1 0.99963
0.999536 1 1 0.999536
0.999661 1 1 0.999661
0.999906 1 1 0.999906
1 1 1 1
0.999933 1 1 0.999933
0.999693 1 1 0.999693
1 1 1 1
1 1 1 1
0.99995 1 1 0.99995
1 1 1 1
1 1 1 1
1 1 1 1
0.932624 0.943699 0.991369 0.996868
0.957666 0.963899 0.994987 0.998539
1.01132 1.01166 1 0.999667
0.999452 1 1 0.999452
0.999419 1 1 0.999419
0.999471 1 1 0.999471
0.999453 1 1 0.999453
0.999418 1 1 0.999418
0.999435 1 1 0.999435
0.999421 1 1 0.999421
0.999384 1 1 0.999384
0.999392 1 1 0.999392
0.999377 1 1 0.999377
0.99947 1 1.00026 0.999213
0.999438 1 1 0.999438
0.999443 1 1 0.999443
0.97159 0.97684 1.00038 0.994251
0.931721 0.944857 0.988903 0.997162
0.946121 0.96027 0.98707 0.998172
0.92352 0.945886 0.978783 0.997519
0.977213 0.973775 1.00957 0.994014
0.990108 0.987788 1.00314 0.999208
0.993628 0.99125 1.00365 0.998754
0.975472 0.97652 1.00375 0.995199
0.990873 0.998547 0.994196 0.998107
1.00591 1.00132 1.0057 0.998897
1.00608 1 1.00666 0.999421
0.99965 1 1 0.99965
1.00761 1 1.00804 0.999573
1.00048 1.00099 1.00017 0.999326
0.952357 0.965303 0.991395 0.995152
0.927006 0.943649 0.985566 0.99675
0.960721 0.962771 0.998997 0.998872
0.987723 1.00265 0.985756 0.999348
1.0023 0.997136 1.00778 0.997418
0.929422 0.942444 0.989402 0.996746
0.973761 0.971796 1.00698 0.995075
0.999336 1.00833 0.991841 0.999228
0.96276 0.968739 0.99856 0.995261
0.998924 1.00115 1.00003 0.997743
1.00665 1.00936 0.998352 0.99896
0.998208 0.996103 1.00298 0.999134
0.987059 1.0006 0.987364 0.999097
0.990698 1.00134 0.990245 0.999122
1.00483 1.01095 0.994764 0.999182
0.999521 1.00142 0.99907 0.999035
1.00088 1.00288 0.998674 0.999326
1.00499 1.0067 0.998934 0.999376
1.00085 1.00174 1 0.999114
1.00165 1.00235 0.999994 0.999314
1.00126 1.00194 0.999987 0.99933
0.999173 1.00001 1 0.999159
0.999372 1.00008 1 0.999294
0.999476 1.00019 1 0.999284
0.999301 1 1 0.999301
0.999225 1 1 0.999225
0.999231 1 1 0.999231
0.999175 1 1 0.999175
0.999169 1 1 0.999169
0.999211 1 1 0.999211
0.999131 1 1 0.999131
0.999067 1 1 0.999067
0.999435 1 1 0.999435
0.999284 1 1 0.999284
0.999183 1 1 0.999183
0.999714 1 1 0.999714
0.9995 1 1 0.9995
0.999376 1 1 0.999376
0.999996 1 1 0.999996
0.999752 1 1 0.999752
0.999539 1 1 0.999539
1 1 1 1
0.999999 1 1 0.999999
0.9998 1 1 0.9998
1 1 1 1
1 1 1 1
1 1 1 1
0.999472 1 1 0.999472
0.999509 1 1 0.999509
0.999583 1 1 0.999583
0.99951 1 1 0.99951
0.99962 1 1 0.99962
0.999861 1 1 0.999861
0.99966 1 1 0.99966
0.999907 1 1 0.999907
1 1 1 1
1 1 1 1
1 1 1 1
0.999935 1 1 0.999935
1 1 1 1
1 1 1 1
1 1 1 1
0.965881 0.97129 0.999246 0.995181
0.92818 0.94679 0.982901 0.997399
0.960134 0.963747 0.997622 0.998625
0.999412 1 1 0.999412
0.999478 1 1 0.999478
0.999423 1 1 0.999423
0.999453 1 1 0.999453
0.999408 1 1 0.999408
0.999432 1 1 0.999432
0.999389 1 1 0.999389
0.999374 1 1 0.999374
0.99937 1 1 0.99937
0.999347 1 1 0.999347
0.999245 1 1 0.999245
0.998956 1 1.00011 0.998841
0.999286 1 1.00006 0.999228
0.999438 1 1 0.999438
0.989095 0.994079 0.996628 0.998352
0.970243 0.973864 1.00129 0.994993
0.925025 0.945018 0.982141 0.996643
0.974784 0.974576 1.00533 0.994916
0.98864 0.989941 0.999385 0.999301
0.99244 0.997044 0.996364 0.999016
0.997122 1.00479 0.993323 0.99904
1.00301 1.00066 1.00337 0.998974
1.00503 1 1.00563 0.999408
0.998369 1.0011 0.997932 0.999341
0.985469 0.986386 1.0011 0.997971
0.959731 0.96696 0.997109 0.995402
0.925697 0.944237 0.982787 0.997536
0.996559 1.0084 0.989036 0.999216
1.00514 1.00338 1.00325 0.998505
0.963615 0.968512 0.998752 0.996187
1.0012 1.0076 0.994666 0.99898
0.995188 0.996249 1.00019 0.99875
1.00414 1.01623 0.989119 0.998973
1.01242 1.01173 1.00174 0.998946
0.9935 1.00131 0.993098 0.999099
1.00472 1.01063 0.994971 0.999181
1.00778 1.01133 0.997308 0.999169
0.999957 1.00198 0.998657 0.999319
1.00501 1.00656 0.999084 0.999369
1.00323 1.00425 0.999791 0.999196
1.00136 1.00206 1 0.999302
1.0008 1.00148 1 0.99932
0.99978 1.00061 1 0.999169
0.999285 1 1 0.999285
0.999383 1.00009 1 0.999293
0.999177 1 1 0.999177
0.999323 1 1 0.999323
0.999236 1 1 0.999236
0.99917 1 1 0.99917
0.99917 1 1 0.99917
0.999165 1 1 0.999165
0.999211 1 1 0.999211
0.999349 1 1 0.999349
0.999224 1 1 0.999224
0.999127 1 1 0.999127
0.999663 1 1 0.999663
0.999435 1 1 0.999435
0.999297 1 1 0.999297
0.999984 1 1 0.999984
0.999714 1 1 0.999714
0.999499 1 1 0.999499
1 1 1 1
0.999993 1 1 0.999993
0.999752 1 1 0.999752
1 1 1 1
0.999998 1 1 0.999998
1 1 1 1
0.999434 1 1 0.999434
0.99948 1 1 0.99948
0.999551 1 1 0.999551
0.99951 1 1 0.99951
0.999579 1 1 0.999579
0.999807 1 1 0.999807
0.999609 1 1 0.999609
0.999862 1 1 0.999862
1 1 1 1
0.999907 1 1 0.999907
1 1 1 1
1 1 1 1
1 1 1 1
1 1 1 1
1 1 1 1
0.982688 0.986272 0.998034 0.998329
0.959081 0.968124 0.995529 0.995108
0.926607 0.947226 0.981498 0.996673
0.999331 1 1 0.999331
0.999427 1 1 0.999427
0.999454 1 1 0.999454
0.99943 1 1 0.99943
0.999403 1 1 0.999403
0.999468 1 1 0.999468
0.999355 1 1 0.999355
0.999364 1 1 0.999364
0.999365 1 1 0.999365
0.999273 1 1 0.999273
0.998996 1.00001 1 0.99899
1.00311 1.00454 1 0.998569
0.998975 1 1.00013 0.998843
0.999244 1 1 0.999244
1.00024 1.00516 0.9959 0.999201
0.98991 0.995444 0.996504 0.997929
0.972156 0.974818 1.00146 0.99582
0.994327 0.998075 0.998095 0.998146
1.00176 1.00621 0.996561 0.999014
1.00152 1.00016 1.00231 0.999053
1.00289 1.00368 1.00002 0.999202
0.986845 0.985341 1.00281 0.998721
0.956974 0.967095 0.99432 0.995188
0.994824 1.00592 0.98996 0.998999
0.992961 0.996128 0.998496 0.998322
1.0059 1.01644 0.990658 0.998957
1.01037 1.01015 1.00118 0.999037
1.01652 1.0182 0.999428 0.998921
1.00831 1.00948 1 0.998847
1.0045 1.01006 0.995312 0.999181
1.00952 1.01228 0.998091 0.999177
1.00279 1.00375 1 0.999041
1.00513 1.00639 0.999384 0.999362
1.00396 1.00482 0.999945 0.999194
0.999515 1.0005 1 0.999014
1.00038 1.00107 1 0.999311
0.999861 1.00067 1 0.999191
0.999059 1.00001 1 0.99905
0.999303 1 1 0.999303
0.999195 1.00002 1 0.999177
0.99911 1 1 0.99911
0.999248 1 1 0.999248
0.999174 1 1 0.999174
0.999173 1 1 0.999173
0.999161 1 1 0.999161
0.999203 1 1 0.999203
0.99931 1 1 0.99931
0.999602 1 1 0.999602
0.999362 1 1 0.999362
0.999237 1 1 0.999237
0.999963 1 1 0.999963
0.999662 1 1 0.999662
0.999434 1 1 0.999434
1 1 1 1
0.999978 1 1 0.999978
0.999713 1 1 0.999713
1 1 1 1
0.99999 1 1 0.99999
1 1 1 1
0.999363 1 1 0.999363
0.999435 1 1 0.999435
0.99952 1 1 0.99952
0.999487 1 1 0.999487
0.999556 1 1 0.999556
0.999758 1 1 0.999758
0.999574 1 1 0.999574
0.999807 1 1 0.999807
1 1 1 1
0.999862 1 1 0.999862
1 1 1 1
1 1 1 1
1 1 1 1
1 1 1 1
1 1 1 1
1.00351 1.00707 0.997094 0.999364
0.98239 0.987573 0.997224 0.997521
0.9633 0.968719 0.999148 0.995254
0.99937 1 1 0.99937
0.999177 1 1 0.999177
0.999343 1 1 0.999343
0.999428 1 1 0.999428
0.999399 1 1 0.999399
0.999451 1 1 0.999451
0.999789 1.00071 1 0.999078
0.999384 1 1 0.999384
0.999301 1 1 0.999301
0.99926 1.00025 1 0.999005
1.00087 1.00222 1 0.998654
1.00671 1.00838 0.999519 0.998818
1.00216 1.00358 1 0.998584
0.998845 1 1 0.998845
1.00297 1.00762 0.996153 0.999235
0.987867 0.994916 0.995484 0.99742
1.00482 1.00735 0.998501 0.998989
1.00406 1.00482 1 0.999239
1.00302 1.00289 1.00089 0.999239
0.984632 0.98512 1.00173 0.997775
1.00794 1.01704 0.992096 0.998942
1.00777 1.00838 1.00027 0.999129
1.01631 1.01828 0.999126 0.998944
1.00962 1.01075 1 0.99888
1.00511 1.00618 1 0.998933
1.00606 1.007 1 0.999068
1.01122 1.01339 0.998676 0.999185
1.00277 1.00376 0.99996 0.999047
1.001 1.00208 1 0.998923
1.00451 1.00532 1 0.999192
0.999542 1.00052 1 0.999026
0.999129 1.00019 1 0.99894
0.999921 1.00071 1 0.999214
0.999067 1.00002 1 0.999048
0.999008 1 1 0.999008
0.999212 1.00004 1 0.999177
0.999109 1 1 0.999109
0.999111 1 1 0.999111
0.999178 1 1 0.999178
0.999174 1 1 0.999174
0.999266 1 1 0.999266
0.999194 1 1 0.999194
0.999306 1 1 0.999306
0.999547 1 1 0.999547
0.999937 1 1 0.999937
0.999601 1 1 0.999601
0.999376 1 1 0.999376
1 1 1 1
0.999956 1 1 0.999956
0.999662 1 1 0.999662
1 1 1 1
0.999973 1 1 0.999973
1 1 1 1
0.999238 1 1 0.999238
0.99935 1 1 0.99935
0.99946 1 1 0.99946
0.999437 1 1 0.999437
0.999521 1 1 0.999521
0.999717 1 1 0.999717
0.999561 1 1 0.999561
0.999758 1 1 0.999758
0.999995 1 1 0.999995
0.999806 1 1 0.999806
1 1 1 1
1 1 1 1
1 1 1 1
1 1 1 1
1 1 1 1
1.004 1.0055 0.999381 0.999132
1.00259 1.0062 0.997079 0.999326
0.982065 0.986214 0.997605 0.998183
0.999866 1.00074 1 0.999124
0.999436 1 1 0.999436
0.999006 1 1 0.999006
0.999167 1 1 0.999167
0.999355 1 1 0.999355
1.00254 1.00378 1 0.998764
0.999434 1 1 0.999434
0.999728 1.00066 1 0.999067
1.00257 1.00384 1 0.99874
0.999509 1.00049 1 0.99902
1.00146 1.00283 1 0.998627
1.00496 1.00649 0.999671 0.998813
1.0007 1.00211 1 0.998597
1.00508 1.00937 0.996481 0.999268
1.00492 1.00573 1 0.999191
1.00402 1.00479 1 0.999235
1.00352 1.00212 1.00212 0.999277
1.01637 1.01853 0.998904 0.998968
1.01123 1.01233 1 0.998914
1.0058 1.00688 1 0.998932
1.00632 1.00726 1 0.999071
1.00444 1.00544 1 0.999006
1.00281 1.00378 0.999988 0.999053
1.00086 1.00194 1 0.998928
1.0006 1.0017 1 0.998902
0.999585 1.00055 1 0.999038
0.999064 1.00013 1 0.998936
0.998924 1 1 0.998924
0.999082 1.00004 1 0.999045
0.999006 1 1 0.999006
0.999028 1 1 0.999028
0.999108 1 1 0.999108
0.999111 1 1 0.999111
0.999196 1 1 0.999196
0.999175 1 1 0.999175
0.999266 1 1 0.999266
0.999492 1 1 0.999492
0.999302 1 1 0.999302
0.999546 1 1 0.999546
0.999914 1 1 0.999914
0.999998 1 1 0.999998
0.999931 1 1 0.999931
0.999601 1 1 0.999601
1 1 1 1
0.999949 1 1 0.999949
1 1 1 1
0.999039 1 1 0.999039
0.999146 1 1 0.999146
0.999224 1 1 0.999224
0.999393 1 1 0.999393
0.999337 1 1 0.999337
0.999463 1 1 0.999463
0.99968 1 1 0.99968
0.999522 1 1 0.999522
0.999717 1 1 0.999717
0.999979 1 1 0.999979
0.999757 1 1 0.999757
0.999997 1 1 0.999997
1 1 1 1
1 1 1 1
1 1 1 1
1 1 1 1
1.00361 1.0046 1 0.999015
1.00572 1.00699 0.999567 0.999168
1.00258 1.00624 0.997069 0.999288
1.00057 1.00172 1 0.998854
0.99954 1.00036 1 0.999177
0.999501 1 1 0.999501
0.999047 1.00002 1 0.999028
0.999158 1 1 0.999158
1.00614 1.00745 1 0.9987
1.00223 1.0035 1 0.998738
0.99968 1.00062 1 0.999056
1.00316 1.00443 1 0.998733
1.00236 1.00377 1 0.998601
1.00445 1.00586 0.99979 0.998809
1.00661 1.00752 1 0.999093
1.00444 1.00527 1 0.999182
1.00398 1.00476 1 0.999231
1.00627 1.00734 1 0.998931
1.00654 1.00748 1 0.999075
1.00483 1.00582 1 0.999011
1.00428 1.00534 1 0.998949
1.00075 1.00182 1 0.998933
1.00024 1.00134 1 0.998899
0.999396 1.0005 1 0.998899
0.998998 1.00007 1 0.998932
0.998982 1.00006 1 0.998923
0.998962 1 1 0.998962
0.999004 1 1 0.999004
0.999026 1 1 0.999026
0.999121 1 1 0.999121
0.99911 1 1 0.99911
0.999196 1 1 0.999196
0.999425 1 1 0.999425
0.999267 1 1 0.999267
0.999491 1 1 0.999491
0.999897 1 1 0.999897
0.999546 1 1 0.999546
0.999909 1 1 0.999909
0.999996 1 1 0.999996
0.999999 1 1 0.999999
0.999924 1 1 0.999924
1 1 1 1
0.999273 1.00039 1 0.998884
0.999128 1 1 0.999128
0.999118 1 1 0.999118
0.999302 1 1 0.999302
0.999144 1 1 0.999144
0.999209 1 1 0.999209
0.999394 1 1 0.999394
0.99963 1 1 0.99963
0.999465 1 1 0.999465
0.999681 1 1 0.999681
0.999959 1 1 0.999959
0.999717 1 1 0.999717
0.999985 1 1 0.999985
1 1 1 1
0.999999 1 1 0.999999
1 1 1 1
1 1 1 1
1.00701 1.00811 1 0.998903
1.00359 1.00458 1 0.999013
1.0067 1.00771 0.999796 0.999204
1.00332 1.00458 1 0.998752
1.00038 1.00152 1 0.998857
0.999231 1 1 0.999231
0.999094 1.00004 1 0.99905
1.00599 1.0073 1 0.9987
1.00198 1.00327 1 0.998712
1.00328 1.00456 1 0.998726
1.00677 1.00778 1 0.998993
1.00662 1.00756 1 0.999067
1.00384 1.00467 1 0.999172
1.00568 1.00677 1 0.99892
1.00518 1.00617 1 0.999015
1.00422 1.00527 1 0.998949
1.00127 1.00235 1 0.998917
0.999881 1.00099 1 0.998895
0.999732 1.00083 1 0.998901
0.998953 1.00003 1 0.998927
0.999037 1.00012 1 0.998922
0.998961 1 1 0.998961
0.999065 1 1 0.999065
0.999025 1 1 0.999025
0.99912 1 1 0.99912
0.999356 1 1 0.999356
0.999196 1 1 0.999196
0.999423 1 1 0.999423
0.99988 1 1 0.99988
0.99949 1 1 0.99949
0.999893 1 1 0.999893
0.999994 1 1 0.999994
0.999905 1 1 0.999905
0.999997 1 1 0.999997
1 1 1 1
0.99976 1.00097 1 0.998791
0.998973 1 1 0.998973
0.99911 1.0002 1 0.998912
0.999241 1 1 0.999241
0.999127 1 1 0.999127
0.999196 1 1 0.999196
0.999545 1 1 0.999545
0.999301 1 1 0.999301
0.999142 1 1 0.999142
0.999395 1 1 0.999395
0.999631 1 1 0.999631
0.999935 1 1 0.999935
0.999681 1 1 0.999681
0.999965 1 1 0.999965
1 1 1 1
0.99999 1 1 0.99999
1 1 1 1
1 1 1 1
1.00547 1.00661 1 0.998871
1.00711 1.00823 1 0.998884
1.00386 1.00486 1 0.999011
1.0033 1.00455 1 0.99875
1.00016 1.0013 1 0.99886
1.00573 1.00704 1 0.9987
1.00604 1.00713 1 0.998915
1.00703 1.00804 1 0.998992
1.00673 1.0077 1 0.999042
1.00558 1.00667 1 0.998922
1.00318 1.00429 1 0.998892
1.00416 1.00522 1 0.998949
1.00157 1.00266 1 0.998916
0.999276 1.00036 1 0.998921
1.00007 1.00117 1 0.998902
0.999027 1.0001 1 0.998929
0.999026 1 1 0.999026
0.998961 1 1 0.998961
0.999065 1 1 0.999065
0.99931 1 1 0.99931
0.99912 1 1 0.99912
0.999355 1 1 0.999355
0.999861 1 1 0.999861
0.999421 1 1 0.999421
0.999875 1 1 0.999875
0.99999 1 1 0.99999
0.999889 1 1 0.999889
0.999995 1 1 0.999995
0.999997 1 1 0.999997
1.00126 1.0024 1 0.998865
0.998865 1 1 0.998865
0.999519 1.00074 1 0.998784
0.999116 1 1 0.999116
0.998984 1 1 0.998984
0.998964 1.00002 1 0.99894
0.999451 1 1 0.999451
0.999216 1 1 0.999216
0.999126 1 1 0.999126
0.999902 1 1 0.999902
0.999547 1 1 0.999547
0.9993 1 1 0.9993
0.999632 1 1 0.999632
0.999942 1 1 0.999942
1 1 1 1
0.999971 1 1 0.999971
1 1 1 1
1 1 1 1
1.00433 1.00547 1 0.998864
1.00555 1.00669 1 0.998866
1.0072 1.00834 1 0.998865
1.00333 1.00459 1 0.998749
1.00382 1.00496 1 0.998866
1.00628 1.00736 1 0.99892
1.00728 1.0083 1 0.998991
1.00547 1.00655 1 0.998925
1.00319 1.0043 1 0.998893
0.999869 1.00096 1 0.998909
1.00187 1.00296 1 0.998915
0.999371 1.00045 1 0.998927
0.998992 1 1 0.998992
0.999101 1.00017 1 0.998931
0.999026 1 1 0.999026
0.999278 1 1 0.999278
0.999064 1 1 0.999064
0.99931 1 1 0.99931
0.999838 1 1 0.999838
0.999353 1 1 0.999353
0.999854 1 1 0.999854
1 1 1 1
0.99987 1 1 0.99987
0.999992 1 1 0.999992
0.999996 1 1 0.999996
1.00136 1.00248 1 0.998886
0.998944 1.00005 1 0.998892
1.00132 1.00245 1 0.998868
0.998993 1 1 0.998993
0.998878 1 1 0.998878
0.999257 1.00048 1 0.998777
0.999325 1 1 0.999325
0.999114 1 1 0.999114
0.998995 1 1 0.998995
0.999866 1 1 0.999866
0.99943 1 1 0.99943
0.999191 1 1 0.999191
1 1 1 1
0.999911 1 1 0.999911
0.999548 1 1 0.999548
0.999948 1 1 0.999948
1 1 1 1
1 1 1 1
1.00281 1.00394 1 0.998867
1.00466 1.0058 1 0.998872
1.00558 1.00673 1 0.998861
1.00048 1.00161 1 0.998864
1.0036 1.00474 1 0.998863
1.00652 1.0076 1 0.998926
1.00321 1.00432 1 0.998893
0.999894 1.00099 1 0.998909
0.998994 1 1 0.998994
0.999468 1.00054 1 0.998932
0.999012 1 1 0.999012
0.999205 1 1 0.999205
0.999027 1 1 0.999027
0.999278 1 1 0.999278
0.999819 1 1 0.999819
0.999309 1 1 0.999309
0.999837 1 1 0.999837
1 1 1 1
0.999846 1 1 0.999846
0.999994 1 1 0.999994
0.999993 1 1 0.999993
1.00037 1.00148 1 0.998894
0.998955 1.00003 1 0.998926
1.00134 1.00245 1 0.998887
0.999003 1 1 0.999003
0.999022 1.00013 1 0.998897
1.00139 1.00252 1 0.998872
0.99925 1 1 0.99925
0.99902 1 1 0.99902
0.998891 1 1 0.998891
0.999839 1 1 0.999839
0.999315 1 1 0.999315
0.999113 1 1 0.999113
1 1 1 1
0.999873 1 1 0.999873
0.999408 1 1 0.999408
1 1 1 1
0.999919 1 1 0.999919
1 1 1 1
1.00027 1.00139 1 0.998879
1.00252 1.00366 1 0.998868
1.005 1.00613 1 0.99888
0.998953 1 1 0.998953
1.00037 1.00151 1 0.998867
1.0034 1.00455 1 0.99886
0.999922 1.00101 1 0.998909
0.998994 1 1 0.998994
0.999162 1 1 0.999162
0.999033 1 1 0.999033
0.999225 1 1 0.999225
0.99978 1 1 0.99978
0.999278 1 1 0.999278
0.999816 1 1 0.999816
1 1 1 1
0.999835 1 1 0.999835
1 1 1 1
0.999989 1 1 0.999989
0.999072 1.00014 1 0.998931
1.00025 1.00136 1 0.998893
0.999004 1 1 0.999004
0.999013 1.00009 1 0.998926
1.00131 1.00242 1 0.998888
0.999252 1 1 0.999252
0.999001 1 1 0.999001
0.999098 1.0002 1 0.998901
0.999821 1 1 0.999821
0.999264 1 1 0.999264
0.999047 1 1 0.999047
1 1 1 1
0.999844 1 1 0.999844
0.999305 1 1 0.999305
1 1 1 1
0.999881 1 1 0.999881
1 1 1 1
0.998972 1 1 0.998972
1.00011 1.00123 1 0.998882
1.0022 1.00333 1 0.99887
0.999135 1 1 0.999135
0.998953 1 1 0.998953
1.00024 1.00137 1 0.99887
0.998994 1 1 0.998994
0.999167 1 1 0.999167
0.999738 1 1 0.999738
0.999245 1 1 0.999245
0.999778 1 1 0.999778
1 1 1 1
0.999814 1 1 0.999814
1 1 1 1
1 1 1 1
0.998992 1 1 0.998992
0.99905 1.00012 1 0.998925
1.00014 1.00125 1 0.998892
0.999236 1 1 0.999236
0.999003 1 1 0.999003
0.999075 1.00015 1 0.998926
0.999804 1 1 0.999804
0.999251 1 1 0.999251
0.998999 1 1 0.998999
1 1 1 1
0.999824 1 1 0.999824
0.999278 1 1 0.999278
1 1 1 1
0.999848 1 1 0.999848
1 1 1 1
0.999176 1 1 0.999176
0.998953 1 1 0.998953
0.999978 1.0011 1 0.998884
0.999717 1 1 0.999717
0.999137 1 1 0.999137
0.998953 1 1 0.998953
0.999172 1 1 0.999172
0.999736 1 1 0.999736
1 1 1 1
0.999775 1 1 0.999775
1 1 1 1
1 1 1 1
0.999208 1 1 0.999208
0.998984 1 1 0.998984
0.999027 1.00011 1 0.998919
0.999799 1 1 0.999799
0.999234 1 1 0.999234
0.999002 1 1 0.999002
1 1 1 1
0.999804 1 1 0.999804
0.999251 1 1 0.999251
1 1 1 1
0.999826 1 1 0.999826
1 1 1 1
0.999714 1 1 0.999714
0.999161 1 1 0.999161
0.998933 1 1 0.998933
1 1 1 1
0.999716 1 1 0.999716
0.99914 1 1 0.99914
0.999734 1 1 0.999734
1 1 1 1
1 1 1 1
0.999766 1 1 0.999766
0.999208 1 1 0.999208
0.998976 1 1 0.998976
1 1 1 1
0.999781 1 1 0.999781
0.999233 1 1 0.999233
1 1 1 1
0.999805 1 1 0.999805
1 1 1 1
0.99994 1 1 0.99994
0.999736 1 1 0.999736
0.999146 1 1 0.999146
1 1 1 1
0.999715 1 1 0.999715
1 1 1 1
0.999953 1 1 0.999953
0.99976 1 1 0.99976
0.999208 1 1 0.999208
0.999981 1 1 0.999981
0.999779 1 1 0.999779
1 1 1 1
1 1 1 1
0.999722 1 1 0.999722
1 1 1 1
0.999974 1 1 0.999974
0.999748 1 1 0.999748
1 1 1 1
1 1 1 1
1 1 1 1

VECTORS lamdaE float
0.999039 1.00025 0.996548
0.999213 0.999438 0.998594
0.998947 1.00038 0.99662
0.999515 0.999987 0.996184
0.999136 1.00028 0.996429
0.999088 0.999933 0.996713
0.999857 1.00078 0.99436
0.999232 0.999312 0.998636
0.999054 1.00037 0.998503
0.998943 0.999899 0.998656
0.999359 0.998952 0.997213
0.999821 1.00056 0.99437
0.999735 1.00001 0.995778
0.999408 0.999881 0.996252
0.998839 1.00057 0.996694
0.999405 0.99999 0.99628
0.999008 1.00004 0.996782
0.999025 1.00039 0.996518
0.999929 1.00072 0.994355
0.999659 1 0.998142
0.999562 0.999952 0.996142
0.999341 1.00013 0.996296
1.00074 0.999953 0.993687
1.00017 1.00051 0.994098
0.999246 0.999349 0.996996
0.999603 1.00086 0.994684
1.00137 1.00112 0.991344
0.999244 0.999178 0.998684
0.999127 1.00026 0.997418
0.999032 0.999938 0.997676
0.999333 0.998796 0.998767
0.999745 1.00066 0.994375
0.999405 1.00014 0.996216
0.999137 1.0004 0.996531
1.00046 1.00041 0.994352
0.999351 0.998248 0.99902
0.999963 1.00061 0.994929
0.999708 1.00032 0.994777
1.00059 1.00174 0.991803
0.999452 0.997745 0.999157
0.999723 1 0.998089
0.999493 0.999959 0.997234
0.999793 1 0.998033
0.99945 0.999956 0.996137
1.00111 1.00003 0.9924
0.999378 1.00005 0.998418
1.00095 0.999938 0.993922
0.999297 0.999986 0.996374
0.998914 1.00054 0.996597
0.998922 1.00015 0.996864
1.00001 1.00062 0.99435
0.999617 1 0.997067
0.99946 0.999924 0.996242
0.999184 0.999383 0.997062
0.999224 1.00019 0.996392
1.00078 0.999942 0.993651
0.999674 1.00081 0.994685
1.00024 1.00046 0.994087
1.00144 1.00115 0.991256
0.999727 1 0.998083
0.999586 0.99999 0.996036
1.00097 1.00001 0.99373
1.00077 0.999903 0.99368
1.00051 1.00019 0.993843
1.00285 0.999858 0.989952
1.00195 1.00055 0.990563
0.999458 0.99863 0.997343
0.999413 1.00066 0.995199
1.00073 1.00163 0.991952
1.00221 1.00125 0.989246
0.999172 1.00021 0.998406
0.999347 0.998628 0.998855
0.99911 0.9997 0.998572
0.999672 1.00075 0.994378
0.999428 1.00015 0.99831
0.999109 1.0002 0.998457
1.00034 1.00042 0.993419
0.99938 0.998322 0.998302
0.999843 1.00073 0.994089
0.999661 1.0003 0.995249
1.00058 1.00173 0.991795
0.999437 0.998007 0.999057
0.999627 0.998924 0.996357
1.00072 1.00008 0.993107
1.00015 1.00062 0.993699
1.00218 1.00055 0.989969
0.99961 0.999794 0.996148
1.001 1.00135 0.991424
1.00027 1.00199 0.992157
1.0011 1.00199 0.990501
0.999497 0.997444 0.999233
0.99944 0.997693 0.999184
0.999555 0.999993 0.99826
0.999681 1 0.998129
0.999781 1 0.998044
0.999548 0.999991 0.997132
1.0011 1.00002 0.993009
0.999434 0.999995 0.997288
1.0009 0.99995 0.993441
0.999798 0.999998 0.998035
1.00117 0.999979 0.992299
1.00103 1.00001 0.993731
1.00326 0.999797 0.988676
1.00085 0.999945 0.99405
1.003 0.999827 0.989145
0.999691 1.00001 0.995871
0.999356 0.999876 0.996343
0.999118 0.999379 0.997142
0.999111 1.00026 0.996483
1.00081 0.999941 0.993616
1.00031 1.00038 0.99408
0.999747 1.00073 0.99468
1.00151 1.0012 0.991169
0.999763 1 0.998059
0.999475 0.999967 0.996155
1.00103 1.00001 0.992844
1.00081 0.999879 0.993638
0.999387 0.99862 0.998094
0.999524 1.00059 0.995311
1.00056 1.00016 0.993823
1.00283 0.999851 0.989851
1.00081 1.00167 0.991855
1.00199 1.00061 0.990637
1.0022 1.00125 0.98925
1.00113 1.00001 0.992365
1.00078 0.999963 0.993557
1.00316 0.999829 0.989107
1.00287 0.999723 0.989761
1.00255 1.0001 0.989978
1.00389 0.999532 0.98807
0.999464 0.998134 0.998994
1.00285 1.00058 0.988684
0.999579 1.00019 0.995144
1.00018 1.0019 0.992274
1.00157 1.002 0.989818
1.00276 1.00114 0.988313
0.999666 0.999263 0.995868
1.00008 1.00092 0.993517
0.999359 1.00015 0.998331
0.999053 1.00007 0.9985
1.00031 1.00043 0.99343
0.999398 0.998216 0.999011
0.999589 1.00039 0.994895
0.999767 1.00083 0.994081
1.00058 1.00171 0.991785
0.999421 0.997967 0.999091
0.99963 0.998868 0.996384
1.0007 1.00008 0.993648
1.00007 1.00063 0.994206
1.00217 1.00054 0.989986
0.999599 0.999768 0.995544
1.00098 1.00134 0.991437
1.00025 1.00199 0.992152
1.00111 1.002 0.990444
0.999588 0.999364 0.995969
0.999706 0.998479 0.996667
0.999999 1.00072 0.993846
1.00267 1.00012 0.989444
1.00153 1.00101 0.990753
1.0031 1.00056 0.988245
1.00017 1.00168 0.992637
1.00161 1.00149 0.990025
1.00071 1.00263 0.990762
1.0013 1.00227 0.989961
0.999578 0.997146 0.999282
0.999499 0.997386 0.99925
0.99943 0.997635 0.99921
0.999708 0.998885 0.996199
0.999485 0.997879 0.99909
0.999495 1.00005 0.998291
0.999599 0.999989 0.998209
1.00087 0.999935 0.992929
1.00105 1.00003 0.992488
0.999756 1 0.998061
0.999798 0.999999 0.99803
1.00116 0.999987 0.992305
1.00097 1.00002 0.993258
1.00326 0.999798 0.98868
1.00081 0.999913 0.993044
1.003 0.999836 0.989145
1.00119 0.999969 0.992264
1.00341 0.999761 0.98842
1.00309 0.999817 0.988975
1.00431 0.999447 0.987093
1.00291 0.999883 0.989239
1.00404 0.999481 0.987579
0.999783 0.999999 0.99804
0.999365 0.99993 0.996278
1.00103 0.999995 0.992016
1.00086 0.99988 0.993596
0.999275 0.99857 0.998898
0.999635 1.00054 0.995418
1.00061 1.00013 0.993805
1.00282 0.999838 0.989749
1.00202 1.00068 0.99071
1.0009 1.00174 0.991759
1.0022 1.00125 0.989254
1.00113 0.999996 0.992359
1.00083 0.999949 0.993522
1.00315 0.999818 0.988872
1.00287 0.999761 0.989868
0.999449 0.998189 0.998959
0.999596 1.00014 0.995491
1.00028 1.00191 0.992364
1.00253 1.00015 0.989979
1.00389 0.999457 0.987931
1.00149 1.00199 0.989808
1.00288 1.00061 0.988757
1.00275 1.00114 0.988324
0.999644 0.99934 0.995854
1.00009 1.0009 0.993512
1.00339 0.99977 0.988452
1.00289 0.999817 0.989618
1.00421 0.999584 0.987443
1.00395 0.999284 0.987796
1.0035 0.999945 0.988248
1.00447 0.998965 0.987412
0.999623 0.99971 0.995484
1.00351 1.00027 0.98777
1.00009 1.00178 0.992563
1.00073 1.0024 0.990602
1.00211 1.00215 0.988928
1.0032 1.00078 0.987953
1.00012 1.00141 0.992995
1.0001 1.00036 0.99404
1.00028 1.00197 0.992121
1.00064 1.00008 0.993171
0.999406 0.997929 0.999124
0.99963 0.998821 0.996411
0.999959 1.00073 0.993788
1.00216 1.00053 0.990003
0.999589 0.999748 0.995509
1.00022 1.00199 0.992146
1.00096 1.00133 0.99145
1.00112 1.002 0.990387
0.999598 0.999298 0.995991
0.999698 0.998456 0.996685
0.999993 1.00074 0.993856
1.00267 1.00013 0.989446
1.00151 1.001 0.990777
1.0031 1.00056 0.988246
1.00013 1.00172 0.992638
1.00164 1.0015 0.99006
1.0007 1.00263 0.990754
1.00127 1.00226 0.989923
0.999787 0.998136 0.99686
1.0001 1.00121 0.993182
0.999988 1.00012 0.994482
1.00017 1.00183 0.992485
1.00367 0.999953 0.987749
1.0023 1.00114 0.9892
1.00364 1.0004 0.987369
1.00047 1.00255 0.991315
1.00198 1.00147 0.989472
1.00075 1.00345 0.989823
1.00146 1.00209 0.989526
1.00017 0.99906 0.995237
0.999924 0.997672 0.997057
0.999671 0.996884 0.999313
0.999589 0.997095 0.999292
0.999504 0.997325 0.999266
0.999774 0.998554 0.996422
0.999514 0.99763 0.999158
0.999704 0.998929 0.996177
0.999492 0.997911 0.999061
1.00082 0.999903 0.993042
1.00094 1.00001 0.992732
1.00299 0.999842 0.989144
1.00325 0.9998 0.988684
1.00116 0.999996 0.99231
0.999803 1 0.998028
1.0012 0.999973 0.992261
1.00341 0.999763 0.988422
1.00309 0.999829 0.988974
1.00431 0.999451 0.98709
1.00291 0.999897 0.989236
1.00404 0.999479 0.987582
1.00345 0.999748 0.988372
1.00447 0.999386 0.986836
1.00415 0.999466 0.987388
1.00477 0.998981 0.986708
1.00394 0.999579 0.987652
1.00457 0.998999 0.987066
1.00114 0.999986 0.99235
1.00088 0.999943 0.993484
1.00313 0.9998 0.988637
1.00288 0.999787 0.989975
0.999437 0.99825 0.998923
0.999627 1.00013 0.995814
1.00038 1.00192 0.992453
1.0025 1.00019 0.98998
1.00389 0.999379 0.987792
1.00292 1.00064 0.98883
1.0014 1.00199 0.989797
1.00274 1.00113 0.988335
0.999629 0.999406 0.995838
1.0001 1.00087 0.993506
1.00337 0.999754 0.988379
1.00291 0.999801 0.989616
1.00421 0.999555 0.987379
1.00396 0.999344 0.987939
0.999619 0.999752 0.995482
1.00013 1.0018 0.992561
1.00074 1.00237 0.990723
1.00353 0.999996 0.988249
1.00447 0.998887 0.987368
1.00205 1.00216 0.988802
1.0035 1.00028 0.987772
1.00314 1.00074 0.98798
1.00013 1.00135 0.993002
1.00028 1.00194 0.992133
1.0001 1.00037 0.994029
1.00442 0.99948 0.987139
1.00397 0.999498 0.987807
1.00473 0.999188 0.986717
1.00452 0.998834 0.987327
1.00414 0.999415 0.987346
1.00483 0.998419 0.987232
1.00012 1.00164 0.992727
1.00389 0.99973 0.987529
1.00051 1.00224 0.991437
1.00103 1.00291 0.989567
1.00242 1.00212 0.98817
1.00342 1.00022 0.988271
1.00014 0.999982 0.994357
1.00037 1.00202 0.99192
1.00026 1.00154 0.992539
1.00027 1.00254 0.991633
1.00267 1.00013 0.989449
0.999689 0.998434 0.996703
0.999612 0.999223 0.996011
0.999995 1.00074 0.993865
1.00148 1.00099 0.990802
1.0031 1.00056 0.988246
1.00009 1.00176 0.99264
1.00069 1.00262 0.990747
1.00167 1.00151 0.990096
1.00124 1.00225 0.989885
0.999778 0.998127 0.996868
1.00009 1.00125 0.993183
0.999996 1.0001 0.994496
1.00016 1.00186 0.992475
1.00369 0.999957 0.987737
1.00227 1.00115 0.989215
1.00364 1.00041 0.987368
1.00043 1.00255 0.991328
1.00201 1.00149 0.989519
1.00077 1.00348 0.989778
1.00144 1.00199 0.989788
0.999859 0.997878 0.996978
1.00004 0.999646 0.994868
1.00033 1.00218 0.991913
1.00015 1.00122 0.993113
1.0001 1.00276 0.991721
1.00425 0.999602 0.987009
1.00272 1.00108 0.988429
1.00392 1.00023 0.987025
1.00042 1.00373 0.990253
1.00217 1.00134 0.989215
1.00093 1.00348 0.988909
1.00013 0.999194 0.995166
1.0002 1.00002 0.994222
1.0002 0.998963 0.995277
1.00016 0.999079 0.995232
0.999964 0.997464 0.997557
0.999912 0.997653 0.997283
0.99981 0.996684 0.998462
0.999685 0.99684 0.999322
0.999602 0.997044 0.999303
0.999842 0.998291 0.996562
0.999579 0.997376 0.999201
0.999778 0.998575 0.996406
0.999521 0.997669 0.999138
0.999699 0.998976 0.996154
0.999498 0.997956 0.99903
1.00291 0.999908 0.989233
1.00308 0.999838 0.988973
1.00403 0.999486 0.987585
1.00432 0.999455 0.987087
1.00341 0.999764 0.988423
1.00119 0.999976 0.99226
1.00345 0.999745 0.988369
1.00448 0.999389 0.986836
1.00414 0.999481 0.987388
1.00479 0.998939 0.986687
1.00395 0.999574 0.987644
1.00456 0.999001 0.987072
1.00451 0.999359 0.986796
1.00493 0.998864 0.986467
1.00466 0.998991 0.986879
1.00503 0.998506 0.986757
1.00448 0.999108 0.9871
1.00485 0.998472 0.987092
1.00334 0.999739 0.988307
1.00293 0.999783 0.989613
1.00421 0.999536 0.987315
1.00397 0.999406 0.988081
0.999617 0.999789 0.99548
1.00015 1.00182 0.99256
1.00075 1.00232 0.990845
1.00355 1.00005 0.988251
1.00447 0.998808 0.987324
1.00349 1.00028 0.987774
1.00198 1.00217 0.988676
1.00307 1.0007 0.988007
1.00014 1.00129 0.993009
1.00028 1.00191 0.992145
1.00009 1.00038 0.994017
1.00443 0.999456 0.987008
1.00399 0.999473 0.987808
1.00472 0.999135 0.986687
1.00454 0.998869 0.987338
1.00014 1.0016 0.992735
1.00055 1.00224 0.991415
1.00099 1.00291 0.989722
1.00413 0.999498 0.987412
1.00482 0.998347 0.987223
1.00233 1.00219 0.988089
1.00391 0.999726 0.987523
1.00338 1.0001 0.988322
1.00038 1.00203 0.991934
1.00028 1.00256 0.991576
1.00013 0.999997 0.994351
1.00026 1.00147 0.992611
1.00489 0.999013 0.986461
1.00451 0.999132 0.987149
1.00496 0.99872 0.986665
1.00485 0.99826 0.987216
1.00458 0.998794 0.987134
1.00497 0.998099 0.987208
1.00044 1.00204 0.991777
1.00404 0.998894 0.98798
1.00049 1.00287 0.990637
1.00137 1.00339 0.988675
1.00259 1.00204 0.987753
1.00363 0.99993 0.988298
1.00016 0.999778 0.99452
1.00026 1.00107 0.992988
1.00038 1.00246 0.991485
1.00022 1.00225 0.992019
1.00027 1.00274 0.991409
0.999769 0.998119 0.996876
1.0037 0.999963 0.987724
1 1.00008 0.994509
1.00007 1.00131 0.993184
1.00015 1.0019 0.992465
1.00226 1.00115 0.989229
1.00364 1.00041 0.987368
1.00041 1.00255 0.991342
1.00079 1.00351 0.989733
1.00204 1.00151 0.989566
1.00142 1.00189 0.990049
0.999853 0.997871 0.996983
1.00005 0.999636 0.994876
1.00031 1.00217 0.991915
1.00015 1.00124 0.993116
1.00009 1.00283 0.991632
1.00426 0.999618 0.986989
1.00272 1.00107 0.988439
1.00391 1.00025 0.987011
1.00037 1.00373 0.990265
1.00218 1.00137 0.989263
1.00107 1.00346 0.989
1.00009 0.999378 0.995059
1.00017 1.00065 0.99366
1.00027 1.00329 0.990952
1.00007 1.00228 0.992248
1.0001 1.00346 0.991083
1.00458 0.999149 0.986823
1.003 1.00087 0.988098
1.00383 0.999655 0.987619
1.00033 1.00475 0.989204
1.00192 1.00247 0.988564
1.00013 0.999206 0.995164
1.00018 1.00012 0.994068
1.0002 1.00003 0.994176
1.00016 1.00073 0.993726
1.00023 0.999998 0.994205
1.00023 0.998908 0.995271
1.0002 0.998968 0.995274
1.00002 0.997301 0.9976
1.00016 0.999094 0.995227
0.999972 0.997454 0.997563
0.999901 0.996459 0.998506
0.999902 0.99764 0.997505
0.999787 0.996642 0.998905
0.999698 0.996797 0.99933
0.999903 0.998073 0.996667
0.999846 0.998303 0.996554
0.99966 0.997141 0.999232
0.999577 0.99742 0.999189
0.999781 0.998597 0.996391
0.999527 0.997702 0.999117
1.00396 0.999569 0.987636
1.00414 0.999489 0.987387
1.00456 0.999 0.987077
1.00482 0.998896 0.986667
1.00448 0.99939 0.986836
1.00345 0.999743 0.988367
1.00451 0.999358 0.986796
1.00494 0.998874 0.986442
1.00467 0.999003 0.986874
1.00503 0.998444 0.98679
1.00449 0.999104 0.987093
1.00484 0.9984 0.987115
1.00496 0.998911 0.986387
1.0051 0.998516 0.986562
1.00497 0.998313 0.986945
1.00511 0.998115 0.986991
1.00482 0.998486 0.987102
1.00493 0.998027 0.987324
1.00444 0.99943 0.986877
1.004 0.999452 0.987808
1.00471 0.999078 0.986658
1.00455 0.998901 0.987348
1.00017 1.00156 0.992743
1.0006 1.00224 0.991393
1.00095 1.0029 0.989876
1.00413 0.999584 0.987478
1.00482 0.99827 0.987215
1.00393 0.999721 0.987517
1.00223 1.00226 0.988009
1.00334 0.999972 0.988373
1.00037 1.00203 0.991947
1.00029 1.00258 0.991519
1.00012 1.00001 0.994345
1.00026 1.0014 0.992684
1.00489 0.999017 0.986463
1.00453 0.999145 0.987125
1.00494 0.998672 0.986691
1.00482 0.99831 0.987237
1.00046 1.00205 0.991771
1.00049 1.00281 0.990763
1.00134 1.00348 0.988658
1.0046 0.998856 0.987139
1.005 0.998011 0.987194
1.00257 1.00211 0.987703
1.00408 0.998913 0.987971
1.00352 0.999658 0.988482
1.00041 1.00245 0.991489
1.00029 1.00275 0.991395
1.00021 1.00226 0.992015
1.00016 0.999773 0.994448
1.00027 1.00103 0.993032
1.0051 0.99851 0.986553
1.00492 0.998488 0.986888
1.00497 0.997793 0.987428
1.00477 0.998155 0.98729
1.00043 1.00248 0.991342
1.00442 0.998261 0.988182
1.00035 1.00345 0.990042
1.00167 1.00393 0.987592
1.00305 1.00169 0.987368
1.00018 0.999614 0.994505
1.00026 1.00079 0.993413
1.00021 1.00178 0.992529
1.00037 1.00257 0.991409
1.0002 1.00278 0.991582
1.00036 1.00266 0.991299
0.999846 0.997865 0.996987
1.00005 0.999624 0.994885
1.00428 0.999633 0.98697
1.00014 1.00126 0.99312
1.00029 1.00217 0.991916
1.00009 1.00291 0.991542
1.00272 1.00107 0.98845
1.00389 1.00026 0.986996
1.00033 1.00372 0.990276
1.00121 1.00343 0.98909
1.0022 1.0014 0.989312
1.00009 0.999384 0.995061
1.00017 1.00063 0.993669
1.00024 1.00326 0.990993
1.00007 1.00227 0.992248
1.00008 1.0035 0.991008
1.00458 0.999176 0.986816
1.00301 1.00087 0.988082
1.00387 0.999495 0.98775
1.0003 1.00476 0.989205
1.00193 1.00266 0.988375
1.00016 1.00032 0.994003
1.0001 1.00165 0.992728
1.00019 1.00414 0.990184
1.00004 1.00319 0.991309
1.00023 1.00372 0.990584
1.00485 0.997763 0.987633
1.00315 1.00107 0.987843
1.0041 0.998393 0.987923
1.00079 1.00476 0.988905
1.00169 1.00329 0.987466
1.00012 0.99922 0.995162
1.00019 1.00012 0.994116
1.00015 1.00087 0.993415
1.0002 1.00005 0.99413
1.00023 1 0.994205
1.00015 1.00072 0.993656
1.00008 1.00127 0.993301
1.00014 1.00068 0.993653
1.00026 0.999965 0.994193
1.00025 0.99892 0.995226
1.00023 0.998906 0.995272
1.00007 0.997209 0.997597
1.0002 0.998973 0.995272
1.00003 0.997301 0.997602
0.999966 0.996301 0.998534
0.999979 0.997444 0.997571
0.999892 0.996435 0.998507
0.999762 0.996592 0.999354
0.999958 0.997872 0.996768
0.999907 0.99808 0.996661
0.999738 0.996926 0.999258
0.99985 0.998315 0.996546
0.999651 0.99718 0.999222
0.999575 0.997459 0.999176
1.0045 0.9991 0.987085
1.00467 0.999018 0.986868
1.00482 0.998333 0.987138
1.00503 0.998382 0.986823
1.00495 0.998883 0.986417
1.00452 0.999359 0.986797
1.00496 0.998941 0.986375
1.0051 0.998542 0.986545
1.00497 0.998367 0.986891
1.00511 0.998039 0.987008
1.0048 0.998481 0.987108
1.00495 0.997919 0.987356
1.0051 0.99858 0.986488
1.00513 0.998137 0.986882
1.00511 0.997708 0.987301
1.00497 0.997709 0.987555
1.00488 0.999022 0.986464
1.00455 0.999157 0.987101
1.00493 0.998625 0.986716
1.0048 0.998363 0.987258
1.00049 1.00206 0.991764
1.0005 1.00275 0.990889
1.0013 1.00357 0.988642
1.00461 0.99892 0.987143
1.00503 0.997935 0.98718
1.00412 0.998932 0.987961
1.00255 1.00218 0.987652
1.00341 0.99941 0.988664
1.00043 1.00245 0.991494
1.00031 1.00275 0.991381
1.00019 1.00227 0.99201
1.00016 0.99977 0.994376
1.00027 1.00099 0.993077
1.00508 0.998518 0.98657
1.00492 0.99849 0.986927
1.00499 0.99788 0.987375
1.00048 1.00248 0.991328
1.00048 1.0034 0.99018
1.00162 1.00403 0.987564
1.00484 0.998168 0.987308
1.00303 1.0015 0.987545
1.00425 0.998319 0.988263
1.00018 0.999592 0.994526
1.00039 1.00257 0.991404
1.00034 1.00266 0.991332
1.0002 1.00282 0.991541
1.00021 1.00176 0.992558
1.00026 1.00078 0.993351
1.00512 0.998257 0.986734
1.0051 0.997717 0.987359
1.00505 0.997563 0.987419
1.00506 0.997516 0.987518
1.00041 1.0028 0.991091
1.00403 0.999403 0.987607
1.00065 1.00452 0.98866
1.00206 1.00406 0.986916
1.00018 0.999447 0.99467
1.00026 1.00061 0.993614
1.00021 1.00153 0.992811
1.00016 1.00242 0.991962
1.00043 1.00272 0.99121
1.00035 1.00271 0.991287
1.00008 0.999389 0.995063
1.00018 1.00061 0.993679
1.00457 0.999205 0.986809
1.00007 1.00227 0.992248
1.00021 1.00323 0.991034
1.00006 1.00355 0.990933
1.00303 1.00087 0.988066
1.00391 0.999332 0.987882
1.00026 1.00476 0.989206
1.00193 1.0029 0.988186
1.00017 1.00029 0.994008
1.00011 1.00163 0.99276
1.00015 1.00418 0.990257
1.00002 1.00323 0.991312
1.00016 1.00374 0.990613
1.00484 0.997864 0.987682
1.00321 1.00093 0.987825
1.00398 0.998191 0.988565
1.00066 1.00469 0.988895
1.00187 1.00361 0.987125
1.00014 1.00108 0.993231
1.00004 1.00255 0.991881
1.00024 1.00436 0.98991
1.00004 1.00389 0.990388
1.00517 0.996572 0.988379
1.00501 0.996851 0.988364
1.00336 1.0011 0.987128
1.0009 1.00464 0.987714
1.00019 1.00011 0.994164
1.00016 1.00089 0.99345
1.00008 1.00153 0.993012
1.00023 0.999999 0.994206
1.00014 1.00071 0.993585
1.00027 0.999953 0.994194
1.00007 1.00129 0.993245
1.00014 1.00066 0.993673
1.00003 1.0017 0.992914
1.00009 1.00115 0.993288
1.00015 1.00063 0.993664
1.00028 0.999967 0.994152
1.00025 0.998976 0.995165
1.00025 0.998921 0.995226
1.0001 0.997186 0.997563
1.00023 0.998902 0.995272
1.00007 0.997225 0.997592
1.00001 0.996223 0.998521
1.00003 0.997303 0.997604
0.999959 0.996278 0.998537
0.999884 0.996414 0.998505
1.00001 0.99767 0.996878
0.999962 0.997877 0.996763
0.999811 0.996721 0.999285
0.999912 0.998087 0.996656
0.999729 0.996962 0.99925
0.999643 0.997221 0.999213
1.00478 0.998475 0.987113
1.00497 0.998419 0.986837
1.00498 0.99781 0.987388
1.00512 0.997966 0.987026
1.00511 0.998566 0.986527
1.00495 0.998972 0.986363
1.0051 0.99858 0.986505
1.00512 0.998148 0.986872
1.00511 0.99773 0.987282
1.00501 0.997669 0.987544
1.00513 0.998265 0.986755
1.00513 0.997617 0.987427
1.00514 0.99727 0.987678
1.00507 0.998525 0.986587
1.00492 0.99849 0.986967
1.005 0.997959 0.987322
1.00052 1.00248 0.991314
1.0006 1.00334 0.990317
1.00156 1.00412 0.987536
1.00489 0.998175 0.987327
1.00405 0.99837 0.988344
1.003 1.00129 0.987722
1.00041 1.00257 0.9914
1.00031 1.00266 0.991366
1.00019 1.00285 0.991499
1.00017 0.999568 0.994548
1.00021 1.00175 0.992587
1.00026 1.00077 0.993288
1.00513 0.998289 0.986728
1.00509 0.99771 0.987377
1.00505 0.997608 0.987424
1.00045 1.00281 0.991054
1.00057 1.00443 0.988948
1.00209 1.004 0.98691
1.00498 0.997538 0.987692
1.00402 0.999376 0.987551
1.00018 0.999423 0.994762
1.00025 1.00061 0.993614
1.00037 1.00265 0.991224
1.00036 1.00261 0.991419
1.00016 1.00241 0.991924
1.0002 1.00155 0.992769
1.00514 0.997764 0.987231
1.00513 0.997006 0.987921
1.00511 0.997047 0.987744
1.00486 0.997213 0.988157
1.00019 1.00354 0.990528
1.00291 1.00262 0.986573
1.0011 1.00494 0.988003
1.0002 0.999266 0.994977
1.00018 1.00027 0.994022
1.00022 1.00054 0.99359
1.00018 1.00142 0.992904
1.00011 1.0022 0.992262
1.00002 1.00313 0.991397
1.00059 1.00173 0.991686
1.00024 1.00284 0.992005
1.00018 1.00028 0.994012
1.00012 1.00161 0.992792
1.00482 0.997969 0.987731
1.00002 1.00327 0.991316
1.00011 1.00423 0.99033
1.00008 1.00377 0.990642
1.00326 1.00076 0.987807
1.00389 0.997976 0.989201
1.00054 1.00462 0.988885
1.00204 1.0039 0.986784
1.00014 1.00111 0.993188
1.00004 1.0026 0.991884
1.00021 1.00436 0.989945
1.00011 1.00391 0.990452
1.00516 0.996562 0.988402
1.00482 0.997006 0.988356
1.00342 1.00102 0.987373
1.00111 1.00467 0.987544
1.00007 1.00184 0.992689
1.00517 0.996179 0.988596
1.00002 1.00366 0.991128
1.00045 1.00447 0.989358
1.00516 0.996035 0.988879
1.00468 0.997921 0.987735
1.00217 1.00382 0.986911
1.00016 1.0009 0.993486
1.00007 1.00153 0.993006
1.00001 1.00205 0.992608
1.00027 0.999939 0.994195
1.00015 1.00065 0.993693
1.00006 1.0013 0.993189
1.00028 0.999958 0.99415
1.00016 1.00063 0.993666
1.00003 1.00172 0.992864
1.00009 1.00115 0.993341
1.00004 1.00196 0.992609
1.00007 1.00153 0.992929
1.00011 1.00108 0.993404
1.00022 1.00058 0.993643
1.00029 1.00002 0.994086
1.00024 0.999036 0.995117
1.00025 0.998979 0.995166
1.00012 0.997198 0.997519
1.00025 0.998926 0.995225
1.0001 0.99721 0.997557
1.00005 0.996191 0.998497
1.00008 0.997242 0.997587
1.00001 0.996193 0.998526
0.999953 0.996255 0.998537
1.00021 0.999115 0.995106
1.00006 0.997481 0.996978
1.00001 0.997676 0.996872
0.999876 0.996525 0.999313
0.999966 0.997886 0.996758
0.999802 0.996756 0.999276
0.99972 0.996998 0.999242
1.00504 0.997628 0.987533
1.00511 0.997751 0.987263
1.00512 0.998154 0.986863
1.0051 0.998581 0.986523
1.00513 0.998247 0.986791
1.00513 0.997618 0.987398
1.00515 0.997234 0.987666
1.00512 0.997717 0.987301
1.00516 0.997086 0.987971
1.00515 0.995846 0.988761
1.00514 0.998323 0.986721
1.00509 0.997707 0.987396
1.00507 0.997661 0.987429
1.00048 1.00282 0.991017
1.0005 1.00436 0.989235
1.00211 1.00395 0.986905
1.0049 0.997554 0.987864
1.004 0.999358 0.987495
1.00031 1.00258 0.991237
1.00038 1.00251 0.991547
1.00014 1.00244 0.991886
1.00019 0.999397 0.994854
1.00025 1.00061 0.993613
1.00019 1.00157 0.992728
1.00513 0.997704 0.987325
1.0002 0.99926 0.994975
1.00017 1.00029 0.99398
1.00513 0.997084 0.987894
1.00512 0.997131 0.987665
1.00013 1.00354 0.990714
1.00108 1.00497 0.987835
1.00285 1.00253 0.986592
1.00486 0.997193 0.988178
1.00023 1.00053 0.99372
1.00018 1.00142 0.992899
1.00071 1.00186 0.991425
1.00011 1.00228 0.992413
0.999998 1.00323 0.991306
1.00012 1.00215 0.99228
1.00514 0.996744 0.98825
1.00513 0.996838 0.988207
1.0051 0.99623 0.988507
1.00411 0.998397 0.987943
1.00039 1.00325 0.990734
1.0017 1.00485 0.987021
1.00016 1.00016 0.994065
1.00019 1.00043 0.993837
1.00009 1.00116 0.993425
1.00015 1.0014 0.992862
1.00008 1.00213 0.992473
0.999899 1.00291 0.991696
0.999778 1.00423 0.991023
1.00019 1.00166 0.992526
1.00015 1.00114 0.993145
1.00005 1.00264 0.991888
1.00515 0.99654 0.988425
1.00463 0.997193 0.98835
1.00018 1.00392 0.990516
1.00018 1.00436 0.989979
1.00348 1.00096 0.98762
1.00133 1.00475 0.987374
1.00006 1.00186 0.992669
1.00517 0.996165 0.988619
0.999989 1.00354 0.991162
1.00044 1.00442 0.989305
1.00516 0.995904 0.988787
1.00467 0.99789 0.987844
1.00208 1.00399 0.987016
1 1.00283 0.991897
1.00516 0.995526 0.989954
1.0004 1.00396 0.990439
1.00102 1.00472 0.988525
1.00511 0.996307 0.98856
1.00307 1.00146 0.987276
1.00037 1.00006 0.992266
1.00007 1.00153 0.992999
1 1.00206 0.992602
1.00008 1.00223 0.992273
1.00029 0.999954 0.994148
1.00016 1.00064 0.993668
1.00009 1.00114 0.993394
1.00004 1.00175 0.992813
1.00029 1.00002 0.994082
1.00022 1.00057 0.993626
1.00004 1.00198 0.992583
1.00012 1.00107 0.993399
1.00007 1.00155 0.992972
1.00006 1.00181 0.992715
1.00009 1.00128 0.993193
1.00018 1.00095 0.993399
1.0003 1.00058 0.993493
1.0003 1.00007 0.993948
1.00024 1.00058 0.993692
1.00028 1.00006 0.993977
1.00023 0.999066 0.995099
1.00024 0.999037 0.995118
1.00015 0.997252 0.997041
1.00025 0.998983 0.995167
1.00013 0.997225 0.997296
1.00002 0.996138 0.999357
1.0001 0.997234 0.997551
1.00005 0.996155 0.998501
1.00001 0.996164 0.998529
1.00021 0.999024 0.995199
1.00021 0.999117 0.995102
1.0001 0.99734 0.99705
1.00005 0.997486 0.997199
0.999933 0.99636 0.999336
1.00002 0.997681 0.996867
0.999868 0.99656 0.999304
0.999793 0.996794 0.999268
1.00516 0.9972 0.987654
1.00514 0.997616 0.987368
1.00512 0.998233 0.986826
1.00512 0.997711 0.987289
1.00515 0.997062 0.987935
1.00517 0.996061 0.988655
1.00512 0.996541 0.988394
1.0017 1.00019 0.988457
1.00526 0.995276 0.989844
1.00016 1.00013 0.99422
1.00512 0.997645 0.98742
1.00513 0.997148 0.987867
1.00513 0.997255 0.987587
1.00008 1.00355 0.9909
1.00106 1.00497 0.987666
1.00282 1.00243 0.98661
1.00489 0.997221 0.988198
1.00081 1.00201 0.991167
0.999955 1.00171 0.992827
0.999981 1.0033 0.991217
1.0002 0.999257 0.994973
1.00014 1.00211 0.992298
1.00023 1.00052 0.993849
1.00018 1.00142 0.992895
1.00016 1.00029 0.993938
1.00514 0.996673 0.98831
1.00016 1.00016 0.994124
1.0002 1.00043 0.993833
1.0001 1.00114 0.993329
1.00514 0.996685 0.988206
1.00505 0.996427 0.988432
1.00048 1.00288 0.990817
1.00146 1.00477 0.98703
1.00412 0.998713 0.98794
1.00016 1.00141 0.992924
1.00008 1.00211 0.99245
1.00013 1.00205 0.992221
0.999777 1.00398 0.991188
0.999933 1.00295 0.991753
1.00513 0.996123 0.988857
1.00511 0.997166 0.987978
1.00493 0.996657 0.988416
1.00253 1.00196 0.988067
1.00031 1.00337 0.990704
1.00012 1.00096 0.993341
1.0001 1.00131 0.993087
1.0001 1.00168 0.992894
1.00004 1.00203 0.992497
1.00002 1.00261 0.992078
0.999798 1.00367 0.991286
0.9997 1.00439 0.990662
1.00005 1.00189 0.992648
0.999955 1.00343 0.991196
1.00518 0.996154 0.988642
1.00517 0.995786 0.988694
1.00466 0.99782 0.987952
1.00042 1.00437 0.989253
1.00198 1.00413 0.987121
0.999977 1.00276 0.992011
1.00516 0.995427 0.989929
1.00023 1.00393 0.990477
1.00077 1.00474 0.988641
1.0051 0.996006 0.988722
1.00302 1.00156 0.987244
1.00039 1.00003 0.991006
1.00008 1.00315 0.991445
1.00487 0.995735 0.990834
1.00008 1.00425 0.990426
1.00106 1.00437 0.988299
1.00361 0.997799 0.988562
1.00154 0.995349 0.961575
0.996203 1.001 0.979534
0.999383 1.00005 0.99408
0.999103 0.997415 0.948774
0.994794 0.99832 0.945316
1 1.00207 0.992596
1.00005 1.00225 0.992326
1.00009 1.002 0.992553
1.00028 1.00001 0.994079
1.00022 1.00055 0.993608
1.00013 1.00105 0.993393
1.00007 1.00157 0.993016
1.00005 1.00199 0.992557
1.00018 1.00095 0.993365
1.00029 1.00006 0.993997
1.0003 1.00056 0.993519
1.00006 1.00182 0.992712
1.00009 1.00129 0.993194
1.00013 1.00114 0.9932
1.00008 1.00134 0.993147
1.00028 1.00087 0.993247
1.00035 1.00059 0.993371
1.00028 1.00008 0.993943
1.00031 1.00057 0.993521
1.00027 1.00084 0.99338
1.00016 1.00067 0.993655
1.00025 1.00058 0.993637
1.00027 1.00004 0.994101
1.00028 1.00007 0.993971
1.00023 0.999069 0.995102
1.00023 0.999064 0.995099
1.00014 0.997301 0.997022
1.00024 0.999037 0.995119
1.00015 0.997256 0.997039
1.00003 0.996148 0.999349
1.00014 0.997251 0.997073
1.00005 0.996142 0.998918
1.00005 0.996119 0.998504
1.00021 0.998958 0.995264
1.00021 0.999017 0.995198
1.00012 0.997241 0.997104
1.00021 0.999116 0.995098
1.00009 0.997331 0.997271
0.999978 0.996242 0.999352
1.00006 0.997505 0.996962
0.999924 0.996413 0.999326
0.99986 0.996594 0.999296
1.00514 0.99704 0.987899
1.00513 0.997708 0.987278
1.00519 0.99626 0.988549
1.00161 0.999069 0.988588
1.00512 0.996572 0.988426
1.00527 0.995601 0.989705
1.00525 0.996552 0.988793
0.998212 1.00005 0.976218
1.0031 0.996992 0.989155
1.00016 1.0001 0.994241
1.00016 1.00012 0.99422
1.00011 1.00089 0.993538
1.00011 1.00085 0.993604
1.00515 0.996614 0.98837
1.00514 0.996611 0.988205
1.00507 0.996534 0.988358
1.00057 1.00251 0.990899
1.00123 1.0047 0.987038
1.00413 0.999074 0.987938
1.00007 1.00243 0.991911
0.999788 1.00373 0.991355
0.999969 1.00299 0.991809
1.0002 1.00044 0.993829
1.00008 1.00207 0.992427
1.00016 1.00142 0.992986
1.00016 1.00015 0.994183
1.0001 1.00113 0.993233
1.00506 0.996166 0.988881
1.00012 1.00097 0.993442
1.0001 1.0013 0.993126
1.0001 1.00165 0.992835
1.00511 0.99682 0.988053
1.0049 0.996706 0.988373
1.00038 1.00322 0.990683
1.00251 1.00222 0.987979
1.00005 1.00208 0.992489
0.999966 1.0026 0.992129
0.999734 1.00442 0.990667
0.999872 1.00379 0.991169
1.00516 0.996371 0.988567
1.0051 0.99628 0.988305
1.00367 0.99956 0.988197
1.00034 1.00396 0.990128
1.00014 1.00163 0.992723
1.00002 1.00187 0.992723
0.999984 1.00269 0.991976
0.999935 1.00433 0.990325
1.00065 0.994983 0.959107
0.999944 1.00269 0.992126
1.00007 1.00388 0.990515
1.00516 0.995292 0.989904
1.0051 0.995685 0.988883
1.00296 1.00166 0.987211
1.00053 1.00477 0.988755
1.00034 0.999985 0.989728
0.999983 1.00319 0.991518
1.0049 0.995426 0.99073
1.00002 1.00421 0.990464
1.00097 1.00448 0.988284
1.00394 0.997869 0.988531
1.00162 0.995698 0.958938
0.996086 1.00074 0.975807
0.999392 0.99998 0.994381
0.997999 0.997958 0.949279
0.994704 0.998285 0.941326
0.999906 1.00305 0.991933
0.999926 0.994949 0.950036
0.994686 0.999844 0.946572
1.00407 0.995378 0.991845
0.999698 1.00474 0.990622
1.0013 1.00226 0.989567
0.998505 1.00012 0.996489
0.998682 0.998578 0.962264
0.994834 1.00076 0.975684
0.997186 0.999948 0.950642
0.994276 0.999925 0.952026
1.00001 1.00228 0.99238
1.00006 1.00203 0.992542
1 1.00156 0.99332
1.00028 1.00006 0.994046
1.0003 1.00055 0.993545
1.00017 1.00094 0.993332
1.0001 1.00129 0.993195
1.00006 1.00184 0.99271
1.00029 1.00008 0.993942
1.00013 1.00116 0.993215
1.00028 1.00088 0.993276
1.00035 1.00058 0.993429
1.00009 1.00134 0.993154
1.00025 1.00101 0.99312
1.00022 1.00075 0.993503
1.00037 1.00077 0.993224
1.00035 1.00057 0.993461
1.00032 1.00057 0.993519
1.00027 1.00082 0.993357
1.00036 1.00074 0.993244
1.00015 1.00099 0.993369
1.00028 1.00088 0.993285
0.999953 1.00174 0.992941
1.00011 1.00082 0.993603
1.00016 1.00069 0.993654
1.00024 1.00005 0.994135
1.00025 1.00059 0.993582
1.00027 1.00004 0.994067
1.00023 0.999065 0.995118
1.00028 1.00008 0.993965
1.00023 0.999064 0.995103
1.0001 0.997328 0.997475
1.00023 0.999064 0.995098
1.00013 0.997294 0.997247
1.00007 0.996174 0.998445
1.00015 0.99726 0.997038
1.00003 0.996153 0.999347
1.00007 0.996147 0.998478
1.00018 1.00007 0.994238
1.00021 0.998915 0.995306
1.00021 0.998954 0.995265
1.00013 0.997169 0.997153
1.00021 0.999012 0.995197
1.00012 0.997232 0.997105
1.00001 0.996152 0.999365
1.00008 0.997342 0.997482
0.999989 0.996282 0.9989
0.999962 0.996446 0.998421
1.00138 0.998119 0.988723
1.00512 0.996618 0.988457
1.00527 0.995883 0.989568
0.997694 0.999295 0.978254
1.00292 0.997483 0.989415
1.00526 0.995927 0.988859
1.00466 0.996722 0.989297
0.99865 0.997193 0.980842
1.00003 0.995801 0.96155
0.997566 0.997876 0.950314
0.994714 0.998442 0.944825
1.00009 1.00089 0.993498
1.00016 1.0001 0.994241
1.00017 1.00011 0.994221
1.00011 1.0009 0.993507
1.00006 1.00138 0.993131
1.00013 1.00122 0.99323
1.00013 1.00083 0.993599
1.0001 1.00086 0.993563
1.00504 0.996175 0.988906
1.00513 0.996399 0.988127
1.00478 0.996806 0.98833
1.00045 1.00306 0.990665
1.00246 1.00234 0.98789
0.999767 1.00444 0.990674
0.999939 1.00391 0.991052
0.999914 1.00259 0.992179
1.0001 1.00128 0.993164
1.00007 1.00212 0.99248
1.00013 1.00099 0.993542
1.00011 1.00162 0.992776
1.00514 0.996517 0.988486
1.00011 1.00161 0.992815
1.00004 1.00187 0.99269
1.0051 0.996438 0.988244
1.0033 0.999238 0.988517
1.00047 1.00391 0.989875
1.00003 1.00269 0.991962
0.999965 1.00444 0.990315
1.0041 1.00025 0.988398
1.00441 0.99666 0.989813
1.001 1.00166 0.98961
1.00008 1.00383 0.990727
1.00011 1.00155 0.992777
1.0001 1.00218 0.992312
1.00003 1.00305 0.991486
0.99961 0.994951 0.947924
1.00105 0.995003 0.964247
0.999888 1.00325 0.991591
0.999961 1.0042 0.990502
1.00491 0.995177 0.990628
1.0043 0.998008 0.9885
1.00089 1.00459 0.98827
1.00092 0.995345 0.95916
0.996225 1.00088 0.976521
0.999384 1.00001 0.994692
0.997781 0.997427 0.952001
0.99462 0.998246 0.937315
0.999852 1.00307 0.991938
1 0.994935 0.948105
0.994735 0.999869 0.944766
1.00428 0.995791 0.991784
0.999635 1.00466 0.990663
1.00115 1.00209 0.989737
0.998931 0.998992 0.997182
0.998925 0.998918 0.959764
0.995198 1.00105 0.9783
0.996631 0.999986 0.950522
0.994414 1.00005 0.949944
0.999648 1.00299 0.992531
0.994428 1.00007 0.949903
0.994089 1.00402 0.964223
1.00138 0.998021 0.994459
0.999424 1.00422 0.991964
0.997808 1.00164 0.997535
0.995748 0.999922 0.983134
0.99605 1.00078 0.95933
0.995912 0.999966 0.953
0.994164 0.999988 0.959694
1.00003 1.00205 0.992532
0.999989 1.0016 0.993217
0.999709 1.00071 0.994283
1.00029 1.00009 0.993941
1.00034 1.00057 0.993487
1.00028 1.00088 0.993304
1.00012 1.00118 0.99323
1.0001 1.00134 0.993161
1.00035 1.00057 0.993461
1.00024 1.00106 0.993146
1.00037 1.00076 0.993217
1.00017 1.00072 0.993626
1.00019 0.999978 0.994445
1.0004 1.00055 0.993331
1.0004 1.00071 0.993209
1.00033 1.00056 0.993517
1.00028 1.0008 0.993335
1.00036 1.00074 0.993247
1.00015 1.00098 0.993366
1.00028 1.00086 0.993285
1.00005 1.00124 0.993264
1.00035 1.00075 0.993238
1.00016 1.00103 0.993314
1.00002 1.00236 0.992215
0.999719 1.00406 0.990999
0.999853 1.00241 0.992333
0.999946 1.00181 0.992917
1.00007 1.00105 0.993457
1.00011 1.00084 0.993597
1.0002 1.00011 0.994148
1.00016 1.00071 0.993653
1.00024 1.00006 0.994134
1.00021 0.99909 0.995134
1.00027 1.00005 0.994033
1.00023 0.99906 0.99512
1.00007 0.997363 0.997488
1.00023 0.999059 0.995104
1.00011 0.997321 0.997254
1.00005 0.99618 0.998451
1.00014 0.997283 0.997022
1.00002 0.996175 0.999343
1.00003 0.996159 0.999345
1.0002 1.0001 0.994337
1.00021 0.998915 0.995305
1.00017 1.00008 0.994235
1.00014 0.997138 0.997184
1.00021 0.998918 0.995306
1.00021 0.99895 0.995266
1.00013 0.997172 0.997151
1.00002 0.996092 0.999376
1.0001 0.997229 0.997537
1.00002 0.996166 0.998924
1.00002 0.996287 0.998462
0.999321 0.995612 0.947976
0.994868 0.999336 0.948225
0.998121 0.998273 0.979557
1.00274 0.99818 0.98967
1.00527 0.995418 0.988922
0.998369 0.997141 0.983548
1.00465 0.997156 0.989297
1.00025 0.995416 0.962906
0.99816 0.997651 0.948594
0.994653 0.998234 0.940721
0.999684 0.997093 0.987517
0.997742 0.998329 0.964847
0.99699 0.999908 0.950266
0.994485 1.00003 0.949342
1.00013 1.00138 0.993016
1.00009 1.00089 0.993523
1.00016 1.00009 0.99424
1.00011 1.00091 0.993475
1.00006 1.00134 0.993183
1.00012 1.00134 0.993093
1.00014 1.0012 0.993198
1.00015 1.00098 0.993361
1.00013 1.00083 0.993553
1.00011 1.00087 0.993522
1.00507 0.99664 0.988407
1.00504 0.996639 0.988187
1.00293 0.998909 0.988838
1.00059 1.00391 0.989622
0.999998 1.00452 0.990306
1.00008 1.0027 0.991948
1.00006 1.00189 0.992655
1.00009 1.00159 0.992906
1.00408 0.999376 0.988438
1.00013 1.00157 0.992772
1.00011 1.00215 0.992294
1.00434 0.996604 0.989607
1.00093 1.00222 0.989761
1.00019 1.00392 0.990402
1.00007 1.00303 0.991495
1.00114 1.00267 0.991677
1.0011 0.999522 0.993191
1 1.00261 0.991786
1.00013 1.00173 0.992687
1.00019 1.00167 0.992529
1.00024 1.00223 0.991988
0.994354 0.999569 0.956009
0.999722 0.995376 0.949809
1.00055 0.995038 0.958517
0.99979 1.00308 0.991943
0.999583 1.0046 0.990705
1.00457 0.996125 0.991717
1.00096 1.00197 0.989902
0.999976 0.995199 0.950063
0.998441 0.998431 0.961111
0.994955 1.00065 0.975688
0.999105 0.99777 0.997799
0.997146 1.00001 0.948228
0.994797 0.999881 0.944916
0.994626 1.00004 0.949722
0.999541 1.00302 0.992551
0.994464 1.00009 0.951667
0.994079 1.00409 0.963876
1.00162 0.998015 0.994351
0.999147 1.00418 0.991996
0.997335 0.999468 1.00029
0.995597 1.00029 0.979141
0.996235 1.00106 0.963121
0.996932 0.999476 0.951497
0.994358 1.0001 0.959563
0.998947 1.00241 0.994726
0.993826 1.00316 0.97127
0.993737 1.00587 0.974924
0.99725 1.00152 0.997832
0.99623 1.00056 0.988673
0.995606 1.00002 0.963273
0.995119 0.999871 0.953833
0.99506 0.999938 0.958076
0.999965 1.00163 0.993115
0.999793 1.00072 0.994325
0.999292 0.999899 0.995639
1.00035 1.00057 0.993461
1.00037 1.00075 0.993211
1.00023 1.00111 0.993172
1.00012 1.0007 0.993747
1.0004 1.00071 0.993211
1.00039 1.0006 0.993309
1.0002 0.99979 0.99455
0.999791 0.999503 0.995473
1.00037 0.999806 0.994149
1.00039 1.00059 0.993264
1.00036 1.00075 0.993251
1.00015 1.00097 0.993364
1.00029 1.00084 0.993284
1.00034 1.00076 0.993238
1.00005 1.00129 0.993251
1.00018 1.00102 0.993309
1.00006 1.00141 0.99316
1.00023 1.00078 0.99344
0.999927 1.00238 0.992402
1.00003 1.00233 0.99228
0.999725 1.00372 0.991342
1.00014 1.00444 0.98997
0.999926 1.00313 0.991787
0.999686 1.00393 0.99121
0.999866 1.00243 0.992448
1.00001 1.00149 0.993007
0.999938 1.00188 0.992894
1.00007 1.00107 0.993446
1.00017 1.00021 0.994108
1.00011 1.00086 0.99359
1.0002 1.00011 0.994145
1.00017 0.999166 0.995132
1.00024 1.00006 0.994132
1.00021 0.999085 0.995135
1.00003 0.997422 0.997502
1.00023 0.999054 0.995121
1.00008 0.997359 0.997269
1.00001 0.996243 0.998463
1.00012 0.997306 0.99703
1.00003 0.996194 0.998896
1.00002 0.996182 0.999343
1.0002 1.00017 0.994129
1.0002 0.998969 0.995265
1.00019 1.0001 0.994222
1.00013 0.997159 0.99718
1.00021 0.998919 0.995306
1.00017 1.0001 0.994233
1.00003 0.996073 0.999381
1.00014 0.997138 0.997183
1.00021 0.998918 0.995306
1.00013 0.997176 0.997149
1.00002 0.996101 0.999373
1.00001 0.996163 0.99936
0.994447 0.999445 0.954465
0.999523 0.995363 0.948919
0.994035 1.00458 0.963188
0.994832 0.999643 0.94677
0.999156 0.997005 0.97926
1.00462 0.997474 0.989266
1.00019 0.995374 0.96418
0.998743 0.998319 0.951148
0.994598 0.998211 0.936598
0.999241 0.997806 0.985761
0.998629 0.997934 0.959447
0.996787 0.999825 0.949878
0.994426 0.999957 0.947375
0.995935 0.999311 0.984965
0.997605 1.00019 0.959484
0.995563 0.999821 0.949945
0.994383 0.999972 0.956142
1.00016 1.00164 0.992757
1.00012 1.00138 0.993058
1.0001 1.0009 0.993549
1.00007 1.00131 0.993235
1.00016 1.00153 0.992779
1.00013 1.00133 0.993125
1.00014 1.0012 0.993167
1.00019 1.00103 0.993314
1.00016 1.00097 0.993423
1.00014 1.00083 0.993507
1.00401 0.998567 0.988487
1.00431 0.996529 0.989402
1.00089 1.00272 0.98991
1.00031 1.00399 0.99008
1.0001 1.00303 0.991503
1.00011 1.00211 0.992277
1.00015 1.00159 0.992767
1.00013 1.00173 0.992684
1.00128 1.00135 0.991944
1.0002 1.00171 0.992567
1.00025 1.00219 0.991973
1.00123 0.999578 0.992802
1.00025 1.00246 0.991747
0.998785 1.0009 0.996206
0.99935 0.999693 0.996819
1.00034 1.00124 0.992453
1.00025 1.00165 0.992522
1.00029 1.00186 0.99224
0.993582 1.00241 0.975692
0.99437 1.0001 0.955924
0.999601 0.995862 0.947843
0.999442 1.00308 0.992568
0.998923 1.00421 0.992026
1.00169 0.998043 0.994272
0.994476 1.00004 0.953725
0.997273 1.00084 0.959308
0.995155 0.999887 0.981129
0.997245 0.998123 1.00321
0.99572 0.999947 0.952788
0.994048 1.00419 0.963551
0.994315 1.00006 0.959887
0.99884 1.00257 0.994581
0.99364 1.00283 0.973514
0.993674 1.00596 0.975022
0.99727 1.00213 0.998133
0.995724 1.00044 0.988797
0.996073 1.00012 0.959267
0.994751 0.999858 0.960044
0.994948 0.99958 0.95465
0.997096 1.00223 0.998023
0.994438 1.00537 0.986236
0.993708 1.00638 0.97653
0.9945 0.999943 0.956014
0.995007 1.00167 0.997083
0.995838 0.999011 0.965243
0.994662 0.999813 0.955701
0.999885 1.00072 0.994364
0.999494 1.00005 0.995311
0.999132 0.999306 0.996876
1.0004 1.00071 0.993213
1.00037 1.00066 0.993288
1.00023 0.999536 0.994656
1.0004 1.00063 0.993255
1.00038 0.99974 0.994148
1.00002 0.9994 0.995194
0.999561 0.999125 0.996284
1.00038 1.00026 0.993682
1.00034 1.00077 0.993237
1.00003 1.00133 0.993238
1.00019 1.001 0.993305
1.00023 1.00079 0.993421
1.00008 1.00132 0.993221
0.999613 1.00178 0.993536
0.999817 1.0025 0.992445
0.999878 1.00395 0.990835
1.00004 1.0023 0.992346
0.999872 1.00366 0.991301
1.00004 1.00483 0.989463
1.00013 1.00469 0.989634
0.999961 1.00357 0.991194
1.00008 1.00444 0.990006
1.00002 1.00214 0.992495
0.999925 1.00316 0.991689
0.999653 1.0038 0.99142
0.999879 1.00245 0.992563
1.00002 1.00145 0.9931
1.00013 1.00044 0.993938
1.00007 1.00108 0.993436
1.00016 1.00023 0.994103
1.00012 0.99928 0.995108
1.0002 1.00012 0.994142
1.00017 0.999154 0.995134
0.999965 0.997531 0.9975
1.00021 0.999077 0.995136
1.00004 0.997427 0.997283
0.999952 0.996334 0.998472
1.00009 0.997346 0.997047
0.999989 0.996253 0.998902
0.999996 0.996221 0.999345
1.00023 1.00031 0.993802
1.00019 0.999092 0.995015
1.00021 1.00018 0.994127
1.00011 0.997239 0.997138
1.0002 0.99898 0.995182
1.00018 1.00011 0.994108
1.00002 0.996101 0.999378
1.00013 0.997155 0.997181
1.00021 0.998923 0.995307
1.00003 0.996074 0.99938
1.00014 0.997139 0.997182
1.00002 0.996111 0.99937
0.993492 1.00302 0.97388
0.994464 0.999161 0.954221
0.999442 0.995249 0.949571
1.00025 1.00099 0.9932
0.993159 1.00604 0.976435
0.994072 1.0045 0.962892
0.994824 0.999734 0.947172
0.999142 0.998671 0.984056
0.998183 0.998841 0.964826
0.99705 0.999878 0.947605
0.994429 0.999787 0.947186
0.995858 0.999735 0.980517
0.996449 1.00005 0.963604
0.997017 0.999872 0.951589
0.994497 0.999965 0.955165
0.995593 1.00012 0.97661
0.995387 1.00005 0.96091
0.994914 0.999689 0.954896
0.994744 1.00002 0.958248
1.00019 1.00171 0.992573
1.00015 1.00164 0.992743
1.00012 1.00138 0.993099
1.00019 1.00146 0.99283
1.00015 1.00153 0.992855
1.00012 1.00131 0.993157
1.0002 1.00103 0.993324
1.00017 1.00096 0.993485
1.00139 0.999976 0.992198
1.00137 0.99971 0.992409
1.00013 1.00173 0.992681
1.00049 1.00243 0.991706
1.00027 1.00212 0.991957
1.00018 1.00177 0.992604
1.00023 1.00169 0.99255
0.998956 1.00044 0.996563
1.00024 1.00189 0.992298
1.00048 1.00122 0.992503
0.999476 0.998848 0.99679
1.00026 1.00159 0.992679
0.997288 0.999548 0.998983
0.998654 1.00049 0.997464
1.00034 1.00103 0.992697
1.00027 1.00144 0.992722
0.995165 1.00424 0.988505
0.993572 1.0029 0.975872
0.994387 1.00058 0.95585
0.998708 1.00268 0.994446
0.997346 1.00204 0.998389
0.993454 1.00252 0.975733
0.995698 1.00002 0.964075
0.995495 0.999389 0.984846
0.995112 0.999758 0.954267
0.993706 1.00605 0.975129
0.99455 0.999814 0.962011
0.997432 1.00227 0.997399
0.994225 1.00538 0.986503
0.993979 1.00635 0.978863
0.995318 1.00283 0.999785
0.994666 0.99994 0.954995
0.995144 0.999051 0.962932
0.994844 0.999698 0.955346
0.996852 1.00174 0.999444
0.996516 1.00592 0.985933
0.993228 1.0059 0.976518
0.994488 1.0001 0.9494
0.995117 0.999678 0.954282
0.995784 0.999021 0.9947
0.995716 1.00016 0.958436
0.99966 1.00024 0.994994
0.999122 0.999647 0.996711
0.997948 0.998546 1.00039
1.0004 1.00067 0.993246
1.00038 0.999696 0.994147
1.00021 0.99944 0.994915
1.00033 1.00038 0.993655
0.999664 0.998722 0.996317
0.999213 1.00184 0.994213
1.00023 1.00081 0.993401
1.00011 1.00123 0.993283
0.999791 1.00184 0.993318
0.999282 1.00407 0.991705
0.999701 1.00261 0.992485
0.999732 1.00381 0.991103
1.00023 1.00504 0.989201
1.00094 1.00478 0.988119
1.00002 1.00359 0.991259
1.00017 1.00489 0.989284
1.00038 1.00437 0.98986
0.999823 1.00416 0.990598
1.00016 1.00454 0.989782
1 1.00263 0.992031
1 1.00354 0.991176
1.00002 1.00445 0.990043
1.00011 1.00087 0.993561
1.00001 1.00211 0.992472
0.999922 1.0032 0.991592
1.00002 1.00142 0.993193
1.00013 1.00047 0.993927
1.00006 0.999461 0.995032
1.00016 1.00024 0.994098
1.00012 0.999271 0.995108
0.999914 0.997692 0.997036
1.00018 0.999143 0.995136
0.999987 0.997536 0.997061
0.999838 0.996452 0.999354
1.00005 0.997417 0.997062
0.999938 0.996337 0.998909
0.999957 0.996282 0.999348
1.00027 1.00034 0.99371
1.00018 0.999252 0.994851
1.00024 1.00031 0.993868
1.00008 0.997371 0.997063
1.00019 0.999103 0.994996
1.00021 1.00018 0.994124
0.99999 0.99618 0.999365
1.00011 0.997232 0.997141
1.0002 0.99899 0.995098
1.00002 0.996094 0.999379
1.00013 0.997153 0.997182
1.00003 0.996075 0.999379
0.994811 1.00479 0.985552
0.993464 1.00353 0.973784
0.994489 0.999151 0.954206
1.00023 1.00101 0.993217
1.00024 1.00104 0.993117
1.00016 1.00145 0.992935
0.993714 1.00655 0.976497
0.993196 1.00566 0.976542
0.99411 1.00453 0.962575
0.995225 1.00049 0.983624
0.996616 1.00012 0.959204
0.995505 0.999916 0.95253
0.994505 0.999832 0.954714
0.995461 1.00014 0.979897
0.996405 1.00001 0.960918
0.995256 0.999775 0.955663
0.994628 0.999982 0.960167
0.995279 1.00002 0.976731
0.995561 1.00004 0.962915
0.994561 0.999825 0.956307
0.994166 1.00013 0.959408
1.00024 1.00161 0.992603
1.00019 1.00173 0.992556
1.00014 1.00165 0.99273
1.00019 1.00147 0.992825
1.00014 1.00153 0.99293
1.00021 1.00104 0.993333
0.999187 0.999955 0.996914
0.999419 0.998112 0.996764
1.00022 1.00176 0.992578
1.00064 1.00104 0.992553
1.00022 1.00194 0.992357
1.00029 1.00152 0.992596
1.00024 1.00145 0.992782
0.997327 1.00009 0.999187
1.00032 1.00098 0.992968
0.998412 0.999944 0.998276
1.00021 1.00117 0.993153
0.996134 0.998735 0.999903
0.998247 1.00065 0.998894
1.0001 1.00084 0.993609
0.998191 1.00507 0.987934
0.99545 1.00436 0.988606
0.99356 1.00342 0.976047
0.997765 1.0024 0.996753
0.995958 1.00177 0.998109
0.993997 1.00538 0.986769
0.995543 0.999268 0.969074
0.994693 0.999762 0.955263
0.994176 1.00635 0.981197
0.994711 0.999763 0.95462
0.996783 1.00178 0.999526
0.996887 1.00597 0.986263
0.993264 1.00554 0.976619
0.995179 0.999948 0.989918
0.994448 1.00003 0.947477
0.995475 0.999768 0.9547
0.995362 1.00014 0.963657
0.995958 1.00102 1.002
0.99496 1.00475 0.985446
0.993952 1.00481 0.963333
0.99474 0.998423 0.944969
0.995449 0.999929 0.949846
0.99531 1.00006 0.963043
0.995553 0.998904 0.98626
0.999102 1.00003 0.996562
0.998003 0.998263 1.00026
0.998314 1.00011 0.998372
1.00029 1.00048 0.993628
0.99978 0.998275 0.99635
0.999027 1.00192 0.994445
0.998846 1.00388 0.992908
0.999976 1.00193 0.993102
0.999674 1.00407 0.991377
1.00032 1.00504 0.989055
0.999571 1.0037 0.991373
1.00025 1.00504 0.989142
1.00132 1.00505 0.987442
1.00188 1.00454 0.986794
1.00066 1.00412 0.989077
1.00092 1.00481 0.988076
1.00029 1.00494 0.989104
1.00033 1.00381 0.990392
1.00026 1.00421 0.990053
0.999919 1.0034 0.991261
0.999891 1.0041 0.990713
1.00018 1.00439 0.98993
1.00009 1.00147 0.99299
1.00002 1.0026 0.992038
1.00004 1.00353 0.991157
1.00001 0.999746 0.994837
1.0001 1.00089 0.993551
0.999998 1.00208 0.992449
1.00012 1.00049 0.993915
1.00006 0.999459 0.995029
0.999831 0.997902 0.996978
1.00013 0.999262 0.995109
0.999918 0.997695 0.997034
0.999779 0.996614 0.999342
0.999993 0.997532 0.99706
0.999865 0.996472 0.998909
0.999904 0.996373 0.999349
1.00028 1.00039 0.993722
1.00019 0.999366 0.994872
1.00026 1.00035 0.993745
1.00004 0.997535 0.996974
1.00019 0.999259 0.994914
1.00025 1.00031 0.993934
0.999951 0.996301 0.999346
1.00008 0.997362 0.997067
1.00019 0.999116 0.994977
0.999994 0.996163 0.999369
1.00011 0.997226 0.997143
1.00002 0.996086 0.999381
0.996409 1.00593 0.985971
0.994708 1.0049 0.985817
0.993441 1.0038 0.973741
1.00022 1.00114 0.993041
1.00012 1.00176 0.992704
1.00021 1.00104 0.993234
1.00024 1.00105 0.99311
1.00017 1.00144 0.992895
1.00015 1.00152 0.992871
1.00014 1.00166 0.992737
0.993707 1.00592 0.974788
0.993806 1.00657 0.978842
0.993232 1.00524 0.976649
0.994417 0.99994 0.962086
0.994819 1.00006 0.977236
0.996027 1.00001 0.961599
0.994689 0.999881 0.955326
0.995729 0.999898 0.975789
0.995366 1.00009 0.959728
0.994687 0.999713 0.956512
0.994278 1.00017 0.959365
0.99568 0.997829 0.980842
0.995107 1.00012 0.959492
0.995306 0.999859 0.954104
0.99428 0.999878 0.951602
1.00021 1.00136 0.992962
1.00024 1.00156 0.992602
1.00018 1.00173 0.992538
1.00019 1.00148 0.99282
0.997449 1.00075 0.999367
0.998308 0.999342 0.999072
1.00033 1.00144 0.992513
1.00021 1.00144 0.992842
1.00023 1.00101 0.99324
1.00022 1.00118 0.993083
1.00002 1.00091 0.993565
0.995931 0.99985 0.998353
0.997838 1.00072 0.999163
0.999845 1.00107 0.993737
0.996011 0.998252 0.998713
0.998264 1.00139 0.99784
0.995186 1.00443 0.988276
0.998957 1.00491 0.987228
0.995766 1.00454 0.988707
0.996765 1.00186 0.99959
0.995696 0.999315 0.995355
0.997247 1.00601 0.986593
0.995863 1.00016 0.958876
0.994757 0.99993 0.954543
0.993299 1.00512 0.976715
0.99447 0.999863 0.947273
0.995958 1.00083 1.00218
0.99483 1.00493 0.985695
0.994003 1.00462 0.963033
0.995028 0.99876 0.990646
0.994678 0.998298 0.940958
0.99702 0.999923 0.951331
0.995446 1.0001 0.960556
0.996278 1.00106 1.00004
0.993498 1.00326 0.973821
0.994831 0.999522 0.94851
0.997161 0.999979 0.950161
0.995655 1.0006 0.963173
0.994841 0.999643 0.980294
0.998118 0.997951 1.0001
0.998004 1.00058 0.99836
0.999896 0.998884 0.997087
0.998819 1.00202 0.994676
0.998442 1.00402 0.99317
1.00062 1.00327 0.990019
1.00008 1.00403 0.991046
1.00053 1.00499 0.988825
1.00173 1.00381 0.987456
1.00029 1.00502 0.989083
1.00135 1.00504 0.987328
1.00237 1.00363 0.986441
1.00287 1.0028 0.986523
1.00173 1.00429 0.987525
1.00193 1.0045 0.986613
1.00062 1.00339 0.989806
1.00066 1.00411 0.989197
1.00092 1.00485 0.988032
1.00032 1.00348 0.990627
1.00029 1.00388 0.990352
1.00014 1.00404 0.990246
1.0001 1.00214 0.992268
0.999947 1.0033 0.991386
0.999961 1.00404 0.990828
0.999977 1.0002 0.994437
1.0001 1.00145 0.99299
1.00004 1.00257 0.992045
0.999759 0.998135 0.996891
1.00001 0.999761 0.994828
1.0001 1.0009 0.993542
1.00007 0.999457 0.995026
0.999837 0.997908 0.996974
0.999689 0.996812 0.999328
0.999922 0.997699 0.997033
0.999767 0.996646 0.999338
0.999836 0.996502 0.999345
1.00021 1.00125 0.993008
1.00028 1.00046 0.993651
1.00018 0.999475 0.994787
1.00029 1.00038 0.993721
0.999988 0.997706 0.996892
1.00019 0.999382 0.994871
1.00025 1.00036 0.993781
0.999901 0.996449 0.999325
1.00004 0.997526 0.996979
1.00019 0.999265 0.994977
0.999957 0.996278 0.999352
1.00007 0.997354 0.997072
0.999998 0.996146 0.999373
0.994317 1.0054 0.986315
0.996777 1.00604 0.986311
0.994617 1.00506 0.986083
1.00022 1.00113 0.993075
1.00013 1.00176 0.992658
1.0001 1.0021 0.992319
1.00011 1.00167 0.992705
1.00008 1.00219 0.992394
1.00024 1.00104 0.993103
1.00017 1.00142 0.992856
1.00013 1.00153 0.992872
1.00018 1.00165 0.992682
1.00008 1.00178 0.992793
0.994084 1.00425 0.963757
0.993657 1.006 0.974893
0.994009 1.00661 0.981187
0.994376 1.00011 0.959722
0.994609 0.99977 0.956002
0.995197 0.999767 0.97425
0.994959 1.00005 0.962472
0.995652 0.997826 0.976509
0.995478 1.00009 0.962705
0.994756 0.99979 0.955241
0.994419 0.999977 0.949483
0.995813 0.994934 0.981462
0.995302 1.00003 0.963548
0.996129 0.999933 0.952428
0.99473 0.99825 0.944692
0.999742 1.00105 0.994026
1.00017 1.00144 0.992942
1.00024 1.00153 0.992601
0.995664 1.00091 0.996831
0.997582 1.00066 0.999443
1.00023 1.00118 0.993013
0.999999 1.00102 0.99352
0.999838 1.00104 0.993769
0.998276 1.00107 0.997632
0.99565 0.998117 0.998879
0.998407 1.00164 0.995959
0.996109 1.00002 0.99772
0.993627 1.00316 0.974625
0.995528 1.00448 0.988436
0.999668 1.00467 0.986521
0.995877 1.00069 1.00237
0.995009 0.998546 0.984175
0.994721 1.00512 0.985944
0.995897 1.00007 0.959536
0.995543 0.999946 0.952437
0.994052 1.00457 0.962719
0.994626 0.998264 0.93693
0.996196 1.00069 1.00025
0.993483 1.00373 0.973732
0.994799 0.999765 0.947053
0.994911 0.999582 0.98214
0.996748 0.999959 0.949876
0.995876 1.00002 0.960073
0.998 0.999472 0.995714
0.994426 0.999707 0.954675
0.997394 0.997933 0.950232
0.997691 1.00113 0.959043
0.994876 0.999955 0.981831
0.997717 1.00096 0.998337
0.999678 0.998923 0.997155
1.00192 0.999191 0.992725
0.998065 1.0041 0.993428
1.0002 1.00343 0.990354
1.00268 1.00021 0.988717
1.00071 1.00497 0.988595
1.00176 1.0037 0.98751
1.00329 1.00083 0.987507
1.00135 1.00504 0.987213
1.00241 1.00356 0.986482
1.00376 1.00049 0.986938
1.00374 1.0004 0.987223
1.00233 1.00332 0.986888
1.00283 1.00269 0.986567
1.00141 1.00356 0.988611
1.00164 1.00431 0.987354
1.00197 1.00446 0.986433
1.00067 1.00296 0.990429
1.00061 1.00335 0.989959
1.00066 1.00408 0.989318
1.00029 1.00253 0.991564
1.00028 1.00348 0.990687
1.00025 1.00395 0.990312
0.999978 1.00086 0.993782
1.00013 1.00212 0.992268
0.999973 1.00321 0.99151
0.999663 0.998465 0.997179
0.999971 1.00022 0.994424
1.0001 1.00143 0.992991
0.999615 0.997079 0.998357
0.999756 0.998169 0.997098
1 0.999774 0.994819
0.999844 0.997915 0.99697
0.999677 0.996855 0.999322
0.999755 0.996679 0.999334
1.00017 1.00159 0.99268
1.00027 1.00062 0.993498
1.0002 1.00129 0.992969
1.00014 0.99961 0.994731
1.00028 1.00048 0.993652
0.999929 0.997878 0.996826
1.00017 0.999498 0.994785
1.00029 1.00039 0.993719
0.999841 0.996614 0.999304
0.999984 0.997704 0.996896
1.00018 0.999405 0.994869
0.999907 0.996424 0.999331
1.00003 0.997518 0.996985
0.999962 0.996253 0.999358
0.99373 1.00311 0.975751
0.994155 1.00537 0.986575
0.997133 1.00616 0.986651
1.00004 1.00246 0.992152
1.00022 1.00116 0.993109
1.00014 1.00178 0.992611
1.00012 1.00169 0.992744
1.00013 1.00205 0.992369
1.00008 1.00215 0.992365
1.00007 1.00249 0.992051
0.999994 1.0022 0.992363
1.00011 1.00155 0.992874
1.00021 1.00164 0.992628
1.00006 1.00181 0.992764
0.999961 1.00217 0.992943
0.994655 0.999903 0.9462
0.994097 1.00432 0.963388
0.993496 1.00607 0.974998
0.994618 0.999968 0.949221
0.995236 0.999793 0.955255
0.995104 1.00011 0.95964
0.995809 0.99781 0.976316
0.996092 0.994899 0.983725
0.99465 0.99823 0.940823
0.99514 1.00009 0.960149
0.996798 0.999873 0.950777
0.995426 0.996908 0.985228
0.996014 1.00005 0.964552
0.997214 0.999908 0.949337
0.999261 1.00066 0.995253
0.999863 1.001 0.994023
1.00012 1.00153 0.992922
0.99525 0.997984 0.998982
0.998356 1.00061 0.997432
0.999798 1.001 0.993801
0.99891 1.00153 0.995753
0.995876 1.00018 0.997915
0.997775 1.00093 0.995383
0.994519 1.00018 0.950437
0.993605 1.00317 0.977826
0.995875 1.00458 0.988597
0.996085 1.00053 1.00049
0.994875 0.999686 0.983352
0.993466 1.00404 0.973691
0.995677 1.00002 0.96177
0.997127 0.999958 0.947689
0.994787 0.999824 0.947494
0.997767 0.999657 0.995827
0.994441 0.999362 0.9544
0.997976 0.998018 0.948835
0.994928 0.999996 0.977608
0.996205 1.00071 0.962887
0.998752 0.999533 0.995876
0.999358 0.995774 0.948074
0.997537 1.00044 0.96294
0.995015 1.00065 0.976002
0.999383 0.999003 0.997241
1.00146 0.998855 0.993486
1.00365 0.99705 0.991003
0.999769 1.00367 0.99069
1.00273 1.00034 0.988665
1.00437 0.996878 0.989226
1.00178 1.00357 0.987564
1.00324 1.00082 0.98757
1.00457 0.997598 0.988244
1.00245 1.00349 0.986524
1.00378 1.00044 0.98694
1.00452 0.997901 0.988053
1.00419 0.998636 0.98821
1.00323 1.00135 0.987259
1.00371 1.00032 0.987302
1.00192 1.00292 0.987808
1.00234 1.00325 0.987014
1.00278 1.00259 0.986611
1.00102 1.00294 0.989795
1.00127 1.00357 0.988624
1.00154 1.00433 0.987183
1.00058 1.00245 0.991121
1.0007 1.00296 0.990416
1.0006 1.00332 0.990113
1.00005 1.00152 0.993009
1.00031 1.00252 0.991575
1.00024 1.00347 0.990746
0.999617 0.998857 0.996399
0.999985 1.00085 0.993768
1.00016 1.0021 0.992269
0.999474 0.997358 0.999275
0.999677 0.998512 0.996672
0.999966 1.00024 0.99441
0.999589 0.997076 0.999299
0.999765 0.998185 0.996856
0.999665 0.996898 0.999315
1.00011 1.002 0.992484
1.00019 1.00157 0.992683
1.00024 1.00094 0.993237
1.00009 0.999763 0.994667
1.00026 1.00062 0.993503
1.0002 1.00131 0.992931
0.999867 0.998048 0.996779
1.00014 0.999616 0.994731
1.00027 1.00047 0.993652
0.999773 0.996786 0.999287
0.999925 0.997878 0.996828
1.00017 0.999515 0.994783
0.999848 0.99659 0.99931
0.99998 0.9977 0.9969
0.999914 0.996397 0.999337
0.994481 1.00027 0.949812
0.993642 1.00312 0.97567
0.993979 1.00533 0.986833
1.00002 1.00253 0.992101
1.00004 1.00292 0.991754
0.99999 1.00283 0.991862
1.00013 1.0017 0.992783
1.00014 1.002 0.992418
1.00006 1.00211 0.992337
1.00002 1.00221 0.99234
1.00005 1.0025 0.992021
0.999871 1.00326 0.991725
1.00006 1.00162 0.992821
1.00005 1.00184 0.992734
0.999908 1.00201 0.992949
0.998969 0.997996 0.947817
0.994695 0.99997 0.944444
0.994102 1.00437 0.963056
0.994567 0.998211 0.936925
0.995616 0.99991 0.95197
0.995844 1.0001 0.963276
0.995874 0.994901 0.980645
0.995297 0.996902 0.982394
0.996765 0.999452 0.94942
0.995851 1.00005 0.961293
0.996275 0.997036 0.982315
0.99721 1.00105 0.958563
1.0009 1.00049 0.993116
0.999444 1.00052 0.995128
0.999965 1.00093 0.994023
0.995654 1.00048 0.998097
0.999273 1.00145 0.995535
0.99844 1.00127 0.994801
1.00125 0.999854 0.990486
0.9997 0.994965 0.947865
0.994446 1.00065 0.953015
0.993609 1.00317 0.980999
0.997597 0.999666 0.995992
0.99496 0.999944 0.978685
0.994457 0.999293 0.954392
0.996365 1.00113 0.958637
0.998736 0.999471 0.951114
0.998711 0.999731 0.994843
0.999557 0.995911 0.948805
0.998851 0.999232 0.958279
0.995024 1.0006 0.978985
0.999427 0.999501 0.99539
0.999941 0.997357 0.96024
0.996199 1.00018 0.981556
1.00102 0.998473 0.994245
1.00347 0.996828 0.990953
1.00494 0.994889 0.990048
1.00279 1.00042 0.988613
1.00428 0.996903 0.989207
1.00489 0.995395 0.989708
1.00319 1.00079 0.987633
1.00458 0.997642 0.988181
1.00509 0.996103 0.988745
1.00379 1.00039 0.986942
1.00452 0.997927 0.988034
1.00478 0.996949 0.988467
1.00443 0.998035 0.988424
1.00415 0.998544 0.988298
1.00371 0.999638 0.988065
1.0029 1.00156 0.987685
1.00323 1.00138 0.987265
1.00369 1.00022 0.98738
1.00162 1.00262 0.988765
1.00195 1.00294 0.987953
1.00236 1.00318 0.987141
1.00084 1.00239 0.99067
1.00105 1.00294 0.989774
1.00114 1.00359 0.988637
1.0002 1.00178 0.992441
1.00062 1.00242 0.991124
1.00074 1.00296 0.990403
0.999606 0.999315 0.995925
1.00007 1.00145 0.993008
1.00034 1.0025 0.991586
0.99944 0.997618 0.999212
0.999618 0.998905 0.996372
0.999993 1.00083 0.993754
0.999502 0.997386 0.998774
0.999687 0.998524 0.996663
0.999576 0.997153 0.999284
1.00012 1.00245 0.992
1.0001 1.00205 0.992438
1.00015 1.00143 0.992924
1.00022 1.00156 0.992685
1.00024 1.00094 0.993239
1.00001 1.00004 0.994517
0.999804 0.998203 0.996746
1.00009 0.999755 0.994673
1.00025 1.00064 0.993508
0.999696 0.996959 0.999273
0.999862 0.998043 0.99678
1.00013 0.999621 0.994731
0.99978 0.996764 0.999292
0.99992 0.997879 0.996831
0.999854 0.996562 0.999316
0.999635 0.995882 0.949827
0.994556 1.00052 0.949062
0.993532 1.00314 0.975586
1 1.00261 0.992051
0.999979 1.00293 0.991757
0.999981 1.00289 0.991827
1.00019 1.00311 0.9913
0.999904 1.00337 0.991499
1.00004 1.00223 0.992318
1.00004 1.00251 0.991992
0.999835 1.00312 0.991755
0.999708 1.00366 0.991106
1.0001 1.00251 0.991857
1.00198 1.00116 0.990097
0.999853 1.00195 0.992929
0.999895 1.00184 0.992955
0.999464 0.999071 0.95893
0.998002 0.99804 0.948493
0.994761 0.999965 0.94453
0.997185 0.999953 0.947188
0.995883 1.00071 0.960202
0.995321 0.996859 0.986125
0.996224 0.997156 0.984562
0.997075 0.999656 0.963441
0.998781 0.999126 0.979134
1.00333 0.998861 0.989736
1.00053 1.00028 0.993112
0.999595 1.00039 0.995
0.998878 1.00154 0.994255
1.00201 1.00048 0.989456
1.00062 0.99562 0.958417
0.999847 0.995374 0.949872
0.994372 1.00109 0.955619
0.998623 0.999938 0.993788
0.994812 1.00107 0.976141
0.999481 0.995382 0.949318
0.997928 1.00045 0.963098
0.999448 0.999703 0.995526
1.00087 0.995969 0.961402
0.996093 1.00064 0.978083
1.00103 1.00177 0.99244
1.00019 0.996955 0.985563
1.00334 0.996613 0.990904
1.00487 0.995131 0.98981
1.00503 0.995303 0.989471
1.00419 0.996952 0.989187
1.00477 0.995609 0.989687
1.00519 0.995218 0.989327
1.0046 0.997686 0.988119
1.00511 0.996095 0.9887
1.00507 0.996369 0.988559
1.00452 0.997955 0.988014
1.00478 0.997109 0.988414
1.00481 0.997386 0.988138
1.00431 0.997888 0.988619
1.00418 0.998789 0.988093
1.00411 0.998475 0.988386
1.00372 0.999626 0.98804
1.00345 1.00029 0.987922
1.00244 1.00167 0.988221
1.00289 1.00161 0.987654
1.00324 1.00142 0.987272
1.00126 1.00228 0.989989
1.00159 1.00264 0.988869
1.00197 1.00297 0.988097
1.00034 1.00185 0.992054
1.00088 1.00239 0.990652
1.00108 1.00295 0.989753
0.99964 0.999819 0.995348
1.00022 1.00175 0.99245
1.00064 1.00241 0.991127
0.999425 0.997916 0.999118
0.999597 0.999391 0.9959
1.0001 1.0014 0.993008
0.999452 0.997672 0.999186
0.999617 0.998959 0.996345
0.999503 0.997434 0.999237
1.00031 1.00274 0.991408
1.00011 1.00243 0.992003
1.00015 1.00193 0.992384
1.00009 1.00209 0.992393
1.00014 1.00151 0.99285
0.999958 1.00052 0.99412
1.00023 1.00093 0.993241
1.00002 1.00001 0.994526
0.999723 0.998422 0.996683
0.99961 0.997136 0.999264
0.999797 0.998202 0.996749
1.00009 0.999746 0.994679
0.999706 0.996937 0.999278
0.999858 0.99804 0.996782
0.999787 0.99674 0.999297
1.00127 0.996058 0.961394
0.999454 0.995963 0.948519
0.994628 1.00083 0.948519
0.99996 1.00304 0.991651
0.999919 1.00286 0.991899
0.999911 1.00336 0.991538
1.00016 1.00309 0.991322
1.00032 1.00363 0.990522
0.999871 1.0035 0.991249
0.9998 1.00298 0.991786
0.999902 1.00378 0.990848
0.999997 1.00281 0.991718
1.00048 1.00287 0.990272
1.00245 1.00129 0.989961
1.00364 0.999751 0.987774
1.00172 1.0011 0.990291
0.999647 1.0023 0.993035
0.998439 0.999336 0.977574
0.999365 0.99917 0.959405
0.998107 0.998357 0.950659
0.998428 1.00079 0.958515
0.996417 0.997263 0.986579
0.999154 0.998755 0.983501
1.00281 0.997982 0.990704
1.00332 0.998619 0.990123
1.00041 1.00008 0.993104
1.0033 1.00132 0.988397
0.999215 0.998043 0.97942
1.00113 0.995357 0.963521
0.999681 0.995887 0.947965
0.999522 0.999928 0.995631
0.995849 1.00116 0.980195
1.00047 0.99577 0.962713
1.00095 1.00094 0.992619
0.999597 0.997645 0.984003
1.00371 1.00011 0.989682
1.0046 0.996733 0.989151
1.00478 0.995366 0.989571
1.00503 0.995364 0.989419
1.0052 0.995595 0.989271
1.00464 0.995866 0.989667
1.00521 0.99532 0.989314
1.00514 0.996101 0.988737
1.00512 0.996085 0.988655
1.00504 0.996451 0.988541
1.00499 0.997281 0.987895
1.00479 0.997267 0.98836
1.00473 0.99743 0.988221
1.00456 0.998246 0.987723
1.0042 0.997735 0.988811
1.00416 0.998648 0.988172
1.00398 0.999594 0.987749
1.00373 0.999607 0.988016
1.00346 1.0003 0.987898
1.00313 1.00071 0.988186
1.00188 1.00164 0.989239
1.0024 1.00172 0.988319
1.00288 1.00166 0.987624
1.00062 1.00185 0.991559
1.00129 1.00227 0.989982
1.00158 1.00265 0.988973
0.999659 1.00035 0.994796
1.00037 1.00187 0.992053
1.00092 1.00238 0.990633
0.999438 0.998227 0.998979
0.99965 0.999849 0.995337
1.00024 1.00171 0.99246
0.999444 0.997966 0.999075
0.999593 0.999454 0.995875
0.999466 0.99772 0.999158
1.00047 1.00313 0.990726
1.00031 1.00271 0.991449
1.00029 1.00227 0.99187
1.0001 1.00242 0.992005
1.00015 1.00199 0.992316
0.999986 1.00107 0.993516
1.00013 1.00158 0.992776
0.999964 1.00052 0.994128
0.99964 0.998754 0.996502
1.00004 0.999985 0.994534
0.99972 0.998404 0.996691
0.999524 0.997354 0.999246
0.999623 0.997113 0.999267
0.999791 0.998199 0.996751
0.999715 0.996918 0.999282
0.998895 0.998491 0.97865
1.00127 0.996271 0.957307
0.999404 0.995918 0.949991
1.00102 1.00332 0.989526
0.999923 1.00336 0.991578
1.00013 1.00307 0.991345
0.999929 1.00357 0.991202
1.00026 1.00371 0.990489
1.0003 1.00288 0.990969
1.00009 1.00394 0.990589
0.999965 1.00311 0.99158
1.00067 1.00281 0.990476
1.0021 1.0014 0.989978
1.00366 1.00017 0.987507
1.00482 0.998321 0.986964
1.00361 0.99971 0.987656
1.00152 1.00097 0.990485
1.00203 0.997925 0.992955
0.998368 0.999931 0.976141
0.999405 0.99861 0.960219
0.999038 0.99862 0.981339
1.00285 0.997278 0.99205
1.00294 0.998263 0.990515
1.00331 0.998163 0.988083
0.998838 0.996822 0.981973
1.00067 0.995479 0.95816
1.00087 1.00007 0.992793
0.999634 0.99855 0.982385
1.00361 0.998908 0.989802
1.00456 0.996897 0.989272
1.00517 0.995971 0.98905
1.00513 0.997192 0.988501
1.005 0.995395 0.989366
1.00521 0.995344 0.989307
1.00512 0.996089 0.988908
1.00524 0.995331 0.989302
1.00515 0.996121 0.988735
1.00501 0.997203 0.988003
1.00502 0.996527 0.988524
1.00498 0.997294 0.987906
1.00485 0.998116 0.987351
1.00464 0.997474 0.988305
1.00459 0.998254 0.987708
1.00439 0.998925 0.987454
1.00415 0.99851 0.988252
1.00396 0.99949 0.987772
1.00361 1.00008 0.98782
1.00346 1.00031 0.987874
1.00309 1.0007 0.988134
1.00258 1.00096 0.988909
1.00112 1.00147 0.991018
1.00186 1.00167 0.989339
1.00235 1.00177 0.988417
0.999708 1.00077 0.994282
1.00064 1.00186 0.991553
1.00132 1.00225 0.989975
0.999389 0.998627 0.998824
0.99972 1.00028 0.994789
1.00039 1.00188 0.992052
0.99944 0.998295 0.998928
0.999658 0.999876 0.995326
0.999464 0.998021 0.999031
1.00089 1.0031 0.989783
1.00045 1.0031 0.990741
1.0005 1.00251 0.991316
1.00032 1.00268 0.991489
1.00027 1.00226 0.99189
1.00006 1.00153 0.992948
1.00015 1.00206 0.992248
0.999971 1.00112 0.993515
0.999569 0.999205 0.996164
0.999967 1.00052 0.994136
0.999639 0.998718 0.996522
0.999459 0.997606 0.9992
0.999718 0.998391 0.9967
0.999534 0.997315 0.999253
0.999634 0.997093 0.99927
1.00238 0.998377 0.991088
0.998871 0.998586 0.975296
1.00045 0.996773 0.96179
1.0011 1.00272 0.989613
1.00264 1.00181 0.987939
1.00081 1.00337 0.989614
0.999992 1.00363 0.991154
1.00022 1.00379 0.990453
1.00055 1.00284 0.990743
1.00344 1.00011 0.988116
1.0008 1.00277 0.990681
1.00156 1.0015 0.989994
1.00345 1.00024 0.987838
1.00491 0.998697 0.98647
1.00508 0.996787 0.987902
1.00485 0.99833 0.986963
1.00364 0.999739 0.987537
1.00231 0.997873 0.993133
0.998101 1.00078 0.974011
1.00312 0.99666 0.993382
1.00515 0.996767 0.988983
1.0032 0.997967 0.988318
0.999395 0.996133 0.978151
1.00351 0.997848 0.989936
1.00453 0.997335 0.989365
1.00517 0.995766 0.989235
1.00514 0.996876 0.988423
1.00512 0.996342 0.988526
1.00515 0.996378 0.988129
1.00521 0.995123 0.989342
1.00512 0.996024 0.988893
1.0051 0.997076 0.98795
1.00513 0.996178 0.988733
1.00501 0.997225 0.987949
1.00499 0.997927 0.98731
1.00498 0.997314 0.987917
1.00486 0.998117 0.987349
1.0047 0.998572 0.987229
1.00462 0.998262 0.987692
1.0044 0.998925 0.987443
1.00404 0.999531 0.987537
1.00393 0.999386 0.987795
1.00357 1.00006 0.987831
1.00302 1.00045 0.988547
1.00305 1.0007 0.988082
1.00252 1.00095 0.988879
1.00165 1.00092 0.990584
0.999851 1.00083 0.993887
1.00113 1.00148 0.991013
1.00184 1.0017 0.989439
0.999264 0.999154 0.998678
0.999788 1.00068 0.99427
1.00066 1.00187 0.991547
0.999375 0.998735 0.998776
0.999766 1.00025 0.994781
0.999447 0.998368 0.998877
1.00175 1.00243 0.988526
1.00089 1.00309 0.98966
1.00093 1.00251 0.990495
1.00043 1.00307 0.990756
1.00045 1.0025 0.991333
1.00016 1.0019 0.992465
1.00026 1.00225 0.991911
1.00003 1.00159 0.992943
0.999561 0.999691 0.995683
0.99996 1.00115 0.993515
0.99958 0.999139 0.996188
0.999425 0.997882 0.99911
0.999638 0.998679 0.996543
0.99946 0.997562 0.999217
0.999546 0.997283 0.99926
1.00511 0.996238 0.988488
1.00244 0.998111 0.990306
0.99889 0.997751 0.976397
1.00345 1.00057 0.987829
1.00088 1.0026 0.99019
1.00361 0.999881 0.987612
1.00272 1.00176 0.987888
1.00058 1.00343 0.989705
1.00495 0.998442 0.986792
1.00079 1.00279 0.990521
1.00356 1.00009 0.987889
1.0051 0.997927 0.986971
1.00328 1.00029 0.988169
1.00499 0.998634 0.986466
1.00505 0.996894 0.987948
1.00476 0.998408 0.986953
1.0024 0.997797 0.993336
1.00517 0.996746 0.98798
1.00516 0.996826 0.988965
1.00308 0.997537 0.988541
1.00516 0.995441 0.989425
1.00514 0.996605 0.988346
1.00511 0.996319 0.988662
1.00515 0.996434 0.988267
1.00514 0.997061 0.987827
1.00513 0.995969 0.988878
1.00509 0.997107 0.987949
1.00512 0.997802 0.987208
1.00503 0.997251 0.987894
1.00495 0.997988 0.987315
1.0048 0.998669 0.986978
1.00488 0.998118 0.987347
1.0047 0.998574 0.987228
1.00436 0.999099 0.987366
1.0044 0.998926 0.987432
1.00404 0.999531 0.987538
1.00347 0.999991 0.988155
1.00353 1.00003 0.987842
1.003 1.00045 0.988552
1.0021 1.0005 0.990169
1.00247 1.00093 0.988848
1.00165 1.00093 0.990574
1.00001 1.00068 0.994624
0.999245 0.99972 0.996597
0.999932 1.00075 0.994347
1.00113 1.0015 0.991007
0.99926 0.999291 0.998625
0.999877 1.00058 0.994257
0.999366 0.99883 0.998722
1.00401 0.999269 0.987685
1.00265 1.00116 0.988185
1.00191 1.0024 0.988428
1.00148 1.00216 0.989739
1.00089 1.00309 0.989536
1.00087 1.00251 0.990519
1.00038 1.00201 0.991965
1.00041 1.00249 0.991349
1.00012 1.00191 0.992469
0.999621 1.00018 0.99511
0.999999 1.00166 0.992939
0.999562 0.999646 0.995699
0.999394 0.99822 0.998972
0.99959 0.999076 0.996211
0.999416 0.997834 0.999142
0.999462 0.997515 0.999233
1.00514 0.997217 0.987576
1.00513 0.99647 0.988959
1.00257 0.997995 0.989526
1.00479 0.998455 0.987115
1.00327 1.00054 0.98813
1.00065 1.00246 0.990759
1.00372 0.999898 0.987718
1.00281 1.0017 0.987837
1.00517 0.998112 0.986915
1.00495 0.998524 0.98666
1.00367 1.00011 0.987661
1.00511 0.997909 0.986955
1.00509 0.998561 0.986462
1.00504 0.996934 0.988011
1.00518 0.997221 0.987724
1.00516 0.996686 0.988039
1.00517 0.996854 0.988951
1.00511 0.996298 0.988795
1.00516 0.996473 0.988405
1.00516 0.99697 0.987936
1.00517 0.997871 0.987071
1.00509 0.997138 0.987948
1.00508 0.997828 0.987232
1.00496 0.998695 0.986619
1.00491 0.998045 0.98732
1.00478 0.998666 0.986991
1.00446 0.999184 0.987096
1.0047 0.998576 0.987227
1.00436 0.999099 0.987365
1.00377 0.999613 0.987958
1.00403 0.999531 0.987539
1.00346 0.999991 0.988159
1.00247 1.00021 0.989762
1.00299 1.00046 0.988556
1.0021 1.00051 0.990157
1.00024 1.00043 0.994524
1.00165 1.00095 0.990565
1.00013 1.00065 0.994573
0.99918 1.00014 0.996438
0.999163 0.999839 0.997534
1.00004 1.00067 0.994756
0.999252 0.999417 0.998568
1.00484 0.99856 0.986922
1.00345 1.00015 0.988137
1.00391 0.999024 0.988112
1.00216 1.0015 0.989084
1.00274 1.0012 0.988186
1.00206 1.00236 0.98833
1.00145 1.00219 0.989739
1.00077 1.00184 0.991377
1.00082 1.00252 0.990544
1.00035 1.00199 0.991975
0.99971 1.0006 0.994553
1.00009 1.0019 0.992474
0.999585 1.00019 0.995119
0.999311 0.998698 0.998805
0.999564 0.99959 0.995713
0.999389 0.998154 0.99902
0.999411 0.997785 0.999172
1.00518 0.997567 0.98733
1.00514 0.997209 0.987572
1.00514 0.996655 0.989416
1.00513 0.998131 0.98688
1.00479 0.998544 0.987088
1.00311 1.0005 0.988433
1.00381 0.999907 0.987825
1.00516 0.998058 0.986883
1.00496 0.998602 0.986529
1.0051 0.997898 0.986938
1.00516 0.997723 0.987227
1.00518 0.997246 0.987664
1.00515 0.996642 0.988097
1.00516 0.998072 0.986872
1.00517 0.996873 0.988044
1.00517 0.997869 0.987089
1.00512 0.998522 0.986548
1.00504 0.997858 0.987256
1.00495 0.998705 0.98663
1.00466 0.999304 0.986582
1.00476 0.998664 0.987004
1.00446 0.999185 0.987096
1.00389 0.999591 0.987741
1.00436 0.9991 0.987363
1.00377 0.999613 0.987959
1.00272 0.999979 0.989531
1.00345 0.999992 0.988163
1.00248 1.0002 0.989755
1.00049 1.00016 0.994407
1.0021 1.00051 0.990144
1.00035 1.00041 0.994465
0.999218 1.0002 0.996378
1.00026 1.00057 0.994521
0.999082 1.00027 0.996502
0.999015 0.999915 0.998592
1.00503 0.998561 0.986683
1.00441 0.999128 0.987215
1.00476 0.998622 0.987074
1.0029 1.00069 0.988753
1.00344 1.00002 0.988138
1.00383 0.998778 0.988532
1.00135 1.00139 0.990696
1.00216 1.00152 0.989067
1.00284 1.00125 0.988187
1.00143 1.00222 0.989739
1.00075 1.00183 0.991386
0.999823 1.00087 0.99408
1.00032 1.00196 0.991984
0.999635 1.00068 0.994564
0.999169 0.999322 0.998645
0.999549 1.00021 0.995128
0.999322 0.998596 0.998863
0.999387 0.998089 0.999066
1.00516 0.997826 0.987065
1.00518 0.997537 0.987324
1.00514 0.997201 0.987569
1.00514 0.998018 0.986954
1.00479 0.998638 0.987059
1.00516 0.997999 0.986852
1.00514 0.998072 0.986947
1.00516 0.997775 0.9872
1.00518 0.997273 0.987604
1.00517 0.998025 0.986928
1.00514 0.998453 0.986585
1.00516 0.997866 0.987107
1.00511 0.998565 0.986488
1.00493 0.999085 0.986301
1.00494 0.998713 0.986641
1.00465 0.99931 0.986592
1.0041 0.999759 0.987202
1.00446 0.999181 0.987096
1.0039 0.999591 0.987732
1.00282 0.999916 0.989384
1.00377 0.999612 0.98796
1.00273 0.999961 0.98953
1.00067 0.999967 0.994306
1.00249 1.00018 0.989747
1.00057 1.00015 0.994346
0.999355 1.0001 0.996298
1.00045 1.00037 0.994414
0.999113 1.00029 0.996463
0.998969 1.00045 0.99657
1.0051 0.998271 0.986752
1.00469 0.998914 0.98688
1.00501 0.99851 0.986706
1.00371 0.999796 0.987973
1.00443 0.999193 0.987221
1.00468 0.998686 0.987232
1.00197 1.00074 0.990115
1.00288 1.00062 0.988604
1.00343 0.999899 0.98814
1.00001 1.00088 0.993692
1.00134 1.00138 0.990707
1.00217 1.00154 0.989051
1.00073 1.00182 0.991395
0.999723 1.00097 0.994097
0.999066 0.999934 0.998517
0.999555 1.00077 0.994574
0.999193 0.99918 0.998704
0.999338 0.998488 0.998917
1.00515 0.998072 0.986901
1.00517 0.997818 0.987081
1.00517 0.997508 0.987318
1.00515 0.997908 0.987028
1.00513 0.998422 0.986602
1.00514 0.998081 0.986951
1.00516 0.997823 0.987173
1.00517 0.997986 0.986983
1.00514 0.998418 0.986613
1.00501 0.998924 0.986408
1.00511 0.99861 0.986428
1.00492 0.99914 0.98631
1.00441 0.999599 0.986675
1.00464 0.999321 0.986603
1.00409 0.999759 0.987203
1.003 0.999975 0.988988
1.00391 0.999596 0.987723
1.00284 0.999902 0.989378
1.00074 0.999946 0.993143
1.00274 0.999941 0.98953
1.00071 0.999949 0.993741
0.999438 1.00005 0.99834
1.00064 1.00015 0.994288
0.99925 1.00015 0.996385
0.999011 1.00042 0.996532
1.00506 0.998307 0.986808
1.00482 0.998815 0.986729
1.0051 0.998321 0.986765
1.00407 0.999305 0.987473
1.00469 0.998925 0.986897
1.00499 0.998458 0.986728
1.00257 1.00008 0.989352
1.00373 0.999795 0.987967
1.00446 0.999255 0.987227
1.0003 1.00058 0.993391
1.00198 1.00071 0.989977
1.00287 1.00055 0.988454
0.999088 1.00033 0.998422
0.999929 1.00095 0.993708
1.00133 1.00137 0.990719
0.999633 1.00106 0.994112
0.99906 0.999794 0.998563
0.999211 0.999031 0.998756
1.00513 0.99836 0.986644
1.00515 0.99806 0.986909
1.00517 0.997812 0.987096
1.00502 0.998869 0.986423
1.00512 0.998403 0.986627
1.00515 0.998086 0.986955
1.00513 0.998374 0.986641
1.00501 0.998913 0.986406
1.00461 0.999357 0.986779
1.0049 0.999195 0.986319
1.0044 0.999656 0.986819
1.00332 0.999878 0.988201
1.00409 0.999753 0.987204
1.00301 0.99997 0.988982
1.00085 1.00004 0.992841
1.00286 0.99989 0.989371
1.00075 0.99994 0.993137
0.999466 1 0.99832
1.00072 0.999948 0.993224
0.999388 1.00002 0.997356
0.999148 1.0002 0.996468
1.00502 0.998501 0.986738
1.00486 0.998779 0.986761
1.00507 0.998295 0.986811
1.00421 0.999298 0.987391
1.00482 0.998822 0.986701
1.00511 0.998371 0.986777
1.00294 0.999691 0.989066
1.00408 0.999383 0.987636
1.00468 0.998936 0.986914
1.00059 1.00016 0.993217
1.00261 1.00008 0.989309
1.00375 0.999792 0.987961
0.999214 1.00041 0.998359
1.00025 1.0006 0.993416
1.00199 1.00068 0.989838
0.999041 1.00022 0.998454
0.999856 1.00099 0.993732
0.999055 0.99964 0.998614
1.00502 0.998801 0.986494
1.00513 0.998385 0.986638
1.00515 0.998047 0.986916
1.00461 0.999254 0.986859
1.00502 0.998845 0.986448
1.00512 0.998393 0.986653
1.00501 0.998905 0.986404
1.00461 0.999361 0.986773
1.00355 0.999716 0.987933
1.00439 0.999713 0.986963
1.0033 0.999914 0.988341
1.00108 1.00006 0.992385
1.00302 0.999959 0.988975
1.00087 1.00004 0.992823
0.999528 0.999999 0.998256
1.00075 0.999941 0.993132
0.999484 0.999995 0.998304
0.999425 0.999956 0.996277
1.00486 0.998862 0.986811
1.00504 0.998422 0.986752
1.0043 0.999224 0.98731
1.00484 0.998775 0.986758
1.00508 0.998283 0.986814
1.0031 0.999687 0.989079
1.00422 0.999296 0.987386
1.00482 0.998829 0.986673
1.0008 0.999893 0.993083
1.00294 0.999744 0.989171
1.00408 0.999466 0.987799
0.999391 1.00024 0.998315
1.00058 1.00016 0.993231
1.00265 1.00007 0.989266
0.999161 1.00035 0.998376
1.00021 1.00061 0.993437
0.998991 1.00013 0.998493
1.00455 0.999257 0.986981
1.00502 0.998826 0.98648
1.00513 0.998409 0.986633
1.00356 0.99964 0.988003
1.00461 0.999261 0.986859
1.00503 0.998816 0.986474
1.00461 0.999368 0.986768
1.00355 0.999724 0.987939
1.00125 1.00003 0.992101
1.00328 0.999949 0.98848
1.00109 1.00007 0.992369
0.99968 1.00001 0.99813
1.00089 1.00003 0.992807
0.999581 0.999997 0.998216
0.999512 0.999982 0.998282
1.00437 0.999248 0.987201
1.00484 0.998782 0.986792
1.00505 0.998343 0.986766
1.0032 0.999679 0.988886
1.00431 0.999224 0.9873
1.00481 0.998771 0.986754
1.00093 0.99984 0.99288
1.0031 0.9997 0.989075
1.00424 0.999293 0.987381
0.999539 1.00005 0.998267
1.0008 0.999884 0.993091
1.00294 0.999791 0.989276
0.99934 1.00025 0.998327
1.00056 1.00016 0.993243
0.999098 1.00032 0.998397
1.0035 0.999705 0.988322
1.00457 0.999233 0.986838
1.00502 0.998849 0.986465
1.00128 0.999968 0.992097
1.00356 0.999632 0.987993
1.00462 0.999267 0.98686
1.00354 0.999728 0.987945
1.00125 1.00002 0.992101
0.999815 1.00001 0.998015
1.0011 1.00007 0.992352
0.999727 1.00001 0.998081
0.999625 0.999993 0.998168
1.00335 0.999699 0.988611
1.00439 0.999208 0.987133
1.00483 0.998701 0.986773
1.00109 0.999926 0.993704
1.00321 0.999688 0.988877
1.00433 0.999225 0.98729
0.999643 0.999961 0.998192
1.00093 0.999849 0.992887
1.00309 0.999712 0.989071
0.999494 1.00008 0.998285
1.00079 0.999883 0.993099
0.999289 1.00025 0.998338
1.00128 0.999975 0.992125
1.0035 0.99967 0.988225
1.00459 0.999205 0.986694
0.999861 0.999999 0.997989
1.00128 0.999973 0.992097
1.00357 0.999627 0.987984
1.00126 1.00001 0.992098
0.999843 1.00001 0.997998
0.999788 1.00001 0.99804
1.00124 0.999981 0.993416
1.00335 0.999694 0.988615
1.0044 0.999167 0.987065
0.999513 0.999976 0.998303
1.00103 0.999938 0.992641
1.00322 0.999692 0.988868
0.999605 0.999987 0.998222
1.00092 0.999864 0.992895
0.99946 1.0001 0.9983
0.999836 1.00001 0.995609
1.00128 0.999972 0.992745
1.00349 0.999638 0.988129
0.999856 0.999999 0.99799
1.00127 0.999978 0.992102
0.999857 1.00001 0.997985
0.99957 1 0.995927
1.00118 0.999985 0.992923
1.00335 0.999692 0.988619
0.999595 0.999984 0.997086
1.00103 0.999953 0.99263
0.999572 1.00001 0.998249
0.99984 0.999995 0.998
1.00123 0.99997 0.9922
0.999852 0.999999 0.997991
0.99968 0.999999 0.996969
1.00113 0.999986 0.992383
0.999656 0.999985 0.998172
0.999811 0.99999 0.998029
0.999736 0.999987 0.998093

TENSORS stress float
0.00121159 -2.19477e-05 8.50652e-05
-2.19477e-05 0.000315791 -9.54503e-06
8.50652e-05 -9.54503e-06 0.000296021
0.0034985 -8.55681e-05 7.96018e-05
-8.55681e-05 0.00154174 4.20503e-06
7.96018e-05 4.20503e-06 0.00153581
0.00124231 3.03316e-05 4.20898e-05
3.03316e-05 0.000344014 -2.93084e-06
4.20898e-05 -2.93084e-06 0.000316778
0.00164763 -2.23052e-05 0.000100619
-2.23052e-05 0.00051757 -7.12776e-06
0.000100619 -7.12776e-06 0.000496637
0.0013504 -2.52011e-05 9.00857e-05
-2.52011e-05 0.000385627 -9.55461e-06
9.00857e-05 -9.55461e-06 0.000364109
0.00112328 6.94706e-06 7.33766e-05
6.94706e-06 0.000263916 -8.50435e-06
7.33766e-05 -8.50435e-06 0.00024564
0.00113966 -5.65373e-06 9.25891e-06
-5.65373e-06 0.000230079 -5.35183e-06
9.25891e-06 -5.35183e-06 0.000174878
0.00342734 -0.000104556 3.55776e-06
-0.000104556 0.0015026 -3.87894e-07
3.55776e-06 -3.87894e-07 0.00149552
0.00428662 -0.00016367 5.56117e-06
-0.00016367 0.00198744 2.30755e-06
5.56117e-06 2.30755e-06 0.00196344
0.00349429 -0.000171939 7.34288e-06
-0.000171939 0.00157077 2.16245e-06
7.34288e-06 2.16245e-06 0.00154759
0.00119419 -2.99122e-05 6.32734e-05
-2.99122e-05 0.000278842 4.61462e-06
6.32734e-05 4.61462e-06 0.000268952
0.000747612 4.08546e-05 8.56183e-06
4.08546e-05 1.17906e-05 5.85411e-06
8.56183e-06 5.85411e-06 -3.54014e-05
0.00172085 -1.10884e-05 0.000116814
-1.10884e-05 0.000542945 1.20694e-06
0.000116814 1.20694e-06 0.000520963
0.0012926 2.66365e-05 1.8725e-05
2.66365e-05 0.00033193 1.87076e-06
1.8725e-05 1.87076e-06 0.00030475
0.00131657 9.46694e-05 5.32129e-08
9.46694e-05 0.000399838 3.87592e-06
5.32129e-08 3.87592e-06 0.000362838
0.00148586 -5.45563e-06 4.20783e-05
-5.45563e-06 0.000436076 -2.55194e-06
4.20783e-05 -2.55194e-06 0.000412724
0.00114861 3.89309e-05 3.51527e-05
3.89309e-05 0.000286907 -2.8119e-06
3.51527e-05 -2.8119e-06 0.000262981
0.00133225 2.79865e-05 4.60247e-05
2.79865e-05 0.000387473 -2.92837e-06
4.60247e-05 -2.92837e-06 0.000359293
0.00126036 -2.30302e-05 -1.83545e-05
-2.30302e-05 0.000288312 4.19869e-07
-1.83545e-05 4.19869e-07 0.000236541
0.0049476 -3.45632e-05 0.000119816
-3.45632e-05 0.00229197 -1.60099e-06
0.000119816 -1.60099e-06 0.00228742
0.00166792 -1.3728e-05 0.000103202
-1.3728e-05 0.000524918 -5.38363e-06
0.000103202 -5.38363e-06 0.000504521
0.00152065 -2.50968e-05 9.5532e-05
-2.50968e-05 0.000462378 -8.65804e-06
9.5532e-05 -8.65804e-06 0.000440911
0.00147307 -3.58565e-05 2.2086e-05
-3.58565e-05 0.000335062 -3.50933e-06
2.2086e-05 -3.50933e-06 0.000283607
0.00126764 -5.39631e-06 1.0742e-05
-5.39631e-06 0.00027603 -5.52642e-06
1.0742e-05 -5.52642e-06 0.000219815
0.00113022 3.98285e-05 5.73625e-05
3.98285e-05 0.000255157 -7.26837e-06
5.73625e-05 -7.26837e-06 0.000238993
0.00101973 -2.29545e-07 8.91817e-06
-2.29545e-07 0.000180797 -4.46324e-06
8.91817e-06 -4.46324e-06 0.000129642
0.00159189 -0.000109658 5.20342e-06
-0.000109658 0.000370459 -2.36382e-06
5.20342e-06 -2.36382e-06 0.000284412
0.00333556 -0.00011686 -6.08691e-05
-0.00011686 0.00145213 -3.04977e-06
-6.08691e-05 -3.04977e-06 0.00144406
0.00275594 -5.40184e-05 -4.94935e-05
-5.40184e-05 0.00114992 -9.26964e-07
-4.94935e-05 -9.26964e-07 0.00112782
0.00237831 -8.96816e-05 -3.18936e-05
-8.96816e-05 0.000954348 -8.08903e-07
-3.18936e-05 -8.08903e-07 0.0009336
0.00314964 -0.000102511 2.34298e-06
-0.000102511 0.00134108 -2.20873e-07
2.34298e-06 -2.20873e-07 0.00133763
0.000678273 3.19609e-05 -1.29117e-07
3.19609e-05 -2.01502e-05 -1.99136e-07
-1.29117e-07 -1.99136e-07 -6.74909e-05
0.00160633 3.54123e-05 9.91746e-05
3.54123e-05 0.000504203 6.40977e-06
9.91746e-05 6.40977e-06 0.00048299
0.00169716 2.8677e-05 8.954e-05
2.8677e-05 0.000572685 7.56636e-06
8.954e-05 7.56636e-06 0.000551917
0.00231146 9.33205e-05 5.6438e-05
9.33205e-05 0.000815706 6.77881e-06
5.6438e-05 6.77881e-06 0.000770291
0.00276694 -0.000106495 1.52463e-05
-0.000106495 0.0011287 1.34313e-06
1.52463e-05 1.34313e-06 0.00112713
0.00203447 5.41832e-05 4.4442e-05
5.41832e-05 0.000701216 5.55691e-06
4.4442e-05 5.55691e-06 0.000659035
0.000668516 1.63452e-06 8.39198e-06
1.63452e-06 -2.54474e-05 7.72772e-06
8.39198e-06 7.72772e-06 -6.71548e-05
0.000926566 7.79425e-05 3.90203e-06
7.79425e-05 7.02475e-05 1.19809e-06
3.90203e-06 1.19809e-06 -1.40117e-05
0.00251518 -7.26417e-05 4.30988e-05
-7.26417e-05 0.000980165 3.03136e-06
4.30988e-05 3.03136e-06 0.00098801
0.00505973 5.53995e-07 2.02895e-07
5.53995e-07 0.00234822 -7.20829e-07
2.02895e-07 -7.20829e-07 0.00234373
0.00308749 1.92656e-05 -4.67329e-05
1.92656e-05 0.0012951 -1.08979e-06
-4.67329e-05 -1.08979e-06 0.00127958
0.00516889 3.78869e-05 0.000126391
3.78869e-05 0.00240342 6.46253e-07
0.000126391 6.46253e-07 0.002399
0.00135451 -1.12276e-05 1.25459e-05
-1.12276e-05 0.000362448 1.03774e-06
1.25459e-05 1.03774e-06 0.000334184
0.000777232 -3.07589e-06 1.50068e-05
-3.07589e-06 -7.17277e-05 2.23463e-06
1.50068e-05 2.23463e-06 -0.000130732
0.00463062 1.61548e-05 3.69342e-05
1.61548e-05 0.00213225 1.7353e-06
3.69342e-05 1.7353e-06 0.00212231
0.00239798 1.62386e-05 6.28275e-05
1.62386e-05 0.000816881 3.8398e-06
6.28275e-05 3.8398e-06 0.000775131
0.00131144 -1.48305e-05 -2.06961e-05
-1.48305e-05 0.000348773 2.2206e-06
-2.06961e-05 2.2206e-06 0.000322617
0.00135746 3.99728e-05 -9.33713e-06
3.99728e-05 0.000403709 3.02393e-06
-9.33713e-06 3.02393e-06 0.000374599
0.001202 8.47643e-05 -4.21728e-06
8.47643e-05 0.000327068 3.12084e-06
-4.21728e-06 3.12084e-06 0.000295645
0.00132318 -4.51344e-05 -4.54672e-05
-4.51344e-05 0.000313191 6.16776e-06
-4.54672e-05 6.16776e-06 0.000266176
0.00324913 4.01629e-05 -4.87306e-05
4.01629e-05 0.00138221 -1.13814e-06
-4.87306e-05 -1.13814e-06 0.00136128
0.00148814 -8.70604e-06 4.17443e-05
-8.70604e-06 0.000433716 -1.63151e-06
4.17443e-05 -1.63151e-06 0.000410683
0.00110446 5.21769e-05 2.67528e-05
5.21769e-05 0.000246595 -2.36171e-06
2.67528e-05 -2.36171e-06 0.000227972
0.00142622 5.41523e-06 4.35084e-05
5.41523e-06 0.000418518 -3.09569e-06
4.35084e-05 -3.09569e-06 0.000393838
0.00151415 -4.22149e-05 -1.53913e-05
-4.22149e-05 0.000354959 4.11876e-07
-1.53913e-05 4.11876e-07 0.000305321
0.0011432 -1.02073e-05 -1.4897e-05
-1.02073e-05 0.000241241 3.34707e-07
-1.4897e-05 3.34707e-07 0.000192811
0.00136467 -3.83841e-05 -1.66447e-05
-3.83841e-05 0.000318481 5.86332e-07
-1.66447e-05 5.86332e-07 0.000267954
0.00171609 -0.000114827 -2.68307e-06
-0.000114827 0.000432459 9.18522e-07
-2.68307e-06 9.18522e-07 0.000345191
0.00506385 4.77062e-05 0.000117147
4.77062e-05 0.00235061 1.74858e-07
0.000117147 1.74858e-07 0.00234595
0.00163471 -1.61971e-06 0.000105659
-1.61971e-06 0.000505851 -3.90758e-06
0.000105659 -3.90758e-06 0.000484864
0.00230618 5.25603e-05 1.34896e-05
5.25603e-05 0.000770151 -1.1901e-06
1.34896e-05 -1.1901e-06 0.000718293
0.00147527 -3.52083e-05 2.3304e-05
-3.52083e-05 0.000332714 -2.67447e-06
2.3304e-05 -2.67447e-06 0.000282266
0.00139001 -2.65552e-05 1.76642e-05
-2.65552e-05 0.000310449 -4.60641e-06
1.76642e-05 -4.60641e-06 0.00025758
0.00196898 -8.70721e-05 7.55201e-06
-8.70721e-05 0.000449886 -1.88735e-06
7.55201e-06 -1.88735e-06 0.000362359
0.00130101 -9.56002e-05 7.66885e-06
-9.56002e-05 0.000165929 -3.45003e-06
7.66885e-06 -3.45003e-06 7.66455e-05
0.00119274 4.7725e-05 4.89162e-05
4.7725e-05 0.000268886 -6.87301e-06
4.89162e-05 -6.87301e-06 0.00025883
0.000934695 2.53392e-05 7.38835e-06
2.53392e-05 0.000142793 -3.52519e-06
7.38835e-06 -3.52519e-06 0.000100013
0.00138285 -9.55273e-05 3.54525e-06
-9.55273e-05 0.000304684 -1.6615e-06
3.54525e-06 -1.6615e-06 0.000222372
0.00115885 -0.000113747 3.54822e-06
-0.000113747 7.40974e-05 -1.42539e-06
3.54822e-06 -1.42539e-06 -3.68126e-05
0.00425144 -5.47847e-05 -8.8737e-05
-5.47847e-05 0.0019505 -4.94953e-06
-8.8737e-05 -4.94953e-06 0.00194157
0.00307381 -0.000105307 -5.31367e-05
-0.000105307 0.00129799 -2.91082e-06
-5.31367e-05 -2.91082e-06 0.0012953
0.00355548 -0.000119221 -6.90645e-05
-0.000119221 0.00158559 -3.57712e-06
-6.90645e-05 -3.57712e-06 0.00157357
0.000614049 3.08722e-05 -7.39323e-06
3.08722e-05 -5.03313e-05 -6.39595e-06
-7.39323e-06 -6.39595e-06 -9.74657e-05
0.00475903 2.15794e-06 -2.78789e-06
2.15794e-06 0.00220247 -4.71725e-07
-2.78789e-06 -4.71725e-07 0.00219665
0.00412472 -9.59398e-05 1.30702e-06
-9.59398e-05 0.00189618 -1.28461e-07
1.30702e-06 -1.28461e-07 0.00188146
0.00062474 8.29676e-05 -7.19508e-07
8.29676e-05 -8.77244e-05 -1.70183e-07
-7.19508e-07 -1.70183e-07 -0.00014355
0.00191602 -7.40874e-05 -2.11714e-05
-7.40874e-05 0.000665168 -5.36117e-07
-2.11714e-05 -5.36117e-07 0.000661259
0.00064411 5.87332e-05 -2.80853e-07
5.87332e-05 -4.29525e-05 -1.02787e-07
-2.80853e-07 -1.02787e-07 -9.40818e-05
0.00118667 -1.67922e-05 1.2076e-05
-1.67922e-05 0.000259418 3.99767e-07
1.2076e-05 3.99767e-07 0.000221251
0.000869256 7.51583e-05 1.99436e-07
7.51583e-05 3.85888e-05 -1.80677e-07
1.99436e-07 -1.80677e-07 -4.49587e-05
0.00271088 -8.04483e-05 4.94269e-05
-8.04483e-05 0.00108929 3.06446e-06
4.94269e-05 3.06446e-06 0.00109448
0.00069458 -5.93084e-05 3.56646e-07
-5.93084e-05 -9.61963e-06 4.56731e-06
3.56646e-07 4.56731e-06 -3.23666e-05
0.000763231 6.52026e-05 1.5352e-05
6.52026e-05 -4.23379e-05 7.07297e-06
1.5352e-05 7.07297e-06 -9.88459e-05
0.00079809 8.16975e-05 1.56003e-05
8.16975e-05 2.00867e-05 9.12505e-06
1.56003e-05 9.12505e-06 -3.49524e-05
0.00106491 9.14873e-05 7.55144e-06
9.14873e-05 2.0369e-05 3.63123e-06
7.55144e-06 3.63123e-06 -7.43251e-05
0.00161228 -5.37381e-05 2.52209e-05
-5.37381e-05 0.000492514 3.95571e-06
2.52209e-05 3.95571e-06 0.000463653
0.000976407 9.09548e-05 4.55435e-06
9.09548e-05 6.64311e-05 2.24249e-06
4.55435e-06 2.24249e-06 -1.98003e-05
0.000901074 5.77315e-05 3.76848e-06
5.77315e-05 8.00653e-05 1.88879e-06
3.76848e-06 1.88879e-06 -2.22326e-06
0.000875455 0.000103222 1.70009e-06
0.000103222 1.10273e-05 -3.81851e-07
1.70009e-06 -3.81851e-07 -9.21232e-05
0.00231231 -6.5227e-05 3.59793e-05
-6.5227e-05 0.000864842 3.07889e-06
3.59793e-05 3.07889e-06 0.000875401
0.00244383 -7.32535e-05 1.1568e-06
-7.32535e-05 0.00094215 -1.16276e-07
1.1568e-06 -1.16276e-07 0.000950081
0.00481781 4.59882e-05 -0.000116763
4.59882e-05 0.00222613 -4.20295e-06
-0.000116763 -4.20295e-06 0.00222167
0.00499585 1.6886e-05 -0.000117253
1.6886e-05 0.00231507 -1.68378e-06
-0.000117253 -1.68378e-06 0.00231118
0.00515213 4.05604e-05 3.74876e-06
4.05604e-05 0.00239711 -5.94483e-07
3.74876e-06 -5.94483e-07 0.0023914
0.00314121 -1.374e-05 -4.90722e-05
-1.374e-05 0.00132162 -7.1487e-07
-4.90722e-05 -7.1487e-07 0.00130511
0.001642 1.02374e-05 2.72641e-05
1.02374e-05 0.000396617 1.60807e-07
2.72641e-05 1.60807e-07 0.00034468
0.0030521 1.47695e-05 -4.99441e-05
1.47695e-05 0.00127948 -1.66042e-06
-4.99441e-05 -1.66042e-06 0.00126378
0.00159227 3.08457e-05 2.49557e-05
3.08457e-05 0.0003862 5.59714e-07
2.49557e-05 5.59714e-07 0.000337503
0.00517916 0.000102536 0.000118836
0.000102536 0.00241476 1.68562e-06
0.000118836 1.68562e-06 0.00240622
0.000738274 -3.14012e-06 1.40257e-05
-3.14012e-06 -9.86028e-05 4.99446e-07
1.40257e-05 4.99446e-07 -0.000158252
0.00245682 -8.76675e-06 6.4987e-05
-8.76675e-06 0.000842653 2.77928e-06
6.4987e-05 2.77928e-06 0.000799221
0.00122423 1.89634e-05 9.21521e-06
1.89634e-05 8.90439e-06 1.6088e-06
9.21521e-06 1.6088e-06 -8.8144e-05
0.00233285 6.02966e-05 6.10514e-05
6.02966e-05 0.000792616 4.47757e-06
6.10514e-05 4.47757e-06 0.000749489
0.0011987 5.14845e-05 8.92979e-06
5.14845e-05 1.92719e-05 2.1493e-06
8.92979e-06 2.1493e-06 -7.45311e-05
0.00172293 1.95849e-05 -0.00011482
1.95849e-05 0.00054713 4.80729e-07
-0.00011482 4.80729e-07 0.00052562
0.00127022 -2.67329e-05 -2.00626e-05
-2.67329e-05 0.000323306 1.7222e-06
-2.00626e-05 1.7222e-06 0.000296944
0.00103149 7.2111e-05 -7.54652e-06
7.2111e-05 0.000213693 2.33339e-06
-7.54652e-06 2.33339e-06 0.000191377
0.00133998 4.83554e-06 -1.64419e-05
4.83554e-06 0.000377234 2.60523e-06
-1.64419e-05 2.60523e-06 0.00035057
0.00157199 -3.56765e-05 -5.4724e-05
-3.56765e-05 0.000383468 4.39092e-06
-5.4724e-05 4.39092e-06 0.000335747
0.00142579 -4.96808e-05 -4.94473e-05
-4.96808e-05 0.00034592 6.23282e-06
-4.94473e-05 6.23282e-06 0.000298335
0.00122586 -2.7023e-05 -3.95405e-05
-2.7023e-05 0.00027862 5.31764e-06
-3.95405e-05 5.31764e-06 0.000233897
0.00187526 -0.000121299 -1.15382e-05
-0.000121299 0.00051336 4.54468e-06
-1.15382e-05 4.54468e-06 0.000424695
0.00512736 -1.91991e-05 -2.52818e-06
-1.91991e-05 0.00238273 -5.76492e-07
-2.52818e-06 -5.76492e-07 0.00237807
0.00146338 -4.04406e-06 4.50853e-05
-4.04406e-06 0.000420185 -9.91029e-07
4.50853e-05 -9.91029e-07 0.000396278
0.00116224 6.10871e-06 -2.92916e-05
6.10871e-06 0.000143529 2.66606e-07
-2.92916e-05 2.66606e-07 8.94455e-05
0.00150196 -3.41065e-05 -1.60809e-05
-3.41065e-05 0.000344464 3.41253e-07
-1.60809e-05 3.41253e-07 0.000295786
0.00206771 7.2445e-05 4.12809e-05
7.2445e-05 0.000748605 -1.10513e-06
4.12809e-05 -1.10513e-06 0.000742825
0.00130498 2.41475e-05 -9.04829e-06
2.41475e-05 0.000337344 7.9195e-08
-9.04829e-06 7.9195e-08 0.000295445
0.00145797 -4.40588e-05 -1.55948e-05
-4.40588e-05 0.000342878 4.83369e-07
-1.55948e-05 4.83369e-07 0.000292754
0.0017743 -8.04511e-05 -5.18639e-06
-8.04511e-05 0.000345251 7.62924e-07
-5.18639e-06 7.62924e-07 0.000256725
0.00156185 -0.000106093 -2.06454e-06
-0.000106093 0.000396234 8.43602e-07
-2.06454e-06 8.43602e-07 0.000311945
0.00159205 -0.000104505 -1.32234e-06
-0.000104505 0.000320773 1.64551e-07
-1.32234e-06 1.64551e-07 0.000231923
0.00115732 -0.000112908 -6.72216e-08
-0.000112908 7.30885e-05 3.11814e-08
-6.72216e-08 3.11814e-08 -3.76049e-05
0.000750227 3.13473e-06 1.41621e-05
3.13473e-06 -8.78923e-05 -1.28123e-06
1.41621e-05 -1.28123e-06 -0.000147131
0.00143711 -2.40638e-05 2.09759e-05
-2.40638e-05 0.000310208 -2.31497e-06
2.09759e-05 -2.31497e-06 0.000258897
0.00163186 -1.12451e-05 8.87066e-06
-1.12451e-05 0.000236499 -1.62197e-06
8.87066e-06 -1.62197e-06 0.000144
0.00156376 -5.94378e-05 8.64026e-06
-5.94378e-05 0.000225415 -1.42703e-06
8.64026e-06 -1.42703e-06 0.000137909
0.00151469 -9.22455e-05 8.72586e-06
-9.22455e-05 0.000231759 -3.01952e-06
8.72586e-06 -3.01952e-06 0.000140781
0.00182566 -9.47973e-05 2.74463e-06
-9.47973e-05 0.000286721 -4.41086e-07
2.74463e-06 -4.41086e-07 0.000180001
0.00288413 9.1765e-05 4.95867e-05
9.1765e-05 0.00118233 -2.83176e-06
4.95867e-05 -2.83176e-06 0.001185
0.00121945 -0.000108973 3.84364e-06
-0.000108973 5.19855e-05 -1.72359e-06
3.84364e-06 -1.72359e-06 -5.8981e-05
0.000645183 5.44628e-05 2.91939e-06
5.44628e-05 -2.59401e-05 -5.09189e-06
2.91939e-06 -5.09189e-06 -6.61585e-05
0.000671978 -6.36022e-05 2.90267e-06
-6.36022e-05 -4.07845e-05 -1.41263e-06
2.90267e-06 -1.41263e-06 -0.000119783
0.00125978 -0.000123534 3.13845e-06
-0.000123534 0.00018308 -1.54076e-06
3.13845e-06 -1.54076e-06 7.16505e-05
0.00129562 -0.000127138 1.90772e-06
-0.000127138 0.000101681 -7.25575e-07
1.90772e-06 -7.25575e-07 -1.99905e-05
0.000583379 6.29018e-05 1.12354e-06
6.29018e-05 -6.76578e-05 -5.16214e-06
1.12354e-06 -5.16214e-06 -9.7293e-05
0.000771642 4.32315e-05 3.42061e-07
4.32315e-05 1.19283e-05 -2.68178e-06
3.42061e-07 -2.68178e-06 -4.60956e-05
0.00459626 3.01377e-06 -0.000105171
3.01377e-06 0.00211851 -5.11373e-06
-0.000105171 -5.11373e-06 0.00211313
0.00383114 -0.000116521 -7.19559e-05
-0.000116521 0.00174299 -4.84237e-06
-7.19559e-05 -4.84237e-06 0.00172749
0.000570846 7.25084e-05 -1.19326e-05
7.25084e-05 -0.000114946 -7.15796e-06
-1.19326e-05 -7.15796e-06 -0.000170891
0.00283979 -9.22217e-05 -4.86127e-05
-9.22217e-05 0.00116401 -2.81294e-06
-4.86127e-05 -2.81294e-06 0.0011661
0.000597408 -2.58861e-05 -2.81645e-06
-2.58861e-05 -5.5499e-05 -6.06514e-06
-2.81645e-06 -6.06514e-06 -9.60387e-05
0.000570253 5.24974e-05 -8.92842e-06
5.24974e-05 -7.763e-05 -6.4972e-06
-8.92842e-06 -6.4972e-06 -0.000129136
0.000831592 7.28342e-05 -3.90526e-06
7.28342e-05 1.75133e-05 -1.67454e-06
-3.90526e-06 -1.67454e-06 -6.55578e-05
0.00265623 -8.12995e-05 1.18446e-06
-8.12995e-05 0.00106072 -1.48381e-07
1.18446e-06 -1.48381e-07 0.00106595
0.000659877 -5.56923e-05 7.96964e-08
-5.56923e-05 -2.95876e-05 1.22958e-07
7.96964e-08 1.22958e-07 -5.13104e-05
0.00148854 7.22968e-05 2.29381e-05
7.22968e-05 0.000351406 4.44048e-07
2.29381e-05 4.44048e-07 0.000300793
0.00131676 7.41679e-05 1.92179e-05
7.41679e-05 0.000305624 3.84486e-07
1.92179e-05 3.84486e-07 0.000256598
0.00105387 9.19895e-05 3.8873e-07
9.19895e-05 1.55159e-05 -1.50397e-07
3.8873e-07 -1.50397e-07 -7.91475e-05
0.000664859 -4.95286e-05 -1.49677e-07
-4.95286e-05 -2.0361e-05 1.21254e-07
-1.49677e-07 1.21254e-07 -5.37368e-05
0.000916591 8.71773e-05 1.98672e-07
8.71773e-05 3.50699e-05 3.65259e-07
1.98672e-07 3.65259e-07 -5.06309e-05
0.000833493 5.04057e-05 3.62609e-07
5.04057e-05 4.42977e-05 -2.83218e-07
3.62609e-07 -2.83218e-07 -3.74939e-05
0.000821349 0.000100458 -9.65539e-08
0.000100458 -1.89543e-05 -9.12306e-08
-9.65539e-08 -9.12306e-08 -0.000122515
0.000662114 -5.49394e-05 1.99744e-06
-5.49394e-05 -2.2388e-05 4.81764e-06
1.99744e-06 4.81764e-06 -5.04153e-05
0.000725493 -4.91829e-05 1.65914e-06
-4.91829e-05 -4.54466e-06 3.85499e-06
1.65914e-06 3.85499e-06 -2.03855e-05
0.000717603 -7.96871e-06 2.17634e-06
-7.96871e-06 -1.02642e-05 2.33287e-06
2.17634e-06 2.33287e-06 -6.61118e-05
0.00110585 7.98907e-05 8.42826e-06
7.98907e-05 7.17385e-07 3.03712e-06
8.42826e-06 3.03712e-06 -9.47981e-05
0.00102386 9.55384e-05 6.07256e-06
9.55384e-05 5.04966e-05 3.36762e-06
6.07256e-06 3.36762e-06 -4.03505e-05
0.00128017 0.000115153 4.16555e-06
0.000115153 6.64508e-05 2.16103e-06
4.16555e-06 2.16103e-06 -4.9782e-05
0.000852527 3.55166e-05 2.85702e-06
3.55166e-05 6.00291e-05 2.35221e-06
2.85702e-06 2.35221e-06 -1.57972e-05
0.000919956 0.000106663 1.43377e-06
0.000106663 -6.99197e-06 5.29474e-07
1.43377e-06 5.29474e-07 -0.000111729
0.00106939 0.000109539 2.04504e-06
0.000109539 0.000147798 2.44435e-07
2.04504e-06 2.44435e-07 4.30127e-05
0.0010926 0.000123111 -1.54437e-06
0.000123111 0.000115017 -1.62442e-06
-1.54437e-06 -1.62442e-06 1.76568e-06
0.00217466 -5.79614e-05 3.07447e-05
-5.79614e-05 0.000782215 3.1966e-06
3.07447e-05 3.1966e-06 0.000795475
0.00225735 -6.52908e-05 7.98633e-07
-6.52908e-05 0.000834545 -9.29294e-08
7.98633e-07 -9.29294e-08 0.000845362
0.00236683 -7.31237e-05 -3.55868e-05
-7.31237e-05 0.000900799 -2.89746e-06
-3.55868e-05 -2.89746e-06 0.000908989
0.000636467 5.07365e-05 2.2266e-06
5.07365e-05 -4.83001e-05 -4.356e-06
2.2266e-06 -4.356e-06 -7.08137e-05
0.00271113 8.27322e-05 4.40416e-05
8.27322e-05 0.00108502 -2.94404e-06
4.40416e-05 -2.94404e-06 0.00109053
0.0047708 3.52522e-05 -0.000114724
3.52522e-05 0.00220341 -4.96276e-06
-0.000114724 -4.96276e-06 0.00219889
0.00486046 -7.19059e-06 -0.000112702
-7.19059e-06 0.00224618 -2.58921e-06
-0.000112702 -2.58921e-06 0.00224238
0.000727502 3.89149e-05 -1.3689e-05
3.89149e-05 -7.83619e-05 -3.51907e-06
-1.3689e-05 -3.51907e-06 -0.000133175
0.00072797 1.8013e-05 -1.40014e-05
1.8013e-05 -9.30554e-05 -2.12796e-06
-1.40014e-05 -2.12796e-06 -0.000151701
0.00510927 -5.19919e-05 -0.000117597
-5.19919e-05 0.00237432 -3.08761e-07
-0.000117597 -3.08761e-07 0.00236919
0.0051778 4.43099e-06 -1.09431e-06
4.43099e-06 0.00240834 4.82874e-07
-1.09431e-06 4.82874e-07 0.00240365
0.000734842 -1.34916e-06 -1.46195e-07
-1.34916e-06 -9.96258e-05 -3.13596e-07
-1.46195e-07 -3.13596e-07 -0.000159335
0.00161316 1.20407e-05 2.61036e-05
1.20407e-05 0.000391478 4.29118e-07
2.61036e-05 4.29118e-07 0.000341661
0.00122832 2.28183e-05 1.53855e-07
2.28183e-05 1.14718e-05 -2.17868e-08
1.53855e-07 -2.17868e-08 -8.56339e-05
0.000673479 4.66059e-05 1.74044e-07
4.66059e-05 -0.000100824 -9.66141e-08
1.74044e-07 -9.66141e-08 -0.000155305
0.00118893 5.33655e-05 -6.86243e-08
5.33655e-05 1.48729e-05 -5.78884e-08
-6.86243e-08 -5.78884e-08 -7.92034e-05
0.000722397 -1.00977e-05 1.43488e-05
-1.00977e-05 -0.000108457 -3.17411e-07
1.43488e-05 -3.17411e-07 -0.00016848
0.00125085 8.16363e-06 9.38586e-06
8.16363e-06 1.03119e-05 3.77615e-07
9.38586e-06 3.77615e-07 -8.9219e-05
0.00120852 3.50811e-05 8.97409e-06
3.50811e-05 1.50545e-05 1.83093e-06
8.97409e-06 1.83093e-06 -7.95191e-05
0.00149254 2.33885e-05 4.11722e-06
2.33885e-05 6.74512e-05 1.13676e-06
4.11722e-06 1.13676e-06 -4.50186e-05
0.00115466 6.54678e-05 8.82174e-06
6.54678e-05 5.13202e-06 2.50504e-06
8.82174e-06 2.50504e-06 -8.92838e-05
0.00145812 6.0272e-05 4.02491e-06
6.0272e-05 7.40605e-05 9.75634e-07
4.02491e-06 9.75634e-07 -3.51753e-05
0.00515219 -1.52099e-05 -0.000127506
-1.52099e-05 0.00239497 -7.77303e-07
-0.000127506 -7.77303e-07 0.00239044
0.00127871 -1.88122e-05 -1.50314e-05
-1.88122e-05 0.000327083 1.08282e-06
-1.50314e-05 1.08282e-06 0.000300245
-6.20558e-05 -6.52901e-07 -1.32693e-05
-6.52901e-07 -0.000517964 2.4428e-06
-1.32693e-05 2.4428e-06 -0.000581939
0.00156964 -2.23925e-05 -5.55834e-05
-2.23925e-05 0.000377775 2.94513e-06
-5.55834e-05 2.94513e-06 0.000331066
0.00284597 0.00011686 -1.6262e-05
0.00011686 0.00117961 1.25842e-06
-1.6262e-05 1.25842e-06 0.00117383
0.00171083 -4.1491e-06 -3.21371e-05
-4.1491e-06 0.000544488 4.46336e-06
-3.21371e-05 4.46336e-06 0.000508091
0.00152386 -4.59278e-05 -5.25286e-05
-4.59278e-05 0.000375003 5.59839e-06
-5.25286e-05 5.59839e-06 0.000326993
0.00156938 -7.382e-05 -1.64489e-05
-7.382e-05 0.000235103 3.10724e-06
-1.64489e-05 3.10724e-06 0.000145639
0.00189375 -0.000114341 -1.17561e-05
-0.000114341 0.000481609 4.12445e-06
-1.17561e-05 4.12445e-06 0.000393085
0.00177451 -0.000117001 -9.03661e-06
-0.000117001 0.000505912 3.80415e-06
-9.03661e-06 3.80415e-06 0.00041956
0.00115906 -0.000112262 -3.091e-06
-0.000112262 7.38395e-05 1.33719e-06
-3.091e-06 1.33719e-06 -3.66638e-05
0.000729767 5.37323e-06 4.80897e-09
5.37323e-06 -9.94835e-05 -2.97446e-07
4.80897e-09 -2.97446e-07 -0.000158639
0.00150489 -1.83263e-05 -1.8002e-05
-1.83263e-05 0.000343541 1.24574e-07
-1.8002e-05 1.24574e-07 0.000294209
0.00121873 -1.02896e-05 -3.37277e-06
-1.02896e-05 1.51263e-05 3.54957e-08
-3.37277e-06 3.54957e-08 -8.01422e-05
0.001794 -6.14904e-05 -2.51218e-06
-6.14904e-05 0.000348949 3.62128e-07
-2.51218e-06 3.62128e-07 0.000262845
0.00287004 9.0439e-05 -8.23171e-07
9.0439e-05 0.00117609 -1.77437e-07
-8.23171e-07 -1.77437e-07 0.00117849
0.00112367 3.28517e-05 2.13558e-06
3.28517e-05 0.000228764 2.90896e-07
2.13558e-06 2.90896e-07 0.000192614
0.00111112 -7.20606e-05 2.65406e-07
-7.20606e-05 0.000190627 -1.28662e-07
2.65406e-07 -1.28662e-07 0.000111518
0.00151609 -9.13029e-05 -2.4989e-06
-9.13029e-05 0.000234037 3.83522e-07
-2.4989e-06 3.83522e-07 0.00014296
0.00150732 -8.65807e-05 -2.00852e-06
-8.65807e-05 0.000114515 4.36172e-07
-2.00852e-06 4.36172e-07 6.55788e-06
0.00100163 -0.000110636 -4.56801e-07
-0.000110636 4.8134e-05 -1.61963e-07
-4.56801e-07 -1.61963e-07 -6.25162e-05
0.00146671 -0.00011599 7.22822e-09
-0.00011599 0.000183067 -1.48922e-07
7.22822e-09 -1.48922e-07 7.27488e-05
0.00127631 -0.000125608 9.37135e-08
-0.000125608 9.16248e-05 1.36919e-07
9.37135e-08 1.36919e-07 -2.97285e-05
0.000616978 6.28726e-05 -7.37433e-07
6.28726e-05 -4.82438e-05 8.13015e-09
-7.37433e-07 8.13015e-09 -7.83808e-05
0.000741718 2.88456e-05 -2.05917e-07
2.88456e-05 -6.10942e-06 1.86537e-07
-2.05917e-07 1.86537e-07 -6.33621e-05
0.0012331 -5.36417e-06 9.18341e-06
-5.36417e-06 3.13287e-06 -1.45231e-06
9.18341e-06 -1.45231e-06 -9.5932e-05
0.00154713 -2.97273e-05 8.22719e-06
-2.97273e-05 0.000212712 -1.5848e-06
8.22719e-06 -1.5848e-06 0.000125003
0.00189846 -1.65986e-05 2.88456e-06
-1.65986e-05 0.000294664 -9.13505e-07
2.88456e-06 -9.13505e-07 0.000186186
0.00124481 -5.87627e-05 4.74026e-06
-5.87627e-05 -3.62842e-05 -6.68821e-07
4.74026e-06 -6.68821e-07 -0.000142882
0.00155425 -0.000110298 3.73817e-06
-0.000110298 0.000177272 -9.85682e-07
3.73817e-06 -9.85682e-07 6.70896e-05
0.00175543 -9.18923e-05 7.92364e-07
-9.18923e-05 0.00019429 2.88908e-07
7.92364e-07 2.88908e-07 8.40391e-05
0.000556426 6.43661e-05 1.07504e-06
6.43661e-05 -7.61813e-05 -5.46141e-06
1.07504e-06 -5.46141e-06 -0.000112132
0.00140322 -0.00012137 1.56778e-06
-0.00012137 9.39312e-05 -1.13432e-06
1.56778e-06 -1.13432e-06 -2.59323e-05
0.000677803 -3.02499e-05 1.99379e-06
-3.02499e-05 -3.05437e-05 -1.31472e-06
1.99379e-06 -1.31472e-06 -0.000106526
0.000568375 -8.65378e-05 2.19425e-06
-8.65378e-05 -0.000127815 -1.94154e-06
2.19425e-06 -1.94154e-06 -0.000231672
0.00178645 -0.000158677 1.09623e-06
-0.000158677 0.000426834 -4.10544e-07
1.09623e-06 -4.10544e-07 0.000301757
0.00156841 -0.000142173 -4.1282e-07
-0.000142173 0.000206414 7.28192e-07
-4.1282e-07 7.28192e-07 8.2376e-05
0.000827468 2.35609e-07 1.42679e-06
2.35609e-07 4.54276e-05 -2.76021e-06
1.42679e-06 -2.76021e-06 -2.26585e-05
0.000759729 4.07531e-05 8.98364e-07
4.07531e-05 7.87901e-07 -2.04388e-06
8.98364e-07 -2.04388e-06 -4.84524e-05
0.000840641 -3.04396e-05 4.05777e-07
-3.04396e-05 4.87268e-05 -8.61457e-07
4.05777e-07 -8.61457e-07 -3.54665e-05
0.000631845 6.48576e-05 -1.27075e-05
6.48576e-05 -0.000107426 -6.13477e-06
-1.27075e-05 -6.13477e-06 -0.000163497
0.00260513 -8.22397e-05 -4.2161e-05
-8.22397e-05 0.00103396 -2.81215e-06
-4.2161e-05 -2.81215e-06 0.0010392
0.00063166 -5.09456e-05 -2.22414e-06
-5.09456e-05 -4.61445e-05 -4.00806e-06
-2.22414e-06 -4.00806e-06 -6.67443e-05
0.000541745 6.8805e-05 -1.06343e-05
6.8805e-05 -0.000106583 -7.08362e-06
-1.06343e-05 -7.08362e-06 -0.000160011
0.00103493 9.23854e-05 -7.36389e-06
9.23854e-05 6.60995e-06 -4.0095e-06
-7.36389e-06 -4.0095e-06 -8.80439e-05
0.000552313 -6.74129e-05 -4.12066e-07
-6.74129e-05 -7.49017e-05 -5.57741e-06
-4.12066e-07 -5.57741e-06 -0.000111571
0.000741685 4.65379e-05 -2.487e-06
4.65379e-05 -5.57394e-06 -2.14374e-06
-2.487e-06 -2.14374e-06 -8.59731e-05
0.000867948 8.35724e-05 -4.20707e-06
8.35724e-05 9.84506e-06 -1.63255e-06
-4.20707e-06 -1.63255e-06 -7.53639e-05
0.000762531 9.74876e-05 -2.48361e-06
9.74876e-05 -5.1473e-05 -2.64867e-08
-2.48361e-06 -2.64867e-08 -0.000155419
0.000623195 -6.36568e-05 5.4726e-07
-6.36568e-05 -4.18355e-05 7.21124e-08
5.4726e-07 7.21124e-08 -7.08172e-05
0.000695615 -4.6066e-05 -8.76347e-08
-4.6066e-05 -2.09122e-05 1.06611e-07
-8.76347e-08 1.06611e-07 -3.61447e-05
0.000741186 -3.58711e-05 1.59515e-07
-3.58711e-05 -1.43304e-07 2.23299e-07
1.59515e-07 2.23299e-07 -5.38133e-05
0.00112064 8.16599e-05 3.25112e-07
8.16599e-05 9.17372e-06 -2.96741e-07
3.25112e-07 -2.96741e-07 -8.65813e-05
0.000977694 9.35189e-05 3.78957e-07
9.35189e-05 2.74362e-05 1.26391e-07
3.78957e-07 1.26391e-07 -6.30683e-05
0.00127424 0.000115801 2.39574e-07
0.000115801 6.38827e-05 6.27251e-08
2.39574e-07 6.27251e-08 -5.25208e-05
0.000811416 3.2477e-05 -1.3549e-07
3.2477e-05 3.99887e-05 -2.98772e-08
-1.3549e-07 -2.98772e-08 -3.55591e-05
0.00106941 0.000114096 -1.08549e-07
0.000114096 7.28697e-05 -9.75708e-08
-1.08549e-07 -9.75708e-08 -3.21059e-05
0.00102192 0.000106693 2.6122e-07
0.000106693 0.000122732 -3.8899e-07
2.6122e-07 -3.8899e-07 1.81474e-05
0.000948725 0.000116954 -7.86421e-07
0.000116954 3.86723e-05 6.30126e-07
-7.86421e-07 6.30126e-07 -7.46456e-05
0.000737851 -4.12672e-05 2.37236e-06
-4.12672e-05 -8.12606e-06 3.39497e-06
2.37236e-06 3.39497e-06 -1.91693e-05
0.000754403 8.61254e-06 2.50362e-06
8.61254e-06 5.2069e-06 2.03714e-06
2.50362e-06 2.03714e-06 -5.95501e-05
0.000730621 -4.26248e-05 4.99072e-07
-4.26248e-05 -9.15197e-06 2.16111e-06
4.99072e-07 2.16111e-06 -5.32795e-05
0.000853919 2.30572e-05 5.58345e-07
2.30572e-05 6.16523e-05 6.78031e-07
5.58345e-07 6.78031e-07 -1.75038e-05
0.00133309 9.77838e-05 5.1977e-06
9.77838e-05 4.40928e-05 1.31385e-06
5.1977e-06 1.31385e-06 -7.0583e-05
0.00120443 0.000120859 2.98478e-06
0.000120859 9.22198e-05 2.1563e-06
2.98478e-06 2.1563e-06 -1.93891e-05
0.00140048 0.000126551 1.93059e-06
0.000126551 8.38689e-05 2.0932e-06
1.93059e-06 2.0932e-06 -4.22732e-05
0.00107407 7.811e-05 2.01694e-06
7.811e-05 0.000165664 1.26745e-06
2.01694e-06 1.26745e-06 6.86076e-05
0.00118274 0.000127757 -5.1447e-07
0.000127757 0.000105347 4.22459e-07
-5.1447e-07 4.22459e-07 -7.59328e-06
0.00105254 0.00012126 2.74919e-07
0.00012126 0.000139025 -1.58352e-06
2.74919e-07 -1.58352e-06 1.70395e-05
0.00070123 0.000107136 -2.2927e-07
0.000107136 -0.000114413 -1.35622e-06
-2.2927e-07 -1.35622e-06 -0.000230549
0.000799338 -2.15719e-05 1.13973e-06
-2.15719e-05 5.08406e-06 1.61618e-06
1.13973e-06 1.61618e-06 -2.34395e-05
0.000741825 -3.15678e-05 1.66001e-06
-3.15678e-05 -2.11765e-05 3.29917e-06
1.66001e-06 3.29917e-06 -2.65899e-05
0.00210319 -5.12006e-05 2.66937e-05
-5.12006e-05 0.000734781 3.3739e-06
2.66937e-05 3.3739e-06 0.000750414
0.00214754 -5.78801e-05 1.00619e-06
-5.78801e-05 0.000766392 -9.28382e-08
1.00619e-06 -9.28382e-08 0.000779931
0.00220522 -6.47134e-05 -3.14662e-05
-6.47134e-05 0.000805601 -3.04488e-06
-3.14662e-05 -3.04488e-06 0.000816818
0.000670165 4.25703e-05 2.59775e-06
4.25703e-05 -3.96291e-05 -3.87482e-06
2.59775e-06 -3.87482e-06 -5.7104e-05
0.00252506 7.45958e-05 3.81549e-05
7.45958e-05 0.000980313 -3.09415e-06
3.81549e-05 -3.09415e-06 0.000988307
0.000656902 5.5894e-05 -1.39263e-07
5.5894e-05 -3.55962e-05 7.50333e-08
-1.39263e-07 7.50333e-08 -5.92745e-05
0.00273215 8.15979e-05 -8.83334e-07
8.15979e-05 0.00109608 -1.38835e-07
-8.83334e-07 -1.38835e-07 0.00110157
0.000683691 5.09554e-05 -1.32511e-05
5.09554e-05 -9.53853e-05 -4.6834e-06
-1.32511e-05 -4.6834e-06 -0.000150297
0.000736985 2.95687e-05 -1.37013e-05
2.95687e-05 -7.88259e-05 -2.82001e-06
-1.37013e-05 -2.82001e-06 -0.000135526
0.00117274 5.42119e-05 -8.75903e-06
5.42119e-05 6.96793e-06 -2.16188e-06
-8.75903e-06 -2.16188e-06 -8.73027e-05
0.00122765 2.45877e-05 -9.04078e-06
2.45877e-05 1.16133e-05 -1.63714e-06
-9.04078e-06 -1.63714e-06 -8.55114e-05
0.000745501 2.76857e-06 -1.44145e-05
2.76857e-06 -9.37522e-05 -1.19397e-06
-1.44145e-05 -1.19397e-06 -0.000153268
0.00519318 -4.81145e-05 -0.00012466
-4.81145e-05 0.00241598 8.98007e-07
-0.00012466 8.98007e-07 0.0024117
0.000742979 -1.44863e-06 1.0796e-07
-1.44863e-06 -9.81428e-05 -2.40247e-07
1.0796e-07 -2.40247e-07 -0.00015801
0.00125567 1.21807e-05 3.93418e-08
1.21807e-05 1.301e-05 -4.02848e-07
3.93418e-08 -4.02848e-07 -8.65092e-05
0.00119968 3.55607e-05 -1.68563e-08
3.55607e-05 1.11288e-05 -3.743e-08
-1.68563e-08 -3.743e-08 -8.3591e-05
0.00150626 2.31085e-05 6.74929e-08
2.31085e-05 7.44753e-05 5.63212e-08
6.74929e-08 5.63212e-08 -3.80113e-05
0.00116333 6.78681e-05 7.37143e-08
6.78681e-05 1.04428e-05 -1.43809e-07
7.37143e-08 -1.43809e-07 -8.43555e-05
0.00145874 6.25497e-05 -7.66694e-09
6.25497e-05 7.47027e-05 3.41081e-08
-7.66694e-09 3.41081e-08 -3.46897e-05
0.00126077 -6.39676e-07 9.37571e-06
-6.39676e-07 1.28181e-05 -3.45789e-07
9.37571e-06 -3.45789e-07 -8.70623e-05
0.00151959 1.55828e-05 4.2555e-06
1.55828e-05 6.78568e-05 1.2813e-07
4.2555e-06 1.2813e-07 -4.71055e-05
0.00147662 4.13101e-05 4.10462e-06
4.13101e-05 7.32473e-05 9.72723e-07
4.10462e-06 9.72723e-07 -3.67765e-05
0.00162835 2.10327e-05 1.27016e-06
2.10327e-05 9.63835e-05 6.53429e-07
1.27016e-06 6.53429e-07 -1.72714e-05
0.0014077 8.00417e-05 4.02617e-06
8.00417e-05 5.85978e-05 8.38072e-07
4.02617e-06 8.38072e-07 -5.2326e-05
0.00159633 6.57155e-05 1.34951e-06
6.57155e-05 9.83996e-05 5.19269e-07
1.34951e-06 5.19269e-07 -1.35984e-05
0.000737712 8.97604e-06 -1.378e-05
8.97604e-06 -9.61794e-05 6.04592e-07
-1.378e-05 6.04592e-07 -0.000155424
0.00158151 -5.66935e-06 -5.68225e-05
-5.66935e-06 0.000381848 2.03396e-06
-5.68225e-05 2.03396e-06 0.000334459
0.000807346 -7.74287e-06 -9.60377e-06
-7.74287e-06 -0.00020547 2.01217e-06
-9.60377e-06 2.01217e-06 -0.000303549
0.00200298 -6.23416e-05 -1.45739e-05
-6.23416e-05 0.000460828 2.06662e-06
-1.45739e-05 2.06662e-06 0.000376296
0.00287228 8.9138e-05 -5.31008e-05
8.9138e-05 0.00117846 3.00901e-06
-5.31008e-05 3.00901e-06 0.0011806
0.00166438 3.03577e-05 -2.71956e-05
3.03577e-05 0.000519552 3.47087e-06
-2.71956e-05 3.47087e-06 0.000486774
0.00155911 -8.79632e-05 -6.14332e-06
-8.79632e-05 0.0004266 2.35179e-06
-6.14332e-06 2.35179e-06 0.000346972
0.0015143 -9.03898e-05 -1.3364e-05
-9.03898e-05 0.000234607 3.77782e-06
-1.3364e-05 3.77782e-06 0.000143468
0.00118223 -7.81321e-05 -5.70708e-06
-7.81321e-05 -6.124e-05 8.54875e-07
-5.70708e-06 8.54875e-07 -0.000170421
0.00172343 -0.000123391 -4.74006e-06
-0.000123391 0.000319015 1.64463e-06
-4.74006e-06 1.64463e-06 0.000209328
0.000736618 -9.7256e-05 -2.60973e-06
-9.7256e-05 -9.0256e-05 1.0842e-06
-2.60973e-06 1.0842e-06 -0.000200094
0.00126034 -0.000124209 -1.13263e-06
-0.000124209 8.32759e-05 8.47524e-07
-1.13263e-06 8.47524e-07 -3.77623e-05
0.000647575 5.33519e-05 -2.23874e-06
5.33519e-05 -3.2936e-05 5.02882e-06
-2.23874e-06 5.02882e-06 -6.20683e-05
0.000718535 1.56461e-05 -1.73355e-06
1.56461e-05 -1.91454e-05 2.39623e-06
-1.73355e-06 2.39623e-06 -7.66742e-05
0.00104636 -1.53713e-06 -4.12102e-07
-1.53713e-06 -9.57981e-05 -2.92783e-07
-4.12102e-07 -2.92783e-07 -0.000195968
0.00157994 -3.16631e-05 -2.77669e-06
-3.16631e-05 0.000228928 2.35297e-07
-2.77669e-06 2.35297e-07 0.000141301
0.0017892 -1.36902e-05 -2.03812e-06
-1.36902e-05 0.000234955 3.64952e-07
-2.03812e-06 3.64952e-07 0.000125763
0.00155706 -6.33762e-05 1.03323e-06
-6.33762e-05 0.000131633 -1.47295e-07
1.03323e-06 -1.47295e-07 2.67279e-05
0.000607829 4.92222e-05 -1.25364e-08
4.92222e-05 -5.23432e-05 9.95216e-08
-1.25364e-08 9.95216e-08 -8.61279e-05
0.000814637 -4.17435e-05 -1.86246e-07
-4.17435e-05 4.19769e-05 -4.39655e-08
-1.86246e-07 -4.39655e-08 -3.49216e-05
0.000714923 -9.40268e-05 8.55341e-07
-9.40268e-05 -4.87778e-05 -7.348e-07
8.55341e-07 -7.348e-07 -0.000151658
0.0017044 -0.000113477 -9.2888e-07
-0.000113477 0.000256308 1.95062e-07
-9.2888e-07 1.95062e-07 0.000146044
0.00157723 -8.63277e-05 -6.61283e-07
-8.63277e-05 9.74746e-05 3.13504e-07
-6.61283e-07 3.13504e-07 -1.2782e-05
0.00142855 -0.000141276 -1.17502e-06
-0.000141276 0.000237107 5.8848e-07
-1.17502e-06 5.8848e-07 0.000111676
0.00138645 -0.000120273 -6.84907e-08
-0.000120273 8.5454e-05 -1.46715e-07
-6.84907e-08 -1.46715e-07 -3.43278e-05
0.00136756 -0.000133227 4.40205e-07
-0.000133227 0.000102173 7.12042e-07
4.40205e-07 7.12042e-07 -2.09455e-05
0.000772992 -3.41038e-06 -2.59053e-07
-3.41038e-06 1.53122e-05 -1.00507e-07
-2.59053e-07 -1.00507e-07 -5.26649e-05
0.000799004 -5.81607e-06 -5.27877e-07
-5.81607e-06 2.16038e-05 -2.54922e-07
-5.27877e-07 -2.54922e-07 -5.91517e-05
0.000749514 3.47998e-05 3.81122e-07
3.47998e-05 -5.64444e-06 2.55779e-07
3.81122e-07 2.55779e-07 -5.44965e-05
0.00192572 5.93699e-07 3.01297e-06
5.93699e-07 0.000291342 -5.93639e-07
3.01297e-06 -5.93639e-07 0.000180351
0.00161626 -3.53028e-05 3.53181e-06
-3.53028e-05 0.000161535 -9.23372e-07
3.53181e-06 -9.23372e-07 5.61849e-05
0.00183143 -1.27634e-05 9.05151e-07
-1.27634e-05 0.000211076 -3.52302e-07
9.05151e-07 -3.52302e-07 9.66919e-05
0.0015957 -5.7464e-05 1.50656e-06
-5.7464e-05 9.93845e-05 -2.86462e-07
1.50656e-06 -2.86462e-07 -8.68638e-06
0.00135927 -0.000108037 2.26487e-06
-0.000108037 1.32443e-05 -5.11872e-07
2.26487e-06 -5.11872e-07 -0.000103759
0.00179458 -8.39802e-05 -7.68623e-07
-8.39802e-05 0.000175946 6.82287e-07
-7.68623e-07 6.82287e-07 6.85156e-05
0.000776717 -2.08019e-05 2.32438e-06
-2.08019e-05 2.33626e-05 -1.99064e-06
2.32438e-06 -1.99064e-06 -5.159e-05
0.00142727 -0.000124574 -9.75473e-07
-0.000124574 6.69419e-05 -6.56861e-07
-9.75473e-07 -6.56861e-07 -5.22541e-05
0.0008979 -9.69301e-05 1.20091e-06
-9.69301e-05 6.78695e-05 -9.51895e-08
1.20091e-06 -9.51895e-08 -2.68868e-05
0.000702719 -0.000105974 2.02434e-06
-0.000105974 -7.42096e-05 -2.53751e-06
2.02434e-06 -2.53751e-06 -0.000194969
0.00157856 -0.000156178 1.61185e-06
-0.000156178 0.00028411 6.22327e-07
1.61185e-06 6.22327e-07 0.000150623
0.00189772 -0.000158518 -2.61055e-06
-0.000158518 0.000354761 2.43492e-06
-2.61055e-06 2.43492e-06 0.000237138
0.000772302 3.14975e-05 1.28955e-06
3.14975e-05 1.41135e-06 -1.80227e-06
1.28955e-06 -1.80227e-06 -4.13856e-05
0.000878732 -4.69112e-05 1.11744e-06
-4.69112e-05 6.17411e-05 -1.09704e-07
1.11744e-06 -1.09704e-07 -2.33933e-05
0.000763145 1.54503e-06 4.98857e-07
1.54503e-06 2.15191e-06 -1.40687e-06
4.98857e-07 -1.40687e-06 -7.30445e-05
0.000957021 -8.71425e-05 -2.45728e-07
-8.71425e-05 0.000115517 8.86592e-07
-2.45728e-07 8.86592e-07 2.13779e-05
0.00113219 8.36901e-05 -8.71186e-06
8.36901e-05 1.59009e-05 -3.66837e-06
-8.71186e-06 -3.66837e-06 -8.01195e-05
0.000664363 -4.3649e-05 -2.59517e-06
-4.3649e-05 -3.77816e-05 -3.48783e-06
-2.59517e-06 -3.48783e-06 -5.25277e-05
0.000579554 -6.19927e-05 -1.25588e-06
-6.19927e-05 -6.65866e-05 -4.81822e-06
-1.25588e-06 -4.81822e-06 -9.4804e-05
0.000760106 -4.85825e-05 -1.95701e-07
-4.85825e-05 1.13561e-05 -2.47639e-06
-1.95701e-07 -2.47639e-06 -4.29653e-05
0.000928023 9.13586e-05 -5.24707e-06
9.13586e-05 2.85276e-06 -3.18613e-06
-5.24707e-06 -3.18613e-06 -8.73498e-05
0.00127777 0.000116626 -4.01057e-06
0.000116626 6.61661e-05 -2.1121e-06
-4.01057e-06 -2.1121e-06 -5.03941e-05
0.000760114 2.49798e-05 -2.15239e-06
2.49798e-05 1.53699e-05 -2.10086e-06
-2.15239e-06 -2.10086e-06 -6.04385e-05
0.000984927 0.000104377 -2.25219e-06
0.000104377 0.000103209 -1.36744e-06
-2.25219e-06 -1.36744e-06 -1.23861e-06
0.00121028 0.000121168 -1.7938e-06
0.000121168 0.000148319 -7.20016e-07
-1.7938e-06 -7.20016e-07 4.31215e-05
0.000802172 0.000110635 -1.68422e-06
0.000110635 -3.90318e-05 9.81924e-07
-1.68422e-06 9.81924e-07 -0.000152403
0.000710405 -3.99297e-05 8.75782e-08
-3.99297e-05 -2.26193e-05 3.3759e-08
8.75782e-08 3.3759e-08 -3.34702e-05
0.000775345 8.90703e-06 8.6835e-08
8.90703e-06 2.02027e-05 -4.43703e-08
8.6835e-08 -4.43703e-08 -4.63752e-05
0.000745125 -4.57469e-05 -1.64531e-07
-4.57469e-05 -1.35224e-06 2.82768e-07
-1.64531e-07 2.82768e-07 -4.55065e-05
0.000862249 9.75144e-06 2.82067e-07
9.75144e-06 6.51281e-05 -2.04468e-07
2.82067e-07 -2.04468e-07 -1.30248e-05
0.00137156 9.97409e-05 1.01878e-06
9.97409e-05 6.37402e-05 1.01148e-07
1.01878e-06 1.01148e-07 -5.12152e-05
0.00115877 0.000119631 8.55685e-08
0.000119631 6.99017e-05 5.46019e-08
8.55685e-08 5.46019e-08 -4.16846e-05
0.00139975 0.000126614 7.8153e-08
0.000126614 8.38053e-05 5.29248e-07
7.8153e-08 5.29248e-07 -4.23997e-05
0.000991413 8.02224e-05 3.61323e-07
8.02224e-05 0.000122172 2.77279e-07
3.61323e-07 2.77279e-07 2.62434e-05
0.0013725 0.000136781 -6.68738e-07
0.000136781 0.000206785 -1.17325e-06
-6.68738e-07 -1.17325e-06 9.36344e-05
0.00108122 0.000123302 2.45986e-07
0.000123302 0.000153841 -8.53139e-07
2.45986e-07 -8.53139e-07 3.09757e-05
0.000872012 0.000115962 -1.72654e-06
0.000115962 -2.03108e-05 -7.23451e-08
-1.72654e-06 -7.23451e-08 -0.000133783
0.000743081 -3.62592e-05 2.05717e-06
-3.62592e-05 -1.35119e-05 3.31136e-06
2.05717e-06 3.31136e-06 -2.13661e-05
0.000759562 -4.06137e-05 7.71722e-07
-4.06137e-05 -5.81599e-07 1.81348e-06
7.71722e-07 1.81348e-06 -3.78504e-05
0.00098254 4.12013e-05 1.35189e-06
4.12013e-05 0.000122693 5.90125e-07
1.35189e-06 5.90125e-07 3.56561e-05
0.000822531 7.53191e-06 4.20164e-07
7.53191e-06 3.91731e-05 1.17065e-06
4.20164e-07 1.17065e-06 -2.79737e-05
0.000912331 6.98796e-05 7.8415e-07
6.98796e-05 0.000103028 -1.5636e-07
7.8415e-07 -1.5636e-07 9.24509e-06
0.00146854 0.000103314 3.0869e-06
0.000103314 6.45415e-05 2.80494e-07
3.0869e-06 2.80494e-07 -5.64075e-05
0.00126967 0.000132137 7.45648e-07
0.000132137 8.98719e-05 2.3821e-06
7.45648e-07 2.3821e-06 -3.13001e-05
0.00152519 0.000135104 -4.47948e-07
0.000135104 0.000120337 1.83735e-06
-4.47948e-07 1.83735e-06 -9.25565e-06
0.00113805 0.00012079 2.85944e-06
0.00012079 0.000211242 2.77851e-06
2.85944e-06 2.77851e-06 9.24407e-05
0.00120961 0.000135671 1.00117e-06
0.000135671 9.85891e-05 6.75462e-07
1.00117e-06 6.75462e-07 -1.75644e-05
0.000307602 8.78173e-05 1.5065e-06
8.78173e-05 -0.0002813 -2.35985e-06
1.5065e-06 -2.35985e-06 -0.000411732
0.000792102 -2.58628e-05 1.31064e-06
-2.58628e-05 5.29139e-06 1.58998e-06
1.31064e-06 1.58998e-06 -2.50485e-05
0.0008113 2.34754e-06 4.41637e-07
2.34754e-06 2.24137e-05 6.15522e-07
4.41637e-07 6.15522e-07 -2.53286e-05
0.000811607 -1.58945e-05 8.28998e-07
-1.58945e-05 8.10016e-06 1.68661e-06
8.28998e-07 1.68661e-06 -1.91336e-05
0.000800065 -2.03998e-05 1.36751e-07
-2.03998e-05 6.0108e-06 -1.19688e-09
1.36751e-07 -1.19688e-09 -2.26219e-05
0.00127335 -3.36875e-05 1.81207e-06
-3.36875e-05 0.000262383 2.00171e-06
1.81207e-06 2.00171e-06 0.000261972
0.00100574 -3.44976e-05 7.86818e-07
-3.44976e-05 0.000122834 -1.92633e-08
7.86818e-07 -1.92633e-08 0.000118977
0.000984738 -3.0389e-05 2.18863e-05
-3.0389e-05 0.000115809 6.10803e-06
2.18863e-05 6.10803e-06 0.00012791
0.00208882 -5.10948e-05 1.13611e-06
-5.10948e-05 0.000725775 -8.61369e-08
1.13611e-06 -8.61369e-08 0.000741666
0.0021232 -5.76205e-05 -2.79466e-05
-5.76205e-05 0.000752017 -3.21835e-06
-2.79466e-05 -3.21835e-06 0.000765873
0.000687342 3.7588e-05 2.37859e-06
3.7588e-05 -3.85142e-05 -3.7117e-06
2.37859e-06 -3.7117e-06 -5.25543e-05
0.00239999 6.70428e-05 3.38781e-05
6.70428e-05 0.000905939 -3.29107e-06
3.38781e-05 -3.29107e-06 0.000916384
0.000689767 4.48696e-05 2.11665e-08
4.48696e-05 -2.86608e-05 4.82512e-08
2.11665e-08 4.82512e-08 -4.66053e-05
0.00257474 7.42029e-05 -1.04765e-06
7.42029e-05 0.00100688 -1.20692e-07
-1.04765e-06 -1.20692e-07 0.00101479
0.000678797 5.89897e-05 -1.47146e-07
5.89897e-05 -2.2549e-05 4.91115e-06
-1.47146e-07 4.91115e-06 -4.7124e-05
0.00277074 8.09377e-05 -4.94049e-05
8.09377e-05 0.00111672 3.14011e-06
-4.94049e-05 3.14011e-06 0.00112206
0.00117665 7.03844e-05 -9.05932e-06
7.03844e-05 1.79815e-05 -2.73468e-06
-9.05932e-06 -2.73468e-06 -7.71663e-05
0.00120348 3.89867e-05 -8.71657e-06
3.89867e-05 1.37317e-05 -1.8456e-06
-8.71657e-06 -1.8456e-06 -8.12024e-05
0.00145165 6.09087e-05 -3.9924e-06
6.09087e-05 7.13681e-05 -8.90544e-07
-3.9924e-06 -8.90544e-07 -3.79923e-05
0.00152131 2.31042e-05 -4.2459e-06
2.31042e-05 8.21703e-05 -1.00856e-06
-4.2459e-06 -1.00856e-06 -3.03347e-05
0.00125632 1.48505e-05 -9.43242e-06
1.48505e-05 1.35967e-05 -1.21506e-06
-9.43242e-06 -1.21506e-06 -8.59447e-05
0.000740891 6.99428e-06 -1.43085e-05
6.99428e-06 -9.8969e-05 -1.66211e-07
-1.43085e-05 -1.66211e-07 -0.000158962
0.0012576 1.29155e-06 7.17813e-09
1.29155e-06 1.09828e-05 -9.59745e-08
7.17813e-09 -9.59745e-08 -8.89475e-05
0.00153043 1.73796e-05 -3.95653e-08
1.73796e-05 7.35301e-05 -3.97358e-07
-3.95653e-08 -3.97358e-07 -4.14383e-05
0.00147806 3.85755e-05 9.31942e-08
3.85755e-05 7.43794e-05 3.45826e-09
9.31942e-08 3.45826e-09 -3.55973e-05
0.00161413 2.07025e-05 -1.01022e-07
2.07025e-05 8.62798e-05 1.32794e-07
-1.01022e-07 1.32794e-07 -2.73696e-05
0.00142312 8.08286e-05 -1.62561e-07
8.08286e-05 6.59739e-05 6.49704e-08
-1.62561e-07 6.49704e-08 -4.50374e-05
0.00158748 6.4974e-05 9.93944e-09
6.4974e-05 9.4089e-05 6.44718e-08
9.93944e-09 6.44718e-08 -1.78364e-05
0.00152962 6.05217e-06 4.53564e-06
6.05217e-06 7.00309e-05 -2.54372e-07
4.53564e-06 -2.54372e-07 -4.51199e-05
0.00159367 1.6104e-05 8.91467e-07
1.6104e-05 5.94251e-05 3.86905e-07
8.91467e-07 3.86905e-07 -5.64728e-05
0.00157959 4.22757e-05 1.43103e-06
4.22757e-05 8.01823e-05 2.86247e-07
1.43103e-06 2.86247e-07 -3.25861e-05
0.00181981 1.84153e-05 3.15532e-07
1.84153e-05 0.000163868 1.87111e-07
3.15532e-07 1.87111e-07 5.41945e-05
0.00155263 8.12898e-05 1.20185e-06
8.12898e-05 8.47431e-05 1.43337e-07
1.20185e-06 1.43337e-07 -2.90346e-05
0.00173636 5.69836e-05 -1.57653e-06
5.69836e-05 0.000138888 3.06449e-07
-1.57653e-06 3.06449e-07 3.18966e-05
0.000851349 2.78672e-07 -9.117e-06
2.78672e-07 -0.000198856 6.94624e-07
-9.117e-06 6.94624e-07 -0.000300183
0.00161403 -3.53903e-05 -1.39208e-05
-3.53903e-05 0.000245587 1.92147e-06
-1.39208e-05 1.92147e-06 0.000158078
0.00167071 -7.24246e-06 -6.60459e-06
-7.24246e-06 0.00017079 1.64693e-06
-6.60459e-06 1.64693e-06 6.09146e-05
0.00187421 -6.82329e-05 -4.20057e-06
-6.82329e-05 0.000302152 4.71945e-07
-4.20057e-06 4.71945e-07 0.000198925
0.00065606 4.18069e-05 -4.09519e-06
4.18069e-05 -2.61041e-05 4.87912e-06
-4.09519e-06 4.87912e-06 -6.03648e-05
0.000889753 -4.81434e-05 -3.35109e-06
-4.81434e-05 8.18908e-05 1.77162e-06
-3.35109e-06 1.77162e-06 4.50885e-06
0.000872074 -0.000102296 -7.09892e-07
-0.000102296 3.55312e-05 3.19317e-07
-7.09892e-07 3.19317e-07 -6.64206e-05
0.00185104 -0.000116546 -5.65423e-06
-0.000116546 0.00033363 1.64633e-06
-5.65423e-06 1.64633e-06 0.000223274
0.00140102 -8.07757e-05 -2.02534e-06
-8.07757e-05 1.65505e-06 -4.33218e-08
-2.02534e-06 -4.33218e-08 -0.000108602
0.00136973 -0.000119158 -1.79627e-06
-0.000119158 7.69388e-05 8.6783e-07
-1.79627e-06 8.6783e-07 -4.27509e-05
0.00106734 -0.000123755 -2.05194e-06
-0.000123755 4.57173e-05 1.44811e-06
-2.05194e-06 1.44811e-06 -8.00699e-05
0.00115999 -0.000123889 1.59122e-06
-0.000123889 -5.45024e-06 -7.65433e-08
1.59122e-06 -7.65433e-08 -0.000127629
0.00073319 -5.60358e-06 -2.43496e-06
-5.60358e-06 -8.15083e-06 2.16784e-06
-2.43496e-06 2.16784e-06 -7.51714e-05
0.000775111 4.79247e-07 -1.07043e-06
4.79247e-07 8.26598e-06 3.80455e-07
-1.07043e-06 3.80455e-07 -7.20702e-05
0.000737934 2.88886e-05 -8.24045e-07
2.88886e-05 -1.26281e-05 2.22312e-06
-8.24045e-07 2.22312e-06 -6.11758e-05
0.0017264 1.44963e-06 -2.00482e-06
1.44963e-06 0.000183427 1.35676e-07
-2.00482e-06 1.35676e-07 7.06952e-05
0.00163064 -3.99477e-05 -1.00393e-06
-3.99477e-05 0.000167949 3.45464e-08
-1.00393e-06 3.45464e-08 6.26566e-05
0.00166726 -9.9215e-06 -7.44411e-07
-9.9215e-06 0.000123494 4.17613e-07
-7.44411e-07 4.17613e-07 8.78929e-06
0.00170741 -5.66883e-05 1.36055e-07
-5.66883e-05 0.000158249 -4.67848e-08
1.36055e-07 -4.67848e-08 5.04055e-05
0.000795558 -2.55288e-05 1.70213e-07
-2.55288e-05 3.16761e-05 -2.33723e-07
1.70213e-07 -2.33723e-07 -4.29014e-05
0.000999077 -0.000102943 -2.01386e-07
-0.000102943 0.000119766 3.57394e-07
-2.01386e-07 3.57394e-07 2.42923e-05
0.000805598 -0.00010982 6.68652e-07
-0.00010982 -1.5888e-05 -1.11714e-06
6.68652e-07 -1.11714e-06 -0.000135098
0.00156141 -0.000113463 4.05217e-07
-0.000113463 0.000123154 -4.20667e-07
4.05217e-07 -4.20667e-07 6.4446e-06
0.0016672 -8.04826e-05 -4.45298e-08
-8.04826e-05 0.000106696 1.03623e-07
-4.45298e-08 1.03623e-07 -3.45795e-07
0.00129195 -0.000142645 -1.16349e-07
-0.000142645 0.000136189 3.64799e-07
-1.16349e-07 3.64799e-07 2.02243e-06
0.00145688 -0.000124257 -2.11385e-07
-0.000124257 8.14156e-05 2.39259e-08
-2.11385e-07 2.39259e-08 -3.76093e-05
0.00168492 -0.000149582 1.20226e-06
-0.000149582 0.000241967 9.59466e-07
1.20226e-06 9.59466e-07 0.000126049
0.000924694 -5.20739e-05 -2.62268e-07
-5.20739e-05 8.81763e-05 -1.9881e-07
-2.62268e-07 -1.9881e-07 1.95457e-06
0.000933665 -8.82768e-05 -2.97912e-07
-8.82768e-05 0.000103279 3.74509e-07
-2.97912e-07 3.74509e-07 7.77346e-06
0.000769013 2.7385e-05 1.68335e-07
2.7385e-05 -4.08309e-07 8.70746e-08
1.68335e-07 8.70746e-08 -4.31302e-05
0.000754871 2.14718e-05 -1.47612e-07
2.14718e-05 -5.81285e-06 -4.93263e-07
-1.47612e-07 -4.93263e-07 -7.75942e-05
0.00166768 -2.84922e-07 1.67427e-06
-2.84922e-07 0.000108615 -5.5892e-07
1.67427e-06 -5.5892e-07 -7.97204e-06
0.00173491 -3.4501e-05 1.03954e-06
-3.4501e-05 0.000175691 -1.19519e-07
1.03954e-06 -1.19519e-07 6.55008e-05
0.00176828 -9.81159e-06 3.84591e-07
-9.81159e-06 0.000149727 -7.65091e-08
3.84591e-07 -7.65091e-08 3.74099e-05
0.00157983 -4.84769e-05 -1.76571e-07
-4.84769e-05 5.626e-05 -1.54382e-07
-1.76571e-07 -1.54382e-07 -4.86066e-05
0.00148291 -0.00010758 -1.22038e-06
-0.00010758 3.24006e-05 -1.41442e-07
-1.22038e-06 -1.41442e-07 -8.20393e-05
0.00176132 -7.65672e-05 3.6e-07
-7.65672e-05 0.000136122 4.94901e-07
3.6e-07 4.94901e-07 3.14367e-05
0.000898651 -9.30072e-05 1.29173e-06
-9.30072e-05 7.2269e-05 2.93333e-07
1.29173e-06 2.93333e-07 -1.73224e-05
0.00135274 -0.00012291 -3.6121e-06
-0.00012291 7.53201e-07 -1.62952e-07
-3.6121e-06 -1.62952e-07 -0.000107542
0.000612806 -9.37259e-05 -1.22053e-07
-9.37259e-05 -8.19958e-05 -1.36566e-06
-1.22053e-07 -1.36566e-06 -0.000190261
0.00112484 -0.00013512 2.25552e-06
-0.00013512 0.000129208 -1.68642e-06
2.25552e-06 -1.68642e-06 -6.73132e-06
0.00140131 -0.000155783 1.4003e-06
-0.000155783 0.000167927 2.80887e-06
1.4003e-06 2.80887e-06 2.9556e-05
0.00218129 -0.000172556 -6.3333e-07
-0.000172556 0.000479442 1.25385e-06
-6.3333e-07 1.25385e-06 0.000363308
0.000781939 2.16907e-05 1.66185e-06
2.16907e-05 2.50118e-06 -1.78793e-06
1.66185e-06 -1.78793e-06 -3.68516e-05
0.000725631 7.89534e-06 4.58874e-07
7.89534e-06 -1.90796e-05 -1.29231e-06
4.58874e-07 -1.29231e-06 -8.75943e-05
0.000939848 -0.000104957 2.10818e-07
-0.000104957 0.00010305 1.1577e-06
2.10818e-07 1.1577e-06 5.19362e-06
0.000952682 -6.46043e-05 8.86693e-07
-6.46043e-05 0.000110273 -1.14397e-07
8.86693e-07 -1.14397e-07 2.40475e-05
0.000926926 -0.000104055 -7.02281e-07
-0.000104055 0.000103439 1.82121e-06
-7.02281e-07 1.82121e-06 2.92164e-06
0.000684858 -3.87866e-05 -2.34614e-06
-3.87866e-05 -3.60578e-05 -3.36427e-06
-2.34614e-06 -3.36427e-06 -4.67419e-05
0.00139559 0.000101222 -3.39173e-06
0.000101222 7.59898e-05 -1.15788e-06
-3.39173e-06 -1.15788e-06 -3.92519e-05
0.000754478 -4.84243e-05 -7.09147e-07
-4.84243e-05 3.7654e-06 -1.83397e-06
-7.09147e-07 -1.83397e-06 -4.04646e-05
0.000817744 -7.61345e-06 -7.19017e-07
-7.61345e-06 4.3157e-05 -2.4368e-06
-7.19017e-07 -2.4368e-06 -2.26605e-05
0.000872048 -2.75613e-06 3.17675e-07
-2.75613e-06 6.92145e-05 -9.21085e-07
3.17675e-07 -9.21085e-07 -7.83074e-06
0.00113324 0.000119363 -3.024e-06
0.000119363 5.80681e-05 -2.13414e-06
-3.024e-06 -2.13414e-06 -5.35583e-05
0.00139541 0.000126544 -1.72186e-06
0.000126544 8.19125e-05 -1.06488e-06
-1.72186e-06 -1.06488e-06 -4.43603e-05
0.000921674 9.39953e-05 -1.41589e-06
9.39953e-05 8.80148e-05 -6.54967e-07
-1.41589e-06 -6.54967e-07 -8.64352e-06
0.00112059 0.000126009 -2.10605e-06
0.000126009 0.000174384 -1.21558e-06
-2.10605e-06 -1.21558e-06 5.05511e-05
0.00156486 0.000145929 -1.39682e-06
0.000145929 0.000309532 -1.93228e-06
-1.39682e-06 -1.93228e-06 0.000196168
0.00103772 0.000124465 -3.06673e-06
0.000124465 7.10383e-05 2.01877e-06
-3.06673e-06 2.01877e-06 -3.9731e-05
0.000719883 -3.53543e-05 8.94229e-08
-3.53543e-05 -2.57648e-05 2.77899e-08
8.94229e-08 2.77899e-08 -3.35043e-05
0.000766112 -4.0547e-05 -1.54871e-07
-4.0547e-05 2.79648e-06 8.99424e-08
-1.54871e-07 8.99424e-08 -3.43634e-05
0.000933733 4.76294e-05 4.56474e-07
4.76294e-05 9.78253e-05 -7.50668e-08
4.56474e-07 -7.50668e-08 1.05391e-05
0.000831916 -1.33829e-05 -1.13743e-07
-1.33829e-05 4.28123e-05 1.09162e-07
-1.13743e-07 1.09162e-07 -2.30506e-05
0.000879701 5.49276e-05 4.64705e-07
5.49276e-05 8.32222e-05 -2.39361e-07
4.64705e-07 -2.39361e-07 -9.97962e-06
0.00149639 0.00010465 1.2845e-06
0.00010465 7.88249e-05 2.43097e-07
1.2845e-06 2.43097e-07 -4.24909e-05
0.00126653 0.000132748 5.22777e-08
0.000132748 8.88617e-05 2.17952e-07
5.22777e-08 2.17952e-07 -3.23435e-05
0.00148834 0.00013504 8.89551e-07
0.00013504 0.000101841 8.83029e-07
8.89551e-07 8.83029e-07 -2.82413e-05
0.00102407 0.000114456 1.09556e-06
0.000114456 0.000152931 1.15828e-06
1.09556e-06 1.15828e-06 3.46541e-05
0.00135939 0.00014211 9.44273e-07
0.00014211 0.000179537 -1.18189e-06
9.44273e-07 -1.18189e-06 6.33798e-05
0.000818994 0.000115746 -1.71932e-06
0.000115746 -1.38972e-05 -9.42369e-07
-1.71932e-06 -9.42369e-07 -0.00014523
0.000781116 -3.19685e-05 1.2455e-06
-3.19685e-05 4.61427e-06 1.62999e-06
1.2455e-06 1.62999e-06 -2.83783e-05
0.000823603 -2.97441e-06 4.66247e-07
-2.97441e-06 3.15749e-05 1.01886e-06
4.66247e-07 1.01886e-06 -2.41208e-05
0.00106123 0.000109399 1.13592e-07
0.000109399 0.000178906 -4.79975e-09
1.13592e-07 -4.79975e-09 7.11414e-05
0.000882776 1.04144e-05 4.6581e-07
1.04144e-05 7.84945e-05 4.56576e-07
4.6581e-07 4.56576e-07 -2.07721e-06
0.00104668 5.46276e-05 -2.36561e-07
5.46276e-05 0.000173623 -1.66635e-06
-2.36561e-07 -1.66635e-06 7.14867e-05
0.00155317 0.000102709 -8.95577e-07
0.000102709 7.43667e-05 -1.40404e-06
-8.95577e-07 -1.40404e-06 -4.52529e-05
0.0013562 0.000144603 4.03741e-07
0.000144603 0.000104966 2.30864e-06
4.03741e-07 2.30864e-06 -2.01347e-05
0.00136568 0.000143424 -4.94136e-06
0.000143424 2.64211e-05 3.83322e-07
-4.94136e-06 3.83322e-07 -9.49667e-05
0.000872055 0.000111735 9.3238e-10
0.000111735 7.73299e-05 2.23753e-06
9.3238e-10 2.23753e-06 -6.06199e-05
0.00123966 0.000149434 3.40673e-06
0.000149434 0.000139942 -7.47498e-07
3.40673e-06 -7.47498e-07 6.63628e-06
0.000790486 -2.47737e-05 3.72484e-08
-2.47737e-05 4.80356e-06 1.8439e-09
3.72484e-08 1.8439e-09 -2.55656e-05
0.000674741 -1.86889e-05 7.44178e-07
-1.86889e-05 -5.29928e-05 1.24562e-06
7.44178e-07 1.24562e-06 -0.000100909
0.000758266 -1.95653e-05 -6.7522e-07
-1.95653e-05 -8.30819e-06 -2.36012e-08
-6.7522e-07 -2.36012e-08 -5.51993e-05
0.00101253 1.36928e-05 1.09799e-06
1.36928e-05 0.000138959 -1.91365e-07
1.09799e-06 -1.91365e-07 7.99151e-05
0.000834096 1.07278e-05 1.67051e-06
1.07278e-05 3.01172e-05 7.29783e-07
1.67051e-06 7.29783e-07 -1.5871e-05
0.000815176 -7.46407e-06 8.42581e-07
-7.46407e-06 6.87157e-06 1.68485e-06
8.42581e-07 1.68485e-06 -1.97684e-05
0.0008077 -1.63574e-05 -8.52135e-09
-1.63574e-05 6.21885e-06 1.99843e-08
-8.52135e-09 1.99843e-08 -2.10694e-05
0.00126788 -2.73487e-05 1.25967e-06
-2.73487e-05 0.000253346 1.98199e-06
1.25967e-06 1.98199e-06 0.000254778
0.000797694 -1.96129e-05 -1.10156e-06
-1.96129e-05 5.21635e-06 -1.72905e-06
-1.10156e-06 -1.72905e-06 -2.35209e-05
0.00128896 -3.17809e-05 -3.97675e-06
-3.17809e-05 0.000270325 -1.15144e-06
-3.97675e-06 -1.15144e-06 0.000270234
0.000978173 -2.57787e-05 1.87224e-05
-2.57787e-05 0.000103879 6.12042e-06
1.87224e-05 6.12042e-06 0.00011809
0.00127664 -3.5375e-05 -9.27062e-06
-3.5375e-05 0.000270709 -3.06933e-06
-9.27062e-06 -3.06933e-06 0.000268679
0.00149469 -3.74956e-05 1.70392e-05
-3.74956e-05 0.000394069 1.97668e-06
1.70392e-05 1.97668e-06 0.0004091
0.00207533 -5.08614e-05 -2.45798e-05
-5.08614e-05 0.000717241 -3.38304e-06
-2.45798e-05 -3.38304e-06 0.000733412
0.000696828 3.39113e-05 1.97291e-06
3.39113e-05 -4.02337e-05 -3.64644e-06
1.97291e-06 -3.64644e-06 -5.15991e-05
0.000703645 3.84876e-05 -1.22175e-07
3.84876e-05 -2.9703e-05 2.67884e-08
-1.22175e-07 2.67884e-08 -4.3923e-05
0.00232969 6.01064e-05 3.00292e-05
6.01064e-05 0.000860224 -3.48875e-06
3.00292e-05 -3.48875e-06 0.000872887
0.00243921 6.7132e-05 -9.84636e-07
6.7132e-05 0.000927633 -1.1103e-07
-9.84636e-07 -1.1103e-07 0.000937865
0.000707319 4.80744e-05 -1.53045e-06
4.80744e-05 -1.85256e-05 4.18551e-06
-1.53045e-06 4.18551e-06 -3.71032e-05
0.00260803 7.31426e-05 -4.40201e-05
7.31426e-05 0.00102459 3.18403e-06
-4.40201e-05 3.18403e-06 0.00103254
0.00143993 8.17667e-05 -4.37713e-06
8.17667e-05 7.40364e-05 -7.24173e-07
-4.37713e-06 -7.24173e-07 -3.70702e-05
0.00148183 3.93583e-05 -4.06418e-06
3.93583e-05 7.67281e-05 -9.42035e-07
-4.06418e-06 -9.42035e-07 -3.33814e-05
0.00157712 6.5254e-05 -1.05528e-06
6.5254e-05 8.89667e-05 -3.38392e-07
-1.05528e-06 -3.38392e-07 -2.29311e-05
0.00159801 2.02873e-05 -1.39583e-06
2.02873e-05 7.51907e-05 -3.92654e-07
-1.39583e-06 -3.92654e-07 -3.84502e-05
0.00154568 2.0774e-05 -4.19101e-06
2.0774e-05 8.15023e-05 -9.05394e-07
-4.19101e-06 -9.05394e-07 -3.35032e-05
0.00126628 6.16642e-06 -9.36246e-06
6.16642e-06 1.51407e-05 8.33394e-08
-9.36246e-06 8.33394e-08 -8.47665e-05
0.00153884 1.0156e-05 5.87016e-08
1.0156e-05 7.48479e-05 -5.16329e-08
5.87016e-08 -5.16329e-08 -4.03615e-05
0.00159593 7.60439e-06 -5.19286e-11
7.60439e-06 5.99418e-05 2.56603e-08
-5.19286e-11 2.56603e-08 -5.62742e-05
0.00160894 4.16211e-05 3.94498e-08
4.16211e-05 9.53077e-05 -8.15503e-08
3.94498e-08 -8.15503e-08 -1.74471e-05
0.00176548 1.86678e-05 -7.73643e-09
1.86678e-05 0.000135042 5.52409e-10
-7.73643e-09 5.52409e-10 2.60422e-05
0.00155647 8.24608e-05 -2.89591e-07
8.24608e-05 8.62975e-05 3.32293e-07
-2.89591e-07 3.32293e-07 -2.76397e-05
0.00163183 5.53861e-05 2.04824e-07
5.53861e-05 8.31392e-05 1.33727e-07
2.04824e-07 1.33727e-07 -2.32455e-05
0.00162892 6.69689e-08 1.87559e-06
6.69689e-08 7.81092e-05 -1.56619e-07
1.87559e-06 -1.56619e-07 -3.90016e-05
0.0017535 2.00441e-05 4.62503e-08
2.00441e-05 0.000111454 3.58825e-07
4.62503e-08 3.58825e-07 -1.19251e-06
0.0016243 3.35606e-05 -5.65606e-07
3.35606e-05 6.51004e-05 1.23007e-07
-5.65606e-07 1.23007e-07 -4.1948e-05
0.00182887 1.95428e-05 -2.30672e-08
1.95428e-05 0.000149377 9.3948e-08
-2.30672e-08 9.3948e-08 4.47505e-05
0.00167134 7.63602e-05 -1.56305e-06
7.63602e-05 0.000109758 -1.29091e-07
-1.56305e-06 -1.29091e-07 1.0228e-06
0.00171165 4.62647e-05 -2.89644e-07
4.62647e-05 0.000103746 3.44621e-08
-2.89644e-07 3.44621e-08 2.98994e-06
0.00152846 1.7576e-06 -6.1089e-06
1.7576e-06 7.61045e-05 7.83033e-07
-6.1089e-06 7.83033e-07 -3.83513e-05
0.00163187 -4.14779e-05 -5.54432e-06
-4.14779e-05 0.000167637 1.1457e-06
-5.54432e-06 1.1457e-06 6.24575e-05
0.00150454 -9.22121e-06 -2.23468e-06
-9.22121e-06 3.66048e-05 9.09088e-07
-2.23468e-06 9.09088e-07 -7.84593e-05
0.00181513 -5.64256e-05 -1.65123e-06
-5.64256e-05 0.000215008 8.25301e-08
-1.65123e-06 8.25301e-08 0.000107383
0.000815628 -3.02024e-05 -2.72741e-06
-3.02024e-05 4.0538e-05 1.81585e-06
-2.72741e-06 1.81585e-06 -3.37494e-05
0.00109738 -0.000108784 -1.69958e-06
-0.000108784 0.000170287 8.52868e-07
-1.69958e-06 8.52868e-07 7.40874e-05
0.000902649 -0.000113164 -5.33989e-07
-0.000113164 3.93489e-05 4.4019e-07
-5.33989e-07 4.4019e-07 -7.82471e-05
0.00176344 -0.000118812 -1.81336e-06
-0.000118812 0.000233074 5.76502e-08
-1.81336e-06 5.76502e-08 0.000116656
0.00153658 -7.69998e-05 3.07114e-09
-7.69998e-05 3.56371e-05 -5.79675e-07
3.07114e-09 -5.79675e-07 -7.09949e-05
0.00150062 -0.000124409 7.85288e-07
-0.000124409 0.000103089 7.1383e-07
7.85288e-07 7.1383e-07 -1.57675e-05
0.00100374 -0.000129119 -1.33539e-06
-0.000129119 -1.27083e-05 3.07513e-07
-1.33539e-06 3.07513e-07 -0.000147548
0.00144437 -0.000139628 3.69078e-06
-0.000139628 0.000114765 -2.11104e-06
3.69078e-06 -2.11104e-06 6.20548e-07
0.000943436 -4.28804e-05 -1.32316e-06
-4.28804e-05 9.75757e-05 -2.24523e-07
-1.32316e-06 -2.24523e-07 1.21648e-05
0.00091251 -6.4089e-05 -7.15605e-07
-6.4089e-05 8.61159e-05 -3.58347e-07
-7.15605e-07 -3.58347e-07 -6.70958e-06
0.000759512 2.50006e-05 -1.18233e-06
2.50006e-05 -5.43366e-06 1.94655e-06
-1.18233e-06 1.94655e-06 -4.81436e-05
0.000756584 3.5821e-05 -1.29151e-07
3.5821e-05 -6.57107e-06 3.68392e-07
-1.29151e-07 3.68392e-07 -7.63495e-05
0.00166248 3.50478e-07 -7.07422e-08
3.50478e-07 0.000105391 -1.39739e-07
-7.07422e-08 -1.39739e-07 -1.12342e-05
0.00176423 -3.207e-05 -7.00462e-07
-3.207e-05 0.000190205 3.09781e-07
-7.00462e-07 3.09781e-07 7.98754e-05
0.00168101 -9.69452e-06 -4.71322e-07
-9.69452e-06 0.00010517 3.53568e-07
-4.71322e-07 3.53568e-07 -6.73268e-06
0.00160883 -4.93188e-05 3.47937e-08
-4.93188e-05 7.41298e-05 -1.93182e-08
3.47937e-08 -1.93182e-08 -3.08412e-05
0.000970568 -7.93143e-05 -2.70745e-07
-7.93143e-05 0.000107632 1.45572e-07
-2.70745e-07 1.45572e-07 1.9182e-05
0.000720389 -9.84512e-05 5.59739e-07
-9.84512e-05 -2.44151e-05 -5.77835e-07
5.59739e-07 -5.77835e-07 -0.00013122
0.00113087 -0.000134464 9.40032e-08
-0.000134464 0.000134642 -1.25958e-07
9.40032e-08 -1.25958e-07 -1.76297e-06
0.00163602 -0.000111718 -4.6004e-07
-0.000111718 0.000114124 -3.43493e-07
-4.6004e-07 -3.43493e-07 -6.18748e-07
0.00168381 -7.52091e-05 1.44225e-07
-7.52091e-05 9.2476e-05 -3.31218e-07
1.44225e-07 -3.31218e-07 -1.15755e-05
0.00137143 -0.000152823 -3.70488e-07
-0.000152823 0.000153452 7.62028e-07
-3.70488e-07 7.62028e-07 1.43017e-05
0.00149272 -0.000126787 -4.96318e-07
-0.000126787 7.19256e-05 7.55999e-07
-4.96318e-07 7.55999e-07 -3.65554e-05
0.0017024 -0.000153126 1.47994e-06
-0.000153126 0.000230899 -1.49589e-06
1.47994e-06 -1.49589e-06 0.000119362
0.00100057 -0.00010839 4.41815e-08
-0.00010839 0.000134531 -3.12012e-08
4.41815e-08 -3.12012e-08 3.64843e-05
0.000959439 -9.81597e-05 1.28421e-07
-9.81597e-05 0.000118341 2.03846e-07
1.28421e-07 2.03846e-07 1.88295e-05
0.000924293 -4.02758e-05 -2.74569e-07
-4.02758e-05 9.30546e-05 -5.99837e-08
-2.74569e-07 -5.99837e-08 8.52026e-06
0.000662721 2.6907e-05 -2.15632e-07
2.6907e-05 -6.13817e-05 1.17551e-08
-2.15632e-07 1.17551e-08 -0.000101904
0.000737415 2.47785e-05 9.15832e-08
2.47785e-05 -1.64266e-05 -3.36025e-07
9.15832e-08 -3.36025e-07 -8.19927e-05
0.00170267 -1.68319e-06 7.65925e-07
-1.68319e-06 9.26858e-05 -3.56318e-07
7.65925e-07 -3.56318e-07 -1.99758e-05
0.00166003 -1.90318e-05 4.72748e-07
-1.90318e-05 8.99856e-05 -2.25487e-07
4.72748e-07 -2.25487e-07 -1.88472e-05
0.00162985 -5.26745e-05 5.94917e-07
-5.26745e-05 6.03502e-05 3.4326e-08
5.94917e-07 3.4326e-08 -3.90378e-05
0.00141012 -9.3709e-05 -6.02431e-07
-9.3709e-05 -3.68835e-05 -1.14997e-06
-6.02431e-07 -1.14997e-06 -0.000143479
0.000908001 -0.000105293 -1.39047e-07
-0.000105293 8.21115e-05 1.03844e-06
-1.39047e-07 1.03844e-06 -1.73652e-05
0.00195707 -0.000151588 -1.07053e-06
-0.000151588 0.00027111 -3.63583e-07
-1.07053e-06 -3.63583e-07 0.000168477
0.000232301 -7.60444e-05 1.15978e-07
-7.60444e-05 -0.000278401 -3.04077e-06
1.15978e-07 -3.04077e-06 -0.000395473
0.00124943 -0.000150622 3.21439e-06
-0.000150622 0.000171703 -9.88585e-07
3.21439e-06 -9.88585e-07 1.82019e-05
0.00171864 -0.000173758 1.97712e-06
-0.000173758 0.000291515 2.48483e-06
1.97712e-06 2.48483e-06 0.000150031
0.000560061 2.16212e-05 1.27984e-06
2.16212e-05 -0.000119684 -2.49893e-06
1.27984e-06 -2.49893e-06 -0.000158576
0.000931925 1.36303e-06 1.39673e-06
1.36303e-06 9.04533e-05 -7.26176e-07
1.39673e-06 -7.26176e-07 2.88727e-05
0.000957737 -2.93415e-05 1.93323e-08
-2.93415e-05 0.000108565 -1.54823e-07
1.93323e-08 -1.54823e-07 3.24549e-05
0.000949955 -0.000105908 -6.91191e-07
-0.000105908 0.000109113 1.99799e-06
-6.91191e-07 1.99799e-06 9.55917e-06
0.00104381 -6.57538e-05 3.21561e-07
-6.57538e-05 0.000160103 1.10015e-06
3.21561e-07 1.10015e-06 6.6937e-05
0.000898109 -0.000102588 -3.65548e-07
-0.000102588 8.10027e-05 1.67943e-06
-3.65548e-07 1.67943e-06 -2.0208e-05
0.000697901 -3.4544e-05 -1.94565e-06
-3.4544e-05 -3.73431e-05 -3.34389e-06
-1.94565e-06 -3.34389e-06 -4.49798e-05
0.000771512 -3.91798e-05 -1.4531e-06
-3.91798e-05 5.33151e-06 -1.50074e-06
-1.4531e-06 -1.50074e-06 -3.15684e-05
0.00152981 0.000106238 -8.93417e-07
0.000106238 9.59466e-05 1.14871e-07
-8.93417e-07 1.14871e-07 -2.57404e-05
0.000852342 -3.62515e-05 2.55629e-07
-3.62515e-05 5.22687e-05 -1.04135e-06
2.55629e-07 -1.04135e-06 -1.23372e-05
0.00085253 4.22434e-05 -5.49856e-07
4.22434e-05 5.32752e-05 -3.83341e-07
-5.49856e-07 -3.83341e-07 -3.22793e-05
0.000846218 4.16238e-05 4.97162e-07
4.16238e-05 6.27523e-05 5.93494e-08
4.97162e-07 5.93494e-08 -2.97562e-05
0.00126158 0.000133205 -1.2321e-06
0.000133205 8.68951e-05 -2.1064e-06
-1.2321e-06 -2.1064e-06 -3.43241e-05
0.00144565 0.000134658 7.5778e-07
0.000134658 8.03896e-05 -2.90261e-07
7.5778e-07 -2.90261e-07 -5.01596e-05
0.000909465 0.000107997 -2.21253e-07
0.000107997 9.37718e-05 -4.23803e-07
-2.21253e-07 -4.23803e-07 -2.3884e-05
0.00130273 0.00014186 -1.27879e-06
0.00014186 0.000238538 1.29941e-06
-1.27879e-06 1.29941e-06 0.000106545
0.00151083 0.000148694 -2.1845e-06
0.000148694 0.000261469 -2.03394e-06
-2.1845e-06 -2.03394e-06 0.000145284
0.000782009 -3.10764e-05 -1.5404e-08
-3.10764e-05 5.3597e-06 2.38113e-08
-1.5404e-08 2.38113e-08 -2.76044e-05
0.000825308 -2.38152e-05 -2.82671e-07
-2.38152e-05 3.1983e-05 2.16497e-07
-2.82671e-07 2.16497e-07 -2.33361e-05
0.000998638 0.000106015 -5.04213e-07
0.000106015 0.000146579 -2.10988e-07
-5.04213e-07 -2.10988e-07 3.96657e-05
0.000874516 4.8301e-07 2.44701e-07
4.8301e-07 7.12022e-05 -2.96554e-10
2.44701e-07 -2.96554e-10 -7.59506e-06
0.000939844 6.39285e-05 1.10089e-07
6.39285e-05 0.000119497 -7.56879e-07
1.10089e-07 -7.56879e-07 1.50727e-05
0.00156346 0.000105502 -6.65764e-07
0.000105502 8.06588e-05 -5.84798e-07
-6.65764e-07 -5.84798e-07 -3.95693e-05
0.00136337 0.000144819 9.56612e-07
0.000144819 0.000108611 1.88648e-07
9.56612e-07 1.88648e-07 -1.6684e-05
0.00144469 0.000144494 9.26047e-07
0.000144494 6.36541e-05 1.85397e-06
9.26047e-07 1.85397e-06 -5.49884e-05
0.000792386 0.000107554 8.00266e-07
0.000107554 3.60294e-05 1.85869e-06
8.00266e-07 1.85869e-06 -0.000100675
0.00127068 0.000150818 -6.84427e-07
0.000150818 0.00015752 -1.16209e-06
-6.84427e-07 -1.16209e-06 2.07956e-05
0.000819683 -7.05607e-06 7.33389e-07
-7.05607e-06 2.67495e-05 8.0051e-07
7.33389e-07 8.0051e-07 -2.25669e-05
0.000746853 -1.99411e-05 -4.60654e-07
-1.99411e-05 -4.11053e-06 1.25807e-06
-4.60654e-07 1.25807e-06 -7.38398e-05
0.000992398 0.000111272 -1.03801e-06
0.000111272 0.000151345 -1.27769e-06
-1.03801e-06 -1.27769e-06 2.77209e-05
0.000774899 2.54401e-05 -2.47024e-07
2.54401e-05 2.55383e-05 -1.53335e-07
-2.47024e-07 -1.53335e-07 -6.98936e-05
0.00105631 8.33636e-05 -6.10021e-07
8.33636e-05 0.000175805 -2.01073e-06
-6.10021e-07 -2.01073e-06 6.37456e-05
0.00160779 0.000103677 -2.42841e-06
0.000103677 5.2122e-05 3.12686e-07
-2.42841e-06 3.12686e-07 -4.8304e-05
0.00181497 0.000181987 -1.35729e-06
0.000181987 0.000330466 -3.8256e-07
-1.35729e-06 -3.8256e-07 0.000196984
0.000844637 0.000126859 -4.92417e-07
0.000126859 -0.000293683 -2.60306e-07
-4.92417e-07 -2.60306e-07 -0.000403176
0.00180102 0.000165837 3.50944e-06
0.000165837 0.00054898 3.00995e-06
3.50944e-06 3.00995e-06 0.000397656
0.000202288 0.000104436 -5.735e-07
0.000104436 -0.000402556 -5.81393e-07
-5.735e-07 -5.81393e-07 -0.00055189
0.000791041 -2.29941e-05 -1.47627e-06
-2.29941e-05 5.49419e-06 -1.57338e-06
-1.47627e-06 -1.57338e-06 -2.48876e-05
0.000757596 -1.32371e-05 1.48295e-07
-1.32371e-05 -7.91577e-06 5.1387e-07
1.48295e-07 5.1387e-07 -5.57154e-05
0.000753853 -3.4832e-05 -4.18074e-08
-3.4832e-05 -5.29926e-06 8.73746e-07
-4.18074e-08 8.73746e-07 -6.49406e-05
0.000709749 -3.61668e-05 -8.26282e-07
-3.61668e-05 -3.48535e-05 -5.20318e-07
-8.26282e-07 -5.20318e-07 -8.19597e-05
0.000837375 -5.73012e-06 2.10854e-07
-5.73012e-06 3.17405e-05 -3.1676e-08
2.10854e-07 -3.1676e-08 -1.40825e-05
0.000868508 -2.05683e-05 2.19165e-07
-2.05683e-05 5.74799e-05 -3.6963e-07
2.19165e-07 -3.6963e-07 6.7019e-07
0.000970784 6.06653e-06 1.1116e-07
6.06653e-06 0.000118028 -4.97258e-07
1.1116e-07 -4.97258e-07 5.40979e-05
0.000772866 -3.65435e-05 2.34605e-07
-3.65435e-05 8.08201e-06 1.94397e-07
2.34605e-07 1.94397e-07 -4.95949e-05
0.000861691 -1.05314e-05 3.22096e-07
-1.05314e-05 3.98216e-05 6.35785e-07
3.22096e-07 6.35785e-07 -4.13131e-06
0.000806455 -2.41321e-07 8.57134e-07
-2.41321e-07 1.13821e-06 1.5523e-06
8.57134e-07 1.5523e-06 -2.58439e-05
0.000809426 -1.14245e-05 -1.52087e-07
-1.14245e-05 3.99388e-06 1.22257e-08
-1.52087e-07 1.22257e-08 -2.2713e-05
0.0012681 -2.03268e-05 1.1179e-06
-2.03268e-05 0.000248798 1.92013e-06
1.1179e-06 1.92013e-06 0.000251182
0.000803301 -1.66531e-05 -7.9008e-07
-1.66531e-05 4.05451e-06 -1.73952e-06
-7.9008e-07 -1.73952e-06 -2.3279e-05
0.00128517 -2.56226e-05 -3.3319e-06
-2.56226e-05 0.00026244 -1.15361e-06
-3.3319e-06 -1.15361e-06 0.000264021
0.00097472 -2.13223e-05 1.50988e-05
-2.13223e-05 9.60329e-05 6.13895e-06
1.50988e-05 6.13895e-06 0.000111692
0.00130333 -3.03844e-05 -7.87507e-06
-3.03844e-05 0.000277635 -4.32717e-06
-7.87507e-06 -4.32717e-06 0.000277754
0.000922859 -2.70499e-05 6.1393e-06
-2.70499e-05 7.40411e-05 2.34019e-06
6.1393e-06 2.34019e-06 8.80018e-05
0.0019961 -4.87246e-05 -6.17479e-06
-4.87246e-05 0.000667574 -1.50396e-06
-6.17479e-06 -1.50396e-06 0.00068497
0.000709338 3.02598e-05 1.44277e-06
3.02598e-05 -3.9713e-05 -3.58043e-06
1.44277e-06 -3.58043e-06 -4.85926e-05
0.000712127 3.44301e-05 -1.32887e-07
3.44301e-05 -3.21043e-05 1.91657e-08
-1.32887e-07 1.91657e-08 -4.35664e-05
0.00227525 5.31248e-05 2.62087e-05
5.31248e-05 0.000823357 -3.66599e-06
2.62087e-05 -3.66599e-06 0.000838065
0.00072134 3.96093e-05 -2.43816e-06
3.96093e-05 -2.00575e-05 3.764e-06
-2.43816e-06 3.764e-06 -3.44886e-05
0.00234788 6.00834e-05 -1.21095e-06
6.00834e-05 0.000870958 -1.01709e-07
-1.21095e-06 -1.01709e-07 0.000883429
0.00247143 6.65539e-05 -3.81112e-05
6.65539e-05 0.000945429 3.26337e-06
-3.81112e-05 3.26337e-06 0.000955591
0.00156105 8.35654e-05 -2.03486e-06
8.35654e-05 8.82451e-05 5.09326e-07
-2.03486e-06 5.09326e-07 -2.58492e-05
0.00163894 4.01233e-05 -1.2061e-06
4.01233e-05 0.000110815 -4.50855e-07
-1.2061e-06 -4.50855e-07 -1.89178e-06
0.00152199 5.3706e-05 1.63485e-06
5.3706e-05 2.48244e-05 -4.43483e-07
1.63485e-06 -4.43483e-07 -8.09878e-05
0.00171261 1.88858e-05 1.1692e-07
1.88858e-05 0.000107003 -1.35249e-07
1.1692e-07 -1.35249e-07 -1.31512e-06
0.00159781 2.27097e-06 -1.20278e-06
2.27097e-06 6.02966e-05 -4.45026e-07
-1.20278e-06 -4.45026e-07 -5.62657e-05
0.00154543 1.34825e-05 -4.19553e-06
1.34825e-05 7.82792e-05 1.8319e-07
-4.19553e-06 1.8319e-07 -3.69552e-05
0.00164345 3.53995e-06 6.67591e-08
3.53995e-06 8.56603e-05 -7.35378e-08
6.67591e-08 -7.35378e-08 -3.17885e-05
0.00176307 1.529e-05 2.44097e-07
1.529e-05 0.000118004 -5.22969e-08
2.44097e-07 -5.22969e-08 5.10575e-06
0.00162756 3.1575e-05 -4.36403e-07
3.1575e-05 6.78167e-05 -1.11121e-07
-4.36403e-07 -1.11121e-07 -4.01109e-05
0.00176723 2.03035e-05 4.4087e-07
2.03035e-05 0.000114072 -2.81372e-07
4.4087e-07 -2.81372e-07 9.97502e-06
0.00161517 7.62809e-05 -6.31228e-07
7.62809e-05 8.12823e-05 6.56753e-07
-6.31228e-07 6.56753e-07 -2.74966e-05
0.00166663 4.74211e-05 1.52288e-06
4.74211e-05 7.85054e-05 -2.10411e-07
1.52288e-06 -2.10411e-07 -2.11286e-05
0.00173969 8.11262e-06 2.30635e-07
8.11262e-06 0.000101557 1.48226e-08
2.30635e-07 1.48226e-08 -1.2624e-05
0.00175127 1.8549e-05 -3.90501e-07
1.8549e-05 9.43713e-05 3.72393e-07
-3.90501e-07 3.72393e-07 -1.22974e-05
0.0017521 3.17776e-05 -4.55186e-07
3.17776e-05 9.75506e-05 2.27155e-07
-4.55186e-07 2.27155e-07 -1.17361e-06
0.00174206 7.12438e-05 -7.96436e-07
7.12438e-05 0.000110948 -3.94972e-08
-7.96436e-07 -3.94972e-08 1.36681e-05
0.0016559 9.69975e-07 -1.66116e-06
9.69975e-07 0.000101515 2.8697e-07
-1.66116e-06 2.8697e-07 -1.51485e-05
0.0018053 -3.12452e-05 -2.61377e-06
-3.12452e-05 0.000210734 9.72023e-07
-2.61377e-06 9.72023e-07 0.000100232
0.00160553 -9.57646e-06 -1.30013e-06
-9.57646e-06 6.65996e-05 8.01696e-07
-1.30013e-06 8.01696e-07 -4.48642e-05
0.00164607 -4.9696e-05 -2.01429e-07
-4.9696e-05 9.62821e-05 1.75931e-07
-2.01429e-07 1.75931e-07 -8.77994e-06
0.00104482 -7.91017e-05 -1.49792e-06
-7.91017e-05 0.000146728 -5.20677e-08
-1.49792e-06 -5.20677e-08 5.76916e-05
0.000845796 -0.000104416 5.72041e-07
-0.000104416 4.25443e-05 8.46443e-08
5.72041e-07 8.46443e-08 -6.29419e-05
0.00114148 -0.000134014 -1.30014e-06
-0.000134014 0.000142526 2.04389e-06
-1.30014e-06 2.04389e-06 5.63638e-06
0.00178077 -0.000115544 -3.88435e-07
-0.000115544 0.000191717 -3.1535e-07
-3.88435e-07 -3.1535e-07 7.66534e-05
0.00164118 -7.45427e-05 -5.89615e-07
-7.45427e-05 6.70117e-05 -1.11229e-06
-5.89615e-07 -1.11229e-06 -3.64371e-05
0.00162507 -0.00013055 2.14688e-06
-0.00013055 0.000139302 1.69448e-06
2.14688e-06 1.69448e-06 3.06143e-05
0.00134162 -0.000149776 -1.3411e-06
-0.000149776 0.000138814 -9.36866e-07
-1.3411e-06 -9.36866e-07 -1.08316e-06
0.00129884 -0.000136506 -1.00928e-07
-0.000136506 2.1463e-05 -4.5088e-06
-1.00928e-07 -4.5088e-06 -8.57151e-05
0.00105614 -0.000111562 -1.12371e-07
-0.000111562 0.000163453 -1.15177e-06
-1.12371e-07 -1.15177e-06 6.52144e-05
0.00100962 -0.000101304 8.47838e-08
-0.000101304 0.000143903 -1.75237e-06
8.47838e-08 -1.75237e-06 4.42073e-05
0.000889155 -1.897e-05 2.37784e-07
-1.897e-05 7.3407e-05 1.63127e-07
2.37784e-07 1.63127e-07 -1.00376e-05
0.000547947 2.49379e-05 -1.37762e-06
2.49379e-05 -0.000123512 1.86379e-06
-1.37762e-06 1.86379e-06 -0.000164801
0.00075536 3.74238e-05 -7.80407e-08
3.74238e-05 -9.3013e-06 4.00733e-07
-7.80407e-08 4.00733e-07 -7.27655e-05
0.00170371 -2.29061e-06 -1.57666e-07
-2.29061e-06 9.53761e-05 -1.90826e-08
-1.57666e-07 -1.90826e-08 -1.7107e-05
0.00171434 -1.94505e-05 -3.49888e-09
-1.94505e-05 0.000118457 8.53088e-08
-3.49888e-09 8.53088e-08 1.01303e-05
0.00171651 -5.39553e-05 -7.30392e-07
-5.39553e-05 0.000106334 -2.45984e-07
-7.30392e-07 -2.45984e-07 5.97055e-06
0.00101349 -0.000110734 -3.43133e-08
-0.000110734 0.000136373 3.03517e-07
-3.43133e-08 3.03517e-07 3.63915e-05
0.000707465 -0.000101162 1.41164e-06
-0.000101162 -2.97466e-05 -1.30615e-06
1.41164e-06 -1.30615e-06 -0.000146765
0.00120109 -0.000146675 -3.55205e-07
-0.000146675 0.00014998 2.00401e-08
-3.55205e-07 2.00401e-08 -5.00201e-06
0.00164107 -9.86839e-05 4.22929e-07
-9.86839e-05 8.12207e-05 -7.13099e-07
4.22929e-07 -7.13099e-07 -2.51272e-05
0.00161639 -0.000165835 7.12175e-08
-0.000165835 0.000238183 -9.14028e-07
7.12175e-08 -9.14028e-07 0.000100682
0.0016398 -0.000143025 -1.33302e-06
-0.000143025 0.00011818 -8.55024e-08
-1.33302e-06 -8.55024e-08 1.58e-05
0.000557978 2.43365e-05 9.35233e-08
2.43365e-05 -0.000121007 -6.03048e-07
9.35233e-08 -6.03048e-07 -0.00015957
0.00100736 -0.000109125 -1.54362e-08
-0.000109125 0.000138783 1.41813e-07
-1.54362e-08 1.41813e-07 3.89169e-05
0.000909541 -0.000102708 -4.5498e-07
-0.000102708 8.78873e-05 3.08914e-07
-4.5498e-07 3.08914e-07 -1.2866e-05
0.00102716 -7.05745e-05 -3.24339e-07
-7.05745e-05 0.000154187 8.30675e-07
-3.24339e-07 8.30675e-07 5.87504e-05
0.000978166 -2.48487e-05 2.68235e-09
-2.48487e-05 0.000120144 2.18664e-08
2.68235e-09 2.18664e-08 4.40426e-05
0.000824819 1.46943e-05 -1.67141e-07
1.46943e-05 2.96647e-05 2.39389e-07
-1.67141e-07 2.39389e-07 -3.06789e-05
0.0017002 -9.92609e-06 3.39656e-07
-9.92609e-06 7.61633e-05 -2.29375e-08
3.39656e-07 -2.29375e-08 -3.29133e-05
0.00178918 -2.9812e-05 -2.74399e-07
-2.9812e-05 0.000122567 -4.68627e-07
-2.74399e-07 -4.68627e-07 2.39717e-05
0.00154727 -6.78641e-05 6.90964e-07
-6.78641e-05 -2.12454e-06 6.2636e-07
6.90964e-07 6.2636e-07 -0.000100961
0.00185624 -0.000122849 -9.57928e-09
-0.000122849 0.00014139 -2.27103e-06
-9.57928e-09 -2.27103e-06 4.04773e-05
0.000942872 -0.000108407 -8.48535e-07
-0.000108407 0.000102486 9.95278e-07
-8.48535e-07 9.95278e-07 -1.93129e-06
0.00167249 -0.00016527 2.66863e-06
-0.00016527 0.000158476 1.9156e-06
2.66863e-06 1.9156e-06 3.70051e-05
0.000678851 -0.000107062 -2.7233e-07
-0.000107062 -5.45978e-05 -3.43329e-06
-2.7233e-07 -3.43329e-06 -0.000196702
0.00164925 -0.000177144 1.2895e-06
-0.000177144 0.000353339 1.28303e-06
1.2895e-06 1.28303e-06 0.000185514
0.000576544 2.08212e-05 8.11516e-07
2.08212e-05 -0.000113237 -2.44348e-06
8.11516e-07 -2.44348e-06 -0.000149307
0.00094087 -1.18781e-06 1.16759e-06
-1.18781e-06 9.31708e-05 -9.20874e-07
1.16759e-06 -9.20874e-07 3.59336e-05
0.0010173 -3.50745e-05 1.93283e-07
-3.50745e-05 0.000141752 5.71525e-07
1.93283e-07 5.71525e-07 6.8828e-05
0.000941898 -2.08861e-05 4.66485e-07
-2.08861e-05 0.000102908 -9.15617e-07
4.66485e-07 -9.15617e-07 1.73674e-05
0.00105283 -0.000111956 -4.05092e-07
-0.000111956 0.000160213 1.93493e-06
-4.05092e-07 1.93493e-06 5.713e-05
0.000946863 -0.000106809 -1.8107e-06
-0.000106809 0.000106797 2.9106e-06
-1.8107e-06 2.9106e-06 4.1944e-06
0.000782241 -3.0034e-05 -1.58186e-06
-3.0034e-05 5.64333e-06 -1.4954e-06
-1.58186e-06 -1.4954e-06 -2.72468e-05
0.000815984 -3.82774e-05 -2.04366e-07
-3.82774e-05 2.70051e-05 -8.19903e-07
-2.04366e-07 -8.19903e-07 -2.8281e-05
0.00158522 0.000108702 2.41046e-07
0.000108702 9.28677e-05 5.64987e-07
2.41046e-07 5.64987e-07 -2.79889e-05
0.000878321 -1.16231e-05 2.1671e-07
-1.16231e-05 7.05509e-05 -3.84599e-07
2.1671e-07 -3.84599e-07 -6.63639e-06
0.000923154 0.000101958 -1.67213e-08
0.000101958 0.000107823 -3.92555e-07
-1.67213e-08 -3.92555e-07 1.77028e-06
0.000836947 4.71076e-05 2.31945e-07
4.71076e-05 6.22532e-05 -8.96008e-08
2.31945e-07 -8.96008e-08 -4.08773e-05
0.00137279 0.000145171 -5.19278e-07
0.000145171 0.000113361 -2.2666e-06
-5.19278e-07 -2.2666e-06 -1.2136e-05
0.00153321 0.000146096 2.30243e-06
0.000146096 0.000105471 -4.46336e-07
2.30243e-06 -4.46336e-07 -1.04297e-05
0.000688545 0.000102228 6.26022e-07
0.000102228 -1.82104e-05 8.87819e-07
6.26022e-07 8.87819e-07 -0.00015372
0.00135995 0.000155383 -8.99807e-07
0.000155383 0.000206791 1.39072e-07
-8.99807e-07 1.39072e-07 6.62084e-05
0.00081595 -1.97017e-05 -3.49729e-07
-1.97017e-05 2.48285e-05 1.17305e-07
-3.49729e-07 1.17305e-07 -2.47302e-05
0.000797548 -9.8873e-06 -1.89596e-08
-9.8873e-06 2.27615e-05 6.85835e-07
-1.89596e-08 6.85835e-07 -4.68589e-05
0.00104642 0.000113988 -8.03115e-08
0.000113988 0.000183246 -1.2056e-06
-8.03115e-08 -1.2056e-06 6.09807e-05
0.000818865 -1.80573e-06 -1.42545e-07
-1.80573e-06 4.44562e-05 5.9449e-08
-1.42545e-07 5.9449e-08 -4.73865e-05
0.000935811 7.37105e-05 -8.8347e-07
7.37105e-05 0.000113869 -9.58821e-07
-8.8347e-07 -9.58821e-07 3.07067e-06
0.00179128 0.000107518 -1.55187e-06
0.000107518 0.000150918 -3.77363e-07
-1.55187e-06 -3.77363e-07 5.04449e-05
0.0017388 0.000177592 1.6404e-06
0.000177592 0.000284736 3.63825e-07
1.6404e-06 3.63825e-07 0.000152371
0.00112333 0.000138586 -5.24299e-07
0.000138586 -0.000135427 5.95333e-07
-5.24299e-07 5.95333e-07 -0.000237052
0.00131498 0.000140241 1.14556e-06
0.000140241 0.000296518 1.48912e-06
1.14556e-06 1.48912e-06 0.00014581
0.000706108 0.000132231 -1.58973e-06
0.000132231 -0.000141648 -9.87703e-07
-1.58973e-06 -9.87703e-07 -0.000298757
0.000744689 -2.43228e-05 6.68567e-08
-2.43228e-05 -9.67693e-06 1.00161e-06
6.68567e-08 1.00161e-06 -7.15985e-05
0.000680192 2.6685e-05 -1.28556e-07
2.6685e-05 -2.81453e-05 2.79245e-08
-1.28556e-07 2.79245e-08 -0.000115172
0.0010583 0.000115063 -6.14112e-08
0.000115063 0.000188575 -8.84351e-07
-6.14112e-08 -8.84351e-07 5.42638e-05
0.000481648 4.19914e-05 -1.39876e-07
4.19914e-05 -0.00012719 -1.3393e-07
-1.39876e-07 -1.3393e-07 -0.000238039
0.00196911 9.37463e-05 -1.93886e-06
9.37463e-05 0.000171823 -3.28335e-07
-1.93886e-06 -3.28335e-07 9.02159e-05
0.0019457 0.000139553 1.37247e-06
0.000139553 0.000182036 1.64492e-06
1.37247e-06 1.64492e-06 9.36884e-05
0.0015062 0.000179551 -2.70926e-07
0.000179551 0.000140016 -3.20163e-06
-2.70926e-07 -3.20163e-06 -3.39986e-06
0.000241551 8.98604e-05 -8.2187e-07
8.98604e-05 -0.000293416 1.69156e-06
-8.2187e-07 1.69156e-06 -0.000470196
0.000830608 1.34727e-06 -7.76386e-07
1.34727e-06 3.45718e-05 -2.47684e-07
-7.76386e-07 -2.47684e-07 -1.48538e-05
0.000833656 -1.45817e-05 -1.70652e-07
-1.45817e-05 3.91565e-05 3.81982e-07
-1.70652e-07 3.81982e-07 -2.11489e-05
0.000927728 -2.62265e-05 -5.73689e-08
-2.62265e-05 9.35316e-05 2.75453e-07
-5.73689e-08 2.75453e-07 2.67405e-05
0.000832595 -2.54189e-05 -8.48115e-07
-2.54189e-05 2.75204e-05 -6.24743e-07
-8.48115e-07 -6.24743e-07 -1.71776e-05
0.000729799 -4.0038e-05 1.70024e-07
-4.0038e-05 -1.72798e-05 -4.2264e-07
1.70024e-07 -4.2264e-07 -7.4632e-05
0.000847962 -1.40916e-05 3.54709e-08
-1.40916e-05 3.26617e-05 3.5351e-08
3.54709e-08 3.5351e-08 -1.1452e-05
0.00088598 1.5005e-05 -1.80747e-07
1.5005e-05 7.67435e-05 -3.34615e-07
-1.80747e-07 -3.34615e-07 9.57187e-06
0.000791882 -1.87888e-05 1.68558e-07
-1.87888e-05 2.05038e-05 2.72714e-07
1.68558e-07 2.72714e-07 -3.86133e-05
0.000910621 -7.05851e-06 1.97949e-07
-7.05851e-06 8.83199e-05 -2.62055e-07
1.97949e-07 -2.62055e-07 1.84659e-05
0.000813543 -4.03584e-05 -2.25378e-07
-4.03584e-05 3.44576e-05 1.86341e-07
-2.25378e-07 1.86341e-07 -3.07147e-05
0.000746808 3.89393e-06 3.82539e-07
3.89393e-06 -8.17182e-06 3.59409e-07
3.82539e-07 3.59409e-07 -6.46847e-05
0.000857219 3.61493e-06 5.07542e-07
3.61493e-06 3.6077e-05 5.71796e-07
5.07542e-07 5.71796e-07 -8.06138e-06
0.000798728 4.75808e-06 6.96382e-07
4.75808e-06 -2.48243e-06 1.48775e-06
6.96382e-07 1.48775e-06 -3.03488e-05
0.000805551 -6.6103e-06 -2.38424e-07
-6.6103e-06 8.39703e-07 2.17629e-09
-2.38424e-07 2.17629e-09 -2.6243e-05
0.00127627 -1.34518e-05 9.25516e-07
-1.34518e-05 0.000250427 1.85722e-06
9.25516e-07 1.85722e-06 0.000252955
0.000801252 -1.60554e-05 -4.4801e-07
-1.60554e-05 -2.42078e-07 -1.65378e-06
-4.4801e-07 -1.65378e-06 -2.70125e-05
0.00129115 -1.88313e-05 -2.68919e-06
-1.88313e-05 0.000261332 -1.19691e-06
-2.68919e-06 -1.19691e-06 0.000263653
0.000978953 -1.63558e-05 1.21933e-05
-1.63558e-05 9.41133e-05 6.26464e-06
1.21933e-05 6.26464e-06 0.000110353
0.00130565 -2.43873e-05 -6.16454e-06
-2.43873e-05 0.00027327 -4.29004e-06
-6.16454e-06 -4.29004e-06 0.000274904
0.000927495 -2.22165e-05 4.73126e-06
-2.22165e-05 7.03665e-05 2.35961e-06
4.73126e-06 2.35961e-06 8.59355e-05
0.000866756 -2.72872e-05 -2.21357e-06
-2.72872e-05 4.37413e-05 -1.59171e-06
-2.21357e-06 -1.59171e-06 5.76769e-05
0.000719818 2.62056e-05 9.96045e-07
2.62056e-05 -3.9932e-05 -3.47384e-06
9.96045e-07 -3.47384e-06 -4.62669e-05
0.000721117 3.06329e-05 -1.71905e-07
3.06329e-05 -3.34929e-05 2.0071e-08
-1.71905e-07 2.0071e-08 -4.24459e-05
0.00222038 4.59062e-05 2.21551e-05
4.59062e-05 0.000786758 -3.79502e-06
2.21551e-05 -3.79502e-06 0.000803422
0.000728874 3.50108e-05 -2.17799e-06
3.50108e-05 -2.32183e-05 3.64081e-06
-2.17799e-06 3.64081e-06 -3.47824e-05
0.00229056 5.32449e-05 -1.35446e-06
5.32449e-05 0.000832558 -9.60546e-08
-1.35446e-06 -9.60546e-08 0.000847059
0.00237298 5.99341e-05 -3.32332e-05
5.99341e-05 0.00088533 3.45277e-06
-3.32332e-05 3.45277e-06 0.000897634
0.00155844 7.61788e-05 9.76944e-07
7.61788e-05 5.24145e-05 1.60909e-06
9.76944e-07 1.60909e-06 -5.63935e-05
0.00162922 2.95781e-05 -8.12996e-08
2.95781e-05 6.9601e-05 -6.12365e-08
-8.12996e-08 -6.12365e-08 -3.91941e-05
0.00163502 4.87224e-05 3.10781e-06
4.87224e-05 5.98759e-05 -4.51911e-07
3.10781e-06 -4.51911e-07 -3.86032e-05
0.0017095 2.10502e-05 8.2193e-07
2.10502e-05 8.08038e-05 -7.21104e-07
8.2193e-07 -7.21104e-07 -2.27764e-05
0.00177233 1.16153e-05 4.82303e-07
1.16153e-05 0.000124608 -4.77948e-07
4.82303e-07 -4.77948e-07 1.13852e-05
0.00165766 2.306e-06 -1.53033e-06
2.306e-06 9.29693e-05 2.74061e-08
-1.53033e-06 2.74061e-08 -2.4785e-05
0.00175469 8.66857e-06 -9.61279e-08
8.66857e-06 0.000111813 -3.20388e-09
-9.61279e-08 -3.20388e-09 -2.0686e-06
0.00174856 1.44443e-05 2.28657e-07
1.44443e-05 9.37756e-05 -1.00366e-07
2.28657e-07 -1.00366e-07 -1.29868e-05
0.00174577 3.31524e-05 7.67823e-07
3.31524e-05 9.42964e-05 -5.53562e-08
7.67823e-07 -5.53562e-08 -4.79905e-06
0.0017637 6.77877e-05 2.24451e-07
6.77877e-05 0.000118495 -1.37783e-09
2.24451e-07 -1.37783e-09 2.1656e-05
0.00177147 4.70756e-06 -7.29634e-07
4.70756e-06 0.000100396 2.04408e-07
-7.29634e-07 2.04408e-07 -8.72859e-06
0.0018759 2.01807e-05 -2.15814e-07
2.01807e-05 0.000139048 2.38432e-07
-2.15814e-07 2.38432e-07 4.24454e-05
0.00180237 5.85578e-05 1.31555e-07
5.85578e-05 0.000103662 5.78436e-07
1.31555e-07 5.78436e-07 1.13433e-05
0.00170032 -2.66446e-06 -1.0051e-06
-2.66446e-06 9.57144e-05 2.65757e-07
-1.0051e-06 2.65757e-07 -1.65962e-05
0.00176479 -1.98139e-05 -7.27731e-07
-1.98139e-05 0.000144962 6.56143e-07
-7.27731e-07 6.56143e-07 3.71448e-05
0.00177917 -5.50557e-05 -7.03624e-07
-5.50557e-05 0.000139676 -1.87335e-07
-7.03624e-07 -1.87335e-07 3.83593e-05
0.00110698 -0.000115379 -3.2079e-07
-0.000115379 0.000184219 -1.64325e-07
-3.2079e-07 -1.64325e-07 8.38366e-05
0.00119267 -0.000126915 2.30804e-08
-0.000126915 0.000224143 8.10415e-07
2.30804e-08 8.10415e-07 0.000107114
0.00115226 -0.000142484 -2.07707e-06
-0.000142484 0.000128571 2.10501e-06
-2.07707e-06 2.10501e-06 -2.83139e-05
0.00184422 -0.000103116 1.96485e-07
-0.000103116 0.000184566 -2.16207e-07
1.96485e-07 -2.16207e-07 7.84634e-05
0.00126063 -0.000132566 -3.0216e-06
-0.000132566 -6.69348e-05 1.7123e-06
-3.0216e-06 1.7123e-06 -0.000168988
0.00148687 -0.00015704 -2.54256e-06
-0.00015704 0.000170396 -3.60316e-06
-2.54256e-06 -3.60316e-06 3.69846e-05
0.0010582 -0.000111952 3.83901e-07
-0.000111952 0.000165017 -1.51331e-06
3.83901e-07 -1.51331e-06 6.48751e-05
0.000853948 -9.88918e-05 -1.25027e-06
-9.88918e-05 5.97329e-05 -1.83667e-06
-1.25027e-06 -1.83667e-06 -4.02059e-05
0.000998255 -8.35276e-05 5.00797e-07
-8.35276e-05 0.000143338 3.12843e-07
5.00797e-07 3.12843e-07 4.45507e-05
0.000546872 2.51743e-05 -9.64626e-07
2.51743e-05 -0.000127021 1.22178e-06
-9.64626e-07 1.22178e-06 -0.000165277
0.000999177 -1.32194e-05 -2.38124e-09
-1.32194e-05 0.000130072 6.86632e-08
-2.38124e-09 6.86632e-08 5.52301e-05
0.000711918 2.51548e-05 -7.56643e-08
2.51548e-05 -3.41741e-05 1.1452e-06
-7.56643e-08 1.1452e-06 -9.32783e-05
0.00176477 -7.79409e-06 -6.60519e-09
-7.79409e-06 0.000107819 2.57831e-08
-6.60519e-09 2.57831e-08 -1.4465e-06
0.00178816 -3.16952e-05 6.17252e-07
-3.16952e-05 0.000124346 -9.10111e-08
6.17252e-07 -9.10111e-08 2.5895e-05
0.00163468 -6.67582e-05 1.25675e-07
-6.67582e-05 4.43737e-05 -1.01469e-07
1.25675e-07 -1.01469e-07 -5.45134e-05
0.00101965 -0.000112377 -2.77373e-08
-0.000112377 0.000141273 7.90293e-07
-2.77373e-08 7.90293e-07 3.61817e-05
0.000754017 -0.00011004 -2.6297e-07
-0.00011004 -1.01688e-05 3.47487e-07
-2.6297e-07 3.47487e-07 -0.000148404
0.00163948 -0.000175353 -2.05577e-06
-0.000175353 0.000345776 1.53413e-06
-2.05577e-06 1.53413e-06 0.000178066
0.00189672 -0.000125676 5.30171e-08
-0.000125676 0.000165558 7.78362e-08
5.30171e-08 7.78362e-08 6.60284e-05
0.00153651 -0.000159952 1.55994e-06
-0.000159952 8.67971e-05 -1.6764e-06
1.55994e-06 -1.6764e-06 -3.4862e-05
0.000680309 2.06631e-05 1.8875e-07
2.06631e-05 -5.75146e-05 -5.86752e-07
1.8875e-07 -5.86752e-07 -9.24296e-05
0.000926963 8.94207e-06 -2.93336e-07
8.94207e-06 8.51383e-05 1.82872e-07
-2.93336e-07 1.82872e-07 2.85141e-05
0.000804005 -9.80443e-05 -9.35942e-07
-9.80443e-05 2.80038e-05 4.21968e-07
-9.35942e-07 4.21968e-07 -7.33849e-05
0.000998272 -0.000105173 1.19824e-06
-0.000105173 0.000132667 8.87564e-07
1.19824e-06 8.87564e-07 3.26887e-05
0.000895491 -2.56992e-05 3.42929e-08
-2.56992e-05 7.96539e-05 -3.51611e-07
3.42929e-08 -3.51611e-07 -7.50181e-06
0.000951779 -2.97227e-05 -6.00798e-07
-2.97227e-05 0.000106272 8.13084e-07
-6.00798e-07 8.13084e-07 3.34208e-05
0.00180649 -1.73977e-05 -1.43166e-06
-1.73977e-05 0.000110308 5.32492e-08
-1.43166e-06 5.32492e-08 1.03127e-05
0.0017143 -4.46263e-05 -8.15999e-08
-4.46263e-05 5.6062e-05 -1.39817e-07
-8.15999e-08 -1.39817e-07 -3.23392e-05
0.00163457 -8.69529e-05 -1.65674e-06
-8.69529e-05 -9.05929e-06 -3.41554e-07
-1.65674e-06 -3.41554e-07 -0.000100815
0.00189461 -0.000162724 4.8792e-07
-0.000162724 0.000144444 -1.65851e-06
4.8792e-07 -1.65851e-06 4.71541e-05
0.000624453 -9.29916e-05 -1.5152e-06
-9.29916e-05 -5.3693e-05 3.90075e-07
-1.5152e-06 3.90075e-07 -0.000167393
0.00160915 -0.000182259 -9.47565e-07
-0.000182259 0.00024646 5.09332e-06
-9.47565e-07 5.09332e-06 7.67227e-05
0.00169393 -0.000168757 1.10208e-06
-0.000168757 0.000463445 -3.33071e-06
1.10208e-06 -3.33071e-06 0.000300252
0.0008065 1.65609e-05 5.9897e-07
1.65609e-05 7.72532e-06 -1.7347e-06
5.9897e-07 -1.7347e-06 -2.38755e-05
0.000809101 -5.03941e-05 9.73584e-07
-5.03941e-05 2.89204e-05 -9.98435e-07
9.73584e-07 -9.98435e-07 -2.41889e-05
0.000701387 9.22382e-06 5.57762e-07
9.22382e-06 -3.31574e-05 -1.4866e-06
5.57762e-07 -1.4866e-06 -9.09754e-05
0.000901868 -3.09019e-05 9.96295e-07
-3.09019e-05 8.23971e-05 -1.97288e-07
9.96295e-07 -1.97288e-07 1.04819e-05
0.000914538 1.04008e-05 8.70666e-08
1.04008e-05 8.69394e-05 -2.91681e-07
8.70666e-08 -2.91681e-07 8.8196e-06
0.000781106 -9.8569e-05 2.02255e-06
-9.8569e-05 4.07221e-05 1.88281e-06
2.02255e-06 1.88281e-06 -6.35626e-05
0.000772117 -9.52178e-05 -3.12878e-06
-9.52178e-05 -1.27919e-05 1.84943e-06
-3.12878e-06 1.84943e-06 -0.000103604
0.0018891 -0.000158553 -2.6804e-06
-0.000158553 0.000625319 2.74133e-06
-2.6804e-06 2.74133e-06 0.00052222
0.000827013 -3.68334e-05 -4.51524e-07
-3.68334e-05 3.06071e-05 -7.24327e-07
-4.51524e-07 -7.24327e-07 -1.90431e-05
0.000853582 8.92372e-07 -2.05788e-07
8.92372e-07 5.26637e-05 2.22204e-07
-2.05788e-07 2.22204e-07 -1.68897e-05
0.00197475 0.00011085 1.26268e-06
0.00011085 0.000250296 1.91038e-07
1.26268e-06 1.91038e-07 0.000149803
0.000868791 1.30798e-05 -6.10484e-08
1.30798e-05 7.35365e-05 -2.22994e-07
-6.10484e-08 -2.22994e-07 -1.96509e-05
0.00111014 0.000117308 -1.71685e-07
0.000117308 0.000220315 -2.07185e-06
-1.71685e-07 -2.07185e-06 9.92724e-05
0.000799411 6.33258e-05 -5.43982e-07
6.33258e-05 4.40628e-05 8.31314e-07
-5.43982e-07 8.31314e-07 -6.54271e-05
0.00162093 0.000171202 9.87539e-07
0.000171202 0.000216935 -6.36736e-07
9.87539e-07 -6.36736e-07 8.58864e-05
0.00145227 0.000152489 5.45426e-06
0.000152489 4.74917e-05 2.3044e-06
5.45426e-06 2.3044e-06 -4.62778e-05
0.00083585 0.00011488 1.18913e-06
0.00011488 4.7895e-05 1.09549e-06
1.18913e-06 1.09549e-06 -0.000102282
0.00113868 0.000156418 -3.37311e-06
0.000156418 8.03445e-05 -2.02859e-06
-3.37311e-06 -2.02859e-06 -8.36651e-05
0.000751423 -8.3108e-06 1.53349e-07
-8.3108e-06 -3.64303e-06 4.92479e-07
1.53349e-07 4.92479e-07 -6.79786e-05
0.000768784 3.79175e-05 -9.78484e-08
3.79175e-05 2.01756e-05 -9.72614e-07
-9.78484e-08 -9.72614e-07 -6.74637e-05
0.00102007 0.000113422 -1.87908e-07
0.000113422 0.000171337 -1.01144e-06
-1.87908e-07 -1.01144e-06 3.63781e-05
0.000798263 5.99347e-05 -5.27021e-07
5.99347e-05 4.04078e-05 -4.1318e-07
-5.27021e-07 -4.1318e-07 -7.11832e-05
0.00195414 8.91016e-05 2.01738e-07
8.91016e-05 0.000165252 -2.92346e-07
2.01738e-07 -2.92346e-07 8.42286e-05
0.00160714 0.000132204 2.25144e-06
0.000132204 2.34887e-05 -8.64175e-07
2.25144e-06 -8.64175e-07 -6.69034e-05
0.00193046 0.00019629 -3.34341e-06
0.00019629 0.000358864 -3.64399e-07
-3.34341e-06 -3.64399e-07 0.000218246
0.000677949 0.000117182 1.22868e-06
0.000117182 -7.855e-05 5.75989e-07
1.22868e-06 5.75989e-07 -0.000253874
0.00090201 -1.36465e-05 1.42905e-07
-1.36465e-05 7.9785e-05 1.49485e-07
1.42905e-07 1.49485e-07 8.67234e-06
0.00168213 6.03592e-05 -5.309e-07
6.03592e-05 1.74876e-05 8.57903e-07
-5.309e-07 8.57903e-07 -5.78031e-05
0.00116269 0.000101384 -2.99005e-07
0.000101384 0.000248029 1.71598e-06
-2.99005e-07 1.71598e-06 0.000139313
0.00104682 0.000118356 -6.14209e-09
0.000118356 0.000166432 4.79906e-07
-6.14209e-09 4.79906e-07 2.40176e-05
0.0022198 0.000114548 -3.71489e-06
0.000114548 0.000246547 3.60416e-07
-3.71489e-06 3.60416e-07 0.000174237
0.00174057 0.000195589 2.3491e-06
0.000195589 9.92299e-05 -2.69993e-06
2.3491e-06 -2.69993e-06 -1.66031e-05
0.00163035 0.000178153 -1.70555e-06
0.000178153 0.000347044 2.74706e-06
-1.70555e-06 2.74706e-06 0.000160531
0.000914049 -8.04105e-06 -1.35895e-06
-8.04105e-06 8.13525e-05 -8.54736e-08
-1.35895e-06 -8.54736e-08 2.20263e-05
0.000911326 -2.18325e-05 -5.05322e-08
-2.18325e-05 8.4616e-05 -2.60459e-09
-5.05322e-08 -2.60459e-09 1.78917e-05
0.000915737 -1.80046e-05 -3.53671e-08
-1.80046e-05 9.19184e-05 5.36533e-07
-3.53671e-08 5.36533e-07 1.83091e-05
0.000831324 -2.46431e-05 -4.4987e-07
-2.46431e-05 2.45779e-05 -6.52219e-07
-4.4987e-07 -6.52219e-07 -2.01108e-05
0.000830832 -8.65474e-06 3.75199e-09
-8.65474e-06 4.13027e-05 3.45104e-07
3.75199e-09 3.45104e-07 -1.77825e-05
0.000788901 -2.60282e-06 -2.29064e-07
-2.60282e-06 2.60751e-05 -4.55468e-07
-2.29064e-07 -4.55468e-07 -4.23074e-05
0.000842926 -1.80385e-05 -1.31963e-07
-1.80385e-05 3.0755e-05 1.73852e-08
-1.31963e-07 1.73852e-08 -1.49957e-05
0.000771374 -2.29795e-05 -5.31919e-07
-2.29795e-05 6.57836e-06 2.8774e-07
-5.31919e-07 2.8774e-07 -5.12126e-05
0.000883598 -2.99432e-05 3.19648e-07
-2.99432e-05 7.31292e-05 -3.73883e-07
3.19648e-07 -3.73883e-07 2.84612e-06
0.000883191 4.13295e-06 1.17087e-07
4.13295e-06 7.49968e-05 5.26343e-07
1.17087e-07 5.26343e-07 8.42325e-06
0.000864842 -1.51161e-05 4.26225e-07
-1.51161e-05 6.17125e-05 -8.48419e-07
4.26225e-07 -8.48419e-07 -1.15747e-05
0.000807272 -4.53027e-05 -1.85021e-08
-4.53027e-05 3.08381e-05 -1.76166e-08
-1.85021e-08 -1.76166e-08 -3.93142e-05
0.000912776 1.10939e-05 4.38826e-07
1.10939e-05 8.68383e-05 -1.07838e-07
4.38826e-07 -1.07838e-07 2.3335e-05
0.000842682 7.47557e-06 1.25402e-06
7.47557e-06 4.36187e-05 1.82327e-07
1.25402e-06 1.82327e-07 -1.5885e-05
0.000853328 2.88889e-06 5.54421e-07
2.88889e-06 3.4175e-05 5.37039e-07
5.54421e-07 5.37039e-07 -1.08915e-05
0.000793461 9.19833e-06 4.39406e-07
9.19833e-06 -4.13655e-06 1.44113e-06
4.39406e-07 1.44113e-06 -3.28619e-05
0.000801709 -1.6529e-06 -1.59336e-07
-1.6529e-06 -7.70831e-07 5.95303e-10
-1.59336e-07 5.95303e-10 -2.86611e-05
0.00128245 -6.5688e-06 7.10103e-07
-6.5688e-06 0.000252387 1.82141e-06
7.10103e-07 1.82141e-06 0.000254642
0.000809703 -1.27814e-05 -3.26874e-07
-1.27814e-05 3.26697e-06 -1.55159e-06
-3.26874e-07 -1.55159e-06 -2.39194e-05
0.00130264 -1.214e-05 -1.98871e-06
-1.214e-05 0.000265044 -1.23097e-06
-1.98871e-06 -1.23097e-06 0.0002674
0.000988184 -1.12791e-05 9.0754e-06
-1.12791e-05 9.64493e-05 6.39777e-06
9.0754e-06 6.39777e-06 0.000112819
0.00131792 -1.78022e-05 -4.60998e-06
-1.78022e-05 0.000275845 -4.28196e-06
-4.60998e-06 -4.28196e-06 0.000278026
0.000939811 -1.69756e-05 3.36251e-06
-1.69756e-05 7.23827e-05 2.41107e-06
3.36251e-06 2.41107e-06 8.86971e-05
0.00087842 -2.22106e-05 -1.61883e-06
-2.22106e-05 4.36846e-05 -1.56815e-06
-1.61883e-06 -1.56815e-06 5.93339e-05
0.000798811 1.21055e-05 2.96048e-07
1.21055e-05 1.14584e-06 -1.67023e-06
2.96048e-07 -1.67023e-06 -2.8196e-05
0.000732982 2.1204e-05 8.43209e-07
2.1204e-05 -3.85098e-05 -3.36497e-06
8.43209e-07 -3.36497e-06 -4.24582e-05
0.000734903 2.65977e-05 -1.42251e-07
2.65977e-05 -3.19852e-05 2.78067e-08
-1.42251e-07 2.78067e-08 -3.83981e-05
0.00215835 3.8267e-05 1.82499e-05
3.8267e-05 0.000746896 -3.88103e-06
1.82499e-05 -3.88103e-06 0.000765472
0.000737172 3.11204e-05 -1.73802e-06
3.11204e-05 -2.49305e-05 3.5596e-06
-1.73802e-06 3.5596e-06 -3.39789e-05
0.00223451 4.61245e-05 -1.59897e-06
4.61245e-05 0.000795286 -9.01283e-08
-1.59897e-06 -9.01283e-08 0.000811728
0.00230414 5.31838e-05 -2.88061e-05
5.31838e-05 0.000840812 3.64264e-06
-2.88061e-05 3.64264e-06 0.000855145
0.00177443 6.42251e-05 6.71387e-07
6.42251e-05 0.000120488 3.07397e-07
6.71387e-07 3.07397e-07 2.4078e-05
0.00173729 3.45097e-05 7.48907e-07
3.45097e-05 9.00182e-05 -2.84313e-07
7.48907e-07 -2.84313e-07 -9.45041e-06
0.00173762 1.41559e-05 8.53401e-07
1.41559e-05 8.8752e-05 -5.1037e-07
8.53401e-07 -5.1037e-07 -1.80835e-05
0.00176762 9.44504e-06 -7.83965e-09
9.44504e-06 0.000120838 -1.35706e-07
-7.83965e-09 -1.35706e-07 7.32648e-06
0.00178386 4.54514e-06 -2.847e-07
4.54514e-06 0.000107063 8.10344e-08
-2.847e-07 8.10344e-08 -1.34558e-06
0.0018483 1.94104e-05 3.01408e-07
1.94104e-05 0.000121981 -1.35749e-07
3.01408e-07 -1.35749e-07 2.4906e-05
0.00176442 6.01609e-05 9.69456e-08
6.01609e-05 8.02034e-05 3.65596e-09
9.69456e-08 3.65596e-09 -1.20481e-05
0.00178934 -9.39835e-07 -1.14499e-06
-9.39835e-07 9.87068e-05 4.90664e-07
-1.14499e-06 4.90664e-07 3.72535e-08
0.00196348 3.13761e-05 -7.71587e-07
3.13761e-05 0.000170493 -7.33317e-08
-7.71587e-07 -7.33317e-08 8.32151e-05
0.00165106 2.2455e-05 3.33331e-07
2.2455e-05 -9.29178e-06 4.87733e-07
3.33331e-07 4.87733e-07 -7.90697e-05
0.00182754 -5.80194e-06 -7.84466e-08
-5.80194e-06 0.000138634 1.38069e-07
-7.84466e-08 1.38069e-07 2.91776e-05
0.00179055 -3.37814e-05 9.80761e-07
-3.37814e-05 0.000128103 6.23664e-08
9.80761e-07 6.23664e-08 2.97754e-05
0.00177892 -6.76187e-05 -3.59489e-07
-6.76187e-05 0.000120042 -3.59115e-07
-3.59489e-07 -3.59115e-07 2.10579e-05
0.00109493 -0.000116304 -4.18885e-07
-0.000116304 0.00017932 1.07491e-06
-4.18885e-07 1.07491e-06 7.35451e-05
0.000858118 -0.000114656 2.67807e-07
-0.000114656 4.954e-05 3.64993e-06
2.67807e-07 3.64993e-06 -8.45007e-05
0.00162145 -0.000173018 -2.57548e-06
-0.000173018 0.000333707 2.7418e-06
-2.57548e-06 2.7418e-06 0.000166951
0.00192536 -0.000128052 4.20795e-06
-0.000128052 0.000184034 7.6839e-07
4.20795e-06 7.6839e-07 8.59567e-05
0.00135678 -0.000152262 -3.02527e-06
-0.000152262 -5.86092e-06 -2.72121e-06
-3.02527e-06 -2.72121e-06 -0.000127654
0.000556893 -8.43685e-05 -1.42603e-06
-8.43685e-05 -0.000103542 -3.66242e-08
-1.42603e-06 -3.66242e-08 -0.000203234
0.00110566 -0.000109828 4.11783e-06
-0.000109828 0.000189179 -2.95982e-06
4.11783e-06 -2.95982e-06 9.07678e-05
0.000821094 1.02043e-05 -7.79171e-08
1.02043e-05 3.44981e-05 -2.76356e-07
-7.79171e-08 -2.76356e-07 -4.86161e-05
0.000789116 2.01049e-05 -7.42514e-07
2.01049e-05 7.0781e-07 1.15853e-06
-7.42514e-07 1.15853e-06 -3.30299e-05
0.000920978 2.39712e-05 -7.47764e-07
2.39712e-05 8.18947e-05 1.20695e-06
-7.47764e-07 1.20695e-06 2.5367e-05
0.000883847 -1.05464e-05 -6.45412e-07
-1.05464e-05 7.01476e-05 1.04743e-06
-6.45412e-07 1.04743e-06 -3.02427e-06
0.00182522 -1.73873e-05 8.15363e-09
-1.73873e-05 0.000123415 1.72193e-07
8.15363e-09 1.72193e-07 2.49305e-05
0.000802915 1.53961e-05 4.31859e-08
1.53961e-05 5.52741e-06 1.7635e-08
4.31859e-08 1.7635e-08 -2.60289e-05
0.000746944 -3.98493e-06 -3.08456e-07
-3.98493e-06 -1.02469e-05 8.39224e-08
-3.08456e-07 8.39224e-08 -5.995e-05
0.00178902 -4.76013e-05 -7.3231e-08
-4.76013e-05 9.59452e-05 -2.38594e-07
-7.3231e-08 -2.38594e-07 6.72547e-06
0.0016526 -8.68387e-05 -6.35191e-07
-8.68387e-05 3.78694e-07 4.71408e-07
-6.35191e-07 4.71408e-07 -9.37971e-05
0.000717369 -9.70565e-05 -1.9401e-08
-9.70565e-05 7.23777e-08 2.03407e-06
-1.9401e-08 2.03407e-06 -0.000111923
0.00142653 -0.00015365 -1.04161e-06
-0.00015365 0.000323225 3.99909e-07
-1.04161e-06 3.99909e-07 0.000155073
0.00132513 -0.000165676 1.52752e-06
-0.000165676 9.69972e-05 1.0013e-06
1.52752e-06 1.0013e-06 -6.68176e-05
0.00190608 -0.000168204 1.00346e-06
-0.000168204 0.000152317 -6.33193e-07
1.00346e-06 -6.33193e-07 5.49334e-05
0.000887859 -1.80064e-05 1.07013e-06
-1.80064e-05 6.64656e-05 -5.40898e-07
1.07013e-06 -5.40898e-07 1.06366e-05
0.000882867 -1.77077e-05 -4.37285e-07
-1.77077e-05 7.36501e-05 4.60901e-07
-4.37285e-07 4.60901e-07 7.7818e-07
0.000895947 -9.67376e-05 5.90013e-07
-9.67376e-05 4.73123e-05 3.64716e-07
5.90013e-07 3.64716e-07 -4.64618e-05
0.00126488 -0.000124858 2.55722e-06
-0.000124858 0.000291775 -1.47031e-06
2.55722e-06 -1.47031e-06 0.000199433
0.000735203 -6.97462e-05 -3.0015e-07
-6.97462e-05 1.29708e-05 3.44117e-07
-3.0015e-07 3.44117e-07 -8.96065e-05
0.000906107 5.32496e-06 1.43627e-07
5.32496e-06 8.41727e-05 -2.75816e-07
1.43627e-07 -2.75816e-07 4.65576e-06
0.00184906 -2.28603e-05 -3.06071e-06
-2.28603e-05 0.000110408 -6.41699e-08
-3.06071e-06 -6.41699e-08 2.86757e-05
0.0019582 -4.27421e-05 2.83692e-06
-4.27421e-05 0.000159597 1.19022e-06
2.83692e-06 1.19022e-06 7.56922e-05
0.00182966 -0.000148196 -3.93252e-06
-0.000148196 3.23757e-05 -2.47875e-06
-3.93252e-06 -2.47875e-06 -4.77502e-05
0.00107367 -0.000166848 -1.55106e-07
-0.000166848 -0.000194145 2.15563e-06
-1.55106e-07 2.15563e-06 -0.000309237
0.00104906 -9.40087e-05 -2.76416e-06
-9.40087e-05 0.000159175 -1.28342e-06
-2.76416e-06 -1.28342e-06 4.52328e-05
0.00198799 -0.000201983 -2.37864e-06
-0.000201983 0.000574283 -8.17271e-07
-2.37864e-06 -8.17271e-07 0.000374819
0.000654067 4.02592e-05 -1.05851e-06
4.02592e-05 -5.81855e-05 -1.39526e-06
-1.05851e-06 -1.39526e-06 -0.000107764
0.000817387 -2.10799e-05 4.69455e-07
-2.10799e-05 2.605e-05 -1.0295e-06
4.69455e-07 -1.0295e-06 -2.51633e-05
0.00100869 -3.0634e-05 7.12832e-07
-3.0634e-05 0.000145676 -4.82459e-07
7.12832e-07 -4.82459e-07 8.11871e-05
0.000717652 1.89105e-05 -5.84954e-07
1.89105e-05 -1.14097e-05 -5.26996e-07
-5.84954e-07 -5.26996e-07 -8.59315e-05
0.00104972 -8.70223e-06 2.94967e-07
-8.70223e-06 0.000165021 -3.37249e-08
2.94967e-07 -3.37249e-08 8.73263e-05
0.000547446 -1.65636e-05 4.81652e-07
-1.65636e-05 -8.84224e-05 3.3002e-07
4.81652e-07 3.3002e-07 -0.000180748
0.00118559 -7.76806e-05 5.81237e-06
-7.76806e-05 0.00027475 -5.08234e-08
5.81237e-06 -5.08234e-08 0.000159766
0.000776927 -0.000102709 -9.41314e-06
-0.000102709 1.20191e-05 2.9653e-06
-9.41314e-06 2.9653e-06 -7.28078e-05
0.000743916 8.42739e-06 -2.87793e-07
8.42739e-06 -5.51708e-06 1.54171e-08
-2.87793e-07 1.54171e-08 -7.21519e-05
0.000851542 4.61465e-05 -1.42994e-06
4.61465e-05 6.50922e-05 -1.61919e-06
-1.42994e-06 -1.61919e-06 -2.30253e-05
0.00192101 8.4771e-05 -8.60501e-08
8.4771e-05 0.000147806 -4.30976e-07
-8.60501e-08 -4.30976e-07 6.73903e-05
0.00127417 0.000124842 2.05248e-06
0.000124842 -0.000132095 4.48883e-07
2.05248e-06 4.48883e-07 -0.000224551
0.00113223 6.44468e-05 -1.7526e-06
6.44468e-05 0.000214951 -2.78204e-07
-1.7526e-06 -2.78204e-07 0.000103827
0.000993693 0.000112249 -5.13191e-07
0.000112249 0.000159667 -1.49935e-06
-5.13191e-07 -1.49935e-06 2.43932e-05
0.00238644 0.000214207 6.47236e-07
0.000214207 0.000594728 9.38141e-07
6.47236e-07 9.38141e-07 0.000456505
0.00118132 0.000147645 -6.55758e-07
0.000147645 0.000173064 -1.21038e-06
-6.55758e-07 -1.21038e-06 -1.7982e-06
0.000881637 9.26428e-06 3.36338e-07
9.26428e-06 7.24874e-05 -5.54886e-07
3.36338e-07 -5.54886e-07 -8.45265e-07
0.00179329 5.84719e-05 -3.45015e-07
5.84719e-05 6.9276e-05 1.86453e-07
-3.45015e-07 1.86453e-07 -5.44783e-06
0.000951202 7.55203e-05 5.23344e-08
7.55203e-05 0.000131391 9.95869e-07
5.23344e-08 9.95869e-07 2.66224e-05
0.000859776 0.000107269 1.91594e-07
0.000107269 6.87297e-05 -1.61201e-07
1.91594e-07 -1.61201e-07 -7.56702e-05
0.00190179 0.000108197 1.87156e-06
0.000108197 8.36299e-05 4.48168e-08
1.87156e-06 4.48168e-08 1.11146e-05
0.00186804 0.000198051 3.16168e-07
0.000198051 0.000160117 -1.19778e-06
3.16168e-07 -1.19778e-06 4.57322e-05
0.00177462 0.00018729 8.34995e-07
0.00018729 0.000431883 1.32765e-06
8.34995e-07 1.32765e-06 0.000245034
0.00101292 2.5664e-05 -7.66062e-07
2.5664e-05 0.000152805 6.71772e-07
-7.66062e-07 6.71772e-07 6.41299e-05
0.00199981 6.90099e-05 -8.688e-06
6.90099e-05 0.000140469 -1.08568e-06
-8.688e-06 -1.08568e-06 8.75028e-05
0.00172135 0.000131602 -2.59062e-06
0.000131602 0.00052446 7.07311e-09
-2.59062e-06 7.07311e-09 0.000404416
0.00190034 0.000177252 -3.30491e-06
0.000177252 0.000586369 6.04741e-07
-3.30491e-06 6.04741e-07 0.000419195
0.00225531 0.000207291 -2.99169e-07
0.000207291 0.000229909 6.28182e-08
-2.99169e-07 6.28182e-08 0.000157013
0.00145094 0.000186064 -3.16424e-06
0.000186064 0.000133481 1.01825e-06
-3.16424e-06 1.01825e-06 -3.27112e-05
0.000372406 8.34263e-05 1.09985e-05
8.34263e-05 -0.000392196 1.61045e-06
1.09985e-05 1.61045e-06 -0.000532746
0.000901003 -1.00518e-05 -2.64042e-08
-1.00518e-05 7.92008e-05 -3.60368e-07
-2.64042e-08 -3.60368e-07 1.23784e-05
0.000911674 -1.32104e-05 1.77936e-08
-1.32104e-05 9.00894e-05 1.01584e-07
1.77936e-08 1.01584e-07 1.62525e-05
0.000914062 -4.13001e-06 1.05634e-08
-4.13001e-06 8.5941e-05 -6.12847e-07
1.05634e-08 -6.12847e-07 7.80614e-06
0.000836362 -3.71859e-05 -2.60105e-07
-3.71859e-05 2.89962e-05 -6.62295e-07
-2.60105e-07 -6.62295e-07 -1.79592e-05
0.000790746 -4.99758e-05 -8.13565e-07
-4.99758e-05 1.73257e-05 2.67296e-07
-8.13565e-07 2.67296e-07 -4.07634e-05
0.00093151 4.91665e-05 -8.15752e-07
4.91665e-05 0.000104645 4.86326e-07
-8.15752e-07 4.86326e-07 3.65257e-05
0.00086763 -3.23841e-05 2.10592e-07
-3.23841e-05 6.49033e-05 -6.76961e-08
2.10592e-07 -6.76961e-08 -6.50256e-06
0.000834948 -2.26917e-05 -1.28131e-07
-2.26917e-05 2.86339e-05 4.20099e-08
-1.28131e-07 4.20099e-08 -1.92312e-05
0.000795108 -9.14137e-07 4.35887e-08
-9.14137e-07 1.25429e-05 -5.82552e-08
4.35887e-08 -5.82552e-08 -4.34647e-05
0.000874471 -1.82725e-05 4.65213e-07
-1.82725e-05 6.69851e-05 -4.73182e-07
4.65213e-07 -4.73182e-07 -6.81733e-06
0.00091254 -2.10993e-05 -9.06581e-08
-2.10993e-05 8.46982e-05 -2.65835e-08
-9.06581e-08 -2.65835e-08 2.20968e-05
0.000898872 -3.46368e-05 2.29064e-07
-3.46368e-05 7.99854e-05 -3.13276e-08
2.29064e-07 -3.13276e-08 1.0446e-05
0.000868141 -2.33986e-05 -1.94983e-07
-2.33986e-05 6.23853e-05 -8.31932e-07
-1.94983e-07 -8.31932e-07 -9.95246e-06
0.000868566 -8.21578e-06 4.52704e-07
-8.21578e-06 5.91944e-05 -7.52626e-07
4.52704e-07 -7.52626e-07 -5.20693e-06
0.000933195 -4.30018e-06 7.61673e-07
-4.30018e-06 8.95404e-05 -3.2188e-07
7.61673e-07 -3.2188e-07 2.85837e-05
0.000837248 1.68588e-05 1.49328e-07
1.68588e-05 3.63118e-05 1.87092e-07
1.49328e-07 1.87092e-07 -2.50759e-05
0.0007447 -3.59904e-06 2.09032e-07
-3.59904e-06 -2.49717e-05 9.23993e-07
2.09032e-07 9.23993e-07 -7.17074e-05
0.000953161 -3.35318e-06 3.79564e-07
-3.35318e-06 0.000109012 -2.9441e-07
3.79564e-07 -2.9441e-07 4.59351e-05
0.000724143 6.06258e-06 -4.12609e-07
6.06258e-06 -3.23791e-05 8.79887e-07
-4.12609e-07 8.79887e-07 -8.04398e-05
0.00079537 1.21172e-05 2.31226e-07
1.21172e-05 -2.38272e-06 1.39457e-06
2.31226e-07 1.39457e-06 -3.15211e-05
0.000794862 2.15359e-06 -1.91886e-07
2.15359e-06 -3.36375e-06 1.60038e-09
-1.91886e-07 1.60038e-09 -3.2054e-05
0.000743595 6.17477e-07 2.68212e-07
6.17477e-07 -4.15743e-05 3.05677e-06
2.68212e-07 3.05677e-06 -4.28477e-05
0.000805462 -8.2876e-06 -2.04745e-08
-8.2876e-06 1.36664e-06 -1.45165e-06
-2.04745e-08 -1.45165e-06 -2.65506e-05
0.00103 -5.10307e-06 -1.27283e-06
-5.10307e-06 0.000114897 -1.28497e-06
-1.27283e-06 -1.28497e-06 0.000115507
0.00208082 -7.83208e-06 5.58736e-06
-7.83208e-06 0.000690733 4.02833e-06
5.58736e-06 4.02833e-06 0.000713175
0.0013297 -1.12806e-05 -2.83543e-06
-1.12806e-05 0.000280001 -4.29676e-06
-2.83543e-06 -4.29676e-06 0.000282139
0.000950004 -1.15619e-05 1.8199e-06
-1.15619e-05 7.48945e-05 2.46851e-06
1.8199e-06 2.46851e-06 9.14622e-05
0.000896226 -1.66866e-05 -1.12837e-06
-1.66866e-05 4.83349e-05 -1.55398e-06
-1.12837e-06 -1.55398e-06 6.48608e-05
0.000804396 8.37877e-06 2.23606e-07
8.37877e-06 2.93744e-06 -1.61733e-06
2.23606e-07 -1.61733e-06 -2.49339e-05
0.000804916 1.12868e-05 -2.89515e-08
1.12868e-05 4.20076e-06 1.19758e-08
-2.89515e-08 1.19758e-08 -2.51714e-05
0.000742226 1.59218e-05 4.57633e-07
1.59218e-05 -3.78708e-05 -3.30702e-06
4.57633e-07 -3.30702e-06 -4.00314e-05
0.0010353 2.39461e-05 -4.86521e-07
2.39461e-05 0.000126304 3.07817e-08
-4.86521e-07 3.07817e-08 0.000123737
0.00211353 3.03355e-05 1.50374e-05
3.03355e-05 0.000717169 -3.97811e-06
1.50374e-05 -3.97811e-06 0.000737382
0.000747838 2.69829e-05 -1.20796e-06
2.69829e-05 -2.51763e-05 3.46784e-06
-1.20796e-06 3.46784e-06 -3.16652e-05
0.00217583 3.86922e-05 -1.6829e-06
3.86922e-05 0.000757172 -7.93238e-08
-1.6829e-06 -7.93238e-08 0.000775485
0.00225228 4.62811e-05 -2.46541e-05
4.62811e-05 0.000805797 3.8039e-06
-2.46541e-05 3.8039e-06 0.000822014
0.00173068 6.18321e-05 -8.6718e-07
6.18321e-05 5.91002e-05 -3.16989e-07
-8.6718e-07 -3.16989e-07 -3.30947e-05
0.00181549 1.93149e-05 7.30662e-07
1.93149e-05 0.000102038 -4.2491e-07
7.30662e-07 -4.2491e-07 4.48357e-06
0.00180555 7.25268e-07 2.24419e-07
7.25268e-07 0.00011858 -1.9914e-07
2.24419e-07 -1.9914e-07 1.08663e-05
0.00177951 1.48541e-06 2.98117e-07
1.48541e-06 9.08025e-05 8.97505e-08
2.98117e-07 8.97505e-08 -8.04653e-06
0.0018385 3.05703e-05 -6.48372e-07
3.05703e-05 0.000107938 1.61411e-07
-6.48372e-07 1.61411e-07 2.02279e-05
0.0017492 1.90303e-05 2.09803e-06
1.90303e-05 5.12492e-05 1.52168e-07
2.09803e-06 1.52168e-07 -2.07451e-05
0.00167717 5.16413e-06 -1.18838e-06
5.16413e-06 2.05949e-05 -6.15983e-07
-1.18838e-06 -6.15983e-07 -5.79374e-05
0.00365771 -3.6052e-05 8.8792e-06
-3.6052e-05 0.000878714 3.26066e-06
8.8792e-06 3.26066e-06 0.000833634
0.00159703 2.62896e-05 -4.08086e-06
2.62896e-05 -6.85719e-05 2.2154e-07
-4.08086e-06 2.2154e-07 -0.000118269
0.00083486 2.48808e-05 1.04304e-07
2.48808e-05 3.61738e-05 -8.0659e-07
1.04304e-07 -8.0659e-07 -9.42758e-06
0.00184709 -1.74979e-05 1.48064e-06
-1.74979e-05 0.000137797 1.04826e-07
1.48064e-06 1.04826e-07 4.08191e-05
0.00183523 -4.90174e-05 -6.77917e-07
-4.90174e-05 0.000121577 -4.09687e-07
-6.77917e-07 -4.09687e-07 3.16329e-05
0.00172054 -8.629e-05 2.6344e-06
-8.629e-05 3.66617e-05 2.76125e-07
2.6344e-06 2.76125e-07 -5.92585e-05
0.000846284 -0.000102991 1.68443e-06
-0.000102991 7.3082e-05 2.02268e-06
1.68443e-06 2.02268e-06 -3.74185e-05
0.00115089 -0.000137723 7.11683e-07
-0.000137723 0.000179729 4.20037e-06
7.11683e-07 4.20037e-06 4.77867e-06
0.00110158 -0.000151985 1.57687e-06
-0.000151985 -2.1807e-05 -1.93997e-06
1.57687e-06 -1.93997e-06 -0.00018105
0.00206842 -0.000180247 9.2893e-07
-0.000180247 0.000237193 -1.39855e-06
9.2893e-07 -1.39855e-06 0.000139098
0.00103739 -0.000104185 5.52652e-06
-0.000104185 0.000118707 -3.29192e-06
5.52652e-06 -3.29192e-06 2.10981e-05
0.000585307 -8.94978e-05 -1.11687e-06
-8.94978e-05 -7.04364e-05 -8.11477e-06
-1.11687e-06 -8.11477e-06 -0.000151806
0.000653741 -6.3811e-05 -1.3936e-07
-6.3811e-05 -3.05081e-05 2.19383e-07
-1.3936e-07 2.19383e-07 -0.000133703
0.000801624 1.45076e-05 -7.27438e-07
1.45076e-05 4.66748e-06 1.79336e-06
-7.27438e-07 1.79336e-06 -2.68717e-05
0.000912949 -4.6989e-06 -9.96071e-08
-4.6989e-06 8.93664e-05 -4.05395e-07
-9.96071e-08 -4.05395e-07 8.41693e-06
0.00106658 -4.33838e-05 -4.48657e-07
-4.33838e-05 0.00016566 4.58985e-07
-4.48657e-07 4.58985e-07 0.000109427
0.000868746 -1.02607e-05 -7.67161e-07
-1.02607e-05 6.60265e-05 1.12206e-06
-7.67161e-07 1.12206e-06 -6.77665e-06
0.000677845 -6.32885e-07 3.25558e-09
-6.32885e-07 -5.05516e-05 9.35017e-07
3.25558e-09 9.35017e-07 -9.86364e-05
0.00184446 -2.37584e-05 -4.57384e-07
-2.37584e-05 0.000107931 -1.7196e-07
-4.57384e-07 -1.7196e-07 2.72641e-05
0.000741569 1.65237e-05 1.85681e-07
1.65237e-05 -1.05625e-05 -5.34485e-07
1.85681e-07 -5.34485e-07 -5.9859e-05
0.000823032 -3.40204e-05 -4.35543e-07
-3.40204e-05 3.29231e-05 4.22053e-08
-4.35543e-07 4.22053e-08 -2.10587e-05
0.000863568 -9.94616e-06 -6.63797e-07
-9.94616e-06 6.85104e-05 4.97078e-07
-6.63797e-07 4.97078e-07 1.92258e-06
0.00174935 -4.55239e-05 8.62505e-07
-4.55239e-05 4.08616e-05 -3.24611e-07
8.62505e-07 -3.24611e-07 -4.22577e-05
0.00179801 -0.000145947 -1.2432e-06
-0.000145947 3.3721e-05 1.92265e-07
-1.2432e-06 1.92265e-07 -4.77779e-05
0.000891418 -9.67149e-05 -3.23471e-07
-9.67149e-05 6.38602e-05 3.00462e-07
-3.23471e-07 3.00462e-07 -4.52908e-05
0.00116845 -0.000155858 3.60333e-07
-0.000155858 0.000163477 -7.08983e-07
3.60333e-07 -7.08983e-07 -3.95384e-05
0.00157477 -0.000189726 -1.64016e-07
-0.000189726 6.93649e-05 4.8699e-07
-1.64016e-07 4.8699e-07 -4.97842e-05
0.000824154 4.49565e-06 -1.61343e-07
4.49565e-06 4.64841e-05 2.03044e-09
-1.61343e-07 2.03044e-09 -2.75902e-05
0.000959845 -2.58894e-05 -7.86411e-08
-2.58894e-05 0.00012028 5.32958e-08
-7.86411e-08 5.32958e-08 4.02044e-05
0.0007085 -0.000101236 -5.12589e-06
-0.000101236 -1.74106e-05 1.15613e-06
-5.12589e-06 1.15613e-06 -0.000108059
0.00104687 -6.16109e-05 7.95047e-07
-6.16109e-05 0.000197414 -5.14816e-07
7.95047e-07 -5.14816e-07 8.68287e-05
0.000787393 -3.59054e-05 -1.86336e-07
-3.59054e-05 3.9796e-05 8.87978e-07
-1.86336e-07 8.87978e-07 -5.31018e-05
0.00192869 -5.82927e-05 -3.55959e-06
-5.82927e-05 0.000101935 6.18649e-07
-3.55959e-06 6.18649e-07 3.09334e-05
0.00231781 -8.31652e-05 8.3933e-07
-8.31652e-05 0.000283765 1.2435e-06
8.3933e-07 1.2435e-06 0.000214444
0.00192472 -0.00021132 8.95073e-07
-0.00021132 0.000118689 -2.3118e-06
8.95073e-07 -2.3118e-06 2.39068e-05
0.00175061 -0.000201488 -5.75715e-06
-0.000201488 0.000346144 3.09155e-07
-5.75715e-06 3.09155e-07 0.000184992
0.000978339 -0.000106466 -9.6099e-07
-0.000106466 0.000149281 -2.30417e-06
-9.6099e-07 -2.30417e-06 1.66032e-06
0.000679162 1.79903e-05 1.48012e-07
1.79903e-05 -3.35655e-05 -9.99886e-07
1.48012e-07 -9.99886e-07 -9.87609e-05
0.000764537 5.15058e-05 -2.99485e-07
5.15058e-05 1.56507e-05 -8.85665e-07
-2.99485e-07 -8.85665e-07 -5.48691e-05
0.00104461 1.73321e-05 7.40682e-07
1.73321e-05 0.000164636 3.38839e-07
7.40682e-07 3.38839e-07 9.12536e-05
0.000809278 -5.01066e-05 1.26285e-06
-5.01066e-05 4.42286e-05 -3.82999e-08
1.26285e-06 -3.82999e-08 -3.66087e-05
0.000995056 2.70256e-06 6.44583e-07
2.70256e-06 0.000136072 5.97959e-07
6.44583e-07 5.97959e-07 5.44102e-05
0.000790172 -1.03062e-05 7.78093e-07
-1.03062e-05 4.90572e-05 -1.40761e-06
7.78093e-07 -1.40761e-06 -5.12014e-05
0.000678197 -7.51659e-05 8.50635e-06
-7.51659e-05 2.28873e-05 6.8332e-07
8.50635e-06 6.8332e-07 -0.000118573
0.000868392 3.57715e-05 -3.15514e-08
3.57715e-05 6.96943e-05 -1.42976e-06
-3.15514e-08 -1.42976e-06 -6.32909e-06
0.000742197 5.02779e-05 1.11231e-07
5.02779e-05 1.65618e-05 1.68203e-07
1.11231e-07 1.68203e-07 -8.43589e-05
0.00190269 5.60785e-05 9.93782e-07
5.60785e-05 0.000120863 -5.74833e-07
9.93782e-07 -5.74833e-07 4.66891e-05
0.00159792 0.000101652 3.75154e-06
0.000101652 -7.08509e-05 -6.97948e-07
3.75154e-06 -6.97948e-07 -0.000143204
0.00192943 0.000198119 1.38697e-06
0.000198119 0.000186785 -5.99578e-07
1.38697e-06 -5.99578e-07 7.4172e-05
0.000661592 9.59637e-05 1.29767e-06
9.59637e-05 -3.46536e-05 9.57053e-08
1.29767e-06 9.57053e-08 -0.00018081
0.00184895 0.000193014 1.50009e-06
0.000193014 0.000479074 1.08389e-06
1.50009e-06 1.08389e-06 0.000293061
0.00101658 1.75257e-05 -1.85947e-07
1.75257e-05 0.000153557 9.87593e-08
-1.85947e-07 9.87593e-08 6.81787e-05
0.0018659 6.74831e-05 -1.5995e-06
6.74831e-05 6.18967e-05 -3.97048e-07
-1.5995e-06 -3.97048e-07 1.48962e-05
0.00123763 0.000108681 -8.5672e-07
0.000108681 0.000273782 3.48024e-07
-8.5672e-07 3.48024e-07 0.000156394
0.00137078 0.000145687 -6.03074e-07
0.000145687 0.000323125 5.81259e-07
-6.03074e-07 5.81259e-07 0.000156639
0.00204387 0.000191104 1.35968e-06
0.000191104 0.000116151 -8.37569e-07
1.35968e-06 -8.37569e-07 4.49078e-05
0.00141722 0.000186348 -1.84588e-06
0.000186348 0.000121844 1.25133e-06
-1.84588e-06 1.25133e-06 -4.86067e-05
0.00164633 8.75409e-05 8.6762e-06
8.75409e-05 4.15308e-05 1.08675e-06
8.6762e-06 1.08675e-06 -0.000109581
0.00107079 4.06171e-05 -1.13758e-06
4.06171e-05 0.000180566 -1.05311e-06
-1.13758e-06 -1.05311e-06 8.47674e-05
0.00266722 0.00013005 -1.15791e-05
0.00013005 0.000465049 -7.37389e-06
-1.15791e-05 -7.37389e-06 0.000460333
0.0012277 0.000130708 -4.09702e-06
0.000130708 0.00028161 -1.49617e-06
-4.09702e-06 -1.49617e-06 0.000154018
0.00124094 0.000148274 -5.38394e-06
0.000148274 0.000225859 -9.63566e-07
-5.38394e-06 -9.63566e-07 3.22804e-05
4.52355e-05 0.000176761 -7.04877e-06
0.000176761 -0.000731444 -2.57653e-06
-7.04877e-06 -2.57653e-06 -0.000857006
0.00694175 -2.85393e-05 -5.33661e-05
-2.85393e-05 0.00227985 -1.62725e-05
-5.33661e-05 -1.62725e-05 0.00149477
0.00371218 9.37061e-05 7.92688e-05
9.37061e-05 0.000475591 7.5381e-06
7.92688e-05 7.5381e-06 -9.88348e-05
2.70039e-05 0.000172108 7.40297e-06
0.000172108 -0.000650295 1.82278e-05
7.40297e-06 1.82278e-05 -0.00071203
-0.0014432 -0.000317138 4.27882e-06
-0.000317138 -0.000664568 -9.28712e-06
4.27882e-06 -9.28712e-06 -0.000703497
0.00265468 -0.000556755 -2.56511e-05
-0.000556755 0.000254288 -7.59522e-06
-2.56511e-05 -7.59522e-06 0.00132863
0.000921773 -1.27314e-05 1.23784e-07
-1.27314e-05 9.5116e-05 -3.95477e-07
1.23784e-07 -3.95477e-07 2.13884e-05
0.000934279 -1.00009e-05 3.67887e-07
-1.00009e-05 9.88395e-05 -3.33919e-07
3.67887e-07 -3.33919e-07 2.12588e-05
0.000999765 2.71051e-05 -2.57658e-07
2.71051e-05 0.00013582 -1.42837e-06
-2.57658e-07 -1.42837e-06 5.8124e-05
0.000816333 -4.39744e-05 1.19493e-07
-4.39744e-05 2.20343e-05 -7.06744e-07
1.19493e-07 -7.06744e-07 -2.80377e-05
0.000731578 2.97685e-05 -8.626e-07
2.97685e-05 -1.96637e-05 -1.40357e-07
-8.626e-07 -1.40357e-07 -7.70943e-05
0.000919167 -4.24679e-05 -1.4111e-08
-4.24679e-05 8.79674e-05 2.504e-08
-1.4111e-08 2.504e-08 2.50473e-05
0.000982898 -2.20628e-05 -4.0832e-07
-2.20628e-05 0.000124463 3.79295e-07
-4.0832e-07 3.79295e-07 5.59956e-05
0.00085892 -2.24892e-05 7.28135e-07
-2.24892e-05 5.86348e-05 -5.13198e-07
7.28135e-07 -5.13198e-07 -1.56944e-05
0.000860608 2.07556e-05 -5.76373e-07
2.07556e-05 5.37554e-05 -2.68776e-07
-5.76373e-07 -2.68776e-07 -9.59224e-06
0.000779576 -2.41275e-06 1.99924e-09
-2.41275e-06 -2.56372e-06 4.60113e-07
1.99924e-09 4.60113e-07 -5.05867e-05
0.000852396 1.55221e-05 -2.43276e-07
1.55221e-05 4.42137e-05 -5.76227e-08
-2.43276e-07 -5.76227e-08 -1.65634e-05
0.000880412 -2.24337e-05 -1.06679e-07
-2.24337e-05 6.86409e-05 3.1478e-07
-1.06679e-07 3.1478e-07 -3.51582e-06
0.000889056 -1.19744e-05 3.4674e-08
-1.19744e-05 6.99368e-05 -1.32066e-07
3.4674e-08 -1.32066e-07 5.59099e-06
0.000794885 8.71866e-06 5.82426e-07
8.71866e-06 1.54112e-05 -6.48744e-07
5.82426e-07 -6.48744e-07 -4.75634e-05
0.000878108 -7.72048e-06 7.07211e-07
-7.72048e-06 6.24139e-05 -1.12414e-06
7.07211e-07 -1.12414e-06 -2.4311e-06
0.000883094 5.17737e-06 1.19484e-06
5.17737e-06 5.58735e-05 9.10278e-08
1.19484e-06 9.10278e-08 -6.71808e-06
0.00081964 1.47787e-06 1.00536e-06
1.47787e-06 1.979e-05 -4.80992e-08
1.00536e-06 -4.80992e-08 -4.02015e-05
0.000717244 -3.38106e-05 -1.15466e-06
-3.38106e-05 -3.53985e-05 9.53361e-07
-1.15466e-06 9.53361e-07 -8.44913e-05
0.000902723 7.86795e-06 -2.2015e-07
7.86795e-06 7.22754e-05 5.80412e-08
-2.2015e-07 5.80412e-08 1.06853e-05
0.000972105 6.31161e-05 3.47978e-08
6.31161e-05 0.000110878 -5.78663e-07
3.47978e-08 -5.78663e-07 4.62167e-05
0.000810979 1.0224e-05 -4.66368e-07
1.0224e-05 3.25445e-05 1.04171e-07
-4.66368e-07 1.04171e-07 -2.82416e-05
0.000908142 1.2701e-05 4.96277e-07
1.2701e-05 7.89284e-05 -3.25341e-07
4.96277e-07 -3.25341e-07 1.85628e-05
0.000833102 -2.06601e-05 -1.26819e-06
-2.06601e-05 2.74277e-05 5.03401e-07
-1.26819e-06 5.03401e-07 -1.93753e-05
0.000730083 5.39424e-06 1.0807e-07
5.39424e-06 -2.61127e-05 3.87334e-07
1.0807e-07 3.87334e-07 -7.62423e-05
0.000800791 1.37619e-05 -1.22953e-07
1.37619e-05 7.10277e-07 1.4359e-06
-1.22953e-07 1.4359e-06 -2.84634e-05
0.000792779 4.85747e-06 -1.36936e-07
4.85747e-06 -3.92314e-06 1.43181e-09
-1.36936e-07 1.43181e-09 -3.29696e-05
0.000760606 5.57747e-06 -2.91669e-07
5.57747e-06 -3.11685e-05 4.3497e-06
-2.91669e-07 4.3497e-06 -3.29779e-05
0.000793412 -5.09204e-06 2.45638e-07
-5.09204e-06 -4.1528e-06 -1.40341e-06
2.45638e-07 -1.40341e-06 -3.27823e-05
0.000746981 7.36964e-07 1.91141e-07
7.36964e-07 -3.97193e-05 -8.37453e-09
1.91141e-07 -8.37453e-09 -4.10241e-05
0.00209862 -9.7132e-07 2.67637e-07
-9.7132e-07 0.000699998 4.08551e-06
2.67637e-07 4.08551e-06 0.000722307
0.000768171 -4.1658e-06 -5.68335e-07
-4.1658e-06 -2.76789e-05 -4.32204e-06
-5.68335e-07 -4.32204e-06 -2.87361e-05
0.00151815 -6.51986e-06 -3.17276e-07
-6.51986e-06 0.000383434 1.74632e-08
-3.17276e-07 1.74632e-08 0.000402919
0.000908142 -1.09206e-05 -6.37507e-07
-1.09206e-05 5.14345e-05 -1.54022e-06
-6.37507e-07 -1.54022e-06 6.82983e-05
0.000809145 4.04743e-06 -6.49201e-08
4.04743e-06 4.53139e-06 -1.68516e-06
-6.49201e-08 -1.68516e-06 -2.2298e-05
0.000803939 7.4892e-06 5.08358e-08
7.4892e-06 2.3641e-06 7.95034e-11
5.08358e-08 7.95034e-11 -2.5456e-05
0.000747157 1.05816e-05 2.47998e-07
1.05816e-05 -3.80602e-05 -3.2729e-06
2.47998e-07 -3.2729e-06 -3.89417e-05
0.000808692 1.04427e-05 -5.68497e-07
1.04427e-05 5.9698e-06 1.76529e-06
-5.68497e-07 1.76529e-06 -2.34153e-05
0.00102675 1.78213e-05 -2.5041e-07
1.78213e-05 0.000117053 -6.53544e-07
-2.5041e-07 -6.53544e-07 0.000116404
0.00209021 2.26175e-05 1.1216e-05
2.26175e-05 0.000700328 -4.07276e-06
1.1216e-05 -4.07276e-06 0.000721712
0.000749919 2.19723e-05 -8.41241e-07
2.19723e-05 -2.91045e-05 3.38293e-06
-8.41241e-07 3.38293e-06 -3.33517e-05
0.00214957 3.00947e-05 -6.32096e-06
3.00947e-05 0.000738002 1.12093e-06
-6.32096e-06 1.12093e-06 0.000757908
0.00218987 3.89698e-05 -2.03035e-05
3.89698e-05 0.000765588 3.92225e-06
-2.03035e-05 3.92225e-06 0.000783667
0.00171922 3.00374e-05 3.49426e-07
3.00374e-05 4.83958e-05 9.49995e-08
3.49426e-07 9.49995e-08 -3.9745e-05
0.00177395 3.16913e-06 1.08266e-06
3.16913e-06 8.56389e-05 -1.89714e-07
1.08266e-06 -1.89714e-07 -1.33787e-05
0.00182594 1.67312e-05 3.82092e-06
1.67312e-05 0.000100104 3.11195e-08
3.82092e-06 3.11195e-08 2.59663e-05
0.00180712 -6.34468e-06 8.98549e-06
-6.34468e-06 -4.30392e-05 1.95244e-06
8.98549e-06 1.95244e-06 -0.000109717
0.0018383 4.08904e-06 -4.92401e-07
4.08904e-06 0.00010389 -7.7971e-08
-4.92401e-07 -7.7971e-08 2.55875e-05
0.00182314 2.70536e-05 1.42588e-06
2.70536e-05 6.17623e-05 1.32989e-07
1.42588e-06 1.32989e-07 8.33086e-06
0.00238776 1.46072e-05 -2.18288e-06
1.46072e-05 0.000343451 1.29915e-06
-2.18288e-06 1.29915e-06 0.000269517
0.00315789 -7.55273e-05 0.000139476
-7.55273e-05 0.000508631 1.5805e-05
0.000139476 1.5805e-05 0.000179881
0.00158406 -4.14184e-05 -6.58637e-06
-4.14184e-05 -0.000136306 -1.12841e-06
-6.58637e-06 -1.12841e-06 -0.000205871
0.000837119 3.02427e-05 -7.73807e-07
3.02427e-05 3.82946e-05 -8.89934e-07
-7.73807e-07 -8.89934e-07 -7.8153e-06
0.000830243 -1.35861e-05 6.6917e-07
-1.35861e-05 3.64519e-05 -5.24377e-08
6.6917e-07 -5.24377e-08 -1.11597e-05
0.000836017 -4.01335e-05 7.56029e-08
-4.01335e-05 4.46255e-05 -1.61403e-07
7.56029e-08 -1.61403e-07 -1.33752e-05
0.000837405 -2.3844e-05 -1.20043e-06
-2.3844e-05 5.56187e-05 -2.30246e-08
-1.20043e-06 -2.30246e-08 -7.70971e-06
0.00186175 -2.57239e-05 2.88554e-06
-2.57239e-05 0.000116447 -3.3836e-07
2.88554e-06 -3.3836e-07 3.68006e-05
0.00166696 -5.12304e-05 -1.52911e-06
-5.12304e-05 -1.08711e-05 -3.92211e-07
-1.52911e-06 -3.92211e-07 -9.37352e-05
0.00186368 -0.000146345 -1.19591e-06
-0.000146345 8.10446e-05 1.2592e-06
-1.19591e-06 1.2592e-06 -2.47445e-06
0.000730357 -9.93881e-05 3.02319e-06
-9.93881e-05 -3.38234e-05 2.78931e-06
3.02319e-06 2.78931e-06 -0.000137434
0.000370583 -0.000110872 3.46739e-06
-0.000110872 -0.000240529 -7.87397e-07
3.46739e-06 -7.87397e-07 -0.000443092
0.00214131 -0.000215217 9.53749e-07
-0.000215217 0.000367761 -2.27566e-06
9.53749e-07 -2.27566e-06 0.00024568
0.000659924 -8.97611e-05 -7.55461e-06
-8.97611e-05 -4.04655e-05 1.22861e-06
-7.55461e-06 1.22861e-06 -0.000135172
0.000951082 -4.86444e-05 -1.57388e-06
-4.86444e-05 0.000143075 -3.97071e-07
-1.57388e-06 -3.97071e-07 3.62859e-05
0.00102925 -5.55758e-05 -1.5339e-06
-5.55758e-05 0.000169072 1.60213e-06
-1.5339e-06 1.60213e-06 7.54842e-05
0.000835721 -9.23621e-06 -1.14182e-06
-9.23621e-06 3.87171e-05 1.09488e-06
-1.14182e-06 1.09488e-06 -1.47641e-05
0.000865504 -3.80537e-05 -5.16969e-07
-3.80537e-05 7.46259e-05 1.26044e-07
-5.16969e-07 1.26044e-07 -8.93293e-06
0.000936356 2.50058e-06 -7.21005e-07
2.50058e-06 0.000105191 6.17295e-07
-7.21005e-07 6.17295e-07 3.30189e-05
0.000834608 -3.50134e-06 4.91144e-09
-3.50134e-06 4.08608e-05 3.26535e-07
4.91144e-09 3.26535e-07 -8.70743e-06
0.000712472 2.30524e-05 2.84977e-07
2.30524e-05 -1.091e-05 1.17811e-06
2.84977e-07 1.17811e-06 -8.00261e-05
0.00185552 -4.7157e-05 -5.24026e-07
-4.7157e-05 8.15741e-05 7.88895e-07
-5.24026e-07 7.88895e-07 1.03511e-05
0.000842529 1.21472e-05 5.32106e-07
1.21472e-05 5.38182e-05 -4.66578e-07
5.32106e-07 -4.66578e-07 -9.68366e-06
0.000800198 2.48448e-05 5.24883e-07
2.48448e-05 3.55894e-05 4.56691e-09
5.24883e-07 4.56691e-09 -3.47568e-05
0.00092094 5.07361e-05 -3.66786e-07
5.07361e-05 9.99002e-05 6.6288e-07
-3.66786e-07 6.6288e-07 2.47313e-05
0.00199665 -7.84879e-05 -3.08693e-06
-7.84879e-05 0.00010723 4.31175e-07
-3.08693e-06 4.31175e-07 3.37776e-05
0.00179665 -0.00019831 5.94538e-07
-0.00019831 6.38867e-05 -1.09115e-06
5.94538e-07 -1.09115e-06 -2.93791e-05
0.000944937 -0.000115459 -1.1077e-06
-0.000115459 0.000116178 -1.2819e-07
-1.1077e-06 -1.2819e-07 -2.64831e-05
0.00194632 -0.000210642 -6.31669e-07
-0.000210642 0.000450375 -4.70341e-07
-6.31669e-07 -4.70341e-07 0.000285439
0.000907952 -1.13587e-05 -3.40249e-07
-1.13587e-05 9.38405e-05 9.26356e-08
-3.40249e-07 9.26356e-08 1.44939e-05
0.000904534 -7.19611e-06 8.02476e-08
-7.19611e-06 9.51306e-05 7.86448e-07
8.02476e-08 7.86448e-07 1.12986e-05
0.000824403 -7.74685e-05 3.78517e-06
-7.74685e-05 9.15467e-05 -9.30986e-07
3.78517e-06 -9.30986e-07 -4.25448e-05
0.00100935 -4.82563e-05 7.40177e-07
-4.82563e-05 0.000168355 -1.2313e-06
7.40177e-07 -1.2313e-06 6.12465e-05
0.00156052 -3.53063e-05 -2.35158e-06
-3.53063e-05 -0.00013716 2.46351e-06
-2.35158e-06 2.46351e-06 -0.00021251
0.00199358 -0.000173993 2.14214e-06
-0.000173993 5.56158e-05 -2.50792e-06
2.14214e-06 -2.50792e-06 -8.52213e-06
0.00202867 -0.000224801 -2.40115e-06
-0.000224801 0.000327747 -1.78562e-06
-2.40115e-06 -1.78562e-06 0.000195699
0.0011931 -0.000160176 -7.74195e-07
-0.000160176 0.000241594 -1.1493e-06
-7.74195e-07 -1.1493e-06 8.40709e-05
0.000814707 2.85952e-05 -6.92687e-07
2.85952e-05 4.28394e-05 -1.37696e-07
-6.92687e-07 -1.37696e-07 -3.57995e-05
0.00083681 -3.33652e-05 5.6768e-07
-3.33652e-05 6.24307e-05 -5.26465e-07
5.6768e-07 -5.26465e-07 -1.66951e-05
0.000881141 -1.73702e-05 1.66029e-07
-1.73702e-05 7.96188e-05 3.47619e-08
1.66029e-07 3.47619e-08 -6.10648e-06
0.000752489 -5.25928e-06 -1.23322e-06
-5.25928e-06 4.62005e-05 -5.05144e-07
-1.23322e-06 -5.05144e-07 -9.63095e-05
0.000843877 -8.13677e-05 -5.77214e-06
-8.13677e-05 -0.000872191 -4.76926e-06
-5.77214e-06 -4.76926e-06 -0.00133031
0.000980753 7.01745e-06 5.3689e-07
7.01745e-06 0.000132895 -8.61364e-07
5.3689e-07 -8.61364e-07 5.13228e-05
0.000748432 7.89544e-05 1.65306e-06
7.89544e-05 1.84447e-05 1.32307e-06
1.65306e-06 1.32307e-06 -9.55103e-05
0.00170137 6.60901e-05 8.10433e-06
6.60901e-05 -3.41481e-05 5.32749e-07
8.10433e-06 5.32749e-07 -7.48704e-05
0.0018091 0.000174196 1.22543e-06
0.000174196 -8.93833e-06 -9.50091e-07
1.22543e-06 -9.50091e-07 -7.84833e-05
0.00134863 0.000185044 1.75055e-06
0.000185044 9.44436e-05 2.65324e-06
1.75055e-06 2.65324e-06 -8.17458e-05
0.000858411 0.000114876 3.29185e-06
0.000114876 6.86361e-05 1.38242e-06
3.29185e-06 1.38242e-06 -9.7676e-05
0.00268022 9.609e-05 5.49701e-06
9.609e-05 0.000377732 -2.22899e-06
5.49701e-06 -2.22899e-06 0.000197343
0.00094948 3.59128e-05 7.81284e-07
3.59128e-05 0.00012153 -6.14737e-07
7.81284e-07 -6.14737e-07 2.68284e-05
0.00214561 0.000120427 -5.17586e-06
0.000120427 0.000189001 -2.53283e-06
-5.17586e-06 -2.53283e-06 0.000195173
0.00104139 0.000119618 1.57023e-07
0.000119618 0.000184983 -2.24184e-07
1.57023e-07 -2.24184e-07 6.02619e-05
0.00112201 0.000145803 6.67066e-08
0.000145803 0.000175119 3.45429e-07
6.67066e-08 3.45429e-07 -2.09868e-05
0.00112158 0.000222765 -3.94149e-06
0.000222765 -0.000212773 3.02188e-07
-3.94149e-06 3.02188e-07 -0.000333244
0.00241731 -0.000176341 -3.88144e-05
-0.000176341 7.43486e-05 -1.33922e-05
-3.88144e-05 -1.33922e-05 -0.000629015
0.00369216 1.75005e-05 9.43651e-07
1.75005e-05 0.00036777 -1.31241e-05
9.43651e-07 -1.31241e-05 -0.000311245
0.000214042 0.000152101 6.02547e-06
0.000152101 -0.00055053 4.57014e-06
6.02547e-06 4.57014e-06 -0.000621612
-0.00201546 -0.000236968 3.36644e-05
-0.000236968 -0.000628252 7.92375e-06
3.36644e-05 7.92375e-06 -0.000965829
-4.9531e-05 -0.000580369 8.28321e-06
-0.000580369 -0.00113918 -4.48836e-06
8.28321e-06 -4.48836e-06 9.05594e-05
0.00112504 7.38657e-05 -1.29055e-06
7.38657e-05 0.000225262 -1.92298e-06
-1.29055e-06 -1.92298e-06 0.000131426
0.00083622 9.90448e-05 -7.75936e-05
9.90448e-05 0.000766948 -2.26545e-05
-7.75936e-05 -2.26545e-05 0.000419098
0.00136766 -0.000320261 -4.40353e-05
-0.000320261 0.000491871 -3.25075e-05
-4.40353e-05 -3.25075e-05 0.000757616
0.00120688 0.000138638 -1.53045e-05
0.000138638 -0.00021894 -4.27857e-06
-1.53045e-05 -4.27857e-06 -0.00018525
0.00114045 7.23371e-05 -5.23748e-06
7.23371e-05 0.000260835 -2.0672e-06
-5.23748e-06 -2.0672e-06 0.000122533
0.00101283 0.000186636 -9.99719e-06
0.000186636 7.69312e-05 -4.56284e-06
-9.99719e-06 -4.56284e-06 -0.000128133
-4.092e-05 0.000187521 4.977e-06
0.000187521 -0.000670503 3.86264e-05
4.977e-06 3.86264e-05 -0.000629183
0.00681587 -0.000195004 -5.0907e-05
-0.000195004 0.00234011 -9.83151e-06
-5.0907e-05 -9.83151e-06 0.00117621
0.00329537 0.000210165 -2.89015e-06
0.000210165 0.000217173 2.67099e-05
-2.89015e-06 2.67099e-05 -0.000732998
0.000626722 -0.000501824 -2.37187e-05
-0.000501824 -0.000109962 -7.85822e-06
-2.37187e-05 -7.85822e-06 0.000210532
0.000861453 -0.000312318 -3.6316e-05
-0.000312318 -0.00152202 1.04501e-05
-3.6316e-05 1.04501e-05 -0.000596566
0.000944311 -1.47028e-05 3.95307e-07
-1.47028e-05 0.000106995 -2.91478e-07
3.95307e-07 -2.91478e-07 2.97801e-05
0.000945209 1.54717e-05 -2.0058e-07
1.54717e-05 0.000106517 1.04643e-07
-2.0058e-07 1.04643e-07 2.99259e-05
0.00121251 5.6923e-05 -4.59491e-07
5.6923e-05 0.000257072 -2.13575e-06
-4.59491e-07 -2.13575e-06 0.000186896
0.000815534 2.34043e-06 -1.97109e-07
2.34043e-06 2.40821e-05 -1.72232e-07
-1.97109e-07 -1.72232e-07 -2.76709e-05
0.000877165 8.88048e-06 -6.65082e-07
8.88048e-06 5.65254e-05 -1.82783e-07
-6.65082e-07 -1.82783e-07 -3.21233e-06
0.000804224 -3.44002e-05 -3.69116e-07
-3.44002e-05 1.94038e-05 -2.21374e-07
-3.69116e-07 -2.21374e-07 -4.17334e-05
0.000916466 -1.52089e-05 -2.68983e-09
-1.52089e-05 8.44905e-05 1.80795e-07
-2.68983e-09 1.80795e-07 2.00027e-05
0.00091033 -2.48868e-05 9.28871e-08
-2.48868e-05 8.48667e-05 1.05005e-06
9.28871e-08 1.05005e-06 1.25111e-05
0.000729416 -9.25379e-07 4.64891e-07
-9.25379e-07 -2.75216e-05 3.99625e-07
4.64891e-07 3.99625e-07 -7.75932e-05
0.000838248 -1.43592e-05 -7.13592e-08
-1.43592e-05 3.89737e-05 -2.10452e-07
-7.13592e-08 -2.10452e-07 -2.38654e-05
0.00092648 -2.52849e-05 -1.54976e-07
-2.52849e-05 8.1458e-05 2.97552e-07
-1.54976e-07 2.97552e-07 1.78656e-05
0.000883485 2.15415e-05 4.90113e-07
2.15415e-05 5.9546e-05 -1.75729e-07
4.90113e-07 -1.75729e-07 -3.1634e-06
0.000900575 -5.70838e-06 8.54106e-08
-5.70838e-06 7.41546e-05 -3.55458e-08
8.54106e-08 -3.55458e-08 9.31614e-06
0.000813407 -2.20789e-05 6.65158e-07
-2.20789e-05 1.65779e-05 -4.95646e-07
6.65158e-07 -4.95646e-07 -4.67839e-05
0.000917988 1.73534e-05 -1.92561e-07
1.73534e-05 7.34365e-05 -2.40479e-06
-1.92561e-07 -2.40479e-06 1.15022e-05
0.000942256 -5.81403e-05 1.5318e-07
-5.81403e-05 8.38306e-05 -1.93168e-07
1.5318e-07 -1.93168e-07 2.02462e-05
0.000926749 -3.78437e-05 -3.56243e-07
-3.78437e-05 8.34717e-05 -3.24701e-07
-3.56243e-07 -3.24701e-07 2.07474e-05
0.000920822 -5.60221e-06 -3.82621e-07
-5.60221e-06 8.11802e-05 -7.02738e-08
-3.82621e-07 -7.02738e-08 1.97475e-05
0.000934595 5.16188e-05 -3.75507e-07
5.16188e-05 8.80021e-05 -2.60445e-07
-3.75507e-07 -2.60445e-07 2.44898e-05
0.00090245 2.19622e-05 -1.12024e-07
2.19622e-05 7.12003e-05 -5.97642e-07
-1.12024e-07 -5.97642e-07 2.79777e-06
0.000872171 4.76569e-05 2.0457e-07
4.76569e-05 6.14798e-05 -1.86082e-07
2.0457e-07 -1.86082e-07 -2.21202e-06
0.000953344 6.93766e-05 -1.56003e-07
6.93766e-05 9.71536e-05 -6.26323e-07
-1.56003e-07 -6.26323e-07 3.15067e-05
0.000790129 3.01784e-05 1.30783e-06
3.01784e-05 2.82923e-05 1.28816e-06
1.30783e-06 1.28816e-06 -4.11695e-05
0.000815239 2.45859e-05 3.15862e-08
2.45859e-05 3.09506e-05 2.42177e-07
3.15862e-08 2.42177e-07 -2.64777e-05
0.000832742 5.69046e-06 -1.16073e-07
5.69046e-06 4.20205e-05 -4.18741e-08
-1.16073e-07 -4.18741e-08 -1.73546e-05
0.000822583 1.35689e-05 -8.86213e-07
1.35689e-05 2.16135e-05 4.56129e-07
-8.86213e-07 4.56129e-07 -2.36809e-05
0.000863264 1.61381e-05 4.14785e-07
1.61381e-05 4.79621e-05 -2.49714e-07
4.14785e-07 -2.49714e-07 -9.03313e-06
0.000794751 -1.58434e-05 -9.64334e-09
-1.58434e-05 6.64533e-06 2.65974e-08
-9.64334e-09 2.65974e-08 -4.05855e-05
0.000802591 1.53587e-05 -4.27756e-07
1.53587e-05 2.09323e-06 1.51547e-06
-4.27756e-07 1.51547e-06 -2.70052e-05
0.000738965 7.6609e-06 3.33978e-07
7.6609e-06 -1.95983e-05 -1.58938e-07
3.33978e-07 -1.58938e-07 -7.09512e-05
0.000796954 7.65222e-06 -1.45688e-07
7.65222e-06 -1.63644e-06 -1.57704e-09
-1.45688e-07 -1.57704e-09 -3.06809e-05
0.00134209 1.23288e-05 -2.85446e-06
1.23288e-05 0.000287826 4.30257e-06
-2.85446e-06 4.30257e-06 0.000288719
0.000790818 -2.33531e-06 5.2152e-07
-2.33531e-06 -5.07088e-06 -1.39944e-06
5.2152e-07 -1.39944e-06 -3.40539e-05
0.00104538 6.45234e-06 -1.31762e-06
6.45234e-06 0.000124191 6.39188e-07
-1.31762e-06 6.39188e-07 0.000123933
0.000964125 3.31447e-06 -2.78518e-06
3.31447e-06 8.10739e-05 3.98716e-06
-2.78518e-06 3.98716e-06 9.72147e-05
0.000751557 8.50182e-07 -2.52721e-08
8.50182e-07 -3.71965e-05 -3.04812e-06
-2.52721e-08 -3.04812e-06 -3.8542e-05
0.00210303 -4.10742e-07 2.35857e-06
-4.10742e-07 0.00070243 -3.94834e-10
2.35857e-06 -3.94834e-10 0.00072469
0.000972353 -3.89321e-06 -2.13701e-06
-3.89321e-06 8.53159e-05 -3.97162e-06
-2.13701e-06 -3.97162e-06 0.000101898
0.000831824 4.70606e-05 4.68547e-07
4.70606e-05 3.78642e-05 -2.46189e-07
4.68547e-07 -2.46189e-07 -1.06202e-05
0.000807715 -4.54418e-07 -1.16154e-07
-4.54418e-07 3.35762e-06 -1.68026e-06
-1.16154e-07 -1.68026e-06 -2.28382e-05
0.000808574 3.24324e-06 -7.06951e-08
3.24324e-06 4.10688e-06 -6.47249e-09
-7.06951e-08 -6.47249e-09 -2.26864e-05
0.000753609 5.00054e-06 -3.91184e-08
5.00054e-06 -3.63704e-05 -3.2496e-06
-3.91184e-08 -3.2496e-06 -3.62695e-05
0.000805284 6.65804e-06 -2.5055e-07
6.65804e-06 2.75954e-06 1.62289e-06
-2.5055e-07 1.62289e-06 -2.50181e-05
0.000747016 1.07747e-05 4.50046e-08
1.07747e-05 -3.85018e-05 -6.677e-07
4.50046e-08 -6.677e-07 -3.93023e-05
0.00206477 1.47859e-05 7.48005e-06
1.47859e-05 0.000683635 -4.13659e-06
7.48005e-06 -4.13659e-06 0.000705913
0.00130668 2.10667e-05 -1.1985e-06
2.10667e-05 0.000270201 2.02e-06
-1.1985e-06 2.02e-06 0.0002708
0.00153595 1.94328e-05 3.67734e-07
1.94328e-05 0.000398837 1.29549e-06
3.67734e-07 1.29549e-06 0.000416946
0.00100891 2.18642e-05 -1.53904e-05
2.18642e-05 0.000115967 6.61993e-06
-1.53904e-05 6.61993e-06 0.000129713
-0.000216006 2.77565e-05 1.24342e-05
2.77565e-05 -0.00104995 5.72489e-06
1.24342e-05 5.72489e-06 -0.00113553
0.00201739 2.90684e-06 1.88923e-06
2.90684e-06 0.000197082 2.63427e-08
1.88923e-06 2.63427e-08 0.000118927
0.00198656 2.65647e-05 3.81127e-06
2.65647e-05 0.000158824 -1.68406e-06
3.81127e-06 -1.68406e-06 0.000101666
0.00112174 -2.27166e-05 2.6506e-05
-2.27166e-05 -0.000321934 -3.949e-06
2.6506e-05 -3.949e-06 -0.00063331
0.00175845 -3.24232e-05 -1.6167e-06
-3.24232e-05 2.1249e-05 3.74937e-07
-1.6167e-06 3.74937e-07 -6.29158e-05
0.00185299 7.74387e-06 -3.48095e-06
7.74387e-06 1.03643e-05 -1.63775e-06
-3.48095e-06 -1.63775e-06 -6.00962e-05
0.00193518 3.39433e-06 -1.19448e-05
3.39433e-06 0.000132937 1.87284e-06
-1.19448e-05 1.87284e-06 4.43904e-05
0.00146755 -8.49342e-05 0.000129246
-8.49342e-05 -0.000100296 -6.29615e-06
0.000129246 -6.29615e-06 -0.000465048
0.00795772 1.96533e-05 -2.46199e-05
1.96533e-05 0.0027131 -1.55088e-06
-2.46199e-05 -1.55088e-06 0.00188105
0.00291276 0.000560774 8.2137e-06
0.000560774 0.00132417 -1.4966e-06
8.2137e-06 -1.4966e-06 0.0015252
0.00232346 0.000562848 -1.77736e-05
0.000562848 0.000596937 9.82088e-06
-1.77736e-05 9.82088e-06 0.00157916
0.000713196 -4.77229e-05 9.71638e-07
-4.77229e-05 -1.70026e-05 -7.60199e-07
9.71638e-07 -7.60199e-07 -7.73861e-05
0.000836368 -1.04811e-05 2.14272e-07
-1.04811e-05 3.90519e-05 -4.63019e-08
2.14272e-07 -4.63019e-08 -7.84522e-06
0.000827832 -5.25552e-05 -9.67178e-07
-5.25552e-05 3.82592e-05 9.22965e-07
-9.67178e-07 9.22965e-07 -1.15564e-05
0.000809468 -1.65427e-05 -3.1091e-07
-1.65427e-05 3.40606e-05 2.33155e-08
-3.1091e-07 2.33155e-08 -2.68443e-05
0.000811706 3.99506e-05 8.70604e-08
3.99506e-05 4.58608e-05 6.2743e-07
8.70604e-08 6.2743e-07 -2.60789e-05
0.000932461 6.72069e-05 2.9052e-07
6.72069e-05 0.000102134 7.25123e-07
2.9052e-07 7.25123e-07 3.46772e-05
0.000877984 -2.87241e-05 6.49897e-07
-2.87241e-05 7.09542e-05 -7.85344e-07
6.49897e-07 -7.85344e-07 1.06561e-05
0.000800039 -3.81025e-05 -4.93037e-07
-3.81025e-05 3.08662e-05 5.34621e-07
-4.93037e-07 5.34621e-07 -2.995e-05
0.00183706 -3.41458e-05 3.47041e-06
-3.41458e-05 8.9372e-05 -1.15902e-06
3.47041e-06 -1.15902e-06 1.8317e-05
0.00159347 -7.50976e-05 -2.72891e-06
-7.50976e-05 -0.000118428 -5.8265e-07
-2.72891e-06 -5.8265e-07 -0.000195186
0.00148901 -0.000181441 -3.62581e-06
-0.000181441 -8.06925e-05 1.52287e-06
-3.62581e-06 1.52287e-06 -0.000172427
0.000886631 -0.000122667 9.1777e-07
-0.000122667 7.20237e-05 2.37623e-06
9.1777e-07 2.37623e-06 -6.77384e-05
0.0018554 -0.000206514 1.26584e-06
-0.000206514 0.000407241 5.01932e-08
1.26584e-06 5.01932e-08 0.000236158
0.000964105 -7.93904e-05 -7.6988e-07
-7.93904e-05 0.000157216 -3.17519e-07
-7.6988e-07 -3.17519e-07 3.03311e-05
0.00121721 -8.40053e-05 -1.12185e-07
-8.40053e-05 0.000281703 -6.41925e-09
-1.12185e-07 -6.41925e-09 0.000168007
0.000816535 -2.67574e-05 -1.25613e-06
-2.67574e-05 5.47862e-05 5.78227e-07
-1.25613e-06 5.78227e-07 -3.06294e-05
0.000819678 5.13634e-06 3.916e-07
5.13634e-06 4.69519e-05 5.47152e-07
3.916e-07 5.47152e-07 -2.31388e-05
0.00100072 1.16838e-05 -9.01055e-07
1.16838e-05 0.00014029 -7.09989e-09
-9.01055e-07 -7.09989e-09 6.24427e-05
0.00102417 -7.52833e-07 5.19616e-07
-7.52833e-07 0.000150437 1.64461e-07
5.19616e-07 1.64461e-07 8.87635e-05
0.000800092 8.25248e-05 1.12709e-06
8.25248e-05 3.64579e-05 1.44438e-06
1.12709e-06 1.44438e-06 -4.04684e-05
0.00159937 -3.3541e-05 -7.65882e-07
-3.3541e-05 -0.00011858 -2.50764e-06
-7.65882e-07 -2.50764e-06 -0.000191008
0.000857244 3.02306e-05 -3.01015e-07
3.02306e-05 6.63121e-05 2.84286e-07
-3.01015e-07 2.84286e-07 -1.0588e-05
0.000848001 -2.12571e-05 -3.59693e-07
-2.12571e-05 6.40598e-05 -3.71711e-07
-3.59693e-07 -3.71711e-07 -1.33537e-05
0.0021917 -0.000183233 4.33383e-07
-0.000183233 0.000161873 5.41221e-07
4.33383e-07 5.41221e-07 9.4139e-05
0.00101107 -0.000181311 1.24328e-06
-0.000181311 -0.000184489 3.45029e-07
1.24328e-06 3.45029e-07 -0.000307089
0.0011587 -0.000160113 7.54366e-07
-0.000160113 0.00021672 -1.44815e-06
7.54366e-07 -1.44815e-06 5.07765e-05
0.00099183 -1.86585e-05 1.61751e-07
-1.86585e-05 0.000139087 -3.69499e-07
1.61751e-07 -3.69499e-07 5.11395e-05
0.000986542 -2.61228e-05 4.61762e-07
-2.61228e-05 0.000171597 4.6208e-07
4.61762e-07 4.6208e-07 2.8178e-05
0.0034967 -0.000141961 -9.37365e-06
-0.000141961 0.00097194 7.21928e-06
-9.37365e-06 7.21928e-06 0.000887455
0.00266032 -0.000261903 -7.13377e-06
-0.000261903 0.000489269 -3.18176e-06
-7.13377e-06 -3.18176e-06 0.000429434
-0.000664116 -0.000109519 -3.53763e-06
-0.000109519 -0.000843727 -1.80274e-06
-3.53763e-06 -1.80274e-06 -0.000980277
0.00126357 -9.57073e-05 -4.24682e-06
-9.57073e-05 0.000299416 1.51971e-06
-4.24682e-06 1.51971e-06 0.000127441
0.000732399 -6.92169e-05 7.93961e-07
-6.92169e-05 -6.46914e-06 -3.07148e-08
7.93961e-07 -3.07148e-08 -8.20499e-05
0.00093633 -3.10314e-05 1.26574e-06
-3.10314e-05 0.000103072 9.82841e-08
1.26574e-06 9.82841e-08 2.15112e-05
0.000832324 -1.0767e-05 -2.44922e-06
-1.0767e-05 5.55475e-05 5.51343e-08
-2.44922e-06 5.51343e-08 -4.36395e-05
-0.0039166 -3.21617e-05 2.50169e-05
-3.21617e-05 -0.00174357 7.93214e-07
2.50169e-05 7.93214e-07 -0.00153556
0.00774645 -4.6889e-05 -2.76744e-05
-4.6889e-05 0.0026818 -2.97809e-07
-2.76744e-05 -2.97809e-07 0.00207812
0.000862798 3.5457e-05 2.02153e-06
3.5457e-05 8.16938e-05 -4.25413e-07
2.02153e-06 -4.25413e-07 -1.25109e-05
0.000904606 0.000111371 2.84932e-06
0.000111371 0.000115474 4.64383e-07
2.84932e-06 4.64383e-07 -6.82193e-06
0.00167166 0.000107831 2.3267e-06
0.000107831 -6.48219e-05 4.45041e-06
2.3267e-06 4.45041e-06 -4.61978e-05
0.00238424 0.000277592 2.39294e-06
0.000277592 0.000397905 6.62436e-07
2.39294e-06 6.62436e-07 0.000283018
0.000996159 0.00014178 5.30059e-06
0.00014178 0.000119343 1.39872e-06
5.30059e-06 1.39872e-06 -7.8071e-05
0.00507518 0.000108915 4.95899e-05
0.000108915 0.00133196 -7.54859e-06
4.95899e-05 -7.54859e-06 0.00044399
0.00466411 5.35647e-05 -7.74539e-05
5.35647e-05 0.00074566 -2.89669e-05
-7.74539e-05 -2.89669e-05 0.00019909
0.000523456 0.00012855 2.75406e-06
0.00012855 -0.000407561 -1.76792e-05
2.75406e-06 -1.76792e-05 -0.000464549
0.00341636 -0.000456175 2.50623e-05
-0.000456175 0.00170305 1.4334e-05
2.50623e-05 1.4334e-05 0.00163449
-0.00280789 -0.000617203 -4.42727e-06
-0.000617203 -0.00253521 -2.78654e-05
-4.42727e-06 -2.78654e-05 -0.00113472
0.000995923 8.82596e-05 2.28872e-07
8.82596e-05 0.000164237 -5.63989e-07
2.28872e-07 -5.63989e-07 6.77229e-05
-0.00270393 -0.000129064 1.17541e-05
-0.000129064 -0.00132819 4.73283e-07
1.17541e-05 4.73283e-07 -0.00120001
-0.000216611 -0.000300815 -1.83865e-05
-0.000300815 -0.000159934 -5.33114e-06
-1.83865e-05 -5.33114e-06 -0.000111171
0.00240479 0.000179988 -3.32833e-06
0.000179988 0.000369502 -2.34121e-06
-3.32833e-06 -2.34121e-06 0.000408915
0.000886293 8.19359e-05 -2.53246e-07
8.19359e-05 0.000138473 -3.77182e-07
-2.53246e-07 -3.77182e-07 -2.0945e-06
0.000515085 0.000144641 7.84165e-07
0.000144641 -0.000173733 4.534e-07
7.84165e-07 4.534e-07 -0.000374393
-4.75668e-05 0.000120667 1.71428e-05
0.000120667 -0.000622488 1.04264e-05
1.71428e-05 1.04264e-05 -0.000548616
0.00561502 -0.000148805 -3.95567e-06
-0.000148805 0.00163407 -2.30934e-06
-3.95567e-06 -2.30934e-06 0.000390032
0.00534119 0.000304595 -2.24668e-05
0.000304595 0.00124422 -1.70498e-05
-2.24668e-05 -1.70498e-05 0.000550713
0.00394792 -0.000686871 1.63241e-05
-0.000686871 0.00149585 -8.43672e-06
1.63241e-05 -8.43672e-06 0.00159884
0.000931055 -0.000370286 1.50836e-05
-0.000370286 -0.00163 3.86573e-05
1.50836e-05 3.86573e-05 -0.000585319
0.00115696 6.05931e-05 -4.30861e-06
6.05931e-05 0.000260886 -3.65557e-06
-4.30861e-06 -3.65557e-06 0.00017507
-0.0016363 -0.000107667 -7.02363e-05
-0.000107667 -0.00042433 -1.60277e-05
-7.02363e-05 -1.60277e-05 -0.00079035
0.00199341 -3.94661e-05 -4.78366e-05
-3.94661e-05 0.000208502 -4.55181e-05
-4.78366e-05 -4.55181e-05 -5.98696e-05
0.000648982 0.000136799 -1.91994e-05
0.000136799 -0.000221152 -5.25281e-06
-1.91994e-05 -5.25281e-06 -0.000213597
0.0015998 0.000166162 -1.6768e-05
0.000166162 0.000558392 -5.64697e-06
-1.6768e-05 -5.64697e-06 0.00039583
0.00233698 0.000113322 -3.76504e-05
0.000113322 0.000896366 -5.18685e-06
-3.76504e-05 -5.18685e-06 0.000829158
0.00449309 0.000517025 -0.000102164
0.000517025 0.00108224 1.27429e-05
-0.000102164 1.27429e-05 0.000591208
-0.000706585 -0.000174579 3.15893e-05
-0.000174579 -0.000945841 3.9478e-05
3.15893e-05 3.9478e-05 -0.00255356
0.00718611 -0.000721553 -5.36776e-05
-0.000721553 0.00196629 1.08867e-05
-5.36776e-05 1.08867e-05 0.0022162
0.0012782 -0.00019645 -1.43568e-05
-0.00019645 -0.00177999 -1.5151e-05
-1.43568e-05 -1.5151e-05 -0.000851464
0.000888843 2.51337e-05 6.46749e-07
2.51337e-05 8.02626e-05 1.82786e-06
6.46749e-07 1.82786e-06 1.83307e-06
0.00108885 5.37334e-05 1.31622e-06
5.37334e-05 0.000190768 8.80708e-07
1.31622e-06 8.80708e-07 0.000119784
0.000534579 4.62053e-05 3.30572e-07
4.62053e-05 -9.06332e-05 -3.83797e-06
3.30572e-07 -3.83797e-06 -0.000151387
0.000737376 3.13889e-05 1.85137e-07
3.13889e-05 -2.31278e-05 -1.48078e-07
1.85137e-07 -1.48078e-07 -7.33369e-05
0.000936111 3.15839e-05 -6.77638e-07
3.15839e-05 9.10263e-05 -2.32991e-07
-6.77638e-07 -2.32991e-07 2.72585e-05
0.000964333 -3.92533e-05 -3.89722e-07
-3.92533e-05 0.000102629 3.72113e-07
-3.89722e-07 3.72113e-07 3.90991e-05
0.000856573 -2.33765e-05 -6.05588e-07
-2.33765e-05 5.0347e-05 -1.49399e-07
-6.05588e-07 -1.49399e-07 -1.2862e-05
0.000931018 -8.84937e-06 -8.26254e-07
-8.84937e-06 8.95584e-05 1.50927e-06
-8.26254e-07 1.50927e-06 2.49855e-05
0.000917253 2.21227e-05 3.38574e-07
2.21227e-05 7.91932e-05 -3.84281e-07
3.38574e-07 -3.84281e-07 1.59856e-05
0.000906079 -2.57596e-05 -5.518e-08
-2.57596e-05 6.79985e-05 1.2355e-07
-5.518e-08 1.2355e-07 4.26462e-06
0.000920275 -4.05665e-05 1.99529e-07
-4.05665e-05 7.43047e-05 1.29241e-07
1.99529e-07 1.29241e-07 9.21127e-06
0.000912697 -4.01825e-07 9.87876e-08
-4.01825e-07 7.27011e-05 3.20407e-08
9.87876e-08 3.20407e-08 1.26319e-05
0.0010758 -3.47491e-05 1.71254e-06
-3.47491e-05 0.000160056 -1.47509e-06
1.71254e-06 -1.47509e-06 0.000105757
0.000900286 -3.49155e-05 6.56681e-08
-3.49155e-05 5.40851e-05 -1.35666e-06
6.56681e-08 -1.35666e-06 -8.17981e-06
0.000921391 2.58851e-06 2.63016e-07
2.58851e-06 7.89981e-05 -4.44034e-07
2.63016e-07 -4.44034e-07 9.9413e-06
0.000928283 -2.90202e-05 5.21993e-08
-2.90202e-05 8.75895e-05 -2.71363e-07
5.21993e-08 -2.71363e-07 2.43245e-05
0.000889532 2.03848e-05 -2.80405e-07
2.03848e-05 5.85994e-05 1.26726e-08
-2.80405e-07 1.26726e-08 -2.03938e-06
0.000898735 -4.23613e-07 2.33769e-07
-4.23613e-07 6.79865e-05 -2.62334e-07
2.33769e-07 -2.62334e-07 5.74397e-07
0.000851873 4.57444e-05 -1.90368e-07
4.57444e-05 4.97178e-05 -2.51502e-08
-1.90368e-07 -2.51502e-08 -1.34639e-05
0.000922127 4.03353e-05 -4.34341e-07
4.03353e-05 7.61209e-05 -1.29103e-07
-4.34341e-07 -1.29103e-07 1.3373e-05
0.00080936 4.60673e-05 9.79661e-07
4.60673e-05 3.24009e-05 4.20642e-07
9.79661e-07 4.20642e-07 -3.24204e-05
0.000875816 4.12067e-05 2.38191e-07
4.12067e-05 5.42797e-05 -6.38423e-07
2.38191e-07 -6.38423e-07 -1.35908e-05
0.000884179 4.4027e-05 1.53456e-07
4.4027e-05 6.3078e-05 -3.55135e-07
1.53456e-07 -3.55135e-07 -3.11892e-07
0.00083082 1.95359e-05 1.87028e-06
1.95359e-05 4.69008e-05 3.2059e-07
1.87028e-06 3.2059e-07 -3.28505e-05
0.000712576 -4.66206e-05 2.6111e-07
-4.66206e-05 2.03141e-05 2.80224e-07
2.6111e-07 2.80224e-07 -8.60961e-05
0.000595092 1.72968e-05 4.74726e-08
1.72968e-05 -6.74899e-05 3.85571e-07
4.74726e-08 3.85571e-07 -0.000145897
0.000834321 3.04981e-05 3.31927e-07
3.04981e-05 5.28516e-05 5.11068e-07
3.31927e-07 5.11068e-07 -1.71683e-05
0.000834637 3.2967e-05 4.38346e-07
3.2967e-05 4.39062e-05 7.81542e-07
4.38346e-07 7.81542e-07 -1.60659e-05
0.00084027 1.66826e-05 -1.58582e-07
1.66826e-05 4.61217e-05 -5.80493e-08
-1.58582e-07 -5.80493e-08 -1.26275e-05
0.000823513 2.90241e-05 -4.3985e-07
2.90241e-05 2.58616e-05 5.55423e-07
-4.3985e-07 5.55423e-07 -2.05231e-05
0.000862526 1.62741e-05 2.33208e-07
1.62741e-05 5.56395e-05 -1.48412e-08
2.33208e-07 -1.48412e-08 -2.26015e-06
0.00083754 3.79261e-06 -1.30475e-07
3.79261e-06 3.06752e-05 2.29993e-09
-1.30475e-07 2.29993e-09 -1.54371e-05
0.00079826 1.97574e-05 -7.90475e-07
1.97574e-05 1.8163e-06 1.53639e-06
-7.90475e-07 1.53639e-06 -2.75573e-05
0.000754934 -6.04403e-06 5.31711e-07
-6.04403e-06 -1.65723e-05 -4.26437e-07
5.31711e-07 -4.26437e-07 -6.31606e-05
0.000801245 1.13101e-05 -6.17173e-08
1.13101e-05 1.09525e-06 2.37811e-09
-6.17173e-08 2.37811e-09 -2.78912e-05
0.00133576 1.86311e-05 -4.62863e-06
1.86311e-05 0.00028685 4.28134e-06
-4.62863e-06 4.28134e-06 0.000287432
0.000795199 2.40079e-06 6.42772e-07
2.40079e-06 -2.848e-06 -1.41855e-06
6.42772e-07 -1.41855e-06 -3.17849e-05
0.00104274 1.22835e-05 -2.07364e-06
1.22835e-05 0.000124403 6.26203e-07
-2.07364e-06 6.26203e-07 0.0001239
0.000913925 1.06164e-05 -5.77234e-07
1.06164e-05 5.50808e-05 1.54707e-06
-5.77234e-07 1.54707e-06 7.1105e-05
0.000745693 5.93695e-06 2.51019e-07
5.93695e-06 -3.96892e-05 -3.04703e-06
2.51019e-07 -3.04703e-06 -4.13563e-05
0.00211154 7.18657e-06 2.13071e-06
7.18657e-06 0.000707621 1.67497e-08
2.13071e-06 1.67497e-08 0.000729676
0.00210798 1.52752e-07 8.73758e-07
1.52752e-07 0.000705141 -4.10961e-06
8.73758e-07 -4.10961e-06 0.00072734
0.0010787 3.29882e-05 -1.06659e-06
3.29882e-05 0.000167748 -4.64353e-07
-1.06659e-06 -4.64353e-07 0.000121614
0.000805455 -4.57684e-06 -3.01921e-07
-4.57684e-06 2.26486e-06 -1.65058e-06
-3.01921e-07 -1.65058e-06 -2.39595e-05
0.000829399 2.89554e-06 7.09234e-07
2.89554e-06 3.62189e-05 4.80226e-07
7.09234e-07 4.80226e-07 -1.17782e-05
0.000758421 -7.43522e-07 -1.32588e-07
-7.43522e-07 -3.42251e-05 -3.21635e-06
-1.32588e-07 -3.21635e-06 -3.36435e-05
0.000812377 -1.01949e-06 4.19209e-08
-1.01949e-06 5.86444e-06 1.82875e-09
4.19209e-08 1.82875e-09 -2.03471e-05
0.000806705 2.49139e-06 -1.83348e-07
2.49139e-06 2.9711e-06 1.62551e-06
-1.83348e-07 1.62551e-06 -2.378e-05
0.000756524 5.24521e-06 -1.54201e-07
5.24521e-06 -3.47801e-05 9.59147e-09
-1.54201e-07 9.59147e-09 -3.47123e-05
0.00204022 7.00644e-06 3.35987e-06
7.00644e-06 0.00066867 -4.15644e-06
3.35987e-06 -4.15644e-06 0.000691559
0.00129898 1.41635e-05 -7.06741e-07
1.41635e-05 0.000262808 1.97565e-06
-7.06741e-07 1.97565e-06 0.000264839
0.0015018 1.31289e-05 2.11968e-06
1.31289e-05 0.000376579 4.34346e-08
2.11968e-06 4.34346e-08 0.000395827
0.000991268 1.59349e-05 -1.30774e-05
1.59349e-05 0.000101182 6.62124e-06
-1.30774e-05 6.62124e-06 0.000116563
-0.00593852 0.000101069 1.56477e-05
0.000101069 -0.00285345 2.77499e-06
1.56477e-05 2.77499e-06 -0.0028389
-0.00123245 0.000260117 4.51535e-07
0.000260117 -0.000560015 1.77152e-05
4.51535e-07 1.77152e-05 -0.000499006
0.00147717 -4.98621e-06 -0.000114119
-4.98621e-06 -0.000205874 -1.10438e-05
-0.000114119 -1.10438e-05 -0.000505299
0.00223986 -3.17721e-05 1.05137e-05
-3.17721e-05 0.00033863 2.34553e-07
1.05137e-05 2.34553e-07 0.000242629
0.00147835 1.15261e-06 -6.9943e-06
1.15261e-06 -0.000235351 -9.28079e-07
-6.9943e-06 -9.28079e-07 -0.000302469
0.00139234 -7.75507e-06 2.59261e-05
-7.75507e-06 2.36057e-05 -1.55572e-06
2.59261e-05 -1.55572e-06 -0.00024842
0.00215419 1.00951e-05 -1.35668e-06
1.00951e-05 0.000248599 1.34665e-06
-1.35668e-06 1.34665e-06 0.000166005
0.00509736 0.000229804 -1.94268e-05
0.000229804 0.00125562 -1.08365e-05
-1.94268e-05 -1.08365e-05 0.000537882
-0.00335533 0.000249905 -1.5328e-05
0.000249905 -0.00131296 -4.91931e-07
-1.5328e-05 -4.91931e-07 -0.00143023
-0.000251914 0.000592325 -3.06569e-06
0.000592325 -0.00103688 -2.48327e-06
-3.06569e-06 -2.48327e-06 0.000187102
0.00166611 -5.20543e-05 5.84159e-05
-5.20543e-05 8.39014e-05 -6.11036e-06
5.84159e-05 -6.11036e-06 -0.000169326
0.00658926 0.000370831 1.90904e-05
0.000370831 0.00220026 -5.09657e-06
1.90904e-05 -5.09657e-06 0.00116693
0.000165992 0.000501276 -2.91942e-05
0.000501276 -0.000270897 -5.35537e-06
-2.91942e-05 -5.35537e-06 0.0001196
0.003415 0.000375119 -5.29596e-05
0.000375119 3.18756e-05 2.95922e-05
-5.29596e-05 2.95922e-05 0.000836033
0.000842206 4.21517e-05 -7.80252e-07
4.21517e-05 5.85428e-05 6.64489e-08
-7.80252e-07 6.64489e-08 -1.58581e-05
0.000759336 -4.17943e-06 -6.57333e-08
-4.17943e-06 6.99584e-06 -2.93139e-07
-6.57333e-08 -2.93139e-07 -5.26506e-05
0.000824995 -5.03428e-05 -8.88305e-07
-5.03428e-05 3.5567e-05 9.22459e-07
-8.88305e-07 9.22459e-07 -1.3083e-05
0.00075211 3.85791e-06 1.81432e-07
3.85791e-06 5.4021e-06 4.62437e-07
1.81432e-07 4.62437e-07 -5.71594e-05
0.000834857 4.70331e-05 7.14223e-07
4.70331e-05 5.87197e-05 6.9984e-07
7.14223e-07 6.9984e-07 -1.28348e-05
0.000887956 3.24109e-05 -8.68905e-07
3.24109e-05 8.22034e-05 4.45637e-07
-8.68905e-07 4.45637e-07 9.75803e-06
0.000879265 4.36871e-05 1.28057e-06
4.36871e-05 7.87491e-05 9.2452e-07
1.28057e-06 9.2452e-07 7.28069e-06
0.000827301 -2.39739e-05 5.65645e-07
-2.39739e-05 4.14077e-05 1.87634e-07
5.65645e-07 1.87634e-07 -2.21879e-05
0.000823127 -2.7794e-05 4.18216e-07
-2.7794e-05 4.38576e-05 -5.31255e-07
4.18216e-07 -5.31255e-07 -1.89379e-05
0.000752881 -3.13662e-05 1.67583e-07
-3.13662e-05 5.29328e-06 6.18076e-07
1.67583e-07 6.18076e-07 -5.60542e-05
0.00152697 -3.09811e-05 7.64334e-07
-3.09811e-05 -0.00015954 -2.08782e-06
7.64334e-07 -2.08782e-06 -0.000229516
0.00230899 -0.000186082 -9.56601e-07
-0.000186082 0.000234035 2.73619e-06
-9.56601e-07 2.73619e-06 0.000162842
1.51576e-07 -0.000137377 3.53665e-06
-0.000137377 -0.000693055 2.16127e-06
3.53665e-06 2.16127e-06 -0.000805756
0.00115155 -0.000162081 1.19047e-06
-0.000162081 0.000205715 1.10419e-06
1.19047e-06 1.10419e-06 3.33226e-05
0.00119395 -4.83925e-05 2.86371e-06
-4.83925e-05 0.000281597 -1.78895e-07
2.86371e-06 -1.78895e-07 0.000138262
0.00111709 -3.83966e-05 -2.39851e-07
-3.83966e-05 0.000205912 -4.04423e-07
-2.39851e-07 -4.04423e-07 0.000116102
0.000869157 -1.43045e-05 -1.03568e-06
-1.43045e-05 6.9882e-05 -2.38052e-07
-1.03568e-06 -2.38052e-07 -5.10267e-06
0.000888425 3.16133e-05 -6.21373e-07
3.16133e-05 8.38297e-05 4.30587e-08
-6.21373e-07 4.30587e-08 8.6501e-06
0.00176183 -9.79837e-05 -5.32506e-06
-9.79837e-05 7.64649e-05 1.65416e-06
-5.32506e-06 1.65416e-06 1.02188e-05
0.000795248 -3.1873e-05 -1.42286e-07
-3.1873e-05 2.79403e-05 8.04345e-08
-1.42286e-07 8.04345e-08 -4.88871e-05
0.000887919 -3.54422e-05 4.71297e-07
-3.54422e-05 7.68195e-05 -2.57519e-07
4.71297e-07 -2.57519e-07 -5.18571e-06
0.00219393 -0.000244737 3.19672e-06
-0.000244737 0.000253333 -1.84101e-06
3.19672e-06 -1.84101e-06 0.000186443
0.000136947 -0.000144356 1.2818e-06
-0.000144356 -0.000419022 1.54126e-06
1.2818e-06 1.54126e-06 -0.000557303
0.00119375 -9.02264e-05 2.97487e-06
-9.02264e-05 0.000255382 -1.01638e-06
2.97487e-06 -1.01638e-06 8.87689e-05
0.000911756 -2.94468e-05 -7.87964e-07
-2.94468e-05 0.000105112 -5.43206e-07
-7.87964e-07 -5.43206e-07 -2.38851e-06
0.00319493 -0.000227745 2.92102e-06
-0.000227745 0.00109949 -7.21602e-06
2.92102e-06 -7.21602e-06 0.000925844
0.00180865 -0.00020889 -1.3439e-05
-0.00020889 0.000386214 5.87936e-09
-1.3439e-05 5.87936e-09 0.000297566
0.000607702 2.2782e-06 -8.0316e-06
2.2782e-06 -3.33112e-05 6.07853e-06
-8.0316e-06 6.07853e-06 -0.000170587
0.000893173 2.09461e-05 3.95643e-07
2.09461e-05 7.89506e-05 8.76126e-07
3.95643e-07 8.76126e-07 2.06191e-06
0.000767744 -7.60057e-05 1.22855e-06
-7.60057e-05 8.00055e-06 2.09972e-07
1.22855e-06 2.09972e-07 -7.23529e-05
0.000956148 -3.05014e-05 -1.50517e-07
-3.05014e-05 9.87022e-05 9.35134e-07
-1.50517e-07 9.35134e-07 1.53121e-05
0.000927722 3.88819e-06 -7.66938e-05
3.88819e-06 0.00099021 5.87244e-07
-7.66938e-05 5.87244e-07 0.000807375
0.0015548 -4.7676e-05 1.24858e-05
-4.7676e-05 0.000992525 3.43023e-06
1.24858e-05 3.43023e-06 0.000935987
-0.000637377 0.000190739 -4.49602e-05
0.000190739 -0.00160428 2.11427e-05
-4.49602e-05 2.11427e-05 -0.00219148
0.000833261 7.97771e-05 2.19318e-06
7.97771e-05 8.08692e-05 1.04672e-06
2.19318e-06 1.04672e-06 -1.50641e-05
0.000689198 9.27237e-05 4.44518e-06
9.27237e-05 4.44473e-05 1.65612e-06
4.44518e-06 1.65612e-06 -9.77704e-05
0.00370054 0.000218037 9.90009e-06
0.000218037 0.00102237 1.04968e-06
9.90009e-06 1.04968e-06 0.00105098
-3.93733e-06 0.000100735 9.10951e-06
0.000100735 -0.0004331 4.59098e-06
9.10951e-06 4.59098e-06 -0.000632914
0.00357732 -0.000309598 5.23026e-05
-0.000309598 0.00156447 1.01971e-05
5.23026e-05 1.01971e-05 0.00173408
0.000213588 -0.000204382 1.1481e-06
-0.000204382 -0.000966034 5.78368e-06
1.1481e-06 5.78368e-06 -0.00198618
0.0040516 0.000263398 -6.18072e-05
0.000263398 0.000405077 -6.10459e-05
-6.18072e-05 -6.10459e-05 -0.000448576
-0.00106291 6.09444e-05 1.48004e-05
6.09444e-05 -0.00106296 -6.62566e-06
1.48004e-05 -6.62566e-06 -0.00100667
-0.00246914 -0.000381505 4.23208e-05
-0.000381505 -0.00127283 1.56865e-05
4.23208e-05 1.56865e-05 -0.00128845
0.00124176 -0.000305608 3.52792e-05
-0.000305608 0.000530213 2.21528e-05
3.52792e-05 2.21528e-05 0.000568098
0.00366539 -0.000433681 5.67422e-05
-0.000433681 -8.44959e-05 3.45602e-05
5.67422e-05 3.45602e-05 0.00105788
0.00092149 6.68019e-05 7.23788e-07
6.68019e-05 0.000142536 -8.52588e-07
7.23788e-07 -8.52588e-07 5.53245e-05
-5.74099e-05 -0.000134058 -2.29857e-05
-0.000134058 0.000314697 -6.99769e-06
-2.29857e-05 -6.99769e-06 0.000129333
0.00205872 -3.59679e-05 -2.81058e-06
-3.59679e-05 0.000223826 -9.10211e-06
-2.81058e-06 -9.10211e-06 -5.03032e-05
0.0011229 0.00011797 -5.17626e-06
0.00011797 6.62232e-05 -5.92292e-07
-5.17626e-06 -5.92292e-07 1.8937e-05
0.000776602 8.92178e-05 -2.08899e-06
8.92178e-05 0.000148224 -2.80958e-07
-2.08899e-06 -2.80958e-07 -1.98837e-05
-0.000285599 8.69558e-05 2.25443e-05
8.69558e-05 -0.000388376 -1.54115e-05
2.25443e-05 -1.54115e-05 -0.000418251
0.00562946 0.000622464 -1.71946e-05
0.000622464 0.00154801 -6.89816e-06
-1.71946e-05 -6.89816e-06 0.000795126
0.00774904 -0.00036402 1.65704e-05
-0.00036402 0.0026622 6.19932e-06
1.65704e-05 6.19932e-06 0.00132579
0.000661828 -0.000380555 2.94893e-06
-0.000380555 -0.00121807 1.28608e-08
2.94893e-06 1.28608e-08 -0.000873025
0.00436667 -0.000253324 4.35837e-06
-0.000253324 0.000233405 9.57127e-08
4.35837e-06 9.57127e-08 0.00116039
0.00156228 0.000126668 -1.22025e-05
0.000126668 0.000522979 -8.10855e-06
-1.22025e-05 -8.10855e-06 0.000450611
0.00163809 -2.63783e-05 -4.11978e-05
-2.63783e-05 8.14448e-05 -1.8215e-05
-4.11978e-05 -1.8215e-05 -0.000136506
0.00158836 -1.16914e-05 -1.38884e-05
-1.16914e-05 2.78542e-05 -2.41674e-05
-1.38884e-05 -2.41674e-05 -0.000154157
-0.000956086 -3.6743e-05 -1.80981e-05
-3.6743e-05 -0.000604046 -1.7089e-05
-1.80981e-05 -1.7089e-05 -0.000702162
0.00377116 0.000350364 1.28928e-06
0.000350364 0.0012709 4.81333e-05
1.28928e-06 4.81333e-05 0.000877131
0.00851882 -0.000319357 1.37089e-05
-0.000319357 0.00270005 7.71214e-06
1.37089e-05 7.71214e-06 0.00120302
-0.00336997 -0.000238555 -5.16188e-05
-0.000238555 -0.00293672 -2.03788e-05
-5.16188e-05 -2.03788e-05 -0.00324179
0.00452402 3.41285e-05 -9.23024e-07
3.41285e-05 0.000171409 -3.81679e-05
-9.23024e-07 -3.81679e-05 0.00115877
0.000918566 5.13461e-05 7.15894e-07
5.13461e-05 0.000100183 2.84217e-06
7.15894e-07 2.84217e-06 2.84528e-05
0.0008419 6.4153e-05 -7.31534e-07
6.4153e-05 7.08863e-05 -1.0584e-06
-7.31534e-07 -1.0584e-06 9.67652e-06
0.000174973 3.02135e-05 1.09579e-06
3.02135e-05 -0.000257195 -3.13471e-06
1.09579e-06 -3.13471e-06 -0.000307619
0.000922915 5.58865e-05 -1.17385e-06
5.58865e-05 7.78367e-05 -4.74989e-07
-1.17385e-06 -4.74989e-07 1.73917e-05
0.000908383 -3.11168e-05 -4.74431e-08
-3.11168e-05 7.13185e-05 5.2515e-07
-4.74431e-08 5.2515e-07 3.80519e-06
0.000996065 -2.21157e-05 -9.92575e-07
-2.21157e-05 0.000117416 9.33712e-07
-9.92575e-07 9.33712e-07 5.35844e-05
0.000915994 -1.51208e-05 -6.80675e-07
-1.51208e-05 7.74487e-05 1.80915e-06
-6.80675e-07 1.80915e-06 1.84464e-05
0.000926608 8.28153e-06 4.05701e-07
8.28153e-06 7.59009e-05 -7.56517e-09
4.05701e-07 -7.56517e-09 1.08004e-05
0.000891578 -2.15419e-05 -1.96222e-07
-2.15419e-05 5.0102e-05 -3.74921e-08
-1.96222e-07 -3.74921e-08 -1.19925e-05
0.000989946 -2.73044e-05 3.93109e-07
-2.73044e-05 0.000113204 4.00833e-07
3.93109e-07 4.00833e-07 5.86841e-05
0.000820821 -3.54307e-05 4.00491e-07
-3.54307e-05 4.46275e-05 -1.50026e-06
4.00491e-07 -1.50026e-06 1.46475e-06
0.000910518 -3.69958e-05 2.44317e-06
-3.69958e-05 5.40006e-05 -1.74724e-06
2.44317e-06 -1.74724e-06 3.01575e-06
0.000811243 3.99216e-05 8.89677e-07
3.99216e-05 1.3483e-05 -6.15422e-07
8.89677e-07 -6.15422e-07 -5.21922e-05
0.00090405 -1.85371e-05 8.53968e-07
-1.85371e-05 6.78925e-05 9.49622e-08
8.53968e-07 9.49622e-08 2.4996e-06
0.000833334 5.18183e-05 -4.51075e-07
5.18183e-05 3.97357e-05 1.46373e-08
-4.51075e-07 1.46373e-08 -2.34987e-05
0.000903694 3.3134e-05 -4.61512e-07
3.3134e-05 6.53919e-05 4.22921e-07
-4.61512e-07 4.22921e-07 3.18306e-06
0.000884882 4.24365e-05 -1.81496e-07
4.24365e-05 5.67509e-05 1.43444e-11
-1.81496e-07 1.43444e-11 -9.3658e-06
0.000830594 4.90573e-05 4.20069e-07
4.90573e-05 4.53994e-05 3.02621e-07
4.20069e-07 3.02621e-07 -2.03264e-05
0.000890785 5.28328e-05 2.58387e-08
5.28328e-05 6.71816e-05 1.533e-08
2.58387e-08 1.533e-08 3.02014e-06
0.000923002 3.6201e-05 2.26264e-06
3.6201e-05 9.05884e-05 1.8549e-07
2.26264e-06 1.8549e-07 2.41067e-05
0.000886018 4.01046e-05 2.02583e-07
4.01046e-05 5.73205e-05 -5.91811e-07
2.02583e-07 -5.91811e-07 -3.13934e-06
0.000882312 -5.17793e-05 8.52039e-07
-5.17793e-05 8.8672e-05 -9.3588e-08
8.52039e-07 -9.3588e-08 4.25836e-06
0.000920789 6.21699e-06 -4.83934e-08
6.21699e-06 9.62254e-05 -3.98714e-08
-4.83934e-08 -3.98714e-08 1.5978e-05
0.000735286 -3.81742e-05 4.9999e-07
-3.81742e-05 2.76111e-05 2.17272e-06
4.9999e-07 2.17272e-06 -7.23921e-05
0.00099287 -0.000110879 -1.04965e-06
-0.000110879 0.000151234 3.63285e-06
-1.04965e-06 3.63285e-06 2.56754e-05
0.00107367 -2.29279e-05 9.26463e-07
-2.29279e-05 0.000193264 -5.66091e-07
9.26463e-07 -5.66091e-07 0.000103284
0.000726304 -5.10567e-05 2.88036e-07
-5.10567e-05 2.98235e-05 -2.21087e-06
2.88036e-07 -2.21087e-06 -7.38452e-05
0.000832396 1.87669e-05 -4.74068e-07
1.87669e-05 5.89542e-05 -5.69751e-07
-4.74068e-07 -5.69751e-07 -1.80656e-05
0.000674542 2.42652e-05 8.04559e-07
2.42652e-05 -3.73436e-05 9.6818e-07
8.04559e-07 9.6818e-07 -0.000103921
0.000885809 3.07157e-05 -5.48779e-07
3.07157e-05 8.1326e-05 -3.61873e-07
-5.48779e-07 -3.61873e-07 1.07536e-05
0.000855318 1.26513e-05 -1.45663e-07
1.26513e-05 5.50922e-05 3.25858e-07
-1.45663e-07 3.25858e-07 -5.14601e-06
0.000817948 3.19211e-05 -5.47967e-07
3.19211e-05 2.55688e-05 6.68273e-07
-5.47967e-07 6.68273e-07 -2.20711e-05
0.00086067 -8.28012e-06 2.34167e-07
-8.28012e-06 5.97212e-05 -3.01954e-07
2.34167e-07 -3.01954e-07 -8.83913e-07
0.000828136 4.6209e-06 -3.2561e-07
4.6209e-06 2.89862e-05 3.55609e-08
-3.2561e-07 3.55609e-08 -1.79273e-05
0.000794682 2.4127e-05 -9.74778e-07
2.4127e-05 3.70456e-06 1.55945e-06
-9.74778e-07 1.55945e-06 -2.64825e-05
0.000851371 -1.43447e-05 9.88423e-07
-1.43447e-05 3.91248e-05 -5.57781e-07
9.88423e-07 -5.57781e-07 -7.76988e-06
0.000802589 1.55523e-05 -1.63463e-07
1.55523e-05 3.68379e-06 -2.54462e-10
-1.63463e-07 -2.54462e-10 -2.55288e-05
0.00132582 2.49829e-05 -6.36664e-06
2.49829e-05 0.000285231 4.25035e-06
-6.36664e-06 4.25035e-06 0.000285257
0.000799352 6.4959e-06 9.8783e-07
6.4959e-06 -2.47377e-07 -1.46588e-06
9.8783e-07 -1.46588e-06 -2.90911e-05
0.00103692 1.81501e-05 -2.77406e-06
1.81501e-05 0.000123949 5.98584e-07
-2.77406e-06 5.98584e-07 0.000123113
0.000908486 1.63976e-05 -1.08676e-06
1.63976e-05 5.56355e-05 1.55847e-06
-1.08676e-06 1.55847e-06 7.10959e-05
0.000742039 1.12628e-05 4.47249e-07
1.12628e-05 -4.01283e-05 -3.06997e-06
4.47249e-07 -3.06997e-06 -4.20191e-05
0.00151003 1.35836e-05 4.31881e-06
1.35836e-05 0.000380677 -1.22275e-06
4.31881e-06 -1.22275e-06 0.000399565
0.00211193 8.13375e-06 4.75029e-06
8.13375e-06 0.000708146 -4.06508e-06
4.75029e-06 -4.06508e-06 0.000730147
0.000892668 -2.64583e-05 6.11969e-07
-2.64583e-05 6.55615e-05 -3.86188e-07
6.11969e-07 -3.86188e-07 1.78243e-05
0.000808401 -9.21911e-06 -3.04807e-07
-9.21911e-06 5.07892e-06 -1.57437e-06
-3.04807e-07 -1.57437e-06 -2.1923e-05
0.000882325 -6.58756e-06 3.82578e-07
-6.58756e-06 6.16075e-05 1.42914e-07
3.82578e-07 1.42914e-07 1.47956e-05
0.000760898 -6.34982e-06 -3.64928e-07
-6.34982e-06 -3.2024e-05 -3.17295e-06
-3.64928e-07 -3.17295e-06 -3.1663e-05
0.000812533 -5.22989e-06 -3.92235e-08
-5.22989e-06 6.13003e-06 4.90782e-09
-3.92235e-08 4.90782e-09 -2.01239e-05
0.000832313 -3.41206e-05 -1.04728e-06
-3.41206e-05 3.48687e-05 1.26944e-06
-1.04728e-06 1.26944e-06 -1.09842e-05
0.00202703 -7.91403e-07 -5.77046e-07
-7.91403e-07 0.000661213 -4.15554e-06
-5.77046e-07 -4.15554e-06 0.000684311
0.000758365 -4.53414e-07 -7.20275e-08
-4.53414e-07 -3.42816e-05 4.57491e-09
-7.20275e-08 4.57491e-09 -3.37056e-05
0.000814465 -1.61941e-06 1.03414e-07
-1.61941e-06 6.95149e-06 1.65601e-06
1.03414e-07 1.65601e-06 -1.92596e-05
0.000759996 5.49355e-06 -1.41667e-07
5.49355e-06 -3.28785e-05 3.23158e-06
-1.41667e-07 3.23158e-06 -3.28492e-05
0.0020436 7.51134e-06 -2.28913e-06
7.51134e-06 0.000670703 -1.84724e-08
-2.28913e-06 -1.84724e-08 0.000693517
0.00207028 1.4895e-05 -9.76548e-06
1.4895e-05 0.000686799 4.10031e-06
-9.76548e-06 4.10031e-06 0.000709051
-0.00122247 0.000104167 -3.90857e-05
0.000104167 -0.000178752 6.45834e-06
-3.90857e-05 6.45834e-06 -0.000476189
-0.00082435 0.000238627 -2.31107e-06
0.000238627 -0.000200473 3.62212e-06
-2.31107e-06 3.62212e-06 -0.000245091
0.00184539 6.49712e-05 -6.37511e-05
6.49712e-05 2.33209e-06 4.14702e-05
-6.37511e-05 4.14702e-05 -0.000206915
-0.00134809 0.000304921 4.64323e-05
0.000304921 -0.000589309 -1.91983e-05
4.64323e-05 -1.91983e-05 -0.000456235
0.00232402 6.96887e-05 -8.9283e-05
6.96887e-05 0.000322791 5.27565e-06
-8.9283e-05 5.27565e-06 -2.7226e-05
0.0019592 8.05586e-06 3.76811e-05
8.05586e-06 0.000149296 -4.54452e-06
3.76811e-05 -4.54452e-06 7.42358e-05
0.00131632 -0.000226401 -6.16491e-05
-0.000226401 -0.000452598 -1.60132e-05
-6.16491e-05 -1.60132e-05 -0.00109053
0.00764407 0.00049851 7.19296e-05
0.00049851 0.00368161 -1.97648e-05
7.19296e-05 -1.97648e-05 0.00376162
-0.00272676 0.000630793 -3.21125e-06
0.000630793 -0.00262915 3.24322e-05
-3.21125e-06 3.24322e-05 -0.00114269
0.00146456 3.87517e-05 -6.35016e-06
3.87517e-05 -0.000158309 1.89632e-07
-6.35016e-06 1.89632e-07 -0.000384177
0.00186095 0.000210781 1.64781e-05
0.000210781 -2.39084e-05 -1.75309e-05
1.64781e-05 -1.75309e-05 -0.00134056
0.0044754 0.000725807 -1.04067e-05
0.000725807 0.0012966 -1.17828e-05
-1.04067e-05 -1.17828e-05 0.00167952
0.0018438 0.000380145 -5.35623e-06
0.000380145 -0.000933447 1.40419e-05
-5.35623e-06 1.40419e-05 -0.000128205
0.00234681 -6.87698e-05 -1.93571e-05
-6.87698e-05 2.49951e-05 3.5152e-06
-1.93571e-05 3.5152e-06 -0.000249211
0.00473809 0.000385985 6.47626e-05
0.000385985 0.00136706 -4.52118e-05
6.47626e-05 -4.52118e-05 -4.57029e-05
-0.00482494 0.000212595 -8.06777e-05
0.000212595 -0.00373116 -4.00755e-06
-8.06777e-05 -4.00755e-06 -0.0034637
0.00130901 0.000233341 -2.03459e-05
0.000233341 -0.00186303 2.0735e-05
-2.03459e-05 2.0735e-05 -0.000968982
0.000935736 -2.19995e-05 9.65089e-07
-2.19995e-05 0.000106388 4.61617e-07
9.65089e-07 4.61617e-07 2.76906e-05
0.00088868 3.43508e-05 -1.39978e-06
3.43508e-05 8.31445e-05 -3.37688e-07
-1.39978e-06 -3.37688e-07 9.94747e-06
0.000835422 1.26651e-05 7.0008e-07
1.26651e-05 4.82259e-05 -5.5599e-08
7.0008e-07 -5.5599e-08 -1.15404e-05
0.000889644 5.41074e-05 1.93664e-06
5.41074e-05 8.84843e-05 9.31571e-07
1.93664e-06 9.31571e-07 1.71578e-05
0.000804396 1.20148e-05 -3.28851e-07
1.20148e-05 3.85377e-05 6.66784e-07
-3.28851e-07 6.66784e-07 -4.0799e-05
0.000920457 3.46138e-05 1.75223e-07
3.46138e-05 0.000100675 5.24522e-07
1.75223e-07 5.24522e-07 2.79992e-05
0.000831886 -3.93542e-06 -1.38251e-08
-3.93542e-06 4.9551e-05 1.02177e-06
-1.38251e-08 1.02177e-06 -1.97354e-05
0.000934929 6.32359e-05 -7.4802e-07
6.32359e-05 0.000108006 4.40121e-07
-7.4802e-07 4.40121e-07 3.62624e-05
0.000915174 2.53135e-05 -3.24675e-07
2.53135e-05 9.65658e-05 3.01223e-07
-3.24675e-07 3.01223e-07 2.83467e-05
0.000778656 -2.09669e-05 -8.07784e-07
-2.09669e-05 2.13119e-05 -2.69597e-07
-8.07784e-07 -2.69597e-07 -4.35436e-05
-1.77455e-05 -5.69374e-05 9.85762e-06
-5.69374e-05 -0.000832298 -2.74388e-06
9.85762e-06 -2.74388e-06 -0.000882113
0.00183854 -0.000233064 4.516e-06
-0.000233064 7.09981e-05 2.52024e-06
4.516e-06 2.52024e-06 -3.06116e-06
0.00091446 -0.000178475 7.33171e-06
-0.000178475 -6.09864e-06 1.75478e-06
7.33171e-06 1.75478e-06 -0.000146994
0.00110421 -8.08658e-05 6.84999e-06
-8.08658e-05 0.000202864 -4.51371e-07
6.84999e-06 -4.51371e-07 3.87164e-05
0.00100713 -1.63949e-05 6.4819e-07
-1.63949e-05 0.000163797 -7.62972e-07
6.4819e-07 -7.62972e-07 4.74186e-05
0.000815509 -4.20021e-05 -3.97736e-07
-4.20021e-05 4.11687e-05 -3.49892e-07
-3.97736e-07 -3.49892e-07 -4.34078e-05
0.000870165 4.74883e-05 -6.13042e-08
4.74883e-05 6.90086e-05 -2.60869e-07
-6.13042e-08 -2.60869e-07 -9.42548e-06
0.000899138 -3.23163e-05 -2.23861e-07
-3.23163e-05 8.46163e-05 3.64027e-07
-2.23861e-07 3.64027e-07 5.92821e-06
0.00149427 -0.000159856 1.52397e-06
-0.000159856 0.000218425 -6.11595e-07
1.52397e-06 -6.11595e-07 0.000104276
0.000908421 4.91245e-06 -6.07476e-08
4.91245e-06 8.45214e-05 -2.47076e-07
-6.07476e-08 -2.47076e-07 3.43602e-06
0.000898395 -2.93062e-05 -5.50097e-07
-2.93062e-05 7.17395e-05 -7.32255e-08
-5.50097e-07 -7.32255e-08 -1.524e-05
0.00161793 -0.000199154 -4.65985e-08
-0.000199154 0.000280115 2.64803e-07
-4.65985e-08 2.64803e-07 0.00019746
0.00106662 -1.98071e-05 -2.79545e-06
-1.98071e-05 0.000189277 1.76783e-06
-2.79545e-06 1.76783e-06 5.58804e-05
0.000869166 -0.000244441 -4.18347e-07
-0.000244441 -0.00011339 -8.84008e-06
-4.18347e-07 -8.84008e-06 -0.00012486
0.00166088 -6.42125e-05 -8.88032e-06
-6.42125e-05 0.000564974 8.90731e-06
-8.88032e-06 8.90731e-06 0.000437893
0.000563429 1.93364e-05 -2.75579e-06
1.93364e-05 -0.000123472 5.65418e-06
-2.75579e-06 5.65418e-06 -0.000205068
0.000885219 -2.08231e-06 4.2277e-07
-2.08231e-06 6.19459e-05 7.02743e-07
4.2277e-07 7.02743e-07 -1.43864e-05
0.00087555 2.64242e-05 -5.19641e-07
2.64242e-05 5.80848e-05 6.01031e-07
-5.19641e-07 6.01031e-07 -2.49203e-05
0.00135009 2.96475e-06 -2.10481e-05
2.96475e-06 -0.000122848 -1.96996e-06
-2.10481e-05 -1.96996e-06 -0.000296148
-0.000148377 -9.06232e-06 -1.77517e-05
-9.06232e-06 0.000472448 -7.99001e-07
-1.77517e-05 -7.99001e-07 0.000211794
-0.00585475 -7.99243e-05 -3.53552e-05
-7.99243e-05 -0.00290773 3.17275e-06
-3.53552e-05 3.17275e-06 -0.00280878
0.000749483 7.77695e-05 3.88064e-06
7.77695e-05 5.83215e-05 1.71698e-06
3.88064e-06 1.71698e-06 -3.09609e-05
0.000187901 2.87878e-05 5.71229e-06
2.87878e-05 -0.000143024 3.92668e-06
5.71229e-06 3.92668e-06 -0.000315152
0.00122477 8.54296e-05 1.3687e-05
8.54296e-05 0.000137681 -1.06133e-06
1.3687e-05 -1.06133e-06 6.98118e-05
-0.00115511 -6.99558e-05 2.18211e-05
-6.99558e-05 -0.000139553 5.38548e-06
2.18211e-05 5.38548e-06 -0.000461225
0.00470011 -0.000454229 -2.58749e-06
-0.000454229 0.00134514 -1.49633e-05
-2.58749e-06 -1.49633e-05 -0.000179543
0.00419504 0.000549774 3.41048e-05
0.000549774 0.000736468 -3.02786e-05
3.41048e-05 -3.02786e-05 0.000165403
-7.12903e-05 6.96655e-05 -1.71874e-05
6.96655e-05 -0.00022406 8.47663e-06
-1.71874e-05 8.47663e-06 -0.000173545
0.00568598 -0.000636518 3.75922e-05
-0.000636518 0.00153083 2.46181e-05
3.75922e-05 2.46181e-05 0.0016891
0.00212052 -3.84326e-05 4.29554e-05
-3.84326e-05 0.000248726 2.73868e-05
4.29554e-05 2.73868e-05 -2.98849e-05
0.00421583 -0.000227999 2.57085e-05
-0.000227999 0.000307822 1.5943e-05
2.57085e-05 1.5943e-05 0.00124257
0.00125831 0.000111097 2.13693e-06
0.000111097 0.000371053 -1.15646e-06
2.13693e-06 -1.15646e-06 0.000298493
0.00160122 -2.26681e-05 2.13045e-06
-2.26681e-05 0.000112152 -5.46221e-06
2.13045e-06 -5.46221e-06 -7.80707e-05
0.00174963 -8.56067e-06 -1.70107e-07
-8.56067e-06 7.54708e-05 2.54577e-06
-1.70107e-07 2.54577e-06 -0.000106036
0.000256019 4.05626e-05 -4.43633e-06
4.05626e-05 3.09638e-05 6.84038e-07
-4.43633e-06 6.84038e-07 -6.94809e-05
0.00327608 0.000410468 -1.06852e-05
0.000410468 0.000717874 -2.57682e-05
-1.06852e-05 -2.57682e-05 0.000453298
0.00318551 0.000167923 4.15789e-05
0.000167923 0.000344063 1.69801e-05
4.15789e-05 1.69801e-05 -0.00143466
0.0029419 1.86699e-05 -2.59784e-07
1.86699e-05 -0.000939625 -1.30714e-05
-2.59784e-07 -1.30714e-05 0.000120975
0.000461702 -0.000222219 -1.22018e-05
-0.000222219 -0.000869046 1.80769e-05
-1.22018e-05 1.80769e-05 -0.00095735
0.000645439 4.42087e-05 -4.82835e-06
4.42087e-05 0.000164251 -9.52576e-06
-4.82835e-06 -9.52576e-06 0.000126768
0.00110673 -5.69325e-06 -5.75213e-06
-5.69325e-06 7.8909e-05 -6.25773e-06
-5.75213e-06 -6.25773e-06 6.42245e-06
0.00168261 9.3361e-06 -2.56899e-08
9.3361e-06 -1.24517e-05 -1.86112e-05
-2.56899e-08 -1.86112e-05 -0.000170036
0.00128673 0.000209534 1.94043e-05
0.000209534 -0.00179305 -2.36334e-05
1.94043e-05 -2.36334e-05 -0.000977094
-0.00172126 3.57985e-05 8.64944e-06
3.57985e-05 -0.000859483 -1.22245e-05
8.64944e-06 -1.22245e-05 -0.00110303
0.00840018 7.20249e-05 7.56725e-05
7.20249e-05 0.00272261 2.4673e-05
7.56725e-05 2.4673e-05 0.00129482
-0.00230977 -6.77273e-05 1.69813e-05
-6.77273e-05 -0.000917301 -3.49761e-05
1.69813e-05 -3.49761e-05 -0.00119865
0.00117114 9.07768e-05 3.71826e-06
9.07768e-05 0.000244482 4.34864e-06
3.71826e-06 4.34864e-06 0.000182238
0.000482122 5.46654e-05 -1.08819e-06
5.46654e-05 -0.000102508 1.61581e-06
-1.08819e-06 1.61581e-06 -0.000157174
0.000443421 2.92073e-05 -1.97918e-06
2.92073e-05 -8.2218e-05 -6.33774e-06
-1.97918e-06 -6.33774e-06 -0.000136138
0.000926639 7.35165e-05 -3.21681e-07
7.35165e-05 7.84165e-05 4.13648e-07
-3.21681e-07 4.13648e-07 1.17501e-05
0.000889 -3.55815e-06 -5.94007e-07
-3.55815e-06 4.85511e-05 6.60922e-07
-5.94007e-07 6.60922e-07 -1.27358e-05
0.000856166 -3.91042e-05 -2.29522e-06
-3.91042e-05 4.0507e-05 4.39042e-06
-2.29522e-06 4.39042e-06 -1.50284e-05
0.000875211 4.16101e-05 1.47282e-07
4.16101e-05 4.55807e-05 3.5957e-08
1.47282e-07 3.5957e-08 -1.89339e-05
0.000821315 -4.66224e-05 1.30696e-07
-4.66224e-05 8.37671e-06 -6.87563e-07
1.30696e-07 -6.87563e-07 -4.42841e-05
0.0009017 -6.20784e-05 2.83554e-06
-6.20784e-05 7.62913e-05 1.65649e-06
2.83554e-06 1.65649e-06 2.56472e-05
0.000903839 -1.16765e-05 1.4026e-06
-1.16765e-05 9.4616e-05 -1.04127e-06
1.4026e-06 -1.04127e-06 6.19264e-05
0.000896644 7.71458e-06 3.83142e-07
7.71458e-06 4.8765e-05 -1.49156e-06
3.83142e-07 -1.49156e-06 -6.09792e-06
0.000894192 4.53006e-05 -4.19656e-07
4.53006e-05 5.8869e-05 6.9985e-07
-4.19656e-07 6.9985e-07 -5.24678e-06
0.000839754 5.18054e-05 -2.41903e-07
5.18054e-05 5.18783e-05 -3.35684e-08
-2.41903e-07 -3.35684e-08 -1.46841e-05
0.000885424 5.59111e-05 -8.29105e-07
5.59111e-05 6.42195e-05 2.68851e-07
-8.29105e-07 2.68851e-07 -2.35283e-07
0.000878409 3.57831e-05 2.01777e-07
3.57831e-05 5.25332e-05 1.62625e-07
2.01777e-07 1.62625e-07 -7.82747e-06
0.000947083 3.70666e-05 7.21085e-07
3.70666e-05 0.000101958 2.58323e-07
7.21085e-07 2.58323e-07 3.63845e-05
0.000732866 -2.50575e-05 1.29961e-06
-2.50575e-05 2.41576e-05 7.86966e-07
1.29961e-06 7.86966e-07 -4.4104e-05
0.000808658 -2.40301e-05 -5.01286e-07
-2.40301e-05 5.2279e-05 -8.7607e-07
-5.01286e-07 -8.7607e-07 -2.88791e-05
0.000777805 -4.73411e-05 2.32329e-06
-4.73411e-05 5.23713e-05 9.42985e-07
2.32329e-06 9.42985e-07 -6.88003e-05
0.00101644 -6.14486e-06 -1.65839e-06
-6.14486e-06 0.00014789 -5.66854e-07
-1.65839e-06 -5.66854e-07 6.73888e-05
0.000999593 -5.43016e-05 -4.00538e-07
-5.43016e-05 0.000161063 8.68478e-07
-4.00538e-07 8.68478e-07 5.93534e-05
0.000565296 -9.05498e-05 -5.80798e-07
-9.05498e-05 -7.23735e-05 2.99312e-06
-5.80798e-07 2.99312e-06 -0.000205648
0.000837843 -0.0001031 -2.90863e-06
-0.0001031 6.98316e-05 6.69569e-07
-2.90863e-06 6.69569e-07 -5.97169e-05
0.000954075 -7.69534e-05 -6.32301e-07
-7.69534e-05 0.000135736 1.48588e-06
-6.32301e-07 1.48588e-06 3.26797e-05
0.000873228 -0.000103461 2.01977e-07
-0.000103461 9.07294e-05 3.64484e-07
2.01977e-07 3.64484e-07 -3.40639e-05
0.000897681 -4.7563e-07 7.86e-07
-4.7563e-07 8.63118e-05 1.13671e-06
7.86e-07 1.13671e-06 1.10404e-05
0.000980932 -2.66734e-05 -8.48421e-07
-2.66734e-05 0.000143951 -6.22965e-07
-8.48421e-07 -6.22965e-07 5.24563e-05
0.000742584 -5.53467e-05 3.82599e-07
-5.53467e-05 4.08351e-05 -3.5166e-06
3.82599e-07 -3.5166e-06 -6.0149e-05
0.00107261 2.00512e-05 -1.55581e-06
2.00512e-05 0.000186898 -1.52952e-06
-1.55581e-06 -1.52952e-06 0.000111278
0.000774538 1.99297e-05 6.95558e-08
1.99297e-05 1.59266e-05 -1.07487e-08
6.95558e-08 -1.07487e-08 -4.95035e-05
0.000815057 4.0244e-05 -8.18567e-08
4.0244e-05 2.85568e-05 8.67922e-07
-8.18567e-08 8.67922e-07 -2.301e-05
0.000870243 -1.91278e-06 3.01098e-08
-1.91278e-06 6.4601e-05 -2.31196e-07
3.01098e-08 -2.31196e-07 3.11438e-06
0.000827544 1.50916e-05 -5.03402e-07
1.50916e-05 3.10065e-05 -6.8843e-08
-5.03402e-07 -6.8843e-08 -1.68056e-05
0.00078931 2.91106e-05 -1.19951e-06
2.91106e-05 5.65743e-06 1.54141e-06
-1.19951e-06 1.54141e-06 -2.58974e-05
0.000839986 -1.20812e-05 1.02105e-06
-1.20812e-05 3.55678e-05 -6.64856e-07
1.02105e-06 -6.64856e-07 -1.16642e-05
0.000798003 2.29037e-05 -8.94922e-08
2.29037e-05 4.90407e-06 5.47751e-09
-8.94922e-08 5.47751e-09 -2.5149e-05
0.00129129 3.12579e-05 -7.15999e-06
3.12579e-05 0.000272639 3.00977e-06
-7.15999e-06 3.00977e-06 0.000271554
0.000804058 1.19893e-05 1.06558e-06
1.19893e-05 3.99877e-06 -1.50562e-06
1.06558e-06 -1.50562e-06 -2.50568e-05
0.00103179 2.40624e-05 -3.43208e-06
2.40624e-05 0.000125193 5.55115e-07
-3.43208e-06 5.55115e-07 0.000123718
0.000897693 2.1945e-05 -1.62617e-06
2.1945e-05 5.46137e-05 1.56202e-06
-1.62617e-06 1.56202e-06 6.92235e-05
0.000740696 1.67349e-05 6.88168e-07
1.67349e-05 -3.8137e-05 -3.09915e-06
6.88168e-07 -3.09915e-06 -4.03804e-05
0.00149984 2.03478e-05 5.72043e-06
2.03478e-05 0.000378412 -1.15424e-06
5.72043e-06 -1.15424e-06 0.000396761
0.00210326 1.60438e-05 8.37346e-06
1.60438e-05 0.000705572 -3.97327e-06
8.37346e-06 -3.97327e-06 0.000727229
0.000696002 -1.50603e-06 -2.88903e-07
-1.50603e-06 -3.59727e-05 -9.92115e-07
-2.88903e-07 -9.92115e-07 -9.17319e-05
0.000581722 -1.40251e-05 -2.54047e-07
-1.40251e-05 -0.000114763 -1.97493e-06
-2.54047e-07 -1.97493e-06 -0.000145129
0.000915652 -1.34861e-05 1.85325e-08
-1.34861e-05 7.98445e-05 6.14595e-08
1.85325e-08 6.14595e-08 3.05995e-05
0.000760516 -1.19419e-05 -3.92814e-07
-1.19419e-05 -2.99116e-05 -3.15058e-06
-3.92814e-07 -3.15058e-06 -3.05563e-05
0.000693941 -9.54542e-06 6.81681e-08
-9.54542e-06 -5.6424e-05 1.68638e-08
6.81681e-08 1.68638e-08 -8.43473e-05
0.000689235 -4.22063e-05 1.89399e-07
-4.22063e-05 -4.08946e-05 8.0814e-07
1.89399e-07 8.0814e-07 -8.96348e-05
0.0020306 -8.46435e-06 -4.72231e-06
-8.46435e-06 0.000664191 -4.12042e-06
-4.72231e-06 -4.12042e-06 0.000687036
0.000757298 -6.10383e-06 -1.66696e-07
-6.10383e-06 -3.40309e-05 -1.95832e-09
-1.66696e-07 -1.95832e-09 -3.36396e-05
0.000817761 -5.96782e-06 1.10942e-07
-5.96782e-06 8.99127e-06 1.63342e-06
1.10942e-07 1.63342e-06 -1.72845e-05
0.00202716 -2.62888e-07 -2.2035e-06
-2.62888e-07 0.000661277 -4.58744e-10
-2.2035e-06 -4.58744e-10 0.000684367
0.000759913 -1.67868e-07 1.2074e-07
-1.67868e-07 -3.3461e-05 3.22361e-06
1.2074e-07 3.22361e-06 -3.29011e-05
0.00204807 8.0092e-06 -4.7712e-06
8.0092e-06 0.000673325 4.17273e-06
-4.7712e-06 4.17273e-06 0.00069605
0.000968238 2.43036e-05 -4.13099e-05
2.43036e-05 -0.000274296 1.51535e-05
-4.13099e-05 1.51535e-05 -0.000471138
0.00121976 0.000166098 -1.74555e-07
0.000166098 0.00100181 -4.04825e-06
-1.74555e-07 -4.04825e-06 0.000946096
0.000598344 -7.03435e-05 3.22293e-05
-7.03435e-05 0.000577725 -1.27429e-05
3.22293e-05 -1.27429e-05 0.000367705
0.000862675 1.8479e-05 -6.34519e-08
1.8479e-05 6.19758e-05 3.58856e-07
-6.34519e-08 3.58856e-07 -8.97501e-06
0.00180806 3.76079e-05 -1.59214e-05
3.76079e-05 0.000143244 2.53929e-05
-1.59214e-05 2.53929e-05 -9.47936e-06
0.00185685 6.09673e-05 -1.54986e-05
6.09673e-05 3.27072e-05 3.36996e-06
-1.54986e-05 3.36996e-06 -0.000214052
0.00141162 0.00036986 5.98647e-05
0.00036986 0.000712461 -3.89448e-05
5.98647e-05 -3.89448e-05 0.00110134
0.00309288 2.14459e-06 -3.07259e-05
2.14459e-06 0.000475075 3.57322e-06
-3.07259e-05 3.57322e-06 0.000220201
0.00906176 0.000502444 1.96755e-05
0.000502444 0.00337531 -2.02703e-05
1.96755e-05 -2.02703e-05 0.00224504
-0.00232596 0.00043298 3.30743e-05
0.00043298 -0.00206595 -3.10224e-06
3.30743e-05 -3.10224e-06 -0.00156949
0.00286847 0.000402412 3.89846e-05
0.000402412 -0.000344778 -2.28863e-05
3.89846e-05 -2.28863e-05 0.000479974
0.00277066 -0.000114804 -4.43613e-05
-0.000114804 -3.92671e-05 2.26782e-06
-4.43613e-05 2.26782e-06 -0.000527983
0.00692509 0.000341302 2.71735e-05
0.000341302 0.00247069 -1.32364e-05
2.71735e-05 -1.32364e-05 0.00118627
0.00414154 0.000502067 -2.07396e-06
0.000502067 0.000294534 -5.894e-06
-2.07396e-06 -5.894e-06 0.00048006
0.0029509 0.000247154 -7.16969e-06
0.000247154 -0.000923307 2.57585e-06
-7.16969e-06 2.57585e-06 -3.88403e-05
0.0039293 -0.000311922 1.80671e-05
-0.000311922 0.000505621 -2.53544e-05
1.80671e-05 -2.53544e-05 -0.000188505
0.00733351 0.000271011 2.98111e-05
0.000271011 0.00276072 1.87477e-07
2.98111e-05 1.87477e-07 0.000947816
0.00207501 0.000204109 -6.00446e-07
0.000204109 -0.000436254 2.97338e-05
-6.00446e-07 2.97338e-05 -0.000453932
0.00444969 5.28015e-05 -2.06003e-06
5.28015e-05 2.73153e-05 2.19124e-05
-2.06003e-06 2.19124e-05 0.00104163
0.000894859 -2.41348e-05 3.89296e-07
-2.41348e-05 8.07176e-05 4.55548e-07
3.89296e-07 4.55548e-07 -1.35013e-07
0.000900262 -3.58329e-05 5.12077e-07
-3.58329e-05 9.01146e-05 1.20356e-09
5.12077e-07 1.20356e-09 9.68641e-06
0.00092605 4.77073e-05 -9.72523e-07
4.77073e-05 0.000105168 -7.88996e-08
-9.72523e-07 -7.88996e-08 3.15699e-05
0.000870909 -1.8082e-05 -4.01434e-07
-1.8082e-05 6.47771e-05 1.91433e-07
-4.01434e-07 1.91433e-07 -9.12874e-06
0.000896509 4.18171e-05 -5.84079e-07
4.18171e-05 8.84096e-05 3.35124e-07
-5.84079e-07 3.35124e-07 1.01321e-05
0.00093942 1.84176e-05 7.36298e-07
1.84176e-05 0.000112803 7.94027e-07
7.36298e-07 7.94027e-07 3.95178e-05
0.000983037 5.65163e-05 -5.2503e-07
5.65163e-05 0.000132008 1.1952e-07
-5.2503e-07 1.1952e-07 6.13568e-05
0.00101732 6.3917e-05 7.63206e-07
6.3917e-05 0.000154774 8.61354e-07
7.63206e-07 8.61354e-07 8.49681e-05
-0.000448904 -8.15056e-05 1.96934e-05
-8.15056e-05 -0.000795773 -7.26795e-06
1.96934e-05 -7.26795e-06 -0.000848989
0.00155218 -0.000196734 6.78937e-06
-0.000196734 0.000233406 -1.60447e-06
6.78937e-06 -1.60447e-06 0.000160563
0.000892602 -0.000104368 -1.96918e-06
-0.000104368 8.87492e-05 -2.47138e-07
-1.96918e-06 -2.47138e-07 5.03039e-06
0.00168386 -4.4373e-05 3.53417e-06
-4.4373e-05 0.000495932 -1.84615e-06
3.53417e-06 -1.84615e-06 0.000367546
0.00081518 -3.70788e-05 -7.80297e-07
-3.70788e-05 2.84547e-05 -7.52655e-07
-7.80297e-07 -7.52655e-07 -6.04192e-05
0.000999497 -2.03928e-05 -8.15634e-07
-2.03928e-05 0.0001293 -2.05196e-07
-8.15634e-07 -2.05196e-07 5.18027e-05
0.000950816 8.32282e-06 -2.1287e-09
8.32282e-06 0.000102462 -2.13389e-07
-2.1287e-09 -2.13389e-07 2.35197e-05
0.000899528 -0.000256597 -3.97436e-06
-0.000256597 -0.000112522 5.97283e-07
-3.97436e-06 5.97283e-07 -0.000143708
0.000901343 1.87352e-05 1.17151e-07
1.87352e-05 7.85885e-05 -2.73804e-07
1.17151e-07 -2.73804e-07 -6.81369e-06
0.0010298 -2.44539e-05 -6.29059e-07
-2.44539e-05 0.000119587 3.70517e-08
-6.29059e-07 3.70517e-08 3.27739e-05
0.00071352 -5.88533e-05 7.66507e-07
-5.88533e-05 5.30566e-05 2.8023e-06
7.66507e-07 2.8023e-06 -5.59307e-05
0.00107096 -1.71834e-05 2.73315e-08
-1.71834e-05 0.000157598 7.28578e-07
2.73315e-08 7.28578e-07 8.56644e-05
-0.000301066 -0.000267148 3.09974e-05
-0.000267148 -0.000534856 -1.55286e-05
3.09974e-05 -1.55286e-05 -0.000527211
0.00141773 -1.21829e-05 -9.7132e-06
-1.21829e-05 0.000552669 1.40783e-05
-9.7132e-06 1.40783e-05 0.000427663
0.000592153 3.63014e-06 -9.72256e-07
3.63014e-06 -0.000111385 3.30975e-06
-9.72256e-07 3.30975e-06 -0.000183049
0.000937768 8.6691e-05 1.29485e-06
8.6691e-05 9.45772e-05 1.16573e-06
1.29485e-06 1.16573e-06 1.60107e-05
0.00138055 -3.61272e-07 -2.86149e-06
-3.61272e-07 0.000285705 5.17644e-07
-2.86149e-06 5.17644e-07 0.000232564
0.00118136 -7.67733e-06 2.08059e-05
-7.67733e-06 -0.000182723 -1.34888e-06
2.08059e-05 -1.34888e-06 -0.000358153
-0.0012758 -1.73893e-05 2.30259e-05
-1.73893e-05 -6.58368e-05 -2.4329e-09
2.30259e-05 -2.4329e-09 -0.000414249
0.000809302 8.48791e-05 8.53212e-06
8.48791e-05 0.000142373 3.21235e-06
8.53212e-06 3.21235e-06 7.15658e-05
0.000501195 8.60104e-05 1.30862e-05
8.60104e-05 0.00017261 9.60133e-06
1.30862e-05 9.60133e-06 6.34808e-05
0.00157506 -2.27724e-05 3.61071e-05
-2.27724e-05 0.000137475 7.64233e-06
3.61071e-05 7.64233e-06 -2.17171e-05
0.00752133 -0.000496483 5.96901e-05
-0.000496483 0.00256959 2.03611e-05
5.96901e-05 2.03611e-05 0.00100065
0.00295939 0.000427105 -5.28145e-05
0.000427105 0.000495564 -7.23128e-05
-5.28145e-05 -7.23128e-05 -0.000165527
0.00344833 -0.00032699 1.24947e-05
-0.00032699 0.000274076 5.10808e-05
1.24947e-05 5.10808e-05 0.000118527
0.00199809 -6.31117e-06 1.08216e-05
-6.31117e-06 0.000185186 2.91236e-05
1.08216e-05 2.91236e-05 4.94032e-06
0.00151385 1.46724e-05 1.26353e-06
1.46724e-05 -0.00197391 4.35626e-06
1.26353e-06 4.35626e-06 -0.000853953
0.00076732 7.05378e-05 2.64281e-06
7.05378e-05 0.000210042 4.09686e-07
2.64281e-06 4.09686e-07 0.000162488
0.00109319 -4.38072e-06 -1.34502e-06
-4.38072e-06 5.26324e-05 -1.9325e-06
-1.34502e-06 -1.9325e-06 -1.5502e-05
0.00165462 7.19309e-06 3.74098e-06
7.19309e-06 7.98499e-05 1.45033e-06
3.74098e-06 1.45033e-06 -4.8501e-05
-0.000544752 8.06454e-05 -6.92072e-06
8.06454e-05 -0.000204711 -2.53154e-06
-6.92072e-06 -2.53154e-06 -0.000365767
0.00296526 0.000227227 5.15401e-06
0.000227227 -0.00085436 -2.84367e-06
5.15401e-06 -2.84367e-06 -1.56241e-05
0.00523958 0.000407611 4.1015e-05
0.000407611 0.0011178 4.70463e-06
4.1015e-05 4.70463e-06 -0.000283235
0.00291429 0.00013729 -5.13846e-05
0.00013729 0.000840998 -5.28488e-06
-5.13846e-05 -5.28488e-06 0.000565152
0.000240887 6.1647e-05 -1.27733e-06
6.1647e-05 8.35539e-05 -1.31609e-05
-1.27733e-06 -1.31609e-05 -4.83327e-06
0.000994076 2.58185e-06 -4.24581e-06
2.58185e-06 0.00010326 -1.68454e-06
-4.24581e-06 -1.68454e-06 3.24036e-05
0.00181938 2.93284e-05 1.54129e-05
2.93284e-05 0.000136761 -2.536e-05
1.54129e-05 -2.536e-05 -8.33784e-06
0.00342659 0.000375131 4.92279e-05
0.000375131 5.4954e-05 -2.95675e-05
4.92279e-05 -2.95675e-05 0.000834511
0.0024282 0.000280602 -9.70705e-06
0.000280602 -0.000295382 -3.60122e-05
-9.70705e-06 -3.60122e-05 -0.000259017
0.00181598 0.00028317 1.39772e-05
0.00028317 0.000214723 -1.30315e-05
1.39772e-05 -1.30315e-05 0.000301085
0.00244252 -0.000132544 0.000109626
-0.000132544 0.000695335 2.05334e-05
0.000109626 2.05334e-05 -0.00112544
0.000741445 7.70123e-05 -7.59895e-08
7.70123e-05 2.84533e-05 6.95057e-06
-7.59895e-08 6.95057e-06 -3.01352e-05
0.000741434 1.00118e-05 2.53251e-06
1.00118e-05 7.07094e-05 2.05625e-06
2.53251e-06 2.05625e-06 2.08786e-05
0.000492692 -3.73701e-05 1.13569e-05
-3.73701e-05 0.000103739 -8.15959e-06
1.13569e-05 -8.15959e-06 2.64269e-05
0.000931344 1.96134e-05 -5.56062e-07
1.96134e-05 7.25096e-05 7.02816e-07
-5.56062e-07 7.02816e-07 9.99611e-06
0.000771661 -4.66517e-05 -1.25971e-06
-4.66517e-05 -1.86396e-05 1.69115e-06
-1.25971e-06 1.69115e-06 -7.11516e-05
0.00108436 -6.8852e-05 -2.08091e-06
-6.8852e-05 0.000162809 3.63681e-06
-2.08091e-06 3.63681e-06 0.00010709
0.000909087 -5.52161e-06 -2.06832e-07
-5.52161e-06 5.92399e-05 -3.44332e-07
-2.06832e-07 -3.44332e-07 3.34902e-06
0.000651125 -1.53241e-05 -1.47523e-06
-1.53241e-05 -5.17724e-05 2.45872e-06
-1.47523e-06 2.45872e-06 -8.11659e-05
0.000782254 -6.30232e-05 1.90603e-06
-6.30232e-05 0.000109919 -1.24827e-06
1.90603e-06 -1.24827e-06 9.49575e-06
0.000883245 2.77013e-05 1.0612e-08
2.77013e-05 5.49755e-05 8.75253e-07
1.0612e-08 8.75253e-07 -5.51034e-06
0.000981086 4.9033e-05 -3.7559e-07
4.9033e-05 0.000119539 8.0082e-07
-3.7559e-07 8.0082e-07 5.41752e-05
0.00102035 -2.78582e-05 5.83179e-07
-2.78582e-05 0.00016699 4.0535e-07
5.83179e-07 4.0535e-07 9.4768e-05
0.000478858 -3.05516e-05 3.63176e-06
-3.05516e-05 -4.18353e-05 1.8543e-06
3.63176e-06 1.8543e-06 -0.00018052
0.000698017 2.31958e-06 -4.54741e-06
2.31958e-06 -3.09303e-06 -7.51769e-07
-4.54741e-06 -7.51769e-07 -8.12968e-05
0.000542657 -4.79494e-05 1.7932e-07
-4.79494e-05 -6.73868e-05 -2.44047e-07
1.7932e-07 -2.44047e-07 -0.000181461
0.00105543 -0.000128779 1.91896e-06
-0.000128779 0.000194383 1.36546e-06
1.91896e-06 1.36546e-06 3.13e-05
0.00112542 -0.000130235 -3.26103e-06
-0.000130235 0.00016714 3.35292e-06
-3.26103e-06 3.35292e-06 1.38129e-05
0.00127691 -7.19783e-05 -1.37708e-06
-7.19783e-05 0.000301414 -1.15294e-06
-1.37708e-06 -1.15294e-06 0.000197879
0.000761214 -0.000102167 -5.4864e-07
-0.000102167 2.42052e-05 3.73916e-07
-5.4864e-07 3.73916e-07 -0.000112032
0.00141259 -0.000138362 7.3909e-08
-0.000138362 0.000365886 -3.66786e-07
7.3909e-08 -3.66786e-07 0.000237469
0.000563359 -7.51653e-05 -1.25516e-06
-7.51653e-05 -6.12254e-05 5.69461e-07
-1.25516e-06 5.69461e-07 -0.000174183
0.000909322 -0.000106994 1.68617e-07
-0.000106994 0.000106437 -3.24384e-07
1.68617e-07 -3.24384e-07 -2.10354e-05
0.000904063 -6.98731e-06 -3.06531e-07
-6.98731e-06 9.29861e-05 8.36877e-07
-3.06531e-07 8.36877e-07 1.08289e-05
0.00101115 -7.5892e-05 -1.27396e-06
-7.5892e-05 0.000163776 1.16618e-06
-1.27396e-06 1.16618e-06 6.04524e-05
0.000754826 -9.61658e-05 -2.62778e-07
-9.61658e-05 3.07247e-05 -1.51824e-06
-2.62778e-07 -1.51824e-06 -9.32627e-05
0.00082857 3.91023e-05 1.33579e-07
3.91023e-05 4.01967e-05 1.09629e-06
1.33579e-07 1.09629e-06 -1.7823e-05
0.000790021 4.20946e-07 6.10952e-07
4.20946e-07 2.9104e-05 3.03549e-08
6.10952e-07 3.03549e-08 -4.63581e-05
0.000886706 -3.03507e-05 6.08185e-07
-3.03507e-05 9.3906e-05 -2.05573e-06
6.08185e-07 -2.05573e-06 8.68008e-07
0.000872718 1.42031e-05 -1.67788e-07
1.42031e-05 6.82296e-05 -8.77203e-07
-1.67788e-07 -8.77203e-07 4.00392e-06
0.000825491 2.36909e-05 -3.58804e-07
2.36909e-05 3.34659e-05 -1.40401e-07
-3.58804e-07 -1.40401e-07 -1.76815e-05
0.000780427 3.57425e-05 -1.17864e-06
3.57425e-05 7.16987e-06 1.5249e-06
-1.17864e-06 1.5249e-06 -2.68443e-05
0.000831357 -1.49443e-06 6.61281e-07
-1.49443e-06 3.33898e-05 -8.35428e-07
6.61281e-07 -8.35428e-07 -1.45792e-05
0.00079078 2.99111e-05 -5.30216e-08
2.99111e-05 6.15367e-06 -6.18877e-09
-5.30216e-08 -6.18877e-09 -2.54081e-05
0.000713113 3.17671e-05 -1.32275e-06
3.17671e-05 -3.60197e-05 3.23389e-06
-1.32275e-06 3.23389e-06 -4.18017e-05
0.000802332 2.12127e-05 1.04326e-06
2.12127e-05 6.62516e-06 -1.522e-06
1.04326e-06 -1.522e-06 -2.32781e-05
0.000732755 2.73151e-05 1.32465e-07
2.73151e-05 -3.24051e-05 1.67609e-08
1.32465e-07 1.67609e-08 -3.65165e-05
0.00200483 4.11918e-05 -4.74792e-06
4.11918e-05 0.000665472 1.51747e-06
-4.74792e-06 1.51747e-06 0.000684384
0.000741187 2.22424e-05 9.05137e-07
2.22424e-05 -3.37939e-05 -3.13182e-06
9.05137e-07 -3.13182e-06 -3.67058e-05
0.00148579 2.68824e-05 6.96984e-06
2.68824e-05 0.000375357 -1.07493e-06
6.96984e-06 -1.07493e-06 0.000392908
0.00208725 2.37208e-05 1.1848e-05
2.37208e-05 0.000700303 -3.84597e-06
1.1848e-05 -3.84597e-06 0.000721402
0.000726438 -2.14226e-05 -6.96168e-08
-2.14226e-05 -2.64598e-05 -7.53738e-07
-6.96168e-08 -7.53738e-07 -8.07486e-05
0.000557398 -1.78863e-05 -2.45632e-07
-1.78863e-05 -0.00012541 -1.94126e-06
-2.45632e-07 -1.94126e-06 -0.000158525
0.000809318 -3.36891e-06 -2.76501e-07
-3.36891e-06 2.46067e-05 -5.33268e-07
-2.76501e-07 -5.33268e-07 -3.0317e-05
0.0007557 -1.75378e-05 -4.46615e-07
-1.75378e-05 -2.88282e-05 -3.16824e-06
-4.46615e-07 -3.16824e-06 -3.1159e-05
0.000570861 -1.41292e-05 4.07187e-08
-1.41292e-05 -0.000120505 -5.86316e-07
4.07187e-08 -5.86316e-07 -0.000151145
0.000931553 -1.21791e-06 -1.65674e-07
-1.21791e-06 9.1131e-05 5.93353e-07
-1.65674e-07 5.93353e-07 3.98804e-05
0.00205442 -1.6274e-05 -8.35112e-06
-1.6274e-05 0.00067952 -4.08279e-06
-8.35112e-06 -4.08279e-06 0.000701616
0.000753016 -1.16714e-05 -1.02082e-07
-1.16714e-05 -3.40272e-05 -1.2663e-08
-1.02082e-07 -1.2663e-08 -3.46052e-05
0.000576143 -9.6994e-06 2.03984e-07
-9.6994e-06 -0.000119638 1.5044e-06
2.03984e-07 1.5044e-06 -0.000148477
0.00202779 -7.98759e-06 -2.35541e-06
-7.98759e-06 0.000662465 1.87282e-08
-2.35541e-06 1.87282e-08 0.000685375
0.000754539 -5.86404e-06 1.92401e-07
-5.86404e-06 -3.55677e-05 3.19599e-06
1.92401e-07 3.19599e-06 -3.51536e-05
0.002028 2.67562e-07 -6.1838e-07
2.67562e-07 0.000661726 4.17588e-06
-6.1838e-07 4.17588e-06 0.000684797
0.00101942 1.49244e-05 -6.47026e-06
1.49244e-05 -3.07307e-05 9.14402e-06
-6.47026e-06 9.14402e-06 -0.000108017
0.00123759 2.32389e-05 2.62407e-06
2.32389e-05 -0.000106369 -1.04853e-06
2.62407e-06 -1.04853e-06 -0.000301883
0.00108955 0.000132673 4.74101e-05
0.000132673 0.00103555 -1.43464e-05
4.74101e-05 -1.43464e-05 0.000939171
0.000881841 1.74221e-05 1.90142e-07
1.74221e-05 6.97936e-05 3.25923e-08
1.90142e-07 3.25923e-08 1.33643e-06
0.000807176 -9.43952e-06 -6.73752e-08
-9.43952e-06 2.56667e-05 8.69704e-08
-6.73752e-08 8.69704e-08 -4.20994e-05
0.000941867 2.80593e-05 -5.79887e-07
2.80593e-05 0.000106785 8.64492e-07
-5.79887e-07 8.64492e-07 3.24192e-05
0.00176621 2.1482e-05 3.03921e-06
2.1482e-05 8.54536e-05 3.40816e-05
3.03921e-06 3.40816e-05 -9.70287e-05
0.00175038 3.7927e-05 -5.14013e-06
3.7927e-05 0.000102617 3.96376e-06
-5.14013e-06 3.96376e-06 -5.38396e-05
0.00192459 5.79591e-05 3.19369e-05
5.79591e-05 9.34112e-05 -3.17093e-05
3.19369e-05 -3.17093e-05 -0.000186417
0.00407476 -0.000148421 -4.63436e-05
-0.000148421 0.000714911 7.91034e-06
-4.63436e-05 7.91034e-06 0.00027576
-1.15195e-05 0.000158095 -2.35342e-05
0.000158095 -0.00058165 1.04601e-05
-2.35342e-05 1.04601e-05 -0.00207221
0.00502621 0.000587692 6.28771e-05
0.000587692 0.00114378 -2.11956e-05
6.28771e-05 -2.11956e-05 0.00124461
0.00151851 0.000191791 1.13835e-05
0.000191791 -0.00184065 -2.28623e-05
1.13835e-05 -2.28623e-05 -0.000918967
0.0037761 -0.000366867 -1.13344e-05
-0.000366867 0.000691197 4.00009e-06
-1.13344e-05 4.00009e-06 0.00027183
0.0059009 0.00010667 1.86708e-05
0.00010667 0.00185992 -1.53699e-05
1.86708e-05 -1.53699e-05 0.000361033
0.00044408 9.41768e-05 -1.0898e-05
9.41768e-05 -0.000703417 9.85314e-07
-1.0898e-05 9.85314e-07 -0.000770036
0.00302247 3.37804e-05 -2.6342e-06
3.37804e-05 -0.000937703 2.39653e-07
-2.6342e-06 2.39653e-07 0.000122915
0.00234649 -0.000417524 -1.70595e-05
-0.000417524 -0.000179726 -4.87575e-05
-1.70595e-05 -4.87575e-05 -0.000606982
0.00830319 -6.91857e-05 6.12879e-05
-6.91857e-05 0.00331698 -2.97757e-06
6.12879e-05 -2.97757e-06 0.00147733
-0.00209636 7.14934e-05 1.92085e-05
7.14934e-05 -0.00091614 2.05414e-05
1.92085e-05 2.05414e-05 -0.00122897
0.00126555 -0.000180175 9.28503e-06
-0.000180175 -0.00171809 5.65449e-06
9.28503e-06 5.65449e-06 -0.000804598
0.000915418 -3.06491e-06 -1.74934e-07
-3.06491e-06 8.57601e-05 8.99974e-07
-1.74934e-07 8.99974e-07 7.11619e-06
0.00088099 -1.46092e-05 1.15446e-07
-1.46092e-05 7.58754e-05 -7.89421e-08
1.15446e-07 -7.89421e-08 -6.87054e-06
0.000874222 -4.39474e-05 -1.34972e-07
-4.39474e-05 7.71699e-05 -3.92602e-07
-1.34972e-07 -3.92602e-07 -3.96793e-06
0.000881116 5.25656e-06 -2.27266e-07
5.25656e-06 7.06647e-05 -2.94786e-07
-2.27266e-07 -2.94786e-07 -3.63797e-06
0.000992199 7.80042e-05 1.29993e-06
7.80042e-05 0.000139709 -2.48739e-08
1.29993e-06 -2.48739e-08 6.28025e-05
0.00102847 6.25821e-05 -4.53134e-08
6.25821e-05 0.000158293 8.77887e-08
-4.53134e-08 8.77887e-08 8.62574e-05
0.00109404 -0.00027062 1.7908e-06
-0.00027062 -1.83566e-05 1.13713e-06
1.7908e-06 1.13713e-06 -7.36286e-05
-0.000626205 -4.3105e-05 8.23206e-06
-4.3105e-05 -0.000642514 -4.07849e-06
8.23206e-06 -4.07849e-06 -0.000742452
0.00103497 3.96422e-05 -1.72672e-07
3.96422e-05 0.000153676 -5.68405e-07
-1.72672e-07 -5.68405e-07 7.18232e-05
0.00129333 -6.82869e-05 3.7897e-06
-6.82869e-05 0.00025309 -6.98376e-06
3.7897e-06 -6.98376e-06 0.000161467
0.00101459 1.11995e-05 -3.50851e-07
1.11995e-05 0.000138897 -1.3147e-06
-3.50851e-07 -1.3147e-06 5.48062e-05
0.000943706 -1.29056e-05 2.54212e-07
-1.29056e-05 8.82616e-05 -3.13224e-07
2.54212e-07 -3.13224e-07 1.47327e-05
0.000950046 4.45748e-05 1.73097e-07
4.45748e-05 9.88945e-05 -1.04415e-07
1.73097e-07 -1.04415e-07 2.3915e-05
0.000705803 -0.000254589 -8.98183e-06
-0.000254589 -6.0299e-05 -4.53043e-07
-8.98183e-06 -4.53043e-07 -5.70729e-05
0.000862288 -1.68794e-05 1.02497e-06
-1.68794e-05 3.58212e-05 -1.32167e-06
1.02497e-06 -1.32167e-06 -3.41195e-05
0.000677672 -8.60598e-06 8.49049e-07
-8.60598e-06 0.000202447 -1.93346e-06
8.49049e-07 -1.93346e-06 7.99825e-05
0.000970102 9.42576e-06 1.58741e-06
9.42576e-06 0.000108699 7.07633e-07
1.58741e-06 7.07633e-07 4.12841e-05
-0.00216276 -6.13401e-05 1.33729e-05
-6.13401e-05 -0.00106498 -2.10377e-05
1.33729e-05 -2.10377e-05 -0.00132126
0.00160486 4.06523e-06 1.05436e-05
4.06523e-06 0.000640811 1.99971e-05
1.05436e-05 1.99971e-05 0.000609881
0.00101244 -1.82659e-05 6.53886e-07
-1.82659e-05 0.000129122 3.03339e-06
6.53886e-07 3.03339e-06 6.54807e-05
0.00118885 -1.56924e-06 -3.40035e-07
-1.56924e-06 0.000355826 6.58734e-07
-3.40035e-07 6.58734e-07 0.000302302
0.00091054 6.77591e-07 -2.01046e-06
6.77591e-07 3.26785e-05 -7.11055e-07
-2.01046e-06 -7.11055e-07 -1.83173e-05
0.00102781 -1.74739e-05 6.38367e-05
-1.74739e-05 -0.000232429 -9.51279e-07
6.38367e-05 -9.51279e-07 -0.000410747
0.000980421 9.45506e-05 1.09157e-05
9.45506e-05 0.000301856 9.48267e-06
1.09157e-05 9.48267e-06 0.000245477
0.00221325 0.000239639 2.97837e-06
0.000239639 0.000884423 -1.39007e-05
2.97837e-06 -1.39007e-05 0.00078701
0.0010495 -3.92614e-06 1.86201e-06
-3.92614e-06 9.25651e-06 2.09302e-06
1.86201e-06 2.09302e-06 -5.47636e-05
0.00185886 0.000149649 -2.86021e-05
0.000149649 -2.06696e-05 -1.77195e-06
-2.86021e-05 -1.77195e-06 -0.00142112
-0.00498831 2.32638e-05 -2.38199e-05
2.32638e-05 -0.00296217 3.68081e-05
-2.38199e-05 3.68081e-05 -0.00331358
0.0015789 6.6946e-06 2.24045e-06
6.6946e-06 0.000139241 1.74112e-05
2.24045e-06 1.74112e-05 3.87663e-05
0.00157703 0.00017357 -1.0213e-05
0.00017357 -0.00174158 2.40863e-05
-1.0213e-05 2.40863e-05 -0.000871802
0.000249675 4.15083e-05 -2.63921e-06
4.15083e-05 7.03323e-05 -3.2907e-06
-2.63921e-06 -3.2907e-06 -2.0754e-06
0.000933006 1.36705e-06 -1.04303e-06
1.36705e-06 0.000104005 -4.9595e-07
-1.04303e-06 -4.9595e-07 3.74074e-05
0.00176437 2.89537e-05 5.25377e-06
2.89537e-05 9.73657e-05 -3.78277e-06
5.25377e-06 -3.78277e-06 -5.04734e-05
0.0019493 0.000302511 5.68553e-05
0.000302511 4.96914e-05 1.0311e-06
5.68553e-05 1.0311e-06 6.69423e-06
0.00190279 0.000373019 4.53056e-06
0.000373019 -0.000904221 -1.34331e-05
4.53056e-06 -1.34331e-05 -0.000116739
0.000447445 9.51717e-05 1.14975e-05
9.51717e-05 -0.000830565 -2.95744e-06
1.14975e-05 -2.95744e-06 -0.000779309
0.00715466 0.000187537 2.74362e-05
0.000187537 0.0029945 -1.72102e-05
2.74362e-05 -1.72102e-05 0.0010147
-0.000355647 6.51986e-06 -2.56621e-05
6.51986e-06 -2.46502e-05 -1.2813e-05
-2.56621e-05 -1.2813e-05 -0.00019547
0.00100367 1.24238e-05 5.85048e-06
1.24238e-05 -4.31787e-05 -7.77437e-06
5.85048e-06 -7.77437e-06 -0.000119723
0.00190974 5.55904e-05 6.1734e-05
5.55904e-05 2.81313e-05 -3.99416e-05
6.1734e-05 -3.99416e-05 -0.000197392
0.00223754 0.000575099 1.67711e-05
0.000575099 0.000580106 -6.70869e-06
1.67711e-05 -6.70869e-06 0.00152262
-0.00526713 0.000228718 7.07676e-05
0.000228718 -0.00379694 1.65823e-06
7.07676e-05 1.65823e-06 -0.00354577
0.00787037 0.000106147 2.84705e-05
0.000106147 0.00297967 -4.85267e-05
2.84705e-05 -4.85267e-05 0.0010371
0.00384563 -0.000143027 -2.18566e-05
-0.000143027 0.000732065 0.000110006
-2.18566e-05 0.000110006 0.000806716
0.00110256 -7.60402e-06 -5.31573e-06
-7.60402e-06 0.000259642 9.20432e-06
-5.31573e-06 9.20432e-06 0.000213468
0.000110488 -2.98949e-05 3.73914e-06
-2.98949e-05 -9.04404e-05 4.46734e-07
3.73914e-06 4.46734e-07 -0.000185598
0.000487432 -8.40813e-05 7.37143e-06
-8.40813e-05 0.000148978 -7.12302e-06
7.37143e-06 -7.12302e-06 -7.22098e-06
0.000887432 -1.9737e-05 -1.47661e-07
-1.9737e-05 5.36869e-05 4.15625e-07
-1.47661e-07 4.15625e-07 -4.65025e-06
0.000368354 -1.71979e-05 -5.95617e-07
-1.71979e-05 -0.000214761 6.42021e-06
-5.95617e-07 6.42021e-06 -0.000241098
0.000697743 -1.78888e-05 2.22422e-07
-1.78888e-05 6.6388e-05 2.4176e-07
2.22422e-07 2.4176e-07 -2.24905e-05
0.000816224 -0.000101332 8.41881e-06
-0.000101332 0.000229252 -3.30843e-06
8.41881e-06 -3.30843e-06 2.75282e-05
0.00136935 -3.79299e-05 -1.39298e-06
-3.79299e-05 0.000341699 6.83685e-07
-1.39298e-06 6.83685e-07 0.000265937
0.00114839 -9.47963e-05 9.60241e-07
-9.47963e-05 0.000286272 4.62551e-07
9.60241e-07 4.62551e-07 0.000143443
0.00111264 -0.000136328 3.03924e-06
-0.000136328 0.000264096 3.47668e-06
3.03924e-06 3.47668e-06 4.06448e-05
0.000304084 -4.56952e-05 -1.70219e-06
-4.56952e-05 -0.000189318 -1.55089e-06
-1.70219e-06 -1.55089e-06 -0.000295451
0.0010112 -0.000123409 -3.07922e-07
-0.000123409 0.00017283 2.78484e-07
-3.07922e-07 2.78484e-07 3.25334e-06
0.00173096 -0.000180511 -2.00919e-07
-0.000180511 0.000479987 2.84194e-06
-2.00919e-07 2.84194e-06 0.000282825
0.00165108 -0.000175891 -3.80636e-06
-0.000175891 0.000371558 2.85172e-06
-3.80636e-06 2.85172e-06 0.000200676
0.000722262 -0.000106545 -1.08098e-06
-0.000106545 -3.07132e-05 3.37123e-06
-1.08098e-06 3.37123e-06 -0.000166161
0.00107246 -0.000128313 -1.54461e-06
-0.000128313 0.00013874 1.04483e-06
-1.54461e-06 1.04483e-06 -1.55918e-05
0.000907446 -0.000110849 -1.74303e-06
-0.000110849 9.51319e-05 -1.00065e-06
-1.74303e-06 -1.00065e-06 -4.43054e-05
0.00120798 -0.000124492 1.1738e-06
-0.000124492 0.000256859 -9.9832e-07
1.1738e-06 -9.9832e-07 0.000138526
0.00108796 -0.000119006 1.94135e-06
-0.000119006 0.000197262 -1.25149e-06
1.94135e-06 -1.25149e-06 7.34439e-05
0.000682341 -3.27013e-05 4.09227e-07
-3.27013e-05 -1.3204e-05 1.42653e-06
4.09227e-07 1.42653e-06 -0.0001102
0.000840199 -8.45103e-05 5.87678e-07
-8.45103e-05 8.40345e-05 -2.07624e-07
5.87678e-07 -2.07624e-07 -2.82764e-05
0.000980628 -0.000110786 3.47258e-06
-0.000110786 0.000143187 -2.90368e-06
3.47258e-06 -2.90368e-06 1.77796e-05
0.000833993 4.18389e-05 2.25522e-07
4.18389e-05 4.83668e-05 1.35531e-06
2.25522e-07 1.35531e-06 -1.93517e-05
0.00091772 -2.15248e-05 -2.29744e-07
-2.15248e-05 0.000101753 3.61607e-09
-2.29744e-07 3.61607e-09 1.80438e-05
0.00107533 -7.43444e-05 -1.79554e-07
-7.43444e-05 0.000195389 -4.32917e-07
-1.79554e-07 -4.32917e-07 9.20474e-05
0.000761818 4.27219e-05 -9.24563e-07
4.27219e-05 4.10833e-06 1.66129e-06
-9.24563e-07 1.66129e-06 -3.42286e-05
0.000825646 2.71669e-05 -2.69237e-07
2.71669e-05 3.80187e-05 -1.83876e-07
-2.69237e-07 -1.83876e-07 -1.95798e-05
0.000691129 4.14413e-07 1.63884e-07
4.14413e-07 -2.35062e-05 -1.02043e-06
1.63884e-07 -1.02043e-06 -9.9164e-05
0.000836005 9.67782e-06 5.01801e-07
9.67782e-06 3.8711e-05 -1.11531e-06
5.01801e-07 -1.11531e-06 -1.22222e-05
0.000781398 3.81938e-05 -4.63243e-08
3.81938e-05 7.8845e-06 -3.39654e-08
-4.63243e-08 -3.39654e-08 -2.64014e-05
0.000696244 3.64357e-05 -1.59509e-06
3.64357e-05 -3.68102e-05 3.26395e-06
-1.59509e-06 3.26395e-06 -4.49456e-05
0.000793872 3.09045e-05 9.62386e-07
3.09045e-05 7.51832e-06 -1.60037e-06
9.62386e-07 -1.60037e-06 -2.40578e-05
0.00072714 3.23526e-05 8.50944e-08
3.23526e-05 -2.86342e-05 -2.76225e-09
8.50944e-08 -2.76225e-09 -3.44622e-05
0.0020562 4.46083e-05 -1.99522e-05
4.46083e-05 0.000699439 3.45876e-06
-1.99522e-05 3.45876e-06 0.000717249
0.000743022 2.77025e-05 1.14258e-06
2.77025e-05 -2.72676e-05 -3.16147e-06
1.14258e-06 -3.16147e-06 -3.13611e-05
0.00147453 3.34957e-05 8.19194e-06
3.34957e-05 0.000375744 -9.84833e-07
8.19194e-06 -9.84833e-07 0.000392002
0.00206928 3.11452e-05 1.50523e-05
3.11452e-05 0.000695284 -3.69769e-06
1.50523e-05 -3.69769e-06 0.000715542
0.000843021 1.59607e-05 -6.00603e-07
1.59607e-05 3.66931e-05 -4.41898e-07
-6.00603e-07 -4.41898e-07 -1.81788e-05
0.000775228 -2.05926e-05 -6.88168e-07
-2.05926e-05 -6.77681e-06 -1.41645e-06
-6.88168e-07 -1.41645e-06 -4.03058e-05
0.000765604 1.25692e-05 -7.15743e-07
1.25692e-05 -1.09652e-06 -4.49816e-07
-7.15743e-07 -4.49816e-07 -5.72479e-05
0.000747691 -2.30924e-05 -4.27928e-07
-2.30924e-05 -2.82412e-05 -3.2345e-06
-4.27928e-07 -3.2345e-06 -3.26664e-05
0.000673647 -1.8144e-05 -9.91571e-08
-1.8144e-05 -6.28792e-05 -6.17948e-07
-9.91571e-08 -6.17948e-07 -9.53268e-05
0.000928908 -4.71519e-06 1.68623e-08
-4.71519e-06 8.85078e-05 -7.93821e-08
1.68623e-08 -7.93821e-08 3.44187e-05
0.00209337 -2.40924e-05 -1.18948e-05
-2.40924e-05 0.000704305 -4.01525e-06
-1.18948e-05 -4.01525e-06 0.000725236
0.000745812 -1.72313e-05 -1.54787e-07
-1.72313e-05 -3.42112e-05 -1.12406e-08
-1.54787e-07 -1.12406e-08 -3.64509e-05
0.000561353 -1.41265e-05 8.74214e-08
-1.41265e-05 -0.000125514 8.10145e-07
8.74214e-08 8.10145e-07 -0.000156428
0.00204697 -1.57587e-05 -2.12742e-06
-1.57587e-05 0.000675084 3.65189e-08
-2.12742e-06 3.65189e-08 0.000697325
0.000746241 -1.14166e-05 3.85543e-07
-1.14166e-05 -3.77389e-05 3.17016e-06
3.85543e-07 3.17016e-06 -3.82569e-05
0.00202476 -7.50078e-06 3.29973e-06
-7.50078e-06 0.000660604 4.13671e-06
3.29973e-06 4.13671e-06 0.00068357
0.000937944 3.41341e-06 3.77517e-06
3.41341e-06 8.619e-05 3.01768e-06
3.77517e-06 3.01768e-06 -1.78795e-06
0.00114128 1.18657e-05 -3.97124e-06
1.18657e-05 5.35024e-05 8.0928e-07
-3.97124e-06 8.0928e-07 -2.70601e-05
0.00140094 2.08932e-05 4.75818e-05
2.08932e-05 1.03e-06 -1.03141e-05
4.75818e-05 -1.03141e-05 -0.000194559
0.000784298 -4.53534e-05 2.60332e-08
-4.53534e-05 9.66316e-06 -3.64498e-07
2.60332e-08 -3.64498e-07 -5.58904e-05
0.000951142 -1.92744e-05 -2.53535e-07
-1.92744e-05 0.000105555 -5.06843e-07
-2.53535e-07 -5.06843e-07 3.4258e-05
0.000903083 1.87043e-05 1.29365e-06
1.87043e-05 7.98027e-05 -2.62137e-07
1.29365e-06 -2.62137e-07 1.31e-05
0.000814962 -2.66314e-05 3.06153e-08
-2.66314e-05 2.66017e-05 2.38376e-08
3.06153e-08 2.38376e-08 -3.91188e-05
0.000881148 6.12386e-06 -8.21762e-09
6.12386e-06 7.12242e-05 2.66464e-07
-8.21762e-09 2.66464e-07 -1.98379e-06
0.000928731 -3.37163e-06 -9.46262e-07
-3.37163e-06 9.51042e-05 2.24646e-07
-9.46262e-07 2.24646e-07 2.33512e-05
0.000887688 9.75746e-05 3.17216e-07
9.75746e-05 8.45402e-05 9.7519e-07
3.17216e-07 9.7519e-07 3.22858e-06
0.00154833 -7.11815e-06 1.659e-05
-7.11815e-06 6.64287e-05 3.80845e-05
1.659e-05 3.80845e-05 -0.000143723
0.00161389 1.7857e-05 -7.65885e-07
1.7857e-05 8.71374e-05 1.1942e-05
-7.65885e-07 1.1942e-05 -6.24593e-05
0.00167218 3.79045e-05 6.50988e-06
3.79045e-05 4.69083e-05 -2.15336e-05
6.50988e-06 -2.15336e-05 -0.000111695
0.00152438 1.7772e-05 -1.97406e-06
1.7772e-05 -0.00196846 -1.54356e-05
-1.97406e-06 -1.54356e-05 -0.000872782
0.00227052 -0.000353651 -2.64405e-05
-0.000353651 -0.000109317 5.5486e-05
-2.64405e-05 5.5486e-05 -0.000726369
0.000873673 1.74255e-05 4.60651e-05
1.74255e-05 -0.000482174 -1.30784e-05
4.60651e-05 -1.30784e-05 -0.00190566
0.00474461 0.000425069 3.66258e-05
0.000425069 0.00174382 -2.47749e-05
3.66258e-05 -2.47749e-05 0.00122863
0.00438382 -0.000517859 -2.61867e-05
-0.000517859 0.000758194 7.37245e-06
-2.61867e-05 7.37245e-06 0.000220968
0.00197469 -0.000143309 4.03529e-05
-0.000143309 0.000161279 -2.73772e-05
4.03529e-05 -2.73772e-05 -0.00150761
0.00341509 1.28326e-05 -1.95539e-05
1.28326e-05 0.000941892 2.22592e-06
-1.95539e-05 2.22592e-06 0.000640475
0.00434367 -0.000231912 -8.00948e-06
-0.000231912 0.000236748 -1.34275e-05
-8.00948e-06 -1.34275e-05 0.00113813
0.00192462 -0.000176815 -7.07314e-06
-0.000176815 -0.000264169 -9.70968e-07
-7.07314e-06 -9.70968e-07 -0.000292605
0.00198145 -0.000290515 3.17371e-05
-0.000290515 -0.000400714 -6.68816e-05
3.17371e-05 -6.68816e-05 -0.00161493
-0.0025654 -0.000235136 4.28384e-05
-0.000235136 -0.00265311 2.01932e-05
4.28384e-05 2.01932e-05 -0.00302338
0.000773544 -0.000291792 2.98617e-05
-0.000291792 -0.00150788 -6.61455e-06
2.98617e-05 -6.61455e-06 -0.000607206
0.000987976 -5.3841e-05 -3.28438e-07
-5.3841e-05 0.00011838 1.60718e-06
-3.28438e-07 1.60718e-06 4.89423e-05
0.000828794 -2.26888e-06 1.34946e-07
-2.26888e-06 3.83273e-05 -2.88901e-08
1.34946e-07 -2.88901e-08 -3.94888e-05
0.000832963 -2.63841e-06 -4.12603e-07
-2.63841e-06 5.23625e-05 -1.15155e-06
-4.12603e-07 -1.15155e-06 -3.17456e-05
0.000884252 2.11826e-05 6.75758e-08
2.11826e-05 7.35352e-05 -1.31312e-06
6.75758e-08 -1.31312e-06 -1.67442e-06
0.0020966 -0.000258631 -4.57908e-06
-0.000258631 0.000610098 8.58606e-06
-4.57908e-06 8.58606e-06 0.000605056
0.0002852 -1.64122e-05 5.94136e-06
-1.64122e-05 2.26309e-05 -8.99704e-06
5.94136e-06 -8.99704e-06 -8.99465e-05
0.000796104 -2.93141e-05 1.05459e-08
-2.93141e-05 3.17379e-06 -1.58404e-06
1.05459e-08 -1.58404e-06 -6.88804e-05
0.000912967 4.59995e-05 -1.10156e-07
4.59995e-05 8.67747e-05 -1.38436e-06
-1.10156e-07 -1.38436e-06 9.08324e-06
0.00106849 8.85928e-06 2.4736e-06
8.85928e-06 0.000156668 -7.14273e-06
2.4736e-06 -7.14273e-06 8.56982e-05
0.000894451 -7.15203e-06 -2.74081e-08
-7.15203e-06 6.62687e-05 7.8957e-08
-2.74081e-08 7.8957e-08 -9.89773e-07
0.000837509 -1.29198e-05 -8.42298e-07
-1.29198e-05 4.32299e-05 -4.30972e-07
-8.42298e-07 -4.30972e-07 -2.34935e-05
-0.000526214 -7.17746e-05 -9.57245e-06
-7.17746e-05 -0.000261395 -9.14178e-06
-9.57245e-06 -9.14178e-06 -0.000520137
0.000942036 -1.18217e-05 -5.68455e-06
-1.18217e-05 0.000315728 4.17368e-06
-5.68455e-06 4.17368e-06 0.000291834
0.000860006 -2.08244e-05 2.04315e-06
-2.08244e-05 6.33695e-05 -4.98893e-07
2.04315e-06 -4.98893e-07 -6.51605e-07
0.00113601 2.86423e-05 -8.39281e-06
2.86423e-05 0.000987672 -4.0164e-05
-8.39281e-06 -4.0164e-05 0.000294451
0.00129626 -3.17333e-05 -1.91216e-06
-3.17333e-05 0.000494971 1.57815e-05
-1.91216e-06 1.57815e-05 0.000431708
0.0013398 -5.66275e-07 2.93299e-06
-5.66275e-07 0.000260924 1.75574e-07
2.93299e-06 1.75574e-07 0.000201787
0.000754331 -5.45129e-07 1.352e-07
-5.45129e-07 0.000110035 -2.43456e-08
1.352e-07 -2.43456e-08 5.49294e-05
0.000511934 1.86357e-06 -1.5797e-06
1.86357e-06 -0.000173823 -7.6221e-07
-1.5797e-06 -7.6221e-07 -0.000223401
0.000495353 3.34405e-05 9.94933e-07
3.34405e-05 0.000169502 7.37246e-06
9.94933e-07 7.37246e-06 0.000115818
0.00214188 0.000206664 -7.18936e-05
0.000206664 0.000462062 1.36801e-05
-7.18936e-05 1.36801e-05 0.000528016
0.000860277 4.0299e-07 -9.42947e-07
4.0299e-07 9.60398e-05 -8.18119e-07
-9.42947e-07 -8.18119e-07 3.24932e-05
0.00319629 9.53256e-05 7.48461e-05
9.53256e-05 0.000926116 -9.78037e-05
7.48461e-05 -9.78037e-05 -0.000809532
0.00463708 0.00045844 -3.46416e-05
0.00045844 0.00161744 2.81683e-05
-3.46416e-05 2.81683e-05 0.00115396
0.00167879 2.66152e-05 -6.34153e-06
2.66152e-05 3.40475e-05 2.18817e-05
-6.34153e-06 2.18817e-05 -0.000112661
0.00292241 0.000388704 -3.78471e-05
0.000388704 -0.000267499 2.33401e-05
-3.78471e-05 2.33401e-05 0.000492955
-0.000481065 -2.34769e-05 2.67385e-05
-2.34769e-05 -6.7351e-05 -2.60685e-06
2.67385e-05 -2.60685e-06 -0.000261055
0.00113047 9.63912e-06 4.06838e-06
9.63912e-06 4.19162e-05 -6.4634e-07
4.06838e-06 -6.4634e-07 -3.39338e-05
0.00186687 4.95279e-05 1.52067e-05
4.95279e-05 2.51348e-05 -3.42134e-06
1.52067e-05 -3.42134e-06 -0.000241472
0.00201089 -4.01058e-05 -2.149e-05
-4.01058e-05 -8.52143e-05 2.50851e-05
-2.149e-05 2.50851e-05 0.000144412
-0.000230569 0.000600843 2.9951e-06
0.000600843 -0.000987876 1.7676e-06
2.9951e-06 1.7676e-06 0.000193705
0.00407237 0.000529471 1.22467e-06
0.000529471 0.00032859 7.62505e-06
1.22467e-06 7.62505e-06 0.000536178
0.00180699 -0.000165312 4.24904e-05
-0.000165312 0.000222788 -2.03602e-05
4.24904e-05 -2.03602e-05 -0.00189935
0.00148696 -9.20847e-05 4.94915e-05
-9.20847e-05 0.000633143 -9.54382e-06
4.94915e-05 -9.54382e-06 0.000601895
0.000947148 1.6619e-05 3.83921e-05
1.6619e-05 -0.000292109 -1.37904e-05
3.83921e-05 -1.37904e-05 -0.0005002
-0.00116842 0.000260727 -1.2663e-06
0.000260727 -0.000520079 -1.52103e-05
-1.2663e-06 -1.52103e-05 -0.000478016
0.000330001 0.000513257 2.76856e-05
0.000513257 -6.57198e-05 9.80494e-06
2.76856e-05 9.80494e-06 0.000218975
0.00855218 0.00046913 2.50447e-05
0.00046913 0.00316716 -4.45153e-05
2.50447e-05 -4.45153e-05 0.00143849
0.00281761 -0.000315037 -5.62746e-05
-0.000315037 0.000202711 8.35348e-05
-5.62746e-05 8.35348e-05 -0.000161459
-0.000189385 -2.87022e-05 -4.19189e-06
-2.87022e-05 -0.000247849 8.62235e-06
-4.19189e-06 8.62235e-06 -0.000360466
0.000313432 -4.15891e-05 -4.19806e-06
-4.15891e-05 8.13658e-05 -3.56168e-07
-4.19806e-06 -3.56168e-07 -8.15946e-05
0.00125052 -0.000152003 1.5022e-05
-0.000152003 0.00039316 -4.87432e-06
1.5022e-05 -4.87432e-06 0.00025518
0.000590166 2.09014e-05 -4.10662e-06
2.09014e-05 1.28909e-05 -4.98597e-07
-4.10662e-06 -4.98597e-07 -6.51191e-05
0.00022935 -4.98676e-05 9.04333e-07
-4.98676e-05 -4.97023e-05 -1.66334e-06
9.04333e-07 -1.66334e-06 -0.000255316
0.00104327 -0.000143394 7.91372e-06
-0.000143394 0.000173877 4.9303e-06
7.91372e-06 4.9303e-06 -3.56907e-05
0.00179421 -0.000158928 -2.71822e-06
-0.000158928 0.00060076 -5.08753e-07
-2.71822e-06 -5.08753e-07 0.000453224
0.00130099 -0.000145066 2.83263e-07
-0.000145066 0.000344907 1.32846e-06
2.83263e-07 1.32846e-06 0.000121067
0.00121526 -0.000173716 -6.72427e-07
-0.000173716 0.000153975 3.61048e-08
-6.72427e-07 3.61048e-08 -5.00785e-05
0.00101598 -0.000121008 -2.1381e-06
-0.000121008 0.000175012 -2.05727e-06
-2.1381e-06 -2.05727e-06 -5.3352e-07
0.00163709 -0.000174841 8.34307e-07
-0.000174841 0.000421903 2.75096e-07
8.34307e-07 2.75096e-07 0.000227349
0.00128485 -0.00016934 1.66939e-07
-0.00016934 0.000135067 -7.94671e-07
1.66939e-07 -7.94671e-07 -5.36554e-05
0.00160224 -0.000175817 -2.47491e-06
-0.000175817 0.000252753 -1.68383e-06
-2.47491e-06 -1.68383e-06 9.30038e-05
0.00184399 -0.000178413 -5.1e-06
-0.000178413 0.000491471 4.36394e-06
-5.1e-06 4.36394e-06 0.000334255
0.00147055 -0.000167901 -7.76414e-07
-0.000167901 0.000271733 4.45712e-07
-7.76414e-07 4.45712e-07 9.7533e-05
0.000572605 -9.58596e-05 6.11771e-07
-9.58596e-05 -0.000112327 2.15988e-09
6.11771e-07 2.15988e-09 -0.000232558
0.000871619 -0.000113905 1.56592e-06
-0.000113905 4.85376e-05 -4.28885e-07
1.56592e-06 -4.28885e-07 -8.47913e-05
0.0010543 -0.000128347 5.29644e-07
-0.000128347 0.000127866 -2.24003e-06
5.29644e-07 -2.24003e-06 -2.7084e-05
0.0010329 -0.000109409 1.98068e-07
-0.000109409 0.000160219 6.81676e-07
1.98068e-07 6.81676e-07 4.82093e-05
0.00114487 -0.000120211 -2.55992e-07
-0.000120211 0.000224917 -6.29907e-07
-2.55992e-07 -6.29907e-07 0.000106243
0.000775555 -0.000100433 2.83779e-06
-0.000100433 3.50331e-05 -1.12877e-06
2.83779e-06 -1.12877e-06 -8.42666e-05
0.000805045 1.50393e-05 7.02765e-07
1.50393e-05 4.02142e-05 1.36189e-06
7.02765e-07 1.36189e-06 -4.1836e-05
0.000798729 -4.01788e-05 5.06297e-08
-4.01788e-05 4.93076e-05 5.92995e-07
5.06297e-08 5.92995e-07 -4.73318e-05
0.00111202 -9.43601e-05 1.12281e-06
-9.43601e-05 0.000226839 -1.49687e-06
1.12281e-06 -1.49687e-06 0.000114928
0.000750755 5.47276e-05 -4.50681e-07
5.47276e-05 6.02945e-06 2.06296e-06
-4.50681e-07 2.06296e-06 -4.04831e-05
0.000823407 2.1602e-05 -2.06945e-07
2.1602e-05 4.40073e-05 -1.1293e-07
-2.06945e-07 -1.1293e-07 -2.48119e-05
0.000926251 -3.35339e-05 2.03644e-07
-3.35339e-05 0.00010766 -8.81107e-07
2.03644e-07 -8.81107e-07 2.24619e-05
0.000701241 4.0958e-05 -2.79776e-06
4.0958e-05 -2.61626e-05 4.54829e-06
-2.79776e-06 4.54829e-06 -3.70115e-05
0.000764222 4.8171e-05 4.01243e-08
4.8171e-05 6.69241e-06 -1.12042e-07
4.01243e-08 -1.12042e-07 -3.25584e-05
0.000822967 1.54862e-05 2.15948e-07
1.54862e-05 3.6055e-05 -1.27193e-06
2.15948e-07 -1.27193e-06 -2.11892e-05
0.000781395 4.08422e-05 6.33563e-07
4.08422e-05 8.08686e-06 -1.73308e-06
6.33563e-07 -1.73308e-06 -2.648e-05
0.000719065 3.73233e-05 3.5668e-08
3.73233e-05 -2.47572e-05 -2.6116e-08
3.5668e-08 -2.6116e-08 -3.29966e-05
0.00207109 5.15848e-05 -2.26971e-05
5.15848e-05 0.000715607 3.2937e-06
-2.26971e-05 3.2937e-06 0.000731515
0.000743562 3.30116e-05 1.39772e-06
3.30116e-05 -1.99467e-05 -3.19524e-06
1.39772e-06 -3.19524e-06 -2.58327e-05
0.00206264 4.50492e-05 1.23616e-06
4.50492e-05 0.000703989 7.78758e-08
1.23616e-06 7.78758e-08 0.000721585
0.00206001 3.83504e-05 1.81089e-05
3.83504e-05 0.000696317 -3.55198e-06
1.81089e-05 -3.55198e-06 0.000715352
0.000877589 3.65418e-06 -1.35141e-07
3.65418e-06 6.43016e-05 -6.90505e-07
-1.35141e-07 -6.90505e-07 -4.35895e-06
0.000831752 2.98481e-05 -1.05815e-06
2.98481e-05 3.57399e-05 -1.0205e-06
-1.05815e-06 -1.0205e-06 -2.34253e-05
0.00077236 -2.79492e-05 -7.2899e-07
-2.79492e-05 -5.61542e-06 -1.60623e-06
-7.2899e-07 -1.60623e-06 -4.10888e-05
0.000838176 1.81676e-05 -1.11957e-07
1.81676e-05 3.38003e-05 -2.97995e-08
-1.11957e-07 -2.97995e-08 -2.0903e-05
0.000734273 -2.78992e-05 -7.40168e-07
-2.78992e-05 -2.98676e-05 -3.3182e-06
-7.40168e-07 -3.3182e-06 -3.64207e-05
0.000784862 -2.21449e-05 -1.35657e-07
-2.21449e-05 -1.05607e-06 6.89827e-09
-1.35657e-07 6.89827e-09 -3.47535e-05
0.000804183 7.95253e-06 9.08753e-08
7.95253e-06 1.3823e-05 -3.87763e-08
9.08753e-08 -3.87763e-08 -3.75441e-05
0.00213716 -3.18136e-05 -1.52977e-05
-3.18136e-05 0.000732796 -3.92877e-06
-1.52977e-05 -3.92877e-06 0.000752296
0.000736289 -2.26408e-05 -1.32302e-07
-2.26408e-05 -3.44432e-05 -9.37306e-09
-1.32302e-07 -9.37306e-09 -3.87628e-05
0.000788965 -1.87699e-05 9.2068e-08
-1.87699e-05 -8.91832e-07 8.23724e-07
9.2068e-08 8.23724e-07 -3.26777e-05
0.00208314 -2.36249e-05 -2.07838e-06
-2.36249e-05 0.000698233 5.59031e-08
-2.07838e-06 5.59031e-08 0.000719356
0.000735519 -1.69378e-05 3.58692e-07
-1.69378e-05 -3.97918e-05 3.17827e-06
3.58692e-07 3.17827e-06 -4.19443e-05
0.00203978 -1.52102e-05 7.3574e-06
-1.52102e-05 0.000670782 4.08505e-06
7.3574e-06 4.08505e-06 0.000693163
0.00106113 -9.16612e-06 5.30573e-06
-9.16612e-06 7.88361e-05 8.34894e-06
5.30573e-06 8.34894e-06 -1.28063e-05
0.000919055 2.41375e-06 1.05058e-06
2.41375e-06 0.000110027 7.01539e-07
1.05058e-06 7.01539e-07 2.97556e-05
0.00130141 9.02376e-06 -1.53952e-06
9.02376e-06 0.00015827 -2.29902e-06
-1.53952e-06 -2.29902e-06 7.93444e-05
0.000825839 -7.00226e-06 -2.71795e-07
-7.00226e-06 3.65464e-05 -3.87864e-08
-2.71795e-07 -3.87864e-08 -3.167e-05
0.000892653 -2.62665e-05 -1.32472e-07
-2.62665e-05 7.37383e-05 2.5959e-07
-1.32472e-07 2.5959e-07 2.09136e-06
0.000810965 -2.65519e-05 3.23502e-07
-2.65519e-05 3.25762e-05 -1.87973e-06
3.23502e-07 -1.87973e-06 -4.40629e-05
0.000772184 -3.41044e-05 -1.53815e-07
-3.41044e-05 1.0449e-05 -7.21437e-07
-1.53815e-07 -7.21437e-07 -6.08856e-05
0.000992645 2.8594e-05 -7.0704e-07
2.8594e-05 0.000138109 -2.75307e-07
-7.0704e-07 -2.75307e-07 5.74856e-05
0.000793548 -3.71315e-05 7.18398e-08
-3.71315e-05 1.24005e-05 1.06716e-07
7.18398e-08 1.06716e-07 -5.1691e-05
0.000803088 -1.61222e-05 4.34233e-07
-1.61222e-05 2.62923e-05 -6.70776e-07
4.34233e-07 -6.70776e-07 -4.55276e-05
0.000884879 7.05961e-06 -1.90228e-07
7.05961e-06 7.27001e-05 -5.61947e-08
-1.90228e-07 -5.61947e-08 1.00706e-06
0.000902179 2.45012e-05 -4.45358e-08
2.45012e-05 8.25578e-05 3.33205e-07
-4.45358e-08 3.33205e-07 5.51698e-06
0.000974341 1.3484e-05 -1.34222e-07
1.3484e-05 0.000127502 6.49857e-07
-1.34222e-07 6.49857e-07 5.1249e-05
0.00188647 -4.99432e-05 4.30488e-05
-4.99432e-05 0.000218976 4.66228e-05
4.30488e-05 4.66228e-05 -7.56469e-05
0.00171591 -3.47811e-06 2.93991e-06
-3.47811e-06 0.000121312 1.10081e-05
2.93991e-06 1.10081e-05 -8.81644e-05
0.00157675 1.56393e-05 7.84015e-07
1.56393e-05 0.00016825 -6.509e-06
7.84015e-07 -6.509e-06 5.3793e-05
0.00430293 -0.00021394 -2.33971e-05
-0.00021394 0.000367922 -3.39558e-05
-2.33971e-05 -3.39558e-05 0.00128877
-0.0047033 0.000153544 -1.39309e-05
0.000153544 -0.00287631 -2.04191e-05
-1.39309e-05 -2.04191e-05 -0.00322953
0.00341897 -0.000475448 -5.96089e-05
-0.000475448 0.00037047 6.93771e-05
-5.96089e-05 6.93771e-05 -0.000226581
0.00642055 7.41523e-05 -1.23679e-05
7.41523e-05 0.00185009 -4.52019e-05
-1.23679e-05 -4.52019e-05 0.000468905
0.00339366 -0.000301121 -4.39541e-05
-0.000301121 0.000373352 3.99593e-05
-4.39541e-05 3.99593e-05 3.45568e-05
0.00864872 -0.000199576 4.74923e-05
-0.000199576 0.00319022 -7.10015e-06
4.74923e-05 -7.10015e-06 0.00155129
0.000381556 -0.00021801 2.03417e-05
-0.00021801 -0.000927392 -9.5866e-06
2.03417e-05 -9.5866e-06 -0.00109525
0.000816806 -0.000335343 -1.47427e-05
-0.000335343 -0.00157798 -3.89708e-05
-1.47427e-05 -3.89708e-05 -0.000609908
0.00342183 -9.62483e-05 -9.24022e-05
-9.62483e-05 0.000546853 -3.17779e-05
-9.24022e-05 -3.17779e-05 0.000227776
0.00820869 -0.000381468 -2.2399e-05
-0.000381468 0.00244819 5.08736e-05
-2.2399e-05 5.08736e-05 0.00127305
0.00785199 -0.00074811 2.52255e-05
-0.00074811 0.00227077 2.82688e-06
2.52255e-05 2.82688e-06 0.00244749
0.00254833 -0.000525824 1.44639e-05
-0.000525824 0.000213733 2.70842e-08
1.44639e-05 2.70842e-08 0.00130346
0.000765906 1.17921e-05 1.41519e-06
1.17921e-05 3.2189e-05 1.25626e-06
1.41519e-06 1.25626e-06 -2.91013e-05
0.000956488 -4.28651e-05 -1.20121e-07
-4.28651e-05 0.000104806 4.36419e-07
-1.20121e-07 4.36419e-07 3.44967e-05
0.000794485 -3.52535e-06 2.38874e-07
-3.52535e-06 1.79485e-05 -1.00865e-06
2.38874e-07 -1.00865e-06 -5.87714e-05
0.000851893 -5.13548e-05 -8.30997e-07
-5.13548e-05 0.000394137 7.72429e-06
-8.30997e-07 7.72429e-06 0.000153644
0.000527553 -4.2879e-05 -4.05152e-07
-4.2879e-05 0.00011632 -7.12248e-06
-4.05152e-07 -7.12248e-06 9.79949e-05
0.000830025 -1.83098e-05 -8.65553e-07
-1.83098e-05 3.14942e-05 -3.44296e-07
-8.65553e-07 -3.44296e-07 -3.70355e-05
0.000887608 -5.53584e-05 -1.14856e-06
-5.53584e-05 6.80743e-05 -3.74242e-06
-1.14856e-06 -3.74242e-06 2.60246e-06
0.000823725 -1.36344e-05 -5.20312e-07
-1.36344e-05 4.48843e-05 -6.74159e-07
-5.20312e-07 -6.74159e-07 -1.84694e-05
0.000564005 -3.74351e-05 1.67566e-06
-3.74351e-05 0.00010673 5.1521e-06
1.67566e-06 5.1521e-06 4.37291e-05
7.25211e-05 -5.04404e-06 2.10618e-05
-5.04404e-06 0.000387442 -3.00081e-05
2.10618e-05 -3.00081e-05 -0.000276677
-0.00038412 -2.75454e-05 -3.96322e-06
-2.75454e-05 -0.00040844 6.24923e-06
-3.96322e-06 6.24923e-06 -0.000491488
0.000842186 0.000114782 7.54438e-06
0.000114782 0.000367361 -2.41456e-05
7.54438e-06 -2.41456e-05 -4.92535e-06
0.00130588 1.24335e-06 3.45699e-05
1.24335e-06 -8.87513e-05 4.10526e-06
3.45699e-05 4.10526e-06 -0.000281843
0.00092306 1.26546e-07 2.20447e-06
1.26546e-07 4.42111e-05 5.20318e-07
2.20447e-06 5.20318e-07 -1.25213e-05
0.000223532 1.02443e-07 1.36282e-07
1.02443e-07 -0.000196726 -6.95455e-07
1.36282e-07 -6.95455e-07 -0.00025342
-0.00108233 -3.98026e-05 -3.81669e-05
-3.98026e-05 -0.000301534 1.07345e-05
-3.81669e-05 1.07345e-05 -0.000535498
0.00137189 8.1759e-05 2.31716e-05
8.1759e-05 -0.000574436 -4.51266e-05
2.31716e-05 -4.51266e-05 -0.000642727
0.00128308 6.91717e-06 2.43735e-06
6.91717e-06 0.00014212 1.20224e-06
2.43735e-06 1.20224e-06 6.89134e-05
0.0103055 4.22574e-05 7.3344e-05
4.22574e-05 0.00392235 2.52871e-06
7.3344e-05 2.52871e-06 0.00205542
0.00525825 0.000664992 -5.45721e-05
0.000664992 0.00124334 2.64819e-05
-5.45721e-05 2.64819e-05 0.00134635
0.00189841 4.72822e-05 -3.11149e-05
4.72822e-05 5.90234e-05 3.09588e-05
-3.11149e-05 3.09588e-05 -0.000239764
-0.00263747 0.000636495 3.79242e-06
0.000636495 -0.00255081 -3.20616e-05
3.79242e-06 -3.20616e-05 -0.0011101
0.000279124 -3.4653e-05 -1.65022e-05
-3.4653e-05 7.4773e-05 -1.23741e-06
-1.65022e-05 -1.23741e-06 -1.27876e-06
0.00121403 1.29043e-05 -2.86954e-06
1.29043e-05 -0.000130063 8.75751e-07
-2.86954e-06 8.75751e-07 -0.00033572
-0.00131353 0.000304845 -4.53412e-05
0.000304845 -0.000561702 1.81275e-05
-4.53412e-05 1.81275e-05 -0.00045227
0.00214981 -0.000285439 -1.48742e-05
-0.000285439 -0.000105008 2.83485e-05
-1.48742e-05 2.83485e-05 -0.000315333
0.00426242 0.000737548 1.05452e-05
0.000737548 0.00127915 1.18986e-05
1.05452e-05 1.18986e-05 0.00156645
0.00593405 4.36851e-05 4.3079e-05
4.36851e-05 0.00166776 -2.35715e-05
4.3079e-05 -2.35715e-05 -6.05435e-05
0.00231886 -0.000208467 2.65047e-05
-0.000208467 0.000561435 1.47702e-05
2.65047e-05 1.47702e-05 0.000683498
-0.00116285 9.69277e-05 3.7166e-05
9.69277e-05 -0.000135342 -4.98389e-06
3.7166e-05 -4.98389e-06 -0.000441698
0.00170777 0.000493326 -4.74069e-06
0.000493326 0.000891375 3.09998e-06
-4.74069e-06 3.09998e-06 0.000971459
0.00625216 0.000481228 -4.54715e-05
0.000481228 0.00197328 4.23038e-05
-4.54715e-05 4.23038e-05 0.000403281
0.00244568 -0.000471462 -3.65193e-06
-0.000471462 0.000149364 2.11308e-05
-3.65193e-06 2.11308e-05 -0.000490896
3.86662e-05 9.00069e-06 8.22019e-06
9.00069e-06 -3.39124e-05 7.4259e-06
8.22019e-06 7.4259e-06 -0.000204917
0.000811614 -0.000133587 1.12156e-06
-0.000133587 0.000190004 -1.38577e-06
1.12156e-06 -1.38577e-06 3.52272e-05
0.00241796 -0.000203417 1.12229e-05
-0.000203417 0.00065192 3.97504e-06
1.12229e-05 3.97504e-06 0.000617466
-0.000369669 1.17884e-06 -2.71399e-06
1.17884e-06 -0.000337976 1.39772e-06
-2.71399e-06 1.39772e-06 -0.000546346
0.00051358 -0.000110251 3.60272e-06
-0.000110251 -7.4268e-05 -2.72424e-07
3.60272e-06 -2.72424e-07 -0.000284929
0.000980092 -0.000186391 -1.55209e-06
-0.000186391 -0.000125347 -1.84387e-07
-1.55209e-06 -1.84387e-07 -0.000279016
0.00147651 -0.000152145 -2.74024e-06
-0.000152145 0.000419953 -1.64007e-06
-2.74024e-06 -1.64007e-06 0.000196462
0.00119908 -0.000171289 -1.42123e-06
-0.000171289 0.000140155 -1.6143e-06
-1.42123e-06 -1.6143e-06 -5.8733e-05
0.00157416 -0.000201121 1.01834e-06
-0.000201121 0.000158141 -1.5647e-06
1.01834e-06 -1.5647e-06 1.5882e-05
0.00148558 -0.000165859 -1.44253e-07
-0.000165859 0.000335854 -2.41201e-06
-1.44253e-07 -2.41201e-06 0.000143358
0.00135568 -0.000168838 4.89674e-07
-0.000168838 0.000166344 -1.31541e-06
4.89674e-07 -1.31541e-06 -1.61071e-05
0.00150681 -0.000172711 -2.09328e-06
-0.000172711 0.000103876 -4.22035e-06
-2.09328e-06 -4.22035e-06 -3.62045e-05
0.00163247 -0.000161968 -1.67109e-06
-0.000161968 0.000182994 -2.47479e-06
-1.67109e-06 -2.47479e-06 4.9995e-05
0.00125473 -0.00015121 -2.48933e-06
-0.00015121 0.000118795 -1.84799e-08
-2.48933e-06 -1.84799e-08 -3.74395e-05
0.00137692 -0.000163225 6.63444e-07
-0.000163225 0.000135127 -1.04978e-06
6.63444e-07 -1.04978e-06 -2.26279e-05
0.00139415 -0.000146965 -2.50556e-06
-0.000146965 0.000273278 3.20829e-06
-2.50556e-06 3.20829e-06 0.0001356
0.0013666 -0.000154053 -2.95409e-07
-0.000154053 0.00024101 7.97995e-07
-2.95409e-07 7.97995e-07 8.1877e-05
0.00126906 -0.00015872 1.20171e-06
-0.00015872 0.000161796 -1.51842e-06
1.20171e-06 -1.51842e-06 -1.59133e-05
0.000954034 -0.000111699 -2.00744e-07
-0.000111699 9.19412e-05 -6.73856e-07
-2.00744e-07 -6.73856e-07 -1.9821e-05
0.000706472 -0.000102167 -2.43692e-07
-0.000102167 -3.91847e-05 -1.31635e-06
-2.43692e-07 -1.31635e-06 -0.000157955
0.000999288 -0.000120123 4.51421e-06
-0.000120123 0.000116186 -3.80806e-06
4.51421e-06 -3.80806e-06 -1.50945e-05
0.000879851 -5.5472e-05 -1.3568e-08
-5.5472e-05 7.32019e-05 1.40549e-06
-1.3568e-08 1.40549e-06 -2.06691e-05
0.000994254 -9.81657e-05 4.29844e-07
-9.81657e-05 0.000140268 5.34753e-07
4.29844e-07 5.34753e-07 3.019e-05
0.00107504 -0.000115565 2.82384e-07
-0.000115565 0.00018942 3.33404e-07
2.82384e-07 3.33404e-07 7.04382e-05
0.000762607 7.23502e-05 3.16798e-07
7.23502e-05 2.0455e-05 2.7049e-06
3.16798e-07 2.7049e-06 -3.90126e-05
0.000849124 -5.69464e-07 -2.44593e-09
-5.69464e-07 6.47735e-05 -7.64977e-08
-2.44593e-09 -7.64977e-08 -1.89865e-05
0.000917614 -5.08455e-05 -5.77001e-07
-5.08455e-05 0.000113306 -3.14372e-07
-5.77001e-07 -3.14372e-07 1.69959e-05
0.00132054 5.42451e-05 -1.32464e-05
5.42451e-05 0.000320582 3.01381e-06
-1.32464e-05 3.01381e-06 0.000308906
0.000744139 4.95539e-05 -2.64817e-08
4.95539e-05 1.68161e-06 -2.1821e-07
-2.64817e-08 -2.1821e-07 -4.43692e-05
0.000813961 1.97283e-06 3.69312e-07
1.97283e-06 4.025e-05 -1.40839e-06
3.69312e-07 -1.40839e-06 -2.96803e-05
0.000852663 3.4293e-05 -2.1499e-05
3.4293e-05 6.15074e-05 3.35254e-06
-2.1499e-05 3.35254e-06 6.94828e-05
0.00104118 4.67544e-05 -5.81036e-06
4.67544e-05 0.000159022 3.27812e-07
-5.81036e-06 3.27812e-07 0.000149311
0.000763674 5.27992e-05 4.41279e-08
5.27992e-05 7.36033e-06 -2.02264e-06
4.41279e-08 -2.02264e-06 -3.25836e-05
0.000743284 3.83324e-05 1.53072e-06
3.83324e-05 -1.19494e-05 -3.25827e-06
1.53072e-06 -3.25827e-06 -2.03066e-05
0.00208992 5.20813e-05 9.89912e-07
5.20813e-05 0.000726957 8.03134e-08
9.89912e-07 8.03134e-08 0.000742558
0.00207189 4.54156e-05 2.11991e-05
4.54156e-05 0.000710084 -3.4027e-06
2.11991e-05 -3.4027e-06 0.000727465
0.000794531 -1.50646e-05 2.98681e-08
-1.50646e-05 1.93e-05 -1.36243e-06
2.98681e-08 -1.36243e-06 -5.19981e-05
0.000830618 8.36874e-06 -5.6416e-07
8.36874e-06 3.48687e-05 -1.46969e-06
-5.6416e-07 -1.46969e-06 -2.58797e-05
0.00086507 -1.60233e-05 6.66719e-10
-1.60233e-05 5.61961e-05 -2.68087e-08
6.66719e-10 -2.68087e-08 -1.18625e-05
0.000769525 -4.12558e-05 -5.44102e-07
-4.12558e-05 -1.25864e-06 -1.93803e-06
-5.44102e-07 -1.93803e-06 -3.93525e-05
0.000850185 -2.18153e-06 6.09923e-07
-2.18153e-06 4.31788e-05 -9.37395e-08
6.09923e-07 -9.37395e-08 -1.41145e-05
0.000722232 -3.23612e-05 -1.00619e-06
-3.23612e-05 -3.01158e-05 -3.45709e-06
-1.00619e-06 -3.45709e-06 -3.87314e-05
0.000782713 -2.46133e-05 -1.79978e-07
-2.46133e-05 4.88875e-07 1.72527e-08
-1.79978e-07 1.72527e-08 -3.50095e-05
0.000860208 3.62914e-05 1.0939e-06
3.62914e-05 5.12143e-05 6.56222e-07
1.0939e-06 6.56222e-07 -7.17958e-06
0.00217859 -3.90926e-05 -1.92401e-05
-3.90926e-05 0.000760842 -3.80638e-06
-1.92401e-05 -3.80638e-06 0.000778799
0.000726535 -2.74907e-05 -2.65112e-07
-2.74907e-05 -3.39122e-05 7.23298e-09
-2.65112e-07 7.23298e-09 -4.04154e-05
0.000801442 -2.22743e-05 2.98814e-07
-2.22743e-05 8.38675e-06 1.46316e-06
2.98814e-07 1.46316e-06 -2.54489e-05
0.00212584 -3.14279e-05 -1.87206e-06
-3.14279e-05 0.000726058 7.14431e-08
-1.87206e-06 7.14431e-08 0.000745753
0.000725815 -2.22431e-05 4.13751e-07
-2.22431e-05 -4.01076e-05 3.22423e-06
4.13751e-07 3.22423e-06 -4.43347e-05
0.00207122 -2.31013e-05 1.07673e-05
-2.31013e-05 0.000691214 4.01398e-06
1.07673e-05 4.01398e-06 0.000712539
0.00180753 -2.48993e-05 3.4146e-05
-2.48993e-05 0.00028865 1.89714e-05
3.4146e-05 1.89714e-05 0.000123375
0.00105868 -6.90805e-06 1.40996e-06
-6.90805e-06 5.84007e-05 2.51307e-06
1.40996e-06 2.51307e-06 -2.9761e-05
0.000891778 1.24855e-06 1.46681e-06
1.24855e-06 0.000128817 -3.9472e-07
1.46681e-06 -3.9472e-07 5.38465e-05
0.000930394 3.43001e-05 -7.65074e-07
3.43001e-05 0.000109002 -2.27822e-07
-7.65074e-07 -2.27822e-07 2.4784e-05
0.000915206 -1.22429e-05 2.27918e-07
-1.22429e-05 8.49201e-05 3.23461e-07
2.27918e-07 3.23461e-07 1.69824e-05
0.000882731 -3.25233e-05 2.02496e-07
-3.25233e-05 6.78333e-05 5.59499e-07
2.02496e-07 5.59499e-07 -4.5939e-06
0.000890966 -3.7414e-05 1.08267e-07
-3.7414e-05 7.38599e-05 -1.78942e-07
1.08267e-07 -1.78942e-07 2.79174e-06
0.000895688 -5.67767e-06 2.16153e-07
-5.67767e-06 7.81543e-05 -4.8747e-07
2.16153e-07 -4.8747e-07 9.57095e-07
0.000915769 1.40797e-05 -5.03885e-08
1.40797e-05 9.45806e-05 6.00484e-07
-5.03885e-08 6.00484e-07 1.48688e-05
0.000932524 1.88007e-05 -2.81763e-07
1.88007e-05 0.000104956 -1.72961e-06
-2.81763e-07 -1.72961e-06 2.05454e-05
0.000731102 -1.66298e-05 1.3617e-07
-1.66298e-05 -4.02674e-06 -1.69444e-07
1.3617e-07 -1.69444e-07 -8.09416e-05
0.000848946 3.47599e-05 4.90303e-07
3.47599e-05 5.80989e-05 -2.09275e-07
4.90303e-07 -2.09275e-07 -1.58181e-05
0.000894303 -4.96075e-05 5.77808e-07
-4.96075e-05 7.01085e-05 -6.07983e-07
5.77808e-07 -6.07983e-07 -3.31846e-06
0.000921012 1.54484e-06 -8.45699e-08
1.54484e-06 9.82576e-05 1.42493e-07
-8.45699e-08 1.42493e-07 2.29268e-05
0.00144586 5.23132e-06 2.94315e-06
5.23132e-06 0.000389827 9.66567e-07
2.94315e-06 9.66567e-07 0.000313142
0.00127684 -0.000313979 4.4177e-05
-0.000313979 0.000539099 3.5924e-05
4.4177e-05 3.5924e-05 0.00070886
0.00195872 -4.42208e-05 3.18159e-06
-4.42208e-05 0.000246892 9.03156e-06
3.18159e-06 9.03156e-06 -5.56628e-05
0.0017818 2.03122e-07 -8.1551e-06
2.03122e-07 0.000103918 -1.57777e-05
-8.1551e-06 -1.57777e-05 -0.000106185
0.00356304 -0.000402798 -4.79072e-05
-0.000402798 -7.17541e-05 -3.84567e-05
-4.79072e-05 -3.84567e-05 0.00101696
0.00419546 -0.000251548 -1.34438e-05
-0.000251548 0.000476255 -3.74608e-05
-1.34438e-05 -3.74608e-05 0.000262649
0.00204699 -0.000184921 -0.000101445
-0.000184921 -0.000360274 6.88072e-05
-0.000101445 6.88072e-05 -0.00154134
0.00262822 -0.000259928 -4.11558e-05
-0.000259928 0.000234864 9.11089e-05
-4.11558e-05 9.11089e-05 -0.000187406
0.00347079 -0.000214347 -5.52621e-06
-0.000214347 0.000667324 2.54415e-05
-5.52621e-06 2.54415e-05 0.000478031
-8.26762e-05 -0.000543177 -8.66937e-06
-0.000543177 -0.00109363 2.86996e-06
-8.66937e-06 2.86996e-06 0.000104963
0.00482282 -6.86173e-05 7.36894e-06
-6.86173e-05 0.00137236 3.52194e-05
7.36894e-06 3.52194e-05 -0.000302875
0.000536807 -0.000383212 -3.29596e-06
-0.000383212 -0.00116383 5.47524e-06
-3.29596e-06 5.47524e-06 -0.00081726
0.00284491 0.000130072 -7.18817e-05
0.000130072 0.000314525 -3.65194e-05
-7.18817e-05 -3.65194e-05 0.000195715
0.0095003 -0.000495731 -1.86844e-05
-0.000495731 0.0035204 4.09276e-05
-1.86844e-05 4.09276e-05 0.00211175
5.67332e-05 -0.000466583 -1.01603e-05
-0.000466583 -0.000176338 -2.45819e-05
-1.01603e-05 -2.45819e-05 0.000117946
0.000613992 0.000116202 -7.25473e-07
0.000116202 -3.89905e-05 -1.54136e-06
-7.25473e-07 -1.54136e-06 -9.79445e-05
0.00101379 1.52872e-05 2.91909e-06
1.52872e-05 0.000157794 3.17926e-08
2.91909e-06 3.17926e-08 9.79778e-05
0.000924602 -2.66549e-05 -4.97284e-07
-2.66549e-05 9.14835e-05 -4.24563e-07
-4.97284e-07 -4.24563e-07 2.01284e-05
-0.00112863 -1.15349e-05 -1.40304e-05
-1.15349e-05 -0.00032303 -1.73832e-05
-1.40304e-05 -1.73832e-05 -0.000939406
-0.000174159 5.26687e-07 1.71795e-06
5.26687e-07 -0.000292281 -6.51789e-06
1.71795e-06 -6.51789e-06 -0.000356774
0.000689877 9.37246e-06 1.17403e-07
9.37246e-06 -2.40148e-05 2.33865e-07
1.17403e-07 2.33865e-07 -8.66139e-05
0.000743011 4.95231e-05 2.68494e-06
4.95231e-05 0.000136146 1.17628e-06
2.68494e-06 1.17628e-06 4.94707e-05
0.000539849 0.000112019 5.17703e-06
0.000112019 0.000118474 -1.86668e-05
5.17703e-06 -1.86668e-05 -0.000161145
-0.0005306 0.000110307 1.11153e-05
0.000110307 -0.000584806 6.81792e-06
1.11153e-05 6.81792e-06 -0.000717983
0.000403041 -1.8534e-05 7.63983e-05
-1.8534e-05 0.000629201 -1.01124e-06
7.63983e-05 -1.01124e-06 0.000342005
0.00133016 -4.88171e-06 -4.18659e-06
-4.88171e-06 -2.60099e-06 3.1032e-06
-4.18659e-06 3.1032e-06 -0.000157799
0.000547514 1.07697e-06 1.98892e-06
1.07697e-06 -0.000146265 -3.96048e-07
1.98892e-06 -3.96048e-07 -0.000201356
-0.000310532 -1.77544e-05 1.13225e-05
-1.77544e-05 -0.000205723 3.6328e-06
1.13225e-05 3.6328e-06 -0.000298871
0.0015137 -0.000270985 1.3619e-05
-0.000270985 -0.00047614 -3.15163e-05
1.3619e-05 -3.15163e-05 -0.000593485
0.00140975 1.02144e-05 -4.4608e-05
1.02144e-05 -4.14391e-06 8.43254e-06
-4.4608e-05 8.43254e-06 -0.000207484
0.00154045 3.55138e-05 9.76862e-06
3.55138e-05 -0.000321695 -7.40054e-06
9.76862e-06 -7.40054e-06 -0.00182124
-0.00229143 0.000440654 -3.13107e-05
0.000440654 -0.00191686 -7.67668e-07
-3.13107e-05 -7.67668e-07 -0.00152716
0.00145369 0.000369319 -5.86452e-05
0.000369319 0.00071983 3.51737e-05
-5.86452e-05 3.51737e-05 0.00109261
0.00174736 -0.000172179 -3.68049e-06
-0.000172179 0.000219093 3.69514e-06
-3.68049e-06 3.69514e-06 0.000421539
0.00120666 0.000156697 -7.8418e-07
0.000156697 0.00100745 4.1087e-06
-7.8418e-07 4.1087e-06 0.000946844
-0.00364448 0.000232399 1.33395e-05
0.000232399 -0.00127381 2.59551e-07
1.33395e-05 2.59551e-07 -0.0015238
0.00359866 -0.000485949 -6.50925e-06
-0.000485949 0.000791717 1.00443e-05
-6.50925e-06 1.00443e-05 -0.000135836
0.00688511 0.000359043 -1.00844e-05
0.000359043 0.00225641 3.32018e-07
-1.00844e-05 3.32018e-07 0.000831003
8.00407e-07 -0.000154781 -2.98956e-06
-0.000154781 -0.000578644 1.18328e-05
-2.98956e-06 1.18328e-05 -0.000512496
-0.00601543 0.000120898 -1.63951e-05
0.000120898 -0.00288319 -5.33346e-06
-1.63951e-05 -5.33346e-06 -0.00289607
0.00646819 0.000328341 -9.78673e-06
0.000328341 0.00228946 5.0498e-06
-9.78673e-06 5.0498e-06 0.00102723
0.00422126 -0.000306644 -1.07268e-05
-0.000306644 0.000433535 2.5543e-05
-1.07268e-05 2.5543e-05 -0.000357345
0.000213371 -0.000102594 -1.22466e-05
-0.000102594 -7.53618e-05 2.51237e-06
-1.22466e-05 2.51237e-06 -0.00026093
0.00121816 -0.00014695 -5.92389e-07
-0.00014695 5.88563e-05 1.48728e-07
-5.92389e-07 1.48728e-07 5.72765e-05
0.00223367 -0.000194798 6.12895e-06
-0.000194798 0.000286825 3.48453e-08
6.12895e-06 3.48453e-08 0.000325097
7.37114e-05 -8.16735e-05 -2.12956e-06
-8.16735e-05 -0.000274371 -4.29191e-06
-2.12956e-06 -4.29191e-06 -0.00048798
0.0012592 -0.000200647 -3.70487e-06
-0.000200647 1.07179e-05 -1.92969e-06
-3.70487e-06 -1.92969e-06 -0.000141865
0.00191765 -0.00023517 -2.53144e-06
-0.00023517 0.000160032 4.44778e-07
-2.53144e-06 4.44778e-07 6.56429e-05
0.00115495 -0.0001679 -5.85515e-07
-0.0001679 0.000112638 -3.55938e-06
-5.85515e-07 -3.55938e-06 -8.17204e-05
0.00147074 -0.000192989 2.16571e-06
-0.000192989 0.000110994 -2.87111e-07
2.16571e-06 -2.87111e-07 -3.25022e-05
0.00168163 -0.00017908 -1.60708e-06
-0.00017908 7.76084e-05 -3.31795e-06
-1.60708e-06 -3.31795e-06 -2.65047e-05
0.00143641 -0.000169114 -7.47009e-07
-0.000169114 0.00020213 -8.64863e-07
-7.47009e-07 -8.64863e-07 2.61211e-05
0.00147389 -0.000169392 -1.03036e-06
-0.000169392 8.57278e-05 -4.05544e-07
-1.03036e-06 -4.05544e-07 -5.34673e-05
0.00157628 -0.000149566 -9.70385e-07
-0.000149566 5.49869e-05 -1.84827e-06
-9.70385e-07 -1.84827e-06 -4.88073e-05
0.00179396 -0.000147302 -2.14092e-06
-0.000147302 0.000217501 -1.59316e-06
-2.14092e-06 -1.59316e-06 0.000111534
0.00151366 -0.000156007 -2.71438e-06
-0.000156007 0.000174681 -1.61695e-06
-2.71438e-06 -1.61695e-06 3.63489e-05
0.00154101 -0.000155287 5.71255e-07
-0.000155287 0.000136447 8.13022e-07
5.71255e-07 8.13022e-07 5.53831e-06
0.000761104 -0.000119597 -2.72543e-06
-0.000119597 -0.000112631 1.5152e-06
-2.72543e-06 1.5152e-06 -0.000253745
0.00136659 -0.000154763 1.47278e-06
-0.000154763 0.000177723 -1.0582e-06
1.47278e-06 -1.0582e-06 2.34207e-05
0.0011467 -0.000150436 2.45896e-06
-0.000150436 1.50369e-05 8.91335e-08
2.45896e-06 8.91335e-08 -0.000140716
0.00103769 -0.000121765 -6.99834e-07
-0.000121765 0.000110441 1.39808e-06
-6.99834e-07 1.39808e-06 -8.86507e-06
0.00101847 -0.000126715 7.10056e-07
-0.000126715 7.94903e-05 -3.40708e-07
7.10056e-07 -3.40708e-07 -5.67569e-05
0.000871435 -0.000128712 1.76417e-06
-0.000128712 -1.88739e-05 -2.3845e-06
1.76417e-06 -2.3845e-06 -0.000179728
0.000958309 -9.65322e-05 -1.71831e-06
-9.65322e-05 9.54563e-05 4.79557e-07
-1.71831e-06 4.79557e-07 -2.814e-06
0.00104454 -0.000116074 -1.61206e-07
-0.000116074 0.000138195 -5.07707e-07
-1.61206e-07 -5.07707e-07 2.6076e-05
0.000849828 -0.00010901 2.67201e-07
-0.00010901 3.90191e-05 -2.34655e-06
2.67201e-07 -2.34655e-06 -7.83456e-05
0.000822578 1.70245e-05 1.7889e-07
1.70245e-05 4.87507e-05 3.13057e-06
1.7889e-07 3.13057e-06 -2.05624e-05
0.000935193 -5.20729e-05 8.67766e-07
-5.20729e-05 0.000101657 4.09736e-07
8.67766e-07 4.09736e-07 7.98837e-06
0.000952987 -8.57486e-05 5.61538e-07
-8.57486e-05 0.000118862 5.13806e-07
5.61538e-07 5.13806e-07 1.07326e-05
0.000630096 5.17779e-05 -1.98924e-06
5.17779e-05 -4.58324e-05 4.07205e-06
-1.98924e-06 4.07205e-06 -6.6868e-05
0.000745315 3.06192e-05 -6.14808e-07
3.06192e-05 5.98548e-06 -3.24267e-07
-6.14808e-07 -3.24267e-07 -5.07344e-05
0.000891777 -1.67036e-05 2.07011e-08
-1.67036e-05 8.83767e-05 -1.68532e-06
2.07011e-08 -1.68532e-06 3.04694e-06
0.00218389 7.25342e-05 -9.64508e-06
7.25342e-05 0.000796279 1.29636e-06
-9.64508e-06 1.29636e-06 0.000805673
0.000697689 4.72527e-05 8.21521e-08
4.72527e-05 -1.78615e-05 -4.83794e-08
8.21521e-08 -4.83794e-08 -3.36949e-05
0.000735794 4.34422e-05 9.13971e-07
4.34422e-05 -2.93215e-06 -2.24835e-06
9.13971e-07 -2.24835e-06 -4.89771e-05
0.00212962 5.84677e-05 1.0281e-06
5.84677e-05 0.000756576 7.75349e-08
1.0281e-06 7.75349e-08 0.000770112
0.000742602 4.3754e-05 1.74081e-06
4.3754e-05 -3.44133e-06 -3.43377e-06
1.74081e-06 -3.43377e-06 -1.51028e-05
0.00210894 5.23813e-05 2.44324e-05
5.23813e-05 0.0007384 -3.26424e-06
2.44324e-05 -3.26424e-06 0.000753728
0.000937495 2.92734e-05 -4.20663e-07
2.92734e-05 0.000105656 -2.26264e-07
-4.20663e-07 -2.26264e-07 2.80801e-05
0.000831323 -7.50973e-06 9.87982e-08
-7.50973e-06 3.91495e-05 -3.16111e-07
9.87982e-08 -3.16111e-07 -3.29564e-05
0.000825421 -3.53374e-06 -4.12071e-07
-3.53374e-06 3.68884e-05 -1.67276e-06
-4.12071e-07 -1.67276e-06 -2.92239e-05
0.000757541 -5.01023e-05 -4.15201e-07
-5.01023e-05 -1.66535e-06 -2.25611e-06
-4.15201e-07 -2.25611e-06 -4.24565e-05
0.000816491 -1.55444e-05 7.08737e-07
-1.55444e-05 2.82478e-05 -7.7781e-08
7.08737e-07 -7.7781e-08 -3.27485e-05
0.000811078 -2.44287e-06 5.5901e-07
-2.44287e-06 3.03911e-05 8.98168e-07
5.5901e-07 8.98168e-07 -3.99749e-05
0.000720232 -3.64545e-05 -1.59867e-06
-3.64545e-05 -2.47366e-05 -3.57503e-06
-1.59867e-06 -3.57503e-06 -3.52613e-05
0.000774158 -3.33114e-05 -1.96613e-07
-3.33114e-05 3.93275e-07 1.6882e-08
-1.96613e-07 1.6882e-08 -3.70697e-05
0.000828279 -1.20073e-05 1.16824e-06
-1.20073e-05 3.18458e-05 9.50043e-07
1.16824e-06 9.50043e-07 -2.5532e-05
0.00221117 -4.60804e-05 -2.28254e-05
-4.60804e-05 0.000784835 -3.66558e-06
-2.28254e-05 -3.66558e-06 0.000801174
0.000712747 -3.17364e-05 -1.78329e-07
-3.17364e-05 -3.50605e-05 1.31348e-08
-1.78329e-07 1.31348e-08 -4.36315e-05
0.000792084 -2.3268e-05 8.42268e-07
-2.3268e-05 5.75811e-06 1.60411e-06
8.42268e-07 1.60411e-06 -2.97098e-05
0.00217043 -3.88908e-05 -1.97201e-06
-3.88908e-05 0.000755809 9.03789e-08
-1.97201e-06 9.03789e-08 0.000773913
0.000714661 -2.70275e-05 4.81068e-07
-2.70275e-05 -4.01751e-05 3.33822e-06
4.81068e-07 3.33822e-06 -4.66178e-05
0.00211392 -3.094e-05 1.41114e-05
-3.094e-05 0.000718955 3.93986e-06
1.41114e-05 3.93986e-06 0.000738863
-0.00167047 -0.000135559 4.1857e-05
-0.000135559 -0.000510602 1.41875e-05
4.1857e-05 1.41875e-05 -0.000882814
0.00174876 -3.22289e-05 2.3598e-06
-3.22289e-05 0.000239771 5.67563e-06
2.3598e-06 5.67563e-06 7.6049e-05
0.00104269 -4.81859e-06 -1.37229e-06
-4.81859e-06 2.92076e-05 -2.87508e-06
-1.37229e-06 -2.87508e-06 -5.53612e-05
0.000908013 9.89195e-06 -8.02779e-07
9.89195e-06 9.43172e-05 7.08998e-07
-8.02779e-07 7.08998e-07 1.17947e-05
0.00104613 9.85975e-05 4.58532e-08
9.85975e-05 0.000181972 1.05173e-06
4.58532e-08 1.05173e-06 8.53323e-05
0.000912784 3.15702e-05 -4.2367e-07
3.15702e-05 0.000103393 1.86657e-07
-4.2367e-07 1.86657e-07 1.45887e-05
0.000997137 -4.17051e-05 4.19246e-07
-4.17051e-05 0.000130316 -3.1899e-07
4.19246e-07 -3.1899e-07 5.95952e-05
0.00092919 1.63022e-05 6.27557e-07
1.63022e-05 9.36795e-05 6.7775e-07
6.27557e-07 6.7775e-07 1.81536e-05
0.000770456 -2.57678e-05 -7.23131e-07
-2.57678e-05 1.28086e-05 1.58281e-06
-7.23131e-07 1.58281e-06 -6.39421e-05
0.00078673 3.38315e-06 -5.58013e-07
3.38315e-06 2.95337e-05 1.89708e-08
-5.58013e-07 1.89708e-08 -5.10444e-05
0.000834234 7.17721e-06 1.77713e-07
7.17721e-06 5.19013e-05 -6.83801e-08
1.77713e-07 -6.83801e-08 -3.15592e-05
0.00101442 4.92234e-05 1.0754e-06
4.92234e-05 0.000170873 -1.60686e-06
1.0754e-06 -1.60686e-06 7.45555e-05
0.000803277 4.88453e-05 3.05683e-06
4.88453e-05 2.94451e-05 -2.55109e-06
3.05683e-06 -2.55109e-06 -4.96124e-05
0.000891471 2.67038e-05 -8.19984e-08
2.67038e-05 8.46859e-05 -7.1228e-07
-8.19984e-08 -7.1228e-07 7.91247e-06
0.00106408 2.89099e-05 6.59328e-07
2.89099e-05 0.000188075 5.84129e-07
6.59328e-07 5.84129e-07 0.000111612
-0.00155694 -0.000306564 -4.36745e-06
-0.000306564 -0.000763744 2.08575e-05
-4.36745e-06 2.08575e-05 -0.000818953
-0.000204287 -0.000310633 1.69209e-05
-0.000310633 -0.000140724 6.09275e-06
1.69209e-05 6.09275e-06 -9.84879e-05
0.00201615 -4.85915e-05 -3.7512e-05
-4.85915e-05 0.000272598 -2.89995e-05
-3.7512e-05 -2.89995e-05 -3.68742e-05
-0.0027352 -0.000555223 7.80526e-06
-0.000555223 -0.00241813 2.94448e-05
7.80526e-06 2.94448e-05 -0.00111284
0.00484685 -0.000595502 -1.94879e-05
-0.000595502 0.00134578 -3.06407e-05
-1.94879e-05 -3.06407e-05 0.00145084
0.00353498 0.000150338 4.22012e-05
0.000150338 0.000768941 5.45658e-06
4.22012e-05 5.45658e-06 -0.000916743
0.00275846 -0.00021105 -0.000107734
-0.00021105 0.000339665 8.16424e-05
-0.000107734 8.16424e-05 -0.00022309
0.00319143 0.00011086 -3.11551e-05
0.00011086 0.000387661 -2.50472e-06
-3.11551e-05 -2.50472e-06 0.000141542
0.00341465 -0.000629534 -1.22995e-05
-0.000629534 0.00128566 1.53146e-05
-1.22995e-05 1.53146e-05 0.00140951
0.00179501 7.83494e-07 1.24814e-05
7.83494e-07 -1.64536e-05 2.63507e-05
1.24814e-05 2.63507e-05 -0.00154892
0.00187343 0.000288559 -0.000104286
0.000288559 0.000156069 -8.60123e-05
-0.000104286 -8.60123e-05 -0.000508647
0.00232419 0.000251277 -0.000125663
0.000251277 0.000385719 -4.39045e-05
-0.000125663 -4.39045e-05 -0.00115494
0.00230109 0.000278741 1.19853e-05
0.000278741 0.000666673 -9.67754e-06
1.19853e-05 -9.67754e-06 0.000538067
0.00082631 0.000113239 -1.5736e-06
0.000113239 6.43035e-05 -5.2342e-09
-1.5736e-06 -5.2342e-09 7.44986e-06
0.00119282 1.73168e-05 -8.14583e-07
1.73168e-05 0.0002474 -1.99609e-06
-8.14583e-07 -1.99609e-06 0.000188578
0.000495908 0.000101725 -3.01757e-05
0.000101725 4.7849e-05 -1.53963e-05
-3.01757e-05 -1.53963e-05 -0.000149989
0.0015424 9.62578e-05 -3.74211e-06
9.62578e-05 0.000516352 -5.09731e-06
-3.74211e-06 -5.09731e-06 0.000425875
0.00114332 0.000200156 1.33582e-05
0.000200156 0.000184434 -2.2475e-07
1.33582e-05 -2.2475e-07 6.77671e-05
0.00124389 0.00026124 4.57542e-05
0.00026124 -0.000146298 2.72905e-05
4.57542e-05 2.72905e-05 -0.000192306
-0.00381823 -3.19211e-05 -3.72802e-05
-3.19211e-05 -0.00183577 -1.00026e-05
-3.72802e-05 -1.00026e-05 -0.00155409
-0.000340945 -1.30332e-05 1.49779e-05
-1.30332e-05 0.000365812 9.30194e-07
1.49779e-05 9.30194e-07 4.7818e-05
0.00136167 -1.06028e-05 -3.14989e-05
-1.06028e-05 8.30693e-05 1.77406e-06
-3.14989e-05 1.77406e-06 -3.29301e-05
0.00118438 -0.000170979 -3.59873e-05
-0.000170979 -6.54381e-05 -1.47304e-05
-3.59873e-05 -1.47304e-05 0.000131602
0.00395103 -0.000543483 -5.95038e-05
-0.000543483 0.000794662 -6.89303e-06
-5.95038e-05 -6.89303e-06 9.30435e-05
0.00106916 0.000124837 -4.53739e-05
0.000124837 0.00101823 1.44711e-05
-4.53739e-05 1.44711e-05 0.000915988
-3.29496e-05 0.000144291 3.10358e-05
0.000144291 -0.000544517 -4.47568e-05
3.10358e-05 -4.47568e-05 -0.00225724
0.00859172 0.000504284 -8.82243e-05
0.000504284 0.00426221 1.11955e-05
-8.82243e-05 1.11955e-05 0.00424679
0.00130811 -0.000250721 8.69978e-06
-0.000250721 5.19346e-06 1.0541e-06
8.69978e-06 1.0541e-06 -5.652e-06
-0.000594723 0.00023059 -6.22748e-06
0.00023059 -7.65924e-05 -3.12968e-06
-6.22748e-06 -3.12968e-06 -0.000158379
0.00241697 0.000206097 -1.3337e-05
0.000206097 0.000292821 1.58509e-05
-1.3337e-05 1.58509e-05 -0.00118907
0.00440984 -0.000289995 -3.89366e-06
-0.000289995 0.000994609 6.29256e-06
-3.89366e-06 6.29256e-06 0.000291926
7.82658e-05 -0.000124215 -2.73885e-06
-0.000124215 -0.000432401 -4.44993e-06
-2.73885e-06 -4.44993e-06 -0.000584723
0.00768158 -6.32243e-06 4.26131e-05
-6.32243e-06 0.00264514 1.63608e-06
4.26131e-05 1.63608e-06 0.00171445
0.00249231 4.65301e-06 3.28227e-06
4.65301e-06 -2.85555e-07 -7.50271e-06
3.28227e-06 -7.50271e-06 -0.000390041
6.09488e-06 -9.48864e-05 -9.89494e-06
-9.48864e-05 -0.000538915 -3.82258e-07
-9.89494e-06 -3.82258e-07 -0.000511146
0.00126844 -0.000168715 -6.34426e-07
-0.000168715 -0.00019153 -4.93128e-07
-6.34426e-07 -4.93128e-07 -0.000156918
0.00187552 -0.000214732 2.54394e-06
-0.000214732 -3.33901e-05 -6.81708e-06
2.54394e-06 -6.81708e-06 -1.22385e-05
0.00148611 -0.000211325 -3.85103e-06
-0.000211325 0.000118971 -4.50184e-06
-3.85103e-06 -4.50184e-06 -3.04377e-05
0.00165679 -0.000221191 -7.27865e-07
-0.000221191 2.76886e-05 1.99014e-06
-7.27865e-07 1.99014e-06 -6.28352e-05
0.00190018 -0.000193252 -5.38254e-06
-0.000193252 7.08944e-05 1.33453e-06
-5.38254e-06 1.33453e-06 1.18144e-05
0.00136682 -0.000185172 2.08659e-06
-0.000185172 6.32921e-05 1.40719e-06
2.08659e-06 1.40719e-06 -8.16289e-05
0.00170546 -0.000179147 -1.83206e-06
-0.000179147 8.61742e-05 -3.9097e-09
-1.83206e-06 -3.9097e-09 -1.84973e-05
0.00181582 -0.000149707 -1.5019e-06
-0.000149707 7.51032e-05 -6.68479e-07
-1.5019e-06 -6.68479e-07 -5.06138e-06
0.00144787 -0.000166489 1.91656e-06
-0.000166489 7.12087e-05 1.8683e-06
1.91656e-06 1.8683e-06 -6.71211e-05
0.00159114 -0.000148877 7.13736e-07
-0.000148877 6.3527e-05 1.00904e-06
7.13736e-07 1.00904e-06 -4.04835e-05
0.00154996 -0.000127385 -1.21141e-06
-0.000127385 8.76166e-06 7.29405e-07
-1.21141e-06 7.29405e-07 -7.91906e-05
0.00191325 -0.000133103 -7.08952e-07
-0.000133103 0.000256223 -4.53799e-07
-7.08952e-07 -4.53799e-07 0.000160138
0.00165564 -0.000140155 -1.98658e-06
-0.000140155 0.000146697 2.19729e-06
-1.98658e-06 2.19729e-06 4.28818e-05
0.00157818 -0.000140242 -3.2501e-07
-0.000140242 0.000157224 -3.4205e-06
-3.2501e-07 -3.4205e-06 4.26695e-05
0.00144921 -0.00014724 -3.10661e-06
-0.00014724 0.000174299 -3.9528e-07
-3.10661e-06 -3.9528e-07 4.03688e-05
0.00158627 -0.000157706 1.15307e-06
-0.000157706 0.000214001 -2.61403e-07
1.15307e-06 -2.61403e-07 7.5573e-05
0.00142474 -0.000147867 2.73534e-06
-0.000147867 7.64758e-05 3.50851e-06
2.73534e-06 3.50851e-06 -5.22157e-05
0.000801067 -0.000114742 -3.09285e-06
-0.000114742 -6.53132e-05 2.70004e-06
-3.09285e-06 2.70004e-06 -0.00019323
0.00109837 -0.000134314 3.21459e-07
-0.000134314 6.70639e-05 -1.20119e-07
3.21459e-07 -1.20119e-07 -7.31184e-05
0.00149311 -0.000159079 4.6232e-06
-0.000159079 0.000244442 -2.11143e-06
4.6232e-06 -2.11143e-06 9.20045e-05
0.00094908 -0.00010366 -1.57941e-06
-0.00010366 7.29672e-05 7.73632e-07
-1.57941e-06 7.73632e-07 -3.07347e-05
0.00109043 -0.000123619 1.61287e-07
-0.000123619 0.000136496 -2.32478e-07
1.61287e-07 -2.32478e-07 1.70229e-05
0.000673406 -0.000108098 1.27549e-06
-0.000108098 -9.86018e-05 -3.66845e-06
1.27549e-06 -3.66845e-06 -0.000233525
0.000795351 -3.07071e-05 -2.45707e-06
-3.07071e-05 2.61773e-05 2.66098e-06
-2.45707e-06 2.66098e-06 -5.06853e-05
0.00101973 -0.000100539 3.34443e-08
-0.000100539 0.000126793 -6.09992e-08
3.34443e-08 -6.09992e-08 2.82767e-05
0.00112925 -0.000120127 9.91899e-07
-0.000120127 0.000181405 -8.70355e-07
9.91899e-07 -8.70355e-07 6.89602e-05
0.000574708 6.29739e-05 -5.16059e-07
6.29739e-05 -6.81925e-05 5.04482e-06
-5.16059e-07 5.04482e-06 -9.78462e-05
0.000783187 -3.89873e-07 -2.68096e-08
-3.89873e-07 2.75914e-05 5.76398e-08
-2.68096e-08 5.76398e-08 -4.27204e-05
0.000999051 -5.78366e-05 1.45987e-06
-5.78366e-05 0.000135653 -5.72774e-07
1.45987e-06 -5.72774e-07 4.12243e-05
0.00237271 7.42835e-05 -3.35828e-05
7.42835e-05 0.000903279 2.83638e-06
-3.35828e-05 2.83638e-06 0.000911377
0.000663728 5.61183e-05 -1.50336e-07
5.61183e-05 -2.65519e-05 -1.59372e-07
-1.50336e-07 -1.59372e-07 -4.86511e-05
0.000724699 2.04531e-06 2.15472e-06
2.04531e-06 -7.0681e-06 -2.83665e-06
2.15472e-06 -2.83665e-06 -6.31764e-05
0.0015823 5.67185e-05 1.31444e-05
5.67185e-05 0.000467847 -6.5117e-07
1.31444e-05 -6.5117e-07 0.000475015
0.000730523 5.00581e-05 1.55697e-06
5.00581e-05 -1.96468e-07 -3.84352e-06
1.55697e-06 -3.84352e-06 -1.64393e-05
0.00218308 5.92964e-05 2.84487e-05
5.92964e-05 0.000786993 -3.11399e-06
2.84487e-05 -3.11399e-06 0.000799971
0.000920213 4.56889e-05 2.31339e-07
4.56889e-05 9.90538e-05 6.44022e-07
2.31339e-07 6.44022e-07 1.33893e-05
0.000911828 -7.31595e-07 -2.28579e-07
-7.31595e-07 8.87166e-05 5.20481e-07
-2.28579e-07 5.20481e-07 1.31746e-05
0.000845552 -2.93816e-05 -5.23364e-08
-2.93816e-05 5.353e-05 -1.36672e-06
-5.23364e-08 -1.36672e-06 -1.71457e-05
0.000888315 4.05256e-06 2.60341e-07
4.05256e-06 7.01805e-05 7.27545e-07
2.60341e-07 7.27545e-07 -3.11077e-06
0.000824751 -3.23154e-05 3.27235e-07
-3.23154e-05 3.35641e-05 -7.90801e-08
3.27235e-07 -7.90801e-08 -3.05637e-05
0.000727322 -4.90421e-05 -6.88802e-07
-4.90421e-05 -1.15366e-05 -2.39676e-06
-6.88802e-07 -2.39676e-06 -5.55119e-05
0.000718936 -4.08357e-05 -2.10328e-06
-4.08357e-05 -1.89241e-05 -3.6501e-06
-2.10328e-06 -3.6501e-06 -3.12425e-05
0.000757545 -4.41429e-05 -7.42399e-08
-4.41429e-05 -2.71423e-06 -1.19596e-08
-7.42399e-08 -1.19596e-08 -4.27535e-05
0.000821797 -5.44891e-05 -1.78774e-07
-5.44891e-05 2.8852e-05 1.41706e-06
-1.78774e-07 1.41706e-06 -3.01678e-05
0.00222601 -5.26375e-05 -2.62478e-05
-5.26375e-05 0.000799853 -3.46674e-06
-2.62478e-05 -3.46674e-06 0.000814585
0.000702801 -3.56488e-05 -2.26332e-07
-3.56488e-05 -3.39616e-05 2.65773e-08
-2.26332e-07 2.65773e-08 -4.44068e-05
0.000777723 -2.46459e-05 1.53433e-06
-2.46459e-05 1.53692e-06 1.83636e-06
1.53433e-06 1.83636e-06 -3.53256e-05
0.00220779 -4.59746e-05 -1.59559e-06
-4.59746e-05 0.000782308 1.00781e-07
-1.59559e-06 1.00781e-07 0.00079876
0.000703236 -3.11725e-05 8.92218e-07
-3.11725e-05 -3.99542e-05 3.48858e-06
8.92218e-07 3.48858e-06 -4.84971e-05
0.00215632 -3.85901e-05 1.73129e-05
-3.85901e-05 0.000747522 3.8349e-06
1.73129e-05 3.8349e-06 0.000765808
0.0013053 0.000114799 8.64477e-05
0.000114799 0.000899923 3.02597e-05
8.64477e-05 3.02597e-05 0.000526409
-0.000171047 -0.000157852 3.34049e-06
-0.000157852 0.000216747 4.69689e-06
3.34049e-06 4.69689e-06 -5.99259e-05
0.00167707 -3.74822e-05 -3.29741e-05
-3.74822e-05 0.000187795 -8.37658e-06
-3.29741e-05 -8.37658e-06 2.55833e-05
0.000905657 -1.0884e-05 1.66307e-07
-1.0884e-05 9.12296e-05 8.81445e-07
1.66307e-07 8.81445e-07 9.88069e-06
0.000888892 7.85438e-06 -3.7562e-08
7.85438e-06 8.8199e-05 6.29785e-07
-3.7562e-08 6.29785e-07 1.01353e-09
0.000927422 8.97568e-05 -3.59004e-08
8.97568e-05 0.000122086 1.99042e-07
-3.59004e-08 1.99042e-07 2.64146e-05
0.00109517 0.000117308 8.28583e-07
0.000117308 0.000202517 7.04751e-07
8.28583e-07 7.04751e-07 9.72876e-05
0.000934795 7.54375e-05 -9.80968e-07
7.54375e-05 0.000131192 1.27769e-08
-9.80968e-07 1.27769e-08 3.05071e-05
0.000835784 2.01397e-05 4.36968e-07
2.01397e-05 5.57676e-05 1.08534e-06
4.36968e-07 1.08534e-06 -2.57265e-05
0.000794215 6.88821e-06 1.74635e-07
6.88821e-06 3.01086e-05 1.18316e-06
1.74635e-07 1.18316e-06 -5.31617e-05
0.000757349 4.98453e-05 -8.2047e-07
4.98453e-05 3.32578e-05 -8.59875e-07
-8.2047e-07 -8.59875e-07 -6.07822e-05
0.000233025 6.80623e-05 -2.68668e-07
6.80623e-05 -0.000232384 8.54676e-07
-2.68668e-07 8.54676e-07 -0.000338817
0.000840205 9.66383e-05 8.04997e-07
9.66383e-05 4.63275e-05 -2.53675e-06
8.04997e-07 -2.53675e-06 -4.98685e-05
0.00194376 0.000208788 4.15932e-06
0.000208788 0.000468131 -6.48735e-06
4.15932e-06 -6.48735e-06 0.000349708
0.000827083 5.3538e-05 -1.43433e-06
5.3538e-05 5.95858e-05 -3.53247e-07
-1.43433e-06 -3.53247e-07 -2.09164e-05
0.000791371 1.51478e-06 -4.07368e-07
1.51478e-06 3.70638e-05 -5.89059e-07
-4.07368e-07 -5.89059e-07 -3.55192e-05
0.00900148 -7.73462e-05 -3.81188e-05
-7.73462e-05 0.00282478 -1.14631e-05
-3.81188e-05 -1.14631e-05 0.00168312
-0.00227223 -0.000279552 -3.3127e-05
-0.000279552 -0.000850162 -2.78541e-06
-3.3127e-05 -2.78541e-06 -0.00117306
0.00116584 -0.000322443 -3.37837e-05
-0.000322443 0.000585957 -2.42613e-05
-3.37837e-05 -2.42613e-05 0.000589692
-0.00261911 -0.000366767 -1.31907e-05
-0.000366767 -0.00154025 5.25018e-06
-1.31907e-05 5.25018e-06 -0.0013299
0.00959748 -0.000415442 6.76693e-05
-0.000415442 0.00363268 1.32524e-05
6.76693e-05 1.32524e-05 0.00174541
0.00306842 9.41802e-05 5.31694e-06
9.41802e-05 0.000410941 1.98137e-05
5.31694e-06 1.98137e-05 0.000361574
0.00162246 0.000288279 -3.81819e-05
0.000288279 -9.90262e-05 -2.1697e-05
-3.81819e-05 -2.1697e-05 -0.000630361
0.00692994 -0.000312866 4.69345e-05
-0.000312866 0.00210255 1.8091e-05
4.69345e-05 1.8091e-05 0.000868787
0.00269951 0.000279997 3.25314e-06
0.000279997 5.29143e-05 -3.76715e-05
3.25314e-06 -3.76715e-05 -0.000430638
0.00215446 0.000322686 1.16146e-05
0.000322686 0.000375354 1.16146e-05
1.16146e-05 1.16146e-05 0.000224166
0.000867249 0.00018555 1.14325e-06
0.00018555 1.29914e-05 -5.21355e-06
1.14325e-06 -5.21355e-06 -0.000127087
0.000936255 0.000101613 -4.98414e-06
0.000101613 0.000117284 3.21843e-06
-4.98414e-06 3.21843e-06 6.42238e-05
0.00182507 0.000246004 -3.52351e-05
0.000246004 0.000483231 -1.69041e-05
-3.52351e-05 -1.69041e-05 0.000377461
0.000650795 0.000247603 -1.66654e-05
0.000247603 -0.00040937 1.41678e-05
-1.66654e-05 1.41678e-05 -0.000470548
0.000653725 -9.67523e-05 2.82065e-06
-9.67523e-05 -0.00108285 -3.50254e-06
2.82065e-06 -3.50254e-06 -0.00153951
0.00184822 -1.24038e-05 -4.58444e-06
-1.24038e-05 0.00103086 -1.10023e-06
-4.58444e-06 -1.10023e-06 0.00101046
-0.00112452 -8.94004e-06 -1.60833e-05
-8.94004e-06 0.000101928 2.67703e-07
-1.60833e-05 2.67703e-07 -0.000267257
0.00241621 -0.000320739 -4.32785e-05
-0.000320739 0.000492314 4.6093e-06
-4.32785e-05 4.6093e-06 0.000436215
0.00417915 -0.000309328 -8.04651e-06
-0.000309328 0.000820229 -1.83321e-05
-8.04651e-06 -1.83321e-05 -0.000148446
1.99557e-05 -5.76525e-05 -4.37836e-05
-5.76525e-05 0.000319341 1.95418e-05
-4.37836e-05 1.95418e-05 5.30755e-05
0.00816715 0.000418531 -3.25676e-05
0.000418531 0.00320363 2.27267e-05
-3.25676e-05 2.27267e-05 0.00182416
0.000501626 -0.00016483 1.18491e-06
-0.00016483 -0.000272585 -1.63692e-07
1.18491e-06 -1.63692e-07 -0.000386203
0.00542454 0.000169749 1.89421e-05
0.000169749 0.00146404 1.32211e-05
1.89421e-05 1.32211e-05 0.000644137
0.00372544 -3.34786e-05 4.09678e-05
-3.34786e-05 0.000397231 -1.85811e-06
4.09678e-05 -1.85811e-06 -0.000201128
0.00324273 -0.00017789 -5.98929e-06
-0.00017789 0.00111882 5.05936e-07
-5.98929e-06 5.05936e-07 0.000946194
0.00222132 -1.16382e-05 -6.90084e-05
-1.16382e-05 0.000330934 -4.62739e-06
-6.90084e-05 -4.62739e-06 2.68729e-05
0.000519688 -0.000147432 -3.61629e-06
-0.000147432 -0.000578244 -1.6521e-07
-3.61629e-06 -1.6521e-07 -0.000536593
0.00170138 -0.000215613 -7.43901e-07
-0.000215613 -9.55534e-05 9.08126e-07
-7.43901e-07 9.08126e-07 -9.76773e-05
0.00186926 -0.000139831 -3.33104e-06
-0.000139831 -4.42867e-05 -2.81902e-06
-3.33104e-06 -2.81902e-06 -6.8062e-05
0.00141463 -0.000207831 7.112e-06
-0.000207831 -9.17528e-05 1.35477e-06
7.112e-06 1.35477e-06 -0.000180072
0.00178369 -0.000181489 1.41967e-08
-0.000181489 3.57397e-05 -2.75008e-07
1.41967e-08 -2.75008e-07 -2.45161e-05
0.00180292 -0.000113353 -2.34909e-06
-0.000113353 -3.34857e-06 1.03024e-06
-2.34909e-06 1.03024e-06 -5.7994e-05
0.00174335 -0.000179521 -5.53081e-07
-0.000179521 0.000101334 2.7117e-06
-5.53081e-07 2.7117e-06 -3.87444e-06
0.00178685 -0.000147911 4.22723e-08
-0.000147911 6.14044e-05 1.36801e-06
4.22723e-08 1.36801e-06 -1.9119e-05
0.00178404 -0.000113573 9.78395e-07
-0.000113573 7.63514e-05 8.52401e-07
9.78395e-07 8.52401e-07 -3.34557e-06
0.00160618 -0.000148436 3.57196e-06
-0.000148436 7.21968e-05 3.64013e-06
3.57196e-06 3.64013e-06 -3.20753e-05
0.0016946 -0.000132573 -4.08431e-07
-0.000132573 8.84764e-05 6.39334e-07
-4.08431e-07 6.39334e-07 -1.44851e-06
0.00173372 -0.000115444 2.04545e-07
-0.000115444 0.000114082 1.53301e-06
2.04545e-07 1.53301e-06 2.16717e-05
0.00164852 -0.000125933 -2.18667e-06
-0.000125933 0.000122418 9.76213e-08
-2.18667e-06 9.76213e-08 2.94397e-05
0.00173791 -0.000127147 2.25774e-06
-0.000127147 0.00019749 -1.60095e-06
2.25774e-06 -1.60095e-06 9.24e-05
0.00155582 -0.000134419 1.70985e-06
-0.000134419 9.65123e-05 3.78009e-06
1.70985e-06 3.78009e-06 -5.35384e-06
0.00155787 -0.000138541 3.65468e-07
-0.000138541 0.000145166 -6.20971e-07
3.65468e-07 -6.20971e-07 3.0551e-05
0.00151909 -0.000135174 -1.05174e-06
-0.000135174 0.000158178 -1.38858e-06
-1.05174e-06 -1.38858e-06 3.81134e-05
0.000983999 -0.000121383 -3.81721e-06
-0.000121383 -3.56057e-05 1.24401e-06
-3.81721e-06 1.24401e-06 -0.000162698
0.00143287 -0.000145338 1.82303e-07
-0.000145338 0.000166486 -3.70699e-07
1.82303e-07 -3.70699e-07 3.20942e-05
0.00166054 -0.000159513 3.76968e-06
-0.000159513 0.00025428 9.77597e-07
3.76968e-06 9.77597e-07 0.00011573
0.00102568 -0.000113798 -2.49581e-06
-0.000113798 8.27457e-05 1.59814e-06
-2.49581e-06 1.59814e-06 -2.83738e-05
0.000905775 -0.000118884 -8.25321e-07
-0.000118884 -7.30062e-06 9.24639e-07
-8.25321e-07 9.24639e-07 -0.000134243
0.00140092 -0.000147176 3.44171e-06
-0.000147176 0.000228861 -1.97665e-06
3.44171e-06 -1.97665e-06 8.9735e-05
0.00074314 -4.92549e-05 -2.83459e-06
-4.92549e-05 -1.36428e-05 1.95962e-06
-2.83459e-06 1.95962e-06 -9.37587e-05
0.00104116 -0.00010913 9.63749e-08
-0.00010913 0.000120092 -2.58496e-07
9.63749e-08 -2.58496e-07 1.57783e-05
0.00115196 -0.000126025 1.51652e-06
-0.000126025 0.000167301 -1.93423e-06
1.51652e-06 -1.93423e-06 4.75893e-05
0.00057091 5.02981e-05 -1.07868e-06
5.02981e-05 -7.25668e-05 5.69155e-06
-1.07868e-06 5.69155e-06 -0.000107982
0.000826118 -3.47528e-05 1.24012e-07
-3.47528e-05 4.14182e-05 2.80383e-07
1.24012e-07 2.80383e-07 -3.54318e-05
0.00107312 -9.58353e-05 1.76507e-06
-9.58353e-05 0.000153046 -5.64967e-07
1.76507e-06 -5.64967e-07 5.52138e-05
0.00263278 8.49933e-05 -3.87084e-05
8.49933e-05 0.00104757 2.79786e-06
-3.87084e-05 2.79786e-06 0.00105238
0.000626837 5.87274e-05 4.92579e-07
5.87274e-05 -4.08589e-05 -1.48819e-07
4.92579e-07 -1.48819e-07 -7.02364e-05
0.000764141 -2.92317e-05 2.31091e-06
-2.92317e-05 1.39153e-05 -2.66861e-06
2.31091e-06 -2.66861e-06 -5.5109e-05
0.00244988 7.50468e-05 7.74133e-07
7.50468e-05 0.000944523 1.09622e-07
7.74133e-07 1.09622e-07 0.000952256
0.000701777 5.94078e-05 -3.89076e-08
5.94078e-05 -5.08268e-06 -4.6676e-06
-3.89076e-08 -4.6676e-06 -2.81251e-05
0.00231855 6.67246e-05 3.36097e-05
6.67246e-05 0.000867794 -2.98497e-06
3.36097e-05 -2.98497e-06 0.000878162
0.00101832 0.000106032 3.68372e-07
0.000106032 0.000149906 1.88779e-07
3.68372e-07 1.88779e-07 5.00983e-05
0.000867545 7.08348e-05 3.24495e-07
7.08348e-05 7.45282e-05 1.08018e-07
3.24495e-07 1.08018e-07 -1.32071e-05
0.000786928 -2.10159e-05 -6.09799e-07
-2.10159e-05 2.62537e-05 -7.24054e-07
-6.09799e-07 -7.24054e-07 -5.39477e-05
0.000873905 -2.18424e-05 -2.09828e-07
-2.18424e-05 6.75529e-05 1.00487e-06
-2.09828e-07 1.00487e-06 -7.78907e-06
0.000818397 -4.20165e-05 1.33335e-07
-4.20165e-05 3.85778e-05 6.3152e-08
1.33335e-07 6.3152e-08 -3.2353e-05
0.000710858 -4.74852e-05 -7.56155e-07
-4.74852e-05 -1.49115e-05 -2.42396e-06
-7.56155e-07 -2.42396e-06 -6.55154e-05
0.000808024 -5.26544e-05 -8.62468e-08
-5.26544e-05 2.40333e-05 1.63682e-06
-8.62468e-08 1.63682e-06 -3.9647e-05
0.00074179 -5.11319e-05 1.67818e-08
-5.11319e-05 -4.39821e-06 -1.28328e-07
1.67818e-08 -1.28328e-07 -4.83702e-05
0.000713548 -4.79158e-05 -1.92811e-06
-4.79158e-05 -1.28971e-05 -3.81898e-06
-1.92811e-06 -3.81898e-06 -2.8074e-05
0.00222642 -5.89743e-05 -2.90637e-05
-5.89743e-05 0.000807768 -3.20164e-06
-2.90637e-05 -3.20164e-06 0.000820829
0.000701337 -3.97812e-05 -6.94534e-08
-3.97812e-05 -2.81193e-05 2.85697e-08
-6.94534e-08 2.85697e-08 -4.03394e-05
0.000756314 -4.084e-05 1.52056e-06
-4.084e-05 -3.806e-06 2.00761e-06
1.52056e-06 2.00761e-06 -4.34837e-05
0.00222862 -5.258e-05 -1.41326e-06
-5.258e-05 0.000800408 1.06788e-07
-1.41326e-06 1.06788e-07 0.00081523
0.000689561 -3.48969e-05 1.28413e-06
-3.48969e-05 -4.0947e-05 3.63167e-06
1.28413e-06 3.63167e-06 -5.13234e-05
0.00220034 -4.57444e-05 2.11478e-05
-4.57444e-05 0.000777627 3.70698e-06
2.11478e-05 3.70698e-06 0.000794215
0.00746656 8.92309e-05 6.47038e-05
8.92309e-05 0.00224171 1.83191e-05
6.47038e-05 1.83191e-05 0.00137777
-0.00229915 -0.000110626 -9.65816e-06
-0.000110626 -0.00115271 -5.76273e-07
-9.65816e-06 -5.76273e-07 -0.00108866
-0.00132147 -0.000106534 -4.34436e-05
-0.000106534 -0.000308268 -5.54709e-06
-4.34436e-05 -5.54709e-06 -0.000712337
0.000842937 -1.47683e-05 2.91157e-07
-1.47683e-05 6.20931e-05 1.07071e-06
2.91157e-07 1.07071e-06 -2.57622e-05
0.000807009 8.90488e-05 -3.7996e-07
8.90488e-05 6.06298e-05 -9.59899e-08
-3.7996e-07 -9.59899e-08 -3.36549e-05
0.00100634 7.9564e-05 4.33827e-07
7.9564e-05 0.000169622 -9.07831e-08
4.33827e-07 -9.07831e-08 6.90269e-05
0.00100314 0.000112151 -9.29496e-07
0.000112151 0.000154492 5.06723e-09
-9.29496e-07 5.06723e-09 5.00353e-05
0.00111336 0.00012193 6.78625e-06
0.00012193 0.000203466 9.03668e-07
6.78625e-06 9.03668e-07 8.72142e-05
0.000664905 9.2994e-05 -7.82793e-07
9.2994e-05 -8.73129e-06 7.188e-07
-7.82793e-07 7.188e-07 -0.000114805
0.000490245 4.80152e-05 -5.13778e-07
4.80152e-05 -0.000107119 3.33482e-08
-5.13778e-07 3.33482e-08 -0.000200683
0.000600786 9.00659e-05 4.89631e-07
9.00659e-05 -4.50998e-05 3.87443e-07
4.89631e-07 3.87443e-07 -0.000156736
0.000771464 8.0651e-05 4.8664e-08
8.0651e-05 1.78088e-05 -1.61796e-07
4.8664e-08 -1.61796e-07 -8.04733e-05
0.000156124 8.58626e-05 1.90176e-06
8.58626e-05 -0.000339807 -5.92458e-07
1.90176e-06 -5.92458e-07 -0.000453118
0.00326162 0.000258958 1.13615e-06
0.000258958 0.00113582 -1.50168e-06
1.13615e-06 -1.50168e-06 0.0010158
0.00151652 0.000213822 3.31286e-06
0.000213822 7.50732e-05 -1.46916e-06
3.31286e-06 -1.46916e-06 -5.99372e-05
0.00137352 0.000180071 1.64496e-06
0.000180071 0.000187765 -1.14007e-06
1.64496e-06 -1.14007e-06 7.4024e-05
0.000908998 6.00096e-05 -3.97991e-06
6.00096e-05 0.000115392 1.77449e-06
-3.97991e-06 1.77449e-06 3.45969e-05
0.00253972 5.08432e-06 -2.03597e-05
5.08432e-06 -0.000149044 -5.63858e-06
-2.03597e-05 -5.63858e-06 -0.000426682
0.0051919 -6.681e-05 1.27401e-05
-6.681e-05 0.00129587 3.22984e-06
1.27401e-05 3.22984e-06 0.000190213
0.00489973 -0.00052915 -3.29687e-05
-0.00052915 0.00233447 -2.96679e-05
-3.29687e-05 -2.96679e-05 0.00232571
0.00741566 -0.000127505 0.000213448
-0.000127505 0.00238449 6.42786e-05
0.000213448 6.42786e-05 0.000893381
0.00315436 0.000330609 4.6424e-05
0.000330609 0.000596818 4.64946e-05
4.6424e-05 4.64946e-05 0.000418366
0.00215442 0.000202524 -5.47754e-05
0.000202524 3.60725e-05 -1.77005e-05
-5.47754e-05 -1.77005e-05 -0.000262176
0.00207219 0.000261492 3.48024e-05
0.000261492 0.00016325 1.8548e-05
3.48024e-05 1.8548e-05 0.000155385
0.0019713 0.000310182 -2.02705e-06
0.000310182 0.000282704 5.53198e-06
-2.02705e-06 5.53198e-06 0.000152539
0.00023617 0.000140971 -2.04994e-06
0.000140971 -0.000289541 4.99331e-06
-2.04994e-06 4.99331e-06 -0.000424708
0.00205776 0.000333599 -7.06394e-05
0.000333599 0.000271929 -4.61632e-05
-7.06394e-05 -4.61632e-05 0.000208135
0.00338455 -0.000110541 -0.000145593
-0.000110541 0.000828937 6.21978e-07
-0.000145593 6.21978e-07 0.000422688
0.00762708 3.82606e-06 1.35674e-05
3.82606e-06 0.00259982 -2.3237e-06
1.35674e-05 -2.3237e-06 0.0019435
-0.00563283 -8.88475e-05 4.35774e-05
-8.88475e-05 -0.00292332 5.34186e-06
4.35774e-05 5.34186e-06 -0.00274823
0.00104728 -0.000172036 7.16116e-07
-0.000172036 -1.95767e-05 7.23614e-06
7.16116e-07 7.23614e-06 -0.000116884
0.00514081 -7.87243e-05 7.26187e-05
-7.87243e-05 0.00113865 6.39218e-07
7.26187e-05 6.39218e-07 0.00058542
0.000699857 -0.000217911 6.79104e-05
-0.000217911 -0.00071214 2.11513e-05
6.79104e-05 2.11513e-05 -0.00145213
0.00132932 -0.000117859 4.76913e-06
-0.000117859 0.000148259 -1.08363e-06
4.76913e-06 -1.08363e-06 4.0184e-05
0.00157864 5.60241e-05 -2.68333e-06
5.60241e-05 -0.000112461 7.11347e-07
-2.68333e-06 7.11347e-07 -0.000390104
0.00409495 -9.36738e-05 4.67128e-06
-9.36738e-05 0.00130915 -4.70764e-06
4.67128e-06 -4.70764e-06 0.00124894
0.0016131 3.11929e-05 2.70453e-05
3.11929e-05 -3.88422e-06 -2.24211e-06
2.70453e-05 -2.24211e-06 -0.000101161
0.00143272 -0.000215387 7.18556e-07
-0.000215387 -0.000198551 2.12694e-06
7.18556e-07 2.12694e-06 -0.00022805
0.00198825 -0.000148552 -1.66536e-06
-0.000148552 1.79427e-05 2.21185e-07
-1.66536e-06 2.21185e-07 -1.07878e-05
0.00211611 -4.63867e-05 1.80581e-06
-4.63867e-05 0.000141405 -1.55014e-06
1.80581e-06 -1.55014e-06 0.000101567
0.00169377 -0.000171245 5.98281e-06
-0.000171245 1.2424e-05 -4.33178e-07
5.98281e-06 -4.33178e-07 -4.91086e-05
0.00193066 -0.000115837 1.93259e-06
-0.000115837 7.11315e-05 -1.77237e-07
1.93259e-06 -1.77237e-07 1.42409e-05
0.00179464 -5.58896e-05 1.05165e-06
-5.58896e-05 6.2393e-05 2.98571e-07
1.05165e-06 2.98571e-07 -8.09184e-06
0.00172989 -0.000144982 4.1176e-06
-0.000144982 3.4342e-05 2.54683e-06
4.1176e-06 2.54683e-06 -4.66035e-05
0.00178041 -0.000110475 1.04514e-06
-0.000110475 8.37732e-05 1.3873e-07
1.04514e-06 1.3873e-07 3.3132e-06
0.00173465 -8.24755e-05 -1.67672e-07
-8.24755e-05 9.43794e-05 5.50593e-07
-1.67672e-07 5.50593e-07 2.74752e-06
0.00187326 -0.000138309 1.05619e-07
-0.000138309 0.000185225 1.61822e-06
1.05619e-07 1.61822e-06 9.33778e-05
0.0016779 -0.000116405 5.73519e-07
-0.000116405 9.25838e-05 -2.16885e-07
5.73519e-07 -2.16885e-07 3.79035e-07
0.00154007 -0.000105808 2.69776e-06
-0.000105808 5.40425e-05 1.22823e-06
2.69776e-06 1.22823e-06 -4.92862e-05
0.00138518 -0.000118687 -1.24927e-06
-0.000118687 -1.11357e-05 -2.13723e-07
-1.24927e-06 -2.13723e-07 -0.000100955
0.00161209 -0.000122664 -1.3217e-06
-0.000122664 0.000129275 -1.23018e-06
-1.3217e-06 -1.23018e-06 2.61735e-05
0.00177669 -0.000127584 3.48231e-07
-0.000127584 0.00024873 -7.11226e-07
3.48231e-07 -7.11226e-07 0.000134299
0.00153098 -0.00013665 1.07134e-06
-0.00013665 0.000129508 2.10449e-06
1.07134e-06 2.10449e-06 1.48793e-05
0.00151142 -0.000133891 4.60639e-07
-0.000133891 0.000153501 -5.48712e-07
4.60639e-07 -5.48712e-07 3.32335e-05
0.00153803 -0.000132495 -2.21628e-06
-0.000132495 0.000202604 -2.51537e-08
-2.21628e-06 -2.51537e-08 8.30561e-05
0.000769789 -0.000102933 -4.62032e-06
-0.000102933 -0.000106679 1.9818e-06
-4.62032e-06 1.9818e-06 -0.000220671
0.0010866 -0.00012452 -6.43204e-07
-0.00012452 2.28694e-05 5.0116e-07
-6.43204e-07 5.0116e-07 -0.000103499
0.00141752 -0.000143478 3.11034e-06
-0.000143478 0.000159241 -5.09188e-07
3.11034e-06 -5.09188e-07 2.43793e-05
0.000830656 -7.46168e-05 -3.69318e-06
-7.46168e-05 1.45967e-05 2.3259e-06
-3.69318e-06 2.3259e-06 -7.16154e-05
0.00106966 -0.000115531 1.97921e-07
-0.000115531 0.000104208 8.26127e-08
1.97921e-07 8.26127e-08 -6.86064e-06
0.00102515 -0.000123725 1.10941e-06
-0.000123725 5.81278e-05 -7.00274e-07
1.10941e-06 -7.00274e-07 -6.78636e-05
0.000599904 2.87285e-05 -4.23105e-06
2.87285e-05 -5.90585e-05 5.63278e-06
-4.23105e-06 5.63278e-06 -0.000100083
0.000857078 -5.43982e-05 1.21716e-07
-5.43982e-05 4.74683e-05 -3.19448e-08
1.21716e-07 -3.19448e-08 -3.37712e-05
0.00112619 -0.000114117 2.26644e-06
-0.000114117 0.000163496 -1.4663e-06
2.26644e-06 -1.4663e-06 5.86186e-05
0.00292474 9.61287e-05 -4.59267e-05
9.61287e-05 0.00120723 2.82238e-06
-4.59267e-05 2.82238e-06 0.00120848
0.000630517 3.82302e-05 4.36769e-07
3.82302e-05 -4.32452e-05 -1.13621e-07
4.36769e-07 -1.13621e-07 -7.78355e-05
0.000852315 -3.92414e-05 3.23549e-06
-3.92414e-05 5.37208e-05 -2.22934e-06
3.23549e-06 -2.22934e-06 -2.29118e-05
0.0026979 8.44806e-05 9.91823e-07
8.44806e-05 0.00108175 1.29538e-07
9.91823e-07 1.29538e-07 0.00108635
0.000672029 5.21452e-05 1.84421e-06
5.21452e-05 -1.7584e-05 -5.07898e-06
1.84421e-06 -5.07898e-06 -4.65954e-05
0.00251828 7.48064e-05 3.96889e-05
7.48064e-05 0.000980884 -2.98398e-06
3.96889e-05 -2.98398e-06 0.00098845
0.00108286 0.000116183 -3.35003e-07
0.000116183 0.000174602 -1.58561e-06
-3.35003e-07 -1.58561e-06 6.44621e-05
0.00105324 0.000108136 2.8471e-07
0.000108136 0.000168676 1.67301e-07
2.8471e-07 1.67301e-07 6.92291e-05
0.000938734 5.17919e-05 -1.26335e-06
5.17919e-05 0.000102541 -5.88797e-07
-1.26335e-06 -5.88797e-07 1.34122e-05
0.0008307 8.98718e-05 1.4968e-07
8.98718e-05 5.90687e-05 -7.86749e-09
1.4968e-07 -7.86749e-09 -3.1158e-05
0.000783762 -4.78488e-06 -4.43358e-07
-4.78488e-06 2.54249e-05 -1.23909e-07
-4.43358e-07 -1.23909e-07 -5.63235e-05
0.000720269 -2.27377e-06 -2.05753e-06
-2.27377e-06 -7.25052e-06 -1.97851e-06
-2.05753e-06 -1.97851e-06 -6.79432e-05
0.000800815 -5.34545e-05 -2.09468e-08
-5.34545e-05 3.04035e-05 1.29288e-06
-2.09468e-08 1.29288e-06 -4.21259e-05
0.000730973 -4.48278e-05 1.76432e-07
-4.48278e-05 -4.26767e-06 -3.0343e-07
1.76432e-07 -3.0343e-07 -5.47276e-05
0.000694672 -5.80076e-05 -8.09121e-07
-5.80076e-05 -1.21548e-05 -4.28308e-06
-8.09121e-07 -4.28308e-06 -3.24994e-05
0.000756286 -5.10902e-05 9.10963e-07
-5.10902e-05 2.31707e-06 2.21442e-06
9.10963e-07 2.21442e-06 -4.13401e-05
0.000690854 -4.55731e-05 1.42624e-07
-4.55731e-05 -2.55269e-05 -3.23537e-08
1.42624e-07 -3.23537e-08 -4.02809e-05
0.002275 -6.58193e-05 -3.23314e-05
-6.58193e-05 0.000842059 -2.93295e-06
-3.23314e-05 -2.93295e-06 0.00085305
0.00223598 -5.89842e-05 -8.54402e-07
-5.89842e-05 0.000811851 1.01835e-07
-8.54402e-07 1.01835e-07 0.000824999
0.000684249 -3.87647e-05 1.99021e-06
-3.87647e-05 -3.71084e-05 3.68095e-06
1.99021e-06 3.68095e-06 -4.92281e-05
0.00223154 -5.25932e-05 2.45837e-05
-5.25932e-05 0.00080124 3.54608e-06
2.45837e-05 3.54608e-06 0.000816127
0.00158872 -4.78881e-05 -5.77084e-05
-4.78881e-05 -0.000219807 4.94888e-06
-5.77084e-05 4.94888e-06 -0.000499224
0.00192498 -0.00013563 1.17309e-05
-0.00013563 -0.000417937 2.0044e-06
1.17309e-05 2.0044e-06 -0.00117383
0.00293775 -0.000322174 -4.86001e-05
-0.000322174 0.00124313 -1.39172e-05
-4.86001e-05 -1.39172e-05 0.0013768
0.00124763 0.000134801 6.67972e-06
0.000134801 0.000220899 1.26716e-06
6.67972e-06 1.26716e-06 9.54458e-05
0.00109998 8.24634e-05 2.80621e-07
8.24634e-05 0.000219532 -2.1637e-07
2.80621e-07 -2.1637e-07 0.000119029
0.000902331 0.000106415 -8.25896e-07
0.000106415 0.000102116 1.03261e-07
-8.25896e-07 1.03261e-07 -1.53939e-06
0.000882076 0.000105617 2.70652e-07
0.000105617 0.000105867 5.16198e-07
2.70652e-07 5.16198e-07 -2.2526e-06
0.00101296 0.000117155 -2.11567e-07
0.000117155 0.000153619 -1.19732e-06
-2.11567e-07 -1.19732e-06 3.67708e-05
0.000651572 0.000102271 -2.63213e-07
0.000102271 -5.91184e-05 4.87266e-07
-2.63213e-07 4.87266e-07 -0.000164938
0.0010108 0.000115158 -3.41433e-07
0.000115158 0.000165667 -8.75668e-07
-3.41433e-07 -8.75668e-07 4.82788e-05
0.00092612 7.5132e-05 -2.32969e-06
7.5132e-05 0.000102821 2.37673e-06
-2.32969e-06 2.37673e-06 1.59079e-06
0.000918916 0.000126202 3.41298e-07
0.000126202 5.4624e-05 -1.2143e-07
3.41298e-07 -1.2143e-07 -5.91315e-05
0.00237322 0.000215809 4.70216e-07
0.000215809 0.000695573 2.9125e-06
4.70216e-07 2.9125e-06 0.000577951
0.00170527 0.00020234 8.41946e-07
0.00020234 0.000194359 -1.76867e-06
8.41946e-07 -1.76867e-06 5.87203e-05
0.00177628 0.000186467 9.57951e-06
0.000186467 7.41486e-05 7.96444e-06
9.57951e-06 7.96444e-06 -5.4221e-05
0.00122913 0.00020123 -1.98695e-07
0.00020123 -7.16526e-05 -6.47398e-07
-1.98695e-07 -6.47398e-07 -0.000207811
0.000880536 0.000152509 -1.40569e-06
0.000152509 -6.0019e-05 5.00414e-06
-1.40569e-06 5.00414e-06 -0.000168711
0.000294413 8.13221e-05 -2.5786e-06
8.13221e-05 -0.000440548 7.37472e-07
-2.5786e-06 7.37472e-07 -0.000444693
0.00423539 3.86679e-05 -1.40814e-05
3.86679e-05 0.000524817 1.41563e-06
-1.40814e-05 1.41563e-06 0.000173771
0.00109272 -0.000125777 1.51367e-05
-0.000125777 -0.000682296 8.98462e-06
1.51367e-05 8.98462e-06 -0.00171092
0.00287112 0.000278829 5.72429e-05
0.000278829 0.000235196 2.04857e-05
5.72429e-05 2.04857e-05 -0.000210231
0.00136109 0.000212243 -1.22888e-05
0.000212243 -5.75858e-05 -6.06272e-07
-1.22888e-05 -6.06272e-07 -8.41965e-05
0.000433395 0.000220524 -1.98578e-05
0.000220524 -0.000413634 -1.33549e-05
-1.98578e-05 -1.33549e-05 -0.000549044
0.00259418 -9.41048e-05 1.43918e-05
-9.41048e-05 0.00047032 -2.4001e-06
1.43918e-05 -2.4001e-06 0.000363509
0.00132473 -7.33326e-06 -2.30008e-05
-7.33326e-06 -5.1528e-05 1.61428e-06
-2.30008e-05 1.61428e-06 -0.000409374
0.000113485 0.000212938 5.18528e-05
0.000212938 -0.00133875 -1.53246e-05
5.18528e-05 -1.53246e-05 -0.00197255
-0.000621595 -8.94202e-05 -2.02276e-06
-8.94202e-05 -0.000868505 1.0405e-05
-2.02276e-06 1.0405e-05 -0.000909169
0.00347774 9.59467e-05 3.18251e-05
9.59467e-05 0.00069328 2.08068e-06
3.18251e-05 2.08068e-06 0.000373723
0.00169211 -5.66851e-05 2.43276e-06
-5.66851e-05 4.99767e-05 -1.35654e-06
2.43276e-06 -1.35654e-06 1.83656e-05
0.00195945 3.49848e-05 4.40342e-07
3.49848e-05 0.000176174 -1.64564e-06
4.40342e-07 -1.64564e-06 8.56326e-05
0.00126906 3.51699e-06 7.42483e-06
3.51699e-06 -0.000285145 -2.66842e-06
7.42483e-06 -2.66842e-06 -0.000350728
0.00246697 1.42345e-05 1.50097e-06
1.42345e-05 0.000426247 -1.98498e-06
1.50097e-06 -1.98498e-06 0.000345108
0.00196569 -0.000151794 1.56326e-06
-0.000151794 1.1811e-05 4.51238e-07
1.56326e-06 4.51238e-07 -2.15268e-05
0.00192864 -4.90025e-05 3.46124e-06
-4.90025e-05 2.9091e-05 3.91617e-07
3.46124e-06 3.91617e-07 -1.53978e-05
0.00186937 -3.92771e-05 -5.08937e-07
-3.92771e-05 0.000116624 -5.67003e-07
-5.08937e-07 -5.67003e-07 4.69205e-05
0.00198508 -0.00011721 2.31922e-06
-0.00011721 0.000105943 5.88196e-07
2.31922e-06 5.88196e-07 4.6396e-05
0.00184452 -6.48149e-05 3.12592e-07
-6.48149e-05 8.51818e-05 9.63174e-08
3.12592e-07 9.63174e-08 1.26504e-05
0.00175633 -5.44079e-05 8.19046e-07
-5.44079e-05 0.000111288 -4.39935e-07
8.19046e-07 -4.39935e-07 2.26642e-05
0.00178516 -0.000108131 -5.58118e-07
-0.000108131 9.46459e-05 5.46216e-07
-5.58118e-07 5.46216e-07 1.35457e-05
0.00174948 -8.75055e-05 -1.01106e-06
-8.75055e-05 0.000103361 -2.00386e-07
-1.01106e-06 -2.00386e-07 1.15148e-05
0.00161822 -8.04021e-05 1.5666e-09
-8.04021e-05 7.19115e-05 6.31784e-07
1.5666e-09 6.31784e-07 -3.22446e-05
0.00159171 -0.000116609 -5.6308e-07
-0.000116609 5.58767e-05 -1.8372e-06
-5.6308e-07 -1.8372e-06 -3.61305e-05
0.00161314 -0.000107666 8.12312e-07
-0.000107666 9.08908e-05 6.22412e-08
8.12312e-07 6.22412e-08 -1.26058e-05
0.00156607 -0.000108073 3.41932e-07
-0.000108073 9.63873e-05 3.41228e-07
3.41932e-07 3.41228e-07 -1.5155e-05
0.00148714 -0.000118276 -3.29708e-06
-0.000118276 6.1571e-05 2.18081e-07
-3.29708e-06 2.18081e-07 -3.95645e-05
0.00158709 -0.000120479 -2.06896e-07
-0.000120479 0.0001473 -6.79989e-07
-2.06896e-07 -6.79989e-07 3.40298e-05
0.00147688 -0.000116052 -2.10845e-06
-0.000116052 0.000125388 3.62363e-07
-2.10845e-06 3.62363e-07 8.6616e-06
0.00150271 -0.000132576 2.05595e-06
-0.000132576 0.000148205 5.15629e-07
2.05595e-06 5.15629e-07 2.77502e-05
0.00133935 -0.000124457 5.31138e-07
-0.000124457 9.77341e-05 -3.55555e-07
5.31138e-07 -3.55555e-07 -2.20772e-05
0.0013179 -0.000117224 -4.48652e-06
-0.000117224 0.000131176 1.28841e-06
-4.48652e-06 1.28841e-06 1.91172e-05
0.000924961 -8.74021e-05 -4.96404e-06
-8.74021e-05 2.90587e-05 2.6759e-06
-4.96404e-06 2.6759e-06 -6.14917e-05
0.000907337 -0.000108339 -1.04375e-06
-0.000108339 -3.10141e-05 6.79632e-07
-1.04375e-06 6.79632e-07 -0.000144246
0.00117291 -0.000126788 2.24946e-06
-0.000126788 7.29328e-05 -3.14926e-07
2.24946e-06 -3.14926e-07 -5.265e-05
0.000607475 -3.081e-05 -6.94838e-06
-3.081e-05 -5.64852e-05 6.22093e-06
-6.94838e-06 6.22093e-06 -0.00010427
0.000890052 -7.83298e-05 2.2102e-07
-7.83298e-05 4.60911e-05 -2.28547e-08
2.2102e-07 -2.28547e-08 -4.08005e-05
0.00111511 -0.0001175 2.93556e-06
-0.0001175 0.000126329 -1.44416e-06
2.93556e-06 -1.44416e-06 1.52954e-05
0.00314586 0.000106835 -5.30952e-05
0.000106835 0.00133371 2.83277e-06
-5.30952e-05 2.83277e-06 0.00133071
0.000659654 -1.13758e-06 -1.75058e-07
-1.13758e-06 -3.1877e-05 -1.46207e-07
-1.75058e-07 -1.46207e-07 -7.24657e-05
0.000933422 -6.02011e-05 3.8632e-06
-6.02011e-05 8.82466e-05 -2.36997e-06
3.8632e-06 -2.36997e-06 6.15512e-06
0.00295548 9.3911e-05 1.31004e-06
9.3911e-05 0.00122403 1.87925e-07
1.31004e-06 1.87925e-07 0.00122515
0.000679311 2.57206e-05 5.12466e-06
2.57206e-05 -1.80179e-05 -5.17605e-06
5.12466e-06 -5.17605e-06 -5.26749e-05
0.00277014 8.29811e-05 4.74036e-05
8.29811e-05 0.00111966 -3.15678e-06
4.74036e-05 -3.15678e-06 0.00112419
0.000875238 0.000112718 -6.38015e-07
0.000112718 2.95743e-05 -1.39308e-06
-6.38015e-07 -1.39308e-06 -9.00845e-05
0.000999653 0.000111175 -3.79651e-08
0.000111175 0.000130803 -8.01587e-07
-3.79651e-08 -8.01587e-07 2.14109e-05
0.00109743 0.000102924 -9.48109e-07
0.000102924 0.000175669 -6.38553e-07
-9.48109e-07 -6.38553e-07 7.82369e-05
0.00109057 0.000110495 -3.18612e-07
0.000110495 0.000188512 -3.63587e-07
-3.18612e-07 -3.63587e-07 8.94173e-05
0.000913204 5.38641e-05 -8.5345e-07
5.38641e-05 8.88549e-05 -4.42787e-07
-8.5345e-07 -4.42787e-07 5.33959e-07
0.000780558 1.66092e-05 -2.12947e-06
1.66092e-05 2.47918e-05 -1.65034e-06
-2.12947e-06 -1.65034e-06 -4.57276e-05
0.00078108 1.2617e-05 4.54765e-08
1.2617e-05 2.40896e-05 1.05984e-07
4.54765e-08 1.05984e-07 -5.8616e-05
0.000743571 -3.37913e-05 -3.54966e-07
-3.37913e-05 5.74577e-06 -1.81595e-08
-3.54966e-07 -1.81595e-08 -5.45563e-05
0.000658466 -6.74407e-05 -4.49796e-08
-6.74407e-05 -2.1066e-05 -4.69111e-06
-4.49796e-08 -4.69111e-06 -4.86739e-05
0.000751987 -5.24719e-05 7.38214e-07
-5.24719e-05 8.09551e-06 2.41606e-06
7.38214e-07 2.41606e-06 -4.29273e-05
0.000670131 -5.4747e-05 1.38728e-07
-5.4747e-05 -2.63273e-05 -1.03608e-07
1.38728e-07 -1.03608e-07 -4.58267e-05
0.00239225 -7.33174e-05 -3.6854e-05
-7.33174e-05 0.000912255 -2.72971e-06
-3.6854e-05 -2.72971e-06 0.000920782
0.000679035 -4.39089e-05 2.48124e-06
-4.39089e-05 -3.22421e-05 3.67877e-06
2.48124e-06 3.67877e-06 -4.66726e-05
0.00225776 -6.56866e-05 -4.65622e-07
-6.56866e-05 0.000831732 8.72598e-08
-4.65622e-07 8.72598e-08 0.000842915
0.00224229 -5.88625e-05 2.80798e-05
-5.88625e-05 0.000814334 3.3297e-06
2.80798e-05 3.3297e-06 0.000827576
0.000457941 -8.40452e-06 3.17153e-06
-8.40452e-06 -0.000434512 -5.56931e-07
3.17153e-06 -5.56931e-07 -0.00047086
0.00335325 -3.04885e-05 2.7109e-06
-3.04885e-05 0.000399314 1.12556e-05
2.7109e-06 1.12556e-05 2.2577e-05
0.00595836 0.000177299 -7.7937e-05
0.000177299 0.00178819 -1.64366e-05
-7.7937e-05 -1.64366e-05 0.000930516
0.000730797 0.00010451 2.81353e-06
0.00010451 -7.41056e-05 6.35044e-07
2.81353e-06 6.35044e-07 -0.000191957
0.00143741 0.000149811 2.99849e-06
0.000149811 0.000187116 -2.07917e-06
2.99849e-06 -2.07917e-06 5.35136e-05
0.000820293 0.000114391 -1.28424e-07
0.000114391 5.09674e-06 -7.68893e-07
-1.28424e-07 -7.68893e-07 -0.00011861
0.00107172 0.000116672 -1.15074e-06
0.000116672 0.000205014 -1.15236e-06
-1.15074e-06 -1.15236e-06 9.51517e-05
0.000940368 0.000113786 -9.07364e-07
0.000113786 0.0001179 -8.80326e-07
-9.07364e-07 -8.80326e-07 3.6659e-07
0.000971353 0.00012172 2.85883e-06
0.00012172 9.60797e-05 1.1133e-06
2.85883e-06 1.1133e-06 -1.35201e-05
0.0017427 0.000186391 -3.49018e-06
0.000186391 0.000242745 -4.59982e-06
-3.49018e-06 -4.59982e-06 0.00011688
0.00155633 0.00015975 5.05967e-07
0.00015975 0.000386195 9.93029e-07
5.05967e-07 9.93029e-07 0.000272336
0.000942431 0.000146031 -2.7701e-06
0.000146031 -1.87558e-05 7.90563e-06
-2.7701e-06 7.90563e-06 -0.000132459
0.00167017 0.000199189 -1.1728e-06
0.000199189 0.000192461 2.32579e-07
-1.1728e-06 2.32579e-07 5.97407e-05
0.00187164 0.000189036 -4.12227e-06
0.000189036 0.000146956 2.01922e-07
-4.12227e-06 2.01922e-07 1.17988e-05
0.00140111 6.2604e-05 1.30446e-05
6.2604e-05 -0.000172745 3.80697e-06
1.30446e-05 3.80697e-06 -0.000260308
0.00189925 0.000184507 6.27908e-06
0.000184507 0.000142734 2.69687e-06
6.27908e-06 2.69687e-06 1.52652e-05
0.00123448 0.000198492 -4.87093e-06
0.000198492 -7.02206e-05 8.00689e-07
-4.87093e-06 8.00689e-07 -0.000206889
0.000941032 7.28556e-05 -1.72043e-06
7.28556e-05 -0.000118558 -3.62866e-07
-1.72043e-06 -3.62866e-07 -0.000129486
0.00495386 -7.06566e-05 4.54264e-05
-7.06566e-05 0.000771082 1.61362e-05
4.54264e-05 1.61362e-05 0.000393573
0.00146518 0.000188921 2.57003e-06
0.000188921 0.000104651 -7.73448e-06
2.57003e-06 -7.73448e-06 6.84417e-05
0.00161579 -2.06087e-05 7.6495e-06
-2.06087e-05 5.01909e-05 -7.98418e-07
7.6495e-06 -7.98418e-07 -2.07504e-05
0.00200648 -5.23806e-05 -2.10606e-06
-5.23806e-05 0.000211922 3.65984e-07
-2.10606e-06 3.65984e-07 8.87199e-05
0.000897004 7.87201e-05 5.35417e-05
7.87201e-05 -0.000472516 -3.14961e-06
5.35417e-05 -3.14961e-06 -0.000908043
-0.000593908 -2.84416e-05 -1.18798e-05
-2.84416e-05 -0.00112959 6.73939e-06
-1.18798e-05 6.73939e-06 -0.00113489
0.00249935 3.63474e-05 -3.85383e-05
3.63474e-05 0.000462374 4.49192e-06
-3.85383e-05 4.49192e-06 0.000386756
0.0013461 -1.29989e-05 4.44135e-07
-1.29989e-05 -0.00026097 2.8721e-06
4.44135e-07 2.8721e-06 -0.000317599
0.00223375 2.68945e-06 7.17029e-07
2.68945e-06 0.000268006 4.59043e-07
7.17029e-07 4.59043e-07 0.000187513
0.001923 -4.48354e-05 1.16511e-06
-4.48354e-05 0.000104067 5.1943e-07
1.16511e-06 5.1943e-07 2.89603e-05
0.00154079 -1.79103e-05 7.71949e-07
-1.79103e-05 -0.000103901 -7.42732e-07
7.71949e-07 -7.42732e-07 -0.000183766
0.0017484 -5.31487e-05 5.44439e-06
-5.31487e-05 -8.13165e-05 1.58211e-06
5.44439e-06 1.58211e-06 -0.000129387
0.0017608 -4.02051e-05 -1.837e-06
-4.02051e-05 5.54237e-05 -1.46381e-07
-1.837e-06 -1.46381e-07 -1.35665e-05
0.00175959 -4.36108e-05 1.43305e-06
-4.36108e-05 8.66064e-05 2.50233e-07
1.43305e-06 2.50233e-07 -5.29156e-07
0.00188069 -7.21465e-05 -2.07601e-06
-7.21465e-05 0.000102897 -2.32404e-07
-2.07601e-06 -2.32404e-07 2.89385e-05
0.00173219 -5.42012e-05 -5.86575e-07
-5.42012e-05 9.79872e-05 -9.04072e-08
-5.86575e-07 -9.04072e-08 8.68689e-06
0.00168137 -4.98465e-05 7.9812e-08
-4.98465e-05 9.06177e-05 -6.72445e-07
7.9812e-08 -6.72445e-07 -1.07363e-05
0.00177412 -9.24005e-05 -3.70023e-06
-9.24005e-05 0.000117563 1.93695e-08
-3.70023e-06 1.93695e-08 2.54734e-05
0.00166292 -8.08921e-05 1.82444e-07
-8.08921e-05 9.43504e-05 5.51212e-07
1.82444e-07 5.51212e-07 -9.76511e-06
0.00162719 -8.42241e-05 -7.77814e-07
-8.42241e-05 9.97366e-05 -1.22605e-07
-7.77814e-07 -1.22605e-07 -9.5252e-06
0.00168701 -0.000109531 -6.47677e-07
-0.000109531 0.000128133 -1.11243e-06
-6.47677e-07 -1.11243e-06 2.4471e-05
0.00157063 -0.00010738 2.81574e-07
-0.00010738 9.8245e-05 1.66054e-07
2.81574e-07 1.66054e-07 -1.32997e-05
0.00150436 -0.00010672 -1.9318e-06
-0.00010672 0.000101586 6.04638e-07
-1.9318e-06 6.04638e-07 -1.33032e-05
0.00139908 -0.000113494 -7.10966e-08
-0.000113494 4.66898e-05 -2.68549e-07
-7.10966e-08 -2.68549e-07 -6.54318e-05
0.00133152 -0.00011107 -1.39418e-07
-0.00011107 4.9824e-05 -2.04661e-07
-1.39418e-07 -2.04661e-07 -6.65556e-05
0.00129662 -0.00010647 -4.56977e-06
-0.00010647 8.10596e-05 1.38518e-06
-4.56977e-06 1.38518e-06 -2.96457e-05
0.00113998 -0.000116454 3.08594e-06
-0.000116454 -7.42174e-06 -4.77338e-07
3.08594e-06 -4.77338e-07 -0.000127517
0.00108921 -0.00010752 2.46181e-07
-0.00010752 1.10968e-05 -3.91331e-08
2.46181e-07 -3.91331e-08 -0.000100789
0.000993903 -8.88928e-05 -6.4556e-06
-8.88928e-05 2.44761e-05 2.93114e-06
-6.4556e-06 2.93114e-06 -6.66236e-05
0.000525963 -5.68395e-05 -8.87378e-06
-5.68395e-05 -0.0001078 6.84903e-06
-8.87378e-06 6.84903e-06 -0.000160517
0.000945006 -8.9634e-05 2.56317e-07
-8.9634e-05 3.98519e-05 5.97316e-08
2.56317e-07 5.97316e-08 -5.10463e-05
0.0010493 -0.00011407 2.21149e-06
-0.00011407 4.70473e-05 -4.61105e-07
2.21149e-06 -4.61105e-07 -6.5475e-05
0.00335029 0.000120692 -5.67607e-05
0.000120692 0.00145839 2.84117e-06
-5.67607e-05 2.84117e-06 0.00144973
0.000680244 -2.45116e-05 -2.81943e-07
-2.45116e-05 -2.15539e-05 -9.58439e-09
-2.81943e-07 -9.58439e-09 -7.00764e-05
0.000972733 -8.06283e-05 4.36226e-06
-8.06283e-05 9.04563e-05 -2.35559e-06
4.36226e-06 -2.35559e-06 2.57565e-06
0.00319482 0.00010569 1.70787e-06
0.00010569 0.00136193 2.60962e-07
1.70787e-06 2.60962e-07 0.00135841
0.000735238 -3.53116e-06 6.89882e-06
-3.53116e-06 5.33018e-06 -5.48422e-06
6.89882e-06 -5.48422e-06 -3.5338e-05
0.00300816 9.20288e-05 5.46326e-05
9.20288e-05 0.00125232 -3.14462e-06
5.46326e-05 -3.14462e-06 0.00125327
0.000585291 0.000106519 -1.16937e-06
0.000106519 -0.000198109 -1.00046e-06
-1.16937e-06 -1.00046e-06 -0.000327097
0.00068313 0.000103128 -5.13248e-08
0.000103128 -7.41333e-05 -1.6192e-07
-5.13248e-08 -1.6192e-07 -0.000194496
0.00113091 0.000113544 -1.93334e-06
0.000113544 0.000163536 -8.84488e-07
-1.93334e-06 -8.84488e-07 5.66282e-05
0.000910732 0.00010583 -3.25788e-07
0.00010583 8.39384e-05 -2.51717e-07
-3.25788e-07 -2.51717e-07 -2.46556e-05
0.000983467 9.60513e-05 -2.39311e-07
9.60513e-05 0.000116323 -2.77903e-07
-2.39311e-07 -2.77903e-07 1.97684e-05
0.00089813 4.25665e-05 -2.98774e-06
4.25665e-05 8.49055e-05 -1.5272e-06
-2.98774e-06 -1.5272e-06 6.50522e-06
0.000884776 5.53602e-05 8.86656e-08
5.53602e-05 7.37799e-05 -5.53167e-07
8.86656e-08 -5.53167e-07 -1.38014e-05
0.000774805 2.9957e-06 -7.11097e-09
2.9957e-06 2.50455e-05 9.85924e-08
-7.11097e-09 9.85924e-08 -4.6374e-05
0.000650999 -5.0078e-05 -2.99113e-06
-5.0078e-05 -2.51832e-05 -4.62038e-06
-2.99113e-06 -4.62038e-06 -5.76876e-05
0.000759171 -5.36497e-05 7.89317e-07
-5.36497e-05 1.60178e-05 2.49579e-06
7.89317e-07 2.49579e-06 -4.49616e-05
0.000628207 -6.51402e-05 -3.66762e-08
-6.51402e-05 -3.88156e-05 -1.42851e-07
-3.66762e-08 -1.42851e-07 -6.55564e-05
0.0025726 -8.17575e-05 -4.2417e-05
-8.17575e-05 0.00101459 -2.671e-06
-4.2417e-05 -2.671e-06 0.00102022
0.000642551 -5.10197e-05 2.40681e-06
-5.10197e-05 -4.22553e-05 3.82162e-06
2.40681e-06 3.82162e-06 -6.0864e-05
0.0023555 -7.33561e-05 -5.33467e-07
-7.33561e-05 0.000892031 8.91561e-08
-5.33467e-07 8.91561e-08 0.000900751
0.00225471 -6.54138e-05 3.06563e-05
-6.54138e-05 0.000829026 3.05411e-06
3.06563e-05 3.05411e-06 0.00084041
0.00143202 5.87528e-06 1.25147e-05
5.87528e-06 -0.0001398 8.5582e-07
1.25147e-05 8.5582e-07 -0.000210007
0.00113129 -3.84947e-05 -1.37723e-06
-3.84947e-05 -0.00016883 2.90914e-06
-1.37723e-06 2.90914e-06 -0.00022388
0.00257697 -8.2646e-05 7.48279e-05
-8.2646e-05 4.64393e-05 9.69738e-06
7.48279e-05 9.69738e-06 -0.000259257
0.00187388 0.000164753 1.07641e-06
0.000164753 0.000337211 -3.22328e-06
1.07641e-06 -3.22328e-06 0.000210704
0.000763154 0.000109462 -1.54863e-06
0.000109462 -4.1357e-05 1.28284e-06
-1.54863e-06 1.28284e-06 -0.000153401
0.00101084 0.000128502 -3.24937e-06
0.000128502 -0.000139128 1.63734e-06
-3.24937e-06 1.63734e-06 -0.000263096
0.00152774 0.000154689 5.01082e-07
0.000154689 0.000230185 1.44092e-07
5.01082e-07 1.44092e-07 9.60714e-05
0.000397561 9.39949e-05 -2.98546e-06
9.39949e-05 -0.000207723 1.81494e-06
-2.98546e-06 1.81494e-06 -0.000329747
0.00177015 0.000157824 -3.90099e-06
0.000157824 0.000105295 -1.98348e-06
-3.90099e-06 -1.98348e-06 -1.95215e-05
0.00126887 0.000140004 -1.27789e-06
0.000140004 0.000240187 2.91919e-07
-1.27789e-06 2.91919e-07 0.000126946
0.00172386 0.000183117 -6.35511e-09
0.000183117 0.000226398 -1.03031e-06
-6.35511e-09 -1.03031e-06 9.8972e-05
0.00177385 9.85058e-05 1.17918e-06
9.85058e-05 7.59476e-05 1.61604e-06
1.17918e-06 1.61604e-06 -3.47375e-05
0.00171878 0.000201147 2.41377e-06
0.000201147 0.000232612 3.64062e-06
2.41377e-06 3.64062e-06 0.000102473
0.00196038 0.000192557 -1.71027e-06
0.000192557 0.000184103 -4.22224e-07
-1.71027e-06 -4.22224e-07 4.9155e-05
0.00153501 7.32991e-05 -3.07142e-07
7.32991e-05 -8.29963e-05 -6.68918e-07
-3.07142e-07 -6.68918e-07 -0.000171891
0.0017176 0.000169999 -1.72648e-06
0.000169999 6.91659e-05 -2.00017e-06
-1.72648e-06 -2.00017e-06 -5.78257e-05
0.00102686 6.89605e-05 -7.19817e-06
6.89605e-05 -7.33509e-05 -5.05382e-06
-7.19817e-06 -5.05382e-06 -8.86108e-05
0.00171728 -1.05478e-05 8.85785e-07
-1.05478e-05 1.41045e-05 2.55769e-07
8.85785e-07 2.55769e-07 -6.82457e-05
0.00184335 -6.06602e-06 -1.26967e-06
-6.06602e-06 0.00016664 1.21773e-07
-1.26967e-06 1.21773e-07 9.56221e-05
0.00106511 -2.00448e-06 -1.77826e-05
-2.00448e-06 -0.000231773 1.98586e-06
-1.77826e-05 1.98586e-06 -0.000380643
0.00133374 -2.87785e-05 -4.6779e-06
-2.87785e-05 -0.000296349 2.97154e-06
-4.6779e-06 2.97154e-06 -0.000344013
0.00202794 -8.2057e-06 3.51241e-06
-8.2057e-06 0.000122641 8.82298e-07
3.51241e-06 8.82298e-07 4.25929e-05
0.00204408 -4.03494e-05 -2.34219e-06
-4.03494e-05 0.000165617 -2.27628e-08
-2.34219e-06 -2.27628e-08 9.19906e-05
0.00172633 -2.01876e-05 1.13915e-06
-2.01876e-05 -1.3292e-07 3.93324e-07
1.13915e-06 3.93324e-07 -7.85761e-05
0.00172807 -2.76433e-05 9.29136e-07
-2.76433e-05 3.69746e-05 -5.80504e-07
9.29136e-07 -5.80504e-07 -5.05658e-05
0.00168422 -4.10015e-05 -2.39873e-06
-4.10015e-05 1.17613e-05 -1.64783e-07
-2.39873e-06 -1.64783e-07 -5.71848e-05
0.00179482 -4.15082e-05 2.38495e-07
-4.15082e-05 0.000107646 -3.97125e-08
2.38495e-07 -3.97125e-08 2.0306e-05
0.00175856 -3.01796e-05 -2.36756e-08
-3.01796e-05 0.000101356 -1.38706e-07
-2.36756e-08 -1.38706e-07 1.35772e-06
0.00174641 -5.49323e-05 -2.57982e-06
-5.49323e-05 0.000104018 7.20031e-08
-2.57982e-06 7.20031e-08 1.40457e-05
0.00165973 -4.93679e-05 -2.26397e-07
-4.93679e-05 8.31353e-05 -2.24608e-07
-2.26397e-07 -2.24608e-07 -1.86156e-05
0.00167916 -4.89944e-05 -9.85541e-07
-4.89944e-05 0.000117286 -1.03374e-07
-9.85541e-07 -1.03374e-07 7.23794e-06
0.00170367 -8.12704e-05 3.88146e-07
-8.12704e-05 0.000114738 5.02338e-07
3.88146e-07 5.02338e-07 1.06585e-05
0.00162113 -8.33544e-05 8.60277e-08
-8.33544e-05 9.65561e-05 9.91248e-08
8.60277e-08 9.91248e-08 -1.26882e-05
0.00153953 -8.63593e-05 -2.24999e-06
-8.63593e-05 8.98713e-05 -1.51747e-07
-2.24999e-06 -1.51747e-07 -2.19033e-05
0.00157608 -0.000106757 8.82151e-07
-0.000106757 0.00010057 -1.31738e-07
8.82151e-07 -1.31738e-07 -1.09821e-05
0.00149279 -0.000105713 1.421e-07
-0.000105713 9.55697e-05 2.68296e-07
1.421e-07 2.68296e-07 -1.92165e-05
0.00136497 -9.85476e-05 -4.42057e-06
-9.85476e-05 7.85969e-05 1.36511e-06
-4.42057e-06 1.36511e-06 -3.19493e-05
0.00118925 -0.000106155 1.94776e-06
-0.000106155 -2.42037e-05 -6.58183e-07
1.94776e-06 -6.58183e-07 -0.000140223
0.0012791 -0.000105076 2.78645e-08
-0.000105076 7.21247e-05 -5.12831e-08
2.78645e-08 -5.12831e-08 -3.84124e-05
0.00105178 -8.44156e-05 -7.68148e-06
-8.44156e-05 1.91115e-05 3.23869e-06
-7.68148e-06 3.23869e-06 -7.23957e-05
0.00086306 -9.78455e-05 3.92692e-06
-9.78455e-05 -0.000107698 -1.05563e-06
3.92692e-06 -1.05563e-06 -0.000219397
0.00100298 -8.94146e-05 2.77106e-07
-8.94146e-05 2.91807e-05 -1.26792e-08
2.77106e-07 -1.26792e-08 -6.20758e-05
0.00183976 -1.69638e-05 -8.16756e-06
-1.69638e-05 0.000596872 4.89526e-06
-8.16756e-06 4.89526e-06 0.000545312
0.0010895 2.55039e-05 -6.73749e-05
2.55039e-05 0.000234236 7.83103e-06
-6.73749e-05 7.83103e-06 0.000214573
0.00130494 -3.47677e-05 -6.93498e-07
-3.47677e-05 0.000310058 -9.7239e-08
-6.93498e-07 -9.7239e-08 0.000258569
0.000982903 -9.25083e-05 5.30678e-06
-9.25083e-05 6.03538e-05 -2.35743e-06
5.30678e-06 -2.35743e-06 -3.09858e-05
0.00346154 0.000112471 4.1615e-06
0.000112471 0.00151921 3.16584e-07
4.1615e-06 3.16584e-07 0.00151108
0.000769084 -4.10862e-05 8.59309e-06
-4.10862e-05 1.92945e-05 -6.16159e-06
8.59309e-06 -6.16159e-06 -2.87487e-05
0.00322747 9.64202e-05 6.4747e-05
9.64202e-05 0.00138021 -3.14012e-06
6.4747e-05 -3.14012e-06 0.00137745
0.0013946 0.000127383 -7.91792e-08
0.000127383 2.9228e-05 1.75347e-07
-7.91792e-08 1.75347e-07 -8.70014e-05
0.000855417 0.000120241 1.54954e-06
0.000120241 -0.00013047 1.44059e-06
1.54954e-06 1.44059e-06 -0.000255991
0.000853798 0.000120431 -1.68929e-07
0.000120431 -6.40533e-05 -8.29959e-08
-1.68929e-07 -8.29959e-08 -0.000194797
0.00113427 0.000118873 -2.65695e-06
0.000118873 0.000121453 -7.35868e-07
-2.65695e-06 -7.35868e-07 8.42905e-06
0.00049192 9.36221e-05 1.64104e-07
9.36221e-05 -0.000177312 1.40158e-06
1.64104e-07 1.40158e-06 -0.000298403
0.00102615 0.00010687 -3.9772e-07
0.00010687 0.0001102 -8.09765e-08
-3.9772e-07 -8.09765e-08 4.10906e-06
0.000968111 6.7635e-05 -3.65166e-06
6.7635e-05 0.000107086 -1.51496e-06
-3.65166e-06 -1.51496e-06 2.31993e-05
0.000879086 8.95926e-05 9.12977e-07
8.95926e-05 6.20937e-05 3.15392e-07
9.12977e-07 3.15392e-07 -3.36285e-05
0.00081556 3.57029e-05 -1.81166e-07
3.57029e-05 4.23241e-05 1.31382e-07
-1.81166e-07 1.31382e-07 -3.57328e-05
0.0007029 -1.73686e-05 -5.49344e-06
-1.73686e-05 -1.513e-06 -4.79227e-06
-5.49344e-06 -4.79227e-06 -4.00774e-05
0.000785121 -1.20353e-05 1.14928e-06
-1.20353e-05 3.13493e-05 1.7784e-06
1.14928e-06 1.7784e-06 -3.9249e-05
0.000605436 -6.22497e-05 -4.67422e-07
-6.22497e-05 -4.75014e-05 -1.25527e-07
-4.67422e-07 -1.25527e-07 -8.09441e-05
0.00277598 -9.09546e-05 -4.8588e-05
-9.09546e-05 0.00112979 -2.70744e-06
-4.8588e-05 -2.70744e-06 0.00113181
0.000596579 -6.19114e-05 1.55555e-06
-6.19114e-05 -5.74145e-05 4.31047e-06
1.55555e-06 4.31047e-06 -8.3091e-05
0.00252177 -8.2202e-05 -6.69008e-07
-8.2202e-05 0.000987466 1.09998e-07
-6.69008e-07 1.09998e-07 0.00099328
0.00231593 -7.28808e-05 3.3111e-05
-7.28808e-05 0.000870137 2.76397e-06
3.3111e-05 2.76397e-06 0.000879165
0.00178237 3.7734e-05 2.14068e-06
3.7734e-05 5.88887e-05 9.86633e-07
2.14068e-06 9.86633e-07 -3.33366e-05
0.00197047 1.83909e-07 -1.28386e-06
1.83909e-07 0.000170886 -7.65963e-07
-1.28386e-06 -7.65963e-07 0.000102951
0.00233549 -8.12264e-05 -8.12157e-06
-8.12264e-05 0.000363921 1.69049e-07
-8.12157e-06 1.69049e-07 0.000287153
0.00169781 0.0001373 -5.49332e-06
0.0001373 0.000105223 -9.60315e-07
-5.49332e-06 -9.60315e-07 -1.26206e-05
0.00171893 0.000158589 -1.04446e-06
0.000158589 0.000273049 3.83514e-07
-1.04446e-06 3.83514e-07 0.000150182
0.000737504 0.000112135 -8.25318e-06
0.000112135 -3.97604e-05 2.81025e-06
-8.25318e-06 2.81025e-06 -0.000145781
0.00151099 0.00014629 2.24036e-06
0.00014629 0.000120866 9.67662e-07
2.24036e-06 9.67662e-07 -2.05978e-06
0.0016317 0.000160287 -1.64933e-06
0.000160287 0.000280546 4.11896e-07
-1.64933e-06 4.11896e-07 0.000145863
0.00205569 0.000100786 -3.3754e-06
0.000100786 0.000209314 1.00137e-06
-3.3754e-06 1.00137e-06 9.68786e-05
0.00172465 0.000159491 -2.58245e-06
0.000159491 8.20723e-05 -8.26013e-07
-2.58245e-06 -8.26013e-07 -4.53957e-05
0.00171712 0.000180847 2.95345e-06
0.000180847 0.000216567 3.5883e-06
2.95345e-06 3.5883e-06 8.72951e-05
0.00177581 9.99792e-05 -5.84063e-07
9.99792e-05 7.09568e-05 4.1453e-08
-5.84063e-07 4.1453e-08 -4.0078e-05
0.0020735 0.000195865 3.15902e-06
0.000195865 0.000231053 -2.80379e-07
3.15902e-06 -2.80379e-07 9.65544e-05
0.00168799 8.25494e-05 -1.53881e-05
8.25494e-05 2.39063e-06 -5.70295e-06
-1.53881e-05 -5.70295e-06 -8.69168e-05
0.00191288 -1.37777e-06 1.52223e-07
-1.37777e-06 0.000122441 8.33257e-08
1.52223e-07 8.33257e-08 3.33146e-05
0.00175815 -6.21802e-06 8.11229e-08
-6.21802e-06 3.69264e-05 -4.3654e-07
8.11229e-08 -4.3654e-07 -4.45524e-05
0.00204504 8.01884e-06 -9.16347e-06
8.01884e-06 0.000268123 1.40657e-06
-9.16347e-06 1.40657e-06 0.000197121
0.00217566 -3.72788e-05 -4.82999e-06
-3.72788e-05 0.000234344 8.49427e-08
-4.82999e-06 8.49427e-08 0.000162258
0.00192095 -2.17958e-05 1.81613e-06
-2.17958e-05 0.000107454 1.03833e-06
1.81613e-06 1.03833e-06 3.05636e-05
0.00181215 -2.6803e-05 -2.72567e-07
-2.6803e-05 7.65309e-05 -2.09847e-07
-2.72567e-07 -2.09847e-07 -9.13562e-06
0.00182755 -1.34498e-05 7.40356e-08
-1.34498e-05 0.000108984 -5.22073e-07
7.40356e-08 -5.22073e-07 7.26944e-06
0.0018321 -3.984e-05 -1.12725e-08
-3.984e-05 0.000129353 1.83666e-07
-1.12725e-08 1.83666e-07 4.18094e-05
0.00171786 -3.13967e-05 -5.59138e-07
-3.13967e-05 8.61324e-05 -9.66659e-08
-5.59138e-07 -9.66659e-08 -1.40032e-05
0.00168923 -2.28936e-05 -5.94281e-07
-2.28936e-05 0.000102544 4.01197e-07
-5.94281e-07 4.01197e-07 -1.01722e-05
0.00164246 -4.91372e-05 -2.57325e-07
-4.91372e-05 7.77365e-05 3.49851e-08
-2.57325e-07 3.49851e-08 -2.43905e-05
0.00164296 -4.84356e-05 -1.14453e-07
-4.84356e-05 9.871e-05 -2.80072e-07
-1.14453e-07 -2.80072e-07 -1.12553e-05
0.00156719 -5.5419e-05 -2.13465e-06
-5.5419e-05 9.31322e-05 1.23162e-07
-2.13465e-06 1.23162e-07 -1.94838e-05
0.00161541 -8.23818e-05 1.20854e-06
-8.23818e-05 9.35415e-05 2.93301e-07
1.20854e-06 2.93301e-07 -1.56749e-05
0.00154752 -8.58693e-05 -4.34449e-08
-8.58693e-05 9.3782e-05 2.63651e-08
-4.34449e-08 2.63651e-08 -1.79389e-05
0.00141339 -8.25823e-05 -4.55228e-06
-8.25823e-05 7.57025e-05 5.73444e-07
-4.55228e-06 5.73444e-07 -3.2713e-05
0.00148159 -0.000104749 2.40222e-06
-0.000104749 8.97402e-05 -9.5597e-08
2.40222e-06 -9.5597e-08 -2.49466e-05
0.00135256 -9.73994e-05 1.10415e-07
-9.73994e-05 7.21429e-05 2.57001e-07
1.10415e-07 2.57001e-07 -3.8244e-05
0.00111253 -7.86832e-05 -8.42674e-06
-7.86832e-05 2.06479e-05 3.17537e-06
-8.42674e-06 3.17537e-06 -7.2163e-05
0.00126237 -0.000103725 4.22179e-06
-0.000103725 6.36288e-05 -1.39723e-06
4.22179e-06 -1.39723e-06 -4.67485e-05
0.00105669 -8.40801e-05 3.30994e-07
-8.40801e-05 2.10775e-05 -5.84494e-08
3.30994e-07 -5.84494e-08 -7.0473e-05
0.00196844 -1.40887e-05 -8.17267e-06
-1.40887e-05 0.00065033 4.85883e-06
-8.17267e-06 4.85883e-06 0.000598628
0.0010068 -8.98793e-05 6.5135e-06
-8.98793e-05 3.14436e-05 -2.78687e-06
6.5135e-06 -2.78687e-06 -6.00245e-05
0.00205142 -4.24913e-05 2.13004e-05
-4.24913e-05 0.000701656 -1.24571e-06
2.13004e-05 -1.24571e-06 0.000652576
0.00129269 -1.93517e-05 -8.74075e-05
-1.93517e-05 0.000348789 9.59443e-06
-8.74075e-05 9.59443e-06 0.00032902
0.00240039 4.63766e-05 -6.90041e-05
4.63766e-05 0.000951579 1.65444e-06
-6.90041e-05 1.65444e-06 0.000937601
0.00210785 -5.46179e-05 4.52421e-05
-5.46179e-05 0.000735366 -5.59871e-06
4.52421e-05 -5.59871e-06 0.000691313
0.00354052 8.65493e-05 7.89727e-05
8.65493e-05 0.00156124 -4.12109e-06
7.89727e-05 -4.12109e-06 0.00155514
0.00165002 0.000117026 -3.54553e-06
0.000117026 9.15788e-05 -2.99352e-06
-3.54553e-06 -2.99352e-06 -2.56319e-05
0.0016268 0.000139571 3.73413e-06
0.000139571 0.000215486 2.0396e-07
3.73413e-06 2.0396e-07 9.75365e-05
0.00136729 0.000127873 1.08033e-06
0.000127873 2.07627e-05 1.21585e-06
1.08033e-06 1.21585e-06 -8.89929e-05
0.00116799 0.000123558 -3.03777e-06
0.000123558 8.32013e-05 -8.50219e-07
-3.03777e-06 -8.50219e-07 -3.30173e-05
0.00118424 0.000136013 -2.04848e-07
0.000136013 4.04704e-05 1.10135e-07
-2.04848e-07 1.10135e-07 -8.61569e-05
0.00109312 0.000133225 1.55604e-06
0.000133225 5.47692e-05 5.8919e-07
1.55604e-06 5.8919e-07 -7.7661e-05
0.00109828 0.000117272 -3.21335e-07
0.000117272 0.000104418 1.95278e-09
-3.21335e-07 1.95278e-09 -8.78509e-06
0.00098638 8.7705e-05 -4.3471e-06
8.7705e-05 8.7955e-05 -1.90104e-06
-4.3471e-06 -1.90104e-06 -1.23169e-06
0.000918497 0.000100093 1.12614e-06
0.000100093 5.5209e-05 6.70923e-07
1.12614e-06 6.70923e-07 -5.00424e-05
0.000854923 6.30255e-05 -2.99268e-07
6.30255e-05 4.68172e-05 -2.75316e-08
-2.99268e-07 -2.75316e-08 -3.5857e-05
0.00075721 1.70003e-05 -7.05798e-06
1.70003e-05 2.30318e-05 -5.18469e-06
-7.05798e-06 -5.18469e-06 -2.21515e-05
0.000710302 2.90052e-05 1.57138e-06
2.90052e-05 -1.27202e-05 1.34774e-06
1.57138e-06 1.34774e-06 -9.01322e-05
0.000628668 -3.21136e-05 7.69742e-08
-3.21136e-05 -3.83412e-05 -1.68212e-07
7.69742e-08 -1.68212e-07 -7.69811e-05
0.00299921 -9.90161e-05 -5.73197e-05
-9.90161e-05 0.00126044 -2.6396e-06
-5.73197e-05 -2.6396e-06 0.00125811
0.000547574 -7.09581e-05 1.95062e-07
-7.09581e-05 -7.58011e-05 5.02209e-06
1.95062e-07 5.02209e-06 -0.000110606
0.00273545 -9.24523e-05 -1.03335e-06
-9.24523e-05 0.00110784 1.56249e-07
-1.03335e-06 1.56249e-07 0.00111007
0.00247915 -8.21303e-05 3.6939e-05
-8.21303e-05 0.000964433 2.53477e-06
3.6939e-05 2.53477e-06 0.000970555
0.00188435 4.16717e-05 -2.55956e-06
4.16717e-05 0.000101601 8.02289e-07
-2.55956e-06 8.02289e-07 3.46773e-06
0.00173643 3.73163e-05 6.19179e-07
3.73163e-05 3.6723e-05 -1.64437e-07
6.19179e-07 -1.64437e-07 -5.55694e-05
0.00237748 -4.59551e-06 -2.50345e-05
-4.59551e-06 0.000422181 -2.28257e-06
-2.50345e-05 -2.28257e-06 0.000356396
0.00187879 9.2179e-05 -8.13782e-07
9.2179e-05 0.000145804 5.80479e-07
-8.13782e-07 5.80479e-07 3.3516e-05
0.00179255 0.000140065 -4.01064e-07
0.000140065 0.000158655 -7.09515e-07
-4.01064e-07 -7.09515e-07 3.99903e-05
0.00162347 0.000154505 -2.39647e-06
0.000154505 0.000239017 1.7755e-06
-2.39647e-06 1.7755e-06 0.000119784
0.00196196 0.000162047 1.60763e-06
0.000162047 0.000355208 -4.52052e-07
1.60763e-06 -4.52052e-07 0.000233433
0.00191909 9.7676e-05 -7.32158e-08
9.7676e-05 0.000136512 -9.15087e-08
-7.32158e-08 -9.15087e-08 2.39374e-05
0.00168403 0.000161358 1.60112e-06
0.000161358 6.111e-05 2.78651e-07
1.60112e-06 2.78651e-07 -6.89792e-05
0.00172949 0.000100616 2.4919e-07
0.000100616 4.60211e-05 -1.35313e-06
2.4919e-07 -1.35313e-06 -6.54584e-05
0.00183258 7.26753e-06 7.40855e-07
7.26753e-06 9.00294e-05 5.42488e-08
7.40855e-07 5.42488e-08 -9.10778e-06
0.00186308 -3.04172e-07 -4.06853e-07
-3.04172e-07 9.56559e-05 -5.54382e-08
-4.06853e-07 -5.54382e-08 5.37925e-06
0.00179997 -2.01145e-06 -2.67766e-06
-2.01145e-06 6.21909e-05 1.005e-07
-2.67766e-06 1.005e-07 -1.84637e-05
0.00175807 2.73613e-06 -4.33587e-07
2.73613e-06 7.00608e-05 -2.43617e-07
-4.33587e-07 -2.43617e-07 -3.59584e-05
0.00187101 -2.53318e-05 -1.06463e-06
-2.53318e-05 0.0001035 5.03711e-07
-1.06463e-06 5.03711e-07 1.96982e-05
0.00183055 -1.3169e-05 -1.41663e-07
-1.3169e-05 0.000111506 2.56206e-07
-1.41663e-07 2.56206e-07 1.00193e-05
0.00180025 -5.59771e-06 1.7491e-07
-5.59771e-06 0.000134683 -8.24649e-07
1.7491e-07 -8.24649e-07 2.28081e-05
0.00168068 -3.24626e-05 -8.07772e-07
-3.24626e-05 7.28999e-05 4.57142e-07
-8.07772e-07 4.57142e-07 -2.73897e-05
0.00168759 -2.28693e-05 -1.84075e-07
-2.28693e-05 0.000100119 3.45244e-07
-1.84075e-07 3.45244e-07 -1.25716e-05
0.0016067 -2.4354e-05 -2.6407e-06
-2.4354e-05 9.58192e-05 1.35525e-06
-2.6407e-06 1.35525e-06 -2.13734e-05
0.00160705 -4.7334e-05 7.98188e-07
-4.7334e-05 8.034e-05 -4.54556e-07
7.98188e-07 -4.54556e-07 -2.95264e-05
0.00157028 -5.38282e-05 -6.56133e-08
-5.38282e-05 9.46059e-05 -3.92742e-07
-6.56133e-08 -3.92742e-07 -1.79569e-05
0.00142 -5.95059e-05 -4.35558e-06
-5.95059e-05 6.61187e-05 4.86923e-07
-4.35558e-06 4.86923e-07 -4.23716e-05
0.00155512 -8.5286e-05 2.48384e-06
-8.5286e-05 9.74819e-05 1.71477e-07
2.48384e-06 1.71477e-07 -1.41765e-05
0.0014092 -8.17422e-05 -4.98552e-08
-8.17422e-05 7.34189e-05 1.50598e-07
-4.98552e-08 1.50598e-07 -3.48944e-05
0.00115167 -6.77257e-05 -8.90059e-06
-6.77257e-05 1.94189e-05 2.26403e-06
-8.90059e-06 2.26403e-06 -7.31243e-05
0.00133938 -9.61824e-05 4.61533e-06
-9.61824e-05 6.52691e-05 -8.48808e-07
4.61533e-06 -8.48808e-07 -4.49508e-05
0.00110817 -7.71973e-05 3.77465e-07
-7.71973e-05 1.70727e-05 2.1202e-07
3.77465e-07 2.1202e-07 -7.55082e-05
0.00210645 -3.84021e-05 -1.52618e-05
-3.84021e-05 0.000699117 3.83766e-06
-1.52618e-05 3.83766e-06 0.000652513
0.00105254 -8.34701e-05 7.60034e-06
-8.34701e-05 1.83069e-05 -3.2598e-06
7.60034e-06 -3.2598e-06 -7.32758e-05
0.00215386 -5.5249e-05 1.99814e-05
-5.5249e-05 0.000738126 -1.57579e-06
1.99814e-05 -1.57579e-06 0.000691445
0.00139454 -2.04531e-05 -9.00148e-05
-2.04531e-05 0.000402963 9.26672e-06
-9.00148e-05 9.26672e-06 0.00038155
0.00224175 -7.3169e-05 5.3018e-05
-7.3169e-05 0.000792783 -8.01573e-06
5.3018e-05 -8.01573e-06 0.000747265
0.00129367 3.29662e-05 -4.27645e-05
3.29662e-05 0.000361767 2.89634e-06
-4.27645e-05 2.89634e-06 0.000334268
0.0036319 0.000175482 8.12829e-06
0.000175482 0.00163991 -2.14784e-06
8.12829e-06 -2.14784e-06 0.00161613
0.00183412 8.56997e-05 -1.60606e-06
8.56997e-05 0.000169351 -2.43849e-07
-1.60606e-06 -2.43849e-07 5.30659e-05
0.00159836 0.000113975 -9.9315e-07
0.000113975 0.000113214 -2.76614e-06
-9.9315e-07 -2.76614e-06 -4.09135e-06
0.001729 0.000120823 -2.76444e-06
0.000120823 0.000142985 8.65885e-07
-2.76444e-06 8.65885e-07 2.69282e-05
0.00166941 0.000135799 -2.07522e-06
0.000135799 0.000290431 -3.941e-07
-2.07522e-06 -3.941e-07 0.000176594
0.00142509 0.000134695 4.53569e-07
0.000134695 0.000105989 -1.28181e-06
4.53569e-07 -1.28181e-06 -1.13555e-05
0.00135148 0.000128772 3.0406e-06
0.000128772 1.7915e-05 2.14028e-06
3.0406e-06 2.14028e-06 -8.53427e-05
0.00100694 9.70407e-05 -5.86302e-06
9.70407e-05 5.43537e-05 -2.5956e-06
-5.86302e-06 -2.5956e-06 -4.00531e-05
0.00118766 0.000125202 -1.69795e-07
0.000125202 9.41903e-05 -4.64231e-09
-1.69795e-07 -4.64231e-09 -2.25833e-05
0.00153645 0.000152665 2.87052e-06
0.000152665 0.000223554 9.49827e-08
2.87052e-06 9.49827e-08 9.57676e-05
0.00105695 0.000115479 2.1544e-06
0.000115479 8.462e-05 8.17342e-07
2.1544e-06 8.17342e-07 -2.87522e-05
0.000915167 8.34113e-05 -3.36127e-07
8.34113e-05 5.05296e-05 -1.63779e-07
-3.36127e-07 -1.63779e-07 -3.81095e-05
0.000785652 5.83725e-05 -9.56913e-06
5.83725e-05 3.48053e-05 -6.05218e-06
-9.56913e-06 -6.05218e-06 -1.74658e-05
0.000750356 5.8414e-05 2.59309e-06
5.8414e-05 -8.84646e-06 1.26683e-06
2.59309e-06 1.26683e-06 -9.04728e-05
0.000672417 1.23988e-05 8.1652e-08
1.23988e-05 -1.6257e-05 -3.84561e-08
8.1652e-08 -3.84561e-08 -6.20383e-05
0.00327694 -8.9264e-05 -7.18869e-05
-8.9264e-05 0.00142442 -3.37858e-06
-7.18869e-05 -3.37858e-06 0.00141874
0.000567818 -5.05001e-05 1.51284e-06
-5.05001e-05 -6.60029e-05 5.23439e-06
1.51284e-06 5.23439e-06 -0.000105961
0.00296487 -0.000104484 -1.5612e-06
-0.000104484 0.00124072 2.40044e-07
-1.5612e-06 2.40044e-07 0.00123816
0.00270264 -9.31983e-05 4.16565e-05
-9.31983e-05 0.00108976 2.42913e-06
4.16565e-05 2.42913e-06 0.00109236
0.0017835 4.18271e-05 4.66167e-08
4.18271e-05 6.98263e-05 6.05652e-07
4.66167e-08 6.05652e-07 -3.34883e-05
0.00182647 4.36347e-05 -7.56312e-07
4.36347e-05 6.92899e-05 1.69205e-07
-7.56312e-07 1.69205e-07 -2.9067e-05
0.00172072 3.69848e-05 -1.7114e-06
3.69848e-05 2.70315e-05 -1.33436e-06
-1.7114e-06 -1.33436e-06 -6.52797e-05
0.00185337 9.05313e-05 7.91044e-07
9.05313e-05 0.000129222 -1.06025e-07
7.91044e-07 -1.06025e-07 1.86341e-05
0.00188644 0.000143138 1.13279e-06
0.000143138 0.000212091 -4.28904e-07
1.13279e-06 -4.28904e-07 9.25164e-05
0.00179182 9.4429e-05 2.60747e-06
9.4429e-05 6.92023e-05 -1.15569e-06
2.60747e-06 -1.15569e-06 -4.34395e-05
0.00184578 1.11182e-05 -3.72962e-07
1.11182e-05 0.00011095 1.15806e-07
-3.72962e-07 1.15806e-07 5.79858e-06
0.00186479 9.23565e-06 3.40496e-07
9.23565e-06 0.000106378 -1.64718e-07
3.40496e-07 -1.64718e-07 6.60671e-06
0.00182761 1.51711e-06 5.23332e-07
1.51711e-06 7.53564e-05 -9.08266e-08
5.23332e-07 -9.08266e-08 -1.60653e-05
0.00178944 -5.49794e-06 -8.03612e-07
-5.49794e-06 8.70676e-05 1.36753e-07
-8.03612e-07 1.36753e-07 -1.79928e-05
0.00178757 -6.21928e-07 6.24819e-07
-6.21928e-07 0.000114388 -6.22582e-07
6.24819e-07 -6.22582e-07 2.73346e-06
0.00183389 -1.29016e-05 -3.34074e-07
-1.29016e-05 0.000114183 6.53392e-07
-3.34074e-07 6.53392e-07 1.29329e-05
0.0017552 -5.48375e-06 2.19718e-07
-5.48375e-06 0.000109395 1.38836e-08
2.19718e-07 1.38836e-08 -3.5509e-06
0.00165519 -4.63951e-06 -5.71178e-07
-4.63951e-06 9.70052e-05 -5.11115e-07
-5.71178e-07 -5.11115e-07 -2.12988e-05
0.00167153 -2.33939e-05 5.13344e-07
-2.33939e-05 9.03282e-05 2.62339e-07
5.13344e-07 2.62339e-07 -2.23836e-05
0.00159916 -2.50713e-05 -7.53178e-07
-2.50713e-05 9.22323e-05 7.02041e-07
-7.53178e-07 7.02041e-07 -2.4982e-05
0.00147964 -3.06162e-05 -5.2981e-06
-3.06162e-05 8.07705e-05 1.94807e-06
-5.2981e-06 1.94807e-06 -3.27279e-05
0.00157571 -5.37639e-05 1.79066e-06
-5.37639e-05 9.72042e-05 -8.87657e-07
1.79066e-06 -8.87657e-07 -1.53449e-05
0.00143891 -5.86935e-05 9.42341e-09
-5.86935e-05 7.52558e-05 -3.98312e-07
9.42341e-09 -3.98312e-07 -3.32117e-05
0.0011453 -5.00031e-05 -8.76828e-06
-5.00031e-05 4.85931e-06 1.62114e-06
-8.76828e-06 1.62114e-06 -8.72734e-05
0.00140275 -8.0785e-05 4.61918e-06
-8.0785e-05 6.9951e-05 -3.0015e-07
4.61918e-06 -3.0015e-07 -3.8255e-05
0.00114839 -6.56597e-05 1.19485e-07
-6.56597e-05 1.65832e-05 2.36705e-07
1.19485e-07 2.36705e-07 -7.56088e-05
0.00220476 -4.46227e-05 -1.91287e-05
-4.46227e-05 0.000735164 2.77411e-06
-1.91287e-05 2.77411e-06 0.000690436
0.00110155 -7.58221e-05 8.55072e-06
-7.58221e-05 1.22376e-05 -2.75228e-06
8.55072e-06 -2.75228e-06 -8.01146e-05
0.00223445 -6.09196e-05 1.91867e-05
-6.09196e-05 0.000762507 -1.43095e-06
1.91867e-05 -1.43095e-06 0.000717712
0.0015183 -1.99847e-05 -9.34497e-05
-1.99847e-05 0.000459567 8.0754e-06
-9.34497e-05 8.0754e-06 0.000438216
0.00232221 -7.59781e-05 5.63473e-05
-7.59781e-05 0.000821555 -7.58895e-06
5.63473e-05 -7.58895e-06 0.000776771
0.00136058 3.40013e-05 -4.63156e-05
3.40013e-05 0.000396885 2.69658e-06
-4.63156e-05 2.69658e-06 0.000368184
0.00134214 9.55502e-05 5.98969e-07
9.55502e-05 0.000404005 -4.06242e-06
5.98969e-07 -4.06242e-06 0.000366748
0.00174219 4.19634e-05 -2.877e-07
4.19634e-05 9.52957e-05 6.2305e-07
-2.877e-07 6.2305e-07 -1.43241e-05
0.00160377 8.36814e-05 -2.81548e-06
8.36814e-05 8.83291e-05 -6.39051e-07
-2.81548e-06 -6.39051e-07 -2.81058e-05
0.00174153 8.5152e-05 -1.46887e-06
8.5152e-05 0.000121799 -3.2539e-07
-1.46887e-06 -3.2539e-07 5.79251e-06
0.00158155 0.000114794 -3.54565e-06
0.000114794 0.000170716 -1.23683e-06
-3.54565e-06 -1.23683e-06 5.73317e-05
0.00175406 0.000119335 1.29649e-06
0.000119335 0.000196552 4.33078e-07
1.29649e-06 4.33078e-07 7.89266e-05
0.00180116 0.00012446 3.8482e-06
0.00012446 0.000191268 1.81448e-06
3.8482e-06 1.81448e-06 7.63193e-05
0.000997615 9.5616e-05 -7.15564e-06
9.5616e-05 -1.2189e-06 -2.83809e-06
-7.15564e-06 -2.83809e-06 -9.72112e-05
0.00130268 0.000123841 2.1152e-06
0.000123841 9.32753e-05 8.10804e-07
2.1152e-06 8.10804e-07 -2.17059e-05
0.00122787 0.000130026 1.22578e-06
0.000130026 -1.32393e-06 1.22947e-06
1.22578e-06 1.22947e-06 -0.000118084
0.000759062 8.75019e-05 -1.34025e-05
8.75019e-05 9.80243e-06 -6.6334e-06
-1.34025e-05 -6.6334e-06 -4.68471e-05
0.000983376 9.49077e-05 -4.97078e-07
9.49077e-05 4.21795e-05 -1.00092e-07
-4.97078e-07 -1.00092e-07 -5.18505e-05
0.00120871 0.000126863 3.46434e-06
0.000126863 0.000105942 1.12502e-06
3.46434e-06 1.12502e-06 -1.13927e-05
0.000863072 7.97044e-05 3.83883e-06
7.97044e-05 2.34936e-05 1.75694e-06
3.83883e-06 1.75694e-06 -6.46841e-05
0.00067729 5.13523e-05 -4.72453e-08
5.13523e-05 -1.68805e-05 3.26649e-08
-4.72453e-08 3.26649e-08 -6.90741e-05
0.00369809 -7.35731e-05 -8.30743e-05
-7.35731e-05 0.00166465 -5.28914e-06
-8.30743e-05 -5.28914e-06 0.0016541
0.000603798 5.36982e-06 4.8479e-06
5.36982e-06 -4.90687e-05 5.36102e-06
4.8479e-06 5.36102e-06 -9.40172e-05
0.00322078 -0.000114792 -3.74708e-06
-0.000114792 0.00139376 3.25629e-07
-3.74708e-06 3.25629e-07 0.00138588
0.00293223 -0.00010558 4.7032e-05
-0.00010558 0.00122109 2.4049e-06
4.7032e-05 2.4049e-06 0.00121909
0.00182113 2.43971e-05 1.55744e-07
2.43971e-05 0.000107252 -1.77107e-07
1.55744e-07 -1.77107e-07 1.13311e-06
0.00180325 4.10134e-05 -3.00847e-07
4.10134e-05 7.93639e-05 1.37066e-07
-3.00847e-07 1.37066e-07 -2.37113e-05
0.00176373 4.51244e-05 3.23623e-06
4.51244e-05 3.45519e-05 -6.54425e-07
3.23623e-06 -6.54425e-07 -6.40349e-05
0.00182861 8.87532e-05 2.2378e-06
8.87532e-05 0.000112619 -4.46426e-07
2.2378e-06 -4.46426e-07 3.7418e-06
0.00177409 -1.97671e-06 9.66024e-08
-1.97671e-06 9.9575e-05 -1.48387e-07
9.66024e-08 -1.48387e-07 -1.21151e-05
0.00187663 8.59677e-06 -1.5975e-07
8.59677e-06 0.00012595 -5.05546e-08
-1.5975e-07 -5.05546e-08 2.07974e-05
0.00189163 1.06765e-05 -1.30298e-07
1.06765e-05 0.00012001 1.61633e-07
-1.30298e-07 1.61633e-07 1.96052e-05
0.0018305 -1.00852e-05 -1.40318e-06
-1.00852e-05 0.00010951 2.21058e-07
-1.40318e-06 2.21058e-07 5.35594e-06
0.00177532 4.63322e-06 -3.26301e-07
4.63322e-06 0.000107208 -8.34308e-08
-3.26301e-07 -8.34308e-08 -3.92337e-06
0.00181228 6.21927e-06 -4.86742e-07
6.21927e-06 0.00017014 -4.65051e-07
-4.86742e-07 -4.65051e-07 5.41552e-05
0.00172423 -5.365e-06 4.14858e-07
-5.365e-06 9.1268e-05 7.02563e-07
4.14858e-07 7.02563e-07 -2.27249e-05
0.00170532 -3.79069e-06 7.03239e-07
-3.79069e-06 0.000124879 -1.97517e-07
7.03239e-07 -1.97517e-07 6.44915e-06
0.0013984 -5.96282e-06 -4.28202e-06
-5.96282e-06 1.05618e-05 6.43584e-07
-4.28202e-06 6.43584e-07 -0.000107027
0.0015834 -2.42094e-05 8.5818e-07
-2.42094e-05 8.45608e-05 6.26879e-08
8.5818e-07 6.26879e-08 -3.26509e-05
0.00146377 -2.81704e-05 -5.13843e-07
-2.81704e-05 7.2437e-05 4.82496e-07
-5.13843e-07 4.82496e-07 -4.09426e-05
0.0011723 -2.86221e-05 -8.71351e-06
-2.86221e-05 4.12974e-06 2.00451e-06
-8.71351e-06 2.00451e-06 -9.11193e-05
0.0014516 -5.57845e-05 4.17973e-06
-5.57845e-05 8.12397e-05 -1.25515e-06
4.17973e-06 -1.25515e-06 -2.71087e-05
0.00117162 -5.00723e-05 -7.03362e-08
-5.00723e-05 1.74621e-05 -1.04528e-07
-7.03362e-08 -1.04528e-07 -7.45716e-05
0.000687011 -3.21776e-05 -1.331e-05
-3.21776e-05 -9.12472e-05 2.88065e-06
-1.331e-05 2.88065e-06 -0.000143892
0.00114574 -6.37955e-05 8.90181e-06
-6.37955e-05 1.39776e-05 -1.87782e-06
8.90181e-06 -1.87782e-06 -7.78623e-05
0.00148306 -5.12556e-05 2.37829e-05
-5.12556e-05 0.000343411 -1.01306e-06
2.37829e-05 -1.01306e-06 0.000296103
0.00468127 -2.27154e-05 -0.000111762
-2.27154e-05 0.00215842 4.43971e-06
-0.000111762 4.43971e-06 0.00215421
0.00236626 -6.71423e-05 5.85692e-05
-6.71423e-05 0.000828872 -6.42876e-06
5.85692e-05 -6.42876e-06 0.000785203
0.00142796 9.18146e-06 -4.19328e-05
9.18146e-06 0.000417277 2.87133e-06
-4.19328e-05 2.87133e-06 0.000392678
0.00137006 4.74247e-05 8.90634e-06
4.74247e-05 0.000404358 -3.10989e-06
8.90634e-06 -3.10989e-06 0.000374653
0.00173168 2.35666e-05 4.1216e-07
2.35666e-05 9.50912e-05 6.50287e-08
4.1216e-07 6.50287e-08 -1.33942e-05
0.00160273 4.63019e-05 -1.61732e-06
4.63019e-05 7.3533e-05 4.314e-07
-1.61732e-06 4.314e-07 -4.04132e-05
0.00183231 4.09781e-05 -2.39553e-07
4.09781e-05 0.000144314 -2.07071e-07
-2.39553e-07 -2.07071e-07 3.47175e-05
0.00118138 7.99354e-05 -4.98533e-06
7.99354e-05 -8.05837e-05 -1.56568e-06
-4.98533e-06 -1.56568e-06 -0.000193533
0.00163473 8.48643e-05 7.60155e-08
8.48643e-05 0.000105806 -5.68298e-09
7.60155e-08 -5.68298e-09 -1.0445e-05
0.00165689 8.50135e-05 4.9492e-08
8.50135e-05 7.84336e-05 -4.47952e-07
4.9492e-08 -4.47952e-07 -3.73088e-05
0.00065102 7.3292e-05 -9.92526e-06
7.3292e-05 -0.000240009 -3.16334e-06
-9.92526e-06 -3.16334e-06 -0.000337927
0.00162792 0.000118073 1.00589e-06
0.000118073 0.000194488 2.09269e-07
1.00589e-06 2.09269e-07 8.08105e-05
0.00191848 0.000125061 3.54636e-06
0.000125061 0.00028438 1.25241e-06
3.54636e-06 1.25241e-06 0.000166444
0.000709708 9.15138e-05 -1.4122e-05
9.15138e-05 -3.82349e-05 -6.30718e-06
-1.4122e-05 -6.30718e-06 -9.59616e-05
0.000781783 8.76911e-05 3.84416e-08
8.76911e-05 -0.000118676 1.05472e-07
3.84416e-08 1.05472e-07 -0.000215809
0.000931029 0.000111721 5.20514e-06
0.000111721 -0.000106521 2.18959e-06
5.20514e-06 2.18959e-06 -0.000222626
0.00420933 -7.42543e-05 -8.83797e-05
-7.42543e-05 0.00194537 -6.71364e-06
-8.83797e-05 -6.71364e-06 0.00192917
0.000659815 7.61396e-05 3.21913e-07
7.61396e-05 -3.88178e-05 1.14657e-07
3.21913e-07 1.14657e-07 -9.52891e-05
0.000954205 9.25822e-05 5.45272e-06
9.25822e-05 2.74912e-05 2.63646e-06
5.45272e-06 2.63646e-06 -6.62144e-05
0.000575274 4.42621e-05 7.48899e-06
4.42621e-05 -6.60566e-05 5.92389e-06
7.48899e-06 5.92389e-06 -0.000118133
0.00354003 -0.000106312 -5.57616e-06
-0.000106312 0.00158053 2.49616e-07
-5.57616e-06 2.49616e-07 0.00156881
0.00313079 -0.000119351 5.16201e-05
-0.000119351 0.00134295 2.40195e-06
5.16201e-05 2.40195e-06 0.00133507
0.00177949 8.6766e-06 -7.76793e-07
8.6766e-06 0.000105641 -4.02778e-07
-7.76793e-07 -4.02778e-07 -4.90102e-06
0.00182513 2.38666e-05 -3.90137e-07
2.38666e-05 0.000106373 6.98025e-08
-3.90137e-07 6.98025e-08 4.52541e-07
0.00183083 4.06137e-05 7.40602e-07
4.06137e-05 9.33542e-05 -3.33989e-07
7.40602e-07 -3.33989e-07 -9.48352e-06
0.00179652 9.15808e-06 -3.62997e-07
9.15808e-06 0.00015384 -2.42772e-07
-3.62997e-07 -2.42772e-07 3.78004e-05
0.00176721 1.6821e-06 -2.93231e-07
1.6821e-06 9.75317e-05 2.15156e-08
-2.93231e-07 2.15156e-08 -1.37104e-05
0.00190132 3.14776e-06 -6.40156e-07
3.14776e-06 0.000137513 1.99456e-07
-6.40156e-07 1.99456e-07 3.23944e-05
0.00175182 8.31946e-06 -4.20027e-07
8.31946e-06 9.37769e-05 6.07487e-07
-4.20027e-07 6.07487e-07 -1.6771e-05
0.00179507 8.88095e-06 8.43337e-07
8.88095e-06 0.00016058 -1.4576e-07
8.43337e-07 -1.4576e-07 4.45657e-05
0.00178038 3.82574e-06 -3.10391e-06
3.82574e-06 0.000198216 -7.19569e-08
-3.10391e-06 -7.19569e-08 8.39846e-05
0.0017631 -2.93018e-06 2.3525e-06
-2.93018e-06 0.00015667 -1.67059e-08
2.3525e-06 -1.67059e-08 3.81225e-05
0.00166022 -3.79468e-06 2.77355e-08
-3.79468e-06 0.000152345 6.26783e-08
2.77355e-08 6.26783e-08 3.66074e-05
0.000820918 -7.91705e-06 -1.0736e-05
-7.91705e-06 -0.000211115 2.09759e-06
-1.0736e-05 2.09759e-06 -0.000314141
0.00146594 -2.80339e-05 3.59808e-06
-2.80339e-05 7.33301e-05 -9.16199e-07
3.59808e-06 -9.16199e-07 -4.00157e-05
0.00118724 -2.63048e-05 1.77956e-08
-2.63048e-05 1.09127e-05 -6.78833e-08
1.77956e-08 -6.78833e-08 -8.42079e-05
0.000698387 -1.76114e-05 -1.31695e-05
-1.76114e-05 -9.3901e-05 2.33083e-06
-1.31695e-05 2.33083e-06 -0.00014915
0.00119376 -4.87402e-05 9.03893e-06
-4.87402e-05 2.78117e-05 -1.96943e-06
9.03893e-06 -1.96943e-06 -6.40249e-05
0.000690308 -2.4911e-05 -1.48112e-07
-2.4911e-05 -9.02577e-05 2.82243e-08
-1.48112e-07 2.82243e-08 -0.000142777
0.00466658 -2.72077e-05 -0.000111758
-2.72077e-05 0.00214919 3.43133e-06
-0.000111758 3.43133e-06 0.00214519
0.000738783 -4.62339e-05 1.47512e-05
-4.62339e-05 -5.94255e-05 -4.69838e-06
1.47512e-05 -4.69838e-06 -0.000112394
0.00305536 -6.02321e-06 4.45717e-05
-6.02321e-06 0.00128351 3.56596e-07
4.45717e-05 3.56596e-07 0.00126851
0.00133892 6.42536e-06 1.65089e-05
6.42536e-06 0.000373727 -2.54594e-06
1.65089e-05 -2.54594e-06 0.000347319
0.00176775 1.30887e-05 -6.93011e-08
1.30887e-05 0.00012957 -2.01071e-07
-6.93011e-08 -2.01071e-07 1.95395e-05
0.00171357 2.47582e-05 -1.00309e-06
2.47582e-05 0.000129377 5.94679e-08
-1.00309e-06 5.94679e-08 1.76623e-05
0.00174982 2.23809e-05 -7.694e-08
2.23809e-05 0.000104066 -7.10226e-08
-7.694e-08 -7.10226e-08 -4.23675e-06
0.00143787 5.45738e-05 -4.04832e-06
5.45738e-05 4.38071e-05 -4.81072e-07
-4.04832e-06 -4.81072e-07 -6.6611e-05
0.00157535 4.54669e-05 3.13558e-07
4.54669e-05 5.82962e-05 2.5163e-07
3.13558e-07 2.5163e-07 -5.59382e-05
0.00192333 3.98554e-05 -4.42814e-07
3.98554e-05 0.000193683 -6.17469e-07
-4.42814e-07 -6.17469e-07 8.41176e-05
0.000718027 6.02879e-05 -1.04406e-05
6.02879e-05 -0.000236447 -2.82689e-06
-1.04406e-05 -2.82689e-06 -0.000333115
0.00154729 9.01442e-05 -1.37049e-06
9.01442e-05 0.000116683 -4.64671e-07
-1.37049e-06 -4.64671e-07 5.23523e-06
0.0016571 8.57469e-05 2.95472e-06
8.57469e-05 0.000118905 2.38453e-07
2.95472e-06 2.38453e-07 2.83751e-06
0.000675216 7.57041e-05 -1.41391e-05
7.57041e-05 -8.09503e-05 -5.12215e-06
-1.41391e-05 -5.12215e-06 -0.000137131
0.000682096 7.51092e-05 -2.5028e-06
7.51092e-05 -0.000225451 -5.88138e-07
-2.5028e-06 -5.88138e-07 -0.000323981
0.00167454 0.000121381 5.76721e-06
0.000121381 0.000218387 1.4113e-06
5.76721e-06 1.4113e-06 0.000104419
0.00459527 -6.44776e-05 -9.44111e-05
-6.44776e-05 0.00214213 -6.65025e-06
-9.44111e-05 -6.65025e-06 0.00212697
0.00064664 8.44881e-05 9.18311e-07
8.44881e-05 -6.97957e-05 2.05107e-07
9.18311e-07 2.05107e-07 -0.00012722
0.000558691 7.93994e-05 7.05375e-06
7.93994e-05 -0.000239858 3.09551e-06
7.05375e-06 3.09551e-06 -0.000338125
0.00396044 -8.29511e-05 -3.51523e-06
-8.29511e-05 0.00181092 2.27397e-07
-3.51523e-06 2.27397e-07 0.00179703
0.000545126 6.88623e-05 1.00904e-05
6.88623e-05 -9.66933e-05 6.4257e-06
1.00904e-05 6.4257e-06 -0.000152499
0.00337067 -0.000130059 5.81057e-05
-0.000130059 0.00149028 2.62814e-06
5.81057e-05 2.62814e-06 0.00147679
0.00180213 1.17734e-05 -7.64727e-07
1.17734e-05 0.000156366 -5.32982e-07
-7.64727e-07 -5.32982e-07 4.16939e-05
0.00179151 9.02704e-06 3.75102e-08
9.02704e-06 0.000115175 7.24643e-08
3.75102e-08 7.24643e-08 4.46823e-06
0.00182794 2.34573e-05 -3.6553e-07
2.34573e-05 0.000104749 5.2815e-08
-3.6553e-07 5.2815e-08 -9.71637e-07
0.00176418 -2.0078e-06 -3.41695e-06
-2.0078e-06 0.000187069 -1.23912e-07
-3.41695e-06 -1.23912e-07 7.38535e-05
0.001807 8.69867e-06 6.76407e-07
8.69867e-06 0.000159971 -3.46864e-08
6.76407e-07 -3.46864e-08 4.4408e-05
0.00177268 7.78893e-06 7.47437e-07
7.78893e-06 0.000102116 1.71536e-07
7.47437e-07 1.71536e-07 -8.75917e-06
0.00178108 1.03155e-05 1.69875e-06
1.03155e-05 0.00015278 3.28747e-07
1.69875e-06 3.28747e-07 3.67362e-05
0.00177423 4.3582e-06 1.20778e-06
4.3582e-06 0.000194922 -1.97269e-07
1.20778e-06 -1.97269e-07 8.0618e-05
0.00088122 -1.27805e-06 -1.03011e-05
-1.27805e-06 -0.000198417 8.27742e-07
-1.03011e-05 8.27742e-07 -0.000303344
0.00191154 -1.81523e-06 5.1532e-06
-1.81523e-06 0.000288767 -8.14202e-07
5.1532e-06 -8.14202e-07 0.00017487
0.00102832 -6.02792e-06 -2.14772e-06
-6.02792e-06 -9.83268e-05 6.28026e-07
-2.14772e-06 6.28026e-07 -0.000199551
0.000715335 -7.07668e-06 -1.37468e-05
-7.07668e-06 -0.000101554 1.96835e-06
-1.37468e-05 1.96835e-06 -0.000161122
0.00121203 -2.55577e-05 8.84311e-06
-2.55577e-05 2.27235e-05 -2.21773e-06
8.84311e-06 -2.21773e-06 -7.23264e-05
0.00071385 -9.8425e-06 2.15027e-07
-9.8425e-06 -8.70182e-05 -1.14148e-07
2.15027e-07 -1.14148e-07 -0.000142302
0.00474443 -2.39451e-05 -0.000111479
-2.39451e-05 0.00218817 2.32537e-06
-0.000111479 2.32537e-06 0.00218399
0.00068208 -1.93174e-05 1.2602e-05
-1.93174e-05 -9.52841e-05 -2.67349e-06
1.2602e-05 -2.67349e-06 -0.000147451
0.00468054 -2.01071e-06 3.64352e-06
-2.01071e-06 0.0021554 3.09836e-07
3.64352e-06 3.09836e-07 0.00215181
0.00148612 -1.38378e-05 9.6678e-05
-1.38378e-05 0.00043703 -4.05218e-06
9.6678e-05 -4.05218e-06 0.000417193
0.00188375 1.42167e-05 -6.35519e-07
1.42167e-05 0.000222091 -5.41317e-07
-6.35519e-07 -5.41317e-07 0.000111086
0.00171637 1.38097e-05 2.09156e-07
1.38097e-05 0.000100809 4.11471e-07
2.09156e-07 4.11471e-07 -8.62776e-06
0.0014675 2.45895e-05 -3.59254e-06
2.45895e-05 5.07378e-05 -5.79323e-07
-3.59254e-06 -5.79323e-07 -5.80493e-05
0.00163696 2.38065e-05 3.72557e-07
2.38065e-05 8.96338e-05 -1.66731e-07
3.72557e-07 -1.66731e-07 -2.22345e-05
0.00176663 2.11883e-05 5.56388e-07
2.11883e-05 0.000112394 -2.94866e-07
5.56388e-07 -2.94866e-07 4.27664e-06
0.00120006 4.83944e-05 -8.9531e-06
4.83944e-05 8.36411e-06 -1.93175e-06
-8.9531e-06 -1.93175e-06 -8.55335e-05
0.00147594 5.51827e-05 -1.05965e-07
5.51827e-05 6.27242e-05 3.50161e-07
-1.05965e-07 3.50161e-07 -4.76717e-05
0.00154787 4.46178e-05 1.27694e-06
4.46178e-05 4.3022e-05 2.94684e-07
1.27694e-06 2.94684e-07 -7.15046e-05
0.000674615 5.33995e-05 -1.40011e-05
5.33995e-05 -0.000100177 -4.01775e-06
-1.40011e-05 -4.01775e-06 -0.000154677
0.000947742 6.722e-05 -2.72132e-06
6.722e-05 -0.000112024 -5.50336e-07
-2.72132e-06 -5.50336e-07 -0.000207898
0.00191821 0.000100437 4.32915e-06
0.000100437 0.000316677 8.85797e-07
4.32915e-06 8.85797e-07 0.000206715
0.00479754 3.05839e-06 -0.000111999
3.05839e-06 0.00222594 -5.36492e-06
-0.000111999 -5.36492e-06 0.00222002
0.00064506 7.02179e-05 1.36272e-07
7.02179e-05 -9.58485e-05 2.36371e-07
1.36272e-07 2.36371e-07 -0.000152311
0.000715108 7.7195e-05 5.89511e-06
7.7195e-05 -0.000209961 2.12867e-06
5.89511e-06 2.12867e-06 -0.000309125
0.00438189 -4.05025e-05 6.25543e-06
-4.05025e-05 0.00202657 -5.99064e-08
6.25543e-06 -5.99064e-08 0.00201435
0.000560628 7.38569e-05 1.19881e-05
7.38569e-05 -0.000112407 6.26992e-06
1.19881e-05 6.26992e-06 -0.000170084
0.00373067 -0.000120658 6.69798e-05
-0.000120658 0.00169416 4.39254e-06
6.69798e-05 4.39254e-06 0.00167741
0.00177554 1.36853e-05 -2.99443e-06
1.36853e-05 0.000197307 -7.35129e-07
-2.99443e-06 -7.35129e-07 8.55419e-05
0.001818 9.21652e-06 3.10303e-07
9.21652e-06 0.000166566 2.48633e-08
3.10303e-07 2.48633e-08 5.16823e-05
0.00180284 8.99935e-06 7.36682e-07
8.99935e-06 0.000124629 5.74412e-07
7.36682e-07 5.74412e-07 1.37664e-05
0.000890588 -1.16511e-05 -1.08323e-05
-1.16511e-05 -0.000194697 -1.61646e-07
-1.08323e-05 -1.61646e-07 -0.000298861
0.00178031 5.07521e-06 1.25627e-06
5.07521e-06 0.000195754 -2.35669e-09
1.25627e-06 -2.35669e-09 8.25155e-05
0.00181121 8.48159e-06 2.13232e-06
8.48159e-06 0.000162893 5.2307e-08
2.13232e-06 5.2307e-08 4.78333e-05
0.00177463 4.65802e-06 5.35152e-06
4.65802e-06 0.000195147 6.01572e-08
5.35152e-06 6.01572e-08 8.07567e-05
0.000880167 -1.70982e-06 -1.61725e-06
-1.70982e-06 -0.000198367 2.4232e-07
-1.61725e-06 2.4232e-07 -0.00030324
0.000762895 -1.32321e-06 -1.44116e-05
-1.32321e-06 -9.01862e-05 7.4448e-07
-1.44116e-05 7.4448e-07 -0.000152014
0.00122751 -3.32479e-06 7.13334e-06
-3.32479e-06 1.015e-05 -1.16798e-06
7.13334e-06 -1.16798e-06 -8.92725e-05
0.00073979 2.3742e-06 2.61761e-07
2.3742e-06 -8.98693e-05 1.79403e-07
2.61761e-07 1.79403e-07 -0.000149404
0.00500545 -2.28291e-05 -0.000116292
-2.28291e-05 0.00232063 1.23701e-06
-0.000116292 1.23701e-06 0.00231583
0.000741561 1.64162e-06 1.30197e-05
1.64162e-06 -7.40336e-05 -2.17913e-06
1.30197e-05 -2.17913e-06 -0.000129163
0.00482954 3.53174e-05 6.79615e-06
3.53174e-05 0.00223435 1.62899e-07
6.79615e-06 1.62899e-07 0.00222815
0.0047098 -1.01789e-05 0.000118048
-1.01789e-05 0.00216959 -2.42671e-06
0.000118048 -2.42671e-06 0.00216645
0.0015448 1.38793e-05 -3.70945e-06
1.38793e-05 8.73835e-05 -1.34345e-06
-3.70945e-06 -1.34345e-06 -2.22706e-05
0.001703 1.3722e-05 5.77909e-07
1.3722e-05 0.000125341 1.80695e-07
5.77909e-07 1.80695e-07 1.42562e-05
0.00166607 1.46762e-05 4.00906e-07
1.46762e-05 7.26275e-05 8.39483e-07
4.00906e-07 8.39483e-07 -3.62185e-05
0.00120897 2.10322e-05 -8.642e-06
2.10322e-05 3.32772e-06 -1.64134e-06
-8.642e-06 -1.64134e-06 -9.08965e-05
0.00149929 2.49302e-05 2.30002e-07
2.49302e-05 6.64448e-05 -9.68939e-08
2.30002e-07 -9.68939e-08 -4.23901e-05
0.00155554 2.28271e-05 1.14971e-06
2.28271e-05 4.74284e-05 -4.59869e-07
1.14971e-06 -4.59869e-07 -6.46066e-05
0.000699385 3.21792e-05 -1.35888e-05
3.21792e-05 -9.99622e-05 -3.11231e-06
-1.35888e-05 -3.11231e-06 -0.000154502
0.0011985 4.95178e-05 -1.84808e-08
4.95178e-05 8.03675e-06 2.25326e-07
-1.84808e-08 2.25326e-07 -8.6116e-05
0.00151467 5.57638e-05 4.20811e-06
5.57638e-05 8.19329e-05 1.23176e-06
4.20811e-06 1.23176e-06 -2.84377e-05
0.00487097 3.13725e-05 -0.00012325
3.13725e-05 0.00225408 -4.49659e-06
-0.00012325 -4.49659e-06 0.0022505
0.000671032 5.27436e-05 2.3729e-08
5.27436e-05 -0.000101907 9.34622e-08
2.3729e-08 9.34622e-08 -0.0001565
0.00116597 7.40704e-05 6.59433e-06
7.40704e-05 6.28465e-06 1.91169e-06
6.59433e-06 1.91169e-06 -8.87769e-05
0.00467308 1.1696e-05 4.96685e-06
1.1696e-05 0.00216369 5.56338e-07
4.96685e-06 5.56338e-07 0.00215688
0.000617263 6.51442e-05 1.26958e-05
6.51442e-05 -0.000109806 5.31599e-06
1.26958e-05 5.31599e-06 -0.000166251
0.00418938 -3.74932e-05 8.89785e-05
-3.74932e-05 0.00192142 5.06534e-06
8.89785e-05 5.06534e-06 0.0019128
0.00127783 6.10602e-06 -9.52956e-06
6.10602e-06 1.77404e-05 -6.91568e-07
-9.52956e-06 -6.91568e-07 -8.24236e-05
0.0015908 8.58603e-06 1.37448e-06
8.58603e-06 9.64578e-05 3.67306e-08
1.37448e-06 3.67306e-08 -1.71465e-05
0.00183035 5.56275e-06 1.74173e-06
5.56275e-06 0.000174708 7.40078e-07
1.74173e-06 7.40078e-07 5.95957e-05
0.000744536 1.66268e-05 -1.48113e-05
1.66268e-05 -0.000106516 -4.4394e-07
-1.48113e-05 -4.4394e-07 -0.000166033
0.000878604 -4.87808e-06 -1.80313e-06
-4.87808e-06 -0.00020159 4.81105e-08
-1.80313e-06 4.81105e-08 -0.00030577
0.00179557 1.18516e-05 5.8822e-06
1.18516e-05 0.000203962 8.02043e-08
5.8822e-06 8.02043e-08 9.06976e-05
0.000873926 -1.65399e-06 6.90355e-06
-1.65399e-06 -0.000201138 -9.76906e-08
6.90355e-06 -9.76906e-08 -0.00030594
0.000738143 4.76323e-06 7.64682e-08
4.76323e-06 -0.000103645 3.65316e-07
7.64682e-08 3.65316e-07 -0.000165389
0.00522588 3.80868e-05 -0.000120687
3.80868e-05 0.00243132 -4.25791e-07
-0.000120687 -4.25791e-07 0.00242663
0.000745558 1.14789e-05 1.35816e-05
1.14789e-05 -8.76577e-05 -1.25497e-06
1.35816e-05 -1.25497e-06 -0.000147301
0.0050727 -1.61111e-05 9.1093e-07
-1.61111e-05 0.00235379 5.36821e-07
9.1093e-07 5.36821e-07 0.0023493
0.00488098 1.9721e-05 0.000120558
1.9721e-05 0.00225548 -1.16722e-06
0.000120558 -1.16722e-06 0.00225206
0.00124718 9.30392e-06 -9.17175e-06
9.30392e-06 1.27322e-05 -1.83458e-06
-9.17175e-06 -1.83458e-06 -8.41336e-05
0.00144052 1.22177e-05 -1.63222e-08
1.22177e-05 2.96117e-05 -2.05216e-07
-1.63222e-08 -2.05216e-07 -8.07704e-05
0.00152295 1.31612e-05 1.45442e-06
1.31612e-05 2.89514e-05 6.80447e-07
1.45442e-06 6.80447e-07 -8.22145e-05
0.00248701 1.1992e-05 -6.61858e-05
1.1992e-05 0.000853277 -1.93557e-06
-6.61858e-05 -1.93557e-06 0.000809875
0.0012175 2.26231e-05 1.48017e-07
2.26231e-05 7.70396e-06 7.31402e-08
1.48017e-07 7.31402e-08 -8.67473e-05
0.00153241 2.51358e-05 4.01057e-06
2.51358e-05 8.28488e-05 3.79154e-07
4.01057e-06 3.79154e-07 -2.60345e-05
0.00491992 3.49805e-05 -0.000129703
3.49805e-05 0.00227476 -3.35933e-06
-0.000129703 -3.35933e-06 0.00227139
0.000710494 3.40593e-05 6.6065e-08
3.40593e-05 -9.34012e-05 8.41486e-08
6.6065e-08 8.41486e-08 -0.000148081
0.00119655 5.05904e-05 9.01819e-06
5.05904e-05 7.45734e-06 2.32843e-06
9.01819e-06 2.32843e-06 -8.69425e-05
0.00481089 3.99201e-05 1.6046e-06
3.99201e-05 0.00222569 6.64468e-07
1.6046e-06 6.64468e-07 0.00222122
0.000671152 5.24613e-05 1.34051e-05
5.24613e-05 -0.00010142 4.18234e-06
1.34051e-05 4.18234e-06 -0.000156112
0.00454545 2.37395e-05 0.000107019
2.37395e-05 0.00209666 5.5409e-06
0.000107019 5.5409e-06 0.00209081
0.000782098 7.49005e-06 -1.54668e-05
7.49005e-06 -8.26658e-05 -1.69798e-06
-1.54668e-05 -1.69798e-06 -0.000143912
0.00108043 3.15246e-06 4.00216e-07
3.15246e-06 -8.82554e-05 5.12256e-07
4.00216e-07 5.12256e-07 -0.000189659
0.00140061 3.43587e-06 5.32604e-06
3.43587e-06 -7.41232e-06 7.78438e-07
5.32604e-06 7.78438e-07 -0.000122803
0.00529535 -5.54566e-05 -0.000118154
-5.54566e-05 0.00247363 -1.84659e-06
-0.000118154 -1.84659e-06 0.00246434
0.000748423 9.7568e-06 -1.24757e-07
9.7568e-06 -0.000102254 1.87819e-07
-1.24757e-07 1.87819e-07 -0.000163112
0.000877019 1.51458e-06 7.09806e-06
1.51458e-06 -0.000203062 2.48559e-07
7.09806e-06 2.48559e-07 -0.000307257
0.000732522 1.45956e-05 1.39983e-05
1.45956e-05 -0.000106994 1.4504e-07
1.39983e-05 1.4504e-07 -0.000168832
0.00527568 4.74664e-05 4.43856e-06
4.74664e-05 0.00246014 4.54208e-07
4.43856e-06 4.54208e-07 0.00245303
0.00518032 9.50331e-05 0.000121064
9.50331e-05 0.00241421 1.2215e-07
0.000121064 1.2215e-07 0.00240541
0.00258281 -8.81676e-06 -6.92686e-05
-8.81676e-06 0.000893717 -1.92596e-06
-6.92686e-05 -1.92596e-06 0.000847751
0.00125256 1.12996e-05 -7.36595e-08
1.12996e-05 1.54715e-05 -6.22741e-08
-7.36595e-08 -6.22741e-08 -8.13668e-05
0.00133668 1.07009e-05 3.75766e-06
1.07009e-05 -2.79472e-05 8.79958e-07
3.75766e-06 8.79958e-07 -0.000139055
0.00473849 4.2207e-05 -3.28022e-05
4.2207e-05 0.00218629 -1.4612e-06
-3.28022e-05 -1.4612e-06 0.00217497
0.000755004 1.44644e-05 -8.44406e-08
1.44644e-05 -7.73532e-05 1.91094e-07
-8.44406e-08 1.91094e-07 -0.000133952
0.00124107 2.49733e-05 8.90537e-06
2.49733e-05 1.96052e-05 1.82646e-06
8.90537e-06 1.82646e-06 -7.50162e-05
0.00489421 4.46929e-05 -2.3864e-06
4.46929e-05 0.00226392 5.77598e-07
-2.3864e-06 5.77598e-07 0.00225998
0.0007198 3.62308e-05 1.39833e-05
3.62308e-05 -8.73643e-05 3.46143e-06
1.39833e-05 3.46143e-06 -0.000142259
0.00476079 5.1387e-05 0.000118191
5.1387e-05 0.00220148 5.46746e-06
0.000118191 5.46746e-06 0.00219643
0.00175333 -1.91086e-05 -0.000118686
-1.91086e-05 0.000554018 9.82834e-08
-0.000118686 9.82834e-08 0.000530101
0.0016814 1.05596e-05 -2.82161e-05
1.05596e-05 0.000402129 4.93058e-07
-2.82161e-05 4.93058e-07 0.00034943
0.00088264 3.37319e-06 9.2508e-06
3.37319e-06 -0.000194317 1.52442e-06
9.2508e-06 1.52442e-06 -0.000296983
0.00528232 -4.26127e-05 4.8652e-06
-4.26127e-05 0.0024668 -1.07388e-06
4.8652e-06 -1.07388e-06 0.00245781
0.000738254 4.73616e-06 1.46991e-05
4.73616e-06 -0.000105991 8.50979e-07
1.46991e-05 8.50979e-07 -0.000167584
0.00529232 -1.16198e-05 0.000130107
-1.16198e-05 0.00246522 8.77372e-07
0.000130107 8.77372e-07 0.00246032
0.00145093 -8.80361e-05 -7.09521e-06
-8.80361e-05 0.000415561 -8.13231e-07
-7.09521e-06 -8.13231e-07 0.000379669
0.00167655 7.38722e-06 -2.73779e-05
7.38722e-06 0.000408877 6.36809e-08
-2.73779e-05 6.36809e-08 0.000356595
0.00125671 1.13165e-05 8.80831e-06
1.13165e-05 1.77504e-05 1.75761e-06
8.80831e-06 1.75761e-06 -7.9088e-05
0.00319885 2.53471e-05 4.85224e-05
2.53471e-05 0.00134945 5.5213e-07
4.85224e-05 5.5213e-07 0.00133264
0.00077012 2.29384e-05 1.43312e-05
2.29384e-05 -6.90241e-05 2.97721e-06
1.43312e-05 2.97721e-06 -0.000125986
0.00486951 5.7447e-05 0.000122945
5.7447e-05 0.00225351 4.70096e-06
0.000122945 4.70096e-06 0.00224886
0.00524899 -3.95727e-05 -6.62936e-06
-3.95727e-05 0.00244644 4.38037e-07
-6.62936e-06 4.38037e-07 0.00243962
0.000742847 1.8747e-05 1.48598e-05
1.8747e-05 -0.000102271 1.83659e-06
1.48598e-05 1.83659e-06 -0.000161455
0.00527225 5.99364e-05 0.000122003
5.99364e-05 0.00246197 -1.27221e-06
0.000122003 -1.27221e-06 0.00245275
0.0032894 1.84275e-05 5.55508e-05
1.84275e-05 0.00139364 3.28591e-07
5.55508e-05 3.28591e-07 0.00137592
0.000754573 1.0118e-05 1.42141e-05
1.0118e-05 -8.56663e-05 2.46631e-06
1.42141e-05 2.46631e-06 -0.000144839
0.00496389 1.18559e-05 0.00011929
1.18559e-05 0.0022975 2.83067e-06
0.00011929 2.83067e-06 0.0022941
0.0051943 -0.000130743 0.000114464
-0.000130743 0.00242854 -4.62428e-08
0.000114464 -4.62428e-08 0.00241487
0.00507449 -9.03455e-05 0.000114358
-9.03455e-05 0.00236103 1.10658e-06
0.000114358 1.10658e-06 0.00235193
