# vtk DataFile Version 2.0
Wound Healing Simulation
ASCII
DATASET UNSTRUCTURED_GRID
POINTS 3012 float
69.9759 18.75 4
67.2507 60.3285 4
69.976 18.75 2
73.0099 25.446 4
71.1327 20.9142 4
68.6801 16.6661 4
67.8248 19.9262 3.98099
67.2507 60.3286 2
71.1327 54.0858 4
68.6801 58.3339 4
65.6939 62.2254 4
65.3113 59.0007 3.97993
74.6784 42.3946 4
73.7221 47.2057 4
69.9759 18.75 0
73.0099 25.446 2
68.6801 16.6661 2
71.1327 20.9142 2
67.8254 19.9294 2
74.6792 32.6053 4
73.7222 27.7943 4
72.1454 23.1494 4
70.6136 26.2208 3.98054
68.885 21.958 3.98141
67.2507 14.6715 4
66.6363 17.9723 3.98018
65.7945 21.0267 3.97053
67.2507 60.3285 0
71.1327 54.0858 2
68.6801 58.3339 2
65.694 62.2255 2
65.3126 58.9969 2
72.1454 51.8506 4
69.9759 56.25 4
68.8357 53.1129 3.98054
64.0165 64.0165 4
66.6101 57.1335 3.98073
63.8845 60.7651 3.98044
63.4977 57.7684 3.97151
60.3285 67.2507 4
74.6792 42.3947 2
73.7222 47.2057 2
74.9194 39.9526 4
74.2788 44.8158 4
72.1678 42.0854 3.98008
73.0099 49.554 4
71.2488 46.5979 3.97976
73.0099 25.446 0
71.1327 20.9142 0
68.6801 16.6661 0
67.8248 19.9262 0.0190129
74.6792 32.6053 2
73.7222 27.7943 2
67.2508 14.6715 2
72.1455 23.1494 2
70.6135 26.2214 2
66.6372 17.9763 2
68.8853 21.9601 2
65.794 21.0277 2
74.9197 35.0474 4
74.2794 30.1841 4
72.1845 32.9433 3.98039
71.2777 28.4313 3.98007
69.8149 24.0595 3.98119
68.3446 26.952 3.96957
66.7601 22.9342 3.97006
65.694 12.7746 4
65.3226 16.1044 3.97967
64.7109 19.1974 3.97126
63.8812 22.0396 3.96692
71.1327 54.0858 0
65.6939 62.2254 0
68.6801 58.3339 0
65.3113 59.0007 0.0200653
72.1455 51.8506 2
69.9759 56.25 2
68.8359 53.111 2
64.0165 64.0165 2
66.6109 57.1298 2
63.8862 60.7617 2
63.4971 57.7681 2
62.2254 65.694 4
58.8941 65.4139 3.9897
69.7683 50.9888 3.98036
67.783 55.167 3.9805
66.6471 52.2079 3.96918
62.3353 62.427 3.98464
64.6584 56.0297 3.97116
62.1994 59.3984 3.97006
61.817 56.6739 3.9666
58.3339 68.6801 4
60.3285 67.2508 2
73.7221 47.2057 0
74.6784 42.3946 0
74.9197 39.9526 2
74.2794 44.8159 2
72.1673 42.0854 2
73.0099 49.554 2
71.2486 46.5977 2
75 37.5 4
72.4051 39.8021 3.98065
71.7821 44.3527 3.98011
69.8023 41.7893 3.96959
70.5745 48.8134 3.9799
68.9101 46.0139 3.96921
74.6792 32.6053 0
73.7222 27.7943 0
67.2507 14.6715 0
72.1454 23.1494 0
70.6136 26.2208 0.0194619
68.885 21.958 0.0185942
66.6363 17.9723 0.0198234
65.7945 21.0267 0.0294654
74.9197 35.0474 2
74.2794 30.1841 2
72.1839 32.9437 2
71.2776 28.4318 2
65.694 12.7745 2
65.324 16.1086 2
69.815 24.0606 2
68.3445 26.9527 2
64.7104 19.1982 2
66.7597 22.9351 2
63.8806 22.04 2
72.4129 35.2241 3.98072
71.8035 30.6762 3.98044
69.8383 33.2686 3.96986
68.964 29.0386 3.96955
67.609 24.9127 3.96972
66.184 27.6375 3.96713
64.0165 10.9835 4
64.7496 23.8334 3.967
63.889 14.3283 3.98166
63.5099 17.4516 3.97127
62.9005 20.3264 3.96679
62.0617 22.9562 3.96687
60.6832 11.0986 3.9859
57.6113 11.4528 3.97756
72.1454 51.8506 0
69.9759 56.25 0
68.8357 53.1129 0.0194613
64.0165 64.0165 0
63.8845 60.7651 0.019563
66.6101 57.1335 0.0192667
63.4977 57.7684 0.0284887
62.2255 65.694 2
58.8954 65.4131 2
69.7683 50.9879 2
67.7835 55.1641 2
66.6466 52.2071 2
62.3372 62.4246 2
64.6579 56.0292 2
62.1988 59.3988 2
61.8164 56.6738 2
60.668 63.9765 3.98697
57.0253 66.7347 3.99114
57.5567 63.6885 3.97961
67.5052 50.1755 3.96893
65.6993 54.1718 3.96972
64.5285 51.3806 3.96614
60.771 60.9331 3.97447
62.8145 55.0623 3.96691
60.6499 58.1482 3.9643
60.3185 55.7735 3.96647
56.25 69.9759 4
58.3339 68.6801 2
60.3285 67.2507 0
58.9206 9.65674 3.98743
62.2254 9.30607 4
73.0099 49.554 0
74.2788 44.8158 0
71.2488 46.5979 0.0202374
72.1678 42.0854 0.019921
74.9194 39.9526 0
75 37.5 2
72.405 39.8023 2
71.782 44.3524 2
69.8018 41.7889 2
70.5744 48.8131 2
68.9101 46.0134 2
72.4884 37.512 3.98026
70.0396 39.6571 3.96967
69.4285 43.9069 3.96949
67.5862 41.4957 3.96819
68.2637 48.106 3.96891
66.6937 45.436 3.96742
74.9197 35.0474 0
74.2794 30.1841 0
72.1845 32.9433 0.019608
71.2777 28.4313 0.0199285
65.694 12.7746 0
65.3226 16.1044 0.0203331
69.8149 24.0595 0.0188103
68.3446 26.952 0.0304289
66.7601 22.9342 0.0299438
64.7109 19.1974 0.0287373
63.8812 22.0396 0.0330774
72.4129 35.2243 2
71.8035 30.6768 2
69.8377 33.269 2
68.964 29.0391 2
64.0165 10.9835 2
63.891 14.3319 2
63.5093 17.4525 2
67.6088 24.9135 2
66.1842 27.6378 2
62.8999 20.3268 2
64.7492 23.8338 2
62.061 22.9567 2
60.6855 11.1011 2
57.6122 11.4513 2
70.0563 35.392 3.96986
69.4653 31.1498 3.96965
67.6473 33.5921 3.96804
66.761 29.6253 3.96737
65.5146 25.7023 3.96702
64.0899 28.2671 3.96982
62.3409 12.6557 3.98459
62.8173 24.65 3.96798
62.1958 15.7913 3.97203
61.8056 18.694 3.96657
61.1912 21.3559 3.96552
60.3556 23.7511 3.96893
59.2447 12.7848 3.97541
55.8738 10.2379 3.97987
56.4033 13.1274 3.97413
69.7683 50.9888 0.0196433
62.2254 65.694 0
58.8941 65.4139 0.0102996
67.783 55.167 0.0195014
66.6471 52.2079 0.0308159
62.3353 62.427 0.0153619
62.1994 59.3984 0.0299438
64.6584 56.0297 0.0288405
61.817 56.6739 0.0334017
60.6697 63.9749 2
57.0262 66.7343 2
57.5569 63.6901 2
67.5049 50.1748 2
65.6987 54.171 2
64.5284 51.3802 2
60.7709 60.9341 2
62.8139 55.0621 2
60.6496 58.1483 2
60.318 55.7734 2
55.0711 67.9315 3.99179
59.2174 62.3614 3.97575
55.8042 64.9081 3.9841
56.3246 62.081 3.97523
65.3181 49.4035 3.96641
63.7001 53.2876 3.96612
62.3935 50.6363 3.96715
59.328 59.5473 3.96918
61.0628 54.2971 3.96579
59.2719 56.9946 3.96388
59.2281 55.1669 3.96526
48.1019 68.5774 3.98729
50.9489 69.9312 3.99195
54.0858 71.1327 4
56.25 69.976 2
58.3339 68.6801 0
57.0581 8.33651 3.98882
60.3285 7.74928 4
58.9228 9.65819 2
62.2255 9.30602 2
70.5745 48.8134 0.0200951
71.7821 44.3527 0.0198919
68.9101 46.0139 0.0307891
69.8023 41.7893 0.0304067
72.4051 39.8021 0.0193497
75 37.5 0
72.488 37.5122 2
70.0395 39.657 2
69.4284 43.9065 2
67.5862 41.4955 2
68.2636 48.1054 2
66.6933 45.4357 2
70.1276 37.5214 3.96972
67.8261 39.5113 3.96825
67.209 43.467 3.96783
65.49 41.2032 3.97194
66.0527 47.4135 3.96692
64.5806 44.8361 3.97025
72.4129 35.2241 0.0192822
71.8035 30.6762 0.0195591
69.8383 33.2686 0.0301447
68.964 29.0386 0.0304494
64.0165 10.9835 0
63.889 14.3283 0.0183447
63.5099 17.4516 0.0287297
67.609 24.9127 0.0302836
66.184 27.6375 0.0328717
64.7496 23.8334 0.0330017
62.9005 20.3264 0.0332061
62.0617 22.9562 0.0331326
60.6832 11.0986 0.0141042
57.6113 11.4528 0.0224432
70.0563 35.3922 2
69.4652 31.1502 2
67.6474 33.5922 2
66.7611 29.6256 2
62.3431 12.6591 2
62.1955 15.7915 2
61.8048 18.6944 2
65.5145 25.7028 2
64.0889 28.2675 2
61.1903 21.3563 2
62.8167 24.6505 2
60.3554 23.7518 2
59.2455 12.7845 2
56.4038 13.1258 2
55.8744 10.2364 2
67.8641 35.548 3.96826
67.2553 31.6243 3.96774
65.6433 33.9316 3.97197
64.6033 30.2019 3.97054
63.4911 26.4265 3.96905
62.1517 28.7977 3.97366
60.7736 14.229 3.97501
60.9633 25.3608 3.97089
60.6041 17.1406 3.96662
60.1999 19.8328 3.96394
59.5936 22.284 3.96597
58.8759 24.3526 3.97142
54.0371 9.13898 3.98189
57.9071 14.3444 3.97466
54.7852 12.0213 3.97515
55.308 14.6666 3.9726
67.5052 50.1755 0.0310703
57.0253 66.7347 0.00885577
60.668 63.9765 0.0130274
57.5567 63.6885 0.0203883
65.6993 54.1718 0.0302823
64.5285 51.3806 0.033858
60.771 60.9331 0.0255256
60.6499 58.1482 0.0357042
62.8145 55.0623 0.0330913
60.3185 55.7735 0.033535
55.0718 67.9314 2
59.2175 62.3626 2
55.8041 64.9092 2
56.3241 62.0832 2
65.3179 49.4031 2
63.6996 53.2873 2
62.3935 50.636 2
59.3275 59.5488 2
61.0629 54.2969 2
59.272 56.9943 2
59.2281 55.1664 2
53.0431 68.9993 3.99185
53.9665 66.0116 3.98558
57.877 60.86 3.9746
54.6829 63.203 3.97913
55.2072 60.6001 3.97425
63.1346 48.6454 3.96828
61.7099 52.5609 3.96636
60.1763 49.9921 3.96895
58.0059 58.247 3.96693
59.2958 53.9278 3.96705
58.093 55.7908 3.96166
50.1086 67.8557 3.987
47.4627 66.5778 3.98382
46.0556 69.1565 3.98748
48.1019 68.5781 2
48.8029 70.7224 3.99206
50.9493 69.9312 2
51.8506 72.1454 4
54.0858 71.1327 2
56.25 69.9759 0
55.1029 7.14087 3.99039
58.3339 6.31992 4
57.0598 8.33723 2
60.3286 7.74926 2
58.9206 9.65674 0.0125662
62.2254 9.30607 0
68.2637 48.106 0.0310875
69.4285 43.9069 0.0305111
66.6937 45.436 0.03258
67.5862 41.4957 0.0318134
70.0396 39.6571 0.0303335
72.4884 37.512 0.0197359
70.1272 37.5215 2
67.826 39.5112 2
67.2097 43.4668 2
65.489 41.203 2
66.0528 47.4131 2
64.5794 44.8357 2
67.9247 37.5218 3.9683
65.7276 39.3666 3.97224
65.1087 43.0159 3.97138
63.6346 40.9187 3.97644
63.8956 46.7021 3.96923
62.6808 44.1964 3.97414
70.0563 35.392 0.0301426
69.4653 31.1498 0.0303472
67.6473 33.5921 0.0319642
66.761 29.6253 0.0326334
62.3409 12.6557 0.015408
62.1958 15.7913 0.0279718
61.8056 18.694 0.0334259
65.5146 25.7023 0.0329793
64.0899 28.2671 0.0301773
62.8173 24.65 0.0320184
61.1912 21.3559 0.0344792
60.3556 23.7511 0.0310728
59.2447 12.7848 0.0245901
56.4033 13.1274 0.0258678
55.8738 10.2379 0.0201309
67.8638 35.5481 2
67.2557 31.6245 2
65.6426 33.9318 2
64.6023 30.2022 2
60.7736 14.2294 2
60.6039 17.1404 2
60.2007 19.8328 2
63.4904 26.4269 2
62.15 28.7982 2
59.5953 22.2845 2
60.9628 25.3614 2
58.8751 24.3537 2
57.9071 14.3433 2
55.3084 14.6662 2
54.0376 9.13753 2
54.7858 12.019 2
65.8187 35.6686 3.97218
65.1237 32.1617 3.97108
64.1872 34.2561 3.9764
62.4664 30.6538 3.97447
61.5556 27.0943 3.97206
60.7074 29.1663 3.97717
59.3057 15.6801 3.97104
59.2048 25.8295 3.97436
59.1061 18.3746 3.9641
58.6914 20.8798 3.96306
58.1837 23.1273 3.9666
57.8451 24.7037 3.97346
52.1119 8.15576 3.98422
53.0572 11.0248 3.97727
56.67 15.7605 3.97367
53.8062 13.6983 3.97469
54.3674 16.0226 3.97421
55.0711 67.9315 0.00820964
65.3181 49.4035 0.0335867
55.8042 64.9081 0.0159028
59.2174 62.3614 0.0242517
56.3246 62.081 0.0247743
63.7001 53.2876 0.033876
62.3935 50.6363 0.0328536
59.328 59.5473 0.0308238
59.2719 56.9946 0.0361224
61.0628 54.2971 0.0342118
59.2281 55.1669 0.0347423
53.0436 68.9993 2
53.9665 66.0124 2
57.8763 60.8616 2
54.6824 63.2039 2
55.207 60.6018 2
63.1339 48.645 2
61.7107 52.5608 2
60.1761 49.9915 2
58.0054 58.2484 2
59.2973 53.9275 2
58.0918 55.7899 2
52.0699 66.9986 3.98668
52.953 64.215 3.98208
56.641 59.4753 3.97387
53.6783 61.6144 3.97617
54.2512 59.3019 3.9741
60.8682 47.8529 3.96967
59.6354 52.0798 3.96773
57.8878 49.5795 3.9706
56.7546 56.9647 3.96768
57.0672 54.0951 3.96481
50.1086 67.8561 2
49.3367 65.9185 3.98373
47.4628 66.5785 2
46.8921 64.7311 3.98214
45.5578 67.0948 3.98391
43.9727 69.5886 3.98765
46.0556 69.157 2
46.6095 71.3669 3.9921
48.1019 68.5774 0.0127141
48.8034 70.7226 2
49.554 73.0099 4
50.9489 69.9312 0.00805409
51.8506 72.1455 2
54.0858 71.1327 0
53.0645 6.07211 3.99135
55.1042 7.14096 2
56.25 5.02411 4
58.3339 6.3199 2
57.0581 8.33651 0.0111772
60.3285 7.74928 0
66.0527 47.4135 0.0330758
67.209 43.467 0.032173
64.5806 44.8361 0.0297509
65.49 41.2032 0.0280581
67.8261 39.5113 0.0317504
70.1276 37.5214 0.0302835
67.9246 37.5218 2
65.7264 39.3664 2
65.1076 43.0156 2
63.6324 40.9183 2
63.8945 46.7017 2
62.6786 44.1957 2
65.8332 37.5009 3.97228
63.7848 39.2606 3.97668
63.1967 42.534 3.97527
62.2652 40.6815 3.97704
61.8414 45.8951 3.97193
61.2798 43.658 3.97735
67.8641 35.548 0.031737
67.2553 31.6243 0.0322607
65.6433 33.9316 0.02803
64.6033 30.2019 0.02946
60.7736 14.229 0.0249856
60.6041 17.1406 0.0333763
60.1999 19.8328 0.0360625
63.4911 26.4265 0.0309454
62.1517 28.7977 0.0263419
60.9633 25.3608 0.0291099
59.5936 22.284 0.0340299
58.8759 24.3526 0.0285821
57.9071 14.3444 0.0253414
55.308 14.6666 0.0273994
54.0371 9.13898 0.0181066
54.7852 12.0213 0.0248521
65.8175 35.6687 2
65.1229 32.162 2
64.1864 34.2564 2
62.4649 30.6542 2
59.305 15.6803 2
59.1065 18.3743 2
58.696 20.8799 2
61.5545 27.0949 2
60.7066 29.1669 2
58.1825 23.1285 2
59.2042 25.8305 2
57.8448 24.705 2
56.6699 15.7593 2
54.3673 16.0228 2
53.8064 13.6944 2
52.1122 8.15466 2
53.0574 11.0232 2
63.9849 35.6353 3.97601
62.799 33.059 3.97548
60.4433 30.638 3.9768
59.4213 27.9426 3.97538
57.9283 17.0015 3.96859
57.598 25.7674 3.97614
57.6835 19.5011 3.96178
57.2827 21.8777 3.96373
57.049 23.9918 3.96786
50.1123 7.28644 3.98663
51.2323 10.1301 3.97977
52.1694 12.8087 3.97624
55.525 16.9948 3.97251
52.9719 15.2891 3.97198
53.7451 17.0079 3.97828
53.0431 68.9993 0.00814758
53.9665 66.0116 0.0144154
63.1346 48.6454 0.0317166
54.6829 63.203 0.0208674
57.877 60.86 0.0253986
55.2072 60.6001 0.0257479
61.7099 52.5609 0.0336356
60.1763 49.9921 0.0310473
58.0059 58.247 0.0330745
58.093 55.7908 0.0383367
59.2958 53.9278 0.0329532
52.0699 66.9993 2
52.9526 64.2158 2
56.6405 59.4764 2
53.6777 61.6149 2
54.251 59.3037 2
60.867 47.8522 2
59.6353 52.0792 2
57.8851 49.5783 2
56.7535 56.9691 2
57.0652 54.0942 2
51.1678 65.1252 3.98372
52.0446 62.5327 3.97917
55.467 58.233 3.9747
52.8277 60.1177 3.97734
53.6258 58.452 3.97913
58.1202 46.8082 3.97423
57.4632 51.753 3.96712
56.0771 49.5102 3.97068
55.4355 55.7642 3.96279
55.2785 53.3486 3.96323
50.1086 67.8557 0.0129994
49.3366 65.9188 2
48.6178 64.1183 3.98264
47.4627 66.5778 0.0161758
45.5579 67.0954 2
46.8922 64.7316 2
46.3816 63.0465 3.98213
45.1323 65.1918 3.98202
43.631 67.4653 3.98404
41.8601 69.8758 3.98748
43.9726 69.5891 2
44.3767 71.8617 3.99206
46.0556 69.1565 0.012519
46.6098 71.3671 2
47.2057 73.7222 4
48.8029 70.7224 0.00793737
49.554 73.0099 2
51.8506 72.1454 0
50.9546 5.13248 3.99201
53.0654 6.0721 2
54.0858 3.86728 4
55.1029 7.14087 0.00961305
56.25 5.02406 2
58.3339 6.31992 0
63.8956 46.7021 0.0307653
65.1087 43.0159 0.0286153
62.6808 44.1964 0.025855
63.6346 40.9187 0.0235634
65.7276 39.3666 0.0277563
67.9247 37.5218 0.0317038
65.8322 37.5009 2
63.7829 39.2604 2
63.1947 42.5335 2
62.2628 40.681 2
61.8395 45.8944 2
61.2777 43.6572 2
63.8458 37.4557 3.9762
61.9848 39.3444 3.97695
61.0264 41.9346 3.97692
60.0719 44.7391 3.97662
65.8187 35.6686 0.0278222
65.1237 32.1617 0.0289158
64.1872 34.2561 0.0236007
62.4664 30.6538 0.0255311
59.3057 15.6801 0.0289572
59.1061 18.3746 0.0359008
58.6914 20.8798 0.0369354
61.5556 27.0943 0.0279365
60.7074 29.1663 0.0228323
59.2048 25.8295 0.0256373
58.1837 23.1273 0.0333981
57.8451 24.7037 0.0265379
56.67 15.7605 0.0263303
54.3674 16.0226 0.0257945
53.8062 13.6983 0.0253127
52.1119 8.15576 0.0157754
53.0572 11.0248 0.0227266
63.9834 35.6355 2
62.7975 33.0594 2
60.4418 30.6387 2
57.9276 17.0015 2
57.686 19.5001 2
57.2857 21.8784 2
59.4204 27.9434 2
57.0482 23.9934 2
57.598 25.7686 2
50.1126 7.28491 2
55.525 16.9939 2
53.7448 17.0072 2
52.972 15.2876 2
52.17 12.8076 2
51.2326 10.1288 2
62.0231 35.3696 3.97682
60.0822 32.7697 3.97708
58.4167 30.1148 3.97701
57.1056 27.4282 3.97663
56.6159 18.1806 3.9668
56.1337 25.1541 3.97358
56.3056 20.5556 3.96029
55.9847 22.9174 3.96283
48.0567 6.5281 3.98848
49.3246 9.33525 3.98181
50.4319 12.0034 3.97723
51.3724 14.5152 3.97317
54.395 17.9472 3.97389
52.3486 17.0699 3.9697
52.0699 66.9986 0.0133247
52.953 64.215 0.0179151
60.8682 47.8529 0.0303258
53.6783 61.6144 0.0238309
56.641 59.4753 0.0261327
54.2512 59.3019 0.0259049
59.6354 52.0798 0.0322734
57.8878 49.5795 0.0293986
56.7546 56.9647 0.0323213
57.0672 54.0951 0.0351884
51.1677 65.1259 2
52.0442 62.5333 2
55.4665 58.2342 2
52.8275 60.1211 2
53.6255 58.4531 2
58.119 46.8072 2
57.4616 51.7521 2
56.074 49.5091 2
55.4354 55.7647 2
55.2809 53.349 2
50.3458 63.3768 3.98224
51.2401 60.9258 3.97643
54.1962 57.2491 3.97474
52.2998 58.6107 3.9751
56.4392 44.1306 3.9774
55.2751 47.8445 3.97382
54.9425 51.3485 3.96614
53.9474 54.511 3.9649
49.3367 65.9185 0.0162666
48.6178 64.1185 2
47.9614 62.4686 3.98181
45.5578 67.0948 0.0160864
46.8921 64.7311 0.0178604
43.6311 67.4659 2
46.3818 63.047 2
45.1324 65.1924 2
45.9867 61.5776 3.98341
44.7669 63.446 3.98071
43.3565 65.5008 3.98171
41.6633 67.6838 3.9839
39.7021 70.0225 3.98765
41.8601 69.8763 2
42.111 72.2065 3.99211
43.9727 69.5886 0.0123471
44.377 71.862 2
44.8159 74.2794 4
46.6095 71.3669 0.00789648
47.2057 73.7222 2
49.554 73.0099 0
48.7853 4.32299 3.9926
50.9552 5.13195 2
51.8506 2.85458 4
53.0645 6.07211 0.00864567
54.0858 3.86728 2
56.25 5.02411 0
61.8414 45.8951 0.0280686
63.1967 42.534 0.0247343
61.2798 43.658 0.0226534
62.2652 40.6815 0.0229571
63.7848 39.2606 0.0233157
65.8332 37.5009 0.0277179
63.8442 37.4557 2
61.9826 39.3443 2
61.0245 41.9339 2
60.0708 44.7382 2
61.8217 37.4441 3.97729
60.0156 39.8268 3.97725
58.7417 42.879 3.97708
63.9849 35.6353 0.0239922
62.799 33.059 0.0245209
60.4433 30.638 0.0231965
57.9283 17.0015 0.0314082
57.6835 19.5011 0.0382175
57.2827 21.8777 0.0362724
59.4213 27.9426 0.0246212
57.598 25.7674 0.0238635
57.049 23.9918 0.0321355
55.525 16.9948 0.0274882
53.7451 17.0079 0.0217187
52.9719 15.2891 0.0280186
50.1123 7.28644 0.0133662
52.1694 12.8087 0.0237604
51.2323 10.1301 0.0202306
62.0212 35.3699 2
60.0801 32.77 2
58.4161 30.1157 2
56.6153 18.1805 2
56.3096 20.553 2
55.9871 22.9189 2
57.1062 27.4294 2
56.1351 25.1557 2
48.0566 6.527 2
49.3249 9.33354 2
54.3954 17.9468 2
52.3484 17.0697 2
51.372 14.5113 2
50.4323 12.0019 2
59.66 35.1344 3.97709
57.7225 32.3087 3.97672
56.3175 29.393 3.97737
55.2249 26.6642 3.9773
55.3087 19.2183 3.96312
54.7738 24.1181 3.96381
54.9198 21.6077 3.96001
45.9627 5.88299 3.98894
43.3742 7.4743 3.98596
47.3556 8.62589 3.98427
48.5996 11.3008 3.97873
49.7094 13.7557 3.97657
50.6241 16.1588 3.97585
53.0989 18.6946 3.96873
51.2824 18.0905 3.97837
51.1678 65.1252 0.0162822
52.0446 62.5327 0.0208267
58.1202 46.8082 0.0257748
52.8277 60.1177 0.0226599
55.467 58.233 0.0253045
53.6258 58.452 0.0208657
57.4632 51.753 0.0328797
56.0771 49.5102 0.0293151
55.4355 55.7642 0.0372113
55.2785 53.3486 0.0367673
50.3456 63.377 2
51.2396 60.9258 2
54.1961 57.2504 2
52.2994 58.6116 2
56.4381 44.1297 2
55.2744 47.8436 2
54.944 51.3484 2
53.9482 54.5121 2
49.5905 61.739 3.9808
55.2636 41.6709 3.97594
50.5572 59.3129 3.97403
52.1544 56.4659 3.96892
53.8811 45.4997 3.97502
53.1393 49.2759 3.96982
52.5719 52.8136 3.96228
48.6178 64.1183 0.0173588
47.9614 62.4685 2
47.327 61.0016 3.9848
43.631 67.4653 0.0159623
45.1323 65.1918 0.017977
46.3816 63.0465 0.0178735
41.6634 67.684 2
43.3566 65.5017 2
45.987 61.5782 2
44.7671 63.4468 2
45.7634 60.6215 3.98284
44.483 61.8248 3.98095
43.1463 63.7176 3.98004
41.5462 65.6384 3.98095
39.6326 67.763 3.98357
37.526 70.0472 3.98716
39.702 70.0231 2
39.8178 72.4034 3.99191
41.8601 69.8758 0.0125175
42.1113 72.2069 2
42.3947 74.6792 4
44.3767 71.8617 0.00793603
44.8159 74.2794 2
47.2057 73.7222 0
43.8519 5.3599 3.98895
46.5712 3.64746 3.99273
48.7856 4.32255 2
49.554 1.99015 4
50.9546 5.13248 0.00799421
51.8506 2.85453 2
54.0858 3.86728 0
60.0719 44.7391 0.0233764
61.0264 41.9346 0.0230822
61.9848 39.3444 0.0230469
63.8458 37.4557 0.0238023
61.8203 37.4443 2
60.0147 39.827 2
58.7405 42.878 2
59.5173 37.5648 3.97741
57.6969 40.6275 3.97743
54.6909 39.6864 3.97545
62.0231 35.3696 0.0231776
60.0822 32.7697 0.0229243
58.4167 30.1148 0.0229881
56.6159 18.1806 0.033199
56.3056 20.5556 0.0397069
55.9847 22.9174 0.0371692
57.1056 27.4282 0.0233736
56.1337 25.1541 0.0264219
54.395 17.9472 0.0261146
52.3486 17.0699 0.0303011
51.3724 14.5152 0.0268324
48.0567 6.5281 0.0115242
49.3246 9.33525 0.018186
50.4319 12.0034 0.0227724
59.6594 35.134 2
45.9625 5.88227 2
43.3741 7.47353 2
57.7221 32.3094 2
56.3168 29.3943 2
55.3085 19.2188 2
54.9267 21.6069 2
54.7732 24.1205 2
55.2218 26.6667 2
47.3557 8.62407 2
48.5999 11.2989 2
53.1 18.694 2
51.283 18.0915 2
50.6243 16.1586 2
49.7093 13.7543 2
57.0846 34.777 3.97739
55.4411 31.5663 3.97707
54.2374 28.4797 3.97765
53.5843 25.5745 3.97595
53.9219 20.1755 3.96364
53.4683 22.7721 3.95565
41.3993 7.0801 3.98613
45.3604 7.99575 3.9865
42.8663 9.41764 3.98289
46.667 10.6573 3.98135
47.7423 13.1119 3.97853
48.9238 15.4186 3.97368
49.989 17.7238 3.97548
51.6172 19.3684 3.97755
50.3458 63.3768 0.0177633
51.2401 60.9258 0.0235717
56.4392 44.1306 0.0226048
55.2751 47.8445 0.0261824
52.2998 58.6107 0.0248952
54.1962 57.2491 0.025263
54.9425 51.3485 0.0338622
53.9474 54.511 0.0351011
49.5901 61.7388 2
55.2616 41.6697 2
50.557 59.3142 2
52.1542 56.4671 2
53.8844 45.4997 2
53.1453 49.276 2
52.5722 52.8128 2
48.8433 60.1951 3.97864
52.1128 42.569 3.98116
49.7692 57.6055 3.97149
50.5284 54.4005 3.96412
51.5476 47.2077 3.97592
51.0675 50.9015 3.95723
47.772 43.706 3.98845
47.9614 62.4686 0.0181911
47.3272 61.0014 2
46.6137 59.7885 3.98504
41.6633 67.6838 0.0160972
43.3565 65.5008 0.0182871
44.7669 63.446 0.0192902
45.9867 61.5776 0.016588
39.6329 67.7638 2
41.546 65.6382 2
45.7635 60.6223 2
43.1464 63.7185 2
44.4833 61.8256 2
44.6202 60.2817 3.98363
42.9501 62.0716 3.97842
41.5999 63.8107 3.9802
39.6476 65.6054 3.97992
37.5635 67.7444 3.98273
31.6973 65.1246 3.98101
33.3925 67.4826 3.98249
35.3339 69.9574 3.98735
37.526 70.0481 2
37.5095 72.458 3.99192
39.7021 70.0225 0.0123491
39.818 72.4038 2
39.9526 74.9197 4
42.111 72.2065 0.00789342
42.3947 74.6792 2
44.8159 74.2794 0
41.7365 4.96907 3.98913
43.8519 5.35909 2
44.3265 3.11061 3.99305
46.5714 3.64711 2
47.2057 1.27793 4
48.7853 4.32299 0.00740416
49.554 1.99013 2
51.8506 2.85458 0
58.7417 42.879 0.0229174
60.0156 39.8268 0.0227539
61.8217 37.4441 0.022715
59.5176 37.5651 2
57.6968 40.628 2
54.6902 39.6864 2
56.4755 37.8852 3.97718
49.1452 41.2759 3.98703
52.7093 39.3055 3.98338
39.4429 6.80393 3.98605
59.66 35.1344 0.022913
57.7225 32.3087 0.0232835
56.3175 29.393 0.0226251
55.3087 19.2183 0.0368811
54.9198 21.6077 0.0399882
54.7738 24.1181 0.036193
55.2249 26.6642 0.0226966
53.0989 18.6946 0.0312668
51.2824 18.0905 0.0216304
50.6241 16.1588 0.0241515
45.9627 5.88299 0.0110603
49.7094 13.7557 0.0234284
47.3556 8.62589 0.015727
48.5996 11.3008 0.0212714
43.3742 7.4743 0.0140419
57.0839 34.7766 2
41.3993 7.07897 2
45.3601 7.99503 2
42.8661 9.41694 2
55.4443 31.5651 2
54.2374 28.4803 2
53.9228 20.1776 2
53.468 22.7703 2
53.5825 25.5765 2
46.6671 10.6544 2
47.7426 13.1092 2
51.6186 19.3687 2
49.9885 17.7218 2
48.9234 15.4184 2
54.4919 33.9757 3.97605
53.1831 30.5684 3.97754
52.3314 27.2921 3.97578
52.0002 24.1823 3.97714
52.325 21.1066 3.97409
41.0138 9.05151 3.98264
44.7254 9.99601 3.98457
42.4682 10.9042 3.98574
46.0034 12.7359 3.97731
47.6746 14.5968 3.97361
48.0961 17.0035 3.97334
49.7971 19.7082 3.97293
49.5905 61.739 0.0191986
50.5572 59.3129 0.0259709
55.2636 41.6709 0.0240625
53.8811 45.4997 0.0249771
53.1393 49.2759 0.0301826
52.1544 56.4659 0.0310754
52.5719 52.8136 0.0377172
48.8429 60.1937 2
52.1258 42.5725 2
49.7688 57.6063 2
50.5283 54.402 2
51.5509 47.2081 2
51.068 50.8998 2
47.7824 43.7299 2
47.9744 58.7282 3.97897
49.7263 45.211 3.97889
48.5581 55.8982 3.97566
49.0336 52.5616 3.97712
49.4781 48.9926 3.97364
45.5456 39.8415 3.8813
46.0063 42.5792 3.91335
46.1746 45.7438 3.98479
43.3556 41.095 3.77586
41.819 41.9778 3.61794
47.327 61.0016 0.0152037
46.6134 59.7885 2
45.4601 58.7831 3.98209
39.6326 67.763 0.0164253
41.5462 65.6384 0.01905
43.1463 63.7176 0.0199593
44.483 61.8248 0.0190531
45.7634 60.6215 0.0171614
41.5999 63.8109 2
37.5637 67.7454 2
39.6475 65.6061 2
44.6205 60.2824 2
42.9503 62.0725 2
41.7532 62.4827 3.97934
42.4784 59.9681 3.98191
39.8938 63.5434 3.97824
37.6423 65.5033 3.98041
35.4637 67.6539 3.98268
33.5756 65.3367 3.97996
31.9593 63.2936 3.98084
29.8835 64.7166 3.98223
31.6973 65.1254 2
31.3771 67.1929 3.98315
33.3926 67.4833 2
33.1571 69.7513 3.9872
35.3337 69.9583 2
35.195 72.3723 3.99183
37.526 70.0472 0.0128356
37.5096 72.4585 2
37.5 75 4
39.8178 72.4034 0.00808702
39.9526 74.9197 2
42.3947 74.6792 0
39.6242 4.71657 3.98948
41.7365 4.96817 2
42.0628 2.71809 3.99328
43.8519 5.3599 0.0110515
44.3266 3.11011 2
44.8158 0.721173 4
46.5712 3.64746 0.00726957
47.2057 1.27779 2
49.554 1.99015 0
57.6969 40.6275 0.0225736
59.5173 37.5648 0.0225928
54.6909 39.6864 0.0245464
49.1663 41.288 2
56.4762 37.8857 2
52.7083 39.2955 2
53.5536 36.6314 3.97729
47.0699 40.3642 3.92004
50.0859 38.5215 3.99115
37.5168 6.67524 3.98597
39.4429 6.80266 2
39.2113 8.69464 3.98338
35.9427 8.49499 3.98386
57.0846 34.777 0.0226074
55.4411 31.5663 0.0229289
54.2374 28.4797 0.0223458
53.9219 20.1755 0.036356
53.4683 22.7721 0.0443532
53.5843 25.5745 0.0240464
51.6172 19.3684 0.0224514
49.989 17.7238 0.0245219
48.9238 15.4186 0.0263216
45.3604 7.99575 0.0135045
47.7423 13.1119 0.0214704
46.667 10.6573 0.0186513
41.3993 7.0801 0.0138652
42.8663 9.41764 0.0171081
54.4881 33.978 2
41.0139 9.0505 2
44.7247 9.99543 2
42.468 10.9041 2
53.1811 30.5681 2
52.3387 27.2944 2
52.3275 21.107 2
52.0013 24.1841 2
46.0032 12.7315 2
47.6743 14.5938 2
49.7986 19.708 2
48.0948 17.0012 2
52.0376 32.8903 3.97991
50.9825 29.2534 3.97512
50.5793 25.8171 3.97297
49.8773 22.298 3.9829
40.5688 11.6111 3.98081
43.8577 11.9166 3.9802
45.794 15.435 3.9813
47.4879 19.3208 3.97739
45.9297 37.4826 3.88001
48.8433 60.1951 0.0213578
49.7692 57.6055 0.0285108
52.1128 42.569 0.0188415
51.5476 47.2077 0.0240804
51.0675 50.9015 0.0427671
50.5284 54.4005 0.0358838
47.772 43.706 0.0115465
47.9738 58.7296 2
49.7404 45.2207 2
48.5567 55.9002 2
49.0328 52.5656 2
49.481 48.9897 2
45.5879 39.8514 2
46.0307 42.604 2
46.1811 45.7481 2
43.3812 41.1229 2
41.8383 41.9958 2
46.8183 57.3303 3.98172
44.1076 39.3823 3.7749
42.1724 40.8517 3.67144
47.8062 47.1974 3.97914
47.1093 54.2128 3.97106
47.4571 50.7144 3.96855
44.5725 47.3416 3.97642
44.6579 41.9125 3.86191
44.6485 44.4761 3.92976
42.2587 42.5937 3.78738
40.755 42.3033 3.65584
46.6137 59.7885 0.0149592
45.4607 58.7834 2
43.8648 57.7009 3.98276
37.5635 67.7444 0.0172675
39.6476 65.6054 0.0200786
41.5999 63.8107 0.019801
42.9501 62.0716 0.0215784
44.6202 60.2817 0.0163682
35.4638 67.6551 2
41.7534 62.4833 2
39.8937 63.544 2
37.6424 65.5042 2
42.479 59.9688 2
40.6232 61.6376 3.98046
40.4406 58.1924 3.97995
37.837 63.2039 3.9786
35.5731 65.4253 3.97995
33.5756 65.3372 2
31.959 63.2942 2
33.6287 63.3315 3.97915
30.3786 62.8534 3.98162
32.1239 61.9982 3.98354
26.8708 61.4943 3.9792
28.0624 64.1449 3.98181
29.8834 64.7171 2
29.4066 66.7571 3.98383
31.6973 65.1246 0.0189944
31.3772 67.1936 2
31.0147 69.4164 3.98712
33.3925 67.4826 0.0175082
33.157 69.7519 2
32.8921 72.1468 3.99194
35.3339 69.9574 0.0126467
35.1949 72.3729 2
35.0474 74.9194 4
37.5095 72.458 0.00808267
37.5 75 2
39.9526 74.9197 0
35.6215 6.72641 3.98552
37.5237 4.61609 3.98957
39.6242 4.71547 2
39.7893 2.47462 3.99326
41.7365 4.96907 0.0108721
42.0628 2.71757 2
42.3946 0.32156 4
44.3265 3.11061 0.00694621
44.8159 0.72056 2
47.2057 1.27793 0
49.1452 41.2759 0.0129686
56.4755 37.8852 0.0228233
52.7093 39.3055 0.0166219
47.09 40.3634 2
50.0933 38.5107 2
53.5601 36.635 2
50.8735 35.5785 3.97633
47.7365 37.7517 3.93466
45.5457 35.1453 3.87864
43.3618 33.891 3.76944
41.8201 33.0187 3.61397
37.4584 8.53648 3.98417
37.5167 6.67407 2
39.4429 6.80393 0.0139514
39.2115 8.69311 2
38.9763 10.1293 3.98371
35.8991 9.77674 3.98163
34.1517 8.82554 3.98279
35.9423 8.4935 2
54.4919 33.9757 0.0239522
53.1831 30.5684 0.0224561
52.3314 27.2921 0.02422
52.325 21.1066 0.0259149
52.0002 24.1823 0.0228623
49.7971 19.7082 0.0270681
48.0961 17.0035 0.0266643
47.6746 14.5968 0.0263858
44.7254 9.99601 0.0154271
46.0034 12.7359 0.022686
41.0138 9.05151 0.0173634
42.4682 10.9042 0.0142633
52.0441 32.8898 2
40.5695 11.6112 2
43.8567 11.9168 2
50.9993 29.2551 2
50.5846 25.8202 2
49.8776 22.2948 2
45.7925 15.4247 2
47.4887 19.3257 2
49.5819 31.4834 3.9866
49.0108 27.589 3.97469
49.257 24.4972 3.97825
47.1524 22.0647 3.98287
38.3023 12.7417 3.97803
42.0999 14.3067 3.97879
44.7892 18.5141 3.97782
44.4517 37.491 3.78431
45.9947 37.4896 2
47.9744 58.7282 0.0210278
48.5581 55.8982 0.0243357
49.7263 45.211 0.0211136
49.4781 48.9926 0.0263628
49.0336 52.5616 0.0228814
45.5456 39.8415 0.118702
46.0063 42.5792 0.0866458
46.1746 45.7438 0.0152099
43.3556 41.095 0.224139
41.819 41.9778 0.382056
46.8172 57.3312 2
44.1428 39.4038 2
42.1669 40.8617 2
47.8099 47.1997 2
47.1074 54.2169 2
47.4594 50.7181 2
44.5834 47.3201 2
44.6824 41.9354 2
44.6713 44.4956 2
42.3068 42.6242 2
40.7645 42.3014 2
45.3666 55.9196 3.98943
42.4944 39.2652 3.68226
40.639 40.7438 3.77259
45.9099 48.8718 3.98973
45.4487 52.5012 3.98256
43.2736 48.3509 3.99811
43.2125 46.0145 3.91096
43.3856 43.6931 3.86035
40.9035 43.7077 3.77189
39.2497 42.5994 3.67152
45.4601 58.7831 0.0179069
43.8651 57.702 2
42.0921 56.3138 3.98313
35.4637 67.6539 0.0173154
37.6423 65.5033 0.0195889
39.8938 63.5434 0.0217557
41.7532 62.4827 0.020658
42.4784 59.9681 0.018087
35.5732 65.4268 2
40.6235 61.6384 2
37.8367 63.2046 2
40.4411 58.1937 2
38.9195 56.4838 3.99033
38.2507 60.319 3.97926
35.6069 63.1964 3.97679
33.5756 65.3367 0.0200434
31.9593 63.2936 0.0191585
33.6285 63.3321 2
30.3785 62.8538 2
32.1241 61.9988 2
28.6819 62.1987 3.98117
33.346 61.5078 3.98081
31.0687 61.2159 3.98096
27.5747 59.5883 3.98085
23.8003 59.075 3.97876
25.0373 60.8672 3.97936
26.871 61.4951 2
26.2296 63.4755 3.98088
28.0625 64.1453 2
27.4632 66.1813 3.98405
29.8835 64.7166 0.0177744
29.4067 66.7576 2
28.907 68.9424 3.98695
31.3771 67.1929 0.0168532
31.0146 69.417 2
30.6145 71.7777 3.99178
33.1571 69.7513 0.0127974
32.8918 72.1472 2
32.6054 74.6784 4
35.195 72.3723 0.00816564
35.0474 74.9197 2
37.5 75 0
33.7243 6.98173 3.98488
35.4356 4.68638 3.98941
35.6213 6.72539 2
37.5148 2.38714 3.99325
37.5236 4.61528 2
39.6242 4.71657 0.0105245
39.7892 2.47401 2
39.9526 0.0806499 4
42.0628 2.71809 0.00672004
42.3947 0.320817 2
44.8158 0.721173 0
44.1188 35.5972 3.77204
42.1766 34.1368 3.66665
47.0699 40.3642 0.0799579
50.0859 38.5215 0.00885118
53.5536 36.6314 0.0227075
47.7377 37.755 2
50.8864 35.5755 2
45.5802 35.1232 2
43.3919 33.8616 2
41.8402 33.0001 2
47.9042 34.3041 3.96185
44.6576 33.0602 3.85569
42.2608 32.403 3.78135
40.757 32.6974 3.65263
37.3108 10.6341 3.9811
37.4583 8.53476 2
37.5168 6.67524 0.0140267
39.2113 8.69464 0.0166158
38.9773 10.1279 2
34.7548 10.3843 3.98131
35.8993 9.77428 2
32.3786 9.37309 3.98066
34.1507 8.82363 2
35.9427 8.49499 0.0161413
52.0376 32.8903 0.0200917
50.9825 29.2534 0.0248758
50.5793 25.8171 0.0270323
49.8773 22.298 0.0170969
47.4879 19.3208 0.0226065
45.794 15.435 0.0186967
43.8577 11.9166 0.0198003
40.5688 11.6111 0.0191914
49.5958 31.4786 2
38.3024 12.7398 2
42.1004 14.3096 2
49.0169 27.5897 2
49.2608 24.4944 2
47.1482 22.0591 2
44.7891 18.5312 2
47.419 29.5861 3.98335
46.9457 25.2444 3.97965
44.2646 21.4485 3.9768
36.5831 12.9407 3.97622
38.6828 14.8209 3.97595
41.7457 17.8773 3.97871
42.6138 37.4844 3.69745
44.4828 37.4904 2
45.9297 37.4826 0.11999
46.8183 57.3303 0.0182786
47.1093 54.2128 0.0289352
47.8062 47.1974 0.0208604
47.4571 50.7144 0.0314505
44.1076 39.3823 0.225103
44.6579 41.9125 0.138091
44.6485 44.4761 0.0702382
44.5725 47.3416 0.0235777
42.2587 42.5937 0.212618
42.1724 40.8517 0.328562
40.755 42.3033 0.344164
45.3653 55.919 2
42.486 39.2639 2
40.6329 40.7294 2
45.911 48.8794 2
45.4478 52.5072 2
43.2783 48.3696 2
43.2472 46.0435 2
43.4192 43.7208 2
40.9362 43.7514 2
39.2476 42.598 2
43.6977 54.4167 3.99624
40.7355 39.1426 3.79253
39.1156 40.8109 3.77486
43.5722 50.413 4.00439
41.8689 47.5582 3.94756
41.7787 45.1079 3.87497
39.3358 44.3889 3.77534
37.5047 42.6945 3.69472
43.8648 57.7009 0.0172398
42.0925 56.3143 2
40.4038 54.9033 3.98213
35.5731 65.4253 0.0200504
37.837 63.2039 0.0213995
40.6232 61.6376 0.0195429
40.4406 58.1924 0.0200532
35.6066 63.1977 2
38.251 60.3198 2
38.9197 56.4843 2
37.9954 55.2241 3.99056
36.9337 57.6156 3.98346
35.3635 60.902 3.97686
33.6287 63.3315 0.0208479
30.3786 62.8534 0.0183825
32.1239 61.9982 0.0164577
33.3463 61.5084 2
28.6821 62.1989 2
31.0692 61.2163 2
29.4069 60.2849 3.97942
32.3609 59.7392 3.98799
28.0354 58.3695 3.98993
27.5754 59.5892 2
25.3889 58.5889 3.9774
22.7694 58.2291 3.96984
23.4048 60.3444 3.979
23.8008 59.0759 2
25.0376 60.868 2
24.4329 62.7671 3.981
26.8708 61.4943 0.0207955
26.2297 63.4763 2
25.5475 65.4906 3.98306
28.0624 64.1449 0.018186
27.4633 66.1818 2
26.8365 68.3308 3.98697
29.4066 66.7571 0.0161699
28.9069 68.9426 2
28.3695 71.263 3.99179
31.0147 69.4164 0.0128778
30.6141 71.7781 2
30.1842 74.2788 4
32.8921 72.1468 0.00806162
32.6053 74.6792 2
35.0474 74.9194 0
31.7888 7.42184 3.98367
33.348 4.92592 3.98886
33.724 6.98026 2
35.245 2.46319 3.99317
35.4353 4.68574 2
35.6215 6.72641 0.0144849
37.5 0 4
37.5146 2.3867 2
37.5237 4.61609 0.0104301
39.7893 2.47462 0.00673608
39.9526 0.0802889 2
42.3946 0.32156 0
42.4864 35.7098 3.68225
44.1528 35.576 2
40.6439 34.2528 3.77111
42.1671 34.1281 2
47.7365 37.7517 0.0653424
50.8735 35.5785 0.0236693
45.5457 35.1453 0.121359
43.3618 33.891 0.230557
41.8201 33.0187 0.386033
47.9214 34.2984 2
44.6848 33.042 2
42.3124 32.3684 2
40.7684 32.6987 2
45.9321 31.6322 3.93416
43.3775 31.3052 3.86201
40.9023 31.2917 3.77374
39.25 32.4115 3.67042
35.6934 11.7818 3.9794
37.3121 10.6315 2
37.4584 8.53648 0.0158315
38.9763 10.1293 0.016292
33.0994 11.2232 3.97738
34.7543 10.3813 2
35.8991 9.77674 0.018373
30.4837 10.023 3.98027
32.3778 9.37248 2
34.1517 8.82554 0.0172081
49.5819 31.4834 0.013402
49.0108 27.589 0.0253079
49.257 24.4972 0.0217471
47.1524 22.0647 0.0171258
44.7892 18.5141 0.0221755
42.0999 14.3067 0.0212133
38.3023 12.7417 0.021973
36.5825 12.9355 2
47.4308 29.5626 2
38.6818 14.8145 2
41.7436 17.8786 2
46.9531 25.2437 2
44.2608 21.4323 2
45.2923 27.7132 4.00215
43.7067 24.1651 4.0085
41.3246 20.8348 3.98022
35.7736 14.7738 3.97722
38.6821 17.6226 3.97841
40.7869 37.4782 3.8021
42.611 37.4862 2
44.4517 37.491 0.215689
45.3666 55.9196 0.0105653
45.4487 52.5012 0.017443
45.9099 48.8718 0.0102672
42.4944 39.2652 0.317742
43.3856 43.6931 0.139645
43.2125 46.0145 0.0890356
43.2736 48.3509 0.00188745
40.9035 43.7077 0.228107
40.639 40.7438 0.227408
39.2497 42.5994 0.328483
43.6953 54.4161 2
40.7183 39.1359 2
39.1168 40.793 2
43.571 50.43 2
41.8612 47.5793 2
41.8003 45.1388 2
37.503 42.6958 2
39.3526 44.4254 2
41.8475 52.9581 3.995
39.1349 39.1551 3.79595
37.5047 40.8599 3.78877
35.7622 42.6072 3.6731
40.8593 49.6116 3.9972
39.7996 45.949 3.85178
37.5036 44.6191 3.77066
42.0921 56.3138 0.0168717
40.4013 54.9114 2
38.7222 53.7852 3.99658
35.6069 63.1964 0.0232133
38.2507 60.319 0.0207392
38.9195 56.4838 0.00967032
35.3638 60.9027 2
36.9347 57.6165 2
37.9948 55.2171 2
36.3244 55.3029 3.99826
34.489 58.5074 3.98519
33.346 61.5078 0.0191869
28.6819 62.1987 0.0188288
31.0687 61.2159 0.019043
32.3615 59.7398 2
29.4076 60.285 2
30.3128 57.8142 3.98444
28.0359 58.3702 2
26.9696 56.8221 3.97539
27.5747 59.5883 0.0191454
25.3896 58.59 2
23.8635 56.7888 3.96251
21.3516 57.3815 3.96864
22.0006 59.6135 3.97711
22.7698 58.2307 2
22.7379 62.0168 3.9785
23.4052 60.3452 2
23.8003 59.075 0.0212413
25.0373 60.8672 0.0206367
24.4332 62.768 2
23.6818 64.7079 3.98256
26.2296 63.4755 0.0191177
25.5476 65.4916 2
24.8087 67.592 3.98664
27.4632 66.1813 0.0159489
26.8365 68.3315 2
26.1646 70.6037 3.99184
28.907 68.9424 0.0130514
28.3691 71.2631 2
27.7943 73.7221 4
30.6145 71.7777 0.00821815
30.1841 74.2794 2
32.6054 74.6784 0
29.8115 7.99652 3.98266
31.2534 5.33293 3.98795
31.7884 7.42091 2
32.9808 2.70148 3.99285
33.3476 4.92489 2
33.7243 6.98173 0.0151188
35.0474 0.080333 4
35.2447 2.46288 2
35.4356 4.68638 0.0105864
37.5 0 2
37.5148 2.38714 0.0067497
39.9526 0.0806499 0
40.74 35.8288 3.79028
42.4781 35.7128 2
44.1188 35.5972 0.227958
28.5443 10.6985 3.97909
39.1125 34.1986 3.7742
40.634 34.2672 2
42.1766 34.1368 0.333345
47.9042 34.3041 0.038152
44.6576 33.0602 0.144306
42.2608 32.403 0.218647
40.757 32.6974 0.347367
45.9605 31.6161 2
43.4099 31.2736 2
40.9377 31.2488 2
39.253 32.4141 2
44.1956 29.8274 3.92749
41.7733 29.8908 3.87329
39.3399 30.6166 3.77416
37.5081 32.3249 3.69424
34.0943 12.9444 3.97584
35.6931 11.7764 2
37.3108 10.6341 0.0189038
31.1879 11.9936 3.97812
33.0996 11.2224 2
34.7548 10.3843 0.0186867
30.4823 10.0205 2
32.3786 9.37309 0.0193394
47.419 29.5861 0.0166466
46.9457 25.2444 0.020354
36.5831 12.9407 0.023777
44.2646 21.4485 0.0232019
41.7457 17.8773 0.0212899
38.6828 14.8209 0.0240454
35.7742 14.7792 2
45.2968 27.7127 2
38.6797 17.6249 2
41.3196 20.8251 2
43.7102 24.1559 2
33.6108 15.8929 3.97713
42.8976 26.5642 3.99546
40.8622 23.4008 4.01162
38.4128 20.4009 3.9844
35.8523 17.5278 3.97953
39.1398 37.4889 3.81976
40.7719 37.4782 2
42.6138 37.4844 0.302545
43.6977 54.4167 0.00376457
43.5722 50.413 -0.00438749
40.7355 39.1426 0.207467
41.7787 45.1079 0.125033
41.8689 47.5582 0.0524398
39.3358 44.3889 0.224658
39.1156 40.8109 0.225138
37.5047 42.6945 0.305283
41.8444 52.9554 2
39.1244 39.1433 2
37.5041 40.8374 2
40.864 49.6268 2
35.759 42.605 2
39.8185 45.9876 2
37.497 44.6514 2
39.7882 51.8251 4.00133
37.5015 39.1655 3.82313
35.8951 40.8245 3.77513
34.2548 42.3135 3.65287
35.67 44.402 3.77141
38.6697 48.5953 3.96211
37.5178 46.245 3.86848
40.4038 54.9033 0.0178678
38.722 53.7784 2
36.7436 53.1217 3.99888
35.3635 60.902 0.0231374
36.9337 57.6156 0.016539
37.9954 55.2241 0.0094412
34.4902 58.5081 2
36.3251 55.3052 2
33.2471 55.4842 3.99425
32.3609 59.7392 0.012011
29.4069 60.2849 0.0205837
30.3135 57.8143 2
28.7304 55.31 3.97919
28.0354 58.3695 0.0100674
26.9699 56.8227 2
25.3542 55.1277 3.9695
21.8421 55.329 3.96468
25.3889 58.5889 0.0225999
23.8635 56.7911 2
20.2377 57.01 3.97095
20.6548 58.765 3.9724
21.3515 57.383 2
21.17 61.1643 3.97674
22.001 59.6144 2
22.7694 58.2291 0.0301618
21.8958 63.8349 3.9811
22.7382 62.0177 2
23.4048 60.3444 0.0210007
24.4329 62.7671 0.018998
23.6819 64.7087 2
22.837 66.735 3.98575
25.5475 65.4906 0.0169401
24.8087 67.5929 2
24.0088 69.8049 3.99191
26.8365 68.3308 0.0130306
26.1641 70.604 2
25.446 73.0099 4
28.3695 71.263 0.00820601
27.7943 73.7222 2
30.1842 74.2788 0
27.8214 8.65615 3.98226
29.1556 5.87927 3.98683
29.8107 7.99447 2
30.7261 3.09852 3.99256
31.253 5.33209 2
31.7888 7.42184 0.0163255
32.6053 0.320823 4
32.9804 2.70098 2
33.348 4.92592 0.0111409
35.0474 0.0802903 2
35.245 2.46319 0.00683367
37.5 0 0
39.1344 35.8345 3.79664
40.7215 35.8343 2
42.4864 35.7098 0.317751
28.5432 10.6975 2
26.6228 11.3946 3.97894
29.2269 12.6498 3.97883
37.5012 34.1617 3.78765
39.1143 34.2177 2
40.6439 34.2528 0.228893
45.9321 31.6322 0.0658392
43.3775 31.3052 0.137991
40.9023 31.2917 0.226264
39.25 32.4115 0.329582
44.1969 29.8166 2
41.79 29.8638 2
39.3511 30.5794 2
37.5098 32.3228 2
42.2271 28.4902 3.8999
39.8037 29.0466 3.87288
37.5106 30.3965 3.77055
35.768 32.4119 3.67129
31.9173 14.4938 3.97733
34.0951 12.9445 2
35.6934 11.7818 0.0205966
31.187 11.9897 2
33.0994 11.2232 0.0226246
30.4837 10.023 0.0197285
45.2923 27.7132 -0.0021475
43.7067 24.1651 -0.00849624
35.7736 14.7738 0.0227848
41.3246 20.8348 0.0197791
38.6821 17.6226 0.0215905
33.6093 15.8886 2
35.8489 17.5306 2
42.9066 26.5655 2
38.4106 20.4014 2
40.8579 23.3848 2
33.5555 17.4026 3.97824
40.322 25.7625 3.98537
38.067 23.0545 3.99796
35.5837 20.1144 3.98223
37.4999 37.4998 3.84187
39.1302 37.4881 2
40.7869 37.4782 0.197903
41.8475 52.9581 0.00500134
40.8593 49.6116 0.00279774
39.1349 39.1551 0.204051
39.7996 45.949 0.148217
37.5036 44.6191 0.22934
37.5047 40.8599 0.211231
35.7622 42.6072 0.326899
39.7884 51.8277 2
37.5018 39.1517 2
35.8937 40.807 2
38.684 48.6369 2
34.2447 42.3125 2
35.653 44.4406 2
37.521 46.2849 2
37.6585 50.8887 4.00111
35.8727 39.173 3.7968
34.3722 40.7645 3.77178
33.1857 41.9899 3.6174
34.0938 43.7096 3.77306
35.1889 45.9462 3.86489
36.9119 48.2197 3.93099
38.7222 53.7852 0.00342446
36.7388 53.1247 2
34.3983 52.4274 3.99666
34.489 58.5074 0.0148074
36.3244 55.3029 0.00174016
33.2475 55.4869 2
30.5634 53.3399 3.98164
30.3128 57.8142 0.0155637
28.7308 55.3117 2
26.9488 53.4239 3.97243
26.9696 56.8221 0.0246087
25.3542 55.1314 2
23.647 53.459 3.95875
20.5534 53.1939 3.96199
19.96 55.811 3.96616
21.8407 55.3306 2
23.8635 56.7888 0.0374925
19.4511 57.8716 3.97142
20.2372 57.0114 2
19.7116 60.1907 3.97585
20.6548 58.7656 2
21.3516 57.3815 0.0313632
20.2089 62.8548 3.9785
21.1704 61.1659 2
22.0006 59.6135 0.022894
20.9384 65.7635 3.98475
21.8958 63.8359 2
22.7379 62.0168 0.0215003
23.6818 64.7079 0.0174449
22.8371 66.7356 2
21.9113 68.8718 3.99154
24.8087 67.592 0.0133571
24.0082 69.8051 2
23.1494 72.1454 4
26.1646 70.6037 0.0081599
25.446 73.0099 2
27.7943 73.7221 0
25.8605 9.38502 3.98128
27.0703 6.54331 3.98578
27.8205 8.65527 2
28.4884 3.64459 3.99203
29.1549 5.87794 2
29.8115 7.99652 0.0173404
30.1841 0.720592 4
30.7255 3.09816 2
31.2534 5.33293 0.012053
32.6053 0.320817 2
32.9808 2.70148 0.00715335
35.0474 0.080333 0
37.501 35.8403 3.82205
39.1221 35.8447 2
40.74 35.8288 0.209722
24.7778 12.08 3.97881
23.7536 14.3698 3.9773
28.5443 10.6985 0.0209138
26.622 11.3945 2
29.2261 12.6488 2
27.2932 13.3833 3.97821
29.7836 14.2121 3.97844
35.8922 34.1974 3.77386
37.503 34.1836 2
39.1125 34.1986 0.225799
37.5081 32.3249 0.305763
44.1956 29.8274 0.0725075
41.7733 29.8908 0.126709
39.3399 30.6166 0.225843
42.2472 28.46 2
39.816 29.0116 2
37.5142 30.3617 2
35.7667 32.4138 2
39.9871 27.6845 3.90389
37.5027 28.7635 3.86872
35.6781 30.6277 3.77704
34.265 32.7039 3.65297
30.9308 16.8558 3.9779
31.9165 14.4872 2
34.0943 12.9444 0.024161
31.1879 11.9936 0.0218781
42.8976 26.5642 0.00453738
40.8622 23.4008 -0.0116243
33.6108 15.8929 0.0228743
35.8523 17.5278 0.0204719
38.4128 20.4009 0.0156038
33.551 17.4153 2
35.5848 20.1181 2
40.3253 25.7455 2
38.0571 23.0437 2
32.8697 19.8084 3.98748
37.7784 25.3607 3.99793
35.1944 22.7741 3.994
35.8607 37.5037 3.82053
37.4997 37.4997 2
39.1398 37.4889 0.180241
39.7882 51.8251 -0.00132929
38.6697 48.5953 0.0378899
37.5015 39.1655 0.176874
37.5178 46.245 0.13152
35.67 44.402 0.228594
35.8951 40.8245 0.224874
34.2548 42.3135 0.347131
37.6469 50.9103 2
35.8849 39.1614 2
34.3771 40.751 2
36.8903 48.2622 2
33.1659 42.0066 2
34.0662 43.7496 2
35.1743 45.9772 2
35.5139 50.0545 3.99213
34.2761 39.1707 3.79228
32.8271 40.8696 3.66882
32.744 42.6067 3.78346
33.2324 45.1106 3.87065
34.3476 47.3187 3.90564
36.7436 53.1217 0.0011186
34.3925 52.4337 2
32.0825 51.1524 4.00916
33.2471 55.4842 0.00574831
30.5635 53.3441 2
28.5096 51.5593 3.98377
28.7304 55.31 0.020813
26.9485 53.4272 2
25.1808 51.7111 3.95634
25.3542 55.1277 0.0305047
23.6461 53.4614 2
22.0846 51.7678 3.95463
19.3326 51.6001 3.96267
18.971 54.2842 3.96321
20.5528 53.1932 2
18.4667 56.7039 3.96815
19.9588 55.8124 2
21.8421 55.329 0.0353184
18.3766 59.0941 3.96995
19.4507 57.8726 2
20.2377 57.01 0.0290539
18.6216 61.7572 3.97448
19.7121 60.1921 2
20.6548 58.765 0.027595
19.1275 64.6731 3.98341
20.2089 62.856 2
21.17 61.1643 0.0232554
19.8856 67.8085 3.99145
20.9384 65.7644 2
21.8958 63.8349 0.0189022
22.837 66.735 0.0142504
21.9107 68.8717 2
20.9142 71.1327 4
24.0088 69.8049 0.00808639
23.1494 72.1455 2
25.446 73.0099 0
23.0973 12.7959 3.97832
23.9731 10.1734 3.98037
25.0239 7.31398 3.98476
25.8598 9.38456 2
26.2802 4.3287 3.99153
27.0696 6.54262 2
27.8214 8.65615 0.0177383
27.7943 1.27781 4
28.4875 3.64417 2
29.1556 5.87927 0.0131745
30.1841 0.720551 2
30.7261 3.09852 0.00743735
32.6053 0.320823 0
35.8651 35.8387 3.79468
37.5017 35.8543 2
39.1344 35.8345 0.203355
24.7772 12.0791 2
23.7541 14.37 2
22.483 15.0472 3.97868
25.3595 13.9182 3.97696
24.0305 15.6336 3.97932
26.6228 11.3946 0.0210565
29.2269 12.6498 0.0211743
27.2932 13.3835 2
29.7818 14.2104 2
28.3619 15.988 3.97775
34.3733 34.2607 3.77025
35.8911 34.216 2
37.5012 34.1617 0.212352
35.768 32.4119 0.328714
37.5106 30.3965 0.22945
42.2271 28.4902 0.100098
39.8037 29.0466 0.127123
40.0069 27.6561 2
37.5036 28.7268 2
35.6616 30.5851 2
34.2513 32.7069 2
37.5784 27.3982 3.91597
35.1979 29.0621 3.87141
34.105 31.3062 3.77293
33.2019 33.0294 3.61619
30.2168 19.3714 3.98093
30.9289 16.8486 2
31.9173 14.4938 0.022665
40.322 25.7625 0.0146291
38.067 23.0545 0.00203673
33.5555 17.4026 0.021761
35.5837 20.1144 0.0177701
32.8683 19.8222 2
35.1899 22.7626 2
37.7757 25.3479 2
32.3195 22.5002 3.99644
35.0219 25.3234 4.00038
34.2177 37.5117 3.80339
35.8707 37.5047 2
37.4999 37.4998 0.15813
37.6585 50.8887 -0.00110853
36.9119 48.2197 0.0690128
35.8727 39.173 0.203202
35.1889 45.9462 0.13511
34.0938 43.7096 0.226936
34.3722 40.7645 0.228215
33.1857 41.9899 0.382601
35.5025 50.0584 2
34.295 39.1649 2
32.8323 40.8766 2
34.3365 47.3595 2
32.7058 42.637 2
33.2152 45.1392 2
33.3356 49.0561 3.984
32.5098 39.2909 3.68467
31.6375 41.111 3.7736
31.6187 43.7022 3.86242
32.4047 46.26 3.90383
34.3983 52.4274 0.00333519
32.0842 51.163 2
29.9868 49.6749 3.98662
30.5634 53.3399 0.0183637
28.5086 51.5575 2
26.6437 49.9382 3.96889
26.9488 53.4239 0.0275702
25.1796 51.709 2
23.4921 50.1408 3.96421
23.647 53.459 0.041248
22.0838 51.7661 2
20.6231 50.271 3.96522
18.1382 50.2944 3.96798
17.9349 52.7624 3.96435
19.3312 51.5994 2
17.4682 55.321 3.96305
18.9676 54.2844 2
20.5534 53.1939 0.0380091
17.1469 57.8557 3.96645
18.4658 56.7042 2
19.96 55.811 0.0338439
17.1401 60.5343 3.97309
18.3765 59.0951 2
19.4511 57.8716 0.0285838
17.4088 63.4638 3.97913
18.6218 61.7583 2
19.7116 60.1907 0.0241466
17.9421 66.617 3.99069
19.1274 64.6743 2
20.2089 62.8548 0.0215033
18.75 69.9759 4
19.8848 67.8083 2
20.9384 65.7635 0.0152542
21.9113 68.8718 0.00845879
20.9142 71.1327 2
23.1494 72.1454 0
21.5887 13.6173 3.97802
22.1912 11.0337 3.97943
23.0973 12.7962 2
23.0417 8.18046 3.98383
23.9724 10.1724 2
24.1178 5.14348 3.99101
25.0232 7.31335 2
25.8605 9.38502 0.0187166
25.446 1.99014 4
26.2791 4.32869 2
27.0703 6.54331 0.0142206
27.7943 1.27778 2
28.4884 3.64459 0.00797176
30.1841 0.720592 0
34.2705 35.8486 3.79154
35.8761 35.8503 2
37.501 35.8403 0.17795
21.3105 15.8441 3.98069
24.7778 12.08 0.0211904
23.7536 14.3698 0.022702
25.3596 13.917 2
22.4838 15.0474 2
24.0309 15.6347 2
23.2718 16.2643 3.97574
25.3866 16.1037 3.97897
27.2932 13.3833 0.0217864
29.7836 14.2121 0.0215614
28.3595 15.9914 2
27.4478 18.8233 3.979
32.8366 34.1518 3.66896
34.3836 34.2754 2
35.8922 34.1974 0.226142
34.265 32.7039 0.34703
35.6781 30.6277 0.222959
37.5027 28.7635 0.131284
39.9871 27.6845 0.0961051
37.5812 27.3614 2
33.1812 33.0125 2
35.1912 29.0194 2
34.0682 31.2597 2
35.0934 27.517 3.91485
33.2315 29.9054 3.86806
32.7594 32.4058 3.77077
29.6081 21.9687 3.9956
30.2161 19.3833 2
30.9308 16.8558 0.0220998
37.7784 25.3607 0.00206921
35.1944 22.7741 0.00600475
32.8697 19.8084 0.0125169
32.3191 22.4906 2
35.039 25.3108 2
31.8007 25.7248 4.00799
32.3772 37.5128 3.69993
34.2377 37.5117 2
35.8607 37.5037 0.179472
35.5139 50.0545 0.00787481
34.3476 47.3187 0.0943587
34.2761 39.1707 0.207724
33.2324 45.1106 0.129349
32.744 42.6067 0.216541
32.8271 40.8696 0.331177
33.3292 49.0558 2
32.5245 39.2898 2
31.607 41.1368 2
32.3717 46.2923 2
31.5872 43.7298 2
31.3101 47.8945 3.98437
30.8866 39.4043 3.77379
30.3406 41.9412 3.85687
30.648 44.8617 3.92573
32.0825 51.1524 -0.0091603
29.9856 49.6807 2
28.067 48.1223 3.96259
28.5096 51.5593 0.0162338
26.6425 49.9361 2
24.8453 48.4091 3.97218
25.1808 51.7111 0.0436604
23.4916 50.1386 2
21.8669 48.7329 3.96979
22.0846 51.7678 0.0453723
20.6213 50.2699 2
19.2128 49.0501 3.97217
17.0348 49.2994 3.97307
16.8835 51.3784 3.96697
18.14 50.2933 2
16.4427 53.8494 3.96455
17.9327 52.7622 2
19.3326 51.6001 0.0373343
15.9923 56.4599 3.96595
17.4656 55.3215 2
18.971 54.2842 0.0367913
15.7565 59.1968 3.96929
17.1469 57.8563 2
18.4667 56.7039 0.031851
15.7906 62.1306 3.97402
17.1405 60.536 2
18.3766 59.0941 0.0300548
16.0893 65.2995 3.98939
17.4085 63.4655 2
18.6216 61.7572 0.0255171
16.6661 68.6801 4
17.941 66.6166 2
19.1275 64.6731 0.0165886
18.75 69.9759 2
19.8856 67.8085 0.00854551
20.9142 71.1327 0
20.2221 14.6082 3.97656
21.589 13.6175 2
20.5307 12.0048 3.97874
21.1445 9.15085 3.98309
22.1909 11.0337 2
23.0973 12.7959 0.0216835
22.0169 6.08273 3.99039
23.0409 8.17955 2
23.9731 10.1734 0.0196258
23.1494 2.85457 4
24.1165 5.14362 2
25.0239 7.31398 0.0152378
25.446 1.99012 2
26.2802 4.3287 0.00847293
27.7943 1.27781 0
32.5034 35.7311 3.67939
34.2894 35.8574 2
35.8651 35.8387 0.205323
21.3113 15.8437 2
20.3112 16.9764 3.9804
22.1041 16.6504 3.97309
25.3595 13.9182 0.0230366
22.483 15.0472 0.0213194
24.0305 15.6336 0.0206786
25.3863 16.1037 2
23.2724 16.265 2
24.2134 18.4791 3.97359
27.0481 21.4913 3.99158
28.3619 15.988 0.0222538
27.449 18.8215 2
31.654 33.9166 3.77055
32.8428 34.1411 2
34.3733 34.2607 0.229754
33.2019 33.0294 0.383814
34.105 31.3062 0.227068
35.1979 29.0621 0.128594
37.5784 27.3982 0.0840257
35.0886 27.4757 2
32.6914 32.3746 2
33.2178 29.8861 2
32.6685 28.2246 3.92583
31.62 31.3245 3.86302
28.9098 24.4508 3.98206
29.6026 21.98 2
30.2168 19.3714 0.0190706
35.0219 25.3234 -0.000384907
32.3195 22.5002 0.00355508
31.8027 25.7025 2
29.8085 27.3814 3.97357
30.5349 37.5074 3.78276
32.3893 37.5116 2
34.2177 37.5117 0.196613
33.3356 49.0561 0.0160009
32.4047 46.26 0.0961716
32.5098 39.2909 0.315334
31.6187 43.7022 0.13758
31.6375 41.111 0.226403
31.3064 47.8984 2
30.8446 39.4255 2
30.3147 41.9578 2
30.6259 44.8843 2
29.4306 46.4983 4.00222
29.445 39.853 3.88034
29.0459 43.0927 3.92562
29.9868 49.6749 0.0133787
28.0641 48.1185 2
26.1993 46.5879 3.97638
26.6437 49.9382 0.0311104
24.8446 48.4062 2
23.0674 47.01 3.97476
23.4921 50.1408 0.0357904
21.8657 48.7318 2
20.1898 47.569 3.97716
20.6231 50.271 0.0347832
19.2146 49.0486 2
17.8359 48.1422 3.97633
16.2733 48.6545 3.97612
17.0362 49.2985 2
15.9634 50.143 3.97056
15.4493 52.394 3.96647
16.8841 51.3778 2
18.1382 50.2944 0.0320156
14.8928 54.9631 3.96488
16.4428 53.8491 2
17.9349 52.7624 0.0356493
14.4689 57.7268 3.96651
15.9927 56.4599 2
17.4682 55.321 0.0369508
14.2696 60.6844 3.97309
15.7569 59.1979 2
17.1469 57.8557 0.0335528
14.3345 63.8581 3.98601
15.7903 62.1317 2
17.1401 60.5343 0.0269115
14.6715 67.2507 4
16.0877 65.2986 2
17.4088 63.4638 0.0208651
16.6661 68.6801 2
17.9421 66.617 0.00930838
18.75 69.9759 0
18.9374 15.7948 3.97799
20.2226 14.608 2
18.9811 13.1169 3.97735
21.5887 13.6173 0.0219779
20.5307 12.0048 2
19.3437 10.2395 3.98228
19.9914 7.14742 3.9899
21.1439 9.15063 2
22.1912 11.0337 0.0205723
20.9142 3.86727 4
22.0153 6.083 2
23.0417 8.18046 0.0161683
23.1494 2.85451 2
24.1178 5.14348 0.00898801
25.446 1.99014 0
30.9046 35.6266 3.77562
32.5147 35.7339 2
34.2705 35.8486 0.208462
21.3105 15.8441 0.0193148
22.105 16.6505 2
20.3119 16.9752 2
19.2614 18.4259 3.9731
21.7912 17.8701 3.97994
25.3866 16.1037 0.021033
23.2718 16.2643 0.0242645
24.2135 18.4804 2
22.308 19.9214 3.96828
24.6299 21.3653 3.98854
26.5186 23.7582 3.97172
27.0473 21.4872 2
27.4478 18.8233 0.0210045
30.372 33.0903 3.87056
31.6295 33.8801 2
32.8366 34.1518 0.331036
32.7594 32.4058 0.229232
33.2315 29.9054 0.131938
35.0934 27.517 0.0851534
32.6283 28.1971 2
31.5833 31.2886 2
30.3349 29.6406 3.94549
28.0567 26.5927 3.98824
28.9044 24.467 2
29.6081 21.9687 0.00440084
31.8007 25.7248 -0.00798881
29.8039 27.351 2
29.0552 37.519 3.88066
30.5108 37.5081 2
32.3772 37.5128 0.30007
31.3101 47.8945 0.0156306
30.648 44.8617 0.0742732
30.8866 39.4043 0.226209
30.3406 41.9412 0.143131
29.4298 46.5102 2
29.4106 39.8731 2
29.0174 43.1207 2
27.6184 44.805 3.97353
27.2149 40.5943 3.95123
28.067 48.1223 0.0374102
26.1951 46.5891 2
24.3233 45.1315 3.97608
24.8453 48.4091 0.0278204
23.0662 47.0091 2
21.1705 45.8362 3.97819
21.8669 48.7329 0.0302076
20.1889 47.5678 2
18.5205 46.6949 3.97813
19.2128 49.0501 0.0278348
17.8373 48.1411 2
16.4818 47.6833 3.9771
16.2745 48.6537 2
15.3086 48.9903 3.97385
17.0348 49.2994 0.0269308
15.9649 50.1422 2
14.5679 50.9642 3.96861
13.8641 53.4208 3.96575
15.4504 52.3935 2
16.8835 51.3784 0.0330312
13.2644 56.1582 3.96663
14.892 54.9632 2
16.4427 53.8494 0.0354525
12.8535 59.1181 3.97133
14.4695 57.7269 2
15.9923 56.4599 0.0340495
12.6803 62.3002 3.98307
14.2697 60.6847 2
15.7565 59.1968 0.0307087
12.7746 65.6939 4
14.3326 63.8563 2
15.7906 62.1306 0.0259821
14.6714 67.2507 2
16.0893 65.2995 0.0106055
16.6661 68.6801 0
17.6776 17.172 3.97226
18.9379 15.7943 2
17.5134 14.3821 3.97644
20.2221 14.6082 0.0234417
18.9813 13.1167 2
17.6393 11.4592 3.98092
20.5307 12.0048 0.0212618
19.3434 10.2394 2
18.0515 8.34039 3.98953
18.75 5.0241 4
19.9897 7.14837 2
21.1445 9.15085 0.0169136
20.9142 3.86727 2
22.0169 6.08273 0.00960907
23.1494 2.85457 0
29.4614 35.1628 3.88275
30.855 35.6013 2
32.5034 35.7311 0.320611
22.1041 16.6504 0.0269135
20.3112 16.9764 0.0195989
21.792 17.8691 2
19.2618 18.4246 2
18.0174 19.9638 3.9611
20.9024 19.4007 3.97341
24.2134 18.4791 0.0264053
22.3078 19.9212 2
24.6294 21.3669 2
22.4132 21.7535 3.97764
24.7874 23.2008 3.97677
25.6448 25.9896 3.97679
26.5206 23.7558 2
27.0481 21.4913 0.00841569
28.7514 32.4132 3.92935
30.3388 33.0684 2
31.654 33.9166 0.229454
31.62 31.3245 0.136984
32.6685 28.2246 0.0741692
30.3285 29.6408 2
27.2862 29.1818 4.00635
28.0484 26.6053 2
28.9098 24.4508 0.0179423
29.8085 27.3814 0.0264257
27.3259 37.3683 3.9317
28.9995 37.5069 2
30.5349 37.5074 0.217238
29.4306 46.4983 -0.00221808
29.0459 43.0927 0.074378
29.445 39.853 0.119665
27.6088 44.831 2
27.1965 40.5979 2
25.6459 43.1124 3.98848
24.4713 39.4532 3.97585
26.1993 46.5879 0.0236214
24.3151 45.1323 2
22.2102 43.8866 3.97798
23.0674 47.01 0.0252373
21.168 45.8353 2
19.2257 44.9271 3.97776
20.1898 47.569 0.022841
18.5211 46.6938 2
16.8039 46.1804 3.97707
17.8359 48.1422 0.0236655
16.4832 47.6825 2
15.0566 47.6452 3.97526
16.2733 48.6545 0.0238766
15.3102 48.9896 2
13.8708 49.5267 3.97075
15.9634 50.143 0.0294363
14.5689 50.9637 2
12.9352 51.8615 3.96687
12.1516 54.5204 3.96687
13.864 53.4207 2
15.4493 52.394 0.0335271
11.539 57.4523 3.97085
13.2649 56.1581 2
14.8928 54.9631 0.0351189
11.1352 60.6257 3.9807
12.854 59.1177 2
14.4689 57.7268 0.0334901
10.9835 64.0165 4
12.6785 62.2974 2
14.2696 60.6844 0.0269064
12.7745 65.694 2
14.3345 63.8581 0.0139909
14.6715 67.2507 0
16.4202 18.6696 3.96447
17.6778 17.1712 2
16.1064 15.7926 3.97359
18.9374 15.7948 0.0220127
17.5137 14.3815 2
16.0213 12.8138 3.97879
18.9811 13.1169 0.0226495
17.6392 11.459 2
16.2026 9.66355 3.98906
19.3437 10.2395 0.0177157
18.0498 8.34173 2
16.6661 6.31991 4
18.75 5.02404 2
19.9914 7.14742 0.0101009
20.9142 3.86727 0
27.8577 34.8048 3.92275
29.4268 35.1475 2
30.9046 35.6266 0.224381
16.7292 21.399 3.96523
21.7912 17.8701 0.0200623
19.2614 18.4259 0.0269005
20.9025 19.3995 2
18.0177 19.9629 2
19.7842 21.6022 3.96978
22.308 19.9214 0.0317199
24.6299 21.3653 0.0114552
22.4131 21.7535 2
24.7877 23.2001 2
22.9885 24.6388 3.97268
24.8276 28.5724 3.97866
25.642 25.987 2
26.5186 23.7582 0.0282765
26.5996 31.7663 3.98226
28.7232 32.3897 2
30.372 33.0903 0.129438
30.3349 29.6406 0.0545139
27.3076 29.1638 2
28.0567 26.5927 0.0117607
25.1559 36.8598 3.98171
27.3122 37.3602 2
29.0552 37.519 0.119339
27.6184 44.805 0.0264677
27.2149 40.5943 0.0487729
25.6292 43.125 2
24.4549 39.4538 2
23.3651 41.8142 3.9801
22.1885 38.5219 3.97779
24.3233 45.1315 0.0239174
22.2089 43.8868 2
20.0525 42.8607 3.97682
21.1705 45.8362 0.0218117
19.226 44.9271 2
17.1769 44.347 3.97713
18.5205 46.6949 0.0218707
16.8057 46.1796 2
14.9991 46.066 3.97581
16.4818 47.6833 0.022897
15.0579 47.6447 2
13.39 47.9901 3.9724
15.3086 48.9903 0.0261493
13.872 49.5262 2
12.1588 50.2412 3.96801
14.5679 50.9642 0.031389
12.9355 51.8613 2
11.1472 52.8319 3.96675
10.3297 55.707 3.97058
12.1521 54.5202 2
13.8641 53.4208 0.0342486
9.70186 58.848 3.97954
11.5394 57.4519 2
13.2644 56.1582 0.0333659
9.30605 62.2254 4
11.1336 60.6225 2
12.8535 59.1181 0.0286678
10.9835 64.0165 2
12.6803 62.3002 0.0169344
12.7746 65.6939 0
15.1671 20.2012 3.96488
16.4205 18.6693 2
14.7577 17.3195 3.96733
17.6776 17.172 0.0277394
16.1067 15.7916 2
14.4845 14.2971 3.97656
17.5134 14.3821 0.0235642
16.0212 12.8132 2
14.4454 11.1149 3.98812
17.6393 11.4592 0.0190841
16.2009 9.66527 2
14.6715 7.74927 4
18.0515 8.34039 0.0104651
16.6661 6.31988 2
18.75 5.0241 0
25.8174 34.295 3.98936
27.8352 34.8137 2
29.4614 35.1628 0.117252
17.9326 22.3497 3.97028
15.5902 22.9408 3.9679
16.7297 21.3989 2
20.9024 19.4007 0.0265869
18.0174 19.9638 0.0388961
19.7845 21.6017 2
19.8172 24.42 3.97056
22.4132 21.7535 0.0223643
24.7874 23.2008 0.0232296
22.9875 24.6386 2
22.1953 27.8732 3.97283
24.1565 31.2451 3.9766
24.8416 28.5722 2
25.6448 25.9896 0.0232129
26.5824 31.7361 2
28.7514 32.4132 0.0706485
27.2862 29.1818 -0.00635114
22.9091 36.2885 3.9824
25.1404 36.8624 2
27.3259 37.3683 0.0682974
25.6459 43.1124 0.0115234
24.4713 39.4532 0.0241537
23.3548 41.8133 2
22.1808 38.5205 2
21.0884 40.6369 3.97561
20.48 37.8035 3.97696
22.2102 43.8866 0.0220191
20.0513 42.8618 2
17.637 42.0704 3.97644
19.2257 44.9271 0.0222358
17.1786 44.347 2
15.0318 44.1767 3.97612
16.8039 46.1804 0.0229275
15.0002 46.0656 2
13.0787 46.2783 3.97368
15.0566 47.6452 0.0247355
13.391 47.9897 2
11.5373 48.5389 3.9689
13.8708 49.5267 0.0292538
12.1594 50.2409 2
10.2741 51.0768 3.96677
12.9352 51.8615 0.033132
11.1478 52.8317 2
9.23846 53.8872 3.97039
8.38528 56.9813 3.98001
10.3301 55.7064 2
12.1516 54.5204 0.0331258
7.74927 60.3285 4
9.70063 58.8445 2
11.539 57.4523 0.0291496
9.306 62.2255 2
11.1352 60.6257 0.0193027
10.9835 64.0165 0
13.9909 21.7669 3.96514
15.1678 20.2011 2
13.4613 18.9147 3.96699
16.4202 18.6696 0.03553
14.7582 17.3188 2
13.0323 15.8929 3.97256
16.1064 15.7926 0.0264052
14.4845 14.2963 2
12.7831 12.6887 3.98623
16.0213 12.8138 0.0212109
14.4437 11.117 2
12.7746 9.30605 4
16.2026 9.66355 0.0109379
14.6715 7.74924 2
16.6661 6.31991 0
23.4949 33.8362 3.98392
25.7926 34.287 2
27.8577 34.8048 0.0772471
17.7547 24.0739 3.9699
17.9335 22.3497 2
14.4174 24.4742 3.96956
15.5915 22.9409 2
16.7292 21.399 0.0347738
19.2725 27.2474 3.97204
19.7842 21.6022 0.0302204
19.8148 24.4198 2
21.5278 30.7155 3.97534
22.9885 24.6388 0.0273158
22.204 27.8745 2
24.1369 31.2435 2
24.8276 28.5724 0.0213445
26.5996 31.7663 0.0177426
20.6014 35.9537 3.97696
22.9089 36.2867 2
25.1559 36.8598 0.0182909
23.3651 41.8142 0.0198993
22.1885 38.5219 0.0222082
21.0943 40.6363 2
20.4813 37.8025 2
18.3811 39.006 3.97726
20.0525 42.8607 0.0231785
17.638 42.0706 2
15.015 41.8973 3.97677
17.1769 44.347 0.0228749
15.0333 44.1762 2
12.8399 44.3768 3.9743
14.9991 46.066 0.0241895
13.0799 46.278 2
11.047 46.7236 3.96963
13.39 47.9901 0.0275954
11.5379 48.5387 2
9.53905 49.2372 3.96674
12.1588 50.2412 0.0319932
10.2745 51.0765 2
8.27121 52.0011 3.97007
11.1472 52.8319 0.033251
9.23894 53.8864 2
7.19425 55.0322 3.9808
6.31991 58.3339 4
8.38437 56.9778 2
10.3297 55.707 0.0294242
7.74924 60.3285 2
9.70186 58.848 0.020459
9.30605 62.2254 0
13.3111 25.3814 3.97237
12.8761 23.2958 3.96697
13.9901 21.7667 2
12.2463 20.5593 3.96752
15.1671 20.2012 0.0351213
13.4625 18.9145 2
11.6639 17.5736 3.97084
14.7577 17.3195 0.0326723
13.0327 15.8919 2
11.2211 14.3747 3.98234
14.4845 14.2971 0.0234353
12.7811 12.6911 2
10.9835 10.9835 4
14.4454 11.1149 0.0118834
12.7745 9.306 2
14.6715 7.74927 0
20.9619 33.443 3.97602
23.4953 33.84 2
25.8174 34.295 0.0106381
16.0766 26.4333 3.97198
17.7551 24.074 2
17.9326 22.3497 0.0297221
14.4175 24.4745 2
15.5902 22.9408 0.0320952
18.6539 30.2162 3.97492
19.271 27.2475 2
19.8172 24.42 0.0294431
21.5299 30.7157 2
22.1953 27.8732 0.0271691
24.1565 31.2451 0.0233975
17.9926 35.985 3.97809
20.602 35.9555 2
22.9091 36.2885 0.0176034
21.0884 40.6369 0.0243904
20.48 37.8035 0.0230366
18.3795 39.0056 2
14.5224 39.1706 3.97749
17.637 42.0704 0.0235552
15.0163 41.8969 2
12.5367 42.2663 3.97515
15.0318 44.1767 0.0238771
12.8412 44.3765 2
10.6341 44.7936 3.97023
13.0787 46.2783 0.0263202
11.0477 46.7233 2
8.92329 47.3165 3.9667
11.5373 48.5389 0.0311032
9.53921 49.2369 2
7.43809 50.0348 3.96962
10.2741 51.0768 0.0332322
8.27157 52.0003 2
6.13487 53.0074 3.98128
9.23846 53.8872 0.0296102
7.1937 55.0293 2
5.0241 56.25 4
6.31988 58.3339 2
8.38528 56.9813 0.019987
7.74927 60.3285 0
13.5773 26.8355 3.97188
11.9849 24.8007 3.96882
13.3104 25.3815 2
11.1512 22.2409 3.96636
12.8765 23.296 2
13.9909 21.7669 0.0348569
12.2474 20.5593 2
10.3946 19.3254 3.97119
13.4613 18.9147 0.0330126
11.6649 17.5737 2
9.76248 16.1589 3.97957
13.0323 15.8929 0.0274418
11.2193 14.378 2
9.30607 12.7746 4
12.7831 12.6887 0.0137719
10.9835 10.9835 2
12.7746 9.30605 0
18.1658 33.1502 3.97716
20.9634 33.4439 2
23.4949 33.8362 0.0160845
15.7021 29.6679 3.97446
16.076 26.4336 2
17.7547 24.0739 0.0300991
14.4174 24.4742 0.0304436
18.6521 30.2164 2
19.2725 27.2474 0.0279553
21.5278 30.7155 0.0246611
15.1409 36.0348 3.97787
17.9941 35.985 2
20.6014 35.9537 0.0230441
12.7623 37.8316 3.97754
18.3811 39.006 0.0227369
14.5231 39.1704 2
12.0403 40.1356 3.97608
15.015 41.8973 0.0232284
12.5377 42.266 2
10.2403 42.7709 3.97067
12.8399 44.3768 0.025696
10.6347 44.7934 2
8.4024 45.3186 3.967
11.047 46.7236 0.0303735
8.92307 47.3162 2
6.72928 48.0001 3.96927
9.53905 49.2372 0.0332633
7.43829 50.0341 2
5.21169 50.9109 3.98097
8.27121 52.0011 0.0299345
6.13459 53.0055 2
3.86727 54.0858 4
7.19425 55.0322 0.0191994
5.02404 56.25 2
6.31991 58.3339 0
13.0532 29.0531 3.97147
11.429 26.5004 3.9691
13.5767 26.8357 2
10.211 23.9725 3.96679
11.986 24.8009 2
13.3111 25.3814 0.0276299
9.24724 21.1418 3.97001
11.1521 22.241 2
12.8761 23.2958 0.0330323
12.2463 20.5593 0.0324834
10.3956 19.3257 2
8.41811 18.0298 3.97972
11.6639 17.5736 0.0291608
9.76115 16.163 2
7.74928 14.6715 4
11.2211 14.3747 0.0176637
9.30602 12.7745 2
10.9835 10.9835 0
14.6972 32.8858 3.97668
18.1638 33.1504 2
20.9619 33.443 0.0239782
15.7036 29.6685 2
16.0766 26.4333 0.0280228
18.6539 30.2162 0.0250769
13.055 36.2171 3.97712
15.1414 36.0349 2
17.9926 35.985 0.0219052
12.764 37.8314 2
11.3848 38.3094 3.97585
14.5224 39.1706 0.0225055
12.0421 40.1354 2
9.82532 40.75 3.97127
12.5367 42.2663 0.0248514
10.2414 42.7706 2
7.95216 43.2679 3.96735
10.6341 44.7936 0.0297657
8.40252 45.3183 2
6.1353 45.9053 3.96913
8.92329 47.3165 0.0333009
6.72944 47.9995 2
4.42319 48.7515 3.98034
7.43809 50.0348 0.0303775
5.21158 50.9098 2
2.85457 51.8506 4
6.13487 53.0074 0.0187242
3.86727 54.0858 2
5.0241 56.25 0
12.198 31.273 3.97264
10.8513 28.4274 3.96936
13.0546 29.0535 2
9.42823 25.8022 3.96711
11.4295 26.5006 2
13.5773 26.8355 0.0281247
8.23372 23.0252 3.96998
10.2116 23.9727 2
11.9849 24.8007 0.0311761
7.20024 19.9795 3.98018
9.24819 21.1424 2
11.1512 22.2409 0.0336379
10.3946 19.3254 0.0288101
8.41733 18.0338 2
6.31992 16.6661 4
9.76248 16.1589 0.0204308
7.74926 14.6714 2
9.30607 12.7746 0
12.2234 34.3062 3.97697
14.6985 32.8863 2
18.1658 33.1502 0.0228367
15.7021 29.6679 0.0255381
10.9409 36.6143 3.97505
13.0562 36.2173 2
15.1409 36.0348 0.0221262
12.7623 37.8316 0.0224624
11.3866 38.3094 2
9.41447 38.8219 3.97166
12.0403 40.1356 0.023923
9.82633 40.7498 2
7.56345 41.2101 3.96773
10.2403 42.7709 0.0293321
7.9515 43.2677 2
5.64718 43.7682 3.96909
8.4024 45.3186 0.0330031
6.13543 45.9048 2
3.76874 46.5371 3.97993
6.72928 48.0001 0.0307328
4.42328 48.751 2
1.99014 49.554 4
5.21169 50.9109 0.0190251
2.85451 51.8506 2
3.86727 54.0858 0
11.0259 32.9302 3.97455
10.1689 30.3928 3.96988
12.1993 31.2733 2
8.73958 27.7358 3.96719
10.852 28.4276 2
13.0532 29.0531 0.0285294
7.35915 24.9836 3.96967
9.42841 25.8024 2
11.429 26.5004 0.0309025
6.11713 22.0026 3.98116
8.23434 23.0257 2
10.211 23.9725 0.0332088
5.02411 18.75 4
7.1999 19.9827 2
9.24724 21.1418 0.029989
8.41811 18.0298 0.0202808
6.3199 16.6661 2
7.74928 14.6715 0
10.5411 35.006 3.9748
12.2255 34.3065 2
14.6972 32.8858 0.0233229
9.07858 36.986 3.97219
10.9423 36.6143 2
13.055 36.2171 0.0228821
11.3848 38.3094 0.0241458
9.41585 38.8218 2
7.2417 39.1818 3.96822
9.82532 40.75 0.0287277
7.56355 41.2099 2
5.26229 41.6139 3.96898
7.95216 43.2679 0.0326462
5.64724 43.7678 2
3.24645 44.2819 3.97991
6.1353 45.9053 0.0308723
3.76892 46.5368 2
1.27781 47.2057 4
4.42319 48.7515 0.019661
1.99012 49.554 2
2.85457 51.8506 0
10.1766 33.8889 3.97527
9.45213 32.1624 3.97064
11.0274 32.9305 2
8.08777 29.6988 3.9675
10.1698 30.3931 2
12.198 31.273 0.0273604
6.60267 27.0093 3.9695
8.73927 27.736 2
10.8513 28.4274 0.0306398
5.17251 24.0951 3.98104
7.35947 24.9841 2
9.42823 25.8022 0.0328912
3.86728 20.9142 4
6.11701 22.0045 2
8.23372 23.0252 0.0300196
5.02406 18.75 2
7.20024 19.9795 0.0198247
6.31992 16.6661 0
8.89928 35.2828 3.97222
10.5422 35.006 2
12.2234 34.3062 0.0230253
7.02216 37.2064 3.96819
9.07942 36.986 2
10.9409 36.6143 0.0249492
9.41447 38.8219 0.0283431
7.24217 39.1817 2
4.98977 39.4674 3.96926
7.56345 41.2101 0.0322711
5.2627 41.6136 2
2.85689 42.0022 3.9799
5.64718 43.7682 0.0309119
3.24651 44.2817 2
0.720592 44.8159 4
3.76874 46.5371 0.0200663
1.27778 47.2057 2
1.99014 49.554 0
8.93919 33.7031 3.97182
10.1778 33.8891 2
7.52354 31.6117 3.96777
9.45325 32.1626 2
11.0259 32.9302 0.0254472
5.94765 29.0702 3.96956
8.08722 29.699 2
10.1689 30.3928 0.0301162
4.36017 26.2475 3.98056
6.6028 27.0097 2
8.73958 27.7358 0.0328126
2.85458 23.1494 4
5.17251 24.096 2
7.35915 24.9836 0.0303294
3.86728 20.9142 2
6.11713 22.0026 0.0188401
5.02411 18.75 0
6.9707 35.3072 3.96813
8.90009 35.2828 2
10.5411 35.006 0.0252017
4.83986 37.3398 3.9697
7.02252 37.2064 2
9.07858 36.986 0.027808
7.2417 39.1818 0.0317808
4.99018 39.4672 2
2.60489 39.7138 3.97994
5.26229 41.6139 0.031018
2.85722 42.0021 2
0.320823 42.3947 4
3.24645 44.2819 0.0200884
0.720551 44.8159 2
1.27781 47.2057 0
7.13348 33.4627 3.96798
8.93979 33.7032 2
10.1766 33.8889 0.0247309
5.41831 31.1339 3.96978
7.52334 31.6119 2
9.45213 32.1624 0.029363
3.68181 28.4434 3.98017
5.94775 29.0705 2
8.08777 29.6988 0.032503
1.99015 25.446 4
4.36024 26.2478 2
6.60267 27.0093 0.0305045
2.85453 23.1494 2
5.17251 24.0951 0.0189634
3.86728 20.9142 0
4.85419 35.2517 3.96979
6.97072 35.3072 2
8.89928 35.2828 0.0277803
2.49631 37.4284 3.98062
4.83988 37.3399 2
7.02216 37.2064 0.0318107
4.98977 39.4674 0.0307356
2.6053 39.7141 2
0.080333 39.9526 4
2.85689 42.0022 0.020102
0.320817 42.3947 2
0.720592 44.8159 0
5.04764 33.1904 3.96979
7.13332 33.4628 2
8.93919 33.7031 0.0281828
3.14604 30.6661 3.98014
5.41842 31.1343 2
7.52354 31.6117 0.0322258
1.27793 27.7943 4
3.68199 28.4436 2
5.94765 29.0702 0.0304393
1.99013 25.446 2
4.36017 26.2475 0.0194377
2.85458 23.1494 0
2.54842 35.159 3.98042
4.8547 35.2519 2
6.9707 35.3072 0.0318719
0 37.5 4
2.49634 37.4288 2
4.83986 37.3398 0.0303025
2.60489 39.7138 0.0200575
0.0802903 39.9526 2
0.320823 42.3947 0
2.76605 32.9057 3.98052
5.04778 33.1908 2
7.13348 33.4627 0.0320232
0.721173 30.1842 4
3.14625 30.6665 2
5.41831 31.1339 0.0302208
1.27779 27.7943 2
3.68181 28.4434 0.0198323
1.99015 25.446 0
0.0806499 35.0474 4
2.54891 35.1594 2
4.85419 35.2517 0.0302111
0 37.5 2
2.49631 37.4284 0.0193763
0.080333 39.9526 0
0.32156 32.6054 4
2.76616 32.9063 2
5.04764 33.1904 0.0302123
0.72056 30.1841 2
3.14604 30.6661 0.0198586
1.27793 27.7943 0
0.0802889 35.0474 2
2.54842 35.159 0.0195764
0 37.5 0
0.320817 32.6053 2
2.76605 32.9057 0.0194752
0.721173 30.1842 0
0.0806499 35.0474 0
0.32156 32.6054 0
CELLS 1910 17190
8 18 6 25 56 2 0 5 16
8 57 23 6 18 17 4 0 2
8 78 36 9 29 31 11 1 7
8 31 11 1 7 79 37 10 30
8 110 57 18 50 48 17 2 14
8 50 18 56 111 14 2 16 49
8 116 62 22 55 52 20 3 15
8 56 25 67 118 16 5 24 53
8 119 63 23 57 54 21 4 17
8 55 22 63 119 15 3 21 54
8 58 26 68 121 18 6 25 56
8 122 65 26 58 57 23 6 18
8 73 31 7 27 142 79 30 71
8 143 78 29 72 73 31 7 27
8 83 147 76 34 32 74 28 8
8 84 148 78 36 33 75 29 9
8 76 34 8 28 148 84 33 75
8 37 79 150 86 10 30 77 35
8 151 87 36 78 80 38 11 31
8 80 38 11 31 152 88 37 79
8 175 100 42 94 96 44 12 40
8 44 96 176 101 12 40 95 43
8 101 176 98 46 43 95 41 13
8 46 98 178 103 13 41 97 45
8 178 103 45 97 147 83 32 74
8 189 116 55 109 106 52 15 47
8 111 56 118 191 49 16 53 107
8 192 119 57 110 108 54 17 48
8 109 55 119 192 47 15 54 108
8 194 122 58 112 110 57 18 50
8 112 58 121 195 50 18 56 111
8 115 61 19 51 197 124 59 113
8 115 61 125 198 51 19 60 114
8 198 125 62 116 114 60 20 52
8 200 127 64 120 116 62 22 55
8 118 67 132 202 53 24 66 117
8 121 68 133 203 56 25 67 118
8 120 64 128 204 55 22 63 119
8 204 128 65 122 119 63 23 57
8 206 134 68 121 123 69 26 58
8 123 69 26 58 207 131 65 122
8 226 147 74 138 140 76 28 70
8 229 148 75 139 143 78 29 72
8 140 76 28 70 229 148 75 139
8 142 79 30 71 231 150 77 141
8 144 80 31 73 232 152 79 142
8 233 151 78 143 144 80 31 73
8 150 86 35 77 235 154 81 145
8 235 154 81 145 146 82 39 91
8 146 82 39 91 236 155 90 165
8 238 157 83 147 149 85 34 76
8 239 158 84 148 151 87 36 78
8 149 85 34 76 239 158 84 148
8 152 88 37 79 241 160 86 150
8 242 161 87 151 153 89 38 80
8 153 89 38 80 243 162 88 152
8 171 98 41 92 265 178 97 169
8 265 178 97 169 226 147 74 138
8 172 96 40 93 266 176 95 170
8 266 176 95 170 171 98 41 92
8 269 175 94 173 172 96 40 93
8 271 180 99 174 175 100 42 94
8 197 124 59 113 271 180 99 174
8 272 181 100 175 177 102 44 96
8 273 182 101 176 179 104 46 98
8 177 102 44 96 273 182 101 176
8 179 104 46 98 275 184 103 178
8 275 184 103 178 238 157 83 147
8 188 115 51 105 283 197 113 186
8 188 115 198 284 105 51 114 187
8 284 198 116 189 187 114 52 106
8 286 200 120 193 189 116 55 109
8 191 118 202 288 107 53 117 190
8 195 121 203 289 111 56 118 191
8 193 120 204 290 109 55 119 192
8 290 204 122 194 192 119 57 110
8 196 123 58 112 292 207 122 194
8 293 206 121 195 196 123 58 112
8 199 126 61 115 297 211 124 197
8 298 212 127 200 198 125 62 116
8 199 126 212 298 115 61 125 198
8 205 129 64 120 300 214 127 200
8 301 217 130 201 202 132 66 117
8 209 136 168 264 301 217 130 201
8 302 219 132 202 203 133 67 118
8 303 220 133 203 206 134 68 121
8 205 129 215 304 120 64 128 204
8 304 215 131 207 204 128 65 122
8 306 221 134 206 208 135 69 123
8 208 135 69 123 307 218 131 207
8 210 137 167 263 309 223 136 209
8 328 238 147 226 230 149 76 140
8 228 146 91 166 329 236 165 260
8 231 150 77 141 330 235 145 227
8 330 235 145 227 228 146 91 166
8 332 239 148 229 233 151 78 143
8 230 149 76 140 332 239 148 229
8 232 152 79 142 334 241 150 231
8 234 153 80 144 335 243 152 232
8 336 242 151 233 234 153 80 144
8 236 155 90 165 338 245 164 259
8 241 160 86 150 339 246 154 235
8 339 246 154 235 237 156 82 146
8 237 156 82 146 340 247 155 236
8 342 249 157 238 240 159 85 149
8 343 250 158 239 242 161 87 151
8 240 159 85 149 343 250 158 239
8 243 162 88 152 345 252 160 241
8 244 163 253 346 153 89 161 242
8 244 163 89 153 347 254 162 243
8 311 224 261 371 210 137 167 263
8 263 167 262 372 209 136 168 264
8 267 179 98 171 375 275 178 265
8 375 275 178 265 328 238 147 226
8 376 273 176 266 267 179 98 171
8 268 177 96 172 376 273 176 266
8 379 272 175 269 268 177 96 172
8 380 271 174 270 269 175 94 173
8 283 197 113 186 380 271 174 270
8 381 277 180 271 272 181 100 175
8 297 211 124 197 381 277 180 271
8 382 278 181 272 274 183 102 177
8 274 183 102 177 383 279 182 273
8 383 279 182 273 276 185 104 179
8 385 281 184 275 342 249 157 238
8 276 185 104 179 385 281 184 275
8 285 199 115 188 393 297 197 283
8 394 298 200 286 284 198 116 189
8 285 199 298 394 188 115 198 284
8 291 205 120 193 396 300 200 286
8 397 301 201 287 288 202 117 190
8 295 209 264 374 397 301 201 287
8 398 302 202 288 289 203 118 191
8 399 303 203 289 293 206 121 195
8 291 205 304 400 193 120 204 290
8 400 304 207 292 290 204 122 194
8 294 208 123 196 402 307 207 292
8 403 306 206 293 294 208 123 196
8 296 210 263 373 405 309 209 295
8 408 312 213 299 297 211 126 199
8 299 213 313 409 199 126 212 298
8 409 313 214 300 298 212 127 200
8 305 216 129 205 411 315 214 300
8 412 318 217 301 302 219 132 202
8 309 223 136 209 412 318 217 301
8 413 320 219 302 303 220 133 203
8 306 221 321 414 206 134 220 303
8 307 218 131 207 415 316 215 304
8 305 216 316 415 205 129 215 304
8 417 322 221 306 308 222 135 208
8 308 222 135 208 418 319 218 307
8 310 225 137 210 420 325 223 309
8 423 326 224 311 310 225 137 210
8 329 236 165 260 441 338 259 368
8 442 342 238 328 333 240 149 230
8 331 237 146 228 443 340 236 329
8 334 241 150 231 444 339 235 330
8 444 339 235 330 331 237 146 228
8 446 343 239 332 336 242 151 233
8 333 240 149 230 446 343 239 332
8 335 243 152 232 448 345 241 334
8 337 244 153 234 449 347 243 335
8 337 244 346 450 234 153 242 336
8 338 245 164 259 452 349 258 367
8 340 247 155 236 453 350 245 338
8 345 252 160 241 454 351 246 339
8 454 351 246 339 341 248 156 237
8 341 248 156 237 455 352 247 340
8 240 159 251 344 342 249 354 457
8 242 161 253 346 343 250 355 458
8 343 250 355 458 240 159 251 344
8 347 254 162 243 460 357 252 345
8 348 255 358 461 244 163 253 346
8 348 255 163 244 462 359 254 347
8 473 360 257 365 363 256 364 482
8 452 349 258 367 365 257 366 485
8 422 324 369 488 311 224 261 371
8 371 261 370 490 263 167 262 372
8 407 311 371 491 296 210 263 373
8 373 263 372 492 295 209 264 374
8 493 385 275 375 442 342 238 328
8 377 276 179 267 493 385 275 375
8 378 274 177 268 494 383 273 376
8 494 383 273 376 377 276 179 267
8 497 382 272 379 378 274 177 268
8 498 381 271 380 379 272 175 269
8 393 297 197 283 498 381 271 380
8 499 387 277 381 382 278 181 272
8 408 312 211 297 499 387 277 381
8 500 388 278 382 384 280 183 274
8 501 389 279 383 386 282 185 276
8 384 280 183 274 501 389 279 383
8 386 282 185 276 503 391 281 385
8 503 391 281 385 457 354 249 342
8 511 408 299 395 393 297 199 285
8 395 299 409 512 285 199 298 394
8 512 409 300 396 394 298 200 286
8 401 305 205 291 514 411 300 396
8 515 412 301 397 398 302 202 288
8 405 309 209 295 515 412 301 397
8 516 413 302 398 399 303 203 289
8 403 306 414 517 293 206 303 399
8 402 307 207 292 518 415 304 400
8 401 305 415 518 291 205 304 400
8 404 308 208 294 520 418 307 402
8 521 417 306 403 404 308 208 294
8 406 310 210 296 523 420 309 405
8 526 423 311 407 406 310 210 296
8 410 314 213 299 527 424 312 408
8 528 425 315 411 409 313 214 300
8 410 314 425 528 299 213 313 409
8 416 317 216 305 530 427 315 411
8 531 430 318 412 413 320 219 302
8 420 325 223 309 531 430 318 412
8 532 432 320 413 414 321 220 303
8 417 322 433 533 306 221 321 414
8 418 319 218 307 534 428 316 415
8 416 317 428 534 305 216 316 415
8 419 323 434 536 308 222 322 417
8 419 323 222 308 537 431 319 418
8 421 327 225 310 539 438 325 420
8 421 327 439 541 310 225 326 423
8 543 437 324 422 423 326 224 311
8 441 338 259 368 559 452 367 486
8 443 340 236 329 560 453 338 441
8 333 240 344 447 442 342 457 561
8 445 341 237 331 562 455 340 443
8 448 345 241 334 563 454 339 444
8 563 454 339 444 445 341 237 331
8 336 242 346 450 446 343 458 565
8 446 343 458 565 333 240 344 447
8 449 347 243 335 567 460 345 448
8 451 348 244 337 568 462 347 449
8 451 348 461 569 337 244 346 450
8 570 463 349 452 473 360 257 365
8 453 350 245 338 570 463 349 452
8 455 352 247 340 571 464 350 453
8 460 357 252 345 572 465 351 454
8 572 465 351 454 456 353 248 341
8 456 353 248 341 573 466 352 455
8 344 251 356 459 457 354 468 575
8 458 355 469 576 344 251 356 459
8 346 253 358 461 458 355 469 576
8 462 359 254 347 578 471 357 460
8 348 255 359 462 461 358 472 579
8 591 474 360 473 475 361 256 363
8 475 361 256 363 594 477 362 479
8 363 256 364 482 479 362 480 603
8 590 473 365 484 481 363 482 605
8 482 364 257 365 606 483 366 485
8 559 452 367 486 484 365 485 607
8 542 436 487 609 422 324 369 488
8 525 422 488 611 407 311 371 491
8 488 369 489 612 371 261 370 490
8 491 371 490 613 373 263 372 492
8 495 386 276 377 614 503 385 493
8 614 503 385 493 561 457 342 442
8 615 501 383 494 495 386 276 377
8 496 384 274 378 615 501 383 494
8 618 500 382 497 496 384 274 378
8 619 499 381 498 497 382 272 379
8 511 408 297 393 619 499 381 498
8 620 505 387 499 500 388 278 382
8 527 424 312 408 620 505 387 499
8 502 390 506 621 384 280 388 500
8 622 507 389 501 504 392 282 386
8 502 390 280 384 622 507 389 501
8 504 392 282 386 624 509 391 503
8 624 509 391 503 575 468 354 457
8 513 410 299 395 630 527 408 511
8 631 528 411 514 512 409 300 396
8 513 410 528 631 395 299 409 512
8 519 416 305 401 633 530 411 514
8 634 531 412 515 516 413 302 398
8 523 420 309 405 634 531 412 515
8 635 532 413 516 517 414 303 399
8 521 417 533 636 403 306 414 517
8 520 418 307 402 637 534 415 518
8 519 416 534 637 401 305 415 518
8 522 419 308 404 639 537 418 520
8 522 419 536 640 404 308 417 521
8 524 421 310 406 642 539 420 523
8 524 421 541 644 406 310 423 526
8 646 543 422 525 526 423 311 407
8 529 426 314 410 647 544 424 527
8 528 425 545 648 411 315 427 530
8 529 426 545 648 410 314 425 528
8 535 429 317 416 649 546 427 530
8 650 548 430 531 532 432 320 413
8 539 438 325 420 650 548 430 531
8 533 433 550 651 414 321 432 532
8 536 434 551 652 417 322 433 533
8 537 431 319 418 653 547 428 534
8 535 429 547 653 416 317 428 534
8 538 435 552 654 419 323 434 536
8 538 435 323 419 655 549 431 537
8 540 440 327 421 657 556 438 539
8 540 440 557 659 421 327 439 541
8 541 439 555 660 423 326 437 543
8 661 554 436 542 543 437 324 422
8 676 570 452 559 590 473 365 484
8 560 453 338 441 676 570 452 559
8 562 455 340 443 677 571 453 560
8 447 344 459 566 561 457 575 678
8 564 456 341 445 679 573 455 562
8 567 460 345 448 680 572 454 563
8 680 572 454 563 564 456 341 445
8 565 458 576 682 447 344 459 566
8 450 346 461 569 565 458 576 682
8 568 462 347 449 684 578 460 567
8 451 348 462 568 569 461 579 685
8 686 580 463 570 591 474 360 473
8 571 464 350 453 686 580 463 570
8 573 466 352 455 687 581 464 571
8 572 465 582 688 460 357 471 578
8 574 467 582 688 456 353 465 572
8 574 467 353 456 689 583 466 573
8 459 356 470 577 575 468 585 691
8 576 469 586 692 459 356 470 577
8 461 358 472 579 576 469 586 692
8 462 359 471 578 579 472 588 694
8 704 591 473 590 593 475 363 481
8 595 476 592 705 475 361 474 591
8 593 475 363 481 707 594 479 602
8 594 477 362 479 709 598 478 600
8 595 476 361 475 711 597 477 594
8 479 362 480 603 600 478 601 720
8 481 363 482 605 602 479 603 722
8 603 480 364 482 723 604 483 606
8 605 482 365 484 724 606 485 607
8 656 553 608 726 542 436 487 609
8 645 542 609 728 525 422 488 611
8 609 487 610 729 488 369 489 612
8 611 488 612 730 491 371 490 613
8 616 504 386 495 731 624 503 614
8 731 624 503 614 678 575 457 561
8 732 622 501 615 616 504 386 495
8 617 502 384 496 732 622 501 615
8 617 502 621 735 496 384 500 618
8 736 620 499 619 618 500 382 497
8 630 527 408 511 736 620 499 619
8 621 506 626 737 500 388 505 620
8 647 544 424 527 737 626 505 620
8 623 508 627 738 502 390 506 621
8 623 508 390 502 739 628 507 622
8 625 510 628 739 504 392 507 622
8 740 629 509 624 691 585 468 575
8 625 510 392 504 740 629 509 624
8 632 529 410 513 744 647 527 630
8 631 528 648 745 514 411 530 633
8 632 529 648 745 513 410 528 631
8 638 535 416 519 746 649 530 633
8 747 650 531 634 635 532 413 516
8 642 539 420 523 747 650 531 634
8 636 533 651 748 517 414 532 635
8 640 536 652 749 521 417 533 636
8 639 537 418 520 750 653 534 637
8 638 535 653 750 519 416 534 637
8 641 538 419 522 751 655 537 639
8 641 538 654 752 522 419 536 640
8 643 540 421 524 753 657 539 642
8 643 540 659 755 524 421 541 644
8 644 541 660 757 526 423 543 646
8 758 661 542 645 646 543 422 525
8 529 426 544 647 648 545 662 759
8 530 427 545 648 649 546 663 760
8 535 429 546 649 653 547 664 761
8 762 666 548 650 651 550 432 532
8 657 556 438 539 762 666 548 650
8 652 551 668 763 533 433 550 651
8 654 552 669 764 536 434 551 652
8 655 549 431 537 765 665 547 653
8 538 435 549 655 654 552 667 766
8 661 554 671 768 542 436 553 656
8 658 558 440 540 769 674 556 657
8 658 558 675 770 540 440 557 659
8 659 557 673 771 541 439 555 660
8 660 555 672 772 543 437 554 661
8 788 686 570 676 704 591 473 590
8 677 571 453 560 788 686 570 676
8 679 573 455 562 789 687 571 677
8 566 459 577 683 678 575 691 790
8 681 574 456 564 791 689 573 679
8 680 572 688 792 567 460 578 684
8 681 574 688 792 564 456 572 680
8 682 576 692 794 566 459 577 683
8 569 461 579 685 682 576 692 794
8 568 462 578 684 685 579 694 796
8 687 581 464 571 798 696 580 686
8 798 696 580 686 705 592 474 591
8 689 583 466 573 799 697 581 687
8 688 582 698 800 578 471 588 694
8 690 584 698 800 574 467 582 688
8 690 584 467 574 801 699 583 689
8 693 587 701 803 577 470 585 691
8 693 587 470 577 804 702 586 692
8 695 589 702 804 579 472 586 692
8 695 589 472 579 805 703 588 694
8 708 595 705 813 593 475 591 704
8 710 596 706 814 595 476 592 705
8 707 594 479 602 816 709 600 719
8 708 595 475 593 817 711 594 707
8 709 598 478 600 819 715 599 717
8 711 597 477 594 820 714 598 709
8 710 596 476 595 822 713 597 711
8 600 478 601 720 717 599 718 832
8 602 479 603 722 719 600 720 834
8 720 601 480 603 835 721 604 723
8 722 603 482 605 836 723 606 724
8 767 670 725 839 656 553 608 726
8 756 656 726 841 645 542 609 728
8 726 608 727 842 609 487 610 729
8 728 609 729 843 611 488 612 730
8 844 740 624 731 790 691 575 678
8 733 625 504 616 844 740 624 731
8 734 623 502 617 845 739 622 732
8 733 625 739 845 616 504 622 732
8 734 623 738 846 617 502 621 735
8 735 621 737 847 618 500 620 736
8 744 647 527 630 847 737 620 736
8 621 506 627 738 737 626 741 848
8 647 544 626 737 759 662 741 848
8 623 508 628 739 738 627 742 849
8 740 629 585 691 850 743 700 802
8 625 510 629 740 739 628 743 850
8 632 529 647 744 745 648 759 854
8 633 530 648 745 746 649 760 855
8 638 535 649 746 750 653 761 856
8 857 762 650 747 748 651 532 635
8 753 657 539 642 857 762 650 747
8 749 652 763 858 636 533 651 748
8 752 654 764 859 640 536 652 749
8 751 655 537 639 860 765 653 750
8 641 538 655 751 752 654 766 861
8 754 658 540 643 862 769 657 753
8 754 658 770 863 643 540 659 755
8 755 659 771 864 644 541 660 757
8 758 661 768 866 645 542 656 756
8 757 660 772 867 646 543 661 758
8 759 662 773 868 648 545 663 760
8 649 546 663 760 761 664 774 871
8 765 665 547 653 872 775 664 761
8 873 777 666 762 763 668 550 651
8 769 674 556 657 873 777 666 762
8 764 669 779 874 652 551 668 763
8 654 552 667 766 764 669 778 875
8 655 549 665 765 766 667 776 876
8 768 671 782 877 656 553 670 767
8 772 672 783 878 661 554 671 768
8 658 558 674 769 770 675 786 879
8 659 557 675 770 771 673 785 881
8 882 784 672 772 771 673 555 660
8 789 687 571 677 897 798 686 788
8 897 798 686 788 813 705 591 704
8 791 689 573 679 898 799 687 789
8 795 693 803 900 683 577 691 790
8 793 690 574 681 901 801 689 791
8 792 688 800 902 684 578 694 796
8 793 690 800 902 681 574 688 792
8 795 693 577 683 903 804 692 794
8 797 695 804 903 685 579 692 794
8 797 695 579 685 904 805 694 796
8 905 806 697 799 798 696 581 687
8 814 706 806 905 705 592 696 798
8 689 583 697 799 801 699 808 907
8 800 698 809 908 694 588 703 805
8 690 584 699 801 800 698 809 908
8 803 701 810 909 691 585 700 802
8 693 587 702 804 803 701 811 910
8 695 589 703 805 804 702 812 911
8 818 710 814 919 708 595 705 813
8 821 712 815 920 710 596 706 814
8 816 709 600 719 922 819 717 831
8 817 711 594 707 923 820 709 816
8 818 710 595 708 924 822 711 817
8 819 715 599 717 926 827 716 829
8 820 714 598 709 927 826 715 819
8 929 825 713 822 820 714 597 711
8 821 712 596 710 930 824 713 822
8 717 599 718 832 829 716 830 942
8 719 600 720 834 831 717 832 944
8 832 718 601 720 945 833 721 835
8 834 720 603 722 946 835 723 836
8 869 780 838 950 767 670 725 839
8 865 767 839 952 756 656 726 841
8 839 725 840 953 726 608 727 842
8 841 726 842 954 728 609 729 843
8 844 740 691 790 955 850 802 899
8 733 625 740 844 845 739 850 955
8 734 623 739 845 846 738 849 956
8 735 621 738 846 847 737 848 957
8 744 647 737 847 854 759 848 957
8 738 627 742 849 848 741 851 958
8 848 741 851 958 759 662 773 868
8 850 743 700 802 959 852 807 906
8 849 742 628 739 959 852 743 850
8 854 759 868 965 745 648 760 855
8 746 649 760 855 856 761 871 966
8 860 765 653 750 967 872 761 856
8 968 873 762 857 858 763 651 748
8 862 769 657 753 968 873 762 857
8 859 764 874 969 749 652 763 858
8 752 654 766 861 859 764 875 970
8 751 655 765 860 861 766 876 971
8 754 658 769 862 863 770 879 972
8 755 659 770 863 864 771 881 974
8 976 882 772 867 864 771 660 757
8 866 768 877 977 756 656 767 865
8 867 772 878 978 758 661 768 866
8 760 663 773 868 871 774 883 980
8 870 781 837 948 982 890 780 869
8 982 890 780 869 877 782 670 767
8 761 664 774 871 872 775 884 984
8 876 776 665 765 985 885 775 872
8 873 777 668 763 986 887 779 874
8 769 674 777 873 879 786 887 986
8 764 669 778 875 874 779 888 987
8 766 667 776 876 875 778 886 988
8 878 783 892 989 768 671 782 877
8 878 783 672 772 990 893 784 882
8 880 787 675 770 991 896 786 879
8 880 787 895 992 770 675 785 881
8 881 785 894 993 771 673 784 882
8 1006 905 799 898 897 798 687 789
8 919 814 905 1006 813 705 798 897
8 791 689 799 898 901 801 907 1007
8 900 803 909 1009 790 691 802 899
8 795 693 804 903 900 803 910 1010
8 902 800 908 1011 796 694 805 904
8 793 690 801 901 902 800 908 1011
8 797 695 805 904 903 804 911 1012
8 799 697 806 905 907 808 912 1013
8 920 815 912 1013 814 706 806 905
8 802 700 810 909 906 807 913 1014
8 801 699 808 907 908 809 914 1015
8 805 703 809 908 911 812 915 1016
8 803 701 811 910 909 810 916 1017
8 911 812 917 1018 804 702 811 910
8 925 821 920 1030 818 710 814 919
8 928 823 921 1031 821 712 815 920
8 922 819 717 831 1033 926 829 941
8 923 820 709 816 1034 927 819 922
8 1035 929 822 924 923 820 711 817
8 925 821 710 818 1036 930 822 924
8 1038 933 825 929 927 826 714 820
8 926 827 716 829 1039 935 828 939
8 927 826 715 819 1040 934 827 926
8 928 823 712 821 1041 931 824 930
8 1042 932 824 930 929 825 713 822
8 829 716 830 942 939 828 940 1058
8 831 717 832 944 941 829 942 1060
8 942 830 718 832 1061 943 833 945
8 944 832 720 834 1062 945 835 946
8 981 889 947 1064 870 781 837 948
8 948 837 949 1067 869 780 838 950
8 975 869 950 1069 865 767 839 952
8 950 838 951 1070 839 725 840 953
8 952 839 953 1071 841 726 842 954
8 955 850 802 899 1072 959 906 1008
8 956 849 739 845 1072 959 850 955
8 846 738 849 956 957 848 958 1073
8 957 848 958 1073 854 759 868 965
8 849 742 852 959 958 851 961 1076
8 960 853 961 1076 906 807 852 959
8 958 851 961 1076 868 773 883 980
8 960 853 807 906 1077 963 913 1014
8 855 760 868 965 966 871 980 1085
8 856 761 871 966 967 872 984 1086
8 971 876 765 860 1087 985 872 967
8 968 873 763 858 1088 986 874 969
8 862 769 873 968 972 879 986 1088
8 859 764 875 970 969 874 987 1089
8 861 766 876 971 970 875 988 1090
8 973 880 770 863 1091 991 879 972
8 973 880 992 1092 863 770 881 974
8 974 881 993 1093 864 771 882 976
8 979 870 948 1066 1094 982 869 975
8 1094 982 869 975 977 877 767 865
8 978 878 772 867 1095 990 882 976
8 978 878 989 1096 866 768 877 977
8 871 774 883 980 984 884 994 1099
8 983 891 999 1100 870 781 889 981
8 1101 1000 890 982 989 892 782 877
8 983 891 781 870 1101 1000 890 982
8 872 775 884 984 985 885 995 1103
8 876 776 885 985 988 886 996 1104
8 986 887 779 874 1105 998 888 987
8 879 786 887 986 991 896 998 1105
8 875 778 886 988 987 888 997 1106
8 990 893 1002 1107 878 783 892 989
8 1108 1003 893 990 993 894 784 882
8 880 787 896 991 992 895 1005 1109
8 993 894 785 881 1110 1004 895 992
8 898 799 905 1006 1007 907 1013 1120
8 1030 920 1013 1120 919 814 905 1006
8 901 801 907 1007 1011 908 1015 1121
8 899 802 909 1009 1008 906 1014 1122
8 900 803 910 1010 1009 909 1017 1123
8 1012 911 1018 1124 903 804 910 1010
8 904 805 908 1011 1012 911 1016 1125
8 1013 912 1020 1127 907 808 914 1015
8 1031 921 1020 1127 920 815 912 1013
8 1019 918 962 1075 1128 1021 913 1014
8 1128 1021 913 1014 1017 916 810 909
8 1015 914 1022 1129 908 809 915 1016
8 1016 915 1023 1130 911 812 917 1018
8 1018 917 1024 1131 910 811 916 1017
8 1037 928 1031 1148 925 821 920 1030
8 928 823 931 1041 1031 921 1032 1149
8 1033 926 829 941 1151 1039 939 1057
8 1034 927 819 922 1152 1040 926 1033
8 1153 1038 929 1035 1034 927 820 923
8 1154 1042 930 1036 1035 929 822 924
8 1037 928 821 925 1155 1041 930 1036
8 1039 935 828 939 1156 1047 938 1055
8 1157 1043 932 1042 1038 933 825 929
8 1038 933 826 927 1158 1045 934 1040
8 1040 934 827 926 1159 1046 935 1039
8 930 824 932 1042 1041 931 1044 1160
8 1051 936 1048 1165 1175 1052 937 1053
8 1156 1047 938 1055 1053 937 1054 1178
8 939 828 940 1058 1055 938 1056 1181
8 941 829 942 1060 1057 939 1058 1183
8 942 830 943 1061 1058 940 1059 1184
8 1060 942 832 944 1185 1061 945 1062
8 1082 964 1063 1188 981 889 947 1064
8 1097 981 1064 1190 979 870 948 1066
8 1064 947 1065 1191 948 837 949 1067
8 1066 948 1067 1193 975 869 950 1069
8 1067 949 1068 1194 950 838 951 1070
8 1069 950 1070 1195 952 839 953 1071
8 956 849 959 1072 1073 958 1076 1197
8 1074 960 1076 1197 1008 906 959 1072
8 1073 958 1076 1197 965 868 980 1085
8 1074 960 906 1008 1198 1077 1014 1122
8 1133 1026 1079 1199 1019 918 962 1075
8 1077 963 913 1014 1200 1080 962 1075
8 960 853 963 1077 1076 961 1078 1201
8 980 883 961 1076 1099 994 1078 1201
8 1210 1083 964 1082 1100 999 889 981
8 966 871 980 1085 1086 984 1099 1215
8 967 872 984 1086 1087 985 1103 1216
8 971 876 985 1087 1090 988 1104 1217
8 1088 986 874 969 1218 1105 987 1089
8 972 879 986 1088 1091 991 1105 1218
8 970 875 988 1090 1089 987 1106 1219
8 973 880 991 1091 1092 992 1109 1220
8 1093 993 881 974 1221 1110 992 1092
8 1222 1108 990 1095 1093 993 882 976
8 1223 1101 982 1094 1096 989 877 977
8 1098 983 870 979 1223 1101 982 1094
8 1095 990 1107 1224 978 878 989 1096
8 1098 983 1100 1225 979 870 981 1097
8 984 884 994 1099 1103 995 1111 1227
8 1102 1001 1115 1228 983 891 999 1100
8 1101 1000 892 989 1229 1116 1002 1107
8 1102 1001 891 983 1229 1116 1000 1101
8 985 885 995 1103 1104 996 1112 1230
8 988 886 996 1104 1106 997 1113 1231
8 1105 998 888 987 1232 1114 997 1106
8 991 896 998 1105 1109 1005 1114 1232
8 1108 1003 1117 1233 990 893 1002 1107
8 1108 1003 894 993 1233 1117 1004 1110
8 992 895 1005 1109 1110 1004 1118 1234
8 1120 1013 1127 1244 1007 907 1015 1121
8 1148 1031 1127 1244 1030 920 1013 1120
8 1121 1015 1129 1245 1011 908 1016 1125
8 1126 1019 1075 1196 1246 1128 1014 1122
8 1246 1128 1014 1122 1123 1017 909 1009
8 1124 1018 1131 1247 1010 910 1017 1123
8 1125 1016 1130 1248 1012 911 1018 1124
8 1127 1020 1137 1254 1015 914 1022 1129
8 1031 921 1032 1149 1127 1020 1137 1254
8 1134 1027 918 1019 1257 1140 1021 1128
8 1257 1140 1021 1128 1131 1024 916 1017
8 1129 1022 1141 1258 1016 915 1023 1130
8 1130 1023 1142 1259 1018 917 1024 1131
8 1261 1144 1025 1132 1133 1026 1079 1199
8 1255 1138 1025 1132 1135 1028 1144 1261
8 1133 1026 918 1019 1262 1145 1027 1134
8 1136 1029 1139 1256 1263 1146 1028 1135
8 1037 928 1041 1155 1148 1031 1149 1275
8 1041 931 1044 1160 1149 1032 1150 1276
8 1151 1039 939 1057 1278 1156 1055 1180
8 1152 1040 926 1033 1279 1159 1039 1151
8 1153 1038 927 1034 1280 1158 1040 1152
8 1281 1157 1042 1154 1153 1038 929 1035
8 1036 930 1042 1154 1155 1041 1160 1282
8 1283 1164 1046 1159 1156 1047 935 1039
8 1165 1048 1164 1283 1053 937 1047 1156
8 1157 1043 933 1038 1284 1161 1045 1158
8 1157 1043 1161 1284 1042 932 1044 1160
8 1040 934 1046 1159 1158 1045 1163 1285
8 1166 1049 1167 1292 1051 936 1048 1165
8 1166 1049 936 1051 1293 1168 1050 1172
8 1051 936 1052 1175 1172 1050 1173 1306
8 1174 1051 1165 1290 1308 1175 1053 1177
8 1053 937 1054 1178 1175 1052 1176 1309
8 1278 1156 1055 1180 1177 1053 1178 1311
8 1055 938 1056 1181 1178 1054 1179 1312
8 1057 939 1058 1183 1180 1055 1181 1314
8 1058 940 1059 1184 1181 1056 1182 1315
8 1060 942 1061 1185 1183 1058 1184 1316
8 1208 1081 1187 1321 1082 964 1063 1188
8 1209 1082 1188 1322 1097 981 1064 1190
8 1188 1063 1189 1323 1064 947 1065 1191
8 1190 1064 1191 1325 1066 948 1067 1193
8 1191 1065 1192 1326 1067 949 1068 1194
8 1067 1193 1069 950 1194 1327 1195 1070
8 1250 1133 1199 1330 1126 1019 1075 1196
8 1198 1077 1014 1122 1331 1200 1075 1196
8 1074 960 1077 1198 1197 1076 1201 1332
8 1085 980 1076 1197 1215 1099 1201 1332
8 1199 1079 1203 1333 1075 962 1080 1200
8 1132 1025 1119 1243 1199 1079 1203 1333
8 1201 1078 963 1077 1334 1202 1080 1200
8 1099 994 1078 1201 1227 1111 1202 1334
8 1343 1207 1081 1208 1210 1083 964 1082
8 1214 1084 1186 1319 1343 1207 1081 1208
8 1345 1210 1082 1209 1225 1100 981 1097
8 1346 1211 1083 1210 1228 1115 999 1100
8 1086 984 1099 1215 1216 1103 1227 1352
8 1087 985 1103 1216 1217 1104 1230 1353
8 1090 988 1104 1217 1219 1106 1231 1354
8 1218 1105 987 1089 1355 1232 1106 1219
8 1091 991 1105 1218 1220 1109 1232 1355
8 1092 992 1109 1220 1221 1110 1234 1356
8 1222 1108 1233 1357 1095 990 1107 1224
8 1222 1108 993 1093 1357 1233 1110 1221
8 1223 1101 989 1096 1358 1229 1107 1224
8 1226 1102 983 1098 1358 1229 1101 1223
8 1226 1102 1228 1359 1098 983 1100 1225
8 1103 995 1111 1227 1230 1112 1235 1360
8 1107 1002 1117 1233 1229 1116 1240 1362
8 1102 1001 1116 1229 1228 1115 1240 1362
8 1104 996 1112 1230 1231 1113 1236 1363
8 1364 1237 1114 1232 1231 1113 997 1106
8 1109 1005 1114 1232 1234 1118 1238 1365
8 1110 1004 1118 1234 1233 1117 1241 1366
8 1242 1374 1255 1138 1119 1243 1132 1025
8 1244 1127 1254 1376 1121 1015 1129 1245
8 1148 1031 1149 1275 1244 1127 1254 1376
8 1245 1129 1258 1377 1125 1016 1130 1248
8 1251 1134 1019 1126 1378 1257 1128 1246
8 1378 1257 1128 1246 1247 1131 1017 1123
8 1248 1130 1259 1379 1124 1018 1131 1247
8 1261 1381 1250 1133 1132 1249 1330 1199
8 1255 1380 1252 1135 1132 1249 1381 1261
8 1250 1133 1019 1126 1382 1262 1134 1251
8 1253 1136 1256 1385 1384 1263 1135 1252
8 1254 1137 1265 1387 1129 1022 1141 1258
8 1149 1032 1150 1276 1254 1137 1265 1387
8 1028 1135 1255 1138 1139 1256 1388 1266
8 1136 1029 1147 1264 1256 1139 1267 1389
8 1390 1268 1140 1257 1259 1142 1024 1131
8 1260 1143 1027 1134 1390 1268 1140 1257
8 1258 1141 1269 1391 1130 1023 1142 1259
8 1262 1145 1027 1134 1393 1271 1143 1260
8 1261 1144 1026 1133 1394 1272 1145 1262
8 1135 1028 1144 1261 1263 1146 1272 1394
8 1136 1029 1146 1263 1264 1147 1273 1395
8 1155 1041 1160 1282 1275 1149 1276 1405
8 1276 1150 1044 1160 1406 1277 1162 1286
8 1408 1283 1159 1279 1278 1156 1039 1151
8 1290 1165 1283 1408 1177 1053 1156 1278
8 1152 1040 1159 1279 1280 1158 1285 1409
8 1281 1157 1038 1153 1410 1284 1158 1280
8 1281 1157 1284 1410 1154 1042 1160 1282
8 1159 1046 1164 1283 1285 1163 1289 1412
8 1292 1167 1289 1412 1165 1048 1164 1283
8 1158 1045 1163 1285 1284 1161 1288 1413
8 1284 1161 1288 1413 1160 1044 1162 1286
8 1291 1166 1292 1418 1174 1051 1165 1290
8 1291 1166 1051 1174 1419 1293 1172 1305
8 1294 1169 1296 1421 1166 1049 1167 1292
8 1293 1168 1050 1172 1422 1295 1171 1303
8 1294 1169 1049 1166 1423 1297 1168 1293
8 1422 1295 1171 1303 1301 1170 1302 1435
8 1172 1050 1173 1306 1303 1171 1304 1438
8 1174 1051 1175 1308 1305 1172 1306 1440
8 1175 1052 1176 1309 1306 1173 1307 1441
8 1177 1053 1178 1311 1308 1175 1309 1443
8 1178 1054 1179 1312 1309 1176 1310 1444
8 1180 1055 1181 1314 1311 1178 1312 1446
8 1056 1181 1312 1179 1182 1315 1447 1313
8 1183 1058 1184 1316 1314 1181 1315 1448
8 1319 1186 1084 1214 1451 1317 1213 1350
8 1319 1186 1318 1453 1208 1081 1187 1321
8 1321 1187 1320 1456 1188 1063 1189 1323
8 1344 1208 1321 1457 1209 1082 1188 1322
8 1322 1188 1323 1458 1190 1064 1191 1325
8 1323 1189 1324 1459 1191 1065 1192 1326
8 1191 1325 1193 1067 1326 1460 1327 1194
8 1242 1374 1243 1119 1328 1462 1335 1204
8 1330 1199 1333 1465 1196 1075 1200 1331
8 1132 1249 1330 1199 1243 1375 1465 1333
8 1332 1201 1077 1198 1466 1334 1200 1331
8 1215 1099 1201 1332 1352 1227 1334 1466
8 1119 1243 1333 1203 1204 1335 1470 1338
8 1333 1203 1338 1470 1200 1080 1202 1334
8 1227 1111 1202 1334 1360 1235 1338 1470
8 1328 1462 1335 1204 1205 1336 1471 1339
8 1337 1206 1340 1472 1464 1329 1205 1336
8 1346 1211 1342 1479 1210 1083 1207 1343
8 1346 1211 1115 1228 1479 1342 1239 1361
8 1348 1212 1084 1214 1479 1342 1207 1343
8 1480 1343 1208 1344 1345 1210 1082 1209
8 1351 1214 1319 1454 1480 1343 1208 1344
8 1481 1346 1210 1345 1359 1228 1100 1225
8 1348 1212 1347 1483 1214 1084 1213 1350
8 1216 1103 1227 1352 1353 1230 1360 1488
8 1217 1104 1230 1353 1354 1231 1363 1489
8 1490 1364 1232 1355 1354 1231 1106 1219
8 1220 1109 1232 1355 1356 1234 1365 1491
8 1221 1110 1234 1356 1357 1233 1366 1492
8 1224 1107 1233 1357 1358 1229 1362 1493
8 1226 1102 1229 1358 1359 1228 1362 1493
8 1230 1112 1235 1360 1363 1236 1367 1496
8 1361 1239 1115 1228 1497 1371 1240 1362
8 1366 1241 1372 1498 1233 1117 1240 1362
8 1364 1237 1113 1231 1499 1368 1236 1363
8 1364 1237 1368 1499 1232 1114 1238 1365
8 1234 1118 1238 1365 1366 1241 1369 1500
8 1507 1373 1242 1374 1388 1266 1138 1255
8 1508 1374 1243 1375 1380 1255 1132 1249
8 1376 1254 1387 1509 1245 1129 1258 1377
8 1275 1149 1276 1405 1376 1254 1387 1509
8 1377 1258 1391 1510 1248 1130 1259 1379
8 1511 1390 1257 1378 1379 1259 1131 1247
8 1383 1260 1134 1251 1511 1390 1257 1378
8 1252 1135 1256 1385 1380 1255 1388 1512
8 1261 1381 1513 1394 1133 1250 1382 1262
8 1135 1252 1384 1263 1261 1381 1513 1394
8 1382 1262 1134 1251 1514 1393 1260 1383
8 1253 1136 1263 1384 1386 1264 1395 1516
8 1253 1136 1264 1386 1385 1256 1389 1517
8 1387 1265 1397 1519 1258 1141 1269 1391
8 1276 1150 1277 1406 1387 1265 1397 1519
8 1256 1139 1267 1389 1388 1266 1398 1520
8 1264 1147 1274 1396 1389 1267 1399 1521
8 1392 1270 1143 1260 1522 1400 1268 1390
8 1390 1268 1142 1259 1522 1400 1269 1391
8 1392 1270 1401 1523 1260 1143 1271 1393
8 1272 1394 1524 1402 1145 1262 1393 1271
8 1395 1273 1146 1263 1524 1402 1272 1394
8 1273 1395 1264 1147 1403 1526 1396 1274
8 1405 1276 1160 1282 1534 1406 1286 1411
8 1414 1287 1407 1535 1286 1162 1277 1406
8 1279 1159 1283 1408 1409 1285 1412 1537
8 1418 1292 1412 1537 1290 1165 1283 1408
8 1280 1158 1285 1409 1410 1284 1413 1538
8 1410 1284 1413 1538 1282 1160 1286 1411
8 1285 1163 1289 1412 1413 1288 1417 1540
8 1421 1296 1417 1540 1292 1167 1289 1412
8 1414 1287 1162 1286 1541 1416 1288 1413
8 1420 1294 1421 1545 1291 1166 1292 1418
8 1419 1293 1172 1305 1546 1422 1303 1437
8 1420 1294 1166 1291 1547 1423 1293 1419
8 1294 1169 1297 1423 1421 1296 1425 1548
8 1423 1297 1168 1293 1549 1424 1295 1422
8 1301 1170 1298 1427 1422 1295 1424 1549
8 1432 1300 1428 1554 1301 1170 1298 1427
8 1431 1299 1428 1554 1560 1430 1300 1432
8 1563 1433 1300 1432 1435 1302 1170 1301
8 1546 1422 1303 1437 1434 1301 1435 1565
8 1303 1171 1304 1438 1435 1302 1436 1566
8 1305 1172 1306 1440 1437 1303 1438 1568
8 1306 1173 1307 1441 1438 1304 1439 1569
8 1308 1175 1309 1443 1440 1306 1441 1571
8 1309 1176 1310 1444 1441 1307 1442 1572
8 1311 1178 1312 1446 1443 1309 1444 1574
8 1179 1312 1444 1310 1313 1447 1575 1445
8 1314 1181 1315 1448 1446 1312 1447 1576
8 1350 1213 1349 1486 1451 1317 1449 1579
8 1451 1317 1450 1581 1319 1186 1318 1453
8 1454 1319 1214 1351 1582 1451 1350 1487
8 1453 1318 1452 1584 1321 1187 1320 1456
8 1454 1319 1453 1585 1344 1208 1321 1457
8 1456 1320 1455 1586 1323 1189 1324 1459
8 1457 1321 1456 1587 1322 1188 1323 1458
8 1458 1323 1459 1588 1325 1191 1326 1460
8 1205 1336 1464 1329 1328 1462 1590 1461
8 1507 1373 1461 1590 1374 1242 1328 1462
8 1508 1374 1462 1591 1375 1243 1335 1467
8 1337 1206 1329 1464 1473 1341 1463 1594
8 1375 1243 1335 1467 1465 1333 1470 1596
8 1465 1333 1470 1596 1331 1200 1334 1466
8 1352 1227 1334 1466 1488 1360 1470 1596
8 1591 1462 1336 1468 1467 1335 1471 1597
8 1469 1337 1472 1598 1595 1464 1336 1468
8 1471 1339 1474 1600 1335 1204 1338 1470
8 1600 1474 1367 1496 1470 1338 1235 1360
8 1336 1205 1340 1472 1471 1339 1475 1601
8 1337 1206 1341 1473 1472 1340 1476 1602
8 1495 1370 1478 1609 1361 1239 1342 1479
8 1348 1212 1342 1479 1483 1347 1478 1609
8 1481 1346 1479 1610 1345 1210 1343 1480
8 1481 1346 1228 1359 1610 1479 1361 1494
8 1484 1348 1214 1351 1610 1479 1343 1480
8 1483 1347 1482 1612 1350 1213 1349 1486
8 1484 1348 1483 1613 1351 1214 1350 1487
8 1353 1230 1360 1488 1489 1363 1496 1616
8 1490 1364 1231 1354 1617 1499 1363 1489
8 1490 1364 1499 1617 1355 1232 1365 1491
8 1356 1234 1365 1491 1492 1366 1500 1619
8 1492 1366 1498 1620 1357 1233 1362 1493
8 1494 1361 1228 1359 1621 1497 1362 1493
8 1495 1370 1239 1361 1622 1504 1371 1497
8 1363 1236 1367 1496 1499 1368 1501 1623
8 1497 1371 1240 1362 1624 1505 1372 1498
8 1625 1503 1372 1498 1500 1369 1241 1366
8 1365 1238 1368 1499 1500 1369 1502 1626
8 1520 1398 1506 1633 1388 1266 1373 1507
8 1634 1507 1374 1508 1512 1388 1255 1380
8 1509 1387 1519 1635 1377 1258 1391 1510
8 1405 1276 1406 1534 1509 1387 1519 1635
8 1515 1392 1260 1383 1636 1522 1390 1511
8 1511 1390 1259 1379 1636 1522 1391 1510
8 1385 1256 1389 1517 1512 1388 1520 1637
8 1513 1394 1262 1382 1638 1524 1393 1514
8 1395 1516 1638 1524 1263 1384 1513 1394
8 1515 1392 1523 1639 1383 1260 1393 1514
8 1516 1395 1526 1640 1386 1264 1396 1518
8 1386 1264 1396 1518 1517 1389 1521 1641
8 1519 1397 1527 1643 1391 1269 1400 1522
8 1535 1407 1527 1643 1406 1277 1397 1519
8 1389 1267 1399 1521 1520 1398 1528 1644
8 1645 1529 1399 1521 1525 1404 1274 1396
8 1392 1270 1400 1522 1523 1401 1531 1646
8 1524 1402 1271 1393 1648 1532 1401 1523
8 1403 1526 1648 1532 1273 1395 1524 1402
8 1525 1404 1274 1396 1649 1533 1403 1526
8 1539 1414 1535 1657 1411 1286 1406 1534
8 1542 1415 1536 1658 1414 1287 1407 1535
8 1409 1285 1412 1537 1538 1413 1540 1660
8 1545 1421 1540 1660 1418 1292 1412 1537
8 1539 1414 1286 1411 1661 1541 1413 1538
8 1540 1417 1544 1663 1413 1288 1416 1541
8 1421 1296 1425 1548 1540 1417 1544 1663
8 1542 1415 1287 1414 1664 1543 1416 1541
8 1420 1294 1423 1547 1545 1421 1548 1666
8 1547 1423 1293 1419 1667 1549 1422 1546
8 1434 1301 1427 1553 1546 1422 1549 1667
8 1423 1297 1424 1549 1548 1425 1550 1668
8 1551 1426 1550 1668 1427 1298 1424 1549
8 1551 1426 1298 1427 1671 1552 1428 1554
8 1562 1432 1554 1674 1434 1301 1427 1553
8 1431 1299 1429 1558 1554 1428 1555 1675
8 1431 1299 1430 1560 1558 1429 1557 1680
8 1560 1430 1300 1432 1683 1559 1433 1563
8 1561 1431 1554 1674 1684 1560 1432 1562
8 1685 1563 1432 1562 1565 1435 1301 1434
8 1435 1302 1436 1566 1563 1433 1564 1686
8 1437 1303 1438 1568 1565 1435 1566 1688
8 1438 1304 1439 1569 1566 1436 1567 1689
8 1440 1306 1441 1571 1568 1438 1569 1691
8 1441 1307 1442 1572 1569 1439 1570 1692
8 1443 1309 1444 1574 1571 1441 1572 1694
8 1310 1444 1572 1442 1445 1575 1695 1573
8 1446 1312 1447 1576 1574 1444 1575 1696
8 1486 1349 1485 1614 1579 1449 1577 1699
8 1451 1317 1449 1579 1581 1450 1578 1701
8 1487 1350 1486 1615 1582 1451 1579 1702
8 1581 1450 1580 1704 1453 1318 1452 1584
8 1582 1451 1581 1705 1454 1319 1453 1585
8 1584 1452 1583 1706 1456 1320 1455 1586
8 1585 1453 1584 1707 1457 1321 1456 1587
8 1587 1456 1586 1708 1458 1323 1459 1588
8 1633 1506 1589 1710 1507 1373 1461 1590
8 1464 1329 1461 1590 1594 1463 1589 1710
8 1468 1336 1462 1591 1595 1464 1590 1711
8 1634 1507 1590 1711 1508 1374 1462 1591
8 1473 1341 1463 1594 1603 1477 1593 1716
8 1469 1337 1464 1595 1599 1473 1594 1717
8 1471 1597 1467 1335 1600 1718 1596 1470
8 1718 1600 1496 1616 1596 1470 1360 1488
8 1336 1468 1597 1471 1472 1598 1719 1601
8 1469 1337 1473 1599 1598 1472 1602 1720
8 1722 1604 1501 1623 1600 1474 1367 1496
8 1475 1601 1471 1339 1604 1722 1600 1474
8 1602 1476 1605 1723 1472 1340 1475 1601
8 1476 1602 1724 1606 1341 1473 1603 1477
8 1483 1347 1478 1609 1612 1482 1608 1731
8 1495 1370 1504 1622 1609 1478 1608 1731
8 1618 1495 1609 1732 1494 1361 1479 1610
8 1484 1348 1479 1610 1613 1483 1609 1732
8 1486 1349 1482 1612 1614 1485 1611 1733
8 1613 1483 1612 1734 1487 1350 1486 1615
8 1489 1363 1496 1616 1617 1499 1623 1736
8 1491 1365 1499 1617 1619 1500 1626 1737
8 1618 1495 1361 1494 1738 1622 1497 1621
8 1739 1625 1498 1620 1619 1500 1366 1492
8 1621 1497 1362 1493 1740 1624 1498 1620
8 1742 1631 1504 1622 1624 1505 1371 1497
8 1743 1628 1502 1626 1623 1501 1368 1499
8 1744 1630 1505 1624 1625 1503 1372 1498
8 1745 1629 1503 1625 1626 1502 1369 1500
8 1520 1398 1528 1644 1633 1506 1632 1751
8 1637 1520 1633 1752 1512 1388 1507 1634
8 1635 1519 1643 1753 1510 1391 1522 1636
8 1657 1535 1643 1753 1534 1406 1519 1635
8 1515 1392 1522 1636 1639 1523 1646 1754
8 1517 1389 1521 1641 1637 1520 1644 1755
8 1524 1638 1756 1648 1393 1514 1639 1523
8 1640 1526 1395 1516 1756 1648 1524 1638
8 1642 1525 1396 1518 1757 1649 1526 1640
8 1758 1645 1521 1641 1642 1525 1396 1518
8 1646 1531 1400 1522 1760 1650 1527 1643
8 1535 1407 1536 1658 1643 1527 1650 1760
8 1521 1399 1529 1645 1644 1528 1651 1761
8 1647 1530 1652 1762 1525 1404 1529 1645
8 1401 1523 1648 1532 1531 1646 1763 1655
8 1525 1404 1533 1649 1647 1530 1654 1765
8 1533 1649 1766 1656 1403 1526 1648 1532
8 1662 1542 1658 1774 1539 1414 1535 1657
8 1542 1415 1543 1664 1658 1536 1659 1775
8 1660 1540 1663 1777 1538 1413 1541 1661
8 1545 1421 1548 1666 1660 1540 1663 1777
8 1662 1542 1414 1539 1778 1664 1541 1661
8 1664 1543 1416 1541 1779 1665 1544 1663
8 1548 1425 1550 1668 1663 1544 1665 1779
8 1547 1423 1549 1667 1666 1548 1668 1781
8 1670 1551 1668 1781 1553 1427 1549 1667
8 1551 1426 1552 1671 1668 1550 1669 1782
8 1670 1551 1427 1553 1784 1671 1554 1674
8 1675 1555 1672 1785 1554 1428 1552 1671
8 1678 1556 1673 1789 1558 1429 1555 1675
8 1561 1431 1558 1681 1674 1554 1675 1790
8 1794 1677 1556 1678 1680 1557 1429 1558
8 1560 1430 1559 1683 1680 1557 1679 1797
8 1561 1431 1560 1684 1681 1558 1680 1798
8 1563 1433 1564 1686 1683 1559 1682 1800
8 1684 1560 1432 1562 1801 1683 1563 1685
8 1565 1435 1566 1688 1685 1563 1686 1802
8 1566 1436 1567 1689 1686 1564 1687 1803
8 1568 1438 1569 1691 1688 1566 1689 1805
8 1569 1439 1570 1692 1689 1567 1690 1806
8 1571 1441 1572 1694 1691 1569 1692 1808
8 1442 1572 1692 1570 1573 1695 1809 1693
8 1574 1444 1575 1696 1694 1572 1695 1810
8 1614 1485 1592 1712 1699 1577 1697 1813
8 1579 1449 1577 1699 1701 1578 1698 1815
8 1615 1486 1614 1735 1702 1579 1699 1816
8 1701 1578 1700 1818 1581 1450 1580 1704
8 1582 1451 1579 1702 1705 1581 1701 1819
8 1704 1580 1703 1820 1584 1452 1583 1706
8 1705 1581 1704 1821 1585 1453 1584 1707
8 1707 1584 1706 1822 1587 1456 1586 1708
8 1710 1589 1506 1633 1824 1709 1632 1751
8 1594 1463 1589 1710 1716 1593 1709 1824
8 1752 1633 1710 1825 1634 1507 1590 1711
8 1595 1464 1590 1711 1717 1594 1710 1825
8 1830 1714 1592 1712 1733 1611 1485 1614
8 1603 1477 1593 1716 1725 1607 1715 1834
8 1599 1473 1594 1717 1721 1603 1716 1835
8 1837 1722 1623 1736 1718 1600 1496 1616
8 1719 1601 1722 1837 1597 1471 1600 1718
8 1602 1720 1598 1472 1723 1838 1719 1601
8 1720 1602 1473 1599 1839 1724 1603 1721
8 1723 1605 1726 1840 1601 1475 1604 1722
8 1840 1726 1628 1743 1722 1604 1501 1623
8 1724 1606 1727 1841 1602 1476 1605 1723
8 1725 1607 1728 1842 1603 1477 1606 1724
8 1612 1482 1608 1731 1733 1611 1730 1849
8 1741 1627 1730 1849 1622 1504 1608 1731
8 1613 1483 1609 1732 1734 1612 1731 1850
8 1618 1495 1622 1738 1732 1609 1731 1850
8 1615 1486 1612 1734 1735 1614 1733 1851
8 1852 1743 1626 1737 1736 1623 1499 1617
8 1853 1745 1625 1739 1737 1626 1500 1619
8 1855 1742 1622 1738 1740 1624 1497 1621
8 1856 1744 1624 1740 1739 1625 1498 1620
8 1741 1627 1504 1622 1857 1746 1631 1742
8 1742 1631 1505 1624 1858 1749 1630 1744
8 1859 1747 1629 1745 1743 1628 1502 1626
8 1860 1748 1630 1744 1745 1629 1503 1625
8 1644 1528 1651 1761 1751 1632 1750 1865
8 1637 1520 1644 1755 1752 1633 1751 1866
8 1754 1646 1522 1636 1867 1760 1643 1753
8 1657 1535 1658 1774 1753 1643 1760 1867
8 1639 1523 1646 1754 1756 1648 1763 1868
8 1641 1521 1645 1758 1755 1644 1761 1869
8 1757 1649 1526 1640 1870 1766 1648 1756
8 1642 1525 1649 1757 1759 1647 1765 1871
8 1759 1647 1762 1872 1642 1525 1645 1758
8 1760 1650 1767 1874 1646 1531 1655 1763
8 1658 1536 1659 1775 1760 1650 1767 1874
8 1762 1652 1768 1875 1645 1529 1651 1761
8 1764 1653 1769 1876 1647 1530 1652 1762
8 1656 1766 1877 1773 1532 1648 1763 1655
8 1771 1879 1765 1654 1653 1764 1647 1530
8 1533 1649 1765 1654 1656 1766 1880 1772
8 1662 1542 1664 1778 1774 1658 1775 1887
8 1664 1543 1665 1779 1775 1659 1776 1888
8 1778 1664 1541 1661 1890 1779 1663 1777
8 1666 1548 1668 1781 1777 1663 1779 1890
8 1782 1669 1780 1891 1668 1550 1665 1779
8 1670 1551 1671 1784 1781 1668 1782 1893
8 1671 1552 1672 1785 1782 1669 1783 1894
8 1790 1675 1785 1896 1674 1554 1671 1784
8 1675 1555 1673 1789 1785 1672 1786 1897
8 1792 1676 1788 1903 1678 1556 1673 1789
8 1795 1678 1789 1904 1681 1558 1675 1790
8 1792 1676 1556 1678 1906 1791 1677 1794
8 1680 1557 1679 1797 1794 1677 1793 1909
8 1910 1794 1678 1795 1798 1680 1558 1681
8 1683 1559 1682 1800 1797 1679 1796 1912
8 1684 1560 1683 1801 1798 1680 1797 1913
8 1686 1564 1687 1803 1800 1682 1799 1915
8 1685 1563 1686 1802 1801 1683 1800 1916
8 1688 1566 1689 1805 1802 1686 1803 1917
8 1689 1567 1690 1806 1803 1687 1804 1918
8 1691 1569 1692 1808 1805 1689 1806 1920
8 1692 1570 1693 1809 1806 1690 1807 1921
8 1694 1572 1695 1810 1808 1692 1809 1922
8 1829 1713 1811 1926 1712 1592 1697 1813
8 1813 1697 1812 1928 1699 1577 1698 1815
8 1735 1614 1712 1828 1816 1699 1813 1929
8 1815 1698 1814 1931 1701 1578 1700 1818
8 1702 1579 1699 1816 1819 1701 1815 1932
8 1818 1700 1817 1933 1704 1580 1703 1820
8 1819 1701 1818 1934 1705 1581 1704 1821
8 1821 1704 1820 1935 1707 1584 1706 1822
8 1824 1709 1632 1751 1937 1823 1750 1865
8 1716 1593 1709 1824 1834 1715 1823 1937
8 1825 1710 1633 1752 1938 1824 1751 1866
8 1717 1594 1710 1825 1835 1716 1824 1938
8 1945 1830 1712 1828 1851 1733 1614 1735
8 1830 1714 1831 1946 1712 1592 1713 1829
8 1947 1832 1714 1830 1849 1730 1611 1733
8 1843 1729 1607 1725 1950 1833 1715 1834
8 1721 1603 1716 1835 1836 1725 1834 1951
8 1836 1725 1842 1953 1721 1603 1724 1839
8 1723 1838 1719 1601 1840 1954 1837 1722
8 1954 1840 1743 1852 1837 1722 1623 1736
8 1724 1839 1720 1602 1841 1955 1838 1723
8 1841 1727 1844 1956 1723 1605 1726 1840
8 1956 1844 1747 1859 1840 1726 1628 1743
8 1728 1842 1724 1606 1845 1957 1841 1727
8 1725 1607 1729 1843 1842 1728 1846 1958
8 1741 1627 1746 1857 1849 1730 1848 1965
8 1734 1612 1731 1850 1851 1733 1849 1966
8 1854 1741 1849 1966 1738 1622 1731 1850
8 1967 1859 1745 1853 1852 1743 1626 1737
8 1968 1860 1744 1856 1853 1745 1625 1739
8 1854 1741 1622 1738 1969 1857 1742 1855
8 1855 1742 1624 1740 1970 1858 1744 1856
8 1857 1746 1631 1742 1971 1861 1749 1858
8 1858 1749 1630 1744 1972 1863 1748 1860
8 1859 1747 1862 1973 1745 1629 1748 1860
8 1875 1768 1864 1977 1761 1651 1750 1865
8 1755 1644 1761 1869 1866 1751 1865 1978
8 1867 1760 1874 1979 1754 1646 1763 1868
8 1774 1658 1775 1887 1867 1760 1874 1979
8 1870 1766 1648 1756 1980 1877 1763 1868
8 1872 1762 1875 1981 1758 1645 1761 1869
8 1757 1649 1766 1870 1871 1765 1880 1982
8 1983 1879 1764 1873 1871 1765 1647 1759
8 1873 1764 1876 1984 1759 1647 1762 1872
8 1877 1773 1655 1763 1986 1881 1767 1874
8 1775 1659 1776 1888 1874 1767 1881 1986
8 1876 1769 1882 1987 1762 1652 1768 1875
8 1878 1770 1883 1988 1764 1653 1769 1876
8 1880 1772 1656 1766 1989 1886 1773 1877
8 1878 1770 1653 1764 1990 1884 1771 1879
8 1765 1654 1772 1880 1879 1771 1885 1991
8 1778 1664 1779 1890 1887 1775 1888 1997
8 1998 1889 1776 1888 1891 1780 1665 1779
8 1893 1782 1891 2000 1781 1668 1779 1890
8 1894 1783 1892 2001 1782 1669 1780 1891
8 1784 1671 1785 1896 1893 1782 1894 2003
8 1897 1786 1895 2004 1785 1672 1783 1894
8 1790 1675 1789 1904 1896 1785 1897 2006
8 1901 1787 1898 2007 1789 1673 1786 1897
8 1903 1788 1900 2013 1789 1673 1787 1901
8 1792 1676 1791 1906 1903 1788 1902 2016
8 1907 1792 1903 2017 1795 1678 1789 1904
8 1906 1791 1677 1794 2019 1905 1793 1909
8 1907 1792 1678 1795 2020 1906 1794 1910
8 1797 1679 1796 1912 1909 1793 1908 2022
8 1798 1680 1797 1913 1910 1794 1909 2023
8 1800 1682 1799 1915 1912 1796 1911 2025
8 1801 1683 1800 1916 1913 1797 1912 2026
8 1803 1687 1804 1918 1915 1799 1914 2028
8 1802 1686 1803 1917 1916 1800 1915 2029
8 1805 1689 1806 1920 1917 1803 1918 2030
8 1806 1690 1807 1921 1918 1804 1919 2031
8 1808 1692 1809 1922 1920 1806 1921 2032
8 1939 1826 1924 2037 1829 1713 1811 1926
8 1926 1811 1925 2039 1813 1697 1812 1928
8 1944 1829 1926 2040 1828 1712 1813 1929
8 1928 1812 1927 2042 1815 1698 1814 1931
8 1929 1813 1928 2043 1816 1699 1815 1932
8 1931 1814 1930 2044 1818 1700 1817 1933
8 1932 1815 1931 2045 1819 1701 1818 1934
8 1934 1818 1933 2046 1821 1704 1820 1935
8 2048 1936 1823 1937 1977 1864 1750 1865
8 1950 1833 1715 1834 2048 1936 1823 1937
8 1938 1824 1751 1866 2049 1937 1865 1978
8 1835 1716 1824 1938 1951 1834 1937 2049
8 1939 1826 1713 1829 2053 1942 1831 1946
8 1940 1827 1923 2035 2053 1942 1826 1939
8 1945 1830 1946 2058 1828 1712 1829 1944
8 2059 1947 1830 1945 1966 1849 1733 1851
8 1947 1832 1730 1849 2060 1948 1848 1965
8 1947 1832 1948 2060 1830 1714 1831 1946
8 1959 1847 1729 1843 2063 1949 1833 1950
8 1952 1843 1725 1836 2064 1950 1834 1951
8 1836 1725 1843 1952 1953 1842 1958 2066
8 1953 1842 1957 2067 1839 1724 1841 1955
8 1841 1955 1838 1723 1956 2068 1954 1840
8 2068 1956 1859 1967 1954 1840 1743 1852
8 1956 1844 1960 2069 1859 1747 1862 1973
8 1845 1957 1841 1727 1960 2069 1956 1844
8 1728 1842 1957 1845 1846 1958 2071 1961
8 1962 2072 1959 1847 1846 1958 1843 1729
8 1971 1861 1964 2077 1857 1746 1848 1965
8 1854 1741 1857 1969 1966 1849 1965 2078
8 1967 1859 1973 2079 1853 1745 1860 1968
8 1970 1858 1744 1856 2080 1972 1860 1968
8 1969 1857 1742 1855 2081 1971 1858 1970
8 1971 1861 1749 1858 2082 1974 1863 1972
8 1973 1862 1975 2083 1860 1748 1863 1972
8 1987 1882 1976 2086 1875 1768 1864 1977
8 1981 1875 1977 2087 1869 1761 1865 1978
8 1980 1877 1763 1868 2088 1986 1874 1979
8 1887 1775 1888 1997 1979 1874 1986 2088
8 1880 1982 2089 1989 1766 1870 1980 1877
8 1984 1876 1987 2090 1872 1762 1875 1981
8 1765 1871 1983 1879 1880 1982 2091 1991
8 1985 1878 1764 1873 2092 1990 1879 1983
8 1985 1878 1988 2093 1873 1764 1876 1984
8 2094 1992 1881 1986 1998 1889 1776 1888
8 1986 1881 1992 2094 1877 1773 1886 1989
8 1988 1883 1993 2095 1876 1769 1882 1987
8 1878 1770 1884 1990 1988 1883 1994 2096
8 1991 1885 1772 1880 2097 1996 1886 1989
8 1879 1771 1885 1991 1990 1884 1995 2098
8 2103 1998 1888 1997 2000 1891 1779 1890
8 2104 1999 1889 1998 2001 1892 1780 1891
8 2003 1894 2001 2106 1893 1782 1891 2000
8 2004 1895 2002 2107 1894 1783 1892 2001
8 2006 1897 2004 2109 1896 1785 1894 2003
8 2007 1898 2005 2110 1897 1786 1895 2004
8 2014 1901 2007 2112 1904 1789 1897 2006
8 2011 1899 2008 2113 1901 1787 1898 2007
8 2119 2010 1899 2011 2013 1900 1787 1901
8 2016 1902 2012 2122 1903 1788 1900 2013
8 2017 1903 2013 2123 1904 1789 1901 2014
8 1906 1791 1905 2019 2016 1902 2015 2125
8 1907 1792 1906 2020 2017 1903 2016 2126
8 1909 1793 1908 2022 2019 1905 2018 2128
8 2020 1906 1794 1910 2129 2019 1909 2023
8 1912 1796 1911 2025 2022 1908 2021 2131
8 1913 1797 1912 2026 2023 1909 2022 2132
8 1915 1799 1914 2028 2025 1911 2024 2134
8 1916 1800 1915 2029 2026 1912 2025 2135
8 1918 1804 1919 2031 2028 1914 2027 2136
8 1917 1803 1918 2030 2029 1915 2028 2137
8 1920 1806 1921 2032 2030 1918 2031 2138
8 1940 1827 1941 2054 2035 1923 2033 2140
8 2035 1923 2034 2143 1939 1826 1924 2037
8 2037 1924 2036 2146 1926 1811 1925 2039
8 2051 1939 2037 2147 1944 1829 1926 2040
8 2039 1925 2038 2149 1928 1812 1927 2042
8 2040 1926 2039 2150 1929 1813 1928 2043
8 2042 1927 2041 2151 1931 1814 1930 2044
8 2043 1928 2042 2152 1932 1815 1931 2045
8 2045 1931 2044 2153 1934 1818 1933 2046
8 2155 2047 1936 2048 2086 1976 1864 1977
8 2063 1949 1833 1950 2155 2047 1936 2048
8 2156 2048 1937 2049 2087 1977 1865 1978
8 2064 1950 1834 1951 2156 2048 1937 2049
8 2051 1939 1829 1944 2160 2053 1946 2058
8 2052 1940 2035 2144 2160 2053 1939 2051
8 2053 1942 1831 1946 2163 2057 1948 2060
8 2055 1943 1827 1940 2163 2057 1942 2053
8 2055 1943 2056 2164 1940 1827 1941 2054
8 2059 1947 1849 1966 2167 2060 1965 2078
8 2059 1947 2060 2167 1945 1830 1946 2058
8 2077 1964 2061 2168 1965 1848 1948 2060
8 2070 1963 1847 1959 2170 2062 1949 2063
8 2065 1959 1843 1952 2171 2063 1950 2064
8 2173 2072 1958 2066 2065 1959 1843 1952
8 1953 1842 1958 2066 2067 1957 2071 2174
8 2068 1956 2069 2175 1967 1859 1973 2079
8 2067 1957 2069 2175 1955 1841 1956 2068
8 1845 1957 2069 1960 1961 2071 2176 2073
8 2069 1960 2073 2176 1973 1862 1975 2083
8 2070 1963 2075 2177 1959 1847 1962 2072
8 1846 1958 2071 1961 1962 2072 2178 2074
8 2077 1964 1861 1971 2182 2076 1974 2082
8 2081 1971 2077 2183 1969 1857 1965 2078
8 2079 1973 2083 2184 1968 1860 1972 2080
8 2081 1971 1858 1970 2185 2082 1972 2080
8 2083 1975 2084 2186 1972 1863 1974 2082
8 2086 1976 1882 1987 2189 2085 1993 2095
8 2090 1987 2086 2190 1981 1875 1977 2087
8 2191 2094 1986 2088 2103 1998 1888 1997
8 2088 1986 2094 2191 1980 1877 1989 2089
8 1991 2091 2192 2097 1880 1982 2089 1989
8 2093 1988 2095 2193 1984 1876 1987 2090
8 1879 1983 2092 1990 1991 2091 2194 2098
8 1985 1878 1990 2092 2093 1988 2096 2195
8 2097 1996 1886 1989 2196 2099 1992 2094
8 2196 2099 1992 2094 2104 1999 1889 1998
8 1994 2096 1988 1883 2100 2197 2095 1993
8 2096 1994 1884 1990 2198 2101 1995 2098
8 1995 2098 2199 2102 1885 1991 2097 1996
8 2203 2104 1998 2103 2106 2001 1891 2000
8 2107 2002 2105 2204 2001 1892 1999 2104
8 2109 2004 2107 2206 2003 1894 2001 2106
8 2110 2005 2108 2207 2004 1895 2002 2107
8 2112 2007 2110 2209 2006 1897 2004 2109
8 2113 2008 2111 2210 2007 1898 2005 2110
8 2120 2011 2113 2212 2014 1901 2007 2112
8 2117 2009 2114 2213 2011 1899 2008 2113
8 2219 2116 2009 2117 2119 2010 1899 2011
8 2222 2118 2010 2119 2122 2012 1900 2013
8 2223 2119 2011 2120 2123 2013 1901 2014
8 2016 1902 2015 2125 2122 2012 2121 2225
8 2126 2016 2122 2226 2017 1903 2013 2123
8 2019 1905 2018 2128 2125 2015 2124 2228
8 2020 1906 2019 2129 2126 2016 2125 2229
8 2022 1908 2021 2131 2128 2018 2127 2231
8 2023 1909 2022 2132 2129 2019 2128 2232
8 2025 1911 2024 2134 2131 2021 2130 2234
8 2026 1912 2025 2135 2132 2022 2131 2235
8 1914 2028 2134 2024 2027 2136 2236 2133
8 2029 1915 2028 2137 2135 2025 2134 2237
8 2030 1918 2031 2138 2137 2028 2136 2238
8 2157 2050 2139 2240 2054 1941 2033 2140
8 2052 1940 2054 2161 2144 2035 2140 2242
8 2140 2033 2141 2243 2035 1923 2034 2143
8 2143 2034 2142 2246 2037 1924 2036 2146
8 2144 2035 2143 2247 2051 1939 2037 2147
8 2146 2036 2145 2249 2039 1925 2038 2149
8 2147 2037 2146 2250 2040 1926 2039 2150
8 2149 2038 2148 2251 2042 1927 2041 2151
8 2150 2039 2149 2252 2043 1928 2042 2152
8 2152 2042 2151 2253 2045 1931 2044 2153
8 2255 2154 2047 2155 2189 2085 1976 2086
8 2170 2062 1949 2063 2255 2154 2047 2155
8 2256 2155 2048 2156 2190 2086 1977 2087
8 2171 2063 1950 2064 2256 2155 2048 2156
8 2258 2159 2050 2157 2164 2056 1941 2054
8 2160 2053 1946 2058 2262 2163 2060 2167
8 2162 2055 1940 2052 2262 2163 2053 2160
8 2162 2055 2164 2263 2052 1940 2054 2161
8 2163 2057 1948 2060 2264 2165 2061 2168
8 2055 1943 2057 2163 2164 2056 2165 2264
8 2182 2076 2166 2268 2077 1964 2061 2168
8 2183 2077 2168 2269 2078 1965 2060 2167
8 2070 1963 2062 2170 2177 2075 2169 2271
8 2172 2070 1959 2065 2272 2170 2063 2171
8 2172 2070 2177 2273 2065 1959 2072 2173
8 2066 1958 2072 2173 2174 2071 2178 2274
8 2067 1957 2071 2174 2175 2069 2176 2275
8 2175 2069 2176 2275 2079 1973 2083 2184
8 2071 1961 2074 2178 2176 2073 2179 2276
8 2176 2073 2179 2276 2083 1975 2084 2186
8 2072 1962 2075 2177 2178 2074 2180 2277
8 2182 2076 1974 2082 2280 2181 2084 2186
8 2183 2077 1971 2081 2281 2182 2082 2185
8 2184 2083 2186 2282 2080 1972 2082 2185
8 2189 2085 1993 2095 2285 2188 2100 2197
8 2190 2086 1987 2090 2286 2189 2095 2193
8 2192 2097 1989 2089 2287 2196 2094 2191
8 2287 2196 2094 2191 2203 2104 1998 2103
8 2194 2098 1991 2091 2288 2199 2097 2192
8 2195 2096 2197 2289 2093 1988 2095 2193
8 2096 2195 2290 2198 1990 2092 2194 2098
8 2097 1996 2099 2196 2199 2102 2200 2291
8 2196 2099 1999 2104 2291 2200 2105 2204
8 2100 2197 2292 2201 1994 2096 2198 2101
8 1995 2098 2198 2101 2102 2199 2293 2202
8 2206 2107 2204 2296 2106 2001 2104 2203
8 2207 2108 2205 2297 2107 2002 2105 2204
8 2209 2110 2207 2299 2109 2004 2107 2206
8 2210 2111 2208 2300 2110 2005 2108 2207
8 2212 2113 2210 2302 2112 2007 2110 2209
8 2213 2114 2211 2303 2113 2008 2111 2210
8 2220 2117 2213 2305 2120 2011 2113 2212
8 2216 2115 2214 2306 2117 2009 2114 2213
8 2216 2115 2009 2117 2311 2217 2116 2219
8 2219 2116 2010 2119 2314 2218 2118 2222
8 2315 2219 2117 2220 2223 2119 2011 2120
8 2122 2012 2121 2225 2222 2118 2221 2317
8 2318 2222 2119 2223 2226 2122 2013 2123
8 2125 2015 2124 2228 2225 2121 2224 2320
8 2126 2016 2125 2229 2226 2122 2225 2321
8 2128 2018 2127 2231 2228 2124 2227 2323
8 2129 2019 2128 2232 2229 2125 2228 2324
8 2131 2021 2130 2234 2231 2127 2230 2326
8 2132 2022 2131 2235 2232 2128 2231 2327
8 2134 2024 2133 2236 2234 2130 2233 2328
8 2135 2025 2134 2237 2235 2131 2234 2329
8 2137 2028 2136 2238 2237 2134 2236 2330
8 2157 2050 2158 2259 2240 2139 2239 2332
8 2257 2157 2240 2334 2161 2054 2140 2242
8 2240 2139 2241 2335 2140 2033 2141 2243
8 2242 2140 2243 2337 2144 2035 2143 2247
8 2243 2141 2244 2338 2143 2034 2142 2246
8 2246 2142 2245 2341 2146 2036 2145 2249
8 2247 2143 2246 2342 2147 2037 2146 2250
8 2249 2145 2248 2343 2149 2038 2148 2251
8 2250 2146 2249 2344 2150 2039 2149 2252
8 2252 2149 2251 2345 2152 2042 2151 2253
8 2169 2271 2347 2254 2062 2170 2255 2154
8 2189 2085 2188 2285 2255 2154 2254 2347
8 2348 2255 2155 2256 2286 2189 2086 2190
8 2272 2170 2063 2171 2348 2255 2155 2256
8 2349 2258 2157 2257 2263 2164 2054 2161
8 2258 2159 2261 2351 2157 2050 2158 2259
8 2258 2159 2056 2164 2351 2261 2165 2264
8 2262 2163 2060 2167 2355 2264 2168 2269
8 2162 2055 2163 2262 2263 2164 2264 2355
8 2357 2266 2165 2264 2268 2166 2061 2168
8 2268 2166 2076 2182 2361 2267 2181 2280
8 2281 2182 2268 2362 2183 2077 2168 2269
8 2271 2169 2270 2364 2177 2075 2180 2277
8 2172 2070 2170 2272 2273 2177 2271 2365
8 2072 2173 2274 2178 2177 2273 2366 2277
8 2071 2174 2275 2176 2178 2274 2367 2276
8 2275 2176 2276 2367 2184 2083 2186 2282
8 2283 2187 2084 2186 2368 2278 2179 2276
8 2178 2074 2180 2277 2276 2179 2278 2368
8 2283 2187 2279 2370 2186 2084 2181 2280
8 2281 2182 2082 2185 2371 2280 2186 2282
8 2188 2285 2374 2284 2100 2197 2292 2201
8 2286 2189 2095 2193 2375 2285 2197 2289
8 2192 2097 2196 2287 2288 2199 2291 2376
8 2287 2196 2104 2203 2376 2291 2204 2296
8 2194 2098 2199 2288 2290 2198 2293 2377
8 2289 2197 2096 2195 2378 2292 2198 2290
8 2291 2200 2105 2204 2379 2294 2205 2297
8 2199 2102 2200 2291 2293 2202 2294 2379
8 2198 2101 2202 2293 2292 2201 2295 2380
8 2299 2207 2297 2383 2206 2107 2204 2296
8 2300 2208 2298 2384 2207 2108 2205 2297
8 2302 2210 2300 2386 2209 2110 2207 2299
8 2303 2211 2301 2387 2210 2111 2208 2300
8 2305 2213 2303 2389 2212 2113 2210 2302
8 2306 2214 2304 2390 2213 2114 2211 2303
8 2310 2216 2306 2392 2220 2117 2213 2305
8 2308 2215 2307 2393 2216 2115 2214 2306
8 2308 2215 2115 2216 2396 2309 2217 2311
8 2310 2216 2117 2220 2398 2311 2219 2315
8 2311 2217 2116 2219 2399 2312 2218 2314
8 2314 2218 2118 2222 2402 2313 2221 2317
8 2315 2219 2119 2223 2403 2314 2222 2318
8 2225 2121 2224 2320 2317 2221 2316 2405
8 2226 2122 2225 2321 2318 2222 2317 2406
8 2228 2124 2227 2323 2320 2224 2319 2408
8 2229 2125 2228 2324 2321 2225 2320 2409
8 2231 2127 2230 2326 2323 2227 2322 2411
8 2232 2128 2231 2327 2324 2228 2323 2412
8 2234 2130 2233 2328 2326 2230 2325 2413
8 2235 2131 2234 2329 2327 2231 2326 2414
8 2237 2134 2236 2330 2329 2234 2328 2415
8 2259 2158 2260 2352 2332 2239 2331 2417
8 2257 2157 2259 2350 2334 2240 2332 2419
8 2240 2139 2239 2332 2335 2241 2333 2420
8 2334 2240 2335 2422 2242 2140 2243 2337
8 2335 2241 2336 2423 2243 2141 2244 2338
8 2337 2243 2338 2425 2247 2143 2246 2342
8 2338 2244 2339 2426 2246 2142 2245 2341
8 2341 2245 2340 2428 2249 2145 2248 2343
8 2342 2246 2341 2429 2250 2146 2249 2344
8 2344 2249 2343 2430 2252 2149 2251 2345
8 2188 2285 2347 2254 2284 2374 2432 2346
8 2347 2254 2346 2432 2271 2169 2270 2364
8 2365 2271 2170 2272 2433 2347 2255 2348
8 2286 2189 2285 2375 2348 2255 2347 2433
8 2349 2258 2351 2435 2257 2157 2259 2350
8 2349 2258 2164 2263 2435 2351 2264 2355
8 2259 2158 2261 2351 2352 2260 2354 2437
8 2356 2265 2354 2437 2264 2165 2261 2351
8 2441 2357 2264 2355 2362 2268 2168 2269
8 2356 2265 2165 2264 2442 2358 2266 2357
8 2443 2359 2266 2357 2361 2267 2166 2268
8 2370 2279 2360 2446 2280 2181 2267 2361
8 2362 2268 2182 2281 2447 2361 2280 2371
8 2180 2277 2368 2278 2270 2364 2449 2363
8 2271 2365 2273 2177 2364 2450 2366 2277
8 2372 2283 2186 2282 2451 2368 2276 2367
8 2178 2274 2367 2276 2277 2366 2451 2368
8 2283 2187 2278 2368 2370 2279 2369 2452
8 2372 2283 2370 2453 2282 2186 2280 2371
8 2284 2374 2455 2373 2201 2292 2380 2295
8 2375 2285 2197 2289 2456 2374 2292 2378
8 2376 2291 2204 2296 2457 2379 2297 2383
8 2288 2199 2291 2376 2377 2293 2379 2457
8 2198 2290 2378 2292 2293 2377 2458 2380
8 2293 2202 2294 2379 2380 2295 2381 2459
8 2384 2298 2381 2459 2297 2205 2294 2379
8 2386 2300 2384 2463 2299 2207 2297 2383
8 2387 2301 2385 2464 2300 2208 2298 2384
8 2389 2303 2387 2466 2302 2210 2300 2386
8 2390 2304 2388 2467 2303 2211 2301 2387
8 2392 2306 2390 2469 2305 2213 2303 2389
8 2393 2307 2391 2470 2306 2214 2304 2390
8 2395 2308 2393 2472 2310 2216 2306 2392
8 2308 2215 2309 2396 2393 2307 2394 2473
8 2395 2308 2216 2310 2475 2396 2311 2398
8 2396 2309 2217 2311 2476 2397 2312 2399
8 2398 2311 2219 2315 2478 2399 2314 2403
8 2399 2312 2218 2314 2479 2400 2313 2402
8 2317 2221 2316 2405 2402 2313 2401 2482
8 2403 2314 2222 2318 2483 2402 2317 2406
8 2320 2224 2319 2408 2405 2316 2404 2485
8 2321 2225 2320 2409 2406 2317 2405 2486
8 2323 2227 2322 2411 2408 2319 2407 2488
8 2324 2228 2323 2412 2409 2320 2408 2489
8 2326 2230 2325 2413 2411 2322 2410 2490
8 2327 2231 2326 2414 2412 2323 2411 2491
8 2329 2234 2328 2415 2414 2326 2413 2492
8 2417 2331 2260 2352 2494 2416 2353 2438
8 2350 2259 2352 2436 2419 2332 2417 2496
8 2332 2239 2331 2417 2420 2333 2418 2497
8 2334 2240 2332 2419 2422 2335 2420 2499
8 2420 2333 2421 2500 2335 2241 2336 2423
8 2422 2335 2423 2502 2337 2243 2338 2425
8 2423 2336 2424 2503 2338 2244 2339 2426
8 2425 2338 2426 2505 2342 2246 2341 2429
8 2426 2339 2427 2506 2341 2245 2340 2428
8 2429 2341 2428 2507 2344 2249 2343 2430
8 2432 2346 2284 2374 2509 2431 2373 2455
8 2432 2346 2431 2509 2364 2270 2363 2449
8 2375 2285 2374 2456 2433 2347 2432 2510
8 2347 2433 2365 2271 2432 2510 2450 2364
8 2350 2259 2351 2435 2436 2352 2437 2514
8 2440 2356 2437 2514 2355 2264 2351 2435
8 2352 2260 2354 2437 2438 2353 2439 2516
8 2356 2265 2358 2442 2437 2354 2439 2516
8 2440 2356 2264 2355 2518 2442 2357 2441
8 2519 2443 2357 2441 2447 2361 2268 2362
8 2443 2359 2444 2520 2357 2266 2358 2442
8 2443 2359 2267 2361 2520 2444 2360 2446
8 2446 2360 2279 2370 2523 2445 2369 2452
8 2453 2370 2446 2524 2371 2280 2361 2447
8 2449 2363 2448 2525 2368 2278 2369 2452
8 2366 2277 2364 2450 2451 2368 2449 2526
8 2372 2283 2368 2451 2453 2370 2452 2527
8 2455 2373 2295 2380 2529 2454 2382 2460
8 2456 2374 2292 2378 2530 2455 2380 2458
8 2377 2293 2379 2457 2458 2380 2459 2531
8 2463 2384 2459 2531 2383 2297 2379 2457
8 2533 2461 2382 2460 2459 2381 2295 2380
8 2464 2385 2461 2533 2384 2298 2381 2459
8 2466 2387 2464 2537 2386 2300 2384 2463
8 2467 2388 2465 2538 2387 2301 2385 2464
8 2469 2390 2467 2540 2389 2303 2387 2466
8 2470 2391 2468 2541 2390 2304 2388 2467
8 2472 2393 2470 2543 2392 2306 2390 2469
8 2393 2307 2394 2473 2470 2391 2471 2544
8 2395 2308 2396 2475 2472 2393 2473 2546
8 2396 2309 2397 2476 2473 2394 2474 2547
8 2475 2396 2311 2398 2549 2476 2399 2478
8 2476 2397 2312 2399 2550 2477 2400 2479
8 2478 2399 2314 2403 2552 2479 2402 2483
8 2479 2400 2313 2402 2553 2480 2401 2482
8 2405 2316 2404 2485 2482 2401 2481 2556
8 2406 2317 2405 2486 2483 2402 2482 2557
8 2408 2319 2407 2488 2485 2404 2484 2559
8 2409 2320 2408 2489 2486 2405 2485 2560
8 2411 2322 2410 2490 2488 2407 2487 2561
8 2412 2323 2411 2491 2489 2408 2488 2562
8 2414 2326 2413 2492 2491 2411 2490 2563
8 2513 2434 2493 2565 2438 2353 2416 2494
8 2496 2417 2352 2436 2567 2494 2438 2515
8 2494 2416 2495 2568 2417 2331 2418 2497
8 2419 2332 2417 2496 2499 2420 2497 2570
8 2497 2418 2498 2571 2420 2333 2421 2500
8 2499 2420 2500 2573 2422 2335 2423 2502
8 2500 2421 2501 2574 2423 2336 2424 2503
8 2502 2423 2503 2576 2425 2338 2426 2505
8 2503 2424 2504 2577 2426 2339 2427 2506
8 2505 2426 2506 2578 2429 2341 2428 2507
8 2509 2431 2373 2455 2580 2508 2454 2529
8 2509 2431 2508 2580 2449 2363 2448 2525
8 2432 2510 2581 2509 2374 2456 2530 2455
8 2432 2510 2450 2364 2509 2581 2526 2449
8 2583 2511 2434 2513 2516 2439 2353 2438
8 2436 2352 2437 2514 2515 2438 2516 2588
8 2440 2356 2442 2518 2514 2437 2516 2588
8 2442 2358 2444 2520 2516 2439 2517 2589
8 2519 2443 2520 2591 2441 2357 2442 2518
8 2519 2443 2361 2447 2591 2520 2446 2524
8 2446 2360 2445 2523 2520 2444 2521 2592
8 2525 2448 2522 2593 2452 2369 2445 2523
8 2524 2446 2370 2453 2594 2523 2452 2527
8 2526 2449 2525 2595 2451 2368 2452 2527
8 2534 2462 2528 2597 2460 2382 2454 2529
8 2530 2455 2380 2458 2598 2529 2460 2532
8 2599 2533 2460 2532 2531 2459 2380 2458
8 2537 2464 2533 2599 2463 2384 2459 2531
8 2534 2462 2382 2460 2601 2535 2461 2533
8 2538 2465 2535 2601 2464 2385 2461 2533
8 2540 2467 2538 2604 2466 2387 2464 2537
8 2541 2468 2539 2605 2467 2388 2465 2538
8 2543 2470 2541 2607 2469 2390 2467 2540
8 2470 2391 2471 2544 2541 2468 2542 2608
8 2472 2393 2473 2546 2543 2470 2544 2610
8 2473 2394 2474 2547 2544 2471 2545 2611
8 2475 2396 2476 2549 2546 2473 2547 2613
8 2476 2397 2477 2550 2547 2474 2548 2614
8 2549 2476 2399 2478 2616 2550 2479 2552
8 2479 2400 2480 2553 2550 2477 2551 2617
8 2552 2479 2402 2483 2619 2553 2482 2557
8 2482 2401 2481 2556 2553 2480 2554 2620
8 2485 2404 2484 2559 2556 2481 2555 2623
8 2486 2405 2485 2560 2557 2482 2556 2624
8 2488 2407 2487 2561 2559 2484 2558 2625
8 2489 2408 2488 2562 2560 2485 2559 2626
8 2491 2411 2490 2563 2562 2488 2561 2627
8 2513 2434 2512 2585 2565 2493 2564 2630
8 2586 2513 2565 2632 2515 2438 2494 2567
8 2565 2493 2566 2633 2494 2416 2495 2568
8 2567 2494 2568 2635 2496 2417 2497 2570
8 2568 2495 2569 2636 2497 2418 2498 2571
8 2570 2497 2571 2638 2499 2420 2500 2573
8 2571 2498 2572 2639 2500 2421 2501 2574
8 2573 2500 2574 2641 2502 2423 2503 2576
8 2574 2501 2575 2642 2503 2424 2504 2577
8 2576 2503 2577 2643 2505 2426 2506 2578
8 2597 2528 2579 2645 2529 2454 2508 2580
8 2580 2508 2579 2645 2525 2448 2522 2593
8 2581 2509 2455 2530 2646 2580 2529 2598
8 2581 2509 2580 2646 2526 2449 2525 2595
8 2583 2511 2582 2648 2513 2434 2512 2585
8 2583 2511 2439 2516 2648 2582 2517 2589
8 2649 2583 2513 2586 2588 2516 2438 2515
8 2589 2517 2444 2520 2653 2587 2521 2592
8 2518 2442 2520 2591 2588 2516 2589 2654
8 2593 2522 2590 2655 2523 2445 2521 2592
8 2524 2446 2523 2594 2591 2520 2592 2656
8 2595 2525 2593 2657 2527 2452 2523 2594
8 2602 2536 2596 2659 2534 2462 2528 2597
8 2600 2534 2597 2660 2532 2460 2529 2598
8 2600 2534 2460 2532 2661 2601 2533 2599
8 2604 2538 2601 2661 2537 2464 2533 2599
8 2602 2536 2462 2534 2663 2603 2535 2601
8 2601 2535 2465 2538 2663 2603 2539 2605
8 2607 2541 2605 2665 2540 2467 2538 2604
8 2608 2542 2606 2666 2541 2468 2539 2605
8 2543 2470 2544 2610 2607 2541 2608 2668
8 2544 2471 2545 2611 2608 2542 2609 2669
8 2546 2473 2547 2613 2610 2544 2611 2671
8 2547 2474 2548 2614 2611 2545 2612 2672
8 2549 2476 2550 2616 2613 2547 2614 2674
8 2550 2477 2551 2617 2614 2548 2615 2675
8 2552 2479 2553 2619 2616 2550 2617 2677
8 2553 2480 2554 2620 2617 2551 2618 2678
8 2557 2482 2556 2624 2619 2553 2620 2680
8 2556 2481 2555 2623 2620 2554 2621 2681
8 2559 2484 2558 2625 2623 2555 2622 2683
8 2560 2485 2559 2626 2624 2556 2623 2684
8 2562 2488 2561 2627 2626 2559 2625 2685
8 2690 2629 2564 2630 2650 2584 2512 2585
8 2586 2513 2585 2651 2632 2565 2630 2691
8 2630 2564 2631 2692 2565 2493 2566 2633
8 2632 2565 2633 2694 2567 2494 2568 2635
8 2633 2566 2634 2695 2568 2495 2569 2636
8 2635 2568 2636 2697 2570 2497 2571 2638
8 2636 2569 2637 2698 2571 2498 2572 2639
8 2638 2571 2639 2700 2573 2500 2574 2641
8 2639 2572 2640 2701 2574 2501 2575 2642
8 2641 2574 2642 2702 2576 2503 2577 2643
8 2597 2528 2596 2659 2645 2579 2644 2704
8 2645 2579 2644 2704 2593 2522 2590 2655
8 2660 2597 2645 2705 2598 2529 2580 2646
8 2646 2580 2645 2705 2595 2525 2593 2657
8 2650 2584 2512 2585 2707 2647 2582 2648
8 2648 2582 2517 2589 2707 2647 2587 2653
8 2649 2583 2648 2708 2586 2513 2585 2651
8 2649 2583 2516 2588 2708 2648 2589 2654
8 2655 2590 2652 2710 2592 2521 2587 2653
8 2654 2589 2520 2591 2711 2653 2592 2656
8 2657 2593 2655 2712 2594 2523 2592 2656
8 2602 2536 2603 2663 2659 2596 2658 2714
8 2662 2602 2659 2715 2600 2534 2597 2660
8 2662 2602 2534 2600 2717 2663 2601 2661
8 2661 2601 2538 2604 2717 2663 2605 2665
8 2666 2606 2664 2718 2605 2539 2603 2663
8 2668 2608 2666 2720 2607 2541 2605 2665
8 2608 2542 2609 2669 2666 2606 2667 2721
8 2610 2544 2611 2671 2668 2608 2669 2723
8 2611 2545 2612 2672 2669 2609 2670 2724
8 2613 2547 2614 2674 2671 2611 2672 2726
8 2614 2548 2615 2675 2672 2612 2673 2727
8 2616 2550 2617 2677 2674 2614 2675 2729
8 2617 2551 2618 2678 2675 2615 2676 2730
8 2619 2553 2620 2680 2677 2617 2678 2732
8 2620 2554 2621 2681 2678 2618 2679 2733
8 2624 2556 2623 2684 2680 2620 2681 2735
8 2681 2621 2555 2623 2736 2682 2622 2683
8 2626 2559 2625 2685 2684 2623 2683 2737
8 2688 2628 2584 2650 2740 2686 2647 2707
8 2688 2628 2687 2742 2650 2584 2629 2690
8 2690 2629 2689 2745 2630 2564 2631 2692
8 2746 2690 2630 2691 2709 2650 2585 2651
8 2691 2630 2692 2747 2632 2565 2633 2694
8 2692 2631 2693 2748 2633 2566 2634 2695
8 2694 2633 2695 2750 2635 2568 2636 2697
8 2695 2634 2696 2751 2636 2569 2637 2698
8 2697 2636 2698 2753 2638 2571 2639 2700
8 2698 2637 2699 2754 2639 2572 2640 2701
8 2700 2639 2701 2755 2641 2574 2642 2702
8 2659 2596 2658 2714 2704 2644 2703 2757
8 2704 2644 2703 2757 2655 2590 2652 2710
8 2660 2597 2659 2715 2705 2645 2704 2758
8 2705 2645 2704 2758 2657 2593 2655 2712
8 2759 2706 2647 2707 2710 2652 2587 2653
8 2709 2650 2585 2651 2760 2707 2648 2708
8 2708 2648 2589 2654 2760 2707 2653 2711
8 2712 2655 2710 2761 2656 2592 2653 2711
8 2763 2713 2658 2714 2718 2664 2603 2663
8 2662 2602 2663 2717 2715 2659 2714 2764
8 2720 2666 2718 2767 2665 2605 2663 2717
8 2768 2719 2664 2718 2721 2667 2606 2666
8 2668 2608 2669 2723 2720 2666 2721 2770
8 2669 2609 2670 2724 2721 2667 2722 2771
8 2671 2611 2672 2726 2723 2669 2724 2773
8 2672 2612 2673 2727 2724 2670 2725 2774
8 2674 2614 2675 2729 2726 2672 2727 2776
8 2675 2615 2676 2730 2727 2673 2728 2777
8 2677 2617 2678 2732 2729 2675 2730 2779
8 2678 2618 2679 2733 2730 2676 2731 2780
8 2680 2620 2681 2735 2732 2678 2733 2782
8 2733 2679 2621 2681 2783 2734 2682 2736
8 2735 2681 2623 2684 2784 2736 2683 2737
8 2740 2686 2647 2707 2787 2738 2706 2759
8 2688 2628 2686 2740 2742 2687 2739 2789
8 2743 2688 2650 2709 2790 2740 2707 2760
8 2742 2687 2741 2792 2690 2629 2689 2745
8 2743 2688 2742 2793 2709 2650 2690 2746
8 2745 2689 2744 2795 2692 2631 2693 2748
8 2746 2690 2745 2796 2691 2630 2692 2747
8 2747 2692 2748 2797 2694 2633 2695 2750
8 2748 2693 2749 2798 2695 2634 2696 2751
8 2750 2695 2751 2800 2697 2636 2698 2753
8 2751 2696 2752 2801 2698 2637 2699 2754
8 2753 2698 2754 2802 2700 2639 2701 2755
8 2763 2713 2756 2804 2714 2658 2703 2757
8 2759 2706 2652 2710 2804 2756 2703 2757
8 2715 2659 2714 2764 2758 2704 2757 2805
8 2758 2704 2757 2805 2712 2655 2710 2761
8 2806 2759 2707 2760 2761 2710 2653 2711
8 2765 2716 2762 2808 2718 2664 2713 2763
8 2809 2763 2714 2764 2767 2718 2663 2717
8 2765 2716 2664 2718 2811 2766 2719 2768
8 2813 2768 2718 2767 2770 2721 2666 2720
8 2814 2769 2719 2768 2771 2722 2667 2721
8 2723 2669 2724 2773 2770 2721 2771 2816
8 2724 2670 2725 2774 2771 2722 2772 2817
8 2726 2672 2727 2776 2773 2724 2774 2819
8 2727 2673 2728 2777 2774 2725 2775 2820
8 2729 2675 2730 2779 2776 2727 2777 2822
8 2730 2676 2731 2780 2777 2728 2778 2823
8 2732 2678 2733 2782 2779 2730 2780 2825
8 2780 2731 2679 2733 2826 2781 2734 2783
8 2782 2733 2681 2735 2827 2783 2736 2784
8 2830 2785 2738 2787 2804 2756 2706 2759
8 2789 2739 2686 2740 2832 2786 2738 2787
8 2790 2740 2707 2760 2833 2787 2759 2806
8 2742 2687 2739 2789 2792 2741 2788 2835
8 2743 2688 2740 2790 2793 2742 2789 2836
8 2792 2741 2791 2838 2745 2689 2744 2795
8 2793 2742 2792 2839 2746 2690 2745 2796
8 2795 2744 2794 2841 2748 2693 2749 2798
8 2796 2745 2795 2842 2747 2692 2748 2797
8 2797 2748 2798 2843 2750 2695 2751 2800
8 2798 2749 2799 2844 2751 2696 2752 2801
8 2800 2751 2801 2845 2753 2698 2754 2802
8 2808 2762 2803 2847 2763 2713 2756 2804
8 2809 2763 2804 2848 2764 2714 2757 2805
8 2806 2759 2710 2761 2848 2804 2757 2805
8 2765 2716 2766 2811 2808 2762 2807 2850
8 2810 2765 2808 2851 2767 2718 2763 2809
8 2810 2765 2718 2767 2852 2811 2768 2813
8 2811 2766 2719 2768 2853 2812 2769 2814
8 2855 2814 2768 2813 2816 2771 2721 2770
8 2856 2815 2769 2814 2817 2772 2722 2771
8 2773 2724 2774 2819 2816 2771 2817 2858
8 2774 2725 2775 2820 2817 2772 2818 2859
8 2776 2727 2777 2822 2819 2774 2820 2861
8 2777 2728 2778 2823 2820 2775 2821 2862
8 2779 2730 2780 2825 2822 2777 2823 2864
8 2823 2778 2731 2780 2865 2824 2781 2826
8 2825 2780 2733 2782 2866 2826 2783 2827
8 2869 2828 2785 2830 2847 2803 2756 2804
8 2871 2829 2786 2832 2830 2785 2738 2787
8 2872 2830 2787 2833 2848 2804 2759 2806
8 2789 2739 2786 2832 2835 2788 2831 2874
8 2836 2789 2740 2790 2875 2832 2787 2833
8 2792 2741 2788 2835 2838 2791 2834 2877
8 2793 2742 2789 2836 2839 2792 2835 2878
8 2838 2791 2837 2880 2795 2744 2794 2841
8 2839 2792 2838 2881 2796 2745 2795 2842
8 2841 2794 2840 2882 2798 2749 2799 2844
8 2842 2795 2841 2883 2797 2748 2798 2843
8 2843 2798 2844 2884 2800 2751 2801 2845
8 2886 2846 2803 2847 2850 2807 2762 2808
8 2851 2808 2847 2887 2809 2763 2804 2848
8 2850 2807 2766 2811 2889 2849 2812 2853
8 2810 2765 2811 2852 2851 2808 2850 2890
8 2852 2811 2768 2813 2891 2853 2814 2855
8 2853 2812 2769 2814 2892 2854 2815 2856
8 2894 2856 2814 2855 2858 2817 2771 2816
8 2817 2772 2818 2859 2856 2815 2857 2895
8 2819 2774 2820 2861 2858 2817 2859 2897
8 2820 2775 2821 2862 2859 2818 2860 2898
8 2822 2777 2823 2864 2861 2820 2862 2900
8 2823 2778 2824 2865 2862 2821 2863 2901
8 2864 2823 2780 2825 2902 2865 2826 2866
8 2904 2867 2828 2869 2886 2846 2803 2847
8 2869 2828 2868 2906 2830 2785 2829 2871
8 2907 2869 2830 2872 2887 2847 2804 2848
8 2871 2829 2870 2909 2832 2786 2831 2874
8 2910 2871 2832 2875 2872 2830 2787 2833
8 2835 2788 2831 2874 2877 2834 2873 2912
8 2836 2789 2832 2875 2878 2835 2874 2913
8 2877 2834 2876 2915 2838 2791 2837 2880
8 2839 2792 2835 2878 2881 2838 2877 2916
8 2880 2837 2879 2917 2841 2794 2840 2882
8 2881 2838 2880 2918 2842 2795 2841 2883
8 2883 2841 2882 2919 2843 2798 2844 2884
8 2921 2885 2846 2886 2889 2849 2807 2850
8 2922 2886 2847 2887 2890 2850 2808 2851
8 2889 2849 2812 2853 2924 2888 2854 2892
8 2890 2850 2811 2852 2925 2889 2853 2891
8 2891 2853 2814 2855 2926 2892 2856 2894
8 2892 2854 2815 2856 2927 2893 2857 2895
8 2858 2817 2859 2897 2894 2856 2895 2929
8 2859 2818 2860 2898 2895 2857 2896 2930
8 2861 2820 2862 2900 2897 2859 2898 2932
8 2862 2821 2863 2901 2898 2860 2899 2933
8 2864 2823 2865 2902 2900 2862 2901 2934
8 2904 2867 2846 2886 2936 2903 2885 2921
8 2904 2867 2903 2936 2869 2828 2868 2906
8 2937 2904 2869 2907 2922 2886 2847 2887
8 2906 2868 2905 2939 2871 2829 2870 2909
8 2907 2869 2906 2940 2872 2830 2871 2910
8 2909 2870 2908 2942 2874 2831 2873 2912
8 2910 2871 2909 2943 2875 2832 2874 2913
8 2912 2873 2911 2945 2877 2834 2876 2915
8 2878 2835 2874 2913 2916 2877 2912 2946
8 2915 2876 2914 2947 2880 2837 2879 2917
8 2916 2877 2915 2948 2881 2838 2880 2918
8 2918 2880 2917 2949 2883 2841 2882 2919
8 2921 2885 2849 2889 2951 2920 2888 2924
8 2952 2921 2886 2922 2925 2889 2850 2890
8 2924 2888 2854 2892 2954 2923 2893 2927
8 2925 2889 2853 2891 2955 2924 2892 2926
8 2926 2892 2856 2894 2956 2927 2895 2929
8 2895 2857 2896 2930 2927 2893 2928 2957
8 2897 2859 2898 2932 2929 2895 2930 2959
8 2898 2860 2899 2933 2930 2896 2931 2960
8 2900 2862 2901 2934 2932 2898 2933 2961
8 2936 2903 2885 2921 2963 2935 2920 2951
8 2936 2903 2935 2963 2906 2868 2905 2939
8 2937 2904 2886 2922 2964 2936 2921 2952
8 2937 2904 2936 2964 2907 2869 2906 2940
8 2939 2905 2938 2966 2909 2870 2908 2942
8 2940 2906 2939 2967 2910 2871 2909 2943
8 2942 2908 2941 2969 2912 2873 2911 2945
8 2943 2909 2942 2970 2913 2874 2912 2946
8 2945 2911 2944 2971 2915 2876 2914 2947
8 2946 2912 2945 2972 2916 2877 2915 2948
8 2948 2915 2947 2973 2918 2880 2917 2949
8 2951 2920 2888 2924 2975 2950 2923 2954
8 2952 2921 2889 2925 2976 2951 2924 2955
8 2927 2893 2928 2957 2954 2923 2953 2978
8 2955 2924 2892 2926 2979 2954 2927 2956
8 2929 2895 2930 2959 2956 2927 2957 2980
8 2930 2896 2931 2960 2957 2928 2958 2981
8 2932 2898 2933 2961 2959 2930 2960 2982
8 2951 2920 2950 2975 2963 2935 2962 2984
8 2963 2935 2962 2984 2939 2905 2938 2966
8 2964 2936 2921 2952 2985 2963 2951 2976
8 2964 2936 2963 2985 2940 2906 2939 2967
8 2966 2938 2965 2987 2942 2908 2941 2969
8 2967 2939 2966 2988 2943 2909 2942 2970
8 2969 2941 2968 2989 2945 2911 2944 2971
8 2970 2942 2969 2990 2946 2912 2945 2972
8 2972 2945 2971 2991 2948 2915 2947 2973
8 2954 2923 2953 2978 2975 2950 2974 2993
8 2976 2951 2924 2955 2994 2975 2954 2979
8 2957 2928 2958 2981 2978 2953 2977 2995
8 2956 2927 2957 2980 2979 2954 2978 2996
8 2959 2930 2960 2982 2980 2957 2981 2997
8 2984 2962 2983 2999 2966 2938 2965 2987
8 2975 2950 2974 2993 2984 2962 2983 2999
8 2976 2951 2975 2994 2985 2963 2984 3000
8 2985 2963 2984 3000 2967 2939 2966 2988
8 2987 2965 2986 3001 2969 2941 2968 2989
8 2988 2966 2987 3002 2970 2942 2969 2990
8 2990 2969 2989 3003 2972 2945 2971 2991
8 2978 2953 2977 2995 2993 2974 2992 3004
8 2979 2954 2978 2996 2994 2975 2993 3005
8 2980 2957 2981 2997 2996 2978 2995 3006
8 2974 2993 2999 2983 2992 3004 3007 2998
8 2983 2999 2987 2965 2998 3007 3001 2986
8 3000 2984 2999 3008 2988 2966 2987 3002
8 2994 2975 2993 3005 3000 2984 2999 3008
8 3002 2987 3001 3009 2990 2969 2989 3003
8 2996 2978 2995 3006 3005 2993 3004 3010
8 3005 2993 3004 3010 3008 2999 3007 3011
8 3008 2999 3007 3011 3002 2987 3001 3009

CELL_TYPES 1910
12
12
12
12
12
12
12
12
12
12
12
12
12
12
12
12
12
12
12
12
12
12
12
12
12
12
12
12
12
12
12
12
12
12
12
12
12
12
12
12
12
12
12
12
12
12
12
12
12
12
12
12
12
12
12
12
12
12
12
12
12
12
12
12
12
12
12
12
12
12
12
12
12
12
12
12
12
12
12
12
12
12
12
12
12
12
12
12
12
12
12
12
12
12
12
12
12
12
12
12
12
12
12
12
12
12
12
12
12
12
12
12
12
12
12
12
12
12
12
12
12
12
12
12
12
12
12
12
12
12
12
12
12
12
12
12
12
12
12
12
12
12
12
12
12
12
12
12
12
12
12
12
12
12
12
12
12
12
12
12
12
12
12
12
12
12
12
12
12
12
12
12
12
12
12
12
12
12
12
12
12
12
12
12
12
12
12
12
12
12
12
12
12
12
12
12
12
12
12
12
12
12
12
12
12
12
12
12
12
12
12
12
12
12
12
12
12
12
12
12
12
12
12
12
12
12
12
12
12
12
12
12
12
12
12
12
12
12
12
12
12
12
12
12
12
12
12
12
12
12
12
12
12
12
12
12
12
12
12
12
12
12
12
12
12
12
12
12
12
12
12
12
12
12
12
12
12
12
12
12
12
12
12
12
12
12
12
12
12
12
12
12
12
12
12
12
12
12
12
12
12
12
12
12
12
12
12
12
12
12
12
12
12
12
12
12
12
12
12
12
12
12
12
12
12
12
12
12
12
12
12
12
12
12
12
12
12
12
12
12
12
12
12
12
12
12
12
12
12
12
12
12
12
12
12
12
12
12
12
12
12
12
12
12
12
12
12
12
12
12
12
12
12
12
12
12
12
12
12
12
12
12
12
12
12
12
12
12
12
12
12
12
12
12
12
12
12
12
12
12
12
12
12
12
12
12
12
12
12
12
12
12
12
12
12
12
12
12
12
12
12
12
12
12
12
12
12
12
12
12
12
12
12
12
12
12
12
12
12
12
12
12
12
12
12
12
12
12
12
12
12
12
12
12
12
12
12
12
12
12
12
12
12
12
12
12
12
12
12
12
12
12
12
12
12
12
12
12
12
12
12
12
12
12
12
12
12
12
12
12
12
12
12
12
12
12
12
12
12
12
12
12
12
12
12
12
12
12
12
12
12
12
12
12
12
12
12
12
12
12
12
12
12
12
12
12
12
12
12
12
12
12
12
12
12
12
12
12
12
12
12
12
12
12
12
12
12
12
12
12
12
12
12
12
12
12
12
12
12
12
12
12
12
12
12
12
12
12
12
12
12
12
12
12
12
12
12
12
12
12
12
12
12
12
12
12
12
12
12
12
12
12
12
12
12
12
12
12
12
12
12
12
12
12
12
12
12
12
12
12
12
12
12
12
12
12
12
12
12
12
12
12
12
12
12
12
12
12
12
12
12
12
12
12
12
12
12
12
12
12
12
12
12
12
12
12
12
12
12
12
12
12
12
12
12
12
12
12
12
12
12
12
12
12
12
12
12
12
12
12
12
12
12
12
12
12
12
12
12
12
12
12
12
12
12
12
12
12
12
12
12
12
12
12
12
12
12
12
12
12
12
12
12
12
12
12
12
12
12
12
12
12
12
12
12
12
12
12
12
12
12
12
12
12
12
12
12
12
12
12
12
12
12
12
12
12
12
12
12
12
12
12
12
12
12
12
12
12
12
12
12
12
12
12
12
12
12
12
12
12
12
12
12
12
12
12
12
12
12
12
12
12
12
12
12
12
12
12
12
12
12
12
12
12
12
12
12
12
12
12
12
12
12
12
12
12
12
12
12
12
12
12
12
12
12
12
12
12
12
12
12
12
12
12
12
12
12
12
12
12
12
12
12
12
12
12
12
12
12
12
12
12
12
12
12
12
12
12
12
12
12
12
12
12
12
12
12
12
12
12
12
12
12
12
12
12
12
12
12
12
12
12
12
12
12
12
12
12
12
12
12
12
12
12
12
12
12
12
12
12
12
12
12
12
12
12
12
12
12
12
12
12
12
12
12
12
12
12
12
12
12
12
12
12
12
12
12
12
12
12
12
12
12
12
12
12
12
12
12
12
12
12
12
12
12
12
12
12
12
12
12
12
12
12
12
12
12
12
12
12
12
12
12
12
12
12
12
12
12
12
12
12
12
12
12
12
12
12
12
12
12
12
12
12
12
12
12
12
12
12
12
12
12
12
12
12
12
12
12
12
12
12
12
12
12
12
12
12
12
12
12
12
12
12
12
12
12
12
12
12
12
12
12
12
12
12
12
12
12
12
12
12
12
12
12
12
12
12
12
12
12
12
12
12
12
12
12
12
12
12
12
12
12
12
12
12
12
12
12
12
12
12
12
12
12
12
12
12
12
12
12
12
12
12
12
12
12
12
12
12
12
12
12
12
12
12
12
12
12
12
12
12
12
12
12
12
12
12
12
12
12
12
12
12
12
12
12
12
12
12
12
12
12
12
12
12
12
12
12
12
12
12
12
12
12
12
12
12
12
12
12
12
12
12
12
12
12
12
12
12
12
12
12
12
12
12
12
12
12
12
12
12
12
12
12
12
12
12
12
12
12
12
12
12
12
12
12
12
12
12
12
12
12
12
12
12
12
12
12
12
12
12
12
12
12
12
12
12
12
12
12
12
12
12
12
12
12
12
12
12
12
12
12
12
12
12
12
12
12
12
12
12
12
12
12
12
12
12
12
12
12
12
12
12
12
12
12
12
12
12
12
12
12
12
12
12
12
12
12
12
12
12
12
12
12
12
12
12
12
12
12
12
12
12
12
12
12
12
12
12
12
12
12
12
12
12
12
12
12
12
12
12
12
12
12
12
12
12
12
12
12
12
12
12
12
12
12
12
12
12
12
12
12
12
12
12
12
12
12
12
12
12
12
12
12
12
12
12
12
12
12
12
12
12
12
12
12
12
12
12
12
12
12
12
12
12
12
12
12
12
12
12
12
12
12
12
12
12
12
12
12
12
12
12
12
12
12
12
12
12
12
12
12
12
12
12
12
12
12
12
12
12
12
12
12
12
12
12
12
12
12
12
12
12
12
12
12
12
12
12
12
12
12
12
12
12
12
12
12
12
12
12
12
12
12
12
12
12
12
12
12
12
12
12
12
12
12
12
12
12
12
12
12
12
12
12
12
12
12
12
12
12
12
12
12
12
12
12
12
12
12
12
12
12
12
12
12
12
12
12
12
12
12
12
12
12
12
12
12
12
12
12
12
12
12
12
12
12
12
12
12
12
12
12
12
12
12
12
12
12
12
12
12
12
12
12
12
12
12
12
12
12
12
12
12
12
12
12
12
12
12
12
12
12
12
12
12
12
12
12
12
12
12
12
12
12
12
12
12
12
12
12
12
12
12
12
12
12
12
12
12
12
12
12
12
12
12
12
12
12
12
12
12
12
12
12
12
12
12
12
12
12
12
12
12
12
12
12
12
12
12
12
12
12
12
12
12
12
12
12
12
12
12
12
12
12
12
12
12
12
12
12
12
12
12
12
12
12
12
12
12
12
12
12
12
12
12
12
12
12
12
12
12
12
12
12
12
12
12
12
12
12
12
12
12
12
12
12
12
12
12
12
12
12
12
12
12
12
12
12
12
12
12
12
12
12
12
12
12
12
12
12
12
12
12
12
12
12
12
12
12
12
12
12
12
12
12
12
12
12
12
12
12
12
12
12
12
12
12
12
12
12
12
12
12
12
12
12
12
12
12
12
12
12
12
12
12
12
12
12
12
12
12
12
12
12
12
12
12
12
12
12
12
12
12
12
12
12
12
12
12
12
12
12
12
12
12
12
12
12
12
12
12
12
12
12
12
12
12
12
12
12
12
12
12
12
12
12
12
12
12
12
12
12
12
12
12
12
12
12
12
12
12
12
12
12
12
12
12
12
12
12
12
12
12
12
12
12
12
12
12
12
12
12
12
12
12
12
12
12
12
12
12
12
12
12
12
12
12
12
12
12
12
12
12
12
12
12
12
12
12
12
12
12
12
12
12
12
12
12
12
12
12
12
12
12
12
12
12
12
12
12
12
12
12
12
12
12
12
12
12
12
12
12
12
12
12
12
12
12
12
12
12
12
12
12
12
12
12
12
12
12
12
12
12
12
12
12
12
12
12
12
12
12
12
12
12
12
12
12
12
12
12
12
12
12
12
12
12
12
12
12
12
12
12
12
12
12
12
12
12
12
12
12
12
12
12
12
12
12
12
12
12
12
12
12
12
12
12
12
12
12
12
12
12
12
12
12
12
12
12
12
12
12
12
12
12
12
12
12
12
12
12
12
12
12
12
12
12
12

POINT_DATA 3012
SCALARS Jp_lamdaP float 4
LOOKUP_TABLE default
0.99987 1 1 0.99987
1 1 1 1
0.999874 1 1 0.999874
0.999829 1 1 0.999829
0.999868 1 1 0.999868
0.999866 1 1 0.999866
0.999367 1 1 0.999367
1 1 1 1
1 1 1 1
1 1 1 1
0.999942 1 1 0.999942
0.99953 1 1 0.99953
0.99979 1 1 0.99979
0.99982 1 1 0.99982
0.999874 1 1 0.999874
0.999843 1 1 0.999843
0.99987 1 1 0.99987
0.999876 1 1 0.999876
0.99937 1 1 0.99937
1 1 1 1
0.99981 1 1 0.99981
0.999852 1 1 0.999852
0.999239 1 1 0.999239
0.999336 1 1 0.999336
0.999887 1 1 0.999887
0.999402 1 1 0.999402
0.998612 1.00004 1 0.998571
1 1 1 1
0.999924 1 1 0.999924
0.999937 1 1 0.999937
1 1 1 1
0.999538 1 1 0.999538
0.999842 1 1 0.999842
0.999865 1 1 0.999865
0.999447 1 1 0.999447
1 1 1 1
0.999537 1 1 0.999537
0.999626 1 1 0.999626
0.998622 1 1 0.998622
1 1 1 1
1 1 1 1
0.999908 1 1 0.999908
1 1 1 1
0.999811 1 1 0.999811
0.999169 1 1 0.999169
1 1 1 1
0.999355 1 1 0.999355
0.999855 1 1 0.999855
0.999881 1 1 0.999881
0.999872 1 1 0.999872
0.999376 1 1 0.999376
0.999893 1 1 0.999893
0.999824 1 1 0.999824
0.999896 1 1 0.999896
0.999864 1 1 0.999864
0.99924 1 1 0.99924
0.999407 1 1 0.999407
0.999339 1 1 0.999339
0.998642 1.00009 1 0.998556
1 1 1 1
0.999797 1 1 0.999797
0.999326 1 1 0.999326
0.999204 1 1 0.999204
0.999288 1 1 0.999288
0.999522 1.00125 1 0.998273
0.998635 1.00023 1 0.998408
0.999939 1 1 0.999939
0.999517 1 1 0.999517
0.998676 1 1 0.998676
1.00291 1.00507 1 0.997855
1 1 1 1
1 1 1 1
1 1 1 1
0.999546 1 1 0.999546
1 1 1 1
1 1 1 1
0.999374 1 1 0.999374
0.999988 1 1 0.999988
0.999482 1 1 0.999482
0.999674 1 1 0.999674
0.998619 1 1 0.998619
1 1 1 1
0.99996 1 1 0.99996
0.999316 1 1 0.999316
0.999411 1 1 0.999411
0.999343 1.00114 1 0.998205
0.999803 1 1 0.999803
0.99852 1 1 0.99852
0.998757 1 1 0.998757
0.998253 1.00016 1 0.998093
1 1 1 1
1 1 1 1
1 1 1 1
1 1 1 1
1 1 1 1
0.999902 1 1 0.999902
0.999243 1 1 0.999243
0.999913 1 1 0.999913
0.999313 1 1 0.999313
1 1 1 1
0.999153 1 1 0.999153
0.999326 1 1 0.999326
0.999414 1.00151 1 0.997905
0.999389 1 1 0.999389
1.0005 1.00251 1 0.997994
0.999808 1 1 0.999808
0.999837 1 1 0.999837
0.999905 1 1 0.999905
0.999874 1 1 0.999874
0.999241 1 1 0.999241
0.999343 1 1 0.999343
0.999412 1 1 0.999412
0.998674 1.00013 1 0.998541
1 1 1 1
0.999811 1 1 0.999811
0.999179 1 1 0.999179
0.999203 1 1 0.999203
0.999969 1 1 0.999969
0.999568 1 1 0.999568
0.99929 1 1 0.99929
0.999502 1.00127 1 0.998234
0.998658 1 1 0.998658
0.998736 1.0003 1 0.998436
1.00332 1.00547 1 0.997859
0.999175 1 1 0.999175
0.99918 1 1 0.99918
0.999104 1.00104 1 0.998063
0.999576 1.00142 1 0.998158
0.999206 1.00092 1 0.998291
1.00908 1.01146 1 0.997643
1 1 1 1
1.0046 1.00683 1 0.997783
0.999735 1 1 0.999735
0.998719 1 1 0.998719
1.00178 1.00386 1 0.997926
1.01247 1.0149 1 0.997612
0.999888 1 1 0.999888
0.999377 1 1.00015 0.999232
1 1 1 1
1 1 1 1
0.999381 1 1 0.999381
1 1 1 1
0.999676 1 1 0.999676
0.999486 1 1 0.999486
0.998616 1 1 0.998616
1 1 1 1
0.999971 1 1 0.999971
0.999369 1 1 0.999369
0.999461 1 1 0.999461
0.999092 1.00089 1 0.998207
0.999819 1 1 0.999819
0.998523 1 1 0.998523
0.998756 1 1 0.998756
0.998391 1.00031 1 0.998077
0.999898 1 1 0.999898
0.999993 1 1 0.999993
0.99941 1 1 0.99941
1.00006 1.00197 1 0.998093
0.998701 1.00033 1 0.998366
1.00643 1.0088 1 0.99765
0.998965 1 1 0.998965
1.00038 1.0024 1 0.997981
0.998906 1.00015 1.00057 0.998187
1.00004 1.00213 1 0.997917
1 1 1 1
1 1 1 1
1 1 1 1
0.999933 1 1 0.999933
1 1 1 1
1 1 1 1
1 1 1 1
0.999269 1 1 0.999269
0.999194 1 1 0.999194
1 1 1 1
1 1 1 1
0.999155 1 1 0.999155
0.999284 1 1 0.999284
0.999614 1.00171 1 0.997905
0.999297 1 1 0.999297
1.00049 1.0025 1 0.997994
0.999146 1 1 0.999146
0.998853 1.001 1 0.997854
1.00005 1.0021 1 0.997959
1.01226 1.01486 1 0.997436
1.00045 1.00243 1 0.99803
1.01248 1.01501 1 0.997512
1 1 1 1
0.999825 1 1 0.999825
0.99902 1 1 0.99902
0.999203 1 1 0.999203
1 1 1 1
0.99962 1 1 0.99962
0.999294 1 1 0.999294
0.99948 1.00129 1 0.998195
0.998834 1.00037 1 0.998464
0.998639 1 1 0.998639
1.00372 1.00587 1 0.997863
0.999173 1 1 0.999173
0.999179 1 1 0.999179
0.998975 1.001 1 0.997974
0.999612 1.00143 1 0.998186
1 1 1 1
0.999729 1 1 0.999729
0.998767 1 1 0.998767
0.999184 1.0009 1 0.99829
1.009 1.01143 1 0.997605
1.00184 1.00393 1 0.997915
1.00501 1.00722 1 0.997812
1.01199 1.0144 1 0.997618
0.999878 1 1 0.999878
0.999393 1 1.00016 0.999233
0.998652 1.00078 1 0.997875
0.99946 1.00135 1 0.998115
1.01021 1.0127 1 0.997534
1.00961 1.01212 1 0.997525
1.00654 1.00883 1 0.997737
1.02023 1.02277 1 0.997512
0.999823 1 1 0.999823
1.01441 1.01686 1 0.997593
0.998886 1 1.00001 0.998878
0.999276 1.00122 1 0.998059
1.01021 1.01257 1 0.99766
1.01634 1.01877 1 0.997612
0.999171 1 1.00008 0.999096
0.99941 1 1 0.99941
0.999692 1 1.00099 0.998703
0.999334 1 1 0.999334
1 1 1 1
0.999983 1 1 0.999983
0.999438 1 1 0.999438
0.99882 1.00061 1 0.99821
0.999829 1 1 0.999829
0.998781 1 1.00003 0.998755
0.998527 1 1 0.998527
0.998552 1.00049 1 0.998061
0.999915 1 1 0.999915
0.999995 1 1 0.999995
0.99942 1 1.00001 0.999413
0.999837 1.00175 1 0.998093
0.998577 1.00021 1 0.998371
1.00603 1.0084 1 0.997648
0.99898 1 1.00001 0.998968
0.999891 1.0019 1 0.997992
0.998964 1.00031 1.00047 0.998182
1.00014 1.00224 1 0.997903
1 1 1 1
0.99918 1 1 0.99918
0.999633 1 1 0.999633
0.999453 1 1.00057 0.998879
1.00906 1.01153 1 0.997562
1.0037 1.0059 1 0.997821
1.01534 1.01793 1 0.997453
0.998861 1 1.00044 0.998425
1.00422 1.00643 1 0.997802
1.00161 1.00216 1.00158 0.997877
1.00586 1.00811 1 0.997773
0.999874 1 1 0.999874
1 1 1 1
1 1 1 1
1 1 1 1
1 1 1 1
0.999967 1 1 0.999967
1 1 1 1
0.999923 1 1 0.999923
1 1 1 1
0.999298 1 1 0.999298
0.999236 1 1 0.999236
1.00055 1.00256 1 0.997994
0.999804 1.0019 1 0.997905
0.999157 1 1 0.999157
1 1 1 1
0.999145 1 1 0.999145
0.998994 1.00114 1 0.997855
1.00022 1.00226 1 0.997959
1.01212 1.01473 1 0.997435
1.00038 1.00235 1 0.998029
1.01248 1.015 1 0.997511
0.998559 1.00071 1 0.997846
1.01135 1.01399 1 0.99739
1.01281 1.01536 1 0.997481
1.026 1.02862 1 0.997445
1.0115 1.014 1 0.99753
1.02466 1.02726 1 0.99747
0.99917 1 1 0.99917
0.999177 1 1 0.999177
0.998853 1.00097 1 0.997886
0.999649 1.00144 1 0.998214
1 1 1 1
0.999723 1 1 0.999723
0.998815 1 1 0.998815
0.999162 1.00087 1 0.99829
1.00893 1.01139 1 0.997566
1.00542 1.0076 1 0.997841
1.00188 1.00398 1 0.997904
1.01159 1.014 1 0.997624
0.999869 1 1 0.999869
0.99948 1 1.00025 0.999235
0.998597 1.00075 1 0.99785
0.999424 1.00131 1 0.998113
1.01043 1.01293 1 0.99753
1.00978 1.01224 1 0.997563
0.999813 1 1 0.999813
0.998875 1 1 0.998875
0.999575 1.00149 1 0.998093
1.00678 1.00907 1 0.997735
1.02056 1.0231 1 0.997521
1.00953 1.01193 1 0.997626
1.01426 1.01671 1 0.997596
1.01665 1.01908 1 0.997612
0.999171 1 1.00007 0.999098
0.999761 1 1.00106 0.998705
0.99953 1 1.00012 0.999407
1.01046 1.01302 1 0.997478
1.01065 1.01313 1 0.997558
1.02407 1.02671 1 0.997436
1.02253 1.02513 1 0.997463
1.01651 1.01899 1 0.997569
1.02291 1.02532 1 0.99765
0.999007 1 1 0.999007
1.01833 1.02074 1 0.99764
0.998539 1.00017 1 0.998367
1.00265 1.00499 1 0.997671
1.01365 1.01619 1 0.997494
1.01629 1.01858 1 0.997752
0.999561 1 1 0.999561
0.998679 1 1 0.998679
1.00018 1 1.00139 0.998789
0.999348 1 1.00081 0.998535
0.999628 1.00154 1 0.998093
0.999998 1 1 0.999998
0.999933 1 1 0.999933
0.999451 1 1.00004 0.999415
0.998465 1.00009 1 0.998376
1.00563 1.008 1 0.997646
0.99897 1 1 0.99897
0.998969 1.00046 1.00033 0.998178
0.999372 1.00137 1 0.998002
1.00015 1.00227 1 0.997889
1 1 1 1
0.999198 1 1.00002 0.99918
0.99964 1 1 0.99964
0.999493 1 1.00062 0.998875
1.00885 1.01132 1 0.997558
1.00276 1.00495 1 0.997822
1.01541 1.01801 1 0.997451
0.998879 1 1.00045 0.998429
1.00403 1.00623 1 0.997816
1.00173 1.00214 1.00173 0.997865
1.00583 1.008 1 0.99784
1 1 1 1
0.999769 1 1 0.999769
0.998806 1 1.00013 0.998675
0.999587 1 1.00049 0.999101
0.999677 1 1.00107 0.998605
1.01867 1.0213 1 0.997422
1.00992 1.01234 1 0.997609
1.01579 1.01838 1 0.997461
1.0004 1.00035 1.00199 0.998068
1.00701 1.00931 1 0.99773
1.00459 1.00615 1.00086 0.997598
0.999857 1 1 0.999857
0.999499 1 1 0.999499
0.999884 1 1 0.999884
0.999876 1 1 0.999876
1 1 1 1
1 1 1 1
1 1 1 1
1 1 1 1
1 1 1 1
0.99999 1 1 0.99999
1 1 1 1
0.999958 1 1 0.999958
1 1 1 1
0.999913 1 1 0.999913
1 1 1 1
1.00028 1.00226 1 0.998028
1.00033 1.00237 1 0.997958
1.01235 1.01488 1 0.99751
1.01196 1.01456 1 0.997434
0.999169 1.00132 1 0.997855
0.999144 1 1 0.999144
0.998636 1.00079 1 0.997846
1.01132 1.01397 1 0.99739
1.01253 1.01508 1 0.99748
1.02624 1.02886 1 0.997455
1.01117 1.01367 1 0.997528
1.02414 1.02674 1 0.997469
1.01086 1.01351 1 0.99738
1.02521 1.02785 1 0.997432
1.02627 1.02888 1 0.997461
1.03083 1.03336 0.999962 0.997589
1.02101 1.02362 1 0.997452
1.02546 1.02784 1 0.997679
0.998562 1.00074 1 0.997825
0.999391 1.00128 1 0.99811
1.01063 1.01314 1 0.997525
1.00993 1.01236 1 0.9976
0.999803 1 1 0.999803
0.998872 1 1 0.998872
0.999878 1.00176 1 0.998126
1.00704 1.00933 1 0.997733
1.02091 1.02344 1 0.997529
1.01413 1.01657 1 0.997599
1.00876 1.01119 1 0.997592
1.01693 1.01937 1 0.997612
0.999101 1 1 0.999101
0.999769 1 1.00106 0.998706
0.999648 1 1.00024 0.999404
1.01059 1.01318 1 0.997442
1.01072 1.0132 1 0.997557
1.02373 1.02635 1 0.997447
1.02281 1.02541 1 0.997466
0.99901 1 1 0.999006
0.998792 1.00043 1 0.998361
1.00242 1.00468 1.00003 0.997721
1.01666 1.01914 1 0.997569
1.02229 1.02467 1 0.997682
1.01371 1.01629 1 0.997463
1.01837 1.02077 1 0.997643
1.01577 1.01803 1 0.997775
0.998723 1 1.00004 0.998682
0.999335 1 1.00082 0.998517
0.999557 1 1 0.999557
1.00019 1 1.00138 0.998814
1.02408 1.02675 1 0.9974
1.02464 1.02724 1 0.997469
1.0273 1.02986 1 0.997515
1.02482 1.02729 0.999935 0.997662
1.02028 1.02265 1 0.997682
1.02169 1.02392 1 0.997824
0.998589 1 1 0.998589
1.01631 1.01847 1 0.997877
0.998519 1.00051 1 0.998011
1.00695 1.00936 1.00018 0.997435
1.01558 1.0182 1 0.997426
1.01478 1.01701 1 0.997809
0.99966 1 1 0.99966
0.999255 1 1.00029 0.998964
0.998507 1 1 0.998507
1.00045 1 1.00188 0.998572
0.998899 1 1.00041 0.998487
1 1 1 1
1.00858 1.01105 1 0.997555
0.999647 1 1 0.999647
0.999195 1 1.00001 0.99918
0.999636 1 1.00077 0.998871
1.00187 1.00405 1 0.997824
1.01554 1.01814 1 0.997449
0.998939 1 1.00051 0.998434
1.00205 1.00227 1.00193 0.997854
1.00397 1.00616 1 0.99783
1.00596 1.00807 1 0.997906
1 1 1 1
0.999775 1 1 0.999775
0.998856 1 1.00018 0.998677
0.999591 1 1.00049 0.999101
1.00004 1 1.00146 0.998583
1.0189 1.02154 1 0.997417
1.0101 1.01252 1 0.997609
1.01577 1.01836 1 0.997451
1.00041 1.00021 1.00213 0.998073
1.00913 1.01141 1 0.997742
1.00382 1.00526 1.00096 0.997617
0.999829 1 1 0.999829
0.999296 1 1 0.999296
0.998845 1 1.00048 0.998369
1.00046 1 1.00168 0.998777
0.999719 1 1.00126 0.998463
1.01925 1.02181 1 0.997492
1.01139 1.01386 1 0.99757
1.01414 1.01656 1 0.997623
1.00161 1 1.00379 0.997831
1.00517 1.00771 1 0.997475
0.99986 1 1 0.99986
0.999433 1 1 0.999433
0.999478 1 1 0.999478
0.999274 1 1 0.999274
0.999507 1 1 0.999507
0.999888 1 1 0.999888
0.999886 1 1 0.999886
1 1 1 1
0.999878 1 1 0.999878
1 1 1 1
1 1 1 1
1 1 1 1
1 1 1 1
1 1 1 1
0.999999 1 1 0.999999
0.999984 1 1 0.999984
1 1 1 1
1 1 1 1
0.999949 1 1 0.999949
1 1 1 1
1.01091 1.01342 1 0.997525
1.01237 1.01493 1 0.997479
1.0237 1.0263 1 0.997468
1.02654 1.02915 1 0.997465
1.01127 1.01392 1 0.99739
0.998677 1.00083 1 0.997846
1.01076 1.01342 1 0.99738
1.02513 1.02777 1 0.997425
1.0262 1.02882 1 0.997461
1.02988 1.03263 0.999723 0.997615
1.02148 1.02409 1 0.997447
1.02576 1.02813 1 0.997696
1.02438 1.02705 1 0.997399
1.02882 1.03184 0.999521 0.99755
1.02857 1.03096 1 0.997679
1.02895 1.03226 0.999067 0.99773
1.02298 1.02544 1 0.997606
1.02618 1.02853 0.999852 0.997863
1.0107 1.01333 1 0.997407
1.01078 1.01326 1 0.997555
1.0234 1.026 1 0.997458
1.02309 1.02569 1 0.997469
0.999005 1 1 0.999005
0.999073 1.00072 1 0.998354
1.00241 1.00447 1.00018 0.997771
1.01682 1.0193 1 0.99757
1.02164 1.02398 1 0.997715
1.01839 1.02079 1 0.997646
1.01382 1.01643 1 0.997432
1.01519 1.01743 1 0.997798
0.998799 1 1.00012 0.998684
0.999287 1 1.00079 0.998499
0.999552 1 1 0.999552
1.00007 1 1.00123 0.998839
1.024 1.02667 1 0.9974
1.02421 1.02683 1 0.997455
1.02722 1.02976 1 0.997535
1.02446 1.0269 0.999977 0.997647
0.998583 1 1 0.998583
0.998699 1.00061 1.00003 0.998056
1.00715 1.00936 1.00039 0.997427
1.02001 1.0224 1 0.997654
1.0217 1.02388 1 0.997873
1.015 1.01763 1 0.997414
1.01644 1.0186 1 0.997879
1.01611 1.0183 1 0.99785
0.998505 1 1 0.998505
0.998678 1 1.00019 0.998489
1.00091 1 1.00235 0.998566
0.999627 1 1 0.999627
0.999138 1 1.00015 0.998987
1.0279 1.03097 0.999491 0.99753
1.02807 1.03067 0.999893 0.997586
1.02275 1.02565 0.999325 0.99785
1.01903 1.02118 1 0.997901
0.998371 1 1 0.998371
1.01895 1.02097 1 0.998026
0.998184 1.00011 1.00029 0.99779
1.00877 1.01109 1.00051 0.997202
1.01454 1.01719 1 0.997394
0.999687 1 1 0.999687
0.999184 1 1 0.999184
0.999628 1 1.00088 0.998748
0.998464 1 1 0.998464
1.00131 1 1.00292 0.998397
0.998426 1 1 0.998426
1 1 1 1
0.999782 1 1 0.999782
1.01918 1.02182 1 0.997412
0.999558 1 1.00046 0.999102
0.998842 1 1.00016 0.998678
1.00051 1 1.00195 0.998561
1.01007 1.01249 1 0.997608
1.01559 1.0182 1 0.997442
1.00036 1 1.00229 0.998077
1.00262 1.00421 1.00077 0.997637
1.01099 1.01326 1 0.997754
0.999833 1 1 0.999833
0.9993 1 1 0.9993
0.998788 1 1.00041 0.998375
1.00078 1 1.00201 0.998774
0.999855 1 1.0014 0.998454
1.01922 1.02179 1 0.997486
1.01192 1.01439 1 0.997561
1.01399 1.01638 1 0.997647
1.00105 1.00001 1.00324 0.997803
1.00425 1.00677 1.00006 0.997444
0.999412 1 1 0.999412
0.999706 1 1.00078 0.998929
1.00019 1 1.002 0.998202
1.00119 1 1.00269 0.99851
0.99934 1 1.001 0.998347
1.02036 1.02254 1 0.997875
1.01024 1.01279 1 0.997484
1.01146 1.01382 1 0.997672
1.00344 1.00147 1.00433 0.997639
1.00068 1.00345 1 0.997244
0.999863 1 1 0.999863
0.99945 1 1 0.99945
0.999185 1 1 0.999185
0.999458 1 1 0.999458
0.999507 1 1 0.999507
0.999244 1 1 0.999244
0.9991 1 1 0.9991
0.99922 1 1 0.99922
0.999511 1 1 0.999511
0.999885 1 1 0.999885
0.999888 1 1 0.999888
1 1 1 1
0.999887 1 1 0.999887
1 1 1 1
1 1 1 1
1 1 1 1
1 1 1 1
1 1 1 1
1 1 1 1
0.999997 1 1 0.999997
1 1 1 1
0.999978 1 1 0.999978
1 1 1 1
1 1 1 1
1.02188 1.0245 1 0.997442
1.02606 1.02867 1 0.997461
1.02606 1.02842 0.999993 0.997712
1.02892 1.03191 0.999462 0.997641
1.02503 1.02768 1 0.997418
1.0107 1.01336 1 0.997381
1.02462 1.02731 1 0.997385
1.02916 1.03201 0.999697 0.997542
1.02826 1.03067 1 0.997658
1.0285 1.03203 0.998831 0.997744
1.02236 1.02481 1 0.997606
1.02555 1.02785 0.999863 0.997901
1.02847 1.03109 0.999943 0.997513
1.0292 1.03413 0.997506 0.99772
1.02763 1.031 0.998882 0.99785
1.02362 1.02575 0.999956 0.99796
1.0239 1.02657 1 0.997401
1.02379 1.02642 1 0.997442
1.02713 1.02965 1 0.997554
1.02413 1.02656 1 0.997632
0.998578 1 1 0.998578
0.998616 1.00052 1 0.9981
1.00725 1.00927 1.00058 0.99742
1.01969 1.02212 1 0.997626
1.02173 1.02385 1 0.997922
1.01661 1.01877 1 0.997881
1.01449 1.01714 1 0.997402
1.01733 1.01948 1 0.997891
0.998504 1 1 0.998504
0.998492 1 1 0.998492
1.00172 1 1.00317 0.99856
0.999594 1 1 0.999594
0.999085 1 1.00007 0.99901
1.02815 1.03097 0.999725 0.997533
1.02831 1.03086 0.999937 0.997588
1.02262 1.0254 0.999453 0.99784
0.998394 1.00003 1 0.998365
0.999226 1.00114 1.00026 0.997832
1.00834 1.01041 1.00076 0.997191
1.01962 1.02177 1 0.99789
1.0142 1.01678 1 0.997464
1.01768 1.01974 0.999975 0.998007
0.999699 1 1 0.999699
0.998458 1 1 0.998458
0.998489 1 1 0.998489
1.00116 1 1.00279 0.998383
0.999555 1 1.0008 0.998758
0.999158 1 1 0.999158
1.02872 1.0326 0.998629 0.997611
1.02674 1.03205 0.997093 0.99776
1.02013 1.02422 0.998071 0.997938
1.02402 1.02661 0.999395 0.998083
0.998326 1.0001 1 0.998228
1.01548 1.0178 1 0.997722
1.00112 1.00211 1.00165 0.997379
1.00578 1.0077 1.00104 0.997058
0.999789 1 1 0.999789
0.999318 1 1 0.999318
0.998908 1 1 0.998908
1.0015 1 1.00303 0.998473
0.998371 1 1 0.998371
0.999889 1 1.00161 0.998286
0.999837 1 1 0.999837
0.999303 1 1 0.999303
1.01934 1.02191 1 0.997481
1.00083 1 1.00206 0.998771
0.99865 1 1.00027 0.998381
0.999899 1 1.00145 0.998446
1.01268 1.01517 1 0.997552
1.01407 1.01644 1 0.997672
1.00055 1.00005 1.00273 0.997775
1.00348 1.00581 1.00027 0.997414
0.999414 1 1 0.999414
0.999393 1 1.00046 0.998938
1.0002 1 1.00198 0.998219
1.00146 1 1.00295 0.998514
0.998883 1 1.00048 0.998408
1.0206 1.02274 1 0.997906
1.00973 1.01227 1 0.997488
1.01274 1.01503 1 0.997747
1.00304 1.00086 1.00458 0.997606
1.00145 1.00423 1.00003 0.997199
0.999117 1 1 0.999117
1.00021 1 1.0016 0.998617
1.00193 1.0001 1.00378 0.998054
0.999785 1 1.00155 0.998234
1.02337 1.03013 0.995333 0.998105
1.01643 1.01861 0.999872 0.997985
1.00606 1.00879 1 0.997293
1.00317 1.00167 1.00426 0.997256
0.999466 1 1 0.999466
0.999198 1 1 0.999198
0.999053 1 1 0.999053
0.999507 1 1 0.999507
0.999214 1 1 0.999214
0.999511 1 1 0.999511
0.999082 1 1 0.999082
0.999232 1 1 0.999232
0.998982 1 1 0.998982
0.999055 1 1 0.999055
0.999207 1 1 0.999207
0.9995 1 1 0.9995
0.999879 1 1 0.999879
0.999884 1 1 0.999884
1 1 1 1
0.999888 1 1 0.999888
1 1 1 1
1 1 1 1
1 1 1 1
1 1 1 1
1 1 1 1
1 1 1 1
1 1 1 1
1 1 1 1
0.999995 1 1 0.999995
1 1 1 1
1 1 1 1
1.02169 1.02414 1 0.997606
1.02794 1.03038 1 0.997638
1.02494 1.02717 0.999882 0.997939
1.02804 1.03177 0.99863 0.997759
1.0295 1.03215 0.99989 0.997533
1.02488 1.02758 1 0.997371
1.02823 1.03109 0.999715 0.997518
1.02843 1.03314 0.99772 0.997711
1.02739 1.03091 0.998733 0.99785
1.02507 1.0272 0.999964 0.997962
1.02879 1.03343 0.997844 0.997661
1.02873 1.03574 0.995335 0.99789
1.02858 1.03285 0.99787 0.99799
1.0284 1.03098 0.999958 0.997536
1.02853 1.03101 1 0.997591
1.02246 1.0251 0.999595 0.99783
0.998476 1.00012 1 0.998358
1.00028 1.00224 1.00018 0.997873
1.00769 1.00969 1.00085 0.99718
1.02018 1.02235 1 0.997879
1.01658 1.01866 0.999974 0.997988
1.01417 1.01668 1 0.997533
0.998451 1 1 0.998451
0.998552 1 1 0.998552
1.00089 1 1.00252 0.99837
0.999711 1 1 0.999711
0.999268 1 1.0005 0.998768
0.999132 1 1 0.999132
1.02944 1.033 0.998938 0.997618
1.02732 1.03226 0.997447 0.997768
1.02032 1.02405 0.998428 0.997929
0.998577 1.00036 1 0.998217
1.00104 1.00219 1.0014 0.997465
1.00505 1.00707 1.0009 0.997094
1.02389 1.02633 0.999528 0.998093
1.01616 1.0185 0.999987 0.997711
0.999826 1 1 0.999826
0.999318 1 1 0.999318
0.998394 1 1 0.998394
1.0006 1 1.00225 0.998355
1.00144 1 1.00295 0.99849
0.998886 1 1 0.998886
1.02872 1.03498 0.996141 0.997808
1.01995 1.02909 0.993204 0.997901
1.02114 1.026 0.997131 0.998125
1.01948 1.02229 0.999134 0.99812
0.999301 1.00042 1.00088 0.998002
1.00503 1.00646 1.0014 0.99718
1.00309 1.00327 1.00264 0.997184
0.999911 1 1 0.999911
0.999565 1 1 0.999565
0.999381 1 1 0.999381
0.99899 1 1 0.99899
0.999472 1 1.00083 0.998646
1.00103 1 1.00268 0.998362
0.998421 1 1 0.998421
1.01146 1 1.01298 0.998494
0.999416 1 1 0.999416
0.999221 1 1.00027 0.998947
1.02071 1.02282 1 0.997936
1.00199 1 1.00348 0.998518
1.00039 1 1.00215 0.998237
0.998504 1 1.00004 0.998468
1.00898 1.01151 1 0.997491
1.01389 1.01611 1 0.997821
1.0028 1.00042 1.00482 0.997575
1.00234 1.0052 1 0.997154
0.9991 1 1 0.9991
1.00053 1 1.0019 0.99863
1.0023 1.00007 1.00415 0.998078
0.99961 1 1.00135 0.998262
1.02476 1.03112 0.995712 0.998116
1.01616 1.0183 0.999949 0.997951
1.00699 1.00968 1 0.997332
1.0031 1.00212 1.00377 0.997216
0.999049 1 1.00013 0.998918
1.02214 1.03189 0.99243 0.998111
1.00094 1 1.00256 0.998383
1.00081 1.00032 1.00268 0.997823
1.02223 1.02557 0.998532 0.998206
1.00697 1.00958 1 0.997417
1.0045 1.00419 1.00323 0.997083
0.99921 1 1 0.99921
0.99905 1 1 0.99905
0.998941 1 1 0.998941
0.99951 1 1 0.99951
0.999244 1 1 0.999244
0.999064 1 1 0.999064
0.999498 1 1 0.999498
0.99921 1 1 0.99921
0.998967 1 1 0.998967
0.999076 1 1 0.999076
0.998896 1 1 0.998896
0.998943 1 1 0.998943
0.99905 1 1 0.99905
0.999196 1 1 0.999196
0.999474 1 1 0.999474
0.99987 1 1 0.99987
0.999878 1 1 0.999878
1 1 1 1
0.999883 1 1 0.999883
1 1 1 1
1 1 1 1
1 1 1 1
1 1 1 1
1 1 1 1
0.999938 1 1 0.999938
1 1 1 1
1 1 1 1
1 1 1 1
1 1 1 1
1 1 1 1
1 1 1 1
1.02654 1.02866 0.999978 0.997965
1.02716 1.03083 0.998591 0.99785
1.02767 1.03219 0.997915 0.997702
1.02802 1.03109 0.999494 0.997524
1.02845 1.03333 0.997595 0.99768
1.02904 1.0358 0.995581 0.997879
1.02806 1.03266 0.997543 0.998002
1.02856 1.03652 0.994446 0.997863
1.03172 1.03957 0.994435 0.998007
1.01603 1.02956 0.988621 0.99822
1.0302 1.03344 0.999238 0.997624
1.02796 1.03256 0.997769 0.997776
1.02045 1.02388 0.998729 0.997921
0.998936 1.00067 1.00006 0.998206
1.00098 1.00217 1.00126 0.99755
1.00432 1.00643 1.00078 0.99713
1.02382 1.02616 0.999613 0.998103
1.01627 1.01867 0.999951 0.997699
0.998417 1 1 0.998417
1.00136 1 1.00294 0.998424
1.00176 1 1.00325 0.998507
0.999863 1 1 0.999863
0.999317 1 1 0.999317
0.998919 1 1.00006 0.998863
1.02839 1.03505 0.995733 0.99782
0.999907 1 1 0.999907
0.999544 1 1 0.999544
1.01978 1.0283 0.993802 0.9979
1.02171 1.02674 0.997004 0.998094
0.999138 1.00022 1.00084 0.99808
1.00336 1.00291 1.0033 0.997159
1.00563 1.00763 1.00084 0.997182
1.01836 1.02127 0.999048 0.998104
0.999439 1 1 0.999439
0.998987 1 1 0.998987
0.998357 1 1 0.998357
1.00792 1 1.00934 0.998597
1.00098 1 1.00263 0.998354
0.999651 1 1.00099 0.998658
1.03135 1.03897 0.994693 0.997968
1.01115 1.0267 0.986784 0.998039
1.0188 1.02499 0.995642 0.998309
1.00569 1.00909 0.998788 0.997831
1.00042 1 1.00234 0.99808
1.00432 1.00183 1.00547 0.997029
0.999559 1 1 0.999559
0.999513 1 1 0.999513
0.999294 1 1 0.999294
0.999016 1 1 0.999016
0.998821 1 1.00002 0.998797
0.999673 1 1.00126 0.998419
1.01725 1 1.01897 0.998318
1.00034 1 1.00171 0.998632
0.999083 1 1 0.999083
1.00054 1 1.0019 0.998642
1.02601 1.0319 0.996154 0.998128
1.01605 1.01817 1 0.997917
0.999378 1 1.00109 0.998289
1.0025 1 1.00441 0.998101
1.00817 1.01079 1.00004 0.997371
1.00295 1.00243 1.00335 0.997176
0.999099 1 1.00019 0.99891
1.02317 1.0338 0.991558 0.998141
1.00075 1 1.00235 0.9984
1.00063 1.00015 1.00269 0.997795
1.02102 1.02468 0.998247 0.998179
1.00733 1.00989 1 0.997465
1.00436 1.00379 1.00348 0.997096
1.00012 1 1.00148 0.998646
1.01665 1.02825 0.99022 0.998476
1.00014 1.00023 1.00173 0.998183
1.00229 1.00097 1.00379 0.997534
1.01047 1.01564 0.997047 0.997859
1.00194 1.00253 1.00221 0.997209
1.00326 1.00746 0.997321 0.998512
0.999047 1 1 0.999047
0.999008 1 1.00007 0.998938
0.998924 1 1.0001 0.998821
0.999497 1 1 0.999497
0.999212 1 1 0.999212
0.999098 1 1 0.999098
0.998951 1 1 0.998951
0.999473 1 1 0.999473
0.999186 1 1 0.999186
0.998877 1 1 0.998877
0.999049 1 1 0.999049
0.998956 1 1 0.998956
0.998865 1 1 0.998865
0.998927 1 1 0.998927
0.999042 1 1 0.999042
0.999129 1 1 0.999129
0.999406 1 1 0.999406
0.999241 1 1 0.999241
0.999401 1 1 0.999401
0.999863 1 1 0.999863
0.999869 1 1 0.999869
1 1 1 1
0.999876 1 1 0.999876
1 1 1 1
1 1 1 1
1 1 1 1
1 1 1 1
1 1 1 1
0.999954 1 1 0.999954
0.999935 1 1 0.999935
1 1 1 1
1 1 1 1
1 1 1 1
1 1 1 1
1 1 1 1
1 1 1 1
1.02759 1.03255 0.99717 0.998015
1.02935 1.03588 0.995814 0.997868
1.02811 1.03323 0.997345 0.997699
1.0284 1.03633 0.994479 0.997861
1.03015 1.03788 0.994534 0.998004
1.01666 1.02918 0.989632 0.998193
1.02929 1.03961 0.991987 0.998071
0.996263 1.01596 0.982872 0.997703
1.0098 1.026 0.985492 0.998692
0.999637 1 1 0.999637
1.028 1.03506 0.995341 0.997833
1.01993 1.02762 0.994611 0.9979
1.02234 1.02741 0.996993 0.998062
0.998983 1.00001 1.00082 0.998159
1.00366 1.00252 1.00402 0.997133
1.00654 1.00892 1.00045 0.997184
1.01733 1.0202 0.999103 0.998088
0.998295 1 1 0.998295
1.00438 1 1.00568 0.998702
1.00075 1 1.00241 0.998345
0.999903 1 1 0.999903
0.999696 1 1.00103 0.99867
0.999497 1 1 0.999497
0.998984 1 1 0.998984
0.999524 1 1 0.999524
1.03026 1.0395 0.993124 0.997975
0.999587 1 1 0.999587
0.999512 1 1 0.999512
0.999255 1 1 0.999255
1.01213 1.02629 0.988143 0.998041
1.01864 1.02475 0.99577 0.998261
0.999773 1.00003 1.00165 0.998099
1.00431 1.0017 1.00555 0.997072
1.00487 1.00791 0.999158 0.997828
0.999048 1 1 0.999048
0.99892 1 1.00015 0.998771
1.00303 1 1.00448 0.998563
1.01391 1 1.01558 0.998356
0.999465 1 1.00102 0.998444
1.01993 1.0322 0.990045 0.998056
1.01166 1.02969 0.984303 0.998156
1.01137 1.01598 0.997434 0.998025
1.00268 1.00396 1.00107 0.997655
1.00304 1 1.00485 0.998195
0.999233 1 1 0.999233
0.999132 1 1 0.999132
0.999019 1 1 0.999019
0.998981 1 1.00017 0.998816
0.999337 1 1.00073 0.998607
1.01244 1 1.01411 0.998352
1.01455 1 1.01628 0.998293
0.999156 1 1.00025 0.998902
1.00059 1 1.00217 0.998416
1.02397 1.03589 0.9903 0.99817
1.01974 1.02381 0.99787 0.998152
1.0073 1.00981 1 0.997514
1.00044 1 1.00268 0.997768
1.00396 1.00326 1.0036 0.997109
1.00008 1 1.0014 0.998682
1.01491 1.02776 0.988998 0.998489
0.999624 1.00011 1.00131 0.998211
1.00211 1.0005 1.00408 0.997546
1.01144 1.01618 0.997385 0.997939
1.00207 1.00219 1.00269 0.997195
1.0024 1.00762 0.996801 0.998015
1.00023 1 1.00172 0.998518
1.00582 1.01762 0.989919 0.998472
1.00013 1 1.00194 0.998188
1.00413 1.00025 1.00636 0.997542
1.00155 1.00548 0.998477 0.997614
0.952099 0.980448 0.984687 0.986187
0.972443 0.986343 0.992535 0.993323
0.982499 0.99836 0.985522 0.99857
0.852759 0.900159 0.964686 0.982021
0.81149 0.897225 0.924018 0.978817
0.998997 1 1.00006 0.998936
0.99913 1 1.00029 0.998838
0.998847 1 1 0.998847
0.999472 1 1 0.999472
0.999176 1 1 0.999176
0.999049 1 1 0.999049
0.99897 1 1 0.99897
0.998859 1 1 0.998859
0.999022 1 1 0.999022
0.999429 1 1 0.999429
0.999143 1 1 0.999143
0.998866 1 1 0.998866
0.998931 1 1 0.998931
0.998938 1 1 0.998938
0.998908 1 1 0.998908
0.998964 1 1 0.998964
0.999099 1 1 0.999099
0.999393 1 1 0.999393
0.999165 1 1 0.999165
0.999078 1 1 0.999078
0.999223 1 1 0.999223
0.999212 1 1 0.999212
0.999464 1 1 0.999464
0.999399 1 1 0.999399
0.999858 1 1 0.999858
0.999862 1 1 0.999862
1 1 1 1
0.999868 1 1 0.999868
1 1 1 1
1 1 1 1
1 1 1 1
1 1 1 1
1 1 1 1
0.999962 1 1 0.999962
0.999951 1 1 0.999951
1 1 1 1
0.999932 1 1 0.999932
1 1 1 1
1 1 1 1
1 1 1 1
1 1 1 1
1 1 1 1
1.02855 1.03614 0.99466 0.998001
1.02821 1.0361 0.994508 0.99786
1.01738 1.02866 0.990845 0.998166
0.998648 1.01572 0.985412 0.997748
1.02748 1.03785 0.991924 0.998069
1.01471 1.02809 0.988362 0.99861
1.02583 1.03247 0.99543 0.998125
0.960509 0.984709 0.982787 0.992508
1.00544 1.01935 0.988183 0.998148
0.999644 1 1 0.999644
0.999636 1 1 0.999636
0.999322 1 1 0.999322
0.999351 1 1 0.999351
1.02888 1.03987 0.991426 0.997983
1.01233 1.02541 0.989181 0.998044
1.01831 1.02444 0.995799 0.998214
0.998976 1.00009 1.00077 0.998119
1.00409 1.00163 1.00536 0.997114
1.00401 1.00695 0.999256 0.997825
1.00557 1 1.00709 0.998492
1.0106 1 1.01222 0.998393
0.99926 1 1.00079 0.998469
0.999511 1 1 0.999511
0.99892 1 1.00018 0.998744
0.99908 1 1 0.99908
0.999616 1 1 0.999616
0.999216 1 1 0.999216
1.01808 1.03144 0.988953 0.99807
0.999276 1 1 0.999276
0.999165 1 1 0.999165
0.99905 1 1 0.99905
1.01408 1.0316 0.984822 0.998161
1.01 1.0151 0.996946 0.998022
1.00287 1 1.0047 0.998184
1.00307 1.00428 1.00113 0.997671
0.999028 1 1.00022 0.998811
0.99903 1 1.00045 0.998583
1.01542 1 1.01716 0.998291
1.01332 1 1.01501 0.998326
1.00853 1.02998 0.980996 0.998141
1.00414 1.02388 0.982558 0.998124
1.00503 1.00753 0.999785 0.997732
0.999187 1.00033 1.00059 0.998266
0.998926 1 1 0.998926
0.999152 1 1.00027 0.99888
1.00388 1 1.00527 0.998618
1.02588 1 1.02778 0.99815
0.934272 0.972645 0.974805 0.985375
1.00022 1 1.00151 0.998719
0.999331 1 1.00109 0.998239
1.01294 1.02698 0.987809 0.998501
1.01251 1.01675 0.997805 0.99802
1.00263 1.00216 1.0033 0.99718
1.00202 1 1.00447 0.997558
1.00159 1.00757 0.99654 0.997508
1.00024 1 1.0017 0.998547
1.00557 1.01812 0.989199 0.99846
0.999635 1 1.00144 0.998199
1.00376 1.00013 1.00611 0.997541
1.00245 1.00634 0.998488 0.997638
0.951142 0.983014 0.981725 0.985589
0.967404 0.983914 0.991612 0.991537
0.983765 0.996367 0.988739 0.998598
0.855203 0.899235 0.968484 0.981982
0.795063 0.885093 0.919414 0.977015
0.999598 1 1.0009 0.9987
0.877478 0.91957 0.971259 0.982463
0.852687 0.901959 0.964607 0.98006
0.984074 1.0069 0.978945 0.998354
1.00501 1.00014 1.00657 0.998313
1.01102 1.00303 1.01019 0.997794
0.978661 0.991659 0.988151 0.998726
0.949761 0.972018 0.991674 0.985305
0.953627 0.965859 0.996507 0.990797
0.832276 0.900451 0.940866 0.98238
0.862018 0.934932 0.940201 0.980653
0.999439 1 1.00059 0.998854
0.999002 1 1.00016 0.998838
0.999194 1 1.00013 0.999066
0.999453 1 1 0.999453
0.999157 1 1 0.999157
0.999001 1 1 0.999001
0.998935 1 1 0.998935
0.998866 1 1 0.998866
0.999393 1 1 0.999393
0.998934 1 1 0.998934
0.998982 1 1 0.998982
0.999124 1 1 0.999124
0.998907 1 1 0.998907
0.998903 1 1 0.998903
0.999129 1 1.0002 0.998932
0.998946 1 1 0.998946
0.999129 1 1 0.999129
0.999163 1 1 0.999163
0.999065 1 1 0.999065
0.999007 1 1 0.999007
0.999061 1 1 0.999061
0.999007 1 1 0.999007
0.998925 1 1 0.998925
0.999203 1 1 0.999203
0.999223 1 1 0.999223
0.999477 1 1 0.999477
0.999182 1 1 0.999182
0.999445 1 1 0.999445
0.999856 1 1 0.999856
0.999397 1 1 0.999397
0.999858 1 1 0.999858
1 1 1 1
0.999862 1 1 0.999862
1 1 1 1
1 1 1 1
1 1 1 1
1 1 1 1
1 1 1 1
0.999622 1 1 0.999622
0.999962 1 1 0.999962
0.99996 1 1 0.99996
1 1 1 1
0.999948 1 1 0.999948
1 1 1 1
1 1 1 1
1 1 1 1
1 1 1 1
1 1 1 1
1.00065 1.01579 0.987272 0.997795
1.02609 1.03626 0.992102 0.998067
1.01925 1.03039 0.990655 0.998527
0.956993 0.980375 0.982641 0.993395
1.00561 1.01907 0.988529 0.99824
1.0279 1.03534 0.994712 0.998088
1.01651 1.02396 0.994703 0.998014
0.966753 0.982958 0.989386 0.994066
0.952709 0.978948 0.988286 0.984732
0.834223 0.892593 0.95227 0.981451
0.793008 0.871074 0.930478 0.9784
0.999309 1 1 0.999309
0.999643 1 1 0.999643
0.999634 1 1 0.999634
0.99931 1 1 0.99931
0.999109 1 1 0.999109
0.999144 1 1 0.999144
0.999301 1 1 0.999301
0.999329 1 1 0.999329
1.01682 1.03114 0.988002 0.998084
1.01716 1.03432 0.985219 0.998166
1.00877 1.01431 0.996516 0.99802
1.0031 1.00005 1.00488 0.998173
1.00358 1.00437 1.00153 0.997686
1.01611 1 1.01785 0.998289
1.01447 1 1.0162 0.9983
0.998902 1 1.00034 0.998559
0.999197 1 1 0.999197
0.999028 1 1.00022 0.998806
0.999319 1 1 0.999319
0.999081 1 1 0.999081
1.00963 1.0301 0.981977 0.998126
0.998951 1 1 0.998951
0.999045 1 1.00015 0.998897
1.00493 1.02324 0.983969 0.998103
1.00374 1.00718 0.998742 0.99784
1.00106 1.00064 1.00223 0.998199
1.00567 1 1.00711 0.99857
1.02304 1 1.02492 0.99816
1.00764 1.02582 0.984135 0.998118
0.985841 1.00726 0.980542 0.998155
0.996342 1.00056 0.997623 0.998157
1.00618 1.0002 1.00769 0.998301
0.999013 1 1.00026 0.998758
1.00248 1 1.00381 0.99867
1.02197 1 1.02365 0.998363
0.865562 0.924171 0.952795 0.982983
0.946929 0.97645 0.982668 0.986871
0.999955 1 1.00138 0.998576
0.999276 1 1.00107 0.998211
1.00629 1.0191 0.988962 0.998448
1.00324 1.00723 0.998374 0.997663
1.00325 1.00001 1.00571 0.997542
0.948632 0.977267 0.985665 0.984817
0.970057 0.988148 0.989403 0.992206
0.985511 0.99494 0.991891 0.998621
0.849478 0.900128 0.960737 0.982299
0.780965 0.87255 0.91781 0.975188
0.999187 1 1.00049 0.998702
0.869835 0.922151 0.959722 0.982855
0.84742 0.896016 0.965786 0.979268
0.986224 1.00768 0.98033 0.998345
1.0046 1.00011 1.00617 0.998335
1.00999 1.00154 1.01054 0.997917
0.970287 0.986753 0.984482 0.998813
0.955087 0.979696 0.990581 0.98415
0.955689 0.969646 0.993025 0.992529
0.835062 0.8949 0.951108 0.981103
0.861441 0.936744 0.938384 0.979995
1.0011 1 1.00216 0.998936
0.879366 0.910576 0.983756 0.98167
0.942824 0.963844 0.991918 0.986162
0.989327 1.00019 0.990305 0.998822
1.01238 1.00161 1.01196 0.998802
0.985193 0.978631 1.00772 0.998995
0.93886 0.956072 0.988332 0.993589
0.940822 0.957192 0.998963 0.983918
0.851119 0.910773 0.952142 0.981474
0.890875 0.956904 0.947058 0.98304
0.998996 1 1.00017 0.998829
0.999095 1 1.00005 0.999045
1.00062 1 1.00137 0.999242
0.999394 1 1 0.999394
0.999148 1 1 0.999148
0.999 1 1 0.999
0.998929 1 1 0.998929
0.998907 1 1 0.998907
0.999128 1 1 0.999128
0.998909 1 1 0.998909
0.998946 1 1 0.998946
0.999481 1 1.00053 0.998955
1.00596 1 1.00679 0.999185
0.998967 1 1.00009 0.99888
0.998929 1 1 0.998929
0.99916 1 1 0.99916
0.999052 1 1 0.999052
0.999005 1 1 0.999005
0.999058 1 1 0.999058
0.999016 1 1 0.999016
0.999013 1 1 0.999013
0.998963 1 1 0.998963
0.998999 1 1 0.998999
0.998783 1 1 0.998783
0.999361 1 1.00093 0.998434
0.998805 1 1 0.998805
0.998922 1 1 0.998922
0.999148 1 1 0.999148
0.999201 1 1 0.999201
0.999472 1 1 0.999472
0.999222 1 1 0.999222
0.999478 1 1 0.999478
0.999857 1 1 0.999857
0.999425 1 1 0.999425
0.999856 1 1 0.999856
1 1 1 1
0.999858 1 1 0.999858
1 1 1 1
1 1 1 1
1 1 1 1
1 1 1 1
1 1 1 1
0.999641 1 1 0.999641
0.999953 1 1 0.999953
0.999622 1 1 0.999622
1 1 1 1
0.999962 1 1 0.999962
0.999958 1 1 0.999958
1 1 1 1
1 1 1 1
1 1 1 1
1 1 1 1
1 1 1 1
0.86606 0.91252 0.966144 0.982344
0.856824 0.903949 0.966585 0.980635
0.959097 0.983408 0.981263 0.993901
1.00752 1.01871 0.990669 0.998333
1.03011 1.03787 0.994454 0.998052
0.959943 0.975433 0.988729 0.995338
1.01602 1.02359 0.994526 0.998068
0.956763 0.983725 0.986365 0.986036
0.848274 0.898863 0.961167 0.981847
0.784029 0.870033 0.92278 0.976558
0.985733 0.998596 0.990496 0.99659
0.951096 0.97313 0.991484 0.985752
0.824646 0.894655 0.938648 0.981995
0.855424 0.926696 0.942507 0.979398
0.999024 1 1 0.999024
0.999329 1 1 0.999329
0.999642 1 1 0.999642
0.999297 1 1 0.999297
0.99914 1 1 0.99914
0.999113 1 1.00007 0.999045
0.999144 1 1 0.999144
0.999163 1 1 0.999163
0.999275 1 1 0.999275
0.999307 1 1 0.999307
1.01054 1.02974 0.98321 0.998111
1.00471 1.02156 0.985395 0.998083
1.00269 1.00708 0.997693 0.997948
1.00262 1.00096 1.00354 0.998132
1.01947 1 1.02134 0.998171
1.00749 1 1.00899 0.998522
0.998913 1 1 0.998913
0.998976 1 1 0.998976
1.00722 1.02616 0.983381 0.998128
0.999138 1 1.00039 0.998744
1.00241 1 1.00377 0.99864
0.986539 1.006 0.982544 0.998078
0.995855 1.00041 0.997169 0.998279
1.00722 1.00074 1.00829 0.9982
1.0193 1 1.021 0.998337
0.998787 1.00496 0.995427 0.998423
0.988158 1 0.989333 0.998812
1.0137 1.00043 1.01491 0.998376
1.00115 1 1.00243 0.998724
1.0008 1 1.00222 0.998582
1.01308 1 1.01465 0.998452
0.886074 0.917046 0.98182 0.984118
0.874037 0.923304 0.96332 0.982685
0.940508 0.976734 0.97719 0.985388
0.998798 1 1.0001 0.998703
1.00419 1.00004 1.00581 0.998357
0.988861 1.00825 0.982399 0.998338
1.00909 1.00005 1.01103 0.998038
0.863397 0.917013 0.958242 0.982562
0.955247 0.978019 0.990683 0.985902
0.950493 0.969008 0.98993 0.990871
0.966379 0.982637 0.984537 0.998901
0.835565 0.895284 0.951177 0.981202
0.849751 0.900709 0.963468 0.979197
0.852688 0.930922 0.934532 0.980127
1.00177 1 1.00283 0.998942
0.880507 0.914166 0.980488 0.982348
0.947821 0.968041 0.992933 0.986081
0.991672 1.00019 0.992584 0.998894
1.01181 1.0004 1.01265 0.998781
0.983052 0.977909 1.00636 0.998911
0.94016 0.958089 0.989447 0.991753
0.943197 0.961866 0.995727 0.984798
0.86169 0.92201 0.951753 0.981954
0.880775 0.948064 0.944945 0.983152
1.00356 0.999757 1.00435 0.999465
0.945692 0.967815 0.988057 0.988952
0.93146 0.957363 0.983249 0.989519
1.00409 0.990632 1.01387 0.999715
0.958603 0.959927 1.00262 0.996012
0.948923 0.957785 1.00678 0.984076
0.897714 0.940034 0.972512 0.981972
0.897374 0.969293 0.942297 0.982496
0.999025 1 1 0.999025
1.00031 1 1.00106 0.999244
1.01141 1 1.01201 0.999409
0.999127 1 1 0.999127
0.998946 1 1 0.998946
0.998915 1 1 0.998915
0.99952 1 1.00054 0.998979
0.998927 1 1 0.998927
0.998907 1 1.00003 0.998876
1.0084 1 1.00918 0.999227
1.0163 0.998382 1.01851 0.999446
1.00639 1 1.00728 0.999114
0.998879 1 1 0.998879
0.999003 1 1 0.999003
0.999055 1 1 0.999055
0.999025 1 1 0.999025
0.998971 1 1 0.998971
0.999012 1 1 0.999012
0.999005 1 1 0.999005
0.998927 1 1 0.998927
0.999108 1 1 0.999108
0.998809 1 1 0.998809
0.998807 1 1 0.998807
0.999246 1 1.00069 0.998552
0.999566 1 1.00153 0.998043
0.999104 1 1.00039 0.998715
0.999313 1 1.00079 0.998522
0.998835 1 1 0.998835
0.999024 1 1 0.999024
0.998919 1 1 0.998919
0.999147 1 1 0.999147
0.999438 1 1 0.999438
0.999199 1 1 0.999199
0.999471 1 1 0.999471
0.999855 1 1 0.999855
0.999478 1 1 0.999478
0.999856 1 1 0.999856
1 1 1 1
0.999857 1 1 0.999857
1 1 1 1
1 1 1 1
1 1 1 1
1 1 1 1
1 1 1 1
0.999518 1 1 0.999518
0.999939 1 1 0.999939
0.999592 1 1 0.999592
1 1 1 1
0.999955 1 1 0.999955
0.999622 1 1 0.999622
1 1 1 1
1 1 1 1
0.999963 1 1 0.999963
1 1 1 1
1 1 1 1
1 1 1 1
0.88288 0.913919 0.982518 0.983226
0.869576 0.918272 0.964186 0.982144
0.944911 0.969156 0.988865 0.985962
0.84809 0.896847 0.965024 0.979909
0.956765 0.978344 0.984363 0.993478
1.01404 1.02336 0.992761 0.998124
0.960737 0.983942 0.988993 0.987284
0.849641 0.902078 0.959439 0.98169
0.778397 0.871502 0.91635 0.974702
0.982044 0.996318 0.98973 0.995901
0.950437 0.973698 0.99193 0.984051
0.835735 0.901615 0.945109 0.980767
0.85398 0.928441 0.939927 0.978588
0.965597 0.984785 0.985454 0.994989
0.953687 0.963509 1.00628 0.983627
0.860765 0.924216 0.949012 0.981385
0.886897 0.958105 0.94304 0.98159
0.999247 1 1.00038 0.998863
0.999054 1 1 0.999054
0.999349 1 1 0.999349
0.99917 1 1 0.99917
0.998874 1 1 0.998874
0.999067 1 1 0.999067
0.999143 1 1 0.999143
0.999132 1 1 0.999132
0.99919 1 1 0.99919
0.99925 1 1 0.99925
1.00756 1.02722 0.982693 0.998138
0.988762 1.00558 0.98524 0.998001
0.995273 1.00007 0.996795 0.998399
1.00912 1.00131 1.00972 0.9981
1.01683 1 1.01855 0.998311
1.00208 1 1.00347 0.998611
0.99933 1 1.0006 0.99873
1.00053 1 1.00181 0.998718
0.994802 1.00579 0.990621 0.998436
1.00068 1 1.0021 0.998591
1.01315 1 1.01473 0.998445
0.986814 1.00021 0.98786 0.998732
1.01372 1.00075 1.01463 0.998353
0.967605 0.991368 0.977083 0.998923
1.00403 0.998409 1.00637 0.999266
1.0181 1 1.01954 0.998591
0.999976 1 1.00138 0.998601
1.00774 1 1.0093 0.998454
0.946043 0.963952 0.990943 0.990391
0.889932 0.916969 0.986109 0.984185
0.866908 0.919372 0.959324 0.982915
1.00242 1 1.00348 0.998948
1.01128 0.999273 1.01328 0.998758
0.991744 1 0.992774 0.998962
0.890505 0.920196 0.984385 0.983085
0.952273 0.961405 1.00695 0.983663
0.942658 0.959081 0.989785 0.99302
0.973456 0.974567 1.00006 0.9988
0.862902 0.921255 0.9543 0.981514
0.952416 0.971768 0.993998 0.986005
0.880499 0.948352 0.944277 0.98324
1.00315 0.999451 1.00427 0.999441
0.943689 0.966 0.987065 0.989705
0.93378 0.959418 0.983575 0.98953
1.00545 0.992596 1.01339 0.999568
0.962558 0.962849 1.00412 0.9956
0.939692 0.956054 0.999841 0.983042
0.900541 0.971359 0.942843 0.983296
0.894587 0.938391 0.97099 0.981802
1.00523 0.9941 1.01149 0.999711
0.92752 0.954357 0.977676 0.994071
0.942122 0.969943 0.980925 0.990206
0.889022 0.958943 0.944424 0.981641
0.990262 0.976748 1.01493 0.998925
0.964536 0.965904 1.01405 0.984751
0.900709 0.933977 0.981911 0.982147
1.00051 1 1.00127 0.999244
1.01048 1 1.01113 0.99935
1.01566 0.99716 1.01899 0.999566
0.998926 1 1 0.998926
0.998872 1 1 0.998872
1.0119 1 1.01264 0.999268
0.998889 1 1 0.998889
1.00618 1 1.00707 0.999119
1.01788 0.998271 1.02024 0.999421
1.00702 0.997692 1.00987 0.999489
1.00406 1 1.00495 0.999113
0.99898 1 1 0.99898
0.999011 1 1 0.999011
0.999011 1 1 0.999011
0.999093 1 1 0.999093
0.998935 1 1 0.998935
0.999376 1 1.00033 0.999044
0.998929 1 1 0.998929
1.00091 1 1.00259 0.998325
0.998831 1 1 0.998831
0.999084 1 1.00057 0.998519
0.99889 1 1.00101 0.997879
0.999261 1 1.00129 0.997975
1.00005 1 1.00152 0.998531
0.999444 1 1.00138 0.998064
0.998918 1 1.00001 0.998905
0.999144 1 1.00046 0.998687
0.999255 1 1.00065 0.99861
0.998866 1 1 0.998866
0.999054 1 1 0.999054
0.999374 1 1 0.999374
0.999145 1 1 0.999145
0.999437 1 1 0.999437
0.999842 1 1 0.999842
0.99947 1 1 0.99947
0.999853 1 1 0.999853
1 1 1 1
0.999856 1 1 0.999856
1 1 1 1
1 1 1 1
1 1 1 1
1 1 1 1
1 1 1 1
0.999369 1 1 0.999369
0.999838 1 1 0.999838
0.999517 1 1 0.999517
1 1 1 1
0.999908 1 1 0.999908
0.999543 1 1 0.999543
1 1 1 1
1 1 1 1
0.999958 1 1 0.999958
1 1 1 1
1 1 1 1
1 1 1 1
0.939938 0.963225 0.985999 0.989681
0.872027 0.911777 0.972818 0.983128
0.869908 0.915279 0.967875 0.981975
0.999041 1 1 0.999041
0.932522 0.955393 0.985561 0.99036
0.948035 0.970084 0.991247 0.985902
0.844015 0.898507 0.95859 0.979931
0.984523 0.997365 0.992011 0.995074
0.952397 0.97313 0.993101 0.985494
0.842096 0.912731 0.940624 0.980851
0.847763 0.922261 0.939306 0.978618
0.967613 0.985463 0.988954 0.992855
0.940051 0.95718 0.997261 0.984802
0.870788 0.927655 0.956582 0.981304
0.885214 0.954374 0.945165 0.981345
0.948716 0.965878 0.990991 0.991161
0.949227 0.952951 1.01339 0.982927
0.898981 0.943867 0.970349 0.981548
0.896793 0.967689 0.943256 0.982486
0.999261 1 1.00056 0.998705
0.999475 1 1.00063 0.998842
0.999084 1 1 0.999084
0.998871 1 1 0.998871
0.998943 1 1.00003 0.998909
0.999088 1 1 0.999088
0.99914 1 1 0.99914
0.999217 1 1 0.999217
0.988982 1.00573 0.98488 0.998448
0.984473 1.00014 0.985663 0.998652
0.999823 1 1.00111 0.998713
1.01367 1.00105 1.0143 0.998329
1.01371 1 1.0153 0.998439
1.00082 1 1.00223 0.998599
1.00022 1 1.00161 0.99861
0.97221 0.992943 0.980149 0.998949
1.00828 1 1.00981 0.998481
1.01509 1 1.01652 0.998595
0.998587 0.998744 1.00055 0.999296
1.00036 1 1.00172 0.998642
0.963685 0.983623 0.98047 0.999246
1.00886 0.995885 1.01358 0.999454
1.02489 1 1.02625 0.998668
1.00193 1 1.00333 0.998602
0.940208 0.956659 0.987872 0.994869
0.945388 0.962977 0.991148 0.990503
0.894973 0.917146 0.991432 0.984257
1.00222 0.999063 1.00374 0.999421
1.00823 0.994744 1.01414 0.999425
0.942253 0.964521 0.986331 0.990452
0.95582 0.956986 1.01445 0.984559
0.957236 0.960857 1.00298 0.993267
0.899132 0.942141 0.972882 0.980952
0.934649 0.960048 0.983836 0.98954
0.904799 0.974567 0.943417 0.984094
1.00633 0.995781 1.01092 0.999673
0.927579 0.954062 0.978033 0.994078
0.939794 0.968028 0.979417 0.991236
0.998831 0.983218 1.01607 0.999817
0.886576 0.955464 0.945518 0.981368
0.954257 0.958832 1.0113 0.984109
0.911332 0.947891 0.979687 0.981366
1.007 0.991954 1.0154 0.999771
0.940739 0.96771 0.977077 0.994936
0.933116 0.956353 0.985153 0.990408
0.855598 0.928397 0.940898 0.979475
0.898875 0.945634 0.968719 0.981247
0.973461 0.970142 1.00525 0.99818
0.967103 0.9595 1.02613 0.982257
1.00828 1 1.00899 0.99929
1.01469 0.996531 1.01869 0.999542
1.00366 0.986123 1.01821 0.999582
0.998899 1 1 0.998899
1.00554 1 1.00642 0.999125
1.01869 0.998891 1.02044 0.999396
1.00202 1 1.00292 0.999101
1.00691 0.998372 1.00906 0.999488
1.00677 0.99753 1.01002 0.999256
0.999078 1 1 0.999078
0.998944 1 1 0.998944
1.00001 1 1.001 0.999014
1.00639 1 1.00787 0.998531
0.999047 1 1 0.999047
1.0004 1 1.00198 0.998422
1.0019 1 1.00413 0.997783
1.00057 1.00126 1.00188 0.997442
0.998889 1 1.0004 0.998485
0.999042 1.00016 1.00109 0.997791
0.998592 1 1.00053 0.998068
1.00064 1 1.00232 0.998328
0.999281 1 1.00125 0.99803
1.00026 1 1.00149 0.998768
1.00003 1 1.00151 0.998524
0.999361 1 1.00128 0.998085
0.999263 1 1 0.999263
0.999038 1 1.00014 0.998899
0.999249 1 1.00059 0.99866
0.999084 1 1 0.999084
0.999372 1 1 0.999372
0.999814 1 1 0.999814
0.999436 1 1 0.999436
0.999839 1 1 0.999839
1 1 1 1
0.999852 1 1 0.999852
1 1 1 1
1 1 1 1
1 1 1 1
1 1 1 1
1 1 1 1
0.999307 1 1 0.999307
0.999768 1 1 0.999768
0.999397 1 1 0.999397
1 1 1 1
0.999832 1 1 0.999832
0.999515 1 1 0.999515
1 1 1 1
1 1 1 1
0.999877 1 1 0.999877
1 1 1 1
1 1 1 1
1 1 1 1
0.929406 0.954341 0.979637 0.994116
0.941168 0.963734 0.986773 0.989675
0.872072 0.913022 0.971447 0.983223
0.999058 1 1 0.999058
0.99901 1 1 0.99901
0.998907 1 1 0.998907
0.938929 0.968715 0.978889 0.990155
0.930686 0.954483 0.984538 0.990382
0.951417 0.971104 0.993798 0.985841
0.974307 0.987502 0.992165 0.994429
0.938788 0.957444 0.996832 0.983631
0.861448 0.916757 0.95735 0.98153
0.893049 0.959721 0.948474 0.981081
0.951004 0.966218 0.991178 0.993015
0.944817 0.952141 1.00862 0.983832
0.888666 0.929722 0.972663 0.982705
0.898846 0.970033 0.942378 0.983271
0.937576 0.955384 0.989451 0.991824
0.96318 0.962968 1.01626 0.984222
0.901558 0.932393 0.984335 0.982318
0.891386 0.956218 0.948364 0.982955
0.998694 1 1 0.998694
0.999471 1 1.00077 0.9987
0.999564 1 1.00074 0.998821
0.998866 1 1 0.998866
0.998945 1 1 0.998945
0.999148 1 1 0.999148
0.979021 0.995468 0.984493 0.998969
0.993782 0.998945 0.995505 0.999324
1.00038 1 1.00176 0.998619
1.01188 1 1.0133 0.998599
1.00898 1 1.01049 0.998508
1.00014 1 1.00152 0.998618
1.00175 1 1.00314 0.998616
0.975217 0.986835 0.988945 0.999274
1.02206 1 1.02331 0.998769
1.00592 0.991236 1.01534 0.99948
1.00006 1 1.00133 0.99873
0.989849 0.976129 1.01461 0.999452
0.998826 0.988114 1.01132 0.999523
1.01786 1 1.01899 0.998895
0.956076 0.971571 0.988076 0.995927
0.93977 0.956771 0.987002 0.995167
0.945014 0.961902 0.991754 0.990612
1.00842 0.99782 1.01099 0.999636
0.993751 0.985045 1.00952 0.99932
0.928286 0.954408 0.978417 0.994086
0.954633 0.953332 1.01398 0.987559
0.910554 0.944846 0.981139 0.982233
0.938457 0.966507 0.978545 0.992267
0.894082 0.960316 0.948931 0.981135
1.00535 0.991694 1.01398 0.999788
0.941373 0.968017 0.977128 0.995238
0.931936 0.955679 0.984578 0.99043
0.972369 0.966797 1.01032 0.995486
0.853023 0.928917 0.938282 0.978703
0.886244 0.932581 0.967336 0.982403
0.976131 0.96506 1.02786 0.984059
1.00197 0.974291 1.02879 0.999629
0.930138 0.954915 0.979757 0.994179
0.946467 0.970953 0.988544 0.986078
0.790815 0.86932 0.92956 0.978629
0.862579 0.92625 0.948898 0.981412
0.963327 0.963358 1.01633 0.983904
0.950434 0.961965 0.994004 0.993973
1.01391 0.99562 1.01886 0.999517
1.00704 0.990222 1.01741 0.999586
1.01711 0.995138 1.02256 0.999529
0.999977 1 1.00089 0.99909
1.00695 0.99836 1.00912 0.999487
1.00791 0.997615 1.011 0.999329
1.01673 1 1.01792 0.998833
1.00059 1 1.00161 0.998985
1.00668 1 1.00827 0.99843
1.01507 1 1.01743 0.997676
0.999964 1 1.00145 0.99852
1.0031 1.00028 1.00509 0.997741
1.00475 1.00167 1.00596 0.997119
1.00297 1.00404 1.00191 0.997035
0.998923 1.0001 1.00108 0.99775
1.00054 1.00125 1.00189 0.997405
0.999228 1.00029 1.00124 0.997703
0.999348 1 1.0011 0.998253
0.998635 1 1.00048 0.998156
1.00109 1 1.00257 0.998522
1.00073 1 1.00237 0.998365
0.999253 1 1.00117 0.998085
0.99964 1 1.00057 0.999075
1.00003 1 1.00126 0.998771
0.999931 1 1.00142 0.998517
0.999757 1 1 0.999757
0.999261 1 1 0.999261
0.999113 1 1.00022 0.998894
0.99937 1 1 0.99937
0.999809 1 1 0.999809
1 1 1 1
0.999837 1 1 0.999837
1 1 1 1
1 1 1 1
1 1 1 1
1 1 1 1
1 1 1 1
0.999299 1 1 0.999299
0.999776 1 1 0.999776
0.999325 1 1 0.999325
1 1 1 1
0.999799 1 1 0.999799
0.999425 1 1 0.999425
1 1 1 1
1 1 1 1
0.999826 1 1 0.999826
1 1 1 1
1 1 1 1
1 1 1 1
0.940058 0.966993 0.977129 0.9949
0.929313 0.954722 0.979138 0.994126
0.940747 0.964164 0.985888 0.98968
0.998988 1 1 0.998988
0.998873 1 1 0.998873
0.999074 1 1 0.999074
0.999008 1 1 0.999008
0.998889 1 1 0.998889
0.998897 1 1 0.998897
0.998796 1 1 0.998796
0.928707 0.956587 0.981227 0.98943
0.938375 0.966735 0.979291 0.991192
0.928955 0.953421 0.983778 0.990404
0.901508 0.972974 0.94156 0.984057
0.939679 0.956283 0.991202 0.99136
0.94807 0.953372 1.00971 0.984871
0.892817 0.930698 0.977143 0.981738
0.933217 0.954692 0.986264 0.99112
0.953929 0.95513 1.01578 0.983225
0.913506 0.948997 0.980418 0.981828
0.879983 0.947411 0.944823 0.983072
0.937585 0.956025 0.987663 0.992961
0.960159 0.960577 1.01701 0.98285
0.899793 0.94182 0.972756 0.982134
0.859563 0.93328 0.939397 0.980431
0.999928 1 1.00115 0.998784
0.998803 1 1.00011 0.998695
0.999756 1 1.00106 0.998694
0.998862 1 1 0.998862
0.98401 0.989254 0.995389 0.999307
1.00192 0.987302 1.01531 0.999505
0.998632 1 1.00004 0.998595
1.0015 1 1.00288 0.998629
1.01846 1 1.01961 0.99887
0.99952 1 1.0008 0.998723
1.01861 0.999835 1.01992 0.998881
0.985617 0.97433 1.01281 0.998791
1.00135 0.987715 1.01418 0.999633
1.00824 0.999293 1.00998 0.998985
0.990604 0.972612 1.01987 0.99866
1.01701 0.993753 1.02412 0.9993
0.940732 0.956975 0.988061 0.994906
0.951496 0.969598 0.98502 0.996254
0.939197 0.95689 0.985983 0.995463
1.00266 0.990312 1.01267 0.999805
0.975473 0.968457 1.00895 0.998306
0.941221 0.967683 0.977008 0.995543
0.968938 0.963033 1.02396 0.98259
0.889848 0.932057 0.972816 0.981392
0.930648 0.954996 0.9839 0.990452
0.847463 0.922433 0.938686 0.978735
1.007 0.977757 1.03022 0.999702
0.929714 0.955242 0.978963 0.99419
0.949312 0.971616 0.990902 0.986015
0.952798 0.961953 0.994346 0.996115
0.783994 0.869664 0.922895 0.976809
0.868555 0.92698 0.954906 0.98122
0.9613 0.958525 1.01958 0.983637
0.999497 0.978897 1.02208 0.998983
0.941239 0.964395 0.986029 0.989818
0.857503 0.904356 0.966684 0.98087
0.82731 0.895709 0.940336 0.982242
0.947153 0.951013 1.01189 0.984242
0.933215 0.954778 0.985349 0.991949
1.01074 0.994287 1.01697 0.99959
1.01772 0.993674 1.02469 0.999522
1.01185 0.998958 1.01356 0.99936
1.00941 0.997939 1.0121 0.999402
1.01589 0.998624 1.01841 0.998907
1.01052 1.0008 1.01167 0.998058
1.00718 1 1.00886 0.99833
1.01415 1 1.01656 0.997625
1.00899 1.00017 1.01176 0.997095
1.00435 1.00063 1.00604 0.997699
1.0048 1.00129 1.00647 0.997052
1.00324 1.00209 1.00432 0.996838
1.00496 1.00791 1 0.99707
1.00482 1.00684 1.00077 0.997229
1.0035 1.00435 1.00218 0.996983
0.998438 1.00033 1.00013 0.997982
0.998732 1.00019 1.00074 0.997803
1.00054 1.00128 1.0019 0.997368
0.999392 1 1.00112 0.998279
0.999326 1 1.00108 0.998245
0.998669 1 1.00043 0.998244
1.0005 1 1.00169 0.99882
1.00094 1 1.00239 0.998561
1.0008 1 1.0024 0.998402
0.999625 1 1 0.999625
0.999529 1 1.00045 0.999076
0.999868 1 1.0011 0.998773
1 1 1 1
0.99975 1 1 0.99975
0.999259 1 1 0.999259
0.999805 1 1 0.999805
1 1 1 1
1 1 1 1
1 1 1 1
1 1 1 1
1 1 1 1
0.998982 1 1 0.998982
0.999245 1 1 0.999245
0.999725 1 1 0.999725
0.999297 1 1 0.999297
1 1 1 1
0.999779 1 1 0.999779
0.999344 1 1 0.999344
1 1 1 1
1 1 1 1
0.999831 1 1 0.999831
1 1 1 1
1 1 1 1
1 1 1 1
0.927082 0.954488 0.977103 0.994048
0.940519 0.967443 0.976852 0.995207
0.929334 0.955159 0.978702 0.994135
0.998998 1 1 0.998998
0.998859 1 1 0.998859
0.998798 1 1 0.998798
0.998859 1 1 0.998859
0.999069 1 1.0003 0.99877
0.999005 1 1 0.999005
0.998871 1 1 0.998871
0.998897 1 1 0.998897
0.998797 1 1 0.998797
0.999389 1 1.00055 0.998843
0.940875 0.962629 0.991302 0.985977
0.932486 0.95888 0.982844 0.989449
0.938758 0.965441 0.979979 0.992227
0.878351 0.947536 0.94285 0.983173
0.911151 0.943294 0.983201 0.982429
0.925863 0.950608 0.983625 0.990184
0.962111 0.962443 1.0159 0.984008
0.93837 0.957901 0.988609 0.990898
0.97137 0.969664 1.01813 0.983925
0.896676 0.93928 0.971941 0.982202
0.860366 0.935836 0.938382 0.979724
0.958768 0.96605 1.00017 0.992291
0.961487 0.962378 1.01491 0.984393
0.84937 0.910443 0.950717 0.981279
0.813473 0.898061 0.925895 0.978308
1.00185 1 1.00268 0.999179
1.00144 1 1.00266 0.998783
0.999588 1 1.00089 0.998696
0.9838 0.972965 1.01304 0.99812
1.00384 0.986618 1.01771 0.999748
0.999847 1 1.00113 0.998716
1.01997 0.999769 1.02136 0.998867
1.00939 0.999677 1.01073 0.998992
1.01808 0.995755 1.02315 0.99929
0.986884 0.969458 1.0193 0.998697
1.01508 0.999192 1.01657 0.999345
0.993249 0.97979 1.01525 0.99851
0.948476 0.965815 0.991678 0.990287
0.940219 0.956905 0.987304 0.995199
0.946805 0.967685 0.981779 0.996581
1.01207 0.981518 1.03136 0.99977
0.951689 0.962763 0.995457 0.99301
0.929794 0.955544 0.978729 0.994199
0.962146 0.964571 1.01581 0.981962
0.861293 0.916497 0.957501 0.981478
0.95213 0.972294 0.99321 0.985955
0.78036 0.872554 0.917296 0.974975
0.998502 0.977425 1.02249 0.999096
0.942536 0.965057 0.986714 0.989813
0.848981 0.89784 0.964734 0.980148
0.935632 0.957791 0.983722 0.993029
0.837648 0.902162 0.946479 0.980993
0.935694 0.948972 1.003 0.983056
0.974344 0.977842 0.998237 0.998182
0.883179 0.914779 0.981695 0.983459
0.836392 0.893356 0.953674 0.981715
0.952144 0.963565 1.00452 0.983702
0.932631 0.954344 0.983721 0.99342
1.01725 0.9923 1.02564 0.999515
1.01299 0.997391 1.01632 0.99933
0.995162 1.001 0.995453 0.998703
1.01451 0.996949 1.01866 0.998981
1.01072 1.00089 1.01168 0.998156
1.00248 1.00197 1.00288 0.997637
1.01293 1 1.01539 0.997574
1.00743 1.00032 1.01003 0.99711
0.999569 1.00147 1.0009 0.997204
1.00457 1.00088 1.00672 0.996984
1.00343 1.00301 1.00357 0.996859
1.00582 1.00862 1 0.997228
1.01456 1.0172 1 0.997401
1.00922 1.01213 1.00002 0.997108
1.00461 1.00754 1 0.997087
1.00171 1.00421 1 0.99751
1.0032 1.00496 1.00107 0.997183
1.00405 1.00469 1.00244 0.996931
0.99819 1.00005 1 0.998137
0.998297 1.00023 1.00002 0.998046
0.998435 1.00026 1.00032 0.997857
0.999777 1 1.0012 0.998576
0.999587 1 1.00129 0.998302
0.99933 1 1.0011 0.998237
0.999721 1 1.00034 0.99938
1.00036 1 1.00154 0.998821
1.00079 1 1.00219 0.998601
0.999997 1 1 0.999997
0.999618 1 1 0.999618
0.999459 1 1.00038 0.999077
1 1 1 1
1 1 1 1
0.999744 1 1 0.999744
1 1 1 1
1 1 1 1
1 1 1 1
0.998897 1 1 0.998897
0.999183 1 1 0.999183
0.998969 1 1 0.998969
0.999684 1 1 0.999684
0.999245 1 1 0.999245
0.999997 1 1 0.999997
0.999728 1 1 0.999728
0.999295 1 1 0.999295
1 1 1 1
1 1 1 1
0.999783 1 1 0.999783
1 1 1 1
1 1 1 1
1 1 1 1
0.944409 0.968087 0.984853 0.990546
0.926923 0.954017 0.977407 0.994059
0.940497 0.967202 0.976769 0.995516
0.9988 1 1 0.9988
0.999008 1 1 0.999008
0.998844 1 1 0.998844
0.998873 1 1 0.998873
0.998814 1 1 0.998814
0.998921 1 1.00015 0.998774
0.999808 1 1.00114 0.998668
0.999909 1 1.00117 0.998744
0.998897 1 1 0.998897
0.998797 1 1 0.998797
0.999543 1 1.00071 0.998834
1.00031 1 1.00134 0.998974
0.85234 0.902198 0.964258 0.979755
0.945775 0.96698 0.992063 0.985896
0.934287 0.959154 0.984442 0.989468
0.8538 0.931407 0.935523 0.979856
0.903759 0.946363 0.972853 0.981629
0.961276 0.961017 1.01767 0.982903
0.94334 0.958877 0.992048 0.991683
0.958353 0.963391 1.00079 0.993987
0.796997 0.885914 0.921222 0.976564
0.957468 0.958318 1.01648 0.982918
0.858718 0.921088 0.949701 0.981663
0.948748 0.96188 0.991891 0.994411
0.949673 0.954414 1.01015 0.985036
0.831906 0.900731 0.940925 0.981577
1.00025 1 1.00066 0.999593
1.00152 1 1.00234 0.999182
1.00256 1 1.00378 0.998783
0.98395 0.967347 1.01846 0.998731
1.0199 0.99857 1.0221 0.999279
1.0105 1 1.01151 0.998999
1.0143 0.999646 1.01533 0.999344
0.993232 0.981376 1.01354 0.99856
1.00042 0.992156 1.00939 0.998958
0.887655 0.918 0.98411 0.982557
0.946735 0.964524 0.990156 0.991315
0.939326 0.956708 0.986278 0.995491
0.998909 0.975998 1.0243 0.999199
0.931683 0.957821 0.978797 0.993783
0.942119 0.965624 0.985698 0.989815
0.94426 0.949671 1.00971 0.984736
0.845648 0.914399 0.94262 0.981109
0.844187 0.898952 0.958069 0.980179
0.975762 0.978443 0.999018 0.99824
0.872423 0.912299 0.972476 0.983356
0.85116 0.899969 0.962964 0.982141
0.934715 0.954405 0.987996 0.991269
0.940742 0.960218 0.994823 0.984815
0.964879 0.986753 0.978787 0.999023
0.866133 0.912923 0.965589 0.982558
0.953722 0.976002 0.991539 0.985509
0.946771 0.967014 0.987892 0.991067
1.01498 0.996319 1.01945 0.999301
0.99026 1.00047 0.990978 0.998808
0.983479 1.00259 0.982645 0.998261
1.0113 1.00103 1.01203 0.998252
1.0034 1.00238 1.0034 0.997628
1.00057 1.00336 0.999428 0.997792
1.0062 1.0005 1.00859 0.997125
0.99964 1.00111 1.00131 0.997217
1.01073 1.01302 1 0.997736
1.00379 1.00395 1.00297 0.996879
1.00549 1.00828 1 0.997235
1.01485 1.0171 1 0.997792
1.02005 1.02231 1 0.997786
1.01632 1.01903 1 0.997337
1.01406 1.01667 1 0.997428
1.008 1.01071 1 0.997322
1.00843 1.01131 1 0.99715
1.00417 1.00708 1 0.997104
0.999578 1.00171 1 0.997872
1.0018 1.00414 1.00014 0.997531
1.00171 1.00311 1.00148 0.997137
0.998383 1 1 0.998383
0.998514 1.00038 1 0.998131
0.99811 1 1 0.99811
0.999362 1 1.00026 0.9991
0.999604 1 1.00103 0.998578
0.999769 1 1.00145 0.998326
0.999976 1 1 0.999976
0.999642 1 1.00027 0.999376
1.0001 1 1.00128 0.998823
1 1 1 1
0.999993 1 1 0.999993
0.999611 1 1 0.999611
1 1 1 1
0.999999 1 1 0.999999
1 1 1 1
0.998862 1 1 0.998862
0.998897 1 1 0.998897
0.9991 1 1 0.9991
0.999642 1 1 0.999642
0.999183 1 1 0.999183
0.998956 1 1 0.998956
0.999992 1 1 0.999992
0.999686 1 1 0.999686
0.999244 1 1 0.999244
1 1 1 1
0.999998 1 1 0.999998
0.999731 1 1 0.999731
1 1 1 1
1 1 1 1
1 1 1 1
0.877338 0.909296 0.982769 0.981771
0.942964 0.966012 0.98545 0.990554
0.927674 0.954477 0.977716 0.99407
0.998785 1 1 0.998785
0.998725 1 1 0.998725
0.999356 1 1.00066 0.998701
0.998887 1 1 0.998887
0.998831 1 1 0.998831
0.998983 1 1.00021 0.998778
0.999852 1 1.00111 0.99874
0.999764 1 1.00109 0.998672
1.00022 1 1.00164 0.998582
0.998714 1 0.999649 0.999065
0.999278 1 1.00045 0.998825
0.999764 1 1.00081 0.998956
0.847882 0.897119 0.962855 0.981578
0.846284 0.895417 0.965463 0.978938
0.951025 0.971568 0.992932 0.985823
0.781635 0.87203 0.919511 0.974801
0.859864 0.918773 0.953748 0.981268
0.958482 0.960742 1.01258 0.985252
0.959138 0.960949 1.00614 0.992021
0.94753 0.96095 0.993301 0.992685
0.833137 0.893675 0.950687 0.980616
0.9402 0.950673 1.00449 0.984558
0.943037 0.962463 0.986425 0.9933
0.938957 0.962006 0.991842 0.984069
1.00721 1 1.00817 0.999048
0.999889 1 1.00036 0.999534
1.00077 1 1.00159 0.999185
0.992017 0.981553 1.01207 0.998605
1.01336 1 1.01403 0.999344
1.00106 0.993133 1.00913 0.998855
0.991933 0.996237 0.99757 0.998105
0.865372 0.925287 0.951381 0.983042
0.891487 0.918251 0.987278 0.983363
0.945886 0.9634 0.989404 0.992335
0.975856 0.980354 0.997074 0.998333
0.934042 0.953871 0.987057 0.992052
0.872759 0.913607 0.971372 0.983444
0.937987 0.957227 0.996084 0.983753
0.854412 0.905649 0.960761 0.981957
0.967968 0.987453 0.981732 0.998507
0.870988 0.919389 0.964383 0.982344
0.953994 0.977108 0.99219 0.984031
0.953026 0.968678 0.990903 0.992874
0.978507 0.994245 0.985297 0.998856
0.955206 0.981359 0.988536 0.984638
0.963995 0.985068 0.984426 0.99409
0.9854 1 0.986476 0.998909
0.984168 1.00335 0.982608 0.998238
0.983818 1.00641 0.979374 0.998143
1.00387 1.0027 1.00356 0.99762
0.999893 1.00347 0.998648 0.997787
1.01425 1.01892 0.99717 0.998237
0.999506 1.00064 1.00164 0.997231
1.01056 1.01286 1 0.997726
1.01988 1.02204 0.999683 0.998207
1.00498 1.00776 1 0.997242
1.01422 1.01646 1 0.997791
1.0204 1.0223 1 0.998136
1.01801 1.02003 1 0.998023
1.02031 1.02253 1 0.997831
1.01976 1.02214 1 0.997679
1.01551 1.01814 1 0.997419
1.01697 1.01968 1 0.997343
1.0136 1.01619 1 0.997455
1.00384 1.00626 1 0.997593
1.00852 1.01119 1 0.997358
1.00764 1.01048 1 0.997191
0.998438 1.00027 1 0.998173
1.00034 1.00248 1 0.997866
1.002 1.00428 1.00017 0.997553
0.998895 1 1 0.998895
0.998381 1 1 0.998381
0.998927 1.0008 1 0.998126
0.999902 1 1 0.999902
0.999406 1 1.00031 0.9991
0.999512 1 1.00093 0.99858
1 1 1 1
0.999961 1 1 0.999961
0.999642 1 1.00027 0.999372
1 1 1 1
0.99999 1 1 0.99999
1 1 1 1
0.998796 1 1 0.998796
0.998854 1 1 0.998854
0.99901 1 1 0.99901
0.998897 1 1 0.998897
0.9991 1 1 0.9991
0.999577 1 1 0.999577
0.999986 1 1 0.999986
0.999645 1 1 0.999645
0.999183 1 1 0.999183
1 1 1 1
0.999993 1 1 0.999993
0.999689 1 1 0.999689
1 1 1 1
0.999999 1 1 0.999999
1 1 1 1
0.873873 0.916955 0.970058 0.982433
0.879885 0.913575 0.981262 0.981514
0.941376 0.96389 0.985951 0.99056
0.998771 1 1 0.998771
0.999373 1 1.00071 0.998662
0.998764 1 1 0.998764
0.998459 1 1 0.998459
0.99924 1 1.00061 0.998627
0.999866 1 1.00113 0.998736
0.999575 1 1.0009 0.998675
1.00006 1 1.00145 0.998613
0.998463 1 1 0.998463
0.997796 1.00019 0.998728 0.998873
0.99866 1.00034 1.00026 0.998068
0.999382 1 1.00027 0.999115
0.999609 1 1.00067 0.998938
0.948908 0.975857 0.988088 0.984108
0.850693 0.89585 0.967332 0.981662
0.847074 0.898333 0.963287 0.978877
0.831615 0.894585 0.947983 0.980619
0.94502 0.953654 1.00813 0.982957
0.950077 0.959322 0.995794 0.994546
0.944123 0.961631 0.987251 0.994471
0.944871 0.963523 0.995122 0.985449
0.965709 0.986105 0.985744 0.993479
1.00082 1.00132 1.00126 0.998245
1.00568 1 1.00666 0.999026
0.999474 1 1 0.999474
1.00166 0.994893 1.00804 0.998769
0.997095 0.999875 0.999205 0.998013
0.935624 0.973825 0.975032 0.985375
0.874247 0.924613 0.962064 0.982811
0.89644 0.918878 0.991261 0.984182
0.971133 0.988514 0.984416 0.997969
0.948153 0.964066 0.992254 0.991172
0.871804 0.917053 0.967942 0.982144
0.952896 0.973836 0.993077 0.985319
0.978834 0.994352 0.9855 0.998877
0.957952 0.984862 0.986655 0.985832
0.965026 0.985136 0.987219 0.992269
0.997351 1.00473 0.994327 0.998318
0.979527 0.996017 0.987474 0.995919
0.985057 1.0043 0.982584 0.998221
0.985464 1.00596 0.981495 0.998095
1.00481 1.02582 0.981221 0.998265
0.999475 1.00358 0.998123 0.997781
1.01359 1.01845 0.996996 0.998224
1.02093 1.0285 0.994205 0.998422
1.01054 1.01285 1 0.997716
1.01969 1.0222 0.999354 0.998191
1.0193 1.02243 0.998609 0.998329
1.01378 1.01602 1 0.997791
1.02064 1.02262 0.99994 0.99812
1.01894 1.02081 1 0.998162
1.01869 1.02066 1 0.998066
1.01791 1.02009 1 0.997866
1.02055 1.02273 1 0.997877
1.01963 1.022 1 0.997672
1.01831 1.02078 1 0.997578
1.01013 1.01263 1 0.997535
1.01534 1.01797 1 0.99741
1.01758 1.02028 1 0.997348
0.999616 1.00165 1 0.997969
1.0039 1.0063 1 0.997614
1.00897 1.01161 1 0.997394
0.998728 1 1 0.998728
0.998725 1.00056 1 0.998168
1.00081 1.00296 1 0.997859
0.999779 1 1 0.999779
0.998895 1 1 0.998895
0.99838 1 1 0.99838
1 1 1 1
0.999881 1 1 0.999881
0.999371 1 1.00027 0.999101
1 1 1 1
0.999945 1 1 0.999945
1 1 1 1
0.998635 1.00016 1 0.998472
0.998795 1 1 0.998795
0.998878 1 1 0.998878
0.998845 1 1 0.998845
0.998989 1 1 0.998989
0.999456 1 1 0.999456
0.999099 1 1 0.999099
0.99958 1 1 0.99958
0.99998 1 1 0.99998
1 1 1 1
0.999988 1 1 0.999988
0.999647 1 1 0.999647
1 1 1 1
0.999995 1 1 0.999995
1 1 1 1
0.954808 0.981883 0.986089 0.986144
0.866414 0.919035 0.959143 0.982902
0.891133 0.920154 0.986905 0.98131
0.999373 1 1.00075 0.998623
0.998804 1 1 0.998804
0.999162 1 1.00053 0.998635
0.998475 1 1 0.998475
1.00079 1.00266 1.00002 0.998109
0.998516 1 1 0.998516
0.99994 1 1.0013 0.998643
0.998364 1 1 0.998364
0.99858 1.0001 0.999644 0.998839
0.998354 1.00006 1 0.998296
0.999445 1.00239 0.998821 0.998236
0.998198 1.00129 0.999249 0.997662
0.998709 1.00081 0.999718 0.998186
1.00021 1 1.00105 0.999165
0.964072 0.987025 0.982989 0.993649
0.951459 0.976996 0.9888 0.984893
0.845559 0.896568 0.96048 0.981912
0.95735 0.970055 1.0032 0.983756
0.943628 0.96089 0.986647 0.995325
0.969707 0.987011 0.98678 0.995631
0.993415 1.00378 0.991426 0.998234
0.998592 1.00067 0.999629 0.998295
1.00463 1 1.00563 0.999004
0.997292 1.00112 0.998269 0.997903
0.966422 0.982013 0.990416 0.993646
0.947916 0.977275 0.982893 0.98684
0.865525 0.919817 0.957243 0.983007
0.979844 0.995317 0.985542 0.998896
0.969376 0.987174 0.988289 0.993607
0.961618 0.985229 0.988853 0.987038
0.99122 1.00389 0.989028 0.99833
0.9774 0.993965 0.987996 0.995282
0.9982 1.02313 0.977498 0.998091
1.00565 1.01509 0.992939 0.99775
0.986764 1.00534 0.983445 0.998043
1.00481 1.0253 0.981725 0.998256
1.00838 1.03264 0.978182 0.998297
1.01313 1.01828 0.99672 0.998211
1.02063 1.0283 0.994123 0.998408
1.01479 1.02322 0.993472 0.998274
1.01937 1.02226 0.998996 0.998174
1.01883 1.02212 0.998463 0.998314
1.0196 1.02281 0.998737 0.998124
1.02084 1.02291 0.999872 0.998104
1.01842 1.02037 0.999936 0.998158
1.01804 1.02018 1 0.997906
1.0194 1.02133 1 0.998108
1.0178 1.01994 1 0.997901
1.01873 1.02112 1 0.997664
1.01954 1.02192 1 0.997666
1.01819 1.02067 1 0.99757
1.01364 1.01606 1 0.997617
1.0018 1.00399 1 0.997817
1.0098 1.01228 1 0.997555
1.01518 1.01782 1 0.997401
0.998555 1 1 0.998555
1.00032 1.00236 1 0.997969
1.00419 1.00657 1 0.997636
0.999641 1 1 0.999641
0.998726 1 1 0.998726
0.999051 1.00089 1 0.998164
1 1 1 1
0.999763 1 1 0.999763
0.998895 1 1 0.998895
1 1 1 1
0.999859 1 1 0.999859
1 1 1 1
1.0004 1.00224 1 0.99816
0.998571 1.00009 1 0.998484
0.998656 1 1 0.998656
0.998794 1 1 0.998794
0.998858 1 1 0.998858
0.999287 1 1 0.999287
0.998968 1 1 0.998968
0.999458 1 1 0.999458
0.999964 1 1 0.999964
0.999582 1 1 0.999582
0.999982 1 1 0.999982
1 1 1 1
1 1 1 1
0.999989 1 1 0.999989
1 1 1 1
0.965629 0.985048 0.986189 0.994014
0.950988 0.982498 0.982588 0.985082
0.859995 0.914712 0.956874 0.982554
1.00602 1.00818 1.00007 0.997785
0.999098 1 1.00045 0.998644
0.998491 1 1 0.998491
0.998487 1 1 0.998487
1.00065 1.00243 1.00012 0.998099
1.00006 1.00167 1 0.99839
0.998265 1 1 0.998265
0.999242 1 1.00044 0.998806
0.998517 1.00021 0.99997 0.998338
0.998431 1.00163 0.99859 0.998211
1.0012 1.00357 1 0.997635
1.003 1.0058 0.999604 0.997616
0.999282 1.00195 0.999716 0.997616
0.998892 1.00134 0.999254 0.998304
0.995377 1.00619 0.990517 0.998723
0.963533 0.987417 0.982912 0.992777
0.955423 0.978378 0.990436 0.985968
0.963905 0.983137 0.9863 0.994056
0.997518 1.00585 0.993127 0.998582
0.999246 1.0002 1.0007 0.998342
0.998228 1.00668 0.993767 0.997822
0.962168 0.975552 0.991344 0.994893
0.941166 0.976772 0.977756 0.985468
0.984655 1.0023 0.984032 0.998338
0.980782 0.995085 0.991084 0.994494
0.999555 1.02403 0.977936 0.998125
1.00457 1.01358 0.993207 0.997885
1.00625 1.03033 0.978501 0.99809
1.02132 1.02695 0.996517 0.997999
1.00464 1.0245 0.982336 0.998248
1.01084 1.03381 0.979456 0.998296
1.0079 1.0266 0.983622 0.998137
1.02005 1.0278 0.994057 0.998394
1.01533 1.02345 0.99379 0.998271
1.01917 1.02472 0.996566 0.998012
1.01843 1.02184 0.998363 0.998299
1.01951 1.02247 0.998964 0.998137
1.01998 1.02221 0.999992 0.997828
1.01788 1.01989 0.99988 0.998155
1.01794 1.02007 1 0.997906
1.02056 1.02295 1 0.997663
1.01765 1.01976 1 0.997935
1.01875 1.02112 1 0.997685
1.01542 1.01787 1 0.997591
1.01803 1.02052 1 0.997562
1.01347 1.01591 1 0.997596
1.00425 1.00646 1 0.9978
0.998432 1 1 0.99843
1.00219 1.00436 1 0.997842
1.00942 1.01187 1 0.997574
0.999513 1 1 0.999513
0.998555 1 1 0.998555
1.00097 1.00301 1 0.997969
1 1 1 1
0.999629 1 1 0.999629
0.998725 1 1 0.998725
1 1 1 1
0.999748 1 1 0.999748
1 1 1 1
1.00203 1.00419 1 0.997851
0.999887 1.00172 1 0.998165
0.998487 1.00008 1 0.998403
0.998504 1 1.00001 0.998497
0.998664 1 1 0.998664
0.999098 1 1 0.999098
0.998837 1 1 0.998837
0.999286 1 1 0.999286
0.999928 1 1 0.999928
0.99946 1 1 0.99946
0.99997 1 1 0.99997
1 1 1 1
0.999984 1 1 0.999984
1 1 1 1
1 1 1 1
0.999616 1.01053 0.9905 0.998688
0.960172 0.983307 0.984038 0.992311
0.950185 0.975749 0.987197 0.986431
1.00601 1.00802 1.00001 0.997986
1.01097 1.0134 1 0.9976
1.00524 1.0073 1.00013 0.997825
0.998458 1 1 0.998458
1.0005 1.00217 1.00024 0.998087
1.00071 1.00238 1 0.998334
1.00794 1.01024 1 0.997718
0.998614 1.00033 0.999902 0.998379
0.997351 1.00077 0.998396 0.998185
1.00186 1.00422 0.999961 0.997695
1.01012 1.01278 1 0.997375
1.01083 1.01755 0.995451 0.997933
1.00308 1.00609 0.999416 0.997591
1.00004 1.00262 0.999852 0.99757
0.999471 1.00849 0.992203 0.99884
0.965577 0.987626 0.985804 0.991754
0.998006 1.00712 0.992008 0.998938
1.014 1.02186 0.993746 0.998551
0.997107 1.00539 0.993843 0.997904
0.96181 0.979782 0.98838 0.993198
1.00148 1.02515 0.97871 0.998159
1.00266 1.01232 0.992422 0.998025
1.00539 1.03032 0.977611 0.998153
1.02318 1.02911 0.996222 0.998008
1.0186 1.03159 0.989372 0.998009
1.0338 1.04035 0.99558 0.998119
1.01345 1.03548 0.980392 0.998295
1.00908 1.02626 0.985097 0.998141
1.02191 1.03096 0.993281 0.99792
1.01593 1.02373 0.994108 0.998267
1.01937 1.02429 0.997177 0.99801
1.02364 1.02643 0.999502 0.997782
1.01937 1.02209 0.999185 0.99815
1.02022 1.02244 1 0.997827
1.02316 1.02562 1 0.997601
1.01783 1.01996 1 0.997906
1.02044 1.02282 1 0.997664
1.0176 1.02011 1 0.997543
1.01878 1.02112 1 0.997706
1.01524 1.01769 1 0.997597
1.00537 1.00764 1 0.997745
1.01333 1.01579 1 0.997576
1.00423 1.00646 1 0.997789
0.998457 1.0001 1 0.998356
0.999435 1 1 0.999435
0.998446 1.00002 1 0.99843
1.00262 1.00476 1 0.997868
1 1 1 1
0.999502 1 1 0.999502
0.998554 1 1 0.998554
1 1 1 1
0.999616 1 1 0.999616
1 1 1 1
1.00406 1.00646 1 0.997618
1.00195 1.00413 1 0.997824
0.999471 1.00136 1 0.998117
0.999353 1.00118 1 0.99817
0.998444 1.00004 1 0.998408
0.998889 1 1 0.998889
0.998671 1 1 0.998671
0.999143 1 1.00004 0.999099
0.999851 1 1 0.999851
0.999286 1 1 0.999286
0.99994 1 1 0.99994
1 1 1 1
0.999975 1 1 0.999975
1 1 1 1
1 1 1 1
1.01078 1.02232 0.99032 0.998375
0.996548 1.00952 0.9888 0.998331
0.957913 0.983911 0.98032 0.993121
1.01384 1.01621 1 0.997662
1.00563 1.0075 1 0.998146
1.0212 1.02375 1 0.99751
1.01108 1.01353 1 0.997586
1.00456 1.00653 1.00018 0.997867
1.02033 1.023 1 0.997388
1.00138 1.00311 1 0.998279
1.00723 1.00959 1 0.99766
1.02564 1.02888 0.999292 0.997555
1.00241 1.00472 0.999952 0.997756
1.01111 1.01381 1 0.997343
1.01076 1.01706 0.995849 0.997947
1.00279 1.0057 0.999537 0.997564
1.003 1.01036 0.993747 0.998958
1.02777 1.03615 0.993701 0.998192
1.01381 1.02178 0.993645 0.998554
0.996961 1.00409 0.994908 0.997981
1.00475 1.02992 0.977302 0.998217
1.02386 1.03039 0.99563 0.998017
1.01744 1.03189 0.987947 0.998025
1.03387 1.04129 0.994745 0.998121
1.03161 1.04041 0.993507 0.998017
1.01007 1.02573 0.986565 0.998144
1.02177 1.03051 0.993572 0.997928
1.0271 1.03266 0.996818 0.99779
1.01957 1.02391 0.997757 0.998007
1.02334 1.02597 0.999669 0.997764
1.0253 1.02783 1 0.99754
1.02055 1.02278 1 0.997825
1.02294 1.0254 1 0.9976
1.02052 1.02311 1 0.997472
1.02034 1.02273 1 0.997665
1.01763 1.02014 1 0.997545
1.00693 1.0093 1 0.997658
1.01506 1.0175 1 0.997603
1.00555 1.00782 1 0.997748
0.998657 1.00038 1 0.99828
1.00419 1.00643 1 0.997778
0.998514 1.00016 1 0.998354
0.999493 1 1 0.999493
0.999848 1 1 0.999848
0.999466 1 1 0.999466
0.998461 1.00003 1 0.998429
1 1 1 1
0.999491 1 1 0.999491
1 1 1 1
1.02725 1.02977 1 0.997556
1.01336 1.01582 1 0.997576
1.00473 1.00715 1 0.997604
1.0024 1.00448 1 0.997928
1.0018 1.00401 1 0.997797
0.999012 1.00089 1 0.998121
0.998682 1 1 0.998682
0.998417 1 1 0.998413
0.998893 1 1 0.998893
0.99972 1 1 0.99972
0.9991 1 1 0.9991
0.999869 1 1 0.999869
1 1 1 1
0.999952 1 1 0.999952
1 1 1 1
1 1 1 1
1.02875 1.03508 0.995931 0.997946
1.01421 1.02553 0.990484 0.99846
0.99436 1.00962 0.986885 0.997976
1.0231 1.02572 1 0.997438
1.01313 1.01544 1 0.997731
1.00515 1.00686 1 0.998304
1.02095 1.02348 1 0.99753
1.0112 1.01366 1 0.997572
1.03014 1.03279 0.999895 0.997537
1.01826 1.02096 1 0.997349
1.00665 1.00907 1 0.997601
1.02498 1.02806 0.999447 0.997549
1.01299 1.01572 1 0.997311
1.01269 1.01878 0.996052 0.997967
1.03421 1.04121 0.995154 0.998107
1.02966 1.03743 0.994292 0.998204
1.01445 1.02177 0.994267 0.998559
1.01711 1.033 0.986554 0.99804
1.03474 1.04271 0.994226 0.998123
1.03173 1.04117 0.992885 0.99803
1.03058 1.03648 0.996447 0.997854
1.02147 1.02994 0.993825 0.997936
1.02688 1.032 0.997257 0.997781
1.02769 1.03022 1 0.997542
1.023 1.02547 0.999845 0.997746
1.02579 1.02832 1 0.997541
1.02355 1.02621 1 0.99741
1.02267 1.02513 1 0.997599
1.02059 1.02318 1 0.997472
1.00866 1.01112 1 0.997563
1.01765 1.02016 1 0.997547
1.00716 1.00952 1 0.99766
0.998962 1.00078 1 0.998182
1.00573 1.008 1 0.99775
0.998758 1.00048 1 0.998278
0.999492 1 1 0.999492
0.998569 1.00022 1 0.998352
0.999489 1 1 0.999489
0.999857 1 1 0.999857
0.999926 1 1 0.999926
0.999499 1 1 0.999499
1 1 1 1
1.0268 1.02943 1 0.99744
1.01856 1.02101 1 0.9976
1.0271 1.02951 1 0.997656
1.00513 1.00734 1 0.997802
1.0147 1.01717 1 0.997568
1.0055 1.00793 1 0.997589
1.00139 1.00347 1 0.997926
0.998613 1.00011 1 0.998505
0.998587 1.00046 1 0.998124
0.998684 1 1 0.998684
0.999571 1 1 0.999571
0.998985 1 1.00009 0.998896
0.999738 1 1 0.999738
1 1 1 1
0.999887 1 1 0.999887
1 1 1 1
1 1 1 1
1.0328 1.03699 0.998127 0.997828
1.02868 1.03496 0.995986 0.997942
1.01573 1.0273 0.990182 0.998538
1.02994 1.03256 1 0.997469
1.02218 1.0248 1 0.997441
1.01257 1.0148 1 0.997802
1.02058 1.02309 1 0.99755
1.0299 1.03258 0.99988 0.997517
1.01621 1.01895 1 0.99731
1.02296 1.02591 0.99958 0.997543
1.03314 1.03824 0.997166 0.997915
1.03366 1.04039 0.995454 0.998068
1.03163 1.03894 0.994734 0.998216
1.03038 1.03447 0.998296 0.997741
1.03172 1.04177 0.992296 0.998043
1.03027 1.03623 0.9964 0.997842
1.0293 1.032 0.999758 0.997625
1.02673 1.03137 0.997723 0.997772
1.02869 1.03124 0.99998 0.997544
1.02505 1.02774 1 0.997381
1.02625 1.02878 1 0.997541
1.02327 1.02593 1 0.997411
1.0104 1.01295 1 0.997486
1.02062 1.02321 1 0.997473
1.00893 1.01139 1 0.997564
0.999308 1.00123 1 0.998082
1.00738 1.00974 1 0.997661
0.999083 1.0009 1 0.99818
0.99947 1 1 0.99947
0.998863 1.00059 1 0.998276
0.999485 1 1 0.999485
0.99986 1 1 0.99986
0.999486 1 1 0.999486
0.99986 1 1 0.99986
1 1 1 1
1.02748 1.03022 1 0.997341
1.0204 1.02301 1 0.997447
1.0274 1.03002 1 0.997458
1.0065 1.00874 1 0.99778
1.01874 1.02118 1 0.997605
1.02703 1.02934 1 0.997755
0.998875 1.00052 1 0.998351
1.00467 1.00689 1 0.997797
1.01615 1.01864 1 0.99756
1.00028 1.00236 1 0.997925
0.998556 1.00005 1 0.998507
0.999459 1 1 0.999459
0.998686 1 1 0.998686
0.999584 1 1 0.999584
1 1 1 1
0.999756 1 1 0.999756
1 1 1 1
1 1 1 1
1.03279 1.03574 0.999463 0.997684
1.03272 1.03728 0.997789 0.997813
1.02921 1.03537 0.996097 0.997939
1.02942 1.03203 1 0.997477
1.0212 1.02382 1 0.997444
1.02946 1.03219 0.999863 0.997497
1.03099 1.03409 0.999256 0.997746
1.03321 1.03825 0.997226 0.997908
1.03295 1.03941 0.995746 0.99803
1.03106 1.03507 0.998362 0.99776
1.02933 1.03193 0.999902 0.997575
1.02996 1.036 0.996327 0.99783
1.0297 1.03233 0.999855 0.997593
1.025 1.02764 1 0.997424
1.02964 1.03222 0.999954 0.997547
1.02471 1.02739 1 0.997384
1.01186 1.01447 1 0.997425
1.02311 1.02577 1 0.997412
1.0108 1.01335 1 0.997486
0.999632 1.00163 1 0.998004
1.00925 1.01172 1 0.997565
0.999431 1.00135 1 0.998081
0.999425 1 1 0.999425
0.999209 1.00103 1 0.998178
0.999459 1 1 0.999459
0.999847 1 1 0.999847
0.999479 1 1 0.999479
0.999868 1 1 0.999868
0.999859 1 1 0.999859
1.02918 1.03174 1 0.997526
1.02275 1.0255 1 0.997317
1.02783 1.03055 1 0.997356
1.00892 1.01132 1 0.997628
1.02008 1.02269 1 0.997451
1.02796 1.03056 1 0.997476
0.999203 1.00097 1 0.998236
1.00649 1.00878 1 0.997735
1.01878 1.02122 1 0.99761
0.9994 1 1 0.9994
0.998765 1.00041 1 0.998354
1.00424 1.00646 1 0.997792
0.998508 1 1 0.998508
0.999469 1 1 0.999469
1 1 1 1
0.999597 1 1 0.999597
1 1 1 1
1 1 1 1
1.02945 1.03211 0.999765 0.99765
1.03198 1.03518 0.999229 0.997682
1.03278 1.0377 0.997453 0.997798
1.02889 1.03149 1 0.997485
1.02917 1.03171 1 0.997538
1.0317 1.03506 0.998998 0.997755
1.03321 1.03819 0.9973 0.9979
1.03176 1.03569 0.998425 0.997779
1.02864 1.03146 0.999681 0.997585
1.02459 1.02723 1 0.997435
1.03019 1.03275 0.99996 0.99756
1.02472 1.02738 1 0.997407
1.01269 1.01533 1 0.997401
1.02433 1.02702 1 0.997387
1.01208 1.01469 1 0.997427
0.999762 1.00183 1 0.997935
1.01109 1.01364 1 0.997487
0.999682 1.00168 1 0.998003
0.999293 1 1 0.999293
0.99953 1.00145 1 0.99808
0.999377 1 1 0.999377
1 1 1 1
0.999449 1 1 0.999449
0.999859 1 1 0.999859
0.999872 1 1 0.999872
1.02763 1.03012 1 0.997583
1.02377 1.02645 1 0.997386
1.02879 1.03134 1 0.997522
1.01154 1.01413 1 0.997445
1.02277 1.0255 1 0.997338
1.02827 1.03098 1 0.997371
0.999616 1.00157 1 0.998047
1.009 1.0114 1 0.997627
1.01984 1.02245 1 0.997454
0.999375 1 1 0.999375
0.999061 1.00087 1 0.998194
1.00651 1.00884 1 0.99769
1 1 1 1
0.99941 1 1 0.99941
0.998642 1.00029 1 0.998356
0.99948 1 1 0.99948
1 1 1 1
1 1 1 1
1.02779 1.03032 1 0.997549
1.02983 1.03247 0.99979 0.997658
1.03116 1.0346 0.998992 0.997679
1.0257 1.02839 1 0.997382
1.02821 1.03074 1 0.997545
1.03237 1.03599 0.998743 0.997765
1.02794 1.03097 0.999466 0.997596
1.02461 1.02725 1 0.997436
1.01248 1.01506 1 0.997453
1.02438 1.02706 1 0.997389
1.01266 1.01527 1 0.997429
0.999795 1.00199 1 0.997806
1.01237 1.01498 1 0.997429
0.999821 1.00189 1 0.997936
0.999241 1 1 0.999241
0.999768 1.00177 1 0.998003
0.99929 1 1 0.99929
1 1 1 1
0.999321 1 1 0.999321
0.999918 1 1 0.999918
0.999868 1 1 0.999868
1.02531 1.02784 1 0.997544
1.02404 1.02668 1 0.997432
1.02737 1.02986 1 0.997586
1.01257 1.01516 1 0.997449
1.02428 1.02697 1 0.997377
1.0284 1.03096 1 0.997519
1.00022 1.00228 1 0.99794
1.01149 1.01403 1 0.997489
1.02272 1.02543 1 0.99736
0.999348 1 1 0.999348
0.99959 1.00156 1 0.998033
1.00907 1.01147 1 0.997626
1 1 1 1
0.999384 1 1 0.999384
0.998924 1.00077 1 0.998152
1 1 1 1
0.999421 1 1 0.999421
1 1 1 1
1.02608 1.02873 1 0.997425
1.0273 1.02984 1 0.997541
1.03028 1.03289 0.999806 0.997666
1.01167 1.01427 1 0.99744
1.02571 1.02839 1 0.997398
1.02731 1.02983 1 0.997552
1.02464 1.02727 1 0.997436
1.01252 1.01511 1 0.997453
0.999522 1.00176 1 0.997768
1.01264 1.01522 1 0.997458
0.999806 1.00197 1 0.997841
0.999176 1 1 0.999176
0.999842 1.00191 1 0.997936
0.999237 1 1 0.999237
1 1 1 1
0.999287 1 1 0.999287
1 1 1 1
0.999851 1 1 0.999851
1.02444 1.02706 1 0.997453
1.02544 1.02795 1 0.997556
1.0122 1.01478 1 0.99746
1.0241 1.02674 1 0.997431
1.0271 1.02958 1 0.997589
1.00024 1.00229 1 0.997962
1.01241 1.015 1 0.997446
1.02477 1.02748 1 0.997369
0.999303 1 1 0.999303
1.00027 1.0023 1 0.997969
1.01142 1.01392 1 0.997532
1 1 1 1
0.999354 1 1 0.999354
0.999564 1.00155 1 0.998018
1 1 1 1
0.999392 1 1 0.999392
1 1 1 1
1.01133 1.01389 1 0.997476
1.02599 1.02864 1 0.997418
1.02672 1.02926 1 0.997532
0.998893 1.00113 1 0.99777
1.01171 1.01431 1 0.99744
1.02571 1.02837 1 0.997414
1.01256 1.01515 1 0.997452
0.999523 1.00176 1 0.99777
0.999128 1 1 0.999128
0.999834 1.00196 1 0.997875
0.999173 1 1 0.999173
1 1 1 1
0.999234 1 1 0.999234
1 1 1 1
1 1 1 1
1.01161 1.01419 1 0.997458
1.02409 1.02669 1 0.997466
1.02557 1.02807 1 0.997569
0.999785 1.00185 1 0.997939
1.01223 1.01481 1 0.997457
1.02412 1.02676 1 0.99743
0.999255 1 1 0.999255
1.00031 1.00235 1 0.99796
1.01229 1.01488 1 0.997443
1 1 1 1
0.999307 1 1 0.999307
1.00032 1.00233 1 0.997998
1 1 1 1
0.99936 1 1 0.99936
1 1 1 1
0.998624 1.00077 1 0.997859
1.01126 1.01386 1 0.99744
1.02591 1.02858 1 0.997412
0.999125 1 1 0.999125
0.998915 1.00115 1 0.997768
1.01175 1.01435 1 0.99744
0.999523 1.00175 1 0.997773
0.999127 1 1 0.999127
1 1 1 1
0.999169 1 1 0.999169
1 1 1 1
1 1 1 1
0.999058 1.00116 1 0.997904
1.01143 1.01401 1 0.997455
1.02378 1.02636 1 0.99748
0.999328 1 1 0.999328
0.99995 1.00202 1 0.997937
1.01227 1.01485 1 0.997455
1 1 1 1
0.999256 1 1 0.999256
1.00035 1.0024 1 0.997958
1 1 1 1
0.999311 1 1 0.999311
1 1 1 1
0.999126 1 1 0.999126
0.998697 1.00087 1 0.997828
1.0112 1.01384 1 0.997404
1 1 1 1
0.999125 1 1 0.999125
0.998934 1.00117 1 0.997766
0.999126 1 1 0.999126
1 1 1 1
1 1 1 1
0.99928 1 1 0.99928
0.999281 1.00138 1 0.997904
1.01122 1.0138 1 0.997453
1 1 1 1
0.999215 1 1 0.999215
1.00013 1.0022 1 0.997935
1 1 1 1
0.999257 1 1 0.999257
1 1 1 1
0.99977 1 1 0.99977
0.999203 1 1 0.999203
0.998765 1.00097 1 0.997797
1 1 1 1
0.999126 1 1 0.999126
1 1 1 1
0.999787 1 1 0.999787
0.999232 1 1 0.999232
0.99951 1.00161 1 0.997904
0.999897 1 1 0.999897
0.999214 1 1 0.999214
1 1 1 1
1 1 1 1
0.999147 1 1 0.999147
1 1 1 1
0.99989 1 1 0.99989
0.999178 1 1 0.999178
1 1 1 1
1 1 1 1
1 1 1 1

VECTORS lamdaE float
1.00028 1.00014 0.994973
1.0001 1.00044 0.997602
0.999958 1.00035 0.995164
1.00056 0.999935 0.994784
1.00039 0.999948 0.995026
1.00023 1.00032 0.99484
1.00155 1.00048 0.992133
1.00013 1.00034 0.997603
1.00002 1.00022 0.997898
0.999607 1.00073 0.997943
1.00011 1.00036 0.995019
1.00136 1.00122 0.991128
1.00038 1.00001 0.994861
1.00011 0.999995 0.995102
0.999667 1.00058 0.995328
1.00032 0.999913 0.995021
0.999893 1.00062 0.995006
1.00012 1.00002 0.99523
1.00171 1.00032 0.992055
1.00038 1 0.997522
1.00057 0.999994 0.994687
1.00049 0.999881 0.994948
1.0019 1 0.992031
1.00173 1.00011 0.992192
1.00025 1.00029 0.994779
1.00131 1.001 0.992011
1.00422 1.00029 0.987811
1.00012 1.00029 0.997624
1.00017 1.0001 0.996414
0.999852 1.00056 0.996439
1.0001 1.00013 0.997707
1.00126 1.00136 0.991126
1.00045 0.999846 0.99487
1.00016 1.00037 0.994937
1.002 1.00017 0.992434
0.999608 0.999571 0.998356
1.00166 1.00083 0.992423
1.00101 1.00168 0.991255
1.00339 1.0017 0.987118
0.999695 0.998508 0.998698
1.0004 1.00001 0.997499
1.00027 1.00001 0.996299
1.00036 0.999993 0.997518
1.00004 1.00005 0.995177
1.002 1.00002 0.991219
1.00019 0.999966 0.997813
1.00217 1.00011 0.99224
1.00008 0.999852 0.995257
0.999865 1.00009 0.99542
0.999566 1.00096 0.995155
1.00187 1.00015 0.991989
1.00025 1.00002 0.996325
1.00032 0.999998 0.994929
0.999894 1.00066 0.994936
1.00025 0.999866 0.995168
1.002 0.999964 0.991931
1.00151 1.00079 0.991932
1.00186 1.00002 0.992109
1.00422 1.00031 0.987797
1.00033 1 0.997537
1.0005 1.00003 0.994756
1.00183 1 0.992757
1.00191 1.00003 0.991972
1.00184 0.999972 0.992144
1.0044 0.999954 0.987742
1.00434 0.999973 0.987647
1.00002 0.999837 0.99534
1.00085 1.00172 0.991985
1.00397 1.00075 0.987771
1.00511 1.00006 0.985726
1.00036 1.00013 0.99758
0.999974 0.99991 0.997909
1.0001 1.00039 0.997602
1.0012 1.00146 0.991117
1.00047 0.999978 0.99754
1.00024 1.00032 0.997598
1.00189 1.00012 0.991223
0.999733 0.999649 0.997083
1.00143 1.00091 0.991244
1.0009 1.00173 0.992076
1.00346 1.0016 0.987102
0.999845 0.998981 0.998386
0.999762 1.00049 0.994718
1.00208 0.999994 0.99109
1.0018 1.0004 0.991201
1.0044 1.00023 0.986813
1.00048 1.00159 0.993589
1.0038 1.00096 0.987162
1.0024 1.00336 0.987224
1.00471 1.00134 0.985163
0.99961 0.998063 0.998955
0.99961 0.998423 0.998808
1.00047 0.999995 0.997486
1.00042 1.00001 0.997497
1.00039 0.999996 0.997519
1.00023 1.00001 0.996341
1.00203 1.00001 0.991859
1.00032 0.999976 0.996309
1.00211 1.00012 0.991643
1.00038 0.999991 0.997528
1.00192 0.999939 0.991399
1.00213 1.0001 0.992334
1.00444 0.999678 0.987325
1.00214 1.00003 0.992319
1.00449 0.999885 0.987038
1.00035 1.00001 0.994915
1.00006 0.999994 0.995177
0.999537 1.00106 0.995101
1.00002 0.999828 0.995385
1.0021 0.999966 0.991831
1.00198 0.999929 0.992032
1.00171 1.00053 0.991862
1.00421 1.00033 0.987783
1.00037 0.999996 0.997532
1.00024 1.00002 0.995
1.00195 0.999977 0.991682
1.00201 1.00002 0.991862
0.999893 1.00013 0.996563
1.00112 1.00158 0.992122
1.00195 0.99992 0.992055
1.00442 0.999931 0.987667
1.00396 1.00077 0.987776
1.00434 1.00004 0.987707
1.00509 1.00008 0.985751
1.0019 0.999969 0.99143
1.00184 1.00001 0.992072
1.00436 0.999648 0.987931
1.00441 0.999849 0.98765
1.00439 0.999877 0.987644
1.00521 0.999552 0.98636
0.999748 0.99954 0.998245
1.00517 0.999829 0.985872
1.00033 1.00215 0.991818
1.00335 1.0017 0.987174
1.005 1.00046 0.985591
1.00523 0.999746 0.985826
0.999919 1.00145 0.993315
1.00023 1.00446 0.989896
1.00045 1.00001 0.997557
1.00018 1.00031 0.997608
1.0019 1.0001 0.991219
0.999816 0.999335 0.998283
1.00063 1.00201 0.991497
1.00139 1.00094 0.991252
1.00353 1.0015 0.987086
0.999748 0.9989 0.998503
0.999739 1.0004 0.994772
1.00209 1.00003 0.991741
1.00179 1.00043 0.991841
1.00439 1.00024 0.986807
1.00023 1.00168 0.992667
1.0038 1.00094 0.987167
1.00243 1.0033 0.987213
1.00466 1.00129 0.985163
0.999967 1.00115 0.993712
0.999757 0.999689 0.995511
1.00032 1.00354 0.990781
1.00447 1.00009 0.986831
1.00416 1.00054 0.98693
1.00514 1.0001 0.985653
1.00145 1.00417 0.988157
1.0048 1.00079 0.985447
1.004 1.00285 0.985091
1.00506 1.00114 0.984913
0.999624 0.997738 0.999079
0.999574 0.99799 0.999008
0.999547 0.998306 0.9989
0.999826 1.00099 0.993945
0.999689 0.999163 0.998446
1.0005 0.999978 0.997512
1.00042 1.00001 0.997485
1.00201 1.00014 0.991056
1.00195 1.00001 0.991282
1.00036 1 0.997519
1.00035 0.999995 0.997525
1.00191 0.999947 0.991395
1.00205 1.00009 0.991733
1.00443 0.999677 0.987326
1.00204 1.00006 0.991064
1.00448 0.999883 0.987033
1.00189 0.999936 0.991436
1.00441 0.999617 0.987422
1.00446 0.999767 0.987194
1.0052 0.998882 0.986868
1.0045 0.999995 0.986904
1.00523 0.999291 0.986413
1.00035 0.999993 0.997525
0.99999 1.00004 0.995244
1.00196 0.99997 0.990711
1.00211 1.00001 0.99175
0.999503 1.00042 0.998077
1.00145 1.00133 0.992257
1.00206 0.999892 0.991968
1.00443 0.999892 0.987593
1.00434 1.0001 0.987766
1.00394 1.00082 0.987781
1.00507 1.00009 0.985775
1.00189 0.999954 0.99143
1.00196 1.00001 0.991956
1.00439 0.999627 0.987614
1.00443 0.999891 0.987683
0.999798 0.99963 0.998155
1.00058 1.00192 0.992413
1.00324 1.00192 0.98745
1.00439 0.999908 0.98762
1.00521 0.999411 0.986404
1.00498 1.00047 0.985556
1.00516 0.999876 0.985972
1.00523 0.999738 0.985856
0.999966 1.00145 0.993304
1.00033 1.00427 0.989914
1.00438 0.999633 0.987471
1.00438 0.999769 0.987791
1.0052 0.999052 0.98688
1.00521 0.999121 0.98662
1.0052 0.999562 0.986334
1.00523 0.998413 0.987282
1.00007 1.00185 0.992608
1.00523 0.999173 0.986428
1.00205 1.00349 0.987628
1.00474 1.00113 0.985175
1.00522 1.00045 0.985338
1.00519 0.998832 0.986918
1.0007 1.00433 0.989237
1.00018 1.00371 0.990734
1.00099 1.00472 0.988528
1.002 1.00001 0.991154
0.999651 0.998809 0.998627
0.999722 1.0003 0.994824
1.00165 1.00047 0.991267
1.00439 1.00024 0.986801
1.00013 1.00178 0.99258
1.00244 1.00325 0.987202
1.00381 1.00093 0.987172
1.00461 1.00124 0.985163
0.999925 1.00111 0.993737
0.999769 0.999566 0.995555
1.00014 1.00373 0.990779
1.00446 1.00011 0.98682
1.00416 1.00053 0.98693
1.00515 1.0001 0.985634
1.00135 1.00424 0.988184
1.00485 1.00079 0.985461
1.00394 1.00283 0.985079
1.005 1.00101 0.98488
0.999872 0.999046 0.995919
1.00083 1.00396 0.989406
1.00008 1.00251 0.992168
1.00051 1.00468 0.989301
1.00518 0.999832 0.985884
1.00501 1.00042 0.985528
1.00519 0.999507 0.986173
1.00263 1.00414 0.986334
1.00514 1.00051 0.985323
1.00451 1.00215 0.984715
1.00517 1.00097 0.98472
1.00027 1.00048 0.993828
1.00009 0.998438 0.996127
0.999693 0.997504 0.999116
0.999616 0.997699 0.999092
0.999552 0.997927 0.999046
0.999827 1.00035 0.994607
0.99965 0.998763 0.99863
0.999863 1.00103 0.993921
0.999746 0.999211 0.998377
1.00203 1.00009 0.99106
1.00199 1.00007 0.991149
1.00448 0.999882 0.987028
1.00442 0.999677 0.987327
1.00192 0.999956 0.991395
1.00038 0.999994 0.99752
1.00191 0.999939 0.991436
1.00441 0.999624 0.987422
1.00446 0.999772 0.987191
1.0052 0.998891 0.986864
1.00449 1.00001 0.986893
1.00522 0.999294 0.986402
1.00438 0.999619 0.987466
1.00519 0.998781 0.986983
1.00521 0.999059 0.98667
1.0052 0.997317 0.988481
1.00522 0.999552 0.98614
1.00523 0.998031 0.987695
1.0019 0.999942 0.991433
1.00207 0.99999 0.99184
1.00441 0.999594 0.9873
1.00445 0.999926 0.987716
0.999876 0.999735 0.998049
1.00083 1.00181 0.992881
1.00324 1.00208 0.987723
1.0044 0.999928 0.987596
1.0052 0.999265 0.986449
1.00515 0.999926 0.986073
1.00497 1.0005 0.985521
1.00523 0.999729 0.985887
1.00002 1.00143 0.993292
1.00042 1.00407 0.989931
1.00438 0.999575 0.987437
1.00441 0.999752 0.987774
1.00519 0.998922 0.987027
1.0052 0.999267 0.986549
1.00015 1.00183 0.992593
1.00214 1.00341 0.987631
1.00471 1.00119 0.985226
1.00519 0.99965 0.98626
1.00523 0.998227 0.987503
1.00521 1.00043 0.985342
1.00523 0.999166 0.986449
1.00519 0.998783 0.986913
1.00078 1.00418 0.989232
1.00083 1.00464 0.98855
1.00022 1.00365 0.990735
1.00519 0.998931 0.987005
1.0052 0.998999 0.98695
1.00521 0.9975 0.988249
1.00522 0.997936 0.987757
1.00522 0.998501 0.987119
1.00516 0.996819 0.988884
1.00121 1.00411 0.988525
1.00518 0.997878 0.987688
1.00365 1.00287 0.985596
1.00517 1.00122 0.984396
1.0052 1.00001 0.985727
1.00513 0.997925 0.987853
1.00019 1.0028 0.99163
1.00147 1.00405 0.988167
1.00042 1.00499 0.988897
1.00176 1.00385 0.988194
1.00446 1.00012 0.986808
0.99978 0.999457 0.995597
0.999873 1.00108 0.993762
1.00001 1.00385 0.990778
1.00416 1.00052 0.98693
1.00517 1.0001 0.985616
1.00126 1.00433 0.988212
1.00389 1.00285 0.985065
1.00489 1.00079 0.985474
1.00494 1.00089 0.984845
0.999886 0.99898 0.995938
1.00075 1.00408 0.989417
1.00005 1.00246 0.992198
1.00039 1.00488 0.989259
1.00519 0.999839 0.985869
1.00504 1.00041 0.985502
1.00519 0.99951 0.986162
1.00252 1.00411 0.986362
1.00515 1.00056 0.985303
1.00459 1.00197 0.984724
1.00517 1.00099 0.984683
1.00001 0.998645 0.996065
1.00021 1.00136 0.993072
1.00137 1.00447 0.988091
1.00024 1.00409 0.990452
1.00109 1.00429 0.988821
1.00519 0.999026 0.986682
1.00517 1 0.985657
1.00513 0.998713 0.986971
1.00322 1.00326 0.985913
1.00515 1.00017 0.985606
1.00449 1.00191 0.984407
1.00028 1.00056 0.993728
1.00025 1.00187 0.992514
1.00022 1.0005 0.993906
1.00026 1.00049 0.993826
1.00012 0.998257 0.996758
1.00008 0.998421 0.996425
0.999849 0.997314 0.997971
0.999699 0.997465 0.99912
0.999613 0.997652 0.999104
0.999838 0.999726 0.995241
0.999645 0.998338 0.998825
0.999833 1.00042 0.994583
0.999705 0.998837 0.998565
0.999907 1.00104 0.993897
0.999793 0.999274 0.998307
1.00448 1.00001 0.986881
1.00445 0.999775 0.987188
1.00522 0.999312 0.986391
1.0052 0.9989 0.98686
1.0044 0.99963 0.987423
1.00189 0.999939 0.991434
1.00438 0.999618 0.987467
1.00519 0.998785 0.986981
1.00521 0.999074 0.98666
1.00521 0.997168 0.988636
1.00521 0.999562 0.98613
1.00523 0.998044 0.987677
1.00519 0.998766 0.987009
1.00517 0.996933 0.988973
1.00522 0.997569 0.988173
1.00517 0.995776 0.98996
1.0052 0.998557 0.987185
1.0052 0.996393 0.989139
1.00438 0.99952 0.987404
1.00443 0.999748 0.987758
1.00519 0.998807 0.987175
1.0052 0.999415 0.986478
1.00026 1.00179 0.992576
1.00212 1.0034 0.987635
1.00465 1.00125 0.985277
1.00519 0.999738 0.986186
1.00523 0.998041 0.987724
1.00522 0.999159 0.986469
1.00521 1.0004 0.985345
1.00519 0.998735 0.986908
1.00087 1.00407 0.989225
1.00079 1.00462 0.988573
1.00026 1.00354 0.990737
1.00519 0.998879 0.98699
1.0052 0.998999 0.986942
1.00521 0.997257 0.988531
1.00522 0.998034 0.987666
1.00126 1.00408 0.988495
1.00366 1.00283 0.985594
1.00515 1.0013 0.984414
1.00522 0.99869 0.986934
1.00517 0.996612 0.9891
1.0052 0.999996 0.985655
1.00518 0.997892 0.987698
1.00513 0.997805 0.987979
1.00157 1.00401 0.988153
1.00169 1.00389 0.988173
1.00022 1.00276 0.991619
1.00036 1.0049 0.988998
1.00519 0.9972 0.988653
1.00522 0.997666 0.988144
1.00514 0.996019 0.989768
1.00518 0.995945 0.989656
1.00516 0.997111 0.988519
1.00514 0.995911 0.989888
1.00243 1.00368 0.986936
1.00512 0.996523 0.98896
1.00436 1.00263 0.984437
1.00514 1.00135 0.984349
1.00518 0.999502 0.986015
1.00512 0.997546 0.988182
1.00015 1.00201 0.992443
1.00024 1.00453 0.989648
1.00224 1.00328 0.987619
1.0007 1.00504 0.988552
1.0021 1.00315 0.988381
0.999895 0.998928 0.995957
1.00519 0.999845 0.985854
1.00002 1.00241 0.992228
1.00061 1.00428 0.989427
1.00027 1.00501 0.989217
1.00508 1.00039 0.985475
1.00518 0.999512 0.986151
1.00253 1.00394 0.986391
1.00466 1.00179 0.984736
1.00516 1.00061 0.985285
1.00518 1.00103 0.984649
1.00002 0.998627 0.996076
1.00018 1.00137 0.993095
1.00136 1.0044 0.988105
1.0001 1.00416 0.990443
1.00092 1.00423 0.988824
1.00519 0.99902 0.98667
1.00518 1 0.985638
1.00513 0.998687 0.98694
1.00325 1.00322 0.985929
1.00518 1.00021 0.985479
1.00481 1.00182 0.984368
1.00028 1.0008 0.993517
1.00021 1.00295 0.99161
1.002 1.00353 0.987861
1.00038 1.00485 0.989588
1.00144 1.00331 0.989171
1.00516 0.998023 0.987644
1.00513 0.999369 0.986262
1.00509 0.998018 0.987345
1.00326 1.00243 0.986333
1.00499 1.00104 0.984686
1.00029 1.00055 0.993725
1.00026 1.00183 0.992457
1.00018 1.00194 0.99247
1.00026 1.00252 0.991992
1.0002 1.00193 0.992541
1.00016 1.00056 0.993944
1.00021 1.00049 0.993907
1.00014 0.998194 0.996786
1.00025 1.00051 0.993824
1.00012 0.998281 0.996762
0.999943 0.997092 0.998003
1.00008 0.998419 0.996718
0.999812 0.997274 0.998554
0.999708 0.997412 0.999124
0.999887 0.999121 0.995764
0.999833 0.999788 0.995213
0.999645 0.997938 0.998983
0.99968 0.998427 0.998751
0.999839 1.0005 0.994558
0.999758 0.998887 0.998495
1.00521 0.999572 0.986119
1.00521 0.999075 0.986652
1.00523 0.998051 0.98766
1.00521 0.997014 0.988791
1.00519 0.998789 0.986979
1.00438 0.999618 0.987468
1.00518 0.998767 0.98701
1.00517 0.996923 0.988986
1.00522 0.997579 0.988161
1.00517 0.995632 0.990119
1.00521 0.998547 0.987163
1.0052 0.996293 0.989269
1.00516 0.996953 0.988984
1.00517 0.995585 0.990207
1.00519 0.995708 0.989946
1.00518 0.995023 0.990625
1.00518 0.997215 0.988421
1.00519 0.995461 0.99009
1.00518 0.998821 0.986974
1.0052 0.999006 0.986933
1.0052 0.997004 0.988814
1.00522 0.998127 0.987575
1.00133 1.00406 0.988466
1.00368 1.00279 0.985591
1.00507 1.00134 0.984432
1.00522 0.99888 0.986749
1.00517 0.996407 0.989318
1.00519 0.997906 0.987709
1.0052 0.999995 0.985584
1.00514 0.997682 0.988104
1.00153 1.00405 0.98814
1.00147 1.00396 0.988152
1.00026 1.00274 0.991608
1.0003 1.00485 0.9891
1.00518 0.997207 0.98865
1.00521 0.997762 0.988016
1.00514 0.995805 0.990001
1.00519 0.996032 0.989552
1.00234 1.0039 0.986893
1.00434 1.00257 0.984464
1.00515 1.00133 0.984318
1.00516 0.997306 0.98831
1.00513 0.995624 0.990077
1.00517 0.999552 0.98599
1.00513 0.996542 0.988959
1.00513 0.997278 0.988339
1.00235 1.00321 0.987588
1.00202 1.00308 0.988461
1.00069 1.00504 0.988527
1.00016 1.00201 0.992373
1.00015 1.00452 0.989773
1.00515 0.995519 0.990385
1.00518 0.995694 0.990056
1.00516 0.995103 0.990442
1.00513 0.995784 0.989716
1.00308 1.00345 0.986013
1.00516 0.996052 0.989587
1.00493 1.00233 0.983688
1.00501 1.00128 0.984489
1.00513 0.999174 0.986238
1.00006 1.00127 0.993145
1.00009 1.0039 0.990768
1.00049 1.00485 0.989232
1.00262 1.00295 0.987425
1.00095 1.00478 0.988114
1.00232 1.00235 0.9882
1.00002 0.998615 0.996086
1.00015 1.00136 0.993118
1.00519 0.999013 0.986658
0.999936 1.00428 0.990435
1.00124 1.0045 0.98812
1.00076 1.00418 0.988827
1.00519 1 0.985618
1.00512 0.998662 0.98691
1.00328 1.00318 0.985944
1.00509 1.00177 0.984326
1.0052 1.00024 0.985352
1.00026 1.00079 0.993524
1.0001 1.00301 0.991634
1.00204 1.00353 0.98783
1.0002 1.00494 0.989555
1.00135 1.00313 0.989279
1.00515 0.998039 0.98762
1.00513 0.99937 0.986237
1.00509 0.998054 0.987404
1.00346 1.00235 0.986087
1.005 1.00109 0.984737
1.00023 1.00218 0.9923
0.999805 1.00434 0.990545
1.0027 1.00197 0.988184
1.00032 1.00467 0.989518
1.00198 1.00196 0.989249
1.00511 0.996545 0.98889
1.00509 0.999476 0.986129
1.00506 0.997882 0.98745
1.0041 1.00173 0.985808
1.00482 1.00087 0.985083
1.00029 1.00054 0.993721
1.00026 1.00185 0.99248
1.00007 1.00251 0.992055
1.00013 1.00199 0.992427
1.00016 1.00199 0.992535
1.00015 1.0026 0.991947
1.0001 1.00283 0.991879
1.0001 1.00279 0.991724
1.00012 1.00207 0.992544
1.0001 1.00067 0.99394
1.00016 1.00055 0.993944
1.00013 0.998197 0.996791
1.00021 1.00048 0.993907
1.00014 0.998219 0.996787
1 0.996968 0.998015
1.00013 0.998292 0.996768
0.999932 0.997062 0.998009
0.999772 0.997227 0.999149
0.999936 0.998654 0.99616
0.999875 0.9992 0.99573
0.999674 0.997624 0.999088
0.999826 0.999869 0.995186
0.999671 0.998029 0.998935
0.999726 0.998497 0.998685
1.00521 0.998538 0.987142
1.00522 0.997594 0.98815
1.0052 0.996194 0.9894
1.00517 0.995493 0.990278
1.00518 0.996914 0.988999
1.00518 0.998768 0.987011
1.00516 0.99706 0.988855
1.00516 0.995616 0.99021
1.00519 0.995736 0.989938
1.00518 0.995002 0.990654
1.00518 0.997257 0.988412
1.00518 0.995265 0.990252
1.00516 0.995455 0.990421
1.00519 0.994963 0.99077
1.00519 0.995022 0.990555
1.00517 0.995576 0.989942
1.00517 0.997215 0.988646
1.00521 0.997854 0.987888
1.00515 0.995598 0.990233
1.0052 0.996127 0.989447
1.00236 1.00399 0.986851
1.00439 1.0025 0.984493
1.00515 1.00135 0.984288
1.00516 0.997499 0.988101
1.00513 0.995339 0.990264
1.00515 0.996562 0.988957
1.00515 0.999595 0.985965
1.00513 0.997024 0.988495
1.00247 1.00318 0.987557
1.00203 1.00282 0.988538
1.00068 1.00505 0.988501
1.00017 1.00199 0.992305
1.00012 1.00445 0.9899
1.00516 0.995523 0.99037
1.00518 0.995709 0.989997
1.00515 0.995218 0.990366
1.00307 1.00354 0.985999
1.00473 1.00239 0.983769
1.00504 1.0012 0.984473
1.00514 0.9958 0.989707
1.00513 0.998951 0.986544
1.00515 0.996019 0.989438
1.00008 1.00115 0.993266
1.00279 1.00274 0.987349
1.00212 1.0021 0.988825
1.00111 1.0049 0.988044
1.0005 1.0049 0.98926
1.00011 1.00385 0.990703
1.00521 0.994996 0.990608
1.00517 0.995125 0.990528
1.00515 0.994963 0.990411
1.00516 0.995244 0.990244
1.00388 1.00299 0.985257
1.00511 0.99715 0.988281
1.00508 1.0025 0.983095
1.00496 1.00141 0.98428
1.00014 1.00031 0.994016
1.00006 1.0029 0.99182
1.00028 1.00447 0.989997
1.00079 1.00503 0.98844
1.00279 1.00268 0.986906
1.00214 1.00364 0.987463
1.00024 1.00079 0.993531
1 1.00303 0.991658
1.00514 0.998053 0.987595
1.00002 1.00502 0.989524
1.00209 1.00351 0.987798
1.00107 1.00306 0.989391
1.00513 0.999372 0.986212
1.00509 0.998094 0.987461
1.00368 1.00233 0.985838
1.00503 1.00113 0.984787
1.00018 1.00219 0.992314
0.999886 1.00442 0.990496
1.00279 1.00201 0.988145
1.00013 1.00485 0.989557
1.00183 1.00165 0.989726
1.00512 0.9965 0.989075
1.00508 0.999468 0.98621
1.00507 0.997981 0.987428
1.00404 1.00193 0.98565
1.00489 1.0009 0.984931
0.999866 1.00301 0.991786
0.999769 1.00504 0.989685
1.00334 1.00104 0.987891
1.00093 1.00334 0.988847
1.00518 0.995303 0.989948
1.00506 0.996909 0.988862
1.00495 0.999808 0.985823
1.00436 1.00091 0.9853
1.00027 1.00184 0.992503
1.0001 1.00251 0.992063
0.999836 1.00299 0.992229
1.00012 1.00206 0.992529
1.00003 1.00268 0.991903
1.00011 1.00209 0.992537
1.00003 1.0028 0.991932
1.00012 1.00278 0.991759
0.999984 1.00256 0.992299
1.00007 1.00315 0.991512
1.00012 1.00298 0.991509
1.00009 1.00217 0.992477
1.00004 1.00078 0.993895
1.0001 1.00065 0.993939
1.00012 0.99823 0.996789
1.00016 1.00053 0.993944
1.00014 0.998228 0.99679
1.00004 0.996905 0.998012
1.00014 0.998244 0.99679
0.999997 0.996934 0.998021
0.999917 0.997038 0.998011
1.00003 0.998242 0.996426
0.999943 0.99869 0.996128
0.999732 0.997292 0.999162
0.999862 0.999277 0.995695
0.999687 0.997671 0.99906
0.999702 0.998107 0.998868
1.00517 0.997299 0.988404
1.00519 0.995769 0.989931
1.00518 0.995066 0.990414
1.00518 0.994974 0.990683
1.00516 0.995645 0.990213
1.00516 0.997171 0.988726
1.00516 0.995567 0.990311
1.0052 0.99496 0.990763
1.00518 0.995066 0.990527
1.00517 0.995488 0.990036
1.00521 0.994949 0.990759
1.00518 0.994955 0.9907
1.00519 0.994961 0.990479
1.00517 0.995527 0.990355
1.00518 0.995717 0.989938
1.00515 0.995334 0.990291
1.00305 1.00363 0.985986
1.0046 1.00244 0.983848
1.00506 1.00114 0.984456
1.00514 0.995815 0.989698
1.00513 0.995963 0.989288
1.00513 0.998724 0.986852
1.00297 1.00256 0.987272
1.00187 1.00196 0.989449
1.00132 1.00503 0.987975
1.00009 1.00105 0.993387
1.0004 1.00494 0.989287
1.00011 1.0038 0.990637
1.00521 0.995016 0.99064
1.00517 0.995028 0.990573
1.00514 0.995029 0.990448
1.00372 1.00312 0.985238
1.0049 1.00255 0.983176
1.00496 1.0012 0.984594
1.00515 0.995237 0.990202
1.00511 0.99709 0.988216
1.00012 1.00028 0.994176
1.00007 1.00289 0.991819
1.00254 1.00253 0.9873
1.00198 1.00369 0.987966
1.00074 1.00503 0.98861
1.00025 1.00452 0.98993
1.00517 0.994932 0.990746
1.00516 0.994929 0.990528
1.00514 0.995012 0.990458
1.0051 0.995068 0.990124
1.0041 1.0031 0.983879
1.00476 1.00048 0.985552
1.00504 1.00276 0.983025
1.00021 0.999857 0.99456
1.00022 1.00098 0.993476
1.00009 1.00173 0.992766
1.00003 1.00398 0.990748
1.00029 1.00489 0.98928
1.00055 1.0046 0.988687
1.00267 1.00183 0.987566
1.00203 1.00359 0.988803
1.00012 1.00224 0.992327
0.999962 1.00453 0.990447
1.00513 0.996447 0.98926
1.0002 1.00489 0.989593
1.00288 1.00209 0.988109
1.00165 1.0014 0.990199
1.00508 0.999444 0.986293
1.00507 0.998065 0.987408
1.00395 1.00208 0.985497
1.00494 1.00093 0.98478
0.999894 1.0031 0.991677
0.999879 1.00498 0.989763
1.00333 1.0011 0.987982
1.00127 1.00342 0.988974
1.00518 0.995236 0.990057
1.00507 0.99692 0.988679
1.00498 0.999762 0.98583
1.00466 1.00099 0.985162
0.99971 1.00377 0.991336
1.00521 0.994903 0.990286
1.00079 1.00484 0.989071
1.00344 1.00154 0.987174
1.00513 0.99575 0.990011
1.00505 0.998451 0.986178
1.00495 1.00117 0.984834
1.0001 1.00255 0.992072
0.999801 1.00296 0.992194
0.999521 1.00296 0.99281
1.00011 1.00206 0.992529
1.00014 1.00276 0.991794
0.999826 1.00291 0.991984
1.00009 1.00216 0.992465
1.00008 1.00299 0.991533
0.999789 1.00268 0.992377
1.00016 1.00305 0.991527
0.999954 1.00226 0.992894
0.9999 1.00298 0.991974
1.00018 1.00349 0.991026
1.00026 1.00302 0.9913
1.00011 1.00231 0.992294
1 1.00093 0.993811
1.00003 1.00081 0.993888
1.0001 0.998314 0.996753
1.00009 1.00066 0.993938
1.00012 0.998271 0.996785
1.00006 0.996869 0.998015
1.00014 0.99826 0.99679
1.00004 0.996871 0.998017
0.999994 0.996904 0.998024
1.0002 0.999848 0.994613
1.00009 0.998007 0.996565
1.00003 0.998273 0.996408
0.999821 0.997014 0.999209
0.999946 0.998739 0.996096
0.999738 0.997378 0.999142
0.999706 0.997747 0.999031
1.00518 0.995399 0.990129
1.00517 0.995112 0.990498
1.00521 0.994958 0.990755
1.00516 0.995669 0.990202
1.00521 0.994938 0.990787
1.00518 0.994953 0.990718
1.00518 0.994984 0.990447
1.00518 0.994963 0.990751
1.00521 0.994948 0.990558
1.00524 0.994928 0.990881
1.0052 0.995037 0.990672
1.00517 0.994932 0.990617
1.00514 0.995089 0.990484
1.00348 1.00326 0.985221
1.00484 1.00265 0.983264
1.00496 1.00098 0.984907
1.00515 0.995251 0.990161
1.00511 0.997031 0.988152
1.00231 1.00245 0.987698
1.0019 1.00374 0.988467
1.00054 1.00504 0.988779
1.00011 1.00021 0.994337
1.00012 1.00285 0.991818
1.00023 1.00464 0.989861
1.00518 0.994935 0.990723
1.00019 0.999877 0.994554
1.00017 1.00103 0.993402
1.00516 0.994921 0.99054
1.00513 0.995003 0.990455
1.00388 1.00327 0.984237
1.00499 1.00271 0.983162
1.00483 1.00024 0.985486
1.0051 0.99526 0.990064
1.00008 1.00175 0.992952
1.00009 1.00394 0.990722
1.00293 1.00241 0.987194
1.00141 1.00359 0.989197
1.00062 1.00461 0.988864
1.00025 1.00494 0.989359
1.00521 0.99494 0.990505
1.00516 0.994862 0.990534
1.00512 0.994927 0.990218
1.0047 0.995906 0.989833
1.00366 1.00323 0.984839
1.00438 1.00336 0.983873
1.0001 1.00124 0.993223
1.00018 1.00108 0.993423
1.0004 1.00149 0.992796
1.00015 1.00296 0.991405
1.00002 1.00469 0.990197
1.0011 1.00434 0.988647
0.999894 1.00483 0.989292
1.00207 1.00121 0.989169
0.999927 1.00317 0.991569
1.00007 1.00491 0.989845
1.00518 0.995179 0.990166
1.00508 0.996968 0.988496
1.0016 1.0035 0.989103
1.00331 1.00113 0.98807
1.005 0.999735 0.985834
1.00494 1.00109 0.985021
0.999804 1.00375 0.991287
1.00522 0.994911 0.990404
1.00057 1.0048 0.989124
1.00348 1.00152 0.98703
1.00513 0.995635 0.989994
1.00502 0.998577 0.986454
1.00488 1.00121 0.984876
0.999868 1.00466 0.990637
1.00453 0.99509 0.991639
1.00211 1.00344 0.988511
1.00399 1.00186 0.986282
1.00484 0.996467 0.989303
1.00386 1.00111 0.985773
0.998723 0.997449 0.990386
0.999724 1.00298 0.992161
0.999351 1.0031 0.992791
0.999627 1.00314 0.992772
1.00008 1.00218 0.992452
1.00007 1.00303 0.991557
1.00027 1.00293 0.991544
0.99968 1.00269 0.992455
1.0001 1.00231 0.992293
1.00022 1.00309 0.991287
0.999931 1.00222 0.992819
1.00014 1.00355 0.991031
1.00002 1.00291 0.99188
0.999937 1.00249 0.99256
1.00027 1.00359 0.990782
1.00019 1.00364 0.990896
1.00037 1.00318 0.990982
1.00015 1.00245 0.991965
1.00026 1.0029 0.991602
1.00015 1.00251 0.991856
0.999997 1.00096 0.993772
0.999999 1.00094 0.993805
1.0001 0.998411 0.996137
1.00004 1.0008 0.993882
1.0001 0.998362 0.996454
1.00003 0.996867 0.999146
1.00012 0.998311 0.996782
1.00006 0.996831 0.99802
1.00004 0.996839 0.998018
1.00014 0.999843 0.99468
1.0002 0.999804 0.994623
1.0001 0.997889 0.996671
1.00007 0.998011 0.996821
0.999892 0.996832 0.99924
1.00002 0.998305 0.996391
0.999812 0.997079 0.999198
0.999744 0.997423 0.999122
1.00518 0.995006 0.990414
1.00517 0.994951 0.990736
1.00521 0.994931 0.990816
1.00518 0.994963 0.990752
1.00521 0.994945 0.990561
1.00524 0.994931 0.990524
1.00525 0.994959 0.990495
1.00105 0.994855 0.986612
1.00444 0.994891 0.993046
1.00003 1.00129 0.993432
1.00519 0.994937 0.990701
1.00515 0.994914 0.990553
1.00514 0.994994 0.990452
1.00364 1.00333 0.98459
1.00495 1.00264 0.983298
1.00491 1.00002 0.985424
1.00509 0.995452 0.990002
1.00335 1.00261 0.986826
1.00075 1.00358 0.989599
1.00075 1.0046 0.989043
1.00017 0.999917 0.994549
1.00025 1.00498 0.989437
1.00007 1.00173 0.993136
1.00018 1.00388 0.990696
1.00016 1.00101 0.993327
1.00521 0.994934 0.990509
1.00011 1.0012 0.993321
1.00015 1.00112 0.993417
1.00036 1.00152 0.992743
1.00516 0.994882 0.990517
1.00513 0.99492 0.990246
1.00385 1.00313 0.98488
1.00429 1.0027 0.984437
1.00462 0.996376 0.98973
1.00005 1.00302 0.991557
1.00013 1.00459 0.990033
1.00201 1.00206 0.988875
1.00033 1.00469 0.989332
1.00098 1.00426 0.98876
1.00521 0.995088 0.990557
1.00515 0.994868 0.990537
1.00508 0.995524 0.98977
1.0044 0.998257 0.989006
1.00191 1.00345 0.98814
1.00011 1.00217 0.99228
1.0004 1.00171 0.992276
1.00016 1.00227 0.992051
0.999897 1.00443 0.990946
1.00008 1.00464 0.989772
1.00024 1.00456 0.989304
1.00068 1.00323 0.989707
0.999954 1.00368 0.991235
1.00026 1.00477 0.989175
1.00523 0.994909 0.990515
1.00513 0.995473 0.989976
1.005 0.998729 0.986731
1.00355 1.00147 0.986888
1.00485 1.00119 0.984921
0.999961 1.00454 0.990737
1.00447 0.995084 0.991752
1.00181 1.00343 0.988539
1.00376 1.0019 0.986255
1.00496 0.996014 0.989574
1.00405 1.00129 0.985754
0.998737 0.997662 0.988248
1.00005 1.00447 0.99048
1.00271 0.997833 0.991642
1.00176 1.00272 0.988987
1.00253 1.00169 0.987705
1.00368 0.997473 0.989364
1.0001 0.995263 0.952633
0.997037 0.994904 0.971495
0.996467 1.00206 0.989645
0.999789 0.996338 0.895426
0.994686 0.996323 0.869399
0.999206 1.00324 0.992773
0.999226 1.00336 0.992887
0.999624 1.00313 0.992552
1.00009 1.00232 0.992292
1.00028 1.003 0.991273
1.00011 1.0036 0.991035
1.00015 1.00283 0.991786
0.999865 1.00219 0.992746
1.00022 1.00359 0.990861
1.00015 1.00243 0.992036
1.00035 1.00317 0.991009
0.999948 1.00242 0.992463
1.00017 1.00363 0.990922
1.0002 1.00377 0.9909
0.999721 1.00343 0.991627
1.00028 1.00371 0.990676
1.00035 1.00319 0.990927
1.0002 1.00249 0.991834
1.00032 1.00322 0.991079
1.00016 1.00309 0.991505
1.00011 1.00284 0.991757
1.00024 1.00293 0.991541
1.00022 1.00218 0.992239
1.00018 1.00251 0.991842
1.00005 1.0009 0.993755
1 1.00097 0.993771
1.00009 0.998471 0.99612
0.99999 1.00096 0.9938
1.00009 0.998426 0.996135
1.00002 0.996863 0.999145
1.00011 0.998414 0.996156
1.00004 0.996864 0.998567
1.00006 0.996794 0.998023
1.00007 0.999868 0.994769
1.00015 0.99983 0.994684
1.00011 0.997797 0.996758
1.00021 0.999768 0.994632
1.0001 0.997847 0.996928
0.999942 0.996669 0.99927
1.00008 0.998045 0.996539
0.999882 0.996909 0.999225
0.999807 0.997146 0.999186
1.00521 0.99494 0.990563
1.00518 0.994963 0.990753
1.00524 0.994936 0.990169
1.00087 0.994947 0.986736
1.00524 0.994958 0.990495
1.00431 0.995256 0.992643
1.00503 0.996186 0.991119
0.996772 0.994882 0.970505
1.00055 0.996805 0.988487
1.00005 1.00132 0.993384
1.00009 1.00123 0.993425
1.00003 1.00226 0.992452
1.00002 1.00222 0.992532
1.0052 0.99493 0.990513
1.00515 0.994894 0.9905
1.00513 0.994914 0.990273
1.00432 1.00284 0.98492
1.00412 1.00188 0.984996
1.00455 0.996889 0.989622
1.00174 1.00314 0.988579
1.00088 1.00457 0.989371
1.00085 1.0041 0.988872
1.00012 1.0012 0.993411
1.00019 1.00454 0.989868
1.00006 1.00304 0.99171
1.00011 1.00119 0.993419
1.00027 1.00157 0.992687
1.00521 0.995012 0.990556
1.00014 1.00218 0.992366
1.00037 1.0017 0.992459
0.999931 1.00222 0.992505
1.00516 0.994861 0.990443
1.00494 0.995472 0.989793
1.00251 1.00257 0.98805
1.00405 0.998057 0.989431
1.00001 1.00423 0.990781
1.00022 1.00484 0.989376
1.0008 1.0038 0.989605
1.00087 1.00431 0.989187
1.00461 0.995021 0.991426
1.0051 0.995612 0.990163
1.00502 0.996106 0.989579
1.00201 0.99961 0.991626
0.999902 1.00324 0.991628
1.00023 1.00282 0.991476
0.999311 1.00477 0.991088
0.999575 1.0047 0.990171
0.999994 0.994887 0.944543
0.999999 1.00446 0.990838
1.0014 1.00354 0.988564
1.00446 0.995012 0.991867
1.00509 0.995618 0.989844
1.00415 1.00139 0.985727
1.00351 1.00202 0.986222
0.998825 0.997663 0.98605
0.99993 1.00463 0.990627
1.00285 0.997561 0.99168
1.0017 1.00279 0.988992
1.0031 1.00119 0.987667
1.00397 0.997517 0.989358
1.00118 0.995397 0.94299
0.996852 0.994977 0.967171
0.996471 1.00233 0.989445
0.999773 0.996395 0.899013
0.994698 0.996328 0.858487
0.999742 1.00391 0.991513
0.999831 0.994942 0.905742
0.99483 0.995994 0.869702
1.00154 1.00004 0.991328
1.00094 1.00247 0.990302
1.00199 1.00076 0.98938
0.996385 1.00286 0.989582
1.00067 0.996739 0.948971
0.994916 0.996014 0.964907
0.997747 0.998691 0.904246
0.994782 0.997066 0.864685
0.998948 1.00354 0.993001
0.999462 1.00331 0.992472
0.999441 1.00319 0.993144
1.00016 1.00239 0.992108
1.00034 1.0032 0.991037
1.00006 1.00375 0.990828
1.00007 1.00366 0.991061
1.00002 1.00233 0.992365
1.00019 1.00247 0.991841
1.00008 1.00389 0.990853
1.00027 1.00372 0.990668
1.00039 1.00313 0.990993
0.999712 1.00346 0.991681
0.999938 1.00394 0.991255
0.999108 1.00413 0.991739
1.00039 1.00361 0.99054
1.00043 1.00327 0.990856
1.00037 1.00319 0.991054
1.00013 1.00307 0.991568
1.00039 1.00332 0.990891
1.00002 1.00314 0.991646
0.999762 1.00299 0.991814
0.999719 1.00418 0.991012
0.999952 1.00314 0.991707
1.00014 1.00282 0.991753
1.00015 1.00209 0.992441
1.00022 1.00293 0.99148
1.00024 1.00219 0.992171
1.00014 1.00082 0.993722
1.00019 1.00252 0.991827
1.00004 1.00091 0.993758
1.0001 0.998424 0.996714
0.999993 1.00099 0.993769
1.00009 0.99844 0.996419
1.00007 0.996878 0.997966
1.00009 0.99844 0.996133
1.00002 0.996874 0.999144
1.00007 0.996872 0.997986
1.00009 1.00141 0.993213
1.00002 0.999929 0.994794
1.00007 0.999855 0.994772
1.00011 0.997769 0.996788
1.00016 0.999805 0.994688
1.00012 0.997758 0.99676
0.999982 0.996565 0.999286
1.00009 0.997849 0.997162
0.999958 0.996754 0.998752
0.999925 0.996959 0.998185
1.00053 0.995138 0.986881
1.00523 0.994965 0.990497
1.00413 0.99599 0.992233
0.996729 0.994868 0.971741
1.00048 0.996497 0.988774
1.00505 0.995844 0.990967
1.0031 0.997243 0.988505
0.996535 0.996867 0.974521
1.00004 0.995613 0.949819
0.999374 0.998002 0.907894
0.994644 0.996661 0.867669
0.999936 1.00229 0.992449
1.00008 1.0013 0.99338
1.00015 1.00116 0.993417
1.00004 1.00226 0.992449
0.999789 1.00321 0.991915
1.00022 1.00254 0.991858
1.00003 1.0027 0.992172
0.999996 1.00231 0.992434
1.00522 0.994911 0.990551
1.00517 0.994865 0.990347
1.00488 0.995336 0.989818
1.00276 1.00206 0.987967
1.00374 0.997943 0.989862
1.00094 1.0044 0.9895
1.00141 1.00416 0.989071
1.00046 1.00497 0.988983
1.00027 1.00169 0.992644
1.00001 1.00426 0.990615
1.00018 1.00221 0.992454
0.999832 1.00215 0.992958
1.00465 0.994937 0.991545
0.999888 1.00329 0.991682
1.00018 1.00295 0.991617
1.00504 0.995398 0.990122
1.00483 0.995668 0.989737
1.00198 0.999589 0.991268
0.999662 1.00498 0.990598
1.00023 1.00436 0.990251
1.00334 0.995887 0.991822
1.00464 0.996467 0.990422
1.00454 0.995164 0.991037
1.00159 0.999251 0.992314
0.999967 1.00439 0.990415
0.999565 1.00427 0.991106
0.999515 1.00503 0.990835
0.999863 0.994843 0.907238
1.00052 0.994955 0.954393
0.999867 1.00471 0.990774
1.00166 1.00272 0.989002
1.00293 0.997262 0.991724
1.00428 0.997692 0.989354
1.00373 1.0007 0.987639
1.0003 0.994926 0.951135
0.997184 0.995198 0.966437
0.996527 1.00259 0.989204
0.999524 0.996737 0.909489
0.994704 0.996422 0.847214
0.999766 1.00385 0.991499
0.999839 0.995659 0.904576
0.994789 0.996038 0.864196
1.00157 1.00006 0.991378
1.00104 1.00233 0.99036
1.00218 1.00051 0.990054
0.996602 1.00298 0.990196
1.00171 0.996749 0.942239
0.994915 0.995529 0.968743
0.9985 0.999173 0.904352
0.994795 0.996718 0.862833
0.999401 1.00356 0.992874
0.994969 0.996079 0.867638
0.994799 0.996605 0.882161
0.99931 1.00193 0.993559
0.99956 1.00287 0.992964
0.995792 1.00266 0.99011
0.99486 0.998191 0.968013
0.998098 0.999033 0.939715
0.994854 0.999801 0.910057
0.994842 0.994799 0.869021
0.999418 1.00346 0.992394
0.999607 1.00279 0.99308
0.998349 1.00436 0.992922
1.0002 1.00246 0.991849
1.00041 1.00309 0.99106
1.00026 1.0037 0.99066
1 1.00402 0.990806
0.999622 1.00356 0.991735
1.00041 1.0033 0.990851
0.999963 1.00381 0.991152
1.00041 1.00357 0.990568
0.998844 1.0044 0.991909
0.997197 1.00494 0.993919
1.00005 1.00383 0.990968
1.00063 1.00379 0.990075
1.0004 1.00316 0.99103
1.00017 1.00299 0.99163
1.00039 1.00336 0.990851
1.00005 1.00314 0.991611
0.999784 1.00292 0.992049
0.999772 1.00375 0.991378
0.999846 1.00359 0.991256
0.99963 1.00295 0.992237
1.00025 1.00282 0.991529
1.00024 1.00449 0.989333
0.999578 1.0045 0.990768
0.999795 1.00413 0.991005
0.999798 1.00365 0.991452
0.999982 1.00315 0.991696
1.00004 1.00221 0.992462
1.00014 1.00287 0.991749
1.00016 1.00208 0.992448
1.00021 1.00066 0.993715
1.00024 1.00219 0.992103
1.00013 1.0008 0.993733
1.00013 0.9984 0.996685
1.00004 1.00091 0.993762
1.00011 0.998394 0.996415
1.00006 0.996829 0.997977
1.00011 0.99841 0.996126
1.00002 0.99688 0.99914
1.00002 0.996874 0.999143
1.00012 1.00163 0.993202
1 1.00006 0.994697
1.00008 1.00143 0.993219
1.00011 0.997777 0.996777
1.00002 0.999927 0.994796
1.00008 0.999859 0.994775
1.00011 0.997758 0.996785
1.00001 0.996507 0.999288
1.0001 0.997733 0.997238
0.999999 0.99658 0.998795
0.99998 0.996762 0.998265
0.999849 0.995679 0.897054
0.994668 0.996112 0.86727
0.998066 0.994871 0.971718
1.0005 0.995547 0.989085
1.00511 0.995149 0.990816
0.996214 0.995892 0.975566
1.00337 0.9963 0.988862
1.00125 0.995889 0.948593
0.999831 0.996992 0.897384
0.99467 0.996606 0.856744
0.99867 0.99494 0.979228
1.00002 0.997649 0.949448
0.998182 0.99904 0.902505
0.994761 0.996156 0.864705
1.00002 1.00331 0.991466
0.99993 1.00227 0.99253
1.00012 1.00125 0.993377
1.00002 1.00224 0.992447
0.99977 1.00305 0.99211
1.00002 1.00359 0.991269
1.00014 1.00279 0.991806
1.00025 1.00308 0.991232
1.00007 1.00264 0.992071
0.99996 1.00243 0.992339
1.00469 0.994874 0.991665
1.00505 0.995115 0.990095
1.0044 0.995384 0.989895
1.0018 0.999702 0.99091
1.00077 1.00418 0.990331
0.999846 1.0051 0.990107
1.00015 1.00296 0.991761
0.999828 1.00337 0.991735
1.00333 0.995508 0.99209
0.999912 1.00463 0.990289
0.999507 1.00437 0.991009
1.00479 0.996006 0.990265
1.00439 0.995314 0.990894
1.00147 0.999294 0.992352
0.999764 1.00489 0.990818
1.00073 0.997194 0.99232
1.00298 0.995934 0.993824
1.00041 1.00107 0.992554
0.999469 1.00477 0.990158
0.999625 1.00503 0.990136
0.999297 1.0051 0.99094
0.994745 0.996197 0.884012
0.999847 0.994865 0.910498
1 0.994899 0.944814
0.999612 1.00392 0.991482
1.00114 1.00222 0.990414
1.00156 1.00005 0.991428
1.0024 1.00027 0.990724
0.999826 0.995185 0.912305
1.00009 0.996535 0.942216
0.994891 0.995028 0.965061
0.996777 1.00213 0.990778
0.997952 0.998824 0.893503
0.994704 0.996028 0.866359
0.994782 0.996269 0.869539
0.999127 1.00345 0.992818
0.994801 0.995447 0.874381
0.99484 0.996697 0.881798
0.999362 1.00158 0.993672
0.999375 1.00276 0.992975
0.995743 0.999678 0.992918
0.99488 0.997729 0.967093
0.997424 0.999459 0.949548
0.997095 0.999908 0.898443
0.994818 0.994788 0.876148
0.997531 1.00385 0.995414
0.99483 0.996013 0.891566
0.9948 0.994767 0.886997
0.99571 1.00207 0.999593
0.994842 0.999649 0.9746
0.994911 0.999968 0.950326
0.994847 0.999494 0.894881
0.994868 0.994809 0.874274
0.999762 1.00238 0.993013
0.998613 1.00421 0.993264
0.996894 1.00508 0.995097
1.00037 1.00336 0.990846
1.00045 1.00353 0.990595
1.00002 1.00361 0.991049
0.998582 1.00475 0.992085
1.00053 1.00389 0.990061
1.00002 1.00393 0.99091
0.997361 1.00486 0.994348
0.995206 1.0053 0.997128
0.998022 1.00469 0.993793
1.00036 1.00396 0.990372
1.00042 1.00339 0.990809
1.00006 1.00315 0.991577
0.999747 1.00292 0.99228
0.999855 1.00352 0.991386
0.999817 1.00372 0.991388
0.999632 1.00308 0.992283
0.999981 1.00323 0.991776
0.998459 1.00353 0.993552
1.00138 1.00006 0.991973
1.00029 1.00266 0.991662
1.00052 1.00354 0.99013
1.00201 1.00426 0.98711
0.99992 1.00484 0.990478
1.00009 1.00457 0.989705
0.999717 1.00441 0.99081
0.999636 1.00411 0.991086
0.999873 1.00409 0.990999
0.999899 1.00354 0.991451
0.999976 1.00259 0.992213
1.00008 1.00308 0.991685
1.0001 1.00218 0.992455
1.00023 1.00066 0.993689
1.00019 1.00205 0.992455
1.00022 1.00069 0.993721
1.00015 0.998381 0.996669
1.00014 1.00078 0.993744
1.00014 0.998381 0.996385
1.00003 0.996912 0.997948
1.00013 0.998369 0.996118
1.00004 0.996854 0.998559
1.00002 0.996867 0.999142
1.00014 1.00207 0.992501
1.00006 1.00018 0.99451
1.00008 1.00166 0.993025
1.00011 0.997838 0.996712
1.00001 1.00004 0.994699
1.00006 1.00148 0.993223
1.00003 0.996489 0.999283
1.00011 0.997774 0.996777
1.00002 0.999916 0.994799
1.00011 0.997748 0.996781
1.00001 0.996525 0.999288
0.999981 0.996566 0.999285
0.994689 0.994843 0.873743
0.999867 0.995476 0.903735
0.994811 0.997033 0.881013
0.994675 0.996168 0.864775
0.995965 0.995579 0.972958
1.00343 0.99618 0.989254
1.00008 0.99623 0.946777
0.999823 0.997248 0.908562
0.994699 0.996746 0.845577
0.998305 0.995651 0.978386
1.0014 0.997449 0.938547
0.998378 0.999357 0.90325
0.994784 0.9966 0.859232
0.995659 0.995944 0.973227
0.997726 0.998859 0.940281
0.995518 0.999872 0.893488
0.994841 0.994803 0.863857
1.00007 1.00414 0.990782
0.999995 1.0032 0.991601
0.999916 1.00231 0.992608
0.99975 1.00292 0.992305
1.00039 1.00386 0.990195
1.00001 1.0034 0.991402
0.999999 1.00299 0.991753
1.00045 1.00305 0.991107
1.00027 1.00312 0.991315
1.00008 1.00258 0.991969
1.00344 0.994889 0.992343
1.00484 0.995415 0.990123
1.00458 0.995287 0.990749
1.00147 0.999044 0.992402
1.00012 1.0046 0.990802
0.999608 1.0045 0.990914
0.999813 1.00478 0.990162
0.999945 1.00489 0.989954
1.00072 0.996764 0.992624
0.999871 1.00495 0.990037
0.999603 1.00508 0.990918
1.00312 0.995619 0.993752
1.00108 1.00044 0.99236
0.998402 0.996916 0.993756
0.998283 0.998474 1.00005
0.998482 1.00359 0.992861
1 1.0048 0.989971
0.999293 1.00502 0.990972
0.994839 0.996117 0.896098
0.994745 0.996128 0.881379
0.999835 0.994852 0.90006
0.998889 1.00334 0.992766
0.999208 1.00258 0.992974
0.999479 1.00138 0.993796
0.994703 0.994855 0.874745
0.997396 0.998825 0.940994
0.994862 0.997237 0.967276
0.996005 0.998179 0.995944
0.995269 0.999877 0.910439
0.994845 0.996916 0.881508
0.994833 0.994804 0.876442
0.997502 1.00379 0.995661
0.99482 0.995434 0.89441
0.994782 0.994766 0.887086
0.995863 1.00227 0.998587
0.994873 0.99934 0.976133
0.996082 0.99983 0.940964
0.994859 0.994811 0.873992
0.994843 0.999947 0.902232
0.995635 1.00484 0.998335
0.994722 0.994794 0.904727
0.99481 0.994777 0.890159
0.994834 0.994793 0.864495
0.995128 1.00023 0.99262
0.994943 0.999735 0.953653
0.994969 0.999829 0.902577
0.998974 1.00402 0.993604
0.997469 1.0051 0.994256
0.995199 1.0051 0.998462
1.00049 1.00393 0.990047
0.999959 1.00402 0.990851
0.99739 1.00474 0.994765
1.00022 1.00395 0.990431
0.998024 1.00455 0.993837
0.995539 1.00531 0.996842
0.995217 1.00516 0.998287
0.997885 1.00444 0.993756
0.999849 1.00346 0.991518
0.999857 1.0037 0.991399
0.999673 1.00319 0.992334
0.998696 1.00367 0.993409
0.999878 1.00316 0.99177
0.999621 1.00246 0.993056
1.00058 1.00053 0.993007
1.00143 1.00191 0.989644
1.00033 1.00249 0.991799
1.00097 1.00347 0.989823
1.0027 1.0032 0.986619
1.00271 1.00346 0.986502
1.00044 1.00469 0.989495
1.00168 1.00421 0.98719
0.999867 1.00479 0.990375
0.999819 1.00487 0.990431
0.999914 1.00463 0.990077
0.999849 1.00433 0.990853
0.999698 1.00398 0.991187
0.99997 1.00294 0.991859
0.999983 1.00344 0.991451
1.00003 1.00253 0.992217
1.00019 1.00089 0.993521
1.00014 1.00216 0.992448
1.00024 1.00066 0.993683
1.00012 0.998383 0.99668
1.00022 1.00067 0.993728
1.00015 0.99836 0.996374
0.999999 0.99699 0.99795
1.00016 0.998333 0.996092
1.00002 0.996918 0.998543
1.00001 0.996889 0.999139
1.0003 1.00225 0.99189
1.0001 1.00049 0.993896
1.00017 1.00206 0.9925
1.00013 0.997933 0.996578
1.00005 1.00019 0.994369
1.00009 1.00165 0.99285
1.00003 0.996543 0.999265
1.00011 0.997826 0.996717
1.00001 1.00002 0.994701
1.00003 0.9965 0.999285
1.0001 0.997773 0.996778
1.00001 0.996524 0.999289
0.994819 0.994816 0.891348
0.994698 0.995437 0.880135
0.999849 0.995663 0.904506
1.00057 1.00317 0.99068
0.994789 0.99528 0.892689
0.994808 0.996384 0.88084
0.994704 0.996156 0.870237
0.998444 0.995945 0.977091
0.999615 0.998065 0.948692
0.998065 0.998769 0.891796
0.994777 0.996549 0.862717
0.996553 0.995439 0.96951
0.997428 0.999009 0.949068
0.996874 0.999897 0.897592
0.994826 0.994989 0.866869
0.994866 0.996251 0.965403
0.995295 0.999931 0.948617
0.994876 0.999983 0.902926
0.994875 0.994823 0.873997
1.00014 1.00455 0.989963
1.00005 1.00418 0.990601
1.00003 1.0031 0.991735
1.00038 1.00387 0.990265
1.00029 1.00397 0.990389
1.00003 1.00335 0.991534
1.00049 1.00303 0.991131
1.00027 1.00314 0.991396
1.00036 0.99703 0.992856
1.00329 0.995516 0.993639
1.00008 1.00503 0.98975
1.0017 1.00015 0.992155
0.999896 1.0051 0.990895
1.00002 1.00501 0.989937
0.99992 1.00483 0.989972
0.997663 0.997356 0.994378
0.999566 1.00483 0.991085
0.999232 1.0034 0.992923
0.99831 0.99805 1.00006
0.999989 1.00486 0.990123
0.99602 0.999071 0.993439
0.994978 1.0012 1.00259
0.997777 1.0051 0.993116
0.999639 1.00471 0.99112
0.994715 0.994771 0.909908
0.994838 0.996113 0.895919
0.994738 0.996093 0.878732
0.997447 1.00381 0.995931
0.995735 1.00201 0.997571
0.994827 0.994812 0.897172
0.995022 0.999988 0.950537
0.99489 0.998891 0.973276
0.994847 0.999954 0.901676
0.994774 0.994763 0.887139
0.994848 0.994815 0.87371
0.995882 1.00473 0.997931
0.994734 0.994797 0.904534
0.994805 0.994766 0.893855
0.994963 1.00097 0.995972
0.994815 0.995119 0.867256
0.994909 0.998974 0.948002
0.994958 0.999829 0.907162
0.995077 1.00411 0.998616
0.994748 0.994794 0.908744
0.994779 0.995508 0.893114
0.994744 0.996261 0.864992
0.995736 0.99998 0.90245
0.994898 0.999836 0.982168
0.994957 1.0003 0.940675
0.998119 1.00506 0.993415
0.995513 1.00502 0.997966
0.994961 1.00506 0.999602
1.00006 1.00396 0.99049
0.998008 1.00444 0.993883
0.996037 1.00529 0.996564
0.998128 1.00437 0.993644
0.995332 1.00461 0.998237
0.997572 1.00327 0.996364
0.998964 1.00373 0.993262
0.999684 1.00317 0.991765
0.999675 1.00264 0.993186
0.999406 1.00349 0.991404
0.999771 1.00095 0.994023
1.00129 1.00176 0.990196
1.00301 1.00272 0.98656
1.00442 1.00202 0.984799
1.00143 1.00341 0.989511
1.00311 1.00331 0.985809
1.00365 1.0027 0.986431
1.00127 1.00408 0.988048
1.00263 1.00342 0.986687
0.999941 1.00503 0.989733
1.00047 1.0047 0.989447
1.00135 1.00417 0.987272
0.999986 1.00348 0.991242
0.99977 1.00471 0.99047
0.999738 1.00487 0.990382
0.999771 1.00385 0.991287
1.00002 1.00291 0.991857
1.00019 1.00123 0.993189
1.00009 1.00249 0.992222
1.00021 1.00089 0.993515
1.00008 0.998529 0.996063
1.00025 1.00069 0.993678
1.00015 0.99838 0.996093
0.99988 0.997053 0.999138
1.00017 0.998343 0.996079
0.999977 0.996996 0.998536
0.999985 0.996948 0.99913
1.00032 1.00246 0.991582
1.00021 1.00081 0.993409
1.00026 1.00229 0.991992
1.00015 0.998099 0.996387
1.00013 1.00049 0.993837
1.00016 1.00208 0.992497
1.00003 0.996609 0.999234
1.00013 0.997922 0.996589
1.00006 1.00021 0.994228
1.00003 0.996518 0.999271
1.00011 0.997813 0.996723
1.00002 0.996514 0.999287
0.994737 0.994785 0.905954
0.994815 0.995442 0.891213
0.994696 0.996044 0.880346
1.00049 1.0032 0.990776
1.00046 1.00338 0.990512
1.00053 1.0036 0.990434
0.994816 0.994771 0.889655
0.994786 0.995221 0.892736
0.994804 0.996216 0.88066
0.996424 0.994865 0.971762
0.998285 0.999252 0.939005
0.995177 0.999909 0.909816
0.994842 0.995589 0.862987
0.994886 0.996372 0.968815
0.995959 0.999945 0.945226
0.994821 0.999778 0.902493
0.994866 0.994819 0.873595
0.9949 0.996625 0.964704
0.994907 0.999597 0.95041
0.995005 0.999935 0.902692
0.994856 0.994802 0.868876
1.00036 1.0042 0.989923
1.00022 1.00455 0.989829
1.00019 1.00413 0.990421
1.00048 1.00373 0.990237
1.00014 1.00401 0.990585
1.00051 1.00304 0.991156
0.997047 0.997711 0.994994
0.998003 0.997691 1.00011
1.00002 1.00461 0.989972
0.999889 1.00289 0.992991
0.999635 1.00476 0.991197
0.999941 1.00471 0.990085
0.999283 1.00472 0.991248
0.995725 0.998971 0.993728
0.997843 1.00513 0.993779
0.995283 1.00136 1.00153
0.999559 1.00421 0.991363
0.995126 0.998791 0.993071
0.995926 1.00225 0.99823
0.998195 1.00518 0.9936
0.994739 0.994741 0.913991
0.994719 0.994766 0.910937
0.994835 0.996077 0.89573
0.996054 1.00472 0.99751
0.994912 1.00102 0.992837
0.994741 0.9948 0.904346
0.994865 0.999244 0.949754
0.994954 0.99982 0.896159
0.9948 0.994761 0.89754
0.994842 0.995863 0.863518
0.995163 1.00388 0.999079
0.994744 0.9948 0.910254
0.994785 0.995347 0.893176
0.994915 0.999704 0.978807
0.994777 0.996831 0.859613
0.994807 0.999969 0.901717
0.994929 0.999993 0.951112
0.995132 1.00486 0.994741
0.994737 0.994791 0.906303
0.994825 0.997369 0.881505
0.994638 0.996877 0.868351
0.99587 0.999181 0.893354
0.995852 0.999948 0.948833
0.994933 1.00046 0.972863
0.995933 1.00502 0.997479
0.99527 1.00412 0.99954
0.996749 1.00318 0.998142
0.9983 1.00441 0.993535
0.995544 1.00412 0.998209
0.996566 1.00418 0.996737
0.999739 1.00091 0.995228
0.999739 1.00292 0.993316
1.00077 1.00303 0.991017
1.00189 1.00393 0.987486
1.00112 1.00165 0.990769
1.00315 1.0028 0.986413
1.00407 1.00387 0.983588
1.00488 1.00173 0.9842
1.00418 1.00193 0.985298
1.0044 1.00222 0.984606
1.00356 1.00339 0.984998
1.00313 1.00285 0.986937
1.00336 1.00258 0.986605
1.00061 1.00462 0.98855
1.0014 1.00409 0.988206
1.00258 1.00341 0.986873
0.999959 1.00448 0.990142
1.0001 1.00498 0.98973
1.00047 1.00474 0.989397
1.00017 1.00172 0.992744
1.00009 1.00343 0.991229
0.999671 1.00464 0.990565
1.00008 1.00287 0.991856
1.00021 1.00124 0.993182
0.999998 0.998775 0.995952
1.00022 1.0009 0.993508
1.00008 0.998535 0.996054
0.999823 0.997213 0.999125
1.00015 0.998376 0.996089
0.999915 0.997084 0.998542
0.999942 0.997033 0.999127
1.00035 1.00279 0.991419
1.0003 1.00103 0.993223
1.00036 1.00245 0.991646
1.00017 0.998289 0.996148
1.0002 1.0008 0.993493
1.00028 1.0023 0.992096
1.00003 0.996736 0.999191
1.00015 0.998071 0.996403
1.00015 1.00049 0.993777
1.00004 0.996602 0.999243
1.00013 0.997913 0.996601
1.00004 0.996517 0.999278
0.994753 0.994799 0.90839
0.994741 0.994801 0.905769
0.994809 0.996047 0.891186
1.00033 1.00382 0.990269
1.00058 1.00393 0.989985
1.00043 1.00325 0.990874
1.00041 1.00351 0.99048
1.00038 1.00371 0.990407
1.00029 1.00401 0.990235
1.00037 1.00388 0.990225
0.994803 0.994761 0.886484
0.994811 0.994769 0.893411
0.994782 0.994753 0.892799
0.994851 0.994813 0.873225
0.994898 0.996171 0.965905
0.995175 0.999941 0.942191
0.994865 0.999559 0.910008
0.994952 0.99708 0.963798
0.994883 0.999887 0.941457
0.994953 0.999816 0.90761
0.994823 0.994789 0.876041
0.995085 0.996308 0.967744
0.994918 0.999995 0.9414
0.994835 0.999751 0.895493
0.994785 0.997331 0.863894
0.999583 1.00498 0.990637
1.00022 1.00439 0.989961
1.00027 1.00471 0.989694
1.00059 1.00362 0.990209
0.995522 0.998952 0.994149
0.995452 1.00261 1.00046
0.999897 1.00492 0.990048
0.999228 1.00473 0.991376
0.998286 1.00511 0.994434
0.99954 1.00439 0.991315
0.99789 1.00517 0.993604
0.994958 1.00032 0.990174
0.995403 1.00357 0.998511
0.99756 1.00486 0.994359
0.995005 0.998748 0.989256
0.997318 1.00412 0.997311
0.99471 0.994782 0.910038
0.994734 0.994739 0.916813
0.994723 0.994755 0.911961
0.995012 1.00359 0.999493
0.994934 0.998502 0.982869
0.994737 0.994797 0.911802
0.995904 0.999908 0.941332
0.994838 0.99988 0.909227
0.994792 0.994751 0.893248
0.994769 0.996922 0.863188
0.994953 1.00382 0.995394
0.99474 0.994797 0.906134
0.994803 0.996598 0.881336
0.994912 1.00056 0.973733
0.994662 0.996748 0.857671
0.996902 0.999895 0.897167
0.994868 0.999857 0.940731
0.995467 1.00472 0.989465
0.994817 0.994823 0.892033
0.994653 0.996205 0.868124
0.998578 0.997991 0.903152
0.995167 0.999962 0.948534
0.99496 1.00007 0.96641
0.995304 1.00332 0.999679
0.996041 1.00385 0.998119
0.997328 1.00112 0.998053
0.995621 1.00489 0.997106
0.998553 1.00113 0.995628
1.00278 0.999438 0.99148
1.00216 1.00246 0.99063
1.00233 1.00372 0.987442
1.00302 1.00431 0.984481
1.00326 1.00289 0.986268
1.00441 1.00384 0.983191
1.00431 1.00429 0.982662
1.00495 1.00116 0.984766
1.00504 1.0012 0.984602
1.00481 1.00189 0.984168
1.00398 1.00172 0.985667
1.00418 1.00184 0.985452
1.00435 1.00246 0.984413
1.00244 1.00401 0.986734
1.00299 1.00281 0.986909
1.00303 1.00246 0.986777
1.0004 1.00498 0.988887
1.00065 1.00466 0.988773
1.00155 1.00407 0.988367
1.00005 1.00264 0.991923
1.00015 1.00437 0.990163
1.00025 1.00492 0.989727
0.999911 0.999051 0.995813
1.0002 1.00171 0.992726
1.00018 1.00341 0.991217
1.00022 1.00123 0.993175
0.999995 0.998801 0.995938
0.999741 0.997424 0.999105
1.00009 0.998533 0.996044
0.999816 0.997252 0.999121
0.999883 0.997112 0.99913
1.00034 1.00397 0.99023
1.00046 1.00303 0.991037
1.00033 1.0014 0.992803
1.00037 1.00277 0.991408
1.00017 0.998545 0.995891
1.00029 1.00105 0.993222
1.00032 1.00252 0.99171
1.00001 0.996884 0.999135
1.00016 0.998285 0.996165
1.0002 1.00081 0.993575
1.00003 0.996703 0.999204
1.00015 0.998054 0.996418
1.00004 0.996571 0.999253
0.99471 0.994788 0.904369
0.994746 0.994799 0.909937
0.994746 0.994821 0.905563
1.00041 1.0038 0.990296
1.00045 1.00399 0.990004
1.00026 1.00364 0.9903
1.00016 1.00427 0.990006
1.00051 1.00436 0.989974
1.00041 1.00358 0.990448
1.00032 1.00382 0.99038
1.00036 1.00395 0.990241
1.00041 1.00398 0.990275
1.00007 1.00467 0.990231
0.994787 0.997041 0.881304
0.99478 0.994763 0.886634
0.994814 0.994766 0.897143
0.994832 0.994799 0.876339
0.994994 0.999928 0.896327
0.994916 0.998292 0.962247
0.994903 0.999964 0.950194
0.995105 0.996543 0.964569
0.994917 0.9995 0.950767
0.99485 0.999972 0.903386
0.994801 0.997027 0.861819
0.99499 0.99505 0.969456
0.994911 0.999997 0.950703
0.995386 0.999872 0.90892
0.994702 0.996598 0.867089
0.998715 1.00385 0.992859
0.999713 1.00485 0.990578
1.00023 1.0044 0.990001
0.994957 1.00094 0.9871
0.995353 1.00407 0.998796
0.999484 1.00439 0.991266
0.997187 1.0052 0.993609
0.997662 1.0045 0.994378
0.996399 1.00369 0.997382
0.99497 0.999066 0.98932
0.996054 1.00199 0.998669
0.995997 0.99986 0.990346
0.994835 0.995791 0.895705
0.994718 0.994775 0.911034
0.994732 0.994742 0.919639
0.99498 1.0027 0.995695
0.994933 1.00095 0.970338
0.994744 0.994822 0.905938
0.995877 0.999974 0.947971
0.995019 0.999899 0.909344
0.994781 0.996373 0.881177
0.9947 0.996772 0.846743
0.995434 1.00487 0.989999
0.99481 0.995228 0.891907
0.994675 0.996289 0.865646
0.994949 1.00005 0.967394
0.99842 0.999159 0.903882
0.995992 0.99995 0.944045
0.994989 1.00465 0.98708
0.99469 0.99484 0.874674
0.999772 0.997553 0.908865
0.997629 0.998731 0.940204
0.994898 0.997446 0.969193
0.995501 1.00474 0.998086
0.997238 1.00143 0.997985
1.0013 1.002 0.992066
0.997392 1.00144 0.995959
1.00167 0.99991 0.991609
1.0038 0.999425 0.988407
1.00272 1.00349 0.987394
1.0031 1.00418 0.984492
1.00437 1.0017 0.984736
1.00476 1.00386 0.982795
1.00435 1.00391 0.98276
1.00476 1.00099 0.98512
1.00513 0.999121 0.986295
1.00508 1.00059 0.98496
1.00489 1.00105 0.984854
1.00506 1.00143 0.984506
1.00502 1.00124 0.984583
1.00474 1.00202 0.984135
1.0038 1.0027 0.985597
1.00394 1.00177 0.985803
1.00421 1.00177 0.985608
1.00156 1.00422 0.98771
1.00222 1.00395 0.986907
1.00284 1.00281 0.98688
1.00005 1.00406 0.990408
1.00055 1.00493 0.988907
1.00072 1.00472 0.988995
0.999834 0.999589 0.996052
1.00013 1.00266 0.991895
1.00033 1.00424 0.990185
0.999672 0.997675 0.997813
0.999908 0.999146 0.99606
1.00023 1.0017 0.992708
0.99999 0.998833 0.995923
0.999738 0.997463 0.999095
0.999809 0.997279 0.999115
1.00025 1.00422 0.990123
1.00043 1.00343 0.990692
1.00028 1.00404 0.990195
1.00036 1.00175 0.992408
1.00037 1.00315 0.99103
1.00014 0.998856 0.995629
1.00033 1.00139 0.992806
1.00043 1.0027 0.991396
0.999985 0.997083 0.999076
1.00017 0.998527 0.995906
1.00027 1.00107 0.993221
1.00001 0.996871 0.999152
1.00015 0.998273 0.996181
1.00003 0.996686 0.999217
0.994844 0.994846 0.897719
0.994728 0.994794 0.904194
0.994736 0.994797 0.911508
1.00058 1.00312 0.990518
1.00036 1.00392 0.990324
1.00035 1.004 0.990023
1.00031 1.0043 0.98999
1.00054 1.0035 0.990351
1.00039 1.00412 0.990226
1.00086 1.00401 0.989338
0.999735 1.00475 0.990066
1.00043 1.00385 0.990247
1.00012 1.00407 0.990325
0.99993 1.00459 0.990216
0.999376 1.0049 0.991574
0.995093 0.996392 0.868465
0.994919 0.996996 0.880941
0.994767 0.994764 0.886749
0.994793 0.996575 0.868691
0.994853 0.999953 0.903199
0.994968 0.999852 0.941455
0.995026 0.996408 0.963241
0.994906 0.995096 0.971003
0.994709 0.996772 0.856586
0.994891 0.999739 0.945547
0.996932 0.999912 0.897548
0.994867 0.996233 0.971626
0.995201 0.99996 0.950895
0.999077 0.998533 0.89974
0.999167 1.00155 0.995088
0.99888 1.00392 0.992814
0.999603 1.0048 0.990518
0.994885 0.999394 0.98955
0.995659 1.0033 0.997449
0.997658 1.00418 0.994394
0.997234 1.00184 0.998523
0.995517 0.999689 0.990448
0.996952 0.998699 0.9936
0.994748 0.99712 0.878086
0.994828 0.995359 0.89912
0.994729 0.99476 0.912027
0.995268 1.00484 0.990301
0.99489 1.00005 0.967434
0.994801 0.995704 0.891883
0.995049 0.999973 0.94148
0.998423 0.997933 0.892668
0.994704 0.996261 0.87117
0.995026 1.00486 0.987049
0.9947 0.995267 0.881015
0.999822 0.996348 0.898584
0.995031 0.997164 0.965307
0.997438 0.999002 0.948874
0.996474 1.00256 0.99086
0.999839 0.995543 0.897793
1.00001 0.997569 0.949383
0.994891 0.995529 0.964813
0.996946 1.00173 0.998025
1.00065 1.00134 0.992235
1.00301 1.0017 0.988745
1.0006 1.0005 0.991746
1.00315 1.00021 0.988395
1.00453 0.998501 0.987785
1.00318 1.00407 0.984503
1.00424 1.00175 0.984717
1.00498 0.997787 0.98738
1.00439 1.0035 0.982856
1.0047 1.0008 0.985165
1.00508 0.997399 0.987963
1.00512 0.997356 0.988146
1.00516 0.999382 0.986019
1.00513 0.998989 0.98643
1.0051 1.00075 0.984848
1.00506 1.0006 0.985031
1.00485 1.00094 0.984943
1.00489 1.00126 0.985024
1.00493 1.00138 0.98464
1.00499 1.00125 0.984562
1.00296 1.00318 0.98643
1.00375 1.00266 0.98559
1.00393 1.00178 0.985937
1.00068 1.0047 0.988865
1.00165 1.0043 0.987682
1.00201 1.00387 0.987081
0.999773 1.00043 0.994593
1.00027 1.0039 0.990407
1.00075 1.00487 0.988925
0.999585 0.997964 0.999009
0.999822 0.999685 0.995346
1.00021 1.00265 0.991866
0.999676 0.997665 0.999065
0.999881 0.999217 0.995736
0.999737 0.997513 0.999086
1.00074 1.0037 0.989902
1.00031 1.00421 0.990072
1.00044 1.00378 0.990322
1.00031 1.00218 0.992059
1.00038 1.00347 0.990685
1.0003 1.00402 0.990161
1.00012 0.999162 0.995366
1.00033 1.00178 0.992411
1.00031 1.00325 0.991023
0.999948 0.997308 0.99901
1.00015 0.998816 0.995643
1.00033 1.00139 0.992809
0.999987 0.997046 0.999093
1.00016 0.998511 0.995922
1.00001 0.996827 0.999169
0.995135 0.995945 0.86809
0.994944 0.994827 0.897623
0.994737 0.994802 0.904022
1.00041 1.00343 0.990459
1.00149 1.00305 0.990097
1.0006 1.00361 0.990102
1.00036 1.00439 0.989974
1.00082 1.00336 0.990402
1.00012 1.00391 0.990476
0.999937 1.00478 0.989992
1.00067 1.00411 0.989475
1.00045 1.00471 0.989368
0.999966 1.00075 0.993681
1.00013 1.00453 0.9902
0.999457 1.00476 0.991239
0.999792 0.997344 0.893483
0.994892 0.996359 0.862942
0.995126 0.997123 0.880671
0.994711 0.997036 0.845781
0.996573 0.9991 0.909063
0.994847 0.999953 0.943198
0.994891 0.995296 0.968802
0.994915 0.996172 0.970336
0.998419 0.999462 0.902405
0.996018 0.999939 0.941913
0.994893 0.997496 0.971763
0.998514 0.998914 0.94016
1.00186 0.997786 0.994437
0.999113 1.00169 0.994941
0.999023 1.00408 0.992783
0.995014 0.999537 0.990502
0.998196 1.00171 0.998366
0.997561 0.998769 0.993144
0.998901 0.998315 0.990766
0.999866 0.994855 0.906857
0.994744 0.99645 0.878037
0.994813 0.994835 0.902439
0.995236 1.00506 0.987189
0.995012 0.997009 0.963172
0.994698 0.995604 0.881165
0.998696 0.998598 0.939154
0.999834 0.996779 0.909672
0.996046 1.00207 0.988615
0.99986 0.995322 0.904556
1.00149 0.997116 0.938928
0.994945 0.995537 0.96826
0.998295 0.997182 0.991231
1.00002 0.995781 0.950214
0.996284 0.995809 0.970659
0.999855 1.00077 0.992337
1.00282 1.00029 0.988741
1.00488 0.997962 0.988938
1.00249 1.00086 0.988389
1.00427 0.998662 0.987792
1.00489 0.996356 0.989156
1.00422 1.00178 0.9847
1.00493 0.998093 0.9873
1.00509 0.995719 0.989488
1.00464 1.00061 0.98521
1.00508 0.997416 0.987947
1.00512 0.995825 0.989608
1.00511 0.996424 0.989363
1.00513 0.997173 0.988362
1.00513 0.998049 0.987639
1.00516 0.999829 0.985806
1.00516 0.999452 0.986064
1.00512 0.998857 0.986566
1.00514 1.00068 0.985053
1.00511 1.00075 0.984836
1.00506 1.00059 0.985101
1.00417 1.00195 0.985569
1.00478 1.00137 0.985022
1.00477 1.00139 0.984775
1.00162 1.00404 0.987911
1.003 1.00321 0.986421
1.00369 1.00264 0.985581
0.999956 1.00132 0.993354
1.00082 1.00445 0.988871
1.0018 1.00429 0.987655
0.999637 0.998287 0.998853
0.999801 1.00052 0.994537
1.00045 1.0038 0.990408
0.999628 0.997988 0.99832
0.999814 0.999773 0.995328
0.999692 0.997738 0.999036
1.00108 1.00299 0.990015
1.00046 1.00386 0.99001
1.00037 1.00416 0.989935
1.0004 1.0042 0.990022
1.00035 1.00387 0.990319
1.00029 1.00259 0.991683
1.00005 0.999509 0.995136
1.00031 1.00216 0.992062
1.0003 1.00356 0.990679
0.999899 0.997536 0.99894
1.00011 0.999148 0.995378
1.00031 1.0018 0.992415
0.99995 0.997263 0.99903
1.00015 0.998787 0.995657
0.999989 0.997026 0.999111
0.999823 0.995056 0.905304
0.995 0.995952 0.871123
0.994956 0.994807 0.897503
1.00028 1.00372 0.9904
1.00057 1.00417 0.989526
1.00112 1.00298 0.990362
1.00258 1.00341 0.987114
1.00054 1.00408 0.989948
1.0001 1.0048 0.989919
1.00056 1.0042 0.989614
1.00022 1.00464 0.989621
1.00093 1.00342 0.988786
1.00135 0.999751 0.992856
1.00416 0.997102 0.990159
1.00023 1.00045 0.99375
0.99991 1.00401 0.9909
0.998701 0.997395 0.949248
0.999776 0.997818 0.89822
0.994823 0.996276 0.864986
0.998984 0.999766 0.890627
0.995567 0.999954 0.948343
0.994873 0.996099 0.971481
0.994877 0.997475 0.973516
0.997417 0.998805 0.950639
0.995883 0.997397 0.972898
1.00225 0.996074 0.994604
1.00115 0.998516 0.994516
0.999115 1.00187 0.994784
0.99832 0.998522 0.992779
0.999443 0.998255 0.990412
0.999986 0.994922 0.94464
0.999854 0.994883 0.910575
0.994762 0.99588 0.878099
0.995631 1.00146 0.9863
0.995085 0.995189 0.965083
0.99985 0.995548 0.905323
1.00043 0.997632 0.948389
0.997403 0.998363 0.991605
1.00123 0.995855 0.948531
0.996695 0.995211 0.96769
1.0014 0.996287 0.990313
0.999111 0.995625 0.9768
1.00268 0.999001 0.988816
1.00479 0.996951 0.988873
1.005 0.995848 0.990251
1.00401 0.998817 0.987796
1.00474 0.996532 0.989082
1.00516 0.994987 0.990146
1.00481 0.998409 0.987221
1.00509 0.995794 0.989442
1.00508 0.995009 0.990404
1.00508 0.997432 0.987931
1.00512 0.99586 0.989562
1.00514 0.995444 0.990157
1.00511 0.996181 0.989504
1.00511 0.99698 0.988799
1.00514 0.996989 0.988578
1.00513 0.998062 0.987615
1.00517 0.998909 0.986753
1.00518 1.0002 0.985478
1.00516 0.999873 0.985783
1.00515 0.999519 0.986109
1.00484 1.00078 0.98548
1.0051 1.00072 0.98502
1.00512 1.00074 0.984824
1.00269 1.00271 0.98733
1.00413 1.00201 0.985579
1.00465 1.00147 0.985023
1.00037 1.00176 0.992187
1.00168 1.00395 0.987899
1.00295 1.00334 0.986412
0.999759 0.998832 0.998556
1.00003 1.00133 0.993327
1.00101 1.00422 0.988877
0.999704 0.9984 0.998761
0.999846 1.0006 0.99448
0.999696 0.998024 0.998918
1.00261 1.00334 0.987082
1.00115 1.00285 0.989987
1.00054 1.00405 0.989575
1.00022 1.00397 0.990118
1.00031 1.0042 0.989903
1.00031 1.00306 0.991161
1.00028 1.00393 0.990316
1.00027 1.00259 0.99169
0.999976 0.999863 0.994921
0.999829 0.997809 0.998879
1.00005 0.999479 0.995146
1.0003 1.00215 0.992066
0.999901 0.997517 0.998962
1.0001 0.999137 0.995389
0.999955 0.997219 0.99905
1.00003 0.995347 0.953118
0.99984 0.99488 0.904484
0.994721 0.995953 0.867552
1.00053 1.00479 0.98895
1.00083 1.00285 0.990628
1.00079 1.00394 0.989819
1.00247 1.00343 0.987281
1.00407 1.00253 0.984827
1.00122 1.00356 0.988545
0.999974 1.00467 0.989872
1.00169 1.00336 0.987983
1.00105 0.999877 0.992934
1.00302 0.999885 0.98899
1.00475 0.996118 0.990862
1.00407 0.996532 0.99089
1.0037 0.997025 0.990755
0.999979 1.00059 0.993822
0.995988 0.995978 0.972205
1.00008 0.997226 0.946325
0.998062 0.997498 0.908891
0.997711 0.999439 0.940126
0.994867 0.997863 0.974173
0.995799 0.997617 0.97773
0.999656 0.997765 0.99224
1.00258 0.995728 0.994506
1.00072 0.99906 0.994595
1.00083 0.998359 0.990036
0.996436 0.997522 0.972966
1.00025 0.995022 0.954366
0.999839 0.994874 0.899984
0.996581 0.999409 0.991822
0.996878 0.994896 0.969631
1.00004 0.996656 0.946624
1.00088 0.996182 0.990428
0.998474 0.995777 0.976182
1.00366 0.995587 0.990845
1.00272 0.998314 0.987307
1.00472 0.996014 0.988774
1.00488 0.99568 0.990267
1.00517 0.994828 0.990611
1.00461 0.996704 0.989009
1.00517 0.994993 0.990102
1.00511 0.994925 0.990536
1.00508 0.995867 0.989395
1.00506 0.995098 0.990373
1.00515 0.995067 0.990452
1.00512 0.9959 0.989515
1.00513 0.99543 0.990087
1.00511 0.996024 0.989561
1.00511 0.995942 0.989644
1.00511 0.996836 0.988946
1.00516 0.998177 0.987593
1.00513 0.998075 0.987592
1.00517 0.998962 0.986726
1.0052 0.999671 0.986088
1.00505 1.00021 0.985608
1.00518 1.00025 0.985448
1.00516 0.999919 0.985759
1.00362 1.00133 0.98711
1.00483 1.00083 0.985484
1.00507 1.00077 0.984987
1.00078 1.00186 0.99138
1.00266 1.00277 0.987335
1.0041 1.00205 0.985587
0.999966 0.999384 0.998169
1.00047 1.00171 0.992178
1.00174 1.00384 0.987886
0.999865 0.998949 0.998411
1.00009 1.00135 0.9933
0.999792 0.998486 0.998646
1.00416 1.0026 0.985109
1.0027 1.00332 0.987096
1.00163 1.00411 0.987716
1.00114 1.0028 0.98996
1.00065 1.00398 0.989451
1.0006 1.00337 0.990418
1.00025 1.00424 0.989871
1.00029 1.00308 0.991165
0.999897 1.0003 0.994629
1.00025 1.00259 0.991697
0.999971 0.999824 0.994936
0.999754 0.998085 0.998819
0.999835 0.997764 0.998899
1.00005 0.999451 0.995157
0.999901 0.997463 0.998984
0.996806 0.994893 0.973787
1.0001 0.99561 0.943653
0.999825 0.995281 0.91204
1.00513 1.00086 0.984672
1.00104 1.00378 0.989688
1.00238 1.00346 0.98745
1.00164 1.00347 0.988275
1.00413 1.00266 0.984811
1.00361 1.00078 0.987222
1.0024 1.00337 0.987182
1.00075 0.999971 0.993018
1.00342 0.999674 0.988862
1.00465 0.995887 0.990656
1.00485 0.996416 0.989132
1.00414 0.995619 0.991926
1.00398 0.996162 0.990827
1.00321 0.996883 0.991352
0.999913 0.997042 0.992301
0.995788 0.995752 0.970498
0.999416 0.996502 0.944018
0.995449 0.997254 0.9763
0.999861 0.996852 0.99432
1.00232 0.995428 0.994395
1.00056 0.997577 0.986668
0.996379 0.996203 0.974405
0.999997 0.994892 0.944751
1.00006 0.996586 0.990612
0.998446 0.996187 0.975055
1.0032 0.995523 0.991181
1.00277 0.997729 0.987758
1.00444 0.994838 0.991222
1.00454 0.997563 0.99069
1.00477 0.995493 0.990282
1.00517 0.994837 0.990495
1.0052 0.994846 0.99041
1.00517 0.99501 0.990058
1.0051 0.994922 0.990527
1.00516 0.994928 0.990522
1.00505 0.995181 0.990342
1.00515 0.995037 0.990421
1.00514 0.995568 0.989993
1.00512 0.995408 0.990018
1.00513 0.996036 0.989546
1.00515 0.997279 0.988423
1.00512 0.996692 0.989094
1.00516 0.998037 0.987771
1.0052 0.999247 0.986496
1.00517 0.999014 0.986698
1.0052 0.999688 0.986055
1.00514 1.00004 0.98574
1.00406 1.00051 0.987142
1.00503 1.00028 0.985628
1.00518 1.00029 0.985417
1.00129 1.00136 0.991032
1.00356 1.00139 0.987119
1.00481 1.00087 0.985488
1.0001 0.999857 0.997849
1.00096 1.00164 0.991371
1.00263 1.00278 0.987341
1.00005 0.999482 0.998041
1.0006 1.0016 0.992173
0.999969 0.999054 0.998266
1.00504 1.00119 0.984657
1.00408 1.00255 0.985115
1.0032 1.00312 0.986071
1.00279 1.00329 0.987111
1.00173 1.00415 0.987665
1.00094 1.00402 0.989255
1.00078 1.00391 0.989326
1.00043 1.00358 0.990425
0.999877 1.00083 0.994136
1.00023 1.00313 0.99117
0.99989 1.00024 0.994651
0.999697 0.998403 0.998727
0.999966 0.999788 0.994951
0.999758 0.998037 0.998841
0.99984 0.997738 0.998917
1.00101 0.994899 0.990637
0.996758 0.994895 0.970351
0.999994 0.994909 0.953661
1.00478 0.999793 0.986154
1.00514 0.99939 0.986252
1.00509 1.00075 0.98482
1.00204 1.00333 0.988001
1.00417 1.00278 0.984792
1.00387 1.0006 0.987218
1.00506 0.997305 0.987974
1.00385 0.999452 0.988733
1.00448 0.995722 0.990442
1.00487 0.996483 0.989364
1.00499 0.995644 0.989837
1.00414 0.995447 0.991688
1.00387 0.995798 0.991795
1.00412 0.995889 0.990757
1.00018 0.996881 0.99243
0.995953 0.995672 0.968737
1.0002 0.996576 0.996477
1.00415 0.995631 0.991938
1.00045 0.997733 0.986854
0.996303 0.995835 0.972158
1.00308 0.994864 0.991489
1.00279 0.997627 0.988244
1.0045 0.994982 0.991574
1.00457 0.996773 0.990651
1.00523 0.994935 0.990409
1.00527 0.994973 0.990611
1.00518 0.994845 0.99038
1.00521 0.994866 0.990392
1.0052 0.994925 0.990381
1.0051 0.994922 0.990518
1.00516 0.994934 0.9905
1.00518 0.99522 0.990309
1.00515 0.995015 0.99039
1.00515 0.995585 0.98998
1.00514 0.996662 0.989045
1.00514 0.996049 0.989531
1.00515 0.997298 0.988425
1.00521 0.99879 0.986901
1.00516 0.997895 0.987949
1.0052 0.99919 0.986562
1.00516 0.999934 0.985812
1.0052 0.999707 0.986021
1.00512 1.00003 0.985762
1.00425 1.00016 0.987151
1.00156 1.00078 0.991084
1.00404 1.00054 0.987133
1.00501 1.00035 0.985649
1.00019 1.00019 0.997634
1.00134 1.00129 0.991031
1.00348 1.00149 0.987127
1.00016 0.999956 0.997753
1.00107 1.00153 0.991365
1.00013 0.999601 0.997918
1.00512 1.00028 0.985379
1.00505 1.0011 0.984692
1.00449 1.00133 0.985564
1.004 1.00248 0.98512
1.0032 1.00316 0.986081
1.00178 1.00379 0.987928
1.00181 1.0042 0.987614
1.00077 1.00413 0.989281
1.00008 1.00149 0.993209
1.0003 1.00375 0.990433
0.999856 1.00079 0.994158
0.999687 0.99882 0.998557
0.999885 1.00019 0.994672
0.999688 0.998339 0.998765
0.999762 0.997992 0.998861
1.00407 0.994882 0.992541
1.00099 0.995006 0.988919
0.996568 0.9949 0.969824
1.00511 0.998486 0.987281
1.00497 0.999413 0.986273
1.00521 0.998121 0.987433
1.00515 0.999364 0.986264
1.00505 1.00063 0.984969
1.00512 0.996482 0.988793
1.00416 1.00042 0.987215
1.00504 0.99754 0.987946
1.00515 0.995178 0.990068
1.00491 0.99652 0.989599
1.00496 0.995743 0.989723
1.00416 0.995544 0.991818
1.00341 0.995914 0.991655
1.00041 0.996756 0.992478
1.00523 0.99489 0.990483
1.00413 0.996307 0.992
1.00043 0.997516 0.987029
1.00455 0.995152 0.991918
1.00458 0.996018 0.990616
1.00522 0.994917 0.990454
1.00527 0.995029 0.990526
1.00522 0.994946 0.990595
1.00521 0.994884 0.990375
1.0052 0.994923 0.9904
1.0052 0.99501 0.990517
1.00516 0.994939 0.990478
1.00516 0.99523 0.990271
1.00515 0.996174 0.989491
1.00515 0.995607 0.989968
1.00514 0.996688 0.989043
1.00522 0.998355 0.98734
1.00515 0.997317 0.988428
1.00521 0.998794 0.986922
1.00519 0.999809 0.985922
1.0052 0.999131 0.986628
1.00516 0.999932 0.985832
1.00433 1.00008 0.987106
1.0051 1.00003 0.985784
1.00426 1.00016 0.987143
1.00165 1.00039 0.992685
1.0004 1.00007 0.994804
1.00162 1.00074 0.991778
1.00402 1.00057 0.987125
1.00022 1.00025 0.997593
1.00147 1.00112 0.991027
1.00021 1.00006 0.997665
1.00524 0.998016 0.987585
1.00521 0.999381 0.986247
1.00514 1.0003 0.985466
1.00488 1.00047 0.985724
1.00505 1.00102 0.984726
1.00456 1.00125 0.985545
1.00296 1.00229 0.987241
1.00321 1.00318 0.986091
1.00172 1.00386 0.987928
1.00053 1.00193 0.991961
1.00062 1.0043 0.989306
0.99996 1.00152 0.99324
0.999765 0.99941 0.998222
0.999834 1.00073 0.994179
0.999652 0.998719 0.998629
0.999686 0.998278 0.998797
1.0052 0.994882 0.990431
1.00442 0.994877 0.992478
1.00119 0.994918 0.987247
1.00514 0.997069 0.988337
1.00512 0.99843 0.987125
1.00513 0.999055 0.98639
1.0052 0.998244 0.987393
1.00516 0.999339 0.986275
1.00521 0.995501 0.989997
1.0051 0.996479 0.988751
1.00503 0.997789 0.987917
1.00515 0.995151 0.990074
1.00497 0.995844 0.989609
1.00418 0.995686 0.99197
1.00521 0.994903 0.990716
1.00523 0.994892 0.990643
1.0041 0.996988 0.992067
1.00522 0.994898 0.990494
1.00527 0.994969 0.990442
1.00523 0.994946 0.990544
1.00518 0.99494 0.990787
1.0052 0.994922 0.990419
1.00519 0.994991 0.990483
1.00515 0.995847 0.989865
1.00515 0.995237 0.990234
1.00516 0.996195 0.98949
1.00522 0.998016 0.9877
1.00514 0.996714 0.989041
1.00522 0.998359 0.987353
1.0052 0.99967 0.986062
1.0052 0.998797 0.986943
1.00518 0.999801 0.985939
1.00437 1.00008 0.987029
1.00515 0.99993 0.985851
1.00434 1.00006 0.987107
1.00177 1.00009 0.992809
1.00426 1.00017 0.987134
1.00181 1.0003 0.99261
1.00039 0.999988 0.994946
1.0002 1.0003 0.996212
1.00179 1.00067 0.992344
1.00022 1.00033 0.997564
1.00518 0.997375 0.988346
1.00523 0.999017 0.986516
1.00523 0.997825 0.987769
1.00503 1.00008 0.985778
1.00522 0.999455 0.986185
1.00516 1.00032 0.985552
1.00493 1.00041 0.985702
1.00381 1.0009 0.987135
1.00462 1.00117 0.985527
1.00303 1.00221 0.98722
1.00106 1.00176 0.991122
1.00163 1.00389 0.987927
1.00035 1.00209 0.991987
0.999908 1.00016 0.997805
0.999836 1.00158 0.993269
0.999678 0.999296 0.998362
0.999634 0.998625 0.998689
1.00521 0.994922 0.990463
1.00519 0.994884 0.990416
1.00469 0.994897 0.992383
1.00518 0.996181 0.989416
1.00513 0.997137 0.988321
1.00513 0.998376 0.98697
1.00518 0.99837 0.987354
1.0052 0.995512 0.989914
1.00508 0.996483 0.988707
1.00514 0.995139 0.99008
1.00516 0.994921 0.990844
1.0052 0.994908 0.990708
1.00521 0.994899 0.990803
1.00522 0.99495 0.990667
1.00523 0.994947 0.990493
1.00518 0.994965 0.990737
1.00515 0.995657 0.990201
1.00518 0.994971 0.990448
1.00517 0.995833 0.989865
1.00519 0.99781 0.987994
1.00517 0.996219 0.98949
1.00522 0.998017 0.987705
1.0052 0.999491 0.986257
1.00522 0.998364 0.987365
1.0052 0.999658 0.986075
1.00442 1.00006 0.986974
1.00518 0.999792 0.985957
1.00438 1.00007 0.987038
1.00184 1.00004 0.992756
1.00435 1.00005 0.987108
1.0019 1.00004 0.992708
1.00044 0.999886 0.995001
1.00196 1.0002 0.992544
1.0001 1.00015 0.995129
0.999775 1.00058 0.997878
1.00518 0.997291 0.988332
1.00522 0.998477 0.987185
1.00518 0.99743 0.988201
1.0052 0.999813 0.986042
1.00525 0.998818 0.986688
1.00522 0.997638 0.987951
1.00423 1.00026 0.987082
1.00509 1.00006 0.985746
1.00524 0.999527 0.986124
1.00499 1.00034 0.985681
1.00385 1.00085 0.987142
1.00142 1.00122 0.99099
1.0031 1.00212 0.987199
1.00095 1.00189 0.991125
0.999967 1.00069 0.997578
1.00019 1.0022 0.992015
0.999797 1 0.997965
0.999618 0.99913 0.998482
1.00516 0.995411 0.990248
1.00522 0.994917 0.990472
1.00519 0.994875 0.9904
1.00518 0.996082 0.989498
1.00512 0.997199 0.988305
1.00519 0.99552 0.98983
1.00521 0.994943 0.990755
1.00515 0.994928 0.99086
1.0052 0.994912 0.990699
1.00522 0.994945 0.990745
1.00522 0.995869 0.989857
1.00518 0.994995 0.990687
1.00516 0.995802 0.990011
1.00516 0.997428 0.988523
1.00519 0.995822 0.989865
1.00518 0.997786 0.987999
1.0052 0.99929 0.986478
1.00522 0.998009 0.98771
1.0052 0.999478 0.986266
1.00444 1.00001 0.98698
1.0052 0.999646 0.986088
1.00442 1.00006 0.986985
1.00189 1.00011 0.992592
1.00439 1.00005 0.987046
1.00196 0.999996 0.992634
1.00051 0.999884 0.994907
1.00202 0.999994 0.992617
1.00018 0.999936 0.995206
0.99982 1.00034 0.995295
1.00518 0.996609 0.989132
1.00521 0.998317 0.987348
1.00518 0.997095 0.988498
1.00522 0.999374 0.986451
1.00522 0.998573 0.987071
1.00519 0.997486 0.988055
1.0044 0.999937 0.9871
1.0052 0.999694 0.986032
1.00526 0.998622 0.986861
1.00161 1.00064 0.991188
1.00422 1.00024 0.987097
1.00515 1.00005 0.985713
1.00387 1.00081 0.987151
1.00135 1.00131 0.990994
0.999995 1.00084 0.997552
1.00084 1.00202 0.991134
0.99994 1.00054 0.997644
0.999691 0.999831 0.998126
1.00519 0.995182 0.990446
1.00516 0.995445 0.990193
1.00521 0.994912 0.990481
1.00518 0.995988 0.989581
1.0052 0.996038 0.989753
1.00521 0.994968 0.990772
1.00515 0.994937 0.990877
1.00523 0.99494 0.990823
1.00521 0.995837 0.989894
1.00519 0.99746 0.988436
1.00517 0.995931 0.989822
1.00515 0.997633 0.988248
1.00519 0.998908 0.986912
1.00518 0.997772 0.988004
1.00519 0.999285 0.986484
1.00446 0.999925 0.987031
1.0052 0.999472 0.986274
1.00444 1.00001 0.986989
1.00196 1.00017 0.991096
1.00442 1.00005 0.986996
1.002 1.00008 0.991802
1.00043 0.999938 0.997557
1.00208 0.999968 0.992513
1.00027 0.999872 0.995125
0.99994 0.999983 0.995394
1.00518 0.996172 0.989606
1.00521 0.99798 0.987784
1.00518 0.996685 0.989097
1.00521 0.999142 0.986542
1.00521 0.998321 0.987343
1.00519 0.996896 0.988664
1.00444 0.999726 0.987032
1.00522 0.99938 0.986458
1.00522 0.998665 0.986959
1.00178 1.00012 0.9914
1.00439 0.999893 0.987026
1.00521 0.999566 0.986023
1.00007 1.00066 0.997611
1.0016 1.00065 0.991198
1.00421 1.00022 0.987112
1.00128 1.00137 0.990999
0.999998 1.00074 0.99755
0.999852 1.00045 0.997741
1.00519 0.995948 0.989835
1.0052 0.995259 0.990407
1.00517 0.995477 0.990138
1.00518 0.99752 0.988324
1.0052 0.995922 0.989832
1.00521 0.994981 0.990789
1.00521 0.995809 0.98993
1.00519 0.997433 0.988447
1.00517 0.998832 0.987176
1.00515 0.99784 0.987973
1.00519 0.999061 0.986805
1.00446 0.999714 0.987095
1.00519 0.999272 0.986491
1.00446 0.999923 0.987037
1.00198 1.00014 0.991093
1.00444 1.00001 0.986998
1.00197 1.00016 0.991096
1.00042 0.999982 0.997523
1.00203 1.00006 0.991109
1.00033 0.999933 0.996315
1.00004 0.999838 0.995341
1.00519 0.996355 0.989383
1.0052 0.997814 0.987952
1.00519 0.996153 0.989659
1.00521 0.999181 0.986509
1.00521 0.998038 0.987702
1.00518 0.996763 0.989062
1.00447 0.999644 0.987089
1.00521 0.999264 0.986504
1.0052 0.998328 0.987339
1.0019 0.999886 0.991427
1.00443 0.999724 0.987037
1.00522 0.999388 0.986465
1.00023 1.0003 0.997645
1.00179 1.00009 0.991403
1.00438 0.99985 0.986951
1.00008 1.00061 0.997582
1.00158 1.00064 0.991208
0.999973 1.0007 0.99756
1.0052 0.997365 0.988469
1.00517 0.996031 0.989737
1.00521 0.995348 0.990369
1.00516 0.998724 0.987299
1.00518 0.997425 0.988416
1.0052 0.995803 0.989911
1.00518 0.997404 0.988458
1.00517 0.998836 0.987174
1.00441 0.999616 0.987285
1.00519 0.999217 0.986699
1.00446 0.999771 0.987099
1.002 1.00005 0.991151
1.00446 0.999918 0.987042
1.00197 1.00015 0.991095
1.00041 1.00001 0.997486
1.00197 1.00015 0.991095
1.00042 0.999994 0.997505
1.00041 0.999891 0.994873
1.00521 0.997701 0.988013
1.00517 0.99617 0.98956
1.00521 0.999061 0.986658
1.00521 0.997821 0.987937
1.00519 0.996133 0.989712
1.00447 0.999692 0.987252
1.0052 0.999191 0.986505
1.00521 0.998093 0.98762
1.00199 0.999864 0.991312
1.00447 0.999688 0.987133
1.00521 0.99939 0.986465
1.00039 1.00005 0.997601
1.00191 0.999878 0.991429
1.00443 0.999715 0.987041
1.00021 1.00032 0.997634
1.00181 1.00008 0.991404
1.00008 1.00059 0.997563
1.00519 0.998705 0.987253
1.0052 0.997444 0.988375
1.00516 0.996118 0.98964
1.00437 0.999568 0.9874
1.00516 0.99873 0.987298
1.00518 0.997329 0.988508
1.00517 0.998844 0.987172
1.00442 0.999607 0.987259
1.00195 1.00001 0.991278
1.00447 0.999827 0.987103
1.00198 1.00006 0.991155
1.00043 1.00001 0.997474
1.00197 1.00014 0.991097
1.00042 1.00002 0.997484
1.00043 1 0.997491
1.00521 0.998948 0.986777
1.00522 0.997479 0.988255
1.00516 0.995985 0.989737
1.00444 0.999675 0.987332
1.0052 0.99907 0.986648
1.00522 0.997828 0.987922
1.002 0.999949 0.991231
1.00446 0.999697 0.987246
1.0052 0.9992 0.9865
1.00046 0.999948 0.99753
1.00199 0.99988 0.991312
1.00446 0.999724 0.987177
1.00035 1.00008 0.997621
1.00191 0.999886 0.991431
1.00022 1.00032 0.997613
1.00438 0.999652 0.98746
1.00519 0.998652 0.987235
1.0052 0.997523 0.988282
1.00191 0.99995 0.991422
1.00438 0.99955 0.987388
1.00516 0.998733 0.987297
1.00444 0.999593 0.987233
1.00195 0.999991 0.991285
1.00042 1.00001 0.99747
1.00196 1.00007 0.991158
1.00043 1.00002 0.997466
1.0004 1.00003 0.997481
1.00441 0.999656 0.987407
1.00521 0.998818 0.986915
1.00522 0.997259 0.988497
1.00206 1 0.992484
1.00443 0.999674 0.987332
1.0052 0.999079 0.986637
1.00046 0.999956 0.997485
1.002 0.999969 0.991231
1.00445 0.999702 0.98724
1.00044 0.999978 0.997558
1.00199 0.999904 0.991312
1.00033 1.0001 0.997637
1.00196 0.999952 0.991365
1.00438 0.999593 0.987429
1.00518 0.998596 0.987217
1.00036 0.999994 0.99751
1.0019 0.999951 0.99142
1.00439 0.999535 0.987377
1.00194 0.999977 0.991289
1.0004 1.00001 0.997482
1.00042 1.00003 0.997467
1.00209 0.999979 0.992506
1.0044 0.999654 0.987407
1.0052 0.998686 0.987054
1.00007 0.999993 0.997858
1.00197 1.00001 0.99126
1.00442 0.99967 0.987333
1.00046 0.999967 0.997506
1.002 0.99999 0.991231
1.00042 0.999998 0.997582
1.00035 0.999981 0.994951
1.00198 0.99995 0.991996
1.00437 0.999535 0.987397
1.00038 0.999995 0.997514
1.0019 0.999952 0.991425
1.00041 1 0.997489
0.999985 1 0.9953
1.00201 0.999973 0.991931
1.0044 0.999654 0.987407
1.00023 0.99999 0.996367
1.00196 1.00001 0.991271
1.00045 0.999977 0.997528
1.00037 0.999987 0.997513
1.00189 0.999946 0.991442
1.00035 0.999994 0.997515
1.00019 0.999985 0.996411
1.00193 0.999971 0.991372
1.00043 0.999981 0.997501
1.00038 0.999984 0.997523
1.00038 0.999984 0.997512

TENSORS stress float
0.00175744 -0.000100345 0.000186401
-0.000100345 0.000706108 -2.62257e-05
0.000186401 -2.62257e-05 0.000684328
0.0055357 -9.33991e-05 0.000182728
-9.33991e-05 0.00298368 1.92443e-05
0.000182728 1.92443e-05 0.00296551
0.00153157 -3.11545e-05 8.56832e-05
-3.11545e-05 0.000578128 -1.03352e-05
8.56832e-05 -1.03352e-05 0.000547112
0.0018805 -5.95305e-05 0.000186057
-5.95305e-05 0.000754328 -1.63696e-05
0.000186057 -1.63696e-05 0.000736829
0.00183129 -9.01486e-05 0.000183172
-9.01486e-05 0.000740768 -2.36271e-05
0.000183172 -2.36271e-05 0.000720835
0.00169971 -9.71124e-05 0.000190938
-9.71124e-05 0.00067134 -2.60351e-05
0.000190938 -2.60351e-05 0.000651167
0.0015061 -7.68054e-05 3e-05
-7.68054e-05 0.000481732 -9.97256e-06
3e-05 -9.97256e-06 0.000396365
0.00546992 -9.81977e-05 -6.8326e-06
-9.81977e-05 0.00293349 3.07616e-07
-6.8326e-06 3.07616e-07 0.00292106
0.00548158 7.81992e-05 8.56509e-05
7.81992e-05 0.0029056 5.45114e-06
8.56509e-05 5.45114e-06 0.00289104
0.00523443 -0.00019239 2.20679e-05
-0.00019239 0.00279824 2.76721e-06
2.20679e-05 2.76721e-06 0.00276573
0.00170641 9.8427e-05 0.000188405
9.8427e-05 0.000671446 1.82395e-05
0.000188405 1.82395e-05 0.000662196
0.000616377 0.000193239 2.32609e-05
0.000193239 -3.12144e-05 1.4426e-05
2.32609e-05 1.4426e-05 -0.000126414
0.00166063 -3.31949e-05 0.000194867
-3.31949e-05 0.000619288 2.59535e-06
0.000194867 2.59535e-06 0.000611691
0.00128687 -9.96342e-06 3.7082e-05
-9.96342e-06 0.000419392 1.09641e-06
3.7082e-05 1.09641e-06 0.000381676
0.00137087 -2.29691e-05 -3.18337e-05
-2.29691e-05 0.000484889 5.69942e-06
-3.18337e-05 5.69942e-06 0.000447739
0.00158252 -6.34456e-05 6.50566e-05
-6.34456e-05 0.000590691 -3.72604e-06
6.50566e-05 -3.72604e-06 0.000562525
0.00152904 -1.35291e-05 9.21948e-05
-1.35291e-05 0.000584183 -9.89804e-06
9.21948e-05 -9.89804e-06 0.000549289
0.00155606 -4.66193e-05 7.63157e-05
-4.66193e-05 0.000580591 -8.89275e-06
7.63157e-05 -8.89275e-06 0.000553828
0.00157255 -0.000117629 -3.18639e-05
-0.000117629 0.000513146 3.31865e-06
-3.18639e-05 3.31865e-06 0.000436322
0.00551495 -0.000112226 0.000234706
-0.000112226 0.0029332 -7.24714e-06
0.000234706 -7.24714e-06 0.00293833
0.00185342 -4.13653e-05 0.000188214
-4.13653e-05 0.000735899 -1.22149e-05
0.000188214 -1.22149e-05 0.000719342
0.00188114 -7.66875e-05 0.000183892
-7.66875e-05 0.000760898 -2.02518e-05
0.000183892 -2.02518e-05 0.000742721
0.00153764 -0.000106291 5.12707e-05
-0.000106291 0.000472833 -7.82273e-06
5.12707e-05 -7.82273e-06 0.000396089
0.00152975 -9.12509e-05 3.92384e-05
-9.12509e-05 0.000477521 -9.13526e-06
3.92384e-05 -9.13526e-06 0.000399565
0.00160907 -6.93619e-05 0.000183967
-6.93619e-05 0.000609384 -2.23624e-05
0.000183967 -2.23624e-05 0.000592492
0.00146923 -6.30408e-05 2.25227e-05
-6.30408e-05 0.000481525 -1.07276e-05
2.25227e-05 -1.07276e-05 0.000387711
0.00202953 -0.000223489 1.40221e-05
-0.000223489 0.000648217 -6.39594e-06
1.40221e-05 -6.39594e-06 0.000502002
0.00541714 -0.000113644 -0.000179435
-0.000113644 0.00289367 -1.11706e-05
-0.000179435 -1.11706e-05 0.0028853
0.00352625 7.63749e-05 -0.000107813
7.63749e-05 0.00174987 -9.14681e-06
-0.000107813 -9.14681e-06 0.00173129
0.00341376 -3.3652e-05 -0.000101212
-3.3652e-05 0.00170659 -5.36652e-06
-0.000101212 -5.36652e-06 0.00168213
0.00523892 -0.000152279 3.31298e-06
-0.000152279 0.00280662 5.49145e-08
3.31298e-06 5.49145e-08 0.00278863
0.00058232 0.000181396 -2.35235e-06
0.000181396 -5.14765e-05 -6.58367e-07
-2.35235e-06 -6.58367e-07 -0.000144309
0.00159991 5.44174e-05 0.000189566
5.44174e-05 0.000593808 1.48062e-05
0.000189566 1.48062e-05 0.000577707
0.00175645 0.000128495 0.000192276
0.000128495 0.000710137 2.21597e-05
0.000192276 2.21597e-05 0.000688397
0.00263116 0.000176027 0.000117207
0.000176027 0.00112635 1.50226e-05
0.000117207 1.50226e-05 0.0010599
0.00410471 -0.000269856 -1.45416e-06
-0.000269856 0.00216292 4.72004e-06
-1.45416e-06 4.72004e-06 0.00211829
0.00269283 0.000220671 0.000116631
0.000220671 0.00119051 1.71821e-05
0.000116631 1.71821e-05 0.00111897
0.000591662 0.000158163 2.72931e-05
0.000158163 -4.02735e-05 1.84046e-05
2.72931e-05 1.84046e-05 -0.000128432
0.000886189 0.000181741 1.0497e-05
0.000181741 3.59831e-05 5.23735e-06
1.0497e-05 5.23735e-06 -0.000127588
0.00326705 -0.000104563 0.000106021
-0.000104563 0.00162572 4.61167e-06
0.000106021 4.61167e-06 0.00162918
0.00553443 6.7626e-05 3.66159e-06
6.7626e-05 0.0029354 -1.37003e-06
3.66159e-06 -1.37003e-06 0.00294565
0.00348377 6.16159e-05 -8.90224e-05
6.16159e-05 0.00171851 -3.28425e-06
-8.90224e-05 -3.28425e-06 0.00170458
0.00544471 5.97769e-05 0.000230752
5.97769e-05 0.00288455 2.67559e-06
0.000230752 2.67559e-06 0.00289477
0.00129363 7.18468e-05 4.04585e-05
7.18468e-05 0.000420872 2.20023e-06
4.04585e-05 2.20023e-06 0.000387841
0.000667591 8.79849e-06 1.62057e-05
8.79849e-06 -7.10018e-05 1.66294e-06
1.62057e-05 1.66294e-06 -0.000144146
0.00539229 0.000190359 0.000118941
0.000190359 0.00287546 1.03725e-05
0.000118941 1.03725e-05 0.00285314
0.00269367 5.75163e-05 0.000114372
5.75163e-05 0.00112992 6.67983e-06
0.000114372 6.67983e-06 0.00107783
0.00122196 -7.36842e-05 -5.09868e-05
-7.36842e-05 0.000392244 6.35783e-06
-5.09868e-05 6.35783e-06 0.00035182
0.00128479 -6.56671e-05 -4.38714e-05
-6.56671e-05 0.000431889 6.72772e-06
-4.38714e-05 6.72772e-06 0.00039408
0.00143039 2.92691e-05 -2.00786e-05
2.92691e-05 0.00052712 5.67765e-06
-2.00786e-05 5.67765e-06 0.000485661
0.00160193 -0.000127473 -0.00010108
-0.000127473 0.000524045 1.62874e-05
-0.00010108 1.62874e-05 0.000454218
0.0034663 9.25595e-06 -9.42268e-05
9.25595e-06 0.00171477 -1.86426e-06
-9.42268e-05 -1.86426e-06 0.00169845
0.00157438 -4.71727e-05 7.1718e-05
-4.71727e-05 0.000580883 -3.13382e-06
7.1718e-05 -3.13382e-06 0.000554753
0.00148274 1.12608e-05 9.48699e-05
1.12608e-05 0.000559237 -7.85715e-06
9.48699e-05 -7.85715e-06 0.000523095
0.00157517 -5.63244e-05 6.93848e-05
-5.63244e-05 0.000585939 -6.2916e-06
6.93848e-05 -6.2916e-06 0.000559907
0.00159185 -8.79864e-05 -2.56133e-05
-8.79864e-05 0.000497779 1.17779e-06
-2.56133e-05 1.17779e-06 0.000428289
0.00155506 -0.00010948 -3.68209e-05
-0.00010948 0.000517612 3.42321e-06
-3.68209e-05 3.42321e-06 0.000435836
0.00158737 -0.000115383 -2.71439e-05
-0.000115383 0.000509359 2.43284e-06
-2.71439e-05 2.43284e-06 0.000436643
0.00202576 -0.000221786 -7.15929e-06
-0.000221786 0.00064395 1.89677e-06
-7.15929e-06 1.89677e-06 0.000498005
0.00540496 3.94777e-05 0.000224398
3.94777e-05 0.00286084 -2.05938e-07
0.000224398 -2.05938e-07 0.00287171
0.00182094 -2.22797e-05 0.000187815
-2.22797e-05 0.000719103 -8.36854e-06
0.000187815 -8.36854e-06 0.0007042
0.00241582 1.80615e-05 3.5788e-05
1.80615e-05 0.000982209 -9.54521e-07
3.5788e-05 -9.54521e-07 0.000921557
0.00153886 -8.55601e-05 4.47776e-05
-8.55601e-05 0.000465145 -5.29746e-06
4.47776e-05 -5.29746e-06 0.000392517
0.0015331 -0.000100192 4.65761e-05
-0.000100192 0.000471671 -8.57201e-06
4.65761e-05 -8.57201e-06 0.000395737
0.00191196 -0.000137008 1.15144e-05
-0.000137008 0.000525942 -3.03877e-06
1.15144e-05 -3.03877e-06 0.000399716
0.00166609 -0.000180169 1.5643e-05
-0.000180169 0.000409811 -5.66166e-06
1.5643e-05 -5.66166e-06 0.000270985
0.00117251 -2.77731e-05 0.000144994
-2.77731e-05 0.000353341 -1.58195e-05
0.000144994 -1.58195e-05 0.000340699
0.00130999 -1.774e-05 1.37887e-05
-1.774e-05 0.000410062 -1.09614e-05
1.37887e-05 -1.09614e-05 0.000316472
0.00197026 -0.000239402 1.30186e-05
-0.000239402 0.000641182 -6.67794e-06
1.30186e-05 -6.67794e-06 0.000486025
0.00126069 -0.000219939 7.69367e-06
-0.000219939 8.09633e-05 -2.60285e-06
7.69367e-06 -2.60285e-06 -9.7614e-05
0.00573996 0.000148494 -0.000237932
0.000148494 0.00305946 -2.00611e-05
-0.000237932 -2.00611e-05 0.00306223
0.00488152 -0.000185917 -0.000135264
-0.000185917 0.00260352 -9.56425e-06
-0.000135264 -9.56425e-06 0.00258156
0.00549068 -3.61165e-05 -0.00019939
-3.61165e-05 0.00292394 -1.34347e-05
-0.00019939 -1.34347e-05 0.00292471
0.000544722 0.00017692 -2.39928e-05
0.00017692 -7.03576e-05 -1.47195e-05
-2.39928e-05 -1.47195e-05 -0.000163893
0.00574789 0.000165537 -2.98141e-06
0.000165537 0.00306325 -1.88057e-06
-2.98141e-06 -1.88057e-06 0.00306573
0.0057494 8.03548e-05 -8.6008e-06
8.03548e-05 0.0030681 -1.29148e-06
-8.6008e-06 -1.29148e-06 0.0030701
0.000523642 0.000121505 -1.38324e-07
0.000121505 -0.000124129 -2.47736e-07
-1.38324e-07 -2.47736e-07 -0.00021196
0.00269851 -0.00013016 -5.83235e-05
-0.00013016 0.00130286 -2.07128e-06
-5.83235e-05 -2.07128e-06 0.00127452
0.000524636 0.000179024 -5.8131e-07
0.000179024 -8.84808e-05 -3.01905e-07
-5.8131e-07 -3.01905e-07 -0.000182957
0.00155852 0.00013536 3.88853e-05
0.00013536 0.000543364 9.06708e-07
3.88853e-05 9.06708e-07 0.000467932
0.000886768 0.00017913 4.54849e-09
0.00017913 3.22781e-05 1.19693e-07
4.54849e-09 1.19693e-07 -0.000130514
0.00388929 -0.00011088 0.000132498
-0.00011088 0.00199495 7.29904e-06
0.000132498 7.29904e-06 0.00199513
0.000646008 -2.90628e-05 4.20646e-06
-2.90628e-05 5.26362e-05 8.59193e-06
4.20646e-06 8.59193e-06 1.00914e-05
0.000642151 9.1314e-05 1.70425e-05
9.1314e-05 -7.41331e-05 8.69687e-06
1.70425e-05 8.69687e-06 -0.000157319
0.000677533 0.000146138 2.18437e-05
0.000146138 -1.97026e-05 1.49573e-05
2.18437e-05 1.49573e-05 -0.000112945
0.000987455 0.000148848 1.35777e-05
0.000148848 -5.29962e-06 5.34993e-06
1.35777e-05 5.34993e-06 -0.000153145
0.00247254 6.86504e-05 8.51366e-05
6.86504e-05 0.00110655 1.14085e-05
8.51366e-05 1.14085e-05 0.00105261
0.000958432 0.000176467 1.15696e-05
0.000176467 4.37021e-05 6.48441e-06
1.15696e-05 6.48441e-06 -0.00011263
0.000870438 0.000189696 1.00121e-05
0.000189696 9.67513e-05 5.10249e-06
1.00121e-05 5.10249e-06 -7.67753e-05
0.00111532 0.000231853 5.08014e-06
0.000231853 9.67422e-05 1.2869e-06
5.08014e-06 1.2869e-06 -0.000103892
0.00277389 -0.000120183 5.96214e-05
-0.000120183 0.00133212 2.29865e-06
5.96214e-05 2.29865e-06 0.00133193
0.00308711 -0.000136329 1.1644e-05
-0.000136329 0.00152464 -3.48376e-07
1.1644e-05 -3.48376e-07 0.00152
0.00569399 2.42408e-05 -0.000231442
2.42408e-05 0.00302333 -9.69632e-06
-0.000231442 -9.69632e-06 0.00303225
0.00558458 5.79158e-05 -0.000235293
5.79158e-05 0.00296261 -5.79944e-06
-0.000235293 -5.79944e-06 0.00297364
0.00551385 8.34594e-05 -1.6719e-07
8.34594e-05 0.00293153 -2.66465e-06
-1.6719e-07 -2.66465e-06 0.00293767
0.00344231 1.33822e-05 -0.000102928
1.33822e-05 0.00169232 -4.10805e-06
-0.000102928 -4.10805e-06 0.00168169
0.00165358 3.24991e-05 4.89734e-05
3.24991e-05 0.000515236 9.66051e-07
4.89734e-05 9.66051e-07 0.000454232
0.0035599 0.000108857 -9.07835e-05
0.000108857 0.00176734 -4.5795e-06
-9.07835e-05 -4.5795e-06 0.00174905
0.00168936 7.65322e-05 4.82026e-05
7.65322e-05 0.000538241 1.88131e-06
4.82026e-05 1.88131e-06 0.000472134
0.005487 0.000139803 0.000233471
0.000139803 0.0029257 5.76407e-06
0.000233471 5.76407e-06 0.00292567
0.000593883 1.01861e-05 1.84814e-05
1.01861e-05 -0.000111553 5.14052e-07
1.84814e-05 5.14052e-07 -0.000182966
0.00271344 2.50451e-05 0.000114475
2.50451e-05 0.00114062 4.45131e-06
0.000114475 4.45131e-06 0.00109147
0.0010235 3.56846e-05 1.24336e-05
3.56846e-05 -1.87903e-05 1.24003e-06
1.24336e-05 1.24003e-06 -0.000140724
0.00261935 9.98975e-05 0.000116525
9.98975e-05 0.00109389 8.55914e-06
0.000116525 8.55914e-06 0.0010379
0.00104495 8.48234e-05 1.21331e-05
8.48234e-05 -6.83141e-06 2.49888e-06
1.21331e-05 2.49888e-06 -0.000137594
0.00166744 4.1616e-05 -0.000193123
4.1616e-05 0.000624804 1.70995e-06
-0.000193123 1.70995e-06 0.000617574
0.00126668 1.29827e-07 -3.78823e-05
1.29827e-07 0.000409781 1.75229e-06
-3.78823e-05 1.75229e-06 0.000372996
0.00141407 7.96744e-05 -9.80495e-06
7.96744e-05 0.00053331 6.67216e-06
-9.80495e-06 6.67216e-06 0.000483296
0.0012302 -7.69122e-05 -5.16277e-05
-7.69122e-05 0.000398502 7.18191e-06
-5.16277e-05 7.18191e-06 0.000359424
0.00170745 -6.7894e-05 -9.9856e-05
-6.7894e-05 0.000558346 8.6217e-06
-9.9856e-05 8.6217e-06 0.000496639
0.00165274 -0.000108742 -9.94324e-05
-0.000108742 0.000541208 1.41167e-05
-9.94324e-05 1.41167e-05 0.000475637
0.00157303 -0.000133644 -0.000102291
-0.000133644 0.00051889 1.67615e-05
-0.000102291 1.67615e-05 0.000445404
0.00202349 -0.000220364 -2.68865e-05
-0.000220364 0.000641116 9.64319e-06
-2.68865e-05 9.64319e-06 0.000495466
0.00549403 -8.5678e-05 2.03039e-06
-8.5678e-05 0.00292055 -1.4762e-06
2.03039e-06 -1.4762e-06 0.00292632
0.00151535 4.40774e-05 8.00488e-05
4.40774e-05 0.000544967 -2.94719e-06
8.00488e-05 -2.94719e-06 0.000521957
0.00113211 -1.65811e-06 -5.18926e-05
-1.65811e-06 0.000210701 9.72537e-07
-5.18926e-05 9.72537e-07 0.000148286
0.0015982 -5.23661e-05 -2.95685e-05
-5.23661e-05 0.000495534 1.67753e-06
-2.95685e-05 1.67753e-06 0.000428709
0.00306252 4.06435e-05 0.000154338
4.06435e-05 0.00150022 -3.85151e-06
0.000154338 -3.85151e-06 0.00148857
0.00196702 -8.66218e-05 -3.29161e-05
-8.66218e-05 0.000782178 6.58378e-07
-3.29161e-05 6.58378e-07 0.000700189
0.00159322 -0.000104106 -2.49275e-05
-0.000104106 0.000504324 1.6299e-06
-2.49275e-05 1.6299e-06 0.000433809
0.00182505 -0.000131109 -8.79968e-06
-0.000131109 0.000472539 1.54557e-06
-8.79968e-06 1.54557e-06 0.000345954
0.00199532 -0.000241481 -5.87226e-06
-0.000241481 0.000654952 1.87636e-06
-5.87226e-06 1.87636e-06 0.00049945
0.00184846 -0.000187746 -4.54361e-06
-0.000187746 0.000516933 1.11602e-06
-4.54361e-06 1.11602e-06 0.000378675
0.00127202 -0.00022117 2.47706e-07
-0.00022117 8.56273e-05 -1.53938e-07
2.47706e-07 -1.53938e-07 -9.29249e-05
0.000629142 1.29873e-05 1.90147e-05
1.29873e-05 -9.2851e-05 -1.17833e-06
1.90147e-05 -1.17833e-06 -0.000161128
0.00148047 1.49803e-05 3.59168e-05
1.49803e-05 0.000426434 -2.57755e-06
3.59168e-05 -2.57755e-06 0.000359174
0.00164513 -3.29648e-05 1.2747e-05
-3.29648e-05 0.000354811 -1.0804e-06
1.2747e-05 -1.0804e-06 0.000241899
0.00165446 -0.000102371 1.25418e-05
-0.000102371 0.000365622 -2.39983e-06
1.25418e-05 -2.39983e-06 0.000242343
0.00164285 -0.000153277 1.43997e-05
-0.000153277 0.000376755 -4.31096e-06
1.43997e-05 -4.31096e-06 0.00024431
0.00171906 -0.00016797 1.66557e-06
-0.00016797 0.000259158 -7.37754e-07
1.66557e-06 -7.37754e-07 0.000109071
0.00425281 0.000164211 0.000119026
0.000164211 0.00222891 -6.52633e-06
0.000119026 -6.52633e-06 0.00221381
0.00131068 -0.000205454 6.46544e-06
-0.000205454 7.93384e-05 -2.06692e-06
6.46544e-06 -2.06692e-06 -9.06915e-05
0.000338312 -8.98799e-05 1.5749e-05
-8.98799e-05 -0.000169757 -1.39368e-05
1.5749e-05 -1.39368e-05 -0.000240691
0.000855963 -0.000180305 1.00256e-05
-0.000180305 2.18248e-05 -7.07791e-06
1.00256e-05 -7.07791e-06 -0.000141376
0.00131682 -0.000244074 8.83182e-06
-0.000244074 0.000149739 -3.04249e-06
8.83182e-06 -3.04249e-06 -4.09082e-05
0.00154855 -0.000287032 3.64909e-06
-0.000287032 0.000140773 2.65e-07
3.64909e-06 2.65e-07 -5.18788e-05
0.000409279 -2.64255e-05 8.35599e-06
-2.64255e-05 -9.85622e-05 -1.11522e-05
8.35599e-06 -1.11522e-05 -0.000154023
0.000684969 -3.98517e-05 1.11517e-06
-3.98517e-05 7.24409e-05 -4.00938e-06
1.11517e-06 -4.00938e-06 -4.45522e-05
0.00576463 0.00018167 -0.000249275
0.00018167 0.00307737 -2.06248e-05
-0.000249275 -2.06248e-05 0.00307777
0.00560075 6.17135e-05 -0.00021722
6.17135e-05 0.00297921 -1.67849e-05
-0.00021722 -1.67849e-05 0.00298422
0.000521883 0.000114945 -1.8281e-05
0.000114945 -0.000127073 -1.03494e-05
-1.8281e-05 -1.03494e-05 -0.000214731
0.00417946 -0.000170558 -0.000115653
-0.000170558 0.00218315 -5.91311e-06
-0.000115653 -5.91311e-06 0.00216878
0.000437263 0.000123085 -1.94317e-05
0.000123085 -0.000124113 -1.43782e-05
-1.94317e-05 -1.43782e-05 -0.000200837
0.000477906 0.000163607 -2.02942e-05
0.000163607 -0.000111849 -1.38625e-05
-2.02942e-05 -1.38625e-05 -0.00020792
0.000903609 0.000179278 -1.20258e-05
0.000179278 3.8323e-05 -5.25147e-06
-1.20258e-05 -5.25147e-06 -0.000124123
0.00369244 -0.00013213 8.06948e-06
-0.00013213 0.00188439 -4.96488e-07
8.06948e-06 -4.96488e-07 0.00188049
0.000529244 -4.01526e-05 3.41878e-07
-4.01526e-05 -1.21308e-05 4.8987e-07
3.41878e-07 4.8987e-07 -5.50867e-05
0.00165563 0.000119323 4.83922e-05
0.000119323 0.00053042 3.22833e-06
4.83922e-05 3.22833e-06 0.000457415
0.00160472 0.000169334 4.69498e-05
0.000169334 0.000534359 2.9526e-06
4.69498e-05 2.9526e-06 0.000451978
0.000975565 0.000149701 1.03259e-07
0.000149701 -9.11069e-06 -2.24663e-07
1.03259e-07 -2.24663e-07 -0.000157569
0.000616467 6.46555e-05 -6.31634e-07
6.46555e-05 6.22931e-06 1.69234e-07
-6.31634e-07 1.69234e-07 -5.79377e-05
0.000936197 0.000175539 4.73796e-07
0.000175539 3.13778e-05 2.88199e-07
4.73796e-07 2.88199e-07 -0.000124937
0.000858595 0.000178323 7.4266e-07
0.000178323 8.58417e-05 -1.48928e-06
7.4266e-07 -1.48928e-06 -8.54978e-05
0.000933624 0.000218958 -7.47059e-07
0.000218958 -1.08437e-05 4.80768e-07
-7.47059e-07 4.80768e-07 -0.000209944
0.00067474 2.17742e-05 1.08518e-05
2.17742e-05 5.68053e-05 1.03637e-05
1.08518e-05 1.03637e-05 3.62104e-06
0.000604267 -6.16537e-05 1.93847e-07
-6.16537e-05 3.25432e-05 6.89025e-06
1.93847e-07 6.89025e-06 -3.3812e-06
0.000822032 6.84927e-05 3.26795e-06
6.84927e-05 0.000166851 4.53313e-06
3.26795e-06 4.53313e-06 5.16257e-05
0.00101602 0.000128797 1.30413e-05
0.000128797 -7.3443e-06 4.35705e-06
1.30413e-05 4.35705e-06 -0.000149519
0.000959587 0.000165736 1.31667e-05
0.000165736 9.43852e-06 6.13496e-06
1.31667e-05 6.13496e-06 -0.000143589
0.00135583 0.000220372 5.89329e-06
0.000220372 9.41872e-05 1.56623e-06
5.89329e-06 1.56623e-06 -8.49411e-05
0.000899948 0.00017936 7.15625e-06
0.00017936 0.000175369 7.29997e-06
7.15625e-06 7.29997e-06 9.96303e-06
0.00104935 0.000221681 5.3932e-06
0.000221681 1.51e-05 2.60572e-06
5.3932e-06 2.60572e-06 -0.000175624
0.00134155 0.000260516 5.77157e-06
0.000260516 0.000296394 6.77611e-07
5.77157e-06 6.77611e-07 7.36059e-05
0.00158658 0.000286634 7.57954e-08
0.000286634 0.000326346 -5.2957e-08
7.57954e-08 -5.2957e-08 0.000112071
0.00251616 -0.00011709 3.33853e-05
-0.00011709 0.00117423 2.92624e-06
3.33853e-05 2.92624e-06 0.00117449
0.00265477 -0.000131565 6.33208e-06
-0.000131565 0.00126424 -5.66105e-07
6.33208e-06 -5.66105e-07 0.00126049
0.00288824 -0.00015067 -4.48758e-05
-0.00015067 0.00141075 -2.48657e-06
-4.48758e-05 -2.48657e-06 0.00140156
0.000409452 -8.46234e-06 6.01915e-06
-8.46234e-06 -9.16034e-05 -9.32042e-06
6.01915e-06 -9.32042e-06 -0.000140302
0.00384513 0.000144073 0.000104507
0.000144073 0.00198026 -5.26384e-06
0.000104507 -5.26384e-06 0.00197107
0.00576082 0.000171819 -0.00025183
0.000171819 0.00307459 -1.8206e-05
-0.00025183 -1.8206e-05 0.00307622
0.00558553 6.31088e-05 -0.00023242
6.31088e-05 0.00296137 -8.08033e-06
-0.00023242 -8.08033e-06 0.0029718
0.000611939 8.81873e-05 -1.96285e-05
8.81873e-05 -9.99548e-05 -4.66501e-06
-1.96285e-05 -4.66501e-06 -0.00017684
0.000592611 3.93841e-05 -1.91581e-05
3.93841e-05 -0.000110183 -2.276e-06
-1.91581e-05 -2.276e-06 -0.000184187
0.00544954 -1.57901e-05 -0.000225593
-1.57901e-05 0.00288434 -1.361e-06
-0.000225593 -1.361e-06 0.00289622
0.00542877 1.77292e-05 -6.57773e-07
1.77292e-05 0.00287314 -4.06741e-07
-6.57773e-07 -4.06741e-07 0.00288472
0.000575737 7.3794e-07 -1.43554e-07
7.3794e-07 -0.00012438 -4.80464e-08
-1.43554e-07 -4.80464e-08 -0.000194219
0.00163753 3.10402e-05 4.88139e-05
3.10402e-05 0.000504376 1.69274e-06
4.88139e-05 1.69274e-06 0.000442864
0.00100409 3.94442e-05 1.65636e-08
3.94442e-05 -3.07136e-05 -1.34121e-07
1.65636e-08 -1.34121e-07 -0.000153037
0.000580411 7.37486e-05 -4.18436e-07
7.37486e-05 -0.000113748 -3.0477e-07
-4.18436e-07 -3.0477e-07 -0.000194249
0.00100938 8.63379e-05 -1.0194e-07
8.63379e-05 -2.67558e-05 -1.43294e-07
-1.0194e-07 -1.43294e-07 -0.000158078
0.000568526 -2.70811e-05 1.89673e-05
-2.70811e-05 -0.000130642 -8.45841e-07
1.89673e-05 -8.45841e-07 -0.000198244
0.00100307 1.53539e-05 1.22576e-05
1.53539e-05 -2.75394e-05 5.43677e-07
1.22576e-05 5.43677e-07 -0.000147642
0.00101745 6.02473e-05 1.21519e-05
6.02473e-05 -2.34176e-05 1.92778e-06
1.21519e-05 1.92778e-06 -0.000149065
0.00145542 5.97916e-05 1.62055e-06
5.97916e-05 5.45315e-05 1.9184e-07
1.62055e-06 1.9184e-07 -7.33777e-05
0.00104073 0.000106821 1.24816e-05
0.000106821 -4.03241e-06 3.29431e-06
1.24816e-05 3.29431e-06 -0.000140405
0.00148721 0.0001321 2.5461e-06
0.0001321 8.22222e-05 2.37037e-07
2.5461e-06 2.37037e-07 -6.16367e-05
0.00542855 -4.58428e-05 -0.000232331
-4.58428e-05 0.0028761 5.92029e-07
-0.000232331 5.92029e-07 0.00288587
0.00125293 -0.000131133 -4.00527e-05
-0.000131133 0.00040739 4.16757e-06
-4.00527e-05 4.16757e-06 0.000369873
-0.000262532 -1.78431e-06 -1.29719e-05
-1.78431e-06 -0.000614221 2.15486e-06
-1.29719e-05 2.15486e-06 -0.000695717
0.00168615 -4.67085e-05 -0.000100117
-4.67085e-05 0.00054263 6.20974e-06
-0.000100117 6.20974e-06 0.000482002
0.00466818 0.000342458 1.34364e-05
0.000342458 0.00253107 7.24079e-06
1.34364e-05 7.24079e-06 0.00246284
0.00264169 -0.000175692 -0.00010286
-0.000175692 0.00116928 1.67616e-05
-0.00010286 1.67616e-05 0.00109533
0.00169313 -8.88041e-05 -9.93497e-05
-8.88041e-05 0.000555518 1.1358e-05
-9.93497e-05 1.1358e-05 0.000492717
0.00171184 -0.000124229 -2.71933e-05
-0.000124229 0.000403279 5.38319e-06
-2.71933e-05 5.38319e-06 0.000276554
0.00201599 -0.000194387 -2.55061e-05
-0.000194387 0.000615289 7.99851e-06
-2.55061e-05 7.99851e-06 0.000477866
0.00203927 -0.000244465 -2.44048e-05
-0.000244465 0.00068104 9.8592e-06
-2.44048e-05 9.8592e-06 0.000524971
0.0012835 -0.000222425 -6.47153e-06
-0.000222425 9.04388e-05 2.10197e-06
-6.47153e-06 2.10197e-06 -8.81011e-05
0.000571988 7.46051e-06 -5.33665e-08
7.46051e-06 -0.000124817 8.8218e-08
-5.33665e-08 8.8218e-08 -0.000194039
0.0016011 -6.53001e-05 -2.89326e-05
-6.53001e-05 0.000497482 3.27742e-07
-2.89326e-05 3.27742e-07 0.000433175
0.00121857 -2.84695e-05 -7.12792e-06
-2.84695e-05 0.000102688 3.6855e-07
-7.12792e-06 3.6855e-07 -1.45778e-05
0.00182282 -0.000104029 -5.3902e-06
-0.000104029 0.000463357 8.1337e-07
-5.3902e-06 8.1337e-07 0.000341408
0.00438157 0.000153157 -6.66216e-06
0.000153157 0.00230257 -9.30123e-07
-6.66216e-06 -9.30123e-07 0.00228927
0.0015013 -7.75292e-05 -2.92333e-06
-7.75292e-05 0.000531604 -1.37188e-07
-2.92333e-06 -1.37188e-07 0.000447904
0.00130863 -0.000205754 1.24076e-06
-0.000205754 0.000298249 -9.81175e-07
1.24076e-06 -9.81175e-07 0.000135085
0.00167279 -0.00015334 -5.73182e-06
-0.00015334 0.000394204 1.27755e-06
-5.73182e-06 1.27755e-06 0.000261717
0.00158545 -0.000164764 -2.38987e-06
-0.000164764 0.000178362 4.6635e-07
-2.38987e-06 4.6635e-07 2.89949e-05
0.00124625 -0.00024073 3.77308e-07
-0.00024073 0.000107998 -1.20541e-08
3.77308e-07 -1.20541e-08 -8.32559e-05
0.00150109 -0.000214179 3.25228e-07
-0.000214179 0.000189381 -1.63064e-07
3.25228e-07 -1.63064e-07 2.01727e-05
0.00156432 -0.000286401 6.19587e-07
-0.000286401 0.000155159 -7.86803e-08
6.19587e-07 -7.86803e-08 -3.66927e-05
0.000514886 -3.27327e-05 -8.69065e-07
-3.27327e-05 -3.92003e-05 1.23476e-07
-8.69065e-07 1.23476e-07 -9.53024e-05
0.000671506 -6.12003e-05 -3.51187e-07
-6.12003e-05 6.37939e-05 9.66443e-08
-3.51187e-07 9.66443e-08 -5.56276e-05
0.00099212 -1.35939e-05 1.22213e-05
-1.35939e-05 -2.97742e-05 -8.77242e-07
1.22213e-05 -8.77242e-07 -0.000149113
0.00167766 -6.26148e-05 1.20446e-05
-6.26148e-05 0.000374272 -1.65735e-06
1.20446e-05 -1.65735e-06 0.000257622
0.00167318 -5.26173e-05 7.14e-07
-5.26173e-05 0.000202634 2.55294e-08
7.14e-07 2.55294e-08 7.64907e-05
0.00147913 -0.000129942 2.84822e-06
-0.000129942 9.99938e-05 -2.7265e-07
2.84822e-06 -2.7265e-07 -3.98803e-05
0.0016781 -0.00020292 3.56671e-06
-0.00020292 0.000264904 -9.17136e-07
3.56671e-06 -9.17136e-07 0.000106627
0.00174058 -0.000204096 -6.2269e-07
-0.000204096 0.000144954 4.46533e-07
-6.2269e-07 4.46533e-07 3.82497e-06
0.000365498 -6.07098e-05 1.24447e-05
-6.07098e-05 -0.000135766 -1.26719e-05
1.24447e-05 -1.26719e-05 -0.000198467
0.00161628 -0.000266729 1.73351e-06
-0.000266729 0.000144451 5.82443e-07
1.73351e-06 5.82443e-07 -2.91917e-05
0.0007099 -0.000156595 5.62259e-06
-0.000156595 1.90509e-05 -7.5993e-06
5.62259e-06 -7.5993e-06 -0.000144733
0.000952703 -0.000233781 9.78354e-06
-0.000233781 -8.30658e-06 -3.60178e-06
9.78354e-06 -3.60178e-06 -0.000211848
0.00177041 -0.000327511 3.29697e-06
-0.000327511 0.000322181 -1.13013e-07
3.29697e-06 -1.13013e-07 0.000107049
0.00189473 -0.000323943 -1.67007e-06
-0.000323943 0.000288168 3.10044e-06
-1.67007e-06 3.10044e-06 0.000108186
0.000742436 -0.000103018 2.48514e-06
-0.000103018 0.000102623 -4.81135e-06
2.48514e-06 -4.81135e-06 -3.54464e-05
0.000651673 -2.48879e-05 6.58717e-07
-2.48879e-05 5.59053e-05 -3.58004e-06
6.58717e-07 -3.58004e-06 -4.76978e-05
0.00103066 -0.000160278 7.52597e-08
-0.000160278 0.000291863 4.22502e-07
7.52597e-08 4.22502e-07 0.000114448
0.000551208 9.38297e-05 -1.76618e-05
9.38297e-05 -0.000123101 -7.93762e-06
-1.76618e-05 -7.93762e-06 -0.000206848
0.0034914 -0.000158379 -8.11454e-05
-0.000158379 0.00177067 -2.92372e-06
-8.11454e-05 -2.92372e-06 0.00176017
0.000400488 -5.25959e-05 8.9963e-07
-5.25959e-05 -8.21992e-05 -8.11866e-06
8.9963e-07 -8.11866e-06 -0.00012684
0.000489811 0.000141348 -1.90935e-05
0.000141348 -0.00012348 -1.28882e-05
-1.90935e-05 -1.28882e-05 -0.000216223
0.000953384 0.000150136 -1.4057e-05
0.000150136 -1.87718e-05 -5.7643e-06
-1.4057e-05 -5.7643e-06 -0.000167803
0.000367187 5.7182e-05 -1.37371e-05
5.7182e-05 -0.00013906 -1.22244e-05
-1.37371e-05 -1.22244e-05 -0.000200802
0.000773002 0.000164505 -7.5049e-06
0.000164505 3.28013e-05 -7.54184e-06
-7.5049e-06 -7.54184e-06 -0.000136225
0.00092465 0.000175183 -1.1534e-05
0.000175183 2.53956e-05 -6.29242e-06
-1.1534e-05 -6.29242e-06 -0.000130973
0.000713772 0.00020272 -7.05613e-06
0.00020272 -0.000140916 -8.22003e-07
-7.05613e-06 -8.22003e-07 -0.000337933
0.00053752 1.07204e-05 1.94861e-06
1.07204e-05 -2.23732e-05 3.8907e-07
1.94861e-06 3.8907e-07 -7.39544e-05
0.000512693 -6.79133e-05 2.71429e-07
-6.79133e-05 -1.9404e-05 2.54341e-07
2.71429e-07 2.54341e-07 -5.61833e-05
0.000646168 2.41551e-05 8.10548e-07
2.41551e-05 5.48244e-05 3.97367e-07
8.10548e-07 3.97367e-07 -4.95706e-05
0.000995292 0.000129639 -1.73188e-09
0.000129639 -1.66551e-05 -2.34161e-07
-1.73188e-09 -2.34161e-07 -0.000159525
0.000957159 0.000166814 4.29061e-07
0.000166814 1.01602e-05 -2.9328e-07
4.29061e-07 -2.9328e-07 -0.000143358
0.00135717 0.000219858 2.4059e-07
0.000219858 9.73265e-05 9.22912e-09
2.4059e-07 9.22912e-09 -8.19158e-05
0.000794365 0.000160644 -5.83527e-07
0.000160644 0.000115373 3.18811e-07
-5.83527e-07 3.18811e-07 -4.72944e-05
0.00117514 0.000228941 1.1809e-07
0.000228941 9.22895e-05 -6.82752e-09
1.1809e-07 -6.82752e-09 -9.87241e-05
0.00112884 0.0002422 7.73854e-07
0.0002422 0.00017188 -1.83267e-06
7.73854e-07 -1.83267e-06 -4.82546e-05
0.0012112 0.000262572 -6.39473e-07
0.000262572 0.000103324 3.00273e-07
-6.39473e-07 3.00273e-07 -0.000108467
0.000551595 -7.07624e-05 -2.19755e-06
-7.07624e-05 -5.33212e-06 5.81316e-06
-2.19755e-06 5.81316e-06 -3.6289e-05
0.00079618 0.000122332 5.29069e-06
0.000122332 0.000132268 4.73945e-06
5.29069e-06 4.73945e-06 -5.44332e-06
0.000716933 -1.44599e-06 9.35126e-07
-1.44599e-06 9.12831e-05 4.21974e-06
9.35126e-07 4.21974e-06 1.14136e-05
0.000861283 0.000111089 1.56276e-06
0.000111089 0.00021451 -2.64419e-07
1.56276e-06 -2.64419e-07 4.99302e-05
0.00142193 0.000196554 4.53528e-06
0.000196554 9.29447e-05 6.35908e-07
4.53528e-06 6.35908e-07 -7.43712e-05
0.00125847 0.000231553 6.66186e-06
0.000231553 8.42953e-05 2.32471e-06
6.66186e-06 2.32471e-06 -0.000103054
0.00170703 0.000293354 1.43042e-06
0.000293354 0.000193155 -1.77041e-07
1.43042e-06 -1.77041e-07 6.20586e-06
0.00135737 0.000238907 3.24889e-06
0.000238907 0.000395195 4.07872e-06
3.24889e-06 4.07872e-06 0.000185374
0.00161726 0.000314212 -1.10299e-07
0.000314212 0.00028016 -3.2783e-07
-1.10299e-07 -3.2783e-07 6.77167e-05
0.00128763 0.000273074 2.21047e-06
0.000273074 0.0002107 -1.09746e-06
2.21047e-06 -1.09746e-06 -3.03105e-05
0.00153083 0.00029709 1.16479e-06
0.00029709 0.000215708 2.50229e-07
1.16479e-06 2.50229e-07 -3.48991e-06
0.000627134 5.56876e-06 2.25865e-06
5.56876e-06 1.76435e-05 2.31609e-06
2.25865e-06 2.31609e-06 -3.2504e-05
0.000543652 -4.43815e-05 6.80989e-07
-4.43815e-05 -3.65182e-05 4.63728e-06
6.80989e-07 4.63728e-06 -5.62689e-05
0.00240616 -0.000101746 2.83827e-05
-0.000101746 0.00110022 3.31686e-06
2.83827e-05 3.31686e-06 0.0011043
0.00245831 -0.000114637 3.38335e-06
-0.000114637 0.00113943 -3.55301e-07
3.38335e-06 -3.55301e-07 0.00114014
0.00255918 -0.000129443 -3.56127e-05
-0.000129443 0.0012077 -2.70474e-06
-3.56127e-05 -2.70474e-06 0.00120426
0.000436177 3.97715e-07 4.66034e-06
3.97715e-07 -7.70021e-05 -7.75551e-06
4.66034e-06 -7.75551e-06 -0.000117224
0.00342941 0.000130067 8.69108e-05
0.000130067 0.00172786 -4.22897e-06
8.69108e-05 -4.22897e-06 0.00172268
0.000528503 -1.07478e-05 -3.24169e-07
-1.07478e-05 -2.40719e-05 2.20211e-07
-3.24169e-07 2.20211e-07 -7.31422e-05
0.0039615 0.00013267 -4.76924e-06
0.00013267 0.00204575 -7.02824e-07
-4.76924e-06 -7.02824e-07 0.00203921
0.000603966 9.75702e-05 -1.91175e-05
9.75702e-05 -9.8139e-05 -6.29437e-06
-1.91175e-05 -6.29437e-06 -0.000180019
0.00061217 3.27477e-05 -1.84005e-05
3.27477e-05 -0.000102027 -3.19813e-06
-1.84005e-05 -3.19813e-06 -0.000176121
0.000990196 8.76465e-05 -1.20167e-05
8.76465e-05 -3.79385e-05 -2.773e-06
-1.20167e-05 -2.773e-06 -0.000169702
0.000983432 4.14449e-05 -1.2346e-05
4.14449e-05 -4.34542e-05 -1.48546e-06
-1.2346e-05 -1.48546e-06 -0.000166033
0.00062528 -6.51989e-06 -1.91952e-05
-6.51989e-06 -9.87748e-05 -7.42188e-07
-1.91952e-05 -7.42188e-07 -0.000166583
0.0055023 -9.49715e-05 -0.000239318
-9.49715e-05 0.00292512 3.62167e-06
-0.000239318 3.62167e-06 0.00293189
0.000612399 -5.08089e-07 1.37207e-07
-5.08089e-07 -0.000105512 -4.9144e-07
1.37207e-07 -4.9144e-07 -0.000173097
0.000995783 2.01211e-05 -3.11497e-08
2.01211e-05 -3.22634e-05 -8.61486e-08
-3.11497e-08 -8.61486e-08 -0.000152557
0.00101223 6.20097e-05 -7.15236e-08
6.20097e-05 -2.72162e-05 -9.04391e-08
-7.15236e-08 -9.04391e-08 -0.000153212
0.00145486 5.89227e-05 -5.93287e-08
5.89227e-05 5.53249e-05 7.57273e-08
-5.93287e-08 7.57273e-08 -7.26897e-05
0.00101027 0.000108489 -1.04076e-07
0.000108489 -2.01768e-05 -2.4159e-07
-1.04076e-07 -2.4159e-07 -0.000157365
0.00147215 0.000132785 -3.49113e-08
0.000132785 7.35497e-05 -2.40905e-08
-3.49113e-08 -2.40905e-08 -7.08505e-05
0.000991602 -4.80288e-07 1.22404e-05
-4.80288e-07 -3.06906e-05 -3.31379e-07
1.22404e-05 -3.31379e-07 -0.000150177
0.00143793 3.13422e-05 1.79636e-06
3.13422e-05 4.98098e-05 1.42254e-07
1.79636e-06 1.42254e-07 -7.47448e-05
0.00146903 9.54838e-05 1.72395e-06
9.54838e-05 6.28892e-05 1.35418e-07
1.72395e-06 1.35418e-07 -7.16675e-05
0.00178269 8.39642e-05 -2.11404e-06
8.39642e-05 0.000100826 -4.00485e-07
-2.11404e-06 -4.00485e-07 -2.10046e-06
0.00147462 0.000167562 3.43266e-06
0.000167562 9.12905e-05 4.7872e-07
3.43266e-06 4.7872e-07 -6.39513e-05
0.00179212 0.000176398 -4.45677e-07
0.000176398 0.000129322 -1.2641e-06
-4.45677e-07 -1.2641e-06 9.64514e-07
0.000596095 1.20011e-06 -1.83657e-05
1.20011e-06 -0.000108785 1.11989e-06
-1.83657e-05 1.11989e-06 -0.000179643
0.00167875 -2.45907e-05 -9.96933e-05
-2.45907e-05 0.000537723 4.06795e-06
-9.96933e-05 4.06795e-06 0.000479522
0.000764817 -2.26812e-05 -1.44754e-05
-2.26812e-05 -0.000164962 1.73292e-06
-1.44754e-05 1.73292e-06 -0.000286792
0.00197559 -0.00010443 -2.41015e-05
-0.00010443 0.000551566 3.85455e-06
-2.41015e-05 3.85455e-06 0.000431123
0.0045846 0.000128172 -0.000150704
0.000128172 0.00241626 9.7021e-06
-0.000150704 9.7021e-06 0.0024075
0.00265626 -0.000123419 -9.5776e-05
-0.000123419 0.00120356 1.31366e-05
-9.5776e-05 1.31366e-05 0.00113771
0.00193378 -0.000249534 -1.95641e-05
-0.000249534 0.000672879 8.439e-06
-1.95641e-05 8.439e-06 0.000506941
0.00168398 -0.000152235 -2.53981e-05
-0.000152235 0.000400266 6.54917e-06
-2.53981e-05 6.54917e-06 0.000268025
0.00144754 -0.000161358 -5.63699e-06
-0.000161358 9.48944e-05 1.14829e-06
-5.63699e-06 1.14829e-06 -5.37342e-05
0.00169766 -0.000223373 -6.85778e-06
-0.000223373 0.000303133 2.07836e-06
-6.85778e-06 2.07836e-06 0.000134685
0.00119705 -0.000239218 -7.44842e-06
-0.000239218 7.8872e-05 2.48242e-06
-7.44842e-06 2.48242e-06 -0.000113293
0.00158397 -0.000286295 -2.15599e-06
-0.000286295 0.000170937 -5.21042e-07
-2.15599e-06 -5.21042e-07 -2.02116e-05
0.000621885 -4.26416e-05 -1.09245e-05
-4.26416e-05 2.22529e-05 1.12977e-05
-1.09245e-05 1.12977e-05 -3.5369e-05
0.000661391 -8.22361e-05 -1.93954e-06
-8.22361e-05 5.94189e-05 3.31207e-06
-1.93954e-06 3.31207e-06 -6.42168e-05
0.000871893 -8.91258e-06 -2.73627e-07
-8.91258e-06 -0.000100722 -4.04388e-08
-2.73627e-07 -4.04388e-08 -0.000220625
0.0016856 -6.36927e-05 -5.88307e-06
-6.36927e-05 0.000377786 6.16443e-07
-5.88307e-06 6.16443e-07 0.000261223
0.00170212 -4.88448e-05 -1.95315e-06
-4.88448e-05 0.000216122 2.75802e-07
-1.95315e-06 2.75802e-07 9.27147e-05
0.00157492 -0.00013133 -4.59e-07
-0.00013133 0.000157568 1.9613e-07
-4.59e-07 1.9613e-07 1.67032e-05
0.000523224 -7.24848e-05 -2.64258e-07
-7.24848e-05 -4.51152e-05 3.52994e-07
-2.64258e-07 3.52994e-07 -0.000110138
0.000844147 -0.000176569 -8.42755e-07
-0.000176569 9.63989e-05 -5.32879e-07
-8.42755e-07 -5.32879e-07 -7.0289e-05
0.00102067 -0.000238318 2.51829e-06
-0.000238318 3.3e-05 -9.52539e-07
2.51829e-06 -9.52539e-07 -0.00017044
0.00168978 -0.000201176 -2.76408e-06
-0.000201176 0.000271087 7.18226e-07
-2.76408e-06 7.18226e-07 0.000111972
0.0018062 -0.000208357 6.84887e-07
-0.000208357 0.000177648 -1.29982e-07
6.84887e-07 -1.29982e-07 3.9924e-05
0.00176167 -0.000331123 -1.79268e-06
-0.000331123 0.000320033 3.16133e-07
-1.79268e-06 3.16133e-07 0.000103383
0.00162869 -0.000266825 5.0514e-07
-0.000266825 0.000153327 -7.11742e-08
5.0514e-07 -7.11742e-08 -1.9913e-05
0.00183628 -0.000322387 7.06539e-07
-0.000322387 0.000247943 5.69916e-07
7.06539e-07 5.69916e-07 6.7879e-05
0.000715983 -0.000115408 -2.25052e-07
-0.000115408 8.68204e-05 -1.95949e-07
-2.25052e-07 -1.95949e-07 -5.36452e-05
0.000567776 -9.86838e-05 -5.30492e-07
-9.86838e-05 4.84376e-06 -6.13235e-07
-5.30492e-07 -6.13235e-07 -0.000158019
0.000676877 -3.76196e-05 -5.67468e-08
-3.76196e-05 6.9473e-05 8.73925e-08
-5.67468e-08 8.73925e-08 -3.54547e-05
0.00165815 -2.01338e-05 5.76835e-07
-2.01338e-05 0.00018853 5.04574e-09
5.76835e-07 5.04574e-09 6.53558e-05
0.00173585 -8.6908e-05 3.29616e-07
-8.6908e-05 0.000237347 3.76554e-07
3.29616e-07 3.76554e-07 0.000109487
0.00168688 -7.06523e-05 -2.19944e-06
-7.06523e-05 6.26283e-05 1.13859e-06
-2.19944e-06 1.13859e-06 -4.26464e-05
0.00174318 -0.000167169 -2.36776e-06
-0.000167169 0.000112265 1.1738e-06
-2.36776e-06 1.1738e-06 -1.34377e-05
0.00163077 -0.000242416 -3.70596e-08
-0.000242416 0.000117908 1.49851e-06
-3.70596e-08 1.49851e-06 -3.58236e-05
0.00182335 -0.000231185 -1.47119e-06
-0.000231185 0.000131545 1.08808e-06
-1.47119e-06 1.08808e-06 1.5786e-05
0.000699948 -0.00013901 3.93839e-06
-0.00013901 6.38928e-05 -5.58409e-06
3.93839e-06 -5.58409e-06 -9.08519e-05
0.00170701 -0.000296122 -1.90957e-06
-0.000296122 0.000128715 1.89991e-06
-1.90957e-06 1.89991e-06 -2.82306e-05
0.00112663 -0.000241258 3.44146e-06
-0.000241258 0.000194119 -5.41684e-06
3.44146e-06 -5.41684e-06 -1.6251e-05
0.0013362 -0.00031853 5.06174e-06
-0.00031853 0.000153993 -1.21662e-06
5.06174e-06 -1.21662e-06 -8.48302e-05
0.00190983 -0.000370334 9.56355e-07
-0.000370334 0.000346033 3.12044e-06
9.56355e-07 3.12044e-06 0.000125816
0.00198888 -0.000346271 -3.2868e-06
-0.000346271 0.000311093 3.67287e-06
-3.2868e-06 3.67287e-06 0.000144295
0.000622295 -2.66573e-05 8.21692e-07
-2.66573e-05 3.8484e-05 -3.46003e-06
8.21692e-07 -3.46003e-06 -5.21793e-05
0.000774135 -0.000155144 5.70152e-07
-0.000155144 0.000100906 1.27658e-07
5.70152e-07 1.27658e-07 -6.64596e-05
0.000507031 -8.30093e-05 -4.35006e-07
-8.30093e-05 -3.9998e-06 5.74095e-07
-4.35006e-07 5.74095e-07 -0.000166849
0.00130466 -0.000221457 -2.51978e-06
-0.000221457 0.000421948 2.18741e-06
-2.51978e-06 2.18741e-06 0.000232421
0.000972717 0.000130712 -1.36323e-05
0.000130712 -2.72055e-05 -4.74416e-06
-1.36323e-05 -4.74416e-06 -0.000170792
0.000440382 -6.85315e-05 1.4949e-06
-6.85315e-05 -6.23829e-05 -6.32509e-06
1.4949e-06 -6.32509e-06 -9.85932e-05
0.000396102 -7.60193e-06 -4.74396e-06
-7.60193e-06 -0.000101512 -1.02311e-05
-4.74396e-06 -1.02311e-05 -0.000152619
0.000494603 -1.13825e-05 4.74439e-07
-1.13825e-05 -3.19984e-05 -4.98087e-06
4.74439e-07 -4.98087e-06 -0.00013409
0.00095037 0.000167867 -1.29746e-05
0.000167867 8.27344e-06 -6.84636e-06
-1.29746e-05 -6.84636e-06 -0.00014577
0.00136072 0.000219412 -5.70757e-06
0.000219412 0.000101702 -1.56998e-06
-5.70757e-06 -1.56998e-06 -7.76468e-05
0.000704986 0.000138815 -4.72254e-06
0.000138815 6.36933e-05 -5.02859e-06
-4.72254e-06 -5.02859e-06 -9.53713e-05
0.00101318 0.000232048 -5.01746e-06
0.000232048 0.000104495 -4.79714e-06
-5.01746e-06 -4.79714e-06 -0.000113829
0.00130124 0.000236285 -6.19604e-06
0.000236285 0.00017014 -2.47276e-06
-6.19604e-06 -2.47276e-06 -2.12114e-05
0.00083729 0.000238266 -3.89206e-06
0.000238266 -0.000117939 6.13014e-07
-3.89206e-06 6.13014e-07 -0.000327216
0.000518105 -6.68754e-05 -2.23364e-07
-6.68754e-05 -2.78452e-05 1.49674e-07
-2.23364e-07 1.49674e-07 -5.73104e-05
0.000746414 0.000109255 2.7178e-07
0.000109255 0.000110208 -3.42665e-07
2.7178e-07 -3.42665e-07 -2.90842e-05
0.000598896 -1.87147e-05 -5.22962e-07
-1.87147e-05 2.37767e-05 7.939e-07
-5.22962e-07 7.939e-07 -5.57773e-05
0.000800883 8.36378e-05 1.41053e-06
8.36378e-05 0.000176057 -8.94091e-07
1.41053e-06 -8.94091e-07 1.62574e-05
0.00142041 0.000196264 6.75096e-08
0.000196264 9.32544e-05 -3.41712e-07
6.75096e-08 -3.41712e-07 -7.43148e-05
0.00127119 0.000230998 4.31116e-07
0.000230998 9.78335e-05 4.18187e-08
4.31116e-07 4.18187e-08 -8.94699e-05
0.0016839 0.000291987 2.37926e-07
0.000291987 0.000178776 1.09085e-07
2.37926e-07 1.09085e-07 -8.26214e-06
0.00107035 0.000215794 9.63022e-07
0.000215794 0.000229441 5.32688e-07
9.63022e-07 5.32688e-07 2.32399e-05
0.00168266 0.000314955 -1.22732e-06
0.000314955 0.000321425 -1.85766e-07
-1.22732e-06 -1.85766e-07 0.000109304
0.00125015 0.00027388 4.5413e-07
0.00027388 0.000184441 -2.12128e-06
4.5413e-07 -2.12128e-06 -5.81333e-05
0.00151866 0.000297015 -3.1901e-06
0.000297015 0.000211172 3.73602e-07
-3.1901e-06 3.73602e-07 -7.98689e-06
0.000535525 -5.65536e-05 -1.52331e-07
-5.65536e-05 -3.09145e-05 4.94847e-06
-1.52331e-07 4.94847e-06 -5.48053e-05
0.000674792 -1.01685e-05 1.5646e-06
-1.01685e-05 5.58237e-05 3.19613e-06
1.5646e-06 3.19613e-06 -8.14953e-06
0.00103539 0.000182283 1.27093e-06
0.000182283 0.000269255 1.6294e-06
1.27093e-06 1.6294e-06 9.15484e-05
0.000948306 6.09511e-05 -8.89075e-07
6.09511e-05 0.000268357 2.658e-06
-8.89075e-07 2.658e-06 0.00012874
0.00114027 0.00016798 9.94644e-08
0.00016798 0.000359556 -1.85953e-06
9.94644e-08 -1.85953e-06 0.000174247
0.00175558 0.000258434 1.05572e-06
0.000258434 0.000174436 -1.40784e-06
1.05572e-06 -1.40784e-06 8.44562e-06
0.0015763 0.000311759 1.43324e-06
0.000311759 0.000183155 1.42816e-07
1.43324e-06 1.42816e-07 -2.1433e-05
0.00181384 0.000329306 2.1926e-07
0.000329306 0.000215891 -3.11879e-07
2.1926e-07 -3.11879e-07 3.46185e-05
0.00115283 0.000260417 2.29018e-06
0.000260417 0.000238683 4.76231e-06
2.29018e-06 4.76231e-06 8.7073e-07
0.00187248 0.000376055 1.78735e-06
0.000376055 0.000370152 -5.72758e-07
1.78735e-06 -5.72758e-07 0.000147524
0.000651133 0.000234605 4.06718e-06
0.000234605 -0.000232006 -1.41621e-06
4.06718e-06 -1.41621e-06 -0.000469862
0.000625791 9.27165e-07 2.56859e-06
9.27165e-07 1.75493e-05 2.34331e-06
2.56859e-06 2.34331e-06 -3.43817e-05
0.00068013 4.58535e-05 1.19214e-07
4.58535e-05 7.87304e-05 1.06307e-06
1.19214e-07 1.06307e-06 -6.69538e-06
0.000642758 1.55852e-05 2.03217e-06
1.55852e-05 2.97216e-05 2.29246e-06
2.03217e-06 2.29246e-06 -2.0095e-05
0.00061355 -1.71371e-05 -5.44792e-07
-1.71371e-05 1.17588e-05 5.20867e-09
-5.44792e-07 5.20867e-09 -3.9443e-05
0.00124699 -5.15957e-05 1.01383e-06
-5.15957e-05 0.000378463 2.67694e-06
1.01383e-06 2.67694e-06 0.000364665
0.000917906 -5.17782e-05 5.55303e-07
-5.17782e-05 0.000186893 -9.33444e-08
5.55303e-07 -9.33444e-08 0.000169032
0.000899697 -5.11666e-05 2.36478e-05
-5.11666e-05 0.000187751 7.43441e-06
2.36478e-05 7.43441e-06 0.00018924
0.00237122 -9.93541e-05 3.55284e-06
-9.93541e-05 0.00107839 -3.15471e-07
3.55284e-06 -3.15471e-07 0.00108298
0.00239886 -0.000111315 -3.26821e-05
-0.000111315 0.00110336 -3.02904e-06
-3.26821e-05 -3.02904e-06 0.00110479
0.000472672 2.30585e-05 1.00148e-06
2.30585e-05 -5.60107e-05 -6.31451e-06
1.00148e-06 -6.31451e-06 -8.93622e-05
0.00308101 0.000132723 5.54289e-05
0.000132723 0.00151551 -3.12114e-06
5.54289e-05 -3.12114e-06 0.00151036
0.000528391 -3.17714e-07 -3.78199e-07
-3.17714e-07 -2.30643e-05 2.5392e-07
-3.78199e-07 2.5392e-07 -6.3948e-05
0.00358516 0.000120545 -5.49687e-06
0.000120545 0.00181732 -5.16329e-07
-5.49687e-06 -5.16329e-07 0.00181447
0.000629395 -1.30253e-05 -6.8119e-06
-1.30253e-05 3.24884e-05 9.60043e-06
-6.8119e-06 9.60043e-06 -1.71555e-05
0.0040727 0.000119789 -0.000129209
0.000119789 0.00210804 7.43165e-06
-0.000129209 7.43165e-06 0.00210421
0.000985362 0.000110209 -1.26652e-05
0.000110209 -3.32266e-05 -3.71669e-06
-1.26652e-05 -3.71669e-06 -0.000171149
0.000994017 6.57439e-05 -1.21017e-05
6.57439e-05 -3.77221e-05 -2.09828e-06
-1.21017e-05 -2.09828e-06 -0.000164296
0.001472 0.000130294 -3.23032e-06
0.000130294 7.41035e-05 -3.34535e-07
-3.23032e-06 -3.34535e-07 -7.03678e-05
0.00145414 5.82511e-05 -1.9787e-06
5.82511e-05 5.62406e-05 -8.22698e-09
-1.9787e-06 -8.22698e-09 -7.18904e-05
0.000993526 2.38575e-05 -1.23464e-05
2.38575e-05 -3.4395e-05 -7.64501e-07
-1.23464e-05 -7.64501e-07 -0.000154885
0.000578455 2.69576e-05 -1.89549e-05
2.69576e-05 -0.000125333 -1.27217e-07
-1.89549e-05 -1.27217e-07 -0.000192696
0.000990679 1.99776e-06 -1.02354e-09
1.99776e-06 -3.18396e-05 -1.51851e-07
-1.02354e-09 -1.51851e-07 -0.000151359
0.00143846 3.28585e-05 -6.84658e-08
3.28585e-05 5.05255e-05 3.16241e-08
-6.84658e-08 3.16241e-08 -7.41562e-05
0.0014716 9.30976e-05 1.06177e-09
9.30976e-05 6.60514e-05 1.533e-08
1.06177e-09 1.533e-08 -6.84947e-05
0.00181166 8.34831e-05 4.29197e-08
8.34831e-05 0.000113056 2.38673e-07
4.29197e-08 2.38673e-07 1.29324e-05
0.00146146 0.000166714 -2.05394e-07
0.000166714 8.58801e-05 -8.01515e-08
-2.05394e-07 -8.01515e-08 -6.95721e-05
0.0017792 0.000173798 -2.89062e-07
0.000173798 0.000125901 1.19263e-09
-2.89062e-07 1.19263e-09 -2.40242e-06
0.00143246 5.78905e-06 2.08735e-06
5.78905e-06 5.04581e-05 3.27455e-08
2.08735e-06 3.27455e-08 -7.31352e-05
0.00181213 4.38801e-05 -3.56684e-06
4.38801e-05 0.000125291 -2.04025e-07
-3.56684e-06 -2.04025e-07 3.31958e-05
0.00179253 0.0001343 -1.56821e-06
0.0001343 0.000107006 -9.3141e-07
-1.56821e-06 -9.3141e-07 -6.70807e-06
0.00176923 8.42361e-05 2.59526e-06
8.42361e-05 2.35814e-05 2.14416e-07
2.59526e-06 2.14416e-07 -5.21711e-05
0.0017829 0.000215773 4.69194e-08
0.000215773 0.000160936 -1.14163e-06
4.69194e-08 -1.14163e-06 1.54833e-05
0.00173951 0.000195055 -7.68457e-07
0.000195055 4.11521e-05 -1.24072e-06
-7.68457e-07 -1.24072e-06 -6.15642e-05
0.000755816 -5.78544e-06 -1.21229e-05
-5.78544e-06 -0.000169221 7.24144e-07
-1.21229e-05 7.24144e-07 -0.000289741
0.0017159 -6.61327e-05 -2.36756e-05
-6.61327e-05 0.000394504 2.85174e-06
-2.36756e-05 2.85174e-06 0.000277983
0.00175386 -4.28352e-05 -5.28264e-06
-4.28352e-05 0.00024293 1.58283e-07
-5.28264e-06 1.58283e-07 0.000122489
0.00167266 -0.000132879 -4.18962e-06
-0.000132879 0.000216304 9.78045e-07
-4.18962e-06 9.78045e-07 7.44387e-05
0.000721249 -8.76024e-05 -1.51722e-05
-8.76024e-05 7.03579e-05 1.35613e-05
-1.51722e-05 1.35613e-05 1.62378e-06
0.000787465 -0.000182216 -8.26687e-06
-0.000182216 6.47643e-05 7.07167e-06
-8.26687e-06 7.07167e-06 -0.000102916
0.00103313 -0.000237982 -5.4487e-06
-0.000237982 4.17281e-05 2.37615e-06
-5.4487e-06 2.37615e-06 -0.000160797
0.00170059 -0.00019924 -7.91805e-06
-0.00019924 0.000276679 2.29471e-06
-7.91805e-06 2.29471e-06 0.000116763
0.00187139 -0.000212459 6.04041e-07
-0.000212459 0.00021 -1.0419e-06
6.04041e-07 -1.0419e-06 7.5723e-05
0.00163922 -0.000266809 -1.2407e-06
-0.000266809 0.000161016 -5.80988e-07
-1.2407e-06 -5.80988e-07 -1.18095e-05
0.00172532 -0.000332343 -4.72401e-06
-0.000332343 0.000302175 -2.61547e-07
-4.72401e-06 -2.61547e-07 8.44541e-05
0.00177678 -0.000319918 3.18757e-06
-0.000319918 0.000207399 -2.54114e-06
3.18757e-06 -2.54114e-06 2.75112e-05
0.000767922 -0.000124542 -3.96568e-06
-0.000124542 0.00011315 4.80557e-06
-3.96568e-06 4.80557e-06 -2.69428e-05
0.000461087 -8.47566e-05 -6.56544e-07
-8.47566e-05 -5.69302e-05 -1.1446e-06
-6.56544e-07 -1.1446e-06 -0.000218695
0.000606304 -4.49331e-05 -1.38804e-06
-4.49331e-05 2.74149e-05 3.20744e-06
-1.38804e-06 3.20744e-06 -7.91098e-05
0.00155946 -1.7881e-05 -2.0968e-06
-1.7881e-05 0.000129079 1.48223e-07
-2.0968e-06 1.48223e-07 5.46792e-06
0.00173645 -9.44715e-05 -2.78583e-06
-9.44715e-05 0.000236967 4.4165e-07
-2.78583e-06 4.4165e-07 0.000108266
0.00173077 -6.74901e-05 1.50905e-06
-6.74901e-05 8.89106e-05 5.66498e-07
1.50905e-06 5.66498e-07 -1.11359e-05
0.0017422 -0.000163785 -1.63307e-06
-0.000163785 0.000110672 4.96705e-07
-1.63307e-06 4.96705e-07 -1.61004e-05
0.000758899 -0.000154855 4.10983e-07
-0.000154855 9.93322e-05 2.42802e-07
4.10983e-07 2.42802e-07 -5.82626e-05
0.00109085 -0.000238574 -1.61634e-06
-0.000238574 0.000168017 -7.33696e-07
-1.61634e-06 -7.33696e-07 -4.1404e-05
0.00141249 -0.000320889 2.36573e-06
-0.000320889 0.000205528 -3.58952e-07
2.36573e-06 -3.58952e-07 -3.32428e-05
0.00162938 -0.00024117 -7.94127e-07
-0.00024117 0.000119151 5.79438e-07
-7.94127e-07 5.79438e-07 -3.76678e-05
0.00186238 -0.000232605 1.62695e-06
-0.000232605 0.000155168 1.08163e-07
1.62695e-06 1.08163e-07 4.35551e-05
0.0017995 -0.000368999 -8.60057e-07
-0.000368999 0.000277653 3.92133e-07
-8.60057e-07 3.92133e-07 5.50656e-05
0.00174175 -0.000297122 9.07614e-08
-0.000297122 0.000148917 3.5242e-07
9.07614e-08 3.5242e-07 -7.87025e-06
0.00201718 -0.000343782 1.84008e-06
-0.000343782 0.000327135 -2.71419e-07
1.84008e-06 -2.71419e-07 0.000163777
0.000968192 -0.000180112 3.66596e-07
-0.000180112 0.000218332 8.83227e-07
3.66596e-07 8.83227e-07 4.48099e-05
0.00116106 -0.000217554 -3.56091e-07
-0.000217554 0.000344211 2.42838e-07
-3.56091e-07 2.42838e-07 0.000152035
0.000634833 -3.17166e-05 6.93305e-10
-3.17166e-05 4.49173e-05 2.02897e-07
6.93305e-10 2.02897e-07 -4.6559e-05
0.00036695 -4.27593e-05 -7.47494e-08
-4.27593e-05 -9.74626e-05 -6.22399e-07
-7.47494e-08 -6.22399e-07 -0.00024956
0.00175416 -3.69411e-05 -2.46949e-06
-3.69411e-05 0.000101932 2.50534e-07
-2.46949e-06 2.50534e-07 4.42606e-06
0.00184272 -0.00011307 -7.65466e-07
-0.00011307 0.000152935 1.4149e-06
-7.65466e-07 1.4149e-06 4.16507e-05
0.00170514 -7.80461e-05 1.63365e-06
-7.80461e-05 2.22347e-05 -7.86346e-08
1.63365e-06 -7.86346e-08 -5.73588e-05
0.00179114 -0.000189976 -3.37695e-06
-0.000189976 6.97958e-05 7.45915e-07
-3.37695e-06 7.45915e-07 -2.31547e-05
0.00173025 -0.000264024 -3.53818e-06
-0.000264024 0.000109595 2.67689e-06
-3.53818e-06 2.67689e-06 -2.21909e-05
0.0020053 -0.000239481 2.23246e-06
-0.000239481 0.00022332 -7.93969e-07
2.23246e-06 -7.93969e-07 0.000126517
0.000965563 -0.000210443 5.64217e-07
-0.000210443 0.000178423 -3.93888e-06
5.64217e-07 -3.93888e-06 -1.53967e-05
0.00164866 -0.000308368 -4.78486e-06
-0.000308368 7.22753e-05 2.42742e-06
-4.78486e-06 2.42742e-06 -6.24336e-05
0.00116971 -0.000286113 1.90173e-06
-0.000286113 0.000169311 -4.76178e-06
1.90173e-06 -4.76178e-06 -7.11898e-05
0.00166705 -0.000393302 -1.55648e-06
-0.000393302 0.000293998 1.47754e-06
-1.55648e-06 1.47754e-06 3.07191e-05
0.00174343 -0.000378495 1.066e-06
-0.000378495 0.000198536 4.82091e-06
1.066e-06 4.82091e-06 -1.99864e-05
0.00200051 -0.000329904 -2.71453e-07
-0.000329904 0.000306986 9.44081e-07
-2.71453e-07 9.44081e-07 0.000151463
0.000537801 -3.32161e-05 1.05287e-06
-3.32161e-05 -1.21361e-05 -3.22595e-06
1.05287e-06 -3.22595e-06 -9.07266e-05
0.000445767 -3.79904e-05 -1.45112e-06
-3.79904e-05 -4.11776e-05 -1.01129e-06
-1.45112e-06 -1.01129e-06 -0.000181455
0.000869293 -0.000210273 -1.25018e-06
-0.000210273 0.000133457 9.19833e-07
-1.25018e-06 9.19833e-07 -5.53297e-05
0.00081229 -0.000151358 4.63174e-07
-0.000151358 0.000183644 2.56681e-06
4.63174e-07 2.56681e-06 -3.54346e-06
0.00145632 -0.00026508 -3.8931e-06
-0.00026508 0.000501925 4.24115e-06
-3.8931e-06 4.24115e-06 0.000307308
0.000492505 -6.11494e-05 -4.48299e-07
-6.11494e-05 -4.5904e-05 -5.0096e-06
-4.48299e-07 -5.0096e-06 -7.36671e-05
0.00141565 0.000195664 -4.50714e-06
0.000195664 9.22062e-05 -1.30804e-06
-4.50714e-06 -1.30804e-06 -7.55807e-05
0.000498956 -3.51583e-05 -2.59034e-07
-3.51583e-05 -3.19553e-05 -3.4504e-06
-2.59034e-07 -3.4504e-06 -0.000111944
0.000709921 8.21709e-05 -1.95961e-06
8.21709e-05 8.52863e-05 -4.66147e-06
-1.95961e-06 -4.66147e-06 -4.73776e-05
0.000620742 5.74341e-05 1.44789e-06
5.74341e-05 6.47727e-05 -1.04184e-06
1.44789e-06 -1.04184e-06 -8.90442e-05
0.00129153 0.000231189 -6.37325e-06
0.000231189 0.000115311 -2.38559e-06
-6.37325e-06 -2.38559e-06 -7.20797e-05
0.00166563 0.00029106 -1.09482e-07
0.00029106 0.000166791 6.2293e-07
-1.09482e-07 6.2293e-07 -2.04065e-05
0.000854451 0.000202388 -1.40762e-06
0.000202388 0.000105471 -3.79557e-06
-1.40762e-06 -3.79557e-06 -0.00010022
0.00123812 0.000277712 -2.18524e-06
0.000277712 0.000172319 -2.23072e-06
-2.18524e-06 -2.23072e-06 -7.27788e-05
0.00174872 0.000316096 -2.64177e-06
0.000316096 0.000362114 -4.2764e-07
-2.64177e-06 -4.2764e-07 0.000150205
0.00153635 0.00030024 -6.53712e-06
0.00030024 0.000223445 3.23188e-06
-6.53712e-06 3.23188e-06 3.67915e-06
0.000540983 -5.19533e-05 1.61323e-08
-5.19533e-05 -2.99607e-05 4.33649e-09
1.61323e-08 4.33649e-09 -5.26818e-05
0.000632444 -1.93464e-05 -6.19328e-07
-1.93464e-05 3.34717e-05 2.94975e-07
-6.19328e-07 2.94975e-07 -3.07222e-05
0.000947811 0.000174592 -1.99857e-07
0.000174592 0.000217567 1.03307e-06
-1.99857e-07 1.03307e-06 4.09458e-05
0.000683255 1.69937e-05 -5.45457e-07
1.69937e-05 0.000103467 2.1519e-07
-5.45457e-07 2.1519e-07 -2.63013e-05
0.000628224 0.000115484 6.20605e-07
0.000115484 4.90417e-05 -7.64487e-07
6.20605e-07 -7.64487e-07 -0.000125871
0.00173737 0.000258804 -1.96971e-07
0.000258804 0.000161012 -8.49624e-07
-1.96971e-07 -8.49624e-07 -5.38522e-06
0.00157679 0.000312534 4.85535e-07
0.000312534 0.000181389 1.80361e-07
4.85535e-07 1.80361e-07 -2.36692e-05
0.00173552 0.000325916 1.79647e-06
0.000325916 0.000170984 1.99088e-07
1.79647e-06 1.99088e-07 -1.06685e-05
0.00118675 0.000264033 1.21041e-06
0.000264033 0.000265829 1.1716e-06
1.21041e-06 1.1716e-06 2.50887e-05
0.00181326 0.000370197 9.33947e-07
0.000370197 0.000319413 1.17139e-07
9.33947e-07 1.17139e-07 9.63389e-05
0.00130606 0.000291651 -1.28182e-06
0.000291651 0.000150565 3.18575e-07
-1.28182e-06 3.18575e-07 -9.46482e-05
0.000681531 -5.67804e-06 2.14724e-06
-5.67804e-06 5.28606e-05 2.54941e-06
2.14724e-06 2.54941e-06 -2.97424e-06
0.000865208 5.55078e-05 7.03482e-07
5.55078e-05 0.000200313 2.74162e-06
7.03482e-07 2.74162e-06 9.31318e-05
0.00105279 0.000229873 -2.68251e-06
0.000229873 0.000250128 -7.75011e-07
-2.68251e-06 -7.75011e-07 5.34296e-05
0.00121249 9.06299e-05 8.29658e-08
9.06299e-05 0.000420321 7.75516e-07
8.29658e-08 7.75516e-07 0.000255992
0.00114194 0.000139246 -5.54805e-06
0.000139246 0.000309772 -6.2041e-06
-5.54805e-06 -6.2041e-06 0.000145065
0.0017728 0.000269567 -2.93258e-06
0.000269567 0.000148444 -2.60322e-06
-2.93258e-06 -2.60322e-06 -2.01111e-06
0.00179093 0.000372698 1.68323e-06
0.000372698 0.000250892 2.92049e-07
1.68323e-06 2.92049e-07 4.15809e-05
0.00153001 0.000345522 3.68772e-06
0.000345522 2.56354e-05 -8.61325e-07
3.68772e-06 -8.61325e-07 -0.000153469
0.000810539 0.000243917 -1.14751e-06
0.000243917 2.91195e-05 3.11415e-06
-1.14751e-06 3.11415e-06 -0.000218479
0.00142626 0.000347431 6.17637e-06
0.000347431 0.000138322 -1.25442e-06
6.17637e-06 -1.25442e-06 -0.000103368
0.000627626 -6.89556e-06 -1.82568e-07
-6.89556e-06 1.81059e-05 2.22983e-08
-1.82568e-07 2.22983e-08 -3.35822e-05
0.000557149 2.35616e-05 1.46677e-06
2.35616e-05 -4.75006e-06 1.55848e-06
1.46677e-06 1.55848e-06 -8.50606e-05
0.000546664 1.26122e-05 -5.99179e-07
1.26122e-05 -6.7135e-06 -9.87383e-08
-5.99179e-07 -9.87383e-08 -8.69057e-05
0.000924477 9.12216e-05 3.27143e-07
9.12216e-05 0.000229335 -5.1877e-07
3.27143e-07 -5.1877e-07 0.00012907
0.000679424 7.00082e-05 1.87305e-06
7.00082e-05 7.90738e-05 1.38651e-06
1.87305e-06 1.38651e-06 -5.07483e-06
0.000620599 2.78177e-05 2.11294e-06
2.78177e-05 2.16228e-05 2.36216e-06
2.11294e-06 2.36216e-06 -2.91676e-05
0.000617872 -9.30662e-06 -6.38508e-07
-9.30662e-06 1.62335e-05 1.0058e-09
-6.38508e-07 1.0058e-09 -3.40939e-05
0.0012451 -3.90124e-05 8.28377e-07
-3.90124e-05 0.000373599 2.54348e-06
8.28377e-07 2.54348e-06 0.000361752
0.000620045 -1.78611e-05 -1.19806e-06
-1.78611e-05 1.44079e-05 -2.35673e-06
-1.19806e-06 -2.35673e-06 -3.58024e-05
0.00129561 -4.84118e-05 -5.35582e-06
-4.84118e-05 0.000407137 -1.39865e-06
-5.35582e-06 -1.39865e-06 0.00039383
0.000862944 -4.03638e-05 2.31613e-05
-4.03638e-05 0.000157379 7.56175e-06
2.31613e-05 7.56175e-06 0.00016202
0.00131425 -5.71735e-05 -9.52266e-06
-5.71735e-05 0.000424143 -3.8765e-06
-9.52266e-06 -3.8765e-06 0.000408546
0.00158059 -6.74637e-05 2.08543e-05
-6.74637e-05 0.000596057 1.9143e-06
2.08543e-05 1.9143e-06 0.000600822
0.00232211 -9.64444e-05 -2.88482e-05
-9.64444e-05 0.00104791 -3.57017e-06
-2.88482e-05 -3.57017e-06 0.00105313
0.000471776 6.29998e-05 -2.10834e-06
6.29998e-05 -5.44651e-05 -5.22776e-06
-2.10834e-06 -5.22776e-06 -8.53248e-05
0.000511427 2.0738e-05 3.59658e-07
2.0738e-05 -3.24794e-05 3.25921e-07
3.59658e-07 3.25921e-07 -6.67373e-05
0.00272508 0.000119499 3.46262e-05
0.000119499 0.00129794 -3.43934e-06
3.46262e-05 -3.43934e-06 0.00129619
0.00319171 0.00011065 -6.92153e-06
0.00011065 0.0015784 -4.1742e-07
-6.92153e-06 -4.1742e-07 0.00157854
0.000628018 -1.68913e-06 -5.36971e-06
-1.68913e-06 3.51798e-05 7.90109e-06
-5.36971e-06 7.90109e-06 -6.39625e-06
0.00369217 0.00010664 -0.000114753
0.00010664 0.00187717 6.30083e-06
-0.000114753 6.30083e-06 0.00187745
0.00145083 0.000166248 -4.00808e-06
0.000166248 8.13682e-05 -6.41606e-07
-4.00808e-06 -6.41606e-07 -7.435e-05
0.00145891 9.35478e-05 -2.31368e-06
9.35478e-05 5.97403e-05 -1.06352e-07
-2.31368e-06 -1.06352e-07 -7.52246e-05
0.00176216 0.00017236 -2.34367e-07
0.00017236 0.000119694 1.20365e-06
-2.34367e-07 1.20365e-06 -8.73385e-06
0.00183811 8.29009e-05 1.25307e-06
8.29009e-05 0.000123284 7.71458e-07
1.25307e-06 7.71458e-07 2.60116e-05
0.00143537 3.57753e-05 -1.93539e-06
3.57753e-05 4.9488e-05 -6.13931e-08
-1.93539e-06 -6.13931e-08 -7.53783e-05
0.000995351 6.58056e-06 -1.21247e-05
6.58056e-06 -2.96108e-05 -8.24955e-08
-1.21247e-05 -8.24955e-08 -0.000149096
0.00142605 9.31855e-06 7.1356e-08
9.31855e-06 4.8035e-05 3.17228e-08
7.1356e-08 3.17228e-08 -7.5664e-05
0.00181454 3.49079e-05 -1.95199e-06
3.49079e-05 0.000127711 -6.46526e-08
-1.95199e-06 -6.46526e-08 3.6084e-05
0.00179877 0.000133092 -2.62281e-07
0.000133092 0.000110737 1.77017e-07
-2.62281e-07 1.77017e-07 -2.89172e-06
0.00180672 8.27135e-05 2.25059e-06
8.27135e-05 4.65423e-05 8.14477e-07
2.25059e-06 8.14477e-07 -2.38295e-05
0.00175668 0.000216284 -2.83043e-07
0.000216284 0.000140985 -8.08593e-08
-2.83043e-07 -8.08593e-08 -5.06116e-06
0.00177651 0.000192658 -4.02906e-07
0.000192658 6.05854e-05 9.20393e-07
-4.02906e-07 9.20393e-07 -3.92435e-05
0.00178268 2.22482e-06 -2.73286e-06
2.22482e-06 0.000118277 2.15622e-07
-2.73286e-06 2.15622e-07 2.69328e-05
0.0017628 3.98133e-05 2.83061e-06
3.98133e-05 3.33109e-05 2.63483e-07
2.83061e-06 2.63483e-07 -3.18592e-05
0.00184462 0.000141154 -5.29621e-07
0.000141154 7.45587e-05 -6.66704e-07
-5.29621e-07 -6.66704e-07 -6.77249e-06
0.00179825 8.96912e-05 5.23366e-06
8.96912e-05 1.82388e-05 5.89522e-07
5.23366e-06 5.89522e-07 -3.63796e-05
0.00173819 0.000216126 -6.08688e-07
0.000216126 8.32146e-05 -2.38672e-06
-6.08688e-07 -2.38672e-06 -3.80647e-05
0.00191701 0.000202437 3.67171e-06
0.000202437 0.000105396 8.09005e-07
3.67171e-06 8.09005e-07 2.2414e-05
0.00144885 -1.58736e-05 -3.97851e-06
-1.58736e-05 6.27507e-05 8.80908e-08
-3.97851e-06 8.80908e-08 -6.1319e-05
0.00174702 -9.92495e-05 -6.04208e-06
-9.92495e-05 0.000242282 7.05155e-07
-6.04208e-06 7.05155e-07 0.000113008
0.00175565 -6.54133e-05 3.33743e-06
-6.54133e-05 0.000104012 -1.28689e-06
3.33743e-06 -1.28689e-06 9.05444e-06
0.00173278 -0.00016072 -1.65754e-07
-0.00016072 0.00010429 -1.21948e-07
-1.65754e-07 -1.21948e-07 -2.36311e-05
0.000871835 -0.000178789 -5.40022e-06
-0.000178789 0.000167491 7.4496e-06
-5.40022e-06 7.4496e-06 5.85422e-06
0.00109903 -0.00023981 -6.06947e-06
-0.00023981 0.0001678 3.75775e-06
-6.06947e-06 3.75775e-06 -4.13941e-05
0.00127277 -0.000303635 -9.00756e-07
-0.000303635 0.000129788 7.37772e-07
-9.00756e-07 7.37772e-07 -0.000106406
0.00163007 -0.00024005 -1.07896e-06
-0.00024005 0.000121615 1.60111e-07
-1.07896e-06 1.60111e-07 -3.83152e-05
0.00190137 -0.000233708 3.31043e-06
-0.000233708 0.000179255 -1.71112e-06
3.31043e-06 -1.71112e-06 7.18305e-05
0.00177832 -0.000298202 2.40635e-06
-0.000298202 0.00017035 -1.19735e-06
2.40635e-06 -1.19735e-06 1.37152e-05
0.00171679 -0.00037081 -2.61283e-07
-0.00037081 0.000224769 -1.7635e-06
-2.61283e-07 -1.7635e-06 -8.21078e-07
0.00203534 -0.000340677 5.7275e-06
-0.000340677 0.00033792 -6.25312e-06
5.7275e-06 -6.25312e-06 0.000178075
0.000909178 -0.000180055 3.84774e-07
-0.000180055 0.000185159 1.45052e-06
3.84774e-07 1.45052e-06 1.09011e-05
0.000655 -0.000155501 3.28037e-07
-0.000155501 3.5356e-05 -8.22795e-07
3.28037e-07 -8.22795e-07 -0.000142852
0.000700242 -3.66323e-05 -1.24421e-06
-3.66323e-05 8.13299e-05 3.40739e-06
-1.24421e-06 3.40739e-06 -1.04223e-05
0.000281284 -1.47249e-05 8.35007e-07
-1.47249e-05 -0.000152934 -2.01842e-06
8.35007e-07 -2.01842e-06 -0.000297759
0.00173855 -3.70113e-05 2.14355e-08
-3.70113e-05 9.37617e-05 1.13538e-07
2.14355e-08 1.13538e-07 -3.89884e-06
0.0017835 -0.000112207 4.86354e-07
-0.000112207 0.000120897 -3.26705e-07
4.86354e-07 -3.26705e-07 7.4784e-06
0.00173668 -7.67144e-05 2.10213e-06
-7.67144e-05 3.99881e-05 -5.92147e-07
2.10213e-06 -5.92147e-07 -3.52895e-05
0.00176323 -0.000186495 -1.72015e-06
-0.000186495 5.94682e-05 6.56602e-07
-1.72015e-06 6.56602e-07 -3.54404e-05
0.00100127 -0.000206969 -1.05076e-06
-0.000206969 0.000199994 7.62075e-07
-1.05076e-06 7.62075e-07 6.99246e-06
0.00103088 -0.000269095 1.17349e-06
-0.000269095 8.53471e-05 -1.82508e-06
1.17349e-06 -1.82508e-06 -0.000150208
0.00162504 -0.000394354 -2.16496e-07
-0.000394354 0.000268044 9.36e-07
-2.16496e-07 9.36e-07 1.40668e-06
0.00169376 -0.000261078 -1.52084e-06
-0.000261078 9.36896e-05 7.63036e-07
-1.52084e-06 7.63036e-07 -4.16587e-05
0.00185473 -0.00023561 2.02552e-06
-0.00023561 0.000131562 -1.03128e-06
2.02552e-06 -1.03128e-06 3.90114e-05
0.00174525 -0.000380716 -6.0018e-07
-0.000380716 0.000204489 5.73425e-07
-6.0018e-07 5.73425e-07 -1.54305e-05
0.00171011 -0.000311786 -5.86638e-07
-0.000311786 0.000104716 1.06999e-06
-5.86638e-07 1.06999e-06 -3.04553e-05
0.00186267 -0.000321593 3.62781e-06
-0.000321593 0.000213163 -5.4222e-06
3.62781e-06 -5.4222e-06 6.27391e-05
0.00103335 -0.000226385 6.62743e-07
-0.000226385 0.000226472 1.48311e-06
6.62743e-07 1.48311e-06 3.48982e-05
0.00126075 -0.000240047 3.31389e-06
-0.000240047 0.000378463 1.30445e-06
3.31389e-06 1.30445e-06 0.000193178
0.000770813 -0.000116993 -2.57733e-07
-0.000116993 0.00015446 -2.23708e-07
-2.57733e-07 -2.23708e-07 -3.19414e-05
0.00046337 -8.48627e-06 -1.35625e-06
-8.48627e-06 -5.64093e-05 4.31973e-07
-1.35625e-06 4.31973e-07 -0.000136464
0.00038139 -5.63044e-06 -3.51438e-07
-5.63044e-06 -8.16472e-05 -7.08142e-07
-3.51438e-07 -7.08142e-07 -0.000215408
0.00187572 -4.99923e-05 1.3325e-06
-4.99923e-05 0.000108226 -6.77309e-07
1.3325e-06 -6.77309e-07 4.53841e-05
0.00187097 -0.000111033 2.70379e-06
-0.000111033 9.72679e-05 2.32466e-07
2.70379e-06 2.32466e-07 2.20274e-05
0.00181986 -0.00022476 5.49752e-07
-0.00022476 6.38258e-05 -1.57991e-06
5.49752e-07 -1.57991e-06 -1.20396e-05
0.00164995 -0.000260469 -7.6578e-07
-0.000260469 3.29668e-05 -1.0961e-08
-7.6578e-07 -1.0961e-08 -7.28192e-05
0.00106683 -0.000246023 -2.25441e-06
-0.000246023 0.000203814 -4.38438e-06
-2.25441e-06 -4.38438e-06 -1.19579e-05
0.00223486 -0.000372433 -3.58275e-06
-0.000372433 0.000348028 5.07991e-07
-3.58275e-06 5.07991e-07 0.000215551
0.00133977 -0.000343716 2.3635e-06
-0.000343716 0.00023083 -3.66922e-06
2.3635e-06 -3.66922e-06 -3.85715e-05
0.00168724 -0.000438091 -4.14255e-07
-0.000438091 0.00026422 1.99277e-06
-4.14255e-07 1.99277e-06 -1.57491e-05
0.00162675 -0.000365254 1.71491e-06
-0.000365254 0.000108525 3.84231e-06
1.71491e-06 3.84231e-06 -0.000101969
0.000248295 1.10896e-05 2.43569e-07
1.10896e-05 -0.000183112 -3.49453e-06
2.43569e-07 -3.49453e-06 -0.000251617
0.00072241 -4.2508e-05 4.45098e-07
-4.2508e-05 0.000133871 -7.72705e-07
4.45098e-07 -7.72705e-07 8.4071e-06
0.000951409 -7.21201e-05 -1.47832e-06
-7.21201e-05 0.000256236 1.24398e-06
-1.47832e-06 1.24398e-06 9.67595e-05
0.00115906 -0.000246928 -6.5016e-06
-0.000246928 0.000283992 6.18295e-07
-6.5016e-06 6.18295e-07 8.69413e-05
0.000492317 -0.000127045 2.73674e-06
-0.000127045 -2.29767e-05 4.52151e-06
2.73674e-06 4.52151e-06 -0.000220521
0.000638794 -0.000202737 -1.40577e-06
-0.000202737 -1.9828e-05 6.4859e-07
-1.40577e-06 6.4859e-07 -0.000199189
0.000544803 -4.99896e-05 -1.05768e-06
-4.99896e-05 -2.88067e-05 -4.61518e-06
-1.05768e-06 -4.61518e-06 -5.10216e-05
0.000576921 -2.29447e-05 -1.77321e-06
-2.29447e-05 2.44458e-06 -2.65923e-06
-1.77321e-06 -2.65923e-06 -6.16245e-05
0.00171735 0.000259159 -1.38185e-06
0.000259159 0.000146232 -2.62536e-07
-1.38185e-06 -2.62536e-07 -2.05903e-05
0.000429704 -5.87658e-05 1.3818e-06
-5.87658e-05 -4.798e-05 -2.57316e-06
1.3818e-06 -2.57316e-06 -0.000171406
0.000802064 0.000158145 -1.19592e-06
0.000158145 0.000133407 5.44158e-07
-1.19592e-06 5.44158e-07 -3.96206e-05
0.00014649 6.47918e-05 1.53842e-06
6.47918e-05 -0.000243035 1.63017e-06
1.53842e-06 1.63017e-06 -0.000408494
0.00157852 0.000312985 -3.21113e-07
0.000312985 0.000181779 3.44397e-07
-3.21113e-07 3.44397e-07 -2.36394e-05
0.00165583 0.000322033 3.10509e-07
0.000322033 0.000126581 1.75868e-07
3.10509e-07 1.75868e-07 -5.53305e-05
0.0012119 0.00026696 1.44479e-06
0.00026696 0.000287777 -1.5735e-06
1.44479e-06 -1.5735e-06 4.41233e-05
0.00191797 0.000344069 -1.11187e-06
0.000344069 0.000506653 -1.54064e-06
-1.11187e-06 -1.54064e-06 0.000256424
0.00174055 0.000363204 -3.10403e-06
0.000363204 0.000262604 -2.32013e-07
-3.10403e-06 -2.32013e-07 3.92601e-05
0.000624741 -6.10553e-06 -3.49025e-07
-6.10553e-06 2.04295e-05 2.20207e-07
-3.49025e-07 2.20207e-07 -3.53212e-05
0.000694098 -1.49746e-06 -9.33377e-07
-1.49746e-06 9.72428e-05 4.38783e-07
-9.33377e-07 4.38783e-07 -4.71441e-06
0.00110059 0.000234737 -7.20285e-07
0.000234737 0.000280248 1.13113e-07
-7.20285e-07 1.13113e-07 8.22756e-05
0.00083651 3.94306e-05 5.00789e-07
3.94306e-05 0.000193753 -1.34244e-07
5.00789e-07 -1.34244e-07 3.7457e-05
0.000812339 0.000150832 1.3402e-06
0.000150832 0.000131652 1.28523e-06
1.3402e-06 1.28523e-06 -3.94732e-05
0.00174791 0.000270894 -1.92591e-06
0.000270894 0.000135925 -1.46028e-06
-1.92591e-06 -1.46028e-06 -1.57834e-05
0.00175003 0.000369233 1.56467e-06
0.000369233 0.000224528 4.28557e-07
1.56467e-06 4.28557e-07 1.54404e-05
0.00166737 0.000350167 4.56618e-07
0.000350167 0.00010655 -4.51439e-08
4.56618e-07 -4.51439e-08 -7.14362e-05
0.000862536 0.000255725 8.62649e-07
0.000255725 4.98331e-05 3.2564e-06
8.62649e-07 3.2564e-06 -0.00019999
0.00160605 0.000362753 -2.25823e-06
0.000362753 0.000253741 -1.05559e-06
-2.25823e-06 -1.05559e-06 8.90691e-06
0.000778266 3.5633e-05 6.60843e-07
3.5633e-05 0.000138006 1.90078e-06
6.60843e-07 1.90078e-06 4.80224e-05
0.000353142 -5.38769e-06 -1.94413e-06
-5.38769e-06 -9.41478e-05 2.77694e-06
-1.94413e-06 2.77694e-06 -0.000216478
0.0011559 0.000254827 -3.63577e-06
0.000254827 0.000266179 -1.49564e-06
-3.63577e-06 -1.49564e-06 6.27867e-05
0.000701189 0.000118392 -5.20176e-06
0.000118392 0.000135125 -4.4531e-06
-5.20176e-06 -4.4531e-06 -4.82039e-05
0.000734722 0.000210478 -1.20512e-06
0.000210478 5.34649e-05 -2.68291e-06
-1.20512e-06 -2.68291e-06 -0.000121836
0.0016319 0.000288173 -4.01776e-07
0.000288173 2.45759e-06 -2.18809e-06
-4.01776e-07 -2.18809e-06 -0.00012415
0.00190295 0.000406968 3.64525e-06
0.000406968 0.00029734 -1.94511e-06
3.64525e-06 -1.94511e-06 7.5588e-05
0.00155945 0.000363225 2.82378e-06
0.000363225 3.3128e-05 1.07875e-07
2.82378e-06 1.07875e-07 -0.000146807
0.00138117 0.000313112 1.90816e-06
0.000313112 0.000293904 8.00607e-06
1.90816e-06 8.00607e-06 2.55938e-05
0.00146959 0.000377505 -9.85238e-07
0.000377505 0.000183397 -7.82438e-07
-9.85238e-07 -7.82438e-07 -6.51438e-05
0.000605646 -1.74856e-05 -1.5084e-06
-1.74856e-05 6.1595e-06 -2.46556e-06
-1.5084e-06 -2.46556e-06 -4.61513e-05
0.000620176 2.79677e-05 1.00706e-06
2.79677e-05 3.44909e-05 3.33024e-07
1.00706e-06 3.33024e-07 -4.65416e-05
0.000525352 6.58776e-06 -2.60214e-07
6.58776e-06 -2.05493e-05 9.94167e-07
-2.60214e-07 9.94167e-07 -0.000107158
0.00043887 -2.85856e-05 -6.68803e-07
-2.85856e-05 -7.10357e-05 -1.37059e-06
-6.68803e-07 -1.37059e-06 -0.000150325
0.000660758 3.54427e-05 -2.77795e-07
3.54427e-05 6.70642e-05 1.8088e-08
-2.77795e-07 1.8088e-08 -1.55759e-05
0.000686842 4.75762e-05 -3.13665e-07
4.75762e-05 7.78632e-05 -3.51136e-07
-3.13665e-07 -3.51136e-07 -1.28371e-05
0.000812687 7.85589e-05 -1.2559e-06
7.85589e-05 0.000160605 -1.82711e-06
-1.2559e-06 -1.82711e-06 6.08242e-05
0.000508694 -1.18785e-05 6.6188e-07
-1.18785e-05 -1.28168e-05 2.05642e-07
6.6188e-07 2.05642e-07 -0.000114045
0.000686998 5.89804e-05 9.38584e-07
5.89804e-05 7.94402e-05 1.50503e-06
9.38584e-07 1.50503e-06 2.00553e-08
0.000628961 3.45341e-05 2.2039e-06
3.45341e-05 3.11978e-05 2.38485e-06
2.2039e-06 2.38485e-06 -2.08835e-05
0.000617758 2.03152e-07 -1.19064e-06
2.03152e-07 1.98328e-05 5.59097e-09
-1.19064e-06 5.59097e-09 -3.08617e-05
0.0012509 -2.6845e-05 9.35724e-07
-2.6845e-05 0.000375642 2.48476e-06
9.35724e-07 2.48476e-06 0.000364753
0.000584073 -4.5638e-05 -7.80533e-08
-4.5638e-05 -2.85683e-07 -2.34407e-06
-7.80533e-08 -2.34407e-06 -5.25495e-05
0.00129558 -3.59168e-05 -4.61893e-06
-3.59168e-05 0.000403416 -1.4512e-06
-4.61893e-06 -1.4512e-06 0.000391861
0.000858219 -3.26979e-05 1.94737e-05
-3.26979e-05 0.000149247 7.90453e-06
1.94737e-05 7.90453e-06 0.000155438
0.00133559 -4.61319e-05 -8.40947e-06
-4.61319e-05 0.000430607 -5.49493e-06
-8.40947e-06 -5.49493e-06 0.000417533
0.000807372 -4.12888e-05 7.10664e-06
-4.12888e-05 0.000123676 2.97107e-06
7.10664e-06 2.97107e-06 0.000127764
0.0022568 -9.0345e-05 -4.59624e-06
-9.0345e-05 0.00100074 -1.96592e-06
-4.59624e-06 -1.96592e-06 0.00100737
0.000501567 4.55017e-05 -6.89497e-07
4.55017e-05 -5.01044e-05 -3.93249e-06
-6.89497e-07 -3.93249e-06 -7.13895e-05
0.000512231 4.28022e-05 -1.05884e-06
4.28022e-05 -3.47165e-05 3.33956e-10
-1.05884e-06 3.33956e-10 -6.33335e-05
0.00249324 0.000102582 2.56577e-05
0.000102582 0.00115309 -3.64867e-06
2.56577e-05 -3.64867e-06 0.00115582
0.000577585 6.43392e-06 -4.30669e-06
6.43392e-06 3.95966e-06 6.59969e-06
-4.30669e-06 6.59969e-06 -2.91561e-05
0.00285721 0.000118401 -1.17044e-05
0.000118401 0.00137585 -6.24916e-07
-1.17044e-05 -6.24916e-07 0.00137462
0.00331445 9.82247e-05 -9.60558e-05
9.82247e-05 0.00164857 5.05275e-06
-9.60558e-05 5.05275e-06 0.0016516
0.00172962 0.00021661 -1.74055e-06
0.00021661 0.000120994 7.18406e-07
-1.74055e-06 7.18406e-07 -2.56154e-05
0.00180358 0.000130822 1.28814e-06
0.000130822 0.000114048 1.31607e-06
1.28814e-06 1.31607e-06 6.41994e-07
0.00181652 0.000190423 9.78869e-07
0.000190423 8.15361e-05 2.15173e-06
9.78869e-07 2.15173e-06 -1.53653e-05
0.00184402 8.12526e-05 1.22342e-06
8.12526e-05 6.92757e-05 1.13453e-06
1.22342e-06 1.13453e-06 4.43803e-06
0.00181842 2.83736e-05 -3.61316e-07
2.83736e-05 0.000131266 1.11823e-07
-3.61316e-07 1.11823e-07 4.00359e-05
0.00142577 1.21417e-05 -1.82908e-06
1.21417e-05 4.86927e-05 4.63828e-08
-1.82908e-06 4.63828e-08 -7.50278e-05
0.00174698 3.29837e-06 -1.70584e-06
3.29837e-06 9.60716e-05 1.214e-08
-1.70584e-06 1.214e-08 2.36784e-06
0.00177817 3.80688e-05 2.08014e-06
3.80688e-05 4.54895e-05 9.22205e-08
2.08014e-06 9.22205e-08 -2.1398e-05
0.00185905 0.000140199 -1.39017e-06
0.000140199 8.56601e-05 -6.16276e-07
-1.39017e-06 -6.16276e-07 4.1602e-06
0.00182654 9.16029e-05 1.71236e-06
9.16029e-05 3.27356e-05 5.10328e-07
1.71236e-06 5.10328e-07 -1.9195e-05
0.00176225 0.000215074 -8.5265e-07
0.000215074 0.000105371 -2.4518e-07
-8.5265e-07 -2.4518e-07 -1.58704e-05
0.00187191 0.000203435 3.64041e-06
0.000203435 7.96564e-05 1.46524e-06
3.64041e-06 1.46524e-06 -3.62658e-07
0.00179328 -6.76382e-06 6.50886e-07
-6.76382e-06 6.81731e-05 1.48818e-07
6.50886e-07 1.48818e-07 3.00147e-06
0.0018653 4.31188e-05 4.99309e-06
4.31188e-05 3.94319e-05 1.00931e-07
4.99309e-06 1.00931e-07 3.57675e-06
0.00188087 0.000144402 3.99366e-06
0.000144402 5.84217e-05 9.36667e-07
3.99366e-06 9.36667e-07 3.5542e-07
0.00189329 0.00025278 5.7213e-07
0.00025278 0.000107127 -4.92108e-07
5.7213e-07 -4.92108e-07 1.27547e-05
0.00172763 -3.7148e-05 1.67069e-06
-3.7148e-05 8.84789e-05 1.08805e-08
1.67069e-06 1.08805e-08 -9.31573e-06
0.0017213 -0.000112897 2.40693e-06
-0.000112897 8.71676e-05 -1.20238e-06
2.40693e-06 -1.20238e-06 -2.85333e-05
0.00177915 -7.56044e-05 3.82248e-06
-7.56044e-05 6.45562e-05 -1.91095e-06
3.82248e-06 -1.91095e-06 -6.43789e-06
0.00175243 -0.000183134 -9.81742e-07
-0.000183134 5.83166e-05 2.03302e-07
-9.81742e-07 2.03302e-07 -3.83599e-05
0.00113519 -0.000218917 -1.46352e-06
-0.000218917 0.000279928 4.8467e-06
-1.46352e-06 4.8467e-06 8.39499e-05
0.00109802 -0.000270829 -7.38119e-07
-0.000270829 0.000122476 1.64955e-06
-7.38119e-07 1.64955e-06 -0.000110659
0.00161568 -0.00039893 9.19065e-07
-0.00039893 0.000263279 -5.2784e-07
9.19065e-07 -5.2784e-07 -7.58859e-06
0.00165244 -0.000258073 2.00192e-07
-0.000258073 7.52343e-05 -3.59109e-07
2.00192e-07 -3.59109e-07 -6.36787e-05
0.00170857 -0.000232125 3.22722e-06
-0.000232125 4.22731e-05 -1.57178e-06
3.22722e-06 -1.57178e-06 -4.61135e-05
0.00177341 -0.000315407 3.4901e-06
-0.000315407 0.000137765 -2.40392e-07
3.4901e-06 -2.40392e-07 2.10355e-06
0.00173822 -0.000381533 -1.73264e-06
-0.000381533 0.000204389 -2.35155e-06
-1.73264e-06 -2.35155e-06 -1.65645e-05
0.00174528 -0.000314308 2.52523e-06
-0.000314308 0.000132653 -1.1493e-05
2.52523e-06 -1.1493e-05 -1.28676e-05
0.00125936 -0.000248227 2.84988e-06
-0.000248227 0.000357622 2.31251e-06
2.84988e-06 2.31251e-06 0.00016192
0.00101845 -0.000215838 4.00272e-06
-0.000215838 0.000223546 -2.99621e-06
4.00272e-06 -2.99621e-06 4.7624e-05
0.000706678 -9.5271e-05 1.62379e-06
-9.5271e-05 0.000112532 -3.45963e-06
1.62379e-06 -3.45963e-06 -7.42881e-05
0.000364407 7.95628e-06 -1.09913e-06
7.95628e-06 -0.000114499 3.01591e-06
-1.09913e-06 3.01591e-06 -0.000196674
0.000376528 2.17829e-05 1.42425e-06
2.17829e-05 -8.66691e-05 -1.87748e-07
1.42425e-06 -1.87748e-07 -0.000216196
0.00189445 -5.54013e-05 -1.34927e-07
-5.54013e-05 0.000120542 -1.55205e-07
-1.34927e-07 -1.55205e-07 5.51989e-05
0.00181134 -0.000112903 1.35721e-06
-0.000112903 5.96024e-05 -7.18814e-07
1.35721e-06 -7.18814e-07 -1.73627e-05
0.00183246 -0.000218831 -2.13957e-06
-0.000218831 7.94097e-05 2.70635e-07
-2.13957e-06 2.70635e-07 1.26087e-06
0.00116977 -0.000253623 -1.18713e-06
-0.000253623 0.000263746 3.13132e-07
-1.18713e-06 3.13132e-07 4.66845e-05
0.00100834 -0.000304166 1.70521e-06
-0.000304166 3.19489e-05 -2.14351e-06
1.70521e-06 -2.14351e-06 -0.000227121
0.00162817 -0.000439141 -1.16821e-07
-0.000439141 0.000231141 8.10925e-08
-1.16821e-07 8.10925e-08 -5.24517e-05
0.00167178 -0.00026149 5.29934e-07
-0.00026149 4.0362e-05 -3.2878e-07
5.29934e-07 -3.2878e-07 -6.57693e-05
0.00172437 -0.000367945 8.42089e-07
-0.000367945 0.000168207 -2.27189e-06
8.42089e-07 -2.27189e-06 -3.58859e-05
0.00190958 -0.00035011 -4.22963e-07
-0.00035011 0.000174738 -1.10038e-06
-4.22963e-07 -1.10038e-06 4.324e-05
0.000294273 3.47482e-05 -3.68575e-07
3.47482e-05 -0.000161004 -8.99591e-07
-3.68575e-07 -8.99591e-07 -0.000225506
0.00119008 -0.000248406 -1.50214e-07
-0.000248406 0.000289877 1.70651e-06
-1.50214e-07 1.70651e-06 9.39873e-05
0.000649937 -0.000201014 2.4382e-07
-0.000201014 -7.17937e-06 8.40661e-07
2.4382e-07 8.40661e-07 -0.000177544
0.000977308 -0.000168517 -6.56393e-07
-0.000168517 0.000266694 4.80347e-07
-6.56393e-07 4.80347e-07 5.99395e-05
0.00111303 -7.97329e-05 1.89052e-07
-7.97329e-05 0.000352149 -7.29403e-07
1.89052e-07 -7.29403e-07 0.000192356
0.000607507 -1.44168e-06 -4.81587e-07
-1.44168e-06 5.80019e-05 5.5556e-07
-4.81587e-07 5.5556e-07 -6.40676e-05
0.00172028 -6.31722e-05 2.86413e-06
-6.31722e-05 -2.67758e-05 -2.6762e-07
2.86413e-06 -2.6762e-07 -7.66294e-05
0.00203415 -0.000155283 2.37136e-06
-0.000155283 0.000117805 -1.81506e-07
2.37136e-06 -1.81506e-07 7.30268e-05
0.00165268 -0.000253039 1.64517e-06
-0.000253039 -4.60767e-05 -1.53524e-06
1.64517e-06 -1.53524e-06 -0.000115847
0.00205684 -0.000328199 -4.24503e-07
-0.000328199 0.000173891 -2.32602e-06
-4.24503e-07 -2.32602e-06 7.28527e-05
0.00152347 -0.000308056 -5.06139e-06
-0.000308056 0.000422787 -5.09537e-06
-5.06139e-06 -5.09537e-06 0.00018728
0.00188378 -0.000390661 7.68275e-07
-0.000390661 0.000185185 3.86354e-06
7.68275e-07 3.86354e-06 1.58921e-05
0.00146031 -0.000406999 -3.95535e-06
-0.000406999 0.000249305 1.41668e-06
-3.95535e-06 1.41668e-06 -6.23535e-05
0.00165506 -0.000457268 -3.55487e-06
-0.000457268 0.000241896 2.60137e-06
-3.55487e-06 2.60137e-06 -5.34692e-05
0.000296343 5.27406e-05 -1.94029e-06
5.27406e-05 -0.000164118 -2.30562e-06
-1.94029e-06 -2.30562e-06 -0.000218281
0.00070983 -2.73518e-07 -8.10754e-08
-2.73518e-07 0.000115826 -6.31252e-07
-8.10754e-08 -6.31252e-07 1.18191e-05
0.000958616 -0.000106098 -1.70367e-06
-0.000106098 0.000268518 2.13781e-06
-1.70367e-06 2.13781e-06 0.000125305
0.000908075 -3.08358e-05 -1.99966e-06
-3.08358e-05 0.000228421 3.93726e-06
-1.99966e-06 3.93726e-06 3.78622e-05
0.000548096 -0.000211937 -4.25683e-06
-0.000211937 -0.000103794 -3.59804e-06
-4.25683e-06 -3.59804e-06 -0.000302872
0.000986178 -0.000229819 -7.0256e-06
-0.000229819 0.000217145 1.8332e-06
-7.0256e-06 1.8332e-06 5.31583e-06
0.000575555 -1.39846e-05 -2.20068e-06
-1.39846e-05 -7.94555e-06 -2.35961e-06
-2.20068e-06 -2.35961e-06 -6.34023e-05
0.000535845 -3.80442e-05 4.55285e-07
-3.80442e-05 -2.34385e-06 -1.85063e-06
4.55285e-07 -1.85063e-06 -9.70867e-05
0.00172579 0.000272722 -2.17457e-06
0.000272722 0.000123777 -5.48513e-07
-2.17457e-06 -5.48513e-07 -2.92726e-05
0.000433801 -9.31305e-06 9.3818e-07
-9.31305e-06 -4.91152e-05 -1.18007e-06
9.3818e-07 -1.18007e-06 -0.000195874
0.00113476 0.000237961 1.50376e-06
0.000237961 0.000302144 -2.20432e-07
1.50376e-06 -2.20432e-07 0.000103771
0.000146743 7.56092e-05 3.16445e-06
7.56092e-05 -0.000272093 2.50198e-06
3.16445e-06 2.50198e-06 -0.000423986
0.00171586 0.000366641 -6.97009e-07
0.000366641 0.000200117 1.87192e-07
-6.97009e-07 1.87192e-07 -8.91207e-06
0.00181238 0.000355606 -2.40242e-06
0.000355606 0.000189423 1.15677e-06
-2.40242e-06 1.15677e-06 1.23602e-05
0.00104335 0.00027822 -1.06296e-06
0.00027822 0.000147853 2.26606e-07
-1.06296e-06 2.26606e-07 -0.000105677
0.00180052 0.000378357 -2.14317e-06
0.000378357 0.000378378 1.0558e-06
-2.14317e-06 1.0558e-06 0.000129463
0.000690388 1.28648e-05 -8.83848e-07
1.28648e-05 8.27204e-05 2.11646e-07
-8.83848e-07 2.11646e-07 -3.27825e-06
0.000615947 2.08731e-05 7.18467e-07
2.08731e-05 6.01809e-05 1.34428e-06
7.18467e-07 1.34428e-06 -6.36235e-05
0.00136546 0.000274085 -1.10587e-06
0.000274085 0.000401378 -2.76867e-06
-1.10587e-06 -2.76867e-06 0.000191247
0.000563097 3.64165e-05 -9.93034e-07
3.64165e-05 2.524e-05 -3.9849e-07
-9.93034e-07 -3.9849e-07 -0.000133188
0.000568831 0.000176603 -1.84214e-06
0.000176603 -5.47293e-05 -7.33167e-07
-1.84214e-06 -7.33167e-07 -0.000209436
0.00187786 0.000299734 -2.90185e-06
0.000299734 0.000142161 -1.33679e-06
-2.90185e-06 -1.33679e-06 1.75528e-05
0.00198708 0.000408647 1.79108e-06
0.000408647 0.000350231 -3.09376e-07
1.79108e-06 -3.09376e-07 0.000130462
0.00171701 0.000381257 1.76261e-06
0.000381257 0.000113124 2.50967e-06
1.76261e-06 2.50967e-06 -7.0086e-05
0.00128742 0.000307641 3.64836e-06
0.000307641 0.000252266 4.48489e-06
3.64836e-06 4.48489e-06 -2.1848e-05
0.00151196 0.000388578 -3.09641e-06
0.000388578 0.0002012 5.11407e-07
-3.09641e-06 5.11407e-07 -5.31814e-05
0.000341872 -1.86035e-05 -1.14673e-06
-1.86035e-05 -0.000111986 2.65097e-06
-1.14673e-06 2.65097e-06 -0.00020804
5.1616e-05 7.66172e-05 3.3254e-07
7.66172e-05 -0.000237529 6.44039e-07
3.3254e-07 6.44039e-07 -0.000399536
0.00109883 0.000258342 1.94923e-06
0.000258342 0.000206118 3.39695e-06
1.94923e-06 3.39695e-06 -1.63564e-05
-0.000565501 7.27137e-05 3.6532e-06
7.27137e-05 -0.000676185 -5.29377e-07
3.6532e-06 -5.29377e-07 -0.00084371
0.00198074 0.000311187 -1.41972e-06
0.000311187 3.07452e-05 -2.0751e-07
-1.41972e-06 -2.0751e-07 -2.95291e-05
0.00232575 0.000381147 7.71065e-07
0.000381147 0.000392691 -9.53522e-07
7.71065e-07 -9.53522e-07 0.000248394
0.0018026 0.000436775 -2.23849e-06
0.000436775 0.000249805 -3.74487e-06
-2.23849e-06 -3.74487e-06 9.81008e-06
0.000437255 0.000269203 -1.33105e-06
0.000269203 -0.000305945 1.8786e-06
-1.33105e-06 1.8786e-06 -0.000583653
0.000671235 5.78884e-05 -9.31556e-07
5.78884e-05 6.96687e-05 -7.71266e-07
-9.31556e-07 -7.71266e-07 -1.43642e-05
0.000615058 3.62853e-05 -1.32843e-07
3.62853e-05 4.0112e-05 3.02085e-07
-1.32843e-07 3.02085e-07 -5.18846e-05
0.000915016 2.83444e-05 -2.21424e-06
2.83444e-05 0.000215076 -1.44736e-06
-2.21424e-06 -1.44736e-06 0.000128316
0.000652385 7.57916e-06 -1.47245e-06
7.57916e-06 5.17805e-05 -1.35329e-06
-1.47245e-06 -1.35329e-06 -2.32269e-05
0.000448869 -3.89132e-06 -1.97992e-07
-3.89132e-06 -5.97198e-05 -6.79602e-07
-1.97992e-07 -6.79602e-07 -0.000149995
0.000665554 2.61641e-05 1.17375e-11
2.61641e-05 6.88372e-05 5.83142e-09
1.17375e-11 5.83142e-09 -1.16158e-05
0.000671374 7.77531e-05 -6.55554e-07
7.77531e-05 8.71877e-05 -2.66861e-07
-6.55554e-07 -2.66861e-07 -1.63995e-05
0.000604931 2.14428e-05 7.75456e-07
2.14428e-05 4.67772e-05 3.72674e-07
7.75456e-07 3.72674e-07 -5.64978e-05
0.000757872 5.06398e-05 8.08871e-07
5.06398e-05 0.000119905 -1.41902e-06
8.08871e-07 -1.41902e-06 2.96827e-05
0.000684588 -2.04535e-05 1.47108e-06
-2.04535e-05 9.29664e-05 -1.59731e-06
1.47108e-06 -1.59731e-06 -1.51338e-05
0.000532865 4.61859e-05 6.17124e-07
4.61859e-05 3.04611e-06 1.2399e-06
6.17124e-07 1.2399e-06 -0.000102331
0.000661031 7.06433e-05 1.26702e-06
7.06433e-05 6.97906e-05 1.92833e-06
1.26702e-06 1.92833e-06 -1.34203e-05
0.000573795 4.3747e-05 1.77462e-06
4.3747e-05 4.60618e-06 2.18548e-06
1.77462e-06 2.18548e-06 -5.01256e-05
0.000589813 -2.53539e-06 -1.08366e-06
-2.53539e-06 9.09205e-06 -5.27006e-09
-1.08366e-06 -5.27006e-09 -4.36496e-05
0.00125452 -1.52036e-05 7.5963e-07
-1.52036e-05 0.000378088 2.38932e-06
7.5963e-07 2.38932e-06 0.000367527
0.000587516 -4.24367e-05 7.1365e-08
-4.24367e-05 4.18773e-06 -2.34925e-06
7.1365e-08 -2.34925e-06 -4.78848e-05
0.00130147 -2.39378e-05 -3.88456e-06
-2.39378e-05 0.000405907 -1.5317e-06
-3.88456e-06 -1.5317e-06 0.000395102
0.00085585 -2.46118e-05 1.63928e-05
-2.46118e-05 0.000144603 8.21038e-06
1.63928e-05 8.21038e-06 0.000151718
0.00134219 -3.37699e-05 -7.05676e-06
-3.37699e-05 0.000431253 -5.51116e-06
-7.05676e-06 -5.51116e-06 0.000419717
0.000806154 -3.31576e-05 5.74732e-06
-3.31576e-05 0.000117391 3.07073e-06
5.74732e-06 3.07073e-06 0.000123308
0.00074379 -3.99827e-05 -1.23428e-06
-3.99827e-05 8.53016e-05 -2.1561e-06
-1.23428e-06 -2.1561e-06 8.9452e-05
0.000531208 3.68641e-05 2.70994e-07
3.68641e-05 -4.4109e-05 -3.37757e-06
2.70994e-07 -3.37757e-06 -5.92706e-05
0.000524697 5.29585e-05 1.54483e-08
5.29585e-05 -3.41233e-05 1.4583e-07
1.54483e-08 1.4583e-07 -5.71058e-05
0.0022655 8.478e-05 2.04214e-05
8.478e-05 0.00100936 -3.77073e-06
2.04214e-05 -3.77073e-06 0.0010168
0.000543302 3.56259e-05 -2.60103e-06
3.56259e-05 -1.6635e-05 5.57888e-06
-2.60103e-06 5.57888e-06 -4.51395e-05
0.00255508 0.000104229 -6.35468e-06
0.000104229 0.00118999 -4.76946e-07
-6.35468e-06 -4.76946e-07 0.00119237
0.00295018 9.22708e-05 -7.46083e-05
9.22708e-05 0.00142783 4.00225e-06
-7.46083e-05 4.00225e-06 0.00143271
0.0017809 0.000213779 -1.11995e-07
0.000213779 0.000124898 2.09136e-06
-1.11995e-07 2.09136e-06 3.70269e-06
0.00189042 0.000139506 -1.86165e-06
0.000139506 0.000106872 5.32037e-07
-1.86165e-06 5.32037e-07 2.5221e-05
0.00182158 0.000204025 2.07649e-06
0.000204025 5.08291e-05 7.94158e-07
2.07649e-06 7.94158e-07 -2.62571e-05
0.00184969 9.34586e-05 -3.13318e-06
9.34586e-05 4.46195e-05 -3.56462e-07
-3.13318e-06 -3.56462e-07 -4.92316e-06
0.00179405 3.67537e-05 1.35879e-06
3.67537e-05 5.82366e-05 -2.01022e-07
1.35879e-06 -2.01022e-07 -1.05399e-05
0.00171839 1.24666e-06 -1.85949e-07
1.24666e-06 7.78707e-05 9.38724e-08
-1.85949e-07 9.38724e-08 -1.81371e-05
0.0017948 -3.96109e-06 -4.78546e-08
-3.96109e-06 6.82853e-05 -6.0904e-08
-4.78546e-08 -6.0904e-08 3.2051e-06
0.0018701 4.25383e-05 9.40716e-07
4.25383e-05 5.23e-05 1.45009e-07
9.40716e-07 1.45009e-07 1.43241e-05
0.00189707 0.000149885 6.09639e-07
0.000149885 6.63558e-05 -2.66816e-07
6.09639e-07 -2.66816e-07 8.2299e-06
0.00191903 0.000249574 1.81166e-07
0.000249574 0.000108779 1.00836e-07
1.81166e-07 1.00836e-07 1.68974e-05
0.00179061 -9.39453e-06 2.27903e-06
-9.39453e-06 1.21182e-05 -2.51313e-07
2.27903e-06 -2.51313e-07 -2.61749e-05
0.00193346 8.8352e-05 2.93916e-06
8.8352e-05 2.6821e-05 -2.46287e-07
2.93916e-06 -2.46287e-07 7.991e-06
0.00197229 0.000219849 3.28066e-06
0.000219849 5.60335e-05 6.45578e-07
3.28066e-06 6.45578e-07 -3.52439e-06
0.00191137 -6.06922e-05 1.05947e-07
-6.06922e-05 0.000131658 1.87177e-07
1.05947e-07 1.87177e-07 6.38483e-05
0.00174262 -0.000114538 -2.54496e-07
-0.000114538 1.69702e-05 -7.39572e-07
-2.54496e-07 -7.39572e-07 -6.18495e-05
0.00184339 -0.000212723 -2.14302e-06
-0.000212723 9.49385e-05 8.91987e-07
-2.14302e-06 8.91987e-07 1.44383e-05
0.00126052 -0.000260197 -2.37759e-07
-0.000260197 0.000315533 4.87587e-06
-2.37759e-07 4.87587e-06 9.74285e-05
0.000820659 -0.000278109 1.64549e-06
-0.000278109 -8.42915e-05 4.77972e-07
1.64549e-06 4.77972e-07 -0.000334867
0.00159723 -0.000443432 1.37508e-06
-0.000443432 0.000214681 -1.61562e-06
1.37508e-06 -1.61562e-06 -7.20337e-05
0.00169249 -0.000262484 2.50467e-07
-0.000262484 4.69824e-05 9.1963e-08
2.50467e-07 9.1963e-08 -5.94571e-05
0.00156138 -0.000328725 1.10899e-06
-0.000328725 -1.52131e-05 -2.49529e-06
1.10899e-06 -2.49529e-06 -0.0001462
0.0018228 -0.000372553 -2.08316e-06
-0.000372553 0.000225631 -7.61297e-06
-2.08316e-06 -7.61297e-06 2.73904e-05
0.00127882 -0.000255479 3.97801e-06
-0.000255479 0.000331695 4.55103e-06
3.97801e-06 4.55103e-06 0.000135548
0.000695855 -0.000201485 -7.29525e-06
-0.000201485 2.9677e-05 9.66023e-07
-7.29525e-06 9.66023e-07 -0.000132766
0.00159904 -0.000217591 1.1455e-06
-0.000217591 0.00064612 -7.86274e-07
1.1455e-06 -7.86274e-07 0.000422868
0.000359115 2.52692e-05 5.25502e-07
2.52692e-05 -0.000123504 7.68508e-07
5.25502e-07 7.68508e-07 -0.000186462
0.000951118 -8.43212e-05 1.89059e-06
-8.43212e-05 0.000252161 -1.1753e-06
1.89059e-06 -1.1753e-06 9.99561e-05
0.000463907 3.40219e-05 2.5036e-06
3.40219e-05 -3.46345e-05 1.57719e-06
2.5036e-06 1.57719e-06 -0.000153043
0.00177994 -6.33246e-05 -4.57012e-07
-6.33246e-05 9.62848e-06 1.96613e-07
-4.57012e-07 1.96613e-07 -4.26447e-05
0.00195848 -0.000160332 6.67725e-08
-0.000160332 7.25344e-05 -2.62744e-07
6.67725e-08 -2.62744e-07 2.49767e-05
0.00178004 -0.000255787 -1.7546e-07
-0.000255787 3.34957e-05 4.66306e-07
-1.7546e-07 4.66306e-07 -3.91486e-05
0.00127913 -0.000283675 -2.3558e-06
-0.000283675 0.000279396 2.08016e-07
-2.3558e-06 2.08016e-07 4.76458e-05
0.00115318 -0.000373341 -1.0317e-07
-0.000373341 7.40579e-05 -7.9192e-07
-1.0317e-07 -7.9192e-07 -0.000227783
0.00177437 -0.000460587 -3.63419e-06
-0.000460587 0.000312055 2.83312e-07
-3.63419e-06 2.83312e-07 2.43272e-05
0.00197243 -0.00032977 7.97319e-07
-0.00032977 0.000128945 -3.96639e-07
7.97319e-07 -3.96639e-07 2.50798e-05
0.00170623 -0.000382981 1.22618e-06
-0.000382981 7.41396e-05 -2.94325e-06
1.22618e-06 -2.94325e-06 -9.50123e-05
0.000453685 4.47373e-05 -3.17128e-07
4.47373e-05 -7.34405e-05 -9.68816e-07
-3.17128e-07 -9.68816e-07 -0.000123667
0.000732063 -9.69358e-06 -6.09061e-07
-9.69358e-06 0.000127226 3.01358e-07
-6.09061e-07 3.01358e-07 2.37858e-05
0.000247567 -0.000181929 -3.04186e-06
-0.000181929 -0.000276844 5.10856e-06
-3.04186e-06 5.10856e-06 -0.000464868
0.00138503 -0.000249277 5.90569e-07
-0.000249277 0.000465065 -4.85151e-07
5.90569e-07 -4.85151e-07 0.000252493
0.00100266 -7.49467e-05 -4.79826e-09
-7.49467e-05 0.000293301 -1.18235e-06
-4.79826e-09 -1.18235e-06 0.000101057
0.000863163 -8.09183e-05 -5.61578e-07
-8.09183e-05 0.000213258 1.42998e-06
-5.61578e-07 1.42998e-06 6.9135e-05
0.00190131 -8.04176e-05 1.98428e-06
-8.04176e-05 2.37795e-05 4.1394e-07
1.98428e-06 4.1394e-07 -1.16277e-06
0.0019923 -0.000230744 6.6968e-07
-0.000230744 4.33304e-05 -4.38369e-07
6.6968e-07 -4.38369e-07 2.53904e-05
0.00193249 -0.000277496 7.43238e-07
-0.000277496 8.08562e-05 -1.83188e-06
7.43238e-07 -1.83188e-06 1.71663e-05
0.00186677 -0.000427792 4.41141e-06
-0.000427792 3.84426e-05 -2.6801e-06
4.41141e-06 -2.6801e-06 -8.77459e-05
0.000529896 -0.000255137 -6.73174e-06
-0.000255137 -0.000190565 -6.59404e-06
-6.73174e-06 -6.59404e-06 -0.000452357
0.00182111 -0.000465996 -2.3669e-06
-0.000465996 0.000300603 1.17693e-05
-2.3669e-06 1.17693e-05 2.78393e-05
0.00189449 -0.000485138 -4.4149e-06
-0.000485138 0.000464197 -3.69302e-07
-4.4149e-06 -3.69302e-07 0.000122507
0.00061525 4.54168e-05 1.83119e-07
4.54168e-05 1.43318e-05 -1.24678e-06
1.83119e-07 -1.24678e-06 -2.82959e-05
0.000685602 -0.000105974 2.79125e-06
-0.000105974 9.44807e-05 -1.51884e-06
2.79125e-06 -1.51884e-06 1.30019e-05
0.000456269 4.74794e-05 -2.12403e-06
4.74794e-05 -4.43873e-05 -1.2852e-06
-2.12403e-06 -1.2852e-06 -0.000131334
0.00066586 -4.7251e-05 -8.38082e-07
-4.7251e-05 0.000106565 2.46909e-06
-8.38082e-07 2.46909e-06 -2.57405e-05
0.000596684 -3.23591e-05 1.23142e-06
-3.23591e-05 3.67135e-05 9.71022e-09
1.23142e-06 9.71022e-09 -0.000112186
1.14576e-05 -8.54311e-05 -5.05556e-07
-8.54311e-05 -0.000291415 2.02059e-06
-5.05556e-07 2.02059e-06 -0.000476065
-2.62819e-05 -0.00017994 -4.39164e-06
-0.00017994 -0.000450042 -5.66736e-06
-4.39164e-06 -5.66736e-06 -0.000630335
0.00261982 -0.00036124 -1.17564e-05
-0.00036124 0.00125781 3.05394e-06
-1.17564e-05 3.05394e-06 0.000952346
0.000629598 -6.56328e-06 -1.09297e-06
-6.56328e-06 4.11826e-05 -9.02065e-07
-1.09297e-06 -9.02065e-07 -3.91653e-05
0.000903048 3.06037e-05 5.74722e-07
3.06037e-05 0.000233486 -1.47648e-06
5.74722e-07 -1.47648e-06 0.000104944
0.00210803 0.000309858 -1.51026e-06
0.000309858 0.000274157 -4.57134e-07
-1.51026e-06 -4.57134e-07 0.000151833
0.000835381 7.4184e-05 -1.17889e-06
7.4184e-05 0.000196836 3.0177e-06
-1.17889e-06 3.0177e-06 2.6989e-05
0.00162138 0.000299156 1.43505e-06
0.000299156 0.000564538 -1.34404e-06
1.43505e-06 -1.34404e-06 0.000344861
0.000407413 0.000143674 -5.20591e-07
0.000143674 -0.000156985 1.55773e-06
-5.20591e-07 1.55773e-06 -0.000292753
0.00204349 0.000406913 -3.31632e-06
0.000406913 0.000389748 8.42672e-08
-3.31632e-06 8.42672e-08 0.000172723
0.00184787 0.000397398 -1.81879e-06
0.000397398 0.000178884 5.35706e-06
-1.81879e-06 5.35706e-06 -7.18367e-06
0.00108056 0.000294076 -3.42061e-07
0.000294076 0.00014315 -6.29127e-07
-3.42061e-07 -6.29127e-07 -0.000135982
0.00148914 0.000394668 1.20291e-07
0.000394668 0.000179408 1.5515e-06
1.20291e-07 1.5515e-06 -7.96084e-05
0.000378772 1.07689e-05 -1.85291e-07
1.07689e-05 -8.23784e-05 1.18244e-06
-1.85291e-07 1.18244e-06 -0.000185457
0.000360299 0.000101856 -6.10399e-07
0.000101856 -5.19404e-05 -2.2085e-06
-6.10399e-07 -2.2085e-06 -0.000219809
0.00127414 0.000277618 3.40776e-06
0.000277618 0.000319366 -1.81442e-06
3.40776e-06 -1.81442e-06 8.93889e-05
0.000647231 0.000166254 -1.79855e-06
0.000166254 3.19937e-05 -3.17489e-06
-1.79855e-06 -3.17489e-06 -0.000145757
0.00203923 0.000303443 1.07099e-06
0.000303443 6.14657e-05 -8.24889e-07
1.07099e-06 -8.24889e-07 1.79533e-06
0.00209652 0.000374831 3.07083e-06
0.000374831 0.000268514 7.02755e-07
3.07083e-06 7.02755e-07 0.000120113
0.00181642 0.000431887 -9.17537e-07
0.000431887 0.000249742 3.27118e-07
-9.17537e-07 3.27118e-07 1.22837e-05
0.00116527 0.000338639 1.85621e-07
0.000338639 9.19636e-05 2.95041e-07
1.85621e-07 2.95041e-07 -0.000189926
0.000433851 3.53683e-05 -1.31831e-06
3.53683e-05 -5.70466e-05 2.68354e-06
-1.31831e-06 2.68354e-06 -0.000159907
0.00194522 0.000245486 -9.8624e-08
0.000245486 -3.35986e-05 2.11252e-06
-9.8624e-08 2.11252e-06 -4.76609e-05
0.0015512 0.000268053 9.85543e-07
0.000268053 0.00064212 2.99982e-06
9.85543e-07 2.99982e-06 0.00042584
0.00121443 0.000284312 4.37778e-06
0.000284312 0.000247346 3.89478e-06
4.37778e-06 3.89478e-06 1.26814e-05
0.00250702 0.000373456 -1.74699e-05
0.000373456 0.000395055 -4.94277e-06
-1.74699e-05 -4.94277e-06 0.000293314
0.00107227 0.000402763 -3.78607e-06
0.000402763 -0.000261433 -7.35144e-06
-3.78607e-06 -7.35144e-06 -0.000480805
0.00204852 0.000449232 -1.26263e-06
0.000449232 0.000519004 3.1267e-06
-1.26263e-06 3.1267e-06 0.000222488
0.000686668 5.135e-05 -1.22056e-06
5.135e-05 8.23269e-05 -5.64354e-07
-1.22056e-06 -5.64354e-07 -9.23539e-06
0.000712595 4.3962e-05 -1.37862e-06
4.3962e-05 0.000102513 -5.12494e-07
-1.37862e-06 -5.12494e-07 1.25414e-05
0.000915704 3.16375e-05 -1.78071e-06
3.16375e-05 0.000228156 2.66597e-07
-1.78071e-06 2.66597e-07 0.000144562
0.000623581 -6.05768e-06 2.72609e-08
-6.05768e-06 4.6498e-05 -1.97227e-06
2.72609e-08 -1.97227e-06 -3.56594e-05
0.000668224 4.62312e-05 8.7327e-07
4.62312e-05 8.56929e-05 9.74205e-08
8.7327e-07 9.74205e-08 -1.8418e-05
0.000380729 1.59547e-05 -9.19227e-07
1.59547e-05 -7.15656e-05 1.26367e-06
-9.19227e-07 1.26367e-06 -0.000176743
0.000632394 3.16293e-06 -6.23997e-07
3.16293e-06 5.94765e-05 -5.73854e-09
-6.23997e-07 -5.73854e-09 -2.80911e-05
0.000489511 -2.18117e-05 -6.49166e-07
-2.18117e-05 -1.44107e-05 3.66435e-07
-6.49166e-07 3.66435e-07 -0.000123624
0.000552123 2.8726e-06 4.01566e-07
2.8726e-06 4.17432e-06 1.74908e-07
4.01566e-07 1.74908e-07 -8.28493e-05
0.000769697 3.99491e-05 5.13008e-07
3.99491e-05 0.000153712 -2.19449e-07
5.13008e-07 -2.19449e-07 3.69217e-05
0.00112032 4.36827e-05 3.14564e-07
4.36827e-05 0.000322527 -1.13479e-06
3.14564e-07 -1.13479e-06 0.00024429
0.000684062 -2.258e-05 1.93189e-06
-2.258e-05 8.32535e-05 -2.31478e-06
1.93189e-06 -2.31478e-06 -1.20238e-05
0.000746928 3.68114e-05 4.79874e-09
3.68114e-05 0.00013979 -6.31306e-08
4.79874e-09 -6.31306e-08 1.7008e-05
0.000632113 3.48123e-05 2.02848e-06
3.48123e-05 7.20664e-05 1.54619e-06
2.02848e-06 1.54619e-06 -4.6024e-05
0.000657486 2.14893e-05 1.53343e-06
2.14893e-05 6.77374e-05 1.93887e-06
1.53343e-06 1.93887e-06 -1.8262e-05
0.000578263 -2.81183e-05 -1.71896e-07
-2.81183e-05 6.59045e-06 1.99429e-06
-1.71896e-07 1.99429e-06 -4.76115e-05
0.000591971 -7.41151e-06 -3.35544e-07
-7.41151e-06 1.26304e-05 1.60863e-08
-3.35544e-07 1.60863e-08 -4.02723e-05
0.00127494 -4.73637e-06 7.49464e-07
-4.73637e-06 0.000391646 2.27778e-06
7.49464e-07 2.27778e-06 0.000380528
0.00060024 -2.63646e-05 7.00067e-07
-2.63646e-05 1.35179e-05 -2.46237e-06
7.00067e-07 -2.46237e-06 -3.79891e-05
0.00130658 -1.25381e-05 -2.95705e-06
-1.25381e-05 0.000409655 -1.57762e-06
-2.95705e-06 -1.57762e-06 0.000398959
0.000848489 -1.66953e-05 1.22564e-05
-1.66953e-05 0.000138482 8.3262e-06
1.22564e-05 8.3262e-06 0.000146144
0.00135428 -2.20656e-05 -5.04989e-06
-2.20656e-05 0.000437633 -5.63006e-06
-5.04989e-06 -5.63006e-06 0.000426679
0.0008176 -2.51712e-05 3.81662e-06
-2.51712e-05 0.000120487 3.18121e-06
3.81662e-06 3.18121e-06 0.00012745
0.000765122 -3.20399e-05 -8.23442e-07
-3.20399e-05 9.15887e-05 -2.13764e-06
-8.23442e-07 -2.13764e-06 9.77027e-05
0.000657945 1.07135e-05 1.15018e-06
1.07135e-05 3.53841e-05 -1.4032e-06
1.15018e-06 -1.4032e-06 -3.75947e-06
0.000543311 2.83982e-05 4.1975e-07
2.83982e-05 -4.40941e-05 -3.4348e-06
4.1975e-07 -3.4348e-06 -5.56023e-05
0.000550457 3.79098e-05 1.38005e-07
3.79098e-05 -3.19376e-05 1.18958e-07
1.38005e-07 1.18958e-07 -4.75256e-05
0.00215437 6.87199e-05 1.82418e-05
6.87199e-05 0.000934365 -3.96731e-06
1.82418e-05 -3.96731e-06 0.000945841
0.000554674 5.73316e-05 2.82195e-06
5.73316e-05 -1.47377e-05 4.85198e-06
2.82195e-06 4.85198e-06 -3.91991e-05
0.00237603 8.86266e-05 -4.21094e-06
8.86266e-05 0.00107597 -3.2475e-07
-4.21094e-06 -3.2475e-07 0.00108246
0.00267287 0.000106728 -3.20792e-05
0.000106728 0.00126008 3.6734e-06
-3.20792e-05 3.6734e-06 0.00126193
0.00194698 0.000246676 -6.80488e-07
0.000246676 0.000111609 1.20821e-06
-6.80488e-07 1.20821e-06 2.21434e-05
0.00191021 0.000155323 -3.03503e-06
0.000155323 7.27175e-05 -4.33957e-07
-3.03503e-06 -4.33957e-07 1.44542e-05
0.00187015 4.42239e-05 -3.16541e-06
4.42239e-05 6.20317e-05 -4.723e-08
-3.16541e-06 -4.723e-08 2.21337e-05
0.00177987 -1.10876e-06 -3.72114e-07
-1.10876e-06 5.84077e-05 -5.10447e-08
-3.72114e-07 -5.10447e-08 -6.64394e-06
0.00181852 -5.80908e-06 -9.61984e-07
-5.80908e-06 2.68385e-05 -7.99735e-08
-9.61984e-07 -7.99735e-08 -8.58563e-06
0.00192109 8.38617e-05 1.62966e-07
8.38617e-05 2.33588e-05 -5.56236e-08
1.62966e-07 -5.56236e-08 2.9513e-06
0.00195079 0.000223416 -5.26513e-07
0.000223416 4.22759e-05 -6.19273e-08
-5.26513e-07 -6.19273e-08 -1.53393e-05
0.00192726 -7.42206e-07 1.74519e-06
-7.42206e-07 1.85904e-05 -3.20002e-07
1.74519e-06 -3.20002e-07 1.10478e-05
0.00202235 0.000127367 2.33754e-06
0.000127367 1.80329e-05 -8.64111e-07
2.33754e-06 -8.64111e-07 3.20345e-06
0.00222212 7.6722e-05 -3.83347e-06
7.6722e-05 0.000185619 3.49944e-06
-3.83347e-06 3.49944e-06 0.000219082
0.0018401 -6.37256e-05 -3.64237e-06
-6.37256e-05 4.58905e-05 3.48467e-08
-3.64237e-06 3.48467e-08 -8.72967e-06
0.00189137 -0.00016656 -3.64399e-06
-0.00016656 3.07576e-05 8.41172e-07
-3.64399e-06 8.41172e-07 -1.94986e-05
0.00190094 -0.000258127 -2.70534e-06
-0.000258127 0.000108719 1.84352e-06
-2.70534e-06 1.84352e-06 3.3644e-05
0.000839684 -0.000241033 8.75375e-07
-0.000241033 2.25089e-05 5.45006e-06
8.75375e-07 5.45006e-06 -0.000202761
0.00125166 -0.000378196 2.4537e-06
-0.000378196 0.00013469 3.74573e-07
2.4537e-06 3.74573e-07 -0.000164487
0.00190445 -0.000462884 -2.72682e-06
-0.000462884 0.00038929 -1.723e-06
-2.72682e-06 -1.723e-06 0.000109667
0.00190661 -0.00033036 2.62246e-06
-0.00033036 9.56957e-05 9.3122e-07
2.62246e-06 9.3122e-07 -1.03021e-05
0.00151498 -0.000369356 -3.05491e-06
-0.000369356 -3.74201e-05 -5.88193e-06
-3.05491e-06 -5.88193e-06 -0.000204867
0.000109664 -0.000166259 -1.62045e-07
-0.000166259 -0.000352997 1.07041e-05
-1.62045e-07 1.07041e-05 -0.000532732
0.00195914 -0.000287915 1.39505e-05
-0.000287915 0.000818398 -3.77777e-06
1.39505e-05 -3.77777e-06 0.000600848
0.000740152 -2.88408e-05 3.65361e-07
-2.88408e-05 0.000125695 -1.48694e-06
3.65361e-07 -1.48694e-06 -5.00131e-05
0.000557314 1.52608e-05 -4.13139e-08
1.52608e-05 -1.34316e-05 6.00617e-07
-4.13139e-08 6.00617e-07 -6.03257e-05
0.000800765 2.36734e-05 1.31105e-06
2.36734e-05 0.000163991 9.41728e-07
1.31105e-06 9.41728e-07 6.14868e-05
0.000889331 -5.34793e-05 7.18379e-07
-5.34793e-05 0.000231021 1.27121e-06
7.18379e-07 1.27121e-06 8.45013e-05
0.00192099 -8.30963e-05 2.31276e-07
-8.30963e-05 2.86339e-05 -1.27862e-07
2.31276e-07 -1.27862e-07 6.76841e-06
0.000595914 1.81034e-05 9.81205e-07
1.81034e-05 2.15644e-06 1.1698e-07
9.81205e-07 1.1698e-07 -3.9717e-05
0.000539674 -3.71325e-05 -1.73102e-06
-3.71325e-05 -9.27541e-06 -3.73828e-08
-1.73102e-06 -3.73828e-08 -7.95767e-05
0.00196245 -0.000220914 -1.93467e-07
-0.000220914 4.22195e-05 2.25666e-07
-1.93467e-07 2.25666e-07 1.99303e-05
0.00188815 -0.000276801 -1.41305e-06
-0.000276801 5.12725e-05 2.0677e-07
-1.41305e-06 2.0677e-07 -1.13885e-05
0.000698459 -0.000267671 -4.68041e-07
-0.000267671 -8.26002e-05 1.72526e-06
-4.68041e-07 1.72526e-06 -0.000340956
0.00187471 -0.000482805 3.39872e-08
-0.000482805 0.000461966 3.56829e-07
3.39872e-08 3.56829e-07 0.000115991
0.00157142 -0.000449679 3.10869e-06
-0.000449679 0.000137648 -1.42161e-06
3.10869e-06 -1.42161e-06 -0.000127579
0.00204947 -0.000435457 2.39945e-06
-0.000435457 0.000153294 -9.75201e-07
2.39945e-06 -9.75201e-07 2.48911e-05
0.00071141 -1.07753e-05 8.47686e-07
-1.07753e-05 0.000112766 -1.11605e-06
8.47686e-07 -1.11605e-06 2.50132e-05
0.000725804 -3.04463e-05 1.99361e-07
-3.04463e-05 0.00014225 1.26808e-06
1.99361e-07 1.26808e-06 7.61674e-06
0.000947746 -0.000243352 -3.75604e-06
-0.000243352 0.00011703 -1.39981e-06
-3.75604e-06 -1.39981e-06 -7.69698e-05
0.00158421 -0.000270084 1.40442e-05
-0.000270084 0.000643405 -3.40935e-06
1.40442e-05 -3.40935e-06 0.000387151
0.000466332 -8.65878e-05 -2.63547e-06
-8.65878e-05 -3.02007e-05 -1.98152e-07
-2.63547e-06 -1.98152e-07 -0.000212751
0.00068333 -2.90148e-05 6.08398e-07
-2.90148e-05 9.89286e-05 -8.64895e-07
6.08398e-07 -8.64895e-07 -5.54017e-05
0.00193023 -9.43791e-05 1.96086e-06
-9.43791e-05 -3.38186e-05 -1.16947e-06
1.96086e-06 -1.16947e-06 -4.84668e-05
0.00189202 -0.000256586 -6.47478e-07
-0.000256586 -5.46358e-05 7.34613e-09
-6.47478e-07 7.34613e-09 -1.48556e-05
0.0020342 -0.0003872 -3.48872e-06
-0.0003872 5.48218e-05 -2.4213e-06
-3.48872e-06 -2.4213e-06 -2.22164e-05
0.00156469 -0.000490537 1.08174e-06
-0.000490537 -3.20393e-06 -3.81373e-07
1.08174e-06 -3.81373e-07 -0.000165042
0.000905808 -0.000258198 -1.07005e-05
-0.000258198 6.08787e-05 -7.75027e-06
-1.07005e-05 -7.75027e-06 -0.000198602
0.00253133 -0.000578385 -8.85883e-06
-0.000578385 0.000808216 7.45285e-06
-8.85883e-06 7.45285e-06 0.000438036
0.000397257 5.25673e-05 -1.08074e-06
5.25673e-05 -8.50232e-05 -2.09744e-06
-1.08074e-06 -2.09744e-06 -0.00016033
0.000653959 -5.71817e-05 3.10359e-06
-5.71817e-05 6.01923e-05 -7.50951e-07
3.10359e-06 -7.50951e-07 -1.16156e-05
0.000930347 -8.7601e-05 1.47e-06
-8.7601e-05 0.000235292 1.68144e-06
1.47e-06 1.68144e-06 0.00013804
0.000440109 1.76075e-05 -1.58404e-06
1.76075e-05 -3.38548e-05 2.1229e-06
-1.58404e-06 2.1229e-06 -0.000157137
0.000949275 -6.97016e-05 -1.59138e-06
-6.97016e-05 0.000257448 2.53632e-06
-1.59138e-06 2.53632e-06 0.000123186
0.00101962 -4.88735e-05 2.02405e-06
-4.88735e-05 0.000252161 9.27339e-07
2.02405e-06 9.27339e-07 8.57639e-05
-0.000501614 -0.00010003 5.74712e-06
-0.00010003 -0.000433594 1.01409e-06
5.74712e-06 1.01409e-06 -0.000769799
-1.07767e-05 -0.00023995 -2.07543e-05
-0.00023995 -0.00042851 3.11465e-06
-2.07543e-05 3.11465e-06 -0.000618849
0.00041495 4.87995e-05 7.1319e-08
4.87995e-05 -5.5706e-05 -9.12755e-07
7.1319e-08 -9.12755e-07 -0.00016449
0.000859015 0.000140503 -4.26573e-06
0.000140503 0.000241031 -2.87907e-06
-4.26573e-06 -2.87907e-06 6.81937e-05
0.00209014 0.0002964 -3.5693e-06
0.0002964 8.95628e-05 -1.39108e-06
-3.5693e-06 -1.39108e-06 2.98016e-05
0.00192444 0.00037167 -4.90537e-07
0.00037167 0.000175906 1.74111e-06
-4.90537e-07 1.74111e-06 2.29923e-05
0.00179733 0.000231334 -7.17525e-06
0.000231334 0.000690564 -1.85947e-06
-7.17525e-06 -1.85947e-06 0.000511791
0.00140324 0.000291368 -3.65331e-06
0.000291368 0.000403881 -8.68256e-06
-3.65331e-06 -8.68256e-06 0.000169002
0.00182329 0.000426974 1.05792e-06
0.000426974 0.000245425 1.8169e-06
1.05792e-06 1.8169e-06 9.93158e-06
0.00185467 0.000402448 -3.39862e-07
0.000402448 0.00047215 -1.2535e-06
-3.39862e-07 -1.2535e-06 0.000185653
0.000572199 6.40254e-05 7.62458e-07
6.40254e-05 3.66162e-05 -9.45877e-07
7.62458e-07 -9.45877e-07 -7.74045e-05
0.0020261 0.000233697 -8.56805e-07
0.000233697 4.11313e-06 -6.47789e-07
-8.56805e-07 -6.47789e-07 -2.88146e-06
0.00102254 0.000194292 9.87204e-07
0.000194292 0.000322331 1.5462e-06
9.87204e-07 1.5462e-06 0.00012339
0.00104268 0.00026992 1.23534e-06
0.00026992 0.000155059 -9.14138e-08
1.23534e-06 -9.14138e-08 -8.12297e-05
0.00228522 0.000364957 3.07645e-06
0.000364957 0.000274817 6.38741e-07
3.07645e-06 6.38741e-07 0.000175393
0.00157972 0.000435961 -1.13703e-06
0.000435961 2.15241e-05 -3.70103e-06
-1.13703e-06 -3.70103e-06 -0.000198169
0.00197082 0.00044155 -9.24557e-08
0.00044155 0.000487976 2.92652e-07
-9.24557e-08 2.92652e-07 0.000191276
0.00116278 0.000146761 -3.92284e-06
0.000146761 0.000407535 3.11154e-06
-3.92284e-06 3.11154e-06 0.000251929
0.00245384 0.000267291 -4.47153e-05
0.000267291 0.000306028 -1.15383e-05
-4.47153e-05 -1.15383e-05 0.000323145
0.00226941 0.000382581 -6.02344e-06
0.000382581 0.000979107 4.41999e-07
-6.02344e-06 4.41999e-07 0.00074815
0.00216453 0.000413337 -7.54409e-06
0.000413337 0.000712224 -2.91234e-07
-7.54409e-06 -2.91234e-07 0.000442143
0.00183025 0.000475362 -2.18067e-05
0.000475362 5.49826e-05 -1.26116e-05
-2.18067e-05 -1.26116e-05 -9.38953e-05
0.000903023 0.000378488 -1.59838e-05
0.000378488 -0.000164594 -1.09771e-06
-1.59838e-05 -1.09771e-06 -0.000436438
0.000726865 0.000346106 2.97083e-05
0.000346106 -0.000600496 -2.04492e-05
2.97083e-05 -2.04492e-05 -0.000834719
0.000488764 5.85068e-05 1.00481e-06
5.85068e-05 -1.87938e-05 -4.8744e-07
1.00481e-06 -4.8744e-07 -0.00011301
0.000645876 3.85501e-05 -1.59085e-07
3.85501e-05 8.35987e-05 9.24059e-07
-1.59085e-07 9.24059e-07 -3.55578e-06
0.00139428 7.00825e-05 2.90414e-07
7.00825e-05 0.000508511 -6.28306e-08
2.90414e-07 -6.28306e-08 0.000418547
0.000599486 -6.01201e-05 1.93146e-07
-6.01201e-05 4.66652e-05 -2.45361e-06
1.93146e-07 -2.45361e-06 -4.47671e-05
0.000540525 -4.07242e-05 -1.10035e-06
-4.07242e-05 1.09155e-05 3.43264e-08
-1.10035e-06 3.43264e-08 -9.45063e-05
0.000920897 0.00012726 -1.22591e-07
0.00012726 0.000242526 8.66908e-07
-1.22591e-07 8.66908e-07 0.000122962
0.000391609 -1.08217e-05 -1.43339e-06
-1.08217e-05 -8.16771e-05 3.60231e-06
-1.43339e-06 3.60231e-06 -0.000170123
0.000628457 -2.28151e-05 -1.35763e-07
-2.28151e-05 6.2425e-05 -4.10263e-08
-1.35763e-07 -4.10263e-08 -3.08661e-05
0.000627608 4.17229e-05 -9.24133e-08
4.17229e-05 5.51817e-05 -4.19952e-07
-9.24133e-08 -4.19952e-07 -5.29107e-05
0.000899611 3.67379e-05 -1.31637e-06
3.67379e-05 0.000193432 2.70233e-07
-1.31637e-06 2.70233e-07 0.000114604
0.00074396 2.2199e-05 4.73169e-07
2.2199e-05 0.000125533 -5.18037e-08
4.73169e-07 -5.18037e-08 1.19299e-05
0.000757267 1.42057e-06 -1.18e-07
1.42057e-06 0.000122971 -3.40718e-07
-1.18e-07 -3.40718e-07 2.54495e-05
0.00092498 3.55113e-05 -5.77515e-07
3.55113e-05 0.000209486 -3.16252e-06
-5.77515e-07 -3.16252e-06 0.000126977
0.000798388 4.05357e-05 -1.68541e-06
4.05357e-05 0.000145158 -2.58576e-06
-1.68541e-06 -2.58576e-06 3.00631e-05
0.000808446 7.47949e-05 5.5027e-07
7.47949e-05 0.000155955 2.1797e-07
5.5027e-07 2.1797e-07 4.45154e-05
0.000686982 4.27645e-05 3.58798e-07
4.27645e-05 0.000104299 1.2026e-06
3.58798e-07 1.2026e-06 -2.06319e-05
0.00047337 -2.11083e-05 -1.73553e-07
-2.11083e-05 -4.44458e-05 2.11581e-06
-1.73553e-07 2.11581e-06 -0.000133638
0.000885249 -2.84623e-05 1.42806e-07
-2.84623e-05 0.000240531 -9.55789e-07
1.42806e-07 -9.55789e-07 0.000114763
0.00041018 -1.40844e-05 -8.60826e-07
-1.40844e-05 -7.82345e-05 2.31468e-06
-8.60826e-07 2.31468e-06 -0.000171332
0.000550815 6.03346e-06 -1.21937e-06
6.03346e-06 -6.6677e-06 2.02933e-06
-1.21937e-06 2.02933e-06 -6.30699e-05
0.000567414 2.1517e-05 1.29513e-06
2.1517e-05 2.14649e-06 -1.2522e-08
1.29513e-06 -1.2522e-08 -5.33095e-05
0.000536585 4.51139e-06 3.96185e-07
4.51139e-06 -4.69906e-05 3.74803e-06
3.96185e-07 3.74803e-06 -6.29265e-05
0.000575957 -6.12751e-07 -1.68875e-06
-6.12751e-07 5.07107e-06 -2.28276e-06
-1.68875e-06 -2.28276e-06 -4.93034e-05
0.000935293 -1.51842e-06 -1.98058e-06
-1.51842e-06 0.00018988 -1.65209e-06
-1.98058e-06 -1.65209e-06 0.000176462
0.00237533 -1.32593e-05 8.07295e-06
-1.32593e-05 0.0010486 5.20503e-06
8.07295e-06 5.20503e-06 0.00106415
0.0013596 -1.08389e-05 -3.11348e-06
-1.08389e-05 0.000441815 -5.5355e-06
-3.11348e-06 -5.5355e-06 0.000430842
0.000814486 -1.6735e-05 2.08192e-06
-1.6735e-05 0.000116578 3.22899e-06
2.08192e-06 3.22899e-06 0.000124323
0.000779421 -2.36214e-05 -2.66856e-07
-2.36214e-05 9.6171e-05 -2.16457e-06
-2.66856e-07 -2.16457e-06 0.000103421
0.000607026 8.79234e-06 -5.264e-07
8.79234e-06 8.18897e-06 -1.41374e-06
-5.264e-07 -1.41374e-06 -3.05018e-05
0.000622713 -3.93389e-06 1.03419e-06
-3.93389e-06 1.59294e-05 -1.14365e-07
1.03419e-06 -1.14365e-07 -2.41924e-05
0.00057209 2.16289e-05 3.60708e-07
2.16289e-05 -3.03458e-05 -3.35353e-06
3.60708e-07 -3.35353e-06 -3.96425e-05
0.000879322 3.45779e-05 -3.68574e-07
3.45779e-05 0.000157516 4.76124e-08
-3.68574e-07 4.76124e-08 0.000147437
0.00211675 5.49163e-05 1.4345e-05
5.49163e-05 0.000905185 -4.18181e-06
1.4345e-05 -4.18181e-06 0.000919384
0.000560889 4.06656e-05 7.148e-07
4.06656e-05 -2.43315e-05 3.77222e-06
7.148e-07 3.77222e-06 -4.06354e-05
0.00220996 7.17432e-05 -2.88797e-06
7.17432e-05 0.000968692 -1.89135e-07
-2.88797e-06 -1.89135e-07 0.000979371
0.00243045 9.1101e-05 -2.11202e-05
9.1101e-05 0.00110886 3.97966e-06
-2.11202e-05 3.97966e-06 0.0011147
0.00193236 0.000227113 -4.54163e-06
0.000227113 2.91712e-05 -1.62637e-06
-4.54163e-06 -1.62637e-06 -2.61052e-05
0.00190671 7.98118e-05 -2.00278e-06
7.98118e-05 1.852e-05 5.36472e-07
-2.00278e-06 5.36472e-07 -3.34525e-06
0.00185848 -4.2077e-06 -3.91509e-06
-4.2077e-06 4.88999e-05 5.90273e-08
-3.91509e-06 5.90273e-08 1.63716e-05
0.00192206 -3.96381e-07 1.28288e-07
-3.96381e-07 1.82846e-05 -1.5411e-07
1.28288e-07 -1.5411e-07 1.05896e-05
0.0020018 0.000127428 1.79583e-07
0.000127428 2.10995e-05 1.51816e-07
1.79583e-07 1.51816e-07 5.023e-06
0.00191432 6.47076e-05 4.79462e-06
6.47076e-05 -4.32345e-06 -2.10359e-07
4.79462e-06 -2.10359e-07 2.2997e-05
0.00198989 5.82376e-06 -1.36824e-06
5.82376e-06 -1.80464e-05 -1.44349e-06
-1.36824e-06 -1.44349e-06 -4.08525e-06
0.00291586 0.00032662 3.43411e-05
0.00032662 -0.000334443 6.03802e-06
3.43411e-05 6.03802e-06 -0.000142516
0.00222744 4.03715e-05 -2.90189e-05
4.03715e-05 0.000332007 1.18099e-05
-2.90189e-05 1.18099e-05 0.000404494
0.000595407 8.15054e-05 -8.58774e-07
8.15054e-05 3.58212e-05 -3.74539e-07
-8.58774e-07 -3.74539e-07 -3.67989e-05
0.00193658 -8.51669e-05 -1.84415e-06
-8.51669e-05 3.20413e-05 -1.41519e-07
-1.84415e-06 -1.41519e-07 1.31754e-05
0.00192474 -0.00021138 -6.19656e-07
-0.00021138 3.7545e-05 5.34038e-07
-6.19656e-07 5.34038e-07 9.28298e-06
0.00184934 -0.000278104 1.67394e-09
-0.000278104 2.56352e-05 2.10755e-06
1.67394e-09 2.10755e-06 -3.73325e-05
0.000633639 -0.000258732 8.33315e-07
-0.000258732 -0.000116646 8.19398e-06
8.33315e-07 8.19398e-06 -0.000367102
0.00184297 -0.00047858 4.3501e-06
-0.00047858 0.000452771 4.2711e-06
4.3501e-06 4.2711e-06 0.000103855
0.00143848 -0.000445235 1.44615e-06
-0.000445235 3.77449e-05 -7.8814e-06
1.44615e-06 -7.8814e-06 -0.000223237
0.00223512 -0.000445632 -2.85431e-06
-0.000445632 0.000269489 -1.10937e-06
-2.85431e-06 -1.10937e-06 0.000137004
0.00179512 -0.00030006 1.62563e-05
-0.00030006 0.000599567 -6.00066e-07
1.62563e-05 -6.00066e-07 0.000393797
0.000412702 -0.000169196 1.14521e-05
-0.000169196 -4.61054e-05 -5.51146e-06
1.14521e-05 -5.51146e-06 -0.000254551
0.00103297 -0.000115745 1.18619e-06
-0.000115745 0.000298358 -2.69655e-06
1.18619e-06 -2.69655e-06 0.000115846
0.000596532 4.66765e-06 -7.45505e-07
4.66765e-06 1.58723e-06 1.47211e-06
-7.45505e-07 1.47211e-06 -3.92631e-05
0.000839571 -1.98294e-05 1.67401e-06
-1.98294e-05 0.000201487 -1.36355e-06
1.67401e-06 -1.36355e-06 4.13484e-05
0.000915173 -3.96214e-05 2.02065e-06
-3.96214e-05 0.000241322 -3.51411e-07
2.02065e-06 -3.51411e-07 0.00015176
0.00083613 -2.62427e-05 7.87541e-07
-2.62427e-05 0.000204337 -7.11512e-07
7.87541e-07 -7.11512e-07 6.838e-05
0.000386388 -2.65222e-05 -2.02602e-06
-2.65222e-05 -0.000106581 6.98125e-07
-2.02602e-06 6.98125e-07 -0.000173524
0.00195856 -0.000108418 -2.41258e-07
-0.000108418 -3.85494e-05 7.3909e-08
-2.41258e-07 7.3909e-08 -4.01859e-05
0.000494333 3.59461e-05 1.19583e-08
3.59461e-05 -2.19097e-05 -1.30256e-06
1.19583e-08 -1.30256e-06 -9.96549e-05
0.000646156 -5.42466e-05 8.2916e-07
-5.42466e-05 6.33516e-05 4.41774e-07
8.2916e-07 4.41774e-07 -1.29807e-05
0.000782681 -5.71055e-05 -1.07057e-07
-5.71055e-05 0.000146475 7.69457e-07
-1.07057e-07 7.69457e-07 5.04023e-05
0.0019182 -0.000259514 1.2112e-06
-0.000259514 -2.86331e-05 -1.56424e-07
1.2112e-06 -1.56424e-07 -2.21449e-06
0.00206014 -0.000387246 -3.65597e-07
-0.000387246 7.94001e-05 -4.60731e-07
-3.65597e-07 -4.60731e-07 7.43225e-07
0.00132475 -0.000311868 6.40968e-06
-0.000311868 0.000283649 -9.65686e-08
6.40968e-06 -9.65686e-08 2.43888e-05
0.00205191 -0.000535056 5.81711e-06
-0.000535056 0.000553357 7.8931e-08
5.81711e-06 7.8931e-08 0.000194806
0.00186448 -0.000507797 -8.32533e-07
-0.000507797 0.000181031 1.48858e-06
-8.32533e-07 1.48858e-06 9.5452e-06
0.000486966 -1.09525e-05 -5.44886e-07
-1.09525e-05 -2.40997e-06 -1.12642e-07
-5.44886e-07 -1.12642e-07 -0.000123202
0.000834461 -7.88949e-05 -1.55758e-06
-7.88949e-05 0.000196783 5.38063e-07
-1.55758e-06 5.38063e-07 5.25734e-05
0.000616506 -0.00029195 -6.52398e-06
-0.00029195 -5.46757e-05 -3.19754e-07
-6.52398e-06 -3.19754e-07 -0.000283447
0.00054251 -0.000111607 -1.23037e-07
-0.000111607 0.000100762 -1.30417e-06
-1.23037e-07 -1.30417e-06 -0.000182144
0.000720871 -7.24842e-05 -1.45627e-07
-7.24842e-05 8.00044e-05 1.91104e-09
-1.45627e-07 1.91104e-09 -8.17838e-05
0.00239114 -0.000223242 -3.04994e-06
-0.000223242 0.000194871 -1.51734e-06
-3.04994e-06 -1.51734e-06 0.000201754
0.00177721 -0.000274242 -1.16637e-05
-0.000274242 -0.000145365 1.41339e-06
-1.16637e-05 1.41339e-06 -9.08741e-05
0.00248523 -0.00054401 -8.6549e-06
-0.00054401 0.000347326 -3.66694e-06
-8.6549e-06 -3.66694e-06 0.00020368
0.00279538 -0.00062199 -2.15427e-05
-0.00062199 0.000811266 2.10752e-06
-2.15427e-05 2.10752e-06 0.000573909
0.0013219 -0.000342415 -1.77796e-05
-0.000342415 0.000335761 -2.74029e-06
-1.77796e-05 -2.74029e-06 6.40657e-05
0.000439582 3.54016e-06 1.27764e-06
3.54016e-06 -5.25417e-05 -3.477e-07
1.27764e-06 -3.477e-07 -0.000148878
0.000487815 4.38801e-05 5.44992e-07
4.38801e-05 -3.42562e-05 9.49407e-07
5.44992e-07 9.49407e-07 -0.000134182
0.000408155 -2.31422e-06 3.47806e-08
-2.31422e-06 -7.11767e-05 -7.02018e-07
3.47806e-08 -7.02018e-07 -0.000177168
0.00132199 -0.000156103 -2.43678e-06
-0.000156103 0.000503076 5.00323e-06
-2.43678e-06 5.00323e-06 0.000361687
0.000419938 -5.62e-05 -8.83467e-07
-5.62e-05 -7.12218e-05 6.39544e-06
-8.83467e-07 6.39544e-06 -0.0002068
-5.38269e-05 -8.25034e-05 1.72519e-06
-8.25034e-05 -0.000184875 4.32399e-06
1.72519e-06 4.32399e-06 -0.000494577
5.55127e-05 -0.000333069 3.32726e-06
-0.000333069 -0.000171819 4.47925e-07
3.32726e-06 4.47925e-07 -0.000537115
0.000767564 0.000102774 1.19915e-06
0.000102774 0.000165941 -4.35744e-06
1.19915e-06 -4.35744e-06 3.73646e-05
0.000227422 9.24152e-05 -3.84091e-07
9.24152e-05 -0.000155142 -1.37591e-06
-3.84091e-07 -1.37591e-06 -0.000331387
0.00211571 0.000219888 7.39582e-06
0.000219888 4.38469e-05 1.01095e-07
7.39582e-06 1.01095e-07 4.6886e-05
0.00199987 0.000353279 1.33409e-05
0.000353279 0.000119531 3.55997e-06
1.33409e-05 3.55997e-06 2.38798e-05
0.00218841 0.000476617 1.06633e-05
0.000476617 0.000359942 3.65727e-06
1.06633e-05 3.65727e-06 0.000139109
0.000929059 0.000261704 3.48952e-07
0.000261704 9.37485e-05 -1.04622e-06
3.48952e-07 -1.04622e-06 -0.000144208
0.00190528 0.000434666 1.47331e-06
0.000434666 0.000460826 1.08879e-06
1.47331e-06 1.08879e-06 0.000165227
0.00137068 0.000126925 -4.7457e-08
0.000126925 0.00051168 2.90696e-07
-4.7457e-08 2.90696e-07 0.000367939
0.00223287 0.000231305 -2.58801e-06
0.000231305 0.000207293 6.03315e-07
-2.58801e-06 6.03315e-07 0.000231897
0.00150379 0.000286858 -1.86511e-06
0.000286858 0.00052777 5.89439e-07
-1.86511e-06 5.89439e-07 0.000318234
0.00152509 0.000353852 3.65701e-10
0.000353852 0.000374435 1.53694e-06
3.65701e-10 1.53694e-06 0.000102443
0.0019297 0.000470154 -1.7819e-06
0.000470154 0.000103177 -2.76655e-06
-1.7819e-06 -2.76655e-06 -3.51086e-05
0.00165453 0.000447636 -3.22948e-06
0.000447636 0.000254796 5.16767e-06
-3.22948e-06 5.16767e-06 -3.09713e-05
0.00217404 0.000462087 3.61898e-05
0.000462087 -0.00011855 4.30181e-06
3.61898e-05 4.30181e-06 -0.000431872
0.00112489 0.000195286 -5.42262e-06
0.000195286 0.000393561 -6.30008e-07
-5.42262e-06 -6.30008e-07 0.000223605
0.0024369 0.000384294 -5.36452e-05
0.000384294 0.00042025 -2.63152e-05
-5.36452e-05 -2.63152e-05 0.000397184
0.00121024 0.000282363 -5.12294e-06
0.000282363 0.000286842 -1.07681e-06
-5.12294e-06 -1.07681e-06 8.46857e-05
0.000483277 0.000284408 -9.72532e-07
0.000284408 -0.000237475 -4.40336e-06
-9.72532e-07 -4.40336e-06 -0.00050509
0.000298654 0.000427732 -1.71607e-05
0.000427732 -0.00062616 -4.72869e-06
-1.71607e-05 -4.72869e-06 -0.000816877
0.0106606 0.000382642 -0.000204162
0.000382642 0.0022952 -4.33303e-05
-0.000204162 -4.33303e-05 0.00141229
0.00585984 0.000849219 0.000127236
0.000849219 0.000763727 -2.60764e-05
0.000127236 -2.60764e-05 0.000477755
0.000587513 0.000587067 1.71841e-05
0.000587067 -0.000518931 9.01514e-06
1.71841e-05 9.01514e-06 -0.000756805
-0.00449019 -0.000822534 0.000420736
-0.000822534 -0.000925569 4.54484e-05
0.000420736 4.54484e-05 -0.00235179
0.00908966 -0.00269812 -2.36424e-05
-0.00269812 0.00204897 1.45795e-05
-2.36424e-05 1.45795e-05 0.0033303
0.000443657 4.69646e-05 3.67227e-06
4.69646e-05 -2.43046e-05 7.38088e-07
3.67227e-06 7.38088e-07 -0.000113641
0.000836784 4.34238e-05 1.28338e-06
4.34238e-05 0.000201976 -6.42816e-07
1.28338e-06 -6.42816e-07 0.000112341
0.00103344 0.000102182 -2.65788e-06
0.000102182 0.000315894 -8.04207e-07
-2.65788e-06 -8.04207e-07 0.000212327
0.000610115 -6.05024e-05 -1.09952e-07
-6.05024e-05 5.94947e-05 -1.84802e-06
-1.09952e-07 -1.84802e-06 -3.86313e-05
0.000610536 5.8705e-05 -1.21051e-06
5.8705e-05 4.86642e-05 -1.46939e-06
-1.21051e-06 -1.46939e-06 -6.34395e-05
0.000749092 -2.89605e-05 3.53324e-07
-2.89605e-05 0.00013085 -1.01747e-07
3.53324e-07 -1.01747e-07 1.66236e-05
0.000832251 2.6246e-05 -1.35947e-06
2.6246e-05 0.000163064 3.08021e-06
-1.35947e-06 3.08021e-06 6.36464e-05
0.000573552 2.54004e-05 -1.44524e-06
2.54004e-05 4.12382e-06 2.44535e-06
-1.44524e-06 2.44535e-06 -7.50481e-05
0.000768182 8.01171e-05 -1.57529e-06
8.01171e-05 0.000146485 -5.24161e-07
-1.57529e-06 -5.24161e-07 2.44489e-05
0.00054818 -9.15141e-06 2.27911e-08
-9.15141e-06 6.20024e-06 7.37965e-07
2.27911e-08 7.37965e-07 -8.60198e-05
0.000665057 2.22965e-05 1.32374e-07
2.22965e-05 8.79035e-05 1.13485e-07
1.32374e-07 1.13485e-07 -3.38798e-05
0.000706371 3.49362e-05 8.33735e-07
3.49362e-05 8.04429e-05 -4.58462e-07
8.33735e-07 -4.58462e-07 -2.93484e-06
0.00080598 4.71211e-05 -6.61323e-07
4.71211e-05 0.000149369 -7.87659e-08
-6.61323e-07 -7.87659e-08 3.88174e-05
0.00106149 9.43634e-05 -1.421e-06
9.43634e-05 0.000305046 -1.55273e-06
-1.421e-06 -1.55273e-06 0.00019072
0.000375447 4.64372e-05 -1.25124e-07
4.64372e-05 -9.05728e-05 -3.0893e-06
-1.25124e-07 -3.0893e-06 -0.000189926
0.000821136 8.22592e-05 1.73196e-06
8.22592e-05 0.000163088 3.49329e-07
1.73196e-06 3.49329e-07 4.65626e-05
0.000572042 -2.07979e-05 1.2582e-06
-2.07979e-05 1.94779e-05 -4.05361e-08
1.2582e-06 -4.05361e-08 -9.4789e-05
0.00045921 -5.36276e-05 -1.22019e-06
-5.36276e-05 -4.7555e-05 1.84568e-06
-1.22019e-06 1.84568e-06 -0.000143125
0.000775876 -5.94438e-06 -8.33126e-07
-5.94438e-06 0.000150727 3.66852e-09
-8.33126e-07 3.66852e-09 3.257e-05
0.000797183 3.33254e-05 -2.50466e-08
3.33254e-05 0.00016554 -2.8416e-06
-2.50466e-08 -2.8416e-06 5.23714e-05
0.000662079 -2.30817e-05 -7.97941e-07
-2.30817e-05 9.31496e-05 -7.62788e-08
-7.97941e-07 -7.62788e-08 -1.81113e-05
0.000792232 -2.3982e-05 1.15502e-06
-2.3982e-05 0.00016701 -5.78431e-07
1.15502e-06 -5.78431e-07 5.24492e-05
0.000673488 -8.54966e-05 -2.40459e-06
-8.54966e-05 7.87893e-05 1.43879e-06
-2.40459e-06 1.43879e-06 -1.20026e-05
0.000460181 -1.13744e-05 1.18937e-07
-1.13744e-05 -4.65344e-05 8.23155e-07
1.18937e-07 8.23155e-07 -0.000141754
0.000588478 -1.99524e-05 -1.43942e-06
-1.99524e-05 8.61888e-06 2.37261e-06
-1.43942e-06 2.37261e-06 -4.52357e-05
0.000580528 -1.84746e-05 1.04763e-06
-1.84746e-05 9.49219e-06 -1.15429e-09
1.04763e-06 -1.15429e-09 -4.62592e-05
0.000576823 6.58963e-06 -4.81815e-08
6.58963e-06 -2.20283e-05 5.47201e-06
-4.81815e-08 5.47201e-06 -3.85505e-05
0.000580679 1.92186e-05 -9.2647e-07
1.92186e-05 7.80805e-06 -2.11959e-06
-9.2647e-07 -2.11959e-06 -4.61221e-05
0.000547687 4.407e-06 3.64571e-07
4.407e-06 -4.00775e-05 -4.03623e-09
3.64571e-07 -4.03623e-09 -5.6128e-05
0.0023668 -1.67495e-06 -7.69975e-07
-1.67495e-06 0.00104329 5.27646e-06
-7.69975e-07 5.27646e-06 0.00105883
0.00059076 1.22206e-06 -7.50987e-07
1.22206e-06 -1.55314e-05 -5.64852e-06
-7.50987e-07 -5.64852e-06 -3.13529e-05
0.00159722 -9.90224e-06 1.26236e-08
-9.90224e-06 0.000583188 8.3448e-08
1.26236e-08 8.3448e-08 0.000594696
0.000776963 -1.4866e-05 1.85002e-07
-1.4866e-05 9.2518e-05 -2.10593e-06
1.85002e-07 -2.10593e-06 0.000100624
0.000602522 -1.10584e-05 9.57841e-07
-1.10584e-05 7.96509e-06 -1.36349e-06
9.57841e-07 -1.36349e-06 -2.95406e-05
0.000623525 -1.88713e-05 4.06764e-07
-1.88713e-05 1.82999e-05 -4.50562e-08
4.06764e-07 -4.50562e-08 -2.09939e-05
0.000588479 1.41586e-05 4.44974e-07
1.41586e-05 -2.2851e-05 -3.12868e-06
4.44974e-07 -3.12868e-06 -3.03758e-05
0.000601126 -1.39624e-05 -1.39399e-06
-1.39624e-05 2.07141e-06 1.23457e-06
-1.39399e-06 1.23457e-06 -3.74806e-05
0.000861216 2.54374e-05 -6.3855e-08
2.54374e-05 0.000142479 -7.11471e-07
-6.3855e-08 -7.11471e-07 0.000135104
0.00204997 4.07961e-05 1.08512e-05
4.07961e-05 0.000860379 -4.30355e-06
1.08512e-05 -4.30355e-06 0.000876949
0.000557463 3.02909e-05 -4.22188e-07
3.02909e-05 -3.46458e-05 3.4166e-06
-4.22188e-07 3.4166e-06 -4.67521e-05
0.00217903 5.70786e-05 -7.19627e-06
5.70786e-05 0.000944474 1.11685e-06
-7.19627e-06 1.11685e-06 0.00095799
0.00228088 7.5053e-05 -1.64508e-05
7.5053e-05 0.00101211 4.05895e-06
-1.64508e-05 4.05895e-06 0.00102194
0.00197245 0.000127449 -2.5452e-06
0.000127449 1.96691e-05 8.55248e-09
-2.5452e-06 8.55248e-09 2.16068e-06
0.00192144 -6.10061e-07 -1.48029e-06
-6.10061e-07 2.08418e-05 1.65583e-07
-1.48029e-06 1.65583e-07 1.30025e-05
0.00161048 5.34101e-05 9.81222e-06
5.34101e-05 -0.000191771 -4.52885e-07
9.81222e-06 -4.52885e-07 -0.000170993
0.00232835 0.000237995 3.8301e-05
0.000237995 -0.000465194 8.2357e-06
3.8301e-05 8.2357e-06 -0.000351029
0.00196286 -8.01134e-06 -2.28657e-06
-8.01134e-06 -2.29998e-05 -3.41061e-07
-2.28657e-06 -3.41061e-07 -8.57474e-06
0.00189975 4.99841e-05 3.75063e-06
4.99841e-05 0.000145893 -1.96085e-06
3.75063e-06 -1.96085e-06 0.000203091
0.0027827 -1.61888e-05 -2.70773e-05
-1.61888e-05 0.000678369 3.52107e-06
-2.70773e-05 3.52107e-06 0.000657202
0.00200618 -3.27413e-05 5.85328e-05
-3.27413e-05 -0.00130653 -1.96229e-05
5.85328e-05 -1.96229e-05 -0.00115098
0.00254267 8.27227e-05 3.16755e-05
8.27227e-05 -5.36269e-05 1.78224e-05
3.16755e-05 1.78224e-05 8.38022e-05
0.000627827 6.96098e-05 9.17013e-08
6.96098e-05 5.83162e-05 -6.44927e-07
9.17013e-08 -6.44927e-07 -1.75239e-05
0.000652518 -8.79133e-06 5.9436e-07
-8.79133e-06 7.46135e-05 -2.03563e-07
5.9436e-07 -2.03563e-07 -2.85057e-06
0.000631569 -9.42315e-05 -6.10253e-07
-9.42315e-05 6.19146e-05 1.02065e-06
-6.10253e-07 1.02065e-06 -3.03624e-05
0.000617232 -4.06194e-05 -1.04866e-06
-4.06194e-05 7.47392e-05 1.09971e-06
-1.04866e-06 1.09971e-06 -2.8677e-05
0.00200049 -0.000120678 -3.90489e-06
-0.000120678 -3.50175e-05 7.75064e-07
-3.90489e-06 7.75064e-07 -2.25103e-05
0.00193125 -0.000257492 1.00763e-06
-0.000257492 -7.00708e-06 2.58616e-08
1.00763e-06 2.58616e-08 9.26452e-06
0.00207169 -0.000383962 -2.71445e-06
-0.000383962 9.57603e-05 2.71476e-06
-2.71445e-06 2.71476e-06 1.71336e-05
0.00224095 -0.000420482 9.31466e-06
-0.000420482 0.000788492 3.9697e-06
9.31466e-06 3.9697e-06 0.000520411
0.00111155 -0.000452989 1.11141e-05
-0.000452989 4.35369e-05 -4.0226e-06
1.11141e-05 -4.0226e-06 -0.00030085
0.00227304 -0.000533607 6.06221e-06
-0.000533607 0.000420965 -3.34056e-06
6.06221e-06 -3.34056e-06 0.000240509
0.00103567 -0.000314865 -4.49516e-06
-0.000314865 0.000201869 2.59769e-06
-4.49516e-06 2.59769e-06 -5.61677e-05
0.00190511 -0.000150389 8.27977e-07
-0.000150389 0.000820827 -9.71565e-07
8.27977e-07 -9.71565e-07 0.000587252
0.000322214 -8.24559e-05 -6.64278e-07
-8.24559e-05 -0.000155441 -1.57849e-06
-6.64278e-07 -1.57849e-06 -0.000309372
0.000680572 -3.83626e-05 -2.16608e-07
-3.83626e-05 8.1789e-05 1.10656e-06
-2.16608e-07 1.10656e-06 7.19306e-06
0.000674378 -8.73146e-05 2.85824e-07
-8.73146e-05 0.000111991 -2.50953e-06
2.85824e-07 -2.50953e-06 -4.18149e-05
0.000769035 -7.77416e-06 6.92942e-07
-7.77416e-06 0.000165116 -5.13746e-07
6.92942e-07 -5.13746e-07 4.51025e-05
0.000648576 8.1097e-06 1.86028e-07
8.1097e-06 7.58247e-05 -9.39721e-08
1.86028e-07 -9.39721e-08 -4.86673e-06
0.000553475 4.23383e-06 -2.94953e-06
4.23383e-06 1.15412e-05 2.1946e-06
-2.94953e-06 2.1946e-06 -8.31981e-05
0.00228442 -0.00020397 1.14657e-06
-0.00020397 0.000143298 5.69888e-07
1.14657e-06 5.69888e-07 0.00016326
0.000655415 -1.23685e-05 1.14951e-06
-1.23685e-05 8.50546e-05 -3.2052e-07
1.14951e-06 -3.2052e-07 -1.73139e-05
0.000686795 6.30342e-06 2.42942e-06
6.30342e-06 9.20722e-05 -1.05271e-07
2.42942e-06 -1.05271e-07 -1.08946e-05
0.000404181 3.8261e-05 1.84907e-07
3.8261e-05 -7.04508e-05 1.41109e-06
1.84907e-07 1.41109e-06 -0.00016622
0.00176444 -0.000277527 -8.9047e-07
-0.000277527 -0.000176976 -1.72689e-06
-8.9047e-07 -1.72689e-06 -0.000127367
0.00201833 -0.000504693 1.38006e-06
-0.000504693 0.000107326 -4.00562e-07
1.38006e-06 -4.00562e-07 -2.53672e-05
0.00158815 -0.00040608 -9.69178e-07
-0.00040608 0.000471049 -2.02335e-07
-9.69178e-07 -2.02335e-07 0.000188118
0.00216764 -0.000574195 -5.43575e-06
-0.000574195 0.000476101 2.09337e-06
-5.43575e-06 2.09337e-06 0.000242129
0.00107352 -7.6435e-05 -9.59012e-07
-7.6435e-05 0.000338437 3.92646e-07
-9.59012e-07 3.92646e-07 0.000204789
0.000498353 -7.45459e-05 3.11181e-08
-7.45459e-05 -2.50203e-05 9.04732e-07
3.11181e-08 9.04732e-07 -0.000168706
0.00104966 -0.000398063 3.66422e-06
-0.000398063 0.000391475 -1.54091e-06
3.66422e-06 -1.54091e-06 1.26341e-05
0.00115745 -0.000188785 3.52762e-07
-0.000188785 0.000443652 -3.2968e-07
3.52762e-07 -3.2968e-07 0.000157752
0.00243541 -0.00024223 -2.27446e-05
-0.00024223 0.000148477 -3.7328e-08
-2.27446e-05 -3.7328e-08 0.00025306
0.00231131 -0.000413165 -2.58295e-05
-0.000413165 0.000155522 5.20044e-06
-2.58295e-05 5.20044e-06 0.000168706
0.00279538 -0.000660253 -1.20161e-05
-0.000660253 0.000616362 -6.53835e-06
-1.20161e-05 -6.53835e-06 0.000403867
0.00163414 -0.000489585 -7.31214e-06
-0.000489585 0.000380045 3.46558e-06
-7.31214e-06 3.46558e-06 0.000158181
0.000551479 -5.7656e-06 -1.55636e-06
-5.7656e-06 4.00836e-05 -2.02435e-06
-1.55636e-06 -2.02435e-06 -8.20194e-05
0.00055216 -7.80224e-05 -6.22207e-07
-7.80224e-05 2.99162e-05 -4.10192e-06
-6.22207e-07 -4.10192e-06 -9.99472e-05
0.000481126 -0.000115093 -2.35326e-06
-0.000115093 7.37811e-05 9.72162e-06
-2.35326e-06 9.72162e-06 -0.000112025
-0.000275818 -0.000186528 -1.82708e-06
-0.000186528 -0.000162166 -6.19237e-06
-1.82708e-06 -6.19237e-06 -0.000621564
0.000908743 -0.000387097 2.86558e-05
-0.000387097 -0.00318505 -4.7948e-06
2.86558e-05 -4.7948e-06 -0.00346312
0.00149852 0.000118539 8.35101e-07
0.000118539 0.000576043 -3.57345e-06
8.35101e-07 -3.57345e-06 0.00044044
0.000584138 0.000182587 3.32414e-06
0.000182587 -4.10844e-06 1.32861e-06
3.32414e-06 1.32861e-06 -0.000194841
0.00205624 0.000204941 5.12583e-05
0.000204941 0.000129303 1.00564e-05
5.12583e-05 1.00564e-05 0.000157276
0.00210071 0.000469005 1.77908e-05
0.000469005 0.000189181 6.70099e-06
1.77908e-05 6.70099e-06 5.89982e-05
0.00198988 0.000481665 6.29459e-06
0.000481665 0.000454861 7.45824e-06
6.29459e-06 7.45824e-06 0.00015728
0.000933698 0.000298554 6.19899e-06
0.000298554 6.35919e-05 3.61901e-06
6.19899e-06 3.61901e-06 -0.000211522
0.00342654 0.00056909 7.85576e-05
0.00056909 0.000307956 2.60544e-05
7.85576e-05 2.60544e-05 -0.000134435
0.00126923 0.000178499 3.31779e-06
0.000178499 0.000478222 5.10217e-07
3.31779e-06 5.10217e-07 0.000312562
0.00238525 0.000379402 -1.3095e-05
0.000379402 0.000369375 -1.09534e-06
-1.3095e-05 -1.09534e-06 0.000364765
0.00109856 0.000272555 1.45686e-06
0.000272555 0.000242669 7.21147e-07
1.45686e-06 7.21147e-07 4.0242e-05
0.00120396 0.000368029 2.24724e-06
0.000368029 0.000165314 -2.45567e-06
2.24724e-06 -2.45567e-06 -0.000114862
0.00119995 0.000498784 -4.99285e-06
0.000498784 -0.000164032 -1.57936e-06
-4.99285e-06 -1.57936e-06 -0.000359867
0.00287273 -0.000299912 -0.000118986
-0.000299912 -0.0023384 -3.54085e-05
-0.000118986 -3.54085e-05 -0.00332826
0.0057548 0.000703727 -2.13735e-05
0.000703727 0.000532332 -4.32413e-05
-2.13735e-05 -4.32413e-05 6.16589e-05
0.000488306 0.000482938 -8.89797e-06
0.000482938 -0.00042301 7.49605e-06
-8.89797e-06 7.49605e-06 -0.000721583
-0.00176988 -0.000612315 0.000186796
-0.000612315 0.00108998 7.96259e-05
0.000186796 7.96259e-05 -0.000502637
0.00130015 -0.00269033 -0.000135362
-0.00269033 -0.000539637 -0.000146862
-0.000135362 -0.000146862 0.000928298
0.00106 0.000195232 -5.91288e-06
0.000195232 0.000339179 -2.88035e-06
-5.91288e-06 -2.88035e-06 0.000189155
0.000536669 0.000427331 0.000211157
0.000427331 0.00190226 -1.02686e-05
0.000211157 -1.02686e-05 0.000693198
0.00113584 -0.000839513 -0.000118909
-0.000839513 0.00260117 -0.000184074
-0.000118909 -0.000184074 0.000615407
0.00258054 0.000574887 -3.00027e-05
0.000574887 0.000465355 -9.15019e-06
-3.00027e-05 -9.15019e-06 0.000500201
0.000769445 0.00017013 -1.32625e-05
0.00017013 4.92929e-05 -3.20659e-06
-1.32625e-05 -3.20659e-06 -0.000144795
0.00013976 0.000406698 -2.32062e-05
0.000406698 -0.000412217 -1.66486e-05
-2.32062e-05 -1.66486e-05 -0.000704606
0.00010901 0.000520263 3.25624e-05
0.000520263 -0.000674921 6.90677e-05
3.25624e-05 6.90677e-05 -0.000833599
0.0126872 0.00083812 -1.52811e-05
0.00083812 0.00376312 -4.05091e-05
-1.52811e-05 -4.05091e-05 0.00226978
0.00285216 0.00104599 1.39235e-05
0.00104599 0.000483446 5.95927e-06
1.39235e-05 5.95927e-06 -0.000618123
0.0034036 -0.00238426 0.00033724
-0.00238426 -1.36336e-05 0.000238256
0.00033724 0.000238256 6.72544e-05
0.00622852 -0.00125998 -2.50189e-05
-0.00125998 -0.000295819 0.000262033
-2.50189e-05 0.000262033 0.000625443
0.000549577 2.61575e-05 2.13986e-06
2.61575e-05 4.99161e-05 -2.00794e-06
2.13986e-06 -2.00794e-06 -4.12398e-05
0.000767598 8.97481e-05 2.42881e-06
8.97481e-05 0.000166627 1.02079e-06
2.42881e-06 1.02079e-06 6.22756e-05
0.00151815 0.000160191 -3.16062e-06
0.000160191 0.00061708 -2.6985e-06
-3.16062e-06 -2.6985e-06 0.000509693
0.000624003 4.84114e-06 7.53154e-07
4.84114e-06 6.85871e-05 -4.21377e-07
7.53154e-07 -4.21377e-07 -3.4093e-05
0.000731633 3.66401e-05 -9.79083e-08
3.66401e-05 0.000125438 -1.46036e-06
-9.79083e-08 -1.46036e-06 5.43009e-06
0.000527284 -3.63613e-06 -1.34137e-06
-3.63613e-06 -8.41681e-06 2.48216e-07
-1.34137e-06 2.48216e-07 -0.000118144
0.000792686 5.38212e-05 -7.65904e-07
5.38212e-05 0.000142045 1.75257e-06
-7.65904e-07 1.75257e-06 3.56436e-05
0.000607266 3.5168e-05 -6.52688e-07
3.5168e-05 1.83231e-05 3.20005e-08
-6.52688e-07 3.20005e-08 -6.55973e-05
0.000441805 -3.60498e-06 2.55657e-07
-3.60498e-06 -5.36156e-05 7.83429e-07
2.55657e-07 7.83429e-07 -0.00015167
0.000845825 4.03108e-05 4.03292e-07
4.03108e-05 0.000180258 6.66952e-07
4.03292e-07 6.66952e-07 6.76098e-05
0.00078923 3.29876e-05 3.01854e-07
3.29876e-05 0.000145557 3.76021e-07
3.01854e-07 3.76021e-07 2.86561e-05
0.000695515 2.00742e-05 5.97269e-07
2.00742e-05 0.000107987 -3.31014e-07
5.97269e-07 -3.31014e-07 -1.6363e-05
0.000479935 5.10196e-05 -3.60153e-07
5.10196e-05 -2.76995e-05 -8.49508e-07
-3.60153e-07 -8.49508e-07 -0.000127193
0.0011542 6.21301e-05 -7.56677e-07
6.21301e-05 0.000361576 -2.6416e-06
-7.56677e-07 -2.6416e-06 0.000257124
-2.65945e-05 4.13711e-05 -3.0532e-06
4.13711e-05 -0.000286061 -4.35469e-06
-3.0532e-06 -4.35469e-06 -0.000392783
0.000746761 -7.8154e-05 7.50325e-08
-7.8154e-05 0.000121967 -2.34203e-07
7.50325e-08 -2.34203e-07 -4.6348e-07
0.000777241 -5.77238e-05 -8.87773e-07
-5.77238e-05 0.000161167 -8.43942e-07
-8.87773e-07 -8.43942e-07 3.11586e-05
0.00080083 -2.77973e-05 -5.34988e-07
-2.77973e-05 0.000174528 -3.86408e-07
-5.34988e-07 -3.86408e-07 4.91714e-05
0.00079924 4.83232e-06 -9.90241e-07
4.83232e-06 0.000158061 -1.78751e-07
-9.90241e-07 -1.78751e-07 5.15875e-05
0.000819788 9.59745e-06 -2.69372e-06
9.59745e-06 0.000192515 -2.26431e-06
-2.69372e-06 -2.26431e-06 5.73605e-05
0.000723532 9.98035e-06 1.16418e-06
9.98035e-06 0.000117095 -1.50835e-06
1.16418e-06 -1.50835e-06 1.13788e-05
9.71673e-05 -1.94835e-05 -7.07799e-09
-1.94835e-05 -0.000260411 -1.96091e-06
-7.07799e-09 -1.96091e-06 -0.000352303
0.000600812 4.93361e-07 1.1192e-06
4.93361e-07 3.68454e-05 -2.61708e-08
1.1192e-06 -2.61708e-08 -6.74199e-05
0.000648276 -4.69557e-05 1.7763e-07
-4.69557e-05 6.36434e-05 3.15217e-07
1.7763e-07 3.15217e-07 -3.13808e-05
0.000713647 -4.41562e-05 -2.33944e-07
-4.41562e-05 0.000117271 -3.36164e-08
-2.33944e-07 -3.36164e-08 8.85012e-06
0.000662661 -5.17424e-05 -2.01403e-06
-5.17424e-05 6.10333e-05 1.11189e-06
-2.01403e-06 1.11189e-06 -1.84528e-05
0.00068762 -3.57906e-05 1.48669e-06
-3.57906e-05 8.58325e-05 -3.73558e-07
1.48669e-06 -3.73558e-07 -1.71901e-05
0.000609331 -7.91485e-05 9.2248e-09
-7.91485e-05 3.84494e-05 2.29775e-07
9.2248e-09 2.29775e-07 -5.21407e-05
0.000624977 -1.83134e-05 -1.93993e-06
-1.83134e-05 2.55618e-05 2.59888e-06
-1.93993e-06 2.59888e-06 -2.80298e-05
0.000489354 -6.20875e-06 1.22313e-06
-6.20875e-06 -1.95873e-05 -6.98903e-07
1.22313e-06 -6.98903e-07 -0.000121536
0.000585109 3.57706e-06 1.2417e-06
3.57706e-06 1.04192e-05 -1.41154e-08
1.2417e-06 -1.41154e-08 -4.55751e-05
0.00138458 1.14461e-05 -3.05638e-06
1.14461e-05 0.000458841 5.41208e-06
-3.05638e-06 5.41208e-06 0.000446604
0.000577075 3.43106e-05 -6.27828e-07
3.43106e-05 7.56945e-06 -2.11432e-06
-6.27828e-07 -2.11432e-06 -4.8029e-05
0.000957139 4.4391e-06 -1.76773e-06
4.4391e-06 0.000204641 8.1498e-07
-1.76773e-06 8.1498e-07 0.000190458
0.000834469 3.25678e-06 -4.11566e-06
3.25678e-06 0.000128707 5.05387e-06
-4.11566e-06 5.05387e-06 0.000136101
0.000556218 4.23545e-07 3.40933e-07
4.23545e-07 -3.47738e-05 -3.76103e-06
3.40933e-07 -3.76103e-06 -5.08969e-05
0.00237828 1.03239e-07 4.53494e-06
1.03239e-07 0.00105023 -7.84116e-09
4.53494e-06 -7.84116e-09 0.00106572
0.000851925 -3.01065e-06 -4.19038e-06
-3.01065e-06 0.000138979 -5.1669e-06
-4.19038e-06 -5.1669e-06 0.000146573
0.000606144 6.47649e-05 1.93605e-06
6.47649e-05 5.21008e-05 1.23877e-07
1.93605e-06 1.23877e-07 -3.10687e-05
0.000583541 2.67199e-05 -1.23396e-06
2.67199e-05 1.87856e-06 -1.77562e-06
-1.23396e-06 -1.77562e-06 -3.71719e-05
0.000593645 -6.49005e-06 9.79231e-07
-6.49005e-06 4.78488e-06 1.43181e-08
9.79231e-07 1.43181e-08 -3.41327e-05
0.000590746 8.23546e-06 3.64386e-07
8.23546e-06 -2.22266e-05 -3.09241e-06
3.64386e-07 -3.09241e-06 -2.90796e-05
0.000619024 -3.33039e-05 -1.77547e-06
-3.33039e-05 1.72165e-05 1.37207e-06
-1.77547e-06 1.37207e-06 -2.34539e-05
0.00055936 1.41009e-05 1.28535e-08
1.41009e-05 -4.07871e-05 -7.57685e-07
1.28535e-08 -7.57685e-07 -4.801e-05
0.00202197 2.73607e-05 7.25393e-06
2.73607e-05 0.000840038 -4.45971e-06
7.25393e-06 -4.45971e-06 0.00085816
0.00116205 3.18884e-05 -6.72883e-07
3.18884e-05 0.000323131 1.83076e-06
-6.72883e-07 1.83076e-06 0.000317011
0.00148143 3.50855e-05 9.67591e-08
3.50855e-05 0.00052073 1.40844e-06
9.67591e-08 1.40844e-06 0.000533243
0.000890429 3.82775e-05 -1.33807e-05
3.82775e-05 0.000172516 7.16609e-06
-1.33807e-05 7.16609e-06 0.000179232
0.00150308 0.000154382 7.12528e-05
0.000154382 -0.00079589 1.43979e-05
7.12528e-05 1.43979e-05 -0.000690898
0.00193929 -2.10846e-05 2.64524e-06
-2.10846e-05 -2.47834e-05 1.03279e-06
2.64524e-06 1.03279e-06 -1.25233e-05
0.00195537 6.18588e-05 3.46369e-05
6.18588e-05 0.000196211 -1.03409e-05
3.46369e-05 -1.03409e-05 0.000242844
0.00147283 0.000124324 -1.6547e-05
0.000124324 -0.00117574 -1.05916e-05
-1.6547e-05 -1.05916e-05 -0.000864673
0.00184836 6.17427e-05 1.93775e-05
6.17427e-05 -0.000349802 9.45378e-08
1.93775e-05 9.45378e-08 -0.000216013
0.00235605 -2.0547e-05 1.1513e-07
-2.0547e-05 0.00037508 -2.18633e-06
1.1513e-07 -2.18633e-06 0.000356836
0.00344751 -8.35718e-05 -6.05693e-05
-8.35718e-05 0.000788295 2.39905e-06
-6.05693e-05 2.39905e-06 0.000762329
0.00298294 -7.06908e-05 8.43177e-05
-7.06908e-05 0.000292826 2.8904e-07
8.43177e-05 2.8904e-07 0.000217635
0.0101336 -0.000468226 1.38773e-05
-0.000468226 0.00233584 3.68252e-05
1.38773e-05 3.68252e-05 0.000850004
0.00948743 0.00198803 0.000428105
0.00198803 0.00436592 -0.000186107
0.000428105 -0.000186107 0.00414585
0.00578284 0.00215321 -2.52291e-05
0.00215321 0.00425593 2.1039e-05
-2.52291e-05 2.1039e-05 0.00459322
0.000417016 -8.78008e-05 2.04561e-06
-8.78008e-05 -5.52478e-05 -6.33923e-08
2.04561e-06 -6.33923e-08 -0.000150632
0.000648497 -1.1311e-05 1.33669e-06
-1.1311e-05 7.24381e-05 -1.6686e-07
1.33669e-06 -1.6686e-07 -5.26092e-06
0.000688307 -7.92384e-05 -1.69444e-06
-7.92384e-05 0.000101745 1.12264e-06
-1.69444e-06 1.12264e-06 1.88199e-05
0.000627472 -4.16797e-05 -2.17e-07
-4.16797e-05 6.13415e-05 2.33455e-07
-2.17e-07 2.33455e-07 -3.23031e-05
0.000634567 6.11628e-05 -1.11974e-06
6.11628e-05 8.76215e-05 1.88787e-06
-1.11974e-06 1.88787e-06 -2.36976e-05
0.000653353 0.000119915 1.43712e-06
0.000119915 7.99535e-05 3.76253e-06
1.43712e-06 3.76253e-06 -3.02342e-05
0.000841637 -1.2499e-05 2.81763e-06
-1.2499e-05 0.000206053 6.84113e-09
2.81763e-06 6.84113e-09 9.83515e-05
0.000573413 -2.8859e-05 -1.00438e-06
-2.8859e-05 3.84792e-05 9.49638e-07
-1.00438e-06 9.49638e-07 -5.93452e-05
0.00213113 -0.000188889 4.82439e-06
-0.000188889 5.99249e-05 1.96254e-06
4.82439e-06 1.96254e-06 9.20222e-05
0.00181127 -0.000289631 9.09059e-06
-0.000289631 -0.000184293 -1.29095e-06
9.09059e-06 -1.29095e-06 -0.000140726
0.00164435 -0.000473034 5.3945e-06
-0.000473034 -8.66448e-05 4.75856e-06
5.3945e-06 4.75856e-06 -0.00020992
0.00142574 -0.000417215 1.28076e-05
-0.000417215 0.000366007 5.90566e-07
1.28076e-05 5.90566e-07 7.75011e-05
0.00174905 -0.00054502 5.77353e-06
-0.00054502 0.000258047 8.50168e-07
5.77353e-06 8.50168e-07 2.60103e-05
0.00213711 -0.000467427 6.04159e-06
-0.000467427 0.00100704 -2.11591e-06
6.04159e-06 -2.11591e-06 0.000612332
0.00225345 -0.000290034 5.5241e-07
-0.000290034 0.00102586 -3.06875e-06
5.5241e-07 -3.06875e-06 0.000751938
0.000748214 -0.000128201 3.45873e-06
-0.000128201 0.000128862 -3.66215e-06
3.45873e-06 -3.66215e-06 -3.17613e-05
0.000682436 -2.393e-05 4.76887e-07
-2.393e-05 9.00785e-05 2.07878e-06
4.76887e-07 2.07878e-06 -8.33814e-06
0.000903345 -4.06343e-05 1.47218e-06
-4.06343e-05 0.000222951 -6.2001e-06
1.47218e-06 -6.2001e-06 9.74108e-05
0.000918837 -2.33029e-05 1.50613e-06
-2.33029e-05 0.000243536 -1.50219e-08
1.50613e-06 -1.50219e-08 0.000139425
0.000709047 9.79903e-05 2.22e-06
9.79903e-05 0.000113016 2.11054e-06
2.22e-06 2.11054e-06 2.29701e-05
0.00200587 -0.000230975 -2.37327e-08
-0.000230975 -2.99048e-05 1.82348e-06
-2.37327e-08 1.82348e-06 5.93627e-05
0.000671307 1.24178e-05 -1.56762e-06
1.24178e-05 0.000110987 2.93713e-07
-1.56762e-06 2.93713e-07 -9.98585e-06
0.000836855 -8.63095e-05 -2.33955e-06
-8.63095e-05 0.000189635 1.29408e-06
-2.33955e-06 1.29408e-06 6.82919e-05
0.00178524 -0.000397783 1.9742e-06
-0.000397783 -0.000123706 -1.60199e-06
1.9742e-06 -1.60199e-06 -0.00011654
0.00168529 -0.000568318 6.46218e-07
-0.000568318 2.76628e-05 6.43543e-07
6.46218e-07 6.43543e-07 -0.000156089
0.00104166 -0.000436752 -1.14889e-06
-0.000436752 6.0333e-05 -1.98481e-06
-1.14889e-06 -1.98481e-06 -0.000174861
0.00102518 -0.000154211 2.64365e-07
-0.000154211 0.000377249 -4.94437e-06
2.64365e-07 -4.94437e-06 0.000172118
0.00113491 -0.000257403 -1.58961e-06
-0.000257403 0.000582361 1.30536e-06
-1.58961e-06 1.30536e-06 0.000162914
0.00332151 -0.000359965 -3.33821e-05
-0.000359965 0.000663739 5.84063e-06
-3.33821e-05 5.84063e-06 0.000687548
0.00280656 -0.000569965 -3.42388e-05
-0.000569965 0.000541893 4.61419e-06
-3.42388e-05 4.61419e-06 0.000513007
0.00165033 -0.000613471 -1.17705e-05
-0.000613471 0.00010802 1.00808e-07
-1.17705e-05 1.00808e-07 -8.06384e-05
0.00057722 -0.000309068 -1.32704e-05
-0.000309068 -6.05746e-05 1.66348e-05
-1.32704e-05 1.66348e-05 -0.000281672
0.000664295 -0.000134625 1.53419e-06
-0.000134625 0.000112081 1.17766e-06
1.53419e-06 1.17766e-06 -3.3262e-05
0.000443515 -0.000109287 2.83766e-06
-0.000109287 2.03727e-05 -1.29347e-06
2.83766e-06 -1.29347e-06 -0.000145122
0.00102107 -0.000109901 1.48355e-07
-0.000109901 0.000528245 -4.94799e-06
1.48355e-07 -4.94799e-06 0.000170569
-0.00501701 -9.86437e-05 0.000272888
-9.86437e-05 -0.0035965 2.47733e-06
0.000272888 2.47733e-06 -0.00254362
0.0102799 -0.000147372 8.87169e-06
-0.000147372 0.00276604 -1.7848e-07
8.87169e-06 -1.7848e-07 0.00219137
0.00145359 0.000157362 5.8709e-06
0.000157362 0.000574252 -2.85939e-06
5.8709e-06 -2.85939e-06 0.000419651
0.000862053 0.000250851 3.21196e-06
0.000250851 0.00012282 -1.37802e-06
3.21196e-06 -1.37802e-06 -7.74283e-05
0.00212545 0.000348193 4.68766e-05
0.000348193 0.000217124 2.40317e-05
4.68766e-05 2.40317e-05 0.000230779
0.00238302 0.000593477 1.35429e-05
0.000593477 0.000448372 5.7831e-06
1.35429e-05 5.7831e-06 0.000245402
0.0021479 0.000472295 1.03107e-05
0.000472295 0.000684761 2.01806e-07
1.03107e-05 2.01806e-07 0.00039161
0.0109872 0.000582238 4.67741e-05
0.000582238 0.00280431 2.08087e-05
4.67741e-05 2.08087e-05 0.00168015
0.00757997 0.00102609 -0.000162304
0.00102609 0.000945459 -2.72636e-05
-0.000162304 -2.72636e-05 0.000592445
0.000459005 0.000393885 7.43317e-06
0.000393885 -0.000304623 -1.89555e-05
7.43317e-06 -1.89555e-05 -0.000667499
0.00955471 -0.00160308 -0.000109842
-0.00160308 0.00442055 2.00427e-05
-0.000109842 2.00427e-05 0.00367905
-0.00743326 -0.00272516 -0.000723052
-0.00272516 -0.00320278 -0.000543232
-0.000723052 -0.000543232 -0.0018458
0.000980338 0.000190529 -6.63655e-07
0.000190529 0.000302553 -1.82066e-06
-6.63655e-07 -1.82066e-06 0.00015243
-0.00238474 -0.000814354 0.000147674
-0.000814354 -0.00220256 2.00112e-05
0.000147674 2.00112e-05 -0.00250496
-0.00292368 -0.000600226 -0.000172295
-0.000600226 0.00160882 -8.76314e-05
-0.000172295 -8.76314e-05 -0.000731316
0.00282348 0.000523314 -1.11969e-05
0.000523314 0.000611586 -1.13854e-06
-1.11969e-05 -1.13854e-06 0.000640327
0.000868699 0.000228464 -3.84375e-06
0.000228464 0.000136676 1.30103e-06
-3.84375e-06 1.30103e-06 -7.8669e-05
0.00115232 0.000475928 4.35792e-06
0.000475928 0.000137202 2.19636e-06
4.35792e-06 2.19636e-06 -0.000155557
0.00114918 0.000460122 1.81052e-05
0.000460122 4.3993e-06 1.5085e-05
1.81052e-05 1.5085e-05 -3.66285e-05
0.00930068 0.000664949 -6.33101e-05
0.000664949 0.00138262 -3.10724e-05
-6.33101e-05 -3.10724e-05 -0.000453463
0.00616968 0.0014789 -6.21749e-05
0.0014789 0.00147208 -2.69805e-05
-6.21749e-05 -2.69805e-05 0.00072889
0.0109752 -0.0018705 0.000147932
-0.0018705 0.00488895 -5.10436e-05
0.000147932 -5.10436e-05 0.00458878
0.00551344 -0.0015611 0.00015547
-0.0015611 -0.00106555 0.000336457
0.00015547 0.000336457 -0.000142805
0.00159778 0.000185067 -1.64418e-05
0.000185067 0.00067009 -8.42892e-06
-1.64418e-05 -8.42892e-06 0.000535206
-0.00619308 0.000364079 -9.46544e-05
0.000364079 0.00118249 -5.46815e-05
-9.46544e-05 -5.46815e-05 -0.00182462
0.0033234 0.000345522 -0.00017607
0.000345522 0.00191221 -0.000239544
-0.00017607 -0.000239544 -0.00104292
0.00168361 0.00045987 -1.79068e-05
0.00045987 0.000271571 6.43901e-06
-1.79068e-05 6.43901e-06 0.000267146
0.0012537 0.000425073 -4.88461e-05
0.000425073 0.000429726 -1.7282e-05
-4.88461e-05 -1.7282e-05 0.000179421
0.00228593 0.000405111 -6.09594e-05
0.000405111 0.00123937 -5.81167e-06
-6.09594e-05 -5.81167e-06 0.000825338
0.00185349 0.00101335 -4.02332e-05
0.00101335 9.98281e-05 -1.63084e-05
-4.02332e-05 -1.63084e-05 -0.000164837
0.000951294 0.000870283 0.000165423
0.000870283 -0.000281728 0.000117307
0.000165423 0.000117307 -0.0030219
0.0103318 -0.00218616 9.82335e-05
-0.00218616 0.00360978 0.000295473
9.82335e-05 0.000295473 0.00293354
0.00479353 -0.000935423 -5.42714e-05
-0.000935423 -0.00201039 -5.47393e-05
-5.42714e-05 -5.47393e-05 -0.000817601
0.000756195 0.00011051 3.84884e-06
0.00011051 0.000170859 2.12358e-06
3.84884e-06 2.12358e-06 5.82192e-05
0.00126584 0.000142764 5.93957e-06
0.000142764 0.000458582 2.88971e-06
5.93957e-06 2.88971e-06 0.000354664
5.60619e-05 5.37948e-05 1.94696e-06
5.37948e-05 -0.000181768 -6.29361e-06
1.94696e-06 -6.29361e-06 -0.00029133
0.000450815 4.51984e-05 1.36633e-06
4.51984e-05 -4.91277e-05 -1.63916e-07
1.36633e-06 -1.63916e-07 -0.00014671
0.000762246 5.29668e-05 -6.54025e-07
5.29668e-05 0.000153726 -1.05174e-06
-6.54025e-07 -1.05174e-06 2.59415e-05
0.000737392 -5.7219e-06 -5.40423e-07
-5.7219e-06 0.000114778 1.45604e-06
-5.40423e-07 1.45604e-06 -1.82592e-06
0.000761476 3.19959e-06 2.59831e-06
3.19959e-06 0.00013892 1.06339e-06
2.59831e-06 1.06339e-06 2.26944e-05
0.000471746 4.24331e-05 8.53911e-07
4.24331e-05 -2.92844e-05 2.39149e-06
8.53911e-07 2.39149e-06 -0.000127538
0.000765322 4.43762e-05 -1.09477e-08
4.43762e-05 0.000155073 -8.2677e-07
-1.09477e-08 -8.2677e-07 2.49973e-05
0.000863965 4.67608e-05 -1.16741e-08
4.67608e-05 0.00018859 1.68949e-07
-1.16741e-08 1.68949e-07 8.37248e-05
0.000783487 -3.55383e-05 -5.89672e-07
-3.55383e-05 0.000145845 6.3781e-07
-5.89672e-07 6.3781e-07 2.16764e-05
-5.83725e-05 3.27042e-05 4.10801e-08
3.27042e-05 -0.000289693 7.76615e-07
4.10801e-08 7.76615e-07 -0.000397259
-0.000652329 1.97576e-05 -6.92574e-07
1.97576e-05 -0.000485775 -1.88899e-06
-6.92574e-07 -1.88899e-06 -0.000643446
0.000843325 -2.89227e-06 -2.95798e-06
-2.89227e-06 0.00018501 -4.8304e-06
-2.95798e-06 -4.8304e-06 6.99325e-05
0.000941124 1.09586e-05 -5.57891e-07
1.09586e-05 0.000259966 -1.0362e-06
-5.57891e-07 -1.0362e-06 0.000110368
0.000807308 -5.76965e-05 -1.54468e-07
-5.76965e-05 0.000182378 -8.47316e-07
-1.54468e-07 -8.47316e-07 5.33277e-05
0.000857467 -3.55558e-05 -1.46262e-08
-3.55558e-05 0.000185725 1.46778e-06
-1.46262e-08 1.46778e-06 8.29285e-05
0.000830961 -5.32262e-05 2.16558e-07
-5.32262e-05 0.000187813 -6.46155e-07
2.16558e-07 -6.46155e-07 5.92557e-05
0.00075646 3.25216e-06 -3.42957e-07
3.25216e-06 0.000132621 -9.64614e-08
-3.42957e-07 -9.64614e-08 2.78918e-05
0.000392191 -4.76971e-05 4.80699e-07
-4.76971e-05 -8.20978e-05 1.35333e-06
4.80699e-07 1.35333e-06 -0.000174893
0.000618291 1.03051e-05 1.0732e-06
1.03051e-05 5.28447e-05 6.59128e-07
1.0732e-06 6.59128e-07 -4.92335e-05
0.000369607 -1.49444e-05 -2.23585e-06
-1.49444e-05 -7.15045e-05 -3.72425e-06
-2.23585e-06 -3.72425e-06 -0.00018998
0.000325264 -3.94308e-05 2.07559e-06
-3.94308e-05 -0.000118376 -9.47698e-07
2.07559e-06 -9.47698e-07 -0.000207824
0.000760719 -3.37221e-05 3.99679e-06
-3.37221e-05 9.70775e-05 -5.62888e-06
3.99679e-06 -5.62888e-06 3.63317e-07
3.66957e-05 -4.74111e-05 3.66252e-07
-4.74111e-05 -0.000299953 1.36896e-06
3.66252e-07 1.36896e-06 -0.000451149
0.00035247 8.10674e-06 -6.77108e-07
8.10674e-06 -9.95457e-05 -8.11466e-07
-6.77108e-07 -8.11466e-07 -0.000210949
0.000722301 -6.59397e-06 2.41852e-07
-6.59397e-06 0.000106688 3.11073e-07
2.41852e-07 3.11073e-07 3.58082e-07
0.000640692 -1.18882e-05 1.5921e-07
-1.18882e-05 5.96399e-05 5.45924e-07
1.5921e-07 5.45924e-07 -3.58435e-05
0.000718373 -2.8898e-05 -1.69786e-07
-2.8898e-05 0.000117998 -7.1257e-08
-1.69786e-07 -7.1257e-08 1.35203e-05
0.000573005 9.91851e-07 -5.95777e-07
9.91851e-07 1.59832e-05 9.18004e-07
-5.95777e-07 9.18004e-07 -6.55403e-05
0.000764988 -2.53519e-05 1.05085e-07
-2.53519e-05 0.000145375 -8.24796e-08
1.05085e-07 -8.24796e-08 3.83682e-05
0.00066838 -4.59625e-05 -4.70915e-07
-4.59625e-05 7.28936e-05 1.06986e-07
-4.70915e-07 1.06986e-07 -1.20157e-05
0.000567685 3.80869e-05 -8.80448e-07
3.80869e-05 -9.85629e-06 2.41208e-06
-8.80448e-07 2.41208e-06 -6.44722e-05
0.000546075 -6.98249e-05 1.75987e-06
-6.98249e-05 -4.02002e-06 -1.08462e-06
1.75987e-06 -1.08462e-06 -9.26447e-05
0.000600187 -3.8556e-06 -2.70894e-07
-3.8556e-06 1.03085e-05 -6.06802e-09
-2.70894e-07 -6.06802e-09 -4.27129e-05
0.00138126 2.19494e-05 -4.79178e-06
2.19494e-05 0.000455743 5.57559e-06
-4.79178e-06 5.57559e-06 0.000443077
0.000587555 -2.45613e-05 9.89641e-07
-2.45613e-05 9.94252e-06 -2.1574e-06
9.89641e-07 -2.1574e-06 -4.47652e-05
0.000948452 1.04871e-05 -2.74796e-06
1.04871e-05 0.000198014 7.47637e-07
-2.74796e-06 7.47637e-07 0.000183948
0.000763945 1.46772e-05 -7.1222e-08
1.46772e-05 8.50028e-05 2.01887e-06
-7.1222e-08 2.01887e-06 9.2516e-05
0.000544904 2.01315e-06 7.16284e-07
2.01315e-06 -4.25152e-05 -3.78075e-06
7.16284e-07 -3.78075e-06 -5.85063e-05
0.00237988 1.36443e-05 4.29516e-06
1.36443e-05 0.00105143 5.46102e-08
4.29516e-06 5.46102e-08 0.00106676
0.00237534 1.90546e-06 -5.4405e-07
1.90546e-06 0.00104854 -5.25312e-06
-5.4405e-07 -5.25312e-06 0.00106398
0.000994029 7.19841e-05 -9.82908e-07
7.19841e-05 0.000277205 -6.59607e-07
-9.82908e-07 -6.59607e-07 0.000195913
0.00060042 3.65967e-05 -1.14081e-06
3.65967e-05 1.51555e-05 -1.99601e-06
-1.14081e-06 -1.99601e-06 -2.68514e-05
0.000637823 -9.1227e-06 6.12543e-07
-9.1227e-06 6.99238e-05 8.8076e-07
6.12543e-07 8.8076e-07 -1.24826e-05
0.000591907 3.22356e-06 2.86124e-07
3.22356e-06 -2.1783e-05 -3.29971e-06
2.86124e-07 -3.29971e-06 -2.86522e-05
0.00059289 -1.256e-05 1.90758e-07
-1.256e-05 7.72961e-06 -2.5671e-08
1.90758e-07 -2.5671e-08 -3.16143e-05
0.000614404 -3.32957e-05 -1.51595e-06
-3.32957e-05 1.81585e-05 1.27818e-06
-1.51595e-06 1.27818e-06 -2.16544e-05
0.000574125 7.8927e-06 -2.20903e-07
7.8927e-06 -3.21312e-05 -2.03629e-08
-2.20903e-07 -2.03629e-08 -3.8924e-05
0.00201203 1.45823e-05 2.78993e-06
1.45823e-05 0.000831685 -4.62201e-06
2.78993e-06 -4.62201e-06 0.000850652
0.0011469 2.08946e-05 -7.05521e-07
2.08946e-05 0.00031108 1.8093e-06
-7.05521e-07 1.8093e-06 0.000307038
0.00139688 2.33105e-05 7.84853e-07
2.33105e-05 0.000465348 6.95307e-09
7.84853e-07 6.95307e-09 0.000480091
0.000862245 2.77097e-05 -1.26761e-05
2.77097e-05 0.000149987 7.02908e-06
-1.26761e-05 7.02908e-06 0.000159641
-0.00849484 0.000446176 0.000221196
0.000446176 -0.00369082 3.61374e-06
0.000221196 3.61374e-06 -0.00470127
-0.00204688 2.44792e-05 0.000288491
2.44792e-05 0.00222053 -7.18136e-06
0.000288491 -7.18136e-06 0.000494729
0.00451162 0.000232094 -0.000224859
0.000232094 0.000196321 -2.00074e-05
-0.000224859 -2.00074e-05 0.000633531
0.000459975 4.53779e-05 2.82418e-05
4.53779e-05 -0.00101527 -1.14847e-05
2.82418e-05 -1.14847e-05 -0.000953267
0.0015125 -3.051e-05 1.84641e-05
-3.051e-05 -0.000185123 -7.1149e-07
1.84641e-05 -7.1149e-07 -0.000201436
8.80521e-05 5.41154e-05 -1.41886e-05
5.41154e-05 -0.000799833 -7.61755e-06
-1.41886e-05 -7.61755e-06 -0.000712888
0.00263486 -0.000125487 -2.05064e-06
-0.000125487 0.000254085 4.26205e-06
-2.05064e-06 4.26205e-06 0.000218917
0.00938468 0.000115231 5.61398e-05
0.000115231 0.00133292 -3.33449e-05
5.61398e-05 -3.33449e-05 0.000299913
-0.00314877 0.00120576 -2.32831e-05
0.00120576 -0.00073842 -1.61579e-05
-2.32831e-05 -1.61579e-05 -0.00209659
-0.000673696 0.0023348 -0.000147408
0.0023348 0.000670847 7.79959e-05
-0.000147408 7.79959e-05 0.00159949
0.00191614 -0.000264372 6.60598e-05
-0.000264372 -0.000692402 -4.68881e-06
6.60598e-05 -4.68881e-06 -0.000712368
0.0126483 -0.000465537 0.00010504
-0.000465537 0.00332126 -3.24156e-05
0.00010504 -3.24156e-05 0.00179966
0.00382809 0.00225601 0.000145907
0.00225601 0.000435354 -0.000281295
0.000145907 -0.000281295 0.000731092
0.00732109 0.00165534 -0.000220891
0.00165534 0.001156 0.000135958
-0.000220891 0.000135958 0.00104812
0.00070864 8.89255e-05 -2.12576e-06
8.89255e-05 0.000139444 1.457e-06
-2.12576e-06 1.457e-06 1.01057e-05
0.000493318 1.62846e-05 -1.49072e-07
1.62846e-05 -1.50457e-05 -7.44247e-07
-1.49072e-07 -7.44247e-07 -0.000106194
0.000670892 -8.8253e-05 -1.02173e-06
-8.8253e-05 9.08444e-05 9.38708e-07
-1.02173e-06 9.38708e-07 8.80971e-06
0.000557351 -6.95039e-06 6.71011e-07
-6.95039e-06 2.69432e-05 -4.45724e-07
6.71011e-07 -4.45724e-07 -7.08071e-05
0.000629097 5.81673e-05 9.52268e-07
5.81673e-05 9.02362e-05 1.38922e-06
9.52268e-07 1.38922e-06 -2.1583e-05
0.000835709 6.23452e-05 1.50048e-07
6.23452e-05 0.000215988 2.49194e-06
1.50048e-07 2.49194e-06 8.42533e-05
0.000750312 8.88744e-05 1.55203e-06
8.88744e-05 0.000148909 1.91333e-06
1.55203e-06 1.91333e-06 3.28689e-05
0.000629106 1.8467e-05 3.05854e-06
1.8467e-05 6.17002e-05 2.24643e-07
3.05854e-06 2.24643e-07 -5.28121e-05
0.000707427 -2.48184e-05 1.29169e-06
-2.48184e-05 0.00012758 -9.32318e-07
1.29169e-06 -9.32318e-07 1.69299e-05
0.000523078 -8.63841e-06 -4.03738e-07
-8.63841e-06 -1.43399e-06 -3.83528e-07
-4.03738e-07 -3.83528e-07 -9.32401e-05
0.00162594 -0.000214765 2.02165e-05
-0.000214765 -0.000175971 -9.9033e-07
2.02165e-05 -9.9033e-07 -0.000102983
0.00138994 -0.000383236 2.49905e-05
-0.000383236 -0.00033032 -3.11751e-06
2.49905e-05 -3.11751e-06 -0.000327565
9.79494e-05 -0.000433028 1.49029e-05
-0.000433028 -0.000814022 3.78626e-06
1.49029e-05 3.78626e-06 -0.000960183
0.00019743 -0.000365119 6.34079e-06
-0.000365119 -0.000384744 -2.11177e-06
6.34079e-06 -2.11177e-06 -0.000622869
0.00246696 -0.000320585 2.89976e-06
-0.000320585 0.00128411 6.42832e-06
2.89976e-06 6.42832e-06 0.00090726
0.000990422 -0.000197863 2.85839e-06
-0.000197863 0.0003618 -1.44029e-06
2.85839e-06 -1.44029e-06 0.000129459
0.000998595 -9.48909e-05 -1.20477e-07
-9.48909e-05 0.000272904 -3.39971e-07
-1.20477e-07 -3.39971e-07 0.000162637
0.000707011 1.40113e-05 -1.5998e-06
1.40113e-05 0.00013192 1.63692e-06
-1.5998e-06 1.63692e-06 1.37068e-05
0.00200113 -0.000280725 6.45949e-06
-0.000280725 -4.74928e-07 -3.29623e-06
6.45949e-06 -3.29623e-06 4.66396e-05
0.000681757 -6.58393e-05 -2.49054e-07
-6.58393e-05 0.000126877 -2.70164e-07
-2.49054e-07 -2.70164e-07 -2.19016e-05
0.000298801 -9.02575e-05 7.3547e-07
-9.02575e-05 -5.92136e-05 -1.82634e-06
7.3547e-07 -1.82634e-06 -0.000227598
0.00213169 -0.000526714 7.10137e-06
-0.000526714 0.000195035 -7.12163e-07
7.10137e-06 -7.12163e-07 0.000159977
0.00139634 -0.000598233 6.85432e-07
-0.000598233 -5.18902e-05 3.80853e-06
6.85432e-07 3.80853e-06 -0.000224667
0.00047985 -0.000344396 8.33845e-06
-0.000344396 -0.000106496 -5.00972e-06
8.33845e-06 -5.00972e-06 -0.000349025
0.00147931 -0.000173708 -6.72259e-07
-0.000173708 0.000759664 -4.29864e-06
-6.72259e-07 -4.29864e-06 0.000423142
0.00214201 -0.000446134 -3.15071e-05
-0.000446134 0.000463931 4.83916e-06
-3.15071e-05 4.83916e-06 0.000184666
0.00160201 -0.000477056 -4.25877e-05
-0.000477056 0.00018978 7.15725e-06
-4.25877e-05 7.15725e-06 0.000101676
0.000209313 -0.000240891 -2.66873e-05
-0.000240891 -8.78674e-05 3.83703e-05
-2.66873e-05 3.83703e-05 -0.000368332
-0.000450292 -1.72413e-05 -2.07718e-07
-1.72413e-05 -0.000525805 2.32563e-06
-2.07718e-07 2.32563e-06 -0.000677841
0.000307074 -0.000114242 2.75492e-06
-0.000114242 -5.94063e-05 6.87178e-07
2.75492e-06 6.87178e-07 -0.000232255
0.000744491 -9.7034e-05 4.16564e-06
-9.7034e-05 0.000277346 -2.06497e-06
4.16564e-06 -2.06497e-06 2.54496e-05
-5.26637e-05 0.000310936 -0.000171843
0.000310936 0.00401866 6.5952e-06
-0.000171843 6.5952e-06 0.00205204
0.00166588 -0.000466957 1.51504e-05
-0.000466957 0.00139737 2.48626e-05
1.51504e-05 2.48626e-05 0.00135786
0.00104893 0.000757063 -6.31956e-05
0.000757063 -0.00320593 6.47966e-06
-6.31956e-05 6.47966e-06 -0.00366207
0.000636417 0.000162637 6.16278e-06
0.000162637 0.000113102 1.78333e-06
6.16278e-06 1.78333e-06 -3.25402e-05
0.00101968 0.000291716 6.79421e-06
0.000291716 0.000249426 1.01765e-05
6.79421e-06 1.01765e-05 1.38089e-05
0.00290742 0.00045383 2.91229e-05
0.00045383 0.000681796 1.15044e-05
2.91229e-05 1.15044e-05 0.000700414
0.00224852 0.000535267 1.85127e-05
0.000535267 0.00072974 1.34468e-05
1.85127e-05 1.34468e-05 0.000435136
0.00742349 -0.000932636 7.76502e-05
-0.000932636 0.00270151 4.15719e-05
7.76502e-05 4.15719e-05 0.00290057
0.00285589 0.000113521 -0.000163528
0.000113521 -0.00199366 -9.31329e-06
-0.000163528 -9.31329e-06 -0.00375369
0.00288399 0.00132892 -6.65158e-05
0.00132892 -0.000407373 -1.14441e-05
-6.65158e-05 -1.14441e-05 -0.00106436
0.000495013 0.00029462 2.57311e-05
0.00029462 -0.000132537 -2.4131e-05
2.57311e-05 -2.4131e-05 -0.000124677
-0.00330306 -0.00107957 -0.000123011
-0.00107957 -0.000788063 -0.000147952
-0.000123011 -0.000147952 -0.00136723
-0.000872305 -0.000970506 -0.000112441
-0.000970506 0.00158733 -1.47922e-05
-0.000112441 -1.47922e-05 -0.000788016
0.0100564 -0.00201784 0.000240342
-0.00201784 0.00135448 0.000180653
0.000240342 0.000180653 0.00233146
0.000623292 0.000131273 7.27518e-06
0.000131273 0.000125028 -2.28426e-06
7.27518e-06 -2.28426e-06 -1.54638e-05
-0.0022753 0.000104483 -8.95719e-05
0.000104483 0.00227014 -2.4861e-05
-8.95719e-05 -2.4861e-05 -0.000269687
0.00368524 0.000395257 -2.08565e-05
0.000395257 0.00188793 -8.27866e-05
-2.08565e-05 -8.27866e-05 -0.00117718
0.00135846 0.000431161 -4.13183e-06
0.000431161 0.000143724 4.96238e-06
-4.13183e-06 4.96238e-06 0.000103121
0.000540078 0.000295695 2.48878e-06
0.000295695 8.01572e-05 2.18638e-06
2.48878e-06 2.18638e-06 -0.00017002
-0.000516377 0.000296341 1.59245e-05
0.000296341 -0.000314321 -3.96093e-05
1.59245e-05 -3.96093e-05 -0.000616111
0.00527071 0.00156663 -8.06591e-06
0.00156663 0.00182485 7.23382e-06
-8.06591e-06 7.23382e-06 0.00122485
0.0120828 0.000999997 6.1941e-05
0.000999997 0.00413842 2.24275e-05
6.1941e-05 2.24275e-05 0.00210951
0.00435763 -0.00142891 2.73233e-05
-0.00142891 -0.000169471 -4.77154e-05
2.73233e-05 -4.77154e-05 -0.000886233
0.00967852 -0.00127588 6.23265e-06
-0.00127588 0.00126892 -3.61394e-05
6.23265e-06 -3.61394e-05 0.00245972
0.000659322 0.000197085 -8.81312e-06
0.000197085 0.00019834 -1.07667e-05
-8.81312e-06 -1.07667e-05 5.98237e-05
0.00288572 8.8284e-05 -0.00012518
8.8284e-05 0.00111529 -2.98963e-05
-0.00012518 -2.98963e-05 -0.00079783
3.19946e-05 0.00011009 -3.41142e-05
0.00011009 6.70543e-05 -9.81512e-05
-3.41142e-05 -9.81512e-05 -0.0014982
-0.000894889 8.74707e-05 -1.0951e-05
8.74707e-05 -0.000409713 -1.77797e-05
-1.0951e-05 -1.77797e-05 -0.000574275
0.00144648 0.000376863 -4.41343e-05
0.000376863 0.000943123 4.20991e-05
-4.41343e-05 4.20991e-05 0.000226877
0.00972107 0.00142557 4.48697e-05
0.00142557 0.0038406 2.41891e-06
4.48697e-05 2.41891e-06 0.000728589
-0.00678964 -0.00208199 -4.08377e-05
-0.00208199 -0.00353867 0.000130408
-4.08377e-05 0.000130408 -0.00580852
0.00790002 0.000440007 2.09859e-05
0.000440007 -0.000983594 -0.000187258
2.09859e-05 -0.000187258 0.00104522
0.000972031 0.000111541 1.92893e-06
0.000111541 0.00026866 6.67928e-06
1.92893e-06 6.67928e-06 0.000173439
0.00101997 0.000133123 -5.80079e-06
0.000133123 0.000385688 -1.40829e-06
-5.80079e-06 -1.40829e-06 0.00026672
0.000299009 8.0966e-05 -1.72466e-06
8.0966e-05 0.000135666 -5.54257e-06
-1.72466e-06 -5.54257e-06 -5.61117e-05
0.000755764 7.90489e-05 -2.54538e-06
7.90489e-05 0.000139083 -9.56786e-07
-2.54538e-06 -9.56786e-07 1.66045e-05
0.000862337 -2.76564e-05 -9.52418e-07
-2.76564e-05 0.000202657 1.57564e-06
-9.52418e-07 1.57564e-06 7.11789e-05
0.000553159 3.82559e-05 1.14305e-06
3.82559e-05 3.28304e-06 2.44677e-06
1.14305e-06 2.44677e-06 -0.00010259
3.92671e-05 3.32087e-05 2.14009e-06
3.32087e-05 -0.000216795 3.64263e-06
2.14009e-06 3.64263e-06 -0.000324472
0.000816819 -4.75571e-06 1.10003e-06
-4.75571e-06 0.000168434 1.46945e-07
1.10003e-06 1.46945e-07 3.31326e-05
0.000841673 2.64345e-05 1.75351e-07
2.64345e-05 0.000188098 -1.02863e-06
1.75351e-07 -1.02863e-06 7.0729e-05
0.000285809 -7.90558e-06 1.40352e-06
-7.90558e-06 6.3459e-05 1.59904e-06
1.40352e-06 1.59904e-06 -0.000100898
-0.00087113 4.52737e-06 -2.06042e-06
4.52737e-06 -0.000380083 5.59418e-07
-2.06042e-06 5.59418e-07 -0.000625891
0.000960761 -3.20544e-06 -2.4982e-06
-3.20544e-06 0.000398157 -7.1282e-06
-2.4982e-06 -7.1282e-06 0.000253667
0.000947544 4.1663e-05 -1.73012e-06
4.1663e-05 0.000256743 -4.01657e-06
-1.73012e-06 -4.01657e-06 0.00012067
0.000886266 -0.000110512 1.55689e-06
-0.000110512 0.000208031 7.50843e-07
1.55689e-06 7.50843e-07 8.60892e-05
0.000747542 3.95187e-06 -4.77865e-07
3.95187e-06 0.000123083 -7.93097e-08
-4.77865e-07 -7.93097e-08 2.0254e-05
0.000629696 -5.74281e-05 -1.53316e-06
-5.74281e-05 6.13814e-05 3.35846e-06
-1.53316e-06 3.35846e-06 -2.99746e-05
0.000482541 -3.31512e-05 1.89598e-06
-3.31512e-05 -1.62792e-05 1.47951e-06
1.89598e-06 1.47951e-06 -0.000126452
0.000710884 5.53407e-06 3.38506e-07
5.53407e-06 0.00010744 -5.66926e-08
3.38506e-07 -5.66926e-08 3.56897e-06
0.000595634 -2.75485e-05 -7.19977e-07
-2.75485e-05 3.93321e-05 -3.21729e-08
-7.19977e-07 -3.21729e-08 -4.88167e-05
0.000978891 -2.47828e-05 -3.26445e-07
-2.47828e-05 0.000244769 -3.15255e-06
-3.26445e-07 -3.15255e-06 0.000151082
5.72978e-05 -3.94199e-05 3.54468e-06
-3.94199e-05 -0.000211462 -4.43244e-06
3.54468e-06 -4.43244e-06 -0.000292407
0.000305721 -9.91135e-05 1.39953e-06
-9.91135e-05 -0.000222329 -7.18027e-07
1.39953e-06 -7.18027e-07 -0.000318132
0.000806637 -6.27122e-05 -2.75538e-06
-6.27122e-05 0.000130318 -3.85052e-07
-2.75538e-06 -3.85052e-07 2.8777e-05
0.00052544 -0.000103463 5.15148e-06
-0.000103463 -2.49473e-05 3.37604e-06
5.15148e-06 3.37604e-06 -0.000168378
0.00119765 -0.000246383 -2.06055e-06
-0.000246383 0.000326809 7.95537e-06
-2.06055e-06 7.95537e-06 0.000102795
0.00133082 -0.00012283 1.40816e-06
-0.00012283 0.000486092 -1.0893e-06
1.40816e-06 -1.0893e-06 0.000346305
0.000293658 -7.75522e-05 -1.99176e-06
-7.75522e-05 -0.0001342 -4.84969e-06
-1.99176e-06 -4.84969e-06 -0.000286472
0.000654487 -1.00462e-05 -2.71361e-07
-1.00462e-05 6.87182e-05 -3.06122e-08
-2.71361e-07 -3.06122e-08 -4.10378e-05
0.000364256 -1.57708e-06 2.37486e-07
-1.57708e-06 -9.10111e-05 -3.00718e-08
2.37486e-07 -3.00718e-08 -0.000195718
0.000853661 -1.95994e-05 -7.50463e-07
-1.95994e-05 0.000182651 9.82896e-07
-7.50463e-07 9.82896e-07 7.39642e-05
0.000734278 -3.93014e-05 -5.62948e-07
-3.93014e-05 0.000125218 6.6051e-07
-5.62948e-07 6.6051e-07 1.98236e-05
0.000611166 -2.04016e-05 -5.63221e-07
-2.04016e-05 3.41073e-05 9.6568e-07
-5.63221e-07 9.6568e-07 -4.64603e-05
0.000838589 -5.80417e-05 -2.26475e-07
-5.80417e-05 0.000201656 -7.18834e-07
-2.26475e-07 -7.18834e-07 8.59081e-05
0.000675787 -5.28049e-05 -5.91285e-07
-5.28049e-05 7.79e-05 -3.91829e-08
-5.91285e-07 -3.91829e-08 -6.20333e-06
0.000587155 2.94139e-05 -1.98329e-06
2.94139e-05 6.15964e-07 1.90186e-06
-1.98329e-06 1.90186e-06 -5.42295e-05
0.000709587 -8.40466e-05 1.8807e-06
-8.40466e-05 0.000100486 -1.22868e-06
1.8807e-06 -1.22868e-06 1.26673e-05
0.000641466 -1.27655e-05 -2.59522e-07
-1.27655e-05 3.02427e-05 4.10813e-08
-2.59522e-07 4.10813e-08 -2.24406e-05
0.00137428 3.18645e-05 -7.47259e-06
3.18645e-05 0.000451428 5.57397e-06
-7.47259e-06 5.57397e-06 0.000438221
0.000613549 -3.16498e-05 1.98466e-06
-3.16498e-05 2.06112e-05 -2.23609e-06
1.98466e-06 -2.23609e-06 -3.40044e-05
0.000954801 1.91382e-05 -3.67356e-06
1.91382e-05 0.00020075 7.11263e-07
-3.67356e-06 7.11263e-07 0.000186226
0.000773886 2.33691e-05 -3.49035e-07
2.33691e-05 9.36462e-05 2.12736e-06
-3.49035e-07 2.12736e-06 9.9854e-05
0.000542939 7.53672e-06 4.86219e-07
7.53672e-06 -4.52507e-05 -3.908e-06
4.86219e-07 -3.908e-06 -6.11719e-05
0.00156125 2.31126e-05 5.79178e-06
2.31126e-05 0.000562568 -1.492e-06
5.79178e-06 -1.492e-06 0.000573779
0.00235958 1.60951e-05 4.31282e-06
1.60951e-05 0.00103943 -5.15368e-06
4.31282e-06 -5.15368e-06 0.00105479
0.000694964 1.05495e-05 1.41139e-06
1.05495e-05 9.01644e-05 -1.39617e-06
1.41139e-06 -1.39617e-06 5.47642e-06
0.000644864 3.22111e-05 -6.40693e-07
3.22111e-05 3.87963e-05 -1.87584e-06
-6.40693e-07 -1.87584e-06 -5.09421e-06
0.000693858 -3.24849e-06 1.18113e-06
-3.24849e-06 9.65735e-05 3.29046e-07
1.18113e-06 3.29046e-07 1.57173e-05
0.000579691 -2.30248e-06 4.30045e-07
-2.30248e-06 -2.82008e-05 -3.48419e-06
4.30045e-07 -3.48419e-06 -3.59606e-05
0.00059285 2.51044e-05 7.67071e-08
2.51044e-05 8.90668e-06 -2.87515e-08
7.67071e-08 -2.87515e-08 -3.2039e-05
0.000652819 -9.0686e-05 -3.53726e-06
-9.0686e-05 7.30333e-05 1.42709e-06
-3.53726e-06 1.42709e-06 -5.09771e-06
0.0020271 1.91174e-06 -1.97229e-06
1.91174e-06 0.000839333 -4.73645e-06
-1.97229e-06 -4.73645e-06 0.000858589
0.000574304 2.79243e-06 -1.82742e-07
2.79243e-06 -3.18641e-05 -5.95795e-09
-1.82742e-07 -5.95795e-09 -3.87169e-05
0.000590233 -2.05266e-05 -1.55698e-06
-2.05266e-05 4.85807e-06 1.62048e-06
-1.55698e-06 1.62048e-06 -3.37419e-05
0.000556794 7.60496e-06 -5.85005e-07
7.60496e-06 -4.24508e-05 3.16821e-06
-5.85005e-07 3.16821e-06 -4.92021e-05
0.00203385 1.60627e-05 -3.9155e-06
1.60627e-05 0.000844904 -4.84003e-08
-3.9155e-06 -4.84003e-08 0.000863734
0.00202077 2.81753e-05 -9.42075e-06
2.81753e-05 0.000839354 4.33485e-06
-9.42075e-06 4.33485e-06 0.000857561
-0.00455941 -0.000442038 -5.60817e-05
-0.000442038 0.00176237 2.12344e-05
-5.60817e-05 2.12344e-05 -0.000649378
-0.000544363 0.000545686 -8.98375e-05
0.000545686 -0.000373608 2.16277e-05
-8.98375e-05 2.16277e-05 -0.00100575
0.00357517 -0.000429807 -0.000277555
-0.000429807 0.00115667 0.000176519
-0.000277555 0.000176519 -0.00153942
-0.0030417 8.69928e-05 0.000397175
8.69928e-05 0.00225055 -0.000169455
0.000397175 -0.000169455 0.000507031
0.000301621 0.000280617 -2.0384e-05
0.000280617 -0.00129088 3.30871e-06
-2.0384e-05 3.30871e-06 -0.0012305
0.00248704 -0.000179877 0.000100424
-0.000179877 9.1149e-05 -8.85862e-06
0.000100424 -8.85862e-06 8.67806e-05
0.000982752 -0.00040637 -4.9403e-06
-0.00040637 -0.00234676 -6.7975e-05
-4.9403e-06 -6.7975e-05 -0.00386137
0.011003 0.00118939 -0.000146738
0.00118939 0.00533773 -1.64675e-05
-0.000146738 -1.64675e-05 0.00457226
-0.00756149 0.00262223 -0.000686528
0.00262223 -0.00327241 0.00053106
-0.000686528 0.00053106 -0.00182185
0.00284856 -0.000132035 -2.58787e-06
-0.000132035 -0.000253225 -4.84968e-06
-2.58787e-06 -4.84968e-06 -0.00031094
0.00513584 -0.000530375 5.66607e-05
-0.000530375 -0.000229477 -6.16153e-05
5.66607e-05 -6.16153e-05 -0.00239045
0.0115766 0.00216129 -9.26924e-05
0.00216129 0.00355228 -8.45915e-05
-9.26924e-05 -8.45915e-05 0.00389886
0.00434264 0.00162727 -7.43231e-05
0.00162727 -0.000934891 0.000189213
-7.43231e-05 0.000189213 -0.000932564
0.0029692 -0.000738185 -7.23965e-05
-0.000738185 -0.000712784 1.91026e-05
-7.23965e-05 1.91026e-05 -0.000624625
0.00299081 -0.00106636 0.000209843
-0.00106636 9.40545e-05 -0.000135369
0.000209843 -0.000135369 -0.00328685
-0.00407543 0.00125226 -7.0721e-05
0.00125226 -0.00391648 -0.000352647
-7.0721e-05 -0.000352647 -0.0042882
0.00411795 0.000902434 -9.38108e-05
0.000902434 -0.00298164 5.58194e-06
-9.38108e-05 5.58194e-06 -0.00174433
0.00106973 -3.16003e-05 7.80985e-07
-3.16003e-05 0.000367317 4.30946e-06
7.80985e-07 4.30946e-06 0.000214161
0.000676317 7.6348e-05 -1.73817e-06
7.6348e-05 0.000112722 -1.29506e-06
-1.73817e-06 -1.29506e-06 -9.00375e-06
0.000635782 6.69429e-05 4.67152e-08
6.69429e-05 6.48361e-05 -1.45888e-06
4.67152e-08 -1.45888e-06 -2.22716e-05
0.000655626 6.26066e-05 3.52417e-06
6.26066e-05 0.00010956 6.65092e-07
3.52417e-06 6.65092e-07 -1.18833e-06
0.000630323 4.89941e-05 1.20719e-06
4.89941e-05 8.04562e-05 1.5706e-06
1.20719e-06 1.5706e-06 -6.70112e-05
0.000715332 6.37453e-05 -1.62009e-07
6.37453e-05 0.000140428 1.42287e-06
-1.62009e-07 1.42287e-06 1.42311e-05
0.000591921 2.94879e-05 2.65163e-07
2.94879e-05 5.64155e-05 -1.7278e-07
2.65163e-07 -1.7278e-07 -5.66983e-05
0.00087984 0.00012976 1.37671e-06
0.00012976 0.000234081 1.93411e-06
1.37671e-06 1.93411e-06 9.67629e-05
0.0008384 8.24619e-05 -9.73073e-08
8.24619e-05 0.000209727 3.58289e-07
-9.73073e-08 3.58289e-07 8.01634e-05
0.000508428 -8.66889e-06 -3.21564e-06
-8.66889e-06 8.0844e-06 -1.7421e-06
-3.21564e-06 -1.7421e-06 -0.000103287
0.00066956 -0.000216552 4.07225e-05
-0.000216552 -0.000689213 -1.83486e-05
4.07225e-05 -1.83486e-05 -0.000623417
0.000985471 -0.000466289 3.30631e-05
-0.000466289 -0.000412695 -4.44878e-06
3.30631e-05 -4.44878e-06 -0.000449055
0.00185408 -0.000646335 1.65181e-05
-0.000646335 0.00017371 2.97552e-06
1.65181e-05 2.97552e-06 -1.43143e-06
0.000338549 -0.000383229 7.24782e-06
-0.000383229 -0.000186113 -1.44554e-05
7.24782e-06 -1.44554e-05 -0.000463428
0.00200276 -0.000211016 -2.52159e-06
-0.000211016 0.00100403 1.4729e-05
-2.52159e-06 1.4729e-05 0.000704319
0.000614682 -9.82626e-05 -1.19518e-06
-9.82626e-05 0.000129319 2.24892e-06
-1.19518e-06 2.24892e-06 -4.53177e-05
0.000464148 7.59888e-05 -2.51757e-07
7.59888e-05 3.7698e-06 -3.32038e-06
-2.51757e-07 -3.32038e-06 -0.000147116
0.000671897 -6.02445e-05 -5.8617e-07
-6.02445e-05 0.000135218 3.2913e-06
-5.8617e-07 3.2913e-06 -3.32369e-05
0.00135347 -0.000355352 1.10429e-06
-0.000355352 -3.05076e-05 -1.33395e-06
1.10429e-06 -1.33395e-06 -0.000188134
0.000686352 -2.7137e-05 -3.63106e-09
-2.7137e-05 0.000149186 1.37692e-06
-3.63106e-09 1.37692e-06 -2.32365e-05
0.00149621 -0.000153452 -2.22547e-07
-0.000153452 0.000712193 -5.17389e-07
-2.22547e-07 -5.17389e-07 0.000452164
0.00158497 -0.000486185 1.85536e-06
-0.000486185 0.000138526 2.24375e-06
1.85536e-06 2.24375e-06 6.93951e-05
0.00083722 -0.000321991 -1.72137e-05
-0.000321991 0.00022627 4.8111e-06
-1.72137e-05 4.8111e-06 -5.2807e-05
0.00097982 -0.000588245 -8.89982e-06
-0.000588245 -0.00026932 -2.53641e-05
-8.89982e-06 -2.53641e-05 -0.000268473
0.00122084 -0.000285987 -1.90125e-05
-0.000285987 0.000456345 1.55597e-05
-1.90125e-05 1.55597e-05 0.000330819
-0.000971388 -3.71137e-05 3.76338e-06
-3.71137e-05 -0.000616557 2.04702e-05
3.76338e-06 2.04702e-05 -0.000914628
0.000719113 1.14377e-05 -6.69798e-07
1.14377e-05 0.000137073 -4.15159e-06
-6.69798e-07 -4.15159e-06 -1.61569e-05
0.000655341 4.12386e-05 2.90779e-06
4.12386e-05 0.000216284 -8.28064e-07
2.90779e-06 -8.28064e-07 -1.21699e-05
0.00175277 -5.10163e-05 -1.97116e-05
-5.10163e-05 0.00120874 -5.92152e-06
-1.97116e-05 -5.92152e-06 -0.000620307
-0.00283617 0.000118718 -0.000138179
0.000118718 0.00311631 -5.71385e-06
-0.000138179 -5.71385e-06 0.000723052
-0.00997961 -0.000677766 -0.000317314
-0.000677766 -0.00528247 1.78062e-06
-0.000317314 1.78062e-06 -0.00506545
-0.000258968 9.53196e-05 6.31429e-06
9.53196e-05 -0.000360007 -2.27334e-06
6.31429e-06 -2.27334e-06 -0.000513168
-0.000214453 0.00018607 2.1547e-06
0.00018607 -0.000305302 4.53593e-06
2.1547e-06 4.53593e-06 -0.000554106
0.0015066 0.000418604 2.13544e-05
0.000418604 0.000218562 7.92573e-06
2.13544e-05 7.92573e-06 0.000186352
-0.00406097 0.000539639 -1.72468e-05
0.000539639 0.00163837 1.7977e-05
-1.72468e-05 1.7977e-05 -0.000996444
0.0013084 0.000897385 -9.73058e-05
0.000897385 -0.000115706 -0.000100429
-9.73058e-05 -0.000100429 -0.00354703
0.00289912 0.00115159 0.000174617
0.00115159 0.000498085 4.32945e-05
0.000174617 4.32945e-05 7.30716e-05
0.000238572 0.000349538 8.14514e-06
0.000349538 -6.80143e-05 -2.86793e-05
8.14514e-06 -2.86793e-05 -0.000135803
0.0131791 -0.00156601 -7.41871e-06
-0.00156601 0.00381645 -0.000125527
-7.41871e-06 -0.000125527 0.00336976
0.00413516 0.000432583 0.000156503
0.000432583 0.00195288 7.73107e-05
0.000156503 7.73107e-05 -0.00121962
0.00984507 -0.00112656 6.52366e-05
-0.00112656 0.00150688 1.83312e-05
6.52366e-05 1.83312e-05 0.0027613
0.000843811 0.000207987 1.63177e-06
0.000207987 0.000356848 -2.2178e-06
1.63177e-06 -2.2178e-06 0.000209344
0.00346719 0.00010539 1.10209e-05
0.00010539 0.00161664 2.3644e-07
1.10209e-05 2.3644e-07 4.55444e-05
0.000579822 0.000130276 1.75054e-05
0.000130276 0.000106617 1.05405e-05
1.75054e-05 1.05405e-05 -0.00149731
-0.000300549 0.000217981 -6.85439e-06
0.000217981 -0.000163216 -1.68361e-06
-6.85439e-06 -1.68361e-06 -0.000369963
0.00210646 0.000629942 -7.85471e-05
0.000629942 0.00104726 -3.92727e-05
-7.85471e-05 -3.92727e-05 0.000170389
0.00287677 0.00178677 8.50598e-05
0.00178677 0.00101232 6.03788e-05
8.50598e-05 6.03788e-05 -0.00227435
0.00604972 0.000171762 -1.12344e-05
0.000171762 -0.00253059 -0.000120087
-1.12344e-05 -0.000120087 -0.000179265
0.00224335 -0.00129974 -3.57939e-05
-0.00129974 0.000601474 -4.99465e-05
-3.57939e-05 -4.99465e-05 -0.00124108
0.000936359 0.0001661 -5.82027e-06
0.0001661 0.000605554 -1.21582e-05
-5.82027e-06 -1.21582e-05 0.000434678
0.000281023 -5.57769e-05 -2.91203e-06
-5.57769e-05 2.25798e-05 -7.12081e-06
-2.91203e-06 -7.12081e-06 4.89797e-05
0.00278068 1.94059e-05 3.13859e-05
1.94059e-05 0.000251215 -8.82557e-05
3.13859e-05 -8.82557e-05 -0.000881331
0.00420313 0.000939009 9.82703e-05
0.000939009 -0.00282113 -1.12456e-05
9.82703e-05 -1.12456e-05 -0.00174508
-0.000718713 0.000117766 -2.67773e-06
0.000117766 1.73377e-05 -1.83177e-05
-2.67773e-06 -1.83177e-05 -0.000519029
0.0105779 0.00135729 0.000134014
0.00135729 0.0051714 4.94702e-05
0.000134014 4.94702e-05 0.00142691
-0.0087094 -0.000371951 7.30744e-05
-0.000371951 -0.00043265 0.000210468
7.30744e-05 0.000210468 -0.00251355
0.00216236 0.000234958 1.87429e-05
0.000234958 0.00106414 1.16453e-05
1.87429e-05 1.16453e-05 0.000927019
0.000622355 0.000127713 -4.3802e-06
0.000127713 0.000297772 -1.43596e-06
-4.3802e-06 -1.43596e-06 9.5165e-05
2.86903e-05 6.4734e-05 -1.46893e-06
6.4734e-05 0.000168535 -1.4254e-06
-1.46893e-06 -1.4254e-06 -6.17027e-05
0.000739929 0.000136268 5.27444e-07
0.000136268 0.000134463 1.13918e-06
5.27444e-07 1.13918e-06 -6.98642e-06
0.000719166 6.67064e-05 1.17093e-06
6.67064e-05 0.000111595 2.302e-06
1.17093e-06 2.302e-06 -1.66162e-06
0.000779312 2.6443e-07 7.15865e-06
2.6443e-07 0.000371347 6.91939e-06
7.15865e-06 6.91939e-06 0.000188208
0.000659195 4.53532e-05 -2.2723e-07
4.53532e-05 8.14216e-05 -3.01858e-07
-2.2723e-07 -3.01858e-07 -4.63424e-05
0.000808207 -1.91428e-05 -1.43595e-06
-1.91428e-05 0.000315883 -1.9786e-06
-1.43595e-06 -1.9786e-06 0.000167552
-0.000327599 3.00733e-05 3.53253e-06
3.00733e-05 -7.7094e-05 4.96315e-06
3.53253e-06 4.96315e-06 -0.000330797
0.000728372 5.31914e-06 -7.1092e-06
5.31914e-06 0.000429519 -6.47069e-06
-7.1092e-06 -6.47069e-06 0.000304217
0.000178074 -4.00309e-05 -3.85402e-06
-4.00309e-05 -6.17833e-05 -8.22011e-06
-3.85402e-06 -8.22011e-06 -0.000191564
0.000579787 -4.92264e-05 2.8446e-06
-4.92264e-05 2.86422e-05 3.90321e-06
2.8446e-06 3.90321e-06 -7.2219e-05
0.000791198 6.07368e-06 -9.16357e-07
6.07368e-06 0.000154574 5.81969e-08
-9.16357e-07 5.81969e-08 4.921e-05
0.000929986 -2.30962e-05 -6.71559e-06
-2.30962e-05 0.000233786 4.51426e-06
-6.71559e-06 4.51426e-06 0.000146339
0.000669504 -4.75904e-05 3.73844e-06
-4.75904e-05 0.000136058 -3.50612e-07
3.73844e-06 -3.50612e-07 5.36624e-05
0.000595323 -1.49193e-05 -8.12482e-07
-1.49193e-05 2.66968e-05 1.6715e-07
-8.12482e-07 1.6715e-07 -6.82454e-05
0.000771365 -9.17048e-05 3.27263e-06
-9.17048e-05 0.000158096 -3.70784e-07
3.27263e-06 -3.70784e-07 6.07986e-05
0.000394322 -8.7318e-05 -2.49191e-06
-8.7318e-05 -0.000135366 -1.09495e-06
-2.49191e-06 -1.09495e-06 -0.000217621
-0.000200879 -0.000158362 7.90493e-06
-0.000158362 -0.000460627 1.40236e-06
7.90493e-06 1.40236e-06 -0.000641406
0.000863096 -8.85101e-05 -8.25362e-07
-8.85101e-05 0.000170437 1.11301e-06
-8.25362e-07 1.11301e-06 6.33882e-05
0.00116243 -0.000169551 -6.78613e-07
-0.000169551 0.000336337 2.78043e-06
-6.78613e-07 2.78043e-06 0.000179259
0.000853943 -0.000246611 -4.10205e-06
-0.000246611 8.38627e-05 5.02763e-06
-4.10205e-06 5.02763e-06 -0.000142813
0.000966217 -0.000234033 -4.22735e-06
-0.000234033 0.000149612 5.24539e-07
-4.22735e-06 5.24539e-07 -7.42256e-05
0.00102809 -0.000189133 -2.17861e-06
-0.000189133 0.000321341 4.56836e-06
-2.17861e-06 4.56836e-06 0.000137686
0.000363821 -0.000160797 2.07547e-06
-0.000160797 -0.000158314 -6.69331e-08
2.07547e-06 -6.69331e-08 -0.000365596
0.000942472 -7.71081e-05 1.32059e-06
-7.71081e-05 0.000249535 -3.1814e-07
1.32059e-06 -3.1814e-07 0.000125026
0.00103881 -0.000114632 -1.52431e-06
-0.000114632 0.000323782 -3.71404e-07
-1.52431e-06 -3.71404e-07 0.000180136
0.000455436 -9.97766e-05 3.95415e-06
-9.97766e-05 -2.53723e-05 -1.06511e-05
3.95415e-06 -1.06511e-05 -0.000176607
0.000944265 -2.82267e-05 -4.98735e-07
-2.82267e-05 0.000230078 -2.12292e-07
-4.98735e-07 -2.12292e-07 0.000122042
0.000482606 -1.04656e-05 3.48973e-07
-1.04656e-05 -1.91384e-05 -1.26497e-07
3.48973e-07 -1.26497e-07 -0.000125971
0.000610018 -9.30029e-06 -3.06616e-07
-9.30029e-06 3.38848e-05 7.16121e-07
-3.06616e-07 7.16121e-07 -5.21028e-05
0.000798148 -5.61845e-05 -2.09934e-07
-5.61845e-05 0.000172913 2.16514e-07
-2.09934e-07 2.16514e-07 5.83414e-05
0.00067546 -3.506e-05 -1.04731e-07
-3.506e-05 8.00404e-05 5.34009e-08
-1.04731e-07 5.34009e-08 -7.20368e-06
0.000589489 2.92746e-05 -4.38074e-07
2.92746e-05 7.26294e-06 1.9661e-06
-4.38074e-07 1.9661e-06 -5.17077e-05
0.000735322 -6.84746e-05 5.62123e-07
-6.84746e-05 0.000120444 -1.27886e-06
5.62123e-07 -1.27886e-06 3.0489e-05
0.000613664 2.0687e-05 -9.93021e-07
2.0687e-05 1.6879e-05 -6.66306e-08
-9.93021e-07 -6.66306e-08 -3.875e-05
0.0013353 4.48437e-05 -8.48366e-06
4.48437e-05 0.000431368 3.71179e-06
-8.48366e-06 3.71179e-06 0.000417138
0.000648652 -2.4518e-05 2.28336e-06
-2.4518e-05 3.57286e-05 -2.24303e-06
2.28336e-06 -2.24303e-06 -1.78793e-05
0.000937496 2.86586e-05 -4.63034e-06
2.86586e-05 0.00019068 6.29936e-07
-4.63034e-06 6.29936e-07 0.000175599
0.000800228 3.2188e-05 -9.68644e-07
3.2188e-05 0.000112623 2.19477e-06
-9.68644e-07 2.19477e-06 0.000117581
0.000527243 1.47706e-05 7.97964e-07
1.47706e-05 -5.5982e-05 -4.14629e-06
7.97964e-07 -4.14629e-06 -7.21785e-05
0.00157277 3.47081e-05 7.8919e-06
3.47081e-05 0.000572038 -1.3523e-06
7.8919e-06 -1.3523e-06 0.000582099
0.00235769 3.0929e-05 7.90681e-06
3.0929e-05 0.0010399 -5.08284e-06
7.90681e-06 -5.08284e-06 0.00105462
0.000440403 5.97755e-06 9.61519e-07
5.97755e-06 -5.01316e-05 -5.32708e-07
9.61519e-07 -5.32708e-07 -0.000153921
0.000312517 4.57086e-06 3.51559e-09
4.57086e-06 -0.000158722 -3.26106e-06
3.51559e-09 -3.26106e-06 -0.000210725
0.000737052 2.08691e-05 1.96773e-08
2.08691e-05 0.000121073 1.21273e-07
1.96773e-08 1.21273e-07 3.18033e-05
0.00057472 -7.16961e-06 3.64869e-07
-7.16961e-06 -3.09488e-05 -3.65213e-06
3.64869e-07 -3.65213e-06 -4.0447e-05
0.000444603 2.982e-06 1.14193e-06
2.982e-06 -8.12831e-05 -7.20945e-08
1.14193e-06 -7.20945e-08 -0.000125777
0.000432901 -8.14339e-05 -1.45077e-06
-8.14339e-05 -5.74353e-05 8.05257e-07
-1.45077e-06 8.05257e-07 -0.000141082
0.00209139 -1.12471e-05 -6.35858e-06
-1.12471e-05 0.000877823 -4.78742e-06
-6.35858e-06 -4.78742e-06 0.000896513
0.000575031 -2.40285e-06 -1.03464e-07
-2.40285e-06 -3.11578e-05 -4.50584e-08
-1.03464e-07 -4.50584e-08 -3.88164e-05
0.000572778 -1.36762e-05 -1.66477e-06
-1.36762e-05 -4.56045e-06 1.85184e-06
-1.66477e-06 1.85184e-06 -4.44491e-05
0.00204003 3.29061e-06 -3.9107e-06
3.29061e-06 0.000847211 1.20042e-08
-3.9107e-06 1.20042e-08 0.000866399
0.000558213 2.52998e-06 -4.74027e-07
2.52998e-06 -4.10446e-05 3.28138e-06
-4.74027e-07 3.28138e-06 -4.7888e-05
0.00203007 1.74588e-05 -2.38732e-06
1.74588e-05 0.000842775 4.53022e-06
-2.38732e-06 4.53022e-06 0.000861555
0.000383544 -0.000199573 -0.000102945
-0.000199573 -0.000184765 3.04374e-05
-0.000102945 3.04374e-05 -0.00179574
0.00143136 0.000174457 -3.17665e-05
0.000174457 0.00369393 -6.92663e-06
-3.17665e-05 -6.92663e-06 0.00213096
0.00107357 -0.000341464 -0.000289559
-0.000341464 0.00210267 9.96403e-06
-0.000289559 9.96403e-06 0.00110277
0.00075986 8.31166e-05 1.99779e-06
8.31166e-05 0.000141984 5.61569e-07
1.99779e-06 5.61569e-07 9.11267e-06
0.00357685 -0.000274215 -2.92657e-05
-0.000274215 0.00234583 9.97585e-05
-2.92657e-05 9.97585e-05 0.000984765
0.00363153 -0.000484473 -0.000107793
-0.000484473 0.00126765 7.96108e-06
-0.000107793 7.96108e-06 -0.00165207
0.00263609 0.000758229 0.000200202
0.000758229 0.00352665 -0.000171696
0.000200202 -0.000171696 0.00225358
0.00400927 -0.00025759 3.04708e-05
-0.00025759 0.00020963 -3.47256e-05
3.04708e-05 -3.47256e-05 -6.92133e-05
0.0116894 -0.000502376 0.000123604
-0.000502376 0.00299315 -6.42431e-05
0.000123604 -6.42431e-05 0.00136666
-0.00170142 0.0017759 -0.000148496
0.0017759 -0.0035476 0.000163924
-0.000148496 0.000163924 -0.00298653
0.00577804 0.00175547 3.85583e-05
0.00175547 0.000299616 5.29723e-05
3.85583e-05 5.29723e-05 2.76209e-05
0.00495838 -0.000868931 -9.01587e-05
-0.000868931 0.000222865 -1.36531e-06
-9.01587e-05 -1.36531e-06 -0.000130983
0.0110304 -0.000944709 5.6763e-05
-0.000944709 0.00391845 -1.48262e-05
5.6763e-05 -1.48262e-05 0.00176181
0.00700331 0.0011575 7.43151e-05
0.0011575 0.00070521 -0.000134405
7.43151e-05 -0.000134405 0.000132246
0.00585141 0.000832303 -2.38131e-06
0.000832303 -0.00158809 1.24961e-05
-2.38131e-06 1.24961e-05 -0.000655903
0.00363853 -0.00131379 2.05169e-05
-0.00131379 0.000267285 3.24626e-06
2.05169e-05 3.24626e-06 -0.000498651
0.0115058 -0.00154055 0.000100814
-0.00154055 0.00538769 -5.31051e-05
0.000100814 -5.31051e-05 0.00166807
0.00383773 -0.000119854 7.43174e-05
-0.000119854 0.000602497 -0.000202589
7.43174e-05 -0.000202589 -1.85568e-05
0.00760516 0.000431991 -4.90137e-05
0.000431991 -0.000942192 0.000113719
-4.90137e-05 0.000113719 0.000961068
0.000688842 -2.16501e-05 1.42133e-06
-2.16501e-05 0.000127676 2.23669e-06
1.42133e-06 2.23669e-06 -2.91165e-05
0.000829058 -6.42875e-05 -2.26358e-07
-6.42875e-05 0.000228343 -5.27355e-08
-2.26358e-07 -5.27355e-08 7.09473e-05
0.000802738 9.91103e-05 -4.35622e-07
9.91103e-05 0.000192769 -2.46139e-06
-4.35622e-07 -2.46139e-06 6.85487e-05
0.000728668 4.93206e-05 9.10614e-07
4.93206e-05 0.000113565 2.78485e-06
9.10614e-07 2.78485e-06 -1.66356e-05
0.000804731 9.87149e-05 -4.81594e-07
9.87149e-05 0.00019334 7.25236e-07
-4.81594e-07 7.25236e-07 4.48063e-05
0.000889845 6.24048e-05 -1.82343e-06
6.24048e-05 0.00024301 -2.37105e-07
-1.82343e-06 -2.37105e-07 0.000118218
0.000993899 0.000121836 -9.5505e-07
0.000121836 0.000299555 -9.51114e-08
-9.5505e-07 -9.51114e-08 0.000162648
0.000975784 0.000129169 7.43291e-07
0.000129169 0.000302251 2.40218e-06
7.43291e-07 2.40218e-06 0.00016662
0.000386183 -0.000248742 5.28414e-05
-0.000248742 -0.000614667 -2.17004e-05
5.28414e-05 -2.17004e-05 -0.000624935
0.00187049 -0.000509949 1.13528e-05
-0.000509949 0.00025771 -1.08138e-05
1.13528e-05 -1.08138e-05 0.000201693
0.000911547 -0.000179519 -8.62684e-07
-0.000179519 0.00028515 -3.52088e-06
-8.62684e-07 -3.52088e-06 0.000106935
0.00183231 -0.000404663 1.78998e-05
-0.000404663 0.000759825 -2.30264e-05
1.78998e-05 -2.30264e-05 0.000482097
0.00227621 -0.00021446 -5.10261e-06
-0.00021446 0.00115493 4.89534e-06
-5.10261e-06 4.89534e-06 0.000890912
0.00102063 -7.89041e-05 -1.79286e-06
-7.89041e-05 0.000335 -5.48252e-06
-1.79286e-06 -5.48252e-06 0.000162223
0.000536062 -8.34824e-06 8.34854e-07
-8.34824e-06 3.80607e-05 2.69482e-06
8.34854e-07 2.69482e-06 -0.000118807
0.000229692 -0.000537072 -5.78273e-06
-0.000537072 -0.000686766 -8.16604e-07
-5.78273e-06 -8.16604e-07 -0.000653328
0.00127702 4.83769e-05 3.17324e-07
4.83769e-05 0.000576917 3.84287e-07
3.17324e-07 3.84287e-07 0.00034092
0.000917623 -0.00017674 -1.4834e-05
-0.00017674 0.000401607 3.35741e-06
-1.4834e-05 3.35741e-06 0.000128324
0.000556283 -0.000200366 1.18773e-05
-0.000200366 5.65422e-05 3.81093e-06
1.18773e-05 3.81093e-06 -1.91383e-05
0.000991167 6.61382e-05 2.01058e-06
6.61382e-05 0.000277526 -2.64258e-06
2.01058e-06 -2.64258e-06 0.000139194
0.00120123 -0.000460267 1.92564e-05
-0.000460267 -2.46367e-05 -3.65804e-05
1.92564e-05 -3.65804e-05 0.000125774
-0.000206516 -0.000110639 1.3165e-05
-0.000110639 -8.94913e-05 2.1955e-05
1.3165e-05 2.1955e-05 -0.000207308
-0.000291877 4.7789e-05 4.53816e-06
4.7789e-05 -9.903e-05 7.47438e-06
4.53816e-06 7.47438e-06 -0.000470937
0.00137783 0.000200108 2.24597e-06
0.000200108 0.000581317 -4.5356e-06
2.24597e-06 -4.5356e-06 0.000400634
0.000374106 -1.19588e-05 -1.86733e-06
-1.19588e-05 0.000724026 -9.27965e-06
-1.86733e-06 -9.27965e-06 8.31907e-05
0.00126219 -5.02457e-05 8.39005e-05
-5.02457e-05 0.000989349 -1.08353e-05
8.39005e-05 -1.08353e-05 -0.000862457
-0.00571591 -6.50322e-05 -0.000150627
-6.50322e-05 0.00229257 5.89304e-06
-0.000150627 5.89304e-06 -0.000600891
0.00108432 0.000214392 1.47353e-05
0.000214392 0.000556487 4.04928e-06
1.47353e-05 4.04928e-06 0.000400183
-0.00125231 0.000268307 6.32088e-06
0.000268307 -0.000705269 1.01513e-05
6.32088e-06 1.01513e-05 -0.00097829
0.00396871 9.68015e-05 9.50104e-05
9.68015e-05 0.00206472 3.77708e-06
9.50104e-05 3.77708e-06 0.000820486
0.00775441 0.000922762 0.000153204
0.000922762 0.00347648 8.18317e-05
0.000153204 8.18317e-05 -2.68435e-05
0.00332862 0.000908556 -0.000109394
0.000908556 0.00159853 -8.68376e-05
-0.000109394 -8.68376e-05 0.000518497
0.00464108 -0.000852016 -1.94305e-05
-0.000852016 0.0015466 -0.000220877
-1.94305e-05 -0.000220877 -5.30801e-05
0.000994595 0.000152834 5.37679e-05
0.000152834 0.000160199 0.000124082
5.37679e-05 0.000124082 -0.0014251
0.00436871 -4.5446e-05 -1.43685e-05
-4.5446e-05 -0.00414977 -0.00012154
-1.43685e-05 -0.00012154 -0.00137988
0.000684172 0.0001829 5.18196e-07
0.0001829 0.000463853 -2.08639e-06
5.18196e-07 -2.08639e-06 0.000274536
0.000245819 -5.35545e-05 1.01918e-06
-5.35545e-05 2.50933e-05 -1.3341e-06
1.01918e-06 -1.3341e-06 3.19212e-05
0.00284621 4.75266e-05 3.99129e-05
4.75266e-05 0.000403239 1.70782e-05
3.99129e-05 1.70782e-05 -0.000332004
-0.000944154 0.000164689 -8.2055e-06
0.000164689 -0.00033526 -5.48562e-06
-8.2055e-06 -5.48562e-06 -0.000768509
0.00604797 0.000919767 3.13237e-06
0.000919767 -0.00152337 -1.27134e-05
3.13237e-06 -1.27134e-05 -0.000649429
0.00489156 0.00102422 0.000122053
0.00102422 0.00308208 6.1293e-05
0.000122053 6.1293e-05 -0.000858226
0.00351267 0.000424302 -7.54166e-05
0.000424302 0.00242706 6.18983e-06
-7.54166e-05 6.18983e-06 0.00102785
0.00042608 0.000204701 -1.59988e-05
0.000204701 0.000344603 -1.57464e-05
-1.59988e-05 -1.57464e-05 7.77439e-05
0.00166973 7.04126e-05 1.04949e-05
7.04126e-05 -0.000229475 -1.47237e-05
1.04949e-05 -1.47237e-05 -2.8362e-05
0.00365539 -0.000226203 3.34376e-05
-0.000226203 0.00234939 -0.000101142
3.34376e-05 -0.000101142 0.00103671
0.00746125 0.00177132 0.000201721
0.00177132 0.000892732 -0.000134954
0.000201721 -0.000134954 0.00094966
0.00656683 -0.000142129 -9.10071e-05
-0.000142129 0.00154721 0.000198501
-9.10071e-05 0.000198501 0.00109469
0.000915944 0.000174901 -4.80753e-06
0.000174901 0.000142384 -6.89469e-05
-4.80753e-06 -6.89469e-05 2.20975e-06
-0.00065404 0.00107289 0.000124953
0.00107289 0.00273832 3.04654e-05
0.000124953 3.04654e-05 -0.00316046
0.00107603 0.000190157 3.94623e-06
0.000190157 0.000517945 1.53632e-05
3.94623e-06 1.53632e-05 0.000316566
0.000145657 9.77181e-05 2.70202e-06
9.77181e-05 0.000225239 1.22061e-06
2.70202e-06 1.22061e-06 -8.26533e-06
0.00104426 5.28264e-06 -1.05235e-05
5.28264e-06 0.00077156 -1.13341e-05
-1.05235e-05 -1.13341e-05 0.000624523
0.000359333 -2.32094e-05 1.22007e-06
-2.32094e-05 -0.000108286 4.25013e-06
1.22007e-06 4.25013e-06 -0.000222512
0.000664353 -2.09011e-05 2.29021e-06
-2.09011e-05 0.000234424 5.5646e-06
2.29021e-06 5.5646e-06 8.64152e-05
0.000589167 -1.47819e-05 2.74475e-06
-1.47819e-05 0.000415937 -1.10541e-06
2.74475e-06 -1.10541e-06 0.000169456
0.000553917 -6.13407e-05 4.36286e-07
-6.13407e-05 0.000131388 -2.37471e-07
4.36286e-07 -2.37471e-07 1.70596e-05
0.000141543 -1.2201e-05 7.31181e-07
-1.2201e-05 8.37965e-05 1.91087e-06
7.31181e-07 1.91087e-06 -4.30059e-05
0.00115824 -0.000213436 8.7998e-06
-0.000213436 0.000617042 -9.15167e-06
8.7998e-06 -9.15167e-06 0.000432101
0.00124305 -6.60834e-05 -1.36101e-06
-6.60834e-05 0.000462468 3.76784e-06
-1.36101e-06 3.76784e-06 0.000377044
9.72573e-05 6.13505e-07 -1.24836e-06
6.13505e-07 -0.000256944 1.80122e-06
-1.24836e-06 1.80122e-06 -0.000351494
0.00142065 -0.000152225 1.45852e-06
-0.000152225 0.000524829 2.08372e-06
1.45852e-06 2.08372e-06 0.000415478
-0.000703731 -0.000126892 5.42104e-06
-0.000126892 -0.000598341 1.27078e-06
5.42104e-06 1.27078e-06 -0.000823842
0.000388268 -6.85908e-05 -5.74221e-06
-6.85908e-05 -0.000105248 8.81007e-07
-5.74221e-06 8.81007e-07 -0.000172895
3.209e-05 -0.000162085 2.63546e-06
-0.000162085 -0.000330632 -1.06948e-06
2.63546e-06 -1.06948e-06 -0.000497458
0.00107797 -0.000295851 1.02891e-05
-0.000295851 0.000185022 -3.34063e-06
1.02891e-05 -3.34063e-06 -7.6717e-05
0.0013283 -0.000334585 -4.33392e-06
-0.000334585 0.000214987 3.19942e-06
-4.33392e-06 3.19942e-06 -5.19576e-05
0.00182049 -0.000236865 -2.43743e-06
-0.000236865 0.000710618 1.80534e-07
-2.43743e-06 1.80534e-07 0.000539368
0.000957798 -0.000257242 -4.47997e-07
-0.000257242 0.000116905 4.75264e-07
-4.47997e-07 4.75264e-07 -0.000122189
0.0022211 -0.000361719 2.89668e-06
-0.000361719 0.000857619 -1.22328e-06
2.89668e-06 -1.22328e-06 0.000623123
0.000244708 -0.00013562 -1.45057e-06
-0.00013562 -0.000189193 2.42294e-06
-1.45057e-06 2.42294e-06 -0.000387682
0.00097697 -0.000230997 -2.42796e-07
-0.000230997 0.000162477 -5.20622e-07
-2.42796e-07 -5.20622e-07 -5.77719e-05
0.000566638 -6.87407e-05 2.58183e-07
-6.87407e-05 3.95259e-05 -9.87042e-07
2.58183e-07 -9.87042e-07 -0.000109071
0.00105537 -0.000202112 -3.96684e-06
-0.000202112 0.000339453 2.3616e-06
-3.96684e-06 2.3616e-06 0.000152277
-0.000464446 -7.5989e-05 -2.27997e-06
-7.5989e-05 -0.000638947 -4.22591e-06
-2.27997e-06 -4.22591e-06 -0.000830668
0.00055165 1.08238e-05 9.01201e-07
1.08238e-05 7.48037e-06 1.15637e-06
9.01201e-07 1.15637e-06 -9.34871e-05
0.000708873 -6.0283e-05 7.0958e-07
-6.0283e-05 0.000120122 -1.14107e-07
7.0958e-07 -1.14107e-07 -5.79844e-06
0.000770539 -0.000106629 3.6708e-06
-0.000106629 0.00017423 -2.70561e-06
3.6708e-06 -2.70561e-06 2.63617e-05
0.000630114 -2.14075e-05 1.39004e-07
-2.14075e-05 6.96729e-05 -3.13466e-07
1.39004e-07 -3.13466e-07 -3.94738e-05
0.000688445 -2.19438e-05 -6.52375e-07
-2.19438e-05 8.96026e-05 -1.38839e-07
-6.52375e-07 -1.38839e-07 -4.16095e-06
0.000578057 3.32734e-05 -4.24431e-07
3.32734e-05 2.14335e-06 2.44271e-06
-4.24431e-07 2.44271e-06 -6.13798e-05
0.000756843 -4.75732e-05 4.89316e-07
-4.75732e-05 0.000135232 -7.96687e-07
4.89316e-07 -7.96687e-07 4.1839e-05
0.000613524 2.5583e-05 -8.65402e-07
2.5583e-05 1.99023e-05 -1.42297e-07
-8.65402e-07 -1.42297e-07 -3.85137e-05
0.000548563 4.17308e-05 -1.02178e-06
4.17308e-05 -3.29054e-05 4.23929e-06
-1.02178e-06 4.23929e-06 -5.33636e-05
0.000679011 -1.58707e-05 2.17271e-06
-1.58707e-05 5.1565e-05 -2.08103e-06
2.17271e-06 -2.08103e-06 -1.99109e-06
0.000555113 3.2279e-05 1.65266e-07
3.2279e-05 -3.59692e-05 4.05844e-10
1.65266e-07 4.05844e-10 -5.39352e-05
0.00226462 7.55783e-05 -3.96219e-06
7.55783e-05 0.000995722 1.92803e-06
-3.96219e-06 1.92803e-06 0.00100546
0.000528375 2.39244e-05 9.41778e-07
2.39244e-05 -5.43072e-05 -4.23022e-06
9.41778e-07 -4.23022e-06 -7.13245e-05
0.00157719 4.61618e-05 9.40849e-06
4.61618e-05 0.000578583 -1.15762e-06
9.40849e-06 -1.15762e-06 0.000587205
0.00236622 4.52086e-05 1.26349e-05
4.52086e-05 0.00104792 -4.89709e-06
1.26349e-05 -4.89709e-06 0.00106148
0.00038367 4.82645e-06 7.93912e-07
4.82645e-06 -9.78981e-05 -1.79633e-06
7.93912e-07 -1.79633e-06 -0.000197455
0.000332652 8.57064e-07 2.89283e-07
8.57064e-07 -0.000149003 -2.81767e-06
2.89283e-07 -2.81767e-06 -0.000208062
0.00056502 1.69197e-05 -4.3932e-07
1.69197e-05 2.26212e-05 -1.07921e-06
-4.3932e-07 -1.07921e-06 -7.80677e-05
0.000577235 -1.28568e-05 5.52013e-07
-1.28568e-05 -2.80017e-05 -3.9183e-06
5.52013e-07 -3.9183e-06 -4.02449e-05
0.000300558 3.5445e-06 -4.44836e-07
3.5445e-06 -0.000166261 -1.24572e-06
-4.44836e-07 -1.24572e-06 -0.000219249
0.000735653 3.12306e-05 -3.05732e-07
3.12306e-05 0.000129266 1.66486e-06
-3.05732e-07 1.66486e-06 3.45203e-05
0.00214294 -2.43364e-05 -1.1085e-05
-2.43364e-05 0.000909388 -4.73854e-06
-1.1085e-05 -4.73854e-06 0.000927136
0.000570015 -7.58691e-06 -2.30534e-07
-7.58691e-06 -3.37618e-05 -4.83008e-08
-2.30534e-07 -4.83008e-08 -4.31109e-05
0.000267569 3.78792e-06 6.33492e-07
3.78792e-06 -0.000184914 1.80939e-06
6.33492e-07 1.80939e-06 -0.000231949
0.00206845 -9.74861e-06 -3.63596e-06
-9.74861e-06 0.000863877 4.28727e-08
-3.63596e-06 4.28727e-08 0.000882812
0.000566208 -2.50124e-06 -4.29532e-07
-2.50124e-06 -3.65398e-05 3.43367e-06
-4.29532e-07 3.43367e-06 -4.40618e-05
0.00205777 4.71716e-06 2.19606e-06
4.71716e-06 0.000857967 4.66938e-06
2.19606e-06 4.66938e-06 0.000877016
0.000766769 -2.55511e-06 1.48577e-05
-2.55511e-06 0.000493661 8.19142e-06
1.48577e-05 8.19142e-06 0.000369419
0.000791256 -0.000141243 -4.42686e-07
-0.000141243 0.000127322 -1.19213e-05
-4.42686e-07 -1.19213e-05 -0.00157431
0.00155972 8.46349e-05 3.0016e-05
8.46349e-05 0.00372879 -3.13179e-05
3.0016e-05 -3.13179e-05 0.00235573
0.000738035 8.94207e-05 -1.58098e-07
8.94207e-05 0.000121816 3.54492e-07
-1.58098e-07 3.54492e-07 -2.90462e-06
0.000548198 6.34676e-05 1.64463e-06
6.34676e-05 -5.53672e-06 -5.8854e-07
1.64463e-06 -5.8854e-07 -0.000123039
0.000967518 0.000127797 2.77812e-06
0.000127797 0.00025853 2.68097e-06
2.77812e-06 2.68097e-06 0.000123852
0.0027709 -5.40832e-05 1.70335e-06
-5.40832e-05 0.000106686 0.000164517
1.70335e-06 0.000164517 -0.000829036
0.00350089 -0.000243354 1.14884e-05
-0.000243354 0.0023376 -3.73214e-06
1.14884e-05 -3.73214e-06 0.00111029
0.00387971 -0.000539312 6.62762e-05
-0.000539312 0.00148551 -0.000126212
6.62762e-05 -0.000126212 -0.00167479
0.0058413 -0.00102363 -9.2767e-05
-0.00102363 0.000709089 -1.28557e-06
-9.2767e-05 -1.28557e-06 0.000373422
0.0022564 -0.000970721 -0.000134956
-0.000970721 -5.59242e-05 8.36785e-05
-0.000134956 8.36785e-05 -0.00269321
0.0119174 0.00163975 0.00010474
0.00163975 0.00416393 4.82873e-05
0.00010474 4.82873e-05 0.00331257
0.00316091 0.000252284 8.19781e-05
0.000252284 -0.00307265 -0.00010073
8.19781e-05 -0.00010073 -0.00228218
0.00531973 -0.00147467 -1.70531e-05
-0.00147467 0.00115128 4.40153e-06
-1.70531e-05 4.40153e-06 0.000532629
0.00641414 -0.00128472 -2.71776e-05
-0.00128472 0.00300302 2.11603e-05
-2.71776e-05 2.11603e-05 -0.000444261
-0.00306786 0.00124426 -3.51482e-05
0.00124426 0.000156102 -0.000136098
-3.51482e-05 -0.000136098 -0.00191348
0.00592834 0.000125041 -1.80245e-05
0.000125041 -0.00258196 5.47288e-05
-1.80245e-05 5.47288e-05 -0.000197719
0.00158908 -0.0008656 -3.91673e-05
-0.0008656 0.000218952 -1.67614e-05
-3.91673e-05 -1.67614e-05 -0.000315014
0.0112557 -0.00153866 -7.74861e-05
-0.00153866 0.0049913 5.74152e-05
-7.74861e-05 5.74152e-05 0.00113543
-0.00894703 -0.00011942 3.94798e-05
-0.00011942 -0.000244798 -0.000201167
3.94798e-05 -0.000201167 -0.00260339
0.00447019 -0.000948533 4.35617e-05
-0.000948533 -0.00195625 -1.22052e-05
4.35617e-05 -1.22052e-05 -0.000891511
0.000666675 5.60968e-05 1.05008e-06
5.60968e-05 8.15646e-05 8.20646e-06
1.05008e-06 8.20646e-06 -5.84811e-05
0.000682632 -3.14588e-06 1.00312e-06
-3.14588e-06 0.00012419 -8.25647e-07
1.00312e-06 -8.25647e-07 -3.75175e-05
0.000852005 -8.54394e-05 5.33367e-07
-8.54394e-05 0.000233791 -2.53688e-06
5.33367e-07 -2.53688e-06 7.39866e-05
0.000730537 6.85046e-05 -8.3729e-07
6.85046e-05 0.000114521 -5.67971e-07
-8.3729e-07 -5.67971e-07 -1.87843e-05
0.000774177 0.000115527 7.66544e-07
0.000115527 0.000177493 -7.27077e-07
7.66544e-07 -7.27077e-07 3.46903e-05
0.00108554 0.000134512 -2.23149e-06
0.000134512 0.000357052 -9.92984e-07
-2.23149e-06 -9.92984e-07 0.000217768
-0.000221277 -0.000507751 1.89261e-05
-0.000507751 -0.000943916 1.0016e-05
1.89261e-05 1.0016e-05 -0.000935894
-0.000877616 -0.000116951 1.75089e-05
-0.000116951 -0.000761893 -1.67359e-05
1.75089e-05 -1.67359e-05 -0.000784093
0.000466548 4.12186e-05 -1.94326e-06
4.12186e-05 2.21499e-06 -2.04472e-06
-1.94326e-06 -2.04472e-06 -0.000161045
0.00208974 -0.000300066 4.3213e-05
-0.000300066 0.00101947 -3.1829e-05
4.3213e-05 -3.1829e-05 0.000758489
0.00152745 9.67941e-06 -4.22871e-06
9.67941e-06 0.000712251 -2.10107e-06
-4.22871e-06 -2.10107e-06 0.000479794
0.000582424 4.66138e-05 -1.41132e-07
4.66138e-05 4.59186e-05 2.28656e-06
-1.41132e-07 2.28656e-06 -9.59317e-05
0.000655555 0.000117787 4.55166e-07
0.000117787 0.00015853 -1.39319e-06
4.55166e-07 -1.39319e-06 -6.23442e-06
0.000455503 -0.00048919 -7.88148e-07
-0.00048919 -0.000396781 -4.62344e-06
-7.88148e-07 -4.62344e-06 -0.000410166
0.000794877 -1.81255e-05 -1.97593e-06
-1.81255e-05 0.000468348 3.47351e-07
-1.97593e-06 3.47351e-07 0.000166143
0.00020792 -9.63878e-05 7.08394e-06
-9.63878e-05 0.000189015 -1.71874e-06
7.08394e-06 -1.71874e-06 4.33753e-05
0.00076915 8.57192e-05 4.01906e-06
8.57192e-05 0.000172353 -1.20825e-05
4.01906e-06 -1.20825e-05 4.35034e-05
-0.00231379 7.70752e-05 -6.72673e-05
7.70752e-05 -0.000880878 -1.31967e-05
-6.72673e-05 -1.31967e-05 -0.00133323
-0.000570706 4.48211e-05 2.30046e-05
4.48211e-05 -0.000249699 2.45468e-05
2.30046e-05 2.45468e-05 -0.000399427
0.00142972 1.85516e-05 7.37246e-06
1.85516e-05 0.000768378 2.24318e-06
7.37246e-06 2.24318e-06 0.000535527
0.000841862 -1.51814e-05 -1.12169e-06
-1.51814e-05 -0.000157181 8.92206e-07
-1.12169e-06 8.92206e-07 -0.000654492
0.00018488 -9.33963e-06 -1.50259e-05
-9.33963e-06 0.000508278 -1.24993e-05
-1.50259e-05 -1.24993e-05 -2.61601e-05
0.00067216 -3.88088e-05 0.000183533
-3.88088e-05 0.000754808 -9.78343e-06
0.000183533 -9.78343e-06 -0.0011496
0.00033782 0.000184345 7.90111e-06
0.000184345 0.000258827 1.59493e-05
7.90111e-06 1.59493e-05 5.17199e-05
0.000967068 0.000426625 9.97801e-06
0.000426625 0.000207983 -1.27488e-05
9.97801e-06 -1.27488e-05 -0.000105714
0.000260518 -5.53613e-05 1.09322e-05
-5.53613e-05 5.13327e-06 2.86321e-06
1.09322e-05 2.86321e-06 -1.12367e-05
-0.0028866 0.000555919 4.20256e-05
0.000555919 0.000419002 7.18469e-05
4.20256e-05 7.18469e-05 -0.00351726
-0.00995669 0.00058317 -8.81577e-05
0.00058317 -0.00363073 -0.000251292
-8.81577e-05 -0.000251292 -0.00591409
0.0028139 5.66779e-05 3.83783e-05
5.66779e-05 0.000560002 6.53043e-05
3.83783e-05 6.53043e-05 0.000146272
0.00338151 0.000322425 -8.35334e-05
0.000322425 -0.00289995 0.000101435
-8.35334e-05 0.000101435 -0.00216675
0.000543434 0.000183373 7.13885e-06
0.000183373 0.000411151 -1.02142e-06
7.13885e-06 -1.02142e-06 0.000181701
0.00147433 4.34859e-06 1.48783e-05
4.34859e-06 -0.000345922 -2.57679e-05
1.48783e-05 -2.57679e-05 -0.000114218
0.00352786 -0.000178722 -1.15182e-05
-0.000178722 0.00232636 3.51896e-06
-1.15182e-05 3.51896e-06 0.00110973
0.0010992 0.000235676 -4.85152e-05
0.000235676 0.000564795 -4.9308e-06
-4.85152e-05 -4.9308e-06 -9.00509e-05
0.00437681 0.0016778 6.7653e-05
0.0016778 -0.0010995 -0.000184877
6.7653e-05 -0.000184877 -0.000909617
-0.00268327 0.00114767 3.38119e-05
0.00114767 -0.000453311 0.000132122
3.38119e-05 0.000132122 -0.00207273
0.00705329 9.13062e-05 6.08014e-05
9.13062e-05 0.00564656 -2.66276e-05
6.08014e-05 -2.66276e-05 0.000244781
0.0016124 -7.10607e-05 5.67314e-05
-7.10607e-05 0.00137175 -2.06689e-05
5.67314e-05 -2.06689e-05 0.000881307
0.000858158 2.7023e-05 -1.64472e-05
2.7023e-05 0.000507147 -6.77561e-06
-1.64472e-05 -6.77561e-06 0.000383451
0.00364248 -0.000389269 0.000287066
-0.000389269 0.00108767 -0.000174954
0.000287066 -0.000174954 -0.00155638
0.00579189 0.00222796 1.57314e-06
0.00222796 0.00428149 -1.00392e-05
1.57314e-06 -1.00392e-05 0.00469864
-0.00356094 0.00123615 2.68143e-05
0.00123615 -0.00394681 0.000353127
2.68143e-05 0.000353127 -0.00426701
0.013367 -0.0014841 0.000128506
-0.0014841 0.00549372 -0.000109718
0.000128506 -0.000109718 0.00160408
0.00313518 -0.000449201 -6.55462e-05
-0.000449201 0.00127859 7.20128e-05
-6.55462e-05 7.20128e-05 0.000934854
0.000697402 0.000158817 8.20948e-06
0.000158817 0.000531122 5.01416e-06
8.20948e-06 5.01416e-06 0.00029305
0.000250903 6.32489e-06 -2.84516e-05
6.32489e-06 0.000283597 1.30314e-06
-2.84516e-05 1.30314e-06 0.000123192
0.00119723 -0.000289902 2.02728e-05
-0.000289902 0.000805802 -7.36247e-06
2.02728e-05 -7.36247e-06 0.000497926
0.00090043 -8.21888e-05 1.43975e-06
-8.21888e-05 0.000312757 3.45847e-06
1.43975e-06 3.45847e-06 0.00021222
-6.61486e-05 -3.12087e-05 1.96537e-06
-3.12087e-05 -4.13812e-05 4.66743e-06
1.96537e-06 4.66743e-06 -0.000172545
0.000409096 -0.000199064 -8.64621e-07
-0.000199064 0.000238003 -7.54658e-07
-8.64621e-07 -7.54658e-07 5.859e-05
0.00168528 -0.000353647 2.63344e-05
-0.000353647 0.000802323 -1.77118e-05
2.63344e-05 -1.77118e-05 0.000540208
0.00224206 -0.000216594 -6.45714e-06
-0.000216594 0.000991907 4.24606e-06
-6.45714e-06 4.24606e-06 0.000869366
0.0018556 -0.000366137 4.16063e-06
-0.000366137 0.000767301 -7.31646e-07
4.16063e-06 -7.31646e-07 0.000521833
0.0013198 -0.000342654 1.17555e-05
-0.000342654 0.000488922 2.12267e-06
1.17555e-05 2.12267e-06 8.20039e-05
0.000312292 -0.000157936 -2.85677e-06
-0.000157936 -0.000176402 -6.26594e-07
-2.85677e-06 -6.26594e-07 -0.000325748
0.00146116 -0.000330473 -1.58e-06
-0.000330473 0.000371203 1.25334e-06
-1.58e-06 1.25334e-06 9.94112e-05
0.00176431 -0.000425929 -6.61682e-07
-0.000425929 0.000480016 2.35219e-06
-6.61682e-07 2.35219e-06 0.000122473
0.0017055 -0.000441737 -3.83921e-06
-0.000441737 0.000329813 3.32011e-06
-3.83921e-06 3.32011e-06 2.72331e-05
0.00109073 -0.000294555 3.49681e-09
-0.000294555 0.000115801 3.757e-06
3.49681e-09 3.757e-06 -0.000126878
0.00131411 -0.000335621 -2.56919e-06
-0.000335621 0.000206824 1.68566e-06
-2.56919e-06 1.68566e-06 -6.459e-05
0.0011134 -0.000273307 -7.28676e-06
-0.000273307 0.000177333 2.22158e-06
-7.28676e-06 2.22158e-06 -7.49042e-05
0.00174125 -0.000310144 5.18655e-06
-0.000310144 0.000607049 -8.57591e-07
5.18655e-06 -8.57591e-07 0.000383558
0.0015252 -0.000294997 2.89649e-06
-0.000294997 0.000451107 -2.92109e-06
2.89649e-06 -2.92109e-06 0.000231825
1.74863e-06 -6.31593e-05 1.30622e-06
-6.31593e-05 -0.000315981 3.21038e-07
1.30622e-06 3.21038e-07 -0.000491822
0.000823023 -0.000194176 1.89606e-06
-0.000194176 0.000157172 -1.2533e-06
1.89606e-06 -1.2533e-06 -4.94501e-05
0.00106982 -0.000235959 5.75155e-06
-0.000235959 0.00022401 -5.01889e-06
5.75155e-06 -5.01889e-06 6.25286e-06
0.000367151 1.10499e-05 1.17955e-06
1.10499e-05 -9.33167e-05 1.69931e-06
1.17955e-06 1.69931e-06 -0.000216899
0.000906007 -0.000106566 -3.90842e-07
-0.000106566 0.000245558 4.63795e-07
-3.90842e-07 4.63795e-07 8.77218e-05
0.0010514 -0.000211723 -1.0964e-06
-0.000211723 0.000339919 -8.77483e-07
-1.0964e-06 -8.77483e-07 0.000150141
0.000617028 1.74173e-05 -1.09788e-06
1.74173e-05 2.65323e-05 2.63966e-06
-1.09788e-06 2.63966e-06 -4.29274e-05
0.000725195 -2.4346e-05 -4.74496e-07
-2.4346e-05 0.000108199 -2.97723e-07
-4.74496e-07 -2.97723e-07 4.84927e-06
0.000492223 -4.33471e-05 -8.15197e-08
-4.33471e-05 1.1585e-06 1.85581e-07
-8.15197e-08 1.85581e-07 -0.000126278
0.000764966 -4.10079e-05 3.34238e-07
-4.10079e-05 0.000138159 -1.20073e-06
3.34238e-07 -1.20073e-06 4.04681e-05
0.000635848 2.88589e-06 -2.62196e-07
2.88589e-06 3.21305e-05 -1.79917e-07
-2.62196e-07 -1.79917e-07 -2.94492e-05
0.000534401 5.1105e-05 -3.62506e-07
5.1105e-05 -3.20167e-05 4.81801e-06
-3.62506e-07 4.81801e-06 -5.64876e-05
0.000648269 -6.51787e-06 1.79022e-06
-6.51787e-06 3.61517e-05 -2.00839e-06
1.79022e-06 -2.00839e-06 -2.00509e-05
0.000558634 4.36916e-05 -1.96491e-07
4.36916e-05 -2.66176e-05 -5.15418e-08
-1.96491e-07 -5.15418e-08 -4.74144e-05
0.00232927 8.33353e-05 -2.49353e-05
8.33353e-05 0.00104198 3.8791e-06
-2.49353e-05 3.8791e-06 0.00105024
0.000548577 3.32449e-05 9.99155e-07
3.32449e-05 -3.96907e-05 -4.1671e-06
9.99155e-07 -4.1671e-06 -5.77687e-05
0.001556 5.77806e-05 1.13022e-05
5.77806e-05 0.0005717 -9.94581e-07
1.13022e-05 -9.94581e-07 0.000578585
0.002375 5.97281e-05 1.66224e-05
5.97281e-05 0.00105769 -4.55529e-06
1.66224e-05 -4.55529e-06 0.00106964
0.000702862 6.67585e-05 5.65668e-07
6.67585e-05 9.75371e-05 -1.10463e-06
5.65668e-07 -1.10463e-06 -9.04875e-06
0.000622307 2.57797e-05 -1.91987e-07
2.57797e-05 2.06872e-05 -2.43045e-06
-1.91987e-07 -2.43045e-06 -4.11172e-05
0.000558607 4.05143e-05 -1.17751e-06
4.05143e-05 1.76289e-05 -1.14047e-06
-1.17751e-06 -1.14047e-06 -8.97733e-05
0.000560871 -1.7968e-05 6.058e-07
-1.7968e-05 -3.60817e-05 -4.3621e-06
6.058e-07 -4.3621e-06 -5.17059e-05
0.000438879 1.76985e-05 -1.47217e-06
1.76985e-05 -8.55706e-05 -1.23657e-06
-1.47217e-06 -1.23657e-06 -0.000143433
0.000771458 4.33224e-05 -4.11612e-07
4.33224e-05 0.000145235 -8.09086e-07
-4.11612e-07 -8.09086e-07 4.52291e-05
0.00224589 -3.83806e-05 -1.58629e-05
-3.83806e-05 0.000972758 -4.69549e-06
-1.58629e-05 -4.69549e-06 0.000988789
0.000563118 -1.29e-05 -1.95354e-07
-1.29e-05 -3.6781e-05 -7.37781e-08
-1.95354e-07 -7.37781e-08 -4.87554e-05
0.00024525 2.66658e-06 -9.13512e-07
2.66658e-06 -0.000199358 9.044e-07
-9.13512e-07 9.044e-07 -0.000253104
0.00215087 -2.31846e-05 -4.07368e-06
-2.31846e-05 0.000913887 9.79801e-08
-4.07368e-06 9.79801e-08 0.000931766
0.000564867 -8.17769e-06 -6.03015e-07
-8.17769e-06 -3.67745e-05 3.51294e-06
-6.03015e-07 3.51294e-06 -4.60125e-05
0.00208094 -8.27833e-06 6.91051e-06
-8.27833e-06 0.000871173 4.72841e-06
6.91051e-06 4.72841e-06 0.000890133
0.0015417 -4.57598e-05 -1.47308e-05
-4.57598e-05 -0.00025054 1.71482e-05
-1.47308e-05 1.71482e-05 -5.70761e-05
0.000802869 -3.40657e-05 9.10075e-06
-3.40657e-05 0.000454068 -2.18e-06
9.10075e-06 -2.18e-06 0.000366418
0.00128519 -0.000129466 0.000109001
-0.000129466 0.000354908 -3.23975e-05
0.000109001 -3.23975e-05 -0.00127836
0.000528445 2.2752e-05 6.69752e-07
2.2752e-05 -2.88132e-05 -5.53577e-07
6.69752e-07 -5.53577e-07 -0.000138797
0.000957418 5.70156e-05 -7.59848e-07
5.70156e-05 0.000219898 5.47938e-07
-7.59848e-07 5.47938e-07 9.74109e-05
0.000792571 9.86473e-05 -3.55644e-07
9.86473e-05 0.000153119 3.95314e-08
-3.55644e-07 3.95314e-08 3.20541e-05
0.000572818 4.6109e-05 2.13756e-07
4.6109e-05 1.59717e-06 2.58383e-07
2.13756e-07 2.58383e-07 -0.000110221
0.00069327 6.18654e-05 1.19109e-07
6.18654e-05 9.26189e-05 3.87489e-07
1.19109e-07 3.87489e-07 -3.52351e-05
0.000662997 5.70375e-05 1.38158e-06
5.70375e-05 6.64013e-05 -1.63444e-06
1.38158e-06 -1.63444e-06 -5.54957e-05
0.000655319 0.00014809 4.01005e-06
0.00014809 9.44157e-05 3.54302e-06
4.01005e-06 3.54302e-06 -5.29089e-05
2.37236e-05 6.62366e-05 5.97667e-05
6.62366e-05 -4.19691e-05 0.000162023
5.97667e-05 0.000162023 -0.00145999
0.00268686 -3.84905e-05 -1.04952e-05
-3.84905e-05 0.000403121 5.06236e-05
-1.04952e-05 5.06236e-05 -0.000351147
0.00311191 -0.000175558 3.53105e-05
-0.000175558 0.00220769 -6.68473e-05
3.53105e-05 -6.68473e-05 0.00108451
0.00423946 -0.00011747 -7.16499e-06
-0.00011747 -0.0042773 5.98636e-05
-7.16499e-06 5.98636e-05 -0.00134972
0.00297478 -0.00120036 -9.36976e-05
-0.00120036 0.000940497 6.65006e-05
-9.36976e-05 6.65006e-05 0.000104264
-0.00191926 -0.00143697 -3.25364e-05
-0.00143697 -0.000197286 8.28599e-05
-3.25364e-05 8.28599e-05 -0.0041812
0.00888433 0.00188815 7.50152e-05
0.00188815 0.0047261 -5.60328e-05
7.50152e-05 -5.60328e-05 0.002673
0.0033199 -0.00108436 -2.80177e-05
-0.00108436 0.000875235 4.73004e-06
-2.80177e-05 4.73004e-06 0.000399616
-0.000445153 -0.000524414 3.16227e-05
-0.000524414 0.00166977 2.79326e-05
3.16227e-05 2.79326e-05 -0.00294313
0.00466266 0.000165133 1.89055e-05
0.000165133 0.00253308 -1.0431e-05
1.89055e-05 -1.0431e-05 0.00111377
0.00937069 -0.00128255 -3.30235e-05
-0.00128255 0.00121722 -3.86182e-05
-3.30235e-05 -3.86182e-05 0.00241287
-0.00160972 -1.54489e-05 -0.000164143
-1.54489e-05 -0.00141578 8.07276e-05
-0.000164143 8.07276e-05 -0.00126879
0.000736129 0.00132599 -5.50123e-05
0.00132599 0.00202103 -8.34316e-05
-5.50123e-05 -8.34316e-05 -0.00264065
-0.00662361 -0.00206173 4.93881e-05
-0.00206173 -0.0036135 -0.000136495
4.93881e-05 -0.000136495 -0.00582379
0.00583808 -0.00124635 4.18262e-05
-0.00124635 -0.000354992 -0.000266341
4.18262e-05 -0.000266341 0.000647108
0.000882668 2.38232e-05 4.40369e-06
2.38232e-05 0.000224246 -5.88745e-07
4.40369e-06 -5.88745e-07 0.000100469
0.0006395 6.86095e-05 7.62313e-08
6.86095e-05 7.35027e-05 -1.23895e-06
7.62313e-08 -1.23895e-06 -6.73882e-05
0.000855185 -8.51778e-06 3.12824e-07
-8.51778e-06 0.000240524 -2.71835e-06
3.12824e-07 -2.71835e-06 6.50088e-05
0.000802962 5.62425e-05 -1.41179e-06
5.62425e-05 0.000167487 -4.58432e-06
-1.41179e-06 -4.58432e-06 2.40749e-05
0.000320228 -0.000423798 -5.64714e-06
-0.000423798 -0.000474066 3.21564e-05
-5.64714e-06 3.21564e-05 -0.000561818
0.00192852 -7.31279e-05 -2.52423e-05
-7.31279e-05 0.00117592 -2.35847e-05
-2.52423e-05 -2.35847e-05 0.00101634
0.00073338 4.0555e-05 -3.13873e-06
4.0555e-05 0.000114054 -3.94858e-06
-3.13873e-06 -3.94858e-06 -8.66031e-06
0.00069399 0.000157458 -1.68919e-06
0.000157458 0.000192889 4.45947e-06
-1.68919e-06 4.45947e-06 2.36835e-05
0.00279727 -3.68264e-05 1.13031e-05
-3.68264e-05 0.00154122 -2.06837e-05
1.13031e-05 -2.06837e-05 0.00131948
0.000917418 6.91714e-05 1.98084e-06
6.91714e-05 0.000249457 3.56207e-06
1.98084e-06 3.56207e-06 0.000128748
0.000629657 0.000115015 -2.62781e-06
0.000115015 0.000340456 -1.30332e-06
-2.62781e-06 -1.30332e-06 7.98569e-05
0.000368004 -1.61305e-05 4.08066e-05
-1.61305e-05 0.000433808 -1.38187e-05
4.08066e-05 -1.38187e-05 -0.000132931
0.000207893 2.01411e-05 2.44017e-05
2.01411e-05 0.000220479 -9.74623e-07
2.44017e-05 -9.74623e-07 8.08928e-05
0.000686675 0.000136005 1.53827e-07
0.000136005 0.000315864 -7.56805e-06
1.53827e-07 -7.56805e-06 0.000135679
-0.000396862 -6.69741e-05 -3.28722e-05
-6.69741e-05 0.000466708 -4.58081e-05
-3.28722e-05 -4.58081e-05 -0.000768229
0.00392742 0.000159841 2.65829e-05
0.000159841 0.00217132 2.28553e-05
2.65829e-05 2.28553e-05 0.00194279
0.000410225 5.0759e-06 -4.0792e-06
5.0759e-06 0.000737423 1.25723e-05
-4.0792e-06 1.25723e-05 8.84443e-05
0.00129149 -2.94076e-05 -1.08863e-07
-2.94076e-05 6.14899e-05 6.51791e-07
-1.08863e-07 6.51791e-07 -0.000147657
2.40058e-05 -1.11337e-05 1.41266e-06
-1.11337e-05 0.000290461 -1.78368e-05
1.41266e-06 -1.78368e-05 -0.000122569
-0.00017882 0.000104043 -9.53658e-07
0.000104043 6.50275e-05 5.32697e-06
-9.53658e-07 5.32697e-06 -0.000126043
-0.00101056 0.000324429 6.27368e-05
0.000324429 -0.000798044 5.15891e-05
6.27368e-05 5.15891e-05 -0.00107139
0.00128803 -2.52132e-05 1.87424e-05
-2.52132e-05 -0.00042168 -6.35598e-06
1.87424e-05 -6.35598e-06 -0.000146438
0.00319144 -0.00114149 0.000129058
-0.00114149 0.00365205 -0.000126189
0.000129058 -0.000126189 -0.00184682
0.00933716 0.00190541 -7.56075e-05
0.00190541 0.00437037 5.39117e-05
-7.56075e-05 5.39117e-05 0.00259401
0.00314365 -0.000113737 -3.98909e-05
-0.000113737 0.00216685 6.91138e-05
-3.98909e-05 6.91138e-05 0.00104285
0.00584271 0.00176185 -3.0981e-05
0.00176185 0.000314801 -5.15644e-05
-3.0981e-05 -5.15644e-05 0.000117427
-5.84461e-05 0.000125303 -3.70965e-05
0.000125303 0.000466548 1.00652e-05
-3.70965e-05 1.00652e-05 -8.84478e-05
0.000894105 5.10626e-06 -1.0843e-05
5.10626e-06 0.000452716 2.28768e-06
-1.0843e-05 2.28768e-06 0.000388852
0.00363581 -0.000444679 0.00010547
-0.000444679 0.001176 -9.89129e-06
0.00010547 -9.89129e-06 -0.00169123
-0.000128062 -0.000198355 9.67947e-06
-0.000198355 -0.000470924 2.51733e-05
9.67947e-06 2.51733e-05 -0.000539071
-0.0006514 0.00240107 0.000153231
0.00240107 0.000710719 -7.2832e-05
0.000153231 -7.2832e-05 0.0016539
0.00714417 0.00114046 -6.93615e-05
0.00114046 0.0005427 0.00013377
-6.93615e-05 0.00013377 0.00014147
-0.00303741 -0.000792969 7.52343e-05
-0.000792969 0.000595857 -7.52163e-05
7.52343e-05 -7.52163e-05 -0.00463828
0.000426612 -0.000157048 3.93274e-05
-0.000157048 0.000419246 -7.67521e-06
3.93274e-05 -7.67521e-06 1.69253e-05
0.000548267 -0.000183363 9.24244e-05
-0.000183363 -0.000200178 -3.17159e-05
9.24244e-05 -3.17159e-05 -0.0017838
-0.00198265 8.17741e-05 -0.000284166
8.17741e-05 0.00221616 1.49929e-05
-0.000284166 1.49929e-05 0.000515651
0.0040847 0.00223855 -0.000220067
0.00223855 0.000465274 0.000294767
-0.000220067 0.000294767 0.000649662
0.00805525 -0.000945356 -9.76004e-06
-0.000945356 0.0036303 2.5235e-06
-9.76004e-06 2.5235e-06 0.00025345
0.00306947 -0.000565844 -6.01303e-05
-0.000565844 0.00110662 4.65986e-05
-6.01303e-05 4.65986e-05 0.000739722
-0.000797541 3.94787e-05 2.56261e-05
3.94787e-05 -0.000318192 8.4258e-06
2.56261e-05 8.4258e-06 -0.000498945
0.000197299 -0.00020432 -9.85649e-07
-0.00020432 0.000276492 3.18021e-07
-9.85649e-07 3.18021e-07 -2.62772e-05
0.000503617 -0.000298305 1.52659e-05
-0.000298305 0.000156727 -4.55927e-06
1.52659e-05 -4.55927e-06 -1.01153e-05
-0.000465921 -0.000172238 -6.62112e-06
-0.000172238 -0.000215158 6.13855e-06
-6.62112e-06 6.13855e-06 -0.000387796
-0.000585371 -0.000187654 -1.31338e-06
-0.000187654 -0.000402543 -4.06443e-06
-1.31338e-06 -4.06443e-06 -0.000662477
0.00325423 -0.00059073 3.00797e-05
-0.00059073 0.00130867 -6.94487e-07
3.00797e-05 -6.94487e-07 0.00102276
0.00431767 -0.00061109 -9.12299e-06
-0.00061109 0.00207292 3.55713e-06
-9.12299e-06 3.55713e-06 0.0018059
0.00225556 -0.000432582 6.5418e-06
-0.000432582 0.00093184 5.35503e-07
6.5418e-06 5.35503e-07 0.00054888
0.00122432 -0.000405076 8.06099e-06
-0.000405076 0.000213232 -5.68931e-06
8.06099e-06 -5.68931e-06 -0.000196183
0.0017673 -0.000358813 -7.96807e-06
-0.000358813 0.000512819 1.97363e-06
-7.96807e-06 1.97363e-06 0.000232325
0.00214451 -0.000471067 1.06624e-06
-0.000471067 0.000657009 5.05474e-07
1.06624e-06 5.05474e-07 0.000291044
0.00194888 -0.000477118 1.18933e-06
-0.000477118 0.000504754 -5.56527e-06
1.18933e-06 -5.56527e-06 0.000137912
0.00196905 -0.000449401 -1.25209e-06
-0.000449401 0.000401388 -2.81448e-06
-1.25209e-06 -2.81448e-06 0.00013384
0.00179858 -0.000444518 -1.27035e-06
-0.000444518 0.000364994 2.79166e-06
-1.27035e-06 2.79166e-06 8.26482e-05
0.00170295 -0.000445819 -9.61045e-07
-0.000445819 0.000329853 -1.67873e-07
-9.61045e-07 -1.67873e-07 2.15392e-05
0.00066058 -0.00023764 6.2922e-06
-0.00023764 -0.000127922 1.80094e-06
6.2922e-06 1.80094e-06 -0.000342596
0.00116418 -0.000294378 1.81357e-06
-0.000294378 0.000154119 9.54594e-08
1.81357e-06 9.54594e-08 -8.11962e-05
0.00126688 -0.000332854 7.38799e-07
-0.000332854 0.00018158 -2.48534e-06
7.38799e-07 -2.48534e-06 -9.38724e-05
0.00129489 -0.000252975 3.51106e-06
-0.000252975 0.000379393 1.9087e-06
3.51106e-06 1.9087e-06 0.00015817
0.00128101 -0.000264804 -2.04049e-06
-0.000264804 0.000331968 -1.6065e-06
-2.04049e-06 -1.6065e-06 0.00011595
0.000711817 -0.000217332 5.13576e-06
-0.000217332 -2.36198e-05 -5.18612e-06
5.13576e-06 -5.18612e-06 -0.000225796
0.000438867 -7.69131e-05 2.17965e-06
-7.69131e-05 -4.31756e-05 1.10609e-06
2.17965e-06 1.10609e-06 -0.0002095
0.000492096 -0.000107362 -6.70954e-07
-0.000107362 -1.36994e-05 1.00203e-06
-6.70954e-07 1.00203e-06 -0.000197189
0.00140144 -0.000252714 2.83576e-06
-0.000252714 0.000502995 -4.43471e-06
2.83576e-06 -4.43471e-06 0.000288267
0.000466478 2.19188e-05 -2.57231e-08
2.19188e-05 -5.42444e-05 3.19128e-06
-2.57231e-08 3.19128e-06 -0.000137115
0.000717623 -3.19761e-05 -3.60664e-07
-3.19761e-05 0.000119788 -3.4432e-07
-3.60664e-07 -3.4432e-07 -1.33468e-05
0.00119256 -0.0001447 7.23388e-07
-0.0001447 0.000419984 -2.32446e-07
7.23388e-07 -2.32446e-07 0.000253515
0.000502963 5.76487e-05 -9.12319e-07
5.76487e-05 -4.05358e-05 6.9518e-06
-9.12319e-07 6.9518e-06 -6.92894e-05
0.000641589 1.29664e-05 -2.83793e-07
1.29664e-05 3.88835e-05 -2.43809e-07
-2.83793e-07 -2.43809e-07 -3.03861e-05
0.000893928 -4.8735e-05 -1.97594e-07
-4.8735e-05 0.000211421 -1.537e-06
-1.97594e-07 -1.537e-06 0.000102639
0.00066606 1.46624e-06 1.461e-06
1.46624e-06 4.89096e-05 -2.43662e-06
1.461e-06 -2.43662e-06 -1.26696e-05
0.000542489 5.38226e-05 1.25528e-07
5.38226e-05 -2.58289e-05 -3.92334e-09
1.25528e-07 -3.92334e-09 -5.10259e-05
0.00239523 9.92913e-05 -2.6887e-05
9.92913e-05 0.00108987 3.54585e-06
-2.6887e-05 3.54585e-06 0.00109448
0.000563395 4.68379e-05 -7.7958e-08
4.68379e-05 -2.32696e-05 -4.52799e-06
-7.7958e-08 -4.52799e-06 -4.46206e-05
0.00236146 8.631e-05 2.69783e-06
8.631e-05 0.00106209 2.48961e-07
2.69783e-06 2.48961e-07 0.00106973
0.00234161 7.32396e-05 2.01083e-05
7.32396e-05 0.00104357 -4.1069e-06
2.01083e-05 -4.1069e-06 0.00105374
0.000705177 5.9515e-05 -2.17806e-07
5.9515e-05 0.000105394 -8.74294e-07
-2.17806e-07 -8.74294e-07 -2.51323e-05
0.000771734 8.69374e-05 5.97278e-07
8.69374e-05 0.000148675 -1.41123e-06
5.97278e-07 -1.41123e-06 2.73944e-05
0.000639917 1.74587e-05 -1.09637e-07
1.74587e-05 3.13158e-05 -2.78057e-06
-1.09637e-07 -2.78057e-06 -3.64181e-05
0.000703155 7.86857e-05 -5.02597e-08
7.86857e-05 9.63675e-05 -2.65628e-08
-5.02597e-08 -2.65628e-08 -9.99684e-06
0.000551474 -2.1348e-05 -8.98074e-08
-2.1348e-05 -3.80798e-05 -4.98903e-06
-8.98074e-08 -4.98903e-06 -5.76354e-05
0.000623681 2.61069e-05 -1.42483e-08
2.61069e-05 2.21728e-05 -9.12952e-08
-1.42483e-08 -9.12952e-08 -3.96523e-05
0.00063575 4.25346e-05 -2.10283e-06
4.25346e-05 5.25784e-05 3.48855e-07
-2.10283e-06 3.48855e-07 -4.59318e-05
0.00234528 -5.26371e-05 -2.08018e-05
-5.26371e-05 0.00103493 -4.64007e-06
-2.08018e-05 -4.64007e-06 0.0010488
0.00056104 -1.86435e-05 -3.11356e-07
-1.86435e-05 -3.56341e-05 -6.71952e-08
-3.11356e-07 -6.71952e-08 -5.11667e-05
0.000557097 2.91997e-05 -1.38889e-06
2.91997e-05 -1.51414e-05 8.2821e-07
-1.38889e-06 8.2821e-07 -7.18263e-05
0.00222162 -3.69528e-05 -4.06692e-06
-3.69528e-05 0.000957885 1.5457e-07
-4.06692e-06 1.5457e-07 0.000974259
0.000563116 -1.27601e-05 -6.52271e-07
-1.27601e-05 -3.70779e-05 3.71341e-06
-6.52271e-07 3.71341e-06 -4.88203e-05
0.00212596 -2.18347e-05 1.10175e-05
-2.18347e-05 0.000898677 4.68492e-06
1.10175e-05 4.68492e-06 0.000916821
0.000422619 -7.64727e-05 5.94962e-07
-7.64727e-05 1.60924e-05 7.57455e-06
5.94962e-07 7.57455e-06 7.77601e-05
0.00146452 -8.41643e-05 -1.57747e-05
-8.41643e-05 -0.000343875 2.54634e-05
-1.57747e-05 2.54634e-05 -0.000100249
0.00085171 -5.77054e-05 8.16583e-06
-5.77054e-05 0.000419406 -1.38896e-05
8.16583e-06 -1.38896e-05 0.000359526
0.000728384 6.04475e-05 -2.218e-07
6.04475e-05 0.000109299 1.29722e-07
-2.218e-07 1.29722e-07 -1.51996e-05
0.000717498 4.34441e-05 1.08895e-06
4.34441e-05 7.96021e-05 -2.36146e-07
1.08895e-06 -2.36146e-07 -3.95003e-05
0.000155353 3.10702e-05 -3.69006e-06
3.10702e-05 -0.000250703 -4.25929e-06
-3.69006e-06 -4.25929e-06 -0.000362989
0.000388178 1.138e-05 2.11271e-07
1.138e-05 -9.99969e-05 3.40185e-07
2.11271e-07 3.40185e-07 -0.000218913
0.00139078 0.000154953 -8.78424e-07
0.000154953 0.000507998 -1.0313e-06
-8.78424e-07 -1.0313e-06 0.00036019
0.000646374 2.90717e-05 -1.43214e-06
2.90717e-05 3.82665e-05 7.82525e-07
-1.43214e-06 7.82525e-07 -6.9817e-05
0.000667556 5.1969e-05 -2.21463e-06
5.1969e-05 6.87136e-05 -2.62214e-06
-2.21463e-06 -2.62214e-06 -5.25608e-05
0.000768233 6.25315e-05 -1.09956e-07
6.25315e-05 0.000128941 -2.03728e-07
-1.09956e-07 -2.03728e-07 4.70144e-06
0.000985473 9.94156e-05 1.75176e-07
9.94156e-05 0.000267393 2.11217e-08
1.75176e-07 2.11217e-08 0.000133137
0.001082 7.79097e-05 2.42475e-06
7.79097e-05 0.000341871 -1.86894e-06
2.42475e-06 -1.86894e-06 0.000202441
0.00313324 0.000244462 0.000167769
0.000244462 0.00191534 0.000237245
0.000167769 0.000237245 -0.00103824
0.000523984 8.99945e-05 9.0071e-06
8.99945e-05 6.80736e-05 6.39235e-05
9.0071e-06 6.39235e-05 -0.0014909
0.00262858 -4.46201e-05 -1.09179e-05
-4.46201e-05 0.0006604 -4.56428e-06
-1.09179e-05 -4.56428e-06 0.000101982
0.0096649 -0.00112123 -9.72593e-05
-0.00112123 0.0013576 -0.000105303
-9.72593e-05 -0.000105303 0.00275562
-0.0101969 0.000895356 -2.54339e-05
0.000895356 -0.00341434 0.000249157
-2.54339e-05 0.000249157 -0.00591935
0.00529948 -0.00118668 -0.000126884
-0.00118668 0.00203612 4.44985e-05
-0.000126884 4.44985e-05 0.00157851
0.0108776 -0.000995062 -5.84226e-05
-0.000995062 0.00484603 -1.45522e-06
-5.84226e-05 -1.45522e-06 0.00123688
0.00219116 -0.0002275 -1.7897e-05
-0.0002275 0.000531419 6.16762e-05
-1.7897e-05 6.16762e-05 0.000267872
0.0115425 -0.000117857 -6.87962e-06
-0.000117857 0.00586766 -1.29111e-05
-6.87962e-06 -1.29111e-05 0.00144776
0.00240298 -0.00127738 5.31134e-05
-0.00127738 0.000642628 7.07175e-05
5.31134e-05 7.07175e-05 -0.00111523
0.00504808 -0.00151223 -0.000140818
-0.00151223 -0.00113304 -0.00032287
-0.000140818 -0.00032287 -0.000214337
0.00322721 5.08409e-05 -0.000128069
5.08409e-05 0.000912486 4.83652e-05
-0.000128069 4.83652e-05 0.00035091
0.00991248 0.00104491 -4.20199e-05
0.00104491 0.00462526 1.72201e-05
-4.20199e-05 1.72201e-05 0.00105282
0.0112177 -0.00221987 -7.47724e-05
-0.00221987 0.0038302 -0.000277304
-7.47724e-05 -0.000277304 0.00343695
0.00815998 -0.00247467 7.22736e-05
-0.00247467 0.00184659 2.87184e-06
7.22736e-05 2.87184e-06 0.00302455
0.000150881 7.34527e-05 3.62837e-06
7.34527e-05 -0.000126757 -4.97194e-06
3.62837e-06 -4.97194e-06 -0.000260671
0.000933625 2.40439e-05 9.92419e-07
2.40439e-05 0.000270161 2.97894e-06
9.92419e-07 2.97894e-06 0.000126342
0.000731578 8.03694e-05 -2.43842e-06
8.03694e-05 0.00013017 -5.96718e-06
-2.43842e-06 -5.96718e-06 -1.4647e-05
0.00170921 -0.000156075 -3.40098e-05
-0.000156075 0.00106835 2.27231e-05
-3.40098e-05 2.27231e-05 0.000353932
0.0010478 -3.55192e-05 -7.04201e-05
-3.55192e-05 0.00071089 -2.27752e-05
-7.04201e-05 -2.27752e-05 0.000589102
0.000709203 9.54232e-06 -3.84565e-06
9.54232e-06 0.000128519 5.63429e-06
-3.84565e-06 5.63429e-06 8.00676e-06
-0.00117718 0.000104743 -8.2504e-06
0.000104743 -0.000641075 -3.76792e-06
-8.2504e-06 -3.76792e-06 -0.000942433
0.00047237 7.57446e-05 5.06725e-07
7.57446e-05 0.000188176 -2.65268e-06
5.06725e-07 -2.65268e-06 -6.63142e-07
0.00062174 0.000133968 -1.30203e-06
0.000133968 0.000402298 2.93091e-06
-1.30203e-06 2.93091e-06 0.000129176
-0.000352777 -7.2336e-05 0.000127064
-7.2336e-05 0.000712288 -4.1986e-05
0.000127064 -4.1986e-05 -0.000505426
-0.00227761 8.98041e-06 -2.24275e-05
8.98041e-06 -0.00122007 1.35327e-05
-2.24275e-05 1.35327e-05 -0.00143228
0.00249401 0.000297726 -4.40154e-05
0.000297726 0.0015639 -4.35077e-05
-4.40154e-05 -4.35077e-05 0.000735141
0.00184545 2.97653e-05 8.45504e-05
2.97653e-05 0.00110706 1.3238e-05
8.45504e-05 1.3238e-05 -0.000834206
0.000197786 2.51527e-06 1.55574e-05
2.51527e-06 0.000529744 1.37373e-05
1.55574e-05 1.37373e-05 -2.20796e-05
0.00176381 -6.75416e-05 4.13377e-07
-6.75416e-05 0.000281606 -4.55938e-07
4.13377e-07 -4.55938e-07 0.000352196
-0.00182716 0.000267081 9.71517e-05
0.000267081 -0.000475155 8.14329e-06
9.71517e-05 8.14329e-06 -0.00114316
0.00328506 0.00013903 -2.91014e-05
0.00013903 0.00155127 1.15107e-05
-2.91014e-05 1.15107e-05 0.000855199
0.000893221 -3.01374e-05 -7.10699e-06
-3.01374e-05 0.000419833 1.16369e-05
-7.10699e-06 1.16369e-05 0.000370083
0.0161588 -0.00164124 0.000131056
-0.00164124 0.00698989 -4.02003e-05
0.000131056 -4.02003e-05 0.00292151
0.0111379 0.00170042 -6.78449e-05
0.00170042 0.00386024 -5.1556e-05
-6.78449e-05 -5.1556e-05 0.00294392
0.0039232 -0.000491601 -7.89391e-05
-0.000491601 0.00140869 0.000126789
-7.89391e-05 0.000126789 -0.00166544
-0.00730405 0.00269054 0.000716263
0.00269054 -0.00319629 -0.000543045
0.000716263 -0.000543045 -0.00179651
0.000834406 -0.000180551 1.05284e-05
-0.000180551 0.000749851 -3.9446e-06
1.05284e-05 -3.9446e-06 0.000267607
0.000889234 -0.000143258 -2.39923e-07
-0.000143258 5.00781e-05 1.15987e-05
-2.39923e-07 1.15987e-05 -0.00162061
-0.00285338 0.00016302 -0.000399911
0.00016302 0.00220875 0.000169497
-0.000399911 0.000169497 0.000528563
0.00151499 -0.00035807 -2.43178e-05
-0.00035807 0.000356831 3.6352e-05
-2.43178e-05 3.6352e-05 1.75167e-05
0.0117896 0.00223847 0.000100249
0.00223847 0.00360461 7.92768e-05
0.000100249 7.92768e-05 0.00386872
0.00772425 -0.00156267 8.68216e-05
-0.00156267 0.00321323 -5.41767e-05
8.68216e-05 -5.41767e-05 0.000118602
0.00167449 -0.00040588 4.51863e-06
-0.00040588 0.000675838 2.22356e-05
4.51863e-06 2.22356e-05 0.000613819
-0.00430373 -0.000417902 3.96046e-05
-0.000417902 0.00174105 -2.43789e-05
3.96046e-05 -2.43789e-05 -0.000539248
0.0103231 0.00207175 -0.000436625
0.00207175 0.00472666 0.000205671
-0.000436625 0.000205671 0.00447741
0.0025296 -0.000950486 -0.000206262
-0.000950486 -0.000278361 0.000137915
-0.000206262 0.000137915 -0.00348948
0.0023415 -0.000927679 9.90298e-05
-0.000927679 0.000428028 -4.70566e-05
9.90298e-05 -4.70566e-05 0.00035217
-0.000107242 -0.000188523 -4.70983e-05
-0.000188523 8.99176e-05 1.28542e-05
-4.70983e-05 1.28542e-05 -0.000189166
0.000635156 -0.000289389 -5.28254e-06
-0.000289389 0.000281551 7.38655e-06
-5.28254e-06 7.38655e-06 5.3191e-05
0.00352842 -0.000585109 3.16454e-05
-0.000585109 0.0014147 2.44865e-06
3.16454e-05 2.44865e-06 0.00127097
-0.00275057 -5.16526e-05 -2.00325e-06
-5.16526e-05 -0.0015415 9.8173e-06
-2.00325e-06 9.8173e-06 -0.00179854
0.00075609 -0.000341715 4.22225e-06
-0.000341715 2.81137e-05 2.38411e-06
4.22225e-06 2.38411e-06 -0.000259433
0.0021867 -0.000559445 5.30938e-06
-0.000559445 0.000489564 1.11397e-06
5.30938e-06 1.11397e-06 0.000226903
0.00298832 -0.000499913 -1.34865e-05
-0.000499913 0.00126513 4.47125e-06
-1.34865e-05 4.47125e-06 0.0009096
0.00129432 -0.000403156 -2.5438e-06
-0.000403156 0.000223656 -3.85752e-06
-2.5438e-06 -3.85752e-06 -0.000161838
0.00188369 -0.000533784 4.50212e-06
-0.000533784 0.000310494 -5.48644e-06
4.50212e-06 -5.48644e-06 9.75318e-06
0.00258288 -0.000520269 -3.75161e-06
-0.000520269 0.000868367 -1.65037e-06
-3.75161e-06 -1.65037e-06 0.00049507
0.001625 -0.000451343 9.2626e-08
-0.000451343 0.000300177 -3.47556e-06
9.2626e-08 -3.47556e-06 -5.16795e-05
0.00204215 -0.000463002 2.2954e-07
-0.000463002 0.000383309 -6.55907e-06
2.2954e-07 -6.55907e-06 0.000124831
0.00168966 -0.000361097 -3.00266e-06
-0.000361097 0.000131432 -3.25771e-06
-3.00266e-06 -3.25771e-06 -7.31645e-05
0.00161314 -0.000428885 1.843e-06
-0.000428885 0.000181986 -6.7063e-07
1.843e-06 -6.7063e-07 -8.07697e-05
0.00177308 -0.000432292 1.94258e-06
-0.000432292 0.000292469 -2.3754e-06
1.94258e-06 -2.3754e-06 2.9201e-05
0.00170448 -0.00037577 -3.77781e-07
-0.00037577 0.000369497 2.2753e-06
-3.77781e-07 2.2753e-06 0.00011476
0.0017727 -0.000442998 -1.90479e-06
-0.000442998 0.000368515 1.10882e-07
-1.90479e-06 1.10882e-07 8.18444e-05
0.00169614 -0.000450609 1.35938e-06
-0.000450609 0.00032681 -3.69903e-06
1.35938e-06 -3.69903e-06 1.28731e-05
0.00139778 -0.000283168 3.69891e-06
-0.000283168 0.000343481 1.18509e-06
3.69891e-06 1.18509e-06 0.000120597
0.000826164 -0.000249077 6.77091e-07
-0.000249077 -2.78433e-05 -3.09891e-07
6.77091e-07 -3.09891e-07 -0.000240864
0.00133861 -0.000304416 4.20937e-06
-0.000304416 0.000250423 -3.51401e-06
4.20937e-06 -3.51401e-06 2.13843e-05
0.000637972 -0.000175403 -1.78492e-07
-0.000175403 2.7124e-05 -2.08632e-08
-1.78492e-07 -2.08632e-08 -0.000163255
0.000909 -0.000212152 1.48016e-08
-0.000212152 0.000153927 -4.94472e-07
1.48016e-08 -4.94472e-07 -5.85983e-05
0.00087537 -0.00022419 -3.60695e-06
-0.00022419 8.92837e-05 -1.36446e-06
-3.60695e-06 -1.36446e-06 -0.00012023
0.000356437 2.10246e-05 6.48904e-07
2.10246e-05 -0.000112912 4.89728e-06
6.48904e-07 4.89728e-06 -0.000222524
0.000776345 -9.8633e-05 1.14223e-06
-9.8633e-05 0.000163075 6.6737e-07
1.14223e-06 6.6737e-07 -1.26509e-05
0.00105604 -0.000155884 -2.3959e-06
-0.000155884 0.000332013 5.52839e-07
-2.3959e-06 5.52839e-07 0.000139991
0.00142193 9.18413e-05 -1.62447e-05
9.18413e-05 0.000521209 4.66578e-06
-1.62447e-05 4.66578e-06 0.000487699
0.000672999 -3.00601e-06 -3.05562e-07
-3.00601e-06 6.4247e-05 -6.69333e-07
-3.05562e-07 -6.69333e-07 -1.9688e-05
0.00104222 -6.78764e-05 -1.95264e-06
-6.78764e-05 0.000317475 -1.69197e-06
-1.95264e-06 -1.69197e-06 0.000174856
0.000746333 4.95011e-05 -2.86552e-05
4.95011e-05 0.000110198 3.67376e-06
-2.86552e-05 3.67376e-06 0.000107981
0.000984747 7.23863e-05 -8.65761e-06
7.23863e-05 0.000249054 -5.69589e-08
-8.65761e-06 -5.69589e-08 0.000220681
0.000672981 7.17172e-06 1.08397e-06
7.17172e-06 5.49041e-05 -3.06214e-06
1.08397e-06 -3.06214e-06 -1.40894e-05
0.000554856 5.76252e-05 -5.99332e-07
5.76252e-05 -1.66832e-05 -5.15823e-06
-5.99332e-07 -5.15823e-06 -4.28879e-05
0.00243092 0.000101391 3.82958e-06
0.000101391 0.00111194 3.46386e-07
3.82958e-06 3.46386e-07 0.00111613
0.00237433 8.8437e-05 2.2708e-05
8.8437e-05 0.00107075 -3.86066e-06
2.2708e-05 -3.86066e-06 0.00107793
0.000705684 5.87045e-05 4.2452e-07
5.87045e-05 9.00077e-05 4.52663e-07
4.2452e-07 4.52663e-07 -3.17921e-05
0.000788802 7.55811e-05 2.96318e-07
7.55811e-05 0.000156523 -1.95958e-06
2.96318e-07 -1.95958e-06 3.20193e-05
0.000620541 4.61884e-05 -2.45717e-07
4.61884e-05 3.94968e-05 3.19067e-07
-2.45717e-07 3.19067e-07 -7.96752e-05
0.000644285 6.67993e-06 -3.31527e-07
6.67993e-06 3.42342e-05 -2.99616e-06
-3.31527e-07 -2.99616e-06 -3.89556e-05
0.00072709 6.26957e-05 5.87315e-07
6.26957e-05 0.000109946 3.5617e-08
5.87315e-07 3.5617e-08 -1.15325e-06
0.000550936 -2.31338e-05 -7.23746e-07
-2.31338e-05 -3.35551e-05 -5.51762e-06
-7.23746e-07 -5.51762e-06 -5.74204e-05
0.000618878 2.05115e-05 -2.46624e-08
2.05115e-05 2.00032e-05 -1.13807e-07
-2.46624e-08 -1.13807e-07 -4.81796e-05
0.000737525 6.73591e-05 -6.19648e-07
6.73591e-05 0.000132632 1.76029e-06
-6.19648e-07 1.76029e-06 1.44511e-05
0.0024832 -6.75605e-05 -2.71483e-05
-6.75605e-05 0.00112139 -4.50131e-06
-2.71483e-05 -4.50131e-06 0.00113259
0.000543048 -2.34236e-05 -4.41453e-07
-2.34236e-05 -4.2985e-05 -4.62978e-08
-4.41453e-07 -4.62978e-08 -6.2487e-05
0.00061047 2.8442e-05 2.90251e-07
2.8442e-05 1.51751e-05 2.55582e-06
2.90251e-07 2.55582e-06 -4.66543e-05
0.00235192 -5.18806e-05 -4.29761e-06
-5.18806e-05 0.0010386 2.2704e-07
-4.29761e-06 2.2704e-07 0.00105264
0.000546413 -1.91339e-05 -8.88322e-07
-1.91339e-05 -4.40905e-05 4.19264e-06
-8.88322e-07 4.19264e-06 -5.94953e-05
0.00222332 -3.56578e-05 1.58349e-05
-3.56578e-05 0.000958503 4.61671e-06
1.58349e-05 4.61671e-06 0.000975081
0.00445062 7.69579e-05 0.000101472
7.69579e-05 0.00177701 2.46749e-05
0.000101472 2.46749e-05 0.000634363
0.000375017 -7.25282e-05 -9.62012e-07
-7.25282e-05 2.38614e-05 3.93151e-07
-9.62012e-07 3.93151e-07 7.02025e-05
0.00133676 -7.75179e-05 -1.64986e-05
-7.75179e-05 -0.000397006 4.51821e-06
-1.64986e-05 4.51821e-06 -0.000114541
0.00053715 0.000103354 -5.73789e-06
0.000103354 -1.9526e-05 -1.54237e-06
-5.73789e-06 -1.54237e-06 -0.000144281
0.00082441 6.24374e-05 -7.15699e-07
6.24374e-05 0.000162191 3.91698e-07
-7.15699e-07 3.91698e-07 4.18567e-05
0.000524013 3.32915e-05 7.48332e-07
3.32915e-05 -3.51175e-05 3.82443e-09
7.48332e-07 3.82443e-09 -0.000150856
0.00080609 3.68051e-05 2.15127e-08
3.68051e-05 0.000137756 -1.08911e-07
2.15127e-08 -1.08911e-07 1.93747e-05
0.000760554 7.76193e-05 -6.50675e-07
7.76193e-05 0.000104283 7.61846e-08
-6.50675e-07 7.61846e-08 -1.48492e-05
0.00109795 0.000128836 7.11548e-07
0.000128836 0.000331525 -8.81964e-08
7.11548e-07 -8.81964e-08 0.00019389
0.000874043 0.000101668 -1.36536e-06
0.000101668 0.000176556 -6.16568e-06
-1.36536e-06 -6.16568e-06 2.414e-05
8.85478e-05 2.31025e-05 1.53004e-07
2.31025e-05 -0.00024546 -1.15576e-07
1.53004e-07 -1.15576e-07 -0.000378185
0.000805691 0.000115266 -1.55218e-06
0.000115266 0.000162529 1.33278e-06
-1.55218e-06 1.33278e-06 2.88595e-05
0.000449383 1.93213e-05 -2.75585e-06
1.93213e-05 -6.80421e-05 -2.30322e-06
-2.75585e-06 -2.30322e-06 -0.000180269
0.00056798 5.842e-05 -1.56857e-07
5.842e-05 3.66194e-05 8.99723e-07
-1.56857e-07 8.99723e-07 -9.71758e-05
0.00160416 0.000163107 8.63416e-06
0.000163107 0.000687332 6.12855e-06
8.63416e-06 6.12855e-06 0.000541033
0.00116052 -0.00089287 0.000119038
-0.00089287 0.00262425 0.000197392
0.000119038 0.000197392 0.000623782
0.00360559 0.000321084 2.41322e-05
0.000321084 0.00189974 8.25644e-05
2.41322e-05 8.25644e-05 -0.00114132
0.000812284 9.81556e-05 -2.16889e-05
9.81556e-05 0.00024986 -3.95999e-05
-2.16889e-05 -3.95999e-05 -0.00144687
0.00970702 -0.00194226 -0.000257146
-0.00194226 0.00136691 -0.000192036
-0.000257146 -0.000192036 0.00222492
0.0055908 -0.000691287 6.428e-05
-0.000691287 0.00138061 0.000241981
6.428e-05 0.000241981 3.16597e-05
0.000711603 -0.000822282 -9.95762e-05
-0.000822282 0.00188174 9.05018e-05
-9.95762e-05 9.05018e-05 -0.00285822
0.000980705 -0.000320003 8.70188e-06
-0.000320003 0.000136424 6.32707e-05
8.70188e-06 6.32707e-05 -0.000435884
0.00242262 -0.000122734 2.76916e-05
-0.000122734 0.000636684 5.19657e-05
2.76916e-05 5.19657e-05 0.000256167
0.000773344 -0.00253813 0.000122277
-0.00253813 -0.000591449 0.000135978
0.000122277 0.000135978 0.000742044
0.00480548 0.000908154 -9.21993e-06
0.000908154 0.00361339 -2.44591e-05
-9.21993e-06 -2.44591e-05 -0.000781706
0.00298977 -0.00130882 -4.05602e-05
-0.00130882 -0.000762412 5.15749e-05
-4.05602e-05 5.15749e-05 -0.00127545
0.000766966 0.000336302 -4.59365e-06
0.000336302 -2.58155e-05 4.75607e-05
-4.59365e-06 4.75607e-05 -0.000133047
0.00825534 0.00100594 -4.13666e-05
0.00100594 0.0038737 -1.71684e-05
-4.13666e-05 -1.71684e-05 0.00070501
0.00366336 -0.00215909 -0.000231584
-0.00215909 -5.91577e-06 -0.000206437
-0.000231584 -0.000206437 9.2184e-05
0.000924642 0.000325374 5.95214e-06
0.000325374 0.000224787 -1.28085e-05
5.95214e-06 -1.28085e-05 8.31338e-05
0.000644336 9.28606e-05 2.86454e-06
9.28606e-05 0.000149164 -4.81489e-07
2.86454e-06 -4.81489e-07 2.04643e-05
0.00047002 4.12495e-05 -3.13329e-06
4.12495e-05 8.30823e-06 -1.84476e-06
-3.13329e-06 -1.84476e-06 -0.000144401
-5.6592e-05 -7.35512e-05 -0.000167369
-7.35512e-05 0.0010035 -4.41159e-05
-0.000167369 -4.41159e-05 -0.000160363
-0.00213497 0.000141748 3.24163e-06
0.000141748 -0.00111494 -1.61108e-05
3.24163e-06 -1.61108e-05 -0.00141207
2.18428e-05 0.000104827 -3.9371e-06
0.000104827 -5.99473e-05 5.12962e-06
-3.9371e-06 5.12962e-06 -0.000269846
0.000556905 0.00030826 1.1512e-05
0.00030826 0.000254076 3.352e-06
1.1512e-05 3.352e-06 2.45642e-05
0.000770453 0.000261205 -1.8332e-06
0.000261205 0.00058094 -3.34844e-05
-1.8332e-06 -3.34844e-05 -0.000130753
-7.68507e-05 0.000504008 2.96077e-05
0.000504008 -0.000454019 7.56492e-06
2.96077e-05 7.56492e-06 -0.000800086
-0.00126945 0.000324456 0.000160337
0.000324456 0.00335293 5.58128e-06
0.000160337 5.58128e-06 0.000711665
0.00204656 -1.66196e-05 -5.98606e-06
-1.66196e-05 0.00123893 2.24072e-05
-5.98606e-06 2.24072e-05 -0.000296392
-3.28405e-05 -1.72156e-05 1.43842e-06
-1.72156e-05 0.000303058 1.64632e-05
1.43842e-06 1.64632e-05 -0.000126651
0.000205252 -0.000132665 -5.18815e-05
-0.000132665 0.00051453 4.46514e-06
-5.18815e-05 4.46514e-06 2.53081e-05
-0.000151056 -9.20472e-05 -6.08874e-05
-9.20472e-05 -0.000977456 2.03897e-05
-6.08874e-05 2.03897e-05 -0.000757255
0.00135983 -0.000117086 -9.40893e-05
-0.000117086 0.0002343 3.32117e-05
-9.40893e-05 3.32117e-05 -0.00136817
-0.0020438 -0.00142825 7.16568e-05
-0.00142825 -1.6146e-05 -9.84121e-05
7.16568e-05 -9.84121e-05 -0.00407823
-0.00110381 0.00180154 0.000196219
0.00180154 -0.00337732 -0.000180737
0.000196219 -0.000180737 -0.00294757
0.00266395 0.000834788 -0.00020242
0.000834788 0.00346834 0.000162755
-0.00020242 0.000162755 0.00226698
0.00156932 -0.000191239 -7.79872e-06
-0.000191239 0.000573056 -1.23526e-06
-7.79872e-06 -1.23526e-06 0.000604523
0.00152367 0.00018798 3.24465e-05
0.00018798 0.00364043 7.14517e-06
3.24465e-05 7.14517e-06 0.00214474
-0.00344442 0.00127611 2.66225e-05
0.00127611 -0.000845391 1.48853e-05
2.66225e-05 1.48853e-05 -0.00232511
0.00368308 -0.0011267 4.46628e-05
-0.0011267 0.00130364 -1.28705e-05
4.46628e-05 -1.28705e-05 0.000698452
0.0113888 -0.000849895 1.61338e-05
-0.000849895 0.00365826 -1.1568e-05
1.61338e-05 -1.1568e-05 0.00173605
0.00298164 -0.000666045 -1.10386e-05
-0.000666045 0.000972641 2.3644e-05
-1.10386e-05 2.3644e-05 0.000993898
-0.00827177 0.000488703 -0.000215772
0.000488703 -0.00373578 7.49126e-06
-0.000215772 7.49126e-06 -0.00468113
0.0123545 -0.000481261 -9.48369e-05
-0.000481261 0.00318109 2.93821e-05
-9.48369e-05 2.93821e-05 0.00163052
0.00344346 -0.00125236 2.17566e-05
-0.00125236 -0.000105151 -2.48932e-05
2.17566e-05 -2.48932e-05 -0.000593376
0.000357689 -0.000222908 -1.33661e-05
-0.000222908 0.000192753 1.64961e-05
-1.33661e-05 1.64961e-05 -9.81084e-05
0.00158621 -0.000454281 -3.10843e-06
-0.000454281 0.000281441 1.45442e-06
-3.10843e-06 1.45442e-06 0.000240447
0.00313716 -0.000540066 1.14566e-05
-0.000540066 0.000915564 -4.52387e-06
1.14566e-05 -4.52387e-06 0.000833807
-0.00147381 -0.000118546 -4.52203e-06
-0.000118546 -0.00110528 1.27629e-06
-4.52203e-06 1.27629e-06 -0.00139835
0.00137385 -0.000474393 -5.30352e-06
-0.000474393 0.000104541 -3.24484e-06
-5.30352e-06 -3.24484e-06 -0.000165556
0.00226825 -0.000583026 3.73815e-06
-0.000583026 0.000383178 -5.60559e-07
3.73815e-06 -5.60559e-07 0.000157944
0.00136745 -0.000403679 -1.47844e-05
-0.000403679 0.000241077 -2.34416e-06
-1.47844e-05 -2.34416e-06 -0.000124129
0.00155283 -0.000495307 1.43814e-07
-0.000495307 0.000145724 3.26594e-07
1.43814e-07 3.26594e-07 -0.000156851
0.00161463 -0.000442397 4.09153e-07
-0.000442397 6.19409e-06 -5.45501e-06
4.09153e-07 -5.45501e-06 -0.000194439
0.00126343 -0.00042321 -3.78863e-06
-0.00042321 7.55408e-05 -5.01216e-07
-3.78863e-06 -5.01216e-07 -0.000262519
0.00162982 -0.000424548 -4.05355e-07
-0.000424548 0.000156091 6.61435e-07
-4.05355e-07 6.61435e-07 -9.53916e-05
0.00174943 -0.000356166 -1.81757e-06
-0.000356166 0.00010097 -5.08797e-06
-1.81757e-06 -5.08797e-06 -6.39459e-05
0.00163282 -0.000284949 -4.22051e-06
-0.000284949 4.70696e-05 -2.992e-06
-4.22051e-06 -2.992e-06 -9.80824e-05
0.00154248 -0.000348026 -3.02007e-06
-0.000348026 6.73598e-05 -2.13654e-06
-3.02007e-06 -2.13654e-06 -0.000142412
0.00163404 -0.000349221 9.90695e-07
-0.000349221 0.000106063 1.58655e-06
9.90695e-07 1.58655e-06 -9.33203e-05
0.00147459 -0.000370158 -2.32947e-06
-0.000370158 0.000149884 -6.95251e-07
-2.32947e-06 -6.95251e-07 -9.64394e-05
0.00165495 -0.000426864 1.64413e-06
-0.000426864 0.000216314 -2.77022e-07
1.64413e-06 -2.77022e-07 -4.37548e-05
0.00162551 -0.000418888 1.64835e-06
-0.000418888 0.000210749 1.67858e-07
1.64835e-06 1.67858e-07 -4.8607e-05
0.00144105 -0.000305247 -1.42796e-06
-0.000305247 0.000272169 1.29456e-06
-1.42796e-06 1.29456e-06 4.62094e-05
0.00148734 -0.000358418 1.3501e-06
-0.000358418 0.000246748 -7.04953e-07
1.3501e-06 -7.04953e-07 -4.99292e-06
0.00167193 -0.00043405 -2.31427e-06
-0.00043405 0.000328932 -1.80999e-06
-2.31427e-06 -1.80999e-06 3.86245e-05
0.000943103 -0.000213783 -1.31478e-06
-0.000213783 0.000123165 2.84576e-06
-1.31478e-06 2.84576e-06 -7.44752e-05
0.00118767 -0.000262765 1.25818e-06
-0.000262765 0.000214528 5.45098e-07
1.25818e-06 5.45098e-07 -4.11689e-06
0.00100361 -0.000261265 -1.11202e-06
-0.000261265 7.94421e-05 -3.78403e-06
-1.11202e-06 -3.78403e-06 -0.000132538
0.000701821 -8.24153e-05 -6.51788e-07
-8.24153e-05 7.79782e-05 5.45826e-06
-6.51788e-07 5.45826e-06 -6.53736e-05
0.000970752 -0.000183173 -7.0055e-08
-0.000183173 0.000221664 -7.4793e-08
-7.0055e-08 -7.4793e-08 2.85321e-05
0.000476847 -0.000168459 -4.09627e-06
-0.000168459 -9.93997e-05 -7.28935e-07
-4.09627e-06 -7.28935e-07 -0.000302629
0.000386035 4.19141e-05 1.96576e-08
4.19141e-05 -9.66426e-05 8.07821e-06
1.96576e-08 8.07821e-06 -0.00014169
0.000698472 -4.93589e-05 -6.55764e-07
-4.93589e-05 8.8858e-05 -5.0433e-07
-6.55764e-07 -5.0433e-07 -2.79178e-05
0.00122294 -0.000125697 8.79383e-07
-0.000125697 0.000431915 -1.50095e-06
8.79383e-07 -1.50095e-06 0.000247038
0.00265133 0.000143846 -6.61762e-06
0.000143846 0.00126082 1.90233e-06
-6.61762e-06 1.90233e-06 0.00125313
0.000522868 5.27221e-05 -3.47534e-07
5.27221e-05 -2.07559e-05 -2.37023e-07
-3.47534e-07 -2.37023e-07 -5.64299e-05
0.000805766 -2.60649e-05 2.16148e-06
-2.60649e-05 0.000141221 -4.20194e-06
2.16148e-06 -4.20194e-06 5.51086e-05
0.00252552 0.00011459 3.92849e-06
0.00011459 0.0011757 3.18986e-07
3.92849e-06 3.18986e-07 0.00117682
0.000561512 5.57189e-05 -1.31419e-07
5.57189e-05 -4.22915e-06 -5.6341e-06
-1.31419e-07 -5.6341e-06 -3.39921e-05
0.00248877 0.000103726 2.87394e-05
0.000103726 0.00114716 -3.33994e-06
2.87394e-05 -3.33994e-06 0.00115087
0.000891015 0.000122971 6.32794e-07
0.000122971 0.000192842 1.87901e-06
6.32794e-07 1.87901e-06 5.63217e-05
0.000777885 7.12559e-05 2.17661e-08
7.12559e-05 0.000135031 -8.33779e-08
2.17661e-08 -8.33779e-08 9.47808e-06
0.000808207 6.10434e-05 5.02368e-08
6.10434e-05 0.000172391 -2.62281e-06
5.02368e-08 -2.62281e-06 3.79552e-05
0.00065251 4.52878e-06 -7.79601e-07
4.52878e-06 4.34393e-05 -3.64838e-06
-7.79601e-07 -3.64838e-06 -3.58911e-05
0.000719692 4.50722e-05 3.17707e-07
4.50722e-05 0.00010799 2.38496e-07
3.17707e-07 2.38496e-07 -1.02384e-05
0.00057316 5.96285e-05 9.37799e-07
5.96285e-05 1.85687e-05 1.28472e-06
9.37799e-07 1.28472e-06 -0.000105944
0.000554925 -2.48093e-05 -1.27095e-06
-2.48093e-05 -2.70781e-05 -6.05982e-06
-1.27095e-06 -6.05982e-06 -5.51558e-05
0.00062695 1.28735e-05 -3.18668e-08
1.28735e-05 2.69508e-05 -7.8818e-08
-3.18668e-08 -7.8818e-08 -4.73056e-05
0.000695727 5.97124e-05 3.39655e-07
5.97124e-05 8.75187e-05 1.51212e-06
3.39655e-07 1.51212e-06 -1.92343e-05
0.00262155 -8.21836e-05 -3.49721e-05
-8.21836e-05 0.00120929 -4.24357e-06
-3.49721e-05 -4.24357e-06 0.00121758
0.000529799 -2.28492e-05 -3.27964e-07
-2.28492e-05 -4.65838e-05 -9.83735e-08
-3.27964e-07 -9.83735e-08 -7.00874e-05
0.000619676 2.33055e-05 3.02312e-07
2.33055e-05 2.12512e-05 2.88392e-06
3.02312e-07 2.88392e-06 -4.71963e-05
0.00245886 -6.65858e-05 -4.75948e-06
-6.65858e-05 0.0011064 2.9711e-07
-4.75948e-06 2.9711e-07 0.00111787
0.000536114 -2.36172e-05 -8.18495e-07
-2.36172e-05 -4.71152e-05 4.82572e-06
-8.18495e-07 4.82572e-06 -6.64386e-05
0.00231309 -5.03042e-05 2.00378e-05
-5.03042e-05 0.00101504 4.52361e-06
2.00378e-05 4.52361e-06 0.00102949
-0.00589327 0.00026911 -8.06257e-06
0.00026911 0.00134658 4.33105e-05
-8.06257e-06 4.33105e-05 -0.00151153
0.00432319 1.41601e-05 -3.41916e-06
1.41601e-05 0.00199032 5.61035e-06
-3.41916e-06 5.61035e-06 0.000824386
0.000413152 -7.56958e-05 -7.41043e-06
-7.56958e-05 3.96421e-08 -5.24319e-06
-7.41043e-06 -5.24319e-06 2.85597e-05
0.000484816 7.29096e-05 -1.34625e-06
7.29096e-05 -5.40463e-05 1.27047e-06
-1.34625e-06 1.27047e-06 -0.000172385
0.00220933 0.000320175 -4.3618e-07
0.000320175 0.000978854 3.40447e-06
-4.3618e-07 3.40447e-06 0.000797583
0.000725116 7.55343e-05 -3.62991e-06
7.55343e-05 8.52243e-05 -4.30847e-07
-3.62991e-06 -4.30847e-07 -4.60823e-05
0.0010342 3.98383e-05 -5.82902e-07
3.98383e-05 0.00026699 -1.26504e-06
-5.82902e-07 -1.26504e-06 0.000150613
0.0013285 0.000130986 2.48816e-06
0.000130986 0.000434901 4.1402e-07
2.48816e-06 4.1402e-07 0.000310526
0.000457368 5.00186e-05 -2.04773e-06
5.00186e-05 -6.16086e-05 2.85107e-06
-2.04773e-06 2.85107e-06 -0.000176916
0.000549731 6.79513e-05 -1.13822e-06
6.79513e-05 3.28146e-05 1.21027e-06
-1.13822e-06 1.21027e-06 -0.000111915
0.000715446 7.99675e-05 -1.50428e-06
7.99675e-05 8.44635e-05 -1.73402e-06
-1.50428e-06 -1.73402e-06 -6.05142e-05
0.000926944 0.000149666 1.39967e-06
0.000149666 0.000246657 -4.32056e-06
1.39967e-06 -4.32056e-06 6.4036e-05
0.000500441 0.000219447 1.97092e-06
0.000219447 -8.53513e-05 -3.02164e-06
1.97092e-06 -3.02164e-06 -0.000194228
0.000987304 8.65857e-05 -2.5221e-06
8.65857e-05 0.000289758 3.98263e-07
-2.5221e-06 3.98263e-07 0.000146
0.00109055 0.000143924 5.1433e-07
0.000143924 0.000391842 3.30291e-06
5.1433e-07 3.30291e-06 0.000243997
-0.00505067 -0.000949018 -0.000425256
-0.000949018 -0.00106019 -1.14666e-05
-0.000425256 -1.14666e-05 -0.00245265
-0.00312809 -0.000665323 0.000174548
-0.000665323 0.00156594 8.8559e-05
0.000174548 8.8559e-05 -0.000783767
0.00433514 0.00036409 -0.000151517
0.00036409 0.00201376 -7.587e-05
-0.000151517 -7.587e-05 -0.00111824
-0.00777987 -0.00260226 0.000599236
-0.00260226 -0.00305155 0.000468919
0.000599236 0.000468919 -0.00184382
0.0138221 -0.00154856 -5.30123e-05
-0.00154856 0.00423555 0.000142379
-5.30123e-05 0.000142379 0.00392517
-0.00145279 0.00106544 -2.30186e-06
0.00106544 0.000332626 -7.67806e-05
-2.30186e-06 -7.67806e-05 -0.00387423
0.00248389 -7.58083e-06 -0.000135857
-7.58083e-06 0.00105318 3.18886e-05
-0.000135857 3.18886e-05 0.000137763
0.00232211 0.000413542 -7.13932e-08
0.000413542 0.000774178 2.43278e-05
-7.13932e-08 2.43278e-05 0.000508508
0.00988468 -0.00170832 -0.000184557
-0.00170832 0.00466498 5.5505e-05
-0.000184557 5.5505e-05 0.00439318
-0.000179644 0.00111205 -1.36231e-05
0.00111205 0.000507887 -2.96267e-05
-1.36231e-05 -2.96267e-05 -0.00286247
0.00176234 0.000794557 -3.75099e-05
0.000794557 0.000321533 -6.08613e-05
-3.75099e-05 -6.08613e-05 0.000246273
0.00435132 0.00164818 -0.000189485
0.00164818 0.00022813 -0.000107103
-0.000189485 -0.000107103 -0.0021059
0.00224044 0.000643187 1.71386e-05
0.000643187 0.000619506 -2.11476e-05
1.71386e-05 -2.11476e-05 0.000383473
0.00082727 0.000297694 -4.43877e-06
0.000297694 0.000170719 6.04139e-07
-4.43877e-06 6.04139e-07 3.88185e-05
0.00122789 0.000101574 -5.75274e-06
0.000101574 0.000475176 4.24582e-06
-5.75274e-06 4.24582e-06 0.000356884
-0.00106458 0.000200276 -4.71725e-05
0.000200276 -0.00044136 -4.75601e-05
-4.71725e-05 -4.75601e-05 -0.00105858
0.00273147 0.000454479 -2.11202e-05
0.000454479 0.00138073 -1.52777e-05
-2.11202e-05 -1.52777e-05 0.00114904
0.00122828 0.000621993 1.32936e-05
0.000621993 0.000155506 -3.95607e-06
1.32936e-05 -3.95607e-06 -0.000192586
0.00312097 0.000992428 0.000102426
0.000992428 0.00048374 3.27254e-05
0.000102426 3.27254e-05 0.000352612
-0.00473594 -9.22197e-05 -0.0002914
-9.22197e-05 -0.00377195 4.31788e-06
-0.0002914 4.31788e-06 -0.00261411
-0.00335007 0.000188162 0.000139014
0.000188162 0.00268282 2.47776e-06
0.000139014 2.47776e-06 -9.32968e-05
0.00213902 -5.39146e-05 -7.14592e-05
-5.39146e-05 0.00134213 2.97644e-05
-7.14592e-05 2.97644e-05 0.000153093
0.00268319 -0.000313655 -5.92022e-05
-0.000313655 0.000999903 -3.69863e-05
-5.92022e-05 -3.69863e-05 0.00101158
0.0014412 -0.000955746 -2.22566e-05
-0.000955746 -4.82455e-05 1.58497e-05
-2.22566e-05 1.58497e-05 -0.000470324
0.00160085 0.000136051 -2.03235e-05
0.000136051 0.00360299 3.31e-05
-2.03235e-05 3.31e-05 0.00224312
0.00278759 -0.000965411 0.000176797
-0.000965411 9.93537e-05 -0.000131033
0.000176797 -0.000131033 -0.00238561
0.0109288 0.00124192 0.000147705
0.00124192 0.00513376 -8.3536e-07
0.000147705 -8.3536e-07 0.00424767
0.00274672 -0.000795024 -2.1191e-05
-0.000795024 0.000699692 7.7578e-06
-2.1191e-05 7.7578e-06 0.000559691
-0.000517381 0.000589125 8.44008e-05
0.000589125 -0.000464229 -2.0972e-05
8.44008e-05 -2.0972e-05 -0.00108574
0.00485845 -0.000450031 -5.65836e-05
-0.000450031 -0.000491848 5.8025e-05
-5.65836e-05 5.8025e-05 -0.00264531
0.0057854 -0.00138589 -3.45831e-05
-0.00138589 0.00115542 1.57292e-05
-3.45831e-05 1.57292e-05 0.000624043
0.00123249 -0.000535493 4.48898e-05
-0.000535493 -9.66748e-05 -1.17551e-05
4.48898e-05 -1.17551e-05 -0.000290442
0.0103306 -0.000459899 1.16461e-05
-0.000459899 0.00244438 -2.88212e-05
1.16461e-05 -2.88212e-05 0.000941002
0.00376028 -0.00073456 7.2303e-05
-0.00073456 -0.00055958 -4.25572e-05
7.2303e-05 -4.25572e-05 -0.000427611
-0.000725303 -0.000281625 -2.28037e-05
-0.000281625 -0.00102668 9.50641e-06
-2.28037e-05 9.50641e-06 -0.000971625
0.00046517 -0.000360583 -9.43057e-06
-0.000360583 -0.000535652 -1.23714e-06
-9.43057e-06 -1.23714e-06 -0.000554992
0.00347223 -0.000575078 3.10077e-05
-0.000575078 0.00088106 -1.76021e-05
3.10077e-05 -1.76021e-05 0.000829999
0.000366952 -0.00037104 -1.381e-05
-0.00037104 -0.000387739 -7.2216e-06
-1.381e-05 -7.2216e-06 -0.000658035
0.00174235 -0.000532307 -2.28728e-08
-0.000532307 0.000117232 -4.51472e-07
-2.28728e-08 -4.51472e-07 -9.57638e-05
0.00217632 -0.000484421 -9.6937e-07
-0.000484421 0.00017373 -6.35378e-07
-9.6937e-07 -6.35378e-07 3.66961e-05
0.00148428 -0.000478966 -2.4456e-06
-0.000478966 0.000115409 3.92603e-06
-2.4456e-06 3.92603e-06 -0.000190079
0.00183871 -0.000457469 -2.05477e-06
-0.000457469 0.000127233 6.61398e-07
-2.05477e-06 6.61398e-07 -7.75463e-05
0.00186746 -0.000356471 -3.42435e-07
-0.000356471 6.16008e-05 -1.10144e-06
-3.42435e-07 -1.10144e-06 -6.16621e-05
0.00126777 -0.000389357 4.02357e-06
-0.000389357 -4.313e-05 4.37996e-06
4.02357e-06 4.37996e-06 -0.000287973
0.00172154 -0.000347726 -1.20227e-07
-0.000347726 9.28735e-05 9.04267e-07
-1.20227e-07 9.04267e-07 -7.02204e-05
0.00179078 -0.000293977 -3.53991e-06
-0.000293977 8.03618e-05 -1.30798e-06
-3.53991e-06 -1.30798e-06 -3.27065e-05
0.00196601 -0.000277726 -2.75765e-06
-0.000277726 0.000245821 -5.29328e-07
-2.75765e-06 -5.29328e-07 0.000129196
0.00170775 -0.000287127 -2.51263e-06
-0.000287127 8.6326e-05 3.13565e-06
-2.51263e-06 3.13565e-06 -5.42846e-05
0.00175077 -0.000300902 -1.42683e-06
-0.000300902 0.000149807 -5.44168e-06
-1.42683e-06 -5.44168e-06 -1.04038e-05
0.00167002 -0.000346142 -4.05753e-06
-0.000346142 0.000178742 -1.87749e-06
-4.05753e-06 -1.87749e-06 -3.39673e-05
0.00167611 -0.000356923 1.22041e-06
-0.000356923 0.000144765 4.33835e-07
1.22041e-06 4.33835e-07 -6.57257e-05
0.0015863 -0.000337762 3.43195e-06
-0.000337762 8.44654e-05 5.82101e-06
3.43195e-06 5.82101e-06 -0.000109705
0.0014581 -0.000318582 -6.26548e-06
-0.000318582 0.000203906 1.82767e-06
-6.26548e-06 1.82767e-06 -2.09996e-05
0.00146321 -0.000369837 -4.24768e-07
-0.000369837 0.00013964 2.76298e-07
-4.24768e-07 2.76298e-07 -0.000106528
0.00170159 -0.000425842 2.26544e-06
-0.000425842 0.00025263 4.36366e-07
2.26544e-06 4.36366e-07 -5.0061e-06
0.00114606 -0.000241769 -4.19e-06
-0.000241769 0.000161639 3.45092e-06
-4.19e-06 3.45092e-06 -4.30621e-05
0.00130662 -0.000294599 1.64129e-07
-0.000294599 0.000190745 2.37824e-07
1.64129e-07 2.37824e-07 -3.43591e-05
0.00128445 -0.000342629 2.25667e-06
-0.000342629 0.000131276 -2.40869e-06
2.25667e-06 -2.40869e-06 -0.000117229
0.000801746 -0.000150156 -5.30114e-06
-0.000150156 9.86433e-05 4.97667e-06
-5.30114e-06 4.97667e-06 -6.30427e-05
0.00108806 -0.000227055 9.37531e-07
-0.000227055 0.000208465 -2.28587e-07
9.37531e-07 -2.28587e-07 8.41013e-06
0.000994053 -0.000244725 1.21077e-06
-0.000244725 9.54073e-05 -1.60962e-06
1.21077e-06 -1.60962e-06 -0.000119741
0.000367078 -1.24145e-05 -5.30757e-06
-1.24145e-05 -0.000125762 1.09161e-05
-5.30757e-06 1.09161e-05 -0.000180413
0.000712593 -0.00010836 5.06911e-07
-0.00010836 8.79344e-05 6.21538e-07
5.06911e-07 6.21538e-07 -6.23819e-05
0.00130103 -0.000202696 2.9063e-07
-0.000202696 0.000416366 -1.37653e-06
2.9063e-07 -1.37653e-06 0.000217412
0.00302385 0.000151845 -4.86575e-05
0.000151845 0.00148596 2.3898e-06
-4.86575e-05 2.3898e-06 0.0014772
0.000529099 2.7446e-05 -2.57757e-07
2.7446e-05 -1.78081e-05 -6.32258e-07
-2.57757e-07 -6.32258e-07 -6.19839e-05
0.00100838 -9.73539e-05 2.40778e-06
-9.73539e-05 0.000273512 -5.00694e-06
2.40778e-06 -5.00694e-06 0.000149543
0.00181167 0.000102538 2.32558e-05
0.000102538 0.000755274 3.64153e-07
2.32558e-05 3.64153e-07 0.000748625
0.000612194 4.57321e-05 1.49296e-06
4.57321e-05 2.99434e-05 -6.76976e-06
1.49296e-06 -6.76976e-06 -4.88524e-06
0.00262901 0.000117075 3.86251e-05
0.000117075 0.00123743 -2.75161e-06
3.86251e-05 -2.75161e-06 0.00123815
0.000902289 0.000133785 3.27939e-06
0.000133785 0.00017791 8.87575e-07
3.27939e-06 8.87575e-07 4.33357e-05
0.000578741 7.23251e-05 -1.93129e-07
7.23251e-05 2.8145e-06 2.65251e-07
-1.93129e-07 2.65251e-07 -0.000120348
0.000648876 4.89479e-05 -4.39311e-07
4.89479e-05 5.54219e-05 -1.5693e-06
-4.39311e-07 -1.5693e-06 -6.96153e-05
0.000918919 9.39338e-05 6.16601e-07
9.39338e-05 0.000221706 6.41725e-07
6.16601e-07 6.41725e-07 9.06755e-05
0.000709214 3.69655e-05 2.09266e-07
3.69655e-05 9.37375e-05 5.75537e-08
2.09266e-07 5.75537e-08 -2.50682e-05
0.000665605 8.12033e-06 -1.17055e-06
8.12033e-06 5.30214e-05 -4.32547e-06
-1.17055e-06 -4.32547e-06 -3.30714e-05
0.000562618 -2.60981e-05 -1.93691e-06
-2.60981e-05 -1.63467e-05 -6.85766e-06
-1.93691e-06 -6.85766e-06 -4.86724e-05
0.000620788 5.50635e-06 2.32718e-07
5.50635e-06 2.60661e-05 -7.24707e-08
2.32718e-07 -7.24707e-08 -5.38748e-05
0.000639648 1.73341e-05 -2.97001e-07
1.73341e-05 4.0823e-05 1.80605e-06
-2.97001e-07 1.80605e-06 -6.24591e-05
0.00272476 -9.56687e-05 -4.37356e-05
-9.56687e-05 0.00127724 -3.91398e-06
-4.37356e-05 -3.91398e-06 0.00128272
0.000525954 -2.16684e-05 -1.08443e-07
-2.16684e-05 -4.37268e-05 -7.63717e-08
-1.08443e-07 -7.63717e-08 -7.14943e-05
0.000604651 1.74629e-05 7.15523e-07
1.74629e-05 1.70883e-05 3.12902e-06
7.15523e-07 3.12902e-06 -5.85276e-05
0.00258887 -8.16025e-05 -5.06377e-06
-8.16025e-05 0.00118931 3.39837e-07
-5.06377e-06 3.39837e-07 0.00119778
0.000517439 -2.70271e-05 -2.94827e-07
-2.70271e-05 -5.3631e-05 5.43508e-06
-2.94827e-07 5.43508e-06 -7.72095e-05
0.00246175 -6.59067e-05 2.5028e-05
-6.59067e-05 0.00110768 4.44724e-06
2.5028e-05 4.44724e-06 0.00111928
0.000129164 0.00032197 -0.000231665
0.00032197 0.00176036 2.36212e-05
-0.000231665 2.36212e-05 0.000600717
-0.00278788 3.65986e-06 1.45702e-05
3.65986e-06 0.00200358 1.41116e-05
1.45702e-05 1.41116e-05 -0.000861003
0.00407692 -3.74297e-05 -7.20614e-05
-3.74297e-05 0.00213241 -7.40567e-06
-7.20614e-05 -7.40567e-06 0.000952246
0.000474812 4.29405e-05 2.5781e-06
4.29405e-05 -6.39013e-05 -1.92497e-06
2.5781e-06 -1.92497e-06 -0.000176416
0.000631495 5.06503e-05 2.48124e-06
5.06503e-05 2.62654e-05 9.37223e-07
2.48124e-06 9.37223e-07 -0.000108538
0.00154552 0.00025172 -1.49106e-06
0.00025172 0.0005926 9.26873e-07
-1.49106e-06 9.26873e-07 0.000427233
0.00140251 0.00028803 3.18166e-06
0.00028803 0.000423065 -2.17549e-06
3.18166e-06 -2.17549e-06 0.00020824
0.00105807 0.00019799 -6.73765e-06
0.00019799 0.000330387 -6.45276e-07
-6.73765e-06 -6.45276e-07 0.000155764
0.000907043 0.000117728 8.0437e-07
0.000117728 0.000245312 3.22978e-06
8.0437e-07 3.22978e-06 9.28122e-05
0.000778832 9.88976e-05 4.57389e-06
9.88976e-05 0.000129907 3.17676e-06
4.57389e-06 3.17676e-06 -1.46825e-05
0.000597242 0.000152413 -4.51089e-06
0.000152413 6.55765e-05 -3.41129e-06
-4.51089e-06 -3.41129e-06 -0.000110908
-0.000477458 0.000129419 1.86657e-07
0.000129419 -0.000617354 -5.42704e-07
1.86657e-07 -5.42704e-07 -0.000792962
0.00155826 0.00032549 3.00721e-06
0.00032549 0.000444137 -2.39888e-06
3.00721e-06 -2.39888e-06 0.00031645
0.00204868 0.000546354 3.98494e-06
0.000546354 0.0004385 -8.46618e-06
3.98494e-06 -8.46618e-06 0.000233017
0.000772194 0.00024799 -5.94815e-06
0.00024799 8.41609e-05 -5.94491e-07
-5.94815e-06 -5.94491e-07 -3.59257e-05
0.000693536 9.98412e-05 -1.11602e-06
9.98412e-05 0.000113647 -2.41592e-06
-1.11602e-06 -2.41592e-06 -2.16217e-05
0.0112755 0.000900119 -9.6211e-05
0.000900119 0.00272442 3.78538e-05
-9.6211e-05 3.78538e-05 0.00126874
-0.00014635 -0.000756481 -0.000201727
-0.000756481 0.00210694 -6.82023e-05
-0.000201727 -6.82023e-05 0.000621948
-0.00130628 -0.00106591 0.000113606
-0.00106591 0.00161291 -3.41816e-06
0.000113606 -3.41816e-06 -0.000759469
-0.00131771 -0.000944262 3.53183e-05
-0.000944262 -0.000251591 0.000160771
3.53183e-05 0.000160771 -0.000595147
0.0111994 0.00121336 -1.20312e-06
0.00121336 0.00495713 1.20872e-06
-1.20312e-06 1.20872e-06 0.00170009
8.71052e-05 0.000306938 -3.30524e-05
0.000306938 -0.000322049 -2.5354e-05
-3.30524e-05 -2.5354e-05 -0.000486026
0.00158602 0.000752212 -2.29614e-05
0.000752212 0.000305159 -1.19271e-05
-2.29614e-05 -1.19271e-05 0.000238207
0.0106124 0.00108454 2.6133e-05
0.00108454 0.00338378 2.30218e-05
2.6133e-05 2.30218e-05 0.00141058
0.00579167 0.0015475 -4.29327e-05
0.0015475 0.000901134 -4.91521e-05
-4.29327e-05 -4.91521e-05 0.000488677
0.0016758 0.000660096 2.99451e-06
0.000660096 0.000172802 -6.59994e-06
2.99451e-06 -6.59994e-06 -3.33113e-07
0.00109714 0.000489984 5.90975e-06
0.000489984 0.000142836 -7.60381e-07
5.90975e-06 -7.60381e-07 -7.74975e-05
0.000874418 0.000272172 -1.72211e-05
0.000272172 0.000211874 1.75536e-05
-1.72211e-05 1.75536e-05 8.99159e-05
0.00270625 0.000792093 -4.58777e-05
0.000792093 0.000790027 -1.9894e-05
-4.58777e-05 -1.9894e-05 0.000456564
0.0021169 0.000905951 1.50193e-07
0.000905951 -0.000136069 1.94769e-05
1.50193e-07 1.94769e-05 -0.00027332
0.000952833 -0.000349138 -3.6011e-05
-0.000349138 -0.00321151 2.08038e-05
-3.6011e-05 2.08038e-05 -0.00344323
0.0021536 -0.000502351 -7.49212e-07
-0.000502351 0.00127831 -2.24339e-05
-7.49212e-07 -2.24339e-05 0.00135875
-0.00553744 3.023e-05 0.000164026
3.023e-05 0.00212133 -4.75146e-06
0.000164026 -4.75146e-06 -0.000822733
0.00178697 -0.00081606 -3.04787e-05
-0.00081606 9.95565e-05 7.90904e-06
-3.04787e-05 7.90904e-06 -0.000127851
0.00331923 -0.00123808 3.0252e-05
-0.00123808 0.000521096 -5.40673e-06
3.0252e-05 -5.40673e-06 -0.000315167
0.00123393 -0.000296148 0.000265502
-0.000296148 0.00205591 -1.84197e-05
0.000265502 -1.84197e-05 0.00110959
0.0127082 -0.000556109 -0.000140862
-0.000556109 0.00358133 6.79579e-05
-0.000140862 6.79579e-05 0.0019741
0.000909211 -0.000542596 -2.82179e-05
-0.000542596 -0.000307943 -3.81913e-06
-2.82179e-05 -3.81913e-06 -0.000445128
0.00873893 5.54885e-05 -6.52764e-05
5.54885e-05 0.0010623 3.02226e-05
-6.52764e-05 3.02226e-05 1.04902e-05
0.00471498 -0.000805239 7.71465e-05
-0.000805239 -0.000117977 6.05643e-06
7.71465e-05 6.05643e-06 -0.000375774
0.00364113 -0.000570169 5.30276e-05
-0.000570169 0.00102805 -1.29664e-05
5.30276e-05 -1.29664e-05 0.000716602
0.00336564 -0.000295645 -9.26768e-05
-0.000295645 -6.84425e-05 6.56313e-06
-9.26768e-05 6.56313e-06 -1.40172e-05
-0.00174598 -0.000223483 -1.44318e-05
-0.000223483 -0.00175636 4.0546e-06
-1.44318e-05 4.0546e-06 -0.0017157
0.00152506 -0.000458914 -5.36026e-07
-0.000458914 -0.000157825 -6.14975e-07
-5.36026e-07 -6.14975e-07 -0.000181709
0.0024032 -0.000402541 1.69511e-05
-0.000402541 0.000172886 -9.26435e-06
1.69511e-05 -9.26435e-06 0.000205372
0.00120048 -0.000483792 -2.61703e-06
-0.000483792 -0.000155424 2.78283e-06
-2.61703e-06 2.78283e-06 -0.000358415
0.00181446 -0.000449038 -2.02121e-06
-0.000449038 2.41479e-06 4.7356e-07
-2.02121e-06 4.7356e-07 -0.00013113
0.00202463 -0.000353045 1.74698e-06
-0.000353045 1.94489e-05 1.13354e-06
1.74698e-06 1.13354e-06 -3.18261e-05
0.00187077 -0.000456803 -4.04368e-06
-0.000456803 0.000148232 6.18556e-06
-4.04368e-06 6.18556e-06 -5.88838e-05
0.00186582 -0.000355624 3.52226e-07
-0.000355624 6.12758e-05 1.69634e-06
3.52226e-07 1.69634e-06 -6.03563e-05
0.0018515 -0.00031389 -4.87599e-07
-0.00031389 5.83703e-05 1.86254e-06
-4.87599e-07 1.86254e-06 -2.70206e-05
0.00168679 -0.000339996 3.85267e-06
-0.000339996 7.94749e-05 5.53641e-06
3.85267e-06 5.53641e-06 -8.2018e-05
0.00176607 -0.00029548 -4.05756e-07
-0.00029548 6.47983e-05 1.36724e-06
-4.05756e-07 1.36724e-06 -4.92943e-05
0.00201262 -0.000298559 -1.07534e-06
-0.000298559 0.00022042 4.92349e-07
-1.07534e-06 4.92349e-07 0.000118043
0.00183329 -0.000272536 -3.98753e-06
-0.000272536 0.000159558 3.47966e-06
-3.98753e-06 3.47966e-06 4.66515e-05
0.0018657 -0.000284041 1.45571e-06
-0.000284041 0.00020884 -3.1333e-06
1.45571e-06 -3.1333e-06 7.81433e-05
0.00178261 -0.000289834 2.74263e-06
-0.000289834 0.000125659 7.75242e-06
2.74263e-06 7.75242e-06 -1.05642e-05
0.00175406 -0.000302395 3.38159e-07
-0.000302395 0.000150856 -8.09269e-07
3.38159e-07 -8.09269e-07 -1.00133e-05
0.00168828 -0.000299426 -1.52088e-06
-0.000299426 0.000148034 -3.28447e-06
-1.52088e-06 -3.28447e-06 -2.92795e-05
0.00155956 -0.000308009 -5.2677e-06
-0.000308009 0.000184646 -5.61611e-07
-5.2677e-06 -5.61611e-07 -2.38919e-05
0.00171128 -0.000349709 3.06519e-07
-0.000349709 0.000204275 -3.17669e-07
3.06519e-07 -3.17669e-07 -9.68565e-06
0.00180515 -0.000365666 4.0166e-06
-0.000365666 0.00022008 2.72078e-06
4.0166e-06 2.72078e-06 8.86049e-06
0.00113412 -0.000237912 -7.00151e-06
-0.000237912 8.27053e-05 2.42092e-06
-7.00151e-06 2.42092e-06 -0.000113499
0.00135675 -0.000309033 -8.90645e-07
-0.000309033 0.000146592 3.13255e-07
-8.90645e-07 3.13255e-07 -7.73543e-05
0.00144299 -0.000368338 2.6874e-06
-0.000368338 0.000124487 3.70008e-07
2.6874e-06 3.70008e-07 -0.000121282
0.000817024 -0.000165257 -7.23645e-06
-0.000165257 4.09254e-05 6.49709e-06
-7.23645e-06 6.49709e-06 -0.000122808
0.00113329 -0.000240586 8.53053e-07
-0.000240586 0.000153233 4.65528e-07
8.53053e-07 4.65528e-07 -5.13493e-05
0.00111952 -0.000277875 3.00759e-06
-0.000277875 8.04241e-05 -1.51169e-06
3.00759e-06 -1.51169e-06 -0.00014251
0.000399152 -8.32398e-05 -1.49982e-05
-8.32398e-05 -0.000132782 1.27807e-05
-1.49982e-05 1.27807e-05 -0.000199261
0.000789879 -0.000163632 -4.82645e-07
-0.000163632 9.10222e-05 2.86716e-07
-4.82645e-07 2.86716e-07 -7.25038e-05
0.00113752 -0.000226946 1.83118e-06
-0.000226946 0.000237764 -2.00516e-06
1.83118e-06 -2.00516e-06 3.83585e-05
0.0037014 0.00017096 -7.74215e-05
0.00017096 0.00189064 2.72622e-06
-7.74215e-05 2.72622e-06 0.00187741
0.000545644 -3.21166e-05 1.12594e-06
-3.21166e-05 -2.451e-05 -3.58839e-07
1.12594e-06 -3.58839e-07 -8.05574e-05
0.000863755 -0.000155681 4.84707e-06
-0.000155681 0.000178272 -4.67013e-06
4.84707e-06 -4.67013e-06 2.13311e-05
0.00322756 0.000143435 9.21314e-06
0.000143435 0.00160324 3.91308e-07
9.21314e-06 3.91308e-07 0.00159736
0.000677656 9.70338e-06 6.14779e-06
9.70338e-06 6.44601e-05 -9.04254e-06
6.14779e-06 -9.04254e-06 2.06248e-05
0.00288511 0.000124527 5.99626e-05
0.000124527 0.00139374 -2.14769e-06
5.99626e-05 -2.14769e-06 0.00139312
0.00122451 0.000245784 4.2572e-06
0.000245784 0.000321069 -4.21513e-06
4.2572e-06 -4.21513e-06 0.000120765
0.000838793 0.00015814 1.16796e-06
0.00015814 0.000150155 -1.77801e-07
1.16796e-06 -1.77801e-07 7.34315e-06
0.000423991 5.52648e-05 4.06843e-07
5.52648e-05 -8.69117e-05 -7.5846e-07
4.06843e-07 -7.5846e-07 -0.000217586
0.000263714 3.2719e-05 2.23446e-08
3.2719e-05 -0.000182121 -5.13417e-07
2.23446e-08 -5.13417e-07 -0.000297111
0.000519713 2.20969e-05 -3.07592e-07
2.20969e-05 -2.42507e-05 6.72105e-07
-3.07592e-07 6.72105e-07 -0.000145836
0.000664013 1.50624e-05 -1.48332e-06
1.50624e-05 5.14324e-05 -4.43443e-06
-1.48332e-06 -4.43443e-06 -4.36524e-05
0.000613187 1.56551e-05 2.27374e-07
1.56551e-05 2.74539e-05 2.09914e-06
2.27374e-07 2.09914e-06 -8.29826e-05
0.000612142 1.54635e-06 3.22324e-07
1.54635e-06 2.33139e-05 -2.13655e-07
3.22324e-07 -2.13655e-07 -6.28743e-05
0.000567071 -2.89204e-05 -2.43001e-06
-2.89204e-05 -7.06703e-06 -7.69076e-06
-2.43001e-06 -7.69076e-06 -4.36332e-05
0.00285532 -0.000110087 -5.24398e-05
-0.000110087 0.00136322 -3.44201e-06
-5.24398e-05 -3.44201e-06 0.00136549
0.00052043 -2.39413e-05 1.30852e-07
-2.39413e-05 -4.12158e-05 -2.62725e-08
1.30852e-07 -2.62725e-08 -7.31507e-05
0.000584738 6.61952e-06 1.12447e-06
6.61952e-06 6.04949e-06 3.73465e-06
1.12447e-06 3.73465e-06 -7.43069e-05
0.00273696 -9.66648e-05 -5.41337e-06
-9.66648e-05 0.00128425 4.16008e-07
-5.41337e-06 4.16008e-07 0.00128943
0.000496134 -2.09106e-05 1.19907e-06
-2.09106e-05 -6.08147e-05 6.02894e-06
1.19907e-06 6.02894e-06 -8.84093e-05
0.00256702 -8.08525e-05 3.10008e-05
-8.08525e-05 0.00117557 4.28898e-06
3.10008e-05 4.28898e-06 0.00118426
0.0115394 0.000535586 0.000210254
0.000535586 0.00263944 5.8417e-05
0.000210254 5.8417e-05 0.00173521
-0.00326715 -0.000971145 -0.000144192
-0.000971145 -0.00250141 -2.01439e-05
-0.000144192 -2.01439e-05 -0.00280705
-0.00566999 0.000437188 -7.58563e-05
0.000437188 0.000775914 -4.09847e-05
-7.58563e-05 -4.09847e-05 -0.00266201
0.00063547 2.72142e-05 1.00021e-05
2.72142e-05 2.23735e-05 1.4592e-06
1.00021e-05 1.4592e-06 -0.000114996
0.000954692 0.000196746 -3.50637e-06
0.000196746 0.000248266 1.21592e-06
-3.50637e-06 1.21592e-06 9.74757e-05
0.00133759 0.000219492 -3.46549e-07
0.000219492 0.000480746 -9.06245e-07
-3.46549e-07 -9.06245e-07 0.000303608
0.00134789 0.000280216 -4.26209e-06
0.000280216 0.000400609 1.16516e-06
-4.26209e-06 1.16516e-06 0.00018884
0.000926332 0.000281385 1.34769e-05
0.000281385 6.91964e-06 1.66735e-06
1.34769e-05 1.66735e-06 -0.000230831
0.000154255 0.000179661 2.17244e-07
0.000179661 -0.000257056 -2.53605e-06
2.17244e-07 -2.53605e-06 -0.000442359
0.000327626 0.000141127 -2.91329e-06
0.000141127 -7.54061e-05 -2.57235e-06
-2.91329e-06 -2.57235e-06 -0.000247935
0.000288405 0.000210546 1.23687e-06
0.000210546 -0.000201248 1.77861e-06
1.23687e-06 1.77861e-06 -0.000401021
0.00107136 0.000297017 3.51879e-07
0.000297017 0.000187291 7.8619e-07
3.51879e-07 7.8619e-07 5.53032e-05
0.000745827 0.000323051 5.53183e-06
0.000323051 -0.000105699 1.84725e-06
5.53183e-06 1.84725e-06 -0.000293394
0.00326347 0.000611363 -3.22982e-06
0.000611363 0.00108065 -3.31644e-06
-3.22982e-06 -3.31644e-06 0.000893157
0.00206403 0.000575827 -4.43378e-06
0.000575827 0.000364383 4.98012e-06
-4.43378e-06 4.98012e-06 0.000173901
0.00146704 0.000494427 3.84477e-06
0.000494427 0.000139481 -3.09468e-06
3.84477e-06 -3.09468e-06 -4.6878e-05
0.000349347 0.000232066 -2.7169e-06
0.000232066 -0.000142432 2.13082e-06
-2.7169e-06 2.13082e-06 -0.000267215
0.0057606 0.00069872 -1.57013e-05
0.00069872 0.00032353 9.94642e-06
-1.57013e-05 9.94642e-06 0.000602474
0.00977414 0.000756596 0.000101405
0.000756596 0.00187749 5.19361e-05
0.000101405 5.19361e-05 0.000285113
0.00557605 -0.00150398 0.000109663
-0.00150398 0.00316528 -5.74537e-05
0.000109663 -5.74537e-05 0.00231446
0.00383911 0.00151419 0.000346786
0.00151419 -6.20273e-05 0.000163548
0.000346786 0.000163548 -0.00346351
0.00101801 0.000612908 -4.68518e-05
0.000612908 0.000114325 -3.09423e-06
-4.68518e-05 -3.09423e-06 0.000248819
0.00338621 0.00118422 -8.75156e-05
0.00118422 -7.82481e-05 -2.65841e-05
-8.75156e-05 -2.65841e-05 -0.00022698
0.00397033 0.000974628 4.26284e-05
0.000974628 0.000698885 2.05267e-05
4.26284e-05 2.05267e-05 0.0006503
0.00308348 0.000791965 9.14685e-06
0.000791965 0.000793887 6.23024e-06
9.14685e-06 6.23024e-06 0.000618595
0.000624799 0.000420014 -1.03793e-05
0.000420014 -5.4397e-05 1.86744e-05
-1.03793e-05 1.86744e-05 -0.000258542
0.00412346 0.00108341 -0.00012464
0.00108341 0.000808445 -2.76138e-05
-0.00012464 -2.76138e-05 0.000601764
0.00286853 -0.00023084 -5.90553e-05
-0.00023084 0.000336477 8.45603e-06
-5.90553e-05 8.45603e-06 0.000141207
0.0101067 -0.000298895 -1.1828e-05
-0.000298895 0.00255782 5.10533e-06
-1.1828e-05 5.10533e-06 0.00196797
-0.00948587 -0.000730045 0.000327958
-0.000730045 -0.00535201 -7.37552e-06
0.000327958 -7.37552e-06 -0.00498032
0.000408387 -0.000516169 -4.80023e-05
-0.000516169 -0.000641448 1.03853e-05
-4.80023e-05 1.03853e-05 -0.000723911
0.00701657 -0.00104778 0.000114501
-0.00104778 0.00094911 3.2543e-05
0.000114501 3.2543e-05 0.000811971
0.001424 -0.000375478 -2.48292e-05
-0.000375478 -0.00222656 5.94487e-05
-2.48292e-05 5.94487e-05 -0.0037304
0.00156301 -0.000410684 1.68416e-05
-0.000410684 -0.000140514 1.34974e-06
1.68416e-05 1.34974e-06 -0.000274879
0.00287872 -0.000172732 -8.14374e-06
-0.000172732 -0.00037777 5.0693e-06
-8.14374e-06 5.0693e-06 -0.000402164
0.00428929 -0.000417936 2.31092e-05
-0.000417936 0.00100577 -1.06517e-05
2.31092e-05 -1.06517e-05 0.00109447
0.00367371 -0.000109453 7.05557e-05
-0.000109453 0.000865429 1.72465e-06
7.05557e-05 1.72465e-06 0.000825418
-0.000340961 -0.000357577 -8.43271e-06
-0.000357577 -0.00116088 7.55932e-06
-8.43271e-06 7.55932e-06 -0.001152
0.00178979 -0.000375146 -2.9082e-07
-0.000375146 -0.000157697 5.39631e-07
-2.9082e-07 5.39631e-07 -0.000115185
0.00183275 -0.000262164 1.41139e-05
-0.000262164 -0.000198067 -2.8102e-06
1.41139e-05 -2.8102e-06 -8.20965e-05
0.00155305 -0.000422575 -2.08436e-07
-0.000422575 -0.000123226 1.76816e-06
-2.08436e-07 1.76816e-06 -0.000253945
0.00197032 -0.000352053 1.7374e-06
-0.000352053 -6.51863e-06 7.72642e-07
1.7374e-06 7.72642e-07 -5.86856e-05
0.00190931 -0.000288958 8.22463e-07
-0.000288958 3.16824e-05 1.00948e-06
8.22463e-07 1.00948e-06 5.7523e-06
0.00186447 -0.000354081 3.94032e-06
-0.000354081 6.08486e-05 3.7534e-06
3.94032e-06 3.7534e-06 -5.87438e-05
0.00186324 -0.000311262 7.82561e-07
-0.000311262 7.28444e-05 3.31818e-07
7.82561e-07 3.31818e-07 -1.1779e-05
0.00194081 -0.000280333 -2.50633e-06
-0.000280333 0.000135129 1.63432e-06
-2.50633e-06 1.63432e-06 5.59139e-05
0.00174681 -0.000296693 4.25272e-06
-0.000296693 5.282e-05 3.4784e-06
4.25272e-06 3.4784e-06 -6.21375e-05
0.00184024 -0.00029136 2.96603e-07
-0.00029136 0.000127878 5.15268e-07
2.96603e-07 5.15268e-07 2.53967e-05
0.00169861 -0.000272367 3.03899e-06
-0.000272367 8.06668e-05 -1.52694e-06
3.03899e-06 -1.52694e-06 -3.20575e-05
0.00170208 -0.00026747 -2.01528e-06
-0.00026747 7.42722e-05 6.93345e-06
-2.01528e-06 6.93345e-06 -3.49583e-05
0.00188573 -0.000281494 -2.20361e-06
-0.000281494 0.000217845 1.22848e-07
-2.20361e-06 1.22848e-07 9.08562e-05
0.00180522 -0.000277437 5.5435e-07
-0.000277437 0.000198519 -2.0019e-06
5.5435e-07 -2.0019e-06 4.53104e-05
0.00175715 -0.000303346 2.4478e-06
-0.000303346 0.00015168 3.70228e-06
2.4478e-06 3.70228e-06 -9.69227e-06
0.00172831 -0.000302659 5.31576e-07
-0.000302659 0.00017318 -6.25895e-07
5.31576e-07 -6.25895e-07 -5.25955e-06
0.00171589 -0.000280932 -2.13816e-06
-0.000280932 0.000229088 -1.43385e-06
-2.13816e-06 -1.43385e-06 4.47184e-05
0.00111977 -0.000224886 -8.96659e-06
-0.000224886 2.08513e-05 2.35879e-06
-8.96659e-06 2.35879e-06 -0.000165056
0.00157652 -0.000309687 -9.26909e-07
-0.000309687 0.000198441 -2.9784e-07
-9.26909e-07 -2.9784e-07 -1.10724e-05
0.00174853 -0.000352713 3.9745e-06
-0.000352713 0.000227808 8.82534e-07
3.9745e-06 8.82534e-07 1.26944e-05
0.000933067 -0.000180051 -1.05362e-05
-0.000180051 4.6697e-05 6.37546e-06
-1.05362e-05 6.37546e-06 -0.000114508
0.00118504 -0.000242801 -1.82954e-07
-0.000242801 0.000108078 2.63728e-07
-1.82954e-07 2.63728e-07 -8.90074e-05
0.00128302 -0.000302403 1.91982e-06
-0.000302403 0.000104038 -4.67768e-07
1.91982e-06 -4.67768e-07 -0.000119526
0.000438995 -0.000114836 -1.81329e-05
-0.000114836 -0.00013139 1.37741e-05
-1.81329e-05 1.37741e-05 -0.000208508
0.000846265 -0.000171802 5.72408e-07
-0.000171802 6.03434e-05 4.38314e-07
5.72408e-07 4.38314e-07 -0.000104784
0.00113684 -0.000241111 6.02371e-06
-0.000241111 0.000153675 -2.30783e-06
6.02371e-06 -2.30783e-06 -5.10443e-05
0.00447414 0.000181555 -0.00011722
0.000181555 0.0023507 5.39136e-06
-0.00011722 5.39136e-06 0.0023338
0.000567923 -8.88671e-05 1.75109e-07
-8.88671e-05 -3.39178e-05 -2.99248e-07
1.75109e-07 -2.99248e-07 -0.000104025
0.000795139 -0.000177395 6.67266e-06
-0.000177395 9.16553e-05 -5.94603e-06
6.67266e-06 -5.94603e-06 -7.30308e-05
0.00393075 0.000143009 8.99325e-06
0.000143009 0.00202021 4.36598e-07
8.99325e-06 4.36598e-07 0.0020136
0.000712894 -4.16792e-05 1.15076e-05
-4.16792e-05 7.09066e-05 -1.10366e-05
1.15076e-05 -1.10366e-05 1.35356e-05
0.00340815 0.000111757 0.000103007
0.000111757 0.00170379 -4.24389e-06
0.000103007 -4.24389e-06 0.00170563
0.00148703 0.000296026 -4.00625e-06
0.000296026 0.000362411 -4.06125e-06
-4.00625e-06 -4.06125e-06 0.00013338
0.00141895 0.000263214 1.0026e-06
0.000263214 0.000439481 4.33859e-07
1.0026e-06 4.33859e-07 0.000236033
0.000657983 0.000147986 -8.87346e-08
0.000147986 1.85642e-05 -5.82602e-06
-8.87346e-08 -5.82602e-06 -0.000153764
0.000691548 0.000169581 -2.06539e-06
0.000169581 7.54473e-05 -1.81923e-07
-2.06539e-06 -1.81923e-07 -7.43498e-05
0.000427897 6.76272e-05 2.61007e-07
6.76272e-05 -8.46681e-05 -5.54468e-07
2.61007e-07 -5.54468e-07 -0.000220395
0.00078095 9.37206e-05 -3.02209e-06
9.37206e-05 0.000128912 -4.6553e-06
-3.02209e-06 -4.6553e-06 8.43152e-06
0.000382902 2.77966e-06 4.08362e-07
2.77966e-06 -0.000109856 1.64933e-06
4.08362e-07 1.64933e-06 -0.000227024
0.00063454 1.43064e-05 8.47773e-08
1.43064e-05 3.60211e-05 -2.50749e-07
8.47773e-08 -2.50749e-07 -5.92959e-05
0.000574721 -2.44487e-05 -3.26084e-06
-2.44487e-05 2.3111e-06 -8.55743e-06
-3.26084e-06 -8.55743e-06 -3.88224e-05
0.000569751 -9.31981e-07 1.08421e-06
-9.31981e-07 -1.43598e-06 4.28687e-06
1.08421e-06 4.28687e-06 -8.68971e-05
0.000515402 -2.66758e-05 2.79178e-07
-2.66758e-05 -3.74664e-05 -6.34933e-08
2.79178e-07 -6.34933e-08 -7.35713e-05
0.00297893 -0.00012234 -6.28351e-05
-0.00012234 0.00144539 -2.85005e-06
-6.28351e-05 -2.85005e-06 0.00144482
0.00283536 -0.000110623 -4.29307e-06
-0.000110623 0.00135078 4.22685e-07
-4.29307e-06 4.22685e-07 0.00135274
0.000486724 -1.77429e-05 2.75547e-06
-1.77429e-05 -6.15314e-05 6.81765e-06
2.75547e-06 6.81765e-06 -9.28155e-05
0.00268935 -9.58831e-05 3.80425e-05
-9.58831e-05 0.00125543 4.01558e-06
3.80425e-05 4.01558e-06 0.00126072
0.00347788 3.13043e-05 2.76935e-05
3.13043e-05 -0.000281985 9.96195e-06
2.76935e-05 9.96195e-06 -9.40793e-05
0.00298209 -0.000578376 6.68792e-05
-0.000578376 -0.00223759 2.97793e-05
6.68792e-05 2.97793e-05 -0.00331054
0.00783569 -0.00101621 -9.15382e-05
-0.00101621 0.00295144 -5.95812e-05
-9.15382e-05 -5.95812e-05 0.00327783
0.00125259 0.000335633 6.1308e-06
0.000335633 6.96026e-05 4.68832e-06
6.1308e-06 4.68832e-06 -0.000170809
0.00156336 0.000244648 1.6491e-06
0.000244648 0.000600932 1.66252e-06
1.6491e-06 1.66252e-06 0.000420042
0.00139754 0.000283077 -5.81719e-06
0.000283077 0.000440086 7.19242e-06
-5.81719e-06 7.19242e-06 0.000229145
0.00074807 0.000241855 1.46621e-06
0.000241855 7.68825e-05 2.58947e-06
1.46621e-06 2.58947e-06 -0.000123229
0.0012411 0.000312021 -8.2099e-07
0.000312021 0.000201353 -1.53948e-06
-8.2099e-07 -1.53948e-06 -4.47408e-05
0.000996636 0.000344376 6.94067e-06
0.000344376 1.96524e-05 5.20222e-06
6.94067e-06 5.20222e-06 -0.000195803
0.00105849 0.000292111 -6.17188e-06
0.000292111 0.000220833 -3.42894e-06
-6.17188e-06 -3.42894e-06 -3.6296e-06
0.000530395 0.000266218 3.2481e-06
0.000266218 -0.000101477 3.5581e-06
3.2481e-06 3.5581e-06 -0.000235158
0.00134076 0.000383132 2.59279e-06
0.000383132 0.000217597 -9.29699e-07
2.59279e-06 -9.29699e-07 2.04249e-05
0.00224761 0.000523525 3.35658e-06
0.000523525 0.000525424 6.48505e-06
3.35658e-06 6.48505e-06 0.000357594
0.00171643 0.000514369 2.19083e-06
0.000514369 0.000143239 1.93505e-09
2.19083e-06 1.93505e-09 -5.53468e-05
0.0016846 0.000478673 5.79787e-06
0.000478673 0.000145793 8.91345e-06
5.79787e-06 8.91345e-06 1.00791e-05
0.00118953 0.000505908 -3.0249e-06
0.000505908 -0.000101756 -2.9467e-06
-3.0249e-06 -2.9467e-06 -0.000282523
0.000674966 0.000419742 -5.61937e-07
0.000419742 -0.000269637 3.17582e-07
-5.61937e-07 3.17582e-07 -0.000431854
0.00148336 0.00038974 2.93628e-05
0.00038974 -0.000264915 3.25058e-05
2.93628e-05 3.25058e-05 -0.000203217
0.00515345 0.00079886 -5.15648e-05
0.00079886 -0.000205602 -1.46623e-05
-5.15648e-05 -1.46623e-05 1.80781e-05
0.00209931 0.000466643 0.000294123
0.000466643 -0.00217177 3.78621e-05
0.000294123 3.78621e-05 -0.00395284
0.000414301 0.000867389 -1.8593e-05
0.000867389 -0.00128926 -2.46018e-05
-1.8593e-05 -2.46018e-05 -0.00138743
0.00269375 0.000782055 -2.59409e-05
0.000782055 0.000334222 -3.18469e-06
-2.59409e-05 -3.18469e-06 0.000267836
0.00256021 0.000731995 -6.48578e-05
0.000731995 0.00053502 -2.375e-05
-6.48578e-05 -2.375e-05 0.000356742
0.00231118 -0.000193408 -1.3623e-05
-0.000193408 5.52249e-06 -8.22462e-06
-1.3623e-05 -8.22462e-06 6.50705e-06
0.000877253 -6.99194e-05 1.30092e-05
-6.99194e-05 -0.000261233 6.36455e-06
1.30092e-05 6.36455e-06 -0.000389099
0.00117987 0.000734932 9.41966e-05
0.000734932 -0.00315911 -2.22275e-05
9.41966e-05 -2.22275e-05 -0.00364872
-0.000496066 -0.00026317 -1.80922e-05
-0.00026317 -0.00125713 3.091e-05
-1.80922e-05 3.091e-05 -0.00121771
0.00375754 -0.000148169 -4.10642e-05
-0.000148169 3.77116e-05 3.68769e-05
-4.10642e-05 3.68769e-05 -0.00025288
0.00224556 -0.00030223 -1.63e-05
-0.00030223 -3.78535e-05 5.85414e-06
-1.63e-05 5.85414e-06 8.0675e-05
0.00313798 -0.000144656 -2.04819e-06
-0.000144656 0.000528245 -3.42666e-06
-2.04819e-06 -3.42666e-06 0.000484376
0.00154492 -0.000172551 3.12084e-05
-0.000172551 -0.000389148 -1.77957e-06
3.12084e-05 -1.77957e-06 -0.000239229
0.00326461 -4.43935e-05 2.54747e-05
-4.43935e-05 0.000982455 2.52175e-07
2.54747e-05 2.52175e-07 0.000942441
0.00116862 -0.000343341 -1.73107e-05
-0.000343341 -0.000483297 8.21086e-06
-1.73107e-05 8.21086e-06 -0.000433453
0.0018007 -0.000272594 5.02411e-07
-0.000272594 -0.000233278 2.20008e-06
5.02411e-07 2.20008e-06 -0.000128727
0.00198843 -0.000265991 1.81884e-06
-0.000265991 -5.68438e-05 -4.66632e-07
1.81884e-06 -4.66632e-07 9.13811e-06
0.00191705 -0.000349259 -4.31326e-08
-0.000349259 -2.80108e-05 1.64941e-06
-4.31326e-08 1.64941e-06 -8.10105e-05
0.0019148 -0.000295354 3.72709e-07
-0.000295354 3.34774e-05 7.32913e-08
3.72709e-07 7.32913e-08 2.56356e-06
0.00193024 -0.000262732 -1.64892e-06
-0.000262732 7.57388e-05 4.97539e-07
-1.64892e-06 4.97539e-07 2.28308e-05
0.00187089 -0.000309063 8.10263e-07
-0.000309063 8.51602e-05 3.83046e-07
8.10263e-07 3.83046e-07 7.92632e-07
0.00184968 -0.00028297 -6.55632e-07
-0.00028297 8.7186e-05 6.34223e-08
-6.55632e-07 6.34223e-08 4.51254e-06
0.00175318 -0.000249399 1.59443e-07
-0.000249399 7.99895e-05 2.59176e-07
1.59443e-07 2.59176e-07 -1.78697e-05
0.00165832 -0.000283613 2.48724e-07
-0.000283613 3.00517e-05 7.58566e-07
2.48724e-07 7.58566e-07 -7.25112e-05
0.00173725 -0.00027441 7.964e-07
-0.00027441 0.000102106 -6.49452e-07
7.964e-07 -6.49452e-07 -1.10257e-05
0.00174945 -0.000261146 1.83317e-06
-0.000261146 0.000129635 -2.07407e-06
1.83317e-06 -2.07407e-06 -3.90996e-06
0.00190435 -0.000278644 -4.68359e-06
-0.000278644 0.000226438 4.78823e-06
-4.68359e-06 4.78823e-06 0.000103196
0.00187077 -0.00027897 -1.33966e-06
-0.00027897 0.000234067 3.68333e-07
-1.33966e-06 3.68333e-07 8.42839e-05
0.00169323 -0.00025469 -1.37691e-06
-0.00025469 0.000186867 -1.17161e-06
-1.37691e-06 -1.17161e-06 1.81438e-05
0.00176836 -0.000306283 2.5395e-06
-0.000306283 0.000198281 1.89417e-06
2.5395e-06 1.89417e-06 1.86193e-05
0.00169404 -0.000281732 9.2568e-07
-0.000281732 0.000217143 -7.04948e-07
9.2568e-07 -7.04948e-07 3.15836e-05
0.00131527 -0.000215156 -7.20569e-06
-0.000215156 9.779e-05 2.20325e-06
-7.20569e-06 2.20325e-06 -7.83297e-05
0.000951849 -0.000172602 -1.17534e-05
-0.000172602 1.94791e-05 6.19772e-06
-1.17534e-05 6.19772e-06 -0.000133599
0.00118675 -0.000229821 -1.8055e-06
-0.000229821 6.05373e-05 3.98389e-07
-1.8055e-06 3.98389e-07 -0.000125998
0.00159738 -0.000311848 3.28581e-06
-0.000311848 0.000214582 -4.57728e-07
3.28581e-06 -4.57728e-07 3.99939e-06
0.000519851 -0.000174468 -2.15021e-05
-0.000174468 -9.15995e-05 1.43987e-05
-2.15021e-05 1.43987e-05 -0.000185037
0.000875009 -0.000176805 4.78332e-07
-0.000176805 1.48415e-05 1.2885e-07
4.78332e-07 1.2885e-07 -0.000146067
0.00122261 -0.000246442 7.13672e-06
-0.000246442 0.000126064 -2.19499e-06
7.13672e-06 -2.19499e-06 -7.16689e-05
0.00504565 0.000187608 -0.000140072
0.000187608 0.00269221 8.74081e-06
-0.000140072 8.74081e-06 0.00267053
0.000571853 -0.000152688 -1.03573e-06
-0.000152688 -4.89518e-05 1.04038e-07
-1.03573e-06 1.04038e-07 -0.000134389
0.000811712 -0.000175816 8.88783e-06
-0.000175816 4.25734e-05 -6.12524e-06
8.88783e-06 -6.12524e-06 -0.000123786
0.004646 0.000155384 9.58972e-06
0.000155384 0.00244735 1.1943e-06
9.58972e-06 1.1943e-06 0.00243457
0.000733287 -0.000110371 1.77731e-05
-0.000110371 6.18291e-05 -1.32456e-05
1.77731e-05 -1.32456e-05 -1.20023e-05
0.00414321 0.000111589 0.000136866
0.000111589 0.00213876 -7.77928e-06
0.000136866 -7.77928e-06 0.00213763
0.00123084 0.000289367 -4.17069e-06
0.000289367 0.000113318 2.1153e-08
-4.17069e-06 2.1153e-08 -0.000112948
0.00118203 0.000266786 -2.05219e-06
0.000266786 0.000186044 -6.11743e-07
-2.05219e-06 -6.11743e-07 -3.76717e-05
0.000980131 0.000214893 -4.1855e-06
0.000214893 0.000127224 -2.26856e-06
-4.1855e-06 -2.26856e-06 -7.20697e-05
0.0016314 0.000282027 -2.59105e-06
0.000282027 0.000568405 3.58849e-06
-2.59105e-06 3.58849e-06 0.000361623
0.000898894 0.000170736 -1.18359e-06
0.000170736 0.000162364 -2.00102e-06
-1.18359e-06 -2.00102e-06 -1.42647e-05
0.000934122 0.000144262 -4.00318e-06
0.000144262 0.000215664 -5.8515e-06
-4.00318e-06 -5.8515e-06 7.01448e-05
0.000462908 8.25689e-05 -2.91156e-07
8.25689e-05 -6.61919e-05 3.25596e-07
-2.91156e-07 3.25596e-07 -0.00020609
0.000661896 4.29336e-05 -6.50268e-07
4.29336e-05 5.12379e-05 -1.82417e-07
-6.50268e-07 -1.82417e-07 -5.92864e-05
0.000589115 -7.32531e-06 -5.69118e-06
-7.32531e-06 1.04933e-05 -9.50507e-06
-5.69118e-06 -9.50507e-06 -3.69129e-05
0.00055257 -4.0541e-06 1.08614e-06
-4.0541e-06 -1.08583e-05 4.59184e-06
1.08614e-06 4.59184e-06 -0.000104983
0.000504303 -2.80023e-05 3.96374e-07
-2.80023e-05 -3.77338e-05 -1.61182e-07
3.96374e-07 -1.61182e-07 -7.88759e-05
0.00316537 -0.000130316 -7.84529e-05
-0.000130316 0.00156384 -2.48838e-06
-7.84529e-05 -2.48838e-06 0.00156132
0.00047016 -2.45772e-05 2.88128e-06
-2.45772e-05 -6.41326e-05 7.54336e-06
2.88128e-06 7.54336e-06 -9.97601e-05
0.00295215 -0.000124899 -3.42953e-06
-0.000124899 0.00142927 3.88709e-07
-3.42953e-06 3.88709e-07 0.00142779
0.0028383 -0.000110953 4.697e-05
-0.000110953 0.0013521 3.6708e-06
4.697e-05 3.6708e-06 0.00135385
0.000286987 5.3257e-05 1.63583e-05
5.3257e-05 -0.00101249 8.60511e-06
1.63583e-05 8.60511e-06 -0.000922801
0.00473179 3.07986e-05 5.4999e-05
3.07986e-05 0.00028454 9.31578e-07
5.4999e-05 9.31578e-07 0.000388107
0.0107414 0.000650913 -7.62945e-05
0.000650913 0.00294296 -1.72867e-05
-7.62945e-05 -1.72867e-05 0.00192375
0.00115062 0.00035816 2.62106e-06
0.00035816 -2.17225e-05 2.70498e-06
2.62106e-06 2.70498e-06 -0.000243008
0.0017298 0.000398586 2.18084e-06
0.000398586 0.000238331 2.51506e-06
2.18084e-06 2.51506e-06 1.93497e-05
0.0012462 0.000342613 3.87858e-07
0.000342613 7.11985e-05 -1.49503e-06
3.87858e-07 -1.49503e-06 -0.000169786
0.0012044 0.00029088 -2.27846e-06
0.00029088 0.000329396 2.37127e-06
-2.27846e-06 2.37127e-06 0.000117243
0.00151152 0.000337585 -1.64221e-06
0.000337585 0.000369403 -1.10362e-06
-1.64221e-06 -1.10362e-06 0.000115952
0.00144075 0.000387028 7.44288e-06
0.000387028 0.000253447 9.5354e-07
7.44288e-06 9.5354e-07 3.23938e-05
0.00173933 0.000480526 -3.32327e-06
0.000480526 0.000138135 -1.69672e-06
-3.32327e-06 -1.69672e-06 -6.80934e-05
0.00197987 0.000447314 -5.87305e-06
0.000447314 0.000563737 7.50929e-07
-5.87305e-06 7.50929e-07 0.000356647
0.00115906 0.000431136 1.01327e-05
0.000431136 -6.98654e-05 1.62946e-05
1.01327e-05 1.62946e-05 -0.000218811
0.00217802 0.000547774 -2.84024e-06
0.000547774 0.000398588 5.41626e-07
-2.84024e-06 5.41626e-07 0.000198604
0.00193975 0.000481679 -1.04757e-05
0.000481679 0.000162814 1.43412e-06
-1.04757e-05 1.43412e-06 -3.11433e-06
0.000661583 0.000240675 1.59572e-05
0.000240675 -0.000505555 8.64746e-06
1.59572e-05 8.64746e-06 -0.000540941
0.00101592 0.000427759 1.01487e-05
0.000427759 -0.000195142 -2.12097e-07
1.01487e-05 -2.12097e-07 -0.000327151
0.00113139 0.000493974 -9.86595e-06
0.000493974 -0.000139414 -9.27681e-06
-9.86595e-06 -9.27681e-06 -0.000318118
0.00185178 0.00039963 3.78037e-06
0.00039963 -7.66135e-05 6.84048e-06
3.78037e-06 6.84048e-06 -6.26827e-05
0.00551661 0.000532164 2.89612e-05
0.000532164 3.12649e-05 -1.92315e-05
2.89612e-05 -1.92315e-05 -3.99255e-05
0.00282389 0.000688177 7.94572e-06
0.000688177 0.00066268 -3.08661e-05
7.94572e-06 -3.08661e-05 0.000607987
0.00149121 -4.27452e-05 2.36604e-05
-4.27452e-05 -1.82185e-05 -3.00631e-06
2.36604e-05 -3.00631e-06 -1.78583e-05
0.00215958 -0.000129288 -2.68117e-05
-0.000129288 -2.26057e-05 8.43358e-08
-2.68117e-05 8.43358e-08 -2.67672e-05
0.00151632 0.00018015 2.77606e-05
0.00018015 -0.000570297 -6.80389e-06
2.77606e-05 -6.80389e-06 -0.000746381
0.000202278 -0.000207423 -3.05746e-05
-0.000207423 -0.00109696 2.46699e-05
-3.05746e-05 2.46699e-05 -0.000964641
0.00327344 -0.000219322 -9.38289e-05
-0.000219322 0.000529402 -1.14135e-06
-9.38289e-05 -1.14135e-06 0.000522388
0.00189918 -0.000202798 3.75025e-06
-0.000202798 -0.000141655 -2.9215e-06
3.75025e-06 -2.9215e-06 -6.39367e-06
0.00233044 -6.27154e-05 -8.7463e-06
-6.27154e-05 0.000391189 3.5863e-07
-8.7463e-06 3.5863e-07 0.000356475
0.00205154 -0.000185626 3.97094e-06
-0.000185626 2.86113e-06 1.15942e-06
3.97094e-06 1.15942e-06 2.50364e-05
0.00205155 -2.37641e-05 5.16063e-06
-2.37641e-05 5.11323e-05 5.98196e-08
5.16063e-06 5.98196e-08 3.53502e-05
0.00178951 -0.000286881 -7.75156e-06
-0.000286881 -0.000265334 2.84894e-06
-7.75156e-06 2.84894e-06 -0.000169796
0.00201048 -0.000263966 -1.84817e-06
-0.000263966 -3.36208e-05 7.58148e-08
-1.84817e-06 7.58148e-08 2.01857e-05
0.00199431 -0.000206329 -1.90348e-06
-0.000206329 1.54368e-05 -3.88627e-07
-1.90348e-06 -3.88627e-07 -7.05468e-08
0.00192474 -0.000301565 -1.62073e-06
-0.000301565 3.72758e-05 -6.33412e-07
-1.62073e-06 -6.33412e-07 1.60269e-06
0.00189054 -0.000258023 1.56814e-07
-0.000258023 6.26017e-05 -2.30174e-08
1.56814e-07 -2.30174e-08 4.47026e-06
0.00191128 -0.000228711 -1.35136e-06
-0.000228711 0.000104137 4.2913e-07
-1.35136e-06 4.2913e-07 2.37125e-05
0.00176803 -0.00028573 -1.13495e-06
-0.00028573 4.50271e-05 -1.06724e-06
-1.13495e-06 -1.06724e-06 -4.10395e-05
0.0017763 -0.000249786 4.26791e-07
-0.000249786 8.99954e-05 -2.0807e-07
4.26791e-07 -2.0807e-07 -8.08778e-06
0.00177193 -0.000235018 1.30189e-06
-0.000235018 0.000103936 -1.04989e-06
1.30189e-06 -1.04989e-06 -1.16508e-05
0.00177738 -0.000276563 -1.05506e-06
-0.000276563 0.000124407 2.08872e-07
-1.05506e-06 2.08872e-07 1.08598e-05
0.00177296 -0.000261617 -3.01494e-08
-0.000261617 0.000144239 -2.95649e-07
-3.01494e-08 -2.95649e-07 1.06898e-05
0.00165506 -0.00023386 -2.01489e-07
-0.00023386 0.000133631 -1.02086e-06
-2.01489e-07 -1.02086e-06 -2.24842e-05
0.0019375 -0.00028064 -1.76755e-06
-0.00028064 0.000270196 3.4911e-06
-1.76755e-06 3.4911e-06 0.000123823
0.00170849 -0.000256011 -6.58629e-07
-0.000256011 0.000196514 -1.0749e-07
-6.58629e-07 -1.0749e-07 2.87378e-05
0.00132849 -0.00019563 -6.44101e-06
-0.00019563 8.43555e-05 1.79554e-06
-6.44101e-06 1.79554e-06 -8.42787e-05
0.00167299 -0.00028248 4.26775e-06
-0.00028248 0.000205527 2.42467e-07
4.26775e-06 2.42467e-07 1.87889e-05
0.00129279 -0.000215119 -7.19867e-08
-0.000215119 8.4869e-05 -3.84443e-08
-7.19867e-08 -3.84443e-08 -9.13319e-05
0.000960007 -0.00015566 -1.28474e-05
-0.00015566 1.20124e-06 6.03883e-06
-1.28474e-05 6.03883e-06 -0.000144156
0.000444196 -0.00016555 -1.99222e-05
-0.00016555 -0.00014568 1.36994e-05
-1.99222e-05 1.36994e-05 -0.000240866
0.000933148 -0.000170662 2.66083e-07
-0.000170662 8.7694e-06 4.52196e-08
2.66083e-07 4.52196e-08 -0.000144126
0.0012557 -0.000234922 5.55501e-06
-0.000234922 0.000101276 -1.8776e-06
5.55501e-06 -1.8776e-06 -8.59176e-05
0.00546134 0.000120536 -0.000173234
0.000120536 0.00291391 9.31371e-06
-0.000173234 9.31371e-06 0.00290526
0.000551464 -0.000169109 -1.94211e-06
-0.000169109 -7.87066e-05 6.41443e-07
-1.94211e-06 6.41443e-07 -0.000169831
0.000835044 -0.000175708 1.03014e-05
-0.000175708 -5.32657e-06 -5.85266e-06
1.03014e-05 -5.85266e-06 -0.000166293
0.00521113 0.000148554 5.12033e-06
0.000148554 0.00277917 4.61082e-07
5.12033e-06 4.61082e-07 0.0027645
0.000675999 -0.000155301 2.10539e-05
-0.000155301 9.03748e-06 -1.4247e-05
2.10539e-05 -1.4247e-05 -7.79236e-05
0.00483893 0.000126863 0.000158656
0.000126863 0.00255377 -1.03568e-05
0.000158656 -1.03568e-05 0.00254548
0.00133452 0.000314219 -3.03549e-06
0.000314219 0.000118905 1.3799e-06
-3.03549e-06 1.3799e-06 -9.87875e-05
0.00116886 0.000284406 3.5192e-07
0.000284406 7.47545e-05 3.98259e-07
3.5192e-07 3.98259e-07 -0.000150052
0.00110489 0.000234569 -7.35502e-06
0.000234569 9.79995e-05 -1.54655e-06
-7.35502e-06 -1.54655e-06 -9.97544e-05
0.000890542 0.000238881 -6.17701e-07
0.000238881 1.73514e-05 2.8249e-06
-6.17701e-07 2.8249e-06 -0.000201149
0.00104595 0.000219714 -1.74754e-06
0.000219714 0.000168596 9.97285e-07
-1.74754e-06 9.97285e-07 -3.16021e-05
0.000888962 0.000177106 -6.66791e-06
0.000177106 0.0001456 -5.32396e-06
-6.66791e-06 -5.32396e-06 -1.94323e-05
0.00109721 0.000189158 -7.36036e-07
0.000189158 0.000281085 1.18748e-06
-7.36036e-07 1.18748e-06 0.000100852
0.000704303 0.000115697 -4.68993e-08
0.000115697 8.2468e-05 -3.86491e-07
-4.68993e-08 -3.86491e-07 -5.91703e-05
0.000730693 4.58159e-05 -1.14472e-05
4.58159e-05 8.54854e-05 -1.18564e-05
-1.14472e-05 -1.18564e-05 2.46056e-05
0.000589789 8.70394e-06 1.32183e-06
8.70394e-06 7.98424e-06 4.50659e-06
1.32183e-06 4.50659e-06 -9.79438e-05
0.000504074 -1.57598e-05 -1.58105e-07
-1.57598e-05 -3.71763e-05 -2.75446e-07
-1.58105e-07 -2.75446e-07 -8.44224e-05
0.00350121 -0.000131557 -0.000102284
-0.000131557 0.00176891 -3.2089e-06
-0.000102284 -3.2089e-06 0.00176532
0.000449136 -2.89029e-05 2.86404e-06
-2.89029e-05 -6.954e-05 8.28238e-06
2.86404e-06 8.28238e-06 -0.000110393
0.00310436 -0.00013808 -3.36e-06
-0.00013808 0.0015286 3.75456e-07
-3.36e-06 3.75456e-07 0.00152376
0.00292628 -0.000125101 5.43534e-05
-0.000125101 0.00141343 3.21961e-06
5.43534e-05 3.21961e-06 0.00141169
0.000550234 6.28756e-05 1.98349e-05
6.28756e-05 -0.000583049 3.15627e-07
1.98349e-05 3.15627e-07 -0.000535731
0.00205696 3.2391e-05 -7.50831e-06
3.2391e-05 -0.000260058 -1.36888e-06
-7.50831e-06 -1.36888e-06 -0.000150246
0.00427166 4.69474e-05 0.000143595
4.69474e-05 -0.000354495 4.17598e-05
0.000143595 4.17598e-05 0.000139241
0.00217677 0.000460934 -1.99624e-06
0.000460934 0.000408458 6.66328e-07
-1.99624e-06 6.66328e-07 0.000198801
0.00136729 0.000395729 -6.2496e-07
0.000395729 9.01458e-05 -2.69451e-06
-6.2496e-07 -2.69451e-06 -0.000134674
0.00196226 0.000373265 -2.13504e-07
0.000373265 0.000241063 3.36441e-06
-2.13504e-07 3.36441e-06 5.68705e-05
0.00174044 0.00039714 8.31859e-07
0.00039714 0.000243222 2.65542e-07
8.31859e-07 2.65542e-07 2.49247e-05
0.00123641 0.000350095 1.40277e-06
0.000350095 6.87201e-05 -5.86311e-06
1.40277e-06 -5.86311e-06 -0.000172993
0.0018481 0.000397771 -1.55942e-06
0.000397771 8.71762e-05 1.47601e-06
-1.55942e-06 1.47601e-06 -7.61251e-05
0.00197319 0.000438489 -3.71075e-06
0.000438489 0.000538994 -1.65943e-06
-3.71075e-06 -1.65943e-06 0.000310584
0.00195775 0.000489884 -2.37469e-08
0.000489884 0.000274232 -4.03809e-07
-2.37469e-08 -4.03809e-07 6.58743e-05
0.00180419 0.000284496 -4.00621e-06
0.000284496 -1.72482e-05 1.43011e-07
-4.00621e-06 1.43011e-07 -0.000116327
0.00262247 0.000580355 3.98112e-06
0.000580355 0.00064327 2.43692e-06
3.98112e-06 2.43692e-06 0.000442049
0.00192762 0.000483513 -1.6264e-06
0.000483513 0.000146758 1.28755e-07
-1.6264e-06 1.28755e-07 -2.20235e-05
0.000885839 0.00025584 4.32529e-06
0.00025584 -0.000348064 3.05912e-06
4.32529e-06 3.05912e-06 -0.000393635
-0.000308741 0.000333514 -2.83533e-06
0.000333514 -0.000874219 -4.4206e-06
-2.83533e-06 -4.4206e-06 -0.000998036
0.00203743 0.000412332 -5.46014e-05
0.000412332 1.04261e-05 -2.67186e-05
-5.46014e-05 -2.67186e-05 -1.25259e-05
0.00186195 4.28061e-05 5.48692e-07
4.28061e-05 -6.59086e-05 -1.9172e-06
5.48692e-07 -1.9172e-06 -6.69511e-05
0.00218008 -3.63365e-05 1.11679e-06
-3.63365e-05 0.000405356 1.92427e-06
1.11679e-06 1.92427e-06 0.000407737
0.00168852 -5.80528e-05 -5.65448e-05
-5.80528e-05 -0.000181001 -1.62447e-06
-5.65448e-05 -1.62447e-06 -0.000269929
0.00227223 -0.000232053 -3.40936e-05
-0.000232053 0.00011464 2.54668e-06
-3.40936e-05 2.54668e-06 0.000229865
0.00138955 -7.4907e-05 -8.46015e-06
-7.4907e-05 -0.000197365 1.08026e-06
-8.46015e-06 1.08026e-06 -0.000226135
0.00199266 -0.000179222 4.55197e-08
-0.000179222 -3.39368e-05 -7.13987e-07
4.55197e-08 -7.13987e-07 -6.12118e-07
0.00210567 -2.49175e-05 -2.64378e-06
-2.49175e-05 6.2625e-05 1.32347e-06
-2.64378e-06 1.32347e-06 5.28877e-05
0.00207533 -6.64783e-05 -2.96703e-06
-6.64783e-05 3.4597e-05 -1.64967e-07
-2.96703e-06 -1.64967e-07 3.293e-05
0.00202213 -0.00026028 -3.80855e-06
-0.00026028 -1.32937e-05 2.34762e-07
-3.80855e-06 2.34762e-07 2.84906e-05
0.00197319 -0.000198047 4.54254e-07
-0.000198047 1.43478e-05 -2.15675e-07
4.54254e-07 -2.15675e-07 -2.70496e-06
0.00204607 -0.000163809 -1.4983e-06
-0.000163809 9.75143e-05 -2.30749e-07
-1.4983e-06 -2.30749e-07 5.54851e-05
0.00185074 -0.000253922 1.07622e-06
-0.000253922 4.87353e-05 -1.03831e-06
1.07622e-06 -1.03831e-06 -1.45039e-05
0.00183427 -0.000224238 1.61547e-07
-0.000224238 6.51136e-05 -5.14953e-08
1.61547e-07 -5.14953e-08 -1.71254e-05
0.00176341 -0.000187137 5.93143e-07
-0.000187137 5.94308e-05 -3.7352e-07
5.93143e-07 -3.7352e-07 -3.83026e-05
0.00180977 -0.000250666 5.63446e-07
-0.000250666 0.000105092 -5.24621e-07
5.63446e-07 -5.24621e-07 6.81348e-06
0.00179628 -0.000235126 1.18875e-08
-0.000235126 0.000119707 -2.72251e-07
1.18875e-08 -2.72251e-07 4.10263e-06
0.00169948 -0.000208759 7.54239e-07
-0.000208759 0.000120995 -8.55261e-07
7.54239e-07 -8.55261e-07 -2.10727e-05
0.00179601 -0.000262119 -1.17244e-06
-0.000262119 0.000158376 1.30983e-06
-1.17244e-06 1.30983e-06 2.48113e-05
0.00167951 -0.000234575 -2.91538e-07
-0.000234575 0.000148428 -5.92116e-08
-2.91538e-07 -5.92116e-08 -7.38775e-06
0.00136804 -0.000178064 -4.87314e-06
-0.000178064 8.45522e-05 1.37487e-06
-4.87314e-06 1.37487e-06 -7.75256e-05
0.00172174 -0.000257158 9.58626e-07
-0.000257158 0.00020483 1.06508e-06
9.58626e-07 1.06508e-06 3.80415e-05
0.00134312 -0.000196289 -1.91712e-07
-0.000196289 9.17503e-05 7.57559e-08
-1.91712e-07 7.57559e-08 -7.65906e-05
0.00096532 -0.000137555 -1.34573e-05
-0.000137555 -9.53215e-06 5.63115e-06
-1.34573e-05 5.63115e-06 -0.000150079
0.00127479 -0.000215393 6.34553e-06
-0.000215393 7.45979e-05 -1.66116e-06
6.34553e-06 -1.66116e-06 -0.000101726
0.000968894 -0.000154753 2.05232e-07
-0.000154753 5.31525e-06 5.44565e-08
2.05232e-07 5.44565e-08 -0.000139767
0.00243523 -0.00011432 -2.99107e-05
-0.00011432 0.00102551 8.55541e-06
-2.99107e-05 8.55541e-06 0.00094715
0.00170058 -4.89516e-05 -0.000181568
-4.89516e-05 0.00065648 1.99757e-05
-0.000181568 1.99757e-05 0.000638546
0.00153551 -0.000149329 -5.50861e-06
-0.000149329 0.000497641 -3.30911e-07
-5.50861e-06 -3.30911e-07 0.000408511
0.000917607 -0.000168978 1.16632e-05
-0.000168978 4.59588e-08 -5.87644e-06
1.16632e-05 -5.87644e-06 -0.000152739
0.00555544 0.000103606 -5.99735e-06
0.000103606 0.00297565 -6.46401e-07
-5.99735e-06 -6.46401e-07 0.00296399
0.000617989 -0.00019033 2.27611e-05
-0.00019033 -3.92675e-05 -1.41735e-05
2.27611e-05 -1.41735e-05 -0.000133971
0.00535402 0.00013586 0.00017121
0.00013586 0.00287101 -1.48813e-05
0.00017121 -1.48813e-05 0.0028523
0.00194311 0.000297305 8.27243e-07
0.000297305 0.000197318 5.19345e-07
8.27243e-07 5.19345e-07 3.97681e-05
0.00166085 0.000331144 1.12888e-06
0.000331144 0.000193372 2.96421e-06
1.12888e-06 2.96421e-06 -6.2129e-06
0.00156399 0.000337496 -2.48251e-08
0.000337496 0.000245775 -1.33476e-08
-2.48251e-08 -1.33476e-08 2.4993e-05
0.00118761 0.000243453 -6.23621e-06
0.000243453 7.99918e-05 -2.10143e-06
-6.23621e-06 -2.10143e-06 -0.000111571
0.00109753 0.000278707 5.26978e-06
0.000278707 3.17757e-05 6.54946e-07
5.26978e-06 6.54946e-07 -0.000191565
0.00112455 0.000234975 -3.62734e-07
0.000234975 0.000110244 2.96596e-07
-3.62734e-07 2.96596e-07 -8.71049e-05
0.000806542 0.000174527 -9.49178e-06
0.000174527 1.56053e-05 -4.62681e-06
-9.49178e-06 -4.62681e-06 -0.000148518
0.00112701 0.00022601 2.12648e-06
0.00022601 0.000218495 4.57391e-06
2.12648e-06 4.57391e-06 1.71648e-05
0.000816748 0.000161238 -4.36267e-07
0.000161238 0.000103972 5.58718e-07
-4.36267e-07 5.58718e-07 -5.89426e-05
0.000750238 0.000128805 -1.87419e-05
0.000128805 7.91304e-05 -1.38416e-05
-1.87419e-05 -1.38416e-05 -8.86738e-07
0.000609902 8.34829e-05 2.02022e-06
8.34829e-05 2.32331e-05 4.39515e-06
2.02022e-06 4.39515e-06 -0.000110929
0.000513185 3.24637e-05 -1.10178e-06
3.24637e-05 -3.95699e-05 -6.13694e-07
-1.10178e-06 -6.13694e-07 -9.74075e-05
0.00407457 -0.000125487 -0.000135341
-0.000125487 0.00211278 -6.46653e-06
-0.000135341 -6.46653e-06 0.00210683
0.000394264 -2.33915e-05 3.13552e-06
-2.33915e-05 -9.85482e-05 9.28903e-06
3.13552e-06 9.28903e-06 -0.000146054
0.00336612 -0.000149437 -4.53341e-06
-0.000149437 0.00169193 3.83912e-07
-4.53341e-06 3.83912e-07 0.00168385
0.00305521 -0.000140234 6.19959e-05
-0.000140234 0.00149947 2.60671e-06
6.19959e-05 2.60671e-06 0.00149382
0.00190483 0.000152868 1.02715e-06
0.000152868 -3.17393e-05 -8.74815e-07
1.02715e-06 -8.74815e-07 -6.37845e-05
0.00191013 4.85697e-05 1.61886e-05
4.85697e-05 0.000132361 3.31313e-07
1.61886e-05 3.31313e-07 0.000168404
0.00424279 2.92776e-05 -9.68336e-05
2.92776e-05 0.000676779 -1.33424e-05
-9.68336e-05 -1.33424e-05 0.00082806
0.00177173 0.00034245 -2.52194e-06
0.00034245 6.19846e-05 1.42317e-06
-2.52194e-06 1.42317e-06 -9.52121e-05
0.0018503 0.000432863 -2.01264e-06
0.000432863 0.00023552 -1.01502e-07
-2.01264e-06 -1.01502e-07 2.83802e-05
0.00149883 0.000424398 -1.27382e-05
0.000424398 0.000155336 -7.32125e-06
-1.27382e-05 -7.32125e-06 -7.107e-05
0.00200554 0.000364343 2.69385e-06
0.000364343 0.000276455 9.76016e-07
2.69385e-06 9.76016e-07 9.45299e-05
0.00174281 0.000395107 -1.35138e-06
0.000395107 0.000244412 -2.60603e-06
-1.35138e-06 -2.60603e-06 2.67906e-05
0.00218354 0.000282894 1.11497e-06
0.000282894 0.000205672 9.41165e-07
1.11497e-06 9.41165e-07 0.0001029
0.00172359 0.000391067 -9.77513e-07
0.000391067 3.29642e-05 7.78652e-07
-9.77513e-07 7.78652e-07 -0.000130834
0.00220519 0.000501843 -9.90129e-07
0.000501843 0.0004258 -6.87879e-07
-9.90129e-07 -6.87879e-07 0.000214797
0.00180235 0.000289468 -9.83395e-07
0.000289468 -1.17952e-05 -9.58238e-08
-9.83395e-07 -9.58238e-08 -0.000112741
0.00204877 0.000494495 1.7203e-05
0.000494495 0.000193903 1.73101e-06
1.7203e-05 1.73101e-06 2.15466e-05
0.0012369 0.000264961 -2.62813e-05
0.000264961 -0.00013465 -6.42939e-06
-2.62813e-05 -6.42939e-06 -0.000188256
0.00202573 5.13084e-05 -3.30779e-06
5.13084e-05 2.75922e-05 8.71545e-08
-3.30779e-06 8.71545e-08 1.51754e-05
0.00195725 5.29153e-05 -2.19897e-06
5.29153e-05 -3.30158e-06 3.01105e-07
-2.19897e-06 3.01105e-07 -8.04462e-06
0.00288096 -2.53605e-05 -3.86698e-05
-2.53605e-05 0.000842096 2.4577e-06
-3.86698e-05 2.4577e-06 0.000839558
0.00191149 -0.000171403 -8.70978e-06
-0.000171403 -8.8552e-05 -1.05042e-06
-8.70978e-06 -1.05042e-06 -4.41744e-05
0.00200866 -2.44441e-05 7.92625e-07
-2.44441e-05 -1.93877e-05 -9.47119e-07
7.92625e-07 -9.47119e-07 -2.46017e-05
0.00204271 -7.06195e-05 -3.80732e-07
-7.06195e-05 1.22033e-07 6.4827e-08
-3.80732e-07 6.4827e-08 3.47306e-06
0.00193729 -5.43292e-05 -2.07254e-06
-5.43292e-05 4.34425e-05 6.45183e-08
-2.07254e-06 6.45183e-08 1.80084e-05
0.00195094 -0.000188693 2.28853e-06
-0.000188693 1.37622e-05 7.93143e-09
2.28853e-06 7.93143e-09 -4.43868e-06
0.00191574 -0.000162965 2.53305e-07
-0.000162965 3.22628e-05 -2.5548e-08
2.53305e-07 -2.5548e-08 -1.43362e-05
0.00180993 -0.000124982 2.63831e-06
-0.000124982 6.03877e-05 -1.53842e-06
2.63831e-06 -1.53842e-06 -2.15774e-05
0.00175001 -0.00021934 1.52094e-06
-0.00021934 2.23943e-05 -3.8463e-07
1.52094e-06 -3.8463e-07 -6.16953e-05
0.00182571 -0.000189706 -2.26752e-08
-0.000189706 9.17972e-05 3.66599e-08
-2.26752e-08 3.66599e-08 -6.11916e-06
0.00177985 -0.000172929 1.00811e-06
-0.000172929 0.000126084 -6.46415e-07
1.00811e-06 -6.46415e-07 -2.10132e-06
0.00181895 -0.000235017 -6.09057e-07
-0.000235017 0.000134848 4.11378e-07
-6.09057e-07 4.11378e-07 1.92561e-05
0.00172912 -0.000209519 -2.40121e-07
-0.000209519 0.000138243 -5.82971e-08
-2.40121e-07 -5.82971e-08 -3.61537e-06
0.00141665 -0.000156361 -3.77525e-06
-0.000156361 8.81671e-05 9.65586e-07
-3.77525e-06 9.65586e-07 -6.67268e-05
0.00170351 -0.000235288 -2.75677e-07
-0.000235288 0.000163025 8.62405e-07
-2.75677e-07 8.62405e-07 7.5063e-06
0.00138101 -0.000178476 -1.61687e-07
-0.000178476 9.02701e-05 6.73386e-08
-1.61687e-07 6.73386e-08 -7.14503e-05
0.000977367 -0.00012186 -1.32523e-05
-0.00012186 -1.31332e-05 4.86894e-06
-1.32523e-05 4.86894e-06 -0.000151255
0.00135572 -0.000196878 5.59445e-06
-0.000196878 9.79346e-05 -1.50383e-06
5.59445e-06 -1.50383e-06 -7.01144e-05
0.000982957 -0.000136764 1.17152e-07
-0.000136764 -1.04555e-06 1.14107e-07
1.17152e-07 1.14107e-07 -0.000141098
0.00247852 -0.000120769 -3.75781e-05
-0.000120769 0.0010381 7.80224e-06
-3.75781e-05 7.80224e-06 0.000967191
0.000970202 -0.000153708 1.30089e-05
-0.000153708 5.15316e-06 -5.89284e-06
1.30089e-05 -5.89284e-06 -0.00013968
0.00259644 -0.000159301 3.77946e-05
-0.000159301 0.00111634 -4.79852e-06
3.77946e-05 -4.79852e-06 0.00104426
0.00178047 -8.91903e-05 -0.000186253
-8.91903e-05 0.000709984 2.4292e-05
-0.000186253 2.4292e-05 0.000690578
0.00359638 -2.19863e-05 -0.000182805
-2.19863e-05 0.00180261 1.18709e-05
-0.000182805 1.18709e-05 0.00178956
0.00268945 -0.000211928 0.000116217
-0.000211928 0.00117763 -1.59808e-05
0.000116217 -1.59808e-05 0.00110762
0.00563718 8.94518e-05 0.00018601
8.94518e-05 0.00303344 -1.80468e-05
0.00018601 -1.80468e-05 0.00301726
0.00206981 0.000293432 -1.82782e-06
0.000293432 0.000247649 -7.01124e-07
-1.82782e-06 -7.01124e-07 0.000105805
0.0015696 0.000269653 2.73889e-06
0.000269653 8.29652e-05 1.09096e-06
2.73889e-06 1.09096e-06 -9.05701e-05
0.00192752 0.000295423 3.87026e-07
0.000295423 0.000185701 -1.19252e-06
3.87026e-07 -1.19252e-06 3.26945e-05
0.00119026 0.000232713 -6.22407e-06
0.000232713 2.96705e-05 -1.05961e-06
-6.22407e-06 -1.05961e-06 -0.000154575
0.00172011 0.000333115 6.48921e-07
0.000333115 0.000219126 5.53602e-07
6.48921e-07 5.53602e-07 1.88132e-05
0.00179112 0.000360944 2.49494e-06
0.000360944 0.000370451 -9.03869e-07
2.49494e-06 -9.03869e-07 0.000146549
0.00119664 0.000240874 9.86902e-09
0.000240874 8.98226e-05 -2.95224e-07
9.86902e-09 -2.95224e-07 -0.000100689
0.000875329 0.000174083 -1.11476e-05
0.000174083 -8.6344e-06 -5.82974e-06
-1.11476e-05 -5.82974e-06 -0.000165294
0.00113044 0.000234401 7.03349e-06
0.000234401 0.000114367 2.17683e-06
7.03349e-06 2.17683e-06 -8.24845e-05
0.000842048 0.000171943 -5.88719e-07
0.000171943 3.28329e-05 5.51175e-07
-5.88719e-07 5.51175e-07 -0.000130559
0.000640025 0.000180179 -2.24586e-05
0.000180179 -7.20535e-06 -1.42545e-05
-2.24586e-05 -1.42545e-05 -0.000100242
0.000642773 0.00014625 3.89117e-06
0.00014625 4.03853e-06 5.91409e-06
3.89117e-06 5.91409e-06 -0.000157402
0.000551121 0.000101431 -5.00133e-07
0.000101431 -3.47885e-05 2.32897e-08
-5.00133e-07 2.32897e-08 -0.000110077
0.00493004 -0.000122672 -0.000167109
-0.000122672 0.00262907 -1.25892e-05
-0.000167109 -1.25892e-05 0.00261396
0.000329365 5.89246e-06 5.71679e-06
5.89246e-06 -0.000141 1.08042e-05
5.71679e-06 1.08042e-05 -0.000197985
0.00388885 -0.000163403 -8.18332e-06
-0.000163403 0.00201095 5.45502e-07
-8.18332e-06 5.45502e-07 0.00199764
0.00327139 -0.000156807 7.16958e-05
-0.000156807 0.00163687 2.14121e-06
7.16958e-05 2.14121e-06 0.00162672
0.00193738 0.000166066 -8.55425e-07
0.000166066 2.30996e-06 5.32877e-07
-8.55425e-07 5.32877e-07 -5.22127e-05
0.00185467 0.000152846 7.86602e-07
0.000152846 -5.88941e-05 -2.39041e-07
7.86602e-07 -2.39041e-07 -9.14459e-05
0.00301287 3.70915e-05 -6.75296e-05
3.70915e-05 0.000718979 -6.15306e-06
-6.75296e-05 -6.15306e-06 0.000751214
0.00202589 0.000251256 1.08241e-06
0.000251256 0.000152318 8.91497e-07
1.08241e-06 8.91497e-07 4.10343e-05
0.00178244 0.000338539 -5.58612e-07
0.000338539 8.47751e-05 3.32698e-07
-5.58612e-07 3.32698e-07 -7.1994e-05
0.0015331 0.000405574 -2.86664e-07
0.000405574 6.62932e-05 -2.32033e-06
-2.86664e-07 -2.32033e-06 -0.000138453
0.00204998 0.00035512 -6.85166e-07
0.00035512 0.00031308 -2.40912e-06
-6.85166e-07 -2.40912e-06 0.000133532
0.00203884 0.000273351 -1.00044e-06
0.000273351 0.000123575 -1.87339e-07
-1.00044e-06 -1.87339e-07 2.06875e-05
0.00160272 0.000384275 -1.4412e-06
0.000384275 -1.97984e-05 -1.87252e-07
-1.4412e-06 -1.87252e-07 -0.000184041
0.00177691 0.000291175 6.40746e-06
0.000291175 -6.69217e-06 -4.2892e-07
6.40746e-06 -4.2892e-07 -0.000109102
0.00190332 4.75498e-05 -1.07252e-06
4.75498e-05 1.83784e-05 3.93348e-07
-1.07252e-06 3.93348e-07 -1.21103e-05
0.00198529 5.112e-05 4.47237e-07
5.112e-05 1.37412e-05 -6.54671e-08
4.47237e-07 -6.54671e-08 -1.76859e-06
0.00200811 6.26262e-05 -6.97118e-06
6.26262e-05 3.17298e-05 7.06515e-07
-6.97118e-06 7.06515e-07 2.49546e-05
0.00169909 -1.28486e-05 -3.04727e-06
-1.28486e-05 -5.21373e-05 1.32263e-07
-3.04727e-06 1.32263e-07 -9.48377e-05
0.00200837 -7.89733e-05 3.2177e-06
-7.89733e-05 -3.47149e-05 -5.00451e-07
3.2177e-06 -5.00451e-07 -2.69051e-05
0.00191712 -5.6935e-05 -8.44217e-07
-5.6935e-05 3.08062e-05 3.18074e-07
-8.44217e-07 3.18074e-07 4.49944e-06
0.00189065 -7.05649e-05 -1.19705e-06
-7.05649e-05 0.000104257 -4.0661e-07
-1.19705e-06 -4.0661e-07 3.5742e-05
0.00178966 -0.000162145 2.69309e-06
-0.000162145 -3.07381e-05 -2.75629e-07
2.69309e-06 -2.75629e-07 -8.21376e-05
0.00185134 -0.00012654 2.1562e-06
-0.00012654 7.53832e-05 -7.73409e-07
2.1562e-06 -7.73409e-07 -6.29705e-06
0.00182974 -0.000121441 2.86184e-06
-0.000121441 0.000134613 -1.36973e-06
2.86184e-06 -1.36973e-06 1.90267e-05
0.00189442 -0.000191959 -2.1058e-07
-0.000191959 0.000128005 4.16013e-07
-2.1058e-07 4.16013e-07 2.9986e-05
0.00178663 -0.000171508 -1.1005e-07
-0.000171508 0.000132353 -3.99836e-08
-1.1005e-07 -3.99836e-08 4.51117e-06
0.00145681 -0.000126978 -2.94565e-06
-0.000126978 8.63982e-05 4.74072e-07
-2.94565e-06 4.74072e-07 -5.99459e-05
0.00175753 -0.000210114 -8.3263e-07
-0.000210114 0.000155047 6.64287e-07
-8.3263e-07 6.64287e-07 1.34218e-05
0.00141627 -0.000155841 -1.55165e-07
-0.000155841 8.57518e-05 1.39192e-07
-1.55165e-07 1.39192e-07 -6.87522e-05
0.00098409 -0.000104014 -1.27886e-05
-0.000104014 -1.98813e-05 3.93693e-06
-1.27886e-05 3.93693e-06 -0.000155486
0.00139253 -0.000178734 4.32666e-06
-0.000178734 9.52109e-05 -1.19942e-06
4.32666e-06 -1.19942e-06 -6.61272e-05
0.000993974 -0.000120292 2.79017e-08
-0.000120292 -5.41272e-06 1.9343e-07
2.79017e-08 1.9343e-07 -0.000142824
0.00250567 -0.00012884 -4.5334e-05
-0.00012884 0.00104832 7.58064e-06
-4.5334e-05 7.58064e-06 0.00097973
0.0010005 -0.000135985 1.34026e-05
-0.000135985 7.20392e-06 -5.44518e-06
1.34026e-05 -5.44518e-06 -0.000132317
0.00258055 -0.000151252 3.43433e-05
-0.000151252 0.00109694 -4.0182e-06
3.43433e-05 -4.0182e-06 0.00103038
0.00182962 -7.74478e-05 -0.000181985
-7.74478e-05 0.000734392 2.17164e-05
-0.000181985 2.17164e-05 0.000716148
0.00273486 -0.000175874 0.000115275
-0.000175874 0.00119435 -1.79376e-05
0.000115275 -1.79376e-05 0.00112759
0.00154812 -2.62844e-05 -8.29169e-05
-2.62844e-05 0.000578717 9.4802e-06
-8.29169e-05 9.4802e-06 0.000549606
0.00536227 0.000169821 3.15218e-05
0.000169821 0.00286099 -2.27385e-06
3.15218e-05 -2.27385e-06 0.00283269
0.00187597 0.000239232 6.46096e-07
0.000239232 0.000117974 3.74012e-07
6.46096e-07 3.74012e-07 -1.23712e-05
0.00184635 0.000263506 2.06853e-08
0.000263506 0.000200212 -6.40027e-07
2.06853e-08 -6.40027e-07 4.29832e-05
0.00193923 0.000288089 -3.39916e-06
0.000288089 0.000168128 5.55354e-08
-3.39916e-06 5.55354e-08 2.43579e-05
0.00165527 0.000234532 -3.60636e-06
0.000234532 0.000266221 -5.74669e-07
-3.60636e-06 -5.74669e-07 9.3531e-05
0.00160516 0.000276754 4.17737e-07
0.000276754 9.55228e-05 -1.41833e-06
4.17737e-07 -1.41833e-06 -7.62334e-05
0.00191438 0.000293835 -2.8345e-06
0.000293835 0.000175528 -3.4573e-06
-2.8345e-06 -3.4573e-06 2.70515e-05
0.000987287 0.000171516 -1.32406e-05
0.000171516 1.83507e-05 -5.51289e-06
-1.32406e-05 -5.51289e-06 -0.000132971
0.0012704 0.00023781 -3.30747e-07
0.00023781 7.73915e-05 4.14441e-07
-3.30747e-07 4.14441e-07 -0.000107599
0.00177931 0.000335041 2.80308e-06
0.000335041 0.000243881 -1.71835e-06
2.80308e-06 -1.71835e-06 4.2832e-05
0.00121779 0.000239091 7.72724e-06
0.000239091 0.000107591 2.05548e-06
7.72724e-06 2.05548e-06 -8.19578e-05
0.000890178 0.000174846 -3.73856e-07
0.000174846 -1.13546e-07 -3.28446e-07
-3.73856e-07 -3.28446e-07 -0.000156615
0.000581314 0.000208536 -2.482e-05
0.000208536 -5.60276e-05 -1.40988e-05
-2.482e-05 -1.40988e-05 -0.000152852
0.000839 0.000169189 8.70215e-06
0.000169189 2.7518e-05 5.71261e-06
8.70215e-06 5.71261e-06 -0.000135119
0.000550335 0.000172737 1.70619e-06
0.000172737 -5.75503e-05 4.83954e-07
1.70619e-06 4.83954e-07 -0.000148783
0.00553374 -0.000116392 -0.000176197
-0.000116392 0.00300211 -1.93387e-05
-0.000176197 -1.93387e-05 0.0029733
0.000353944 8.59205e-05 1.3483e-05
8.59205e-05 -0.000150181 1.32183e-05
1.3483e-05 1.32183e-05 -0.000220191
0.00464756 -0.000171633 -1.17672e-05
-0.000171633 0.00246816 9.91182e-07
-1.17672e-05 9.91182e-07 0.00244808
0.00366772 -0.000177713 8.62302e-05
-0.000177713 0.00188236 2.41868e-06
8.62302e-05 2.41868e-06 0.00186585
0.00191273 0.000135239 -9.44947e-07
0.000135239 5.25176e-05 1.48165e-06
-9.44947e-07 1.48165e-06 -1.74253e-05
0.00196394 0.000169723 7.9888e-07
0.000169723 1.20186e-05 3.1549e-07
7.9888e-07 3.1549e-07 -3.98878e-05
0.00184189 0.000157738 -2.602e-07
0.000157738 -7.16411e-05 6.85284e-07
-2.602e-07 6.85284e-07 -0.000105594
0.00199544 0.000246468 2.04129e-07
0.000246468 0.000138029 -6.01191e-08
2.04129e-07 -6.01191e-08 2.93437e-05
0.00178194 0.000333972 -9.97209e-07
0.000333972 0.000101846 -1.05374e-06
-9.97209e-07 -1.05374e-06 -5.44353e-05
0.00189733 0.000263554 -2.80465e-07
0.000263554 4.49277e-05 -9.88993e-07
-2.80465e-07 -9.88993e-07 -5.79643e-05
0.00184015 5.15306e-05 -1.02293e-06
5.15306e-05 3.87545e-05 -1.39138e-07
-1.02293e-06 -1.39138e-07 -1.28254e-05
0.00192167 4.54702e-05 4.41504e-07
4.54702e-05 3.22459e-05 -1.2888e-07
4.41504e-07 -1.2888e-07 1.30266e-06
0.00198234 5.17307e-05 2.54998e-06
5.17307e-05 2.31563e-05 1.70686e-07
2.54998e-06 1.70686e-07 4.47056e-06
0.00181001 -1.77681e-05 -2.2663e-06
-1.77681e-05 1.14561e-05 6.08287e-08
-2.2663e-06 6.08287e-08 -3.0639e-05
0.00175496 -3.69762e-05 -1.10036e-06
-3.69762e-05 3.48474e-05 -2.36284e-07
-1.10036e-06 -2.36284e-07 -3.85794e-05
0.00190358 -5.95067e-05 1.23145e-06
-5.95067e-05 2.19995e-05 2.37428e-07
1.23145e-06 2.37428e-07 -4.98831e-06
0.00184666 -7.01612e-05 -1.61183e-06
-7.01612e-05 7.74938e-05 5.89339e-07
-1.61183e-06 5.89339e-07 4.77133e-06
0.00187651 -7.12151e-05 4.01887e-07
-7.12151e-05 0.000166772 -4.18144e-07
4.01887e-07 -4.18144e-07 6.49596e-05
0.00188823 -0.000128375 2.161e-06
-0.000128375 8.83715e-05 -5.30595e-08
2.161e-06 -5.30595e-08 6.91618e-06
0.00177972 -0.000121695 2.01875e-06
-0.000121695 0.000108416 -7.19869e-07
2.01875e-06 -7.19869e-07 -7.31372e-06
0.00147753 -8.95193e-05 -1.92066e-06
-8.95193e-05 7.6203e-05 -4.48839e-08
-1.92066e-06 -4.48839e-08 -6.16369e-05
0.00178119 -0.000171506 -1.13881e-06
-0.000171506 0.000130771 5.42344e-07
-1.13881e-06 5.42344e-07 3.01075e-06
0.0014473 -0.000126512 -1.00382e-07
-0.000126512 7.75818e-05 6.2734e-08
-1.00382e-07 6.2734e-08 -6.85276e-05
0.000989836 -8.21636e-05 -1.24269e-05
-8.21636e-05 -2.71126e-05 2.99062e-06
-1.24269e-05 2.99062e-06 -0.000159139
0.00142073 -0.000155534 3.35074e-06
-0.000155534 8.56362e-05 -7.05077e-07
3.35074e-06 -7.05077e-07 -6.84828e-05
0.00100118 -0.000102169 -1.02401e-07
-0.000102169 -1.15492e-05 2.38302e-07
-1.02401e-07 2.38302e-07 -0.000146491
0.00248915 -0.000141695 -4.90476e-05
-0.000141695 0.00103506 6.8305e-06
-4.90476e-05 6.8305e-06 0.000965967
0.00101038 -0.00011879 1.3184e-05
-0.00011879 2.00898e-06 -4.57095e-06
1.3184e-05 -4.57095e-06 -0.000134674
0.00257248 -0.000136265 3.30081e-05
-0.000136265 0.00108448 -3.03805e-06
3.30081e-05 -3.03805e-06 0.00102036
0.00186243 -6.60641e-05 -0.000181843
-6.60641e-05 0.000747473 1.86395e-05
-0.000181843 1.86395e-05 0.0007297
0.00268081 -0.000150945 0.00011353
-0.000150945 0.00115132 -1.55637e-05
0.00011353 -1.55637e-05 0.00109057
0.00155298 -3.81515e-05 -7.50952e-05
-3.81515e-05 0.000574897 8.20675e-06
-7.50952e-05 8.20675e-06 0.000549012
0.00136976 -1.83527e-05 3.41823e-05
-1.83527e-05 0.000477128 -5.32905e-06
3.41823e-05 -5.32905e-06 0.000440805
0.00193006 0.00014235 -6.46453e-07
0.00014235 0.000128085 1.73308e-06
-6.46453e-07 1.73308e-06 3.10175e-05
0.0018111 0.000220392 -1.08417e-06
0.000220392 0.00014807 3.02827e-07
-1.08417e-06 3.02827e-07 3.57117e-06
0.00186541 0.000239274 -7.39899e-07
0.000239274 0.000104414 -1.00176e-07
-7.39899e-07 -1.00176e-07 -2.2876e-05
0.00173327 0.0002178 -2.88469e-06
0.0002178 0.000267447 -4.59106e-07
-2.88469e-06 -4.59106e-07 0.000107358
0.00179062 0.000258802 3.80475e-07
0.000258802 0.00017296 -3.44837e-08
3.80475e-07 -3.44837e-08 1.45605e-05
0.00180993 0.000282979 4.43295e-07
0.000282979 8.97389e-05 1.22966e-07
4.43295e-07 1.22966e-07 -5.60319e-05
0.00101115 0.000156221 -1.38638e-05
0.000156221 7.89158e-06 -5.11832e-06
-1.38638e-05 -5.11832e-06 -0.000136774
0.00150282 0.000231021 3.24426e-06
0.000231021 0.000172392 6.55584e-07
3.24426e-06 6.55584e-07 -7.46987e-07
0.00164772 0.000284231 2.47825e-07
0.000284231 0.000112718 -2.26564e-06
2.47825e-07 -2.26564e-06 -5.72827e-05
0.000514652 0.000176225 -2.25671e-05
0.000176225 -0.00010485 -1.24191e-05
-2.25671e-05 -1.24191e-05 -0.000199402
0.000955241 0.000169398 -6.64321e-07
0.000169398 1.10291e-06 2.71432e-07
-6.64321e-07 2.71432e-07 -0.000149846
0.00136131 0.000243656 7.77782e-06
0.000243656 0.000131241 2.72466e-06
7.77782e-06 2.72466e-06 -5.46013e-05
0.000905962 0.000175818 1.14506e-05
0.000175818 9.22393e-06 5.32009e-06
1.14506e-05 5.32009e-06 -0.000147236
0.000542126 0.000190143 1.59953e-06
0.000190143 -7.44383e-05 4.91465e-07
1.59953e-06 4.91465e-07 -0.000172728
0.00579601 -2.34611e-05 -0.000193804
-2.34611e-05 0.00313474 -2.18143e-05
-0.000193804 -2.18143e-05 0.00311608
0.000462225 0.000161555 2.05167e-05
0.000161555 -0.000109656 1.42573e-05
2.05167e-05 1.42573e-05 -0.000197404
0.00534527 -0.000125699 1.41573e-07
-0.000125699 0.0028724 -5.72004e-07
1.41573e-07 -5.72004e-07 0.00285483
0.00435853 -0.000209193 0.00010618
-0.000209193 0.00230672 5.02211e-06
0.00010618 5.02211e-06 0.00227923
0.00176889 9.33782e-05 -2.59469e-06
9.33782e-05 1.10074e-05 1.17e-06
-2.59469e-06 1.17e-06 -5.36671e-05
0.00188501 0.00013447 1.18963e-06
0.00013447 3.90752e-05 7.78317e-07
1.18963e-06 7.78317e-07 -2.96129e-05
0.00196779 0.000173207 -5.31924e-07
0.000173207 7.63309e-06 -1.74032e-07
-5.31924e-07 -1.74032e-07 -4.16285e-05
0.00196837 0.000241401 1.99545e-06
0.000241401 0.000125644 -5.32713e-07
1.99545e-06 -5.32713e-07 1.96406e-05
0.00179941 5.23835e-08 1.5271e-06
5.23835e-08 6.9178e-05 -2.71407e-07
1.5271e-06 -2.71407e-07 -7.50023e-06
0.00190735 4.538e-05 5.8341e-07
4.538e-05 7.09448e-05 -8.71078e-08
5.8341e-07 -8.71078e-08 2.20402e-05
0.00194099 4.35049e-05 2.18673e-06
4.35049e-05 4.75647e-05 -3.84609e-08
2.18673e-06 -3.84609e-08 1.60544e-05
0.00192719 -2.04076e-05 -1.0882e-06
-2.04076e-05 7.84548e-05 7.94766e-09
-1.0882e-06 7.94766e-09 3.69779e-05
0.00174711 -2.95338e-05 -2.07058e-06
-2.95338e-05 3.20291e-05 -1.35716e-07
-2.07058e-06 -1.35716e-07 -3.85803e-05
0.00180382 -3.06585e-05 2.19239e-06
-3.06585e-05 0.000131754 -6.4063e-07
2.19239e-06 -6.4063e-07 3.11873e-05
0.00178673 -6.96083e-05 -1.63296e-06
-6.96083e-05 4.00658e-05 1.24736e-06
-1.63296e-06 1.24736e-06 -3.68828e-05
0.00176637 -7.08148e-05 -3.11755e-07
-7.08148e-05 0.000105033 3.55432e-07
-3.11755e-07 3.55432e-07 -1.55011e-06
0.00155032 -5.20139e-05 -2.63284e-06
-5.20139e-05 0.000104646 -5.37018e-08
-2.63284e-06 -5.37018e-08 -2.23007e-05
0.00174598 -0.000120734 1.12727e-06
-0.000120734 9.17143e-05 -6.00082e-08
1.12727e-06 -6.00082e-08 -2.39077e-05
0.00146827 -8.7402e-05 5.95788e-07
-8.7402e-05 6.89418e-05 -2.26274e-07
5.95788e-07 -2.26274e-07 -6.84725e-05
0.000986311 -5.66939e-05 -1.22364e-05
-5.66939e-05 -3.76219e-05 2.2337e-06
-1.22364e-05 2.2337e-06 -0.000166007
0.0014418 -0.000124003 2.67805e-06
-0.000124003 7.17439e-05 -4.01406e-07
2.67805e-06 -4.01406e-07 -7.38437e-05
0.00099565 -8.13353e-05 -5.20187e-08
-8.13353e-05 -2.42627e-05 1.64056e-07
-5.20187e-08 1.64056e-07 -0.000155972
0.000588898 -8.09323e-05 -1.96477e-05
-8.09323e-05 -0.000111388 4.81871e-06
-1.96477e-05 4.81871e-06 -0.000186577
0.00101851 -0.000100331 1.26912e-05
-0.000100331 -3.00223e-06 -3.51608e-06
1.26912e-05 -3.51608e-06 -0.000137257
0.00158222 -9.04867e-05 4.63677e-05
-9.04867e-05 0.000486308 -3.03676e-06
4.63677e-05 -3.03676e-06 0.00041882
0.00559849 -0.000120052 -0.000233217
-0.000120052 0.00297237 1.46483e-05
-0.000233217 1.46483e-05 0.00297868
0.00265731 -0.000123105 0.000112655
-0.000123105 0.00112671 -1.26198e-05
0.000112655 -1.26198e-05 0.00106942
0.00156637 -4.87955e-05 -6.76723e-05
-4.87955e-05 0.000579277 5.68992e-06
-6.76723e-05 5.68992e-06 0.000553388
0.00128219 -5.97128e-05 4.5232e-05
-5.97128e-05 0.000425692 -6.28778e-06
4.5232e-05 -6.28778e-06 0.000389248
0.00188617 9.91382e-05 -5.87012e-07
9.91382e-05 0.000119079 1.88096e-06
-5.87012e-07 1.88096e-06 3.62107e-05
0.00186217 0.000153759 4.20559e-07
0.000153759 0.000163512 1.44365e-06
4.20559e-07 1.44365e-06 3.97843e-05
0.00196696 0.000139495 4.38648e-07
0.000139495 0.000156787 3.3319e-08
4.38648e-07 3.3319e-08 5.90887e-05
0.00152557 0.000174417 -3.37926e-06
0.000174417 0.000108073 -3.0217e-07
-3.37926e-06 -3.0217e-07 -4.2257e-05
0.00179594 0.000217227 3.7122e-07
0.000217227 0.000139423 4.43959e-09
3.7122e-07 4.43959e-09 -4.38975e-06
0.00184984 0.000239444 2.83011e-07
0.000239444 8.71755e-05 -2.72263e-07
2.83011e-07 -2.72263e-07 -3.71326e-05
0.000719312 0.000122374 -1.55136e-05
0.000122374 -0.000182914 -4.53967e-06
-1.55136e-05 -4.53967e-06 -0.000322474
0.00175397 0.000219038 2.47847e-06
0.000219038 0.00027954 6.59501e-07
2.47847e-06 6.59501e-07 0.000119473
0.00172774 0.000253622 2.27797e-07
0.000253622 0.000141358 -4.43333e-07
2.27797e-07 -4.43333e-07 -1.818e-05
0.000494595 0.000130061 -1.96096e-05
0.000130061 -0.000134997 -9.80842e-06
-1.96096e-05 -9.80842e-06 -0.000221571
0.000812037 0.00014633 5.26192e-07
0.00014633 -0.000108965 2.92671e-07
5.26192e-07 2.92671e-07 -0.000254152
0.00133635 0.000226639 9.22723e-06
0.000226639 6.99485e-05 1.59595e-06
9.22723e-06 1.59595e-06 -0.000103508
0.00583649 6.09867e-05 -0.000206105
6.09867e-05 0.00313362 -2.11004e-05
-0.000206105 -2.11004e-05 0.00312672
0.000508693 0.000163849 1.07709e-06
0.000163849 -0.000107556 7.19717e-07
1.07709e-06 7.19717e-07 -0.000202955
0.000920998 0.000167388 1.2682e-05
0.000167388 -1.73301e-05 6.17493e-06
1.2682e-05 6.17493e-06 -0.000167951
0.000461495 0.00017366 2.08062e-05
0.00017366 -0.000117227 1.38973e-05
2.08062e-05 1.38973e-05 -0.000216728
0.00566595 -3.51918e-05 8.73072e-06
-3.51918e-05 0.00304799 -7.10664e-07
8.73072e-06 -7.10664e-07 0.0030364
0.00512543 -0.000173417 0.000145739
-0.000173417 0.00274587 7.55977e-06
0.000145739 7.55977e-06 0.00272481
0.00185581 6.30118e-05 -1.7324e-06
6.30118e-05 0.00010061 -6.98311e-07
-1.7324e-06 -6.98311e-07 2.35357e-05
0.00184707 9.43783e-05 4.07717e-07
9.43783e-05 5.50205e-05 6.24264e-07
4.07717e-07 6.24264e-07 -1.05716e-05
0.00185649 0.000133561 1.85435e-06
0.000133561 2.52882e-05 5.11741e-08
1.85435e-06 5.11741e-08 -4.21072e-05
0.00169416 3.93522e-06 2.40975e-06
3.93522e-06 5.85252e-05 -5.36099e-07
2.40975e-06 -5.36099e-07 -4.41145e-05
0.0017444 2.30485e-06 6.85558e-07
2.30485e-06 4.14115e-05 8.57258e-08
6.85558e-07 8.57258e-08 -3.36472e-05
0.00195205 3.7646e-05 1.3409e-06
3.7646e-05 8.97727e-05 4.07495e-08
1.3409e-06 4.07495e-08 4.3551e-05
0.00174225 -2.32747e-05 -2.38718e-06
-2.32747e-05 3.12011e-05 7.16884e-07
-2.38718e-06 7.16884e-07 -3.66678e-05
0.00177534 -2.6535e-05 9.61373e-07
-2.6535e-05 0.000114291 -5.44959e-08
9.61373e-07 -5.44959e-08 1.40665e-05
0.00173556 -1.95833e-05 -6.37543e-07
-1.95833e-05 0.000216746 -5.26381e-07
-6.37543e-07 -5.26381e-07 9.59793e-05
0.0016551 -7.03908e-05 -2.0117e-06
-7.03908e-05 4.32346e-05 1.12632e-06
-2.0117e-06 1.12632e-06 -6.81282e-05
0.00160536 -5.20837e-05 6.75878e-08
-5.20837e-05 0.000138767 6.31241e-08
6.75878e-08 6.31241e-08 1.02459e-05
0.000786446 -2.76579e-05 -1.3772e-05
-2.76579e-05 -0.000162957 1.38787e-06
-1.3772e-05 1.38787e-06 -0.000288948
0.00145202 -8.73221e-05 2.91113e-06
-8.73221e-05 5.74248e-05 -4.49686e-07
2.91113e-06 -4.49686e-07 -7.98517e-05
0.000991748 -5.36574e-05 -3.63828e-08
-5.36574e-05 -3.55029e-05 1.22101e-07
-3.63828e-08 1.22101e-07 -0.000163441
0.000591646 -2.06236e-05 -1.83875e-05
-2.06236e-05 -0.000113317 3.1477e-06
-1.83875e-05 3.1477e-06 -0.000187633
0.00101456 -7.98727e-05 1.23033e-05
-7.98727e-05 -1.44002e-05 -2.65411e-06
1.23033e-05 -2.65411e-06 -0.000145641
0.000595239 -6.34796e-05 -2.23558e-07
-6.34796e-05 -0.00010527 3.36495e-07
-2.23558e-07 3.36495e-07 -0.000182151
0.00560782 -1.47898e-05 -0.000224478
-1.47898e-05 0.00297449 8.89409e-06
-0.000224478 8.89409e-06 0.00298307
0.00062533 -6.69009e-05 1.60137e-05
-6.69009e-05 -8.55876e-05 -6.72989e-06
1.60137e-05 -6.72989e-06 -0.000164577
0.00353015 -7.89514e-05 0.000104529
-7.89514e-05 0.0017466 -3.88025e-06
0.000104529 -3.88025e-06 0.00173051
0.00123647 -7.26559e-05 5.14092e-05
-7.26559e-05 0.00040043 -6.82965e-06
5.14092e-05 -6.82965e-06 0.000361585
0.00180025 9.11696e-05 -9.844e-07
9.11696e-05 8.92047e-05 1.72676e-07
-9.844e-07 1.72676e-07 2.9359e-06
0.00174167 9.37474e-05 2.44592e-06
9.37474e-05 9.45988e-05 2.3509e-06
2.44592e-06 2.3509e-06 -1.79443e-05
0.00193997 9.6717e-05 3.71877e-08
9.6717e-05 0.000152773 -3.82301e-07
3.71877e-08 -3.82301e-07 7.10185e-05
0.00148292 0.000124592 -2.12219e-06
0.000124592 6.86673e-05 -9.82239e-08
-2.12219e-06 -9.82239e-08 -7.29431e-05
0.00183482 0.000152874 5.4972e-07
0.000152874 0.000143264 1.67247e-07
5.4972e-07 1.67247e-07 1.82663e-05
0.00200928 0.000136518 2.0359e-07
0.000136518 0.000188693 -1.81654e-06
2.0359e-07 -1.81654e-06 9.03994e-05
0.000778962 0.000101825 -1.46311e-05
0.000101825 -0.000163538 -3.47371e-06
-1.46311e-05 -3.47371e-06 -0.000297748
0.00162837 0.000176227 -7.71262e-08
0.000176227 0.000171987 2.25428e-07
-7.71262e-08 2.25428e-07 2.12876e-05
0.00178322 0.000214121 7.51001e-07
0.000214121 0.000132615 -5.00635e-07
7.51001e-07 -5.00635e-07 -1.04992e-05
0.00051626 9.22815e-05 -1.79781e-05
9.22815e-05 -0.000139912 -7.20754e-06
-1.79781e-05 -7.20754e-06 -0.000219893
0.00070322 0.000121901 -2.82892e-06
0.000121901 -0.000191648 -3.74463e-07
-2.82892e-06 -3.74463e-07 -0.000331373
0.00177934 0.000220761 8.04192e-06
0.000220761 0.000294411 1.86012e-06
8.04192e-06 1.86012e-06 0.000134285
0.00576843 0.000138079 -0.000224078
0.000138079 0.00307841 -2.01352e-05
-0.000224078 -2.01352e-05 0.00307899
0.000505877 0.000124474 3.75131e-07
0.000124474 -0.00012926 3.43721e-07
3.75131e-07 3.43721e-07 -0.000216291
0.000620494 0.000137085 1.36136e-05
0.000137085 -0.000221551 4.98304e-06
1.36136e-05 4.98304e-06 -0.000367331
0.00574229 7.55559e-05 1.26612e-05
7.55559e-05 0.00307918 1.2267e-06
1.26612e-05 1.2267e-06 0.00307325
0.000484647 0.000150666 1.92194e-05
0.000150666 -0.000120854 1.241e-05
1.92194e-05 1.241e-05 -0.00021694
0.00554979 -6.64611e-05 0.000186965
-6.64611e-05 0.00296947 1.14573e-05
0.000186965 1.14573e-05 0.00296422
0.00179963 4.42983e-05 1.02558e-06
4.42983e-05 0.000109156 -5.78222e-07
1.02558e-06 -5.78222e-07 8.44834e-06
0.00178752 6.04113e-05 -1.72143e-06
6.04113e-05 6.68896e-05 4.62824e-07
-1.72143e-06 4.62824e-07 -1.18848e-05
0.00193901 9.52051e-05 2.08093e-06
9.52051e-05 0.000107077 1.84272e-07
2.08093e-06 1.84272e-07 4.06195e-05
0.00174086 -1.90157e-06 4.73498e-07
-1.90157e-06 0.000225588 -3.31711e-07
4.73498e-07 -3.31711e-07 0.000107036
0.00169935 2.15736e-06 1.07808e-07
2.15736e-06 6.01082e-05 4.42161e-08
1.07808e-07 4.42161e-08 -4.0847e-05
0.00168765 5.80747e-06 1.23346e-06
5.80747e-06 1.20956e-05 2.44571e-07
1.23346e-06 2.44571e-07 -6.13327e-05
0.00174259 -2.26991e-05 -4.00022e-07
-2.26991e-05 9.44147e-05 6.15034e-07
-4.00022e-07 6.15034e-07 -5.49344e-06
0.00174302 -1.9568e-05 2.71613e-06
-1.9568e-05 0.000220617 -2.24426e-07
2.71613e-06 -2.24426e-07 9.98438e-05
0.000801319 -9.26743e-06 -1.32912e-05
-9.26743e-06 -0.000152224 5.16224e-07
-1.32912e-05 5.16224e-07 -0.000275138
0.00166313 -5.23127e-05 2.96591e-06
-5.23127e-05 0.000174462 5.05465e-08
2.96591e-06 5.05465e-08 4.43589e-05
0.000892425 -2.72148e-05 -2.24452e-06
-2.72148e-05 -0.000100379 2.23447e-07
-2.24452e-06 2.23447e-07 -0.000225868
0.00059617 -6.41155e-06 -1.86375e-05
-6.41155e-06 -0.000114708 2.04538e-06
-1.86375e-05 2.04538e-06 -0.000187621
0.0010015 -5.17977e-05 1.18562e-05
-5.17977e-05 -3.04882e-05 -1.95663e-06
1.18562e-05 -1.95663e-06 -0.000158087
0.000575848 -3.136e-05 8.16979e-07
-3.136e-05 -0.000124486 -4.97357e-08
8.16979e-07 -4.97357e-08 -0.000197411
0.0055613 -0.000112279 -0.000233122
-0.000112279 0.00295516 9.30683e-06
-0.000233122 9.30683e-06 0.00296051
0.000572226 -4.70082e-05 1.77774e-05
-4.70082e-05 -0.000119013 -3.78947e-06
1.77774e-05 -3.78947e-06 -0.00019566
0.00558632 -5.07743e-05 7.77879e-06
-5.07743e-05 0.00296271 -4.91959e-08
7.77879e-06 -4.91959e-08 0.00297144
0.00156827 -1.98703e-05 0.000187622
-1.98703e-05 0.000572488 -1.02997e-05
0.000187622 -1.02997e-05 0.000559274
0.00166882 6.79816e-05 2.55386e-06
6.79816e-05 4.70475e-05 4.84864e-07
2.55386e-06 4.84864e-07 -6.19024e-05
0.00178765 9.53357e-05 -3.21574e-06
9.53357e-05 7.61934e-05 -7.54697e-07
-3.21574e-06 -7.54697e-07 -7.28142e-06
0.00148421 7.65749e-05 -1.20504e-06
7.65749e-05 6.84165e-05 1.66384e-07
-1.20504e-06 1.66384e-07 -6.40323e-05
0.00174678 9.26763e-05 6.18638e-07
9.26763e-05 9.67123e-05 1.81355e-07
6.18638e-07 1.81355e-07 -1.59327e-05
0.00199198 9.45286e-05 -5.92045e-07
9.45286e-05 0.000185266 -3.07907e-06
-5.92045e-07 -3.07907e-06 0.000104611
0.00104335 7.93411e-05 -1.24256e-05
7.93411e-05 -1.203e-05 -2.36835e-06
-1.24256e-05 -2.36835e-06 -0.000139027
0.00148069 0.000124319 8.89401e-08
0.000124319 6.88041e-05 6.41402e-08
8.89401e-08 6.41402e-08 -7.29731e-05
0.00180321 0.000151839 1.49539e-07
0.000151839 0.000120614 -9.09283e-07
1.49539e-07 -9.09283e-07 -5.65536e-06
0.000539912 6.53835e-05 -1.75209e-05
6.53835e-05 -0.000138966 -5.2024e-06
-1.75209e-05 -5.2024e-06 -0.000215363
0.0008749 0.000105726 -3.02231e-06
0.000105726 -0.000105417 -2.91602e-07
-3.02231e-06 -2.91602e-07 -0.000239225
0.00173518 0.000177951 4.3146e-06
0.000177951 0.00023847 1.07715e-06
4.3146e-06 1.07715e-06 8.74331e-05
0.00571682 0.000182526 -0.000242579
0.000182526 0.00304886 -1.93791e-05
-0.000242579 -1.93791e-05 0.003049
0.000535054 9.14728e-05 4.23187e-08
9.14728e-05 -0.000129735 1.80422e-07
4.23187e-08 1.80422e-07 -0.000209872
0.00068606 0.000121466 9.56166e-06
0.000121466 -0.000201245 3.62577e-06
9.56166e-06 3.62577e-06 -0.000341087
0.00572127 0.000158207 1.07063e-05
0.000158207 0.00305964 2.83476e-06
1.07063e-05 2.83476e-06 0.00305607
0.000521858 0.00011756 1.84089e-05
0.00011756 -0.000121308 9.71403e-06
1.84089e-05 9.71403e-06 -0.000208349
0.00567525 6.99786e-05 0.000212634
6.99786e-05 0.00302869 1.70881e-05
0.000212634 1.70881e-05 0.00303027
0.00172723 3.01364e-05 1.19294e-06
3.01364e-05 0.000217632 -2.44581e-08
1.19294e-06 -2.44581e-08 9.8512e-05
0.00176332 3.97195e-05 -1.32844e-06
3.97195e-05 9.07917e-05 8.16449e-08
-1.32844e-06 8.16449e-08 -1.13167e-05
0.00173007 5.76495e-05 -1.44522e-06
5.76495e-05 4.02618e-05 4.47129e-07
-1.44522e-06 4.47129e-07 -4.01584e-05
0.000794629 -7.66219e-06 -1.3771e-05
-7.66219e-06 -0.00014944 -1.35943e-07
-1.3771e-05 -1.35943e-07 -0.000270804
0.00174547 3.93932e-06 3.12402e-06
3.93932e-06 0.000228215 -1.87789e-07
3.12402e-06 -1.87789e-07 0.000109619
0.00170452 2.37243e-07 -1.46064e-06
2.37243e-07 6.17397e-05 5.03521e-07
-1.46064e-06 5.03521e-07 -3.75128e-05
0.00175515 -1.99273e-05 5.89921e-06
-1.99273e-05 0.000227254 7.71257e-08
5.89921e-06 7.71257e-08 0.000106473
0.000793372 -9.3749e-06 -1.69674e-06
-9.3749e-06 -0.000157883 7.54668e-08
-1.69674e-06 7.54668e-08 -0.000281045
0.000598561 -2.85947e-05 -1.90168e-05
-2.85947e-05 -0.000114112 7.73227e-07
-1.90168e-05 7.73227e-07 -0.000184857
0.000981845 -2.59499e-05 1.01702e-05
-2.59499e-05 -4.74632e-05 -1.17275e-06
1.01702e-05 -1.17275e-06 -0.00017247
0.000576426 4.42726e-06 3.25508e-07
4.42726e-06 -0.0001267 9.0159e-08
3.25508e-07 9.0159e-08 -0.000198978
0.00559633 -8.94356e-05 -0.000239952
-8.94356e-05 0.00297348 6.58594e-06
-0.000239952 6.58594e-06 0.00298102
0.000588114 -3.40913e-05 1.85706e-05
-3.40913e-05 -0.000115562 -2.57492e-06
1.85706e-05 -2.57492e-06 -0.00018968
0.00559594 -6.04863e-06 -3.03206e-06
-6.04863e-06 0.00296674 1.59546e-06
-3.03206e-06 1.59546e-06 0.00297732
0.00559361 -6.9043e-05 0.000233266
-6.9043e-05 0.00296561 -8.27953e-06
0.000233266 -8.27953e-06 0.00297554
0.0014579 4.61643e-05 -1.07035e-06
4.61643e-05 5.80878e-05 3.54739e-08
-1.07035e-06 3.54739e-08 -6.97964e-05
0.00172976 7.12732e-05 -1.44027e-06
7.12732e-05 8.1319e-05 -1.29262e-06
-1.44027e-06 -1.29262e-06 -2.34629e-05
0.00177408 9.98042e-05 -4.25319e-06
9.98042e-05 6.2606e-05 -1.52695e-06
-4.25319e-06 -1.52695e-06 -1.81161e-05
0.00104618 4.58641e-05 -1.21858e-05
4.58641e-05 -9.39192e-06 -1.83385e-06
-1.21858e-05 -1.83385e-06 -0.000131697
0.00146995 7.63598e-05 1.82754e-07
7.63598e-05 6.00899e-05 1.91069e-08
1.82754e-07 1.91069e-08 -7.27502e-05
0.00175247 9.15235e-05 -1.0369e-06
9.15235e-05 9.95375e-05 -1.76778e-06
-1.0369e-06 -1.76778e-06 -1.31988e-05
0.000567281 4.09064e-05 -1.71096e-05
4.09064e-05 -0.000128353 -3.75736e-06
-1.71096e-05 -3.75736e-06 -0.000202588
0.00101254 8.05213e-05 2.2162e-07
8.05213e-05 -2.96788e-05 2.27739e-07
2.2162e-07 2.27739e-07 -0.0001572
0.00147933 0.000124094 2.7381e-06
0.000124094 6.90913e-05 2.88071e-07
2.7381e-06 2.88071e-07 -7.28665e-05
0.00564986 0.000174254 -0.000254437
0.000174254 0.00301145 -1.67775e-05
-0.000254437 -1.67775e-05 0.0030125
0.000564874 6.83114e-05 3.25033e-07
6.83114e-05 -0.00012422 1.51783e-07
3.25033e-07 1.51783e-07 -0.000201119
0.00096834 0.00010959 9.59604e-06
0.00010959 -4.89588e-05 3.0274e-06
9.59604e-06 3.0274e-06 -0.000182326
0.0056997 0.000196109 6.16714e-06
0.000196109 0.00304544 2.66866e-06
6.16714e-06 2.66866e-06 0.00304287
0.000557053 9.18533e-05 1.75691e-05
9.18533e-05 -0.000117092 7.61157e-06
1.75691e-05 7.61157e-06 -0.000197537
0.00570571 0.000181189 0.000232144
0.000181189 0.00305041 2.21036e-05
0.000232144 2.21036e-05 0.00304741
0.00101108 1.3998e-05 -1.28594e-05
1.3998e-05 -1.91952e-05 -7.23214e-07
-1.28594e-05 -7.23214e-07 -0.000138988
0.00161656 2.57541e-05 3.57831e-06
2.57541e-05 0.000152991 1.09457e-07
3.57831e-06 1.09457e-07 3.34113e-05
0.00172559 3.44956e-05 -3.98663e-06
3.44956e-05 7.12898e-05 1.28687e-07
-3.98663e-06 1.28687e-07 -3.22393e-05
0.000625652 2.97153e-05 -1.94899e-05
2.97153e-05 -0.000104975 -4.61623e-07
-1.94899e-05 -4.61623e-07 -0.000168778
0.000772717 -2.1207e-06 -1.90416e-06
-2.1207e-06 -0.000163126 5.81042e-08
-1.90416e-06 5.81042e-08 -0.000284641
0.00174665 1.01932e-05 5.86269e-06
1.01932e-05 0.000228765 1.23366e-07
5.86269e-06 1.23366e-07 0.000110109
0.000782386 -9.11351e-06 9.98002e-06
-9.11351e-06 -0.000165436 -3.86388e-07
9.98002e-06 -3.86388e-07 -0.000288825
0.000591232 -4.35263e-06 2.77933e-07
-4.35263e-06 -0.000118145 3.10318e-07
2.77933e-07 3.10318e-07 -0.000189083
0.00556544 3.97688e-05 -0.000245544
3.97688e-05 0.00295116 -5.05751e-07
-0.000245544 -5.05751e-07 0.00296246
0.000552882 1.56759e-05 1.80782e-05
1.56759e-05 -0.000141501 -1.18459e-06
1.80782e-05 -1.18459e-06 -0.000212822
0.00557685 -8.8163e-05 -7.84924e-06
-8.8163e-05 0.0029627 1.54286e-06
-7.84924e-06 1.54286e-06 0.00296994
0.00556391 1.37921e-05 0.000224936
1.37921e-05 0.00294812 -3.71188e-06
0.000224936 -3.71188e-06 0.0029584
0.00102409 2.4461e-05 -1.26417e-05
2.4461e-05 -1.6221e-05 -1.37369e-06
-1.26417e-05 -1.37369e-06 -0.00013637
0.00146326 4.55849e-05 -1.4434e-07
4.55849e-05 6.09664e-05 -6.96196e-08
-1.4434e-07 -6.96196e-08 -6.46485e-05
0.00179285 7.4316e-05 -4.4739e-06
7.4316e-05 0.00011663 -2.05e-06
-4.4739e-06 -2.05e-06 1.603e-05
0.0026219 4.97634e-05 -0.00011795
4.97634e-05 0.00108893 -3.75346e-06
-0.00011795 -3.75346e-06 0.00104062
0.00101434 4.77425e-05 2.56682e-07
4.77425e-05 -2.85387e-05 1.1925e-07
2.56682e-07 1.1925e-07 -0.000151217
0.00145654 7.60806e-05 2.36483e-06
7.60806e-05 5.22107e-05 6.31495e-09
2.36483e-06 6.31495e-09 -8.10297e-05
0.00558506 0.000137818 -0.000256613
0.000137818 0.00297117 -1.24887e-05
-0.000256613 -1.24887e-05 0.00297585
0.000599715 5.76107e-05 8.25862e-07
5.76107e-05 -0.000107306 3.39697e-07
8.25862e-07 3.39697e-07 -0.000183042
0.000985661 8.18425e-05 1.23297e-05
8.18425e-05 -4.49641e-05 2.78135e-06
1.23297e-05 2.78135e-06 -0.000172988
0.00568922 0.000186204 1.74288e-06
0.000186204 0.00303678 1.65498e-06
1.74288e-06 1.65498e-06 0.00303677
0.000600238 7.38345e-05 1.79354e-05
7.38345e-05 -0.000102295 5.97503e-06
1.79354e-05 5.97503e-06 -0.000180268
0.00568391 0.000222817 0.000243232
0.000222817 0.00304434 2.35371e-05
0.000243232 2.35371e-05 0.00303747
0.000670987 9.28792e-06 -1.63419e-05
9.28792e-06 -6.77989e-05 -1.76207e-06
-1.63419e-05 -1.76207e-06 -0.000139569
0.000884813 1.22029e-05 6.73169e-07
1.22029e-05 -9.44585e-05 2.50664e-07
6.73169e-07 2.50664e-07 -0.000214956
0.00150287 2.08992e-05 5.10246e-06
2.08992e-05 8.64651e-05 9.57771e-08
5.10246e-06 9.57771e-08 -3.35411e-05
0.00543364 -9.33581e-05 -0.000229059
-9.33581e-05 0.00288962 1.02662e-06
-0.000229059 1.02662e-06 0.00289123
0.000587358 7.79834e-06 -5.11866e-07
7.79834e-06 -0.000122819 1.35917e-07
-5.11866e-07 1.35917e-07 -0.00018928
0.000764141 2.84791e-06 9.82613e-06
2.84791e-06 -0.000169165 1.11394e-07
9.82613e-06 1.11394e-07 -0.000290789
0.000551027 2.07031e-05 1.83101e-05
2.07031e-05 -0.000142257 1.5863e-07
1.83101e-05 1.5863e-07 -0.0002126
0.00551791 3.92175e-06 2.5054e-06
3.92175e-06 0.00292754 -8.83915e-07
2.5054e-06 -8.83915e-07 0.0029355
0.00558736 -2.82449e-06 0.000234083
-2.82449e-06 0.00295971 -1.84515e-06
0.000234083 -1.84515e-06 0.00297151
0.00268946 7.49212e-06 -0.000114702
7.49212e-06 0.00112581 -2.33673e-06
-0.000114702 -2.33673e-06 0.00107884
0.00101972 2.73514e-05 4.64988e-08
2.73514e-05 -2.02946e-05 1.05524e-07
4.64988e-08 1.05524e-07 -0.000140691
0.00146451 4.51598e-05 2.08761e-06
4.51598e-05 6.16496e-05 -1.75541e-07
2.08761e-06 -1.75541e-07 -6.16904e-05
0.00518968 -5.69631e-05 -7.97182e-05
-5.69631e-05 0.00274789 4.74609e-07
-7.97182e-05 4.74609e-07 0.00273392
0.000615274 4.99813e-05 6.11927e-08
4.99813e-05 -9.99997e-05 2.13057e-07
6.11927e-08 2.13057e-07 -0.000172981
0.000999032 5.01476e-05 1.21066e-05
5.01476e-05 -3.85035e-05 2.11212e-06
1.21066e-05 2.11212e-06 -0.000161497
0.00563411 0.000108031 -1.08632e-05
0.000108031 0.00299565 -1.16657e-06
-1.08632e-05 -1.16657e-06 0.00300206
0.000629197 7.95457e-05 1.93642e-05
7.95457e-05 -8.92881e-05 5.00489e-06
1.93642e-05 5.00489e-06 -0.000165657
0.00570139 0.000210359 0.000254089
0.000210359 0.00305128 2.16777e-05
0.000254089 2.16777e-05 0.00304777
0.00166768 -4.98141e-05 -0.000193591
-4.98141e-05 0.000626194 7.19774e-07
-0.000193591 7.19774e-07 0.000617699
0.00164909 2.55578e-05 -4.78322e-05
2.55578e-05 0.000506149 2.07805e-07
-4.78322e-05 2.07805e-07 0.0004512
0.000756264 1.28423e-05 1.24093e-05
1.28423e-05 -0.000170799 9.24218e-07
1.24093e-05 9.24218e-07 -0.000292062
0.00549215 -4.01941e-05 7.77163e-06
-4.01941e-05 0.0029189 1.31747e-06
7.77163e-06 1.31747e-06 0.00292466
0.00060333 -1.23785e-05 1.88379e-05
-1.23785e-05 -0.000108236 8.09064e-07
1.88379e-05 8.09064e-07 -0.000177836
0.00554932 -6.37325e-05 0.000248236
-6.37325e-05 0.00294724 -2.10104e-06
0.000248236 -2.10104e-06 0.00295576
0.00126737 9.84924e-06 -3.89435e-05
9.84924e-06 0.000411949 -6.6909e-07
-3.89435e-05 -6.6909e-07 0.000377922
0.00164003 1.25834e-05 -4.82357e-05
1.25834e-05 0.000504314 -6.37421e-07
-4.82357e-05 -6.37421e-07 0.000446221
0.00100426 2.88541e-05 1.23616e-05
2.88541e-05 -3.05849e-05 1.63443e-06
1.23616e-05 1.63443e-06 -0.000151258
0.00343333 5.00651e-05 9.12596e-05
5.00651e-05 0.00168854 2.16546e-06
9.12596e-05 2.16546e-06 0.00167723
0.000622092 5.99832e-05 1.96097e-05
5.99832e-05 -9.57941e-05 3.87708e-06
1.96097e-05 3.87708e-06 -0.00016887
0.00568312 9.78944e-05 0.00024291
9.78944e-05 0.00301935 1.31681e-05
0.00024291 1.31681e-05 0.0030286
0.00544216 -2.18396e-05 -8.87358e-06
-2.18396e-05 0.00289175 -1.94229e-06
-8.87358e-06 -1.94229e-06 0.00289671
0.000605503 4.32123e-05 2.02198e-05
4.32123e-05 -0.00011519 1.95251e-06
2.02198e-05 1.95251e-06 -0.000178872
0.00540987 4.99958e-05 0.000234953
4.99958e-05 0.00286718 2.30395e-08
0.000234953 2.30395e-08 0.00287576
0.00337737 2.64901e-05 0.000104965
2.64901e-05 0.00165939 3.22997e-06
0.000104965 3.22997e-06 0.00164835
0.000634402 4.98871e-06 1.88109e-05
4.98871e-06 -9.02687e-05 2.64705e-06
1.88109e-05 2.64705e-06 -0.000160282
0.00557445 -2.52027e-05 0.000234239
-2.52027e-05 0.00295764 5.82223e-06
0.000234239 5.82223e-06 0.00296629
0.00547826 -0.000127038 0.000231236
-0.000127038 0.00291865 -2.95066e-06
0.000231236 -2.95066e-06 0.00291875
0.00546619 -1.03564e-05 0.000230627
-1.03564e-05 0.00289144 3.03819e-06
0.000230627 3.03819e-06 0.00290335
