# vtk DataFile Version 2.0
Wound Healing Simulation
ASCII
DATASET UNSTRUCTURED_GRID
POINTS 3012 float
69.9759 18.75 4
67.2507 60.3285 4
69.976 18.75 2
73.0099 25.446 4
71.1327 20.9142 4
68.6801 16.6661 4
67.8241 19.9264 3.97922
67.2507 60.3286 2
71.1327 54.0858 4
68.6801 58.3339 4
65.6939 62.2254 4
65.3107 59.0005 3.97825
74.6784 42.3946 4
73.7221 47.2057 4
69.9759 18.75 0
73.0099 25.446 2
68.6801 16.6661 2
71.1327 20.9142 2
67.8247 19.9298 2
74.6792 32.6053 4
73.7222 27.7943 4
72.1454 23.1494 4
70.613 26.2211 3.97885
68.8844 21.9581 3.97967
67.2507 14.6715 4
66.6356 17.9726 3.97835
65.7928 21.0278 3.96839
67.2507 60.3285 0
71.1327 54.0858 2
68.6801 58.3339 2
65.694 62.2255 2
65.3121 58.996 2
72.1454 51.8506 4
69.9759 56.25 4
68.835 53.1131 3.97887
64.0165 64.0165 4
66.6093 57.1333 3.97887
63.8838 60.7647 3.97857
63.4961 57.767 3.96902
60.3285 67.2507 4
74.6792 42.3947 2
73.7222 47.2057 2
74.9194 39.9526 4
74.2788 44.8158 4
72.1674 42.0856 3.97892
73.0099 49.554 4
71.2482 46.598 3.97828
73.0099 25.446 0
71.1327 20.9142 0
68.6801 16.6661 0
67.8241 19.9264 0.0207803
74.6792 32.6053 2
73.7222 27.7943 2
67.2508 14.6715 2
72.1455 23.1494 2
70.6129 26.2217 2
66.6365 17.9771 2
68.8846 21.9603 2
65.792 21.0287 2
74.9197 35.0474 4
74.2794 30.1841 4
72.1841 32.9437 3.97921
71.2772 28.4316 3.97856
69.8143 24.0596 3.97945
68.3432 26.9528 3.96778
66.7585 22.9351 3.96806
65.694 12.7746 4
65.3218 16.1048 3.97759
64.7092 19.1989 3.96879
63.861 22.0464 3.96554
71.1327 54.0858 0
65.6939 62.2254 0
68.6801 58.3339 0
65.3107 59.0005 0.0217532
72.1455 51.8506 2
69.9759 56.25 2
68.8352 53.111 2
64.0165 64.0165 2
66.6102 57.1291 2
63.8857 60.7606 2
63.4953 57.7667 2
62.2254 65.694 4
58.8934 65.4136 3.98826
69.7676 50.9889 3.9786
67.7823 55.1671 3.97896
66.6453 52.2077 3.96754
62.3341 62.426 3.98126
64.6566 56.0287 3.96879
62.1982 59.3962 3.96864
61.8138 56.6717 3.96485
58.3339 68.6801 4
60.3285 67.2508 2
73.7221 47.2057 0
74.6784 42.3946 0
74.9197 39.9526 2
74.2794 44.8159 2
72.1668 42.0855 2
73.0099 49.554 2
71.248 46.5977 2
75 37.5 4
72.4047 39.8024 3.97965
71.7816 44.3529 3.9789
69.8011 41.7899 3.96843
70.5739 48.8135 3.97825
68.9086 46.0143 3.96782
74.6792 32.6053 0
73.7222 27.7943 0
67.2507 14.6715 0
72.1454 23.1494 0
70.613 26.2211 0.0211537
68.8844 21.9581 0.020328
66.6356 17.9726 0.0216485
65.7928 21.0278 0.0316082
74.9197 35.0474 2
74.2794 30.1841 2
72.1835 32.944 2
71.277 28.4321 2
65.694 12.7745 2
65.3234 16.1098 2
69.8143 24.0608 2
68.3429 26.9535 2
64.7083 19.1997 2
66.7579 22.936 2
63.8609 22.0468 2
72.4125 35.2244 3.97968
71.8031 30.6766 3.97917
69.8372 33.2694 3.96859
68.9627 29.0394 3.96794
67.6075 24.9135 3.96787
66.1577 27.6439 3.967
64.0165 10.9835 4
64.7244 23.8406 3.96605
63.8879 14.3294 3.97853
63.5083 17.4539 3.96935
62.8856 20.3326 3.96479
62.0155 22.9712 3.96716
60.6823 11.0999 3.98281
57.6101 11.4551 3.97429
72.1454 51.8506 0
69.9759 56.25 0
68.835 53.1131 0.0211344
64.0165 64.0165 0
63.8838 60.7647 0.0214317
66.6093 57.1333 0.0211292
63.4961 57.767 0.0309808
62.2255 65.694 2
58.8951 65.4123 2
69.7675 50.9878 2
67.7828 55.1638 2
66.6447 52.2069 2
62.3363 62.4226 2
64.6556 56.0281 2
62.1973 59.3969 2
61.8132 56.6715 2
60.6669 63.9754 3.98397
57.0245 66.7346 3.98974
57.5561 63.6864 3.97655
67.5034 50.1755 3.96733
65.6977 54.1713 3.96801
64.5001 51.3744 3.96548
60.7693 60.9277 3.97144
62.8052 55.0592 3.96479
60.6483 58.1452 3.96462
60.3049 55.7671 3.96422
56.25 69.9759 4
58.3339 68.6801 2
60.3285 67.2507 0
58.92 9.65763 3.98542
62.2254 9.30607 4
73.0099 49.554 0
74.2788 44.8158 0
71.2482 46.598 0.0217183
72.1674 42.0856 0.0210828
74.9194 39.9526 0
75 37.5 2
72.4046 39.8024 2
71.7815 44.3525 2
69.8005 41.7895 2
70.5737 48.8131 2
68.9085 46.0137 2
72.4881 37.5123 3.97929
70.0385 39.6578 3.96862
69.4272 43.9074 3.96831
67.5626 41.4943 3.96899
68.262 48.1062 3.96743
66.6642 45.432 3.96789
74.9197 35.0474 0
74.2794 30.1841 0
72.1841 32.9437 0.0207863
71.2772 28.4316 0.021441
65.694 12.7746 0
65.3218 16.1048 0.0224059
69.8143 24.0596 0.020554
68.3432 26.9528 0.0322171
66.7585 22.9351 0.0319435
64.7092 19.1989 0.0312108
63.861 22.0464 0.0344637
72.4125 35.2245 2
71.803 30.6771 2
69.8366 33.2698 2
68.9626 29.04 2
64.0165 10.9835 2
63.89 14.334 2
63.5073 17.4547 2
67.6071 24.9143 2
66.1579 27.6443 2
62.886 20.3329 2
64.7242 23.8412 2
62.0146 22.9718 2
60.6852 11.1035 2
57.612 11.4547 2
70.0553 35.3928 3.96868
69.4641 31.1506 3.96828
67.6246 33.5954 3.96859
66.7346 29.6309 3.96739
65.4877 25.7094 3.96651
64.0373 28.2792 3.97103
62.3398 12.6574 3.98065
62.7675 24.6644 3.96859
62.1941 15.7964 3.96957
61.8011 18.6987 3.96441
61.15 21.3712 3.96522
60.2914 23.7724 3.96993
59.243 12.7949 3.97241
55.8724 10.2408 3.97694
56.4007 13.1421 3.97157
69.7676 50.9889 0.0213998
62.2254 65.694 0
58.8934 65.4136 0.01174
67.7823 55.1671 0.0210358
66.6453 52.2077 0.032464
62.3341 62.426 0.0187433
62.1982 59.3962 0.0313573
64.6566 56.0287 0.0312122
61.8138 56.6717 0.0351547
60.669 63.9733 2
57.0258 66.7337 2
57.5564 63.6871 2
67.503 50.1748 2
65.6969 54.1706 2
64.5002 51.374 2
60.7684 60.9288 2
62.8057 55.0591 2
60.648 58.1454 2
60.3054 55.7671 2
55.0704 67.9315 3.99119
59.2158 62.3549 3.97264
55.8032 64.9055 3.98068
56.322 62.0707 3.97373
65.2862 49.3972 3.96618
63.6792 53.2825 3.96504
62.3398 50.6244 3.96748
59.3247 59.5402 3.96554
61.0293 54.2875 3.96586
59.2656 56.9897 3.96319
59.1984 55.1565 3.96623
48.1009 68.5768 3.98666
50.9482 69.9313 3.99143
54.0858 71.1327 4
56.25 69.976 2
58.3339 68.6801 0
57.0574 8.33695 3.98676
60.3285 7.74928 4
58.9229 9.65989 2
62.2255 9.30602 2
70.5739 48.8135 0.0217502
71.7816 44.3529 0.0210968
68.9086 46.0143 0.0321789
69.8011 41.7899 0.0315695
72.4047 39.8024 0.0203513
75 37.5 0
72.4875 37.5123 2
70.0384 39.6577 2
69.427 43.907 2
67.5624 41.4941 2
68.2617 48.1056 2
66.6635 45.4316 2
70.1266 37.5222 3.9687
67.8044 39.5112 3.96914
67.1816 43.4643 3.96835
65.4415 41.1998 3.97452
66.0208 47.4081 3.96716
64.5234 44.8277 3.97173
72.4125 35.2244 0.0203216
71.8031 30.6766 0.0208306
69.8372 33.2694 0.0314069
68.9627 29.0394 0.032062
64.0165 10.9835 0
63.8879 14.3294 0.0214736
63.5083 17.4539 0.030649
67.6075 24.9135 0.0321319
66.1577 27.6439 0.032999
64.7244 23.8406 0.0339478
62.8856 20.3326 0.0352065
62.0155 22.9712 0.0328429
60.6823 11.0999 0.017189
57.6101 11.4551 0.0257099
70.0552 35.393 2
69.464 31.1511 2
67.6245 33.5956 2
66.7344 29.6313 2
62.3422 12.662 2
62.1931 15.7966 2
61.801 18.6989 2
65.4876 25.7099 2
64.0356 28.2798 2
61.1488 21.3716 2
62.7665 24.6649 2
60.2911 23.7732 2
59.2446 12.7932 2
56.4017 13.1397 2
55.8739 10.2404 2
67.8442 35.5501 3.96907
67.2314 31.6287 3.96815
65.5935 33.9376 3.97405
64.5519 30.2123 3.97192
63.4386 26.44 3.96978
62.0783 28.8145 3.97541
60.7714 14.2372 3.97128
60.8959 25.381 3.97225
60.6008 17.1466 3.96545
60.1671 19.8475 3.9629
59.5343 22.3061 3.96654
58.798 24.3793 3.9728
54.036 9.14196 3.97912
57.9034 14.3579 3.97063
54.7828 12.0297 3.97354
55.3035 14.6844 3.969
67.5034 50.1755 0.0326722
57.0245 66.7346 0.0102559
60.6669 63.9754 0.0160322
57.5561 63.6864 0.0234505
65.6977 54.1713 0.0319884
64.5001 51.3744 0.034516
60.7693 60.9277 0.0285568
60.6483 58.1452 0.0353782
62.8052 55.0592 0.0352112
60.3049 55.7671 0.0357761
55.0715 67.9312 2
59.2164 62.3571 2
55.8035 64.9061 2
56.3213 62.0731 2
65.2861 49.3968 2
63.6794 53.2822 2
62.3393 50.6239 2
59.3236 59.5412 2
61.0301 54.2875 2
59.2679 56.9899 2
59.2005 55.1564 2
53.0424 68.9994 3.99129
53.9655 66.0106 3.98344
57.8738 60.851 3.97125
54.681 63.1989 3.9763
55.2025 60.5889 3.97138
63.0773 48.634 3.96897
61.6632 52.5495 3.96664
60.1044 49.9752 3.96957
58.0007 58.24 3.96599
59.2445 53.9137 3.96742
58.0574 55.7778 3.96153
50.1076 67.8552 3.98618
47.4619 66.5763 3.98264
46.0547 69.1558 3.98697
48.101 68.5775 2
48.8021 70.7225 3.99157
50.9489 69.9311 2
51.8506 72.1454 4
54.0858 71.1327 2
56.25 69.9759 0
55.1021 7.1414 3.98911
58.3339 6.31992 4
57.0597 8.33849 2
60.3286 7.74926 2
58.92 9.65763 0.0145764
62.2254 9.30607 0
68.262 48.1062 0.0325712
69.4272 43.9074 0.0316929
66.6642 45.432 0.0321094
67.5626 41.4943 0.0310067
70.0385 39.6578 0.0313845
72.4881 37.5123 0.0207141
70.1261 37.5222 2
67.8036 39.5111 2
67.1823 43.464 2
65.4396 41.1995 2
66.021 47.4077 2
64.5215 44.8272 2
67.9045 37.5228 3.96914
65.6807 39.3655 3.9752
65.0555 43.0099 3.97323
63.5657 40.9115 3.97709
63.8369 46.6919 3.97022
62.605 44.1846 3.97584
70.0553 35.3928 0.0313173
69.4641 31.1506 0.031718
67.6246 33.5954 0.0314098
66.7346 29.6309 0.0326065
62.3398 12.6574 0.0193472
62.1941 15.7964 0.0304275
61.8011 18.6987 0.0355894
65.4877 25.7094 0.0334864
64.0373 28.2792 0.0289744
62.7675 24.6644 0.0314125
61.15 21.3712 0.0347775
60.2914 23.7724 0.0300728
59.243 12.7949 0.0275862
56.4007 13.1421 0.0284266
55.8724 10.2408 0.0230565
67.8435 35.5503 2
67.232 31.629 2
65.5911 33.9379 2
64.5499 30.2128 2
60.7712 14.2383 2
60.6001 17.1469 2
60.1681 19.8475 2
63.4374 26.4405 2
62.076 28.8153 2
59.5358 22.3067 2
60.8953 25.3818 2
58.7972 24.3806 2
57.9039 14.3558 2
55.3044 14.6836 2
54.0374 9.14044 2
54.7839 12.0269 2
65.7735 35.6725 3.97487
65.0709 32.1702 3.97264
64.1217 34.2653 3.97724
62.3997 30.6684 3.97639
61.4835 27.1132 3.97342
60.624 29.1884 3.97705
59.3013 15.6913 3.96655
59.1228 25.8556 3.97568
59.0962 18.385 3.96247
58.6366 20.9023 3.96333
58.1096 23.1554 3.96754
57.7648 24.7341 3.97424
52.1113 8.15744 3.98227
53.0551 11.0298 3.97446
56.6636 15.7769 3.96896
53.8024 13.7131 3.97225
54.3592 16.042 3.96879
55.0704 67.9315 0.00881008
65.2862 49.3972 0.0338211
55.8032 64.9055 0.0193173
59.2158 62.3549 0.0273585
56.322 62.0707 0.0262668
63.6792 53.2825 0.0349629
62.3398 50.6244 0.0325214
59.3247 59.5402 0.0344635
59.2656 56.9897 0.0368056
61.0293 54.2875 0.0341365
59.1984 55.1565 0.0337739
53.0432 68.9993 2
53.9659 66.0113 2
57.873 60.8533 2
54.6805 63.1997 2
55.202 60.5907 2
63.0764 48.6334 2
61.6637 52.5494 2
60.1045 49.9746 2
57.9998 58.2408 2
59.2471 53.9136 2
58.0552 55.7767 2
52.0689 66.998 3.98569
52.9519 64.2118 3.97995
56.6352 59.4645 3.96863
53.6746 61.6054 3.97559
54.244 59.2908 3.97275
60.7883 47.8362 3.9708
59.5728 52.0637 3.96809
57.8034 49.5594 3.97157
56.7419 56.9575 3.96639
57.0091 54.0772 3.96568
50.1077 67.8555 2
49.336 65.917 3.98265
47.462 66.5769 2
46.8911 64.7287 3.98117
45.557 67.0931 3.98265
43.9721 69.5877 3.98737
46.0548 69.1563 2
46.6086 71.367 3.99168
48.1009 68.5768 0.0133409
48.8028 70.7226 2
49.554 73.0099 4
50.9482 69.9313 0.00857278
51.8506 72.1455 2
54.0858 71.1327 0
53.0641 6.07232 3.99099
55.1041 7.14171 2
56.25 5.02411 4
58.3339 6.3199 2
57.0574 8.33695 0.0132354
60.3285 7.74928 0
66.0208 47.4081 0.0328398
67.1816 43.4643 0.0316531
64.5234 44.8277 0.0282672
65.4415 41.1998 0.0254781
67.8044 39.5112 0.0308577
70.1266 37.5222 0.0312963
67.9043 37.5228 2
65.6788 39.3654 2
65.053 43.0094 2
63.563 40.9108 2
63.8353 46.6913 2
62.6025 44.1837 2
65.7866 37.5024 3.97508
63.7157 39.2582 3.97686
63.1294 42.5247 3.97698
62.1872 40.6754 3.97681
61.7603 45.8806 3.97321
61.1894 43.6416 3.97707
67.8442 35.5501 0.0309277
67.2314 31.6287 0.0318545
65.5935 33.9376 0.0259531
64.5519 30.2123 0.0280836
60.7714 14.2372 0.0287233
60.6008 17.1466 0.034554
60.1671 19.8475 0.0371046
63.4386 26.44 0.0302156
62.0783 28.8145 0.0245924
60.8959 25.381 0.027746
59.5343 22.3061 0.0334611
58.798 24.3793 0.0272025
57.9034 14.3579 0.0293668
55.3035 14.6844 0.0309977
54.036 9.14196 0.0208775
54.7828 12.0297 0.0264607
65.7717 35.6726 2
65.0688 32.1706 2
64.1193 34.2658 2
62.3979 30.6691 2
59.3 15.692 2
59.0975 18.3847 2
58.6414 20.9025 2
61.4818 27.1141 2
60.6228 29.1893 2
58.1067 23.1572 2
59.1222 25.8568 2
57.7651 24.736 2
56.6639 15.7749 2
54.3603 16.0435 2
53.8025 13.7064 2
52.1121 8.15635 2
53.0564 11.028 2
63.9192 35.6415 3.97678
62.7268 33.072 3.97665
60.3538 30.661 3.97652
59.3344 27.9685 3.97634
57.9214 17.0145 3.96486
57.5055 25.8006 3.97644
57.6498 19.521 3.96055
57.214 21.9067 3.96342
56.9623 24.0257 3.9683
50.1119 7.28758 3.98584
51.2309 10.1338 3.97741
52.1659 12.8178 3.97597
55.5151 17.0131 3.96781
52.9658 15.3067 3.97005
53.7348 17.0298 3.97597
53.0424 68.9994 0.00870695
53.9655 66.0106 0.016564
63.0773 48.634 0.0310346
54.681 63.1989 0.0237002
57.8738 60.851 0.0287483
55.2025 60.5889 0.0286201
61.6632 52.5495 0.0333572
60.1044 49.9752 0.0304313
58.0007 58.24 0.0340092
58.0574 55.7778 0.0384691
59.2445 53.9137 0.0325828
52.0691 66.9986 2
52.9517 64.2127 2
56.635 59.4661 2
53.6738 61.6053 2
54.2437 59.2929 2
60.7875 47.8353 2
59.5733 52.0631 2
57.801 49.558 2
56.7404 56.9616 2
57.007 54.0758 2
51.1671 65.1235 3.98219
52.0422 62.529 3.97736
55.4573 58.2219 3.97076
52.8216 60.1051 3.97682
53.6162 58.441 3.97682
58.0137 46.786 3.97481
57.3888 51.7335 3.96812
55.9787 49.4857 3.97098
55.4109 55.7529 3.96361
55.2153 53.3307 3.96261
50.1076 67.8552 0.0138231
49.336 65.9172 2
48.6168 64.1163 3.98156
47.4619 66.5763 0.0173627
45.5571 67.0936 2
46.8912 64.7292 2
46.3802 63.0436 3.98242
45.1314 65.1888 3.98052
43.6303 67.4638 3.9832
41.8598 69.8747 3.98698
43.972 69.5882 2
44.3758 71.8617 3.9917
46.0547 69.1558 0.0130255
46.6091 71.3671 2
47.2057 73.7222 4
48.8021 70.7225 0.00843455
49.554 73.0099 2
51.8506 72.1454 0
50.9544 5.13277 3.99178
53.0654 6.07247 2
54.0858 3.86728 4
55.1021 7.1414 0.0108858
56.25 5.02406 2
58.3339 6.31992 0
63.8369 46.6919 0.0297775
65.0555 43.0099 0.0267651
62.605 44.1846 0.0241618
63.5657 40.9115 0.0229058
65.6807 39.3655 0.0248036
67.9045 37.5228 0.0308624
65.7847 37.5024 2
63.713 39.258 2
63.1271 42.5239 2
62.1855 40.6749 2
61.7583 45.8796 2
61.1875 43.6407 2
63.7776 37.4576 3.97677
61.9029 39.3413 3.97699
60.9363 41.923 3.97689
59.9763 44.7202 3.97678
65.7735 35.6725 0.0251267
65.0709 32.1702 0.0273589
64.1217 34.2653 0.0227613
62.3997 30.6684 0.0236091
59.3013 15.6913 0.033452
59.0962 18.385 0.037532
58.6366 20.9023 0.0366662
61.4835 27.1132 0.0265832
60.624 29.1884 0.022952
59.1228 25.8556 0.024322
58.1096 23.1554 0.0324628
57.7648 24.7341 0.0257585
56.6636 15.7769 0.03104
54.3592 16.042 0.0312054
53.8024 13.7131 0.0277464
52.1113 8.15744 0.0177277
53.0551 11.0298 0.0255439
63.9166 35.6417 2
62.7251 33.0727 2
60.3525 30.6617 2
57.9196 17.0152 2
57.6548 19.5198 2
57.2156 21.9079 2
59.3331 27.9698 2
56.9644 24.0278 2
57.5042 25.8029 2
50.1126 7.28592 2
55.5162 17.013 2
53.735 17.0285 2
52.9662 15.3043 2
52.1672 12.819 2
51.2321 10.1322 2
61.9411 35.3756 3.97683
59.987 32.7877 3.97676
58.3114 30.142 3.97684
57.0041 27.4653 3.97702
56.6032 18.1961 3.96375
56.0385 25.1937 3.97429
56.2572 20.5826 3.96091
55.9072 22.9526 3.9622
48.0565 6.52898 3.98842
49.3241 9.33764 3.9806
50.4292 12.0099 3.97577
51.3671 14.5282 3.97045
54.3808 17.9692 3.96439
52.3403 17.097 3.96355
52.0689 66.998 0.014309
52.9519 64.2118 0.0200548
60.7883 47.8362 0.0291982
53.6746 61.6054 0.0244058
56.6352 59.4645 0.0313727
54.244 59.2908 0.0272464
59.5728 52.0637 0.0319141
57.8034 49.5594 0.0284267
56.7419 56.9575 0.0336142
57.0091 54.0772 0.0343157
51.1671 65.1243 2
52.0417 62.53 2
55.4571 58.2236 2
52.821 60.1084 2
53.6159 58.4424 2
58.0125 46.7849 2
57.3878 51.7323 2
55.9754 49.4844 2
55.4103 55.7533 2
55.2182 53.3311 2
50.3445 63.3741 3.98132
51.2356 60.918 3.97633
54.1826 57.2378 3.9722
52.2901 58.5993 3.97471
56.3025 44.1012 3.9772
55.1679 47.8178 3.9742
54.8526 51.325 3.96546
53.9076 54.4977 3.96457
49.336 65.917 0.0173467
48.6167 64.1163 2
47.9593 62.4661 3.98149
45.557 67.0931 0.0173527
46.8911 64.7287 0.018831
43.6304 67.4643 2
46.3802 63.0442 2
45.1316 65.1894 2
45.9846 61.5748 3.98568
44.7659 63.4417 3.97942
43.356 65.4983 3.98049
41.6626 67.6819 3.98283
39.702 70.0209 3.98695
41.8596 69.8753 2
42.1102 72.2064 3.99192
43.9721 69.5877 0.0126271
44.3763 71.8618 2
44.8159 74.2794 4
46.6086 71.367 0.00831822
47.2057 73.7222 2
49.554 73.0099 0
48.7853 4.32335 3.9925
50.9553 5.13232 2
51.8506 2.85458 4
53.0641 6.07232 0.00901427
54.0858 3.86728 2
56.25 5.02411 0
61.7603 45.8806 0.0267882
63.1294 42.5247 0.0230167
61.1894 43.6416 0.0229335
62.1872 40.6754 0.023194
63.7157 39.2582 0.0231395
65.7866 37.5024 0.0249196
63.7747 37.4575 2
61.9017 39.3413 2
60.9354 41.9226 2
59.9758 44.7193 2
61.7366 37.4424 3.977
59.9149 39.8223 3.97695
58.6281 42.862 3.97666
63.9192 35.6415 0.0232247
62.7268 33.072 0.0233529
60.3538 30.661 0.0234777
57.9214 17.0145 0.0351446
57.6498 19.521 0.0394516
57.214 21.9067 0.0365831
59.3344 27.9685 0.0236602
57.5055 25.8006 0.0235649
56.9623 24.0257 0.0316967
55.5151 17.0131 0.0321856
53.7348 17.0298 0.024034
52.9658 15.3067 0.0299511
50.1119 7.28758 0.0141602
52.1659 12.8178 0.0240297
51.2309 10.1338 0.0225916
61.94 35.3758 2
59.9859 32.7878 2
58.3109 30.142 2
56.6023 18.1969 2
56.2609 20.5803 2
55.9104 22.9551 2
57.0033 27.4671 2
56.0369 25.1963 2
48.0568 6.52711 2
49.325 9.33542 2
54.3818 17.9691 2
52.3396 17.0942 2
51.3668 14.5237 2
50.4309 12.0073 2
59.5568 35.1398 3.97682
57.6084 32.3274 3.97613
56.2022 29.429 3.97726
55.1163 26.7124 3.97697
55.287 19.2409 3.96006
54.6893 24.1625 3.96431
54.8616 21.6407 3.95982
45.9629 5.88315 3.98899
43.3743 7.47512 3.9855
47.3555 8.62747 3.98388
48.5981 11.3044 3.97685
49.7046 13.7626 3.97491
50.6148 16.1722 3.97418
53.0822 18.7238 3.96266
51.272 18.1291 3.97666
51.1671 65.1235 0.0178098
52.0422 62.529 0.0226392
58.0137 46.786 0.0251854
52.8216 60.1051 0.0231792
55.4573 58.2219 0.0292407
53.6162 58.441 0.0231795
57.3888 51.7335 0.0318775
55.9787 49.4857 0.0290168
55.4109 55.7529 0.0363905
55.2153 53.3307 0.037392
50.3442 63.3744 2
51.2348 60.918 2
54.183 57.2396 2
52.2894 58.6003 2
56.3024 44.1003 2
55.1668 47.8166 2
54.855 51.3249 2
53.9084 54.4995 2
49.5876 61.7368 3.97953
55.1092 41.6603 3.97517
50.5493 59.3048 3.97223
52.1374 56.4577 3.96942
53.7448 45.4673 3.9746
53.0312 49.2479 3.96937
52.5074 52.7961 3.96121
48.6168 64.1163 0.018443
47.959 62.4656 2
47.3234 60.9989 3.98619
43.6303 67.4638 0.0168001
45.1314 65.1888 0.0194834
46.3802 63.0436 0.0175845
41.6629 67.6819 2
43.356 65.4992 2
45.9845 61.5755 2
44.766 63.4423 2
45.7594 60.6196 3.98449
44.4813 61.8197 3.98059
43.1457 63.7136 3.97847
41.5457 65.6353 3.97928
39.6321 67.7604 3.98263
37.526 70.0456 3.98592
39.7018 70.0215 2
39.8172 72.4029 3.9917
41.8598 69.8747 0.013018
42.1106 72.2066 2
42.3947 74.6792 4
44.3758 71.8617 0.00829603
44.8159 74.2794 2
47.2057 73.7222 0
43.8519 5.36036 3.9887
46.5713 3.64759 3.99268
48.7857 4.32263 2
49.554 1.99015 4
50.9544 5.13277 0.00822349
51.8506 2.85453 2
54.0858 3.86728 0
59.9763 44.7202 0.0232199
60.9363 41.923 0.0231067
61.9029 39.3413 0.0230062
63.7776 37.4576 0.0232259
61.7355 37.4423 2
59.9149 39.8221 2
58.6281 42.8612 2
59.414 37.566 3.97734
57.5745 40.6188 3.97713
54.5211 39.6754 3.9753
61.9411 35.3756 0.023173
59.987 32.7877 0.0232423
58.3114 30.142 0.0231613
56.6032 18.1961 0.036255
56.2572 20.5826 0.0390877
55.9072 22.9526 0.0378027
57.0041 27.4653 0.0229822
56.0385 25.1937 0.0257075
54.3808 17.9692 0.0356117
52.3403 17.097 0.0364501
51.3671 14.5282 0.029552
48.0565 6.52898 0.0115802
49.3241 9.33764 0.0194011
50.4292 12.0099 0.0242279
59.557 35.1397 2
45.9626 5.88273 2
43.3742 7.4744 2
57.6088 32.3282 2
56.2013 29.4296 2
55.2845 19.2419 2
54.8705 21.6423 2
54.6876 24.1646 2
55.1136 26.7146 2
47.3559 8.62387 2
48.5994 11.3016 2
53.0823 18.7191 2
51.2729 18.1306 2
50.6156 16.1731 2
49.705 13.7616 2
56.9605 34.7883 3.97723
55.3064 31.5901 3.97643
54.1221 28.523 3.97734
53.4872 25.6283 3.97635
53.8885 20.2054 3.95823
53.4057 22.8178 3.95445
41.3995 7.08103 3.98555
45.3607 7.99555 3.98674
42.8664 9.4187 3.98172
46.6665 10.6599 3.98121
47.7382 13.116 3.97687
48.9163 15.427 3.97198
49.9761 17.7369 3.97105
51.5974 19.4074 3.97079
50.3445 63.3741 0.0186789
51.2356 60.918 0.0236701
56.3025 44.1012 0.0228032
55.1679 47.8178 0.0257984
52.2901 58.5993 0.0252946
54.1826 57.2378 0.0278019
54.8526 51.325 0.034544
53.9076 54.4977 0.0354324
49.5868 61.7367 2
55.1042 41.6576 2
50.5487 59.3053 2
52.1376 56.4597 2
53.7451 45.4663 2
53.0392 49.2478 2
52.5087 52.7962 2
48.8373 60.1917 3.97682
51.9275 42.5361 3.98256
49.7545 57.5999 3.9673
50.4909 54.3914 3.96359
51.4101 47.1744 3.97556
50.9836 50.8792 3.955
47.5983 43.6662 3.98281
47.9593 62.4661 0.0185097
47.3231 60.9985 2
46.6076 59.7867 3.98845
41.6626 67.6819 0.0171745
43.356 65.4983 0.0195081
44.7659 63.4417 0.0205763
45.9846 61.5748 0.0143185
39.6326 67.7612 2
41.5456 65.6347 2
45.7593 60.6202 2
43.1458 63.7145 2
44.4812 61.8203 2
44.616 60.278 3.98804
42.9484 62.0659 3.97462
41.5996 63.8063 3.97878
39.6472 65.6014 3.97817
37.5632 67.7411 3.98101
31.6978 65.1188 3.97884
33.3925 67.4793 3.98095
35.3339 69.9557 3.98611
37.5258 70.0467 2
37.5094 72.4575 3.99205
39.702 70.0209 0.0130494
39.8174 72.4033 2
39.9526 74.9197 4
42.1102 72.2064 0.00808238
42.3947 74.6792 2
44.8159 74.2794 0
41.7364 4.96945 3.98897
43.8521 5.3595 2
44.3266 3.11085 3.99298
46.5715 3.64735 2
47.2057 1.27793 4
48.7853 4.32335 0.00750013
49.554 1.99013 2
51.8506 2.85458 0
58.6281 42.862 0.0233367
59.9149 39.8223 0.0230454
61.7366 37.4424 0.0230021
59.4144 37.5667 2
57.574 40.6192 2
54.5169 39.6793 2
56.3384 37.8832 3.97711
48.9559 41.2456 3.98195
52.5195 39.3073 3.98398
39.4431 6.80495 3.98571
59.5568 35.1398 0.0231834
57.6084 32.3274 0.0238694
56.2022 29.429 0.0227429
55.287 19.2409 0.0399356
54.8616 21.6407 0.0401791
54.6893 24.1625 0.035694
55.1163 26.7124 0.0230269
53.0822 18.7238 0.0373426
51.272 18.1291 0.023337
50.6148 16.1722 0.0258192
45.9629 5.88315 0.0110073
49.7046 13.7626 0.0250949
47.3555 8.62747 0.0161182
48.5981 11.3044 0.0231501
43.3743 7.47512 0.0145007
56.9598 34.7881 2
41.3996 7.0798 2
45.3601 7.99549 2
42.866 9.4185 2
55.3092 31.5883 2
54.1222 28.5236 2
53.8912 20.2088 2
53.4039 22.816 2
53.4848 25.6296 2
46.6672 10.6535 2
47.7396 13.1112 2
51.5998 19.4092 2
49.9757 17.7349 2
48.9157 15.4288 2
54.3361 33.9851 3.97563
53.0417 30.6133 3.97704
52.2153 27.3492 3.97539
51.9281 24.2382 3.97783
52.2855 21.1494 3.97115
41.0136 9.05326 3.98121
44.7264 9.99534 3.98488
42.4674 10.9046 3.99006
46 12.7385 3.97646
47.6677 14.6021 3.97146
48.0831 17.0089 3.97037
49.7837 19.7676 3.97059
49.5876 61.7368 0.0204731
50.5493 59.3048 0.027765
55.1092 41.6603 0.0248317
53.7448 45.4673 0.0253993
53.0312 49.2479 0.030632
52.1374 56.4577 0.0305831
52.5074 52.7961 0.0387876
48.8364 60.1902 2
51.9441 42.5432 2
49.7527 57.6007 2
50.4911 54.3939 2
51.4151 47.1744 2
50.986 50.8783 2
47.6098 43.6918 2
47.9638 58.7237 3.9785
49.5612 45.1823 3.97807
48.5339 55.8922 3.96968
48.9786 52.5518 3.9764
49.3749 48.9676 3.97337
45.3539 39.8238 3.87375
45.8303 42.5376 3.90398
46.0287 45.6881 3.98155
43.1665 41.0631 3.73758
41.7382 41.9297 3.56057
47.3234 60.9989 0.0138063
46.6067 59.7862 2
45.4514 58.7848 3.98791
39.6321 67.7604 0.0173707
41.5457 65.6353 0.0207196
43.1457 63.7136 0.0215324
44.4813 61.8197 0.0194124
45.7594 60.6196 0.0155087
41.5997 63.8061 2
37.5635 67.7421 2
39.6471 65.6023 2
44.6162 60.2785 2
42.9483 62.0667 2
41.7517 62.4776 3.97742
42.4757 59.9576 3.97882
39.894 63.5379 3.97639
37.6421 65.4979 3.97805
35.4635 67.6507 3.98108
33.5757 65.3317 3.97792
31.9602 63.2855 3.97828
29.8845 64.7102 3.98054
31.6976 65.1196 2
31.3774 67.1891 3.9814
33.3927 67.4802 2
33.1572 69.7496 3.98618
35.3337 69.9566 2
35.1954 72.3719 3.99188
37.526 70.0456 0.0140815
37.5094 72.4581 2
37.5 75 4
39.8172 72.4029 0.00829892
39.9526 74.9197 2
42.3947 74.6792 0
39.6242 4.7172 3.98941
41.7367 4.96857 2
42.063 2.71824 3.99325
43.8519 5.36036 0.0113044
44.3267 3.11024 2
44.8158 0.721173 4
46.5713 3.64759 0.00732458
47.2057 1.27779 2
49.554 1.99015 0
57.5745 40.6188 0.0228747
59.414 37.566 0.0226581
54.5211 39.6754 0.0246967
48.9819 41.2625 2
56.3387 37.8818 2
52.5188 39.2821 2
53.3694 36.6286 3.97766
46.8803 40.3468 3.90844
49.8986 38.5176 3.98831
37.5171 6.67604 3.98568
39.4432 6.80331 2
39.2112 8.69591 3.98326
35.9431 8.49541 3.9842
56.9605 34.7883 0.0227681
55.3064 31.5901 0.0235742
54.1221 28.523 0.0226635
53.8885 20.2054 0.041774
53.4057 22.8178 0.0455463
53.4872 25.6283 0.023648
51.5974 19.4074 0.0292074
49.9761 17.7369 0.0289519
48.9163 15.427 0.0280202
45.3607 7.99555 0.0132595
47.7382 13.116 0.0231345
46.6665 10.6599 0.0187906
41.3995 7.08103 0.014446
42.8664 9.4187 0.0182846
54.3319 33.9856 2
41.0138 9.05211 2
44.7246 9.99592 2
42.467 10.9057 2
53.0378 30.613 2
52.2236 27.3494 2
52.291 21.1507 2
51.9281 24.2438 2
46.0007 12.7283 2
47.6674 14.5964 2
49.7869 19.7711 2
48.0812 17.0063 2
51.8629 32.8925 3.98167
50.8432 29.3082 3.97661
50.4888 25.8636 3.97251
49.8401 22.3624 3.98477
40.5687 11.6143 3.98085
43.8555 11.9135 3.97962
45.7864 15.4389 3.98469
47.4783 19.3756 3.97809
45.7779 37.4815 3.86791
48.8373 60.1917 0.023184
49.7545 57.5999 0.0327018
51.9275 42.5361 0.0174363
51.4101 47.1744 0.0244425
50.9836 50.8792 0.045
50.4909 54.3914 0.036406
47.5983 43.6662 0.017187
47.9625 58.7261 2
49.575 45.1932 2
48.5307 55.8943 2
48.9788 52.5574 2
49.3799 48.9653 2
45.4143 39.8413 2
45.8574 42.5758 2
46.0364 45.6979 2
43.1957 41.0951 2
41.7641 41.9508 2
46.8019 57.3266 3.9775
43.9121 39.361 3.73951
42.0907 40.8153 3.60135
47.6746 47.2021 3.9801
47.0731 54.2064 3.96798
47.3866 50.7018 3.97513
44.4687 47.3016 3.97678
44.4782 41.8824 3.8541
44.5122 44.4261 3.91737
42.1101 42.5354 3.7613
40.6944 42.2375 3.58427
46.6076 59.7867 0.0115525
45.4512 58.7843 2
43.8572 57.6894 3.9796
37.5632 67.7411 0.0189949
39.6472 65.6014 0.0218279
41.5996 63.8063 0.0212224
42.9484 62.0659 0.025378
44.616 60.278 0.0119641
35.4638 67.6516 2
41.7514 62.478 2
39.8937 63.5385 2
37.6421 65.4988 2
42.4761 59.9583 2
40.6223 61.6256 3.97874
40.4375 58.1641 3.97977
37.8376 63.1963 3.97599
35.573 65.4206 3.97847
33.5757 65.3324 2
31.9599 63.2866 2
33.6294 63.3242 3.97649
30.3799 62.8451 3.98025
32.1253 61.9885 3.98349
26.8738 61.4835 3.97697
28.064 64.1384 3.97907
29.884 64.7111 2
29.4072 66.753 3.98213
31.6978 65.1188 0.0211571
31.3775 67.19 2
31.015 69.4145 3.98594
33.3925 67.4793 0.0190538
33.1571 69.7504 2
32.8929 72.1464 3.9918
35.3339 69.9557 0.0138859
35.1951 72.3724 2
35.0474 74.9194 4
37.5094 72.4575 0.00795178
37.5 75 2
39.9526 74.9197 0
35.6218 6.72689 3.98542
37.5239 4.61661 3.98954
39.6244 4.71583 2
39.7895 2.47487 3.9932
41.7364 4.96945 0.0110326
42.0629 2.71771 2
42.3946 0.32156 4
44.3266 3.11085 0.00702024
44.8159 0.72056 2
47.2057 1.27793 0
48.9559 41.2456 0.0180465
56.3384 37.8832 0.0228898
52.5195 39.3073 0.0160159
46.9053 40.3422 2
49.9032 38.5094 2
53.3736 36.6418 2
50.6921 35.5739 3.97532
47.5514 37.7629 3.92522
45.3637 35.1568 3.87169
43.1781 33.9154 3.73601
41.7494 33.0536 3.55872
37.4587 8.53739 3.98444
37.5171 6.6747 2
39.4431 6.80495 0.0142917
39.2116 8.69403 2
38.9767 10.131 3.98313
35.8994 9.77748 3.98062
34.1525 8.8267 3.98253
35.9429 8.49373 2
54.3361 33.9851 0.0243734
53.0417 30.6133 0.0229618
52.2153 27.3492 0.0246128
52.2855 21.1494 0.0288533
51.9281 24.2382 0.0221682
49.7837 19.7676 0.0294055
48.0831 17.0089 0.0296275
47.6677 14.6021 0.0285352
44.7264 9.99534 0.0151218
46 12.7385 0.0235382
41.0136 9.05326 0.0187864
42.4674 10.9046 0.00994148
51.8685 32.8901 2
40.5698 11.6145 2
43.8536 11.9166 2
50.8633 29.307 2
50.4911 25.8647 2
49.843 22.3615 2
45.7834 15.418 2
47.4803 19.3891 2
49.4211 31.5094 3.98735
48.8968 27.6317 3.97651
49.1873 24.5314 3.97633
47.1293 22.127 3.98526
38.3021 12.7431 3.9773
42.0969 14.3086 3.97976
44.7835 18.5421 3.97615
44.2946 37.4884 3.7465
45.8574 37.4853 2
47.9638 58.7237 0.021501
48.5339 55.8922 0.0303223
49.5612 45.1823 0.0219268
49.3749 48.9676 0.0266322
48.9786 52.5518 0.0236034
45.3539 39.8238 0.126247
45.8303 42.5376 0.096023
46.0287 45.6881 0.0184453
43.1665 41.0631 0.26242
41.7382 41.9297 0.439426
46.7996 57.3286 2
43.9544 39.3813 2
42.0884 40.8285 2
47.6812 47.2037 2
47.07 54.2103 2
47.3908 50.7077 2
44.4867 47.2812 2
44.508 41.9082 2
44.5459 44.4466 2
42.1593 42.5735 2
40.7156 42.2423 2
45.3454 55.9103 3.99059
42.4251 39.2503 3.61195
40.5772 40.697 3.714
45.8218 48.8527 3.99539
45.3964 52.4858 3.98259
43.1923 48.2972 3.99648
43.1099 45.948 3.90211
43.2539 43.6553 3.84661
40.8148 43.6173 3.73816
39.2225 42.5093 3.60102
45.4514 58.7848 0.0120856
43.856 57.6914 2
42.0846 56.2837 3.98313
35.4635 67.6507 0.0189178
37.6421 65.4979 0.0219488
39.894 63.5379 0.0236141
41.7517 62.4776 0.0225834
42.4757 59.9576 0.0211758
35.5731 65.4215 2
40.6223 61.626 2
37.8372 63.197 2
40.4376 58.1656 2
38.913 56.4629 3.9912
38.2503 60.3091 3.97936
35.6073 63.1907 3.97578
33.5757 65.3317 0.0220833
31.9602 63.2855 0.021725
33.6293 63.3252 2
30.3795 62.8461 2
32.1257 61.9899 2
28.6845 62.1887 3.97829
33.3467 61.4978 3.97775
31.0713 61.2065 3.97982
27.5795 59.5754 3.98081
23.8073 59.0644 3.9813
25.0405 60.8581 3.97733
26.8741 61.4837 2
26.2317 63.4683 3.97821
28.0637 64.1382 2
27.4642 66.1773 3.9819
29.8845 64.7102 0.019463
29.4072 66.7534 2
28.9075 68.9402 3.98555
31.3774 67.1891 0.0186041
31.0147 69.4151 2
30.6156 71.7775 3.99128
33.1572 69.7496 0.0138246
32.8923 72.1468 2
32.6054 74.6784 4
35.1954 72.3719 0.00812308
35.0474 74.9197 2
37.5 75 0
33.7247 6.98259 3.98446
35.4359 4.68673 3.98945
35.6216 6.72585 2
37.5151 2.38733 3.99325
37.5239 4.61565 2
39.6242 4.7172 0.0105949
39.7893 2.47414 2
39.9526 0.0806499 4
42.063 2.71824 0.00674585
42.3947 0.320817 2
44.8158 0.721173 0
43.9209 35.6158 3.73908
42.0993 34.163 3.59479
46.8803 40.3468 0.0915564
49.8986 38.5176 0.0116876
53.3694 36.6286 0.0223421
47.5486 37.7462 2
50.7029 35.5692 2
45.4177 35.1325 2
43.2142 33.8812 2
41.7738 33.0329 2
47.7281 34.3081 3.9539
44.4922 33.0789 3.84559
42.1264 32.4493 3.7537
40.7047 32.7535 3.58187
37.3112 10.6348 3.98097
37.4588 8.53558 2
37.5171 6.67604 0.0143157
39.2112 8.69591 0.0167374
38.9781 10.1296 2
34.7555 10.386 3.98139
35.9001 9.77419 2
32.3796 9.37423 3.97962
34.1514 8.82399 2
35.9431 8.49541 0.015799
51.8629 32.8925 0.0183343
50.8432 29.3082 0.0233884
50.4888 25.8636 0.0274866
49.8401 22.3624 0.0152264
47.4783 19.3756 0.0219056
45.7864 15.4389 0.0153139
43.8555 11.9135 0.0203782
40.5687 11.6143 0.0191509
49.4362 31.5023 2
38.3021 12.7415 2
42.098 14.3145 2
48.9057 27.6329 2
49.1896 24.5285 2
47.1238 22.1221 2
44.7848 18.5729 2
47.2781 29.6228 3.98436
46.8748 25.271 3.97668
44.252 21.4924 3.97888
36.5841 12.945 3.97523
38.6828 14.8305 3.97559
41.7434 17.8942 3.97771
42.5582 37.4786 3.63988
44.3372 37.4871 2
45.7779 37.4815 0.132088
46.8019 57.3266 0.0225022
47.0731 54.2064 0.0320151
47.6746 47.2021 0.0198952
47.3866 50.7018 0.0248654
43.9121 39.361 0.260492
44.4782 41.8824 0.145902
44.5122 44.4261 0.0826327
44.4687 47.3016 0.0232248
42.1101 42.5354 0.238697
42.0907 40.8153 0.398648
40.6944 42.2375 0.415734
45.3429 55.911 2
42.4188 39.2532 2
40.5862 40.6797 2
45.8258 48.8628 2
45.3946 52.4915 2
43.2007 48.3135 2
43.1619 45.9846 2
43.2958 43.6839 2
40.849 43.6667 2
39.2202 42.5147 2
43.674 54.3934 3.99974
40.6816 39.1136 3.72741
39.0995 40.7655 3.6953
43.5082 50.3669 4.00513
41.8107 47.4837 3.93819
41.7141 45.0502 3.86192
39.3356 44.2799 3.72821
37.5051 42.6069 3.63114
43.8572 57.6894 0.0204023
42.0838 56.2848 2
40.3951 54.8601 3.98278
35.573 65.4206 0.0215288
37.8376 63.1963 0.0240079
40.6223 61.6256 0.0212616
40.4375 58.1641 0.020234
35.6071 63.191 2
38.2504 60.3097 2
38.9136 56.4574 2
37.9888 55.1659 3.99272
36.9326 57.6065 3.98755
35.3645 60.8957 3.97736
33.6294 63.3242 0.023508
30.3799 62.8451 0.0197536
32.1253 61.9885 0.0165101
33.3473 61.4988 2
28.6845 62.1885 2
31.0719 61.2082 2
29.4112 60.2715 3.97641
32.3622 59.7235 3.98708
28.0433 58.3575 3.99651
27.5811 59.5762 2
25.3962 58.5793 3.97719
22.7803 58.2178 3.96818
23.4087 60.3323 3.97939
23.8086 59.0653 2
25.0409 60.8585 2
24.4355 62.7605 3.9785
26.8738 61.4835 0.0230322
26.2318 63.4689 2
25.5489 65.4861 3.9803
28.064 64.1384 0.0209285
27.4641 66.1777 2
26.8372 68.3288 3.98556
29.4072 66.753 0.0178651
28.9072 68.9403 2
28.3706 71.2628 3.99096
31.015 69.4145 0.0140649
30.6148 71.7777 2
30.1842 74.2788 4
32.8929 72.1464 0.00819747
32.6053 74.6792 2
35.0474 74.9194 0
31.7893 7.42262 3.98307
33.3485 4.92637 3.98874
33.7243 6.98071 2
35.2454 2.4633 3.99318
35.4357 4.68614 2
35.6218 6.72689 0.0145779
37.5 0 4
37.5147 2.38685 2
37.5239 4.61661 0.0104579
39.7895 2.47487 0.00679767
39.9526 0.0802889 2
42.3946 0.32156 0
42.4131 35.7093 3.60836
43.9713 35.5898 2
40.59 34.2894 3.71341
42.0935 34.1492 2
47.5514 37.7629 0.0747835
50.6921 35.5739 0.0246754
45.3637 35.1568 0.128311
43.1781 33.9154 0.263993
41.7494 33.0536 0.441276
47.7431 34.3189 2
44.5227 33.0588 2
42.1798 32.4089 2
40.7261 32.7482 2
45.7795 31.6817 3.92226
43.2685 31.3321 3.84546
40.8268 31.3736 3.73892
39.2304 32.4941 3.59868
35.6946 11.7829 3.97942
37.3133 10.6322 2
37.4587 8.53739 0.0155642
38.9767 10.131 0.0168741
33.1007 11.2252 3.97588
34.7546 10.3812 2
35.8994 9.77748 0.019379
30.4846 10.024 3.97943
32.3783 9.37302 2
34.1525 8.8267 0.0174675
49.4211 31.5094 0.0126512
48.8968 27.6317 0.0234946
49.1873 24.5314 0.0236733
47.1293 22.127 0.014739
44.7835 18.5421 0.02385
42.0969 14.3086 0.0202398
38.3021 12.7431 0.0227032
36.5817 12.9343 2
47.295 29.5925 2
38.6804 14.8164 2
41.7386 17.8843 2
46.8799 25.2681 2
44.2472 21.4786 2
45.1901 27.7573 4.00601
43.6655 24.1965 4.0147
41.3155 20.8741 3.98126
35.7739 14.7816 3.97755
38.6807 17.6323 3.97853
40.7326 37.4709 3.74041
42.5604 37.4813 2
44.2946 37.4884 0.253499
45.3454 55.9103 0.00941189
45.3964 52.4858 0.0174113
45.8218 48.8527 0.00460511
42.4251 39.2503 0.38805
43.2539 43.6553 0.153391
43.1099 45.948 0.097894
43.1923 48.2972 0.00352461
40.8148 43.6173 0.261838
40.5772 40.697 0.285999
39.2225 42.5093 0.398981
43.6701 54.393 2
40.6734 39.1098 2
39.1005 40.7511 2
43.5071 50.3852 2
41.8016 47.511 2
41.7391 45.0871 2
37.5017 42.6162 2
39.349 44.3295 2
41.829 52.9077 3.99526
39.1132 39.1303 3.71467
37.5068 40.8166 3.71493
35.7891 42.5177 3.60183
40.8465 49.5435 3.99559
39.7742 45.8531 3.83861
37.5035 44.5183 3.74016
42.0846 56.2837 0.0168739
40.3901 54.8725 2
38.7196 53.7224 3.99619
35.6073 63.1907 0.02422
38.2503 60.3091 0.0206367
38.913 56.4629 0.00880075
35.3649 60.8952 2
36.9335 57.6066 2
37.9876 55.1605 2
36.321 55.2376 3.99668
34.4909 58.5017 3.98813
33.3467 61.4978 0.0222534
28.6845 62.1887 0.0217117
31.0713 61.2065 0.0201812
32.3631 59.726 2
29.4125 60.2709 2
30.3188 57.7972 3.9857
28.045 58.3578 2
26.9857 56.8126 3.9738
27.5795 59.5754 0.0191917
25.3981 58.5803 2
23.8824 56.7787 3.96127
21.3678 57.3678 3.9644
22.0061 59.6012 3.97604
22.7815 58.2195 2
22.7405 62.0115 3.97662
23.4092 60.3328 2
23.8073 59.0644 0.0186977
25.0405 60.8581 0.0226663
24.4357 62.7613 2
23.6832 64.7035 3.97978
26.2317 63.4683 0.0217921
25.5486 65.4871 2
24.8096 67.5899 3.98489
27.4642 66.1773 0.0180974
26.8369 68.3295 2
26.1658 70.6037 3.99102
28.9075 68.9402 0.0144544
28.3698 71.2627 2
27.7943 73.7221 4
30.6156 71.7775 0.00871633
30.1841 74.2794 2
32.6054 74.6784 0
29.812 7.99733 3.98189
31.2539 5.33332 3.98776
31.7887 7.42122 2
32.9813 2.70158 3.99286
33.348 4.92513 2
33.7247 6.98259 0.0155352
35.0474 0.080333 4
35.245 2.46307 2
35.4359 4.68673 0.0105508
37.5 0 2
37.5151 2.38733 0.00675057
39.9526 0.0806499 0
40.6944 35.8446 3.72531
42.4092 35.712 2
43.9209 35.6158 0.260924
28.5449 10.6989 3.97849
39.0986 34.2369 3.69465
40.5895 34.3051 2
42.0993 34.163 0.405207
47.7281 34.3081 0.0461038
44.4922 33.0789 0.154407
42.1264 32.4493 0.246304
40.7047 32.7535 0.418134
45.8098 31.6586 2
43.3083 31.2997 2
40.8645 31.321 2
39.233 32.4898 2
44.0816 29.8775 3.91742
41.7145 29.9344 3.8634
39.3458 30.7171 3.72762
37.5165 32.4065 3.63108
34.0961 12.9473 3.97493
35.6931 11.7745 2
37.3112 10.6348 0.0190346
31.189 11.9946 3.97777
33.1001 11.2238 2
34.7555 10.386 0.0186086
30.4828 10.0212 2
32.3796 9.37423 0.0203843
47.2781 29.6228 0.0156446
46.8748 25.271 0.02332
36.5841 12.945 0.024775
44.252 21.4924 0.0211215
41.7434 17.8942 0.0222911
38.6828 14.8305 0.0244138
35.775 14.7881 2
45.1951 27.7527 2
38.6767 17.6361 2
41.3104 20.8711 2
43.6649 24.1864 2
33.6116 15.8965 3.97774
42.8347 26.6096 3.99125
40.8377 23.4539 4.00007
38.4091 20.4074 3.98906
35.8509 17.5347 3.97978
39.1216 37.4878 3.73572
40.7225 37.4723 2
42.5582 37.4786 0.36012
43.674 54.3934 0.000263593
43.5082 50.3669 -0.00512639
40.6816 39.1136 0.27259
41.7141 45.0502 0.138076
41.8107 47.4837 0.0618085
39.3356 44.2799 0.27179
39.0995 40.7655 0.304698
37.5051 42.6069 0.368863
41.8229 52.9076 2
39.1059 39.1164 2
37.5059 40.7983 2
40.8433 49.562 2
35.7861 42.5222 2
39.795 45.9014 2
37.4942 44.5599 2
39.7671 51.7499 4.00176
37.5059 39.1384 3.74465
35.9181 40.7786 3.69575
34.3151 42.2534 3.58403
35.6747 44.2923 3.72331
38.6657 48.4979 3.95221
37.5168 46.1411 3.86023
40.3951 54.8601 0.0172152
38.7176 53.7108 2
36.7476 53.0442 3.99745
35.3645 60.8957 0.0226444
36.9326 57.6065 0.0124519
37.9888 55.1659 0.00728239
34.4915 58.5008 2
36.3208 55.2399 2
33.248 55.4279 3.9925
32.3622 59.7235 0.0129191
29.4112 60.2715 0.0235874
30.3207 57.7962 2
28.7537 55.2967 3.98144
28.0433 58.3575 0.00349054
26.9871 56.8131 2
25.3836 55.1153 3.96414
21.8733 55.3149 3.96312
25.3962 58.5793 0.0228115
23.8831 56.7815 2
20.2511 56.999 3.96556
20.6628 58.7503 3.96797
21.3682 57.3697 2
21.1733 61.1544 3.97515
22.0068 59.6017 2
22.7803 58.2178 0.0318233
21.8972 63.8306 3.97858
22.7408 62.0122 2
23.4087 60.3323 0.0206078
24.4355 62.7605 0.0215017
23.6831 64.7042 2
22.838 66.7329 3.98366
25.5489 65.4861 0.0196957
24.8093 67.5908 2
24.01 69.8049 3.99098
26.8372 68.3288 0.0144379
26.1648 70.6037 2
25.446 73.0099 4
28.3706 71.2628 0.00904196
27.7943 73.7222 2
30.1842 74.2788 0
27.8218 8.65673 3.98179
29.1562 5.8796 3.98644
29.8109 7.99504 2
30.7267 3.09854 3.99259
31.2534 5.33212 2
31.7893 7.42262 0.0169338
32.6053 0.320823 4
32.9807 2.70105 2
33.3485 4.92637 0.0112649
35.0474 0.0802903 2
35.2454 2.4633 0.00681619
37.5 0 0
39.1101 35.8577 3.7174
40.6796 35.8483 2
42.4131 35.7093 0.391635
28.5434 10.6977 2
26.6232 11.395 3.97852
29.2281 12.6494 3.97947
37.5083 34.1986 3.71333
39.1032 34.2538 2
40.59 34.2894 0.286587
45.7795 31.6817 0.0777434
43.2685 31.3321 0.154545
40.8268 31.3736 0.261079
39.2304 32.4941 0.401316
44.0991 29.8601 2
41.7381 29.9009 2
39.3548 30.6672 2
37.5178 32.3964 2
42.1549 28.5576 3.88677
39.7714 29.1349 3.85915
37.5158 30.4912 3.7383
35.8002 32.497 3.60115
31.9198 14.4939 3.97826
34.096 12.9487 2
35.6946 11.7829 0.0205819
31.1878 11.9907 2
33.1007 11.2252 0.0241219
30.4846 10.024 0.0205657
45.1901 27.7573 -0.00601215
43.6655 24.1965 -0.0147001
35.7739 14.7816 0.0224518
41.3155 20.8741 0.0187439
38.6807 17.6323 0.0214689
33.6096 15.8914 2
35.847 17.5386 2
42.84 26.6057 2
38.4025 20.4136 2
40.8295 23.4385 2
33.5542 17.4107 3.97886
40.2739 25.8335 3.96553
38.0628 23.1518 4.00096
35.5837 20.1209 3.98852
37.5059 37.4965 3.76235
39.1144 37.4849 2
40.7326 37.4709 0.259592
41.829 52.9077 0.00474083
40.8465 49.5435 0.0044059
39.1132 39.1303 0.285328
39.7742 45.8531 0.161387
37.5035 44.5183 0.25984
37.5068 40.8166 0.285066
35.7891 42.5177 0.398172
39.7643 51.7559 2
37.5069 39.1288 2
35.9171 40.765 2
38.6768 48.5455 2
34.2945 42.2589 2
35.6543 44.343 2
37.5136 46.1874 2
37.6664 50.7948 3.9992
35.9057 39.1472 3.71685
34.4401 40.7205 3.71558
33.2667 41.9486 3.56246
34.1855 43.6233 3.73714
35.2046 45.8579 3.8531
36.9245 48.1116 3.9198
38.7196 53.7224 0.00381131
36.7513 53.0474 2
34.4163 52.3659 3.9995
34.4909 58.5017 0.0118707
36.321 55.2376 0.00331501
33.2496 55.4312 2
30.5883 53.3116 3.99426
30.3188 57.7972 0.0142955
28.7548 55.2974 2
26.9904 53.4073 3.96871
26.9857 56.8126 0.0261961
25.3843 55.119 2
23.6955 53.4405 3.95888
20.6171 53.1716 3.9606
19.9837 55.7982 3.96343
21.8707 55.3171 2
23.8824 56.7787 0.0387335
19.4594 57.8607 3.97055
20.2503 57.0005 2
19.7153 60.1766 3.973
20.663 58.751 2
21.3678 57.3678 0.0355992
20.2105 62.8507 3.97605
21.1739 61.1568 2
22.0061 59.6012 0.0239583
20.9393 65.7616 3.9822
21.8971 63.8314 2
22.7405 62.0115 0.023385
23.6832 64.7035 0.020216
22.8377 66.7333 2
21.9125 68.872 3.9905
24.8096 67.5899 0.0151109
24.0088 69.8048 2
23.1494 72.1454 4
26.1658 70.6037 0.00898069
25.446 73.0099 2
27.7943 73.7221 0
25.8608 9.38564 3.98077
27.0708 6.54358 3.98537
27.8205 8.65565 2
28.4891 3.64448 3.99195
29.1553 5.87814 2
29.812 7.99733 0.0181076
30.1841 0.720592 4
30.7258 3.09812 2
31.2539 5.33332 0.0122364
32.6053 0.320817 2
32.9813 2.70158 0.00713729
35.0474 0.080333 0
37.5064 35.8608 3.74316
39.0973 35.8646 2
40.6944 35.8446 0.274692
24.7786 12.082 3.97776
23.7557 14.3737 3.97518
28.5449 10.6989 0.0215073
26.622 11.3947 2
29.2271 12.6484 2
27.2945 13.3826 3.97841
29.786 14.2107 3.97959
35.9165 34.2385 3.69423
37.5124 34.2168 2
39.0986 34.2369 0.30535
37.5165 32.4065 0.368925
44.0816 29.8775 0.0825834
41.7145 29.9344 0.136597
39.3458 30.7171 0.272384
42.1824 28.5171 2
39.7861 29.0886 2
37.519 30.4459 2
35.7997 32.4913 2
39.9404 27.7749 3.89597
37.4933 28.8605 3.85871
35.6851 30.7322 3.73128
34.3288 32.7622 3.58368
30.9333 16.8533 3.98084
31.9182 14.4877 2
34.0961 12.9473 0.0250664
31.189 11.9946 0.0222271
42.8347 26.6096 0.00875432
40.8377 23.4539 -6.87457e-05
33.6116 15.8965 0.0222591
35.8509 17.5347 0.0202162
38.4091 20.4074 0.0109422
33.5499 17.4189 2
35.5829 20.1249 2
40.3168 25.8262 2
38.0497 23.1344 2
32.874 19.8143 3.99314
37.7151 25.4579 3.98005
35.1989 22.8426 3.99843
35.8897 37.5001 3.73735
37.5046 37.4969 2
39.1216 37.4878 0.26428
39.7671 51.7499 -0.0017646
38.6657 48.4979 0.0477905
37.5059 39.1384 0.255348
37.5168 46.1411 0.139767
35.6747 44.2923 0.276691
35.9181 40.7786 0.304254
34.3151 42.2534 0.415975
37.6559 50.8193 2
35.9165 39.1343 2
34.4312 40.7046 2
36.9014 48.1617 2
33.24 41.9684 2
34.1562 43.6725 2
35.1857 45.8994 2
35.5269 49.9714 3.98788
34.3349 39.1482 3.72661
32.9155 40.8375 3.59881
32.8928 42.5532 3.75637
33.3073 45.057 3.85761
34.3813 47.2331 3.89359
36.7476 53.0442 0.0025537
34.4123 52.3723 2
32.1213 51.1272 4.01716
33.248 55.4279 0.00750349
30.5892 53.3153 2
28.565 51.5385 3.98922
28.7537 55.2967 0.0185553
26.9908 53.4109 2
25.2456 51.6903 3.95502
25.3836 55.1153 0.0358622
23.6939 53.4443 2
22.1618 51.7424 3.95267
19.423 51.572 3.96141
19.023 54.2653 3.96269
20.6157 53.1713 2
18.4801 56.6936 3.96594
19.9816 55.7999 2
21.8733 55.3149 0.0368801
18.382 59.0826 3.96838
19.4588 57.862 2
20.2511 56.999 0.0344433
18.6241 61.747 3.97327
19.716 60.1781 2
20.6628 58.7503 0.03203
19.1284 64.6702 3.98041
20.2105 62.8516 2
21.1733 61.1544 0.0248498
19.8867 67.8087 3.99036
20.9388 65.7621 2
21.8972 63.8306 0.02142
22.838 66.7329 0.0163444
21.9112 68.8714 2
20.9142 71.1327 4
24.01 69.8049 0.00901888
23.1494 72.1455 2
25.446 73.0099 0
23.0985 12.7987 3.97636
23.9734 10.1747 3.97929
25.0244 7.31434 3.98424
25.8596 9.38504 2
26.2809 4.32853 3.99136
27.0698 6.54283 2
27.8218 8.65673 0.0182102
27.7943 1.27781 4
28.4878 3.64419 2
29.1562 5.8796 0.0135619
30.1841 0.720551 2
30.7267 3.09854 0.00741143
32.6053 0.320823 0
35.8954 35.8574 3.71231
37.5095 35.8723 2
39.1101 35.8577 0.282601
24.7769 12.0796 2
23.7558 14.3755 2
22.486 15.0528 3.97984
25.3612 13.9212 3.97481
24.0362 15.6367 3.98152
26.6232 11.395 0.0214782
29.2281 12.6494 0.0205327
27.2948 13.3826 2
29.7836 14.2093 2
28.3656 15.9841 3.97994
34.4446 34.3018 3.71351
35.9134 34.2526 2
37.5083 34.1986 0.286671
35.8002 32.497 0.398847
37.5158 30.4912 0.261703
42.1549 28.5576 0.113227
39.7714 29.1349 0.140847
39.9584 27.7397 2
37.4954 28.8125 2
35.669 30.6768 2
34.3054 32.7604 2
37.5834 27.4974 3.90338
35.2228 29.1526 3.85833
34.195 31.3896 3.73727
33.2816 33.0661 3.56149
30.2211 19.3869 3.98109
30.9303 16.8474 2
31.9198 14.4939 0.0217365
40.2739 25.8335 0.0344686
38.0628 23.1518 -0.000959812
33.5542 17.4107 0.0211408
35.5837 20.1209 0.0114763
32.8696 19.8222 2
35.1909 22.8294 2
37.7558 25.4403 2
32.3423 22.5275 3.99645
35.0433 25.3964 3.99925
34.2817 37.5117 3.74173
35.8959 37.5023 2
37.5059 37.4965 0.237646
37.6664 50.7948 0.000800885
36.9245 48.1116 0.080205
35.9057 39.1472 0.283148
35.2046 45.8579 0.146901
34.1855 43.6233 0.26286
34.4401 40.7205 0.284419
33.2667 41.9486 0.437541
35.514 49.9799 2
34.3461 39.1432 2
32.917 40.8487 2
34.3793 47.2731 2
32.8522 42.5907 2
33.2862 45.0944 2
33.3516 49.0051 3.97894
32.5925 39.2839 3.6103
31.8326 41.0815 3.73828
31.7424 43.667 3.84792
32.4923 46.1905 3.89414
34.4163 52.3659 0.000499226
32.1224 51.1375 2
30.0636 49.7017 4.00222
30.5883 53.3116 0.00573823
28.5638 51.5354 2
26.7255 49.9133 3.9676
26.9904 53.4073 0.0312934
25.2436 51.6895 2
23.5854 50.1082 3.9627
23.6955 53.4405 0.0411153
22.1602 51.741 2
20.7272 50.2391 3.96477
18.232 50.2666 3.96822
18.0105 52.7387 3.96389
19.4209 51.5714 2
17.5095 55.3042 3.9625
19.0183 54.2657 2
20.6171 53.1716 0.0393972
17.1532 57.8482 3.96533
18.4791 56.6946 2
19.9837 55.7982 0.0365666
17.1433 60.5234 3.96981
18.3818 59.0842 2
19.4594 57.8607 0.0294529
17.4094 63.4615 3.97551
18.6244 61.7475 2
19.7153 60.1766 0.0269991
17.9431 66.6171 3.98877
19.1278 64.6704 2
20.2105 62.8507 0.0239504
18.75 69.9759 4
19.8852 67.8079 2
20.9393 65.7616 0.0178032
21.9125 68.872 0.00950382
20.9142 71.1327 2
23.1494 72.1454 0
21.591 13.623 3.97709
22.1917 11.0357 3.97762
23.0979 12.7997 2
23.0422 8.18095 3.98299
23.972 10.173 2
24.1185 5.14335 3.99076
25.0233 7.3137 2
25.8608 9.38564 0.019231
25.446 1.99014 4
26.2793 4.32872 2
27.0708 6.54358 0.014629
27.7943 1.27778 2
28.4891 3.64448 0.00805179
30.1841 0.720592 0
34.3368 35.8733 3.72658
35.9037 35.8713 2
37.5064 35.8608 0.256838
21.3167 15.8525 3.98338
24.7786 12.082 0.0222398
23.7557 14.3737 0.0248165
25.361 13.9167 2
22.4865 15.0525 2
24.037 15.6397 2
23.2799 16.266 3.97492
25.3923 16.1077 3.98063
27.2945 13.3826 0.0215949
29.786 14.2107 0.0204064
28.3631 15.989 2
27.4544 18.8369 3.97916
32.9207 34.182 3.6016
34.4361 34.3188 2
35.9165 34.2385 0.305767
34.3288 32.7622 0.416317
35.6851 30.7322 0.268721
37.4933 28.8605 0.141287
39.9404 27.7749 0.104027
37.5701 27.463 2
33.2569 33.0498 2
35.2182 29.0992 2
34.1579 31.3365 2
35.1183 27.6022 3.90413
33.3004 29.9537 3.8581
32.9095 32.4569 3.74172
29.6388 21.9903 3.99701
30.2185 19.3931 2
30.9333 16.8533 0.0191635
37.7151 25.4579 0.0199474
35.1989 22.8426 0.0015702
32.874 19.8143 0.00685644
32.3418 22.5212 2
35.0723 25.3848 2
31.8652 25.7684 4.00473
32.4419 37.5116 3.64166
34.2979 37.5092 2
35.8897 37.5001 0.262653
35.5269 49.9714 0.0121194
34.3813 47.2331 0.10641
34.3349 39.1482 0.273386
33.3073 45.057 0.142389
32.8928 42.5532 0.243633
32.9155 40.8375 0.401194
33.3378 49.0051 2
32.6055 39.2844 2
31.796 41.1118 2
32.4566 46.2294 2
31.7043 43.6968 2
31.3936 47.8479 3.98117
31.0932 39.3835 3.73979
30.5206 41.9219 3.84944
30.78 44.8084 3.91354
32.1213 51.1272 -0.017158
30.064 49.717 2
28.1697 48.0928 3.95937
28.565 51.5385 0.0107792
26.724 49.9131 2
24.9579 48.3712 3.97025
25.2456 51.6903 0.044978
23.5841 50.1068 2
21.987 48.6969 3.97106
22.1618 51.7424 0.04733
20.7245 50.238 2
19.3177 49.0192 3.97226
17.1195 49.2746 3.9738
16.9641 51.3547 3.96732
18.2346 50.2652 2
16.4993 53.8302 3.96473
18.0084 52.7384 2
19.423 51.572 0.0385896
16.0058 56.4513 3.96349
17.5057 55.305 2
19.023 54.2653 0.0373116
15.7596 59.1893 3.96662
17.1536 57.8487 2
18.4801 56.6936 0.0340639
15.7916 62.1216 3.97205
17.1434 60.526 2
18.382 59.0826 0.0316216
16.09 65.2991 3.98765
17.4086 63.4624 2
18.6241 61.747 0.0267282
16.6661 68.6801 4
17.9414 66.6158 2
19.1284 64.6702 0.0195873
18.75 69.9759 2
19.8867 67.8087 0.00963843
20.9142 71.1327 0
20.2254 14.6186 3.97479
21.5906 13.6231 2
20.5319 12.0086 3.97604
21.1449 9.15167 3.98164
22.1906 11.0361 2
23.0985 12.7987 0.0236355
22.0176 6.08244 3.99021
23.0407 8.1799 2
23.9734 10.1747 0.0207144
23.1494 2.85457 4
24.1166 5.14374 2
25.0244 7.31434 0.0157576
25.446 1.99012 2
26.2809 4.32853 0.00863789
27.7943 1.27781 0
32.5824 35.7422 3.61044
34.3467 35.8767 2
35.8954 35.8574 0.287687
21.3173 15.851 2
20.3217 16.9838 3.97951
22.1121 16.656 3.97021
25.3612 13.9212 0.0251883
22.486 15.0528 0.0201628
24.0362 15.6367 0.0184822
25.3923 16.1031 2
23.2807 16.2658 2
24.2221 18.5032 3.97168
27.0799 21.5184 3.99465
28.3656 15.9841 0.0200565
27.4528 18.8376 2
31.853 33.9476 3.73364
32.9264 34.168 2
34.4446 34.3018 0.286494
33.2816 33.0661 0.438512
34.195 31.3896 0.262733
35.2228 29.1526 0.141671
37.5834 27.4974 0.0966165
35.126 27.5578 2
32.8398 32.419 2
33.2823 29.9246 2
32.7362 28.2906 3.91444
31.7459 31.3538 3.84588
28.9774 24.4783 3.98572
29.6342 21.997 2
30.2211 19.3869 0.0189097
35.0433 25.3964 0.00075348
32.3423 22.5275 0.00355407
31.86 25.7464 2
29.9063 27.4142 3.97784
30.7044 37.5126 3.74536
32.4526 37.5103 2
34.2817 37.5117 0.258273
33.3516 49.0051 0.0210623
32.4923 46.1905 0.105861
32.5925 39.2839 0.389704
31.7424 43.667 0.152076
31.8326 41.0815 0.261723
31.3866 47.8584 2
31.0383 39.4081 2
30.4902 41.9384 2
30.7474 44.839 2
29.5601 46.4633 3.99927
29.6404 39.8505 3.87467
29.2179 43.0494 3.91604
30.0636 49.7017 -0.00222222
28.1658 48.0881 2
26.3344 46.5473 3.9788
26.7255 49.9133 0.0324003
24.9565 48.3705 2
23.2064 46.9684 3.97532
23.5854 50.1082 0.037297
21.9845 48.6957 2
20.2997 47.5358 3.97717
20.7272 50.2391 0.0352275
19.3191 49.0177 2
17.9312 48.1147 3.97713
16.356 48.6314 3.97637
17.1209 49.2736 2
16.0427 50.1208 3.97124
15.5128 52.3746 3.96697
16.9654 51.3538 2
18.232 50.2666 0.0317773
14.9316 54.9492 3.96376
16.5004 53.8299 2
18.0105 52.7387 0.0361133
14.4718 57.7222 3.96575
16.0054 56.4517 2
17.5095 55.3042 0.0375034
14.2709 60.6784 3.9706
15.7604 59.1901 2
17.1532 57.8482 0.0346686
14.3353 63.857 3.98309
15.7913 62.1243 2
17.1433 60.5234 0.0301891
14.6715 67.2507 4
16.0877 65.2975 2
17.4094 63.4615 0.0244912
16.6661 68.6801 2
17.9431 66.6171 0.0112258
18.75 69.9759 0
18.9423 15.8045 3.97645
20.2255 14.6169 2
18.9833 13.1244 3.97557
21.591 13.623 0.0229122
20.5312 12.0092 2
19.3444 10.2417 3.98005
19.9921 7.14719 3.98944
21.1436 9.15191 2
22.1917 11.0357 0.0223813
20.9142 3.86727 4
22.0153 6.0831 2
23.0422 8.18095 0.0170079
23.1494 2.85451 2
24.1185 5.14335 0.00923888
25.446 1.99014 0
31.1112 35.6383 3.73734
32.5939 35.739 2
34.3368 35.8733 0.27342
21.3167 15.8525 0.0166199
22.1127 16.6553 2
20.3221 16.9811 2
19.2807 18.4344 3.96446
21.8008 17.8849 3.98239
25.3923 16.1077 0.0193715
23.2799 16.266 0.0250822
24.2192 18.5077 2
22.3385 19.9417 3.96625
24.6629 21.4109 3.98836
26.5859 23.7828 3.97733
27.0796 21.5082 2
27.4544 18.8369 0.0208368
30.5627 33.111 3.86227
31.8185 33.904 2
32.9207 34.182 0.3984
32.9095 32.4569 0.258284
33.3004 29.9537 0.141897
35.1183 27.6022 0.0958683
32.6983 28.2622 2
31.6978 31.3189 2
30.4695 29.6912 3.93844
28.158 26.6266 3.99176
28.9677 24.4885 2
29.6388 21.9903 0.002991
31.8652 25.7684 -0.00472538
29.8981 27.3939 2
29.2159 37.5145 3.86867
30.6652 37.513 2
32.4419 37.5116 0.358339
31.3936 47.8479 0.0188285
30.78 44.8084 0.0864642
31.0932 39.3835 0.26021
30.5206 41.9219 0.150556
29.5604 46.464 2
29.5895 39.868 2
29.1876 43.0849 2
27.7833 44.7753 3.97097
27.4083 40.586 3.94402
28.1697 48.0928 0.0406264
26.3306 46.5518 2
24.4851 45.088 3.97667
24.9579 48.3712 0.0297547
23.2048 46.9679 2
21.2966 45.8048 3.97802
21.987 48.6969 0.0289373
20.2981 47.5344 2
18.6325 46.6648 3.97727
19.3177 49.0192 0.0277412
17.9316 48.1136 2
16.5755 47.6582 3.97693
16.3574 48.6305 2
15.3866 48.9697 3.97497
17.1195 49.2746 0.0262028
16.0446 50.1199 2
14.6327 50.946 3.96951
13.9083 53.4066 3.9655
15.5138 52.3741 2
16.9641 51.3547 0.0326789
13.2716 56.1536 3.96439
14.9315 54.9492 2
16.4993 53.8302 0.0352673
12.855 59.1145 3.96895
14.4731 57.7222 2
16.0058 56.4513 0.0365119
12.6812 62.2988 3.98002
14.2716 60.679 2
15.7596 59.1893 0.0333801
12.7746 65.6939 4
14.3332 63.8539 2
15.7916 62.1216 0.0279523
14.6714 67.2507 2
16.09 65.2991 0.0123503
16.6661 68.6801 0
17.6873 17.182 3.96892
18.9425 15.8032 2
17.5168 14.3901 3.97427
20.2254 14.6186 0.0252114
18.9828 13.124 2
17.6406 11.4621 3.97771
20.5319 12.0086 0.0239612
19.3432 10.242 2
18.0523 8.34048 3.98838
18.75 5.0241 4
19.9897 7.14872 2
21.1449 9.15167 0.0183565
20.9142 3.86727 2
22.0176 6.08244 0.00978758
23.1494 2.85457 0
29.6598 35.1873 3.87425
31.0575 35.6166 2
32.5824 35.7422 0.389562
22.1121 16.656 0.0297945
20.3217 16.9838 0.02049
21.8005 17.8831 2
19.2799 18.4317 2
18.0615 19.9807 3.95836
20.9297 19.4162 3.96674
24.2221 18.5032 0.0283207
22.3354 19.9428 2
24.6621 21.4095 2
22.4633 21.7771 3.98121
24.8553 23.222 3.97509
25.7506 26.014 3.97852
26.5858 23.7782 2
27.0799 21.5184 0.0053539
28.9416 32.4578 3.91934
30.5121 33.085 2
31.853 33.9476 0.266362
31.7459 31.3538 0.154121
32.7362 28.2906 0.0855646
30.4526 29.69 2
27.4358 29.2123 4.00891
28.1471 26.6347 2
28.9774 24.4783 0.0142775
29.9063 27.4142 0.0221624
27.5212 37.3644 3.92244
29.1527 37.507 2
30.7044 37.5126 0.254642
29.5601 46.4633 0.000730981
29.2179 43.0494 0.0839569
29.6404 39.8505 0.125332
27.771 44.8057 2
27.3865 40.585 2
25.8261 43.0804 3.98875
24.6657 39.4502 3.97334
26.3344 46.5473 0.0212041
24.4745 45.0892 2
22.3749 43.8491 3.97751
23.2064 46.9684 0.0246849
21.2928 45.8044 2
19.3586 44.8995 3.97714
20.2997 47.5358 0.0228345
18.6322 46.664 2
16.9113 46.1528 3.97703
17.9312 48.1147 0.0228732
16.5766 47.6573 2
15.14 47.6248 3.97616
16.356 48.6314 0.0236342
15.3884 48.9689 2
13.9376 49.5097 3.97188
16.0427 50.1208 0.028764
14.6337 50.9454 2
12.9815 51.848 3.96714
12.1711 54.5137 3.96492
13.9082 53.4064 2
15.5128 52.3746 0.0330276
11.5408 57.4503 3.96866
13.2721 56.1536 2
14.9316 54.9492 0.0362424
11.1359 60.6248 3.97826
12.8561 59.1142 2
14.4718 57.7222 0.0342525
10.9835 64.0165 4
12.6793 62.2953 2
14.2709 60.6784 0.0294
12.7745 65.694 2
14.3353 63.857 0.016907
14.6715 67.2507 0
16.4348 18.6773 3.96238
17.6867 17.1805 2
16.1116 15.8032 3.96965
18.9423 15.8045 0.0235536
17.5165 14.3893 2
16.0229 12.8172 3.97506
18.9833 13.1244 0.024428
17.6397 11.4634 2
16.2033 9.66385 3.98722
19.3444 10.2417 0.0199462
18.0497 8.34258 2
16.6661 6.31991 4
18.75 5.02404 2
19.9921 7.14719 0.0105576
20.9142 3.86727 0
28.0554 34.823 3.91164
29.6066 35.1599 2
31.1112 35.6383 0.262657
16.7774 21.4168 3.96543
21.8008 17.8849 0.017612
19.2807 18.4344 0.0355424
20.9278 19.4144 2
18.0596 19.9796 2
19.8423 21.6244 3.96857
22.3385 19.9417 0.0337485
24.6629 21.4109 0.0116364
22.4611 21.7782 2
24.8534 23.2223 2
23.083 24.6691 3.97396
24.9791 28.6006 3.97908
25.7445 26.0161 2
26.5859 23.7828 0.022668
26.7923 31.8009 3.97872
28.914 32.4382 2
30.5627 33.111 0.13773
30.4695 29.6912 0.0615571
27.4516 29.1942 2
28.158 26.6266 0.00824075
25.3509 36.856 3.97628
27.5099 37.3578 2
29.2159 37.5145 0.131326
27.7833 44.7753 0.0290343
27.4083 40.586 0.0559756
25.8068 43.0951 2
24.6473 39.4512 2
23.5573 41.811 3.9811
22.3827 38.5196 3.97801
24.4851 45.088 0.0233338
22.3751 43.8491 2
20.2048 42.8378 3.97635
21.2966 45.8048 0.021982
19.3592 44.8992 2
17.2975 44.3242 3.97645
18.6325 46.6648 0.0227257
16.913 46.1521 2
15.0901 46.0449 3.97632
16.5755 47.6582 0.0230708
15.1416 47.6241 2
13.4619 47.9737 3.97371
15.3866 48.9697 0.0250271
13.9388 49.509 2
12.2082 50.2283 3.96861
14.6327 50.946 0.0304883
12.982 51.8476 2
11.1703 52.8249 3.96558
10.3313 55.7058 3.96844
12.1714 54.5136 2
13.9083 53.4066 0.0345041
9.70254 58.8474 3.97754
11.5415 57.45 2
13.2716 56.1536 0.0356097
9.30605 62.2254 4
11.1343 60.6209 2
12.855 59.1145 0.0310549
10.9835 64.0165 2
12.6812 62.2988 0.0199776
12.7746 65.6939 0
15.205 20.2152 3.96266
16.4361 18.6771 2
14.7626 17.3252 3.96581
17.6873 17.182 0.0310755
16.1111 15.8011 2
14.4873 14.3057 3.97202
17.5168 14.3901 0.025731
16.0222 12.818 2
14.4462 11.1159 3.98586
17.6406 11.4621 0.0222862
16.2009 9.66672 2
14.6715 7.74927 4
18.0523 8.34048 0.0116214
16.6661 6.31988 2
18.75 5.0241 0
26.0157 34.3202 3.98437
28.0337 34.8313 2
29.6598 35.1873 0.12575
18.0001 22.3719 3.97149
15.6633 22.9614 3.96857
16.777 21.4168 2
20.9297 19.4162 0.0332579
18.0615 19.9807 0.0416409
19.8409 21.6237 2
19.9216 24.4515 3.97052
22.4633 21.7771 0.0187862
24.8553 23.222 0.0249132
23.0803 24.669 2
22.3428 27.9121 3.97295
24.3503 31.2813 3.9765
24.9873 28.5998 2
25.7506 26.014 0.021479
26.7749 31.7702 2
28.9416 32.4578 0.0806587
27.4358 29.2123 -0.00891359
23.1044 36.2862 3.98253
25.3368 36.8603 2
27.5212 37.3644 0.0775636
25.8261 43.0804 0.0112531
24.6657 39.4502 0.026655
23.544 41.8107 2
22.3736 38.5167 2
21.2621 40.6286 3.97527
20.6416 37.8021 3.97708
22.3749 43.8491 0.0224865
20.2036 42.8391 2
17.7639 42.0566 3.97611
19.3586 44.8995 0.0228586
17.2985 44.3245 2
15.1309 44.1553 3.97638
16.9113 46.1528 0.0229733
15.0913 46.0443 2
13.1572 46.2626 3.97488
15.14 47.6248 0.02384
13.4634 47.9731 2
11.5917 48.5266 3.96988
13.9376 49.5097 0.0281186
12.2091 50.2279 2
10.2994 51.0699 3.96607
12.9815 51.848 0.0328569
11.1708 52.8246 2
9.24021 53.8862 3.9683
8.38593 56.9809 3.97835
10.3321 55.7051 2
12.1711 54.5137 0.0350765
7.74927 60.3285 4
9.70129 58.8434 2
11.5408 57.4503 0.0313399
9.306 62.2255 2
11.1359 60.6248 0.0217363
10.9835 64.0165 0
14.0343 21.7812 3.96529
15.2043 20.2148 2
13.465 18.9187 3.9647
16.4348 18.6773 0.0376177
14.7642 17.3252 2
13.0339 15.9007 3.96977
16.1116 15.8032 0.0303472
14.4867 14.3026 2
12.7841 12.69 3.98258
16.0229 12.8172 0.0249399
14.4437 11.1189 2
12.7746 9.30605 4
16.2033 9.66385 0.012784
14.6715 7.74924 2
16.6661 6.31991 0
23.6926 33.8565 3.98327
25.9921 34.3115 2
28.0554 34.823 0.0883598
17.8559 24.1015 3.97015
18.0039 22.3726 2
14.503 24.4957 3.97031
15.6644 22.9617 2
16.7774 21.4168 0.0345697
19.3927 27.2816 3.9725
19.8423 21.6244 0.0314286
19.9175 24.4513 2
21.6946 30.7554 3.97531
23.083 24.6691 0.026037
22.3471 27.914 2
24.3283 31.2811 2
24.9791 28.6006 0.0209237
26.7923 31.8009 0.0212792
20.7643 35.9556 3.97654
23.1054 36.286 2
25.3509 36.856 0.0237214
23.5573 41.811 0.0189034
22.3827 38.5196 0.0219868
21.2689 40.6296 2
20.6407 37.8007 2
18.5114 38.9996 3.97706
20.2048 42.8378 0.0236529
17.7641 42.0564 2
15.1162 41.8849 3.97656
17.2975 44.3242 0.0235477
15.132 44.1548 2
12.9187 44.3624 3.97581
15.0901 46.0449 0.0236806
13.1589 46.262 2
11.1051 46.7124 3.97117
13.4619 47.9737 0.026288
11.593 48.5262 2
9.5665 49.2307 3.96647
12.2082 50.2283 0.0313915
10.2998 51.0695 2
8.27299 52.0004 3.9681
11.1703 52.8249 0.0344226
9.24086 53.8854 2
7.19494 55.032 3.97912
6.31991 58.3339 4
8.38504 56.9771 2
10.3313 55.7058 0.0315611
7.74924 60.3285 2
9.70254 58.8474 0.0224629
9.30605 62.2254 0
13.3841 25.3991 3.97377
12.9328 23.3111 3.96764
14.0334 21.7809 2
12.2596 20.5653 3.96518
15.205 20.2152 0.0373433
13.4662 18.9185 2
11.6646 17.5769 3.97017
14.7626 17.3252 0.0341865
13.0354 15.9001 2
11.2222 14.3764 3.97831
14.4873 14.3057 0.0279796
12.7816 12.694 2
10.9835 10.9835 4
14.4462 11.1159 0.0141443
12.7745 9.306 2
14.6715 7.74927 0
21.129 33.4612 3.97559
23.6936 33.8484 2
26.0157 34.3202 0.015626
16.1803 26.4594 3.97279
17.857 24.1018 2
18.0001 22.3719 0.0285145
14.5032 24.4962 2
15.6633 22.9614 0.0314337
18.783 30.2511 3.97506
19.3903 27.2819 2
19.9216 24.4515 0.0294765
21.7034 30.756 2
22.3428 27.9121 0.0270455
24.3503 31.2813 0.0234979
18.1223 35.9874 3.97779
20.7664 35.9562 2
23.1044 36.2862 0.0174682
21.2621 40.6286 0.0247269
20.6416 37.8021 0.0229198
18.5098 38.9992 2
14.6202 39.1678 3.97718
17.7639 42.0566 0.0238909
15.1168 41.8847 2
12.6154 42.2539 3.97682
15.1309 44.1553 0.0236196
12.9201 44.3618 2
10.6934 44.7843 3.9723
13.1572 46.2626 0.0251227
11.1067 46.712 2
8.95185 47.3107 3.96685
11.5917 48.5266 0.0301198
9.56667 49.2303 2
7.43982 50.0342 3.96776
10.2994 51.0699 0.0339323
8.27345 51.9995 2
6.13557 53.0073 3.97953
9.24021 53.8862 0.0316991
7.19442 55.0289 2
5.0241 56.25 4
6.31988 58.3339 2
8.38593 56.9809 0.0216516
7.74927 60.3285 0
13.6526 26.8531 3.97366
12.043 24.8146 3.96987
13.3834 25.3993 2
11.1799 22.2491 3.96566
12.9336 23.3114 2
14.0343 21.7812 0.0347108
12.2603 20.5652 2
10.3962 19.3276 3.96903
13.465 18.9187 0.0353006
11.6663 17.577 2
9.76301 16.16 3.97766
13.0339 15.9007 0.0302297
11.2203 14.3812 2
9.30607 12.7746 4
12.7841 12.69 0.0174198
10.9835 10.9835 2
12.7746 9.30605 0
18.2925 33.1688 3.9768
21.13 33.4632 2
23.6926 33.8565 0.0167251
15.8043 29.6922 3.97577
16.1809 26.4601 2
17.8559 24.1015 0.0298471
14.503 24.4957 0.0296914
18.7823 30.2518 2
19.3927 27.2816 0.0275013
21.6946 30.7554 0.0246862
15.2412 36.0353 3.97745
18.1221 35.9875 2
20.7643 35.9556 0.0234555
12.8455 37.8299 3.97735
18.5114 38.9996 0.0229361
14.6206 39.1676 2
12.1211 40.1284 3.97709
15.1162 41.8849 0.0234396
12.6169 42.2533 2
10.2988 42.7643 3.97259
12.9187 44.3624 0.0241909
10.6948 44.7839 2
8.4316 45.3138 3.96732
11.1051 46.7124 0.028827
8.95156 47.3104 2
6.73093 47.9996 3.96753
9.5665 49.2307 0.0335335
7.44013 50.0334 2
5.21236 50.9108 3.97922
8.27299 52.0004 0.0319027
6.13533 53.0053 2
3.86727 54.0858 4
7.19494 55.032 0.0208828
5.02404 56.25 2
6.31991 58.3339 0
13.1339 29.0689 3.97323
11.488 26.5131 3.97035
13.6524 26.8535 2
10.241 23.98 3.9666
12.0446 24.815 2
13.3841 25.3991 0.0262271
9.2488 21.143 3.96848
11.1801 22.2492 2
12.9328 23.3111 0.0323578
12.2596 20.5653 0.034824
10.3978 19.3279 2
8.41866 18.0307 3.97784
11.6646 17.5769 0.0298289
9.7616 16.1649 2
7.74928 14.6715 4
11.2222 14.3764 0.0216856
9.30602 12.7745 2
10.9835 10.9835 0
14.7952 32.9047 3.97712
18.2912 33.1682 2
21.129 33.4612 0.0244053
15.806 29.693 2
16.1803 26.4594 0.0272091
18.783 30.2511 0.0249436
13.1379 36.2212 3.97714
15.2409 36.0351 2
18.1223 35.9874 0.0222115
12.8473 37.8296 2
11.4605 38.3087 3.97709
14.6202 39.1678 0.0228195
12.1237 40.1279 2
9.8785 40.7462 3.97348
12.6154 42.2539 0.0231788
10.3012 42.7639 2
7.97998 43.2644 3.96799
10.6934 44.7843 0.0276965
8.43222 45.3134 2
6.13681 45.9048 3.96758
8.95185 47.3107 0.0331486
6.73121 47.9989 2
4.42382 48.7514 3.97863
7.43982 50.0342 0.032244
5.21231 50.9096 2
2.85457 51.8506 4
6.13557 53.0073 0.0204693
3.86727 54.0858 2
5.0241 56.25 0
12.2726 31.2848 3.97457
10.9084 28.4382 3.97071
13.1353 29.0694 2
9.45901 25.8089 3.96711
11.4892 26.5135 2
13.6526 26.8531 0.0263438
8.23561 23.0259 3.96827
10.2414 23.9803 2
12.043 24.8146 0.0301309
7.20083 19.98 3.97864
9.25005 21.1436 2
11.1799 22.2491 0.0343393
10.3962 19.3276 0.0309716
8.41793 18.0352 2
6.31992 16.6661 4
9.76301 16.16 0.0223443
7.74926 14.6714 2
9.30607 12.7746 0
12.3046 34.3158 3.97694
14.7961 32.9055 2
18.2925 33.1688 0.0231956
15.8043 29.6922 0.0242314
11.0036 36.6165 3.97694
13.1391 36.221 2
15.2412 36.0353 0.0225507
12.8455 37.8299 0.022651
11.4635 38.3085 2
9.46199 38.8207 3.9743
12.1211 40.1284 0.0229054
9.8803 40.746 2
7.58863 41.2079 3.96858
10.2988 42.7643 0.0274074
7.97939 43.2641 2
5.64836 43.7679 3.96789
8.4316 45.3138 0.0326759
6.13701 45.9043 2
3.7693 46.537 3.97838
6.73093 47.9996 0.032469
4.42398 48.7508 2
1.99014 49.554 4
5.21236 50.9108 0.0207808
2.85451 51.8506 2
3.86727 54.0858 0
11.0929 32.9378 3.97667
10.2191 30.4009 3.97154
12.2743 31.2854 2
8.76982 27.7415 3.96739
10.9097 28.4386 2
13.1339 29.0689 0.0267686
7.3609 24.9839 3.968
9.45897 25.8092 2
11.488 26.5131 0.02965
6.1178 22.0028 3.97945
8.23638 23.0264 2
10.241 23.98 0.0333955
5.02411 18.75 4
7.20054 19.9833 2
9.2488 21.143 0.0315205
8.41866 18.0307 0.0221575
6.3199 16.6661 2
7.74928 14.6715 0
10.6004 35.0101 3.97671
12.3067 34.3163 2
14.7952 32.9047 0.0228795
9.12542 36.9869 3.97421
11.0066 36.6168 2
13.1379 36.2212 0.0228649
11.4605 38.3087 0.0229071
9.46362 38.8205 2
7.26527 39.1808 3.96893
9.8785 40.7462 0.0265213
7.58901 41.2076 2
5.26334 41.6137 3.96795
7.97998 43.2644 0.0320136
5.64852 43.7674 2
3.2469 44.2817 3.97865
6.13681 45.9048 0.0324171
3.76955 46.5365 2
1.27781 47.2057 4
4.42382 48.7514 0.0213744
1.99012 49.554 2
2.85457 51.8506 0
10.2384 33.8945 3.97686
9.5011 32.1683 3.97221
11.0952 32.9384 2
8.11402 29.7032 3.96785
10.2207 30.4013 2
12.2726 31.2848 0.0254341
6.6042 27.0094 3.96795
8.7695 27.7417 2
10.9084 28.4382 0.0292857
5.17318 24.0952 3.97938
7.36133 24.9844 2
9.45901 25.8089 0.0328928
3.86728 20.9142 4
6.11775 22.0048 2
8.23561 23.0259 0.0317263
5.02406 18.75 2
7.20083 19.98 0.0213598
6.31992 16.6661 0
8.94583 35.2854 3.97405
10.6032 35.0104 2
12.3046 34.3158 0.0230596
7.04397 37.2065 3.96878
9.12704 36.9868 2
11.0036 36.6165 0.0230604
9.46199 38.8207 0.0256956
7.26611 39.1807 2
4.99083 39.4673 3.9682
7.58863 41.2079 0.031421
5.26388 41.6134 2
2.85727 42.002 3.97876
5.64836 43.7679 0.0321138
3.24701 44.2814 2
0.720592 44.8159 4
3.7693 46.537 0.0216246
1.27778 47.2057 2
1.99014 49.554 0
8.98851 33.7073 3.97335
10.241 33.8949 2
7.54791 31.6149 3.96822
9.50307 32.1686 2
11.0929 32.9378 0.0233296
5.94903 29.0702 3.96805
8.11358 29.7034 2
10.2191 30.4009 0.0284583
4.36075 26.2475 3.97901
6.60443 27.0098 2
8.76982 27.7415 0.0326104
2.85458 23.1494 4
5.17325 24.0961 2
7.3609 24.9839 0.0319998
3.86728 20.9142 2
6.1178 22.0028 0.0205527
5.02411 18.75 0
6.99211 35.3083 3.96874
8.94748 35.2855 2
10.6004 35.0101 0.0232897
4.84089 37.3399 3.96861
7.04487 37.2064 2
9.12542 36.9869 0.0257933
7.26527 39.1808 0.0310694
4.99137 39.4671 2
2.60526 39.7136 3.97882
5.26334 41.6137 0.0320502
2.85768 42.0019 2
0.320823 42.3947 4
3.2469 44.2817 0.0213532
0.720551 44.8159 2
1.27781 47.2057 0
7.15722 33.4648 3.96847
8.99023 33.7075 2
10.2384 33.8945 0.0231401
5.41951 31.134 3.96842
7.54795 31.615 2
9.5011 32.1683 0.0277904
3.68232 28.4435 3.97871
5.94925 29.0706 2
8.11402 29.7032 0.0321472
1.99015 25.446 4
4.36091 26.2478 2
6.6042 27.0094 0.0320474
2.85453 23.1494 2
5.17318 24.0952 0.0206165
3.86728 20.9142 0
4.8553 35.2518 3.96852
6.99212 35.3083 2
8.94583 35.2854 0.0259546
2.49668 37.4283 3.97961
4.84095 37.34 2
7.04397 37.2065 0.0312168
4.99083 39.4673 0.0317992
2.60578 39.714 2
0.080333 39.9526 4
2.85727 42.002 0.0212397
0.320817 42.3947 2
0.720592 44.8159 0
5.04873 33.1905 3.96853
7.15742 33.4649 2
8.98851 33.7073 0.0266524
3.14648 30.6662 3.97888
5.41972 31.1344 2
7.54791 31.6149 0.0317759
1.27793 27.7943 4
3.6826 28.4437 2
5.94903 29.0702 0.0319479
1.99013 25.446 2
4.36075 26.2475 0.0209939
2.85458 23.1494 0
2.54881 35.1589 3.9793
4.85593 35.252 2
6.99211 35.3083 0.0312579
0 37.5 4
2.49674 37.4287 2
4.84089 37.3399 0.0313929
2.60526 39.7136 0.0211752
0.0802903 39.9526 2
0.320823 42.3947 0
2.76645 32.9057 3.97943
5.04893 33.1909 2
7.15722 33.4648 0.0315256
0.721173 30.1842 4
3.14678 30.6666 2
5.41951 31.134 0.0315779
1.27779 27.7943 2
3.68232 28.4435 0.0212887
1.99015 25.446 0
0.0806499 35.0474 4
2.54941 35.1594 2
4.8553 35.2518 0.0314756
0 37.5 2
2.49668 37.4283 0.0203923
0.080333 39.9526 0
0.32156 32.6054 4
2.7666 32.9063 2
5.04873 33.1905 0.0314744
0.72056 30.1841 2
3.14648 30.6662 0.0211248
1.27793 27.7943 0
0.0802889 35.0474 2
2.54881 35.1589 0.0207047
0 37.5 0
0.320817 32.6053 2
2.76645 32.9057 0.0205746
0.721173 30.1842 0
0.0806499 35.0474 0
0.32156 32.6054 0
CELLS 1910 17190
8 18 6 25 56 2 0 5 16
8 57 23 6 18 17 4 0 2
8 78 36 9 29 31 11 1 7
8 31 11 1 7 79 37 10 30
8 110 57 18 50 48 17 2 14
8 50 18 56 111 14 2 16 49
8 116 62 22 55 52 20 3 15
8 56 25 67 118 16 5 24 53
8 119 63 23 57 54 21 4 17
8 55 22 63 119 15 3 21 54
8 58 26 68 121 18 6 25 56
8 122 65 26 58 57 23 6 18
8 73 31 7 27 142 79 30 71
8 143 78 29 72 73 31 7 27
8 83 147 76 34 32 74 28 8
8 84 148 78 36 33 75 29 9
8 76 34 8 28 148 84 33 75
8 37 79 150 86 10 30 77 35
8 151 87 36 78 80 38 11 31
8 80 38 11 31 152 88 37 79
8 175 100 42 94 96 44 12 40
8 44 96 176 101 12 40 95 43
8 101 176 98 46 43 95 41 13
8 46 98 178 103 13 41 97 45
8 178 103 45 97 147 83 32 74
8 189 116 55 109 106 52 15 47
8 111 56 118 191 49 16 53 107
8 192 119 57 110 108 54 17 48
8 109 55 119 192 47 15 54 108
8 194 122 58 112 110 57 18 50
8 112 58 121 195 50 18 56 111
8 115 61 19 51 197 124 59 113
8 115 61 125 198 51 19 60 114
8 198 125 62 116 114 60 20 52
8 200 127 64 120 116 62 22 55
8 118 67 132 202 53 24 66 117
8 121 68 133 203 56 25 67 118
8 120 64 128 204 55 22 63 119
8 204 128 65 122 119 63 23 57
8 206 134 68 121 123 69 26 58
8 123 69 26 58 207 131 65 122
8 226 147 74 138 140 76 28 70
8 229 148 75 139 143 78 29 72
8 140 76 28 70 229 148 75 139
8 142 79 30 71 231 150 77 141
8 144 80 31 73 232 152 79 142
8 233 151 78 143 144 80 31 73
8 150 86 35 77 235 154 81 145
8 235 154 81 145 146 82 39 91
8 146 82 39 91 236 155 90 165
8 238 157 83 147 149 85 34 76
8 239 158 84 148 151 87 36 78
8 149 85 34 76 239 158 84 148
8 152 88 37 79 241 160 86 150
8 242 161 87 151 153 89 38 80
8 153 89 38 80 243 162 88 152
8 171 98 41 92 265 178 97 169
8 265 178 97 169 226 147 74 138
8 172 96 40 93 266 176 95 170
8 266 176 95 170 171 98 41 92
8 269 175 94 173 172 96 40 93
8 271 180 99 174 175 100 42 94
8 197 124 59 113 271 180 99 174
8 272 181 100 175 177 102 44 96
8 273 182 101 176 179 104 46 98
8 177 102 44 96 273 182 101 176
8 179 104 46 98 275 184 103 178
8 275 184 103 178 238 157 83 147
8 188 115 51 105 283 197 113 186
8 188 115 198 284 105 51 114 187
8 284 198 116 189 187 114 52 106
8 286 200 120 193 189 116 55 109
8 191 118 202 288 107 53 117 190
8 195 121 203 289 111 56 118 191
8 193 120 204 290 109 55 119 192
8 290 204 122 194 192 119 57 110
8 196 123 58 112 292 207 122 194
8 293 206 121 195 196 123 58 112
8 199 126 61 115 297 211 124 197
8 298 212 127 200 198 125 62 116
8 199 126 212 298 115 61 125 198
8 205 129 64 120 300 214 127 200
8 301 217 130 201 202 132 66 117
8 209 136 168 264 301 217 130 201
8 302 219 132 202 203 133 67 118
8 303 220 133 203 206 134 68 121
8 205 129 215 304 120 64 128 204
8 304 215 131 207 204 128 65 122
8 306 221 134 206 208 135 69 123
8 208 135 69 123 307 218 131 207
8 210 137 167 263 309 223 136 209
8 328 238 147 226 230 149 76 140
8 228 146 91 166 329 236 165 260
8 231 150 77 141 330 235 145 227
8 330 235 145 227 228 146 91 166
8 332 239 148 229 233 151 78 143
8 230 149 76 140 332 239 148 229
8 232 152 79 142 334 241 150 231
8 234 153 80 144 335 243 152 232
8 336 242 151 233 234 153 80 144
8 236 155 90 165 338 245 164 259
8 241 160 86 150 339 246 154 235
8 339 246 154 235 237 156 82 146
8 237 156 82 146 340 247 155 236
8 342 249 157 238 240 159 85 149
8 343 250 158 239 242 161 87 151
8 240 159 85 149 343 250 158 239
8 243 162 88 152 345 252 160 241
8 244 163 253 346 153 89 161 242
8 244 163 89 153 347 254 162 243
8 311 224 261 371 210 137 167 263
8 263 167 262 372 209 136 168 264
8 267 179 98 171 375 275 178 265
8 375 275 178 265 328 238 147 226
8 376 273 176 266 267 179 98 171
8 268 177 96 172 376 273 176 266
8 379 272 175 269 268 177 96 172
8 380 271 174 270 269 175 94 173
8 283 197 113 186 380 271 174 270
8 381 277 180 271 272 181 100 175
8 297 211 124 197 381 277 180 271
8 382 278 181 272 274 183 102 177
8 274 183 102 177 383 279 182 273
8 383 279 182 273 276 185 104 179
8 385 281 184 275 342 249 157 238
8 276 185 104 179 385 281 184 275
8 285 199 115 188 393 297 197 283
8 394 298 200 286 284 198 116 189
8 285 199 298 394 188 115 198 284
8 291 205 120 193 396 300 200 286
8 397 301 201 287 288 202 117 190
8 295 209 264 374 397 301 201 287
8 398 302 202 288 289 203 118 191
8 399 303 203 289 293 206 121 195
8 291 205 304 400 193 120 204 290
8 400 304 207 292 290 204 122 194
8 294 208 123 196 402 307 207 292
8 403 306 206 293 294 208 123 196
8 296 210 263 373 405 309 209 295
8 408 312 213 299 297 211 126 199
8 299 213 313 409 199 126 212 298
8 409 313 214 300 298 212 127 200
8 305 216 129 205 411 315 214 300
8 412 318 217 301 302 219 132 202
8 309 223 136 209 412 318 217 301
8 413 320 219 302 303 220 133 203
8 306 221 321 414 206 134 220 303
8 307 218 131 207 415 316 215 304
8 305 216 316 415 205 129 215 304
8 417 322 221 306 308 222 135 208
8 308 222 135 208 418 319 218 307
8 310 225 137 210 420 325 223 309
8 423 326 224 311 310 225 137 210
8 329 236 165 260 441 338 259 368
8 442 342 238 328 333 240 149 230
8 331 237 146 228 443 340 236 329
8 334 241 150 231 444 339 235 330
8 444 339 235 330 331 237 146 228
8 446 343 239 332 336 242 151 233
8 333 240 149 230 446 343 239 332
8 335 243 152 232 448 345 241 334
8 337 244 153 234 449 347 243 335
8 337 244 346 450 234 153 242 336
8 338 245 164 259 452 349 258 367
8 340 247 155 236 453 350 245 338
8 345 252 160 241 454 351 246 339
8 454 351 246 339 341 248 156 237
8 341 248 156 237 455 352 247 340
8 240 159 251 344 342 249 354 457
8 242 161 253 346 343 250 355 458
8 343 250 355 458 240 159 251 344
8 347 254 162 243 460 357 252 345
8 348 255 358 461 244 163 253 346
8 348 255 163 244 462 359 254 347
8 473 360 257 365 363 256 364 482
8 452 349 258 367 365 257 366 485
8 422 324 369 488 311 224 261 371
8 371 261 370 490 263 167 262 372
8 407 311 371 491 296 210 263 373
8 373 263 372 492 295 209 264 374
8 493 385 275 375 442 342 238 328
8 377 276 179 267 493 385 275 375
8 378 274 177 268 494 383 273 376
8 494 383 273 376 377 276 179 267
8 497 382 272 379 378 274 177 268
8 498 381 271 380 379 272 175 269
8 393 297 197 283 498 381 271 380
8 499 387 277 381 382 278 181 272
8 408 312 211 297 499 387 277 381
8 500 388 278 382 384 280 183 274
8 501 389 279 383 386 282 185 276
8 384 280 183 274 501 389 279 383
8 386 282 185 276 503 391 281 385
8 503 391 281 385 457 354 249 342
8 511 408 299 395 393 297 199 285
8 395 299 409 512 285 199 298 394
8 512 409 300 396 394 298 200 286
8 401 305 205 291 514 411 300 396
8 515 412 301 397 398 302 202 288
8 405 309 209 295 515 412 301 397
8 516 413 302 398 399 303 203 289
8 403 306 414 517 293 206 303 399
8 402 307 207 292 518 415 304 400
8 401 305 415 518 291 205 304 400
8 404 308 208 294 520 418 307 402
8 521 417 306 403 404 308 208 294
8 406 310 210 296 523 420 309 405
8 526 423 311 407 406 310 210 296
8 410 314 213 299 527 424 312 408
8 528 425 315 411 409 313 214 300
8 410 314 425 528 299 213 313 409
8 416 317 216 305 530 427 315 411
8 531 430 318 412 413 320 219 302
8 420 325 223 309 531 430 318 412
8 532 432 320 413 414 321 220 303
8 417 322 433 533 306 221 321 414
8 418 319 218 307 534 428 316 415
8 416 317 428 534 305 216 316 415
8 419 323 434 536 308 222 322 417
8 419 323 222 308 537 431 319 418
8 421 327 225 310 539 438 325 420
8 421 327 439 541 310 225 326 423
8 543 437 324 422 423 326 224 311
8 441 338 259 368 559 452 367 486
8 443 340 236 329 560 453 338 441
8 333 240 344 447 442 342 457 561
8 445 341 237 331 562 455 340 443
8 448 345 241 334 563 454 339 444
8 563 454 339 444 445 341 237 331
8 336 242 346 450 446 343 458 565
8 446 343 458 565 333 240 344 447
8 449 347 243 335 567 460 345 448
8 451 348 244 337 568 462 347 449
8 451 348 461 569 337 244 346 450
8 570 463 349 452 473 360 257 365
8 453 350 245 338 570 463 349 452
8 455 352 247 340 571 464 350 453
8 460 357 252 345 572 465 351 454
8 572 465 351 454 456 353 248 341
8 456 353 248 341 573 466 352 455
8 344 251 356 459 457 354 468 575
8 458 355 469 576 344 251 356 459
8 346 253 358 461 458 355 469 576
8 462 359 254 347 578 471 357 460
8 348 255 359 462 461 358 472 579
8 591 474 360 473 475 361 256 363
8 475 361 256 363 594 477 362 479
8 363 256 364 482 479 362 480 603
8 590 473 365 484 481 363 482 605
8 482 364 257 365 606 483 366 485
8 559 452 367 486 484 365 485 607
8 542 436 487 609 422 324 369 488
8 525 422 488 611 407 311 371 491
8 488 369 489 612 371 261 370 490
8 491 371 490 613 373 263 372 492
8 495 386 276 377 614 503 385 493
8 614 503 385 493 561 457 342 442
8 615 501 383 494 495 386 276 377
8 496 384 274 378 615 501 383 494
8 618 500 382 497 496 384 274 378
8 619 499 381 498 497 382 272 379
8 511 408 297 393 619 499 381 498
8 620 505 387 499 500 388 278 382
8 527 424 312 408 620 505 387 499
8 502 390 506 621 384 280 388 500
8 622 507 389 501 504 392 282 386
8 502 390 280 384 622 507 389 501
8 504 392 282 386 624 509 391 503
8 624 509 391 503 575 468 354 457
8 513 410 299 395 630 527 408 511
8 631 528 411 514 512 409 300 396
8 513 410 528 631 395 299 409 512
8 519 416 305 401 633 530 411 514
8 634 531 412 515 516 413 302 398
8 523 420 309 405 634 531 412 515
8 635 532 413 516 517 414 303 399
8 521 417 533 636 403 306 414 517
8 520 418 307 402 637 534 415 518
8 519 416 534 637 401 305 415 518
8 522 419 308 404 639 537 418 520
8 522 419 536 640 404 308 417 521
8 524 421 310 406 642 539 420 523
8 524 421 541 644 406 310 423 526
8 646 543 422 525 526 423 311 407
8 529 426 314 410 647 544 424 527
8 528 425 545 648 411 315 427 530
8 529 426 545 648 410 314 425 528
8 535 429 317 416 649 546 427 530
8 650 548 430 531 532 432 320 413
8 539 438 325 420 650 548 430 531
8 533 433 550 651 414 321 432 532
8 536 434 551 652 417 322 433 533
8 537 431 319 418 653 547 428 534
8 535 429 547 653 416 317 428 534
8 538 435 552 654 419 323 434 536
8 538 435 323 419 655 549 431 537
8 540 440 327 421 657 556 438 539
8 540 440 557 659 421 327 439 541
8 541 439 555 660 423 326 437 543
8 661 554 436 542 543 437 324 422
8 676 570 452 559 590 473 365 484
8 560 453 338 441 676 570 452 559
8 562 455 340 443 677 571 453 560
8 447 344 459 566 561 457 575 678
8 564 456 341 445 679 573 455 562
8 567 460 345 448 680 572 454 563
8 680 572 454 563 564 456 341 445
8 565 458 576 682 447 344 459 566
8 450 346 461 569 565 458 576 682
8 568 462 347 449 684 578 460 567
8 451 348 462 568 569 461 579 685
8 686 580 463 570 591 474 360 473
8 571 464 350 453 686 580 463 570
8 573 466 352 455 687 581 464 571
8 572 465 582 688 460 357 471 578
8 574 467 582 688 456 353 465 572
8 574 467 353 456 689 583 466 573
8 459 356 470 577 575 468 585 691
8 576 469 586 692 459 356 470 577
8 461 358 472 579 576 469 586 692
8 462 359 471 578 579 472 588 694
8 704 591 473 590 593 475 363 481
8 595 476 592 705 475 361 474 591
8 593 475 363 481 707 594 479 602
8 594 477 362 479 709 598 478 600
8 595 476 361 475 711 597 477 594
8 479 362 480 603 600 478 601 720
8 481 363 482 605 602 479 603 722
8 603 480 364 482 723 604 483 606
8 605 482 365 484 724 606 485 607
8 656 553 608 726 542 436 487 609
8 645 542 609 728 525 422 488 611
8 609 487 610 729 488 369 489 612
8 611 488 612 730 491 371 490 613
8 616 504 386 495 731 624 503 614
8 731 624 503 614 678 575 457 561
8 732 622 501 615 616 504 386 495
8 617 502 384 496 732 622 501 615
8 617 502 621 735 496 384 500 618
8 736 620 499 619 618 500 382 497
8 630 527 408 511 736 620 499 619
8 621 506 626 737 500 388 505 620
8 647 544 424 527 737 626 505 620
8 623 508 627 738 502 390 506 621
8 623 508 390 502 739 628 507 622
8 625 510 628 739 504 392 507 622
8 740 629 509 624 691 585 468 575
8 625 510 392 504 740 629 509 624
8 632 529 410 513 744 647 527 630
8 631 528 648 745 514 411 530 633
8 632 529 648 745 513 410 528 631
8 638 535 416 519 746 649 530 633
8 747 650 531 634 635 532 413 516
8 642 539 420 523 747 650 531 634
8 636 533 651 748 517 414 532 635
8 640 536 652 749 521 417 533 636
8 639 537 418 520 750 653 534 637
8 638 535 653 750 519 416 534 637
8 641 538 419 522 751 655 537 639
8 641 538 654 752 522 419 536 640
8 643 540 421 524 753 657 539 642
8 643 540 659 755 524 421 541 644
8 644 541 660 757 526 423 543 646
8 758 661 542 645 646 543 422 525
8 529 426 544 647 648 545 662 759
8 530 427 545 648 649 546 663 760
8 535 429 546 649 653 547 664 761
8 762 666 548 650 651 550 432 532
8 657 556 438 539 762 666 548 650
8 652 551 668 763 533 433 550 651
8 654 552 669 764 536 434 551 652
8 655 549 431 537 765 665 547 653
8 538 435 549 655 654 552 667 766
8 661 554 671 768 542 436 553 656
8 658 558 440 540 769 674 556 657
8 658 558 675 770 540 440 557 659
8 659 557 673 771 541 439 555 660
8 660 555 672 772 543 437 554 661
8 788 686 570 676 704 591 473 590
8 677 571 453 560 788 686 570 676
8 679 573 455 562 789 687 571 677
8 566 459 577 683 678 575 691 790
8 681 574 456 564 791 689 573 679
8 680 572 688 792 567 460 578 684
8 681 574 688 792 564 456 572 680
8 682 576 692 794 566 459 577 683
8 569 461 579 685 682 576 692 794
8 568 462 578 684 685 579 694 796
8 687 581 464 571 798 696 580 686
8 798 696 580 686 705 592 474 591
8 689 583 466 573 799 697 581 687
8 688 582 698 800 578 471 588 694
8 690 584 698 800 574 467 582 688
8 690 584 467 574 801 699 583 689
8 693 587 701 803 577 470 585 691
8 693 587 470 577 804 702 586 692
8 695 589 702 804 579 472 586 692
8 695 589 472 579 805 703 588 694
8 708 595 705 813 593 475 591 704
8 710 596 706 814 595 476 592 705
8 707 594 479 602 816 709 600 719
8 708 595 475 593 817 711 594 707
8 709 598 478 600 819 715 599 717
8 711 597 477 594 820 714 598 709
8 710 596 476 595 822 713 597 711
8 600 478 601 720 717 599 718 832
8 602 479 603 722 719 600 720 834
8 720 601 480 603 835 721 604 723
8 722 603 482 605 836 723 606 724
8 767 670 725 839 656 553 608 726
8 756 656 726 841 645 542 609 728
8 726 608 727 842 609 487 610 729
8 728 609 729 843 611 488 612 730
8 844 740 624 731 790 691 575 678
8 733 625 504 616 844 740 624 731
8 734 623 502 617 845 739 622 732
8 733 625 739 845 616 504 622 732
8 734 623 738 846 617 502 621 735
8 735 621 737 847 618 500 620 736
8 744 647 527 630 847 737 620 736
8 621 506 627 738 737 626 741 848
8 647 544 626 737 759 662 741 848
8 623 508 628 739 738 627 742 849
8 740 629 585 691 850 743 700 802
8 625 510 629 740 739 628 743 850
8 632 529 647 744 745 648 759 854
8 633 530 648 745 746 649 760 855
8 638 535 649 746 750 653 761 856
8 857 762 650 747 748 651 532 635
8 753 657 539 642 857 762 650 747
8 749 652 763 858 636 533 651 748
8 752 654 764 859 640 536 652 749
8 751 655 537 639 860 765 653 750
8 641 538 655 751 752 654 766 861
8 754 658 540 643 862 769 657 753
8 754 658 770 863 643 540 659 755
8 755 659 771 864 644 541 660 757
8 758 661 768 866 645 542 656 756
8 757 660 772 867 646 543 661 758
8 759 662 773 868 648 545 663 760
8 649 546 663 760 761 664 774 871
8 765 665 547 653 872 775 664 761
8 873 777 666 762 763 668 550 651
8 769 674 556 657 873 777 666 762
8 764 669 779 874 652 551 668 763
8 654 552 667 766 764 669 778 875
8 655 549 665 765 766 667 776 876
8 768 671 782 877 656 553 670 767
8 772 672 783 878 661 554 671 768
8 658 558 674 769 770 675 786 879
8 659 557 675 770 771 673 785 881
8 882 784 672 772 771 673 555 660
8 789 687 571 677 897 798 686 788
8 897 798 686 788 813 705 591 704
8 791 689 573 679 898 799 687 789
8 795 693 803 900 683 577 691 790
8 793 690 574 681 901 801 689 791
8 792 688 800 902 684 578 694 796
8 793 690 800 902 681 574 688 792
8 795 693 577 683 903 804 692 794
8 797 695 804 903 685 579 692 794
8 797 695 579 685 904 805 694 796
8 905 806 697 799 798 696 581 687
8 814 706 806 905 705 592 696 798
8 689 583 697 799 801 699 808 907
8 800 698 809 908 694 588 703 805
8 690 584 699 801 800 698 809 908
8 803 701 810 909 691 585 700 802
8 693 587 702 804 803 701 811 910
8 695 589 703 805 804 702 812 911
8 818 710 814 919 708 595 705 813
8 821 712 815 920 710 596 706 814
8 816 709 600 719 922 819 717 831
8 817 711 594 707 923 820 709 816
8 818 710 595 708 924 822 711 817
8 819 715 599 717 926 827 716 829
8 820 714 598 709 927 826 715 819
8 929 825 713 822 820 714 597 711
8 821 712 596 710 930 824 713 822
8 717 599 718 832 829 716 830 942
8 719 600 720 834 831 717 832 944
8 832 718 601 720 945 833 721 835
8 834 720 603 722 946 835 723 836
8 869 780 838 950 767 670 725 839
8 865 767 839 952 756 656 726 841
8 839 725 840 953 726 608 727 842
8 841 726 842 954 728 609 729 843
8 844 740 691 790 955 850 802 899
8 733 625 740 844 845 739 850 955
8 734 623 739 845 846 738 849 956
8 735 621 738 846 847 737 848 957
8 744 647 737 847 854 759 848 957
8 738 627 742 849 848 741 851 958
8 848 741 851 958 759 662 773 868
8 850 743 700 802 959 852 807 906
8 849 742 628 739 959 852 743 850
8 854 759 868 965 745 648 760 855
8 746 649 760 855 856 761 871 966
8 860 765 653 750 967 872 761 856
8 968 873 762 857 858 763 651 748
8 862 769 657 753 968 873 762 857
8 859 764 874 969 749 652 763 858
8 752 654 766 861 859 764 875 970
8 751 655 765 860 861 766 876 971
8 754 658 769 862 863 770 879 972
8 755 659 770 863 864 771 881 974
8 976 882 772 867 864 771 660 757
8 866 768 877 977 756 656 767 865
8 867 772 878 978 758 661 768 866
8 760 663 773 868 871 774 883 980
8 870 781 837 948 982 890 780 869
8 982 890 780 869 877 782 670 767
8 761 664 774 871 872 775 884 984
8 876 776 665 765 985 885 775 872
8 873 777 668 763 986 887 779 874
8 769 674 777 873 879 786 887 986
8 764 669 778 875 874 779 888 987
8 766 667 776 876 875 778 886 988
8 878 783 892 989 768 671 782 877
8 878 783 672 772 990 893 784 882
8 880 787 675 770 991 896 786 879
8 880 787 895 992 770 675 785 881
8 881 785 894 993 771 673 784 882
8 1006 905 799 898 897 798 687 789
8 919 814 905 1006 813 705 798 897
8 791 689 799 898 901 801 907 1007
8 900 803 909 1009 790 691 802 899
8 795 693 804 903 900 803 910 1010
8 902 800 908 1011 796 694 805 904
8 793 690 801 901 902 800 908 1011
8 797 695 805 904 903 804 911 1012
8 799 697 806 905 907 808 912 1013
8 920 815 912 1013 814 706 806 905
8 802 700 810 909 906 807 913 1014
8 801 699 808 907 908 809 914 1015
8 805 703 809 908 911 812 915 1016
8 803 701 811 910 909 810 916 1017
8 911 812 917 1018 804 702 811 910
8 925 821 920 1030 818 710 814 919
8 928 823 921 1031 821 712 815 920
8 922 819 717 831 1033 926 829 941
8 923 820 709 816 1034 927 819 922
8 1035 929 822 924 923 820 711 817
8 925 821 710 818 1036 930 822 924
8 1038 933 825 929 927 826 714 820
8 926 827 716 829 1039 935 828 939
8 927 826 715 819 1040 934 827 926
8 928 823 712 821 1041 931 824 930
8 1042 932 824 930 929 825 713 822
8 829 716 830 942 939 828 940 1058
8 831 717 832 944 941 829 942 1060
8 942 830 718 832 1061 943 833 945
8 944 832 720 834 1062 945 835 946
8 981 889 947 1064 870 781 837 948
8 948 837 949 1067 869 780 838 950
8 975 869 950 1069 865 767 839 952
8 950 838 951 1070 839 725 840 953
8 952 839 953 1071 841 726 842 954
8 955 850 802 899 1072 959 906 1008
8 956 849 739 845 1072 959 850 955
8 846 738 849 956 957 848 958 1073
8 957 848 958 1073 854 759 868 965
8 849 742 852 959 958 851 961 1076
8 960 853 961 1076 906 807 852 959
8 958 851 961 1076 868 773 883 980
8 960 853 807 906 1077 963 913 1014
8 855 760 868 965 966 871 980 1085
8 856 761 871 966 967 872 984 1086
8 971 876 765 860 1087 985 872 967
8 968 873 763 858 1088 986 874 969
8 862 769 873 968 972 879 986 1088
8 859 764 875 970 969 874 987 1089
8 861 766 876 971 970 875 988 1090
8 973 880 770 863 1091 991 879 972
8 973 880 992 1092 863 770 881 974
8 974 881 993 1093 864 771 882 976
8 979 870 948 1066 1094 982 869 975
8 1094 982 869 975 977 877 767 865
8 978 878 772 867 1095 990 882 976
8 978 878 989 1096 866 768 877 977
8 871 774 883 980 984 884 994 1099
8 983 891 999 1100 870 781 889 981
8 1101 1000 890 982 989 892 782 877
8 983 891 781 870 1101 1000 890 982
8 872 775 884 984 985 885 995 1103
8 876 776 885 985 988 886 996 1104
8 986 887 779 874 1105 998 888 987
8 879 786 887 986 991 896 998 1105
8 875 778 886 988 987 888 997 1106
8 990 893 1002 1107 878 783 892 989
8 1108 1003 893 990 993 894 784 882
8 880 787 896 991 992 895 1005 1109
8 993 894 785 881 1110 1004 895 992
8 898 799 905 1006 1007 907 1013 1120
8 1030 920 1013 1120 919 814 905 1006
8 901 801 907 1007 1011 908 1015 1121
8 899 802 909 1009 1008 906 1014 1122
8 900 803 910 1010 1009 909 1017 1123
8 1012 911 1018 1124 903 804 910 1010
8 904 805 908 1011 1012 911 1016 1125
8 1013 912 1020 1127 907 808 914 1015
8 1031 921 1020 1127 920 815 912 1013
8 1019 918 962 1075 1128 1021 913 1014
8 1128 1021 913 1014 1017 916 810 909
8 1015 914 1022 1129 908 809 915 1016
8 1016 915 1023 1130 911 812 917 1018
8 1018 917 1024 1131 910 811 916 1017
8 1037 928 1031 1148 925 821 920 1030
8 928 823 931 1041 1031 921 1032 1149
8 1033 926 829 941 1151 1039 939 1057
8 1034 927 819 922 1152 1040 926 1033
8 1153 1038 929 1035 1034 927 820 923
8 1154 1042 930 1036 1035 929 822 924
8 1037 928 821 925 1155 1041 930 1036
8 1039 935 828 939 1156 1047 938 1055
8 1157 1043 932 1042 1038 933 825 929
8 1038 933 826 927 1158 1045 934 1040
8 1040 934 827 926 1159 1046 935 1039
8 930 824 932 1042 1041 931 1044 1160
8 1051 936 1048 1165 1175 1052 937 1053
8 1156 1047 938 1055 1053 937 1054 1178
8 939 828 940 1058 1055 938 1056 1181
8 941 829 942 1060 1057 939 1058 1183
8 942 830 943 1061 1058 940 1059 1184
8 1060 942 832 944 1185 1061 945 1062
8 1082 964 1063 1188 981 889 947 1064
8 1097 981 1064 1190 979 870 948 1066
8 1064 947 1065 1191 948 837 949 1067
8 1066 948 1067 1193 975 869 950 1069
8 1067 949 1068 1194 950 838 951 1070
8 1069 950 1070 1195 952 839 953 1071
8 956 849 959 1072 1073 958 1076 1197
8 1074 960 1076 1197 1008 906 959 1072
8 1073 958 1076 1197 965 868 980 1085
8 1074 960 906 1008 1198 1077 1014 1122
8 1133 1026 1079 1199 1019 918 962 1075
8 1077 963 913 1014 1200 1080 962 1075
8 960 853 963 1077 1076 961 1078 1201
8 980 883 961 1076 1099 994 1078 1201
8 1210 1083 964 1082 1100 999 889 981
8 966 871 980 1085 1086 984 1099 1215
8 967 872 984 1086 1087 985 1103 1216
8 971 876 985 1087 1090 988 1104 1217
8 1088 986 874 969 1218 1105 987 1089
8 972 879 986 1088 1091 991 1105 1218
8 970 875 988 1090 1089 987 1106 1219
8 973 880 991 1091 1092 992 1109 1220
8 1093 993 881 974 1221 1110 992 1092
8 1222 1108 990 1095 1093 993 882 976
8 1223 1101 982 1094 1096 989 877 977
8 1098 983 870 979 1223 1101 982 1094
8 1095 990 1107 1224 978 878 989 1096
8 1098 983 1100 1225 979 870 981 1097
8 984 884 994 1099 1103 995 1111 1227
8 1102 1001 1115 1228 983 891 999 1100
8 1101 1000 892 989 1229 1116 1002 1107
8 1102 1001 891 983 1229 1116 1000 1101
8 985 885 995 1103 1104 996 1112 1230
8 988 886 996 1104 1106 997 1113 1231
8 1105 998 888 987 1232 1114 997 1106
8 991 896 998 1105 1109 1005 1114 1232
8 1108 1003 1117 1233 990 893 1002 1107
8 1108 1003 894 993 1233 1117 1004 1110
8 992 895 1005 1109 1110 1004 1118 1234
8 1120 1013 1127 1244 1007 907 1015 1121
8 1148 1031 1127 1244 1030 920 1013 1120
8 1121 1015 1129 1245 1011 908 1016 1125
8 1126 1019 1075 1196 1246 1128 1014 1122
8 1246 1128 1014 1122 1123 1017 909 1009
8 1124 1018 1131 1247 1010 910 1017 1123
8 1125 1016 1130 1248 1012 911 1018 1124
8 1127 1020 1137 1254 1015 914 1022 1129
8 1031 921 1032 1149 1127 1020 1137 1254
8 1134 1027 918 1019 1257 1140 1021 1128
8 1257 1140 1021 1128 1131 1024 916 1017
8 1129 1022 1141 1258 1016 915 1023 1130
8 1130 1023 1142 1259 1018 917 1024 1131
8 1261 1144 1025 1132 1133 1026 1079 1199
8 1255 1138 1025 1132 1135 1028 1144 1261
8 1133 1026 918 1019 1262 1145 1027 1134
8 1136 1029 1139 1256 1263 1146 1028 1135
8 1037 928 1041 1155 1148 1031 1149 1275
8 1041 931 1044 1160 1149 1032 1150 1276
8 1151 1039 939 1057 1278 1156 1055 1180
8 1152 1040 926 1033 1279 1159 1039 1151
8 1153 1038 927 1034 1280 1158 1040 1152
8 1281 1157 1042 1154 1153 1038 929 1035
8 1036 930 1042 1154 1155 1041 1160 1282
8 1283 1164 1046 1159 1156 1047 935 1039
8 1165 1048 1164 1283 1053 937 1047 1156
8 1157 1043 933 1038 1284 1161 1045 1158
8 1157 1043 1161 1284 1042 932 1044 1160
8 1040 934 1046 1159 1158 1045 1163 1285
8 1166 1049 1167 1292 1051 936 1048 1165
8 1166 1049 936 1051 1293 1168 1050 1172
8 1051 936 1052 1175 1172 1050 1173 1306
8 1174 1051 1165 1290 1308 1175 1053 1177
8 1053 937 1054 1178 1175 1052 1176 1309
8 1278 1156 1055 1180 1177 1053 1178 1311
8 1055 938 1056 1181 1178 1054 1179 1312
8 1057 939 1058 1183 1180 1055 1181 1314
8 1058 940 1059 1184 1181 1056 1182 1315
8 1060 942 1061 1185 1183 1058 1184 1316
8 1208 1081 1187 1321 1082 964 1063 1188
8 1209 1082 1188 1322 1097 981 1064 1190
8 1188 1063 1189 1323 1064 947 1065 1191
8 1190 1064 1191 1325 1066 948 1067 1193
8 1191 1065 1192 1326 1067 949 1068 1194
8 1067 1193 1069 950 1194 1327 1195 1070
8 1250 1133 1199 1330 1126 1019 1075 1196
8 1198 1077 1014 1122 1331 1200 1075 1196
8 1074 960 1077 1198 1197 1076 1201 1332
8 1085 980 1076 1197 1215 1099 1201 1332
8 1199 1079 1203 1333 1075 962 1080 1200
8 1132 1025 1119 1243 1199 1079 1203 1333
8 1201 1078 963 1077 1334 1202 1080 1200
8 1099 994 1078 1201 1227 1111 1202 1334
8 1343 1207 1081 1208 1210 1083 964 1082
8 1214 1084 1186 1319 1343 1207 1081 1208
8 1345 1210 1082 1209 1225 1100 981 1097
8 1346 1211 1083 1210 1228 1115 999 1100
8 1086 984 1099 1215 1216 1103 1227 1352
8 1087 985 1103 1216 1217 1104 1230 1353
8 1090 988 1104 1217 1219 1106 1231 1354
8 1218 1105 987 1089 1355 1232 1106 1219
8 1091 991 1105 1218 1220 1109 1232 1355
8 1092 992 1109 1220 1221 1110 1234 1356
8 1222 1108 1233 1357 1095 990 1107 1224
8 1222 1108 993 1093 1357 1233 1110 1221
8 1223 1101 989 1096 1358 1229 1107 1224
8 1226 1102 983 1098 1358 1229 1101 1223
8 1226 1102 1228 1359 1098 983 1100 1225
8 1103 995 1111 1227 1230 1112 1235 1360
8 1107 1002 1117 1233 1229 1116 1240 1362
8 1102 1001 1116 1229 1228 1115 1240 1362
8 1104 996 1112 1230 1231 1113 1236 1363
8 1364 1237 1114 1232 1231 1113 997 1106
8 1109 1005 1114 1232 1234 1118 1238 1365
8 1110 1004 1118 1234 1233 1117 1241 1366
8 1242 1374 1255 1138 1119 1243 1132 1025
8 1244 1127 1254 1376 1121 1015 1129 1245
8 1148 1031 1149 1275 1244 1127 1254 1376
8 1245 1129 1258 1377 1125 1016 1130 1248
8 1251 1134 1019 1126 1378 1257 1128 1246
8 1378 1257 1128 1246 1247 1131 1017 1123
8 1248 1130 1259 1379 1124 1018 1131 1247
8 1261 1381 1250 1133 1132 1249 1330 1199
8 1255 1380 1252 1135 1132 1249 1381 1261
8 1250 1133 1019 1126 1382 1262 1134 1251
8 1253 1136 1256 1385 1384 1263 1135 1252
8 1254 1137 1265 1387 1129 1022 1141 1258
8 1149 1032 1150 1276 1254 1137 1265 1387
8 1028 1135 1255 1138 1139 1256 1388 1266
8 1136 1029 1147 1264 1256 1139 1267 1389
8 1390 1268 1140 1257 1259 1142 1024 1131
8 1260 1143 1027 1134 1390 1268 1140 1257
8 1258 1141 1269 1391 1130 1023 1142 1259
8 1262 1145 1027 1134 1393 1271 1143 1260
8 1261 1144 1026 1133 1394 1272 1145 1262
8 1135 1028 1144 1261 1263 1146 1272 1394
8 1136 1029 1146 1263 1264 1147 1273 1395
8 1155 1041 1160 1282 1275 1149 1276 1405
8 1276 1150 1044 1160 1406 1277 1162 1286
8 1408 1283 1159 1279 1278 1156 1039 1151
8 1290 1165 1283 1408 1177 1053 1156 1278
8 1152 1040 1159 1279 1280 1158 1285 1409
8 1281 1157 1038 1153 1410 1284 1158 1280
8 1281 1157 1284 1410 1154 1042 1160 1282
8 1159 1046 1164 1283 1285 1163 1289 1412
8 1292 1167 1289 1412 1165 1048 1164 1283
8 1158 1045 1163 1285 1284 1161 1288 1413
8 1284 1161 1288 1413 1160 1044 1162 1286
8 1291 1166 1292 1418 1174 1051 1165 1290
8 1291 1166 1051 1174 1419 1293 1172 1305
8 1294 1169 1296 1421 1166 1049 1167 1292
8 1293 1168 1050 1172 1422 1295 1171 1303
8 1294 1169 1049 1166 1423 1297 1168 1293
8 1422 1295 1171 1303 1301 1170 1302 1435
8 1172 1050 1173 1306 1303 1171 1304 1438
8 1174 1051 1175 1308 1305 1172 1306 1440
8 1175 1052 1176 1309 1306 1173 1307 1441
8 1177 1053 1178 1311 1308 1175 1309 1443
8 1178 1054 1179 1312 1309 1176 1310 1444
8 1180 1055 1181 1314 1311 1178 1312 1446
8 1056 1181 1312 1179 1182 1315 1447 1313
8 1183 1058 1184 1316 1314 1181 1315 1448
8 1319 1186 1084 1214 1451 1317 1213 1350
8 1319 1186 1318 1453 1208 1081 1187 1321
8 1321 1187 1320 1456 1188 1063 1189 1323
8 1344 1208 1321 1457 1209 1082 1188 1322
8 1322 1188 1323 1458 1190 1064 1191 1325
8 1323 1189 1324 1459 1191 1065 1192 1326
8 1191 1325 1193 1067 1326 1460 1327 1194
8 1242 1374 1243 1119 1328 1462 1335 1204
8 1330 1199 1333 1465 1196 1075 1200 1331
8 1132 1249 1330 1199 1243 1375 1465 1333
8 1332 1201 1077 1198 1466 1334 1200 1331
8 1215 1099 1201 1332 1352 1227 1334 1466
8 1119 1243 1333 1203 1204 1335 1470 1338
8 1333 1203 1338 1470 1200 1080 1202 1334
8 1227 1111 1202 1334 1360 1235 1338 1470
8 1328 1462 1335 1204 1205 1336 1471 1339
8 1337 1206 1340 1472 1464 1329 1205 1336
8 1346 1211 1342 1479 1210 1083 1207 1343
8 1346 1211 1115 1228 1479 1342 1239 1361
8 1348 1212 1084 1214 1479 1342 1207 1343
8 1480 1343 1208 1344 1345 1210 1082 1209
8 1351 1214 1319 1454 1480 1343 1208 1344
8 1481 1346 1210 1345 1359 1228 1100 1225
8 1348 1212 1347 1483 1214 1084 1213 1350
8 1216 1103 1227 1352 1353 1230 1360 1488
8 1217 1104 1230 1353 1354 1231 1363 1489
8 1490 1364 1232 1355 1354 1231 1106 1219
8 1220 1109 1232 1355 1356 1234 1365 1491
8 1221 1110 1234 1356 1357 1233 1366 1492
8 1224 1107 1233 1357 1358 1229 1362 1493
8 1226 1102 1229 1358 1359 1228 1362 1493
8 1230 1112 1235 1360 1363 1236 1367 1496
8 1361 1239 1115 1228 1497 1371 1240 1362
8 1366 1241 1372 1498 1233 1117 1240 1362
8 1364 1237 1113 1231 1499 1368 1236 1363
8 1364 1237 1368 1499 1232 1114 1238 1365
8 1234 1118 1238 1365 1366 1241 1369 1500
8 1507 1373 1242 1374 1388 1266 1138 1255
8 1508 1374 1243 1375 1380 1255 1132 1249
8 1376 1254 1387 1509 1245 1129 1258 1377
8 1275 1149 1276 1405 1376 1254 1387 1509
8 1377 1258 1391 1510 1248 1130 1259 1379
8 1511 1390 1257 1378 1379 1259 1131 1247
8 1383 1260 1134 1251 1511 1390 1257 1378
8 1252 1135 1256 1385 1380 1255 1388 1512
8 1261 1381 1513 1394 1133 1250 1382 1262
8 1135 1252 1384 1263 1261 1381 1513 1394
8 1382 1262 1134 1251 1514 1393 1260 1383
8 1253 1136 1263 1384 1386 1264 1395 1516
8 1253 1136 1264 1386 1385 1256 1389 1517
8 1387 1265 1397 1519 1258 1141 1269 1391
8 1276 1150 1277 1406 1387 1265 1397 1519
8 1256 1139 1267 1389 1388 1266 1398 1520
8 1264 1147 1274 1396 1389 1267 1399 1521
8 1392 1270 1143 1260 1522 1400 1268 1390
8 1390 1268 1142 1259 1522 1400 1269 1391
8 1392 1270 1401 1523 1260 1143 1271 1393
8 1272 1394 1524 1402 1145 1262 1393 1271
8 1395 1273 1146 1263 1524 1402 1272 1394
8 1273 1395 1264 1147 1403 1526 1396 1274
8 1405 1276 1160 1282 1534 1406 1286 1411
8 1414 1287 1407 1535 1286 1162 1277 1406
8 1279 1159 1283 1408 1409 1285 1412 1537
8 1418 1292 1412 1537 1290 1165 1283 1408
8 1280 1158 1285 1409 1410 1284 1413 1538
8 1410 1284 1413 1538 1282 1160 1286 1411
8 1285 1163 1289 1412 1413 1288 1417 1540
8 1421 1296 1417 1540 1292 1167 1289 1412
8 1414 1287 1162 1286 1541 1416 1288 1413
8 1420 1294 1421 1545 1291 1166 1292 1418
8 1419 1293 1172 1305 1546 1422 1303 1437
8 1420 1294 1166 1291 1547 1423 1293 1419
8 1294 1169 1297 1423 1421 1296 1425 1548
8 1423 1297 1168 1293 1549 1424 1295 1422
8 1301 1170 1298 1427 1422 1295 1424 1549
8 1432 1300 1428 1554 1301 1170 1298 1427
8 1431 1299 1428 1554 1560 1430 1300 1432
8 1563 1433 1300 1432 1435 1302 1170 1301
8 1546 1422 1303 1437 1434 1301 1435 1565
8 1303 1171 1304 1438 1435 1302 1436 1566
8 1305 1172 1306 1440 1437 1303 1438 1568
8 1306 1173 1307 1441 1438 1304 1439 1569
8 1308 1175 1309 1443 1440 1306 1441 1571
8 1309 1176 1310 1444 1441 1307 1442 1572
8 1311 1178 1312 1446 1443 1309 1444 1574
8 1179 1312 1444 1310 1313 1447 1575 1445
8 1314 1181 1315 1448 1446 1312 1447 1576
8 1350 1213 1349 1486 1451 1317 1449 1579
8 1451 1317 1450 1581 1319 1186 1318 1453
8 1454 1319 1214 1351 1582 1451 1350 1487
8 1453 1318 1452 1584 1321 1187 1320 1456
8 1454 1319 1453 1585 1344 1208 1321 1457
8 1456 1320 1455 1586 1323 1189 1324 1459
8 1457 1321 1456 1587 1322 1188 1323 1458
8 1458 1323 1459 1588 1325 1191 1326 1460
8 1205 1336 1464 1329 1328 1462 1590 1461
8 1507 1373 1461 1590 1374 1242 1328 1462
8 1508 1374 1462 1591 1375 1243 1335 1467
8 1337 1206 1329 1464 1473 1341 1463 1594
8 1375 1243 1335 1467 1465 1333 1470 1596
8 1465 1333 1470 1596 1331 1200 1334 1466
8 1352 1227 1334 1466 1488 1360 1470 1596
8 1591 1462 1336 1468 1467 1335 1471 1597
8 1469 1337 1472 1598 1595 1464 1336 1468
8 1471 1339 1474 1600 1335 1204 1338 1470
8 1600 1474 1367 1496 1470 1338 1235 1360
8 1336 1205 1340 1472 1471 1339 1475 1601
8 1337 1206 1341 1473 1472 1340 1476 1602
8 1495 1370 1478 1609 1361 1239 1342 1479
8 1348 1212 1342 1479 1483 1347 1478 1609
8 1481 1346 1479 1610 1345 1210 1343 1480
8 1481 1346 1228 1359 1610 1479 1361 1494
8 1484 1348 1214 1351 1610 1479 1343 1480
8 1483 1347 1482 1612 1350 1213 1349 1486
8 1484 1348 1483 1613 1351 1214 1350 1487
8 1353 1230 1360 1488 1489 1363 1496 1616
8 1490 1364 1231 1354 1617 1499 1363 1489
8 1490 1364 1499 1617 1355 1232 1365 1491
8 1356 1234 1365 1491 1492 1366 1500 1619
8 1492 1366 1498 1620 1357 1233 1362 1493
8 1494 1361 1228 1359 1621 1497 1362 1493
8 1495 1370 1239 1361 1622 1504 1371 1497
8 1363 1236 1367 1496 1499 1368 1501 1623
8 1497 1371 1240 1362 1624 1505 1372 1498
8 1625 1503 1372 1498 1500 1369 1241 1366
8 1365 1238 1368 1499 1500 1369 1502 1626
8 1520 1398 1506 1633 1388 1266 1373 1507
8 1634 1507 1374 1508 1512 1388 1255 1380
8 1509 1387 1519 1635 1377 1258 1391 1510
8 1405 1276 1406 1534 1509 1387 1519 1635
8 1515 1392 1260 1383 1636 1522 1390 1511
8 1511 1390 1259 1379 1636 1522 1391 1510
8 1385 1256 1389 1517 1512 1388 1520 1637
8 1513 1394 1262 1382 1638 1524 1393 1514
8 1395 1516 1638 1524 1263 1384 1513 1394
8 1515 1392 1523 1639 1383 1260 1393 1514
8 1516 1395 1526 1640 1386 1264 1396 1518
8 1386 1264 1396 1518 1517 1389 1521 1641
8 1519 1397 1527 1643 1391 1269 1400 1522
8 1535 1407 1527 1643 1406 1277 1397 1519
8 1389 1267 1399 1521 1520 1398 1528 1644
8 1645 1529 1399 1521 1525 1404 1274 1396
8 1392 1270 1400 1522 1523 1401 1531 1646
8 1524 1402 1271 1393 1648 1532 1401 1523
8 1403 1526 1648 1532 1273 1395 1524 1402
8 1525 1404 1274 1396 1649 1533 1403 1526
8 1539 1414 1535 1657 1411 1286 1406 1534
8 1542 1415 1536 1658 1414 1287 1407 1535
8 1409 1285 1412 1537 1538 1413 1540 1660
8 1545 1421 1540 1660 1418 1292 1412 1537
8 1539 1414 1286 1411 1661 1541 1413 1538
8 1540 1417 1544 1663 1413 1288 1416 1541
8 1421 1296 1425 1548 1540 1417 1544 1663
8 1542 1415 1287 1414 1664 1543 1416 1541
8 1420 1294 1423 1547 1545 1421 1548 1666
8 1547 1423 1293 1419 1667 1549 1422 1546
8 1434 1301 1427 1553 1546 1422 1549 1667
8 1423 1297 1424 1549 1548 1425 1550 1668
8 1551 1426 1550 1668 1427 1298 1424 1549
8 1551 1426 1298 1427 1671 1552 1428 1554
8 1562 1432 1554 1674 1434 1301 1427 1553
8 1431 1299 1429 1558 1554 1428 1555 1675
8 1431 1299 1430 1560 1558 1429 1557 1680
8 1560 1430 1300 1432 1683 1559 1433 1563
8 1561 1431 1554 1674 1684 1560 1432 1562
8 1685 1563 1432 1562 1565 1435 1301 1434
8 1435 1302 1436 1566 1563 1433 1564 1686
8 1437 1303 1438 1568 1565 1435 1566 1688
8 1438 1304 1439 1569 1566 1436 1567 1689
8 1440 1306 1441 1571 1568 1438 1569 1691
8 1441 1307 1442 1572 1569 1439 1570 1692
8 1443 1309 1444 1574 1571 1441 1572 1694
8 1310 1444 1572 1442 1445 1575 1695 1573
8 1446 1312 1447 1576 1574 1444 1575 1696
8 1486 1349 1485 1614 1579 1449 1577 1699
8 1451 1317 1449 1579 1581 1450 1578 1701
8 1487 1350 1486 1615 1582 1451 1579 1702
8 1581 1450 1580 1704 1453 1318 1452 1584
8 1582 1451 1581 1705 1454 1319 1453 1585
8 1584 1452 1583 1706 1456 1320 1455 1586
8 1585 1453 1584 1707 1457 1321 1456 1587
8 1587 1456 1586 1708 1458 1323 1459 1588
8 1633 1506 1589 1710 1507 1373 1461 1590
8 1464 1329 1461 1590 1594 1463 1589 1710
8 1468 1336 1462 1591 1595 1464 1590 1711
8 1634 1507 1590 1711 1508 1374 1462 1591
8 1473 1341 1463 1594 1603 1477 1593 1716
8 1469 1337 1464 1595 1599 1473 1594 1717
8 1471 1597 1467 1335 1600 1718 1596 1470
8 1718 1600 1496 1616 1596 1470 1360 1488
8 1336 1468 1597 1471 1472 1598 1719 1601
8 1469 1337 1473 1599 1598 1472 1602 1720
8 1722 1604 1501 1623 1600 1474 1367 1496
8 1475 1601 1471 1339 1604 1722 1600 1474
8 1602 1476 1605 1723 1472 1340 1475 1601
8 1476 1602 1724 1606 1341 1473 1603 1477
8 1483 1347 1478 1609 1612 1482 1608 1731
8 1495 1370 1504 1622 1609 1478 1608 1731
8 1618 1495 1609 1732 1494 1361 1479 1610
8 1484 1348 1479 1610 1613 1483 1609 1732
8 1486 1349 1482 1612 1614 1485 1611 1733
8 1613 1483 1612 1734 1487 1350 1486 1615
8 1489 1363 1496 1616 1617 1499 1623 1736
8 1491 1365 1499 1617 1619 1500 1626 1737
8 1618 1495 1361 1494 1738 1622 1497 1621
8 1739 1625 1498 1620 1619 1500 1366 1492
8 1621 1497 1362 1493 1740 1624 1498 1620
8 1742 1631 1504 1622 1624 1505 1371 1497
8 1743 1628 1502 1626 1623 1501 1368 1499
8 1744 1630 1505 1624 1625 1503 1372 1498
8 1745 1629 1503 1625 1626 1502 1369 1500
8 1520 1398 1528 1644 1633 1506 1632 1751
8 1637 1520 1633 1752 1512 1388 1507 1634
8 1635 1519 1643 1753 1510 1391 1522 1636
8 1657 1535 1643 1753 1534 1406 1519 1635
8 1515 1392 1522 1636 1639 1523 1646 1754
8 1517 1389 1521 1641 1637 1520 1644 1755
8 1524 1638 1756 1648 1393 1514 1639 1523
8 1640 1526 1395 1516 1756 1648 1524 1638
8 1642 1525 1396 1518 1757 1649 1526 1640
8 1758 1645 1521 1641 1642 1525 1396 1518
8 1646 1531 1400 1522 1760 1650 1527 1643
8 1535 1407 1536 1658 1643 1527 1650 1760
8 1521 1399 1529 1645 1644 1528 1651 1761
8 1647 1530 1652 1762 1525 1404 1529 1645
8 1401 1523 1648 1532 1531 1646 1763 1655
8 1525 1404 1533 1649 1647 1530 1654 1765
8 1533 1649 1766 1656 1403 1526 1648 1532
8 1662 1542 1658 1774 1539 1414 1535 1657
8 1542 1415 1543 1664 1658 1536 1659 1775
8 1660 1540 1663 1777 1538 1413 1541 1661
8 1545 1421 1548 1666 1660 1540 1663 1777
8 1662 1542 1414 1539 1778 1664 1541 1661
8 1664 1543 1416 1541 1779 1665 1544 1663
8 1548 1425 1550 1668 1663 1544 1665 1779
8 1547 1423 1549 1667 1666 1548 1668 1781
8 1670 1551 1668 1781 1553 1427 1549 1667
8 1551 1426 1552 1671 1668 1550 1669 1782
8 1670 1551 1427 1553 1784 1671 1554 1674
8 1675 1555 1672 1785 1554 1428 1552 1671
8 1678 1556 1673 1789 1558 1429 1555 1675
8 1561 1431 1558 1681 1674 1554 1675 1790
8 1794 1677 1556 1678 1680 1557 1429 1558
8 1560 1430 1559 1683 1680 1557 1679 1797
8 1561 1431 1560 1684 1681 1558 1680 1798
8 1563 1433 1564 1686 1683 1559 1682 1800
8 1684 1560 1432 1562 1801 1683 1563 1685
8 1565 1435 1566 1688 1685 1563 1686 1802
8 1566 1436 1567 1689 1686 1564 1687 1803
8 1568 1438 1569 1691 1688 1566 1689 1805
8 1569 1439 1570 1692 1689 1567 1690 1806
8 1571 1441 1572 1694 1691 1569 1692 1808
8 1442 1572 1692 1570 1573 1695 1809 1693
8 1574 1444 1575 1696 1694 1572 1695 1810
8 1614 1485 1592 1712 1699 1577 1697 1813
8 1579 1449 1577 1699 1701 1578 1698 1815
8 1615 1486 1614 1735 1702 1579 1699 1816
8 1701 1578 1700 1818 1581 1450 1580 1704
8 1582 1451 1579 1702 1705 1581 1701 1819
8 1704 1580 1703 1820 1584 1452 1583 1706
8 1705 1581 1704 1821 1585 1453 1584 1707
8 1707 1584 1706 1822 1587 1456 1586 1708
8 1710 1589 1506 1633 1824 1709 1632 1751
8 1594 1463 1589 1710 1716 1593 1709 1824
8 1752 1633 1710 1825 1634 1507 1590 1711
8 1595 1464 1590 1711 1717 1594 1710 1825
8 1830 1714 1592 1712 1733 1611 1485 1614
8 1603 1477 1593 1716 1725 1607 1715 1834
8 1599 1473 1594 1717 1721 1603 1716 1835
8 1837 1722 1623 1736 1718 1600 1496 1616
8 1719 1601 1722 1837 1597 1471 1600 1718
8 1602 1720 1598 1472 1723 1838 1719 1601
8 1720 1602 1473 1599 1839 1724 1603 1721
8 1723 1605 1726 1840 1601 1475 1604 1722
8 1840 1726 1628 1743 1722 1604 1501 1623
8 1724 1606 1727 1841 1602 1476 1605 1723
8 1725 1607 1728 1842 1603 1477 1606 1724
8 1612 1482 1608 1731 1733 1611 1730 1849
8 1741 1627 1730 1849 1622 1504 1608 1731
8 1613 1483 1609 1732 1734 1612 1731 1850
8 1618 1495 1622 1738 1732 1609 1731 1850
8 1615 1486 1612 1734 1735 1614 1733 1851
8 1852 1743 1626 1737 1736 1623 1499 1617
8 1853 1745 1625 1739 1737 1626 1500 1619
8 1855 1742 1622 1738 1740 1624 1497 1621
8 1856 1744 1624 1740 1739 1625 1498 1620
8 1741 1627 1504 1622 1857 1746 1631 1742
8 1742 1631 1505 1624 1858 1749 1630 1744
8 1859 1747 1629 1745 1743 1628 1502 1626
8 1860 1748 1630 1744 1745 1629 1503 1625
8 1644 1528 1651 1761 1751 1632 1750 1865
8 1637 1520 1644 1755 1752 1633 1751 1866
8 1754 1646 1522 1636 1867 1760 1643 1753
8 1657 1535 1658 1774 1753 1643 1760 1867
8 1639 1523 1646 1754 1756 1648 1763 1868
8 1641 1521 1645 1758 1755 1644 1761 1869
8 1757 1649 1526 1640 1870 1766 1648 1756
8 1642 1525 1649 1757 1759 1647 1765 1871
8 1759 1647 1762 1872 1642 1525 1645 1758
8 1760 1650 1767 1874 1646 1531 1655 1763
8 1658 1536 1659 1775 1760 1650 1767 1874
8 1762 1652 1768 1875 1645 1529 1651 1761
8 1764 1653 1769 1876 1647 1530 1652 1762
8 1656 1766 1877 1773 1532 1648 1763 1655
8 1771 1879 1765 1654 1653 1764 1647 1530
8 1533 1649 1765 1654 1656 1766 1880 1772
8 1662 1542 1664 1778 1774 1658 1775 1887
8 1664 1543 1665 1779 1775 1659 1776 1888
8 1778 1664 1541 1661 1890 1779 1663 1777
8 1666 1548 1668 1781 1777 1663 1779 1890
8 1782 1669 1780 1891 1668 1550 1665 1779
8 1670 1551 1671 1784 1781 1668 1782 1893
8 1671 1552 1672 1785 1782 1669 1783 1894
8 1790 1675 1785 1896 1674 1554 1671 1784
8 1675 1555 1673 1789 1785 1672 1786 1897
8 1792 1676 1788 1903 1678 1556 1673 1789
8 1795 1678 1789 1904 1681 1558 1675 1790
8 1792 1676 1556 1678 1906 1791 1677 1794
8 1680 1557 1679 1797 1794 1677 1793 1909
8 1910 1794 1678 1795 1798 1680 1558 1681
8 1683 1559 1682 1800 1797 1679 1796 1912
8 1684 1560 1683 1801 1798 1680 1797 1913
8 1686 1564 1687 1803 1800 1682 1799 1915
8 1685 1563 1686 1802 1801 1683 1800 1916
8 1688 1566 1689 1805 1802 1686 1803 1917
8 1689 1567 1690 1806 1803 1687 1804 1918
8 1691 1569 1692 1808 1805 1689 1806 1920
8 1692 1570 1693 1809 1806 1690 1807 1921
8 1694 1572 1695 1810 1808 1692 1809 1922
8 1829 1713 1811 1926 1712 1592 1697 1813
8 1813 1697 1812 1928 1699 1577 1698 1815
8 1735 1614 1712 1828 1816 1699 1813 1929
8 1815 1698 1814 1931 1701 1578 1700 1818
8 1702 1579 1699 1816 1819 1701 1815 1932
8 1818 1700 1817 1933 1704 1580 1703 1820
8 1819 1701 1818 1934 1705 1581 1704 1821
8 1821 1704 1820 1935 1707 1584 1706 1822
8 1824 1709 1632 1751 1937 1823 1750 1865
8 1716 1593 1709 1824 1834 1715 1823 1937
8 1825 1710 1633 1752 1938 1824 1751 1866
8 1717 1594 1710 1825 1835 1716 1824 1938
8 1945 1830 1712 1828 1851 1733 1614 1735
8 1830 1714 1831 1946 1712 1592 1713 1829
8 1947 1832 1714 1830 1849 1730 1611 1733
8 1843 1729 1607 1725 1950 1833 1715 1834
8 1721 1603 1716 1835 1836 1725 1834 1951
8 1836 1725 1842 1953 1721 1603 1724 1839
8 1723 1838 1719 1601 1840 1954 1837 1722
8 1954 1840 1743 1852 1837 1722 1623 1736
8 1724 1839 1720 1602 1841 1955 1838 1723
8 1841 1727 1844 1956 1723 1605 1726 1840
8 1956 1844 1747 1859 1840 1726 1628 1743
8 1728 1842 1724 1606 1845 1957 1841 1727
8 1725 1607 1729 1843 1842 1728 1846 1958
8 1741 1627 1746 1857 1849 1730 1848 1965
8 1734 1612 1731 1850 1851 1733 1849 1966
8 1854 1741 1849 1966 1738 1622 1731 1850
8 1967 1859 1745 1853 1852 1743 1626 1737
8 1968 1860 1744 1856 1853 1745 1625 1739
8 1854 1741 1622 1738 1969 1857 1742 1855
8 1855 1742 1624 1740 1970 1858 1744 1856
8 1857 1746 1631 1742 1971 1861 1749 1858
8 1858 1749 1630 1744 1972 1863 1748 1860
8 1859 1747 1862 1973 1745 1629 1748 1860
8 1875 1768 1864 1977 1761 1651 1750 1865
8 1755 1644 1761 1869 1866 1751 1865 1978
8 1867 1760 1874 1979 1754 1646 1763 1868
8 1774 1658 1775 1887 1867 1760 1874 1979
8 1870 1766 1648 1756 1980 1877 1763 1868
8 1872 1762 1875 1981 1758 1645 1761 1869
8 1757 1649 1766 1870 1871 1765 1880 1982
8 1983 1879 1764 1873 1871 1765 1647 1759
8 1873 1764 1876 1984 1759 1647 1762 1872
8 1877 1773 1655 1763 1986 1881 1767 1874
8 1775 1659 1776 1888 1874 1767 1881 1986
8 1876 1769 1882 1987 1762 1652 1768 1875
8 1878 1770 1883 1988 1764 1653 1769 1876
8 1880 1772 1656 1766 1989 1886 1773 1877
8 1878 1770 1653 1764 1990 1884 1771 1879
8 1765 1654 1772 1880 1879 1771 1885 1991
8 1778 1664 1779 1890 1887 1775 1888 1997
8 1998 1889 1776 1888 1891 1780 1665 1779
8 1893 1782 1891 2000 1781 1668 1779 1890
8 1894 1783 1892 2001 1782 1669 1780 1891
8 1784 1671 1785 1896 1893 1782 1894 2003
8 1897 1786 1895 2004 1785 1672 1783 1894
8 1790 1675 1789 1904 1896 1785 1897 2006
8 1901 1787 1898 2007 1789 1673 1786 1897
8 1903 1788 1900 2013 1789 1673 1787 1901
8 1792 1676 1791 1906 1903 1788 1902 2016
8 1907 1792 1903 2017 1795 1678 1789 1904
8 1906 1791 1677 1794 2019 1905 1793 1909
8 1907 1792 1678 1795 2020 1906 1794 1910
8 1797 1679 1796 1912 1909 1793 1908 2022
8 1798 1680 1797 1913 1910 1794 1909 2023
8 1800 1682 1799 1915 1912 1796 1911 2025
8 1801 1683 1800 1916 1913 1797 1912 2026
8 1803 1687 1804 1918 1915 1799 1914 2028
8 1802 1686 1803 1917 1916 1800 1915 2029
8 1805 1689 1806 1920 1917 1803 1918 2030
8 1806 1690 1807 1921 1918 1804 1919 2031
8 1808 1692 1809 1922 1920 1806 1921 2032
8 1939 1826 1924 2037 1829 1713 1811 1926
8 1926 1811 1925 2039 1813 1697 1812 1928
8 1944 1829 1926 2040 1828 1712 1813 1929
8 1928 1812 1927 2042 1815 1698 1814 1931
8 1929 1813 1928 2043 1816 1699 1815 1932
8 1931 1814 1930 2044 1818 1700 1817 1933
8 1932 1815 1931 2045 1819 1701 1818 1934
8 1934 1818 1933 2046 1821 1704 1820 1935
8 2048 1936 1823 1937 1977 1864 1750 1865
8 1950 1833 1715 1834 2048 1936 1823 1937
8 1938 1824 1751 1866 2049 1937 1865 1978
8 1835 1716 1824 1938 1951 1834 1937 2049
8 1939 1826 1713 1829 2053 1942 1831 1946
8 1940 1827 1923 2035 2053 1942 1826 1939
8 1945 1830 1946 2058 1828 1712 1829 1944
8 2059 1947 1830 1945 1966 1849 1733 1851
8 1947 1832 1730 1849 2060 1948 1848 1965
8 1947 1832 1948 2060 1830 1714 1831 1946
8 1959 1847 1729 1843 2063 1949 1833 1950
8 1952 1843 1725 1836 2064 1950 1834 1951
8 1836 1725 1843 1952 1953 1842 1958 2066
8 1953 1842 1957 2067 1839 1724 1841 1955
8 1841 1955 1838 1723 1956 2068 1954 1840
8 2068 1956 1859 1967 1954 1840 1743 1852
8 1956 1844 1960 2069 1859 1747 1862 1973
8 1845 1957 1841 1727 1960 2069 1956 1844
8 1728 1842 1957 1845 1846 1958 2071 1961
8 1962 2072 1959 1847 1846 1958 1843 1729
8 1971 1861 1964 2077 1857 1746 1848 1965
8 1854 1741 1857 1969 1966 1849 1965 2078
8 1967 1859 1973 2079 1853 1745 1860 1968
8 1970 1858 1744 1856 2080 1972 1860 1968
8 1969 1857 1742 1855 2081 1971 1858 1970
8 1971 1861 1749 1858 2082 1974 1863 1972
8 1973 1862 1975 2083 1860 1748 1863 1972
8 1987 1882 1976 2086 1875 1768 1864 1977
8 1981 1875 1977 2087 1869 1761 1865 1978
8 1980 1877 1763 1868 2088 1986 1874 1979
8 1887 1775 1888 1997 1979 1874 1986 2088
8 1880 1982 2089 1989 1766 1870 1980 1877
8 1984 1876 1987 2090 1872 1762 1875 1981
8 1765 1871 1983 1879 1880 1982 2091 1991
8 1985 1878 1764 1873 2092 1990 1879 1983
8 1985 1878 1988 2093 1873 1764 1876 1984
8 2094 1992 1881 1986 1998 1889 1776 1888
8 1986 1881 1992 2094 1877 1773 1886 1989
8 1988 1883 1993 2095 1876 1769 1882 1987
8 1878 1770 1884 1990 1988 1883 1994 2096
8 1991 1885 1772 1880 2097 1996 1886 1989
8 1879 1771 1885 1991 1990 1884 1995 2098
8 2103 1998 1888 1997 2000 1891 1779 1890
8 2104 1999 1889 1998 2001 1892 1780 1891
8 2003 1894 2001 2106 1893 1782 1891 2000
8 2004 1895 2002 2107 1894 1783 1892 2001
8 2006 1897 2004 2109 1896 1785 1894 2003
8 2007 1898 2005 2110 1897 1786 1895 2004
8 2014 1901 2007 2112 1904 1789 1897 2006
8 2011 1899 2008 2113 1901 1787 1898 2007
8 2119 2010 1899 2011 2013 1900 1787 1901
8 2016 1902 2012 2122 1903 1788 1900 2013
8 2017 1903 2013 2123 1904 1789 1901 2014
8 1906 1791 1905 2019 2016 1902 2015 2125
8 1907 1792 1906 2020 2017 1903 2016 2126
8 1909 1793 1908 2022 2019 1905 2018 2128
8 2020 1906 1794 1910 2129 2019 1909 2023
8 1912 1796 1911 2025 2022 1908 2021 2131
8 1913 1797 1912 2026 2023 1909 2022 2132
8 1915 1799 1914 2028 2025 1911 2024 2134
8 1916 1800 1915 2029 2026 1912 2025 2135
8 1918 1804 1919 2031 2028 1914 2027 2136
8 1917 1803 1918 2030 2029 1915 2028 2137
8 1920 1806 1921 2032 2030 1918 2031 2138
8 1940 1827 1941 2054 2035 1923 2033 2140
8 2035 1923 2034 2143 1939 1826 1924 2037
8 2037 1924 2036 2146 1926 1811 1925 2039
8 2051 1939 2037 2147 1944 1829 1926 2040
8 2039 1925 2038 2149 1928 1812 1927 2042
8 2040 1926 2039 2150 1929 1813 1928 2043
8 2042 1927 2041 2151 1931 1814 1930 2044
8 2043 1928 2042 2152 1932 1815 1931 2045
8 2045 1931 2044 2153 1934 1818 1933 2046
8 2155 2047 1936 2048 2086 1976 1864 1977
8 2063 1949 1833 1950 2155 2047 1936 2048
8 2156 2048 1937 2049 2087 1977 1865 1978
8 2064 1950 1834 1951 2156 2048 1937 2049
8 2051 1939 1829 1944 2160 2053 1946 2058
8 2052 1940 2035 2144 2160 2053 1939 2051
8 2053 1942 1831 1946 2163 2057 1948 2060
8 2055 1943 1827 1940 2163 2057 1942 2053
8 2055 1943 2056 2164 1940 1827 1941 2054
8 2059 1947 1849 1966 2167 2060 1965 2078
8 2059 1947 2060 2167 1945 1830 1946 2058
8 2077 1964 2061 2168 1965 1848 1948 2060
8 2070 1963 1847 1959 2170 2062 1949 2063
8 2065 1959 1843 1952 2171 2063 1950 2064
8 2173 2072 1958 2066 2065 1959 1843 1952
8 1953 1842 1958 2066 2067 1957 2071 2174
8 2068 1956 2069 2175 1967 1859 1973 2079
8 2067 1957 2069 2175 1955 1841 1956 2068
8 1845 1957 2069 1960 1961 2071 2176 2073
8 2069 1960 2073 2176 1973 1862 1975 2083
8 2070 1963 2075 2177 1959 1847 1962 2072
8 1846 1958 2071 1961 1962 2072 2178 2074
8 2077 1964 1861 1971 2182 2076 1974 2082
8 2081 1971 2077 2183 1969 1857 1965 2078
8 2079 1973 2083 2184 1968 1860 1972 2080
8 2081 1971 1858 1970 2185 2082 1972 2080
8 2083 1975 2084 2186 1972 1863 1974 2082
8 2086 1976 1882 1987 2189 2085 1993 2095
8 2090 1987 2086 2190 1981 1875 1977 2087
8 2191 2094 1986 2088 2103 1998 1888 1997
8 2088 1986 2094 2191 1980 1877 1989 2089
8 1991 2091 2192 2097 1880 1982 2089 1989
8 2093 1988 2095 2193 1984 1876 1987 2090
8 1879 1983 2092 1990 1991 2091 2194 2098
8 1985 1878 1990 2092 2093 1988 2096 2195
8 2097 1996 1886 1989 2196 2099 1992 2094
8 2196 2099 1992 2094 2104 1999 1889 1998
8 1994 2096 1988 1883 2100 2197 2095 1993
8 2096 1994 1884 1990 2198 2101 1995 2098
8 1995 2098 2199 2102 1885 1991 2097 1996
8 2203 2104 1998 2103 2106 2001 1891 2000
8 2107 2002 2105 2204 2001 1892 1999 2104
8 2109 2004 2107 2206 2003 1894 2001 2106
8 2110 2005 2108 2207 2004 1895 2002 2107
8 2112 2007 2110 2209 2006 1897 2004 2109
8 2113 2008 2111 2210 2007 1898 2005 2110
8 2120 2011 2113 2212 2014 1901 2007 2112
8 2117 2009 2114 2213 2011 1899 2008 2113
8 2219 2116 2009 2117 2119 2010 1899 2011
8 2222 2118 2010 2119 2122 2012 1900 2013
8 2223 2119 2011 2120 2123 2013 1901 2014
8 2016 1902 2015 2125 2122 2012 2121 2225
8 2126 2016 2122 2226 2017 1903 2013 2123
8 2019 1905 2018 2128 2125 2015 2124 2228
8 2020 1906 2019 2129 2126 2016 2125 2229
8 2022 1908 2021 2131 2128 2018 2127 2231
8 2023 1909 2022 2132 2129 2019 2128 2232
8 2025 1911 2024 2134 2131 2021 2130 2234
8 2026 1912 2025 2135 2132 2022 2131 2235
8 1914 2028 2134 2024 2027 2136 2236 2133
8 2029 1915 2028 2137 2135 2025 2134 2237
8 2030 1918 2031 2138 2137 2028 2136 2238
8 2157 2050 2139 2240 2054 1941 2033 2140
8 2052 1940 2054 2161 2144 2035 2140 2242
8 2140 2033 2141 2243 2035 1923 2034 2143
8 2143 2034 2142 2246 2037 1924 2036 2146
8 2144 2035 2143 2247 2051 1939 2037 2147
8 2146 2036 2145 2249 2039 1925 2038 2149
8 2147 2037 2146 2250 2040 1926 2039 2150
8 2149 2038 2148 2251 2042 1927 2041 2151
8 2150 2039 2149 2252 2043 1928 2042 2152
8 2152 2042 2151 2253 2045 1931 2044 2153
8 2255 2154 2047 2155 2189 2085 1976 2086
8 2170 2062 1949 2063 2255 2154 2047 2155
8 2256 2155 2048 2156 2190 2086 1977 2087
8 2171 2063 1950 2064 2256 2155 2048 2156
8 2258 2159 2050 2157 2164 2056 1941 2054
8 2160 2053 1946 2058 2262 2163 2060 2167
8 2162 2055 1940 2052 2262 2163 2053 2160
8 2162 2055 2164 2263 2052 1940 2054 2161
8 2163 2057 1948 2060 2264 2165 2061 2168
8 2055 1943 2057 2163 2164 2056 2165 2264
8 2182 2076 2166 2268 2077 1964 2061 2168
8 2183 2077 2168 2269 2078 1965 2060 2167
8 2070 1963 2062 2170 2177 2075 2169 2271
8 2172 2070 1959 2065 2272 2170 2063 2171
8 2172 2070 2177 2273 2065 1959 2072 2173
8 2066 1958 2072 2173 2174 2071 2178 2274
8 2067 1957 2071 2174 2175 2069 2176 2275
8 2175 2069 2176 2275 2079 1973 2083 2184
8 2071 1961 2074 2178 2176 2073 2179 2276
8 2176 2073 2179 2276 2083 1975 2084 2186
8 2072 1962 2075 2177 2178 2074 2180 2277
8 2182 2076 1974 2082 2280 2181 2084 2186
8 2183 2077 1971 2081 2281 2182 2082 2185
8 2184 2083 2186 2282 2080 1972 2082 2185
8 2189 2085 1993 2095 2285 2188 2100 2197
8 2190 2086 1987 2090 2286 2189 2095 2193
8 2192 2097 1989 2089 2287 2196 2094 2191
8 2287 2196 2094 2191 2203 2104 1998 2103
8 2194 2098 1991 2091 2288 2199 2097 2192
8 2195 2096 2197 2289 2093 1988 2095 2193
8 2096 2195 2290 2198 1990 2092 2194 2098
8 2097 1996 2099 2196 2199 2102 2200 2291
8 2196 2099 1999 2104 2291 2200 2105 2204
8 2100 2197 2292 2201 1994 2096 2198 2101
8 1995 2098 2198 2101 2102 2199 2293 2202
8 2206 2107 2204 2296 2106 2001 2104 2203
8 2207 2108 2205 2297 2107 2002 2105 2204
8 2209 2110 2207 2299 2109 2004 2107 2206
8 2210 2111 2208 2300 2110 2005 2108 2207
8 2212 2113 2210 2302 2112 2007 2110 2209
8 2213 2114 2211 2303 2113 2008 2111 2210
8 2220 2117 2213 2305 2120 2011 2113 2212
8 2216 2115 2214 2306 2117 2009 2114 2213
8 2216 2115 2009 2117 2311 2217 2116 2219
8 2219 2116 2010 2119 2314 2218 2118 2222
8 2315 2219 2117 2220 2223 2119 2011 2120
8 2122 2012 2121 2225 2222 2118 2221 2317
8 2318 2222 2119 2223 2226 2122 2013 2123
8 2125 2015 2124 2228 2225 2121 2224 2320
8 2126 2016 2125 2229 2226 2122 2225 2321
8 2128 2018 2127 2231 2228 2124 2227 2323
8 2129 2019 2128 2232 2229 2125 2228 2324
8 2131 2021 2130 2234 2231 2127 2230 2326
8 2132 2022 2131 2235 2232 2128 2231 2327
8 2134 2024 2133 2236 2234 2130 2233 2328
8 2135 2025 2134 2237 2235 2131 2234 2329
8 2137 2028 2136 2238 2237 2134 2236 2330
8 2157 2050 2158 2259 2240 2139 2239 2332
8 2257 2157 2240 2334 2161 2054 2140 2242
8 2240 2139 2241 2335 2140 2033 2141 2243
8 2242 2140 2243 2337 2144 2035 2143 2247
8 2243 2141 2244 2338 2143 2034 2142 2246
8 2246 2142 2245 2341 2146 2036 2145 2249
8 2247 2143 2246 2342 2147 2037 2146 2250
8 2249 2145 2248 2343 2149 2038 2148 2251
8 2250 2146 2249 2344 2150 2039 2149 2252
8 2252 2149 2251 2345 2152 2042 2151 2253
8 2169 2271 2347 2254 2062 2170 2255 2154
8 2189 2085 2188 2285 2255 2154 2254 2347
8 2348 2255 2155 2256 2286 2189 2086 2190
8 2272 2170 2063 2171 2348 2255 2155 2256
8 2349 2258 2157 2257 2263 2164 2054 2161
8 2258 2159 2261 2351 2157 2050 2158 2259
8 2258 2159 2056 2164 2351 2261 2165 2264
8 2262 2163 2060 2167 2355 2264 2168 2269
8 2162 2055 2163 2262 2263 2164 2264 2355
8 2357 2266 2165 2264 2268 2166 2061 2168
8 2268 2166 2076 2182 2361 2267 2181 2280
8 2281 2182 2268 2362 2183 2077 2168 2269
8 2271 2169 2270 2364 2177 2075 2180 2277
8 2172 2070 2170 2272 2273 2177 2271 2365
8 2072 2173 2274 2178 2177 2273 2366 2277
8 2071 2174 2275 2176 2178 2274 2367 2276
8 2275 2176 2276 2367 2184 2083 2186 2282
8 2283 2187 2084 2186 2368 2278 2179 2276
8 2178 2074 2180 2277 2276 2179 2278 2368
8 2283 2187 2279 2370 2186 2084 2181 2280
8 2281 2182 2082 2185 2371 2280 2186 2282
8 2188 2285 2374 2284 2100 2197 2292 2201
8 2286 2189 2095 2193 2375 2285 2197 2289
8 2192 2097 2196 2287 2288 2199 2291 2376
8 2287 2196 2104 2203 2376 2291 2204 2296
8 2194 2098 2199 2288 2290 2198 2293 2377
8 2289 2197 2096 2195 2378 2292 2198 2290
8 2291 2200 2105 2204 2379 2294 2205 2297
8 2199 2102 2200 2291 2293 2202 2294 2379
8 2198 2101 2202 2293 2292 2201 2295 2380
8 2299 2207 2297 2383 2206 2107 2204 2296
8 2300 2208 2298 2384 2207 2108 2205 2297
8 2302 2210 2300 2386 2209 2110 2207 2299
8 2303 2211 2301 2387 2210 2111 2208 2300
8 2305 2213 2303 2389 2212 2113 2210 2302
8 2306 2214 2304 2390 2213 2114 2211 2303
8 2310 2216 2306 2392 2220 2117 2213 2305
8 2308 2215 2307 2393 2216 2115 2214 2306
8 2308 2215 2115 2216 2396 2309 2217 2311
8 2310 2216 2117 2220 2398 2311 2219 2315
8 2311 2217 2116 2219 2399 2312 2218 2314
8 2314 2218 2118 2222 2402 2313 2221 2317
8 2315 2219 2119 2223 2403 2314 2222 2318
8 2225 2121 2224 2320 2317 2221 2316 2405
8 2226 2122 2225 2321 2318 2222 2317 2406
8 2228 2124 2227 2323 2320 2224 2319 2408
8 2229 2125 2228 2324 2321 2225 2320 2409
8 2231 2127 2230 2326 2323 2227 2322 2411
8 2232 2128 2231 2327 2324 2228 2323 2412
8 2234 2130 2233 2328 2326 2230 2325 2413
8 2235 2131 2234 2329 2327 2231 2326 2414
8 2237 2134 2236 2330 2329 2234 2328 2415
8 2259 2158 2260 2352 2332 2239 2331 2417
8 2257 2157 2259 2350 2334 2240 2332 2419
8 2240 2139 2239 2332 2335 2241 2333 2420
8 2334 2240 2335 2422 2242 2140 2243 2337
8 2335 2241 2336 2423 2243 2141 2244 2338
8 2337 2243 2338 2425 2247 2143 2246 2342
8 2338 2244 2339 2426 2246 2142 2245 2341
8 2341 2245 2340 2428 2249 2145 2248 2343
8 2342 2246 2341 2429 2250 2146 2249 2344
8 2344 2249 2343 2430 2252 2149 2251 2345
8 2188 2285 2347 2254 2284 2374 2432 2346
8 2347 2254 2346 2432 2271 2169 2270 2364
8 2365 2271 2170 2272 2433 2347 2255 2348
8 2286 2189 2285 2375 2348 2255 2347 2433
8 2349 2258 2351 2435 2257 2157 2259 2350
8 2349 2258 2164 2263 2435 2351 2264 2355
8 2259 2158 2261 2351 2352 2260 2354 2437
8 2356 2265 2354 2437 2264 2165 2261 2351
8 2441 2357 2264 2355 2362 2268 2168 2269
8 2356 2265 2165 2264 2442 2358 2266 2357
8 2443 2359 2266 2357 2361 2267 2166 2268
8 2370 2279 2360 2446 2280 2181 2267 2361
8 2362 2268 2182 2281 2447 2361 2280 2371
8 2180 2277 2368 2278 2270 2364 2449 2363
8 2271 2365 2273 2177 2364 2450 2366 2277
8 2372 2283 2186 2282 2451 2368 2276 2367
8 2178 2274 2367 2276 2277 2366 2451 2368
8 2283 2187 2278 2368 2370 2279 2369 2452
8 2372 2283 2370 2453 2282 2186 2280 2371
8 2284 2374 2455 2373 2201 2292 2380 2295
8 2375 2285 2197 2289 2456 2374 2292 2378
8 2376 2291 2204 2296 2457 2379 2297 2383
8 2288 2199 2291 2376 2377 2293 2379 2457
8 2198 2290 2378 2292 2293 2377 2458 2380
8 2293 2202 2294 2379 2380 2295 2381 2459
8 2384 2298 2381 2459 2297 2205 2294 2379
8 2386 2300 2384 2463 2299 2207 2297 2383
8 2387 2301 2385 2464 2300 2208 2298 2384
8 2389 2303 2387 2466 2302 2210 2300 2386
8 2390 2304 2388 2467 2303 2211 2301 2387
8 2392 2306 2390 2469 2305 2213 2303 2389
8 2393 2307 2391 2470 2306 2214 2304 2390
8 2395 2308 2393 2472 2310 2216 2306 2392
8 2308 2215 2309 2396 2393 2307 2394 2473
8 2395 2308 2216 2310 2475 2396 2311 2398
8 2396 2309 2217 2311 2476 2397 2312 2399
8 2398 2311 2219 2315 2478 2399 2314 2403
8 2399 2312 2218 2314 2479 2400 2313 2402
8 2317 2221 2316 2405 2402 2313 2401 2482
8 2403 2314 2222 2318 2483 2402 2317 2406
8 2320 2224 2319 2408 2405 2316 2404 2485
8 2321 2225 2320 2409 2406 2317 2405 2486
8 2323 2227 2322 2411 2408 2319 2407 2488
8 2324 2228 2323 2412 2409 2320 2408 2489
8 2326 2230 2325 2413 2411 2322 2410 2490
8 2327 2231 2326 2414 2412 2323 2411 2491
8 2329 2234 2328 2415 2414 2326 2413 2492
8 2417 2331 2260 2352 2494 2416 2353 2438
8 2350 2259 2352 2436 2419 2332 2417 2496
8 2332 2239 2331 2417 2420 2333 2418 2497
8 2334 2240 2332 2419 2422 2335 2420 2499
8 2420 2333 2421 2500 2335 2241 2336 2423
8 2422 2335 2423 2502 2337 2243 2338 2425
8 2423 2336 2424 2503 2338 2244 2339 2426
8 2425 2338 2426 2505 2342 2246 2341 2429
8 2426 2339 2427 2506 2341 2245 2340 2428
8 2429 2341 2428 2507 2344 2249 2343 2430
8 2432 2346 2284 2374 2509 2431 2373 2455
8 2432 2346 2431 2509 2364 2270 2363 2449
8 2375 2285 2374 2456 2433 2347 2432 2510
8 2347 2433 2365 2271 2432 2510 2450 2364
8 2350 2259 2351 2435 2436 2352 2437 2514
8 2440 2356 2437 2514 2355 2264 2351 2435
8 2352 2260 2354 2437 2438 2353 2439 2516
8 2356 2265 2358 2442 2437 2354 2439 2516
8 2440 2356 2264 2355 2518 2442 2357 2441
8 2519 2443 2357 2441 2447 2361 2268 2362
8 2443 2359 2444 2520 2357 2266 2358 2442
8 2443 2359 2267 2361 2520 2444 2360 2446
8 2446 2360 2279 2370 2523 2445 2369 2452
8 2453 2370 2446 2524 2371 2280 2361 2447
8 2449 2363 2448 2525 2368 2278 2369 2452
8 2366 2277 2364 2450 2451 2368 2449 2526
8 2372 2283 2368 2451 2453 2370 2452 2527
8 2455 2373 2295 2380 2529 2454 2382 2460
8 2456 2374 2292 2378 2530 2455 2380 2458
8 2377 2293 2379 2457 2458 2380 2459 2531
8 2463 2384 2459 2531 2383 2297 2379 2457
8 2533 2461 2382 2460 2459 2381 2295 2380
8 2464 2385 2461 2533 2384 2298 2381 2459
8 2466 2387 2464 2537 2386 2300 2384 2463
8 2467 2388 2465 2538 2387 2301 2385 2464
8 2469 2390 2467 2540 2389 2303 2387 2466
8 2470 2391 2468 2541 2390 2304 2388 2467
8 2472 2393 2470 2543 2392 2306 2390 2469
8 2393 2307 2394 2473 2470 2391 2471 2544
8 2395 2308 2396 2475 2472 2393 2473 2546
8 2396 2309 2397 2476 2473 2394 2474 2547
8 2475 2396 2311 2398 2549 2476 2399 2478
8 2476 2397 2312 2399 2550 2477 2400 2479
8 2478 2399 2314 2403 2552 2479 2402 2483
8 2479 2400 2313 2402 2553 2480 2401 2482
8 2405 2316 2404 2485 2482 2401 2481 2556
8 2406 2317 2405 2486 2483 2402 2482 2557
8 2408 2319 2407 2488 2485 2404 2484 2559
8 2409 2320 2408 2489 2486 2405 2485 2560
8 2411 2322 2410 2490 2488 2407 2487 2561
8 2412 2323 2411 2491 2489 2408 2488 2562
8 2414 2326 2413 2492 2491 2411 2490 2563
8 2513 2434 2493 2565 2438 2353 2416 2494
8 2496 2417 2352 2436 2567 2494 2438 2515
8 2494 2416 2495 2568 2417 2331 2418 2497
8 2419 2332 2417 2496 2499 2420 2497 2570
8 2497 2418 2498 2571 2420 2333 2421 2500
8 2499 2420 2500 2573 2422 2335 2423 2502
8 2500 2421 2501 2574 2423 2336 2424 2503
8 2502 2423 2503 2576 2425 2338 2426 2505
8 2503 2424 2504 2577 2426 2339 2427 2506
8 2505 2426 2506 2578 2429 2341 2428 2507
8 2509 2431 2373 2455 2580 2508 2454 2529
8 2509 2431 2508 2580 2449 2363 2448 2525
8 2432 2510 2581 2509 2374 2456 2530 2455
8 2432 2510 2450 2364 2509 2581 2526 2449
8 2583 2511 2434 2513 2516 2439 2353 2438
8 2436 2352 2437 2514 2515 2438 2516 2588
8 2440 2356 2442 2518 2514 2437 2516 2588
8 2442 2358 2444 2520 2516 2439 2517 2589
8 2519 2443 2520 2591 2441 2357 2442 2518
8 2519 2443 2361 2447 2591 2520 2446 2524
8 2446 2360 2445 2523 2520 2444 2521 2592
8 2525 2448 2522 2593 2452 2369 2445 2523
8 2524 2446 2370 2453 2594 2523 2452 2527
8 2526 2449 2525 2595 2451 2368 2452 2527
8 2534 2462 2528 2597 2460 2382 2454 2529
8 2530 2455 2380 2458 2598 2529 2460 2532
8 2599 2533 2460 2532 2531 2459 2380 2458
8 2537 2464 2533 2599 2463 2384 2459 2531
8 2534 2462 2382 2460 2601 2535 2461 2533
8 2538 2465 2535 2601 2464 2385 2461 2533
8 2540 2467 2538 2604 2466 2387 2464 2537
8 2541 2468 2539 2605 2467 2388 2465 2538
8 2543 2470 2541 2607 2469 2390 2467 2540
8 2470 2391 2471 2544 2541 2468 2542 2608
8 2472 2393 2473 2546 2543 2470 2544 2610
8 2473 2394 2474 2547 2544 2471 2545 2611
8 2475 2396 2476 2549 2546 2473 2547 2613
8 2476 2397 2477 2550 2547 2474 2548 2614
8 2549 2476 2399 2478 2616 2550 2479 2552
8 2479 2400 2480 2553 2550 2477 2551 2617
8 2552 2479 2402 2483 2619 2553 2482 2557
8 2482 2401 2481 2556 2553 2480 2554 2620
8 2485 2404 2484 2559 2556 2481 2555 2623
8 2486 2405 2485 2560 2557 2482 2556 2624
8 2488 2407 2487 2561 2559 2484 2558 2625
8 2489 2408 2488 2562 2560 2485 2559 2626
8 2491 2411 2490 2563 2562 2488 2561 2627
8 2513 2434 2512 2585 2565 2493 2564 2630
8 2586 2513 2565 2632 2515 2438 2494 2567
8 2565 2493 2566 2633 2494 2416 2495 2568
8 2567 2494 2568 2635 2496 2417 2497 2570
8 2568 2495 2569 2636 2497 2418 2498 2571
8 2570 2497 2571 2638 2499 2420 2500 2573
8 2571 2498 2572 2639 2500 2421 2501 2574
8 2573 2500 2574 2641 2502 2423 2503 2576
8 2574 2501 2575 2642 2503 2424 2504 2577
8 2576 2503 2577 2643 2505 2426 2506 2578
8 2597 2528 2579 2645 2529 2454 2508 2580
8 2580 2508 2579 2645 2525 2448 2522 2593
8 2581 2509 2455 2530 2646 2580 2529 2598
8 2581 2509 2580 2646 2526 2449 2525 2595
8 2583 2511 2582 2648 2513 2434 2512 2585
8 2583 2511 2439 2516 2648 2582 2517 2589
8 2649 2583 2513 2586 2588 2516 2438 2515
8 2589 2517 2444 2520 2653 2587 2521 2592
8 2518 2442 2520 2591 2588 2516 2589 2654
8 2593 2522 2590 2655 2523 2445 2521 2592
8 2524 2446 2523 2594 2591 2520 2592 2656
8 2595 2525 2593 2657 2527 2452 2523 2594
8 2602 2536 2596 2659 2534 2462 2528 2597
8 2600 2534 2597 2660 2532 2460 2529 2598
8 2600 2534 2460 2532 2661 2601 2533 2599
8 2604 2538 2601 2661 2537 2464 2533 2599
8 2602 2536 2462 2534 2663 2603 2535 2601
8 2601 2535 2465 2538 2663 2603 2539 2605
8 2607 2541 2605 2665 2540 2467 2538 2604
8 2608 2542 2606 2666 2541 2468 2539 2605
8 2543 2470 2544 2610 2607 2541 2608 2668
8 2544 2471 2545 2611 2608 2542 2609 2669
8 2546 2473 2547 2613 2610 2544 2611 2671
8 2547 2474 2548 2614 2611 2545 2612 2672
8 2549 2476 2550 2616 2613 2547 2614 2674
8 2550 2477 2551 2617 2614 2548 2615 2675
8 2552 2479 2553 2619 2616 2550 2617 2677
8 2553 2480 2554 2620 2617 2551 2618 2678
8 2557 2482 2556 2624 2619 2553 2620 2680
8 2556 2481 2555 2623 2620 2554 2621 2681
8 2559 2484 2558 2625 2623 2555 2622 2683
8 2560 2485 2559 2626 2624 2556 2623 2684
8 2562 2488 2561 2627 2626 2559 2625 2685
8 2690 2629 2564 2630 2650 2584 2512 2585
8 2586 2513 2585 2651 2632 2565 2630 2691
8 2630 2564 2631 2692 2565 2493 2566 2633
8 2632 2565 2633 2694 2567 2494 2568 2635
8 2633 2566 2634 2695 2568 2495 2569 2636
8 2635 2568 2636 2697 2570 2497 2571 2638
8 2636 2569 2637 2698 2571 2498 2572 2639
8 2638 2571 2639 2700 2573 2500 2574 2641
8 2639 2572 2640 2701 2574 2501 2575 2642
8 2641 2574 2642 2702 2576 2503 2577 2643
8 2597 2528 2596 2659 2645 2579 2644 2704
8 2645 2579 2644 2704 2593 2522 2590 2655
8 2660 2597 2645 2705 2598 2529 2580 2646
8 2646 2580 2645 2705 2595 2525 2593 2657
8 2650 2584 2512 2585 2707 2647 2582 2648
8 2648 2582 2517 2589 2707 2647 2587 2653
8 2649 2583 2648 2708 2586 2513 2585 2651
8 2649 2583 2516 2588 2708 2648 2589 2654
8 2655 2590 2652 2710 2592 2521 2587 2653
8 2654 2589 2520 2591 2711 2653 2592 2656
8 2657 2593 2655 2712 2594 2523 2592 2656
8 2602 2536 2603 2663 2659 2596 2658 2714
8 2662 2602 2659 2715 2600 2534 2597 2660
8 2662 2602 2534 2600 2717 2663 2601 2661
8 2661 2601 2538 2604 2717 2663 2605 2665
8 2666 2606 2664 2718 2605 2539 2603 2663
8 2668 2608 2666 2720 2607 2541 2605 2665
8 2608 2542 2609 2669 2666 2606 2667 2721
8 2610 2544 2611 2671 2668 2608 2669 2723
8 2611 2545 2612 2672 2669 2609 2670 2724
8 2613 2547 2614 2674 2671 2611 2672 2726
8 2614 2548 2615 2675 2672 2612 2673 2727
8 2616 2550 2617 2677 2674 2614 2675 2729
8 2617 2551 2618 2678 2675 2615 2676 2730
8 2619 2553 2620 2680 2677 2617 2678 2732
8 2620 2554 2621 2681 2678 2618 2679 2733
8 2624 2556 2623 2684 2680 2620 2681 2735
8 2681 2621 2555 2623 2736 2682 2622 2683
8 2626 2559 2625 2685 2684 2623 2683 2737
8 2688 2628 2584 2650 2740 2686 2647 2707
8 2688 2628 2687 2742 2650 2584 2629 2690
8 2690 2629 2689 2745 2630 2564 2631 2692
8 2746 2690 2630 2691 2709 2650 2585 2651
8 2691 2630 2692 2747 2632 2565 2633 2694
8 2692 2631 2693 2748 2633 2566 2634 2695
8 2694 2633 2695 2750 2635 2568 2636 2697
8 2695 2634 2696 2751 2636 2569 2637 2698
8 2697 2636 2698 2753 2638 2571 2639 2700
8 2698 2637 2699 2754 2639 2572 2640 2701
8 2700 2639 2701 2755 2641 2574 2642 2702
8 2659 2596 2658 2714 2704 2644 2703 2757
8 2704 2644 2703 2757 2655 2590 2652 2710
8 2660 2597 2659 2715 2705 2645 2704 2758
8 2705 2645 2704 2758 2657 2593 2655 2712
8 2759 2706 2647 2707 2710 2652 2587 2653
8 2709 2650 2585 2651 2760 2707 2648 2708
8 2708 2648 2589 2654 2760 2707 2653 2711
8 2712 2655 2710 2761 2656 2592 2653 2711
8 2763 2713 2658 2714 2718 2664 2603 2663
8 2662 2602 2663 2717 2715 2659 2714 2764
8 2720 2666 2718 2767 2665 2605 2663 2717
8 2768 2719 2664 2718 2721 2667 2606 2666
8 2668 2608 2669 2723 2720 2666 2721 2770
8 2669 2609 2670 2724 2721 2667 2722 2771
8 2671 2611 2672 2726 2723 2669 2724 2773
8 2672 2612 2673 2727 2724 2670 2725 2774
8 2674 2614 2675 2729 2726 2672 2727 2776
8 2675 2615 2676 2730 2727 2673 2728 2777
8 2677 2617 2678 2732 2729 2675 2730 2779
8 2678 2618 2679 2733 2730 2676 2731 2780
8 2680 2620 2681 2735 2732 2678 2733 2782
8 2733 2679 2621 2681 2783 2734 2682 2736
8 2735 2681 2623 2684 2784 2736 2683 2737
8 2740 2686 2647 2707 2787 2738 2706 2759
8 2688 2628 2686 2740 2742 2687 2739 2789
8 2743 2688 2650 2709 2790 2740 2707 2760
8 2742 2687 2741 2792 2690 2629 2689 2745
8 2743 2688 2742 2793 2709 2650 2690 2746
8 2745 2689 2744 2795 2692 2631 2693 2748
8 2746 2690 2745 2796 2691 2630 2692 2747
8 2747 2692 2748 2797 2694 2633 2695 2750
8 2748 2693 2749 2798 2695 2634 2696 2751
8 2750 2695 2751 2800 2697 2636 2698 2753
8 2751 2696 2752 2801 2698 2637 2699 2754
8 2753 2698 2754 2802 2700 2639 2701 2755
8 2763 2713 2756 2804 2714 2658 2703 2757
8 2759 2706 2652 2710 2804 2756 2703 2757
8 2715 2659 2714 2764 2758 2704 2757 2805
8 2758 2704 2757 2805 2712 2655 2710 2761
8 2806 2759 2707 2760 2761 2710 2653 2711
8 2765 2716 2762 2808 2718 2664 2713 2763
8 2809 2763 2714 2764 2767 2718 2663 2717
8 2765 2716 2664 2718 2811 2766 2719 2768
8 2813 2768 2718 2767 2770 2721 2666 2720
8 2814 2769 2719 2768 2771 2722 2667 2721
8 2723 2669 2724 2773 2770 2721 2771 2816
8 2724 2670 2725 2774 2771 2722 2772 2817
8 2726 2672 2727 2776 2773 2724 2774 2819
8 2727 2673 2728 2777 2774 2725 2775 2820
8 2729 2675 2730 2779 2776 2727 2777 2822
8 2730 2676 2731 2780 2777 2728 2778 2823
8 2732 2678 2733 2782 2779 2730 2780 2825
8 2780 2731 2679 2733 2826 2781 2734 2783
8 2782 2733 2681 2735 2827 2783 2736 2784
8 2830 2785 2738 2787 2804 2756 2706 2759
8 2789 2739 2686 2740 2832 2786 2738 2787
8 2790 2740 2707 2760 2833 2787 2759 2806
8 2742 2687 2739 2789 2792 2741 2788 2835
8 2743 2688 2740 2790 2793 2742 2789 2836
8 2792 2741 2791 2838 2745 2689 2744 2795
8 2793 2742 2792 2839 2746 2690 2745 2796
8 2795 2744 2794 2841 2748 2693 2749 2798
8 2796 2745 2795 2842 2747 2692 2748 2797
8 2797 2748 2798 2843 2750 2695 2751 2800
8 2798 2749 2799 2844 2751 2696 2752 2801
8 2800 2751 2801 2845 2753 2698 2754 2802
8 2808 2762 2803 2847 2763 2713 2756 2804
8 2809 2763 2804 2848 2764 2714 2757 2805
8 2806 2759 2710 2761 2848 2804 2757 2805
8 2765 2716 2766 2811 2808 2762 2807 2850
8 2810 2765 2808 2851 2767 2718 2763 2809
8 2810 2765 2718 2767 2852 2811 2768 2813
8 2811 2766 2719 2768 2853 2812 2769 2814
8 2855 2814 2768 2813 2816 2771 2721 2770
8 2856 2815 2769 2814 2817 2772 2722 2771
8 2773 2724 2774 2819 2816 2771 2817 2858
8 2774 2725 2775 2820 2817 2772 2818 2859
8 2776 2727 2777 2822 2819 2774 2820 2861
8 2777 2728 2778 2823 2820 2775 2821 2862
8 2779 2730 2780 2825 2822 2777 2823 2864
8 2823 2778 2731 2780 2865 2824 2781 2826
8 2825 2780 2733 2782 2866 2826 2783 2827
8 2869 2828 2785 2830 2847 2803 2756 2804
8 2871 2829 2786 2832 2830 2785 2738 2787
8 2872 2830 2787 2833 2848 2804 2759 2806
8 2789 2739 2786 2832 2835 2788 2831 2874
8 2836 2789 2740 2790 2875 2832 2787 2833
8 2792 2741 2788 2835 2838 2791 2834 2877
8 2793 2742 2789 2836 2839 2792 2835 2878
8 2838 2791 2837 2880 2795 2744 2794 2841
8 2839 2792 2838 2881 2796 2745 2795 2842
8 2841 2794 2840 2882 2798 2749 2799 2844
8 2842 2795 2841 2883 2797 2748 2798 2843
8 2843 2798 2844 2884 2800 2751 2801 2845
8 2886 2846 2803 2847 2850 2807 2762 2808
8 2851 2808 2847 2887 2809 2763 2804 2848
8 2850 2807 2766 2811 2889 2849 2812 2853
8 2810 2765 2811 2852 2851 2808 2850 2890
8 2852 2811 2768 2813 2891 2853 2814 2855
8 2853 2812 2769 2814 2892 2854 2815 2856
8 2894 2856 2814 2855 2858 2817 2771 2816
8 2817 2772 2818 2859 2856 2815 2857 2895
8 2819 2774 2820 2861 2858 2817 2859 2897
8 2820 2775 2821 2862 2859 2818 2860 2898
8 2822 2777 2823 2864 2861 2820 2862 2900
8 2823 2778 2824 2865 2862 2821 2863 2901
8 2864 2823 2780 2825 2902 2865 2826 2866
8 2904 2867 2828 2869 2886 2846 2803 2847
8 2869 2828 2868 2906 2830 2785 2829 2871
8 2907 2869 2830 2872 2887 2847 2804 2848
8 2871 2829 2870 2909 2832 2786 2831 2874
8 2910 2871 2832 2875 2872 2830 2787 2833
8 2835 2788 2831 2874 2877 2834 2873 2912
8 2836 2789 2832 2875 2878 2835 2874 2913
8 2877 2834 2876 2915 2838 2791 2837 2880
8 2839 2792 2835 2878 2881 2838 2877 2916
8 2880 2837 2879 2917 2841 2794 2840 2882
8 2881 2838 2880 2918 2842 2795 2841 2883
8 2883 2841 2882 2919 2843 2798 2844 2884
8 2921 2885 2846 2886 2889 2849 2807 2850
8 2922 2886 2847 2887 2890 2850 2808 2851
8 2889 2849 2812 2853 2924 2888 2854 2892
8 2890 2850 2811 2852 2925 2889 2853 2891
8 2891 2853 2814 2855 2926 2892 2856 2894
8 2892 2854 2815 2856 2927 2893 2857 2895
8 2858 2817 2859 2897 2894 2856 2895 2929
8 2859 2818 2860 2898 2895 2857 2896 2930
8 2861 2820 2862 2900 2897 2859 2898 2932
8 2862 2821 2863 2901 2898 2860 2899 2933
8 2864 2823 2865 2902 2900 2862 2901 2934
8 2904 2867 2846 2886 2936 2903 2885 2921
8 2904 2867 2903 2936 2869 2828 2868 2906
8 2937 2904 2869 2907 2922 2886 2847 2887
8 2906 2868 2905 2939 2871 2829 2870 2909
8 2907 2869 2906 2940 2872 2830 2871 2910
8 2909 2870 2908 2942 2874 2831 2873 2912
8 2910 2871 2909 2943 2875 2832 2874 2913
8 2912 2873 2911 2945 2877 2834 2876 2915
8 2878 2835 2874 2913 2916 2877 2912 2946
8 2915 2876 2914 2947 2880 2837 2879 2917
8 2916 2877 2915 2948 2881 2838 2880 2918
8 2918 2880 2917 2949 2883 2841 2882 2919
8 2921 2885 2849 2889 2951 2920 2888 2924
8 2952 2921 2886 2922 2925 2889 2850 2890
8 2924 2888 2854 2892 2954 2923 2893 2927
8 2925 2889 2853 2891 2955 2924 2892 2926
8 2926 2892 2856 2894 2956 2927 2895 2929
8 2895 2857 2896 2930 2927 2893 2928 2957
8 2897 2859 2898 2932 2929 2895 2930 2959
8 2898 2860 2899 2933 2930 2896 2931 2960
8 2900 2862 2901 2934 2932 2898 2933 2961
8 2936 2903 2885 2921 2963 2935 2920 2951
8 2936 2903 2935 2963 2906 2868 2905 2939
8 2937 2904 2886 2922 2964 2936 2921 2952
8 2937 2904 2936 2964 2907 2869 2906 2940
8 2939 2905 2938 2966 2909 2870 2908 2942
8 2940 2906 2939 2967 2910 2871 2909 2943
8 2942 2908 2941 2969 2912 2873 2911 2945
8 2943 2909 2942 2970 2913 2874 2912 2946
8 2945 2911 2944 2971 2915 2876 2914 2947
8 2946 2912 2945 2972 2916 2877 2915 2948
8 2948 2915 2947 2973 2918 2880 2917 2949
8 2951 2920 2888 2924 2975 2950 2923 2954
8 2952 2921 2889 2925 2976 2951 2924 2955
8 2927 2893 2928 2957 2954 2923 2953 2978
8 2955 2924 2892 2926 2979 2954 2927 2956
8 2929 2895 2930 2959 2956 2927 2957 2980
8 2930 2896 2931 2960 2957 2928 2958 2981
8 2932 2898 2933 2961 2959 2930 2960 2982
8 2951 2920 2950 2975 2963 2935 2962 2984
8 2963 2935 2962 2984 2939 2905 2938 2966
8 2964 2936 2921 2952 2985 2963 2951 2976
8 2964 2936 2963 2985 2940 2906 2939 2967
8 2966 2938 2965 2987 2942 2908 2941 2969
8 2967 2939 2966 2988 2943 2909 2942 2970
8 2969 2941 2968 2989 2945 2911 2944 2971
8 2970 2942 2969 2990 2946 2912 2945 2972
8 2972 2945 2971 2991 2948 2915 2947 2973
8 2954 2923 2953 2978 2975 2950 2974 2993
8 2976 2951 2924 2955 2994 2975 2954 2979
8 2957 2928 2958 2981 2978 2953 2977 2995
8 2956 2927 2957 2980 2979 2954 2978 2996
8 2959 2930 2960 2982 2980 2957 2981 2997
8 2984 2962 2983 2999 2966 2938 2965 2987
8 2975 2950 2974 2993 2984 2962 2983 2999
8 2976 2951 2975 2994 2985 2963 2984 3000
8 2985 2963 2984 3000 2967 2939 2966 2988
8 2987 2965 2986 3001 2969 2941 2968 2989
8 2988 2966 2987 3002 2970 2942 2969 2990
8 2990 2969 2989 3003 2972 2945 2971 2991
8 2978 2953 2977 2995 2993 2974 2992 3004
8 2979 2954 2978 2996 2994 2975 2993 3005
8 2980 2957 2981 2997 2996 2978 2995 3006
8 2974 2993 2999 2983 2992 3004 3007 2998
8 2983 2999 2987 2965 2998 3007 3001 2986
8 3000 2984 2999 3008 2988 2966 2987 3002
8 2994 2975 2993 3005 3000 2984 2999 3008
8 3002 2987 3001 3009 2990 2969 2989 3003
8 2996 2978 2995 3006 3005 2993 3004 3010
8 3005 2993 3004 3010 3008 2999 3007 3011
8 3008 2999 3007 3011 3002 2987 3001 3009

CELL_TYPES 1910
12
12
12
12
12
12
12
12
12
12
12
12
12
12
12
12
12
12
12
12
12
12
12
12
12
12
12
12
12
12
12
12
12
12
12
12
12
12
12
12
12
12
12
12
12
12
12
12
12
12
12
12
12
12
12
12
12
12
12
12
12
12
12
12
12
12
12
12
12
12
12
12
12
12
12
12
12
12
12
12
12
12
12
12
12
12
12
12
12
12
12
12
12
12
12
12
12
12
12
12
12
12
12
12
12
12
12
12
12
12
12
12
12
12
12
12
12
12
12
12
12
12
12
12
12
12
12
12
12
12
12
12
12
12
12
12
12
12
12
12
12
12
12
12
12
12
12
12
12
12
12
12
12
12
12
12
12
12
12
12
12
12
12
12
12
12
12
12
12
12
12
12
12
12
12
12
12
12
12
12
12
12
12
12
12
12
12
12
12
12
12
12
12
12
12
12
12
12
12
12
12
12
12
12
12
12
12
12
12
12
12
12
12
12
12
12
12
12
12
12
12
12
12
12
12
12
12
12
12
12
12
12
12
12
12
12
12
12
12
12
12
12
12
12
12
12
12
12
12
12
12
12
12
12
12
12
12
12
12
12
12
12
12
12
12
12
12
12
12
12
12
12
12
12
12
12
12
12
12
12
12
12
12
12
12
12
12
12
12
12
12
12
12
12
12
12
12
12
12
12
12
12
12
12
12
12
12
12
12
12
12
12
12
12
12
12
12
12
12
12
12
12
12
12
12
12
12
12
12
12
12
12
12
12
12
12
12
12
12
12
12
12
12
12
12
12
12
12
12
12
12
12
12
12
12
12
12
12
12
12
12
12
12
12
12
12
12
12
12
12
12
12
12
12
12
12
12
12
12
12
12
12
12
12
12
12
12
12
12
12
12
12
12
12
12
12
12
12
12
12
12
12
12
12
12
12
12
12
12
12
12
12
12
12
12
12
12
12
12
12
12
12
12
12
12
12
12
12
12
12
12
12
12
12
12
12
12
12
12
12
12
12
12
12
12
12
12
12
12
12
12
12
12
12
12
12
12
12
12
12
12
12
12
12
12
12
12
12
12
12
12
12
12
12
12
12
12
12
12
12
12
12
12
12
12
12
12
12
12
12
12
12
12
12
12
12
12
12
12
12
12
12
12
12
12
12
12
12
12
12
12
12
12
12
12
12
12
12
12
12
12
12
12
12
12
12
12
12
12
12
12
12
12
12
12
12
12
12
12
12
12
12
12
12
12
12
12
12
12
12
12
12
12
12
12
12
12
12
12
12
12
12
12
12
12
12
12
12
12
12
12
12
12
12
12
12
12
12
12
12
12
12
12
12
12
12
12
12
12
12
12
12
12
12
12
12
12
12
12
12
12
12
12
12
12
12
12
12
12
12
12
12
12
12
12
12
12
12
12
12
12
12
12
12
12
12
12
12
12
12
12
12
12
12
12
12
12
12
12
12
12
12
12
12
12
12
12
12
12
12
12
12
12
12
12
12
12
12
12
12
12
12
12
12
12
12
12
12
12
12
12
12
12
12
12
12
12
12
12
12
12
12
12
12
12
12
12
12
12
12
12
12
12
12
12
12
12
12
12
12
12
12
12
12
12
12
12
12
12
12
12
12
12
12
12
12
12
12
12
12
12
12
12
12
12
12
12
12
12
12
12
12
12
12
12
12
12
12
12
12
12
12
12
12
12
12
12
12
12
12
12
12
12
12
12
12
12
12
12
12
12
12
12
12
12
12
12
12
12
12
12
12
12
12
12
12
12
12
12
12
12
12
12
12
12
12
12
12
12
12
12
12
12
12
12
12
12
12
12
12
12
12
12
12
12
12
12
12
12
12
12
12
12
12
12
12
12
12
12
12
12
12
12
12
12
12
12
12
12
12
12
12
12
12
12
12
12
12
12
12
12
12
12
12
12
12
12
12
12
12
12
12
12
12
12
12
12
12
12
12
12
12
12
12
12
12
12
12
12
12
12
12
12
12
12
12
12
12
12
12
12
12
12
12
12
12
12
12
12
12
12
12
12
12
12
12
12
12
12
12
12
12
12
12
12
12
12
12
12
12
12
12
12
12
12
12
12
12
12
12
12
12
12
12
12
12
12
12
12
12
12
12
12
12
12
12
12
12
12
12
12
12
12
12
12
12
12
12
12
12
12
12
12
12
12
12
12
12
12
12
12
12
12
12
12
12
12
12
12
12
12
12
12
12
12
12
12
12
12
12
12
12
12
12
12
12
12
12
12
12
12
12
12
12
12
12
12
12
12
12
12
12
12
12
12
12
12
12
12
12
12
12
12
12
12
12
12
12
12
12
12
12
12
12
12
12
12
12
12
12
12
12
12
12
12
12
12
12
12
12
12
12
12
12
12
12
12
12
12
12
12
12
12
12
12
12
12
12
12
12
12
12
12
12
12
12
12
12
12
12
12
12
12
12
12
12
12
12
12
12
12
12
12
12
12
12
12
12
12
12
12
12
12
12
12
12
12
12
12
12
12
12
12
12
12
12
12
12
12
12
12
12
12
12
12
12
12
12
12
12
12
12
12
12
12
12
12
12
12
12
12
12
12
12
12
12
12
12
12
12
12
12
12
12
12
12
12
12
12
12
12
12
12
12
12
12
12
12
12
12
12
12
12
12
12
12
12
12
12
12
12
12
12
12
12
12
12
12
12
12
12
12
12
12
12
12
12
12
12
12
12
12
12
12
12
12
12
12
12
12
12
12
12
12
12
12
12
12
12
12
12
12
12
12
12
12
12
12
12
12
12
12
12
12
12
12
12
12
12
12
12
12
12
12
12
12
12
12
12
12
12
12
12
12
12
12
12
12
12
12
12
12
12
12
12
12
12
12
12
12
12
12
12
12
12
12
12
12
12
12
12
12
12
12
12
12
12
12
12
12
12
12
12
12
12
12
12
12
12
12
12
12
12
12
12
12
12
12
12
12
12
12
12
12
12
12
12
12
12
12
12
12
12
12
12
12
12
12
12
12
12
12
12
12
12
12
12
12
12
12
12
12
12
12
12
12
12
12
12
12
12
12
12
12
12
12
12
12
12
12
12
12
12
12
12
12
12
12
12
12
12
12
12
12
12
12
12
12
12
12
12
12
12
12
12
12
12
12
12
12
12
12
12
12
12
12
12
12
12
12
12
12
12
12
12
12
12
12
12
12
12
12
12
12
12
12
12
12
12
12
12
12
12
12
12
12
12
12
12
12
12
12
12
12
12
12
12
12
12
12
12
12
12
12
12
12
12
12
12
12
12
12
12
12
12
12
12
12
12
12
12
12
12
12
12
12
12
12
12
12
12
12
12
12
12
12
12
12
12
12
12
12
12
12
12
12
12
12
12
12
12
12
12
12
12
12
12
12
12
12
12
12
12
12
12
12
12
12
12
12
12
12
12
12
12
12
12
12
12
12
12
12
12
12
12
12
12
12
12
12
12
12
12
12
12
12
12
12
12
12
12
12
12
12
12
12
12
12
12
12
12
12
12
12
12
12
12
12
12
12
12
12
12
12
12
12
12
12
12
12
12
12
12
12
12
12
12
12
12
12
12
12
12
12
12
12
12
12
12
12
12
12
12
12
12
12
12
12
12
12
12
12
12
12
12
12
12
12
12
12
12
12
12
12
12
12
12
12
12
12
12
12
12
12
12
12
12
12
12
12
12
12
12
12
12
12
12
12
12
12
12
12
12
12
12
12
12
12
12
12
12
12
12
12
12
12
12
12
12
12
12
12
12
12
12
12
12
12
12
12
12
12
12
12
12
12
12
12
12
12
12
12
12
12
12
12
12
12
12
12
12
12
12
12
12
12
12
12
12
12
12
12
12
12
12
12
12
12
12
12
12
12
12
12
12
12
12
12
12
12
12
12
12
12
12
12
12
12
12
12
12
12
12
12
12
12
12
12
12
12
12
12
12
12
12
12
12
12
12
12
12
12
12
12
12
12
12
12
12
12
12
12
12
12
12
12
12
12
12
12
12
12
12
12
12
12
12
12
12
12
12
12
12
12
12
12
12
12
12
12
12
12
12
12
12
12
12
12
12
12
12
12
12
12
12
12
12
12
12
12
12
12
12
12
12
12
12
12
12
12
12
12
12
12
12
12
12
12
12
12
12
12
12
12
12
12
12
12
12
12
12
12
12
12
12
12
12
12
12
12
12
12
12
12
12
12
12
12
12
12
12
12
12
12
12
12
12
12
12
12
12
12
12
12
12
12
12
12
12
12
12
12
12
12
12
12
12
12
12
12
12
12
12
12
12
12
12
12
12
12
12
12
12
12
12
12
12
12
12
12
12
12
12
12
12
12
12
12
12
12

POINT_DATA 3012
SCALARS Jp_lamdaP float 4
LOOKUP_TABLE default
0.999804 1 1 0.999804
1 1 1 1
0.99981 1 1 0.99981
0.999757 1 1 0.999757
0.999804 1 1 0.999804
0.999795 1 1 0.999795
0.99918 1 1 0.99918
1 1 1 1
1 1 1 1
1 1 1 1
0.999878 1 1 0.999878
0.999326 1 1 0.999326
0.999727 1 1 0.999727
0.999751 1 1 0.999751
0.999811 1 1 0.999811
0.999775 1 1 0.999775
0.9998 1 1 0.9998
0.999815 1 1 0.999815
0.999183 1 1 0.999183
1 1 1 1
0.999736 1 1 0.999736
0.999785 1 1 0.999785
0.99905 1 1 0.99905
0.999152 1 1 0.999152
0.999811 1 1 0.999811
0.999208 1 1 0.999208
1.00184 1.00364 1 0.998203
1 1 1 1
0.999891 1 1 0.999891
0.999905 1 1 0.999905
1 1 1 1
0.999334 1 1 0.999334
0.999776 1 1 0.999776
0.9998 1 1 0.9998
0.999284 1 1 0.999284
1 1 1 1
0.999372 1 1 0.999372
0.999426 1 1 0.999426
0.998754 1.00053 1 0.998222
1 1 1 1
1 1 1 1
0.999874 1 1 0.999874
1 1 1 1
0.999746 1 1 0.999746
0.998977 1 1 0.998977
1 1 1 1
0.999186 1 1 0.999186
0.999792 1 1 0.999792
0.999822 1 1 0.999822
0.999801 1 1 0.999801
0.999188 1 1 0.999188
0.999858 1 1 0.999858
0.999754 1 1 0.999754
0.999822 1 1 0.999822
0.999801 1 1 0.999801
0.999049 1 1 0.999049
0.999212 1 1 0.999212
0.999154 1 1 0.999154
1.00219 1.00401 1 0.998189
1 1 1 1
0.999727 1 1 0.999727
0.999175 1 1 0.999175
0.999013 1 1 0.999013
0.999102 1 1 0.999102
1.0046 1.00671 1 0.99791
1.00303 1.00501 1 0.998038
0.999871 1 1 0.999871
0.999319 1 1 0.999319
1.00011 1.00181 1 0.998305
1.01271 1.01536 1 0.997395
1 1 1 1
1 1 1 1
1 1 1 1
0.999342 1 1 0.999342
1 1 1 1
1 1 1 1
0.999177 1 1 0.999177
0.999964 1 1 0.999964
0.999283 1 1 0.999283
0.999498 1 1 0.999498
0.998521 1.0003 1 0.998219
1 1 1 1
1.00001 1 1.0001 0.999909
0.999111 1 1 0.999111
0.999212 1 1 0.999212
1.00468 1.0069 1 0.997796
0.999679 1 1 0.999679
1.00033 1.00221 1 0.998121
0.998377 1.00002 1 0.998361
1.00021 1.0026 1 0.997609
1 1 1 1
1 1 1 1
1 1 1 1
1 1 1 1
1 1 1 1
0.99987 1 1 0.99987
0.99907 1 1 0.99907
0.999878 1 1 0.999878
0.999127 1 1 0.999127
1 1 1 1
0.998971 1 1 0.998971
0.999164 1 1 0.999164
1.00397 1.00646 1 0.997528
0.999223 1 1 0.999223
1.00609 1.00851 1 0.997602
0.999746 1 1 0.999746
0.99977 1 1 0.99977
0.999831 1 1 0.999831
0.999814 1 1 0.999814
0.99905 1 1 0.99905
0.999158 1 1 0.999158
0.999218 1 1 0.999218
1.00256 1.00439 1 0.998174
1 1 1 1
0.999745 1 1 0.999745
0.998997 1 1 0.998997
0.999011 1 1 0.999011
0.999935 1 1 0.999935
0.999381 1 1 0.999381
0.999104 1 1 0.999104
1.00459 1.00674 1 0.997868
1.00061 1.00233 1 0.998286
1.00328 1.00522 1 0.998068
1.01267 1.01531 1 0.997401
0.998994 1 1 0.998994
0.998995 1 1 0.998995
1.00358 1.00587 1 0.997717
1.00465 1.00687 1 0.997794
1.0044 1.00649 1 0.997923
1.02037 1.02321 1 0.997226
1 1 1 1
1.01523 1.01794 1 0.997336
0.999587 1 1.00004 0.999548
0.998664 1.00034 1 0.99832
1.00981 1.01239 1 0.997455
1.02288 1.02577 1 0.997176
0.999913 1 1.00014 0.999777
1.00137 1 1.00242 0.998954
1 1 1 1
1 1 1 1
0.999183 1 1 0.999183
1 1 1 1
0.999485 1 1 0.999485
0.999288 1 1 0.999288
0.998317 1.0001 1 0.998216
1 1 1 1
0.999927 1 1 0.999927
0.999185 1 1 0.999185
0.999281 1 1 0.999281
1.00411 1.00633 1 0.997798
0.999676 1 1 0.999676
0.999761 1.00164 1 0.998124
0.998359 1 1 0.998359
1.00005 1.00247 1 0.997592
0.999805 1 1 0.999805
0.999971 1 1 0.999971
1.00012 1 1.00095 0.999176
1.00596 1.00829 1 0.997687
1.00264 1.00469 1 0.99796
1.01652 1.01938 1 0.997196
0.998602 1 1 0.998602
1.00578 1.00829 1 0.997508
0.999942 1.00168 1.00057 0.997698
1.00632 1.00892 1 0.997418
1 1 1 1
1 1 1 1
1 1 1 1
0.999861 1 1 0.999861
1 1 1 1
1 1 1 1
1 1 1 1
0.999066 1 1 0.999066
0.999005 1 1 0.999005
1 1 1 1
1 1 1 1
0.998973 1 1 0.998973
0.999104 1 1 0.999104
1.00434 1.00683 1 0.997529
0.999093 1 1 0.999093
1.00619 1.00861 1 0.997601
0.998966 1 1 0.998966
1.00307 1.0056 1 0.997484
1.00514 1.00758 1 0.997575
1.0234 1.02642 1 0.997057
1.00632 1.00871 1 0.997629
1.02474 1.02772 1 0.997107
1 1 1 1
0.999762 1 1 0.999762
0.998802 1 1 0.998802
0.999009 1 1 0.999009
1 1 1 1
0.999444 1 1 0.999444
0.999107 1 1 0.999107
1.00456 1.00675 1 0.997826
1.00354 1.00545 1 0.998098
1.00109 1.00282 1 0.998268
1.0126 1.01523 1 0.997406
0.998991 1 1 0.998991
0.998992 1 1 0.998992
1.00342 1.00582 1 0.997613
1.00468 1.00687 1 0.997823
1 1 1 1
0.999557 1 1 0.999557
0.999129 1.00075 1 0.998381
1.00434 1.00644 1 0.997921
1.02024 1.02311 1 0.997193
1.00933 1.01192 1 0.997444
1.01543 1.0181 1 0.997369
1.02244 1.02533 1 0.997183
1.00016 1 1.0004 0.999766
1.00131 1 1.00236 0.998956
1.00262 1.00513 1 0.997506
1.00413 1.00639 1 0.997761
1.02162 1.02454 1 0.997149
1.02074 1.02368 1 0.997128
1.01778 1.02051 1 0.997317
1.03128 1.03422 1 0.997155
0.999922 1 1.00025 0.999672
1.02473 1.02762 1 0.99719
0.998598 1 1.00011 0.998492
1.00373 1.00618 1 0.997571
1.02054 1.02341 1 0.997192
1.02497 1.02781 1 0.997239
1.00117 1 1.0024 0.998779
0.999719 1 1.00054 0.999175
1.00188 1 1.00352 0.998362
0.999134 1 1 0.999134
1 1 1 1
0.999946 1 1 0.999946
0.999242 1 1 0.999242
1.00355 1.00576 1 0.9978
0.999683 1 1 0.999683
0.998399 1 1.00004 0.998358
0.999132 1.00101 1 0.998127
0.999884 1.00231 1 0.997574
0.999877 1 1.00005 0.999825
0.999979 1 1 0.999979
1.00034 1 1.00116 0.999179
1.00564 1.00797 1 0.997686
1.00192 1.00396 1 0.997964
1.01657 1.01943 1 0.997193
0.998714 1 1.00011 0.998606
1.00591 1.00841 1 0.997518
0.999559 1.0014 1.00047 0.997694
1.00687 1.00949 1 0.997403
0.999994 1 1 0.999994
0.999411 1 1.00054 0.998873
1.00011 1 1.00064 0.999468
1.00067 1 1.0021 0.998579
1.02046 1.0234 1 0.997123
1.01169 1.01438 1 0.997354
1.02507 1.02812 1 0.997036
0.999009 1.00054 1.00049 0.99798
1.0135 1.01621 1 0.997339
1.00751 1.00858 1.00158 0.997368
1.01693 1.01971 1 0.997275
0.999809 1 1 0.999809
1 1 1 1
1 1 1 1
1 1 1 1
1 1 1 1
0.999925 1 1 0.999925
1 1 1 1
0.99996 1 1.00011 0.999849
1 1 1 1
0.999093 1 1 0.999093
0.999039 1 1 0.999039
1.00638 1.0088 1 0.9976
1.00469 1.00718 1 0.997529
0.998975 1 1 0.998975
1 1 1 1
0.998965 1 1 0.998965
1.00329 1.00582 1 0.997484
1.00548 1.00792 1 0.997575
1.02312 1.02614 1 0.997056
1.00632 1.00871 1 0.997628
1.02467 1.02764 1 0.997105
1.00253 1.00506 1 0.997478
1.02205 1.02511 1 0.997017
1.02463 1.02762 1 0.99709
1.03741 1.04036 1 0.997158
1.02375 1.02672 1 0.997109
1.03529 1.03826 1 0.997139
0.998988 1 1 0.998988
0.99899 1 1 0.99899
1.00328 1.00579 1 0.997509
1.00472 1.00688 1 0.997851
1 1 1 1
0.999566 1 1 0.999566
0.999575 1.00114 1 0.998441
1.00428 1.00638 1 0.997919
1.02012 1.02302 1 0.997159
1.01559 1.01823 1 0.997403
1.00887 1.01147 1 0.997433
1.02212 1.025 1 0.99719
1.00016 1 1.0004 0.999756
1.00116 1 1.0022 0.998958
1.00258 1.00511 1 0.99748
1.0041 1.00635 1 0.997757
1.02171 1.02463 1 0.997153
1.02088 1.02378 1 0.99716
0.999839 1 1.00018 0.999661
0.998605 1.00006 1.00006 0.998489
1.00441 1.00682 1 0.997606
1.01805 1.0208 1 0.99731
1.0314 1.03432 1 0.997176
1.01991 1.02281 1 0.99716
1.02466 1.02754 1 0.997194
1.02535 1.02819 1 0.997238
1.0005 1 1.00172 0.998782
1.00187 1 1.00351 0.998364
1.00019 1 1.00102 0.999173
1.02111 1.02408 1 0.997101
1.02201 1.0249 1 0.997177
1.03594 1.03892 1 0.997133
1.03263 1.03559 1 0.997133
1.02717 1.03005 1 0.997202
1.03139 1.0341 1 0.997376
0.998968 1 1.00031 0.998654
1.02695 1.02972 1 0.997306
0.999254 1.00137 1 0.997891
1.01172 1.0146 1 0.997155
1.02224 1.02526 1 0.997057
1.02247 1.02511 1 0.997425
0.999402 1 1.00003 0.999373
0.998744 1 1.00043 0.99831
1.00323 1 1.00476 0.998472
1.00016 1 1.002 0.998171
1.00534 1.00767 1 0.997686
0.999987 1 1 0.999987
0.999846 1 1 0.999846
1.00021 1 1.00103 0.999181
1.0012 1.00324 1 0.997969
1.0166 1.01946 1 0.99719
0.998793 1 1.00018 0.998609
0.998977 1.00096 1.00033 0.997689
1.00612 1.00862 1 0.997527
1.00708 1.00972 1 0.997389
0.999996 1 1 0.999996
0.999632 1 1.00076 0.998874
0.999798 1 1.00032 0.999476
1.001 1 1.00243 0.998574
1.02033 1.02328 1 0.997119
1.01148 1.01417 1 0.997354
1.02493 1.02798 1 0.997033
0.998691 1.00026 1.00045 0.997986
1.01365 1.01635 1 0.99735
1.00703 1.00796 1.00173 0.997357
1.01713 1.01984 1 0.997344
1 1 1 1
0.999654 1 1 0.999654
0.999033 1 1.00072 0.998312
1.0006 1 1.00174 0.998856
1.00007 1 1.00178 0.998288
1.02878 1.03184 1 0.997033
1.01948 1.02237 1 0.997165
1.02303 1.02602 1 0.997086
1.00344 1.00385 1.00199 0.997606
1.01551 1.01827 1 0.997285
1.01075 1.01284 1.00086 0.997085
0.999787 1 1 0.999787
0.999367 1 1 0.999367
0.999825 1 1 0.999825
0.999812 1 1 0.999812
1 1 1 1
1 1 1 1
1 1 1 1
1 1 1 1
1 1 1 1
0.99997 1 1 0.99997
1 1 1 1
0.999912 1 1 0.999912
1 1 1 1
1.00024 1 1.0004 0.999836
1 1 1 1
1.00628 1.00868 1 0.997626
1.00575 1.0082 1 0.997574
1.02439 1.02737 1 0.997103
1.02282 1.02584 1 0.997054
1.00358 1.00611 1 0.997484
0.998964 1 1 0.998964
1.00268 1.00522 1 0.997477
1.02192 1.02498 1 0.997017
1.0242 1.02719 1 0.997089
1.03711 1.04027 0.999791 0.997175
1.02324 1.02621 1 0.997106
1.03499 1.03796 1 0.997137
1.02142 1.02449 1 0.997008
1.03639 1.0398 0.999554 0.997167
1.03705 1.04 1 0.997157
1.03764 1.04157 0.998849 0.997368
1.03162 1.03463 1 0.997091
1.03546 1.0383 0.999849 0.997419
1.00257 1.00512 1 0.997455
1.00407 1.00633 1 0.997754
1.02185 1.02476 1 0.997157
1.02101 1.02388 1 0.997191
0.999793 1 1.00014 0.99965
0.998634 1.00015 1 0.998487
1.00519 1.00756 1 0.997642
1.01835 1.0211 1 0.997304
1.03156 1.03446 1 0.997196
1.02458 1.02746 1 0.997198
1.01917 1.0221 1 0.997129
1.02572 1.02857 1 0.997238
1.00001 1 1.00122 0.998784
1.00194 1 1.00358 0.998366
1.00057 1 1.0014 0.99917
1.02121 1.02421 1 0.997067
1.02219 1.02509 1 0.997175
1.03558 1.03854 0.999993 0.997158
1.03275 1.03572 1 0.997131
0.999008 1 1.00036 0.998652
1.00059 1.00271 1 0.997884
1.01055 1.01335 1.00003 0.997205
1.02735 1.03024 1 0.997192
1.03134 1.03401 1 0.997419
1.02247 1.02552 1 0.997023
1.02681 1.02958 1 0.997309
1.02252 1.02513 1 0.997454
0.999011 1 1.0007 0.998312
1.0002 1 1.00205 0.998151
0.999491 1 1.00012 0.999368
1.00292 1 1.00442 0.998502
1.03605 1.03904 1 0.99712
1.03507 1.03803 1 0.997157
1.03487 1.03904 0.998699 0.997284
1.0329 1.03637 0.999231 0.997423
1.02864 1.03134 1 0.997387
1.02994 1.03288 0.99956 0.997589
0.99827 1.00011 1 0.998161
1.02327 1.02573 1 0.997603
1.00277 1.0053 1 0.997483
1.01385 1.0168 1.00018 0.996922
1.02357 1.02664 1 0.997004
1.02222 1.02479 1 0.997493
0.999518 1 1 0.999518
1.00053 1 1.00185 0.998687
0.998104 1 1 0.998104
1.00256 1 1.00432 0.998241
0.999257 1 1.00113 0.998125
0.999998 1 1 0.999998
1.02015 1.0231 1 0.997115
0.999505 1 1.00002 0.999484
1.00017 1 1.00129 0.998875
1.00144 1 1.00288 0.998568
1.0113 1.01398 1 0.997354
1.02484 1.02789 1 0.997031
0.99856 1.00006 1.00051 0.997992
1.00719 1.00792 1.00193 0.997346
1.01388 1.01656 1 0.997361
1.01759 1.02023 1 0.997413
1 1 1 1
0.999662 1 1 0.999662
0.998992 1 1.00068 0.998313
1.00082 1 1.00197 0.998856
1.00047 1 1.00221 0.998267
1.02892 1.03199 1 0.997027
1.01974 1.02264 1 0.997164
1.02292 1.02592 1 0.997075
1.00247 1.00273 1.00213 0.997611
1.01817 1.02093 1 0.997291
1.01029 1.01225 1.00096 0.997104
0.999744 1 1 0.999744
0.999371 1 1.00026 0.999111
0.999005 1.00053 1.00048 0.997995
1.00194 1 1.00344 0.998504
0.999739 1 1.00157 0.998173
1.02739 1.03032 1 0.997153
1.01855 1.02145 1 0.997159
1.02122 1.02401 1 0.997268
1.00218 1.001 1.00379 0.997398
1.00876 1.01181 1 0.996986
0.99979 1 1 0.99979
0.999299 1 1 0.999299
0.999344 1 1 0.999344
0.999118 1 1 0.999118
0.999377 1 1 0.999377
0.999831 1 1 0.999831
0.999827 1 1 0.999827
1 1 1 1
0.999814 1 1 0.999814
1 1 1 1
1 1 1 1
1 1 1 1
1 1 1 1
1 1 1 1
0.999994 1 1 0.999994
0.999958 1 1 0.999958
1 1 1 1
1 1 1 1
0.999898 1 1 0.999898
1 1 1 1
1.02283 1.02581 1 0.997103
1.02399 1.02698 1 0.997088
1.03483 1.0378 1 0.997135
1.03688 1.04026 0.999552 0.997191
1.02167 1.02473 1 0.997017
1.00276 1.0053 1 0.997477
1.02119 1.02426 1 0.997008
1.03642 1.03977 0.999611 0.997161
1.03692 1.03987 1 0.997157
1.03712 1.04141 0.998479 0.997399
1.03222 1.03524 1 0.997085
1.03505 1.03816 0.999561 0.99744
1.03575 1.03905 0.999688 0.997135
1.03642 1.04133 0.997937 0.997336
1.03648 1.04019 0.998977 0.997455
1.03462 1.04091 0.996412 0.997528
1.03204 1.03482 1 0.997308
1.03424 1.03807 0.99867 0.997637
1.02119 1.02423 1 0.997033
1.02234 1.02524 1 0.997173
1.03512 1.03806 0.999986 0.997183
1.03282 1.0358 1 0.997128
0.998999 1 1.00035 0.99865
1.00176 1.00389 1 0.997878
1.00944 1.01204 1.00018 0.997256
1.02755 1.03045 1 0.997182
1.03122 1.03384 1 0.997461
1.02668 1.02945 1 0.997313
1.02273 1.02582 1 0.996988
1.02232 1.0249 1 0.997483
0.999232 1 1.00092 0.998314
1.00022 1 1.00209 0.998131
0.999642 1 1.00028 0.999364
1.00236 1 1.00383 0.998533
1.03597 1.03896 1 0.99712
1.03459 1.03756 1 0.997137
1.0347 1.03878 0.998755 0.997315
1.03331 1.03645 0.999557 0.997405
0.998446 1.00029 1 0.998154
1.00265 1.0051 1.00003 0.997529
1.01418 1.01693 1.00039 0.996913
1.02817 1.0309 1 0.997349
1.0294 1.0323 0.999553 0.997645
1.02215 1.02523 1 0.996991
1.02396 1.02641 1 0.997605
1.02315 1.02567 1 0.997543
0.998196 1.00009 1 0.998101
0.998964 1.0001 1.00074 0.998131
1.0032 1 1.00497 0.998234
0.999482 1 1 0.999482
1.00049 1 1.00177 0.998716
1.03506 1.04041 0.997523 0.997325
1.0345 1.03882 0.998472 0.997366
1.03063 1.03581 0.997355 0.997632
1.02599 1.02917 0.999244 0.99766
0.998885 1.00099 1 0.997898
1.02742 1.02971 1 0.997776
1.00226 1.00475 1.00029 0.997233
1.01251 1.01535 1.00051 0.996695
1.02038 1.02347 1 0.99698
0.999589 1 1 0.999589
0.999359 1 1.0004 0.998959
1.00138 1 1.00294 0.998453
0.998206 1.00015 1 0.998052
1.00301 1 1.00498 0.998037
0.998158 1 1.00011 0.998047
1 1 1 1
0.999669 1 1 0.999669
1.02908 1.03216 1 0.997022
1.0011 1 1.00225 0.998856
0.998794 1 1.00048 0.998315
1.00101 1 1.00277 0.998246
1.01987 1.02277 1 0.997163
1.02265 1.02566 1 0.997065
1.00131 1.00141 1.00229 0.997617
1.00914 1.01127 1.00077 0.997123
1.02069 1.02346 1 0.997297
0.999749 1 1 0.999749
0.999281 1 1.00017 0.999115
0.998693 1.00028 1.00041 0.997996
1.00258 1 1.00409 0.9985
0.999758 1 1.00159 0.998171
1.02739 1.03033 1 0.997146
1.01889 1.0218 1 0.997149
1.02094 1.02371 1 0.997294
1.00211 1.00151 1.00324 0.997361
1.00756 1.01058 1.00006 0.996957
0.999267 1 1 0.999267
1.00111 1 1.00241 0.998704
1.0008 1.00095 1.002 0.997857
1.00209 1 1.00385 0.998245
0.999061 1 1.001 0.998068
1.0276 1.03011 0.999968 0.99759
1.01666 1.01965 1 0.997067
1.01759 1.02033 1 0.997315
1.00387 1.00235 1.00433 0.997197
1.00153 1.00478 1 0.996768
0.999793 1 1 0.999793
0.999317 1 1 0.999317
0.999034 1 1 0.999034
0.999322 1 1 0.999322
0.999376 1 1 0.999376
0.999086 1 1 0.999086
0.998947 1 1 0.998947
0.999048 1 1 0.999048
0.999381 1 1 0.999381
0.999827 1 1 0.999827
0.999831 1 1 0.999831
1 1 1 1
0.999828 1 1 0.999828
1 1 1 1
1 1 1 1
1 1 1 1
1 1 1 1
1 1 1 1
1 1 1 1
0.999989 1 1 0.999989
1 1 1 1
0.999946 1 1 0.999946
1 1 1 1
1 1 1 1
1.03276 1.03579 1 0.997079
1.03657 1.03952 1 0.997156
1.03463 1.03803 0.99926 0.997461
1.03657 1.04118 0.99813 0.997431
1.03651 1.03979 0.999683 0.997155
1.02108 1.02415 1 0.997009
1.0362 1.03937 0.999837 0.997115
1.03666 1.04136 0.998156 0.997328
1.03662 1.0401 0.99921 0.997436
1.03392 1.04054 0.996096 0.997542
1.03139 1.03417 1 0.997308
1.03308 1.03722 0.99833 0.99768
1.0361 1.04076 0.998211 0.997309
1.03516 1.04219 0.99573 0.997521
1.03458 1.0413 0.995893 0.99764
1.03145 1.03531 0.998549 0.997721
1.036 1.03899 1 0.997121
1.03414 1.03713 1 0.997117
1.03457 1.03855 0.998818 0.997345
1.03378 1.03663 0.999863 0.997388
0.998721 1.00057 1 0.998147
1.00238 1.00482 1 0.997575
1.01446 1.01702 1.00058 0.996904
1.02763 1.0304 1 0.997311
1.02887 1.03173 0.999524 0.997701
1.02484 1.0273 1 0.997607
1.021 1.02409 1 0.996977
1.02445 1.02693 1 0.997592
0.998434 1.00034 1 0.998099
0.998587 1.00018 1.00027 0.998137
1.00458 1 1.00636 0.998227
0.999447 1 1 0.999447
1.00054 1 1.0018 0.998745
1.03557 1.04065 0.997783 0.997327
1.03453 1.03894 0.99839 0.997365
1.0305 1.03525 0.997782 0.997621
0.999689 1.0018 1 0.997891
1.00304 1.00552 1.00026 0.997278
1.01209 1.01468 1.00076 0.996684
1.0266 1.02977 0.999264 0.997648
1.02081 1.02381 1 0.997065
1.02514 1.02761 0.999851 0.99775
0.999608 1 1 0.999608
0.998779 1.00074 1 0.998042
0.998198 1 1.00005 0.99815
1.00331 1 1.00529 0.998022
1.00152 1 1.00306 0.998468
0.999348 1 1.00042 0.99893
1.03371 1.04117 0.995413 0.997411
1.0326 1.04129 0.994087 0.997549
1.02508 1.03314 0.994467 0.997719
1.02893 1.03393 0.997299 0.997862
1.0002 1.00248 1 0.997728
1.0206 1.02326 1 0.997409
1.00288 1.00445 1.00165 0.996804
1.00675 1.00919 1.00104 0.99654
0.99974 1 1 0.99974
0.999153 1 1 0.999153
0.999537 1 1.00089 0.998647
1.00321 1 1.00509 0.998133
0.998603 1.00058 1.0001 0.997921
1.00297 1 1.00511 0.997875
0.999754 1 1 0.999754
0.999128 1 1.00001 0.999118
1.02758 1.03052 1 0.99714
1.00284 1 1.00435 0.998496
0.998266 1 1.00027 0.997997
0.999671 1 1.0015 0.998169
1.01951 1.02243 1 0.997139
1.02092 1.02366 1 0.99732
1.00229 1.00225 1.00273 0.997324
1.00643 1.00926 1.00027 0.996928
0.99927 1 1 0.99927
1.00092 1 1.00222 0.998708
1.00042 1.00057 1.00198 0.99787
1.00219 1 1.00394 0.998251
0.998623 1 1.00048 0.998148
1.02807 1.03067 0.99984 0.997628
1.016 1.01898 1 0.997076
1.01896 1.02163 1 0.997389
1.00329 1.00156 1.00458 0.997159
1.00209 1.00537 1.00003 0.996714
0.998951 1 1 0.998951
1.00203 1 1.00368 0.998357
1.00239 1.0009 1.00378 0.99771
0.999495 1 1.00155 0.997944
1.02958 1.04068 0.991447 0.997863
1.02189 1.02438 0.999872 0.997695
1.00942 1.01261 1 0.996849
1.00357 1.00254 1.00426 0.99679
0.999334 1 1 0.999334
0.999047 1 1 0.999047
0.998919 1 1 0.998919
0.999376 1 1 0.999376
0.999055 1 1 0.999055
0.99938 1 1 0.99938
0.998934 1 1 0.998934
0.999061 1 1 0.999061
0.998865 1 1 0.998865
0.998877 1 1 0.998877
0.999022 1 1 0.999022
0.999366 1 1 0.999366
0.999816 1 1 0.999816
0.999826 1 1 0.999826
1 1 1 1
0.999831 1 1 0.999831
1 1 1 1
1 1 1 1
1 1 1 1
1 1 1 1
1 1 1 1
1 1 1 1
0.999999 1 1 0.999999
1 1 1 1
0.999984 1 1 0.999984
1 1 1 1
1 1 1 1
1.03064 1.03342 1 0.997307
1.03685 1.0401 0.99945 0.997417
1.03198 1.03639 0.998013 0.997722
1.03326 1.04018 0.995776 0.997556
1.0369 1.04139 0.998365 0.99732
1.03662 1.03964 1 0.997095
1.03584 1.04068 0.998035 0.99731
1.03468 1.0416 0.995829 0.997512
1.03389 1.04068 0.995829 0.997639
1.03321 1.03689 0.998718 0.997728
1.03488 1.04184 0.995852 0.997464
1.0355 1.04603 0.992232 0.997685
1.03597 1.0441 0.994431 0.997773
1.03604 1.04085 0.99804 0.99733
1.03455 1.03903 0.998319 0.997363
1.03042 1.03465 0.9983 0.997611
1.00047 1.00259 1 0.997884
1.00382 1.00633 1.00018 0.997323
1.01133 1.01385 1.00085 0.996673
1.02719 1.03035 0.999299 0.997636
1.02273 1.02528 0.999782 0.997724
1.02101 1.02393 1 0.997151
0.999237 1.00121 1 0.998031
0.998252 1 1 0.998252
1.00342 1 1.00543 0.998006
0.999626 1 1 0.999626
1.00105 1 1.00257 0.998483
0.999273 1 1.00037 0.9989
1.03442 1.04147 0.995799 0.997419
1.03255 1.0414 0.993926 0.997557
1.02542 1.03282 0.995109 0.997712
1.00015 1.00244 1 0.997717
1.0024 1.00412 1.0014 0.996888
1.00633 1.00886 1.0009 0.996592
1.02901 1.0337 0.997592 0.997869
1.02068 1.02345 0.999898 0.997394
0.999785 1 1 0.999785
0.999153 1 1 0.999153
0.998273 1.00031 1 0.997964
1.00458 1.00007 1.00655 0.997974
1.00327 1 1.00511 0.998161
0.999482 1 1.00086 0.998623
1.03366 1.04396 0.992507 0.997605
1.02504 1.03904 0.988814 0.997682
1.02379 1.03345 0.992733 0.99791
1.02085 1.02635 0.996752 0.997889
1.00086 1.00256 1.00088 0.997422
1.00575 1.00764 1.0014 0.996731
1.00286 1.00363 1.00264 0.996601
0.99989 1 1 0.99989
0.999489 1 1 0.999489
0.999272 1 1 0.999272
0.998799 1 1.00003 0.998771
1.00033 1 1.00198 0.99835
1.00511 1 1.0071 0.998027
0.998 1 1 0.998
1.02216 1 1.02406 0.998147
0.999272 1 1 0.999272
1.00095 1 1.00224 0.998712
1.02844 1.03115 0.999711 0.997667
1.00262 1 1.00437 0.998257
1.00022 1.00019 1.00215 0.997883
0.998263 1 1.00004 0.998228
1.01502 1.01798 1 0.997085
1.02013 1.02272 1 0.997462
1.00285 1.00092 1.00482 0.997123
1.0028 1.00616 1 0.99666
0.99897 1 1.00004 0.998927
1.0021 1 1.00373 0.998371
1.00262 1.00074 1.00415 0.997737
0.999355 1 1.00138 0.997977
1.03105 1.04164 0.991934 0.997879
1.02171 1.02417 0.999949 0.997652
1.0105 1.01365 1 0.99689
1.00411 1.00361 1.00377 0.996742
0.999324 1 1.00059 0.99873
1.0285 1.04439 0.986883 0.997882
1.00117 1 1.00309 0.998084
1.00157 1.00144 1.00268 0.997458
1.02915 1.03399 0.99735 0.997968
1.01058 1.01363 1 0.996986
1.00499 1.00519 1.00323 0.996584
0.99906 1 1 0.99906
0.998914 1 1 0.998914
0.99885 1 1 0.99885
0.999379 1 1 0.999379
0.999074 1 1 0.999074
0.998921 1 1 0.998921
0.999364 1 1 0.999364
0.999026 1 1 0.999026
0.998856 1 1 0.998856
0.998899 1 1 0.998899
0.998826 1 1 0.998826
0.998803 1 1 0.998803
0.998835 1 1 0.998834
0.998997 1 1 0.998997
0.999329 1 1 0.999329
0.9998 1 1 0.9998
0.999814 1 1 0.999814
1 1 1 1
0.999825 1 1 0.999825
1 1 1 1
1 1 1 1
1 1 1 1
1 1 1 1
1 1 1 1
0.999918 1 1 0.999918
1 1 1 1
1 1 1 1
1 1 1 1
0.999999 1 1 0.999999
1 1 1 1
1 1 1 1
1.035 1.03851 0.998885 0.997735
1.03317 1.03999 0.995793 0.997639
1.03417 1.041 0.99593 0.997503
1.03557 1.04061 0.997845 0.99731
1.03442 1.04176 0.995468 0.997483
1.03562 1.04577 0.992609 0.997674
1.03522 1.04366 0.994123 0.997783
1.03531 1.04609 0.992021 0.997661
1.04047 1.0521 0.991137 0.997792
1.02564 1.04358 0.98476 0.998024
1.03515 1.0418 0.996186 0.997426
1.03245 1.04157 0.993662 0.997565
1.02556 1.03248 0.995578 0.997705
1.00029 1.00253 1.00006 0.997706
1.00198 1.00375 1.00126 0.996972
1.00635 1.00895 1.00078 0.996644
1.02923 1.03362 0.997868 0.997877
1.02064 1.02357 0.999757 0.997379
0.998007 1 1 0.998007
1.00637 1.00025 1.00806 0.998072
1.00401 1 1.00583 0.998189
0.99983 1 1 0.99983
0.999153 1 1 0.999153
0.99969 1 1.00109 0.998599
1.03369 1.04431 0.9922 0.997617
0.999886 1 1 0.999886
0.999465 1 1 0.999465
1.02465 1.03822 0.989225 0.997682
1.02368 1.0337 0.992409 0.997878
1.00014 1.00167 1.00096 0.997513
1.00328 1.00341 1.0033 0.996582
1.00636 1.00881 1.00084 0.996729
1.01973 1.02539 0.996599 0.99787
0.999339 1 1 0.999339
0.998799 1 1.00003 0.998766
0.99839 1.00016 1.00032 0.997917
1.01731 1.00002 1.01905 0.998277
1.00419 1 1.00617 0.998029
1.00083 1 1.00246 0.998367
1.03939 1.05101 0.991174 0.997752
1.01143 1.03651 0.97794 0.997822
1.01885 1.03028 0.990803 0.998079
1.00445 1.01082 0.996099 0.997588
1.00142 1.001 1.0029 0.997531
1.00377 1.00183 1.00547 0.996487
0.999468 1 1 0.999468
0.999437 1 1 0.999437
0.999187 1 1 0.999187
0.998841 1 1 0.998841
0.999022 1 1.00047 0.998551
1.00032 1 1.00223 0.998091
1.03047 1 1.03252 0.998013
1.0013 1.00002 1.00298 0.998298
0.999031 1 1.00013 0.998904
1.00182 1 1.00344 0.998387
1.03207 1.04199 0.992566 0.997895
1.0216 1.02405 1 0.99761
0.999157 1 1.00115 0.99801
1.00269 1.00053 1.00441 0.997764
1.01189 1.01497 1.00004 0.99693
1.00447 1.00443 1.00335 0.996695
0.999414 1 1.00069 0.99872
1.02991 1.0465 0.986201 0.997919
1.0011 1 1.00301 0.998103
1.00118 1.00108 1.00269 0.997415
1.02777 1.03329 0.996707 0.997941
1.01075 1.01374 1 0.997047
1.00509 1.00502 1.00348 0.996599
1.00049 1 1.00207 0.998425
1.0182 1.03395 0.986437 0.998305
1.00098 1.00128 1.00185 0.997852
1.0028 1.00192 1.00379 0.997097
1.01399 1.02011 0.996413 0.997583
1.00228 1.00333 1.00221 0.996754
0.998268 1.00636 0.993746 0.998207
0.998909 1 1 0.998909
0.99898 1 1.00013 0.998847
0.998837 1 1.0001 0.998735
0.999361 1 1 0.999361
0.999029 1 1 0.999029
0.998921 1 1 0.998921
0.998846 1 1 0.998846
0.999328 1 1 0.999328
0.998986 1 1 0.998986
0.998802 1 1 0.998802
0.998836 1 1 0.998834
0.99881 1 1 0.99881
0.99878 1 1 0.99878
0.998914 1 1.00023 0.998689
0.998837 1 1.00002 0.998819
0.998911 1 1 0.998911
0.999242 1 1 0.999242
0.999054 1 1 0.999054
0.999231 1 1 0.999231
0.999791 1 1 0.999791
0.999799 1 1 0.999799
1 1 1 1
0.999813 1 1 0.999813
1 1 1 1
1 1 1 1
1 1 1 1
1 1 1 1
1 1 1 1
0.999937 1 1 0.999937
0.999916 1 1 0.999916
1 1 1 1
1 1 1 1
1 1 1 1
1 1 1 1
1 1 1 1
1 1 1 1
1.03459 1.04341 0.993739 0.997794
1.0357 1.04553 0.992923 0.997663
1.03397 1.04168 0.995086 0.997502
1.03523 1.04593 0.992094 0.997659
1.03867 1.05024 0.991179 0.997789
1.02639 1.04313 0.985951 0.997979
1.04007 1.05415 0.988767 0.997855
0.987556 1.01598 0.97485 0.997103
1.00832 1.03112 0.979267 0.998596
0.999559 1 1 0.999559
1.0337 1.04459 0.991931 0.997628
1.02466 1.03748 0.989928 0.997683
1.02374 1.03402 0.992201 0.997847
0.999446 1.00103 1.00082 0.997602
1.00348 1.00291 1.00402 0.996562
1.00691 1.00976 1.00045 0.996728
1.0184 1.02421 0.996468 0.99785
0.998009 1.00018 1 0.997835
1.01226 1 1.01387 0.998408
1.00299 1 1.00497 0.998031
0.999881 1 1 0.999881
1.0011 1 1.00272 0.998384
0.999406 1 1 0.999406
0.998762 1 1 0.998762
0.99944 1 1 0.99944
1.03747 1.05133 0.989037 0.997759
0.999502 1 1 0.999502
0.999436 1 1 0.999436
0.999148 1 1 0.999148
1.0137 1.03613 0.980485 0.997823
1.01903 1.03064 0.990682 0.998033
1.00036 1.0009 1.00191 0.997552
1.00384 1.00173 1.00556 0.996559
1.00356 1.00913 0.996898 0.997579
0.99888 1 1 0.99888
0.999095 1 1.00058 0.998517
1.00547 1 1.00726 0.998217
1.02467 1 1.02667 0.998051
1.00014 1 1.00202 0.998123
1.02706 1.04366 0.986219 0.997846
1.00768 1.03643 0.974258 0.997947
1.01142 1.01921 0.994571 0.997775
0.998101 1.00398 0.996765 0.997371
1.0032 1 1.00538 0.99783
0.999098 1 1 0.999098
0.999002 1 1 0.999002
0.998883 1 1 0.998883
0.998864 1 1.00024 0.998624
0.999993 1 1.00165 0.998349
1.02106 1 1.02304 0.998063
1.02143 1 1.02346 0.998012
0.999436 1 1.00073 0.998709
1.001 1 1.00289 0.998121
1.03077 1.04913 0.984507 0.997955
1.02644 1.0328 0.995913 0.997914
1.01057 1.0135 1 0.997109
1.00087 1.00083 1.00268 0.997373
1.00492 1.00472 1.0036 0.996614
1.00039 1 1.00193 0.998466
1.01596 1.03375 0.984444 0.998325
1.00003 1.00081 1.00135 0.997875
1.00242 1.00125 1.00408 0.997105
1.0147 1.02052 0.99661 0.997676
1.00222 1.00277 1.00272 0.99674
0.997457 1.00616 0.993787 0.997544
1.00013 1 1.00185 0.998285
1.00703 1.01975 0.989212 0.998295
1.00034 1.00053 1.00194 0.997862
1.00432 1.00074 1.00642 0.997182
0.996559 1.0058 0.993436 0.997359
0.945855 0.982892 0.979011 0.982949
0.95753 0.982094 0.983347 0.991499
0.984381 0.994752 0.991328 0.998231
0.818634 0.881094 0.953993 0.973917
0.762574 0.869364 0.906306 0.967844
0.998958 1 1.00011 0.998844
0.999098 1 1.00034 0.99876
0.998759 1 1.00001 0.998752
0.999327 1 1 0.999327
0.998975 1 1 0.998975
0.998834 1 1 0.998834
0.998817 1 1 0.998817
0.998778 1 1 0.998778
0.999083 1 1.00029 0.998796
0.999269 1 1 0.999269
0.998926 1 1 0.998926
0.998772 1 1 0.998772
0.999163 1 1.00046 0.998703
0.999769 1 1.00106 0.99871
0.999944 1 1.00123 0.998715
0.999028 1 1.0003 0.998729
0.998881 1 1 0.998881
0.999224 1 1 0.999224
0.998953 1 1 0.998953
0.998883 1 1 0.998883
0.999043 1 1 0.999043
0.999021 1 1 0.999021
0.999312 1 1 0.999312
0.999228 1 1 0.999228
0.999786 1 1 0.999786
0.99979 1 1 0.99979
1 1 1 1
0.999798 1 1 0.999798
1 1 1 1
1 1 1 1
1 1 1 1
1 1 1 1
1 1 1 1
0.999948 1 1 0.999948
0.999933 1 1 0.999933
1 1 1 1
0.999913 1 1 0.999913
1 1 1 1
1 1 1 1
1 1 1 1
1 1 1 1
1 1 1 1
1.03672 1.04825 0.991199 0.997786
1.03519 1.0458 0.992186 0.997657
1.02754 1.04278 0.987424 0.997933
0.991764 1.01583 0.979092 0.997159
1.03758 1.05183 0.988572 0.997853
1.01614 1.03372 0.984476 0.998494
1.03219 1.0407 0.993865 0.997939
0.95025 0.983537 0.975262 0.990663
1.00031 1.01935 0.983591 0.997691
0.999565 1 1 0.999565
0.999557 1 1 0.999557
0.999197 1 1 0.999197
0.999234 1 1 0.999234
1.03567 1.05152 0.987127 0.997767
1.0151 1.03523 0.982696 0.997824
1.01899 1.03079 0.99055 0.997987
0.999271 1.00068 1.00102 0.997574
1.00377 1.00179 1.00536 0.99663
1.0028 1.00792 0.997344 0.99757
1.00997 1 1.01186 0.998134
1.01906 1 1.02101 0.998089
0.999818 1 1.00167 0.998154
0.999435 1 1 0.999435
0.99898 1 1.0005 0.998482
0.99892 1 1 0.99892
0.999535 1 1 0.999535
0.999108 1 1 0.999108
1.02471 1.04324 0.98434 0.99786
0.999144 1 1 0.999144
0.999043 1 1 0.999043
0.998946 1 1 0.998946
1.01078 1.03861 0.975205 0.997947
1.01011 1.01852 0.993954 0.997773
1.00282 1.00004 1.00498 0.997814
0.999028 1.00439 0.997251 0.997408
0.999053 1 1.00044 0.998608
0.999529 1 1.00123 0.998302
1.02367 1 1.02572 0.998004
1.02206 1 1.02408 0.998028
1.00486 1.035 0.972852 0.997975
1.00164 1.027 0.97735 0.997907
1.00403 1.00801 0.998574 0.997472
0.993323 1.00034 0.994874 0.998107
0.998768 1 1 0.998768
0.999368 1 1.00066 0.998714
1.00704 1 1.00861 0.998448
1.03699 1 1.03916 0.997913
0.922979 0.971984 0.9674 0.981582
1.00067 1 1.00217 0.998506
0.999291 1.0003 1.00109 0.997897
1.01453 1.03339 0.983384 0.998344
1.01564 1.02116 0.996816 0.997769
1.00251 1.0025 1.0033 0.996726
1.00214 1.00058 1.00447 0.997112
0.997625 1.00601 0.994776 0.996868
1.00018 1 1.00186 0.998325
1.00786 1.02026 0.98955 0.998284
0.999824 1.00052 1.00144 0.997874
1.004 1.00072 1.00611 0.99718
0.999029 1.0068 0.994885 0.997379
0.944607 0.986577 0.975316 0.981692
0.952901 0.979738 0.983054 0.989374
0.984423 0.992858 0.993242 0.998251
0.818999 0.879219 0.956221 0.974155
0.747025 0.858198 0.901897 0.96514
0.999558 1 1.00104 0.998516
0.845107 0.90216 0.96055 0.975233
0.805634 0.873902 0.951055 0.969324
0.987365 1.00713 0.982163 0.998174
1.00532 1.00066 1.00659 0.998077
1.01195 1.00392 1.01046 0.997564
0.975745 0.988768 0.988399 0.998411
0.940352 0.971199 0.98632 0.981667
0.935743 0.957781 0.988465 0.988391
0.796496 0.880235 0.928163 0.974901
0.822935 0.915109 0.927759 0.969299
0.999545 1 1.00076 0.998785
0.999413 1 1.00068 0.998738
1.00015 1 1.00119 0.998962
0.999296 1 1 0.999296
0.998942 1 1 0.998942
0.999299 1 1.00053 0.998774
0.999393 1 1.00068 0.998717
0.998765 1 1 0.998765
0.999225 1 1 0.999225
0.999694 1 1.00099 0.998704
0.999309 1 1.00056 0.998746
0.998908 1 1 0.998908
0.999715 1 1.001 0.99872
1.00065 1 1.00195 0.998697
1.00124 1 1.00248 0.998765
0.998712 1 1 0.998712
0.998914 1 1 0.998914
0.998949 1 1 0.998949
0.998874 1 1 0.998874
0.998781 1 1 0.998781
0.998905 1 1.00003 0.998874
0.998924 1 1.0001 0.998828
0.999122 1 1.00041 0.998709
0.999039 1 1.00002 0.999018
0.999042 1 1 0.999042
0.999334 1 1 0.999334
0.998987 1 1 0.998987
0.999289 1 1 0.999289
0.999782 1 1 0.999782
0.999226 1 1 0.999226
0.999786 1 1 0.999786
1 1 1 1
0.99979 1 1 0.99979
1 1 1 1
1 1 1 1
1 1 1 1
1 1 1 1
1 1 1 1
0.999535 1 1 0.999535
0.999948 1 1 0.999948
0.999946 1 1 0.999946
1 1 1 1
0.99993 1 1 0.99993
1 1 1 1
1 1 1 1
1 1 1 1
1 1 1 1
1 1 1 1
0.994707 1.01579 0.981975 0.997218
1.03572 1.04948 0.989012 0.997852
1.02145 1.03634 0.987216 0.99839
0.94476 0.97774 0.974412 0.991643
1.00042 1.01907 0.983855 0.997809
1.03363 1.04384 0.992302 0.997897
1.01508 1.02522 0.992461 0.997633
0.958288 0.979467 0.98572 0.992551
0.946156 0.980916 0.983017 0.981228
0.803325 0.875346 0.941983 0.974246
0.740682 0.839068 0.912637 0.967246
0.999188 1 1 0.999188
0.999564 1 1 0.999564
0.999555 1 1 0.999555
0.999184 1 1 0.999184
0.99896 1 1 0.99896
0.998994 1 1 0.998994
0.999164 1 1 0.999164
0.999207 1 1 0.999207
1.02221 1.04326 0.981909 0.997874
1.01485 1.04185 0.976097 0.997946
1.0091 1.01786 0.99361 0.997772
1.00286 1.00014 1.00493 0.9978
1.00004 1.00445 0.998162 0.997446
1.02567 1 1.02773 0.997996
1.02356 1 1.02562 0.997993
0.999321 1 1.00107 0.998255
0.999084 1 1 0.999084
0.998954 1 1.00036 0.998593
0.99919 1 1 0.99919
0.99901 1 1 0.99901
1.0056 1.03547 0.973131 0.997968
0.998796 1 1 0.998796
0.998966 1 1.00023 0.998741
1.00192 1.0264 0.978222 0.997884
1.00162 1.00754 0.996529 0.997588
0.995527 1.00072 0.996784 0.99802
1.01003 1 1.01168 0.998366
1.03314 1 1.03529 0.997928
0.999668 1.02668 0.975681 0.99796
0.985756 1.00808 0.979875 0.997943
0.988966 1.00082 0.990173 0.997965
1.00047 1.00025 1.00203 0.998189
0.999206 1 1.00067 0.998535
1.00338 1 1.0049 0.998491
1.03149 1 1.03338 0.998168
0.83457 0.908707 0.94096 0.976041
0.938469 0.976923 0.976507 0.983748
0.999763 1 1.0014 0.998364
0.999417 1.00047 1.00107 0.997887
1.00892 1.02103 0.989844 0.998275
1.00129 1.00776 0.996166 0.997399
1.00359 1.00072 1.00571 0.99718
0.940374 0.977737 0.979957 0.981458
0.957902 0.985745 0.981561 0.990009
0.985324 0.991563 0.995435 0.998264
0.816017 0.880712 0.950061 0.975244
0.734147 0.84717 0.900462 0.962381
0.999545 1 1.00103 0.998515
0.839874 0.906189 0.949919 0.975683
0.798176 0.866939 0.951084 0.968035
0.988826 1.00796 0.982818 0.998169
1.00503 1.0007 1.00623 0.998102
1.01007 1.00225 1.01011 0.997713
0.967599 0.982718 0.986068 0.998526
0.945529 0.979968 0.984504 0.980043
0.937249 0.962264 0.983406 0.990439
0.799869 0.875209 0.938871 0.973423
0.820062 0.917497 0.922862 0.968513
1.00106 1 1.00224 0.99882
0.83452 0.884219 0.971965 0.971015
0.905859 0.94714 0.97911 0.976821
0.989655 0.999605 0.991303 0.998732
1.0132 1.00235 1.01214 0.998705
0.978804 0.972701 1.00772 0.998568
0.921626 0.945322 0.983303 0.991489
0.924369 0.950258 0.99309 0.979524
0.81206 0.884369 0.942775 0.973972
0.852805 0.942566 0.930806 0.972027
0.999974 1 1.00125 0.998724
0.999797 1 1.00086 0.998934
1.00366 1 1.00451 0.999147
0.999225 1 1 0.999225
0.998936 1 1 0.998936
0.999618 1 1.00086 0.998764
0.99972 1 1.00102 0.998698
0.9995 1 1.00078 0.998725
0.998913 1 1 0.998913
0.999934 1 1.00124 0.998696
0.998714 1 1 0.998714
1.00244 1 1.00365 0.9988
1.01658 0.999894 1.01757 0.999133
0.999796 1 1.00112 0.998681
0.998681 1 1 0.998681
0.998946 1 1 0.998946
0.998865 1 1 0.998865
0.998777 1 1 0.998777
0.998894 1 1.00002 0.998869
0.998951 1 1.0001 0.998856
0.999223 1 1.00041 0.998813
0.998903 1 1.00014 0.99876
0.999063 1 1.00022 0.998846
0.998748 1 1.00013 0.998618
0.999086 1 1.00093 0.998159
0.999092 1 1.0005 0.998588
0.999091 1 1.00039 0.998706
0.999139 1 1.00019 0.99895
0.999088 1 1.00007 0.999016
0.999328 1 1 0.999328
0.999042 1 1 0.999042
0.999335 1 1 0.999335
0.99978 1 1 0.99978
0.999266 1 1 0.999266
0.999783 1 1 0.999783
1 1 1 1
0.999787 1 1 0.999787
1 1 1 1
1 1 1 1
1 1 1 1
1 1 1 1
1 1 1 1
0.999553 1 1 0.999553
0.999935 1 1 0.999935
0.999536 1 1 0.999536
1 1 1 1
0.999949 1 1 0.999949
0.999943 1 1 0.999943
1 1 1 1
1 1 1 1
1 1 1 1
1 1 1 1
1 1 1 1
0.835794 0.896392 0.956785 0.97451
0.806373 0.874375 0.951036 0.969709
0.947328 0.98173 0.972606 0.992136
1.00227 1.01871 0.985906 0.997928
1.0364 1.04691 0.992092 0.997855
0.945552 0.968085 0.982726 0.993892
1.01422 1.02464 0.992098 0.997715
0.952573 0.988329 0.980968 0.982522
0.814444 0.880678 0.949544 0.973933
0.73432 0.841423 0.904838 0.964495
0.974694 0.997045 0.982032 0.995469
0.943648 0.974036 0.986388 0.982171
0.790394 0.876388 0.925643 0.974325
0.810417 0.905758 0.924439 0.967873
0.998934 1 1.00008 0.998853
0.999212 1 1 0.999212
0.999563 1 1 0.999563
0.999172 1 1 0.999172
0.998999 1 1 0.998999
0.999233 1 1.00037 0.998862
0.998987 1 1 0.998987
0.998972 1 1 0.998972
0.999133 1 1 0.999133
0.99918 1 1 0.99918
1.00673 1.0354 0.974294 0.997962
1.00065 1.02453 0.978776 0.997864
0.999286 1.0074 0.994226 0.997704
0.997285 1.00097 0.998377 0.997934
1.02849 1 1.03061 0.997943
1.01367 1 1.01541 0.998284
0.998768 1 1 0.998768
0.998823 1 1 0.998823
0.999274 1.02696 0.974999 0.997988
0.999859 1 1.00135 0.998515
1.00347 1 1.00502 0.998457
0.985481 1.00656 0.981157 0.997862
0.987725 1.00043 0.989207 0.998073
1.00154 1.00084 1.00261 0.998093
1.02811 1 1.03003 0.998139
0.994866 1.00433 0.992272 0.998286
0.982352 1 0.983643 0.998688
1.01379 1.00043 1.0151 0.998278
1.00301 1 1.00453 0.99849
1.00226 1 1.00391 0.998349
1.01768 1 1.01946 0.998259
0.848489 0.894756 0.972577 0.97503
0.844402 0.907843 0.953107 0.97588
0.928815 0.975416 0.970042 0.981632
0.999486 1 1.00097 0.998514
1.00478 1.00068 1.00598 0.998126
0.99123 1.00862 0.984566 0.998165
1.00869 1.00069 1.01016 0.997861
0.831999 0.900575 0.946726 0.97584
0.94515 0.977581 0.984658 0.981889
0.928496 0.959306 0.979163 0.98848
0.963201 0.97793 0.986279 0.998641
0.799967 0.875314 0.939506 0.972766
0.800303 0.87156 0.948457 0.968144
0.807916 0.908434 0.917656 0.969154
1.00175 1 1.00293 0.998824
0.835768 0.887689 0.968374 0.972259
0.913155 0.952993 0.981062 0.976693
0.991589 0.999899 0.99286 0.99882
1.01303 1.00097 1.01339 0.998678
0.97585 0.971489 1.00583 0.998663
0.921161 0.948085 0.981906 0.989506
0.92713 0.954508 0.990085 0.981045
0.828178 0.901013 0.944022 0.973668
0.840345 0.93138 0.927624 0.972655
1.00464 0.999757 1.00544 0.999448
0.91505 0.953787 0.978246 0.98072
0.892041 0.941618 0.965939 0.980755
0.998968 0.98513 1.01434 0.999715
0.94149 0.946536 1.0002 0.994473
0.932127 0.948068 1.00307 0.980175
0.865466 0.920652 0.965929 0.973216
0.863419 0.958411 0.927053 0.971773
0.999591 1 1.00068 0.998907
1.0027 1 1.00356 0.99915
1.01717 1 1.01782 0.999366
0.998912 1 1 0.998912
0.998715 1 1 0.998715
0.999118 1 1.00042 0.998696
1.00332 1 1.00449 0.998837
0.998679 1 1 0.998679
1.00019 1 1.00152 0.998674
1.0189 1 1.01972 0.999193
1.02969 0.997281 1.03307 0.999446
1.01765 1 1.01859 0.999072
0.998654 1 1 0.998654
0.998773 1 1 0.998773
0.998864 1 1 0.998864
0.998883 1 1 0.998883
0.99881 1 1.00004 0.998774
0.999121 1 1.00031 0.998813
0.999227 1 1.00037 0.998855
0.999017 1 1.00026 0.998758
1.00167 1 1.00264 0.999036
0.998675 1 1 0.998675
0.998837 1 1.00019 0.998647
0.999013 1 1.00069 0.998319
0.999163 1 1.00153 0.997641
0.999998 1 1.0015 0.998496
0.999061 1 1.00079 0.99827
0.999055 1 1.00044 0.998618
0.999328 1 1.00052 0.998814
0.999084 1 1.00038 0.998704
0.999045 1 1.0001 0.998949
0.999278 1 1 0.999278
0.999086 1 1.00007 0.999014
0.999327 1 1 0.999327
0.999776 1 1 0.999776
0.999336 1 1 0.999336
0.999781 1 1 0.999781
1 1 1 1
0.999784 1 1 0.999784
1 1 1 1
1 1 1 1
1 1 1 1
1 1 1 1
1 1 1 1
0.999392 1 1 0.999392
0.999914 1 1 0.999914
0.999495 1 1 0.999495
1 1 1 1
0.999939 1 1 0.999939
0.999536 1 1 0.999536
1 1 1 1
1 1 1 1
0.999949 1 1 0.999949
1 1 1 1
1 1 1 1
1 1 1 1
0.834628 0.886236 0.967807 0.973093
0.840558 0.90381 0.954057 0.974802
0.911457 0.953821 0.978596 0.976485
0.798434 0.868114 0.949429 0.968723
0.943702 0.973779 0.977111 0.991814
1.01165 1.02408 0.990037 0.997802
0.959011 0.988356 0.986371 0.983716
0.818274 0.884333 0.949505 0.974509
0.732594 0.847107 0.899252 0.961709
0.972173 0.993811 0.983421 0.994719
0.94118 0.974333 0.985997 0.979692
0.803519 0.884468 0.933686 0.973001
0.811738 0.909227 0.923591 0.966638
0.953517 0.981646 0.977864 0.993333
0.936089 0.955059 1.00097 0.979187
0.828939 0.906006 0.940588 0.97273
0.847155 0.942404 0.926711 0.970021
0.999607 1 1.00095 0.998659
0.99889 1 1 0.99889
0.999237 1 1 0.999237
0.999038 1 1 0.999038
0.998686 1 1.00005 0.998633
0.998918 1 1.00003 0.998891
0.998981 1 1 0.998981
0.998938 1 1 0.998938
0.999003 1 1 0.999003
0.999102 1 1 0.999102
1.00038 1.02821 0.974873 0.998015
0.987229 1.00597 0.983549 0.997784
0.986679 1.00026 0.988222 0.99818
1.00365 1.00165 1.00401 0.998
1.02373 1 1.02567 0.99811
1.00289 1 1.00447 0.998423
1.00022 1 1.00172 0.998495
1.0021 1 1.00363 0.998473
0.991026 1.00506 0.987724 0.998295
1.00163 1 1.00329 0.998353
1.01715 1 1.01893 0.998252
0.981626 1.00034 0.982654 0.998618
1.01323 1.00111 1.01389 0.998247
0.963922 0.9889 0.975941 0.998771
0.999289 0.996806 1.00325 0.999247
1.02786 1 1.02941 0.998495
1.00093 1 1.00257 0.998363
1.00854 1 1.01028 0.998269
0.919565 0.953102 0.981731 0.982767
0.852587 0.894678 0.977463 0.974926
0.834886 0.902533 0.948358 0.975419
1.00236 1 1.00353 0.998828
1.01266 0.999578 1.01446 0.99865
0.991067 0.999654 0.992497 0.998905
0.84337 0.892828 0.970726 0.973091
0.936444 0.953829 1.00253 0.979296
0.921691 0.94698 0.982286 0.990848
0.965408 0.966975 0.999647 0.998732
0.828614 0.900455 0.944699 0.974085
0.918814 0.956958 0.983166 0.97658
0.842504 0.933305 0.927996 0.972752
1.0037 0.999273 1.00501 0.99942
0.911534 0.951821 0.975493 0.981733
0.893757 0.94316 0.966206 0.980764
1.001 0.98808 1.01352 0.999565
0.949193 0.952596 1.00233 0.994113
0.916887 0.943643 0.993017 0.978479
0.866182 0.959795 0.927836 0.972657
0.870028 0.923502 0.967767 0.973474
1.00446 0.990541 1.01434 0.999711
0.893078 0.937394 0.964941 0.98734
0.906049 0.957013 0.964416 0.981678
0.848312 0.942736 0.927551 0.970126
0.982857 0.970012 1.01473 0.998536
0.953773 0.960587 1.0121 0.981037
0.888743 0.932112 0.978904 0.97402
1.00239 1 1.00324 0.999151
1.01693 1 1.01765 0.999291
1.01869 0.993786 1.0255 0.999566
0.998677 1 1 0.998677
1.00048 1 1.00182 0.998668
1.0226 1 1.02337 0.999253
0.998664 1 1 0.998664
1.01655 1 1.01749 0.999083
1.03213 0.997406 1.03541 0.999421
1.01787 0.996356 1.02211 0.999489
1.01198 1 1.01292 0.999071
0.998787 1 1 0.998787
0.999018 1 1.00021 0.998813
0.999471 1 1.00061 0.998865
1.00105 1 1.00204 0.999014
0.999025 1 1.00026 0.998764
1.00064 1 1.00169 0.998955
0.998853 1 1 0.998853
1.00082 1 1.00276 0.998064
0.998923 1 1.00025 0.998676
0.998868 1.00003 1.00057 0.998269
0.998465 1 1.00101 0.997455
1.00047 1.00166 1.00129 0.997529
1.00052 1 1.00227 0.998254
0.999048 1 1.00138 0.997669
1.00069 1 1.00203 0.998669
1.00024 1 1.00177 0.998468
0.999026 1 1.00065 0.998381
0.999017 1 1.00037 0.998649
0.999225 1 1.00038 0.998847
0.999195 1 1 0.999195
0.998988 1 1.00004 0.998947
0.999277 1 1 0.999277
0.999753 1 1 0.999753
0.999325 1 1 0.999325
0.999774 1 1 0.999774
1 1 1 1
0.999781 1 1 0.999781
1 1 1 1
1 1 1 1
1 1 1 1
1 1 1 1
1 1 1 1
0.999212 1 1 0.999212
0.999782 1 1 0.999782
0.99939 1 1 0.99939
1 1 1 1
0.999876 1 1 0.999876
0.999437 1 1 0.999437
1 1 1 1
1 1 1 1
0.999942 1 1 0.999942
1 1 1 1
1 1 1 1
1 1 1 1
0.907806 0.951032 0.972547 0.981494
0.825988 0.884591 0.95917 0.973499
0.839437 0.900162 0.956839 0.974605
0.998829 1 1 0.998829
0.89532 0.938736 0.971146 0.982088
0.910701 0.953716 0.977983 0.976395
0.796027 0.871323 0.942616 0.969201
0.976953 0.995577 0.987429 0.993786
0.941378 0.971504 0.986963 0.98179
0.809876 0.896513 0.929084 0.972314
0.805935 0.900827 0.925265 0.966925
0.953646 0.980783 0.981264 0.990896
0.923858 0.950329 0.990993 0.980982
0.839538 0.909741 0.948586 0.97285
0.844972 0.937496 0.929181 0.970002
0.928136 0.955259 0.982641 0.988772
0.92988 0.943279 1.00706 0.978884
0.878556 0.931923 0.968518 0.973378
0.863707 0.957152 0.928604 0.971751
0.999611 1 1.00115 0.998464
1.00009 1 1.00147 0.998629
0.998926 1 1 0.998926
0.99864 1 1 0.99864
0.998864 1 1.00019 0.998679
0.998919 1 1 0.998919
0.998946 1 1 0.998946
0.999034 1 1 0.999034
0.985148 1.00531 0.98161 0.998302
0.979659 1.00015 0.980933 0.99855
1.00142 1 1.00297 0.998456
1.01318 1.0018 1.01317 0.998215
1.01849 1 1.02028 0.998244
1.00151 1 1.00316 0.998355
1.00124 1 1.00287 0.998371
0.969597 0.990966 0.97959 0.998822
1.01005 1 1.01177 0.998303
1.02284 1.00027 1.02409 0.998505
0.994141 0.99682 0.998023 0.999287
1.00026 1 1.00185 0.998418
0.960567 0.979712 0.981481 0.998959
1.00616 0.993063 1.01375 0.999454
1.04131 0.999807 1.04298 0.998591
1.00219 1 1.00376 0.998435
0.905516 0.940567 0.973726 0.988712
0.918929 0.952501 0.981562 0.982876
0.858034 0.894713 0.983774 0.974823
1.00218 0.998734 1.00405 0.999394
1.00473 0.991299 1.01414 0.99942
0.909307 0.950911 0.973048 0.982734
0.940027 0.947009 1.01212 0.980744
0.942575 0.951069 0.999606 0.99146
0.873705 0.927149 0.969001 0.972504
0.89481 0.944139 0.966335 0.98077
0.869965 0.962067 0.928844 0.973539
1.00648 0.993771 1.01312 0.999669
0.894199 0.938058 0.965475 0.987331
0.903992 0.954989 0.962838 0.983135
0.992136 0.976734 1.01607 0.999707
0.845434 0.937776 0.929356 0.970059
0.938244 0.949004 1.0089 0.97994
0.898643 0.943946 0.977982 0.97344
1.00659 0.988833 1.01819 0.999771
0.909678 0.953213 0.96532 0.988612
0.89509 0.9387 0.970839 0.982184
0.809436 0.906019 0.922942 0.96799
0.878113 0.932936 0.967337 0.973017
0.965919 0.963453 1.0054 0.997175
0.956272 0.954383 1.02503 0.977511
1.01428 1 1.01508 0.999216
1.01851 0.993446 1.0257 0.999535
1.00479 0.982268 1.02335 0.999582
0.998674 1 1 0.998674
1.01554 1 1.01646 0.999094
1.03295 0.998318 1.03531 0.999396
1.00827 1 1.00922 0.999055
1.01784 0.99716 1.02126 0.999488
1.00996 0.995878 1.01491 0.999243
1.00022 1 1.00123 0.998992
0.998973 1 1.0002 0.99877
1.00181 1 1.00289 0.99893
1.00647 1 1.00811 0.998376
0.999028 1 1 0.999028
1.00029 1 1.0021 0.998193
1.00161 1.00016 1.00413 0.997332
1.00189 1.00309 1.00188 0.996931
0.99872 1.0001 1.0004 0.998217
0.998834 1.00041 1.00109 0.99733
1.00116 1.00302 1.00053 0.99762
1.00106 1.00049 1.00261 0.997959
1.00053 1.00169 1.00125 0.997593
1.00285 1 1.00436 0.998501
1.00073 1 1.00249 0.998243
0.998973 1 1.00128 0.997698
0.999094 1 1.00004 0.999054
1.00073 1 1.00206 0.998668
1.00059 1 1.00216 0.998439
0.99913 1 1.00025 0.99888
0.999193 1 1 0.999193
0.999705 1 1 0.999705
0.999276 1 1 0.999276
0.99975 1 1 0.99975
0.999999 1 1 0.999999
0.999772 1 1 0.999772
1 1 1 1
1 1 1 1
1 1 1 1
1 1 1 1
1 1 1 1
0.999137 1 1 0.999137
0.999687 1 1 0.999687
0.999246 1 1 0.999246
1 1 1 1
0.999773 1 1 0.999773
0.999389 1 1 0.999389
1 1 1 1
1 1 1 1
0.999839 1 1 0.999839
1 1 1 1
1 1 1 1
1 1 1 1
0.896528 0.938725 0.967115 0.987524
0.91049 0.950983 0.975489 0.981477
0.826132 0.885594 0.958127 0.973626
0.99885 1 1 0.99885
0.998791 1 1 0.998791
0.99869 1 1 0.99869
0.903525 0.956843 0.961998 0.98158
0.892838 0.938319 0.968865 0.982107
0.911742 0.953733 0.979173 0.976306
0.958997 0.983624 0.982177 0.992654
0.920668 0.949705 0.990081 0.979137
0.829101 0.895489 0.95056 0.974019
0.856841 0.945184 0.935107 0.969443
0.932452 0.957352 0.982894 0.990942
0.927975 0.943485 1.00402 0.979621
0.862469 0.913109 0.969252 0.974505
0.865185 0.958977 0.927605 0.972607
0.920989 0.946899 0.983094 0.989362
0.943605 0.951985 1.01115 0.980266
0.889673 0.930394 0.981538 0.974218
0.854384 0.942825 0.932369 0.971929
0.998458 1 1 0.998458
0.99999 1 1.00154 0.998451
1.00009 1 1.0015 0.998598
0.998634 1 1 0.998634
0.998726 1 1 0.998726
0.998954 1 1 0.998954
0.976613 0.993389 0.984234 0.99886
0.989399 0.996896 0.993152 0.999322
1.00142 1 1.00305 0.998379
1.01691 1.0005 1.01791 0.998516
1.01101 1 1.01269 0.998337
1.00027 1 1.00189 0.998391
1.00163 1 1.00317 0.998456
0.970047 0.981585 0.989213 0.999022
1.03568 0.999938 1.03708 0.998709
1.00704 0.988849 1.01895 0.999463
1.00025 1 1.00167 0.998582
0.982943 0.969755 1.01454 0.999073
1.00551 0.986119 1.02016 0.999511
1.02932 1 1.03052 0.998831
0.923281 0.95711 0.97419 0.990212
0.905399 0.940697 0.973057 0.989127
0.918516 0.951834 0.981704 0.982981
1.00989 0.997374 1.01293 0.999628
0.984791 0.976722 1.00928 0.998986
0.89553 0.938828 0.966129 0.987323
0.935597 0.940474 1.01132 0.983676
0.895687 0.941098 0.977557 0.973597
0.903143 0.953292 0.96222 0.984591
0.857883 0.945466 0.935863 0.969549
1.00345 0.98721 1.01666 0.999788
0.910675 0.953423 0.965695 0.989094
0.894004 0.93906 0.96927 0.982204
0.964814 0.96054 1.0104 0.99411
0.810522 0.908812 0.922464 0.96681
0.859656 0.914752 0.96475 0.974107
0.964323 0.958103 1.02688 0.980145
1.00016 0.969332 1.03242 0.999409
0.89739 0.939276 0.967382 0.98762
0.91465 0.956216 0.979381 0.976669
0.739288 0.836882 0.912999 0.967563
0.827884 0.905352 0.940059 0.972741
0.942117 0.950227 1.01191 0.979793
0.944421 0.956169 0.995502 0.992176
1.02022 0.993381 1.02753 0.999503
1.00832 0.987397 1.02162 0.999586
1.01562 0.993319 1.02293 0.999529
1.0047 1 1.00567 0.99904
1.01831 0.997594 1.02129 0.999487
1.01197 0.995215 1.01753 0.999323
1.01152 1 1.01272 0.998812
1.00312 1 1.00422 0.998905
1.00659 1 1.00835 0.998255
1.01484 1.00014 1.01743 0.997308
0.999767 1 1.00145 0.998324
1.00309 1.00072 1.00509 0.997297
1.00479 1.00229 1.00596 0.996552
1.00334 1.00494 1.00191 0.996504
1.00069 1.00236 1.00108 0.997256
1.00171 1.00295 1.00189 0.996886
0.999135 1.00069 1.00124 0.997205
0.999829 1.0009 1.0011 0.997838
1.00091 1.00272 1.00048 0.997712
1.00205 1 1.00387 0.998187
1.00127 1.00054 1.00274 0.998005
1.00059 1.00176 1.00117 0.997657
1.00125 1 1.00244 0.998817
1.00213 1 1.00363 0.998503
1.0008 1 1.00258 0.998233
0.999622 1 1 0.999622
0.999207 1 1.00015 0.999052
1.00062 1 1.00195 0.998668
0.999191 1 1 0.999191
0.9997 1 1 0.9997
0.999998 1 1 0.999998
0.999747 1 1 0.999747
0.999999 1 1 0.999999
1 1 1 1
1 1 1 1
1 1 1 1
1 1 1 1
0.999119 1 1 0.999119
0.999686 1 1 0.999686
0.999158 1 1 0.999158
1 1 1 1
0.999723 1 1 0.999723
0.999279 1 1 0.999279
1 1 1 1
1 1 1 1
0.999764 1 1 0.999764
1 1 1 1
1 1 1 1
1 1 1 1
0.909384 0.952789 0.965507 0.988542
0.897089 0.939315 0.967117 0.98752
0.91109 0.950785 0.976333 0.981478
0.998748 1 1 0.998747
0.998615 1 1 0.998615
0.998872 1 1 0.998872
0.998786 1 1 0.998786
0.998672 1 1 0.998672
0.998672 1 1 0.998672
0.99858 1 1 0.99858
0.88988 0.941805 0.963555 0.980604
0.903518 0.954516 0.962896 0.983047
0.889942 0.937557 0.966488 0.982127
0.86716 0.961103 0.926847 0.973466
0.92145 0.948062 0.982719 0.989021
0.929209 0.942668 1.00534 0.980486
0.868676 0.918265 0.971173 0.974077
0.914475 0.946273 0.977563 0.988577
0.936289 0.944216 1.01329 0.9786
0.90069 0.94513 0.978445 0.973973
0.840361 0.931498 0.927605 0.972569
0.924362 0.948516 0.983677 0.990705
0.946372 0.952182 1.01606 0.978192
0.86901 0.923802 0.966329 0.973466
0.821965 0.915089 0.926968 0.969004
1.00263 1 1.00404 0.998592
0.99871 1 1.00025 0.998461
1.00062 1 1.00218 0.998438
0.998628 1 1 0.998628
0.976327 0.98148 0.995648 0.999097
1.00733 0.985556 1.02263 0.99947
0.999279 1 1.00092 0.998364
1.00137 1 1.00289 0.998476
1.02966 0.999952 1.03092 0.998825
0.999769 1 1.0012 0.998574
1.02949 0.999025 1.03171 0.998818
0.980326 0.96853 1.01397 0.998229
1.00765 0.983019 1.02544 0.999627
1.01237 0.997227 1.01626 0.998942
0.977787 0.960152 1.02037 0.998037
1.02367 0.988572 1.03623 0.999296
0.906179 0.940586 0.97437 0.988761
0.919893 0.955782 0.971401 0.990786
0.904804 0.940705 0.972002 0.989541
0.998696 0.984109 1.01502 0.999805
0.969491 0.963825 1.00852 0.997383
0.910432 0.952994 0.965397 0.989581
0.960753 0.959543 1.02384 0.977945
0.862752 0.91667 0.966664 0.973638
0.891499 0.93932 0.966266 0.982224
0.805654 0.90024 0.925382 0.967095
1.00438 0.972878 1.03287 0.999524
0.897045 0.939864 0.966408 0.987618
0.912447 0.955023 0.978333 0.976578
0.946771 0.955703 0.996164 0.994469
0.734328 0.840258 0.905771 0.964848
0.835125 0.906724 0.946872 0.972715
0.939466 0.944886 1.01562 0.978977
1.00046 0.976974 1.02558 0.998493
0.908773 0.951708 0.972686 0.9817
0.80736 0.874514 0.951715 0.970048
0.79258 0.87696 0.927295 0.974642
0.925364 0.937924 1.00652 0.980218
0.921247 0.945082 0.985031 0.989593
1.0107 0.991165 1.02013 0.99959
1.01591 0.99136 1.02525 0.999522
1.00148 0.99367 1.00852 0.999349
1.01391 0.994571 1.02006 0.999402
1.01055 0.996987 1.01473 0.998892
1.0036 1.0008 1.00487 0.997939
1.00698 1 1.00886 0.998134
1.01398 1.00021 1.01656 0.997251
1.00902 1.00026 1.01222 0.996576
1.00479 1.0015 1.00604 0.997261
1.00519 1.0021 1.00664 0.99647
1.00277 1.0021 1.00445 0.996236
1.00807 1.01154 1 0.996571
1.00641 1.00894 1.00077 0.996723
1.00389 1.00527 1.00218 0.99645
1.00008 1.00245 1.00013 0.997512
1.00018 1.00212 1.00074 0.997317
1.00158 1.00285 1.0019 0.996841
0.99897 1 1.00112 0.997857
1.00008 1.00117 1.00108 0.997827
1.00052 1.0023 1.00043 0.997803
1.00241 1 1.00392 0.998503
1.00189 1 1.00366 0.998238
1.00148 1.00056 1.00287 0.998052
0.999454 1 1.00001 0.999445
1.00092 1 1.00211 0.998819
1.00164 1 1.00314 0.998504
0.999993 1 1 0.999993
0.999615 1 1 0.999615
0.99937 1 1.00032 0.99905
0.999696 1 1 0.999696
0.999997 1 1 0.999997
1 1 1 1
0.999999 1 1 0.999999
1 1 1 1
1 1 1 1
0.998805 1 1.00007 0.998735
0.999043 1 1 0.999043
0.999613 1 1 0.999613
0.999117 1 1 0.999117
0.999998 1 1 0.999998
0.999689 1 1 0.999689
0.99918 1 1 0.99918
1 1 1 1
1 1 1 1
0.999758 1 1 0.999758
1 1 1 1
1 1 1 1
1 1 1 1
0.892039 0.937298 0.963979 0.987275
0.909592 0.952824 0.965213 0.989033
0.897946 0.94018 0.967156 0.987513
0.998774 1 1.00002 0.998758
0.998749 1 1.00014 0.998604
0.998646 1 1.00007 0.998575
0.998609 1 1 0.998609
1.00053 1 1.002 0.998526
0.998782 1 1 0.998782
0.998654 1 1 0.998654
0.998673 1 1 0.998673
0.998582 1 1 0.998582
1.00163 1 1.00301 0.998628
0.905592 0.946966 0.979256 0.976567
0.892885 0.943241 0.965314 0.980629
0.904536 0.953224 0.963851 0.984511
0.840533 0.932961 0.926232 0.972682
0.896802 0.939692 0.980003 0.973831
0.906799 0.942232 0.974592 0.987485
0.944548 0.952312 1.01209 0.980003
0.924522 0.951544 0.983077 0.988327
0.957566 0.961261 1.01655 0.979943
0.87288 0.924711 0.969101 0.974047
0.820503 0.918143 0.92306 0.968144
0.941999 0.953679 0.997664 0.990065
0.94578 0.95174 1.01354 0.980465
0.812334 0.885689 0.941966 0.973684
0.76588 0.871111 0.90911 0.967098
1.00407 1 1.00501 0.999066
1.00366 1 1.00508 0.998589
0.999462 1 1.001 0.998465
0.981181 0.970187 1.014 0.997364
1.01074 0.980272 1.03134 0.999748
0.999943 1 1.00138 0.998566
1.03053 0.998211 1.03361 0.998804
1.01358 0.998614 1.01605 0.99895
1.0262 0.991932 1.03529 0.999285
0.977918 0.961492 1.01907 0.998053
1.01811 0.997013 1.02183 0.999345
0.985633 0.972559 1.01549 0.997986
0.92 0.953803 0.981639 0.9826
0.906192 0.940769 0.973794 0.989168
0.916695 0.954506 0.968757 0.991359
1.0097 0.977864 1.03294 0.999627
0.947161 0.958041 0.997649 0.990974
0.898383 0.940479 0.967223 0.987611
0.943522 0.953223 1.01239 0.977713
0.825493 0.892159 0.950073 0.9739
0.912002 0.953863 0.979132 0.976492
0.733639 0.84691 0.90038 0.962098
0.999767 0.975818 1.02594 0.998637
0.911123 0.951646 0.975281 0.981684
0.799714 0.868935 0.949715 0.969068
0.924388 0.949045 0.983068 0.990795
0.804901 0.884695 0.934773 0.97329
0.912904 0.936566 0.99593 0.978719
0.970773 0.971451 1.00184 0.997471
0.835217 0.887177 0.967134 0.973425
0.804752 0.875492 0.94315 0.974606
0.934567 0.95544 0.99887 0.97926
0.909505 0.941707 0.974224 0.991357
1.01564 0.989831 1.02657 0.999515
1.00418 0.992464 1.01249 0.999323
1.00059 1.00051 1.00148 0.998594
1.00941 0.993702 1.01686 0.99897
1.00337 1.00093 1.00441 0.998033
0.999566 1.00199 1.00025 0.99734
1.01277 1.00023 1.01539 0.997193
1.00737 1.00044 1.01037 0.99659
0.999567 1.0015 1.00137 0.996704
1.00517 1.00183 1.00697 0.996388
1.00296 1.00302 1.0037 0.996262
1.00852 1.01181 1 0.996748
1.02203 1.02512 1 0.996985
1.01409 1.0175 1.00002 0.996623
1.0076 1.01104 1 0.996592
1.00526 1.00828 1 0.996999
1.00458 1.00685 1.00107 0.996675
1.0045 1.00568 1.00244 0.996396
0.99904 1.00138 1 0.997666
0.999344 1.00174 1.00002 0.997582
0.999603 1.00191 1.00032 0.997377
0.999924 1 1.00173 0.998197
0.999402 1.00022 1.0013 0.99789
1.00035 1.00144 1.0011 0.997816
1.00087 1 1.00174 0.999127
1.00216 1 1.00366 0.998505
1.00166 1 1.00338 0.998288
0.999979 1 1 0.999979
0.999712 1 1.00027 0.999437
1.00058 1 1.00176 0.998821
1 1 1 1
0.99999 1 1 0.99999
0.999608 1 1 0.999608
0.999996 1 1 0.999996
1 1 1 1
1 1 1 1
0.999093 1 1.00044 0.998651
0.998957 1 1 0.998957
0.998828 1 1.00011 0.99872
0.99955 1 1 0.99955
0.999042 1 1 0.999042
0.999989 1 1 0.999989
0.999617 1 1 0.999617
0.999115 1 1 0.999115
1 1 1 1
0.999999 1 1 0.999999
0.999693 1 1 0.999693
1 1 1 1
1 1 1 1
1 1 1 1
0.911893 0.954147 0.972326 0.982916
0.89339 0.938052 0.964668 0.987271
0.909478 0.952179 0.965265 0.989525
0.998589 1 1 0.998589
0.99879 1 1.00002 0.99877
0.998687 1 1.00009 0.998593
0.998649 1 1.00003 0.99862
0.998594 1 1 0.998594
0.999827 1 1.00128 0.99855
1.00336 1 1.00498 0.998389
1.00369 1 1.00519 0.998514
0.998674 1 1 0.998674
0.998585 1 1 0.998585
1.0016 1 1.00298 0.998618
1.00475 1 1.00595 0.998809
0.806729 0.875073 0.951489 0.968902
0.912908 0.953263 0.980773 0.976441
0.894629 0.943448 0.966965 0.98065
0.811061 0.910845 0.919132 0.968794
0.8789 0.931839 0.968956 0.973407
0.948045 0.953195 1.01671 0.978249
0.928399 0.949559 0.988523 0.989068
0.939746 0.950064 0.997195 0.991922
0.7504 0.860202 0.904479 0.964482
0.940359 0.94704 1.01471 0.978551
0.82647 0.900432 0.943054 0.973284
0.934242 0.951607 0.989193 0.992477
0.932631 0.94505 1.00571 0.981253
0.79597 0.881041 0.927893 0.973649
1.00059 1 1.00102 0.999564
1.00408 1 1.00501 0.999071
1.00438 1 1.0058 0.998587
0.973761 0.957665 1.01876 0.998086
1.02906 0.995995 1.03395 0.999273
1.01433 0.999499 1.01589 0.998957
1.01832 0.998363 1.02066 0.999344
0.984807 0.973498 1.01361 0.998036
0.997382 0.98995 1.0089 0.998614
0.851288 0.895801 0.976768 0.972911
0.917702 0.952815 0.978831 0.983979
0.90514 0.940674 0.972363 0.989574
0.999833 0.974137 1.02766 0.998753
0.917439 0.94655 0.977459 0.991596
0.910956 0.951484 0.97527 0.981682
0.920584 0.934553 1.00489 0.980257
0.813339 0.898133 0.931048 0.972656
0.796678 0.871583 0.942766 0.969549
0.972725 0.971339 1.0039 0.997536
0.826307 0.885157 0.958612 0.973818
0.816339 0.881322 0.950672 0.974328
0.913398 0.943417 0.979102 0.988846
0.92418 0.953423 0.988107 0.980994
0.963496 0.982094 0.982322 0.998719
0.834351 0.895625 0.955675 0.974794
0.944611 0.976167 0.985452 0.98196
0.925848 0.956529 0.979054 0.988634
1.00762 0.991737 1.01673 0.999297
0.992093 0.999192 0.994188 0.998699
0.992535 1.00264 0.991935 0.997975
1.00369 1.0011 1.00447 0.998125
1.00206 1.00242 1.00232 0.997327
1.00022 1.00336 0.999428 0.997445
1.0061 1.00069 1.00884 0.996604
0.999513 1.00114 1.00167 0.996716
1.01479 1.01747 1 0.997373
1.00341 1.00395 1.00319 0.996288
1.00784 1.01112 1 0.996757
1.02169 1.02429 1 0.997456
1.02662 1.02923 1 0.997465
1.02454 1.02772 1 0.99691
1.02138 1.02443 1 0.997018
1.01416 1.01738 1 0.996835
1.01308 1.01646 1 0.996669
1.00688 1.0103 1 0.996614
1.00444 1.00708 1 0.997375
1.00515 1.00801 1.00014 0.997026
1.00283 1.00473 1.00148 0.996627
0.998175 1.00023 1 0.997946
1.00019 1.00254 1 0.99766
0.998596 1.00095 1 0.997653
1.00078 1 1.00201 0.998775
0.999822 1 1.00163 0.998198
0.999907 1.00054 1.00145 0.997922
0.999927 1 1 0.999927
1.00076 1 1.00164 0.999123
1.0017 1 1.00319 0.998507
1 1 1 1
0.99997 1 1 0.99997
0.999934 1 1.0005 0.99943
1 1 1 1
0.999987 1 1 0.999987
1 1 1 1
0.998899 1 1.0003 0.998603
0.999199 1 1.00055 0.998647
0.999272 1 1.00042 0.998851
0.999487 1 1 0.999487
0.998956 1 1 0.998956
0.9988 1 1.00009 0.998706
0.999976 1 1 0.999976
0.999552 1 1 0.999552
0.999041 1 1 0.999041
1 1 1 1
0.999992 1 1 0.999992
0.99962 1 1 0.99962
1 1 1 1
1 1 1 1
1 1 1 1
0.833628 0.883679 0.97132 0.971216
0.910164 0.952343 0.972319 0.982918
0.895233 0.939229 0.965451 0.987267
0.999134 1 1.00056 0.998572
0.999563 1 1.0011 0.998468
1.00198 1 1.00351 0.998468
0.9989 1 1.00027 0.998631
0.998612 1 1 0.998612
0.999953 1 1.00138 0.998573
1.00354 1 1.00504 0.998504
1.00303 1 1.00464 0.998401
1.00443 1 1.00613 0.998305
0.99683 1 0.997818 0.999009
1.0011 1 1.0025 0.998608
1.00345 1 1.00468 0.998781
0.812727 0.877825 0.951272 0.973268
0.798324 0.866833 0.951819 0.967585
0.918828 0.95777 0.982594 0.976335
0.736246 0.847869 0.902818 0.96182
0.827086 0.898746 0.945106 0.973718
0.93643 0.94724 1.00791 0.980826
0.94429 0.952276 1.00192 0.989717
0.930742 0.949958 0.989072 0.990596
0.799066 0.874289 0.939611 0.9727
0.920611 0.938936 1.00037 0.980123
0.924252 0.953106 0.978142 0.991396
0.920434 0.95417 0.98466 0.979672
1.00669 1 1.00767 0.999022
1.00029 1 1.00079 0.9995
1.00383 1 1.00476 0.999076
0.984357 0.974486 1.01207 0.998081
1.01819 0.999457 1.01941 0.999344
0.997788 0.990726 1.00862 0.998524
0.988941 0.994723 0.99647 0.997709
0.835881 0.910518 0.940526 0.97608
0.854047 0.89547 0.979425 0.973778
0.916966 0.952529 0.976984 0.985343
0.973515 0.975316 1.0005 0.997651
0.913132 0.943466 0.978105 0.989514
0.82643 0.886291 0.957415 0.973933
0.919301 0.949378 0.988787 0.9793
0.822335 0.887679 0.950256 0.974882
0.966797 0.982044 0.986409 0.998038
0.840755 0.90412 0.953681 0.975079
0.943724 0.977251 0.985667 0.979735
0.933425 0.959479 0.981943 0.990735
0.972576 0.991487 0.982322 0.998579
0.948589 0.982935 0.983556 0.981192
0.951432 0.981789 0.976644 0.992254
0.983151 0.99755 0.986752 0.998798
0.990452 1.00341 0.989111 0.997951
0.982994 1.00708 0.978192 0.997844
1.00365 1.00278 1.00356 0.997315
0.999568 1.00349 0.998648 0.99744
1.0182 1.02477 0.995619 0.997961
0.999295 1.00071 1.00186 0.996729
1.01457 1.01752 0.999744 0.997359
1.02553 1.02903 0.99865 0.997946
1.00703 1.0103 1 0.996766
1.02118 1.02381 0.999977 0.997454
1.02749 1.02978 0.999889 0.997882
1.02448 1.02678 1 0.997761
1.02742 1.02997 1 0.997521
1.02671 1.02946 1 0.997336
1.02435 1.02745 1 0.996983
1.02501 1.02818 1 0.996919
1.02088 1.0239 1 0.997052
1.01234 1.01528 1 0.997105
1.01528 1.01847 1 0.996869
1.01212 1.01546 1 0.996716
0.999681 1.00198 1 0.997705
1.00453 1.00718 1 0.997368
1.00519 1.00799 1.00017 0.997053
0.998644 1 1.00012 0.998525
0.998485 1.00054 1 0.997945
1.00125 1.0036 1 0.997654
0.999795 1 1 0.999795
1.00026 1 1.00149 0.998775
0.999911 1.00001 1.00171 0.998199
1 1 1 1
0.99998 1 1.00007 0.999906
1.0007 1 1.00158 0.999119
1 1 1 1
0.999961 1 1 0.999961
1 1 1 1
0.998536 1 1 0.998536
0.999014 1 1.00041 0.998602
0.999299 1 1.00056 0.99874
0.999183 1 1.00054 0.998643
0.999292 1 1.00044 0.99885
0.999508 1 1.00011 0.999396
0.999962 1 1 0.999962
0.999489 1 1 0.999489
0.998956 1 1 0.998956
1 1 1 1
0.99998 1 1 0.99998
0.999555 1 1 0.999555
1 1 1 1
0.999995 1 1 0.999995
1 1 1 1
0.842252 0.899967 0.95972 0.975149
0.836353 0.887877 0.969964 0.971139
0.908631 0.950966 0.97209 0.982916
0.999515 1 1.00096 0.998554
1.00257 1 1.00418 0.998392
0.999024 1 1.0005 0.998521
0.998147 1 1.00012 0.998024
1.00209 1 1.00372 0.998377
1.00344 1 1.00495 0.998494
1.00213 1 1.00372 0.998414
1.00458 1 1.00624 0.998349
0.99815 1 1 0.99815
0.992935 1.00065 0.993518 0.998765
0.997347 1.00035 0.999122 0.997873
0.998821 1 0.999759 0.999062
1.00258 1 1.00384 0.998752
0.937417 0.973647 0.981981 0.980456
0.815122 0.875629 0.956021 0.973722
0.799216 0.870052 0.949255 0.967689
0.796763 0.875557 0.936328 0.97189
0.929718 0.945483 1.0045 0.978925
0.933273 0.946548 0.993323 0.992603
0.925971 0.951953 0.979823 0.992737
0.928602 0.955861 0.989525 0.981767
0.95212 0.980175 0.979428 0.991781
0.998977 1.00132 0.999441 0.998219
1.00563 1 1.00664 0.999
0.99989 1 1.00045 0.999436
0.999013 0.992573 1.00804 0.998459
0.994105 0.998648 0.997743 0.997702
0.925556 0.971712 0.970358 0.981597
0.845986 0.909483 0.95305 0.976007
0.857422 0.894801 0.983138 0.974662
0.972079 0.983864 0.990671 0.997325
0.93078 0.957001 0.983648 0.98877
0.841519 0.901391 0.957657 0.974855
0.941836 0.97232 0.986775 0.981631
0.977353 0.991375 0.987212 0.998625
0.953685 0.988594 0.982032 0.982339
0.950318 0.980285 0.979043 0.990182
0.993785 1.00434 0.991453 0.998018
0.971224 0.994839 0.981527 0.994636
0.989734 1.00465 0.987194 0.997937
0.984263 1.00653 0.980041 0.997794
1.00495 1.02991 0.977683 0.998041
0.999129 1.00358 0.998123 0.997436
1.01819 1.02465 0.995746 0.997944
1.02656 1.03726 0.991482 0.99819
1.01437 1.01763 0.999451 0.997345
1.0251 1.02917 0.998123 0.997927
1.02323 1.02863 0.996632 0.998107
1.02081 1.02349 0.999929 0.997452
1.02776 1.03019 0.999779 0.997864
1.02646 1.0288 0.999798 0.997934
1.02508 1.02733 1 0.997809
1.02406 1.02654 1 0.997582
1.02818 1.03068 1 0.997577
1.02668 1.02943 1 0.997328
1.02727 1.03016 1 0.997193
1.02011 1.0231 1 0.997077
1.02421 1.02732 1 0.996973
1.02541 1.02857 1 0.996927
1.0048 1.00732 1 0.997494
1.01147 1.01439 1 0.997123
1.01639 1.01955 1 0.996903
0.998406 1.00007 1 0.998334
1.00094 1.00325 1 0.997701
1.00445 1.00711 1 0.997362
0.999761 1 1.00015 0.999614
0.998657 1 1.00013 0.998525
0.998832 1.00089 1 0.997943
1 1 1 1
1.00001 1 1.00024 0.999771
0.999796 1 1.00102 0.998776
1 1 1 1
1.00022 1 1.00034 0.999885
1 1 1 1
1.00035 1.0023 1 0.998048
0.998532 1 1 0.998532
0.999168 1 1.00058 0.998591
0.999297 1 1.0007 0.998602
0.999371 1 1.00065 0.998719
0.999426 1 1.00018 0.999241
0.999273 1 1.00042 0.998849
0.999433 1 1.00003 0.999398
0.999945 1 1 0.999945
1 1 1 1
0.999966 1 1 0.999966
0.999492 1 1 0.999492
1 1 1 1
0.999983 1 1 0.999983
1 1 1 1
0.947726 0.983771 0.980114 0.982906
0.837136 0.904004 0.949117 0.975677
0.845946 0.893646 0.975249 0.970648
1.00324 1 1.00493 0.998316
0.998576 1 1 0.998576
1.00156 1 1.00319 0.998374
0.998924 1.00072 1.00015 0.998054
1.00485 1.00724 1.00004 0.997588
0.998169 1 1 0.998169
1.00494 1 1.00656 0.998393
0.99801 1 1 0.99801
0.995373 1.00043 0.996208 0.998735
0.998061 1.00058 0.999467 0.998013
0.994875 1.00303 0.99381 0.998049
0.997061 1.00129 0.998283 0.997491
0.996269 1.00082 0.99744 0.998009
1.00056 1 1.00144 0.999115
0.951205 0.982591 0.975937 0.991926
0.940332 0.975069 0.982979 0.981074
0.811108 0.876727 0.949121 0.974748
0.939899 0.961905 0.997773 0.979304
0.927001 0.950793 0.981221 0.993636
0.956531 0.980296 0.981308 0.994343
0.992115 1.00377 0.990407 0.997965
0.997087 1.00067 0.998172 0.998245
1.0046 1 1.00563 0.998979
0.995344 1.00112 0.996546 0.997676
0.95603 0.977921 0.985473 0.992027
0.938779 0.976641 0.977143 0.983717
0.835574 0.903595 0.947942 0.975504
0.97965 0.990909 0.989958 0.998666
0.953811 0.982959 0.978498 0.99167
0.959195 0.988475 0.986681 0.983478
0.987068 1.00325 0.985801 0.998039
0.96833 0.991933 0.982144 0.993954
0.99148 1.02424 0.9701 0.997855
1.00486 1.01594 0.991789 0.997283
0.985144 1.00598 0.981507 0.997739
1.0038 1.02895 0.97747 0.998035
1.00913 1.04113 0.971126 0.998085
1.01855 1.02502 0.995755 0.997926
1.02638 1.03713 0.991447 0.998174
1.01887 1.03078 0.990372 0.998055
1.02471 1.02927 0.997658 0.997907
1.02251 1.028 0.996566 0.99809
1.02665 1.03184 0.997063 0.997904
1.028 1.03054 0.999693 0.997846
1.02526 1.02767 0.999727 0.997927
1.02497 1.02744 0.999941 0.997657
1.02567 1.02787 1 0.997858
1.02427 1.02671 1 0.997623
1.02672 1.02947 1 0.997323
1.02671 1.02947 1 0.997321
1.02719 1.0301 1 0.997183
1.02368 1.02657 1 0.997193
1.01044 1.01313 1 0.99735
1.01996 1.02293 1 0.997093
1.02402 1.02714 1 0.996963
0.998883 1.00073 1 0.998154
1.00549 1.00802 1 0.997495
1.01077 1.01367 1 0.997142
0.999442 1 1 0.999442
0.998525 1.00019 1 0.998333
1.00213 1.00444 1 0.997696
1 1 1 1
0.999628 1 1.00003 0.999598
0.998609 1 1.00008 0.998526
1 1 1 1
0.999954 1 1.00021 0.999747
1 1 1 1
1.00357 1.00592 1 0.997659
0.999661 1.0016 1 0.998063
0.999056 1.00052 1.00026 0.998271
0.998529 1 1 0.998529
0.999086 1 1.00052 0.998564
0.999338 1 1.00031 0.999027
0.999521 1 1.00082 0.998697
0.999362 1 1.00012 0.999243
0.999917 1 1 0.999917
0.999401 1 1 0.999401
0.99995 1 1 0.99995
1 1 1 1
1 1 1 1
0.99997 1 1 0.99997
1 1 1 1
0.951186 0.981853 0.976177 0.992409
0.942469 0.983528 0.976597 0.981217
0.830251 0.898304 0.947187 0.975776
1.01306 1.01576 1.00007 0.997282
1.00096 1 1.0026 0.998371
0.999843 1.00161 1.00015 0.998084
0.998132 1 1 0.998132
1.00459 1.00677 1.00026 0.997576
1.00101 1.00302 1 0.997998
0.997871 1 1 0.997871
0.997614 1.00023 0.998672 0.998706
0.997835 1.00078 0.999009 0.998046
0.992345 1.0021 0.992248 0.997999
1.00118 1.00424 0.999587 0.997368
1.00204 1.00626 0.998325 0.997477
0.997909 1.00195 0.998514 0.997445
0.995401 1.00134 0.99592 0.998145
0.992301 1.00616 0.987734 0.998475
0.949004 0.982794 0.974482 0.990905
0.943219 0.976771 0.983294 0.982057
0.94916 0.975847 0.979943 0.99256
0.99546 1.00579 0.991287 0.998433
0.997684 1.0002 0.999216 0.998267
0.993093 1.00668 0.989217 0.997254
0.948194 0.968306 0.985768 0.993368
0.927814 0.974712 0.969626 0.981704
0.981222 1.00164 0.981522 0.998056
0.973345 0.993451 0.986594 0.993075
0.99334 1.02526 0.970895 0.997913
1.0038 1.01494 0.991549 0.997456
1.00159 1.03438 0.970336 0.9979
1.0311 1.03779 0.995752 0.997787
1.0022 1.02738 0.977421 0.998028
1.0118 1.04244 0.972471 0.998079
1.01117 1.03801 0.97618 0.997914
1.02559 1.03643 0.991365 0.998157
1.01857 1.03054 0.990322 0.998051
1.02505 1.03488 0.992695 0.997793
1.02171 1.02732 0.996461 0.998073
1.0261 1.03125 0.997085 0.997917
1.02835 1.0313 0.999535 0.997597
1.02409 1.02657 0.999661 0.997921
1.02542 1.02785 0.999974 0.997657
1.02854 1.03126 1 0.997364
1.02444 1.02684 1 0.997664
1.02681 1.02954 1 0.997353
1.02559 1.02847 1 0.997193
1.02709 1.03 1 0.997174
1.02346 1.02637 1 0.997172
1.01394 1.01664 1 0.997344
1.00068 1.00265 1 0.99803
1.01011 1.01277 1 0.997374
1.01978 1.02274 1 0.997108
0.999302 1 1 0.999302
0.999418 1.00127 1 0.998153
1.00619 1.00872 1 0.997496
1 1 1 1
0.999429 1 1 0.999429
0.998657 1.00033 1 0.998332
1 1 1 1
0.999582 1 1 0.999582
1 1 1 1
1.00746 1.01015 1 0.997337
1.00347 1.00582 1 0.997664
1.00138 1.00344 1 0.997944
0.998803 1.00072 1.00001 0.998078
0.998792 1.00022 1.0003 0.998275
0.999196 1 1.00042 0.998779
0.999015 1 1.00048 0.998536
0.999518 1 1.00049 0.999027
0.999985 1 1.00013 0.999857
0.999273 1 1.00003 0.999245
0.999926 1 1 0.999926
1 1 1 1
0.999955 1 1 0.999955
1 1 1 1
1 1 1 1
0.992034 1.01057 0.983239 0.998396
0.945513 0.979236 0.974878 0.990444
0.939493 0.974707 0.980305 0.983237
1.00975 1.0122 1.00001 0.99756
1.01948 1.02235 1 0.997188
1.01108 1.01365 1.00013 0.997331
0.998095 1 1 0.998095
1.00416 1.00608 1.00053 0.997562
1.00201 1.00406 1 0.997948
1.0113 1.01395 1 0.997387
0.997643 1.00095 0.998616 0.998079
0.989743 1.00105 0.990742 0.997946
1.00196 1.00548 0.999062 0.997437
1.01392 1.01767 0.99918 0.997138
1.00999 1.02031 0.992094 0.997773
1.00306 1.00714 0.99849 0.997448
0.998855 1.00262 0.998839 0.997398
0.996408 1.00833 0.989531 0.998631
0.953158 0.984028 0.978662 0.989748
0.995905 1.00676 0.990289 0.998914
1.01671 1.02879 0.989854 0.998388
0.992232 1.00539 0.989531 0.997353
0.949777 0.975493 0.982 0.991484
0.996002 1.02665 0.972121 0.997968
1.00218 1.01428 0.990406 0.997637
1.00151 1.03479 0.969793 0.997985
1.03224 1.03961 0.995101 0.997796
1.0276 1.04474 0.985768 0.997789
1.04765 1.0563 0.993883 0.997908
1.01494 1.04462 0.973462 0.998073
1.01395 1.03798 0.978881 0.997917
1.02819 1.04221 0.988822 0.997697
1.01861 1.03048 0.990416 0.998048
1.02514 1.03432 0.993326 0.99779
1.03104 1.03646 0.997204 0.997562
1.02555 1.03064 0.997126 0.997929
1.02867 1.03154 0.99962 0.997595
1.03136 1.03412 1 0.997333
1.02582 1.02823 1 0.997656
1.02837 1.03108 1 0.997365
1.02839 1.03131 1 0.997168
1.02693 1.02963 1 0.997383
1.0253 1.02818 1 0.997202
1.01592 1.01867 1 0.997298
1.02328 1.0262 1 0.997151
1.01377 1.01648 1 0.997335
1.00241 1.00447 1 0.997958
0.999229 1 1 0.999229
1.00121 1.00318 1 0.998029
1.00982 1.01245 1 0.997398
1 1 1 1
0.999291 1 1 0.999291
0.999955 1.00181 1 0.998153
1 1 1 1
0.999416 1 1 0.999416
1 1 1 1
1.0143 1.01719 1 0.997154
1.00814 1.01086 1 0.997315
1.0049 1.00728 1 0.997639
1.00335 1.00569 1 0.997668
1.00042 1.00248 1 0.997949
0.998904 1.00013 1.00026 0.998518
0.998563 1 1.00028 0.998279
0.999467 1 1.00069 0.998781
0.999914 1 1.00018 0.99973
0.999439 1 1.00041 0.999027
0.999872 1 1 0.999872
1 1 1 1
0.999934 1 1 0.999934
1 1 1 1
1 1 1 1
1.00833 1.02761 0.982959 0.998251
0.98974 1.00952 0.982467 0.997902
0.944158 0.980571 0.971399 0.991216
1.01979 1.02255 1 0.997299
1.01053 1.01282 1 0.997733
1.03257 1.03551 1 0.997158
1.02013 1.02303 1 0.997173
1.00931 1.01177 1.00018 0.997382
1.02758 1.03058 1 0.997097
1.00304 1.00519 0.999962 0.997899
1.00985 1.01256 1 0.997327
1.03148 1.03928 0.99515 0.997323
1.00248 1.00664 0.998363 0.997505
1.01514 1.01886 0.999247 0.9971
1.01002 1.02051 0.991917 0.997795
1.00319 1.00709 0.998703 0.997417
1.00055 1.01027 0.991586 0.998784
1.03721 1.05049 0.989366 0.997973
1.0167 1.02878 0.989846 0.998396
0.99264 1.00409 0.991129 0.997445
1.00153 1.03455 0.969951 0.998071
1.03226 1.04054 0.994219 0.997806
1.02527 1.04453 0.983714 0.997807
1.04789 1.0575 0.992993 0.997907
1.04121 1.05325 0.990749 0.997805
1.01628 1.03761 0.98149 0.997919
1.02825 1.04171 0.989344 0.997705
1.03252 1.04196 0.993346 0.997578
1.0251 1.03375 0.993837 0.997788
1.03062 1.03587 0.997382 0.997543
1.03364 1.0367 0.99975 0.997297
1.0291 1.03188 0.999711 0.997592
1.03136 1.03412 1 0.997331
1.03182 1.0348 1 0.997123
1.02819 1.0309 1 0.997365
1.02831 1.03123 1 0.99717
1.01838 1.02122 1 0.997221
1.02502 1.02789 1 0.997211
1.01608 1.01882 1 0.997302
1.00328 1.00541 1 0.997882
1.01356 1.01628 1 0.997326
1.00264 1.00469 1 0.997956
0.999334 1 1 0.999334
0.999777 1 1 0.999777
0.999278 1 1 0.999278
1.00171 1.00369 1 0.998029
1 1 1 1
0.99928 1 1 0.99928
1 1 1 1
1.03946 1.04236 1 0.997215
1.02491 1.02783 1 0.997163
1.01534 1.01825 1 0.997145
1.00859 1.01115 1 0.997463
1.009 1.01174 1 0.997292
1.0041 1.00647 1 0.997642
0.999187 1.0009 1 0.998289
0.99943 1.00148 1 0.997955
0.998993 1.00006 1.00041 0.998521
0.999613 1 1.00007 0.999539
1.00002 1 1.00124 0.998783
0.999926 1 1.00018 0.99975
1 1 1 1
0.999886 1 1 0.999886
1 1 1 1
1 1 1 1
1.03452 1.04883 0.988606 0.997725
1.01219 1.0315 0.982921 0.998328
0.987589 1.00962 0.980718 0.997413
1.03133 1.0343 1 0.997129
1.01913 1.02183 1 0.997361
1.01105 1.01317 1 0.997902
1.03164 1.03456 1 0.997176
1.02075 1.02366 1 0.997159
1.03887 1.04466 0.997157 0.9973
1.02448 1.02751 1 0.997057
1.00851 1.01127 1 0.997267
1.03084 1.03863 0.995173 0.997317
1.01778 1.02133 0.99946 0.997062
1.01242 1.0235 0.991335 0.997822
1.04163 1.05341 0.990896 0.997899
1.03908 1.05171 0.989982 0.997993
1.01692 1.02885 0.989988 0.998406
1.02402 1.04528 0.981803 0.997824
1.04899 1.05942 0.99223 0.997905
1.04139 1.05422 0.989992 0.997815
1.03592 1.04453 0.994083 0.997654
1.02826 1.04109 0.989939 0.997714
1.03237 1.04143 0.993718 0.997567
1.03597 1.03983 0.998961 0.997318
1.03018 1.03523 0.997589 0.997524
1.03441 1.03747 0.999746 0.997297
1.03483 1.03786 1 0.997082
1.03132 1.03408 1 0.99733
1.03188 1.03485 1 0.997123
1.02081 1.02374 1 0.997137
1.02824 1.03115 1 0.997173
1.01867 1.02151 1 0.997223
1.00403 1.00626 1 0.997782
1.01623 1.01897 1 0.997305
1.00349 1.00562 1 0.99788
0.999338 1 1 0.999338
1.00287 1.00492 1 0.997954
0.99933 1 1 0.99933
0.999791 1 1 0.999791
0.999892 1 1 0.999892
0.999331 1 1 0.999331
1 1 1 1
1.0362 1.03918 1 0.997139
1.03074 1.03363 1 0.997203
1.0389 1.04169 1 0.997325
1.01477 1.01747 1 0.997351
1.02663 1.02956 1 0.997153
1.01644 1.01936 1 0.997136
1.00843 1.011 1 0.997459
1.00137 1.00327 1 0.998108
1.0032 1.00557 1 0.997644
0.998873 1.00058 1 0.99829
0.99936 1 1 0.99936
0.999064 1.00002 1.00052 0.998525
0.99966 1 1.0001 0.999558
1 1 1 1
0.99979 1 1.00002 0.999769
1 1 1 1
1 1 1 1
1.03847 1.0489 0.992428 0.997611
1.03385 1.04802 0.988726 0.997721
1.01448 1.0336 0.983075 0.998398
1.03879 1.04227 0.99944 0.997213
1.02978 1.03275 1 0.997131
1.01855 1.02118 1 0.997424
1.03055 1.03345 1 0.997195
1.03792 1.04375 0.997128 0.997278
1.02127 1.02432 1 0.997016
1.02801 1.03566 0.99529 0.997311
1.03776 1.0471 0.993344 0.997716
1.04084 1.05231 0.991221 0.997861
1.04084 1.05275 0.990648 0.998014
1.03536 1.04221 0.995877 0.997544
1.04124 1.05493 0.989172 0.997826
1.03569 1.04452 0.993892 0.997641
1.03721 1.04189 0.998092 0.997414
1.03227 1.04096 0.99408 0.997557
1.03641 1.04033 0.99891 0.997321
1.03609 1.03914 1 0.997066
1.03518 1.03825 0.999742 0.997297
1.03446 1.03749 1 0.997083
1.02264 1.02564 1 0.997072
1.03187 1.03485 1 0.997124
1.02104 1.02397 1 0.997139
1.00464 1.00697 1 0.997682
1.01894 1.02178 1 0.997226
1.00421 1.00645 1 0.997781
0.999314 1 1 0.999314
1.00371 1.00584 1 0.997879
0.999329 1 1 0.999329
0.999795 1 1 0.999795
0.999327 1 1 0.999327
0.999795 1 1 0.999795
1 1 1 1
1.03677 1.03985 1 0.99704
1.03178 1.0348 1 0.997086
1.03735 1.04031 1 0.99715
1.01925 1.02196 1 0.997347
1.03131 1.03419 1 0.997217
1.03846 1.04113 1 0.997433
1.00387 1.00593 1 0.997953
1.01484 1.01754 1 0.997344
1.02844 1.03139 1 0.997143
1.00823 1.01081 1 0.997456
1.00055 1.00244 1 0.998109
0.999248 1 1 0.999248
0.998554 1.00026 1 0.998292
0.999373 1 1 0.999373
1 1 1 1
0.999729 1 1.00015 0.999577
1 1 1 1
1 1 1 1
1.03847 1.04428 0.996959 0.997466
1.03851 1.04933 0.99207 0.997596
1.03422 1.0484 0.988733 0.997717
1.03811 1.04153 0.999486 0.997226
1.02816 1.03111 1 0.997133
1.03723 1.04312 0.997093 0.997255
1.0362 1.04332 0.995619 0.997548
1.03823 1.04716 0.993752 0.997709
1.04013 1.05134 0.991496 0.997822
1.03592 1.04264 0.995973 0.997565
1.03856 1.04265 0.998727 0.997353
1.03546 1.04451 0.993697 0.997628
1.03724 1.04179 0.998251 0.997373
1.0364 1.03968 0.999708 0.997135
1.03677 1.04074 0.998859 0.997323
1.03606 1.03911 1 0.99707
1.02372 1.02678 1 0.997025
1.03426 1.03728 1 0.997085
1.02307 1.02608 1 0.997073
1.00507 1.00749 1 0.997606
1.02139 1.02432 1 0.99714
1.00479 1.00713 1 0.997681
0.999263 1 1 0.999263
1.00441 1.00664 1 0.99778
0.999301 1 1 0.999301
0.999778 1 1 0.999778
0.999323 1 1 0.999323
0.999806 1 1 0.999806
0.999796 1 1 0.999796
1.03897 1.04193 0.999904 0.997262
1.03428 1.03743 1 0.996966
1.03758 1.04067 0.999969 0.997063
1.02178 1.02463 1 0.997219
1.0312 1.03422 1 0.997084
1.03842 1.04138 1 0.997161
1.00497 1.00714 1 0.997842
1.01934 1.02209 1 0.997304
1.03173 1.0346 1 0.997232
0.999201 1 1 0.999201
1.00322 1.00528 1 0.997956
1.01501 1.01771 1 0.997338
0.999711 1.0016 1 0.998111
0.999259 1 1 0.999259
1 1 1 1
0.999387 1 1 0.999387
1 1 1 1
1 1 1 1
1.03588 1.04104 0.997586 0.997443
1.03764 1.04378 0.996656 0.997461
1.0384 1.04957 0.991755 0.997581
1.0374 1.04077 0.999527 0.99724
1.03742 1.04093 0.999304 0.997314
1.03682 1.04375 0.995792 0.997558
1.03871 1.04717 0.994206 0.997702
1.03646 1.04309 0.996044 0.997585
1.03794 1.04225 0.998499 0.997364
1.03696 1.03999 0.999944 0.997143
1.03733 1.0418 0.998379 0.997333
1.0366 1.03977 0.999846 0.997103
1.02409 1.02715 1 0.997024
1.03603 1.03907 1 0.997073
1.02403 1.02709 1 0.997027
1.00505 1.00752 1 0.997543
1.0233 1.0263 1 0.997074
1.00507 1.00748 1 0.997606
0.99909 1 1 0.99909
1.0049 1.00723 1 0.997681
0.999196 1 1 0.999196
1 1 1 1
0.999289 1 1 0.999289
0.999794 1 1 0.999794
0.999812 1 1 0.999812
1.03686 1.03999 0.999653 0.997343
1.03512 1.03817 1 0.997057
1.03854 1.04149 0.999917 0.997256
1.02372 1.02675 1 0.997046
1.03397 1.0371 1 0.996987
1.03848 1.04158 0.999936 0.997085
1.00561 1.00798 1 0.997653
1.02195 1.0248 1 0.997218
1.03069 1.0337 1 0.997082
0.999186 1 1 0.999186
1.00477 1.00699 1 0.997798
1.01943 1.02223 1 0.99726
1 1 1 1
0.999211 1 1 0.999211
1.00254 1.00459 1 0.997959
0.99927 1 1 0.99927
1 1 1 1
1 1 1 1
1.03612 1.03949 0.999424 0.997329
1.03647 1.04164 0.997583 0.997449
1.03677 1.04325 0.996323 0.997455
1.0362 1.03924 1 0.997083
1.03673 1.04043 0.999112 0.997326
1.03741 1.04414 0.995975 0.997568
1.03733 1.04186 0.998278 0.997375
1.03673 1.03996 0.999742 0.997144
1.02279 1.02578 1 0.997086
1.03671 1.03975 1 0.997071
1.02399 1.02703 1 0.997045
1.00473 1.00733 1 0.997422
1.02443 1.02749 1 0.997029
1.00501 1.00748 1 0.997544
0.999041 1 1 0.999041
1.00514 1.00755 1 0.997606
0.999088 1 1 0.999088
1 1 1 1
0.999118 1 1 0.999118
0.999882 1 1 0.999882
0.999807 1 1 0.999807
1.03472 1.03791 0.99963 0.997297
1.03494 1.03793 1 0.997113
1.03703 1.04006 0.999738 0.997349
1.02419 1.02722 1 0.997047
1.03573 1.0388 1 0.997045
1.03814 1.04107 0.999939 0.997251
1.00588 1.00835 1 0.99755
1.02364 1.02663 1 0.997085
1.03362 1.03673 1 0.997008
0.99916 1 1 0.99916
1.00557 1.00795 1 0.997639
1.02211 1.02496 1 0.997218
1 1 1 1
0.999195 1 1 0.999195
1.00461 1.00687 1 0.997753
1 1 1 1
0.999222 1 1 0.999222
1 1 1 1
1.03674 1.03972 1 0.997133
1.03535 1.03877 0.999396 0.997315
1.03709 1.04226 0.997573 0.997456
1.02226 1.02526 1 0.997078
1.03625 1.03932 0.999946 0.997105
1.03612 1.03998 0.998948 0.997338
1.0365 1.03993 0.999558 0.997144
1.02285 1.02584 1 0.997086
1.00407 1.0067 1 0.997392
1.02392 1.02693 1 0.997067
1.00467 1.00723 1 0.997456
0.998981 1 1 0.998981
1.00491 1.00738 1 0.997545
0.999038 1 1 0.999038
1 1 1 1
0.999085 1 1 0.999085
1 1 1 1
0.999786 1 1 0.999786
1.03595 1.03893 1 0.997136
1.03436 1.03749 0.999668 0.997319
1.02384 1.02685 1 0.997067
1.0353 1.0383 1 0.997111
1.03723 1.04017 0.999818 0.997355
1.0054 1.00784 1 0.997578
1.02387 1.02691 1 0.997044
1.03631 1.03939 1 0.997033
0.999111 1 1 0.999111
1.00603 1.00847 1 0.99758
1.02354 1.02649 1 0.997124
1 1 1 1
0.999166 1 1 0.999166
1.00554 1.00793 1 0.997625
1 1 1 1
0.999204 1 1 0.999204
1 1 1 1
1.02267 1.02563 1 0.997112
1.03658 1.03957 1 0.997122
1.03457 1.03801 0.999376 0.997301
1.00325 1.00587 1 0.997398
1.02229 1.02528 1 0.997078
1.03624 1.03939 0.999851 0.997126
1.02291 1.0259 1 0.997085
1.00409 1.00671 1 0.997393
0.998939 1 1 0.998939
1.00463 1.00716 1 0.997489
0.998978 1 1 0.998978
1 1 1 1
0.999035 1 1 0.999035
1 1 1 1
1 1 1 1
1.02364 1.02665 1 0.997071
1.03572 1.03868 0.99999 0.997162
1.03394 1.03698 0.999728 0.99734
1.00475 1.00721 1 0.99756
1.02363 1.02664 1 0.997064
1.03563 1.03863 1 0.99711
0.99906 1 1 0.99906
1.00562 1.00806 1 0.997576
1.0236 1.02664 1 0.997041
1 1 1 1
0.999115 1 1 0.999115
1.00618 1.00859 1 0.99761
1 1 1 1
0.999172 1 1 0.999172
1 1 1 1
1.00303 1.00556 1 0.997487
1.02255 1.02555 1 0.997076
1.03642 1.03942 1 0.997111
0.998943 1 1 0.998943
1.00331 1.00593 1 0.997396
1.02232 1.02532 1 0.997078
1.0041 1.00672 1 0.997395
0.998939 1 1 0.998939
1 1 1 1
0.998975 1 1 0.998975
1 1 1 1
1 1 1 1
1.00378 1.00627 1 0.997529
1.02325 1.02625 1 0.997076
1.03552 1.03848 0.999962 0.997189
0.999172 1 1 0.999172
1.00496 1.00742 1 0.997558
1.02342 1.02643 1 0.99706
1 1 1 1
0.999061 1 1 0.999061
1.00582 1.00827 1 0.997574
1 1 1 1
0.999118 1 1 0.999118
1 1 1 1
0.99894 1 1 0.99894
1.00321 1.00576 1 0.997457
1.02245 1.02548 1 0.997041
1 1 1 1
0.998943 1 1 0.998943
1.00335 1.00597 1 0.997394
0.998937 1 1 0.998937
1 1 1 1
1 1 1 1
0.999126 1 1 0.999126
1.00409 1.00658 1 0.997529
1.02282 1.02582 1 0.997081
1 1 1 1
0.999023 1 1 0.999023
1.00518 1.00764 1 0.997557
1 1 1 1
0.999063 1 1 0.999063
1 1 1 1
0.999711 1 1 0.999711
0.999037 1 1 0.999037
1.00336 1.00595 1 0.997426
1 1 1 1
0.998944 1 1 0.998944
1 1 1 1
0.999728 1 1 0.999728
0.999062 1 1 0.999062
1.00443 1.00692 1 0.99753
0.999866 1 1 0.999866
0.999023 1 1 0.999023
1 1 1 1
1 1 1 1
0.998966 1 1 0.998966
1 1 1 1
0.999861 1 1 0.999861
0.998993 1 1 0.998993
1 1 1 1
1 1 1 1
1 1 1 1

VECTORS lamdaE float
1.00066 1.00014 0.994497
1.00037 1.00057 0.997344
1.00029 1.00035 0.994731
1.00089 0.999975 0.994333
1.00076 0.99996 0.994555
1.0006 1.00035 0.994356
1.00197 1.00047 0.991598
1.0004 1.00048 0.997348
1.00032 1.0002 0.997706
0.999858 1.00084 0.997741
1.00039 1.0005 0.9945
1.00174 1.00127 0.99049
1.00062 0.999994 0.994576
1.00036 0.999993 0.994785
0.999947 1.00057 0.994937
1.00061 0.999955 0.994609
1.00019 1.00069 0.994563
1.00045 1.00002 0.9948
1.00216 1.00029 0.991496
1.00063 1.00001 0.997328
1.00087 1.00003 0.994285
1.00084 0.999915 0.994477
1.00225 1.00004 0.991567
1.00213 1.00012 0.99168
1.00061 1.00041 0.994238
1.00173 1.00101 0.991432
1.00466 1.00035 0.987155
1.00039 1.00043 0.99737
1.00049 1.00008 0.996108
1.00014 1.00061 0.996119
1.00037 1.00035 0.997431
1.00164 1.00142 0.990496
1.00079 0.999831 0.994434
1.0005 1.00031 0.994532
1.00242 1.00011 0.991939
0.999788 1.00017 0.998026
1.00208 1.00082 0.99188
1.00146 1.00169 0.990545
1.00394 1.00153 0.986461
0.999886 0.998838 0.998438
1.00064 0.999998 0.99731
1.00055 1 0.996037
1.00058 0.999986 0.997344
1.00025 1.00003 0.994918
1.00228 0.999985 0.990868
1.00048 0.999963 0.997621
1.00253 1.00006 0.991823
1.00034 0.999892 0.994885
1.00016 1.00007 0.995033
0.999788 1.00106 0.994752
1.00234 1.00011 0.991408
1.00047 1.00003 0.996095
1.00058 1.00004 0.994565
1.00017 1.00083 0.994423
1.00057 0.999896 0.994738
1.00236 1.00001 0.991445
1.00197 1.00076 0.991336
1.00228 1.00002 0.991575
1.00463 1.00038 0.987157
1.00056 1 0.997352
1.00077 1.00005 0.994411
1.00207 1.00001 0.992462
1.00222 1.00007 0.991576
1.00221 1.00001 0.991651
1.00467 1.00007 0.987311
1.00469 1.00006 0.987169
1.00044 1.0002 0.99454
1.00128 1.00185 0.991312
1.00451 1.0007 0.98706
1.00523 1.00025 0.98551
1.00071 1.00011 0.997337
1.00029 1.0002 0.997573
1.00042 1.00045 0.997346
1.00157 1.00151 0.990495
1.00083 0.999964 0.997283
1.00059 1.0003 0.997358
1.00229 1.00007 0.990657
0.999983 1.00008 0.996546
1.00186 1.00087 0.990609
1.00134 1.00185 0.991328
1.004 1.00141 0.986464
1.00013 0.999445 0.998007
0.999851 1.00124 0.993887
1.0025 0.999956 0.990493
1.00224 1.0003 0.990637
1.00472 1.0002 0.986448
1.0009 1.0021 0.99262
1.00433 1.00082 0.986488
1.00308 1.00289 0.986612
1.00499 1.00121 0.984932
0.999744 0.99822 0.99879
0.999757 0.99871 0.998589
1.00079 0.999987 0.99725
1.00068 0.999996 0.997304
1.00062 0.99999 0.997342
1.00047 1 0.996116
1.00232 0.999972 0.99153
1.00063 0.999969 0.99601
1.00247 1.00008 0.991191
1.0006 0.999993 0.997354
1.00216 0.99991 0.991095
1.00245 1.00005 0.991985
1.00465 0.999596 0.987228
1.00253 0.999993 0.99184
1.00476 0.999818 0.986832
1.00059 1.00001 0.994621
1.00028 1.00004 0.994848
0.999729 1.0013 0.99461
1.0003 0.99985 0.994997
1.00248 1.00001 0.991323
1.00242 0.999934 0.991477
1.00221 1.00046 0.991249
1.0046 1.00041 0.987159
1.00061 0.999995 0.997352
1.00048 1.00004 0.99469
1.00222 0.999979 0.991352
1.00234 1.00005 0.991443
1.00024 1.0006 0.995973
1.0016 1.00164 0.991442
1.00234 0.999955 0.991541
1.00469 1.00002 0.9873
1.00447 1.00074 0.987066
1.00468 1.00015 0.987188
1.00523 1.00024 0.985536
1.00215 0.999951 0.991107
1.00211 1.00003 0.991752
1.00457 0.999551 0.987891
1.00466 0.999854 0.987415
1.00468 0.999963 0.987268
1.00525 0.999416 0.986577
0.999985 1.00022 0.997817
1.00524 0.99991 0.985837
1.00082 1.00262 0.990574
1.00407 1.00123 0.986524
1.0052 1.00067 0.985185
1.0052 0.999438 0.986324
1.00001 1.00262 0.992067
1.00062 1.0049 0.98869
1.00081 0.999991 0.997302
1.00054 1.0003 0.997356
1.00231 1.00005 0.990651
1.0001 0.999804 0.997903
1.00102 1.0022 0.990695
1.00184 1.00088 0.99062
1.00408 1.00129 0.986469
0.999977 0.999356 0.998168
0.999804 1.00117 0.993931
1.00251 0.999992 0.99119
1.00224 1.00034 0.991291
1.00472 1.0002 0.986434
1.00058 1.00226 0.99148
1.00437 1.00077 0.986489
1.00314 1.0028 0.986599
1.00505 1.0011 0.984931
1.00011 1.00209 0.992578
0.999853 1.00019 0.994889
1.00066 1.0044 0.989557
1.00478 1.00007 0.98651
1.00458 1.00042 0.986452
1.00525 0.999983 0.985779
1.00199 1.00421 0.987197
1.00512 1.0007 0.985204
1.00461 1.00191 0.984921
1.00517 1.00109 0.984754
0.999739 0.997801 0.998973
0.999704 0.998119 0.998866
0.999682 0.998535 0.998713
0.999926 1.00186 0.992952
0.999802 0.999781 0.99812
1.00084 0.999969 0.997259
1.00071 0.999996 0.997273
1.00236 1.0001 0.990587
1.00222 0.999974 0.99094
1.00059 0.999991 0.997338
1.00057 0.999991 0.997352
1.00215 0.99992 0.991089
1.00237 1.00004 0.991356
1.00464 0.999596 0.987227
1.00242 1.00003 0.990515
1.00474 0.999819 0.986828
1.00212 0.99992 0.991141
1.00461 0.999531 0.987354
1.0047 0.999687 0.987052
1.00523 0.998321 0.987622
1.00479 0.999951 0.986637
1.00528 0.99885 0.986991
1.00058 0.999993 0.997348
1.00018 1.00007 0.994969
1.00223 0.999976 0.990361
1.00246 1.00005 0.991308
0.99969 1.00103 0.997746
1.002 1.00127 0.991573
1.00246 0.999928 0.991431
1.00471 0.99995 0.987289
1.00467 1.00024 0.987207
1.00443 1.00081 0.987072
1.00523 1.00023 0.985563
1.00213 0.99994 0.991109
1.00224 1.00004 0.991615
1.00459 0.999536 0.987578
1.00468 0.999928 0.987391
1.00008 1.00027 0.997711
1.00106 1.00233 0.991302
1.00394 1.00153 0.986758
1.00468 1 0.987236
1.00525 0.999215 0.986722
1.00519 1.00064 0.985207
1.00524 0.99996 0.985908
1.0052 0.999439 0.986351
1.00011 1.00248 0.99205
1.00075 1.0048 0.988697
1.00457 0.999577 0.98737
1.0046 0.999726 0.987685
1.00524 0.998645 0.987397
1.00526 0.998755 0.987105
1.00525 0.999473 0.986461
1.00522 0.997787 0.988099
1.00041 1.00277 0.991196
1.0052 0.998705 0.987069
1.00308 1.00273 0.986677
1.00516 1.00097 0.984827
1.0052 1.00038 0.985532
1.00518 0.998109 0.98779
1.00116 1.00484 0.987908
1.00044 1.00443 0.989574
1.00168 1.00475 0.987396
1.00241 0.999978 0.990572
0.999817 0.999232 0.998342
0.999779 1.00105 0.993974
1.00209 1.00038 0.990685
1.00472 1.0002 0.98642
1.00049 1.0024 0.991425
1.00314 1.0027 0.986584
1.00439 1.00073 0.98649
1.00512 1.00098 0.98493
1.00006 1.00204 0.992596
0.999857 1.00008 0.994935
1.00044 1.00444 0.989547
1.00477 1.00008 0.986492
1.00459 1.00041 0.986442
1.00526 0.999991 0.985759
1.00206 1.00408 0.987203
1.00517 1.00073 0.985154
1.00466 1.00185 0.98492
1.00519 1.00096 0.984794
0.99994 0.999421 0.99548
1.00127 1.00456 0.988191
1.00038 1.00322 0.99097
1.00112 1.00478 0.988334
1.00526 0.999593 0.986186
1.00522 1.00036 0.985413
1.0052 0.99903 0.986746
1.00356 1.0032 0.98553
1.00521 1.00018 0.985718
1.00497 1.00154 0.984699
1.00519 1.00067 0.985077
1.00026 1.00082 0.993551
1.00019 0.998567 0.995874
0.999795 0.997515 0.999054
0.999724 0.997752 0.999006
0.999677 0.998035 0.998928
0.999965 1.001 0.993767
0.99974 0.999205 0.998372
0.999982 1.00186 0.99293
0.999914 0.999853 0.998007
1.00242 1.00006 0.990514
1.0023 1.00003 0.990758
1.00473 0.999822 0.986825
1.00463 0.999599 0.987227
1.00217 0.999933 0.991089
1.00061 0.999986 0.997349
1.00214 0.999918 0.991143
1.0046 0.99954 0.987356
1.00469 0.999695 0.987049
1.00523 0.998331 0.987611
1.00477 0.999962 0.986623
1.00528 0.99885 0.986977
1.00457 0.999541 0.987401
1.00521 0.998202 0.987785
1.00527 0.998546 0.98733
1.00525 0.996127 0.989805
1.00528 0.999202 0.986609
1.00524 0.997182 0.988705
1.00214 0.999933 0.991114
1.00237 1.00001 0.991479
1.00462 0.999506 0.987267
1.00471 0.999993 0.987367
1.00018 1.00038 0.997604
1.00135 1.00212 0.991871
1.00393 1.00176 0.986991
1.00469 1.00003 0.987204
1.00525 0.99901 0.986869
1.00524 1.00001 0.985978
1.00518 1.00061 0.985231
1.0052 0.999438 0.986378
1.00018 1.00245 0.992035
1.00088 1.00471 0.988702
1.00458 0.99948 0.987403
1.00462 0.999707 0.987665
1.00523 0.998475 0.9876
1.00526 0.998971 0.986932
1.00049 1.00269 0.991182
1.00311 1.00274 0.986684
1.00513 1.00103 0.984832
1.00525 0.999597 0.986356
1.00521 0.997532 0.988377
1.0052 1.0003 0.985626
1.00521 0.998706 0.987085
1.00517 0.998042 0.98778
1.00125 1.00475 0.987903
1.00149 1.00467 0.9874
1.00052 1.00435 0.989583
1.00521 0.99847 0.987606
1.00525 0.998595 0.987451
1.00524 0.996537 0.989386
1.00521 0.997155 0.988715
1.00522 0.997839 0.98787
1.00518 0.99595 0.989871
1.00213 1.00391 0.987201
1.00518 0.997052 0.988623
1.00483 1.00167 0.984921
1.0052 1.00124 0.984488
1.00517 0.999443 0.986409
1.00513 0.997106 0.988766
1.00022 1.00388 0.990577
1.00241 1.00405 0.986645
1.00085 1.00507 0.988084
1.00283 1.0037 0.986719
1.00476 1.00009 0.986474
0.999863 0.999952 0.994979
0.999944 1.00207 0.992619
1.00025 1.00465 0.989539
1.00461 1.0004 0.986432
1.00526 1 0.985739
1.00207 1.00397 0.987213
1.00473 1.00184 0.984921
1.00521 1.00076 0.985104
1.0052 1.00084 0.984834
0.999955 0.999314 0.995516
1.00111 1.00474 0.988205
1.00025 1.00337 0.990987
1.00097 1.00485 0.988332
1.00526 0.999603 0.986168
1.00524 1.00036 0.985391
1.0052 0.999029 0.986736
1.00362 1.00311 0.985539
1.0052 1.00026 0.985618
1.00502 1.00137 0.984707
1.00519 1.00062 0.985201
1.0001 0.998819 0.995769
1.00032 1.00212 0.992169
1.00226 1.00409 0.986946
1.00053 1.00473 0.989539
1.00186 1.00401 0.98793
1.00522 0.998416 0.987374
1.0052 0.999605 0.98614
1.00516 0.998007 0.987673
1.00427 1.00184 0.985377
1.00515 0.999635 0.986252
1.0046 1.00152 0.984874
1.0003 1.00092 0.993382
1.00032 1.00223 0.992086
1.00017 1.00085 0.993691
1.00024 1.00084 0.993547
1.00019 0.998393 0.996563
1.00018 0.998545 0.996193
0.999962 0.997293 0.99784
0.999801 0.997473 0.999058
0.999715 0.99769 0.99903
0.999842 1.00032 0.99464
0.999749 0.998676 0.998623
0.999982 1.00104 0.993744
0.999814 0.999331 0.998288
1.00006 1.00175 0.992908
1.00002 0.999947 0.997892
1.00476 0.999969 0.986608
1.00468 0.999699 0.987046
1.00528 0.998869 0.986962
1.00524 0.99834 0.9876
1.00459 0.999548 0.987357
1.00213 0.999914 0.991142
1.00457 0.999542 0.987402
1.0052 0.998205 0.987783
1.00527 0.998564 0.987315
1.00523 0.996049 0.989899
1.00527 0.999208 0.986594
1.00524 0.997189 0.988687
1.0052 0.998193 0.987804
1.00523 0.995797 0.990233
1.00525 0.996564 0.989339
1.00521 0.995047 0.99079
1.00523 0.997821 0.988031
1.00521 0.995567 0.990087
1.00458 0.999386 0.987437
1.00465 0.999701 0.987644
1.00523 0.99832 0.987803
1.00527 0.999191 0.98676
1.00059 1.00262 0.991171
1.00299 1.00288 0.986691
1.0051 1.00111 0.984834
1.00525 0.999722 0.98625
1.00521 0.997274 0.988654
1.00521 0.998706 0.9871
1.0052 1.0002 0.985717
1.00517 0.997976 0.987769
1.00136 1.00466 0.987896
1.00144 1.00463 0.987405
1.00058 1.00425 0.989593
1.00521 0.998377 0.987672
1.00526 0.998588 0.987442
1.00524 0.996272 0.989666
1.00521 0.997301 0.988582
1.00208 1.00404 0.987193
1.00475 1.00171 0.984926
1.00519 1.00129 0.984448
1.00522 0.998102 0.987624
1.00519 0.995737 0.99004
1.00517 0.99941 0.986351
1.00517 0.99708 0.988627
1.00515 0.996967 0.988872
1.00259 1.00388 0.986634
1.00269 1.00377 0.986634
1.00029 1.00372 0.990585
1.00073 1.00507 0.988203
1.00523 0.995948 0.990029
1.00522 0.996867 0.989042
1.00521 0.995281 0.990633
1.00518 0.99525 0.990479
1.00519 0.996238 0.989406
1.0052 0.995234 0.990468
1.004 1.00249 0.985583
1.00515 0.995672 0.98982
1.00516 1.00199 0.98401
1.00513 1.001 0.984743
1.00517 0.998829 0.98677
1.00516 0.99698 0.988879
1.00016 1.00285 0.991623
1.00041 1.00506 0.988903
1.00368 1.00263 0.985895
1.00122 1.00505 0.987748
1.00331 1.00329 0.986518
0.999965 0.999224 0.995551
1.00527 0.999611 0.98615
1.00015 1.00352 0.991003
1.00098 1.00478 0.988217
1.00083 1.00487 0.988329
1.00525 1.00037 0.985369
1.0052 0.999029 0.986726
1.00383 1.00278 0.985543
1.00514 1.00122 0.984715
1.0052 1.00033 0.985519
1.00519 1.00058 0.985326
1.00011 0.99879 0.99579
1.00025 1.00219 0.992194
1.00229 1.00406 0.986944
1.0003 1.00477 0.989532
1.00165 1.00395 0.987921
1.00521 0.99841 0.987364
1.0052 0.999596 0.98613
1.00516 0.997976 0.98765
1.00452 1.00171 0.98539
1.00515 0.999682 0.986109
1.00483 1.00153 0.984868
1.00034 1.0013 0.992994
1.00032 1.00373 0.99078
1.00332 1.00239 0.986636
1.00068 1.00504 0.989112
1.00227 1.00258 0.98856
1.00518 0.99727 0.988445
1.00515 0.998739 0.9869
1.00518 0.99716 0.988109
1.00402 1.00123 0.985923
1.00491 1.00041 0.985445
1.00031 1.0009 0.993381
1.00033 1.00218 0.992019
1.00021 1.00235 0.992047
1.0004 1.00271 0.991634
1.00022 1.00235 0.992131
1.00008 1.00088 0.993775
1.00016 1.00083 0.993694
1.00018 0.998347 0.996619
1.00024 1.00085 0.993543
1.0002 0.998417 0.99657
1.00005 0.997085 0.99788
1.00017 0.998545 0.996507
0.999915 0.997274 0.998459
0.999811 0.997415 0.999064
0.999852 0.999488 0.995463
0.999865 1.00036 0.994611
0.999702 0.998142 0.998882
0.999792 0.998762 0.998528
1 1.00109 0.99372
0.9999 0.999399 0.998192
1.00527 0.999214 0.98658
1.00527 0.998565 0.9873
1.00525 0.997189 0.98867
1.00522 0.995985 0.989993
1.0052 0.99821 0.98778
1.00457 0.999543 0.987403
1.0052 0.998197 0.987806
1.00523 0.995769 0.990249
1.00524 0.996558 0.989338
1.00521 0.995004 0.990848
1.00523 0.99781 0.988012
1.0052 0.995539 0.990154
1.00523 0.995771 0.990267
1.00524 0.99502 0.990867
1.0052 0.995056 0.990698
1.00519 0.994936 0.990924
1.00519 0.996445 0.9893
1.00519 0.995019 0.990566
1.0052 0.99828 0.987738
1.00526 0.998595 0.987433
1.00525 0.996005 0.989946
1.00521 0.997441 0.988448
1.00206 1.00413 0.987187
1.00472 1.00174 0.984933
1.00518 1.00128 0.984409
1.00523 0.998368 0.987378
1.0052 0.995525 0.990209
1.00516 0.997106 0.988631
1.00517 0.999386 0.986293
1.00516 0.996826 0.988979
1.00258 1.00383 0.986624
1.00235 1.00381 0.986548
1.00038 1.0036 0.990593
1.00061 1.00506 0.988324
1.00524 0.995957 0.990021
1.00523 0.996974 0.988938
1.0052 0.995117 0.990796
1.00519 0.995261 0.990468
1.00374 1.00289 0.985561
1.00503 1.00198 0.983995
1.00514 1.00095 0.984722
1.00518 0.996457 0.989207
1.00519 0.99512 0.990538
1.00515 0.998874 0.986741
1.00516 0.995695 0.989813
1.00515 0.996712 0.989029
1.00382 1.0025 0.985897
1.00317 1.00313 0.986558
1.00121 1.00505 0.987745
1.00016 1.00283 0.991577
1.00029 1.00499 0.989021
1.00522 0.994946 0.990966
1.00517 0.995125 0.990788
1.0052 0.994935 0.990646
1.00518 0.99517 0.990376
1.0047 1.00217 0.984764
1.00518 0.995467 0.99009
1.00511 1.00228 0.983585
1.0051 1.00072 0.984918
1.00513 0.998709 0.986839
0.99998 1.00179 0.992735
1.00011 1.0047 0.989998
1.00077 1.00504 0.988662
1.00449 1.00212 0.985525
1.0015 1.00506 0.986966
1.00366 1.00276 0.985682
1.00011 0.998766 0.995811
1.00019 1.00224 0.99222
1.00521 0.998403 0.987355
1.00004 1.00482 0.989524
1.00212 1.00429 0.986944
1.00145 1.0039 0.98791
1.0052 0.999589 0.986119
1.00516 0.997947 0.987626
1.00466 1.00157 0.985403
1.00505 1.00157 0.984862
1.00516 0.99972 0.985966
1.00031 1.00128 0.993008
1.00013 1.00386 0.990781
1.0035 1.00241 0.986458
1.00044 1.00505 0.989095
1.00214 1.00238 0.988696
1.00518 0.997252 0.988433
1.00515 0.998751 0.986877
1.00518 0.997202 0.988132
1.00437 1.00117 0.985796
1.00496 1.00053 0.985437
1.00033 1.00267 0.991702
0.999755 1.00469 0.990231
1.00398 1.00058 0.987101
1.00065 1.00427 0.989376
1.00301 1.00078 0.988745
1.00518 0.995956 0.989437
1.00516 0.998688 0.986809
1.00517 0.997211 0.987935
1.00437 1.00085 0.985969
1.00495 1.00038 0.985507
1.00032 1.00088 0.99338
1.00033 1.0022 0.992038
1.00011 1.00274 0.991772
1.00013 1.00243 0.992009
1.00016 1.00244 0.992121
1.0002 1.00287 0.991626
1.00015 1.00274 0.991918
1.00009 1.00323 0.991294
1.00011 1.00249 0.992183
1.00003 1.00102 0.993739
1.00008 1.00089 0.993774
1.00014 0.998376 0.996657
1.00015 1.00082 0.993696
1.00019 0.998368 0.996625
1.00009 0.996966 0.99791
1.0002 0.998426 0.996581
1.00003 0.997065 0.997886
0.99986 0.997244 0.999094
0.999905 0.998848 0.996036
0.999838 0.999598 0.995419
0.999694 0.997747 0.999046
0.999887 1.00043 0.994583
0.999746 0.998274 0.998798
0.999843 0.998872 0.998445
1.00523 0.997798 0.987992
1.00524 0.996558 0.989337
1.0052 0.995508 0.99022
1.00522 0.994946 0.990907
1.00523 0.995738 0.990264
1.0052 0.9982 0.987808
1.00523 0.995799 0.990221
1.00524 0.995024 0.990869
1.0052 0.995039 0.990764
1.0052 0.994935 0.990892
1.00519 0.996445 0.989303
1.00518 0.994983 0.990615
1.00524 0.994954 0.990978
1.00521 0.994946 0.990945
1.00521 0.994926 0.990782
1.0052 0.995279 0.990268
1.00524 0.995965 0.990014
1.00523 0.997071 0.988835
1.0052 0.994949 0.990959
1.00519 0.995274 0.990457
1.00359 1.00315 0.985538
1.005 1.00198 0.983979
1.00514 1.00094 0.984702
1.00517 0.996677 0.989007
1.00519 0.995009 0.990608
1.00517 0.995716 0.989805
1.00514 0.99891 0.986711
1.00516 0.996428 0.989177
1.00383 1.00245 0.985899
1.00315 1.00274 0.986596
1.00114 1.00505 0.987742
1.00018 1.00275 0.991536
1.00026 1.00489 0.989142
1.00522 0.994942 0.990963
1.00517 0.995203 0.990689
1.0052 0.994936 0.990659
1.00448 1.00241 0.984755
1.00492 1.00233 0.983607
1.00508 1.00067 0.984911
1.00517 0.995229 0.990335
1.00515 0.998431 0.987171
1.00516 0.995534 0.989964
1.00002 1.00162 0.992905
1.00437 1.00195 0.985452
1.00319 1.00244 0.986714
1.0017 1.00508 0.986978
1.00075 1.00505 0.988791
1.0001 1.00464 0.989914
1.00519 0.994938 0.990975
1.0052 0.994927 0.990739
1.00519 0.994909 0.990621
1.00514 0.994989 0.990582
1.00508 1.00246 0.984127
1.00512 0.996608 0.988838
1.00488 1.00233 0.983555
1.00502 1.0011 0.984648
1.00008 1.0005 0.993934
0.999975 1.00352 0.991366
1.00033 1.00504 0.989456
1.00131 1.00504 0.987631
1.0045 1.00275 0.984157
1.00316 1.00415 0.985353
1.00028 1.00126 0.993022
0.999975 1.00396 0.990784
1.00518 0.997233 0.98842
1.00018 1.00505 0.98908
1.00374 1.0024 0.986278
1.00175 1.00234 0.988836
1.00514 0.998764 0.986855
1.00518 0.997255 0.988154
1.00467 1.00115 0.985667
1.00501 1.00064 0.985429
1.00025 1.00273 0.99171
0.999903 1.00473 0.990108
1.00436 1.00052 0.986991
1.0004 1.00453 0.989419
1.00286 1.00054 0.989099
1.00519 0.995934 0.989581
1.00516 0.998619 0.986942
1.00518 0.997341 0.987918
1.00443 1.001 0.985913
1.00498 1.00049 0.985287
0.999803 1.00336 0.991397
0.999804 1.00504 0.989561
1.00422 0.999733 0.987397
1.00185 1.00197 0.988805
1.00523 0.995012 0.990127
1.00517 0.996482 0.98924
1.00501 0.999513 0.986019
1.00475 1.00034 0.985565
1.00036 1.00217 0.992057
1.00018 1.00273 0.991768
0.999799 1.00305 0.992314
1.0001 1.00255 0.992112
1 1.00302 0.991619
1.00008 1.00253 0.992174
1.00002 1.00272 0.992062
1.00013 1.00325 0.991301
0.999973 1.00195 0.992968
1.00003 1.0035 0.991285
1.00007 1.00357 0.991006
1.00009 1.00259 0.992112
0.999989 1.00121 0.993585
1.00002 1.00101 0.993737
1.00008 0.998441 0.99669
1.00007 1.00087 0.993775
1.00015 0.998406 0.99666
1.00009 0.996943 0.997928
1.00019 0.998391 0.996633
1.00008 0.996945 0.997915
1.00001 0.997053 0.997887
1.00001 0.998352 0.996374
0.99991 0.998914 0.995989
0.999733 0.997399 0.999143
0.999823 0.99971 0.995373
0.999718 0.99781 0.999004
0.999801 0.998347 0.998688
1.0052 0.996446 0.989307
1.0052 0.995023 0.99083
1.00518 0.994939 0.990665
1.0052 0.994933 0.990859
1.00524 0.995029 0.990872
1.00523 0.995815 0.990175
1.00524 0.994985 0.990924
1.00521 0.994946 0.990943
1.0052 0.994927 0.990779
1.0052 0.995221 0.990346
1.00521 0.994957 0.990977
1.00524 0.994931 0.990814
1.00525 0.99491 0.990594
1.00523 0.994938 0.99096
1.00517 0.995282 0.990591
1.0052 0.994939 0.990672
1.00428 1.00263 0.984747
1.00483 1.00238 0.983624
1.00509 1.00059 0.984904
1.00517 0.995291 0.990294
1.00512 0.995527 0.989838
1.00515 0.998142 0.987504
1.00429 1.00187 0.985373
1.00268 1.0022 0.987736
1.00201 1.00509 0.986991
1.00006 1.00146 0.993077
1.00056 1.00505 0.988918
1.00007 1.00463 0.989829
1.00519 0.994934 0.990976
1.0052 0.994922 0.990731
1.00518 0.994908 0.990629
1.00471 1.00261 0.984161
1.00492 1.00233 0.983452
1.00501 1.00087 0.984977
1.00515 0.994951 0.990534
1.0051 0.996595 0.988766
1.00009 1.00043 0.994118
0.999981 1.00352 0.991358
1.00419 1.00244 0.984521
1.00286 1.00416 0.986127
1.00123 1.00503 0.987896
1.00029 1.00504 0.989389
1.00522 0.99493 0.990849
1.00523 0.994894 0.990508
1.00516 0.994902 0.990621
1.00509 0.994941 0.990369
1.00481 1.00325 0.982795
1.00493 0.999728 0.986065
1.00484 1.00295 0.983312
1.00023 0.99988 0.994552
1.00028 1.00103 0.993372
0.999997 1.00196 0.992737
1.00005 1.00452 0.990209
1.00053 1.00503 0.988681
1.00103 1.00472 0.987435
1.00395 1.00269 0.9848
1.00316 1.0039 0.98679
1.00015 1.00285 0.991718
1.00003 1.00482 0.989985
1.00519 0.995909 0.989725
1.00047 1.00455 0.989458
1.00475 1.00049 0.986884
1.00267 1.00036 0.989447
1.00516 0.998531 0.987077
1.00518 0.99744 0.987904
1.00456 1.00111 0.98586
1.00496 1.00057 0.985069
0.999896 1.00345 0.991272
0.999959 1.00504 0.989593
1.00448 0.999763 0.987477
1.00211 1.00214 0.988892
1.00524 0.995018 0.990198
1.00516 0.996446 0.989086
1.00503 0.99945 0.986086
1.00486 1.00044 0.985434
0.999749 1.00394 0.990965
1.00526 0.994881 0.990334
1.00148 1.00429 0.98862
1.00416 1.00017 0.987337
1.0052 0.995387 0.990251
1.00507 0.998273 0.986211
1.00479 1.0014 0.984921
1.0002 1.00276 0.991764
0.999761 1.00298 0.992251
0.999367 1.0027 0.993499
1.00007 1.00251 0.992166
1.00015 1.00328 0.991308
0.999644 1.00296 0.992205
1.00008 1.00259 0.9921
0.999998 1.00362 0.991032
0.999608 1.00216 0.99314
1.00016 1.00336 0.991271
0.999905 1.00104 0.994412
0.999767 1.00278 0.992443
1.00012 1.00434 0.990278
1.0003 1.00357 0.990718
1.00008 1.00286 0.991834
0.999941 1.0015 0.993372
0.999955 1.00129 0.993572
1.00001 0.998601 0.996684
0.999998 1.00105 0.993734
1.00009 0.99849 0.996685
1.00005 0.996954 0.997965
1.00015 0.998436 0.996665
1.00009 0.996918 0.99793
1.00008 0.996926 0.997916
1.00019 0.999989 0.994546
1.00009 0.998065 0.996534
1.00001 0.998398 0.99635
0.999818 0.997073 0.999199
0.999911 0.99899 0.995943
0.999747 0.99747 0.999119
0.999749 0.997906 0.998962
1.0052 0.995171 0.990422
1.00519 0.99493 0.990776
1.00522 0.994947 0.990941
1.00524 0.995028 0.990871
1.00521 0.994957 0.990969
1.00523 0.994933 0.990825
1.00524 0.994909 0.990561
1.00523 0.994944 0.99087
1.00529 0.99492 0.990632
1.00529 0.994921 0.991084
1.00519 0.994931 0.990977
1.00519 0.994916 0.990723
1.00518 0.994905 0.990638
1.00418 1.00276 0.984199
1.00505 1.0024 0.98336
1.00493 1.00069 0.985305
1.00515 0.994941 0.990487
1.0051 0.996667 0.988696
1.00407 1.00246 0.984894
1.00261 1.00421 0.986902
1.00098 1.00502 0.98816
1.00009 1.0003 0.994301
1.00009 1.00344 0.991352
1.0003 1.00504 0.989318
1.00522 0.994931 0.990839
1.00019 0.999919 0.994547
1.00023 1.00109 0.993281
1.00523 0.9949 0.990522
1.00515 0.994897 0.99063
1.00491 1.00324 0.982858
1.00478 1.00276 0.983419
1.00492 0.999587 0.985988
1.00509 0.995095 0.990298
1.00004 1.00191 0.992924
1.00009 1.00451 0.990175
1.00419 1.00319 0.984406
1.00233 1.00377 0.987538
1.00119 1.00478 0.987708
1.00055 1.00503 0.988767
1.00527 0.994927 0.990608
1.00523 0.994817 0.99053
1.00511 0.994893 0.990325
1.00477 0.995399 0.99019
1.00436 1.00368 0.983291
1.00429 1.00317 0.984042
1.00008 1.00149 0.993004
1.00028 1.00095 0.993442
1.00059 1.00126 0.992794
1.00031 1.00282 0.991365
1.00017 1.00492 0.98965
1.00172 1.00431 0.987945
1.00025 1.00516 0.988081
1.00326 1.00089 0.987085
1 1.00348 0.991148
1.0002 1.00503 0.989627
1.00524 0.995019 0.990269
1.00516 0.996451 0.988933
1.00238 1.00232 0.988982
1.00471 0.999765 0.987556
1.00503 0.999415 0.98615
1.00505 1.00057 0.985302
0.999944 1.00389 0.9909
1.00527 0.99488 0.990516
1.00125 1.00433 0.988642
1.00432 1.00023 0.987058
1.0052 0.995365 0.990265
1.00506 0.998429 0.986482
1.00475 1.0013 0.98497
1.00011 1.0046 0.990302
1.00461 0.994889 0.991425
1.00285 1.0027 0.987853
1.00439 1.00132 0.985822
1.00486 0.996856 0.989354
1.00358 1.00173 0.985637
0.99854 0.997858 0.98839
0.999658 1.00301 0.992189
0.999089 1.00287 0.993475
0.999626 1.00231 0.993763
1.00003 1.00264 0.992088
0.999967 1.00369 0.991057
1.00037 1.00312 0.991258
0.999389 1.0022 0.993313
1.00006 1.00287 0.991833
1.00022 1.00367 0.99072
0.99983 1.00112 0.994181
1.00011 1.00436 0.990294
0.999947 1.00269 0.99224
0.999524 1.0017 0.994259
1.00037 1.00467 0.989656
1.00014 1.00438 0.9903
1.00044 1.00381 0.990285
1.00011 1.00315 0.991331
1.00025 1.00383 0.990798
1.00011 1.00324 0.991194
0.999945 1.00157 0.993287
0.999957 1.00149 0.993359
0.999947 0.998731 0.996092
0.999967 1.00127 0.993558
1.00001 0.99866 0.996372
1.00001 0.99705 0.999128
1.00009 0.998537 0.996682
1.00007 0.99692 0.997968
1.0001 0.996895 0.997927
1.00011 0.999996 0.994606
1.00021 0.999907 0.994562
1.0001 0.997981 0.996639
1.00007 0.998084 0.996793
0.999893 0.9969 0.999233
1.00001 0.998435 0.996326
0.999813 0.997171 0.999186
0.999763 0.997519 0.999096
1.00523 0.994907 0.990528
1.00523 0.994935 0.990836
1.00521 0.994958 0.990962
1.00523 0.994944 0.99087
1.00528 0.994919 0.990636
1.00529 0.994922 0.990716
1.00531 0.99492 0.990659
1.00123 0.994876 0.98466
1.00445 0.994884 0.992964
1 1.00144 0.993346
1.00522 0.994931 0.990829
1.00523 0.994904 0.990536
1.00514 0.994892 0.990639
1.00458 1.0031 0.982912
1.00495 1.00265 0.983524
1.00498 0.99953 0.985916
1.00509 0.995246 0.990224
1.00473 1.00315 0.98401
1.00145 1.00365 0.988281
1.00134 1.00484 0.987984
1.00014 1.00002 0.994543
1.0006 1.00503 0.988854
1.00001 1.00186 0.993105
1.00021 1.00446 0.990142
1.00023 1.00105 0.993189
1.00527 0.994912 0.990605
1.0001 1.00144 0.993114
1.00018 1.00109 0.993444
1.00051 1.00125 0.992842
1.00523 0.99484 0.990498
1.00512 0.994893 0.99035
1.00415 1.00388 0.983364
1.00444 1.00232 0.984659
1.00472 0.995942 0.990077
1.00004 1.00301 0.991517
1.00033 1.00485 0.989512
1.00317 1.00214 0.986892
1.0009 1.00495 0.988055
1.00149 1.00413 0.988096
1.00524 0.994897 0.990796
1.00513 0.994809 0.990767
1.00506 0.995249 0.989944
1.00451 0.997864 0.989371
1.00225 1.00359 0.987229
0.999936 1.00257 0.992146
1.00062 1.00127 0.992341
0.999924 1.00219 0.992352
1.00003 1.00438 0.991166
1.00023 1.00475 0.989705
1.00032 1.00456 0.988853
1.00144 1.00235 0.988848
1.00022 1.00379 0.990832
1.00088 1.00438 0.988663
1.00529 0.994868 0.990688
1.0052 0.995315 0.990274
1.00505 0.998608 0.986752
1.00442 1.00026 0.986776
1.00471 1.00113 0.985023
1.00031 1.00451 0.990347
1.00457 0.994921 0.991588
1.00281 1.00254 0.987665
1.00436 1.00125 0.98581
1.00496 0.996158 0.989628
1.00375 1.00191 0.985675
0.998559 0.997919 0.986297
1.00049 1.0043 0.990037
1.00254 0.999094 0.99101
1.00308 1.00168 0.987453
1.00262 1.0015 0.987417
1.00325 0.997779 0.990221
1.00001 0.994914 0.949916
0.996784 0.994857 0.968883
0.996096 1.00119 0.988414
0.999824 0.995068 0.881887
0.994702 0.994786 0.851302
0.998856 1.00307 0.993453
0.999004 1.00275 0.994011
0.999203 1.00296 0.993857
1.00005 1.00288 0.991832
1.0003 1.00353 0.990722
1.0001 1.00435 0.990309
1.00014 1.00258 0.992034
0.999735 1.00122 0.99395
1.00021 1.00427 0.990241
1.0001 1.00314 0.991413
1.0004 1.0038 0.990335
0.999678 1.00136 0.993982
1.00022 1.00459 0.989919
1.00024 1.00465 0.990012
0.999577 1.00461 0.990721
1.00011 1.00466 0.990055
1.00042 1.00398 0.990056
1.00018 1.00313 0.991222
1.0003 1.00409 0.990273
1.00016 1.00403 0.990704
0.999989 1.0039 0.990914
1.00018 1.00389 0.990717
1.00016 1.00306 0.991535
1.00014 1.00323 0.991188
0.999987 1.00152 0.993286
0.999963 1.00156 0.993289
0.999934 0.998815 0.996073
0.999944 1.00154 0.993348
0.999943 0.998758 0.996085
0.99999 0.997042 0.999143
1 0.998727 0.99606
1.00002 0.997041 0.998539
1.00008 0.996888 0.997968
1.00003 1.00001 0.99473
1.00013 0.999987 0.99461
1.0001 0.997888 0.996733
1.00023 0.999834 0.994577
1.00009 0.997925 0.996899
0.999938 0.996729 0.999264
1.00007 0.998145 0.996512
0.999881 0.996962 0.999219
0.999813 0.99722 0.999173
1.00527 0.994918 0.99064
1.00523 0.994944 0.99087
1.00529 0.994924 0.990355
1.00086 0.994886 0.984784
1.0053 0.994917 0.990663
1.00429 0.995237 0.992579
1.00504 0.996297 0.991241
0.996454 0.994893 0.968147
1.00044 0.996783 0.986988
1.00005 1.00137 0.993374
1.00007 1.00139 0.993327
0.99988 1.0026 0.992369
0.999894 1.00226 0.992697
1.00526 0.994905 0.990601
1.00524 0.994865 0.990467
1.00513 0.994892 0.990375
1.00477 1.00373 0.983433
1.00435 1.00099 0.985269
1.00464 0.996457 0.989959
1.00272 1.00347 0.986711
1.00174 1.00475 0.988029
1.00131 1.00382 0.988245
1.00007 1.00131 0.993446
1.0003 1.0049 0.989373
1.00006 1.00313 0.99167
1.00011 1.00145 0.993225
1.00037 1.00125 0.992882
1.00524 0.994882 0.990802
1.00003 1.00258 0.992178
1.00066 1.00128 0.99252
0.999464 1.00205 0.993318
1.00513 0.994815 0.990666
1.00498 0.995299 0.989956
1.00301 1.00262 0.987165
1.00418 0.997407 0.989833
1.00017 1.00395 0.990899
1.00036 1.00486 0.989134
1.00162 1.00338 0.9887
1.0013 1.00425 0.98858
1.00445 0.994804 0.991756
1.00499 0.995359 0.990811
1.00494 0.995995 0.989703
1.00233 0.998951 0.991907
0.999512 1.00363 0.991873
1.00033 1.00235 0.991673
0.998872 1.00444 0.992076
0.99931 1.00511 0.990122
1 0.994905 0.939728
1.00043 1.00438 0.99039
1.0027 1.00249 0.987475
1.00446 0.994884 0.991765
1.00503 0.99563 0.989897
1.00384 1.00207 0.985698
1.0043 1.00129 0.985792
0.99868 0.997447 0.98412
1.0004 1.00416 0.990321
1.0026 0.99812 0.991028
1.00298 1.00196 0.987477
1.00327 1.00117 0.987416
1.00359 0.997855 0.990027
1.00086 0.994909 0.938693
0.996823 0.994857 0.964675
0.996262 1.00194 0.988399
0.999716 0.994814 0.885985
0.994708 0.994791 0.840383
1.00023 1.00402 0.990825
0.999801 0.994877 0.892963
0.994699 0.994796 0.848184
1.00111 1.00011 0.991476
1.00163 1.00156 0.989874
1.00152 1.00006 0.991414
0.995671 1.00206 0.989639
1.00021 0.995402 0.94611
0.99491 0.994968 0.962117
0.997317 0.996841 0.895858
0.994744 0.994801 0.841628
0.998524 1.00306 0.994257
0.998997 1.0028 0.993732
0.999196 1.00382 0.992954
1.00014 1.0031 0.991493
1.00037 1.00385 0.990385
0.999948 1.00451 0.990186
1.00005 1.00454 0.990183
0.999867 1.00098 0.993706
1.00017 1.00316 0.991221
1.00006 1.00484 0.990006
1.00008 1.0047 0.990032
1.00051 1.00384 0.990155
0.999518 1.00463 0.990896
0.999719 1.00507 0.990515
0.998722 1.00491 0.991579
1.00032 1.00444 0.989914
1.0004 1.00394 0.990289
1.00036 1.00404 0.99026
1.00007 1.004 0.990803
1.00037 1.00431 0.989952
0.999833 1.00425 0.990861
0.999577 1.00397 0.991098
0.999827 1.00492 0.990096
0.999857 1.00434 0.990677
1.00007 1.00383 0.990911
1.00009 1.00298 0.991686
1.00012 1.00393 0.990637
1.00016 1.00305 0.991468
1.00004 1.00154 0.993203
1.00019 1.00321 0.991182
0.99997 1.00154 0.993293
1.00002 0.998757 0.996611
0.999945 1.00158 0.993291
0.99995 0.998774 0.996364
0.999991 0.99705 0.997973
0.999937 0.998776 0.996079
0.999988 0.997053 0.999146
1.00003 0.997046 0.997949
1.00011 1.0014 0.993216
0.999973 1.00004 0.994786
1.00003 1 0.994731
1.00009 0.997869 0.99677
1.00015 0.999956 0.994613
1.00011 0.997845 0.996735
0.999976 0.996635 0.999281
1.00009 0.997914 0.997135
0.999955 0.996826 0.998741
0.999924 0.997033 0.998169
1.0005 0.995002 0.98492
1.00529 0.99492 0.990667
1.00401 0.996077 0.992187
0.996652 0.994902 0.96912
1.00042 0.996436 0.987336
1.00504 0.995794 0.991138
1.003 0.997242 0.987735
0.996568 0.996375 0.972151
1.00001 0.994895 0.947383
0.999572 0.996163 0.899156
0.994658 0.994755 0.849716
0.999829 1.00238 0.992572
1.00007 1.00136 0.993368
1.00016 1.00132 0.993309
0.999921 1.00257 0.992369
0.999631 1.0035 0.991939
1.00032 1.00223 0.991957
1.00004 1.00276 0.992203
0.999968 1.00226 0.992558
1.00524 0.994858 0.990804
1.00513 0.994826 0.990565
1.00493 0.995221 0.989969
1.00314 1.0023 0.987109
1.00392 0.99722 0.990301
1.00184 1.00428 0.988543
1.00214 1.00404 0.988308
1.00067 1.00502 0.988569
1.00044 1.00134 0.992702
1.00013 1.00398 0.990629
1.00014 1.00259 0.992216
0.999194 1.00193 0.994276
1.00442 0.994805 0.991949
0.99956 1.00358 0.991949
1.00024 1.0026 0.99198
1.00486 0.995144 0.99078
1.00481 0.995584 0.989879
1.00218 0.998924 0.991477
0.999564 1.0049 0.991094
1.0002 1.00458 0.990254
1.00319 0.99482 0.991972
1.00428 0.997103 0.990797
1.00472 0.995198 0.991028
1.00111 0.99927 0.992923
0.999838 1.00465 0.990426
0.999431 1.00416 0.991538
0.999415 1.00524 0.991122
0.99983 0.994873 0.894854
1.00035 0.99492 0.951044
1.00037 1.00406 0.990606
1.00296 1.00209 0.987507
1.00253 0.997473 0.991051
1.00399 0.998015 0.989841
1.00399 1.00078 0.987433
0.999992 0.994914 0.94851
0.996947 0.994874 0.963965
0.996346 1.00256 0.988347
0.999487 0.995339 0.898999
0.994714 0.994797 0.82898
1.00023 1.00377 0.990759
0.999827 0.994871 0.892557
0.994676 0.994795 0.842084
1.00118 1.00005 0.991529
1.00181 1.00142 0.989938
1.00166 1.00013 0.991821
0.995904 1.00226 0.990296
1.00146 0.996008 0.939205
0.994903 0.994826 0.965574
0.997997 0.998422 0.895082
0.994758 0.994791 0.840388
0.999546 1.00379 0.992682
0.99469 0.994834 0.843522
0.994757 0.994813 0.857015
0.998562 1.00141 0.995058
0.999688 1.00209 0.99413
0.995209 1.00218 0.989375
0.994884 0.996685 0.965587
0.997315 0.997176 0.93567
0.994728 0.999558 0.900132
0.994828 0.994808 0.843258
0.998923 1.0026 0.993613
0.999421 1.00356 0.992693
0.99833 1.00414 0.993106
1.00016 1.00318 0.99122
1.00055 1.00373 0.990255
1.00009 1.00469 0.990006
0.999935 1.00495 0.989999
0.999323 1.00477 0.991073
1.00038 1.00397 0.990286
0.999723 1.005 0.990379
1.00035 1.00437 0.989925
0.998436 1.005 0.991894
0.996603 1.00509 0.994628
0.999619 1.00463 0.991011
1.00051 1.00436 0.989761
1.0004 1.00399 0.990248
1.00006 1.00391 0.990901
1.00034 1.0044 0.989912
0.999909 1.00421 0.990811
0.99948 1.00389 0.991549
0.999628 1.00486 0.99041
0.999687 1.00449 0.990628
0.999033 1.00447 0.991719
1.00048 1.00237 0.991694
1.00081 1.00317 0.989532
0.999611 1.00485 0.990277
0.999954 1.0048 0.990109
0.999807 1.00472 0.99033
0.999888 1.00438 0.990668
0.999991 1.00322 0.991538
1.00007 1.0039 0.990907
1.0001 1.00299 0.99169
1.0001 1.00145 0.993123
1.00016 1.00305 0.9914
1.00003 1.00151 0.993218
1.00009 0.998765 0.996481
0.99997 1.00153 0.9933
1.00001 0.99874 0.996287
1.00004 0.996984 0.99793
0.999955 0.998754 0.996073
0.999991 0.997054 0.999145
0.999988 0.997051 0.999149
1.00015 1.00169 0.993155
0.999962 1.00016 0.994694
1.00008 1.00147 0.993225
1.00009 0.997865 0.996772
0.999972 1.00004 0.994787
1.00004 1.00001 0.994733
1.00009 0.997855 0.996765
1 0.996578 0.999284
1.00009 0.997817 0.997213
0.999993 0.99664 0.998788
0.999974 0.996836 0.998249
0.999828 0.994863 0.883265
0.99465 0.994765 0.844031
0.997861 0.994889 0.96896
1.00047 0.995411 0.98771
1.00508 0.995083 0.991036
0.996185 0.995769 0.972812
1.00333 0.996179 0.988153
1.00115 0.995021 0.9454
0.999815 0.994859 0.885843
0.994694 0.994768 0.839047
0.998549 0.994843 0.976945
0.999994 0.995866 0.946632
0.997662 0.997661 0.894008
0.994741 0.994777 0.843547
1.0001 1.00324 0.991528
0.99987 1.00224 0.992683
1.0001 1.00133 0.993363
0.999912 1.00257 0.992368
0.999655 1.00331 0.992083
1.00004 1.00354 0.991235
1.00025 1.0027 0.991787
1.00031 1.00324 0.990986
1.00006 1.0027 0.992094
0.999988 1.00235 0.992421
1.00443 0.994806 0.992133
1.00476 0.994913 0.99076
1.00453 0.995314 0.990052
1.00195 0.999097 0.991046
1.00086 1.00438 0.990388
0.999703 1.00513 0.990113
1.00035 1.00238 0.992299
0.99958 1.00361 0.99202
1.00297 0.995152 0.992302
0.999867 1.00467 0.990284
0.999238 1.00429 0.991453
1.00434 0.996277 0.990807
1.00463 0.995308 0.990674
1.00103 0.999253 0.993085
0.999479 1.00522 0.990989
1.00054 0.995645 0.992542
1.00261 0.996746 0.993748
1.00008 1.00158 0.993293
0.999068 1.00478 0.990225
0.999479 1.00495 0.990274
0.99924 1.00509 0.991118
0.994731 0.995043 0.863162
0.999831 0.994894 0.899221
0.999984 0.994923 0.940011
1.00003 1.0037 0.990685
1.00195 1.00133 0.989994
1.00132 1.00004 0.99158
1.00175 0.999943 0.992224
0.999836 0.994856 0.901645
0.999883 0.995274 0.93787
0.99488 0.994833 0.962331
0.995903 1.00251 0.990935
0.997312 0.996988 0.882865
0.99466 0.994805 0.845657
0.994742 0.994796 0.849566
0.99935 1.00338 0.992526
0.994693 0.994835 0.851722
0.994783 0.994816 0.856592
0.998308 1.00132 0.995309
0.999342 1.00176 0.994099
0.995289 0.999439 0.992048
0.994901 0.996438 0.964341
0.997402 0.999343 0.946233
0.996092 0.999764 0.886409
0.994817 0.994801 0.85221
0.997353 1.00339 0.995939
0.994794 0.994857 0.865318
0.994808 0.994786 0.856151
0.995311 1.00208 0.999957
0.994848 0.998886 0.97203
0.994894 0.999944 0.946839
0.995035 0.998329 0.880572
0.99487 0.99484 0.853103
0.999639 1.00316 0.992421
0.998617 1.00405 0.993436
0.996963 1.00486 0.995378
1.00032 1.00404 0.990283
1.00045 1.00426 0.989937
0.999791 1.00491 0.990242
0.998126 1.00504 0.992215
1.00041 1.00443 0.989774
0.999602 1.00461 0.990962
0.996719 1.00509 0.99507
0.995194 1.00523 0.997282
0.996939 1.00497 0.99502
1.00014 1.00416 0.990561
1.00035 1.00448 0.989871
0.999951 1.00417 0.99076
0.999315 1.00393 0.991992
0.999697 1.00448 0.990695
0.999703 1.00488 0.990436
0.999068 1.00456 0.991792
0.999564 1.0044 0.991433
0.997748 1.00488 0.99352
1.00191 0.998519 0.992588
1.00046 1.00216 0.99189
1.00089 1.00258 0.990301
1.00304 1.00302 0.986601
1.00034 1.00433 0.990468
1.00043 1.00334 0.990257
0.999875 1.00474 0.990218
0.999761 1.0047 0.990175
1.00008 1.00467 0.990122
0.999915 1.00467 0.99034
1.00004 1.00363 0.991104
1.00005 1.00427 0.990659
1.00011 1.00314 0.991527
1.00016 1.00149 0.993025
1.00018 1.00289 0.991694
1.00014 1.00145 0.993128
1.00015 0.998786 0.996359
1.00005 1.00149 0.993232
1.00009 0.998768 0.996138
1.00006 0.997067 0.997813
1.00002 0.998728 0.995988
1.00002 0.997009 0.998538
0.999995 0.997031 0.99914
1.00018 1.0022 0.992334
1.00004 1.0003 0.994479
1.0001 1.00171 0.992978
1.00008 0.997925 0.996715
0.999972 1.00014 0.994697
1.00004 1.00153 0.993232
1.00002 0.99655 0.999283
1.00008 0.997869 0.996771
0.999975 1.00005 0.994788
1.0001 0.99784 0.996761
1 0.996599 0.999284
0.999976 0.996625 0.999282
0.994673 0.994808 0.848765
0.999834 0.994986 0.892183
0.994783 0.994806 0.85496
0.994678 0.994768 0.842082
0.995941 0.995525 0.97036
1.00353 0.995491 0.988604
1.00005 0.995098 0.943001
0.99982 0.99565 0.899549
0.994735 0.99478 0.828061
0.998324 0.995347 0.976263
1.00156 0.995981 0.934465
0.997956 0.998471 0.894055
0.994763 0.994778 0.83773
0.995439 0.995201 0.970115
0.997386 0.998056 0.935611
0.994999 0.999405 0.880615
0.994823 0.994819 0.839397
1.00015 1.00415 0.990867
1.00003 1.00309 0.991651
0.999875 1.00222 0.992791
0.999675 1.00314 0.992229
1.00047 1.00399 0.989969
0.999962 1.0035 0.991389
1.00003 1.00308 0.99162
1.00065 1.00293 0.990949
1.00038 1.00326 0.991062
1.00009 1.00258 0.991986
1.00285 0.994841 0.992626
1.00439 0.995345 0.990836
1.00458 0.995479 0.99032
1.00103 0.998803 0.993262
0.999963 1.00513 0.990855
0.999364 1.00449 0.991375
0.999829 1.00483 0.990143
0.999915 1.00503 0.989947
1.00025 0.995759 0.992858
0.999831 1.00494 0.990163
0.999561 1.0051 0.991073
1.00271 0.996175 0.993956
1.00069 1.00046 0.993146
0.997883 0.996781 0.993613
0.997973 0.999126 0.999447
0.998238 1.00363 0.993565
0.999958 1.00466 0.990267
0.999203 1.00498 0.991392
0.994851 0.995069 0.870343
0.994736 0.99497 0.860159
0.999819 0.994883 0.886208
0.999246 1.00293 0.992385
0.999152 1.00146 0.994051
0.998372 1.00098 0.99557
0.994671 0.994829 0.851394
0.997415 0.997657 0.93654
0.99488 0.996548 0.964764
0.995608 0.997231 0.99494
0.994797 0.999112 0.901182
0.99479 0.994818 0.85639
0.994832 0.994812 0.852609
0.99748 1.00315 0.996367
0.994799 0.994846 0.868087
0.994799 0.994783 0.856428
0.995421 1.002 0.9989
0.994886 0.998493 0.973738
0.995583 0.999422 0.93608
0.99486 0.994838 0.85135
0.994895 0.999726 0.888305
0.99546 1.00499 0.99864
0.994778 0.994823 0.870799
0.994839 0.9948 0.860249
0.994813 0.99482 0.84012
0.994987 0.999684 0.991577
0.994942 0.999129 0.950366
0.995159 0.998932 0.892351
0.999047 1.00409 0.993765
0.997489 1.00505 0.994545
0.995109 1.00517 0.99845
1.00034 1.00447 0.989787
0.999499 1.00464 0.99091
0.996753 1.00508 0.9955
0.999955 1.00433 0.990516
0.997115 1.00494 0.995024
0.995403 1.00525 0.997239
0.99515 1.00527 0.99801
0.997276 1.00473 0.994567
0.999656 1.00452 0.990767
0.999783 1.0049 0.990462
0.999142 1.00461 0.991873
0.998045 1.00484 0.993381
0.999482 1.00428 0.99135
0.999206 1.00269 0.993499
1.0006 0.999137 0.994332
1.00176 1.00112 0.989537
1.00044 1.00196 0.992089
1.00148 1.0026 0.98993
1.00371 1.0023 0.986139
1.00445 1.00177 0.985199
1.00109 1.00404 0.989037
1.00261 1.00291 0.986815
1.0002 1.00491 0.989734
1.00012 1.00435 0.99053
1.00001 1.00349 0.990981
1.00012 1.00463 0.990159
0.999795 1.00472 0.990223
1.00016 1.00382 0.990719
0.999984 1.00463 0.990351
1.00012 1.00353 0.991114
1.00016 1.00178 0.992735
1.00016 1.00313 0.991516
1.00017 1.00148 0.993013
1.00015 0.998789 0.996327
1.00015 1.00143 0.993134
1.00015 0.998773 0.996028
1.00007 0.997143 0.997746
1.00011 0.998742 0.995832
1.00004 0.997065 0.998465
1.00002 0.997033 0.999112
1.00039 1.00232 0.991688
1.00009 1.00062 0.993816
1.00022 1.00217 0.992332
1.00011 0.998009 0.996579
1.00003 1.0003 0.994333
1.0001 1.00171 0.992805
1.00003 0.996599 0.999266
1.00008 0.997909 0.996721
0.999974 1.00011 0.994699
1.00002 0.996571 0.999284
1.00007 0.997875 0.996771
1 0.996588 0.999284
0.994837 0.994838 0.86293
0.994689 0.994827 0.857831
0.999835 0.994854 0.892222
1.00079 1.00289 0.990653
0.994814 0.994802 0.86302
0.994777 0.994798 0.854846
0.9947 0.994778 0.850482
0.998603 0.995723 0.975201
0.999695 0.996202 0.945255
0.997522 0.997502 0.881023
0.994749 0.994798 0.84264
0.996647 0.994973 0.966857
0.997413 0.999101 0.945292
0.995948 0.999837 0.884494
0.994812 0.994815 0.843668
0.99489 0.995039 0.962347
0.994953 0.999377 0.94483
0.994873 0.999983 0.890173
0.994876 0.994838 0.852798
1.00005 1.00468 0.990147
1.0001 1.00414 0.990648
1.00011 1.00293 0.991774
1.00058 1.00349 0.990337
1.00036 1.00406 0.990201
0.999993 1.00349 0.99154
1.00069 1.00297 0.990945
1.00039 1.00329 0.991133
0.999536 0.996691 0.993056
1.00289 0.995707 0.99411
1.00013 1.00507 0.989667
1.00119 0.999977 0.992994
0.999819 1.00512 0.991025
1 1.00504 0.990054
0.999811 1.00468 0.990215
0.996992 0.996572 0.994319
0.999378 1.00462 0.991626
0.998864 1.00341 0.993671
0.997822 0.999085 0.999614
0.999883 1.00475 0.990669
0.99588 0.999861 0.990849
0.995277 1.00347 0.999484
0.997076 1.00484 0.994469
0.999333 1.00421 0.992133
0.994773 0.994795 0.87641
0.994846 0.994924 0.86932
0.994739 0.994857 0.857128
0.997493 1.00312 0.996817
0.995319 1.00152 0.99784
0.99481 0.994835 0.870732
0.994887 0.999942 0.946833
0.994876 0.998179 0.971124
0.994835 0.999815 0.887579
0.994798 0.99478 0.856619
0.994849 0.994839 0.849613
0.995684 1.00483 0.998328
0.994779 0.994824 0.870633
0.994835 0.994796 0.863169
0.994856 1.00045 0.995064
0.994801 0.994818 0.844192
0.994921 0.998084 0.943945
0.995061 0.999283 0.895796
0.994925 1.00397 0.99831
0.994795 0.994836 0.874872
0.994795 0.9948 0.86367
0.99473 0.994778 0.844156
0.99524 0.999983 0.889886
0.994908 1.00014 0.979244
0.995102 0.999159 0.936753
0.998173 1.00505 0.993722
0.995483 1.00518 0.998056
0.994931 1.00513 0.998933
0.999795 1.0044 0.99047
0.997215 1.00502 0.995031
0.995728 1.00527 0.997209
0.997437 1.00467 0.994506
0.995262 1.00491 0.998025
0.99765 1.00228 0.99739
0.998309 1.00478 0.993235
0.999324 1.00426 0.991272
0.999247 1.00283 0.993754
0.998958 1.00323 0.992227
0.999294 0.999694 0.996031
1.0017 1.00079 0.990337
1.00392 1.0026 0.985063
1.00489 1.00176 0.984371
1.00205 1.00262 0.989545
1.00391 1.00244 0.985427
1.00515 1.00095 0.985323
1.00308 1.00249 0.986772
1.00427 1.00185 0.985387
1.00025 1.00509 0.989066
1.00118 1.00406 0.988947
1.00214 1.00282 0.98703
1.00015 1.00426 0.990185
0.99999 1.00495 0.989861
0.999934 1.00434 0.990594
0.999845 1.00474 0.990271
1.00021 1.00376 0.990729
1.00023 1.00211 0.99226
1.0002 1.00345 0.991125
1.00017 1.00178 0.992726
1.00012 0.998942 0.995608
1.00021 1.00151 0.993001
1.00017 0.998788 0.995678
0.999974 0.997155 0.99905
1.00016 0.998777 0.995711
1.00005 0.997141 0.998401
1.00003 0.997088 0.999067
1.0004 1.00248 0.991473
1.00022 1.00093 0.99329
1.00035 1.00237 0.991809
1.00015 0.998152 0.996373
1.00013 1.00061 0.993751
1.00022 1.00218 0.992327
1.00005 0.996635 0.999236
1.00011 0.997987 0.996591
1.00004 1.0003 0.994189
1.00004 0.996572 0.999272
1.00009 0.997892 0.996727
1.00002 0.996591 0.999284
0.994778 0.994832 0.873762
0.994831 0.994873 0.862952
0.994682 0.994882 0.85794
1.00069 1.00294 0.990776
1.0006 1.00316 0.990543
1.00076 1.00299 0.990735
0.994854 0.994797 0.859649
0.994815 0.994794 0.86322
0.994769 0.994787 0.854745
0.996721 0.99487 0.968697
0.997733 0.997866 0.934296
0.994843 0.999948 0.899918
0.994829 0.994824 0.839115
0.994929 0.995399 0.965827
0.99553 0.999934 0.94122
0.994822 0.999474 0.888445
0.994869 0.994834 0.850908
0.994999 0.995792 0.961966
0.994869 0.998901 0.946638
0.995263 0.999301 0.891948
0.994848 0.994812 0.843377
1.00026 1.00382 0.990473
1.00023 1.00449 0.989961
1.0003 1.00399 0.99043
1.00066 1.00341 0.990297
1.00017 1.00415 0.990437
1.0007 1.00303 0.990943
0.996317 0.996644 0.995024
0.997435 0.999083 0.999838
0.999936 1.00446 0.990162
0.999392 1.00258 0.993771
0.999362 1.00457 0.991858
0.999688 1.00473 0.990628
0.998975 1.00438 0.992265
0.995508 0.999881 0.990884
0.99707 1.00504 0.995121
0.995723 1.00314 0.99872
0.999026 1.00425 0.992519
0.995407 1.00144 0.987858
0.995712 1.00386 0.9967
0.996931 1.00484 0.995706
0.994792 0.994801 0.878436
0.994767 0.994798 0.876762
0.994843 0.994822 0.868295
0.99575 1.00459 0.997983
0.994809 1.00065 0.991568
0.994784 0.994827 0.870475
0.994844 0.999134 0.944546
0.995133 0.998925 0.882822
0.994832 0.994796 0.866074
0.994821 0.994832 0.839889
0.994987 1.0038 0.998835
0.994795 0.994838 0.876058
0.994803 0.994798 0.863871
0.994913 0.999754 0.976325
0.994757 0.994782 0.838555
0.99503 0.999972 0.88746
0.994931 0.998833 0.948479
0.995059 1.00501 0.993069
0.994777 0.994839 0.873977
0.994783 0.994815 0.855912
0.994655 0.994757 0.850819
0.995388 0.998622 0.880423
0.995274 0.999906 0.945083
0.994918 1.00061 0.970303
0.995895 1.00522 0.997656
0.995197 1.00456 0.998907
0.997111 1.00226 0.998212
0.997599 1.00466 0.994447
0.99548 1.00458 0.998015
0.99648 1.0037 0.997426
0.999317 0.997528 0.999247
0.999314 1.00297 0.994005
1.00086 1.00233 0.991721
1.00243 1.00351 0.9873
1.00156 1.00054 0.991189
1.00388 1.00252 0.98538
1.00432 1.00391 0.98322
1.00485 1.0018 0.984113
1.00499 1.00153 0.984545
1.00486 1.00187 0.984224
1.00427 1.00251 0.984719
1.00481 1.00093 0.986364
1.00508 1.00098 0.985183
1.00159 1.00382 0.987667
1.00307 1.00257 0.986979
1.00414 1.00195 0.985572
1.00016 1.00484 0.98928
1.00052 1.00507 0.989018
1.00123 1.00409 0.988854
1.00028 1.00271 0.991661
1.00032 1.00416 0.990186
0.999801 1.00497 0.989988
1.00029 1.00364 0.990739
1.00028 1.00209 0.992256
1.00007 0.9992 0.995443
1.00021 1.00175 0.992717
1.00013 0.998952 0.995594
0.999952 0.99728 0.999028
1.00018 0.9988 0.995672
1.00002 0.997181 0.998392
1.00002 0.997148 0.999042
1.00041 1.0029 0.991279
1.00032 1.00115 0.993107
1.00045 1.00244 0.991544
1.00019 0.998341 0.996099
1.00022 1.00094 0.993375
1.00034 1.00239 0.991933
1.00006 0.996725 0.999189
1.00015 0.998124 0.99639
1.00015 1.0006 0.993686
1.00005 0.996636 0.999245
1.00011 0.997969 0.996604
1.00004 0.996583 0.999279
0.994802 0.994833 0.874462
0.994782 0.994839 0.873593
0.994825 0.994861 0.863079
1.0004 1.00412 0.989863
1.00098 1.00402 0.989533
1.00059 1.003 0.990904
1.00053 1.00335 0.990479
1.00053 1.00311 0.990779
1.00038 1.00348 0.99064
1.0004 1.0031 0.991031
0.994818 0.994787 0.855661
0.994848 0.994798 0.862644
0.994814 0.994794 0.863432
0.994858 0.99483 0.849084
0.994943 0.995618 0.962732
0.994882 0.999933 0.937348
0.994878 0.998602 0.898874
0.994908 0.996521 0.960943
0.994878 0.999519 0.936061
0.99496 0.999009 0.895978
0.994826 0.994802 0.852387
0.996116 0.996355 0.964379
0.994908 0.999691 0.936904
0.995094 0.998892 0.881038
0.994773 0.994799 0.841651
0.999125 1.00483 0.991592
1.00011 1.00405 0.990555
1.00028 1.00461 0.989775
1.00072 1.00345 0.990259
0.995168 1.00008 0.991161
0.995878 1.00343 0.997871
0.999577 1.00496 0.990588
0.998929 1.00428 0.992396
0.997203 1.00507 0.995755
0.999055 1.00407 0.992471
0.996899 1.00485 0.995691
0.996025 1.00199 0.98479
0.994879 1.00479 0.997326
0.99685 1.00444 0.995916
0.994733 1.00147 0.985483
0.995976 1.00369 0.998543
0.994771 0.994799 0.87655
0.994798 0.994803 0.881253
0.994756 0.994802 0.877107
0.994896 1.00365 0.999301
0.994939 0.99865 0.979991
0.994789 0.994833 0.87729
0.99557 0.998516 0.93752
0.995022 0.999076 0.898205
0.99481 0.994793 0.864067
0.994744 0.994802 0.843385
0.994915 1.00422 0.993819
0.994784 0.994832 0.873823
0.994769 0.994805 0.85581
0.994916 1.00059 0.970721
0.99469 0.994763 0.840322
0.995945 0.999907 0.883856
0.994984 0.999766 0.935363
0.995462 1.00452 0.987766
0.994828 0.994835 0.86341
0.994651 0.99477 0.84524
0.99805 0.996506 0.894772
0.994876 0.999912 0.944592
0.99495 0.999993 0.963636
0.995282 1.00417 0.999149
0.996216 1.00307 0.998323
0.996822 0.999429 1.00079
0.995386 1.00499 0.997452
0.997812 0.998778 0.999416
1.00197 0.998362 0.993926
1.00277 1.00131 0.991216
1.00295 1.00319 0.987021
1.00329 1.00426 0.984214
1.00368 1.00251 0.985698
1.00451 1.00382 0.983024
1.00425 1.00451 0.982706
1.00499 1.00097 0.984838
1.00504 1.00113 0.98472
1.00482 1.002 0.984067
1.00492 1.00123 0.985249
1.00495 1.00139 0.98466
1.00478 1.00208 0.984077
1.00378 1.00223 0.986299
1.00452 1.0009 0.986236
1.00499 1.00097 0.985046
1.00087 1.00505 0.988124
1.0016 1.00404 0.987864
1.00309 1.00263 0.987192
1.00022 1.00363 0.990683
1.00041 1.00481 0.989301
1.00075 1.00505 0.988969
1.00002 0.999499 0.995233
1.00032 1.00262 0.991653
1.00045 1.00412 0.990187
1.0003 1.00209 0.992252
1.00007 0.999227 0.995423
0.999889 0.99748 0.998996
1.00015 0.998958 0.99558
0.999948 0.997311 0.99902
0.999994 0.997185 0.999037
1.0002 1.00484 0.989656
1.00055 1.0033 0.990682
1.00036 1.00156 0.992639
1.00044 1.00284 0.991269
1.00021 0.998605 0.995804
1.00031 1.00118 0.993103
1.00042 1.00249 0.991614
1.00006 0.996865 0.999124
1.00019 0.998337 0.996117
1.00021 1.00095 0.993457
1.00006 0.996712 0.999203
1.00015 0.998106 0.996407
1.00005 0.996608 0.999255
0.994776 0.994819 0.870366
0.994791 0.99483 0.875692
0.99479 0.994835 0.873408
1.00045 1.00421 0.989888
1.0007 1.00389 0.989657
1.00014 1.00286 0.990807
1.00017 1.00444 0.989798
1.00095 1.00387 0.990177
1.00057 1.00345 0.990413
1.00043 1.00322 0.990822
1.00046 1.00344 0.990652
1.00044 1.00318 0.991078
0.999776 1.00429 0.991059
0.994794 0.99481 0.856946
0.994813 0.994784 0.855998
0.994849 0.994795 0.865593
0.994836 0.99481 0.852755
0.995243 0.999297 0.882765
0.994914 0.997124 0.959397
0.994883 0.999408 0.946484
0.995215 0.996552 0.96118
0.994907 0.997803 0.947547
0.994844 0.999804 0.889548
0.994789 0.994777 0.840271
0.994804 0.996423 0.965798
0.994868 0.999975 0.947222
0.99479 0.999738 0.89897
0.994689 0.994772 0.849683
0.998353 1.00379 0.993642
0.999115 1.00473 0.991618
1.0001 1.00405 0.99064
0.996104 1.00214 0.981484
0.994846 1.00491 0.998
0.999006 1.00393 0.992422
0.996441 1.00496 0.995685
0.997008 1.00406 0.995877
0.995584 1.0033 0.998723
0.995104 1.00057 0.984914
0.995867 1.00201 0.999062
0.995837 0.999611 0.989039
0.994818 0.994841 0.869525
0.994768 0.994803 0.876888
0.994805 0.994807 0.884076
0.994918 1.00314 0.994202
0.994927 1.00026 0.967693
0.994791 0.994837 0.87364
0.995296 0.999942 0.944625
0.994747 0.999923 0.898982
0.994755 0.99479 0.855749
0.994721 0.994779 0.829491
0.995517 1.00437 0.988423
0.994817 0.994847 0.863402
0.99467 0.994773 0.843412
0.994894 0.999943 0.964595
0.997935 0.998163 0.894711
0.995536 0.999907 0.939715
0.994859 1.00435 0.986034
0.994674 0.994811 0.849437
0.999719 0.995601 0.900075
0.997367 0.997791 0.935614
0.994837 0.997313 0.966585
0.995574 1.00386 0.998413
0.996511 0.999637 1.00077
0.998935 1.00257 0.995688
0.996328 1.00003 0.999546
1.00086 0.998939 0.994414
1.00332 0.999949 0.988959
1.0035 1.00274 0.986734
1.00328 1.00422 0.984143
1.00416 1.00193 0.984792
1.00475 1.00381 0.982831
1.00425 1.00412 0.982816
1.00475 1.00096 0.985288
1.00518 0.998612 0.986688
1.00514 1.0002 0.985231
1.00496 1.00085 0.984931
1.00504 1.00142 0.984662
1.00504 1.00117 0.984679
1.00481 1.00214 0.984021
1.00488 1.00147 0.985259
1.00465 1.00121 0.985371
1.00495 1.00127 0.984774
1.00245 1.00375 0.986823
1.00353 1.00224 0.986436
1.00426 1.0009 0.986105
1.00026 1.00468 0.989234
1.00099 1.00499 0.988136
1.00168 1.00425 0.988058
0.999959 1.00019 0.995379
1.00037 1.00353 0.990671
1.00066 1.00479 0.989322
0.999845 0.997757 0.997502
1 0.999635 0.995472
1.00037 1.00253 0.991644
1.00007 0.999256 0.995403
0.999887 0.997508 0.998983
0.999942 0.99732 0.999011
1.00013 1.0049 0.989887
1.00042 1.00423 0.990039
1.00013 1.00483 0.989651
1.00041 1.00204 0.9921
1.0004 1.00352 0.990681
1.00018 0.998933 0.995521
1.00037 1.00153 0.992646
1.00054 1.00272 0.991257
1.00004 0.99707 0.999055
1.00021 0.998587 0.995819
1.0003 1.0012 0.9931
1.00006 0.996857 0.999144
1.00018 0.998322 0.996135
1.00006 0.996699 0.999218
0.994788 0.994833 0.871574
0.994783 0.994825 0.870198
0.994778 0.994835 0.876956
1.00045 1.00261 0.991031
1.00029 1.00447 0.989913
1.00059 1.0038 0.989781
1.00046 1.00448 0.989677
1.00064 1.00274 0.990838
1.0006 1.00362 0.990727
1.0016 1.00287 0.989328
0.999317 1.00485 0.990576
1.00048 1.00341 0.990664
1.00019 1.00316 0.991124
0.999656 1.00421 0.991024
0.998809 1.00514 0.992152
0.994688 0.9948 0.847969
0.994796 0.994811 0.856518
0.99481 0.994779 0.856261
0.994758 0.994789 0.849388
0.994838 0.999802 0.889145
0.995201 0.999109 0.936925
0.994876 0.99682 0.960666
0.995019 0.996467 0.96652
0.994711 0.994781 0.83938
0.99488 0.998663 0.94097
0.996135 0.999945 0.885294
0.994892 0.996202 0.968915
0.994885 0.99993 0.947667
0.998455 0.998074 0.890772
0.999187 1.00069 0.995849
0.998443 1.00389 0.993611
0.999017 1.00463 0.991641
0.995226 1.00069 0.98486
0.995247 1.00302 0.998897
0.997212 1.00367 0.995851
0.996919 1.00187 0.999017
0.995313 0.999164 0.989152
0.99699 0.998662 0.992332
0.994729 0.994864 0.857758
0.994821 0.994817 0.872041
0.994758 0.9948 0.877207
0.995346 1.00428 0.988773
0.994856 0.99998 0.964587
0.994805 0.994852 0.863523
0.994831 0.999939 0.936384
0.997926 0.996452 0.881925
0.994695 0.994788 0.851622
0.994878 1.00419 0.986094
0.994685 0.99483 0.858464
0.999739 0.994802 0.886744
0.994862 0.996672 0.962526
0.997385 0.998767 0.945422
0.994832 1.00352 0.990939
0.9998 0.994861 0.883673
0.999984 0.995555 0.947329
0.994882 0.994864 0.96191
0.996134 0.999668 1.00083
0.998514 1.00173 0.995495
1.00192 1.00279 0.989967
0.999774 0.999566 0.994902
1.00281 1.00056 0.988829
1.00444 0.99918 0.987653
1.00322 1.00423 0.984072
1.00404 1.00211 0.984792
1.00494 0.997332 0.987794
1.00425 1.00366 0.982924
1.00465 1.00072 0.98533
1.00519 0.99681 0.988384
1.00516 0.996795 0.98874
1.00519 0.998818 0.986537
1.00518 0.998486 0.986836
1.00515 1.00028 0.985221
1.00514 1.0002 0.985346
1.00496 1.00073 0.985024
1.00513 1.00133 0.984665
1.00497 1.00132 0.984739
1.00505 1.00117 0.984636
1.00417 1.00184 0.985732
1.00465 1.00155 0.985236
1.00436 1.00118 0.985493
1.00113 1.00479 0.987919
1.00259 1.00371 0.9868
1.00316 1.00227 0.986575
0.999822 1.00132 0.993652
1.00063 1.00454 0.989236
1.00116 1.00499 0.988146
0.999708 0.998197 0.998818
0.999962 1.00028 0.994528
1.00052 1.00339 0.990659
0.999839 0.99773 0.998937
0.999983 0.999726 0.995099
0.999887 0.997555 0.99897
1.00104 1.0037 0.989538
1.00016 1.00477 0.9898
1.00046 1.00471 0.989502
1.00031 1.0028 0.991493
1.00036 1.00421 0.990023
1.00021 1.0047 0.989646
1.00016 0.999282 0.995223
1.00037 1.00208 0.992111
1.00027 1.00367 0.99068
1.00001 0.997287 0.998985
1.00019 0.998881 0.995535
1.00037 1.00152 0.992653
1.00004 0.997033 0.999075
1.0002 0.998572 0.995835
1.00005 0.996827 0.999164
0.9947 0.994837 0.845058
0.994806 0.994835 0.871636
0.994795 0.99483 0.870037
1.00034 1.00283 0.990984
1.00273 1.00237 0.989352
1.00071 1.0032 0.990528
1.0005 1.00451 0.989555
1.00116 1.00253 0.990864
0.999979 1.00315 0.991272
0.999708 1.00475 0.990391
1.00112 1.00325 0.989553
1.00084 1.00436 0.989238
0.999604 1.00022 0.994867
0.999994 1.00414 0.990989
0.998975 1.00512 0.991813
0.999817 0.996571 0.880285
0.994672 0.994806 0.841967
0.994799 0.99481 0.856339
0.994753 0.994804 0.828674
0.996033 0.999007 0.899541
0.994846 0.999754 0.937508
0.995448 0.995468 0.963961
0.994844 0.996132 0.967508
0.997918 0.998726 0.892832
0.995573 0.999636 0.936928
0.994868 0.997564 0.969219
0.997722 0.998021 0.935443
1.00171 0.996977 0.995897
0.999102 1.00101 0.995811
0.998512 1.00404 0.993585
0.994893 0.998908 0.989288
0.997655 1.00173 0.99894
0.997432 0.998788 0.992065
0.998221 0.997122 0.990552
0.999837 0.994884 0.894409
0.994724 0.994869 0.85668
0.994837 0.994812 0.874453
0.994875 1.00417 0.986366
0.99489 0.99622 0.960678
0.994681 0.994836 0.858472
0.99814 0.997 0.934963
0.999782 0.99504 0.900607
0.995024 1.00226 0.988122
0.999819 0.994863 0.892684
1.00127 0.995706 0.935453
0.99488 0.994895 0.965043
0.9977 0.998109 0.989768
1 0.994907 0.948202
0.995696 0.994981 0.968269
0.998116 1.00088 0.995232
1.0016 1.00085 0.990007
1.00472 0.998047 0.989277
1.00231 1.00107 0.98871
1.00411 0.999246 0.987668
1.00501 0.996158 0.989421
1.00399 1.00228 0.984794
1.00489 0.997753 0.987716
1.00517 0.995319 0.98981
1.00458 1.00048 0.985372
1.0052 0.996839 0.988338
1.00517 0.995406 0.990011
1.00516 0.995922 0.989895
1.00516 0.996643 0.988949
1.00517 0.997386 0.988335
1.00521 0.999237 0.986364
1.00519 0.998888 0.986613
1.00519 0.998361 0.986986
1.0052 1.00074 0.985023
1.00516 1.00032 0.985178
1.00513 1.00018 0.985462
1.0049 1.00124 0.985177
1.00507 1.00135 0.98468
1.00485 1.00127 0.98482
1.00239 1.00365 0.987062
1.00415 1.00201 0.985719
1.00452 1.00162 0.985212
1.00002 1.00235 0.992274
1.00127 1.00467 0.987922
1.0028 1.00349 0.986779
0.999757 0.998578 0.998628
0.99989 1.00135 0.99361
1.00092 1.00445 0.989238
0.999772 0.998197 0.998008
0.999967 1.00035 0.99453
0.999851 0.997828 0.998874
1.00189 1.00234 0.989445
1.00058 1.00393 0.98977
1.00036 1.00503 0.989151
1.00023 1.00478 0.989713
1.0003 1.00484 0.989485
1.00029 1.00356 0.990795
1.00007 0.999826 0.99485
1.0003 1.0028 0.991501
1.00024 1.00434 0.990006
0.99997 0.997521 0.998905
1.00014 0.999272 0.995239
1.00032 1.00211 0.992122
1.00001 0.99725 0.999006
1.0002 0.99885 0.99555
1.00004 0.997014 0.999096
0.99982 0.994863 0.89253
0.994691 0.99484 0.849282
0.994816 0.994835 0.871663
1.00022 1.00326 0.990935
1.00073 1.00404 0.989552
1.00204 1.00255 0.989765
1.00413 1.00338 0.984691
1.00063 1.00384 0.989879
0.999886 1.0048 0.990212
1.00083 1.00368 0.98978
1.00043 1.00437 0.989549
1.00193 1.00195 0.988399
1.0014 0.999801 0.993087
1.00394 0.995232 0.992201
1.00015 0.999583 0.994792
0.99963 1.00413 0.991474
0.998488 0.996379 0.946229
0.999804 0.99591 0.885452
0.994653 0.994785 0.845254
0.998361 0.998902 0.879679
0.994957 0.999958 0.944989
0.9948 0.9958 0.968322
0.994881 0.997369 0.970813
0.99737 0.99898 0.947015
0.995862 0.996309 0.97074
1.00136 0.995962 0.996271
1.00095 0.997743 0.995931
0.999002 1.00145 0.995774
0.998078 0.998327 0.9919
0.998693 0.997428 0.990844
0.999965 0.995018 0.939836
0.999827 0.994894 0.898965
0.994708 0.994855 0.855706
0.994903 1.00113 0.985191
0.994912 0.994872 0.962141
0.999806 0.99494 0.892818
0.999924 0.995622 0.945791
0.996903 0.998389 0.990232
1.00082 0.994922 0.945748
0.996557 0.994891 0.965475
1.00122 0.996029 0.989293
0.998829 0.994867 0.974938
1.00133 0.999133 0.990147
1.00445 0.997188 0.989222
1.00498 0.995674 0.99073
1.00368 0.999396 0.98768
1.00481 0.996254 0.989317
1.00516 0.994939 0.990323
1.00479 0.998214 0.987639
1.00516 0.995402 0.989748
1.00517 0.994946 0.990446
1.0052 0.996866 0.988292
1.00518 0.995445 0.989966
1.00517 0.995123 0.990461
1.00516 0.995731 0.989989
1.00515 0.996269 0.989564
1.00517 0.996491 0.98916
1.00517 0.997397 0.988318
1.0052 0.998197 0.987473
1.00522 0.999953 0.985796
1.0052 0.999292 0.986344
1.00518 0.998956 0.98669
1.00519 1.00084 0.985039
1.00519 1.00078 0.984939
1.00517 1.00035 0.985132
1.00345 1.00223 0.98657
1.00481 1.00134 0.985183
1.00498 1.00137 0.984693
1.00065 1.00243 0.991103
1.00234 1.00369 0.987064
1.00401 1.00229 0.985705
0.999879 0.999338 0.998268
1.00014 1.00223 0.992256
1.0015 1.00456 0.987924
0.999834 0.998771 0.998515
0.999995 1.00127 0.993567
0.999846 0.998238 0.998708
1.00379 1.00221 0.985612
1.00199 1.00212 0.989352
1.00069 1.00458 0.98872
1.00017 1.0039 0.990005
1.00033 1.00496 0.98911
1.00041 1.00419 0.989961
1.00019 1.00487 0.989468
1.00023 1.00359 0.990791
1.00004 1.00039 0.994367
0.999909 0.997888 0.998795
1.00006 0.999766 0.994869
1.00028 1.00278 0.99151
0.999969 0.997507 0.998932
1.00013 0.999244 0.995254
1.00002 0.997209 0.999028
0.999994 0.994915 0.950099
0.99984 0.994868 0.891782
0.994674 0.994842 0.844851
1.00072 1.00474 0.988579
1.00147 1.00244 0.990183
1.00121 1.00369 0.989501
1.00375 1.00354 0.985247
1.00452 1.00282 0.983782
1.0021 1.0032 0.987048
1.00008 1.00433 0.989853
1.00283 1.0017 0.987528
1.00126 0.999551 0.993238
1.00313 0.99864 0.989784
1.00445 0.995496 0.991888
1.00379 0.99573 0.992136
1.00355 0.995447 0.992481
0.99995 0.999988 0.994717
0.996039 0.995367 0.969555
0.99985 0.996252 0.942694
0.998356 0.996324 0.8987
0.997298 0.999006 0.935386
0.994886 0.997581 0.97124
0.99553 0.996613 0.976009
0.999617 0.996939 0.992084
1.00185 0.995558 0.996008
1.00037 0.998501 0.995971
0.99952 0.998318 0.991152
0.996715 0.99683 0.970549
1.00004 0.994935 0.951034
0.999826 0.99489 0.885846
0.996277 0.998765 0.990546
0.99674 0.994862 0.967073
1.00005 0.995228 0.943174
1.00056 0.995726 0.989439
0.998425 0.995415 0.974385
1.00339 0.99524 0.990578
1.00283 0.997807 0.986131
1.00409 0.996094 0.989133
1.00478 0.995442 0.990762
1.00515 0.994842 0.99075
1.0047 0.996352 0.989214
1.00516 0.994942 0.990289
1.00518 0.994931 0.990499
1.00516 0.995455 0.989686
1.00517 0.994948 0.990415
1.00519 0.994954 0.990528
1.00518 0.995474 0.989922
1.00515 0.995146 0.990417
1.00517 0.995384 0.990213
1.00516 0.995547 0.990082
1.00516 0.996128 0.989674
1.00518 0.997411 0.988441
1.00517 0.99741 0.9883
1.0052 0.99826 0.987448
1.00522 0.999294 0.986552
1.00524 1.0004 0.985325
1.00523 1.00004 0.985687
1.0052 0.999349 0.986323
1.00423 1.00104 0.986438
1.00512 1.00087 0.985058
1.00518 1.00082 0.984855
1.00117 1.00217 0.990462
1.00339 1.00237 0.986571
1.00469 1.00144 0.985191
1.00019 0.999904 0.997805
1.00076 1.00235 0.991087
1.00228 1.00374 0.987068
1.00003 0.999456 0.998084
1.00019 1.00225 0.992242
0.999944 0.998867 0.99837
1.00456 1.00215 0.98439
1.0042 1.00215 0.985722
1.00262 1.00324 0.986646
1.00197 1.00208 0.989258
1.00088 1.00437 0.988536
1.00089 1.00463 0.988907
1.00025 1.00492 0.989068
1.00037 1.00423 0.989953
1.00001 1.001 0.993801
1.00019 1.00367 0.990787
1 1.00035 0.994393
0.999847 0.998296 0.998654
0.999907 0.997819 0.998835
1.00006 0.999728 0.994888
0.999965 0.997455 0.998957
0.996941 0.994859 0.970866
0.999996 0.995244 0.939046
0.999827 0.99487 0.901188
1.00517 1.00061 0.984773
1.0018 1.00364 0.989129
1.00338 1.00369 0.985806
1.00266 1.00292 0.987094
1.00454 1.00306 0.983717
1.00404 1.00039 0.986986
1.00367 1.00173 0.986658
1.001 0.99933 0.993391
1.00356 0.998695 0.989542
1.0044 0.995535 0.991248
1.0048 0.995644 0.989942
1.00406 0.99549 0.992239
1.00372 0.995396 0.992146
1.00315 0.995613 0.992756
0.999686 0.996762 0.991022
0.995875 0.995081 0.967875
0.999251 0.995697 0.939557
0.99512 0.996677 0.974584
0.999544 0.996438 0.994307
1.00181 0.994941 0.995717
1.00085 0.997298 0.984773
0.996607 0.995798 0.971598
0.999968 0.994899 0.939796
0.999668 0.995761 0.989642
0.998571 0.995656 0.973464
1.00271 0.995414 0.990961
1.00294 0.997264 0.986781
1.00428 0.994818 0.991158
1.00468 0.997418 0.99061
1.00459 0.995207 0.990786
1.00515 0.99484 0.990643
1.00525 0.994833 0.990438
1.00516 0.994941 0.990255
1.00517 0.994924 0.990492
1.00522 0.994911 0.990494
1.00517 0.994946 0.990383
1.00519 0.994948 0.990523
1.0052 0.995088 0.990499
1.00514 0.995168 0.990372
1.00518 0.995366 0.990196
1.00518 0.99641 0.989321
1.00516 0.995988 0.989784
1.00518 0.997254 0.988623
1.00522 0.998694 0.987181
1.0052 0.998322 0.987422
1.00522 0.999277 0.986562
1.00524 1.00015 0.985647
1.00451 1.00049 0.986493
1.00523 1.00048 0.98527
1.00524 1.00012 0.98558
1.00172 1.00143 0.990308
1.00416 1.00114 0.98643
1.00508 1.00091 0.985076
1.00039 1.00024 0.9975
1.00137 1.0019 0.990456
1.00333 1.00244 0.986572
1.0003 0.999987 0.997675
1.00091 1.00217 0.991074
1.00018 0.999636 0.997906
1.00518 1.00134 0.98429
1.00489 1.00207 0.984341
1.00438 1.00201 0.985316
1.00469 1.00212 0.985833
1.00285 1.00338 0.986523
1.00161 1.00456 0.987714
1.00109 1.00421 0.988351
1.00066 1.00474 0.988916
1.00006 1.00173 0.99301
1.00027 1.00428 0.989945
0.999986 1.00094 0.993831
0.999805 0.998795 0.998491
0.999971 1.0003 0.994419
0.999845 0.998225 0.998707
0.999907 0.99777 0.998871
1.00107 0.994867 0.988747
0.996731 0.994881 0.96768
0.999966 0.9949 0.950241
1.00513 0.999195 0.986532
1.0052 0.998732 0.986888
1.00515 1.00045 0.984994
1.00318 1.00253 0.987134
1.00458 1.00332 0.983647
1.00415 1.00018 0.987216
1.00509 0.99673 0.988463
1.00406 0.998629 0.989307
1.0044 0.995824 0.990603
1.00476 0.996125 0.990115
1.00513 0.995175 0.990277
1.00412 0.995611 0.991615
1.00372 0.995693 0.992195
1.00394 0.995023 0.992158
1.00016 0.996496 0.991155
0.995617 0.994884 0.966298
0.999757 0.996233 0.996621
1.00441 0.995332 0.991378
1.00081 0.997224 0.984968
0.99649 0.995448 0.969429
1.00243 0.994852 0.991321
1.003 0.996988 0.987464
1.00431 0.994927 0.991667
1.00469 0.99666 0.990655
1.00527 0.994914 0.990572
1.00534 0.994955 0.99077
1.00516 0.994846 0.99054
1.00526 0.994859 0.990415
1.00526 0.994888 0.990438
1.00517 0.994919 0.990485
1.00522 0.994907 0.990514
1.0052 0.994933 0.990614
1.00519 0.994943 0.99052
1.0052 0.995069 0.990482
1.00519 0.995767 0.98995
1.00518 0.995356 0.990178
1.00519 0.996435 0.989311
1.00523 0.998068 0.987736
1.00518 0.997091 0.988805
1.00522 0.998627 0.987249
1.00525 0.999879 0.985899
1.00522 0.999262 0.986573
1.00524 1.0001 0.985701
1.00462 1.00025 0.986558
1.00199 1.00076 0.990465
1.00449 1.00053 0.986491
1.00521 1.00056 0.985216
1.00048 1.00042 0.997336
1.00176 1.00136 0.990308
1.00408 1.00129 0.986425
1.00044 1.00031 0.997422
1.00149 1.00175 0.99045
1.00038 1.00009 0.99756
1.00526 0.999881 0.98567
1.0052 1.00128 0.984433
1.00512 1.00095 0.985047
1.00516 1.00198 0.984292
1.00444 1.00183 0.985346
1.00268 1.00332 0.986923
1.003 1.00346 0.986401
1.00137 1.00475 0.987723
1.00037 1.00241 0.991796
1.00047 1.00489 0.988926
0.999994 1.00171 0.993039
0.999849 0.999345 0.998215
0.999963 1.00089 0.993861
0.999784 0.998667 0.998553
0.999837 0.998143 0.998754
1.00425 0.994862 0.992222
1.00106 0.994884 0.986822
0.996601 0.994888 0.966641
1.00515 0.997952 0.987891
1.00513 0.99877 0.986819
1.00525 0.99736 0.98818
1.0052 0.998718 0.986874
1.00514 1.00028 0.985213
1.0052 0.995836 0.989264
1.0043 1.00002 0.987441
1.00508 0.997026 0.988402
1.00527 0.994898 0.99026
1.00471 0.996433 0.990289
1.00509 0.995219 0.990128
1.00408 0.995652 0.991785
1.00317 0.995842 0.992148
1.0005 0.996118 0.991179
1.00532 0.994924 0.990546
1.00434 0.996153 0.991495
1.00089 0.996797 0.985169
1.0043 0.995088 0.992163
1.00468 0.995965 0.990705
1.00526 0.994899 0.990618
1.00535 0.994951 0.990718
1.00529 0.994938 0.990689
1.00526 0.994884 0.990394
1.00526 0.9949 0.99045
1.0052 0.994899 0.990703
1.00522 0.994902 0.990534
1.0052 0.994925 0.99061
1.00521 0.995291 0.990434
1.0052 0.995044 0.990464
1.0052 0.995791 0.989935
1.00524 0.997444 0.988371
1.00519 0.996459 0.989301
1.00523 0.998079 0.98775
1.00527 0.999587 0.986199
1.00522 0.998561 0.987317
1.00525 0.999875 0.985921
1.00467 1.00016 0.986581
1.00524 1.00006 0.985754
1.00463 1.00026 0.98656
1.00206 1.00038 0.99218
1.00073 1.00014 0.994347
1.00203 1.00073 0.9912
1.00447 1.00058 0.986489
1.0005 1.00046 0.997308
1.00188 1.00117 0.990305
1.00047 1.00039 0.997352
1.00526 0.997155 0.988515
1.00524 0.998805 0.986903
1.00525 0.99989 0.985827
1.00516 1.00051 0.985351
1.00521 1.0012 0.984574
1.00514 1.00093 0.985017
1.00372 1.00158 0.986745
1.00457 1.00163 0.985377
1.00274 1.00314 0.986924
1.00093 1.00249 0.990681
1.00115 1.0049 0.987729
1.00024 1.00253 0.991818
1.00002 1.0001 0.997763
0.999936 1.00167 0.993068
0.99977 0.999241 0.99833
0.99978 0.998573 0.998611
1.00533 0.994864 0.990499
1.00455 0.994858 0.99203
1.00124 0.994901 0.984946
1.00519 0.99634 0.989058
1.00514 0.997875 0.987732
1.00513 0.998366 0.987107
1.00523 0.997504 0.988163
1.00521 0.9987 0.98686
1.00524 0.995169 0.990302
1.00517 0.995866 0.989227
1.00506 0.997375 0.988339
1.00527 0.994895 0.990268
1.00508 0.995279 0.989979
1.0041 0.995728 0.991965
1.00526 0.994932 0.990783
1.00532 0.994925 0.990724
1.00426 0.996914 0.991617
1.00525 0.994888 0.990656
1.00536 0.994948 0.990669
1.00529 0.994932 0.990646
1.00519 0.994963 0.990897
1.00526 0.994915 0.990461
1.0052 0.994907 0.990682
1.00523 0.995007 0.990774
1.0052 0.994918 0.990606
1.0052 0.995302 0.990425
1.00525 0.996934 0.988874
1.0052 0.995817 0.98992
1.00524 0.997459 0.988379
1.00528 0.999295 0.986505
1.00523 0.998091 0.987765
1.00527 0.999581 0.98622
1.0047 1.00014 0.986575
1.00525 0.999869 0.985943
1.00468 1.00015 0.98659
1.00217 1.0001 0.992289
1.00463 1.00026 0.986561
1.00223 1.00029 0.992084
1.00075 0.999999 0.994493
1.0005 1.0004 0.995873
1.00221 1.00067 0.991791
1.0005 1.00053 0.997294
1.00522 0.996328 0.989449
1.00525 0.998395 0.987258
1.00525 0.996953 0.988722
1.00526 0.999937 0.985783
1.00524 0.998884 0.986865
1.00524 0.99991 0.985985
1.0052 1.0005 0.985302
1.00428 1.00068 0.986692
1.00517 1.00092 0.984985
1.00383 1.00139 0.986744
1.00149 1.00187 0.990282
1.00277 1.00296 0.986926
1.00078 1.00267 0.99068
1.00016 1.00076 0.997403
1.00005 1.00267 0.991838
0.999879 0.999947 0.997948
0.999725 0.999082 0.998425
1.00524 0.99487 0.990651
1.00531 0.994865 0.990479
1.00477 0.994863 0.991814
1.00521 0.99551 0.990122
1.00519 0.996439 0.989028
1.00513 0.997799 0.987578
1.00522 0.997654 0.988146
1.00523 0.995155 0.990264
1.00515 0.995914 0.989189
1.00524 0.994892 0.990276
1.0052 0.994947 0.990928
1.00526 0.994928 0.990772
1.00532 0.994926 0.990901
1.00517 0.994968 0.991021
1.0053 0.994923 0.990603
1.00519 0.994958 0.990898
1.00524 0.994935 0.990893
1.0052 0.994915 0.990662
1.00521 0.99501 0.990769
1.00525 0.996625 0.989227
1.0052 0.995317 0.990416
1.00525 0.996952 0.988879
1.00528 0.999005 0.986831
1.00524 0.997475 0.988388
1.00528 0.999286 0.986523
1.00472 1.00009 0.986602
1.00527 0.999574 0.986242
1.00471 1.00012 0.98659
1.00223 1.00006 0.992239
1.0047 1.00013 0.986597
1.00232 1.00004 0.992168
1.00081 0.999892 0.994532
1.0024 1.00018 0.991996
1.00041 1.00017 0.994718
1.00001 1.00071 0.997686
1.00523 0.99623 0.989441
1.00525 0.997689 0.988077
1.00523 0.996404 0.989279
1.0053 0.999608 0.986209
1.00525 0.998137 0.987479
1.00524 0.996758 0.988927
1.00463 1.00011 0.986664
1.00527 0.999935 0.985748
1.00525 0.998954 0.986825
1.00524 1.00049 0.985253
1.00433 1.00059 0.986691
1.00179 1.00124 0.990377
1.00392 1.00118 0.986746
1.00136 1.00205 0.990284
1.00021 1.00103 0.997287
1.00069 1.00281 0.990685
1.00009 1.00058 0.997526
0.999761 0.99977 0.998114
1.0052 0.995028 0.990778
1.00525 0.994874 0.990632
1.00531 0.994865 0.99046
1.0052 0.995384 0.990253
1.00518 0.996526 0.988998
1.00524 0.995125 0.990227
1.00517 0.99495 0.991007
1.0052 0.994948 0.990938
1.00526 0.994924 0.990761
1.00517 0.99497 0.991025
1.00524 0.995043 0.990808
1.00519 0.994952 0.990899
1.00524 0.99503 0.990802
1.00526 0.996218 0.989696
1.0052 0.99501 0.990763
1.00527 0.996603 0.989224
1.00526 0.998734 0.987161
1.00526 0.996959 0.988884
1.00529 0.998991 0.986839
1.00471 0.999989 0.986716
1.00529 0.999277 0.986541
1.00472 1.00008 0.986615
1.00226 1.00013 0.99211
1.00472 1.0001 0.986604
1.00237 1.00001 0.992099
1.00087 0.999899 0.994437
1.00245 0.99999 0.992057
1.00051 0.999943 0.994778
1.00008 1.00035 0.994928
1.00522 0.995632 0.990176
1.00525 0.997418 0.988344
1.00524 0.996024 0.989586
1.00529 0.999059 0.986802
1.00524 0.9978 0.987948
1.00524 0.996478 0.989108
1.00476 0.999856 0.986734
1.0053 0.999426 0.986295
1.00526 0.997879 0.9877
1.00201 1.00056 0.99062
1.00464 1.00008 0.986662
1.00527 0.999937 0.985713
1.00437 1.0005 0.986689
1.00173 1.00131 0.990389
1.00027 1.00101 0.997301
1.00125 1.00224 0.990285
1.0002 1.00093 0.997318
0.999965 1.00047 0.997675
1.00516 0.994945 0.990975
1.0052 0.995031 0.990728
1.00525 0.994878 0.990614
1.00519 0.99527 0.990384
1.0052 0.995112 0.990793
1.00517 0.994956 0.991009
1.0052 0.99495 0.990948
1.00517 0.994974 0.991029
1.00524 0.995095 0.990806
1.00525 0.996275 0.989622
1.00523 0.995135 0.990711
1.00527 0.996462 0.989419
1.00523 0.998263 0.98776
1.00529 0.996592 0.98922
1.00526 0.998729 0.987165
1.00468 0.999874 0.986889
1.00529 0.998988 0.986846
1.00471 0.999982 0.986724
1.0023 1.00018 0.990589
1.00473 1.00007 0.986628
1.00238 1.00009 0.991259
1.00076 0.999957 0.997302
1.0025 0.999978 0.99196
1.0006 0.999887 0.994696
1.00023 0.999982 0.995008
1.00518 0.9954 0.990592
1.00523 0.99701 0.988869
1.00523 0.995685 0.990124
1.00526 0.998715 0.987106
1.00524 0.997425 0.988318
1.00525 0.995816 0.989731
1.00478 0.999647 0.986794
1.00529 0.999052 0.986811
1.00523 0.997909 0.98782
1.0022 1.00003 0.990825
1.00475 0.999791 0.986715
1.0053 0.999239 0.986383
1.0004 1.0007 0.997369
1.00202 1.00055 0.990627
1.00465 1.00005 0.986661
1.00167 1.00136 0.990403
1.00027 1.00093 0.997289
1.00016 1.00085 0.997364
1.0052 0.995006 0.990901
1.00517 0.994943 0.990962
1.0052 0.995035 0.990679
1.00525 0.996491 0.989454
1.0052 0.99507 0.990873
1.00516 0.994963 0.99101
1.00524 0.995147 0.990804
1.00525 0.996325 0.989623
1.0052 0.998269 0.987901
1.00528 0.996697 0.989143
1.00522 0.998496 0.98754
1.00464 0.999579 0.987161
1.00526 0.998713 0.987169
1.00468 0.999868 0.986895
1.00227 1.00014 0.990685
1.00472 0.999978 0.986733
1.00231 1.00017 0.990594
1.00073 1 0.99728
1.00241 1.00008 0.990521
1.00064 0.999954 0.995989
1.00033 0.999853 0.994952
1.0052 0.99548 0.990474
1.00523 0.996927 0.989017
1.00519 0.995284 0.990646
1.00525 0.998806 0.987047
1.00523 0.997089 0.98879
1.00523 0.995736 0.990072
1.00475 0.99959 0.98691
1.00526 0.998904 0.986965
1.00523 0.997434 0.988293
1.00231 0.999818 0.990856
1.00476 0.999638 0.986804
1.0053 0.999046 0.98682
1.00058 1.00029 0.997397
1.00222 1 0.990828
1.00474 0.999723 0.986693
1.0004 1.00067 0.997338
1.00202 1.00054 0.990633
1.00025 1.0009 0.997296
1.00526 0.99639 0.989532
1.00519 0.995144 0.990814
1.00517 0.994942 0.99095
1.00524 0.998179 0.987925
1.00525 0.996399 0.989526
1.00521 0.99501 0.990954
1.00525 0.996374 0.989624
1.0052 0.99827 0.987901
1.0046 0.999465 0.987342
1.00522 0.998729 0.987321
1.00465 0.999666 0.987099
1.00225 1.00004 0.990806
1.00468 0.99986 0.986901
1.00225 1.00014 0.990691
1.00069 1.00002 0.997268
1.0023 1.00016 0.990597
1.00072 1.00001 0.99727
1.00072 0.999914 0.994445
1.00527 0.99686 0.988987
1.0052 0.995248 0.990635
1.00526 0.998652 0.987229
1.00523 0.996938 0.989006
1.00521 0.995166 0.990699
1.00471 0.999715 0.986987
1.00524 0.998815 0.987042
1.00523 0.997166 0.98871
1.00235 0.999842 0.990784
1.00474 0.999669 0.986893
1.00526 0.999096 0.986823
1.00073 1.00003 0.997357
1.00232 0.999813 0.990857
1.00474 0.999623 0.986814
1.00056 1.00032 0.997388
1.00223 0.999995 0.990831
1.00041 1.00066 0.997312
1.00526 0.998205 0.987825
1.00526 0.996488 0.989438
1.00518 0.995278 0.990727
1.00458 0.999411 0.98742
1.00524 0.998176 0.98793
1.00525 0.996321 0.989598
1.0052 0.998272 0.987902
1.00462 0.999452 0.987318
1.00219 0.999998 0.990955
1.00465 0.999754 0.987037
1.00224 1.00005 0.99081
1.00068 1.00002 0.997279
1.00225 1.00015 0.990697
1.00068 1.00004 0.997276
1.00071 1.00002 0.997267
1.00527 0.998496 0.987371
1.00527 0.996585 0.989261
1.0052 0.994999 0.990796
1.00467 0.999677 0.987117
1.00525 0.998659 0.987223
1.00523 0.99695 0.988996
1.00232 0.999944 0.990758
1.0047 0.999726 0.986982
1.00524 0.998824 0.987038
1.00077 0.999944 0.997293
1.00236 0.999858 0.990783
1.00472 0.999743 0.986877
1.0007 1.00007 0.997374
1.00233 0.999826 0.990857
1.00057 1.00032 0.997371
1.0046 0.99959 0.987308
1.00526 0.998103 0.987881
1.00526 0.996589 0.989343
1.00216 0.999931 0.991101
1.00459 0.999394 0.987413
1.00523 0.998175 0.987935
1.00464 0.999434 0.987295
1.0022 0.999976 0.990961
1.00066 1.00002 0.997283
1.00222 1.00006 0.990814
1.00067 1.00002 0.997275
1.00065 1.00005 0.99728
1.00463 0.999627 0.987235
1.00527 0.998332 0.987546
1.00527 0.996326 0.989536
1.00237 0.999994 0.992117
1.00465 0.99968 0.987119
1.00524 0.998667 0.987216
1.00075 0.999956 0.997264
1.00233 0.999963 0.990757
1.00468 0.999738 0.986977
1.00077 0.999973 0.997319
1.00236 0.999881 0.990782
1.00068 1.00009 0.997387
1.00224 0.99993 0.991013
1.0046 0.999496 0.987348
1.00526 0.997999 0.987936
1.00059 0.999989 0.997328
1.00215 0.99993 0.991097
1.0046 0.99938 0.987406
1.00219 0.999957 0.990964
1.00063 1.00001 0.997297
1.00066 1.00004 0.997277
1.00238 0.999966 0.992176
1.00462 0.999628 0.987234
1.00526 0.998163 0.98772
1.00029 0.999995 0.997706
1.00226 0.999998 0.990848
1.00464 0.99968 0.987122
1.00075 0.999967 0.997279
1.00233 0.999984 0.990756
1.00076 0.999993 0.99734
1.00059 0.999967 0.99467
1.00226 0.99993 0.991669
1.00459 0.999402 0.987387
1.00062 0.999991 0.997333
1.00215 0.999932 0.991101
1.00065 1 0.997307
1.00018 0.999992 0.995066
1.00229 0.999957 0.991583
1.00461 0.999633 0.987234
1.00047 0.999988 0.996132
1.00226 0.999999 0.990861
1.00076 0.999977 0.997297
1.00061 0.999979 0.997326
1.00216 0.999923 0.991102
1.00058 0.999992 0.997331
1.00041 0.999976 0.9962
1.0022 0.999952 0.991011
1.0007 0.999982 0.997286
1.00063 0.999977 0.997335
1.00063 0.99998 0.997315

TENSORS stress float
0.0018935 -0.000118806 0.000211284
-0.000118806 0.000815991 -3.21424e-05
0.000211284 -3.21424e-05 0.00079288
0.00594304 -3.66034e-05 0.00022258
-3.66034e-05 0.00329744 2.34817e-05
0.00022258 2.34817e-05 0.00328959
0.00163174 -5.08844e-05 9.34082e-05
-5.08844e-05 0.000659551 -1.28578e-05
9.34082e-05 -1.28578e-05 0.000626872
0.00198707 -6.91715e-05 0.000209129
-6.91715e-05 0.000847438 -1.93388e-05
0.000209129 -1.93388e-05 0.000830577
0.001958 -0.000105833 0.000207352
-0.000105833 0.000845546 -2.85777e-05
0.000207352 -2.85777e-05 0.000824986
0.00183687 -0.000117588 0.000216906
-0.000117588 0.000782522 -3.26495e-05
0.000216906 -3.26495e-05 0.000760574
0.00161619 -0.000100616 3.75209e-05
-0.000100616 0.000567023 -1.11647e-05
3.75209e-05 -1.11647e-05 0.000472917
0.00588498 -4.41313e-05 -6.96103e-06
-4.41313e-05 0.00325186 -3.53756e-07
-6.96103e-06 -3.53756e-07 0.00324918
0.00581793 0.000133528 0.000108764
0.000133528 0.00318936 8.44155e-06
0.000108764 8.44155e-06 0.00317116
0.00566941 -0.000129897 4.39924e-05
-0.000129897 0.00311648 2.54928e-06
4.39924e-05 2.54928e-06 0.00309122
0.00175395 0.000142939 0.000218766
0.000142939 0.000721766 2.33746e-05
0.000218766 2.33746e-05 0.00071679
0.000590896 0.000224193 2.56477e-05
0.000224193 -3.67516e-05 1.67277e-05
2.56477e-05 1.67277e-05 -0.000144106
0.00169764 -3.42121e-05 0.000213747
-3.42121e-05 0.000667718 3.18365e-06
0.000213747 3.18365e-06 0.000663783
0.00134008 -4.57205e-06 4.74285e-05
-4.57205e-06 0.000473157 1.32558e-06
4.74285e-05 1.32558e-06 0.00043275
0.00142397 -4.75406e-05 -4.13725e-05
-4.75406e-05 0.000537969 7.22014e-06
-4.13725e-05 7.22014e-06 0.000495657
0.00166605 -7.17089e-05 7.08269e-05
-7.17089e-05 0.000667352 -4.13921e-06
7.08269e-05 -4.13921e-06 0.000637365
0.00162856 -3.53733e-05 0.000100682
-3.53733e-05 0.000665469 -1.29698e-05
0.000100682 -1.29698e-05 0.000629142
0.0016504 -6.35309e-05 8.31759e-05
-6.35309e-05 0.000660935 -1.04449e-05
8.31759e-05 -1.04449e-05 0.000631973
0.00167461 -0.000139061 -3.48803e-05
-0.000139061 0.000596924 4.2502e-06
-3.48803e-05 4.2502e-06 0.000511428
0.00572656 -0.000122045 0.000266662
-0.000122045 0.00314266 -9.4052e-06
0.000266662 -9.4052e-06 0.00315265
0.0019479 -4.93511e-05 0.000209931
-4.93511e-05 0.000821986 -1.43656e-05
0.000209931 -1.43656e-05 0.000806766
0.00199525 -8.90293e-05 0.000207557
-8.90293e-05 0.000858637 -2.42063e-05
0.000207557 -2.42063e-05 0.000840441
0.0016188 -0.000118186 5.89082e-05
-0.000118186 0.000547426 -8.89188e-06
5.89082e-05 -8.89188e-06 0.00046324
0.00162411 -0.000111927 4.69224e-05
-0.000111927 0.000556885 -1.04258e-05
4.69224e-05 -1.04258e-05 0.000470174
0.00178864 -9.2961e-05 0.000214645
-9.2961e-05 0.000744552 -2.9142e-05
0.000214645 -2.9142e-05 0.000726232
0.00157924 -8.99403e-05 2.98537e-05
-8.99403e-05 0.000564969 -1.19865e-05
2.98537e-05 -1.19865e-05 0.000461461
0.00203625 -0.000253196 1.55218e-05
-0.000253196 0.00066087 -6.69529e-06
1.55218e-05 -6.69529e-06 0.0004949
0.00583798 -5.91158e-05 -0.000219838
-5.91158e-05 0.00321457 -1.47371e-05
-0.000219838 -1.47371e-05 0.00321631
0.00375137 0.000108144 -0.000121784
0.000108144 0.00193704 -1.18359e-05
-0.000121784 -1.18359e-05 0.00191747
0.00364072 6.7e-06 -0.000116719
6.7e-06 0.00188726 -8.2215e-06
-0.000116719 -8.2215e-06 0.00186529
0.0057243 -0.000112489 -2.76925e-06
-0.000112489 0.00316824 3.86398e-07
-2.76925e-06 3.86398e-07 0.0031584
0.000544493 0.000206808 -1.70119e-06
0.000206808 -6.14146e-05 -9.90229e-07
-1.70119e-06 -9.90229e-07 -0.000168478
0.0016818 5.92791e-05 0.000213547
5.92791e-05 0.000665818 1.78747e-05
0.000213547 1.78747e-05 0.000651338
0.00181176 0.000140196 0.000216753
0.000140196 0.000772946 2.73e-05
0.000216753 2.73e-05 0.000750223
0.00269268 0.000189045 0.000131611
0.000189045 0.00119961 1.77771e-05
0.000131611 1.77771e-05 0.00112776
0.00485207 -0.000351997 -1.79173e-05
-0.000351997 0.00271112 8.37812e-06
-1.79173e-05 8.37812e-06 0.00264137
0.00278337 0.000249155 0.000133228
0.000249155 0.00128753 2.13001e-05
0.000133228 2.13001e-05 0.00120615
0.000549133 0.000182703 2.76087e-05
0.000182703 -5.64857e-05 2.1501e-05
2.76087e-05 2.1501e-05 -0.000160345
0.000877975 0.000199522 1.15318e-05
0.000199522 3.77707e-05 5.7304e-06
1.15318e-05 5.7304e-06 -0.000142606
0.00375905 -0.000104103 0.000135976
-0.000104103 0.00198216 7.77036e-06
0.000135976 7.77036e-06 0.00198555
0.00573258 7.46616e-05 3.64144e-06
7.46616e-05 0.00313593 -1.56514e-06
3.64144e-06 -1.56514e-06 0.00315154
0.00364956 7.39538e-05 -0.000101381
7.39538e-05 0.00187034 -4.04397e-06
-0.000101381 -4.04397e-06 0.00185757
0.00561014 6.0123e-05 0.000260573
6.0123e-05 0.00306453 3.44532e-06
0.000260573 3.44532e-06 0.00308032
0.00132319 8.00001e-05 5.03948e-05
8.00001e-05 0.000462681 3.04367e-06
5.03948e-05 3.04367e-06 0.000427026
0.00061216 1.01836e-05 1.59955e-05
1.01836e-05 -9.15369e-05 1.80505e-06
1.59955e-05 1.80505e-06 -0.000169158
0.00570612 0.000207329 0.000141821
0.000207329 0.00314596 1.2943e-05
0.000141821 1.2943e-05 0.00312236
0.00273644 6.56651e-05 0.000126571
6.56651e-05 0.00119287 7.7073e-06
0.000126571 7.7073e-06 0.00113877
0.00128907 -7.68365e-05 -6.14519e-05
-7.68365e-05 0.000454705 7.54785e-06
-6.14519e-05 7.54785e-06 0.000410507
0.00133373 -8.42352e-05 -5.37664e-05
-8.42352e-05 0.000484989 8.61327e-06
-5.37664e-05 8.61327e-06 0.000440931
0.00148305 3.78708e-08 -2.95677e-05
3.78708e-08 0.000577913 6.72774e-06
-2.95677e-05 6.72774e-06 0.000533441
0.00170665 -0.000145348 -0.000114439
-0.000145348 0.000609409 1.94697e-05
-0.000114439 1.94697e-05 0.000532395
0.00358922 -8.86784e-07 -0.000105607
-8.86784e-07 0.00184151 -1.97814e-06
-0.000105607 -1.97814e-06 0.00182713
0.00164896 -5.47912e-05 7.67752e-05
-5.47912e-05 0.00065205 -3.43052e-06
7.67752e-05 -3.43052e-06 0.000625031
0.00158891 -1.21409e-05 0.00010442
-1.21409e-05 0.000643868 -1.10933e-05
0.00010442 -1.10933e-05 0.000606311
0.00166328 -6.90078e-05 7.56055e-05
-6.90078e-05 0.000664841 -7.07433e-06
7.56055e-05 -7.07433e-06 0.000636385
0.00168085 -9.77481e-05 -2.80569e-05
-9.77481e-05 0.000576481 1.53188e-06
-2.80569e-05 1.53188e-06 0.000501189
0.00164821 -0.000134676 -4.02767e-05
-0.000134676 0.000594503 4.53306e-06
-4.02767e-05 4.53306e-06 0.000503283
0.00168008 -0.000132752 -2.98547e-05
-0.000132752 0.00058942 3.02491e-06
-2.98547e-05 3.02491e-06 0.000508769
0.00202177 -0.000252129 -8.1229e-06
-0.000252129 0.000648774 2.19462e-06
-8.1229e-06 2.19462e-06 0.000482932
0.00558737 2.73224e-05 0.000255508
2.73224e-05 0.00304954 -6.82142e-07
0.000255508 -6.82142e-07 0.00306639
0.00190248 -2.81319e-05 0.000207872
-2.81319e-05 0.000797674 -9.85608e-06
0.000207872 -9.85608e-06 0.00078484
0.00242521 7.06265e-06 4.26753e-05
7.06265e-06 0.00102483 -8.99987e-07
4.26753e-05 -8.99987e-07 0.000961513
0.00161129 -9.58951e-05 5.218e-05
-9.58951e-05 0.000534884 -5.90042e-06
5.218e-05 -5.90042e-06 0.000456479
0.00162004 -0.000116894 5.43619e-05
-0.000116894 0.000549189 -9.9236e-06
5.43619e-05 -9.9236e-06 0.000464686
0.00189256 -0.000159917 1.16086e-05
-0.000159917 0.000510895 -2.93551e-06
1.16086e-05 -2.93551e-06 0.000371298
0.00173832 -0.000212512 1.64535e-05
-0.000212512 0.000448312 -5.59089e-06
1.64535e-05 -5.59089e-06 0.000292292
0.00149778 -5.0696e-05 0.000186827
-5.0696e-05 0.00056832 -2.18894e-05
0.000186827 -2.18894e-05 0.000553608
0.00150608 -5.24785e-05 2.12982e-05
-5.24785e-05 0.000540071 -1.18716e-05
2.12982e-05 -1.18716e-05 0.000435594
0.00199574 -0.000269868 1.49048e-05
-0.000269868 0.000672838 -7.51044e-06
1.49048e-05 -7.51044e-06 0.000497152
0.00138458 -0.000289131 6.72219e-06
-0.000289131 0.000110665 -1.71782e-06
6.72219e-06 -1.71782e-06 -9.71131e-05
0.00610543 0.000195178 -0.000275986
0.000195178 0.00336512 -2.64216e-05
-0.000275986 -2.64216e-05 0.00336874
0.00551535 -0.000136574 -0.00018559
-0.000136574 0.00304271 -1.18671e-05
-0.00018559 -1.18671e-05 0.00303355
0.00591406 1.7931e-05 -0.000237893
1.7931e-05 0.00324947 -1.81416e-05
-0.000237893 -1.81416e-05 0.00325722
0.000501764 0.000198295 -2.45546e-05
0.000198295 -8.16631e-05 -1.72962e-05
-2.45546e-05 -1.72962e-05 -0.000190789
0.00610425 0.000195901 -2.74113e-06
0.000195901 0.00336223 -2.07295e-06
-2.74113e-06 -2.07295e-06 0.00336724
0.00611335 0.000133288 -8.92225e-06
0.000133288 0.00336786 -1.9553e-06
-8.92225e-06 -1.9553e-06 0.00337295
0.000465499 0.000125434 8.5172e-09
0.000125434 -0.000152918 -2.64115e-07
8.5172e-09 -2.64115e-07 -0.000249644
0.0030911 -0.000125301 -7.99289e-05
-0.000125301 0.00158452 -3.09364e-06
-7.99289e-05 -3.09364e-06 0.0015527
0.0004688 0.000192639 -2.12011e-07
0.000192639 -0.000111505 -4.05049e-07
-2.12011e-07 -4.05049e-07 -0.000219811
0.00163747 0.000177087 4.46892e-05
0.000177087 0.00060833 2.02502e-06
4.46892e-05 2.02502e-06 0.000522025
0.00084523 0.000195167 3.34169e-07
0.000195167 1.61874e-05 -3.26786e-08
3.34169e-07 -3.26786e-08 -0.000162789
0.00461479 -0.000117841 0.000167523
-0.000117841 0.0025026 1.19796e-05
0.000167523 1.19796e-05 0.00249984
0.00068344 1.24456e-06 7.7717e-06
1.24456e-06 9.01762e-05 1.04731e-05
7.7717e-06 1.04731e-05 3.88193e-05
0.000572543 9.55407e-05 1.6451e-05
9.55407e-05 -0.000109097 9.28818e-06
1.6451e-05 9.28818e-06 -0.000200661
0.000616931 0.000152183 2.1384e-05
0.000152183 -4.78632e-05 1.6267e-05
2.1384e-05 1.6267e-05 -0.000150745
0.00101377 0.000177914 1.43153e-05
0.000177914 -7.33006e-06 5.41026e-06
1.43153e-05 5.41026e-06 -0.000170925
0.00274596 0.000119448 0.000109203
0.000119448 0.00130231 1.43501e-05
0.000109203 1.43501e-05 0.00123817
0.000898936 0.000196442 1.29961e-05
0.000196442 5.70904e-06 6.56438e-06
1.29961e-05 6.56438e-06 -0.000168472
0.000858745 0.000204726 1.07001e-05
0.000204726 8.94543e-05 5.22966e-06
1.07001e-05 5.22966e-06 -9.88573e-05
0.00107716 0.000265048 4.80956e-06
0.000265048 8.95233e-05 1.60298e-06
4.80956e-06 1.60298e-06 -0.000132327
0.00301493 -0.000121251 7.89266e-05
-0.000121251 0.00152743 3.05643e-06
7.89266e-05 3.05643e-06 0.00152751
0.00346917 -0.000145796 1.4292e-05
-0.000145796 0.00181331 -1.7177e-07
1.4292e-05 -1.7177e-07 0.00180632
0.00599599 3.94021e-05 -0.000267742
3.94021e-05 0.0032857 -1.2027e-05
-0.000267742 -1.2027e-05 0.00330006
0.00579804 6.49542e-05 -0.000267452
6.49542e-05 0.00317257 -7.40704e-06
-0.000267452 -7.40704e-06 0.00318909
0.00569573 8.45832e-05 -8.17635e-08
8.45832e-05 0.00312189 -3.15726e-06
-8.17635e-08 -3.15726e-06 0.00313396
0.00357402 2.15912e-05 -0.000114145
2.15912e-05 0.00182347 -5.1965e-06
-0.000114145 -5.1965e-06 0.0018148
0.00163605 3.55238e-05 5.44305e-05
3.55238e-05 0.000530824 1.22853e-06
5.44305e-05 1.22853e-06 0.00046727
0.00376473 0.000125593 -0.00010359
0.000125593 0.00194464 -5.54767e-06
-0.00010359 -5.54767e-06 0.00192595
0.00168095 8.39918e-05 5.44409e-05
8.39918e-05 0.000556656 2.35419e-06
5.44409e-05 2.35419e-06 0.000486196
0.0056583 0.000133621 0.000263718
0.000133621 0.00310912 6.64809e-06
0.000263718 6.64809e-06 0.00311543
0.000530585 1.07407e-05 1.87626e-05
1.07407e-05 -0.000136477 6.73163e-07
1.87626e-05 6.73163e-07 -0.00021184
0.00274302 3.15131e-05 0.000125782
3.15131e-05 0.0011974 5.21059e-06
0.000125782 5.21059e-06 0.00114729
0.0010311 4.3982e-05 1.23721e-05
4.3982e-05 -2.55371e-05 1.13113e-06
1.23721e-05 1.13113e-06 -0.000152454
0.00266624 0.000108524 0.000130025
0.000108524 0.00115695 1.00354e-05
0.000130025 1.00354e-05 0.00109789
0.00108465 0.000104026 1.23135e-05
0.000104026 -3.9603e-06 2.32063e-06
1.23135e-05 2.32063e-06 -0.000143485
0.00171779 4.29788e-05 -0.000212542
4.29788e-05 0.000680548 2.09576e-06
-0.000212542 2.09576e-06 0.00067738
0.00131361 -5.64191e-06 -4.83325e-05
-5.64191e-06 0.000461059 1.99575e-06
-4.83325e-05 1.99575e-06 0.000421093
0.00147902 3.88102e-05 -2.12149e-05
3.88102e-05 0.000582367 6.85068e-06
-2.12149e-05 6.85068e-06 0.00053449
0.00129046 -8.72082e-05 -6.21188e-05
-8.72082e-05 0.000458209 8.91723e-06
-6.21188e-05 8.91723e-06 0.00041394
0.00179993 -7.75544e-05 -0.000111744
-7.75544e-05 0.000639896 9.87957e-06
-0.000111744 9.87957e-06 0.000573747
0.00175885 -0.000123259 -0.000112178
-0.000123259 0.000628761 1.65356e-05
-0.000112178 1.65356e-05 0.000557185
0.00166638 -0.000154928 -0.000116278
-0.000154928 0.000596587 2.05738e-05
-0.000116278 2.05738e-05 0.000514712
0.00200186 -0.000250577 -2.96575e-05
-0.000250577 0.000633797 1.02127e-05
-2.96575e-05 1.02127e-05 0.000468299
0.00568347 -9.16349e-05 2.11092e-06
-9.16349e-05 0.00311636 -1.64603e-06
2.11092e-06 -1.64603e-06 0.00312733
0.00157174 3.97116e-05 8.45894e-05
3.97116e-05 0.000602771 -3.57244e-06
8.45894e-05 -3.57244e-06 0.000580837
0.00113429 -4.80337e-06 -5.75331e-05
-4.80337e-06 0.000232099 1.31177e-06
-5.75331e-05 1.31177e-06 0.000167036
0.0016716 -6.07376e-05 -3.17182e-05
-6.07376e-05 0.000566017 2.11989e-06
-3.17182e-05 2.11989e-06 0.000494613
0.00365991 2.25403e-05 0.000197398
2.25403e-05 0.00190846 -7.33037e-06
0.000197398 -7.33037e-06 0.00189572
0.0021614 -0.000127069 -3.62603e-05
-0.000127069 0.000920079 1.81566e-06
-3.62603e-05 1.81566e-06 0.000828364
0.00168465 -0.000117483 -2.74429e-05
-0.000117483 0.000584455 2.05737e-06
-2.74429e-05 2.05737e-06 0.000507014
0.001864 -0.00015616 -9.38621e-06
-0.00015616 0.000489982 1.68201e-06
-9.38621e-06 1.68201e-06 0.000351
0.00198667 -0.000271366 -6.89869e-06
-0.000271366 0.000664098 2.02406e-06
-6.89869e-06 2.02406e-06 0.000487627
0.00188201 -0.000218852 -5.7273e-06
-0.000218852 0.000535554 1.46444e-06
-5.7273e-06 1.46444e-06 0.000379603
0.00140738 -0.000290135 4.27714e-07
-0.000290135 0.000125277 -1.39461e-07
4.27714e-07 -1.39461e-07 -8.20426e-05
0.00057155 1.21908e-05 1.93939e-05
1.21908e-05 -0.000114712 -9.99514e-07
1.93939e-05 -9.99514e-07 -0.000186819
0.00153441 9.18052e-06 4.30268e-05
9.18052e-06 0.000483025 -2.54036e-06
4.30268e-05 -2.54036e-06 0.000412637
0.00169509 -4.27772e-05 1.22228e-05
-4.27772e-05 0.000379817 -8.47158e-07
1.22228e-05 -8.47158e-07 0.000263354
0.00170384 -0.000122217 1.22458e-05
-0.000122217 0.000385657 -2.04875e-06
1.22458e-05 -2.04875e-06 0.00025342
0.00171831 -0.00018274 1.46029e-05
-0.00018274 0.000412203 -4.08522e-06
1.46029e-05 -4.08522e-06 0.000265391
0.00176396 -0.000210019 9.29565e-07
-0.000210019 0.000233289 -3.84589e-07
9.29565e-07 -3.84589e-07 7.27273e-05
0.00512059 0.000180524 0.000150398
0.000180524 0.00283192 -1.12732e-05
0.000150398 -1.12732e-05 0.00281019
0.00142785 -0.000267841 5.6239e-06
-0.000267841 9.67121e-05 -1.39702e-06
5.6239e-06 -1.39702e-06 -9.61679e-05
0.000370756 -0.000137015 2.03283e-05
-0.000137015 -0.000158352 -1.6596e-05
2.03283e-05 -1.6596e-05 -0.000245616
0.000866642 -0.000204271 1.16264e-05
-0.000204271 2.62946e-05 -7.10879e-06
1.16264e-05 -7.10879e-06 -0.000153382
0.00140224 -0.000316103 7.60744e-06
-0.000316103 0.000173886 -2.44227e-06
7.60744e-06 -2.44227e-06 -5.21755e-05
0.0016858 -0.000364963 3.17442e-06
-0.000364963 0.000172846 1.23557e-06
3.17442e-06 1.23557e-06 -4.15555e-05
0.000469002 -7.65405e-05 1.4805e-05
-7.65405e-05 -5.12683e-05 -1.39983e-05
1.4805e-05 -1.39983e-05 -0.000121833
0.000464211 -6.68121e-05 -4.99783e-07
-6.68121e-05 -3.3348e-05 -4.93734e-06
-4.99783e-07 -4.93734e-06 -0.000190362
0.00613192 0.000215048 -0.000287753
0.000215048 0.00338418 -2.63593e-05
-0.000287753 -2.63593e-05 0.00338646
0.00601111 0.000116258 -0.0002573
0.000116258 0.00330427 -2.27883e-05
-0.0002573 -2.27883e-05 0.0033127
0.000465051 0.000120604 -1.85419e-05
0.000120604 -0.000155006 -1.13118e-05
-1.85419e-05 -1.13118e-05 -0.000251716
0.00492719 -0.000196093 -0.000142863
-0.000196093 0.00271549 -1.05877e-05
-0.000142863 -1.05877e-05 0.00269318
0.000436517 0.000156922 -2.25302e-05
0.000156922 -0.000122266 -1.6129e-05
-2.25302e-05 -1.6129e-05 -0.000211867
0.000451622 0.000178535 -2.09515e-05
0.000178535 -0.000119364 -1.61528e-05
-2.09515e-05 -1.61528e-05 -0.000229084
0.000876825 0.000196772 -1.23055e-05
0.000196772 3.27721e-05 -5.96909e-06
-1.23055e-05 -5.96909e-06 -0.000145738
0.00434813 -0.000146412 1.26703e-05
-0.000146412 0.00235077 -1.01732e-06
1.26703e-05 -1.01732e-06 0.00234243
0.000528002 -1.05701e-05 6.86437e-07
-1.05701e-05 4.58255e-07 7.68335e-07
6.86437e-07 7.68335e-07 -4.98918e-05
0.00166336 0.000129038 5.53209e-05
0.000129038 0.000556464 4.15065e-06
5.53209e-05 4.15065e-06 0.000476845
0.00162307 0.000183567 5.42185e-05
0.000183567 0.000567441 4.16463e-06
5.42185e-05 4.16463e-06 0.000476216
0.000989853 0.000177128 1.03376e-07
0.000177128 -1.64445e-05 -2.45158e-07
1.03376e-07 -2.45158e-07 -0.000180485
0.000532992 0.000114408 -1.0763e-06
0.000114408 -4.26891e-05 -9.74244e-08
-1.0763e-06 -9.74244e-08 -0.000120492
0.000916618 0.000196643 6.65197e-07
0.000196643 1.94834e-05 1.00654e-07
6.65197e-07 1.00654e-07 -0.000154393
0.000845776 0.000198013 2.4181e-07
0.000198013 7.80279e-05 -8.42507e-07
2.4181e-07 -8.42507e-07 -0.000108629
0.00108024 0.0002692 -2.26686e-07
0.0002692 8.7591e-05 -2.79191e-07
-2.26686e-07 -2.79191e-07 -0.000135119
0.000707678 6.74691e-05 1.65168e-05
6.74691e-05 8.9616e-05 1.24771e-05
1.65168e-05 1.24771e-05 2.29244e-05
0.000605972 -3.87195e-05 2.93691e-06
-3.87195e-05 4.71511e-05 8.49257e-06
2.93691e-06 8.49257e-06 6.98961e-06
0.00107784 0.000101721 2.3481e-06
0.000101721 0.000350456 5.9131e-06
2.3481e-06 5.9131e-06 0.000201421
0.00105597 0.000156726 1.35476e-05
0.000156726 -6.19303e-06 4.26479e-06
1.35476e-05 4.26479e-06 -0.000162208
0.000958168 0.000192509 1.42248e-05
0.000192509 -3.20824e-06 6.28231e-06
1.42248e-05 6.28231e-06 -0.000173186
0.00152199 0.000286289 5.01724e-06
0.000286289 0.000142853 1.09191e-06
5.01724e-06 1.09191e-06 -5.71402e-05
0.000813986 0.000204206 8.41328e-06
0.000204206 0.000134754 5.77955e-06
8.41328e-06 5.77955e-06 -5.31579e-05
0.00122444 0.000296827 4.49088e-06
0.000296827 0.00010352 1.05951e-06
4.49088e-06 1.05951e-06 -0.000118535
0.00107637 0.000266519 5.38964e-06
0.000266519 0.000136531 1.48585e-06
5.38964e-06 1.48585e-06 -9.75222e-05
0.00136869 0.000341858 -3.48704e-06
0.000341858 0.000194777 -1.79766e-06
-3.48704e-06 -1.79766e-06 -5.26926e-05
0.00265725 -0.000125665 4.19017e-05
-0.000125665 0.00130574 3.02876e-06
4.19017e-05 3.02876e-06 0.00130421
0.00288029 -0.000142805 1.05008e-05
-0.000142805 0.00144963 -7.81633e-07
1.05008e-05 -7.81633e-07 0.0014434
0.00320786 -0.000166501 -5.89801e-05
-0.000166501 0.0016587 -2.86393e-06
-5.89801e-05 -2.86393e-06 0.00164554
0.000413935 -4.38157e-05 9.96722e-06
-4.38157e-05 -7.52364e-05 -1.17754e-05
9.96722e-06 -1.17754e-05 -0.000135549
0.00446299 0.000167428 0.000123456
0.000167428 0.00243488 -9.63817e-06
0.000123456 -9.63817e-06 0.00241679
0.00611109 0.000191104 -0.000289647
0.000191104 0.00336852 -2.25893e-05
-0.000289647 -2.25893e-05 0.00337429
0.00583323 7.73696e-05 -0.000266563
7.73696e-05 0.00319151 -1.02785e-05
-0.000266563 -1.02785e-05 0.00320706
0.000549304 9.32786e-05 -1.9765e-05
9.32786e-05 -0.000128471 -5.12491e-06
-1.9765e-05 -5.12491e-06 -0.000211841
0.00053186 4.19409e-05 -1.93554e-05
4.19409e-05 -0.000135062 -2.57825e-06
-1.93554e-05 -2.57825e-06 -0.000213436
0.00563807 -9.8171e-06 -0.000257071
-9.8171e-06 0.00307753 -1.89271e-06
-0.000257071 -1.89271e-06 0.0030951
0.00559434 1.44403e-05 -4.60333e-07
1.44403e-05 0.0030526 -6.7442e-07
-4.60333e-07 -6.7442e-07 0.00306995
0.000513965 8.74611e-07 -1.11391e-07
8.74611e-07 -0.000149183 2.16002e-08
-1.11391e-07 2.16002e-08 -0.000222734
0.00162267 3.50445e-05 5.44798e-05
3.50445e-05 0.000519556 2.1607e-06
5.44798e-05 2.1607e-06 0.000455077
0.00100513 4.76702e-05 -3.96774e-08
4.76702e-05 -4.29145e-05 -1.47406e-07
-3.96774e-08 -1.47406e-07 -0.000170406
0.000512162 7.87111e-05 -4.12631e-07
7.87111e-05 -0.000147722 -3.42764e-07
-4.12631e-07 -3.42764e-07 -0.000235813
0.00103014 0.000104963 -1.75777e-07
0.000104963 -3.61053e-05 -1.65087e-07
-1.75777e-07 -1.65087e-07 -0.000176397
0.000507823 -2.94397e-05 1.932e-05
-2.94397e-05 -0.000154543 -7.86222e-07
1.932e-05 -7.86222e-07 -0.000225596
0.00100001 1.85871e-05 1.21816e-05
1.85871e-05 -3.7586e-05 4.92561e-07
1.21816e-05 4.92561e-07 -0.00016182
0.0010387 7.36323e-05 1.20757e-05
7.36323e-05 -2.71551e-05 1.83345e-06
1.20757e-05 1.83345e-06 -0.000159324
0.00155177 7.4022e-05 7.45543e-08
7.4022e-05 5.06461e-05 -1.58085e-07
7.45543e-08 -1.58085e-07 -7.13671e-05
0.00108346 0.000130978 1.2785e-05
0.000130978 -1.43289e-06 3.16964e-06
1.2785e-05 3.16964e-06 -0.000149113
0.00164376 0.000170577 1.60339e-06
0.000170577 0.000106491 -8.97386e-08
1.60339e-06 -8.97386e-08 -3.92766e-05
0.00560472 -5.21643e-05 -0.000262393
-5.21643e-05 0.00306312 1.37933e-06
-0.000262393 1.37933e-06 0.00307802
0.00127429 -0.0001436 -5.01644e-05
-0.0001436 0.000445878 5.46242e-06
-5.01644e-05 5.46242e-06 0.000404734
-0.000273182 -3.17995e-06 -1.26296e-05
-3.17995e-06 -0.000618141 2.04337e-06
-1.26296e-05 2.04337e-06 -0.000704886
0.00176782 -5.3913e-05 -0.000111207
-5.3913e-05 0.000618617 7.00499e-06
-0.000111207 7.00499e-06 0.000554634
0.00548045 0.000342284 3.97881e-06
0.000342284 0.00308104 6.47441e-06
3.97881e-06 6.47441e-06 0.003013
0.00279807 -0.000213211 -0.000118729
-0.000213211 0.0012976 2.10121e-05
-0.000118729 2.10121e-05 0.00121205
0.00179194 -0.000100502 -0.000111691
-0.000100502 0.000639982 1.31429e-05
-0.000111691 1.31429e-05 0.000572017
0.00180824 -0.000151116 -2.87098e-05
-0.000151116 0.000452389 5.45375e-06
-2.87098e-05 5.45375e-06 0.000314278
0.00200513 -0.0002238 -2.82509e-05
-0.0002238 0.000610007 8.54551e-06
-2.82509e-05 8.54551e-06 0.000454495
0.0020096 -0.000274899 -2.7274e-05
-0.000274899 0.000675798 1.09265e-05
-2.7274e-05 1.09265e-05 0.000498219
0.00143412 -0.000291382 -5.35406e-06
-0.000291382 0.000142512 1.36387e-06
-5.35406e-06 1.36387e-06 -6.43891e-05
0.000510119 6.47447e-06 -6.11798e-08
6.47447e-06 -0.000149864 1.54617e-07
-6.11798e-08 1.54617e-07 -0.000222931
0.00166145 -7.36033e-05 -3.07513e-05
-7.36033e-05 0.000561956 3.57094e-07
-3.07513e-05 3.57094e-07 0.000494059
0.00129065 -3.83699e-05 -8.41762e-06
-3.83699e-05 0.000135665 4.82061e-07
-8.41762e-06 4.82061e-07 1.47109e-05
0.00183882 -0.000123493 -6.61703e-06
-0.000123493 0.000466693 1.01567e-06
-6.61703e-06 1.01567e-06 0.000335044
0.00529711 0.000157862 -2.65441e-06
0.000157862 0.00293068 -3.48484e-07
-2.65441e-06 -3.48484e-07 0.00291393
0.00161039 -0.000128667 -3.4675e-07
-0.000128667 0.000606756 1.48089e-07
-3.4675e-07 1.48089e-07 0.000507648
0.00132294 -0.000233762 1.38163e-06
-0.000233762 0.000309647 -9.22412e-07
1.38163e-06 -9.22412e-07 0.000128305
0.00175796 -0.000184202 -6.80481e-06
-0.000184202 0.000436133 1.60975e-06
-6.80481e-06 1.60975e-06 0.000289
0.00170358 -0.000209679 -1.83807e-06
-0.000209679 0.000193611 3.65132e-07
-1.83807e-06 3.65132e-07 3.52035e-05
0.00137928 -0.000314336 7.40156e-07
-0.000314336 0.000163644 -1.36967e-07
7.40156e-07 -1.36967e-07 -6.19916e-05
0.00159386 -0.000274942 4.54645e-07
-0.000274942 0.000197851 -1.70236e-07
4.54645e-07 -1.70236e-07 5.83559e-06
0.0017185 -0.000365627 6.72652e-07
-0.000365627 0.000197232 2.54941e-08
6.72652e-07 2.54941e-08 -1.6618e-05
0.000480747 -8.15511e-05 -6.2476e-07
-8.15511e-05 -4.62667e-05 4.48056e-07
-6.2476e-07 4.48056e-07 -0.00012012
0.000662429 -9.32915e-05 1.19871e-07
-9.32915e-05 8.36373e-05 1.23941e-08
1.19871e-07 1.23941e-08 -7.57438e-05
0.000982566 -1.85424e-05 1.21205e-05
-1.85424e-05 -4.16302e-05 -7.54514e-07
1.21205e-05 -7.54514e-07 -0.000165635
0.00174001 -7.81358e-05 1.13376e-05
-7.81358e-05 0.000405996 -1.33396e-06
1.13376e-05 -1.33396e-06 0.000283812
0.00170421 -7.04478e-05 -9.43517e-08
-7.04478e-05 0.000161983 2.82345e-07
-9.43517e-08 2.82345e-07 3.77956e-05
0.00160277 -0.000168505 1.77281e-06
-0.000168505 0.000113485 2.41122e-07
1.77281e-06 2.41122e-07 -2.98125e-05
0.00171064 -0.000251556 2.54592e-06
-0.000251556 0.000231182 -2.67902e-07
2.54592e-06 -2.67902e-07 5.76172e-05
0.00186 -0.000250862 -1.00725e-08
-0.000250862 0.000159012 5.96798e-07
-1.00725e-08 5.96798e-07 1.64487e-05
0.000437058 -0.000118483 1.8674e-05
-0.000118483 -9.48376e-05 -1.57844e-05
1.8674e-05 -1.57844e-05 -0.00017506
0.0017368 -0.000334375 1.28581e-06
-0.000334375 0.000163759 1.11107e-06
1.28581e-06 1.11107e-06 -2.37092e-05
0.000700795 -0.00019192 7.94646e-06
-0.00019192 -2.06256e-06 -7.61346e-06
7.94646e-06 -7.61346e-06 -0.000187392
0.00112464 -0.000301062 9.71793e-06
-0.000301062 8.14218e-05 -3.943e-06
9.71793e-06 -3.943e-06 -0.000153592
0.00185818 -0.000414879 2.76707e-06
-0.000414879 0.000335265 6.90366e-07
2.76707e-06 6.90366e-07 8.63599e-05
0.00203925 -0.000399837 -2.16624e-06
-0.000399837 0.000334338 3.67332e-06
-2.16624e-06 3.67332e-06 0.000141014
0.000621714 -0.000155941 1.03242e-06
-0.000155941 7.00655e-05 -4.73333e-06
1.03242e-06 -4.73333e-06 -0.000121213
0.000593657 -5.6726e-05 -3.57823e-07
-5.6726e-05 3.99695e-05 -5.15335e-06
-3.57823e-07 -5.15335e-06 -8.71586e-05
0.00108518 -0.0002114 -2.08969e-06
-0.0002114 0.000363418 1.09602e-06
-2.08969e-06 1.09602e-06 0.000130039
0.000494047 9.98709e-05 -1.79347e-05
9.98709e-05 -0.000151402 -8.64625e-06
-1.79347e-05 -8.64625e-06 -0.000243777
0.00402218 -0.000179436 -0.000100045
-0.000179436 0.00216026 -5.25791e-06
-0.000100045 -5.25791e-06 0.00214371
0.000341639 -2.33411e-05 -2.53051e-06
-2.33411e-05 -0.00010623 -9.8084e-06
-2.53051e-06 -9.8084e-06 -0.000157347
0.000444849 0.000149554 -1.97272e-05
0.000149554 -0.000144729 -1.42048e-05
-1.97272e-05 -1.42048e-05 -0.000248046
0.000964408 0.000176491 -1.49065e-05
0.000176491 -2.65904e-05 -5.87995e-06
-1.49065e-05 -5.87995e-06 -0.000191086
0.000420604 0.000106282 -2.01622e-05
0.000106282 -0.000111526 -1.43535e-05
-2.01622e-05 -1.43535e-05 -0.000185475
0.000686607 0.000181913 -9.43288e-06
0.000181913 -1.9926e-05 -6.82791e-06
-9.43288e-06 -6.82791e-06 -0.000204088
0.000914333 0.000195249 -1.30561e-05
0.000195249 2.19155e-05 -6.67921e-06
-1.30561e-05 -6.67921e-06 -0.000151438
0.00109828 0.000274381 -5.74542e-06
0.000274381 9.44505e-05 -2.05242e-06
-5.74542e-06 -2.05242e-06 -0.000129185
0.000525581 5.41598e-05 2.33856e-06
5.41598e-05 -1.85132e-05 6.20439e-07
2.33856e-06 6.20439e-07 -8.30487e-05
0.00050152 -5.43937e-05 1.83134e-07
-5.43937e-05 -1.01657e-05 2.76396e-07
1.83134e-07 2.76396e-07 -5.27335e-05
0.000595377 6.23721e-05 1.09876e-06
6.23721e-05 4.09521e-05 1.94993e-07
1.09876e-06 1.94993e-07 -9.03411e-05
0.00102314 0.000156659 -4.68446e-08
0.000156659 -2.2323e-05 -2.66987e-07
-4.68446e-08 -2.66987e-07 -0.000179097
0.000947366 0.000191245 3.56307e-07
0.000191245 -3.98886e-06 -1.93742e-07
3.56307e-07 -1.93742e-07 -0.000173975
0.00151381 0.000286094 5.91645e-08
0.000286094 0.000136969 -5.02546e-08
5.91645e-08 -5.02546e-08 -6.34444e-05
0.000794739 0.000193289 -4.71523e-07
0.000193289 0.000120008 -1.36229e-07
-4.71523e-07 -1.36229e-07 -6.67502e-05
0.00131279 0.00030061 4.67136e-08
0.00030061 0.000155394 -1.92005e-08
4.67136e-08 -1.92005e-08 -6.71481e-05
0.0011002 0.000269215 -8.83927e-09
0.000269215 0.000152174 -6.85128e-07
-8.83927e-09 -6.85128e-07 -8.16937e-05
0.0013251 0.000350731 -9.02679e-07
0.000350731 0.000158088 2.4974e-07
-9.02679e-07 2.4974e-07 -9.21577e-05
0.000545708 -5.93307e-05 -1.26907e-06
-5.93307e-05 8.30033e-06 7.14007e-06
-1.26907e-06 7.14007e-06 -2.58854e-05
0.000902674 0.000149612 5.43289e-06
0.000149612 0.000221612 4.8638e-06
5.43289e-06 4.8638e-06 5.07863e-05
0.000677994 2.70679e-05 1.86809e-06
2.70679e-05 8.32065e-05 5.14034e-06
1.86809e-06 5.14034e-06 -1.7763e-05
0.00102963 0.000136378 1.02021e-06
0.000136378 0.000347001 3.59716e-07
1.02021e-06 3.59716e-07 0.000139329
0.00158846 0.000254501 3.4204e-06
0.000254501 0.000129746 -8.10965e-08
3.4204e-06 -8.10965e-08 -5.14374e-05
0.00141318 0.00030351 5.30612e-06
0.00030351 0.00014266 1.44128e-06
5.30612e-06 1.44128e-06 -7.26284e-05
0.00183978 0.000362674 1.12456e-06
0.000362674 0.000221815 -3.17631e-07
1.12456e-06 -3.17631e-07 1.87384e-05
0.0010373 0.00023826 5.06684e-06
0.00023826 0.000188232 2.06883e-06
5.06684e-06 2.06883e-06 -3.66668e-05
0.00188148 0.000430751 -2.53523e-06
0.000430751 0.000394331 -1.01449e-06
-2.53523e-06 -1.01449e-06 0.00014494
0.00137846 0.000344615 -1.49256e-06
0.000344615 0.000251596 -1.34085e-06
-1.49256e-06 -1.34085e-06 -2.04572e-05
0.00153781 0.000398393 -5.89176e-07
0.000398393 0.000180489 -5.84686e-07
-5.89176e-07 -5.84686e-07 -7.65699e-05
0.000588072 2.02418e-05 2.48789e-06
2.02418e-05 2.22611e-05 2.69434e-06
2.48789e-06 2.69434e-06 -3.39726e-05
0.000506229 -4.03297e-05 6.70773e-07
-4.03297e-05 -4.04307e-05 5.2161e-06
6.70773e-07 5.2161e-06 -6.2573e-05
0.0025 -0.000112501 3.01803e-05
-0.000112501 0.00120188 3.3952e-06
3.01803e-05 3.3952e-06 0.00120382
0.00259938 -0.000128712 4.25353e-06
-0.000128712 0.00127136 -4.81026e-07
4.25353e-06 -4.81026e-07 0.00126883
0.00277945 -0.00014889 -3.75764e-05
-0.00014889 0.00139007 -3.00405e-06
-3.75764e-05 -3.00405e-06 0.00138177
0.000441971 -2.96111e-05 7.41737e-06
-2.96111e-05 -5.96439e-05 -1.01246e-05
7.41737e-06 -1.01246e-05 -0.000109507
0.00383716 0.000140872 0.000105973
0.000140872 0.00204327 -7.17426e-06
0.000105973 -7.17426e-06 0.00203366
0.000538468 -4.86551e-05 -1.04515e-06
-4.86551e-05 -3.94689e-06 4.15207e-07
-1.04515e-06 4.15207e-07 -6.52204e-05
0.0046851 0.000150255 -9.1714e-06
0.000150255 0.00256271 -1.32547e-06
-9.1714e-06 -1.32547e-06 0.00254868
0.000541079 0.000103692 -1.93395e-05
0.000103692 -0.000128229 -6.87024e-06
-1.93395e-05 -6.87024e-06 -0.000217996
0.000552571 3.3739e-05 -1.8506e-05
3.3739e-05 -0.000127624 -3.37145e-06
-1.8506e-05 -3.37145e-06 -0.000206583
0.000997185 0.000105875 -1.21123e-05
0.000105875 -5.65643e-05 -2.61577e-06
-1.21123e-05 -2.61577e-06 -0.000197487
0.00097975 4.98351e-05 -1.22559e-05
4.98351e-05 -5.98758e-05 -1.39414e-06
-1.22559e-05 -1.39414e-06 -0.000187788
0.000568964 -7.14503e-06 -1.94755e-05
-7.14503e-06 -0.000119525 -7.98679e-07
-1.94755e-05 -7.98679e-07 -0.000191125
0.00567985 -9.54257e-05 -0.00026945
-9.54257e-05 0.0031138 4.28109e-06
-0.00026945 4.28109e-06 0.00312602
0.000553957 -1.05516e-06 1.05672e-07
-1.05516e-06 -0.000127257 -5.51342e-07
1.05672e-07 -5.51342e-07 -0.000198422
0.000986785 2.35432e-05 -7.61015e-08
2.35432e-05 -4.63446e-05 -5.15044e-08
-7.61015e-08 -5.15044e-08 -0.000170861
0.00102626 7.55757e-05 -1.43821e-07
7.55757e-05 -3.6543e-05 -4.86828e-08
-1.43821e-07 -4.86828e-08 -0.000169262
0.00156342 7.31551e-05 -8.10262e-08
7.31551e-05 5.97826e-05 1.63694e-07
-8.10262e-08 1.63694e-07 -6.23508e-05
0.00103897 0.000132153 -2.11533e-07
0.000132153 -2.67514e-05 -2.39382e-07
-2.11533e-07 -2.39382e-07 -0.000175459
0.00161152 0.000169837 -1.02062e-07
0.000169837 8.75029e-05 3.39996e-08
-1.02062e-07 3.39996e-08 -5.87595e-05
0.000978314 -1.72985e-06 1.21079e-05
-1.72985e-06 -4.45154e-05 -2.40158e-07
1.21079e-05 -2.40158e-07 -0.000168085
0.00153739 3.69264e-05 4.67078e-07
3.69264e-05 5.10353e-05 6.08158e-08
4.67078e-07 6.08158e-08 -6.59891e-05
0.00159523 0.000120359 3.76668e-07
0.000120359 7.17198e-05 -3.53051e-07
3.76668e-07 -3.53051e-07 -6.02179e-05
0.00187546 0.000103509 -3.42787e-07
0.000103509 9.06158e-05 -5.6617e-07
-3.42787e-07 -5.6617e-07 4.25328e-06
0.00163404 0.000216195 2.55212e-06
0.000216195 0.00011743 3.22841e-08
2.55212e-06 3.22841e-08 -4.51633e-05
0.00189256 0.000213592 4.99497e-07
0.000213592 0.000133027 -1.43601e-06
4.99497e-07 -1.43601e-06 1.01123e-05
0.000535586 -4.97619e-07 -1.8614e-05
-4.97619e-07 -0.000131869 1.00414e-06
-1.8614e-05 1.00414e-06 -0.000206915
0.00174742 -3.07141e-05 -0.000110018
-3.07141e-05 0.000607218 4.5977e-06
-0.000110018 4.5977e-06 0.00054681
0.000855733 -3.28328e-05 -1.55881e-05
-3.28328e-05 -0.000126345 1.70577e-06
-1.55881e-05 1.70577e-06 -0.00025207
0.00195546 -0.000123635 -2.59086e-05
-0.000123635 0.000536181 3.91354e-06
-2.59086e-05 3.91354e-06 0.00040529
0.00554588 0.000151443 -0.000183151
0.000151443 0.00308396 1.65139e-05
-0.000183151 1.65139e-05 0.00306532
0.00283335 -0.000184861 -0.000121062
-0.000184861 0.0013374 1.67803e-05
-0.000121062 1.67803e-05 0.00126117
0.00195432 -0.000280403 -2.24626e-05
-0.000280403 0.000695019 9.5069e-06
-2.24626e-05 9.5069e-06 0.000509133
0.00177661 -0.000184211 -2.77125e-05
-0.000184211 0.000447001 6.91404e-06
-2.77125e-05 6.91404e-06 0.000299892
0.00164073 -0.000209292 -4.65709e-06
-0.000209292 0.000152086 5.77125e-07
-4.65709e-06 5.77125e-07 -4.17067e-06
0.00176068 -0.000282129 -5.78783e-06
-0.000282129 0.000299952 1.52919e-06
-5.78783e-06 1.52919e-06 0.000108782
0.00134529 -0.00031233 -6.68311e-06
-0.00031233 0.000146147 1.59667e-06
-6.68311e-06 1.59667e-06 -7.91237e-05
0.0017495 -0.000366543 -1.39607e-06
-0.000366543 0.00021942 -1.30485e-06
-1.39607e-06 -1.30485e-06 6.04299e-06
0.000603494 -9.35881e-05 -1.58636e-05
-9.35881e-05 2.6483e-05 1.4401e-05
-1.58636e-05 1.4401e-05 -5.00024e-05
0.000884715 -0.000121965 -7.40485e-07
-0.000121965 0.00021758 4.57262e-06
-7.40485e-07 4.57262e-06 5.47043e-05
0.00090934 -1.32597e-05 -6.57624e-08
-1.32597e-05 -8.73841e-05 -1.85237e-08
-6.57624e-08 -1.85237e-08 -0.000210821
0.00174578 -7.92111e-05 -7.00735e-06
-7.92111e-05 0.000408086 7.95732e-07
-7.00735e-06 7.95732e-07 0.000286007
0.00173991 -6.69889e-05 -1.16174e-06
-6.69889e-05 0.000181129 2.21129e-07
-1.16174e-06 2.21129e-07 6.0775e-05
0.00165316 -0.000168777 -1.22471e-06
-0.000168777 0.000147002 3.76539e-07
-1.22471e-06 3.76539e-07 1.08105e-06
0.000500087 -0.000128524 6.32661e-07
-0.000128524 -5.59627e-05 2.2961e-07
6.32661e-07 2.2961e-07 -0.000140063
0.000819886 -0.000202598 -7.22158e-07
-0.000202598 6.73209e-05 -3.41628e-07
-7.22158e-07 -3.41628e-07 -0.000119006
0.00113534 -0.000302996 2.07643e-06
-0.000302996 8.70908e-05 -8.43258e-07
2.07643e-06 -8.43258e-07 -0.000148461
0.00173484 -0.00025105 -3.06034e-06
-0.00025105 0.000245684 8.07344e-07
-3.06034e-06 8.07344e-07 7.05591e-05
0.0019022 -0.000254885 1.39034e-06
-0.000254885 0.000178533 -3.19917e-07
1.39034e-06 -3.19917e-07 4.04293e-05
0.0018982 -0.000422986 -1.29763e-06
-0.000422986 0.000359382 -6.3269e-08
-1.29763e-06 -6.3269e-08 0.000109512
0.00176404 -0.000335693 5.2472e-07
-0.000335693 0.000181036 2.45544e-08
5.2472e-07 2.45544e-08 -6.2886e-06
0.00194247 -0.000395858 8.37973e-07
-0.000395858 0.000268784 6.51263e-07
8.37973e-07 6.51263e-07 7.55958e-05
0.00070518 -0.000161786 1.62044e-07
-0.000161786 0.000113476 -1.99362e-07
1.62044e-07 -1.99362e-07 -7.32733e-05
0.000489597 -0.00013398 -7.28091e-07
-0.00013398 -1.32928e-05 -3.32745e-07
-7.28091e-07 -3.32745e-07 -0.000228185
0.000688514 -7.2312e-05 2.40012e-07
-7.2312e-05 9.69246e-05 1.71506e-07
2.40012e-07 1.71506e-07 -3.44634e-05
0.00166492 -2.92871e-05 -3.50541e-07
-2.92871e-05 0.000139248 1.9968e-07
-3.50541e-07 1.9968e-07 2.03918e-05
0.00178936 -0.000115503 -7.28486e-07
-0.000115503 0.000211788 9.41605e-07
-7.28486e-07 9.41605e-07 8.40998e-05
0.00179361 -9.11159e-05 7.85036e-08
-9.11159e-05 5.76211e-05 1.0931e-06
7.85036e-08 1.0931e-06 -3.47205e-05
0.00182359 -0.000207826 -1.97947e-06
-0.000207826 0.000108544 1.27243e-06
-1.97947e-06 1.27243e-06 -1.30047e-05
0.00169753 -0.000299549 -4.64832e-07
-0.000299549 9.63882e-05 1.96996e-06
-4.64832e-07 1.96996e-06 -6.42283e-05
0.0019741 -0.000277059 8.25388e-07
-0.000277059 0.000173452 3.64808e-07
8.25388e-07 3.64808e-07 6.06837e-05
0.000699549 -0.000193284 4.43161e-06
-0.000193284 6.35952e-05 -6.46446e-06
4.43161e-06 -6.46446e-06 -0.000125
0.00181524 -0.00036294 -2.06412e-06
-0.00036294 0.000145245 2.0254e-06
-2.06412e-06 2.0254e-06 -1.91906e-05
0.00122486 -0.000292255 6.35125e-06
-0.000292255 0.000228424 -4.55612e-06
6.35125e-06 -4.55612e-06 -5.94302e-06
0.00156882 -0.000439391 3.7376e-06
-0.000439391 0.000261811 1.4152e-07
3.7376e-06 1.4152e-07 -2.70078e-05
0.00198757 -0.000455701 1.70915e-06
-0.000455701 0.000353447 3.61174e-06
1.70915e-06 3.61174e-06 0.000108549
0.00209523 -0.000418662 -2.89493e-06
-0.000418662 0.000351215 3.22729e-06
-2.89493e-06 3.22729e-06 0.000173094
0.000654575 -4.88037e-05 -5.05838e-07
-4.88037e-05 8.89229e-05 -4.76046e-06
-5.05838e-07 -4.76046e-06 -2.2547e-05
0.00084836 -0.000209644 -3.83307e-07
-0.000209644 0.000151618 -1.12011e-07
-3.83307e-07 -1.12011e-07 -5.81721e-05
0.000417301 -0.000115892 -1.6443e-06
-0.000115892 -1.26742e-05 2.15147e-06
-1.6443e-06 2.15147e-06 -0.000230168
0.00153178 -0.000282935 -4.71752e-06
-0.000282935 0.000573953 2.20076e-06
-4.71752e-06 2.20076e-06 0.000335358
0.000987719 0.000156769 -1.41991e-05
0.000156769 -4.01795e-05 -4.75437e-06
-1.41991e-05 -4.75437e-06 -0.000197729
0.000394264 -6.06284e-05 2.62417e-06
-6.06284e-05 -7.13924e-05 -8.55793e-06
2.62417e-06 -8.55793e-06 -0.000115159
0.000285445 3.34762e-05 -9.94555e-06
3.34762e-05 -0.000158366 -1.24149e-05
-9.94555e-06 -1.24149e-05 -0.000220503
0.000387504 2.40052e-05 -7.82312e-07
2.40052e-05 -8.3344e-05 -5.3617e-06
-7.82312e-07 -5.3617e-06 -0.000208823
0.000941393 0.000190645 -1.44546e-05
0.000190645 -1.92238e-06 -6.77817e-06
-1.44546e-05 -6.77817e-06 -0.000172035
0.0015055 0.000285777 -4.90762e-06
0.000285777 0.000131131 -1.08308e-06
-4.90762e-06 -1.08308e-06 -6.96681e-05
0.000669247 0.000180021 -5.7856e-06
0.000180021 4.26142e-05 -4.58458e-06
-5.7856e-06 -4.58458e-06 -0.000142122
0.00125771 0.000283615 -6.97642e-06
0.000283615 0.000250105 -2.77271e-06
-6.97642e-06 -2.77271e-06 1.46764e-05
0.00137286 0.00030226 -4.29252e-06
0.00030226 0.000190065 -1.65262e-06
-4.29252e-06 -1.65262e-06 -3.27305e-05
0.00127504 0.000357508 -6.23745e-07
0.000357508 0.000120417 9.2321e-07
-6.23745e-07 9.2321e-07 -0.000132053
0.000476846 -6.05458e-05 -1.56698e-06
-6.05458e-05 -3.26959e-05 5.36164e-07
-1.56698e-06 5.36164e-07 -6.69785e-05
0.000774107 0.000144554 5.33554e-07
0.000144554 0.000157443 -7.09233e-07
5.33554e-07 -7.09233e-07 -1.75103e-05
0.00059994 6.42851e-06 4.68119e-07
6.42851e-06 4.00022e-05 4.68734e-07
4.68119e-07 4.68734e-07 -5.79586e-05
0.000757629 0.000115728 1.36643e-06
0.000115728 0.000179277 -4.49929e-07
1.36643e-06 -4.49929e-07 -2.28515e-05
0.00157729 0.000253679 -3.78597e-07
0.000253679 0.0001235 -6.01755e-07
-3.78597e-07 -6.01755e-07 -5.79709e-05
0.00141199 0.000303695 3.82522e-08
0.000303695 0.000143175 -1.03601e-07
3.82522e-08 -1.03601e-07 -7.25965e-05
0.00181537 0.000360598 2.91755e-07
0.000360598 0.000208338 2.07179e-07
2.91755e-07 2.07179e-07 5.40024e-06
0.00105171 0.000244028 2.00794e-06
0.000244028 0.000200199 -2.10017e-07
2.00794e-06 -2.10017e-07 -2.55998e-05
0.00180779 0.00041725 -8.82323e-07
0.00041725 0.000353009 -1.95712e-08
-8.82323e-07 -1.95712e-08 0.00010556
0.00128433 0.000336778 3.35946e-07
0.000336778 0.000193092 -1.26807e-06
3.35946e-07 -1.26807e-06 -7.83768e-05
0.00163323 0.000402132 -3.70471e-06
0.000402132 0.000237992 1.16783e-06
-3.70471e-06 1.16783e-06 -1.6017e-05
0.000503969 -5.06392e-05 1.5466e-08
-5.06392e-05 -3.2059e-05 5.84873e-06
1.5466e-08 5.84873e-06 -5.84707e-05
0.000655248 3.18477e-06 6.45577e-07
3.18477e-06 6.8806e-05 4.43577e-06
6.45577e-07 4.43577e-06 -9.9239e-06
0.000975738 0.000213509 7.54481e-07
0.000213509 0.000234144 9.28196e-07
7.54481e-07 9.28196e-07 2.61507e-05
0.00119745 9.50404e-05 -1.30346e-06
9.50404e-05 0.000459584 2.40411e-06
-1.30346e-06 2.40411e-06 0.000283145
0.00127653 0.000223254 -2.39608e-06
0.000223254 0.000461215 -1.07517e-06
-2.39608e-06 -1.07517e-06 0.000240611
0.0018915 0.000320366 6.06684e-07
0.000320366 0.000198775 -1.96609e-06
6.06684e-07 -1.96609e-06 2.37642e-05
0.00178534 0.00040136 2.50807e-07
0.00040136 0.000256648 -3.46241e-07
2.50807e-07 -3.46241e-07 2.63996e-05
0.00189873 0.000397784 -5.94103e-07
0.000397784 0.000225345 -3.87754e-07
-5.94103e-07 -3.87754e-07 3.03843e-05
0.000896417 0.000289581 2.74283e-06
0.000289581 4.3292e-05 2.42826e-06
2.74283e-06 2.42826e-06 -0.000216761
0.0020649 0.00048874 -5.96085e-07
0.00048874 0.000441053 -6.0713e-07
-5.96085e-07 -6.0713e-07 0.000184958
0.000907102 0.000339017 4.6669e-06
0.000339017 -9.2125e-05 -2.08023e-06
4.6669e-06 -2.08023e-06 -0.000366204
0.00059315 1.46675e-05 2.64796e-06
1.46675e-05 2.44859e-05 2.83884e-06
2.64796e-06 2.83884e-06 -3.42199e-05
0.000663742 5.94118e-05 1.07247e-08
5.94118e-05 9.89643e-05 1.31292e-06
1.07247e-08 1.31292e-06 1.51749e-06
0.00060871 3.06244e-05 2.40157e-06
3.06244e-05 4.00322e-05 2.72098e-06
2.40157e-06 2.72098e-06 -1.58273e-05
0.000571624 -6.46688e-06 -5.62601e-07
-6.46688e-06 1.36462e-05 -1.94875e-09
-5.62601e-07 -1.94875e-09 -4.31045e-05
0.00124426 -4.88901e-05 1.05145e-06
-4.88901e-05 0.00040627 2.96394e-06
1.05145e-06 2.96394e-06 0.000390239
0.00089528 -4.87379e-05 4.66378e-07
-4.87379e-05 0.000197156 -1.17857e-07
4.66378e-07 -1.17857e-07 0.000176962
0.000869762 -5.34874e-05 2.45356e-05
-5.34874e-05 0.00019224 7.95514e-06
2.45356e-05 7.95514e-06 0.000192439
0.00246052 -0.000109783 4.86486e-06
-0.000109783 0.0011767 -4.48488e-07
4.86486e-06 -4.48488e-07 0.00117922
0.00252026 -0.000124251 -3.48902e-05
-0.000124251 0.00122245 -3.13725e-06
-3.48902e-05 -3.13725e-06 0.001221
0.00039615 -4.54863e-06 2.82333e-06
-4.54863e-06 -8.15201e-05 -7.90485e-06
2.82333e-06 -7.90485e-06 -0.000121361
0.00345443 0.000140009 7.4874e-05
0.000140009 0.00180017 -4.39263e-06
7.4874e-05 -4.39263e-06 0.0017924
0.000510767 -2.91931e-05 -8.02303e-07
-2.91931e-05 -1.90598e-05 1.98644e-07
-8.02303e-07 1.98644e-07 -6.98436e-05
0.00408488 0.000130405 -7.87469e-06
0.000130405 0.00219078 -8.17214e-07
-7.87469e-06 -8.17214e-07 0.00218345
0.000531515 -5.08255e-05 -1.03647e-05
-5.08255e-05 -1.09383e-05 1.20877e-05
-1.03647e-05 1.20877e-05 -7.46238e-05
0.00491247 0.000132101 -0.000164608
0.000132101 0.00269379 1.31103e-05
-0.000164608 1.31103e-05 0.00268397
0.000997808 0.000133263 -1.29887e-05
0.000133263 -5.0044e-05 -3.60281e-06
-1.29887e-05 -3.60281e-06 -0.000199681
0.000995801 7.9155e-05 -1.20841e-05
7.9155e-05 -5.56312e-05 -1.90234e-06
-1.20841e-05 -1.90234e-06 -0.000189167
0.0016026 0.000166123 -2.55342e-06
0.000166123 8.36343e-05 5.3749e-08
-2.55342e-06 5.3749e-08 -6.25348e-05
0.00157368 7.24257e-05 -7.68704e-07
7.24257e-05 6.8192e-05 4.87628e-07
-7.68704e-07 4.87628e-07 -5.40741e-05
0.000979369 2.76944e-05 -1.21952e-05
2.76944e-05 -5.22696e-05 -6.35597e-07
-1.21952e-05 -6.35597e-07 -0.000177076
0.000517427 2.86658e-05 -1.93123e-05
2.86658e-05 -0.000149992 -3.29853e-07
-1.93123e-05 -3.29853e-07 -0.000220433
0.000976877 1.18693e-06 -1.15589e-08
1.18693e-06 -4.64617e-05 -9.67418e-08
-1.15589e-08 -9.67418e-08 -0.000170079
0.00153556 3.79094e-05 -6.53508e-08
3.79094e-05 5.13678e-05 1.21569e-07
-6.53508e-08 1.21569e-07 -6.57881e-05
0.00160288 0.000117862 -2.46744e-08
0.000117862 7.86965e-05 -2.26738e-08
-2.46744e-08 -2.26738e-08 -5.32208e-05
0.00187928 0.000101609 -4.60024e-08
0.000101609 8.98856e-05 4.40769e-07
-4.60024e-08 4.40769e-07 7.22494e-06
0.0016131 0.0002144 -3.22681e-07
0.0002144 0.000108046 -5.38127e-08
-3.22681e-07 -5.38127e-08 -5.46439e-05
0.00188425 0.000211399 -4.57322e-07
0.000211399 0.000130479 2.59244e-08
-4.57322e-07 2.59244e-08 7.68152e-06
0.00152682 2.27148e-06 7.13044e-07
2.27148e-06 4.94115e-05 7.38405e-08
7.13044e-07 7.38405e-08 -6.65214e-05
0.00192543 5.27886e-05 -1.37748e-06
5.27886e-05 0.00012248 1.3467e-07
-1.37748e-06 1.3467e-07 5.16324e-05
0.00191157 0.000161229 2.4925e-07
0.000161229 0.000121044 -1.18253e-06
2.4925e-07 -1.18253e-06 1.89644e-05
0.00179695 0.000101801 5.65188e-06
0.000101801 -6.75557e-06 1.11204e-06
5.65188e-06 1.11204e-06 -6.33159e-05
0.00191851 0.000268733 3.98915e-07
0.000268733 0.000181085 -1.42104e-06
3.98915e-07 -1.42104e-06 3.37279e-05
0.00181944 0.000229195 1.25616e-06
0.000229195 2.66907e-05 -5.85812e-07
1.25616e-06 -5.85812e-07 -6.91323e-05
0.000837982 -9.43567e-06 -1.22001e-05
-9.43567e-06 -0.000132042 6.09335e-07
-1.22001e-05 6.09335e-07 -0.000254986
0.00177305 -8.13284e-05 -2.52414e-05
-8.13284e-05 0.000423203 2.84497e-06
-2.52414e-05 2.84497e-06 0.000301172
0.00180027 -6.16399e-05 -3.85153e-06
-6.16399e-05 0.000214508 -3.11007e-07
-3.85153e-06 -3.11007e-07 9.82822e-05
0.00170785 -0.000168977 -3.56569e-06
-0.000168977 0.00018329 7.27408e-07
-3.56569e-06 7.27408e-07 3.47685e-05
0.000632999 -0.000147322 -2.15268e-05
-0.000147322 2.4329e-05 1.65441e-05
-2.15268e-05 1.65441e-05 -6.42018e-05
0.000734823 -0.000197248 -9.89409e-06
-0.000197248 1.90521e-05 7.19508e-06
-9.89409e-06 7.19508e-06 -0.000166195
0.00115862 -0.000305769 -5.17363e-06
-0.000305769 0.000100367 2.51e-06
-5.17363e-06 2.51e-06 -0.000135927
0.00175772 -0.000250316 -7.16074e-06
-0.000250316 0.000259297 1.84388e-06
-7.16074e-06 1.84388e-06 8.26567e-05
0.00194102 -0.000258661 7.53777e-07
-0.000258661 0.000195619 -1.43055e-06
7.53777e-07 -1.43055e-06 6.2023e-05
0.00179172 -0.000337033 -6.8591e-07
-0.000337033 0.000198568 -9.48016e-07
-6.8591e-07 -9.48016e-07 1.1387e-05
0.00192423 -0.000429245 -3.82756e-06
-0.000429245 0.000376176 -1.77594e-06
-3.82756e-06 -1.77594e-06 0.000125771
0.00184575 -0.000390515 3.45248e-06
-0.000390515 0.000203594 -2.87444e-06
3.45248e-06 -2.87444e-06 1.09909e-05
0.00084209 -0.000158965 -3.17797e-06
-0.000158965 0.000183937 5.44759e-06
-3.17797e-06 5.44759e-06 3.58416e-06
0.000301202 -0.000108832 1.30285e-06
-0.000108832 -0.000125791 -1.53669e-06
1.30285e-06 -1.53669e-06 -0.000339725
0.000731581 -8.77946e-05 -4.52218e-07
-8.77946e-05 0.000122342 4.60407e-06
-4.52218e-07 4.60407e-06 -1.25234e-05
0.00162175 -2.63584e-05 -1.43471e-06
-2.63584e-05 0.000111417 1.71762e-07
-1.43471e-06 1.71762e-07 -6.51987e-06
0.00178062 -0.000123666 -2.92729e-06
-0.000123666 0.000204877 4.36939e-07
-2.92729e-06 4.36939e-07 7.59806e-05
0.00183714 -8.93358e-05 2.39407e-06
-8.93358e-05 8.30245e-05 3.96234e-08
2.39407e-06 3.96234e-08 -3.66239e-06
0.00182113 -0.000203251 -2.06414e-06
-0.000203251 0.000107858 5.7732e-07
-2.06414e-06 5.7732e-07 -1.53223e-05
0.000758137 -0.000201082 2.88427e-07
-0.000201082 0.000103709 -2.50268e-07
2.88427e-07 -2.50268e-07 -8.73847e-05
0.0011173 -0.000285613 -1.06931e-06
-0.000285613 0.000154086 1.08785e-08
-1.06931e-06 1.08785e-08 -7.96161e-05
0.00150997 -0.000427877 2.16806e-06
-0.000427877 0.000239436 -3.53988e-08
2.16806e-06 -3.53988e-08 -4.71758e-05
0.00171236 -0.000298693 -1.3193e-06
-0.000298693 0.000108798 7.67929e-07
-1.3193e-06 7.67929e-07 -5.61633e-05
0.00194621 -0.000277151 1.73655e-06
-0.000277151 0.00015144 -5.05248e-07
1.73655e-06 -5.05248e-07 4.23389e-05
0.0018923 -0.000455761 -5.95317e-07
-0.000455761 0.000289583 3.99433e-07
-5.95317e-07 3.99433e-07 4.21229e-05
0.00183635 -0.000362877 9.93871e-08
-0.000362877 0.000159345 4.91293e-07
9.93871e-08 4.91293e-07 -4.959e-06
0.00209234 -0.000411706 2.00835e-06
-0.000411706 0.000343322 -4.90116e-07
2.00835e-06 -4.90116e-07 0.000169837
0.00103227 -0.0002329 1.40295e-07
-0.0002329 0.000262028 8.45812e-07
1.40295e-07 8.45812e-07 4.47994e-05
0.00114667 -0.000255131 -5.4704e-07
-0.000255131 0.000347397 1.74865e-07
-5.4704e-07 1.74865e-07 0.000108552
0.00063138 -5.84348e-05 -3.05475e-07
-5.84348e-05 7.17267e-05 6.72809e-08
-3.05475e-07 6.72809e-08 -4.04151e-05
0.000290059 -6.09504e-05 6.09937e-08
-6.09504e-05 -0.000106004 -1.07481e-06
6.09937e-08 -1.07481e-06 -0.000305588
0.00183143 -4.68022e-05 -9.22277e-07
-4.68022e-05 7.58282e-05 6.92209e-07
-9.22277e-07 6.92209e-07 -2.82236e-06
0.00181238 -0.000147473 5.90535e-07
-0.000147473 7.81872e-05 1.0247e-06
5.90535e-07 1.0247e-06 -2.68888e-05
0.00185613 -9.72174e-05 4.99959e-06
-9.72174e-05 5.57983e-05 -5.17063e-07
4.99959e-06 -5.17063e-07 -1.9698e-06
0.00188505 -0.000226994 -1.69302e-06
-0.000226994 7.16946e-05 1.80106e-07
-1.69302e-06 1.80106e-07 -1.13748e-05
0.0017682 -0.000321589 -3.08142e-06
-0.000321589 8.16342e-05 1.74274e-06
-3.08142e-06 1.74274e-06 -5.35471e-05
0.00197419 -0.000290269 4.05943e-06
-0.000290269 0.000147957 -1.56729e-06
4.05943e-06 -1.56729e-06 5.1277e-05
0.00112804 -0.000268091 2.22096e-06
-0.000268091 0.000241378 -4.51927e-06
2.22096e-06 -4.51927e-06 1.59384e-05
0.00171465 -0.000372492 -3.92133e-06
-0.000372492 7.07396e-05 1.52257e-06
-3.92133e-06 1.52257e-06 -7.1184e-05
0.00156753 -0.000412911 3.1507e-06
-0.000412911 0.000382898 -3.13504e-06
3.1507e-06 -3.13504e-06 9.03396e-05
0.00175771 -0.000507202 -1.3173e-06
-0.000507202 0.000316484 2.24646e-06
-1.3173e-06 2.24646e-06 8.21025e-06
0.00184941 -0.000463161 2.42125e-06
-0.000463161 0.00021742 4.54448e-06
2.42125e-06 4.54448e-06 -2.34967e-05
0.00220874 -0.000416921 -1.2185e-07
-0.000416921 0.000398613 -3.57645e-07
-1.2185e-07 -3.57645e-07 0.000226174
0.000523247 -5.31785e-05 -2.27311e-07
-5.31785e-05 9.21994e-06 -4.28551e-06
-2.27311e-07 -4.28551e-06 -8.62799e-05
0.000465597 -7.27976e-05 -4.07196e-06
-7.27976e-05 1.11065e-05 -3.63095e-07
-4.07196e-06 -3.63095e-07 -0.000165252
0.000986496 -0.000266518 -1.91007e-06
-0.000266518 0.000178629 3.52473e-07
-1.91007e-06 3.52473e-07 -5.01361e-05
0.000869743 -0.000180259 -2.79032e-06
-0.000180259 0.000255641 4.09019e-06
-2.79032e-06 4.09019e-06 2.24419e-05
0.00190759 -0.000355064 -9.02636e-06
-0.000355064 0.00078711 4.42547e-06
-9.02636e-06 4.42547e-06 0.000534557
0.000419779 -6.13982e-05 -2.83197e-07
-6.13982e-05 -6.70655e-05 -6.15735e-06
-2.83197e-07 -6.15735e-06 -0.000100967
0.00156426 0.000252578 -4.10959e-06
0.000252578 0.000116607 -1.02468e-06
-4.10959e-06 -1.02468e-06 -6.51076e-05
0.000577523 -1.58158e-05 3.33714e-07
-1.58158e-05 3.22593e-05 -5.21967e-06
3.33714e-07 -5.21967e-06 -6.46963e-05
0.000519234 0.000140397 -3.25546e-06
0.000140397 -6.43217e-06 -3.81714e-06
-3.25546e-06 -3.81714e-06 -0.000172624
0.000451843 9.72245e-05 1.90032e-06
9.72245e-05 -9.55692e-06 3.00085e-07
1.90032e-06 3.00085e-07 -0.000206502
0.00141213 0.000304106 -5.13121e-06
0.000304106 0.000144236 -1.50006e-06
-5.13121e-06 -1.50006e-06 -7.20763e-05
0.00179002 0.000358596 8.31818e-08
0.000358596 0.000193888 8.85528e-07
8.31818e-08 8.85528e-07 -8.95173e-06
0.00109467 0.000257474 -3.2878e-06
0.000257474 0.000227001 -3.63122e-06
-3.2878e-06 -3.63122e-06 -3.01581e-06
0.00141494 0.000355042 -9.50134e-07
0.000355042 0.000265154 -2.13296e-06
-9.50134e-07 -2.13296e-06 -1.12383e-05
0.00172975 0.00040371 1.22266e-07
0.00040371 0.000308274 8.54157e-07
1.22266e-07 8.54157e-07 6.27413e-05
0.00175531 0.000410938 -6.86602e-07
0.000410938 0.000311479 6.34265e-06
-6.86602e-07 6.34265e-06 5.90722e-05
0.000510775 -4.68282e-05 1.72629e-07
-4.68282e-05 -2.97438e-05 3.7283e-09
1.72629e-07 3.7283e-09 -5.5074e-05
0.000608928 -6.1397e-06 -6.4389e-07
-6.1397e-06 4.47966e-05 4.99812e-07
-6.4389e-07 4.99812e-07 -3.40126e-05
0.000984489 0.000220587 3.76704e-07
0.000220587 0.000243313 8.93453e-07
3.76704e-07 8.93453e-07 3.29885e-05
0.000680615 4.71605e-05 -8.65511e-07
4.71605e-05 0.000137513 -1.56582e-07
-8.65511e-07 -1.56582e-07 -2.61268e-05
0.000651815 0.000155645 6.32115e-07
0.000155645 6.73193e-05 -7.51542e-08
6.32115e-07 -7.51542e-08 -0.000135634
0.00186414 0.00032004 -7.11606e-07
0.00032004 0.000180567 -1.18554e-06
-7.11606e-07 -1.18554e-06 5.22082e-06
0.00174853 0.000399315 5.45134e-07
0.000399315 0.000232869 1.38771e-07
5.45134e-07 1.38771e-07 2.63474e-06
0.00182909 0.000394426 1.68258e-06
0.000394426 0.000186083 2.50696e-07
1.68258e-06 2.50696e-07 -9.13483e-06
0.00134276 0.000332296 1.50528e-06
0.000332296 0.000321079 8.27694e-07
1.50528e-06 8.27694e-07 5.26592e-05
0.00191767 0.000473841 1.58464e-06
0.000473841 0.00033579 4.89336e-08
1.58464e-06 4.89336e-08 8.06943e-05
0.00151293 0.000395247 -2.08066e-06
0.000395247 0.000273889 -1.16004e-07
-2.08066e-06 -1.16004e-07 -8.96806e-06
0.000681533 8.25171e-06 1.52842e-06
8.25171e-06 7.95401e-05 3.33129e-06
1.52842e-06 3.33129e-06 1.43789e-05
0.00100001 9.54404e-05 9.35039e-07
9.54404e-05 0.000318436 2.44679e-06
9.35039e-07 2.44679e-06 0.000187329
0.000873272 0.000252455 -2.70397e-06
0.000252455 0.000108088 -1.67495e-06
-2.70397e-06 -1.67495e-06 -0.000112752
0.00146249 0.000124334 -1.2043e-06
0.000124334 0.000619954 6.37554e-07
-1.2043e-06 6.37554e-07 0.000417417
0.0012047 0.000186493 -8.19014e-06
0.000186493 0.000343632 -5.96798e-06
-8.19014e-06 -5.96798e-06 0.000160497
0.00186739 0.000331369 -3.33853e-06
0.000331369 0.000155746 -2.65949e-06
-3.33853e-06 -2.65949e-06 -1.39137e-06
0.00189279 0.000451024 8.25549e-08
0.000451024 0.000269611 2.63598e-07
8.25549e-08 2.63598e-07 3.91522e-05
0.00165332 0.000423603 3.61916e-06
0.000423603 4.90158e-05 -3.83081e-07
3.61916e-06 -3.83081e-07 -0.000144861
0.000342594 0.000268447 -1.85199e-07
0.000268447 -0.000264002 3.22709e-08
-1.85199e-07 3.22709e-08 -0.000540581
0.00137332 0.000426195 7.16441e-06
0.000426195 0.000104008 -1.26588e-06
7.16441e-06 -1.26588e-06 -0.000164946
0.00059602 7.74018e-06 -1.915e-07
7.74018e-06 2.4662e-05 5.71343e-08
-1.915e-07 5.71343e-08 -3.32275e-05
0.00051891 3.62412e-05 1.15606e-06
3.62412e-05 -1.07621e-06 1.79334e-06
1.15606e-06 1.79334e-06 -9.23902e-05
0.000505143 3.03439e-05 -6.24839e-07
3.03439e-05 -7.64847e-06 -1.72645e-07
-6.24839e-07 -1.72645e-07 -9.62813e-05
0.000934268 0.00011378 -5.41797e-08
0.00011378 0.000266094 -1.01708e-06
-5.41797e-08 -1.01708e-06 0.000153549
0.000667573 8.75608e-05 2.03226e-06
8.75608e-05 0.000103655 1.79501e-06
2.03226e-06 1.79501e-06 7.48992e-06
0.000575796 4.24066e-05 2.60158e-06
4.24066e-05 2.66295e-05 2.78903e-06
2.60158e-06 2.78903e-06 -3.0284e-05
0.000572963 2.12782e-07 -6.14251e-07
2.12782e-07 1.90285e-05 -2.34329e-08
-6.14251e-07 -2.34329e-08 -3.69104e-05
0.00124085 -3.49799e-05 9.64891e-07
-3.49799e-05 0.000401826 2.75659e-06
9.64891e-07 2.75659e-06 0.000387907
0.000584876 -1.01644e-06 -1.57721e-06
-1.01644e-06 1.88954e-05 -2.78757e-06
-1.57721e-06 -2.78757e-06 -3.6002e-05
0.00129815 -4.52559e-05 -6.04202e-06
-4.52559e-05 0.000438815 -1.45128e-06
-6.04202e-06 -1.45128e-06 0.000423449
0.000838217 -4.08893e-05 2.55448e-05
-4.08893e-05 0.000164823 7.98996e-06
2.55448e-05 7.98996e-06 0.000168602
0.00131863 -5.47736e-05 -1.02903e-05
-5.47736e-05 0.00045643 -4.2195e-06
-1.02903e-05 -4.2195e-06 0.000438667
0.00160944 -7.2546e-05 2.30738e-05
-7.2546e-05 0.000646088 1.79689e-06
2.30738e-05 1.79689e-06 0.000649439
0.00240865 -0.000106256 -3.08059e-05
-0.000106256 0.00114369 -3.68177e-06
-3.08059e-05 -3.68177e-06 0.00114697
0.000393221 7.36124e-05 -4.20446e-06
7.36124e-05 -7.03063e-05 -6.31738e-06
-4.20446e-06 -6.31738e-06 -0.00010949
0.000479056 2.91356e-06 3.99629e-07
2.91356e-06 -2.89199e-05 4.86764e-07
3.99629e-07 4.86764e-07 -7.19536e-05
0.00293598 0.000142429 2.68761e-05
0.000142429 0.00148076 -4.20516e-06
2.68761e-05 -4.20516e-06 0.00147261
0.00354904 0.000114227 -9.08001e-06
0.000114227 0.00185526 -6.47401e-07
-9.08001e-06 -6.47401e-07 0.0018535
0.000588566 -3.07133e-05 -7.86768e-06
-3.07133e-05 2.63803e-05 1.02123e-05
-7.86768e-06 1.02123e-05 -2.51851e-05
0.00425955 0.000109017 -0.000143156
0.000109017 0.00229042 1.06415e-05
-0.000143156 1.06415e-05 0.0022878
0.00159307 0.000213021 -3.29207e-06
0.000213021 9.84462e-05 -1.09163e-07
-3.29207e-06 -1.09163e-07 -6.44286e-05
0.00159016 0.000118097 -1.29754e-06
0.000118097 7.22299e-05 2.45597e-07
-1.29754e-06 2.45597e-07 -6.01991e-05
0.00187004 0.000210368 -1.2548e-06
0.000210368 0.00012354 1.51753e-06
-1.2548e-06 1.51753e-06 6.31325e-07
0.00190589 0.000100163 3.99152e-09
0.000100163 0.000102685 1.11278e-06
3.99152e-09 1.11278e-06 2.39538e-05
0.00153111 4.02666e-05 -6.68236e-07
4.02666e-05 5.1236e-05 1.98928e-07
-6.68236e-07 1.98928e-07 -6.6087e-05
0.000982396 5.83144e-06 -1.19587e-05
5.83144e-06 -4.39152e-05 -6.03103e-08
-1.19587e-05 -6.03103e-08 -0.000167496
0.00152712 5.81973e-06 6.42377e-08
5.81973e-06 5.22811e-05 7.46515e-08
6.42377e-08 7.46515e-08 -6.36985e-05
0.00189835 4.38262e-05 -1.47117e-06
4.38262e-05 0.000106174 -6.13009e-08
-1.47117e-06 -6.13009e-08 3.54128e-05
0.00188504 0.00015868 -4.30476e-07
0.00015868 0.00010542 9.85585e-08
-4.30476e-07 9.85585e-08 3.68849e-06
0.00184728 0.000101867 1.95949e-06
0.000101867 1.98285e-05 3.85163e-07
1.95949e-06 3.85163e-07 -3.1776e-05
0.00188699 0.000269171 -3.29265e-07
0.000269171 0.000156756 -1.41878e-07
-3.29265e-07 -1.41878e-07 8.77407e-06
0.00185771 0.000225682 -3.41947e-07
0.000225682 5.00518e-05 6.94529e-07
-3.41947e-07 6.94529e-07 -4.10761e-05
0.00188894 -9.96635e-08 -7.33127e-07
-9.96635e-08 0.000109632 1.94888e-07
-7.33127e-07 1.94888e-07 3.92111e-05
0.00186248 4.77645e-05 5.77875e-06
4.77645e-05 3.32557e-05 3.4812e-07
5.77875e-06 3.4812e-07 -9.59075e-06
0.0018372 0.0001624 1.99465e-06
0.0001624 1.71154e-05 6.0002e-07
1.99465e-06 6.0002e-07 -4.89331e-05
0.00192908 0.000103376 6.03309e-06
0.000103376 4.31989e-05 1.00159e-06
6.03309e-06 1.00159e-06 1.26469e-05
0.00185568 0.000266184 3.85903e-07
0.000266184 9.91974e-05 -1.85392e-06
3.85903e-07 -1.85392e-06 -2.17996e-05
0.00187576 0.000230322 4.13093e-06
0.000230322 2.19449e-05 1.22194e-06
4.13093e-06 1.22194e-06 -5.17976e-05
0.00156626 -2.35019e-05 -2.21222e-06
-2.35019e-05 7.70163e-05 -1.34953e-07
-2.21222e-06 -1.34953e-07 -4.00081e-05
0.00179179 -0.000129731 -5.1403e-06
-0.000129731 0.00020988 3.28311e-07
-5.1403e-06 3.28311e-07 8.00721e-05
0.0018751 -8.87728e-05 1.80289e-06
-8.87728e-05 0.000106046 -1.78173e-06
1.80289e-06 -1.78173e-06 2.48264e-05
0.00181018 -0.000199107 -1.03477e-06
-0.000199107 0.000102602 -1.33507e-07
-1.03477e-06 -1.33507e-07 -2.23133e-05
0.000846091 -0.000220478 -6.36131e-06
-0.000220478 0.0001622 7.20852e-06
-6.36131e-06 7.20852e-06 -3.2975e-05
0.00109932 -0.000287178 -6.96636e-06
-0.000287178 0.000134257 4.29622e-06
-6.96636e-06 4.29622e-06 -0.000100114
0.00136203 -0.000407862 7.02267e-07
-0.000407862 0.000163708 -3.37134e-08
7.02267e-07 -3.37134e-08 -0.000119808
0.00173058 -0.000298078 -1.11599e-06
-0.000298078 0.000123159 -5.1154e-08
-1.11599e-06 -5.1154e-08 -4.61911e-05
0.00192042 -0.000276901 1.56008e-06
-0.000276901 0.000131561 -1.255e-06
1.56008e-06 -1.255e-06 2.6209e-05
0.00185441 -0.000362665 2.34907e-06
-0.000362665 0.000171599 -9.82475e-07
2.34907e-06 -9.82475e-07 7.42996e-06
0.00181625 -0.000458936 -7.48833e-07
-0.000458936 0.000236667 -2.35816e-06
-7.48833e-07 -2.35816e-06 -1.41317e-05
0.00207377 -0.000405085 6.02475e-06
-0.000405085 0.000328557 -5.91155e-06
6.02475e-06 -5.91155e-06 0.000159391
0.000927394 -0.000224971 1.05499e-06
-0.000224971 0.000196436 1.19466e-06
1.05499e-06 1.19466e-06 -2.03706e-05
0.000231266 -0.000155749 2.28845e-06
-0.000155749 -0.0002158 3.34353e-07
2.28845e-06 3.34353e-07 -0.000437249
0.000683515 -6.55652e-05 -4.13545e-07
-6.55652e-05 9.96175e-05 4.08025e-06
-4.13545e-07 4.08025e-06 -1.34784e-05
0.000145405 -2.99593e-05 2.8749e-06
-2.99593e-05 -0.00020302 -3.47735e-06
2.8749e-06 -3.47735e-06 -0.000387974
0.00184553 -4.66466e-05 8.92197e-08
-4.66466e-05 8.51768e-05 2.92912e-07
8.92197e-08 2.92912e-07 6.43895e-06
0.00182139 -0.000147897 1.35914e-06
-0.000147897 8.7878e-05 -4.95836e-07
1.35914e-06 -4.95836e-07 -1.90817e-05
0.00184808 -9.65275e-05 2.15235e-06
-9.65275e-05 5.12748e-05 -6.18572e-07
2.15235e-06 -6.18572e-07 -3.79233e-06
0.00186702 -0.000224726 -2.03525e-06
-0.000224726 6.58852e-05 5.69339e-07
-2.03525e-06 5.69339e-07 -2.02554e-05
0.00102985 -0.000251534 -1.70123e-06
-0.000251534 0.000185878 -9.62035e-08
-1.70123e-06 -9.62035e-08 -3.64077e-05
0.00116627 -0.00036636 1.59974e-06
-0.00036636 0.000145155 -1.26553e-06
1.59974e-06 -1.26553e-06 -0.000136949
0.00168129 -0.000507171 -8.26891e-08
-0.000507171 0.000267031 4.96389e-07
-8.26891e-08 4.96389e-07 -4.47955e-05
0.00175946 -0.000318969 -1.56498e-06
-0.000318969 8.47757e-05 8.00809e-07
-1.56498e-06 8.00809e-07 -5.40386e-05
0.00190752 -0.000288668 1.54548e-06
-0.000288668 0.000110199 -9.04247e-07
1.54548e-06 -9.04247e-07 1.54937e-05
0.00182189 -0.000464927 -2.16975e-07
-0.000464927 0.000212546 5.41819e-07
-2.16975e-07 5.41819e-07 -3.02701e-05
0.00177036 -0.000377134 -7.72894e-07
-0.000377134 9.59827e-05 1.17728e-06
-7.72894e-07 1.17728e-06 -4.68371e-05
0.00202032 -0.000401914 3.6822e-06
-0.000401914 0.000277998 -5.70364e-06
3.6822e-06 -5.70364e-06 0.000112186
0.00116085 -0.000284738 4.25474e-07
-0.000284738 0.00027779 1.01906e-06
4.25474e-07 1.01906e-06 4.64046e-05
0.00138274 -0.000298307 5.7825e-06
-0.000298307 0.000455813 1.66365e-06
5.7825e-06 1.66365e-06 0.000219066
0.000841141 -0.000151369 -2.35602e-07
-0.000151369 0.000236363 -7.80541e-08
-2.35602e-07 -7.80541e-08 1.23792e-06
0.000415903 -2.34488e-05 -1.81108e-06
-2.34488e-05 -5.63454e-05 5.94292e-07
-1.81108e-06 5.94292e-07 -0.000152485
0.000230639 -2.68011e-05 -3.76909e-07
-2.68011e-05 -0.000136713 -4.44023e-07
-3.76909e-07 -4.44023e-07 -0.000303589
0.00186949 -5.59305e-05 4.72028e-06
-5.59305e-05 3.97627e-05 -6.07092e-07
4.72028e-06 -6.07092e-07 1.73485e-06
0.00189832 -0.000141951 4.6373e-06
-0.000141951 6.79047e-05 -8.43542e-07
4.6373e-06 -8.43542e-07 1.06502e-05
0.00195455 -0.00027155 2.69701e-06
-0.00027155 6.91192e-05 -1.43468e-06
2.69701e-06 -1.43468e-06 1.66708e-06
0.00178733 -0.000323628 6.3999e-07
-0.000323628 6.05965e-05 -1.49306e-06
6.3999e-07 -1.49306e-06 -4.5005e-05
0.00143657 -0.000336477 -9.34982e-07
-0.000336477 0.000386974 -3.95791e-06
-9.34982e-07 -3.95791e-06 0.000130495
0.00215271 -0.00045327 -2.20177e-07
-0.00045327 0.000253285 -1.51534e-06
-2.20177e-07 -1.51534e-06 0.000101925
0.00155584 -0.000479808 1.39983e-06
-0.000479808 0.000358961 -2.11232e-06
1.39983e-06 -2.11232e-06 2.70901e-05
0.00183218 -0.000563217 4.5102e-07
-0.000563217 0.000318566 9.81132e-07
4.5102e-07 9.81132e-07 -7.7877e-06
0.00181827 -0.000453337 3.32967e-07
-0.000453337 0.000192928 2.97735e-06
3.32967e-07 2.97735e-06 -4.22617e-05
0.000121989 2.44402e-06 -1.09358e-06
2.44402e-06 -0.000232152 -3.99738e-06
-1.09358e-06 -3.99738e-06 -0.000310343
0.000751775 -6.98063e-05 -1.24598e-06
-6.98063e-05 0.00019357 9.35748e-08
-1.24598e-06 9.35748e-08 4.20547e-05
0.00101672 -0.000106094 -2.67951e-06
-0.000106094 0.000344291 6.71215e-07
-2.67951e-06 6.71215e-07 0.000144407
0.00186837 -0.000375259 -9.45314e-06
-0.000375259 0.000675995 3.47757e-08
-9.45314e-06 3.47757e-08 0.000421493
0.000537602 -0.000152486 2.73021e-06
-0.000152486 3.09112e-05 5.99596e-06
2.73021e-06 5.99596e-06 -0.000214438
0.000940474 -0.000283417 -3.62973e-06
-0.000283417 0.000150068 4.18184e-07
-3.62973e-06 4.18184e-07 -9.10915e-05
0.000511521 -4.68864e-05 -9.20393e-07
-4.68864e-05 -3.00022e-05 -5.29451e-06
-9.20393e-07 -5.29451e-06 -5.50516e-05
0.000565948 -9.90769e-06 -1.02509e-06
-9.90769e-06 2.23651e-05 -4.07459e-06
-1.02509e-06 -4.07459e-06 -5.6451e-05
0.00183658 0.000319721 -1.95197e-06
0.000319721 0.000162157 -3.82795e-07
-1.95197e-06 -3.82795e-07 -1.35312e-05
9.07045e-05 -4.38076e-05 1.62223e-06
-4.38076e-05 -0.000219495 -2.08777e-06
1.62223e-06 -2.08777e-06 -0.000375266
0.000881957 0.000213921 -1.07622e-06
0.000213921 0.000188625 -2.55515e-07
-1.07622e-06 -2.55515e-07 -1.98383e-05
6.18358e-05 9.13223e-05 2.91422e-06
9.13223e-05 -0.000303451 7.86156e-07
2.91422e-06 7.86156e-07 -0.000490749
0.0017121 0.000396905 7.41342e-07
0.000396905 0.00021039 6.32524e-07
7.41342e-07 6.32524e-07 -1.97078e-05
0.00175931 0.000390616 1.14433e-06
0.000390616 0.00014807 3.59612e-07
1.14433e-06 3.59612e-07 -4.72735e-05
0.00149107 0.000343115 1.18012e-06
0.000343115 0.000421617 3.82904e-07
1.18012e-06 3.82904e-07 0.000150258
0.00213404 0.000450392 -1.21198e-06
0.000450392 0.000648162 -1.68212e-07
-1.21198e-06 -1.68212e-07 0.000359107
0.00176514 0.000458646 -6.94779e-07
0.000458646 0.000227819 1.02271e-06
-6.94779e-07 1.02271e-06 -2.62711e-05
0.000589626 9.20632e-06 -4.48925e-07
9.20632e-06 2.49323e-05 4.62142e-07
-4.48925e-07 4.62142e-07 -3.97239e-05
0.000716232 2.21387e-05 -7.39653e-07
2.21387e-05 0.000143476 2.35145e-07
-7.39653e-07 2.35145e-07 2.11026e-05
0.00108955 0.000275667 -1.22157e-06
0.000275667 0.000239732 -4.86464e-07
-1.22157e-06 -4.86464e-07 1.21332e-05
0.000847132 7.35493e-05 4.27864e-07
7.35493e-05 0.000240399 5.07463e-07
4.27864e-07 5.07463e-07 4.95759e-05
0.000775935 0.00018788 3.07516e-06
0.00018788 0.000104264 1.31913e-06
3.07516e-06 1.31913e-06 -8.40013e-05
0.00183647 0.000332477 -2.21202e-06
0.000332477 0.000138957 -1.66767e-06
-2.21202e-06 -1.66767e-06 -1.91993e-05
0.00186311 0.000447801 1.69288e-06
0.000447801 0.000251858 5.35044e-07
1.69288e-06 5.35044e-07 2.17137e-05
0.00174953 0.00042412 4.6871e-07
0.00042412 0.000107619 -1.13987e-07
4.6871e-07 -1.13987e-07 -8.47512e-05
0.000995637 0.000346562 2.3566e-06
0.000346562 0.00011205 2.98402e-06
2.3566e-06 2.98402e-06 -0.000176013
0.0016554 0.000453409 -2.54047e-06
0.000453409 0.000284382 -1.6462e-06
-2.54047e-06 -1.6462e-06 8.51218e-06
0.000782283 4.69366e-05 3.47692e-09
4.69366e-05 0.000172494 2.13515e-06
3.47692e-09 2.13515e-06 6.69294e-05
0.000221889 -3.49113e-06 -1.89202e-06
-3.49113e-06 -0.000133293 1.54561e-06
-1.89202e-06 1.54561e-06 -0.00028162
0.00074976 0.000264017 -4.84719e-06
0.000264017 -1.35136e-05 -2.91658e-06
-4.84719e-06 -2.91658e-06 -0.000239912
0.000683519 0.000158947 -7.01176e-06
0.000158947 0.000150124 -4.38951e-06
-7.01176e-06 -4.38951e-06 -5.69322e-05
0.00081272 0.000245669 -2.83571e-06
0.000245669 7.59822e-05 -3.27342e-06
-2.83571e-06 -3.27342e-06 -0.000113512
0.00175394 0.000357565 -4.79776e-07
0.000357565 2.33583e-05 -1.52774e-06
-4.79776e-07 -1.52774e-06 -0.000114279
0.00200075 0.000493688 3.53976e-06
0.000493688 0.000315195 -1.68885e-06
3.53976e-06 -1.68885e-06 6.99052e-05
0.00165979 0.000441664 2.64967e-06
0.000441664 4.28897e-05 5.54327e-07
2.64967e-06 5.54327e-07 -0.000157083
0.000930018 0.000349048 2.37649e-06
0.000349048 3.9204e-05 5.40299e-06
2.37649e-06 5.40299e-06 -0.000259405
0.00173007 0.000493498 -1.69733e-06
0.000493498 0.00033649 -7.97031e-07
-1.69733e-06 -7.97031e-07 4.77753e-05
0.000575955 -1.49962e-06 -1.76003e-06
-1.49962e-06 1.22449e-05 -2.91644e-06
-1.76003e-06 -2.91644e-06 -4.54618e-05
0.000576335 4.11087e-05 1.15715e-06
4.11087e-05 3.54523e-05 3.8684e-07
1.15715e-06 3.8684e-07 -5.65588e-05
0.000471635 2.6182e-05 -2.62309e-07
2.6182e-05 -3.24209e-05 7.43206e-07
-2.62309e-07 7.43206e-07 -0.000125201
0.000368573 -2.31056e-05 -6.68887e-07
-2.31056e-05 -8.76186e-05 -1.77747e-06
-6.68887e-07 -1.77747e-06 -0.000176563
0.00063065 4.74205e-05 -2.99354e-07
4.74205e-05 8.0764e-05 -1.85741e-09
-2.99354e-07 -1.85741e-09 -1.36879e-05
0.000663052 6.672e-05 -6.26355e-07
6.672e-05 9.02129e-05 -2.60407e-07
-6.26355e-07 -2.60407e-07 -9.95245e-06
0.000778012 0.000101276 -1.8534e-06
0.000101276 0.000169483 -3.0423e-06
-1.8534e-06 -3.0423e-06 6.28555e-05
0.00041398 -1.28775e-06 1.00672e-06
-1.28775e-06 -4.14573e-05 -1.63804e-07
1.00672e-06 -1.63804e-07 -0.000154508
0.000678419 7.61633e-05 1.0038e-06
7.61633e-05 0.00010592 2.08302e-06
1.0038e-06 2.08302e-06 1.55763e-05
0.000599529 5.03689e-05 3.02645e-06
5.03689e-05 4.56115e-05 2.79919e-06
3.02645e-06 2.79919e-06 -1.34331e-05
0.000574369 9.79992e-06 -1.7258e-06
9.79992e-06 2.49403e-05 -8.65047e-09
-1.7258e-06 -8.65047e-09 -3.14175e-05
0.00124045 -2.17261e-05 1.16511e-06
-2.17261e-05 0.000402294 2.64555e-06
1.16511e-06 2.64555e-06 0.00038937
0.000521242 -5.14801e-05 5.35357e-07
-5.14801e-05 -7.53608e-06 -2.79278e-06
5.35357e-07 -2.79278e-06 -6.60221e-05
0.00129364 -3.13304e-05 -5.27441e-06
-3.13304e-05 0.000433693 -1.505e-06
-5.27441e-06 -1.505e-06 0.000420242
0.000817935 -3.19991e-05 2.18927e-05
-3.19991e-05 0.000148055 8.32776e-06
2.18927e-05 8.32776e-06 0.000153609
0.00134005 -4.27432e-05 -9.32765e-06
-4.27432e-05 0.000464052 -5.87347e-06
-9.32765e-06 -5.87347e-06 0.000449001
0.000788142 -4.25308e-05 7.99033e-06
-4.25308e-05 0.000133647 3.11526e-06
7.99033e-06 3.11526e-06 0.000136539
0.00233157 -9.9536e-05 -3.84575e-06
-9.9536e-05 0.00108835 -2.18655e-06
-3.84575e-06 -2.18655e-06 0.00109299
0.000436834 5.0605e-05 -1.8436e-06
5.0605e-05 -6.22389e-05 -4.16017e-06
-1.8436e-06 -4.16017e-06 -8.70638e-05
0.000462983 3.43928e-05 -2.20663e-06
3.43928e-05 -3.81145e-05 -5.16518e-09
-2.20663e-06 -5.16518e-09 -7.20095e-05
0.00257734 0.000116656 2.14214e-05
0.000116656 0.00125507 -3.95905e-06
2.14214e-05 -3.95905e-06 0.00125407
0.000591417 -1.83195e-05 -5.9816e-06
-1.83195e-05 3.27919e-05 8.31302e-06
-5.9816e-06 8.31302e-06 -8.2093e-06
0.00311579 0.00012977 -2.82047e-05
0.00012977 0.00158769 -1.02664e-06
-2.82047e-05 -1.02664e-06 0.00158292
0.00371385 9.73801e-05 -0.000119818
9.73801e-05 0.00195254 8.10845e-06
-0.000119818 8.10845e-06 0.00195449
0.00185347 0.000269359 -2.20939e-06
0.000269359 0.000131603 9.02492e-07
-2.20939e-06 9.02492e-07 -1.69582e-05
0.00186179 0.000155028 7.52179e-08
0.000155028 9.32638e-05 1.62203e-06
7.52179e-08 1.62203e-06 -7.92249e-06
0.00189008 0.000221905 -4.08813e-07
0.000221905 6.94895e-05 1.8527e-06
-4.08813e-07 1.8527e-06 -1.68e-05
0.00187729 0.000101508 -1.88339e-06
0.000101508 3.40438e-05 -5.93545e-07
-1.88339e-06 -5.93545e-07 -1.27383e-05
0.00186839 3.67352e-05 -1.61854e-06
3.67352e-05 8.7937e-05 3.21654e-07
-1.61854e-06 3.21654e-07 1.70736e-05
0.00153139 8.62722e-06 -4.3167e-07
8.62722e-06 5.63763e-05 9.70855e-08
-4.3167e-07 9.70855e-08 -5.95847e-05
0.00185578 5.91134e-07 -1.3648e-06
5.91134e-07 8.86625e-05 6.88363e-08
-1.3648e-06 6.88363e-08 1.58885e-05
0.00185383 4.55931e-05 1.79236e-06
4.55931e-05 3.13738e-05 7.37327e-08
1.79236e-06 7.37327e-08 -1.34463e-05
0.00190462 0.000163317 -5.20889e-07
0.000163317 6.08464e-05 -9.99385e-09
-5.20889e-07 -9.99385e-09 -6.31842e-06
0.0019075 0.000104411 1.04706e-06
0.000104411 2.72146e-05 9.03404e-08
1.04706e-06 9.03404e-08 -6.60513e-07
0.00184657 0.000263566 -8.23719e-07
0.000263566 0.000101675 -3.19626e-07
-8.23719e-07 -3.19626e-07 -1.87503e-05
0.00189963 0.000235381 3.23708e-06
0.000235381 3.66404e-05 1.24531e-06
3.23708e-06 1.24531e-06 -3.35525e-05
0.0018735 -6.43711e-06 5.23798e-06
-6.43711e-06 5.24778e-05 1.07129e-07
5.23798e-06 1.07129e-07 9.66268e-06
0.00190521 4.80567e-05 4.98201e-06
4.80567e-05 2.10862e-05 1.23175e-07
4.98201e-06 1.23175e-07 8.22481e-07
0.00196209 0.000165124 3.91151e-06
0.000165124 3.4731e-05 1.27074e-06
3.91151e-06 1.27074e-06 8.41145e-07
0.00198088 0.000302578 1.89896e-07
0.000302578 9.46793e-05 2.6649e-07
1.89896e-07 2.6649e-07 3.69175e-06
0.00186543 -4.65556e-05 -9.55394e-08
-4.65556e-05 9.71893e-05 -8.80953e-08
-9.55394e-08 -8.80953e-08 1.83827e-05
0.00181559 -0.000149222 1.85382e-06
-0.000149222 8.8347e-05 -1.34388e-06
1.85382e-06 -1.34388e-06 -2.06303e-05
0.00183061 -9.54186e-05 -2.29742e-07
-9.54186e-05 4.07627e-05 -7.5458e-07
-2.29742e-07 -7.5458e-07 -1.16426e-05
0.00185204 -0.000222095 -3.33914e-06
-0.000222095 6.06477e-05 1.107e-06
-3.33914e-06 1.107e-06 -2.83002e-05
0.00100595 -0.000248119 -4.2469e-06
-0.000248119 0.000175473 3.90957e-06
-4.2469e-06 3.90957e-06 -4.76835e-05
0.00103495 -0.00034718 -2.7394e-07
-0.00034718 7.00378e-05 1.43669e-06
-2.7394e-07 1.43669e-06 -0.00020645
0.00164699 -0.000511374 1.8066e-06
-0.000511374 0.000243712 -1.637e-06
1.8066e-06 -1.637e-06 -7.27037e-05
0.00175253 -0.00031665 -7.7026e-07
-0.00031665 8.93366e-05 -1.24586e-07
-7.7026e-07 -1.24586e-07 -5.31517e-05
0.00184012 -0.000287175 4.67431e-07
-0.000287175 7.18605e-05 6.14405e-07
4.67431e-07 6.14405e-07 -2.07327e-05
0.00182501 -0.000382095 2.5542e-06
-0.000382095 0.000118894 8.0135e-07
2.5542e-06 8.0135e-07 -2.48837e-05
0.00179611 -0.0004639 -2.57876e-06
-0.0004639 0.000206658 -2.35532e-06
-2.57876e-06 -2.35532e-06 -3.70441e-05
0.00184858 -0.000387475 2.52383e-06
-0.000387475 0.000163866 -9.87369e-06
2.52383e-06 -9.87369e-06 4.77613e-06
0.001113 -0.000280803 2.72702e-06
-0.000280803 0.000244114 1.59243e-06
2.72702e-06 1.59243e-06 1.3903e-05
0.000824907 -0.000239352 5.29132e-06
-0.000239352 9.37435e-05 3.70453e-07
5.29132e-06 3.70453e-07 -0.000122419
0.000658538 -0.000126182 3.85823e-06
-0.000126182 0.000126762 -5.42339e-06
3.85823e-06 -5.42339e-06 -0.000111786
0.000291924 -1.75818e-06 2.11331e-07
-1.75818e-06 -0.000131318 3.83778e-06
2.11331e-07 3.83778e-06 -0.000229163
0.000182092 1.12472e-05 3.20584e-06
1.12472e-05 -0.00017057 -4.11962e-07
3.20584e-06 -4.11962e-07 -0.000331978
0.00187337 -6.31039e-05 -4.80544e-07
-6.31039e-05 4.18676e-05 -1.1285e-07
-4.80544e-07 -1.1285e-07 1.0024e-06
0.00187489 -0.000141547 1.49373e-06
-0.000141547 5.22161e-05 -4.78359e-07
1.49373e-06 -4.78359e-07 -6.34156e-06
0.00192513 -0.000264966 -1.42102e-06
-0.000264966 6.42648e-05 2.13087e-07
-1.42102e-06 2.13087e-07 -6.17053e-06
0.00123394 -0.000317537 -1.75035e-06
-0.000317537 0.000264515 5.82235e-08
-1.75035e-06 5.82235e-08 9.94008e-06
0.00112352 -0.000424094 1.40202e-06
-0.000424094 9.9014e-05 -1.24192e-06
1.40202e-06 -1.24192e-06 -0.000218489
0.00172399 -0.000555521 -1.83064e-07
-0.000555521 0.000259827 -3.21859e-07
-1.83064e-07 -3.21859e-07 -6.86379e-05
0.00179799 -0.000323486 4.34638e-07
-0.000323486 6.34266e-05 2.03612e-08
4.34638e-07 2.03612e-08 -4.32259e-05
0.00193209 -0.000464047 8.66659e-07
-0.000464047 0.000255611 -2.86592e-06
8.66659e-07 -2.86592e-06 2.59044e-05
0.00196399 -0.000434123 -6.41763e-07
-0.000434123 0.000165614 -9.25862e-07
-6.41763e-07 -9.25862e-07 1.6201e-05
0.00022637 4.18457e-05 -9.43901e-07
4.18457e-05 -0.00017628 -7.84911e-07
-9.43901e-07 -7.84911e-07 -0.000249143
0.00121768 -0.000308804 -3.36184e-07
-0.000308804 0.000268755 6.21453e-07
-3.36184e-07 6.21453e-07 2.87201e-05
0.000758764 -0.000260346 1.91235e-06
-0.000260346 5.00226e-05 3.07314e-06
1.91235e-06 3.07314e-06 -0.000171777
0.00106903 -0.000207942 -3.96619e-07
-0.000207942 0.000359108 3.53128e-07
-3.96619e-07 3.53128e-07 9.98975e-05
0.00116771 -0.000109392 8.36385e-07
-0.000109392 0.000436682 -2.32504e-06
8.36385e-07 -2.32504e-06 0.000237438
0.000533586 -1.66983e-05 -6.8458e-07
-1.66983e-05 5.05959e-05 1.03759e-06
-6.8458e-07 1.03759e-06 -9.50602e-05
0.00190147 -7.48255e-05 4.61961e-06
-7.48255e-05 2.50891e-05 -5.91681e-07
4.61961e-06 -5.91681e-07 5.35964e-06
0.00199159 -0.000182881 2.44603e-06
-0.000182881 2.51843e-05 -5.98459e-07
2.44603e-06 -5.98459e-07 3.92973e-06
0.00196781 -0.000316792 2.498e-06
-0.000316792 6.15297e-05 -1.70366e-06
2.498e-06 -1.70366e-06 1.04165e-05
0.00209844 -0.000397993 2.37775e-06
-0.000397993 0.00015208 -3.06954e-06
2.37775e-06 -3.06954e-06 5.30899e-05
0.00210429 -0.000449434 -3.02451e-06
-0.000449434 0.000757059 -5.48355e-06
-3.02451e-06 -5.48355e-06 0.000459109
0.00190545 -0.000489353 4.02068e-06
-0.000489353 0.000169851 2.23061e-06
4.02068e-06 2.23061e-06 -2.58883e-05
0.00138985 -0.00052194 -4.30298e-06
-0.00052194 0.000222307 1.52868e-06
-4.30298e-06 1.52868e-06 -0.00014416
0.00198139 -0.000600009 -5.10262e-06
-0.000600009 0.000416403 1.21012e-06
-5.10262e-06 1.21012e-06 6.91132e-05
0.000224747 5.73311e-05 -2.94524e-06
5.73311e-05 -0.000181191 -1.73947e-06
-2.94524e-06 -1.73947e-06 -0.000239974
0.000668155 3.64515e-06 -1.43928e-06
3.64515e-06 0.000128385 -3.38875e-08
-1.43928e-06 -3.38875e-08 9.8631e-06
0.001055 -0.000132092 -4.09009e-06
-0.000132092 0.00037667 3.30528e-06
-4.09009e-06 3.30528e-06 0.000203633
0.000925418 -3.87838e-05 -3.42049e-06
-3.87838e-05 0.000269155 3.75002e-06
-3.42049e-06 3.75002e-06 3.9939e-05
0.00105656 -0.000332585 -5.41091e-06
-0.000332585 0.000154872 -6.41064e-06
-5.41091e-06 -6.41064e-06 -0.000119157
0.0012122 -0.000299968 -1.0053e-05
-0.000299968 0.000374912 5.31426e-06
-1.0053e-05 5.31426e-06 8.40531e-05
0.000498079 2.05177e-06 -2.01326e-06
2.05177e-06 -3.02462e-05 -3.00404e-06
-2.01326e-06 -3.00404e-06 -9.38729e-05
0.00047685 -1.77331e-05 1.44523e-06
-1.77331e-05 -1.37052e-05 -1.89874e-06
1.44523e-06 -1.89874e-06 -0.000122563
0.00180794 0.00033428 -2.24105e-06
0.00033428 0.000122016 -8.14401e-07
-2.24105e-06 -8.14401e-07 -3.73127e-05
0.000186086 2.22462e-05 9.29095e-07
2.22462e-05 -0.000168386 -2.41486e-07
9.29095e-07 -2.41486e-07 -0.000344488
0.00140007 0.000308385 9.66323e-07
0.000308385 0.00042744 8.40243e-07
9.66323e-07 8.40243e-07 0.000192335
-5.55638e-05 8.93061e-05 5.71881e-06
8.93061e-05 -0.000411346 2.76622e-06
5.71881e-06 2.76622e-06 -0.000572462
0.00183473 0.000445139 8.93492e-07
0.000445139 0.000232709 3.39705e-07
8.93492e-07 3.39705e-07 2.73139e-06
0.00187077 0.000426715 -2.86132e-06
0.000426715 0.000178237 6.46646e-07
-2.86132e-06 6.46646e-07 -1.30226e-05
0.00155468 0.00041414 -8.25577e-07
0.00041414 0.000435899 1.79424e-06
-8.25577e-07 1.79424e-06 0.000136631
0.00194098 0.000480467 -2.52255e-06
0.000480467 0.000469225 6.08062e-07
-2.52255e-06 6.08062e-07 0.00018543
0.00068079 2.18958e-05 -1.04393e-06
2.18958e-05 0.000106855 2.47415e-07
-1.04393e-06 2.47415e-07 6.62186e-06
0.00047041 3.95365e-05 9.90985e-07
3.95365e-05 1.72618e-05 6.91304e-07
9.90985e-07 6.91304e-07 -0.000136689
0.00144187 0.000334585 -1.17728e-06
0.000334585 0.000408334 -1.71536e-06
-1.17728e-06 -1.71536e-06 0.000166772
0.000494748 6.44139e-05 -1.46961e-06
6.44139e-05 4.27606e-07 -2.38086e-07
-1.46961e-06 -2.38086e-07 -0.000173595
0.000585412 0.000211197 -1.9525e-08
0.000211197 -7.12022e-05 -1.16195e-06
-1.9525e-08 -1.16195e-06 -0.000241086
0.00195669 0.000370342 -2.99821e-06
0.000370342 0.000137457 -1.2298e-06
-2.99821e-06 -1.2298e-06 1.77273e-06
0.00208563 0.000493232 2.25424e-06
0.000493232 0.000369366 -2.39485e-07
2.25424e-06 -2.39485e-07 0.000128032
0.00185046 0.000462332 1.96429e-06
0.000462332 0.000144092 2.71617e-06
1.96429e-06 2.71617e-06 -6.00148e-05
0.00125115 0.000386489 5.06614e-06
0.000386489 0.000241117 3.63444e-06
5.06614e-06 3.63444e-06 -6.60907e-05
0.00168094 0.000500439 -3.93998e-06
0.000500439 0.000304364 2.63089e-07
-3.93998e-06 2.63089e-07 7.89191e-06
6.23094e-05 -8.61156e-06 -1.3772e-06
-8.61156e-06 -0.000257388 2.7554e-06
-1.3772e-06 2.7554e-06 -0.000361927
-0.000103435 9.31312e-05 8.83498e-07
9.31312e-05 -0.000286536 6.31461e-07
8.83498e-07 6.31461e-07 -0.000482868
0.000625885 0.000260206 4.8138e-07
0.000260206 -9.30137e-05 1.74524e-06
4.8138e-07 1.74524e-06 -0.000334098
-0.000315455 0.000117595 3.68556e-06
0.000117595 -0.000562871 -6.30822e-07
3.68556e-06 -6.30822e-07 -0.000738499
0.00195998 0.000374075 3.33551e-07
0.000374075 -7.78576e-05 1.14042e-06
3.33551e-07 1.14042e-06 -0.000119091
0.0025717 0.000473867 1.79084e-06
0.000473867 0.000499164 -2.08029e-07
1.79084e-06 -2.08029e-07 0.000333634
0.00188331 0.000534824 -3.99105e-06
0.000534824 0.000275391 -4.14295e-06
-3.99105e-06 -4.14295e-06 -3.04325e-06
0.00099858 0.000412663 -9.93735e-07
0.000412663 1.62675e-05 9.69004e-07
-9.93735e-07 9.69004e-07 -0.000306491
0.000631129 7.5685e-05 -9.27304e-07
7.5685e-05 7.34196e-05 -1.02534e-06
-9.27304e-07 -1.02534e-06 -2.18672e-05
0.000604828 5.51629e-05 -3.43138e-07
5.51629e-05 5.87537e-05 5.29111e-08
-3.43138e-07 5.29111e-08 -4.21834e-05
0.000960538 5.37401e-05 -3.84504e-06
5.37401e-05 0.000271239 -2.11226e-06
-3.84504e-06 -2.11226e-06 0.000180917
0.000619807 2.45823e-05 -1.44212e-06
2.45823e-05 5.91659e-05 -1.95315e-06
-1.44212e-06 -1.95315e-06 -2.44087e-05
0.000379905 1.51507e-05 -6.42442e-07
1.51507e-05 -7.93519e-05 -2.73503e-07
-6.42442e-07 -2.73503e-07 -0.000175652
0.000636715 3.81264e-05 -2.23708e-07
3.81264e-05 8.34139e-05 5.45744e-08
-2.23708e-07 5.45744e-08 -7.88877e-06
0.000643656 9.98159e-05 -1.07104e-06
9.98159e-05 0.000101019 1.39298e-07
-1.07104e-06 1.39298e-07 -8.675e-06
0.000552674 3.38827e-05 9.99274e-07
3.38827e-05 4.63118e-05 2.47389e-07
9.99274e-07 2.47389e-07 -7.02411e-05
0.000743416 7.30575e-05 1.34892e-06
7.30575e-05 0.000133719 -1.7601e-06
1.34892e-06 -1.7601e-06 4.80233e-05
0.000676987 -1.97098e-06 3.68643e-06
-1.97098e-06 0.000115821 -3.07556e-06
3.68643e-06 -3.07556e-06 4.17918e-07
0.000466954 5.91078e-05 6.72329e-07
5.91078e-05 -3.88345e-06 1.84952e-06
6.72329e-07 1.84952e-06 -0.000123806
0.000660407 8.79829e-05 1.80452e-06
8.79829e-05 0.000101647 2.54225e-06
1.80452e-06 2.54225e-06 6.59357e-06
0.000526249 5.88845e-05 2.67915e-06
5.88845e-05 7.72057e-06 2.62977e-06
2.67915e-06 2.62977e-06 -5.59049e-05
0.000534053 2.34113e-06 -1.47438e-06
2.34113e-06 7.38302e-06 -9.95125e-08
-1.47438e-06 -9.95125e-08 -5.21585e-05
0.00123116 -7.60057e-06 1.12652e-06
-7.60057e-06 0.000399651 2.49161e-06
1.12652e-06 2.49161e-06 0.000386972
0.00052533 -4.8868e-05 1.70229e-07
-4.8868e-05 -1.51378e-06 -2.67113e-06
1.70229e-07 -2.67113e-06 -5.95947e-05
0.0012972 -1.80472e-05 -4.60765e-06
-1.80472e-05 0.000436963 -1.5876e-06
-4.60765e-06 -1.5876e-06 0.000424254
0.000810439 -2.30323e-05 1.89828e-05
-2.30323e-05 0.00014235 8.57482e-06
1.89828e-05 8.57482e-06 0.000148753
0.00134118 -2.88139e-05 -8.13222e-06
-2.88139e-05 0.000462852 -5.82528e-06
-8.13222e-06 -5.82528e-06 0.000449508
0.000778464 -3.32262e-05 6.67181e-06
-3.32262e-05 0.000122984 3.2098e-06
6.67181e-06 3.2098e-06 0.000127958
0.000732039 -4.15413e-05 -8.23136e-07
-4.15413e-05 9.87929e-05 -2.4168e-06
-8.23136e-07 -2.4168e-06 0.000101604
0.000473711 3.86062e-05 -8.86259e-08
3.86062e-05 -5.43526e-05 -3.23023e-06
-8.86259e-08 -3.23023e-06 -7.11371e-05
0.000475262 6.17371e-05 -1.99662e-08
6.17371e-05 -3.47787e-05 1.78819e-07
-1.99662e-08 1.78819e-07 -6.26883e-05
0.00230995 9.53146e-05 1.73161e-05
9.53146e-05 0.00108399 -3.85778e-06
1.73161e-05 -3.85778e-06 0.00108875
0.000523894 3.06595e-05 -3.26364e-06
3.06595e-05 3.70395e-07 6.82008e-06
-3.26364e-06 6.82008e-06 -3.49844e-05
0.0026686 0.000120566 -6.23234e-06
0.000120566 0.00131078 -5.78212e-07
-6.23234e-06 -5.78212e-07 0.00130877
0.00319783 8.75628e-05 -9.4785e-05
8.75628e-05 0.00163251 6.23235e-06
-9.4785e-05 6.23235e-06 0.00163768
0.00184115 0.000260827 -6.33115e-07
0.000260827 0.000107433 1.74175e-06
-6.33115e-07 1.74175e-06 -1.23818e-05
0.00197382 0.000164384 -3.80527e-06
0.000164384 0.000105055 -2.79598e-07
-3.80527e-06 -2.79598e-07 3.66753e-05
0.00191452 0.000240013 -3.65304e-08
0.000240013 4.59035e-05 -2.03144e-07
-3.65304e-08 -2.03144e-07 -2.08723e-05
0.00188702 0.000105778 -4.58568e-06
0.000105778 1.16682e-05 -1.03137e-06
-4.58568e-06 -1.03137e-06 -1.35674e-05
0.00184996 4.42038e-05 -3.07646e-06
4.42038e-05 3.23917e-05 -2.00057e-07
-3.07646e-06 -2.00057e-07 -1.43706e-05
0.00180264 -1.54752e-06 -1.3249e-06
-1.54752e-06 5.5276e-05 8.15091e-08
-1.3249e-06 8.15091e-08 -1.9904e-05
0.00183672 -4.02978e-06 -6.55544e-07
-4.02978e-06 2.91435e-05 -2.98892e-08
-6.55544e-07 -2.98892e-08 -1.30282e-05
0.00190905 4.96031e-05 1.0979e-06
4.96031e-05 2.96528e-05 1.6205e-07
1.0979e-06 1.6205e-07 8.21155e-06
0.00196501 0.000169437 6.89986e-07
0.000169437 3.86837e-05 1.42325e-07
6.89986e-07 1.42325e-07 4.57175e-06
0.00201557 0.00029924 4.95939e-07
0.00029924 0.000102583 2.00283e-07
4.95939e-07 2.00283e-07 1.27293e-05
0.00188757 -1.02932e-05 3.58653e-06
-1.02932e-05 2.38711e-05 -3.56321e-08
3.58653e-06 -3.56321e-08 3.6954e-06
0.00202106 9.75902e-05 2.1174e-06
9.75902e-05 7.40638e-06 2.95126e-08
2.1174e-06 2.95126e-08 1.48302e-05
0.00214634 0.000257913 2.92346e-06
0.000257913 7.26377e-05 1.26271e-06
2.92346e-06 1.26271e-06 3.49458e-05
0.00187698 -7.03016e-05 -3.8241e-06
-7.03016e-05 4.40033e-05 6.039e-07
-3.8241e-06 6.039e-07 3.30381e-07
0.00185166 -0.000141294 -1.77423e-06
-0.000141294 3.69807e-05 -3.04204e-07
-1.77423e-06 -3.04204e-07 -2.29856e-05
0.00189868 -0.000258596 -3.3301e-06
-0.000258596 6.24473e-05 1.35506e-06
-3.3301e-06 1.35506e-06 -1.1805e-05
0.00103029 -0.000298247 -1.26207e-06
-0.000298247 0.000140956 3.44329e-06
-1.26207e-06 3.44329e-06 -0.00011136
0.000951227 -0.000395451 3.82885e-06
-0.000395451 -6.72911e-06 -4.72454e-07
3.82885e-06 -4.72454e-07 -0.00031481
0.00162556 -0.000551374 9.72403e-07
-0.000551374 0.000205897 -2.89311e-07
9.72403e-07 -2.89311e-07 -0.000124274
0.00181764 -0.000323701 -1.10254e-06
-0.000323701 7.15938e-05 8.91674e-07
-1.10254e-06 8.91674e-07 -3.62485e-05
0.00166239 -0.00040912 -1.35942e-06
-0.00040912 1.14962e-05 -7.48868e-07
-1.35942e-06 -7.48868e-07 -0.000135698
0.00198007 -0.000470776 -1.34032e-06
-0.000470776 0.000281924 -7.3841e-06
-1.34032e-06 -7.3841e-06 5.78968e-05
0.000798004 -0.000267136 3.0914e-06
-0.000267136 5.80276e-06 5.59383e-06
3.0914e-06 5.59383e-06 -0.000225963
0.000549572 -0.000234292 -7.86735e-06
-0.000234292 -6.34681e-05 6.57365e-06
-7.86735e-06 6.57365e-06 -0.000266119
0.00187993 -0.000279824 2.22332e-06
-0.000279824 0.000866636 -1.45937e-06
2.22332e-06 -1.45937e-06 0.000583219
0.000351369 3.8015e-05 1.72847e-06
3.8015e-05 -0.000102969 6.07798e-07
1.72847e-06 6.07798e-07 -0.000173514
0.000873023 -0.000112135 3.69359e-06
-0.000112135 0.000250787 -9.85844e-07
3.69359e-06 -9.85844e-07 6.62162e-05
0.000302963 3.26054e-05 4.76264e-06
3.26054e-05 -9.78261e-05 1.15323e-06
4.76264e-06 1.15323e-06 -0.000237697
0.00189836 -7.50938e-05 -4.612e-07
-7.50938e-05 2.44842e-05 1.2618e-07
-4.612e-07 1.2618e-07 1.37949e-06
0.00197047 -0.000189133 1.99184e-07
-0.000189133 9.26233e-06 -1.15825e-07
1.99184e-07 -1.15825e-07 -1.15164e-05
0.00196028 -0.000313635 -4.17989e-07
-0.000313635 6.43722e-05 4.96717e-07
-4.17989e-07 4.96717e-07 8.56088e-06
0.00142328 -0.000380645 -2.38695e-06
-0.000380645 0.00035182 1.63331e-07
-2.38695e-06 1.63331e-07 6.67473e-05
0.00131886 -0.000510668 7.27989e-07
-0.000510668 0.000177844 -1.09569e-06
7.27989e-07 -1.09569e-06 -0.000183789
0.00207157 -0.000600152 -4.49917e-06
-0.000600152 0.00046803 8.73501e-07
-4.49917e-06 8.73501e-07 0.000129884
0.00198932 -0.000398769 6.48815e-07
-0.000398769 8.99245e-05 -2.76763e-07
6.48815e-07 -2.76763e-07 -1.31802e-05
0.00174997 -0.000476852 1.38243e-06
-0.000476852 7.54864e-05 -3.21628e-06
1.38243e-06 -3.21628e-06 -0.000118328
0.000409874 5.41454e-05 -7.35156e-07
5.41454e-05 -7.26633e-05 -1.02685e-06
-7.35156e-07 -1.02685e-06 -0.000127046
0.000669202 -1.19306e-05 -6.84121e-07
-1.19306e-05 0.000125802 3.31334e-07
-6.84121e-07 3.31334e-07 9.08222e-06
0.000338706 -0.00025953 -5.14071e-06
-0.00025953 -0.000273288 5.49252e-06
-5.14071e-06 5.49252e-06 -0.000525832
0.00156351 -0.000309824 2.90812e-06
-0.000309824 0.000607701 -2.25807e-06
2.90812e-06 -2.25807e-06 0.000313324
0.00108819 -9.18791e-05 -1.87592e-07
-9.18791e-05 0.000380853 -1.90953e-06
-1.87592e-07 -1.90953e-06 0.000148583
0.000839621 -0.000102246 -6.49944e-07
-0.000102246 0.000245395 9.35477e-07
-6.49944e-07 9.35477e-07 7.36848e-05
0.00196193 -9.6392e-05 8.02984e-07
-9.6392e-05 -5.27301e-06 1.13693e-07
8.02984e-07 1.13693e-07 2.71867e-07
0.00206111 -0.000269226 -4.35206e-10
-0.000269226 -5.49477e-06 1.92813e-07
-4.35206e-10 1.92813e-07 5.31095e-06
0.00203003 -0.00035041 2.40163e-06
-0.00035041 6.7926e-05 -1.90081e-06
2.40163e-06 -1.90081e-06 2.67148e-05
0.00201417 -0.000523791 6.11581e-06
-0.000523791 8.46957e-05 -2.75901e-06
6.11581e-06 -2.75901e-06 -4.92972e-05
0.00103189 -0.000401729 -1.94097e-06
-0.000401729 9.47682e-05 -5.00632e-06
-1.94097e-06 -5.00632e-06 -0.000239269
0.00200229 -0.000611176 -1.1769e-06
-0.000611176 0.000371411 1.25116e-05
-1.1769e-06 1.25116e-05 5.23082e-05
0.00209636 -0.000634108 -4.67666e-06
-0.000634108 0.0005948 -2.14305e-06
-4.67666e-06 -2.14305e-06 0.000187559
0.000598729 5.19758e-05 2.64551e-07
5.19758e-05 2.98246e-05 -1.15569e-06
2.64551e-07 -1.15569e-06 -1.47514e-05
0.000664822 -0.000120918 3.59769e-06
-0.000120918 0.000113883 -2.353e-06
3.59769e-06 -2.353e-06 2.41426e-05
0.000416708 6.80954e-05 -3.84623e-06
6.80954e-05 -3.75507e-05 6.09445e-07
-3.84623e-06 6.09445e-07 -0.000130399
0.000664044 -4.58901e-05 -3.04133e-06
-4.58901e-05 0.000140298 4.54837e-06
-3.04133e-06 4.54837e-06 -1.0326e-05
0.000465619 -4.88707e-05 4.83557e-07
-4.88707e-05 -1.43488e-05 1.08256e-07
4.83557e-07 1.08256e-07 -0.000189418
-0.000530156 -3.07361e-05 -3.57576e-07
-3.07361e-05 -0.000573309 2.08547e-07
-3.57576e-07 2.08547e-07 -0.000828258
0.000550984 -0.00030859 -1.2408e-05
-0.00030859 -0.000131077 -3.87875e-06
-1.2408e-05 -3.87875e-06 -0.000391604
0.00304548 -0.000467203 -1.51799e-05
-0.000467203 0.00156946 3.43462e-06
-1.51799e-05 3.43462e-06 0.00113476
0.000628606 1.71799e-06 -7.54546e-07
1.71799e-06 6.92424e-05 -1.07848e-06
-7.54546e-07 -1.07848e-06 -2.42666e-05
0.000737327 7.68583e-05 6.02917e-07
7.68583e-05 0.000182673 -8.24061e-07
6.02917e-07 -8.24061e-07 2.03179e-05
0.00215185 0.000382234 -1.76842e-06
0.000382234 0.000248222 -1.19484e-06
-1.76842e-06 -1.19484e-06 0.000114709
0.000752047 0.00010723 -1.20509e-06
0.00010723 0.000169626 3.11926e-06
-1.20509e-06 3.11926e-06 -1.75641e-05
0.00221072 0.000414387 1.08241e-06
0.000414387 0.000875966 9.72208e-07
1.08241e-06 9.72208e-07 0.000616742
0.00034249 0.000173306 5.66183e-07
0.000173306 -0.000225086 4.27894e-07
5.66183e-07 4.27894e-07 -0.000375858
0.00213218 0.000487995 -2.66354e-06
0.000487995 0.000404629 -3.4154e-07
-2.66354e-06 -3.4154e-07 0.00016836
0.00199418 0.000479479 -3.01695e-06
0.000479479 0.00021939 5.52956e-06
-3.01695e-06 5.52956e-06 1.19224e-05
0.00172589 0.000443145 -8.41585e-07
0.000443145 0.000527762 4.1313e-07
-8.41585e-07 4.1313e-07 0.000208904
0.00146471 0.000492367 2.19998e-07
0.000492367 0.00017345 7.91916e-07
2.19998e-07 7.91916e-07 -0.000127685
0.000239705 2.30442e-05 -1.70465e-07
2.30442e-05 -0.000144609 1.12217e-06
-1.70465e-07 1.12217e-06 -0.000257051
0.00032412 0.00013136 -7.8066e-07
0.00013136 -2.69572e-05 -2.49691e-06
-7.8066e-07 -2.49691e-06 -0.000228897
0.00147755 0.000352961 4.15662e-06
0.000352961 0.00041646 -9.31549e-07
4.15662e-06 -9.31549e-07 0.000158511
0.000724418 0.00020093 -2.90442e-06
0.00020093 6.19173e-05 -2.76797e-06
-2.90442e-06 -2.76797e-06 -0.000124429
0.00208104 0.000366206 9.94909e-07
0.000366206 -8.16005e-06 -8.17633e-07
9.94909e-07 -8.17633e-07 -4.91404e-05
0.00228676 0.000465564 3.19338e-06
0.000465564 0.000339699 5.28053e-07
3.19338e-06 5.28053e-07 0.000170229
0.00191699 0.000529444 -7.2718e-07
0.000529444 0.000288979 4.3319e-07
-7.2718e-07 4.3319e-07 1.45275e-05
0.00129247 0.000444554 3.24532e-07
0.000444554 0.000169372 5.70028e-07
3.24532e-07 5.70028e-07 -0.000154119
0.000184648 4.42744e-05 -1.69734e-06
4.42744e-05 -0.000183261 3.35983e-06
-1.69734e-06 3.35983e-06 -0.000299315
0.00204874 0.000300596 2.96229e-06
0.000300596 -9.06087e-05 3.11231e-06
2.96229e-06 3.11231e-06 -6.80559e-05
0.00177004 0.000329996 3.71781e-06
0.000329996 0.000802842 5.97515e-06
3.71781e-06 5.97515e-06 0.000552653
0.00123062 0.000342853 6.22804e-06
0.000342853 0.000244731 2.18499e-06
6.22804e-06 2.18499e-06 -8.79002e-06
0.00241134 0.000457132 -1.78308e-05
0.000457132 0.000285698 -6.07373e-06
-1.78308e-05 -6.07373e-06 0.000173851
0.00099944 0.000487282 -7.4554e-06
0.000487282 -0.000334553 -8.71018e-06
-7.4554e-06 -8.71018e-06 -0.000590974
0.00204732 0.000548181 -2.8213e-06
0.000548181 0.000544467 2.80885e-06
-2.8213e-06 2.80885e-06 0.000198276
0.000697852 7.1784e-05 -1.29172e-06
7.1784e-05 0.000113898 -6.19224e-07
-1.29172e-06 -6.19224e-07 1.34014e-05
0.000664858 6.74244e-05 -2.17445e-06
6.74244e-05 0.000102268 -5.98186e-07
-2.17445e-06 -5.98186e-07 7.45615e-06
0.00108974 6.11466e-05 -2.96353e-06
6.11466e-05 0.000362799 -5.75738e-07
-2.96353e-06 -5.75738e-07 0.000282625
0.000574748 2.45468e-07 1.34091e-07
2.45468e-07 4.90627e-05 -2.65497e-06
1.34091e-07 -2.65497e-06 -4.40313e-05
0.000665145 6.37988e-05 1.0278e-06
6.37988e-05 0.000116679 -4.58088e-08
1.0278e-06 -4.58088e-08 -1.93489e-06
0.000247692 4.42085e-05 -1.52969e-06
4.42085e-05 -0.000124464 3.01231e-06
-1.52969e-06 3.01231e-06 -0.000230447
0.000599796 9.80301e-06 -8.44769e-07
9.80301e-06 7.26487e-05 2.88329e-08
-8.44769e-07 2.88329e-08 -2.69151e-05
0.00038729 -1.57752e-05 -6.35202e-07
-1.57752e-05 -4.18494e-05 3.90965e-07
-6.35202e-07 3.90965e-07 -0.000165709
0.0003818 2.53112e-05 3.4266e-07
2.53112e-05 -7.47591e-05 5.87365e-07
3.4266e-07 5.87365e-07 -0.0001538
0.000752403 6.33464e-05 8.38844e-07
6.33464e-05 0.000174413 -7.17702e-07
8.38844e-07 -7.17702e-07 4.75617e-05
0.00134712 7.7889e-05 1.30701e-07
7.7889e-05 0.000481729 -1.92158e-06
1.30701e-07 -1.92158e-06 0.000418947
0.000663978 2.03671e-06 4.92044e-06
2.03671e-06 9.32648e-05 -3.7563e-06
4.92044e-06 -3.7563e-06 2.58164e-06
0.000680419 6.15287e-05 1.3968e-07
6.15287e-05 0.000139017 1.64217e-06
1.3968e-07 1.64217e-06 -3.6772e-06
0.000597012 3.94258e-05 2.50184e-06
3.94258e-05 8.56953e-05 2.14149e-06
2.50184e-06 2.14149e-06 -5.03072e-05
0.000626382 2.76295e-05 1.94398e-06
2.76295e-05 8.25938e-05 2.44447e-06
1.94398e-06 2.44447e-06 -1.65844e-05
0.000530985 -4.05317e-05 -4.92188e-09
-4.05317e-05 9.44368e-06 2.51597e-06
-4.92188e-09 2.51597e-06 -5.47491e-05
0.00054686 -3.07099e-06 -4.18004e-07
-3.07099e-06 1.67686e-05 -1.02483e-07
-4.18004e-07 -1.02483e-07 -4.41763e-05
0.00128209 6.38982e-06 1.62138e-06
6.38982e-06 0.000435284 2.4386e-06
1.62138e-06 2.4386e-06 0.000421465
0.000547682 -2.12971e-05 6.86821e-07
-2.12971e-05 1.26086e-05 -2.79464e-06
6.86821e-07 -2.79464e-06 -4.46628e-05
0.0013011 -3.37694e-06 -3.58402e-06
-3.37694e-06 0.000442708 -1.6153e-06
-3.58402e-06 -1.6153e-06 0.000429857
0.000787443 -1.47401e-05 1.44462e-05
-1.47401e-05 0.000129599 8.52235e-06
1.44462e-05 8.52235e-06 0.000136408
0.00135829 -1.49502e-05 -6.29471e-06
-1.49502e-05 0.000474398 -5.95783e-06
-6.29471e-06 -5.95783e-06 0.000461594
0.000795177 -2.45847e-05 4.60533e-06
-2.45847e-05 0.000131075 3.30916e-06
4.60533e-06 3.30916e-06 0.000137044
0.000754663 -3.2678e-05 -5.4564e-07
-3.2678e-05 0.000106695 -2.3698e-06
-5.4564e-07 -2.3698e-06 0.000111709
0.000643047 8.23981e-06 1.46706e-06
8.23981e-06 5.3975e-05 -1.68674e-06
1.46706e-06 -1.68674e-06 1.20959e-05
0.000503678 2.8726e-05 4.29325e-07
2.8726e-05 -4.54247e-05 -3.42573e-06
4.29325e-07 -3.42573e-06 -5.77064e-05
0.00050992 4.02772e-05 2.78765e-07
4.02772e-05 -3.12892e-05 1.75478e-07
2.78765e-07 1.75478e-07 -4.87077e-05
0.00212767 7.53672e-05 1.66173e-05
7.53672e-05 0.000963504 -3.94049e-06
1.66173e-05 -3.94049e-06 0.000973426
0.000521142 6.31486e-05 4.50188e-06
6.31486e-05 -6.30933e-06 5.61699e-06
4.50188e-06 5.61699e-06 -3.53313e-05
0.0024139 9.97888e-05 -5.17741e-06
9.97888e-05 0.00114792 -4.61253e-07
-5.17741e-06 -4.61253e-07 0.00115163
0.00282519 0.000123885 -2.15407e-05
0.000123885 0.00140574 4.78441e-06
-2.15407e-05 4.78441e-06 0.00140268
0.00205869 0.000296618 -3.56869e-07
0.000296618 0.00011531 2.82486e-07
-3.56869e-07 2.82486e-07 2.6484e-05
0.00196785 0.000173458 -3.60701e-06
0.000173458 4.34125e-05 -8.54889e-07
-3.60701e-06 -8.54889e-07 8.86864e-06
0.00190976 5.26845e-05 -4.41939e-06
5.26845e-05 3.66257e-05 -5.15867e-07
-4.41939e-06 -5.15867e-07 1.40011e-05
0.00181741 -1.6514e-06 -4.01012e-06
-1.6514e-06 1.69321e-05 -1.07916e-07
-4.01012e-06 -1.07916e-07 -2.44814e-05
0.00188418 -5.76607e-06 -8.91688e-07
-5.76607e-06 1.85251e-05 1.42669e-08
-8.91688e-07 1.42669e-08 1.95557e-06
0.00200021 9.12135e-05 -1.43453e-10
9.12135e-05 2.24379e-06 6.44708e-08
-1.43453e-10 6.44708e-08 6.99013e-06
0.00208928 0.000260751 -8.29481e-07
0.000260751 3.83578e-05 -5.39347e-08
-8.29481e-07 -5.39347e-08 2.70323e-06
0.00197782 -6.76425e-06 8.22965e-07
-6.76425e-06 -1.14639e-05 -4.4202e-07
8.22965e-07 -4.4202e-07 2.41823e-06
0.0021422 0.000142396 3.6172e-06
0.000142396 -3.08564e-06 -1.72284e-07
3.6172e-06 -1.72284e-07 9.12066e-06
0.00233629 9.57099e-05 -4.36655e-07
9.57099e-05 0.000167227 9.00205e-06
-4.36655e-07 9.00205e-06 0.000224764
0.00189454 -7.54744e-05 -4.80712e-06
-7.54744e-05 2.33116e-05 3.52403e-07
-4.80712e-06 3.52403e-07 -3.18392e-06
0.00195365 -0.000196395 -3.18878e-06
-0.000196395 -5.91235e-06 7.1257e-07
-3.18878e-06 7.1257e-07 -2.54943e-05
0.00194715 -0.000309913 -3.1249e-06
-0.000309913 6.30243e-05 1.2112e-06
-3.1249e-06 1.2112e-06 4.01249e-06
0.000364115 -0.000271917 3.14208e-07
-0.000271917 -0.000279062 4.30598e-06
3.14208e-07 4.30598e-06 -0.000543565
0.00161459 -0.000536434 2.42061e-06
-0.000536434 0.000350373 -8.33321e-07
2.42061e-06 -8.33321e-07 -1.45037e-05
0.00202572 -0.000582732 -1.98109e-06
-0.000582732 0.000448778 -2.7254e-07
-1.98109e-06 -2.7254e-07 0.000122411
0.00190154 -0.000399362 -2.56078e-07
-0.000399362 4.11388e-05 2.05476e-06
-2.56078e-07 2.05476e-06 -6.57739e-05
0.00173306 -0.000472275 -6.43735e-06
-0.000472275 6.49881e-05 -4.98841e-06
-6.43735e-06 -4.98841e-06 -0.00012764
0.000577713 -0.00027827 -4.64288e-06
-0.00027827 -0.000125772 7.34443e-06
-4.64288e-06 7.34443e-06 -0.000376167
0.00210992 -0.000344624 1.51309e-05
-0.000344624 0.000964516 -3.28856e-06
1.51309e-05 -3.28856e-06 0.000660771
0.000817005 -4.07701e-05 1.24858e-06
-4.07701e-05 0.000206751 -1.23627e-07
1.24858e-06 -1.23627e-07 -8.64431e-06
0.000484738 1.60975e-05 7.7094e-07
1.60975e-05 -3.014e-05 -1.53197e-07
7.7094e-07 -1.53197e-07 -8.03805e-05
0.000814441 3.79899e-05 3.68069e-06
3.79899e-05 0.000210053 2.86621e-07
3.68069e-06 2.86621e-07 9.23588e-05
0.000779351 -7.37965e-05 1.66127e-06
-7.37965e-05 0.000207263 1.18962e-06
1.66127e-06 1.18962e-06 3.39658e-05
0.00197921 -9.88592e-05 4.0188e-07
-9.88592e-05 -2.94504e-06 6.04031e-08
4.0188e-07 6.04031e-08 4.70485e-06
0.000545808 1.77452e-05 1.1533e-06
1.77452e-05 -2.11789e-06 1.8276e-07
1.1533e-06 1.8276e-07 -4.59752e-05
0.000489136 -5.46897e-05 -1.824e-06
-5.46897e-05 -1.56732e-05 -1.06131e-07
-1.824e-06 -1.06131e-07 -9.07219e-05
0.00205127 -0.000259281 -2.05044e-07
-0.000259281 4.74405e-06 1.62248e-07
-2.05044e-07 1.62248e-07 1.30149e-05
0.00197946 -0.000345352 -1.36098e-06
-0.000345352 3.71643e-05 1.44315e-07
-1.36098e-06 1.44315e-07 -1.73213e-07
0.0013406 -0.0004355 -2.47118e-06
-0.0004355 0.00027265 4.50751e-07
-2.47118e-06 4.50751e-07 -6.54765e-05
0.00180747 -0.00060475 7.26696e-07
-0.00060475 0.00043718 1.04385e-06
7.26696e-07 1.04385e-06 2.95561e-05
0.00165685 -0.000578538 3.97028e-06
-0.000578538 0.000166631 -2.19132e-06
3.97028e-06 -2.19132e-06 -0.000143165
0.0021337 -0.000528105 2.48186e-06
-0.000528105 0.000163211 -7.50801e-07
2.48186e-06 -7.50801e-07 2.76421e-05
0.000717511 -4.67196e-06 5.32818e-07
-4.67196e-06 0.000150433 -1.37185e-06
5.32818e-07 -1.37185e-06 5.54298e-05
0.000693603 -3.01136e-05 7.69328e-08
-3.01136e-05 0.000160008 1.52485e-06
7.69328e-08 1.52485e-06 6.85478e-06
0.00129515 -0.000363842 -9.56747e-07
-0.000363842 0.000306345 -3.4937e-07
-9.56747e-07 -3.4937e-07 2.95654e-05
0.00176675 -0.000333945 1.72645e-05
-0.000333945 0.000806199 -3.96341e-06
1.72645e-05 -3.96341e-06 0.000440098
0.000372589 -6.06165e-05 -3.48541e-06
-6.06165e-05 -5.17588e-05 -9.43464e-07
-3.48541e-06 -9.43464e-07 -0.000291044
0.000619956 -3.71091e-05 8.65543e-07
-3.71091e-05 9.24105e-05 -8.7353e-07
8.65543e-07 -8.7353e-07 -9.23875e-05
0.00200957 -0.000115515 2.35643e-06
-0.000115515 -7.48592e-05 -5.9952e-07
2.35643e-06 -5.9952e-07 -6.01194e-05
0.00199825 -0.000321044 -1.23479e-07
-0.000321044 -0.000125582 1.08691e-06
-1.23479e-07 1.08691e-06 -1.94068e-05
0.00209064 -0.000469236 -4.39624e-06
-0.000469236 3.12592e-05 -9.57108e-07
-4.39624e-06 -9.57108e-07 -2.75412e-05
0.00156332 -0.000604147 2.91613e-06
-0.000604147 -4.65669e-05 -1.87069e-06
2.91613e-06 -1.87069e-06 -0.000223005
0.00121155 -0.000420652 -5.22617e-06
-0.000420652 0.00022095 -6.61037e-06
-5.22617e-06 -6.61037e-06 -0.000124385
0.00231493 -0.00070933 -1.01289e-05
-0.00070933 0.000677123 1.00554e-05
-1.01289e-05 1.00554e-05 0.000239539
0.000311794 5.09089e-05 -1.3196e-06
5.09089e-05 -0.000110566 -2.45005e-06
-1.3196e-06 -2.45005e-06 -0.000192721
0.000648176 -5.92731e-05 4.33725e-06
-5.92731e-05 7.80743e-05 -8.26748e-07
4.33725e-06 -8.26748e-07 4.67818e-06
0.000955231 -0.0001126 1.63981e-06
-0.0001126 0.000275711 3.19323e-06
1.63981e-06 3.19323e-06 0.000173691
0.000487219 2.10012e-05 -3.232e-06
2.10012e-05 1.97132e-05 7.52397e-06
-3.232e-06 7.52397e-06 -0.000114084
0.000782718 -7.38253e-05 -4.46161e-06
-7.38253e-05 0.000187623 6.44236e-06
-4.46161e-06 6.44236e-06 3.49186e-05
0.00136985 -5.04048e-05 2.87434e-06
-5.04048e-05 0.000482128 -4.64432e-07
2.87434e-06 -4.64432e-07 0.000290203
-0.000929271 -0.000131375 6.94621e-06
-0.000131375 -0.000564951 -1.45809e-06
6.94621e-06 -1.45809e-06 -0.00107125
-0.000290636 -0.000325952 -2.67827e-05
-0.000325952 -0.000635638 -2.75339e-07
-2.67827e-05 -2.75339e-07 -0.000897359
0.000367407 5.34933e-05 -1.54319e-07
5.34933e-05 -5.98467e-05 -5.56663e-07
-1.54319e-07 -5.56663e-07 -0.000182008
0.000980575 0.000180198 -7.04713e-06
0.000180198 0.0003648 -3.98682e-06
-7.04713e-06 -3.98682e-06 0.000158592
0.00217648 0.000357824 -4.88633e-06
0.000357824 5.13097e-05 -2.66794e-06
-4.88633e-06 -2.66794e-06 9.35764e-06
0.00205426 0.000459909 -1.65977e-06
0.000459909 0.000210847 7.51968e-07
-1.65977e-06 7.51968e-07 3.70086e-05
0.0018156 0.000266953 -7.39922e-06
0.000266953 0.00070246 -1.59623e-06
-7.39922e-06 -1.59623e-06 0.00051388
0.00219766 0.000429519 -5.1711e-06
0.000429519 0.000848333 -6.2872e-06
-5.1711e-06 -6.2872e-06 0.000577577
0.00194852 0.000524334 2.26021e-06
0.000524334 0.000300289 2.15063e-06
2.26021e-06 2.15063e-06 2.91656e-05
0.00178595 0.000493778 1.29052e-07
0.000493778 0.000440348 -9.46004e-07
1.29052e-07 -9.46004e-07 0.000112943
0.000495206 7.94094e-05 7.07276e-07
7.94094e-05 1.79306e-05 -9.58755e-07
7.07276e-07 -9.58755e-07 -0.00011399
0.002164 0.000285122 -1.59658e-06
0.000285122 -2.28592e-05 -1.17069e-06
-1.59658e-06 -1.17069e-06 4.33998e-06
0.00128964 0.00024886 1.32171e-06
0.00024886 0.000499066 1.37401e-06
1.32171e-06 1.37401e-06 0.000270226
0.00131333 0.000352496 1.40312e-06
0.000352496 0.000300972 -1.24908e-07
1.40312e-06 -1.24908e-07 4.03517e-05
0.00238178 0.000456543 2.18128e-06
0.000456543 0.000273972 5.16001e-07
2.18128e-06 5.16001e-07 0.000164513
0.00159666 0.000529315 -1.55125e-06
0.000529315 3.04169e-06 -4.31974e-06
-1.55125e-06 -4.31974e-06 -0.00025515
0.00188199 0.000528791 6.53481e-08
0.000528791 0.000459033 4.88194e-07
6.53481e-08 4.88194e-07 0.000115083
0.00114008 0.000191221 -4.3056e-06
0.000191221 0.000429723 3.90057e-06
-4.3056e-06 3.90057e-06 0.000248887
0.00258018 0.000343836 -5.72818e-05
0.000343836 0.000278684 -1.60205e-05
-5.72818e-05 -1.60205e-05 0.000321045
0.00202722 0.000422841 -5.57358e-06
0.000422841 0.000851242 1.61773e-06
-5.57358e-06 1.61773e-06 0.000589492
0.00175628 0.000455717 -5.68747e-06
0.000455717 0.000473478 -3.16425e-06
-5.68747e-06 -3.16425e-06 0.000165178
0.00249434 0.00060999 -3.03472e-05
0.00060999 0.000389559 -1.43717e-05
-3.03472e-05 -1.43717e-05 0.000197552
0.000826783 0.000454295 -2.21624e-05
0.000454295 -0.000188907 -2.8046e-06
-2.21624e-05 -2.8046e-06 -0.000507511
0.00119895 0.000494937 3.18122e-05
0.000494937 -0.000533943 -2.74315e-05
3.18122e-05 -2.74315e-05 -0.000718151
0.00034759 7.99648e-05 1.63736e-06
7.99648e-05 -7.46574e-05 -2.40472e-07
1.63736e-06 -2.40472e-07 -0.000174887
0.000593805 6.83194e-05 -2.76863e-07
6.83194e-05 8.62309e-05 1.03551e-06
-2.76863e-07 1.03551e-06 1.79015e-06
0.00157079 0.000108188 4.87512e-07
0.000108188 0.00064116 -1.23365e-06
4.87512e-07 -1.23365e-06 0.000557085
0.000529934 -6.42979e-05 5.47127e-07
-6.42979e-05 3.85796e-05 -3.21815e-06
5.47127e-07 -3.21815e-06 -6.50752e-05
0.000448892 -4.04205e-05 -1.34781e-06
-4.04205e-05 -9.00014e-06 -3.00447e-07
-1.34781e-06 -3.00447e-07 -0.000128911
0.000930724 0.000151128 -4.36616e-07
0.000151128 0.000284577 1.12569e-06
-4.36616e-07 1.12569e-06 0.00015032
0.000127739 7.87473e-06 -2.5091e-06
7.87473e-06 -0.000214419 7.05824e-06
-2.5091e-06 7.05824e-06 -0.000293465
0.000587947 -2.09219e-05 -3.79068e-07
-2.09219e-05 7.30385e-05 -2.4814e-08
-3.79068e-07 -2.4814e-08 -3.42575e-05
0.000576353 5.23555e-05 -5.19414e-08
5.23555e-05 5.67423e-05 -5.37668e-07
-5.19414e-08 -5.37668e-07 -6.68425e-05
0.00094544 6.60297e-05 -5.15639e-07
6.60297e-05 0.000243976 1.98777e-06
-5.15639e-07 1.98777e-06 0.000178915
0.000693576 4.00011e-05 1.29729e-06
4.00011e-05 0.000131496 3.63156e-07
1.29729e-06 3.63156e-07 -9.35533e-07
0.000693291 2.67128e-05 -1.28655e-06
2.67128e-05 0.000106952 -9.1042e-07
-1.28655e-06 -9.1042e-07 1.20535e-05
0.00112826 7.35673e-05 1.2964e-06
7.35673e-05 0.000367499 -6.26893e-06
1.2964e-06 -6.26893e-06 0.000299816
0.000902324 7.2876e-05 -2.26504e-06
7.2876e-05 0.000240951 -2.32703e-06
-2.26504e-06 -2.32703e-06 0.000100029
0.000820627 9.52979e-05 6.87804e-07
9.52979e-05 0.000200212 1.07401e-06
6.87804e-07 1.07401e-06 7.17974e-05
0.000676052 5.23035e-05 5.85726e-07
5.23035e-05 0.000133855 1.57034e-06
5.85726e-07 1.57034e-06 -1.14089e-05
0.000389942 -2.36701e-05 -1.32464e-07
-2.36701e-05 -6.38188e-05 2.81498e-06
-1.32464e-07 2.81498e-06 -0.000167885
0.000946377 -3.50647e-05 4.87921e-07
-3.50647e-05 0.00032556 -1.15157e-06
4.87921e-07 -1.15157e-06 0.000174561
0.000325172 -2.5619e-05 -1.1976e-06
-2.5619e-05 -9.97613e-05 2.61361e-06
-1.1976e-06 2.61361e-06 -0.00020777
0.000513367 3.28339e-06 -1.67711e-06
3.28339e-06 2.45549e-06 2.66097e-06
-1.67711e-06 2.66097e-06 -6.51729e-05
0.000534532 2.89902e-05 1.94376e-06
2.89902e-05 1.35824e-05 -8.70916e-08
1.94376e-06 -8.70916e-08 -5.24128e-05
0.00046675 1.84035e-05 1.41118e-06
1.84035e-05 -5.56629e-05 3.99001e-06
1.41118e-06 3.99001e-06 -7.46418e-05
0.000528258 3.75064e-06 -2.66126e-06
3.75064e-06 8.44392e-06 -2.69048e-06
-2.66126e-06 -2.69048e-06 -5.48067e-05
0.000914849 1.0183e-05 -2.66605e-06
1.0183e-05 0.000213059 -1.65495e-06
-2.66605e-06 -1.65495e-06 0.000196802
0.00248636 -1.20477e-05 1.07686e-05
-1.20477e-05 0.00116468 5.27852e-06
1.07686e-05 5.27852e-06 0.00117888
0.00137095 -8.27536e-07 -4.86824e-06
-8.27536e-07 0.000485764 -5.84166e-06
-4.86824e-06 -5.84166e-06 0.000472555
0.000787254 -1.54429e-05 3.04049e-06
-1.54429e-05 0.000126805 3.30588e-06
3.04049e-06 3.30588e-06 0.000133541
0.000776825 -2.35311e-05 1.66355e-08
-2.35311e-05 0.000117622 -2.35364e-06
1.66355e-08 -2.35364e-06 0.000123762
0.00055326 1.74068e-05 -1.06742e-06
1.74068e-05 2.69125e-06 -1.50394e-06
-1.06742e-06 -1.50394e-06 -3.84419e-05
0.000588618 -6.4431e-06 1.06686e-06
-6.4431e-06 2.16804e-05 -2.07018e-07
1.06686e-06 -2.07018e-07 -2.08487e-05
0.000542108 2.22683e-05 3.63032e-07
2.22683e-05 -2.45596e-05 -3.39082e-06
3.63032e-07 -3.39082e-06 -3.48472e-05
0.000835556 3.59453e-05 -2.7993e-07
3.59453e-05 0.000158924 6.51739e-08
-2.7993e-07 6.51739e-08 0.000147865
0.0021098 6.06134e-05 1.29674e-05
6.06134e-05 0.000945422 -4.18728e-06
1.29674e-05 -4.18728e-06 0.000958368
0.000519762 4.54718e-05 1.92968e-06
4.54718e-05 -2.29744e-05 3.87447e-06
1.92968e-06 3.87447e-06 -4.1778e-05
0.00223889 8.03639e-05 -2.91815e-06
8.03639e-05 0.00103264 -2.18496e-07
-2.91815e-06 -2.18496e-07 0.00104128
0.00249054 0.000103498 -1.60243e-05
0.000103498 0.00119502 4.34233e-06
-1.60243e-05 4.34233e-06 0.00119782
0.00203725 0.000263977 -3.33566e-06
0.000263977 5.05569e-06 -1.76063e-06
-3.33566e-06 -1.76063e-06 -2.7959e-05
0.0019785 8.60102e-05 -9.07956e-07
8.60102e-05 -4.05219e-06 2.50065e-07
-9.07956e-07 2.50065e-07 -1.46156e-06
0.00188128 -2.57143e-06 -4.30452e-06
-2.57143e-06 1.33559e-05 -1.23085e-07
-4.30452e-06 -1.23085e-07 4.19425e-07
0.00197203 -4.30141e-06 1.44339e-07
-4.30141e-06 -1.2323e-05 -2.09303e-07
1.44339e-07 -2.09303e-07 1.08503e-06
0.00212101 0.00014423 -1.5477e-07
0.00014423 -8.64902e-08 2.76056e-07
-1.5477e-07 2.76056e-07 1.08284e-05
0.00203757 7.87978e-05 6.81037e-06
7.87978e-05 -2.7221e-05 -3.4781e-06
6.81037e-06 -3.4781e-06 2.40886e-05
0.00213284 -1.14355e-06 -4.87412e-07
-1.14355e-06 -3.81602e-05 -9.48242e-07
-4.87412e-07 -9.48242e-07 4.36461e-06
0.00364394 0.000465454 3.9183e-05
0.000465454 -0.000343749 6.62421e-06
3.9183e-05 6.62421e-06 6.30567e-05
0.00235994 5.39983e-05 -3.08736e-05
5.39983e-05 0.000327578 2.35798e-05
-3.08736e-05 2.35798e-05 0.00045824
0.000537865 9.21684e-05 -1.00988e-06
9.21684e-05 3.24297e-05 8.82511e-08
-1.00988e-06 8.82511e-08 -4.71553e-05
0.0019934 -0.000100342 -1.28733e-06
-0.000100342 -1.3714e-06 -1.86911e-07
-1.28733e-06 -1.86911e-07 8.15628e-06
0.00203241 -0.000249436 2.52518e-07
-0.000249436 1.09446e-05 1.44384e-07
2.52518e-07 1.44384e-07 1.43807e-05
0.00194125 -0.0003433 -1.39691e-06
-0.0003433 1.28602e-05 1.82147e-06
-1.39691e-06 1.82147e-06 -2.20495e-05
0.000336617 -0.000333955 -5.61436e-06
-0.000333955 -0.000315294 6.6055e-06
-5.61436e-06 6.6055e-06 -0.000631807
0.0022582 -0.000649649 3.67998e-06
-0.000649649 0.000693136 6.13178e-06
3.67998e-06 6.13178e-06 0.00027742
0.00165783 -0.000583031 -7.02271e-07
-0.000583031 0.000146868 -8.94072e-06
-7.02271e-07 -8.94072e-06 -0.000160642
0.00225404 -0.000532633 -3.67239e-06
-0.000532633 0.00024394 -1.17219e-06
-3.67239e-06 -1.17219e-06 0.000106326
0.00206965 -0.000416303 1.91027e-05
-0.000416303 0.000735638 -6.45685e-06
1.91027e-05 -6.45685e-06 0.000452323
0.000359198 -0.000190502 1.46019e-05
-0.000190502 -2.94288e-05 -2.82506e-06
1.46019e-05 -2.82506e-06 -0.000330699
0.00124664 -9.78888e-05 2.61655e-06
-9.78888e-05 0.000452584 -7.81954e-07
2.61655e-06 -7.81954e-07 0.000229153
0.000552225 6.19826e-06 -1.92267e-07
6.19826e-06 2.76332e-06 1.39217e-06
-1.92267e-07 1.39217e-06 -4.04196e-05
0.000869935 -2.13791e-05 3.09915e-06
-2.13791e-05 0.0002546 -1.02431e-06
3.09915e-06 -1.02431e-06 6.09565e-05
0.000830344 -2.54726e-05 3.41729e-06
-2.54726e-05 0.000225977 -1.97936e-06
3.41729e-06 -1.97936e-06 0.000130489
0.000884012 -3.16451e-05 2.62844e-06
-3.16451e-05 0.000272145 -2.84125e-06
2.62844e-06 -2.84125e-06 0.00011635
0.000305862 -3.49477e-05 -3.14987e-06
-3.49477e-05 -0.000133682 1.23886e-06
-3.14987e-06 1.23886e-06 -0.00020547
0.00204286 -0.000130777 -2.79056e-07
-0.000130777 -8.05791e-05 1.79951e-07
-2.79056e-07 1.79951e-07 -4.80725e-05
0.000437568 3.4995e-05 -1.13641e-07
3.4995e-05 -2.67968e-05 -1.62807e-06
-1.13641e-07 -1.62807e-06 -0.000112666
0.000612155 -5.33575e-05 1.43875e-06
-5.33575e-05 7.13347e-05 6.48094e-07
1.43875e-06 6.48094e-07 -9.15576e-06
0.000808825 -8.44211e-05 1.07467e-06
-8.44211e-05 0.000183844 6.32635e-07
1.07467e-06 6.32635e-07 8.58735e-05
0.0020324 -0.00032646 1.4639e-06
-0.00032646 -8.629e-05 -4.39598e-07
1.4639e-06 -4.39598e-07 -5.31384e-06
0.00212082 -0.000472456 3.90289e-07
-0.000472456 5.18403e-05 -6.99555e-07
3.90289e-07 -6.99555e-07 -7.1275e-06
0.00103227 -0.000387016 7.85171e-06
-0.000387016 0.000120248 -3.72421e-07
7.85171e-06 -3.72421e-07 -0.00020962
0.00232305 -0.000712114 8.37194e-06
-0.000712114 0.000682429 -3.16426e-07
8.37194e-06 -3.16426e-07 0.000255453
0.00206337 -0.000640619 -1.82086e-06
-0.000640619 0.000252325 1.66075e-06
-1.82086e-06 1.66075e-06 5.85494e-05
0.000312869 -2.47248e-05 -4.74895e-07
-2.47248e-05 -8.35813e-05 -8.62114e-07
-4.74895e-07 -8.62114e-07 -0.000209359
0.000863604 -8.45239e-05 -1.79238e-06
-8.45239e-05 0.000247834 7.97398e-07
-1.79238e-06 7.97398e-07 8.11224e-05
0.00103626 -0.000454777 -7.14047e-06
-0.000454777 0.000135195 5.39588e-07
-7.14047e-06 5.39588e-07 -0.000181134
0.000467524 -0.000128753 2.42597e-07
-0.000128753 0.000129203 -2.84579e-06
2.42597e-07 -2.84579e-06 -0.000274878
0.000736261 -6.2051e-05 2.37191e-07
-6.2051e-05 0.000100953 1.12062e-06
2.37191e-07 1.12062e-06 -8.08292e-05
0.00244036 -0.000253565 -2.05672e-06
-0.000253565 0.000142861 2.06562e-07
-2.05672e-06 2.06562e-07 0.000177764
0.00185277 -0.000350047 -1.3677e-05
-0.000350047 -0.000203444 4.00866e-06
-1.3677e-05 4.00866e-06 -7.62007e-05
0.00225495 -0.000623486 -1.05714e-05
-0.000623486 0.000187832 4.73065e-08
-1.05714e-05 4.73065e-08 3.79972e-05
0.00310421 -0.000780747 -2.27801e-05
-0.000780747 0.000949861 -3.3387e-07
-2.27801e-05 -3.3387e-07 0.000686276
0.00112852 -0.000465102 -2.66635e-05
-0.000465102 0.000196819 -2.30274e-06
-2.66635e-05 -2.30274e-06 -0.000148102
0.000304024 -1.08624e-05 1.78417e-06
-1.08624e-05 -0.000105595 3.32106e-07
1.78417e-06 3.32106e-07 -0.000206033
0.000411598 1.86807e-05 8.06632e-07
1.86807e-05 -7.38258e-05 2.6744e-06
8.06632e-07 2.6744e-06 -0.000170588
3.34011e-05 -1.72675e-05 -3.46809e-07
-1.72675e-05 -0.000266805 -2.54491e-06
-3.46809e-07 -2.54491e-06 -0.000370916
0.00181418 -0.000218815 -7.74158e-06
-0.000218815 0.00084459 1.23582e-05
-7.74158e-06 1.23582e-05 0.000684736
0.000793647 -8.05743e-05 -4.37673e-06
-8.05743e-05 0.000175543 1.22774e-05
-4.37673e-06 1.22774e-05 2.37324e-05
-0.000733314 -8.9984e-05 1.20072e-06
-8.9984e-05 -0.000413048 4.92225e-06
1.20072e-06 4.92225e-06 -0.000879527
-0.000431391 -0.000522366 -2.20995e-06
-0.000522366 -0.00038872 -6.59907e-06
-2.20995e-06 -6.59907e-06 -0.000914851
0.000950518 0.000133656 -2.19519e-07
0.000133656 0.000305964 -4.81731e-06
-2.19519e-07 -4.81731e-06 0.000155338
0.000450605 0.000125613 -3.49023e-06
0.000125613 -2.34194e-05 -2.2426e-06
-3.49023e-06 -2.2426e-06 -0.000221067
0.0022674 0.000264601 7.18249e-06
0.000264601 3.02263e-05 2.56365e-07
7.18249e-06 2.56365e-07 6.94665e-05
0.00232232 0.000454346 1.58223e-05
0.000454346 0.000244332 4.45902e-06
1.58223e-05 4.45902e-06 0.000139592
0.00223441 0.000574048 1.56579e-05
0.000574048 0.000365217 4.34408e-06
1.56579e-05 4.34408e-06 0.000105032
0.00116904 0.000339247 -5.58646e-07
0.000339247 0.000219898 -3.73439e-07
-5.58646e-07 -3.73439e-07 -4.32859e-05
0.00160188 0.000497943 2.41978e-06
0.000497943 0.000307329 2.47264e-06
2.41978e-06 2.47264e-06 -3.16634e-05
0.0015911 0.000183208 8.77099e-08
0.000183208 0.000671635 -1.65439e-07
8.77099e-08 -1.65439e-07 0.000505306
0.00246868 0.000299579 -1.49471e-06
0.000299579 0.000248651 1.06555e-06
-1.49471e-06 1.06555e-06 0.000300287
0.00139166 0.000331431 -1.70075e-06
0.000331431 0.000454247 2.0687e-06
-1.70075e-06 2.0687e-06 0.000214462
0.0015248 0.000434358 1.3742e-06
0.000434358 0.000371253 7.35708e-07
1.3742e-06 7.35708e-07 5.52944e-05
0.00212881 0.000578216 -1.27796e-06
0.000578216 0.000183422 -2.98884e-06
-1.27796e-06 -2.98884e-06 1.22612e-05
0.00161385 0.000534126 -4.32552e-06
0.000534126 0.000259634 5.06622e-06
-4.32552e-06 5.06622e-06 -7.57021e-05
0.0026715 0.00065508 5.89846e-05
0.00065508 -9.72779e-05 4.96299e-06
5.89846e-05 4.96299e-06 -0.000358444
0.00128736 0.000258061 -6.07302e-06
0.000258061 0.000515777 6.8219e-07
-6.07302e-06 6.8219e-07 0.000318579
0.00391572 0.000561135 -7.92606e-05
0.000561135 0.0012024 -3.03881e-05
-7.92606e-05 -3.03881e-05 0.00113198
0.000976899 0.000328599 -2.90198e-06
0.000328599 9.61603e-05 -1.29087e-06
-2.90198e-06 -1.29087e-06 -0.000145246
1.19471e-05 0.000307072 -2.41065e-06
0.000307072 -0.000498914 -1.01745e-05
-2.41065e-06 -1.01745e-05 -0.000801566
0.000607168 0.000539665 -2.89586e-05
0.000539665 -0.000462242 -6.30141e-06
-2.89586e-05 -6.30141e-06 -0.000653239
0.0123286 0.000411275 -0.000302563
0.000411275 0.0023481 -5.66395e-05
-0.000302563 -5.66395e-05 0.00151941
0.00577022 0.0011262 8.56903e-05
0.0011262 0.000280662 -6.0664e-05
8.56903e-05 -6.0664e-05 0.000385997
-0.000318323 0.000747847 3.54185e-06
0.000747847 -0.00101689 3.85827e-06
3.54185e-06 3.85827e-06 -0.00135099
-0.00339068 -0.00117651 0.00073011
-0.00117651 -6.24897e-05 0.000141614
0.00073011 0.000141614 -0.00223027
0.013173 -0.00452406 -2.37632e-05
-0.00452406 0.00373738 4.02344e-05
-2.37632e-05 4.02344e-05 0.00408179
0.000240613 7.37332e-05 5.76605e-06
7.37332e-05 -0.000107965 1.31175e-06
5.76605e-06 1.31175e-06 -0.000195608
0.000986707 7.78201e-05 1.11957e-06
7.78201e-05 0.000322029 -1.71922e-06
1.11957e-06 -1.71922e-06 0.000240289
0.00155833 0.000178725 -1.38419e-06
0.000178725 0.000684575 -4.23488e-07
-1.38419e-06 -4.23488e-07 0.000574935
0.000563804 -6.1959e-05 -5.51057e-07
-6.1959e-05 6.73469e-05 -2.33304e-06
-5.51057e-07 -2.33304e-06 -4.51674e-05
0.000559214 6.10661e-05 -1.38153e-06
6.10661e-05 4.99299e-05 -2.05809e-06
-1.38153e-06 -2.05809e-06 -7.794e-05
0.000700321 -1.81391e-05 -2.80439e-07
-1.81391e-05 0.000136759 -7.97698e-07
-2.80439e-07 -7.97698e-07 3.82002e-06
0.000722706 4.9299e-05 -3.86351e-06
4.9299e-05 0.000119645 5.51996e-06
-3.86351e-06 5.51996e-06 2.08658e-05
0.000508418 4.96783e-05 2.22062e-07
4.96783e-05 -1.48913e-05 5.22472e-06
2.22062e-07 5.22472e-06 -8.15778e-05
0.000745958 9.71911e-05 -2.14525e-06
9.71911e-05 0.000173074 -5.13632e-07
-2.14525e-06 -5.13632e-07 2.97925e-05
0.000478922 -8.67957e-06 2.31406e-07
-8.67957e-06 -2.01273e-06 8.59303e-07
2.31406e-07 8.59303e-07 -0.000109733
0.00064715 2.38794e-05 -5.53415e-08
2.38794e-05 0.000112458 7.54967e-08
-5.53415e-08 7.54967e-08 -2.86391e-05
0.000612126 6.27051e-05 3.0428e-07
6.27051e-05 5.10124e-05 -7.74524e-07
3.0428e-07 -7.74524e-07 -1.75677e-05
0.0007942 7.58237e-05 -1.18952e-06
7.58237e-05 0.000178836 -1.34911e-07
-1.18952e-06 -1.34911e-07 4.22135e-05
0.00107042 0.000122134 -1.66045e-06
0.000122134 0.000358796 -1.11848e-06
-1.66045e-06 -1.11848e-06 0.000212188
0.00036027 7.45453e-05 1.09004e-06
7.45453e-05 -5.39035e-05 -3.71149e-06
1.09004e-06 -3.71149e-06 -0.000186728
0.000795164 9.18429e-05 2.52799e-06
9.18429e-05 0.000192849 7.99268e-07
2.52799e-06 7.99268e-07 5.6285e-05
0.000555401 -2.95008e-05 1.61245e-06
-2.95008e-05 4.2455e-05 3.09334e-07
1.61245e-06 3.09334e-07 -9.32498e-05
0.000393919 -6.17485e-05 -1.3252e-06
-6.17485e-05 -5.63665e-05 2.43827e-06
-1.3252e-06 2.43827e-06 -0.00016699
0.000729798 -1.0194e-05 -4.86023e-07
-1.0194e-05 0.000160767 7.82997e-08
-4.86023e-07 7.82997e-08 2.28943e-05
0.000924149 3.22512e-05 2.44144e-07
3.22512e-05 0.000283127 -5.08425e-06
2.44144e-07 -5.08425e-06 0.000147221
0.00060011 -3.32007e-05 -3.04512e-07
-3.32007e-05 9.81465e-05 -6.0354e-08
-3.04512e-07 -6.0354e-08 -3.43417e-05
0.00078541 -3.3766e-05 1.40662e-06
-3.3766e-05 0.000205296 -6.93354e-07
1.40662e-06 -6.93354e-07 6.90722e-05
0.000664099 -0.000101269 -2.37393e-06
-0.000101269 0.0001128 1.7782e-06
-2.37393e-06 1.7782e-06 3.72242e-06
0.000377015 -1.73071e-05 1.57226e-07
-1.73071e-05 -6.57345e-05 1.00505e-06
1.57226e-07 1.00505e-06 -0.000176164
0.000546016 -3.52717e-05 -1.96115e-06
-3.52717e-05 1.42068e-05 2.91714e-06
-1.96115e-06 2.91714e-06 -4.95818e-05
0.00054657 -2.74905e-05 1.45928e-06
-2.74905e-05 2.02785e-05 5.09171e-08
1.45928e-06 5.09171e-08 -4.6405e-05
0.000523504 5.29016e-06 1.13263e-06
5.29016e-06 -2.02732e-05 5.87803e-06
1.13263e-06 5.87803e-06 -3.976e-05
0.000556653 3.26263e-05 -1.42974e-06
3.26263e-05 2.29015e-05 -2.70308e-06
-1.42974e-06 -2.70308e-06 -4.04709e-05
0.00048699 1.38266e-05 4.06687e-07
1.38266e-05 -4.3236e-05 3.8054e-08
4.06687e-07 3.8054e-08 -6.22784e-05
0.0024346 -7.87638e-07 -3.21882e-07
-7.87638e-07 0.00113414 5.28976e-06
-3.21882e-07 5.28976e-06 0.00114838
0.000544862 1.53895e-05 -1.85919e-06
1.53895e-05 -1.15508e-05 -6.14662e-06
-1.85919e-06 -6.14662e-06 -3.05969e-05
0.00164896 -9.29751e-06 -2.65354e-07
-9.29751e-06 0.000653596 9.88247e-08
-2.65354e-07 9.88247e-08 0.000663605
0.000779877 -1.4121e-05 3.66676e-07
-1.4121e-05 0.000119503 -2.2056e-06
3.66676e-07 -2.2056e-06 0.000126529
0.00055097 -1.47876e-05 7.69081e-07
-1.47876e-05 3.19521e-06 -1.20232e-06
7.69081e-07 -1.20232e-06 -3.58792e-05
0.000592325 -2.94169e-05 3.52897e-07
-2.94169e-05 2.77314e-05 -5.21844e-08
3.52897e-07 -5.21844e-08 -1.48498e-05
0.00055637 1.37036e-05 6.70983e-07
1.37036e-05 -1.80195e-05 -3.05559e-06
6.70983e-07 -3.05559e-06 -2.63755e-05
0.000555679 -2.39683e-05 -1.5834e-06
-2.39683e-05 3.84718e-07 1.35068e-06
-1.5834e-06 1.35068e-06 -4.1665e-05
0.000821559 2.63955e-05 -4.73055e-08
2.63955e-05 0.000146107 -7.36278e-07
-4.73055e-08 -7.36278e-07 0.000137843
0.00201706 4.50434e-05 9.42453e-06
4.50434e-05 0.000883913 -4.30367e-06
9.42453e-06 -4.30367e-06 0.000899583
0.000526749 3.16348e-05 -3.34146e-07
3.16348e-05 -2.87659e-05 3.38355e-06
-3.34146e-07 3.38355e-06 -4.20161e-05
0.00214886 6.30912e-05 -6.79507e-06
6.30912e-05 0.000971661 1.11512e-06
-6.79507e-06 1.11512e-06 0.000983936
0.00229234 8.42496e-05 -1.23751e-05
8.42496e-05 0.00106635 4.23682e-06
-1.23751e-05 4.23682e-06 0.00107406
0.0020935 0.000146733 -2.6674e-06
0.000146733 -1.42173e-07 -9.92441e-07
-2.6674e-06 -9.92441e-07 9.74535e-06
0.00196822 -3.22404e-06 -6.41355e-07
-3.22404e-06 -1.21926e-05 7.4968e-08
-6.41355e-07 7.4968e-08 5.8744e-07
0.00177353 6.09524e-05 5.37997e-06
6.09524e-05 -0.00020628 1.34886e-06
5.37997e-06 1.34886e-06 -0.000160195
0.00233511 0.00033194 5.4644e-05
0.00033194 -0.000831567 1.20853e-05
5.4644e-05 1.20853e-05 -0.000534204
0.00209593 -1.97228e-05 -1.87142e-06
-1.97228e-05 -4.48924e-05 -1.49344e-06
-1.87142e-06 -1.49344e-06 -1.64177e-06
0.00198819 6.02868e-05 2.69165e-06
6.02868e-05 0.000116329 -6.19515e-06
2.69165e-06 -6.19515e-06 0.000214641
0.00310253 -2.43662e-05 -2.92844e-05
-2.43662e-05 0.000844148 3.79659e-06
-2.92844e-05 3.79659e-06 0.00083182
0.00218877 -1.35476e-05 1.70983e-05
-1.35476e-05 -0.00170903 -3.15493e-05
1.70983e-05 -3.15493e-05 -0.00121087
0.00249077 0.000130948 6.38366e-05
0.000130948 -0.000378027 3.72666e-05
6.38366e-05 3.72666e-05 -7.73866e-05
0.000593563 7.62715e-05 2.38054e-07
7.62715e-05 6.87054e-05 -2.08596e-07
2.38054e-07 -2.08596e-07 -1.33593e-05
0.000609566 -7.59071e-06 4.90367e-07
-7.59071e-06 8.20576e-05 -1.71465e-07
4.90367e-07 -1.71465e-07 -3.35803e-06
0.000539152 -9.87622e-05 -1.82154e-06
-9.87622e-05 4.25893e-05 1.28432e-06
-1.82154e-06 1.28432e-06 -5.74176e-05
0.00053527 -4.44483e-05 -1.52466e-06
-4.44483e-05 6.08993e-05 1.09763e-06
-1.52466e-06 1.09763e-06 -4.75475e-05
0.00209005 -0.000145265 -4.44536e-06
-0.000145265 -7.46827e-05 -2.10593e-07
-4.44536e-06 -2.10593e-07 -2.66748e-05
0.00205945 -0.000326322 6.51447e-07
-0.000326322 -4.67466e-05 -8.55224e-07
6.51447e-07 -8.55224e-07 1.26728e-05
0.00213695 -0.000471261 -2.45388e-06
-0.000471261 6.64574e-05 1.62232e-06
-2.45388e-06 1.62232e-06 8.44458e-06
0.00259567 -0.000559858 1.33524e-05
-0.000559858 0.00100417 1.49634e-06
1.33524e-05 1.49634e-06 0.000654085
0.000940028 -0.000578672 1.1203e-05
-0.000578672 -7.86036e-05 -3.23614e-06
1.1203e-05 -3.23614e-06 -0.0004803
0.00241584 -0.000663473 6.41471e-06
-0.000663473 0.000467548 -3.21814e-06
6.41471e-06 -3.21814e-06 0.000261546
0.00152601 -0.000500708 -2.76147e-06
-0.000500708 0.00042627 3.07458e-06
-2.76147e-06 3.07458e-06 7.14872e-05
0.00235947 -0.000160592 2.27318e-06
-0.000160592 0.00111392 1.21638e-06
2.27318e-06 1.21638e-06 0.000809936
3.96806e-05 -4.95273e-05 6.17767e-07
-4.95273e-05 -0.00032704 -8.72036e-07
6.17767e-07 -8.72036e-07 -0.000492561
0.000667393 -4.86281e-05 1.16007e-10
-4.86281e-05 0.000107909 9.3557e-07
1.16007e-10 9.3557e-07 2.76517e-05
0.000669336 -0.000103865 1.93074e-06
-0.000103865 0.00014363 -5.94589e-06
1.93074e-06 -5.94589e-06 -3.15435e-05
0.000766286 1.31155e-06 1.82397e-06
1.31155e-06 0.00019913 -3.95822e-06
1.82397e-06 -3.95822e-06 6.84459e-05
0.000627401 3.83343e-06 8.49356e-08
3.83343e-06 9.67685e-05 -1.24062e-07
8.49356e-08 -1.24062e-07 6.75343e-06
0.000532334 -2.25287e-05 -5.75793e-06
-2.25287e-05 1.11904e-05 3.17126e-06
-5.75793e-06 3.17126e-06 -7.9704e-05
0.00239782 -0.000236329 1.55192e-06
-0.000236329 0.000124503 1.00078e-06
1.55192e-06 1.00078e-06 0.000175582
0.000597184 -2.06289e-05 7.66765e-07
-2.06289e-05 8.64959e-05 2.05152e-07
7.66765e-07 2.05152e-07 -2.51918e-05
0.000772328 -1.16906e-05 3.68653e-06
-1.16906e-05 0.000160445 -6.73402e-07
3.68653e-06 -6.73402e-07 5.36321e-05
8.85812e-05 6.56099e-06 7.70216e-07
6.56099e-06 -0.000231002 1.02315e-06
7.70216e-07 1.02315e-06 -0.000314115
0.0018174 -0.000353936 -2.42058e-07
-0.000353936 -0.000250862 -1.44161e-06
-2.42058e-07 -1.44161e-06 -0.000129079
0.00209241 -0.000604416 1.89446e-06
-0.000604416 0.000108844 -8.51017e-07
1.89446e-06 -8.51017e-07 -3.1607e-05
0.00172203 -0.00056277 -1.58236e-06
-0.00056277 0.000519698 3.48918e-07
-1.58236e-06 3.48918e-07 0.000161586
0.00218975 -0.000707229 -6.08756e-06
-0.000707229 0.000452274 1.65658e-06
-6.08756e-06 1.65658e-06 0.000195254
0.00117097 -9.20596e-05 -1.10354e-06
-9.20596e-05 0.000427075 1.17336e-06
-1.10354e-06 1.17336e-06 0.000283219
0.000443299 -6.46945e-05 1.89508e-06
-6.46945e-05 -4.18132e-05 8.86499e-07
1.89508e-06 8.86499e-07 -0.0001965
0.0013703 -0.000648986 4.35002e-06
-0.000648986 0.000624702 -1.19122e-06
4.35002e-06 -1.19122e-06 8.22216e-05
0.00117288 -0.000251595 -1.26124e-06
-0.000251595 0.000515944 -6.18762e-07
-1.26124e-06 -6.18762e-07 0.000138376
0.00263112 -0.000308153 -2.59373e-05
-0.000308153 0.000152561 1.27535e-06
-2.59373e-05 1.27535e-06 0.000328299
0.00243749 -0.000495872 -3.55569e-05
-0.000495872 0.000205107 9.24861e-06
-3.55569e-05 9.24861e-06 0.000237676
0.00253267 -0.000744029 -9.40977e-06
-0.000744029 0.000471675 -3.14603e-06
-9.40977e-06 -3.14603e-06 0.000230118
0.00194725 -0.000634152 -1.39637e-05
-0.000634152 0.00050234 6.36575e-07
-1.39637e-05 6.36575e-07 0.000257072
0.0004173 -3.37381e-05 -6.5959e-07
-3.37381e-05 -1.2162e-06 -2.49615e-06
-6.5959e-07 -2.49615e-06 -0.000124407
0.000299846 -7.82538e-05 -2.29676e-06
-7.82538e-05 -9.29903e-05 -7.79278e-06
-2.29676e-06 -7.79278e-06 -0.000232622
0.000214828 -0.000139106 -4.83023e-06
-0.000139106 1.2679e-05 1.98977e-05
-4.83023e-06 1.98977e-05 -0.000218913
-0.000596279 -0.000362447 -5.64528e-06
-0.000362447 -0.000128947 -1.68142e-05
-5.64528e-06 -1.68142e-05 -0.000811539
0.00146507 -0.000486763 3.40202e-05
-0.000486763 -0.00391643 -9.10602e-07
3.40202e-05 -9.10602e-07 -0.00403746
0.00175591 0.000171059 2.84196e-07
0.000171059 0.000755487 -4.20803e-06
2.84196e-07 -4.20803e-06 0.00059675
0.000766675 0.000254437 6.97328e-07
0.000254437 7.85134e-05 1.68984e-06
6.97328e-07 1.68984e-06 -0.000148889
0.00211648 0.000264478 6.14519e-05
0.000264478 6.22707e-05 1.45327e-05
6.14519e-05 1.45327e-05 0.000123876
0.00194978 0.000558363 2.24146e-05
0.000558363 7.7859e-05 7.73227e-06
2.24146e-05 7.73227e-06 -7.61708e-05
0.00209675 0.000584353 1.11391e-05
0.000584353 0.000547619 1.06974e-05
1.11391e-05 1.06974e-05 0.000198068
0.00136095 0.000420443 6.73319e-06
0.000420443 0.000299471 5.79071e-06
6.73319e-06 5.79071e-06 -2.39398e-05
0.00355782 0.000780538 9.33771e-05
0.000780538 4.29616e-05 3.90509e-05
9.33771e-05 3.90509e-05 -0.000341921
0.00127914 0.000228575 4.64876e-06
0.000228575 0.000506563 6.3733e-07
4.64876e-06 6.3733e-07 0.000317007
0.0025367 0.000476837 -7.33549e-06
0.000476837 0.000409703 -3.80203e-07
-7.33549e-06 -3.80203e-07 0.000374389
0.00110692 0.000342281 -3.49152e-07
0.000342281 0.000199312 1.32807e-06
-3.49152e-07 1.32807e-06 -4.73055e-05
0.00124882 0.00045331 1.48559e-06
0.00045331 0.000200458 -3.77149e-06
1.48559e-06 -3.77149e-06 -0.000125818
0.00145759 0.000604947 -7.06384e-06
0.000604947 -1.5971e-05 -4.42125e-07
-7.06384e-06 -4.42125e-07 -0.000222848
0.00325332 -0.000446949 -0.000151229
-0.000446949 -0.00339799 -4.5809e-05
-0.000151229 -4.5809e-05 -0.0044378
0.00676442 0.00101388 -4.87037e-05
0.00101388 0.000609733 -5.89689e-05
-4.87037e-05 -5.89689e-05 0.000468425
0.00105369 0.000743069 -8.74259e-06
0.000743069 -0.000208183 7.06918e-06
-8.74259e-06 7.06918e-06 -0.000595884
-0.00159087 -0.00096522 0.000291155
-0.00096522 0.0016787 0.000124453
0.000291155 0.000124453 -0.000471017
0.00488999 -0.00449415 -0.000246111
-0.00449415 0.001306 -0.000244741
-0.000246111 -0.000244741 0.00172489
0.00150488 0.00026566 -1.08204e-05
0.00026566 0.000604596 -8.41972e-07
-1.08204e-05 -8.41972e-07 0.000423426
0.000562342 0.000505913 0.000382825
0.000505913 0.00274784 2.60663e-05
0.000382825 2.60663e-05 0.00125655
0.00128975 -0.0013317 -0.000152189
-0.0013317 0.00359428 -0.000207997
-0.000152189 -0.000207997 0.000412451
0.00273847 0.000757983 -4.07496e-05
0.000757983 0.000520802 -9.59039e-06
-4.07496e-05 -9.59039e-06 0.000473692
0.000675165 0.000211345 -1.89153e-05
0.000211345 -3.83889e-05 -6.36321e-06
-1.89153e-05 -6.36321e-06 -0.000252791
0.000499406 0.00047348 -3.04524e-05
0.00047348 -0.000177673 -2.12006e-05
-3.04524e-05 -2.12006e-05 -0.000472451
0.000192662 0.00074531 3.82823e-05
0.00074531 -0.000697789 8.26598e-05
3.82823e-05 8.26598e-05 -0.000921759
0.0130091 0.00138459 1.90626e-06
0.00138459 0.00295136 -5.39399e-05
1.90626e-06 -5.39399e-05 0.00144247
0.00236503 0.00136719 2.23703e-06
0.00136719 8.14324e-05 -1.33064e-05
2.23703e-06 -1.33064e-05 -0.000751382
0.00645229 -0.00394187 0.000597624
-0.00394187 0.00109666 0.000372712
0.000597624 0.000372712 0.000326898
0.00864754 -0.00192517 -4.78221e-05
-0.00192517 0.000797137 0.000376709
-4.78221e-05 0.000376709 0.00073105
0.000563298 6.28845e-05 4.84013e-06
6.28845e-05 9.3613e-05 -2.23356e-06
4.84013e-06 -2.23356e-06 1.18709e-05
0.000606978 0.000114861 6.48464e-06
0.000114861 0.000117954 4.9829e-07
6.48464e-06 4.9829e-07 1.37979e-05
0.00148015 0.000211702 1.00357e-06
0.000211702 0.000651178 -2.70941e-06
1.00357e-06 -2.70941e-06 0.000510261
0.000602545 8.17846e-06 8.47832e-07
8.17846e-06 9.33815e-05 -6.13415e-07
8.47832e-07 -6.13415e-07 -2.69483e-05
0.000718646 4.63306e-05 -7.32582e-07
4.63306e-05 0.000153919 -1.92583e-06
-7.32582e-07 -1.92583e-06 1.53434e-05
0.000368994 7.44104e-06 -1.67176e-06
7.44104e-06 -6.72905e-05 -1.52244e-07
-1.67176e-06 -1.52244e-07 -0.000196753
0.000684382 7.95692e-05 -4.93375e-06
7.95692e-05 0.000117674 1.1268e-06
-4.93375e-06 1.1268e-06 -1.52926e-05
0.000136343 5.24936e-05 -3.19628e-06
5.24936e-05 -0.000243375 3.15948e-07
-3.19628e-06 3.15948e-07 -0.000312587
0.000399798 -8.8243e-06 1.6773e-07
-8.8243e-06 -4.70448e-05 8.53612e-07
1.6773e-07 8.53612e-07 -0.00016087
0.000870145 6.63429e-05 1.18175e-06
6.63429e-05 0.000240088 5.18273e-07
1.18175e-06 5.18273e-07 9.75548e-05
0.000747203 4.098e-05 7.15447e-07
4.098e-05 0.000169269 4.80551e-07
7.15447e-07 4.80551e-07 2.90646e-05
0.000694303 1.89942e-05 1.01298e-06
1.89942e-05 0.000143009 -3.65584e-07
1.01298e-06 -3.65584e-07 -3.81722e-06
0.000508569 8.0872e-05 -3.45183e-07
8.0872e-05 3.71739e-05 -1.53639e-06
-3.45183e-07 -1.53639e-06 -9.36321e-05
0.00110621 8.84148e-05 -1.36622e-06
8.84148e-05 0.000396227 -2.74223e-06
-1.36622e-06 -2.74223e-06 0.000255449
-0.000118141 3.49937e-05 -3.16635e-06
3.49937e-05 -0.000287828 -4.57806e-06
-3.16635e-06 -4.57806e-06 -0.00042411
0.000777949 -9.02955e-05 -1.27595e-07
-9.02955e-05 0.000184329 -2.89287e-07
-1.27595e-07 -2.89287e-07 4.15734e-05
0.000761544 -6.54442e-05 -4.31528e-07
-6.54442e-05 0.00019317 -1.24739e-07
-4.31528e-07 -1.24739e-07 4.45897e-05
0.00075885 -3.20378e-05 -2.30145e-07
-3.20378e-05 0.000190485 -3.37908e-07
-2.30145e-07 -3.37908e-07 4.35581e-05
0.000815322 -4.64083e-06 -1.72423e-06
-4.64083e-06 0.000206762 -1.41732e-07
-1.72423e-06 -1.41732e-07 8.07887e-05
0.000744673 3.05738e-05 -3.53897e-06
3.05738e-05 0.000190663 -2.76767e-06
-3.53897e-06 -2.76767e-06 3.10569e-05
0.000670177 -2.50459e-06 1.94744e-06
-2.50459e-06 0.000128207 -3.34086e-06
1.94744e-06 -3.34086e-06 2.67691e-06
-2.36587e-05 -2.74698e-05 -4.60052e-07
-2.74698e-05 -0.000303077 -3.74766e-06
-4.60052e-07 -3.74766e-06 -0.000411348
0.000580359 -2.23449e-05 9.73361e-07
-2.23449e-05 4.45927e-05 -3.79204e-07
9.73361e-07 -3.79204e-07 -7.86538e-05
0.000601126 -6.83926e-05 1.36543e-06
-6.83926e-05 7.27142e-05 1.00759e-06
1.36543e-06 1.00759e-06 -4.43659e-05
0.000694177 -6.41746e-05 -5.95271e-07
-6.41746e-05 0.000147689 -1.45078e-07
-5.95271e-07 -1.45078e-07 1.7237e-05
0.000602949 -6.72801e-05 -1.94772e-06
-6.72801e-05 6.10585e-05 1.47717e-06
-1.94772e-06 1.47717e-06 -3.51719e-05
0.000575818 -5.02723e-05 1.51944e-06
-5.02723e-05 5.52513e-05 -6.59976e-08
1.51944e-06 -6.59976e-08 -6.59303e-05
0.00055367 -9.17662e-05 1.33616e-07
-9.17662e-05 4.29443e-05 2.34492e-07
1.33616e-07 2.34492e-07 -6.52261e-05
0.000587707 -3.44496e-05 -2.24585e-06
-3.44496e-05 3.73216e-05 3.1956e-06
-2.24585e-06 3.1956e-06 -2.73159e-05
0.000448251 -5.86832e-06 1.26996e-06
-5.86832e-06 -1.07849e-05 -8.38097e-07
1.26996e-06 -8.38097e-07 -0.000129996
0.000544524 1.1253e-06 1.62906e-06
1.1253e-06 1.94961e-05 2.95325e-08
1.62906e-06 2.95325e-08 -4.76433e-05
0.00141012 -2.32593e-06 -4.44265e-06
-2.32593e-06 0.000515086 5.93978e-06
-4.44265e-06 5.93978e-06 0.000499841
0.000541857 4.80974e-05 -1.00836e-06
4.80974e-05 1.78936e-05 -2.74617e-06
-1.00836e-06 -2.74617e-06 -4.86157e-05
0.000917927 -3.36098e-06 -2.44372e-06
-3.36098e-06 0.000219329 7.73254e-07
-2.44372e-06 7.73254e-07 0.000202167
0.000800323 2.75104e-06 -4.05446e-06
2.75104e-06 0.000140129 4.9341e-06
-4.05446e-06 4.9341e-06 0.000146322
0.000488852 -2.58292e-06 1.1956e-06
-2.58292e-06 -4.18119e-05 -4.15793e-06
1.1956e-06 -4.15793e-06 -6.09031e-05
0.0024518 6.09307e-07 5.13755e-06
6.09307e-07 0.00114469 -1.03066e-08
5.13755e-06 -1.03066e-08 0.00115889
0.000861521 -1.70325e-06 -4.80949e-06
-1.70325e-06 0.000174891 -5.13793e-06
-4.80949e-06 -5.13793e-06 0.000180947
0.00054567 6.34675e-05 2.36442e-06
6.34675e-05 4.46686e-05 4.73885e-07
2.36442e-06 4.73885e-07 -4.40862e-05
0.000527493 3.7923e-05 -1.75501e-06
3.7923e-05 -3.88482e-06 -1.71892e-06
-1.75501e-06 -1.71892e-06 -4.56062e-05
0.000544162 -6.17999e-06 1.18992e-06
-6.17999e-06 3.88879e-06 2.17229e-08
1.18992e-06 2.17229e-08 -3.83274e-05
0.000550311 8.35494e-06 6.27887e-07
8.35494e-06 -2.16898e-05 -2.97251e-06
6.27887e-07 -2.97251e-06 -2.93775e-05
0.000585227 -4.42371e-05 -1.66352e-06
-4.42371e-05 2.6238e-05 1.47655e-06
-1.66352e-06 1.47655e-06 -1.85508e-05
0.000523796 1.38995e-05 3.93285e-08
1.38995e-05 -3.85197e-05 -7.56966e-07
3.93285e-08 -7.56966e-07 -4.65532e-05
0.00200093 3.06305e-05 6.40175e-06
3.06305e-05 0.00087039 -4.45489e-06
6.40175e-06 -4.45489e-06 0.000887749
0.00111692 3.34496e-05 -5.8714e-07
3.34496e-05 0.000327247 1.80816e-06
-5.8714e-07 1.80816e-06 0.00032026
0.00146553 3.89287e-05 -3.07971e-08
3.89287e-05 0.000547037 1.39008e-06
-3.07971e-08 1.39008e-06 0.000558535
0.00088095 4.2338e-05 -1.16931e-05
4.2338e-05 0.000195047 7.23864e-06
-1.16931e-05 7.23864e-06 0.000200491
0.00128921 0.000223502 8.45312e-05
0.000223502 -0.00125147 1.59636e-05
8.45312e-05 1.59636e-05 -0.000989581
0.00205385 -3.46811e-05 5.46817e-07
-3.46811e-05 -4.75469e-05 2.57152e-06
5.46817e-07 2.57152e-06 -9.65416e-06
0.00196052 7.21391e-05 3.75646e-05
7.21391e-05 0.00011783 -1.40678e-05
3.75646e-05 -1.40678e-05 0.000207504
0.00188528 0.000205068 -3.16995e-05
0.000205068 -0.00141932 -2.18591e-05
-3.16995e-05 -2.18591e-05 -0.00069407
0.0019517 8.23456e-05 2.57904e-05
8.23456e-05 -0.000521747 -1.11995e-06
2.57904e-05 -1.11995e-06 -0.000279655
0.00240474 -2.83403e-05 2.02427e-06
-2.83403e-05 0.000364871 -5.48892e-06
2.02427e-06 -5.48892e-06 0.000365053
0.00381205 -0.000159264 -5.37624e-05
-0.000159264 0.000909727 -6.65125e-06
-5.37624e-05 -6.65125e-06 0.000881691
0.00284567 -8.96938e-05 4.59725e-05
-8.96938e-05 0.000175784 1.58218e-05
4.59725e-05 1.58218e-05 0.000226401
0.011929 -0.000645421 7.33893e-06
-0.000645421 0.00248883 4.02685e-05
7.33893e-06 4.02685e-05 0.000933619
0.0126212 0.00303409 0.000735285
0.00303409 0.00524335 -0.00030781
0.000735285 -0.00030781 0.00431651
0.00920612 0.00341421 -2.48612e-05
0.00341421 0.00661506 1.24525e-05
-2.48612e-05 1.24525e-05 0.0059646
0.000370554 -9.4583e-05 1.2916e-06
-9.4583e-05 -5.24379e-05 -2.17947e-07
1.2916e-06 -2.17947e-07 -0.000152781
0.000603086 -1.13924e-05 1.30262e-06
-1.13924e-05 7.66129e-05 -1.50257e-07
1.30262e-06 -1.50257e-07 -7.22584e-06
0.000677001 -8.53493e-05 -1.48254e-06
-8.53493e-05 0.000130165 1.13526e-06
-1.48254e-06 1.13526e-06 3.79701e-05
0.000593873 -4.63745e-05 -2.67634e-08
-4.63745e-05 7.66168e-05 3.92761e-07
-2.67634e-08 3.92761e-07 -2.5033e-05
0.000622751 6.20463e-05 -2.13952e-06
6.20463e-05 0.000118207 2.09353e-06
-2.13952e-06 2.09353e-06 -1.39668e-06
0.000494739 0.000117544 1.79475e-06
0.000117544 4.88778e-06 5.35229e-06
1.79475e-06 5.35229e-06 -0.000106804
0.000911173 -1.59287e-05 3.37218e-06
-1.59287e-05 0.000287088 1.5104e-06
3.37218e-06 1.5104e-06 0.000168376
0.000521878 -2.47437e-05 -1.39867e-06
-2.47437e-05 3.69445e-05 1.10972e-06
-1.39867e-06 1.10972e-06 -6.5637e-05
0.00234525 -0.000223665 5.12096e-06
-0.000223665 8.95723e-05 1.18774e-07
5.12096e-06 1.18774e-07 0.000161607
0.00182822 -0.00036893 1.15294e-05
-0.00036893 -0.000282929 -4.18723e-06
1.15294e-05 -4.18723e-06 -0.000169214
0.00182095 -0.000578054 6.36789e-06
-0.000578054 -3.20035e-05 1.577e-06
6.36789e-06 1.577e-06 -0.000163838
0.00158094 -0.000554215 2.17859e-05
-0.000554215 0.000428809 -2.2458e-07
2.17859e-05 -2.2458e-07 7.26382e-05
0.00183809 -0.00068789 4.88305e-06
-0.00068789 0.000261222 4.72574e-06
4.88305e-06 4.72574e-06 6.04703e-06
0.00307027 -0.000764706 1.44352e-05
-0.000764706 0.00157521 1.45859e-06
1.44352e-05 1.45859e-06 0.00101257
0.00281282 -0.000396783 2.83272e-06
-0.000396783 0.00133731 -2.89475e-06
2.83272e-06 -2.89475e-06 0.00101529
0.000638023 -0.000138165 8.10218e-06
-0.000138165 9.1753e-05 -1.09153e-05
8.10218e-06 -1.09153e-05 -8.88653e-05
0.000575702 -4.31346e-05 -5.8536e-07
-4.31346e-05 4.22718e-05 3.52071e-06
-5.8536e-07 3.52071e-06 -5.69005e-05
0.000719403 -7.40516e-05 5.0477e-06
-7.40516e-05 0.000132874 -1.51256e-05
5.0477e-06 -1.51256e-05 3.11944e-06
0.000931156 -2.77725e-05 2.05091e-06
-2.77725e-05 0.000292119 -2.20804e-07
2.05091e-06 -2.20804e-07 0.000175723
0.000629794 6.20638e-05 1.83595e-06
6.20638e-05 0.000100531 1.80873e-06
1.83595e-06 1.80873e-06 3.06692e-05
0.00210921 -0.000288517 -1.37356e-06
-0.000288517 -7.10748e-05 2.73496e-06
-1.37356e-06 2.73496e-06 9.04066e-05
0.000582271 -4.84993e-06 -1.82674e-06
-4.84993e-06 9.89319e-05 -7.40899e-07
-1.82674e-06 -7.40899e-07 -2.52994e-05
0.000925226 -0.000125115 -4.25057e-06
-0.000125115 0.000276812 4.31614e-06
-4.25057e-06 4.31614e-06 0.00014731
0.00170562 -0.000464873 3.82404e-06
-0.000464873 -0.000203899 -1.80914e-06
3.82404e-06 -1.80914e-06 -0.000157548
0.00165893 -0.000653015 5.74061e-07
-0.000653015 -3.10683e-06 -5.95216e-07
5.74061e-07 -5.95216e-07 -0.00020033
0.000902687 -0.000534203 -6.67404e-07
-0.000534203 -7.55414e-05 -1.58015e-06
-6.67404e-07 -1.58015e-06 -0.00031697
0.00131796 -0.000216808 5.62823e-07
-0.000216808 0.000617205 -9.83927e-06
5.62823e-07 -9.83927e-06 0.000362724
0.00128551 -0.000423398 -2.29965e-06
-0.000423398 0.000846152 2.33102e-06
-2.29965e-06 2.33102e-06 0.000249126
0.00313041 -0.000451261 -3.69485e-05
-0.000451261 0.000402964 8.11738e-06
-3.69485e-05 8.11738e-06 0.000493677
0.00329208 -0.000696571 -4.29583e-05
-0.000696571 0.000843815 1.13899e-05
-4.29583e-05 1.13899e-05 0.000767284
0.00213163 -0.000755991 -1.06611e-05
-0.000755991 0.000336004 7.92073e-07
-1.06611e-05 7.92073e-07 0.000133195
8.24548e-05 -0.000370215 -1.64371e-05
-0.000370215 -0.000320855 1.44118e-05
-1.64371e-05 1.44118e-05 -0.000518742
0.000651192 -0.000145745 1.87732e-06
-0.000145745 0.000146833 4.20951e-06
1.87732e-06 4.20951e-06 -1.32409e-05
0.000502822 -0.000132296 3.53885e-06
-0.000132296 0.000100733 1.65493e-06
3.53885e-06 1.65493e-06 -8.26809e-05
0.00139451 -0.000152452 -2.13643e-06
-0.000152452 0.000884975 -8.00746e-06
-2.13643e-06 -8.00746e-06 0.000409405
-0.0060301 -0.000187813 0.000346708
-0.000187813 -0.00448004 2.01316e-06
0.000346708 2.01316e-06 -0.00317517
0.0106586 -0.000195518 3.08193e-05
-0.000195518 0.00231253 2.26606e-06
3.08193e-05 2.26606e-06 0.00184233
0.00150399 0.000197322 7.45562e-06
0.000197322 0.000617538 -5.697e-06
7.45562e-06 -5.697e-06 0.000447168
0.00120561 0.000352374 -6.82191e-07
0.000352374 0.000285391 1.88422e-06
-6.82191e-07 1.88422e-06 3.37151e-05
0.00128258 0.000373474 5.80125e-05
0.000373474 -0.000287096 2.82518e-05
5.80125e-05 2.82518e-05 -0.000288226
0.0026432 0.000704014 2.18037e-05
0.000704014 0.000607035 6.90486e-06
2.18037e-05 6.90486e-06 0.000379913
0.00265245 0.00061643 1.55063e-05
0.00061643 0.000982302 4.08012e-06
1.55063e-05 4.08012e-06 0.000632787
0.0127442 0.000704968 6.80237e-05
0.000704968 0.00305203 2.02114e-05
6.80237e-05 2.02114e-05 0.0019595
0.00792585 0.00140743 -0.000184463
0.00140743 0.000495237 8.5963e-06
-0.000184463 8.5963e-06 0.000430301
0.00188765 0.000736402 2.8572e-06
0.000736402 0.000317958 -2.47094e-05
2.8572e-06 -2.47094e-05 -0.000142522
0.0113999 -0.00232818 -0.000233193
-0.00232818 0.00499394 -4.90894e-06
-0.000233193 -4.90894e-06 0.00365507
-0.00465624 -0.00457681 -0.00126866
-0.00457681 -0.00132021 -0.000921556
-0.00126866 -0.000921556 -0.00117433
0.000986519 0.000246114 7.32946e-08
0.000246114 0.000322785 1.04872e-07
7.32946e-08 1.04872e-07 0.000134229
-0.00254268 -0.00132016 0.000241035
-0.00132016 -0.00263404 4.19699e-05
0.000241035 4.19699e-05 -0.00338517
-0.00338676 -0.000955114 -0.000265294
-0.000955114 0.00277362 -0.000130597
-0.000265294 -0.000130597 -0.000740366
0.00300352 0.000700357 -1.52281e-05
0.000700357 0.000656617 -9.19308e-07
-1.52281e-05 -9.19308e-07 0.000625968
0.00100712 0.000306353 -5.16648e-06
0.000306353 0.000181487 2.96644e-06
-5.16648e-06 2.96644e-06 -6.53231e-05
0.00150129 0.000599571 5.89185e-06
0.000599571 0.000363559 2.34326e-06
5.89185e-06 2.34326e-06 4.26923e-05
0.00135768 0.000691718 2.89584e-05
0.000691718 9.31691e-05 2.063e-05
2.89584e-05 2.063e-05 -1.37565e-05
0.0119899 0.00118936 -9.81322e-05
0.00118936 0.00168745 -5.1476e-05
-9.81322e-05 -5.1476e-05 -0.000246078
0.00562627 0.00199314 -6.97617e-05
0.00199314 0.000886853 -4.10974e-05
-6.97617e-05 -4.10974e-05 0.000415448
0.0142494 -0.00289083 0.000254083
-0.00289083 0.0059443 -3.31943e-05
0.000254083 -3.31943e-05 0.0049
0.00893984 -0.00249094 0.000191476
-0.00249094 -1.53789e-05 0.000474674
0.000191476 0.000474674 4.85902e-05
0.00201823 0.000268556 -1.80962e-05
0.000268556 0.000930368 -1.1069e-05
-1.80962e-05 -1.1069e-05 0.000768002
-0.00864226 0.000667233 -0.000105585
0.000667233 0.00185656 -9.40914e-05
-0.000105585 -9.40914e-05 -0.00240919
0.00397841 0.000523947 -0.000248279
0.000523947 0.00259086 -0.000322037
-0.000248279 -0.000322037 -0.00120883
0.00200437 0.000584295 -2.34118e-05
0.000584295 0.000363398 8.31739e-06
-2.34118e-05 8.31739e-06 0.000372066
0.00201037 0.000539421 -6.17174e-05
0.000539421 0.000812763 -2.24965e-05
-6.17174e-05 -2.24965e-05 0.000546269
0.00194775 0.000557792 -6.17664e-05
0.000557792 0.00123449 -9.46524e-06
-6.17664e-05 -9.46524e-06 0.000702947
0.00038847 0.00124414 -6.26979e-05
0.00124414 -0.000243985 -2.62145e-05
-6.26979e-05 -2.62145e-05 -0.000437633
-0.000443989 0.00145532 0.000234706
0.00145532 -0.00125078 0.000130988
0.000234706 0.000130988 -0.00426663
0.0132527 -0.00345938 0.000198038
-0.00345938 0.00550186 0.000440126
0.000198038 0.000440126 0.00390154
0.00665915 -0.00117885 -8.58792e-05
-0.00117885 -0.00206384 -8.88938e-05
-8.58792e-05 -8.88938e-05 -0.000870924
-6.2929e-05 0.000107591 2.43949e-06
0.000107591 -0.000259991 -4.02472e-06
2.43949e-06 -4.02472e-06 -0.000378172
0.00128627 0.000194222 8.0816e-06
0.000194222 0.000522308 3.74819e-06
8.0816e-06 3.74819e-06 0.000385372
-0.000110911 7.93434e-05 4.00611e-06
7.93434e-05 -0.000240088 -9.86402e-06
4.00611e-06 -9.86402e-06 -0.000384341
0.000394171 4.90496e-05 1.69016e-06
4.90496e-05 -5.03298e-05 -6.74799e-07
1.69016e-06 -6.74799e-07 -0.000163868
0.00077523 5.49483e-05 -5.41654e-07
5.49483e-05 0.000198654 -1.42754e-06
-5.41654e-07 -1.42754e-06 4.79198e-05
0.000701936 -6.16747e-06 -1.12413e-06
-6.16747e-06 0.000144651 1.53982e-06
-1.12413e-06 1.53982e-06 1.62151e-06
0.000711218 2.30749e-05 4.37004e-06
2.30749e-05 0.000154201 -5.10139e-07
4.37004e-06 -5.10139e-07 8.54931e-06
0.000476167 6.88758e-05 -1.86049e-06
6.88758e-05 2.23962e-05 2.05303e-06
-1.86049e-06 2.05303e-06 -0.000103783
0.00074748 4.55464e-05 1.16809e-07
4.55464e-05 0.000185394 -8.67365e-07
1.16809e-07 -8.67365e-07 3.68438e-05
0.000813812 6.25782e-05 4.53647e-07
6.25782e-05 0.000214011 1.54762e-07
4.53647e-07 1.54762e-07 7.84823e-05
0.000787401 -5.22456e-05 -8.48073e-07
-5.22456e-05 0.000190566 1.15523e-06
-8.48073e-07 1.15523e-06 4.67058e-05
-0.000272177 2.88455e-05 8.76167e-07
2.88455e-05 -0.000353976 8.08485e-07
8.76167e-07 8.08485e-07 -0.000499361
-0.000937257 1.79007e-05 -9.47726e-07
1.79007e-05 -0.00052012 1.73477e-06
-9.47726e-07 1.73477e-06 -0.000783695
0.000910989 -7.50099e-06 -4.16953e-06
-7.50099e-06 0.000289491 -6.12825e-06
-4.16953e-06 -6.12825e-06 0.000154429
0.000908233 -2.20308e-06 1.69614e-07
-2.20308e-06 0.000287256 -4.61826e-07
1.69614e-07 -4.61826e-07 0.000121835
0.00078165 -6.19995e-05 -6.10529e-07
-6.19995e-05 0.00020995 -9.90772e-07
-6.10529e-07 -9.90772e-07 5.8218e-05
0.000793725 -5.51497e-05 8.16609e-07
-5.51497e-05 0.000186309 3.02877e-06
8.16609e-07 3.02877e-06 6.60707e-05
0.000773207 -5.08861e-05 7.86793e-07
-5.08861e-05 0.000196044 -8.60241e-07
7.86793e-07 -8.60241e-07 4.39508e-05
0.000741672 -1.53767e-05 -1.04947e-06
-1.53767e-05 0.000163655 -2.19064e-07
-1.04947e-06 -2.19064e-07 3.99479e-05
0.000252546 -5.82337e-05 8.12342e-07
-5.82337e-05 -0.000124586 1.88777e-06
8.12342e-07 1.88777e-06 -0.000233338
0.000421026 -1.04426e-05 1.73986e-06
-1.04426e-05 -2.92622e-05 9.88272e-07
1.73986e-06 9.88272e-07 -0.000153166
0.000301426 -3.54163e-06 -3.78704e-06
-3.54163e-06 -7.57637e-05 -4.11195e-06
-3.78704e-06 -4.11195e-06 -0.000212754
0.000227358 -5.30298e-05 2.31088e-06
-5.30298e-05 -0.000118798 -2.52393e-06
2.31088e-06 -2.52393e-06 -0.000228389
0.000836161 -6.33108e-05 4.4027e-06
-6.33108e-05 0.000150939 -9.9608e-06
4.4027e-06 -9.9608e-06 5.3021e-05
-0.000190502 -3.50754e-05 -2.56359e-07
-3.50754e-05 -0.000458887 1.89084e-06
-2.56359e-07 1.89084e-06 -0.000603771
0.000189154 -2.01032e-05 -2.66481e-06
-2.01032e-05 -0.000178983 -1.49907e-06
-2.66481e-06 -1.49907e-06 -0.000303835
0.000743243 -3.52429e-05 4.04497e-07
-3.52429e-05 0.000138621 7.64259e-08
4.04497e-07 7.64259e-08 1.32039e-05
0.000537523 -3.17306e-05 1.80657e-07
-3.17306e-05 2.57129e-05 8.4324e-07
1.80657e-07 8.4324e-07 -9.09827e-05
0.000707415 -5.72653e-05 1.66792e-07
-5.72653e-05 0.000152395 6.2088e-08
1.66792e-07 6.2088e-08 2.40389e-05
0.000511039 -9.01183e-06 1.91172e-07
-9.01183e-06 1.2728e-05 1.53754e-06
1.91172e-07 1.53754e-06 -8.78178e-05
0.000801224 -4.89616e-05 -1.10999e-06
-4.89616e-05 0.000208814 -2.59693e-07
-1.10999e-06 -2.59693e-07 8.01831e-05
0.000641216 -6.05411e-05 -7.23701e-07
-6.05411e-05 9.50984e-05 7.84835e-08
-7.23701e-07 7.84835e-08 -8.25565e-06
0.00050068 3.76393e-05 -6.50498e-07
3.76393e-05 -1.64822e-05 2.95665e-06
-6.50498e-07 2.95665e-06 -8.27101e-05
0.000475736 -8.14441e-05 1.82654e-06
-8.14441e-05 -1.00167e-05 -1.20162e-06
1.82654e-06 -1.20162e-06 -0.000115642
0.00055959 -1.79698e-05 -4.35318e-07
-1.79698e-05 1.86512e-05 5.26045e-08
-4.35318e-07 5.26045e-08 -4.46191e-05
0.00140821 1.03096e-05 -5.88552e-06
1.03096e-05 0.00051073 6.27552e-06
-5.88552e-06 6.27552e-06 0.000494423
0.000549015 -4.10363e-05 1.38464e-06
-4.10363e-05 1.8953e-05 -2.688e-06
1.38464e-06 -2.688e-06 -4.60847e-05
0.000914697 -3.04228e-06 -3.32132e-06
-3.04228e-06 0.00021364 7.02451e-07
-3.32132e-06 7.02451e-07 0.000196369
0.000759102 1.41386e-05 5.02207e-07
1.41386e-05 0.000109848 2.10848e-06
5.02207e-07 2.10848e-06 0.000115878
0.000492756 -6.80588e-06 1.26896e-06
-6.80588e-06 -4.09108e-05 -4.11692e-06
1.26896e-06 -4.11692e-06 -5.96836e-05
0.00245918 1.38861e-05 5.38616e-06
1.38861e-05 0.00114924 5.84533e-08
5.38616e-06 5.84533e-08 0.00116335
0.00245168 1.98147e-06 -5.5871e-07
1.98147e-06 0.00114464 -5.16553e-06
-5.5871e-07 -5.16553e-06 0.00115884
0.000993021 7.33639e-05 -6.56525e-07
7.33639e-05 0.000312001 -1.50666e-07
-6.56525e-07 -1.50666e-07 0.000223396
0.000554157 4.71136e-05 -1.37675e-06
4.71136e-05 1.6263e-05 -2.07656e-06
-1.37675e-06 -2.07656e-06 -2.89776e-05
0.000598356 -1.22116e-05 4.42148e-07
-1.22116e-05 7.73428e-05 8.48735e-07
4.42148e-07 8.48735e-07 -1.11903e-05
0.000548009 4.30876e-06 6.39827e-07
4.30876e-06 -2.32125e-05 -3.221e-06
6.39827e-07 -3.221e-06 -3.07398e-05
0.000539874 -1.567e-05 2.77252e-07
-1.567e-05 4.0862e-06 -4.43288e-08
2.77252e-07 -4.43288e-08 -3.79168e-05
0.000577745 -4.44944e-05 -1.44371e-06
-4.44944e-05 2.57907e-05 1.20485e-06
-1.44371e-06 1.20485e-06 -1.77362e-05
0.000534941 7.61321e-06 -3.20902e-07
7.61321e-06 -3.12133e-05 -2.37011e-08
-3.20902e-07 -2.37011e-08 -3.88151e-05
0.00198906 1.72981e-05 1.67867e-06
1.72981e-05 0.000860733 -4.59813e-06
1.67867e-06 -4.59813e-06 0.000879059
0.00111072 2.17655e-05 -6.9976e-07
2.17655e-05 0.000320723 1.78962e-06
-6.9976e-07 1.78962e-06 0.000315823
0.00135825 2.56606e-05 5.74081e-08
2.56606e-05 0.000476563 -9.40025e-09
5.74081e-08 -9.40025e-09 0.000490628
0.000833532 3.04554e-05 -1.14295e-05
3.04554e-05 0.000160473 6.99959e-06
-1.14295e-05 6.99959e-06 0.000169133
-0.00929898 0.000698135 0.000295282
0.000698135 -0.00381469 -3.68117e-06
0.000295282 -3.68117e-06 -0.00540293
-0.00239323 -9.32336e-05 0.000500677
-9.32336e-05 0.00361586 -0.000101456
0.000500677 -0.000101456 0.00108247
0.00408692 0.000255863 -0.000215655
0.000255863 -0.000499742 -2.02528e-05
-0.000215655 -2.02528e-05 0.000392299
0.000650281 4.54176e-05 2.50441e-05
4.54176e-05 -0.00116778 -2.63278e-05
2.50441e-05 -2.63278e-05 -0.000966417
0.00150017 -4.33945e-05 1.53972e-05
-4.33945e-05 -0.000244258 6.22596e-06
1.53972e-05 6.22596e-06 -0.000242457
-0.000583296 5.06052e-05 -4.50326e-05
5.06052e-05 -0.00101043 -1.37352e-05
-4.50326e-05 -1.37352e-05 -0.000640889
0.00313062 -0.000201766 -1.64583e-06
-0.000201766 0.000382466 5.02528e-06
-1.64583e-06 5.02528e-06 0.000380265
0.0103031 4.28108e-05 0.00010308
4.28108e-05 0.000586878 -3.96102e-05
0.00010308 -3.96102e-05 -0.000451285
-0.00216139 0.00191643 -8.0998e-06
0.00191643 -0.000223871 -3.34002e-05
-8.0998e-06 -3.34002e-05 -0.00236938
0.00278067 0.00381112 -0.000260409
0.00381112 0.00289977 0.000139017
-0.000260409 0.000139017 0.00278261
0.00205497 -0.000400505 7.07347e-05
-0.000400505 -0.00109453 -2.17033e-05
7.07347e-05 -2.17033e-05 -0.000720082
0.0140391 -0.00101192 0.000150106
-0.00101192 0.002843 -4.10933e-05
0.000150106 -4.10933e-05 0.00118993
0.00740534 0.00368729 0.000247023
0.00368729 0.00152012 -0.000395026
0.000247023 -0.000395026 0.0009858
0.0111952 0.00249613 -0.000281921
0.00249613 0.00237916 0.00019202
-0.000281921 0.00019202 0.0016317
0.000806593 0.000117349 -2.45674e-06
0.000117349 0.000233963 2.58377e-06
-2.45674e-06 2.58377e-06 9.19843e-05
0.000434456 2.44222e-05 -6.99528e-09
2.44222e-05 -2.16038e-05 -8.75422e-07
-6.99528e-09 -8.75422e-07 -0.000116756
0.000624622 -9.26732e-05 -5.16871e-07
-9.26732e-05 9.60183e-05 6.02686e-07
-5.16871e-07 6.02686e-07 7.392e-06
0.000554351 -5.58902e-06 2.23053e-06
-5.58902e-06 6.02903e-05 -9.30001e-07
2.23053e-06 -9.30001e-07 -4.57649e-05
0.0006034 5.90573e-05 1.32518e-06
5.90573e-05 0.000110626 1.39358e-06
1.32518e-06 1.39358e-06 -9.96445e-06
0.000668747 3.6928e-05 7.099e-07
3.6928e-05 0.000148943 5.13042e-06
7.099e-07 5.13042e-06 7.28461e-06
0.00075817 9.38803e-05 1.29689e-06
9.38803e-05 0.000181733 2.18253e-06
1.29689e-06 2.18253e-06 5.82568e-05
0.000553771 3.55197e-05 4.57154e-06
3.55197e-05 4.3037e-05 9.57305e-07
4.57154e-06 9.57305e-07 -8.07072e-05
0.000720836 -3.16358e-05 1.96509e-06
-3.16358e-05 0.000171739 -9.90006e-07
1.96509e-06 -9.90006e-07 5.14792e-05
0.000507457 -8.40548e-06 6.23593e-08
-8.40548e-06 1.51847e-05 -1.12442e-06
6.23593e-08 -1.12442e-06 -8.16527e-05
0.00169646 -0.000265155 2.16476e-05
-0.000265155 -0.000219969 -3.02589e-06
2.16476e-05 -3.02589e-06 -8.38364e-05
0.00104643 -0.000426693 3.13622e-05
-0.000426693 -0.000560515 -7.4791e-06
3.13622e-05 -7.4791e-06 -0.000499012
0.000531761 -0.000536333 1.43743e-05
-0.000536333 -0.000615234 3.43858e-07
1.43743e-05 3.43858e-07 -0.000757262
-7.17254e-05 -0.000445385 7.84058e-06
-0.000445385 -0.000601887 1.17813e-06
7.84058e-06 1.17813e-06 -0.00083461
0.00301154 -0.000476687 6.27233e-06
-0.000476687 0.00174257 1.76895e-05
6.27233e-06 1.76895e-05 0.00122495
0.000649885 -0.000290838 6.95352e-06
-0.000290838 0.000215136 -4.20998e-06
6.95352e-06 -4.20998e-06 -8.18875e-05
0.00133609 -0.000153911 5.53729e-07
-0.000153911 0.000506398 -9.88831e-07
5.53729e-07 -9.88831e-07 0.000390305
0.000776017 -1.88623e-05 -2.42673e-06
-1.88623e-05 0.000213995 2.31225e-06
-2.42673e-06 2.31225e-06 9.05719e-05
0.00225573 -0.00038406 9.59535e-06
-0.00038406 8.90518e-06 -5.40452e-06
9.59535e-06 -5.40452e-06 0.000120672
0.000554076 -6.46959e-05 -1.4779e-07
-6.46959e-05 9.05188e-05 -5.5911e-08
-1.4779e-07 -5.5911e-08 -7.61893e-05
8.61321e-05 -0.000118294 1.12214e-06
-0.000118294 -0.000139574 -2.7023e-06
1.12214e-06 -2.7023e-06 -0.000323896
0.00197718 -0.000599488 1.01901e-05
-0.000599488 0.000132413 -1.71208e-06
1.01901e-05 -1.71208e-06 8.78413e-05
0.00172349 -0.000733064 4.52447e-07
-0.000733064 5.77265e-05 3.93298e-06
4.52447e-07 3.93298e-06 -0.00010157
0.000209327 -0.000434126 1.13977e-05
-0.000434126 -0.000244936 -7.55392e-06
1.13977e-05 -7.55392e-06 -0.000480542
0.00136095 -0.000216621 -7.89856e-07
-0.000216621 0.00084838 -8.36043e-06
-7.89856e-07 -8.36043e-06 0.000386793
0.00219151 -0.000584152 -5.11042e-05
-0.000584152 0.000416331 1.14485e-05
-5.11042e-05 1.14485e-05 0.000104532
0.00168818 -0.000583614 -4.41476e-05
-0.000583614 0.000215758 1.13897e-05
-4.41476e-05 1.13897e-05 0.000137942
0.00100266 -0.000399555 -5.59424e-05
-0.000399555 0.000437857 3.57045e-05
-5.59424e-05 3.57045e-05 0.000121026
-0.0014082 -9.30735e-05 -1.80475e-07
-9.30735e-05 -0.00106526 5.31772e-06
-1.80475e-07 5.31772e-06 -0.0012349
-4.19491e-05 -0.000106461 4.16503e-06
-0.000106461 -0.000219327 4.93052e-06
4.16503e-06 4.93052e-06 -0.000418076
0.000805758 -7.01821e-05 5.69291e-06
-7.01821e-05 0.000374535 2.50355e-06
5.69291e-06 2.50355e-06 7.8192e-05
-0.000995102 0.000620294 -0.000236779
0.000620294 0.00529506 1.21868e-05
-0.000236779 1.21868e-05 0.0023206
0.00131217 -0.000784907 7.92776e-06
-0.000784907 0.00161476 2.47229e-05
7.92776e-06 2.47229e-05 0.00153084
0.00145797 0.000931178 -7.64773e-05
0.000931178 -0.00394031 -1.7791e-05
-7.64773e-05 -1.7791e-05 -0.00424834
0.000227921 0.000178111 6.08438e-06
0.000178111 -0.00011526 6.36514e-07
6.08438e-06 6.36514e-07 -0.000294817
0.00131027 0.000400386 9.09125e-06
0.000400386 0.000383187 1.48674e-05
9.09125e-06 1.48674e-05 0.000104169
0.00349965 0.000638061 4.58332e-05
0.000638061 0.000941611 1.35276e-05
4.58332e-05 1.35276e-05 0.00090749
0.00188195 0.000658409 1.97728e-05
0.000658409 0.000576142 1.7973e-05
1.97728e-05 1.7973e-05 0.000233453
0.00918378 -0.00150112 0.00010968
-0.00150112 0.00309804 4.19629e-05
0.00010968 4.19629e-05 0.00319334
0.00357448 0.000459057 -0.000242299
0.000459057 -0.00274485 -1.61204e-05
-0.000242299 -1.61204e-05 -0.00468476
0.0037683 0.00182581 -3.48001e-05
0.00182581 -0.000189799 1.30683e-06
-3.48001e-05 1.30683e-06 -0.000488664
0.00190845 0.000550809 3.65572e-05
0.000550809 0.000622984 -2.76266e-05
3.65572e-05 -2.76266e-05 0.000574125
-0.00187218 -0.00184271 -0.000234901
-0.00184271 0.000137447 -0.000228614
-0.000234901 -0.000228614 -0.00124206
-0.000843733 -0.00157688 -0.00026314
-0.00157688 0.00288937 -8.40586e-05
-0.00026314 -8.40586e-05 -0.000665512
0.0144202 -0.00314186 0.000370292
-0.00314186 0.00289115 0.00024147
0.000370292 0.00024147 0.00306882
0.000656198 0.000179932 1.07103e-05
0.000179932 0.000148631 -3.10629e-06
1.07103e-05 -3.10629e-06 -1.60648e-05
-0.00320165 0.000253473 -0.000128232
0.000253473 0.00344575 -2.92563e-05
-0.000128232 -2.92563e-05 -0.000127964
0.00432927 0.000614032 -3.99587e-05
0.000614032 0.00240309 -0.000117341
-3.99587e-05 -0.000117341 -0.00163761
0.00143768 0.000554153 -2.98104e-06
0.000554153 0.000127037 4.87054e-06
-2.98104e-06 4.87054e-06 9.20121e-05
0.000404694 0.000380353 7.92872e-06
0.000380353 7.72242e-06 3.33605e-06
7.92872e-06 3.33605e-06 -0.000272821
-0.000138386 0.000516118 -7.11785e-06
0.000516118 -2.62389e-05 -4.71019e-05
-7.11785e-06 -4.71019e-05 -0.000415996
0.00406155 0.00194029 -4.30507e-06
0.00194029 0.00134796 8.57727e-06
-4.30507e-06 8.57727e-06 0.000923995
0.014967 0.0018735 7.86013e-05
0.0018735 0.00464911 2.52074e-05
7.86013e-05 2.52074e-05 0.00253775
0.00562479 -0.00221599 5.34971e-05
-0.00221599 0.000812128 -6.01499e-05
5.34971e-05 -6.01499e-05 -0.00112127
0.0118953 -0.00171961 -3.15854e-06
-0.00171961 0.00157703 -5.23901e-05
-3.15854e-06 -5.23901e-05 0.00289439
0.000156929 0.000230072 -4.63834e-06
0.000230072 -9.4177e-05 -1.34885e-05
-4.63834e-06 -1.34885e-05 -0.000261215
0.00259854 0.000153416 -0.00019652
0.000153416 0.00138695 -3.59425e-05
-0.00019652 -3.59425e-05 -0.00147364
0.000112055 0.000255133 -4.36915e-05
0.000255133 -0.000116343 -0.000126678
-4.36915e-05 -0.000126678 -0.0016198
-0.000939571 0.000157353 -4.67538e-06
0.000157353 -0.000398431 -2.02966e-05
-4.67538e-06 -2.02966e-05 -0.000590187
0.000375901 0.000359217 -7.72171e-05
0.000359217 0.00104135 2.49888e-05
-7.72171e-05 2.49888e-05 0.000287108
0.0115588 0.00241496 5.20342e-05
0.00241496 0.00426312 -4.33359e-06
5.20342e-05 -4.33359e-06 0.000749267
-0.00580029 -0.00318755 -2.3707e-05
-0.00318755 -0.00245389 0.000186447
-2.3707e-05 0.000186447 -0.00555973
0.00963326 0.000565946 3.8692e-05
0.000565946 -0.00134529 -0.000243633
3.8692e-05 -0.000243633 0.00112476
0.000875014 0.0001529 -2.22549e-07
0.0001529 0.00025625 1.06346e-05
-2.22549e-07 1.06346e-05 0.00012937
0.00098107 0.000181067 -7.39642e-06
0.000181067 0.000412588 -1.60036e-06
-7.39642e-06 -1.60036e-06 0.0002559
0.00048892 0.000121701 -1.4145e-07
0.000121701 0.000290385 -6.70693e-06
-1.4145e-07 -6.70693e-06 4.77788e-05
0.000719683 8.03886e-05 -2.08261e-06
8.03886e-05 0.000156301 -1.75599e-06
-2.08261e-06 -1.75599e-06 1.68324e-05
0.000855699 -3.69149e-05 -7.56926e-07
-3.69149e-05 0.000238416 2.68941e-06
-7.56926e-07 2.68941e-06 8.80355e-05
0.000646108 5.5028e-05 2.21249e-06
5.5028e-05 0.000106507 2.46644e-06
2.21249e-06 2.46644e-06 -2.49202e-05
-0.00053809 1.88988e-05 1.64907e-06
1.88988e-05 -0.000486987 3.06362e-06
1.64907e-06 3.06362e-06 -0.000638532
0.000779583 -1.57205e-05 1.14385e-06
-1.57205e-05 0.000188453 1.76462e-07
1.14385e-06 1.76462e-07 3.91729e-05
0.00076297 2.35044e-05 9.4347e-09
2.35044e-05 0.000205126 -1.68747e-06
9.4347e-09 -1.68747e-06 6.59515e-05
3.36934e-06 -1.02689e-05 2.8933e-07
-1.02689e-05 2.57807e-05 2.03086e-06
2.8933e-07 2.03086e-06 -0.000228828
-0.000908481 1.84702e-05 -1.21396e-06
1.84702e-05 -0.00025763 4.34751e-06
-1.21396e-06 4.34751e-06 -0.000650287
0.000361998 7.72437e-06 -2.59394e-06
7.72437e-06 0.000216342 -4.50026e-06
-2.59394e-06 -4.50026e-06 -2.71312e-05
0.000877008 2.77489e-05 -1.08464e-06
2.77489e-05 0.000259805 -4.68373e-06
-1.08464e-06 -4.68373e-06 0.000116419
0.000849168 -0.000122199 8.84797e-07
-0.000122199 0.0002284 8.44683e-07
8.84797e-07 8.44683e-07 8.41005e-05
0.00071315 -1.80576e-05 -1.49609e-06
-1.80576e-05 0.000137657 3.48561e-07
-1.49609e-06 3.48561e-07 1.76324e-05
0.000547352 -7.2345e-05 8.10056e-08
-7.2345e-05 6.19526e-05 5.93039e-06
8.10056e-08 5.93039e-06 -4.31823e-05
0.00041691 -2.88521e-05 1.7358e-06
-2.88521e-05 -1.92262e-05 2.11479e-06
1.7358e-06 2.11479e-06 -0.000147146
0.000669468 -2.2171e-05 8.26311e-07
-2.2171e-05 0.000117579 -1.83046e-07
8.26311e-07 -1.83046e-07 -7.05768e-06
0.000565464 -4.23469e-05 -2.35878e-07
-4.23469e-05 7.94695e-05 -6.8834e-07
-2.35878e-07 -6.8834e-07 -2.83249e-05
0.00107315 -4.89175e-05 -2.70639e-06
-4.89175e-05 0.000353251 -5.28488e-06
-2.70639e-06 -5.28488e-06 0.000244473
0.000170728 -4.27487e-05 4.41921e-06
-4.27487e-05 -6.35591e-05 -6.03285e-06
4.41921e-06 -6.03285e-06 -0.000183138
0.000222374 -0.000117753 2.66876e-07
-0.000117753 -0.000284338 -7.80861e-08
2.66876e-07 -7.80861e-08 -0.00037362
0.000775343 -0.000104838 -4.8108e-06
-0.000104838 0.000125972 -4.70592e-07
-4.8108e-06 -4.70592e-07 1.98237e-05
0.000238229 -0.000113526 5.8321e-06
-0.000113526 -0.000195293 3.136e-06
5.8321e-06 3.136e-06 -0.000340959
0.00121182 -0.000292528 1.09244e-06
-0.000292528 0.000319087 9.98585e-06
1.09244e-06 9.98585e-06 7.15274e-05
0.00157473 -0.000163448 9.46239e-07
-0.000163448 0.000656094 -2.17897e-06
9.46239e-07 -2.17897e-06 0.000497313
0.000111628 -7.86647e-05 -4.30442e-06
-7.86647e-05 -0.000247688 -5.04207e-06
-4.30442e-06 -5.04207e-06 -0.000394714
0.000621192 -3.9781e-05 -6.79543e-08
-3.9781e-05 6.54168e-05 2.8118e-07
-6.79543e-08 2.8118e-07 -5.90758e-05
0.000177475 -2.78575e-05 -7.80423e-07
-2.78575e-05 -0.000184698 -4.29361e-07
-7.80423e-07 -4.29361e-07 -0.000309033
0.000907492 -5.89946e-05 -8.54626e-07
-5.89946e-05 0.000233092 1.15526e-06
-8.54626e-07 1.15526e-06 0.000105562
0.000748224 -7.3155e-05 -7.65345e-07
-7.3155e-05 0.000167385 7.03706e-07
-7.65345e-07 7.03706e-07 3.80445e-05
0.000604317 -4.04991e-05 -1.02736e-07
-4.04991e-05 5.63076e-05 1.67906e-06
-1.02736e-07 1.67906e-06 -4.35631e-05
0.000944557 -9.65529e-05 -7.16707e-07
-9.65529e-05 0.000311686 -1.31923e-06
-7.16707e-07 -1.31923e-06 0.000167923
0.000661097 -7.3202e-05 -5.79202e-07
-7.3202e-05 0.00010426 -8.29189e-08
-5.79202e-07 -8.29189e-08 -2.4081e-08
0.000539433 2.06476e-05 -2.00514e-06
2.06476e-05 4.27952e-06 2.48283e-06
-2.00514e-06 2.48283e-06 -6.25494e-05
0.00070456 -0.000103764 1.6694e-06
-0.000103764 0.000136032 -1.77753e-06
1.6694e-06 -1.77753e-06 2.89648e-05
0.000612812 -3.0646e-05 -2.25874e-07
-3.0646e-05 4.70587e-05 8.6038e-08
-2.25874e-07 8.6038e-08 -1.7428e-05
0.00141455 2.13616e-05 -9.1887e-06
2.13616e-05 0.000512305 6.41923e-06
-9.1887e-06 6.41923e-06 0.000494662
0.000577174 -4.81191e-05 2.18267e-06
-4.81191e-05 3.39051e-05 -2.77934e-06
2.18267e-06 -2.77934e-06 -3.24446e-05
0.000927204 6.75981e-06 -4.59419e-06
6.75981e-06 0.000217801 6.72747e-07
-4.59419e-06 6.72747e-07 0.000199251
0.000772948 2.31768e-05 4.10837e-07
2.31768e-05 0.000118587 2.41828e-06
4.10837e-07 2.41828e-06 0.000122631
0.000502936 -5.5517e-06 7.69016e-07
-5.5517e-06 -3.85273e-05 -4.31726e-06
7.69016e-07 -4.31726e-06 -5.77469e-05
0.00160286 2.34565e-05 6.99164e-06
2.34565e-05 0.000626356 -1.4761e-06
6.99164e-06 -1.4761e-06 0.000636271
0.00242833 1.57765e-05 5.62201e-06
1.57765e-05 0.00113017 -5.13871e-06
5.62201e-06 -5.13871e-06 0.00114435
0.000640678 2.53695e-05 1.89447e-06
2.53695e-05 8.49725e-05 -9.75185e-07
1.89447e-06 -9.75185e-07 -6.53725e-06
0.00061737 4.43599e-05 -7.66011e-07
4.43599e-05 5.0924e-05 -1.82854e-06
-7.66011e-07 -1.82854e-06 3.5735e-06
0.000653066 -2.87852e-06 1.23277e-06
-2.87852e-06 0.000102296 4.82688e-07
1.23277e-06 4.82688e-07 1.50625e-05
0.000533847 -4.68312e-07 9.30583e-07
-4.68312e-07 -3.0696e-05 -3.50602e-06
9.30583e-07 -3.50602e-06 -3.90153e-05
0.000548047 3.64601e-05 1.18331e-07
3.64601e-05 9.54907e-06 -5.34183e-08
1.18331e-07 -5.34183e-08 -3.39278e-05
0.000603034 -0.00010088 -3.53387e-06
-0.00010088 7.41492e-05 9.70218e-07
-3.53387e-06 9.70218e-07 -9.65325e-06
0.0020019 4.07533e-06 -3.2325e-06
4.07533e-06 0.000866976 -4.71495e-06
-3.2325e-06 -4.71495e-06 0.000885779
0.000529298 3.43576e-06 -2.03548e-07
3.43576e-06 -3.40005e-05 1.0346e-08
-2.03548e-07 1.0346e-08 -4.15532e-05
0.000553723 -1.89668e-05 -1.75983e-06
-1.89668e-05 1.04553e-05 1.57215e-06
-1.75983e-06 1.57215e-06 -3.03433e-05
0.000515172 6.97608e-06 -9.3115e-07
6.97608e-06 -4.3457e-05 3.07874e-06
-9.3115e-07 3.07874e-06 -5.09864e-05
0.00201758 1.8821e-05 -4.46848e-06
1.8821e-05 0.00087831 -6.73168e-08
-4.46848e-06 -6.73168e-08 0.000896463
0.00198865 3.15724e-05 -8.14345e-06
3.15724e-05 0.000862863 4.33632e-06
-8.14345e-06 4.33632e-06 0.000880355
-0.00576329 -0.000862474 -9.39814e-05
-0.000862474 0.00307916 3.4376e-05
-9.39814e-05 3.4376e-05 5.72341e-05
0.000515948 0.000743669 -0.000150341
0.000743669 -6.72612e-05 3.89613e-05
-0.000150341 3.89613e-05 -0.00105567
0.00302587 -0.000646098 -0.000413587
-0.000646098 0.00114058 0.000200843
-0.000413587 0.000200843 -0.0027097
-0.00291466 9.19473e-05 0.000630525
9.19473e-05 0.00363957 -0.000243965
0.000630525 -0.000243965 0.00100591
0.000702978 0.000363669 -1.25373e-05
0.000363669 -0.00130206 -1.25832e-05
-1.25373e-05 -1.25832e-05 -0.000945049
0.00256922 -0.000265328 0.000100022
-0.000265328 -3.9715e-05 -1.34736e-06
0.000100022 -1.34736e-06 -1.84215e-05
0.000860667 -0.000385738 0.000100119
-0.000385738 -0.00311873 -7.23781e-05
0.000100119 -7.23781e-05 -0.00501686
0.0142634 0.00183969 -0.000323138
0.00183969 0.00662705 1.48813e-05
-0.000323138 1.48813e-05 0.00517819
-0.00452401 0.00439672 -0.00119406
0.00439672 -0.00136718 0.000895622
-0.00119406 0.000895622 -0.00120091
0.00348921 -0.000289843 3.06702e-06
-0.000289843 -0.000254877 2.52457e-06
3.06702e-06 2.52457e-06 -6.23665e-05
0.00698015 -0.00102686 8.96008e-05
-0.00102686 -0.00040506 -7.88312e-05
8.96008e-05 -7.88312e-05 -0.00277705
0.0153188 0.00329318 -0.000166813
0.00329318 0.00446985 -9.67672e-05
-0.000166813 -9.67672e-05 0.00398771
0.0076657 0.0025488 -7.95548e-05
0.0025488 4.62498e-05 0.000251512
-7.95548e-05 0.000251512 -0.000878079
0.00184356 -0.000990917 -8.24249e-05
-0.000990917 -0.0018839 2.46822e-05
-8.24249e-05 2.46822e-05 -0.00142652
0.00342635 -0.00174115 0.000254218
-0.00174115 -0.000144106 -0.000173684
0.000254218 -0.000173684 -0.00388699
-0.00150306 0.00208692 -3.18125e-05
0.00208692 -0.00259983 -0.000495708
-3.18125e-05 -0.000495708 -0.00397394
0.00620985 0.00111719 -0.000136668
0.00111719 -0.00290363 5.801e-06
-0.000136668 5.801e-06 -0.0016011
0.00132439 -5.75149e-05 1.92539e-06
-5.75149e-05 0.000578338 8.61203e-06
1.92539e-06 8.61203e-06 0.000397519
0.000594169 9.71162e-05 -1.7117e-06
9.71162e-05 9.20019e-05 -1.77587e-06
-1.7117e-06 -1.77587e-06 -3.64722e-05
0.000573445 8.09997e-05 2.39431e-07
8.09997e-05 5.67725e-05 -1.91283e-06
2.39431e-07 -1.91283e-06 -3.3698e-05
0.000616763 5.63443e-05 4.81673e-06
5.63443e-05 0.000120632 7.19843e-07
4.81673e-06 7.19843e-07 7.96626e-07
0.000581234 6.45154e-05 3.12342e-06
6.45154e-05 8.2124e-05 2.47638e-06
3.12342e-06 2.47638e-06 -7.88506e-05
0.000637112 5.23677e-05 -2.17644e-07
5.23677e-05 0.000125834 1.82506e-06
-2.17644e-07 1.82506e-06 -8.13534e-06
0.000535487 4.30718e-05 8.81403e-07
4.30718e-05 4.92068e-05 -1.17956e-06
8.81403e-07 -1.17956e-06 -7.20384e-05
0.000866638 0.000144812 2.44035e-06
0.000144812 0.000257039 3.06989e-06
2.44035e-06 3.06989e-06 0.000107489
0.000839205 9.75627e-05 -4.78939e-08
9.75627e-05 0.000244591 3.43684e-07
-4.78939e-08 3.43684e-07 0.000101244
0.000452276 -1.62194e-05 -4.24229e-06
-1.62194e-05 2.69521e-06 -3.36237e-06
-4.24229e-06 -3.36237e-06 -0.000115333
0.000730324 -0.000298871 5.45899e-05
-0.000298871 -0.000779659 -2.35557e-05
5.45899e-05 -2.35557e-05 -0.000645899
0.000576186 -0.000513163 3.50609e-05
-0.000513163 -0.000637366 -8.39271e-06
3.50609e-05 -8.39271e-06 -0.000656717
0.00147537 -0.000715188 1.11041e-05
-0.000715188 -0.000103528 4.91153e-06
1.11041e-05 4.91153e-06 -0.000235701
-6.28827e-05 -0.000462013 1.11395e-05
-0.000462013 -0.000388696 -1.06092e-05
1.11395e-05 -1.06092e-05 -0.000672905
0.00236999 -0.000276721 -5.04471e-06
-0.000276721 0.00133711 2.87298e-05
-5.04471e-06 2.87298e-05 0.000952962
0.000578917 -0.000112676 -2.43204e-06
-0.000112676 0.000161997 1.05101e-06
-2.43204e-06 1.05101e-06 -3.1565e-05
0.000476947 8.8192e-05 -1.51495e-06
8.8192e-05 5.00018e-05 -7.92291e-06
-1.51495e-06 -7.92291e-06 -0.000121944
0.000701064 -8.53356e-05 -9.76913e-07
-8.53356e-05 0.000204732 5.55645e-06
-9.76913e-07 5.55645e-06 5.97593e-06
0.00145253 -0.000493963 4.61343e-07
-0.000493963 -8.71449e-05 -3.18486e-06
4.61343e-07 -3.18486e-06 -0.000234505
0.00068813 -3.39637e-05 3.38106e-07
-3.39637e-05 0.000194738 2.9617e-06
3.38106e-07 2.9617e-06 9.16447e-07
0.0015931 -0.000181977 1.52402e-08
-0.000181977 0.000837686 -1.30816e-06
1.52402e-08 -1.30816e-06 0.000533021
0.00159735 -0.000585653 6.05387e-07
-0.000585653 0.000130726 3.22026e-06
6.05387e-07 3.22026e-06 7.01371e-05
0.000803071 -0.000448952 -1.56962e-05
-0.000448952 0.00027296 5.89111e-06
-1.56962e-05 5.89111e-06 -3.809e-05
0.00213912 -0.000901344 1.0396e-05
-0.000901344 0.000235777 -2.11164e-05
1.0396e-05 -2.11164e-05 0.000194297
0.00075908 -0.000354413 -1.41477e-05
-0.000354413 0.000169409 1.41055e-05
-1.41477e-05 1.41055e-05 5.72249e-05
-0.000696736 -3.99838e-05 2.90024e-06
-3.99838e-05 -0.000339465 1.16375e-05
2.90024e-06 1.16375e-05 -0.000736671
0.000739428 1.15614e-05 -8.60459e-07
1.15614e-05 0.000193615 -3.265e-06
-8.60459e-07 -3.265e-06 2.1691e-05
0.000954977 4.02915e-05 5.89658e-06
4.02915e-05 0.000437102 -3.33479e-07
5.89658e-06 -3.33479e-07 0.000191697
0.00167009 5.69766e-07 -2.28704e-05
5.69766e-07 0.00160789 -1.01056e-05
-2.28704e-05 -1.01056e-05 -0.00110444
-0.00420279 0.000224452 -0.000201203
0.000224452 0.00454671 -8.70361e-06
-0.000201203 -8.70361e-06 0.00106307
-0.0114364 -0.00120074 -0.000428912
-0.00120074 -0.00576444 -1.4958e-05
-0.000428912 -1.4958e-05 -0.00556413
-0.000501622 0.000123054 7.12153e-06
0.000123054 -0.000505918 -7.82625e-07
7.12153e-06 -7.82625e-07 -0.000683143
-0.000705111 0.000283664 -5.11441e-07
0.000283664 -0.000542927 9.09815e-06
-5.11441e-07 9.09815e-06 -0.000837408
0.00147078 0.000605411 2.95949e-05
0.000605411 0.000134755 1.09988e-05
2.95949e-05 1.09988e-05 9.07178e-05
-0.00465141 0.000988944 1.48675e-06
0.000988944 0.00328324 3.35317e-05
1.48675e-06 3.35317e-05 -3.26098e-05
0.00245814 0.00158342 -0.00014
0.00158342 -8.43936e-05 -0.000131065
-0.00014 -0.000131065 -0.00388242
0.00270226 0.00144883 0.000267994
0.00144883 0.000668259 7.47918e-05
0.000267994 7.47918e-05 0.000417725
-0.000378054 0.000490796 8.09841e-06
0.000490796 -0.000309381 -3.80704e-05
8.09841e-06 -3.80704e-05 -0.000413022
0.0166979 -0.00231381 -7.05593e-05
-0.00231381 0.00503773 -0.000200623
-7.05593e-05 -0.000200623 0.00382926
0.0046753 0.000711976 0.000262911
0.000711976 0.002397 9.83167e-05
0.000262911 9.83167e-05 -0.00190932
0.0118563 -0.00151211 8.51162e-05
-0.00151211 0.00179252 2.54227e-05
8.51162e-05 2.54227e-05 0.00315461
0.000742973 0.000283037 2.82051e-06
0.000283037 0.000309921 -2.6957e-06
2.82051e-06 -2.6957e-06 0.000130227
0.00376318 0.000237554 8.50937e-06
0.000237554 0.00209887 1.18035e-05
8.50937e-06 1.18035e-05 -5.97407e-05
0.000809268 0.000272879 3.2953e-05
0.000272879 -6.53794e-06 1.01992e-05
3.2953e-05 1.01992e-05 -0.00156717
-0.000646972 0.00029442 -2.42041e-06
0.00029442 -0.000328344 -2.05184e-06
-2.42041e-06 -2.05184e-06 -0.000570865
0.00136586 0.000772391 -9.19357e-05
0.000772391 0.00110022 -4.15518e-05
-9.19357e-05 -4.15518e-05 6.22724e-05
0.00215324 0.00251181 0.000114937
0.00251181 0.000858631 7.37584e-05
0.000114937 7.37584e-05 -0.0028184
0.00744784 0.000192185 -1.34325e-05
0.000192185 -0.00310298 -0.000162408
-1.34325e-05 -0.000162408 -0.000309485
0.00336617 -0.00185738 -5.03261e-05
-0.00185738 0.00153863 -8.8187e-05
-5.03261e-05 -8.8187e-05 -0.00130654
0.00112458 0.000236991 -4.1251e-06
0.000236991 0.000751831 -1.60604e-05
-4.1251e-06 -1.60604e-05 0.0005381
-0.000984321 6.43155e-06 3.50952e-06
6.43155e-06 -0.000138729 3.87034e-07
3.50952e-06 3.87034e-07 -6.87276e-05
0.00336081 2.11232e-05 5.19185e-05
2.11232e-05 -7.85684e-05 -0.000122202
5.19185e-05 -0.000122202 -0.00109307
0.00624945 0.00117174 0.000143663
0.00117174 -0.00275134 -1.37703e-05
0.000143663 -1.37703e-05 -0.00156534
-0.00141526 0.000108341 9.36965e-06
0.000108341 -8.90353e-05 -2.63247e-05
9.36965e-06 -2.63247e-05 -0.000728404
0.0114223 0.0020236 0.000175799
0.0020236 0.00527768 5.4684e-05
0.000175799 5.4684e-05 0.000993658
-0.00651801 -0.00047257 8.7268e-05
-0.00047257 0.00040477 0.000291429
8.7268e-05 0.000291429 -0.0021382
0.00262134 0.00032818 2.05499e-05
0.00032818 0.00140155 1.66811e-05
2.05499e-05 1.66811e-05 0.00121905
0.000903754 0.00018572 -5.6956e-06
0.00018572 0.000527992 -2.35644e-06
-5.6956e-06 -2.35644e-06 0.000260448
-0.000164876 7.38982e-05 5.3674e-07
7.38982e-05 0.000135226 1.00772e-06
5.3674e-07 1.00772e-06 -0.00016623
0.000682452 0.00014503 3.8656e-07
0.00014503 0.000144547 5.44295e-07
3.8656e-07 5.44295e-07 -1.1834e-05
0.000467843 5.75918e-05 1.51393e-06
5.75918e-05 2.29435e-05 2.49902e-06
1.51393e-06 2.49902e-06 -0.000111864
0.000696819 6.07301e-06 9.10248e-06
6.07301e-06 0.000458826 1.58138e-06
9.10248e-06 1.58138e-06 0.000185221
0.00059302 3.89507e-05 9.29257e-08
3.89507e-05 8.3105e-05 -5.43775e-07
9.29257e-08 -5.43775e-07 -5.18991e-05
0.000770677 -1.27938e-05 -2.95375e-06
-1.27938e-05 0.000449881 -2.10165e-06
-2.95375e-06 -2.10165e-06 0.000211628
-0.000258837 3.73522e-05 2.67179e-06
3.73522e-05 0.00010806 2.66503e-06
2.67179e-06 2.66503e-06 -0.000280958
0.00020752 6.04763e-06 -8.00259e-06
6.04763e-06 0.000252534 -5.40291e-06
-8.00259e-06 -5.40291e-06 1.19464e-05
0.000233474 -3.21587e-05 -9.44279e-07
-3.21587e-05 9.36023e-05 -7.12922e-06
-9.44279e-07 -7.12922e-06 -0.000114044
0.000490617 -5.79307e-05 1.37209e-06
-5.79307e-05 1.21174e-05 5.83935e-06
1.37209e-06 5.83935e-06 -0.000105683
0.000951281 -2.51735e-05 -1.24938e-06
-2.51735e-05 0.000284716 -1.14069e-07
-1.24938e-06 -1.14069e-07 0.000158953
0.000949379 -4.181e-05 -9.08243e-06
-4.181e-05 0.00030595 6.82939e-06
-9.08243e-06 6.82939e-06 0.000198267
0.000678178 -5.75026e-05 3.41857e-06
-5.75026e-05 0.000217847 -2.89281e-07
3.41857e-06 -2.89281e-07 0.000104539
0.000558433 -4.03373e-05 -1.63287e-06
-4.03373e-05 4.90337e-05 -4.91258e-07
-1.63287e-06 -4.91258e-07 -6.0334e-05
0.000623852 -0.000113534 1.77307e-06
-0.000113534 0.000125348 -6.8893e-08
1.77307e-06 -6.8893e-08 1.05383e-05
0.000263412 -0.000108938 -5.0896e-06
-0.000108938 -0.000201226 -7.76592e-07
-5.0896e-06 -7.76592e-07 -0.000271596
-0.000737449 -0.000179439 9.00718e-06
-0.000179439 -0.000760703 5.69731e-06
9.00718e-06 5.69731e-06 -0.000963844
0.000722759 -0.000154339 1.6794e-06
-0.000154339 0.000104888 1.89886e-06
1.6794e-06 1.89886e-06 -8.62761e-06
0.00126462 -0.000222839 -1.02319e-06
-0.000222839 0.000407381 4.99045e-06
-1.02319e-06 4.99045e-06 0.000237375
0.00138217 -0.000353544 -5.70175e-06
-0.000353544 0.000395018 5.89141e-06
-5.70175e-06 5.89141e-06 0.00012817
0.00101642 -0.000299649 -2.80784e-06
-0.000299649 0.000115096 -8.91672e-07
-2.80784e-06 -8.91672e-07 -0.000143371
0.000989265 -0.000221129 -1.85175e-06
-0.000221129 0.000315339 6.40281e-06
-1.85175e-06 6.40281e-06 0.000102966
0.000234428 -0.000183207 5.20485e-06
-0.000183207 -0.000262324 -1.12486e-06
5.20485e-06 -1.12486e-06 -0.000484243
0.00096297 -0.000110314 1.48558e-06
-0.000110314 0.000294232 -1.56478e-06
1.48558e-06 -1.56478e-06 0.000136392
0.00112659 -0.00015237 -3.19019e-06
-0.00015237 0.000407013 -3.72364e-07
-3.19019e-06 -3.72364e-07 0.000241305
0.00029274 -0.000110696 6.7337e-06
-0.000110696 -0.000112335 -1.31144e-05
6.7337e-06 -1.31144e-05 -0.00025784
0.00101228 -5.98373e-05 1.93219e-07
-5.98373e-05 0.000285764 5.67446e-07
1.93219e-07 5.67446e-07 0.000161861
0.000352057 -4.05789e-05 3.7957e-07
-4.05789e-05 -7.53534e-05 -1.98436e-07
3.7957e-07 -1.98436e-07 -0.000202668
0.000647583 -3.11943e-05 -1.31325e-07
-3.11943e-05 7.41606e-05 1.06041e-06
-1.31325e-07 1.06041e-06 -2.98654e-05
0.000863352 -0.000107736 -5.25594e-07
-0.000107736 0.000250937 -1.12092e-07
-5.25594e-07 -1.12092e-07 0.000110266
0.00066979 -5.79522e-05 3.04102e-08
-5.79522e-05 0.000106118 9.89734e-08
3.04102e-08 9.89734e-08 -2.44346e-06
0.000556639 2.25011e-05 4.89949e-07
2.25011e-05 2.0719e-05 2.92368e-06
4.89949e-07 2.92368e-06 -5.3362e-05
0.000754455 -9.26164e-05 7.0259e-08
-9.26164e-05 0.000170407 -1.95868e-06
7.0259e-08 -1.95868e-06 5.83144e-05
0.000564483 1.40663e-05 -1.39883e-06
1.40663e-05 2.2399e-05 -1.19118e-07
-1.39883e-06 -1.19118e-07 -4.69148e-05
0.00137262 3.69646e-05 -1.0245e-05
3.69646e-05 0.000488739 4.37073e-06
-1.0245e-05 4.37073e-06 0.000469904
0.000618097 -4.24614e-05 2.50459e-06
-4.24614e-05 5.25778e-05 -2.89767e-06
2.50459e-06 -2.89767e-06 -1.3559e-05
0.000922793 1.8134e-05 -5.6675e-06
1.8134e-05 0.000212881 6.37363e-07
-5.6675e-06 6.37363e-07 0.000193108
0.000814512 3.26812e-05 -3.18697e-07
3.26812e-05 0.000144904 2.62254e-06
-3.18697e-07 2.62254e-06 0.000147135
0.000503379 3.4145e-06 8.77132e-07
3.4145e-06 -4.2348e-05 -4.76336e-06
8.77132e-07 -4.76336e-06 -6.2843e-05
0.00164151 3.58167e-05 9.68846e-06
3.58167e-05 0.000650169 -1.33159e-06
9.68846e-06 -1.33159e-06 0.000658562
0.00244217 3.14455e-05 9.09885e-06
3.14455e-05 0.00113856 -5.27262e-06
9.09885e-06 -5.27262e-06 0.00115205
0.000381599 1.05404e-05 1.21712e-06
1.05404e-05 -6.13002e-05 -2.3773e-07
1.21712e-06 -2.3773e-07 -0.000173772
0.000262723 1.0799e-05 1.56053e-07
1.0799e-05 -0.000165931 -3.19165e-06
1.56053e-07 -3.19165e-06 -0.00022161
0.000689774 3.21813e-05 6.27146e-09
3.21813e-05 0.000122242 1.29688e-07
6.27146e-09 1.29688e-07 2.48512e-05
0.000530768 -3.47832e-06 8.04825e-07
-3.47832e-06 -3.29136e-05 -3.63312e-06
8.04825e-07 -3.63312e-06 -4.2857e-05
0.000395144 1.73321e-06 1.37999e-06
1.73321e-06 -8.69642e-05 -3.66328e-08
1.37999e-06 -3.66328e-08 -0.000133779
0.000384952 -9.00524e-05 -1.84803e-06
-9.00524e-05 -5.98938e-05 2.88453e-07
-1.84803e-06 2.88453e-07 -0.000149498
0.00207442 -9.56933e-06 -7.83531e-06
-9.56933e-06 0.000911027 -4.75596e-06
-7.83531e-06 -4.75596e-06 0.000929369
0.000528346 -7.57667e-07 -7.72654e-08
-7.57667e-07 -3.44117e-05 -4.67896e-08
-7.72654e-08 -4.67896e-08 -4.25968e-05
0.000516756 -1.96294e-05 -2.07866e-06
-1.96294e-05 -1.20151e-05 1.91031e-06
-2.07866e-06 1.91031e-06 -5.3701e-05
0.00202458 5.49216e-06 -4.20431e-06
5.49216e-06 0.000881093 1.6925e-08
-4.20431e-06 1.6925e-08 0.000899733
0.000513312 2.9224e-06 -8.55254e-07
2.9224e-06 -4.31307e-05 3.19542e-06
-8.55254e-07 3.19542e-06 -5.07258e-05
0.00200184 2.01452e-05 -1.26806e-06
2.01452e-05 0.000868749 4.53955e-06
-1.26806e-06 4.53955e-06 0.000886901
0.000303967 -0.000359811 -0.00015362
-0.000359811 -0.000256107 4.06961e-05
-0.00015362 4.06961e-05 -0.00225391
0.0012444 0.000261786 -5.19609e-05
0.000261786 0.00490541 -1.84413e-07
-5.19609e-05 -1.84413e-07 0.00261754
0.00113951 -0.000325434 -0.000441594
-0.000325434 0.00267735 5.66955e-05
-0.000441594 5.66955e-05 0.001378
0.000733559 9.88695e-05 2.97439e-06
9.88695e-05 0.00015059 1.52725e-06
2.97439e-06 1.52725e-06 1.00344e-05
0.00376371 -0.000446794 -1.8534e-05
-0.000446794 0.00269999 0.000141778
-1.8534e-05 0.000141778 0.00110503
0.00379503 -0.000765951 -0.00017537
-0.000765951 0.00142499 1.28804e-05
-0.00017537 1.28804e-05 -0.00234526
0.00490699 0.00133042 0.000284898
0.00133042 0.00493984 -0.00021257
0.000284898 -0.00021257 0.00283643
0.0053626 -0.000456464 5.83598e-05
-0.000456464 0.000686923 -3.19706e-05
5.83598e-05 -3.19706e-05 0.000532433
0.0123578 -0.00108222 0.000175194
-0.00108222 0.00214149 -8.19289e-05
0.000175194 -8.19289e-05 0.000536054
0.00140244 0.00285167 -0.000297897
0.00285167 -0.00261151 0.000255585
-0.000297897 0.000255585 -0.00291596
0.00848609 0.00264068 3.04755e-05
0.00264068 0.00160719 0.000101
3.04755e-05 0.000101 0.000229396
0.00571738 -0.00123625 -0.000111084
-0.00123625 0.000226592 -5.06767e-06
-0.000111084 -5.06767e-06 0.000160388
0.0140216 -0.00176015 5.16054e-05
-0.00176015 0.00434286 -2.00891e-05
5.16054e-05 -2.00891e-05 0.00211169
0.00822624 0.00173399 0.000113223
0.00173399 0.0013192 -0.000197233
0.000113223 -0.000197233 -0.000222409
0.00812103 0.00105488 1.05903e-05
0.00105488 -0.00131475 1.76743e-05
1.05903e-05 1.76743e-05 -0.000453107
0.00264593 -0.00161777 -8.41058e-06
-0.00161777 -0.000225571 2.39446e-05
-8.41058e-06 2.39446e-05 -0.000711733
0.0113069 -0.0023834 0.000121584
-0.0023834 0.00504091 -7.13599e-05
0.000121584 -7.13599e-05 0.00104654
0.00545626 -3.55227e-05 0.000106078
-3.55227e-05 0.00177342 -0.000287887
0.000106078 -0.000287887 0.000431596
0.00937022 0.000586405 -7.61358e-05
0.000586405 -0.0012187 0.000160932
-7.61358e-05 0.000160932 0.00101614
0.000798576 -1.96102e-05 3.47104e-06
-1.96102e-05 0.000244316 3.46825e-06
3.47104e-06 3.46825e-06 6.7569e-05
0.00085739 -8.5615e-05 -5.27634e-07
-8.5615e-05 0.000297507 1.00262e-07
-5.27634e-07 1.00262e-07 0.000114499
0.000743457 0.000122164 -2.5259e-07
0.000122164 0.000187042 -3.9418e-06
-2.5259e-07 -3.9418e-06 5.49315e-05
0.000690368 7.30818e-05 1.42099e-06
7.30818e-05 0.000111403 4.37141e-06
1.42099e-06 4.37141e-06 -2.48402e-05
0.00074019 0.00011732 -2.3434e-07
0.00011732 0.000188878 7.36401e-07
-2.3434e-07 7.36401e-07 2.64029e-05
0.000920384 7.03509e-05 -3.98426e-06
7.03509e-05 0.000298051 -2.19675e-06
-3.98426e-06 -2.19675e-06 0.000164511
0.00100641 0.00014167 -1.09927e-06
0.00014167 0.000341676 -3.11941e-08
-1.09927e-06 -3.11941e-08 0.000191141
0.00101344 0.000151894 4.05521e-07
0.000151894 0.000364243 1.91025e-06
4.05521e-07 1.91025e-06 0.000212364
0.000424583 -0.00035714 7.09871e-05
-0.00035714 -0.000701602 -3.09722e-05
7.09871e-05 -3.09722e-05 -0.000670241
0.00181129 -0.000614369 7.83102e-06
-0.000614369 0.000195333 -1.13802e-05
7.83102e-06 -1.13802e-05 0.000156664
0.000891043 -0.000194241 -9.90514e-07
-0.000194241 0.000324961 -1.08302e-05
-9.90514e-07 -1.08302e-05 0.000115246
0.00123885 -0.00052015 2.25014e-05
-0.00052015 0.000492831 -1.84084e-05
2.25014e-05 -1.84084e-05 0.000181888
0.00226295 -0.000299993 -8.90784e-06
-0.000299993 0.00120797 2.30696e-06
-8.90784e-06 2.30696e-06 0.000905316
0.00110553 -9.65305e-05 -2.05685e-06
-9.65305e-05 0.000432615 -1.24849e-05
-2.05685e-06 -1.24849e-05 0.000238365
0.000322782 -3.1022e-05 1.26271e-06
-3.1022e-05 -5.40126e-05 4.05397e-06
1.26271e-06 4.05397e-06 -0.000224663
0.00014929 -0.000720557 -1.11752e-06
-0.000720557 -0.000813203 -1.51071e-06
-1.11752e-06 -1.51071e-06 -0.000792891
0.00121243 3.4621e-05 -3.5219e-07
3.4621e-05 0.000594275 8.10751e-07
-3.5219e-07 8.10751e-07 0.000337341
0.000899865 -0.000195614 -2.48035e-06
-0.000195614 0.00049223 2.62106e-06
-2.48035e-06 2.62106e-06 0.000147432
0.000408415 -0.000298977 1.88564e-05
-0.000298977 -4.50979e-05 2.55278e-06
1.88564e-05 2.55278e-06 -0.000103148
0.00128387 0.000105887 7.40116e-07
0.000105887 0.000489217 -1.47292e-06
7.40116e-07 -1.47292e-06 0.000347554
0.00143919 -0.000698529 1.32956e-06
-0.000698529 0.000180082 -3.459e-05
1.32956e-06 -3.459e-05 0.000185604
-0.000157902 -0.000250986 -1.1875e-05
-0.000250986 -7.75625e-05 1.59978e-05
-1.1875e-05 1.59978e-05 -0.000252104
-0.000665995 5.98185e-05 8.98652e-06
5.98185e-05 -0.000123339 3.20259e-06
8.98652e-06 3.20259e-06 -0.000643962
0.00124904 0.000208507 2.85967e-06
0.000208507 0.000558107 -4.55237e-06
2.85967e-06 -4.55237e-06 0.000373468
-0.000322167 2.56745e-05 2.07113e-05
2.56745e-05 0.000836325 -3.14728e-06
2.07113e-05 -3.14728e-06 0.000217432
0.000987646 -3.86635e-05 0.00010482
-3.86635e-05 0.00119291 -2.11474e-05
0.00010482 -2.11474e-05 -0.00153381
-0.00767754 -0.000151329 -0.000181418
-0.000151329 0.00389915 1.28616e-05
-0.000181418 1.28616e-05 -0.000204176
0.00131838 0.000322435 1.47892e-05
0.000322435 0.000726235 4.61732e-06
1.47892e-05 4.61732e-06 0.000535828
-0.00160811 0.000379864 1.5377e-06
0.000379864 -0.00088194 1.13284e-05
1.5377e-06 1.13284e-05 -0.00121045
0.00482427 0.000263213 0.000151789
0.000263213 0.00268986 1.6549e-05
0.000151789 1.6549e-05 0.00120403
0.00836801 0.00174136 0.000213753
0.00174136 0.0035227 0.000114096
0.000213753 0.000114096 -0.000415326
0.00333641 0.00127651 -9.25702e-05
0.00127651 0.00185216 -8.36132e-05
-9.25702e-05 -8.36132e-05 0.000673102
0.00512774 -0.00137201 -7.99539e-05
-0.00137201 0.0024542 -0.000313488
-7.99539e-05 -0.000313488 0.000126577
0.00146029 0.000275712 7.72645e-05
0.000275712 9.95343e-05 0.000153481
7.72645e-05 0.000153481 -0.00144207
0.00542284 -0.000101152 -2.79486e-05
-0.000101152 -0.00492095 -0.000176261
-2.79486e-05 -0.000176261 -0.00169509
0.000803136 0.000261719 2.03138e-08
0.000261719 0.000569092 -2.21173e-06
2.03138e-08 -2.21173e-06 0.000334499
-0.000877303 -1.97003e-05 -4.75092e-07
-1.97003e-05 -0.000139765 -1.04796e-06
-4.75092e-07 -1.04796e-06 -0.000131274
0.00330827 6.06043e-05 6.26252e-05
6.06043e-05 3.16106e-05 2.11108e-05
6.26252e-05 2.11108e-05 -0.000464376
-0.00114296 0.000245275 -8.72727e-06
0.000245275 -0.00033253 -6.61271e-06
-8.72727e-06 -6.61271e-06 -0.000866742
0.00813295 0.00115377 -8.25821e-06
0.00115377 -0.0012833 -1.50145e-05
-8.25821e-06 -1.50145e-05 -0.000472432
0.00416676 0.00127529 0.00014894
0.00127529 0.00327085 8.91522e-05
0.00014894 8.91522e-05 -0.00132574
0.00464712 0.000606777 -0.000113537
0.000606777 0.00281089 4.50995e-06
-0.000113537 4.50995e-06 0.000746652
0.000313963 0.000263834 -1.19825e-05
0.000263834 0.000319867 -2.01372e-05
-1.19825e-05 -2.01372e-05 -2.64545e-05
0.00142036 8.07766e-05 1.42968e-05
8.07766e-05 -0.000325103 -2.09571e-05
1.42968e-05 -2.09571e-05 -7.67784e-05
0.00356635 -0.000423721 1.48892e-05
-0.000423721 0.00266927 -0.000143924
1.48892e-05 -0.000143924 0.00115761
0.0112338 0.00266974 0.000265069
0.00266974 0.00219294 -0.000191653
0.000265069 -0.000191653 0.00157107
0.00640297 -9.05616e-05 -9.63836e-05
-9.05616e-05 0.00220363 0.000292702
-9.63836e-05 0.000292702 0.000855853
0.000707045 0.000246702 -3.8549e-06
0.000246702 0.000320224 -9.32255e-05
-3.8549e-06 -9.32255e-05 1.96183e-05
0.000552813 0.00134414 0.000177454
0.00134414 0.00363536 3.61975e-05
0.000177454 3.61975e-05 -0.00311736
0.00152919 0.000279366 2.78054e-06
0.000279366 0.000847293 1.92434e-05
2.78054e-06 1.92434e-05 0.000581295
0.000403108 0.000142444 2.82571e-06
0.000142444 0.000446491 2.44661e-07
2.82571e-06 2.44661e-07 0.00014735
0.000482253 -1.43607e-05 -1.16746e-05
-1.43607e-05 0.000549419 -1.24729e-05
-1.16746e-05 -1.24729e-05 0.000334139
0.000236017 -3.4284e-05 7.24822e-07
-3.4284e-05 -0.000146664 4.75071e-06
7.24822e-07 4.75071e-06 -0.000268345
0.00115153 -2.7063e-07 3.22733e-06
-2.7063e-07 0.000662185 1.51129e-06
3.22733e-06 1.51129e-06 0.000433253
0.000650748 4.2454e-06 2.63394e-06
4.2454e-06 0.000591498 -3.00473e-06
2.63394e-06 -3.00473e-06 0.000232621
0.000469798 -4.66801e-05 6.39352e-07
-4.66801e-05 0.000192852 -3.33991e-07
6.39352e-07 -3.33991e-07 1.96088e-05
-2.34895e-05 -1.55527e-05 2.55411e-06
-1.55527e-05 0.000119448 1.50491e-06
2.55411e-06 1.50491e-06 -0.000130715
0.00133385 -0.000233909 3.4769e-06
-0.000233909 0.0007777 -1.23478e-05
3.4769e-06 -1.23478e-05 0.000545024
0.00104999 -7.56423e-05 -3.13489e-06
-7.56423e-05 0.000421106 6.5261e-06
-3.13489e-06 6.5261e-06 0.000313923
1.3764e-05 -1.62365e-05 -2.60205e-07
-1.62365e-05 -0.000269974 2.82768e-06
-2.60205e-07 2.82768e-06 -0.00037918
0.00137093 -0.000187727 2.22741e-06
-0.000187727 0.000555268 2.68751e-06
2.22741e-06 2.68751e-06 0.000424134
-0.00117927 -0.000160304 9.95447e-06
-0.000160304 -0.000833296 3.60252e-06
9.95447e-06 3.60252e-06 -0.00107903
0.000178593 -9.37064e-05 -2.87794e-06
-9.37064e-05 -0.00019631 1.54459e-06
-2.87794e-06 1.54459e-06 -0.00024701
-0.000195197 -0.000206086 3.30556e-06
-0.000206086 -0.00045598 -2.08684e-06
3.30556e-06 -2.08684e-06 -0.000643122
0.00114386 -0.000374238 7.87261e-06
-0.000374238 0.00020954 -5.28702e-06
7.87261e-06 -5.28702e-06 -0.000107418
0.00149945 -0.000429774 -2.33447e-06
-0.000429774 0.000316651 2.63419e-07
-2.33447e-06 2.63419e-07 2.38624e-06
0.00221448 -0.000324158 -3.15535e-07
-0.000324158 0.000964995 4.67555e-07
-3.15535e-07 4.67555e-07 0.000771544
0.00110792 -0.00032454 8.54014e-07
-0.00032454 0.000208326 3.44226e-07
8.54014e-07 3.44226e-07 -6.28337e-05
0.0018164 -0.000393769 2.62872e-06
-0.000393769 0.000563967 -2.34534e-06
2.62872e-06 -2.34534e-06 0.000300845
0.000642461 -0.000224253 -1.4194e-06
-0.000224253 -4.405e-06 4.17805e-06
-1.4194e-06 4.17805e-06 -0.000241887
0.000927389 -0.000283569 -7.63281e-07
-0.000283569 7.14141e-05 -1.69916e-06
-7.63281e-07 -1.69916e-06 -0.000181186
0.000391205 -9.55054e-05 8.88789e-07
-9.55054e-05 -2.61356e-05 -2.06552e-06
8.88789e-07 -2.06552e-06 -0.000218827
0.00112509 -0.000256419 -5.21923e-06
-0.000256419 0.000405872 2.74243e-06
-5.21923e-06 2.74243e-06 0.000180829
-0.000806126 -6.78196e-05 -3.13826e-06
-6.78196e-05 -0.000879411 -4.62763e-06
-3.13826e-06 -4.62763e-06 -0.00107594
0.000488835 -2.00134e-05 1.11387e-06
-2.00134e-05 -1.67906e-05 1.38786e-06
1.11387e-06 1.38786e-06 -0.000133176
0.000669737 -9.07603e-05 1.48025e-07
-9.07603e-05 0.000130112 -1.82134e-07
1.48025e-07 -1.82134e-07 -2.78769e-05
0.000734018 -0.000145903 5.62466e-06
-0.000145903 0.000190616 -2.48003e-06
5.62466e-06 -2.48003e-06 1.64373e-05
0.000582932 -5.32853e-05 4.29821e-07
-5.32853e-05 6.73558e-05 -1.42685e-07
4.29821e-07 -1.42685e-07 -6.31274e-05
0.000688482 -4.48943e-05 -7.03061e-07
-4.48943e-05 0.000112167 -4.38261e-09
-7.03061e-07 -4.38261e-09 -1.92056e-06
0.000530147 2.30036e-05 4.97187e-07
2.30036e-05 7.01214e-08 3.75007e-06
4.97187e-07 3.75007e-06 -7.85259e-05
0.000787293 -7.39715e-05 1.71213e-07
-7.39715e-05 0.000186553 -1.20535e-06
1.71213e-07 -1.20535e-06 6.96725e-05
0.000575912 1.67789e-05 -1.18595e-06
1.67789e-05 2.92762e-05 -1.87171e-07
-1.18595e-06 -1.87171e-07 -4.32898e-05
0.00049804 3.18598e-05 -9.67189e-07
3.18598e-05 -4.07265e-05 5.30873e-06
-9.67189e-07 5.30873e-06 -6.62841e-05
0.000675825 -3.64487e-05 2.1595e-06
-3.64487e-05 8.39451e-05 -2.87501e-06
2.1595e-06 -2.87501e-06 1.71859e-05
0.000511989 2.18688e-05 2.25609e-07
2.18688e-05 -3.81946e-05 -1.15564e-08
2.25609e-07 -1.15564e-08 -6.10916e-05
0.00242598 8.38219e-05 -3.36238e-06
8.38219e-05 0.00113575 2.23766e-06
-3.36238e-06 2.23766e-06 0.00114318
0.000506339 1.33653e-05 1.10482e-06
1.33653e-05 -4.2093e-05 -4.98582e-06
1.10482e-06 -4.98582e-06 -6.40862e-05
0.00167118 4.87032e-05 1.16139e-05
4.87032e-05 0.000670123 -1.11657e-06
1.16139e-05 -1.11657e-06 0.000676568
0.00249405 4.72202e-05 1.48449e-05
4.72202e-05 0.00117123 -5.27986e-06
1.48449e-05 -5.27986e-06 0.00118332
0.00033469 9.68716e-06 1.02306e-06
9.68716e-06 -0.000105573 -1.55016e-06
1.02306e-06 -1.55016e-06 -0.000211404
0.000279024 5.56746e-06 6.11085e-07
5.56746e-06 -0.000159153 -2.86415e-06
6.11085e-07 -2.86415e-06 -0.000222514
0.000529445 2.12798e-05 -4.81226e-07
2.12798e-05 2.8235e-05 -1.13669e-06
-4.81226e-07 -1.13669e-06 -8.14475e-05
0.000539512 -8.22969e-06 1.24031e-06
-8.22969e-06 -2.74599e-05 -3.9586e-06
1.24031e-06 -3.9586e-06 -4.00153e-05
0.000248347 8.84773e-06 -5.68344e-07
8.84773e-06 -0.00017514 -1.45371e-06
-5.68344e-07 -1.45371e-06 -0.00023198
0.000694918 4.06078e-05 -5.47649e-07
4.06078e-05 0.000135341 1.28375e-06
-5.47649e-07 1.28375e-06 3.16138e-05
0.0021134 -2.28843e-05 -1.29958e-05
-2.28843e-05 0.000934847 -4.66123e-06
-1.29958e-05 -4.66123e-06 0.000952528
0.000527212 -4.53677e-06 -3.39588e-07
-4.53677e-06 -3.54121e-05 -5.73891e-08
-3.39588e-07 -5.73891e-08 -4.51187e-05
0.000201483 8.11038e-06 8.1025e-07
8.11038e-06 -0.000202362 1.65798e-06
8.1025e-07 1.65798e-06 -0.000252318
0.00204508 -8.08172e-06 -3.83907e-06
-8.08172e-06 0.000892907 4.85496e-08
-3.83907e-06 4.85496e-08 0.0009115
0.000520452 -9.73666e-07 -9.24119e-07
-9.73666e-07 -3.9449e-05 3.43319e-06
-9.24119e-07 3.43319e-06 -4.74534e-05
0.00204683 7.00144e-06 3.61302e-06
7.00144e-06 0.00089495 4.68462e-06
3.61302e-06 4.68462e-06 0.000913374
0.000475597 -1.31465e-05 4.46085e-05
-1.31465e-05 0.00081718 8.99424e-06
4.46085e-05 8.99424e-06 0.000710911
0.00023567 -0.000222991 -1.58353e-05
-0.000222991 7.13768e-05 -1.50079e-05
-1.58353e-05 -1.50079e-05 -0.00232278
0.000661394 0.000191194 3.13886e-05
0.000191194 0.00467588 -2.57904e-05
3.13886e-05 -2.57904e-05 0.00250775
0.000753462 0.000107082 -3.43166e-08
0.000107082 0.000155069 3.16112e-07
-3.43166e-08 3.16112e-07 2.31651e-05
0.000522316 7.36065e-05 2.8818e-06
7.36065e-05 -8.01346e-07 2.58202e-07
2.8818e-06 2.58202e-07 -0.000123159
0.000974017 0.000151301 4.04641e-06
0.000151301 0.000288412 3.46179e-06
4.04641e-06 3.46179e-06 0.000149298
0.00367578 -7.63108e-05 -7.37861e-06
-7.63108e-05 -0.000257593 0.00020431
-7.37861e-06 0.00020431 -0.00100432
0.00372604 -0.000408821 4.05397e-05
-0.000408821 0.00257319 -6.70655e-06
4.05397e-05 -6.70655e-06 0.00128334
0.00430312 -0.0008658 8.81673e-05
-0.0008658 0.00174405 -0.000160923
8.81673e-05 -0.000160923 -0.0021659
0.00740634 -0.00154335 -7.64697e-05
-0.00154335 0.000879096 -1.72254e-05
-7.64697e-05 -1.72254e-05 0.000941848
0.00162715 -0.00159213 -0.000204393
-0.00159213 -0.000837854 9.86481e-05
-0.000204393 9.86481e-05 -0.00368831
0.0160273 0.00246945 0.00012669
0.00246945 0.00609809 7.5621e-05
0.00012669 7.5621e-05 0.00418703
0.0046467 0.000216649 0.000140203
0.000216649 -0.00312069 -0.000148939
0.000140203 -0.000148939 -0.00268765
0.00502941 -0.00187751 -2.91273e-05
-0.00187751 0.000828298 9.78211e-06
-2.91273e-05 9.78211e-06 0.0004484
0.00720387 -0.0020372 -5.92032e-05
-0.0020372 0.00305077 2.46401e-05
-5.92032e-05 2.46401e-05 -0.000796554
-0.00338176 0.00215196 -5.91511e-05
0.00215196 0.00128138 -0.000199539
-5.91511e-05 -0.000199539 -0.00174471
0.00739168 0.000198014 -3.35069e-05
0.000198014 -0.00314143 8.78987e-05
-3.35069e-05 8.78987e-05 -0.00034097
0.0011131 -0.00106665 -7.18224e-05
-0.00106665 0.00020115 6.75712e-06
-7.18224e-05 6.75712e-06 -0.000196061
0.0113777 -0.00206765 -0.000144803
-0.00206765 0.00524591 0.000102788
-0.000144803 0.000102788 0.00104264
-0.00656391 -5.69196e-05 3.50881e-05
-5.69196e-05 0.000693258 -0.000264552
3.50881e-05 -0.000264552 -0.0021334
0.0063638 -0.00119488 6.45981e-05
-0.00119488 -0.00200706 1.23421e-05
6.45981e-05 1.23421e-05 -0.00098913
0.000567661 7.47842e-05 2.39719e-06
7.47842e-05 5.61535e-05 8.88141e-06
2.39719e-06 8.88141e-06 -8.59855e-05
0.000729993 -1.71559e-05 1.99363e-06
-1.71559e-05 0.000196244 -1.62611e-06
1.99363e-06 -1.62611e-06 1.44493e-05
0.000836797 -0.000104339 -5.53228e-07
-0.000104339 0.000260152 -5.60054e-06
-5.53228e-07 -5.60054e-06 8.22467e-05
0.000701443 9.17765e-05 -1.24637e-06
9.17765e-05 0.000120217 -3.5304e-09
-1.24637e-06 -3.5304e-09 -1.98778e-05
0.000748737 0.000125463 2.09401e-08
0.000125463 0.000196665 -2.23198e-06
2.09401e-08 -2.23198e-06 4.14364e-05
0.00112537 0.000153851 -3.29482e-06
0.000153851 0.000419761 -1.66058e-06
-3.29482e-06 -1.66058e-06 0.000264911
-0.000690268 -0.000647452 1.83821e-05
-0.000647452 -0.00128669 4.21326e-06
1.83821e-05 4.21326e-06 -0.00125863
-0.00042717 -0.000221878 2.02157e-05
-0.000221878 -0.000517707 -1.80653e-05
2.02157e-05 -1.80653e-05 -0.000531039
0.000236441 2.67855e-05 -3.05235e-06
2.67855e-05 -9.91889e-05 -5.30619e-06
-3.05235e-06 -5.30619e-06 -0.00027769
0.00132189 -0.000315037 4.38131e-05
-0.000315037 0.000665008 -2.70647e-05
4.38131e-05 -2.70647e-05 0.000350465
0.00142633 -1.21191e-05 -5.30143e-06
-1.21191e-05 0.000718166 -6.26757e-06
-5.30143e-06 -6.26757e-06 0.000463648
0.000684052 8.55675e-05 1.06457e-06
8.55675e-05 0.000151571 2.17221e-06
1.06457e-06 2.17221e-06 1.64672e-06
0.000792402 0.000141743 1.88462e-07
0.000141743 0.000282397 -2.50186e-06
1.88462e-07 -2.50186e-06 0.000117811
0.000303709 -0.000709861 1.82968e-06
-0.000709861 -0.000431784 -5.46938e-06
1.82968e-06 -5.46938e-06 -0.000535742
0.000478409 -3.13333e-06 -2.68522e-06
-3.13333e-06 0.0004396 1.71994e-06
-2.68522e-06 1.71994e-06 4.16985e-05
0.000715973 -0.000179652 5.64788e-06
-0.000179652 0.000427818 -3.87356e-06
5.64788e-06 -3.87356e-06 0.000209768
0.00109995 0.000137974 2.64887e-06
0.000137974 0.000437594 -4.95084e-06
2.64887e-06 -4.95084e-06 0.000300438
-0.00234576 -9.13281e-05 -7.86032e-05
-9.13281e-05 -0.000732226 -2.0886e-05
-7.86032e-05 -2.0886e-05 -0.00133983
6.35372e-05 -9.81577e-05 -1.06822e-05
-9.81577e-05 0.000217619 1.12555e-05
-1.06822e-05 1.12555e-05 5.33427e-06
0.000574622 7.5223e-05 6.59736e-06
7.5223e-05 0.000455683 5.27283e-06
6.59736e-06 5.27283e-06 0.000130053
0.000384037 2.02578e-05 -1.52763e-06
2.02578e-05 -0.000451096 6.44841e-07
-1.52763e-06 6.44841e-07 -0.000913318
-0.000640921 2.96163e-05 1.22463e-07
2.96163e-05 0.000541853 -1.51121e-05
1.22463e-07 -1.51121e-05 4.13612e-05
0.000231434 -7.74807e-05 0.000228544
-7.74807e-05 0.000775731 4.59582e-08
0.000228544 4.59582e-08 -0.00198666
-0.000134017 0.000221291 -2.1211e-07
0.000221291 2.86499e-05 1.91662e-05
-2.1211e-07 1.91662e-05 -0.000229763
0.000865333 0.000551114 9.70066e-07
0.000551114 0.000262156 -7.71562e-06
9.70066e-07 -7.71562e-06 -0.00015573
-0.000812052 -3.19826e-05 5.75998e-06
-3.19826e-05 -0.000153163 -2.87059e-06
5.75998e-06 -2.87059e-06 -0.000215719
-0.0035727 0.000627636 4.78105e-05
0.000627636 0.0010423 0.000114136
4.78105e-05 0.000114136 -0.00343734
-0.0079993 0.000890783 -0.00014072
0.000890783 -0.00335556 -0.000340743
-0.00014072 -0.000340743 -0.00625392
0.00301332 8.6899e-05 5.48953e-05
8.6899e-05 0.000124842 8.7217e-05
5.48953e-05 8.7217e-05 1.99524e-05
0.00460408 0.000281941 -0.000145554
0.000281941 -0.00299838 0.000149144
-0.000145554 0.000149144 -0.00265753
0.000468116 0.000231916 3.92868e-06
0.000231916 0.000429236 -1.32112e-06
3.92868e-06 -1.32112e-06 0.000132996
0.00116784 1.60175e-05 2.03472e-05
1.60175e-05 -0.000444093 -2.89566e-05
2.03472e-05 -2.89566e-05 -0.000165286
0.00351768 -0.000317629 -4.21884e-05
-0.000317629 0.00253129 7.66004e-06
-4.21884e-05 7.66004e-06 0.00124235
0.0008434 0.000367215 -7.13498e-05
0.000367215 0.000878017 -6.00731e-06
-7.13498e-05 -6.00731e-06 -2.48366e-05
0.00747531 0.00265385 7.47566e-05
0.00265385 -6.53586e-05 -0.000245532
7.47566e-05 -0.000245532 -0.000857886
-0.0021476 0.00177103 5.50614e-05
0.00177103 0.0010439 0.00019753
5.50614e-05 0.00019753 -0.00165685
0.00699887 0.000254525 5.18144e-05
0.000254525 0.00622008 -2.52304e-05
5.18144e-05 -2.52304e-05 0.000109102
0.00129625 -3.76477e-05 4.57272e-05
-3.76477e-05 0.00139779 -2.39061e-05
4.57272e-05 -2.39061e-05 0.000737166
0.00048172 -6.8365e-06 -3.93103e-05
-6.8365e-06 0.00078278 2.43292e-06
-3.93103e-05 2.43292e-06 0.000670267
0.00281925 -0.000604066 0.000435427
-0.000604066 0.000991277 -0.000194702
0.000435427 -0.000194702 -0.00289694
0.00899644 0.00357014 9.65549e-07
0.00357014 0.00671466 -1.65764e-06
9.65549e-07 -1.65764e-06 0.00600847
-0.00126802 0.00208913 -1.00417e-05
0.00208913 -0.00253297 0.000483739
-1.00417e-05 0.000483739 -0.00381689
0.012646 -0.00211326 0.000170445
-0.00211326 0.00541681 -0.000148412
0.000170445 -0.000148412 0.00102659
0.00312585 -0.00057085 -6.02443e-05
-0.00057085 0.00186872 5.67495e-05
-6.02443e-05 5.67495e-05 0.00129684
0.00115332 0.00020381 8.18912e-06
0.00020381 0.0008692 5.74503e-06
8.18912e-06 5.74503e-06 0.000566579
8.70854e-05 -1.77928e-05 -1.8172e-05
-1.77928e-05 0.000265411 -5.26784e-08
-1.8172e-05 -5.26784e-08 4.16591e-05
0.00154449 -0.000332347 2.21004e-05
-0.000332347 0.000979555 -9.54154e-06
2.21004e-05 -9.54154e-06 0.000627923
0.000784907 -8.3234e-05 8.79342e-07
-8.3234e-05 0.00034916 3.68627e-06
8.79342e-07 3.68627e-06 0.000203608
4.86275e-05 -4.12265e-05 -3.10753e-06
-4.12265e-05 0.000155494 4.05036e-06
-3.10753e-06 4.05036e-06 -0.000100227
0.000441156 -0.000210779 -2.01021e-06
-0.000210779 0.000337171 -5.15908e-07
-2.01021e-06 -5.15908e-07 0.00010181
0.00121687 -0.000401637 2.68912e-05
-0.000401637 0.000513116 -2.11118e-05
2.68912e-05 -2.11118e-05 0.000322284
0.00216955 -0.000264715 -4.3683e-06
-0.000264715 0.00101815 4.47871e-06
-4.3683e-06 4.47871e-06 0.000865785
0.00201287 -0.00047444 8.48461e-06
-0.00047444 0.000884647 -1.65387e-06
8.48461e-06 -1.65387e-06 0.000605659
0.00189028 -0.000488623 1.44058e-05
-0.000488623 0.000793167 -6.18886e-08
1.44058e-05 -6.18886e-08 0.000340276
0.000387442 -0.000215981 -3.93942e-06
-0.000215981 -0.000132872 -1.76297e-06
-3.93942e-06 -1.76297e-06 -0.000295613
0.00148499 -0.000407506 -3.07544e-06
-0.000407506 0.000373082 5.97865e-07
-3.07544e-06 5.97865e-07 5.27281e-05
0.00203551 -0.000549438 5.9619e-07
-0.000549438 0.000634417 1.32198e-06
5.9619e-07 1.32198e-06 0.000218792
0.00166315 -0.000549066 -3.21021e-06
-0.000549066 0.000313334 2.21079e-06
-3.21021e-06 2.21079e-06 -4.50924e-05
0.00147077 -0.000419622 -1.2945e-06
-0.000419622 0.000321997 1.28139e-06
-1.2945e-06 1.28139e-06 2.32714e-05
0.00141323 -0.000425115 -3.04591e-06
-0.000425115 0.000261633 1.49158e-06
-3.04591e-06 1.49158e-06 -5.50836e-05
0.00116688 -0.000331908 -5.95963e-06
-0.000331908 0.000213083 1.32531e-06
-5.95963e-06 1.32531e-06 -6.84966e-05
0.00229381 -0.000420448 3.31516e-06
-0.000420448 0.000902805 -5.10862e-07
3.31516e-06 -5.10862e-07 0.000645832
0.00145094 -0.000358331 4.36217e-06
-0.000358331 0.000344105 -2.3255e-06
4.36217e-06 -2.3255e-06 8.69249e-05
-4.34017e-05 -0.000100857 -1.8547e-07
-0.000100857 -0.000354959 6.18334e-08
-1.8547e-07 6.18334e-08 -0.000564106
0.0010257 -0.000271662 2.94608e-06
-0.000271662 0.00024132 -1.71116e-06
2.94608e-06 -1.71116e-06 -5.11257e-06
0.000978065 -0.000282325 4.48509e-06
-0.000282325 0.000112516 -4.28207e-06
4.48509e-06 -4.28207e-06 -0.000137018
7.74223e-05 -9.50528e-06 7.19935e-07
-9.50528e-06 -0.000241385 1.66554e-06
7.19935e-07 1.66554e-06 -0.000396545
0.000982718 -0.000147561 -4.87036e-07
-0.000147561 0.000333083 -5.92326e-08
-4.87036e-07 -5.92326e-08 0.000130617
0.00115847 -0.000281228 -2.35564e-06
-0.000281228 0.000435124 -2.12898e-06
-2.35564e-06 -2.12898e-06 0.000199862
0.000671682 5.47788e-07 -8.04312e-07
5.47788e-07 8.39143e-05 4.3131e-06
-8.04312e-07 4.3131e-06 -2.89365e-06
0.000788116 -6.25502e-05 -2.11419e-07
-6.25502e-05 0.000164176 -1.70205e-07
-2.11419e-07 -1.70205e-07 4.16456e-05
0.000411356 -7.06619e-05 -1.29249e-07
-7.06619e-05 -1.51124e-05 9.6679e-07
-1.29249e-07 9.6679e-07 -0.000171826
0.000722419 -6.51668e-05 2.18704e-07
-6.51668e-05 0.000136997 -1.38087e-06
2.18704e-07 -1.38087e-06 1.79206e-05
0.000618178 -1.83405e-05 -1.48757e-07
-1.83405e-05 4.76642e-05 -2.4499e-07
-1.48757e-07 -2.4499e-07 -2.88449e-05
0.000505122 3.88656e-05 -2.15897e-07
3.88656e-05 -2.98144e-05 6.22409e-06
-2.15897e-07 6.22409e-06 -5.92761e-05
0.000618768 -2.59318e-05 1.44283e-06
-2.59318e-05 4.98323e-05 -2.92585e-06
1.44283e-06 -2.92585e-06 -2.05443e-05
0.000523377 3.39773e-05 -5.46718e-07
3.39773e-05 -2.55078e-05 -8.86857e-08
-5.46718e-07 -8.86857e-08 -5.14035e-05
0.00251638 9.20584e-05 -2.85872e-05
9.20584e-05 0.00119757 4.24232e-06
-2.85872e-05 4.24232e-06 0.00120382
0.000529458 2.2918e-05 1.13275e-06
2.2918e-05 -2.77255e-05 -5.05839e-06
1.13275e-06 -5.05839e-06 -5.07915e-05
0.00164469 6.18679e-05 1.37434e-05
6.18679e-05 0.000658025 -9.00041e-07
1.37434e-05 -9.00041e-07 0.000662726
0.00252662 6.38865e-05 1.92411e-05
6.38865e-05 0.00119392 -4.96088e-06
1.92411e-05 -4.96088e-06 0.00120425
0.000696547 7.47626e-05 1.65244e-06
7.47626e-05 0.000123526 -7.36524e-07
1.65244e-06 -7.36524e-07 8.10908e-06
0.000569255 3.41101e-05 5.53181e-07
3.41101e-05 1.56417e-05 -2.53302e-06
5.53181e-07 -2.53302e-06 -5.11332e-05
0.000509902 4.32855e-05 -1.16518e-06
4.32855e-05 1.40155e-05 -1.20692e-06
-1.16518e-06 -1.20692e-06 -0.000100919
0.000525091 -1.00051e-05 8.03698e-07
-1.00051e-05 -3.57172e-05 -4.60565e-06
8.03698e-07 -4.60565e-06 -5.17268e-05
0.000395183 2.63865e-05 -1.81491e-06
2.63865e-05 -8.77301e-05 -1.44827e-06
-1.81491e-06 -1.44827e-06 -0.000150206
0.000728902 5.51535e-05 -8.14914e-07
5.51535e-05 0.000149983 -1.0879e-06
-8.14914e-07 -1.0879e-06 4.13589e-05
0.00220011 -3.74161e-05 -1.75546e-05
-3.74161e-05 0.000988696 -4.66112e-06
-1.75546e-05 -4.66112e-06 0.0010049
0.000523421 -9.15201e-06 -1.53174e-07
-9.15201e-06 -3.75212e-05 -9.01395e-08
-1.53174e-07 -9.01395e-08 -4.98065e-05
0.000194418 7.29096e-06 -1.32946e-06
7.29096e-06 -0.000208223 5.24315e-07
-1.32946e-06 5.24315e-07 -0.000265997
0.00212902 -2.18988e-05 -4.59872e-06
-2.18988e-05 0.000944268 1.0567e-07
-4.59872e-06 1.0567e-07 0.000961998
0.000521979 -5.97271e-06 -1.28561e-06
-5.97271e-06 -3.88343e-05 3.46967e-06
-1.28561e-06 3.46967e-06 -4.83574e-05
0.002075 -6.60987e-06 8.42429e-06
-6.60987e-06 0.000911094 4.73105e-06
8.42429e-06 4.73105e-06 0.000929592
0.00128302 -8.95481e-05 -2.04904e-05
-8.95481e-05 -0.000354565 2.5297e-05
-2.04904e-05 2.5297e-05 -0.000139882
0.000364162 -0.000100774 2.58572e-05
-0.000100774 0.000719238 -1.6348e-06
2.58572e-05 -1.6348e-06 0.000622061
0.000224147 -0.00021331 0.000130571
-0.00021331 0.000220498 -6.28228e-05
0.000130571 -6.28228e-05 -0.0023135
0.000459855 3.73503e-05 2.44116e-06
3.73503e-05 -4.91274e-05 5.07396e-07
2.44116e-06 5.07396e-07 -0.00016865
0.00132182 7.85356e-05 -2.16573e-07
7.85356e-05 0.000457696 2.8144e-06
-2.16573e-07 2.8144e-06 0.000320239
0.000771154 0.000116742 -1.12321e-06
0.000116742 0.00016524 -6.52287e-07
-1.12321e-06 -6.52287e-07 3.7951e-05
0.000533413 5.92153e-05 3.63554e-07
5.92153e-05 -3.49346e-06 5.34719e-07
3.63554e-07 5.34719e-07 -0.000118773
0.000620079 7.84499e-05 1.53602e-07
7.84499e-05 6.8719e-05 7.44327e-08
1.53602e-07 7.44327e-08 -5.96467e-05
0.000597333 6.86509e-05 2.19668e-06
6.86509e-05 4.42224e-05 -7.82071e-07
2.19668e-06 -7.82071e-07 -7.51587e-05
0.000636747 0.000161212 5.55796e-06
0.000161212 0.000113921 3.26024e-06
5.55796e-06 3.26024e-06 -3.26638e-05
0.000284102 0.00022775 8.52123e-05
0.00022775 -0.000308085 0.000203089
8.52123e-05 0.000203089 -0.00158151
0.00323791 -5.12857e-05 -1.99382e-05
-5.12857e-05 2.22724e-05 5.59616e-05
-1.99382e-05 5.59616e-05 -0.000529026
0.00348707 -0.000313623 6.91747e-05
-0.000313623 0.00239775 -8.3263e-05
6.91747e-05 -8.3263e-05 0.0014195
0.00541919 -0.000130961 -8.49757e-06
-0.000130961 -0.00509196 0.000100868
-8.49757e-06 0.000100868 -0.00165421
0.00312517 -0.00157737 -8.95304e-05
-0.00157737 0.000825528 6.49002e-05
-8.95304e-05 6.49002e-05 0.000269631
-0.00156695 -0.00209004 -6.78723e-05
-0.00209004 0.000254898 9.43528e-05
-6.78723e-05 9.43528e-05 -0.00432268
0.0109863 0.00265485 8.79945e-05
0.00265485 0.00555527 -9.47463e-05
8.79945e-05 -9.47463e-05 0.0027997
0.00307818 -0.00141224 -3.49415e-05
-0.00141224 0.000658609 1.18873e-05
-3.49415e-05 1.18873e-05 0.000499183
-0.00107332 -0.000569139 7.10457e-06
-0.000569139 0.00222209 3.81307e-05
7.10457e-06 3.81307e-05 -0.00309238
0.00534936 0.000307955 7.73871e-05
0.000307955 0.00263537 -1.41107e-05
7.73871e-05 -1.41107e-05 0.000528675
0.0116364 -0.00171664 -4.19491e-05
-0.00171664 0.00151908 -3.34927e-05
-4.19491e-05 -3.34927e-05 0.00284777
-0.000192027 -0.000253919 -9.93419e-05
-0.000253919 -0.000294044 8.77936e-05
-9.93419e-05 8.77936e-05 -3.08682e-05
0.00174192 0.00175011 -0.000104463
0.00175011 0.0030977 -8.15615e-05
-0.000104463 -8.15615e-05 -0.00234103
-0.0051232 -0.00301018 4.79737e-05
-0.00301018 -0.00248521 -0.000187178
4.79737e-05 -0.000187178 -0.00551454
0.00848952 -0.00190092 7.38623e-05
-0.00190092 0.000710572 -0.000378375
7.38623e-05 -0.000378375 0.00075501
0.00083127 2.84049e-05 7.98512e-06
2.84049e-05 0.000260921 2.29814e-06
7.98512e-06 2.29814e-06 0.000117656
0.000646809 0.000104171 -7.37757e-07
0.000104171 0.000112206 -1.21647e-06
-7.37757e-07 -1.21647e-06 -3.15655e-05
0.00076141 -1.89358e-05 -6.56871e-07
-1.89358e-05 0.000228284 -2.65838e-06
-6.56871e-07 -2.65838e-06 3.15887e-05
0.000841943 8.7728e-05 -2.53387e-06
8.7728e-05 0.00022507 -5.44756e-06
-2.53387e-06 -5.44756e-06 7.01072e-05
-0.000138254 -0.000544593 -6.61967e-06
-0.000544593 -0.000600769 3.69038e-05
-6.61967e-06 3.69038e-05 -0.000732673
0.00152719 -0.000188011 -3.51868e-06
-0.000188011 0.00100062 -1.77288e-05
-3.51868e-06 -1.77288e-05 0.000715966
0.000695801 6.05717e-05 -4.16921e-06
6.05717e-05 0.000139432 -5.8737e-06
-4.16921e-06 -5.8737e-06 7.69411e-06
0.000717627 0.000187945 -1.96813e-06
0.000187945 0.000248131 2.30249e-06
-1.96813e-06 2.30249e-06 7.88229e-05
0.00169867 3.98519e-05 3.67279e-06
3.98519e-05 0.00108169 -1.39027e-05
3.67279e-06 -1.39027e-05 0.000770451
0.000863829 7.87058e-05 4.41559e-06
7.87058e-05 0.000266146 2.95839e-06
4.41559e-06 2.95839e-06 0.000148975
0.000488275 0.000132541 -2.06023e-06
0.000132541 0.000424545 7.09192e-08
-2.06023e-06 7.09192e-08 8.33488e-05
0.00110928 -0.000243496 -5.33422e-06
-0.000243496 0.00100617 2.26335e-06
-5.33422e-06 2.26335e-06 0.00023485
-0.00010433 -4.92341e-05 2.76281e-05
-4.92341e-05 0.00023322 -6.85716e-07
2.76281e-05 -6.85716e-07 -3.47353e-05
0.000411894 0.000130959 3.0869e-06
0.000130959 0.000269585 -1.65831e-06
3.0869e-06 -1.65831e-06 5.1834e-05
0.000323695 -5.47385e-05 -4.24672e-05
-5.47385e-05 0.00139302 -4.37211e-05
-4.24672e-05 -4.37211e-05 3.43251e-05
0.0021703 0.000218437 9.32969e-06
0.000218437 0.00140644 1.97129e-05
9.32969e-06 1.97129e-05 0.00105178
-0.000390404 3.49533e-05 -2.30799e-05
3.49533e-05 0.000874113 1.3386e-05
-2.30799e-05 1.3386e-05 0.000204241
0.00104177 -1.22062e-05 1.1023e-06
-1.22062e-05 -0.000167928 5.82893e-07
1.1023e-06 5.82893e-07 -0.000233333
-0.000890642 2.84973e-05 4.53624e-06
2.84973e-05 0.000243948 -2.89925e-05
4.53624e-06 -2.89925e-05 -9.57635e-05
0.000145229 0.000147181 -4.51483e-06
0.000147181 0.000323626 7.41107e-06
-4.51483e-06 7.41107e-06 8.7815e-05
-0.00133538 0.000468411 8.44031e-05
0.000468411 -0.000733499 7.12337e-05
8.44031e-05 7.12337e-05 -0.00116072
0.00100578 -1.08622e-05 2.86461e-05
-1.08622e-05 -0.000521246 -5.20242e-06
2.86461e-05 -5.20242e-06 -0.000145506
0.0028933 -0.00154495 0.000128246
-0.00154495 0.00392391 -0.000145136
0.000128246 -0.000145136 -0.00263719
0.012157 0.00247944 -0.0001155
0.00247944 0.00553146 8.65658e-05
-0.0001155 8.65658e-05 0.00309762
0.00351546 -0.000236105 -7.05583e-05
-0.000236105 0.00230703 8.80568e-05
-7.05583e-05 8.80568e-05 0.00138934
0.00810501 0.00266622 -1.84023e-05
0.00266622 0.00159838 -9.38007e-05
-1.84023e-05 -9.38007e-05 0.000193907
0.000237522 0.000128264 -4.48828e-05
0.000128264 0.000750512 1.11268e-05
-4.48828e-05 1.11268e-05 6.29974e-05
0.00054688 -4.11178e-05 -2.99377e-05
-4.11178e-05 0.000679382 1.49104e-06
-2.99377e-05 1.49104e-06 0.000668219
0.00365972 -0.000746206 0.000173822
-0.000746206 0.00137367 -1.47972e-05
0.000173822 -1.47972e-05 -0.00239085
-0.000752582 -0.000193279 1.89931e-05
-0.000193279 -0.000297184 2.73267e-05
1.89931e-05 2.73267e-05 -0.0005653
0.0024784 0.00393568 0.000272338
0.00393568 0.00298888 -0.000133044
0.000272338 -0.000133044 0.00279922
0.00777911 0.0017087 -0.000106377
0.0017087 0.00111725 0.000198823
-0.000106377 0.000198823 -0.000282793
-0.00304432 -0.000876947 8.66317e-05
-0.000876947 0.00149829 -9.61879e-05
8.66317e-05 -9.61879e-05 -0.00436706
0.00017023 -0.000272151 3.20527e-05
-0.000272151 0.000501384 -1.56249e-05
3.20527e-05 -1.56249e-05 -0.000145829
0.000345886 -0.000335775 0.000148187
-0.000335775 -0.000313439 -3.29943e-05
0.000148187 -3.29943e-05 -0.00230057
-0.00232087 -2.00399e-05 -0.000483065
-2.00399e-05 0.00370715 0.000111175
-0.000483065 0.000111175 0.00114385
0.00760174 0.00371874 -0.000351935
0.00371874 0.00155087 0.000404348
-0.000351935 0.000404348 0.000929088
0.00808237 -0.00165247 -5.14876e-05
-0.00165247 0.00358713 1.61751e-05
-5.14876e-05 1.61751e-05 -5.16391e-06
0.00280321 -0.000860375 -5.31107e-05
-0.000860375 0.00149664 3.63182e-05
-5.31107e-05 3.63182e-05 0.00102548
-0.00012738 -1.08311e-05 1.67872e-05
-1.08311e-05 0.000105238 1.15727e-05
1.67872e-05 1.15727e-05 -0.00012097
0.000388455 -0.000250398 3.02951e-06
-0.000250398 0.000382373 1.61083e-08
3.02951e-06 1.61083e-08 3.7785e-05
0.00127335 -0.000486754 1.56246e-05
-0.000486754 0.000571416 -1.25156e-06
1.56246e-05 -1.25156e-06 0.000432867
-0.000463706 -0.000184956 -2.93975e-06
-0.000184956 -0.000111613 7.4768e-06
-2.93975e-06 7.4768e-06 -0.000346237
-0.000729801 -0.000233783 8.52118e-07
-0.000233783 -0.000469367 -2.09834e-06
8.52118e-07 -2.09834e-06 -0.000667082
0.0026745 -0.000603252 3.98302e-05
-0.000603252 0.00104964 -2.9239e-06
3.98302e-05 -2.9239e-06 0.000792838
0.00505836 -0.000795975 -1.26581e-05
-0.000795975 0.00251766 5.12359e-06
-1.26581e-05 5.12359e-06 0.00220074
0.00255586 -0.000564112 7.29941e-06
-0.000564112 0.00108202 2.54393e-07
7.29941e-06 2.54393e-07 0.000646685
0.00157446 -0.000545105 1.02968e-05
-0.000545105 0.00039282 -8.11699e-06
1.02968e-05 -8.11699e-06 -7.63305e-05
0.00147753 -0.000403819 -1.01492e-05
-0.000403819 0.000342457 1.30233e-06
-1.01492e-05 1.30233e-06 2.36433e-05
0.00219115 -0.000576257 1.80282e-06
-0.000576257 0.000692364 3.20605e-07
1.80282e-06 3.20605e-07 0.000268869
0.00223411 -0.000616758 3.55243e-06
-0.000616758 0.000670238 -7.83438e-06
3.55243e-06 -7.83438e-06 0.000241279
0.00200005 -0.000550039 -1.36381e-06
-0.000550039 0.00039991 -4.01432e-06
-1.36381e-06 -4.01432e-06 8.76987e-05
0.00188612 -0.000568279 -4.63069e-07
-0.000568279 0.000419202 1.85918e-06
-4.63069e-07 1.85918e-06 8.17757e-05
0.00183479 -0.000570294 -1.5105e-06
-0.000570294 0.00040781 -1.51567e-08
-1.5105e-06 -1.51567e-08 4.09436e-05
0.00171628 -0.000417065 6.54612e-06
-0.000417065 0.000488067 2.5171e-06
6.54612e-06 2.5171e-06 0.00021467
0.00130389 -0.000394889 6.22549e-07
-0.000394889 0.00022411 4.69171e-07
6.22549e-07 4.69171e-07 -6.26472e-05
0.00129871 -0.000415584 -3.03732e-07
-0.000415584 0.000193981 2.38186e-07
-3.03732e-07 2.38186e-07 -0.000124522
0.00138034 -0.000304818 3.80636e-06
-0.000304818 0.000404582 -1.8392e-07
3.80636e-06 -1.8392e-07 0.000163696
0.00133892 -0.000325721 -1.57805e-06
-0.000325721 0.000320568 -1.34418e-06
-1.57805e-06 -1.34418e-06 8.02037e-05
0.00101237 -0.000314878 9.96602e-06
-0.000314878 8.05303e-05 -6.0438e-06
9.96602e-06 -6.0438e-06 -0.000168788
0.000518894 -0.000134386 2.71961e-06
-0.000134386 4.39314e-05 4.34701e-07
2.71961e-06 4.34701e-07 -0.000171677
0.000588003 -0.000155588 -1.70972e-06
-0.000155588 4.56578e-05 1.91702e-06
-1.70972e-06 1.91702e-06 -0.000175185
0.00143503 -0.000321361 5.36751e-06
-0.000321361 0.00050126 -5.80126e-06
5.36751e-06 -5.80126e-06 0.000246039
0.000476242 -1.70134e-06 7.68273e-07
-1.70134e-06 -3.45228e-05 5.09868e-06
7.68273e-07 5.09868e-06 -0.000134531
0.000691574 -5.29387e-05 -7.17775e-07
-5.29387e-05 0.000136442 -3.36181e-09
-7.17775e-07 -3.36181e-09 -3.00822e-05
0.00145955 -0.000203522 9.23961e-07
-0.000203522 0.000625346 -7.55175e-07
9.23961e-07 -7.55175e-07 0.000412349
0.000487939 3.66239e-05 -2.27205e-06
3.66239e-05 -3.53257e-05 8.92264e-06
-2.27205e-06 8.92264e-06 -6.80183e-05
0.000630456 -4.58881e-06 -3.89658e-07
-4.58881e-06 5.54888e-05 -2.79386e-07
-3.89658e-07 -2.79386e-07 -3.07062e-05
0.00105161 -9.24831e-05 -5.38409e-08
-9.24831e-05 0.000331013 -1.59476e-06
-5.38409e-08 -1.59476e-06 0.000198507
0.000654073 -1.81463e-05 1.0381e-06
-1.81463e-05 6.87611e-05 -3.53704e-06
1.0381e-06 -3.53704e-06 -8.05494e-06
0.000515783 3.86641e-05 3.46299e-07
3.86641e-05 -2.32787e-05 1.0154e-08
3.46299e-07 1.0154e-08 -5.2944e-05
0.00260108 0.000111525 -2.99222e-05
0.000111525 0.00125753 3.96506e-06
-2.99222e-05 3.96506e-06 0.00125946
0.000548998 3.75982e-05 -1.67272e-07
3.75982e-05 -1.01907e-05 -5.65579e-06
-1.67272e-07 -5.65579e-06 -3.66084e-05
0.00253704 9.54275e-05 3.36237e-06
9.54275e-05 0.001211 3.49105e-07
3.36237e-06 3.49105e-07 0.00121655
0.00249455 7.95969e-05 2.28149e-05
7.95969e-05 0.00117893 -4.50819e-06
2.28149e-05 -4.50819e-06 0.00118741
0.000704933 7.76567e-05 3.00055e-07
7.76567e-05 0.000152655 -6.31582e-07
3.00055e-07 -6.31582e-07 4.86155e-07
0.000764745 9.73481e-05 2.40515e-06
9.73481e-05 0.000177333 -1.35593e-06
2.40515e-06 -1.35593e-06 4.24356e-05
0.000607295 2.63598e-05 9.43162e-07
2.63598e-05 3.86483e-05 -3.03038e-06
9.43162e-07 -3.03038e-06 -3.50079e-05
0.000666496 8.81093e-05 6.31473e-08
8.81093e-05 0.000102737 -1.32735e-07
6.31473e-08 -1.32735e-07 -1.17941e-05
0.000514499 -1.08286e-05 -3.26016e-07
-1.08286e-05 -3.93339e-05 -5.45646e-06
-3.26016e-07 -5.45646e-06 -5.9583e-05
0.000585189 3.63842e-05 1.57361e-07
3.63842e-05 2.5848e-05 -1.07995e-07
1.57361e-07 -1.07995e-07 -4.10038e-05
0.000601812 4.6303e-05 -2.8501e-06
4.6303e-05 5.82661e-05 3.30928e-08
-2.8501e-06 3.30928e-08 -4.77243e-05
0.00231345 -5.23988e-05 -2.29483e-05
-5.23988e-05 0.00105996 -4.66679e-06
-2.29483e-05 -4.66679e-06 0.001074
0.000523061 -1.33982e-05 -4.84863e-07
-1.33982e-05 -3.63279e-05 -7.73869e-08
-4.84863e-07 -7.73869e-08 -5.23043e-05
0.000516398 4.09041e-05 -2.17898e-06
4.09041e-05 -1.32688e-05 7.60254e-07
-2.17898e-06 7.60254e-07 -7.47655e-05
0.0021988 -3.63483e-05 -4.38041e-06
-3.63483e-05 0.000987736 1.86676e-07
-4.38041e-06 1.86676e-07 0.00100412
0.000522792 -9.1813e-06 -1.37609e-06
-9.1813e-06 -3.81246e-05 3.70908e-06
-1.37609e-06 3.70908e-06 -5.01722e-05
0.0021069 -2.07433e-05 1.26346e-05
-2.07433e-05 0.000930466 4.65888e-06
1.26346e-05 4.65888e-06 0.0009484
-0.000713375 -2.99214e-05 -6.313e-06
-2.99214e-05 -0.000122364 3.91266e-07
-6.313e-06 3.91266e-07 2.2425e-05
0.00125302 -0.000115902 -1.77643e-05
-0.000115902 -0.000413851 2.76466e-05
-1.77643e-05 2.76466e-05 -0.000111214
0.000444198 -0.000126311 1.0196e-05
-0.000126311 0.000682625 -2.15206e-05
1.0196e-05 -2.15206e-05 0.000575631
0.000744954 7.71043e-05 -1.72221e-07
7.71043e-05 0.000152782 1.25641e-07
-1.72221e-07 1.25641e-07 1.32672e-05
0.000614622 6.51642e-05 2.24257e-06
6.51642e-05 3.4348e-05 -7.21944e-07
2.24257e-06 -7.21944e-07 -9.60587e-05
-0.000638278 2.1398e-05 -4.58573e-06
2.1398e-05 -0.000706819 -5.31496e-06
-4.58573e-06 -5.31496e-06 -0.000815365
0.000267694 2.28846e-05 1.92194e-06
2.28846e-05 -0.000150595 5.14371e-06
1.92194e-06 5.14371e-06 -0.000277589
0.00197229 0.000244024 -9.43277e-07
0.000244024 0.000900916 5.93033e-07
-9.43277e-07 5.93033e-07 0.000719231
0.0006888 3.7247e-05 -2.97269e-06
3.7247e-05 8.23788e-05 -2.23211e-07
-2.97269e-06 -2.23211e-07 -3.00017e-05
0.00061964 6.95526e-05 -3.3645e-06
6.95526e-05 5.91325e-05 -3.95656e-06
-3.3645e-06 -3.95656e-06 -6.09234e-05
0.000752436 7.11557e-05 -2.80099e-08
7.11557e-05 0.000140769 -2.47356e-07
-2.80099e-08 -2.47356e-07 1.76219e-05
0.000946676 0.000121862 -1.80617e-08
0.000121862 0.000275196 -5.77481e-07
-1.80617e-08 -5.77481e-07 0.000143385
0.000881427 9.20215e-05 3.94945e-06
9.20215e-05 0.000287885 -2.69149e-06
3.94945e-06 -2.69149e-06 0.000128452
0.00392649 0.000437177 0.000238603
0.000437177 0.00264797 0.000316725
0.000238603 0.000316725 -0.00122853
0.000877515 0.000228061 1.21124e-05
0.000228061 -7.02673e-05 7.68811e-05
1.21124e-05 7.68811e-05 -0.00156124
0.00290885 -5.13778e-05 -8.29723e-06
-5.13778e-05 0.000230862 -1.2432e-05
-8.29723e-06 -1.2432e-05 -9.60446e-05
0.0117714 -0.00148741 -0.000139161
-0.00148741 0.00160694 -0.00012687
-0.000139161 -0.00012687 0.0031993
-0.00790562 0.00130148 1.22233e-05
0.00130148 -0.00293456 0.000325572
1.22233e-05 0.000325572 -0.00608514
0.00419396 -0.00153778 -0.000102539
-0.00153778 0.0013909 1.90967e-05
-0.000102539 1.90967e-05 0.00127223
0.010863 -0.00136974 -9.27995e-05
-0.00136974 0.00508698 -4.29418e-07
-9.27995e-05 -4.29418e-07 0.00114482
0.00150649 -0.000385822 -2.96894e-05
-0.000385822 0.0003579 7.93633e-05
-2.96894e-05 7.93633e-05 0.00025
0.0107939 -0.000219409 -5.17489e-05
-0.000219409 0.00595639 -9.74519e-06
-5.17489e-05 -9.74519e-06 0.000784779
0.00333057 -0.00183194 7.27215e-05
-0.00183194 0.0015435 0.00010534
7.27215e-05 0.00010534 -0.00122885
0.00865517 -0.00241859 -0.000164911
-0.00241859 -0.000100274 -0.000450129
-0.000164911 -0.000450129 -3.86686e-05
0.00291154 0.000132552 -0.000110581
0.000132552 0.00146164 6.76538e-05
-0.000110581 6.76538e-05 0.000856696
0.0111214 0.00160282 -9.20415e-05
0.00160282 0.00531445 2.21719e-05
-9.20415e-05 2.21719e-05 0.00127726
0.0128396 -0.00340026 -0.000141427
-0.00340026 0.00512827 -0.000403594
-0.000141427 -0.000403594 0.0037644
0.0121552 -0.00417885 8.72517e-05
-0.00417885 0.00354716 -1.88148e-05
8.72517e-05 -1.88148e-05 0.003709
0.000193642 9.11411e-05 8.37506e-06
9.11411e-05 -4.13097e-05 1.06854e-06
8.37506e-06 1.06854e-06 -0.000203919
0.000676472 3.30022e-05 1.31025e-06
3.30022e-05 0.000193704 2.0994e-06
1.31025e-06 2.0994e-06 3.09419e-05
0.000739394 0.000119317 -4.50948e-06
0.000119317 0.000170332 -6.59635e-06
-4.50948e-06 -6.59635e-06 2.38345e-05
0.00230628 -0.000286865 -3.76533e-05
-0.000286865 0.00131439 3.23148e-05
-3.76533e-05 3.23148e-05 0.00042209
0.000796429 -4.2544e-05 -2.92976e-05
-4.2544e-05 0.000765539 -2.60718e-05
-2.92976e-05 -2.60718e-05 0.000515484
0.000454238 4.23907e-06 -7.13382e-06
4.23907e-06 1.29337e-05 -9.71036e-07
-7.13382e-06 -9.71036e-07 -9.73026e-05
-0.000520475 5.87203e-05 -5.08702e-06
5.87203e-05 -0.000113559 -3.80132e-06
-5.08702e-06 -3.80132e-06 -0.000488491
0.000222238 9.86889e-05 9.5847e-07
9.86889e-05 0.000134625 -1.30222e-06
9.5847e-07 -1.30222e-06 -8.71928e-05
0.000536292 0.000193591 6.18468e-06
0.000193591 0.000504578 1.9811e-06
6.18468e-06 1.9811e-06 0.000116519
-0.00108642 -7.4036e-05 0.000158385
-7.4036e-05 0.000644693 -2.77606e-05
0.000158385 -2.77606e-05 -0.000784787
-0.0018679 0.000100407 -1.31463e-05
0.000100407 -0.000958418 1.26158e-05
-1.31463e-05 1.26158e-05 -0.00123836
0.00255398 0.000471665 -9.28445e-05
0.000471665 0.0017532 -5.78872e-05
-9.28445e-05 -5.78872e-05 0.000762938
0.00173906 0.000120965 0.000110567
0.000120965 0.00143778 3.14937e-05
0.000110567 3.14937e-05 -0.0013522
-0.000678032 3.74091e-05 9.81696e-07
3.74091e-05 0.000592825 1.69648e-05
9.81696e-07 1.69648e-05 2.76702e-05
0.00170084 -9.98695e-05 -2.18835e-06
-9.98695e-05 0.00013497 7.86479e-07
-2.18835e-06 7.86479e-07 0.000428655
-0.0014097 0.000363921 0.000115905
0.000363921 -0.000197499 9.31805e-06
0.000115905 9.31805e-06 -0.000988233
0.00220919 0.000201183 -4.66487e-05
0.000201183 0.0014356 3.76877e-05
-4.66487e-05 3.76877e-05 0.000436539
0.000456893 -9.96505e-05 -1.39278e-05
-9.96505e-05 0.000665343 1.08494e-05
-1.39278e-05 1.08494e-05 0.000566656
0.0159867 -0.00243155 0.000144243
-0.00243155 0.00725449 -5.51386e-05
0.000144243 -5.51386e-05 0.002544
0.0144916 0.00259657 -6.85072e-05
0.00259657 0.00577996 -6.93394e-05
-6.85072e-05 -6.93394e-05 0.00383002
0.00437146 -0.000806024 -0.000107217
-0.000806024 0.00184963 0.000155364
-0.000107217 0.000155364 -0.00199365
-0.00454929 0.00451562 0.00122065
0.00451562 -0.00125275 -0.000904321
0.00122065 -0.000904321 -0.00114325
0.000670962 -0.000270964 1.85893e-05
-0.000270964 0.000831804 -5.51073e-06
1.85893e-05 -5.51073e-06 0.000107925
0.000347347 -0.000243589 1.35103e-05
-0.000243589 1.88928e-05 1.50658e-05
1.35103e-05 1.50658e-05 -0.00231658
-0.00272073 0.000191825 -0.000633609
0.000191825 0.0036631 0.000243748
-0.000633609 0.000243748 0.00105868
0.000913019 -0.000486237 -1.48712e-05
-0.000486237 0.000546168 3.52605e-05
-1.48712e-05 3.52605e-05 0.000131872
0.0151653 0.00344169 0.000177345
0.00344169 0.00438259 8.49768e-05
0.000177345 8.49768e-05 0.00384456
0.00780481 -0.00240428 0.000117669
-0.00240428 0.00307972 -6.30796e-05
0.000117669 -6.30796e-05 -0.00022382
0.00218311 -0.000744661 -6.26977e-06
-0.000744661 0.00108994 2.73834e-05
-6.26977e-06 2.73834e-05 0.000773757
-0.00563084 -0.000843381 6.70614e-05
-0.000843381 0.00296154 -3.86149e-05
6.70614e-05 -3.86149e-05 7.63225e-05
0.0124945 0.00312745 -0.000754418
0.00312745 0.005241 0.000338908
-0.000754418 0.000338908 0.00430463
0.00308094 -0.00161979 -0.000269053
-0.00161979 -0.000508321 0.000158885
-0.000269053 0.000158885 -0.00402737
0.00234733 -0.00125915 0.000137606
-0.00125915 0.000518025 -7.34684e-05
0.000137606 -7.34684e-05 0.000884577
-0.000190102 -0.000241068 -5.78094e-05
-0.000241068 5.13816e-05 1.86004e-05
-5.78094e-05 1.86004e-05 -0.000274391
0.0006918 -0.000416538 -8.38688e-06
-0.000416538 0.000322216 1.15162e-05
-8.38688e-06 1.15162e-05 0.000112265
0.00317668 -0.000643668 2.48095e-05
-0.000643668 0.00141363 3.64549e-06
2.48095e-05 3.64549e-06 0.00118192
-0.00267017 -7.88246e-05 -2.18003e-07
-7.88246e-05 -0.00144034 1.087e-05
-2.18003e-07 1.087e-05 -0.00164558
0.000921933 -0.000408009 6.36617e-06
-0.000408009 0.000152202 1.22528e-06
6.36617e-06 1.22528e-06 -0.000100329
0.00217146 -0.000641107 7.55726e-06
-0.000641107 0.00051751 -1.78522e-06
7.55726e-06 -1.78522e-06 0.000233427
0.00309301 -0.000623396 -2.07223e-05
-0.000623396 0.00130175 7.10968e-06
-2.07223e-05 7.10968e-06 0.000886612
0.00137848 -0.000508847 -1.75045e-06
-0.000508847 0.000265369 -3.12363e-06
-1.75045e-06 -3.12363e-06 -0.000180734
0.00173919 -0.00063916 5.87602e-06
-0.00063916 0.000241666 -9.16941e-06
5.87602e-06 -9.16941e-06 -0.000117779
0.00260127 -0.000628405 -4.59399e-06
-0.000628405 0.000892914 1.5297e-06
-4.59399e-06 1.5297e-06 0.000461322
0.00181 -0.000578575 2.06884e-07
-0.000578575 0.000414089 -4.62723e-06
2.06884e-07 -4.62723e-06 3.01016e-06
0.00228726 -0.000579276 2.44011e-06
-0.000579276 0.000503371 -7.93868e-06
2.44011e-06 -7.93868e-06 0.00020047
0.00167773 -0.000420036 -4.3248e-06
-0.000420036 7.78106e-05 -3.43068e-06
-4.3248e-06 -3.43068e-06 -0.000146337
0.00168314 -0.000535658 1.59137e-06
-0.000535658 0.000187206 -8.80614e-07
1.59137e-06 -8.80614e-07 -0.000118161
0.0018755 -0.000537534 2.2078e-06
-0.000537534 0.000328966 -2.80586e-06
2.2078e-06 -2.80586e-06 2.10831e-05
0.00182251 -0.000491483 9.03311e-07
-0.000491483 0.000448859 4.9804e-07
9.03311e-07 4.9804e-07 0.000143264
0.00187894 -0.000567794 -2.05858e-06
-0.000567794 0.00043172 1.55266e-07
-2.05858e-06 1.55266e-07 8.95817e-05
0.00197896 -0.000590498 1.43194e-07
-0.000590498 0.000485393 -3.28194e-06
1.43194e-07 -3.28194e-06 0.000110436
0.00170572 -0.000365068 4.50439e-06
-0.000365068 0.000515089 1.65461e-07
4.50439e-06 1.65461e-07 0.000262682
0.00111772 -0.000353018 1.54637e-06
-0.000353018 0.000140911 2.3891e-07
1.54637e-06 2.3891e-07 -0.000116586
0.00124343 -0.000382314 2.48123e-06
-0.000382314 0.000186527 -3.90747e-07
2.48123e-06 -3.90747e-07 -8.99554e-05
0.000798546 -0.00024181 -5.98518e-07
-0.00024181 0.000130423 3.38589e-07
-5.98518e-07 3.38589e-07 -9.52968e-05
0.000957497 -0.000260323 -1.1428e-06
-0.000260323 0.00015122 -3.816e-07
-1.1428e-06 -3.816e-07 -8.00141e-05
0.000520176 -0.000244545 -3.46346e-06
-0.000244545 -0.000178673 -9.14419e-07
-3.46346e-06 -9.14419e-07 -0.000405428
8.76551e-06 -2.67547e-05 -8.68936e-07
-2.67547e-05 -0.000309894 5.16427e-06
-8.68936e-07 5.16427e-06 -0.00044386
0.00076046 -0.000148622 1.77728e-06
-0.000148622 0.000192471 2.33333e-07
1.77728e-06 2.33333e-07 -2.80415e-05
0.00137499 -0.000212472 -1.80554e-06
-0.000212472 0.000538928 7.14566e-07
-1.80554e-06 7.14566e-07 0.000304676
0.0015586 7.36946e-05 -2.36539e-05
7.36946e-05 0.000629306 6.05369e-06
-2.36539e-05 6.05369e-06 0.000591113
0.00068433 -3.74282e-05 6.3695e-07
-3.74282e-05 8.57811e-05 -5.21706e-07
6.3695e-07 -5.21706e-07 -1.68229e-05
0.00132008 -9.35457e-05 -2.48688e-06
-9.35457e-05 0.00052397 -2.16996e-06
-2.48688e-06 -2.16996e-06 0.000345455
0.000769416 4.97246e-05 -3.41366e-05
4.97246e-05 0.000142171 4.4369e-06
-3.41366e-05 4.4369e-06 0.000137397
0.00100219 5.2606e-05 -1.07901e-05
5.2606e-05 0.000281212 -3.85103e-07
-1.07901e-05 -3.85103e-07 0.000248642
0.00061244 -1.12555e-05 5.0151e-07
-1.12555e-05 4.06848e-05 -4.51487e-06
5.0151e-07 -4.51487e-06 -4.47417e-05
0.000526584 4.06773e-05 5.88123e-07
4.06773e-05 -1.61353e-05 -6.53846e-06
5.88123e-07 -6.53846e-06 -4.63361e-05
0.00261794 0.000112885 5.50559e-06
0.000112885 0.0012685 5.11596e-07
5.50559e-06 5.11596e-07 0.00127022
0.00252303 9.71424e-05 2.49747e-05
9.71424e-05 0.0012033 -4.33035e-06
2.49747e-05 -4.33035e-06 0.00120849
0.000982436 0.000101332 2.96901e-06
0.000101332 0.000303345 3.86789e-06
2.96901e-06 3.86789e-06 0.000160832
0.000879047 0.000103371 2.09789e-06
0.000103371 0.00025323 -2.33543e-06
2.09789e-06 -2.33543e-06 0.000107523
0.000522939 5.99896e-05 -8.50291e-07
5.99896e-05 1.72436e-05 1.09234e-06
-8.50291e-07 1.09234e-06 -0.000117117
0.000633908 1.64899e-05 9.52333e-07
1.64899e-05 5.43108e-05 -3.72476e-06
9.52333e-07 -3.72476e-06 -2.68632e-05
0.000727087 7.82542e-05 5.86441e-07
7.82542e-05 0.000142811 8.00369e-09
5.86441e-07 8.00369e-09 1.90038e-05
0.000513633 -1.04203e-05 -9.94482e-07
-1.04203e-05 -3.53492e-05 -6.19424e-06
-9.94482e-07 -6.19424e-06 -6.0094e-05
0.000576356 2.79616e-05 -4.19954e-08
2.79616e-05 2.11429e-05 -2.07871e-07
-4.19954e-08 -2.07871e-07 -5.3025e-05
0.000711176 6.86629e-05 -1.59714e-06
6.86629e-05 0.000147649 1.43601e-06
-1.59714e-06 1.43601e-06 1.93527e-05
0.00247736 -6.86245e-05 -2.99755e-05
-6.86245e-05 0.00116379 -4.54491e-06
-2.99755e-05 -4.54491e-06 0.001175
0.000504514 -1.33477e-05 -6.92951e-07
-1.33477e-05 -4.52285e-05 -7.29635e-08
-6.92951e-07 -7.29635e-08 -6.52965e-05
0.000580742 4.02207e-05 -2.50649e-08
4.02207e-05 2.40041e-05 2.72052e-06
-2.50649e-08 2.72052e-06 -4.29209e-05
0.00232595 -5.20082e-05 -4.96262e-06
-5.20082e-05 0.00106746 2.82051e-07
-4.96262e-06 2.82051e-07 0.00108158
0.000504742 -1.55781e-05 -1.9608e-06
-1.55781e-05 -4.70518e-05 4.43036e-06
-1.9608e-06 4.43036e-06 -6.29373e-05
0.00220167 -3.50087e-05 1.7857e-05
-3.50087e-05 0.000989287 4.55986e-06
1.7857e-05 4.55986e-06 0.00100584
0.00572583 0.000241288 0.000171208
0.000241288 0.00258821 2.82469e-05
0.000171208 2.82469e-05 0.00114805
-0.000638809 -4.26541e-05 -5.35317e-07
-4.26541e-05 -0.000134978 -2.06923e-06
-5.35317e-07 -2.06923e-06 -6.63744e-05
0.00110573 -5.65458e-05 -2.32492e-05
-5.65458e-05 -0.000431491 1.86582e-06
-2.32492e-05 1.86582e-06 -6.62912e-05
9.86282e-05 9.80016e-05 -6.89381e-06
9.80016e-05 -0.000252747 -1.77112e-06
-6.89381e-06 -1.77112e-06 -0.000376534
0.000758224 7.27969e-05 -2.83289e-06
7.27969e-05 0.000155422 -6.60308e-07
-2.83289e-06 -6.60308e-07 2.40729e-05
0.000386803 5.45026e-05 3.42571e-07
5.45026e-05 -0.000106371 -2.09156e-06
3.42571e-07 -2.09156e-06 -0.000230123
0.000892843 5.18697e-05 4.38698e-07
5.18697e-05 0.000213676 -3.92464e-07
4.38698e-07 -3.92464e-07 8.41899e-05
0.000491788 8.46732e-05 -1.17872e-06
8.46732e-05 -3.82069e-05 2.28412e-07
-1.17872e-06 2.28412e-07 -0.000154229
0.00152029 0.000195988 7.81732e-07
0.000195988 0.00062443 -2.2001e-06
7.81732e-07 -2.2001e-06 0.000466974
0.00094377 0.000152919 -1.8263e-06
0.000152919 0.000247737 -9.30757e-06
-1.8263e-06 -9.30757e-06 5.25849e-05
-0.000158022 3.59436e-05 1.77456e-06
3.59436e-05 -0.000311435 4.78753e-06
1.77456e-06 4.78753e-06 -0.000490653
0.000760691 0.000124278 -2.26068e-06
0.000124278 0.000162334 -5.96261e-08
-2.26068e-06 -5.96261e-08 2.82319e-05
0.000372532 3.70953e-05 -3.75028e-06
3.70953e-05 -0.000102007 -2.97288e-06
-3.75028e-06 -2.97288e-06 -0.000206084
0.000410911 5.89563e-05 8.54032e-08
5.89563e-05 -1.68339e-06 9.32688e-07
8.54032e-08 9.32688e-07 -0.000153269
0.00128759 0.000201719 1.18391e-05
0.000201719 0.000603113 7.34591e-06
1.18391e-05 7.34591e-06 0.000402849
0.00120309 -0.00139332 0.000150421
-0.00139332 0.00348512 0.000226993
0.000150421 0.000226993 0.000135763
0.00442601 0.000558754 4.3148e-05
0.000558754 0.00242825 0.000119296
4.3148e-05 0.000119296 -0.00163561
0.00130852 0.000186999 -2.59055e-05
0.000186999 0.00022367 -5.84663e-05
-2.59055e-05 -5.84663e-05 -0.00146736
0.0141451 -0.00300191 -0.000388605
-0.00300191 0.0028372 -0.000252352
-0.000388605 -0.000252352 0.00286363
0.00620515 -0.00108422 0.000131984
-0.00108422 0.00218906 0.000333733
0.000131984 0.000333733 0.000129565
0.00192941 -0.001034 -0.00012829
-0.001034 0.00300929 8.66705e-05
-0.00012829 8.66705e-05 -0.00252088
0.00101187 -0.000459373 3.52428e-05
-0.000459373 0.000748643 3.47398e-05
3.52428e-05 3.47398e-05 0.000149741
0.00167255 -9.07369e-05 1.83463e-05
-9.07369e-05 0.000902949 4.97626e-05
1.83463e-05 4.97626e-05 0.000564701
0.00433497 -0.00430377 0.000219671
-0.00430377 0.00120329 0.000217405
0.000219671 0.000217405 0.00136595
0.0036775 0.00115865 -4.10211e-05
0.00115865 0.00376511 -4.58563e-05
-4.10211e-05 -4.58563e-05 -0.00141493
0.00470009 -0.00206074 -6.67407e-05
-0.00206074 0.000496916 6.95697e-05
-6.67407e-05 6.95697e-05 -0.00127659
0.000489192 0.000409005 -1.98835e-05
0.000409005 0.000419572 6.20597e-05
-1.98835e-05 6.20597e-05 0.00027946
0.00926596 0.00185724 -6.86758e-05
0.00185724 0.00391954 -1.42793e-05
-6.86758e-05 -1.42793e-05 0.000509282
0.0076412 -0.00355186 -0.00043877
-0.00355186 0.00140018 -0.000320064
-0.00043877 -0.000320064 0.000662107
0.000701185 0.000384236 6.3081e-06
0.000384236 9.46563e-05 -5.53156e-06
6.3081e-06 -5.53156e-06 -7.13383e-05
0.000574437 0.000105729 3.45759e-06
0.000105729 0.000177729 5.63956e-07
3.45759e-06 5.63956e-07 1.99012e-05
0.000310665 4.95563e-05 -5.67524e-06
4.95563e-05 -1.97325e-05 -3.08181e-06
-5.67524e-06 -3.08181e-06 -0.000186843
-0.0011722 -0.000193376 -0.000115568
-0.000193376 0.000750329 -4.11346e-05
-0.000115568 -4.11346e-05 -0.000641711
-0.000825065 0.000170254 2.28866e-06
0.000170254 -0.000304164 -1.71862e-05
2.28866e-06 -1.71862e-05 -0.000689558
0.000139413 8.52986e-05 -9.22221e-06
8.52986e-05 7.46785e-05 3.57127e-08
-9.22221e-06 3.57127e-08 -0.000157686
0.000695576 0.000402366 1.37084e-05
0.000402366 0.000369274 3.16345e-06
1.37084e-05 3.16345e-06 6.13831e-05
0.000221204 0.000306549 2.66301e-05
0.000306549 0.000549738 -3.09092e-05
2.66301e-05 -3.09092e-05 -0.000311482
0.000300814 0.000738673 4.0663e-05
0.000738673 -0.000248631 4.01476e-06
4.0663e-05 4.01476e-06 -0.000745345
-0.00330212 0.000596284 0.000206514
0.000596284 0.00409976 9.63507e-06
0.000206514 9.63507e-06 -5.4992e-05
0.00223762 -1.46016e-05 -4.17647e-06
-1.46016e-05 0.00161375 3.89726e-05
-4.17647e-06 3.89726e-05 -0.000466509
-0.000991156 -2.75127e-05 -4.68824e-06
-2.75127e-05 0.000242323 2.4665e-05
-4.68824e-06 2.4665e-05 -0.000122732
-3.61568e-05 -0.000178616 -6.05666e-05
-0.000178616 0.000573554 9.80046e-06
-6.05666e-05 9.80046e-06 -0.00015814
-0.000961448 -0.000168074 -6.88891e-05
-0.000168074 -0.00086898 3.04887e-05
-6.88891e-05 3.04887e-05 -0.000578339
0.000558236 -0.000183955 -0.000118787
-0.000183955 0.000162128 5.75088e-05
-0.000118787 5.75088e-05 -0.00223835
-0.00218148 -0.0020275 0.000115335
-0.0020275 0.000637674 -0.000108035
0.000115335 -0.000108035 -0.00400152
0.00205849 0.00293726 0.000343388
0.00293726 -0.00245808 -0.000273098
0.000343388 -0.000273098 -0.0028811
0.00464887 0.0013952 -0.000298392
0.0013952 0.00488363 0.000196035
-0.000298392 0.000196035 0.00280172
0.00135455 -0.000412223 -3.69368e-06
-0.000412223 0.000813569 -3.28875e-06
-3.69368e-06 -3.28875e-06 0.000528061
0.00134739 0.000265316 5.53731e-05
0.000265316 0.00478847 -3.77348e-07
5.53731e-05 -3.77348e-07 0.0026006
-0.00225647 0.00201077 1.70454e-05
0.00201077 -0.000217939 3.1121e-05
1.70454e-05 3.1121e-05 -0.00242706
0.00301242 -0.00148167 6.90224e-05
-0.00148167 0.00102431 -2.37922e-05
6.90224e-05 -2.37922e-05 0.000748724
0.0141683 -0.0016496 2.40116e-05
-0.0016496 0.00390995 -1.41371e-05
2.40116e-05 -1.41371e-05 0.00201383
0.00270272 -0.000943548 -2.47772e-05
-0.000943548 0.000844368 2.61467e-05
-2.47772e-05 2.61467e-05 0.000777209
-0.00904949 0.000707796 -0.000303616
0.000707796 -0.00375139 2.23109e-05
-0.000303616 2.23109e-05 -0.00521635
0.0143482 -0.00105579 -0.000152682
-0.00105579 0.00302526 4.81405e-05
-0.000152682 4.81405e-05 0.00145717
0.00323411 -0.00169708 4.86768e-05
-0.00169708 -0.000251975 -4.1891e-05
4.86768e-05 -4.1891e-05 -0.000440362
-0.0001846 -0.000296911 -1.55627e-05
-0.000296911 -7.38416e-05 1.50514e-05
-1.55627e-05 1.50514e-05 -0.000355335
0.00136012 -0.000522468 -2.25719e-06
-0.000522468 0.000330596 6.3684e-07
-2.25719e-06 6.3684e-07 0.000213399
0.00385596 -0.000668536 1.52693e-05
-0.000668536 0.00144519 -3.74334e-06
1.52693e-05 -3.74334e-06 0.00122527
-0.000710348 -0.000230968 -9.79942e-06
-0.000230968 -0.000672261 4.63994e-06
-9.79942e-06 4.63994e-06 -0.000928349
0.00134783 -0.000556629 -7.0568e-06
-0.000556629 0.000116678 -3.53979e-06
-7.0568e-06 -3.53979e-06 -0.000183741
0.00270444 -0.000743378 4.93562e-06
-0.000743378 0.000615808 -5.99362e-06
4.93562e-06 -5.99362e-06 0.000329292
0.00109846 -0.000466037 -1.75664e-05
-0.000466037 9.53368e-05 1.25298e-06
-1.75664e-05 1.25298e-06 -0.000329796
0.00163837 -0.000614349 -4.78089e-07
-0.000614349 0.000201495 -2.42648e-07
-4.78089e-07 -2.42648e-07 -0.000160765
0.0015005 -0.0005225 3.63035e-06
-0.0005225 -8.7452e-05 -5.93972e-06
3.63035e-06 -5.93972e-06 -0.000316915
0.00127948 -0.000531103 -7.51482e-06
-0.000531103 9.79487e-05 4.49794e-07
-7.51482e-06 4.49794e-07 -0.000296091
0.00171292 -0.000519191 -3.86139e-07
-0.000519191 0.000189801 9.67499e-07
-3.86139e-07 9.67499e-07 -0.000101524
0.00182403 -0.000417758 -8.75319e-07
-0.000417758 0.000100947 -5.33108e-06
-8.75319e-07 -5.33108e-06 -7.96923e-05
0.00169373 -0.000332098 -4.75894e-06
-0.000332098 5.42214e-05 -2.38792e-06
-4.75894e-06 -2.38792e-06 -9.83177e-05
0.00156139 -0.000414029 -4.41297e-06
-0.000414029 2.86681e-05 -2.15241e-06
-4.41297e-06 -2.15241e-06 -0.000201055
0.00166764 -0.000410589 1.3178e-06
-0.000410589 8.04722e-05 2.03811e-06
1.3178e-06 2.03811e-06 -0.000138106
0.00149979 -0.000461179 -2.76794e-06
-0.000461179 0.000131335 -1.73948e-06
-2.76794e-06 -1.73948e-06 -0.000150204
0.00181651 -0.000540047 1.87023e-06
-0.000540047 0.000276848 -4.59749e-07
1.87023e-06 -4.59749e-07 -2.56659e-05
0.0018253 -0.000531132 1.38264e-06
-0.000531132 0.000300334 5.39025e-07
1.38264e-06 5.39025e-07 -3.9191e-06
0.00152706 -0.000399438 -1.52012e-06
-0.000399438 0.000324185 1.61353e-06
-1.52012e-06 1.61353e-06 5.04778e-05
0.00162702 -0.000475034 8.76633e-07
-0.000475034 0.000334011 -3.09632e-07
8.76633e-07 -3.09632e-07 3.11108e-05
0.00185105 -0.000564318 -3.95519e-06
-0.000564318 0.000431815 -1.11234e-06
-3.95519e-06 -1.11234e-06 8.51451e-05
0.000915417 -0.000245635 -2.25213e-06
-0.000245635 7.89319e-05 1.80186e-06
-2.25213e-06 1.80186e-06 -0.000136025
0.00121362 -0.000318328 1.4302e-06
-0.000318328 0.000211963 -2.03516e-08
1.4302e-06 -2.03516e-08 -3.22976e-05
0.000467372 -0.000283049 -7.07982e-07
-0.000283049 -0.000235773 -2.26045e-06
-7.07982e-07 -2.26045e-06 -0.000476705
0.000491517 -0.000137761 -2.44517e-06
-0.000137761 -2.67531e-05 3.31384e-06
-2.44517e-06 3.31384e-06 -0.000205117
0.00108783 -0.000256164 -2.14391e-07
-0.000256164 0.000294183 -2.71456e-08
-2.14391e-07 -2.71456e-08 6.90928e-05
0.000238234 -0.000190348 -3.87494e-06
-0.000190348 -0.000279583 5.61459e-07
-3.87494e-06 5.61459e-07 -0.000496331
0.000381578 1.42653e-05 -3.06427e-06
1.42653e-05 -8.61511e-05 1.01814e-05
-3.06427e-06 1.01814e-05 -0.000140124
0.000752633 -9.11353e-05 -1.94457e-07
-9.11353e-05 0.000144676 3.69677e-08
-1.94457e-07 3.69677e-08 -4.68037e-06
0.00119746 -0.000166293 9.33953e-07
-0.000166293 0.00045776 -1.55901e-06
9.33953e-07 -1.55901e-06 0.000232314
0.00294206 0.000168576 -4.00811e-06
0.000168576 0.00148835 2.83897e-06
-4.00811e-06 2.83897e-06 0.0014732
0.000481303 2.83087e-05 -1.59255e-07
2.83087e-05 -3.40172e-05 -6.02102e-08
-1.59255e-07 -6.02102e-08 -7.63131e-05
0.000837835 -6.38814e-05 2.64685e-06
-6.38814e-05 0.00017826 -5.65736e-06
2.64685e-06 -5.65736e-06 6.97947e-05
0.00275326 0.000128296 5.15098e-06
0.000128296 0.0013585 4.04334e-07
5.15098e-06 4.04334e-07 0.00135671
0.000554663 3.40757e-05 1.19451e-06
3.40757e-05 6.74344e-06 -7.50523e-06
1.19451e-06 -7.50523e-06 -2.7936e-05
0.00266722 0.000114339 3.35297e-05
0.000114339 0.00129913 -3.67963e-06
3.35297e-05 -3.67963e-06 0.00130064
0.00100876 0.000161211 3.93029e-06
0.000161211 0.000294592 4.95728e-06
3.93029e-06 4.95728e-06 0.000137378
0.000736612 9.61172e-05 4.6248e-07
9.61172e-05 0.000158926 4.06206e-07
4.6248e-07 4.06206e-07 1.26842e-05
0.000927968 8.4346e-05 1.22745e-06
8.4346e-05 0.000291071 -2.83538e-06
1.22745e-06 -2.83538e-06 0.00012804
0.000645248 1.87611e-05 4.48553e-07
1.87611e-05 6.84341e-05 -5.13128e-06
4.48553e-07 -5.13128e-06 -2.31099e-05
0.000682842 6.19445e-05 1.79519e-07
6.19445e-05 0.000122303 2.89696e-07
1.79519e-07 2.89696e-07 -1.38572e-05
0.000509225 7.78142e-05 -2.60595e-07
7.78142e-05 1.61742e-05 1.61058e-06
-2.60595e-07 1.61058e-06 -0.000124637
0.000526063 -7.40052e-06 -1.99055e-06
-7.40052e-06 -2.43538e-05 -7.11063e-06
-1.99055e-06 -7.11063e-06 -5.35536e-05
0.000604151 2.36549e-05 -3.65263e-08
2.36549e-05 4.06772e-05 -1.84626e-07
-3.65263e-08 -1.84626e-07 -4.19109e-05
0.000634045 7.139e-05 -1.2235e-06
7.139e-05 8.1328e-05 1.30821e-06
-1.2235e-06 1.30821e-06 -3.57562e-05
0.00261855 -8.40531e-05 -3.83648e-05
-8.40531e-05 0.00125518 -4.25596e-06
-3.83648e-05 -4.25596e-06 0.00126351
0.000482461 -1.69153e-05 1.35225e-06
-1.69153e-05 -5.41235e-05 -1.14652e-07
1.35225e-06 -1.14652e-07 -7.88313e-05
0.000583059 3.19579e-05 -6.17017e-07
3.19579e-05 2.60298e-05 3.10421e-06
-6.17017e-07 3.10421e-06 -4.8576e-05
0.00245372 -6.79616e-05 -5.35683e-06
-6.79616e-05 0.00114897 3.57149e-07
-5.35683e-06 3.57149e-07 0.00116035
0.000496216 -1.74706e-05 -1.55307e-06
-1.74706e-05 -4.99386e-05 5.26314e-06
-1.55307e-06 5.26314e-06 -6.99678e-05
0.00230481 -5.08892e-05 2.16711e-05
-5.08892e-05 0.00105437 4.50229e-06
2.16711e-05 4.50229e-06 0.00106875
-0.00792794 0.000576045 -3.75994e-05
0.000576045 0.00215732 6.57464e-05
-3.75994e-05 6.57464e-05 -0.00191776
0.00545114 0.000125539 -7.36942e-06
0.000125539 0.00271454 -2.11474e-06
-7.36942e-06 -2.11474e-06 0.00133043
-0.000524402 -5.75256e-05 -3.34627e-06
-5.75256e-05 -0.000156092 -4.63334e-06
-3.34627e-06 -4.63334e-06 -0.000175285
6.62688e-05 6.89795e-05 -2.13436e-06
6.89795e-05 -0.000275997 1.99892e-06
-2.13436e-06 1.99892e-06 -0.000397361
0.00319806 0.000479938 3.98415e-06
0.000479938 0.00159708 6.58723e-06
3.98415e-06 6.58723e-06 0.00135671
0.0008986 9.2694e-05 -4.25188e-06
9.2694e-05 0.000235654 6.3684e-08
-4.25188e-06 6.3684e-08 7.81477e-05
0.000862749 5.75311e-05 -3.05666e-06
5.75311e-05 0.000190469 -5.46131e-06
-3.05666e-06 -5.46131e-06 6.13109e-05
0.00153213 0.000166914 2.60432e-06
0.000166914 0.000577829 -1.4158e-06
2.60432e-06 -1.4158e-06 0.000452
5.84091e-05 5.86751e-05 -4.80103e-06
5.86751e-05 -0.000266329 1.97622e-06
-4.80103e-06 1.97622e-06 -0.000387384
0.000412261 7.24013e-05 -1.12268e-06
7.24013e-05 2.02888e-05 2.32296e-06
-1.12268e-06 2.32296e-06 -0.000164133
0.000596658 0.000112422 -2.9487e-06
0.000112422 5.5789e-05 -3.7886e-06
-2.9487e-06 -3.7886e-06 -0.000131997
0.00117484 0.000227404 5.63524e-06
0.000227404 0.000450171 -8.01917e-06
5.63524e-06 -8.01917e-06 0.000195439
0.000516207 0.000303654 7.18395e-07
0.000303654 -5.90752e-05 3.57621e-06
7.18395e-07 3.57621e-06 -0.000172862
0.00110948 8.31313e-05 -4.39186e-06
8.31313e-05 0.000419106 1.74267e-06
-4.39186e-06 1.74267e-06 0.000257998
0.00114957 0.000175416 1.74264e-06
0.000175416 0.00052372 2.87466e-06
1.74264e-06 2.87466e-06 0.000326654
-0.00330397 -0.00132105 -0.000695788
-0.00132105 4.86353e-05 -9.90585e-05
-0.000695788 -9.90585e-05 -0.00204474
-0.00353569 -0.00102811 0.000270851
-0.00102811 0.00278203 0.000131659
0.000270851 0.000131659 -0.000894244
0.00493368 0.000651276 -0.000257765
0.000651276 0.00239255 -9.37241e-05
-0.000257765 -9.37241e-05 -0.00189758
-0.00507893 -0.00448952 0.00108985
-0.00448952 -0.00126802 0.000823949
0.00108985 0.000823949 -0.00141328
0.0179993 -0.00223355 -1.28935e-05
-0.00223355 0.00567303 0.000212788
-1.28935e-05 0.000212788 0.00461943
-0.00183492 0.00133209 -5.69419e-07
0.00133209 0.000983863 -0.000124213
-5.69419e-07 -0.000124213 -0.00373187
0.000789039 0.000109276 -0.000209871
0.000109276 0.000799535 -5.20815e-06
-0.000209871 -5.20815e-06 -0.000237389
0.00166787 0.000524169 2.94791e-05
0.000524169 0.000926654 3.40693e-05
2.94791e-05 3.40693e-05 0.000733724
0.0126019 -0.0026491 -0.000298759
-0.0026491 0.00559317 4.43536e-05
-0.000298759 4.43536e-05 0.00446125
-0.000908117 0.00165983 -4.1977e-05
0.00165983 0.000561096 -4.23887e-05
-4.1977e-05 -4.23887e-05 -0.00339327
0.00224562 0.00119158 -2.23459e-05
0.00119158 0.000529518 -5.84331e-05
-2.23459e-05 -5.84331e-05 0.000810397
0.00364915 0.00248182 -0.000231751
0.00248182 -0.000623969 -0.000135297
-0.000231751 -0.000135297 -0.00323709
0.00264915 0.000821444 1.75425e-05
0.000821444 0.000840454 -1.39679e-05
1.75425e-05 -1.39679e-05 0.000557333
0.000904433 0.000382874 -4.63501e-06
0.000382874 0.000228574 3.79857e-07
-4.63501e-06 3.79857e-07 6.8168e-05
0.000980093 0.000135542 -8.20497e-06
0.000135542 0.000414891 -1.01448e-06
-8.20497e-06 -1.01448e-06 0.00025918
-0.00139866 0.000219779 -5.1558e-05
0.000219779 -0.000376296 -5.65265e-05
-5.1558e-05 -5.65265e-05 -0.00113183
0.00227219 0.000610491 -3.13846e-05
0.000610491 0.00116221 -1.75978e-05
-3.13846e-05 -1.75978e-05 0.000840154
0.00144569 0.000858248 1.42993e-05
0.000858248 0.00026861 -5.4145e-06
1.42993e-05 -5.4145e-06 -0.000220634
0.00165296 0.00116844 0.000108613
0.00116844 -0.000346222 3.34907e-05
0.000108613 3.34907e-05 -0.000558756
-0.00543219 -0.0001848 -0.000365128
-0.0001848 -0.00448703 1.28824e-05
-0.000365128 1.28824e-05 -0.00321231
-0.00528272 0.000296052 0.000205045
0.000296052 0.00383197 6.38627e-06
0.000205045 6.38627e-06 -0.00030964
0.0027467 -8.39782e-05 -8.73814e-05
-8.39782e-05 0.00180952 3.2567e-05
-8.73814e-05 3.2567e-05 0.000345498
0.00179857 -0.000482104 -4.64122e-05
-0.000482104 0.000741718 -4.64698e-05
-4.64122e-05 -4.64698e-05 0.000478531
0.000893693 -0.00129055 -4.54671e-06
-0.00129055 -0.000264407 2.95335e-05
-4.54671e-06 2.95335e-05 -0.000351376
0.000928892 0.000258037 -1.28151e-05
0.000258037 0.00455308 2.63245e-05
-1.28151e-05 2.63245e-05 0.00246438
0.00269704 -0.00163975 0.00026003
-0.00163975 -0.000534262 -0.00014231
0.00026003 -0.00014231 -0.00312959
0.0139877 0.00190298 0.000322686
0.00190298 0.00633363 -3.95306e-05
0.000322686 -3.95306e-05 0.00481699
0.00259515 -0.00111876 -2.78639e-05
-0.00111876 0.000716225 8.67626e-06
-2.78639e-05 8.67626e-06 0.000370437
0.000397171 0.000768532 0.000144569
0.000768532 -0.000244908 -3.82243e-05
0.000144569 -3.82243e-05 -0.00116767
0.00659412 -0.000959311 -9.29562e-05
-0.000959311 -0.000743898 8.00415e-05
-9.29562e-05 8.00415e-05 -0.00302138
0.0051376 -0.00183283 -3.16876e-05
-0.00183283 0.00063707 2.13022e-05
-3.16876e-05 2.13022e-05 0.000380997
0.00242152 -0.000854843 7.25105e-05
-0.000854843 0.00044622 -8.42609e-06
7.25105e-05 -8.42609e-06 0.00021613
0.0124946 -0.00058239 -3.42442e-06
-0.00058239 0.00286422 -1.38495e-05
-3.42442e-06 -1.38495e-05 0.00129656
0.0025147 -0.00100653 9.48829e-05
-0.00100653 -0.00181062 -6.54024e-05
9.48829e-05 -6.54024e-05 -0.00128114
-0.000463254 -0.000385819 -2.7728e-05
-0.000385819 -0.000745783 1.48976e-05
-2.7728e-05 1.48976e-05 -0.000750875
0.000117067 -0.000383918 -1.66874e-05
-0.000383918 -0.000624595 6.26892e-08
-1.66874e-05 6.26892e-08 -0.00070751
0.00398516 -0.000739964 4.00121e-05
-0.000739964 0.00112811 -2.17023e-05
4.00121e-05 -2.17023e-05 0.00104147
0.000415917 -0.000457662 -1.96153e-05
-0.000457662 -0.000346176 -5.68857e-06
-1.96153e-05 -5.68857e-06 -0.000652282
0.00181212 -0.000650983 -4.26317e-09
-0.000650983 0.0001618 -1.15596e-06
-4.26317e-09 -1.15596e-06 -0.000104181
0.0025708 -0.000618403 1.53515e-06
-0.000618403 0.000330827 -2.55463e-06
1.53515e-06 -2.55463e-06 0.000170296
0.00176697 -0.000612176 -5.4942e-06
-0.000612176 0.000279417 5.69493e-06
-5.4942e-06 5.69493e-06 -8.73702e-05
0.00188286 -0.000554014 -1.08019e-06
-0.000554014 0.000117748 1.46343e-06
-1.08019e-06 1.46343e-06 -0.000117189
0.00194702 -0.000426017 2.34737e-06
-0.000426017 5.98997e-05 -6.06168e-08
2.34737e-06 -6.06168e-08 -7.15249e-05
0.00118646 -0.000462803 2.68285e-06
-0.000462803 -9.76484e-05 5.98321e-06
2.68285e-06 5.98321e-06 -0.000377901
0.00178553 -0.000408693 -6.34917e-07
-0.000408693 8.38249e-05 1.42295e-06
-6.34917e-07 1.42295e-06 -9.47973e-05
0.00185802 -0.0003576 -2.39069e-06
-0.0003576 8.17484e-05 -1.09251e-09
-2.39069e-06 -1.09251e-09 -4.29352e-05
0.00203433 -0.000339964 -3.59477e-06
-0.000339964 0.000259767 2.47703e-08
-3.59477e-06 2.47703e-08 0.00013314
0.00178538 -0.000336181 -2.6036e-06
-0.000336181 0.000101379 3.34234e-06
-2.6036e-06 3.34234e-06 -4.69126e-05
0.00183686 -0.000354989 -1.99194e-06
-0.000354989 0.00016927 -5.19291e-06
-1.99194e-06 -5.19291e-06 6.64895e-07
0.00176214 -0.00042336 -4.80988e-06
-0.00042336 0.000182317 -2.15866e-06
-4.80988e-06 -2.15866e-06 -5.21522e-05
0.00174414 -0.000428393 1.43721e-06
-0.000428393 0.000138709 5.26563e-07
1.43721e-06 5.26563e-07 -9.23132e-05
0.0016643 -0.000401907 5.00636e-06
-0.000401907 8.54838e-05 6.62262e-06
5.00636e-06 6.62262e-06 -0.000127657
0.00161157 -0.000428163 -6.27736e-06
-0.000428163 0.000265565 -1.20996e-08
-6.27736e-06 -1.20996e-08 -6.15755e-06
0.00151081 -0.000465842 -6.90826e-07
-0.000465842 0.000128708 2.57596e-07
-6.90826e-07 2.57596e-07 -0.000154633
0.00192018 -0.000542872 3.28579e-06
-0.000542872 0.000348208 3.04096e-07
3.28579e-06 3.04096e-07 4.86269e-05
0.00120512 -0.000284515 -5.98401e-06
-0.000284515 0.000191943 2.66191e-06
-5.98401e-06 2.66191e-06 -3.40035e-05
0.0014148 -0.000387967 6.26278e-07
-0.000387967 0.000255361 6.27435e-07
6.26278e-07 6.27435e-07 -1.59225e-05
0.00136175 -0.000452118 1.39228e-06
-0.000452118 0.000175837 -2.69861e-07
1.39228e-06 -2.69861e-07 -0.000122681
0.000820356 -0.000191719 -6.31429e-06
-0.000191719 0.000111733 4.67273e-06
-6.31429e-06 4.67273e-06 -7.37954e-05
0.00108534 -0.000262619 8.8447e-07
-0.000262619 0.000184333 2.16217e-07
8.8447e-07 2.16217e-07 -3.51719e-05
0.00096308 -0.000295877 -1.0491e-08
-0.000295877 5.37845e-05 -9.34144e-07
-1.0491e-08 -9.34144e-07 -0.000187019
0.000408504 -5.77178e-05 -1.16278e-05
-5.77178e-05 -9.15806e-05 1.31901e-05
-1.16278e-05 1.31901e-05 -0.000157327
0.000685445 -0.000143017 6.21806e-07
-0.000143017 9.69884e-05 7.92701e-07
6.21806e-07 7.92701e-07 -8.81576e-05
0.00128947 -0.000285192 6.47588e-08
-0.000285192 0.000406426 -4.98726e-07
6.47588e-08 -4.98726e-07 0.000178222
0.00333698 0.000168159 -6.17242e-05
0.000168159 0.00173308 3.09347e-06
-6.17242e-05 3.09347e-06 0.00171955
0.000539921 -3.58164e-06 2.85122e-07
-3.58164e-06 2.151e-06 -7.46642e-07
2.85122e-07 -7.46642e-07 -5.15241e-05
0.00136714 -0.000133679 1.7376e-06
-0.000133679 0.000518766 -5.95813e-06
1.7376e-06 -5.95813e-06 0.000357846
0.0019414 0.000110368 3.16706e-05
0.000110368 0.000870656 8.89055e-07
3.16706e-05 8.89055e-07 0.000859574
0.000602295 2.21869e-05 3.8874e-06
2.21869e-05 3.67128e-05 -8.99536e-06
3.8874e-06 -8.99536e-06 -5.16998e-06
0.00283574 0.000125757 4.90634e-05
0.000125757 0.00140843 -3.24996e-06
4.90634e-05 -3.24996e-06 0.0014073
0.00107352 0.000188246 6.66609e-06
0.000188246 0.00028437 8.15331e-07
6.66609e-06 8.15331e-07 0.000129411
0.000537292 9.68502e-05 -5.35383e-07
9.68502e-05 6.25126e-06 -3.61239e-07
-5.35383e-07 -3.61239e-07 -0.000132609
0.000681838 9.82098e-05 7.67619e-07
9.82098e-05 0.000113022 -1.16511e-06
7.67619e-07 -1.16511e-06 -3.70221e-05
0.000807055 0.000106071 -7.47519e-07
0.000106071 0.000202368 -9.61728e-07
-7.47519e-07 -9.61728e-07 5.27148e-05
0.000711053 6.5701e-05 8.62611e-08
6.5701e-05 0.000135943 3.75078e-07
8.62611e-08 3.75078e-07 -7.54824e-06
0.000691175 3.45756e-05 -2.69321e-07
3.45756e-05 9.79389e-05 -6.00829e-06
-2.69321e-07 -6.00829e-06 -5.0959e-06
0.000558924 -5.74546e-06 -2.91941e-06
-5.74546e-06 2.7543e-06 -8.46663e-06
-2.91941e-06 -8.46663e-06 -3.27399e-05
0.000611171 1.74285e-05 3.41407e-07
1.74285e-05 5.05659e-05 -1.17689e-07
3.41407e-07 -1.17689e-07 -4.20148e-05
0.000577873 3.50364e-05 -1.94606e-06
3.50364e-05 3.40955e-05 2.44425e-06
-1.94606e-06 2.44425e-06 -8.34146e-05
0.00273068 -9.77093e-05 -4.91552e-05
-9.77093e-05 0.00133013 -4.01675e-06
-4.91552e-05 -4.01675e-06 0.00133577
0.00049109 -9.61346e-06 3.33393e-07
-9.61346e-06 -4.33306e-05 -1.42879e-07
3.33393e-07 -1.42879e-07 -7.28877e-05
0.000550252 2.49036e-05 -6.95938e-07
2.49036e-05 1.32186e-05 3.73284e-06
-6.95938e-07 3.73284e-06 -7.11802e-05
0.00259466 -8.41647e-05 -5.78337e-06
-8.41647e-05 0.00124029 4.19721e-07
-5.78337e-06 4.19721e-07 0.00124853
0.000475662 -2.29897e-05 -7.97448e-08
-2.29897e-05 -5.71785e-05 6.04051e-06
-7.97448e-08 6.04051e-06 -8.22707e-05
0.00245848 -6.74309e-05 2.71131e-05
-6.74309e-05 0.0011515 4.49834e-06
2.71131e-05 4.49834e-06 0.00116295
0.000131661 0.000308042 -0.000397096
0.000308042 0.00250558 -2.52106e-06
-0.000397096 -2.52106e-06 0.00101181
-0.00412575 0.000100936 3.07045e-05
0.000100936 0.00290023 8.62787e-06
3.07045e-05 8.62787e-06 -0.00122347
0.00514013 2.47606e-05 -0.000115239
2.47606e-05 0.00276315 -2.47358e-05
-0.000115239 -2.47358e-05 0.0014553
0.000350353 5.00833e-05 1.18997e-06
5.00833e-05 -0.000107661 -4.63014e-06
1.18997e-06 -4.63014e-06 -0.000226918
0.000762492 6.70298e-05 4.18581e-06
6.70298e-05 0.000152948 2.23524e-06
4.18581e-06 2.23524e-06 -1.84652e-05
0.00227698 0.000376609 -2.532e-06
0.000376609 0.00105906 2.26572e-06
-2.532e-06 2.26572e-06 0.0008464
0.00175849 0.000406158 6.59045e-06
0.000406158 0.000615587 -3.09959e-06
6.59045e-06 -3.09959e-06 0.000326207
0.000784685 0.000230376 -2.57706e-06
0.000230376 0.000229095 -6.50562e-07
-2.57706e-06 -6.50562e-07 6.38616e-06
0.00067544 0.000115816 -1.66932e-06
0.000115816 0.000180579 2.648e-06
-1.66932e-06 2.648e-06 -1.26054e-05
0.000797287 0.000135301 7.26454e-06
0.000135301 0.000195056 4.59221e-06
7.26454e-06 4.59221e-06 9.432e-06
0.000570021 0.000219876 -6.04443e-06
0.000219876 0.000116034 -3.69057e-06
-6.04443e-06 -3.69057e-06 -0.000137675
-0.000592671 0.000215452 4.94101e-06
0.000215452 -0.000719222 -1.28813e-06
4.94101e-06 -1.28813e-06 -0.000935569
0.00208226 0.000492479 5.76586e-06
0.000492479 0.000749029 8.65196e-07
5.76586e-06 8.65196e-07 0.000603036
0.00152493 0.000623177 1.31234e-05
0.000623177 0.000148328 -5.28581e-06
1.31234e-05 -5.28581e-06 -5.769e-05
0.000818514 0.000352186 -6.36542e-06
0.000352186 0.000130632 -8.47849e-07
-6.36542e-06 -8.47849e-07 -1.39469e-05
0.000915114 0.000138346 -5.53504e-06
0.000138346 0.000318236 -6.66999e-07
-5.53504e-06 -6.66999e-07 0.00014002
0.0127005 0.00138417 -7.80233e-05
0.00138417 0.00247096 4.76532e-05
-7.80233e-05 4.76532e-05 0.00100567
-0.000231502 -0.00107952 -0.000309021
-0.00107952 0.00264203 -0.000110471
-0.000309021 -0.000110471 0.000493601
-0.00125011 -0.00166379 0.000266863
-0.00166379 0.00293601 6.14332e-05
0.000266863 6.14332e-05 -0.000757355
0.00130973 -0.00153626 0.000102857
-0.00153626 0.000954884 0.00024207
0.000102857 0.00024207 -0.000186863
0.0113963 0.00221188 -2.59025e-05
0.00221188 0.0046924 -1.68393e-05
-2.59025e-05 -1.68393e-05 0.00100615
-0.0016902 0.000218485 -3.08838e-05
0.000218485 -0.000530444 -3.92079e-05
-3.08838e-05 -3.92079e-05 -0.000745044
0.00168173 0.00104902 -3.02736e-05
0.00104902 0.00038605 -1.0993e-05
-3.02736e-05 -1.0993e-05 0.000623183
0.0134197 0.00201423 2.38646e-05
0.00201423 0.00391651 2.56099e-05
2.38646e-05 2.56099e-05 0.00176948
0.00639964 0.00215959 -3.3424e-05
0.00215959 0.000865748 -7.49058e-05
-3.3424e-05 -7.49058e-05 0.000597039
0.00153688 0.000797351 7.50059e-06
0.000797351 0.000108192 -2.92795e-06
7.50059e-06 -2.92795e-06 -8.38737e-05
0.00128309 0.000629646 5.7508e-06
0.000629646 0.000243335 -6.20529e-07
5.7508e-06 -6.20529e-07 -1.52577e-05
0.00122056 0.000373311 -1.90121e-05
0.000373311 0.000438131 8.3504e-06
-1.90121e-05 8.3504e-06 0.000286452
0.00258682 0.00102078 -5.4289e-05
0.00102078 0.000758218 -1.63712e-05
-5.4289e-05 -1.63712e-05 0.00028185
0.00210171 0.00120384 1.75248e-05
0.00120384 -0.000260427 1.82406e-05
1.75248e-05 1.82406e-05 -0.000481584
0.00142211 -0.00039702 -6.77697e-05
-0.00039702 -0.00357544 3.39723e-05
-6.77697e-05 3.39723e-05 -0.0039023
0.00165401 -0.000853234 3.40981e-06
-0.000853234 0.00142166 -2.30188e-05
3.40981e-06 -2.30188e-05 0.00133092
-0.00766935 -6.50878e-05 0.000208079
-6.50878e-05 0.00367268 -1.45678e-05
0.000208079 -1.45678e-05 -0.000483153
0.00119373 -0.00112687 -2.00642e-05
-0.00112687 -0.000117581 4.59199e-07
-2.00642e-05 4.59199e-07 -0.000627798
0.00337039 -0.00170468 4.62511e-05
-0.00170468 0.000300308 9.58937e-06
4.62511e-05 9.58937e-06 -0.000288112
0.00139486 -0.00030111 0.000444762
-0.00030111 0.00278024 -7.77511e-05
0.000444762 -7.77511e-05 0.00147173
0.0126107 -0.00116145 -0.000187362
-0.00116145 0.0023636 8.31926e-05
-0.000187362 8.31926e-05 0.000820689
0.001145 -0.000812285 -2.97159e-05
-0.000812285 -0.000246226 -1.57065e-06
-2.97159e-05 -1.57065e-06 -0.000468003
0.00934669 1.33651e-05 -0.000117631
1.33651e-05 0.000237206 3.65189e-05
-0.000117631 3.65189e-05 -0.000859246
0.00565729 -0.00115725 9.09147e-05
-0.00115725 -6.04164e-05 1.11298e-05
9.09147e-05 1.11298e-05 3.93664e-05
0.00450018 -0.000815946 7.2052e-05
-0.000815946 0.00134543 -1.27198e-05
7.2052e-05 -1.27198e-05 0.000990236
0.00272858 -0.000429453 -6.93443e-05
-0.000429453 -0.00079557 9.95816e-06
-6.93443e-05 9.95816e-06 -0.000464761
-0.00299678 -0.000143695 -1.29715e-05
-0.000143695 -0.00234088 5.53766e-06
-1.29715e-05 5.53766e-06 -0.00232645
0.00169136 -0.000571636 -4.22101e-06
-0.000571636 -9.03165e-05 -1.93939e-07
-4.22101e-06 -1.93939e-07 -0.0001307
0.00285384 -0.000530908 2.36626e-05
-0.000530908 0.000363577 -1.17353e-05
2.36626e-05 -1.17353e-05 0.000396629
0.000751987 -0.000548324 -4.46596e-06
-0.000548324 -0.000372898 7.57316e-06
-4.46596e-06 7.57316e-06 -0.000619118
0.0018871 -0.000557094 -1.98846e-06
-0.000557094 -1.17858e-05 1.70221e-06
-1.98846e-06 1.70221e-06 -0.000166294
0.00215794 -0.000447322 4.30083e-06
-0.000447322 2.52409e-05 9.75295e-07
4.30083e-06 9.75295e-07 -2.43528e-05
0.00217672 -0.00057422 -6.52978e-06
-0.00057422 0.000280093 8.30697e-06
-6.52978e-06 8.30697e-06 4.16024e-05
0.00194882 -0.000424952 2.42162e-07
-0.000424952 6.1113e-05 1.55227e-06
2.42162e-07 1.55227e-06 -6.69239e-05
0.00204241 -0.000398992 -1.80378e-08
-0.000398992 0.000119654 1.87027e-06
-1.80378e-08 1.87027e-06 2.95008e-05
0.00174294 -0.000400139 2.65589e-06
-0.000400139 6.37145e-05 6.02926e-06
2.65589e-06 6.02926e-06 -0.000112851
0.00184337 -0.000360102 -1.36309e-07
-0.000360102 7.11817e-05 1.62527e-06
-1.36309e-07 1.62527e-06 -5.43983e-05
0.00199004 -0.000375309 -1.4662e-06
-0.000375309 0.000165099 1.12847e-06
-1.4662e-06 1.12847e-06 4.73272e-05
0.00191344 -0.00033708 -4.15498e-06
-0.00033708 0.000179971 3.41356e-06
-4.15498e-06 3.41356e-06 5.58108e-05
0.00197527 -0.000343447 3.05133e-07
-0.000343447 0.000247516 -2.66301e-06
3.05133e-07 -2.66301e-06 0.000110548
0.00187728 -0.000341061 3.54588e-06
-0.000341061 0.000149136 7.93016e-06
3.54588e-06 7.93016e-06 4.84588e-06
0.00184456 -0.000355484 3.49849e-07
-0.000355484 0.000172237 -8.54448e-07
3.49849e-07 -8.54448e-07 3.34058e-06
0.0017524 -0.000362193 -1.94151e-06
-0.000362193 0.000136962 -3.56548e-06
-1.94151e-06 -3.56548e-06 -5.17625e-05
0.00173613 -0.000393171 -4.62804e-06
-0.000393171 0.000241341 -2.02426e-06
-4.62804e-06 -2.02426e-06 4.88532e-06
0.00181499 -0.000428847 3.00049e-08
-0.000428847 0.000215332 -1.47485e-07
3.00049e-08 -1.47485e-07 -2.09725e-05
0.00192436 -0.000442238 5.92459e-06
-0.000442238 0.00024834 3.10289e-06
5.92459e-06 3.10289e-06 1.61323e-05
0.00129937 -0.000309848 -7.8935e-06
-0.000309848 0.000171735 3.27e-06
-7.8935e-06 3.27e-06 -5.92216e-05
0.00151722 -0.000415458 -1.3468e-06
-0.000415458 0.000216956 1.66005e-07
-1.3468e-06 1.66005e-07 -5.31535e-05
0.00152533 -0.000469811 3.15269e-06
-0.000469811 0.000128828 1.3219e-06
3.15269e-06 1.3219e-06 -0.000156119
0.000783093 -0.000189917 -8.83537e-06
-0.000189917 1.76814e-05 6.40614e-06
-8.83537e-06 6.40614e-06 -0.000163838
0.00114917 -0.000283929 5.75712e-07
-0.000283929 0.000152542 -8.36979e-08
5.75712e-07 -8.36979e-08 -7.47136e-05
0.00126305 -0.000371472 3.28786e-06
-0.000371472 0.000165217 -5.57967e-07
3.28786e-06 -5.57967e-07 -0.000102626
0.000431733 -0.000132203 -2.0357e-05
-0.000132203 -0.000109619 1.48695e-05
-2.0357e-05 1.48695e-05 -0.000191311
0.000765927 -0.000197039 -3.70583e-07
-0.000197039 8.20584e-05 4.18934e-07
-3.70583e-07 4.18934e-07 -0.000104464
0.00114403 -0.00026341 3.66204e-06
-0.00026341 0.000221157 -1.08612e-06
3.66204e-06 -1.08612e-06 1.43848e-06
0.00422422 0.000193789 -9.44358e-05
0.000193789 0.00228172 5.11748e-06
-9.44358e-05 5.11748e-06 0.00226121
0.000501502 -7.60647e-05 7.94051e-07
-7.60647e-05 -3.58812e-05 -5.42313e-07
7.94051e-07 -5.42313e-07 -0.000107022
0.00111908 -0.000178202 4.3947e-06
-0.000178202 0.000362963 -3.99401e-06
4.3947e-06 -3.99401e-06 0.000169303
0.00364705 0.000156052 1.21841e-05
0.000156052 0.00191826 2.62746e-07
1.21841e-05 2.62746e-07 0.00190872
0.000624429 -2.25841e-05 9.52783e-06
-2.25841e-05 4.75125e-05 -1.12243e-05
9.52783e-06 -1.12243e-05 -8.18593e-06
0.00317731 0.000129327 7.85298e-05
0.000129327 0.00162167 -2.90695e-06
7.85298e-05 -2.90695e-06 0.0016201
0.000333944 0.000217815 5.44502e-06
0.000217815 -0.000263371 -5.89617e-06
5.44502e-06 -5.89617e-06 -0.000484709
0.000871606 0.000193276 2.22606e-06
0.000193276 0.000168154 -8.80317e-07
2.22606e-06 -8.80317e-07 7.61497e-06
0.000235747 9.1083e-05 3.20251e-06
9.1083e-05 -0.000170366 -4.44241e-07
3.20251e-06 -4.44241e-07 -0.000328212
-0.000198015 3.33156e-05 -2.45151e-06
3.33156e-05 -0.000431855 -3.1817e-06
-2.45151e-06 -3.1817e-06 -0.000559426
0.000441446 4.5811e-05 -1.14335e-07
4.5811e-05 -3.84379e-05 9.15119e-07
-1.14335e-07 9.15119e-07 -0.000183846
0.000738993 5.47129e-05 -9.89132e-07
5.47129e-05 0.000119159 -6.52958e-06
-9.89132e-07 -6.52958e-06 3.71495e-06
0.000455105 3.34315e-05 -1.20716e-06
3.34315e-05 -3.22776e-05 2.76283e-06
-1.20716e-06 2.76283e-06 -0.0001637
0.000583698 2.33933e-05 1.30348e-07
2.33933e-05 3.64115e-05 -2.42848e-07
1.30348e-07 -2.42848e-07 -6.65077e-05
0.000604773 -6.42788e-06 -4.02523e-06
-6.42788e-06 3.41136e-05 -9.99331e-06
-4.02523e-06 -9.99331e-06 -8.46112e-06
0.00295261 -0.000112619 -6.31776e-05
-0.000112619 0.00147417 -3.85461e-06
-6.31776e-05 -3.85461e-06 0.00147635
0.000478449 -1.13307e-05 6.56951e-07
-1.13307e-05 -4.46488e-05 -1.67369e-07
6.56951e-07 -1.67369e-07 -8.01425e-05
0.000544215 1.8865e-05 -3.46145e-07
1.8865e-05 1.19918e-05 5.10059e-06
-3.46145e-07 5.10059e-06 -8.09175e-05
0.00274936 -0.000100542 -6.42541e-06
-0.000100542 0.0013416 5.16099e-07
-6.42541e-06 5.16099e-07 0.00134637
0.000427782 -3.3714e-05 -1.61092e-06
-3.3714e-05 -7.84612e-05 6.90969e-06
-1.61092e-06 6.90969e-06 -0.000109187
0.00257956 -8.39158e-05 3.3452e-05
-8.39158e-05 0.00123039 4.3656e-06
3.3452e-05 4.3656e-06 0.00123868
0.0127283 0.000535158 0.00030171
0.000535158 0.00244668 8.66589e-05
0.00030171 8.66589e-05 0.00165272
-0.00281624 -0.00148949 -0.000240192
-0.00148949 -0.00276398 -4.20621e-05
-0.000240192 -4.20621e-05 -0.00352914
-0.00720027 0.000787102 -0.000105489
0.000787102 0.00194859 -7.80001e-05
-0.000105489 -7.80001e-05 -0.00272468
0.000369587 2.99129e-05 1.49103e-05
2.99129e-05 -8.5757e-05 1.037e-06
1.49103e-05 1.037e-06 -0.000270642
0.00124151 0.000263215 -1.10628e-05
0.000263215 0.000441229 2.96056e-06
-1.10628e-05 2.96056e-06 0.000261074
0.00152731 0.000305549 -3.47522e-06
0.000305549 0.000647505 -1.89832e-06
-3.47522e-06 -1.89832e-06 0.00040953
0.00178681 0.000402758 -2.46902e-06
0.000402758 0.000657806 9.51526e-07
-2.46902e-06 9.51526e-07 0.000373663
0.000946238 0.000366225 1.20514e-05
0.000366225 5.4471e-06 7.20683e-06
1.20514e-05 7.20683e-06 -0.000289727
-0.000262145 0.000222589 1.04255e-05
0.000222589 -0.000531461 -1.52627e-06
1.04255e-05 -1.52627e-06 -0.000764804
8.44555e-06 0.000180729 -6.34383e-06
0.000180729 -0.000191082 -2.81267e-06
-6.34383e-06 -2.81267e-06 -0.000443033
0.000194948 0.000306561 3.31193e-06
0.000306561 -0.000293316 7.81506e-07
3.31193e-06 7.81506e-07 -0.000537673
0.00158775 0.000455498 -6.32247e-07
0.000455498 0.000481794 1.50996e-06
-6.32247e-07 1.50996e-06 0.000320691
0.000320089 0.000390693 7.49172e-06
0.000390693 -0.000357851 2.88027e-06
7.49172e-06 2.88027e-06 -0.000565654
0.00291208 0.00070563 1.67048e-06
0.00070563 0.000879578 -7.03411e-07
1.67048e-06 -7.03411e-07 0.000694469
0.00179968 0.000679533 6.17328e-06
0.000679533 0.000223479 3.78267e-06
6.17328e-06 3.78267e-06 1.22649e-05
0.00110837 0.000578479 3.67128e-06
0.000578479 -7.85689e-05 -4.07711e-06
3.67128e-06 -4.07711e-06 -0.000255042
0.000703806 0.000344729 -4.11656e-06
0.000344729 9.06156e-05 -5.41761e-06
-4.11656e-06 -5.41761e-06 -6.96801e-05
0.00591452 0.00101006 2.03871e-06
0.00101006 8.60045e-07 7.55251e-06
2.03871e-06 7.55251e-06 0.000611178
0.0110638 0.00135038 0.000161904
0.00135038 0.00168354 7.78244e-05
0.000161904 7.78244e-05 -8.58846e-05
0.00851775 -0.00227213 0.000181659
-0.00227213 0.0042419 -4.7829e-05
0.000181659 -4.7829e-05 0.00283839
0.00437301 0.00237776 0.000398903
0.00237776 -0.000252718 0.000219888
0.000398903 0.000219888 -0.00414292
0.000322294 0.000739773 -6.10078e-05
0.000739773 -3.3984e-05 -8.77344e-06
-6.10078e-05 -8.77344e-06 0.000300772
0.00328215 0.00157772 -0.00010389
0.00157772 -0.00028567 -3.49322e-05
-0.00010389 -3.49322e-05 -0.000283396
0.00508707 0.00138258 5.76279e-05
0.00138258 0.00106301 1.64564e-05
5.76279e-05 1.64564e-05 0.000913819
0.00344657 0.0010101 1.37518e-05
0.0010101 0.000965395 2.83133e-06
1.37518e-05 2.83133e-06 0.000748333
0.000573542 0.000526804 -1.56556e-05
0.000526804 -7.73838e-05 1.13995e-05
-1.56556e-05 1.13995e-05 -0.000312515
0.00481077 0.00146224 -0.000142468
0.00146224 0.000979965 -1.2295e-05
-0.000142468 -1.2295e-05 0.000710488
0.0030607 -0.000297236 -2.29347e-05
-0.000297236 0.000347778 7.2191e-06
-2.29347e-05 7.2191e-06 0.000382154
0.0103904 -0.000366603 -1.54173e-05
-0.000366603 0.00215123 5.01781e-06
-1.54173e-05 5.01781e-06 0.0016342
-0.0108416 -0.00125109 0.000444404
-0.00125109 -0.00569054 8.20161e-07
0.000444404 8.20161e-07 -0.00552468
0.000310859 -0.000728712 -5.34673e-05
-0.000728712 -0.000717787 4.84275e-06
-5.34673e-05 4.84275e-06 -0.000898444
0.0079515 -0.00151579 7.47057e-05
-0.00151579 0.000799695 5.87473e-05
7.47057e-05 5.87473e-05 0.00109979
0.00146722 -0.000301238 -0.000109428
-0.000301238 -0.00275658 5.40152e-05
-0.000109428 5.40152e-05 -0.00467354
0.0018288 -0.000580615 1.18353e-05
-0.000580615 -0.000180219 2.4187e-06
1.18353e-05 2.4187e-06 -0.000281103
0.00385941 -0.000310738 -1.74739e-05
-0.000310738 -0.00019523 2.04596e-06
-1.74739e-05 2.04596e-06 1.81212e-05
0.0046795 -0.00055358 3.25579e-05
-0.00055358 0.0010474 -1.43908e-05
3.25579e-05 -1.43908e-05 0.00120134
0.0038765 -0.000180424 7.36573e-05
-0.000180424 0.000848546 4.21067e-06
7.36573e-05 4.21067e-06 0.000796853
-0.00123001 -0.000381538 -5.83649e-06
-0.000381538 -0.00168512 1.21696e-05
-5.83649e-06 1.21696e-05 -0.00163724
0.00189369 -0.000473163 -1.52539e-06
-0.000473163 -0.000158662 8.19601e-08
-1.52539e-06 8.19601e-08 -9.43812e-05
0.0019474 -0.000343715 1.69586e-05
-0.000343715 -0.000233121 -3.78559e-06
1.69586e-05 -3.78559e-06 -7.24073e-05
0.00152667 -0.000524974 -1.75839e-06
-0.000524974 -0.000195774 4.5857e-06
-1.75839e-06 4.5857e-06 -0.000348381
0.00211352 -0.000447766 1.59329e-06
-0.000447766 3.95929e-06 7.1168e-07
1.59329e-06 7.1168e-07 -4.71532e-05
0.00205676 -0.000377857 1.27709e-06
-0.000377857 3.6976e-05 1.13156e-06
1.27709e-06 1.13156e-06 1.80348e-05
0.00191164 -0.000421378 3.19559e-07
-0.000421378 3.92007e-05 3.55609e-06
3.19559e-07 3.55609e-06 -8.53777e-05
0.00196067 -0.000388834 3.9611e-07
-0.000388834 8.24177e-05 2.90515e-07
3.9611e-07 2.90515e-07 -5.92644e-06
0.00196108 -0.000350112 -2.98877e-06
-0.000350112 8.17629e-05 1.39143e-06
-2.98877e-06 1.39143e-06 -3.38316e-08
0.00181652 -0.000361414 4.15594e-06
-0.000361414 5.32727e-05 2.95507e-06
4.15594e-06 2.95507e-06 -7.31248e-05
0.00189456 -0.00036878 -1.91776e-08
-0.00036878 0.000122398 1.25434e-07
-1.91776e-08 1.25434e-07 4.7806e-06
0.00182409 -0.000339057 1.59434e-06
-0.000339057 0.000113877 -7.56536e-07
1.59434e-06 -7.56536e-07 -6.58925e-06
0.00179407 -0.000334167 -9.2121e-07
-0.000334167 0.000101548 5.15781e-06
-9.2121e-07 5.15781e-06 -2.01587e-05
0.00194743 -0.000338019 -2.22847e-06
-0.000338019 0.000225369 3.63035e-07
-2.22847e-06 3.63035e-07 9.22448e-05
0.00192969 -0.000341463 2.70702e-07
-0.000341463 0.000232374 -1.99512e-06
2.70702e-07 -1.99512e-06 7.21822e-05
0.00185153 -0.000355105 3.46785e-06
-0.000355105 0.000174783 3.69954e-06
3.46785e-06 3.69954e-06 5.85022e-06
0.00180747 -0.000367077 2.95531e-07
-0.000367077 0.000171363 -4.81693e-07
2.95531e-07 -4.81693e-07 -1.88865e-05
0.00181984 -0.000349986 -1.5405e-06
-0.000349986 0.000243167 -2.1187e-06
-1.5405e-06 -2.1187e-06 4.07298e-05
0.0013265 -0.000304709 -8.90886e-06
-0.000304709 0.000109154 1.35084e-06
-8.90886e-06 1.35084e-06 -0.000110617
0.00172334 -0.000394525 -9.37481e-07
-0.000394525 0.00023535 -5.61376e-07
-9.37481e-07 -5.61376e-07 -3.70347e-06
0.00186405 -0.000434181 4.10712e-06
-0.000434181 0.000246709 1.55213e-06
4.10712e-06 1.55213e-06 8.56454e-06
0.000881919 -0.000199692 -1.17084e-05
-0.000199692 1.87233e-05 6.41286e-06
-1.17084e-05 6.41286e-06 -0.000159547
0.00122266 -0.000304738 4.79425e-07
-0.000304738 0.000121777 4.24307e-07
4.79425e-07 4.24307e-07 -0.000108511
0.00140796 -0.000401971 2.59313e-06
-0.000401971 0.000157963 3.86635e-07
2.59313e-06 3.86635e-07 -0.000110447
0.000432768 -0.000148791 -2.03016e-05
-0.000148791 -0.000129964 1.5892e-05
-2.03016e-05 1.5892e-05 -0.000223197
0.000823732 -0.000194146 6.03012e-07
-0.000194146 4.47782e-05 2.98682e-07
6.03012e-07 2.98682e-07 -0.000138057
0.00101257 -0.000275972 6.37483e-06
-0.000275972 6.53096e-05 -2.57562e-06
6.37483e-06 -2.57562e-06 -0.000161966
0.00516591 0.000179104 -0.000149564
0.000179104 0.00284213 8.34098e-06
-0.000149564 8.34098e-06 0.00282472
0.000540001 -0.000137512 -1.41421e-06
-0.000137512 -4.36936e-05 -2.45089e-07
-1.41421e-06 -2.45089e-07 -0.000129304
0.000698939 -0.000202315 7.39967e-06
-0.000202315 4.37482e-05 -4.89438e-06
7.39967e-06 -4.89438e-06 -0.000142545
0.0045034 0.000152932 1.25394e-05
0.000152932 0.00244067 7.54816e-07
1.25394e-05 7.54816e-07 0.00242962
0.000654568 -8.94919e-05 1.67189e-05
-8.94919e-05 5.38358e-05 -1.33994e-05
1.67189e-05 -1.33994e-05 -1.88518e-05
0.00384951 0.00011043 0.000129786
0.00011043 0.00203242 -7.30424e-06
0.000129786 -7.30424e-06 0.00203333
0.000670677 0.000289585 -4.29066e-06
0.000289585 -0.00013658 -3.05108e-06
-4.29066e-06 -3.05108e-06 -0.000393293
0.00144242 0.000322951 -2.50158e-08
0.000322951 0.00041705 -1.74911e-07
-2.50158e-08 -1.74911e-07 0.000177211
0.000240414 0.000153263 4.73508e-07
0.000153263 -0.000258075 -4.32705e-06
4.73508e-07 -4.32705e-06 -0.000450192
0.000592188 0.000188579 -5.16921e-06
0.000188579 1.13953e-05 -1.07579e-06
-5.16921e-06 -1.07579e-06 -0.000154755
0.000129183 9.14287e-05 1.07226e-06
9.14287e-05 -0.000241627 -7.44833e-07
1.07226e-06 -7.44833e-07 -0.00040202
0.0010578 0.000159902 -2.53339e-06
0.000159902 0.000329134 -6.32272e-06
-2.53339e-06 -6.32272e-06 0.000172419
0.000117872 2.14738e-05 -8.43855e-07
2.14738e-05 -0.000239858 3.9586e-07
-8.43855e-07 3.9586e-07 -0.000379877
0.000680922 5.19483e-05 -2.44519e-08
5.19483e-05 8.83248e-05 -2.62854e-07
-2.44519e-08 -2.62854e-07 -2.79849e-05
0.000592209 3.75611e-06 -5.92904e-06
3.75611e-06 2.81921e-05 -1.13528e-05
-5.92904e-06 -1.13528e-05 -2.16782e-05
0.000573869 1.56334e-05 -3.37314e-07
1.56334e-05 3.29296e-05 6.47207e-06
-3.37314e-07 6.47207e-06 -6.98676e-05
0.000495624 -2.6245e-06 2.72552e-07
-2.6245e-06 -2.98235e-05 -1.83021e-07
2.72552e-07 -1.83021e-07 -7.17956e-05
0.00318992 -0.000125161 -7.86963e-05
-0.000125161 0.0016279 -3.92282e-06
-7.86963e-05 -3.92282e-06 0.0016267
0.00290616 -0.000116535 -5.82494e-06
-0.000116535 0.00144597 5.49938e-07
-5.82494e-06 5.49938e-07 0.00144688
0.000434421 3.24356e-06 3.69674e-06
3.24356e-06 -7.17239e-05 8.30321e-06
3.69674e-06 8.30321e-06 -0.000106105
0.00269981 -0.000100114 4.10149e-05
-0.000100114 0.00131116 4.11078e-06
4.10149e-05 4.11078e-06 0.00131582
0.00396621 9.7764e-05 6.50719e-05
9.7764e-05 -0.000544605 1.89147e-05
6.50719e-05 1.89147e-05 0.000150313
0.00375786 -0.000710749 9.88661e-05
-0.000710749 -0.00290905 4.73883e-05
9.88661e-05 4.73883e-05 -0.00405643
0.00920594 -0.00158416 -0.000133713
-0.00158416 0.00338819 -7.07942e-05
-0.000133713 -7.07942e-05 0.00338619
0.00111565 0.000416934 8.44155e-06
0.000416934 -4.23132e-05 6.06001e-06
8.44155e-06 6.06001e-06 -0.000322723
0.0024361 0.000400244 -4.06463e-06
0.000400244 0.00117106 4.30007e-06
-4.06463e-06 4.30007e-06 0.000913565
0.0018436 0.00040431 -5.40281e-06
0.00040431 0.00071476 4.99552e-06
-5.40281e-06 4.99552e-06 0.000434818
0.000882183 0.000348033 2.70285e-06
0.000348033 0.00013811 2.17053e-06
2.70285e-06 2.17053e-06 -0.000120622
0.00126952 0.000398087 -2.00728e-06
0.000398087 0.000216119 6.56064e-07
-2.00728e-06 6.56064e-07 -9.03945e-05
0.00123449 0.000476494 1.47173e-05
0.000476494 0.000146383 1.04655e-05
1.47173e-05 1.04655e-05 -0.000124473
0.00121935 0.000419262 -1.80487e-05
0.000419262 0.000280771 -7.46405e-06
-1.80487e-05 -7.46405e-06 2.737e-06
0.000803033 0.000403055 6.39606e-06
0.000403055 5.63588e-05 -4.78397e-07
6.39606e-06 -4.78397e-07 -0.000114135
0.00118266 0.000484718 1.60474e-06
0.000484718 0.000120375 -1.54497e-06
1.60474e-06 -1.54497e-06 -0.00010461
0.00185458 0.000607375 3.42224e-06
0.000607375 0.000277553 4.99261e-06
3.42224e-06 4.99261e-06 0.000132253
0.00162544 0.000624493 8.05677e-06
0.000624493 7.98624e-05 -7.10681e-07
8.05677e-06 -7.10681e-07 -0.000147193
0.00169288 0.000590007 1.43575e-05
0.000590007 0.000132447 6.9158e-06
1.43575e-05 6.9158e-06 -2.78964e-05
0.001124 0.00061796 -3.90747e-06
0.00061796 -0.000138584 -3.96194e-06
-3.90747e-06 -3.96194e-06 -0.000335472
0.00056079 0.000517078 -7.155e-06
0.000517078 -0.000369008 -1.37122e-06
-7.155e-06 -1.37122e-06 -0.000514403
0.00159958 0.000541135 3.84736e-05
0.000541135 -0.000456873 3.38157e-05
3.84736e-05 3.38157e-05 -0.000346093
0.00563012 0.00106495 -7.23526e-05
0.00106495 -0.00050327 -1.90662e-05
-7.23526e-05 -1.90662e-05 0.000163288
0.00330567 0.000885201 0.000359157
0.000885201 -0.00267445 6.06512e-05
0.000359157 6.06512e-05 -0.00455329
0.000241774 0.00116441 -6.98845e-05
0.00116441 -0.00144851 -2.71613e-05
-6.98845e-05 -2.71613e-05 -0.00130722
0.00352515 0.00110746 -2.95502e-05
0.00110746 0.000585424 -5.91724e-06
-2.95502e-05 -5.91724e-06 0.000465707
0.00328236 0.000996534 -9.29945e-05
0.000996534 0.000843324 -2.74161e-05
-9.29945e-05 -2.74161e-05 0.000618837
0.00258532 -0.000233695 -3.48016e-05
-0.000233695 -9.38967e-05 -1.12559e-05
-3.48016e-05 -1.12559e-05 3.15885e-05
0.0004788 -0.000138461 3.42749e-05
-0.000138461 -0.000301284 8.51324e-06
3.42749e-05 8.51324e-06 -0.000204868
0.00152074 0.000821979 0.00012929
0.000821979 -0.0039849 -1.48563e-05
0.00012929 -1.48563e-05 -0.00421518
-0.000973215 -0.000369082 -2.67521e-05
-0.000369082 -0.00167975 3.40019e-05
-2.67521e-05 3.40019e-05 -0.00157984
0.00508642 -0.000302417 -8.32752e-05
-0.000302417 0.000505959 4.08372e-05
-8.32752e-05 4.08372e-05 0.000359102
0.00238793 -0.000407991 -2.34041e-05
-0.000407991 -0.000154185 8.41574e-06
-2.34041e-05 8.41574e-06 5.16819e-05
0.00362258 -0.000225965 2.36387e-06
-0.000225965 0.000639582 -4.26824e-06
2.36387e-06 -4.26824e-06 0.000606875
0.00185611 -0.000236162 3.98069e-05
-0.000236162 -0.000375503 -2.78955e-06
3.98069e-05 -2.78955e-06 -0.00013713
0.00337527 -6.84972e-05 3.00228e-05
-6.84972e-05 0.00100355 3.95845e-07
3.00228e-05 3.95845e-07 0.000966163
0.00090526 -0.000407311 -2.17114e-05
-0.000407311 -0.000685221 1.12943e-05
-2.17114e-05 1.12943e-05 -0.00058993
0.00189696 -0.000354284 -2.88286e-07
-0.000354284 -0.000283114 2.07725e-06
-2.88286e-07 2.07725e-06 -0.000131617
0.00213428 -0.000328721 2.27255e-06
-0.000328721 -0.000101092 -9.66687e-07
2.27255e-06 -9.66687e-07 1.63629e-05
0.00204542 -0.000442751 -2.53903e-06
-0.000442751 -2.4693e-05 1.42749e-06
-2.53903e-06 1.42749e-06 -7.60753e-05
0.0020524 -0.00037823 3.40822e-07
-0.00037823 3.82907e-05 -7.07504e-08
3.40822e-07 -7.07504e-08 1.7788e-05
0.00202478 -0.000318461 -2.03533e-06
-0.000318461 4.01535e-05 4.62651e-07
-2.03533e-06 4.62651e-07 6.35179e-06
0.00187097 -0.000378093 -4.01918e-07
-0.000378093 4.0813e-05 2.70429e-08
-4.01918e-07 2.70429e-08 -4.54052e-05
0.0019447 -0.000355539 -5.76107e-07
-0.000355539 7.80496e-05 1.09269e-07
-5.76107e-07 1.09269e-07 -5.86531e-06
0.00190358 -0.000313654 -1.13232e-06
-0.000313654 0.000110314 9.01781e-07
-1.13232e-06 9.01781e-07 8.12083e-06
0.00179938 -0.000362071 5.69877e-09
-0.000362071 7.9946e-05 1.14365e-07
5.69877e-09 1.14365e-07 -3.75288e-05
0.00179087 -0.000338281 9.90586e-07
-0.000338281 8.95742e-05 -6.86673e-07
9.90586e-07 -6.86673e-07 -3.13425e-05
0.00182564 -0.000321779 1.4097e-06
-0.000321779 0.000129303 -1.9264e-06
1.4097e-06 -1.9264e-06 -7.90815e-06
0.00192374 -0.000332719 -3.69818e-06
-0.000332719 0.000206192 4.31015e-06
-3.69818e-06 4.31015e-06 7.69004e-05
0.00197235 -0.000341321 -1.70077e-06
-0.000341321 0.000253946 4.74968e-07
-1.70077e-06 4.74968e-07 9.77651e-05
0.00185325 -0.000323488 -1.1452e-06
-0.000323488 0.000230926 -1.65023e-06
-1.1452e-06 -1.65023e-06 5.06318e-05
0.00186355 -0.00037243 2.50393e-06
-0.00037243 0.000206142 2.31051e-06
2.50393e-06 2.31051e-06 1.42457e-05
0.00181543 -0.000352022 7.80643e-07
-0.000352022 0.000241137 -5.75916e-07
7.80643e-07 -5.75916e-07 3.79608e-05
0.0014546 -0.000279226 -6.9361e-06
-0.000279226 0.000137517 1.27592e-06
-6.9361e-06 1.27592e-06 -6.33731e-05
0.000891856 -0.000192805 -1.30748e-05
-0.000192805 -1.68941e-05 6.5073e-06
-1.30748e-05 6.5073e-06 -0.000188293
0.00131738 -0.000302288 -1.31359e-06
-0.000302288 0.000109144 5.33744e-08
-1.31359e-06 5.33744e-08 -0.000110946
0.00171277 -0.000396371 2.87737e-06
-0.000396371 0.000230387 3.87483e-07
2.87737e-06 3.87483e-07 -1.13866e-05
0.000495493 -0.000196843 -2.25311e-05
-0.000196843 -9.49444e-05 1.65088e-05
-2.25311e-05 1.65088e-05 -0.000205143
0.000852642 -0.000199224 5.39373e-07
-0.000199224 4.35327e-07 1.1817e-07
5.39373e-07 1.1817e-07 -0.000178472
0.00121082 -0.00030523 7.2943e-06
-0.00030523 0.000110679 -1.73032e-06
7.2943e-06 -1.73032e-06 -0.00011983
0.00571758 0.000141302 -0.000187998
0.000141302 0.00315906 1.08928e-05
-0.000187998 1.08928e-05 0.00314852
0.000524127 -0.000192666 -1.12705e-06
-0.000192666 -7.13056e-05 3.5378e-07
-1.12705e-06 3.5378e-07 -0.000172512
0.000787317 -0.000195928 1.03818e-05
-0.000195928 2.5849e-05 -6.07992e-06
1.03818e-05 -6.07992e-06 -0.000158299
0.00537116 0.000144884 2.86324e-06
0.000144884 0.00295916 2.86549e-07
2.86324e-06 2.86549e-07 0.00294724
0.00064214 -0.000156977 2.13119e-05
-0.000156977 1.92425e-05 -1.58869e-05
2.13119e-05 -1.58869e-05 -7.22309e-05
0.00487764 0.000119753 0.000168741
0.000119753 0.00265974 -1.25563e-05
0.000168741 -1.25563e-05 0.00265404
0.00117301 0.000360243 -2.90643e-06
0.000360243 7.3667e-05 2.37763e-06
-2.90643e-06 2.37763e-06 -0.000194712
0.00132028 0.000354396 -3.12024e-06
0.000354396 0.000252866 -1.13492e-06
-3.12024e-06 -1.13492e-06 -1.65358e-05
0.00112227 0.000272602 -5.95314e-06
0.000272602 0.000172568 -2.20687e-06
-5.95314e-06 -2.20687e-06 -5.29893e-05
0.00277687 0.000449126 -1.81501e-06
0.000449126 0.00123634 3.77271e-06
-1.81501e-06 3.77271e-06 0.000974018
0.000842061 0.000211814 -1.8455e-06
0.000211814 0.00011354 -1.50725e-06
-1.8455e-06 -1.50725e-06 -9.22494e-05
0.00108256 0.000199755 -4.67519e-06
0.000199755 0.000323814 -4.57534e-06
-4.67519e-06 -4.57534e-06 0.000140132
0.000164993 9.41518e-05 -2.325e-06
9.41518e-05 -0.000227096 -6.91245e-07
-2.325e-06 -6.91245e-07 -0.000391053
0.000653771 8.9166e-05 -4.2792e-07
8.9166e-05 7.17484e-05 -3.73852e-07
-4.2792e-07 -3.73852e-07 -6.97018e-05
0.000674792 3.15515e-05 -9.906e-06
3.15515e-05 7.24638e-05 -1.2662e-05
-9.906e-06 -1.2662e-05 1.24215e-05
0.000487775 2.55154e-05 3.14641e-07
2.55154e-05 -2.72874e-05 7.24339e-06
3.14641e-07 7.24339e-06 -0.000140658
0.000501534 -6.16794e-07 2.85387e-07
-6.16794e-07 -2.44613e-05 -1.69262e-07
2.85387e-07 -1.69262e-07 -7.39942e-05
0.00357372 -0.000135898 -0.000100795
-0.000135898 0.00187078 -4.21021e-06
-0.000100795 -4.21021e-06 0.00186653
0.00037532 3.11509e-07 4.13395e-06
3.11509e-07 -0.000100861 9.77399e-06
4.13395e-06 9.77399e-06 -0.000142244
0.00315695 -0.000133273 -5.3603e-06
-0.000133273 0.00160865 5.42478e-07
-5.3603e-06 5.42478e-07 0.00160521
0.00289018 -0.000117988 5.05361e-05
-0.000117988 0.00143596 3.86935e-06
5.05361e-05 3.86935e-06 0.00143634
0.000482979 8.09184e-05 1.08294e-05
8.09184e-05 -0.00123386 1.2753e-05
1.08294e-05 1.2753e-05 -0.000958941
0.00521233 3.70081e-05 5.87091e-05
3.70081e-05 0.000148851 3.01436e-06
5.87091e-05 3.01436e-06 0.000719085
0.0119486 0.000744174 -6.50585e-05
0.000744174 0.00290431 -1.75467e-05
-6.50585e-05 -1.75467e-05 0.00205851
0.00181102 0.000543463 4.29838e-06
0.000543463 0.00032458 3.2224e-06
4.29838e-06 3.2224e-06 4.76769e-05
0.001897 0.000529756 2.47456e-06
0.000529756 0.000275026 2.43708e-06
2.47456e-06 2.43708e-06 1.7653e-05
0.00120191 0.000430105 8.11017e-07
0.000430105 2.14154e-05 -3.03301e-06
8.11017e-07 -3.03301e-06 -0.000258955
0.00173576 0.000444072 -5.1721e-06
0.000444072 0.000633764 4.46095e-06
-5.1721e-06 4.46095e-06 0.000356245
0.0016482 0.000433393 -3.84135e-06
0.000433393 0.000463545 -3.48877e-06
-3.84135e-06 -3.48877e-06 0.000144684
0.00157625 0.000512352 7.47203e-06
0.000512352 0.000322995 2.11141e-06
7.47203e-06 2.11141e-06 5.05088e-05
0.00173982 0.000588538 -6.33419e-08
0.000588538 0.000109495 -2.39116e-06
-6.33419e-08 -2.39116e-06 -0.000132579
0.00208441 0.000581286 -1.35049e-05
0.000581286 0.000611275 -2.48277e-07
-1.35049e-05 -2.48277e-07 0.000368365
0.00131636 0.000554609 3.20321e-06
0.000554609 -3.95078e-05 1.52112e-05
3.20321e-06 1.52112e-05 -0.00015531
0.00239566 0.000692315 -1.82249e-06
0.000692315 0.000509195 1.31795e-06
-1.82249e-06 1.31795e-06 0.000273311
0.00225518 0.000607535 -7.67405e-06
0.000607535 0.000288547 -4.19384e-07
-7.67405e-06 -4.19384e-07 9.57246e-05
0.000830409 0.000310964 1.92379e-05
0.000310964 -0.000465914 1.19877e-05
1.92379e-05 1.19877e-05 -0.000486538
0.000953543 0.000526688 1.07842e-05
0.000526688 -0.000239739 -8.23761e-07
1.07842e-05 -8.23761e-07 -0.000394746
0.00120307 0.00062015 -2.01826e-05
0.00062015 -0.000103719 -4.35125e-06
-2.01826e-05 -4.35125e-06 -0.000300521
0.00246276 0.000585768 4.55114e-06
0.000585768 -8.90986e-06 8.73284e-06
4.55114e-06 8.73284e-06 3.75342e-05
0.00505482 0.00070712 2.44379e-06
0.00070712 -0.000724652 -2.17194e-05
2.44379e-06 -2.17194e-05 -0.00049289
0.00333689 0.000940061 -8.40232e-06
0.000940061 0.000797442 -3.39519e-05
-8.40232e-06 -3.39519e-05 0.000711958
0.00150495 -5.30265e-05 2.65099e-05
-5.30265e-05 -0.000118719 -4.7743e-07
2.65099e-05 -4.7743e-07 -8.08764e-05
0.00229343 -0.000167527 -3.62977e-05
-0.000167527 -0.000178571 1.02929e-06
-3.62977e-05 1.02929e-06 -8.8231e-05
0.00178112 0.000248604 1.80154e-05
0.000248604 -0.000598121 -1.1111e-05
1.80154e-05 -1.1111e-05 -0.000580642
9.59196e-05 -0.00028262 -3.80919e-05
-0.00028262 -0.00136079 2.8588e-05
-3.80919e-05 2.8588e-05 -0.0011339
0.00364631 -0.000302528 -0.00010154
-0.000302528 0.000556866 -3.38775e-06
-0.00010154 -3.38775e-06 0.000581903
0.00209892 -0.000263659 5.84691e-06
-0.000263659 -0.000158901 -3.43406e-06
5.84691e-06 -3.43406e-06 5.21499e-05
0.00242958 -7.28997e-05 -9.1327e-06
-7.28997e-05 0.000399867 4.34087e-07
-9.1327e-06 4.34087e-07 0.000371107
0.00216981 -0.000208944 5.75288e-06
-0.000208944 -1.03734e-05 2.97963e-07
5.75288e-06 2.97963e-07 3.66579e-05
0.00210046 -1.85915e-05 6.9332e-06
-1.85915e-05 -5.51135e-06 1.2587e-06
6.9332e-06 1.2587e-06 -6.25057e-06
0.00189187 -0.000372429 -1.02466e-05
-0.000372429 -0.000318218 3.54602e-06
-1.02466e-05 3.54602e-06 -0.000174724
0.00215672 -0.000331864 -2.08938e-06
-0.000331864 -7.44948e-05 2.89925e-07
-2.08938e-06 2.89925e-07 1.9717e-05
0.00210426 -0.000242992 -1.15423e-06
-0.000242992 -1.60878e-05 -4.075e-07
-1.15423e-06 -4.075e-07 -2.88813e-07
0.00205289 -0.000380008 -2.70326e-06
-0.000380008 4.06698e-05 -7.28657e-07
-2.70326e-06 -7.28657e-07 1.75222e-05
0.00202669 -0.000315393 -6.52308e-08
-0.000315393 5.26472e-05 8.8094e-08
-6.52308e-08 8.8094e-08 1.38694e-05
0.00195975 -0.000274359 -1.98246e-06
-0.000274359 5.68297e-05 6.5701e-07
-1.98246e-06 6.5701e-07 -1.07756e-05
0.00193138 -0.000361312 -6.02238e-08
-0.000361312 7.61567e-05 -1.72909e-06
-6.02238e-08 -1.72909e-06 -1.0051e-05
0.00185095 -0.000309618 5.82126e-07
-0.000309618 7.6614e-05 -1.79149e-07
5.82126e-07 -1.79149e-07 -2.58677e-05
0.00184671 -0.000285766 2.37489e-07
-0.000285766 9.95494e-05 -5.73735e-07
2.37489e-07 -5.73735e-07 -1.53848e-05
0.00176395 -0.000337854 2.80397e-07
-0.000337854 6.92108e-05 -5.67837e-07
2.80397e-07 -5.67837e-07 -5.21575e-05
0.0018535 -0.000322844 1.03332e-07
-0.000322844 0.000146524 -4.13943e-07
1.03332e-07 -4.13943e-07 9.0682e-06
0.00178593 -0.000295969 -3.76757e-07
-0.000295969 0.000152643 -1.4314e-06
-3.76757e-07 -1.4314e-06 -9.35929e-06
0.00200895 -0.000340944 -2.00816e-06
-0.000340944 0.000271401 3.75247e-06
-2.00816e-06 3.75247e-06 0.000119261
0.00185468 -0.000323974 -5.95061e-07
-0.000323974 0.000232652 -1.36328e-07
-5.95061e-07 -1.36328e-07 5.34422e-05
0.00145171 -0.000253969 -5.90324e-06
-0.000253969 0.000104323 1.09052e-06
-5.90324e-06 1.09052e-06 -8.30325e-05
0.00181531 -0.00035423 3.55486e-06
-0.00035423 0.000241684 1.06907e-06
3.55486e-06 1.06907e-06 3.77569e-05
0.00147299 -0.000281558 -3.49474e-07
-0.000281558 0.00014929 -1.49333e-08
-3.49474e-07 -1.49333e-08 -5.12757e-05
0.000942642 -0.000180445 -1.4008e-05
-0.000180445 -1.69488e-05 6.26151e-06
-1.4008e-05 6.26151e-06 -0.000180818
0.000412908 -0.000178275 -2.01945e-05
-0.000178275 -0.000155566 1.53567e-05
-2.01945e-05 1.53567e-05 -0.000264159
0.000923384 -0.000195939 1.90338e-07
-0.000195939 -8.36414e-07 6.99524e-08
1.90338e-07 6.99524e-08 -0.000172999
0.00131423 -0.000300269 5.71333e-06
-0.000300269 0.000112598 -1.30462e-06
5.71333e-06 -1.30462e-06 -0.000107878
0.00599354 6.69842e-05 -0.000217117
6.69842e-05 0.00330306 1.27146e-05
-0.000217117 1.27146e-05 0.00330381
0.000501016 -0.000192495 -1.54786e-06
-0.000192495 -9.89323e-05 9.40517e-07
-1.54786e-06 9.40517e-07 -0.000205126
0.000852632 -0.000200606 1.19832e-05
-0.000200606 4.62246e-07 -6.09306e-06
1.19832e-05 -6.09306e-06 -0.000179326
0.0058333 0.000117214 -1.12358e-06
0.000117214 0.00322714 -9.18042e-08
-1.12358e-06 -9.18042e-08 0.00321778
0.000604439 -0.000195649 2.40542e-05
-0.000195649 -2.68382e-05 -1.64161e-05
2.40542e-05 -1.64161e-05 -0.000129263
0.00554061 0.000137924 0.000185994
0.000137924 0.00306487 -1.59022e-05
0.000185994 -1.59022e-05 0.00305044
0.00154728 0.000436537 -1.5722e-06
0.000436537 0.000183399 3.20103e-06
-1.5722e-06 3.20103e-06 -7.5982e-05
0.00132357 0.000381348 1.63012e-07
0.000381348 0.000161212 7.91512e-07
1.63012e-07 7.91512e-07 -0.000110562
0.00122702 0.000298229 -7.83176e-06
0.000298229 0.000145659 -1.66878e-06
-7.83176e-06 -1.66878e-06 -8.28965e-05
0.00177984 0.00040024 9.5831e-07
0.00040024 0.000528274 2.35336e-06
9.5831e-07 2.35336e-06 0.000249853
0.00104275 0.000261145 -1.75592e-06
0.000261145 0.000126123 2.20186e-07
-1.75592e-06 2.20186e-07 -9.52008e-05
0.000880018 0.00020975 -9.05824e-06
0.00020975 0.000134163 -3.9429e-06
-9.05824e-06 -3.9429e-06 -5.42963e-05
0.00114492 0.000241306 -2.20286e-06
0.000241306 0.000301175 -1.18665e-07
-2.20286e-06 -1.18665e-07 8.7866e-05
0.000744814 0.000168293 1.57781e-07
0.000168293 0.00012699 2.65685e-07
1.57781e-07 2.65685e-07 -5.43927e-05
0.000697211 9.75202e-05 -1.75418e-05
9.75202e-05 7.30462e-05 -1.49507e-05
-1.75418e-05 -1.49507e-05 -5.6526e-06
0.000428996 4.1574e-05 6.01597e-07
4.1574e-05 -6.90036e-05 5.68736e-06
6.01597e-07 5.68736e-06 -0.000201214
0.00049615 2.15257e-05 -7.4433e-07
2.15257e-05 -3.14282e-05 -5.61432e-07
-7.4433e-07 -5.61432e-07 -8.98005e-05
0.0040862 -0.000138704 -0.000130583
-0.000138704 0.0021884 -6.56088e-06
-0.000130583 -6.56088e-06 0.00218157
0.000401008 -2.99225e-07 5.01954e-06
-2.99225e-07 -8.35432e-05 1.10239e-05
5.01954e-06 1.10239e-05 -0.000132367
0.00342487 -0.000148116 -5.34386e-06
-0.000148116 0.00178211 5.24918e-07
-5.34386e-06 5.24918e-07 0.00177432
0.00308614 -0.000136303 6.08937e-05
-0.000136303 0.00156582 3.67896e-06
6.08937e-05 3.67896e-06 0.00156125
0.00067795 9.10044e-05 2.11839e-05
9.10044e-05 -0.000607967 1.23652e-05
2.11839e-05 1.23652e-05 -0.000497307
0.00224628 7.84688e-05 -9.54802e-06
7.84688e-05 -0.000516671 -2.70584e-06
-9.54802e-06 -2.70584e-06 -0.000217659
0.00396493 0.000117908 0.000163136
0.000117908 -0.00101025 4.42306e-05
0.000163136 4.42306e-05 1.66954e-05
0.00245155 0.000596677 -3.67275e-06
0.000596677 0.000523005 -3.33944e-07
-3.67275e-06 -3.33944e-07 0.00027546
0.00167713 0.000550759 -4.00826e-06
0.000550759 0.000230781 -4.14167e-06
-4.00826e-06 -4.14167e-06 -4.28138e-05
0.00201836 0.000449271 -7.57623e-07
0.000449271 0.000203448 3.59365e-06
-7.57623e-07 3.59365e-06 2.74136e-06
0.00187725 0.000520171 9.52229e-07
0.000520171 0.00026125 2.94773e-07
9.52229e-07 2.94773e-07 6.45205e-06
0.00128676 0.00044315 2.97611e-07
0.00044315 8.20365e-05 -9.03762e-06
2.97611e-07 -9.03762e-06 -0.000198243
0.00181863 0.000464965 -9.22179e-07
0.000464965 2.13221e-05 1.07214e-06
-9.22179e-07 1.07214e-06 -0.000159786
0.00206636 0.000564664 -6.41933e-06
0.000564664 0.000587882 -2.62457e-06
-6.41933e-06 -2.62457e-06 0.000310305
0.00200509 0.000601986 1.41291e-07
0.000601986 0.000279324 -2.48847e-07
1.41291e-07 -2.48847e-07 3.38615e-05
0.00190055 0.000350028 -7.78474e-06
0.000350028 -5.49309e-05 -4.53418e-07
-7.78474e-06 -4.53418e-07 -0.000132085
0.00288599 0.00073814 -1.48703e-06
0.00073814 0.000777749 4.43366e-06
-1.48703e-06 4.43366e-06 0.00053945
0.00211507 0.000600941 -1.30083e-06
0.000600941 0.000201982 -1.24116e-07
-1.30083e-06 -1.24116e-07 7.03342e-06
0.000853983 0.00031686 5.42947e-06
0.00031686 -0.000415381 3.39902e-06
5.42947e-06 3.39902e-06 -0.000443652
-0.000491652 0.000412777 -1.25564e-05
0.000412777 -0.000984132 -2.29837e-06
-1.25564e-05 -2.29837e-06 -0.00112358
0.00266055 0.000613173 -7.47428e-05
0.000613173 7.58223e-05 -2.70814e-05
-7.47428e-05 -2.70814e-05 6.81342e-05
0.00196211 5.20504e-05 -8.623e-07
5.20504e-05 -0.000113569 -6.86356e-07
-8.623e-07 -6.86356e-07 -7.87673e-05
0.0022869 -5.01121e-05 2.73793e-06
-5.01121e-05 0.000383503 7.90972e-07
2.73793e-06 7.90972e-07 0.000416025
0.00178397 -0.000125181 -6.0957e-05
-0.000125181 -0.000336001 1.25179e-06
-6.0957e-05 1.25179e-06 -0.00037069
0.0023355 -0.00029019 -4.52629e-05
-0.00029019 4.97027e-05 3.55848e-06
-4.52629e-05 3.55848e-06 0.000228068
0.00151021 -8.85657e-05 -1.02364e-05
-8.85657e-05 -0.000184756 9.71002e-07
-1.02364e-05 9.71002e-07 -0.000203878
0.00210574 -0.000204705 -3.16137e-08
-0.000204705 -5.29706e-05 -1.06863e-06
-3.16137e-08 -1.06863e-06 8.90824e-06
0.00215031 -1.98649e-05 -1.52591e-06
-1.98649e-05 -6.94129e-07 1.32075e-06
-1.52591e-06 1.32075e-06 5.43681e-06
0.00216625 -7.24883e-05 -1.32298e-06
-7.24883e-05 3.92166e-06 -3.60612e-07
-1.32298e-06 -3.60612e-07 2.5773e-05
0.00216591 -0.000331696 -4.18235e-06
-0.000331696 -5.08971e-05 5.68461e-07
-4.18235e-06 5.68461e-07 2.10958e-05
0.00208238 -0.000234021 4.27168e-07
-0.000234021 -1.52076e-05 -1.67221e-07
4.27168e-07 -1.67221e-07 -2.81172e-06
0.00201885 -0.000186879 -1.83407e-06
-0.000186879 1.20929e-05 2.21928e-07
-1.83407e-06 2.21928e-07 -2.94198e-06
0.00202786 -0.000312378 1.17369e-06
-0.000312378 6.39183e-05 -9.20709e-07
1.17369e-06 -9.20709e-07 2.10934e-05
0.00193925 -0.000270486 2.26353e-07
-0.000270486 5.14925e-05 4.12009e-08
2.26353e-07 4.12009e-08 -1.72316e-05
0.00190217 -0.000228384 -8.46913e-07
-0.000228384 9.00077e-05 -6.29198e-08
-8.46913e-07 -6.29198e-08 1.89448e-07
0.00179055 -0.000305269 1.82515e-06
-0.000305269 3.73585e-05 -1.06092e-06
1.82515e-06 -1.06092e-06 -6.5393e-05
0.00187409 -0.000286648 1.79972e-07
-0.000286648 0.000114504 -1.87754e-07
1.79972e-07 -1.87754e-07 -6.70362e-07
0.0018246 -0.00026047 1.63335e-07
-0.00026047 0.000131472 -1.26866e-06
1.63335e-07 -1.26866e-06 -8.95726e-06
0.0018794 -0.000323829 -4.9373e-07
-0.000323829 0.00016263 9.28945e-07
-4.9373e-07 9.28945e-07 2.49323e-05
0.00181532 -0.000297078 -3.30002e-07
-0.000297078 0.000171363 -4.13448e-08
-3.30002e-07 -4.13448e-08 9.49541e-06
0.00150187 -0.000231445 -4.10105e-06
-0.000231445 0.000102041 7.21813e-07
-4.10105e-06 7.21813e-07 -7.28721e-05
0.00185614 -0.000324356 5.63914e-07
-0.000324356 0.000234275 1.51482e-06
5.63914e-07 1.51482e-06 5.61857e-05
0.00148006 -0.000255577 -3.17965e-07
-0.000255577 0.000120648 8.4631e-08
-3.17965e-07 8.4631e-08 -6.64175e-05
0.000958856 -0.000162272 -1.42452e-05
-0.000162272 -2.57111e-05 5.68412e-06
-1.42452e-05 5.68412e-06 -0.000183033
0.00148787 -0.000283695 5.98567e-06
-0.000283695 0.000158946 -9.37109e-07
5.98567e-06 -9.37109e-07 -4.12741e-05
0.000965451 -0.000180942 1.81524e-07
-0.000180942 -5.61389e-06 8.84503e-08
1.81524e-07 8.84503e-08 -0.000169257
0.00254052 -0.000140539 -3.74444e-05
-0.000140539 0.00112099 9.7872e-06
-3.74444e-05 9.7872e-06 0.00103425
0.00185739 -6.71614e-05 -0.000208061
-6.71614e-05 0.000778465 2.50859e-05
-0.000208061 2.50859e-05 0.000760543
0.00155423 -0.000171375 -8.51456e-06
-0.000171375 0.000531465 -3.8084e-07
-8.51456e-06 -3.8084e-07 0.000430864
0.000947328 -0.000198486 1.29718e-05
-0.000198486 1.09877e-05 -6.08124e-06
1.29718e-05 -6.08124e-06 -0.000161882
0.006059 4.99441e-05 -6.76813e-06
4.99441e-05 0.00334946 6.40345e-08
-6.76813e-06 6.40345e-08 0.00334689
0.000537136 -0.0002186 2.46845e-05
-0.0002186 -7.86047e-05 -1.60003e-05
2.46845e-05 -1.60003e-05 -0.000186742
0.00593117 9.62589e-05 0.000210624
9.62589e-05 0.00329111 -1.86947e-05
0.000210624 -1.86947e-05 0.00327951
0.00200787 0.000347322 -3.01166e-09
0.000347322 0.000170116 4.86066e-07
-3.01166e-09 4.86066e-07 9.95937e-06
0.00183253 0.00043118 1.752e-06
0.00043118 0.000229648 3.9328e-06
1.752e-06 3.9328e-06 3.73272e-06
0.0017985 0.000460044 8.3186e-08
0.000460044 0.000324645 2.13935e-07
8.3186e-08 2.13935e-07 6.3381e-05
0.00127937 0.000318576 -6.80697e-06
0.000318576 0.000116358 -8.40482e-07
-6.80697e-06 -8.40482e-07 -0.000110613
0.00147188 0.000403664 4.81255e-06
0.000403664 0.000245508 7.17595e-08
4.81255e-06 7.17595e-08 -3.0142e-05
0.00116955 0.000289458 -4.67453e-07
0.000289458 0.000114539 3.31225e-07
-4.67453e-07 3.31225e-07 -0.00011194
0.000811384 0.000193679 -1.12539e-05
0.000193679 6.04559e-06 -5.48507e-06
-1.12539e-05 -5.48507e-06 -0.000170049
0.00112217 0.0002654 4.54749e-06
0.0002654 0.000175445 3.51101e-06
4.54749e-06 3.51101e-06 -4.45212e-05
0.00076803 0.000193411 2.14823e-07
0.000193411 6.25009e-05 9.90547e-07
2.14823e-07 9.90547e-07 -0.000124142
0.000627742 0.000184867 -2.39849e-05
0.000184867 1.25073e-05 -1.6325e-05
-2.39849e-05 -1.6325e-05 -8.64629e-05
0.000433515 0.000135621 1.62515e-06
0.000135621 -5.95239e-05 3.70563e-06
1.62515e-06 3.70563e-06 -0.000237181
0.000559757 8.67434e-05 -1.81765e-06
8.67434e-05 -7.79403e-06 -5.86737e-07
-1.81765e-06 -5.86737e-07 -8.22113e-05
0.00495087 -0.000137534 -0.000171406
-0.000137534 0.00271877 -1.20721e-05
-0.000171406 -1.20721e-05 0.00270602
0.000339818 1.16233e-05 6.6182e-06
1.16233e-05 -0.000120441 1.23213e-05
6.6182e-06 1.23213e-05 -0.000178754
0.00390396 -0.000165674 -6.96106e-06
-0.000165674 0.00208426 5.52194e-07
-6.96106e-06 5.52194e-07 0.00207091
0.00336306 -0.000155275 7.44225e-05
-0.000155275 0.00174519 3.48372e-06
7.44225e-05 3.48372e-06 0.0017354
0.00207079 0.000180093 -2.4228e-06
0.000180093 -6.10352e-05 -3.09741e-07
-2.4228e-06 -3.09741e-07 -3.35126e-05
0.00196784 6.52652e-05 2.15079e-05
6.52652e-05 6.22362e-05 -2.51104e-06
2.15079e-05 -2.51104e-06 0.000161808
0.00461633 0.00011357 -0.00010578
0.00011357 0.000491921 -1.4634e-05
-0.00010578 -1.4634e-05 0.000841787
0.00187725 0.000400918 -4.22246e-06
0.000400918 7.1731e-05 1.25608e-06
-4.22246e-06 1.25608e-06 -9.44405e-05
0.00203657 0.000555718 -2.94938e-06
0.000555718 0.000299745 -1.46006e-07
-2.94938e-06 -1.46006e-07 5.72993e-05
0.00157079 0.000560001 -8.73076e-06
0.000560001 0.000154418 -7.97144e-06
-8.73076e-06 -7.97144e-06 -0.000115693
0.00212149 0.000443107 2.95281e-06
0.000443107 0.000281609 1.18833e-06
2.95281e-06 1.18833e-06 8.34879e-05
0.00184033 0.00051008 -1.31511e-06
0.00051008 0.000238206 -3.51739e-06
-1.31511e-06 -3.51739e-06 -1.41518e-05
0.00223054 0.000337586 -9.15654e-07
0.000337586 0.000143795 1.38524e-07
-9.15654e-07 1.38524e-07 5.44432e-05
0.001743 0.000460135 3.49645e-08
0.000460135 3.69473e-06 8.85497e-07
3.49645e-08 8.85497e-07 -0.00017816
0.00235415 0.000622958 -5.19859e-06
0.000622958 0.000495702 -8.76072e-07
-5.19859e-06 -8.76072e-07 0.000245177
0.00192724 0.000349957 -8.25934e-07
0.000349957 -3.38969e-05 -5.18709e-07
-8.25934e-07 -5.18709e-07 -0.000110909
0.00209363 0.000601654 1.48259e-05
0.000601654 0.000172817 3.20365e-06
1.48259e-05 3.20365e-06 -2.56834e-05
0.00106457 0.00031748 -3.31623e-05
0.00031748 -0.000274037 -9.88577e-06
-3.31623e-05 -9.88577e-06 -0.000309287
0.0021316 6.084e-05 -8.5643e-07
6.084e-05 -4.46365e-06 2.90556e-07
-8.5643e-07 2.90556e-07 1.90467e-05
0.00207829 6.2822e-05 -1.81341e-06
6.2822e-05 -3.03506e-05 2.77511e-07
-1.81341e-06 2.77511e-07 3.53023e-07
0.00298381 -4.32373e-05 -3.95225e-05
-4.32373e-05 0.000840857 3.08023e-06
-3.95225e-05 3.08023e-06 0.000865073
0.00203183 -0.000198313 -1.0821e-05
-0.000198313 -0.000105168 4.97136e-07
-1.0821e-05 4.97136e-07 -2.94864e-05
0.00220082 -1.7807e-05 -4.09705e-06
-1.7807e-05 3.93498e-07 -2.50041e-06
-4.09705e-06 -2.50041e-06 1.28363e-05
0.00213661 -7.73849e-05 -4.3612e-07
-7.73849e-05 -3.15453e-05 -2.08097e-08
-4.3612e-07 -2.08097e-08 -3.55218e-06
0.00193692 -5.91259e-05 -2.10512e-06
-5.91259e-05 -3.56939e-06 2.49203e-07
-2.10512e-06 2.49203e-07 -9.41338e-06
0.00205928 -0.000223922 1.25029e-06
-0.000223922 -1.29306e-05 -1.02673e-08
1.25029e-06 -1.02673e-08 -4.46178e-06
0.00198741 -0.000189607 -1.60494e-08
-0.000189607 2.68354e-06 3.22303e-08
-1.60494e-08 3.22303e-08 -1.65802e-05
0.00194268 -0.000157636 4.59542e-07
-0.000157636 7.99101e-05 -4.49632e-07
4.59542e-07 -4.49632e-07 1.592e-05
0.00192052 -0.000266575 2.33892e-06
-0.000266575 4.80402e-05 -7.33394e-07
2.33892e-06 -7.33394e-07 -2.2053e-05
0.00189403 -0.000228382 -5.22028e-08
-0.000228382 7.84574e-05 -4.21571e-08
-5.22028e-08 -4.21571e-08 -1.1614e-05
0.00184948 -0.000213494 2.99976e-08
-0.000213494 0.000101746 -8.85409e-07
2.99976e-08 -8.85409e-07 -1.82931e-05
0.0019052 -0.000287593 7.90775e-07
-0.000287593 0.000131957 1.40619e-07
7.90775e-07 1.40619e-07 1.65642e-05
0.00185433 -0.000261732 -2.91512e-07
-0.000261732 0.000149366 -6.16816e-08
-2.91512e-07 -6.16816e-08 8.91836e-06
0.00155019 -0.000203223 -2.90546e-06
-0.000203223 9.8491e-05 3.70956e-07
-2.90546e-06 3.70956e-07 -6.35401e-05
0.00184583 -0.000298281 6.18916e-08
-0.000298281 0.000190757 1.23256e-06
6.18916e-08 1.23256e-06 2.90104e-05
0.00152637 -0.000232831 -2.65389e-07
-0.000232831 0.000115038 7.60378e-08
-2.65389e-07 7.60378e-08 -5.95531e-05
0.00097574 -0.000144889 -1.37626e-05
-0.000144889 -3.00273e-05 4.85371e-06
-1.37626e-05 4.85371e-06 -0.00018289
0.0015077 -0.000257164 4.97389e-06
-0.000257164 0.000136573 -8.74592e-07
4.97389e-06 -8.74592e-07 -5.02027e-05
0.000990052 -0.000162525 6.17972e-08
-0.000162525 -9.9763e-06 1.29054e-07
6.17972e-08 1.29054e-07 -0.000166747
0.00257133 -0.000142986 -4.54289e-05
-0.000142986 0.00112777 9.11797e-06
-4.54289e-05 9.11797e-06 0.00104857
0.000985111 -0.000181611 1.40207e-05
-0.000181611 3.89684e-06 -6.00099e-06
1.40207e-05 -6.00099e-06 -0.000159582
0.00268841 -0.000182691 4.14234e-05
-0.000182691 0.00120839 -5.80188e-06
4.14234e-05 -5.80188e-06 0.00112812
0.00190464 -0.000105977 -0.000210562
-0.000105977 0.000813551 2.95962e-05
-0.000210562 2.95962e-05 0.000793534
0.00387326 -5.60765e-05 -0.000206121
-5.60765e-05 0.00202047 1.66417e-05
-0.000206121 1.66417e-05 0.00201073
0.00276622 -0.000237204 0.000132106
-0.000237204 0.00126575 -1.96283e-05
0.000132106 -1.96283e-05 0.00118632
0.00611099 3.57955e-05 0.0002257
3.57955e-05 0.00339029 -2.20288e-05
0.0002257 -2.20288e-05 0.00338336
0.00217819 0.000343969 -2.63629e-06
0.000343969 0.000262741 -7.59294e-07
-2.63629e-06 -7.59294e-07 0.000123009
0.00169171 0.000335264 2.6411e-06
0.000335264 8.9413e-05 1.39464e-06
2.6411e-06 1.39464e-06 -9.54024e-05
0.00200398 0.000341809 4.89028e-07
0.000341809 0.000169317 -1.57014e-06
4.89028e-07 -1.57014e-06 1.53903e-05
0.00147075 0.000322566 -5.49509e-06
0.000322566 0.000148148 -8.78603e-08
-5.49509e-06 -8.78603e-08 -6.61783e-05
0.00191659 0.000435927 4.97506e-07
0.000435927 0.000268717 4.59098e-07
4.97506e-07 4.59098e-07 4.20175e-05
0.00206668 0.000485237 1.79541e-06
0.000485237 0.000476082 -2.68127e-06
1.79541e-06 -2.68127e-06 0.000212632
0.00131363 0.000321619 7.55104e-08
0.000321619 0.000136464 2.26908e-07
7.55104e-08 2.26908e-07 -9.16234e-05
0.000907149 0.000204782 -1.28941e-05
0.000204782 4.57373e-06 -5.77207e-06
-1.28941e-05 -5.77207e-06 -0.000169598
0.00119949 0.000287809 8.62472e-06
0.000287809 0.000137093 3.16844e-06
8.62472e-06 3.16844e-06 -8.85075e-05
0.000786047 0.000189397 -1.67914e-07
0.000189397 -1.29534e-05 -1.61626e-07
-1.67914e-07 -1.61626e-07 -0.000187117
0.000524901 0.000219914 -2.54813e-05
0.000219914 -7.04187e-05 -1.6685e-05
-2.54813e-05 -1.6685e-05 -0.000177312
0.000564407 0.000177818 5.83588e-06
0.000177818 -6.22868e-05 4.32398e-06
5.83588e-06 4.32398e-06 -0.000247226
0.000495771 0.000153635 1.17412e-06
0.000153635 -6.96403e-05 3.71944e-07
1.17412e-06 3.71944e-07 -0.000161869
0.0057566 -0.00013733 -0.000194987
-0.00013733 0.00321914 -1.92463e-05
-0.000194987 -1.92463e-05 0.00319418
0.000301828 5.53766e-05 1.16725e-05
5.53766e-05 -0.000157748 1.41781e-05
1.16725e-05 1.41781e-05 -0.000227824
0.00465107 -0.000182113 -1.15569e-05
-0.000182113 0.00254643 7.52531e-07
-1.15569e-05 7.52531e-07 0.00252599
0.00369597 -0.000175599 8.79948e-05
-0.000175599 0.00196002 3.77795e-06
8.79948e-05 3.77795e-06 0.0019439
0.00211831 0.00019884 -1.6069e-06
0.00019884 2.72107e-06 1.80438e-07
-1.6069e-06 1.80438e-07 -6.38176e-06
0.00200578 0.00018252 1.07428e-06
0.00018252 -9.35102e-05 -8.61851e-08
1.07428e-06 -8.61851e-08 -6.70813e-05
0.00303474 4.58157e-05 -7.70635e-05
4.58157e-05 0.000618232 -1.05691e-05
-7.70635e-05 -1.05691e-05 0.00071332
0.00207905 0.000297073 -2.24111e-07
0.000297073 0.000127749 3.00928e-07
-2.24111e-07 3.00928e-07 1.93968e-05
0.00192907 0.000400993 -9.99403e-08
0.000400993 0.000124213 4.37742e-07
-9.99403e-08 4.37742e-07 -4.24799e-05
0.00161895 0.000513487 1.33289e-06
0.000513487 7.45625e-05 -1.82118e-06
1.33289e-06 -1.82118e-06 -0.000162433
0.00223173 0.00043708 5.79756e-08
0.00043708 0.000364563 -2.63473e-06
5.79756e-08 -2.63473e-06 0.000169088
0.00211608 0.000325272 -6.34928e-07
0.000325272 8.3717e-05 4.42537e-09
-6.34928e-07 4.42537e-09 -4.18292e-06
0.00167844 0.000456175 -3.84804e-06
0.000456175 -7.39001e-06 1.70684e-07
-3.84804e-06 1.70684e-07 -0.000190176
0.00187028 0.000345595 9.95543e-06
0.000345595 -4.20775e-05 7.62564e-07
9.95543e-06 7.62564e-07 -0.000119114
0.00199336 5.41369e-05 -3.22868e-07
5.41369e-05 5.82032e-06 3.92163e-07
-3.22868e-07 3.92163e-07 7.95191e-06
0.00209227 5.91541e-05 -3.06119e-09
5.91541e-05 -1.62893e-05 -7.3588e-08
-3.06119e-09 -7.3588e-08 4.01594e-06
0.00217829 7.59354e-05 -7.95613e-06
7.59354e-05 4.58691e-05 -6.11666e-07
-7.95613e-06 -6.11666e-07 7.2406e-05
0.00187462 -9.15323e-06 -5.06541e-06
-9.15323e-06 1.21155e-05 4.27334e-07
-5.06541e-06 4.27334e-07 -7.38186e-06
0.00211369 -8.73756e-05 1.77371e-06
-8.73756e-05 -6.22573e-05 -3.80988e-07
1.77371e-06 -3.80988e-07 -2.79999e-05
0.00196165 -6.21471e-05 -6.76677e-07
-6.21471e-05 7.47612e-06 2.35693e-07
-6.76677e-07 2.35693e-07 2.58862e-06
0.00188713 -9.08334e-05 -3.77354e-06
-9.08334e-05 3.38816e-05 5.09297e-07
-3.77354e-06 5.09297e-07 -1.17308e-05
0.00195587 -0.000192255 2.4382e-06
-0.000192255 -7.46441e-06 -4.19624e-07
2.4382e-06 -4.19624e-07 -3.08623e-05
0.00189734 -0.000155419 1.99807e-06
-0.000155419 4.85763e-05 -6.09199e-07
1.99807e-06 -6.09199e-07 -1.50532e-05
0.00188012 -0.00015039 2.40044e-06
-0.00015039 9.97353e-05 -1.40248e-06
2.40044e-06 -1.40248e-06 -2.80413e-06
0.00188967 -0.000227993 1.46101e-06
-0.000227993 6.90289e-05 -6.66657e-08
1.46101e-06 -6.66657e-08 -2.12084e-05
0.00188635 -0.000213069 -1.25795e-07
-0.000213069 0.000127296 -2.09963e-07
-1.25795e-07 -2.09963e-07 7.55752e-06
0.0015875 -0.00016408 -2.04798e-06
-0.00016408 9.34905e-05 6.60885e-08
-2.04798e-06 6.60885e-08 -5.45156e-05
0.00188203 -0.000262734 -1.43085e-07
-0.000262734 0.000166501 9.82783e-07
-1.43085e-07 9.82783e-07 2.6078e-05
0.0015636 -0.000203168 -2.33796e-07
-0.000203168 0.000105262 7.21447e-08
-2.33796e-07 7.21447e-08 -5.62688e-05
0.000987961 -0.000124718 -1.30879e-05
-0.000124718 -3.61274e-05 3.85546e-06
-1.30879e-05 3.85546e-06 -0.000184175
0.00154992 -0.000234064 3.40685e-06
-0.000234064 0.000127585 -5.70168e-07
3.40685e-06 -5.70168e-07 -4.66519e-05
0.0010067 -0.00014418 -4.15271e-08
-0.00014418 -1.43995e-05 2.09525e-07
-4.15271e-08 2.09525e-07 -0.000166418
0.00257956 -0.000145485 -5.31572e-05
-0.000145485 0.00112829 8.92757e-06
-5.31572e-05 8.92757e-06 0.00105173
0.00102236 -0.000162885 1.41424e-05
-0.000162885 6.18354e-06 -5.4605e-06
1.41424e-05 -5.4605e-06 -0.000149999
0.00266446 -0.000169757 3.78681e-05
-0.000169757 0.00118354 -4.70752e-06
3.78681e-05 -4.70752e-06 0.00110955
0.0019527 -9.15644e-05 -0.00020627
-9.15644e-05 0.000836284 2.62128e-05
-0.00020627 2.62128e-05 0.000818019
0.00281785 -0.000195133 0.000129794
-0.000195133 0.00128272 -2.11616e-05
0.000129794 -2.11616e-05 0.0012093
0.0016421 -4.49213e-05 -9.00728e-05
-4.49213e-05 0.000658211 1.1607e-05
-9.00728e-05 1.1607e-05 0.000627788
0.00577065 0.000106429 5.41275e-05
0.000106429 0.00316959 -2.37288e-06
5.41275e-05 -2.37288e-06 0.00314735
0.00198081 0.000287308 3.42884e-07
0.000287308 0.000126902 2.14118e-07
3.42884e-07 2.14118e-07 1.00454e-06
0.00197859 0.000317978 -9.90706e-08
0.000317978 0.000216287 -5.48502e-07
-9.90706e-08 -5.48502e-07 5.5638e-05
0.00206611 0.000340324 -3.82091e-06
0.000340324 0.00018834 3.17023e-08
-3.82091e-06 3.17023e-08 4.59973e-05
0.00171718 0.000296799 -2.6779e-06
0.000296799 0.000239348 -1.23968e-07
-2.6779e-06 -1.23968e-07 4.69634e-05
0.00170589 0.000341162 -1.42381e-07
0.000341162 8.53967e-05 -1.78576e-06
-1.42381e-07 -1.78576e-06 -9.66217e-05
0.00200828 0.000336818 -3.22529e-06
0.000336818 0.000173498 -4.52576e-06
-3.22529e-06 -4.52576e-06 2.57429e-05
0.000978705 0.000203103 -1.42052e-05
0.000203103 -4.68608e-06 -5.43692e-06
-1.42052e-05 -5.43692e-06 -0.000173739
0.0014243 0.000320067 3.65747e-07
0.000320067 0.000118549 3.30769e-07
3.65747e-07 3.30769e-07 -9.61685e-05
0.00198892 0.000439596 3.04692e-06
0.000439596 0.000300031 -2.6253e-06
3.04692e-06 -2.6253e-06 7.27298e-05
0.00129501 0.00032024 7.88859e-06
0.00032024 0.000125366 1.6656e-06
7.88859e-06 1.6656e-06 -0.000103171
0.00086645 0.000199511 -7.76765e-07
0.000199511 -1.61834e-05 2.18045e-08
-7.76765e-07 2.18045e-08 -0.000188789
0.000487153 0.000224451 -2.52021e-05
0.000224451 -9.66358e-05 -1.6172e-05
-2.52021e-05 -1.6172e-05 -0.000208587
0.000698895 0.000181297 1.09029e-05
0.000181297 -6.8803e-05 5.05562e-06
1.09029e-05 5.05562e-06 -0.000240502
0.000476317 0.000206728 2.15936e-06
0.000206728 -9.36296e-05 5.8457e-07
2.15936e-06 5.8457e-07 -0.000201051
0.00611644 -6.19951e-05 -0.000215829
-6.19951e-05 0.00342207 -2.39241e-05
-0.000215829 -2.39241e-05 0.00340217
0.000473914 0.000142136 2.15673e-05
0.000142136 -8.81465e-05 1.59063e-05
2.15673e-05 1.59063e-05 -0.000173988
0.00549135 -0.000156694 -2.6226e-06
-0.000156694 0.00304671 -3.48907e-07
-2.6226e-06 -3.48907e-07 0.00302784
0.00433616 -0.000208539 0.000106214
-0.000208539 0.00236374 5.55219e-06
0.000106214 5.55219e-06 0.00233697
0.00203338 0.000160381 -1.86977e-06
0.000160381 6.9974e-05 4.51244e-07
-1.86977e-06 4.51244e-07 2.45851e-05
0.00212793 0.000202476 3.02037e-07
0.000202476 4.79446e-07 4.83292e-07
3.02037e-07 4.83292e-07 -6.04847e-06
0.00200053 0.000186051 2.82702e-06
0.000186051 -0.00010257 3.12633e-07
2.82702e-06 3.12633e-07 -7.67463e-05
0.0020523 0.000291131 2.63379e-07
0.000291131 0.000118157 2.50488e-08
2.63379e-07 2.50488e-08 1.34034e-05
0.00196577 0.000399834 -2.32836e-07
0.000399834 0.000168787 -6.75235e-07
-2.32836e-07 -6.75235e-07 1.7538e-06
0.00201251 0.000313211 1.02068e-06
0.000313211 2.75831e-05 -3.83113e-07
1.02068e-06 -3.83113e-07 -5.86922e-05
0.00192199 5.88676e-05 -3.16701e-06
5.88676e-05 2.29069e-05 1.76841e-07
-3.16701e-06 1.76841e-07 4.12546e-06
0.0019864 5.0326e-05 3.62716e-07
5.0326e-05 6.97062e-06 -8.90887e-08
3.62716e-07 -8.90887e-08 5.72499e-06
0.00205238 5.77479e-05 1.09455e-06
5.77479e-05 -3.00248e-05 -1.55912e-07
1.09455e-06 -1.55912e-07 -1.24189e-05
0.00188941 -1.15278e-05 -1.4979e-06
-1.15278e-05 1.81726e-05 9.49719e-08
-1.4979e-06 9.49719e-08 -1.87741e-06
0.00179299 -3.43574e-05 -5.12275e-06
-3.43574e-05 -1.18566e-05 1.58463e-07
-5.12275e-06 1.58463e-07 -6.20217e-05
0.00198653 -6.50018e-05 2.00348e-06
-6.50018e-05 1.85287e-05 -2.254e-07
2.00348e-06 -2.254e-07 1.46163e-05
0.00186825 -8.86095e-05 -1.84334e-06
-8.86095e-05 2.7397e-05 4.05606e-07
-1.84334e-06 4.05606e-07 -2.1584e-05
0.00189274 -9.12368e-05 -1.64517e-06
-9.12368e-05 0.000101273 -2.64626e-07
-1.64517e-06 -2.64626e-07 1.72194e-05
0.00184669 -0.000153344 4.0431e-06
-0.000153344 1.50082e-05 -7.71336e-07
4.0431e-06 -7.71336e-07 -4.83303e-05
0.0018841 -0.000151958 2.7714e-06
-0.000151958 0.000102191 -8.29334e-07
2.7714e-06 -8.29334e-07 -5.21647e-07
0.00161713 -0.000117008 -3.27455e-07
-0.000117008 9.11207e-05 -6.05771e-07
-3.27455e-07 -6.05771e-07 -4.38244e-05
0.00190906 -0.000213899 -3.36341e-07
-0.000213899 0.000143316 4.45782e-07
-3.36341e-07 4.45782e-07 2.35755e-05
0.00159374 -0.000164596 -1.46654e-07
-0.000164596 9.36428e-05 5.81769e-08
-1.46654e-07 5.81769e-08 -5.41578e-05
0.000999811 -9.95361e-05 -1.25837e-05
-9.95361e-05 -4.07554e-05 2.84148e-06
-1.25837e-05 2.84148e-06 -0.000182465
0.00158092 -0.000203421 2.22006e-06
-0.000203421 0.00011343 -2.24146e-07
2.22006e-06 -2.24146e-07 -4.76344e-05
0.00101778 -0.000123412 -1.8578e-07
-0.000123412 -2.06597e-05 2.54039e-07
-1.8578e-07 2.54039e-07 -0.000167872
0.0025493 -0.000153644 -5.64281e-05
-0.000153644 0.00110719 7.95335e-06
-5.64281e-05 7.95335e-06 0.00103128
0.0010377 -0.000143542 1.36384e-05
-0.000143542 1.02747e-06 -4.50774e-06
1.36384e-05 -4.50774e-06 -0.000150129
0.00264633 -0.000149721 3.64089e-05
-0.000149721 0.00116459 -3.57534e-06
3.64089e-05 -3.57534e-06 0.00109413
0.00198183 -7.74764e-05 -0.000205847
-7.74764e-05 0.000847036 2.23311e-05
-0.000205847 2.23311e-05 0.000829675
0.00275754 -0.000166152 0.00012763
-0.000166152 0.00123387 -1.81579e-05
0.00012763 -1.81579e-05 0.00116757
0.0016463 -5.36984e-05 -8.17385e-05
-5.36984e-05 0.000654719 9.63026e-06
-8.17385e-05 9.63026e-06 0.000627056
0.00142075 -4.10296e-05 4.43872e-05
-4.10296e-05 0.000530611 -6.7289e-06
4.43872e-05 -6.7289e-06 0.000489629
0.00197956 0.000178517 -1.49574e-06
0.000178517 0.00010296 1.36225e-06
-1.49574e-06 1.36225e-06 1.59204e-05
0.00194361 0.000265083 -1.24138e-06
0.000265083 0.000161322 4.66437e-07
-1.24138e-06 4.66437e-07 1.94354e-05
0.0019456 0.000287497 -5.52902e-07
0.000287497 9.31602e-05 -6.81618e-08
-5.52902e-07 -6.81618e-08 -2.96321e-05
0.00183357 0.000273618 -1.75415e-06
0.000273618 0.000260252 5.1608e-08
-1.75415e-06 5.1608e-08 8.74073e-05
0.00191156 0.000312741 -1.61488e-07
0.000312741 0.00018374 -1.81225e-07
-1.61488e-07 -1.81225e-07 2.16371e-05
0.00194748 0.000336646 8.5079e-07
0.000336646 0.000110201 2.07637e-07
8.5079e-07 2.07637e-07 -3.48243e-05
0.00104401 0.0001874 -1.47757e-05
0.0001874 5.86306e-06 -5.02014e-06
-1.47757e-05 -5.02014e-06 -0.00015478
0.00161223 0.000295689 2.99266e-06
0.000295689 0.000168739 4.15022e-07
2.99266e-06 4.15022e-07 -2.29246e-05
0.00172722 0.000347668 -2.12814e-07
0.000347668 8.59947e-05 -3.07287e-06
-2.12814e-07 -3.07287e-06 -9.32801e-05
0.000423182 0.000182469 -2.25925e-05
0.000182469 -0.000150747 -1.37485e-05
-2.25925e-05 -1.37485e-05 -0.000256617
0.000947554 0.000199269 -5.94509e-07
0.000199269 -1.90717e-05 1.07091e-07
-5.94509e-07 1.07091e-07 -0.000187295
0.0013859 0.000318472 7.0289e-06
0.000318472 9.31342e-05 1.03962e-06
7.0289e-06 1.03962e-06 -0.000122168
0.000849355 0.000195927 1.30205e-05
0.000195927 -2.27024e-05 6.41953e-06
1.30205e-05 6.41953e-06 -0.000194029
0.000472691 0.000206825 1.23248e-06
0.000206825 -0.000102034 7.48291e-07
1.23248e-06 7.48291e-07 -0.000215194
0.00627244 3.6671e-05 -0.000231218
3.6671e-05 0.00349598 -2.72804e-05
-0.000231218 -2.72804e-05 0.00348361
0.00046123 0.000190437 2.26946e-05
0.000190437 -0.000100239 1.61971e-05
2.26946e-05 1.61971e-05 -0.000206507
0.00600072 -8.64818e-05 5.97973e-06
-8.64818e-05 0.0033397 -7.64809e-07
5.97973e-06 -7.64809e-07 0.00332703
0.00523296 -0.000201553 0.000145635
-0.000201553 0.00289888 7.8526e-06
0.000145635 7.8526e-06 0.00287284
0.00191812 0.000111643 -5.25455e-06
0.000111643 4.89063e-05 -4.97553e-07
-5.25455e-06 -4.97553e-07 6.84638e-06
0.00198065 0.000161445 1.17026e-06
0.000161445 3.76526e-05 5.47062e-07
1.17026e-06 5.47062e-07 -5.76661e-06
0.00212609 0.000206217 5.53862e-07
0.000206217 -6.83352e-06 -3.93317e-07
5.53862e-07 -3.93317e-07 -1.11813e-05
0.00204361 0.000285568 3.64369e-06
0.000285568 0.000119579 2.61885e-07
3.64369e-06 2.61885e-07 1.84481e-05
0.00173184 7.87919e-06 -3.12569e-06
7.87919e-06 -2.53985e-05 -2.44117e-07
-3.12569e-06 -2.44117e-07 -8.15804e-05
0.00190617 4.97257e-05 1.58829e-07
4.97257e-05 1.28138e-05 1.08225e-07
1.58829e-07 1.08225e-07 -7.08672e-06
0.00198118 4.65209e-05 1.08869e-06
4.65209e-05 9.99643e-06 -2.17854e-07
1.08869e-06 -2.17854e-07 4.91798e-06
0.00190392 -1.22264e-05 2.45876e-06
-1.22264e-05 2.40241e-05 -5.74134e-07
2.45876e-06 -5.74134e-07 3.5562e-06
0.00186589 -2.90368e-05 -1.61133e-06
-2.90368e-05 3.55724e-05 1.81644e-07
-1.61133e-06 1.81644e-07 -1.25061e-05
0.00175627 -3.64548e-05 4.2262e-07
-3.64548e-05 2.3404e-05 -6.55949e-07
4.2262e-07 -6.55949e-07 -6.06e-05
0.00186111 -8.67429e-05 9.71483e-07
-8.67429e-05 2.73069e-05 3.42309e-07
9.71483e-07 3.42309e-07 -2.48066e-05
0.0018639 -9.16129e-05 -8.92043e-07
-9.16129e-05 8.65276e-05 4.9e-07
-8.92043e-07 4.9e-07 -3.7984e-06
0.00170709 -7.0488e-05 -1.74983e-06
-7.0488e-05 0.000136087 -4.42154e-07
-1.74983e-06 -4.42154e-07 1.66618e-05
0.00190449 -0.000152597 3.2074e-06
-0.000152597 0.000114235 -2.67011e-07
3.2074e-06 -2.67011e-07 1.16049e-05
0.00161286 -0.000115038 1.09128e-06
-0.000115038 8.56339e-05 -3.89286e-07
1.09128e-06 -3.89286e-07 -4.88293e-05
0.0010012 -7.09574e-05 -1.23307e-05
-7.09574e-05 -4.62307e-05 1.99498e-06
-1.23307e-05 1.99498e-06 -0.00018158
0.00161025 -0.00016311 1.84818e-06
-0.00016311 0.000101266 -4.51862e-09
1.84818e-06 -4.51862e-09 -4.59439e-05
0.00101126 -9.88689e-05 -1.03397e-07
-9.88689e-05 -3.42779e-05 2.06942e-07
-1.03397e-07 2.06942e-07 -0.000175544
0.000527547 -8.5181e-05 -1.99582e-05
-8.5181e-05 -0.000138191 5.25955e-06
-1.99582e-05 5.25955e-06 -0.000220744
0.00104589 -0.000121978 1.30111e-05
-0.000121978 -5.91835e-06 -3.41731e-06
1.30111e-05 -3.41731e-06 -0.000152257
0.00158295 -9.95419e-05 5.27094e-05
-9.95419e-05 0.000508737 -3.67191e-06
5.27094e-05 -3.67191e-06 0.00043521
0.00594349 -0.000135675 -0.000270175
-0.000135675 0.00326092 1.8155e-05
-0.000270175 1.8155e-05 0.00327159
0.00273039 -0.000135169 0.000126274
-0.000135169 0.00120645 -1.45887e-05
0.000126274 -1.45887e-05 0.0011445
0.00165911 -5.94611e-05 -7.38904e-05
-5.94611e-05 0.000659815 6.435e-06
-7.38904e-05 6.435e-06 0.000632019
0.00133906 -7.58278e-05 5.58488e-05
-7.58278e-05 0.000483569 -8.0475e-06
5.58488e-05 -8.0475e-06 0.000441528
0.00198026 0.000132672 -2.26387e-06
0.000132672 0.00012754 9.69483e-07
-2.26387e-06 9.69483e-07 5.7084e-05
0.00193139 0.00019213 2.29633e-07
0.00019213 0.000140874 1.49536e-06
2.29633e-07 1.49536e-06 2.49094e-05
0.00196873 0.000174878 7.3506e-07
0.000174878 0.000102069 3.86572e-07
7.3506e-07 3.86572e-07 1.42364e-05
0.00168318 0.000218768 -1.93478e-06
0.000218768 0.000134966 2.84243e-07
-1.93478e-06 2.84243e-07 -2.01622e-05
0.00188803 0.000260379 5.88772e-07
0.000260379 0.000130035 1.86461e-08
5.88772e-07 1.86461e-08 -1.13449e-05
0.0019086 0.00028811 1.02891e-06
0.00028811 5.76817e-05 3.22719e-07
1.02891e-06 3.22719e-07 -6.21106e-05
0.000897778 0.000157563 -1.59654e-05
0.000157563 -0.000106828 -4.20322e-06
-1.59654e-05 -4.20322e-06 -0.000259608
0.00183911 0.000273548 2.62504e-06
0.000273548 0.000262905 6.67829e-07
2.62504e-06 6.67829e-07 9.03559e-05
0.0018383 0.00030692 -4.3995e-07
0.00030692 0.000147697 -8.24875e-07
-4.3995e-07 -8.24875e-07 -1.58031e-05
0.000416584 0.000131723 -1.95475e-05
0.000131723 -0.000177278 -1.04094e-05
-1.95475e-05 -1.04094e-05 -0.000272686
0.000895402 0.000179917 3.8763e-07
0.000179917 -8.44611e-05 3.13507e-07
3.8763e-07 3.13507e-07 -0.000245102
0.0014988 0.000293899 8.36963e-06
0.000293899 9.28796e-05 6.70813e-07
8.36963e-06 6.70813e-07 -9.79374e-05
0.0062568 0.000120218 -0.00024322
0.000120218 0.00346492 -2.70055e-05
-0.00024322 -2.70055e-05 0.00346148
0.000437108 0.000172269 7.39277e-07
0.000172269 -0.000142587 7.37618e-07
7.39277e-07 7.37618e-07 -0.000249325
0.000910879 0.000195247 1.4307e-05
0.000195247 -3.64527e-05 5.92075e-06
1.4307e-05 5.92075e-06 -0.000203843
0.000402895 0.000190044 2.09943e-05
0.000190044 -0.000140317 1.58842e-05
2.09943e-05 1.58842e-05 -0.000254389
0.0061503 2.56865e-05 9.73397e-06
2.56865e-05 0.00341333 1.83349e-08
9.73397e-06 1.83349e-08 0.00340795
0.00584831 -0.000120231 0.000196062
-0.000120231 0.00324078 1.06546e-05
0.000196062 1.06546e-05 0.00323083
0.00183902 6.46111e-05 -6.30799e-06
6.46111e-05 4.0151e-05 -7.97769e-07
-6.30799e-06 -7.97769e-07 -1.73e-05
0.00190559 0.000109808 2.50173e-07
0.000109808 3.62147e-05 3.26756e-07
2.50173e-07 3.26756e-07 -5.81486e-06
0.00192977 0.000162641 2.56412e-06
0.000162641 6.58683e-06 4.99174e-07
2.56412e-06 4.99174e-07 -3.46029e-05
0.00178065 3.09641e-06 1.24174e-06
3.09641e-06 5.06718e-05 -2.52282e-07
1.24174e-06 -2.52282e-07 -3.67644e-05
0.00180759 1.26808e-05 1.94668e-08
1.26808e-05 2.22752e-05 -7.01324e-08
1.94668e-08 -7.01324e-08 -3.06968e-05
0.00189422 3.93691e-05 2.6803e-06
3.93691e-05 5.21565e-06 -2.94829e-07
2.6803e-06 -2.94829e-07 -1.58342e-05
0.00194103 -2.4514e-05 1.25238e-06
-2.4514e-05 8.42688e-05 2.90847e-07
1.25238e-06 2.90847e-07 3.82677e-05
0.00182443 -3.49416e-05 1.8902e-07
-3.49416e-05 6.54388e-05 9.04279e-08
1.8902e-07 9.04279e-08 -1.67481e-05
0.00178774 -2.9629e-05 8.82261e-07
-2.9629e-05 0.00019934 -4.9933e-07
8.82261e-07 -4.9933e-07 8.5209e-05
0.00182171 -9.15069e-05 -1.59225e-06
-9.15069e-05 6.44089e-05 1.24398e-06
-1.59225e-06 1.24398e-06 -3.22852e-05
0.00170392 -7.10821e-05 2.54178e-07
-7.10821e-05 0.00013728 6.70168e-08
2.54178e-07 6.70168e-08 1.42779e-05
0.000885246 -3.78802e-05 -1.3458e-05
-3.78802e-05 -0.000121941 1.23373e-06
-1.3458e-05 1.23373e-06 -0.00025083
0.00159502 -0.00011497 2.51762e-06
-0.00011497 7.16798e-05 -2.42558e-07
2.51762e-06 -2.42558e-07 -6.26676e-05
0.00100549 -6.75986e-05 -7.76745e-08
-6.75986e-05 -4.39893e-05 8.37841e-08
-7.76745e-08 8.37841e-08 -0.000178725
0.000531267 -2.17332e-05 -1.86155e-05
-2.17332e-05 -0.000139135 3.25181e-06
-1.86155e-05 3.25181e-06 -0.000218529
0.00104069 -9.77124e-05 1.2497e-05
-9.77124e-05 -1.81106e-05 -2.44625e-06
1.2497e-05 -2.44625e-06 -0.000158758
0.000529759 -6.90378e-05 -1.68529e-07
-6.90378e-05 -0.000134975 4.02664e-07
-1.68529e-07 4.02664e-07 -0.000218685
0.00591857 -2.97253e-05 -0.000260902
-2.97253e-05 0.00324159 1.10182e-05
-0.000260902 1.10182e-05 0.00325548
0.000562897 -7.12555e-05 1.55025e-05
-7.12555e-05 -0.000114584 -7.15872e-06
1.55025e-05 -7.15872e-06 -0.000201647
0.00373779 -8.88823e-05 0.000118405
-8.88823e-05 0.00192411 -5.16929e-06
0.000118405 -5.16929e-06 0.00190824
0.00130357 -7.91857e-05 6.20921e-05
-7.91857e-05 0.000462767 -8.3393e-06
6.20921e-05 -8.3393e-06 0.000419573
0.00194404 0.000107383 -4.12558e-06
0.000107383 0.000123179 -1.25994e-07
-4.12558e-06 -1.25994e-07 5.31626e-05
0.00187341 0.000131529 1.95529e-06
0.000131529 0.000114472 2.29798e-06
1.95529e-06 2.29798e-06 1.15171e-05
0.00191981 0.00012647 1.91911e-07
0.00012647 8.81995e-05 8.12968e-08
1.91911e-07 8.12968e-08 1.88612e-05
0.0016183 0.000160563 -9.52556e-07
0.000160563 8.56669e-05 3.10084e-07
-9.52556e-07 3.10084e-07 -5.79534e-05
0.00192694 0.000191697 5.38409e-07
0.000191697 0.000133929 1.16623e-07
5.38409e-07 1.16623e-07 1.66254e-05
0.00195535 0.000170914 1.78186e-06
0.000170914 9.94499e-05 -8.02455e-07
1.78186e-06 -8.02455e-07 1.08043e-05
0.000914173 0.000128996 -1.46759e-05
0.000128996 -0.000109035 -3.16313e-06
-1.46759e-05 -3.16313e-06 -0.00025353
0.00173196 0.000218497 5.71817e-07
0.000218497 0.000169591 4.15634e-07
5.71817e-07 4.15634e-07 1.25779e-05
0.00183583 0.000255743 5.7339e-07
0.000255743 0.000101029 -6.91197e-07
5.7339e-07 -6.91197e-07 -3.98207e-05
0.000435425 9.34328e-05 -1.80891e-05
9.34328e-05 -0.00018435 -7.47644e-06
-1.80891e-05 -7.47644e-06 -0.000271816
0.000847177 0.000154705 -2.28412e-06
0.000154705 -0.000136135 -1.76929e-07
-2.28412e-06 -1.76929e-07 -0.000288737
0.00184723 0.000273795 7.09725e-06
0.000273795 0.00026705 1.3934e-06
7.09725e-06 1.3934e-06 9.47338e-05
0.00615864 0.000190358 -0.000260966
0.000190358 0.00339668 -2.60728e-05
-0.000260966 -2.60728e-05 0.00339792
0.000440182 0.000128297 1.39073e-07
0.000128297 -0.000164304 4.11428e-07
1.39073e-07 4.11428e-07 -0.000260165
0.000752677 0.000173159 1.42998e-05
0.000173159 -0.00017158 5.01384e-06
1.42998e-05 5.01384e-06 -0.000332298
0.00617633 0.000135078 1.32151e-05
0.000135078 0.00342038 2.18603e-06
1.32151e-05 2.18603e-06 0.00341655
0.000437457 0.00016095 1.98243e-05
0.00016095 -0.000142554 1.36174e-05
1.98243e-05 1.36174e-05 -0.000249986
0.00605477 -7.22042e-06 0.000226989
-7.22042e-06 0.00334419 1.61535e-05
0.000226989 1.61535e-05 0.00334605
0.00185256 4.46306e-05 -3.24842e-07
4.46306e-05 8.17487e-05 -4.22136e-07
-3.24842e-07 -4.22136e-07 -4.79265e-06
0.00186677 6.48051e-05 -1.61926e-06
6.48051e-05 6.75906e-05 2.33885e-07
-1.61926e-06 2.33885e-07 8.51596e-06
0.00188674 0.000107743 4.58539e-06
0.000107743 1.95916e-05 5.53324e-07
4.58539e-06 5.53324e-07 -2.23353e-05
0.00179056 -3.03511e-06 1.70418e-06
-3.03511e-06 0.000202296 -2.86202e-07
1.70418e-06 -2.86202e-07 8.9622e-05
0.0017633 3.49259e-06 -6.07536e-07
3.49259e-06 3.6649e-05 -6.73496e-08
-6.07536e-07 -6.73496e-08 -4.87919e-05
0.00185664 1.89409e-05 5.38071e-06
1.89409e-05 5.29831e-05 6.65696e-07
5.38071e-06 6.65696e-07 2.946e-06
0.0018898 -3.40321e-05 -4.19722e-07
-3.40321e-05 0.000106135 6.64556e-07
-4.19722e-07 6.64556e-07 2.55933e-05
0.00179064 -2.89362e-05 2.95559e-06
-2.89362e-05 0.00020055 -3.304e-07
2.95559e-06 -3.304e-07 8.64749e-05
0.000884768 -1.36174e-05 -1.30199e-05
-1.36174e-05 -0.000117889 4.74518e-07
-1.30199e-05 4.74518e-07 -0.00024305
0.00170302 -7.19615e-05 1.61503e-06
-7.19615e-05 0.000139643 2.75114e-07
1.61503e-06 2.75114e-07 1.30411e-05
0.000942618 -3.7722e-05 -1.57796e-06
-3.7722e-05 -8.57709e-05 1.30738e-07
-1.57796e-06 1.30738e-07 -0.000215169
0.000532093 -7.18027e-06 -1.88319e-05
-7.18027e-06 -0.000140725 2.12223e-06
-1.88319e-05 2.12223e-06 -0.000218105
0.00101258 -6.54283e-05 1.18226e-05
-6.54283e-05 -3.94808e-05 -1.8083e-06
1.18226e-05 -1.8083e-06 -0.000173728
0.000510076 -3.33456e-05 8.66108e-07
-3.33456e-05 -0.000152834 -1.5394e-07
8.66108e-07 -1.5394e-07 -0.00023116
0.00581322 -0.000126756 -0.000267057
-0.000126756 0.00318913 1.19121e-05
-0.000267057 1.19121e-05 0.00319882
0.000498299 -5.22342e-05 1.79644e-05
-5.22342e-05 -0.000153849 -4.0273e-06
1.79644e-05 -4.0273e-06 -0.000237254
0.0058818 -6.60411e-05 7.61472e-06
-6.60411e-05 0.00322096 -6.27729e-08
7.61472e-06 -6.27729e-08 0.00323484
0.00164593 -2.61816e-05 0.000210799
-2.61816e-05 0.000642726 -1.25201e-05
0.000210799 -1.25201e-05 0.000631029
0.00179166 8.92795e-05 1.43031e-06
8.92795e-05 5.45271e-05 5.76215e-07
1.43031e-06 5.76215e-07 -4.40183e-05
0.00187386 0.000109468 -3.66736e-06
0.000109468 7.71953e-05 -1.01589e-06
-3.66736e-06 -1.01589e-06 9.93652e-06
0.00161771 0.000107652 -1.0219e-07
0.000107652 8.28894e-05 4.69742e-07
-1.0219e-07 4.69742e-07 -4.86085e-05
0.00187997 0.000131132 7.51747e-07
0.000131132 0.000115345 1.50146e-07
7.51747e-07 1.50146e-07 1.22609e-05
0.0018637 0.000120584 2.65441e-06
0.000120584 5.09028e-05 -1.91665e-06
2.65441e-06 -1.91665e-06 -1.72927e-05
0.00106711 9.78618e-05 -1.26404e-05
9.78618e-05 -1.38166e-05 -2.17771e-06
-1.26404e-05 -2.17771e-06 -0.000150433
0.00161946 0.000159952 1.48547e-07
0.000159952 8.90405e-05 4.03039e-08
1.48547e-07 4.03039e-08 -5.4673e-05
0.00191935 0.000191101 7.77023e-07
0.000191101 0.000125244 -1.11483e-06
7.77023e-07 -1.11483e-06 6.61296e-06
0.000472722 6.7288e-05 -1.77332e-05
6.7288e-05 -0.000172787 -5.40272e-06
-1.77332e-05 -5.40272e-06 -0.000255983
0.00094985 0.000130586 -2.33854e-06
0.000130586 -8.46894e-05 -1.19655e-07
-2.33854e-06 -1.19655e-07 -0.000229655
0.0017824 0.000218076 3.32867e-06
0.000218076 0.000205538 7.39866e-07
3.32867e-06 7.39866e-07 4.66785e-05
0.00606086 0.000223445 -0.000278493
0.000223445 0.00334304 -2.48152e-05
-0.000278493 -2.48152e-05 0.00334308
0.000472332 9.45137e-05 -7.14789e-08
9.45137e-05 -0.000163431 1.8221e-07
-7.14789e-08 1.8221e-07 -0.000251209
0.000798728 0.000151982 1.03212e-05
0.000151982 -0.000164434 3.62236e-06
1.03212e-05 3.62236e-06 -0.000316796
0.00612683 0.000211708 1.10124e-05
0.000211708 0.00338842 3.70852e-06
1.10124e-05 3.70852e-06 0.00338459
0.000468938 0.000123271 1.86434e-05
0.000123271 -0.000148779 1.04892e-05
1.86434e-05 1.04892e-05 -0.000244669
0.00612665 0.000131353 0.000251542
0.000131353 0.00338003 2.35266e-05
0.000251542 2.35266e-05 0.00338328
0.00176203 3.42345e-05 2.69977e-06
3.42345e-05 0.000179325 1.54176e-07
2.69977e-06 1.54176e-07 6.48866e-05
0.00183478 4.15243e-05 -1.83626e-06
4.15243e-05 7.53791e-05 8.58839e-08
-1.83626e-06 8.58839e-08 -1.27616e-05
0.00189704 6.45627e-05 2.14751e-06
6.45627e-05 9.6662e-05 4.02687e-07
2.14751e-06 4.02687e-07 3.59642e-05
0.000869695 -7.55695e-06 -1.35068e-05
-7.55695e-06 -0.000119962 -1.67835e-07
-1.35068e-05 -1.67835e-07 -0.000243752
0.00178601 2.42368e-06 3.39943e-06
2.42368e-06 0.000199408 -1.09351e-07
3.39943e-06 -1.09351e-07 8.67509e-05
0.00176538 3.50525e-06 -1.12304e-06
3.50525e-06 3.46896e-05 4.72634e-07
-1.12304e-06 4.72634e-07 -4.84217e-05
0.00179583 -2.84964e-05 4.88814e-06
-2.84964e-05 0.000203104 1.72171e-07
4.88814e-06 1.72171e-07 8.90895e-05
0.000878244 -1.40219e-05 -1.16912e-06
-1.40219e-05 -0.00012314 6.29869e-08
-1.16912e-06 6.29869e-08 -0.000248497
0.000535638 -3.08718e-05 -1.92877e-05
-3.08718e-05 -0.00013896 9.03564e-07
-1.92877e-05 9.03564e-07 -0.000213828
0.000981465 -3.66883e-05 1.07548e-05
-3.66883e-05 -6.06641e-05 -1.21828e-06
1.07548e-05 -1.21828e-06 -0.000190597
0.000511826 3.96147e-06 3.35371e-07
3.96147e-06 -0.000153579 6.37515e-08
3.35371e-07 6.37515e-08 -0.000230107
0.00579874 -0.000101645 -0.000271211
-0.000101645 0.00317862 8.65351e-06
-0.000271211 8.65351e-06 0.0031908
0.000520749 -3.89931e-05 1.88138e-05
-3.89931e-05 -0.00014439 -2.80695e-06
1.88138e-05 -2.80695e-06 -0.000223822
0.00582907 -2.1195e-05 -3.04395e-06
-2.1195e-05 0.0031885 2.06967e-06
-3.04395e-06 2.06967e-06 0.00320436
0.00586997 -8.22267e-05 0.000266485
-8.22267e-05 0.00321344 -1.05137e-05
0.000266485 -1.05137e-05 0.00322808
0.00157837 6.35818e-05 4.44648e-08
6.35818e-05 6.06584e-05 2.78522e-07
4.44648e-08 2.78522e-07 -6.38224e-05
0.00181461 9.05949e-05 -2.35115e-06
9.05949e-05 6.45766e-05 -1.31716e-06
-2.35115e-06 -1.31716e-06 -2.87818e-05
0.00177213 0.000111147 -2.08791e-06
0.000111147 1.23562e-05 -9.85692e-07
-2.08791e-06 -9.85692e-07 -5.23224e-05
0.00106762 6.02732e-05 -1.23062e-05
6.02732e-05 -1.11341e-05 -1.67369e-06
-1.23062e-05 -1.67369e-06 -0.000140932
0.0016034 0.000106653 2.05036e-07
0.000106653 7.61073e-05 -1.889e-08
2.05036e-07 -1.889e-08 -5.56746e-05
0.00188315 0.00013057 -3.24819e-07
0.00013057 0.000114621 -1.79059e-06
-3.24819e-07 -1.79059e-06 1.14083e-05
0.000502599 4.36493e-05 -1.73518e-05
4.36493e-05 -0.000158164 -3.8646e-06
-1.73518e-05 -3.8646e-06 -0.000238603
0.00103246 9.91198e-05 2.95124e-07
9.91198e-05 -3.48629e-05 2.628e-07
2.95124e-07 2.628e-07 -0.000172236
0.00162055 0.000159368 1.61533e-06
0.000159368 9.19967e-05 -1.72773e-07
1.61533e-06 -1.72773e-07 -5.18306e-05
0.00595011 0.00020033 -0.000289327
0.00020033 0.00327768 -2.10496e-05
-0.000289327 -2.10496e-05 0.00328092
0.000503617 7.17525e-05 3.57801e-07
7.17525e-05 -0.000154131 1.42124e-07
3.57801e-07 1.42124e-07 -0.000238124
0.000984689 0.000132142 1.03695e-05
0.000132142 -6.10977e-05 3.01071e-06
1.03695e-05 3.01071e-06 -0.00020649
0.00606929 0.000237572 6.3628e-06
0.000237572 0.00335435 3.07971e-06
6.3628e-06 3.07971e-06 0.00335187
0.000512816 9.72953e-05 1.80086e-05
9.72953e-05 -0.000139437 8.01302e-06
1.80086e-05 8.01302e-06 -0.000227885
0.00612098 0.000238002 0.000270213
0.000238002 0.00338787 2.94408e-05
0.000270213 2.94408e-05 0.00338274
0.00100551 1.75376e-05 -1.27936e-05
1.75376e-05 -3.34573e-05 -6.2149e-07
-1.27936e-05 -6.2149e-07 -0.000158451
0.00169306 3.01869e-05 3.80161e-06
3.01869e-05 0.000137 1.11058e-07
3.80161e-06 1.11058e-07 2.33227e-05
0.0018212 3.81778e-05 -4.38596e-06
3.81778e-05 7.15027e-05 -7.58491e-08
-4.38596e-06 -7.58491e-08 -1.82786e-05
0.000568291 3.08333e-05 -1.98606e-05
3.08333e-05 -0.000126861 -6.01344e-07
-1.98606e-05 -6.01344e-07 -0.0001944
0.000852185 -1.88551e-06 -1.4031e-06
-1.88551e-06 -0.000131559 5.6319e-08
-1.4031e-06 5.6319e-08 -0.000255466
0.00178458 8.77702e-06 5.10784e-06
8.77702e-06 0.000198441 5.13816e-08
5.10784e-06 5.13816e-08 8.57807e-05
0.000868129 -1.40245e-05 1.07889e-05
-1.40245e-05 -0.000130689 -4.1636e-07
1.07889e-05 -4.1636e-07 -0.000256227
0.000530572 -5.08785e-06 3.443e-07
-5.08785e-06 -0.000141796 3.72959e-07
3.443e-07 3.72959e-07 -0.000216886
0.00575237 3.00084e-05 -0.000275916
3.00084e-05 0.00314497 1.31572e-07
-0.000275916 1.31572e-07 0.00316224
0.000490844 1.54342e-05 1.83367e-05
1.54342e-05 -0.000167546 -1.23671e-06
1.83367e-05 -1.23671e-06 -0.000242907
0.00577513 -9.99792e-05 -7.79939e-06
-9.99792e-05 0.00316531 1.71468e-06
-7.79939e-06 1.71468e-06 0.00317715
0.00578043 -2.3487e-06 0.00025643
-2.3487e-06 0.00315934 -5.01778e-06
0.00025643 -5.01778e-06 0.00317512
0.00103679 3.32434e-05 -1.2614e-05
3.32434e-05 -2.1514e-05 -1.32631e-06
-1.2614e-05 -1.32631e-06 -0.000147606
0.00159382 6.177e-05 -2.19402e-07
6.177e-05 7.07278e-05 -7.12215e-08
-2.19402e-07 -7.12215e-08 -5.06552e-05
0.0018626 9.2195e-05 -4.40317e-06
9.2195e-05 8.98697e-05 -2.22149e-06
-4.40317e-06 -2.22149e-06 1.81182e-06
0.00264441 5.59917e-05 -0.00013014
5.59917e-05 0.00114086 -4.3476e-06
-0.00013014 -4.3476e-06 0.0010912
0.00102313 6.19156e-05 3.22464e-07
6.19156e-05 -3.80962e-05 1.06031e-07
3.22464e-07 1.06031e-07 -0.000168465
0.00159156 0.000105623 1.41678e-06
0.000105623 7.0826e-05 -3.71942e-07
1.41678e-06 -3.71942e-07 -6.12443e-05
0.00585016 0.000151344 -0.000289975
0.000151344 0.00321304 -1.53455e-05
-0.000289975 -1.53455e-05 0.00322234
0.000536854 6.19102e-05 8.58055e-07
6.19102e-05 -0.000135354 3.96321e-07
8.58055e-07 3.96321e-07 -0.000217595
0.00100069 0.00010042 1.24995e-05
0.00010042 -5.4079e-05 2.6354e-06
1.24995e-05 2.6354e-06 -0.000192183
0.00601085 0.000213372 1.75238e-06
0.000213372 0.00331599 1.64156e-06
1.75238e-06 1.64156e-06 0.00331813
0.000545157 7.90935e-05 1.82467e-05
7.90935e-05 -0.000127893 6.28014e-06
1.82467e-05 6.28014e-06 -0.000213335
0.00607277 0.000268078 0.000281836
0.000268078 0.00336719 3.05609e-05
0.000281836 3.05609e-05 0.00335891
0.000621596 1.03399e-05 -1.61946e-05
1.03399e-05 -8.42663e-05 -1.80864e-06
-1.61946e-05 -1.80864e-06 -0.000160522
0.000923768 1.63519e-05 5.66168e-07
1.63519e-05 -8.56483e-05 2.50622e-07
5.66168e-07 2.50622e-07 -0.000210302
0.00162239 2.5221e-05 4.09379e-06
2.5221e-05 9.33744e-05 -2.65702e-08
4.09379e-06 -2.65702e-08 -1.94912e-05
0.00561133 -9.63183e-05 -0.000259568
-9.63183e-05 0.00307663 2.17115e-06
-0.000259568 2.17115e-06 0.00308369
0.000527108 8.35336e-06 -5.61734e-07
8.35336e-06 -0.000147241 2.38334e-08
-5.61734e-07 2.38334e-08 -0.000217368
0.000849926 2.86203e-06 1.06503e-05
2.86203e-06 -0.000134181 4.8115e-08
1.06503e-05 4.8115e-08 -0.000258152
0.000487723 2.08083e-05 1.85862e-05
2.08083e-05 -0.00016856 2.21939e-07
1.85862e-05 2.21939e-07 -0.000242821
0.00570021 -5.9011e-06 2.3003e-06
-5.9011e-06 0.0031185 -1.22017e-06
2.3003e-06 -1.22017e-06 0.00313195
0.00577927 -1.85397e-05 0.000264829
-1.85397e-05 0.00315726 -3.07149e-06
0.000264829 -3.07149e-06 0.0031744
0.00272295 1.14104e-05 -0.000126006
1.14104e-05 0.00118586 -2.61112e-06
-0.000126006 -2.61112e-06 0.00113819
0.0010213 3.63414e-05 6.69884e-08
3.63414e-05 -3.26094e-05 6.47816e-08
6.69884e-08 6.47816e-08 -0.000159138
0.00160152 6.00681e-05 1.37587e-06
6.00681e-05 7.63758e-05 -4.67924e-07
1.37587e-06 -4.67924e-07 -4.19056e-05
0.00540785 -4.65272e-05 -0.000102217
-4.65272e-05 0.00295606 5.21988e-07
-0.000102217 5.21988e-07 0.00294325
0.00055228 5.42559e-05 7.8676e-08
5.42559e-05 -0.000126695 2.1288e-07
7.8676e-08 2.1288e-07 -0.000205136
0.000995453 6.41555e-05 1.21646e-05
6.41555e-05 -5.55315e-05 1.89615e-06
1.21646e-05 1.89615e-06 -0.000186412
0.00591098 0.000124371 -1.06708e-05
0.000124371 0.003245 -1.48968e-06
-1.06708e-05 -1.48968e-06 0.00325581
0.000567531 8.47178e-05 1.95956e-05
8.47178e-05 -0.000116198 5.33098e-06
1.95956e-05 5.33098e-06 -0.000199265
0.00604288 0.000237486 0.000291759
0.000237486 0.00334254 2.71455e-05
0.000291759 2.71455e-05 0.00334138
0.00170265 -5.20717e-05 -0.000212512
-5.20717e-05 0.000674066 9.76587e-07
-0.000212512 9.76587e-07 0.000668918
0.00163464 2.81262e-05 -5.3254e-05
2.81262e-05 0.000523461 1.97269e-07
-5.3254e-05 1.97269e-07 0.000466316
0.00083809 1.7744e-05 1.2431e-05
1.7744e-05 -0.000139771 8.91217e-07
1.2431e-05 8.91217e-07 -0.00026416
0.00568234 -4.32966e-05 7.36532e-06
-4.32966e-05 0.00311367 1.91326e-06
7.36532e-06 1.91326e-06 0.00312541
0.000544435 -1.24926e-05 1.91905e-05
-1.24926e-05 -0.00013086 7.59596e-07
1.91905e-05 7.59596e-07 -0.0002046
0.00573939 -7.16219e-05 0.000278277
-7.16219e-05 0.00314433 -3.19019e-06
0.000278277 -3.19019e-06 0.00315795
0.00129149 1.69898e-05 -4.91411e-05
1.69898e-05 0.000449478 -8.02987e-07
-4.91411e-05 -8.02987e-07 0.000414049
0.0016237 1.51804e-05 -5.3721e-05
1.51804e-05 0.000520051 -9.40264e-07
-5.3721e-05 -9.40264e-07 0.000459376
0.000996299 3.80592e-05 1.23806e-05
3.80592e-05 -4.92865e-05 1.5001e-06
1.23806e-05 1.5001e-06 -0.000176277
0.00357453 5.85064e-05 0.000102707
5.85064e-05 0.00182574 2.70091e-06
0.000102707 2.70091e-06 0.00181611
0.000560755 6.48169e-05 1.98989e-05
6.48169e-05 -0.00012158 4.07891e-06
1.98989e-05 4.07891e-06 -0.000200025
0.00597577 0.000112713 0.000278802
0.000112713 0.00327767 1.63067e-05
0.000278802 1.63067e-05 0.0032918
0.00563846 -2.0492e-05 -8.91173e-06
-2.0492e-05 0.00308977 -2.52458e-06
-8.91173e-06 -2.52458e-06 0.00310052
0.000544212 4.67098e-05 2.06652e-05
4.67098e-05 -0.000141073 2.17865e-06
2.06652e-05 2.17865e-06 -0.000208289
0.00559617 4.45328e-05 0.000265992
4.45328e-05 0.0030579 1.96835e-07
0.000265992 1.96835e-07 0.00307289
0.00349282 2.88642e-05 0.000115788
2.88642e-05 0.00178034 4.05242e-06
0.000115788 4.05242e-06 0.00177172
0.000573018 6.54974e-06 1.90812e-05
6.54974e-06 -0.000115084 2.67356e-06
1.90812e-05 2.67356e-06 -0.000189621
0.00582277 -1.34181e-05 0.00026864
-1.34181e-05 0.00318689 7.12626e-06
0.00026864 7.12626e-06 0.00320154
0.00568335 -0.000122981 0.000263023
-0.000122981 0.00312177 -3.60472e-06
0.000263023 -3.60472e-06 0.00312788
0.00567759 -1.18492e-06 0.000263368
-1.18492e-06 0.00309798 3.93319e-06
0.000263368 3.93319e-06 0.00311575
