# vtk DataFile Version 2.0
Wound Healing Simulation
ASCII
DATASET UNSTRUCTURED_GRID
POINTS 3012 float
69.9759 18.75 4
67.2507 60.3285 4
69.976 18.75 2
73.0099 25.446 4
71.1327 20.9142 4
68.6801 16.6661 4
67.8263 19.9261 3.98421
67.2507 60.3286 2
71.1327 54.0858 4
68.6801 58.3339 4
65.6939 62.2254 4
65.3131 59.0022 3.98521
74.6784 42.3946 4
73.7221 47.2057 4
69.9759 18.75 0
73.0099 25.446 2
68.6801 16.6661 2
71.1327 20.9142 2
67.8268 19.9288 2
74.6792 32.6053 4
73.7222 27.7943 4
72.1454 23.1494 4
70.6149 26.2212 3.98427
68.8865 21.9584 3.98464
67.2507 14.6715 4
66.638 17.9713 3.98443
65.7987 21.0249 3.97627
67.2507 60.3285 0
71.1327 54.0858 2
68.6801 58.3339 2
65.694 62.2255 2
65.3143 58.9998 2
72.1454 51.8506 4
69.9759 56.25 4
68.837 53.1129 3.98365
64.0165 64.0165 4
66.6115 57.1344 3.98474
63.8867 60.767 3.98703
63.5023 57.7736 3.97863
60.3285 67.2507 4
74.6792 42.3947 2
73.7222 47.2057 2
74.9194 39.9526 4
74.2788 44.8158 4
72.1686 42.0857 3.98255
73.0099 49.554 4
71.2499 46.5983 3.98319
73.0099 25.446 0
71.1327 20.9142 0
68.6801 16.6661 0
67.8263 19.9261 0.0157862
74.6792 32.6053 2
73.7222 27.7943 2
67.2508 14.6715 2
72.1455 23.1494 2
70.6149 26.2218 2
66.6388 17.974 2
68.8868 21.9604 2
65.7983 21.0251 2
74.9197 35.0474 4
74.2794 30.1841 4
72.1852 32.9432 3.98287
71.2788 28.4314 3.9837
69.8163 24.0601 3.98459
68.3484 26.951 3.97486
66.7641 22.933 3.9757
65.694 12.7746 4
65.3248 16.1023 3.98601
64.7156 19.1938 3.97733
63.8879 22.0352 3.9722
71.1327 54.0858 0
65.6939 62.2254 0
68.6801 58.3339 0
65.3131 59.0022 0.0147884
72.1455 51.8506 2
69.9759 56.25 2
68.8373 53.1108 2
64.0165 64.0165 2
66.6124 57.1315 2
63.8879 60.7655 2
63.5023 57.7744 2
62.2254 65.694 4
58.8952 65.4147 3.99215
69.7695 50.9888 3.98366
67.7844 55.1674 3.9839
66.6504 52.2095 3.97444
62.3371 62.4283 3.98927
64.6627 56.0329 3.97782
62.2045 59.4068 3.97998
61.8247 56.6832 3.97456
58.3339 68.6801 4
60.3285 67.2508 2
73.7221 47.2057 0
74.6784 42.3946 0
74.9197 39.9526 2
74.2794 44.8159 2
72.1683 42.0856 2
73.0099 49.554 2
71.2499 46.5978 2
75 37.5 4
72.4058 39.8023 3.98257
71.7831 44.3531 3.98298
69.8048 41.7899 3.973
70.5757 48.8135 3.98332
68.9135 46.0154 3.97376
74.6792 32.6053 0
73.7222 27.7943 0
67.2507 14.6715 0
72.1454 23.1494 0
70.6149 26.2212 0.0157337
68.8865 21.9584 0.01536
66.638 17.9713 0.0155655
65.7987 21.0249 0.0237303
74.9197 35.0474 2
74.2794 30.1841 2
72.1849 32.9434 2
71.2788 28.4316 2
65.694 12.7745 2
65.3259 16.1041 2
69.8165 24.0613 2
68.3483 26.9513 2
64.7154 19.1934 2
66.7637 22.9333 2
63.8876 22.035 2
72.4136 35.2241 3.98255
71.8043 30.6762 3.9831
69.8408 33.2679 3.97358
68.9676 29.0376 3.9744
67.6128 24.9118 3.97506
66.1959 27.6338 3.97125
64.0165 10.9835 4
64.7576 23.8297 3.97195
63.8912 14.3259 3.98784
63.5155 17.4444 3.97974
62.908 20.3199 3.97248
62.0922 22.9438 3.97046
60.6846 11.0967 3.99009
57.6129 11.4446 3.98387
72.1454 51.8506 0
69.9759 56.25 0
68.837 53.1129 0.0163457
64.0165 64.0165 0
63.8867 60.767 0.0129705
66.6115 57.1344 0.0152641
63.5023 57.7736 0.0213661
62.2255 65.694 2
58.8958 65.4145 2
69.7697 50.9875 2
67.7849 55.1647 2
66.6502 52.2091 2
62.3381 62.4275 2
64.6625 56.0332 2
62.2046 59.4079 2
61.8248 56.6843 2
60.6696 63.9777 3.99092
57.026 66.7355 3.99282
57.5589 63.6941 3.98589
67.5085 50.1771 3.97384
65.7031 54.1737 3.97541
64.5377 51.3856 3.97048
60.7743 60.9405 3.98199
62.8216 55.0692 3.97395
60.6598 58.1622 3.97554
60.3284 55.7868 3.97382
56.25 69.9759 4
58.3339 68.6801 2
60.3285 67.2507 0
58.9218 9.65505 3.99104
62.2254 9.30607 4
73.0099 49.554 0
74.2788 44.8158 0
71.2499 46.5983 0.0168149
72.1686 42.0857 0.0174525
74.9194 39.9526 0
75 37.5 2
72.4057 39.8024 2
71.783 44.3527 2
69.8046 41.7897 2
70.5758 48.8129 2
68.9136 46.015 2
72.4891 37.5121 3.98233
70.0418 39.6574 3.97279
69.4315 43.908 3.9735
67.5978 41.4977 3.96965
68.2669 48.1076 3.97354
66.7109 45.4406 3.97013
74.9197 35.0474 0
74.2794 30.1841 0
72.1852 32.9432 0.0171344
71.2788 28.4314 0.0162993
65.694 12.7746 0
65.3248 16.1023 0.0139892
69.8163 24.0601 0.0154132
68.3484 26.951 0.0251374
66.7641 22.933 0.0243017
64.7156 19.1938 0.0226719
63.8879 22.0352 0.0278023
72.4135 35.2241 2
71.8044 30.6765 2
69.8406 33.2681 2
68.9676 29.0378 2
64.0165 10.9835 2
63.8922 14.3271 2
63.5156 17.4435 2
67.6125 24.9121 2
66.1958 27.6338 2
62.9079 20.3192 2
64.7573 23.8296 2
62.0919 22.9437 2
60.6854 11.0974 2
57.6131 11.4438 2
70.0584 35.3916 3.97295
69.4679 31.1491 3.97359
67.656 33.5903 3.97004
66.7733 29.6219 3.97051
65.5251 25.6987 3.97145
64.147 28.2548 3.97043
62.3425 12.6539 3.98905
62.8567 24.6372 3.9707
62.201 15.7816 3.98175
61.8156 18.6827 3.97486
61.2165 21.3427 3.96948
60.4231 23.7288 3.97054
59.2471 12.7761 3.98243
55.8748 10.2311 3.98545
56.4057 13.1104 3.98046
69.7695 50.9888 0.0163382
62.2254 65.694 0
58.8952 65.4147 0.0078542
67.7844 55.1674 0.0161013
66.6504 52.2095 0.0255601
62.3371 62.4283 0.0107302
62.2045 59.4068 0.0200157
64.6627 56.0329 0.0221837
61.8247 56.6832 0.025443
60.6704 63.9772 2
57.0264 66.7355 2
57.559 63.6952 2
67.5084 50.1766 2
65.7028 54.1736 2
64.5375 51.3856 2
60.7745 60.9418 2
62.8215 55.07 2
60.6599 58.1635 2
60.3286 55.7874 2
55.0715 67.9325 3.99307
59.2202 62.3686 3.98322
55.8058 64.9121 3.98822
56.3278 62.0934 3.98193
65.332 49.4089 3.96984
63.706 53.2924 3.97076
62.4402 50.6519 3.96869
59.3346 59.5603 3.97884
61.0765 54.3097 3.97293
59.2896 57.0136 3.97243
59.2415 55.1823 3.97599
48.1038 68.5798 3.98921
50.949 69.9321 3.99327
54.0858 71.1327 4
56.25 69.976 2
58.3339 68.6801 0
57.0591 8.33512 3.99151
60.3285 7.74928 4
58.9225 9.65543 2
62.2255 9.30602 2
70.5757 48.8135 0.0166765
71.7831 44.3531 0.0170232
68.9135 46.0154 0.0262408
69.8048 41.7899 0.0269967
72.4058 39.8023 0.017427
75 37.5 0
72.4888 37.5121 2
70.0417 39.6573 2
69.4314 43.9077 2
67.5975 41.4976 2
68.2669 48.1072 2
66.7108 45.4405 2
70.1298 37.5213 3.97283
67.8348 39.5123 3.9696
67.2245 43.4704 3.96987
65.5539 41.2097 3.9698
66.0692 47.4187 3.96983
64.6529 44.8487 3.96954
72.4136 35.2241 0.0174472
71.8043 30.6762 0.0168994
69.8408 33.2679 0.0264226
68.9676 29.0376 0.0256032
64.0165 10.9835 0
63.8912 14.3259 0.0121628
63.5155 17.4444 0.020263
67.6128 24.9118 0.0249364
66.1959 27.6338 0.0287496
64.7576 23.8297 0.028047
62.908 20.3199 0.0275155
62.0922 22.9438 0.0295409
60.6846 11.0967 0.00991171
57.6129 11.4446 0.0161297
70.0584 35.3917 2
69.468 31.1492 2
67.6558 33.5903 2
66.7733 29.6219 2
62.3433 12.6549 2
62.201 15.7807 2
61.8157 18.6815 2
65.5248 25.6987 2
64.1469 28.2547 2
61.2165 21.3422 2
62.8565 24.6372 2
60.4229 23.7288 2
59.2471 12.7755 2
56.4056 13.1094 2
55.8749 10.2304 2
67.8708 35.5471 3.96972
67.2656 31.6217 3.96997
65.6975 33.9268 3.96986
64.6633 30.1914 3.96979
63.5382 26.4138 3.97039
62.2565 28.7776 3.97144
60.7766 14.2206 3.98224
61.0434 25.3382 3.97077
60.6148 17.1245 3.97842
60.2221 19.8162 3.97134
59.657 22.2613 3.96848
58.9738 24.3223 3.97102
54.0378 9.13431 3.98642
57.9111 14.329 3.9806
54.787 12.0095 3.98185
55.3128 14.6437 3.97908
67.5085 50.1771 0.0261598
57.026 66.7355 0.00718404
60.6696 63.9777 0.00907758
57.5589 63.6941 0.0141058
65.7031 54.1737 0.0245886
64.5377 51.3856 0.0295153
60.7743 60.9405 0.0180141
60.6598 58.1622 0.0244593
62.8216 55.0692 0.026046
60.3284 55.7868 0.0261771
55.0718 67.9326 2
59.2204 62.3698 2
55.8057 64.913 2
56.3278 62.0947 2
65.3319 49.4088 2
63.7058 53.2928 2
62.4401 50.6519 2
59.3347 59.5615 2
61.0768 54.3102 2
59.2901 57.0141 2
59.2419 55.1826 2
53.0432 69.0003 3.99321
53.9682 66.0144 3.98895
57.8815 60.8731 3.98035
54.6848 63.2109 3.98415
55.212 60.6197 3.97984
63.1932 48.6612 3.96874
61.7386 52.5747 3.96827
60.2667 50.0172 3.96815
58.0187 58.2633 3.9748
59.3244 53.9458 3.97259
58.1252 55.8091 3.97057
50.1105 67.8577 3.98919
47.464 66.5832 3.98671
46.0573 69.1591 3.9892
48.1038 68.5803 2
48.8031 70.7234 3.99337
50.9493 69.9323 2
51.8506 72.1454 4
54.0858 71.1327 2
56.25 69.9759 0
55.1035 7.1398 3.99182
58.3339 6.31992 4
57.0597 8.33532 2
60.3286 7.74926 2
58.9218 9.65505 0.00895501
62.2254 9.30607 0
68.2669 48.1076 0.0264578
69.4315 43.908 0.0264997
66.7109 45.4406 0.0298742
67.5978 41.4977 0.030353
70.0418 39.6574 0.0272102
72.4891 37.5121 0.0176725
70.1296 37.5213 2
67.8348 39.5122 2
67.2244 43.4702 2
65.5536 41.2096 2
66.0691 47.4185 2
64.6529 44.8486 2
67.931 37.5217 3.96961
65.7833 39.37 3.96989
65.1764 43.0254 3.96965
63.7381 40.9292 3.97166
63.9647 46.717 3.96907
62.803 44.2159 3.97176
70.0584 35.3916 0.027048
69.4679 31.1491 0.0264098
67.656 33.5903 0.029955
66.7733 29.6219 0.0294893
62.3425 12.6539 0.0109497
62.201 15.7816 0.0182501
61.8156 18.6827 0.0251419
65.5251 25.6987 0.0285538
64.147 28.2548 0.0295725
62.8567 24.6372 0.029303
61.2165 21.3427 0.0305162
60.4231 23.7288 0.0294554
59.2471 12.7761 0.0175692
56.4057 13.1104 0.0195429
55.8748 10.2311 0.0145463
67.8707 35.5471 2
67.2657 31.6216 2
65.6974 33.9268 2
64.6633 30.1913 2
60.7766 14.2199 2
60.6147 17.1233 2
60.2225 19.8152 2
63.538 26.4137 2
62.2562 28.7776 2
59.6572 22.2612 2
61.0432 25.3382 2
58.9736 24.3226 2
57.9108 14.3281 2
55.3124 14.6428 2
54.0379 9.13354 2
54.787 12.0085 2
65.873 35.6664 3.96982
65.1848 32.1537 3.9694
64.2738 34.2495 3.97111
62.5871 30.6358 3.9711
61.6484 27.0724 3.97081
60.8414 29.1408 3.97398
59.312 15.6656 3.98012
59.3207 25.7985 3.97241
59.1242 18.3536 3.97591
58.7361 20.8569 3.96755
58.2773 23.0962 3.96909
57.9577 24.6674 3.97152
52.1125 8.15248 3.98717
53.0582 11.0155 3.98299
56.6771 15.7397 3.97985
53.8095 13.6786 3.98004
54.376 15.9967 3.97928
55.0715 67.9325 0.00692681
65.332 49.4089 0.0301635
55.8058 64.9121 0.0117847
59.2202 62.3686 0.0167847
56.3278 62.0934 0.0180724
63.706 53.2924 0.029243
62.4402 50.6519 0.0313147
59.3346 59.5603 0.0211553
59.2896 57.0136 0.0275684
61.0765 54.3097 0.027068
59.2415 55.1823 0.0240133
53.0436 69.0004 2
53.968 66.0151 2
57.8815 60.8743 2
54.6847 63.2121 2
55.212 60.6212 2
63.1931 48.6611 2
61.7387 52.5749 2
60.2668 50.017 2
58.019 58.2647 2
59.3249 53.9459 2
58.1256 55.809 2
52.0716 67.0008 3.98915
52.9543 64.2217 3.98586
56.6488 59.4913 3.97835
53.6818 61.6264 3.98189
54.2601 59.3246 3.97759
60.9794 47.8783 3.96901
59.7027 52.1031 3.96784
58.0069 49.6119 3.97075
56.776 56.9849 3.97252
57.1151 54.1156 3.97027
50.1104 67.8583 2
49.3379 65.9235 3.98672
47.4639 66.5837 2
46.8933 64.7392 3.98532
45.559 67.1003 3.98659
43.9741 69.5914 3.98911
46.0573 69.1596 2
46.6097 71.3679 3.99337
48.1038 68.5798 0.0107887
48.8034 70.7236 2
49.554 73.0099 4
50.949 69.9321 0.00673146
51.8506 72.1455 2
54.0858 71.1327 0
53.0647 6.07125 3.99209
55.104 7.13977 2
56.25 5.02411 4
58.3339 6.3199 2
57.0591 8.33512 0.00849068
60.3285 7.74928 0
66.0692 47.4187 0.0301692
67.2245 43.4704 0.0301265
64.6529 44.8487 0.0304634
65.5539 41.2097 0.0301999
67.8348 39.5123 0.0304028
70.1298 37.5213 0.0271659
67.9309 37.5217 2
65.7831 39.37 2
65.1763 43.0253 2
63.7381 40.9291 2
63.9646 46.7169 2
62.8026 44.2157 2
65.8863 37.5015 3.96977
63.8724 39.2664 3.97129
63.3165 42.5497 3.97159
62.3982 40.6973 3.97349
61.9604 45.918 3.97089
61.4319 43.6823 3.9742
67.8708 35.5471 0.0302764
67.2656 31.6217 0.0300269
65.6975 33.9268 0.0301448
64.6633 30.1914 0.0302117
60.7766 14.2206 0.0177594
60.6148 17.1245 0.021578
60.2221 19.8162 0.0286622
63.5382 26.4138 0.0296129
62.2565 28.7776 0.0285606
61.0434 25.3382 0.0292282
59.657 22.2613 0.0315165
58.9738 24.3223 0.0289768
57.9111 14.329 0.0194015
55.3128 14.6437 0.0209155
54.0378 9.13431 0.0135769
54.787 12.0095 0.0181493
65.8728 35.6664 2
65.1848 32.1537 2
64.2738 34.2494 2
62.5871 30.6358 2
59.3117 15.6647 2
59.1244 18.3524 2
58.7367 20.8563 2
61.6481 27.0724 2
60.8416 29.1409 2
58.2776 23.0965 2
59.3212 25.7987 2
57.9575 24.6678 2
56.6766 15.7387 2
54.3756 15.9959 2
53.8094 13.6776 2
52.1125 8.15185 2
53.0581 11.0145 2
64.0697 35.6321 3.9709
62.91 33.0464 3.97137
60.5959 30.6124 3.97384
59.5572 27.9118 3.97359
57.94 16.9807 3.97885
57.7218 25.729 3.97393
57.7126 19.4763 3.97244
57.3621 21.8474 3.96613
57.1735 23.9504 3.96976
50.1126 7.28418 3.98775
51.2327 10.1233 3.98402
52.172 12.7956 3.98147
55.5372 16.9701 3.97937
52.9771 15.2622 3.97795
53.7573 16.9792 3.98027
53.0432 69.0003 0.00678988
53.9682 66.0144 0.0110545
63.1932 48.6612 0.0312587
54.6848 63.2109 0.015854
57.8815 60.8731 0.0196488
55.212 60.6197 0.0201562
61.7386 52.5747 0.0317291
60.2667 50.0172 0.0318535
58.0187 58.2633 0.0251977
58.1252 55.8091 0.0294296
59.3244 53.9458 0.0274088
52.0716 67.0015 2
52.9541 64.2225 2
56.6488 59.4928 2
53.6817 61.6277 2
54.2603 59.326 2
60.9789 47.8781 2
59.703 52.103 2
58.0058 49.6114 2
56.7759 56.9895 2
57.1158 54.1156 2
51.1688 65.1306 3.98649
52.047 62.5426 3.98389
55.4804 58.252 3.97786
52.8346 60.1391 3.97974
53.6392 58.4742 3.97996
58.2769 46.8446 3.97356
57.5487 51.7803 3.96829
56.2191 49.5477 3.97212
55.468 55.7836 3.96966
55.3459 53.3725 3.97022
50.1105 67.8577 0.0108086
49.3377 65.9242 2
48.6191 64.1258 3.98535
47.464 66.5832 0.0132938
45.5589 67.1009 2
46.8931 64.7398 2
46.3829 63.057 3.98455
45.1335 65.2003 3.98527
43.632 67.4709 3.98658
41.861 69.8788 3.98892
43.9741 69.5919 2
44.377 71.8627 3.99325
46.0573 69.1591 0.0107974
46.61 71.3681 2
47.2057 73.7222 4
48.8031 70.7234 0.00663287
49.554 73.0099 2
51.8506 72.1454 0
50.9544 5.1315 3.9924
53.065 6.07114 2
54.0858 3.86728 4
55.1035 7.1398 0.00818218
56.25 5.02406 2
58.3339 6.31992 0
63.9647 46.717 0.0309302
65.1764 43.0254 0.03035
62.803 44.2159 0.0282387
63.7381 40.9292 0.0283412
65.7833 39.37 0.0301116
67.931 37.5217 0.0303872
65.886 37.5014 2
63.872 39.2663 2
63.3164 42.5496 2
62.3981 40.6972 2
61.9598 45.9177 2
61.4313 43.6821 2
63.9349 37.4567 3.9712
62.1107 39.3546 3.97258
61.1819 41.9573 3.97414
60.2335 44.7687 3.97451
65.873 35.6664 0.0301769
65.1848 32.1537 0.0306035
64.2738 34.2495 0.028885
62.5871 30.6358 0.0288989
59.312 15.6656 0.019876
59.1242 18.3536 0.0240916
58.7361 20.8569 0.0324473
61.6484 27.0724 0.0291929
60.8414 29.1408 0.0260227
59.3207 25.7985 0.0275865
58.2773 23.0962 0.0309076
57.9577 24.6674 0.0284799
56.6771 15.7397 0.0201499
54.376 15.9967 0.0207187
53.8095 13.6786 0.0199622
52.1125 8.15248 0.0128268
53.0582 11.0155 0.0170133
64.0697 35.632 2
62.9097 33.0464 2
60.5962 30.6124 2
57.9398 16.9796 2
57.7132 19.4749 2
57.3628 21.8476 2
59.5576 27.912 2
57.1729 23.9509 2
57.7225 25.7293 2
50.1126 7.28364 2
55.5368 16.9691 2
53.7569 16.9783 2
52.9768 15.2611 2
52.1718 12.7945 2
51.2326 10.1226 2
62.1453 35.3596 3.97209
60.2495 32.7459 3.97368
58.5902 30.0777 3.97546
57.261 27.385 3.97502
56.6353 18.1548 3.97854
56.2707 25.1057 3.97154
56.3512 20.5263 3.96888
56.0931 22.8769 3.96672
48.0564 6.52702 3.98838
49.3246 9.33084 3.98453
50.4332 11.9929 3.98223
51.3772 14.4972 3.98005
54.4132 17.9195 3.98021
52.3596 17.0366 3.97722
52.0716 67.0008 0.0108465
52.9543 64.2217 0.0141379
60.9794 47.8783 0.030986
53.6818 61.6264 0.0181073
56.6488 59.4913 0.0216543
54.2601 59.3246 0.0224109
59.7027 52.1031 0.0321637
58.0069 49.6119 0.0292505
56.776 56.9849 0.0274799
57.1151 54.1156 0.0297276
51.1686 65.1313 2
52.0468 62.5437 2
55.4806 58.2533 2
52.8348 60.1404 2
53.6393 58.4756 2
58.2765 46.8443 2
57.5492 51.78 2
56.2183 49.547 2
55.4689 55.7845 2
55.3469 53.3728 2
50.3472 63.3842 3.98481
51.2446 60.9395 3.98141
54.217 57.2686 3.978
52.3119 58.6369 3.97744
56.6557 44.1769 3.97673
55.4545 47.8885 3.97466
55.0517 51.3808 3.96864
53.995 54.5299 3.96835
49.3379 65.9235 0.0132786
48.6188 64.1266 2
47.963 62.4784 3.98439
45.559 67.1003 0.0134149
46.8933 64.7392 0.0146846
43.6319 67.4716 2
46.3827 63.0577 2
45.1332 65.201 2
45.9885 61.5899 3.98407
44.7681 63.4576 3.98457
43.3574 65.5097 3.98517
41.6639 67.6896 3.98637
39.7025 70.0259 3.98894
41.8611 69.8794 2
42.1113 72.2075 3.99312
43.9741 69.5914 0.010892
44.3772 71.863 2
44.8159 74.2794 4
46.6097 71.3679 0.00663401
47.2057 73.7222 2
49.554 73.0099 0
48.7849 4.32236 3.99274
50.9547 5.13133 2
51.8506 2.85458 4
53.0647 6.07125 0.00791131
54.0858 3.86728 2
56.25 5.02411 0
61.9604 45.918 0.0291119
63.3165 42.5497 0.0284134
61.4319 43.6823 0.0257956
62.3982 40.6973 0.0265074
63.8724 39.2664 0.0287138
65.8863 37.5015 0.0302251
63.9344 37.4567 2
62.1102 39.3546 2
61.1816 41.9572 2
60.2327 44.7685 2
61.9466 37.4444 3.97269
60.1933 39.8463 3.97488
58.9428 42.9152 3.97583
64.0697 35.6321 0.029096
62.91 33.0464 0.0286266
60.5959 30.6124 0.026157
57.94 16.9807 0.0211499
57.7126 19.4763 0.0275648
57.3621 21.8474 0.0338686
59.5572 27.9118 0.0264111
57.7218 25.729 0.0260657
57.1735 23.9504 0.0302375
55.5372 16.9701 0.0206328
53.7573 16.9792 0.0197326
52.9771 15.2622 0.0220537
50.1126 7.28418 0.012246
52.172 12.7956 0.018532
51.2327 10.1233 0.0159807
62.145 35.3596 2
60.2491 32.746 2
58.5898 30.078 2
56.6352 18.1535 2
56.3516 20.5235 2
56.0939 22.8775 2
57.2624 27.3853 2
56.2709 25.1065 2
48.0564 6.52649 2
49.3245 9.33033 2
54.413 17.9187 2
52.3592 17.0356 2
51.377 14.496 2
50.433 11.9922 2
59.8292 35.1197 3.97352
57.9429 32.2719 3.97668
56.5066 29.3441 3.97647
55.4129 26.6046 3.97501
55.3384 19.1886 3.97718
54.9062 24.0642 3.96951
54.9893 21.5705 3.9678
45.9623 5.88199 3.98889
43.3736 7.47294 3.98629
47.355 8.62413 3.98511
48.6 11.294 3.98271
49.7136 13.7433 3.98117
50.6323 16.1324 3.97904
53.1215 18.6604 3.97619
51.2985 18.0502 3.98339
51.1688 65.1306 0.0135079
52.047 62.5426 0.0161104
58.2769 46.8446 0.0264385
52.8346 60.1391 0.0202561
55.4804 58.252 0.0221363
53.6392 58.4742 0.0200358
57.5487 51.7803 0.0317076
56.2191 49.5477 0.0278776
55.468 55.7836 0.0303438
55.3459 53.3725 0.0297834
50.3469 63.3849 2
51.2447 60.9407 2
54.2173 57.2701 2
52.3121 58.638 2
56.6544 44.1765 2
55.4531 47.8877 2
55.0524 51.3803 2
53.996 54.5318 2
49.5926 61.7484 3.98358
55.543 41.697 3.97718
50.5667 59.3315 3.97763
52.1806 56.4902 3.97253
54.1132 45.5536 3.97721
53.2889 49.3178 3.9718
52.6487 52.8355 3.96593
48.6191 64.1258 0.0146513
47.9628 62.4791 2
47.3302 61.013 3.98361
43.632 67.4709 0.0134224
45.1335 65.2003 0.0147331
46.3829 63.057 0.0154464
41.6638 67.6902 2
43.3571 65.5105 2
45.9884 61.5907 2
44.7679 63.4584 2
45.7671 60.6343 3.98293
44.4844 61.8391 3.98369
43.1472 63.7298 3.98412
41.5467 65.6473 3.98467
39.6329 67.7693 3.98611
37.5259 70.0511 3.98886
39.7026 70.0266 2
39.8179 72.4046 3.99298
41.861 69.8788 0.011082
42.1115 72.2078 2
42.3947 74.6792 4
44.377 71.8627 0.00674983
44.8159 74.2794 2
47.2057 73.7222 0
43.8517 5.35881 3.98919
46.5708 3.64686 3.99296
48.7851 4.32216 2
49.554 1.99015 4
50.9544 5.1315 0.00760126
51.8506 2.85453 2
54.0858 3.86728 0
60.2335 44.7687 0.0254887
61.1819 41.9573 0.0258587
62.1107 39.3546 0.0274238
63.9349 37.4567 0.0287992
61.9462 37.4444 2
60.1928 39.8462 2
58.9422 42.9149 2
59.6828 37.566 3.97382
57.924 40.6539 3.97683
54.9904 39.7152 3.97758
62.1453 35.3596 0.0279084
60.2495 32.7459 0.0263157
58.5902 30.0777 0.0245443
56.6353 18.1548 0.0214627
56.3512 20.5263 0.0311234
56.0931 22.8769 0.0332757
57.261 27.385 0.024977
56.2707 25.1057 0.0284621
54.4132 17.9195 0.0197864
52.3596 17.0366 0.0227818
51.3772 14.4972 0.0199473
48.0564 6.52702 0.011625
49.3246 9.33084 0.015468
50.4332 11.9929 0.0177685
59.8287 35.1197 2
45.9623 5.88149 2
43.3736 7.47244 2
57.9444 32.272 2
56.5069 29.3445 2
55.3387 19.1875 2
54.9903 21.5696 2
54.9064 24.0655 2
55.4081 26.6061 2
47.355 8.62356 2
48.5998 11.2936 2
53.1215 18.6595 2
51.2982 18.0492 2
50.632 16.1313 2
49.7132 13.7426 2
57.3108 34.761 3.97767
55.6724 31.5242 3.97772
54.4423 28.4129 3.97859
53.7443 25.5051 3.97393
53.9624 20.1396 3.97608
53.5609 22.7228 3.96392
41.3988 7.07797 3.98687
45.3597 7.99506 3.98587
42.8656 9.41597 3.98414
46.6664 10.6543 3.98297
47.7452 13.1032 3.98192
48.9303 15.4025 3.97958
50.0036 17.7015 3.97979
51.6443 19.3244 3.98575
50.3472 63.3842 0.0151915
51.2446 60.9395 0.01859
56.6557 44.1769 0.0232688
55.4545 47.8885 0.0253441
52.3119 58.6369 0.0225611
54.217 57.2686 0.0219998
55.0517 51.3808 0.0313599
53.995 54.5299 0.031653
49.5924 61.7491 2
55.5432 41.6966 2
50.5668 59.3329 2
52.1812 56.4911 2
54.1151 45.5529 2
53.2919 49.3171 2
52.6504 52.8348 2
48.8495 60.2055 3.982
52.4097 42.6278 3.97805
49.7875 57.6273 3.97758
50.5804 54.421 3.97011
51.7324 47.2553 3.97614
51.1776 50.9323 3.96737
48.0431 43.7887 3.99237
47.963 62.4784 0.0156087
47.3301 61.0137 2
46.6195 59.7995 3.98304
41.6639 67.6896 0.0136342
43.3574 65.5097 0.0148268
44.7681 63.4576 0.0154335
45.9885 61.5899 0.0159318
39.6329 67.7701 2
41.5464 65.6477 2
45.767 60.6352 2
43.1471 63.7305 2
44.4843 61.84 2
44.6242 60.2966 3.98314
42.9513 62.0871 3.98328
41.6006 63.823 3.98411
39.648 65.6153 3.98415
37.5634 67.7517 3.98594
31.6965 65.1339 3.98456
33.3919 67.4891 3.9859
35.3331 69.9611 3.98886
37.5259 70.0518 2
37.5094 72.4592 3.9929
39.7025 70.0259 0.0110607
39.818 72.405 2
39.9526 74.9197 4
42.1113 72.2075 0.00688316
42.3947 74.6792 2
44.8159 74.2794 0
41.7363 4.9679 3.98956
43.8517 5.35829 2
44.326 3.10999 3.99323
46.571 3.64662 2
47.2057 1.27793 4
48.7849 4.32236 0.00725965
49.554 1.99013 2
51.8506 2.85458 0
58.9428 42.9152 0.0241691
60.1933 39.8463 0.025123
61.9466 37.4444 0.0273136
59.6828 37.566 2
57.923 40.6538 2
54.9908 39.715 2
56.7173 37.8938 3.97768
49.4425 41.3269 3.98828
53.0098 39.3034 3.97983
39.4422 6.80134 3.98693
59.8292 35.1197 0.02648
57.9429 32.2719 0.0233173
56.5066 29.3441 0.0235276
55.3384 19.1886 0.0228201
54.9893 21.5705 0.0321981
54.9062 24.0642 0.0304937
55.4129 26.6046 0.02499
53.1215 18.6604 0.0238067
51.2985 18.0502 0.016608
50.6323 16.1324 0.0209629
45.9623 5.88199 0.011114
49.7136 13.7433 0.0188334
47.355 8.62413 0.014894
48.6 11.294 0.0172852
43.3736 7.47294 0.0137137
57.3099 34.7611 2
41.3988 7.07743 2
45.3597 7.99456 2
42.8655 9.41546 2
55.6722 31.5244 2
54.4389 28.4146 2
53.9631 20.1389 2
53.5615 22.7204 2
53.7428 25.5063 2
46.6662 10.6537 2
47.7447 13.1028 2
51.6444 19.3233 2
50.0033 17.7005 2
48.9299 15.4018 2
54.778 33.9751 3.97764
53.4071 30.4953 3.97679
52.5403 27.2117 3.97581
52.1136 24.11 3.97252
52.3784 21.059 3.97996
41.0135 9.0485 3.98432
44.7238 9.9964 3.98362
42.4685 10.9036 3.98322
46.005 12.7316 3.98085
47.6808 14.5864 3.98051
48.1111 16.9914 3.97824
49.8142 19.6249 3.97618
49.5926 61.7484 0.016421
50.5667 59.3315 0.0223665
55.543 41.697 0.0228204
54.1132 45.5536 0.0227906
53.2889 49.3178 0.0282013
52.1806 56.4902 0.0274681
52.6487 52.8355 0.0340719
48.8494 60.2062 2
52.4131 42.6262 2
49.7879 57.629 2
50.5814 54.4222 2
51.7344 47.2539 2
51.1802 50.9309 2
48.0467 43.799 2
47.9868 58.7463 3.97982
49.9869 45.264 3.97805
48.5916 55.918 3.97808
49.1057 52.5838 3.9721
49.6156 49.0347 3.97241
45.8463 39.869 3.89476
46.2864 42.6698 3.93728
46.3944 45.8349 3.99255
43.6854 41.1652 3.85675
41.9517 42.0222 3.7819
47.3302 61.013 0.0163885
46.6192 59.8002 2
45.4689 58.7962 3.98312
39.6329 67.7693 0.0138873
41.5467 65.6473 0.0153257
43.1472 63.7298 0.0158777
44.4844 61.8391 0.016307
45.7671 60.6343 0.0170664
41.6004 63.8236 2
37.5633 67.7525 2
39.6478 65.616 2
44.6241 60.2975 2
42.9512 62.0878 2
41.7542 62.4978 3.98342
42.4817 59.9878 3.98414
39.894 63.5577 3.98343
37.6423 65.5143 3.98392
35.4633 67.661 3.98586
33.575 65.3472 3.98407
31.9589 63.3062 3.98385
29.8825 64.725 3.98511
31.6966 65.1346 2
31.3763 67.1989 3.98607
33.3919 67.4899 2
33.1558 69.7544 3.98876
35.3331 69.9618 2
35.1947 72.3735 3.99285
37.5259 70.0511 0.0111442
37.5095 72.4596 2
37.5 75 4
39.8179 72.4046 0.00702419
39.9526 74.9197 2
42.3947 74.6792 0
39.6239 4.71495 3.98977
41.7363 4.9674 2
42.0623 2.71754 3.99335
43.8517 5.35881 0.0108083
44.3262 3.10968 2
44.8158 0.721173 4
46.5708 3.64686 0.00704116
47.2057 1.27779 2
49.554 1.99015 0
57.924 40.6539 0.0231668
59.6828 37.566 0.0261761
54.9904 39.7152 0.0224191
49.4572 41.3299 2
56.716 37.8937 2
53.0119 39.3064 2
53.8589 36.6295 3.97741
47.3694 40.4037 3.94184
50.3822 38.5121 3.9892
37.516 6.67231 3.98723
39.4423 6.80077 2
39.211 8.69093 3.98481
35.9416 8.49065 3.98519
57.3108 34.761 0.0223255
55.6724 31.5242 0.0222798
54.4423 28.4129 0.0214139
53.9624 20.1396 0.0239204
53.5609 22.7228 0.0360764
53.7443 25.5051 0.0260665
51.6443 19.3244 0.0142469
50.0036 17.7015 0.0202104
48.9303 15.4025 0.0204175
45.3597 7.99506 0.01413
47.7452 13.1032 0.0180819
46.6664 10.6543 0.0170268
41.3988 7.07797 0.0131292
42.8656 9.41597 0.015861
54.7806 33.9742 2
41.0135 9.04801 2
44.7236 9.99599 2
42.4682 10.9031 2
53.4039 30.4948 2
52.5441 27.2132 2
52.3792 21.0573 2
52.1149 24.1113 2
46.0046 12.731 2
47.6804 14.5858 2
49.8143 19.6238 2
48.1108 16.9908 2
52.3432 32.8856 3.97995
51.2409 29.1653 3.9782
50.741 25.7422 3.97255
49.9281 22.2085 3.97744
40.5699 11.6076 3.98178
43.858 11.9198 3.9815
45.8018 15.4246 3.98009
47.5017 19.2379 3.97664
46.1808 37.493 3.90028
48.8495 60.2055 0.0180015
49.7875 57.6273 0.0224158
52.4097 42.6278 0.0219532
51.7324 47.2553 0.0238609
51.1776 50.9323 0.0326257
50.5804 54.421 0.0298884
48.0431 43.7887 0.00763189
47.9867 58.7475 2
49.9926 45.2668 2
48.5921 55.9206 2
49.1069 52.5856 2
49.6189 49.0337 2
45.8716 39.8783 2
46.3035 42.6831 2
46.3949 45.8286 2
43.7076 41.1808 2
41.9606 42.0294 2
46.8371 57.3484 3.98274
44.4325 39.4445 3.854
42.2985 40.8858 3.81178
47.9981 47.2302 3.97626
47.1551 54.2416 3.97654
47.5493 50.739 3.96723
44.7283 47.4171 3.99058
44.9496 41.96 3.89667
44.8519 44.5701 3.94603
42.5422 42.683 3.86112
40.8511 42.3691 3.81239
46.6195 59.7995 0.016958
45.4685 58.7971 2
43.8764 57.7216 3.98492
37.5634 67.7517 0.0140616
39.648 65.6153 0.0158549
41.6006 63.823 0.015887
42.9513 62.0871 0.0167222
44.6242 60.2966 0.0168579
35.4633 67.6618 2
41.7541 62.4984 2
39.8939 63.5583 2
37.6423 65.5151 2
42.4817 59.9887 2
40.6236 61.6558 3.98303
40.4452 58.22 3.98454
37.8372 63.2187 3.9827
35.5728 65.4363 3.9839
33.575 65.3479 2
31.9588 63.3069 2
33.6287 63.3458 3.98327
30.3778 62.865 3.98415
32.1226 62.0128 3.98433
26.8675 61.5083 3.98361
28.0613 64.1528 3.98495
29.8826 64.7257 2
29.4056 66.7626 3.98626
31.6965 65.1339 0.015444
31.3764 67.1996 2
31.0129 69.4193 3.98874
33.3919 67.4891 0.014102
33.1558 69.7551 2
32.8916 72.1477 3.99289
35.3331 69.9611 0.0111418
35.1947 72.3739 2
35.0474 74.9194 4
37.5094 72.4592 0.00710196
37.5 75 2
39.9526 74.9197 0
35.6206 6.72341 3.98695
37.5231 4.6145 3.98989
39.6239 4.71446 2
39.7887 2.47391 3.99349
41.7363 4.9679 0.0104407
42.0625 2.71724 2
42.3946 0.32156 4
44.326 3.10999 0.00676619
44.8159 0.72056 2
47.2057 1.27793 0
49.4425 41.3269 0.0117238
56.7173 37.8938 0.0223152
53.0098 39.3034 0.0201655
47.3848 40.4164 2
50.396 38.5113 2
53.8641 36.6306 2
51.1818 35.5802 3.97874
48.0252 37.7427 3.95724
45.8491 35.1359 3.89547
43.6948 33.8337 3.85231
41.9594 32.9866 3.77809
37.4578 8.53231 3.9851
37.5161 6.67159 2
39.4422 6.80134 0.0130728
39.211 8.6903 2
38.9766 10.1247 3.98422
35.8985 9.77102 3.98369
34.1501 8.82022 3.98485
35.9414 8.48988 2
54.778 33.9751 0.0223596
53.4071 30.4953 0.0232123
52.5403 27.2117 0.0241892
52.3784 21.059 0.0200381
52.1136 24.11 0.0274788
49.8142 19.6249 0.0238203
48.1111 16.9914 0.0217624
47.6808 14.5864 0.0194873
44.7238 9.9964 0.016382
46.005 12.7316 0.0191463
41.0135 9.0485 0.0156779
42.4685 10.9036 0.0167841
52.3445 32.8855 2
40.5695 11.6073 2
43.8576 11.9193 2
51.2527 29.1646 2
50.7425 25.7449 2
49.9293 22.2076 2
45.8013 15.4241 2
47.5017 19.2361 2
49.8709 31.4185 3.9702
49.2209 27.5035 3.97667
49.3728 24.4227 3.98186
47.1797 21.9727 3.97446
38.3025 12.7335 3.98123
42.1011 14.3073 3.98005
44.7991 18.4648 3.97815
44.7239 37.4988 3.85477
46.2113 37.4989 2
47.9868 58.7463 0.0201811
48.5916 55.918 0.0219248
49.9869 45.264 0.0219497
49.6156 49.0347 0.0275891
49.1057 52.5838 0.0278958
45.8463 39.869 0.105236
46.2864 42.6698 0.0627231
46.3944 45.8349 0.00745213
43.6854 41.1652 0.14325
41.9517 42.0222 0.218096
46.8368 57.35 2
44.4471 39.4558 2
42.2944 40.887 2
47.9998 47.2316 2
47.156 54.2459 2
47.5516 50.7403 2
44.7322 47.3937 2
44.9669 41.9737 2
44.8674 44.5856 2
42.5682 42.704 2
40.8492 42.3704 2
45.3939 55.9379 3.98749
42.6229 39.2767 3.82559
40.7557 40.8073 3.88127
46.0369 48.9089 3.98563
45.5184 52.5341 3.98231
43.397 48.4469 4.00504
43.327 46.1236 3.94091
43.5828 43.7664 3.89097
41.0774 43.8492 3.85688
39.2887 42.7247 3.82523
45.4689 58.7962 0.0168813
43.876 57.7223 2
42.1061 56.348 3.98806
35.4633 67.661 0.0141436
37.6423 65.5143 0.0160753
39.894 63.5577 0.0165671
41.7542 62.4978 0.0165778
42.4817 59.9878 0.0158562
35.5728 65.4372 2
40.6235 61.6566 2
37.837 63.2194 2
40.4449 58.2214 2
38.9248 56.516 3.9906
38.2506 60.3387 3.98302
35.607 63.2121 3.98252
33.575 65.3472 0.015932
31.9589 63.3062 0.0161467
33.6286 63.3465 2
30.3777 62.8656 2
32.1224 62.0135 2
28.6802 62.2099 3.98422
33.3453 61.5252 3.98355
31.0657 61.2301 3.984
27.567 59.6056 3.98227
23.7905 59.0912 3.98038
25.0332 60.8806 3.98238
26.8675 61.5089 2
26.2279 63.4853 3.98494
28.0614 64.1535 2
27.4621 66.1864 3.9863
29.8825 64.725 0.0148878
29.4057 66.7633 2
28.905 68.9448 3.98877
31.3763 67.1989 0.0139265
31.0129 69.4199 2
30.6139 71.7787 3.99294
33.1558 69.7544 0.0112389
32.8915 72.1481 2
32.6054 74.6784 4
35.1947 72.3735 0.0071521
35.0474 74.9197 2
37.5 75 0
33.7232 6.97803 3.98649
35.4346 4.68479 3.98969
35.6205 6.72275 2
37.5141 2.38658 3.99349
37.5231 4.61396 2
39.6239 4.71495 0.0102318
39.7888 2.47361 2
39.9526 0.0806499 4
42.0623 2.71754 0.00664863
42.3947 0.320817 2
44.8158 0.721173 0
44.4519 35.5535 3.84851
42.3094 34.1158 3.8085
47.3694 40.4037 0.0581577
50.3822 38.5121 0.0108037
53.8589 36.6295 0.0225867
48.0389 37.7521 2
51.1913 35.58 2
45.8678 35.1195 2
43.7185 33.8169 2
41.9685 32.9784 2
48.2049 34.3084 3.97881
44.9562 33.0391 3.89102
42.5502 32.3267 3.85913
40.8596 32.6399 3.81017
37.3108 10.628 3.98287
37.4577 8.53135 2
37.516 6.67231 0.0127651
39.211 8.69093 0.0151884
38.9765 10.1239 2
34.7537 10.377 3.98311
35.8984 9.77024 2
32.3768 9.36693 3.98425
34.1499 8.81955 2
35.9416 8.49065 0.0148069
52.3432 32.8856 0.02005
51.2409 29.1653 0.0218045
50.741 25.7422 0.0274452
49.9281 22.2085 0.0225638
47.5017 19.2379 0.0233636
45.8018 15.4246 0.0199135
43.858 11.9198 0.0184955
40.5699 11.6076 0.0182162
49.8781 31.4131 2
38.302 12.7328 2
42.1008 14.307 2
49.223 27.5068 2
49.3743 24.422 2
47.1806 21.9724 2
44.799 18.4651 2
47.704 29.5301 3.99077
47.0697 25.1637 3.98251
44.2855 21.3336 3.97571
36.5822 12.9295 3.98178
38.6814 14.806 3.97998
41.7493 17.8414 3.97905
42.7562 37.4913 3.82636
44.7373 37.4991 2
46.1808 37.493 0.0997214
46.8371 57.3484 0.0172601
47.1551 54.2416 0.0234632
47.9981 47.2302 0.0237427
47.5493 50.739 0.0327664
44.4325 39.4445 0.146003
44.9496 41.96 0.103332
44.8519 44.5701 0.0539721
44.7283 47.4171 0.00942036
42.5422 42.683 0.138885
42.2985 40.8858 0.188221
40.8511 42.3691 0.187612
45.3942 55.9391 2
42.622 39.275 2
40.7508 40.8023 2
46.0382 48.9099 2
45.5207 52.5395 2
43.3997 48.4638 2
43.3503 46.1478 2
43.6007 43.7842 2
41.0967 43.8698 2
39.2806 42.7189 2
43.7302 54.4526 3.99743
40.8593 39.1742 3.9098
39.1663 40.8981 3.91032
43.6649 50.5005 3.99999
41.9201 47.6725 3.97487
41.8474 45.19 3.895
39.3592 44.5847 3.8701
37.4926 42.8435 3.83813
43.8764 57.7216 0.0150776
42.1055 56.3494 2
40.4168 54.9588 3.99255
35.5728 65.4363 0.0160977
37.8372 63.2187 0.0173021
40.6236 61.6558 0.0169702
40.4452 58.22 0.0154572
35.6068 63.2129 2
38.2502 60.3396 2
38.9243 56.5183 2
37.9984 55.273 3.9919
36.9341 57.642 3.98414
35.3634 60.9236 3.98309
33.6287 63.3458 0.0167329
30.3778 62.865 0.0158524
32.1226 62.0128 0.0156682
33.3451 61.526 2
28.6802 62.2106 2
31.0656 61.2307 2
29.4019 60.2995 3.98362
32.3558 59.758 3.98584
28.0212 58.3854 3.98553
27.5668 59.6061 2
25.3774 58.6037 3.97991
22.7549 58.2478 3.97499
23.3991 60.3597 3.98048
23.7904 59.0921 2
25.0332 60.8813 2
24.4305 62.7776 3.98422
26.8675 61.5083 0.0163868
26.228 63.4859 2
25.546 65.4965 3.98637
28.0613 64.1528 0.0150456
27.4622 66.1871 2
26.8345 68.3331 3.98881
29.4056 66.7626 0.0137379
28.905 68.9453 2
28.3689 71.2638 3.99301
31.0129 69.4193 0.0112577
30.6137 71.779 2
30.1842 74.2788 4
32.8916 72.1477 0.00710777
32.6053 74.6792 2
35.0474 74.9194 0
31.7876 7.4179 3.98609
33.3466 4.92396 3.98948
33.7231 6.97738 2
35.2442 2.46269 3.9935
35.4345 4.68427 2
35.6206 6.72341 0.0130452
37.5 0 4
37.5141 2.38626 2
37.5231 4.6145 0.0101115
39.7887 2.47391 0.00651321
39.9526 0.0802889 2
42.3946 0.32156 0
42.6303 35.7143 3.8263
44.4613 35.5436 2
40.7654 34.1971 3.87997
42.3042 34.1159 2
48.0252 37.7427 0.0427552
51.1818 35.5802 0.0212608
45.8491 35.1359 0.104529
43.6948 33.8337 0.147692
41.9594 32.9866 0.221911
48.2178 34.2904 2
44.9748 33.0269 2
42.5731 32.308 2
40.8584 32.6379 2
46.2219 31.5598 3.95478
43.5885 31.2444 3.88581
41.0916 31.1645 3.85778
39.2953 32.2832 3.82415
35.6924 11.7732 3.98188
37.3108 10.6271 2
37.4578 8.53231 0.0148976
38.9766 10.1247 0.0157788
33.0975 11.2138 3.98208
34.7536 10.3763 2
35.8985 9.77102 0.0163134
30.4815 10.0149 3.98374
32.3766 9.36623 2
34.1501 8.82022 0.0151452
49.8709 31.4185 0.0297951
49.2209 27.5035 0.0233319
49.3728 24.4227 0.0181431
47.1797 21.9727 0.0255388
44.7991 18.4648 0.021846
42.1011 14.3073 0.0199489
38.3025 12.7335 0.0187683
36.5818 12.929 2
47.7065 29.5165 2
38.6808 14.8054 2
41.7489 17.8405 2
47.0721 25.1635 2
44.2864 21.3273 2
45.4958 27.6525 4.00093
43.7832 24.0603 3.99954
41.3401 20.7201 3.97994
35.7721 14.7555 3.98084
38.681 17.597 3.97741
40.9064 37.4838 3.92129
42.7601 37.4925 2
44.7239 37.4988 0.145226
45.3939 55.9379 0.0125091
45.5184 52.5341 0.0176876
46.0369 48.9089 0.0143666
42.6229 39.2767 0.174407
43.5828 43.7664 0.109027
43.327 46.1236 0.059094
43.397 48.4469 -0.00503848
41.0774 43.8492 0.143122
40.7557 40.8073 0.118725
39.2887 42.7247 0.17477
43.731 54.4548 2
40.8535 39.1708 2
39.1596 40.8901 2
43.6678 50.5127 2
41.9193 47.6846 2
41.871 45.2066 2
37.4937 42.8345 2
39.3812 44.5946 2
41.8717 53.0294 3.99483
39.1818 39.1758 3.94245
37.4938 40.9444 3.92813
35.704 42.7232 3.82571
40.8988 49.7277 4.0017
39.8036 46.0929 3.87659
37.4932 44.81 3.86217
42.1061 56.348 0.0119413
40.4161 54.9603 2
38.7268 53.8901 3.99575
35.607 63.2121 0.0174758
38.2506 60.3387 0.0169818
38.9248 56.516 0.00940491
35.3631 60.9243 2
36.9337 57.6432 2
37.998 55.2743 2
36.3191 55.4019 3.99178
34.487 58.5359 3.9857
33.3453 61.5252 0.0164547
28.6802 62.2099 0.0157844
31.0657 61.2301 0.0159999
32.3556 59.7587 2
29.4018 60.3001 2
30.2971 57.8319 3.98607
28.0209 58.386 2
26.9446 56.8353 3.97976
27.567 59.6056 0.0177309
25.3773 58.6044 2
23.8382 56.8073 3.97308
21.3322 57.4039 3.9745
21.992 59.6303 3.97959
22.7547 58.2491 2
22.7344 62.0287 3.98294
23.3991 60.3607 2
23.7905 59.0912 0.019616
25.0332 60.8806 0.0176217
24.4307 62.7784 2
23.6799 64.7148 3.98602
26.2279 63.4853 0.0150568
25.5462 65.4971 2
24.8067 67.5942 3.98884
27.4621 66.1864 0.0137016
26.8345 68.3336 2
26.1641 70.6046 3.99309
28.905 68.9448 0.0112319
28.3687 71.2641 2
27.7943 73.7221 4
30.6139 71.7787 0.00706124
30.1841 74.2794 2
32.6054 74.6784 0
29.81 7.99117 3.98558
31.2517 5.3311 3.98904
31.7875 7.41718 2
32.9799 2.70087 3.99336
33.3465 4.92339 2
33.7232 6.97803 0.0135057
35.0474 0.080333 4
35.2442 2.46238 2
35.4346 4.68479 0.0103054
37.5 0 2
37.5141 2.38658 0.00650804
39.9526 0.0806499 0
40.8627 35.8058 3.91161
42.6284 35.7169 2
44.4519 35.5535 0.151492
28.5422 10.6902 3.98351
39.1725 34.1087 3.90989
40.7581 34.2023 2
42.3094 34.1158 0.191503
48.2049 34.3084 0.0211911
44.9562 33.0391 0.108982
42.5502 32.3267 0.140869
40.8596 32.6399 0.189829
46.2416 31.5521 2
43.6001 31.2296 2
41.1109 31.1438 2
39.2899 32.2882 2
44.3671 29.7511 3.94446
41.8683 29.8242 3.89846
39.3805 30.4229 3.87159
37.5003 32.1662 3.83919
34.0923 12.9315 3.98122
35.6923 11.7724 2
37.3108 10.628 0.0171299
31.1854 11.9818 3.98247
33.0975 11.213 2
34.7537 10.377 0.0168883
30.4813 10.0141 2
32.3768 9.36693 0.0157478
47.704 29.5301 0.00922757
47.0697 25.1637 0.0174907
36.5822 12.9295 0.0182196
44.2855 21.3336 0.0242853
41.7493 17.8414 0.0209489
38.6814 14.806 0.020018
35.7714 14.7551 2
45.4976 27.6515 2
38.6801 17.5958 2
41.3398 20.7178 2
43.7849 24.0574 2
33.6073 15.872 3.98069
43.0241 26.4863 3.99778
40.9081 23.2888 4.0014
38.4198 20.3317 3.97804
35.8477 17.5061 3.9809
39.1983 37.4851 3.95042
40.8989 37.4836 2
42.7562 37.4913 0.173641
43.7302 54.4526 0.00256504
43.6649 50.5005 1.08792e-05
40.8593 39.1742 0.090198
41.8474 45.19 0.105004
41.9201 47.6725 0.0251278
39.3592 44.5847 0.129904
39.1663 40.8981 0.0896772
37.4926 42.8435 0.161867
41.874 53.0334 2
39.1734 39.1738 2
37.4939 40.9357 2
40.9054 49.7328 2
35.7088 42.7184 2
39.8282 46.1143 2
37.4909 44.8157 2
39.808 51.9418 3.99446
37.4919 39.1891 3.96262
35.82 40.9069 3.90994
34.1362 42.3664 3.8112
35.6068 44.5844 3.86807
38.6923 48.7469 3.98546
37.4824 46.4118 3.87984
40.4168 54.9588 0.00745005
38.7271 53.8899 2
36.7185 53.238 4.00666
35.3634 60.9236 0.0169093
36.9341 57.642 0.0158551
37.9984 55.273 0.00810349
34.4865 58.5365 2
36.3187 55.4037 2
33.227 55.5212 3.98945
32.3558 59.758 0.0141609
29.4019 60.2995 0.0163806
30.2968 57.8327 2
28.6912 55.3248 3.97913
28.0212 58.3854 0.0144741
26.944 56.8357 2
25.3113 55.1447 3.97461
21.8091 55.3499 3.96967
25.3774 58.6037 0.020092
23.8377 56.809 2
20.217 57.0316 3.97809
20.6435 58.7869 3.97756
21.3319 57.4055 2
21.1649 61.1773 3.98118
21.9918 59.6314 2
22.7549 58.2478 0.0250135
21.8933 63.8426 3.98533
22.7345 62.0296 2
23.3991 60.3597 0.0195249
24.4305 62.7776 0.0157792
23.6801 64.7155 2
22.8349 66.7378 3.98887
25.546 65.4965 0.0136296
24.8067 67.5948 2
24.0083 69.8057 3.99312
26.8345 68.3331 0.0111866
26.1638 70.6048 2
25.446 73.0099 4
28.3689 71.2638 0.00699136
27.7943 73.7222 2
30.1842 74.2788 0
27.8198 8.6508 3.98531
29.1536 5.87687 3.98858
29.8099 7.99035 2
30.725 3.09807 3.99314
31.2516 5.33053 2
31.7876 7.4179 0.0139061
32.6053 0.320823 4
32.9798 2.70054 2
33.3466 4.92396 0.0105204
35.0474 0.0802903 2
35.2442 2.46269 0.00650045
37.5 0 0
39.1926 35.8069 3.94134
40.8557 35.8093 2
42.6303 35.7143 0.1737
28.5421 10.6895 2
26.6209 11.3853 3.98369
29.2242 12.6382 3.98306
37.4986 34.0644 3.92834
39.1643 34.117 2
40.7654 34.1971 0.120032
46.2219 31.5598 0.0452211
43.5885 31.2444 0.114193
41.0916 31.1645 0.14222
39.2953 32.2832 0.175853
44.3839 29.7362 2
41.8873 29.8056 2
39.3969 30.4084 2
37.5022 32.1752 2
42.3521 28.392 3.93022
39.8585 28.9121 3.89375
37.5191 30.1879 3.86055
35.7106 32.2807 3.8245
31.9136 14.4763 3.9818
34.0921 12.9307 2
35.6924 11.7732 0.0181181
31.1853 11.981 2
33.0975 11.2138 0.0179202
30.4815 10.0149 0.0162609
45.4958 27.6525 -0.000933867
43.7832 24.0603 0.000460013
35.7721 14.7555 0.019161
41.3401 20.7201 0.0200551
38.681 17.597 0.022593
33.6066 15.8716 2
35.8466 17.5062 2
43.0285 26.4861 2
38.4196 20.33 2
40.9073 23.2816 2
33.5493 17.3812 3.98264
40.4048 25.6292 4.00613
38.0742 22.866 3.99439
35.5831 20.0745 3.98379
37.4945 37.495 3.97165
39.1894 37.4854 2
40.9064 37.4838 0.0787096
41.8717 53.0294 0.00516808
40.8988 49.7277 -0.00170229
39.1818 39.1758 0.0575508
39.8036 46.0929 0.123414
37.4932 44.81 0.137834
37.4938 40.9444 0.0718697
35.704 42.7232 0.17429
39.8133 51.9439 2
37.493 39.1855 2
35.8281 40.8991 2
38.6926 48.7782 2
34.1373 42.3679 2
35.5945 44.6006 2
37.484 46.433 2
37.6457 51.0336 4.00879
35.8065 39.1918 3.94309
34.2345 40.8159 3.88114
33.0298 42.0209 3.77911
33.896 43.8381 3.8567
35.1465 46.0776 3.8876
36.8542 48.3887 3.96122
38.7268 53.8901 0.00424585
36.7193 53.2404 2
34.3609 52.4921 3.99348
34.487 58.5359 0.0143043
36.3191 55.4019 0.00822374
33.2262 55.5218 2
30.5203 53.3869 3.98039
30.2971 57.8319 0.0139277
28.6905 55.3261 2
26.8855 53.4369 3.97446
26.9446 56.8353 0.0202449
25.3108 55.1475 2
23.577 53.4784 3.9677
20.4718 53.217 3.96394
19.9311 55.8332 3.97297
21.8083 55.3514 2
23.8382 56.8073 0.0269248
19.4361 57.8932 3.97677
20.2165 57.0331 2
19.7047 60.2094 3.97922
20.6432 58.788 2
21.3322 57.4039 0.0255028
20.2059 62.8633 3.98364
21.1649 61.1784 2
21.992 59.6303 0.0204142
20.9363 65.7668 3.98864
21.8935 63.8435 2
22.7344 62.0287 0.0170597
23.6799 64.7148 0.0139767
22.8349 66.7385 2
21.9107 68.8727 3.99309
24.8067 67.5942 0.0111608
24.008 69.8058 2
23.1494 72.1454 4
26.1641 70.6046 0.00690583
25.446 73.0099 2
27.7943 73.7221 0
25.8589 9.37899 3.98502
27.0683 6.54096 3.98808
27.8196 8.65004 2
28.4871 3.64407 3.9929
29.1534 5.87623 2
29.81 7.99117 0.0144197
30.1841 0.720592 4
30.7249 3.09775 2
31.2517 5.3311 0.0109592
32.6053 0.320817 2
32.9799 2.70087 0.00664373
35.0474 0.080333 0
37.4974 35.8069 3.96382
39.1814 35.8093 2
40.8627 35.8058 0.0883869
24.7757 12.0682 3.9839
23.7503 14.3533 3.98302
28.5422 10.6902 0.0164928
26.6209 11.3847 2
29.2241 12.6375 2
27.2902 13.3707 3.98335
29.7792 14.1975 3.98259
35.8281 34.1017 3.91118
37.4984 34.0728 2
39.1725 34.1087 0.0901079
37.5003 32.1662 0.160807
44.3671 29.7511 0.055536
41.8683 29.8242 0.101542
39.3805 30.4229 0.128407
42.3705 28.3724 2
39.8732 28.887 2
37.5189 30.1831 2
35.718 32.2854 2
40.0466 27.5399 3.92551
37.5297 28.5896 3.89057
35.6347 30.4258 3.87177
34.1511 32.635 3.81028
30.925 16.8325 3.98238
31.9134 14.4756 2
34.0923 12.9315 0.0187786
31.1854 11.9818 0.0175314
43.0241 26.4863 0.00221661
40.9081 23.2888 -0.00139786
33.6073 15.872 0.0193096
35.8477 17.5061 0.0191005
38.4198 20.3317 0.0219588
33.5484 17.3813 2
35.5827 20.0746 2
40.4053 25.6226 2
38.0712 22.864 2
32.862 19.7873 3.98339
37.7991 25.178 4.01308
35.1996 22.631 3.99114
35.7961 37.5007 3.95303
37.4952 37.4943 2
39.1983 37.4851 0.0495768
39.808 51.9418 0.00554209
38.6923 48.7469 0.014538
37.4919 39.1891 0.0373843
37.4824 46.4118 0.120161
35.6068 44.5844 0.131928
35.82 40.9069 0.0900586
34.1362 42.3664 0.188797
37.6517 51.0455 2
35.8179 39.1888 2
34.2408 40.8109 2
36.8458 48.4071 2
33.0215 42.0281 2
33.8813 43.8555 2
35.1314 46.0949 2
35.4699 50.162 4.00671
34.14 39.1901 3.91305
32.6805 40.8895 3.81081
32.4387 42.6807 3.86304
33.1334 45.181 3.89611
34.2646 47.4501 3.93606
36.7185 53.238 -0.00666275
34.3616 52.4966 2
32.008 51.1952 4.0018
33.227 55.5212 0.01055
30.5198 53.3912 2
28.4327 51.6009 3.97852
28.6912 55.3248 0.0208737
26.8845 53.4389 2
25.0855 51.7456 3.96476
25.3113 55.1447 0.0253897
23.576 53.4801 2
21.9735 51.7996 3.96416
19.2067 51.6326 3.96774
18.9234 54.3051 3.96582
20.4707 53.2167 2
18.4455 56.7246 3.97659
19.9304 55.8348 2
21.8091 55.3499 0.0303286
18.3674 59.114 3.97621
19.4357 57.8944 2
20.217 57.0316 0.0219061
18.6172 61.7695 3.98152
19.7047 60.2107 2
20.6435 58.7869 0.0224409
19.1254 64.6774 3.98771
20.206 62.8644 2
21.1649 61.1773 0.0188157
19.8848 67.8093 3.99297
20.9364 65.7676 2
21.8933 63.8426 0.0146659
22.8349 66.7378 0.0111347
21.9104 68.8729 2
20.9142 71.1327 4
24.0083 69.8057 0.00688032
23.1494 72.1455 2
25.446 73.0099 0
23.0951 12.7829 3.98354
23.9714 10.1656 3.98487
25.022 7.31125 3.9877
25.8588 9.37834 2
26.2788 4.32834 3.99264
27.068 6.54036 2
27.8198 8.6508 0.0146869
27.7943 1.27781 4
28.4869 3.64375 2
29.1536 5.87687 0.0114195
30.1841 0.720551 2
30.725 3.09807 0.00686029
32.6053 0.320823 0
35.8078 35.8122 3.9446
37.497 35.8096 2
39.1926 35.8069 0.0586648
24.7759 12.0678 2
23.7506 14.3529 2
22.4791 15.0301 3.9824
25.3564 13.9025 3.9829
24.0236 15.6157 3.98189
26.6209 11.3853 0.0163103
29.2242 12.6382 0.0169409
27.2904 13.3702 2
29.7791 14.1969 2
28.3552 15.9711 3.98299
34.2448 34.1926 3.8802
35.8359 34.1093 2
37.4986 34.0644 0.0716558
35.7106 32.2807 0.175496
37.5191 30.1879 0.139454
42.3521 28.392 0.0697775
39.8585 28.9121 0.106247
40.0593 27.5247 2
37.5335 28.5657 2
35.6197 30.4056 2
34.1511 32.6337 2
37.6189 27.2307 3.93747
35.1883 28.9082 3.89103
33.909 31.1597 3.8567
33.053 32.979 3.78021
30.207 19.3351 3.98569
30.9245 16.8324 2
31.9136 14.4763 0.0182049
40.4048 25.6292 -0.00613222
38.0742 22.866 0.00561023
33.5493 17.3812 0.017363
35.5831 20.0745 0.0162084
32.8612 19.7882 2
35.1972 22.6297 2
37.7877 25.1769 2
32.31 22.4024 3.99075
34.988 25.1677 4.00667
34.0892 37.5021 3.92239
35.8066 37.5 2
37.4945 37.495 0.0283453
37.6457 51.0336 -0.00878753
36.8542 48.3887 0.0387776
35.8065 39.1918 0.0569095
35.1465 46.0776 0.112396
33.896 43.8381 0.143297
34.2345 40.8159 0.118857
33.0298 42.0209 0.220887
35.4666 50.1754 2
34.1502 39.187 2
32.6839 40.8893 2
34.2599 47.4836 2
32.4209 42.6961 2
33.1174 45.199 2
33.2518 49.1512 4.00543
32.3601 39.2855 3.82802
31.2854 41.1682 3.85311
31.4051 43.7626 3.8904
32.2548 46.3678 3.93458
34.3609 52.4921 0.00651709
32.0064 51.2028 2
29.8681 49.7148 3.98995
30.5203 53.3869 0.0196133
28.431 51.6008 2
26.5193 49.985 3.97103
26.8855 53.4369 0.0255395
25.0838 51.7445 2
23.3539 50.192 3.97172
23.577 53.4784 0.0322971
21.9724 51.7988 2
20.4714 50.3151 3.96971
17.9936 50.3299 3.96935
17.8378 52.7884 3.96601
19.206 51.6321 2
17.4372 55.3389 3.96905
18.9223 54.3051 2
20.4718 53.217 0.0360596
17.1338 57.875 3.97615
18.4448 56.7257 2
19.9311 55.8332 0.0270343
17.1353 60.5511 3.9787
18.3672 59.1153 2
19.4361 57.8932 0.0232281
17.4062 63.4694 3.98551
18.6173 61.7708 2
19.7047 60.2094 0.0207776
17.941 66.6177 3.9927
19.1254 64.6784 2
20.2059 62.8633 0.0163557
18.75 69.9759 4
19.8845 67.8094 2
20.9363 65.7668 0.0113632
21.9107 68.8727 0.00691178
20.9142 71.1327 2
23.1494 72.1454 0
21.5861 13.6032 3.98296
22.1894 11.0249 3.98453
23.0954 12.7827 2
23.0399 8.17672 3.98747
23.9714 10.1651 2
24.1164 5.14314 3.9924
25.0217 7.31071 2
25.8589 9.37899 0.0149834
25.446 1.99014 4
26.2785 4.32809 2
27.0683 6.54096 0.0119185
27.7943 1.27778 2
28.4871 3.64407 0.00709662
30.1841 0.720592 0
34.1355 35.815 3.91092
35.8173 35.8141 2
37.4974 35.8069 0.0361757
21.3043 15.8257 3.98216
24.7757 12.0682 0.016098
23.7503 14.3533 0.0169843
25.3567 13.9022 2
22.4795 15.0299 2
24.0241 15.6155 2
23.2629 16.2477 3.98164
25.379 16.0838 3.98272
27.2902 13.3707 0.0166488
29.7792 14.1975 0.0174061
28.3554 15.9711 2
27.4387 18.7932 3.98453
32.7021 34.1105 3.80892
34.2534 34.1979 2
35.8281 34.1017 0.0888219
34.1511 32.635 0.189721
35.6347 30.4258 0.128234
37.5297 28.5896 0.10943
40.0466 27.5399 0.0744858
37.6203 27.2008 2
33.0416 32.9731 2
35.1747 28.8889 2
33.8935 31.138 2
35.0705 27.3563 3.94137
33.1556 29.8252 3.89132
32.4499 32.3129 3.85494
29.5766 21.9284 3.99636
30.2066 19.3365 2
30.925 16.8325 0.0176214
37.7991 25.178 -0.0130837
35.1996 22.631 0.00885784
32.862 19.7873 0.0166058
32.3071 22.4027 2
35.0017 25.1632 2
31.7105 25.6201 4.00142
32.2316 37.5039 3.82814
34.0986 37.5028 2
35.7961 37.5007 0.0469709
35.4699 50.162 -0.00670776
34.2646 47.4501 0.0639405
34.14 39.1901 0.0869467
33.1334 45.181 0.103891
32.4387 42.6807 0.136959
32.6805 40.8895 0.189186
33.2465 49.1427 2
32.3623 39.2829 2
31.2645 41.1803 2
32.2327 46.391 2
31.3891 43.776 2
31.1639 47.9784 3.99486
30.538 39.4474 3.85013
30.0306 41.9639 3.89213
30.443 44.9532 3.94361
32.008 51.1952 -0.00179679
29.8652 49.7139 2
27.8932 48.1824 3.97448
28.4327 51.6009 0.0214823
26.5174 49.984 2
24.6694 48.4704 3.97538
25.0855 51.7456 0.035236
23.3529 50.1912 2
21.6815 48.79 3.97168
21.9735 51.7996 0.0358383
20.471 50.3144 2
19.0457 49.0926 3.97249
16.8993 49.3309 3.97217
16.7777 51.4057 3.96827
17.9936 50.3294 2
16.3922 53.8666 3.96661
17.837 52.7881 2
19.2067 51.6326 0.0322564
15.9765 56.4754 3.97266
17.4365 55.3398 2
18.9234 54.3051 0.0341776
15.749 59.211 3.97749
17.1335 57.8763 2
18.4455 56.7246 0.0234076
15.7872 62.1387 3.98244
17.1353 60.5525 2
18.3674 59.114 0.0237876
16.0879 65.3002 3.99201
17.4061 63.4705 2
18.6172 61.7695 0.0184781
16.6661 68.6801 4
17.9406 66.6178 2
19.1254 64.6774 0.0122876
18.75 69.9759 2
19.8848 67.8093 0.00703325
20.9142 71.1327 0
20.2183 14.5921 3.98215
21.5864 13.6031 2
20.5287 11.9947 3.98394
21.1427 9.14652 3.98735
22.1896 11.0245 2
23.0951 12.7829 0.0164595
22.0154 6.08217 3.99227
23.0396 8.17628 2
23.9714 10.1656 0.0151346
23.1494 2.85457 4
24.116 5.14297 2
25.022 7.31125 0.0123043
25.446 1.99012 2
26.2788 4.32834 0.00735546
27.7943 1.27781 0
32.3673 35.7166 3.82466
34.144 35.8191 2
35.8078 35.8122 0.0554028
21.3048 15.8255 2
20.3022 16.9599 3.98227
22.0962 16.6318 3.9803
25.3564 13.9025 0.0171035
22.4791 15.0301 0.0175987
24.0236 15.6157 0.0181097
25.3795 16.0836 2
23.2634 16.2474 2
24.203 18.4479 3.97975
27.0152 21.4521 3.98915
28.3552 15.9711 0.0170067
27.439 18.7933 2
31.3199 33.8385 3.85583
32.7058 34.1122 2
34.2448 34.1926 0.119801
33.053 32.979 0.21979
33.909 31.1597 0.143302
35.1883 28.9082 0.108974
37.6189 27.2307 0.0625291
35.0542 27.3263 2
32.4298 32.3019 2
33.1395 29.7973 2
32.567 28.0894 3.95847
31.407 31.2447 3.89332
28.8156 24.3971 3.98312
29.5732 21.9313 2
30.207 19.3351 0.0143095
34.988 25.1677 -0.00667339
32.31 22.4024 0.00924581
31.7187 25.6062 2
29.673 27.3082 3.96773
30.2557 37.4961 3.85505
32.2315 37.5021 2
34.0892 37.5021 0.0776111
33.2518 49.1512 -0.00542665
32.2548 46.3678 0.0654234
32.3601 39.2855 0.171976
31.4051 43.7626 0.109597
31.2854 41.1682 0.146893
31.1613 47.9805 2
30.5213 39.4583 2
30.0132 41.9765 2
30.4194 44.9692 2
29.214 46.5782 4.00052
29.1307 39.8562 3.89354
28.7474 43.1736 3.94821
29.8681 49.7148 0.0100526
27.8904 48.1788 2
25.9823 46.6573 3.97569
26.5193 49.985 0.0289662
24.6678 48.4686 2
22.8433 47.0783 3.97609
23.3539 50.192 0.0282829
21.6803 48.7892 2
20.0035 47.6191 3.97695
20.4714 50.3151 0.0302859
19.0465 49.0919 2
17.6809 48.1782 3.97519
16.1467 48.6823 3.97361
16.8999 49.3304 2
15.8536 50.1689 3.96974
15.3819 52.4127 3.96848
16.7773 51.4055 2
17.9936 50.3299 0.0306453
14.8707 54.9743 3.96901
16.3917 53.8669 2
17.8378 52.7884 0.033988
14.4589 57.7393 3.97579
15.976 56.4765 2
17.4372 55.3389 0.0309478
14.2656 60.6923 3.98094
15.7489 59.2125 2
17.1338 57.875 0.0238525
14.3325 63.8593 3.99048
15.787 62.1399 2
17.1353 60.5511 0.021304
14.6715 67.2507 4
16.0873 65.3001 2
17.4062 63.4694 0.014491
16.6661 68.6801 2
17.941 66.6177 0.00730144
18.75 69.9759 0
18.9324 15.7795 3.98138
20.2186 14.592 2
18.9786 13.1057 3.98306
21.5861 13.6032 0.0170447
20.5291 11.9946 2
19.342 10.2344 3.98707
19.99 7.14682 3.99223
21.1427 9.1462 2
22.1894 11.0249 0.0154749
20.9142 3.86727 4
22.0149 6.08215 2
23.0399 8.17672 0.0125332
23.1494 2.85451 2
24.1164 5.14314 0.00760162
25.446 1.99014 0
30.5594 35.5628 3.8542
32.3717 35.7188 2
34.1355 35.815 0.0890839
21.3043 15.8257 0.0178356
22.0966 16.6316 2
20.3025 16.9593 2
19.2432 18.4076 3.9794
21.7809 17.8488 3.98086
25.379 16.0838 0.0172752
23.2629 16.2477 0.0183605
24.2035 18.4477 2
22.279 19.8926 3.97667
24.5937 21.3213 3.98272
26.4288 23.7176 3.97218
27.0141 21.4525 2
27.4387 18.7932 0.0154685
30.0566 33.0407 3.89389
31.2906 33.813 2
32.7021 34.1105 0.191078
32.4499 32.3129 0.145064
33.1556 29.8252 0.108682
35.0705 27.3563 0.058627
32.5591 28.077 2
31.4062 31.2312 2
30.1535 29.5399 3.96046
27.913 26.5378 3.97757
28.8182 24.4052 2
29.5766 21.9284 0.00363558
31.7105 25.6201 -0.00142108
29.6702 27.2698 2
28.7962 37.5135 3.90087
30.2489 37.4994 2
32.2316 37.5039 0.171861
31.1639 47.9784 0.0051389
30.443 44.9532 0.056388
30.538 39.4474 0.149867
30.0306 41.9639 0.107868
29.2113 46.5929 2
29.1106 39.8725 2
28.7249 43.1877 2
27.3327 44.8681 3.98617
26.9006 40.5863 3.96947
27.8932 48.1824 0.0255153
25.9788 46.6599 2
24.0612 45.2166 3.97892
24.6694 48.4704 0.0246224
22.8419 47.0769 2
20.9729 45.8943 3.9789
21.6815 48.79 0.0283228
20.0045 47.6183 2
18.3409 46.737 3.97723
19.0457 49.0926 0.0275065
17.681 48.1778 2
16.3418 47.7124 3.97473
16.1471 48.682 2
15.1973 49.0142 3.97188
16.8993 49.3309 0.0278268
15.8538 50.1686 2
14.4937 50.983 3.96955
13.8337 53.4307 3.96906
15.3818 52.4126 2
16.7777 51.4057 0.0317316
13.2557 56.1656 3.97259
14.8704 54.975 2
16.3922 53.8666 0.0333948
12.8483 59.1256 3.97998
14.4587 57.7405 2
15.9765 56.4754 0.0273368
12.6782 62.3015 3.98834
14.2654 60.6934 2
15.749 59.211 0.0225133
12.7746 65.6939 4
14.3317 63.8589 2
15.7872 62.1387 0.0175629
14.6714 67.2507 2
16.0879 65.3002 0.00798628
16.6661 68.6801 0
17.6674 17.1555 3.97938
18.9326 15.7792 2
17.5104 14.3704 3.9818
20.2183 14.5921 0.0178459
18.979 13.1054 2
17.6377 11.4533 3.98621
20.5287 11.9947 0.0160572
19.3422 10.2341 2
18.0502 8.33965 3.99218
18.75 5.0241 4
19.9895 7.147 2
21.1427 9.14652 0.0126465
20.9142 3.86727 2
22.0154 6.08217 0.00772738
23.1494 2.85457 0
29.1511 35.1259 3.89671
30.5422 35.5493 2
32.3673 35.7166 0.175341
22.0962 16.6318 0.0196964
20.3022 16.9599 0.0177337
21.7812 17.8483 2
19.2435 18.4069 2
17.9819 19.9409 3.97636
20.8767 19.3786 3.97921
24.203 18.4479 0.0202477
22.2793 19.8921 2
24.5934 21.3221 2
22.3614 21.7192 3.97918
24.704 23.167 3.97256
25.4947 25.9472 3.96777
26.4321 23.7181 2
27.0152 21.4521 0.010846
28.4284 32.3328 3.94313
30.0347 33.0319 2
31.3199 33.8385 0.144174
31.407 31.2447 0.106678
32.567 28.0894 0.0415276
30.1329 29.527 2
27.0729 29.1298 4.00169
27.9102 26.536 2
28.8156 24.3971 0.0168815
29.673 27.3082 0.0322659
27.026 37.3735 3.9537
28.7698 37.5052 2
30.2557 37.4961 0.144954
29.214 46.5782 -0.000518721
28.7474 43.1736 0.0517904
29.1307 39.8562 0.106465
27.329 44.8811 2
26.8883 40.6028 2
25.3484 43.1724 3.97217
24.1488 39.4309 3.97978
25.9823 46.6573 0.0243133
24.0524 45.2164 2
21.9587 43.9512 3.97832
22.8433 47.0783 0.0239136
20.9738 45.8934 2
19.0166 44.9682 3.97799
20.0035 47.6191 0.0230499
18.3415 46.7366 2
16.6425 46.2111 3.97518
17.6809 48.1782 0.0248086
16.3421 47.7121 2
14.9306 47.6688 3.97258
16.1467 48.6823 0.0263873
15.1977 49.0139 2
13.7907 49.5447 3.9705
15.8536 50.1689 0.0302647
14.494 50.9829 2
12.8999 51.8716 3.97038
12.1445 54.524 3.97147
13.8337 53.4309 2
15.3819 52.4127 0.0315157
11.5338 57.4571 3.97766
13.2555 56.1665 2
14.8707 54.9743 0.0309946
11.133 60.6274 3.98678
12.8482 59.1265 2
14.4589 57.7393 0.0242054
10.9835 64.0165 4
12.6773 62.3007 2
14.2656 60.6923 0.0190604
12.7745 65.694 2
14.3325 63.8593 0.009519
14.6715 67.2507 0
16.4013 18.6506 3.97746
17.6675 17.1549 2
16.1017 15.7798 3.98101
18.9324 15.7795 0.0186208
17.5107 14.3698 2
16.0196 12.8071 3.98424
18.9786 13.1057 0.0169426
17.638 11.4529 2
16.2014 9.66265 3.992
19.342 10.2344 0.0129325
18.0497 8.33998 2
16.6661 6.31991 4
18.75 5.02404 2
19.99 7.14682 0.00776892
20.9142 3.86727 0
27.5457 34.7772 3.94323
29.1254 35.1136 2
30.5594 35.5628 0.145797
16.6861 21.379 3.9717
21.7809 17.8488 0.0191356
19.2432 18.4076 0.020596
20.877 19.378 2
17.9821 19.94 2
19.7279 21.5738 3.97957
22.279 19.8926 0.0233305
24.5937 21.3213 0.0172845
22.3616 21.7189 2
24.7053 23.1666 2
22.8603 24.6012 3.97085
24.6151 28.5275 3.97279
25.4924 25.9455 2
26.4288 23.7176 0.0278151
26.2708 31.7009 3.9899
28.4069 32.3176 2
30.0566 33.0407 0.106111
30.1535 29.5399 0.0395428
27.0811 29.127 2
27.913 26.5378 0.0224261
24.8513 36.8558 3.9879
27.0071 37.3699 2
28.7962 37.5135 0.0991279
27.3327 44.8681 0.0138304
26.9006 40.5863 0.0305267
25.3371 43.1776 2
24.138 39.431 2
23.0484 41.7939 3.98056
21.8671 38.5065 3.9773
24.0612 45.2166 0.0210831
21.9584 43.9506 2
19.7983 42.8839 3.97794
20.9729 45.8943 0.0210991
19.0166 44.968 2
16.9857 44.3782 3.97575
18.3409 46.737 0.0227696
16.6428 46.2109 2
14.8579 46.0889 3.97272
16.3418 47.7124 0.0252706
14.9309 47.6686 2
13.2974 48.0076 3.97053
15.1973 49.0142 0.0281186
13.791 49.5447 2
12.1183 50.2514 3.97041
14.4937 50.983 0.0304526
12.9001 51.8716 2
11.1401 52.8343 3.97179
10.3253 55.709 3.97602
12.1446 54.5244 2
13.8337 53.4307 0.0309425
9.69985 58.8495 3.98492
11.5337 57.4578 2
13.2557 56.1656 0.0274143
9.30605 62.2254 4
11.1318 60.6261 2
12.8483 59.1256 0.0200155
10.9835 64.0165 2
12.6782 62.3015 0.011657
12.7746 65.6939 0
15.1491 20.1869 3.97248
16.4014 18.6498 2
14.7481 17.3032 3.97867
17.6674 17.1555 0.020624
16.1019 15.7789 2
14.4824 14.2895 3.98276
17.5104 14.3704 0.0181978
16.0198 12.8064 2
14.4443 11.1137 3.9914
17.6377 11.4533 0.0137914
16.2009 9.66309 2
14.6715 7.74927 4
18.0502 8.33965 0.00782285
16.6661 6.31988 2
18.75 5.0241 0
25.5002 34.2651 3.98945
27.5252 34.7703 2
29.1511 35.1259 0.103286
17.8629 22.3241 3.98389
15.5347 22.9208 3.97005
16.6863 21.3782 2
20.8767 19.3786 0.0207886
17.9819 19.9409 0.0236428
19.7282 21.573 2
19.6792 24.3804 3.96916
22.3614 21.7192 0.020815
24.704 23.167 0.0274369
22.8601 24.6003 2
21.9829 27.8244 3.97084
23.8318 31.1877 3.97482
24.6198 28.5263 2
25.4947 25.9472 0.0322308
26.2626 31.6917 2
28.4284 32.3328 0.0568688
27.0729 29.1298 -0.00169073
22.5996 36.2787 3.97841
24.8329 36.8542 2
27.026 37.3735 0.0463007
25.3484 43.1724 0.0278342
24.1488 39.4309 0.0202155
23.0441 41.7924 2
21.8617 38.5064 2
20.7892 40.6363 3.97683
20.1982 37.7851 3.97731
21.9587 43.9512 0.0216752
19.7989 42.8843 2
17.4117 42.0987 3.9764
19.0166 44.9682 0.0220119
16.9863 44.3781 2
14.8703 44.1988 3.9729
16.6425 46.2111 0.0248202
14.8581 46.0888 2
12.9708 46.2946 3.97045
14.9306 47.6688 0.027419
13.2976 48.0076 2
11.4892 48.5491 3.97006
13.7907 49.5447 0.0294983
12.1186 50.2513 2
10.2655 51.0791 3.97176
12.8999 51.8716 0.0296233
11.1404 52.8343 2
9.23436 53.888 3.97575
8.3837 56.9819 3.98364
10.3254 55.7091 2
12.1445 54.524 0.0285321
7.74927 60.3285 4
9.69864 58.8473 2
11.5338 57.4571 0.0223394
9.306 62.2255 2
11.133 60.6274 0.0132205
10.9835 64.0165 0
13.9639 21.7548 3.96976
15.1493 20.186 2
13.4505 18.9016 3.97539
16.4013 18.6506 0.0225376
14.7483 17.302 2
13.028 15.8827 3.98165
16.1017 15.7798 0.0189923
14.4824 14.2885 2
12.7818 12.6871 3.98993
16.0196 12.8071 0.0157628
14.4438 11.1142 2
12.7746 9.30605 4
16.2014 9.66265 0.00799707
14.6715 7.74924 2
16.6661 6.31991 0
23.1693 33.8014 3.97746
25.4802 34.2619 2
27.5457 34.7772 0.0567738
17.6409 24.0406 3.96939
17.8631 22.3232 2
14.3183 24.4497 3.96989
15.5351 22.9203 2
16.6861 21.379 0.0282958
19.0869 27.2031 3.97031
19.7279 21.5738 0.0204312
19.6788 24.38 2
21.2515 30.6644 3.9726
22.8603 24.6012 0.0291487
21.9839 27.8243 2
23.8232 31.1879 2
24.6151 28.5275 0.0272115
26.2708 31.7009 0.0101004
20.3303 35.9241 3.97654
22.5971 36.2779 2
24.8513 36.8558 0.0121032
23.0484 41.7939 0.019439
21.8671 38.5065 0.0227034
20.7861 40.6367 2
20.1969 37.7853 2
18.1509 38.9998 3.97662
19.7983 42.8839 0.0220628
17.4116 42.0987 2
14.8454 41.9164 3.97325
16.9857 44.3782 0.0242515
14.8706 44.1986 2
12.7156 44.3906 3.97036
14.8579 46.0889 0.0272817
12.9709 46.2946 2
10.9901 46.7332 3.96956
13.2974 48.0076 0.0294735
11.4893 48.5491 2
9.52863 49.2395 3.97125
12.1183 50.2514 0.0295925
10.2658 51.079 2
8.2672 52.0016 3.97556
11.1401 52.8343 0.0282135
9.2347 53.8876 2
7.19277 55.032 3.98381
6.31991 58.3339 4
8.38281 56.979 2
10.3253 55.709 0.0239802
7.74924 60.3285 2
9.69985 58.8495 0.0150849
9.30605 62.2254 0
13.2315 25.3622 3.97095
12.8322 23.2828 3.96986
13.9642 21.7542 2
12.2378 20.5515 3.97254
15.1491 20.1869 0.0275152
13.4507 18.9003 2
11.6585 17.5643 3.97979
14.7481 17.3032 0.0213297
13.0281 15.8816 2
11.2194 14.3722 3.988
14.4824 14.2895 0.0172363
12.7812 12.6876 2
10.9835 10.9835 4
14.4443 11.1137 0.00859585
12.7745 9.306 2
14.6715 7.74927 0
20.6924 33.3961 3.9749
23.1755 33.8019 2
25.5002 34.2651 0.0105539
15.9284 26.3999 3.97001
17.6407 24.04 2
17.8629 22.3241 0.0161055
14.3187 24.4494 2
15.5347 22.9208 0.0299539
18.4411 30.1728 3.97302
19.0857 27.2028 2
19.6792 24.3804 0.0308389
21.2579 30.6645 2
21.9829 27.8244 0.0291592
23.8318 31.1877 0.0251837
17.7768 35.963 3.97667
20.3298 35.9244 2
22.5996 36.2787 0.0215913
20.7892 40.6363 0.023165
20.1982 37.7851 0.0226944
18.1524 38.9999 2
14.3738 39.1748 3.9739
17.4117 42.0987 0.0235999
14.8456 41.9163 2
12.4168 42.275 3.97067
14.8703 44.1988 0.0271005
12.7158 44.3906 2
10.5672 44.8019 3.96914
12.9708 46.2946 0.029547
10.9901 46.7333 2
8.91076 47.3191 3.97066
11.4892 48.5491 0.0299377
9.52882 49.2395 2
7.43419 50.0352 3.97494
10.2655 51.0791 0.0282431
8.2675 52.0012 2
6.13338 53.0069 3.98441
9.23436 53.888 0.0242521
7.19224 55.0293 2
5.0241 56.25 4
6.31988 58.3339 2
8.3837 56.9819 0.0163573
7.74927 60.3285 0
13.4744 26.8139 3.97037
11.9424 24.7879 3.97137
13.2317 25.3619 2
11.1425 22.2369 3.97084
12.8328 23.2825 2
13.9639 21.7548 0.0302351
12.2383 20.5506 2
10.3897 19.3197 3.97771
13.4505 18.9016 0.0246143
11.6586 17.5632 2
9.7604 16.156 3.98617
13.028 15.8827 0.0183467
11.2185 14.3731 2
9.30607 12.7746 4
12.7818 12.6871 0.0100734
10.9835 10.9835 2
12.7746 9.30605 0
17.9407 33.1106 3.97525
20.6916 33.3961 2
23.1693 33.8014 0.0225427
15.5311 29.6367 3.97195
15.9276 26.3997 2
17.6409 24.0406 0.0306072
14.3183 24.4497 0.0301087
18.442 30.1727 2
19.0869 27.2031 0.0296892
21.2515 30.6644 0.0273974
14.9793 36.0176 3.97444
17.7762 35.9632 2
20.3303 35.9241 0.0234601
12.6427 37.8284 3.97343
18.1509 38.9998 0.0233806
14.3744 39.1748 2
11.9394 40.1392 3.97152
14.8454 41.9164 0.0267544
12.4167 42.2749 2
10.1692 42.7771 3.96886
12.7156 44.3906 0.0296407
10.5672 44.8019 2
8.38889 45.321 3.96983
10.9901 46.7332 0.030445
8.91081 47.3191 2
6.72546 48.0006 3.97448
9.52863 49.2395 0.0287527
7.43436 50.0348 2
5.21025 50.9102 3.98439
8.2672 52.0016 0.0244411
6.13308 53.0049 2
3.86727 54.0858 4
7.19277 55.032 0.016187
5.02404 56.25 2
6.31991 58.3339 0
12.9367 29.0325 3.96991
11.3724 26.487 3.96986
13.4736 26.8137 2
10.2004 23.9681 3.97243
11.9428 24.7877 2
13.2315 25.3622 0.029054
9.24327 21.1391 3.97526
11.1432 22.2364 2
12.8322 23.2828 0.0301374
12.2378 20.5515 0.0274603
10.3902 19.319 2
8.41647 18.0277 3.98467
11.6585 17.5643 0.0202068
9.75941 16.1577 2
7.74928 14.6715 4
11.2194 14.3722 0.0119976
9.30602 12.7745 2
10.9835 10.9835 0
14.5392 32.8624 3.97349
17.9408 33.1107 2
20.6924 33.3961 0.0250987
15.5311 29.6366 2
15.9284 26.3999 0.029987
18.4411 30.1728 0.0269835
12.9364 36.2085 3.97259
14.9796 36.0176 2
17.7768 35.963 0.0233273
12.6432 37.8283 2
11.2928 38.3089 3.97196
14.3738 39.1748 0.0261047
11.9398 40.1391 2
9.75987 40.7535 3.96928
12.4168 42.275 0.0293287
10.1692 42.7771 2
7.93864 43.2697 3.96917
10.5672 44.8019 0.0308637
8.3889 45.3209 2
6.13187 45.9058 3.97375
8.91076 47.3191 0.0293448
6.72549 48.0003 2
4.42188 48.7511 3.98404
7.43419 50.0352 0.0250573
5.21008 50.9091 2
2.85457 51.8506 4
6.13338 53.0069 0.0155878
3.86727 54.0858 2
5.0241 56.25 0
12.0836 31.256 3.97106
10.7849 28.4143 3.96917
12.9366 29.0324 2
9.41519 25.7979 3.97089
11.3725 26.4868 2
13.4744 26.8139 0.0296323
8.23007 23.0234 3.97536
10.2009 23.9678 2
11.9424 24.7879 0.0286307
7.19896 19.9785 3.9835
9.24397 21.139 2
11.1425 22.2369 0.0291635
10.3897 19.3197 0.0222924
8.41573 18.0301 2
6.31992 16.6661 4
9.7604 16.156 0.013831
7.74926 14.6714 2
9.30607 12.7746 0
12.1177 34.2943 3.97269
14.5391 32.8624 2
17.9407 33.1106 0.0247522
15.5311 29.6367 0.0280518
10.8546 36.6106 3.97166
12.9368 36.2085 2
14.9793 36.0176 0.0255617
12.6427 37.8284 0.0265705
11.2932 38.3088 2
9.35513 38.8229 3.96974
11.9394 40.1392 0.0284756
9.76023 40.7534 2
7.55024 41.211 3.96899
10.1692 42.7771 0.0311375
7.93872 43.2697 2
5.64428 43.7686 3.97304
8.38889 45.321 0.0301663
6.13187 45.9055 2
3.76761 46.537 3.98342
6.72546 48.0006 0.0255179
4.4218 48.7506 2
1.99014 49.554 4
5.21025 50.9102 0.0156072
2.85451 51.8506 2
3.86727 54.0858 0
10.9358 32.9187 3.97186
10.1002 30.3816 3.96922
12.0839 31.256 2
8.72355 27.7315 3.97011
10.7849 28.4141 2
12.9367 29.0325 0.0300882
7.35548 24.9822 3.97476
9.41541 25.7976 2
11.3724 26.487 0.0301383
6.11588 22.0023 3.98405
8.23063 23.0235 2
10.2004 23.9681 0.027574
5.02411 18.75 4
7.19868 19.9809 2
9.24327 21.1391 0.0247389
8.41647 18.0277 0.0153251
6.3199 16.6661 2
7.74928 14.6715 0
10.4605 34.9996 3.97141
12.1183 34.2943 2
14.5392 32.8624 0.0265086
9.02449 36.9845 3.96997
10.8554 36.6105 2
12.9364 36.2085 0.0274125
11.2928 38.3089 0.0280414
9.35543 38.8228 2
7.23078 39.1818 3.9693
9.75987 40.7535 0.0307175
7.55043 41.2109 2
5.25994 41.6142 3.97235
7.93864 43.2697 0.0308316
5.64435 43.7684 2
3.24552 44.282 3.98276
6.13187 45.9058 0.0262452
3.76763 46.5368 2
1.27781 47.2057 4
4.42188 48.7511 0.0159615
1.99012 49.554 2
2.85457 51.8506 0
10.0994 33.8811 3.97143
9.39132 32.154 3.96976
10.9359 32.9187 2
8.07254 29.695 3.96978
10.1003 30.3815 2
12.0836 31.256 0.0289394
6.59954 27.0083 3.97389
8.72358 27.7313 2
10.7849 28.4143 0.0308348
5.17117 24.0952 3.98437
7.35575 24.9822 2
9.41519 25.7979 0.0291127
3.86728 20.9142 4
6.1158 22.004 2
8.23007 23.0234 0.0246446
5.02406 18.75 2
7.19896 19.9785 0.0165042
6.31992 16.6661 0
8.84883 35.2791 3.97018
10.4609 34.9996 2
12.1177 34.2943 0.0273059
7.0144 37.2057 3.96951
9.02445 36.9844 2
10.8546 36.6106 0.0283407
9.35513 38.8229 0.0302622
7.23088 39.1817 2
4.98791 39.4674 3.97216
7.55024 41.211 0.0310094
5.26013 41.614 2
2.85617 42.0024 3.98225
5.64428 43.7686 0.026964
3.24561 44.2819 2
0.720592 44.8159 4
3.76761 46.537 0.0165807
1.27778 47.2057 2
1.99014 49.554 0
8.88663 33.6974 3.97021
10.0997 33.881 2
7.51013 31.6088 3.96997
9.39144 32.154 2
10.9358 32.9187 0.0281372
5.94476 29.0692 3.97372
8.07246 29.6949 2
10.1002 30.3816 0.030784
4.35903 26.2477 3.98369
6.59961 27.0083 2
8.72355 27.7315 0.0298873
2.85458 23.1494 4
5.17113 24.096 2
7.35548 24.9822 0.0252445
3.86728 20.9142 2
6.11588 22.0023 0.015951
5.02411 18.75 0
6.96446 35.3058 3.96971
8.84915 35.279 2
10.4605 34.9996 0.0285852
4.83795 37.3398 3.97264
7.01449 37.2056 2
9.02449 36.9845 0.0300256
7.23078 39.1818 0.0307014
4.988 39.4673 2
2.60438 39.714 3.98182
5.25994 41.6142 0.0276456
2.85639 42.0025 2
0.320823 42.3947 4
3.24552 44.282 0.0172365
0.720551 44.8159 2
1.27781 47.2057 0
7.12404 33.4606 3.97014
8.88674 33.6973 2
10.0994 33.8811 0.0285703
5.41576 31.1331 3.97351
7.51015 31.6087 2
9.39132 32.154 0.0302439
3.68084 28.4435 3.98321
5.94468 29.0692 2
8.07254 29.695 0.0302177
1.99015 25.446 4
4.35903 26.2479 2
6.59954 27.0083 0.0261071
2.85453 23.1494 2
5.17117 24.0952 0.0156303
3.86728 20.9142 0
4.85215 35.2514 3.97285
6.96467 35.3058 2
8.84883 35.2791 0.0298159
2.49574 37.4286 3.98228
4.83802 37.3398 2
7.0144 37.2057 0.0304887
4.98791 39.4674 0.0278364
2.60453 39.7144 2
0.080333 39.9526 4
2.85617 42.0024 0.0177503
0.320817 42.3947 2
0.720592 44.8159 0
5.04529 33.1899 3.97335
7.12419 33.4606 2
8.88663 33.6974 0.0297878
3.14524 30.6661 3.98274
5.41576 31.1333 2
7.51013 31.6088 0.0300317
1.27793 27.7943 4
3.68084 28.4436 2
5.94476 29.0692 0.0262767
1.99013 25.446 2
4.35903 26.2477 0.0163064
2.85458 23.1494 0
2.54784 35.1591 3.98244
4.85236 35.2515 2
6.96446 35.3058 0.0302924
0 37.5 4
2.49587 37.4289 2
4.83795 37.3398 0.0273598
2.60438 39.714 0.0181792
0.0802903 39.9526 2
0.320823 42.3947 0
2.76534 32.9058 3.98268
5.04543 33.19 2
7.12404 33.4606 0.0298615
0.721173 30.1842 4
3.14532 30.6665 2
5.41576 31.1331 0.0264925
1.27779 27.7943 2
3.68084 28.4435 0.0167878
1.99015 25.446 0
0.0806499 35.0474 4
2.54808 35.1594 2
4.85215 35.2514 0.0271462
0 37.5 2
2.49574 37.4286 0.0177159
0.080333 39.9526 0
0.32156 32.6054 4
2.76549 32.9062 2
5.04529 33.1899 0.0266539
0.72056 30.1841 2
3.14524 30.6661 0.017256
1.27793 27.7943 0
0.0802889 35.0474 2
2.54784 35.1591 0.0175581
0 37.5 0
0.320817 32.6053 2
2.76534 32.9058 0.0173191
0.721173 30.1842 0
0.0806499 35.0474 0
0.32156 32.6054 0
CELLS 1910 17190
8 18 6 25 56 2 0 5 16
8 57 23 6 18 17 4 0 2
8 78 36 9 29 31 11 1 7
8 31 11 1 7 79 37 10 30
8 110 57 18 50 48 17 2 14
8 50 18 56 111 14 2 16 49
8 116 62 22 55 52 20 3 15
8 56 25 67 118 16 5 24 53
8 119 63 23 57 54 21 4 17
8 55 22 63 119 15 3 21 54
8 58 26 68 121 18 6 25 56
8 122 65 26 58 57 23 6 18
8 73 31 7 27 142 79 30 71
8 143 78 29 72 73 31 7 27
8 83 147 76 34 32 74 28 8
8 84 148 78 36 33 75 29 9
8 76 34 8 28 148 84 33 75
8 37 79 150 86 10 30 77 35
8 151 87 36 78 80 38 11 31
8 80 38 11 31 152 88 37 79
8 175 100 42 94 96 44 12 40
8 44 96 176 101 12 40 95 43
8 101 176 98 46 43 95 41 13
8 46 98 178 103 13 41 97 45
8 178 103 45 97 147 83 32 74
8 189 116 55 109 106 52 15 47
8 111 56 118 191 49 16 53 107
8 192 119 57 110 108 54 17 48
8 109 55 119 192 47 15 54 108
8 194 122 58 112 110 57 18 50
8 112 58 121 195 50 18 56 111
8 115 61 19 51 197 124 59 113
8 115 61 125 198 51 19 60 114
8 198 125 62 116 114 60 20 52
8 200 127 64 120 116 62 22 55
8 118 67 132 202 53 24 66 117
8 121 68 133 203 56 25 67 118
8 120 64 128 204 55 22 63 119
8 204 128 65 122 119 63 23 57
8 206 134 68 121 123 69 26 58
8 123 69 26 58 207 131 65 122
8 226 147 74 138 140 76 28 70
8 229 148 75 139 143 78 29 72
8 140 76 28 70 229 148 75 139
8 142 79 30 71 231 150 77 141
8 144 80 31 73 232 152 79 142
8 233 151 78 143 144 80 31 73
8 150 86 35 77 235 154 81 145
8 235 154 81 145 146 82 39 91
8 146 82 39 91 236 155 90 165
8 238 157 83 147 149 85 34 76
8 239 158 84 148 151 87 36 78
8 149 85 34 76 239 158 84 148
8 152 88 37 79 241 160 86 150
8 242 161 87 151 153 89 38 80
8 153 89 38 80 243 162 88 152
8 171 98 41 92 265 178 97 169
8 265 178 97 169 226 147 74 138
8 172 96 40 93 266 176 95 170
8 266 176 95 170 171 98 41 92
8 269 175 94 173 172 96 40 93
8 271 180 99 174 175 100 42 94
8 197 124 59 113 271 180 99 174
8 272 181 100 175 177 102 44 96
8 273 182 101 176 179 104 46 98
8 177 102 44 96 273 182 101 176
8 179 104 46 98 275 184 103 178
8 275 184 103 178 238 157 83 147
8 188 115 51 105 283 197 113 186
8 188 115 198 284 105 51 114 187
8 284 198 116 189 187 114 52 106
8 286 200 120 193 189 116 55 109
8 191 118 202 288 107 53 117 190
8 195 121 203 289 111 56 118 191
8 193 120 204 290 109 55 119 192
8 290 204 122 194 192 119 57 110
8 196 123 58 112 292 207 122 194
8 293 206 121 195 196 123 58 112
8 199 126 61 115 297 211 124 197
8 298 212 127 200 198 125 62 116
8 199 126 212 298 115 61 125 198
8 205 129 64 120 300 214 127 200
8 301 217 130 201 202 132 66 117
8 209 136 168 264 301 217 130 201
8 302 219 132 202 203 133 67 118
8 303 220 133 203 206 134 68 121
8 205 129 215 304 120 64 128 204
8 304 215 131 207 204 128 65 122
8 306 221 134 206 208 135 69 123
8 208 135 69 123 307 218 131 207
8 210 137 167 263 309 223 136 209
8 328 238 147 226 230 149 76 140
8 228 146 91 166 329 236 165 260
8 231 150 77 141 330 235 145 227
8 330 235 145 227 228 146 91 166
8 332 239 148 229 233 151 78 143
8 230 149 76 140 332 239 148 229
8 232 152 79 142 334 241 150 231
8 234 153 80 144 335 243 152 232
8 336 242 151 233 234 153 80 144
8 236 155 90 165 338 245 164 259
8 241 160 86 150 339 246 154 235
8 339 246 154 235 237 156 82 146
8 237 156 82 146 340 247 155 236
8 342 249 157 238 240 159 85 149
8 343 250 158 239 242 161 87 151
8 240 159 85 149 343 250 158 239
8 243 162 88 152 345 252 160 241
8 244 163 253 346 153 89 161 242
8 244 163 89 153 347 254 162 243
8 311 224 261 371 210 137 167 263
8 263 167 262 372 209 136 168 264
8 267 179 98 171 375 275 178 265
8 375 275 178 265 328 238 147 226
8 376 273 176 266 267 179 98 171
8 268 177 96 172 376 273 176 266
8 379 272 175 269 268 177 96 172
8 380 271 174 270 269 175 94 173
8 283 197 113 186 380 271 174 270
8 381 277 180 271 272 181 100 175
8 297 211 124 197 381 277 180 271
8 382 278 181 272 274 183 102 177
8 274 183 102 177 383 279 182 273
8 383 279 182 273 276 185 104 179
8 385 281 184 275 342 249 157 238
8 276 185 104 179 385 281 184 275
8 285 199 115 188 393 297 197 283
8 394 298 200 286 284 198 116 189
8 285 199 298 394 188 115 198 284
8 291 205 120 193 396 300 200 286
8 397 301 201 287 288 202 117 190
8 295 209 264 374 397 301 201 287
8 398 302 202 288 289 203 118 191
8 399 303 203 289 293 206 121 195
8 291 205 304 400 193 120 204 290
8 400 304 207 292 290 204 122 194
8 294 208 123 196 402 307 207 292
8 403 306 206 293 294 208 123 196
8 296 210 263 373 405 309 209 295
8 408 312 213 299 297 211 126 199
8 299 213 313 409 199 126 212 298
8 409 313 214 300 298 212 127 200
8 305 216 129 205 411 315 214 300
8 412 318 217 301 302 219 132 202
8 309 223 136 209 412 318 217 301
8 413 320 219 302 303 220 133 203
8 306 221 321 414 206 134 220 303
8 307 218 131 207 415 316 215 304
8 305 216 316 415 205 129 215 304
8 417 322 221 306 308 222 135 208
8 308 222 135 208 418 319 218 307
8 310 225 137 210 420 325 223 309
8 423 326 224 311 310 225 137 210
8 329 236 165 260 441 338 259 368
8 442 342 238 328 333 240 149 230
8 331 237 146 228 443 340 236 329
8 334 241 150 231 444 339 235 330
8 444 339 235 330 331 237 146 228
8 446 343 239 332 336 242 151 233
8 333 240 149 230 446 343 239 332
8 335 243 152 232 448 345 241 334
8 337 244 153 234 449 347 243 335
8 337 244 346 450 234 153 242 336
8 338 245 164 259 452 349 258 367
8 340 247 155 236 453 350 245 338
8 345 252 160 241 454 351 246 339
8 454 351 246 339 341 248 156 237
8 341 248 156 237 455 352 247 340
8 240 159 251 344 342 249 354 457
8 242 161 253 346 343 250 355 458
8 343 250 355 458 240 159 251 344
8 347 254 162 243 460 357 252 345
8 348 255 358 461 244 163 253 346
8 348 255 163 244 462 359 254 347
8 473 360 257 365 363 256 364 482
8 452 349 258 367 365 257 366 485
8 422 324 369 488 311 224 261 371
8 371 261 370 490 263 167 262 372
8 407 311 371 491 296 210 263 373
8 373 263 372 492 295 209 264 374
8 493 385 275 375 442 342 238 328
8 377 276 179 267 493 385 275 375
8 378 274 177 268 494 383 273 376
8 494 383 273 376 377 276 179 267
8 497 382 272 379 378 274 177 268
8 498 381 271 380 379 272 175 269
8 393 297 197 283 498 381 271 380
8 499 387 277 381 382 278 181 272
8 408 312 211 297 499 387 277 381
8 500 388 278 382 384 280 183 274
8 501 389 279 383 386 282 185 276
8 384 280 183 274 501 389 279 383
8 386 282 185 276 503 391 281 385
8 503 391 281 385 457 354 249 342
8 511 408 299 395 393 297 199 285
8 395 299 409 512 285 199 298 394
8 512 409 300 396 394 298 200 286
8 401 305 205 291 514 411 300 396
8 515 412 301 397 398 302 202 288
8 405 309 209 295 515 412 301 397
8 516 413 302 398 399 303 203 289
8 403 306 414 517 293 206 303 399
8 402 307 207 292 518 415 304 400
8 401 305 415 518 291 205 304 400
8 404 308 208 294 520 418 307 402
8 521 417 306 403 404 308 208 294
8 406 310 210 296 523 420 309 405
8 526 423 311 407 406 310 210 296
8 410 314 213 299 527 424 312 408
8 528 425 315 411 409 313 214 300
8 410 314 425 528 299 213 313 409
8 416 317 216 305 530 427 315 411
8 531 430 318 412 413 320 219 302
8 420 325 223 309 531 430 318 412
8 532 432 320 413 414 321 220 303
8 417 322 433 533 306 221 321 414
8 418 319 218 307 534 428 316 415
8 416 317 428 534 305 216 316 415
8 419 323 434 536 308 222 322 417
8 419 323 222 308 537 431 319 418
8 421 327 225 310 539 438 325 420
8 421 327 439 541 310 225 326 423
8 543 437 324 422 423 326 224 311
8 441 338 259 368 559 452 367 486
8 443 340 236 329 560 453 338 441
8 333 240 344 447 442 342 457 561
8 445 341 237 331 562 455 340 443
8 448 345 241 334 563 454 339 444
8 563 454 339 444 445 341 237 331
8 336 242 346 450 446 343 458 565
8 446 343 458 565 333 240 344 447
8 449 347 243 335 567 460 345 448
8 451 348 244 337 568 462 347 449
8 451 348 461 569 337 244 346 450
8 570 463 349 452 473 360 257 365
8 453 350 245 338 570 463 349 452
8 455 352 247 340 571 464 350 453
8 460 357 252 345 572 465 351 454
8 572 465 351 454 456 353 248 341
8 456 353 248 341 573 466 352 455
8 344 251 356 459 457 354 468 575
8 458 355 469 576 344 251 356 459
8 346 253 358 461 458 355 469 576
8 462 359 254 347 578 471 357 460
8 348 255 359 462 461 358 472 579
8 591 474 360 473 475 361 256 363
8 475 361 256 363 594 477 362 479
8 363 256 364 482 479 362 480 603
8 590 473 365 484 481 363 482 605
8 482 364 257 365 606 483 366 485
8 559 452 367 486 484 365 485 607
8 542 436 487 609 422 324 369 488
8 525 422 488 611 407 311 371 491
8 488 369 489 612 371 261 370 490
8 491 371 490 613 373 263 372 492
8 495 386 276 377 614 503 385 493
8 614 503 385 493 561 457 342 442
8 615 501 383 494 495 386 276 377
8 496 384 274 378 615 501 383 494
8 618 500 382 497 496 384 274 378
8 619 499 381 498 497 382 272 379
8 511 408 297 393 619 499 381 498
8 620 505 387 499 500 388 278 382
8 527 424 312 408 620 505 387 499
8 502 390 506 621 384 280 388 500
8 622 507 389 501 504 392 282 386
8 502 390 280 384 622 507 389 501
8 504 392 282 386 624 509 391 503
8 624 509 391 503 575 468 354 457
8 513 410 299 395 630 527 408 511
8 631 528 411 514 512 409 300 396
8 513 410 528 631 395 299 409 512
8 519 416 305 401 633 530 411 514
8 634 531 412 515 516 413 302 398
8 523 420 309 405 634 531 412 515
8 635 532 413 516 517 414 303 399
8 521 417 533 636 403 306 414 517
8 520 418 307 402 637 534 415 518
8 519 416 534 637 401 305 415 518
8 522 419 308 404 639 537 418 520
8 522 419 536 640 404 308 417 521
8 524 421 310 406 642 539 420 523
8 524 421 541 644 406 310 423 526
8 646 543 422 525 526 423 311 407
8 529 426 314 410 647 544 424 527
8 528 425 545 648 411 315 427 530
8 529 426 545 648 410 314 425 528
8 535 429 317 416 649 546 427 530
8 650 548 430 531 532 432 320 413
8 539 438 325 420 650 548 430 531
8 533 433 550 651 414 321 432 532
8 536 434 551 652 417 322 433 533
8 537 431 319 418 653 547 428 534
8 535 429 547 653 416 317 428 534
8 538 435 552 654 419 323 434 536
8 538 435 323 419 655 549 431 537
8 540 440 327 421 657 556 438 539
8 540 440 557 659 421 327 439 541
8 541 439 555 660 423 326 437 543
8 661 554 436 542 543 437 324 422
8 676 570 452 559 590 473 365 484
8 560 453 338 441 676 570 452 559
8 562 455 340 443 677 571 453 560
8 447 344 459 566 561 457 575 678
8 564 456 341 445 679 573 455 562
8 567 460 345 448 680 572 454 563
8 680 572 454 563 564 456 341 445
8 565 458 576 682 447 344 459 566
8 450 346 461 569 565 458 576 682
8 568 462 347 449 684 578 460 567
8 451 348 462 568 569 461 579 685
8 686 580 463 570 591 474 360 473
8 571 464 350 453 686 580 463 570
8 573 466 352 455 687 581 464 571
8 572 465 582 688 460 357 471 578
8 574 467 582 688 456 353 465 572
8 574 467 353 456 689 583 466 573
8 459 356 470 577 575 468 585 691
8 576 469 586 692 459 356 470 577
8 461 358 472 579 576 469 586 692
8 462 359 471 578 579 472 588 694
8 704 591 473 590 593 475 363 481
8 595 476 592 705 475 361 474 591
8 593 475 363 481 707 594 479 602
8 594 477 362 479 709 598 478 600
8 595 476 361 475 711 597 477 594
8 479 362 480 603 600 478 601 720
8 481 363 482 605 602 479 603 722
8 603 480 364 482 723 604 483 606
8 605 482 365 484 724 606 485 607
8 656 553 608 726 542 436 487 609
8 645 542 609 728 525 422 488 611
8 609 487 610 729 488 369 489 612
8 611 488 612 730 491 371 490 613
8 616 504 386 495 731 624 503 614
8 731 624 503 614 678 575 457 561
8 732 622 501 615 616 504 386 495
8 617 502 384 496 732 622 501 615
8 617 502 621 735 496 384 500 618
8 736 620 499 619 618 500 382 497
8 630 527 408 511 736 620 499 619
8 621 506 626 737 500 388 505 620
8 647 544 424 527 737 626 505 620
8 623 508 627 738 502 390 506 621
8 623 508 390 502 739 628 507 622
8 625 510 628 739 504 392 507 622
8 740 629 509 624 691 585 468 575
8 625 510 392 504 740 629 509 624
8 632 529 410 513 744 647 527 630
8 631 528 648 745 514 411 530 633
8 632 529 648 745 513 410 528 631
8 638 535 416 519 746 649 530 633
8 747 650 531 634 635 532 413 516
8 642 539 420 523 747 650 531 634
8 636 533 651 748 517 414 532 635
8 640 536 652 749 521 417 533 636
8 639 537 418 520 750 653 534 637
8 638 535 653 750 519 416 534 637
8 641 538 419 522 751 655 537 639
8 641 538 654 752 522 419 536 640
8 643 540 421 524 753 657 539 642
8 643 540 659 755 524 421 541 644
8 644 541 660 757 526 423 543 646
8 758 661 542 645 646 543 422 525
8 529 426 544 647 648 545 662 759
8 530 427 545 648 649 546 663 760
8 535 429 546 649 653 547 664 761
8 762 666 548 650 651 550 432 532
8 657 556 438 539 762 666 548 650
8 652 551 668 763 533 433 550 651
8 654 552 669 764 536 434 551 652
8 655 549 431 537 765 665 547 653
8 538 435 549 655 654 552 667 766
8 661 554 671 768 542 436 553 656
8 658 558 440 540 769 674 556 657
8 658 558 675 770 540 440 557 659
8 659 557 673 771 541 439 555 660
8 660 555 672 772 543 437 554 661
8 788 686 570 676 704 591 473 590
8 677 571 453 560 788 686 570 676
8 679 573 455 562 789 687 571 677
8 566 459 577 683 678 575 691 790
8 681 574 456 564 791 689 573 679
8 680 572 688 792 567 460 578 684
8 681 574 688 792 564 456 572 680
8 682 576 692 794 566 459 577 683
8 569 461 579 685 682 576 692 794
8 568 462 578 684 685 579 694 796
8 687 581 464 571 798 696 580 686
8 798 696 580 686 705 592 474 591
8 689 583 466 573 799 697 581 687
8 688 582 698 800 578 471 588 694
8 690 584 698 800 574 467 582 688
8 690 584 467 574 801 699 583 689
8 693 587 701 803 577 470 585 691
8 693 587 470 577 804 702 586 692
8 695 589 702 804 579 472 586 692
8 695 589 472 579 805 703 588 694
8 708 595 705 813 593 475 591 704
8 710 596 706 814 595 476 592 705
8 707 594 479 602 816 709 600 719
8 708 595 475 593 817 711 594 707
8 709 598 478 600 819 715 599 717
8 711 597 477 594 820 714 598 709
8 710 596 476 595 822 713 597 711
8 600 478 601 720 717 599 718 832
8 602 479 603 722 719 600 720 834
8 720 601 480 603 835 721 604 723
8 722 603 482 605 836 723 606 724
8 767 670 725 839 656 553 608 726
8 756 656 726 841 645 542 609 728
8 726 608 727 842 609 487 610 729
8 728 609 729 843 611 488 612 730
8 844 740 624 731 790 691 575 678
8 733 625 504 616 844 740 624 731
8 734 623 502 617 845 739 622 732
8 733 625 739 845 616 504 622 732
8 734 623 738 846 617 502 621 735
8 735 621 737 847 618 500 620 736
8 744 647 527 630 847 737 620 736
8 621 506 627 738 737 626 741 848
8 647 544 626 737 759 662 741 848
8 623 508 628 739 738 627 742 849
8 740 629 585 691 850 743 700 802
8 625 510 629 740 739 628 743 850
8 632 529 647 744 745 648 759 854
8 633 530 648 745 746 649 760 855
8 638 535 649 746 750 653 761 856
8 857 762 650 747 748 651 532 635
8 753 657 539 642 857 762 650 747
8 749 652 763 858 636 533 651 748
8 752 654 764 859 640 536 652 749
8 751 655 537 639 860 765 653 750
8 641 538 655 751 752 654 766 861
8 754 658 540 643 862 769 657 753
8 754 658 770 863 643 540 659 755
8 755 659 771 864 644 541 660 757
8 758 661 768 866 645 542 656 756
8 757 660 772 867 646 543 661 758
8 759 662 773 868 648 545 663 760
8 649 546 663 760 761 664 774 871
8 765 665 547 653 872 775 664 761
8 873 777 666 762 763 668 550 651
8 769 674 556 657 873 777 666 762
8 764 669 779 874 652 551 668 763
8 654 552 667 766 764 669 778 875
8 655 549 665 765 766 667 776 876
8 768 671 782 877 656 553 670 767
8 772 672 783 878 661 554 671 768
8 658 558 674 769 770 675 786 879
8 659 557 675 770 771 673 785 881
8 882 784 672 772 771 673 555 660
8 789 687 571 677 897 798 686 788
8 897 798 686 788 813 705 591 704
8 791 689 573 679 898 799 687 789
8 795 693 803 900 683 577 691 790
8 793 690 574 681 901 801 689 791
8 792 688 800 902 684 578 694 796
8 793 690 800 902 681 574 688 792
8 795 693 577 683 903 804 692 794
8 797 695 804 903 685 579 692 794
8 797 695 579 685 904 805 694 796
8 905 806 697 799 798 696 581 687
8 814 706 806 905 705 592 696 798
8 689 583 697 799 801 699 808 907
8 800 698 809 908 694 588 703 805
8 690 584 699 801 800 698 809 908
8 803 701 810 909 691 585 700 802
8 693 587 702 804 803 701 811 910
8 695 589 703 805 804 702 812 911
8 818 710 814 919 708 595 705 813
8 821 712 815 920 710 596 706 814
8 816 709 600 719 922 819 717 831
8 817 711 594 707 923 820 709 816
8 818 710 595 708 924 822 711 817
8 819 715 599 717 926 827 716 829
8 820 714 598 709 927 826 715 819
8 929 825 713 822 820 714 597 711
8 821 712 596 710 930 824 713 822
8 717 599 718 832 829 716 830 942
8 719 600 720 834 831 717 832 944
8 832 718 601 720 945 833 721 835
8 834 720 603 722 946 835 723 836
8 869 780 838 950 767 670 725 839
8 865 767 839 952 756 656 726 841
8 839 725 840 953 726 608 727 842
8 841 726 842 954 728 609 729 843
8 844 740 691 790 955 850 802 899
8 733 625 740 844 845 739 850 955
8 734 623 739 845 846 738 849 956
8 735 621 738 846 847 737 848 957
8 744 647 737 847 854 759 848 957
8 738 627 742 849 848 741 851 958
8 848 741 851 958 759 662 773 868
8 850 743 700 802 959 852 807 906
8 849 742 628 739 959 852 743 850
8 854 759 868 965 745 648 760 855
8 746 649 760 855 856 761 871 966
8 860 765 653 750 967 872 761 856
8 968 873 762 857 858 763 651 748
8 862 769 657 753 968 873 762 857
8 859 764 874 969 749 652 763 858
8 752 654 766 861 859 764 875 970
8 751 655 765 860 861 766 876 971
8 754 658 769 862 863 770 879 972
8 755 659 770 863 864 771 881 974
8 976 882 772 867 864 771 660 757
8 866 768 877 977 756 656 767 865
8 867 772 878 978 758 661 768 866
8 760 663 773 868 871 774 883 980
8 870 781 837 948 982 890 780 869
8 982 890 780 869 877 782 670 767
8 761 664 774 871 872 775 884 984
8 876 776 665 765 985 885 775 872
8 873 777 668 763 986 887 779 874
8 769 674 777 873 879 786 887 986
8 764 669 778 875 874 779 888 987
8 766 667 776 876 875 778 886 988
8 878 783 892 989 768 671 782 877
8 878 783 672 772 990 893 784 882
8 880 787 675 770 991 896 786 879
8 880 787 895 992 770 675 785 881
8 881 785 894 993 771 673 784 882
8 1006 905 799 898 897 798 687 789
8 919 814 905 1006 813 705 798 897
8 791 689 799 898 901 801 907 1007
8 900 803 909 1009 790 691 802 899
8 795 693 804 903 900 803 910 1010
8 902 800 908 1011 796 694 805 904
8 793 690 801 901 902 800 908 1011
8 797 695 805 904 903 804 911 1012
8 799 697 806 905 907 808 912 1013
8 920 815 912 1013 814 706 806 905
8 802 700 810 909 906 807 913 1014
8 801 699 808 907 908 809 914 1015
8 805 703 809 908 911 812 915 1016
8 803 701 811 910 909 810 916 1017
8 911 812 917 1018 804 702 811 910
8 925 821 920 1030 818 710 814 919
8 928 823 921 1031 821 712 815 920
8 922 819 717 831 1033 926 829 941
8 923 820 709 816 1034 927 819 922
8 1035 929 822 924 923 820 711 817
8 925 821 710 818 1036 930 822 924
8 1038 933 825 929 927 826 714 820
8 926 827 716 829 1039 935 828 939
8 927 826 715 819 1040 934 827 926
8 928 823 712 821 1041 931 824 930
8 1042 932 824 930 929 825 713 822
8 829 716 830 942 939 828 940 1058
8 831 717 832 944 941 829 942 1060
8 942 830 718 832 1061 943 833 945
8 944 832 720 834 1062 945 835 946
8 981 889 947 1064 870 781 837 948
8 948 837 949 1067 869 780 838 950
8 975 869 950 1069 865 767 839 952
8 950 838 951 1070 839 725 840 953
8 952 839 953 1071 841 726 842 954
8 955 850 802 899 1072 959 906 1008
8 956 849 739 845 1072 959 850 955
8 846 738 849 956 957 848 958 1073
8 957 848 958 1073 854 759 868 965
8 849 742 852 959 958 851 961 1076
8 960 853 961 1076 906 807 852 959
8 958 851 961 1076 868 773 883 980
8 960 853 807 906 1077 963 913 1014
8 855 760 868 965 966 871 980 1085
8 856 761 871 966 967 872 984 1086
8 971 876 765 860 1087 985 872 967
8 968 873 763 858 1088 986 874 969
8 862 769 873 968 972 879 986 1088
8 859 764 875 970 969 874 987 1089
8 861 766 876 971 970 875 988 1090
8 973 880 770 863 1091 991 879 972
8 973 880 992 1092 863 770 881 974
8 974 881 993 1093 864 771 882 976
8 979 870 948 1066 1094 982 869 975
8 1094 982 869 975 977 877 767 865
8 978 878 772 867 1095 990 882 976
8 978 878 989 1096 866 768 877 977
8 871 774 883 980 984 884 994 1099
8 983 891 999 1100 870 781 889 981
8 1101 1000 890 982 989 892 782 877
8 983 891 781 870 1101 1000 890 982
8 872 775 884 984 985 885 995 1103
8 876 776 885 985 988 886 996 1104
8 986 887 779 874 1105 998 888 987
8 879 786 887 986 991 896 998 1105
8 875 778 886 988 987 888 997 1106
8 990 893 1002 1107 878 783 892 989
8 1108 1003 893 990 993 894 784 882
8 880 787 896 991 992 895 1005 1109
8 993 894 785 881 1110 1004 895 992
8 898 799 905 1006 1007 907 1013 1120
8 1030 920 1013 1120 919 814 905 1006
8 901 801 907 1007 1011 908 1015 1121
8 899 802 909 1009 1008 906 1014 1122
8 900 803 910 1010 1009 909 1017 1123
8 1012 911 1018 1124 903 804 910 1010
8 904 805 908 1011 1012 911 1016 1125
8 1013 912 1020 1127 907 808 914 1015
8 1031 921 1020 1127 920 815 912 1013
8 1019 918 962 1075 1128 1021 913 1014
8 1128 1021 913 1014 1017 916 810 909
8 1015 914 1022 1129 908 809 915 1016
8 1016 915 1023 1130 911 812 917 1018
8 1018 917 1024 1131 910 811 916 1017
8 1037 928 1031 1148 925 821 920 1030
8 928 823 931 1041 1031 921 1032 1149
8 1033 926 829 941 1151 1039 939 1057
8 1034 927 819 922 1152 1040 926 1033
8 1153 1038 929 1035 1034 927 820 923
8 1154 1042 930 1036 1035 929 822 924
8 1037 928 821 925 1155 1041 930 1036
8 1039 935 828 939 1156 1047 938 1055
8 1157 1043 932 1042 1038 933 825 929
8 1038 933 826 927 1158 1045 934 1040
8 1040 934 827 926 1159 1046 935 1039
8 930 824 932 1042 1041 931 1044 1160
8 1051 936 1048 1165 1175 1052 937 1053
8 1156 1047 938 1055 1053 937 1054 1178
8 939 828 940 1058 1055 938 1056 1181
8 941 829 942 1060 1057 939 1058 1183
8 942 830 943 1061 1058 940 1059 1184
8 1060 942 832 944 1185 1061 945 1062
8 1082 964 1063 1188 981 889 947 1064
8 1097 981 1064 1190 979 870 948 1066
8 1064 947 1065 1191 948 837 949 1067
8 1066 948 1067 1193 975 869 950 1069
8 1067 949 1068 1194 950 838 951 1070
8 1069 950 1070 1195 952 839 953 1071
8 956 849 959 1072 1073 958 1076 1197
8 1074 960 1076 1197 1008 906 959 1072
8 1073 958 1076 1197 965 868 980 1085
8 1074 960 906 1008 1198 1077 1014 1122
8 1133 1026 1079 1199 1019 918 962 1075
8 1077 963 913 1014 1200 1080 962 1075
8 960 853 963 1077 1076 961 1078 1201
8 980 883 961 1076 1099 994 1078 1201
8 1210 1083 964 1082 1100 999 889 981
8 966 871 980 1085 1086 984 1099 1215
8 967 872 984 1086 1087 985 1103 1216
8 971 876 985 1087 1090 988 1104 1217
8 1088 986 874 969 1218 1105 987 1089
8 972 879 986 1088 1091 991 1105 1218
8 970 875 988 1090 1089 987 1106 1219
8 973 880 991 1091 1092 992 1109 1220
8 1093 993 881 974 1221 1110 992 1092
8 1222 1108 990 1095 1093 993 882 976
8 1223 1101 982 1094 1096 989 877 977
8 1098 983 870 979 1223 1101 982 1094
8 1095 990 1107 1224 978 878 989 1096
8 1098 983 1100 1225 979 870 981 1097
8 984 884 994 1099 1103 995 1111 1227
8 1102 1001 1115 1228 983 891 999 1100
8 1101 1000 892 989 1229 1116 1002 1107
8 1102 1001 891 983 1229 1116 1000 1101
8 985 885 995 1103 1104 996 1112 1230
8 988 886 996 1104 1106 997 1113 1231
8 1105 998 888 987 1232 1114 997 1106
8 991 896 998 1105 1109 1005 1114 1232
8 1108 1003 1117 1233 990 893 1002 1107
8 1108 1003 894 993 1233 1117 1004 1110
8 992 895 1005 1109 1110 1004 1118 1234
8 1120 1013 1127 1244 1007 907 1015 1121
8 1148 1031 1127 1244 1030 920 1013 1120
8 1121 1015 1129 1245 1011 908 1016 1125
8 1126 1019 1075 1196 1246 1128 1014 1122
8 1246 1128 1014 1122 1123 1017 909 1009
8 1124 1018 1131 1247 1010 910 1017 1123
8 1125 1016 1130 1248 1012 911 1018 1124
8 1127 1020 1137 1254 1015 914 1022 1129
8 1031 921 1032 1149 1127 1020 1137 1254
8 1134 1027 918 1019 1257 1140 1021 1128
8 1257 1140 1021 1128 1131 1024 916 1017
8 1129 1022 1141 1258 1016 915 1023 1130
8 1130 1023 1142 1259 1018 917 1024 1131
8 1261 1144 1025 1132 1133 1026 1079 1199
8 1255 1138 1025 1132 1135 1028 1144 1261
8 1133 1026 918 1019 1262 1145 1027 1134
8 1136 1029 1139 1256 1263 1146 1028 1135
8 1037 928 1041 1155 1148 1031 1149 1275
8 1041 931 1044 1160 1149 1032 1150 1276
8 1151 1039 939 1057 1278 1156 1055 1180
8 1152 1040 926 1033 1279 1159 1039 1151
8 1153 1038 927 1034 1280 1158 1040 1152
8 1281 1157 1042 1154 1153 1038 929 1035
8 1036 930 1042 1154 1155 1041 1160 1282
8 1283 1164 1046 1159 1156 1047 935 1039
8 1165 1048 1164 1283 1053 937 1047 1156
8 1157 1043 933 1038 1284 1161 1045 1158
8 1157 1043 1161 1284 1042 932 1044 1160
8 1040 934 1046 1159 1158 1045 1163 1285
8 1166 1049 1167 1292 1051 936 1048 1165
8 1166 1049 936 1051 1293 1168 1050 1172
8 1051 936 1052 1175 1172 1050 1173 1306
8 1174 1051 1165 1290 1308 1175 1053 1177
8 1053 937 1054 1178 1175 1052 1176 1309
8 1278 1156 1055 1180 1177 1053 1178 1311
8 1055 938 1056 1181 1178 1054 1179 1312
8 1057 939 1058 1183 1180 1055 1181 1314
8 1058 940 1059 1184 1181 1056 1182 1315
8 1060 942 1061 1185 1183 1058 1184 1316
8 1208 1081 1187 1321 1082 964 1063 1188
8 1209 1082 1188 1322 1097 981 1064 1190
8 1188 1063 1189 1323 1064 947 1065 1191
8 1190 1064 1191 1325 1066 948 1067 1193
8 1191 1065 1192 1326 1067 949 1068 1194
8 1067 1193 1069 950 1194 1327 1195 1070
8 1250 1133 1199 1330 1126 1019 1075 1196
8 1198 1077 1014 1122 1331 1200 1075 1196
8 1074 960 1077 1198 1197 1076 1201 1332
8 1085 980 1076 1197 1215 1099 1201 1332
8 1199 1079 1203 1333 1075 962 1080 1200
8 1132 1025 1119 1243 1199 1079 1203 1333
8 1201 1078 963 1077 1334 1202 1080 1200
8 1099 994 1078 1201 1227 1111 1202 1334
8 1343 1207 1081 1208 1210 1083 964 1082
8 1214 1084 1186 1319 1343 1207 1081 1208
8 1345 1210 1082 1209 1225 1100 981 1097
8 1346 1211 1083 1210 1228 1115 999 1100
8 1086 984 1099 1215 1216 1103 1227 1352
8 1087 985 1103 1216 1217 1104 1230 1353
8 1090 988 1104 1217 1219 1106 1231 1354
8 1218 1105 987 1089 1355 1232 1106 1219
8 1091 991 1105 1218 1220 1109 1232 1355
8 1092 992 1109 1220 1221 1110 1234 1356
8 1222 1108 1233 1357 1095 990 1107 1224
8 1222 1108 993 1093 1357 1233 1110 1221
8 1223 1101 989 1096 1358 1229 1107 1224
8 1226 1102 983 1098 1358 1229 1101 1223
8 1226 1102 1228 1359 1098 983 1100 1225
8 1103 995 1111 1227 1230 1112 1235 1360
8 1107 1002 1117 1233 1229 1116 1240 1362
8 1102 1001 1116 1229 1228 1115 1240 1362
8 1104 996 1112 1230 1231 1113 1236 1363
8 1364 1237 1114 1232 1231 1113 997 1106
8 1109 1005 1114 1232 1234 1118 1238 1365
8 1110 1004 1118 1234 1233 1117 1241 1366
8 1242 1374 1255 1138 1119 1243 1132 1025
8 1244 1127 1254 1376 1121 1015 1129 1245
8 1148 1031 1149 1275 1244 1127 1254 1376
8 1245 1129 1258 1377 1125 1016 1130 1248
8 1251 1134 1019 1126 1378 1257 1128 1246
8 1378 1257 1128 1246 1247 1131 1017 1123
8 1248 1130 1259 1379 1124 1018 1131 1247
8 1261 1381 1250 1133 1132 1249 1330 1199
8 1255 1380 1252 1135 1132 1249 1381 1261
8 1250 1133 1019 1126 1382 1262 1134 1251
8 1253 1136 1256 1385 1384 1263 1135 1252
8 1254 1137 1265 1387 1129 1022 1141 1258
8 1149 1032 1150 1276 1254 1137 1265 1387
8 1028 1135 1255 1138 1139 1256 1388 1266
8 1136 1029 1147 1264 1256 1139 1267 1389
8 1390 1268 1140 1257 1259 1142 1024 1131
8 1260 1143 1027 1134 1390 1268 1140 1257
8 1258 1141 1269 1391 1130 1023 1142 1259
8 1262 1145 1027 1134 1393 1271 1143 1260
8 1261 1144 1026 1133 1394 1272 1145 1262
8 1135 1028 1144 1261 1263 1146 1272 1394
8 1136 1029 1146 1263 1264 1147 1273 1395
8 1155 1041 1160 1282 1275 1149 1276 1405
8 1276 1150 1044 1160 1406 1277 1162 1286
8 1408 1283 1159 1279 1278 1156 1039 1151
8 1290 1165 1283 1408 1177 1053 1156 1278
8 1152 1040 1159 1279 1280 1158 1285 1409
8 1281 1157 1038 1153 1410 1284 1158 1280
8 1281 1157 1284 1410 1154 1042 1160 1282
8 1159 1046 1164 1283 1285 1163 1289 1412
8 1292 1167 1289 1412 1165 1048 1164 1283
8 1158 1045 1163 1285 1284 1161 1288 1413
8 1284 1161 1288 1413 1160 1044 1162 1286
8 1291 1166 1292 1418 1174 1051 1165 1290
8 1291 1166 1051 1174 1419 1293 1172 1305
8 1294 1169 1296 1421 1166 1049 1167 1292
8 1293 1168 1050 1172 1422 1295 1171 1303
8 1294 1169 1049 1166 1423 1297 1168 1293
8 1422 1295 1171 1303 1301 1170 1302 1435
8 1172 1050 1173 1306 1303 1171 1304 1438
8 1174 1051 1175 1308 1305 1172 1306 1440
8 1175 1052 1176 1309 1306 1173 1307 1441
8 1177 1053 1178 1311 1308 1175 1309 1443
8 1178 1054 1179 1312 1309 1176 1310 1444
8 1180 1055 1181 1314 1311 1178 1312 1446
8 1056 1181 1312 1179 1182 1315 1447 1313
8 1183 1058 1184 1316 1314 1181 1315 1448
8 1319 1186 1084 1214 1451 1317 1213 1350
8 1319 1186 1318 1453 1208 1081 1187 1321
8 1321 1187 1320 1456 1188 1063 1189 1323
8 1344 1208 1321 1457 1209 1082 1188 1322
8 1322 1188 1323 1458 1190 1064 1191 1325
8 1323 1189 1324 1459 1191 1065 1192 1326
8 1191 1325 1193 1067 1326 1460 1327 1194
8 1242 1374 1243 1119 1328 1462 1335 1204
8 1330 1199 1333 1465 1196 1075 1200 1331
8 1132 1249 1330 1199 1243 1375 1465 1333
8 1332 1201 1077 1198 1466 1334 1200 1331
8 1215 1099 1201 1332 1352 1227 1334 1466
8 1119 1243 1333 1203 1204 1335 1470 1338
8 1333 1203 1338 1470 1200 1080 1202 1334
8 1227 1111 1202 1334 1360 1235 1338 1470
8 1328 1462 1335 1204 1205 1336 1471 1339
8 1337 1206 1340 1472 1464 1329 1205 1336
8 1346 1211 1342 1479 1210 1083 1207 1343
8 1346 1211 1115 1228 1479 1342 1239 1361
8 1348 1212 1084 1214 1479 1342 1207 1343
8 1480 1343 1208 1344 1345 1210 1082 1209
8 1351 1214 1319 1454 1480 1343 1208 1344
8 1481 1346 1210 1345 1359 1228 1100 1225
8 1348 1212 1347 1483 1214 1084 1213 1350
8 1216 1103 1227 1352 1353 1230 1360 1488
8 1217 1104 1230 1353 1354 1231 1363 1489
8 1490 1364 1232 1355 1354 1231 1106 1219
8 1220 1109 1232 1355 1356 1234 1365 1491
8 1221 1110 1234 1356 1357 1233 1366 1492
8 1224 1107 1233 1357 1358 1229 1362 1493
8 1226 1102 1229 1358 1359 1228 1362 1493
8 1230 1112 1235 1360 1363 1236 1367 1496
8 1361 1239 1115 1228 1497 1371 1240 1362
8 1366 1241 1372 1498 1233 1117 1240 1362
8 1364 1237 1113 1231 1499 1368 1236 1363
8 1364 1237 1368 1499 1232 1114 1238 1365
8 1234 1118 1238 1365 1366 1241 1369 1500
8 1507 1373 1242 1374 1388 1266 1138 1255
8 1508 1374 1243 1375 1380 1255 1132 1249
8 1376 1254 1387 1509 1245 1129 1258 1377
8 1275 1149 1276 1405 1376 1254 1387 1509
8 1377 1258 1391 1510 1248 1130 1259 1379
8 1511 1390 1257 1378 1379 1259 1131 1247
8 1383 1260 1134 1251 1511 1390 1257 1378
8 1252 1135 1256 1385 1380 1255 1388 1512
8 1261 1381 1513 1394 1133 1250 1382 1262
8 1135 1252 1384 1263 1261 1381 1513 1394
8 1382 1262 1134 1251 1514 1393 1260 1383
8 1253 1136 1263 1384 1386 1264 1395 1516
8 1253 1136 1264 1386 1385 1256 1389 1517
8 1387 1265 1397 1519 1258 1141 1269 1391
8 1276 1150 1277 1406 1387 1265 1397 1519
8 1256 1139 1267 1389 1388 1266 1398 1520
8 1264 1147 1274 1396 1389 1267 1399 1521
8 1392 1270 1143 1260 1522 1400 1268 1390
8 1390 1268 1142 1259 1522 1400 1269 1391
8 1392 1270 1401 1523 1260 1143 1271 1393
8 1272 1394 1524 1402 1145 1262 1393 1271
8 1395 1273 1146 1263 1524 1402 1272 1394
8 1273 1395 1264 1147 1403 1526 1396 1274
8 1405 1276 1160 1282 1534 1406 1286 1411
8 1414 1287 1407 1535 1286 1162 1277 1406
8 1279 1159 1283 1408 1409 1285 1412 1537
8 1418 1292 1412 1537 1290 1165 1283 1408
8 1280 1158 1285 1409 1410 1284 1413 1538
8 1410 1284 1413 1538 1282 1160 1286 1411
8 1285 1163 1289 1412 1413 1288 1417 1540
8 1421 1296 1417 1540 1292 1167 1289 1412
8 1414 1287 1162 1286 1541 1416 1288 1413
8 1420 1294 1421 1545 1291 1166 1292 1418
8 1419 1293 1172 1305 1546 1422 1303 1437
8 1420 1294 1166 1291 1547 1423 1293 1419
8 1294 1169 1297 1423 1421 1296 1425 1548
8 1423 1297 1168 1293 1549 1424 1295 1422
8 1301 1170 1298 1427 1422 1295 1424 1549
8 1432 1300 1428 1554 1301 1170 1298 1427
8 1431 1299 1428 1554 1560 1430 1300 1432
8 1563 1433 1300 1432 1435 1302 1170 1301
8 1546 1422 1303 1437 1434 1301 1435 1565
8 1303 1171 1304 1438 1435 1302 1436 1566
8 1305 1172 1306 1440 1437 1303 1438 1568
8 1306 1173 1307 1441 1438 1304 1439 1569
8 1308 1175 1309 1443 1440 1306 1441 1571
8 1309 1176 1310 1444 1441 1307 1442 1572
8 1311 1178 1312 1446 1443 1309 1444 1574
8 1179 1312 1444 1310 1313 1447 1575 1445
8 1314 1181 1315 1448 1446 1312 1447 1576
8 1350 1213 1349 1486 1451 1317 1449 1579
8 1451 1317 1450 1581 1319 1186 1318 1453
8 1454 1319 1214 1351 1582 1451 1350 1487
8 1453 1318 1452 1584 1321 1187 1320 1456
8 1454 1319 1453 1585 1344 1208 1321 1457
8 1456 1320 1455 1586 1323 1189 1324 1459
8 1457 1321 1456 1587 1322 1188 1323 1458
8 1458 1323 1459 1588 1325 1191 1326 1460
8 1205 1336 1464 1329 1328 1462 1590 1461
8 1507 1373 1461 1590 1374 1242 1328 1462
8 1508 1374 1462 1591 1375 1243 1335 1467
8 1337 1206 1329 1464 1473 1341 1463 1594
8 1375 1243 1335 1467 1465 1333 1470 1596
8 1465 1333 1470 1596 1331 1200 1334 1466
8 1352 1227 1334 1466 1488 1360 1470 1596
8 1591 1462 1336 1468 1467 1335 1471 1597
8 1469 1337 1472 1598 1595 1464 1336 1468
8 1471 1339 1474 1600 1335 1204 1338 1470
8 1600 1474 1367 1496 1470 1338 1235 1360
8 1336 1205 1340 1472 1471 1339 1475 1601
8 1337 1206 1341 1473 1472 1340 1476 1602
8 1495 1370 1478 1609 1361 1239 1342 1479
8 1348 1212 1342 1479 1483 1347 1478 1609
8 1481 1346 1479 1610 1345 1210 1343 1480
8 1481 1346 1228 1359 1610 1479 1361 1494
8 1484 1348 1214 1351 1610 1479 1343 1480
8 1483 1347 1482 1612 1350 1213 1349 1486
8 1484 1348 1483 1613 1351 1214 1350 1487
8 1353 1230 1360 1488 1489 1363 1496 1616
8 1490 1364 1231 1354 1617 1499 1363 1489
8 1490 1364 1499 1617 1355 1232 1365 1491
8 1356 1234 1365 1491 1492 1366 1500 1619
8 1492 1366 1498 1620 1357 1233 1362 1493
8 1494 1361 1228 1359 1621 1497 1362 1493
8 1495 1370 1239 1361 1622 1504 1371 1497
8 1363 1236 1367 1496 1499 1368 1501 1623
8 1497 1371 1240 1362 1624 1505 1372 1498
8 1625 1503 1372 1498 1500 1369 1241 1366
8 1365 1238 1368 1499 1500 1369 1502 1626
8 1520 1398 1506 1633 1388 1266 1373 1507
8 1634 1507 1374 1508 1512 1388 1255 1380
8 1509 1387 1519 1635 1377 1258 1391 1510
8 1405 1276 1406 1534 1509 1387 1519 1635
8 1515 1392 1260 1383 1636 1522 1390 1511
8 1511 1390 1259 1379 1636 1522 1391 1510
8 1385 1256 1389 1517 1512 1388 1520 1637
8 1513 1394 1262 1382 1638 1524 1393 1514
8 1395 1516 1638 1524 1263 1384 1513 1394
8 1515 1392 1523 1639 1383 1260 1393 1514
8 1516 1395 1526 1640 1386 1264 1396 1518
8 1386 1264 1396 1518 1517 1389 1521 1641
8 1519 1397 1527 1643 1391 1269 1400 1522
8 1535 1407 1527 1643 1406 1277 1397 1519
8 1389 1267 1399 1521 1520 1398 1528 1644
8 1645 1529 1399 1521 1525 1404 1274 1396
8 1392 1270 1400 1522 1523 1401 1531 1646
8 1524 1402 1271 1393 1648 1532 1401 1523
8 1403 1526 1648 1532 1273 1395 1524 1402
8 1525 1404 1274 1396 1649 1533 1403 1526
8 1539 1414 1535 1657 1411 1286 1406 1534
8 1542 1415 1536 1658 1414 1287 1407 1535
8 1409 1285 1412 1537 1538 1413 1540 1660
8 1545 1421 1540 1660 1418 1292 1412 1537
8 1539 1414 1286 1411 1661 1541 1413 1538
8 1540 1417 1544 1663 1413 1288 1416 1541
8 1421 1296 1425 1548 1540 1417 1544 1663
8 1542 1415 1287 1414 1664 1543 1416 1541
8 1420 1294 1423 1547 1545 1421 1548 1666
8 1547 1423 1293 1419 1667 1549 1422 1546
8 1434 1301 1427 1553 1546 1422 1549 1667
8 1423 1297 1424 1549 1548 1425 1550 1668
8 1551 1426 1550 1668 1427 1298 1424 1549
8 1551 1426 1298 1427 1671 1552 1428 1554
8 1562 1432 1554 1674 1434 1301 1427 1553
8 1431 1299 1429 1558 1554 1428 1555 1675
8 1431 1299 1430 1560 1558 1429 1557 1680
8 1560 1430 1300 1432 1683 1559 1433 1563
8 1561 1431 1554 1674 1684 1560 1432 1562
8 1685 1563 1432 1562 1565 1435 1301 1434
8 1435 1302 1436 1566 1563 1433 1564 1686
8 1437 1303 1438 1568 1565 1435 1566 1688
8 1438 1304 1439 1569 1566 1436 1567 1689
8 1440 1306 1441 1571 1568 1438 1569 1691
8 1441 1307 1442 1572 1569 1439 1570 1692
8 1443 1309 1444 1574 1571 1441 1572 1694
8 1310 1444 1572 1442 1445 1575 1695 1573
8 1446 1312 1447 1576 1574 1444 1575 1696
8 1486 1349 1485 1614 1579 1449 1577 1699
8 1451 1317 1449 1579 1581 1450 1578 1701
8 1487 1350 1486 1615 1582 1451 1579 1702
8 1581 1450 1580 1704 1453 1318 1452 1584
8 1582 1451 1581 1705 1454 1319 1453 1585
8 1584 1452 1583 1706 1456 1320 1455 1586
8 1585 1453 1584 1707 1457 1321 1456 1587
8 1587 1456 1586 1708 1458 1323 1459 1588
8 1633 1506 1589 1710 1507 1373 1461 1590
8 1464 1329 1461 1590 1594 1463 1589 1710
8 1468 1336 1462 1591 1595 1464 1590 1711
8 1634 1507 1590 1711 1508 1374 1462 1591
8 1473 1341 1463 1594 1603 1477 1593 1716
8 1469 1337 1464 1595 1599 1473 1594 1717
8 1471 1597 1467 1335 1600 1718 1596 1470
8 1718 1600 1496 1616 1596 1470 1360 1488
8 1336 1468 1597 1471 1472 1598 1719 1601
8 1469 1337 1473 1599 1598 1472 1602 1720
8 1722 1604 1501 1623 1600 1474 1367 1496
8 1475 1601 1471 1339 1604 1722 1600 1474
8 1602 1476 1605 1723 1472 1340 1475 1601
8 1476 1602 1724 1606 1341 1473 1603 1477
8 1483 1347 1478 1609 1612 1482 1608 1731
8 1495 1370 1504 1622 1609 1478 1608 1731
8 1618 1495 1609 1732 1494 1361 1479 1610
8 1484 1348 1479 1610 1613 1483 1609 1732
8 1486 1349 1482 1612 1614 1485 1611 1733
8 1613 1483 1612 1734 1487 1350 1486 1615
8 1489 1363 1496 1616 1617 1499 1623 1736
8 1491 1365 1499 1617 1619 1500 1626 1737
8 1618 1495 1361 1494 1738 1622 1497 1621
8 1739 1625 1498 1620 1619 1500 1366 1492
8 1621 1497 1362 1493 1740 1624 1498 1620
8 1742 1631 1504 1622 1624 1505 1371 1497
8 1743 1628 1502 1626 1623 1501 1368 1499
8 1744 1630 1505 1624 1625 1503 1372 1498
8 1745 1629 1503 1625 1626 1502 1369 1500
8 1520 1398 1528 1644 1633 1506 1632 1751
8 1637 1520 1633 1752 1512 1388 1507 1634
8 1635 1519 1643 1753 1510 1391 1522 1636
8 1657 1535 1643 1753 1534 1406 1519 1635
8 1515 1392 1522 1636 1639 1523 1646 1754
8 1517 1389 1521 1641 1637 1520 1644 1755
8 1524 1638 1756 1648 1393 1514 1639 1523
8 1640 1526 1395 1516 1756 1648 1524 1638
8 1642 1525 1396 1518 1757 1649 1526 1640
8 1758 1645 1521 1641 1642 1525 1396 1518
8 1646 1531 1400 1522 1760 1650 1527 1643
8 1535 1407 1536 1658 1643 1527 1650 1760
8 1521 1399 1529 1645 1644 1528 1651 1761
8 1647 1530 1652 1762 1525 1404 1529 1645
8 1401 1523 1648 1532 1531 1646 1763 1655
8 1525 1404 1533 1649 1647 1530 1654 1765
8 1533 1649 1766 1656 1403 1526 1648 1532
8 1662 1542 1658 1774 1539 1414 1535 1657
8 1542 1415 1543 1664 1658 1536 1659 1775
8 1660 1540 1663 1777 1538 1413 1541 1661
8 1545 1421 1548 1666 1660 1540 1663 1777
8 1662 1542 1414 1539 1778 1664 1541 1661
8 1664 1543 1416 1541 1779 1665 1544 1663
8 1548 1425 1550 1668 1663 1544 1665 1779
8 1547 1423 1549 1667 1666 1548 1668 1781
8 1670 1551 1668 1781 1553 1427 1549 1667
8 1551 1426 1552 1671 1668 1550 1669 1782
8 1670 1551 1427 1553 1784 1671 1554 1674
8 1675 1555 1672 1785 1554 1428 1552 1671
8 1678 1556 1673 1789 1558 1429 1555 1675
8 1561 1431 1558 1681 1674 1554 1675 1790
8 1794 1677 1556 1678 1680 1557 1429 1558
8 1560 1430 1559 1683 1680 1557 1679 1797
8 1561 1431 1560 1684 1681 1558 1680 1798
8 1563 1433 1564 1686 1683 1559 1682 1800
8 1684 1560 1432 1562 1801 1683 1563 1685
8 1565 1435 1566 1688 1685 1563 1686 1802
8 1566 1436 1567 1689 1686 1564 1687 1803
8 1568 1438 1569 1691 1688 1566 1689 1805
8 1569 1439 1570 1692 1689 1567 1690 1806
8 1571 1441 1572 1694 1691 1569 1692 1808
8 1442 1572 1692 1570 1573 1695 1809 1693
8 1574 1444 1575 1696 1694 1572 1695 1810
8 1614 1485 1592 1712 1699 1577 1697 1813
8 1579 1449 1577 1699 1701 1578 1698 1815
8 1615 1486 1614 1735 1702 1579 1699 1816
8 1701 1578 1700 1818 1581 1450 1580 1704
8 1582 1451 1579 1702 1705 1581 1701 1819
8 1704 1580 1703 1820 1584 1452 1583 1706
8 1705 1581 1704 1821 1585 1453 1584 1707
8 1707 1584 1706 1822 1587 1456 1586 1708
8 1710 1589 1506 1633 1824 1709 1632 1751
8 1594 1463 1589 1710 1716 1593 1709 1824
8 1752 1633 1710 1825 1634 1507 1590 1711
8 1595 1464 1590 1711 1717 1594 1710 1825
8 1830 1714 1592 1712 1733 1611 1485 1614
8 1603 1477 1593 1716 1725 1607 1715 1834
8 1599 1473 1594 1717 1721 1603 1716 1835
8 1837 1722 1623 1736 1718 1600 1496 1616
8 1719 1601 1722 1837 1597 1471 1600 1718
8 1602 1720 1598 1472 1723 1838 1719 1601
8 1720 1602 1473 1599 1839 1724 1603 1721
8 1723 1605 1726 1840 1601 1475 1604 1722
8 1840 1726 1628 1743 1722 1604 1501 1623
8 1724 1606 1727 1841 1602 1476 1605 1723
8 1725 1607 1728 1842 1603 1477 1606 1724
8 1612 1482 1608 1731 1733 1611 1730 1849
8 1741 1627 1730 1849 1622 1504 1608 1731
8 1613 1483 1609 1732 1734 1612 1731 1850
8 1618 1495 1622 1738 1732 1609 1731 1850
8 1615 1486 1612 1734 1735 1614 1733 1851
8 1852 1743 1626 1737 1736 1623 1499 1617
8 1853 1745 1625 1739 1737 1626 1500 1619
8 1855 1742 1622 1738 1740 1624 1497 1621
8 1856 1744 1624 1740 1739 1625 1498 1620
8 1741 1627 1504 1622 1857 1746 1631 1742
8 1742 1631 1505 1624 1858 1749 1630 1744
8 1859 1747 1629 1745 1743 1628 1502 1626
8 1860 1748 1630 1744 1745 1629 1503 1625
8 1644 1528 1651 1761 1751 1632 1750 1865
8 1637 1520 1644 1755 1752 1633 1751 1866
8 1754 1646 1522 1636 1867 1760 1643 1753
8 1657 1535 1658 1774 1753 1643 1760 1867
8 1639 1523 1646 1754 1756 1648 1763 1868
8 1641 1521 1645 1758 1755 1644 1761 1869
8 1757 1649 1526 1640 1870 1766 1648 1756
8 1642 1525 1649 1757 1759 1647 1765 1871
8 1759 1647 1762 1872 1642 1525 1645 1758
8 1760 1650 1767 1874 1646 1531 1655 1763
8 1658 1536 1659 1775 1760 1650 1767 1874
8 1762 1652 1768 1875 1645 1529 1651 1761
8 1764 1653 1769 1876 1647 1530 1652 1762
8 1656 1766 1877 1773 1532 1648 1763 1655
8 1771 1879 1765 1654 1653 1764 1647 1530
8 1533 1649 1765 1654 1656 1766 1880 1772
8 1662 1542 1664 1778 1774 1658 1775 1887
8 1664 1543 1665 1779 1775 1659 1776 1888
8 1778 1664 1541 1661 1890 1779 1663 1777
8 1666 1548 1668 1781 1777 1663 1779 1890
8 1782 1669 1780 1891 1668 1550 1665 1779
8 1670 1551 1671 1784 1781 1668 1782 1893
8 1671 1552 1672 1785 1782 1669 1783 1894
8 1790 1675 1785 1896 1674 1554 1671 1784
8 1675 1555 1673 1789 1785 1672 1786 1897
8 1792 1676 1788 1903 1678 1556 1673 1789
8 1795 1678 1789 1904 1681 1558 1675 1790
8 1792 1676 1556 1678 1906 1791 1677 1794
8 1680 1557 1679 1797 1794 1677 1793 1909
8 1910 1794 1678 1795 1798 1680 1558 1681
8 1683 1559 1682 1800 1797 1679 1796 1912
8 1684 1560 1683 1801 1798 1680 1797 1913
8 1686 1564 1687 1803 1800 1682 1799 1915
8 1685 1563 1686 1802 1801 1683 1800 1916
8 1688 1566 1689 1805 1802 1686 1803 1917
8 1689 1567 1690 1806 1803 1687 1804 1918
8 1691 1569 1692 1808 1805 1689 1806 1920
8 1692 1570 1693 1809 1806 1690 1807 1921
8 1694 1572 1695 1810 1808 1692 1809 1922
8 1829 1713 1811 1926 1712 1592 1697 1813
8 1813 1697 1812 1928 1699 1577 1698 1815
8 1735 1614 1712 1828 1816 1699 1813 1929
8 1815 1698 1814 1931 1701 1578 1700 1818
8 1702 1579 1699 1816 1819 1701 1815 1932
8 1818 1700 1817 1933 1704 1580 1703 1820
8 1819 1701 1818 1934 1705 1581 1704 1821
8 1821 1704 1820 1935 1707 1584 1706 1822
8 1824 1709 1632 1751 1937 1823 1750 1865
8 1716 1593 1709 1824 1834 1715 1823 1937
8 1825 1710 1633 1752 1938 1824 1751 1866
8 1717 1594 1710 1825 1835 1716 1824 1938
8 1945 1830 1712 1828 1851 1733 1614 1735
8 1830 1714 1831 1946 1712 1592 1713 1829
8 1947 1832 1714 1830 1849 1730 1611 1733
8 1843 1729 1607 1725 1950 1833 1715 1834
8 1721 1603 1716 1835 1836 1725 1834 1951
8 1836 1725 1842 1953 1721 1603 1724 1839
8 1723 1838 1719 1601 1840 1954 1837 1722
8 1954 1840 1743 1852 1837 1722 1623 1736
8 1724 1839 1720 1602 1841 1955 1838 1723
8 1841 1727 1844 1956 1723 1605 1726 1840
8 1956 1844 1747 1859 1840 1726 1628 1743
8 1728 1842 1724 1606 1845 1957 1841 1727
8 1725 1607 1729 1843 1842 1728 1846 1958
8 1741 1627 1746 1857 1849 1730 1848 1965
8 1734 1612 1731 1850 1851 1733 1849 1966
8 1854 1741 1849 1966 1738 1622 1731 1850
8 1967 1859 1745 1853 1852 1743 1626 1737
8 1968 1860 1744 1856 1853 1745 1625 1739
8 1854 1741 1622 1738 1969 1857 1742 1855
8 1855 1742 1624 1740 1970 1858 1744 1856
8 1857 1746 1631 1742 1971 1861 1749 1858
8 1858 1749 1630 1744 1972 1863 1748 1860
8 1859 1747 1862 1973 1745 1629 1748 1860
8 1875 1768 1864 1977 1761 1651 1750 1865
8 1755 1644 1761 1869 1866 1751 1865 1978
8 1867 1760 1874 1979 1754 1646 1763 1868
8 1774 1658 1775 1887 1867 1760 1874 1979
8 1870 1766 1648 1756 1980 1877 1763 1868
8 1872 1762 1875 1981 1758 1645 1761 1869
8 1757 1649 1766 1870 1871 1765 1880 1982
8 1983 1879 1764 1873 1871 1765 1647 1759
8 1873 1764 1876 1984 1759 1647 1762 1872
8 1877 1773 1655 1763 1986 1881 1767 1874
8 1775 1659 1776 1888 1874 1767 1881 1986
8 1876 1769 1882 1987 1762 1652 1768 1875
8 1878 1770 1883 1988 1764 1653 1769 1876
8 1880 1772 1656 1766 1989 1886 1773 1877
8 1878 1770 1653 1764 1990 1884 1771 1879
8 1765 1654 1772 1880 1879 1771 1885 1991
8 1778 1664 1779 1890 1887 1775 1888 1997
8 1998 1889 1776 1888 1891 1780 1665 1779
8 1893 1782 1891 2000 1781 1668 1779 1890
8 1894 1783 1892 2001 1782 1669 1780 1891
8 1784 1671 1785 1896 1893 1782 1894 2003
8 1897 1786 1895 2004 1785 1672 1783 1894
8 1790 1675 1789 1904 1896 1785 1897 2006
8 1901 1787 1898 2007 1789 1673 1786 1897
8 1903 1788 1900 2013 1789 1673 1787 1901
8 1792 1676 1791 1906 1903 1788 1902 2016
8 1907 1792 1903 2017 1795 1678 1789 1904
8 1906 1791 1677 1794 2019 1905 1793 1909
8 1907 1792 1678 1795 2020 1906 1794 1910
8 1797 1679 1796 1912 1909 1793 1908 2022
8 1798 1680 1797 1913 1910 1794 1909 2023
8 1800 1682 1799 1915 1912 1796 1911 2025
8 1801 1683 1800 1916 1913 1797 1912 2026
8 1803 1687 1804 1918 1915 1799 1914 2028
8 1802 1686 1803 1917 1916 1800 1915 2029
8 1805 1689 1806 1920 1917 1803 1918 2030
8 1806 1690 1807 1921 1918 1804 1919 2031
8 1808 1692 1809 1922 1920 1806 1921 2032
8 1939 1826 1924 2037 1829 1713 1811 1926
8 1926 1811 1925 2039 1813 1697 1812 1928
8 1944 1829 1926 2040 1828 1712 1813 1929
8 1928 1812 1927 2042 1815 1698 1814 1931
8 1929 1813 1928 2043 1816 1699 1815 1932
8 1931 1814 1930 2044 1818 1700 1817 1933
8 1932 1815 1931 2045 1819 1701 1818 1934
8 1934 1818 1933 2046 1821 1704 1820 1935
8 2048 1936 1823 1937 1977 1864 1750 1865
8 1950 1833 1715 1834 2048 1936 1823 1937
8 1938 1824 1751 1866 2049 1937 1865 1978
8 1835 1716 1824 1938 1951 1834 1937 2049
8 1939 1826 1713 1829 2053 1942 1831 1946
8 1940 1827 1923 2035 2053 1942 1826 1939
8 1945 1830 1946 2058 1828 1712 1829 1944
8 2059 1947 1830 1945 1966 1849 1733 1851
8 1947 1832 1730 1849 2060 1948 1848 1965
8 1947 1832 1948 2060 1830 1714 1831 1946
8 1959 1847 1729 1843 2063 1949 1833 1950
8 1952 1843 1725 1836 2064 1950 1834 1951
8 1836 1725 1843 1952 1953 1842 1958 2066
8 1953 1842 1957 2067 1839 1724 1841 1955
8 1841 1955 1838 1723 1956 2068 1954 1840
8 2068 1956 1859 1967 1954 1840 1743 1852
8 1956 1844 1960 2069 1859 1747 1862 1973
8 1845 1957 1841 1727 1960 2069 1956 1844
8 1728 1842 1957 1845 1846 1958 2071 1961
8 1962 2072 1959 1847 1846 1958 1843 1729
8 1971 1861 1964 2077 1857 1746 1848 1965
8 1854 1741 1857 1969 1966 1849 1965 2078
8 1967 1859 1973 2079 1853 1745 1860 1968
8 1970 1858 1744 1856 2080 1972 1860 1968
8 1969 1857 1742 1855 2081 1971 1858 1970
8 1971 1861 1749 1858 2082 1974 1863 1972
8 1973 1862 1975 2083 1860 1748 1863 1972
8 1987 1882 1976 2086 1875 1768 1864 1977
8 1981 1875 1977 2087 1869 1761 1865 1978
8 1980 1877 1763 1868 2088 1986 1874 1979
8 1887 1775 1888 1997 1979 1874 1986 2088
8 1880 1982 2089 1989 1766 1870 1980 1877
8 1984 1876 1987 2090 1872 1762 1875 1981
8 1765 1871 1983 1879 1880 1982 2091 1991
8 1985 1878 1764 1873 2092 1990 1879 1983
8 1985 1878 1988 2093 1873 1764 1876 1984
8 2094 1992 1881 1986 1998 1889 1776 1888
8 1986 1881 1992 2094 1877 1773 1886 1989
8 1988 1883 1993 2095 1876 1769 1882 1987
8 1878 1770 1884 1990 1988 1883 1994 2096
8 1991 1885 1772 1880 2097 1996 1886 1989
8 1879 1771 1885 1991 1990 1884 1995 2098
8 2103 1998 1888 1997 2000 1891 1779 1890
8 2104 1999 1889 1998 2001 1892 1780 1891
8 2003 1894 2001 2106 1893 1782 1891 2000
8 2004 1895 2002 2107 1894 1783 1892 2001
8 2006 1897 2004 2109 1896 1785 1894 2003
8 2007 1898 2005 2110 1897 1786 1895 2004
8 2014 1901 2007 2112 1904 1789 1897 2006
8 2011 1899 2008 2113 1901 1787 1898 2007
8 2119 2010 1899 2011 2013 1900 1787 1901
8 2016 1902 2012 2122 1903 1788 1900 2013
8 2017 1903 2013 2123 1904 1789 1901 2014
8 1906 1791 1905 2019 2016 1902 2015 2125
8 1907 1792 1906 2020 2017 1903 2016 2126
8 1909 1793 1908 2022 2019 1905 2018 2128
8 2020 1906 1794 1910 2129 2019 1909 2023
8 1912 1796 1911 2025 2022 1908 2021 2131
8 1913 1797 1912 2026 2023 1909 2022 2132
8 1915 1799 1914 2028 2025 1911 2024 2134
8 1916 1800 1915 2029 2026 1912 2025 2135
8 1918 1804 1919 2031 2028 1914 2027 2136
8 1917 1803 1918 2030 2029 1915 2028 2137
8 1920 1806 1921 2032 2030 1918 2031 2138
8 1940 1827 1941 2054 2035 1923 2033 2140
8 2035 1923 2034 2143 1939 1826 1924 2037
8 2037 1924 2036 2146 1926 1811 1925 2039
8 2051 1939 2037 2147 1944 1829 1926 2040
8 2039 1925 2038 2149 1928 1812 1927 2042
8 2040 1926 2039 2150 1929 1813 1928 2043
8 2042 1927 2041 2151 1931 1814 1930 2044
8 2043 1928 2042 2152 1932 1815 1931 2045
8 2045 1931 2044 2153 1934 1818 1933 2046
8 2155 2047 1936 2048 2086 1976 1864 1977
8 2063 1949 1833 1950 2155 2047 1936 2048
8 2156 2048 1937 2049 2087 1977 1865 1978
8 2064 1950 1834 1951 2156 2048 1937 2049
8 2051 1939 1829 1944 2160 2053 1946 2058
8 2052 1940 2035 2144 2160 2053 1939 2051
8 2053 1942 1831 1946 2163 2057 1948 2060
8 2055 1943 1827 1940 2163 2057 1942 2053
8 2055 1943 2056 2164 1940 1827 1941 2054
8 2059 1947 1849 1966 2167 2060 1965 2078
8 2059 1947 2060 2167 1945 1830 1946 2058
8 2077 1964 2061 2168 1965 1848 1948 2060
8 2070 1963 1847 1959 2170 2062 1949 2063
8 2065 1959 1843 1952 2171 2063 1950 2064
8 2173 2072 1958 2066 2065 1959 1843 1952
8 1953 1842 1958 2066 2067 1957 2071 2174
8 2068 1956 2069 2175 1967 1859 1973 2079
8 2067 1957 2069 2175 1955 1841 1956 2068
8 1845 1957 2069 1960 1961 2071 2176 2073
8 2069 1960 2073 2176 1973 1862 1975 2083
8 2070 1963 2075 2177 1959 1847 1962 2072
8 1846 1958 2071 1961 1962 2072 2178 2074
8 2077 1964 1861 1971 2182 2076 1974 2082
8 2081 1971 2077 2183 1969 1857 1965 2078
8 2079 1973 2083 2184 1968 1860 1972 2080
8 2081 1971 1858 1970 2185 2082 1972 2080
8 2083 1975 2084 2186 1972 1863 1974 2082
8 2086 1976 1882 1987 2189 2085 1993 2095
8 2090 1987 2086 2190 1981 1875 1977 2087
8 2191 2094 1986 2088 2103 1998 1888 1997
8 2088 1986 2094 2191 1980 1877 1989 2089
8 1991 2091 2192 2097 1880 1982 2089 1989
8 2093 1988 2095 2193 1984 1876 1987 2090
8 1879 1983 2092 1990 1991 2091 2194 2098
8 1985 1878 1990 2092 2093 1988 2096 2195
8 2097 1996 1886 1989 2196 2099 1992 2094
8 2196 2099 1992 2094 2104 1999 1889 1998
8 1994 2096 1988 1883 2100 2197 2095 1993
8 2096 1994 1884 1990 2198 2101 1995 2098
8 1995 2098 2199 2102 1885 1991 2097 1996
8 2203 2104 1998 2103 2106 2001 1891 2000
8 2107 2002 2105 2204 2001 1892 1999 2104
8 2109 2004 2107 2206 2003 1894 2001 2106
8 2110 2005 2108 2207 2004 1895 2002 2107
8 2112 2007 2110 2209 2006 1897 2004 2109
8 2113 2008 2111 2210 2007 1898 2005 2110
8 2120 2011 2113 2212 2014 1901 2007 2112
8 2117 2009 2114 2213 2011 1899 2008 2113
8 2219 2116 2009 2117 2119 2010 1899 2011
8 2222 2118 2010 2119 2122 2012 1900 2013
8 2223 2119 2011 2120 2123 2013 1901 2014
8 2016 1902 2015 2125 2122 2012 2121 2225
8 2126 2016 2122 2226 2017 1903 2013 2123
8 2019 1905 2018 2128 2125 2015 2124 2228
8 2020 1906 2019 2129 2126 2016 2125 2229
8 2022 1908 2021 2131 2128 2018 2127 2231
8 2023 1909 2022 2132 2129 2019 2128 2232
8 2025 1911 2024 2134 2131 2021 2130 2234
8 2026 1912 2025 2135 2132 2022 2131 2235
8 1914 2028 2134 2024 2027 2136 2236 2133
8 2029 1915 2028 2137 2135 2025 2134 2237
8 2030 1918 2031 2138 2137 2028 2136 2238
8 2157 2050 2139 2240 2054 1941 2033 2140
8 2052 1940 2054 2161 2144 2035 2140 2242
8 2140 2033 2141 2243 2035 1923 2034 2143
8 2143 2034 2142 2246 2037 1924 2036 2146
8 2144 2035 2143 2247 2051 1939 2037 2147
8 2146 2036 2145 2249 2039 1925 2038 2149
8 2147 2037 2146 2250 2040 1926 2039 2150
8 2149 2038 2148 2251 2042 1927 2041 2151
8 2150 2039 2149 2252 2043 1928 2042 2152
8 2152 2042 2151 2253 2045 1931 2044 2153
8 2255 2154 2047 2155 2189 2085 1976 2086
8 2170 2062 1949 2063 2255 2154 2047 2155
8 2256 2155 2048 2156 2190 2086 1977 2087
8 2171 2063 1950 2064 2256 2155 2048 2156
8 2258 2159 2050 2157 2164 2056 1941 2054
8 2160 2053 1946 2058 2262 2163 2060 2167
8 2162 2055 1940 2052 2262 2163 2053 2160
8 2162 2055 2164 2263 2052 1940 2054 2161
8 2163 2057 1948 2060 2264 2165 2061 2168
8 2055 1943 2057 2163 2164 2056 2165 2264
8 2182 2076 2166 2268 2077 1964 2061 2168
8 2183 2077 2168 2269 2078 1965 2060 2167
8 2070 1963 2062 2170 2177 2075 2169 2271
8 2172 2070 1959 2065 2272 2170 2063 2171
8 2172 2070 2177 2273 2065 1959 2072 2173
8 2066 1958 2072 2173 2174 2071 2178 2274
8 2067 1957 2071 2174 2175 2069 2176 2275
8 2175 2069 2176 2275 2079 1973 2083 2184
8 2071 1961 2074 2178 2176 2073 2179 2276
8 2176 2073 2179 2276 2083 1975 2084 2186
8 2072 1962 2075 2177 2178 2074 2180 2277
8 2182 2076 1974 2082 2280 2181 2084 2186
8 2183 2077 1971 2081 2281 2182 2082 2185
8 2184 2083 2186 2282 2080 1972 2082 2185
8 2189 2085 1993 2095 2285 2188 2100 2197
8 2190 2086 1987 2090 2286 2189 2095 2193
8 2192 2097 1989 2089 2287 2196 2094 2191
8 2287 2196 2094 2191 2203 2104 1998 2103
8 2194 2098 1991 2091 2288 2199 2097 2192
8 2195 2096 2197 2289 2093 1988 2095 2193
8 2096 2195 2290 2198 1990 2092 2194 2098
8 2097 1996 2099 2196 2199 2102 2200 2291
8 2196 2099 1999 2104 2291 2200 2105 2204
8 2100 2197 2292 2201 1994 2096 2198 2101
8 1995 2098 2198 2101 2102 2199 2293 2202
8 2206 2107 2204 2296 2106 2001 2104 2203
8 2207 2108 2205 2297 2107 2002 2105 2204
8 2209 2110 2207 2299 2109 2004 2107 2206
8 2210 2111 2208 2300 2110 2005 2108 2207
8 2212 2113 2210 2302 2112 2007 2110 2209
8 2213 2114 2211 2303 2113 2008 2111 2210
8 2220 2117 2213 2305 2120 2011 2113 2212
8 2216 2115 2214 2306 2117 2009 2114 2213
8 2216 2115 2009 2117 2311 2217 2116 2219
8 2219 2116 2010 2119 2314 2218 2118 2222
8 2315 2219 2117 2220 2223 2119 2011 2120
8 2122 2012 2121 2225 2222 2118 2221 2317
8 2318 2222 2119 2223 2226 2122 2013 2123
8 2125 2015 2124 2228 2225 2121 2224 2320
8 2126 2016 2125 2229 2226 2122 2225 2321
8 2128 2018 2127 2231 2228 2124 2227 2323
8 2129 2019 2128 2232 2229 2125 2228 2324
8 2131 2021 2130 2234 2231 2127 2230 2326
8 2132 2022 2131 2235 2232 2128 2231 2327
8 2134 2024 2133 2236 2234 2130 2233 2328
8 2135 2025 2134 2237 2235 2131 2234 2329
8 2137 2028 2136 2238 2237 2134 2236 2330
8 2157 2050 2158 2259 2240 2139 2239 2332
8 2257 2157 2240 2334 2161 2054 2140 2242
8 2240 2139 2241 2335 2140 2033 2141 2243
8 2242 2140 2243 2337 2144 2035 2143 2247
8 2243 2141 2244 2338 2143 2034 2142 2246
8 2246 2142 2245 2341 2146 2036 2145 2249
8 2247 2143 2246 2342 2147 2037 2146 2250
8 2249 2145 2248 2343 2149 2038 2148 2251
8 2250 2146 2249 2344 2150 2039 2149 2252
8 2252 2149 2251 2345 2152 2042 2151 2253
8 2169 2271 2347 2254 2062 2170 2255 2154
8 2189 2085 2188 2285 2255 2154 2254 2347
8 2348 2255 2155 2256 2286 2189 2086 2190
8 2272 2170 2063 2171 2348 2255 2155 2256
8 2349 2258 2157 2257 2263 2164 2054 2161
8 2258 2159 2261 2351 2157 2050 2158 2259
8 2258 2159 2056 2164 2351 2261 2165 2264
8 2262 2163 2060 2167 2355 2264 2168 2269
8 2162 2055 2163 2262 2263 2164 2264 2355
8 2357 2266 2165 2264 2268 2166 2061 2168
8 2268 2166 2076 2182 2361 2267 2181 2280
8 2281 2182 2268 2362 2183 2077 2168 2269
8 2271 2169 2270 2364 2177 2075 2180 2277
8 2172 2070 2170 2272 2273 2177 2271 2365
8 2072 2173 2274 2178 2177 2273 2366 2277
8 2071 2174 2275 2176 2178 2274 2367 2276
8 2275 2176 2276 2367 2184 2083 2186 2282
8 2283 2187 2084 2186 2368 2278 2179 2276
8 2178 2074 2180 2277 2276 2179 2278 2368
8 2283 2187 2279 2370 2186 2084 2181 2280
8 2281 2182 2082 2185 2371 2280 2186 2282
8 2188 2285 2374 2284 2100 2197 2292 2201
8 2286 2189 2095 2193 2375 2285 2197 2289
8 2192 2097 2196 2287 2288 2199 2291 2376
8 2287 2196 2104 2203 2376 2291 2204 2296
8 2194 2098 2199 2288 2290 2198 2293 2377
8 2289 2197 2096 2195 2378 2292 2198 2290
8 2291 2200 2105 2204 2379 2294 2205 2297
8 2199 2102 2200 2291 2293 2202 2294 2379
8 2198 2101 2202 2293 2292 2201 2295 2380
8 2299 2207 2297 2383 2206 2107 2204 2296
8 2300 2208 2298 2384 2207 2108 2205 2297
8 2302 2210 2300 2386 2209 2110 2207 2299
8 2303 2211 2301 2387 2210 2111 2208 2300
8 2305 2213 2303 2389 2212 2113 2210 2302
8 2306 2214 2304 2390 2213 2114 2211 2303
8 2310 2216 2306 2392 2220 2117 2213 2305
8 2308 2215 2307 2393 2216 2115 2214 2306
8 2308 2215 2115 2216 2396 2309 2217 2311
8 2310 2216 2117 2220 2398 2311 2219 2315
8 2311 2217 2116 2219 2399 2312 2218 2314
8 2314 2218 2118 2222 2402 2313 2221 2317
8 2315 2219 2119 2223 2403 2314 2222 2318
8 2225 2121 2224 2320 2317 2221 2316 2405
8 2226 2122 2225 2321 2318 2222 2317 2406
8 2228 2124 2227 2323 2320 2224 2319 2408
8 2229 2125 2228 2324 2321 2225 2320 2409
8 2231 2127 2230 2326 2323 2227 2322 2411
8 2232 2128 2231 2327 2324 2228 2323 2412
8 2234 2130 2233 2328 2326 2230 2325 2413
8 2235 2131 2234 2329 2327 2231 2326 2414
8 2237 2134 2236 2330 2329 2234 2328 2415
8 2259 2158 2260 2352 2332 2239 2331 2417
8 2257 2157 2259 2350 2334 2240 2332 2419
8 2240 2139 2239 2332 2335 2241 2333 2420
8 2334 2240 2335 2422 2242 2140 2243 2337
8 2335 2241 2336 2423 2243 2141 2244 2338
8 2337 2243 2338 2425 2247 2143 2246 2342
8 2338 2244 2339 2426 2246 2142 2245 2341
8 2341 2245 2340 2428 2249 2145 2248 2343
8 2342 2246 2341 2429 2250 2146 2249 2344
8 2344 2249 2343 2430 2252 2149 2251 2345
8 2188 2285 2347 2254 2284 2374 2432 2346
8 2347 2254 2346 2432 2271 2169 2270 2364
8 2365 2271 2170 2272 2433 2347 2255 2348
8 2286 2189 2285 2375 2348 2255 2347 2433
8 2349 2258 2351 2435 2257 2157 2259 2350
8 2349 2258 2164 2263 2435 2351 2264 2355
8 2259 2158 2261 2351 2352 2260 2354 2437
8 2356 2265 2354 2437 2264 2165 2261 2351
8 2441 2357 2264 2355 2362 2268 2168 2269
8 2356 2265 2165 2264 2442 2358 2266 2357
8 2443 2359 2266 2357 2361 2267 2166 2268
8 2370 2279 2360 2446 2280 2181 2267 2361
8 2362 2268 2182 2281 2447 2361 2280 2371
8 2180 2277 2368 2278 2270 2364 2449 2363
8 2271 2365 2273 2177 2364 2450 2366 2277
8 2372 2283 2186 2282 2451 2368 2276 2367
8 2178 2274 2367 2276 2277 2366 2451 2368
8 2283 2187 2278 2368 2370 2279 2369 2452
8 2372 2283 2370 2453 2282 2186 2280 2371
8 2284 2374 2455 2373 2201 2292 2380 2295
8 2375 2285 2197 2289 2456 2374 2292 2378
8 2376 2291 2204 2296 2457 2379 2297 2383
8 2288 2199 2291 2376 2377 2293 2379 2457
8 2198 2290 2378 2292 2293 2377 2458 2380
8 2293 2202 2294 2379 2380 2295 2381 2459
8 2384 2298 2381 2459 2297 2205 2294 2379
8 2386 2300 2384 2463 2299 2207 2297 2383
8 2387 2301 2385 2464 2300 2208 2298 2384
8 2389 2303 2387 2466 2302 2210 2300 2386
8 2390 2304 2388 2467 2303 2211 2301 2387
8 2392 2306 2390 2469 2305 2213 2303 2389
8 2393 2307 2391 2470 2306 2214 2304 2390
8 2395 2308 2393 2472 2310 2216 2306 2392
8 2308 2215 2309 2396 2393 2307 2394 2473
8 2395 2308 2216 2310 2475 2396 2311 2398
8 2396 2309 2217 2311 2476 2397 2312 2399
8 2398 2311 2219 2315 2478 2399 2314 2403
8 2399 2312 2218 2314 2479 2400 2313 2402
8 2317 2221 2316 2405 2402 2313 2401 2482
8 2403 2314 2222 2318 2483 2402 2317 2406
8 2320 2224 2319 2408 2405 2316 2404 2485
8 2321 2225 2320 2409 2406 2317 2405 2486
8 2323 2227 2322 2411 2408 2319 2407 2488
8 2324 2228 2323 2412 2409 2320 2408 2489
8 2326 2230 2325 2413 2411 2322 2410 2490
8 2327 2231 2326 2414 2412 2323 2411 2491
8 2329 2234 2328 2415 2414 2326 2413 2492
8 2417 2331 2260 2352 2494 2416 2353 2438
8 2350 2259 2352 2436 2419 2332 2417 2496
8 2332 2239 2331 2417 2420 2333 2418 2497
8 2334 2240 2332 2419 2422 2335 2420 2499
8 2420 2333 2421 2500 2335 2241 2336 2423
8 2422 2335 2423 2502 2337 2243 2338 2425
8 2423 2336 2424 2503 2338 2244 2339 2426
8 2425 2338 2426 2505 2342 2246 2341 2429
8 2426 2339 2427 2506 2341 2245 2340 2428
8 2429 2341 2428 2507 2344 2249 2343 2430
8 2432 2346 2284 2374 2509 2431 2373 2455
8 2432 2346 2431 2509 2364 2270 2363 2449
8 2375 2285 2374 2456 2433 2347 2432 2510
8 2347 2433 2365 2271 2432 2510 2450 2364
8 2350 2259 2351 2435 2436 2352 2437 2514
8 2440 2356 2437 2514 2355 2264 2351 2435
8 2352 2260 2354 2437 2438 2353 2439 2516
8 2356 2265 2358 2442 2437 2354 2439 2516
8 2440 2356 2264 2355 2518 2442 2357 2441
8 2519 2443 2357 2441 2447 2361 2268 2362
8 2443 2359 2444 2520 2357 2266 2358 2442
8 2443 2359 2267 2361 2520 2444 2360 2446
8 2446 2360 2279 2370 2523 2445 2369 2452
8 2453 2370 2446 2524 2371 2280 2361 2447
8 2449 2363 2448 2525 2368 2278 2369 2452
8 2366 2277 2364 2450 2451 2368 2449 2526
8 2372 2283 2368 2451 2453 2370 2452 2527
8 2455 2373 2295 2380 2529 2454 2382 2460
8 2456 2374 2292 2378 2530 2455 2380 2458
8 2377 2293 2379 2457 2458 2380 2459 2531
8 2463 2384 2459 2531 2383 2297 2379 2457
8 2533 2461 2382 2460 2459 2381 2295 2380
8 2464 2385 2461 2533 2384 2298 2381 2459
8 2466 2387 2464 2537 2386 2300 2384 2463
8 2467 2388 2465 2538 2387 2301 2385 2464
8 2469 2390 2467 2540 2389 2303 2387 2466
8 2470 2391 2468 2541 2390 2304 2388 2467
8 2472 2393 2470 2543 2392 2306 2390 2469
8 2393 2307 2394 2473 2470 2391 2471 2544
8 2395 2308 2396 2475 2472 2393 2473 2546
8 2396 2309 2397 2476 2473 2394 2474 2547
8 2475 2396 2311 2398 2549 2476 2399 2478
8 2476 2397 2312 2399 2550 2477 2400 2479
8 2478 2399 2314 2403 2552 2479 2402 2483
8 2479 2400 2313 2402 2553 2480 2401 2482
8 2405 2316 2404 2485 2482 2401 2481 2556
8 2406 2317 2405 2486 2483 2402 2482 2557
8 2408 2319 2407 2488 2485 2404 2484 2559
8 2409 2320 2408 2489 2486 2405 2485 2560
8 2411 2322 2410 2490 2488 2407 2487 2561
8 2412 2323 2411 2491 2489 2408 2488 2562
8 2414 2326 2413 2492 2491 2411 2490 2563
8 2513 2434 2493 2565 2438 2353 2416 2494
8 2496 2417 2352 2436 2567 2494 2438 2515
8 2494 2416 2495 2568 2417 2331 2418 2497
8 2419 2332 2417 2496 2499 2420 2497 2570
8 2497 2418 2498 2571 2420 2333 2421 2500
8 2499 2420 2500 2573 2422 2335 2423 2502
8 2500 2421 2501 2574 2423 2336 2424 2503
8 2502 2423 2503 2576 2425 2338 2426 2505
8 2503 2424 2504 2577 2426 2339 2427 2506
8 2505 2426 2506 2578 2429 2341 2428 2507
8 2509 2431 2373 2455 2580 2508 2454 2529
8 2509 2431 2508 2580 2449 2363 2448 2525
8 2432 2510 2581 2509 2374 2456 2530 2455
8 2432 2510 2450 2364 2509 2581 2526 2449
8 2583 2511 2434 2513 2516 2439 2353 2438
8 2436 2352 2437 2514 2515 2438 2516 2588
8 2440 2356 2442 2518 2514 2437 2516 2588
8 2442 2358 2444 2520 2516 2439 2517 2589
8 2519 2443 2520 2591 2441 2357 2442 2518
8 2519 2443 2361 2447 2591 2520 2446 2524
8 2446 2360 2445 2523 2520 2444 2521 2592
8 2525 2448 2522 2593 2452 2369 2445 2523
8 2524 2446 2370 2453 2594 2523 2452 2527
8 2526 2449 2525 2595 2451 2368 2452 2527
8 2534 2462 2528 2597 2460 2382 2454 2529
8 2530 2455 2380 2458 2598 2529 2460 2532
8 2599 2533 2460 2532 2531 2459 2380 2458
8 2537 2464 2533 2599 2463 2384 2459 2531
8 2534 2462 2382 2460 2601 2535 2461 2533
8 2538 2465 2535 2601 2464 2385 2461 2533
8 2540 2467 2538 2604 2466 2387 2464 2537
8 2541 2468 2539 2605 2467 2388 2465 2538
8 2543 2470 2541 2607 2469 2390 2467 2540
8 2470 2391 2471 2544 2541 2468 2542 2608
8 2472 2393 2473 2546 2543 2470 2544 2610
8 2473 2394 2474 2547 2544 2471 2545 2611
8 2475 2396 2476 2549 2546 2473 2547 2613
8 2476 2397 2477 2550 2547 2474 2548 2614
8 2549 2476 2399 2478 2616 2550 2479 2552
8 2479 2400 2480 2553 2550 2477 2551 2617
8 2552 2479 2402 2483 2619 2553 2482 2557
8 2482 2401 2481 2556 2553 2480 2554 2620
8 2485 2404 2484 2559 2556 2481 2555 2623
8 2486 2405 2485 2560 2557 2482 2556 2624
8 2488 2407 2487 2561 2559 2484 2558 2625
8 2489 2408 2488 2562 2560 2485 2559 2626
8 2491 2411 2490 2563 2562 2488 2561 2627
8 2513 2434 2512 2585 2565 2493 2564 2630
8 2586 2513 2565 2632 2515 2438 2494 2567
8 2565 2493 2566 2633 2494 2416 2495 2568
8 2567 2494 2568 2635 2496 2417 2497 2570
8 2568 2495 2569 2636 2497 2418 2498 2571
8 2570 2497 2571 2638 2499 2420 2500 2573
8 2571 2498 2572 2639 2500 2421 2501 2574
8 2573 2500 2574 2641 2502 2423 2503 2576
8 2574 2501 2575 2642 2503 2424 2504 2577
8 2576 2503 2577 2643 2505 2426 2506 2578
8 2597 2528 2579 2645 2529 2454 2508 2580
8 2580 2508 2579 2645 2525 2448 2522 2593
8 2581 2509 2455 2530 2646 2580 2529 2598
8 2581 2509 2580 2646 2526 2449 2525 2595
8 2583 2511 2582 2648 2513 2434 2512 2585
8 2583 2511 2439 2516 2648 2582 2517 2589
8 2649 2583 2513 2586 2588 2516 2438 2515
8 2589 2517 2444 2520 2653 2587 2521 2592
8 2518 2442 2520 2591 2588 2516 2589 2654
8 2593 2522 2590 2655 2523 2445 2521 2592
8 2524 2446 2523 2594 2591 2520 2592 2656
8 2595 2525 2593 2657 2527 2452 2523 2594
8 2602 2536 2596 2659 2534 2462 2528 2597
8 2600 2534 2597 2660 2532 2460 2529 2598
8 2600 2534 2460 2532 2661 2601 2533 2599
8 2604 2538 2601 2661 2537 2464 2533 2599
8 2602 2536 2462 2534 2663 2603 2535 2601
8 2601 2535 2465 2538 2663 2603 2539 2605
8 2607 2541 2605 2665 2540 2467 2538 2604
8 2608 2542 2606 2666 2541 2468 2539 2605
8 2543 2470 2544 2610 2607 2541 2608 2668
8 2544 2471 2545 2611 2608 2542 2609 2669
8 2546 2473 2547 2613 2610 2544 2611 2671
8 2547 2474 2548 2614 2611 2545 2612 2672
8 2549 2476 2550 2616 2613 2547 2614 2674
8 2550 2477 2551 2617 2614 2548 2615 2675
8 2552 2479 2553 2619 2616 2550 2617 2677
8 2553 2480 2554 2620 2617 2551 2618 2678
8 2557 2482 2556 2624 2619 2553 2620 2680
8 2556 2481 2555 2623 2620 2554 2621 2681
8 2559 2484 2558 2625 2623 2555 2622 2683
8 2560 2485 2559 2626 2624 2556 2623 2684
8 2562 2488 2561 2627 2626 2559 2625 2685
8 2690 2629 2564 2630 2650 2584 2512 2585
8 2586 2513 2585 2651 2632 2565 2630 2691
8 2630 2564 2631 2692 2565 2493 2566 2633
8 2632 2565 2633 2694 2567 2494 2568 2635
8 2633 2566 2634 2695 2568 2495 2569 2636
8 2635 2568 2636 2697 2570 2497 2571 2638
8 2636 2569 2637 2698 2571 2498 2572 2639
8 2638 2571 2639 2700 2573 2500 2574 2641
8 2639 2572 2640 2701 2574 2501 2575 2642
8 2641 2574 2642 2702 2576 2503 2577 2643
8 2597 2528 2596 2659 2645 2579 2644 2704
8 2645 2579 2644 2704 2593 2522 2590 2655
8 2660 2597 2645 2705 2598 2529 2580 2646
8 2646 2580 2645 2705 2595 2525 2593 2657
8 2650 2584 2512 2585 2707 2647 2582 2648
8 2648 2582 2517 2589 2707 2647 2587 2653
8 2649 2583 2648 2708 2586 2513 2585 2651
8 2649 2583 2516 2588 2708 2648 2589 2654
8 2655 2590 2652 2710 2592 2521 2587 2653
8 2654 2589 2520 2591 2711 2653 2592 2656
8 2657 2593 2655 2712 2594 2523 2592 2656
8 2602 2536 2603 2663 2659 2596 2658 2714
8 2662 2602 2659 2715 2600 2534 2597 2660
8 2662 2602 2534 2600 2717 2663 2601 2661
8 2661 2601 2538 2604 2717 2663 2605 2665
8 2666 2606 2664 2718 2605 2539 2603 2663
8 2668 2608 2666 2720 2607 2541 2605 2665
8 2608 2542 2609 2669 2666 2606 2667 2721
8 2610 2544 2611 2671 2668 2608 2669 2723
8 2611 2545 2612 2672 2669 2609 2670 2724
8 2613 2547 2614 2674 2671 2611 2672 2726
8 2614 2548 2615 2675 2672 2612 2673 2727
8 2616 2550 2617 2677 2674 2614 2675 2729
8 2617 2551 2618 2678 2675 2615 2676 2730
8 2619 2553 2620 2680 2677 2617 2678 2732
8 2620 2554 2621 2681 2678 2618 2679 2733
8 2624 2556 2623 2684 2680 2620 2681 2735
8 2681 2621 2555 2623 2736 2682 2622 2683
8 2626 2559 2625 2685 2684 2623 2683 2737
8 2688 2628 2584 2650 2740 2686 2647 2707
8 2688 2628 2687 2742 2650 2584 2629 2690
8 2690 2629 2689 2745 2630 2564 2631 2692
8 2746 2690 2630 2691 2709 2650 2585 2651
8 2691 2630 2692 2747 2632 2565 2633 2694
8 2692 2631 2693 2748 2633 2566 2634 2695
8 2694 2633 2695 2750 2635 2568 2636 2697
8 2695 2634 2696 2751 2636 2569 2637 2698
8 2697 2636 2698 2753 2638 2571 2639 2700
8 2698 2637 2699 2754 2639 2572 2640 2701
8 2700 2639 2701 2755 2641 2574 2642 2702
8 2659 2596 2658 2714 2704 2644 2703 2757
8 2704 2644 2703 2757 2655 2590 2652 2710
8 2660 2597 2659 2715 2705 2645 2704 2758
8 2705 2645 2704 2758 2657 2593 2655 2712
8 2759 2706 2647 2707 2710 2652 2587 2653
8 2709 2650 2585 2651 2760 2707 2648 2708
8 2708 2648 2589 2654 2760 2707 2653 2711
8 2712 2655 2710 2761 2656 2592 2653 2711
8 2763 2713 2658 2714 2718 2664 2603 2663
8 2662 2602 2663 2717 2715 2659 2714 2764
8 2720 2666 2718 2767 2665 2605 2663 2717
8 2768 2719 2664 2718 2721 2667 2606 2666
8 2668 2608 2669 2723 2720 2666 2721 2770
8 2669 2609 2670 2724 2721 2667 2722 2771
8 2671 2611 2672 2726 2723 2669 2724 2773
8 2672 2612 2673 2727 2724 2670 2725 2774
8 2674 2614 2675 2729 2726 2672 2727 2776
8 2675 2615 2676 2730 2727 2673 2728 2777
8 2677 2617 2678 2732 2729 2675 2730 2779
8 2678 2618 2679 2733 2730 2676 2731 2780
8 2680 2620 2681 2735 2732 2678 2733 2782
8 2733 2679 2621 2681 2783 2734 2682 2736
8 2735 2681 2623 2684 2784 2736 2683 2737
8 2740 2686 2647 2707 2787 2738 2706 2759
8 2688 2628 2686 2740 2742 2687 2739 2789
8 2743 2688 2650 2709 2790 2740 2707 2760
8 2742 2687 2741 2792 2690 2629 2689 2745
8 2743 2688 2742 2793 2709 2650 2690 2746
8 2745 2689 2744 2795 2692 2631 2693 2748
8 2746 2690 2745 2796 2691 2630 2692 2747
8 2747 2692 2748 2797 2694 2633 2695 2750
8 2748 2693 2749 2798 2695 2634 2696 2751
8 2750 2695 2751 2800 2697 2636 2698 2753
8 2751 2696 2752 2801 2698 2637 2699 2754
8 2753 2698 2754 2802 2700 2639 2701 2755
8 2763 2713 2756 2804 2714 2658 2703 2757
8 2759 2706 2652 2710 2804 2756 2703 2757
8 2715 2659 2714 2764 2758 2704 2757 2805
8 2758 2704 2757 2805 2712 2655 2710 2761
8 2806 2759 2707 2760 2761 2710 2653 2711
8 2765 2716 2762 2808 2718 2664 2713 2763
8 2809 2763 2714 2764 2767 2718 2663 2717
8 2765 2716 2664 2718 2811 2766 2719 2768
8 2813 2768 2718 2767 2770 2721 2666 2720
8 2814 2769 2719 2768 2771 2722 2667 2721
8 2723 2669 2724 2773 2770 2721 2771 2816
8 2724 2670 2725 2774 2771 2722 2772 2817
8 2726 2672 2727 2776 2773 2724 2774 2819
8 2727 2673 2728 2777 2774 2725 2775 2820
8 2729 2675 2730 2779 2776 2727 2777 2822
8 2730 2676 2731 2780 2777 2728 2778 2823
8 2732 2678 2733 2782 2779 2730 2780 2825
8 2780 2731 2679 2733 2826 2781 2734 2783
8 2782 2733 2681 2735 2827 2783 2736 2784
8 2830 2785 2738 2787 2804 2756 2706 2759
8 2789 2739 2686 2740 2832 2786 2738 2787
8 2790 2740 2707 2760 2833 2787 2759 2806
8 2742 2687 2739 2789 2792 2741 2788 2835
8 2743 2688 2740 2790 2793 2742 2789 2836
8 2792 2741 2791 2838 2745 2689 2744 2795
8 2793 2742 2792 2839 2746 2690 2745 2796
8 2795 2744 2794 2841 2748 2693 2749 2798
8 2796 2745 2795 2842 2747 2692 2748 2797
8 2797 2748 2798 2843 2750 2695 2751 2800
8 2798 2749 2799 2844 2751 2696 2752 2801
8 2800 2751 2801 2845 2753 2698 2754 2802
8 2808 2762 2803 2847 2763 2713 2756 2804
8 2809 2763 2804 2848 2764 2714 2757 2805
8 2806 2759 2710 2761 2848 2804 2757 2805
8 2765 2716 2766 2811 2808 2762 2807 2850
8 2810 2765 2808 2851 2767 2718 2763 2809
8 2810 2765 2718 2767 2852 2811 2768 2813
8 2811 2766 2719 2768 2853 2812 2769 2814
8 2855 2814 2768 2813 2816 2771 2721 2770
8 2856 2815 2769 2814 2817 2772 2722 2771
8 2773 2724 2774 2819 2816 2771 2817 2858
8 2774 2725 2775 2820 2817 2772 2818 2859
8 2776 2727 2777 2822 2819 2774 2820 2861
8 2777 2728 2778 2823 2820 2775 2821 2862
8 2779 2730 2780 2825 2822 2777 2823 2864
8 2823 2778 2731 2780 2865 2824 2781 2826
8 2825 2780 2733 2782 2866 2826 2783 2827
8 2869 2828 2785 2830 2847 2803 2756 2804
8 2871 2829 2786 2832 2830 2785 2738 2787
8 2872 2830 2787 2833 2848 2804 2759 2806
8 2789 2739 2786 2832 2835 2788 2831 2874
8 2836 2789 2740 2790 2875 2832 2787 2833
8 2792 2741 2788 2835 2838 2791 2834 2877
8 2793 2742 2789 2836 2839 2792 2835 2878
8 2838 2791 2837 2880 2795 2744 2794 2841
8 2839 2792 2838 2881 2796 2745 2795 2842
8 2841 2794 2840 2882 2798 2749 2799 2844
8 2842 2795 2841 2883 2797 2748 2798 2843
8 2843 2798 2844 2884 2800 2751 2801 2845
8 2886 2846 2803 2847 2850 2807 2762 2808
8 2851 2808 2847 2887 2809 2763 2804 2848
8 2850 2807 2766 2811 2889 2849 2812 2853
8 2810 2765 2811 2852 2851 2808 2850 2890
8 2852 2811 2768 2813 2891 2853 2814 2855
8 2853 2812 2769 2814 2892 2854 2815 2856
8 2894 2856 2814 2855 2858 2817 2771 2816
8 2817 2772 2818 2859 2856 2815 2857 2895
8 2819 2774 2820 2861 2858 2817 2859 2897
8 2820 2775 2821 2862 2859 2818 2860 2898
8 2822 2777 2823 2864 2861 2820 2862 2900
8 2823 2778 2824 2865 2862 2821 2863 2901
8 2864 2823 2780 2825 2902 2865 2826 2866
8 2904 2867 2828 2869 2886 2846 2803 2847
8 2869 2828 2868 2906 2830 2785 2829 2871
8 2907 2869 2830 2872 2887 2847 2804 2848
8 2871 2829 2870 2909 2832 2786 2831 2874
8 2910 2871 2832 2875 2872 2830 2787 2833
8 2835 2788 2831 2874 2877 2834 2873 2912
8 2836 2789 2832 2875 2878 2835 2874 2913
8 2877 2834 2876 2915 2838 2791 2837 2880
8 2839 2792 2835 2878 2881 2838 2877 2916
8 2880 2837 2879 2917 2841 2794 2840 2882
8 2881 2838 2880 2918 2842 2795 2841 2883
8 2883 2841 2882 2919 2843 2798 2844 2884
8 2921 2885 2846 2886 2889 2849 2807 2850
8 2922 2886 2847 2887 2890 2850 2808 2851
8 2889 2849 2812 2853 2924 2888 2854 2892
8 2890 2850 2811 2852 2925 2889 2853 2891
8 2891 2853 2814 2855 2926 2892 2856 2894
8 2892 2854 2815 2856 2927 2893 2857 2895
8 2858 2817 2859 2897 2894 2856 2895 2929
8 2859 2818 2860 2898 2895 2857 2896 2930
8 2861 2820 2862 2900 2897 2859 2898 2932
8 2862 2821 2863 2901 2898 2860 2899 2933
8 2864 2823 2865 2902 2900 2862 2901 2934
8 2904 2867 2846 2886 2936 2903 2885 2921
8 2904 2867 2903 2936 2869 2828 2868 2906
8 2937 2904 2869 2907 2922 2886 2847 2887
8 2906 2868 2905 2939 2871 2829 2870 2909
8 2907 2869 2906 2940 2872 2830 2871 2910
8 2909 2870 2908 2942 2874 2831 2873 2912
8 2910 2871 2909 2943 2875 2832 2874 2913
8 2912 2873 2911 2945 2877 2834 2876 2915
8 2878 2835 2874 2913 2916 2877 2912 2946
8 2915 2876 2914 2947 2880 2837 2879 2917
8 2916 2877 2915 2948 2881 2838 2880 2918
8 2918 2880 2917 2949 2883 2841 2882 2919
8 2921 2885 2849 2889 2951 2920 2888 2924
8 2952 2921 2886 2922 2925 2889 2850 2890
8 2924 2888 2854 2892 2954 2923 2893 2927
8 2925 2889 2853 2891 2955 2924 2892 2926
8 2926 2892 2856 2894 2956 2927 2895 2929
8 2895 2857 2896 2930 2927 2893 2928 2957
8 2897 2859 2898 2932 2929 2895 2930 2959
8 2898 2860 2899 2933 2930 2896 2931 2960
8 2900 2862 2901 2934 2932 2898 2933 2961
8 2936 2903 2885 2921 2963 2935 2920 2951
8 2936 2903 2935 2963 2906 2868 2905 2939
8 2937 2904 2886 2922 2964 2936 2921 2952
8 2937 2904 2936 2964 2907 2869 2906 2940
8 2939 2905 2938 2966 2909 2870 2908 2942
8 2940 2906 2939 2967 2910 2871 2909 2943
8 2942 2908 2941 2969 2912 2873 2911 2945
8 2943 2909 2942 2970 2913 2874 2912 2946
8 2945 2911 2944 2971 2915 2876 2914 2947
8 2946 2912 2945 2972 2916 2877 2915 2948
8 2948 2915 2947 2973 2918 2880 2917 2949
8 2951 2920 2888 2924 2975 2950 2923 2954
8 2952 2921 2889 2925 2976 2951 2924 2955
8 2927 2893 2928 2957 2954 2923 2953 2978
8 2955 2924 2892 2926 2979 2954 2927 2956
8 2929 2895 2930 2959 2956 2927 2957 2980
8 2930 2896 2931 2960 2957 2928 2958 2981
8 2932 2898 2933 2961 2959 2930 2960 2982
8 2951 2920 2950 2975 2963 2935 2962 2984
8 2963 2935 2962 2984 2939 2905 2938 2966
8 2964 2936 2921 2952 2985 2963 2951 2976
8 2964 2936 2963 2985 2940 2906 2939 2967
8 2966 2938 2965 2987 2942 2908 2941 2969
8 2967 2939 2966 2988 2943 2909 2942 2970
8 2969 2941 2968 2989 2945 2911 2944 2971
8 2970 2942 2969 2990 2946 2912 2945 2972
8 2972 2945 2971 2991 2948 2915 2947 2973
8 2954 2923 2953 2978 2975 2950 2974 2993
8 2976 2951 2924 2955 2994 2975 2954 2979
8 2957 2928 2958 2981 2978 2953 2977 2995
8 2956 2927 2957 2980 2979 2954 2978 2996
8 2959 2930 2960 2982 2980 2957 2981 2997
8 2984 2962 2983 2999 2966 2938 2965 2987
8 2975 2950 2974 2993 2984 2962 2983 2999
8 2976 2951 2975 2994 2985 2963 2984 3000
8 2985 2963 2984 3000 2967 2939 2966 2988
8 2987 2965 2986 3001 2969 2941 2968 2989
8 2988 2966 2987 3002 2970 2942 2969 2990
8 2990 2969 2989 3003 2972 2945 2971 2991
8 2978 2953 2977 2995 2993 2974 2992 3004
8 2979 2954 2978 2996 2994 2975 2993 3005
8 2980 2957 2981 2997 2996 2978 2995 3006
8 2974 2993 2999 2983 2992 3004 3007 2998
8 2983 2999 2987 2965 2998 3007 3001 2986
8 3000 2984 2999 3008 2988 2966 2987 3002
8 2994 2975 2993 3005 3000 2984 2999 3008
8 3002 2987 3001 3009 2990 2969 2989 3003
8 2996 2978 2995 3006 3005 2993 3004 3010
8 3005 2993 3004 3010 3008 2999 3007 3011
8 3008 2999 3007 3011 3002 2987 3001 3009

CELL_TYPES 1910
12
12
12
12
12
12
12
12
12
12
12
12
12
12
12
12
12
12
12
12
12
12
12
12
12
12
12
12
12
12
12
12
12
12
12
12
12
12
12
12
12
12
12
12
12
12
12
12
12
12
12
12
12
12
12
12
12
12
12
12
12
12
12
12
12
12
12
12
12
12
12
12
12
12
12
12
12
12
12
12
12
12
12
12
12
12
12
12
12
12
12
12
12
12
12
12
12
12
12
12
12
12
12
12
12
12
12
12
12
12
12
12
12
12
12
12
12
12
12
12
12
12
12
12
12
12
12
12
12
12
12
12
12
12
12
12
12
12
12
12
12
12
12
12
12
12
12
12
12
12
12
12
12
12
12
12
12
12
12
12
12
12
12
12
12
12
12
12
12
12
12
12
12
12
12
12
12
12
12
12
12
12
12
12
12
12
12
12
12
12
12
12
12
12
12
12
12
12
12
12
12
12
12
12
12
12
12
12
12
12
12
12
12
12
12
12
12
12
12
12
12
12
12
12
12
12
12
12
12
12
12
12
12
12
12
12
12
12
12
12
12
12
12
12
12
12
12
12
12
12
12
12
12
12
12
12
12
12
12
12
12
12
12
12
12
12
12
12
12
12
12
12
12
12
12
12
12
12
12
12
12
12
12
12
12
12
12
12
12
12
12
12
12
12
12
12
12
12
12
12
12
12
12
12
12
12
12
12
12
12
12
12
12
12
12
12
12
12
12
12
12
12
12
12
12
12
12
12
12
12
12
12
12
12
12
12
12
12
12
12
12
12
12
12
12
12
12
12
12
12
12
12
12
12
12
12
12
12
12
12
12
12
12
12
12
12
12
12
12
12
12
12
12
12
12
12
12
12
12
12
12
12
12
12
12
12
12
12
12
12
12
12
12
12
12
12
12
12
12
12
12
12
12
12
12
12
12
12
12
12
12
12
12
12
12
12
12
12
12
12
12
12
12
12
12
12
12
12
12
12
12
12
12
12
12
12
12
12
12
12
12
12
12
12
12
12
12
12
12
12
12
12
12
12
12
12
12
12
12
12
12
12
12
12
12
12
12
12
12
12
12
12
12
12
12
12
12
12
12
12
12
12
12
12
12
12
12
12
12
12
12
12
12
12
12
12
12
12
12
12
12
12
12
12
12
12
12
12
12
12
12
12
12
12
12
12
12
12
12
12
12
12
12
12
12
12
12
12
12
12
12
12
12
12
12
12
12
12
12
12
12
12
12
12
12
12
12
12
12
12
12
12
12
12
12
12
12
12
12
12
12
12
12
12
12
12
12
12
12
12
12
12
12
12
12
12
12
12
12
12
12
12
12
12
12
12
12
12
12
12
12
12
12
12
12
12
12
12
12
12
12
12
12
12
12
12
12
12
12
12
12
12
12
12
12
12
12
12
12
12
12
12
12
12
12
12
12
12
12
12
12
12
12
12
12
12
12
12
12
12
12
12
12
12
12
12
12
12
12
12
12
12
12
12
12
12
12
12
12
12
12
12
12
12
12
12
12
12
12
12
12
12
12
12
12
12
12
12
12
12
12
12
12
12
12
12
12
12
12
12
12
12
12
12
12
12
12
12
12
12
12
12
12
12
12
12
12
12
12
12
12
12
12
12
12
12
12
12
12
12
12
12
12
12
12
12
12
12
12
12
12
12
12
12
12
12
12
12
12
12
12
12
12
12
12
12
12
12
12
12
12
12
12
12
12
12
12
12
12
12
12
12
12
12
12
12
12
12
12
12
12
12
12
12
12
12
12
12
12
12
12
12
12
12
12
12
12
12
12
12
12
12
12
12
12
12
12
12
12
12
12
12
12
12
12
12
12
12
12
12
12
12
12
12
12
12
12
12
12
12
12
12
12
12
12
12
12
12
12
12
12
12
12
12
12
12
12
12
12
12
12
12
12
12
12
12
12
12
12
12
12
12
12
12
12
12
12
12
12
12
12
12
12
12
12
12
12
12
12
12
12
12
12
12
12
12
12
12
12
12
12
12
12
12
12
12
12
12
12
12
12
12
12
12
12
12
12
12
12
12
12
12
12
12
12
12
12
12
12
12
12
12
12
12
12
12
12
12
12
12
12
12
12
12
12
12
12
12
12
12
12
12
12
12
12
12
12
12
12
12
12
12
12
12
12
12
12
12
12
12
12
12
12
12
12
12
12
12
12
12
12
12
12
12
12
12
12
12
12
12
12
12
12
12
12
12
12
12
12
12
12
12
12
12
12
12
12
12
12
12
12
12
12
12
12
12
12
12
12
12
12
12
12
12
12
12
12
12
12
12
12
12
12
12
12
12
12
12
12
12
12
12
12
12
12
12
12
12
12
12
12
12
12
12
12
12
12
12
12
12
12
12
12
12
12
12
12
12
12
12
12
12
12
12
12
12
12
12
12
12
12
12
12
12
12
12
12
12
12
12
12
12
12
12
12
12
12
12
12
12
12
12
12
12
12
12
12
12
12
12
12
12
12
12
12
12
12
12
12
12
12
12
12
12
12
12
12
12
12
12
12
12
12
12
12
12
12
12
12
12
12
12
12
12
12
12
12
12
12
12
12
12
12
12
12
12
12
12
12
12
12
12
12
12
12
12
12
12
12
12
12
12
12
12
12
12
12
12
12
12
12
12
12
12
12
12
12
12
12
12
12
12
12
12
12
12
12
12
12
12
12
12
12
12
12
12
12
12
12
12
12
12
12
12
12
12
12
12
12
12
12
12
12
12
12
12
12
12
12
12
12
12
12
12
12
12
12
12
12
12
12
12
12
12
12
12
12
12
12
12
12
12
12
12
12
12
12
12
12
12
12
12
12
12
12
12
12
12
12
12
12
12
12
12
12
12
12
12
12
12
12
12
12
12
12
12
12
12
12
12
12
12
12
12
12
12
12
12
12
12
12
12
12
12
12
12
12
12
12
12
12
12
12
12
12
12
12
12
12
12
12
12
12
12
12
12
12
12
12
12
12
12
12
12
12
12
12
12
12
12
12
12
12
12
12
12
12
12
12
12
12
12
12
12
12
12
12
12
12
12
12
12
12
12
12
12
12
12
12
12
12
12
12
12
12
12
12
12
12
12
12
12
12
12
12
12
12
12
12
12
12
12
12
12
12
12
12
12
12
12
12
12
12
12
12
12
12
12
12
12
12
12
12
12
12
12
12
12
12
12
12
12
12
12
12
12
12
12
12
12
12
12
12
12
12
12
12
12
12
12
12
12
12
12
12
12
12
12
12
12
12
12
12
12
12
12
12
12
12
12
12
12
12
12
12
12
12
12
12
12
12
12
12
12
12
12
12
12
12
12
12
12
12
12
12
12
12
12
12
12
12
12
12
12
12
12
12
12
12
12
12
12
12
12
12
12
12
12
12
12
12
12
12
12
12
12
12
12
12
12
12
12
12
12
12
12
12
12
12
12
12
12
12
12
12
12
12
12
12
12
12
12
12
12
12
12
12
12
12
12
12
12
12
12
12
12
12
12
12
12
12
12
12
12
12
12
12
12
12
12
12
12
12
12
12
12
12
12
12
12
12
12
12
12
12
12
12
12
12
12
12
12
12
12
12
12
12
12
12
12
12
12
12
12
12
12
12
12
12
12
12
12
12
12
12
12
12
12
12
12
12
12
12
12
12
12
12
12
12
12
12
12
12
12
12
12
12
12
12
12
12
12
12
12
12
12
12
12
12
12
12
12
12
12
12
12
12
12
12
12
12
12
12
12
12
12
12
12
12
12
12
12
12
12
12
12
12
12
12
12
12
12
12
12
12
12
12
12
12
12
12
12
12
12
12
12
12
12
12
12
12
12
12
12
12
12
12
12
12
12
12
12
12
12
12
12
12
12
12
12
12
12
12
12
12
12
12
12
12
12
12
12
12
12
12
12
12
12
12
12
12
12
12
12
12
12
12
12
12
12
12
12
12
12
12
12
12
12
12
12
12
12
12
12
12
12
12
12
12
12
12
12
12
12
12
12
12
12
12
12
12
12
12
12
12
12
12
12
12
12
12
12
12
12
12
12
12
12
12
12
12
12
12
12
12
12
12
12
12
12
12
12
12
12
12
12
12
12
12
12
12
12
12
12
12
12
12
12
12
12
12
12
12
12
12
12
12
12
12
12
12
12
12
12
12
12
12
12
12
12
12
12
12
12
12
12
12
12
12
12
12
12
12
12
12
12
12
12
12
12
12
12
12
12
12
12
12
12
12
12
12
12
12
12
12
12
12
12
12
12
12
12
12
12
12
12
12
12
12
12
12
12
12
12
12
12
12
12
12
12
12
12
12
12
12
12
12
12
12
12
12
12
12
12
12
12
12
12
12
12

POINT_DATA 3012
SCALARS Jp_lamdaP float 4
LOOKUP_TABLE default
0.999973 1 1 0.999973
1 1 1 1
0.999976 1 1 0.999976
0.999948 1 1 0.999948
0.999967 1 1 0.999967
0.999982 1 1 0.999982
0.999728 1 1 0.999728
1 1 1 1
1 1 1 1
1 1 1 1
1 1 1 1
0.999873 1 1 0.999873
0.999913 1 1 0.999913
0.999944 1 1 0.999944
0.999977 1 1 0.999977
0.999953 1 1 0.999953
0.999984 1 1 0.999984
0.999971 1 1 0.999971
0.999731 1 1 0.999731
1 1 1 1
0.999939 1 1 0.999939
0.999958 1 1 0.999958
0.999614 1 1 0.999614
0.999691 1 1 0.999691
0.999994 1 1 0.999994
0.999776 1 1 0.999776
0.999322 1 1 0.999322
1 1 1 1
0.999979 1 1 0.999979
0.999991 1 1 0.999991
1 1 1 1
0.999881 1 1 0.999881
0.999953 1 1 0.999953
0.999975 1 1 0.999975
0.999763 1 1 0.999763
1 1 1 1
0.999846 1 1 0.999846
0.999915 1 1 0.999915
0.999411 1 1 0.999411
1 1 1 1
1 1 1 1
0.99997 1 1 0.99997
1 1 1 1
0.999933 1 1 0.999933
0.999571 1 1 0.999571
1 1 1 1
0.999696 1 1 0.999696
0.999957 1 1 0.999957
0.999973 1 1 0.999973
0.999986 1 1 0.999986
0.999735 1 1 0.999735
0.999957 1 1 0.999957
0.999945 1 1 0.999945
0.999996 1 1 0.999996
0.999963 1 1 0.999963
0.999616 1 1 0.999616
0.99978 1 1 0.99978
0.999694 1 1 0.999694
0.999308 1 1 0.999308
1 1 1 1
0.999926 1 1 0.999926
0.999643 1 1 0.999643
0.999593 1 1 0.999593
0.99965 1 1 0.99965
0.999052 1 1 0.999052
0.999186 1 1 0.999186
1 1 1 1
0.99985 1 1 0.99985
0.999428 1 1 0.999428
0.99888 1 1 0.99888
1 1 1 1
1 1 1 1
1 1 1 1
0.999888 1 1 0.999888
1 1 1 1
1 1 1 1
0.999748 1 1 0.999748
1 1 1 1
0.999844 1 1 0.999844
0.999928 1 1 0.999928
0.99941 1 1 0.99941
1 1 1 1
1 1 1 1
0.999703 1 1 0.999703
0.999785 1 1 0.999785
0.99909 1 1 0.99909
0.999961 1 1 0.999961
0.999344 1 1 0.999344
0.999477 1 1 0.999477
0.999108 1 1 0.999108
1 1 1 1
1 1 1 1
1 1 1 1
1 1 1 1
1 1 1 1
0.999963 1 1 0.999963
0.999607 1 1 0.999607
0.999973 1 1 0.999973
0.999685 1 1 0.999685
1 1 1 1
0.999539 1 1 0.999539
0.999665 1 1 0.999665
0.998782 1 1 0.998782
0.999717 1 1 0.999717
0.998888 1 1 0.998888
0.999923 1 1 0.999923
0.99995 1 1 0.99995
0.999998 1 1 0.999998
0.999966 1 1 0.999966
0.999618 1 1 0.999618
0.999697 1 1 0.999697
0.999783 1 1 0.999783
0.999294 1 1 0.999294
1 1 1 1
0.999933 1 1 0.999933
0.999563 1 1 0.999563
0.999593 1 1 0.999593
1 1 1 1
0.999878 1 1 0.999878
0.999653 1 1 0.999653
0.999026 1 1 0.999026
0.999411 1 1 0.999411
0.999204 1 1 0.999204
0.998882 1 1 0.998882
0.999557 1 1 0.999557
0.999571 1 1 0.999571
0.99887 1 1 0.99887
0.998969 1 1 0.998969
0.999081 1 1 0.999081
0.998639 1 1 0.998639
1 1 1 1
0.9988 1 1 0.9988
0.999954 1 1 0.999954
0.999477 1 1 0.999477
0.998966 1 1 0.998966
0.998697 1 1 0.998697
0.999992 1 1 0.999992
0.999691 1 1 0.999691
1 1 1 1
1 1 1 1
0.999755 1 1 0.999755
1 1 1 1
0.999941 1 1 0.999941
0.999847 1 1 0.999847
0.999408 1 1 0.999408
1 1 1 1
1 1 1 1
0.999723 1 1 0.999723
0.999803 1 1 0.999803
0.999092 1 1 0.999092
0.999972 1 1 0.999972
0.999346 1 1 0.999346
0.999477 1 1 0.999477
0.999097 1 1 0.999097
0.999991 1 1 0.999991
1 1 1 1
0.999753 1 1 0.999753
0.998989 1 1 0.998989
0.999226 1 1 0.999226
0.998725 1 1 0.998725
0.999564 1 1 0.999564
0.999026 1 1 0.999026
0.999155 1 1 0.999155
0.998984 1 1 0.998984
1 1 1 1
1 1 1 1
1 1 1 1
0.999999 1 1 0.999999
1 1 1 1
1 1 1 1
1 1 1 1
0.999671 1 1 0.999671
0.999589 1 1 0.999589
1 1 1 1
1 1 1 1
0.999542 1 1 0.999542
0.999654 1 1 0.999654
0.998782 1 1 0.998782
0.99969 1 1 0.99969
0.998888 1 1 0.998888
0.999528 1 1 0.999528
0.998722 1 1 0.998722
0.998845 1 1 0.998845
0.999116 1.00068 1 0.998441
0.998928 1 1 0.998928
0.998562 1.00001 1 0.998552
1 1 1 1
0.99994 1 1 0.99994
0.999478 1 1 0.999478
0.999594 1 1 0.999594
1 1 1 1
0.999906 1 1 0.999906
0.999656 1 1 0.999656
0.999001 1 1 0.999001
0.999221 1 1 0.999221
0.999394 1 1 0.999394
0.998883 1 1 0.998883
0.999554 1 1 0.999554
0.999571 1 1 0.999571
0.998817 1 1 0.998817
0.998989 1 1 0.998989
1 1 1 1
0.999945 1 1 0.999945
0.999499 1 1 0.999499
0.999083 1 1 0.999083
0.998609 1 1 0.998609
0.998962 1 1 0.998962
0.998816 1 1 0.998816
0.9987 1 1 0.9987
0.999988 1 1 0.999988
0.999691 1 1 0.999691
0.998735 1 1 0.998735
0.99893 1 1 0.99893
0.998685 1.00017 1 0.998511
0.998532 1 1 0.998532
0.998728 1 1 0.998728
0.998966 1.00047 1 0.998494
0.999977 1 1 0.999977
0.998687 1.00005 1 0.998633
0.999536 1 1 0.999536
0.999097 1 1 0.999097
0.998781 1 1 0.998781
0.998824 1.00018 1 0.998643
0.999611 1 1 0.999611
0.999785 1 1 0.999785
0.999344 1 1 0.999344
0.999716 1 1 0.999716
1 1 1 1
1 1 1 1
0.999806 1 1 0.999806
0.999095 1 1 0.999095
0.999982 1 1 0.999982
0.999476 1 1 0.999476
0.999347 1 1 0.999347
0.999086 1 1 0.999086
0.999994 1 1 0.999994
1 1 1 1
0.999754 1 1 0.999754
0.998989 1 1 0.998989
0.99923 1 1 0.99923
0.998725 1 1 0.998725
0.999565 1 1 0.999565
0.999036 1 1 0.999036
0.999154 1 1 0.999154
0.998973 1 1 0.998973
1 1 1 1
0.999652 1 1 0.999652
0.999851 1 1 0.999851
0.999419 1 1 0.999419
0.998656 1.00003 1 0.99863
0.998888 1 1 0.998888
0.999921 1.00138 1 0.998547
0.99925 1 1 0.99925
0.998899 1 1 0.998899
0.999447 1 1.0005 0.998949
0.998879 1 1 0.998879
0.999967 1 1 0.999967
1 1 1 1
1 1 1 1
1 1 1 1
1 1 1 1
1 1 1 1
1 1 1 1
0.999997 1 1 0.999997
1 1 1 1
0.999692 1 1 0.999692
0.999637 1 1 0.999637
0.998888 1 1 0.998888
0.998783 1 1 0.998783
0.999544 1 1 0.999544
1 1 1 1
0.999528 1 1 0.999528
0.998722 1 1 0.998722
0.998845 1 1 0.998845
0.998967 1.00053 1 0.99844
0.998928 1 1 0.998928
0.998585 1.00003 1 0.998552
0.998707 1 1 0.998707
0.999417 1.00104 1 0.99838
0.998695 1.00019 1 0.998503
1.00292 1.00457 1 0.998358
0.998625 1.00004 1 0.998587
1.00059 1.00215 1 0.998446
0.999551 1 1 0.999551
0.999572 1 1 0.999572
0.998765 1 1 0.998765
0.999008 1 1 0.999008
1 1 1 1
0.999935 1 1 0.999935
0.99952 1 1 0.99952
0.999084 1 1 0.999084
0.998578 1 1 0.998578
0.998832 1 1 0.998832
0.998958 1 1 0.998958
0.998703 1 1 0.998703
0.999985 1 1 0.999985
0.99969 1 1 0.99969
0.998718 1 1 0.998718
0.998929 1 1 0.998929
0.998787 1.00029 1 0.998498
0.998565 1 1 0.998565
0.999971 1 1 0.999971
0.999535 1 1 0.999535
0.999121 1 1 0.999121
0.998729 1 1 0.998729
0.99919 1.0007 1 0.998488
0.998756 1 1 0.998756
0.998752 1.00012 1 0.998633
0.999095 1.00045 1 0.998643
0.999612 1 1 0.999612
0.999342 1 1 0.999342
0.999784 1 1 0.999784
0.999011 1.00056 1 0.998448
0.998723 1.00019 1 0.998535
1.00238 1.00403 1 0.998355
0.999759 1.00134 1 0.998423
0.998894 1.00033 1 0.998562
1.00193 1.00344 1 0.998496
0.99957 1 1 0.99957
0.999883 1.00129 1 0.9986
0.999254 1 1 0.999254
0.998872 1 1 0.998872
0.998702 1.00007 1 0.998633
1.00092 1.00223 1 0.998696
0.999857 1 1 0.999857
0.999328 1 1 0.999328
0.99939 1 1 0.99939
0.999217 1 1 0.999217
0.99899 1 1 0.99899
1 1 1 1
0.999997 1 1 0.999997
0.999755 1 1 0.999755
0.999234 1 1 0.999234
0.998724 1 1 0.998724
0.999565 1 1 0.999565
0.999152 1 1 0.999152
0.999045 1 1 0.999045
0.998962 1 1 0.998962
1 1 1 1
0.999652 1 1 0.999652
0.999855 1 1 0.999855
0.999417 1 1 0.999417
0.998653 1.00002 1 0.998628
0.99889 1 1 0.99889
0.99956 1.00101 1 0.998547
0.999252 1 1 0.999252
0.998911 1 1 0.998911
0.999355 1 1.00041 0.998942
0.998925 1 1 0.998925
1 1 1 1
0.999911 1 1 0.999911
0.999341 1 1 0.999341
0.999513 1 1 0.999513
0.999231 1 1 0.999231
1.00037 1.0019 1 0.998479
0.999023 1.0003 1 0.998721
1.00088 1.00239 1 0.998492
0.999655 1 1.00063 0.999022
0.998832 1 1 0.998832
0.999277 1 1.00053 0.998746
0.999956 1 1 0.999956
0.999733 1 1 0.999733
0.999975 1 1 0.999975
0.999969 1 1 0.999969
1 1 1 1
1 1 1 1
1 1 1 1
1 1 1 1
1 1 1 1
1 1 1 1
1 1 1 1
1 1 1 1
1 1 1 1
0.999996 1 1 0.999996
1 1 1 1
0.998928 1 1 0.998928
0.998845 1 1 0.998845
0.998607 1.00006 1 0.998552
0.998813 1.00037 1 0.998439
0.998722 1 1 0.998722
0.999527 1 1 0.999527
0.998707 1 1 0.998707
0.999338 1.00096 1 0.99838
0.998622 1.00012 1 0.998503
1.00291 1.00457 1 0.998355
0.99864 1.00005 1 0.998586
1.00028 1.00184 1 0.998446
0.999361 1.001 1 0.998364
1.00507 1.00677 1 0.998305
1.00176 1.00336 1 0.998401
1.00813 1.00977 1 0.998368
1.00009 1.00162 1 0.998469
1.00452 1.00603 1 0.998499
0.998701 1 1 0.998701
0.998928 1 1 0.998928
0.998883 1.0004 1 0.998486
0.998597 1 1 0.998597
0.999965 1 1 0.999965
0.999534 1 1 0.999534
0.999146 1 1 0.999146
0.998729 1 1 0.998729
0.999419 1.00094 1 0.998481
0.998814 1.00018 1 0.998634
0.99873 1 1 0.99873
0.999394 1.00075 1 0.998644
0.999614 1 1 0.999614
0.99934 1 1 0.99934
0.999782 1 1 0.999782
0.999125 1.00071 1 0.998421
0.998711 1.00018 1 0.998535
1.00254 1.00421 1 0.998346
1.00027 1.00184 1 0.998429
0.999571 1 1 0.999571
0.99925 1 1 0.99925
0.998902 1 1 0.998902
0.998967 1.0004 1 0.998572
1.00182 1.00332 1 0.998505
0.998666 1.00005 1 0.998614
1.00019 1.00159 1 0.998601
1.00071 1.00201 1 0.998706
0.99933 1 1 0.99933
0.999202 1 1 0.999202
0.999854 1 1 0.999854
0.999402 1 1 0.999402
1.00354 1.00525 1 0.998296
1.00166 1.00328 1 0.998388
1.0085 1.0102 1 0.998314
1.0036 1.00518 1 0.998428
1.00136 1.00281 1 0.998557
1.00555 1.00701 1 0.998542
0.999314 1 1 0.999314
1.00251 1.00382 1 0.998699
0.999063 1 1 0.999063
0.998868 1 1.00018 0.998693
0.999212 1.00066 1 0.99855
1.00264 1.00394 1 0.99871
0.999895 1 1 0.999895
0.999477 1 1 0.999477
0.999209 1 1 0.999209
0.999235 1 1 0.999235
0.999156 1 1 0.999156
1 1 1 1
0.998644 1.00002 1 0.998626
0.999858 1 1 0.999858
0.999652 1 1 0.999652
0.999415 1 1 0.999415
0.998893 1 1 0.998893
0.999221 1.00068 1 0.998546
0.999254 1 1 0.999254
0.999294 1 1.00036 0.998935
0.998923 1 1 0.998923
0.99897 1 1 0.99897
1 1 1 1
0.999916 1 1 0.999916
0.999341 1 1 0.999341
0.999513 1 1 0.999513
0.999218 1 1 0.999218
1.00032 1.00185 1 0.998476
0.998949 1.00023 1 0.998722
1.00095 1.00247 1 0.998486
0.999486 1 1.00046 0.999024
0.998842 1 1 0.998842
0.999487 1 1.00072 0.998763
0.999939 1 1 0.999939
0.999602 1 1 0.999602
0.999196 1 1.00007 0.99913
0.999304 1 1 0.999304
0.999115 1 1 0.999115
1.00269 1.00424 1 0.998454
0.999661 1.00101 1 0.998655
1.00174 1.00315 1 0.998588
1.00156 1 1.00274 0.998829
0.998649 1 1 0.998649
0.999959 1 1 0.999959
0.999676 1 1 0.999676
0.999717 1 1 0.999717
0.999568 1 1 0.999568
0.99974 1 1 0.99974
0.999978 1 1 0.999978
0.999976 1 1 0.999976
1 1 1 1
0.999972 1 1 0.999972
1 1 1 1
1 1 1 1
1 1 1 1
1 1 1 1
1 1 1 1
1 1 1 1
1 1 1 1
1 1 1 1
1 1 1 1
1 1 1 1
1 1 1 1
0.998662 1.00008 1 0.998584
0.998547 1.00004 1 0.998503
0.999984 1.00154 1 0.998447
1.0029 1.00456 1 0.998352
0.999269 1.00089 1 0.998381
0.998707 1 1 0.998707
0.999401 1.00104 1 0.998365
1.00517 1.00688 1 0.998297
1.00139 1.00299 1 0.998401
1.00817 1.00982 1 0.998372
1.00027 1.00181 1 0.998466
1.0044 1.00591 1 0.998501
1.00477 1.00651 1 0.998274
1.01088 1.01259 1 0.99831
1.00602 1.0076 1 0.998433
1.0093 1.01092 1 0.998395
1.0043 1.00582 1 0.99849
1.00756 1.00901 1 0.998559
0.999241 1.00085 1 0.998394
0.998695 1.00016 1 0.998534
1.00271 1.00438 1 0.998337
1.00078 1.00235 1 0.998434
0.999573 1 1 0.999573
0.999247 1 1 0.999247
0.998944 1 1.00001 0.998933
0.999044 1.00046 1 0.998582
1.0017 1.00319 1 0.998514
1.00046 1.00186 1 0.998601
0.998632 1.00004 1 0.998595
1.00052 1.00181 1 0.998716
0.999333 1 1 0.999333
0.999187 1 1 0.999187
0.99985 1 1 0.99985
0.999415 1 1 0.999415
1.00372 1.00543 1 0.998297
1.0019 1.00352 1 0.998387
1.00807 1.00976 1 0.998318
1.0032 1.00478 1 0.998427
0.999313 1 1 0.999313
0.999088 1 1 0.999088
0.998992 1 1.0003 0.998689
1.00131 1.00276 1 0.99855
1.00543 1.00686 1 0.998574
0.999324 1.00078 1 0.998541
1.00257 1.00388 1 0.9987
1.00251 1.00378 1 0.99874
0.999209 1 1 0.999209
0.999152 1 1 0.999152
0.999233 1 1 0.999233
0.99987 1 1 0.99987
0.999488 1 1 0.999488
1.01043 1.01216 1 0.998284
1.00785 1.00953 1 0.998329
1.00675 1.00828 1 0.998488
1.00521 1.0066 1 0.998628
0.999194 1 1 0.999194
1.00473 1.00596 1 0.998778
0.999155 1 1.00023 0.998929
0.99922 1.00023 1.00051 0.998482
1.00095 1.00247 1 0.998484
0.999879 1 1 0.999879
0.999591 1 1 0.999591
0.999323 1 1 0.999323
0.999172 1 1 0.999172
0.999113 1 1 0.999113
0.999111 1 1 0.999111
1 1 1 1
0.99992 1 1 0.99992
1.00024 1.00177 1 0.998473
0.999513 1 1 0.999513
0.999341 1 1 0.999341
0.999205 1 1 0.999205
0.998875 1.00015 1 0.998724
1.0009 1.00243 1 0.998481
0.999451 1 1.00042 0.999027
0.999391 1 1.00061 0.998779
0.998852 1 1 0.998852
0.999943 1 1 0.999943
0.999603 1 1 0.999603
0.999255 1 1.00012 0.999139
0.999303 1 1 0.999303
0.999101 1 1 0.999101
1.00274 1.00429 1 0.998451
0.999389 1.00074 1 0.99865
1.0017 1.0031 1 0.998605
1.00098 1 1.00217 0.998818
0.998674 1 1.00006 0.998618
0.999664 1 1 0.999664
0.999361 1 1 0.999361
1.00026 1 1.00127 0.998987
0.999119 1 1 0.999119
0.999015 1 1 0.999015
1.00624 1.00758 1 0.998675
0.999569 1.00101 1 0.99856
1.00265 1.00404 1 0.99862
1.00251 1 1.0038 0.998706
0.998422 1 1 0.998422
0.999962 1 1 0.999962
0.999689 1 1 0.999689
0.999485 1 1 0.999485
0.999702 1 1 0.999702
0.99974 1 1 0.99974
0.999545 1 1 0.999545
0.999426 1 1 0.999426
0.999538 1 1 0.999538
0.999747 1 1 0.999747
0.999977 1 1 0.999977
0.999978 1 1 0.999978
1 1 1 1
0.999977 1 1 0.999977
1 1 1 1
1 1 1 1
1 1 1 1
1 1 1 1
1 1 1 1
1 1 1 1
1 1 1 1
1 1 1 1
1 1 1 1
1 1 1 1
1 1 1 1
1.00046 1.002 1 0.998463
1.00102 1.00262 1 0.998402
1.00429 1.00579 1 0.998503
1.00823 1.00987 1 0.998377
1.00527 1.00699 1 0.99829
0.99944 1.00108 1 0.998365
1.00481 1.00656 1 0.998269
1.01082 1.01253 1 0.998309
1.00644 1.00803 1 0.998421
1.0096 1.01123 1 0.998393
1.00373 1.00524 1 0.998491
1.00749 1.00893 1 0.998578
1.01079 1.01253 1 0.998279
1.01125 1.01291 1 0.998364
1.00987 1.01141 1 0.998478
1.00757 1.00894 1 0.998646
1.0039 1.00561 1 0.998298
1.00212 1.00374 1 0.998386
1.00764 1.00933 1 0.998322
1.0028 1.00439 1 0.998426
0.999312 1 1 0.999312
0.999113 1 1 0.999113
0.999203 1 1.00052 0.998686
1.00126 1.00272 1 0.998543
1.00535 1.00675 1 0.998606
1.00268 1.00398 1 0.998702
0.999388 1.00086 1 0.998531
1.00233 1.00357 1 0.998769
0.99921 1 1 0.99921
0.999148 1 1 0.999148
0.99923 1 1 0.99923
0.999846 1 1 0.999846
0.999498 1 1 0.999498
1.01003 1.01177 1 0.998288
1.00773 1.00941 1 0.998336
1.00661 1.00813 1 0.998493
0.999191 1 1 0.999191
0.999195 1 1.00024 0.998957
0.999435 1.0002 1.00076 0.998476
1.00536 1.00675 1 0.998619
1.00107 1.00255 1 0.998524
1.004 1.00523 1 0.998777
0.999881 1 1 0.999881
0.999171 1 1 0.999171
0.999126 1 1 0.999126
0.999108 1 1 0.999108
0.99933 1 1 0.99933
0.999572 1 1 0.999572
1.01111 1.01283 1 0.998305
1.00854 1.01017 1 0.998385
1.00756 1.00902 1 0.998556
1.00723 1.00851 1 0.998731
0.999119 1 1 0.999119
1.00221 1.00361 1 0.9986
1.00028 1 1.00162 0.998659
1.00026 1.00088 1.00104 0.998344
0.999909 1 1 0.999909
0.999649 1 1 0.999649
0.999399 1 1 0.999399
0.999146 1 1 0.999146
0.999109 1 1 0.999109
0.99905 1 1 0.99905
0.999948 1 1 0.999948
0.999604 1 1 0.999604
1.00286 1.00442 1 0.998448
0.999302 1 1 0.999302
0.999148 1 1 0.999148
0.999088 1 1 0.999088
0.999164 1.00052 1 0.998645
1.00177 1.00315 1 0.998623
1.00042 1 1.00162 0.998806
0.998855 1 1.00027 0.998588
0.999665 1 1 0.999665
0.999369 1 1 0.999369
1.00014 1 1.00113 0.999004
0.999124 1 1 0.999124
0.999028 1 1 0.999028
1.00623 1.00756 1 0.998683
0.999547 1.00099 1 0.998558
1.00274 1.00405 1 0.998696
1.00274 1 1.00405 0.998692
0.998414 1 1.00003 0.998385
0.999442 1 1 0.999442
0.999167 1 1 0.999167
1.00217 1 1.00329 0.99888
0.998948 1 1 0.998948
1.0127 1.01398 1 0.998739
1.00802 1.00939 0.999872 0.998774
1.00104 1.00265 1 0.998388
1.00248 1 1.00407 0.998409
0.999702 1 1 0.999702
0.999496 1 1 0.999496
0.999368 1 1 0.999368
0.99974 1 1 0.99974
0.999522 1 1 0.999522
0.999747 1 1 0.999747
0.999409 1 1 0.999409
0.999547 1 1 0.999547
0.999309 1 1 0.999309
0.999408 1 1 0.999408
0.999544 1 1 0.999544
0.999746 1 1 0.999746
0.999974 1 1 0.999974
0.999977 1 1 0.999977
1 1 1 1
0.999978 1 1 0.999978
1 1 1 1
1 1 1 1
1 1 1 1
1 1 1 1
1 1 1 1
1 1 1 1
1 1 1 1
1 1 1 1
1 1 1 1
1 1 1 1
1 1 1 1
1.00315 1.00466 1 0.998491
1.00685 1.00846 1 0.998409
1.00742 1.00884 1 0.998598
1.00988 1.01151 1 0.998392
1.01074 1.01246 1 0.998309
1.00487 1.00662 1 0.998264
1.01061 1.01235 1 0.998284
1.01081 1.01246 1 0.998362
1.00959 1.01112 1 0.998483
1.00846 1.00983 1 0.998641
1.01222 1.01391 1 0.99833
1.01195 1.01351 1 0.998467
1.01174 1.01317 1 0.998591
1.00965 1.01137 1 0.998291
1.00763 1.00931 1 0.998343
1.00642 1.00793 1 0.998498
0.999188 1 1 0.999188
0.999119 1 1.00013 0.998985
0.999501 1.00019 1.00085 0.99847
1.00546 1.00686 1 0.99861
1.0034 1.00463 1 0.998775
1.00128 1.00272 1 0.998564
0.999169 1 1 0.999169
0.99914 1 1 0.99914
0.999103 1 1 0.999103
0.999883 1 1 0.999883
0.999338 1 1 0.999338
0.999554 1 1 0.999554
1.01174 1.01345 1 0.998307
1.00838 1.01001 1 0.998386
1.00747 1.00894 1 0.998544
0.999113 1 1 0.999113
1.00006 1 1.00135 0.99871
1.00018 1.00093 1.0009 0.998352
1.0076 1.00887 1 0.998748
1.0025 1.00392 1 0.998594
0.99993 1 1 0.99993
0.999649 1 1 0.999649
0.999111 1 1 0.999111
0.999072 1 1 0.999072
0.999147 1 1 0.999147
0.999385 1 1 0.999385
1.01209 1.01373 1 0.998391
1.00893 1.01072 0.999762 0.99847
1.0098 1.01143 0.999677 0.998715
1.00677 1.00799 1 0.998792
0.999846 1 1.00086 0.998983
1.00095 1.00124 1.0014 0.998309
1.00114 1 1.00264 0.998507
0.999971 1 1 0.999971
0.999761 1 1 0.999761
0.999654 1 1 0.999654
0.999424 1 1 0.999424
0.999218 1 1 0.999218
0.99902 1 1 0.99902
0.999133 1 1 0.999133
1.00194 1 1.00283 0.999113
0.999665 1 1 0.999665
0.999377 1 1 0.999377
1.00612 1.00744 1 0.998691
0.99913 1 1 0.99913
1.00023 1 1.00121 0.999021
0.999042 1 1 0.999042
0.999478 1.00092 1 0.998557
1.00273 1.00396 1 0.998772
1.00299 1 1.00432 0.998679
0.998348 1 1 0.998348
0.999434 1 1 0.999434
0.999176 1 1 0.999176
1.00253 1 1.00364 0.998894
0.998963 1 1 0.998963
1.01226 1.01355 1 0.998734
1.00736 1.00866 0.999949 0.998764
1.00145 1.00303 1 0.998422
1.00199 1 1.00361 0.998385
0.999304 1 1 0.999304
1.01319 1.01563 0.998913 0.998685
0.999171 1 1.00015 0.999024
1.00121 1 1.00248 0.998736
1.01417 1.01565 0.999722 0.998822
1.00571 1.00729 1 0.998434
1.00271 1.00122 1.00323 0.998257
0.999507 1 1 0.999507
0.999367 1 1 0.999367
0.999256 1 1 0.999256
0.999747 1 1 0.999747
0.999555 1 1 0.999555
0.999391 1 1 0.999391
0.999746 1 1 0.999746
0.999544 1 1 0.999544
0.999294 1 1 0.999294
0.999426 1 1 0.999426
0.99922 1 1 0.99922
0.999293 1 1 0.999293
0.999437 1 1 0.999437
0.999556 1 1 0.999556
0.999738 1 1 0.999738
0.999971 1 1 0.999971
0.999973 1 1 0.999973
1 1 1 1
0.999976 1 1 0.999976
1 1 1 1
1 1 1 1
1 1 1 1
1 1 1 1
1 1 1 1
0.999983 1 1 0.999983
1 1 1 1
1 1 1 1
1 1 1 1
1 1 1 1
1 1 1 1
1 1 1 1
1.00937 1.01075 1 0.998636
1.00931 1.01084 1 0.998488
1.01038 1.01204 1 0.99836
1.01044 1.01217 1 0.99829
1.01198 1.01366 1 0.998339
1.01235 1.01392 1 0.998456
1.01221 1.01362 1 0.998604
1.01279 1.01438 1 0.998436
1.01481 1.01631 0.999963 0.998559
1.00865 1.0131 0.996874 0.998726
1.01233 1.01405 1 0.998309
1.00827 1.0099 1 0.998387
1.00747 1.00895 1 0.998531
0.999125 1 1.00002 0.999106
0.999991 1 1.00123 0.99876
1.00003 1.0009 1.00078 0.99836
1.00801 1.00926 1 0.998765
1.00253 1.00395 1 0.998587
0.999114 1 1 0.999114
0.999094 1 1 0.999094
0.999149 1 1 0.999149
0.99995 1 1 0.99995
0.999649 1 1 0.999649
0.999371 1 1 0.999371
1.01168 1.0133 1 0.998404
0.999968 1 1 0.999968
0.999748 1 1 0.999748
1.00865 1.01036 0.999837 0.998468
1.01099 1.01247 0.999854 0.998686
0.99983 1 1.00081 0.999016
1.00177 1 1.0033 0.998475
1.00052 1.00137 1.00084 0.998317
1.00625 1.00747 1 0.998788
0.999691 1 1 0.999691
0.999423 1 1 0.999423
0.999101 1 1 0.999101
1.00059 1 1.00142 0.999177
0.998999 1 1 0.998999
0.999221 1 1 0.999221
1.01353 1.0153 0.999715 0.998534
1.0129 1.01455 0.99979 0.998582
1.01025 1.01256 0.998807 0.998907
1.00184 1.00328 1 0.998569
1.00131 1 1.00234 0.998968
1.00401 1.00025 1.00547 0.998296
0.999765 1 1 0.999765
0.999724 1 1 0.999724
0.999582 1 1 0.999582
0.999427 1 1 0.999427
0.999281 1 1 0.999281
0.99906 1 1 0.99906
1.00251 1 1.0036 0.99892
0.999194 1 1 0.999194
0.999425 1 1 0.999425
0.999184 1 1 0.999184
1.01198 1.01327 1 0.998729
1.00693 1.00819 1 0.998754
0.998978 1 1 0.998978
1.00275 1 1.00385 0.998908
1.00194 1.00345 1.00004 0.998457
1.00155 1 1.00319 0.998362
0.999301 1 1 0.999301
1.01323 1.0158 0.998768 0.998703
0.999098 1 1.00007 0.999029
1.00124 1 1.00253 0.998716
1.01397 1.01545 0.999734 0.998805
1.00628 1.00784 1 0.998454
1.00279 1.00105 1.00348 0.998265
0.999154 1 1.00002 0.999133
1.01813 1.02242 0.99693 0.998873
0.999012 1 1.00012 0.998894
1.00226 1 1.00374 0.998522
1.00683 1.01107 0.997225 0.998577
1.00192 1.00144 1.00221 0.998271
1.00614 1.0087 0.998499 0.998962
0.999367 1 1 0.999367
0.999255 1 1 0.999255
0.999168 1 1 0.999168
0.999746 1 1 0.999746
0.999544 1 1 0.999544
0.999443 1 1 0.999443
0.999279 1 1 0.999279
0.999738 1 1 0.999738
0.999547 1 1 0.999547
0.999214 1 1 0.999214
0.999436 1 1 0.999436
0.999308 1 1 0.999308
0.999204 1 1 0.999204
0.999349 1 1 0.999349
0.999442 1 1 0.999442
0.99952 1 1 0.99952
0.999699 1 1 0.999699
0.999579 1 1 0.999579
0.999702 1 1 0.999702
0.999969 1 1 0.999969
0.99997 1 1 0.99997
1 1 1 1
0.999972 1 1 0.999972
1 1 1 1
1 1 1 1
1 1 1 1
1 1 1 1
1 1 1 1
0.999989 1 1 0.999989
0.999981 1 1 0.999981
1 1 1 1
1 1 1 1
1 1 1 1
1 1 1 1
1 1 1 1
1 1 1 1
1.01259 1.014 1 0.998618
1.01277 1.01435 1 0.998445
1.01177 1.01344 1 0.998348
1.01319 1.01478 1 0.998435
1.01401 1.01556 0.999916 0.99856
1.00981 1.01362 0.997511 0.998731
1.01359 1.01576 0.999237 0.998623
1.00898 1.01596 0.994408 0.998715
1.01847 1.02369 0.995948 0.998953
0.999813 1 1 0.999813
1.0113 1.0129 1 0.998418
1.00821 1.00987 0.999891 0.998467
1.01194 1.01334 0.999962 0.998657
0.999838 1 1.00079 0.999049
1.00246 1 1.00402 0.998443
1.00038 1.00161 1.00045 0.998324
1.00573 1.00695 1 0.998784
0.999069 1 1 0.999069
0.999241 1 1 0.999241
0.998978 1 1 0.998978
0.999964 1 1 0.999964
0.999224 1 1 0.999224
0.999728 1 1 0.999728
0.999422 1 1 0.999422
0.999735 1 1 0.999735
1.01379 1.01565 0.999633 0.998538
0.999782 1 1 0.999782
0.999723 1 1 0.999723
0.999554 1 1 0.999554
1.01325 1.0151 0.999591 0.998585
1.00926 1.01144 0.998976 0.998868
1.00059 1 1.00161 0.998982
1.00392 1.00011 1.00553 0.998293
1.00208 1.00335 1.00016 0.998574
0.999447 1 1 0.999447
0.999272 1 1 0.999272
1.00003 1 1.00088 0.999152
1.00212 1 1.00318 0.99895
0.999076 1 1 0.999076
1.01236 1.01582 0.997995 0.998593
1.01195 1.01595 0.997358 0.998705
1.00536 1.00757 0.999109 0.998704
1.00381 1.00205 1.00331 0.998453
1.00367 1 1.00478 0.998897
0.999554 1 1 0.999554
0.999483 1 1 0.999483
0.999407 1 1 0.999407
0.999288 1 1 0.999288
0.999154 1 1 0.999154
1.00059 1 1.00163 0.998965
1.00537 1 1.00651 0.998863
0.999298 1 1 0.999298
0.999062 1 1.00003 0.999035
1.01329 1.01588 0.998728 0.998721
1.01359 1.01512 0.999702 0.998787
1.00661 1.00815 1 0.998474
1.00123 1 1.00254 0.998695
1.00272 1.00085 1.0036 0.998273
0.999187 1 1.00003 0.999154
1.01807 1.02285 0.996446 0.998877
0.999066 1 1.00016 0.998903
1.00252 1 1.00399 0.998532
1.00772 1.0113 0.99784 0.998621
1.00235 1.0014 1.00269 0.998263
1.00695 1.00951 0.998677 0.998785
0.999035 1 1 0.999035
1.00302 1.01391 0.990398 0.998846
1.00055 1 1.00169 0.998858
1.00479 1 1.00635 0.998449
1.00206 1.00259 1.00104 0.998423
0.960524 0.972074 0.995554 0.992531
0.994171 0.992675 1.00482 0.996706
0.984463 1.00372 0.981703 0.999098
0.908322 0.931324 0.980915 0.994278
0.897073 0.943382 0.956206 0.994463
0.999254 1 1 0.999254
0.999177 1 1 0.999177
0.999169 1 1 0.999169
0.999737 1 1 0.999737
0.999537 1 1 0.999537
0.999435 1 1 0.999435
0.999323 1 1 0.999323
0.999208 1 1 0.999208
0.999426 1 1 0.999426
0.999714 1 1 0.999714
0.999532 1 1 0.999532
0.999211 1 1 0.999211
0.999345 1 1 0.999345
0.999355 1 1 0.999355
0.999277 1 1 0.999277
0.999392 1 1 0.999392
0.999502 1 1 0.999502
0.999697 1 1 0.999697
0.999545 1 1 0.999545
0.999443 1 1 0.999443
0.99955 1 1 0.99955
0.999557 1 1 0.999557
0.999733 1 1 0.999733
0.999701 1 1 0.999701
0.999968 1 1 0.999968
0.999968 1 1 0.999968
1 1 1 1
0.99997 1 1 0.99997
1 1 1 1
1 1 1 1
1 1 1 1
1 1 1 1
1 1 1 1
0.999992 1 1 0.999992
0.999988 1 1 0.999988
1 1 1 1
0.999978 1 1 0.999978
1 1 1 1
1 1 1 1
1 1 1 1
1 1 1 1
1 1 1 1
1.01326 1.01486 0.999865 0.998561
1.01351 1.0151 1 0.998433
1.0108 1.01406 0.998049 0.998736
1.00936 1.01572 0.994997 0.998739
1.01325 1.01543 0.999226 0.998623
1.01959 1.02456 0.996243 0.998907
1.0214 1.02418 0.9987 0.998588
0.975099 0.984914 0.993939 0.996072
1.01541 1.01935 0.997208 0.998926
0.999822 1 1 0.999822
0.999813 1 1 0.999813
0.999612 1 1 0.999612
0.999634 1 1 0.999634
1.01416 1.01602 0.999627 0.998541
1.01382 1.01574 0.999521 0.998589
1.00838 1.01033 0.999237 0.998829
0.999767 1 1.00077 0.998996
1.00364 1 1.00536 0.998289
1.00234 1.00364 1.00013 0.998579
1.00086 1 1.00176 0.999108
1.00169 1 1.00271 0.99898
0.999092 1 1 0.999092
0.999722 1 1 0.999722
0.999262 1 1 0.999262
0.999466 1 1 0.999466
0.999799 1 1 0.999799
0.999525 1 1 0.999525
1.01102 1.01393 0.998513 0.998609
0.999583 1 1 0.999583
0.999499 1 1 0.999499
0.999404 1 1 0.999404
1.01371 1.01707 0.997969 0.998716
1.00406 1.00654 0.99883 0.9987
1.00354 1 1.00465 0.998894
1.00349 1.0022 1.00285 0.998439
0.999291 1 1 0.999291
0.999163 1 1 0.999163
1.00443 1 1.00557 0.998864
1.00133 1 1.00239 0.998945
1.01804 1.0212 0.998283 0.998616
1.00127 1.0126 0.990099 0.9987
1.00334 1.0042 1.00073 0.998426
1.00183 1 1.00306 0.998774
0.999352 1 1 0.999352
0.999333 1 1 0.999333
0.999169 1 1.00007 0.999103
1.00771 1 1.00896 0.998752
0.949955 0.969188 0.987752 0.992309
0.999175 1 1 0.999175
0.999151 1 1.00024 0.998913
1.01755 1.02312 0.995671 0.99888
1.00871 1.0115 0.99857 0.998665
1.00299 1.00144 1.0033 0.998254
1.00291 1 1.00437 0.998542
1.0073 1.0101 0.998624 0.998605
0.99917 1 1.00012 0.999051
1.00224 1.01349 0.990062 0.998834
1.00014 1 1.00128 0.998865
1.00455 1 1.0061 0.998451
1.00215 1.00349 1.00023 0.998436
0.958245 0.971543 0.993572 0.992694
0.989463 0.991181 1.00267 0.995606
0.986932 1.00334 0.984482 0.999148
0.913865 0.933407 0.985063 0.993911
0.885822 0.935019 0.953066 0.994038
0.999554 1 1.00045 0.999101
0.922252 0.94025 0.987194 0.993582
0.923282 0.94655 0.980423 0.994895
0.979311 1.00416 0.976382 0.998843
1.00432 1 1.00545 0.998879
1.00908 1.00038 1.01012 0.998594
0.987103 1.00122 0.98663 0.999262
0.966899 0.972852 1.0017 0.992196
0.987503 0.985871 1.00638 0.995304
0.898671 0.934287 0.967535 0.994154
0.931106 0.969931 0.96409 0.995728
0.999185 1 1 0.999185
0.999168 1 1 0.999168
0.999252 1 1 0.999252
0.999729 1 1 0.999729
0.999544 1 1 0.999544
0.999411 1 1 0.999411
0.999342 1 1 0.999342
0.999217 1 1 0.999217
0.999697 1 1 0.999697
0.999355 1 1 0.999355
0.999408 1 1 0.999408
0.999519 1 1 0.999519
0.999268 1 1 0.999268
0.999308 1 1 0.999308
0.999472 1 1.0002 0.999275
0.999397 1 1 0.999397
0.999532 1 1 0.999532
0.999545 1 1 0.999545
0.999429 1 1 0.999429
0.999415 1 1 0.999415
0.999419 1 1 0.999419
0.99936 1 1 0.99936
0.999324 1 1 0.999324
0.999529 1 1 0.999529
0.99955 1 1 0.99955
0.999731 1 1 0.999731
0.999535 1 1 0.999535
0.99972 1 1 0.99972
0.999967 1 1 0.999967
0.9997 1 1 0.9997
0.999967 1 1 0.999967
1 1 1 1
0.999968 1 1 0.999968
1 1 1 1
1 1 1 1
1 1 1 1
1 1 1 1
1 1 1 1
0.999816 1 1 0.999816
0.999992 1 1 0.999992
0.999991 1 1 0.999991
1 1 1 1
0.999986 1 1 0.999986
1 1 1 1
1 1 1 1
1 1 1 1
1 1 1 1
1 1 1 1
1.01062 1.01579 0.996142 0.998764
1.01291 1.01519 0.999127 0.998623
1.02125 1.02558 0.996913 0.998861
0.977464 0.984334 0.996305 0.996704
1.01473 1.01907 0.996776 0.998967
1.02204 1.02548 0.998066 0.998574
1.01893 1.02279 0.997507 0.998711
0.980134 0.986526 0.996626 0.996884
0.959143 0.972163 0.995016 0.991549
0.89539 0.927665 0.971949 0.993066
0.888367 0.930257 0.960405 0.994342
0.999603 1 1 0.999603
0.999822 1 1 0.999822
0.999812 1 1 0.999812
0.999603 1 1 0.999603
0.999477 1 1 0.999477
0.999507 1 1 0.999507
0.999614 1 1 0.999614
0.999621 1 1 0.999621
1.00938 1.01192 0.998867 0.998625
1.0155 1.01848 0.99834 0.998728
1.00297 1.00565 0.998638 0.998696
1.00354 1 1.00466 0.99889
1.00329 1.00214 1.00272 0.998424
1.00356 1 1.0047 0.998864
1.00218 1 1.00325 0.998926
0.999171 1 1 0.999171
0.999515 1 1 0.999515
0.999295 1 1 0.999295
0.999612 1 1 0.999612
0.999401 1 1 0.999401
1.01851 1.02198 0.998013 0.998593
0.999368 1 1 0.999368
0.999334 1 1 0.999334
1.00235 1.01124 0.992506 0.998689
1.00324 1.00464 1.00012 0.998491
1.00345 1 1.00472 0.998731
0.999355 1 1.00026 0.999096
1.00692 1 1.00817 0.998756
1.01456 1.02119 0.994949 0.998546
0.988555 1.00364 0.986295 0.998656
0.999671 1 1.00103 0.998641
1.00677 1 1.00801 0.998774
0.999273 1 1 0.999273
0.999172 1 1 0.999172
1.00174 1 1.00282 0.998922
0.912232 0.940619 0.975786 0.993887
0.956205 0.970812 0.992065 0.992832
0.999282 1 1.00022 0.999066
0.99984 1 1.00097 0.998871
1.00233 1.01345 0.990194 0.998822
1.0023 1.00448 0.999378 0.998449
1.00416 1 1.00571 0.998454
0.95936 0.972479 0.995019 0.991448
0.990164 0.992537 1.00127 0.996345
0.98989 1.0032 0.987526 0.999197
0.908929 0.93483 0.978675 0.993479
0.874029 0.925676 0.950277 0.993612
0.999385 1 1.00028 0.9991
0.917224 0.943267 0.978245 0.994016
0.923137 0.943964 0.983071 0.994778
0.981997 1.00486 0.978388 0.998833
1.00374 1 1.00486 0.99889
1.00835 1.00022 1.0095 0.998643
0.980558 0.998707 0.982539 0.999275
0.967463 0.974203 1.00138 0.991715
0.986835 0.98676 1.00373 0.996359
0.900963 0.932499 0.972796 0.9932
0.930144 0.970063 0.963222 0.99546
1.00039 1 1.00122 0.999165
0.940651 0.948646 0.995843 0.995713
0.987941 0.989526 1.00102 0.997384
0.98714 1.00044 0.987548 0.999147
1.0093 1 1.01015 0.999156
1.00327 0.996512 1.00717 0.999609
0.979821 0.984391 0.99797 0.997382
0.969084 0.969953 1.00734 0.991827
0.922593 0.956475 0.971163 0.993217
0.952303 0.987535 0.967564 0.99665
0.999167 1 1 0.999167
0.999231 1 1 0.999231
0.999769 1 1.00042 0.999348
0.999697 1 1 0.999697
0.999536 1 1 0.999536
0.999424 1 1 0.999424
0.999356 1 1 0.999356
0.99926 1 1 0.99926
0.999531 1 1 0.999531
0.999319 1 1 0.999319
0.999396 1 1 0.999396
0.999526 1 1.00024 0.999281
0.999895 1 1.00055 0.999341
0.999396 1 1.00009 0.999309
0.999398 1 1 0.999398
0.999544 1 1 0.999544
0.999414 1 1 0.999414
0.999415 1 1 0.999415
0.999418 1 1 0.999418
0.999358 1 1 0.999358
0.999385 1 1 0.999385
0.999343 1 1 0.999343
0.999323 1 1 0.999323
0.999186 1 1 0.999186
0.999691 1 1.00064 0.999054
0.999246 1 1 0.999246
0.999323 1 1 0.999323
0.99949 1 1 0.99949
0.999528 1 1 0.999528
0.999721 1 1 0.999721
0.99955 1 1 0.99955
0.999731 1 1 0.999731
0.999967 1 1 0.999967
0.999707 1 1 0.999707
0.999967 1 1 0.999967
1 1 1 1
0.999967 1 1 0.999967
1 1 1 1
1 1 1 1
1 1 1 1
1 1 1 1
1 1 1 1
0.999832 1 1 0.999832
0.99999 1 1 0.99999
0.999816 1 1 0.999816
1 1 1 1
0.999992 1 1 0.999992
0.99999 1 1 0.99999
1 1 1 1
1 1 1 1
1 1 1 1
1 1 1 1
1 1 1 1
0.915514 0.937982 0.981751 0.994189
0.930056 0.948035 0.985644 0.995324
0.980348 0.985009 0.998112 0.997151
1.01441 1.01871 0.996771 0.999007
1.02269 1.0267 0.99753 0.99856
0.979594 0.985 0.996593 0.997912
1.01974 1.02263 0.998448 0.998723
0.960967 0.973079 0.994852 0.992663
0.906961 0.931291 0.97969 0.994064
0.879312 0.927023 0.954342 0.993912
0.998144 1.00016 0.999437 0.998546
0.965098 0.972137 1.00021 0.992555
0.893039 0.931263 0.964702 0.994043
0.929352 0.96701 0.965773 0.995117
0.999429 1 1 0.999429
0.999614 1 1 0.999614
0.999821 1 1 0.999821
0.999595 1 1 0.999595
0.999493 1 1 0.999493
0.999453 1 1 0.999453
0.999507 1 1 0.999507
0.999539 1 1 0.999539
0.999598 1 1 0.999598
0.999609 1 1 0.999609
1.01906 1.02272 0.997849 0.99857
1.00256 1.00922 0.994717 0.998679
1.00306 1.00505 0.999457 0.998557
1.00487 1 1.00619 0.998688
1.00575 1 1.007 0.99876
0.999498 1 1.00041 0.999089
0.999334 1 1 0.999334
0.999384 1 1 0.999384
1.01384 1.02133 0.994133 0.998527
0.999267 1 1 0.999267
0.999156 1 1 0.999156
0.990117 1.00346 0.988076 0.99861
1.00003 1 1.00133 0.998698
1.00583 1 1.00712 0.998727
1.00255 1 1.00365 0.998909
1.00594 1.00932 0.997962 0.998685
0.994967 1 0.995945 0.999019
1.00671 1 1.00788 0.998842
0.999254 1 1 0.999254
0.999149 1 1 0.999149
0.999007 1 1 0.999007
0.941458 0.951556 0.993334 0.996027
0.917161 0.940378 0.981825 0.993365
0.953612 0.97182 0.988895 0.992284
0.9991 1 1 0.9991
1.00315 1 1.00425 0.998902
0.98467 1.0054 0.980537 0.998823
1.00759 1 1.00891 0.998691
0.914566 0.941838 0.977593 0.9933
0.966628 0.97339 0.999928 0.993125
0.985674 0.988159 1.00213 0.99536
0.977893 0.996652 0.981869 0.999296
0.90367 0.931706 0.975668 0.994097
0.924576 0.946671 0.981907 0.994657
0.925918 0.968509 0.960637 0.995198
1.00066 1 1.0015 0.999165
0.939179 0.950307 0.992547 0.995712
0.989119 0.990307 1.00143 0.997378
0.989816 1.00019 0.990443 0.999178
1.00919 0.999961 1.01009 0.99915
1.00312 0.997767 1.00613 0.999236
0.980339 0.98341 1.00095 0.995929
0.965618 0.970638 1.00299 0.991862
0.925465 0.959493 0.969984 0.994383
0.94569 0.981513 0.966988 0.996396
1.00132 1 1.00183 0.999495
0.988394 0.990336 0.999952 0.998087
0.995416 0.992452 1.00451 0.998483
1.0098 0.999407 1.01069 0.999715
0.990727 0.986277 1.00591 0.998614
0.969795 0.971773 1.00645 0.991569
0.953294 0.973599 0.98436 0.994701
0.953833 0.992939 0.964206 0.996277
0.999211 1 1 0.999211
0.999712 1 1.00036 0.999357
1.00075 1 1.0013 0.999451
0.999531 1 1 0.999531
0.999396 1 1 0.999396
0.99933 1 1 0.99933
0.999568 1 1.00028 0.999287
0.999398 1 1 0.999398
0.999338 1 1.00003 0.999307
1.00029 1 1.00093 0.999357
1.00031 1 1.00086 0.999456
0.999534 1 1.00021 0.999322
0.999326 1 1 0.999326
0.999415 1 1 0.999415
0.999417 1 1 0.999417
0.999357 1 1 0.999357
0.999345 1 1 0.999345
0.999384 1 1 0.999384
0.999327 1 1 0.999327
0.999279 1 1 0.999279
0.999317 1 1 0.999317
0.999168 1 1 0.999168
0.999196 1 1 0.999196
0.999725 1 1.00065 0.99908
0.999828 1 1.00094 0.998885
0.999217 1 1 0.999217
0.999542 1 1.00044 0.9991
0.999268 1 1 0.999268
0.999406 1 1 0.999406
0.999321 1 1 0.999321
0.999489 1 1 0.999489
0.999698 1 1 0.999698
0.999527 1 1 0.999527
0.99972 1 1 0.99972
0.999965 1 1 0.999965
0.99973 1 1 0.99973
0.999966 1 1 0.999966
1 1 1 1
0.999967 1 1 0.999967
1 1 1 1
1 1 1 1
1 1 1 1
1 1 1 1
1 1 1 1
0.999765 1 1 0.999765
0.999988 1 1 0.999988
0.999801 1 1 0.999801
1 1 1 1
0.999991 1 1 0.999991
0.999816 1 1 0.999816
1 1 1 1
1 1 1 1
0.999992 1 1 0.999992
1 1 1 1
1 1 1 1
1 1 1 1
0.944637 0.952343 0.995756 0.996136
0.91576 0.939367 0.981127 0.993621
0.988775 0.991885 0.999577 0.997286
0.923089 0.943113 0.983581 0.995108
0.975464 0.983685 0.995045 0.996581
1.01973 1.02249 0.998572 0.998733
0.96072 0.973548 0.992989 0.993791
0.906188 0.933625 0.977262 0.993195
0.870907 0.924455 0.948257 0.993482
0.995721 0.999315 0.998365 0.998035
0.966403 0.97166 1.00262 0.991989
0.897998 0.935223 0.966915 0.993051
0.926554 0.965786 0.964231 0.994967
0.993094 0.996353 0.998792 0.997934
0.96953 0.96956 1.00837 0.991666
0.925139 0.96011 0.969109 0.994291
0.95083 0.988521 0.965472 0.99627
0.99933 1 1 0.99933
0.999446 1 1 0.999446
0.999626 1 1 0.999626
0.999509 1 1 0.999509
0.999355 1 1 0.999355
0.999465 1 1 0.999465
0.999507 1 1 0.999507
0.999521 1 1 0.999521
0.999556 1 1 0.999556
0.999582 1 1 0.999582
1.01361 1.0221 0.99318 0.998508
0.992593 1.00366 0.990396 0.998565
1.00034 1 1.00159 0.998755
1.00533 1 1.00666 0.998681
1.00344 1 1.00455 0.998896
0.99914 1 1 0.99914
0.99926 1 1 0.99926
0.999256 1 1 0.999256
1.00076 1.0082 0.993911 0.998706
0.999159 1 1 0.999159
0.999243 1 1.00024 0.999002
0.993241 1 0.994267 0.998968
1.00553 1 1.0067 0.998838
0.984001 1.00062 0.984269 0.999105
1.01018 1 1.01088 0.99931
1.00015 1 1.00116 0.998999
0.999178 1 1 0.999178
0.999017 1 1 0.999017
0.9869 0.988674 0.999768 0.998437
0.943893 0.95164 0.99565 0.996192
0.915302 0.939777 0.979606 0.994233
1.00098 1 1.00182 0.999164
1.00906 0.999889 1.01004 0.999144
0.991028 1 0.991814 0.999207
0.945209 0.952956 0.995792 0.996063
0.970886 0.970059 1.00934 0.991589
0.982132 0.984671 1.00043 0.996995
0.996873 0.997702 1.00033 0.998837
0.924423 0.956787 0.972783 0.993206
0.989477 0.990205 1.0019 0.997372
0.94054 0.977163 0.965951 0.99645
1.00143 0.999945 1.00199 0.999498
0.987491 0.98905 1.00009 0.998329
0.997881 0.99454 1.00487 0.998494
1.00955 0.999442 1.01053 0.999587
0.989851 0.986494 1.00522 0.998189
0.972827 0.974438 1.00707 0.991337
0.954704 0.995977 0.961821 0.996609
0.938131 0.965268 0.977668 0.994086
1.00289 0.999246 1.00394 0.999711
0.994923 0.995101 1.00033 0.999489
1.00569 1.0019 1.00511 0.998678
0.953055 0.989456 0.96681 0.996278
1.00087 0.987621 1.01384 0.999581
0.977921 0.976052 1.01003 0.99197
0.930286 0.950375 0.984204 0.994572
0.999634 1 1.00027 0.999367
1.0005 1 1.00109 0.999414
1.00312 1 1.00355 0.999566
0.999398 1 1 0.999398
0.999305 1 1 0.999305
1.00075 1 1.00138 0.999374
0.999329 1 1 0.999329
0.999649 1 1.00033 0.999324
1.00069 1 1.00126 0.999429
0.99985 1 1.00035 0.999496
0.999307 1 1 0.999307
0.999348 1 1 0.999348
0.999383 1 1 0.999383
0.999332 1 1 0.999332
0.999315 1 1 0.999315
0.999287 1 1 0.999287
0.999573 1 1.00029 0.999282
0.999207 1 1 0.999207
1.0014 1 1.0025 0.998904
0.999206 1 1 0.999206
0.999593 1 1.00052 0.99907
0.999703 1 1.00095 0.998751
0.999721 1 1.00085 0.99887
0.999151 1 1.00001 0.999139
0.999724 1 1.00083 0.998892
0.999354 1 1 0.999354
0.999198 1 1 0.999198
0.999381 1 1.00024 0.999146
0.99929 1 1 0.99929
0.999425 1 1 0.999425
0.999656 1 1 0.999656
0.999487 1 1 0.999487
0.999697 1 1 0.999697
0.999959 1 1 0.999959
0.99972 1 1 0.99972
0.999963 1 1 0.999963
1 1 1 1
0.999966 1 1 0.999966
1 1 1 1
1 1 1 1
1 1 1 1
1 1 1 1
1 1 1 1
0.999676 1 1 0.999676
0.999942 1 1 0.999942
0.999764 1 1 0.999764
1 1 1 1
0.999971 1 1 0.999971
0.999771 1 1 0.999771
1 1 1 1
1 1 1 1
0.999992 1 1 0.999992
1 1 1 1
1 1 1 1
1 1 1 1
0.986659 0.988687 0.999662 0.998286
0.937205 0.951161 0.989503 0.99578
0.916644 0.937632 0.984141 0.993369
0.999467 1 1 0.999467
0.992866 0.989971 1.00424 0.998692
0.990178 0.991878 1.00101 0.997282
0.916905 0.94233 0.978031 0.994875
0.994223 0.999143 0.997597 0.997473
0.970438 0.973822 1.00411 0.992447
0.902882 0.940757 0.965579 0.993953
0.921227 0.962821 0.961793 0.994808
0.9954 0.998309 1.00058 0.996507
0.96445 0.96753 1.00486 0.991993
0.929402 0.960796 0.97325 0.993913
0.950026 0.98795 0.965457 0.996019
0.985122 0.987232 1.00223 0.995641
0.974206 0.968304 1.01563 0.990615
0.938524 0.966828 0.976873 0.993707
0.95252 0.992404 0.963405 0.996269
0.999242 1 1 0.999242
0.999321 1 1 0.999321
0.999463 1 1 0.999463
0.999347 1 1 0.999347
0.999376 1 1 0.999376
0.999477 1 1 0.999477
0.999526 1 1 0.999526
0.999573 1 1 0.999573
0.995109 1.00665 0.989794 0.998724
0.991135 1 0.992209 0.998917
0.999257 1 1 0.999257
1.0043 1 1.00547 0.998833
0.999707 1 1.00071 0.998996
0.99917 1 1 0.99917
0.999181 1 1 0.999181
0.988981 1.00247 0.987423 0.999112
0.99904 1 1 0.99904
1.00094 1 1.00195 0.998996
1.00583 1 1.00652 0.999317
0.999199 1 1 0.999199
0.981453 0.99391 0.987941 0.999519
1.01244 0.999373 1.01363 0.999454
0.999101 1 1 0.999101
0.999141 1 1 0.999141
0.994978 0.996023 0.99935 0.999601
0.986584 0.988358 0.999741 0.998464
0.9471 0.951929 0.99856 0.996362
1.00146 0.999923 1.00203 0.999501
1.01033 0.999579 1.0113 0.999462
0.986437 0.987854 0.999995 0.998571
0.976028 0.972341 1.0121 0.991789
0.988471 0.983818 1.00809 0.996666
0.942139 0.968067 0.97958 0.993505
1.00006 0.99631 1.00527 0.998506
0.957481 1.00065 0.959799 0.996941
1.00325 0.999379 1.0042 0.999678
0.993602 0.994152 0.999948 0.999499
1.0047 1.00094 1.00484 0.998923
1.00754 0.993079 1.01463 0.99993
0.950919 0.988628 0.965704 0.996017
0.975018 0.973862 1.0093 0.99196
0.937799 0.962494 0.980741 0.993477
1.00699 0.99636 1.0109 0.999771
1.00375 1.00297 1.00111 0.999659
0.993162 0.991374 1.00311 0.998698
0.930136 0.968581 0.964995 0.995143
0.938049 0.968692 0.974598 0.993606
0.991134 0.985363 1.00616 0.999697
0.979408 0.970039 1.0186 0.99122
1.00027 1 1.00089 0.999376
1.00223 1 1.00268 0.99955
1.00759 0.995442 1.01262 0.999582
0.999331 1 1 0.999331
0.999692 1 1.00037 0.999326
1.00094 1 1.00154 0.999403
0.999303 1 1 0.999303
0.99993 1 1.00043 0.999497
1.00462 0.999614 1.00565 0.99936
0.999312 1 1 0.999312
0.999295 1 1 0.999295
1.00002 1 1.00076 0.999258
1.00581 1 1.00683 0.998983
0.999246 1 1 0.999246
1.00087 1 1.00192 0.998952
1.00275 1 1.00413 0.998629
1.00044 1 1.00188 0.998566
0.999443 1 1.00038 0.99906
0.999755 1 1.00104 0.998715
0.999438 1 1.00049 0.998944
0.999843 1 1.00078 0.99906
0.999652 1 1.00075 0.998899
0.9993 1 1 0.9993
0.999196 1 1.00006 0.999136
0.99967 1 1.00077 0.998899
0.999596 1 1 0.999596
0.999347 1 1 0.999347
0.99918 1 1 0.99918
0.999444 1 1 0.999444
0.999655 1 1 0.999655
0.999948 1 1 0.999948
0.999696 1 1 0.999696
0.999957 1 1 0.999957
1 1 1 1
0.999962 1 1 0.999962
1 1 1 1
1 1 1 1
1 1 1 1
1 1 1 1
1 1 1 1
0.999641 1 1 0.999641
0.999914 1 1 0.999914
0.999694 1 1 0.999694
1 1 1 1
0.999941 1 1 0.999941
0.999762 1 1 0.999762
1 1 1 1
1 1 1 1
0.999954 1 1 0.999954
1 1 1 1
1 1 1 1
1 1 1 1
0.992459 0.992964 1.00002 0.999477
0.986443 0.98842 0.999705 0.998294
0.937469 0.951864 0.989024 0.995807
0.999474 1 1 0.999474
0.999437 1 1 0.999437
0.999364 1 1 0.999364
1.00546 1.00067 1.00611 0.998676
0.993604 0.990719 1.00421 0.998708
0.991319 0.991899 1.00214 0.997278
1.00127 0.99889 1.00475 0.997646
0.966407 0.968619 1.00603 0.991737
0.925096 0.95685 0.973385 0.993249
0.952061 0.990058 0.965399 0.996088
0.980397 0.982296 1.00119 0.99688
0.969889 0.968016 1.01039 0.991629
0.93742 0.962199 0.979458 0.99468
0.954852 0.995979 0.961974 0.996604
0.971907 0.977095 0.998176 0.996509
0.981172 0.972648 1.01714 0.991761
0.930821 0.949701 0.985455 0.994586
0.951327 0.986176 0.967933 0.996621
0.999231 1 1 0.999231
0.99924 1 1 0.99924
0.999312 1 1 0.999312
0.999345 1 1 0.999345
0.999397 1 1 0.999397
0.999531 1 1 0.999531
0.994563 1.00427 0.991206 0.999119
1.00156 1 1.00224 0.999324
0.999185 1 1 0.999185
1.00138 1 1.00239 0.998993
0.999063 1 1 0.999063
0.999188 1 1 0.999188
0.999147 1 1 0.999147
0.991093 0.996691 0.994869 0.999511
0.999145 1 1 0.999145
1.00911 0.996992 1.01268 0.99948
0.999217 1 1 0.999217
1.00636 0.988828 1.01798 0.999752
0.994342 0.994294 1.00044 0.999612
0.999229 1 1 0.999229
1.00649 1.0072 0.999502 0.999796
0.994812 0.995846 0.999306 0.999656
0.986515 0.988151 0.999855 0.998489
1.00351 0.999501 1.00436 0.999644
1.00246 0.994215 1.00847 0.999826
0.992546 0.993441 0.99959 0.999508
0.980974 0.975059 1.01177 0.994365
0.943383 0.961889 0.985866 0.994822
1.00358 0.999975 1.00444 0.999168
0.95258 0.99074 0.965251 0.996097
1.00684 0.997541 1.00954 0.999788
1.00395 1.00323 1.00102 0.999703
0.994322 0.992134 1.0035 0.998713
0.989762 0.981672 1.01032 0.997943
0.927672 0.967405 0.963747 0.995
0.935278 0.964766 0.974727 0.994571
0.990148 0.976007 1.02284 0.991831
1.01402 0.988692 1.02574 0.999883
0.992912 0.993483 0.999943 0.999483
0.989697 0.993145 0.999216 0.997309
0.888007 0.930592 0.959615 0.994397
0.92571 0.960021 0.969771 0.994317
0.983033 0.974844 1.0168 0.99174
0.964067 0.975703 0.990748 0.997302
1.0012 1 1.00167 0.999534
1.01001 0.99679 1.01369 0.999586
1.01914 0.999615 1.02001 0.999529
0.999299 1 1 0.999299
1.00005 1 1.00055 0.999497
1.00398 0.999846 1.00475 0.999387
1.01442 1 1.01531 0.999118
1.00044 1 1.0012 0.999234
1.00587 1 1.00694 0.99893
1.01162 1 1.0131 0.998541
1.00044 1 1.00145 0.999001
1.00354 1 1.00493 0.998619
1.00336 1 1.00502 0.998341
1.00042 1.00018 1.00191 0.998332
0.999862 1 1.00108 0.998785
1.00042 1 1.00188 0.998545
0.999838 1 1.00116 0.99868
0.999797 1 1.00074 0.999054
0.99945 1 1.00047 0.998983
0.999543 1 1.00035 0.999188
0.999806 1 1.00073 0.999081
0.999535 1 1.00061 0.998928
0.999517 1 1 0.999517
0.999302 1 1 0.999302
0.99922 1 1.00009 0.999132
0.999922 1 1 0.999922
0.999596 1 1 0.999596
0.999341 1 1 0.999341
0.999653 1 1 0.999653
0.999944 1 1 0.999944
1 1 1 1
0.999954 1 1 0.999954
1 1 1 1
1 1 1 1
1 1 1 1
1 1 1 1
1 1 1 1
0.999639 1 1 0.999639
0.999934 1 1 0.999934
0.999654 1 1 0.999654
1 1 1 1
0.999936 1 1 0.999936
0.999712 1 1 0.999712
1 1 1 1
1 1 1 1
0.99994 1 1 0.99994
1 1 1 1
1 1 1 1
1 1 1 1
1.0047 1.0029 1.00214 0.999657
0.994451 0.99411 1.00086 0.999487
0.986597 0.988099 1.00018 0.998303
0.99942 1 1 0.99942
0.999334 1 1 0.999334
0.999481 1 1 0.999481
0.999435 1 1 0.999435
0.999349 1 1 0.999349
0.999345 1 1 0.999345
0.99928 1 1 0.99928
0.995246 0.991734 1.00508 0.998472
1.00343 0.999165 1.00535 0.998922
0.994577 0.991452 1.00443 0.998724
0.958564 1.00058 0.960951 0.99694
0.975638 0.979557 1.00026 0.995743
0.97597 0.972143 1.01135 0.992673
0.939587 0.957908 0.987323 0.993468
0.971708 0.977492 0.998143 0.995932
0.974061 0.969609 1.01316 0.991542
0.939446 0.962796 0.981973 0.993661
0.945811 0.981694 0.966974 0.996353
0.963221 0.97312 0.992641 0.997166
0.971282 0.971463 1.00852 0.991368
0.956411 0.976155 0.985003 0.994691
0.929348 0.968842 0.963415 0.995661
0.999257 1 1 0.999257
0.99923 1 1 0.99923
0.999238 1 1 0.999238
0.999343 1 1 0.999343
0.999631 0.99942 1.00071 0.999503
1.00622 0.99488 1.0119 0.999505
0.999176 1 1 0.999176
0.999152 1 1 0.999152
0.999189 1 1 0.999189
0.999213 1 1 0.999213
0.999217 1 1 0.999217
1.00168 0.987336 1.01501 0.999523
0.995659 0.995544 1.00044 0.999678
0.999248 1 1 0.999248
1.00763 0.983993 1.02443 0.999601
1.00162 0.99743 1.00482 0.999382
0.995354 0.995992 0.999753 0.999607
1.00524 1.00595 0.999468 0.999826
0.994635 0.995588 0.999332 0.999711
1.00672 0.998629 1.0083 0.999805
0.991105 0.981625 1.01 0.999659
1.00401 1.00335 1.00091 0.999746
0.977957 0.969605 1.01741 0.991349
0.938815 0.960249 0.984215 0.99336
0.995583 0.992915 1.00396 0.998729
0.923099 0.96429 0.962244 0.994846
1.01742 0.989236 1.02863 0.99987
0.994355 0.994383 1.00048 0.999493
0.990981 0.993138 1.00053 0.997305
0.967937 0.978352 0.990394 0.998951
0.880179 0.927862 0.954362 0.993973
0.926986 0.959215 0.972326 0.993907
0.985744 0.974375 1.01978 0.992044
1.0018 0.986334 1.01598 0.999699
0.988229 0.989872 1.00004 0.998303
0.931343 0.949022 0.985922 0.995384
0.894904 0.931279 0.966647 0.994097
0.976867 0.970109 1.01529 0.991798
0.958565 0.973808 0.988022 0.996281
1.01305 0.998611 1.01487 0.99959
1.01862 0.998242 1.0209 0.999522
1.01302 1 1.01363 0.9994
1.00334 1 1.00393 0.999413
1.01461 0.99996 1.0155 0.999159
1.0093 1 1.01066 0.998657
1.00601 1 1.00714 0.998877
1.01114 1 1.01265 0.998504
1.00554 1.00003 1.00726 0.998256
1.00424 1 1.00564 0.998609
1.00344 1 1.00514 0.998309
1.00236 1.00097 1.00319 0.9982
0.999156 1.00085 1 0.99831
0.999269 1 1.00077 0.998504
1.00056 1.00009 1.00218 0.998296
0.99907 1 1.00013 0.998944
0.999554 1 1.00074 0.998812
1.0004 1 1.00187 0.998524
0.999428 1 1.00033 0.999097
0.999872 1 1.00083 0.999046
0.999448 1 1.00043 0.999023
0.999407 1 1 0.999407
0.999436 1 1.00023 0.999208
0.999793 1 1.00069 0.999102
0.999863 1 1 0.999863
0.999517 1 1 0.999517
0.999303 1 1 0.999303
1 1 1 1
0.999918 1 1 0.999918
0.999595 1 1 0.999595
0.99994 1 1 0.99994
1 1 1 1
1 1 1 1
1 1 1 1
1 1 1 1
1 1 1 1
0.999417 1 1 0.999417
0.999609 1 1 0.999609
0.999918 1 1 0.999918
0.999639 1 1 0.999639
1 1 1 1
0.999938 1 1 0.999938
0.999666 1 1 0.999666
1 1 1 1
1 1 1 1
0.999958 1 1 0.999958
1 1 1 1
1 1 1 1
1 1 1 1
0.995333 0.994387 1.00146 0.999495
1.00474 1.00304 1.002 0.999701
0.996039 0.99527 1.00128 0.999498
0.999427 1 1 0.999427
0.999323 1 1 0.999323
0.999275 1 1 0.999275
0.999323 1 1 0.999323
0.999264 1 1 0.999264
0.999433 1 1 0.999433
0.999335 1 1 0.999335
0.999346 1 1 0.999346
0.999275 1 1 0.999275
0.999293 1 1 0.999293
0.986344 0.988041 1.00094 0.997342
0.997189 0.993365 1.00537 0.998485
1.00118 0.997621 1.00441 0.999167
0.941815 0.978514 0.96596 0.996414
0.941186 0.959199 0.986277 0.994874
0.963854 0.971988 0.996311 0.995303
0.977492 0.97553 1.01042 0.991676
0.964804 0.973694 0.99509 0.995759
0.983024 0.977689 1.01395 0.99162
0.94199 0.968177 0.978661 0.994167
0.92888 0.969191 0.962853 0.995383
0.9802 0.978122 1.00575 0.996398
0.974322 0.975336 1.00714 0.991881
0.922442 0.956735 0.970786 0.99317
0.894946 0.942506 0.95494 0.994344
0.999436 1 1 0.999436
0.999258 1 1 0.999258
0.999229 1 1 0.999229
0.997511 0.985532 1.01287 0.999293
0.995885 0.995733 1.00041 0.999748
0.999208 1 1 0.999208
0.999205 1 1 0.999205
0.999291 1 1.00003 0.999258
1.00236 0.998105 1.00489 0.999376
1.00585 0.98376 1.02284 0.999618
1.00374 1 1.00435 0.999391
1.0051 0.991387 1.01448 0.999359
0.987435 0.989015 1 0.998402
0.995315 0.995938 0.999712 0.999663
1.00396 1.0047 0.999408 0.999856
1.02009 0.989262 1.03131 0.999855
0.968447 0.979355 0.992008 0.996828
0.995545 0.995297 1.00075 0.999503
0.977693 0.973812 1.01384 0.990279
0.924385 0.95582 0.973655 0.99328
0.992089 0.993173 1.00161 0.997301
0.873082 0.925842 0.949138 0.993548
1.00179 0.986285 1.01598 0.999742
0.988174 0.989854 0.999993 0.99831
0.924281 0.944172 0.983687 0.995168
0.958328 0.97479 0.985993 0.997078
0.89937 0.935348 0.9682 0.993117
0.96824 0.968104 1.00912 0.991106
0.982364 0.987031 0.996002 0.999266
0.945329 0.952792 0.995961 0.996191
0.897323 0.92838 0.973235 0.993129
0.973628 0.971439 1.01066 0.991686
0.974583 0.979843 0.997444 0.99718
1.01757 0.996783 1.02135 0.999515
1.01533 0.999991 1.01596 0.999389
0.993315 1 0.994269 0.99904
1.01473 0.999982 1.01556 0.9992
1.00935 1 1.01065 0.99871
1.00207 1.00092 1.00272 0.99844
1.01054 1 1.01209 0.998468
1.00465 1.00009 1.00631 0.998264
0.999369 1.001 1.00003 0.998339
1.00338 1 1.00511 0.998277
1.00233 1.00167 1.00246 0.998211
1.00217 1.00379 1 0.998378
1.00109 1.00262 1 0.998474
0.998744 1.00034 1.00002 0.99839
0.999295 1.00098 1 0.998319
0.998715 1 1 0.998715
0.999542 1 1.00107 0.998469
1.00069 1 1.00244 0.998261
0.99907 1 1 0.99907
0.999 1 1.00002 0.998976
0.999156 1 1.00032 0.998838
0.999295 1 1 0.999295
0.999588 1 1.00048 0.999106
0.999958 1 1.00092 0.999039
0.999759 1 1 0.999759
0.999407 1 1 0.999407
0.999329 1 1.0001 0.999229
1 1 1 1
0.99986 1 1 0.99986
0.999518 1 1 0.999518
1 1 1 1
1 1 1 1
0.999913 1 1 0.999913
1 1 1 1
1 1 1 1
1 1 1 1
0.999361 1 1 0.999361
0.999572 1 1 0.999572
0.999408 1 1 0.999408
0.999905 1 1 0.999905
0.999609 1 1 0.999609
1 1 1 1
0.999921 1 1 0.999921
0.999638 1 1 0.999638
1 1 1 1
1 1 1 1
0.999942 1 1 0.999942
1 1 1 1
1 1 1 1
1 1 1 1
0.98894 0.990365 1 0.998561
0.99432 0.993674 1.00115 0.999505
1.0047 1.00307 1.00188 0.999745
0.999268 1 1 0.999268
0.999434 1 1 0.999434
0.999312 1 1 0.999312
0.999334 1 1 0.999334
0.999286 1 1 0.999286
0.99926 1 1 0.99926
0.999211 1 1 0.999211
0.999246 1 1 0.999246
0.999347 1 1 0.999347
0.99927 1 1 0.99927
0.999288 1 1 0.999288
0.999307 1 1 0.999307
0.923014 0.945763 0.981027 0.994821
0.987626 0.988893 1.00139 0.997335
0.998628 0.994486 1.00567 0.998499
0.925171 0.968297 0.960162 0.995105
0.947414 0.972137 0.980739 0.993709
0.971613 0.971463 1.00883 0.991405
0.967235 0.972803 0.997449 0.996819
0.980213 0.977604 1.00499 0.997691
0.884576 0.934147 0.952713 0.993935
0.978977 0.97394 1.01429 0.991009
0.922601 0.957437 0.969187 0.994251
0.978658 0.981967 0.998733 0.997895
0.972233 0.969463 1.01069 0.992251
0.894456 0.931448 0.96612 0.993961
1.00006 1 1.00041 0.999655
0.999438 1 1 0.999438
0.999259 1 1 0.999259
1.00644 0.986339 1.02076 0.999629
1.00388 0.999451 1.00506 0.99937
0.999318 1 1.00005 0.999267
1.00404 1 1.00465 0.999395
1.00391 0.991682 1.01295 0.99939
1.00595 0.997074 1.00939 0.999521
0.941754 0.951559 0.994122 0.995548
0.987756 0.989056 0.999986 0.9987
0.995307 0.995851 0.999735 0.999719
1.00146 0.985945 1.01596 0.999786
0.958393 0.97663 0.983622 0.997666
0.988288 0.989787 1.00017 0.998319
0.973909 0.970766 1.01059 0.992729
0.905564 0.941792 0.967322 0.994015
0.917019 0.942767 0.977638 0.994938
0.981624 0.987653 0.994578 0.999314
0.937727 0.951508 0.98964 0.995834
0.908532 0.930955 0.981663 0.994143
0.974051 0.976799 1.00139 0.995801
0.966697 0.969915 1.00475 0.991967
0.971975 0.994052 0.97836 0.999418
0.916159 0.939001 0.981315 0.994252
0.967848 0.973015 1.00237 0.992334
0.986497 0.989644 1.00123 0.995591
1.01835 0.999919 1.01906 0.999379
0.989735 1 0.990637 0.999089
0.981711 1.00122 0.981634 0.998864
1.00969 1 1.01094 0.998764
1.00228 1.00115 1.00269 0.998438
1.00029 1.00223 0.999428 0.998638
1.00385 1.00012 1.00546 0.998272
0.99934 1.00061 1.00037 0.998354
1.00547 1.00684 1 0.998647
1.0024 1.00233 1.00185 0.998223
1.00206 1.00368 1 0.998383
1.00471 1.00605 1 0.99867
1.0033 1.00462 1 0.998689
0.999667 1.00119 1 0.99848
1.00122 1.00273 1 0.998492
0.998637 1.00007 1 0.998565
0.998777 1.00036 1 0.998416
0.999433 1.00111 1 0.998329
0.998954 1 1 0.998954
0.998856 1 1.00014 0.998719
0.999909 1 1.00148 0.998433
0.999226 1 1 0.999226
0.999067 1 1 0.999067
0.999007 1 1 0.999007
0.999634 1 1 0.999634
0.999298 1 1 0.999298
0.99975 1 1.00064 0.999116
1 1 1 1
0.999757 1 1 0.999757
0.999408 1 1 0.999408
1 1 1 1
1 1 1 1
0.999856 1 1 0.999856
1 1 1 1
1 1 1 1
1 1 1 1
0.999348 1 1 0.999348
0.999363 1 1 0.999363
0.999524 1 1 0.999524
0.999887 1 1 0.999887
0.999573 1 1 0.999573
0.999399 1 1 0.999399
1 1 1 1
0.999907 1 1 0.999907
0.999609 1 1 0.999609
1 1 1 1
1 1 1 1
0.999924 1 1 0.999924
1 1 1 1
1 1 1 1
1 1 1 1
0.941073 0.949485 0.995385 0.995736
0.988115 0.989526 1 0.998574
0.993516 0.99316 1.00084 0.999515
0.999257 1 1 0.999257
0.999233 1 1 0.999233
0.999207 1 1 0.999207
0.999345 1 1 0.999345
0.999297 1 1 0.999297
0.999256 1 1 0.999256
0.999245 1 1 0.999245
0.99921 1 1 0.99921
0.999148 1 1 0.999148
0.99929 1 1 0.99929
0.999284 1 1 0.999284
0.999307 1 1 0.999307
0.905851 0.929967 0.979832 0.994117
0.921352 0.942633 0.982625 0.994707
0.988744 0.989517 1.00189 0.99733
0.874092 0.925628 0.950476 0.993526
0.920985 0.954634 0.971407 0.99315
0.985869 0.980145 1.0129 0.993026
0.984416 0.976416 1.01197 0.996264
0.975823 0.979175 1.00002 0.996552
0.897422 0.930996 0.970688 0.993046
0.970703 0.96922 1.00912 0.992483
0.979215 0.980582 1.00175 0.996867
0.971272 0.973433 1.00587 0.991959
1.00746 1 1.00819 0.999281
0.9999 1 1.00027 0.999633
0.99944 1 1 0.99944
1.00014 0.989476 1.01137 0.999419
1.00434 1 1.00494 0.999399
1.00661 0.998012 1.00918 0.999441
1.00088 1.00067 1.0013 0.998916
0.912519 0.941738 0.974878 0.993943
0.943995 0.951427 0.996221 0.995953
0.988287 0.989362 0.999918 0.998996
0.980003 0.988147 0.992383 0.999371
0.973696 0.976481 1.00039 0.996762
0.938367 0.952161 0.989611 0.99586
0.970487 0.970361 1.00845 0.991755
0.908458 0.934651 0.978578 0.993252
0.975413 0.994553 0.981516 0.999224
0.916711 0.939929 0.981523 0.993658
0.96958 0.973011 1.00461 0.991899
0.988162 0.986739 1.00468 0.996775
0.989697 1.00089 0.989611 0.999195
0.958929 0.972922 0.994139 0.991429
0.991697 0.993736 1.00054 0.997414
0.986095 1 0.986946 0.999137
0.982469 1.00125 0.982379 0.998846
0.982517 1.00318 0.980561 0.998819
1.00216 1.00134 1.00239 0.998435
1.00001 1.00273 0.998648 0.998633
1.00564 1.00948 0.997227 0.998967
0.999373 1.00029 1.00071 0.998368
1.00579 1.00716 1 0.998644
1.01009 1.0112 1 0.998908
1.00199 1.00361 1 0.998388
1.0043 1.00564 1 0.99867
1.00534 1.00649 1 0.998849
1.00331 1.00451 1 0.9988
1.00315 1.00444 1 0.998713
1.00132 1.00267 1 0.998656
0.999006 1.00044 1 0.998568
0.999781 1.0013 1 0.998484
1.00129 1.00278 1 0.99851
0.998761 1 1 0.998761
0.99865 1.00006 1 0.998594
0.998841 1.0004 1 0.998443
0.999147 1 1 0.999147
0.99895 1 1 0.99895
0.998894 1 1.00017 0.998722
0.999538 1 1 0.999538
0.999227 1 1 0.999227
0.999064 1 1 0.999064
0.999994 1 1 0.999994
0.999634 1 1 0.999634
0.9993 1 1 0.9993
1 1 1 1
0.999999 1 1 0.999999
0.999754 1 1 0.999754
1 1 1 1
1 1 1 1
1 1 1 1
0.999293 1 1 0.999293
0.999335 1 1 0.999335
0.999473 1 1 0.999473
0.999366 1 1 0.999366
0.999524 1 1 0.999524
0.999852 1 1 0.999852
1 1 1 1
0.999889 1 1 0.999889
0.999573 1 1 0.999573
1 1 1 1
1 1 1 1
0.999909 1 1 0.999909
1 1 1 1
1 1 1 1
1 1 1 1
0.921788 0.939333 0.987656 0.993586
0.939708 0.950488 0.993152 0.995475
0.986939 0.988335 1 0.998587
0.999247 1 1 0.999247
0.999192 1 1 0.999192
0.999247 1 1 0.999247
0.999174 1 1 0.999174
0.99917 1 1 0.99917
0.999244 1 1 0.999244
0.999208 1 1 0.999208
0.999156 1 1 0.999156
0.999109 1 1 0.999109
0.999163 1 1 0.999163
0.999078 1 1.00026 0.998821
0.999304 1 1 0.999304
0.999308 1 1 0.999308
0.967168 0.977878 0.997849 0.99118
0.910859 0.931564 0.983908 0.993765
0.922413 0.94435 0.982095 0.994579
0.897989 0.930495 0.970956 0.993934
0.974927 0.969559 1.01494 0.990731
0.978055 0.978057 1.00202 0.997981
0.98229 0.983427 1.00122 0.99763
0.969779 0.973853 1.0035 0.992348
0.988199 0.996724 0.994733 0.996696
1.0055 1.00132 1.00561 0.998571
1.00592 1 1.00666 0.999265
0.999611 1 1 0.999611
1.00675 0.999349 1.00804 0.999368
1.00001 1.00101 1.00011 0.998881
0.950666 0.97148 0.986175 0.992294
0.917264 0.941355 0.980831 0.993452
0.947139 0.951514 0.999036 0.996361
0.979147 0.995619 0.984416 0.999024
0.986605 0.984811 1.00622 0.995631
0.917175 0.938783 0.983491 0.993383
0.972809 0.974094 1.00644 0.992289
0.98786 1.0019 0.986792 0.99918
0.961274 0.973998 0.994396 0.992498
0.993542 0.995675 1.00169 0.996173
1.00221 1.00635 0.997111 0.99877
0.994034 0.996928 0.998849 0.998246
0.982761 1.00132 0.982614 0.998827
0.985211 1.00274 0.983717 0.998781
1.00369 1.01632 0.988719 0.998848
0.999903 1.00316 0.998123 0.998629
1.00414 1.00801 0.997202 0.99896
1.0113 1.01546 0.996868 0.999025
1.00604 1.00741 1 0.998641
1.01047 1.01161 0.999984 0.998895
1.00851 1.00961 0.999987 0.998926
1.00394 1.00528 1 0.998669
1.00545 1.00662 1 0.998838
1.00436 1.00554 1 0.998826
1.00339 1.00457 1 0.998827
1.00159 1.00287 1 0.998723
1.00306 1.00433 1 0.998737
1.00127 1.00262 1 0.998652
0.999562 1.00093 1 0.998634
0.998716 1.00004 1 0.998673
0.998968 1.00041 1 0.998562
0.999875 1.00139 1 0.998487
0.999021 1 1 0.999021
0.998781 1 1 0.998781
0.99866 1.00004 1 0.998622
0.999466 1 1 0.999466
0.999144 1 1 0.999144
0.998945 1 1 0.998945
0.99997 1 1 0.99997
0.99954 1 1 0.99954
0.999228 1 1 0.999228
1 1 1 1
0.999988 1 1 0.999988
0.999634 1 1 0.999634
1 1 1 1
0.999998 1 1 0.999998
1 1 1 1
0.999201 1 1 0.999201
0.999294 1 1 0.999294
0.999389 1 1 0.999389
0.999323 1 1 0.999323
0.999457 1 1 0.999457
0.999781 1 1 0.999781
0.999524 1 1 0.999524
0.999853 1 1 0.999853
1 1 1 1
1 1 1 1
1 1 1 1
0.999891 1 1 0.999891
1 1 1 1
1 1 1 1
1 1 1 1
0.96467 0.975735 0.996214 0.992417
0.91654 0.942037 0.978719 0.99409
0.944766 0.952704 0.996087 0.995564
0.999177 1 1 0.999177
0.999261 1 1 0.999261
0.999177 1 1 0.999177
0.999178 1 1 0.999178
0.999064 1 1 0.999064
0.999157 1 1 0.999157
0.999163 1 1 0.999163
0.99907 1 1 0.99907
0.999142 1 1 0.999142
0.998999 1 1 0.998999
1.00048 1.00161 1 0.998867
0.999232 1.00077 1.00011 0.998346
0.999359 1.00045 1.00006 0.998857
0.999318 1 1 0.999318
0.985336 0.993228 0.995152 0.996887
0.966087 0.975536 0.998258 0.992043
0.905441 0.932741 0.977339 0.99324
0.973701 0.97385 1.00813 0.991784
0.979237 0.98427 0.996583 0.998297
0.99197 0.996896 0.997038 0.998015
0.996307 1.00479 0.992802 0.998748
1.00258 1.00067 1.00325 0.998667
1.00487 1 1.00563 0.999249
0.99789 1.00112 0.997932 0.998839
0.981027 0.986386 0.997893 0.996667
0.957881 0.972501 0.992111 0.992798
0.914645 0.940568 0.97801 0.994304
0.987679 1.00308 0.985469 0.999162
0.999118 0.996393 1.00562 0.997132
0.960777 0.974181 0.992584 0.993609
0.996265 1.00494 0.992579 0.998783
0.992501 0.996653 0.998076 0.997753
1.01084 1.01951 0.992886 0.998603
1.009 1.01446 0.996034 0.998581
0.988125 1.00239 0.987012 0.998742
1.00521 1.01599 0.990536 0.998843
1.01316 1.01877 0.995654 0.998832
1.00284 1.00681 0.9971 0.998952
1.0115 1.01512 0.997418 0.999015
1.00999 1.01234 0.99885 0.998826
1.01086 1.01203 0.999964 0.998882
1.00791 1.00902 0.999982 0.998914
1.00604 1.00731 1 0.99873
1.00549 1.00667 1 0.998827
1.00404 1.00522 1 0.998834
1.00272 1.00405 1 0.998676
1.00343 1.00459 1 0.998855
1.00148 1.00275 1 0.998739
0.999373 1.00073 1 0.998645
1.00121 1.00257 1 0.998647
0.999493 1.00086 1 0.998629
0.998692 1 1 0.998692
0.998883 1 1 0.998883
0.998717 1.00002 1 0.998692
0.998937 1.00038 1 0.998556
0.999371 1 1 0.999371
0.99902 1 1 0.99902
0.998801 1 1 0.998801
0.99993 1 1 0.99993
0.999466 1 1 0.999466
0.99914 1 1 0.99914
1 1 1 1
0.99996 1 1 0.99996
0.999541 1 1 0.999541
1 1 1 1
0.999982 1 1 0.999982
1 1 1 1
0.999101 1 1 0.999101
0.999211 1 1 0.999211
0.999314 1 1 0.999314
0.999295 1 1 0.999295
0.999379 1 1 0.999379
0.999686 1 1 0.999686
0.999442 1 1 0.999442
0.999782 1 1 0.999782
1 1 1 1
0.999854 1 1 0.999854
1 1 1 1
1 1 1 1
1 1 1 1
1 1 1 1
1 1 1 1
0.978225 0.986272 0.994847 0.996979
0.958667 0.973265 0.992763 0.992182
0.914114 0.941464 0.977481 0.993318
0.998908 1 1 0.998908
0.999185 1 1 0.999185
0.999182 1 1 0.999182
0.99915 1 1 0.99915
0.999056 1 1 0.999056
0.99916 1 1 0.99916
0.999031 1 1 0.999031
0.999122 1 1 0.999122
0.999033 1 1 0.999033
0.999844 1.00097 1 0.998879
1.00058 1.00212 1 0.998466
1.00385 1.00579 0.999965 0.998103
0.999726 1.00127 1.00013 0.998326
0.999763 1.00087 1 0.998893
1.00082 1.00646 0.995327 0.999065
0.986766 0.994845 0.995534 0.996328
0.969869 0.97736 0.999287 0.993044
0.991697 0.996543 0.99819 0.996941
1.00138 1.00655 0.996007 0.998852
1.00126 1.0002 1.00229 0.998765
1.00511 1.00668 0.999681 0.998757
0.980724 0.985341 0.997685 0.997624
0.955544 0.97266 0.989988 0.992338
0.989683 1.00309 0.987827 0.998794
0.991714 0.996239 0.998255 0.997198
1.0108 1.01985 0.992511 0.998599
1.00868 1.01254 0.997508 0.998672
1.01847 1.02354 0.996468 0.998567
1.01294 1.01557 0.998907 0.998506
1.00654 1.01537 0.992463 0.998838
1.01435 1.01989 0.995717 0.998842
1.0083 1.01143 0.998219 0.998686
1.01158 1.01467 0.997946 0.999006
1.01107 1.0131 0.999167 0.998824
1.0069 1.00839 0.999927 0.998592
1.00735 1.00847 0.99998 0.998903
1.00585 1.00711 1 0.99875
1.00475 1.00621 1 0.998545
1.00375 1.00492 1 0.998842
1.0025 1.00383 1 0.998676
1.00026 1.00169 1 0.998579
1.00139 1.00264 1 0.998755
0.999547 1.0009 1 0.998651
0.998662 1.00001 1 0.998648
0.999423 1.0008 1 0.998624
0.99868 1 1 0.99868
0.998837 1 1 0.998837
0.999269 1 1 0.999269
0.998903 1 1 0.998903
0.99872 1.00001 1 0.998711
0.999876 1 1 0.999876
0.99937 1 1 0.99937
0.999019 1 1 0.999019
1 1 1 1
0.99992 1 1 0.99992
0.999465 1 1 0.999465
1 1 1 1
0.999951 1 1 0.999951
1 1 1 1
0.99895 1 1 0.99895
0.999104 1 1 0.999104
0.999233 1 1 0.999233
0.999221 1 1 0.999221
0.99932 1 1 0.99932
0.999595 1 1 0.999595
0.99937 1 1 0.99937
0.999685 1 1 0.999685
0.999996 1 1 0.999996
0.999783 1 1 0.999783
1 1 1 1
1 1 1 1
1 1 1 1
1 1 1 1
1 1 1 1
1.00604 1.01004 0.996923 0.999113
0.978225 0.987391 0.994811 0.995884
0.962424 0.972648 0.996922 0.992543
0.998962 1 1 0.998962
0.999176 1.00053 1 0.998645
0.99893 1 1 0.99893
0.999143 1 1 0.999143
0.999048 1 1 0.999048
0.999127 1 1 0.999127
1.0012 1.00261 1 0.998591
0.999067 1 1 0.999067
0.999056 1.00017 1 0.99889
1.00067 1.00218 1 0.998498
1.0041 1.006 1 0.998118
1.01048 1.01273 0.999368 0.998408
1.0027 1.00464 0.999957 0.998108
1.00015 1.00184 1 0.998306
1.00374 1.00906 0.995603 0.999118
0.985285 0.993984 0.995584 0.995646
1.00429 1.00773 0.997633 0.998956
1.01143 1.01271 0.999825 0.998915
1.00347 1.00539 0.999279 0.99881
0.977486 0.98512 0.995858 0.996377
1.0107 1.02046 0.99183 0.998597
1.00761 1.01053 0.998351 0.998764
1.01788 1.02368 0.995727 0.998602
1.01462 1.01697 0.999163 0.998528
1.0098 1.01377 0.997517 0.998568
1.01614 1.0175 0.999994 0.998671
1.01548 1.02115 0.995593 0.998852
1.00824 1.01154 0.998046 0.998691
1.00844 1.01087 0.999092 0.998502
1.01209 1.01379 0.999499 0.998822
1.00684 1.00828 0.999975 0.998598
1.00701 1.00858 1 0.998448
1.00564 1.00688 1 0.99877
1.00456 1.00603 1 0.998544
1.00221 1.00375 1 0.998468
1.00227 1.0036 1 0.998677
1.00054 1.00196 1 0.998579
0.998742 1.00016 1 0.998578
0.999724 1.00107 1 0.998657
0.998682 1.00003 1 0.998649
0.998783 1 1 0.998783
0.998667 1 1 0.998667
0.99883 1 1 0.99883
0.999191 1 1 0.999191
0.999821 1 1 0.999821
0.999269 1 1 0.999269
0.998923 1 1 0.998923
1 1 1 1
0.999866 1 1 0.999866
0.999369 1 1 0.999369
1 1 1 1
0.99991 1 1 0.99991
1 1 1 1
0.998731 1 1 0.998731
0.998928 1 1 0.998928
0.9991 1 1 0.9991
0.999106 1 1 0.999106
0.999235 1 1 0.999235
0.999514 1 1 0.999514
0.999326 1 1 0.999326
0.999594 1 1 0.999594
0.999975 1 1 0.999975
0.999685 1 1 0.999685
0.999998 1 1 0.999998
1 1 1 1
1 1 1 1
1 1 1 1
1 1 1 1
1.01028 1.01253 0.99902 0.998758
1.00506 1.00926 0.996843 0.998993
0.977601 0.986214 0.994625 0.996622
1.00149 1.00289 1 0.998603
0.999081 1 1 0.999081
1.00234 1.00388 1 0.998467
0.999077 1.00045 1 0.998632
0.998952 1 1 0.998952
1.00826 1.01005 1 0.998226
0.999094 1 1 0.999094
1.00118 1.00263 1 0.998556
1.01011 1.01188 1 0.99825
1.00077 1.00225 1 0.99853
1.00474 1.00666 1 0.998095
1.00857 1.01067 0.999505 0.998409
1.00115 1.00305 1 0.998112
1.00602 1.01099 0.995904 0.999173
1.01567 1.01692 1 0.998776
1.0113 1.01269 0.999717 0.998911
1.00234 1.00409 0.999394 0.998862
1.01755 1.024 0.995058 0.998637
1.01628 1.01838 0.999387 0.99855
1.01045 1.01421 0.997721 0.998577
1.01664 1.01803 0.99995 0.99868
1.01509 1.01654 0.999995 0.998581
1.00819 1.01162 0.997908 0.998696
1.0086 1.01065 0.999462 0.998508
1.00962 1.01122 1 0.998419
1.0068 1.00821 1 0.998604
1.00662 1.0082 1 0.998439
1.00483 1.00647 1 0.998374
1.00439 1.00586 1 0.998542
1.00234 1.00388 1 0.998467
0.999138 1.00066 1 0.998483
1.00081 1.00223 1 0.998578
0.998853 1.00028 1 0.998578
0.998701 1 1 0.998701
0.998702 1.00005 1 0.99865
0.998784 1 1 0.998784
0.999121 1 1 0.999121
0.998823 1 1 0.998823
0.99919 1 1 0.99919
0.9998 1 1 0.9998
0.99997 1 1 0.99997
0.99982 1 1 0.99982
0.999268 1 1 0.999268
1 1 1 1
0.999856 1 1 0.999856
1 1 1 1
1.00319 1.00469 1 0.998508
0.998928 1.0003 1 0.998624
0.998709 1 1 0.998709
0.998967 1 1 0.998967
0.998906 1 1 0.998906
0.999105 1 1 0.999105
0.999431 1 1 0.999431
0.999237 1 1 0.999237
0.999515 1 1 0.999515
0.999935 1 1 0.999935
0.999594 1 1 0.999594
0.999982 1 1 0.999982
1 1 1 1
1 1 1 1
1 1 1 1
1 1 1 1
1.01423 1.01568 1 0.998568
1.01373 1.01568 0.999257 0.998822
1.00536 1.00962 0.996905 0.998872
1.00786 1.00956 1 0.998314
1.00068 1.002 1 0.998676
0.999199 1 1 0.999199
1.00266 1.00417 1 0.998491
0.998943 1.00032 1 0.998619
1.01432 1.01613 1 0.998218
1.00787 1.0097 1 0.998196
1.00122 1.0027 1 0.99852
1.01072 1.0125 1 0.998243
1.00609 1.00803 1 0.998072
1.00855 1.01061 0.99955 0.998412
1.01789 1.01926 1 0.998663
1.01592 1.01717 1 0.998771
1.01162 1.01299 0.999739 0.998908
1.01108 1.01462 0.997921 0.998585
1.01742 1.01884 0.999927 0.998688
1.01534 1.01705 0.999728 0.998594
1.01469 1.01625 1 0.998464
1.0088 1.01047 0.99983 0.998513
1.00911 1.01071 1 0.998415
1.00804 1.00971 1 0.998347
1.00623 1.00782 1 0.99843
1.00483 1.00647 1 0.998374
1.00018 1.00178 1 0.9984
1.00247 1.00401 1 0.998465
0.999395 1.00091 1 0.998482
0.998613 1 1 0.998613
0.998966 1.00039 1 0.998577
0.998701 1 1 0.998701
0.999039 1 1 0.999039
0.998785 1 1 0.998785
0.999119 1 1 0.999119
0.999783 1 1 0.999783
0.999189 1 1 0.999189
0.999794 1 1 0.999794
0.999966 1 1 0.999966
0.999985 1 1 0.999985
0.99982 1 1 0.99982
1 1 1 1
1.00562 1.0073 1 0.998335
0.999158 1.00054 1 0.998616
1.00276 1.00417 1 0.998596
0.998835 1 1 0.998835
0.999027 1.00041 1 0.99862
0.998688 1 1 0.998688
0.998968 1 1 0.998968
0.999328 1 1 0.999328
0.999109 1 1 0.999109
0.999433 1 1 0.999433
0.999889 1 1 0.999889
0.999516 1 1 0.999516
0.999947 1 1 0.999947
1 1 1 1
0.99999 1 1 0.99999
1 1 1 1
1 1 1 1
1.01638 1.01796 1 0.998445
1.0136 1.01505 1 0.998566
1.01538 1.01707 0.999449 0.998885
1.01243 1.01422 1 0.998236
1.00754 1.00924 1 0.998318
0.999891 1.00114 1 0.998749
1.00296 1.00445 1 0.998516
1.01398 1.0158 1 0.998212
1.00733 1.00918 1 0.998166
1.00977 1.01156 1 0.998235
1.01602 1.01753 1 0.99852
1.01756 1.01895 1 0.998632
1.01569 1.01695 1 0.998765
1.01481 1.01643 1 0.998414
1.01544 1.01742 0.999453 0.998607
1.01461 1.01617 1 0.998464
1.01133 1.01297 1 0.998379
1.0086 1.01021 1 0.99841
1.00812 1.00978 1 0.998349
1.00236 1.00402 1 0.998348
1.00481 1.00644 1 0.998374
1.00061 1.00221 1 0.9984
0.998564 1.00003 1 0.998537
0.999648 1.00117 1 0.998481
0.998612 1 1 0.998612
0.998958 1 1 0.998958
0.998701 1 1 0.998701
0.999037 1 1 0.999037
0.999764 1 1 0.999764
0.999118 1 1 0.999118
0.999778 1 1 0.999778
0.999964 1 1 0.999964
0.99979 1 1 0.99979
0.999967 1 1 0.999967
1 1 1 1
1.00721 1.00899 1 0.998238
1.00051 1.00208 1 0.998431
1.00568 1.00732 1 0.998366
0.99877 1 1 0.99877
0.999187 1.00058 1 0.998613
1.00235 1.00367 1 0.998683
0.999195 1 1 0.999195
0.998832 1 1 0.998832
0.999148 1.00053 1 0.998617
0.998969 1 1 0.998969
0.99933 1 1 0.99933
0.999835 1 1 0.999835
0.999434 1 1 0.999434
0.999899 1 1 0.999899
1 1 1 1
0.999959 1 1 0.999959
1 1 1 1
1 1 1 1
1.01459 1.01624 1 0.998375
1.01649 1.01809 1 0.998427
1.01417 1.01563 1 0.998564
1.01221 1.014 1 0.998237
1.00723 1.00893 1 0.998321
1.01395 1.01577 1 0.998206
1.01407 1.01568 1 0.998414
1.01613 1.01764 1 0.998517
1.0173 1.01872 1 0.998602
1.01512 1.01673 1 0.998421
1.01211 1.01378 1 0.998354
1.01448 1.01604 1 0.998463
1.01137 1.01303 1 0.99837
1.00467 1.00633 1 0.998343
1.0082 1.00987 1 0.998351
1.0026 1.00426 1 0.99835
0.998853 1.00038 1 0.998471
1.00105 1.00265 1 0.9984
0.998641 1.0001 1 0.998536
0.998897 1 1 0.998897
0.998612 1 1 0.998612
0.998956 1 1 0.998956
0.999739 1 1 0.999739
0.999035 1 1 0.999035
0.999758 1 1 0.999758
0.999959 1 1 0.999959
0.999773 1 1 0.999773
0.999967 1 1 0.999967
0.999967 1 1 0.999967
1.00979 1.01148 1 0.998334
1.00154 1.00325 1 0.998303
1.0073 1.00908 1 0.998235
0.99862 1 1 0.99862
1.00026 1.00182 1 0.998443
1.00569 1.0073 1 0.998397
0.999074 1 1 0.999074
0.998736 1 1 0.998736
0.999214 1.0006 1 0.99861
0.999776 1 1 0.999776
0.999197 1 1 0.999197
0.99883 1 1 0.99883
0.999332 1 1 0.999332
0.999844 1 1 0.999844
1 1 1 1
0.999909 1 1 0.999909
1 1 1 1
1 1 1 1
1.01284 1.01451 1 0.998354
1.01441 1.01607 1 0.998372
1.01636 1.01798 1 0.998409
1.01196 1.01375 1 0.998238
1.01238 1.01407 1 0.998327
1.01456 1.01617 1 0.99842
1.01629 1.0178 1 0.998513
1.0154 1.017 1 0.998428
1.01203 1.0137 1 0.998357
1.00563 1.00731 1 0.998341
1.01143 1.01309 1 0.998362
1.00464 1.0063 1 0.998346
0.999627 1.00121 1 0.998419
1.00283 1.00449 1 0.998353
0.999091 1.00062 1 0.998472
0.998839 1 1 0.998839
0.998719 1.00018 1 0.998536
0.998896 1 1 0.998896
0.999687 1 1 0.999687
0.998955 1 1 0.998955
0.999723 1 1 0.999723
1 1 1 1
0.999752 1 1 0.999752
0.999963 1 1 0.999963
0.999968 1 1 0.999968
1.00969 1.01135 1 0.998359
1.00253 1.00421 1 0.998332
1.00972 1.0114 1 0.998336
0.998775 1.00031 1 0.998462
1.00136 1.00304 1 0.99832
1.00742 1.0092 1 0.998232
0.998916 1 1 0.998916
0.998618 1 1 0.998618
1.00004 1.00159 1 0.998455
0.999729 1 1 0.999729
0.999045 1 1 0.999045
0.998702 1 1 0.998702
1 1 1 1
0.999786 1 1 0.999786
0.999199 1 1 0.999199
0.999852 1 1 0.999852
1 1 1 1
1 1 1 1
1.01157 1.01326 1 0.998332
1.01326 1.01493 1 0.998363
1.01424 1.0159 1 0.998369
1.00619 1.00791 1 0.998296
1.01182 1.01351 1 0.998327
1.01505 1.01665 1 0.998426
1.01197 1.01363 1 0.998361
1.00566 1.00733 1 0.998341
1.00037 1.00194 1 0.998435
1.00462 1.00628 1 0.998348
0.999838 1.00139 1 0.998448
0.998728 1 1 0.998728
0.999336 1.00086 1 0.998473
0.998839 1 1 0.998839
0.999647 1 1 0.999647
0.998895 1 1 0.998895
0.999685 1 1 0.999685
1 1 1 1
0.999704 1 1 0.999704
0.999977 1 1 0.999977
0.999965 1 1 0.999965
1.00803 1.00969 1 0.998356
1.00276 1.0044 1 0.998368
1.00965 1.01131 1 0.99836
0.999006 1.00054 1 0.998469
1.00278 1.00445 1 0.998333
1.00966 1.01134 1 0.998338
0.998825 1 1 0.998825
0.998733 1.00023 1 0.998499
1.00115 1.00282 1 0.998338
0.999699 1 1 0.999699
0.998904 1 1 0.998904
0.998616 1 1 0.998616
1 1 1 1
0.999737 1 1 0.999737
0.999015 1 1 0.999015
1 1 1 1
0.999796 1 1 0.999796
1 1 1 1
1.00591 1.0076 1 0.99832
1.01121 1.0129 1 0.998331
1.01374 1.01539 1 0.998372
1.00001 1.00161 1 0.998403
1.00617 1.00788 1 0.998302
1.01131 1.013 1 0.998327
1.0057 1.00737 1 0.998341
1.00036 1.00193 1 0.998434
0.998676 1 1 0.998676
1.00004 1.00157 1 0.998476
0.998755 1 1 0.998755
0.999588 1 1 0.999588
0.998839 1 1 0.998839
0.999644 1 1 0.999644
1 1 1 1
0.999683 1 1 0.999683
1 1 1 1
0.999959 1 1 0.999959
1.00297 1.0046 1 0.99838
1.00807 1.00973 1 0.998357
0.998835 1.00037 1 0.998469
1.00276 1.0044 1 0.998368
1.00959 1.01125 1 0.998361
0.998831 1 1 0.998831
0.998975 1.00051 1 0.998466
1.00301 1.00468 1 0.998335
0.999673 1 1 0.999673
0.998845 1 1 0.998845
0.998681 1.00015 1 0.998536
1 1 1 1
0.999704 1 1 0.999704
0.998892 1 1 0.998892
1 1 1 1
0.999745 1 1 0.999745
1 1 1 1
0.999596 1.00117 1 0.998432
1.00576 1.00746 1 0.998321
1.01078 1.01247 1 0.99833
0.998657 1 1 0.998657
1.00001 1.00161 1 0.998402
1.00611 1.00781 1 0.998309
1.00035 1.00192 1 0.998434
0.998681 1 1 0.998681
0.999535 1 1 0.999535
0.998783 1 1 0.998783
0.999585 1 1 0.999585
1 1 1 1
0.999641 1 1 0.999641
1 1 1 1
1 1 1 1
0.998793 1.00034 1 0.998455
1.00281 1.00444 1 0.998375
1.00811 1.00977 1 0.998357
0.998806 1 1 0.998806
0.998926 1.00046 1 0.998468
1.00274 1.00438 1 0.998367
0.999642 1 1 0.999642
0.99883 1 1 0.99883
0.998957 1.00049 1 0.998464
1 1 1 1
0.999676 1 1 0.999676
0.998865 1 1 0.998865
1 1 1 1
0.999709 1 1 0.999709
1 1 1 1
0.998719 1 1 0.998719
0.999576 1.00117 1 0.998404
1.00566 1.00735 1 0.998322
0.999517 1 1 0.999517
0.998658 1 1 0.998658
1.00001 1.00161 1 0.998402
0.998686 1 1 0.998686
0.999534 1 1 0.999534
1 1 1 1
0.999581 1 1 0.999581
1 1 1 1
1 1 1 1
0.998766 1 1 0.998766
0.998799 1.00035 1 0.998444
1.00267 1.00431 1 0.99837
0.999652 1 1 0.999652
0.998804 1 1 0.998804
0.999019 1.00055 1 0.998466
1 1 1 1
0.999643 1 1 0.999643
0.998828 1 1 0.998828
1 1 1 1
0.999679 1 1 0.999679
1 1 1 1
0.999517 1 1 0.999517
0.998698 1 1 0.998698
0.999558 1.00118 1 0.998375
1 1 1 1
0.999516 1 1 0.999516
0.998659 1 1 0.998659
0.999532 1 1 0.999532
1 1 1 1
1 1 1 1
0.999606 1 1 0.999606
0.998766 1 1 0.998766
0.998799 1.00037 1 0.998434
1 1 1 1
0.999607 1 1 0.999607
0.998803 1 1 0.998803
1 1 1 1
0.999644 1 1 0.999644
1 1 1 1
0.999885 1 1 0.999885
0.999557 1 1 0.999557
0.998676 1 1 0.998676
1 1 1 1
0.999516 1 1 0.999516
1 1 1 1
0.999903 1 1 0.999903
0.999589 1 1 0.999589
0.998766 1 1 0.998766
0.999957 1 1 0.999957
0.999605 1 1 0.999605
1 1 1 1
1 1 1 1
0.999529 1 1 0.999529
1 1 1 1
0.999948 1 1 0.999948
0.999564 1 1 0.999564
1 1 1 1
1 1 1 1
1 1 1 1

VECTORS lamdaE float
0.999504 1.00025 0.995888
0.999452 0.999903 0.998264
0.999315 1.00045 0.996001
0.999812 0.999919 0.995813
0.999608 1.00009 0.995944
0.999419 1.00019 0.995976
1.00058 1.00065 0.993354
0.999437 0.999779 0.998317
0.999457 1.00031 0.998262
0.99915 1.00036 0.998389
0.999495 0.999489 0.996628
1.00026 1.00092 0.993283
0.999919 1.00001 0.995486
0.999623 0.999928 0.995846
0.999138 1.00069 0.996091
0.999667 0.999894 0.995955
0.99927 1.00039 0.996077
0.999433 1.0002 0.996059
1.00068 1.00056 0.993316
0.999889 0.999999 0.997936
0.999864 0.999966 0.995656
0.999736 0.999944 0.995913
1.00106 0.999915 0.99326
1.00081 1.00023 0.993383
0.99942 0.999758 0.996339
1.00021 1.00106 0.993516
1.00271 1.00067 0.989656
0.999406 0.999664 0.998383
0.999559 1.00017 0.997015
0.999282 1.00029 0.997188
0.999449 0.999311 0.998489
1.00015 1.00104 0.993295
0.999807 0.999903 0.995733
0.999539 1.00045 0.995831
1.00113 1.00022 0.993523
0.999335 0.998706 0.998856
1.00059 1.0008 0.993896
1.00002 1.0008 0.993802
1.0014 1.00206 0.990108
0.999422 0.998036 0.999077
0.999917 1.00001 0.997906
0.999737 0.999978 0.996912
0.999935 1 0.997884
0.999631 1.00001 0.995809
1.00138 1.00006 0.992022
0.999659 0.999969 0.998211
1.00136 1.00002 0.99331
0.99952 0.999842 0.996097
0.999269 1.00032 0.99616
0.999092 1.00066 0.99619
1.00078 1.00043 0.993289
0.999815 1.00001 0.996814
0.999712 0.999951 0.995815
0.999293 0.999896 0.996439
0.99958 0.999964 0.996041
1.00112 0.999877 0.993207
1.00031 1.00099 0.993503
1.00091 1.00015 0.993339
1.00272 1.00071 0.989627
0.999899 1 0.997915
0.999926 1.00001 0.995513
1.00127 1 0.993395
1.00112 0.999975 0.993083
1.00099 0.999972 0.993339
1.00333 0.999822 0.989336
1.00307 1.00007 0.989314
0.999531 0.999029 0.996846
0.999676 1.00117 0.994216
1.00195 1.00153 0.990097
1.00381 1.00044 0.987304
0.999668 1.00018 0.998077
0.999421 0.999108 0.998615
0.999395 1.00008 0.998237
1.00006 1.00112 0.993306
0.999825 1.00001 0.998048
0.999563 1.00032 0.998108
1.00104 1.00019 0.99245
0.999386 0.998787 0.998003
1.00041 1.0009 0.992926
0.999923 1.00082 0.994371
1.0014 1.00202 0.990105
0.999452 0.99836 0.998911
0.999587 0.999335 0.99606
1.00127 0.999924 0.992352
1.00087 1.00053 0.992541
1.00331 1.00019 0.988415
0.999754 1.00036 0.995526
1.00209 1.00139 0.989498
1.00077 1.0026 0.990743
1.00212 1.00232 0.988418
0.999443 0.99771 0.999184
0.999392 0.997974 0.999119
0.999859 0.999969 0.998001
0.999899 1 0.997929
0.999937 1 0.997891
0.999757 0.999997 0.99687
1.00139 1.00004 0.992632
0.999746 0.999954 0.996944
1.00132 1.00004 0.992781
0.999946 1 0.997885
1.00137 0.999995 0.992056
1.00139 1.00008 0.993232
1.00368 0.999873 0.988056
1.00133 0.999935 0.993414
1.00359 0.999902 0.98822
0.999897 1.00002 0.995534
0.999555 0.999914 0.995978
0.999159 1.00003 0.996563
0.999428 0.999975 0.996163
1.00119 0.999865 0.993154
1.00099 1.00005 0.993302
1.00042 1.00084 0.993484
1.00273 1.00075 0.989597
0.999931 1 0.997897
0.999761 1 0.995679
1.00135 0.999992 0.99243
1.00118 0.999946 0.993029
0.999429 0.999114 0.99772
0.999873 1.00106 0.994351
1.00106 0.999923 0.99329
1.00335 0.999804 0.9892
1.00201 1.0016 0.990002
1.00306 1.00013 0.989418
1.00377 1.00046 0.987324
1.00136 1.00002 0.992085
1.00122 0.999988 0.992886
1.00364 0.999771 0.988559
1.0034 0.999829 0.98892
1.00328 0.999801 0.989182
1.00447 0.999505 0.987299
0.999494 0.998551 0.998805
1.00415 0.999837 0.987286
0.99969 1.0008 0.994322
1.0009 1.0023 0.990619
1.00311 1.0017 0.987436
1.00453 0.999925 0.986492
0.999718 0.99989 0.995189
1.00015 1.00189 0.992469
0.999796 1.00005 0.998054
0.999479 1.00025 0.998146
1.00104 1.00017 0.992458
0.999413 0.998612 0.998847
0.999787 1.00097 0.99396
1.00034 1.00097 0.992929
1.0014 1.00199 0.990101
0.99941 0.998302 0.998973
0.999593 0.99926 0.996098
1.00127 0.999956 0.992911
1.00081 1.00054 0.993134
1.00331 1.00019 0.988418
0.999691 1.00035 0.994837
1.00208 1.00137 0.989515
1.00073 1.0026 0.990746
1.00213 1.00231 0.988356
0.999601 0.999877 0.995486
0.999672 0.998799 0.996459
1.00002 1.00134 0.993266
1.00353 0.999967 0.988245
1.00278 1.00076 0.988833
1.00442 0.999982 0.98659
1.00041 1.00246 0.991529
1.003 1.00138 0.987674
1.00135 1.00337 0.98898
1.00234 1.00248 0.987919
0.999522 0.997409 0.999235
0.999437 0.997653 0.999203
0.999368 0.997911 0.999154
0.999733 0.999477 0.995592
0.999512 0.998254 0.99893
0.999855 0.999974 0.998028
0.999859 0.999985 0.997971
1.00127 1.00004 0.992239
1.00133 1.00005 0.99209
0.999916 1 0.997902
0.999936 1 0.997884
1.00137 1.00001 0.992056
1.00133 1.00008 0.992711
1.00369 0.999873 0.988055
1.00127 0.999939 0.992308
1.00359 0.999906 0.988217
1.00138 0.999996 0.992046
1.00374 0.999812 0.988017
1.00361 0.99992 0.988163
1.00476 0.999423 0.986573
1.00359 0.999903 0.988202
1.00468 0.999571 0.986591
0.999934 1 0.997885
0.999598 1 0.995848
1.00135 0.999985 0.99154
1.00125 0.999939 0.992973
0.999258 0.999126 0.998703
1.00009 1.00093 0.994475
1.00113 0.999886 0.993245
1.00336 0.999775 0.989064
1.00306 1.0002 0.989521
1.00207 1.0017 0.989908
1.00374 1.00048 0.987345
1.00135 1 0.992082
1.00129 0.999993 0.992821
1.00364 0.999756 0.988283
1.00343 0.999867 0.989012
0.99949 0.998623 0.998759
0.999784 1.0007 0.994712
1.00101 1.00234 0.990729
1.00327 0.999839 0.989175
1.00447 0.999422 0.987165
1.003 1.00169 0.987429
1.00415 0.999878 0.987394
1.00449 0.999937 0.986511
0.999707 0.999939 0.99518
1.00018 1.00183 0.99247
1.00372 0.999785 0.988063
1.00358 0.999826 0.988621
1.00473 0.999431 0.986902
1.00453 0.99941 0.986879
1.00438 0.999538 0.987354
1.00497 0.99894 0.986775
0.999706 1.00033 0.994745
1.00477 0.999231 0.9867
1.00043 1.00247 0.991315
1.00179 1.00278 0.988309
1.00387 1.00159 0.986461
1.0049 0.999149 0.986565
1.00027 1.00218 0.992013
1.00015 1.00135 0.993017
1.00044 1.00286 0.991047
1.00121 0.999939 0.992388
0.999373 0.998241 0.999031
0.999595 0.999183 0.996135
1.00068 1.00062 0.992638
1.00331 1.00019 0.988421
0.999659 1.00037 0.994788
1.00069 1.0026 0.99075
1.00206 1.00136 0.989533
1.00214 1.00229 0.988293
0.999601 0.999806 0.995514
0.999666 0.998763 0.996481
0.999984 1.00138 0.993279
1.00352 0.999979 0.988247
1.00277 1.00075 0.988848
1.00444 0.999973 0.986575
1.00036 1.00249 0.991536
1.00304 1.00141 0.987693
1.00133 1.00336 0.988964
1.00236 1.00242 0.987912
0.99977 0.998417 0.996657
1.00019 1.00195 0.992347
0.999973 1.0006 0.994092
1.00019 1.00266 0.991716
1.00462 0.999741 0.986502
1.00385 1.00067 0.986955
1.00498 0.99976 0.985824
1.00078 1.0035 0.989924
1.00357 1.00114 0.987085
1.00149 1.00405 0.987877
1.00275 1.00197 0.987538
1.00024 0.999508 0.994722
0.999937 0.997985 0.996771
0.999624 0.997147 0.999259
0.999531 0.997354 0.999244
0.999435 0.997586 0.99922
0.999786 0.999108 0.995878
0.999517 0.998007 0.999024
0.999725 0.999531 0.99557
0.999525 0.998298 0.998889
1.00127 0.999953 0.992306
1.00128 1.00006 0.992167
1.00358 0.99991 0.988214
1.00369 0.999873 0.988054
1.00137 1.00002 0.992056
0.999948 1 0.997881
1.00138 0.999998 0.992045
1.00374 0.999817 0.988016
1.0036 0.999926 0.988162
1.00476 0.999426 0.986567
1.00359 0.999915 0.988196
1.00467 0.999573 0.986586
1.00374 0.999799 0.988029
1.0048 0.999329 0.986587
1.00469 0.999542 0.986599
1.00511 0.998744 0.986601
1.0047 0.999608 0.986508
1.00507 0.999011 0.986398
1.00136 0.999989 0.992078
1.00135 0.999984 0.992754
1.00365 0.999731 0.988008
1.00345 0.999894 0.989104
0.99949 0.998698 0.998708
0.999887 1.00066 0.995055
1.00116 1.00236 0.990839
1.00326 0.999869 0.989168
1.00447 0.999337 0.98703
1.00414 0.999919 0.987502
1.00287 1.00169 0.987422
1.00446 0.999948 0.98653
0.999699 0.999988 0.995169
1.00022 1.00177 0.992472
1.00372 0.999754 0.987982
1.00359 0.999815 0.988611
1.00473 0.999385 0.986891
1.00455 0.99948 0.987009
0.999727 1.00034 0.994746
1.00051 1.00246 0.991298
1.00177 1.00279 0.988475
1.00438 0.999577 0.987371
1.00497 0.998854 0.986785
1.00381 1.00153 0.986334
1.00477 0.999239 0.986707
1.00491 0.999148 0.986525
1.00028 1.00212 0.992023
1.00039 1.00286 0.991065
1.00016 1.00135 0.993006
1.00478 0.999397 0.986828
1.00471 0.999419 0.986856
1.00513 0.998811 0.986618
1.00502 0.998904 0.986614
1.00491 0.998883 0.986767
1.00514 0.99817 0.987144
1.00032 1.00231 0.991747
1.00504 0.998613 0.986801
1.00105 1.00296 0.989805
1.00242 1.0033 0.986689
1.00436 1.00094 0.98602
1.00511 0.99859 0.986817
1.00016 1.00092 0.993446
1.0006 1.00265 0.990945
1.00027 1.00274 0.991386
1.00059 1.0031 0.990626
1.00352 0.999987 0.988249
0.999656 0.998736 0.996505
0.999605 0.999735 0.995543
0.999972 1.00141 0.993293
1.00276 1.00074 0.988863
1.00446 0.999966 0.98656
1.0003 1.00254 0.991544
1.00131 1.00338 0.988948
1.00309 1.00145 0.987712
1.00236 1.00238 0.987904
0.999763 0.998405 0.996664
1.00017 1.002 0.992348
0.999981 1.00057 0.994112
1.00015 1.00273 0.991707
1.00462 0.999739 0.986494
1.00385 1.00068 0.98696
1.00497 0.999764 0.985809
1.00074 1.00349 0.989942
1.00359 1.00119 0.987113
1.00153 1.00413 0.987826
1.00267 1.00174 0.987923
0.999863 0.99816 0.996736
1.00007 1.00001 0.994535
1.00046 1.0031 0.990864
1.00014 1.00188 0.992574
1.00011 1.00369 0.990866
1.00503 0.99945 0.986017
1.00449 1.0004 0.986104
1.00509 0.999524 0.985818
1.0009 1.00459 0.98858
1.00377 1.00083 0.986955
1.00198 1.00351 0.98703
1.0002 0.999576 0.99472
1.00024 1.00059 0.993666
1.00027 0.999474 0.9947
1.00024 0.999524 0.994718
0.999981 0.997802 0.997284
0.999924 0.997975 0.997017
0.999783 0.996965 0.998305
0.999638 0.997105 0.999264
0.999542 0.997301 0.999252
0.999845 0.998828 0.996061
0.999551 0.99779 0.999081
0.99978 0.999156 0.995858
0.999535 0.998045 0.998995
0.999717 0.999584 0.995549
0.99954 0.998348 0.998845
1.00359 0.999923 0.98819
1.0036 0.999931 0.988161
1.00466 0.999584 0.986581
1.00476 0.999428 0.98656
1.00374 0.999823 0.988014
1.00138 1 0.992045
1.00374 0.999796 0.988028
1.0048 0.999331 0.986586
1.00468 0.999555 0.986591
1.00512 0.998685 0.986668
1.00469 0.999608 0.986503
1.00507 0.999031 0.986393
1.0048 0.999309 0.986608
1.00512 0.998585 0.986773
1.00508 0.998869 0.986526
1.00515 0.998015 0.987286
1.00508 0.999192 0.986204
1.00516 0.997978 0.987272
1.00371 0.999723 0.987901
1.00361 0.999814 0.9886
1.00474 0.999345 0.98688
1.00456 0.99955 0.987139
0.999752 1.00034 0.994745
1.00055 1.00247 0.991281
1.00176 1.00279 0.98864
1.00438 0.999617 0.987387
1.00496 0.998769 0.986795
1.00476 0.999247 0.986714
1.00375 1.00147 0.986206
1.00492 0.999139 0.986486
1.0003 1.00206 0.992034
1.00038 1.00284 0.991082
1.00017 1.00135 0.992995
1.00478 0.999365 0.986726
1.00472 0.99941 0.986849
1.00512 0.998713 0.986669
1.00503 0.998934 0.986627
1.00036 1.00228 0.991746
1.00112 1.00295 0.989771
1.00229 1.0034 0.986921
1.00491 0.998976 0.986778
1.00513 0.998046 0.987265
1.00434 1.00086 0.985901
1.00503 0.998615 0.98682
1.0051 0.998545 0.986861
1.00063 1.00265 0.990953
1.00059 1.00312 0.990577
1.00017 1.00092 0.993437
1.00024 1.00269 0.991464
1.00512 0.998719 0.986648
1.00513 0.998852 0.986653
1.00519 0.99818 0.98703
1.00517 0.997832 0.987427
1.0051 0.998233 0.987152
1.00516 0.997274 0.987962
1.00079 1.0026 0.99066
1.00512 0.997825 0.987419
1.00115 1.00383 0.988449
1.00312 1.00341 0.985676
1.00484 0.999972 0.985968
1.00515 0.998274 0.987009
1.00018 1.00061 0.993728
1.0002 1.00233 0.991911
1.00074 1.00285 0.990532
1.00034 1.00331 0.99081
1.00072 1.00297 0.990497
0.999756 0.998396 0.996672
1.00462 0.999737 0.986486
0.999992 1.00053 0.994131
1.00013 1.00208 0.992351
1.00011 1.0028 0.991698
1.00386 1.00068 0.986964
1.00497 0.999769 0.985793
1.00073 1.0034 0.989961
1.00159 1.00425 0.987774
1.00361 1.00123 0.987141
1.00261 1.00152 0.988304
0.999856 0.998159 0.996738
1.00007 0.99999 0.994545
1.00044 1.00309 0.990873
1.0001 1.00193 0.992581
1.00008 1.00378 0.990755
1.00504 0.999454 0.985994
1.00445 1.00041 0.986109
1.00509 0.999539 0.985786
1.00083 1.00468 0.988596
1.00378 1.00085 0.987016
1.00216 1.0034 0.9871
1.00015 0.999716 0.994683
1.00018 1.00115 0.993242
1.00049 1.00416 0.989763
0.999984 1.00313 0.991625
1.00018 1.00424 0.990284
1.00512 0.998909 0.986361
1.00466 1.0001 0.985953
1.00509 0.998545 0.986571
1.00094 1.00499 0.987945
1.00342 1.00182 0.986532
1.0002 0.999591 0.994717
1.00023 1.0006 0.993606
1.00023 1.00059 0.993631
1.00017 1.00129 0.993213
1.00025 1.00062 0.993629
1.00029 0.999496 0.994648
1.00027 0.999486 0.994698
1.00005 0.997674 0.997287
1.00023 0.999539 0.994714
0.99999 0.9978 0.997284
0.999888 0.996734 0.99833
0.999912 0.997967 0.997258
0.999756 0.996917 0.998792
0.999652 0.997063 0.999269
0.999912 0.998563 0.996214
0.999846 0.998851 0.996048
0.999609 0.997564 0.999121
0.99956 0.99782 0.999064
0.999774 0.9992 0.995839
0.999553 0.998076 0.998963
1.00469 0.999607 0.986498
1.00468 0.999558 0.986584
1.00507 0.999048 0.986388
1.00513 0.998625 0.986734
1.0048 0.999332 0.986585
1.00374 0.999794 0.988027
1.0048 0.999309 0.986609
1.00512 0.998591 0.986776
1.00508 0.998881 0.986523
1.00515 0.997917 0.987413
1.00508 0.999201 0.986188
1.00516 0.997876 0.987361
1.00511 0.998621 0.986771
1.00514 0.998023 0.987319
1.00514 0.997754 0.987566
1.00511 0.997376 0.988023
1.00515 0.998296 0.986915
1.00515 0.997197 0.988163
1.00478 0.99933 0.986624
1.00472 0.999407 0.986841
1.00512 0.998613 0.98672
1.00504 0.998963 0.986641
1.0004 1.00224 0.991745
1.00119 1.00293 0.989736
1.00217 1.0035 0.987152
1.00491 0.999069 0.986788
1.00512 0.997919 0.987385
1.00503 0.998617 0.98684
1.00433 1.00077 0.985781
1.00509 0.998508 0.986904
1.00062 1.00268 0.99096
1.00054 1.0032 0.990528
1.00017 1.00092 0.993428
1.00022 1.00263 0.991542
1.00512 0.998724 0.986651
1.00513 0.998885 0.986575
1.00519 0.998134 0.987081
1.00516 0.997918 0.987331
1.0008 1.00267 0.990636
1.00114 1.00375 0.988676
1.00304 1.00356 0.985628
1.00509 0.998334 0.987052
1.00516 0.997146 0.988062
1.00486 0.9998 0.985963
1.0051 0.997838 0.987442
1.00515 0.998193 0.98699
1.00077 1.00285 0.990529
1.00073 1.00296 0.990506
1.0003 1.00337 0.990799
1.00017 1.00061 0.993651
1.00019 1.00227 0.991976
1.00516 0.998057 0.987279
1.00518 0.997881 0.987359
1.00516 0.996765 0.988493
1.00511 0.997128 0.988068
1.00082 1.00317 0.990033
1.00511 0.997481 0.987863
1.00111 1.00443 0.987595
1.00396 1.00257 0.985141
1.00513 0.999054 0.986126
1.00017 1.00036 0.993805
1.00019 1.00192 0.992497
1.00017 1.00302 0.991439
1.00084 1.00281 0.990442
1.00041 1.00365 0.99036
1.00089 1.00268 0.990357
0.999849 0.99816 0.996741
1.00008 0.999964 0.994555
1.00505 0.999458 0.985971
1.00007 1.00197 0.992589
1.00039 1.00311 0.990882
1.00004 1.00389 0.990645
1.0044 1.00043 0.986115
1.00509 0.999553 0.985754
1.00077 1.00466 0.988612
1.00233 1.00334 0.987171
1.00379 1.00087 0.987079
1.00015 0.999718 0.994683
1.00016 1.00114 0.993256
1.00045 1.00417 0.98976
0.999954 1.00316 0.991625
1.00015 1.0042 0.990264
1.00512 0.998949 0.986339
1.00469 1.00012 0.985921
1.00509 0.998517 0.986664
1.00094 1.00495 0.987835
1.00346 1.00194 0.98646
1.00021 1.00075 0.993576
0.999976 1.00235 0.992267
1.00057 1.00439 0.989298
0.999923 1.00412 0.990584
1.00042 1.00409 0.989923
1.00511 0.99725 0.987929
1.00479 0.999757 0.986199
1.00507 0.998014 0.98709
1.00184 1.00436 0.987406
1.00366 1.00128 0.9861
1.00019 0.999607 0.994714
1.00024 1.00059 0.993647
1.00009 1.00136 0.993113
1.00023 1.00059 0.993597
1.00025 1.00063 0.993629
1.00013 1.00131 0.993158
1.00006 1.00175 0.992908
1.00014 1.00135 0.993062
1.00025 1.00069 0.993576
1.00028 0.999574 0.99459
1.00029 0.999507 0.994648
1.0001 0.997612 0.997255
1.00026 0.999497 0.994697
1.00005 0.997684 0.997282
0.999963 0.996596 0.99833
0.999998 0.997799 0.997285
0.999877 0.996707 0.998335
0.999726 0.996859 0.999288
0.999971 0.998308 0.996368
0.999913 0.998578 0.996203
0.999683 0.997319 0.999158
0.999845 0.998878 0.996035
0.999611 0.997607 0.999109
0.999571 0.997854 0.999046
1.00508 0.999211 0.986172
1.00509 0.998896 0.98652
1.00517 0.997773 0.98745
1.00515 0.997818 0.987541
1.00512 0.998598 0.986779
1.0048 0.999309 0.986611
1.00511 0.998662 0.986724
1.00514 0.998076 0.987268
1.00514 0.997808 0.987488
1.00511 0.997261 0.988111
1.00514 0.998322 0.986915
1.00515 0.997022 0.988247
1.00512 0.998134 0.987291
1.00512 0.99736 0.987983
1.00511 0.996801 0.988536
1.00513 0.996916 0.98845
1.00511 0.998729 0.986654
1.00513 0.998915 0.986497
1.0052 0.998092 0.987132
1.00515 0.998005 0.987235
1.00085 1.00269 0.990612
1.00113 1.00366 0.988903
1.00296 1.00372 0.985581
1.00508 0.998437 0.986952
1.00516 0.997022 0.988161
1.00509 0.997851 0.987465
1.00488 0.999628 0.985959
1.00516 0.998125 0.986973
1.0008 1.00286 0.990525
1.00077 1.0029 0.990516
1.00026 1.00343 0.990788
1.00017 1.00061 0.993573
1.00018 1.00221 0.99204
1.00516 0.998071 0.987264
1.00518 0.9979 0.987367
1.00516 0.996876 0.988372
1.00088 1.00318 0.989999
1.00126 1.00444 0.987766
1.00386 1.00254 0.985102
1.00512 0.997187 0.988054
1.00513 0.998872 0.986258
1.00512 0.997437 0.987732
1.00017 1.00033 0.993841
1.00088 1.00278 0.990422
1.00084 1.0026 0.99053
1.00042 1.00373 0.990291
1.00018 1.00301 0.991457
1.00018 1.00191 0.992434
1.00515 0.997608 0.987623
1.00516 0.99669 0.988538
1.00512 0.996181 0.988956
1.00512 0.996445 0.98882
1.00092 1.00355 0.989527
1.00511 0.997935 0.987274
1.00196 1.00459 0.986121
1.00452 1.00138 0.985252
1.00018 1.00005 0.994096
1.00019 1.00163 0.992793
1.00018 1.00265 0.991863
1.00013 1.00364 0.990842
1.00095 1.00276 0.990177
1.00095 1.00302 0.989989
1.00015 0.99972 0.994684
1.00015 1.00113 0.993271
1.00512 0.99899 0.986316
0.999928 1.00319 0.991625
1.00041 1.00424 0.989757
1.00007 1.0042 0.990243
1.00471 1.00014 0.985891
1.00509 0.998492 0.986756
1.00096 1.00493 0.987723
1.00351 1.00207 0.986388
1.00021 1.00073 0.993584
1.00001 1.00232 0.992308
1.00057 1.00442 0.989328
0.999868 1.00427 0.990575
1.0003 1.00394 0.990199
1.00512 0.997221 0.988099
1.00485 0.999777 0.986075
1.00507 0.998057 0.987106
1.00169 1.00448 0.987291
1.00372 1.0012 0.9863
1.00004 1.00162 0.992906
0.999862 1.00343 0.991262
1.00092 1.00414 0.988978
0.999969 1.00468 0.989513
1.00514 0.995837 0.989348
1.00507 0.996865 0.988482
1.00488 0.99947 0.986118
1.00238 1.00308 0.986215
1.00025 1.00056 0.993688
1.0001 1.00138 0.993131
0.999945 1.00202 0.992817
1.00024 1.00063 0.993628
1.00011 1.00132 0.993103
1.00025 1.00068 0.993573
1.00005 1.00174 0.992874
1.00014 1.00133 0.993086
1.00001 1.00204 0.99267
1.00011 1.00173 0.992785
1.00017 1.00139 0.992943
1.00025 1.00077 0.993485
1.00025 0.999652 0.994552
1.00028 0.999577 0.994589
1.00013 0.997607 0.997206
1.00028 0.999514 0.994649
1.0001 0.997638 0.997247
1.00002 0.996523 0.998304
1.00006 0.997696 0.997279
0.999956 0.996567 0.998336
0.999868 0.996682 0.998337
1.00003 0.998059 0.996518
0.999975 0.998315 0.996359
0.999762 0.997067 0.999197
0.999914 0.998596 0.996193
0.999679 0.997371 0.999146
0.999614 0.997642 0.999096
1.00514 0.998347 0.986916
1.00514 0.997863 0.987411
1.00516 0.996849 0.988332
1.0051 0.997149 0.988199
1.00515 0.99813 0.987216
1.00511 0.998704 0.986677
1.00512 0.998124 0.987279
1.00511 0.997395 0.987962
1.00511 0.996813 0.988499
1.00514 0.996869 0.98847
1.00511 0.997586 0.987802
1.00512 0.996492 0.988929
1.00515 0.996025 0.989108
1.00517 0.998085 0.987249
1.00518 0.997919 0.987375
1.00516 0.996988 0.988252
1.00094 1.00318 0.989966
1.00143 1.00443 0.987936
1.00375 1.00251 0.985062
1.00512 0.997245 0.988041
1.00513 0.997392 0.987601
1.00514 0.998693 0.98639
1.00092 1.00274 0.990403
1.00078 1.00254 0.990705
1.00044 1.0038 0.990223
1.00017 1.00029 0.993877
1.00018 1.00301 0.991476
1.00017 1.00189 0.992372
1.00515 0.997655 0.98765
1.00516 0.996664 0.988604
1.00512 0.996217 0.98897
1.00094 1.00357 0.989477
1.00182 1.00472 0.986454
1.00453 1.00114 0.985345
1.00511 0.996497 0.988758
1.00511 0.997909 0.987252
1.00018 1.00004 0.99421
1.00019 1.00163 0.992789
1.00085 1.00266 0.990253
1.00091 1.00296 0.990262
1.00016 1.0036 0.990819
1.00015 1.00269 0.991808
1.00518 0.996695 0.988534
1.00513 0.995602 0.989598
1.00511 0.995705 0.989493
1.00507 0.996715 0.988795
1.00089 1.00392 0.98867
1.00485 0.999522 0.986203
1.00299 1.00395 0.985756
1.00019 0.999819 0.994509
1.00014 1.00104 0.993397
1.00017 1.00141 0.99287
1.00012 1.00248 0.992038
1.00003 1.00338 0.991266
1.00007 1.00377 0.99062
1.0014 1.00137 0.990537
1.00081 1.00263 0.991227
1.0002 1.00072 0.993593
1.00004 1.0023 0.992348
1.00513 0.997195 0.988269
0.999892 1.00433 0.990566
1.00056 1.00446 0.98936
1.00015 1.00382 0.990475
1.0049 0.999773 0.985949
1.00507 0.998094 0.987124
1.00154 1.00455 0.987179
1.00376 1.00107 0.986501
1.00006 1.00164 0.992855
0.999911 1.00347 0.991264
1.00083 1.0042 0.98903
1.00016 1.00464 0.989633
1.00515 0.995789 0.989432
1.00507 0.996965 0.988283
1.00482 0.999451 0.986221
1.00274 1.00314 0.986121
0.999891 1.00252 0.992394
1.00516 0.995136 0.989881
1.00001 1.00457 0.990392
1.00101 1.00477 0.988094
1.00508 0.995766 0.989667
1.00499 0.998103 0.98692
1.00405 1.00181 0.985644
1.0001 1.0014 0.993149
0.999944 1.00201 0.992806
0.999834 1.00255 0.992504
1.00025 1.00066 0.993571
1.00015 1.00132 0.993109
1.00002 1.00175 0.992841
1.00025 1.00076 0.993479
1.00016 1.00139 0.99296
0.999986 1.00207 0.99263
1.00012 1.00169 0.992824
1.00003 1.00217 0.992448
1.0001 1.00194 0.992565
1.00016 1.00179 0.992662
1.00027 1.00141 0.992798
1.00026 1.00086 0.993378
1.00023 0.999719 0.994528
1.00025 0.999658 0.994552
1.00015 0.997622 0.997156
1.00028 0.999584 0.994589
1.00013 0.997634 0.997199
1.00006 0.996479 0.998272
1.00011 0.997661 0.997239
1.00002 0.996485 0.998311
0.999948 0.996539 0.99834
1.00018 0.999666 0.994684
1.00007 0.997851 0.996645
1.00003 0.998065 0.996509
0.999839 0.99684 0.999231
0.999979 0.998325 0.996349
0.999755 0.997122 0.999185
0.999676 0.997421 0.999134
1.00514 0.996822 0.98849
1.00511 0.996823 0.988461
1.00509 0.997426 0.987941
1.00513 0.998113 0.987267
1.00511 0.997539 0.987871
1.00512 0.996501 0.98888
1.00514 0.996035 0.9891
1.00516 0.996581 0.988665
1.00518 0.995467 0.989796
1.00512 0.994904 0.990257
1.00515 0.997701 0.987677
1.00516 0.996635 0.988669
1.00512 0.996248 0.988984
1.00096 1.00363 0.989428
1.00167 1.00485 0.986787
1.00452 1.00089 0.985439
1.00511 0.996551 0.988696
1.0051 0.997863 0.98723
1.00076 1.00258 0.990328
1.00089 1.0029 0.990529
1.00011 1.00367 0.990797
1.00018 1.00002 0.994324
1.00019 1.00162 0.992785
1.00012 1.00274 0.991753
1.00518 0.996599 0.988657
1.00019 0.99982 0.994507
1.00013 1.00105 0.993348
1.00512 0.995666 0.989588
1.0051 0.995679 0.989445
1.00076 1.00405 0.988993
1.00288 1.00393 0.985708
1.00473 0.999519 0.986199
1.00498 0.996676 0.988674
1.00017 1.00139 0.993025
1.00013 1.00246 0.992028
1.00155 1.00164 0.990237
1.00051 1.00244 0.991546
1.00005 1.00385 0.990609
1.00004 1.00335 0.991288
1.00517 0.995449 0.989744
1.00511 0.995159 0.990038
1.00508 0.995232 0.98976
1.00505 0.996819 0.988173
1.00123 1.00316 0.989186
1.00369 1.00274 0.985742
1.00013 1.00088 0.993449
1.00015 1.00121 0.993214
1.00006 1.00207 0.992644
1.00008 1.00246 0.99195
1.00002 1.00319 0.991633
1.00001 1.00379 0.990703
0.99966 1.00445 0.990761
1.00081 1.00132 0.991739
1.00008 1.00166 0.992804
0.999965 1.00349 0.991268
1.00515 0.995729 0.989517
1.00507 0.997082 0.988084
1.00033 1.00463 0.989752
1.00077 1.00425 0.989079
1.00477 0.999451 0.986323
1.00312 1.00326 0.986026
0.999894 1.00252 0.992362
1.00517 0.995106 0.989924
0.999894 1.00448 0.990483
1.00101 1.00466 0.98805
1.00508 0.99569 0.989544
1.00496 0.998077 0.987145
1.00395 1.00203 0.985685
0.999836 1.00374 0.991442
1.00494 0.995101 0.991095
1.00062 1.00474 0.989664
1.00204 1.00452 0.987304
1.00487 0.996617 0.988823
1.00388 1.0006 0.986637
0.999641 0.998729 0.99242
0.99994 1.00201 0.992795
0.999819 1.00257 0.992488
0.999972 1.00276 0.99211
1.00026 1.00075 0.993473
1.00016 1.0014 0.992978
1.00013 1.00166 0.992863
0.999976 1.00209 0.99259
1.00026 1.00085 0.993373
1.00025 1.00141 0.992796
1.00004 1.00223 0.992397
1.00016 1.0018 0.99266
1.00012 1.00193 0.992592
1.00016 1.00198 0.992442
1.00022 1.00186 0.992451
1.00022 1.00175 0.992574
1.00035 1.00147 0.992595
1.00029 1.00091 0.993185
1.00026 1.00143 0.99289
1.00027 1.00092 0.99319
1.00022 0.999753 0.994506
1.00023 0.999722 0.994527
1.00018 0.99768 0.996615
1.00025 0.999664 0.994551
1.00017 0.997656 0.996899
1.00003 0.996422 0.999258
1.00013 0.997665 0.997192
1.00006 0.996439 0.998279
1.00001 0.996449 0.998316
1.00016 0.999547 0.99483
1.00018 0.999661 0.994682
1.00011 0.99769 0.996751
1.00007 0.997852 0.996891
0.999906 0.996646 0.999261
1.00004 0.998072 0.9965
0.99983 0.996886 0.999221
0.999748 0.997176 0.999172
1.00513 0.996045 0.989093
1.00511 0.996507 0.98883
1.0051 0.997493 0.98794
1.00516 0.996573 0.988656
1.00518 0.995503 0.989683
1.00511 0.994912 0.990201
1.00518 0.995105 0.989986
1.00074 0.998911 0.988465
1.00477 0.994966 0.991773
1.00011 1.0008 0.993712
1.00518 0.996504 0.98878
1.00512 0.995734 0.989578
1.0051 0.995651 0.989396
1.00064 1.00416 0.989316
1.00278 1.00392 0.985661
1.0046 0.999535 0.986195
1.0049 0.996661 0.988551
1.00172 1.00183 0.989944
1.00019 1.00227 0.991877
1.00009 1.00387 0.990599
1.00019 0.999822 0.994506
1.00006 1.00331 0.99131
1.00019 1.00137 0.993179
1.00012 1.00246 0.992019
1.00012 1.00106 0.993298
1.00517 0.995291 0.989889
1.00013 1.00086 0.993539
1.00016 1.0012 0.993212
1.00008 1.00206 0.992536
1.00512 0.995143 0.990042
1.00508 0.995361 0.989612
1.00132 1.00297 0.989252
1.00328 1.00252 0.985909
1.00496 0.997064 0.988154
1.0001 1.00245 0.992019
1.00003 1.00316 0.99156
1.00074 1.0017 0.991428
0.999723 1.00433 0.990893
1.00006 1.00373 0.990764
1.0051 0.994967 0.99044
1.0051 0.995402 0.989896
1.00509 0.995845 0.989144
1.00402 0.999705 0.987924
1.00092 1.00312 0.989851
1.00009 1.00186 0.992542
1.00007 1.00226 0.992182
0.999974 1.0029 0.991903
0.999996 1.00334 0.991404
0.999886 1.00374 0.991065
0.999749 1.00455 0.990492
0.999755 1.00462 0.99047
0.999901 1.00253 0.99233
0.999784 1.00435 0.990575
1.00517 0.995083 0.989966
1.00507 0.995605 0.989421
1.00495 0.998023 0.987371
1.00102 1.00453 0.988008
1.00386 1.00223 0.985727
0.99979 1.00362 0.991606
1.00489 0.99505 0.991088
1.00033 1.00457 0.989824
1.00167 1.00464 0.987358
1.00489 0.996382 0.98904
1.00397 1.00053 0.986566
0.9996 0.998712 0.9907
0.999978 1.004 0.990938
1.00449 0.995522 0.991629
1.00031 1.00467 0.989721
1.00207 1.0033 0.987526
1.00417 0.99771 0.988027
1.00103 0.995389 0.958849
0.995957 0.998302 0.977312
0.998674 1.00074 0.992394
0.999866 0.99671 0.929845
0.994931 0.998128 0.918502
0.999815 1.00258 0.992473
0.999881 1.00281 0.992185
0.999999 1.00231 0.992469
1.00026 1.00085 0.993368
1.00026 1.00138 0.992794
1.00016 1.0018 0.992659
1.00013 1.00192 0.992619
1.00005 1.00228 0.992346
1.00024 1.00173 0.99254
1.00028 1.00091 0.993244
1.00035 1.00146 0.992617
1.00016 1.002 0.992436
1.00021 1.00188 0.992469
1.00026 1.00182 0.992408
1.00019 1.00163 0.99265
1.00034 1.00177 0.992364
1.0004 1.00152 0.99242
1.00029 1.00094 0.993152
1.00035 1.00149 0.992631
1.00029 1.00164 0.992601
1.00016 1.00147 0.992936
1.00026 1.00144 0.992829
1.00026 1.00085 0.993375
1.00027 1.00093 0.993182
1.00023 0.999753 0.994488
1.00022 0.999752 0.994506
1.00017 0.997737 0.996597
1.00023 0.999723 0.994527
1.00018 0.997684 0.996615
1.00004 0.996421 0.999252
1.00018 0.997688 0.996642
1.00006 0.996422 0.998752
1.00006 0.9964 0.998283
1.00015 0.999468 0.994933
1.00016 0.999548 0.994828
1.00013 0.997565 0.996831
1.00018 0.999659 0.994679
1.0001 0.997668 0.996997
0.99996 0.996484 0.999285
1.00008 0.997879 0.996617
0.999896 0.996721 0.999246
0.999822 0.996932 0.999211
1.00518 0.995542 0.98957
1.00515 0.996568 0.988648
1.00512 0.99492 0.990146
1.00077 0.998171 0.988575
1.00517 0.995105 0.989981
1.00476 0.995242 0.99161
1.00493 0.995997 0.990733
0.997106 0.998818 0.974704
1.00198 0.996427 0.989944
1.0001 1.00076 0.993761
1.00012 1.00078 0.993709
1.00003 1.00181 0.992815
1.00008 1.0016 0.992946
1.00518 0.995138 0.990035
1.00513 0.995113 0.990045
1.0051 0.995493 0.989464
1.00146 1.00278 0.989318
1.00288 1.00226 0.986074
1.00486 0.99737 0.988136
1.00064 1.00217 0.991105
0.999801 1.00421 0.991023
1.0001 1.00368 0.990824
1.00016 1.00121 0.99321
1.00005 1.00312 0.991487
1.0001 1.00246 0.992089
1.00012 1.00085 0.993628
1.00009 1.00206 0.992427
1.00505 0.994961 0.990417
1.00008 1.0019 0.992663
1.00008 1.00224 0.992258
0.999952 1.0028 0.991985
1.00508 0.995274 0.989936
1.0051 0.995704 0.989128
1.0011 1.0029 0.989817
1.00399 0.999722 0.987937
1 1.00338 0.991405
0.999915 1.00372 0.991068
0.999785 1.0046 0.990476
0.999906 1.00451 0.990478
1.00503 0.995937 0.989946
1.00507 0.995221 0.990078
1.00425 0.997984 0.988861
1.00113 1.0027 0.990065
1 1.00295 0.991691
0.999987 1.00317 0.991502
0.999754 1.00425 0.990836
0.999829 1.00514 0.989714
1.00041 0.994964 0.954148
0.999733 1.00354 0.99177
1.00001 1.00445 0.989983
1.00484 0.994994 0.991075
1.00492 0.99616 0.989256
1.00402 1.00043 0.986494
1.00126 1.00472 0.987409
0.99962 0.998648 0.988946
0.999831 1.00402 0.991086
1.00452 0.995418 0.99158
1.0002 1.00464 0.989777
1.00208 1.00319 0.987506
1.00438 0.997729 0.988143
1.0015 0.995676 0.954052
0.995635 0.998531 0.973499
0.998671 1.00066 0.992399
0.999364 0.997098 0.931797
0.994676 0.998133 0.912405
0.999739 1.00369 0.991747
0.999895 0.995187 0.93485
0.995021 0.99918 0.919944
1.00375 0.997432 0.99111
0.999946 1.00466 0.990229
1.00254 1.00139 0.988018
0.997843 1.00145 0.993676
0.999474 0.996867 0.958426
0.994853 0.998708 0.97197
0.998346 0.998492 0.933544
0.994705 0.999829 0.921386
0.999785 1.00287 0.99226
0.999936 1.00247 0.99242
0.999926 1.00126 0.99381
1.00027 1.00089 0.993303
1.00034 1.00146 0.992639
1.00021 1.00177 0.992507
1.0002 1.00189 0.992488
1.00015 1.00203 0.992431
1.00029 1.00094 0.993152
1.00025 1.00186 0.992389
1.00033 1.00177 0.992388
1.0004 1.00151 0.992488
1.0002 1.00158 0.992711
1.00032 1.00178 0.992381
1.00027 1.00095 0.993171
1.00043 1.00179 0.992162
1.0004 1.00152 0.992511
1.00036 1.00148 0.992623
1.00029 1.00164 0.992599
1.00042 1.00162 0.992358
1.00016 1.00175 0.99267
1.00021 1.00163 0.992631
0.999862 1.00248 0.992414
1.00006 1.00159 0.992988
1.00015 1.00149 0.992937
1.00023 1.00083 0.993443
1.00027 1.00146 0.992768
1.00026 1.00087 0.99333
1.00025 0.999732 0.994487
1.00028 1.00094 0.993174
1.00024 0.999747 0.994489
1.00012 0.99777 0.997116
1.00022 0.999751 0.994506
1.00016 0.997727 0.996857
1.00009 0.996448 0.998216
1.00018 0.997689 0.996614
1.00004 0.996427 0.99925
1.00009 0.996424 0.998246
1.00012 1.0008 0.993689
1.00015 0.999436 0.994964
1.00015 0.999467 0.994932
1.00015 0.997489 0.99688
1.00016 0.999547 0.994826
1.00014 0.99755 0.99683
1 0.996367 0.999301
1.00009 0.997678 0.997227
0.999973 0.99655 0.998785
0.999938 0.996761 0.998235
1.00072 0.997427 0.988705
1.00517 0.995104 0.989976
1.00475 0.995528 0.991446
0.996504 0.998171 0.976369
1.00177 0.996763 0.990182
1.00496 0.995514 0.990625
1.00411 0.99596 0.990304
0.997977 0.996461 0.978978
1.00024 0.995496 0.957307
0.998956 0.997377 0.934882
0.994624 0.998171 0.917314
1.00002 1.00171 0.992801
1.00011 1.00076 0.993758
1.00013 1.00077 0.993706
1.00005 1.00181 0.992782
0.999999 1.00249 0.992219
1.00016 1.00212 0.992367
1.00011 1.00173 0.992817
1.00005 1.00169 0.992881
1.00504 0.994947 0.990393
1.0051 0.995122 0.989972
1.00509 0.995506 0.989116
1.00123 1.00268 0.989785
1.00397 0.999664 0.98795
0.999814 1.00456 0.990484
1.00006 1.00446 0.990466
0.99995 1.0037 0.991071
1.00009 1.00223 0.992333
0.999997 1.00343 0.991405
1.00008 1.00194 0.992784
0.999952 1.00267 0.992067
1.005 0.995664 0.989962
0.999986 1.00293 0.991771
0.999974 1.0032 0.99156
1.00503 0.995177 0.989958
1.00387 0.997654 0.989218
1.0013 1.00257 0.989912
0.999818 1.00428 0.990789
0.999969 1.0051 0.989725
1.00318 1.00017 0.989872
1.00445 0.99607 0.990896
1.00226 0.999062 0.990214
1.00056 1.00327 0.990276
0.999981 1.00326 0.991365
0.999853 1.00395 0.991023
0.999738 1.00496 0.990224
0.99996 0.99487 0.933832
1.00095 0.994987 0.960955
0.999706 1.00403 0.991234
1.0001 1.00456 0.989834
1.00451 0.995257 0.991538
1.00458 0.997779 0.988257
1.00212 1.00316 0.987488
1.00045 0.995145 0.956886
0.99602 0.998842 0.973426
0.998642 1.00043 0.992398
0.998444 0.996939 0.936953
0.994595 0.998147 0.906284
0.999672 1.00363 0.99177
0.999909 0.995603 0.933443
0.995123 0.999082 0.916931
1.00379 0.997347 0.991074
0.999864 1.00458 0.99035
1.00212 1.00135 0.988712
0.998154 1.00115 0.994366
1.00058 0.99684 0.954688
0.995237 0.99819 0.97507
0.998136 0.998982 0.934052
0.994862 0.999807 0.919422
0.999263 1.00321 0.993123
0.995135 0.998958 0.922031
0.994937 1.00224 0.93655
1.00062 0.999701 0.99365
0.999211 1.00417 0.992453
0.996803 1.00256 0.994983
0.994884 0.999739 0.977068
0.997216 0.999007 0.952915
0.995391 0.999883 0.937945
0.994661 0.99952 0.928613
0.999907 1.00259 0.992371
0.999941 1.00135 0.993683
0.999682 0.999773 0.995355
1.00029 1.00093 0.993153
1.00039 1.0015 0.992556
1.00031 1.00176 0.992412
1.00026 1.0019 0.99237
1.0002 1.00155 0.992772
1.0004 1.00153 0.992507
1.00032 1.0018 0.992383
1.00044 1.0018 0.99216
1.00015 1.00092 0.993367
0.999771 1.00032 0.994744
1.00041 1.00154 0.992464
1.00051 1.00173 0.992138
1.00037 1.00147 0.992615
1.0003 1.00162 0.992596
1.00042 1.00162 0.992353
1.00017 1.00175 0.992663
1.00021 1.00162 0.992675
1.00002 1.00198 0.99266
1.00031 1.00157 0.992481
1.00007 1.00166 0.992884
1.00003 1.00269 0.991956
0.999668 1.0047 0.990317
0.999695 1.00318 0.991853
0.999861 1.00255 0.992393
0.999977 1.0018 0.992912
1.00006 1.0016 0.992984
1.00019 1.00084 0.993495
1.00015 1.00151 0.992939
1.00023 1.00083 0.993446
1.00025 0.999706 0.994508
1.00027 1.00087 0.993285
1.00025 0.999718 0.994489
1.00009 0.997811 0.997129
1.00024 0.999739 0.99449
1.00014 0.997762 0.996861
1.00006 0.996465 0.998225
1.00017 0.997713 0.996598
1.00003 0.996452 0.999246
1.00004 0.996431 0.999248
1.00016 1.00089 0.99373
1.00016 0.999479 0.994902
1.00012 1.0008 0.993689
1.00016 0.99746 0.996895
1.00015 0.999435 0.994963
1.00015 0.999468 0.994931
1.00015 0.99749 0.996877
1.00003 0.996303 0.99931
1.00011 0.997545 0.997304
1.00002 0.99639 0.998816
1.00001 0.996547 0.998306
0.999901 0.995734 0.930064
0.995236 0.998662 0.920208
0.99765 0.997524 0.977278
1.00156 0.997065 0.990422
1.00499 0.994998 0.990519
0.997153 0.996434 0.981146
1.00409 0.995869 0.990397
1.00115 0.995503 0.957436
0.999802 0.996414 0.930117
0.994609 0.998148 0.911041
0.998578 0.997561 0.984366
0.999106 0.99713 0.959079
0.998323 0.99852 0.932458
0.994737 0.999793 0.919534
1.00011 1.00245 0.992033
1.00004 1.0017 0.99286
1.00012 1.00074 0.993755
1.00005 1.00179 0.992749
0.999995 1.0024 0.992312
1.0002 1.00224 0.99217
1.00017 1.00208 0.992356
1.00017 1.00184 0.992537
1.00011 1.00173 0.992754
1.00003 1.00175 0.992816
1.00495 0.995268 0.989982
1.00498 0.995163 0.989849
1.00348 0.997308 0.989579
1.00144 1.00248 0.98976
1.00012 1.00505 0.989736
0.999906 1.0043 0.990742
0.999956 1.00323 0.991618
0.999956 1.00292 0.991851
1.00341 0.998923 0.990065
0.999982 1.00329 0.991359
0.999874 1.00396 0.990949
1.00432 0.9959 0.990634
1.00198 0.999298 0.990745
1.00074 1.00339 0.989855
0.999898 1.0049 0.990121
1.00024 1.00062 0.993011
1.00156 0.998416 0.993653
0.99974 1.00416 0.990581
1.00003 1.00315 0.99144
0.999967 1.00377 0.990864
0.999896 1.00446 0.990443
0.994796 0.998939 0.931686
0.99994 0.995185 0.936315
1.00049 0.994939 0.954002
0.99958 1.00368 0.991794
0.999786 1.00449 0.990474
1.00385 0.997239 0.991038
1.00171 1.00152 0.989406
0.999905 0.995338 0.937086
0.999005 0.996812 0.955054
0.994897 0.997619 0.971991
0.998525 1.00017 0.994993
0.998276 0.998616 0.928574
0.995119 0.998958 0.917681
0.994997 0.999808 0.921606
0.999118 1.00322 0.993133
0.995137 0.998866 0.925353
0.995116 1.00237 0.936001
1.00092 0.999599 0.993726
0.998768 1.00442 0.992443
0.996533 1.00049 0.9976
0.995052 0.99909 0.974625
0.997381 0.999109 0.958812
0.997509 0.999898 0.932673
0.994663 0.999492 0.931315
0.998012 1.00226 0.996039
0.994886 1.00091 0.945727
0.994383 1.00184 0.94971
0.996315 1.00234 0.998813
0.994929 0.99999 0.983695
0.995496 1.00004 0.958298
0.994828 0.999927 0.932982
0.994761 0.998565 0.928788
0.999932 1.00142 0.99356
0.999758 0.999766 0.995472
0.999323 0.999277 0.996868
1.00039 1.00154 0.992503
1.00044 1.00182 0.992158
1.00032 1.0018 0.992385
1.00004 1.00087 0.993563
1.00048 1.00175 0.992135
1.0004 1.00157 0.992439
0.999732 1.00007 0.995004
0.998675 0.999992 0.996976
0.999969 1.00103 0.993877
1.00044 1.00165 0.99227
1.00043 1.00162 0.992349
1.00017 1.00174 0.992655
1.00021 1.00162 0.992718
1.00031 1.00159 0.992501
1.00002 1.00201 0.99265
1.00009 1.00168 0.992872
1.00006 1.00191 0.992741
0.99986 1.00153 0.993364
1.00017 1.00203 0.992259
1.00005 1.00259 0.992066
0.999745 1.00404 0.990988
1.00048 1.00497 0.988898
0.999807 1.00404 0.991237
0.999616 1.00472 0.990496
0.999733 1.00318 0.991961
0.999884 1.00223 0.992503
0.999863 1.0026 0.992372
0.999997 1.00181 0.992901
1.00015 1.0009 0.993496
1.00008 1.0016 0.99298
1.0002 1.00084 0.993494
1.00022 0.999734 0.994533
1.00024 1.00084 0.993449
1.00025 0.999704 0.994509
1.00005 0.997862 0.997149
1.00026 0.999711 0.994491
1.0001 0.997805 0.996878
1 0.996551 0.998237
1.00015 0.99774 0.996604
1.00003 0.996482 0.998734
1.00002 0.996467 0.999246
1.00018 1.001 0.993418
1.00018 0.999551 0.994804
1.00013 1.0009 0.993592
1.00015 0.997484 0.996874
1.00016 0.999472 0.994906
1.0001 1.00082 0.993687
1.00003 0.996286 0.999313
1.00016 0.99746 0.996896
1.00015 0.999429 0.994963
1.00015 0.99749 0.996875
1.00002 0.996313 0.999308
0.999999 0.996388 0.999296
0.99482 0.997917 0.927811
0.999921 0.995349 0.932821
0.995169 1.00243 0.93588
0.995213 0.998951 0.918184
0.99802 0.996445 0.977538
1.00403 0.996208 0.990485
1.0008 0.995849 0.957368
0.999888 0.996755 0.935659
0.994604 0.998141 0.904787
0.998474 0.997421 0.983053
1.00085 0.996778 0.951796
0.998475 0.99876 0.932766
0.994715 0.999814 0.916155
0.994933 1.00056 0.979551
0.998458 0.999835 0.951776
0.995869 0.999807 0.930268
0.994692 0.999156 0.923539
1.00014 1.00275 0.991733
1.00009 1.00245 0.992117
1.00003 1.00175 0.992919
0.999997 1.00233 0.992405
1.00028 1.00232 0.991847
1.00019 1.00222 0.992212
1.00015 1.00207 0.992345
1.00027 1.00177 0.992517
1.0002 1.0018 0.992605
1.00012 1.00174 0.992691
1.00359 0.997797 0.990265
1.00422 0.995808 0.990376
1.00177 0.999597 0.991271
1.00096 1.00345 0.98944
0.999984 1.00496 0.990018
0.999902 1.00395 0.990876
1.00002 1.00327 0.991354
1.00003 1.00314 0.99149
1.00054 1.0001 0.993274
1 1.00382 0.99089
0.999972 1.00444 0.990447
1.00161 0.998497 0.993291
1.00015 1.00391 0.990473
0.998808 0.997992 0.995773
0.998916 0.999512 0.997795
0.999824 1.00331 0.991263
1.00012 1.00322 0.991251
1.00011 1.00434 0.990109
0.994494 1.0005 0.950955
0.994779 0.999369 0.930621
0.999925 0.995586 0.931487
0.99899 1.00325 0.993136
0.998427 1.00439 0.992418
1.00114 0.999536 0.993811
0.995073 0.998658 0.926834
0.997931 0.999084 0.953075
0.994882 0.998604 0.975483
0.996393 0.999792 1.00041
0.996068 0.999654 0.937526
0.995346 1.00252 0.935464
0.994657 0.99948 0.931406
0.998094 1.0021 0.996224
0.994892 1.00024 0.948102
0.99442 1.00196 0.949493
0.996517 1.00285 0.998412
0.994898 1.00001 0.984207
0.996428 1.00001 0.952692
0.994732 0.998777 0.930491
0.995021 0.999965 0.936653
0.996975 1.00238 0.998249
0.994121 1.00007 0.968157
0.994466 1.00033 0.952878
0.9947 0.999155 0.923732
0.994965 1.00171 0.995101
0.996196 0.999462 0.96031
0.994767 0.999983 0.936302
0.99991 0.999707 0.995583
0.999338 0.999353 0.996685
0.998113 0.999995 0.998385
1.00046 1.00176 0.992132
1.00038 1.0016 0.992414
0.99968 0.999862 0.995267
1.00041 1.00165 0.992296
0.999951 1.00097 0.993868
0.998835 0.999853 0.996862
0.998228 1.00031 0.997395
0.999843 1.00153 0.993497
1.0003 1.00162 0.992522
1.00001 1.00204 0.992639
1.00012 1.00169 0.992861
0.999931 1.00153 0.993313
1.00007 1.00183 0.992776
0.999547 1.00219 0.99331
0.999878 1.00223 0.992599
1.00015 1.00367 0.990518
1.00008 1.00249 0.992177
0.999983 1.00398 0.990862
1.00055 1.00476 0.988558
1.00056 1.00494 0.988564
0.999904 1.00451 0.990453
1.00037 1.00492 0.988983
0.999912 1.00293 0.991962
0.999783 1.00407 0.991122
0.999562 1.00473 0.990676
0.999771 1.00319 0.992069
0.999904 1.0022 0.99259
1.00012 1.00108 0.993378
1.00001 1.00182 0.99289
1.00017 1.00091 0.993491
1.00017 0.999801 0.994552
1.00021 1.00084 0.993493
1.00023 0.999723 0.994534
0.999982 0.997941 0.997176
1.00026 0.999694 0.99451
1.00006 0.997861 0.996903
0.999936 0.996655 0.998255
1.00012 0.99778 0.996623
0.999983 0.996561 0.998741
0.999993 0.996525 0.999249
1.00024 1.00109 0.993051
1.00019 0.999695 0.994453
1.00018 1.00101 0.993418
1.00015 0.997563 0.996809
1.00018 0.999559 0.994702
1.00012 1.00091 0.993455
1.00002 0.996321 0.999306
1.00015 0.997483 0.996877
1.00016 0.999463 0.99491
1.00003 0.996287 0.999312
1.00016 0.99746 0.996896
1.00002 0.996324 0.999306
0.994639 0.999829 0.949505
0.994854 0.99808 0.929379
0.999896 0.995727 0.933707
1.00033 1.00174 0.99237
0.99439 1.00148 0.952295
0.995226 1.00249 0.935392
0.995245 0.999088 0.920028
0.998683 0.99758 0.981518
0.999532 0.997765 0.958615
0.998406 0.998637 0.927213
0.994696 0.999859 0.917213
0.995496 0.999642 0.975757
0.997648 0.999312 0.957447
0.997339 0.999897 0.933205
0.994704 0.999356 0.924136
0.995251 0.999537 0.97167
0.99551 1.00098 0.956693
0.994808 0.999939 0.936597
0.994744 0.998492 0.928836
1.00025 1.00273 0.991512
1.00013 1.00278 0.991701
1.0001 1.00242 0.992201
1.00029 1.0022 0.991956
1.00029 1.0023 0.991927
1.00018 1.0022 0.992253
1.00028 1.00178 0.992526
1.00023 1.00178 0.992673
1.00085 0.999846 0.99351
1.00163 0.998577 0.992915
1.00002 1.00313 0.99154
1.00057 1.00375 0.990359
1.00009 1.0043 0.99045
0.999967 1.00393 0.990915
1.00012 1.00326 0.991258
0.998778 0.998791 0.996163
1.00013 1.00408 0.990375
1.00017 1.00308 0.991293
0.999021 0.998925 0.997781
1.00016 1.00285 0.991562
0.997341 0.999163 0.99656
0.997551 1.00034 0.999793
1.00006 1.00322 0.991165
1.00011 1.00328 0.991267
0.994047 1.00042 0.971525
0.994484 1.00094 0.951558
0.994776 0.999665 0.929591
0.998069 1.00205 0.996432
0.996601 1.00298 0.997985
0.994959 0.999798 0.950438
0.995612 1.00022 0.959191
0.994893 0.999097 0.980373
0.995097 0.999965 0.935883
0.994438 1.00207 0.94929
0.9947 0.998964 0.932188
0.997087 1.00232 0.998091
0.994102 1.00019 0.968121
0.994398 1.0004 0.957028
0.995207 1.00268 0.997953
0.994712 0.999334 0.924209
0.995319 0.999381 0.957042
0.995113 0.999964 0.93805
0.996538 1.00304 0.998493
0.994085 0.998776 0.974385
0.994396 1.0015 0.952479
0.994743 0.999774 0.91977
0.995465 0.999916 0.935764
0.995531 0.999355 0.989824
0.996462 1.00063 0.950634
0.999311 0.999404 0.996493
0.997981 1.00059 0.998062
0.996246 1.00066 1.00132
1.00037 1.00166 0.992322
0.999932 1.00088 0.993859
0.999014 0.999618 0.996735
0.999852 1.00152 0.993453
0.998345 1.00004 0.997497
0.998127 1.00314 0.994874
1 1.00152 0.993261
1.00006 1.00176 0.992811
0.999726 1.00228 0.993177
0.999295 1.0043 0.991371
0.999566 1.00243 0.992935
0.999956 1.00359 0.990855
1.00075 1.00485 0.98849
1.00197 1.00444 0.986613
1.00022 1.00393 0.990735
1.00072 1.00479 0.988372
1.00108 1.00443 0.988685
0.999909 1.00486 0.989674
1.00059 1.00484 0.988729
0.999878 1.00365 0.991284
0.999941 1.00448 0.99044
1.00027 1.00488 0.989068
1.00007 1.00154 0.993017
0.999895 1.00291 0.991932
0.99976 1.00411 0.991006
0.999926 1.00217 0.992678
1.00013 1.0011 0.993365
1.00011 0.99993 0.994534
1.00018 1.00091 0.993486
1.00018 0.99979 0.994552
0.999927 0.998071 0.996691
1.00023 0.999713 0.994535
1.00001 0.997941 0.996682
0.999807 0.996768 0.999269
1.00007 0.99784 0.996652
0.99992 0.99666 0.998751
0.999945 0.996605 0.999253
1.00028 1.00113 0.992943
1.00023 0.999851 0.994227
1.00025 1.00109 0.993131
1.00013 0.997695 0.996706
1.0002 0.999702 0.994424
1.00019 1.00101 0.993418
0.999999 0.996411 0.999289
1.00014 0.997562 0.996814
1.00017 0.999569 0.994599
1.00003 0.996311 0.999309
1.00015 0.997482 0.99688
1.00003 0.996287 0.999312
0.994054 0.999551 0.969053
0.994597 1.00069 0.949291
0.994889 0.998656 0.929517
1.00031 1.00176 0.992418
1.0003 1.00171 0.992422
1.0003 1.00207 0.992148
0.994467 0.999914 0.953017
0.994413 1.0014 0.952101
0.995252 1.0028 0.934908
0.995043 0.999999 0.978081
0.998169 0.999954 0.951168
0.995211 0.999914 0.938095
0.994712 0.999551 0.921992
0.99551 0.999157 0.974655
0.996367 1.00005 0.955536
0.994889 0.999964 0.93827
0.99472 0.998686 0.930522
0.994889 0.999315 0.971317
0.995873 1.00005 0.958326
0.99474 1.00001 0.936598
0.994666 0.999414 0.928545
1.00033 1.00245 0.991654
1.00026 1.00272 0.991503
1.00013 1.00281 0.991669
1.00031 1.0022 0.991942
1.00029 1.00228 0.992007
1.0003 1.00178 0.992536
0.998734 0.999248 0.996541
0.998892 0.998469 0.997777
1.00015 1.00329 0.991266
1.00049 1.00268 0.991324
1.00005 1.00398 0.990641
1.00023 1.00281 0.99146
1.00001 1.00333 0.991385
0.997351 0.998944 0.996916
0.999925 1.00321 0.991721
0.997338 1.00032 0.999787
1.00006 1.00263 0.992058
0.995809 0.998621 0.997614
0.997309 1.00228 0.998255
0.999459 1.00274 0.993139
0.994017 0.99989 0.978907
0.993987 1.00016 0.973321
0.994452 1.00127 0.952118
0.997313 1.00231 0.997925
0.99591 1.00255 0.995696
0.994079 1.00028 0.968081
0.995236 0.999383 0.962037
0.994778 0.999967 0.934157
0.994348 1.00047 0.961174
0.994715 0.999512 0.92225
0.996167 1.00349 0.99875
0.994045 0.998624 0.975876
0.994421 1.00136 0.95229
0.994965 0.999492 0.985429
0.994715 0.999781 0.916548
0.995099 0.999925 0.937152
0.995591 1.00059 0.957336
0.995091 1.00252 1.00004
0.994057 0.999226 0.969517
0.995067 1.00233 0.936474
0.994591 0.998161 0.918176
0.995892 0.999069 0.930322
0.996042 1.00008 0.957368
0.995886 0.999832 0.980112
0.997827 1.00132 0.9978
0.996593 1.00018 1.0012
0.996681 1.0023 0.998875
0.999865 1.00154 0.99341
0.998479 0.999825 0.99758
0.997855 1.00332 0.995176
0.998881 1.00357 0.993511
0.999916 1.00238 0.993045
0.999897 1.0042 0.991016
1.00074 1.00502 0.9883
0.999751 1.00351 0.991196
1.00083 1.00478 0.98839
1.00242 1.00474 0.985999
1.00369 1.00301 0.984972
1.00149 1.00428 0.987355
1.00196 1.00461 0.986517
1.00089 1.00482 0.988186
1.00077 1.00421 0.989337
1.00086 1.00423 0.989029
0.999892 1.00451 0.99025
0.999993 1.00487 0.989784
1.00062 1.00474 0.988896
1.00002 1.00231 0.992329
0.999944 1.00356 0.991289
0.999968 1.00445 0.990427
1.00004 1.00021 0.994382
1.00009 1.00153 0.993002
0.999879 1.00288 0.991902
1.00014 1.00111 0.993353
1.00012 0.999931 0.994531
0.999838 0.998246 0.996675
1.00019 0.999779 0.994552
0.999931 0.998068 0.996691
0.99974 0.996929 0.999262
1.00001 0.997931 0.99668
0.999837 0.996792 0.998764
0.999882 0.996704 0.999258
1.00033 1.00115 0.992962
1.00026 0.999973 0.994211
1.00029 1.00113 0.992981
1.0001 0.997859 0.996588
1.00023 0.999854 0.994298
1.00026 1.0011 0.99321
0.99996 0.996547 0.999264
1.00013 0.997691 0.996713
1.0002 0.999707 0.994396
1 0.996391 0.999295
1.00014 0.997561 0.996819
1.00003 0.996302 0.999311
0.994108 0.998408 0.974548
0.994104 0.999252 0.969026
0.994554 1.00101 0.949161
1.00023 1.00182 0.992412
1.00011 1.0024 0.992145
1.00029 1.00177 0.992466
1.00028 1.00173 0.992428
1.00028 1.00208 0.992123
1.00022 1.00204 0.992297
1.00032 1.00215 0.99203
0.994418 1.00112 0.949982
0.994401 1.00008 0.95721
0.994436 1.00122 0.951912
0.994704 0.998868 0.932205
0.994846 0.999797 0.971992
0.995322 1.00007 0.955326
0.994844 0.999953 0.939837
0.99523 0.999466 0.970701
0.995101 1.00007 0.953644
0.994901 0.99997 0.93945
0.994667 0.999344 0.931344
0.996048 0.99761 0.974699
0.995147 1.00008 0.952864
0.995016 0.999927 0.933583
0.99472 0.999793 0.920792
1.00006 1.00239 0.992244
1.00032 1.00243 0.991672
1.00026 1.00271 0.991494
1.00032 1.00221 0.991928
0.997486 0.998998 0.997252
0.997307 1.00033 0.999775
1.00026 1.00281 0.991359
1.00002 1.00323 0.991503
0.99991 1.00322 0.992284
1.00004 1.00262 0.992011
0.999392 1.00274 0.993083
0.995718 0.999468 0.995319
0.996879 1.00286 0.998573
0.999235 1.00259 0.993364
0.995521 0.999474 0.994361
0.997798 1.00314 0.997341
0.99403 0.999716 0.972441
0.993927 0.999106 0.980935
0.993953 0.99995 0.975117
0.995955 1.00384 0.998942
0.995337 0.998666 0.990775
0.99399 0.998497 0.977381
0.996775 1.00067 0.951195
0.995158 0.999907 0.93877
0.994445 1.00117 0.952099
0.994702 0.999836 0.917561
0.995384 1.00154 1.00034
0.994105 0.999029 0.969489
0.99519 1.00231 0.935979
0.994881 1.00014 0.982945
0.994595 0.998151 0.911813
0.997502 0.999851 0.932745
0.995233 1.00007 0.953288
0.995656 1.0027 0.996192
0.994702 0.999283 0.950297
0.995146 0.998607 0.92103
0.998401 0.997458 0.933842
0.995626 1.00039 0.957925
0.994913 0.999255 0.975003
0.997076 0.999462 1.001
0.996492 1.00294 0.998816
0.998796 0.999144 0.998694
0.997605 1.00346 0.99548
0.99816 1.00372 0.993845
1.00174 1.00145 0.990116
1.0005 1.0041 0.990658
1.00099 1.00499 0.988175
1.00258 1.00305 0.986375
1.00092 1.00473 0.988291
1.00241 1.00479 0.985812
1.00392 1.00222 0.985104
1.00486 1.00037 0.98528
1.00339 1.00394 0.985057
1.00378 1.00302 0.984778
1.00119 1.004 0.988138
1.0015 1.00427 0.98759
1.00196 1.00481 0.986421
1.00054 1.00458 0.989274
1.00069 1.00424 0.989324
1.00064 1.00406 0.989373
1.00005 1.00321 0.991341
0.999925 1.00441 0.990382
1.00009 1.00488 0.989895
0.999972 1.00077 0.993926
1.00006 1.00226 0.992324
1.00001 1.00347 0.991294
0.99975 0.998458 0.996624
1.00003 1.00023 0.994371
1.00011 1.00153 0.992988
1.00012 0.999932 0.994528
0.999842 0.99825 0.996673
0.999644 0.997115 0.999257
0.999935 0.998066 0.996691
0.999729 0.996961 0.999261
0.999805 0.996829 0.999262
1.00022 1.00193 0.992385
1.00035 1.0012 0.992884
1.00028 1.0001 0.994055
1.00033 1.00116 0.992955
1.00006 0.998051 0.996465
1.00026 0.999991 0.994208
1.00028 1.00115 0.993018
0.999909 0.996713 0.999236
1.0001 0.997856 0.996595
1.00024 0.999857 0.994369
0.999965 0.996517 0.999271
1.00012 0.997688 0.99672
1.00001 0.996367 0.999301
0.994138 0.999026 0.968965
0.994053 0.998299 0.976027
0.994153 0.999036 0.968992
1.00026 1.00178 0.992437
1.00009 1.00242 0.992103
1.00004 1.00278 0.991823
1.0001 1.00227 0.992161
1.0001 1.00278 0.991847
1.00028 1.00174 0.992433
1.00026 1.0021 0.992099
1.00021 1.00204 0.992294
1.00031 1.00216 0.992029
1.0001 1.00227 0.99234
0.99496 1.00207 0.936236
0.994442 1.00129 0.949804
0.994334 1.00025 0.961398
0.994669 0.999266 0.931458
0.994751 0.999991 0.934788
0.994872 0.999434 0.969473
0.995101 1.00007 0.957791
0.995437 0.997732 0.971146
0.995707 1.00006 0.957871
0.994919 0.999937 0.937733
0.994907 0.999773 0.918676
0.995997 0.995535 0.975703
0.995269 1.00006 0.958555
0.995655 0.999872 0.937551
0.994999 0.998132 0.917155
0.999335 1.00172 0.994091
1.00002 1.00247 0.99227
1.00032 1.00242 0.99169
0.995552 1.00014 0.993027
0.996562 1.00326 0.998862
1.00003 1.00262 0.991964
0.999207 1.00287 0.993028
0.999224 1.00262 0.993384
0.997498 1.00264 0.997227
0.995198 0.999566 0.994573
0.997729 1.0021 0.996625
0.995893 1.00102 0.993888
0.994588 1.00029 0.950948
0.993977 0.99944 0.974192
0.993833 0.998267 0.982964
0.995476 1.00074 1.0007
0.995216 0.999913 0.97778
0.994151 0.998881 0.969453
0.996962 1.00019 0.954638
0.995182 0.999875 0.937619
0.995244 1.00257 0.935502
0.994613 0.998138 0.905457
0.995728 1.00252 0.996482
0.994653 1.00017 0.950068
0.99516 0.998858 0.919019
0.994986 0.99922 0.97632
0.998554 0.998448 0.933721
0.996281 1.00002 0.95467
0.996906 0.99953 0.993992
0.994883 0.99772 0.928611
0.998744 0.996881 0.935657
0.998196 0.998732 0.952769
0.994858 0.998959 0.976752
0.996374 1.00342 0.998744
0.998624 0.999056 0.998692
1.00264 0.997624 0.993496
0.997498 1.00371 0.994154
1.00108 1.00174 0.990599
1.00346 0.99874 0.988606
1.00125 1.00493 0.988048
1.00263 1.00311 0.986424
1.0044 0.999597 0.98665
1.00241 1.0049 0.985625
1.00389 1.00224 0.985161
1.00506 0.999016 0.986225
1.00509 0.999009 0.986203
1.00446 1.00171 0.984744
1.00483 1.00036 0.985315
1.00263 1.00422 0.985872
1.0032 1.00393 0.984942
1.00384 1.00302 0.984585
1.00114 1.00396 0.988683
1.00113 1.00395 0.988438
1.00151 1.00427 0.987825
1.00045 1.00354 0.99032
1.00045 1.0045 0.989383
1.0006 1.00426 0.98931
0.999957 1.00166 0.993043
1.0001 1.00317 0.991343
0.99996 1.0043 0.990512
0.999652 0.998796 0.99695
0.999974 1.00079 0.993908
1.0001 1.00222 0.992319
0.999559 0.997363 0.99822
0.99975 0.998495 0.996852
1.00003 1.00025 0.994361
0.999847 0.998255 0.996672
0.999632 0.997155 0.999253
0.999717 0.996993 0.999259
1.00016 1.00229 0.992079
1.00032 1.00138 0.992752
1.0002 1.00198 0.99235
1.00026 1.00024 0.993952
1.00033 1.00123 0.992883
1.00001 0.998244 0.996361
1.00027 1.00012 0.994052
1.00034 1.00116 0.992948
0.999849 0.996905 0.999206
1.00006 0.998048 0.996472
1.00025 1.00001 0.994205
0.999916 0.996681 0.999244
1.0001 0.997854 0.996603
0.999972 0.996488 0.999279
0.994946 0.999298 0.951821
0.994124 0.99913 0.968947
0.993991 0.998228 0.977517
1.00006 1.00288 0.991746
1.00026 1.0018 0.992463
1.00009 1.00245 0.992061
1.00013 1.00229 0.992192
1.00009 1.00271 0.991866
1.00007 1.00279 0.99181
1.00006 1.0031 0.991522
0.99997 1.00278 0.991833
1.00021 1.00204 0.992291
1.00029 1.00216 0.992028
1.00007 1.00231 0.992295
0.99967 1.00269 0.992976
0.994996 0.999364 0.919172
0.995156 1.00219 0.935666
0.994456 1.00146 0.94963
0.995103 0.999746 0.920958
0.995053 0.999929 0.937453
0.995146 1.00008 0.953037
0.996071 0.997832 0.969171
0.996153 0.995266 0.977525
0.994761 0.998131 0.911189
0.995567 1.00004 0.954882
0.99732 0.999873 0.932211
0.995517 0.99721 0.978356
0.995823 1.00003 0.959791
0.998632 0.998039 0.931674
0.999182 1.00061 0.995483
0.999492 1.00166 0.99407
0.999976 1.00256 0.992297
0.994903 0.999622 0.994749
0.997509 1.00202 0.997107
0.99927 1.00259 0.993403
0.998522 1.00183 0.996422
0.995645 1.00127 0.99407
0.997736 1.00083 0.994184
0.994803 0.999719 0.925921
0.994515 0.999788 0.955081
0.993953 0.999202 0.975944
0.995638 1.00291 0.996804
0.994915 0.999179 0.977225
0.994601 1.00063 0.949906
0.995291 1.00006 0.954518
0.998434 0.997546 0.928303
0.995257 0.998883 0.920746
0.996995 0.999647 0.994051
0.994907 0.99784 0.930144
0.999881 0.996 0.930828
0.994976 0.999038 0.972734
0.997723 0.998738 0.958322
0.998504 0.998558 0.994986
0.999896 0.995586 0.930532
0.99886 0.997571 0.958783
0.995147 0.998901 0.971761
0.998383 0.999135 0.99874
1.00202 0.99725 0.994206
1.00379 0.99716 0.991113
1.00042 1.00205 0.991085
1.00336 0.999279 0.988519
1.00483 0.996823 0.988454
1.00267 1.00328 0.986474
1.00428 0.999821 0.986659
1.00497 0.99753 0.987856
1.00385 1.00222 0.985217
1.00505 0.998972 0.986219
1.00512 0.997619 0.987563
1.00513 0.998169 0.986983
1.00506 0.999749 0.985637
1.0051 0.998969 0.98624
1.00384 1.00234 0.985123
1.00443 1.00166 0.984861
1.0048 1.00034 0.98535
1.00196 1.00373 0.987409
1.0024 1.00416 0.98602
1.00302 1.00389 0.984825
1.00107 1.00323 0.989543
1.00121 1.00392 0.98865
1.00107 1.00388 0.98874
1.00015 1.00241 0.991982
1.00049 1.00352 0.990329
1.00036 1.00442 0.989492
0.999608 0.999264 0.996029
1.00001 1.00161 0.993024
1.00017 1.00311 0.991345
0.999428 0.997622 0.999222
0.999659 0.998853 0.996405
0.999978 1.00081 0.993889
0.99954 0.99736 0.999238
0.999754 0.998512 0.996593
0.999622 0.997198 0.999249
1.00018 1.00253 0.99189
1.00018 1.00229 0.992071
1.00028 1.00168 0.992515
1.0002 1.00042 0.993871
1.0003 1.0014 0.992756
1.0002 1.00199 0.992315
0.999948 0.998422 0.996297
1.00025 1.00025 0.993952
1.00032 1.00124 0.992881
0.999782 0.997093 0.99918
1.00001 0.998241 0.996366
1.00026 1.00014 0.99405
0.999856 0.996868 0.999215
1.00006 0.998044 0.996479
0.999923 0.996645 0.999253
0.994963 0.999226 0.922147
0.994887 0.999348 0.951625
0.994107 0.999221 0.968925
0.99999 1.00299 0.991704
1.00023 1.00324 0.991283
0.999978 1.00329 0.991453
1.00015 1.00229 0.992224
1.00013 1.00265 0.991909
0.999999 1.00283 0.991774
1.00003 1.00277 0.991805
1.00003 1.00313 0.991495
0.999923 1.00367 0.991249
1.00019 1.00159 0.992688
1.0001 1.00227 0.99225
0.999678 1.00249 0.992902
0.99986 0.996615 0.92897
0.995002 0.999386 0.916023
0.99535 1.00233 0.935129
0.994626 0.998138 0.905219
0.996256 0.999107 0.93691
0.995665 1.00002 0.956121
0.995966 0.995019 0.975114
0.995237 0.99738 0.976625
0.99823 0.998479 0.933118
0.996402 1.00001 0.954578
0.995725 0.997972 0.977893
0.998317 0.99844 0.952881
1.00163 0.999288 0.993
0.999404 1.00053 0.995272
0.999601 1.00158 0.994059
0.995111 1.00172 0.994225
0.99905 1.00162 0.996217
0.998082 1.00112 0.993613
1.00099 0.998902 0.990032
0.999948 0.994875 0.93403
0.994812 0.999739 0.927856
0.994456 0.999412 0.959152
0.997116 0.99963 0.994183
0.994859 0.999066 0.972166
0.994944 0.99833 0.93027
0.997677 0.998254 0.952415
0.999941 0.997085 0.936447
0.998395 0.998795 0.993298
0.999934 0.995337 0.933283
1.00105 0.99649 0.952131
0.995236 0.998509 0.974595
0.999285 0.996893 0.994583
1.00028 0.996414 0.956936
0.995633 0.999919 0.977414
1.00139 0.996836 0.994902
1.00369 0.99668 0.991092
1.00499 0.995666 0.989958
1.00325 0.999782 0.988432
1.00473 0.996834 0.988441
1.00489 0.996077 0.989231
1.00415 0.999934 0.986668
1.00491 0.997549 0.987821
1.00509 0.996211 0.988907
1.00503 0.998925 0.986212
1.00509 0.997578 0.987572
1.00514 0.99672 0.988367
1.00516 0.997558 0.987671
1.00513 0.99805 0.987092
1.00513 0.998804 0.98649
1.00486 1.00026 0.985701
1.00508 0.999688 0.985655
1.0051 0.99893 0.986277
1.00318 1.00261 0.986062
1.00384 1.00241 0.985215
1.0044 1.00158 0.984977
1.00164 1.00306 0.988656
1.002 1.00372 0.987374
1.00217 1.00414 0.986167
1.0005 1.00255 0.991185
1.00113 1.0032 0.989534
1.00126 1.00388 0.988616
0.999632 0.999906 0.995321
1.00021 1.00232 0.991978
1.00055 1.00348 0.990338
0.99941 0.99789 0.99914
0.999604 0.999347 0.995991
1.00005 1.00157 0.993006
0.999458 0.997654 0.99868
0.999663 0.998884 0.996389
0.999534 0.997437 0.999226
1.00026 1.00279 0.991494
1.00011 1.0026 0.991876
1.00019 1.00213 0.992213
1.00021 1.0023 0.992062
1.00025 1.00171 0.992517
1.00013 1.0007 0.993715
0.999872 0.998605 0.99626
1.0002 1.00042 0.993875
1.00026 1.00144 0.99276
0.999706 0.997268 0.999164
0.999946 0.998418 0.9963
1.00025 1.00026 0.993953
0.999789 0.997064 0.999188
1 0.99824 0.996371
0.999863 0.996831 0.999224
0.999908 0.995188 0.93484
0.994974 0.999549 0.922381
0.994795 0.999401 0.951419
0.999927 1.00311 0.991662
0.999939 1.00347 0.991328
1.0001 1.00321 0.991417
1.00068 1.00332 0.990344
0.999925 1.0039 0.991013
1.00008 1.00279 0.991778
1.00002 1.00315 0.991467
0.999876 1.00353 0.991326
0.99994 1.00369 0.990487
1.00045 1.00205 0.991845
1.00357 1.00015 0.988134
0.999893 1.00178 0.993004
0.999763 1.00225 0.992827
1.00031 0.996955 0.956559
0.999416 0.996741 0.93118
0.994993 0.999245 0.916899
0.998573 0.998466 0.927235
0.995795 1.00003 0.956466
0.995486 0.997466 0.978959
0.995463 0.997958 0.979906
0.997526 0.998873 0.959687
0.997039 0.999344 0.977076
1.00383 0.996715 0.991011
1.00129 0.999146 0.993023
0.999607 1.00049 0.995055
0.998422 1.00125 0.993083
1.00172 0.999906 0.988695
1.00034 0.995297 0.954003
0.999935 0.995135 0.936555
0.994821 0.999421 0.929845
0.998215 0.999091 0.991589
0.994862 0.998642 0.971982
0.999913 0.995591 0.934108
0.999546 0.997793 0.958703
0.999083 0.998097 0.994877
1.00147 0.995662 0.956721
0.995673 0.999356 0.974301
1.00062 1.00039 0.991863
0.999626 0.997234 0.982085
1.0036 0.996209 0.991087
1.00499 0.995423 0.989751
1.00509 0.99499 0.990118
1.00461 0.996909 0.988427
1.00484 0.996053 0.989217
1.00507 0.995096 0.989902
1.00485 0.997578 0.987786
1.00509 0.996163 0.988893
1.00513 0.995763 0.989361
1.00506 0.997534 0.987581
1.00514 0.99675 0.988332
1.00514 0.996814 0.988484
1.00516 0.99742 0.987734
1.00514 0.998199 0.987111
1.00513 0.997934 0.987202
1.00512 0.998831 0.986477
1.00502 0.999253 0.986254
1.00431 1.00078 0.985943
1.00486 1.00016 0.985689
1.00509 0.999643 0.985673
1.0025 1.00257 0.987599
1.00312 1.00271 0.986128
1.00384 1.00249 0.985309
1.00089 1.00246 0.990509
1.00169 1.00305 0.988629
1.00204 1.0037 0.987339
0.999771 1.00045 0.994506
1.00054 1.00251 0.99119
1.00116 1.00319 0.989525
0.99943 0.998233 0.998996
0.999643 0.999959 0.99529
1.00027 1.00222 0.991976
0.999437 0.997949 0.9991
0.999601 0.999427 0.995951
0.999474 0.9977 0.999174
1.00075 1.00297 0.990421
1.00027 1.00272 0.991488
1.00022 1.00252 0.991692
1.00006 1.00265 0.991861
1.00017 1.0022 0.992148
1.00008 1.00116 0.993332
1.00023 1.00173 0.99252
1.00013 1.00069 0.993723
0.99978 0.998834 0.996203
0.999625 0.997446 0.999152
0.999869 0.998597 0.996263
1.00019 1.00042 0.993879
0.999714 0.997247 0.999168
0.999943 0.998417 0.996302
0.999795 0.997029 0.999195
1.00113 0.995161 0.959306
0.999903 0.995518 0.933467
0.994964 1.00005 0.920761
0.999892 1.00364 0.991202
0.999994 1.00315 0.991552
0.999955 1.00389 0.991061
1.0006 1.0033 0.990409
1.00109 1.00354 0.989264
1.0001 1.00367 0.990569
0.999827 1.0034 0.991402
1.00024 1.00379 0.990164
1.00038 1.00238 0.991578
1.00145 1.00182 0.989569
1.00355 1.00008 0.988809
1.00438 0.998364 0.987843
1.00309 1.00013 0.988672
0.999539 1.00214 0.993321
0.996082 0.999333 0.976349
1.00035 0.996254 0.955795
0.998971 0.997012 0.93646
0.998912 0.999211 0.952681
0.995225 0.998075 0.981202
0.997332 0.999115 0.98146
1.00125 0.998412 0.991937
1.00373 0.996773 0.991269
1.00127 0.998925 0.993047
1.00294 1.00095 0.987317
0.998279 0.996268 0.977924
1.00091 0.995084 0.960764
0.999913 0.995514 0.931718
0.998953 0.998898 0.995108
0.995448 0.999304 0.976399
1.001 0.995929 0.956387
1.00068 0.999941 0.992014
0.998911 0.997192 0.980899
1.0034 1.0006 0.989481
1.00425 0.99603 0.989815
1.00494 0.995173 0.989532
1.00509 0.995004 0.990053
1.00508 0.994995 0.990257
1.00479 0.996029 0.989207
1.00507 0.995194 0.989862
1.0051 0.99522 0.989937
1.00509 0.996121 0.988878
1.00513 0.995777 0.989332
1.00512 0.996359 0.989008
1.00514 0.996784 0.988297
1.00513 0.996817 0.988399
1.00515 0.997675 0.987524
1.00517 0.997284 0.987797
1.00514 0.998102 0.987212
1.00505 0.998916 0.98661
1.00512 0.998858 0.986465
1.00503 0.999289 0.986242
1.00466 0.999717 0.986525
1.00351 1.00116 0.986939
1.00427 1.00084 0.986
1.00487 1.00004 0.985676
1.00154 1.00216 0.989676
1.0025 1.00255 0.987602
1.00307 1.00281 0.986194
0.999902 1.00094 0.993771
1.00094 1.00249 0.990498
1.00174 1.00303 0.988603
0.999494 0.998641 0.998781
0.999809 1.00045 0.994495
1.00059 1.00246 0.991193
0.999473 0.998314 0.998926
0.999653 1.00002 0.99526
0.999471 0.99801 0.999055
1.00119 1.00335 0.989275
1.00079 1.00296 0.990458
1.00058 1.00271 0.990935
1.00027 1.00269 0.991482
1.00025 1.00254 0.991612
1.00015 1.00164 0.992727
1.00015 1.00227 0.992084
1.00008 1.00115 0.993342
0.999687 0.999161 0.99604
1.00013 1.00068 0.993731
0.999781 0.998809 0.996211
0.999549 0.997639 0.999136
0.999634 0.997424 0.999156
0.999867 0.998589 0.996267
0.999721 0.997223 0.999173
0.997251 0.997874 0.977994
1.00096 0.995585 0.95326
0.999875 0.99512 0.937105
1.00238 1.00252 0.988016
0.999992 1.00387 0.991107
1.00053 1.00328 0.990475
1.00022 1.00374 0.990489
1.00103 1.00367 0.989193
1.00128 1.00196 0.990121
1.00053 1.00389 0.989841
1.00039 1.00265 0.991311
1.00163 1.00177 0.98979
1.0036 1.00005 0.988386
1.00453 0.998878 0.98722
1.00451 0.996913 0.989278
1.00444 0.998435 0.987491
1.00268 1.00004 0.989211
1.00014 0.999017 0.993747
0.996416 0.999269 0.974878
0.999752 0.996612 0.955412
0.997423 0.998357 0.979699
1.0013 0.997265 0.99395
1.00319 0.996839 0.99151
1.00236 0.995798 0.989385
0.997437 0.995781 0.980332
1.00042 0.995085 0.954063
1.00061 0.999802 0.992166
0.999106 0.997101 0.979575
1.00335 0.998883 0.989697
1.0042 0.995702 0.989783
1.00505 0.995939 0.990079
1.00492 0.996182 0.9906
1.00512 0.995019 0.98999
1.00508 0.994976 0.990272
1.00513 0.995084 0.990136
1.00506 0.995283 0.989819
1.00511 0.995253 0.989938
1.00512 0.995916 0.989385
1.00514 0.995795 0.989303
1.00512 0.996337 0.988943
1.00515 0.997406 0.987803
1.00513 0.996818 0.988314
1.00514 0.997689 0.987536
1.0051 0.998617 0.986717
1.00513 0.998003 0.987313
1.00505 0.998839 0.986649
1.00479 0.99935 0.986563
1.00504 0.999324 0.986229
1.00468 0.999666 0.986473
1.00404 1.00019 0.987148
1.00237 1.0013 0.989059
1.00346 1.00125 0.987005
1.00421 1.00089 0.986056
1.00015 1.00116 0.99309
1.00156 1.00217 0.989667
1.00251 1.00252 0.987605
0.9995 0.999108 0.998559
1.00002 1.00082 0.993757
1.00098 1.00249 0.990487
0.999523 0.99873 0.998702
0.999851 1.00044 0.994484
0.999519 0.998386 0.998848
1.00201 1.00311 0.987839
1.00116 1.00334 0.989288
1.00106 1.00289 0.990015
1.00083 1.00294 0.990496
1.00059 1.00269 0.990951
1.00029 1.00208 0.992083
1.00028 1.00257 0.991531
1.0001 1.00173 0.992726
0.999627 0.999622 0.995674
1.00006 1.00116 0.993351
0.999696 0.999105 0.99606
0.999499 0.997845 0.999092
0.999782 0.998788 0.99622
0.999554 0.997611 0.999142
0.999641 0.997404 0.99916
1.00126 0.997993 0.991679
0.997397 0.997318 0.97447
1.00018 0.995484 0.959761
1.00269 1.00089 0.988522
1.00451 0.999742 0.986604
1.00211 1.00243 0.988245
1.00033 1.00382 0.990407
1.00098 1.0038 0.989113
1.00164 1.00182 0.989908
1.00441 0.999139 0.987649
1.00177 1.00174 0.99001
1.00352 1.00003 0.987961
1.00444 0.998893 0.987418
1.00505 0.997691 0.987598
1.00484 0.995894 0.98974
1.00457 0.997056 0.98904
1.00446 0.998551 0.987141
1.00055 0.9989 0.993858
0.996167 0.999687 0.972949
1.00148 0.996389 0.99598
1.00496 0.995116 0.99108
1.00214 0.996307 0.989532
0.998084 0.99569 0.977204
1.00345 0.997382 0.989914
1.00416 0.99578 0.989761
1.00504 0.995471 0.990252
1.00498 0.995712 0.990414
1.00512 0.994961 0.990074
1.00518 0.995141 0.989807
1.00508 0.994971 0.990284
1.00511 0.995035 0.990124
1.00515 0.99576 0.989442
1.00511 0.995284 0.98994
1.00512 0.995987 0.989261
1.00513 0.997041 0.988225
1.00512 0.996313 0.988877
1.00515 0.997421 0.987814
1.00516 0.998464 0.9868
1.00513 0.997703 0.987549
1.0051 0.998617 0.98673
1.00489 0.99926 0.986494
1.00505 0.998765 0.986688
1.00479 0.999335 0.986562
1.00423 0.999839 0.987145
1.0047 0.999618 0.986421
1.00401 1.00017 0.987091
1.00291 1.00047 0.988894
1.0005 1.00094 0.992629
1.00235 1.00132 0.989061
1.00341 1.00135 0.987072
0.999463 0.999638 0.998356
1.00024 1.00108 0.99307
1.00156 1.00221 0.989658
0.99952 0.999225 0.998487
1.00011 1.00075 0.99374
0.999555 0.998821 0.998625
1.00339 1.0014 0.98663
1.00201 1.00303 0.987752
1.00179 1.00281 0.988702
1.00112 1.00333 0.989301
1.001 1.00289 0.990042
1.00054 1.00239 0.991385
1.0006 1.00267 0.990967
1.00024 1.00215 0.992081
0.999684 1.00012 0.995079
1.00006 1.00179 0.992727
0.99964 0.999548 0.9957
0.999487 0.998113 0.998982
0.999704 0.999051 0.996081
0.999494 0.997812 0.999109
0.999559 0.997586 0.999148
1.00499 0.995396 0.990189
1.0014 0.997572 0.990606
0.996966 0.996544 0.97522
1.00488 0.998905 0.986887
1.00232 1.0005 0.989625
1.00509 0.998813 0.986516
1.00457 0.999904 0.986532
1.00184 1.00233 0.988485
1.00508 0.998119 0.987074
1.002 1.00165 0.989705
1.00458 0.999139 0.987243
1.00512 0.996817 0.988223
1.00441 0.998908 0.987617
1.00501 0.99767 0.987602
1.00479 0.995942 0.989851
1.00446 0.997203 0.988793
1.0008 0.998782 0.993996
1.00518 0.995463 0.989416
1.00497 0.99559 0.9911
1.00195 0.996633 0.989655
1.00504 0.994898 0.990432
1.00496 0.995225 0.990231
1.00512 0.99498 0.990182
1.00519 0.995111 0.989839
1.00519 0.995583 0.989478
1.0051 0.994962 0.990113
1.00514 0.99574 0.989453
1.00512 0.996801 0.988501
1.00513 0.996069 0.989136
1.00513 0.997133 0.988122
1.00518 0.99835 0.986888
1.00514 0.997436 0.987824
1.00514 0.99847 0.986812
1.00497 0.999234 0.986375
1.0051 0.998618 0.986744
1.00489 0.99926 0.986503
1.00436 0.999722 0.987026
1.00479 0.999319 0.98656
1.00422 0.999849 0.987148
1.00313 1.00012 0.988856
1.00399 1.00014 0.987034
1.0029 1.00048 0.988891
1.00073 1.00057 0.993712
0.999602 0.999953 0.995846
1.00057 1.00089 0.993201
1.00233 1.00135 0.989063
0.999505 0.99976 0.99828
1.00037 1.00095 0.993048
0.999543 0.999323 0.998408
1.00513 0.998664 0.986725
1.00458 0.999588 0.986554
1.00354 1.00142 0.986548
1.00269 1.00219 0.987574
1.002 1.00295 0.987665
1.00173 1.00284 0.988727
1.00102 1.00237 0.990527
1.00094 1.0029 0.99007
1.00048 1.0024 0.9914
0.999858 1.00059 0.994335
1.00018 1.00223 0.99208
0.999668 1.0001 0.995093
0.999484 0.998501 0.998793
0.999654 0.99947 0.995723
0.999467 0.998058 0.999025
0.999491 0.997782 0.999125
1.00518 0.996018 0.988921
1.00508 0.995392 0.990579
1.00171 0.997126 0.989536
1.00514 0.998443 0.986747
1.00467 0.999022 0.987184
1.00196 1.00012 0.990702
1.00511 0.998898 0.986532
1.00466 1.00007 0.986459
1.0051 0.997103 0.988335
1.00508 0.998108 0.987035
1.00475 0.999163 0.986832
1.00512 0.996805 0.988232
1.00502 0.99766 0.987607
1.00482 0.995973 0.989979
1.00515 0.99586 0.989468
1.00519 0.995462 0.989499
1.00498 0.996035 0.991126
1.00516 0.995007 0.990286
1.0052 0.995116 0.989872
1.00519 0.995503 0.989571
1.00513 0.996891 0.988453
1.00514 0.995726 0.989464
1.00512 0.996831 0.988469
1.00517 0.998187 0.987069
1.00513 0.997222 0.988018
1.00517 0.99835 0.986898
1.00507 0.999196 0.986257
1.00513 0.998476 0.986823
1.00497 0.999231 0.986386
1.00448 0.999718 0.986812
1.00489 0.999259 0.986511
1.00436 0.999724 0.987028
1.00325 1.00002 0.988729
1.0042 0.999858 0.987151
1.00313 1.00011 0.988849
1.00088 1.0002 0.993839
1.00288 1.0005 0.988888
1.00086 1.0005 0.993674
0.999665 1.00011 0.995797
0.99952 1.00014 0.996968
1.00072 1.00081 0.993685
0.999543 0.999878 0.998203
1.00516 0.998456 0.986805
1.00493 0.99899 0.986898
1.00512 0.998606 0.986703
1.00368 1.00071 0.987155
1.00462 0.999572 0.986548
1.00369 1.00143 0.986466
1.00269 1.00222 0.987559
1.00173 1.00197 0.989577
1.00167 1.00286 0.988752
1.00098 1.00235 0.990548
1.00008 1.00097 0.993585
1.00042 1.00242 0.991415
0.999777 1.00065 0.994348
0.999436 0.999068 0.99856
0.999647 1.00008 0.995107
0.999463 0.99842 0.998864
0.999456 0.998009 0.999062
1.00513 0.996429 0.988831
1.00517 0.996016 0.988924
1.0051 0.995368 0.990943
1.00513 0.997705 0.987586
1.00514 0.998426 0.986778
1.00443 0.999139 0.987491
1.00513 0.998981 0.986547
1.0051 0.99711 0.988212
1.00507 0.998098 0.986995
1.00509 0.996805 0.988242
1.00511 0.996725 0.988647
1.00515 0.995919 0.989358
1.00521 0.995428 0.989583
1.00511 0.997304 0.988003
1.00518 0.995423 0.989664
1.00513 0.996897 0.988443
1.00515 0.99796 0.987445
1.00512 0.996861 0.988436
1.00517 0.998183 0.987073
1.00514 0.999086 0.986239
1.00516 0.998354 0.986907
1.00505 0.999196 0.986269
1.00462 0.999735 0.98654
1.00497 0.999228 0.986396
1.00448 0.999715 0.986814
1.00336 1.00001 0.988532
1.00435 0.999725 0.98703
1.00326 1.00001 0.988725
1.00099 1.00002 0.993861
1.00313 1.0001 0.988842
1.00098 1.00016 0.99379
0.999692 1.00002 0.99589
1.00098 1.00041 0.993643
0.999474 1.00028 0.995899
0.999273 1.00036 0.998292
1.00516 0.998438 0.986798
1.005 0.998923 0.986648
1.00517 0.99848 0.986759
1.00422 0.999683 0.987509
1.00488 0.998855 0.986859
1.00512 0.998548 0.986683
1.00256 1.00101 0.988938
1.00373 1.00072 0.987128
1.00465 0.999554 0.986542
1.0027 1.00226 0.987544
1.00172 1.00193 0.98959
1.00034 1.00112 0.992935
1.00093 1.00234 0.990569
0.999961 1.00108 0.993607
0.999374 0.999732 0.998342
0.999705 1.00072 0.994359
0.999429 0.998943 0.998648
0.999449 0.99833 0.998928
1.00512 0.997172 0.988088
1.00512 0.99635 0.988858
1.00517 0.996029 0.988927
1.00513 0.997674 0.987619
1.00514 0.998411 0.986808
1.00511 0.997118 0.988088
1.0051 0.99736 0.988061
1.00511 0.996802 0.988587
1.00513 0.995975 0.989248
1.00512 0.997293 0.988074
1.00512 0.998003 0.987371
1.00513 0.996903 0.988432
1.00515 0.998038 0.987296
1.00515 0.998847 0.986505
1.00517 0.998175 0.987077
1.00512 0.999085 0.986252
1.00477 0.999664 0.986325
1.00504 0.999191 0.986282
1.00461 0.999732 0.986547
1.0035 1.00002 0.988263
1.00447 0.999712 0.986817
1.00337 0.999995 0.98853
1.00107 1.00001 0.993723
1.00327 0.999988 0.988721
1.00108 0.99999 0.993789
0.999763 0.999939 0.995866
1.00108 1.00011 0.99375
0.99952 1.0001 0.996005
0.999293 1.0005 0.995986
1.00513 0.998012 0.987351
1.00511 0.998921 0.986388
1.00517 0.998338 0.986893
1.00447 0.999465 0.987194
1.005 0.998964 0.986649
1.00518 0.998504 0.986713
1.00311 1.00012 0.988824
1.00424 0.999598 0.987379
1.00484 0.998722 0.986818
1.00066 1.00083 0.992574
1.00259 1.00099 0.988933
1.00379 1.00073 0.9871
1.00172 1.00191 0.989604
1.00023 1.00122 0.992958
0.999398 1.0003 0.998165
0.999846 1.00119 0.993627
0.999358 0.999589 0.998423
0.999423 0.998808 0.998727
1.0051 0.997498 0.987854
1.00511 0.997144 0.988118
1.00512 0.996273 0.988884
1.00512 0.997644 0.987653
1.00511 0.998065 0.987338
1.0051 0.997369 0.988077
1.00511 0.996881 0.988527
1.00512 0.997284 0.988145
1.00512 0.997952 0.987417
1.00512 0.998765 0.986709
1.00515 0.998116 0.987146
1.00514 0.99894 0.986418
1.00485 0.999476 0.986296
1.00511 0.999089 0.986265
1.00476 0.999667 0.986336
1.00367 0.999992 0.987971
1.0046 0.999733 0.986553
1.00351 1.00001 0.988262
1.00119 1.00006 0.992339
1.00338 0.999979 0.988528
1.00115 0.999975 0.993081
0.999752 0.999961 0.998098
1.00116 0.999969 0.99372
0.999613 0.999951 0.995992
0.999363 1.0002 0.996102
1.00512 0.997961 0.98746
1.00512 0.998795 0.986564
1.00513 0.998073 0.987308
1.00471 0.999265 0.98666
1.00511 0.998919 0.986464
1.00518 0.998235 0.986988
1.00333 0.999784 0.98849
1.00448 0.99947 0.987189
1.00501 0.999005 0.98665
1.00091 1.00028 0.992599
1.00312 1.00008 0.988718
1.00425 0.99951 0.987249
0.999472 1.00051 0.998101
1.00061 1.00087 0.99259
1.00261 1.00097 0.988929
1.00013 1.00129 0.992988
0.99934 1.00016 0.998227
0.999341 0.999423 0.998505
1.00511 0.998036 0.987374
1.0051 0.997495 0.987863
1.00511 0.997115 0.988148
1.00511 0.998735 0.986699
1.00511 0.998017 0.987388
1.00511 0.997379 0.988094
1.00512 0.997898 0.987462
1.00512 0.998752 0.986712
1.00487 0.999379 0.986613
1.00513 0.999034 0.986331
1.00485 0.999552 0.986382
1.00381 0.999873 0.987578
1.00475 0.999664 0.986346
1.00367 0.99999 0.987974
1.0013 1.00008 0.992095
1.00351 1 0.988262
1.0012 1.00006 0.992328
0.999789 0.999975 0.998052
1.00117 0.999959 0.992504
0.999694 0.999935 0.997026
0.999464 0.999952 0.996114
1.00513 0.998197 0.987203
1.00512 0.99872 0.986586
1.00512 0.997942 0.987459
1.00477 0.999315 0.986643
1.00512 0.998826 0.986498
1.00512 0.998135 0.987266
1.00355 0.999631 0.988213
1.00471 0.999341 0.986794
1.00512 0.998918 0.986539
1.00107 0.999949 0.992635
1.00334 0.999779 0.988453
1.00449 0.999473 0.987183
0.999584 1.00034 0.99812
1.0009 1.00028 0.992604
1.00313 1.00005 0.988611
0.999446 1.00041 0.99811
1.00055 1.00089 0.992607
0.999283 1.00003 0.998299
1.00511 0.998635 0.986832
1.00511 0.99806 0.987324
1.0051 0.997491 0.987871
1.00483 0.999274 0.986775
1.00511 0.99869 0.986762
1.0051 0.997974 0.987437
1.00512 0.998739 0.986715
1.00487 0.999384 0.986609
1.00385 0.999785 0.987591
1.00484 0.999631 0.986469
1.0038 0.99991 0.987681
1.00142 1.00007 0.991908
1.00367 0.999984 0.987977
1.00131 1.00009 0.992087
0.999861 0.999993 0.997971
1.0012 1.00005 0.992318
0.999814 0.999977 0.998021
0.999759 0.999867 0.995822
1.00511 0.998721 0.986704
1.00513 0.998104 0.987242
1.00477 0.999293 0.986677
1.00512 0.998725 0.986586
1.00512 0.997922 0.987458
1.00366 0.999666 0.988306
1.00476 0.999316 0.986638
1.00512 0.998856 0.986433
1.00122 0.999844 0.992473
1.00356 0.999679 0.988302
1.00471 0.999421 0.986928
0.99973 1.00011 0.998094
1.00107 0.999941 0.992644
1.00336 0.999772 0.988416
0.999564 1.00033 0.998105
1.0009 1.00028 0.992604
0.999379 1.00037 0.998138
1.00478 0.999242 0.98689
1.00511 0.998663 0.986793
1.00511 0.998085 0.987273
1.00379 0.999727 0.987753
1.00483 0.999285 0.986775
1.00511 0.998641 0.986824
1.00487 0.999388 0.986605
1.00385 0.999782 0.987577
1.00147 1.00004 0.991852
1.00379 0.999944 0.987783
1.00142 1.00006 0.991904
0.999942 1.00001 0.997896
1.00131 1.00009 0.992078
0.999889 0.999998 0.997944
0.999839 0.999981 0.997988
1.00477 0.999269 0.986729
1.00511 0.998627 0.986763
1.00514 0.998012 0.987281
1.00367 0.999717 0.98824
1.00477 0.999295 0.986668
1.00512 0.998731 0.986586
1.00131 0.999886 0.992277
1.00365 0.999674 0.988301
1.00476 0.999317 0.986632
0.99985 0.999971 0.998021
1.00121 0.999852 0.992481
1.00357 0.999719 0.98839
0.999685 1.00013 0.998109
1.00106 0.999945 0.992654
0.999553 1.00032 0.998088
1.00373 0.999784 0.988065
1.00479 0.999208 0.98679
1.00511 0.998689 0.986755
1.00144 0.999998 0.991946
1.0038 0.99972 0.987731
1.00483 0.999296 0.986776
1.00386 0.999777 0.987563
1.00146 1.00003 0.991856
0.999996 1.00001 0.997841
1.00141 1.00006 0.9919
0.999963 1.00001 0.99787
0.999913 1 0.997919
1.00369 0.999753 0.988161
1.00477 0.999213 0.986724
1.00511 0.998535 0.986822
1.0014 0.999983 0.993286
1.00367 0.999716 0.988234
1.00476 0.999297 0.986659
0.999898 0.999948 0.997953
1.0013 0.999908 0.992281
1.00365 0.999681 0.988295
0.999809 1 0.99805
1.00121 0.99987 0.992489
0.999656 1.00015 0.998114
1.00143 0.99999 0.991993
1.00374 0.999744 0.987967
1.0048 0.999171 0.98669
0.999986 1 0.99785
1.00143 1 0.991949
1.00382 0.999715 0.987709
1.00146 1.00003 0.991858
0.999999 1.00001 0.997839
0.999988 1.00001 0.997853
1.00147 0.99999 0.99318
1.0037 0.999748 0.988161
1.00477 0.999156 0.98672
0.999671 0.999983 0.998168
1.00133 0.999986 0.99216
1.00368 0.999714 0.988229
0.999883 0.999965 0.997982
1.0013 0.999934 0.992285
0.999775 1.00002 0.998079
0.99995 1 0.995465
1.00144 0.999989 0.992594
1.00374 0.999707 0.987868
0.999981 1 0.997853
1.00142 1 0.991956
1.00001 1.00001 0.997831
0.999672 1 0.995762
1.00141 0.99999 0.992648
1.0037 0.999744 0.988161
0.999782 0.999985 0.996853
1.00134 0.999982 0.992163
0.999861 0.999981 0.998007
0.999949 0.999997 0.997875
1.00138 0.999993 0.992058
0.999961 1 0.997863
0.9998 0.999994 0.996827
1.00136 0.999992 0.992108
0.999897 0.999975 0.997953
0.999935 0.999992 0.997895
0.999912 0.999985 0.997918

TENSORS stress float
0.00145276 -5.49203e-05 0.00012616
-5.49203e-05 0.000468783 -1.47295e-05
0.00012616 -1.47295e-05 0.000447671
0.00425935 -9.80512e-05 0.000117708
-9.80512e-05 0.00205492 7.97441e-06
0.000117708 7.97441e-06 0.00204337
0.00139131 2.13253e-05 6.57654e-05
2.13253e-05 0.000451026 -4.70199e-06
6.57654e-05 -4.70199e-06 0.00041859
0.00170005 -3.72732e-05 0.000129819
-3.72732e-05 0.000584003 -1.0028e-05
0.000129819 -1.0028e-05 0.0005648
0.00158507 -5.16218e-05 0.000126047
-5.16218e-05 0.000535799 -1.37603e-05
0.000126047 -1.37603e-05 0.000515116
0.00126391 -4.19806e-05 0.000118495
-4.19806e-05 0.000363309 -1.33549e-05
0.000118495 -1.33549e-05 0.000345553
0.00133916 -1.65271e-05 1.22972e-05
-1.65271e-05 0.000348634 -7.57704e-06
1.22972e-05 -7.57704e-06 0.000278096
0.00411069 -0.000125708 7.30989e-06
-0.000125708 0.00197351 -9.02074e-07
7.30989e-06 -9.02074e-07 0.00196034
0.00489873 -7.83445e-05 3.21497e-05
-7.83445e-05 0.00239 1.86935e-06
3.21497e-05 1.86935e-06 0.00237445
0.0042746 -0.000279553 -1.07778e-05
-0.000279553 0.00211185 5.09934e-06
-1.07778e-05 5.09934e-06 0.00206393
0.00139613 7.94124e-07 0.00010255
7.94124e-07 0.000431888 7.52171e-06
0.00010255 7.52171e-06 0.000421032
0.000753373 9.71579e-05 1.3502e-05
9.71579e-05 3.13889e-05 9.30071e-06
1.3502e-05 9.30071e-06 -3.09635e-05
0.00164546 -1.92309e-05 0.000145626
-1.92309e-05 0.000544565 1.67433e-06
0.000145626 1.67433e-06 0.00052664
0.00124932 -4.20165e-06 1.64858e-05
-4.20165e-06 0.000340463 1.7084e-06
1.64858e-05 1.7084e-06 0.000309768
0.00140434 5.50703e-05 -8.98075e-06
5.50703e-05 0.000461258 4.21709e-06
-8.98075e-06 4.21709e-06 0.000425918
0.00147625 -2.71782e-05 5.12587e-05
-2.71782e-05 0.000465492 -3.06732e-06
5.12587e-05 -3.06732e-06 0.000442174
0.00129392 2.7677e-05 6.08556e-05
2.7677e-05 0.000398232 -4.35955e-06
6.08556e-05 -4.35955e-06 0.00036762
0.00143719 -1.4753e-06 5.86892e-05
-1.4753e-06 0.000461133 -5.03094e-06
5.86892e-05 -5.03094e-06 0.000434785
0.00142416 -6.15618e-05 -2.48871e-05
-6.15618e-05 0.000381868 1.40793e-06
-2.48871e-05 1.40793e-06 0.000320682
0.00512712 -9.39705e-05 0.000156105
-9.39705e-05 0.00250814 -3.0914e-06
0.000156105 -3.0914e-06 0.00250294
0.00167861 -2.35831e-05 0.000133002
-2.35831e-05 0.000568459 -7.76652e-06
0.000133002 -7.76652e-06 0.000548984
0.00167332 -4.63919e-05 0.000127515
-4.63919e-05 0.000575138 -1.20612e-05
0.000127515 -1.20612e-05 0.000555559
0.00144741 -6.05714e-05 3.09038e-05
-6.05714e-05 0.000358882 -4.7246e-06
3.09038e-05 -4.7246e-06 0.000301391
0.00141225 -3.88131e-05 2.07688e-05
-3.88131e-05 0.000362652 -6.29984e-06
2.07688e-05 -6.29984e-06 0.000300787
0.00115587 4.66675e-06 9.54842e-05
4.66675e-06 0.000301731 -1.0591e-05
9.54842e-05 -1.0591e-05 0.000285535
0.00116618 -1.16744e-05 1.02585e-05
-1.16744e-05 0.000275625 -7.56283e-06
1.02585e-05 -7.56283e-06 0.000205563
0.00189273 -0.000164078 9.1965e-06
-0.000164078 0.000521175 -3.91181e-06
9.1965e-06 -3.91181e-06 0.000411241
0.00395176 -0.000150413 -9.02788e-05
-0.000150413 0.00188744 -4.58493e-06
-9.02788e-05 -4.58493e-06 0.0018718
0.0031436 -1.14071e-05 -7.42966e-05
-1.14071e-05 0.00140996 -3.18549e-06
-7.42966e-05 -3.18549e-06 0.00138962
0.00279916 -9.88193e-05 -5.3537e-05
-9.88193e-05 0.00124785 -1.79532e-06
-5.3537e-05 -1.79532e-06 0.00122019
0.00371055 -0.000126798 5.29381e-06
-0.000126798 0.00174177 -3.80627e-07
5.29381e-06 -3.80627e-07 0.00173287
0.000646329 8.50103e-05 -5.1068e-08
8.50103e-05 -2.32697e-05 -3.42279e-07
-5.1068e-08 -3.42279e-07 -8.47195e-05
0.00154913 4.61714e-05 0.000133117
4.61714e-05 0.000501704 9.17389e-06
0.000133117 9.17389e-06 0.00048194
0.00176536 8.5971e-05 0.000132983
8.5971e-05 0.000637226 1.21971e-05
0.000132983 1.21971e-05 0.000618303
0.00247552 0.000134538 8.13811e-05
0.000134538 0.000939861 9.55362e-06
8.13811e-05 9.55362e-06 0.000887232
0.00304554 -0.000148083 1.44145e-05
-0.000148083 0.00137122 1.62223e-06
1.44145e-05 1.62223e-06 0.00135936
0.00239046 0.000119625 7.16059e-05
0.000119625 0.000932287 9.73708e-06
7.16059e-05 9.73708e-06 0.000878481
0.000676556 4.72891e-05 1.20493e-05
4.72891e-05 -2.63677e-06 1.11418e-05
1.20493e-05 1.11418e-05 -5.64996e-05
0.00095019 0.000122593 5.61022e-06
0.000122593 8.83227e-05 2.73117e-06
5.61022e-06 2.73117e-06 -2.3631e-05
0.00262255 -9.3471e-05 5.46755e-05
-9.3471e-05 0.00111931 2.50395e-06
5.46755e-05 2.50395e-06 0.00112341
0.00517176 4.95467e-05 1.87179e-06
4.95467e-05 0.00252543 -1.01856e-06
1.87179e-06 -1.01856e-06 0.00252416
0.00319071 2.6378e-05 -5.8436e-05
2.6378e-05 0.0014252 -1.33377e-06
-5.8436e-05 -1.33377e-06 0.00140733
0.0051813 7.76109e-05 0.000157146
7.76109e-05 0.00253368 1.18888e-06
0.000157146 1.18888e-06 0.00253038
0.00134102 -9.83219e-07 1.37463e-05
-9.83219e-07 0.000391406 1.32589e-06
1.37463e-05 1.32589e-06 0.000360292
0.000742732 9.42127e-07 1.58734e-05
9.42127e-07 -6.44668e-05 2.05924e-06
1.58734e-05 2.05924e-06 -0.000127921
0.00486902 0.000111725 6.16593e-05
0.000111725 0.00236841 4.22106e-06
6.16593e-05 4.22106e-06 0.0023537
0.00250537 3.07003e-05 8.20304e-05
3.07003e-05 0.000927047 4.95343e-06
8.20304e-05 4.95343e-06 0.000881479
0.00120864 -4.95442e-05 -2.91e-05
-4.95442e-05 0.000326897 3.39679e-06
-2.91e-05 3.39679e-06 0.000296952
0.00132216 -5.76056e-06 -2.11856e-05
-5.76056e-06 0.000400318 3.65542e-06
-2.11856e-05 3.65542e-06 0.000371427
0.00136164 0.000122442 3.5866e-06
0.000122442 0.000462304 5.85427e-06
3.5866e-06 5.85427e-06 0.000413921
0.00145691 -8.4126e-05 -6.87314e-05
-8.4126e-05 0.000392379 9.56197e-06
-6.87314e-05 9.56197e-06 0.000336509
0.00329518 2.61012e-05 -6.34429e-05
2.61012e-05 0.00148957 -1.07356e-06
-6.34429e-05 -1.07356e-06 0.00146526
0.00147581 -3.53837e-05 5.3889e-05
-3.53837e-05 0.000464943 -1.94754e-06
5.3889e-05 -1.94754e-06 0.000439511
0.00116278 4.29443e-05 4.73642e-05
4.29443e-05 0.000319228 -3.36983e-06
4.73642e-05 -3.36983e-06 0.000294361
0.00146942 -2.01737e-05 5.35116e-05
-2.01737e-05 0.000466562 -4.33115e-06
5.35116e-05 -4.33115e-06 0.000443254
0.00149077 -6.15749e-05 -1.92711e-05
-6.15749e-05 0.000379975 6.84806e-07
-1.92711e-05 6.84806e-07 0.000325373
0.00129925 -3.66462e-05 -2.68527e-05
-3.66462e-05 0.000341477 4.41483e-07
-2.68527e-05 4.41483e-07 0.000277094
0.00147168 -7.08173e-05 -2.10787e-05
-7.08173e-05 0.000388642 1.32817e-06
-2.10787e-05 1.32817e-06 0.000331871
0.00193756 -0.000165046 -4.43907e-06
-0.000165046 0.000544522 1.145e-06
-4.43907e-06 1.145e-06 0.000434171
0.00513277 6.85646e-05 0.000147801
6.85646e-05 0.0025061 -5.32802e-08
0.000147801 -5.32802e-08 0.00250409
0.00169459 -9.26416e-06 0.000137844
-9.26416e-06 0.000573641 -5.27728e-06
0.000137844 -5.27728e-06 0.000553837
0.00235241 6.27634e-05 1.6461e-05
6.27634e-05 0.000853103 -1.27785e-06
1.6461e-05 -1.27785e-06 0.000796305
0.00144211 -6.56543e-05 2.99548e-05
-6.56543e-05 0.000352748 -4.12728e-06
2.99548e-05 -4.12728e-06 0.000293303
0.00144705 -5.52562e-05 2.75135e-05
-5.52562e-05 0.000364796 -5.42216e-06
2.75135e-05 -5.42216e-06 0.00030688
0.00195007 -0.000104426 9.37629e-06
-0.000104426 0.000485331 -2.25948e-06
9.37629e-06 -2.25948e-06 0.00038729
0.00151419 -0.000132112 1.14487e-05
-0.000132112 0.000274783 -4.09599e-06
1.14487e-05 -4.09599e-06 0.000168581
0.00113363 4.14525e-05 7.10753e-05
4.14525e-05 0.000280223 -8.25956e-06
7.10753e-05 -8.25956e-06 0.000266598
0.000879816 1.67172e-05 8.25609e-06
1.67172e-05 0.000140931 -5.97019e-06
8.25609e-06 -5.97019e-06 8.29103e-05
0.00168645 -0.000156055 6.73716e-06
-0.000156055 0.000462458 -3.75713e-06
6.73716e-06 -3.75713e-06 0.000351524
0.0012843 -0.000158277 6.05119e-06
-0.000158277 9.66998e-05 -1.61657e-06
6.05119e-06 -1.61657e-06 -4.06156e-05
0.00500788 2.10523e-05 -0.000146396
2.10523e-05 0.00244235 -8.71292e-06
-0.000146396 -8.71292e-06 0.0024399
0.00351663 -0.000138301 -7.68477e-05
-0.000138301 0.00163396 -3.00464e-06
-7.68477e-05 -3.00464e-06 0.00162442
0.00431939 -0.000152881 -9.96207e-05
-0.000152881 0.00210234 -7.10162e-06
-9.96207e-05 -7.10162e-06 0.00208165
0.000548456 8.07488e-05 -1.17327e-05
8.07488e-05 -7.37165e-05 -9.62197e-06
-1.17327e-05 -9.62197e-06 -0.000134539
0.00514778 7.34053e-05 -2.62007e-06
7.34053e-05 0.0025118 -1.08047e-06
-2.62007e-06 -1.08047e-06 0.00250989
0.00495892 -5.58025e-05 -7.03218e-06
-5.58025e-05 0.00243483 3.2024e-07
-7.03218e-06 3.2024e-07 0.00242332
0.000597327 0.000104576 -5.48738e-07
0.000104576 -0.000106334 -2.49663e-07
-5.48738e-07 -2.49663e-07 -0.00017391
0.00207004 -9.35511e-05 -3.2045e-05
-9.35511e-05 0.000817633 -1.75649e-07
-3.2045e-05 -1.75649e-07 0.000806595
0.000612379 0.000115933 -6.83171e-07
0.000115933 -5.6565e-05 -7.88906e-08
-6.83171e-07 -7.88906e-08 -0.000121934
0.00126829 2.65473e-05 2.03929e-05
2.65473e-05 0.000336296 2.56608e-07
2.03929e-05 2.56608e-07 0.000288459
0.000884408 0.000115969 3.04245e-07
0.000115969 5.02863e-05 -1.85589e-07
3.04245e-07 -1.85589e-07 -6.05444e-05
0.00293688 -9.77735e-05 7.14314e-05
-9.77735e-05 0.00129643 2.87247e-06
7.14314e-05 2.87247e-06 0.0012986
0.000629134 -6.68503e-05 -9.93742e-07
-6.68503e-05 -2.67784e-06 5.56887e-06
-9.93742e-07 5.56887e-06 -3.22293e-05
0.000718881 7.48055e-05 1.66576e-05
7.48055e-05 -5.92833e-05 7.83721e-06
1.66576e-05 7.83721e-06 -0.000124153
0.000755035 0.000118463 2.02696e-05
0.000118463 -3.24056e-06 1.19633e-05
2.02696e-05 1.19633e-05 -7.30717e-05
0.0010592 0.000116324 1.05957e-05
0.000116324 9.50508e-07 4.3187e-06
1.05957e-05 4.3187e-06 -0.000114104
0.00180798 -2.5627e-05 4.05897e-05
-2.5627e-05 0.00064769 5.065e-06
4.05897e-05 5.065e-06 0.000612951
0.00100072 0.000130111 7.18255e-06
0.000130111 6.66005e-05 4.46421e-06
7.18255e-06 4.46421e-06 -4.80836e-05
0.000937059 0.000103593 5.04259e-06
0.000103593 0.000124213 2.98461e-06
5.04259e-06 2.98461e-06 1.60845e-05
0.000905075 0.00014637 2.0329e-06
0.00014637 2.17634e-05 4.12239e-08
2.0329e-06 4.12239e-08 -0.000117044
0.00235821 -8.62926e-05 4.01313e-05
-8.62926e-05 0.000966587 2.59849e-06
4.01313e-05 2.59849e-06 0.00097296
0.00250836 -9.65892e-05 2.86981e-06
-9.65892e-05 0.001057 -2.03517e-07
2.86981e-06 -2.03517e-07 0.00106026
0.00510538 2.48753e-05 -0.000150257
2.48753e-05 0.00248583 -5.87118e-06
-0.000150257 -5.87118e-06 0.00248585
0.00515113 4.20385e-05 -0.000150893
4.20385e-05 0.00251264 -2.71757e-06
-0.000150893 -2.71757e-06 0.00251251
0.00519812 7.45468e-05 9.30353e-07
7.45468e-05 0.00254553 -1.07699e-06
9.30353e-07 -1.07699e-06 0.00254065
0.0032115 -1.81397e-05 -7.09203e-05
-1.81397e-05 0.00143275 -1.60606e-06
-7.09203e-05 -1.60606e-06 0.00141703
0.0016416 1.64203e-05 3.51957e-05
1.64203e-05 0.000439519 3.44844e-07
3.51957e-05 3.44844e-07 0.000384635
0.00322624 6.34522e-05 -6.41011e-05
6.34522e-05 0.00144219 -3.02908e-06
-6.41011e-05 -3.02908e-06 0.00142513
0.00164721 4.65145e-05 3.34034e-05
4.65145e-05 0.000451341 9.15027e-07
3.34034e-05 9.15027e-07 0.000396328
0.0052043 0.000141985 0.000154128
0.000141985 0.00255753 2.55884e-06
0.000154128 2.55884e-06 0.00254674
0.000683233 -1.82251e-06 1.60661e-05
-1.82251e-06 -9.85981e-05 5.55538e-07
1.60661e-05 5.55538e-07 -0.000161611
0.00255888 3.29678e-06 8.36732e-05
3.29678e-06 0.000954241 3.497e-06
8.36732e-05 3.497e-06 0.000908475
0.00114983 2.518e-05 1.11229e-05
2.518e-05 5.2001e-06 1.42145e-06
1.11229e-05 1.42145e-06 -0.00010226
0.0024444 7.45478e-05 8.19936e-05
7.45478e-05 0.000900357 5.91877e-06
8.19936e-05 5.91877e-06 0.000852623
0.00115105 6.23647e-05 1.07069e-05
6.23647e-05 1.8744e-05 2.523e-06
1.07069e-05 2.523e-06 -8.9065e-05
0.0016672 2.61599e-05 -0.000144201
2.61599e-05 0.000558313 8.5085e-07
-0.000144201 8.5085e-07 0.000540404
0.00123367 -1.94254e-05 -2.07129e-05
-1.94254e-05 0.000336351 1.96606e-06
-2.07129e-05 1.96606e-06 0.000306676
0.00116762 0.000101535 -3.55533e-06
0.000101535 0.000339389 4.26217e-06
-3.55533e-06 4.26217e-06 0.000302292
0.00125482 -3.19417e-05 -2.75177e-05
-3.19417e-05 0.000354975 3.57948e-06
-2.75177e-05 3.57948e-06 0.000326604
0.00157767 -4.69872e-05 -7.03083e-05
-4.69872e-05 0.000423356 5.61806e-06
-7.03083e-05 5.61806e-06 0.000372733
0.00151573 -7.51955e-05 -6.86594e-05
-7.51955e-05 0.000408079 8.69665e-06
-6.86594e-05 8.69665e-06 0.000354856
0.00136816 -7.25381e-05 -6.39022e-05
-7.25381e-05 0.000367223 9.11246e-06
-6.39022e-05 9.11246e-06 0.000311214
0.00199265 -0.000167063 -1.79745e-05
-0.000167063 0.000574021 6.2361e-06
-1.79745e-05 6.2361e-06 0.000463089
0.00519117 -7.21866e-05 -4.05383e-07
-7.21866e-05 0.00254106 -8.37148e-07
-4.05383e-07 -8.37148e-07 0.00253641
0.00148055 2.65739e-05 6.28929e-05
2.65739e-05 0.000462287 -1.76003e-06
6.28929e-05 -1.76003e-06 0.000437366
0.0011436 6.08624e-06 -3.78218e-05
6.08624e-06 0.000164064 5.25943e-07
-3.78218e-05 5.25943e-07 0.000107212
0.00149224 -4.11819e-05 -2.21162e-05
-4.11819e-05 0.000375028 6.04629e-07
-2.21162e-05 6.04629e-07 0.000320091
0.00225294 7.50059e-05 6.96158e-05
7.50059e-05 0.000917826 -4.70899e-07
6.96158e-05 -4.70899e-07 0.000908586
0.0014482 -4.30679e-06 -1.74974e-05
-4.30679e-06 0.000447553 -4.31346e-07
-1.74974e-05 -4.31346e-07 0.000393149
0.00149335 -6.82323e-05 -1.93373e-05
-6.82323e-05 0.000387629 9.62908e-07
-1.93373e-05 9.62908e-07 0.00033267
0.00177413 -9.68e-05 -6.52496e-06
-9.68e-05 0.000385539 1.1793e-06
-6.52496e-06 1.1793e-06 0.000286328
0.00182157 -0.000165571 -3.34149e-06
-0.000165571 0.00053479 1.01796e-06
-3.34149e-06 1.01796e-06 0.000421521
0.00175536 -0.000140572 -2.30042e-06
-0.000140572 0.000409481 4.83767e-07
-2.30042e-06 4.83767e-07 0.00030403
0.00124021 -0.000154801 8.51057e-08
-0.000154801 7.37357e-05 -1.22077e-07
8.51057e-08 -1.22077e-07 -6.30172e-05
0.000715825 6.79114e-06 1.63441e-05
6.79114e-06 -7.91457e-05 -1.21959e-06
1.63441e-05 -1.21959e-06 -0.000141391
0.0014537 2.38908e-06 2.30641e-05
2.38908e-06 0.000348348 -2.43965e-06
2.30641e-05 -2.43965e-06 0.000289676
0.00160697 -1.96848e-05 1.11302e-05
-1.96848e-05 0.000263483 -1.1637e-06
1.11302e-05 -1.1637e-06 0.000162678
0.0015385 -7.43018e-05 1.05926e-05
-7.43018e-05 0.000248148 -2.29172e-06
1.05926e-05 -2.29172e-06 0.000147331
0.00154011 -0.000113447 1.13761e-05
-0.000113447 0.000266009 -3.37247e-06
1.13761e-05 -3.37247e-06 0.0001632
0.00177685 -0.000111823 3.18657e-06
-0.000111823 0.000299459 -8.12574e-07
3.18657e-06 -8.12574e-07 0.000178952
0.00318143 0.000119581 6.83929e-05
0.000119581 0.0014336 -2.46836e-06
6.83929e-05 -2.46836e-06 0.00143054
0.0013356 -0.000143032 5.62408e-06
-0.000143032 9.01756e-05 -1.5381e-06
5.62408e-06 -1.5381e-06 -3.97216e-05
0.000527841 1.55296e-05 4.94826e-06
1.55296e-05 -6.75856e-05 -7.10823e-06
4.94826e-06 -7.10823e-06 -0.00011459
0.000660747 -0.000100965 4.07051e-06
-0.000100965 -4.33479e-05 -3.24064e-06
4.07051e-06 -3.24064e-06 -0.000149221
0.0013649 -0.000176681 5.35387e-06
-0.000176681 0.000204971 -2.88552e-06
5.35387e-06 -2.88552e-06 5.70615e-05
0.0014532 -0.000174895 3.40668e-06
-0.000174895 0.000128525 3.20853e-07
3.40668e-06 3.20853e-07 -1.7108e-05
0.000531566 4.94307e-05 1.48096e-06
4.94307e-05 -6.48096e-05 -6.52864e-06
1.48096e-06 -6.52864e-06 -0.000102055
0.000701073 2.29648e-05 5.6977e-07
2.29648e-05 1.28138e-05 -3.21253e-06
5.6977e-07 -3.21253e-06 -6.10035e-05
0.0051241 7.81239e-05 -0.000159434
7.81239e-05 0.00250042 -9.40103e-06
-0.000159434 -9.40103e-06 0.00249839
0.00468737 -7.3248e-05 -0.000122208
-7.3248e-05 0.00228498 -7.61593e-06
-0.000122208 -7.61593e-06 0.00227569
0.000588174 9.49331e-05 -1.54822e-05
9.49331e-05 -0.000111734 -8.65393e-06
-1.54822e-05 -8.65393e-06 -0.000179359
0.0031058 -0.00012168 -6.45671e-05
-0.00012168 0.00139787 -2.41111e-06
-6.45671e-05 -2.41111e-06 0.00139405
0.000518986 1.6555e-05 -5.93589e-06
1.6555e-05 -7.94081e-05 -8.48766e-06
-5.93589e-06 -8.48766e-06 -0.00012942
0.000513898 0.000108751 -1.49248e-05
0.000108751 -0.000108408 -9.65338e-06
-1.49248e-05 -9.65338e-06 -0.000173179
0.000837209 0.000111055 -5.70081e-06
0.000111055 2.27965e-05 -3.30936e-06
-5.70081e-06 -3.30936e-06 -8.71653e-05
0.0028286 -0.000105214 3.42391e-06
-0.000105214 0.00123867 -2.17781e-07
3.42391e-06 -2.17781e-07 0.00123934
0.000589097 -7.33658e-05 8.49459e-08
-7.33658e-05 -2.28475e-05 2.21958e-07
8.49459e-08 2.21958e-07 -5.34251e-05
0.00158505 9.12191e-05 3.25391e-05
9.12191e-05 0.000427138 1.3193e-06
3.25391e-05 1.3193e-06 0.000369027
0.00148255 0.000121983 2.9335e-05
0.000121983 0.000407103 9.20239e-07
2.9335e-05 9.20239e-07 0.000345904
0.00107267 0.000118604 2.1665e-07
0.000118604 9.27715e-06 -1.605e-07
2.1665e-07 -1.605e-07 -0.000106208
0.000630416 -2.3632e-05 -5.40548e-07
-2.3632e-05 -1.01862e-05 1.54976e-07
-5.40548e-07 1.54976e-07 -5.14942e-05
0.000951215 0.000126456 3.91816e-07
0.000126456 3.99584e-05 4.21461e-07
3.91816e-07 4.21461e-07 -7.41137e-05
0.00083607 9.51487e-05 2.6043e-07
9.51487e-05 6.76012e-05 -2.47115e-07
2.6043e-07 -2.47115e-07 -3.85321e-05
0.000831055 0.000141772 -2.21339e-08
0.000141772 -2.06881e-05 2.47259e-08
-2.21339e-08 2.47259e-08 -0.000159719
0.000626859 -4.94758e-05 2.97275e-06
-4.94758e-05 -3.30823e-06 6.14909e-06
2.97275e-06 6.14909e-06 -3.98433e-05
0.0006628 -6.4035e-05 -6.24791e-07
-6.4035e-05 5.81441e-06 4.53512e-06
-6.24791e-07 4.53512e-06 -1.66374e-05
0.000678311 6.94498e-07 1.98738e-06
6.94498e-07 1.37438e-05 2.95988e-06
1.98738e-06 2.95988e-06 -5.5374e-05
0.00110318 9.86761e-05 1.07674e-05
9.86761e-05 3.97608e-06 3.81346e-06
1.07674e-05 3.81346e-06 -0.000108441
0.00103039 0.000128941 9.39297e-06
0.000128941 2.97086e-05 4.51107e-06
9.39297e-06 4.51107e-06 -8.71807e-05
0.00130921 0.000145523 6.09897e-06
0.000145523 5.78768e-05 1.68904e-06
6.09897e-06 1.68904e-06 -8.14163e-05
0.000878171 7.61225e-05 3.97273e-06
7.61225e-05 0.000113562 3.16461e-06
3.97273e-06 3.16461e-06 1.5504e-05
0.000910473 0.000147122 2.50457e-06
0.000147122 -4.55015e-05 1.87744e-06
2.50457e-06 1.87744e-06 -0.000185481
0.00113305 0.000157231 2.1934e-06
0.000157231 0.000208019 7.84209e-07
2.1934e-06 7.84209e-07 6.72137e-05
0.00108119 0.000169362 -2.82599e-06
0.000169362 0.000103677 -1.38409e-06
-2.82599e-06 -1.38409e-06 -4.65198e-05
0.00220537 -7.65037e-05 3.33545e-05
-7.65037e-05 0.000872656 2.86038e-06
3.33545e-05 2.86038e-06 0.00088201
0.00228459 -8.59505e-05 1.38098e-06
-8.59505e-05 0.000925202 -1.50887e-07
1.38098e-06 -1.50887e-07 0.000931677
0.00240238 -9.63467e-05 -3.88406e-05
-9.63467e-05 0.00099861 -2.47147e-06
-3.88406e-05 -2.47147e-06 0.00100187
0.000555216 5.92403e-05 7.1375e-07
5.92403e-05 -5.26626e-05 -5.73197e-06
7.1375e-07 -5.73197e-06 -8.56121e-05
0.00297676 0.000109597 5.83788e-05
0.000109597 0.00131456 -2.59199e-06
5.83788e-05 -2.59199e-06 0.00131459
0.00513867 0.000106368 -0.000162976
0.000106368 0.00250954 -9.06888e-06
-0.000162976 -9.06888e-06 0.00250592
0.0050837 1.22248e-06 -0.000147461
1.22248e-06 0.0024749 -3.98649e-06
-0.000147461 -3.98649e-06 0.00247518
0.00072342 5.55677e-05 -1.63428e-05
5.55677e-05 -6.30666e-05 -4.19469e-06
-1.63428e-05 -4.19469e-06 -0.000125998
0.000692706 2.13462e-05 -1.64638e-05
2.13462e-05 -8.76143e-05 -2.30027e-06
-1.64638e-05 -2.30027e-06 -0.000151202
0.00516056 -5.98304e-05 -0.000148199
-5.98304e-05 0.00252028 -6.42912e-07
-0.000148199 -6.42912e-07 0.00251872
0.00518789 1.06817e-05 -8.93666e-07
1.06817e-05 0.00253469 4.12541e-07
-8.93666e-07 4.12541e-07 0.00253308
0.000681702 -2.64959e-06 -1.52579e-07
-2.64959e-06 -9.93303e-05 -1.88111e-07
-1.52579e-07 -1.88111e-07 -0.000162153
0.00162077 1.89869e-05 3.43161e-05
1.89869e-05 0.000433234 7.63108e-07
3.43161e-05 7.63108e-07 0.000379027
0.0011602 2.94107e-05 1.42951e-07
2.94107e-05 1.10775e-05 -2.03069e-07
1.42951e-07 -2.03069e-07 -9.65608e-05
0.000671323 5.26426e-05 1.63574e-07
5.26426e-05 -9.00612e-05 -1.7756e-07
1.63574e-07 -1.7756e-07 -0.000153035
0.00114172 6.46803e-05 -1.2082e-07
6.46803e-05 1.41029e-05 -1.38845e-08
-1.2082e-07 -1.38845e-08 -9.40774e-05
0.00067451 -1.58012e-05 1.63665e-05
-1.58012e-05 -0.000104643 -4.44375e-07
1.63665e-05 -4.44375e-07 -0.000167203
0.00115961 1.09673e-05 1.10355e-05
1.09673e-05 5.07749e-06 5.75408e-07
1.10355e-05 5.75408e-07 -0.000102501
0.0011484 4.43424e-05 1.0891e-05
4.43424e-05 1.29537e-05 2.17704e-06
1.0891e-05 2.17704e-06 -9.43408e-05
0.00142308 3.34533e-05 4.44443e-06
3.34533e-05 6.68943e-05 5.78329e-07
4.44443e-06 5.78329e-07 -5.57412e-05
0.00112848 7.94128e-05 1.07333e-05
7.94128e-05 9.23618e-06 2.89536e-06
1.07333e-05 2.89536e-06 -0.000100591
0.00143668 7.51893e-05 4.4206e-06
7.51893e-05 9.17054e-05 9.88033e-07
4.4206e-06 9.88033e-07 -3.39094e-05
0.00517867 -6.4629e-05 -0.000159536
-6.4629e-05 0.00253346 -3.39096e-07
-0.000159536 -3.39096e-07 0.00252925
0.00128763 -5.92846e-05 -1.77236e-05
-5.92846e-05 0.000364922 1.80053e-06
-1.77236e-05 1.80053e-06 0.000333361
-0.000155386 -3.37725e-07 -1.35362e-05
-3.37725e-07 -0.0005621 2.17628e-06
-1.35362e-05 2.17628e-06 -0.000632037
0.00158137 -3.15794e-05 -7.18467e-05
-3.15794e-05 0.000420807 4.17277e-06
-7.18467e-05 4.17277e-06 0.000369375
0.00323009 0.000168292 -1.50997e-05
0.000168292 0.00148517 1.6565e-06
-1.50997e-05 1.6565e-06 0.00146646
0.00202442 -5.77736e-05 -5.3067e-05
-5.77736e-05 0.000752872 7.67563e-06
-5.3067e-05 7.67563e-06 0.000706179
0.00155719 -6.27282e-05 -6.93596e-05
-6.27282e-05 0.000418829 7.32887e-06
-6.93596e-05 7.32887e-06 0.000367354
0.00157898 -8.88774e-05 -2.08397e-05
-8.88774e-05 0.000274876 4.10591e-06
-2.08397e-05 4.10591e-06 0.000174624
0.00199682 -0.000149419 -1.72556e-05
-0.000149419 0.000544544 5.24754e-06
-1.72556e-05 5.24754e-06 0.000439845
0.00200325 -0.000176768 -1.48557e-05
-0.000176768 0.000633412 6.4838e-06
-1.48557e-05 6.4838e-06 0.000517555
0.00120436 -0.000151814 -5.16848e-06
-0.000151814 5.528e-05 1.16742e-06
-5.16848e-06 1.16742e-06 -8.09656e-05
0.000675562 9.37367e-06 1.97562e-08
9.37367e-06 -0.000101815 -1.6916e-07
1.97562e-08 -1.6916e-07 -0.000163922
0.00154304 -3.58737e-05 -2.40319e-05
-3.58737e-05 0.000395595 1.81656e-07
-2.40319e-05 1.81656e-07 0.000339559
0.00118745 -1.69522e-05 -4.56606e-06
-1.69522e-05 2.95156e-05 1.98846e-07
-4.56606e-06 1.98846e-07 -7.47338e-05
0.00180529 -7.75746e-05 -3.16051e-06
-7.75746e-05 0.000394607 4.13657e-07
-3.16051e-06 4.13657e-07 0.000295425
0.00320724 0.0001157 -1.65362e-06
0.0001157 0.00144853 -3.09707e-07
-1.65362e-06 -3.09707e-07 0.00144586
0.00120682 1.64263e-06 2.04935e-06
1.64263e-06 0.000309953 4.6537e-07
2.04935e-06 4.6537e-07 0.000263055
0.00121026 -0.000124334 6.0378e-07
-0.000124334 0.000258644 -4.35947e-07
6.0378e-07 -4.35947e-07 0.000151965
0.00155527 -0.000112693 -3.54481e-06
-0.000112693 0.000274873 6.6286e-07
-3.54481e-06 6.6286e-07 0.000172026
0.00146715 -0.000102141 -2.45304e-06
-0.000102141 0.000125921 6.65191e-07
-2.45304e-06 6.65191e-07 4.23069e-06
0.00102114 -0.000155345 -7.91245e-07
-0.000155345 1.81684e-05 -4.92201e-07
-7.91245e-07 -4.92201e-07 -0.000127875
0.00154566 -0.000149869 2.19136e-07
-0.000149869 0.000207717 -6.7359e-08
2.19136e-07 -6.7359e-08 7.88292e-05
0.00139706 -0.000171227 3.95671e-07
-0.000171227 9.95512e-05 8.47633e-08
3.95671e-07 8.47633e-08 -4.56275e-05
0.000562236 4.35438e-05 -6.61018e-07
4.35438e-05 -4.86223e-05 8.7944e-08
-6.61018e-07 8.7944e-08 -8.5601e-05
0.000686082 8.73258e-06 -1.72257e-07
8.73258e-06 2.75368e-06 1.34866e-07
-1.72257e-07 1.34866e-07 -7.11758e-05
0.00114414 -8.5064e-06 1.08701e-05
-8.5064e-06 -2.45154e-06 -1.14359e-06
1.08701e-05 -1.14359e-06 -0.000109177
0.0016179 -4.28128e-05 1.06528e-05
-4.28128e-05 0.000275781 -1.62835e-06
1.06528e-05 -1.62835e-06 0.000174768
0.00180699 -2.62615e-05 3.28622e-06
-2.62615e-05 0.000286559 -2.72847e-07
3.28622e-06 -2.72847e-07 0.000169248
0.00119834 -7.42083e-05 5.13977e-06
-7.42083e-05 -3.1565e-05 -1.5069e-06
5.13977e-06 -1.5069e-06 -0.000154231
0.00164612 -0.000136143 4.6119e-06
-0.000136143 0.000239633 -1.17154e-06
4.6119e-06 -1.17154e-06 0.000115354
0.0016782 -0.000109597 2.74976e-07
-0.000109597 0.000191013 6.44846e-08
2.74976e-07 6.44846e-08 6.76858e-05
0.000503807 2.91708e-05 3.74095e-06
2.91708e-05 -8.18451e-05 -6.83883e-06
3.74095e-06 -6.83883e-06 -0.000123135
0.00144136 -0.000151921 2.3197e-06
-0.000151921 9.05512e-05 -2.06994e-07
2.3197e-06 -2.06994e-07 -4.34224e-05
0.000634652 -6.99451e-05 2.78238e-06
-6.99451e-05 -2.9107e-05 -2.04257e-06
2.78238e-06 -2.04257e-06 -0.000126158
0.000527485 -0.000124153 3.59964e-06
-0.000124153 -0.000166904 -4.01572e-06
3.59964e-06 -4.01572e-06 -0.00030856
0.00198448 -0.000226132 2.12988e-06
-0.000226132 0.000494215 -4.96691e-07
2.12988e-06 -4.96691e-07 0.000329718
0.00156119 -0.000181898 3.35786e-07
-0.000181898 0.000142863 1.90765e-06
3.35786e-07 1.90765e-06 2.54819e-06
0.000760944 -2.32213e-05 1.67936e-06
-2.32213e-05 4.97565e-05 -2.99016e-06
1.67936e-06 -2.99016e-06 -3.67043e-05
0.000674972 2.22212e-05 1.19601e-06
2.22212e-05 -4.14205e-06 -2.63957e-06
1.19601e-06 -2.63957e-06 -6.84661e-05
0.000840227 -6.07723e-05 6.6511e-07
-6.07723e-05 9.28681e-05 -6.64084e-07
6.6511e-07 -6.64084e-07 -1.34426e-05
0.000635424 7.64125e-05 -1.52862e-05
7.64125e-05 -0.000101425 -6.87775e-06
-1.52862e-05 -6.87775e-06 -0.000166641
0.00272131 -0.000109195 -4.94113e-05
-0.000109195 0.00118076 -2.30012e-06
-4.94113e-05 -2.30012e-06 0.0011805
0.000537904 -6.60398e-05 -1.10891e-07
-6.60398e-05 -5.40866e-05 -4.82624e-06
-1.10891e-07 -4.82624e-06 -8.25525e-05
0.000526988 0.000108697 -1.54046e-05
0.000108697 -0.000121141 -9.90515e-06
-1.54046e-05 -9.90515e-06 -0.000188996
0.00108314 0.000121089 -1.08805e-05
0.000121089 1.59353e-05 -4.65521e-06
-1.08805e-05 -4.65521e-06 -0.000100017
0.000500048 -3.28385e-05 -3.10918e-06
-3.28385e-05 -8.00486e-05 -7.19877e-06
-3.10918e-06 -7.19877e-06 -0.000121689
0.000719941 8.44566e-05 -3.53824e-06
8.44566e-05 2.92896e-06 -3.16877e-06
-3.53824e-06 -3.16877e-06 -0.000101252
0.000898663 0.000122476 -6.66374e-06
0.000122476 1.19528e-05 -3.74888e-06
-6.66374e-06 -3.74888e-06 -0.000101507
0.00073356 0.000135761 -3.41056e-06
0.000135761 -7.64081e-05 -1.03108e-06
-3.41056e-06 -1.03108e-06 -0.000215447
0.000563147 -5.28059e-05 1.62194e-06
-5.28059e-05 -3.9901e-05 1.19177e-07
1.62194e-06 1.19177e-07 -7.50185e-05
0.000625687 -5.8962e-05 -2.59067e-07
-5.8962e-05 -1.62854e-05 1.54291e-07
-2.59067e-07 1.54291e-07 -3.75058e-05
0.000665103 -3.26795e-05 3.33298e-07
-3.26795e-05 2.74089e-06 3.6964e-07
3.33298e-07 3.6964e-07 -6.23409e-05
0.00110959 0.000100805 9.93743e-08
0.000100805 8.43158e-06 -1.90115e-07
9.93743e-08 -1.90115e-07 -0.000104423
0.00101733 0.000128877 6.05623e-07
0.000128877 2.37456e-05 -3.57054e-07
6.05623e-07 -3.57054e-07 -9.31314e-05
0.00133757 0.000148058 3.55063e-07
0.000148058 7.26276e-05 3.22025e-08
3.55063e-07 3.22025e-08 -6.71117e-05
0.000792177 6.60044e-05 9.65006e-08
6.60044e-05 6.8151e-05 1.56733e-08
9.65006e-08 1.56733e-08 -2.93039e-05
0.00110243 0.000158746 -2.53153e-07
0.000158746 6.12893e-05 -1.99848e-07
-2.53153e-07 -1.99848e-07 -7.9769e-05
0.00101975 0.00014849 4.09559e-07
0.00014849 0.000145481 -4.6188e-07
4.09559e-07 -4.6188e-07 5.63473e-06
0.00103323 0.000169139 -8.4286e-07
0.000169139 7.54437e-05 1.18167e-06
-8.4286e-07 1.18167e-06 -7.49084e-05
0.000668831 -5.22381e-05 1.44844e-06
-5.22381e-05 -4.03229e-06 3.67969e-06
1.44844e-06 3.67969e-06 -2.02492e-05
0.00072238 3.31106e-05 2.46033e-06
3.31106e-05 3.1782e-05 2.67148e-06
2.46033e-06 2.67148e-06 -5.06068e-05
0.000665949 -4.60535e-05 1.92095e-07
-4.60535e-05 -1.28164e-06 2.44322e-06
1.92095e-07 2.44322e-06 -5.29782e-05
0.000821895 3.79678e-05 2.07196e-07
3.79678e-05 9.96686e-05 9.48288e-07
2.07196e-07 9.48288e-07 -2.80179e-07
0.00139402 0.000122513 6.10251e-06
0.000122513 8.21206e-05 1.67091e-06
6.10251e-06 1.67091e-06 -5.19802e-05
0.00125035 0.000161862 5.53561e-06
0.000161862 7.65567e-05 2.78854e-06
5.53561e-06 2.78854e-06 -6.68885e-05
0.00153107 0.000166063 3.60484e-06
0.000166063 0.000121074 4.32675e-07
3.60484e-06 4.32675e-07 -2.85841e-05
0.00108581 0.000124669 2.33656e-06
0.000124669 0.000216634 2.26787e-06
2.33656e-06 2.26787e-06 8.95594e-05
0.00138351 0.000188438 -7.00633e-07
0.000188438 0.000172376 2.18488e-06
-7.00633e-07 2.18488e-06 2.14966e-05
0.000952487 0.000159892 -6.728e-07
0.000159892 0.000100663 -1.90905e-06
-6.728e-07 -1.90905e-06 -6.34585e-05
0.00097571 0.00017227 -4.45359e-07
0.00017227 6.27019e-06 -5.05678e-07
-4.45359e-07 -5.05678e-07 -0.000146667
0.000723306 -2.67386e-05 1.39953e-06
-2.67386e-05 3.00587e-06 1.70433e-06
1.39953e-06 1.70433e-06 -3.30368e-05
0.000666492 -3.92847e-05 1.24209e-06
-3.92847e-05 -2.28739e-05 3.52187e-06
1.24209e-06 3.52187e-06 -3.35005e-05
0.00213738 -6.74391e-05 2.86329e-05
-6.74391e-05 0.000825202 3.20607e-06
2.86329e-05 3.20607e-06 0.000837204
0.00216103 -7.56279e-05 1.58435e-06
-7.56279e-05 0.000846758 -1.42671e-07
1.58435e-06 -1.42671e-07 0.000856416
0.00220384 -8.40994e-05 -3.42458e-05
-8.40994e-05 0.000879464 -2.71061e-06
-3.42458e-05 -2.71061e-06 0.00088644
0.000578272 5.68744e-05 9.36763e-07
5.68744e-05 -4.72096e-05 -4.99828e-06
9.36763e-07 -4.99828e-06 -7.49766e-05
0.00276245 9.94347e-05 4.91245e-05
9.94347e-05 0.00119142 -2.84733e-06
4.91245e-05 -2.84733e-06 0.00119403
0.000580804 5.57184e-05 -2.74676e-07
5.57184e-05 -3.90126e-05 1.09123e-07
-2.74676e-07 1.09123e-07 -7.17247e-05
0.00301686 0.000105853 -1.84615e-06
0.000105853 0.00133617 -2.16684e-07
-1.84615e-06 -2.16684e-07 0.00133685
0.000693921 6.67871e-05 -1.59772e-05
6.67871e-05 -7.62509e-05 -5.47744e-06
-1.59772e-05 -5.47744e-06 -0.000140302
0.000688201 3.02456e-05 -1.59587e-05
3.02456e-05 -8.57011e-05 -3.2846e-06
-1.59587e-05 -3.2846e-06 -0.00014863
0.00113779 6.63412e-05 -1.05529e-05
6.63412e-05 1.22453e-05 -2.5019e-06
-1.05529e-05 -2.5019e-06 -9.62195e-05
0.00115977 3.1504e-05 -1.11302e-05
3.1504e-05 1.10891e-05 -1.79814e-06
-1.11302e-05 -1.79814e-06 -9.66581e-05
0.000708716 -1.12541e-06 -1.66411e-05
-1.12541e-06 -8.55002e-05 -1.03522e-06
-1.66411e-05 -1.03522e-06 -0.000147581
0.00521473 -9.09433e-05 -0.000160376
-9.09433e-05 0.00255303 1.59835e-06
-0.000160376 1.59835e-06 0.00254933
0.000698165 -1.25333e-06 1.01096e-07
-1.25333e-06 -9.24348e-05 -3.13082e-07
1.01096e-07 -3.13082e-07 -0.000154702
0.00116447 1.53857e-05 -2.54275e-09
1.53857e-05 7.95566e-06 -1.67873e-07
-2.54275e-09 -1.67873e-07 -9.97083e-05
0.00114793 4.54738e-05 -3.20201e-09
4.54738e-05 1.31341e-05 -7.52038e-08
-3.20201e-09 -7.52038e-08 -9.43243e-05
0.00141735 3.30156e-05 -1.62315e-08
3.30156e-05 6.48099e-05 -9.94424e-08
-1.62315e-08 -9.94424e-08 -5.78966e-05
0.00113164 8.21647e-05 -9.29525e-09
8.21647e-05 1.15475e-05 -2.54698e-07
-9.29525e-09 -2.54698e-07 -9.88164e-05
0.00140786 7.67873e-05 -8.66612e-08
7.67873e-05 7.653e-05 8.92611e-08
-8.66612e-08 8.92611e-08 -4.94545e-05
0.00116927 -3.67688e-07 1.09788e-05
-3.67688e-07 9.79428e-06 -2.15414e-07
1.09788e-05 -2.15414e-07 -9.75278e-05
0.00143196 2.02666e-05 4.25708e-06
2.02666e-05 6.40378e-05 2.9897e-07
4.25708e-06 2.9897e-07 -5.79122e-05
0.0014265 5.48692e-05 4.47774e-06
5.48692e-05 8.10114e-05 9.04438e-07
4.47774e-06 9.04438e-07 -4.28998e-05
0.00156843 4.2251e-05 2.45469e-07
4.2251e-05 7.641e-05 1.86933e-09
2.45469e-07 1.86933e-09 -4.26047e-05
0.00142869 9.85225e-05 4.70865e-06
9.85225e-05 8.9877e-05 8.70687e-07
4.70865e-06 8.70687e-07 -3.95034e-05
0.00152436 8.45793e-05 2.08341e-07
8.45793e-05 8.232e-05 -1.476e-07
2.08341e-07 -1.476e-07 -4.33392e-05
0.000681807 1.24526e-05 -1.57507e-05
1.24526e-05 -9.92214e-05 7.48809e-07
-1.57507e-05 7.48809e-07 -0.000161359
0.00160682 -1.27545e-05 -7.38133e-05
-1.27545e-05 0.000427558 2.88112e-06
-7.38133e-05 2.88112e-06 0.000374905
0.000756361 -1.27734e-05 -1.18112e-05
-1.27734e-05 -0.000210853 1.60395e-06
-1.18112e-05 1.60395e-06 -0.000318603
0.00205092 -7.94359e-05 -1.83226e-05
-7.94359e-05 0.000529063 3.09634e-06
-1.83226e-05 3.09634e-06 0.000431697
0.00324235 0.000107818 -8.03679e-05
0.000107818 0.00146789 2.95349e-06
-8.03679e-05 2.95349e-06 0.00146632
0.00193518 -7.80106e-06 -4.46251e-05
-7.80106e-06 0.000712842 5.28708e-06
-4.46251e-05 5.28708e-06 0.000671654
0.00182015 -0.000156103 -1.00845e-05
-0.000156103 0.000592918 4.67512e-06
-1.00845e-05 4.67512e-06 0.000484522
0.00155767 -0.000111377 -1.80397e-05
-0.000111377 0.000276543 4.53487e-06
-1.80397e-05 4.53487e-06 0.000173803
0.00115247 -9.21734e-05 -6.42723e-06
-9.21734e-05 -5.03844e-05 1.76554e-06
-6.42723e-06 1.76554e-06 -0.000173228
0.00175504 -0.000156765 -6.51984e-06
-0.000156765 0.000324862 1.71204e-06
-6.51984e-06 1.71204e-06 0.000196971
0.000670092 -0.000133365 -4.80872e-06
-0.000133365 -0.000172521 1.3114e-06
-4.80872e-06 1.3114e-06 -0.000316624
0.00133997 -0.000167443 -2.35015e-06
-0.000167443 6.99794e-05 -1.82117e-07
-2.35015e-06 -1.82117e-07 -7.47119e-05
0.000601295 3.50929e-05 -3.92199e-06
3.50929e-05 -2.72962e-05 6.21379e-06
-3.92199e-06 6.21379e-06 -6.42614e-05
0.000683928 -5.92908e-06 -1.86954e-06
-5.92908e-06 1.12736e-06 2.82506e-06
-1.86954e-06 2.82506e-06 -7.38929e-05
0.000961805 -4.35568e-06 -4.4481e-07
-4.35568e-06 -0.0001032 -1.95013e-07
-4.4481e-07 -1.95013e-07 -0.000211155
0.0016165 -4.41036e-05 -3.8058e-06
-4.41036e-05 0.000274378 3.3556e-07
-3.8058e-06 3.3556e-07 0.000173319
0.00174815 -2.28314e-05 -2.34565e-06
-2.28314e-05 0.000251748 3.32932e-07
-2.34565e-06 3.32932e-07 0.000134457
0.00153301 -8.02329e-05 9.6375e-07
-8.02329e-05 0.000153637 -3.39279e-07
9.6375e-07 -3.39279e-07 3.27841e-05
0.000575685 1.93518e-05 1.53218e-07
1.93518e-05 -4.43692e-05 1.63281e-07
1.53218e-07 1.63281e-07 -8.53811e-05
0.000822443 -8.71745e-05 -1.1816e-07
-8.71745e-05 7.36309e-05 2.28556e-07
-1.1816e-07 2.28556e-07 -2.57057e-05
0.000718564 -0.000135884 1.24829e-06
-0.000135884 -5.77467e-05 -1.3301e-06
1.24829e-06 -1.3301e-06 -0.000198567
0.00173253 -0.000137348 -1.35369e-06
-0.000137348 0.000287419 3.08363e-07
-1.35369e-06 3.08363e-07 0.000163407
0.00156716 -0.000105193 -6.15744e-07
-0.000105193 0.000126174 4.16692e-07
-6.15744e-07 4.16692e-07 3.5044e-06
0.00154789 -0.000200231 -1.66269e-06
-0.000200231 0.000251871 5.26084e-07
-1.66269e-06 5.26084e-07 8.83134e-05
0.00144867 -0.000151912 2.32196e-07
-0.000151912 9.44035e-05 8.53798e-08
2.32196e-07 8.53798e-08 -3.94957e-05
0.00153115 -0.00018088 3.13649e-07
-0.00018088 0.000122905 4.86514e-07
3.13649e-07 4.86514e-07 -1.78613e-05
0.000736085 -2.81799e-05 -3.15907e-07
-2.81799e-05 3.53079e-05 -1.78324e-07
-3.15907e-07 -1.78324e-07 -5.13502e-05
0.000742276 -2.98136e-05 -6.90001e-07
-2.98136e-05 3.31654e-05 -3.78071e-07
-6.90001e-07 -3.78071e-07 -6.77991e-05
0.000689636 1.39622e-05 4.3039e-07
1.39622e-05 2.52113e-06 2.6636e-07
4.3039e-07 2.6636e-07 -6.16384e-05
0.0018081 -6.07482e-06 3.04105e-06
-6.07482e-06 0.000278503 -2.8974e-07
3.04105e-06 -2.8974e-07 0.000160564
0.0016926 -4.93801e-05 3.77116e-06
-4.93801e-05 0.000225303 -4.34311e-07
3.77116e-06 -4.34311e-07 0.000106215
0.00170867 -2.78405e-05 3.24443e-07
-2.78405e-05 0.000159517 4.83221e-07
3.24443e-07 4.83221e-07 4.13042e-05
0.00153489 -8.02892e-05 2.27395e-07
-8.02892e-05 9.59642e-05 -4.18348e-07
2.27395e-07 -4.18348e-07 -2.64192e-05
0.00142107 -0.000129537 2.15444e-06
-0.000129537 5.77088e-05 -2.18282e-07
2.15444e-06 -2.18282e-07 -6.95111e-05
0.00166674 -0.000110767 -2.48251e-06
-0.000110767 0.000131849 9.26281e-07
-2.48251e-06 9.26281e-07 1.74971e-05
0.00071999 -5.27789e-05 2.60778e-06
-5.27789e-05 2.82734e-05 -2.02814e-06
2.60778e-06 -2.02814e-06 -6.48975e-05
0.00152808 -0.000160552 -3.2335e-07
-0.000160552 9.38492e-05 4.40687e-07
-3.2335e-07 4.40687e-07 -3.59231e-05
0.00088481 -0.000135359 1.27438e-06
-0.000135359 8.7483e-05 -1.0013e-06
1.27438e-06 -1.0013e-06 -3.96588e-05
0.000730368 -0.000155969 4.05824e-06
-0.000155969 -9.31522e-05 -4.38009e-06
4.05824e-06 -4.38009e-06 -0.000262032
0.00186987 -0.000225485 1.33046e-06
-0.000225485 0.000376306 1.76991e-06
1.33046e-06 1.76991e-06 0.000209976
0.00183163 -0.000205278 -2.59375e-06
-0.000205278 0.000243812 1.89865e-06
-2.59375e-06 1.89865e-06 0.000108057
0.000693409 1.16748e-05 1.46873e-06
1.16748e-05 2.34282e-06 -2.24235e-06
1.46873e-06 -2.24235e-06 -5.42689e-05
0.000828095 -8.02531e-05 1.43975e-06
-8.02531e-05 7.38972e-05 4.28856e-07
1.43975e-06 4.28856e-07 -3.1512e-05
0.000686005 -1.08853e-05 6.34047e-07
-1.08853e-05 1.11913e-05 -1.55464e-06
6.34047e-07 -1.55464e-06 -8.68039e-05
0.00100578 -0.000126984 -2.31112e-07
-0.000126984 0.000183242 1.47575e-06
-2.31112e-07 1.47575e-06 6.47019e-05
0.00111133 0.000103097 -1.11015e-05
0.000103097 1.02806e-05 -4.11587e-06
-1.11015e-05 -4.11587e-06 -0.000103025
0.000595987 -5.50858e-05 -1.56789e-06
-5.50858e-05 -3.36758e-05 -3.85032e-06
-1.56789e-06 -3.85032e-06 -5.40096e-05
0.000503663 -7.22786e-05 1.70386e-06
-7.22786e-05 -6.70473e-05 -6.41541e-06
1.70386e-06 -6.41541e-06 -0.000105195
0.000680425 -6.05104e-05 1.14566e-06
-6.05104e-05 1.49423e-05 -3.0607e-06
1.14566e-06 -3.0607e-06 -5.16145e-05
0.000998401 0.000128668 -8.41851e-06
0.000128668 1.47071e-05 -5.2715e-06
-8.41851e-06 -5.2715e-06 -0.000102188
0.00135318 0.000149818 -5.79703e-06
0.000149818 8.05386e-05 -1.74065e-06
-5.79703e-06 -1.74065e-06 -5.95922e-05
0.000707972 5.83504e-05 -2.38256e-06
5.83504e-05 2.28407e-05 -2.63942e-06
-2.38256e-06 -2.63942e-06 -7.32137e-05
0.000966297 0.000143919 -2.95299e-06
0.000143919 0.000116934 -2.55021e-06
-2.95299e-06 -2.55021e-06 -2.26479e-05
0.00132072 0.000171992 -3.1802e-06
0.000171992 0.000182764 -2.09821e-06
-3.1802e-06 -2.09821e-06 4.04256e-05
0.000965719 0.00016738 -1.23565e-06
0.00016738 3.72775e-05 5.63919e-07
-1.23565e-06 5.63919e-07 -0.000113125
0.000643285 -5.01312e-05 3.79987e-08
-5.01312e-05 -1.8573e-05 3.26976e-08
3.79987e-08 3.26976e-08 -3.44336e-05
0.000740116 2.75642e-05 3.03978e-07
2.75642e-05 4.64317e-05 -1.06624e-07
3.03978e-07 -1.06624e-07 -3.81345e-05
0.000669049 -5.76026e-05 -5.06448e-07
-5.76026e-05 2.43588e-06 4.59293e-07
-5.06448e-07 4.59293e-07 -5.04021e-05
0.000800985 1.43796e-05 4.38828e-07
1.43796e-05 8.67876e-05 -2.26199e-07
4.38828e-07 -2.26199e-07 -1.1054e-05
0.0013762 0.000122524 9.9463e-07
0.000122524 7.23668e-05 1.36295e-07
9.9463e-07 1.36295e-07 -6.19316e-05
0.00125534 0.000163296 8.17578e-08
0.000163296 8.04481e-05 9.97667e-08
8.17578e-08 9.97667e-08 -6.33417e-05
0.00149134 0.000163549 3.6641e-07
0.000163549 0.000102275 7.60571e-09
3.6641e-07 7.60571e-09 -4.73884e-05
0.000997059 0.000122158 3.13e-07
0.000122158 0.000167996 4.54349e-07
3.13e-07 4.54349e-07 4.22224e-05
0.0015531 0.000198258 -9.41323e-07
0.000198258 0.000268145 -1.76386e-06
-9.41323e-07 -1.76386e-06 0.000116432
0.00110684 0.000171502 2.69029e-07
0.000171502 0.000186208 -1.42056e-06
2.69029e-07 -1.42056e-06 2.00491e-05
0.000976966 0.000172045 -2.0543e-06
0.000172045 1.13558e-05 -3.13986e-07
-2.0543e-06 -3.13986e-07 -0.000135897
0.000666285 -4.54132e-05 1.47916e-06
-4.54132e-05 -1.5409e-05 3.52698e-06
1.47916e-06 3.52698e-06 -2.8266e-05
0.000699994 -4.70883e-05 6.80407e-07
-4.70883e-05 8.77986e-06 1.94115e-06
6.80407e-07 1.94115e-06 -3.47271e-05
0.00098338 7.4142e-05 1.87913e-06
7.4142e-05 0.00017567 1.10524e-06
1.87913e-06 1.10524e-06 6.38408e-05
0.000780476 2.10762e-05 1.10866e-08
2.10762e-05 6.97201e-05 1.53191e-06
1.10866e-08 1.53191e-06 -1.27423e-05
0.000896661 9.25176e-05 4.79276e-07
9.25176e-05 0.00015155 -1.36915e-08
4.79276e-07 -1.36915e-08 3.40257e-05
0.00151687 0.00013284 2.78644e-06
0.00013284 9.46971e-05 9.83978e-08
2.78644e-06 9.83978e-08 -4.48877e-05
0.00151017 0.000187598 1.75603e-06
0.000187598 0.00016296 3.88844e-06
1.75603e-06 3.88844e-06 7.73096e-06
0.00162345 0.000185669 -4.8859e-08
0.000185669 0.000141548 -3.70075e-07
-4.8859e-08 -3.70075e-07 -1.01343e-05
0.00110943 0.000162174 2.77686e-06
0.000162174 0.000234427 3.24804e-06
2.77686e-06 3.24804e-06 7.4127e-05
0.0013888 0.00020168 1.75123e-06
0.00020168 0.000148092 2.96835e-06
1.75123e-06 2.96835e-06 -5.50563e-06
0.000350022 0.000131484 1.81605e-06
0.000131484 -0.000278492 -3.17416e-06
1.81605e-06 -3.17416e-06 -0.000449887
0.000718878 -3.12302e-05 1.69641e-06
-3.12302e-05 4.2699e-06 1.56331e-06
1.69641e-06 1.56331e-06 -3.2742e-05
0.00075713 1.30185e-05 5.73976e-07
1.30185e-05 3.87794e-05 5.77156e-07
5.73976e-07 5.77156e-07 -1.97568e-05
0.000738206 -1.92881e-05 1.01313e-06
-1.92881e-05 7.96551e-06 1.78372e-06
1.01313e-06 1.78372e-06 -2.75126e-05
0.000730362 -2.6196e-05 9.86747e-08
-2.6196e-05 7.23087e-06 -1.26017e-08
9.86747e-08 -1.26017e-08 -2.89009e-05
0.00125633 -4.32288e-05 1.48344e-06
-4.32288e-05 0.000303841 2.15827e-06
1.48344e-06 2.15827e-06 0.000298226
0.000965407 -4.37158e-05 7.96582e-07
-4.37158e-05 0.000146064 -3.99832e-08
7.96582e-07 -3.99832e-08 0.000137033
0.000939405 -3.80891e-05 2.38037e-05
-3.80891e-05 0.000138319 6.37562e-06
2.38037e-05 6.37562e-06 0.000146624
0.00211982 -6.67486e-05 1.58772e-06
-6.67486e-05 0.000814131 -1.34021e-07
1.58772e-06 -1.34021e-07 0.000826396
0.00212771 -7.46312e-05 -3.05868e-05
-7.46312e-05 0.0008269 -3.02922e-06
-3.05868e-05 -3.02922e-06 0.000836912
0.000604183 4.65272e-05 1.55159e-06
4.65272e-05 -4.20565e-05 -4.47226e-06
1.55159e-06 -4.47226e-06 -6.48587e-05
0.00262152 9.01079e-05 4.1965e-05
9.01079e-05 0.00110764 -3.15744e-06
4.1965e-05 -3.15744e-06 0.00111256
0.000605059 5.63266e-05 -3.8209e-07
5.63266e-05 -3.17855e-05 2.71367e-08
-3.8209e-07 2.71367e-08 -5.98108e-05
0.00282541 9.81464e-05 -2.25477e-06
9.81464e-05 0.00122569 -1.9101e-07
-2.25477e-06 -1.9101e-07 0.00122863
0.000607198 5.27808e-05 -1.16148e-06
5.27808e-05 -2.4579e-05 5.96621e-06
-1.16148e-06 5.96621e-06 -5.73063e-05
0.00306779 0.000101381 -7.09053e-05
0.000101381 0.00136364 2.93627e-06
-7.09053e-05 2.93627e-06 0.00136509
0.00114269 8.50439e-05 -1.08617e-05
8.50439e-05 1.78393e-05 -3.33465e-06
-1.08617e-05 -3.33465e-06 -9.29997e-05
0.00115326 4.9308e-05 -1.07142e-05
4.9308e-05 1.65887e-05 -2.28889e-06
-1.07142e-05 -2.28889e-06 -9.11679e-05
0.00137088 7.47136e-05 -4.62992e-06
7.47136e-05 5.69248e-05 -8.09994e-07
-4.62992e-06 -8.09994e-07 -6.91829e-05
0.00141311 3.28186e-05 -4.62513e-06
3.28186e-05 6.35448e-05 -7.50071e-07
-4.62513e-06 -7.50071e-07 -5.92345e-05
0.00116932 1.85016e-05 -1.11947e-05
1.85016e-05 1.08522e-05 -9.46073e-07
-1.11947e-05 -9.46073e-07 -9.69156e-05
0.000681355 1.359e-05 -1.63024e-05
1.359e-05 -0.000101008 -1.9097e-07
-1.63024e-05 -1.9097e-07 -0.000163497
0.00116296 1.78493e-06 1.88592e-08
1.78493e-06 6.30301e-06 -1.40698e-07
1.88592e-08 -1.40698e-07 -0.000101063
0.00142575 2.19515e-05 -8.63423e-08
2.19515e-05 6.14434e-05 -5.15225e-08
-8.63423e-08 -5.15225e-08 -6.05754e-05
0.00140842 5.2164e-05 2.74778e-08
5.2164e-05 7.19442e-05 -5.3093e-08
2.74778e-08 -5.3093e-08 -5.1981e-05
0.00160526 4.3342e-05 -1.20865e-07
4.3342e-05 9.47713e-05 1.17059e-07
-1.20865e-07 1.17059e-07 -2.31168e-05
0.00139625 9.79663e-05 -1.46885e-07
9.79663e-05 7.22487e-05 -1.46795e-07
-1.46885e-07 -1.46795e-07 -5.72811e-05
0.00154146 8.40859e-05 -1.09901e-07
8.40859e-05 9.43607e-05 1.29969e-07
-1.09901e-07 1.29969e-07 -3.13611e-05
0.00142485 6.19097e-06 4.47842e-06
6.19097e-06 6.01832e-05 -2.68744e-08
4.47842e-06 -2.68744e-08 -6.13235e-05
0.00163264 3.07583e-05 -2.09696e-07
3.07583e-05 9.0901e-05 2.82306e-07
-2.09696e-07 2.82306e-07 -2.53518e-05
0.00152836 6.46381e-05 2.1282e-07
6.46381e-05 6.99619e-05 -1.09431e-07
2.1282e-07 -1.09431e-07 -5.19934e-05
0.00171678 5.50482e-05 -1.10475e-06
5.50482e-05 9.68055e-05 2.5118e-07
-1.10475e-06 2.5118e-07 -1.06649e-05
0.00153152 0.000102003 4.22967e-07
0.000102003 9.4331e-05 -4.63976e-07
4.22967e-07 -4.63976e-07 -3.65717e-05
0.00165968 9.60093e-05 -2.95171e-06
9.60093e-05 9.62691e-05 -5.19145e-07
-2.95171e-06 -5.19145e-07 -1.3363e-05
0.000773426 -1.98238e-06 -1.07866e-05
-1.98238e-06 -0.000207052 6.20106e-07
-1.07866e-05 6.20106e-07 -0.00031629
0.00163587 -4.71023e-05 -1.8094e-05
-4.71023e-05 0.0002844 2.33196e-06
-1.8094e-05 2.33196e-06 0.000183272
0.00168864 -1.62329e-05 -7.57914e-06
-1.62329e-05 0.000216654 7.55802e-07
-7.57914e-06 7.55802e-07 9.94884e-05
0.00186881 -8.65066e-05 -5.01428e-06
-8.65066e-05 0.00033947 1.10259e-06
-5.01428e-06 1.10259e-06 0.000220414
0.000649502 9.28297e-06 -6.03806e-06
9.28297e-06 -4.22567e-06 6.5368e-06
-6.03806e-06 6.5368e-06 -4.60437e-05
0.00092088 -9.77706e-05 -4.50174e-06
-9.77706e-05 0.000128558 3.06863e-06
-4.50174e-06 3.06863e-06 2.74557e-05
0.000922502 -0.000148867 -1.22738e-06
-0.000148867 5.8484e-05 1.04005e-06
-1.22738e-06 1.04005e-06 -8.16921e-05
0.00182283 -0.000138704 -7.27239e-06
-0.000138704 0.000337333 1.84394e-06
-7.27239e-06 1.84394e-06 0.000213586
0.00145834 -0.000100796 -1.47392e-06
-0.000100796 6.24678e-05 4.93529e-07
-1.47392e-06 4.93529e-07 -5.95397e-05
0.0014557 -0.000151863 -2.15709e-06
-0.000151863 9.81444e-05 4.12887e-07
-2.15709e-06 4.12887e-07 -3.5675e-05
0.0010996 -0.000173773 -4.12415e-06
-0.000173773 3.18547e-06 7.98942e-07
-4.12415e-06 7.98942e-07 -0.000159401
0.00149291 -0.000179465 9.81597e-07
-0.000179465 9.79709e-05 -9.87302e-07
9.81597e-07 -9.87302e-07 -4.3169e-05
0.000710883 -3.16969e-05 -2.76801e-06
-3.16969e-05 1.89078e-05 2.40942e-06
-2.76801e-06 2.40942e-06 -6.6805e-05
0.000697156 -2.01688e-05 -1.61758e-06
-2.01688e-05 8.63153e-06 -6.66047e-08
-1.61758e-06 -6.66047e-08 -9.19386e-05
0.000696951 7.21537e-06 -1.13841e-06
7.21537e-06 5.4545e-06 2.75167e-06
-1.13841e-06 2.75167e-06 -5.87456e-05
0.00162273 -4.62234e-06 -2.32351e-06
-4.62234e-06 0.000174142 1.57391e-07
-2.32351e-06 1.57391e-07 5.464e-05
0.00167966 -5.42821e-05 -1.57057e-06
-5.42821e-05 0.000218201 2.34054e-07
-1.57057e-06 2.34054e-07 9.88255e-05
0.00163206 -2.43989e-05 -5.23839e-07
-2.43989e-05 0.000114745 2.04021e-07
-5.23839e-07 2.04021e-07 -2.48137e-06
0.00163169 -7.99909e-05 -3.82681e-07
-7.99909e-05 0.000144686 -7.74195e-08
-3.82681e-07 -7.74195e-08 2.26372e-05
0.000770539 -6.06943e-05 4.66702e-08
-6.06943e-05 5.54103e-05 -1.35999e-07
4.66702e-08 -1.35999e-07 -3.84786e-05
0.00100357 -0.000144484 -3.60635e-07
-0.000144484 0.000150359 6.36424e-07
-3.60635e-07 6.36424e-07 2.18868e-05
0.000865089 -0.000161432 9.36564e-07
-0.000161432 -9.53889e-06 -1.79593e-06
9.36564e-07 -1.79593e-06 -0.000176463
0.00157317 -0.000135162 1.42546e-07
-0.000135162 0.000142887 -8.12975e-08
1.42546e-07 -8.12975e-08 1.5189e-05
0.00163594 -0.000108922 4.24724e-07
-0.000108922 0.00011457 4.22351e-07
4.24724e-07 4.22351e-07 2.49654e-06
0.00153268 -0.000207866 -3.13857e-07
-0.000207866 0.000188842 9.89958e-07
-3.13857e-07 9.89958e-07 2.24814e-05
0.00155177 -0.000161235 -4.72497e-08
-0.000161235 0.000104759 9.69428e-08
-4.72497e-08 9.69428e-08 -2.48002e-05
0.00180712 -0.000203505 4.27604e-07
-0.000203505 0.000231024 -4.95731e-07
4.27604e-07 -4.95731e-07 9.63652e-05
0.000913179 -8.96518e-05 -1.19102e-07
-8.96518e-05 0.000123442 -3.94682e-09
-1.19102e-07 -3.94682e-09 1.58346e-05
0.000962584 -0.000125716 -3.44316e-07
-0.000125716 0.000160692 3.62316e-07
-3.44316e-07 3.62316e-07 4.06555e-05
0.000703863 5.83813e-06 1.72177e-07
5.83813e-06 7.65213e-06 1.48807e-07
1.72177e-07 1.48807e-07 -4.91396e-05
0.000636253 1.01871e-05 -1.22615e-07
1.01871e-05 -2.07458e-05 -6.1095e-07
-1.22615e-07 -6.1095e-07 -0.000113697
0.00161844 -1.29907e-05 7.65134e-07
-1.29907e-05 9.85396e-05 5.04338e-08
7.65134e-07 5.04338e-08 -1.93871e-05
0.00183192 -5.31589e-05 3.46515e-07
-5.31589e-05 0.000234828 4.85001e-07
3.46515e-07 4.85001e-07 0.000116089
0.00167569 -4.10163e-05 1.66314e-07
-4.10163e-05 7.17426e-05 2.16199e-07
1.66314e-07 2.16199e-07 -3.94596e-05
0.00169019 -9.53237e-05 -3.09093e-06
-9.53237e-05 0.000118453 8.46038e-08
-3.09093e-06 8.46038e-08 1.11614e-05
0.00166418 -0.000138157 -2.27258e-06
-0.000138157 0.000142681 1.32229e-06
-2.27258e-06 1.32229e-06 2.37855e-05
0.00170262 -0.000113532 -8.78579e-07
-0.000113532 0.000103674 2.1505e-07
-8.78579e-07 2.1505e-07 4.1571e-06
0.000849986 -0.000125749 1.19424e-06
-0.000125749 8.38157e-05 2.56779e-07
1.19424e-06 2.56779e-07 -3.08334e-05
0.00164219 -0.000177151 -4.01464e-06
-0.000177151 0.000109262 1.82755e-06
-4.01464e-06 1.82755e-06 -9.8538e-06
0.000490527 -0.000124308 -3.27931e-07
-0.000124308 -0.000137505 -3.76256e-06
-3.27931e-07 -3.76256e-06 -0.000286128
0.00147977 -0.000218282 3.0098e-06
-0.000218282 0.000274198 -1.46537e-06
3.0098e-06 -1.46537e-06 8.38487e-05
0.00185706 -0.000232309 5.00127e-07
-0.000232309 0.000309274 2.90664e-06
5.00127e-07 2.90664e-06 0.000146683
0.0018663 -0.000211751 -1.01615e-06
-0.000211751 0.000230156 8.91811e-07
-1.01615e-06 8.91811e-07 9.77818e-05
0.000706894 1.38616e-06 1.97797e-06
1.38616e-06 6.61541e-06 -2.13385e-06
1.97797e-06 -2.13385e-06 -4.52792e-05
0.000635617 1.31263e-06 2.50787e-07
1.31263e-06 -1.11042e-05 -1.42669e-06
2.50787e-07 -1.42669e-06 -0.000102518
0.00090204 -0.000139132 2.38157e-07
-0.000139132 0.000121244 1.8075e-06
2.38157e-07 1.8075e-06 -6.48361e-07
0.000902282 -9.28911e-05 1.45653e-06
-9.28911e-05 0.000134101 8.05605e-08
1.45653e-06 8.05605e-08 2.15703e-05
0.000978783 -0.000146091 -7.89603e-07
-0.000146091 0.000166152 2.80954e-06
-7.89603e-07 2.80954e-06 4.1508e-05
0.000620269 -4.84973e-05 -1.74061e-06
-4.84973e-05 -3.14793e-05 -3.59673e-06
-1.74061e-06 -3.59673e-06 -4.70766e-05
0.00135498 0.000122423 -4.2264e-06
0.000122423 6.08658e-05 -1.46716e-06
-4.2264e-06 -1.46716e-06 -7.36408e-05
0.000665263 -6.69936e-05 -9.24867e-08
-6.69936e-05 2.4729e-06 -1.9922e-06
-9.24867e-08 -1.9922e-06 -5.16365e-05
0.000740114 8.92913e-06 -2.83556e-07
8.92913e-06 4.51488e-05 -3.06519e-06
-2.83556e-07 -3.06519e-06 -3.7036e-05
0.000787493 -9.54531e-06 1.23662e-06
-9.54531e-06 7.80535e-05 -1.10354e-06
1.23662e-06 -1.10354e-06 -1.76682e-05
0.00127378 0.000165329 -5.34914e-06
0.000165329 9.14147e-05 -2.55418e-06
-5.34914e-06 -2.55418e-06 -5.27333e-05
0.00146714 0.000161901 -2.33976e-06
0.000161901 9.1628e-05 -3.55833e-07
-2.33976e-06 -3.55833e-07 -5.81043e-05
0.000880169 0.000127632 -1.67067e-06
0.000127632 0.000105451 -1.27845e-06
-1.67067e-06 -1.27845e-06 -2.09606e-05
0.00137107 0.000191113 -1.96827e-06
0.000191113 0.000333104 -1.49705e-06
-1.96827e-06 -1.49705e-06 0.000163604
0.00170096 0.0002068 -1.89164e-06
0.0002068 0.000351805 -4.1143e-06
-1.89164e-06 -4.1143e-06 0.000199429
0.00101775 0.000174376 -3.78647e-06
0.000174376 3.81756e-05 8.93224e-07
-3.78647e-06 8.93224e-07 -0.000103721
0.000649822 -4.41311e-05 5.65846e-08
-4.41311e-05 -2.45246e-05 1.16818e-09
5.65846e-08 1.16818e-09 -3.72562e-05
0.000699696 -5.1643e-05 -4.05053e-07
-5.1643e-05 9.31047e-06 1.56815e-07
-4.05053e-07 1.56815e-07 -3.468e-05
0.000917905 7.63043e-05 7.34819e-07
7.63043e-05 0.000140898 -5.74312e-08
7.34819e-07 -5.74312e-08 2.90403e-05
0.000761721 -1.86369e-05 -3.23612e-07
-1.86369e-05 5.79986e-05 1.82946e-07
-3.23612e-07 1.82946e-07 -2.22108e-05
0.000798856 6.42019e-05 8.27343e-07
6.42019e-05 9.35234e-05 -3.02228e-07
8.27343e-07 -3.02228e-07 -2.19313e-05
0.00151531 0.000133244 1.13911e-06
0.000133244 9.3642e-05 2.54914e-08
1.13911e-06 2.54914e-08 -4.6294e-05
0.00140871 0.000182587 -2.31188e-07
0.000182587 0.000110688 1.53118e-06
-2.31188e-07 1.53118e-06 -4.43997e-05
0.00161471 0.000187329 1.36937e-06
0.000187329 0.000135815 3.113e-07
1.36937e-06 3.113e-07 -1.67902e-05
0.00108297 0.000159429 1.33562e-06
0.000159429 0.000223825 1.23187e-06
1.33562e-06 1.23187e-06 6.46267e-05
0.00153922 0.00020919 1.72129e-06
0.00020919 0.000232899 -1.79185e-06
1.72129e-06 -1.79185e-06 7.93594e-05
0.000810067 0.00016347 -2.21862e-06
0.00016347 -3.08682e-05 -1.23927e-06
-2.21862e-06 -1.23927e-06 -0.000205252
0.000719409 -3.94747e-05 1.49952e-06
-3.94747e-05 1.07086e-05 1.59752e-06
1.49952e-06 1.59752e-06 -2.85076e-05
0.000789412 1.22637e-05 3.65444e-07
1.22637e-05 6.21571e-05 1.2074e-06
3.65444e-07 1.2074e-06 -4.53064e-06
0.00104331 0.000145735 -6.86179e-07
0.000145735 0.000218707 -3.12343e-07
-6.86179e-07 -3.12343e-07 8.08376e-05
0.000846211 1.93756e-05 1.26949e-07
1.93756e-05 0.000114132 7.73507e-07
1.26949e-07 7.73507e-07 1.69358e-05
0.00108768 7.62105e-05 -2.30095e-06
7.62105e-05 0.000247587 -3.02799e-06
-2.30095e-06 -3.02799e-06 0.000124269
0.00156865 0.000137686 -2.31073e-06
0.000137686 8.36182e-05 -2.52137e-06
-2.31073e-06 -2.52137e-06 -4.97174e-05
0.00147519 0.000201721 7.6525e-07
0.000201721 0.000108027 4.0394e-06
7.6525e-07 4.0394e-06 -5.06357e-05
0.00145532 0.000200915 -1.82074e-06
0.000200915 1.67066e-05 -1.58898e-06
-1.82074e-06 -1.58898e-06 -0.000124032
0.000943465 0.000156687 -5.24639e-07
0.000156687 0.00014867 6.09726e-07
-5.24639e-07 6.09726e-07 -3.96943e-05
0.00129451 0.000209695 2.38066e-06
0.000209695 0.000125596 2.48315e-07
2.38066e-06 2.48315e-07 -4.40847e-05
0.000722599 -3.09749e-05 1.96068e-08
-3.09749e-05 6.74053e-06 -1.39674e-08
1.96068e-08 -1.39674e-08 -3.03591e-05
0.000652238 -7.15109e-06 1.32037e-06
-7.15109e-06 -2.48872e-05 8.87789e-07
1.32037e-06 8.87789e-07 -8.10851e-05
0.000685103 -2.21185e-05 -5.9373e-07
-2.21185e-05 -3.25181e-06 -8.23972e-08
-5.9373e-07 -8.23972e-08 -6.08181e-05
0.000930734 3.4618e-05 1.12984e-06
3.4618e-05 0.000146346 -4.66985e-07
1.12984e-06 -4.66985e-07 7.5752e-05
0.000773656 2.74486e-05 1.66036e-06
2.74486e-05 4.56703e-05 6.95167e-07
1.66036e-06 6.95167e-07 -1.19416e-05
0.000738031 -7.64356e-06 1.02481e-06
-7.64356e-06 6.33655e-06 1.72343e-06
1.02481e-06 1.72343e-06 -2.92581e-05
0.000739615 -1.98146e-05 -8.60984e-08
-1.98146e-05 9.16712e-06 2.05824e-09
-8.60984e-08 2.05824e-09 -2.63897e-05
0.00125777 -3.47815e-05 9.92961e-07
-3.47815e-05 0.000298245 2.18671e-06
9.92961e-07 2.18671e-06 0.000294232
0.000737576 -2.59982e-05 -1.28654e-06
-2.59982e-05 1.15659e-05 -1.7709e-06
-1.28654e-06 -1.7709e-06 -2.46698e-05
0.0012758 -4.0689e-05 -4.61528e-06
-4.0689e-05 0.000314172 -1.22237e-06
-4.61528e-06 -1.22237e-06 0.000308921
0.000928369 -3.16903e-05 2.10885e-05
-3.16903e-05 0.00012307 6.58708e-06
2.10885e-05 6.58708e-06 0.00013364
0.00126886 -4.57368e-05 -9.83681e-06
-4.57368e-05 0.000317718 -3.22419e-06
-9.83681e-06 -3.22419e-06 0.000310676
0.00149652 -4.79697e-05 1.93477e-05
-4.79697e-05 0.000453377 1.95858e-06
1.93477e-05 1.95858e-06 0.000464794
0.00210349 -6.59071e-05 -2.72797e-05
-6.59071e-05 0.000803758 -3.35678e-06
-2.72797e-05 -3.35678e-06 0.00081631
0.000625613 4.07719e-05 1.42542e-06
4.07719e-05 -3.82399e-05 -4.19991e-06
1.42542e-06 -4.19991e-06 -5.72905e-05
0.000619648 4.96642e-05 -7.50531e-08
4.96642e-05 -3.24406e-05 3.96294e-08
-7.50531e-08 3.96294e-08 -5.58781e-05
0.002507 8.04295e-05 3.57921e-05
8.04295e-05 0.00103709 -3.47945e-06
3.57921e-05 -3.47945e-06 0.00104441
0.00266605 8.96726e-05 -2.41294e-06
8.96726e-05 0.00113222 -1.93799e-07
-2.41294e-06 -1.93799e-07 0.00113729
0.000626074 5.35519e-05 -7.68266e-07
5.35519e-05 -2.02524e-05 5.30946e-06
-7.68266e-07 5.30946e-06 -4.81231e-05
0.0028747 9.44191e-05 -6.07261e-05
9.44191e-05 0.00125207 2.95565e-06
-6.07261e-05 2.95565e-06 0.00125584
0.00136478 9.75476e-05 -4.83694e-06
9.75476e-05 5.50869e-05 -1.14646e-06
-4.83694e-06 -1.14646e-06 -7.46042e-05
0.00139173 5.26962e-05 -4.65534e-06
5.26962e-05 6.37512e-05 -1.01197e-06
-4.65534e-06 -1.01197e-06 -6.04246e-05
0.00155478 8.4624e-05 -4.01271e-07
8.4624e-05 0.000104385 4.04968e-07
-4.01271e-07 4.04968e-07 -2.14792e-05
0.00164032 4.44374e-05 -1.95554e-07
4.44374e-05 0.000112213 7.62733e-08
-1.95554e-07 7.62733e-08 -4.54286e-06
0.00142287 2.50839e-05 -4.30361e-06
2.50839e-05 6.05701e-05 -3.78796e-07
-4.30361e-06 -3.78796e-07 -6.15503e-05
0.00116867 6.64599e-06 -1.09393e-05
6.64599e-06 9.12804e-06 -1.54343e-07
-1.09393e-05 -1.54343e-07 -9.8208e-05
0.00143053 9.93003e-06 7.86487e-08
9.93003e-06 6.3021e-05 -7.81814e-08
7.86487e-08 -7.81814e-08 -5.85512e-05
0.00164458 2.058e-05 -4.69741e-07
2.058e-05 9.70767e-05 -2.6282e-08
-4.69741e-07 -2.6282e-08 -1.90488e-05
0.00155692 6.3719e-05 -6.56532e-08
6.3719e-05 8.82002e-05 -2.85607e-08
-6.56532e-08 -2.85607e-08 -3.36329e-05
0.00176591 5.77791e-05 7.01318e-07
5.77791e-05 0.000121459 5.61311e-07
7.01318e-07 5.61311e-07 1.6078e-05
0.00152755 0.000103202 -1.36777e-07
0.000103202 9.06349e-05 -4.64421e-08
-1.36777e-07 -4.64421e-08 -4.0714e-05
0.00165768 9.47541e-05 -1.58621e-07
9.47541e-05 9.40978e-05 6.03773e-07
-1.58621e-07 6.03773e-07 -1.37429e-05
0.00164052 -1.36057e-06 5.98115e-07
-1.36057e-06 0.000100311 1.31164e-07
5.98115e-07 1.31164e-07 -1.59374e-05
0.00174248 3.99265e-05 -1.68835e-07
3.99265e-05 9.1606e-05 7.51192e-07
-1.68835e-07 7.51192e-07 -1.57605e-05
0.00173097 7.96567e-05 -3.10007e-06
7.96567e-05 0.000118336 -3.00327e-07
-3.10007e-06 -3.00327e-07 1.45342e-05
0.00181197 6.49475e-05 -1.56935e-07
6.49475e-05 0.000129021 3.16166e-07
-1.56935e-07 3.16166e-07 3.36624e-05
0.00156342 0.000100081 -2.03454e-06
0.000100081 5.35436e-05 -1.74992e-06
-2.03454e-06 -1.74992e-06 -6.35261e-05
0.00189515 0.000107567 -1.67675e-07
0.000107567 0.000182686 -1.86783e-08
-1.67675e-07 -1.86783e-08 8.80874e-05
0.00143611 -3.60864e-06 -6.31959e-06
-3.60864e-06 6.90056e-05 4.46866e-07
-6.31959e-06 4.46866e-07 -5.20534e-05
0.00166945 -5.61259e-05 -6.8351e-06
-5.61259e-05 0.000212565 9.68774e-07
-6.8351e-06 9.68774e-07 9.30197e-05
0.00155361 -2.27468e-05 -1.39394e-06
-2.27468e-05 6.89699e-05 -2.85353e-07
-1.39394e-06 -2.85353e-07 -4.73404e-05
0.00172527 -8.0175e-05 -1.25752e-06
-8.0175e-05 0.000191682 3.09405e-07
-1.25752e-06 3.09405e-07 6.99316e-05
0.000840821 -7.00278e-05 -3.52301e-06
-7.00278e-05 9.33058e-05 2.24445e-06
-3.52301e-06 2.24445e-06 -1.38917e-06
0.00112525 -0.000153747 -2.02919e-06
-0.000153747 0.000215024 2.28844e-06
-2.02919e-06 2.28844e-06 8.5174e-05
0.00100755 -0.00016702 -1.5247e-06
-0.00016702 7.83881e-05 1.31798e-06
-1.5247e-06 1.31798e-06 -8.66557e-05
0.00172431 -0.000140702 -2.04392e-06
-0.000140702 0.000227514 3.05897e-07
-2.04392e-06 3.05897e-07 9.93454e-05
0.0016022 -0.000107041 2.54076e-06
-0.000107041 9.57573e-05 -5.5377e-07
2.54076e-06 -5.5377e-07 -1.40291e-05
0.00157357 -0.000161809 1.02096e-06
-0.000161809 0.000114943 -4.32734e-07
1.02096e-06 -4.32734e-07 -1.43978e-05
0.00119951 -0.000190382 -2.41531e-06
-0.000190382 3.14803e-06 -9.19433e-07
-2.41531e-06 -9.19433e-07 -0.00016318
0.00179235 -0.000201822 3.9738e-06
-0.000201822 0.000223427 -3.09074e-06
3.9738e-06 -3.09074e-06 8.98615e-05
0.000935973 -8.40573e-05 -1.32972e-06
-8.40573e-05 0.000135868 -3.40668e-07
-1.32972e-06 -3.40668e-07 2.89478e-05
0.000869232 -9.47916e-05 -1.1876e-06
-9.47916e-05 0.000102331 -9.48705e-07
-1.1876e-06 -9.48705e-07 -1.23929e-05
0.000714708 3.37071e-06 -1.49729e-06
3.37071e-06 1.30132e-05 2.34784e-06
-1.49729e-06 2.34784e-06 -4.38731e-05
0.000617751 2.43518e-05 4.61747e-08
2.43518e-05 -3.27926e-05 2.78812e-07
4.61747e-08 2.78812e-07 -0.000122935
0.00160931 -1.26081e-05 1.92236e-08
-1.26081e-05 9.26719e-05 -1.78208e-08
1.92236e-08 -1.78208e-08 -2.52904e-05
0.00176581 -5.12454e-05 -6.74875e-07
-5.12454e-05 0.000196255 1.94321e-07
-6.74875e-07 1.94321e-07 7.63915e-05
0.00169153 -4.02906e-05 2.37861e-07
-4.02906e-05 8.36352e-05 -1.97059e-07
2.37861e-07 -1.97059e-07 -2.65898e-05
0.00164419 -9.36792e-05 -4.45189e-07
-9.36792e-05 9.85651e-05 1.03762e-07
-4.45189e-07 1.03762e-07 -1.03493e-05
0.000954354 -0.000119227 -3.45017e-07
-0.000119227 0.000138689 4.1785e-07
-3.45017e-07 4.1785e-07 2.51216e-05
0.000671637 -0.000134803 9.89077e-07
-0.000134803 -3.53291e-05 -1.2956e-06
9.89077e-07 -1.2956e-06 -0.000181776
0.0014053 -0.000211511 -5.9499e-07
-0.000211511 0.000238559 5.9407e-07
-5.9499e-07 5.9407e-07 4.63177e-05
0.00163397 -0.000137506 -8.9439e-07
-0.000137506 0.000128565 2.97948e-07
-8.9439e-07 2.97948e-07 7.85908e-06
0.00165494 -0.000113579 1.54409e-06
-0.000113579 7.76327e-05 -5.50472e-07
1.54409e-06 -5.50472e-07 -1.98661e-05
0.0016508 -0.000221058 -4.96375e-07
-0.000221058 0.000191363 4.97973e-07
-4.96375e-07 4.97973e-07 3.04187e-05
0.00165579 -0.000177012 -1.79544e-07
-0.000177012 0.000117573 3.06806e-07
-1.79544e-07 3.06806e-07 -1.33182e-06
0.00173942 -0.000206118 2.22378e-06
-0.000206118 0.000159928 -2.31059e-06
2.22378e-06 -2.31059e-06 2.86669e-05
0.00098304 -0.00014505 2.11754e-07
-0.00014505 0.000165751 3.15291e-07
2.11754e-07 3.15291e-07 4.30614e-05
0.00100685 -0.000140365 5.65846e-07
-0.000140365 0.000178033 4.51876e-07
5.65846e-07 4.51876e-07 5.54212e-05
0.000870082 -6.51901e-05 -3.71911e-07
-6.51901e-05 0.000113314 -9.95939e-08
-3.71911e-07 -9.95939e-08 3.96329e-06
0.000579236 1.41892e-05 -5.41617e-07
1.41892e-05 -6.39079e-05 7.00182e-08
-5.41617e-07 7.00182e-08 -0.000117333
0.000618577 2.17849e-05 8.66046e-08
2.17849e-05 -2.48621e-05 -4.54653e-07
8.66046e-08 -4.54653e-07 -0.000112254
0.00179021 -2.66545e-05 1.66379e-07
-2.66545e-05 0.000120571 -7.54546e-09
1.66379e-07 -7.54546e-09 1.29432e-05
0.00173659 -5.90447e-05 -2.34473e-07
-5.90447e-05 0.000104088 2.43381e-07
-2.34473e-07 2.43381e-07 -2.11616e-06
0.00176021 -0.000109138 -2.41847e-06
-0.000109138 0.000113716 -4.69007e-07
-2.41847e-06 -4.69007e-07 2.4167e-05
0.00155794 -0.000136445 -2.59206e-06
-0.000136445 2.74957e-05 1.12413e-06
-2.59206e-06 1.12413e-06 -7.35196e-05
0.000882185 -0.000141053 -6.71119e-07
-0.000141053 0.000105438 5.08594e-07
-6.71119e-07 5.08594e-07 -2.37076e-05
0.00198447 -0.000208193 -2.57378e-06
-0.000208193 0.000253428 1.75014e-06
-2.57378e-06 1.75014e-06 0.000138719
7.78107e-05 -0.000102623 -6.82965e-07
-0.000102623 -0.000366263 -5.37678e-06
-6.82965e-07 -5.37678e-06 -0.000529437
0.00195028 -0.000261079 2.40287e-06
-0.000261079 0.000458836 3.16615e-08
2.40287e-06 3.16615e-08 0.000258992
0.00169498 -0.000230737 7.85992e-07
-0.000230737 0.000161578 1.91444e-06
7.85992e-07 1.91444e-06 5.62922e-06
0.000441386 1.92719e-05 1.34777e-06
1.92719e-05 -0.000142532 -3.00106e-06
1.34777e-06 -3.00106e-06 -0.000193365
0.000865489 -1.16101e-05 1.42632e-06
-1.16101e-05 0.000116118 -7.61901e-07
1.42632e-06 -7.61901e-07 3.39778e-05
0.000916382 -4.35581e-05 -3.51418e-07
-4.35581e-05 0.000145727 3.64584e-09
-3.51418e-07 3.64584e-09 4.59056e-05
0.000993359 -0.000148001 -1.66377e-06
-0.000148001 0.000166132 2.44305e-06
-1.66377e-06 2.44305e-06 4.19098e-05
0.000945566 -9.4724e-05 1.13471e-06
-9.4724e-05 0.000150917 1.90984e-06
1.13471e-06 1.90984e-06 3.23571e-05
0.000806202 -0.000136872 -3.71333e-07
-0.000136872 5.53021e-05 1.90129e-06
-3.71333e-07 1.90129e-06 -6.83894e-05
0.000635372 -4.30451e-05 -1.55298e-06
-4.30451e-05 -3.24552e-05 -3.56256e-06
-1.55298e-06 -3.56256e-06 -4.50949e-05
0.0006934 -5.22605e-05 -1.61638e-06
-5.22605e-05 5.54558e-06 -1.47703e-06
-1.61638e-06 -1.47703e-06 -3.83395e-05
0.00151493 0.000133667 -9.78043e-07
0.000133667 9.33449e-05 -2.03893e-07
-9.78043e-07 -2.03893e-07 -4.69356e-05
0.000753728 -6.03114e-05 8.30795e-07
-6.03114e-05 5.22898e-05 -1.23317e-06
8.30795e-07 -1.23317e-06 -2.57631e-05
0.000814123 6.76499e-05 -1.4825e-07
6.76499e-05 8.20633e-05 -6.25298e-07
-1.4825e-07 -6.25298e-07 -2.69124e-05
0.000698595 3.59469e-05 1.42445e-06
3.59469e-05 3.37699e-05 -1.38403e-07
1.42445e-06 -1.38403e-07 -7.9191e-05
0.00130565 0.000177504 -2.56695e-06
0.000177504 5.77045e-05 -1.02132e-06
-2.56695e-06 -1.02132e-06 -9.72585e-05
0.00159218 0.000188012 9.32186e-07
0.000188012 0.000123665 7.13619e-07
9.32186e-07 7.13619e-07 -2.97537e-05
0.00089614 0.000145326 2.65047e-07
0.000145326 0.000122182 -5.89649e-07
2.65047e-07 -5.89649e-07 -3.49968e-05
0.00130755 0.000197742 -6.48367e-07
0.000197742 0.00023641 3.64638e-08
-6.48367e-07 3.64638e-08 6.09439e-05
0.00169834 0.000217426 -3.03732e-06
0.000217426 0.000322296 -4.97212e-06
-3.03732e-06 -4.97212e-06 0.000168744
0.000716712 -3.83531e-05 -1.39433e-07
-3.83531e-05 9.18152e-06 2.20522e-08
-1.39433e-07 2.20522e-08 -2.99137e-05
0.000760193 -2.37045e-05 -6.46172e-07
-2.37045e-05 4.53497e-05 3.43245e-07
-6.46172e-07 3.43245e-07 -2.01286e-05
0.000953687 0.000139111 -5.71145e-07
0.000139111 0.00017089 -3.25769e-08
-5.71145e-07 -3.25769e-08 3.33592e-05
0.000808468 -1.20062e-05 2.44253e-07
-1.20062e-05 9.04236e-05 7.89674e-08
2.44253e-07 7.89674e-08 -3.85272e-06
0.000895509 7.77714e-05 9.9006e-08
7.77714e-05 0.000145503 -4.16185e-07
9.9006e-08 -4.16185e-07 2.01338e-05
0.00159986 0.000141596 -1.33351e-06
0.000141596 0.000100914 -1.16206e-06
-1.33351e-06 -1.16206e-06 -3.35027e-05
0.00151519 0.000203139 1.27803e-06
0.000203139 0.000131476 1.78585e-06
1.27803e-06 1.78585e-06 -2.76442e-05
0.00155191 0.000202109 6.89153e-07
0.000202109 6.93446e-05 1.64847e-07
6.89153e-07 1.64847e-07 -6.95519e-05
0.000726513 0.000143558 3.25368e-07
0.000143558 2.42736e-05 2.5399e-06
3.25368e-07 2.5399e-06 -0.000160649
0.00151572 0.000224779 -1.35097e-06
0.000224779 0.000247677 -1.36642e-07
-1.35097e-06 -1.36642e-07 7.42068e-05
0.000787131 9.23778e-06 1.00503e-06
9.23778e-06 5.35963e-05 6.84412e-07
1.00503e-06 6.84412e-07 -4.83347e-06
0.000606711 -3.21908e-05 -1.0862e-06
-3.21908e-05 -2.96021e-05 1.58216e-06
-1.0862e-06 1.58216e-06 -0.00011074
0.00094774 0.000146594 -2.47458e-06
0.000146594 0.000165251 -2.17373e-06
-2.47458e-06 -2.17373e-06 1.00725e-05
0.000632971 2.81782e-05 -1.64755e-06
2.81782e-05 2.28632e-06 -9.38773e-07
-1.64755e-06 -9.38773e-07 -0.000112342
0.00100089 0.000123684 -1.2858e-06
0.000123684 0.000194096 -2.2203e-06
-1.2858e-06 -2.2203e-06 5.95676e-05
0.00161301 0.000155456 -2.8119e-06
0.000155456 4.22108e-05 -2.3671e-06
-2.8119e-06 -2.3671e-06 -6.31468e-05
0.00186185 0.00024557 -6.56909e-07
0.00024557 0.000293323 9.5166e-07
-6.56909e-07 9.5166e-07 0.000132034
0.0014852 0.000204454 6.0465e-07
0.000204454 7.42199e-06 -1.22988e-07
6.0465e-07 -1.22988e-07 -0.000124141
0.0017816 0.000220478 2.03298e-06
0.000220478 0.000559044 3.92528e-06
2.03298e-06 3.92528e-06 0.000351748
0.000669313 0.000183454 -1.11709e-06
0.000183454 -0.000254246 -3.76681e-07
-1.11709e-06 -3.76681e-07 -0.000427196
0.000727379 -3.01488e-05 -1.73072e-06
-3.01488e-05 9.72576e-06 -1.56518e-06
-1.73072e-06 -1.56518e-06 -2.74237e-05
0.000703622 -5.72196e-06 2.43954e-07
-5.72196e-06 5.39637e-06 4.31448e-07
2.43954e-07 4.31448e-07 -5.13766e-05
0.00068273 -3.26097e-05 -2.28e-07
-3.26097e-05 2.57965e-06 2.13298e-07
-2.28e-07 2.13298e-07 -6.40703e-05
0.00061684 -4.79592e-05 -9.33234e-07
-4.79592e-05 -4.19306e-05 -5.29426e-07
-9.33234e-07 -5.29426e-07 -9.94142e-05
0.000765226 9.87487e-07 6.4252e-08
9.87487e-07 4.00982e-05 1.23651e-08
6.4252e-08 1.23651e-08 -1.67334e-05
0.00078696 -5.28333e-06 8.60825e-08
-5.28333e-06 6.08305e-05 -3.48838e-07
8.60825e-08 -3.48838e-07 -5.90179e-06
0.000870912 2.05207e-05 -1.24451e-09
2.05207e-05 0.000113665 -8.5962e-07
-1.24451e-09 -8.5962e-07 3.97671e-05
0.0007036 -3.26762e-05 7.17424e-07
-3.26762e-05 1.8538e-05 -1.12431e-07
7.17424e-07 -1.12431e-07 -5.20481e-05
0.000791523 1.13169e-05 4.9025e-07
1.13169e-05 5.06784e-05 5.10403e-07
4.9025e-07 5.10403e-07 -4.16805e-06
0.000736365 1.56606e-06 9.91028e-07
1.56606e-06 6.59464e-06 1.62968e-06
9.91028e-07 1.62968e-06 -2.98932e-05
0.000741487 -1.12564e-05 -1.86383e-07
-1.12564e-05 8.77235e-06 1.99682e-09
-1.86383e-07 1.99682e-09 -2.69457e-05
0.00126112 -2.55617e-05 9.59842e-07
-2.55617e-05 0.000295439 2.13347e-06
9.59842e-07 2.13347e-06 0.00029221
0.000739222 -2.02111e-05 -1.0227e-06
-2.02111e-05 9.37836e-06 -1.79335e-06
-1.0227e-06 -1.79335e-06 -2.62543e-05
0.0012808 -3.23972e-05 -3.93879e-06
-3.23972e-05 0.000310923 -1.28269e-06
-3.93879e-06 -1.28269e-06 0.000307055
0.000932496 -2.61346e-05 1.72884e-05
-2.61346e-05 0.00011915 6.81837e-06
1.72884e-05 6.81837e-06 0.000130915
0.0012969 -3.88661e-05 -8.3603e-06
-3.88661e-05 0.000325565 -4.71743e-06
-8.3603e-06 -4.71743e-06 0.000320475
0.000869025 -3.27931e-05 6.83119e-06
-3.27931e-05 8.98612e-05 2.54409e-06
6.83119e-06 2.54409e-06 0.000100072
0.00203796 -6.27275e-05 -6.10397e-06
-6.27275e-05 0.000759388 -1.58555e-06
-6.10397e-06 -1.58555e-06 0.000773084
0.000642911 3.60995e-05 1.02339e-06
3.60995e-05 -3.57135e-05 -4.01448e-06
1.02339e-06 -4.01448e-06 -5.12837e-05
0.000635477 4.21273e-05 -1.47283e-07
4.21273e-05 -3.23099e-05 3.54301e-08
-1.47283e-07 3.54301e-08 -5.16478e-05
0.00240539 7.05054e-05 3.01734e-05
7.05054e-05 0.000972675 -3.7652e-06
3.01734e-05 -3.7652e-06 0.000982567
0.0006379 5.21743e-05 -6.20373e-07
5.21743e-05 -2.12887e-05 4.72742e-06
-6.20373e-07 4.72742e-06 -4.53448e-05
0.00255777 8.09285e-05 -2.32202e-06
8.09285e-05 0.00106579 -1.78536e-07
-2.32202e-06 -1.78536e-07 0.00107299
0.00272034 8.83324e-05 -5.00496e-05
8.83324e-05 0.00116209 3.04025e-06
-5.00496e-05 3.04025e-06 0.00116753
0.00152056 0.000104289 -1.54079e-06
0.000104289 8.53001e-05 1.60905e-07
-1.54079e-06 1.60905e-07 -4.64996e-05
0.00159056 6.20008e-05 3.05383e-08
6.20008e-05 0.000109052 1.30638e-07
3.05383e-08 1.30638e-07 -1.25875e-05
0.00165231 9.34475e-05 2.87686e-06
9.34475e-05 9.0058e-05 1.40367e-06
2.87686e-06 1.40367e-06 -1.59887e-05
0.00181601 6.04329e-05 2.50611e-06
6.04329e-05 0.000146498 1.28347e-07
2.50611e-06 1.28347e-07 4.32125e-05
0.00165659 1.32025e-05 -9.89332e-07
1.32025e-05 0.000103481 -1.06667e-07
-9.89332e-07 -1.06667e-07 -1.25536e-05
0.00143407 1.29823e-05 -4.17077e-06
1.29823e-05 6.46899e-05 -1.07895e-07
-4.17077e-06 -1.07895e-07 -5.69086e-05
0.00162607 1.81539e-06 -3.8701e-07
1.81539e-06 9.25352e-05 -2.09316e-08
-3.8701e-07 -2.09316e-08 -2.45796e-05
0.0017464 3.35045e-05 6.00544e-07
3.35045e-05 9.57793e-05 -9.46946e-09
6.00544e-07 -9.46946e-09 -1.23418e-05
0.00169757 7.71098e-05 -9.07969e-07
7.71098e-05 9.71266e-05 -2.10356e-07
-9.07969e-07 -2.10356e-07 -7.8596e-06
0.00177446 6.50521e-05 1.45212e-06
6.50521e-05 0.000103612 -1.38368e-07
1.45212e-06 -1.38368e-07 9.81588e-06
0.00157832 9.92725e-05 -7.19564e-07
9.92725e-05 6.74621e-05 4.93355e-08
-7.19564e-07 4.93355e-08 -4.95879e-05
0.00179328 0.00010991 2.9089e-06
0.00010991 0.000123175 6.4506e-07
2.9089e-06 6.4506e-07 3.03726e-05
0.00176325 1.09382e-06 -3.99478e-07
1.09382e-06 0.000111232 2.43235e-07
-3.99478e-07 2.43235e-07 3.21407e-06
0.00173146 4.48736e-05 -1.56713e-07
4.48736e-05 7.29392e-05 8.17014e-07
-1.56713e-07 8.17014e-07 -2.29609e-05
0.00179696 8.18995e-05 -9.62915e-07
8.18995e-05 0.000104802 3.10765e-08
-9.62915e-07 3.10765e-08 1.80297e-05
0.00192895 0.000131315 -1.33628e-06
0.000131315 0.000196099 -9.76667e-07
-1.33628e-06 -9.76667e-07 0.000104456
0.00159803 -1.22462e-05 -7.78883e-07
-1.22462e-05 8.57522e-05 -5.96805e-08
-7.78883e-07 -5.96805e-08 -3.22494e-05
0.0016964 -5.09784e-05 -1.57045e-06
-5.09784e-05 0.000156025 -6.89768e-09
-1.57045e-06 -6.89768e-09 3.49711e-05
0.00171127 -3.97409e-05 6.65052e-07
-3.97409e-05 9.77392e-05 -4.29236e-07
6.65052e-07 -4.29236e-07 -1.15207e-05
0.00160083 -9.16176e-05 1.44932e-06
-9.16176e-05 7.99373e-05 -1.68077e-07
1.44932e-06 -1.68077e-07 -3.0557e-05
0.00107622 -0.000125172 -1.47262e-06
-0.000125172 0.000205684 5.71241e-07
-1.47262e-06 5.71241e-07 9.07101e-05
0.000842617 -0.000145095 1.04116e-06
-0.000145095 6.10767e-05 1.10398e-06
1.04116e-06 1.10398e-06 -8.31825e-05
0.00134262 -0.000204942 -2.47375e-06
-0.000204942 0.000210769 3.37498e-06
-2.47375e-06 3.37498e-06 1.55519e-05
0.00160321 -0.00013676 9.15022e-08
-0.00013676 0.000114262 -3.34268e-07
9.15022e-08 -3.34268e-07 -8.25192e-06
0.00161227 -0.00011401 4.02057e-06
-0.00011401 5.40902e-05 -1.29881e-06
4.02057e-06 -1.29881e-06 -4.14409e-05
0.00167123 -0.000176949 3.49171e-06
-0.000176949 0.00012659 -1.13882e-06
3.49171e-06 -1.13882e-06 7.89434e-06
0.00143736 -0.000209916 -1.42987e-06
-0.000209916 7.01089e-05 -2.34753e-06
-1.42987e-06 -2.34753e-06 -8.92487e-05
0.00162296 -0.000201505 2.56784e-06
-0.000201505 9.64035e-05 -6.28631e-06
2.56784e-06 -6.28631e-06 -3.39647e-05
0.00107749 -0.000151937 4.25741e-07
-0.000151937 0.000217981 -1.11035e-06
4.25741e-07 -1.11035e-06 9.43103e-05
0.00105239 -0.000144519 5.25235e-07
-0.000144519 0.000200918 -2.81959e-06
5.25235e-07 -2.81959e-06 7.84031e-05
0.000828459 -4.18871e-05 7.32812e-09
-4.18871e-05 8.80466e-05 5.6366e-08
7.32812e-09 5.6366e-08 -1.86319e-05
0.000448341 1.87977e-05 -1.79433e-06
1.87977e-05 -0.000136336 2.17452e-06
-1.79433e-06 2.17452e-06 -0.000191215
0.000604608 3.76584e-05 1.70404e-07
3.76584e-05 -3.53911e-05 2.70511e-07
1.70404e-07 2.70511e-07 -0.000119802
0.00179965 -2.81522e-05 1.88657e-07
-2.81522e-05 0.000128865 -1.00634e-07
1.88657e-07 -1.00634e-07 2.10547e-05
0.0017709 -6.09459e-05 3.09694e-07
-6.09459e-05 0.000124785 -2.49358e-07
3.09694e-07 -2.49358e-07 1.85554e-05
0.00173774 -0.000109277 -1.00998e-06
-0.000109277 0.000104257 -6.57275e-09
-1.00998e-06 -6.57275e-09 1.25686e-05
0.00101783 -0.000150203 -1.58396e-07
-0.000150203 0.000178242 7.08327e-07
-1.58396e-07 7.08327e-07 4.77939e-05
0.000754923 -0.000147615 1.56593e-06
-0.000147615 4.72335e-06 -2.21135e-06
1.56593e-06 -2.21135e-06 -0.000160708
0.00156243 -0.000234834 -9.58798e-07
-0.000234834 0.000252323 9.77584e-07
-9.58798e-07 9.77584e-07 5.14148e-05
0.00162889 -0.000138222 7.30662e-07
-0.000138222 6.61119e-05 -1.40558e-07
7.30662e-07 -1.40558e-07 -3.54683e-05
0.00160484 -0.000222749 4.75602e-07
-0.000222749 0.000111145 -1.15249e-06
4.75602e-07 -1.15249e-06 -4.06598e-05
0.00174478 -0.000200202 -3.12211e-07
-0.000200202 0.000127712 -9.84123e-07
-3.12211e-07 -9.84123e-07 1.19346e-05
0.000444765 2.30093e-05 1.02251e-07
2.30093e-05 -0.000141398 -7.25538e-07
1.02251e-07 -7.25538e-07 -0.000191375
0.00103155 -0.000150465 -5.87645e-08
-0.000150465 0.00018473 4.09019e-07
-5.87645e-08 4.09019e-07 6.03186e-05
0.000833577 -0.000138071 -7.87741e-07
-0.000138071 7.2739e-05 2.04007e-07
-7.87741e-07 2.04007e-07 -4.88211e-05
0.000998793 -0.000102248 -4.00363e-07
-0.000102248 0.000184626 8.42932e-07
-4.00363e-07 8.42932e-07 6.2132e-05
0.000949037 -4.16917e-05 -7.2326e-08
-4.16917e-05 0.000164064 5.31732e-08
-7.2326e-08 5.31732e-08 6.42166e-05
0.000732483 1.02677e-05 -2.57086e-07
1.02677e-05 3.81094e-05 3.12802e-07
-2.57086e-07 3.12802e-07 -4.21756e-05
0.00167336 -3.7059e-05 -6.52652e-07
-3.7059e-05 3.95868e-05 2.80862e-07
-6.52652e-07 2.80862e-07 -6.19436e-05
0.00177355 -8.74188e-05 -1.9027e-06
-8.74188e-05 9.27721e-05 -1.18228e-07
-1.9027e-06 -1.18228e-07 6.3009e-06
0.001547 -0.000119939 -1.50769e-06
-0.000119939 -1.89758e-05 2.12816e-07
-1.50769e-06 2.12816e-07 -0.000101422
0.00193283 -0.000175294 -1.33052e-06
-0.000175294 0.000183922 -1.4371e-08
-1.33052e-06 -1.4371e-08 9.22027e-05
0.00098855 -0.000152565 -1.91925e-06
-0.000152565 0.000159196 3.34876e-07
-1.91925e-06 3.34876e-07 2.04581e-05
0.00182208 -0.000230773 1.54702e-06
-0.000230773 0.000186378 2.87833e-06
1.54702e-06 2.87833e-06 5.41945e-05
0.000625977 -0.000156692 -1.14908e-06
-0.000156692 -0.000109774 -2.46416e-06
-1.14908e-06 -2.46416e-06 -0.00031082
0.00204803 -0.000278428 -3.60712e-07
-0.000278428 0.0004504 1.8481e-06
-3.60712e-07 1.8481e-06 0.000251082
0.000440874 3.05628e-05 1.55289e-07
3.05628e-05 -0.00014606 -2.88522e-06
1.55289e-07 -2.88522e-06 -0.000192074
0.00086162 -8.22226e-06 1.30805e-06
-8.22226e-06 0.000109748 -1.10975e-06
1.30805e-06 -1.10975e-06 3.44707e-05
0.000999618 -6.03278e-05 2.21547e-08
-6.03278e-05 0.00019425 8.1907e-07
2.21547e-08 8.1907e-07 9.89544e-05
0.000853069 -2.05977e-05 1.6719e-07
-2.05977e-05 0.000110207 -1.64192e-07
1.6719e-07 -1.64192e-07 1.21075e-06
0.000861789 -0.000143387 -1.01094e-06
-0.000143387 8.21362e-05 1.32971e-06
-1.01094e-06 1.32971e-06 -4.47857e-05
0.000965671 -0.00014831 -3.52198e-06
-0.00014831 0.000141503 3.37579e-06
-3.52198e-06 3.37579e-06 1.0728e-05
0.000714508 -3.78877e-05 -1.94086e-06
-3.78877e-05 7.97494e-06 -1.44261e-06
-1.94086e-06 -1.44261e-06 -3.10564e-05
0.000713857 -6.02263e-05 -6.0465e-08
-6.02263e-05 2.15369e-05 -7.59737e-07
-6.0465e-08 -7.59737e-07 -4.44307e-05
0.00163831 0.000145989 -4.9001e-08
0.000145989 0.000121531 3.66017e-07
-4.9001e-08 3.66017e-07 -1.40204e-05
0.000777321 -3.89844e-05 7.58046e-07
-3.89844e-05 7.07616e-05 -5.8597e-07
7.58046e-07 -5.8597e-07 -2.09755e-05
0.000943571 0.000138022 5.71551e-07
0.000138022 0.000167923 -3.83861e-07
5.71551e-07 -3.83861e-07 3.09265e-05
0.000642257 4.14204e-05 1.44802e-06
4.14204e-05 7.84086e-07 -1.79351e-07
1.44802e-06 -1.79351e-07 -0.000119342
0.00156153 0.000205028 -1.10129e-06
0.000205028 0.000157984 -9.74171e-07
-1.10129e-06 -9.74171e-07 -1.64949e-06
0.00166339 0.000204465 1.82529e-06
0.000204465 0.000128843 1.67851e-06
1.82529e-06 1.67851e-06 -8.3475e-06
0.000596588 0.000135906 6.30729e-07
0.000135906 -5.24353e-05 1.45249e-06
6.30729e-07 1.45249e-06 -0.000234096
0.00172383 0.000238524 -2.00497e-07
0.000238524 0.000363302 -5.55962e-07
-2.00497e-07 -5.55962e-07 0.000185117
0.000755845 -1.62412e-05 -6.12062e-07
-1.62412e-05 3.68389e-05 1.37038e-07
-6.12062e-07 1.37038e-07 -2.16264e-05
0.000713989 -1.56012e-05 4.66322e-09
-1.56012e-05 2.98255e-05 9.32832e-07
4.66322e-09 9.32832e-07 -5.18285e-05
0.00104806 0.000152561 -5.64218e-07
0.000152561 0.000223173 -1.89599e-06
-5.64218e-07 -1.89599e-06 6.79532e-05
0.000686783 -1.14295e-05 -2.20175e-07
-1.14295e-05 2.46842e-05 1.05314e-07
-2.20175e-07 1.05314e-07 -8.31177e-05
0.000835539 0.000101507 -1.3346e-06
0.000101507 0.000103241 -9.1991e-07
-1.3346e-06 -9.1991e-07 -2.40858e-05
0.00184092 0.000162142 -2.18315e-06
0.000162142 0.00016699 -9.6753e-07
-2.18315e-06 -9.6753e-07 6.36803e-05
0.00186853 0.000243951 8.68567e-07
0.000243951 0.000293145 6.19562e-07
8.68567e-07 6.19562e-07 0.000130993
0.00157294 0.000212031 6.11961e-07
0.000212031 5.65245e-05 1.85496e-06
6.11961e-07 1.85496e-06 -7.5258e-05
0.00138681 0.000195832 2.14159e-06
0.000195832 0.000352069 3.22401e-06
2.14159e-06 3.22401e-06 0.00014167
0.00101007 0.000206468 -1.89479e-06
0.000206468 -6.68313e-05 -6.08648e-07
-1.89479e-06 -6.08648e-07 -0.000240182
0.000620136 -3.59241e-05 -3.28836e-07
-3.59241e-05 -2.78837e-05 7.25679e-07
-3.28836e-07 7.25679e-07 -9.8751e-05
0.000428808 3.40898e-05 -7.75836e-07
3.40898e-05 -0.000110129 2.45393e-07
-7.75836e-07 2.45393e-07 -0.000214232
0.00110144 0.000158204 4.43273e-08
0.000158204 0.00024434 6.99081e-07
4.43273e-08 6.99081e-07 6.7191e-05
3.13759e-05 3.93284e-05 6.68037e-07
3.93284e-05 -0.000332777 1.30379e-07
6.68037e-07 1.30379e-07 -0.000463354
0.0019613 0.000160321 -1.80698e-06
0.000160321 0.000133995 -3.62641e-07
-1.80698e-06 -3.62641e-07 5.63234e-05
0.00196801 0.000203092 1.65293e-06
0.000203092 0.000198023 -5.3707e-07
1.65293e-06 -5.3707e-07 9.7055e-05
0.00174286 0.000265033 -1.37344e-06
0.000265033 0.000190576 -1.17641e-06
-1.37344e-06 -1.17641e-06 2.33203e-05
-0.00021097 0.000102957 -4.64171e-07
0.000102957 -0.000599898 1.012e-06
-4.64171e-07 1.012e-06 -0.000818941
0.000754661 9.18104e-06 -8.28593e-07
9.18104e-06 3.81506e-05 6.23365e-09
-8.28593e-07 6.23365e-09 -2.10236e-05
0.000746842 -8.60841e-06 -3.57166e-07
-8.60841e-06 4.2555e-05 4.03606e-07
-3.57166e-07 4.03606e-07 -2.66464e-05
0.000841737 -3.18637e-05 -4.09005e-07
-3.18637e-05 0.000100389 -1.2537e-07
-4.09005e-07 -1.2537e-07 2.65365e-05
0.000747643 -3.21975e-05 -1.05509e-06
-3.21975e-05 2.80038e-05 -5.91468e-07
-1.05509e-06 -5.91468e-07 -2.70759e-05
0.000645055 -3.8279e-05 -2.59839e-07
-3.8279e-05 -1.71452e-05 -1.64743e-07
-2.59839e-07 -1.64743e-07 -8.44628e-05
0.000770288 -6.24224e-06 1.97906e-08
-6.24224e-06 4.00046e-05 1.73105e-08
1.97906e-08 1.73105e-08 -1.55806e-05
0.000783674 2.42326e-05 -3.60162e-07
2.42326e-05 7.16451e-05 -2.58019e-07
-3.60162e-07 -2.58019e-07 -6.63382e-06
0.00072932 -7.05226e-06 3.83875e-07
-7.05226e-06 3.4563e-05 2.55741e-07
3.83875e-07 2.55741e-07 -3.6985e-05
0.000828354 -4.81211e-06 2.69234e-07
-4.81211e-06 9.00116e-05 -4.73568e-07
2.69234e-07 -4.73568e-07 1.26812e-05
0.000792754 -3.86348e-05 3.71364e-07
-3.86348e-05 7.02448e-05 -4.17414e-07
3.71364e-07 -4.17414e-07 -6.61472e-06
0.000676153 1.43348e-05 5.2021e-07
1.43348e-05 1.15626e-06 1.67744e-07
5.2021e-07 1.67744e-07 -7.02603e-05
0.000768876 2.55128e-05 6.92358e-07
2.55128e-05 3.99155e-05 5.71492e-07
6.92358e-07 5.71492e-07 -1.68304e-05
0.000723659 9.20561e-06 6.00238e-07
9.20561e-06 2.07232e-06 1.51286e-06
6.00238e-07 1.51286e-06 -3.54051e-05
0.000734752 -5.86153e-06 -1.25138e-07
-5.86153e-06 5.92076e-06 1.39888e-08
-1.25138e-07 1.39888e-08 -3.06459e-05
0.00127721 -1.68624e-05 7.91885e-07
-1.68624e-05 0.000301638 2.10041e-06
7.91885e-07 2.10041e-06 0.000298478
0.000739313 -1.52465e-05 -7.35681e-07
-1.52465e-05 7.97595e-06 -1.70739e-06
-7.35681e-07 -1.70739e-06 -2.78568e-05
0.00129517 -2.35144e-05 -3.2641e-06
-2.35144e-05 0.000314673 -1.34434e-06
-3.2641e-06 -1.34434e-06 0.00031136
0.000944521 -1.99928e-05 1.43776e-05
-1.99928e-05 0.000121313 7.05768e-06
1.43776e-05 7.05768e-06 0.000133642
0.00130939 -3.06541e-05 -6.81196e-06
-3.06541e-05 0.000326741 -4.77182e-06
-6.81196e-06 -4.77182e-06 0.000322863
0.000881764 -2.68322e-05 5.50014e-06
-2.68322e-05 9.04307e-05 2.63352e-06
5.50014e-06 2.63352e-06 0.000102071
0.000813452 -3.26551e-05 -2.03478e-06
-3.26551e-05 5.85234e-05 -1.75144e-06
-2.03478e-06 -1.75144e-06 6.87304e-05
0.000651922 3.08873e-05 7.18226e-07
3.08873e-05 -3.74479e-05 -3.80653e-06
7.18226e-07 -3.80653e-06 -4.96418e-05
0.00065051 3.6821e-05 -1.86866e-07
3.6821e-05 -3.14497e-05 4.04167e-08
-1.86866e-07 4.04167e-08 -4.71661e-05
0.00230721 6.02577e-05 2.49665e-05
6.02577e-05 0.000909943 -3.97594e-06
2.49665e-05 -3.97594e-06 0.000922499
0.000648154 4.41476e-05 -1.16665e-06
4.41476e-05 -2.45915e-05 4.31193e-06
-1.16665e-06 4.31193e-06 -4.43342e-05
0.0024518 7.1307e-05 -2.30505e-06
7.1307e-05 0.000999409 -1.57803e-07
-2.30505e-06 -1.57803e-07 0.00100901
0.00259814 8.06541e-05 -4.1414e-05
8.06541e-05 0.00108848 3.33764e-06
-4.1414e-05 3.33764e-06 0.00109575
0.0015925 9.85091e-05 1.77241e-06
9.85091e-05 8.10189e-05 2.13838e-06
1.77241e-06 2.13838e-06 -3.60103e-05
0.00166578 7.45507e-05 1.15148e-06
7.45507e-05 7.68063e-05 1.33365e-07
1.15148e-06 1.33365e-07 -2.9368e-05
0.00169361 0.000112264 4.88966e-06
0.000112264 6.48972e-05 8.55972e-07
4.88966e-06 8.55972e-07 -2.61191e-05
0.00174089 6.51969e-05 2.86546e-06
6.51969e-05 8.06544e-05 -9.12751e-07
2.86546e-06 -9.12751e-07 -1.1589e-05
0.00175067 2.80047e-05 1.52182e-06
2.80047e-05 0.000100364 -1.73439e-07
1.52182e-06 -1.73439e-07 -8.56728e-06
0.00161295 8.08889e-07 -1.08453e-06
8.08889e-07 8.52943e-05 -1.40716e-07
-1.08453e-06 -1.40716e-07 -3.26411e-05
0.00174917 2.52432e-06 -9.52629e-08
2.52432e-06 0.00010415 -1.92207e-08
-9.52629e-08 -1.92207e-08 -3.93714e-06
0.00171601 4.11518e-05 6.38802e-07
4.11518e-05 6.9002e-05 -1.52287e-07
6.38802e-07 -1.52287e-07 -2.7253e-05
0.00175337 8.31875e-05 7.91897e-07
8.31875e-05 8.2537e-05 -2.07546e-07
7.91897e-07 -2.07546e-07 -4.91157e-06
0.0019058 0.000126651 4.53953e-07
0.000126651 0.000175191 2.99416e-07
4.53953e-07 2.99416e-07 8.44474e-05
0.00175816 3.10112e-06 -1.20291e-06
3.10112e-06 8.77809e-05 3.49009e-07
-1.20291e-06 3.49009e-07 -1.12533e-05
0.00196001 6.47797e-05 1.46848e-07
6.47797e-05 0.000172096 4.98915e-07
1.46848e-07 4.98915e-07 9.31056e-05
0.00171388 0.0001195 1.54392e-08
0.0001195 2.14598e-05 -1.8141e-07
1.54392e-08 -1.8141e-07 -5.6792e-05
0.00180911 -2.9435e-05 5.22881e-07
-2.9435e-05 0.000137161 -3.04222e-07
5.22881e-07 -3.04222e-07 2.91685e-05
0.00180362 -6.27033e-05 7.12197e-07
-6.27033e-05 0.000144623 -3.73886e-07
7.12197e-07 -3.73886e-07 3.83664e-05
0.00171527 -0.000108778 1.67794e-06
-0.000108778 9.53807e-05 -3.11474e-08
1.67794e-06 -3.11474e-08 1.60529e-06
0.00114375 -0.000158533 -1.26404e-07
-0.000158533 0.000245415 1.19339e-06
-1.26404e-07 1.19339e-06 0.000113828
0.00145413 -0.000194536 -3.9931e-10
-0.000194536 0.00038629 1.91101e-06
-3.9931e-10 1.91101e-06 0.000219684
0.00114945 -0.000207301 -1.88791e-06
-0.000207301 3.08216e-05 1.39619e-06
-1.88791e-06 1.39619e-06 -0.000169817
0.00169089 -0.000139532 1.88844e-06
-0.000139532 0.000100303 -8.54422e-07
1.88844e-06 -8.54422e-07 -1.81291e-06
0.00151005 -0.000193464 -5.44896e-07
-0.000193464 2.92446e-06 -2.6425e-06
-5.44896e-07 -2.6425e-06 -0.000114087
0.0015355 -0.000216081 -1.01682e-06
-0.000216081 7.12082e-05 -4.1574e-06
-1.01682e-06 -4.1574e-06 -7.66021e-05
0.00105702 -0.000152043 8.73963e-07
-0.000152043 0.000196585 -1.11265e-06
8.73963e-07 -1.11265e-06 7.20549e-05
0.000817665 -0.000135955 -3.22285e-06
-0.000135955 6.69903e-05 -2.24281e-06
-3.22285e-06 -2.24281e-06 -5.20994e-05
0.00105944 -0.000115588 5.05683e-07
-0.000115588 0.000225683 2.05261e-07
5.05683e-07 2.05261e-07 9.67477e-05
0.000445551 2.123e-05 -8.64517e-07
2.123e-05 -0.000141436 1.41381e-06
-8.64517e-07 1.41381e-06 -0.000190741
0.000971572 -3.3952e-05 2.1996e-07
-3.3952e-05 0.000173642 -1.36263e-07
2.1996e-07 -1.36263e-07 7.58675e-05
0.000601467 2.88015e-05 4.31914e-07
2.88015e-05 -3.91704e-05 1.29402e-06
4.31914e-07 1.29402e-06 -0.000117405
0.00178015 -3.57065e-05 -2.38645e-07
-3.57065e-05 9.5427e-05 1.54931e-07
-2.38645e-07 1.54931e-07 -5.863e-06
0.00182833 -8.89034e-05 6.74682e-07
-8.89034e-05 0.000124869 -7.67264e-08
6.74682e-07 -7.67264e-08 3.91576e-05
0.00160328 -0.000120527 -3.61039e-07
-0.000120527 1.39311e-05 1.6366e-07
-3.61039e-07 1.6366e-07 -6.85069e-05
0.00103266 -0.000154784 1.73439e-07
-0.000154784 0.00018106 1.59518e-06
1.73439e-07 1.59518e-06 4.17698e-05
0.000889986 -0.000171884 -2.47011e-07
-0.000171884 4.54716e-05 -5.88756e-09
-2.47011e-07 -5.88756e-09 -0.000151208
0.00185483 -0.00026448 -2.65867e-06
-0.00026448 0.00033991 7.94609e-07
-2.65867e-06 7.94609e-07 0.000144953
0.00189397 -0.000175918 7.14639e-07
-0.000175918 0.000161435 -6.39544e-07
7.14639e-07 -6.39544e-07 6.8398e-05
0.00175759 -0.000228488 1.80869e-06
-0.000228488 0.000147877 -5.30117e-07
1.80869e-06 -5.30117e-07 1.57084e-05
0.000579665 2.02318e-05 3.823e-07
2.02318e-05 -6.94261e-05 -7.03083e-07
3.823e-07 -7.03083e-07 -0.000113419
0.000856147 6.17005e-07 -3.18636e-07
6.17005e-07 0.000105279 2.38152e-07
-3.18636e-07 2.38152e-07 3.0907e-05
0.000546532 -0.00012061 -1.6006e-06
-0.00012061 -9.2711e-05 1.42615e-06
-1.6006e-06 1.42615e-06 -0.000215396
0.00117173 -0.000154836 6.41697e-07
-0.000154836 0.000258661 4.89717e-07
6.41697e-07 4.89717e-07 0.000131416
0.000868443 -3.60769e-05 1.75842e-07
-3.60769e-05 0.000120004 -3.86947e-07
1.75842e-07 -3.86947e-07 8.65823e-06
0.000907234 -4.66671e-05 -6.64835e-07
-4.66671e-05 0.000143408 1.01429e-06
-6.64835e-07 1.01429e-06 4.79105e-05
0.00183983 -5.62894e-05 -1.7087e-06
-5.62894e-05 0.000101873 -3.23104e-08
-1.7087e-06 -3.23104e-08 1.67983e-05
0.00173509 -0.00011835 -3.68818e-06
-0.00011835 4.33685e-05 -3.06745e-07
-3.68818e-06 -3.06745e-07 -2.37042e-05
0.00177776 -0.000139056 1.63454e-07
-0.000139056 6.53713e-05 -3.16955e-08
1.63454e-07 -3.16955e-08 -6.04474e-06
0.00240252 -0.000256481 4.73165e-06
-0.000256481 0.000415666 -7.45342e-07
4.73165e-06 -7.45342e-07 0.000310585
0.000244318 -0.000108584 -2.53269e-06
-0.000108584 -0.000251357 -8.17055e-07
-2.53269e-06 -8.17055e-07 -0.000407494
0.00187029 -0.000273535 -3.06414e-06
-0.000273535 0.000281893 4.63091e-06
-3.06414e-06 4.63091e-06 0.000101335
0.00213227 -0.000275766 1.77908e-06
-0.000275766 0.000653867 -3.23876e-06
1.77908e-06 -3.23876e-06 0.000432628
0.000729394 1.75192e-05 6.57085e-07
1.75192e-05 1.10005e-05 -1.94296e-06
6.57085e-07 -1.94296e-06 -2.81768e-05
0.000746999 -7.34561e-05 1.31827e-06
-7.34561e-05 5.0564e-05 -1.52191e-06
1.31827e-06 -1.52191e-06 -1.82555e-05
0.000579828 1.08935e-05 4.5804e-07
1.08935e-05 -4.58705e-05 -2.11447e-06
4.5804e-07 -2.11447e-06 -0.000120431
0.000835366 -3.83813e-05 1.22377e-06
-3.83813e-05 0.000107785 3.33364e-08
1.22377e-06 3.33364e-08 1.40881e-05
0.000809938 -1.08827e-06 7.2407e-07
-1.08827e-06 8.56974e-05 -5.18763e-07
7.2407e-07 -5.18763e-07 -1.2995e-05
0.000575856 -0.000112264 2.41888e-07
-0.000112264 -2.49503e-05 2.71535e-06
2.41888e-07 2.71535e-06 -0.000149831
0.000595678 -0.000127106 -3.55961e-06
-0.000127106 -0.000109499 1.17362e-06
-3.55961e-06 1.17362e-06 -0.000220787
0.00182072 -0.00020118 -5.73453e-06
-0.00020118 0.000644887 3.82652e-06
-5.73453e-06 3.82652e-06 0.000500355
0.000740104 -4.33115e-05 -5.79443e-07
-4.33115e-05 2.73648e-05 -4.65139e-07
-5.79443e-07 -4.65139e-07 -3.02001e-05
0.000817904 -7.00232e-06 -7.40735e-08
-7.00232e-06 8.82354e-05 3.43568e-07
-7.40735e-08 3.43568e-07 5.80577e-06
0.00206425 0.000167873 3.86077e-07
0.000167873 0.000290645 4.26323e-07
3.86077e-07 4.26323e-07 0.00018949
0.000831222 9.07378e-06 1.97137e-08
9.07378e-06 0.000108808 -6.37846e-07
1.97137e-08 -6.37846e-07 -2.61202e-06
0.00112951 0.000157789 1.0427e-06
0.000157789 0.000273519 -1.04927e-06
1.0427e-06 -1.04927e-06 0.000116119
0.000666264 7.90607e-05 -2.48642e-07
7.90607e-05 1.14391e-05 1.92629e-06
-2.48642e-07 1.92629e-06 -0.000108885
0.00183513 0.000239777 1.13206e-06
0.000239777 0.000271345 1.02031e-07
1.13206e-06 1.02031e-07 0.00010871
0.00164649 0.000218921 3.59733e-06
0.000218921 9.84607e-05 4.51192e-06
3.59733e-06 4.51192e-06 -3.33928e-05
0.000879626 0.000164009 1.54669e-06
0.000164009 8.36905e-05 6.37776e-07
1.54669e-06 6.37776e-07 -0.00012988
0.00122367 0.000221485 -2.98431e-06
0.000221485 4.98496e-05 -3.80813e-07
-2.98431e-06 -3.80813e-07 -0.000122319
0.000635873 -1.48723e-05 8.36879e-08
-1.48723e-05 -1.5004e-05 6.37147e-07
8.36879e-08 6.37147e-07 -8.98783e-05
0.000616699 4.89767e-05 -2.14525e-07
4.89767e-05 -5.99531e-06 -1.36875e-06
-2.14525e-07 -1.36875e-06 -0.000111614
0.00102801 0.000153822 1.05339e-06
0.000153822 0.000212954 -1.46773e-06
1.05339e-06 -1.46773e-06 3.21894e-05
0.000684507 8.34279e-05 -6.34137e-07
8.34279e-05 2.47689e-05 -1.47964e-06
-6.34137e-07 -1.47964e-06 -0.000109064
0.00200105 0.000157717 1.96959e-07
0.000157717 0.000160907 -4.85359e-07
1.96959e-07 -4.85359e-07 8.50253e-05
0.00179692 0.000201686 1.82137e-06
0.000201686 0.000114302 4.50401e-07
1.82137e-06 4.50401e-07 9.03661e-06
0.00168662 0.000256074 -1.29926e-06
0.000256074 0.000160691 -7.21377e-07
-1.29926e-06 -7.21377e-07 -3.62991e-06
0.000787435 0.000174841 5.66542e-07
0.000174841 -7.71632e-05 5.17537e-09
5.66542e-07 5.17537e-09 -0.000294991
0.00080894 -1.36e-05 -2.56256e-07
-1.36e-05 8.38134e-05 4.55244e-08
-2.56256e-07 4.55244e-08 4.74646e-06
0.0018051 0.000122198 -9.92733e-07
0.000122198 1.39847e-05 6.34093e-07
-9.92733e-07 6.34093e-07 -3.91264e-05
0.00124734 0.000148994 -1.01184e-06
0.000148994 0.0003628 2.1065e-06
-1.01184e-06 2.1065e-06 0.000225886
0.00103461 0.000160505 -4.50647e-08
0.000160505 0.000196654 2.50211e-06
-4.50647e-08 2.50211e-06 8.69587e-06
0.00234807 0.000202284 -4.57897e-06
0.000202284 0.000315587 1.52176e-07
-4.57897e-06 1.52176e-07 0.000239732
0.00148126 0.000262617 -2.8823e-06
0.000262617 -5.13324e-05 -3.18123e-06
-2.8823e-06 -3.18123e-06 -0.000199064
0.00196415 0.000276907 -2.03403e-06
0.000276907 0.00044849 1.82533e-06
-2.03403e-06 1.82533e-06 0.000229063
0.000815353 -2.04919e-06 -1.51684e-06
-2.04919e-06 8.10831e-05 3.80428e-07
-1.51684e-06 3.80428e-07 1.19279e-05
0.000809003 -1.38541e-05 -1.12385e-07
-1.38541e-05 8.18e-05 6.24334e-08
-1.12385e-07 6.24334e-08 8.09454e-06
0.000869295 -2.7378e-05 -5.83627e-07
-2.7378e-05 0.000122736 7.04993e-08
-5.83627e-07 7.04993e-08 4.20357e-05
0.000750553 -2.64727e-05 -4.56366e-07
-2.64727e-05 3.03584e-05 -6.66081e-07
-4.56366e-07 -6.66081e-07 -2.61858e-05
0.000760423 6.63134e-06 1.30838e-07
6.63134e-06 5.28551e-05 4.74134e-07
1.30838e-07 4.74134e-07 -1.90382e-05
0.00066852 -1.2362e-05 -6.56281e-07
-1.2362e-05 1.16988e-05 1.75361e-07
-6.56281e-07 1.75361e-07 -6.8781e-05
0.000759473 -1.43418e-05 -1.2786e-07
-1.43418e-05 3.83239e-05 -6.17668e-09
-1.2786e-07 -6.17668e-09 -2.11174e-05
0.000686772 -2.49982e-05 -5.39511e-07
-2.49982e-05 1.07771e-05 2.91345e-07
-5.39511e-07 2.91345e-07 -6.26597e-05
0.000761165 -4.26437e-05 4.0325e-07
-4.26437e-05 5.35644e-05 -3.43719e-07
4.0325e-07 -3.43719e-07 -2.41551e-05
0.000834717 1.05393e-05 2.54471e-07
1.05393e-05 9.97892e-05 3.45595e-07
2.54471e-07 3.45595e-07 1.90183e-05
0.000768357 -2.36565e-05 6.33005e-07
-2.36565e-05 5.04034e-05 -1.15875e-06
6.33005e-07 -1.15875e-06 -2.76608e-05
0.000785323 -6.10718e-05 3.66072e-07
-6.10718e-05 6.33388e-05 -4.41911e-07
3.66072e-07 -4.41911e-07 -1.64735e-05
0.000863834 1.3619e-05 6.34618e-07
1.3619e-05 0.00011148 -4.5781e-07
6.34618e-07 -4.5781e-07 3.07443e-05
0.000763817 1.77375e-05 1.63434e-06
1.77375e-05 5.30112e-05 7.78238e-08
1.63434e-06 7.78238e-08 -2.5144e-05
0.000771392 7.25007e-06 7.92046e-07
7.25007e-06 4.1094e-05 6.31615e-07
7.92046e-07 6.31615e-07 -1.70275e-05
0.000712298 6.24143e-06 3.84536e-07
6.24143e-06 -2.22148e-06 1.46125e-06
3.84536e-07 1.46125e-06 -4.01803e-05
0.000726239 -4.56364e-07 -2.05508e-07
-4.56364e-07 3.50724e-06 2.35094e-08
-2.05508e-07 2.35094e-08 -3.38715e-05
0.00128228 -8.11719e-06 5.5865e-07
-8.11719e-06 0.00030306 2.03389e-06
5.5865e-07 2.03389e-06 0.000299651
0.000740045 -1.2449e-05 -2.07194e-07
-1.2449e-05 9.1756e-06 -1.69182e-06
-2.07194e-07 -1.69182e-06 -2.74959e-05
0.00130592 -1.4928e-05 -2.43879e-06
-1.4928e-05 0.000318177 -1.39777e-06
-2.43879e-06 -1.39777e-06 0.000314859
0.000947296 -1.36643e-05 1.08711e-05
-1.36643e-05 0.000119616 7.29665e-06
1.08711e-05 7.29665e-06 0.000132172
0.00132668 -2.202e-05 -5.114e-06
-2.202e-05 0.00033248 -4.83537e-06
-5.114e-06 -4.83537e-06 0.000328987
0.00089434 -2.04453e-05 3.93271e-06
-2.04453e-05 9.25109e-05 2.73323e-06
3.93271e-06 2.73323e-06 0.000104897
0.000827707 -2.64014e-05 -1.46264e-06
-2.64014e-05 5.98279e-05 -1.76613e-06
-1.46264e-06 -1.76613e-06 7.1601e-05
0.000734395 4.96793e-06 4.70123e-07
4.96793e-06 1.23807e-05 -1.87006e-06
4.70123e-07 -1.87006e-06 -2.39696e-05
0.000662797 2.47724e-05 6.02211e-07
2.47724e-05 -3.70643e-05 -3.6812e-06
6.02211e-07 -3.6812e-06 -4.63653e-05
0.000663463 3.14738e-05 -1.26053e-07
3.14738e-05 -3.11018e-05 4.1353e-08
-1.26053e-07 4.1353e-08 -4.34178e-05
0.0022345 4.99566e-05 2.05404e-05
4.99566e-05 0.000861892 -4.15458e-06
2.05404e-05 -4.15458e-06 0.000876899
0.00066191 3.78348e-05 -1.13028e-06
3.78348e-05 -2.49508e-05 4.07654e-06
-1.13028e-06 4.07654e-06 -4.0867e-05
0.00235041 6.12355e-05 -2.36151e-06
6.12355e-05 0.000935085 -1.4038e-07
-2.36151e-06 -1.4038e-07 0.000947256
0.00250058 7.18515e-05 -3.44001e-05
7.18515e-05 0.00102736 3.65873e-06
-3.44001e-05 3.65873e-06 0.00103675
0.00188243 0.000121886 1.75473e-06
0.000121886 0.000154027 1.70785e-06
1.75473e-06 1.70785e-06 6.41934e-05
0.00170797 8.43658e-05 1.70099e-06
8.43658e-05 5.92188e-05 -1.89105e-07
1.70099e-06 -1.89105e-07 -2.88961e-05
0.00169302 4.06238e-05 1.55747e-06
4.06238e-05 6.07922e-05 -6.3321e-07
1.55747e-06 -6.3321e-07 -3.58341e-05
0.00173409 4.15747e-06 6.91293e-07
4.15747e-06 9.64061e-05 -3.18247e-07
6.91293e-07 -3.18247e-07 -1.17022e-05
0.00177253 3.88213e-06 -6.73018e-07
3.88213e-06 9.71314e-05 6.75698e-08
-6.73018e-07 6.75698e-08 -5.91025e-07
0.00188987 6.26643e-05 6.10448e-07
6.26643e-05 0.000130722 -2.84698e-07
6.10448e-07 -2.84698e-07 5.09578e-05
0.00171256 0.000119958 -5.9156e-07
0.000119958 1.715e-05 -1.66221e-07
-5.9156e-07 -1.66221e-07 -6.12208e-05
0.00180865 8.68937e-06 -1.22625e-06
8.68937e-06 8.14488e-05 1.01475e-06
-1.22625e-06 1.01475e-06 -6.52988e-07
0.00193621 8.11925e-05 1.94579e-07
8.11925e-05 0.000117566 -4.24017e-08
1.94579e-07 -4.24017e-08 5.45333e-05
0.00186437 5.63794e-05 -1.70148e-06
5.63794e-05 5.90661e-05 -1.22086e-06
-1.70148e-06 -1.22086e-06 3.39992e-05
0.00188918 -3.45148e-05 1.14505e-07
-3.45148e-05 0.000152519 -1.72125e-07
1.14505e-07 -1.72125e-07 5.14831e-05
0.0018832 -9.15303e-05 2.9224e-06
-9.15303e-05 0.000156304 2.82433e-07
2.9224e-06 2.82433e-07 7.1314e-05
0.00165877 -0.000122577 1.9864e-07
-0.000122577 4.50825e-05 -5.10265e-08
1.9864e-07 -5.10265e-08 -3.74523e-05
0.00109877 -0.000158654 1.19167e-07
-0.000158654 0.000216276 3.18358e-06
1.19167e-07 3.18358e-06 7.5917e-05
0.00113546 -0.00018561 1.00375e-06
-0.00018561 0.000191299 4.23918e-06
1.00375e-06 4.23918e-06 -2.04182e-06
0.00159679 -0.000245951 -1.93296e-06
-0.000245951 0.000195795 -8.27729e-07
-1.93296e-06 -8.27729e-07 5.92197e-06
0.00186256 -0.000175237 3.45943e-06
-0.000175237 0.000143097 -1.33554e-06
3.45943e-06 -1.33554e-06 4.89705e-05
0.0016457 -0.000221648 -9.62844e-09
-0.000221648 8.6745e-05 -2.73583e-06
-9.62844e-09 -2.73583e-06 -4.47626e-05
0.000274887 -0.000100875 -2.24777e-06
-0.000100875 -0.000243069 2.16163e-06
-2.24777e-06 2.16163e-06 -0.000361983
0.00141317 -0.000167242 7.98109e-06
-0.000167242 0.000396352 -4.05066e-06
7.98109e-06 -4.05066e-06 0.000271413
0.000800406 -5.32883e-06 -5.50453e-08
-5.32883e-06 7.33915e-05 -6.47902e-07
-5.50453e-08 -6.47902e-07 -3.0564e-05
0.000723926 1.29896e-05 -6.95871e-07
1.29896e-05 1.03957e-05 1.35921e-06
-6.95871e-07 1.35921e-06 -3.18056e-05
0.000857213 1.79161e-05 -7.82549e-07
1.79161e-05 0.000104993 1.47266e-06
-7.82549e-07 1.47266e-06 3.10318e-05
0.000823193 -2.03948e-05 -5.56967e-07
-2.03948e-05 9.71963e-05 1.12197e-06
-5.56967e-07 1.12197e-06 1.52036e-06
0.00188825 -5.76372e-05 1.08035e-07
-5.76372e-05 0.000130164 1.45705e-07
1.08035e-07 1.45705e-07 4.72214e-05
0.000729763 1.03185e-05 4.71895e-07
1.03185e-05 1.13324e-05 4.06304e-08
4.71895e-07 4.06304e-08 -2.79813e-05
0.000667659 -1.90209e-05 -7.12329e-07
-1.90209e-05 -4.39976e-06 3.36556e-08
-7.12329e-07 3.36556e-08 -6.67088e-05
0.00181248 -0.000117806 -3.67202e-07
-0.000117806 9.09502e-05 -1.47649e-07
-3.67202e-07 -1.47649e-07 2.26242e-05
0.00163679 -0.000134747 -1.83454e-06
-0.000134747 -1.64897e-05 9.01719e-07
-1.83454e-06 9.01719e-07 -8.99524e-05
0.000548017 -0.000127668 1.96298e-07
-0.000127668 -7.459e-05 2.79768e-06
1.96298e-07 2.79768e-06 -0.000228515
0.00171179 -0.000243794 -1.84362e-06
-0.000243794 0.000433037 7.59005e-07
-1.84362e-06 7.59005e-07 0.000206143
0.00149048 -0.000247156 7.32553e-07
-0.000247156 8.00645e-05 -9.50791e-07
7.32553e-07 -9.50791e-07 -9.39154e-05
0.00190159 -0.0002383 2.65514e-06
-0.0002383 0.000155162 -8.77983e-07
2.65514e-06 -8.77983e-07 4.96439e-05
0.000813487 -2.42097e-05 1.1746e-06
-2.42097e-05 8.35364e-05 -6.93596e-07
1.1746e-06 -6.93596e-07 1.1334e-05
0.000817584 -2.6797e-05 -2.57281e-07
-2.6797e-05 9.878e-05 6.621e-07
-2.57281e-07 6.621e-07 4.05118e-06
0.000946433 -0.000138672 -4.56887e-07
-0.000138672 8.09834e-05 -2.64891e-07
-4.56887e-07 -2.64891e-07 -3.50299e-05
0.00117439 -0.000159707 6.79068e-06
-0.000159707 0.000286066 -1.96906e-06
6.79068e-06 -1.96906e-06 0.00016227
0.000634161 -8.56541e-05 -1.04984e-06
-8.56541e-05 5.00026e-07 2.0097e-07
-1.04984e-06 2.0097e-07 -0.000119804
0.000835467 -7.43726e-06 2.96309e-07
-7.43726e-06 0.000102338 -4.76026e-07
2.96309e-07 -4.76026e-07 1.81073e-06
0.00191913 -7.14632e-05 -4.01387e-06
-7.14632e-05 0.000100402 -1.35978e-07
-4.01387e-06 -1.35978e-07 3.97813e-05
0.0017427 -0.000106663 9.81557e-07
-0.000106663 1.50898e-05 4.93758e-07
9.81557e-07 4.93758e-07 -4.38225e-05
0.00187835 -0.000227878 -2.92863e-07
-0.000227878 4.50157e-05 -1.80556e-06
-2.92863e-07 -1.80556e-06 -2.32788e-05
0.00162287 -0.000268998 1.39977e-06
-0.000268998 3.47802e-05 7.78216e-07
1.39977e-06 7.78216e-07 -8.91764e-05
0.000826964 -0.000113687 -4.99613e-06
-0.000113687 5.1882e-05 -3.28262e-06
-4.99613e-06 -3.28262e-06 -0.000103103
0.00254228 -0.000327817 -3.39967e-06
-0.000327817 0.000794986 2.61772e-06
-3.39967e-06 2.61772e-06 0.000554939
0.000552021 4.84109e-05 -1.29478e-06
4.84109e-05 -6.54629e-05 -2.13438e-06
-1.29478e-06 -2.13438e-06 -0.000128592
0.000758011 -3.98262e-05 1.16988e-06
-3.98262e-05 4.68565e-05 -1.38891e-06
1.16988e-06 -1.38891e-06 -1.83775e-05
0.000962145 -5.0756e-05 9.94761e-07
-5.0756e-05 0.000180026 -2.6557e-07
9.94761e-07 -2.6557e-07 9.64387e-05
0.000572344 1.52889e-05 -1.69361e-07
1.52889e-05 -3.36356e-05 -7.59095e-07
-1.69361e-07 -7.59095e-07 -0.000130235
0.00104748 -3.35589e-05 4.83618e-07
-3.35589e-05 0.000221866 -2.63996e-07
4.83618e-07 -2.63996e-07 0.000125581
0.000558392 -3.64265e-05 8.66246e-07
-3.64265e-05 -4.71263e-05 2.61097e-07
8.66246e-07 2.61097e-07 -0.000159864
0.000658343 -8.10745e-05 5.21114e-06
-8.10745e-05 6.77141e-05 1.11851e-06
5.21114e-06 1.11851e-06 -8.875e-05
0.000673108 -0.000148326 -1.44403e-05
-0.000148326 -4.36414e-05 4.91127e-06
-1.44403e-05 4.91127e-06 -0.000147852
0.000635042 2.01947e-06 -3.55801e-08
2.01947e-06 -1.15281e-05 3.19656e-07
-3.55801e-08 3.19656e-07 -9.03228e-05
0.00081086 6.59657e-05 -1.9961e-06
6.59657e-05 0.000101035 -2.46098e-06
-1.9961e-06 -2.46098e-06 -5.88763e-06
0.00201919 0.000155345 -1.22118e-06
0.000155345 0.0001745 -4.42054e-07
-1.22118e-06 -4.42054e-07 0.000100378
0.00166348 0.000202109 7.6648e-07
0.000202109 4.90258e-05 1.81718e-06
7.6648e-07 1.81718e-06 -6.06038e-05
0.00132028 0.000107487 -2.93928e-06
0.000107487 0.000368772 -1.04743e-06
-2.93928e-06 -1.04743e-06 0.000234913
0.000980358 0.000150754 -5.87108e-07
0.000150754 0.00019331 -4.44497e-06
-5.87108e-07 -4.44497e-06 1.05595e-05
0.00168372 0.000249925 1.78387e-06
0.000249925 0.000159808 2.71945e-07
1.78387e-06 2.71945e-07 -2.19291e-06
0.00190482 0.000254111 -1.04138e-06
0.000254111 0.00051271 -8.09035e-07
-1.04138e-06 -8.09035e-07 0.000294254
0.000776087 1.07155e-05 7.39082e-07
1.07155e-05 7.24325e-05 -6.39831e-07
7.39082e-07 -6.39831e-07 -1.15257e-05
0.0018565 0.000117897 -4.24466e-07
0.000117897 3.97116e-05 -1.09298e-07
-4.24466e-07 -1.09298e-07 -1.11997e-05
0.000945451 0.000102744 3.54975e-07
0.000102744 0.000191709 1.63618e-06
3.54975e-07 1.63618e-06 6.33877e-05
0.000803972 0.000144414 4.69935e-07
0.000144414 7.00366e-05 -1.59459e-07
4.69935e-07 -1.59459e-07 -0.000118337
0.00205047 0.000192572 2.3997e-06
0.000192572 0.000152932 -1.92223e-07
2.3997e-06 -1.92223e-07 7.65722e-05
0.00172176 0.000271836 -3.79634e-07
0.000271836 7.51563e-05 -1.27871e-06
-3.79634e-07 -1.27871e-06 -7.00959e-05
0.00208185 0.000287133 1.10384e-06
0.000287133 0.000524654 1.21193e-06
1.10384e-06 1.21193e-06 0.000303461
0.00109303 3.98412e-05 -2.60788e-06
3.98412e-05 0.000262573 1.0905e-06
-2.60788e-06 1.0905e-06 0.000156303
0.00221027 0.000134189 -1.75576e-05
0.000134189 0.000242265 -1.9988e-06
-1.75576e-05 -1.9988e-06 0.000211678
0.00216111 0.000211816 -3.75233e-06
0.000211816 0.000837955 -4.94092e-07
-3.75233e-06 -4.94092e-07 0.000684436
0.0025167 0.000284043 -5.85082e-06
0.000284043 0.000935011 1.59269e-06
-5.85082e-06 1.59269e-06 0.000726342
0.00192935 0.000282935 -5.789e-06
0.000282935 8.99327e-05 -4.49181e-06
-5.789e-06 -4.49181e-06 -3.81242e-06
0.00146501 0.000269056 -7.08214e-06
0.000269056 0.00011047 2.26903e-07
-7.08214e-06 2.26903e-07 -8.41014e-05
0.000236482 0.000136346 9.69384e-06
0.000136346 -0.000536671 -1.4912e-06
9.69384e-06 -1.4912e-06 -0.000711972
0.000774856 -1.16402e-07 1.08152e-07
-1.16402e-07 6.48129e-05 1.71468e-07
1.08152e-07 1.71468e-07 -1.02137e-05
0.000836343 -2.11796e-05 -3.09145e-07
-2.11796e-05 0.000105607 1.94381e-07
-3.09145e-07 1.94381e-07 2.44992e-05
0.000989358 -9.00136e-06 -3.62387e-08
-9.00136e-06 0.000180359 -1.34008e-06
-3.62387e-08 -1.34008e-06 9.48025e-05
0.000746229 -4.9632e-05 -2.92542e-07
-4.9632e-05 3.40195e-05 -8.10361e-07
-2.92542e-07 -8.10361e-07 -2.7607e-05
0.000713455 -4.88702e-05 -1.20445e-06
-4.88702e-05 2.45196e-05 5.4852e-07
-1.20445e-06 5.4852e-07 -4.78237e-05
0.000869658 7.10057e-05 -7.30954e-07
7.10057e-05 0.00012203 8.1263e-07
-7.30954e-07 8.1263e-07 3.96508e-05
0.00070192 -4.83797e-05 -2.11726e-07
-4.83797e-05 2.32986e-05 4.15032e-07
-2.11726e-07 4.15032e-07 -5.63263e-05
0.000751461 -2.56364e-05 -5.15377e-08
-2.56364e-05 3.70076e-05 -1.02135e-09
-5.15377e-08 -1.02135e-09 -2.57771e-05
0.000729258 1.25492e-05 -7.62899e-09
1.25492e-05 2.59195e-05 -1.57086e-07
-7.62899e-09 -1.57086e-07 -4.6664e-05
0.000789005 -2.82884e-05 1.76862e-07
-2.82884e-05 6.25291e-05 -4.3973e-07
1.76862e-07 -4.3973e-07 -1.67228e-05
0.000854109 -1.22812e-05 6.24442e-08
-1.22812e-05 0.000100955 -2.24047e-08
6.24442e-08 -2.24047e-08 2.37142e-05
0.00085399 -3.94908e-05 1.46312e-07
-3.94908e-05 9.99539e-05 -3.38741e-09
1.46312e-07 -3.38741e-09 2.10513e-05
0.000840457 -3.34137e-05 3.77883e-08
-3.34137e-05 8.33593e-05 -1.24598e-06
3.77883e-08 -1.24598e-06 5.36191e-06
0.000821006 -2.13789e-06 2.69269e-07
-2.13789e-06 7.33924e-05 -1.48612e-06
2.69269e-07 -1.48612e-06 -4.44431e-06
0.000842008 2.38266e-05 5.45001e-07
2.38266e-05 8.62151e-05 -4.69736e-07
5.45001e-07 -4.69736e-07 1.1265e-05
0.000776851 2.74737e-05 3.03359e-07
2.74737e-05 5.78644e-05 6.89836e-08
3.03359e-07 6.89836e-08 -2.39555e-05
0.000651297 -1.24713e-05 3.91592e-08
-1.24713e-05 -2.78593e-05 1.05216e-06
3.91592e-08 1.05216e-06 -8.82018e-05
0.000900571 -7.06992e-06 3.08093e-07
-7.06992e-06 0.000140732 -7.45963e-07
3.08093e-07 -7.45963e-07 5.69417e-05
0.000627001 2.57151e-06 -6.11044e-07
2.57151e-06 -3.64576e-05 1.02913e-06
-6.11044e-07 1.02913e-06 -9.94482e-05
0.00071347 1.03458e-05 -9.28532e-08
1.03458e-05 -6.17536e-07 1.44262e-06
-9.28532e-08 1.44262e-06 -3.91365e-05
0.000714155 5.2666e-06 6.50999e-08
5.2666e-06 -1.03147e-06 1.15017e-08
6.50999e-08 1.15017e-08 -3.90567e-05
0.000672645 1.12153e-06 1.47484e-07
1.12153e-06 -4.12504e-05 3.37606e-06
1.47484e-07 3.37606e-06 -4.86527e-05
0.000729102 -4.74994e-06 -1.89873e-07
-4.74994e-06 5.32417e-06 -1.55885e-06
-1.89873e-07 -1.55885e-06 -3.2103e-05
0.000998034 -5.90711e-06 -1.57507e-06
-5.90711e-06 0.000142847 -1.47259e-06
-1.57507e-06 -1.47259e-06 0.000137508
0.00219325 -9.87461e-06 6.73255e-06
-9.87461e-06 0.000821517 4.59427e-06
6.73255e-06 4.59427e-06 0.000841135
0.00134038 -1.36593e-05 -3.00703e-06
-1.36593e-05 0.000337945 -4.8573e-06
-3.00703e-06 -4.8573e-06 0.000334364
0.000901065 -1.38676e-05 2.08364e-06
-1.38676e-05 9.27764e-05 2.82085e-06
2.08364e-06 2.82085e-06 0.000105508
0.000841621 -1.97216e-05 -9.28463e-07
-1.97216e-05 6.23198e-05 -1.75861e-06
-9.28463e-07 -1.75861e-06 7.49775e-05
0.000717421 1.13328e-05 -3.25687e-08
1.13328e-05 3.04391e-06 -1.84273e-06
-3.25687e-08 -1.84273e-06 -3.13345e-05
0.000729859 5.69154e-06 1.3175e-07
5.69154e-06 9.80508e-06 1.10553e-08
1.3175e-07 1.10553e-08 -2.6637e-05
0.000677252 1.85663e-05 3.51012e-07
1.85663e-05 -3.33076e-05 -3.53003e-06
3.51012e-07 -3.53003e-06 -4.02951e-05
0.000993719 2.88211e-05 -4.97923e-07
2.88211e-05 0.000149738 3.02728e-08
-4.97923e-07 3.02728e-08 0.000141987
0.00217679 3.94916e-05 1.68255e-05
3.94916e-05 0.000823282 -4.27445e-06
1.68255e-05 -4.27445e-06 0.000840421
0.000673439 3.21434e-05 -7.8272e-07
3.21434e-05 -2.55702e-05 3.89693e-06
-7.8272e-07 3.89693e-06 -3.80209e-05
0.0022643 5.09701e-05 -2.32079e-06
5.09701e-05 0.000879533 -1.18113e-07
-2.32079e-06 -1.18113e-07 0.000894176
0.00239408 6.20266e-05 -2.81446e-05
6.20266e-05 0.000960433 3.94758e-06
-2.81446e-05 3.94758e-06 0.00097226
0.00171107 0.000120696 -1.53394e-06
0.000120696 1.31954e-05 -1.85032e-07
-1.53394e-06 -1.85032e-07 -6.53061e-05
0.00181701 6.11933e-05 1.1489e-06
6.11933e-05 8.77074e-05 -1.03392e-06
1.1489e-06 -1.03392e-06 7.14138e-06
0.00179189 1.62616e-06 -1.1131e-07
1.62616e-06 0.000109039 -3.21309e-07
-1.1131e-07 -3.21309e-07 1.26388e-05
0.00176856 1.06501e-05 4.3249e-07
1.06501e-05 5.6981e-05 2.76787e-07
4.3249e-07 2.76787e-07 -2.53385e-05
0.00182066 7.92516e-05 -5.67275e-07
7.92516e-05 5.97624e-05 -1.57954e-07
-5.67275e-07 -1.57954e-07 -4.45747e-06
0.00182102 5.62301e-05 2.20817e-06
5.62301e-05 3.53253e-05 6.53144e-07
2.20817e-06 6.53144e-07 4.48368e-06
0.00170322 1.38108e-05 -5.15135e-07
1.38108e-05 -1.70901e-05 9.64409e-08
-5.15135e-07 9.64409e-08 -6.67939e-05
0.00313862 9.63298e-05 1.44075e-05
9.63298e-05 0.000470103 -1.28512e-07
1.44075e-05 -1.28512e-07 0.000425612
0.00174883 3.88823e-05 -1.53969e-05
3.88823e-05 5.59327e-05 -3.71118e-06
-1.53969e-05 -3.71118e-06 4.73363e-05
0.000757264 4.56519e-05 -5.15432e-07
4.56519e-05 4.63843e-05 -1.15582e-06
-5.15432e-07 -1.15582e-06 -1.08439e-05
0.00193514 -5.8687e-05 1.99654e-06
-5.8687e-05 0.00015768 2.05999e-07
1.99654e-06 2.05999e-07 7.68487e-05
0.00188881 -0.000114746 2.02566e-06
-0.000114746 0.000140021 -1.22778e-07
2.02566e-06 -1.22778e-07 7.07843e-05
0.00148277 -0.000129643 1.6503e-06
-0.000129643 -0.000104409 5.56607e-07
1.6503e-06 5.56607e-07 -0.000179284
0.00084392 -0.000145774 2.24365e-06
-0.000145774 9.71973e-05 5.27882e-06
2.24365e-06 5.27882e-06 -5.42901e-05
0.00135807 -0.000216258 1.98261e-06
-0.000216258 0.000248715 5.03024e-06
1.98261e-06 5.03024e-06 1.46543e-05
0.00112774 -0.000223472 -1.00224e-06
-0.000223472 -0.000112775 -4.0272e-06
-1.00224e-06 -4.0272e-06 -0.000281771
0.00149693 -0.000226524 -4.59359e-06
-0.000226524 -5.67273e-05 -2.15895e-06
-4.59359e-06 -2.15895e-06 -0.000163375
0.00125677 -0.000153949 9.61236e-06
-0.000153949 0.000248284 -3.39032e-06
9.61236e-06 -3.39032e-06 0.000127146
0.000525052 -0.000119315 4.6288e-06
-0.000119315 -7.21097e-05 -9.6664e-06
4.6288e-06 -9.6664e-06 -0.000175888
0.000740861 -8.70711e-05 -8.39044e-08
-8.70711e-05 5.67664e-05 -1.67305e-06
-8.39044e-08 -1.67305e-06 -6.35228e-05
0.000727791 2.47653e-06 -1.1456e-06
2.47653e-06 9.98025e-06 2.02378e-06
-1.1456e-06 2.02378e-06 -2.91659e-05
0.000861152 -1.55902e-05 -6.27318e-08
-1.55902e-05 0.00012049 -3.98299e-07
-6.27318e-08 -3.98299e-07 1.70218e-05
0.0010409 -5.58086e-05 -2.51972e-07
-5.58086e-05 0.000214195 6.93769e-07
-2.51972e-07 6.93769e-07 0.000141123
0.000783171 -1.91525e-05 -1.12852e-06
-1.91525e-05 7.90002e-05 1.06847e-06
-1.12852e-06 1.06847e-06 -1.53274e-05
0.000575753 -1.37758e-05 -4.87953e-07
-1.37758e-05 -5.9595e-05 1.32022e-06
-4.87953e-07 1.32022e-06 -0.000119905
0.00191227 -7.67755e-05 -9.41096e-07
-7.67755e-05 9.07602e-05 -1.62982e-07
-9.41096e-07 -1.62982e-07 3.33694e-05
0.000646559 2.36399e-05 7.37979e-08
2.36399e-05 -1.08342e-05 -8.07212e-07
7.37979e-08 -8.07212e-07 -7.38906e-05
0.000764571 -4.9594e-05 -2.02585e-07
-4.9594e-05 5.57105e-05 1.14153e-07
-2.02585e-07 1.14153e-07 -1.33213e-05
0.000825051 -2.44302e-05 -6.28571e-07
-2.44302e-05 0.000104585 7.03874e-07
-6.28571e-07 7.03874e-07 1.83101e-05
0.00176573 -0.000114339 6.79175e-07
-0.000114339 1.74402e-05 -4.06007e-07
6.79175e-07 -4.06007e-07 -3.97408e-05
0.00180687 -0.000224801 -1.03049e-06
-0.000224801 1.93819e-05 -3.21293e-07
-1.03049e-06 -3.21293e-07 -5.35755e-05
0.000894009 -0.000131514 2.25377e-06
-0.000131514 7.49218e-05 -1.61731e-07
2.25377e-06 -1.61731e-07 -7.27897e-05
0.00126422 -0.000239902 2.36112e-06
-0.000239902 0.0001378 -8.96639e-08
2.36112e-06 -8.96639e-08 -0.000101703
0.00171883 -0.000280789 3.73363e-08
-0.000280789 9.12716e-05 4.71146e-07
3.73363e-08 4.71146e-07 -3.69746e-05
0.000697721 -5.70664e-06 -2.36991e-07
-5.70664e-06 3.60382e-05 3.52666e-08
-2.36991e-07 3.52666e-08 -5.99079e-05
0.000926877 -4.96055e-05 -1.80615e-07
-4.96055e-05 0.000159678 1.2742e-07
-1.80615e-07 1.2742e-07 5.8934e-05
0.000576652 -0.000142736 -6.06429e-06
-0.000142736 -8.2318e-05 1.24886e-06
-6.06429e-06 1.24886e-06 -0.000200046
0.000855714 -7.99028e-05 7.34935e-07
-7.99028e-05 0.00016427 -2.20196e-07
7.34935e-07 -2.20196e-07 1.73738e-05
0.000716269 -5.9659e-05 -5.50361e-07
-5.9659e-05 4.0133e-05 3.36996e-07
-5.50361e-07 3.36996e-07 -7.38179e-05
0.00212946 -0.000141989 -5.32881e-06
-0.000141989 0.000161411 6.50804e-07
-5.32881e-06 6.50804e-07 0.000123684
0.00201835 -0.000145188 -2.23841e-06
-0.000145188 0.000126258 1.4332e-06
-2.23841e-06 1.4332e-06 7.9407e-05
0.00218019 -0.000316435 -6.82818e-07
-0.000316435 0.000222738 -6.57248e-07
-6.82818e-07 -6.57248e-07 0.000124127
0.00239192 -0.000337017 -1.21256e-05
-0.000337017 0.000608218 1.01622e-06
-1.21256e-05 1.01622e-06 0.00042713
0.000905069 -0.000132522 -6.77128e-06
-0.000132522 0.000119049 -2.15457e-06
-6.77128e-06 -2.15457e-06 -6.27789e-05
0.000559321 1.55628e-05 6.01276e-07
1.55628e-05 -4.84129e-05 -1.5109e-06
6.01276e-07 -1.5109e-06 -0.000131453
0.000574472 5.13898e-05 4.12375e-08
5.13898e-05 -3.68241e-05 -9.74474e-07
4.12375e-08 -9.74474e-07 -0.000126671
0.000876236 1.27479e-05 7.86229e-07
1.27479e-05 0.000137925 1.00727e-07
7.86229e-07 1.00727e-07 4.17399e-05
0.00085786 -8.28203e-05 1.66965e-06
-8.28203e-05 0.00012933 -3.81711e-07
1.66965e-06 -3.81711e-07 2.32499e-05
0.00068506 -2.42689e-05 6.91267e-07
-2.42689e-05 2.07483e-05 3.97591e-07
6.91267e-07 3.97591e-07 -7.99139e-05
0.000673176 -2.61141e-05 2.0681e-06
-2.61141e-05 4.68616e-05 -3.93227e-07
2.0681e-06 -3.93227e-07 -8.67054e-05
0.000777885 -0.0001255 8.26106e-06
-0.0001255 0.0001464 1.25229e-06
8.26106e-06 1.25229e-06 -4.97014e-05
0.000751122 4.78306e-05 1.01151e-06
4.78306e-05 6.59013e-05 -1.65517e-06
1.01151e-06 -1.65517e-06 -2.33898e-05
0.000581625 5.51719e-05 1.37075e-06
5.51719e-05 -1.40754e-05 2.85308e-07
1.37075e-06 2.85308e-07 -0.000133649
0.00191853 0.000113598 2.00473e-06
0.000113598 7.27254e-05 -3.26947e-07
2.00473e-06 -3.26947e-07 2.30674e-05
0.00173245 0.000182162 3.94942e-06
0.000182162 -1.95456e-05 -5.44892e-07
3.94942e-06 -5.44892e-07 -9.60081e-05
0.00199268 0.000281975 4.92603e-06
0.000281975 0.000218046 5.29372e-07
4.92603e-06 5.29372e-07 7.55068e-05
0.000546281 0.000127281 2.20883e-06
0.000127281 -7.23448e-05 -9.18944e-07
2.20883e-06 -9.18944e-07 -0.000260603
0.00218349 0.000297257 3.4478e-06
0.000297257 0.00058976 1.21881e-06
3.4478e-06 1.21881e-06 0.000368344
0.00101774 3.17338e-05 -2.23439e-07
3.17338e-05 0.000216788 4.80472e-07
-2.23439e-07 4.80472e-07 0.000117252
0.00194199 0.000123005 -1.5595e-06
0.000123005 9.49107e-05 -1.07037e-07
-1.5595e-06 -1.07037e-07 7.03334e-05
0.0013326 0.000155782 -1.10329e-06
0.000155782 0.000386858 -4.44289e-07
-1.10329e-06 -4.44289e-07 0.000242532
0.00169579 0.000225314 -8.16922e-07
0.000225314 0.000513122 1.37054e-06
-8.16922e-07 1.37054e-06 0.00030179
0.00200481 0.000277933 6.32127e-07
0.000277933 0.000130508 -1.46721e-06
6.32127e-07 -1.46721e-06 3.91219e-05
0.00151038 0.000275739 -1.14254e-06
0.000275739 0.000133171 1.89452e-06
-1.14254e-06 1.89452e-06 -6.63634e-05
0.00123637 0.000166353 1.65837e-05
0.000166353 -0.000246261 1.15811e-06
1.65837e-05 1.15811e-06 -0.000465048
0.00112929 7.17299e-05 -2.87054e-06
7.17299e-05 0.000276838 -1.81382e-06
-2.87054e-06 -1.81382e-06 0.000162533
0.00246225 0.000198365 -2.40847e-05
0.000198365 0.000388637 -1.16705e-05
-2.40847e-05 -1.16705e-05 0.000391244
0.00133039 0.000184987 -6.11927e-06
0.000184987 0.000383711 -2.02587e-06
-6.11927e-06 -2.02587e-06 0.000223306
0.00133991 0.000226416 -6.60644e-06
0.000226416 0.000242167 -3.85048e-08
-6.60644e-06 -3.85048e-08 1.82568e-05
0.000515495 0.00028762 -9.73304e-06
0.00028762 -0.000529463 -2.86965e-06
-9.73304e-06 -2.86965e-06 -0.000689437
0.00830688 0.000101724 -9.73905e-05
0.000101724 0.00250189 -3.78051e-05
-9.73905e-05 -3.78051e-05 0.00158991
0.00392074 0.000341138 0.000102317
0.000341138 0.000557091 -2.81151e-06
0.000102317 -2.81151e-06 -0.000127729
0.000561394 0.000261684 1.12908e-05
0.000261684 -0.000392451 1.76679e-05
1.12908e-05 1.76679e-05 -0.000509541
-0.00320289 -0.000363457 9.30082e-05
-0.000363457 -0.00117515 -1.01311e-05
9.30082e-05 -1.01311e-05 -0.00150468
0.00380557 -0.00086879 -2.03509e-05
-0.00086879 0.000484039 -8.33116e-06
-2.03509e-05 -8.33116e-06 0.00188613
0.000818445 -1.23731e-05 5.39476e-07
-1.23731e-05 9.53257e-05 -3.55395e-08
5.39476e-07 -3.55395e-08 1.4398e-05
0.000922987 -2.36226e-05 9.95597e-07
-2.36226e-05 0.000149249 -2.8591e-07
9.95597e-07 -2.8591e-07 6.41264e-05
0.00091037 2.71403e-05 -7.08832e-07
2.71403e-05 0.00014183 -2.60026e-06
-7.08832e-07 -2.60026e-06 5.65624e-05
0.000739626 -5.36542e-05 5.63521e-08
-5.36542e-05 3.51862e-05 -7.6836e-07
5.63521e-08 -7.6836e-07 -3.07771e-05
0.000697363 4.76652e-05 -1.00869e-06
4.76652e-05 1.02159e-05 -2.87951e-08
-1.00869e-06 -2.87951e-08 -6.41012e-05
0.000848664 -4.05158e-05 -1.49905e-07
-4.05158e-05 9.81815e-05 3.68795e-07
-1.49905e-07 3.68795e-07 2.07889e-05
0.000915802 -1.59011e-05 -9.7118e-07
-1.59011e-05 0.000132026 8.93908e-07
-9.7118e-07 8.93908e-07 5.45373e-05
0.000822293 -3.92181e-05 -2.86451e-08
-3.92181e-05 8.18936e-05 -3.82767e-08
-2.86451e-08 -3.82767e-08 1.06926e-06
0.000794076 4.35233e-05 -7.7033e-07
4.35233e-05 6.62128e-05 -2.76935e-07
-7.7033e-07 -2.76935e-07 -1.40079e-05
0.000690936 -5.23101e-06 -4.37902e-08
-5.23101e-06 -1.0723e-06 5.50467e-07
-4.37902e-08 5.50467e-07 -6.32461e-05
0.000783695 2.29818e-05 -2.28763e-07
2.29818e-05 6.02576e-05 -3.7156e-08
-2.28763e-07 -3.7156e-08 -2.00773e-05
0.000847074 -3.0863e-05 -8.39534e-08
-3.0863e-05 8.6688e-05 5.30511e-07
-8.39534e-08 5.30511e-07 9.06039e-06
0.000846447 -3.40964e-06 -2.03585e-07
-3.40964e-06 8.70172e-05 -1.55286e-07
-2.03585e-07 -1.55286e-07 1.01183e-05
0.000797184 3.0378e-05 8.60709e-08
3.0378e-05 5.63197e-05 -1.11821e-06
8.60709e-08 -1.11821e-06 -2.03511e-05
0.000710258 -3.26298e-06 7.05516e-07
-3.26298e-06 5.7109e-06 -2.28931e-06
7.05516e-07 -2.28931e-06 -6.63724e-05
0.000875979 3.57368e-05 1.41007e-06
3.57368e-05 0.000100229 -1.67507e-07
1.41007e-06 -1.67507e-07 2.17736e-05
0.000727035 -7.77414e-07 1.12757e-06
-7.77414e-07 1.88648e-05 -2.96751e-07
1.12757e-06 -2.96751e-07 -5.9282e-05
0.000637034 -4.33744e-05 -1.20521e-06
-4.33744e-05 -3.01379e-05 1.0545e-06
-1.20521e-06 1.0545e-06 -9.44861e-05
0.000857242 1.40771e-05 -4.78456e-07
1.40771e-05 0.000101114 -3.02439e-07
-4.78456e-07 -3.02439e-07 2.12358e-05
0.000891401 5.66475e-05 8.77806e-08
5.66475e-05 0.000120476 -1.46389e-06
8.77806e-08 -1.46389e-06 3.93823e-05
0.000747494 4.08397e-06 -7.12556e-07
4.08397e-06 5.05538e-05 -3.57758e-07
-7.12556e-07 -3.57758e-07 -2.67138e-05
0.000851611 6.43473e-06 7.32596e-07
6.43473e-06 0.000104437 -4.09185e-07
7.32596e-07 -4.09185e-07 2.53468e-05
0.000757114 -3.97634e-05 -1.52214e-06
-3.97634e-05 3.77474e-05 5.04005e-07
-1.52214e-06 5.04005e-07 -2.34691e-05
0.000633158 5.35169e-06 1.35942e-07
5.35169e-06 -3.03723e-05 5.63546e-07
1.35942e-07 5.63546e-07 -9.52707e-05
0.000724889 1.08207e-05 -3.68221e-07
1.08207e-05 4.87189e-06 1.49231e-06
-3.68221e-07 1.49231e-06 -3.37859e-05
0.000712311 1.77872e-06 2.09432e-08
1.77872e-06 -1.522e-06 -8.40802e-09
2.09432e-08 -8.40802e-09 -3.98862e-05
0.000693849 7.07347e-06 -3.67422e-07
7.07347e-06 -2.78949e-05 4.85378e-06
-3.67422e-07 4.85378e-06 -3.59044e-05
0.000713492 3.50924e-07 2.17878e-07
3.50924e-07 -1.51081e-06 -1.47995e-06
2.17878e-07 -1.47995e-06 -3.94349e-05
0.000678341 1.37274e-06 2.39095e-07
1.37274e-06 -3.80326e-05 -5.26501e-09
2.39095e-07 -5.26501e-09 -4.54655e-05
0.0022012 -1.00269e-06 2.25256e-07
-1.00269e-06 0.00082546 4.66143e-06
2.25256e-07 4.66143e-06 0.000845031
0.000702409 -4.43886e-06 -4.90369e-07
-4.43886e-06 -2.39808e-05 -4.87544e-06
-4.90369e-07 -4.87544e-06 -3.12811e-05
0.00154578 -7.80094e-06 -3.57459e-07
-7.80094e-06 0.000455188 3.66956e-08
-3.57459e-07 3.66956e-08 0.000471358
0.0008522 -1.27693e-05 -4.04324e-07
-1.27693e-05 6.44759e-05 -1.77894e-06
-4.04324e-07 -1.77894e-06 7.75512e-05
0.000720726 9.87724e-06 -2.82446e-07
9.87724e-06 4.76532e-06 -1.78736e-06
-2.82446e-07 -1.78736e-06 -2.8201e-05
0.000724355 2.83165e-06 1.09901e-07
2.83165e-06 6.66799e-06 2.66894e-08
1.09901e-07 2.66894e-08 -2.77029e-05
0.000685242 1.25015e-05 1.22507e-07
1.25015e-05 -3.21021e-05 -3.46927e-06
1.22507e-07 -3.46927e-06 -3.73494e-05
0.000731026 -6.62159e-07 -1.02577e-06
-6.62159e-07 1.0278e-05 1.91997e-06
-1.02577e-06 1.91997e-06 -2.61849e-05
0.000979016 2.12287e-05 -2.17191e-07
2.12287e-05 0.00013682 -7.19869e-07
-2.17191e-07 -7.19869e-07 0.000131604
0.0021229 2.91203e-05 1.27396e-05
2.91203e-05 0.000787981 -4.39868e-06
1.27396e-05 -4.39868e-06 0.000806857
0.000676408 2.59074e-05 -5.55517e-07
2.59074e-05 -2.92627e-05 3.73328e-06
-5.55517e-07 3.73328e-06 -3.90068e-05
0.00223835 3.9873e-05 -7.47139e-06
3.9873e-05 0.000859463 1.18732e-06
-7.47139e-06 1.18732e-06 0.000876115
0.00229501 5.18139e-05 -2.2496e-05
5.18139e-05 0.000897658 4.14976e-06
-2.2496e-05 4.14976e-06 0.000911962
0.0017138 7.74672e-05 -3.76029e-07
7.74672e-05 6.38472e-06 -5.12057e-07
-3.76029e-07 -5.12057e-07 -5.89983e-05
0.00173169 1.19648e-05 1.17278e-06
1.19648e-05 3.48081e-05 -3.4756e-07
1.17278e-06 -3.4756e-07 -4.76944e-05
0.00179814 5.7267e-05 5.75871e-06
5.7267e-05 2.21908e-05 1.09031e-06
5.75871e-06 1.09031e-06 -1.36867e-05
0.00207944 7.3126e-05 1.70267e-05
7.3126e-05 -2.73594e-05 3.02583e-06
1.70267e-05 3.02583e-06 -9.18035e-05
0.00175773 1.18092e-05 -1.5738e-06
1.18092e-05 1.05035e-05 -8.33632e-08
-1.5738e-06 -8.33632e-08 -3.91194e-05
0.00186976 4.21035e-05 2.74676e-06
4.21035e-05 0.00012877 9.60906e-07
2.74676e-06 9.60906e-07 0.000117587
0.00253493 -1.3791e-06 -1.32624e-05
-1.3791e-06 0.000487092 -7.75816e-07
-1.32624e-05 -7.75816e-07 0.00044518
0.00303992 7.85396e-06 0.000137241
7.85396e-06 0.000229627 -7.60775e-06
0.000137241 -7.60775e-06 -6.15577e-05
0.0019529 -8.50973e-06 -1.31812e-05
-8.50973e-06 1.14418e-05 -5.9193e-06
-1.31812e-05 -5.9193e-06 -5.03501e-05
0.000757831 4.81541e-05 -6.72762e-07
4.81541e-05 4.89433e-05 -1.07755e-06
-6.72762e-07 -1.07755e-06 -9.03402e-06
0.000759599 -1.12757e-05 6.70216e-07
-1.12757e-05 5.1819e-05 -5.87472e-08
6.70216e-07 -5.87472e-08 -8.543e-06
0.000731937 -6.32971e-05 4.28739e-08
-6.32971e-05 4.33021e-05 -4.44686e-07
4.28739e-08 -4.44686e-07 -3.11239e-05
0.000754427 -2.32248e-05 -1.2037e-06
-2.32248e-05 6.45603e-05 -1.01862e-07
-1.2037e-06 -1.01862e-07 -1.53953e-05
0.00191886 -8.33422e-05 1.66539e-06
-8.33422e-05 8.8177e-05 -1.7645e-07
1.66539e-06 -1.7645e-07 3.3263e-05
0.00177824 -0.000123709 -1.07913e-06
-0.000123709 1.33343e-05 1.48108e-07
-1.07913e-06 1.48108e-07 -4.35587e-05
0.00180279 -0.000223123 -5.15915e-06
-0.000223123 2.92978e-05 9.30009e-07
-5.15915e-06 9.30009e-07 -4.89306e-05
0.00110667 -0.000176075 3.84572e-06
-0.000176075 0.000183348 2.95497e-06
3.84572e-06 2.95497e-06 3.7932e-05
-9.05339e-05 -0.000146374 4.89934e-06
-0.000146374 -0.000565387 -9.83024e-07
4.89934e-06 -9.83024e-07 -0.000801771
0.00184963 -0.000295162 5.2466e-07
-0.000295162 0.000169317 -2.44668e-06
5.2466e-07 -2.44668e-06 3.71022e-05
0.000521261 -0.000127477 -6.74301e-06
-0.000127477 -0.000102177 5.96308e-07
-6.74301e-06 5.96308e-07 -0.000231138
0.00108931 -7.92919e-05 -1.05237e-06
-7.92919e-05 0.000279379 -1.67943e-06
-1.05237e-06 -1.67943e-06 0.000142725
0.000836085 -8.43341e-05 -2.18451e-06
-8.43341e-05 0.000106143 8.59876e-07
-2.18451e-06 8.59876e-07 -8.33366e-06
0.000774773 -2.37892e-05 -1.03959e-06
-2.37892e-05 5.75431e-05 1.51326e-06
-1.03959e-06 1.51326e-06 -9.04799e-06
0.0008078 -6.23005e-05 -8.20428e-07
-6.23005e-05 9.9768e-05 2.54274e-07
-8.20428e-07 2.54274e-07 -6.57725e-06
0.000819425 -1.06216e-05 -1.09089e-06
-1.06216e-05 0.000101611 1.03708e-06
-1.09089e-06 1.03708e-06 7.99265e-06
0.00075386 -9.44148e-07 1.1643e-07
-9.44148e-07 5.19046e-05 6.59577e-07
1.1643e-07 6.59577e-07 -1.17907e-05
0.00068601 1.91845e-05 -3.27174e-07
1.91845e-05 2.8849e-05 1.86417e-06
-3.27174e-07 1.86417e-06 -6.04396e-05
0.00197545 -0.000123937 5.11421e-07
-0.000123937 0.000106762 3.03318e-07
5.11421e-07 3.03318e-07 6.56008e-05
0.000760408 7.17251e-06 6.93046e-07
7.17251e-06 6.62654e-05 -5.4447e-07
6.93046e-07 -5.4447e-07 -1.63245e-05
0.000696422 1.5889e-05 6.46088e-07
1.5889e-05 3.33572e-05 -9.30245e-08
6.46088e-07 -9.30245e-08 -5.73847e-05
0.00077743 6.29392e-05 -2.00295e-07
6.29392e-05 8.65137e-05 1.10709e-06
-2.00295e-07 1.10709e-06 -1.01477e-05
0.0019127 -0.000144556 -2.68233e-06
-0.000144556 5.49683e-05 6.89394e-07
-2.68233e-06 6.89394e-07 4.84558e-06
0.00194189 -0.000297835 9.71577e-07
-0.000297835 0.000102898 -6.98467e-07
9.71577e-07 -6.98467e-07 9.44567e-06
0.00104462 -0.00018025 -1.15424e-06
-0.00018025 0.000181137 -1.21609e-07
-1.15424e-06 -1.21609e-07 -3.16705e-06
0.00237535 -0.000337753 -1.59365e-06
-0.000337753 0.000595934 7.51222e-07
-1.59365e-06 7.51222e-07 0.000411649
0.000935265 -3.25238e-05 -3.72363e-07
-3.25238e-05 0.000167779 3.92623e-08
-3.72363e-07 3.92623e-08 6.44798e-05
0.000727317 -4.28824e-05 -3.70515e-07
-4.28824e-05 4.9056e-05 9.25517e-07
-3.70515e-07 9.25517e-07 -5.58008e-05
0.000833891 -0.000129976 3.58467e-06
-0.000129976 0.000167932 -9.68659e-07
3.58467e-06 -9.68659e-07 -2.07807e-05
0.0010246 -8.11972e-05 9.84315e-07
-8.11972e-05 0.000244071 -6.74332e-07
9.84315e-07 -6.74332e-07 9.95823e-05
0.00229821 -0.000103645 -8.86969e-06
-0.000103645 0.000257808 4.92072e-06
-8.86969e-06 4.92072e-06 0.000206848
0.00227881 -0.000259637 -7.18946e-06
-0.000259637 0.000189926 -2.90622e-07
-7.18946e-06 -2.90622e-07 0.000183251
0.0023602 -0.000348806 -6.37358e-06
-0.000348806 0.000454939 -3.54081e-06
-6.37358e-06 -3.54081e-06 0.000309038
0.00144038 -0.000262721 -2.03834e-06
-0.000262721 0.000355255 1.75543e-07
-2.03834e-06 1.75543e-07 0.00016749
0.000711029 2.54695e-05 -5.09927e-07
2.54695e-05 5.09673e-05 -9.32216e-07
-5.09927e-07 -9.32216e-07 -5.2638e-05
0.000725385 -4.82808e-05 5.56194e-07
-4.82808e-05 5.97428e-05 -1.43463e-06
5.56194e-07 -1.43463e-06 -4.66675e-05
0.000729206 -3.91119e-05 7.32208e-07
-3.91119e-05 6.28626e-05 -4.97678e-07
7.32208e-07 -4.97678e-07 -4.85226e-05
0.000616325 -1.3517e-05 -4.06188e-08
-1.3517e-05 7.12633e-05 4.85974e-07
-4.06188e-08 4.85974e-07 -0.000142025
0.000352494 -0.000137215 2.21123e-05
-0.000137215 -0.00174163 -8.09637e-07
2.21123e-05 -8.09637e-07 -0.00224926
0.000997029 1.78141e-05 1.38337e-06
1.78141e-05 0.000202703 -1.19041e-06
1.38337e-06 -1.19041e-06 0.000109392
0.000503521 9.79081e-05 3.21961e-06
9.79081e-05 -6.32294e-05 1.66138e-06
3.21961e-06 1.66138e-06 -0.000198157
0.00168152 0.000114164 1.70341e-05
0.000114164 -4.88093e-05 1.42377e-06
1.70341e-05 1.42377e-06 -6.57384e-05
0.00211571 0.000274497 5.46429e-06
0.000274497 0.000189348 2.04971e-07
5.46429e-06 2.04971e-07 9.96982e-05
0.00140586 0.000272828 5.97558e-06
0.000272828 7.78044e-05 2.51689e-06
5.97558e-06 2.51689e-06 -0.000127943
0.00072369 0.000155099 5.021e-06
0.000155099 9.6414e-06 1.33931e-06
5.021e-06 1.33931e-06 -0.000204358
0.00228014 0.00020721 2.10911e-05
0.00020721 8.73935e-05 3.88662e-06
2.10911e-05 3.88662e-06 -0.000189343
0.000977962 5.94489e-05 8.64706e-07
5.94489e-05 0.000200828 -6.74622e-07
8.64706e-07 -6.74622e-07 8.81471e-05
0.00228655 0.000194842 -7.06895e-06
0.000194842 0.000298651 -1.84338e-06
-7.06895e-06 -1.84338e-06 0.00030999
0.00105418 0.000164624 5.56232e-07
0.000164624 0.00023884 -3.69678e-07
5.56232e-07 -3.69678e-07 8.21252e-05
0.00115833 0.000220959 -2.43497e-07
0.000220959 0.000153392 2.5802e-07
-2.43497e-07 2.5802e-07 -7.24864e-05
0.00134657 0.000335743 -2.36674e-06
0.000335743 -0.000119725 -1.4507e-06
-2.36674e-06 -1.4507e-06 -0.000272725
0.00281946 -0.000136212 -6.45102e-05
-0.000136212 -0.000264739 -2.0816e-05
-6.45102e-05 -2.0816e-05 -0.0011355
0.00387826 0.000256235 6.03043e-06
0.000256235 0.000344426 -1.56045e-05
6.03043e-06 -1.56045e-05 -0.000423255
0.000262262 0.000208012 4.83015e-06
0.000208012 -0.000515079 6.23489e-06
4.83015e-06 6.23489e-06 -0.00064863
-0.00127633 -0.000260016 6.27274e-05
-0.000260016 3.50052e-05 1.97266e-05
6.27274e-05 1.97266e-05 -0.000560553
-0.000489279 -0.000869258 -1.14702e-05
-0.000869258 -0.00140788 -2.70853e-05
-1.14702e-05 -2.70853e-05 0.000184842
0.0011926 0.000118767 -3.73874e-06
0.000118767 0.000331737 -3.84753e-06
-3.73874e-06 -3.84753e-06 0.000218282
0.000564209 0.000185321 -1.17565e-05
0.000185321 0.000840063 -2.76478e-05
-1.17565e-05 -2.76478e-05 0.000242142
0.00126713 -0.000372413 -6.08443e-05
-0.000372413 0.000974058 -6.52796e-05
-6.08443e-05 -6.52796e-05 0.000833088
0.00248637 0.000285165 -2.41174e-05
0.000285165 0.000464008 -6.34457e-06
-2.41174e-05 -6.34457e-06 0.000478978
0.00112427 0.000109316 -1.10964e-05
0.000109316 0.000279333 -2.76871e-06
-1.10964e-05 -2.76871e-06 0.00011037
0.00107962 0.000335477 -1.78329e-05
0.000335477 4.09609e-05 -8.8029e-06
-1.78329e-05 -8.8029e-06 -0.000196714
-0.000196414 0.000260495 1.50272e-05
0.000260495 -0.000763442 5.03719e-05
1.50272e-05 5.03719e-05 -0.000789344
0.00794956 7.67656e-05 -4.09481e-05
7.67656e-05 0.00271595 -2.13109e-05
-4.09481e-05 -2.13109e-05 0.00131212
0.00376712 0.000514142 -5.36954e-06
0.000514142 0.000724845 1.30356e-05
-5.36954e-06 1.30356e-05 -0.000438208
0.000646024 -0.000701473 4.25805e-05
-0.000701473 -0.000319293 3.11609e-05
4.25805e-05 3.11609e-05 8.93989e-05
0.00145046 -0.000482562 -1.6452e-05
-0.000482562 -0.00165818 6.02076e-05
-1.6452e-05 6.02076e-05 -0.000425292
0.000849623 -2.89658e-05 1.58407e-06
-2.89658e-05 0.000114098 -4.25984e-07
1.58407e-06 -4.25984e-07 2.97153e-05
0.000906977 2.31161e-05 3.85564e-07
2.31161e-05 0.000141899 2.31012e-07
3.85564e-07 2.31012e-07 5.68212e-05
0.00112847 6.70816e-05 -1.78581e-06
6.70816e-05 0.000263921 -3.73751e-06
-1.78581e-06 -3.73751e-06 0.000196476
0.000741162 4.13539e-06 -3.94247e-08
4.13539e-06 3.83837e-05 -6.07616e-09
-3.94247e-08 -6.07616e-09 -3.02742e-05
0.000805672 2.1387e-05 -6.15732e-07
2.1387e-05 7.11765e-05 -2.08179e-07
-6.15732e-07 -2.08179e-07 -7.78451e-06
0.000720205 -3.00229e-05 -6.46576e-07
-3.00229e-05 1.8238e-05 2.399e-07
-6.46576e-07 2.399e-07 -5.71317e-05
0.000880713 -3.46229e-06 -2.08268e-07
-3.46229e-06 0.000105695 7.98457e-07
-2.08268e-07 7.98457e-07 2.94418e-05
0.000864443 -2.94753e-05 -3.38569e-07
-2.94753e-05 9.63835e-05 1.65156e-06
-3.38569e-07 1.65156e-06 1.88827e-05
0.000634814 -9.85956e-07 5.07238e-07
-9.85956e-07 -2.9004e-05 5.55897e-07
5.07238e-07 5.55897e-07 -9.49748e-05
0.000827362 -4.82742e-07 -9.68433e-08
-4.82742e-07 7.28002e-05 -1.18457e-07
-9.68433e-08 -1.18457e-07 -3.72858e-06
0.000878084 5.22795e-08 3.59559e-08
5.22795e-08 0.000103167 3.07887e-07
3.59559e-08 3.07887e-07 2.43788e-05
0.0008073 2.12577e-05 5.73419e-07
2.12577e-05 7.29984e-05 -2.5496e-07
5.73419e-07 -2.5496e-07 -1.02211e-05
0.000747437 -4.74283e-07 6.36997e-08
-4.74283e-07 2.57863e-05 -7.28684e-08
6.36997e-08 -7.28684e-08 -4.55284e-05
0.000883024 -5.84675e-06 4.77893e-07
-5.84675e-06 9.67091e-05 -1.2358e-06
4.77893e-07 -1.2358e-06 2.18668e-05
0.000690945 2.62861e-05 -1.05714e-06
2.62861e-05 -9.78097e-06 -5.43368e-06
-1.05714e-06 -5.43368e-06 -7.73884e-05
0.000870378 -6.27594e-05 2.46034e-07
-6.27594e-05 9.59818e-05 -6.46811e-07
2.46034e-07 -6.46811e-07 1.30576e-05
0.000859675 -4.90605e-05 -4.72741e-07
-4.90605e-05 0.000105173 -6.88145e-07
-4.72741e-07 -6.88145e-07 2.04437e-05
0.000864341 -1.27299e-05 -4.64697e-07
-1.27299e-05 0.000107771 -2.12132e-07
-4.64697e-07 -2.12132e-07 2.56394e-05
0.000890851 4.15901e-05 -5.22018e-07
4.15901e-05 0.000115653 -2.9296e-07
-5.22018e-07 -2.9296e-07 3.72381e-05
0.000850466 2.01721e-05 -6.59234e-07
2.01721e-05 0.000100931 -1.36004e-06
-6.59234e-07 -1.36004e-06 1.07131e-05
0.000810941 4.58935e-05 5.06892e-07
4.58935e-05 7.88532e-05 -9.927e-07
5.06892e-07 -9.927e-07 1.79134e-07
0.000721248 3.18831e-05 4.42582e-07
3.18831e-05 1.53238e-05 -1.51259e-06
4.42582e-07 -1.51259e-06 -5.76672e-05
0.000711466 5.23612e-05 1.86299e-06
5.23612e-05 3.6573e-05 7.96337e-07
1.86299e-06 7.96337e-07 -4.59679e-05
0.000747694 7.41509e-06 -7.29146e-08
7.41509e-06 4.24538e-05 -3.03755e-07
-7.29146e-08 -3.03755e-07 -2.62882e-05
0.000770275 -5.32981e-06 -1.46463e-07
-5.32981e-06 6.01163e-05 1.76228e-08
-1.46463e-07 1.76228e-08 -1.51294e-05
0.00074994 -2.59269e-06 -1.17589e-06
-2.59269e-06 2.94091e-05 3.17167e-07
-1.17589e-06 3.17167e-07 -2.74146e-05
0.000796747 5.45952e-06 8.79104e-07
5.45952e-06 6.31459e-05 -1.00775e-07
8.79104e-07 -1.00775e-07 -1.00295e-05
0.000721658 -3.47764e-05 -2.64242e-08
-3.47764e-05 1.72922e-05 4.78442e-08
-2.64242e-08 4.78442e-08 -4.42528e-05
0.000737968 1.2396e-05 -7.72189e-07
1.2396e-05 1.10313e-05 1.53923e-06
-7.72189e-07 1.53923e-06 -2.75691e-05
0.000639236 4.72498e-06 5.75272e-07
4.72498e-06 -2.25375e-05 1.51018e-08
5.75272e-07 1.51018e-08 -9.0423e-05
0.000722968 8.29298e-06 8.62975e-08
8.29298e-06 3.55822e-06 -1.75523e-08
8.62975e-08 -1.75523e-08 -3.50323e-05
0.00135129 1.59298e-05 -2.91962e-06
1.59298e-05 0.000345892 4.75475e-06
-2.91962e-06 4.75475e-06 0.000340953
0.000710366 3.48232e-06 3.99469e-07
3.48232e-06 -2.66719e-06 -1.43331e-06
3.99469e-07 -1.43331e-06 -4.09947e-05
0.00101752 8.52266e-06 -1.48038e-06
8.52266e-06 0.000155018 7.2525e-07
-1.48038e-06 7.2525e-07 0.00014883
0.000905901 3.85712e-06 -3.26774e-06
3.85712e-06 9.3833e-05 4.51797e-06
-3.26774e-06 4.51797e-06 0.000106237
0.000684484 1.61166e-06 3.46533e-08
1.61166e-06 -3.45433e-05 -3.35331e-06
3.46533e-08 -3.35331e-06 -4.20152e-05
0.00220553 -1.87923e-08 3.14221e-06
-1.87923e-08 0.000827943 -8.91878e-10
3.14221e-06 -8.91878e-10 0.000847473
0.000915633 -3.78224e-06 -2.99692e-06
-3.78224e-06 9.90961e-05 -4.52854e-06
-2.99692e-06 -4.52854e-06 0.000111906
0.000760306 6.12221e-05 8.29304e-07
6.12221e-05 5.55586e-05 -3.31199e-07
8.29304e-07 -3.31199e-07 -7.16487e-06
0.000729665 6.17464e-06 -2.04483e-07
6.17464e-06 8.99418e-06 -1.75596e-06
-2.04483e-07 -1.75596e-06 -2.34456e-05
0.00072216 3.40803e-06 1.19799e-07
3.40803e-06 5.37223e-06 8.27658e-09
1.19799e-07 8.27658e-09 -2.75635e-05
0.000685917 6.23003e-06 -7.96457e-08
6.23003e-06 -3.35974e-05 -3.42634e-06
-7.96457e-08 -3.42634e-06 -3.77781e-05
0.000728549 -2.05949e-06 -5.49013e-07
-2.05949e-06 8.78171e-06 1.85106e-06
-5.49013e-07 1.85106e-06 -2.56022e-05
0.000676796 1.26085e-05 -8.04612e-10
1.26085e-05 -3.72987e-05 -7.27415e-07
-8.04612e-10 -7.27415e-07 -4.24271e-05
0.00208948 1.90197e-05 8.46478e-06
1.90197e-05 0.000765463 -4.50086e-06
8.46478e-06 -4.50086e-06 0.000785573
0.00128834 2.58104e-05 -1.02779e-06
2.58104e-05 0.000311835 2.11697e-06
-1.02779e-06 2.11697e-06 0.000307949
0.00154067 2.487e-05 3.86746e-07
2.487e-05 0.000460024 1.42762e-06
3.86746e-07 1.42762e-06 0.000475076
0.000968873 2.75784e-05 -1.68248e-05
2.75784e-05 0.000142492 7.25452e-06
-1.68248e-05 7.25452e-06 0.000152253
0.000845288 5.10564e-05 3.24012e-05
5.10564e-05 -0.00061437 1.20638e-05
3.24012e-05 1.20638e-05 -0.000709975
0.00180639 9.31149e-06 2.97087e-06
9.31149e-06 3.34515e-05 6.52341e-07
2.97087e-06 6.52341e-07 -1.52519e-05
0.00202737 4.30339e-05 1.88242e-05
4.30339e-05 0.000224713 7.80925e-07
1.88242e-05 7.80925e-07 0.000208392
0.000813141 3.38697e-05 1.54584e-05
3.38697e-05 -0.000655014 -3.74115e-06
1.54584e-05 -3.74115e-06 -0.00097962
0.00177123 -7.84502e-07 4.20398e-06
-7.84502e-07 -5.2403e-05 1.04645e-06
4.20398e-06 1.04645e-06 -8.88525e-05
0.00207378 -1.1068e-05 -2.12693e-06
-1.1068e-05 0.000174653 -5.35419e-07
-2.12693e-06 -5.35419e-07 0.000137741
0.00282247 -2.65831e-05 -4.37815e-05
-2.65831e-05 0.000513969 4.36725e-06
-4.37815e-05 4.36725e-06 0.000494815
0.00236588 -0.000104316 0.000142754
-0.000104316 0.000103471 -1.04035e-05
0.000142754 -1.04035e-05 -0.00015949
0.00789311 -0.000135008 -1.85218e-05
-0.000135008 0.00227147 8.70902e-06
-1.85218e-05 8.70902e-06 0.00126151
0.0049756 0.000801774 8.34807e-05
0.000801774 0.00243658 -3.03418e-05
8.34807e-05 -3.03418e-05 0.00261267
0.00228324 0.000782671 -9.46306e-06
0.000782671 0.00100808 1.60162e-05
-9.46306e-06 1.60162e-05 0.00202526
0.000536288 -6.34942e-05 1.54987e-06
-6.34942e-05 -6.2764e-05 -1.17989e-06
1.54987e-06 -1.17989e-06 -0.000138951
0.000759808 -9.00156e-06 7.23958e-07
-9.00156e-06 5.16451e-05 -5.10728e-08
7.23958e-07 -5.10728e-08 -7.54607e-06
0.000757717 -6.46574e-05 -1.16566e-06
-6.46574e-05 5.53084e-05 1.40902e-06
-1.16566e-06 1.40902e-06 -8.36744e-06
0.000727365 -2.82498e-05 -3.26317e-07
-2.82498e-05 4.42678e-05 8.42143e-08
-3.26317e-07 8.42143e-08 -3.34431e-05
0.000788691 5.05971e-05 2.50899e-07
5.05971e-05 9.20209e-05 6.0435e-07
2.50899e-07 6.0435e-07 -1.92316e-06
0.00089664 9.6305e-05 8.36681e-07
9.6305e-05 0.000138167 7.65071e-07
8.36681e-07 7.65071e-07 5.01612e-05
0.00082287 -1.66359e-05 9.78388e-07
-1.66359e-05 9.61636e-05 -1.44618e-06
9.78388e-07 -1.44618e-06 1.79637e-05
0.000705694 -3.21009e-05 -5.41152e-07
-3.21009e-05 3.2447e-05 6.47234e-07
-5.41152e-07 6.47234e-07 -4.40978e-05
0.0018875 -0.000104955 5.66788e-06
-0.000104955 8.64191e-05 -8.25723e-07
5.66788e-06 -8.25723e-07 4.3439e-05
0.00193109 -0.000149304 1.95323e-06
-0.000149304 4.0645e-05 -1.27311e-06
1.95323e-06 -1.27311e-06 -1.10026e-05
0.00155169 -0.000274253 -1.20874e-06
-0.000274253 -9.75861e-05 1.15024e-06
-1.20874e-06 1.15024e-06 -0.000186258
0.0010525 -0.000202169 2.48306e-06
-0.000202169 0.000167164 2.9944e-06
2.48306e-06 2.9944e-06 -1.51847e-05
0.00227395 -0.00033324 2.51492e-06
-0.00033324 0.000539045 9.60923e-07
2.51492e-06 9.60923e-07 0.000350883
0.000858182 -0.000132428 -9.08822e-07
-0.000132428 0.000173901 -1.03302e-06
-9.08822e-07 -1.03302e-06 -8.01629e-06
0.00136444 -0.000135162 -7.89612e-07
-0.000135162 0.000436543 -3.32188e-07
-7.89612e-07 -3.32188e-07 0.00027977
0.000797354 -7.05626e-05 -1.87139e-06
-7.05626e-05 9.27648e-05 1.61952e-06
-1.87139e-06 1.61952e-06 -1.65854e-05
0.000793771 -1.17898e-05 4.30939e-08
-1.17898e-05 8.89563e-05 1.23671e-06
4.30939e-08 1.23671e-06 -1.87166e-06
0.000999481 4.52679e-06 -1.67061e-06
4.52679e-06 0.000198935 1.16575e-07
-1.67061e-06 1.16575e-07 9.87082e-05
0.000998618 -5.31623e-06 8.76238e-07
-5.31623e-06 0.00019948 5.74725e-07
8.76238e-07 5.74725e-07 0.000118239
0.000706471 0.000102181 1.68902e-06
0.000102181 4.99365e-05 2.1479e-06
1.68902e-06 2.1479e-06 -4.75641e-05
0.00165032 -0.000103056 -7.56862e-07
-0.000103056 -9.50167e-05 -2.12288e-06
-7.56862e-07 -2.12288e-06 -0.000140334
0.000759586 3.22961e-05 -7.2239e-07
3.22961e-05 7.75701e-05 3.33494e-07
-7.2239e-07 3.33494e-07 -2.4041e-05
0.000810747 -4.16548e-05 -4.33863e-07
-4.16548e-05 0.000102933 -3.08676e-07
-4.33863e-07 -3.08676e-07 4.01183e-07
0.00200336 -0.000257035 -1.31078e-08
-0.000257035 6.13602e-05 -1.28803e-06
-1.31078e-08 -1.28803e-06 3.86477e-05
0.00128999 -0.000289088 -5.3347e-08
-0.000289088 -9.79025e-05 1.95582e-06
-5.3347e-08 1.95582e-06 -0.00022794
0.0015564 -0.000271273 1.74332e-06
-0.000271273 0.000411202 -1.54614e-06
1.74332e-06 -1.54614e-06 0.000209621
0.000879962 -4.38206e-05 4.29863e-07
-4.38206e-05 0.000149502 -4.3798e-07
4.29863e-07 -4.3798e-07 3.25094e-05
0.000955465 -4.93405e-05 -1.26498e-07
-4.93405e-05 0.000247254 3.12368e-07
-1.26498e-07 3.12368e-07 3.92489e-05
0.00336763 -0.000182358 -1.21181e-05
-0.000182358 0.000967696 8.3155e-06
-1.21181e-05 8.3155e-06 0.000873292
0.00292249 -0.000351245 -1.62645e-05
-0.000351245 0.00060964 1.49954e-06
-1.62645e-05 1.49954e-06 0.000610403
-0.000124209 -0.000227255 -5.15458e-06
-0.000227255 -0.00065731 -1.40174e-06
-5.15458e-06 -1.40174e-06 -0.000800315
0.000999645 -0.000167658 -4.49496e-06
-0.000167658 0.000185024 6.85463e-06
-4.49496e-06 6.85463e-06 -3.13787e-05
0.000640562 -8.62011e-05 6.56937e-07
-8.62011e-05 6.63832e-06 -4.1925e-07
6.56937e-07 -4.1925e-07 -9.81235e-05
0.000812375 -4.37054e-05 1.11803e-06
-4.37054e-05 0.000108089 -5.88241e-07
1.11803e-06 -5.88241e-07 -1.58435e-06
0.000843511 -1.74907e-05 -1.29752e-06
-1.74907e-05 0.000153579 4.37953e-07
-1.29752e-06 4.37953e-07 5.3005e-06
-0.00380227 -2.29184e-05 0.000138171
-2.29184e-05 -0.00186361 1.33214e-06
0.000138171 1.33214e-06 -0.00159673
0.00887313 -7.83093e-05 -2.64113e-05
-7.83093e-05 0.00287931 7.99042e-07
-2.64113e-05 7.99042e-07 0.00228079
0.000859224 4.91698e-05 2.51411e-06
4.91698e-05 0.000140975 5.37969e-07
2.51411e-06 5.37969e-07 3.03682e-05
0.000725963 0.000140515 4.62821e-06
0.000140515 6.32599e-05 1.99725e-07
4.62821e-06 1.99725e-07 -8.91511e-05
0.00191999 0.00017877 1.23659e-05
0.00017877 0.000103758 8.79478e-06
1.23659e-05 8.79478e-06 0.000128443
0.00218807 0.000383985 6.07778e-06
0.000383985 0.000296272 2.75318e-06
6.07778e-06 2.75318e-06 0.000150956
0.00115867 0.000227902 7.22775e-06
0.000227902 0.000161801 1.39043e-06
7.22775e-06 1.39043e-06 -6.54401e-05
0.00628026 0.00027868 6.88842e-05
0.00027868 0.0014428 5.47641e-06
6.88842e-05 5.47641e-06 0.000437515
0.00596315 0.00037426 -9.98044e-05
0.00037426 0.00120171 -2.57746e-05
-9.98044e-05 -2.57746e-05 0.000548354
-0.000357424 0.000142873 3.34219e-06
0.000142873 -0.000804068 -2.02694e-05
3.34219e-06 -2.02694e-05 -0.000948707
0.00403712 -0.000648376 1.65952e-06
-0.000648376 0.0020622 2.47025e-05
1.65952e-06 2.47025e-05 0.00186996
-0.00477369 -0.000894458 -0.000104896
-0.000894458 -0.00319989 -0.000103713
-0.000104896 -0.000103713 -0.00140734
0.000949239 0.000118923 9.05407e-08
0.000118923 0.000205212 -9.7294e-07
9.05407e-08 -9.7294e-07 9.10041e-05
-0.00244535 -0.000238035 4.03751e-05
-0.000238035 -0.00143637 4.36138e-06
4.03751e-05 4.36138e-06 -0.00148706
-0.000925766 -0.000320397 -4.53046e-05
-0.000320397 0.000133154 -1.82823e-05
-4.53046e-05 -1.82823e-05 -0.000234813
0.00251438 0.000272429 -4.53385e-06
0.000272429 0.000446474 -2.2803e-06
-4.53385e-06 -2.2803e-06 0.000480967
0.000913246 0.00012599 -1.37686e-06
0.00012599 0.000185654 -5.28812e-07
-1.37686e-06 -5.28812e-07 1.25473e-05
0.000664918 0.000267737 3.14259e-06
0.000267737 -0.000144565 1.91674e-06
3.14259e-06 1.91674e-06 -0.000377311
0.000645948 0.000198539 1.04599e-05
0.000198539 -0.000247059 9.90957e-06
1.04599e-05 9.90957e-06 -0.000220162
0.00708133 4.28233e-05 -1.47017e-05
4.28233e-05 0.00206841 -1.18746e-05
-1.47017e-05 -1.18746e-05 0.000565858
0.00642889 0.000691597 -4.1639e-05
0.000691597 0.00169763 -1.80378e-05
-4.1639e-05 -1.80378e-05 0.00089946
0.00613153 -0.000916307 3.26198e-05
-0.000916307 0.00276929 -1.98435e-05
3.26198e-05 -1.98435e-05 0.00289265
0.00133805 -0.000561428 4.49622e-05
-0.000561428 -0.00185894 9.76899e-05
4.49622e-05 9.76899e-05 -0.000559397
0.00115667 8.10751e-05 -9.94211e-06
8.10751e-05 0.000340999 -7.26119e-06
-9.94211e-06 -7.26119e-06 0.000244479
-0.00277712 -5.28053e-05 -7.70967e-05
-5.28053e-05 -0.000146174 -2.44229e-05
-7.70967e-05 -2.44229e-05 -0.0010878
0.00207321 2.62752e-05 -7.83563e-05
2.62752e-05 0.000446622 -9.34771e-05
-7.83563e-05 -9.34771e-05 -0.000453365
5.54073e-05 0.000230561 -2.31343e-05
0.000230561 -0.000506294 1.60499e-06
-2.31343e-05 1.60499e-06 -0.000502629
0.00165129 0.000290511 -3.44847e-05
0.000290511 0.000641857 -9.77904e-06
-3.44847e-05 -9.77904e-06 0.000455704
0.00291918 0.000206852 -6.34606e-05
0.000206852 0.00121277 -1.55942e-06
-6.34606e-05 -1.55942e-06 0.00103514
0.00373316 0.000666468 -7.19999e-05
0.000666468 0.000454105 -2.22627e-06
-7.19999e-05 -2.22627e-06 7.30814e-05
-0.00131174 0.000122572 7.41764e-05
0.000122572 -0.00108892 5.6311e-05
7.41764e-05 5.6311e-05 -0.00317865
0.00694186 -0.000853181 -3.52899e-05
-0.000853181 0.00180783 6.40332e-05
-3.52899e-05 6.40332e-05 0.00185195
0.00204574 -0.000332 -9.6596e-06
-0.000332 -0.0020047 -2.31714e-05
-9.6596e-06 -2.31714e-05 -0.000735251
0.000930376 3.90494e-05 1.98531e-06
3.90494e-05 0.000161399 3.20288e-06
1.98531e-06 3.20288e-06 7.22438e-05
0.00110709 6.90114e-05 2.7447e-06
6.90114e-05 0.000252885 2.04314e-06
2.7447e-06 2.04314e-06 0.000182545
0.000528125 5.62601e-05 -8.91172e-07
5.62601e-05 -6.38104e-05 -8.66443e-06
-8.91172e-07 -8.66443e-06 -0.000112196
0.000623888 4.21953e-05 5.68835e-07
4.21953e-05 -3.55862e-05 3.0296e-08
5.68835e-07 3.0296e-08 -0.000101227
0.00086491 3.79274e-05 -8.54584e-07
3.79274e-05 0.000110593 -3.32953e-07
-8.54584e-07 -3.32953e-07 2.52156e-05
0.000860778 -1.88199e-05 -4.58235e-07
-1.88199e-05 9.41204e-05 8.01745e-07
-4.58235e-07 8.01745e-07 1.58162e-05
0.000857411 -1.73192e-05 -3.47957e-07
-1.73192e-05 9.13256e-05 2.29509e-07
-3.47957e-07 2.29509e-07 1.34257e-05
0.000784437 -4.58691e-06 -4.82231e-07
-4.58691e-06 4.62342e-05 2.85646e-06
-4.82231e-07 2.85646e-06 -2.43152e-05
0.000859834 3.16983e-05 2.19346e-07
3.16983e-05 0.000105823 -5.43989e-07
2.19346e-07 -5.43989e-07 2.08097e-05
0.000906985 -5.33469e-06 -9.75146e-08
-5.33469e-06 0.000110462 3.86068e-07
-9.75146e-08 3.86068e-07 3.54872e-05
0.000885993 -3.27628e-05 1.24726e-09
-3.27628e-05 0.00010747 3.42868e-07
1.24726e-09 3.42868e-07 2.26446e-05
0.000579581 1.1496e-05 1.61136e-07
1.1496e-05 -6.61083e-05 -5.64735e-07
1.61136e-07 -5.64735e-07 -0.000130748
0.000680279 -1.25478e-05 1.4133e-06
-1.25478e-05 1.22085e-05 -5.41459e-06
1.4133e-06 -5.41459e-06 -4.0727e-05
0.000909967 -2.46604e-05 -2.7932e-07
-2.46604e-05 0.000111213 -3.38494e-06
-2.7932e-07 -3.38494e-06 3.39773e-05
0.000929191 2.25553e-06 2.26873e-07
2.25553e-06 0.000141993 -1.09938e-06
2.26873e-07 -1.09938e-06 4.78529e-05
0.000866775 -3.97129e-05 -1.96222e-08
-3.97129e-05 0.000112224 -1.87033e-07
-1.96222e-08 -1.87033e-07 2.76482e-05
0.000889877 9.97668e-06 -5.33472e-07
9.97668e-06 0.00011089 8.18382e-07
-5.33472e-07 8.18382e-07 3.4809e-05
0.000855935 -1.66085e-05 3.74434e-07
-1.66085e-05 9.83472e-05 -3.21826e-07
3.74434e-07 -3.21826e-07 1.16345e-05
0.000806714 4.21043e-05 -1.09291e-07
4.21043e-05 7.45435e-05 -8.89305e-09
-1.09291e-07 -8.89305e-09 -3.20401e-06
0.000776424 3.98727e-06 -2.32269e-07
3.98727e-06 4.55319e-05 3.80077e-07
-2.32269e-07 3.80077e-07 -2.65391e-05
0.000744588 5.71382e-05 1.03855e-06
5.71382e-05 4.6839e-05 -3.1667e-07
1.03855e-06 -3.1667e-07 -3.12706e-05
0.000682121 2.17902e-05 5.8409e-08
2.17902e-05 7.63339e-07 -2.12006e-06
5.8409e-08 -2.12006e-06 -8.19125e-05
0.000757904 1.69687e-05 1.23361e-06
1.69687e-05 4.21459e-05 -1.35893e-06
1.23361e-06 -1.35893e-06 -2.82201e-05
0.000827184 2.33481e-05 2.85033e-06
2.33481e-05 8.66969e-05 -1.53329e-06
2.85033e-06 -1.53329e-06 -4.84483e-07
0.000400066 -3.13408e-05 6.63393e-07
-3.13408e-05 -0.000105466 1.0846e-07
6.63393e-07 1.0846e-07 -0.000232917
0.000458891 3.6631e-05 5.76665e-07
3.6631e-05 -9.33418e-05 3.78694e-08
5.76665e-07 3.78694e-08 -0.000184301
0.000771159 4.40745e-05 4.59858e-07
4.40745e-05 6.86182e-05 5.09118e-07
4.59858e-07 5.09118e-07 -1.3611e-05
0.00073059 4.16631e-05 3.97808e-07
4.16631e-05 3.81746e-05 2.6779e-07
3.97808e-07 2.6779e-07 -3.31227e-05
0.000773221 9.49423e-06 -1.28633e-07
9.49423e-06 6.18198e-05 -1.74177e-08
-1.28633e-07 -1.74177e-08 -1.06733e-05
0.000729834 2.4948e-05 -6.1659e-07
2.4948e-05 2.2336e-05 2.8647e-07
-6.1659e-07 2.8647e-07 -3.54837e-05
0.00079659 8.41794e-06 3.73255e-07
8.41794e-06 7.30924e-05 4.29561e-07
3.73255e-07 4.29561e-07 -9.96747e-07
0.000764572 -8.8697e-06 -1.83356e-07
-8.8697e-06 4.10354e-05 1.85975e-09
-1.83356e-07 1.85975e-09 -1.81755e-05
0.000722131 2.47739e-05 -9.70692e-07
2.47739e-05 3.06424e-06 1.56434e-06
-9.70692e-07 1.56434e-06 -3.58058e-05
0.00067714 -2.65823e-05 8.11733e-07
-2.65823e-05 -1.03106e-05 -2.62199e-07
8.11733e-07 -2.62199e-07 -7.08685e-05
0.000725941 1.34722e-05 -8.04052e-08
1.34722e-05 4.14664e-06 -5.21762e-09
-8.04052e-08 -5.21762e-09 -3.44301e-05
0.00134777 2.38863e-05 -4.91242e-06
2.38863e-05 0.00034658 4.73956e-06
-4.91242e-06 4.73956e-06 0.000341151
0.000717902 6.73579e-07 7.19875e-07
6.73579e-07 4.39305e-07 -1.42234e-06
7.19875e-07 -1.42234e-06 -3.80584e-05
0.00101646 1.56807e-05 -2.35284e-06
1.56807e-05 0.000156353 7.01479e-07
-2.35284e-06 7.01479e-07 0.000149766
0.000849096 1.28321e-05 -5.18508e-07
1.28321e-05 6.35082e-05 1.72632e-06
-5.18508e-07 1.72632e-06 7.56652e-05
0.000674478 7.68087e-06 2.73961e-07
7.68087e-06 -3.93147e-05 -3.36492e-06
2.73961e-07 -3.36492e-06 -4.71407e-05
0.00221089 9.95328e-06 2.79206e-06
9.95328e-06 0.00083174 2.78396e-08
2.79206e-06 2.78396e-08 0.000851015
0.00220853 9.72922e-07 4.4341e-07
9.72922e-07 0.000829653 -4.67319e-06
4.4341e-07 -4.67319e-06 0.000849128
0.00104857 5.2932e-05 -1.22847e-06
5.2932e-05 0.000211358 -8.69339e-07
-1.22847e-06 -8.69339e-07 0.000151113
0.000740256 3.11949e-06 -4.43492e-07
3.11949e-06 1.44278e-05 -1.85898e-06
-4.43492e-07 -1.85898e-06 -1.8789e-05
0.000749184 3.2722e-06 6.2904e-07
3.2722e-06 4.81252e-05 6.35944e-07
6.2904e-07 6.35944e-07 -1.36907e-05
0.000686841 -1.68533e-07 -1.56399e-07
-1.68533e-07 -3.38995e-05 -3.45539e-06
-1.56399e-07 -3.45539e-06 -3.77009e-05
0.000729721 9.76568e-07 2.54028e-07
9.76568e-07 8.98519e-06 -1.72726e-08
2.54028e-07 -1.72726e-08 -2.3428e-05
0.000727342 -1.12976e-06 -4.27059e-07
-1.12976e-06 8.11192e-06 1.78189e-06
-4.27059e-07 1.78189e-06 -2.48084e-05
0.000688731 6.46972e-06 -1.46405e-07
6.46972e-06 -3.21147e-05 2.1514e-10
-1.46405e-07 2.1514e-10 -3.6315e-05
0.00207579 8.96619e-06 4.04291e-06
8.96619e-06 0.000755605 -4.58077e-06
4.04291e-06 -4.58077e-06 0.000776408
0.00127876 1.73607e-05 -6.41618e-07
1.73607e-05 0.000303063 2.08435e-06
-6.41618e-07 2.08435e-06 0.000301048
0.00148334 1.6635e-05 2.16829e-06
1.6635e-05 0.000422912 6.77989e-08
2.16829e-06 6.77989e-08 0.00043959
0.000940788 1.9875e-05 -1.47932e-05
1.9875e-05 0.000120395 7.16117e-06
-1.47932e-05 7.16117e-06 0.000132593
-0.00623795 0.000136923 8.5586e-05
0.000136923 -0.00300757 -1.474e-06
8.5586e-05 -1.474e-06 -0.00329811
-0.00151316 0.000211152 5.40379e-05
0.000211152 -4.90482e-06 2.21451e-05
5.40379e-05 2.21451e-05 -0.000357824
0.00362659 4.57311e-05 -0.000150395
4.57311e-05 0.000724983 3.11257e-06
-0.000150395 3.11257e-06 0.000391501
0.00158335 3.81936e-06 3.06269e-05
3.81936e-06 -0.000103797 3.9553e-06
3.06269e-05 3.9553e-06 -0.000137424
0.00152682 -2.12166e-05 9.60961e-06
-2.12166e-05 -0.000187837 9.34741e-07
9.60961e-06 9.34741e-07 -0.000220611
0.00100231 1.09578e-05 2.32631e-05
1.09578e-05 -0.000442278 -1.30021e-06
2.32631e-05 -1.30021e-06 -0.000585804
0.00217501 -4.69793e-05 1.016e-06
-4.69793e-05 0.000170693 1.42635e-06
1.016e-06 1.42635e-06 0.000127771
0.00647818 0.000183737 -4.50662e-06
0.000183737 0.00154807 -1.98789e-05
-4.50662e-06 -1.98789e-05 0.000695816
-0.0033656 0.000362643 -2.73649e-05
0.000362643 -0.00128314 -1.19304e-06
-2.73649e-05 -1.19304e-06 -0.00162265
-0.00135749 0.000830389 -2.6077e-05
0.000830389 -0.0011589 9.84592e-06
-2.6077e-05 9.84592e-06 0.000299771
0.00191752 -0.000131671 5.96236e-05
-0.000131671 -3.42287e-05 1.14424e-05
5.96236e-05 1.14424e-05 -0.000295219
0.00723722 0.000185311 2.67813e-05
0.000185311 0.00223738 -7.50773e-06
2.67813e-05 -7.50773e-06 0.00101022
0.000108394 0.000674862 1.48753e-05
0.000674862 -0.000562251 -6.29263e-05
1.48753e-05 -6.29263e-05 1.25493e-05
0.00402938 0.000609128 -7.60754e-05
0.000609128 -5.01782e-05 5.76228e-05
-7.60754e-05 5.76228e-05 0.000853411
0.000762916 5.91251e-05 -7.08113e-07
5.91251e-05 7.39719e-05 -3.284e-07
-7.08113e-07 -3.284e-07 -2.43367e-05
0.000663529 7.78812e-06 -2.14668e-07
7.78812e-06 4.63571e-06 -5.03252e-07
-2.14668e-07 -5.03252e-07 -6.91788e-05
0.000758606 -6.48169e-05 -8.35084e-07
-6.48169e-05 5.45063e-05 1.15612e-06
-8.35084e-07 1.15612e-06 -7.38265e-06
0.000669104 -6.61986e-07 1.67739e-07
-6.61986e-07 1.5251e-05 7.40671e-07
1.67739e-07 7.40671e-07 -6.53398e-05
0.000778949 5.49152e-05 8.43514e-07
5.49152e-05 8.81808e-05 1.15755e-06
8.43514e-07 1.15755e-06 -5.37431e-06
0.000884098 5.54207e-05 -5.07466e-07
5.54207e-05 0.0001337 1.01666e-07
-5.07466e-07 1.01666e-07 3.93173e-05
0.000836696 6.91173e-05 1.52759e-06
6.91173e-05 0.000108326 1.33443e-06
1.52759e-06 1.33443e-06 1.77831e-05
0.000748462 -9.41609e-06 9.23898e-07
-9.41609e-06 4.88864e-05 -4.08377e-08
9.23898e-07 -4.08377e-08 -3.21532e-05
0.000740716 -2.03981e-05 4.05028e-07
-2.03981e-05 5.35779e-05 -7.40445e-07
4.05028e-07 -7.40445e-07 -2.77721e-05
0.00065043 -1.43923e-05 -2.6384e-08
-1.43923e-05 -2.89497e-06 1.04421e-06
-2.6384e-08 1.04421e-06 -7.68219e-05
0.000779181 -9.92967e-05 5.21697e-06
-9.92967e-05 -0.000576793 -4.15962e-06
5.21697e-06 -4.15962e-06 -0.000616825
0.00174914 -0.00025109 8.49377e-06
-0.00025109 -4.71885e-05 1.04419e-07
8.49377e-06 1.04419e-07 -8.64316e-05
0.00015136 -0.000223217 7.49242e-06
-0.000223217 -0.000686411 3.3948e-06
7.49242e-06 3.3948e-06 -0.000798463
0.00164752 -0.000278738 2.28656e-06
-0.000278738 0.000456294 3.82484e-07
2.28656e-06 3.82484e-07 0.000242348
0.00132711 -8.67765e-05 1.06381e-06
-8.67765e-05 0.000436969 -7.16225e-07
1.06381e-06 -7.16225e-07 0.000237858
0.00107981 -5.90203e-05 -5.0923e-07
-5.90203e-05 0.000263019 -1.09584e-07
-5.0923e-07 -1.09584e-07 0.000139935
0.000896925 -3.25546e-05 -8.10785e-07
-3.25546e-05 0.000145541 1.66575e-07
-8.10785e-07 1.66575e-07 4.77334e-05
0.000774602 3.97593e-05 -1.08184e-06
3.97593e-05 8.55835e-05 8.09614e-07
-1.08184e-06 8.09614e-07 -1.35859e-05
0.0017633 -0.00015211 -2.8447e-06
-0.00015211 9.08076e-05 1.5186e-06
-2.8447e-06 1.5186e-06 2.0619e-05
0.000680817 -3.54648e-05 -4.34537e-08
-3.54648e-05 3.13878e-05 9.41131e-08
-4.34537e-08 9.41131e-08 -7.51184e-05
0.000779562 -4.00755e-05 4.77081e-07
-4.00755e-05 8.90548e-05 -4.11585e-07
4.77081e-07 -4.11585e-07 -2.19003e-05
0.00191151 -0.000307311 4.35952e-06
-0.000307311 9.46258e-05 -2.21927e-06
4.35952e-06 -2.21927e-06 8.83531e-05
0.000259423 -0.000247083 1.56692e-06
-0.000247083 -0.000437412 1.3636e-06
1.56692e-06 1.3636e-06 -0.000578349
0.00109648 -0.000171522 3.35458e-06
-0.000171522 0.000228381 -1.73313e-06
3.35458e-06 -1.73313e-06 1.40707e-05
0.00104119 -4.93349e-05 -5.12226e-07
-4.93349e-05 0.0002634 -8.00622e-07
-5.12226e-07 -8.00622e-07 0.000105291
0.00133586 -0.000222263 -6.71662e-07
-0.000222263 0.000176812 -4.75352e-06
-6.71662e-07 -4.75352e-06 -4.67266e-05
0.00159955 -0.000262005 -1.88139e-05
-0.000262005 0.000266858 3.54098e-06
-1.88139e-05 3.54098e-06 0.00020428
0.000313881 -4.25486e-05 -1.29658e-05
-4.25486e-05 -0.000103651 1.63024e-05
-1.29658e-05 1.63024e-05 -0.000298872
0.000737475 3.34338e-05 5.25069e-07
3.34338e-05 5.54141e-05 8.57099e-07
5.25069e-07 8.57099e-07 -4.76805e-05
0.000620339 -8.11966e-05 8.81236e-07
-8.11966e-05 -2.21417e-06 6.64001e-08
8.81236e-07 6.64001e-08 -0.000115104
0.000857244 -3.07084e-05 6.88381e-07
-3.07084e-05 0.000122157 1.49509e-06
6.88381e-07 1.49509e-06 8.81948e-06
0.000847751 2.89908e-05 -9.77656e-05
2.89908e-05 0.00176285 -1.472e-06
-9.77656e-05 -1.472e-06 0.00118167
0.0019637 -0.000128392 1.40209e-05
-0.000128392 0.0013226 7.83897e-06
1.40209e-05 7.83897e-06 0.00116801
-3.50375e-07 0.000307805 -5.8951e-05
0.000307805 -0.0020341 2.20936e-05
-5.8951e-05 2.20936e-05 -0.00260999
0.000803792 0.000107747 4.26255e-06
0.000107747 0.000129572 2.397e-06
4.26255e-06 2.397e-06 1.78448e-05
0.000695348 0.000140082 7.83893e-06
0.000140082 8.58428e-05 3.75046e-06
7.83893e-06 3.75046e-06 -8.99133e-05
0.0025669 0.000255802 1.32521e-05
0.000255802 0.000453195 4.93898e-06
1.32521e-05 4.93898e-06 0.000496971
0.000563274 0.000200317 1.31982e-05
0.000200317 -0.00016634 6.19605e-06
1.31982e-05 6.19605e-06 -0.000393473
0.00450922 -0.000359825 4.15862e-05
-0.000359825 0.00192132 2.06943e-05
4.15862e-05 2.06943e-05 0.00198273
-0.000819793 -0.000106544 -4.39206e-05
-0.000106544 -0.00180179 2.705e-06
-4.39206e-05 2.705e-06 -0.00310253
0.0033339 0.000591454 -7.94846e-05
0.000591454 -0.000122324 -3.69544e-05
-7.94846e-05 -3.69544e-05 -0.000960428
0.000537865 0.000116624 2.71456e-05
0.000116624 -0.000221393 -1.68214e-05
2.71456e-05 -1.68214e-05 -0.000184843
-0.00377071 -0.000413271 -1.23293e-06
-0.000413271 -0.0015902 -1.53629e-05
-1.23293e-06 -1.53629e-05 -0.00166968
0.000656402 -0.000372853 1.63939e-05
-0.000372853 0.000561869 2.35613e-05
1.63939e-05 2.35613e-05 0.000197847
0.00513007 -0.000708076 8.68287e-05
-0.000708076 0.000153063 7.17165e-05
8.68287e-05 7.17165e-05 0.001533
0.000788662 7.85049e-05 2.31479e-06
7.85049e-05 0.000149765 -1.8006e-06
2.31479e-06 -1.8006e-06 4.82782e-05
-0.000482219 -0.000111981 -3.47937e-05
-0.000111981 0.000781005 -1.19165e-05
-3.47937e-05 -1.19165e-05 8.60832e-05
0.00232092 3.50716e-05 -3.34337e-06
3.50716e-05 0.000577318 -2.15622e-05
-3.34337e-06 -2.15622e-05 -0.000355234
0.000726744 0.000200571 -7.79867e-06
0.000200571 -0.000105276 3.13847e-06
-7.79867e-06 3.13847e-06 -0.000153593
0.000710852 0.000153807 -2.97961e-07
0.000153807 0.00017441 1.12108e-06
-2.97961e-07 1.12108e-06 -1.79685e-05
0.000353295 0.000162617 3.27022e-05
0.000162617 -0.000114342 -2.11035e-05
3.27022e-05 -2.11035e-05 -0.000239186
0.00553652 0.000855447 -1.90322e-05
0.000855447 0.00147944 3.72861e-07
-1.90322e-05 3.72861e-07 0.000737177
0.00902257 -0.000128247 4.20556e-05
-0.000128247 0.00346556 1.13214e-05
4.20556e-05 1.13214e-05 0.00187164
0.00188298 -0.000538737 2.29441e-06
-0.000538737 -0.00102204 -9.40402e-06
2.29441e-06 -9.40402e-06 -0.00077959
0.00602123 -0.000449336 5.59069e-06
-0.000449336 0.000600261 -1.12412e-05
5.59069e-06 -1.12412e-05 0.00178773
0.000604947 0.000100098 -1.25975e-05
0.000100098 0.000100517 -1.01392e-05
-1.25975e-05 -1.01392e-05 2.558e-05
0.00186755 -4.6348e-05 -6.7856e-05
-4.6348e-05 0.000321689 -3.00287e-05
-6.7856e-05 -3.00287e-05 -0.000307264
0.00125833 2.6385e-05 -1.59356e-05
2.6385e-05 0.000228078 -5.38776e-05
-1.59356e-05 -5.38776e-05 -0.000553848
-0.000954208 -3.49965e-06 -2.43943e-05
-3.49965e-06 -0.000524922 -1.54248e-05
-2.43943e-05 -1.54248e-05 -0.000642399
0.00247427 0.000335336 3.17293e-07
0.000335336 0.000577634 5.57654e-05
3.17293e-07 5.57654e-05 7.50487e-05
0.00834394 9.06896e-05 2.14669e-05
9.06896e-05 0.00313357 4.70084e-06
2.14669e-05 4.70084e-06 0.0011983
-0.0063599 -0.000547651 -5.37253e-05
-0.000547651 -0.00409875 1.92816e-05
-5.37253e-05 1.92816e-05 -0.00503606
0.00502251 0.000129436 -2.23075e-06
0.000129436 -0.000480812 -7.83283e-05
-2.23075e-06 -7.83283e-05 0.0009192
0.00101456 6.46515e-05 2.58578e-06
6.46515e-05 0.000200868 5.98663e-06
2.58578e-06 5.98663e-06 0.000129496
0.00090165 7.97509e-05 -3.63108e-06
7.97509e-05 0.000144139 -7.02971e-07
-3.63108e-06 -7.02971e-07 9.42698e-05
0.00104806 6.63078e-05 -2.75655e-06
6.63078e-05 0.000249044 -5.92446e-06
-2.75655e-06 -5.92446e-06 0.000209785
0.0008697 6.77762e-05 -1.52014e-06
6.77762e-05 0.000104567 -4.56272e-07
-1.52014e-06 -4.56272e-07 2.39371e-05
0.000916692 -3.06729e-05 -2.85971e-07
-3.06729e-05 0.000130474 1.38695e-06
-2.85971e-07 1.38695e-06 4.16425e-05
0.000929204 3.8523e-06 -5.28776e-07
3.8523e-06 0.000123384 1.8047e-06
-5.28776e-07 1.8047e-06 4.79564e-05
0.000490007 6.02303e-07 -3.1967e-07
6.02303e-07 -0.000109341 4.07341e-06
-3.1967e-07 4.07341e-06 -0.000172088
0.00088567 6.95085e-06 5.54619e-07
6.95085e-06 0.000107965 3.67259e-08
5.54619e-07 3.67259e-08 2.1125e-05
0.00086965 -7.57612e-06 -2.12099e-07
-7.57612e-06 9.01796e-05 -2.13151e-07
-2.12099e-07 -2.13151e-07 1.24161e-05
0.000591374 -1.09751e-05 1.40475e-07
-1.09751e-05 -3.29299e-05 1.07185e-06
1.40475e-07 1.07185e-06 -8.59286e-05
0.000524035 -1.98727e-05 -6.38708e-07
-1.98727e-05 -1.06279e-05 -4.83231e-06
-6.38708e-07 -4.83231e-06 -4.5988e-05
0.000987322 -2.47104e-05 3.29543e-06
-2.47104e-05 0.000172843 -6.39581e-06
3.29543e-06 -6.39581e-06 0.000112968
0.000825236 3.47436e-05 5.1897e-07
3.47436e-05 7.45015e-05 -2.36072e-06
5.1897e-07 -2.36072e-06 -1.10686e-05
0.000874267 -5.2296e-05 8.48373e-07
-5.2296e-05 0.000101519 6.92073e-07
8.48373e-07 6.92073e-07 1.90365e-05
0.000789682 4.5691e-05 -4.53636e-07
4.5691e-05 6.36544e-05 6.39796e-07
-4.53636e-07 6.39796e-07 -1.33807e-05
0.000839817 -2.84968e-06 -9.94694e-07
-2.84968e-06 8.13067e-05 1.80187e-06
-9.94694e-07 1.80187e-06 9.57212e-06
0.000736981 1.49076e-05 3.33173e-07
1.49076e-05 2.60286e-05 3.31414e-07
3.33173e-07 3.31414e-07 -5.28289e-05
0.000774294 5.19893e-05 2.65361e-07
5.19893e-05 6.31431e-05 2.29976e-07
2.65361e-07 2.29976e-07 -1.51871e-05
0.000828837 3.08596e-05 -3.13e-07
3.08596e-05 8.16023e-05 1.53428e-07
-3.13e-07 1.53428e-07 1.04419e-05
0.000886094 3.9257e-05 1.83224e-06
3.9257e-05 0.000116824 -1.33698e-06
1.83224e-06 -1.33698e-06 4.14307e-05
0.00067489 1.21955e-05 1.87529e-06
1.21955e-05 7.83539e-06 -2.52659e-06
1.87529e-06 -2.52659e-06 -5.73321e-05
0.00067464 -6.35777e-05 1.69514e-06
-6.35777e-05 1.9318e-06 -6.37781e-07
1.69514e-06 -6.37781e-07 -8.84409e-05
0.000900075 6.93177e-06 -9.52615e-07
6.93177e-06 0.000130094 -2.07746e-07
-9.52615e-07 -2.07746e-07 4.1305e-05
0.000616385 -4.48643e-05 2.16017e-06
-4.48643e-05 6.62883e-06 1.52973e-06
2.16017e-06 1.52973e-06 -0.000110956
0.000994358 -0.000151372 -8.60782e-07
-0.000151372 0.000194732 3.60704e-06
-8.60782e-07 3.60704e-06 3.2802e-05
0.00114958 -4.04382e-05 1.34342e-06
-4.04382e-05 0.000293505 -6.47166e-07
1.34342e-06 -6.47166e-07 0.000187872
0.000550456 -4.91198e-05 -4.27213e-07
-4.91198e-05 -1.69145e-05 -2.7296e-06
-4.27213e-07 -2.7296e-06 -0.000142812
0.000735444 3.51921e-05 -5.96232e-07
3.51921e-05 5.68181e-05 -5.94895e-07
-5.96232e-07 -5.94895e-07 -3.21404e-05
0.000511917 3.59248e-05 1.03827e-06
3.59248e-05 -7.71926e-05 6.32782e-07
1.03827e-06 6.32782e-07 -0.000155342
0.000832743 3.06805e-05 -6.25212e-07
3.06805e-05 0.00010107 2.59155e-07
-6.25212e-07 2.59155e-07 1.94586e-05
0.000785384 8.1412e-06 -4.15062e-07
8.1412e-06 7.05798e-05 3.62806e-07
-4.15062e-07 3.62806e-07 -2.89973e-06
0.000725983 3.07883e-05 -7.10742e-07
3.07883e-05 2.14737e-05 3.83126e-07
-7.10742e-07 3.83126e-07 -3.63387e-05
0.000815238 -1.83284e-05 3.94926e-07
-1.83284e-05 9.09305e-05 2.39604e-07
3.94926e-07 2.39604e-07 1.39616e-05
0.000761075 -7.92699e-06 -3.84569e-07
-7.92699e-06 4.12156e-05 4.39814e-08
-3.84569e-07 4.39814e-08 -1.79814e-05
0.000719946 3.11329e-05 -1.25867e-06
3.11329e-05 4.70739e-06 1.54069e-06
-1.25867e-06 1.54069e-06 -3.46803e-05
0.000793936 -3.48394e-05 1.19097e-06
-3.48394e-05 5.96306e-05 -3.12361e-07
1.19097e-06 -3.12361e-07 -1.19026e-06
0.000733069 1.82691e-05 -1.77619e-07
1.82691e-05 8.44695e-06 -1.57122e-09
-1.77619e-07 -1.57122e-09 -3.01253e-05
0.00133735 3.20523e-05 -6.8428e-06
3.20523e-05 0.000344512 4.69098e-06
-6.8428e-06 4.69098e-06 0.00033845
0.000726649 5.88448e-06 1.15216e-06
5.88448e-06 4.0597e-06 -1.44321e-06
1.15216e-06 -1.44321e-06 -3.43005e-05
0.00101045 2.29868e-05 -3.17413e-06
2.29868e-05 0.000155926 6.68649e-07
-3.17413e-06 6.68649e-07 0.000148854
0.000847781 1.97827e-05 -9.93205e-07
1.97827e-05 6.71317e-05 1.73314e-06
-9.93205e-07 1.73314e-06 7.84564e-05
0.000665079 1.39769e-05 4.1543e-07
1.39769e-05 -4.27121e-05 -3.38501e-06
4.1543e-07 -3.38501e-06 -5.08943e-05
0.00153193 1.77124e-05 4.99502e-06
1.77124e-05 0.000449674 -1.37825e-06
4.99502e-06 -1.37825e-06 0.000465137
0.00222163 1.15486e-05 4.78549e-06
1.15486e-05 0.000838185 -4.60168e-06
4.78549e-06 -4.60168e-06 0.000857324
0.00082002 -1.57305e-05 5.82603e-07
-1.57305e-05 7.80252e-05 -7.40156e-07
5.82603e-07 -7.40156e-07 1.6737e-05
0.000745518 -2.58474e-06 -2.25698e-07
-2.58474e-06 1.71867e-05 -1.87895e-06
-2.25698e-07 -1.87895e-06 -1.73336e-05
0.000809938 -2.65641e-06 4.59515e-07
-2.65641e-06 7.70809e-05 1.44573e-07
4.59515e-07 1.44573e-07 1.66457e-05
0.000688994 -6.53219e-06 -3.02761e-07
-6.53219e-06 -3.2279e-05 -3.47187e-06
-3.02761e-07 -3.47187e-06 -3.646e-05
0.000732328 -1.66054e-07 -2.26289e-09
-1.66054e-07 1.00355e-05 -2.43168e-08
-2.26289e-09 -2.43168e-08 -2.30893e-05
0.000745595 -5.04925e-05 -1.95266e-06
-5.04925e-05 4.17583e-05 1.67172e-06
-1.95266e-06 1.67172e-06 -1.68476e-05
0.00207406 -1.07779e-06 -2.95089e-07
-1.07779e-06 0.000754017 -4.59221e-06
-2.95089e-07 -4.59221e-06 0.00077501
0.000689226 7.59299e-08 -1.06638e-07
7.59299e-08 -3.25816e-05 -2.14231e-09
-1.06638e-07 -2.14231e-09 -3.63802e-05
0.000722835 -4.51417e-06 -1.31652e-07
-4.51417e-06 5.02448e-06 1.76567e-06
-1.31652e-07 1.76567e-06 -2.73404e-05
0.000691467 6.71552e-06 -2.3838e-08
6.71552e-06 -3.06693e-05 3.44852e-06
-2.3838e-08 3.44852e-06 -3.48918e-05
0.00207998 9.87301e-06 -2.8769e-06
9.87301e-06 0.000758171 -2.76536e-08
-2.8769e-06 -2.76536e-08 0.000778905
0.00210425 1.93457e-05 -1.11279e-05
1.93457e-05 0.000774049 4.44284e-06
-1.11279e-05 4.44284e-06 0.00079409
-0.00206749 1.06437e-05 -4.31731e-05
1.06437e-05 8.94319e-05 9.7336e-06
-4.31731e-05 9.7336e-06 -0.000706427
-0.00109742 0.000284614 -1.27917e-05
0.000284614 -0.000427981 5.40893e-06
-1.27917e-05 5.40893e-06 -0.000649775
0.00246105 -1.37842e-05 -9.94322e-05
-1.37842e-05 0.000404805 7.85923e-05
-9.94322e-05 7.85923e-05 -0.000417619
-0.00203636 0.000243427 0.000103695
0.000243427 -3.0266e-05 -4.39243e-05
0.000103695 -4.39243e-05 -0.000284057
0.00275835 0.000125132 -9.85056e-05
0.000125132 0.000332725 1.58728e-05
-9.85056e-05 1.58728e-05 5.75472e-05
0.00195035 -6.88716e-05 6.46252e-05
-6.88716e-05 5.09191e-05 -1.04826e-05
6.46252e-05 -1.04826e-05 2.65539e-06
0.00179213 -0.000334616 -9.12239e-05
-0.000334616 -0.000812512 -3.90301e-05
-9.12239e-05 -3.90301e-05 -0.00157155
0.00756152 0.000504509 2.63024e-05
0.000504509 0.00375241 -1.70406e-05
2.63024e-05 -1.70406e-05 0.00366985
-0.0049732 0.000902855 -0.000106277
0.000902855 -0.00336926 0.000108135
-0.000106277 0.000108135 -0.0014378
0.00166876 -1.65736e-05 -5.29796e-06
-1.65736e-05 -0.000298734 -5.58658e-06
-5.29796e-06 -5.58658e-06 -0.000542908
0.0032986 7.21725e-05 1.98814e-05
7.21725e-05 0.000376061 -2.65324e-05
1.98814e-05 -2.65324e-05 -0.00132224
0.00651478 0.000963282 -2.22067e-05
0.000963282 0.00214041 -2.7403e-05
-2.22067e-05 -2.7403e-05 0.00270952
0.00175772 0.000586595 -2.24844e-05
0.000586595 -0.00139874 4.8336e-05
-2.24844e-05 4.8336e-05 -0.000419369
0.00299654 -0.000278384 -3.9645e-05
-0.000278384 0.000213703 1.31683e-05
-3.9645e-05 1.31683e-05 -0.000233048
0.00357203 -8.26109e-05 0.000105328
-8.26109e-05 0.00111316 -7.11485e-05
0.000105328 -7.11485e-05 -0.00104752
-0.00533149 0.000293157 -6.58656e-05
0.000293157 -0.00437499 -8.3688e-05
-6.58656e-05 -8.3688e-05 -0.00408003
0.00136854 0.000364809 -2.43055e-05
0.000364809 -0.00266272 1.55709e-05
-2.43055e-05 1.55709e-05 -0.0014216
0.000843945 -1.65392e-05 1.0143e-06
-1.65392e-05 0.000116033 2.89517e-07
1.0143e-06 2.89517e-07 1.33617e-05
0.000824331 4.74295e-05 -1.70676e-06
4.74295e-05 0.00010755 -5.50816e-07
-1.70676e-06 -5.50816e-07 1.16666e-05
0.000780899 3.00106e-05 5.58731e-07
3.00106e-05 7.07365e-05 -5.82321e-08
5.58731e-07 -5.82321e-08 -2.17682e-06
0.000804971 6.16436e-05 1.94468e-06
6.16436e-05 0.000103409 1.67965e-06
1.94468e-06 1.67965e-06 1.06306e-05
0.000749547 2.34225e-05 -2.56173e-07
2.34225e-05 5.79893e-05 5.40448e-07
-2.56173e-07 5.40448e-07 -4.38907e-05
0.000905783 5.75012e-05 2.37304e-07
5.75012e-05 0.000147458 6.64521e-07
2.37304e-07 6.64521e-07 5.27665e-05
0.000772617 1.08928e-05 -2.04734e-07
1.08928e-05 6.92856e-05 1.91472e-06
-2.04734e-07 1.91472e-06 -1.86334e-05
0.000901218 8.51952e-05 -4.25201e-07
8.51952e-05 0.000146437 3.35827e-07
-4.25201e-07 3.35827e-07 5.31638e-05
0.000874081 4.3552e-05 -2.01826e-07
4.3552e-05 0.000130925 3.82878e-07
-2.01826e-07 3.82878e-07 4.19154e-05
0.000678035 -1.18938e-05 -1.11849e-06
-1.18938e-05 2.11282e-05 1.61019e-08
-1.11849e-06 1.61019e-08 -6.30478e-05
0.000151281 -0.00011928 1.75023e-05
-0.00011928 -0.000776114 -1.1351e-05
1.75023e-05 -1.1351e-05 -0.000815572
0.00106165 -0.000278583 1.51146e-05
-0.000278583 -0.000336196 -5.76145e-07
1.51146e-05 -5.76145e-07 -0.000357511
0.00091825 -0.000284709 1.03785e-05
-0.000284709 -7.50638e-05 9.01139e-07
1.03785e-05 9.01139e-07 -0.000216249
0.00121345 -0.00017605 7.19178e-06
-0.00017605 0.000282311 -5.84722e-06
7.19178e-06 -5.84722e-06 6.58483e-05
0.00120549 -5.57256e-05 7.43111e-07
-5.57256e-05 0.000356551 -4.84277e-07
7.43111e-07 -4.84277e-07 0.000189961
0.000729965 -4.96155e-05 -6.60589e-07
-4.96155e-05 6.567e-05 -3.12157e-07
-6.60589e-07 -3.12157e-07 -5.00493e-05
0.000760416 5.83452e-05 -3.25165e-08
5.83452e-05 7.77376e-05 -1.22723e-07
-3.25165e-08 -1.22723e-07 -3.18444e-05
0.000776707 -3.72887e-05 -1.38685e-07
-3.72887e-05 8.21939e-05 6.2231e-07
-1.38685e-07 6.2231e-07 -2.33667e-05
0.00120361 -0.000185766 9.48099e-07
-0.000185766 7.79629e-05 -3.52435e-07
9.48099e-07 -3.52435e-07 -6.9833e-05
0.000842768 4.59883e-06 -4.97693e-07
4.59883e-06 0.000125573 -4.26233e-07
-4.97693e-07 -4.26233e-07 8.53071e-06
0.0010347 -4.7941e-05 2.14472e-07
-4.7941e-05 0.000227052 7.13301e-08
2.14472e-07 7.13301e-08 0.000105668
0.00133451 -0.000248543 -1.62807e-06
-0.000248543 0.00011275 -1.97815e-07
-1.62807e-06 -1.97815e-07 6.57284e-05
0.000977106 -6.79277e-05 -5.80333e-06
-6.79277e-05 0.000222353 2.76308e-06
-5.80333e-06 2.76308e-06 3.80739e-05
-0.000726339 -0.000213978 -3.78642e-06
-0.000213978 -0.000971432 -1.25968e-05
-3.78642e-06 -1.25968e-05 -0.00098587
0.00110957 -9.95664e-05 -1.52906e-05
-9.95664e-05 0.000338412 1.34391e-05
-1.52906e-05 1.34391e-05 0.000229394
0.000294983 9.25685e-06 -2.16358e-06
9.25685e-06 -0.000188067 1.23077e-05
-2.16358e-06 1.23077e-05 -0.000299896
0.000811167 -2.04826e-06 3.09615e-07
-2.04826e-06 8.51409e-05 2.39276e-07
3.09615e-07 2.39276e-07 -1.66359e-05
0.000751171 1.85302e-05 -2.62325e-07
1.85302e-05 6.29964e-05 9.54163e-07
-2.62325e-07 9.54163e-07 -6.0323e-05
0.00132177 -6.30053e-06 -3.21772e-05
-6.30053e-06 0.000115787 -4.46066e-06
-3.21772e-05 -4.46066e-06 -0.000398447
-0.000671153 -9.20412e-07 -4.98981e-05
-9.20412e-07 0.00102123 -1.62459e-06
-4.98981e-05 -1.62459e-06 0.000290148
-0.00668806 -0.000152355 -0.000147727
-0.000152355 -0.00335649 2.6649e-06
-0.000147727 2.6649e-06 -0.00336249
0.00046505 8.50765e-05 8.1997e-06
8.50765e-05 -1.44288e-05 2.12349e-06
8.1997e-06 2.12349e-06 -0.000123726
-0.000344767 3.601e-05 8.39082e-06
3.601e-05 -0.000363984 3.28916e-06
8.39082e-06 3.28916e-06 -0.00056469
0.00127892 0.000166039 1.76156e-05
0.000166039 0.000210025 -3.18765e-07
1.76156e-05 -3.18765e-07 0.000139652
-0.00194854 3.41389e-06 1.04387e-05
3.41389e-06 9.28981e-05 8.04391e-06
1.04387e-05 8.04391e-06 -0.000735314
0.00275459 -5.65572e-05 -3.34924e-05
-5.65572e-05 0.00079431 -3.19125e-05
-3.34924e-05 -3.19125e-05 -0.00141716
0.00382331 0.000714186 5.4302e-05
0.000714186 0.000396565 -7.53657e-06
5.4302e-05 -7.53657e-06 -0.000141495
0.000628261 0.00018288 8.91953e-06
0.00018288 4.49888e-05 -5.38484e-06
8.91953e-06 -5.38484e-06 3.52844e-05
0.00749452 -0.000726836 2.84484e-05
-0.000726836 0.0022087 -6.60503e-06
2.84484e-05 -6.60503e-06 0.00225884
0.00258026 3.19114e-05 6.70068e-05
3.19114e-05 0.000769931 5.01431e-05
6.70068e-05 5.01431e-05 -0.000194431
0.0057719 -0.000398069 2.65677e-05
-0.000398069 0.000739481 1.30096e-05
2.65677e-05 1.30096e-05 0.00196612
0.000852797 0.000116172 -1.12426e-06
0.000116172 0.000248492 -2.30203e-06
-1.12426e-06 -2.30203e-06 0.000169713
0.00188315 -3.99005e-05 4.51782e-06
-3.99005e-05 0.000425584 -7.91668e-06
4.51782e-06 -7.91668e-06 -0.000140724
0.00150194 3.68965e-05 4.9207e-06
3.68965e-05 0.000230097 9.47967e-06
4.9207e-06 9.47967e-06 -0.00056719
0.000118601 0.000113113 -5.28009e-06
0.000113113 2.38693e-05 -5.06587e-07
-5.28009e-06 -5.06587e-07 -0.00011369
0.00278589 0.000434538 -3.8296e-05
0.000434538 0.000535896 -3.28548e-05
-3.8296e-05 -3.28548e-05 9.82109e-05
0.0029816 0.000541191 4.47299e-05
0.000541191 0.000510563 2.82436e-05
4.47299e-05 2.82436e-05 -0.00170505
0.00380688 4.81235e-05 -2.85094e-06
4.81235e-05 -0.00161712 -4.30224e-05
-2.85094e-06 -4.30224e-05 8.09457e-05
0.000718828 -0.000311364 -1.48001e-05
-0.000311364 -0.000500103 6.10868e-06
-1.48001e-05 6.10868e-06 -0.000924672
0.000792895 5.46209e-05 -2.60719e-06
5.46209e-05 0.000309024 -1.02686e-05
-2.60719e-06 -1.02686e-05 0.00024294
0.00118918 -3.61189e-05 -1.4254e-05
-3.61189e-05 0.00012747 -2.17135e-05
-1.4254e-05 -2.17135e-05 -0.000112017
0.0018515 5.44074e-06 9.00479e-06
5.44074e-06 0.000113552 -5.04088e-05
9.00479e-06 -5.04088e-05 -0.000596103
0.00145222 0.000362385 2.18119e-05
0.000362385 -0.00256972 -1.87043e-05
2.18119e-05 -1.87043e-05 -0.00141891
-0.0013187 2.46287e-05 1.9396e-06
2.46287e-05 -0.000554393 -9.74752e-06
1.9396e-06 -9.74752e-06 -0.000871814
0.0100557 0.000393545 9.20498e-05
0.000393545 0.00411713 4.14097e-05
9.20498e-05 4.14097e-05 0.00190695
-0.00606599 -0.000149953 3.3211e-05
-0.000149953 -0.00104234 2.97885e-05
3.3211e-05 2.97885e-05 -0.00194253
0.00139892 0.000120317 1.17393e-05
0.000120317 0.000418002 8.61406e-06
1.17393e-05 8.61406e-06 0.000365324
0.00092457 8.20453e-05 -3.11858e-06
8.20453e-05 0.000183813 1.15157e-06
-3.11858e-06 1.15157e-06 0.000140357
0.000543024 4.97011e-05 -8.29606e-06
4.97011e-05 7.30994e-05 -7.18073e-06
-8.29606e-06 -7.18073e-06 2.53263e-05
0.000850597 0.000100216 1.2724e-07
0.000100216 9.45856e-05 1.13794e-06
1.2724e-07 1.13794e-06 4.3133e-06
0.000828373 1.96509e-05 -2.85309e-07
1.96509e-05 6.5256e-05 2.30006e-06
-2.85309e-07 2.30006e-06 -1.07825e-05
0.000537241 -2.1628e-05 -1.97358e-06
-2.1628e-05 -5.85142e-05 9.86786e-06
-1.97358e-06 9.86786e-06 -0.000111358
0.000790727 3.85501e-05 -1.51037e-07
3.85501e-05 5.37251e-05 -1.7645e-07
-1.51037e-07 -1.7645e-07 -2.94753e-05
0.000838221 -3.4191e-05 3.83398e-07
-3.4191e-05 9.38302e-05 -1.17893e-06
3.83398e-07 -1.17893e-06 3.1968e-05
0.000601176 -3.7723e-05 3.14804e-06
-3.7723e-05 2.57528e-05 3.33657e-06
3.14804e-06 3.33657e-06 -1.46847e-05
0.000448093 -5.53972e-06 -4.39447e-07
-5.53972e-06 -2.95654e-05 -7.29205e-06
-4.39447e-07 -7.29205e-06 -6.04646e-05
0.000812986 -2.29127e-06 -4.57618e-07
-2.29127e-06 8.6657e-05 -4.64996e-06
-4.57618e-07 -4.64996e-06 2.2735e-05
0.000790309 1.0745e-05 -3.50527e-07
1.0745e-05 4.94875e-05 2.1733e-06
-3.50527e-07 2.1733e-06 -2.49288e-05
0.000801614 5.07259e-05 -4.33526e-07
5.07259e-05 7.86303e-05 5.896e-07
-4.33526e-07 5.896e-07 -1.12454e-07
0.000899795 3.80644e-05 -2.1026e-06
3.80644e-05 0.000120566 2.33377e-06
-2.1026e-06 2.33377e-06 4.8826e-05
0.000790636 1.31979e-05 5.73314e-07
1.31979e-05 6.82044e-05 3.57305e-08
5.73314e-07 3.57305e-08 2.61068e-06
0.000835744 3.93721e-05 6.37906e-07
3.93721e-05 8.89042e-05 1.72449e-07
6.37906e-07 1.72449e-07 1.38571e-05
0.000700649 -3.5681e-05 2.10344e-06
-3.5681e-05 5.56614e-05 -3.26013e-09
2.10344e-06 -3.26013e-09 -2.45003e-05
0.000663524 -3.88277e-05 -8.71845e-07
-3.88277e-05 7.71363e-06 -9.93652e-07
-8.71845e-07 -9.93652e-07 -7.56998e-05
0.000499685 -7.92852e-05 4.09991e-06
-7.92852e-05 -6.34392e-05 6.64989e-07
4.09991e-06 6.64989e-07 -0.000206097
0.000987966 -1.00793e-05 -1.84834e-06
-1.00793e-05 0.000180715 3.92642e-07
-1.84834e-06 3.92642e-07 9.06843e-05
0.00101019 -7.43093e-05 -9.57264e-07
-7.43093e-05 0.000214663 1.07602e-06
-9.57264e-07 1.07602e-06 9.30975e-05
0.000414086 -0.000119152 2.93742e-07
-0.000119152 -0.000137141 2.14123e-06
2.93742e-07 2.14123e-06 -0.00030135
0.000684471 -0.000129073 -3.6893e-06
-0.000129073 1.5005e-05 -2.97975e-07
-3.6893e-06 -2.97975e-07 -0.000147828
0.00096677 -0.000113102 -1.08206e-06
-0.000113102 0.000202822 2.17304e-06
-1.08206e-06 2.17304e-06 7.6009e-05
0.000754101 -0.000131917 1.03711e-07
-0.000131917 6.43231e-05 6.95342e-07
1.03711e-07 6.95342e-07 -9.35421e-05
0.000846397 -1.15704e-05 8.43487e-07
-1.15704e-05 0.000111582 7.74512e-07
8.43487e-07 7.74512e-07 2.30831e-05
0.000963205 -3.56655e-05 -6.29519e-07
-3.56655e-05 0.000193052 -6.75524e-07
-6.29519e-07 -6.75524e-07 8.47693e-05
0.00067647 -6.36902e-05 4.72111e-07
-6.36902e-05 5.74999e-05 -4.88744e-06
4.72111e-07 -4.88744e-06 -6.63297e-05
0.00101493 3.504e-05 -1.93487e-06
3.504e-05 0.000208733 -1.14957e-06
-1.93487e-06 -1.14957e-06 0.000121707
0.000653186 2.65329e-05 1.42131e-07
2.65329e-05 1.37158e-06 -2.43221e-08
1.42131e-07 -2.43221e-08 -7.63841e-05
0.000721387 4.54611e-05 -6.02109e-08
4.54611e-05 2.44332e-05 6.07125e-07
-6.02109e-08 6.07125e-07 -3.7786e-05
0.000826913 -1.39733e-05 -2.04331e-07
-1.39733e-05 9.67642e-05 2.7122e-07
-2.04331e-07 2.7122e-07 2.05149e-05
0.000759021 4.11778e-06 -6.52328e-07
4.11778e-06 4.13275e-05 -6.91827e-08
-6.52328e-07 -6.91827e-08 -1.80594e-05
0.000720241 3.50353e-05 -1.47365e-06
3.50353e-05 9.04008e-06 1.49601e-06
-1.47365e-06 1.49601e-06 -3.10958e-05
0.000787662 -3.06724e-05 1.24655e-06
-3.06724e-05 5.75454e-05 -3.52322e-07
1.24655e-06 -3.52322e-07 -3.12771e-06
0.000727835 2.71356e-05 -1.8539e-07
2.71356e-05 8.19582e-06 4.48713e-09
-1.8539e-07 4.48713e-09 -3.0879e-05
0.00130423 4.02902e-05 -7.77745e-06
4.02902e-05 0.000331826 3.22501e-06
-7.77745e-06 3.22501e-06 0.000324806
0.000732768 1.25582e-05 1.40587e-06
1.25582e-05 7.55151e-06 -1.50214e-06
1.40587e-06 -1.50214e-06 -3.07423e-05
0.00100275 3.04204e-05 -3.92905e-06
3.04204e-05 0.000155699 6.15354e-07
-3.92905e-06 6.15354e-07 0.000147971
0.000841478 2.642e-05 -1.53337e-06
2.642e-05 6.90796e-05 1.73674e-06
-1.53337e-06 1.73674e-06 7.93792e-05
0.000659788 2.05953e-05 5.99415e-07
2.05953e-05 -4.27364e-05 -3.42526e-06
5.99415e-07 -3.42526e-06 -5.13816e-05
0.00152628 2.63434e-05 6.61666e-06
2.63434e-05 0.000450574 -1.28315e-06
6.61666e-06 -1.28315e-06 0.000465222
0.00222177 2.20265e-05 8.88376e-06
2.20265e-05 0.000841013 -4.46538e-06
8.88376e-06 -4.46538e-06 0.000859575
0.00058443 2.91582e-06 -2.66403e-07
2.91582e-06 -4.77719e-05 -1.28846e-06
-2.66403e-07 -1.28846e-06 -0.000119789
0.000479759 -9.38603e-06 -3.32623e-07
-9.38603e-06 -0.000130655 -2.54705e-06
-3.32623e-07 -2.54705e-06 -0.000169755
0.000847174 -2.82695e-06 2.6649e-08
-2.82695e-06 9.63838e-05 9.78989e-08
2.6649e-08 9.78989e-08 3.2792e-05
0.000687418 -1.29896e-05 -2.71538e-07
-1.29896e-05 -3.15369e-05 -3.52017e-06
-2.71538e-07 -3.52017e-06 -3.69314e-05
0.000598043 -5.66355e-06 2.9507e-07
-5.66355e-06 -6.48996e-05 -1.73006e-08
2.9507e-07 -1.73006e-08 -0.000100647
0.000568644 -5.15573e-05 1.99119e-07
-5.15573e-05 -5.54515e-05 1.17601e-06
1.99119e-07 1.17601e-06 -0.000118431
0.00208914 -1.10777e-05 -4.83976e-06
-1.10777e-05 0.000763422 -4.56788e-06
-4.83976e-06 -4.56788e-06 0.000784066
0.000688979 -6.27166e-06 -1.71151e-07
-6.27166e-06 -3.22756e-05 -5.33299e-09
-1.71151e-07 -5.33299e-09 -3.64249e-05
0.000721267 -7.06597e-06 -2.82673e-07
-7.06597e-06 3.94824e-06 1.77607e-06
-2.82673e-07 1.77607e-06 -2.91051e-05
0.00207556 -1.92321e-07 -2.85976e-06
-1.92321e-07 0.000754854 3.34504e-10
-2.85976e-06 3.34504e-10 0.000775851
0.000690469 3.20039e-07 1.44116e-07
3.20039e-07 -3.19033e-05 3.42958e-06
1.44116e-07 3.42958e-06 -3.56975e-05
0.00208654 1.07671e-05 -4.86874e-06
1.07671e-05 0.000762083 4.55749e-06
-4.86874e-06 4.55749e-06 0.000782715
0.0010756 -8.52218e-06 -5.93827e-05
-8.52218e-06 -7.88444e-05 2.3918e-05
-5.93827e-05 2.3918e-05 -0.000635158
0.00140518 0.000158796 -5.33924e-06
0.000158796 0.00166723 -6.73145e-06
-5.33924e-06 -6.73145e-06 0.00125074
0.00115784 -0.000164734 -5.63654e-05
-0.000164734 0.00109621 -1.52855e-05
-5.63654e-05 -1.52855e-05 0.000658185
0.000796557 3.87395e-05 -1.32872e-10
3.87395e-05 7.6544e-05 4.70466e-07
-1.32872e-10 4.70466e-07 -1.32574e-05
0.00245976 -2.42472e-05 -2.5623e-05
-2.42472e-05 0.000961554 5.53347e-05
-2.5623e-05 5.53347e-05 0.000321812
0.00253899 -3.29971e-05 -2.76222e-05
-3.29971e-05 0.000516635 3.44073e-06
-2.76222e-05 3.44073e-06 -0.000388944
0.00134649 0.000388094 8.46487e-05
0.000388094 0.0013892 -7.23554e-05
8.46487e-05 -7.23554e-05 0.00146082
0.00293451 -0.000110107 -1.18193e-05
-0.000110107 0.000110565 -1.71617e-05
-1.18193e-05 -1.71617e-05 -0.000146279
0.00938376 0.000302022 3.79603e-05
0.000302022 0.00337655 -3.16835e-05
3.79603e-05 -3.16835e-05 0.001853
-0.00318817 0.000531209 -9.52808e-06
0.000531209 -0.00293014 2.84723e-05
-9.52808e-06 2.84723e-05 -0.00220417
0.00335852 0.000639923 2.58396e-05
0.000639923 -0.000489111 -4.09373e-06
2.58396e-05 -4.09373e-06 0.000501974
0.00359271 -0.000398977 -5.78494e-05
-0.000398977 0.000200336 1.25799e-06
-5.78494e-05 1.25799e-06 -0.000502141
0.00769178 5.98983e-05 3.12482e-05
5.98983e-05 0.00310587 -1.53518e-05
3.12482e-05 -1.53518e-05 0.00134035
0.00483424 0.000550599 1.26984e-05
0.000550599 0.000325939 -3.13809e-05
1.26984e-05 -3.13809e-05 0.000489453
0.00349901 0.000384508 -1.1164e-05
0.000384508 -0.00143975 9.23385e-07
-1.1164e-05 9.23385e-07 -0.000264658
0.0044239 -0.000714344 -2.88921e-06
-0.000714344 0.000691236 -1.41539e-05
-2.88921e-06 -1.41539e-05 -0.000288642
0.00950102 -0.000262197 5.01627e-05
-0.000262197 0.0045656 -3.37464e-06
5.01627e-05 -3.37464e-06 0.00188569
0.00141962 3.18514e-05 1.77275e-05
3.18514e-05 -0.000610922 -3.01459e-05
1.77275e-05 -3.01459e-05 -0.000725798
0.00499626 4.57625e-05 -1.05717e-05
4.57625e-05 -0.000536599 4.13014e-05
-1.05717e-05 4.13014e-05 0.000908128
0.000823807 -2.92396e-05 4.34622e-07
-2.92396e-05 9.64836e-05 1.86422e-07
4.34622e-07 1.86422e-07 -8.52074e-06
0.000821259 -3.67171e-05 5.20123e-07
-3.67171e-05 0.000106885 -3.08605e-08
5.20123e-07 -3.08605e-08 1.62394e-06
0.000921788 7.00468e-05 -1.11586e-06
7.00468e-05 0.000164369 1.04614e-07
-1.11586e-06 1.04614e-07 6.76624e-05
0.00079267 1.21231e-06 -2.92873e-07
1.21231e-06 6.53246e-05 1.36661e-07
-2.92873e-07 1.36661e-07 -2.504e-05
0.000864604 5.91577e-05 -6.6628e-07
5.91577e-05 0.00012222 4.18851e-07
-6.6628e-07 4.18851e-07 2.1007e-05
0.000905409 4.13814e-05 7.25535e-07
4.13814e-05 0.000147594 1.44408e-06
7.25535e-07 1.44408e-06 5.38101e-05
0.000960206 7.93484e-05 -6.52208e-07
7.93484e-05 0.000177226 5.8273e-08
-6.52208e-07 5.8273e-08 8.51553e-05
0.00100353 8.74401e-05 8.99487e-07
8.74401e-05 0.000208276 1.3246e-06
8.99487e-07 1.3246e-06 0.000116012
0.0014216 -0.000169202 3.00875e-05
-0.000169202 0.0001553 -1.37502e-05
3.00875e-05 -1.37502e-05 8.24087e-05
0.000947162 -0.000228116 9.03529e-06
-0.000228116 -0.000108531 -7.01279e-06
9.03529e-06 -7.01279e-06 -0.000132441
0.00080567 -0.000123842 -1.01406e-06
-0.000123842 0.000109104 1.42607e-07
-1.01406e-06 1.42607e-07 -2.44933e-06
0.00177564 -9.66466e-05 5.19337e-06
-9.66466e-05 0.000624399 -8.38436e-06
5.19337e-06 -8.38436e-06 0.000450213
0.00115455 -6.84893e-05 -6.6643e-07
-6.84893e-05 0.00029649 -9.02896e-07
-6.6643e-07 -9.02896e-07 0.000167212
0.000947338 -3.38423e-05 -1.12023e-06
-3.38423e-05 0.000179116 -2.72972e-07
-1.12023e-06 -2.72972e-07 6.63293e-05
0.000875303 1.64805e-05 -6.37589e-08
1.64805e-05 0.000128362 -1.48656e-07
-6.37589e-08 -1.48656e-07 2.18051e-05
0.000701315 -0.000296959 -7.28712e-06
-0.000296959 -0.000264488 4.77815e-07
-7.28712e-06 4.77815e-07 -0.000306802
0.000847934 2.30336e-05 -2.02235e-07
2.30336e-05 0.000121273 -5.92415e-07
-2.02235e-07 -5.92415e-07 -3.6452e-06
0.00098062 -4.5332e-05 1.01336e-07
-4.5332e-05 0.000173561 9.14077e-07
1.01336e-07 9.14077e-07 5.53406e-05
0.000445133 -8.32176e-05 7.95404e-07
-8.32176e-05 -4.49468e-05 3.56081e-06
7.95404e-07 3.56081e-06 -0.00011729
0.000815061 3.48514e-06 6.83244e-07
3.48514e-06 7.37319e-05 8.10988e-07
6.83244e-07 8.10988e-07 -1.59827e-05
0.000450641 -0.00027869 5.01255e-05
-0.00027869 -0.000294536 -2.97107e-05
5.01255e-05 -2.97107e-05 -0.000232332
0.000985695 -6.01705e-05 -1.14323e-05
-6.01705e-05 0.000452461 1.82242e-05
-1.14323e-05 1.82242e-05 0.000340147
0.000605112 3.59182e-06 -1.15358e-06
3.59182e-06 -2.8204e-05 5.83523e-06
-1.15358e-06 5.83523e-06 -0.000133668
0.000912906 0.000112815 1.56912e-06
0.000112815 0.000155055 9.90103e-07
1.56912e-06 9.90103e-07 4.36621e-05
0.00139198 -1.68853e-05 -1.99036e-05
-1.68853e-05 0.000268241 -5.64277e-07
-1.99036e-05 -5.64277e-07 9.7275e-05
0.00127264 -2.744e-05 3.66253e-05
-2.744e-05 0.000120812 -2.35608e-06
3.66253e-05 -2.35608e-06 -0.000391357
-0.00227678 -4.10874e-05 -1.69363e-05
-4.10874e-05 0.000263754 1.5458e-06
-1.69363e-05 1.5458e-06 -0.00065532
0.000990768 0.000114919 1.57523e-05
0.000114919 0.000342705 4.71574e-06
1.57523e-05 4.71574e-06 0.000262196
0.000229903 0.00018638 2.26432e-05
0.00018638 7.4829e-05 1.04754e-05
2.26432e-05 1.04754e-05 -9.12038e-05
0.00209139 -3.15643e-05 6.18608e-05
-3.15643e-05 0.000625031 1.24517e-05
6.18608e-05 1.24517e-05 0.000135824
0.00766011 -0.000126742 8.50168e-05
-0.000126742 0.00321689 4.03291e-05
8.50168e-05 4.03291e-05 0.000965267
0.00233809 0.000435213 -6.98131e-05
0.000435213 0.000490211 -8.61515e-05
-6.98131e-05 -8.61515e-05 -0.000348319
0.00307706 -0.000257028 2.44534e-05
-0.000257028 0.000280773 -1.94036e-05
2.44534e-05 -1.94036e-05 -0.00025439
0.00173724 4.45428e-05 2.44731e-05
4.45428e-05 0.000230773 7.30148e-05
2.44731e-05 7.30148e-05 -0.000584867
0.00268867 -3.20972e-06 3.82109e-06
-3.20972e-06 -0.00279166 -2.95618e-05
3.82109e-06 -2.95618e-05 -0.000810729
0.00076097 9.5639e-05 -2.93232e-07
9.5639e-05 0.000297795 -3.9239e-07
-2.93232e-07 -3.9239e-07 0.000218216
0.00126294 -3.24517e-05 -2.39236e-07
-3.24517e-05 0.000174337 -7.18866e-06
-2.39236e-07 -7.18866e-06 -5.23134e-05
0.00214806 1.16353e-05 1.59613e-05
1.16353e-05 0.000408455 5.5145e-06
1.59613e-05 5.5145e-06 -0.000193375
-0.000869627 7.0528e-05 -1.36218e-05
7.0528e-05 -0.000359465 -4.83967e-06
-1.36218e-05 -4.83967e-06 -0.000610303
0.00356239 0.000395429 7.83955e-06
0.000395429 -0.00142762 -6.28565e-07
7.83955e-06 -6.28565e-07 -0.000264783
0.00549002 0.000631425 5.65685e-05
0.000631425 0.00195742 1.44342e-05
5.65685e-05 1.44342e-05 -0.000290676
0.0028952 0.000171157 -4.5525e-05
0.000171157 0.00145863 -6.44378e-07
-4.5525e-05 -6.44378e-07 0.000938492
0.000615132 0.000124836 -2.13128e-05
0.000124836 0.000298531 -1.08164e-05
-2.13128e-05 -1.08164e-05 0.000166132
0.00156033 3.61899e-06 -7.12175e-07
3.61899e-06 0.000222298 -2.13907e-05
-7.12175e-07 -2.13907e-05 2.77218e-05
0.00255409 -1.93836e-05 2.52599e-05
-1.93836e-05 0.000930718 -5.56795e-05
2.52599e-05 -5.56795e-05 0.000338609
0.00417947 0.00062586 7.07237e-05
0.00062586 -0.00011993 -5.55675e-05
7.07237e-05 -5.55675e-05 0.000845212
0.00290111 0.000135286 -3.25669e-05
0.000135286 -0.000151773 2.86772e-05
-3.25669e-05 2.86772e-05 -9.50366e-05
0.00243699 0.000258344 1.79221e-05
0.000258344 0.000427124 -2.52544e-05
1.79221e-05 -2.52544e-05 0.000485787
0.00179841 0.000116408 8.32801e-05
0.000116408 0.00167815 3.02371e-05
8.32801e-05 3.02371e-05 -0.00159203
0.000636781 9.40785e-05 4.64454e-06
9.40785e-05 2.98946e-05 7.65612e-06
4.64454e-06 7.65612e-06 -1.73551e-05
0.000678686 4.37015e-05 7.78423e-06
4.37015e-05 0.000149478 7.57749e-07
7.78423e-06 7.57749e-07 0.000103358
-7.63989e-05 1.86064e-06 4.04221e-06
1.86064e-06 -4.30178e-05 -1.38596e-05
4.04221e-06 -1.38596e-05 -0.000121239
0.000730997 1.3426e-05 -5.46388e-08
1.3426e-05 1.50314e-05 2.3171e-06
-5.46388e-08 2.3171e-06 -6.30142e-05
0.000636012 -3.24674e-05 -8.58592e-07
-3.24674e-05 -1.79263e-05 4.6327e-06
-8.58592e-07 4.6327e-06 -7.95207e-05
0.000570237 -3.75829e-05 -2.6929e-06
-3.75829e-05 -3.19008e-06 1.04073e-05
-2.6929e-06 1.04073e-05 -4.52643e-05
0.000761333 -1.55407e-05 -4.05876e-08
-1.55407e-05 5.825e-05 -3.11999e-07
-4.05876e-08 -3.11999e-07 -6.63241e-06
0.000525143 -1.20523e-05 1.97075e-06
-1.20523e-05 3.68449e-06 2.05898e-06
1.97075e-06 2.05898e-06 -2.56132e-05
0.000448448 -9.46235e-05 4.32745e-06
-9.46235e-05 7.32226e-05 -5.80839e-06
4.32745e-06 -5.80839e-06 -5.61537e-05
0.000909788 7.94501e-06 -7.20261e-07
7.94501e-06 0.000130938 2.50259e-06
-7.20261e-07 2.50259e-06 6.46372e-05
0.000753539 4.91702e-05 -1.14572e-06
4.91702e-05 4.46446e-05 1.7933e-06
-1.14572e-06 1.7933e-06 -3.03141e-05
0.00115713 -5.80051e-05 9.83486e-07
-5.80051e-05 0.00029726 1.00843e-06
9.83486e-07 1.00843e-06 0.000210962
0.000261827 -6.69822e-05 4.02889e-06
-6.69822e-05 -0.000100788 1.36102e-06
4.02889e-06 1.36102e-06 -0.000280462
0.00059008 -1.09218e-05 -4.6214e-06
-1.09218e-05 -1.9969e-05 4.38205e-07
-4.6214e-06 4.38205e-07 -9.65165e-05
0.000343845 -7.5047e-05 1.24882e-06
-7.5047e-05 -0.000144214 -5.21236e-07
1.24882e-06 -5.21236e-07 -0.000277413
0.0010511 -0.000172018 4.96203e-06
-0.000172018 0.00021738 -9.51505e-07
4.96203e-06 -9.51505e-07 2.0515e-05
0.00113925 -0.000184938 -1.5723e-06
-0.000184938 0.000175083 3.79372e-06
-1.5723e-06 3.79372e-06 -2.42213e-05
0.00142161 -0.000105212 -2.38559e-06
-0.000105212 0.000432768 -4.60998e-07
-2.38559e-06 -4.60998e-07 0.000306975
0.000669472 -0.000138582 -3.78481e-07
-0.000138582 -4.23621e-06 3.05975e-08
-3.78481e-07 3.05975e-08 -0.000173746
0.00155727 -0.000196932 1.05576e-06
-0.000196932 0.000474107 -1.46212e-06
1.05576e-06 -1.46212e-06 0.000311489
0.00035583 -8.8047e-05 -1.27034e-06
-8.8047e-05 -0.000131426 -2.66808e-07
-1.27034e-06 -2.66808e-07 -0.00027417
0.000875442 -0.000141833 -3.79006e-08
-0.000141833 0.000120162 5.07291e-07
-3.79006e-08 5.07291e-07 -4.05375e-05
0.000822995 -1.4317e-05 1.3747e-07
-1.4317e-05 0.000104166 7.71964e-07
1.3747e-07 7.71964e-07 4.55932e-06
0.00100298 -0.000111024 -2.00517e-06
-0.000111024 0.000221539 1.6471e-06
-2.00517e-06 1.6471e-06 9.38517e-05
0.000529093 -0.000113742 -1.08526e-06
-0.000113742 -5.68251e-05 -9.21074e-07
-1.08526e-06 -9.21074e-07 -0.000211412
0.000736801 4.96712e-05 2.60502e-07
4.96712e-05 3.90845e-05 8.54784e-07
2.60502e-07 8.54784e-07 -3.0585e-05
0.000718152 -5.5452e-06 6.92736e-07
-5.5452e-06 4.21432e-05 -1.1493e-07
6.92736e-07 -1.1493e-07 -4.72363e-05
0.000790367 -3.25501e-05 8.51233e-07
-3.25501e-05 0.000100197 -2.64029e-06
8.51233e-07 -2.64029e-06 -1.0874e-05
0.000799884 1.41088e-05 -8.14335e-08
1.41088e-05 8.2383e-05 -5.48687e-07
-8.14335e-08 -5.48687e-07 5.33504e-06
0.000765364 1.55135e-05 -5.11179e-07
1.55135e-05 4.73407e-05 -1.54429e-07
-5.11179e-07 -1.54429e-07 -1.46525e-05
0.000712643 4.32373e-05 -1.55098e-06
4.32373e-05 1.12873e-05 1.42834e-06
-1.55098e-06 1.42834e-06 -3.08982e-05
0.000792648 -1.85396e-05 8.57887e-07
-1.85396e-05 6.09047e-05 -5.75291e-07
8.57887e-07 -5.75291e-07 3.8695e-07
0.000723104 3.40098e-05 -1.12981e-07
3.40098e-05 1.00497e-05 5.96061e-09
-1.12981e-07 5.96061e-09 -2.99343e-05
0.000649536 3.93208e-05 -1.12921e-06
3.93208e-05 -3.12748e-05 3.48568e-06
-1.12921e-06 3.48568e-06 -4.3145e-05
0.000735694 2.3185e-05 1.43078e-06
2.3185e-05 1.16566e-05 -1.51132e-06
1.43078e-06 -1.51132e-06 -2.70968e-05
0.000662387 3.36592e-05 1.23911e-07
3.36592e-05 -3.11181e-05 2.93995e-08
1.23911e-07 2.93995e-08 -4.15007e-05
0.002101 5.4148e-05 -4.69389e-06
5.4148e-05 0.000787896 1.65432e-06
-4.69389e-06 1.65432e-06 0.000802917
0.000658192 2.73226e-05 7.82247e-07
2.73226e-05 -3.93941e-05 -3.46103e-06
7.82247e-07 -3.46103e-06 -4.87224e-05
0.00151309 3.46102e-05 8.0357e-06
3.46102e-05 0.000448458 -1.16064e-06
8.0357e-06 -1.16064e-06 0.000462056
0.00221274 3.22308e-05 1.27836e-05
3.22308e-05 0.000840048 -4.27577e-06
1.27836e-05 -4.27577e-06 0.000857767
0.000602926 -1.44352e-05 -1.41273e-07
-1.44352e-05 -4.60215e-05 -1.00036e-06
-1.41273e-07 -1.00036e-06 -0.000115419
0.000459626 -1.16927e-05 -3.68715e-07
-1.16927e-05 -0.000141832 -2.44483e-06
-3.68715e-07 -2.44483e-06 -0.000184219
0.000725702 5.629e-06 -3.34568e-07
5.629e-06 2.99062e-05 -6.11277e-07
-3.34568e-07 -6.11277e-07 -4.04956e-05
0.000680812 -1.95229e-05 -2.82944e-07
-1.95229e-05 -3.22658e-05 -3.59166e-06
-2.82944e-07 -3.59166e-06 -3.96391e-05
0.000460782 -1.02444e-05 -9.93237e-08
-1.02444e-05 -0.000141274 -7.59513e-07
-9.93237e-08 -7.59513e-07 -0.000180782
0.000868227 7.66877e-06 -8.23364e-08
7.66877e-06 0.000113263 1.02601e-06
-8.23364e-08 1.02601e-06 4.61542e-05
0.00212743 -2.12881e-05 -8.87184e-06
-2.12881e-05 0.000787335 -4.51879e-06
-8.87184e-06 -4.51879e-06 0.000807021
0.000685585 -1.26984e-05 -1.24276e-07
-1.26984e-05 -3.25166e-05 -1.89057e-08
-1.24276e-07 -1.89057e-08 -3.78601e-05
0.000453421 -8.65772e-06 1.35447e-07
-8.65772e-06 -0.000145415 1.80946e-06
1.35447e-07 1.80946e-06 -0.000182346
0.0020837 -1.02222e-05 -2.98964e-06
-1.02222e-05 0.00076013 2.89717e-08
-2.98964e-06 2.89717e-08 0.000780876
0.000689301 -6.01883e-06 2.05265e-07
-6.01883e-06 -3.2074e-05 3.42446e-06
2.05265e-07 3.42446e-06 -3.61953e-05
0.00207485 6.96399e-07 -3.87975e-07
6.96399e-07 0.000754446 4.58539e-06
-3.87975e-07 4.58539e-06 0.000775436
0.00146781 2.18964e-05 -1.52336e-05
2.18964e-05 0.000346144 1.75636e-05
-1.52336e-05 1.75636e-05 0.000124985
0.00151517 4.09738e-06 8.98274e-06
4.09738e-06 0.000209118 -2.82373e-06
8.98274e-06 -2.82373e-06 -0.000346477
0.00171359 0.00012288 4.0275e-05
0.00012288 0.00185801 -2.36327e-05
4.0275e-05 -2.36327e-05 0.00149362
0.000840802 4.03937e-05 3.76987e-08
4.03937e-05 9.66946e-05 1.71396e-07
3.76987e-08 1.71396e-07 1.10125e-05
0.000740751 9.19988e-06 1.20018e-07
9.19988e-06 3.28794e-05 4.55696e-07
1.20018e-07 4.55696e-07 -4.7425e-05
0.000901143 5.99647e-05 -9.42493e-08
5.99647e-05 0.000128489 1.07535e-06
-9.42493e-08 1.07535e-06 3.82837e-05
0.00171358 1.91927e-06 1.67553e-06
1.91927e-06 8.69608e-05 8.8086e-05
1.67553e-06 8.8086e-05 -0.000651664
0.00247925 -1.211e-05 -5.64292e-06
-1.211e-05 0.000945741 1.14988e-06
-5.64292e-06 1.14988e-06 0.000309012
0.00274198 -4.75199e-05 4.61808e-05
-4.75199e-05 0.000686122 -6.35899e-05
4.61808e-05 -6.35899e-05 -0.000278668
0.00452775 -0.000427121 -5.43396e-05
-0.000427121 0.000864444 -2.93439e-07
-5.43396e-05 -2.93439e-07 0.000155548
0.000774208 -0.000166068 -6.39532e-05
-0.000166068 -0.000126903 3.17605e-05
-6.39532e-05 3.17605e-05 -0.00216197
0.00589547 0.000684388 6.27664e-05
0.000684388 0.0015724 -3.03997e-06
6.27664e-05 -3.03997e-06 0.00152186
0.00138961 0.00023556 1.63162e-05
0.00023556 -0.002715 -4.20487e-05
1.63162e-05 -4.20487e-05 -0.00149865
0.00498275 -0.000756909 -7.86349e-06
-0.000756909 0.00130797 4.97537e-06
-7.86349e-06 4.97537e-06 0.000608669
0.00562197 -0.000282655 8.63959e-06
-0.000282655 0.00239682 -7.96863e-07
8.63959e-06 -7.96863e-07 0.00014242
-0.00107979 0.000151887 -8.9213e-06
0.000151887 -0.000772655 -2.99194e-05
-8.9213e-06 -2.99194e-05 -0.00128826
0.00380622 1.20694e-06 -8.64832e-06
1.20694e-06 -0.0016326 1.25416e-05
-8.64832e-06 1.25416e-05 3.40188e-05
0.00239815 -0.000565835 -2.71289e-05
-0.000565835 -3.0323e-05 -2.82835e-05
-2.71289e-05 -2.82835e-05 -0.000641373
0.0101222 -0.000577665 4.55534e-05
-0.000577665 0.00466961 2.18731e-05
4.55534e-05 2.18731e-05 0.00196903
-0.00615367 2.50427e-05 4.06479e-05
2.50427e-05 -0.00105145 -5.42408e-05
4.06479e-05 -5.42408e-05 -0.00202326
0.00198468 -0.000336185 -7.07759e-07
-0.000336185 -0.00194115 5.21249e-07
-7.07759e-07 5.21249e-07 -0.000700539
0.000834476 1.95433e-05 -1.66866e-07
1.95433e-05 8.86492e-05 1.06696e-06
-1.66866e-07 1.06696e-06 -8.50763e-06
0.000812977 -8.3179e-06 1.29829e-07
-8.3179e-06 9.13922e-05 -1.4792e-07
1.29829e-07 -1.4792e-07 -1.47526e-05
0.0008203 -4.96016e-05 1.82093e-07
-4.96016e-05 0.000108189 -1.50612e-07
1.82093e-07 -1.50612e-07 1.17493e-06
0.000820579 2.46572e-05 -3.7946e-07
2.46572e-05 8.19673e-05 -3.39426e-07
-3.7946e-07 -3.39426e-07 -9.89003e-06
0.000971609 9.94285e-05 1.25174e-06
9.94285e-05 0.000180956 3.62603e-07
1.25174e-06 3.62603e-07 8.11597e-05
0.0010295 8.96992e-05 -3.95918e-07
8.96992e-05 0.000216667 2.33739e-07
-3.95918e-07 2.33739e-07 0.000123513
0.0015992 -0.000344312 2.83073e-06
-0.000344312 0.000192161 5.89279e-06
2.83073e-06 5.89279e-06 0.00010732
-0.000700111 -5.94823e-05 9.66071e-06
-5.94823e-05 -0.000667461 -1.01616e-05
9.66071e-06 -1.01616e-05 -0.000708478
0.000996024 5.83771e-05 -1.5079e-07
5.83771e-05 0.000202399 -2.08055e-07
-1.5079e-07 -2.08055e-07 9.05941e-05
0.00135456 -9.26332e-05 1.03382e-05
-9.26332e-05 0.000358739 -1.37957e-05
1.03382e-05 -1.37957e-05 0.000238713
0.000900697 1.15753e-05 -2.07747e-07
1.15753e-05 0.00015221 -1.93373e-06
-2.07747e-07 -1.93373e-06 3.11285e-05
0.000808556 7.19003e-06 1.86078e-07
7.19003e-06 7.00612e-05 -2.36074e-07
1.86078e-07 -2.36074e-07 -2.34936e-05
0.000893698 6.48357e-05 6.75752e-07
6.48357e-05 0.000141953 -3.77184e-07
6.75752e-07 -3.77184e-07 3.75278e-05
0.000495462 -0.000264381 -4.78797e-06
-0.000264381 -0.000278735 -2.31643e-06
-4.78797e-06 -2.31643e-06 -0.000287483
0.000971628 -3.12512e-05 1.64386e-06
-3.12512e-05 0.000182691 -3.0149e-06
1.64386e-06 -3.0149e-06 8.48106e-05
0.000415719 -2.97672e-05 1.52563e-05
-2.97672e-05 0.000154104 -2.07384e-07
1.52563e-05 -2.07384e-07 4.47404e-05
0.000927865 3.39903e-05 1.97998e-06
3.39903e-05 0.000148855 9.41265e-07
1.97998e-06 9.41265e-07 6.06111e-05
-0.00217613 3.65276e-05 -7.1968e-06
3.65276e-05 -0.00104774 -2.79837e-05
-7.1968e-06 -2.79837e-05 -0.00136082
0.000995926 -5.74647e-06 3.32185e-06
-5.74647e-06 0.000418941 2.05856e-05
3.32185e-06 2.05856e-05 0.00036789
0.000999157 1.87888e-06 2.04127e-06
1.87888e-06 0.000228816 2.9196e-06
2.04127e-06 2.9196e-06 0.000146893
0.00164879 -1.20542e-05 -2.02461e-06
-1.20542e-05 0.00025514 -3.70224e-08
-2.02461e-06 -3.70224e-08 0.000152136
0.00114022 -1.34051e-05 -7.83377e-06
-1.34051e-05 0.000135212 -2.05552e-06
-7.83377e-06 -2.05552e-06 -1.49668e-05
0.00112005 -3.33371e-05 0.000108246
-3.33371e-05 6.27251e-05 -1.99964e-06
0.000108246 -1.99964e-06 -0.000458486
0.00109119 0.000144385 1.93044e-05
0.000144385 0.000471055 1.34503e-05
1.93044e-05 1.34503e-05 0.00038152
0.00342755 0.000378115 -6.12973e-09
0.000378115 0.00140844 -1.65142e-05
-6.12973e-09 -1.65142e-05 0.00125302
0.00131532 -2.97452e-05 1.05161e-05
-2.97452e-05 0.000205007 7.19179e-06
1.05161e-05 7.19179e-06 -9.07745e-06
6.14304e-05 0.000320695 1.95361e-06
0.000320695 -0.000168188 6.02754e-06
1.95361e-06 6.02754e-06 -0.00239769
-0.00849358 2.09769e-05 -3.40376e-05
2.09769e-05 -0.00353009 -3.9897e-05
-3.40376e-05 -3.9897e-05 -0.00455593
0.00244005 1.92075e-05 1.92353e-05
1.92075e-05 0.000708797 4.66699e-05
1.92353e-05 4.66699e-05 0.000227374
0.00153477 0.000263686 -1.38541e-05
0.000263686 -0.00267074 4.24446e-05
-1.38541e-05 4.24446e-05 -0.00144533
0.000379213 8.64366e-05 2.16322e-06
8.64366e-05 0.000197111 -6.51435e-07
2.16322e-06 -6.51435e-07 7.72168e-05
0.00134886 -4.10451e-06 4.62594e-06
-4.10451e-06 0.000111833 -8.92916e-06
4.62594e-06 -8.92916e-06 -5.82912e-05
0.00253296 -1.08326e-05 5.73195e-06
-1.08326e-05 0.000904356 -1.27536e-06
5.73195e-06 -1.27536e-06 0.000299178
0.000978093 0.000203383 3.03533e-05
0.000203383 -0.000355483 -1.56058e-06
3.03533e-05 -1.56058e-06 -0.000557705
0.00192381 0.000591813 2.03319e-05
0.000591813 -0.00143106 -4.68529e-05
2.03319e-05 -4.68529e-05 -0.000414547
-0.000916192 0.000162398 8.87011e-06
0.000162398 -0.00122417 2.63149e-05
8.87011e-06 2.63149e-05 -0.00137062
0.00630677 5.38421e-05 5.80593e-05
5.38421e-05 0.00363276 -1.81895e-05
5.80593e-05 -1.81895e-05 0.000208629
4.62299e-05 1.62546e-05 9.87849e-06
1.62546e-05 0.000248107 -1.12282e-05
9.87849e-06 -1.12282e-05 -5.49692e-06
0.00142514 2.12196e-05 1.34196e-05
2.12196e-05 0.000300591 -1.74381e-05
1.34196e-05 -1.74381e-05 8.75684e-05
0.00249729 -1.29044e-05 9.84667e-05
-1.29044e-05 0.000357318 -7.89742e-05
9.84667e-05 -7.89742e-05 -0.000438566
0.00252941 0.000814783 3.39794e-06
0.000814783 0.00105459 -1.0404e-05
3.39794e-06 -1.0404e-05 0.00211818
-0.00610978 0.000228179 4.72362e-05
0.000228179 -0.00465655 8.62864e-05
4.72362e-05 8.62864e-05 -0.00438648
0.00984959 -0.000302691 4.06184e-05
-0.000302691 0.0041717 -5.83763e-05
4.06184e-05 -5.83763e-05 0.00151277
0.00481979 -0.000299678 -7.55728e-05
-0.000299678 0.00125559 0.000117769
-7.55728e-05 0.000117769 0.00129479
0.00102765 4.00135e-05 1.83645e-06
4.00135e-05 0.000355516 6.01532e-06
1.83645e-06 6.01532e-06 0.000307563
5.04712e-05 -1.4086e-05 -2.66507e-06
-1.4086e-05 7.31596e-07 -1.21991e-06
-2.66507e-06 -1.21991e-06 -8.58911e-05
-0.000218045 -0.000114014 7.05099e-06
-0.000114014 -5.73252e-05 -1.25418e-05
7.05099e-06 -1.25418e-05 -0.000252029
0.000754839 -2.9231e-05 4.17833e-08
-2.9231e-05 5.71275e-05 2.06436e-06
4.17833e-08 2.06436e-06 -1.02496e-05
0.000710216 -1.17931e-05 1.08438e-05
-1.17931e-05 9.51632e-05 1.24608e-05
1.08438e-05 1.24608e-05 6.78153e-05
0.000427787 -4.3667e-05 -1.12878e-06
-4.3667e-05 6.03597e-05 1.95482e-08
-1.12878e-06 1.95482e-08 -5.41572e-05
0.00116251 -0.000168181 1.84892e-05
-0.000168181 0.000478542 -1.22571e-05
1.84892e-05 -1.22571e-05 0.000248186
0.00164647 -8.18228e-05 -2.73248e-06
-8.18228e-05 0.00055663 2.25754e-06
-2.73248e-06 2.25754e-06 0.000464293
0.00131372 -0.000165012 1.10519e-06
-0.000165012 0.000432683 4.5448e-07
1.10519e-06 4.5448e-07 0.000248431
0.00103136 -0.000185283 7.56502e-06
-0.000185283 0.000276663 2.2021e-06
7.56502e-06 2.2021e-06 -1.32135e-05
0.000158521 -6.67205e-05 -2.25848e-06
-6.67205e-05 -0.000241948 -1.67158e-06
-2.25848e-06 -1.67158e-06 -0.000364832
0.00106363 -0.000170681 -3.31543e-07
-0.000170681 0.000216555 1.00388e-06
-3.31543e-07 1.00388e-06 1.35874e-05
0.00212738 -0.000278151 2.03117e-06
-0.000278151 0.000691612 1.27758e-06
2.03117e-06 1.27758e-06 0.000445301
0.00166751 -0.000249426 -2.5636e-06
-0.000249426 0.000324603 8.32555e-07
-2.5636e-06 8.32555e-07 0.000106289
0.000592717 -0.000139021 -2.01939e-07
-0.000139021 -9.72372e-05 5.0213e-06
-2.01939e-07 5.0213e-06 -0.000274898
0.00124379 -0.000192667 -2.05007e-06
-0.000192667 0.000232722 1.38467e-06
-2.05007e-06 1.38467e-06 3.12186e-05
0.00092189 -0.000157745 -3.34619e-06
-0.000157745 0.000127021 4.20437e-07
-3.34619e-06 4.20437e-07 -4.78196e-05
0.00131603 -0.000174944 2.77554e-06
-0.000174944 0.000359805 -2.4374e-06
2.77554e-06 -2.4374e-06 0.000206655
0.00115378 -0.000165626 2.47975e-06
-0.000165626 0.000258135 -2.19683e-06
2.47975e-06 -2.19683e-06 0.000104206
0.000637686 -4.65985e-05 1.11319e-06
-4.65985e-05 1.22812e-05 1.07582e-06
1.11319e-06 1.07582e-06 -0.000110268
0.000775267 -0.000114453 1.0664e-06
-0.000114453 0.00010006 -3.32733e-07
1.0664e-06 -3.32733e-07 -4.36035e-05
0.00105448 -0.000153519 4.54242e-06
-0.000153519 0.000218182 -2.76832e-06
4.54242e-06 -2.76832e-06 6.02772e-05
0.00073531 5.95207e-05 9.78631e-07
5.95207e-05 4.73301e-05 1.286e-06
9.78631e-07 1.286e-06 -3.54627e-05
0.000881031 -3.45103e-05 -1.83875e-07
-3.45103e-05 0.000137706 -5.52526e-08
-1.83875e-07 -5.52526e-08 3.49272e-05
0.00102132 -0.000107591 -6.46635e-07
-0.000107591 0.000230007 -1.94497e-07
-6.46635e-07 -1.94497e-07 0.000102141
0.000687652 5.53313e-05 -8.37168e-07
5.53313e-05 6.77284e-06 1.55835e-06
-8.37168e-07 1.55835e-06 -4.0406e-05
0.000764891 2.51409e-05 -7.03176e-07
2.51409e-05 5.304e-05 -2.81002e-07
-7.03176e-07 -2.81002e-07 -1.64541e-05
0.000593302 3.9112e-07 -2.74439e-07
3.9112e-07 -2.51659e-05 -8.5728e-07
-2.74439e-07 -8.5728e-07 -0.000115597
0.00079888 -7.76227e-06 7.33219e-07
-7.76227e-06 6.54964e-05 -9.16539e-07
7.33219e-07 -9.16539e-07 3.11183e-06
0.000715483 4.19872e-05 -2.76009e-07
4.19872e-05 1.26807e-05 -4.57823e-08
-2.76009e-07 -4.57823e-08 -2.94519e-05
0.000633861 4.53446e-05 -1.3079e-06
4.53446e-05 -3.15233e-05 3.48569e-06
-1.3079e-06 3.48569e-06 -4.55286e-05
0.000728088 3.28052e-05 1.49176e-06
3.28052e-05 1.22303e-05 -1.55027e-06
1.49176e-06 -1.55027e-06 -2.75897e-05
0.000655255 4.01469e-05 8.11729e-08
4.01469e-05 -2.81234e-05 1.81865e-08
8.11729e-08 1.81865e-08 -4.00295e-05
0.00213862 5.87918e-05 -2.22665e-05
5.87918e-05 0.00081596 3.61943e-06
-2.22665e-05 3.61943e-06 0.000829867
0.000660457 3.42289e-05 9.13975e-07
3.42289e-05 -3.24435e-05 -3.46019e-06
9.13975e-07 -3.46019e-06 -4.28135e-05
0.00149684 4.30313e-05 9.39909e-06
4.30313e-05 0.000446321 -1.02808e-06
9.39909e-06 -1.02808e-06 0.000458493
0.00219363 4.20553e-05 1.63655e-05
4.20553e-05 0.000834672 -4.02487e-06
1.63655e-05 -4.02487e-06 0.000851305
0.000770049 3.41731e-05 -5.60295e-07
3.41731e-05 4.59864e-05 -3.77001e-07
-5.60295e-07 -3.77001e-07 -2.38358e-05
0.000712591 -9.0329e-06 -6.78104e-07
-9.0329e-06 -1.01962e-06 -1.76806e-06
-6.78104e-07 -1.76806e-06 -4.39288e-05
0.000677988 2.32505e-05 -8.12481e-07
2.32505e-05 1.22614e-06 -5.34934e-07
-8.12481e-07 -5.34934e-07 -7.13481e-05
0.000668939 -2.61972e-05 -1.70826e-07
-2.61972e-05 -3.47071e-05 -3.70374e-06
-1.70826e-07 -3.70374e-06 -4.45438e-05
0.000582783 -8.70522e-06 -4.86018e-07
-8.70522e-06 -7.32058e-05 -7.6215e-07
-4.86018e-07 -7.6215e-07 -0.00011466
0.000868646 1.02531e-05 1.50669e-07
1.02531e-05 0.000109965 9.91169e-08
1.50669e-07 9.91169e-08 4.02076e-05
0.00218479 -3.15835e-05 -1.30267e-05
-3.15835e-05 0.000823262 -4.42188e-06
-1.30267e-05 -4.42188e-06 0.000841504
0.000678239 -1.91406e-05 -1.92387e-07
-1.91406e-05 -3.37455e-05 -1.74842e-08
-1.92387e-07 -1.74842e-08 -4.10324e-05
0.000439115 -1.06818e-05 -1.05487e-07
-1.06818e-05 -0.000153457 1.09302e-06
-1.05487e-07 1.09302e-06 -0.000193319
0.00211707 -2.03958e-05 -2.78911e-06
-2.03958e-05 0.000781074 5.73812e-08
-2.78911e-06 5.73812e-08 0.000800961
0.000684941 -1.24296e-05 3.16825e-07
-1.24296e-05 -3.28174e-05 3.49107e-06
3.16825e-07 3.49107e-06 -3.81211e-05
0.00208137 -9.35915e-06 3.93943e-06
-9.35915e-06 0.000758601 4.57733e-06
3.93943e-06 4.57733e-06 0.00077941
0.00152098 -6.05157e-06 -3.06741e-06
-6.05157e-06 0.000226149 2.22924e-05
-3.06741e-06 2.22924e-05 3.08708e-06
0.0013819 1.75478e-05 -4.01557e-06
1.75478e-05 0.00028526 7.68997e-07
-4.01557e-06 7.68997e-07 4.49153e-05
0.00165997 1.20123e-05 7.7033e-05
1.20123e-05 0.000337574 -1.96203e-05
7.7033e-05 -1.96203e-05 -0.00023211
0.000715828 -2.99638e-05 7.11097e-08
-2.99638e-05 1.4491e-05 -1.26777e-07
7.11097e-08 -1.26777e-07 -6.11317e-05
0.00087668 1.44504e-06 -5.68348e-07
1.44504e-06 0.000112215 -3.92342e-07
-5.68348e-07 -3.92342e-07 2.97742e-05
0.000862132 3.69035e-05 1.23965e-06
3.69035e-05 0.000107841 -1.12387e-07
1.23965e-06 -1.12387e-07 2.40904e-05
0.00074536 -5.62438e-06 1.38737e-07
-5.62438e-06 3.1001e-05 8.22624e-08
1.38737e-07 8.22624e-08 -4.60048e-05
0.000823557 1.97949e-05 -5.00623e-08
1.97949e-05 8.47401e-05 2.19021e-07
-5.00623e-08 2.19021e-07 -4.6621e-06
0.000848261 -7.25814e-07 -8.99824e-07
-7.25814e-07 9.63693e-05 4.84067e-07
-8.99824e-07 4.84067e-07 1.24167e-05
0.000889461 0.000129001 8.64858e-07
0.000129001 0.000133721 9.91306e-07
8.64858e-07 9.91306e-07 3.2321e-05
0.00115703 1.57588e-05 2.67413e-05
1.57588e-05 0.000199279 8.44734e-05
2.67413e-05 8.44734e-05 -0.000595495
0.0020601 9.02225e-06 -3.79043e-06
9.02225e-06 0.000430003 2.55011e-05
-3.79043e-06 2.55011e-05 -0.000176455
0.00243422 4.5693e-07 1.42044e-05
4.5693e-07 0.000898029 -4.95169e-05
1.42044e-05 -4.95169e-05 0.00025752
0.0026193 -3.28715e-05 -9.54898e-06
-3.28715e-05 -0.00274395 1.03652e-06
-9.54898e-06 1.03652e-06 -0.000859634
0.00339352 -0.000649749 -2.72652e-05
-0.000649749 0.000748664 5.49052e-05
-2.72652e-05 5.49052e-05 -0.000123107
-0.00122079 -0.000434949 4.09171e-05
-0.000434949 -0.000854465 1.12335e-05
4.09171e-05 1.12335e-05 -0.00323566
0.0053601 0.000661239 4.15897e-05
0.000661239 0.00290723 -2.64426e-05
4.15897e-05 -2.64426e-05 0.00182609
0.00460884 -0.000744119 -1.54458e-05
-0.000744119 0.00104352 3.29755e-06
-1.54458e-05 3.29755e-06 0.000287856
0.000556474 -0.000307125 4.20283e-05
-0.000307125 0.000293909 -1.07659e-05
4.20283e-05 -1.07659e-05 -0.00227968
0.0036797 -5.69219e-05 -2.87371e-05
-5.69219e-05 0.00173833 1.73968e-06
-2.87371e-05 1.73968e-06 0.00120788
0.00603481 -0.000455418 -1.5964e-05
-0.000455418 0.000605277 -2.24148e-05
-1.5964e-05 -2.24148e-05 0.00180018
0.00251964 -0.000129782 -3.42175e-05
-0.000129782 -4.71482e-05 2.14555e-05
-3.42175e-05 2.14555e-05 1.80131e-05
0.000402433 0.000127589 3.07452e-05
0.000127589 -0.00015566 -6.46945e-05
3.07452e-05 -6.46945e-05 -0.00235842
-0.00549555 -0.000577391 3.64583e-05
-0.000577391 -0.00384574 -2.14515e-05
3.64583e-05 -2.14515e-05 -0.00475905
0.00135011 -0.000464803 1.76531e-05
-0.000464803 -0.00169948 -6.10313e-05
1.76531e-05 -6.10313e-05 -0.000415842
0.000871988 -2.68129e-05 -6.37859e-07
-2.68129e-05 0.000109864 1.80576e-06
-6.37859e-07 1.80576e-06 2.89742e-05
0.000797621 1.84183e-05 1.5095e-07
1.84183e-05 6.91351e-05 8.45743e-08
1.5095e-07 8.45743e-08 -2.79342e-05
0.000787883 5.46669e-06 -5.32741e-07
5.46669e-06 8.17954e-05 -1.15395e-06
-5.32741e-07 -1.15395e-06 -2.73995e-05
0.00083816 2.84658e-05 -9.95764e-08
2.84658e-05 9.76195e-05 -1.3596e-06
-9.95764e-08 -1.3596e-06 1.29034e-06
0.00127731 -0.000302313 5.51703e-07
-0.000302313 7.30239e-05 1.80089e-05
5.51703e-07 1.80089e-05 1.38082e-05
0.000448788 -1.66324e-05 -4.11263e-06
-1.66324e-05 0.000175953 -1.42284e-05
-4.11263e-06 -1.42284e-05 7.84445e-05
0.000744867 -1.16419e-05 -2.45949e-07
-1.16419e-05 2.77696e-05 -1.95841e-06
-2.45949e-07 -1.95841e-06 -6.35935e-05
0.000918255 8.41675e-05 -4.27117e-07
8.41675e-05 0.00016269 -1.33824e-06
-4.27117e-07 -1.33824e-06 5.51798e-05
0.00171461 -4.33782e-05 9.49037e-06
-4.33782e-05 0.000612821 -1.43782e-05
9.49037e-06 -1.43782e-05 0.000510728
0.000812871 1.44189e-05 -5.399e-07
1.44189e-05 8.30944e-05 -7.88129e-08
-5.399e-07 -7.88129e-08 -4.14493e-06
0.000772331 1.3762e-05 -7.35359e-07
1.3762e-05 0.000107957 -1.08945e-06
-7.35359e-07 -1.08945e-06 2.33969e-05
-0.000620737 -8.70344e-06 -1.08699e-05
-8.70344e-06 -0.00031176 -1.04684e-05
-1.08699e-05 -1.04684e-05 -0.000670382
0.00103745 -3.43058e-05 9.6661e-06
-3.43058e-05 0.000471186 5.82955e-07
9.6661e-06 5.82955e-07 0.000429112
0.000673019 1.06286e-05 2.35776e-06
1.06286e-05 5.06359e-05 5.61642e-07
2.35776e-06 5.61642e-07 -2.81158e-05
0.000688379 -3.11777e-06 -1.75127e-05
-3.11777e-06 0.000877507 -5.2387e-05
-1.75127e-05 -5.2387e-05 -9.81392e-05
0.00217701 1.43461e-05 4.0482e-06
1.43461e-05 0.00103624 1.46103e-05
4.0482e-06 1.46103e-05 0.000955292
0.00142923 -1.45932e-05 1.72114e-05
-1.45932e-05 0.00029415 8.75539e-07
1.72114e-05 8.75539e-07 0.00012318
0.00122668 -1.10355e-05 -5.43693e-07
-1.10355e-05 6.03407e-05 -1.22872e-07
-5.43693e-07 -1.22872e-07 -2.44049e-05
0.000939586 -9.94047e-06 3.87798e-06
-9.94047e-06 4.31994e-05 -2.02739e-06
3.87798e-06 -2.02739e-06 -8.78269e-05
0.000411276 7.16918e-05 8.95107e-06
7.16918e-05 0.000218261 7.34117e-06
8.95107e-06 7.34117e-06 0.000115844
0.00112748 0.000174459 -4.86188e-05
0.000174459 -0.000112975 2.17804e-05
-4.86188e-05 2.17804e-05 -0.000150732
0.0011439 -8.51721e-06 7.51229e-06
-8.51721e-06 8.78039e-06 4.72401e-06
7.51229e-06 4.72401e-06 -0.000139698
0.00326815 -0.000403495 0.000138477
-0.000403495 0.00218857 -0.000118038
0.000138477 -0.000118038 -0.000885402
0.00599584 0.0007089 -3.49197e-05
0.0007089 0.00275619 2.57325e-05
-3.49197e-05 2.57325e-05 0.00188224
0.00248185 -5.10918e-06 -1.56023e-05
-5.10918e-06 0.000859529 5.04175e-05
-1.56023e-05 5.04175e-05 0.000240553
0.00347532 0.000634063 -2.12284e-05
0.000634063 -0.000467816 5.75634e-06
-2.12284e-05 5.75634e-06 0.000498561
-0.000532593 -2.42996e-06 1.69207e-05
-2.42996e-06 -1.29823e-05 1.01548e-06
1.69207e-05 1.01548e-06 -0.000319541
0.00139347 1.76919e-05 4.657e-06
1.76919e-05 0.000272282 -6.34228e-07
4.657e-06 -6.34228e-07 4.82228e-05
0.00258719 -3.56747e-05 2.75488e-05
-3.56747e-05 0.000470826 -3.03237e-06
2.75488e-05 -3.03237e-06 -0.000402061
0.00117862 -9.53652e-05 -1.33797e-05
-9.53652e-05 -0.000632791 2.55083e-05
-1.33797e-05 2.55083e-05 -0.000373668
-0.00114445 0.000857869 2.66356e-05
0.000857869 -0.00110539 -9.13985e-06
2.66356e-05 -9.13985e-06 0.000352419
0.00503725 0.00057932 -1.07814e-05
0.00057932 0.000385973 3.04609e-05
-1.07814e-05 3.04609e-05 0.000638614
-0.000777273 -0.000489835 4.99895e-05
-0.000489835 -0.000157285 -3.25852e-05
4.99895e-05 -3.25852e-05 -0.00339371
0.000802454 -2.32719e-05 4.74349e-05
-2.32719e-05 0.000318061 -8.18817e-06
4.74349e-05 -8.18817e-06 0.000244433
0.00106643 -1.22409e-05 5.50296e-05
-1.22409e-05 -0.000115891 -2.34956e-05
5.50296e-05 -2.34956e-05 -0.000675164
-0.0014096 0.000218986 -5.11522e-05
0.000218986 2.68621e-06 -2.14709e-05
-5.11522e-05 -2.14709e-05 -0.000353144
1.5526e-05 0.000677122 -4.19954e-05
0.000677122 -0.000495928 7.5038e-05
-4.19954e-05 7.5038e-05 -3.02018e-05
0.00796986 3.03078e-05 1.58175e-05
3.03078e-05 0.00353132 -3.05388e-05
1.58175e-05 -3.05388e-05 0.00101772
0.00282646 -0.000300931 -7.58385e-05
-0.000300931 0.000274034 7.59162e-05
-7.58385e-05 7.59162e-05 -3.28398e-05
9.08548e-05 -2.69424e-05 -1.09453e-05
-2.69424e-05 8.87194e-07 1.07176e-05
-1.09453e-05 1.07176e-05 -0.000100002
0.000135451 -6.53302e-05 4.96262e-07
-6.53302e-05 0.000136631 -5.11327e-07
4.96262e-07 -5.11327e-07 -4.77721e-05
0.0010743 -0.000185184 1.91092e-05
-0.000185184 0.000399133 -8.41791e-06
1.91092e-05 -8.41791e-06 0.000272658
0.000426511 5.74046e-06 -3.97479e-06
5.74046e-06 5.83811e-05 3.89002e-06
-3.97479e-06 3.89002e-06 -4.19249e-05
-0.000166098 -8.97904e-05 8.35102e-07
-8.97904e-05 -0.000191819 -3.27009e-06
8.35102e-07 -3.27009e-06 -0.000430097
0.00167681 -0.000266819 1.84052e-05
-0.000266819 0.000466066 -3.91583e-06
1.84052e-05 -3.91583e-06 0.000240826
0.00236276 -0.000264552 -4.95106e-06
-0.000264552 0.000965427 8.63316e-07
-4.95106e-06 8.63316e-07 0.000774959
0.00154246 -0.000216578 1.78915e-06
-0.000216578 0.000521746 1.05075e-06
1.78915e-06 1.05075e-06 0.000242222
0.000856307 -0.000218416 4.19462e-06
-0.000218416 -4.57459e-05 -4.34315e-06
4.19462e-06 -4.34315e-06 -0.000302698
0.00111627 -0.000172886 -4.22243e-06
-0.000172886 0.000236626 9.3557e-08
-4.22243e-06 9.3557e-08 2.83269e-05
0.00191029 -0.000262396 1.33229e-06
-0.000262396 0.000567972 9.9439e-09
1.33229e-06 9.9439e-09 0.000321118
0.00150752 -0.000254834 2.16752e-06
-0.000254834 0.000188696 -4.07006e-06
2.16752e-06 -4.07006e-06 -3.68436e-05
0.00159706 -0.000242193 7.36886e-07
-0.000242193 0.000155506 -2.0503e-06
7.36886e-07 -2.0503e-06 -2.45537e-05
0.00219975 -0.000273715 -4.53913e-06
-0.000273715 0.000653365 5.01985e-06
-4.53913e-06 5.01985e-06 0.000441016
0.0016377 -0.000248324 -1.08456e-06
-0.000248324 0.000303646 -2.85742e-07
-1.08456e-06 -2.85742e-07 8.08598e-05
0.000449855 -0.000125715 2.77006e-06
-0.000125715 -0.000165022 -2.24407e-07
2.77006e-06 -2.24407e-07 -0.00032073
0.000938421 -0.000161659 1.78671e-06
-0.000161659 9.22016e-05 -1.41014e-07
1.78671e-06 -1.41014e-07 -8.12111e-05
0.00139598 -0.000203852 -1.27018e-06
-0.000203852 0.000316044 -1.47649e-06
-1.27018e-06 -1.47649e-06 0.000112357
0.00109456 -0.000151739 1.17149e-06
-0.000151739 0.000248183 -7.47301e-08
1.17149e-06 -7.47301e-08 9.97537e-05
0.00110537 -0.000158429 -9.79714e-07
-0.000158429 0.000245737 -9.59235e-07
-9.79714e-07 -9.59235e-07 9.31972e-05
0.000790283 -0.000137331 2.86399e-06
-0.000137331 6.50492e-05 -2.11717e-06
2.86399e-06 -2.11717e-06 -8.06855e-05
0.000712241 7.2776e-06 1.33689e-06
7.2776e-06 4.31163e-05 1.33896e-06
1.33689e-06 1.33896e-06 -5.96658e-05
0.000762013 -5.7408e-05 1.62442e-07
-5.7408e-05 8.26072e-05 7.14423e-07
1.62442e-07 7.14423e-07 -3.98509e-05
0.0012088 -0.000141978 1.44217e-06
-0.000141978 0.000339556 -1.29964e-06
1.44217e-06 -1.29964e-06 0.000194261
0.000660677 7.17212e-05 2.31619e-07
7.17212e-05 4.49084e-06 2.08771e-06
2.31619e-07 2.08771e-06 -5.40613e-05
0.000765151 1.8375e-05 -3.16743e-07
1.8375e-05 6.42295e-05 -1.95793e-07
-3.16743e-07 -1.95793e-07 -2.03478e-05
0.00092354 -4.99363e-05 -3.5945e-07
-4.99363e-05 0.000162545 -7.95836e-07
-3.5945e-07 -7.95836e-07 5.68453e-05
0.000624568 5.10581e-05 -2.22218e-06
5.10581e-05 -2.75916e-05 4.83033e-06
-2.22218e-06 4.83033e-06 -4.42785e-05
0.000697371 5.2516e-05 -2.81906e-07
5.2516e-05 1.17494e-05 -1.7812e-07
-2.81906e-07 -1.7812e-07 -3.52449e-05
0.000795492 -3.63012e-08 1.24598e-07
-3.63012e-08 6.8475e-05 -1.25754e-06
1.24598e-07 -1.25754e-06 -8.85116e-07
0.000716651 4.05147e-05 1.05305e-06
4.05147e-05 1.30134e-05 -1.65628e-06
1.05305e-06 -1.65628e-06 -2.89694e-05
0.000648673 4.654e-05 1.18449e-08
4.654e-05 -2.31663e-05 -6.51374e-09
1.18449e-08 -6.51374e-09 -3.73082e-05
0.00213882 6.78169e-05 -2.52308e-05
6.78169e-05 0.00082446 3.30514e-06
-2.52308e-05 3.30514e-06 0.000836283
0.000663311 4.10927e-05 1.07547e-06
4.10927e-05 -2.3633e-05 -3.43988e-06
1.07547e-06 -3.43988e-06 -3.55988e-05
0.00215276 5.98311e-05 1.7438e-06
5.98311e-05 0.000824906 1.20739e-07
1.7438e-06 1.20739e-07 0.000838568
0.00217144 5.15234e-05 1.95936e-05
5.15234e-05 0.00082875 -3.74534e-06
1.95936e-05 -3.74534e-06 0.00084399
0.000800518 1.24653e-05 -8.97002e-09
1.24653e-05 7.46223e-05 -4.60939e-07
-8.97002e-09 -4.60939e-07 -9.5988e-06
0.000798559 4.51783e-05 -8.84357e-07
4.51783e-05 6.9399e-05 -8.71565e-07
-8.84357e-07 -8.71565e-07 -7.32128e-06
0.000714844 -1.74793e-05 -8.19666e-07
-1.74793e-05 9.68571e-07 -1.84352e-06
-8.19666e-07 -1.84352e-06 -4.44658e-05
0.000782393 3.79739e-05 -8.50465e-08
3.79739e-05 5.32604e-05 -4.40908e-09
-8.50465e-08 -4.40908e-09 -1.68879e-05
0.00065467 -3.26123e-05 -2.81452e-07
-3.26123e-05 -3.72398e-05 -3.84147e-06
-2.81452e-07 -3.84147e-06 -4.98731e-05
0.000721009 -1.03178e-05 -1.17931e-07
-1.03178e-05 4.20211e-06 -2.13152e-08
-1.17931e-07 -2.13152e-08 -3.88358e-05
0.000748947 2.40318e-05 -3.16987e-07
2.40318e-05 3.24638e-05 1.02074e-07
-3.16987e-07 1.02074e-07 -3.38243e-05
0.00224876 -4.18926e-05 -1.70759e-05
-4.18926e-05 0.000863996 -4.29481e-06
-1.70759e-05 -4.29481e-06 0.000880453
0.000668542 -2.56305e-05 -1.74091e-07
-2.56305e-05 -3.49972e-05 -1.88664e-08
-1.74091e-07 -1.88664e-08 -4.47352e-05
0.000707358 -7.00794e-06 -1.86649e-07
-7.00794e-06 -3.83273e-06 1.11651e-06
-1.86649e-07 1.11651e-06 -4.43517e-05
0.00216722 -3.07164e-05 -2.83781e-06
-3.07164e-05 0.000812798 8.63548e-08
-2.83781e-06 8.63548e-08 0.000831309
0.000676816 -1.88024e-05 2.4819e-07
-1.88024e-05 -3.45557e-05 3.55072e-06
2.4819e-07 3.55072e-06 -4.17664e-05
0.00210318 -1.94516e-05 8.3515e-06
-1.94516e-05 0.000772824 4.50479e-06
8.3515e-06 4.50479e-06 0.000792917
0.00109626 -4.40325e-05 1.26927e-05
-4.40325e-05 0.000116086 2.36195e-05
1.26927e-05 2.36195e-05 -0.00014782
0.00130878 -1.01624e-05 -5.86345e-06
-1.01624e-05 0.000113655 9.28657e-06
-5.86345e-06 9.28657e-06 -8.12779e-05
0.00134378 1.08339e-05 9.70219e-06
1.08339e-05 0.00023884 -1.36902e-05
9.70219e-06 -1.36902e-05 -7.1378e-06
0.00078469 9.91421e-06 -2.18359e-07
9.91421e-06 6.02143e-05 -6.57238e-08
-2.18359e-07 -6.57238e-08 -2.09919e-05
0.000789005 -1.408e-05 -1.6039e-07
-1.408e-05 6.42865e-05 2.51609e-07
-1.6039e-07 2.51609e-07 -1.84802e-05
0.000761395 -1.61571e-05 -5.21296e-07
-1.61571e-05 5.13268e-05 -1.49408e-06
-5.21296e-07 -1.49408e-06 -3.52117e-05
0.000687222 -2.86153e-05 -2.60942e-07
-2.86153e-05 5.84201e-06 -6.27583e-07
-2.60942e-07 -6.27583e-07 -7.53785e-05
0.000962707 5.93245e-05 -9.02687e-07
5.93245e-05 0.000171734 -8.26179e-08
-9.02687e-07 -8.26179e-08 7.71415e-05
0.000755269 -2.52779e-05 -9.30489e-08
-2.52779e-05 3.44606e-05 -2.33808e-07
-9.30489e-08 -2.33808e-07 -4.0957e-05
0.000752716 -3.87867e-06 5.06972e-07
-3.87867e-06 4.08381e-05 -8.39329e-07
5.06972e-07 -8.39329e-07 -4.52912e-05
0.000819985 1.46894e-05 -9.49127e-08
1.46894e-05 8.29785e-05 -4.32803e-08
-9.49127e-08 -4.32803e-08 -2.23545e-06
0.000881087 4.45313e-05 4.00502e-08
4.45313e-05 0.000115821 1.67277e-07
4.00502e-08 1.67277e-07 2.34775e-05
0.000943441 1.75295e-05 -2.23865e-07
1.75295e-05 0.000162823 5.6693e-07
-2.23865e-07 5.6693e-07 7.27888e-05
0.00197401 3.69935e-06 7.64483e-05
3.69935e-06 0.000463401 9.4781e-05
7.64483e-05 9.4781e-05 -0.000442514
0.00141803 2.83602e-05 5.28591e-06
2.83602e-05 0.000229845 2.2918e-05
5.28591e-06 2.2918e-05 -0.00057556
0.00241551 1.86646e-05 -7.34479e-06
1.86646e-05 0.000771325 -2.08963e-05
-7.34479e-06 -2.08963e-05 0.000303172
0.00581633 -0.000412596 -3.01879e-05
-0.000412596 0.000677935 -5.90173e-05
-3.01879e-05 -5.90173e-05 0.00190679
-0.00844464 0.000263381 -3.88649e-05
0.000263381 -0.00335025 6.74122e-05
-3.88649e-05 6.74122e-05 -0.00440755
0.00429508 -0.000716682 -7.45719e-05
-0.000716682 0.00115628 5.23961e-05
-7.45719e-05 5.23961e-05 0.000382897
0.00775428 -0.000242887 -1.11121e-05
-0.000242887 0.00269716 -4.62695e-05
-1.11121e-05 -4.62695e-05 0.000659815
0.003365 -0.000253114 -4.03815e-05
-0.000253114 0.000400564 4.38376e-05
-4.03815e-05 4.38376e-05 9.9838e-05
0.00986366 -0.000200044 5.66588e-05
-0.000200044 0.00428868 -1.56619e-05
5.66588e-05 -1.56619e-05 0.00168793
0.000891193 -0.000351381 2.54911e-05
-0.000351381 -0.000524532 8.25453e-06
2.54911e-05 8.25453e-06 -0.000930842
0.00122738 -0.000537724 -4.31295e-05
-0.000537724 -0.00189618 -9.74501e-05
-4.31295e-05 -9.74501e-05 -0.000565048
0.00469335 6.7474e-05 -0.000107172
6.7474e-05 0.000969695 -1.39503e-05
-0.000107172 -1.39503e-05 0.000697394
0.00792201 -4.44875e-05 -1.53366e-05
-4.44875e-05 0.00287885 4.33589e-05
-1.53366e-05 4.33589e-05 0.00101887
0.00778967 -0.00101864 -1.12255e-05
-0.00101864 0.0021447 -5.0451e-05
-1.12255e-05 -5.0451e-05 0.00225405
0.00353854 -0.000836048 1.95615e-05
-0.000836048 0.00034795 9.84159e-07
1.95615e-05 9.84159e-07 0.00183843
0.00061011 2.97535e-05 2.12786e-06
2.97535e-05 1.3761e-05 1.61545e-06
2.12786e-06 1.61545e-06 -5.48369e-05
0.000915899 -2.37646e-05 -4.261e-08
-2.37646e-05 0.000140177 6.07812e-07
-4.261e-08 6.07812e-07 5.68505e-05
0.000801361 1.74478e-05 -8.55943e-08
1.74478e-05 6.92213e-05 -1.11308e-06
-8.55943e-08 -1.11308e-06 -2.62944e-05
0.000268662 3.05383e-05 -3.0885e-05
3.05383e-05 0.00010035 1.87698e-05
-3.0885e-05 1.87698e-05 -0.000301675
0.00107437 -6.44262e-05 -3.59869e-05
-6.44262e-05 0.000510133 -9.82663e-06
-3.59869e-05 -9.82663e-06 0.000482545
0.000722721 -8.94366e-06 -8.10838e-07
-8.94366e-06 3.48738e-05 -4.70958e-07
-8.10838e-07 -4.70958e-07 -5.39592e-05
0.000404115 -1.85916e-05 -1.83413e-07
-1.85916e-05 -9.66188e-05 -5.20734e-06
-1.83413e-07 -5.20734e-06 -0.000175402
0.000720784 1.33223e-05 -2.80555e-07
1.33223e-05 8.0452e-05 -1.67906e-06
-2.80555e-07 -1.67906e-06 -1.20972e-07
0.000368401 2.91987e-06 -2.3064e-06
2.91987e-06 7.42758e-05 4.30006e-06
-2.3064e-06 4.30006e-06 -9.85604e-06
-1.32773e-05 -1.83435e-05 5.26788e-05
-1.83435e-05 0.000548869 -3.48256e-05
5.26788e-05 -3.48256e-05 -0.000409097
-0.000863764 -1.33906e-05 -1.03598e-05
-1.33906e-05 -0.000608489 9.0471e-06
-1.03598e-05 9.0471e-06 -0.000695381
0.00115714 0.000132643 -8.61093e-06
0.000132643 0.000552223 -3.20726e-05
-8.61093e-06 -3.20726e-05 -1.43552e-06
0.0014623 -2.92503e-06 5.90515e-05
-2.92503e-06 0.000203317 7.4817e-06
5.90515e-05 7.4817e-06 -0.000326315
0.0011663 -1.26821e-05 8.63543e-06
-1.26821e-05 0.000153372 2.25627e-06
8.63543e-06 2.25627e-06 2.33617e-06
0.000784487 -1.02759e-05 1.229e-06
-1.02759e-05 -0.00015566 -4.80051e-07
1.229e-06 -4.80051e-07 -0.000221664
-0.00150694 -3.92063e-05 -3.60818e-05
-3.92063e-05 -0.000435409 1.22913e-05
-3.60818e-05 1.22913e-05 -0.000820391
0.00279154 2.32325e-05 -3.55241e-07
2.32325e-05 7.2681e-05 -3.79537e-05
-3.55241e-07 -3.79537e-05 -9.31687e-05
0.00138682 1.07579e-05 -6.5579e-06
1.07579e-05 0.000249596 1.33438e-05
-6.5579e-06 1.33438e-05 2.33388e-05
0.0133032 -0.000433075 0.000101442
-0.000433075 0.00580942 -1.04208e-05
0.000101442 -1.04208e-05 0.00318294
0.00556708 0.000716802 -4.3332e-05
0.000716802 0.00145806 -1.14028e-06
-4.3332e-05 -1.14028e-06 0.00138346
0.00278756 -5.01916e-05 -4.71012e-05
-5.01916e-05 0.000635468 6.32665e-05
-4.71012e-05 6.32665e-05 -0.000293783
-0.00479717 0.000922591 0.000120999
0.000922591 -0.00331662 -0.000116486
0.000120999 -0.000116486 -0.00144523
0.000569163 -3.7489e-05 -7.94086e-06
-3.7489e-05 0.000248081 -8.731e-07
-7.94086e-06 -8.731e-07 0.00014026
0.00151658 -7.59477e-06 -9.17606e-06
-7.59477e-06 0.000164369 2.98981e-06
-9.17606e-06 2.98981e-06 -0.000392978
-0.00189773 0.000257912 -0.000104669
0.000257912 -1.94131e-05 4.49141e-05
-0.000104669 4.49141e-05 -0.000268789
0.00185022 -0.000290139 -2.5187e-05
-0.000290139 -0.000184201 2.99678e-05
-2.5187e-05 2.99678e-05 -0.000398335
0.00717049 0.00106608 2.48451e-05
0.00106608 0.00246829 2.35023e-05
2.48451e-05 2.35023e-05 0.00297161
0.00696629 -0.000357964 5.37522e-05
-0.000357964 0.00273668 -3.03209e-05
5.37522e-05 -3.03209e-05 0.000475042
0.00157007 -0.000207895 1.48127e-05
-0.000207895 0.000279251 1.92386e-05
1.48127e-05 1.92386e-05 0.000441075
-0.00196571 1.10714e-05 4.17247e-05
1.10714e-05 0.000132839 -9.68717e-06
4.17247e-05 -9.68717e-06 -0.000656313
0.00387312 0.000759413 -8.2808e-05
0.000759413 0.00195963 3.96849e-05
-8.2808e-05 3.96849e-05 0.0020549
0.0031579 -7.02324e-06 -9.52227e-05
-7.02324e-06 0.000832029 7.52e-05
-9.52227e-05 7.52e-05 -0.00148143
0.00274164 -0.000642717 2.97105e-05
-0.000642717 0.000243763 -2.37153e-06
2.97105e-05 -2.37153e-06 -0.000334691
0.00038715 -2.72915e-05 7.35245e-06
-2.72915e-05 0.000274792 1.08961e-05
7.35245e-06 1.08961e-05 0.000104238
0.000488718 -0.000166529 -2.37328e-06
-0.000166529 0.000107821 1.34419e-06
-2.37328e-06 1.34419e-06 -4.78917e-05
0.00272443 -0.00031579 2.29255e-05
-0.00031579 0.000834092 7.83664e-07
2.29255e-05 7.83664e-07 0.000802754
-0.00158029 -1.6677e-05 -6.24034e-06
-1.6677e-05 -0.000913913 7.08623e-06
-6.24034e-06 7.08623e-06 -0.00115964
0.00078172 -0.000197648 4.69955e-06
-0.000197648 3.71131e-05 -4.67397e-07
4.69955e-06 -4.67397e-07 -0.000193797
0.00084087 -0.000261907 5.39049e-06
-0.000261907 -0.000241459 -1.9509e-06
5.39049e-06 -1.9509e-06 -0.000412009
0.00203729 -0.00024583 -6.36461e-06
-0.00024583 0.000755264 1.40568e-06
-6.36461e-06 1.40568e-06 0.000488089
0.00118305 -0.000236801 -2.88951e-06
-0.000236801 0.000117211 -2.37634e-06
-2.88951e-06 -2.37634e-06 -0.000128499
0.00160428 -0.000297507 5.17796e-06
-0.000297507 0.000119455 -2.1504e-06
5.17796e-06 -2.1504e-06 -5.1913e-05
0.00178724 -0.000252237 -2.7686e-06
-0.000252237 0.000494619 -8.21361e-07
-2.7686e-06 -8.21361e-07 0.000247714
0.00153414 -0.00025497 -4.90016e-08
-0.00025497 0.00019643 -2.15258e-06
-4.90016e-08 -2.15258e-06 -2.2733e-05
0.00175062 -0.00026135 9.6608e-07
-0.00026135 0.00016578 -3.43136e-06
9.6608e-07 -3.43136e-06 4.50085e-06
0.00160379 -0.000211318 1.26234e-07
-0.000211318 0.000109351 -2.31468e-06
1.26234e-07 -2.31468e-06 -4.10917e-05
0.00154631 -0.000232419 8.19691e-08
-0.000232419 0.000184239 -8.37535e-07
8.19691e-08 -8.37535e-07 -8.21428e-06
0.00154399 -0.000237926 1.42849e-06
-0.000237926 0.000127804 -1.51118e-07
1.42849e-06 -1.51118e-07 -5.11721e-05
0.00155541 -0.000216261 -1.34918e-06
-0.000216261 0.000353959 4.74617e-06
-1.34918e-06 4.74617e-06 0.000163217
0.00149136 -0.000226854 -3.94891e-08
-0.000226854 0.000273655 2.81223e-07
-3.94891e-08 2.81223e-07 5.99282e-05
0.00155668 -0.000243645 -8.89201e-07
-0.000243645 0.00025608 -1.87356e-06
-8.89201e-07 -1.87356e-06 2.87562e-05
0.000998764 -0.000155728 1.50701e-06
-0.000155728 0.000151767 -1.2371e-06
1.50701e-06 -1.2371e-06 1.96369e-06
0.000632907 -0.000136665 -4.62431e-07
-0.000136665 -5.93192e-05 -1.92529e-06
-4.62431e-07 -1.92529e-06 -0.000211414
0.00130521 -0.000185934 4.17003e-06
-0.000185934 0.000292978 -4.57911e-06
4.17003e-06 -4.57911e-06 0.000124215
0.000809751 -8.29956e-05 4.05774e-07
-8.29956e-05 8.27197e-05 1.26979e-06
4.05774e-07 1.26979e-06 -3.88799e-05
0.000886074 -0.000128252 2.52904e-07
-0.000128252 0.000133557 5.01777e-07
2.52904e-07 5.01777e-07 -1.12396e-05
0.000860694 -0.000139353 -7.08107e-07
-0.000139353 0.000112542 1.22059e-06
-7.08107e-07 1.22059e-06 -3.9036e-05
0.000652792 7.91187e-05 1.60054e-06
7.91187e-05 7.32867e-06 3.12816e-06
1.60054e-06 3.12816e-06 -6.65493e-05
0.000803621 -1.47641e-05 1.20837e-07
-1.47641e-05 9.62891e-05 -9.9727e-08
1.20837e-07 -9.9727e-08 -1.02655e-05
0.000888359 -7.56728e-05 -1.08618e-06
-7.56728e-05 0.000154207 4.2324e-08
-1.08618e-06 4.2324e-08 3.16989e-05
0.00130915 7.23838e-05 -1.38071e-05
7.23838e-05 0.000369684 3.06834e-06
-1.38071e-05 3.06834e-06 0.000351477
0.000677637 4.98874e-05 -5.34404e-07
4.98874e-05 8.82554e-06 -4.38742e-07
-5.34404e-07 -4.38742e-07 -4.69912e-05
0.000798929 -1.54912e-05 4.69318e-08
-1.54912e-05 8.43933e-05 -1.59276e-06
4.69318e-08 -1.59276e-06 -2.67853e-06
0.00078696 4.09479e-05 -2.41139e-05
4.09479e-05 7.09059e-05 3.25199e-06
-2.41139e-05 3.25199e-06 7.51335e-05
0.00100448 6.04494e-05 -6.68969e-06
6.04494e-05 0.000187142 2.53588e-07
-6.68969e-06 2.53588e-07 0.000171461
0.000701425 4.85199e-05 2.777e-07
4.85199e-05 1.32742e-05 -1.96869e-06
2.777e-07 -1.96869e-06 -3.3358e-05
0.000666317 4.8011e-05 1.04328e-06
4.8011e-05 -1.31647e-05 -3.47552e-06
1.04328e-06 -3.47552e-06 -2.74882e-05
0.00216281 6.89359e-05 1.46994e-06
6.89359e-05 0.000838975 1.25541e-07
1.46994e-06 1.25541e-07 0.00085048
0.00216557 6.07204e-05 2.29515e-05
6.07204e-05 0.000833112 -3.4497e-06
2.29515e-05 -3.4497e-06 0.000846553
0.000739399 -7.70458e-06 1.3036e-07
-7.70458e-06 3.68021e-05 -9.88827e-07
1.3036e-07 -9.88827e-07 -4.75892e-05
0.00080038 2.71726e-05 -4.26739e-07
2.71726e-05 6.95803e-05 -1.33432e-06
-4.26739e-07 -1.33432e-06 -7.88037e-06
0.000778323 -1.05813e-05 1.29829e-07
-1.05813e-05 5.825e-05 -6.97006e-08
1.29829e-07 -6.97006e-08 -2.31856e-05
0.000717316 -2.89632e-05 -9.54105e-07
-2.89632e-05 5.74047e-06 -2.04902e-06
-9.54105e-07 -2.04902e-06 -4.21509e-05
0.000785562 1.68609e-05 6.82691e-07
1.68609e-05 5.57416e-05 -3.82895e-08
6.82691e-07 -3.82895e-08 -1.60586e-05
0.000642781 -3.88318e-05 -4.14352e-07
-3.88318e-05 -3.77315e-05 -3.99762e-06
-4.14352e-07 -3.99762e-06 -5.31481e-05
0.000716177 -1.41837e-05 -1.5798e-07
-1.41837e-05 2.56248e-06 -5.14789e-09
-1.5798e-07 -5.14789e-09 -4.30381e-05
0.000799593 4.78501e-05 8.9838e-07
4.78501e-05 7.16779e-05 7.37356e-07
8.9838e-07 7.37356e-07 -4.49976e-06
0.00232181 -5.19576e-05 -2.18419e-05
-5.19576e-05 0.000910738 -4.12074e-06
-2.18419e-05 -4.12074e-06 0.00092518
0.000655588 -3.19018e-05 -3.0394e-07
-3.19018e-05 -3.68728e-05 -8.63392e-09
-3.0394e-07 -8.63392e-09 -4.93878e-05
0.000727288 -1.05781e-05 3.90069e-07
-1.05781e-05 8.23194e-06 1.88059e-06
3.90069e-07 1.88059e-06 -3.49214e-05
0.00223119 -4.11223e-05 -2.67349e-06
-4.11223e-05 0.000853462 1.11596e-07
-2.67349e-06 1.11596e-07 0.000870191
0.000667585 -2.51406e-05 2.64365e-07
-2.51406e-05 -3.55593e-05 3.65403e-06
2.64365e-07 3.65403e-06 -4.52127e-05
0.00215276 -2.98167e-05 1.22011e-05
-2.98167e-05 0.000804069 4.42524e-06
1.22011e-05 4.42524e-06 0.000822828
0.00216168 -4.67784e-05 5.80861e-05
-4.67784e-05 0.00054886 3.1431e-05
5.80861e-05 3.1431e-05 6.81137e-05
0.00117324 -3.97558e-05 6.69217e-07
-3.97558e-05 0.000162404 7.65966e-06
6.69217e-07 7.65966e-06 -9.07277e-05
0.00111724 -1.36207e-05 -5.2379e-06
-1.36207e-05 1.78869e-05 -5.61282e-06
-5.2379e-06 -5.61282e-06 -0.000153396
0.000859218 6.02641e-05 -1.56489e-06
6.02641e-05 0.000117192 -4.88802e-07
-1.56489e-06 -4.88802e-07 2.07861e-05
0.000848222 7.10902e-06 1.92681e-07
7.10902e-06 9.47839e-05 9.62239e-08
1.92681e-07 9.62239e-08 1.43711e-05
0.000755819 -2.33791e-05 1.53347e-07
-2.33791e-05 4.57343e-05 3.92798e-07
1.53347e-07 3.92798e-07 -3.72333e-05
0.00083852 -1.56664e-05 8.90243e-08
-1.56664e-05 8.69483e-05 -1.27348e-07
8.90243e-08 -1.27348e-07 7.09633e-06
0.000874819 1.51234e-05 8.18047e-08
1.51234e-05 0.000115285 -2.82511e-07
8.18047e-08 -2.82511e-07 2.69399e-05
0.000848176 4.13254e-05 2.41974e-07
4.13254e-05 0.000106527 6.65163e-07
2.41974e-07 6.65163e-07 1.36449e-05
0.000861488 2.79978e-05 -5.12067e-07
2.79978e-05 0.000115425 -1.45731e-06
-5.12067e-07 -1.45731e-06 1.75425e-05
0.0006031 -2.21517e-05 1.60281e-07
-2.21517e-05 -3.2659e-05 -1.02011e-07
1.60281e-07 -1.02011e-07 -0.000120262
0.000824992 6.60387e-05 2.61588e-07
6.60387e-05 8.87477e-05 -4.89326e-07
2.61588e-07 -4.89326e-07 1.26366e-06
0.000834959 -3.64006e-05 8.18526e-07
-3.64006e-05 7.57387e-05 -7.367e-07
8.18526e-07 -7.367e-07 -6.45852e-06
0.000841208 1.32788e-05 -1.87578e-07
1.32788e-05 0.000101908 1.27285e-07
-1.87578e-07 1.27285e-07 1.52601e-05
0.00132237 3.713e-05 4.39268e-06
3.713e-05 0.000395263 2.32533e-06
4.39268e-06 2.32533e-06 0.00031109
0.00115186 -0.000379734 6.52026e-05
-0.000379734 0.00102148 6.79044e-05
6.52026e-05 6.79044e-05 0.000833628
0.00223381 1.96204e-05 4.79505e-06
1.96204e-05 0.000594765 2.14488e-05
4.79505e-06 2.14488e-05 -0.000346294
0.00164731 3.69228e-05 -1.29958e-05
3.69228e-05 0.000271558 -3.83699e-05
-1.29958e-05 -3.83699e-05 -0.000541691
0.0051205 -0.000697984 -8.44761e-05
-0.000697984 0.000146386 -7.36296e-05
-8.44761e-05 -7.36296e-05 0.00156806
0.00375551 -0.000239132 -3.70952e-06
-0.000239132 0.000352678 3.31279e-05
-3.70952e-06 3.31279e-05 -0.000118381
0.000624332 -0.000396202 -8.92573e-05
-0.000396202 -0.00012389 6.12024e-05
-8.92573e-05 6.12024e-05 -0.0023261
0.00300601 -0.000199495 -5.32982e-05
-0.000199495 0.000425351 9.29424e-05
-5.32982e-05 9.29424e-05 -4.4304e-05
0.00417367 -0.000170312 3.25308e-07
-0.000170312 0.000740662 3.62622e-05
3.25308e-07 3.62622e-05 0.000624045
-0.000657915 -0.000826944 1.29972e-05
-0.000826944 -0.00143868 2.55693e-05
1.29972e-05 2.55693e-05 0.000190541
0.00546872 0.000197099 7.61426e-06
0.000197099 0.00247614 1.61358e-05
7.61426e-06 1.61358e-05 -0.000140813
0.00112471 -0.000508955 -7.45662e-06
-0.000508955 -0.0012551 1.51421e-05
-7.45662e-06 1.51421e-05 -0.000970634
0.00226574 0.000223062 -3.75064e-05
0.000223062 1.86079e-05 -4.53254e-06
-3.75064e-05 -4.53254e-06 -0.000191024
0.00869979 -0.000212585 -4.02502e-05
-0.000212585 0.00395323 3.60305e-05
-4.02502e-05 3.60305e-05 0.00182174
-0.000282828 -0.000624324 -7.07625e-05
-0.000624324 -0.000635734 -5.59003e-05
-7.07625e-05 -5.59003e-05 -0.000138233
0.000512017 0.00016061 5.96794e-07
0.00016061 -6.14389e-05 -2.87922e-06
5.96794e-07 -2.87922e-06 -0.000132866
0.000912441 3.89549e-05 4.9436e-06
3.89549e-05 0.000173131 3.82664e-09
4.9436e-06 3.82664e-09 0.000105904
0.000956703 -3.39497e-06 -7.95637e-07
-3.39497e-06 0.00016694 -1.5663e-07
-7.95637e-07 -1.5663e-07 8.26e-05
-0.000537214 -4.49943e-06 -7.03109e-05
-4.49943e-06 0.000151435 -1.49413e-05
-7.03109e-05 -1.49413e-05 -0.000746872
-0.000778096 4.46478e-05 5.55132e-06
4.46478e-05 -0.000552414 -6.60017e-06
5.55132e-06 -6.60017e-06 -0.000639584
0.000832875 4.53221e-05 7.48507e-07
4.53221e-05 0.000143726 -2.79944e-06
7.48507e-07 -2.79944e-06 6.03303e-05
0.000786311 0.000105733 3.73941e-06
0.000105733 0.000221634 2.15644e-06
3.73941e-06 2.15644e-06 0.000125964
0.000813225 0.00017142 9.62743e-07
0.00017142 0.000318841 -2.32434e-05
9.62743e-07 -2.32434e-05 -0.000121339
0.000488172 0.000257567 1.64587e-05
0.000257567 -0.000122027 5.87663e-06
1.64587e-05 5.87663e-06 -0.00030127
0.000301871 1.01807e-05 0.000101327
1.01807e-05 0.00143376 1.49097e-06
0.000101327 1.49097e-06 0.000663196
0.00148064 -2.25271e-05 -5.66218e-06
-2.25271e-05 0.000262105 6.99511e-06
-5.66218e-06 6.99511e-06 -0.000179601
0.000946461 -1.1268e-05 -1.2681e-06
-1.1268e-05 4.58066e-05 1.76953e-06
-1.2681e-06 1.76953e-06 -8.68274e-05
0.000943018 -5.14433e-05 -2.24282e-05
-5.14433e-05 0.000480702 5.61229e-06
-2.24282e-05 5.61229e-06 0.00037366
0.00101759 -0.000199402 -1.53015e-06
-0.000199402 -0.00084224 -2.01061e-05
-1.53015e-06 -2.01061e-05 -0.000814117
0.00173576 -3.06717e-06 -7.24939e-05
-3.06717e-06 0.00032086 1.99953e-05
-7.24939e-05 1.99953e-05 -0.000240528
-0.000850371 -0.000448978 3.68439e-05
-0.000448978 -0.000780911 -4.02221e-05
3.68439e-05 -4.02221e-05 -0.00314286
-0.00356848 0.000533251 2.22786e-05
0.000533251 -0.00307531 -4.50685e-05
2.22786e-05 -4.50685e-05 -0.00243442
0.00136614 0.000402321 -8.22827e-05
0.000402321 0.00135596 6.76907e-05
-8.22827e-05 6.76907e-05 0.00145884
0.00179147 -0.000112873 -2.3378e-06
-0.000112873 0.000234538 2.70808e-06
-2.3378e-06 2.70808e-06 0.000523263
0.00145174 0.000151657 4.71446e-06
0.000151657 0.001687 6.38789e-06
4.71446e-06 6.38789e-06 0.00127889
-0.00353462 0.000381262 2.92988e-05
0.000381262 -0.00121799 1.12427e-06
2.92988e-05 1.12427e-06 -0.00167908
0.00410863 -0.000691073 1.85801e-06
-0.000691073 0.00119172 3.6493e-07
1.85801e-06 3.6493e-07 0.000226009
0.009092 0.0001799 1.49959e-05
0.0001799 0.00355549 -2.30694e-06
1.49959e-05 -2.30694e-06 0.00182722
0.000702598 -0.000234114 2.25978e-06
-0.000234114 -0.000244871 1.61033e-05
2.25978e-06 1.61033e-05 -0.000153523
-0.0062612 0.000162775 -7.86464e-05
0.000162775 -0.00313798 1.14026e-07
-7.86464e-05 1.14026e-07 -0.00339093
0.00673424 0.000112026 -2.06787e-05
0.000112026 0.0021882 1.05915e-05
-2.06787e-05 1.05915e-05 0.000759039
0.00540715 -0.000692991 1.61662e-06
-0.000692991 0.000860185 1.32003e-05
1.61662e-06 1.32003e-05 -2.23518e-05
3.17031e-05 -0.000132676 -1.86421e-05
-0.000132676 -0.000100114 1.32718e-05
-1.86421e-05 1.32718e-05 -0.000296414
0.00128957 -0.000233359 -1.58948e-06
-0.000233359 7.46645e-05 8.10155e-07
-1.58948e-06 8.10155e-07 9.33657e-05
0.00205504 -0.000266578 1.59259e-05
-0.000266578 0.000237044 -2.73763e-06
1.59259e-05 -2.73763e-06 0.000283559
-0.00010821 -0.000127966 -5.69539e-06
-0.000127966 -0.000388918 1.12036e-06
-5.69539e-06 1.12036e-06 -0.000628329
0.00121438 -0.000283294 -3.75977e-06
-0.000283294 -3.99453e-05 -1.12297e-06
-3.75977e-06 -1.12297e-06 -0.000216396
0.00193272 -0.000333558 3.48502e-06
-0.000333558 0.000155668 -1.41947e-07
3.48502e-06 -1.41947e-07 3.02995e-05
0.00160235 -0.000260851 -6.74196e-06
-0.000260851 0.000332791 -1.88348e-06
-6.74196e-06 -1.88348e-06 9.59062e-05
0.00156657 -0.000290982 2.03515e-06
-0.000290982 0.000114573 6.9601e-07
2.03515e-06 6.9601e-07 -6.00989e-05
0.00192997 -0.000272119 6.50164e-07
-0.000272119 0.000189099 -3.82445e-06
6.50164e-07 -3.82445e-06 5.92627e-05
0.00146843 -0.000249285 -4.26179e-06
-0.000249285 0.000155738 4.61811e-07
-4.26179e-06 4.61811e-07 -5.76928e-05
0.00162738 -0.000252386 -3.0691e-08
-0.000252386 9.93919e-05 5.58262e-07
-3.0691e-08 5.58262e-07 -6.06478e-05
0.00180199 -0.000219194 -1.1262e-07
-0.000219194 0.00014848 -4.1367e-06
-1.1262e-07 -4.1367e-06 2.52204e-05
0.00160099 -0.000178125 -3.42594e-07
-0.000178125 7.55557e-05 -2.52982e-06
-3.42594e-07 -2.52982e-06 -5.11806e-05
0.00166887 -0.000211671 -6.86333e-07
-0.000211671 0.000181343 -1.67142e-06
-6.86333e-07 -1.67142e-06 1.9772e-05
0.00159844 -0.000208462 1.47995e-07
-0.000208462 0.000106232 5.85795e-07
1.47995e-07 5.85795e-07 -4.28002e-05
0.00115207 -0.000195896 -2.40483e-06
-0.000195896 2.68323e-05 9.22014e-07
-2.40483e-06 9.22014e-07 -0.000159211
0.00155355 -0.000229736 1.96765e-06
-0.000229736 0.000190355 -5.98275e-07
1.96765e-06 -5.98275e-07 5.4295e-07
0.0014985 -0.000234213 1.55038e-06
-0.000234213 0.00010364 2.00182e-06
1.55038e-06 2.00182e-06 -7.42345e-05
0.00109519 -0.000172578 4.54271e-07
-0.000172578 0.000148226 2.33502e-06
4.54271e-07 2.33502e-06 -1.63897e-05
0.00104106 -0.000180426 1.66558e-06
-0.000180426 7.98307e-05 -8.86648e-07
1.66558e-06 -8.86648e-07 -0.000106774
0.000766352 -0.000178481 -6.11696e-07
-0.000178481 -0.000115851 -3.19636e-06
-6.11696e-07 -3.19636e-06 -0.000331293
0.000925636 -0.000133202 -1.49741e-06
-0.000133202 0.000109506 3.27263e-07
-1.49741e-06 3.27263e-07 -2.0637e-05
0.00106423 -0.000159561 -1.33231e-07
-0.000159561 0.000183288 -9.16578e-07
-1.33231e-07 -9.16578e-07 3.32699e-05
0.000804484 -0.000146749 -1.52462e-06
-0.000146749 4.01197e-05 -4.30476e-06
-1.52462e-06 -4.30476e-06 -0.000108911
0.000740835 -9.79089e-06 2.24582e-07
-9.79089e-06 4.39884e-05 3.38282e-06
2.24582e-07 3.38282e-06 -4.26738e-05
0.000916601 -8.52354e-05 1.03684e-06
-8.52354e-05 0.000140372 4.1775e-07
1.03684e-06 4.1775e-07 1.83235e-05
0.000680852 -0.000101176 -8.4414e-07
-0.000101176 2.04253e-05 1.34314e-06
-8.4414e-07 1.34314e-06 -0.000120683
0.000535791 6.90224e-05 3.96567e-07
6.90224e-05 -5.45951e-05 4.87017e-06
3.96567e-07 4.87017e-06 -8.49749e-05
0.000690373 1.76701e-05 -6.45547e-07
1.76701e-05 2.04962e-05 -4.31827e-07
-6.45547e-07 -4.31827e-07 -5.06922e-05
0.00089739 -4.15455e-05 -1.82217e-07
-4.15455e-05 0.000149682 -1.79755e-06
-1.82217e-07 -1.79755e-06 3.99401e-05
0.00224378 9.49845e-05 -9.42917e-06
9.49845e-05 0.000902632 1.25157e-06
-9.42917e-06 1.25157e-06 0.000906874
0.000630048 6.20114e-05 -7.74274e-08
6.20114e-05 -1.1994e-05 -1.02869e-07
-7.74274e-08 -1.02869e-07 -3.48932e-05
0.000689268 2.89307e-05 1.22427e-06
2.89307e-05 1.21039e-05 -2.41879e-06
1.22427e-06 -2.41879e-06 -4.22651e-05
0.00218812 7.71142e-05 1.55342e-06
7.71142e-05 0.000861444 1.2636e-07
1.55342e-06 1.2636e-07 0.000870738
0.00066792 5.57376e-05 6.97484e-07
5.57376e-05 -1.91161e-06 -3.69785e-06
6.97484e-07 -3.69785e-06 -1.97805e-05
0.00219156 6.99037e-05 2.65135e-05
6.99037e-05 0.000856147 -3.14334e-06
2.65135e-05 -3.14334e-06 0.00086736
0.000876041 5.20042e-05 -4.31529e-07
5.20042e-05 0.000118475 -1.20281e-07
-4.31529e-07 -1.20281e-07 2.65815e-05
0.000783457 5.02469e-06 -8.73518e-08
5.02469e-06 6.17784e-05 -2.97665e-07
-8.73518e-08 -2.97665e-07 -2.36765e-05
0.000785967 1.02002e-05 -2.25302e-07
1.02002e-05 6.76031e-05 -1.73631e-06
-2.25302e-07 -1.73631e-06 -1.62231e-05
0.000708396 -3.35305e-05 -9.61648e-07
-3.35305e-05 5.87889e-06 -2.39193e-06
-9.61648e-07 -2.39193e-06 -4.44061e-05
0.00076034 -1.32496e-06 7.9005e-07
-1.32496e-06 4.70528e-05 -4.16371e-08
7.9005e-07 -4.16371e-08 -2.92731e-05
0.000739912 2.09599e-06 5.87473e-07
2.09599e-06 4.02589e-05 6.03248e-07
5.87473e-07 6.03248e-07 -4.38788e-05
0.000640053 -4.47777e-05 -7.9782e-07
-4.47777e-05 -3.25707e-05 -4.16301e-06
-7.9782e-07 -4.16301e-06 -5.04295e-05
0.000710565 -2.18519e-05 -1.71443e-07
-2.18519e-05 2.00428e-06 -1.04571e-09
-1.71443e-07 -1.04571e-09 -4.56772e-05
0.000767033 9.84507e-06 1.21774e-06
9.84507e-06 4.41661e-05 8.17035e-07
1.21774e-06 8.17035e-07 -2.63538e-05
0.00237624 -6.15296e-05 -2.6527e-05
-6.15296e-05 0.000947633 -3.87368e-06
-2.6527e-05 -3.87368e-06 0.000960073
0.000640979 -3.77191e-05 -2.72906e-07
-3.77191e-05 -3.89585e-05 1.24789e-08
-2.72906e-07 1.24789e-08 -5.42128e-05
0.000719532 -1.24033e-05 8.57587e-07
-1.24033e-05 4.94118e-06 1.92841e-06
8.57587e-07 1.92841e-06 -4.07102e-05
0.00229841 -5.12963e-05 -2.83854e-06
-5.12963e-05 0.000896912 1.40889e-07
-2.83854e-06 1.40889e-07 0.000911617
0.0006536 -3.12177e-05 2.22978e-07
-3.12177e-05 -3.8067e-05 3.81091e-06
2.22978e-07 3.81091e-06 -5.04717e-05
0.00220895 -4.01824e-05 1.60992e-05
-4.01824e-05 0.000840267 4.3095e-06
1.60992e-05 4.3095e-06 0.000857303
-0.00275802 -9.32251e-05 3.18323e-05
-9.32251e-05 -0.000210427 2.50062e-05
3.18323e-05 2.50062e-05 -0.00111999
0.00211749 -6.0757e-05 1.94748e-06
-6.0757e-05 0.000562816 9.19087e-06
1.94748e-06 9.19087e-06 8.50129e-05
0.00124152 -3.54791e-05 -8.46511e-06
-3.54791e-05 0.000200366 -8.03579e-06
-8.46511e-06 -8.03579e-06 -4.17423e-05
0.000770133 2.38574e-05 -7.55613e-07
2.38574e-05 6.46803e-05 5.92529e-07
-7.55613e-07 5.92529e-07 -2.79252e-05
0.0011761 0.00014524 3.10383e-08
0.00014524 0.000303426 7.06033e-07
3.10383e-08 7.06033e-07 0.000186912
0.000822867 2.86888e-05 -9.14187e-07
2.86888e-05 0.000101056 8.74571e-08
-9.14187e-07 8.74571e-08 3.29872e-07
0.000940942 -2.44042e-05 3.16978e-07
-2.44042e-05 0.000143327 -3.33998e-07
3.16978e-07 -3.33998e-07 6.36485e-05
0.000957171 4.67064e-05 9.46781e-07
4.67064e-05 0.000159313 3.96506e-07
9.46781e-07 3.96506e-07 7.12451e-05
0.000667804 -4.45276e-06 -2.61216e-07
-4.45276e-06 3.08511e-07 1.44585e-06
-2.61216e-07 1.44585e-06 -8.65054e-05
0.000714388 1.16854e-05 -8.37483e-07
1.16854e-05 3.36088e-05 -2.02243e-08
-8.37483e-07 -2.02243e-08 -5.94977e-05
0.000789782 1.43487e-05 1.50434e-07
1.43487e-05 7.40871e-05 -2.50434e-07
1.50434e-07 -2.50434e-07 -2.20234e-05
0.00094638 5.92466e-05 1.19157e-06
5.92466e-05 0.000182742 -1.51451e-06
1.19157e-06 -1.51451e-06 6.9245e-05
0.000863702 9.86407e-05 4.35288e-06
9.86407e-05 8.64426e-05 -5.69349e-06
4.35288e-06 -5.69349e-06 -5.69737e-06
0.000815323 4.03929e-05 -6.12674e-08
4.03929e-05 8.97717e-05 -7.71647e-07
-6.12674e-08 -7.71647e-07 -2.86502e-07
0.000921852 5.18668e-05 7.52501e-07
5.18668e-05 0.000175367 1.20233e-06
7.52501e-07 1.20233e-06 8.90095e-05
-0.00378534 -0.000415306 -9.73073e-05
-0.000415306 -0.00142455 1.6698e-05
-9.73073e-05 1.6698e-05 -0.00171977
-0.00112091 -0.000343371 4.98877e-05
-0.000343371 0.000122388 1.95241e-05
4.98877e-05 1.95241e-05 -0.000232493
0.00247713 1.4835e-05 -6.41269e-05
1.4835e-05 0.000740814 -5.24575e-05
-6.41269e-05 -5.24575e-05 -0.000234667
-0.0048563 -0.000838471 8.42796e-05
-0.000838471 -0.00320875 0.000101102
8.42796e-05 0.000101102 -0.00142321
0.00666648 -0.000732303 -5.91621e-06
-0.000732303 0.00194376 1.31489e-05
-5.91621e-06 1.31489e-05 0.00207882
0.00172033 0.000516218 5.47919e-05
0.000516218 0.000337282 -1.76929e-05
5.47919e-05 -1.76929e-05 -0.00218581
0.00321671 -0.000199895 -0.000146815
-0.000199895 0.00048521 7.56786e-05
-0.000146815 7.56786e-05 -0.000139066
0.00308648 0.000173131 -2.4962e-05
0.000173131 0.000429655 8.52529e-06
-2.4962e-05 8.52529e-06 0.000123629
0.00572253 -0.000909287 -3.07345e-05
-0.000909287 0.00257917 2.79163e-05
-3.07345e-05 2.79163e-05 0.00282417
0.00185002 0.000185865 8.57096e-06
0.000185865 0.000619078 7.82105e-06
8.57096e-06 7.82105e-06 -0.00155966
0.00251813 0.000451344 -0.000112431
0.000451344 0.000679267 -7.13419e-05
-0.000112431 -7.13419e-05 -5.73949e-05
0.00168178 0.00056611 -0.000166888
0.00056611 5.72656e-05 -6.22575e-05
-0.000166888 -6.22575e-05 -0.00197744
0.0021396 0.000381854 1.00585e-05
0.000381854 0.000557386 -1.13384e-05
1.00585e-05 -1.13384e-05 0.000402861
0.000785636 0.000162168 -3.58266e-06
0.000162168 8.0638e-05 1.06606e-06
-3.58266e-06 1.06606e-06 1.03553e-05
0.00107389 3.79926e-05 -1.28306e-06
3.79926e-05 0.000256161 -2.73018e-06
-1.28306e-06 -2.73018e-06 0.000189969
-0.000104401 0.000143557 -3.12842e-05
0.000143557 -0.00011043 -2.17502e-05
-3.12842e-05 -2.17502e-05 -0.000453989
0.0017929 0.000172155 -7.28884e-06
0.000172155 0.00071788 -7.19719e-06
-7.28884e-06 -7.19719e-06 0.000615281
0.00119869 0.000313271 8.52243e-06
0.000313271 0.000155529 -1.60553e-06
8.52243e-06 -1.60553e-06 -1.2933e-05
0.00234281 0.000469262 6.92833e-05
0.000469262 0.000190459 3.45784e-05
6.92833e-05 3.45784e-05 0.00015809
-0.00365487 -4.56126e-05 -0.000146273
-4.56126e-05 -0.00195025 -9.28049e-06
-0.000146273 -9.28049e-06 -0.00161414
-0.000802575 1.45958e-06 4.5382e-05
1.45958e-06 0.000951645 8.66959e-07
4.5382e-05 8.66959e-07 0.000116616
0.00157474 -3.50772e-05 -5.4279e-05
-3.50772e-05 0.000346124 6.86852e-06
-5.4279e-05 6.86852e-06 -5.66454e-06
0.0021505 -0.000182341 -4.26128e-05
-0.000182341 0.000369363 -2.37353e-05
-4.26128e-05 -2.37353e-05 0.00064937
0.0032714 -0.000692247 -4.94167e-05
-0.000692247 0.00052888 1.60154e-06
-4.94167e-05 1.60154e-06 -0.000220559
0.00174009 0.000116319 -4.07647e-05
0.000116319 0.00187255 2.36352e-05
-4.07647e-05 2.36352e-05 0.00148369
-0.00127438 -0.000239578 8.61072e-05
-0.000239578 -0.00106668 -7.19301e-05
8.61072e-05 -7.19301e-05 -0.00326769
0.00868153 0.000514967 -3.97843e-05
0.000514967 0.00433761 5.53947e-06
-3.97843e-05 5.53947e-06 0.00419412
0.00194955 -0.000370376 -3.6129e-06
-0.000370376 0.000301988 2.21576e-06
-3.6129e-06 2.21576e-06 0.000283659
-0.00110872 0.000303508 5.29297e-07
0.000303508 -0.000439822 -4.45728e-06
5.29297e-07 -4.45728e-06 -0.000683372
0.00362652 0.000113257 -1.87155e-05
0.000113257 0.000625792 2.70213e-05
-1.87155e-05 2.70213e-05 -0.00121171
0.00564602 -0.000697376 -3.77532e-05
-0.000697376 0.001447 1.12156e-05
-3.77532e-05 1.12156e-05 0.00058228
-0.000897747 -0.000147744 1.79129e-05
-0.000147744 -0.000953459 -4.77815e-06
1.79129e-05 -4.77815e-06 -0.00117194
0.00831375 -0.000163955 4.90899e-05
-0.000163955 0.00244049 -6.22197e-06
4.90899e-05 -6.22197e-06 0.00146605
0.00390905 -0.000255338 2.8729e-05
-0.000255338 0.000667048 -1.79953e-05
2.8729e-05 -1.79953e-05 9.51899e-05
-0.000237967 -0.000148586 -1.98884e-05
-0.000148586 -0.000732733 6.09075e-06
-1.98884e-05 6.09075e-06 -0.000664017
0.00099569 -0.000224195 -1.3082e-06
-0.000224195 -0.000319124 -9.08274e-07
-1.3082e-06 -9.08274e-07 -0.000258429
0.00220037 -0.000307047 1.36755e-05
-0.000307047 0.000142773 -1.29683e-05
1.36755e-05 -1.29683e-05 0.000196616
0.00154023 -0.000300809 -1.11454e-05
-0.000300809 0.000136906 -1.44025e-06
-1.11454e-05 -1.44025e-06 -4.19789e-05
0.00165357 -0.000317251 -4.8473e-07
-0.000317251 4.99172e-06 6.16911e-07
-4.8473e-07 6.16911e-07 -0.000112088
0.00208079 -0.000293234 -1.75259e-06
-0.000293234 0.000149853 -6.10701e-07
-1.75259e-06 -6.10701e-07 7.37823e-05
0.00136107 -0.000275108 -9.17751e-07
-0.000275108 1.93535e-05 2.6617e-06
-9.17751e-07 2.6617e-06 -0.000157446
0.00174957 -0.000265273 -2.12868e-06
-0.000265273 8.9789e-05 -5.17635e-07
-2.12868e-06 -5.17635e-07 -3.9955e-05
0.00191742 -0.000220319 -8.35304e-07
-0.000220319 0.000117573 -1.78651e-06
-8.35304e-07 -1.78651e-06 2.33583e-05
0.00150568 -0.000243654 1.2547e-06
-0.000243654 3.35933e-05 3.25025e-06
1.2547e-06 3.25025e-06 -0.000125219
0.00167549 -0.000209588 -2.55692e-07
-0.000209588 8.47455e-05 -5.22028e-08
-2.55692e-07 -5.22028e-08 -3.70616e-05
0.00171136 -0.000176625 3.01891e-07
-0.000176625 8.23448e-05 -1.98424e-06
3.01891e-07 -1.98424e-06 -1.627e-05
0.00176724 -0.00016259 1.39222e-07
-0.00016259 0.000158511 -9.16525e-07
1.39222e-07 -9.16525e-07 4.85036e-05
0.00158224 -0.000174421 -2.1159e-06
-0.000174421 6.58669e-05 1.84809e-06
-2.1159e-06 1.84809e-06 -5.80076e-05
0.00169203 -0.000179112 1.25976e-06
-0.000179112 0.000162308 -3.60857e-06
1.25976e-06 -3.60857e-06 2.57872e-05
0.00181847 -0.000213148 -2.64874e-06
-0.000213148 0.000303056 -1.06384e-06
-2.64874e-06 -1.06384e-06 0.000140282
0.00163005 -0.000209003 1.19675e-06
-0.000209003 0.000158779 4.2964e-07
1.19675e-06 4.2964e-07 -1.9012e-06
0.00159455 -0.000205438 -8.81348e-07
-0.000205438 0.000104424 3.65086e-06
-8.81348e-07 3.65086e-06 -4.31587e-05
0.00096931 -0.000173365 -4.51901e-06
-0.000173365 -1.71428e-05 3.2882e-06
-4.51901e-06 3.2882e-06 -0.000190336
0.00139232 -0.000207946 6.50658e-07
-0.000207946 0.000161418 -2.02841e-07
6.50658e-07 -2.02841e-07 -2.43955e-05
0.00149928 -0.000223396 3.06068e-06
-0.000223396 0.000162469 1.04745e-07
3.06068e-06 1.04745e-07 -2.43815e-05
0.000981514 -0.000147712 -1.6071e-06
-0.000147712 0.000103936 1.31794e-06
-1.6071e-06 1.31794e-06 -3.71814e-05
0.00114025 -0.000174337 4.27503e-07
-0.000174337 0.000169314 -1.48215e-07
4.27503e-07 -1.48215e-07 4.64928e-06
0.000597859 -0.000149454 8.74556e-08
-0.000149454 -0.000155153 -5.00352e-06
8.74556e-08 -5.00352e-06 -0.000337353
0.000757198 -6.94351e-05 -3.24236e-06
-6.94351e-05 3.59304e-05 2.79741e-06
-3.24236e-06 2.79741e-06 -6.26246e-05
0.00103297 -0.000141866 1.44032e-07
-0.000141866 0.000166984 -1.86915e-07
1.44032e-07 -1.86915e-07 3.5773e-05
0.00112128 -0.000162806 1.02735e-07
-0.000162806 0.000210562 -1.44964e-06
1.02735e-07 -1.44964e-06 6.03441e-05
0.00050972 6.27273e-05 1.98617e-06
6.27273e-05 -6.75572e-05 6.56304e-06
1.98617e-06 6.56304e-06 -0.000106762
0.000750103 -2.6293e-05 3.01925e-07
-2.6293e-05 5.13404e-05 1.89993e-07
3.01925e-07 1.89993e-07 -3.88577e-05
0.00104711 -9.52281e-05 1.17444e-06
-9.52281e-05 0.000212215 -3.39897e-07
1.17444e-06 -3.39897e-07 8.83174e-05
0.0024672 9.8877e-05 -3.758e-05
9.8877e-05 0.00103228 2.42901e-06
-3.758e-05 2.42901e-06 0.00103527
0.00059379 6.97086e-05 -3.68204e-07
6.97086e-05 -2.19612e-05 -3.37179e-07
-3.68204e-07 -3.37179e-07 -5.30006e-05
0.000724458 -2.24982e-05 2.18496e-06
-2.24982e-05 3.60762e-05 -3.34386e-06
2.18496e-06 -3.34386e-06 -3.49657e-05
0.00159595 7.28008e-05 1.53988e-05
7.28008e-05 0.000535765 -4.18987e-07
1.53988e-05 -4.18987e-07 0.000538431
0.000661914 6.60932e-05 -8.78332e-07
6.60932e-05 6.98203e-06 -4.50003e-06
-8.78332e-07 -4.50003e-06 -1.68709e-05
0.00226527 7.91046e-05 3.14417e-05
7.91046e-05 0.00090583 -2.80559e-06
3.14417e-05 -2.80559e-06 0.000914545
0.000892095 6.91874e-05 7.59775e-07
6.91874e-05 0.000125111 4.09452e-07
7.59775e-07 4.09452e-07 2.61408e-05
0.000789981 1.4478e-05 -2.35024e-07
1.4478e-05 6.62455e-05 4.90307e-07
-2.35024e-07 4.90307e-07 -2.07974e-05
0.000763746 -2.25614e-05 2.4167e-07
-2.25614e-05 5.69419e-05 -1.66755e-06
2.4167e-07 -1.66755e-06 -2.95647e-05
0.000861673 2.66864e-05 3.02778e-07
2.66864e-05 0.000105853 5.86068e-07
3.02778e-07 5.86068e-07 1.89325e-05
0.000760093 -2.11942e-05 4.26421e-07
-2.11942e-05 4.83323e-05 -6.45688e-08
4.26421e-07 -6.45688e-08 -3.12215e-05
0.000685618 -3.38016e-05 -9.4489e-07
-3.38016e-05 -8.56638e-07 -2.74043e-06
-9.4489e-07 -2.74043e-06 -5.48634e-05
0.00064151 -5.14015e-05 -9.42155e-07
-5.14015e-05 -2.37301e-05 -4.39849e-06
-9.42155e-07 -4.39849e-06 -4.40812e-05
0.000702635 -2.99523e-05 1.1888e-07
-2.99523e-05 2.83939e-06 -4.33514e-08
1.1888e-07 -4.33514e-08 -4.73118e-05
0.000733406 -3.81009e-05 -1.35689e-07
-3.81009e-05 2.5657e-05 1.15082e-06
-1.35689e-07 1.15082e-06 -4.52647e-05
0.00240213 -7.04857e-05 -3.10181e-05
-7.04857e-05 0.00096906 -3.54866e-06
-3.10181e-05 -3.54866e-06 0.000979625
0.000631535 -4.33429e-05 -2.73112e-07
-4.33429e-05 -3.75127e-05 3.8205e-08
-2.73112e-07 3.8205e-08 -5.5178e-05
0.000710302 -1.39958e-05 1.6402e-06
-1.39958e-05 2.02975e-06 2.06501e-06
1.6402e-06 2.06501e-06 -4.5557e-05
0.00236239 -6.10691e-05 -2.60142e-06
-6.10691e-05 0.000939209 1.62147e-07
-2.60142e-06 1.62147e-07 0.000951808
0.000640194 -3.67993e-05 4.58008e-07
-3.67993e-05 -3.94666e-05 3.99919e-06
4.58008e-07 3.99919e-06 -5.46126e-05
0.0022765 -5.05775e-05 1.98867e-05
-5.05775e-05 0.000883875 4.15903e-06
1.98867e-05 4.15903e-06 0.000898848
0.000760382 0.000182032 1.95458e-05
0.000182032 0.000973775 3.85557e-05
1.95458e-05 3.85557e-05 0.000338315
-0.00076282 -0.000150259 6.91468e-07
-0.000150259 0.000612417 8.3002e-06
6.91468e-07 8.3002e-06 -0.000195583
0.00202293 -7.06822e-05 -5.62208e-05
-7.06822e-05 0.00056266 -1.33768e-05
-5.62208e-05 -1.33768e-05 8.78861e-05
0.000712513 -6.27183e-06 5.29745e-07
-6.27183e-06 3.07054e-05 3.17475e-07
5.29745e-07 3.17475e-07 -5.89772e-05
0.000792207 6.46887e-06 9.17233e-08
6.46887e-06 8.18383e-05 6.28706e-07
9.17233e-08 6.28706e-07 -1.77708e-05
0.000979204 0.000126185 -3.92507e-07
0.000126185 0.000199338 3.01259e-07
-3.92507e-07 3.01259e-07 8.59466e-05
0.00118788 0.000166668 1.33073e-06
0.000166668 0.000285708 -4.15333e-08
1.33073e-06 -4.15333e-08 0.000154251
0.000937762 9.61937e-05 -2.0688e-06
9.61937e-05 0.000185944 -7.40781e-07
-2.0688e-06 -7.40781e-07 6.6143e-05
0.000819248 5.16994e-05 8.65107e-07
5.16994e-05 9.08924e-05 1.04986e-06
8.65107e-07 1.04986e-06 -3.42524e-06
0.00075553 2.3766e-05 6.67999e-07
2.3766e-05 5.43414e-05 1.05331e-06
6.67999e-07 1.05331e-06 -4.13144e-05
0.000706299 6.80988e-05 -1.36845e-06
6.80988e-05 4.86663e-05 -1.32678e-06
-1.36845e-06 -1.32678e-06 -6.05223e-05
-9.04749e-05 7.44536e-05 -4.22219e-07
7.44536e-05 -0.000394382 4.04636e-07
-4.22219e-07 4.04636e-07 -0.000516067
0.00101968 0.000146453 3.806e-07
0.000146453 0.000158082 -4.63737e-06
3.806e-07 -4.63737e-06 4.9648e-05
0.00211981 0.000320244 5.34127e-06
0.000320244 0.000489312 -1.07487e-05
5.34127e-06 -1.07487e-05 0.000328429
0.000733022 9.1886e-05 -2.25766e-06
9.1886e-05 4.05769e-05 -5.2599e-07
-2.25766e-06 -5.2599e-07 -4.96479e-05
0.000697255 1.55419e-05 -3.1449e-07
1.55419e-05 3.6968e-05 -9.79463e-07
-3.1449e-07 -9.79463e-07 -4.35462e-05
0.0110164 0.000105673 -5.306e-05
0.000105673 0.00361587 1.4897e-06
-5.306e-05 1.4897e-06 0.00234042
-0.0017926 -0.000334966 -6.8964e-05
-0.000334966 -0.000175834 -1.47054e-05
-6.8964e-05 -1.47054e-05 -0.000709622
0.000486752 -0.000403157 -1.70622e-05
-0.000403157 0.000652474 -2.91845e-05
-1.70622e-05 -2.91845e-05 0.000264092
-0.00379558 -0.000399083 1.95251e-05
-0.000399083 -0.00182695 4.40222e-05
1.95251e-05 4.40222e-05 -0.00160569
0.00905676 -0.000150809 8.03807e-05
-0.000150809 0.00425107 -8.05015e-06
8.03807e-05 -8.05015e-06 0.00152982
0.00268809 0.000229982 -1.73291e-05
0.000229982 0.000416969 3.45304e-06
-1.73291e-05 3.45304e-06 0.000214184
0.00159873 0.00042022 -4.37848e-05
0.00042022 7.92905e-05 -1.78305e-05
-4.37848e-05 -1.78305e-05 -0.000528466
0.00841694 -0.00015288 5.64371e-05
-0.00015288 0.00309296 1.76443e-05
5.64371e-05 1.76443e-05 0.00151394
0.00399613 0.000582291 9.7793e-06
0.000582291 0.000581743 -2.61354e-05
9.7793e-06 -2.61354e-05 -5.3495e-05
0.00196553 0.000424952 2.97169e-06
0.000424952 0.000263117 1.34039e-05
2.97169e-06 1.34039e-05 0.000106688
0.000877824 0.00027116 3.42988e-06
0.00027116 -8.48264e-06 -4.08285e-06
3.42988e-06 -4.08285e-06 -0.000166621
0.00102202 0.000156215 -1.19779e-05
0.000156215 0.000208691 7.05836e-06
-1.19779e-05 7.05836e-06 0.000141501
0.00159313 0.000355159 -2.85425e-05
0.000355159 0.000267275 -1.61783e-05
-2.85425e-05 -1.61783e-05 0.00011434
0.00152509 0.000425215 -1.74586e-05
0.000425215 -0.000178121 1.47341e-05
-1.74586e-05 1.47341e-05 -0.000235153
0.000423567 -0.000153785 -1.94845e-05
-0.000153785 -0.00196706 -4.86209e-06
-1.94845e-05 -4.86209e-06 -0.00235974
0.00215452 -0.000123315 1.04927e-06
-0.000123315 0.00126198 -5.84838e-06
1.04927e-06 -5.84838e-06 0.00118536
-0.0021497 -1.95786e-05 2.38544e-05
-1.95786e-05 0.000381764 -1.30577e-06
2.38544e-05 -1.30577e-06 -0.000560345
0.00281708 -0.000466067 -5.37279e-05
-0.000466067 0.000663769 5.19383e-06
-5.37279e-05 5.19383e-06 0.000585599
0.00379831 -0.000631738 -6.51541e-06
-0.000631738 0.000820488 -1.34931e-05
-6.51541e-06 -1.34931e-05 -0.000367283
0.000913244 -0.000139023 3.20313e-05
-0.000139023 0.000848199 1.86809e-05
3.20313e-05 1.86809e-05 0.000469891
0.0095159 0.000169143 -5.58979e-05
0.000169143 0.00368743 3.1321e-05
-5.58979e-05 3.1321e-05 0.00200272
0.000679548 -0.000213658 -8.36957e-06
-0.000213658 -0.00024749 -7.6502e-07
-8.36957e-06 -7.6502e-07 -0.000379771
0.00656417 9.54762e-05 6.81146e-06
9.54762e-05 0.0015301 2.1226e-05
6.81146e-06 2.1226e-05 0.000678847
0.00397427 -0.000341772 4.71876e-05
-0.000341772 0.000406052 -1.29343e-06
4.71876e-05 -1.29343e-06 -0.000399288
0.00221019 -0.00024387 8.90034e-06
-0.00024387 0.000582225 2.93604e-07
8.90034e-06 2.93604e-07 0.000309781
0.00355885 -8.72526e-05 -7.57608e-05
-8.72526e-05 0.000750276 -1.26283e-05
-7.57608e-05 -1.26283e-05 0.000459322
5.51664e-05 -0.000185978 -1.6689e-05
-0.000185978 -0.00082508 5.65056e-06
-1.6689e-05 5.65056e-06 -0.000745085
0.00152018 -0.000285894 -1.91052e-07
-0.000285894 -0.000189512 1.09591e-07
-1.91052e-07 1.09591e-07 -0.000155626
0.00184376 -0.000204965 6.59638e-06
-0.000204965 -7.99798e-05 -1.74343e-06
6.59638e-06 -1.74343e-06 -5.99891e-05
0.0014052 -0.00030309 -1.39816e-06
-0.00030309 -0.000124355 1.67876e-06
-1.39816e-06 1.67876e-06 -0.000235999
0.0018002 -0.000269526 -8.76722e-07
-0.000269526 2.46429e-05 -9.5218e-08
-8.76722e-07 -9.5218e-08 -4.90907e-05
0.00181833 -0.000188997 -7.66824e-07
-0.000188997 -2.39142e-05 1.03725e-06
-7.66824e-07 1.03725e-06 -6.59854e-05
0.00159505 -0.000259608 -3.9881e-06
-0.000259608 4.21694e-06 2.9483e-06
-3.9881e-06 2.9483e-06 -0.000125523
0.00180503 -0.000216521 3.00213e-07
-0.000216521 5.51199e-05 1.11844e-06
3.00213e-07 1.11844e-06 -3.88759e-05
0.00186692 -0.000183822 1.35484e-06
-0.000183822 0.000110818 2.03848e-07
1.35484e-06 2.03848e-07 3.11672e-05
0.00154418 -0.000200134 1.00919e-06
-0.000200134 1.77403e-05 3.5466e-06
1.00919e-06 3.5466e-06 -0.00010263
0.00170537 -0.000178627 3.30043e-08
-0.000178627 7.93861e-05 1.06662e-06
3.30043e-08 1.06662e-06 -2.03027e-05
0.00189605 -0.000167448 1.8568e-06
-0.000167448 0.000202314 -5.14344e-07
1.8568e-06 -5.14344e-07 0.000106782
0.00168228 -0.000161324 -3.27136e-06
-0.000161324 0.0001088 2.436e-06
-3.27136e-06 2.436e-06 4.65307e-07
0.00174806 -0.000161916 2.67571e-06
-0.000161916 0.000180484 -2.30211e-06
2.67571e-06 -2.30211e-06 5.95319e-05
0.00156756 -0.000171267 -6.26679e-07
-0.000171267 5.78705e-05 5.8334e-06
-6.26679e-07 5.8334e-06 -6.325e-05
0.00169358 -0.000179363 8.64357e-07
-0.000179363 0.00016397 -8.75993e-07
8.64357e-07 -8.75993e-07 2.7111e-05
0.00159742 -0.00017324 -1.41596e-06
-0.00017324 0.000148107 -1.48508e-06
-1.41596e-06 -1.48508e-06 6.19789e-06
0.001291 -0.000180691 -4.93087e-06
-0.000180691 6.48599e-05 4.51045e-07
-4.93087e-06 4.51045e-07 -9.55805e-05
0.00164787 -0.000204228 3.55606e-07
-0.000204228 0.000207511 -4.36888e-07
3.55606e-07 -4.36888e-07 4.56989e-05
0.00160585 -0.000207193 1.93952e-06
-0.000207193 0.000144857 2.05421e-06
1.93952e-06 2.05421e-06 -1.51034e-05
0.00113187 -0.00016573 -3.44533e-06
-0.00016573 0.000126275 3.03716e-06
-3.44533e-06 3.03716e-06 -2.54617e-05
0.00103994 -0.000175901 -1.16254e-06
-0.000175901 2.60574e-05 1.29708e-06
-1.16254e-06 1.29708e-06 -0.000146724
0.00162654 -0.000219388 3.43202e-06
-0.000219388 0.000293164 -1.17275e-06
3.43202e-06 -1.17275e-06 0.000107596
0.000729213 -8.88897e-05 -3.79498e-06
-8.88897e-05 -5.02769e-06 2.81093e-06
-3.79498e-06 2.81093e-06 -0.0001108
0.00106772 -0.000154349 1.97005e-07
-0.000154349 0.000149057 -4.24073e-07
1.97005e-07 -4.24073e-07 7.02691e-06
0.001192 -0.000176732 1.27354e-06
-0.000176732 0.000194034 -2.88232e-06
1.27354e-06 -2.88232e-06 2.92378e-05
0.000514252 1.18622e-05 -3.95976e-06
1.18622e-05 -8.16859e-05 7.29251e-06
-3.95976e-06 7.29251e-06 -0.000124286
0.000812717 -7.57864e-05 1.56884e-07
-7.57864e-05 6.63476e-05 2.63816e-07
1.56884e-07 2.63816e-07 -3.33477e-05
0.00110716 -0.000142227 1.68121e-06
-0.000142227 0.000205261 -6.99034e-07
1.68121e-06 -6.99034e-07 7.44323e-05
0.00281615 0.000114006 -4.65573e-05
0.000114006 0.00123052 2.35002e-06
-4.65573e-05 2.35002e-06 0.00122936
0.000578119 4.06271e-05 5.30758e-07
4.06271e-05 -3.60147e-05 -3.17935e-07
5.30758e-07 -3.17935e-07 -7.23806e-05
0.000779074 -6.22508e-05 2.80363e-06
-6.22508e-05 6.42883e-05 -2.93922e-06
2.80363e-06 -2.93922e-06 -2.62301e-05
0.00256843 9.9529e-05 2.26985e-06
9.9529e-05 0.00108784 1.88824e-07
2.26985e-06 1.88824e-07 0.00109068
0.000646325 5.76531e-05 5.76724e-07
5.76531e-05 3.9285e-06 -5.38136e-06
5.76724e-07 -5.38136e-06 -2.54728e-05
0.00241311 8.86732e-05 3.85583e-05
8.86732e-05 0.00099549 -2.543e-06
3.85583e-05 -2.543e-06 0.00100151
0.000962432 0.000141503 8.92032e-07
0.000141503 0.000151619 -8.01311e-07
8.92032e-07 -8.01311e-07 2.81592e-05
0.00083164 9.896e-05 5.08127e-07
9.896e-05 9.71878e-05 2.62771e-09
5.08127e-07 2.62771e-09 -6.19083e-06
0.000692092 -1.02292e-05 -5.3613e-07
-1.02292e-05 1.62892e-05 -9.93317e-07
-5.3613e-07 -9.93317e-07 -7.86045e-05
0.00069294 -1.6366e-05 -9.54541e-08
-1.6366e-05 1.15309e-05 9.32124e-07
-9.54541e-08 9.32124e-07 -7.34382e-05
0.000715733 -3.65257e-05 1.57967e-07
-3.65257e-05 2.77465e-05 1.14535e-07
1.57967e-07 1.14535e-07 -5.73719e-05
0.000662001 -3.27503e-05 -9.59163e-07
-3.27503e-05 -9.10897e-06 -3.01608e-06
-9.59163e-07 -3.01608e-06 -7.0187e-05
0.000717935 -4.07278e-05 -2.4369e-07
-4.07278e-05 2.2172e-05 1.58571e-06
-2.4369e-07 1.58571e-06 -5.46832e-05
0.000681134 -3.82142e-05 3.33636e-07
-3.82142e-05 -2.44278e-06 -1.64575e-07
3.33636e-07 -1.64575e-07 -5.6741e-05
0.000637709 -6.15143e-05 -1.51733e-07
-6.15143e-05 -1.51411e-05 -4.8143e-06
-1.51733e-07 -4.8143e-06 -3.92774e-05
0.00242233 -7.93652e-05 -3.49872e-05
-7.93652e-05 0.000987861 -3.16144e-06
-3.49872e-05 -3.16144e-06 0.000996442
0.000627973 -4.95029e-05 -4.62588e-08
-4.95029e-05 -3.16279e-05 3.01161e-08
-4.62588e-08 3.01161e-08 -5.16706e-05
0.000689309 -2.72288e-05 1.83523e-06
-2.72288e-05 -4.35277e-06 2.25783e-06
1.83523e-06 2.25783e-06 -5.43508e-05
0.00240013 -7.01596e-05 -2.2906e-06
-7.01596e-05 0.000967272 1.75813e-07
-2.2906e-06 1.75813e-07 0.00097789
0.000627059 -4.2015e-05 7.49655e-07
-4.2015e-05 -4.01726e-05 4.18632e-06
7.49655e-07 4.18632e-06 -5.76778e-05
0.00234154 -6.04463e-05 2.44417e-05
-6.04463e-05 0.000926807 3.96742e-06
2.44417e-05 3.96742e-06 0.000939614
0.00936723 0.000233315 0.000114488
0.000233315 0.00281509 3.80733e-05
0.000114488 3.80733e-05 0.00189344
-0.00242719 -0.000263582 -4.04167e-05
-0.000263582 -0.00132998 -3.43709e-06
-4.04167e-05 -3.43709e-06 -0.00142199
-0.00228292 -4.03679e-05 -4.96067e-05
-4.03679e-05 -0.000122035 -1.19814e-05
-4.96067e-05 -1.19814e-05 -0.00112446
0.000742558 -2.62521e-05 1.23848e-06
-2.62521e-05 5.22912e-05 1.61071e-06
1.23848e-06 1.61071e-06 -4.60846e-05
0.000791939 0.000119906 -8.69633e-07
0.000119906 9.97381e-05 9.02828e-07
-8.69633e-07 9.02828e-07 -1.0749e-05
0.0010672 0.000104597 5.24951e-07
0.000104597 0.000256852 -2.82065e-08
5.24951e-07 -2.82065e-08 0.000136864
0.00104091 0.000155637 -1.44869e-06
0.000155637 0.000207307 6.19548e-08
-1.44869e-06 6.19548e-08 7.79602e-05
0.00110641 0.000167754 1.0956e-05
0.000167754 0.000208316 2.11321e-06
1.0956e-05 2.11321e-06 6.4165e-05
0.000452501 0.000113888 -1.23672e-06
0.000113888 -9.59951e-05 -1.8446e-07
-1.23672e-06 -1.8446e-07 -0.000221393
0.000487074 7.11959e-05 -1.07318e-06
7.11959e-05 -6.91732e-05 -7.04246e-07
-1.07318e-06 -7.04246e-07 -0.000177198
0.000437659 0.000114987 5.83377e-07
0.000114987 -0.000113409 6.24926e-07
5.83377e-07 6.24926e-07 -0.00024436
0.000945331 0.00013117 -1.54696e-06
0.00013117 0.000120773 -8.24717e-09
-1.54696e-06 -8.24717e-09 8.46636e-06
0.000217364 0.000134335 9.47175e-07
0.000134335 -0.000342418 -1.27784e-06
9.47175e-07 -1.27784e-06 -0.000472318
0.00281581 0.000339063 -1.96583e-06
0.000339063 0.000869693 -3.59058e-06
-1.96583e-06 -3.59058e-06 0.000719296
0.00151471 0.000319121 9.98983e-07
0.000319121 4.09032e-05 1.71756e-06
9.98983e-07 1.71756e-06 -0.000114328
0.001452 0.000278225 3.95768e-06
0.000278225 0.000160988 -2.66552e-06
3.95768e-06 -2.66552e-06 9.9202e-06
0.000712249 9.81228e-05 -5.39831e-06
9.81228e-05 4.86374e-05 4.83282e-06
-5.39831e-06 4.83282e-06 -4.07145e-05
0.0033549 0.000203703 8.54072e-06
0.000203703 2.37544e-05 6.78139e-06
8.54072e-06 6.78139e-06 -0.000234911
0.00592748 6.72068e-05 2.0042e-05
6.72068e-05 0.00128441 1.46606e-05
2.0042e-05 1.46606e-05 2.79805e-05
0.00550225 -0.000732325 -2.18026e-05
-0.000732325 0.00286728 -3.86146e-05
-2.18026e-05 -3.86146e-05 0.00275313
0.00595418 0.00024781 0.000289055
0.00024781 0.00199538 8.06923e-05
0.000289055 8.06923e-05 -0.0002058
0.00122838 0.000380608 2.75802e-05
0.000380608 -0.000334533 2.76059e-05
2.75802e-05 2.76059e-05 -0.000519922
0.00266249 0.000451974 -7.46302e-05
0.000451974 0.000104265 -2.25624e-05
-7.46302e-05 -2.25624e-05 -0.000326425
0.00301014 0.000450691 5.40163e-05
0.000450691 0.000543968 2.22662e-05
5.40163e-05 2.22662e-05 0.000554306
0.00223655 0.000437521 8.78993e-07
0.000437521 0.000374032 5.02272e-06
8.78993e-07 5.02272e-06 0.000242354
0.000520286 0.000231891 -1.03276e-06
0.000231891 -0.000173033 6.50305e-06
-1.03276e-06 6.50305e-06 -0.000322228
0.00240862 0.000499272 -7.78824e-05
0.000499272 0.000259363 -4.74229e-05
-7.78824e-05 -4.74229e-05 0.000174453
0.00271059 -0.000140321 -0.000138619
-0.000140321 0.000294157 3.84163e-06
-0.000138619 3.84163e-06 -8.04229e-05
0.00892522 -0.000122733 1.03956e-05
-0.000122733 0.00279421 -1.76354e-06
1.03956e-05 -1.76354e-06 0.00219013
-0.00650325 -0.000189236 0.000150862
-0.000189236 -0.00346229 2.09074e-06
0.000150862 2.09074e-06 -0.00335619
0.00174141 -0.000266585 -1.49397e-05
-0.000266585 0.000237086 7.15429e-06
-1.49397e-05 7.15429e-06 0.000140334
0.00526552 -0.000388611 8.30285e-05
-0.000388611 0.00118942 7.62195e-06
8.30285e-05 7.62195e-06 0.000383689
0.00125921 -0.000339777 8.03035e-05
-0.000339777 -0.00116967 4.12149e-05
8.03035e-05 4.12149e-05 -0.00194416
0.00126937 -0.000170203 7.76105e-06
-0.000170203 8.44623e-05 -1.03192e-06
7.76105e-06 -1.03192e-06 -0.000101839
0.00166402 -9.49253e-06 -8.09672e-06
-9.49253e-06 -0.000365151 4.79314e-06
-8.09672e-06 4.79314e-06 -0.000645927
0.00476952 -0.000184928 1.2576e-05
-0.000184928 0.00169192 -4.02534e-06
1.2576e-05 -4.02534e-06 0.00158704
0.00292903 -1.50141e-06 5.345e-05
-1.50141e-06 0.000563674 -4.41711e-06
5.345e-05 -4.41711e-06 0.000547196
0.000635926 -0.000259696 -1.00725e-05
-0.000259696 -0.000626809 4.82251e-06
-1.00725e-05 4.82251e-06 -0.000609366
0.00181941 -0.000214566 -3.0624e-07
-0.000214566 -7.86087e-05 1.37138e-06
-3.0624e-07 1.37138e-06 -7.43927e-05
0.0018123 -0.000104322 7.18995e-06
-0.000104322 -2.52536e-05 3.96534e-07
7.18995e-06 3.96534e-07 -4.19246e-05
0.00156613 -0.00025011 1.31131e-06
-0.00025011 -8.16444e-05 8.50252e-08
1.31131e-06 8.50252e-08 -0.000152841
0.0018617 -0.000190541 1.65167e-06
-0.000190541 1.31343e-05 7.60719e-07
1.65167e-06 7.60719e-07 -3.51699e-05
0.00174198 -0.00012673 1.55803e-06
-0.00012673 1.72553e-05 8.09961e-07
1.55803e-06 8.09961e-07 -3.54475e-05
0.00171399 -0.000213487 4.26224e-06
-0.000213487 3.85651e-06 3.07289e-06
4.26224e-06 3.07289e-06 -8.99476e-05
0.00182407 -0.000179111 1.07268e-06
-0.000179111 9.63641e-05 3.79885e-07
1.07268e-06 3.79885e-07 1.6683e-05
0.00195408 -0.00014778 1.17302e-06
-0.00014778 0.000212482 4.54812e-07
1.17302e-06 4.54812e-07 0.000128615
0.00170157 -0.000180018 3.18046e-07
-0.000180018 7.8306e-05 3.45375e-06
3.18046e-07 3.45375e-06 -2.23912e-05
0.00175713 -0.000165537 -4.28905e-07
-0.000165537 0.000130161 4.21807e-07
-4.28905e-07 4.21807e-07 3.33298e-05
0.00162153 -0.000150308 3.81196e-06
-0.000150308 9.09475e-05 -9.70037e-07
3.81196e-06 -9.70037e-07 -2.0771e-05
0.00160295 -0.000160266 -3.7877e-06
-0.000160266 6.2523e-05 5.2044e-06
-3.7877e-06 5.2044e-06 -4.41545e-05
0.00173792 -0.000160191 -1.16396e-06
-0.000160191 0.000174214 -1.0153e-07
-1.16396e-06 -1.0153e-07 5.53637e-05
0.00168718 -0.000154179 5.55505e-07
-0.000154179 0.000189842 -8.63608e-07
5.55505e-07 -8.63608e-07 5.88916e-05
0.00170043 -0.000179942 7.04414e-07
-0.000179942 0.000168533 1.78993e-06
7.04414e-07 1.78993e-06 3.1324e-05
0.00165563 -0.000175594 7.65572e-07
-0.000175594 0.00018049 -2.54602e-07
7.65572e-07 -2.54602e-07 3.81488e-05
0.0015668 -0.000169841 -3.09484e-06
-0.000169841 0.000179563 -2.90972e-07
-3.09484e-06 -2.90972e-07 3.79925e-05
0.000942355 -0.000152576 -7.22825e-06
-0.000152576 -6.2892e-05 2.32881e-06
-7.22825e-06 2.32881e-06 -0.00021079
0.00132702 -0.000181881 -1.00614e-06
-0.000181881 8.91364e-05 -1.26035e-08
-1.00614e-06 -1.26035e-08 -7.10667e-05
0.0014742 -0.000195107 3.13405e-06
-0.000195107 0.000109866 6.90808e-07
3.13405e-06 6.90808e-07 -5.0889e-05
0.00086465 -0.000116105 -5.19991e-06
-0.000116105 2.97501e-05 4.21854e-06
-5.19991e-06 4.21854e-06 -8.6251e-05
0.00112645 -0.000164508 5.26736e-07
-0.000164508 0.000121608 4.57664e-07
5.26736e-07 4.57664e-07 -2.95418e-05
0.00114186 -0.000180316 1.55051e-06
-0.000180316 8.63083e-05 -5.58159e-07
1.55051e-06 -5.58159e-07 -8.62544e-05
0.000517717 -1.44373e-05 -7.05e-06
-1.44373e-05 -8.76838e-05 8.02523e-06
-7.05e-06 8.02523e-06 -0.000138663
0.00086808 -0.000100412 2.90795e-08
-0.000100412 7.17992e-05 -2.19798e-07
2.90795e-08 -2.19798e-07 -3.57218e-05
0.00114888 -0.000160575 2.59222e-06
-0.000160575 0.000191536 -2.40341e-06
2.59222e-06 -2.40341e-06 4.8629e-05
0.00327688 0.000128497 -6.31367e-05
0.000128497 0.00148895 2.38374e-06
-6.31367e-05 2.38374e-06 0.00148362
0.000605694 4.70829e-06 3.69294e-07
4.70829e-06 -3.26853e-05 -1.8687e-07
3.69294e-07 -1.8687e-07 -7.61548e-05
0.000884956 -8.29317e-05 4.22208e-06
-8.29317e-05 0.000105078 -2.58076e-06
4.22208e-06 -2.58076e-06 4.53408e-06
0.0029526 0.000110965 3.23303e-06
0.000110965 0.00130453 2.22673e-07
3.23303e-06 2.22673e-07 0.00130395
0.000651904 3.58667e-05 3.4678e-06
3.58667e-05 4.03333e-06 -6.2295e-06
3.4678e-06 -6.2295e-06 -3.28044e-05
0.00268561 9.69965e-05 5.1944e-05
9.69965e-05 0.00115162 -2.51468e-06
5.1944e-05 -2.51468e-06 0.00115508
0.00110028 0.000160615 3.22921e-09
0.000160615 0.000200458 -3.08928e-06
3.22921e-09 -3.08928e-06 5.99987e-05
0.00110401 0.000151581 4.30446e-07
0.000151581 0.000230367 2.15921e-07
4.30446e-07 2.15921e-07 0.000106104
0.000866035 8.22479e-05 -1.31023e-06
8.22479e-05 9.8497e-05 -1.4816e-06
-1.31023e-06 -1.4816e-06 -1.0638e-05
0.000761638 0.000117976 -1.1641e-07
0.000117976 6.44664e-05 4.03825e-07
-1.1641e-07 4.03825e-07 -4.28991e-05
0.000683894 1.12895e-05 -5.62398e-07
1.12895e-05 1.14097e-05 -1.73023e-07
-5.62398e-07 -1.73023e-07 -8.54288e-05
0.000702751 1.95915e-05 -2.07656e-06
1.95915e-05 1.94066e-05 -2.70855e-06
-2.07656e-06 -2.70855e-06 -5.6355e-05
0.000674598 -5.4159e-05 -1.64705e-07
-5.4159e-05 5.78518e-06 1.54436e-06
-1.64705e-07 1.54436e-06 -8.02711e-05
0.00066881 -3.54736e-05 3.95692e-07
-3.54736e-05 -3.43828e-06 -3.5992e-07
3.95692e-07 -3.5992e-07 -6.53932e-05
0.000621604 -7.15823e-05 1.30236e-06
-7.15823e-05 -1.25136e-05 -5.55928e-06
1.30236e-06 -5.55928e-06 -4.21338e-05
0.000677573 -4.12875e-05 1.16141e-06
-4.12875e-05 -3.83869e-06 2.58467e-06
1.16141e-06 2.58467e-06 -5.82434e-05
0.000615743 -5.8042e-05 2.14741e-07
-5.8042e-05 -2.86841e-05 -1.73579e-08
2.14741e-07 -1.73579e-08 -5.2014e-05
0.002473 -8.84062e-05 -3.95678e-05
-8.84062e-05 0.00102356 -2.71512e-06
-3.95678e-05 -2.71512e-06 0.00102999
0.00241976 -7.90125e-05 -1.50673e-06
-7.90125e-05 0.000985656 1.66983e-07
-1.50673e-06 1.66983e-07 0.00099429
0.000615332 -4.76982e-05 1.24314e-06
-4.76982e-05 -3.90493e-05 4.37214e-06
1.24314e-06 4.37214e-06 -5.88054e-05
0.00239062 -6.97475e-05 2.90598e-05
-6.97475e-05 0.000961312 3.71157e-06
2.90598e-05 3.71157e-06 0.000972007
0.00299457 1.71044e-06 -4.7606e-05
1.71044e-06 0.000241367 1.57948e-05
-4.7606e-05 1.57948e-05 8.67646e-05
0.00173256 -0.000255329 2.30309e-05
-0.000255329 -0.00100473 9.13531e-06
2.30309e-05 9.13531e-06 -0.0018883
0.00426536 -0.000409841 -4.40554e-05
-0.000409841 0.00181262 -2.6716e-05
-4.40554e-05 -2.6716e-05 0.00189514
0.00143949 0.000198568 1.1008e-05
0.000198568 0.000297397 3.1003e-06
1.1008e-05 3.1003e-06 0.000143298
0.00121346 0.000119414 8.34225e-07
0.000119414 0.000336521 4.64809e-07
8.34225e-07 4.64809e-07 0.000216361
0.000900558 0.000145104 -1.36039e-06
0.000145104 0.000132886 1.2209e-06
-1.36039e-06 1.2209e-06 5.52857e-06
0.000770175 0.000137863 6.15767e-07
0.000137863 7.71804e-05 7.61112e-07
6.15767e-07 7.61112e-07 -5.26276e-05
0.00103871 0.000164474 -2.99951e-07
0.000164474 0.000175193 -1.54521e-06
-2.99951e-07 -1.54521e-06 2.94479e-05
0.000682866 0.000152122 -6.43594e-07
0.000152122 -6.92259e-05 8.11411e-07
-6.43594e-07 8.11411e-07 -0.000193611
0.000897729 0.000151451 -8.19764e-07
0.000151451 0.000130343 -5.49603e-07
-8.19764e-07 -5.49603e-07 -9.42855e-06
0.00101478 0.000126429 -2.27575e-06
0.000126429 0.000155854 5.42243e-06
-2.27575e-06 5.42243e-06 3.92679e-05
0.000985207 0.000184815 4.98445e-07
0.000184815 6.89507e-05 -9.3249e-09
4.98445e-07 -9.3249e-09 -6.34308e-05
0.00225466 0.000302642 1.24812e-06
0.000302642 0.000571106 5.48843e-06
1.24812e-06 5.48843e-06 0.0004207
0.00171142 0.000300863 -1.25684e-06
0.000300863 0.000155489 -6.34904e-07
-1.25684e-06 -6.34904e-07 -2.46797e-06
0.00151512 0.000262026 1.42724e-05
0.000262026 -8.01408e-07 1.07339e-05
1.42724e-05 1.07339e-05 -0.000115031
0.00136982 0.000312215 -2.18114e-06
0.000312215 -4.4227e-05 -2.5102e-06
-2.18114e-06 -2.5102e-06 -0.000203814
0.000899306 0.000238392 1.079e-06
0.000238392 -0.000115346 4.94507e-06
1.079e-06 4.94507e-06 -0.000255573
0.000242092 0.000170141 1.27756e-05
0.000170141 -0.000479384 5.35772e-06
1.27756e-05 5.35772e-06 -0.000479213
0.00494977 0.000316178 -2.45472e-05
0.000316178 0.000637716 2.65963e-08
-2.45472e-05 2.65963e-08 0.00026646
0.000730713 -4.59663e-05 6.89302e-05
-4.59663e-05 -0.00123302 1.76387e-05
6.89302e-05 1.76387e-05 -0.0024789
0.00195012 0.000458003 5.8816e-05
0.000458003 -0.000304938 6.07706e-06
5.8816e-05 6.07706e-06 -0.000873837
0.00168636 0.000338393 -2.0006e-05
0.000338393 8.91675e-05 -3.43818e-06
-2.0006e-05 -3.43818e-06 7.33305e-05
0.00105129 0.000340423 -3.08637e-05
0.000340423 -0.000160546 -2.38961e-05
-3.08637e-05 -2.38961e-05 -0.00029504
0.0019244 -9.90726e-05 1.68358e-05
-9.90726e-05 3.50679e-05 1.37366e-06
1.68358e-05 1.37366e-06 -5.84757e-05
0.00111604 2.50752e-06 -1.60876e-05
2.50752e-06 -0.000436459 1.66613e-06
-1.60876e-05 1.66613e-06 -0.000643506
0.000350593 0.000328187 6.23159e-05
0.000328187 -0.00191026 -1.91404e-05
6.23159e-05 -1.91404e-05 -0.00255096
0.000438517 -9.45563e-05 -6.46298e-07
-9.45563e-05 -0.000380617 1.4722e-05
-6.46298e-07 1.4722e-05 -0.000459315
0.00247094 -3.1218e-05 7.13609e-06
-3.1218e-05 -0.000112873 1.91248e-05
7.13609e-06 1.91248e-05 -0.00045941
0.0016022 -0.000111805 -3.87478e-06
-0.000111805 -2.19605e-05 -5.92152e-07
-3.87478e-06 -5.92152e-07 -8.02862e-05
0.00218872 -3.23198e-05 -4.70909e-06
-3.23198e-05 0.000171681 -1.30967e-06
-4.70909e-06 -1.30967e-06 0.000128612
0.00203799 -4.80738e-05 1.84101e-05
-4.80738e-05 0.000130735 -2.08026e-06
1.84101e-05 -2.08026e-06 9.63644e-05
0.00268305 -3.17561e-05 1.46396e-05
-3.17561e-05 0.000580646 -1.49703e-07
1.46396e-05 -1.49703e-07 0.000535171
0.00191008 -0.000226886 -7.05528e-06
-0.000226886 -1.38403e-05 1.12116e-06
-7.05528e-06 1.12116e-06 -2.80114e-05
0.00191703 -0.000113945 2.74976e-06
-0.000113945 1.64628e-05 -3.04187e-07
2.74976e-06 -3.04187e-07 -2.05356e-06
0.00191072 -0.000120393 1.12731e-06
-0.000120393 9.65793e-05 1.43727e-07
1.12731e-06 1.43727e-07 5.49214e-05
0.00188486 -0.00019094 2.35058e-06
-0.00019094 3.99698e-05 9.53338e-07
2.35058e-06 9.53338e-07 -1.42245e-05
0.00182982 -0.00014046 6.2605e-07
-0.00014046 5.88222e-05 -7.83849e-08
6.2605e-07 -7.83849e-08 1.89118e-06
0.00183986 -0.000128219 2.42703e-06
-0.000128219 0.000131959 2.37777e-07
2.42703e-06 2.37777e-07 5.81208e-05
0.00179247 -0.000175364 -1.02621e-06
-0.000175364 8.77628e-05 1.58898e-06
-1.02621e-06 1.58898e-06 7.87758e-06
0.0018302 -0.000150178 -1.18958e-06
-0.000150178 0.000146162 8.5113e-08
-1.18958e-06 8.5113e-08 6.10426e-05
0.00164178 -0.000131028 2.44126e-06
-0.000131028 7.87407e-05 8.53658e-08
2.44126e-06 8.53658e-08 -2.58983e-05
0.00161704 -0.000163755 -3.14279e-06
-0.000163755 5.71357e-05 1.39353e-06
-3.14279e-06 1.39353e-06 -4.10096e-05
0.00163066 -0.00015033 3.75151e-07
-0.00015033 9.87061e-05 -3.87123e-07
3.75151e-07 -3.87123e-07 -1.29415e-05
0.00156862 -0.00013701 1.12104e-06
-0.00013701 0.0001057 -2.57418e-07
1.12104e-06 -2.57418e-07 -2.01708e-05
0.00172259 -0.00015814 -4.13861e-06
-0.00015814 0.00016492 2.81043e-06
-4.13861e-06 2.81043e-06 4.82053e-05
0.00163872 -0.000150912 -2.15258e-07
-0.000150912 0.000159771 -4.10024e-07
-2.15258e-07 -4.10024e-07 3.00957e-05
0.00144341 -0.000142174 -2.33094e-06
-0.000142174 9.20741e-05 4.0756e-07
-2.33094e-06 4.0756e-07 -4.18667e-05
0.00171829 -0.000178145 2.44514e-06
-0.000178145 0.000215202 2.12627e-07
2.44514e-06 2.12627e-07 7.24229e-05
0.0014676 -0.000165143 6.35797e-07
-0.000165143 0.000122047 -2.57847e-07
6.35797e-07 -2.57847e-07 -1.96024e-05
0.00132319 -0.000152564 -6.12388e-06
-0.000152564 9.95511e-05 1.3915e-06
-6.12388e-06 1.3915e-06 -3.61274e-05
0.000994778 -0.000128919 -7.66169e-06
-0.000128919 4.37122e-05 4.59964e-06
-7.66169e-06 4.59964e-06 -7.48951e-05
0.00103701 -0.000156569 -1.61408e-06
-0.000156569 -6.40752e-06 7.54292e-07
-1.61408e-06 7.54292e-07 -0.000154112
0.001326 -0.00018078 3.06378e-06
-0.00018078 9.31004e-05 5.1173e-08
3.06378e-06 5.1173e-08 -6.66088e-05
0.000546041 -8.42275e-05 -1.11448e-05
-8.42275e-05 -8.11705e-05 9.54346e-06
-1.11448e-05 9.54346e-06 -0.000143619
0.000911098 -0.000121343 4.30644e-07
-0.000121343 5.54928e-05 1.10234e-07
4.30644e-07 1.10234e-07 -6.13974e-05
0.00112376 -0.000163682 4.1211e-06
-0.000163682 0.000118354 -1.93876e-06
4.1211e-06 -1.93876e-06 -3.22633e-05
0.00365361 0.000139982 -7.9283e-05
0.000139982 0.00170507 2.87684e-06
-7.9283e-05 2.87684e-06 0.00169526
0.000635253 -4.78585e-05 1.60128e-08
-4.78585e-05 -2.58948e-05 -1.7438e-07
1.60128e-08 -1.7438e-07 -7.91766e-05
0.000967071 -0.00011061 5.04593e-06
-0.00011061 0.000126563 -3.58367e-06
5.04593e-06 -3.58367e-06 1.74669e-05
0.0033715 0.000118063 2.84271e-06
0.000118063 0.00153983 3.16106e-07
2.84271e-06 3.16106e-07 0.00153617
0.000688614 -1.21102e-05 7.58769e-06
-1.21102e-05 1.12583e-05 -7.02467e-06
7.58769e-06 -7.02467e-06 -3.2958e-05
0.00307007 9.97676e-05 7.20553e-05
9.97676e-05 0.00136694 -3.05348e-06
7.20553e-05 -3.05348e-06 0.00136835
0.000993803 0.000163862 -7.60211e-07
0.000163862 7.90146e-05 -1.72837e-06
-7.60211e-07 -1.72837e-06 -7.61171e-05
0.00101425 0.000154283 -1.04568e-07
0.000154283 0.000154244 -1.34997e-06
-1.04568e-07 -1.34997e-06 1.46593e-05
0.00111158 0.000144993 -1.12756e-06
0.000144993 0.000211021 -1.63757e-06
-1.12756e-06 -1.63757e-06 8.61644e-05
0.00124714 0.000161802 -5.69071e-07
0.000161802 0.000309794 2.86707e-07
-5.69071e-07 2.86707e-07 0.00018473
0.000883581 8.79039e-05 -1.08436e-06
8.79039e-05 0.000107045 -7.34991e-07
-1.08436e-06 -7.34991e-07 -1.36949e-06
0.000786418 4.42757e-05 -2.41808e-06
4.42757e-05 6.47467e-05 -2.20222e-06
-2.41808e-06 -2.20222e-06 -2.36325e-05
0.000683889 3.1991e-05 -2.13147e-07
3.1991e-05 1.04473e-05 3.95833e-07
-2.13147e-07 3.95833e-07 -8.79691e-05
0.000686205 -1.91889e-05 -3.84962e-07
-1.91889e-05 9.51343e-06 -6.74959e-08
-3.84962e-07 -6.74959e-08 -6.37962e-05
0.000597576 -6.79771e-05 -2.76057e-07
-6.79771e-05 -2.03347e-05 -5.79531e-06
-2.76057e-07 -5.79531e-06 -5.5389e-05
0.000659927 -5.10378e-05 6.69797e-07
-5.10378e-05 -5.81519e-06 2.96915e-06
6.69797e-07 2.96915e-06 -6.86008e-05
0.000591954 -7.11812e-05 2.19505e-07
-7.11812e-05 -2.96984e-05 -1.15113e-07
2.19505e-07 -1.15113e-07 -5.89325e-05
0.00257548 -9.72013e-05 -4.6086e-05
-9.72013e-05 0.00108675 -2.3237e-06
-4.6086e-05 -2.3237e-06 0.00109096
0.000602183 -5.50595e-05 1.40305e-06
-5.50595e-05 -3.73878e-05 4.56953e-06
1.40305e-06 4.56953e-06 -6.0046e-05
0.00245527 -8.82074e-05 -1.01542e-06
-8.82074e-05 0.00101305 1.53073e-07
-1.01542e-06 1.53073e-07 0.0010195
0.00241562 -7.8443e-05 3.3611e-05
-7.8443e-05 0.000982705 3.37118e-06
3.3611e-05 3.37118e-06 0.000991422
0.000406637 2.52573e-05 1.05791e-05
2.52573e-05 -0.000538658 4.35184e-06
1.05791e-05 4.35184e-06 -0.000558024
0.00396467 4.67609e-05 1.38792e-05
4.67609e-05 0.000500348 1.02076e-05
1.38792e-05 1.02076e-05 0.000182652
0.00706722 0.000303355 -9.8161e-05
0.000303355 0.0020241 -2.63545e-05
-9.8161e-05 -2.63545e-05 0.00103656
0.000730716 0.000155341 3.07753e-06
0.000155341 -0.00014543 7.43581e-07
3.07753e-06 7.43581e-07 -0.000278631
0.00141566 0.000203614 4.01019e-06
0.000203614 9.78701e-05 -3.71797e-06
4.01019e-06 -3.71797e-06 -5.34912e-05
0.000898584 0.0001676 -1.13368e-07
0.0001676 1.06113e-05 -2.33147e-06
-1.13368e-07 -2.33147e-06 -0.000138133
0.00108322 0.000161316 -1.42414e-06
0.000161316 0.000248062 -5.73922e-07
-1.42414e-06 -5.73922e-07 0.000113911
0.000988437 0.000162106 -1.42329e-06
0.000162106 0.000150955 -9.18618e-07
-1.42329e-06 -9.18618e-07 3.55737e-06
0.00120506 0.000190219 5.30617e-06
0.000190219 0.000196804 2.64856e-06
5.30617e-06 2.64856e-06 6.65183e-05
0.00218071 0.000299104 -7.1046e-06
0.000299104 0.000447164 -5.45891e-06
-7.1046e-06 -5.45891e-06 0.000296456
0.00164149 0.00022858 4.75877e-08
0.00022858 0.000423867 1.90727e-06
4.75877e-08 1.90727e-06 0.000289345
0.00130421 0.000243491 5.73103e-06
0.000243491 7.02689e-05 1.26454e-05
5.73103e-06 1.26454e-05 -7.84828e-05
0.00178871 0.000301263 -1.19235e-06
0.000301263 0.000204224 1.19359e-06
-1.19235e-06 1.19359e-06 4.864e-05
0.00219155 0.000297127 -6.37952e-06
0.000297127 0.000313433 3.1669e-06
-6.37952e-06 3.1669e-06 0.000172413
0.00116144 0.000124767 1.47538e-05
0.000124767 -0.000247771 4.96095e-06
1.47538e-05 4.96095e-06 -0.000317599
0.00156459 0.00026027 8.38273e-06
0.00026027 3.05993e-05 2.02672e-06
8.38273e-06 2.02672e-06 -8.66415e-05
0.00114696 0.000295733 -6.98492e-06
0.000295733 -0.000168751 -6.25896e-06
-6.98492e-06 -6.25896e-06 -0.000330502
0.0010087 0.000164253 -4.97559e-06
0.000164253 -9.94395e-05 1.91268e-06
-4.97559e-06 1.91268e-06 -0.00010814
0.0049341 0.000151285 4.06875e-05
0.000151285 0.000554205 1.94398e-06
4.06875e-05 1.94398e-06 0.000144001
0.00120849 0.000274999 1.73488e-06
0.000274999 2.68953e-05 -1.08245e-05
1.73488e-06 -1.08245e-05 3.46314e-06
0.00124949 -2.80496e-05 1.4883e-05
-2.80496e-05 -0.000146448 1.55106e-06
1.4883e-05 1.55106e-06 -0.000189129
0.00196051 -4.76719e-05 -7.01739e-06
-4.76719e-05 8.75782e-05 -3.85316e-07
-7.01739e-06 -3.85316e-07 1.34125e-05
0.00231521 0.000135112 5.85819e-05
0.000135112 -4.59099e-05 -6.97245e-06
5.85819e-05 -6.97245e-06 -0.000312308
-0.000849458 -7.10902e-05 -1.67665e-05
-7.10902e-05 -0.00134975 1.04454e-05
-1.67665e-05 1.04454e-05 -0.00136651
0.00203137 -6.93181e-05 -5.54342e-05
-6.93181e-05 8.31324e-05 7.7293e-06
-5.54342e-05 7.7293e-06 3.12252e-05
0.00155518 -8.19003e-05 3.9538e-07
-8.19003e-05 -0.000164383 1.75603e-06
3.9538e-07 1.75603e-06 -0.000185445
0.00229331 -4.48108e-05 -2.20622e-06
-4.48108e-05 0.000322708 4.60139e-07
-2.20622e-06 4.60139e-07 0.000274612
0.00185873 -0.000123518 6.4042e-06
-0.000123518 8.52488e-06 4.11842e-07
6.4042e-06 4.11842e-07 -2.52612e-05
0.00183306 -3.14135e-05 3.55916e-06
-3.14135e-05 1.89932e-05 -2.69149e-07
3.55916e-06 -2.69149e-07 -3.95474e-05
0.00205593 -0.000124578 -1.88003e-06
-0.000124578 7.39515e-05 1.08758e-07
-1.88003e-06 1.08758e-07 5.5155e-05
0.00180214 -0.000118373 -1.65863e-06
-0.000118373 3.26696e-05 5.42252e-08
-1.65863e-06 5.42252e-08 -6.88227e-06
0.00189376 -0.000117824 2.78496e-06
-0.000117824 0.000108219 2.28151e-07
2.78496e-06 2.28151e-07 4.58217e-05
0.00190988 -0.000152734 -1.96089e-06
-0.000152734 9.74637e-05 -2.22907e-07
-1.96089e-06 -2.22907e-07 3.6319e-05
0.00176633 -0.000127389 5.73326e-08
-0.000127389 9.31653e-05 -1.1454e-07
5.73326e-08 -1.1454e-07 1.69961e-05
0.00172366 -0.000112271 2.15196e-06
-0.000112271 9.08e-05 7.99707e-08
2.15196e-06 7.99707e-08 -3.83613e-06
0.0016988 -0.000151899 -5.35917e-06
-0.000151899 7.58995e-05 1.93826e-07
-5.35917e-06 1.93826e-07 -1.03877e-05
0.00166518 -0.000130944 1.31745e-07
-0.000130944 9.3355e-05 -4.85069e-08
1.31745e-07 -4.85069e-08 -1.11533e-05
0.00162422 -0.000118951 1.08822e-06
-0.000118951 0.000110244 -1.79465e-08
1.08822e-06 -1.79465e-08 -1.13907e-05
0.00164245 -0.000150416 -2.76256e-06
-0.000150416 0.000107928 1.47895e-07
-2.76256e-06 1.47895e-07 -3.64086e-06
0.00157994 -0.000136912 5.18296e-08
-0.000136912 0.000110024 -9.63191e-08
5.18296e-08 -9.63191e-08 -1.56514e-05
0.00148656 -0.000129107 -1.8063e-06
-0.000129107 0.000103264 6.27647e-07
-1.8063e-06 6.27647e-07 -2.86044e-05
0.00158745 -0.000147669 -5.4346e-07
-0.000147669 0.000128301 8.23192e-07
-5.4346e-07 8.23192e-07 -1.42425e-07
0.00141499 -0.000141358 -2.58119e-07
-0.000141358 7.58601e-05 -1.98142e-07
-2.58119e-07 -1.98142e-07 -5.80328e-05
0.00134503 -0.000135933 -5.77343e-06
-0.000135933 9.00177e-05 1.62772e-06
-5.77343e-06 1.62772e-06 -3.9838e-05
0.00136918 -0.000160628 4.05276e-06
-0.000160628 6.5138e-05 -3.51976e-07
4.05276e-06 -3.51976e-07 -7.66409e-05
0.00114033 -0.000143456 3.17462e-08
-0.000143456 -1.57013e-06 -1.55001e-07
3.17462e-08 -1.55001e-07 -0.000137251
0.00105264 -0.000123168 -9.59687e-06
-0.000123168 3.09063e-05 4.22811e-06
-9.59687e-06 4.22811e-06 -8.2378e-05
0.000481293 -0.000117157 -1.55554e-05
-0.000117157 -0.000138523 1.00793e-05
-1.55554e-05 1.00793e-05 -0.000204933
0.000979385 -0.000128917 4.61176e-07
-0.000128917 3.60872e-05 3.26984e-07
4.61176e-07 3.26984e-07 -8.26432e-05
0.00115183 -0.000161819 3.61971e-06
-0.000161819 6.12052e-05 -7.0828e-07
3.61971e-06 -7.0828e-07 -8.64577e-05
0.00403208 0.000158585 -8.63787e-05
0.000158585 0.00192851 4.00527e-06
-8.63787e-05 4.00527e-06 0.00191167
0.000645557 -8.02996e-05 9.95183e-08
-8.02996e-05 -3.04824e-05 1.68225e-07
9.95183e-08 1.68225e-07 -9.34485e-05
0.000978292 -0.000127328 6.16144e-06
-0.000127328 9.34431e-05 -3.91342e-06
6.16144e-06 -3.91342e-06 -2.45183e-05
0.00377772 0.000131175 4.83633e-06
0.000131175 0.00177354 4.83334e-07
4.83633e-06 4.83334e-07 0.00176463
0.000760321 -5.03177e-05 1.01076e-05
-5.03177e-05 3.87172e-05 -8.39836e-06
1.01076e-05 -8.39836e-06 -1.52036e-05
0.0034796 0.000107467 8.68969e-05
0.000107467 0.0015978 -3.52611e-06
8.68969e-05 -3.52611e-06 0.00159555
0.000626903 0.000149196 -1.53224e-06
0.000149196 -0.000238927 -3.57983e-07
-1.53224e-06 -3.57983e-07 -0.0003959
0.000726004 0.000147503 -3.70484e-07
0.000147503 -7.09442e-05 3.82514e-07
-3.70484e-07 3.82514e-07 -0.000225265
0.00112407 0.000156021 -2.6414e-06
0.000156021 0.000168239 -2.05348e-06
-2.6414e-06 -2.05348e-06 2.8452e-05
0.000921083 0.000147529 -5.64879e-07
0.000147529 0.000104061 4.01617e-07
-5.64879e-07 4.01617e-07 -3.45802e-05
0.000985315 0.000135282 -3.50389e-07
0.000135282 0.000143198 -4.91231e-07
-3.50389e-07 -4.91231e-07 1.98321e-05
0.000925014 8.13726e-05 -3.80302e-06
8.13726e-05 0.000130377 -2.36657e-06
-3.80302e-06 -2.36657e-06 3.07779e-05
0.00088615 9.23815e-05 -5.8363e-08
9.23815e-05 0.000107449 -4.2937e-07
-5.8363e-08 -4.2937e-07 -1.70511e-07
0.000743205 2.85543e-05 -2.1988e-07
2.85543e-05 4.31408e-05 1.21783e-07
-2.1988e-07 1.21783e-07 -4.48003e-05
0.000626868 -3.34674e-05 -4.35385e-06
-3.34674e-05 -1.07388e-05 -5.99016e-06
-4.35385e-06 -5.99016e-06 -5.06484e-05
0.000676723 -4.59218e-05 4.14598e-07
-4.59218e-05 6.17539e-06 3.11732e-06
4.14598e-07 3.11732e-06 -6.68981e-05
0.000561574 -7.34246e-05 -1.83627e-07
-7.34246e-05 -3.95415e-05 -1.93904e-07
-1.83627e-07 -1.93904e-07 -7.50324e-05
0.00277594 -0.000106129 -5.62388e-05
-0.000106129 0.0012028 -2.15052e-06
-5.62388e-05 -2.15052e-06 0.00120439
0.000564494 -6.62335e-05 7.35495e-07
-6.62335e-05 -4.74586e-05 4.9371e-06
7.35495e-07 4.9371e-06 -7.51968e-05
0.00253764 -9.77761e-05 -1.05051e-06
-9.77761e-05 0.00106566 1.48015e-07
-1.05051e-06 1.48015e-07 0.00106971
0.00244186 -8.75333e-05 3.71534e-05
-8.75333e-05 0.00100499 2.96743e-06
3.71534e-05 2.96743e-06 0.00101155
0.00128272 4.64185e-05 8.96017e-06
4.64185e-05 -0.000188293 1.95369e-06
8.96017e-06 1.95369e-06 -0.000236724
0.00154498 -5.6434e-06 -3.07372e-06
-5.6434e-06 -5.14396e-05 3.42525e-06
-3.07372e-06 3.42525e-06 -0.00010103
0.00281792 -6.06393e-07 6.38683e-05
-6.06393e-07 -0.000118357 -1.1927e-06
6.38683e-05 -1.1927e-06 -0.000316223
0.00175069 0.000232396 -2.79983e-07
0.000232396 0.000214784 -6.20352e-06
-2.79983e-07 -6.20352e-06 6.96772e-05
0.000724474 0.00015967 -1.67057e-06
0.00015967 -0.000125237 1.12931e-06
-1.67057e-06 1.12931e-06 -0.000245921
0.001684 0.000200975 -2.14071e-06
0.000200975 0.000152104 1.05783e-06
-2.14071e-06 1.05783e-06 8.88278e-06
0.00171894 0.000221219 8.62254e-07
0.000221219 0.000265779 3.46888e-07
8.62254e-07 3.46888e-07 0.000111238
0.000378859 0.000137717 -4.80377e-06
0.000137717 -0.000264622 1.23696e-06
-4.80377e-06 1.23696e-06 -0.000408068
0.00176783 0.000238669 -3.50084e-06
0.000238669 9.92844e-05 1.98017e-06
-3.50084e-06 1.98017e-06 -4.11244e-05
0.00166123 0.000224175 -6.38983e-07
0.000224175 0.000427781 7.70846e-07
-6.38983e-07 7.70846e-07 0.00029216
0.00204683 0.000290405 -1.23878e-07
0.000290405 0.000366082 -2.78681e-06
-1.23878e-07 -2.78681e-06 0.000212186
0.00180776 0.000164102 -4.31656e-06
0.000164102 6.77459e-05 1.88587e-06
-4.31656e-06 1.88587e-06 -3.51062e-05
0.00202142 0.000312147 3.49936e-06
0.000312147 0.000333787 3.57754e-06
3.49936e-06 3.57754e-06 0.000179563
0.00204276 0.000291 -1.09531e-06
0.000291 0.000231799 1.58959e-07
-1.09531e-06 1.58959e-07 9.10414e-05
0.00121331 0.000137272 -6.28187e-07
0.000137272 -0.000198035 2.92095e-07
-6.28187e-07 2.92095e-07 -0.000268681
0.00113716 0.000235458 -4.60442e-06
0.000235458 -0.000174314 -4.38826e-06
-4.60442e-06 -4.38826e-06 -0.000294145
0.00133515 0.000154302 -2.28673e-05
0.000154302 6.39558e-05 -3.28253e-06
-2.28673e-05 -3.28253e-06 4.76759e-05
0.00170685 1.35647e-05 1.97471e-06
1.35647e-05 -4.41911e-05 3.23981e-07
1.97471e-06 3.23981e-07 -0.000108419
0.00191845 -8.12129e-06 -1.56257e-06
-8.12129e-06 0.000231239 -3.22764e-07
-1.56257e-06 -3.22764e-07 0.000188379
0.00175511 -7.08631e-07 -4.24313e-05
-7.08631e-07 1.65481e-05 -2.09433e-06
-4.24313e-05 -2.09433e-06 -5.99834e-05
0.000999027 -0.000111809 -1.1537e-05
-0.000111809 -0.000511921 1.39165e-06
-1.1537e-05 1.39165e-06 -0.000520379
0.00162288 -5.74547e-05 -8.51024e-06
-5.74547e-05 -8.67002e-05 1.88785e-07
-8.51024e-06 1.88785e-07 -0.000137097
0.00196673 -0.000117874 -7.20262e-07
-0.000117874 7.37048e-05 -1.59239e-08
-7.20262e-07 -1.59239e-08 3.89008e-05
0.00186942 -3.26689e-05 6.8986e-07
-3.26689e-05 3.47983e-05 2.90953e-08
6.8986e-07 2.90953e-08 -2.26816e-05
0.0018084 -5.64506e-05 2.13627e-07
-5.64506e-05 2.96618e-05 -5.94458e-07
2.13627e-07 -5.94458e-07 -3.62544e-05
0.00164292 -0.000115527 -2.55191e-06
-0.000115527 -5.83078e-05 -7.27987e-07
-2.55191e-06 -7.27987e-07 -9.5902e-05
0.00185605 -0.000113778 5.9913e-07
-0.000113778 9.48064e-05 -7.34689e-08
5.9913e-07 -7.34689e-08 2.9644e-05
0.00183723 -9.46669e-05 1.22068e-06
-9.46669e-05 0.000111402 -3.91261e-07
1.22068e-06 -3.91261e-07 2.43581e-05
0.00171422 -0.000127754 -3.38136e-06
-0.000127754 6.55519e-05 -2.44801e-07
-3.38136e-06 -2.44801e-07 -1.28972e-05
0.00169433 -0.000112488 -1.32289e-08
-0.000112488 7.87344e-05 1.63606e-08
-1.32289e-08 1.63606e-08 -1.77222e-05
0.00168606 -9.54041e-05 1.13335e-06
-9.54041e-05 0.000110497 -2.91992e-08
1.13335e-06 -2.91992e-08 -6.44914e-06
0.00169 -0.000130822 -2.2877e-06
-0.000130822 0.000108618 -1.47548e-07
-2.2877e-06 -1.47548e-07 4.24854e-06
0.00162099 -0.000117774 -5.93315e-08
-0.000117774 0.000108048 -1.23406e-08
-5.93315e-08 -1.23406e-08 -1.3397e-05
0.00151944 -0.000108005 -1.54163e-06
-0.000108005 0.000106376 6.07543e-07
-1.54163e-06 6.07543e-07 -2.37875e-05
0.0015946 -0.000136998 -8.45207e-07
-0.000136998 0.000116153 4.89666e-08
-8.45207e-07 4.89666e-08 -9.33457e-06
0.0014982 -0.000129071 -1.56248e-08
-0.000129071 0.000108758 -2.1667e-08
-1.56248e-08 -2.1667e-08 -2.29503e-05
0.00136785 -0.000120296 -5.23972e-06
-0.000120296 8.80188e-05 1.7347e-06
-5.23972e-06 1.7347e-06 -3.97448e-05
0.00138477 -0.000140413 2.15456e-06
-0.000140413 5.86513e-05 -5.42226e-07
2.15456e-06 -5.42226e-07 -7.51803e-05
0.0013278 -0.000134381 -1.06983e-07
-0.000134381 8.11697e-05 -4.78495e-08
-1.06983e-07 -4.78495e-08 -4.85225e-05
0.00107952 -0.00011013 -1.04127e-05
-0.00011013 2.4339e-05 4.11257e-06
-1.04127e-05 4.11257e-06 -8.448e-05
0.000950867 -0.000133908 5.51367e-06
-0.000133908 -0.000106381 -1.25122e-06
5.51367e-06 -1.25122e-06 -0.000242006
0.00103437 -0.000121536 2.80631e-07
-0.000121536 2.11153e-05 8.09881e-08
2.80631e-07 8.09881e-08 -9.20282e-05
0.00216753 -4.07438e-05 -1.15334e-05
-4.07438e-05 0.000800819 6.92908e-06
-1.15334e-05 6.92908e-06 0.000735679
0.0012223 -8.53915e-06 -0.00011054
-8.53915e-06 0.000327881 1.11312e-05
-0.00011054 1.11312e-05 0.000308313
0.00144757 -7.31535e-05 1.41764e-06
-7.31535e-05 0.000406586 1.4798e-07
1.41764e-06 1.4798e-07 0.000337961
0.000968635 -0.000129242 7.95822e-06
-0.000129242 3.13311e-05 -3.71309e-06
7.95822e-06 -3.71309e-06 -8.76166e-05
0.00421865 0.00013699 8.72061e-06
0.00013699 0.00202949 7.49791e-07
8.72061e-06 7.49791e-07 0.00201493
0.000779718 -9.99831e-05 1.38896e-05
-9.99831e-05 3.81277e-05 -9.66061e-06
1.38896e-05 -9.66061e-06 -2.60633e-05
0.0038692 0.000105552 0.000104038
0.000105552 0.00182135 -4.81973e-06
0.000104038 -4.81973e-06 0.00181551
0.00183989 0.000169859 -1.79587e-07
0.000169859 0.000224482 4.54463e-07
-1.79587e-07 4.54463e-07 9.27531e-05
0.00126692 0.000176457 -1.52632e-06
0.000176457 1.23429e-05 1.60823e-06
-1.52632e-06 1.60823e-06 -0.000133574
0.000964845 0.000170308 -5.11434e-08
0.000170308 -5.94181e-05 -4.57971e-08
-5.11434e-08 -4.57971e-08 -0.000219245
0.00110407 0.000159733 -3.99115e-06
0.000159733 8.8702e-05 -1.71618e-06
-3.99115e-06 -1.71618e-06 -5.95197e-05
0.00045963 0.000131294 2.13097e-07
0.000131294 -0.000220026 2.74274e-06
2.13097e-07 2.74274e-06 -0.000373588
0.00104238 0.000149553 -5.579e-07
0.000149553 0.00012611 -1.07285e-07
-5.579e-07 -1.07285e-07 -1.28115e-05
0.000987647 0.000112395 -5.08859e-06
0.000112395 0.000132518 -2.99378e-06
-5.08859e-06 -2.99378e-06 2.41935e-05
0.000868407 0.00012615 1.04899e-06
0.00012615 8.05159e-05 9.44696e-07
1.04899e-06 9.44696e-07 -4.14281e-05
0.000799247 7.25524e-05 -2.68266e-07
7.25524e-05 6.15805e-05 -3.51364e-08
-2.68266e-07 -3.51364e-08 -3.62357e-05
0.000717474 2.00183e-05 -7.78147e-06
2.00183e-05 2.83575e-05 -6.88031e-06
-7.78147e-06 -6.88031e-06 -1.93268e-05
0.000709336 1.32411e-05 1.13772e-06
1.32411e-05 2.35954e-05 2.16561e-06
1.13772e-06 2.16561e-06 -6.19038e-05
0.000560876 -4.58059e-05 -4.09963e-07
-4.58059e-05 -4.51459e-05 -2.70648e-07
-4.09963e-07 -2.70648e-07 -8.52332e-05
0.00305749 -0.00011304 -7.07957e-05
-0.00011304 0.00136448 -2.23875e-06
-7.07957e-05 -2.23875e-06 0.00136297
0.000516325 -8.0938e-05 -1.16038e-06
-8.0938e-05 -6.21314e-05 5.78677e-06
-1.16038e-06 5.78677e-06 -9.90854e-05
0.00270164 -0.000108541 -1.42777e-06
-0.000108541 0.0011623 1.68119e-07
-1.42777e-06 1.68119e-07 0.00116338
0.00250876 -9.75104e-05 4.07639e-05
-9.75104e-05 0.0010494 2.51828e-06
4.07639e-05 2.51828e-06 0.0010535
0.00183898 9.01643e-05 -2.81198e-07
9.01643e-05 3.55759e-05 1.42121e-06
-2.81198e-07 1.42121e-06 -4.15447e-05
0.00185527 4.21708e-05 2.97907e-06
4.21708e-05 0.000117942 -5.65878e-07
2.97907e-06 -5.65878e-07 7.131e-05
0.00318793 -3.0969e-05 -3.71337e-05
-3.0969e-05 0.000684891 -7.1213e-06
-3.71337e-05 -7.1213e-06 0.000602679
0.00176109 0.000201844 -3.12189e-06
0.000201844 0.000120945 9.18182e-07
-3.12189e-06 9.18182e-07 -1.69032e-05
0.00174434 0.000230096 -3.43223e-06
0.000230096 0.000238315 1.07302e-07
-3.43223e-06 1.07302e-07 9.60167e-05
0.000714831 0.000164341 -1.19911e-05
0.000164341 -0.000108266 3.65255e-06
-1.19911e-05 3.65255e-06 -0.000216525
0.00186482 0.000204833 1.85178e-06
0.000204833 0.000250489 1.69757e-07
1.85178e-06 1.69757e-07 0.000107711
0.00208709 0.000242481 -1.58045e-06
0.000242481 0.000468893 -1.78902e-07
-1.58045e-06 -1.78902e-07 0.000310891
0.0021069 0.000162469 -2.57417e-06
0.000162469 0.000229338 1.66556e-06
-2.57417e-06 1.66556e-06 0.000127187
0.00169949 0.000238357 -1.26538e-06
0.000238357 6.31709e-05 6.48909e-07
-1.26538e-06 6.48909e-07 -7.82526e-05
0.00196742 0.000285128 2.05394e-06
0.000285128 0.000313054 4.63855e-07
2.05394e-06 4.63855e-07 0.000155499
0.00181812 0.000163972 -4.32088e-07
0.000163972 6.91093e-05 9.96795e-08
-4.32088e-07 9.96795e-08 -3.37758e-05
0.00205974 0.000292513 6.16492e-06
0.000292513 0.000229934 -7.50242e-07
6.16492e-06 -7.50242e-07 8.91873e-05
0.00151401 0.000150887 -1.80587e-05
0.000150887 -3.4975e-05 -5.51947e-06
-1.80587e-05 -5.51947e-06 -0.000105489
0.00197389 1.77439e-05 1.01526e-06
1.77439e-05 0.000122331 1.92165e-07
1.01526e-06 1.92165e-07 5.54533e-05
0.00183044 1.80872e-05 -2.51444e-07
1.80872e-05 2.50141e-05 -3.32466e-07
-2.51444e-07 -3.32466e-07 -3.81028e-05
0.00259822 1.2249e-05 -2.33069e-05
1.2249e-05 0.000613617 -1.92195e-06
-2.33069e-05 -1.92195e-06 0.000569745
0.00219003 -0.00011402 -1.11265e-05
-0.00011402 0.000198981 -5.68705e-07
-1.11265e-05 -5.68705e-07 0.000162814
0.00194541 -3.352e-05 -1.58246e-06
-3.352e-05 7.1308e-05 1.61585e-07
-1.58246e-06 1.61585e-07 1.45116e-05
0.00183023 -5.69169e-05 7.19086e-07
-5.69169e-05 3.33866e-05 -6.05222e-09
7.19086e-07 -6.05222e-09 -2.86164e-05
0.0018643 -3.79149e-05 -1.15966e-08
-3.79149e-05 0.000103634 -2.0735e-07
-1.15966e-08 -2.0735e-07 1.72419e-05
0.00183321 -0.000110325 -5.56976e-07
-0.000110325 8.89668e-05 -4.52597e-08
-5.56976e-07 -4.52597e-08 2.09797e-05
0.00183256 -9.40973e-05 -3.57201e-07
-9.40973e-05 0.000114834 -1.83066e-07
-3.57201e-07 -1.83066e-07 2.69867e-05
0.00175814 -7.35151e-05 2.14738e-06
-7.35151e-05 0.000113593 -1.14474e-06
2.14738e-06 -1.14474e-06 1.77128e-06
0.00165992 -0.000112622 -2.23075e-06
-0.000112622 6.39235e-05 3.11476e-08
-2.23075e-06 3.11476e-08 -3.43563e-05
0.00167825 -9.5204e-05 -1.39535e-07
-9.5204e-05 0.000106874 1.19503e-07
-1.39535e-07 1.19503e-07 -9.98446e-06
0.00156991 -8.08812e-05 -1.20343e-06
-8.08812e-05 0.000112127 4.54375e-07
-1.20343e-06 4.54375e-07 -1.60182e-05
0.00161988 -0.00011657 -8.07133e-07
-0.00011657 0.000107008 -4.80735e-08
-8.07133e-07 -4.80735e-08 -1.42327e-05
0.00152203 -0.000107686 -1.171e-07
-0.000107686 0.000105855 4.80644e-08
-1.171e-07 4.80644e-08 -2.41512e-05
0.00138964 -0.000100897 -4.99359e-06
-0.000100897 8.69684e-05 1.58281e-06
-4.99359e-06 1.58281e-06 -4.03988e-05
0.00151382 -0.000129233 1.80159e-06
-0.000129233 0.000116364 -6.45586e-07
1.80159e-06 -6.45586e-07 -1.51934e-05
0.00136195 -0.000119219 -3.07905e-08
-0.000119219 8.48327e-05 4.42145e-08
-3.07905e-08 4.42145e-08 -4.27589e-05
0.00109958 -9.74068e-05 -1.05533e-05
-9.74068e-05 2.26282e-05 3.84878e-06
-1.05533e-05 3.84878e-06 -8.49516e-05
0.00130822 -0.000132718 5.42194e-06
-0.000132718 7.10019e-05 -1.70374e-06
5.42194e-06 -1.70374e-06 -5.85121e-05
0.00106937 -0.000108336 2.15584e-07
-0.000108336 1.79857e-05 -1.66894e-08
2.15584e-07 -1.66894e-08 -9.05608e-05
0.00223342 -5.67783e-05 -1.83343e-05
-5.67783e-05 0.000818474 5.6281e-06
-1.83343e-05 5.6281e-06 0.000761493
0.00100683 -0.000119738 9.47239e-06
-0.000119738 6.36039e-06 -3.96052e-06
9.47239e-06 -3.96052e-06 -0.00010667
0.00235123 -9.16095e-05 2.93895e-05
-9.16095e-05 0.000890366 -2.45609e-06
2.93895e-05 -2.45609e-06 0.000832762
0.00155082 -4.94497e-05 -0.000129156
-4.94497e-05 0.000511812 1.43389e-05
-0.000129156 1.43389e-05 0.000491457
0.00291198 2.759e-05 -0.000115492
2.759e-05 0.00128865 3.82153e-06
-0.000115492 3.82153e-06 0.00127268
0.00244789 -0.000119651 7.31564e-05
-0.000119651 0.000955671 -9.34462e-06
7.31564e-05 -9.34462e-06 0.000900295
0.00438555 9.84458e-05 0.000120078
9.84458e-05 0.00211881 -7.80136e-06
0.000120078 -7.80136e-06 0.00210718
0.00176854 0.000158681 -2.21773e-06
0.000158681 0.000154548 -7.60153e-08
-2.21773e-06 -7.60153e-08 2.59357e-05
0.00186832 0.000180015 9.91622e-07
0.000180015 0.000309083 1.70595e-07
9.91622e-07 1.70595e-07 0.000175692
0.00171398 0.000167627 1.06286e-06
0.000167627 0.000158428 2.47122e-07
1.06286e-06 2.47122e-07 2.73871e-05
0.00112266 0.000158347 -5.81809e-06
0.000158347 1.5862e-05 2.14938e-07
-5.81809e-06 2.14938e-07 -0.000126782
0.00133223 0.000180185 -2.34016e-07
0.000180185 4.5365e-05 5.98161e-07
-2.34016e-07 5.98161e-07 -0.000100716
0.00128653 0.000190601 1.84007e-06
0.000190601 0.000111373 7.68276e-07
1.84007e-06 7.68276e-07 -5.12412e-05
0.00114017 0.00016263 -5.58637e-07
0.00016263 0.000109895 1.98876e-07
-5.58637e-07 1.98876e-07 -3.91902e-05
0.000973384 0.000126076 -6.59062e-06
0.000126076 7.54899e-05 -3.97024e-06
-6.59062e-06 -3.97024e-06 -4.16316e-05
0.000954996 0.000142672 1.68138e-06
0.000142672 8.08277e-05 1.96006e-06
1.68138e-06 1.96006e-06 -5.71748e-05
0.000862422 0.000103794 -3.49045e-07
0.000103794 6.39365e-05 -1.04213e-07
-3.49045e-07 -1.04213e-07 -4.28591e-05
0.000779668 6.57844e-05 -1.07837e-05
6.57844e-05 5.34387e-05 -8.16766e-06
-1.07837e-05 -8.16766e-06 -4.52891e-06
0.000668279 6.33359e-05 1.97203e-06
6.33359e-05 -1.00441e-05 1.76291e-06
1.97203e-06 1.76291e-06 -0.000106021
0.000600856 -2.39167e-06 2.27946e-07
-2.39167e-06 -3.11184e-05 -2.37404e-07
2.27946e-07 -2.37404e-07 -7.86311e-05
0.00342028 -0.000107348 -9.11417e-05
-0.000107348 0.00157508 -3.42888e-06
-9.11417e-05 -3.42888e-06 0.00157074
0.000492938 -7.04975e-05 -9.685e-07
-7.04975e-05 -7.53064e-05 6.56688e-06
-9.685e-07 6.56688e-06 -0.000118725
0.0029886 -0.000121816 -2.38592e-06
-0.000121816 0.00132749 2.74991e-07
-2.38592e-06 2.74991e-07 0.00132448
0.00265578 -0.000109102 4.5651e-05
-0.000109102 0.00113697 2.11541e-06
4.5651e-05 2.11541e-06 0.00113808
0.00190544 8.92062e-05 -3.24696e-07
8.92062e-05 8.74342e-05 1.33351e-06
-3.24696e-07 1.33351e-06 5.42942e-06
0.00179907 8.93378e-05 7.0139e-07
8.93378e-05 2.14119e-05 -1.89832e-07
7.0139e-07 -1.89832e-07 -5.56535e-05
0.0021253 3.59554e-05 -3.22428e-05
3.59554e-05 0.000282674 -5.34731e-06
-3.22428e-05 -5.34731e-06 0.000238669
0.00188029 0.000144476 4.84485e-07
0.000144476 0.000134542 1.52542e-06
4.84485e-07 1.52542e-06 2.13359e-05
0.00175125 0.000196973 -6.99175e-07
0.000196973 0.000120919 -2.56223e-07
-6.99175e-07 -2.56223e-07 -1.56596e-05
0.0016682 0.000223593 -1.83857e-06
0.000223593 0.000224529 1.22513e-06
-1.83857e-06 1.22513e-06 8.54057e-05
0.00205559 0.000209354 1.1501e-06
0.000209354 0.000353962 -8.14379e-07
1.1501e-06 -8.14379e-07 0.000211556
0.00192909 0.000155704 1.39298e-07
0.000155704 0.000133027 -3.6065e-08
1.39298e-07 -3.6065e-08 2.95506e-05
0.00162159 0.000237532 -2.03803e-07
0.000237532 2.33575e-05 -1.05144e-06
-2.03803e-07 -1.05144e-06 -0.000119016
0.00176475 0.000161388 5.02574e-06
0.000161388 5.07249e-05 -1.68488e-06
5.02574e-06 -1.68488e-06 -5.21924e-05
0.00184275 2.13134e-05 1.9425e-06
2.13134e-05 8.46898e-05 4.83731e-07
1.9425e-06 4.83731e-07 1.83088e-06
0.00189717 1.7939e-05 -4.21892e-07
1.7939e-05 8.23367e-05 -2.05714e-08
-4.21892e-07 -2.05714e-08 1.34118e-05
0.00192416 2.2303e-05 -4.5683e-06
2.2303e-05 8.11736e-05 -1.05722e-06
-4.5683e-06 -1.05722e-06 1.93811e-05
0.00166202 -6.47903e-06 -4.98559e-07
-6.47903e-06 8.75427e-06 1.04727e-07
-4.98559e-07 1.04727e-07 -8.56438e-05
0.00185878 -5.69512e-05 -9.39716e-07
-5.69512e-05 4.20381e-05 3.42283e-07
-9.39716e-07 3.42283e-07 -1.58647e-05
0.00186169 -3.92186e-05 -3.09569e-07
-3.92186e-05 0.000101489 4.33992e-07
-3.09569e-07 4.33992e-07 1.49086e-05
0.00191421 -4.00072e-05 8.92188e-07
-4.00072e-05 0.000177749 -6.96027e-07
8.92188e-07 -6.96027e-07 7.31918e-05
0.00183008 -9.37514e-05 -2.26854e-06
-9.37514e-05 0.000119331 2.80754e-07
-2.26854e-06 2.80754e-07 3.06954e-05
0.00175946 -7.353e-05 6.40946e-07
-7.353e-05 0.000113909 -4.51403e-07
6.40946e-07 -4.51403e-07 2.18848e-06
0.00161607 -5.34288e-05 -1.1227e-06
-5.34288e-05 0.00010737 -1.92652e-07
-1.1227e-06 -1.92652e-07 -1.81429e-05
0.00167633 -9.44752e-05 -8.34375e-07
-9.44752e-05 0.000106572 2.40995e-07
-8.34375e-07 2.40995e-07 -1.01411e-05
0.00155287 -7.95072e-05 -9.64787e-08
-7.95072e-05 0.000100045 8.97695e-08
-9.64787e-08 8.97695e-08 -2.7961e-05
0.00142496 -7.77181e-05 -4.86637e-06
-7.77181e-05 9.179e-05 1.52431e-06
-4.86637e-06 1.52431e-06 -3.58699e-05
0.00152261 -0.000107233 1.4979e-06
-0.000107233 0.000104282 -5.20533e-07
1.4979e-06 -5.20533e-07 -2.5558e-05
0.00138242 -9.98298e-05 -6.23671e-08
-9.98298e-05 8.29225e-05 1.43808e-09
-6.23671e-08 1.43808e-09 -4.42736e-05
0.00111174 -8.24957e-05 -1.05371e-05
-8.24957e-05 1.78395e-05 3.21169e-06
-1.05371e-05 3.21169e-06 -8.97885e-05
0.00135281 -0.000117971 5.2468e-06
-0.000117971 7.99005e-05 -1.65274e-06
5.2468e-06 -1.65274e-06 -4.75071e-05
0.00109886 -9.53164e-05 1.72321e-07
-9.53164e-05 2.09746e-05 1.43346e-07
1.72321e-07 1.43346e-07 -8.61696e-05
0.00229594 -7.57271e-05 -2.53852e-05
-7.57271e-05 0.000840327 4.81062e-06
-2.53852e-05 4.81062e-06 0.000788041
0.00105616 -0.000106536 1.02404e-05
-0.000106536 9.87094e-06 -4.15014e-06
1.02404e-05 -4.15014e-06 -9.83898e-05
0.00236124 -9.65607e-05 2.6147e-05
-9.65607e-05 0.000882793 -2.5212e-06
2.6147e-05 -2.5212e-06 0.000830392
0.00162454 -4.42095e-05 -0.000126406
-4.42095e-05 0.000551415 1.31294e-05
-0.000126406 1.31294e-05 0.00053126
0.0025041 -0.000121429 7.92672e-05
-0.000121429 0.000968548 -1.14692e-05
7.92672e-05 -1.14692e-05 0.00091477
0.00143802 2.33864e-05 -6.54952e-05
2.33864e-05 0.000465306 4.58289e-06
-6.54952e-05 4.58289e-06 0.000433771
0.00447552 0.000283819 -9.05909e-06
0.000283819 0.0022157 -4.89324e-06
-9.05909e-06 -4.89324e-06 0.00216764
0.00171262 0.000129345 3.00414e-07
0.000129345 0.000104581 6.07073e-07
3.00414e-07 6.07073e-07 -2.0332e-05
0.00163776 0.000142351 -1.35189e-06
0.000142351 0.000151367 -4.79418e-07
-1.35189e-06 -4.79418e-07 2.06469e-05
0.00175944 0.000160004 -2.14016e-06
0.000160004 0.000149908 2.60077e-08
-2.14016e-06 2.60077e-08 2.0565e-05
0.00166509 0.000166107 -3.60971e-06
0.000166107 0.000267275 -6.16146e-07
-3.60971e-06 -6.16146e-07 0.000137569
0.00149534 0.000165175 6.82643e-07
0.000165175 0.00010221 -1.85048e-07
6.82643e-07 -1.85048e-07 -3.03372e-05
0.00158703 0.000165558 3.62337e-06
0.000165558 9.20074e-05 -3.91769e-07
3.62337e-06 -3.91769e-07 -3.83051e-05
0.000975125 0.000128878 -9.18001e-06
0.000128878 1.24585e-05 -3.12181e-06
-9.18001e-06 -3.12181e-06 -0.000105825
0.00124858 0.000166747 -4.46468e-07
0.000166747 8.35705e-05 9.21415e-07
-4.46468e-07 9.21415e-07 -6.03313e-05
0.00137968 0.000182716 3.62085e-06
0.000182716 6.8624e-05 -3.25498e-07
3.62085e-06 -3.25498e-07 -7.75001e-05
0.00117971 0.000165927 3.67336e-06
0.000165927 0.000133104 2.52076e-06
3.67336e-06 2.52076e-06 -1.69258e-05
0.000928134 0.000122186 -4.97104e-07
0.000122186 5.03275e-05 -1.55506e-07
-4.97104e-07 -1.55506e-07 -6.6056e-05
0.000778138 0.000120597 -1.63859e-05
0.000120597 4.09495e-05 -9.35967e-06
-1.63859e-05 -9.35967e-06 -2.63082e-05
0.000745614 9.52282e-05 3.64367e-06
9.52282e-05 1.107e-07 2.61586e-06
3.64367e-06 2.61586e-06 -0.000105214
0.0006435 6.01046e-05 -1.08099e-07
6.01046e-05 -1.49596e-05 3.44164e-09
-1.08099e-07 3.44164e-09 -7.27885e-05
0.00390555 -9.40699e-05 -0.000108499
-9.40699e-05 0.00185827 -6.44201e-06
-0.000108499 -6.44201e-06 0.00184838
0.00051376 -1.29646e-05 3.97004e-06
-1.29646e-05 -7.7305e-05 6.87362e-06
3.97004e-06 6.87362e-06 -0.00012309
0.00334668 -0.000134886 -4.55675e-06
-0.000134886 0.00153631 4.2979e-07
-4.55675e-06 4.2979e-07 0.0015282
0.00291067 -0.000124024 5.25181e-05
-0.000124024 0.00128421 1.88568e-06
5.25181e-05 1.88568e-06 0.00128105
0.00177995 7.96049e-05 1.19247e-06
7.96049e-05 5.29932e-05 1.34904e-06
1.19247e-06 1.34904e-06 -4.25192e-05
0.00182241 9.09599e-05 -2.79077e-07
9.09599e-05 3.91402e-05 3.38842e-07
-2.79077e-07 3.38842e-07 -4.25498e-05
0.00183737 9.06444e-05 2.70685e-07
9.06444e-05 3.8203e-05 -1.66071e-06
2.70685e-07 -1.66071e-06 -3.88774e-05
0.00188355 0.000143415 5.98009e-07
0.000143415 0.000136621 -8.53515e-08
5.98009e-07 -8.53515e-08 2.43275e-05
0.00174611 0.000192228 -4.58087e-07
0.000192228 0.000123614 -1.54815e-06
-4.58087e-07 -1.54815e-06 -1.17175e-05
0.00177561 0.000149253 1.43098e-06
0.000149253 4.74268e-05 -1.77322e-06
1.43098e-06 -1.77322e-06 -5.73289e-05
0.00183143 2.36146e-05 3.947e-07
2.36146e-05 0.000105648 3.83478e-07
3.947e-07 3.83478e-07 1.15416e-05
0.00186233 2.26832e-05 2.8308e-07
2.26832e-05 9.65025e-05 -2.59903e-07
2.8308e-07 -2.59903e-07 1.24489e-05
0.00178738 1.87205e-05 -1.31589e-07
1.87205e-05 2.35399e-05 -1.97106e-07
-1.31589e-07 -1.97106e-07 -4.74972e-05
0.00175996 -1.28964e-05 -1.35258e-06
-1.28964e-05 6.18454e-05 8.67498e-08
-1.35258e-06 8.67498e-08 -3.15333e-05
0.00172783 -1.83233e-05 1.0342e-06
-1.83233e-05 7.79136e-05 -4.05064e-07
1.0342e-06 -4.05064e-07 -2.80113e-05
0.00185678 -4.04212e-05 -8.98279e-07
-4.04212e-05 9.85241e-05 5.48075e-07
-8.98279e-07 5.48075e-07 1.17336e-05
0.00180791 -4.02866e-05 -4.14355e-07
-4.02866e-05 0.000118533 3.54938e-07
-4.14355e-07 3.54938e-07 1.15261e-05
0.00169101 -2.97503e-05 2.07725e-07
-2.97503e-05 0.000126504 -4.45717e-07
2.07725e-07 -4.45717e-07 6.37104e-06
0.00175303 -7.40496e-05 -9.16236e-08
-7.40496e-05 0.000110014 1.78526e-07
-9.16236e-08 1.78526e-07 -1.66418e-06
0.00158875 -5.48766e-05 -1.99525e-07
-5.48766e-05 9.16762e-05 -1.06762e-07
-1.99525e-07 -1.06762e-07 -3.39004e-05
0.00143278 -4.6621e-05 -5.58565e-06
-4.6621e-05 7.80531e-05 1.22389e-06
-5.58565e-06 1.22389e-06 -4.93238e-05
0.00153207 -7.9683e-05 8.82413e-07
-7.9683e-05 8.58421e-05 -2.8962e-07
8.82413e-07 -2.8962e-07 -4.21277e-05
0.00139955 -7.59863e-05 8.04412e-08
-7.59863e-05 7.76079e-05 7.96029e-08
8.04412e-08 7.96029e-08 -4.98928e-05
0.00112166 -6.38227e-05 -1.05012e-05
-6.38227e-05 1.03172e-05 2.86934e-06
-1.05012e-05 2.86934e-06 -9.80743e-05
0.00137534 -9.87048e-05 4.83813e-06
-9.87048e-05 7.89429e-05 -1.5644e-06
4.83813e-06 -1.5644e-06 -4.80754e-05
0.00111795 -8.02407e-05 -2.0902e-08
-8.02407e-05 2.0082e-05 7.02337e-08
-2.0902e-08 7.02337e-08 -8.71138e-05
0.0023042 -8.26292e-05 -2.86455e-05
-8.26292e-05 0.000838045 4.07632e-06
-2.86455e-05 4.07632e-06 0.000785542
0.00109451 -9.32263e-05 1.06422e-05
-9.32263e-05 1.72299e-05 -3.65531e-06
1.06422e-05 -3.65531e-06 -8.94633e-05
0.00237061 -9.24865e-05 2.49263e-05
-9.24865e-05 0.00087877 -2.06367e-06
2.49263e-05 -2.06367e-06 0.000828667
0.00167412 -3.93612e-05 -0.000126314
-3.93612e-05 0.000573203 1.13693e-05
-0.000126314 1.13693e-05 0.000553544
0.00247816 -0.000108447 7.86742e-05
-0.000108447 0.000944015 -1.01763e-05
7.86742e-05 -1.01763e-05 0.000894143
0.001453 4.7819e-06 -5.89362e-05
4.7819e-06 0.000464359 4.72285e-06
-5.89362e-05 4.72285e-06 0.000437971
0.00139521 5.50061e-05 9.97732e-06
5.50061e-05 0.000445793 -4.24307e-06
9.97732e-06 -4.24307e-06 0.00041077
0.00186729 7.96829e-05 7.42807e-07
7.96829e-05 0.00015784 1.57415e-06
7.42807e-07 1.57415e-06 4.904e-05
0.00156473 0.0001107 -1.8505e-06
0.0001107 8.7631e-05 -1.22239e-07
-1.8505e-06 -1.22239e-07 -4.21462e-05
0.00175162 0.000131439 -1.14368e-06
0.000131439 0.000121931 -1.62249e-07
-1.14368e-06 -1.62249e-07 -1.44354e-06
0.00162684 0.00013784 -4.24321e-06
0.00013784 0.000216066 -1.56785e-06
-4.24321e-06 -1.56785e-06 8.92461e-05
0.00169428 0.000143547 9.54774e-07
0.000143547 0.000185984 3.51204e-07
9.54774e-07 3.51204e-07 5.5242e-05
0.00174706 0.000161201 2.43124e-06
0.000161201 0.00014404 5.12564e-07
2.43124e-06 5.12564e-07 1.3917e-05
0.0010199 0.000121316 -1.01306e-05
0.000121316 -8.79403e-06 -3.36137e-06
-1.01306e-05 -3.36137e-06 -0.000121129
0.00140844 0.000157146 3.05473e-06
0.000157146 0.000122009 1.68823e-07
3.05473e-06 1.68823e-07 -8.74374e-06
0.00113597 0.000150957 3.38962e-06
0.000150957 -9.76786e-05 -4.84075e-07
3.38962e-06 -4.84075e-07 -0.000229445
0.000675226 0.000134614 -1.85405e-05
0.000134614 -3.49466e-05 -8.85919e-06
-1.85405e-05 -8.85919e-06 -0.000105416
0.00100778 0.00013011 -9.50875e-07
0.00013011 2.97373e-05 5.47776e-07
-9.50875e-07 5.47776e-07 -8.85907e-05
0.00137926 0.000175372 5.7786e-06
0.000175372 0.00015387 1.77072e-06
5.7786e-06 1.77072e-06 8.68625e-06
0.0008927 0.000118844 6.01645e-06
0.000118844 3.10959e-05 3.88524e-06
6.01645e-06 3.88524e-06 -8.46811e-05
0.000647499 0.000107207 1.9633e-07
0.000107207 -2.53385e-05 7.81354e-08
1.9633e-07 7.81354e-08 -9.22591e-05
0.00454558 -8.51896e-05 -0.000120005
-8.51896e-05 0.00222747 -1.06132e-05
-0.000120005 -1.06132e-05 0.00220792
0.000524217 4.96831e-05 7.7237e-06
4.96831e-05 -7.69958e-05 7.91634e-06
7.7237e-06 7.91634e-06 -0.000133116
0.0037695 -0.000136091 -7.55779e-06
-0.000136091 0.0017854 5.49788e-07
-7.55779e-06 5.49788e-07 0.00177216
0.00324894 -0.000142443 6.24643e-05
-0.000142443 0.00148141 1.84313e-06
6.24643e-05 1.84313e-06 0.00147228
0.00177448 5.83892e-05 2.65885e-07
5.83892e-05 7.76457e-05 2.9783e-07
2.65885e-07 2.9783e-07 -2.10945e-05
0.00176558 7.87817e-05 3.1523e-07
7.87817e-05 4.69107e-05 4.4418e-07
3.1523e-07 4.4418e-07 -4.80975e-05
0.00172556 9.19162e-05 1.62822e-06
9.19162e-05 -1.429e-05 -8.86566e-07
1.62822e-06 -8.86566e-07 -9.56652e-05
0.00188486 0.000142191 1.7545e-07
0.000142191 0.00013781 -1.51585e-06
1.7545e-07 -1.51585e-06 2.64498e-05
0.00174395 -3.08487e-06 1.18473e-06
-3.08487e-06 8.59142e-05 7.05434e-08
1.18473e-06 7.05434e-08 -2.10974e-05
0.00187656 2.01607e-05 -9.84518e-08
2.01607e-05 0.000128069 -1.25452e-07
-9.84518e-08 -1.25452e-07 3.417e-05
0.00188645 2.35738e-05 -1.4138e-06
2.35738e-05 0.000110695 -1.03533e-07
-1.4138e-06 -1.03533e-07 2.54634e-05
0.00186156 -1.64101e-05 -2.64247e-06
-1.64101e-05 0.000117111 -3.70822e-07
-2.64247e-06 -3.70822e-07 2.47534e-05
0.00171795 -1.17583e-05 -9.1742e-07
-1.17583e-05 7.23447e-05 -6.93864e-08
-9.1742e-07 -6.93864e-08 -3.26685e-05
0.00177715 -6.86527e-06 8.85925e-07
-6.86527e-06 0.000170525 -3.99474e-07
8.85925e-07 -3.99474e-07 5.36287e-05
0.00170205 -4.06492e-05 -1.35206e-06
-4.06492e-05 5.93883e-05 1.2077e-06
-1.35206e-06 1.2077e-06 -5.0067e-05
0.00167152 -2.92516e-05 5.22732e-07
-2.92516e-05 0.000117567 1.1432e-07
5.22732e-07 1.1432e-07 -4.09671e-06
0.00136559 -1.88299e-05 -4.4373e-06
-1.88299e-05 2.3637e-05 4.03504e-07
-4.4373e-06 4.03504e-07 -0.000102076
0.0015658 -5.47708e-05 5.53926e-07
-5.47708e-05 7.84572e-05 -2.79591e-08
5.53926e-07 -2.79591e-08 -4.70781e-05
0.00141343 -4.40038e-05 -4.52758e-07
-4.40038e-05 6.62022e-05 1.95464e-07
-4.52758e-07 1.95464e-07 -6.09365e-05
0.00114687 -4.06529e-05 -1.08412e-05
-4.06529e-05 8.72056e-06 2.4308e-06
-1.08412e-05 2.4308e-06 -0.000100845
0.00137044 -7.22528e-05 4.53658e-06
-7.22528e-05 6.13578e-05 -1.31208e-06
4.53658e-06 -1.31208e-06 -6.58361e-05
0.00113124 -6.31961e-05 1.72503e-08
-6.31961e-05 1.47908e-05 1.12918e-07
1.72503e-08 1.12918e-07 -9.34225e-05
0.000674413 -4.99597e-05 -1.59331e-05
-4.99597e-05 -8.54304e-05 4.01627e-06
-1.59331e-05 4.01627e-06 -0.00014694
0.00112901 -7.82207e-05 1.05873e-05
-7.82207e-05 2.47969e-05 -3.17001e-06
1.05873e-05 -3.17001e-06 -8.19504e-05
0.00152678 -6.29241e-05 3.19828e-05
-6.29241e-05 0.000397981 -1.76845e-06
3.19828e-05 -1.76845e-06 0.000344229
0.00494049 -9.11829e-05 -0.000154301
-9.11829e-05 0.002403 8.10412e-06
-0.000154301 8.10412e-06 0.00240038
0.00245947 -8.95358e-05 7.86563e-05
-8.95358e-05 0.00092381 -8.42907e-06
7.86563e-05 -8.42907e-06 0.00087646
0.00147132 -1.6073e-05 -5.26101e-05
-1.6073e-05 0.00046544 4.00778e-06
-5.26101e-05 4.00778e-06 0.00044189
0.00131438 -1.69898e-06 2.12769e-05
-1.69898e-06 0.000389533 -3.58147e-06
2.12769e-05 -3.58147e-06 0.000361079
0.00188257 5.68135e-05 1.08153e-06
5.68135e-05 0.000171559 7.85801e-07
1.08153e-06 7.85801e-07 6.62792e-05
0.00165457 7.23897e-05 -5.52174e-07
7.23897e-05 0.000122228 1.01661e-06
-5.52174e-07 1.01661e-06 1.25752e-07
0.00186635 7.69159e-05 1.5657e-07
7.69159e-05 0.000160916 -4.02579e-08
1.5657e-07 -4.02579e-08 5.13999e-05
0.0012236 9.79917e-05 -5.52667e-06
9.79917e-05 -3.54916e-05 -1.26756e-06
-5.52667e-06 -1.26756e-06 -0.000163273
0.00167702 0.00011325 -2.99462e-08
0.00011325 0.000151213 -2.8427e-08
-2.99462e-08 -2.8427e-08 2.26422e-05
0.00179255 0.000133965 -1.06473e-06
0.000133965 0.000139997 -9.47399e-07
-1.06473e-06 -9.47399e-07 1.81158e-05
0.000672601 8.97494e-05 -1.23946e-05
8.97494e-05 -0.000226805 -4.24383e-06
-1.23946e-05 -4.24383e-06 -0.000337423
0.00164529 0.000140548 1.43826e-06
0.000140548 0.000226395 3.35051e-07
1.43826e-06 3.35051e-07 9.913e-05
0.00175047 0.000145085 3.08593e-06
0.000145085 0.000220453 1.25027e-06
3.08593e-06 1.25027e-06 8.96331e-05
0.000611654 0.00011523 -1.74808e-05
0.00011523 -9.08902e-05 -7.3879e-06
-1.74808e-05 -7.3879e-06 -0.000157629
0.000844902 0.000114268 4.46436e-07
0.000114268 -0.000107355 -1.4174e-07
4.46436e-07 -1.4174e-07 -0.000220636
0.00114583 0.000147744 8.03351e-06
0.000147744 -2.66308e-05 8.02423e-07
8.03351e-06 8.02423e-07 -0.000158352
0.00497437 -7.6702e-05 -0.000122018
-7.6702e-05 0.00246423 -1.1957e-05
-0.000122018 -1.1957e-05 0.00244149
0.000623511 0.000124669 1.35123e-06
0.000124669 -6.23788e-05 4.62015e-07
1.35123e-06 4.62015e-07 -0.000132141
0.00102645 0.000130731 8.70904e-06
0.000130731 3.95308e-05 4.59247e-06
8.70904e-06 4.59247e-06 -7.88341e-05
0.000502348 9.85652e-05 1.24e-05
9.85652e-05 -0.000101977 9.00637e-06
1.24e-05 9.00637e-06 -0.000167518
0.00427789 -0.000115908 -7.30048e-06
-0.000115908 0.0020767 3.11661e-07
-7.30048e-06 3.11661e-07 0.00205947
0.00359949 -0.000160047 7.40089e-05
-0.000160047 0.00169206 2.38779e-06
7.40089e-05 2.38779e-06 0.001676
0.0018057 3.54603e-05 -5.6101e-07
3.54603e-05 0.000117797 -8.59663e-08
-5.6101e-07 -8.59663e-08 1.1287e-05
0.001786 5.76612e-05 -9.61853e-08
5.76612e-05 8.04458e-05 2.90238e-07
-9.61853e-08 2.90238e-07 -1.81e-05
0.0017515 7.8466e-05 -4.26868e-07
7.8466e-05 4.0688e-05 -6.60766e-07
-4.26868e-07 -6.60766e-07 -5.3831e-05
0.0016985 6.93858e-06 1.06602e-06
6.93858e-06 0.000121657 -2.41099e-07
1.06602e-06 -2.41099e-07 4.07919e-06
0.00173573 -1.12528e-08 -3.55342e-08
-1.12528e-08 8.48759e-05 6.76695e-08
-3.55342e-08 6.76695e-08 -2.1162e-05
0.00192206 1.44982e-05 -1.43783e-06
1.44982e-05 0.000150747 -4.10191e-08
-1.43783e-06 -4.10191e-08 5.70506e-05
0.00170096 -6.39988e-06 -1.88474e-06
-6.39988e-06 6.26651e-05 5.26377e-07
-1.88474e-06 5.26377e-07 -4.14274e-05
0.00176355 -4.2253e-06 1.0945e-06
-4.2253e-06 0.000162439 -1.69701e-07
1.0945e-06 -1.69701e-07 4.56157e-05
0.00173939 -3.17218e-06 -2.64738e-06
-3.17218e-06 0.000222174 -2.92113e-08
-2.64738e-06 -2.92113e-08 0.000101668
0.00165354 -2.86998e-05 1.10932e-06
-2.86998e-05 0.000109455 5.36926e-07
1.10932e-06 5.36926e-07 -1.3746e-05
0.00158051 -1.76457e-05 -2.28097e-08
-1.76457e-05 0.000142624 6.46556e-08
-2.28097e-08 6.46556e-08 1.81681e-05
0.000799995 -1.57148e-05 -1.27506e-05
-1.57148e-05 -0.000196995 1.8122e-06
-1.27506e-05 1.8122e-06 -0.000310385
0.00139902 -4.35801e-05 4.14946e-06
-4.35801e-05 5.69999e-05 -7.94903e-07
4.14946e-06 -7.94903e-07 -7.00554e-05
0.00114006 -3.77997e-05 3.79067e-08
-3.77997e-05 4.61505e-06 1.46751e-07
3.79067e-08 1.46751e-07 -0.00010471
0.00067204 -2.01252e-05 -1.57427e-05
-2.01252e-05 -9.63829e-05 2.90727e-06
-1.57427e-05 2.90727e-06 -0.000159479
0.00114376 -6.1475e-05 1.07737e-05
-6.1475e-05 2.0785e-05 -2.68913e-06
1.07737e-05 -2.68913e-06 -8.71399e-05
0.000679437 -3.60042e-05 -2.52881e-07
-3.60042e-05 -8.30941e-05 1.87404e-07
-2.52881e-07 1.87404e-07 -0.000144836
0.00499675 -2.35728e-05 -0.000145678
-2.35728e-05 0.00242867 5.30387e-06
-0.000145678 5.30387e-06 0.00242854
0.000715245 -5.3331e-05 1.58082e-05
-5.3331e-05 -5.87469e-05 -5.73453e-06
1.58082e-05 -5.73453e-06 -0.000119806
0.00317943 -5.47878e-05 6.60277e-05
-5.47878e-05 0.00141801 -6.0729e-07
6.60277e-05 -6.0729e-07 0.00140227
0.00124782 -3.17486e-05 2.72005e-05
-3.17486e-05 0.000348752 -3.54007e-06
2.72005e-05 -3.54007e-06 0.000320185
0.00181336 4.73479e-05 1.80034e-07
4.73479e-05 0.000151294 2.18836e-07
1.80034e-07 2.18836e-07 4.22997e-05
0.00157948 4.03036e-05 7.70633e-08
4.03036e-05 7.82568e-05 1.00658e-06
7.70633e-08 1.00658e-06 -4.06647e-05
0.00185012 5.43268e-05 -3.24954e-07
5.43268e-05 0.000153798 -2.04375e-07
-3.24954e-07 -2.04375e-07 4.86591e-05
0.00143208 6.95184e-05 -4.42799e-06
6.95184e-05 7.02868e-05 -3.80513e-07
-4.42799e-06 -3.80513e-07 -5.36052e-05
0.0016111 7.05707e-05 4.24594e-07
7.05707e-05 9.64326e-05 9.82404e-08
4.24594e-07 9.82404e-08 -2.65607e-05
0.0018668 7.38174e-05 -1.13955e-06
7.38174e-05 0.000164697 -1.41263e-06
-1.13955e-06 -1.41263e-06 5.4485e-05
0.000658925 7.09056e-05 -1.25692e-05
7.09056e-05 -0.000254802 -3.16653e-06
-1.25692e-05 -3.16653e-06 -0.000364837
0.0015229 0.000107775 -1.34751e-06
0.000107775 0.000132482 -2.45281e-07
-1.34751e-06 -2.45281e-07 5.99712e-06
0.00179031 0.000115623 2.18128e-06
0.000115623 0.000215433 -1.41392e-07
2.18128e-06 -1.41392e-07 8.80994e-05
0.000620357 8.31809e-05 -1.60902e-05
8.31809e-05 -0.000101477 -6.02122e-06
-1.60902e-05 -6.02122e-06 -0.000164735
0.000648702 8.97631e-05 -2.666e-06
8.97631e-05 -0.000240544 -6.89085e-07
-2.666e-06 -6.89085e-07 -0.000351796
0.00166138 0.000143168 7.25474e-06
0.000143168 0.000235383 1.93914e-06
7.25474e-06 1.93914e-06 0.000107689
0.00507702 7.65824e-06 -0.00013928
7.65824e-06 0.00249025 -9.80599e-06
-0.00013928 -9.80599e-06 0.00248326
0.000596379 0.000106114 8.74531e-07
0.000106114 -9.82553e-05 3.22332e-07
8.74531e-07 3.22332e-07 -0.000165803
0.00066635 0.000107259 1.06364e-05
0.000107259 -0.000207964 3.17814e-06
1.06364e-05 3.17814e-06 -0.000322203
0.00476735 -5.15814e-05 6.49722e-06
-5.15814e-05 0.00233938 -4.85384e-07
6.49722e-06 -4.85384e-07 0.00232448
0.00053112 0.000112556 1.53203e-05
0.000112556 -0.000110006 9.15138e-06
1.53203e-05 9.15138e-06 -0.000180181
0.00403381 -0.000163854 8.58697e-05
-0.000163854 0.00194902 5.09282e-06
8.58697e-05 5.09282e-06 0.00192681
0.00177437 2.62637e-05 -1.76628e-07
2.62637e-05 0.00016117 -1.00708e-07
-1.76628e-07 -1.00708e-07 4.58176e-05
0.00175798 3.38706e-05 -2.79656e-07
3.38706e-05 9.52821e-05 8.73927e-08
-2.79656e-07 8.73927e-08 -1.1998e-05
0.00179638 5.6762e-05 -5.39046e-07
5.6762e-05 8.2319e-05 -1.28794e-07
-5.39046e-07 -1.28794e-07 -1.60299e-05
0.00171441 -1.67698e-06 -2.69714e-06
-1.67698e-06 0.000211761 -1.53644e-07
-2.69714e-06 -1.53644e-07 9.31844e-05
0.00172646 6.06516e-06 6.59505e-07
6.06516e-06 0.00013699 3.21649e-09
6.59505e-07 3.21649e-09 2.04872e-05
0.00173903 5.06479e-06 3.48406e-07
5.06479e-06 8.99399e-05 -2.57694e-08
3.48406e-07 -2.57694e-08 -1.51431e-05
0.00175061 -2.46943e-06 8.84129e-07
-2.46943e-06 0.000154708 3.04835e-07
8.84129e-07 3.04835e-07 3.79475e-05
0.00174119 -2.97033e-06 1.75953e-06
-2.97033e-06 0.000223081 -2.14131e-07
1.75953e-06 -2.14131e-07 0.000102525
0.00081114 -5.07405e-06 -1.20027e-05
-5.07405e-06 -0.000195682 7.89022e-07
-1.20027e-05 7.89022e-07 -0.000308602
0.00179916 -1.66405e-05 5.45569e-06
-1.66405e-05 0.000263775 -5.10048e-07
5.45569e-06 -5.10048e-07 0.000140579
0.000980283 -1.4369e-05 -2.55706e-06
-1.4369e-05 -9.63475e-05 4.05705e-07
-2.55706e-06 4.05705e-07 -0.000208134
0.000693543 -6.98229e-06 -1.62515e-05
-6.98229e-06 -9.36403e-05 1.94057e-06
-1.62515e-05 1.94057e-06 -0.000158209
0.00113963 -3.63331e-05 1.07187e-05
-3.63331e-05 3.98379e-06 -2.15287e-06
1.07187e-05 -2.15287e-06 -0.000105189
0.000679776 -1.86628e-05 3.94327e-07
-1.86628e-05 -9.30997e-05 3.00008e-08
3.94327e-07 3.00008e-08 -0.00015585
0.00509841 -5.79683e-05 -0.000149628
-5.79683e-05 0.00248471 4.06778e-06
-0.000149628 4.06778e-06 0.00248337
0.000675877 -2.30953e-05 1.47622e-05
-2.30953e-05 -8.68549e-05 -3.3595e-06
1.47622e-05 -3.3595e-06 -0.000147828
0.00502104 -1.37261e-05 1.04082e-05
-1.37261e-05 0.00244522 -5.19603e-08
1.04082e-05 -5.19603e-08 0.00244287
0.00149298 -1.60242e-05 0.000130778
-1.60242e-05 0.000471448 -6.07806e-06
0.000130778 -6.07806e-06 0.000453791
0.00170638 3.13664e-05 2.13752e-07
3.13664e-05 0.000148842 2.35922e-07
2.13752e-07 2.35922e-07 3.21427e-05
0.00176369 5.06328e-05 -1.02691e-06
5.06328e-05 0.000120018 -1.52785e-07
-1.02691e-06 -1.52785e-07 1.17982e-05
0.00144066 3.61904e-05 -4.03406e-06
3.61904e-05 7.38289e-05 -1.24e-07
-4.03406e-06 -1.24e-07 -4.67262e-05
0.00157404 3.96622e-05 3.61488e-07
3.96622e-05 7.55868e-05 -1.11122e-08
3.61488e-07 -1.11122e-08 -4.33696e-05
0.00181574 5.19893e-05 -7.74463e-07
5.19893e-05 0.000134993 -1.37765e-06
-7.74463e-07 -1.37765e-06 2.9998e-05
0.00114388 5.90234e-05 -1.07967e-05
5.90234e-05 4.04945e-06 -2.00407e-06
-1.07967e-05 -2.00407e-06 -0.000101742
0.00140977 6.90462e-05 2.6721e-08
6.90462e-05 5.83462e-05 1.79689e-07
2.6721e-08 1.79689e-07 -6.56396e-05
0.00156387 6.87458e-05 6.31392e-07
6.87458e-05 6.86878e-05 -5.48422e-07
6.31392e-07 -5.48422e-07 -5.52091e-05
0.000637767 5.79607e-05 -1.5732e-05
5.79607e-05 -0.000106853 -4.43506e-06
-1.5732e-05 -4.43506e-06 -0.000168443
0.000884003 7.90735e-05 -3.20334e-06
7.90735e-05 -0.000129587 -4.79108e-07
-3.20334e-06 -4.79108e-07 -0.000238941
0.00182935 0.000117753 5.10774e-06
0.000117753 0.000304448 1.11688e-06
5.10774e-06 1.11688e-06 0.000179247
0.00509323 7.28689e-05 -0.00015793
7.28689e-05 0.00248566 -9.0987e-06
-0.00015793 -9.0987e-06 0.00248403
0.000612279 7.94817e-05 1.73593e-07
7.94817e-05 -0.000105598 5.47163e-08
1.73593e-07 5.47163e-08 -0.000169048
0.000626426 9.00244e-05 7.42133e-06
9.00244e-05 -0.000253503 2.55055e-06
7.42133e-06 2.55055e-06 -0.000365399
0.00497634 2.57214e-05 9.74471e-06
2.57214e-05 0.0024378 7.44098e-07
9.74471e-06 7.44098e-07 0.00242984
0.000582008 9.63794e-05 1.57368e-05
9.63794e-05 -0.00010566 7.42027e-06
1.57368e-05 7.42027e-06 -0.000173628
0.00456417 -7.41909e-05 0.000114266
-7.41909e-05 0.00222242 7.07673e-06
0.000114266 7.07673e-06 0.00221168
0.00171629 1.93176e-05 -2.65976e-06
1.93176e-05 0.000218456 -2.54668e-07
-2.65976e-06 -2.54668e-07 0.000101509
0.00174894 2.20003e-05 -2.02527e-08
2.20003e-05 0.000149547 1.04711e-07
-2.02527e-08 1.04711e-07 3.36418e-05
0.00171121 3.20529e-05 -4.93113e-07
3.20529e-05 7.38559e-05 8.01256e-08
-4.93113e-07 8.01256e-08 -3.41693e-05
0.000799889 -1.03225e-05 -1.24883e-05
-1.03225e-05 -0.000198649 -1.58008e-07
-1.24883e-05 -1.58008e-07 -0.000309927
0.00173626 4.76599e-06 1.84839e-06
4.76599e-06 0.000223984 -5.35791e-08
1.84839e-06 -5.35791e-08 0.000105392
0.00174863 5.19158e-06 1.13833e-06
5.19158e-06 0.000149374 1.35331e-07
1.13833e-06 1.35331e-07 3.39568e-05
0.00174331 -3.06237e-06 6.03181e-06
-3.06237e-06 0.000224214 -1.15672e-07
6.03181e-06 -1.15672e-07 0.000103602
0.000803131 -5.14864e-06 -1.90793e-06
-5.14864e-06 -0.000200499 1.71723e-07
-1.90793e-06 1.71723e-07 -0.000313534
0.000713599 -1.16204e-05 -1.64521e-05
-1.16204e-05 -8.75906e-05 7.70801e-07
-1.64521e-05 7.70801e-07 -0.000152519
0.00114863 -1.22054e-05 8.58016e-06
-1.22054e-05 -2.2849e-06 -1.26953e-06
8.58016e-06 -1.26953e-06 -0.000112457
0.000684059 2.39398e-06 1.73003e-07
2.39398e-06 -9.95474e-05 1.04919e-07
1.73003e-07 1.04919e-07 -0.000163907
0.00523092 -6.06036e-05 -0.000156742
-6.06036e-05 0.00255696 2.51856e-06
-0.000156742 2.51856e-06 0.00255474
0.000688076 -9.40877e-06 1.55704e-05
-9.40877e-06 -8.88988e-05 -2.33721e-06
1.55704e-05 -2.33721e-06 -0.000151753
0.00514378 1.43326e-05 3.42197e-06
1.43326e-05 0.00250695 5.50228e-07
3.42197e-06 5.50228e-07 0.00250694
0.00504612 -6.26095e-05 0.000160053
-6.26095e-05 0.0024567 -4.6969e-06
0.000160053 -4.6969e-06 0.00245572
0.00146398 2.28699e-05 -4.08769e-06
2.28699e-05 8.73596e-05 -4.56039e-07
-4.08769e-06 -4.56039e-07 -3.19069e-05
0.00165866 3.36914e-05 2.78655e-07
3.36914e-05 0.000121354 -2.50963e-07
2.78655e-07 -2.50963e-07 5.65447e-06
0.00171469 5.40436e-05 -1.90762e-06
5.40436e-05 8.91501e-05 -2.74934e-07
-1.90762e-06 -2.74934e-07 -1.83023e-05
0.00114711 2.98004e-05 -1.05892e-05
2.98004e-05 2.91915e-06 -1.52359e-06
-1.05892e-05 -1.52359e-06 -0.000101763
0.00141964 3.62628e-05 2.34597e-07
3.62628e-05 6.16844e-05 7.12753e-08
2.34597e-07 7.12753e-08 -5.90744e-05
0.00156763 3.89991e-05 1.87337e-07
3.89991e-05 7.25521e-05 -1.03835e-06
1.87337e-07 -1.03835e-06 -4.64412e-05
0.000661989 3.47644e-05 -1.52982e-05
3.47644e-05 -0.000103022 -3.37366e-06
-1.52982e-05 -3.37366e-06 -0.000164393
0.0011388 6.06293e-05 8.32872e-08
6.06293e-05 1.54943e-06 1.57865e-07
8.32872e-08 1.57865e-07 -0.00010457
0.00138861 6.85726e-05 4.71352e-06
6.85726e-05 4.69109e-05 7.96349e-07
4.71352e-06 7.96349e-07 -7.71703e-05
0.00511191 9.26434e-05 -0.000169604
9.26434e-05 0.00249242 -7.95579e-06
-0.000169604 -7.95579e-06 0.00249087
0.000650184 5.85144e-05 9.7386e-08
5.85144e-05 -9.95879e-05 1.90158e-07
9.7386e-08 1.90158e-07 -0.000161339
0.00109939 8.70691e-05 7.7877e-06
8.70691e-05 -9.74226e-06 2.35471e-06
7.7877e-06 2.35471e-06 -0.000118385
0.00503039 8.41528e-05 5.09612e-06
8.41528e-05 0.00245639 1.27526e-06
5.09612e-06 1.27526e-06 0.00245265
0.00060813 7.61269e-05 1.51072e-05
7.61269e-05 -0.000107499 5.88694e-06
1.51072e-05 5.88694e-06 -0.000170926
0.00490696 4.21755e-05 0.000143741
4.21755e-05 0.00239399 9.32235e-06
0.000143741 9.32235e-06 0.00239018
0.00118263 8.901e-06 -1.12488e-05
8.901e-06 1.72578e-05 -6.95058e-07
-1.12488e-05 -6.95058e-07 -8.9654e-05
0.0015381 1.42112e-05 2.0537e-06
1.42112e-05 0.000119086 7.71051e-08
2.0537e-06 7.71051e-08 6.55078e-07
0.00172251 1.67168e-05 5.55527e-07
1.67168e-05 0.000137048 2.64239e-07
5.55527e-07 2.64239e-07 2.05829e-05
0.000709547 2.14327e-05 -1.68017e-05
2.14327e-05 -9.42896e-05 -3.13348e-07
-1.68017e-05 -3.13348e-07 -0.000154831
0.000795047 -4.35659e-06 -2.07874e-06
-4.35659e-06 -0.00020233 2.83205e-08
-2.07874e-06 2.83205e-08 -0.000313784
0.00175849 1.11553e-05 6.41995e-06
1.11553e-05 0.000236372 7.59974e-08
6.41995e-06 7.59974e-08 0.000117761
0.000795151 -4.79471e-06 8.12615e-06
-4.79471e-06 -0.000205356 -3.67182e-07
8.12615e-06 -3.67182e-07 -0.000318495
0.000687916 8.77847e-07 1.0841e-07
8.77847e-07 -0.000101913 2.99574e-07
1.0841e-07 2.99574e-07 -0.000166632
0.00530258 5.72414e-05 -0.000166356
5.72414e-05 0.00259333 -7.92045e-07
-0.000166356 -7.92045e-07 0.0025923
0.000665474 1.14127e-05 1.55695e-05
1.14127e-05 -0.000110323 -1.25692e-06
1.55695e-05 -1.25692e-06 -0.000174476
0.00525396 -5.01973e-05 -5.81243e-06
-5.01973e-05 0.00256767 1.10502e-06
-5.81243e-06 1.10502e-06 0.00256619
0.00517725 6.22713e-05 0.00014999
6.22713e-05 0.00252792 -1.78648e-06
0.00014999 -1.78648e-06 0.00252545
0.00116436 1.49541e-05 -1.11119e-05
1.49541e-05 9.91141e-06 -1.40162e-06
-1.11119e-05 -1.40162e-06 -9.54148e-05
0.00137686 2.17502e-05 8.86979e-08
2.17502e-05 3.81535e-05 -6.07156e-08
8.86979e-08 -6.07156e-08 -8.1118e-05
0.00161388 3.59271e-05 5.87714e-08
3.59271e-05 9.53619e-05 -7.41139e-07
5.87714e-08 -7.41139e-07 -1.93382e-05
0.00253263 2.36544e-05 -8.55263e-05
2.36544e-05 0.000937751 -2.48322e-06
-8.55263e-05 -2.48322e-06 0.000892276
0.001155 3.19005e-05 1.49285e-07
3.19005e-05 6.81416e-06 1.62006e-07
1.49285e-07 1.62006e-07 -9.80541e-05
0.00139636 3.61729e-05 4.44043e-06
3.61729e-05 4.83298e-05 2.83038e-07
4.44043e-06 2.83038e-07 -7.26392e-05
0.0051036 9.29543e-05 -0.000172782
9.29543e-05 0.00248918 -6.18726e-06
-0.000172782 -6.18726e-06 0.00248633
0.000691853 4.02826e-05 3.26916e-07
4.02826e-05 -8.55497e-05 1.72654e-07
3.26916e-07 1.72654e-07 -0.000147412
0.00114509 6.24887e-05 1.08232e-05
6.24887e-05 5.0727e-06 2.29521e-06
1.08232e-05 2.29521e-06 -0.000101349
0.00508955 0.000106826 2.29625e-07
0.000106826 0.0024846 1.21768e-06
2.29625e-07 1.21768e-06 0.00248134
0.00066712 5.84585e-05 1.53761e-05
5.84585e-05 -8.95716e-05 4.95577e-06
1.53761e-05 4.95577e-06 -0.000151472
0.00497386 0.000100996 0.000155969
0.000100996 0.00242744 1.02846e-05
0.000155969 1.02846e-05 0.00242326
0.000741525 7.87998e-06 -1.59867e-05
7.87998e-06 -6.96403e-05 -1.64031e-06
-1.59867e-05 -1.64031e-06 -0.000133376
0.00098793 6.43815e-06 5.57152e-07
6.43815e-06 -9.09231e-05 2.93815e-07
5.57152e-07 2.93815e-07 -0.000199263
0.00135343 8.92061e-06 5.89386e-06
8.92061e-06 1.61125e-05 3.78483e-07
5.89386e-06 3.78483e-07 -0.000103771
0.00526935 -8.51052e-05 -0.000151913
-8.51052e-05 0.00258724 -1.66467e-06
-0.000151913 -1.66467e-06 0.0025785
0.000694764 8.79658e-06 -2.33439e-07
8.79658e-06 -9.8869e-05 2.42495e-07
-2.33439e-07 2.42495e-07 -0.000161398
0.00079755 1.28067e-06 8.27607e-06
1.28067e-06 -0.00020203 1.3906e-07
8.27607e-06 1.3906e-07 -0.000313649
0.000669455 1.65663e-05 1.59246e-05
1.65663e-05 -0.000112082 4.55435e-08
1.59246e-05 4.55435e-08 -0.00017675
0.00530644 2.74483e-05 3.27007e-06
2.74483e-05 0.00259836 2.79925e-07
3.27007e-06 2.79925e-07 0.00259486
0.00529934 4.7264e-05 0.000156024
4.7264e-05 0.00258904 -2.60622e-07
0.000156024 -2.60622e-07 0.0025886
0.00258568 -2.30837e-06 -8.59384e-05
-2.30837e-06 0.000961554 -1.86608e-06
-8.59384e-05 -1.86608e-06 0.000915601
0.00117781 1.74122e-05 -2.7571e-08
1.74122e-05 1.68877e-05 2.73141e-08
-2.7571e-08 2.73141e-08 -8.84848e-05
0.00128898 2.08123e-05 4.21089e-06
2.08123e-05 -1.14505e-05 1.74252e-07
4.21089e-06 1.74252e-07 -0.000130726
0.00485678 -5.3149e-05 -2.85546e-05
-5.3149e-05 0.00236044 -5.98603e-07
-2.85546e-05 -5.98603e-07 0.00234744
0.00071098 2.76373e-05 -5.03118e-08
2.76373e-05 -7.81196e-05 2.1722e-07
-5.03118e-08 2.1722e-07 -0.000140555
0.00117685 3.46058e-05 1.07864e-05
3.46058e-05 1.81222e-05 1.90736e-06
1.07864e-05 1.90736e-06 -8.68989e-05
0.0051338 5.96204e-05 -9.94953e-06
5.96204e-05 0.002503 -6.9406e-08
-9.94953e-06 -6.9406e-08 0.00250212
0.000726357 5.29254e-05 1.65393e-05
5.29254e-05 -6.50012e-05 4.03416e-06
1.65393e-05 4.03416e-06 -0.000127641
0.00506341 0.000123043 0.00016395
0.000123043 0.00247431 1.01195e-05
0.00016395 1.01195e-05 0.00246931
0.00168324 -2.99289e-05 -0.000146429
-2.99289e-05 0.000564489 3.64951e-07
-0.000146429 3.64951e-07 0.000545407
0.0016505 1.63084e-05 -3.50854e-05
1.63084e-05 0.000435991 2.92168e-07
-3.50854e-05 2.92168e-07 0.000383119
0.000798017 6.68312e-06 1.09721e-05
6.68312e-06 -0.000196438 1.08533e-06
1.09721e-05 1.08533e-06 -0.000306228
0.00526238 -3.44423e-05 8.58746e-06
-3.44423e-05 0.00257992 -5.75092e-07
8.58746e-06 -5.75092e-07 0.00257409
0.00068296 -2.74377e-06 1.65231e-05
-2.74377e-06 -0.000102692 8.65175e-07
1.65231e-05 8.65175e-07 -0.000166549
0.00530979 -4.5266e-05 0.000172452
-4.5266e-05 0.00259883 3.78432e-09
0.000172452 3.78432e-09 0.00259674
0.00136158 -3.3184e-05 -1.11398e-05
-3.3184e-05 0.000404135 -8.8297e-07
-1.11398e-05 -8.8297e-07 0.000370577
0.00164399 9.93831e-06 -3.49483e-05
9.93831e-06 0.000437753 -1.3249e-07
-3.49483e-05 -1.3249e-07 0.000383742
0.00117834 1.81689e-05 1.08777e-05
1.81689e-05 1.70421e-05 1.4837e-06
1.08777e-05 1.4837e-06 -8.84041e-05
0.00323737 3.63627e-05 6.21787e-05
3.63627e-05 0.00144677 7.84058e-07
6.21787e-05 7.84058e-07 0.00143017
0.000720982 3.61417e-05 1.66647e-05
3.61417e-05 -7.25192e-05 3.36263e-06
1.66647e-05 3.36263e-06 -0.000135202
0.00513296 9.57892e-05 0.000160955
9.57892e-05 0.00250578 7.62365e-06
0.000160955 7.62365e-06 0.00250338
0.00519643 -2.65234e-05 -8.89434e-06
-2.65234e-05 0.00254557 -5.9285e-08
-8.89434e-06 -5.9285e-08 0.00253932
0.000701272 2.7379e-05 1.71269e-05
2.7379e-05 -9.3548e-05 1.65508e-06
1.71269e-05 1.65508e-06 -0.000153688
0.00522309 6.2211e-05 0.00015608
6.2211e-05 0.00255718 -1.13714e-06
0.00015608 -1.13714e-06 0.00255247
0.00325874 2.73112e-05 7.62418e-05
2.73112e-05 0.00146005 1.28317e-06
7.62418e-05 1.28317e-06 0.00144246
0.000716362 8.27477e-06 1.63305e-05
8.27477e-06 -7.83948e-05 2.42734e-06
1.63305e-05 2.42734e-06 -0.00014085
0.00514331 -2.84211e-05 0.000151621
-2.84211e-05 0.00250787 3.9241e-06
0.000151621 3.9241e-06 0.00250692
0.005177 -0.000133095 0.000149688
-0.000133095 0.0025418 -5.0629e-07
0.000149688 -5.0629e-07 0.0025309
0.00514859 -3.98875e-05 0.000149319
-3.98875e-05 0.00250982 1.7582e-06
0.000149319 1.7582e-06 0.00250946
