# vtk DataFile Version 2.0
Wound Healing Simulation
ASCII
DATASET UNSTRUCTURED_GRID
POINTS 3012 float
69.9759 18.75 4
67.2507 60.3285 4
69.976 18.75 2
73.0099 25.446 4
71.1327 20.9142 4
68.6801 16.6661 4
67.8257 19.9261 3.98308
67.2507 60.3286 2
71.1327 54.0858 4
68.6801 58.3339 4
65.6939 62.2254 4
65.3123 59.0015 3.98278
74.6784 42.3946 4
73.7221 47.2057 4
69.9759 18.75 0
73.0099 25.446 2
68.6801 16.6661 2
71.1327 20.9142 2
67.8262 19.929 2
74.6792 32.6053 4
73.7222 27.7943 4
72.1454 23.1494 4
70.6144 26.2209 3.98285
68.886 21.9581 3.98357
67.2507 14.6715 4
66.6371 17.972 3.98217
65.797 21.0255 3.97416
67.2507 60.3285 0
71.1327 54.0858 2
68.6801 58.3339 2
65.694 62.2255 2
65.3135 58.9982 2
72.1454 51.8506 4
69.9759 56.25 4
68.8365 53.1131 3.9826
64.0165 64.0165 4
66.6108 57.1338 3.98266
63.886 60.7664 3.98494
63.5001 57.7709 3.97483
60.3285 67.2507 4
74.6792 42.3947 2
73.7222 47.2057 2
74.9194 39.9526 4
74.2788 44.8158 4
72.1683 42.0856 3.98166
73.0099 49.554 4
71.2495 46.5982 3.98179
73.0099 25.446 0
71.1327 20.9142 0
68.6801 16.6661 0
67.8257 19.9261 0.0169219
74.6792 32.6053 2
73.7222 27.7943 2
67.2508 14.6715 2
72.1455 23.1494 2
70.6144 26.2214 2
66.6379 17.9753 2
68.8862 21.96 2
65.7964 21.0259 2
74.9197 35.0474 4
74.2794 30.1841 4
72.185 32.9432 3.98205
71.2784 28.4313 3.98225
69.8158 24.0596 3.9834
68.3469 26.9511 3.97266
66.7626 22.9332 3.9735
65.694 12.7746 4
65.3239 16.1032 3.98325
64.7131 19.1959 3.97415
63.8852 22.0367 3.97005
71.1327 54.0858 0
65.6939 62.2254 0
68.6801 58.3339 0
65.3123 59.0015 0.0172247
72.1455 51.8506 2
69.9759 56.25 2
68.8368 53.1111 2
64.0165 64.0165 2
66.6116 57.1305 2
63.8875 60.764 2
63.4997 57.7712 2
62.2254 65.694 4
58.8949 65.4144 3.99144
69.7691 50.9889 3.98255
67.7838 55.1673 3.98252
66.6492 52.2091 3.97245
62.3365 62.4278 3.9877
64.6604 56.031 3.97436
62.2028 59.4039 3.97657
61.8206 56.6782 3.97004
58.3339 68.6801 4
60.3285 67.2508 2
73.7221 47.2057 0
74.6784 42.3946 0
74.9197 39.9526 2
74.2794 44.8159 2
72.168 42.0856 2
73.0099 49.554 2
71.2494 46.5979 2
75 37.5 4
72.4056 39.8022 3.98189
71.7827 44.3529 3.98183
69.8039 41.7895 3.97166
70.5753 48.8136 3.98214
68.9122 46.0147 3.97162
74.6792 32.6053 0
73.7222 27.7943 0
67.2507 14.6715 0
72.1454 23.1494 0
70.6144 26.2209 0.0171539
68.886 21.9581 0.016425
66.6371 17.972 0.017834
65.797 21.0255 0.0258446
74.9197 35.0474 2
74.2794 30.1841 2
72.1846 32.9434 2
71.2784 28.4316 2
65.694 12.7745 2
65.3251 16.1062 2
69.8159 24.0607 2
68.3469 26.9514 2
64.7126 19.1961 2
66.7621 22.9336 2
63.8846 22.0367 2
72.4134 35.2241 3.98199
71.8041 30.6762 3.98216
69.8399 33.268 3.97212
68.9662 29.0378 3.97235
67.6114 24.9118 3.97299
66.1934 27.6347 3.96898
64.0165 10.9835 4
64.755 23.8306 3.96965
63.8906 14.3267 3.98599
63.5129 17.448 3.97537
62.904 20.3234 3.96984
62.0888 22.9464 3.96858
60.6843 11.0975 3.98856
57.6124 11.4479 3.98131
72.1454 51.8506 0
69.9759 56.25 0
68.8365 53.1131 0.0173976
64.0165 64.0165 0
63.886 60.7664 0.0150618
66.6108 57.1338 0.0173379
63.5001 57.7709 0.0251705
62.2255 65.694 2
58.8958 65.414 2
69.7692 50.9879 2
67.7843 55.1644 2
66.6488 52.2085 2
62.338 62.4263 2
64.6599 56.0309 2
62.2027 59.4048 2
61.8201 56.6789 2
60.6691 63.9772 3.98967
57.0258 66.735 3.99212
57.5583 63.6921 3.98384
67.5074 50.1767 3.97188
65.7015 54.1729 3.97304
64.5358 51.384 3.96831
60.7732 60.9378 3.97947
62.8176 55.0654 3.97013
60.6566 58.1567 3.9711
60.3226 55.7792 3.96955
56.25 69.9759 4
58.3339 68.6801 2
60.3285 67.2507 0
58.9215 9.65581 3.98958
62.2254 9.30607 4
73.0099 49.554 0
74.2788 44.8158 0
71.2495 46.5982 0.018214
72.1683 42.0856 0.018336
74.9194 39.9526 0
75 37.5 2
72.4055 39.8024 2
71.7826 44.3527 2
69.8036 41.7892 2
70.5753 48.8132 2
68.9122 46.0143 2
72.4889 37.512 3.98178
70.041 39.6571 3.97162
69.4303 43.9074 3.97168
67.5963 41.4968 3.96877
68.2658 48.1071 3.97166
66.7086 45.439 3.9684
74.9197 35.0474 0
74.2794 30.1841 0
72.185 32.9432 0.0179478
71.2784 28.4313 0.0177487
65.694 12.7746 0
65.3239 16.1032 0.0167474
69.8158 24.0596 0.0166037
68.3469 26.9511 0.027341
66.7626 22.9332 0.0265039
64.7131 19.1959 0.0258483
63.8852 22.0367 0.0299467
72.4133 35.2241 2
71.804 30.6765 2
69.8396 33.2683 2
68.9662 29.038 2
64.0165 10.9835 2
63.892 14.3289 2
63.5126 17.4476 2
67.6111 24.9122 2
66.1933 27.6347 2
62.9034 20.3233 2
64.7546 23.8307 2
62.0882 22.9464 2
60.6855 11.0989 2
57.6126 11.4471 2
70.0578 35.3916 3.97188
69.467 31.1492 3.97203
67.6545 33.5907 3.96905
66.7711 29.6228 3.96885
65.5227 25.6995 3.96924
64.1381 28.2574 3.96922
62.342 12.6547 3.98754
62.8528 24.6396 3.96867
62.1995 15.7851 3.97865
61.8104 18.689 3.9693
61.2114 21.3468 3.9676
60.4124 23.7342 3.96855
59.2464 12.7795 3.98001
55.8744 10.234 3.9832
56.4048 13.1165 3.97748
69.7691 50.9889 0.0174474
62.2254 65.694 0
58.8949 65.4144 0.00855549
67.7838 55.1673 0.01748
66.6492 52.2091 0.0275484
62.3365 62.4278 0.012303
62.2028 59.4039 0.0234314
64.6604 56.031 0.0256427
61.8206 56.6782 0.0299589
60.6703 63.9764 2
57.0264 66.7349 2
57.5584 63.6934 2
67.5071 50.1761 2
65.701 54.1725 2
64.5354 51.3839 2
60.7733 60.9392 2
62.8171 55.0659 2
60.6564 58.1578 2
60.3223 55.7793 2
55.0715 67.9319 3.99248
59.2194 62.3661 3.98089
55.8052 64.9103 3.98666
56.3266 62.0893 3.97927
65.3303 49.4073 3.96819
63.7033 53.2905 3.96854
62.4328 50.6475 3.96738
59.3325 59.5553 3.97533
61.0711 54.3035 3.96902
59.2849 57.0044 3.96868
59.2342 55.1731 3.97106
48.1032 68.5786 3.98832
50.9491 69.9316 3.9927
54.0858 71.1327 4
56.25 69.976 2
58.3339 68.6801 0
57.0588 8.3358 3.99039
60.3285 7.74928 4
58.9226 9.65668 2
62.2255 9.30602 2
70.5753 48.8136 0.0178615
71.7827 44.3529 0.0181685
68.9122 46.0147 0.0283759
69.8039 41.7895 0.0283379
72.4056 39.8022 0.0181061
75 37.5 0
72.4886 37.5121 2
70.041 39.657 2
69.4302 43.907 2
67.596 41.4967 2
68.2658 48.1066 2
66.7085 45.4388 2
70.1292 37.5213 3.97191
67.8335 39.5118 3.96887
67.2225 43.4691 3.96857
65.5367 41.2075 3.97011
66.0674 47.4171 3.9683
64.637 44.8448 3.96909
72.4134 35.2241 0.018014
71.8041 30.6762 0.0178414
69.8399 33.268 0.0278773
68.9662 29.0378 0.0276453
64.0165 10.9835 0
63.8906 14.3267 0.0140088
63.5129 17.448 0.0246346
67.6114 24.9118 0.0270068
66.1934 27.6347 0.0310237
64.755 23.8306 0.0303537
62.904 20.3234 0.0301638
62.0888 22.9464 0.0314196
60.6843 11.0975 0.0114434
57.6124 11.4479 0.0186905
70.0577 35.3918 2
69.4669 31.1494 2
67.6542 33.5908 2
66.7711 29.6228 2
62.3434 12.6565 2
62.1992 15.7843 2
61.8101 18.6882 2
65.5224 25.6995 2
64.1377 28.2575 2
61.2108 21.3467 2
62.8523 24.6396 2
60.4125 23.7344 2
59.2465 12.7789 2
56.4046 13.1155 2
55.8746 10.2331 2
67.8697 35.5473 3.96908
67.2641 31.6223 3.96887
65.6847 33.9278 3.97028
64.6521 30.1937 3.9693
63.5319 26.4163 3.96896
62.2309 28.7829 3.97217
60.7758 14.2239 3.97991
61.0298 25.3439 3.96999
60.6113 17.1304 3.97391
60.2138 19.8243 3.96561
59.645 22.2667 3.96608
58.9531 24.3305 3.97042
54.0376 9.13642 3.9846
57.91 14.3347 3.97832
54.7865 12.015 3.97894
55.3113 14.6524 3.97606
67.5074 50.1767 0.0281173
57.0258 66.735 0.00787596
60.6691 63.9772 0.0103325
57.5583 63.6921 0.0161563
65.7015 54.1729 0.0269598
64.5358 51.384 0.0316914
60.7732 60.9378 0.0205311
60.6566 58.1567 0.028897
62.8176 55.0654 0.0298678
60.3226 55.7792 0.0304452
55.0719 67.9319 2
59.2195 62.3674 2
55.8052 64.9114 2
56.3266 62.0907 2
65.3301 49.4071 2
63.7029 53.2906 2
62.4333 50.6475 2
59.3326 59.5567 2
61.0709 54.3036 2
59.2849 57.0041 2
59.2339 55.1729 2
53.0433 68.9997 3.9926
53.9677 66.013 3.98768
57.8801 60.8687 3.97784
54.684 63.2074 3.98245
55.2102 60.6134 3.97709
63.1802 48.6565 3.96796
61.735 52.5706 3.96726
60.2419 50.008 3.96853
58.0152 58.2567 3.97146
59.3174 53.9372 3.96787
58.1178 55.7985 3.96607
50.1099 67.8566 3.98822
47.4636 66.5807 3.9855
46.0567 69.1578 3.98835
48.1032 68.5791 2
48.8032 70.7229 3.99279
50.9495 69.9317 2
51.8506 72.1454 4
54.0858 71.1327 2
56.25 69.9759 0
55.1034 7.14032 3.99118
58.3339 6.31992 4
57.0598 8.33622 2
60.3286 7.74926 2
58.9215 9.65581 0.0104219
62.2254 9.30607 0
68.2658 48.1071 0.0283383
69.4303 43.9074 0.0283216
66.7086 45.439 0.0316042
67.5963 41.4968 0.031228
70.041 39.6571 0.0283771
72.4889 37.512 0.0182167
70.129 37.5212 2
67.8335 39.5117 2
67.2224 43.4689 2
65.5362 41.2073 2
66.0673 47.4169 2
64.6366 44.8446 2
67.9301 37.5216 3.96914
65.7685 39.3687 3.97036
65.1609 43.0224 3.96969
63.7043 40.9255 3.97284
63.9478 46.7124 3.96848
62.7674 44.2095 3.9725
70.0578 35.3916 0.0281214
69.467 31.1492 0.0279729
67.6545 33.5907 0.0309546
66.7711 29.6228 0.0311481
62.342 12.6547 0.0124555
62.1995 15.7851 0.0213497
61.8104 18.689 0.0307012
65.5227 25.6995 0.0307576
64.1381 28.2574 0.0307826
62.8528 24.6396 0.0313343
61.2114 21.3468 0.0324014
60.4124 23.7342 0.0314465
59.2464 12.7795 0.0199932
56.4048 13.1165 0.0225167
55.8744 10.234 0.0168045
67.8696 35.5473 2
67.264 31.6224 2
65.6845 33.9278 2
64.6517 30.1938 2
60.7757 14.2232 2
60.6109 17.1292 2
60.2138 19.8238 2
63.5317 26.4163 2
62.2301 28.7831 2
59.6466 22.2667 2
61.0295 25.3441 2
58.9526 24.331 2
57.9095 14.3338 2
55.3107 14.6516 2
54.0378 9.13563 2
54.7864 12.0138 2
65.8583 35.6667 3.97031
65.1702 32.1556 3.96969
64.2474 34.2505 3.97265
62.5511 30.6403 3.97256
61.625 27.0786 3.97079
60.8025 29.1476 3.97534
59.3102 15.671 3.97737
59.2924 25.8071 3.97317
59.1179 18.3623 3.97041
58.7224 20.8646 3.96451
58.2582 23.1039 3.96636
57.9282 24.6778 3.97219
52.1123 8.15433 3.98575
53.058 11.0198 3.98069
56.675 15.7476 3.97738
53.8085 13.687 3.9766
54.3738 16.0077 3.97709
55.0715 67.9319 0.00752448
65.3303 49.4073 0.0318093
55.8052 64.9103 0.0133365
59.2194 62.3661 0.0191146
56.3266 62.0893 0.0207287
63.7033 53.2905 0.0314555
62.4328 50.6475 0.0326226
59.3325 59.5553 0.0246743
59.2849 57.0044 0.0313222
61.0711 54.3035 0.0309844
59.2342 55.1731 0.0289423
53.0437 68.9998 2
53.9675 66.0138 2
57.88 60.87 2
54.684 63.2086 2
55.2102 60.615 2
63.18 48.6564 2
61.7351 52.5705 2
60.2417 50.0078 2
58.015 58.2586 2
59.3176 53.9369 2
58.1175 55.7979 2
52.0711 66.9997 3.98807
52.9539 64.2188 3.98447
56.6465 59.4856 3.97568
53.6808 61.6212 3.97985
54.2578 59.3159 3.97579
60.9483 47.8696 3.96926
59.6871 52.094 3.9679
57.9685 49.5995 3.97073
56.7704 56.9737 3.96835
57.1021 54.1058 3.96676
50.1098 67.8572 2
49.3374 65.9211 3.98537
47.4635 66.5813 2
46.8929 64.7355 3.98392
45.5586 67.0978 3.98551
43.9736 69.5901 3.98839
46.0567 69.1584 2
46.6098 71.3673 3.99278
48.1032 68.5786 0.0116848
48.8036 70.7231 2
49.554 73.0099 4
50.9491 69.9316 0.00730267
51.8506 72.1455 2
54.0858 71.1327 0
53.0647 6.07188 3.99155
55.1041 7.14046 2
56.25 5.02411 4
58.3339 6.3199 2
57.0588 8.3358 0.00961051
60.3285 7.74928 0
66.0674 47.4171 0.0317016
67.2225 43.4691 0.0314267
64.637 44.8448 0.03091
65.5367 41.2075 0.0298949
67.8335 39.5118 0.0311263
70.1292 37.5213 0.0280926
67.9299 37.5216 2
65.768 39.3685 2
65.1606 43.0222 2
63.7037 40.9254 2
63.9473 46.7122 2
62.7663 44.2093 2
65.8718 37.5009 3.97034
63.8432 39.2639 3.97263
63.2794 42.5446 3.97265
62.3553 40.6927 3.97584
61.9259 45.9104 3.97109
61.3834 43.6741 3.97583
67.8697 35.5473 0.0309198
67.2641 31.6223 0.0311326
65.6847 33.9278 0.0297223
64.6521 30.1937 0.030695
60.7758 14.2239 0.0200946
60.6113 17.1304 0.0260884
60.2138 19.8243 0.0343859
63.5319 26.4163 0.0310397
62.2309 28.7829 0.0278251
61.0298 25.3439 0.030007
59.645 22.2667 0.0339179
58.9531 24.3305 0.0295816
57.91 14.3347 0.0216763
55.3113 14.6524 0.0239406
54.0376 9.13642 0.0154033
54.7865 12.015 0.021057
65.8579 35.6667 2
65.1701 32.1556 2
64.2472 34.2505 2
62.5503 30.6404 2
59.3096 15.6701 2
59.1179 18.3612 2
58.7232 20.8649 2
61.6244 27.0788 2
60.8021 29.1479 2
58.2588 23.1044 2
59.2923 25.8075 2
57.9282 24.6784 2
56.6743 15.7466 2
54.3729 16.007 2
53.8083 13.6858 2
52.1124 8.15367 2
53.0579 11.0189 2
64.0419 35.6322 3.97216
62.874 33.0489 3.97323
60.5478 30.619 3.97563
59.5162 27.9205 3.97442
57.9366 16.9884 3.9756
57.6879 25.7401 3.97485
57.7024 19.4871 3.96737
57.3409 21.8549 3.9632
57.1403 23.9624 3.9688
50.1125 7.2854 3.98701
51.2328 10.1269 3.98229
52.1716 12.8021 3.97875
55.5338 16.9801 3.97703
52.9758 15.2738 3.9749
53.7539 16.9914 3.9796
53.0433 68.9997 0.00740365
53.9677 66.013 0.0123241
63.1802 48.6565 0.0320399
54.684 63.2074 0.0175516
57.8801 60.8687 0.0221624
55.2102 60.6134 0.0229138
61.735 52.5706 0.0327413
60.2419 50.008 0.0314738
58.0152 58.2567 0.028541
58.1178 55.7985 0.0339271
59.3174 53.9372 0.0321257
52.071 67.0002 2
52.9536 64.2195 2
56.6462 59.4866 2
53.6807 61.6225 2
54.2579 59.3173 2
60.9471 47.8692 2
59.6881 52.0939 2
57.9665 49.5988 2
56.7698 56.9783 2
57.1014 54.1052 2
51.1685 65.128 3.9852
52.0464 62.5383 3.98213
55.4768 58.2444 3.97648
52.8328 60.1324 3.97794
53.6355 58.4657 3.97921
58.2274 46.8314 3.97381
57.5276 51.7698 3.96823
56.1702 49.5331 3.97072
55.4583 55.772 3.96502
55.3268 53.3623 3.96479
50.1099 67.8566 0.0117825
49.3373 65.9217 2
48.6187 64.1222 3.98409
47.4636 66.5807 0.0145028
45.5586 67.0984 2
46.8928 64.736 2
46.3826 63.0522 3.98336
45.1331 65.1965 3.98389
43.6317 67.4684 3.98556
41.8607 69.8775 3.98826
43.9736 69.5906 2
44.3771 71.8622 3.99268
46.0567 69.1578 0.0116481
46.6101 71.3676 2
47.2057 73.7222 4
48.8032 70.7229 0.00721046
49.554 73.0099 2
51.8506 72.1454 0
50.9546 5.13204 3.99206
53.0652 6.07185 2
54.0858 3.86728 4
55.1034 7.14032 0.00882285
56.25 5.02406 2
58.3339 6.31992 0
63.9478 46.7124 0.0315221
65.1609 43.0224 0.0303114
62.7674 44.2095 0.0274961
63.7043 40.9255 0.0271599
65.7685 39.3687 0.029636
67.9301 37.5216 0.0308593
65.8713 37.5009 2
63.8424 39.2639 2
63.2785 42.5444 2
62.3544 40.6926 2
61.9248 45.91 2
61.3822 43.6738 2
63.9053 37.4556 3.97221
62.0701 39.3515 3.9747
61.1334 41.9501 3.97568
60.1829 44.7583 3.97535
65.8583 35.6667 0.0296851
65.1702 32.1556 0.0303056
64.2474 34.2505 0.0273505
62.5511 30.6403 0.0274362
59.3102 15.671 0.0226328
59.1179 18.3623 0.0295875
58.7224 20.8646 0.0354866
61.625 27.0786 0.0292057
60.8025 29.1476 0.0246558
59.2924 25.8071 0.0268333
58.2582 23.1039 0.033639
57.9282 24.6778 0.0278141
56.675 15.7476 0.0226205
54.3738 16.0077 0.022906
53.8085 13.687 0.0234031
52.1123 8.15433 0.0142451
53.058 11.0198 0.0193108
64.0415 35.6322 2
62.8731 33.0489 2
60.5476 30.6192 2
57.936 16.9874 2
57.7027 19.4855 2
57.3416 21.8552 2
59.5155 27.9209 2
57.1399 23.9632 2
57.6886 25.7407 2
50.1126 7.28476 2
55.5331 16.9791 2
53.753 16.9905 2
52.9752 15.2726 2
52.1714 12.8012 2
51.2327 10.1262 2
62.1046 35.3604 3.97376
60.1965 32.7513 3.97582
58.5345 30.0878 3.97641
57.2162 27.3974 3.97578
56.6294 18.1646 3.9753
56.2304 25.1206 3.97228
56.3356 20.5376 3.96469
56.0629 22.8883 3.96346
48.0565 6.52783 3.98817
49.3249 9.33338 3.98316
50.4332 11.9981 3.98015
51.376 14.5056 3.97607
54.4076 17.9311 3.97806
52.3566 17.0511 3.97416
52.0711 66.9997 0.0119342
52.9539 64.2188 0.0155269
60.9483 47.8696 0.0307364
53.6808 61.6212 0.0201526
56.6465 59.4856 0.0243242
54.2578 59.3159 0.0242051
59.6871 52.094 0.0321041
57.9685 49.5995 0.0292716
56.7704 56.9737 0.0316539
57.1021 54.1058 0.0332392
51.1683 65.1286 2
52.0461 62.5393 2
55.4766 58.2454 2
52.8328 60.134 2
53.6354 58.4663 2
58.2265 46.8308 2
57.5277 51.7693 2
56.1689 49.5325 2
55.4587 55.7731 2
55.3275 53.3626 2
50.3468 63.3805 3.98363
51.2437 60.9336 3.97954
54.2114 57.2606 3.97591
52.3088 58.6268 3.97642
56.5799 44.1595 3.97768
55.3927 47.8708 3.97277
55.0221 51.369 3.96748
53.9794 54.5198 3.96555
49.3374 65.9211 0.014631
48.6185 64.1227 2
47.9627 62.4736 3.98319
45.5586 67.0978 0.0144902
46.8929 64.7355 0.0160792
43.6317 67.469 2
46.3825 63.0526 2
45.133 65.1971 2
45.9882 61.5841 3.98329
44.7679 63.4525 3.98286
43.3571 65.5059 3.9838
41.6638 67.6871 3.98527
39.7023 70.0245 3.9884
41.8607 69.8781 2
42.1113 72.2071 3.99261
43.9736 69.5901 0.0116095
44.3773 71.8625 2
44.8159 74.2794 4
46.6098 71.3673 0.00721535
47.2057 73.7222 2
49.554 73.0099 0
48.7852 4.32278 3.99254
50.955 5.13185 2
51.8506 2.85458 4
53.0647 6.07188 0.00845418
54.0858 3.86728 2
56.25 5.02411 0
61.9259 45.9104 0.028909
63.2794 42.5446 0.0273471
61.3834 43.6741 0.0241728
62.3553 40.6927 0.0241602
63.8432 39.2639 0.0273697
65.8718 37.5009 0.0296632
63.9046 37.4556 2
62.0692 39.3514 2
61.1323 41.9498 2
60.1817 44.7579 2
61.9077 37.4432 3.9739
60.137 39.8395 3.97702
58.878 42.9031 3.97716
64.0419 35.6322 0.0278357
62.874 33.0489 0.0267749
60.5478 30.619 0.0243685
57.9366 16.9884 0.0244015
57.7024 19.4871 0.0326257
57.3409 21.8549 0.0368035
59.5162 27.9205 0.0255758
57.6879 25.7401 0.0251487
57.1403 23.9624 0.0311957
55.5338 16.9801 0.0229676
53.7539 16.9914 0.020398
52.9758 15.2738 0.0250975
50.1125 7.2854 0.0129943
52.1716 12.8021 0.0212517
51.2328 10.1269 0.0177133
62.1034 35.3603 2
60.1949 32.7516 2
58.5342 30.0883 2
56.6289 18.1634 2
56.336 20.5348 2
56.0642 22.889 2
57.2179 27.398 2
56.2326 25.1213 2
48.0566 6.52706 2
49.3248 9.33272 2
54.4072 17.9302 2
52.3557 17.0504 2
51.3754 14.5044 2
50.4329 11.9976 2
59.7804 35.1227 3.97691
57.8657 32.2834 3.9769
56.4471 29.3586 3.97721
55.3555 26.6229 3.97571
55.329 19.1994 3.9742
54.8672 24.0812 3.96657
54.9675 21.5833 3.96315
45.9626 5.88257 3.98883
43.3741 7.4739 3.98578
47.3554 8.62566 3.98441
48.6002 11.2978 3.98095
49.7127 13.7494 3.9793
50.6302 16.1437 3.97714
53.1141 18.6748 3.97361
51.2927 18.0647 3.98044
51.1685 65.128 0.0148004
52.0464 62.5383 0.0178697
58.2274 46.8314 0.0261881
52.8328 60.1324 0.0220588
55.4768 58.2444 0.0235158
53.6355 58.4657 0.0207907
57.5276 51.7698 0.0317689
56.1702 49.5331 0.0292808
55.4583 55.772 0.0349798
55.3268 53.3623 0.0352066
50.3464 63.381 2
51.2434 60.9346 2
54.2113 57.2616 2
52.3086 58.6273 2
56.5792 44.1588 2
55.3915 47.87 2
55.0223 51.3688 2
53.9801 54.5212 2
49.5922 61.7437 3.98221
55.446 41.6796 3.9767
50.5644 59.3251 3.9758
52.173 56.4801 3.97017
54.0322 45.5298 3.97619
53.2377 49.3017 3.97052
52.6243 52.826 3.96595
48.6187 64.1222 0.0159108
47.9625 62.474 2
47.3295 61.0073 3.98346
43.6317 67.4684 0.0144379
45.1331 65.1965 0.0161051
46.3826 63.0522 0.0166408
41.6638 67.6875 2
43.357 65.5067 2
45.9882 61.5846 2
44.7678 63.4531 2
45.7664 60.6279 3.98152
44.4843 61.8327 3.98248
43.1471 63.7246 3.9824
41.5466 65.6434 3.98304
39.6328 67.7667 3.98488
37.5259 70.0495 3.98821
39.7024 70.0252 2
39.8179 72.4041 3.99244
41.8607 69.8775 0.0117424
42.1116 72.2074 2
42.3947 74.6792 4
44.3771 71.8622 0.00732425
44.8159 74.2794 2
47.2057 73.7222 0
43.8519 5.35933 3.98898
46.5711 3.6472 3.99276
48.7854 4.32249 2
49.554 1.99015 4
50.9546 5.13204 0.00793792
51.8506 2.85453 2
54.0858 3.86728 0
60.1829 44.7583 0.0246517
61.1334 41.9501 0.0243153
62.0701 39.3515 0.0253013
63.9053 37.4556 0.0277949
61.9067 37.4431 2
60.1359 39.8391 2
58.8771 42.9026 2
59.6345 37.564 3.97801
57.8452 40.641 3.97767
54.8858 39.6953 3.97657
62.1046 35.3604 0.0262385
60.1965 32.7513 0.0241758
58.5345 30.0878 0.0235938
56.6294 18.1646 0.0246999
56.3356 20.5376 0.0353139
56.0629 22.8883 0.0365394
57.2162 27.3974 0.0242165
56.2304 25.1206 0.0277172
54.4076 17.9311 0.0219423
52.3566 17.0511 0.0258387
51.376 14.5056 0.0239312
48.0565 6.52783 0.0118308
49.3249 9.33338 0.0168354
50.4332 11.9981 0.0198487
59.7782 35.1228 2
45.9625 5.88212 2
43.374 7.47347 2
57.8659 32.2842 2
56.4472 29.3594 2
55.3288 19.1986 2
54.9687 21.5824 2
54.8668 24.0826 2
55.3508 26.6243 2
47.3554 8.62456 2
48.6001 11.2972 2
53.114 18.6738 2
51.2921 18.0641 2
50.6295 16.143 2
49.7121 13.749 2
57.2299 34.7716 3.97764
55.595 31.5402 3.97809
54.377 28.4359 3.97834
53.6985 25.5272 3.97314
53.9495 20.1528 3.97382
53.5319 22.7399 3.95888
41.3993 7.07911 3.98634
45.3602 7.99567 3.9859
42.8661 9.4175 3.98318
46.6669 10.6567 3.98185
47.7447 13.1078 3.9809
48.9292 15.4093 3.97698
49.9995 17.7123 3.97766
51.6341 19.341 3.98057
50.3468 63.3805 0.0163712
51.2437 60.9336 0.0204621
56.5799 44.1595 0.0223162
55.3927 47.8708 0.0272274
52.3088 58.6268 0.0235783
54.2114 57.2606 0.0240851
55.0221 51.369 0.0325248
53.9794 54.5198 0.0344465
49.5917 61.7439 2
55.4459 41.6792 2
50.5642 59.3261 2
52.1728 56.4808 2
54.0362 45.529 2
53.2412 49.3015 2
52.6261 52.8256 2
48.8479 60.2001 3.98043
52.309 42.6042 3.98007
49.7829 57.6174 3.97579
50.5641 54.4104 3.96696
51.6699 47.2355 3.97595
51.1406 50.9207 3.96387
47.9517 43.7572 3.9908
47.9627 62.4736 0.0168136
47.3294 61.0076 2
46.6184 59.793 3.98266
41.6638 67.6871 0.0147344
43.3571 65.5059 0.016199
44.7679 63.4525 0.017136
45.9882 61.5841 0.0167064
39.633 67.7674 2
41.5464 65.6435 2
45.7662 60.6286 2
43.1471 63.7253 2
44.4842 61.8333 2
44.6233 60.2898 3.98239
42.9513 62.0803 3.98087
41.6005 63.8176 3.98238
39.6479 65.6109 3.98216
37.5634 67.7487 3.98467
31.6967 65.1293 3.98287
33.3922 67.486 3.98445
35.3334 69.9595 3.98819
37.526 70.0502 2
37.5095 72.4587 3.99231
39.7023 70.0245 0.0116031
39.8181 72.4045 2
39.9526 74.9197 4
42.1113 72.2071 0.00738734
42.3947 74.6792 2
44.8159 74.2794 0
41.7365 4.96848 3.98932
43.8519 5.35886 2
44.3263 3.11025 3.99311
46.5713 3.64698 2
47.2057 1.27793 4
48.7852 4.32278 0.00746093
49.554 1.99013 2
51.8506 2.85458 0
58.878 42.9031 0.0228354
60.137 39.8395 0.0229765
61.9077 37.4432 0.0260961
59.6332 37.564 2
57.8439 40.6405 2
54.8866 39.6939 2
56.6333 37.8866 3.97796
49.3424 41.309 3.98953
52.9074 39.3029 3.98326
39.4427 6.80269 3.98638
59.7804 35.1227 0.0230948
57.8657 32.2834 0.0231039
56.4471 29.3586 0.0227916
55.329 19.1994 0.0258003
54.9675 21.5833 0.0368503
54.8672 24.0812 0.0334301
55.3555 26.6229 0.0242944
53.1141 18.6748 0.0263885
51.2927 18.0647 0.0195609
50.6302 16.1437 0.0228555
45.9626 5.88257 0.0111657
49.7127 13.7494 0.0207028
47.3554 8.62566 0.0155929
48.6002 11.2978 0.0190482
43.3741 7.4739 0.014222
57.2269 34.7715 2
41.3992 7.07864 2
45.3601 7.99529 2
42.8659 9.41707 2
55.5964 31.5411 2
54.3744 28.4372 2
53.9497 20.1525 2
53.5326 22.7372 2
53.696 25.5287 2
46.6667 10.6552 2
47.7442 13.1069 2
51.6341 19.3403 2
49.9987 17.7115 2
48.9283 15.409 2
54.6773 33.9743 3.97685
53.3335 30.521 3.97808
52.4765 27.2409 3.97506
52.0767 24.1355 3.97457
52.3612 21.076 3.97744
41.014 9.05021 3.98338
44.7247 9.99683 3.98351
42.4689 10.9051 3.98365
46.005 12.7352 3.97922
47.6793 14.5916 3.97729
48.1069 16.9964 3.97599
49.8078 19.6614 3.97692
49.5922 61.7437 0.0177935
50.5644 59.3251 0.0241982
55.446 41.6796 0.0232961
54.0322 45.5298 0.0238094
53.2377 49.3017 0.0294835
52.173 56.4801 0.0298259
52.6243 52.826 0.034046
48.8477 60.1997 2
52.3155 42.6042 2
49.7826 57.6183 2
50.5643 54.4113 2
51.6733 47.2352 2
51.1425 50.9197 2
47.958 43.7717 2
47.9838 58.7383 3.97899
49.9006 45.2424 3.9795
48.582 55.9089 3.97709
49.0813 52.5724 3.97286
49.5686 49.0183 3.97042
45.7468 39.8583 3.88801
46.19 42.6358 3.92685
46.3185 45.7994 3.98977
43.5741 41.1355 3.82371
41.9035 42.0089 3.71512
47.3295 61.0073 0.0165369
46.6178 59.7936 2
45.4666 58.7896 3.98147
39.6328 67.7667 0.015117
41.5466 65.6434 0.0169582
43.1471 63.7246 0.0175996
44.4843 61.8327 0.0175166
45.7664 60.6279 0.018484
41.6005 63.8179 2
37.5635 67.7495 2
39.6478 65.6115 2
44.623 60.2904 2
42.9513 62.0808 2
41.7541 62.4911 3.98124
42.4806 59.9789 3.98211
39.8942 63.5512 3.9812
37.6423 65.5099 3.98255
35.4635 67.6578 3.98448
33.5752 65.3424 3.98232
31.9591 63.3002 3.98232
29.8828 64.7206 3.98368
31.6968 65.1301 2
31.3767 67.196 3.98473
33.3922 67.4867 2
33.1563 69.7529 3.98798
35.3334 69.9603 2
35.1947 72.373 3.99225
37.5259 70.0495 0.0117921
37.5095 72.4591 2
37.5 75 4
39.8179 72.4041 0.00755669
39.9526 74.9197 2
42.3947 74.6792 0
39.6242 4.71577 3.98957
41.7365 4.968 2
42.0626 2.71779 3.99323
43.8519 5.35933 0.0110227
44.3265 3.10995 2
44.8158 0.721173 4
46.5711 3.6472 0.00723845
47.2057 1.27779 2
49.554 1.99015 0
57.8452 40.641 0.0223291
59.6345 37.564 0.0219941
54.8858 39.6953 0.0234319
49.3594 41.3122 2
56.6316 37.8868 2
52.909 39.3011 2
53.7541 36.6308 3.97697
47.2686 40.3825 3.93462
50.2834 38.5086 3.99345
37.5166 6.67392 3.98648
39.4427 6.80212 2
39.2115 8.69291 3.98413
35.9424 8.49305 3.98422
57.2299 34.7716 0.0223597
55.595 31.5402 0.0219071
54.377 28.4359 0.0216557
53.9495 20.1528 0.0261777
53.5319 22.7399 0.0411152
53.6985 25.5272 0.0268647
51.6341 19.341 0.0194332
49.9995 17.7123 0.0223383
48.9292 15.4093 0.0230211
45.3602 7.99567 0.0140951
47.7447 13.1078 0.0190961
46.6669 10.6567 0.0181535
41.3993 7.07911 0.0136648
42.8661 9.4175 0.0168187
54.6773 33.974 2
41.0138 9.04998 2
44.7242 9.99662 2
42.4685 10.9051 2
53.3301 30.5197 2
52.4815 27.2424 2
52.3619 21.0752 2
52.0783 24.1364 2
46.0045 12.7329 2
47.6786 14.5906 2
49.8079 19.6597 2
48.1059 16.996 2
52.238 32.8916 3.98027
51.1556 29.196 3.97659
50.6869 25.7731 3.972
49.9119 22.2448 3.97824
40.5702 11.6102 3.98066
43.8587 11.92 3.97997
45.7996 15.4298 3.98078
47.4975 19.2752 3.97732
46.086 37.4858 3.89517
48.8479 60.2001 0.019566
49.7829 57.6174 0.024207
52.309 42.6042 0.0199342
51.6699 47.2355 0.0240466
51.1406 50.9207 0.0361303
50.5641 54.4104 0.0330398
47.9517 43.7572 0.00919513
47.9833 58.7391 2
49.9079 45.2474 2
48.5813 55.9108 2
49.0814 52.5748 2
49.5718 49.0183 2
45.7746 39.8654 2
46.2109 42.652 2
46.3186 45.7943 2
43.5977 41.1571 2
41.9152 42.0189 2
46.8324 57.3404 3.98285
44.3216 39.4178 3.82438
42.2527 40.8724 3.75814
47.9292 47.2076 3.97658
47.1411 54.2281 3.97458
47.5171 50.7264 3.96604
44.6734 47.3847 3.98227
44.8492 41.9426 3.88298
44.7923 44.5324 3.94207
42.4317 42.6499 3.83217
40.8133 42.3471 3.74871
46.6184 59.793 0.0173373
45.466 58.7901 2
43.8727 57.7127 3.98428
37.5634 67.7487 0.0153336
39.6479 65.6109 0.0178447
41.6005 63.8176 0.0176156
42.9513 62.0803 0.0191276
44.6233 60.2898 0.0176103
35.4635 67.6588 2
41.7542 62.4915 2
39.8941 63.5517 2
37.6424 65.5105 2
42.4804 59.9792 2
40.6237 61.6477 3.98164
40.4428 58.2066 3.98106
37.8373 63.2126 3.98066
35.5729 65.4313 3.98211
33.5753 65.343 2
31.9589 63.3009 2
33.6288 63.3394 3.98165
30.378 62.8591 3.98266
32.1229 62.0058 3.9829
26.8682 61.5019 3.98183
28.0616 64.1486 3.98331
29.8828 64.7214 2
29.406 66.7598 3.98499
31.6967 65.1293 0.0171331
31.3767 67.1967 2
31.0136 69.4178 3.98796
33.3922 67.486 0.0155485
33.1563 69.7535 2
32.8916 72.1472 3.9923
35.3334 69.9595 0.0118114
35.1947 72.3734 2
35.0474 74.9194 4
37.5095 72.4587 0.00769312
37.5 75 2
39.9526 74.9197 0
35.6212 6.72499 3.98614
37.5236 4.61532 3.98961
39.6242 4.71522 2
39.789 2.47424 3.99325
41.7365 4.96848 0.0106842
42.0627 2.71747 2
42.3946 0.32156 4
44.3263 3.11025 0.00688526
44.8159 0.72056 2
47.2057 1.27793 0
49.3424 41.309 0.0104663
56.6333 37.8866 0.0220429
52.9074 39.3029 0.0167391
47.2857 40.3969 2
50.2956 38.5066 2
53.7612 36.6324 2
51.0753 35.5732 3.97865
47.9276 37.7427 3.94721
45.7473 35.1313 3.88889
43.5807 33.8517 3.8202
41.9129 32.9888 3.71158
37.4584 8.53469 3.98451
37.5165 6.6732 2
39.4427 6.80269 0.0136191
39.2114 8.69232 2
38.977 10.1274 3.98319
35.8992 9.77408 3.9826
34.151 8.82273 3.98374
35.9421 8.49228 2
54.6773 33.9743 0.023154
53.3335 30.521 0.0219153
52.4765 27.2409 0.0249373
52.3612 21.076 0.0225605
52.0767 24.1355 0.0254344
49.8078 19.6614 0.0230807
48.1069 16.9964 0.0240136
47.6793 14.5916 0.0227116
44.7247 9.99683 0.0164877
46.005 12.7352 0.0207839
41.014 9.05021 0.0166167
42.4689 10.9051 0.0163461
52.2427 32.8921 2
40.5702 11.6108 2
43.8576 11.92 2
51.169 29.1968 2
50.6904 25.775 2
49.9122 22.2427 2
45.7985 15.4268 2
47.4968 19.2758 2
49.772 31.4329 3.98144
49.1527 27.5434 3.97522
49.3362 24.4589 3.98591
47.1691 22.0152 3.97371
38.3031 12.7382 3.9795
42.1019 14.3096 3.9784
44.7967 18.48 3.97684
44.6245 37.4928 3.82797
46.1313 37.4918 2
47.9838 58.7383 0.0210076
48.582 55.9089 0.0229099
49.9006 45.2424 0.0205042
49.5686 49.0183 0.0295808
49.0813 52.5724 0.0271366
45.7468 39.8583 0.111992
46.19 42.6358 0.0731474
46.3185 45.7994 0.0102294
43.5741 41.1355 0.176291
41.9035 42.0089 0.284885
46.8314 57.3414 2
44.3423 39.4334 2
42.2422 40.8742 2
47.9288 47.2107 2
47.1404 54.2323 2
47.5181 50.7292 2
44.6776 47.3623 2
44.8705 41.9581 2
44.8058 44.5497 2
42.467 42.6752 2
40.8135 42.346 2
45.3863 55.9321 3.99011
42.5733 39.2692 3.77006
40.711 40.7867 3.84137
45.9921 48.8907 3.98327
45.4944 52.5204 3.98139
43.3516 48.4092 4.00039
43.2965 46.0821 3.92921
43.5175 43.7334 3.88052
41.0117 43.7979 3.8263
39.2774 42.6876 3.76387
45.4666 58.7896 0.0185337
43.8721 57.713 2
42.1016 56.3345 3.98665
35.4635 67.6578 0.015518
37.6423 65.5099 0.0174465
39.8942 63.5512 0.018797
41.7541 62.4911 0.0187582
42.4806 59.9789 0.0178909
35.5731 65.4327 2
40.6237 61.6483 2
37.8372 63.2131 2
40.4424 58.2071 2
38.9217 56.4981 3.98883
38.2505 60.3296 3.98038
35.607 63.2051 3.98013
33.5752 65.3424 0.0176814
31.9591 63.3002 0.0176797
33.6286 63.3402 2
30.3779 62.8598 2
32.1229 62.0066 2
28.6806 62.2039 3.98234
33.3457 61.5175 3.98213
31.0663 61.2228 3.98209
27.5682 59.5973 3.98109
23.7929 59.0843 3.98075
25.0341 60.8745 3.98094
26.8683 61.5025 2
26.2283 63.4806 3.98323
28.0617 64.1492 2
27.4625 66.1838 3.98509
29.8828 64.7206 0.0163168
29.4061 66.7605 2
28.9058 68.9435 3.98789
31.3767 67.196 0.015272
31.0136 69.4185 2
30.6139 71.7781 3.99232
33.1563 69.7529 0.012022
32.8915 72.1476 2
32.6054 74.6784 4
35.1947 72.373 0.00775113
35.0474 74.9197 2
37.5 75 0
33.7239 6.97974 3.98567
35.4352 4.68556 3.98943
35.6211 6.72437 2
37.5144 2.38685 3.99324
37.5236 4.6148 2
39.6242 4.71577 0.0104251
39.789 2.4739 2
39.9526 0.0806499 4
42.0626 2.71779 0.00676679
42.3947 0.320817 2
44.8158 0.721173 0
44.3369 35.5672 3.8194
42.2637 34.117 3.75393
47.2686 40.3825 0.065378
50.2834 38.5086 0.00655327
53.7541 36.6308 0.023028
47.9394 37.7484 2
51.087 35.5742 2
45.7688 35.1165 2
43.6072 33.8318 2
41.9236 32.9786 2
48.101 34.3067 3.97268
44.8551 33.0425 3.87505
42.4466 32.3486 3.82891
40.8245 32.6535 3.74648
37.3114 10.6315 3.98179
37.4583 8.53367 2
37.5166 6.67392 0.0135189
39.2115 8.69291 0.0158658
38.9772 10.1267 2
34.7545 10.3805 3.98168
35.8991 9.77326 2
32.3778 9.36988 3.98279
34.1507 8.82211 2
35.9424 8.49305 0.0157775
52.238 32.8916 0.0197288
51.1556 29.196 0.0234107
50.6869 25.7731 0.0279954
49.9119 22.2448 0.0217627
47.4975 19.2752 0.0226822
45.7996 15.4298 0.019216
43.8587 11.92 0.020028
40.5702 11.6102 0.0193397
49.7827 31.4301 2
38.3027 12.7371 2
42.1012 14.3118 2
49.157 27.5443 2
49.3384 24.4561 2
47.1676 22.0119 2
44.796 18.4886 2
47.6118 29.5365 3.98863
47.0305 25.2034 3.98376
44.278 21.3876 3.97568
36.583 12.935 3.97906
38.6824 14.8123 3.97805
41.7479 17.8546 3.97791
42.6906 37.4856 3.78005
44.6423 37.4933 2
46.086 37.4858 0.104826
46.8324 57.3404 0.0171504
47.1411 54.2281 0.0254191
47.9292 47.2076 0.0234173
47.5171 50.7264 0.0339589
44.3216 39.4178 0.175619
44.8492 41.9426 0.117019
44.7923 44.5324 0.0579339
44.6734 47.3847 0.0177252
42.4317 42.6499 0.167826
42.2527 40.8724 0.241857
40.8133 42.3471 0.251293
45.3854 55.9325 2
42.565 39.2677 2
40.6981 40.7763 2
45.9912 48.8955 2
45.4947 52.5252 2
43.3533 48.428 2
43.3237 46.1085 2
43.5405 43.7564 2
41.037 43.8249 2
39.2685 42.677 2
43.7214 54.4409 3.99675
40.8089 39.1622 3.87282
39.1469 40.8676 3.86629
43.6301 50.4653 4.00236
41.903 47.6273 3.96267
41.8305 45.1567 3.88603
39.3426 44.5132 3.83648
37.4985 42.7945 3.78471
43.8727 57.7127 0.0157246
42.1009 56.3348 2
40.4111 54.9402 3.99082
35.5729 65.4313 0.0178929
37.8373 63.2126 0.019335
40.6237 61.6477 0.0183609
40.4428 58.2066 0.0189375
35.6069 63.2063 2
38.2506 60.3302 2
38.9211 56.4988 2
37.9982 55.2502 3.99018
36.9335 57.627 3.98074
35.3636 60.9143 3.98129
33.6288 63.3394 0.0183468
30.378 62.8591 0.0173352
32.1229 62.0058 0.0170986
33.3457 61.5185 2
28.6807 62.2043 2
31.0662 61.2236 2
29.4028 60.2915 3.9811
32.3574 59.7496 3.9854
28.0247 58.3776 3.9868
27.5684 59.5978 2
25.3797 58.596 3.97901
22.7593 58.2404 3.97268
23.4004 60.3536 3.97939
23.793 59.0852 2
25.0342 60.8752 2
24.431 62.7729 3.98279
26.8682 61.5019 0.0181702
26.2285 63.4813 2
25.5466 65.4937 3.9849
28.0616 64.1486 0.0166881
27.4626 66.1844 2
26.8354 68.3319 3.98791
29.406 66.7598 0.0150076
28.9058 68.944 2
28.3689 71.2633 3.99242
31.0136 69.4178 0.0120433
30.6137 71.7785 2
30.1842 74.2788 4
32.8916 72.1472 0.00770264
32.6053 74.6792 2
35.0474 74.9194 0
31.7884 7.41984 3.98506
33.3474 4.9248 3.98908
33.7237 6.9791 2
35.2445 2.46293 3.99322
35.4351 4.68509 2
35.6212 6.72499 0.0138638
37.5 0 4
37.5144 2.38654 2
37.5236 4.61532 0.0103871
39.789 2.47424 0.00675431
39.9526 0.0802889 2
42.3946 0.32156 0
42.5763 35.7093 3.77191
44.3516 35.5538 2
40.7208 34.2097 3.83959
42.2523 34.1167 2
47.9276 37.7427 0.0527881
51.0753 35.5732 0.0213531
45.7473 35.1313 0.111109
43.5807 33.8517 0.179798
41.9129 32.9888 0.288418
48.1173 34.287 2
44.8773 33.0289 2
42.4736 32.326 2
40.8237 32.6538 2
46.1266 31.5742 3.94748
43.5148 31.2642 3.88072
41.02 31.202 3.82624
39.2866 32.3182 3.76309
35.6933 11.7775 3.98038
37.3115 10.6302 2
37.4584 8.53469 0.0154917
38.977 10.1274 0.0168108
33.0985 11.2182 3.98014
34.7544 10.3797 2
35.8992 9.77408 0.0173986
30.4825 10.0184 3.98208
32.3775 9.36944 2
34.151 8.82273 0.0162577
49.772 31.4329 0.0185624
49.1527 27.5434 0.0247808
49.3362 24.4589 0.0140851
47.1691 22.0152 0.0262921
44.7967 18.48 0.0231603
42.1019 14.3096 0.0216042
38.3031 12.7382 0.0204966
36.5827 12.934 2
47.6161 29.5198 2
38.6813 14.8113 2
41.7469 17.8608 2
47.0345 25.2008 2
44.2762 21.3721 2
45.428 27.6668 4.00111
43.7595 24.1147 4.00353
41.3356 20.7621 3.97938
35.7732 14.7638 3.9779
38.6821 17.6034 3.97806
40.8563 37.48 3.88202
42.6903 37.4873 2
44.6245 37.4928 0.17203
45.3863 55.9321 0.00988543
45.4944 52.5204 0.018612
45.9921 48.8907 0.0167304
42.5733 39.2692 0.22994
43.5175 43.7334 0.119481
43.2965 46.0821 0.0707928
43.3516 48.4092 -0.000391729
41.0117 43.7979 0.173698
40.711 40.7867 0.158626
39.2774 42.6876 0.236126
43.7207 54.4411 2
40.7936 39.1554 2
39.1352 40.8521 2
43.6284 50.4801 2
41.893 47.6439 2
41.8528 45.1797 2
37.4986 42.7825 2
39.3595 44.5327 2
41.8606 53.0123 3.99328
39.161 39.1644 3.90137
37.4972 40.9058 3.88331
35.7238 42.6905 3.76411
40.8663 49.6818 3.99913
39.8061 46.0477 3.86843
37.4965 44.7371 3.82304
42.1016 56.3345 0.013351
40.4108 54.9406 2
38.7256 53.8585 3.99461
35.607 63.2051 0.0198733
38.2505 60.3296 0.0196153
38.9217 56.4981 0.0111696
35.3636 60.9154 2
36.9334 57.628 2
37.9978 55.2493 2
36.3202 55.364 3.9894
34.4885 58.5247 3.98609
33.3457 61.5175 0.0178681
28.6806 62.2039 0.0176569
31.0663 61.2228 0.0179088
32.3573 59.7506 2
29.403 60.2916 2
30.3016 57.8227 3.98495
28.0249 58.3782 2
26.9523 56.8284 3.97838
27.5682 59.5973 0.0189145
25.3798 58.5969 2
23.8464 56.7983 3.97076
21.3387 57.3947 3.97194
21.9942 59.6242 3.97839
22.7592 58.242 2
22.7352 62.0239 3.98146
23.4005 60.3544 2
23.7929 59.0843 0.0192527
25.0341 60.8745 0.0190552
24.4313 62.7737 2
23.6805 64.7118 3.98459
26.2283 63.4806 0.0167688
25.5466 65.4944 2
24.8075 67.5931 3.98781
27.4625 66.1838 0.0149101
26.8354 68.3325 2
26.1641 70.604 3.99249
28.9058 68.9435 0.012107
28.3687 71.2636 2
27.7943 73.7221 4
30.6139 71.7781 0.00768352
30.1841 74.2794 2
32.6054 74.6784 0
29.8109 7.99338 3.98429
31.2526 5.33197 3.98842
31.7882 7.41924 2
32.9802 2.70114 3.993
33.3472 4.92423 2
33.7239 6.97974 0.0143304
35.0474 0.080333 4
35.2444 2.46266 2
35.4352 4.68556 0.0105692
37.5 0 2
37.5144 2.38685 0.00675886
39.9526 0.0806499 0
40.8099 35.8108 3.87414
42.5674 35.7121 2
44.3369 35.5672 0.180596
28.5433 10.6941 3.9815
39.1542 34.1366 3.8656
40.7059 34.2199 2
42.2637 34.117 0.246065
48.101 34.3067 0.0273231
44.8551 33.0425 0.12495
42.4466 32.3486 0.171087
40.8245 32.6535 0.253519
46.15 31.5647 2
43.5323 31.2456 2
41.0439 31.1755 2
39.2783 32.3279 2
44.3151 29.7717 3.93795
41.8442 29.8434 3.88779
39.3601 30.4872 3.83623
37.5101 32.2155 3.78406
34.0936 12.937 3.97907
35.6932 11.7764 2
37.3114 10.6315 0.0182064
31.1864 11.9869 3.98033
33.0985 11.2177 2
34.7545 10.3805 0.0183239
30.4823 10.0178 2
32.3778 9.36988 0.017206
47.6118 29.5365 0.0113698
47.0305 25.2034 0.0162353
36.583 12.935 0.0209391
44.278 21.3876 0.0243195
41.7479 17.8546 0.0220927
38.6824 14.8123 0.0219487
35.7726 14.7635 2
45.4319 27.6662 2
38.6804 17.6062 2
41.3331 20.7487 2
43.7607 24.1017 2
33.6092 15.8818 3.97728
42.981 26.5108 3.99696
40.8941 23.3292 4.00825
38.4172 20.3742 3.97557
35.8498 17.5192 3.97793
39.1749 37.4836 3.91359
40.8389 37.4779 2
42.6906 37.4856 0.21995
43.7214 54.4409 0.00325149
43.6301 50.4653 -0.00236186
40.8089 39.1622 0.127178
41.8305 45.1567 0.113972
41.903 47.6273 0.037331
39.3426 44.5132 0.163522
39.1469 40.8676 0.133712
37.4985 42.7945 0.215294
41.8628 53.0112 2
39.1457 39.162 2
37.4966 40.8907 2
40.8842 49.6946 2
35.7301 42.68 2
39.8301 46.0757 2
37.4935 44.7532 2
39.797 51.9063 3.99539
37.4963 39.1837 3.91862
35.8461 40.8804 3.86506
34.183 42.3482 3.74759
35.6418 44.5217 3.83388
38.674 48.6953 3.97929
37.4933 46.3542 3.87388
40.4111 54.9402 0.00918392
38.7267 53.8571 2
36.7333 53.1897 4.00095
35.3636 60.9143 0.0187133
36.9335 57.627 0.0192573
37.9982 55.2502 0.00982432
34.4884 58.5262 2
36.3205 55.3696 2
33.2351 55.5098 3.99159
32.3574 59.7496 0.0146035
29.4028 60.2915 0.0189045
30.302 57.8229 2
28.7045 55.3177 3.97887
28.0247 58.3776 0.0132005
26.9519 56.8292 2
25.3262 55.1364 3.97389
21.8229 55.3411 3.9673
25.3797 58.596 0.0209922
23.846 56.8004 2
20.2246 57.0232 3.97772
20.647 58.7788 3.97589
21.3383 57.3965 2
21.1661 61.1725 3.97985
21.9942 59.6254 2
22.7593 58.2404 0.0273242
21.894 63.8395 3.98384
22.7354 62.0248 2
23.4004 60.3536 0.0206121
24.431 62.7729 0.0172082
23.6806 64.7125 2
22.8357 66.7366 3.9876
25.5466 65.4937 0.0151045
24.8076 67.5938 2
24.0083 69.8052 3.99256
26.8354 68.3319 0.0120932
26.1638 70.6043 2
25.446 73.0099 4
28.3689 71.2633 0.00758248
27.7943 73.7222 2
30.1842 74.2788 0
27.8208 8.65325 3.9839
29.1547 5.87777 3.98776
29.8106 7.99267 2
30.7253 3.09835 3.99269
31.2524 5.33146 2
31.7884 7.41984 0.0149412
32.6053 0.320823 4
32.98 2.70083 2
33.3474 4.9248 0.0109175
35.0474 0.0802903 2
35.2445 2.46293 0.00677832
37.5 0 0
39.1695 35.8151 3.89972
40.7934 35.8167 2
42.5763 35.7093 0.228088
28.5432 10.6937 2
26.6219 11.3896 3.98176
29.2252 12.6439 3.98112
37.503 34.1045 3.88177
39.1406 34.1524 2
40.7208 34.2097 0.160408
46.1266 31.5742 0.0525189
43.5148 31.2642 0.119281
41.02 31.202 0.173764
39.2866 32.3182 0.236908
44.3355 29.7553 2
41.8611 29.8273 2
39.3763 30.4643 2
37.5112 32.2283 2
42.3209 28.419 3.91877
39.8491 28.9493 3.88724
37.5206 30.2654 3.82327
35.7371 32.3163 3.76316
31.9154 14.4835 3.97919
34.0937 12.9367 2
35.6933 11.7775 0.0196193
31.1866 11.9865 2
33.0985 11.2182 0.0198594
30.4825 10.0184 0.0179235
45.428 27.6668 -0.001106
43.7595 24.1147 -0.00353257
35.7732 14.7638 0.0221047
41.3356 20.7621 0.0206163
38.6821 17.6034 0.0219436
33.6082 15.8823 2
35.8478 17.5189 2
42.9881 26.5078 2
38.4178 20.3705 2
40.8925 23.3156 2
33.5519 17.3936 3.97875
40.3702 25.6706 4.00136
38.0696 22.9282 3.99478
35.5817 20.0937 3.97856
37.4963 37.4954 3.9341
39.1571 37.4845 2
40.8563 37.48 0.117978
41.8606 53.0123 0.00671829
40.8663 49.6818 0.000870734
39.161 39.1644 0.0986291
39.8061 46.0477 0.131569
37.4965 44.7371 0.176957
37.4972 40.9058 0.116693
35.7238 42.6905 0.235894
39.8059 51.9054 2
37.4954 39.1761 2
35.8591 40.864 2
38.6781 48.7295 2
34.1824 42.3478 2
35.6254 44.5443 2
37.4917 46.3799 2
37.6382 50.9785 4.01124
35.8335 39.1835 3.90073
34.285 40.7991 3.84031
33.0872 42.012 3.71345
33.9743 43.7907 3.82531
35.1552 46.0305 3.87982
36.8685 48.3336 3.94667
38.7256 53.8585 0.00538926
36.7316 53.1951 2
34.3744 52.4656 3.99495
34.4885 58.5247 0.0139054
36.3202 55.364 0.0105978
33.2352 55.5108 2
30.5348 53.3624 3.97858
30.3016 57.8227 0.0150481
28.704 55.3195 2
26.9066 53.4289 3.97293
26.9523 56.8284 0.0216174
25.3257 55.1399 2
23.6007 53.4706 3.9654
20.4962 53.2117 3.96075
19.9425 55.8259 3.97118
21.8217 55.3428 2
23.8464 56.7983 0.0292424
19.4412 57.8843 3.97482
20.224 57.0247 2
19.707 60.2036 3.97729
20.6467 58.7798 2
21.3387 57.3947 0.0280583
20.2067 62.86 3.98193
21.1663 61.1738 2
21.9942 59.6242 0.0216056
20.9371 65.7655 3.98721
21.8941 63.8404 2
22.7352 62.0239 0.0185443
23.6805 64.7118 0.0154113
22.8358 66.7372 2
21.9108 68.8722 3.99243
24.8075 67.5931 0.0121942
24.0079 69.8054 2
23.1494 72.1454 4
26.1641 70.604 0.00750512
25.446 73.0099 2
27.7943 73.7221 0
25.8599 9.38173 3.98341
27.0694 6.54196 3.98703
27.8205 8.6527 2
28.4874 3.64435 3.99238
29.1544 5.87719 2
29.8109 7.99338 0.0157117
30.1841 0.720592 4
30.7251 3.09808 2
31.2526 5.33197 0.0115828
32.6053 0.320817 2
32.9802 2.70114 0.00699881
35.0474 0.080333 0
37.4981 35.8127 3.91871
39.1524 35.8181 2
40.8099 35.8108 0.125861
24.7767 12.0729 3.98209
23.7516 14.3595 3.98119
28.5433 10.6941 0.0185018
26.622 11.3892 2
29.2255 12.6434 2
27.2914 13.3766 3.9816
29.7808 14.2044 3.98072
35.8557 34.1317 3.86485
37.5016 34.12 2
39.1542 34.1366 0.134402
37.5101 32.2155 0.215936
44.3151 29.7717 0.0620526
41.8442 29.8434 0.112209
39.3601 30.4872 0.163774
42.3468 28.3933 2
39.8617 28.9202 2
37.5211 30.2545 2
35.7445 32.3273 2
40.0361 27.583 3.91536
37.5276 28.6467 3.88021
35.6712 30.4928 3.83746
34.203 32.6564 3.74704
30.9273 16.8423 3.97922
31.9154 14.4835 2
34.0936 12.937 0.0209286
31.1864 11.9869 0.0196713
42.981 26.5108 0.00304002
40.8941 23.3292 -0.00825415
33.6092 15.8818 0.0227235
35.8498 17.5192 0.0220709
38.4172 20.3742 0.0244293
33.5504 17.3956 2
35.5836 20.1007 2
40.3724 25.6573 2
38.0658 22.9168 2
32.862 19.8031 3.9806
37.796 25.2406 4.00728
35.1949 22.6788 3.98862
35.8234 37.501 3.91432
37.4935 37.4942 2
39.1749 37.4836 0.0864072
39.797 51.9063 0.00460824
38.674 48.6953 0.0207071
37.4963 39.1837 0.0813821
37.4933 46.3542 0.126119
35.6418 44.5217 0.166116
35.8461 40.8804 0.134942
34.183 42.3482 0.252415
37.647 50.9946 2
35.8475 39.1772 2
34.2988 40.7891 2
36.863 48.3587 2
33.0754 42.0229 2
33.9521 43.8155 2
35.1398 46.0554 2
35.4896 50.117 4.0003
34.1946 39.1831 3.87532
32.7309 40.8817 3.75628
32.5573 42.6534 3.83226
33.1611 45.1527 3.88529
34.2856 47.4057 3.92353
36.7333 53.1897 -0.00094605
34.3729 52.4707 2
32.0351 51.1726 4.00174
33.2351 55.5098 0.00841178
30.5341 53.3675 2
28.4577 51.5776 3.97703
28.7045 55.3177 0.021129
26.9057 53.4318 2
25.1159 51.7319 3.96163
25.3262 55.1364 0.0261124
23.5997 53.4731 2
22.0082 51.7911 3.959
19.2412 51.6242 3.96419
18.9404 54.2997 3.96176
20.4954 53.211 2
18.453 56.7164 3.97411
19.9415 55.8275 2
21.8229 55.3411 0.0326976
18.3702 59.1058 3.97418
19.4407 57.8854 2
20.2246 57.0232 0.0222792
18.6184 61.7651 3.97872
19.707 60.2051 2
20.647 58.7788 0.0241079
19.1261 64.6759 3.98622
20.2067 62.8612 2
21.1661 61.1725 0.0201481
19.8849 67.8088 3.99233
20.9372 65.7663 2
21.894 63.8395 0.016158
22.8357 66.7366 0.0124035
21.9104 68.8723 2
20.9142 71.1327 4
24.0083 69.8052 0.00743505
23.1494 72.1455 2
25.446 73.0099 0
23.0961 12.7879 3.98173
23.9724 10.1687 3.98314
25.0231 7.3124 3.98642
25.8598 9.38125 2
26.2791 4.32867 3.99199
27.0691 6.5415 2
27.8208 8.65325 0.016096
27.7943 1.27781 4
28.4871 3.64409 2
29.1547 5.87777 0.0122387
30.1841 0.720551 2
30.7253 3.09835 0.00730565
32.6053 0.320823 0
35.8332 35.8203 3.9006
37.4957 35.8207 2
39.1695 35.8151 0.100282
24.7769 12.0726 2
23.7522 14.3593 2
22.4805 15.0364 3.98077
25.3576 13.9085 3.9811
24.0254 15.6227 3.98043
26.6219 11.3896 0.01824
29.2252 12.6439 0.0188795
27.2919 13.3762 2
29.7809 14.2041 2
28.3573 15.979 3.98084
34.2952 34.212 3.83972
35.8666 34.1483 2
37.503 34.1045 0.118228
35.7371 32.3163 0.236841
37.5206 30.2654 0.176733
42.3209 28.419 0.081225
39.8491 28.9493 0.112764
40.0453 27.5611 2
37.5292 28.6217 2
35.6469 30.4667 2
34.1971 32.6574 2
37.6091 27.283 3.93021
35.1902 28.9587 3.88662
33.9951 31.2134 3.8261
33.1137 32.9915 3.71396
30.2088 19.3472 3.98452
30.9266 16.8427 2
31.9154 14.4835 0.0208086
40.3702 25.6706 -0.00136108
38.0696 22.9282 0.00521806
33.5519 17.3936 0.0212506
35.5817 20.0937 0.021436
32.8628 19.8055 2
35.1936 22.6729 2
37.782 25.2273 2
32.3097 22.4318 3.99194
34.9996 25.2246 4.00439
34.1412 37.5032 3.8831
35.8365 37.5001 2
37.4963 37.4954 0.0658975
37.6382 50.9785 -0.0112365
36.8685 48.3336 0.0533297
35.8335 39.1835 0.0992681
35.1552 46.0305 0.120176
33.9743 43.7907 0.174691
34.285 40.7991 0.159688
33.0872 42.012 0.286555
35.4864 50.1348 2
34.2162 39.1745 2
32.7414 40.8835 2
34.2758 47.4401 2
32.5296 42.6754 2
33.1452 45.174 2
33.2846 49.1125 3.99932
32.4143 39.2854 3.77442
31.4064 41.1437 3.82271
31.4817 43.7352 3.88285
32.2998 46.33 3.9221
34.3744 52.4656 0.00505061
32.0333 51.1818 2
29.9086 49.6933 3.99017
30.5348 53.3624 0.0214247
28.4559 51.5767 2
26.5581 49.9663 3.97188
26.9066 53.4289 0.0270738
25.1141 51.7297 2
23.3961 50.1761 3.96818
23.6007 53.4706 0.0346033
22.007 51.79 2
20.5155 50.3023 3.96682
18.0321 50.32 3.96842
17.8654 52.7825 3.96305
19.2396 51.6236 2
17.4484 55.3317 3.96625
18.9394 54.2993 2
20.4962 53.2117 0.0392537
17.1383 57.8677 3.97332
18.4521 56.7174 2
19.9425 55.8259 0.0288157
17.1372 60.5458 3.97596
18.37 59.1069 2
19.4412 57.8843 0.0251793
17.407 63.4675 3.98339
18.6185 61.7666 2
19.707 60.2036 0.0227055
17.9413 66.6173 3.99209
19.1261 64.677 2
20.2067 62.86 0.0180674
18.75 69.9759 4
19.8845 67.8088 2
20.9371 65.7655 0.0127925
21.9108 68.8722 0.00757318
20.9142 71.1327 2
23.1494 72.1454 0
21.5871 13.6084 3.98119
22.1904 11.0282 3.98264
23.0965 12.7879 2
23.041 8.17811 3.98599
23.9723 10.1683 2
24.1167 5.14353 3.99166
25.0228 7.31192 2
25.8599 9.38173 0.0165934
25.446 1.99014 4
26.2787 4.32852 2
27.0694 6.54196 0.012965
27.7943 1.27778 2
28.4874 3.64435 0.00762058
30.1841 0.720592 0
34.1885 35.8249 3.87271
35.8457 35.826 2
37.4981 35.8127 0.0812866
21.3062 15.8324 3.98104
24.7767 12.0729 0.0179135
23.7516 14.3595 0.0188101
25.3582 13.9083 2
22.4813 15.0364 2
24.0261 15.6227 2
23.2651 16.2548 3.9795
25.381 16.0913 3.98074
27.2914 13.3766 0.0184022
29.7808 14.2044 0.0192807
28.3575 15.9793 2
27.4411 18.8033 3.98324
32.7523 34.1221 3.75403
34.3137 34.2235 2
35.8557 34.1317 0.135154
34.203 32.6564 0.252957
35.6712 30.4928 0.162535
37.5276 28.6467 0.11979
40.0361 27.583 0.0846409
37.6099 27.2523 2
33.0992 32.9823 2
35.1794 28.932 2
33.9679 31.1804 2
35.0741 27.4121 3.93273
33.1819 29.8533 3.88142
32.5798 32.3435 3.82141
29.583 21.9422 3.99701
30.2097 19.3501 2
30.9273 16.8423 0.0207768
37.796 25.2406 -0.00728216
35.1949 22.6788 0.0113762
32.862 19.8031 0.0194026
32.3086 22.4298 2
35.0127 25.217 2
31.7456 25.6533 4.00509
32.2952 37.5057 3.78206
34.1632 37.5058 2
35.8234 37.501 0.0856762
35.4896 50.117 -0.000295756
34.2856 47.4057 0.0764656
34.1946 39.1831 0.124679
33.1611 45.1527 0.11471
32.5573 42.6534 0.167741
32.7309 40.8817 0.243722
33.2784 49.1044 2
32.4276 39.2826 2
31.3834 41.1617 2
32.2721 46.3547 2
31.4577 43.7573 2
31.2147 47.9456 3.99159
30.6557 39.4282 3.82093
30.1383 41.9542 3.87591
30.5044 44.9204 3.93891
32.0351 51.1726 -0.00173556
29.9057 49.6926 2
27.9519 48.1582 3.96854
28.4577 51.5776 0.0229716
26.5565 49.9645 2
24.725 48.4481 3.97264
25.1159 51.7319 0.038371
23.3953 50.1743 2
21.7404 48.7714 3.97013
22.0082 51.7911 0.0409953
20.5139 50.3013 2
19.0982 49.0797 3.97207
16.9381 49.3217 3.97226
16.8063 51.3983 3.96639
18.0328 50.3193 2
16.4055 53.8633 3.96477
17.863 52.7824 2
19.2412 51.6242 0.0358084
15.9835 56.4676 3.96779
17.4477 55.332 2
18.9404 54.2997 0.0382402
15.7519 59.2061 3.97455
17.1379 57.869 2
18.453 56.7164 0.0258949
15.7884 62.136 3.97965
17.1372 60.5474 2
18.3702 59.1058 0.0258235
16.0883 65.3 3.99126
17.4068 63.4688 2
18.6184 61.7651 0.021275
16.6661 68.6801 4
17.9407 66.6173 2
19.1261 64.6759 0.013782
18.75 69.9759 2
19.8849 67.8088 0.00766639
20.9142 71.1327 0
20.2196 14.5978 3.98028
21.5876 13.6085 2
20.5297 11.9984 3.982
21.1438 9.14806 3.98565
22.1905 11.0281 2
23.0961 12.7879 0.0182651
22.0157 6.08263 3.99144
23.0407 8.17766 2
23.9724 10.1687 0.0168608
23.1494 2.85457 4
24.1161 5.14343 2
25.0231 7.3124 0.0135766
25.446 1.99012 2
26.2791 4.32867 0.00801107
27.7943 1.27781 0
32.4188 35.7207 3.76849
34.2067 35.8336 2
35.8332 35.8203 0.0993982
21.307 15.8322 2
20.3045 16.966 3.98168
22.0983 16.639 3.97871
25.3576 13.9085 0.0189003
22.4805 15.0364 0.0192253
24.0254 15.6227 0.0195672
25.3816 16.0915 2
23.2659 16.2549 2
24.2058 18.4575 3.97722
27.023 21.4647 3.99085
28.3573 15.979 0.0191568
27.4426 18.8037 2
31.4373 33.8655 3.82355
32.7657 34.1207 2
34.2952 34.212 0.160281
33.1137 32.9915 0.286037
33.9951 31.2134 0.1739
35.1902 28.9587 0.11338
37.6091 27.283 0.0697866
35.0558 27.3758 2
32.5278 32.3214 2
33.1649 29.8292 2
32.6069 28.1345 3.9436
31.4904 31.2743 3.88383
28.8486 24.4165 3.98117
29.5804 21.9468 2
30.2088 19.3472 0.01548
34.9996 25.2246 -0.00438845
32.3097 22.4318 0.00806103
31.7492 25.6364 2
29.7208 27.3312 3.96291
30.354 37.4971 3.82732
32.303 37.5024 2
34.1412 37.5032 0.116901
33.2846 49.1125 0.000681932
32.2998 46.33 0.0779047
32.4143 39.2854 0.225579
31.4817 43.7352 0.11715
31.4064 41.1437 0.177289
31.2118 47.948 2
30.6343 39.4435 2
30.1166 41.969 2
30.4922 44.9355 2
29.2883 46.5466 4.00081
29.2345 39.8546 3.88814
28.852 43.1451 3.94014
29.9086 49.6933 0.00982617
27.9487 48.1544 2
26.0539 46.6299 3.97564
26.5581 49.9663 0.0281237
24.7248 48.4456 2
22.9156 47.0542 3.97419
23.3961 50.1761 0.0318183
21.7402 48.7699 2
20.0694 47.6027 3.97695
20.5155 50.3023 0.0331839
19.0992 49.0786 2
17.7282 48.1675 3.97591
16.1823 48.6744 3.97485
16.9392 49.3211 2
15.881 50.1618 3.96932
15.3964 52.4089 3.96608
16.8058 51.3979 2
18.0321 50.32 0.0315754
14.8779 54.97 3.96695
16.405 53.8634 2
17.8654 52.7825 0.0369519
14.4632 57.7341 3.97094
15.9832 56.4683 2
17.4484 55.3317 0.0337549
14.2671 60.6894 3.97816
15.7518 59.2076 2
17.1383 57.8677 0.0266846
14.3331 63.8588 3.98901
15.7882 62.1373 2
17.1372 60.5458 0.0240438
14.6715 67.2507 4
16.0874 65.2996 2
17.407 63.4675 0.0166078
16.6661 68.6801 2
17.9413 66.6173 0.00791189
18.75 69.9759 0
18.9339 15.7847 3.98018
20.2201 14.5977 2
18.9796 13.1096 3.981
21.5871 13.6084 0.0188071
20.53 11.9983 2
19.3429 10.2361 3.98517
19.9904 7.14726 3.99136
21.1436 9.14782 2
22.1904 11.0282 0.0173593
20.9142 3.86727 4
22.015 6.0827 2
23.041 8.17811 0.0140099
23.1494 2.85451 2
24.1167 5.14353 0.00833727
25.446 1.99014 0
30.6741 35.585 3.82402
32.4313 35.7219 2
34.1885 35.8249 0.127294
21.3062 15.8324 0.0189598
22.0992 16.639 2
20.3053 16.9653 2
19.2482 18.4142 3.97732
21.7836 17.8563 3.97976
25.381 16.0913 0.0192607
23.2651 16.2548 0.0204956
24.207 18.4577 2
22.2865 19.9025 3.97415
24.6036 21.3342 3.98586
26.458 23.7308 3.96962
27.023 21.4644 2
27.4411 18.8033 0.0167577
30.1691 33.0557 3.88306
31.4148 33.8314 2
32.7523 34.1221 0.24597
32.5798 32.3435 0.17859
33.1819 29.8533 0.118584
35.0741 27.4121 0.0672684
32.5966 28.1201 2
31.4721 31.2484 2
30.2123 29.5732 3.95737
27.9618 26.5552 3.97976
28.8473 24.4272 2
29.583 21.9422 0.00298716
31.7456 25.6533 -0.00509165
29.7186 27.2983 2
28.8923 37.511 3.89557
30.3441 37.499 2
32.2952 37.5057 0.217941
31.2147 47.9456 0.00841387
30.5044 44.9204 0.0610851
30.6557 39.4282 0.179074
30.1383 41.9542 0.124091
29.2862 46.5609 2
29.2114 39.8729 2
28.8253 43.163 2
27.4308 44.8417 3.98076
27.0077 40.5837 3.96342
27.9519 48.1582 0.0314607
26.051 46.632 2
24.1462 45.1838 3.97611
24.725 48.4481 0.0273643
22.9165 47.0524 2
21.0412 45.8742 3.97874
21.7404 48.7714 0.0298651
20.0711 47.6015 2
18.4009 46.7245 3.97797
19.0982 49.0797 0.0279316
17.7288 48.1668 2
16.3846 47.7041 3.97595
16.1831 48.6739 2
15.2249 49.0076 3.97242
16.9381 49.3217 0.0277425
15.8819 50.1613 2
14.5086 50.9787 3.96803
13.838 53.4295 3.96756
15.3968 52.4087 2
16.8063 51.3983 0.0336125
13.2605 56.1611 3.96853
14.8779 54.97 2
16.4055 53.8633 0.0352283
12.8504 59.1227 3.97658
14.4632 57.7351 2
15.9835 56.4676 0.0322144
12.679 62.301 3.98656
14.2669 60.6905 2
15.7519 59.2061 0.025455
12.7746 65.6939 4
14.3319 63.858 2
15.7884 62.136 0.0203463
14.6714 67.2507 2
16.0883 65.3 0.00874152
16.6661 68.6801 0
17.6702 17.161 3.97693
18.9344 15.7844 2
17.5114 14.3743 3.97989
20.2196 14.5978 0.0197229
18.98 13.1094 2
17.6385 11.4552 3.98417
20.5297 11.9984 0.0179981
19.343 10.2359 2
18.0506 8.33999 3.99131
18.75 5.0241 4
19.9896 7.14763 2
21.1438 9.14806 0.0143524
20.9142 3.86727 2
22.0157 6.08263 0.00856024
23.1494 2.85457 0
29.2549 35.1347 3.89202
30.6505 35.5656 2
32.4188 35.7207 0.231512
22.0983 16.639 0.0212887
20.3045 16.966 0.0183239
21.7844 17.8562 2
19.2489 18.4132 2
17.9907 19.9477 3.9727
20.8833 19.3872 3.97709
24.2058 18.4575 0.0227778
22.2872 19.9021 2
24.6039 21.3347 2
22.3759 21.7303 3.97739
24.7294 23.1769 3.97342
25.5448 25.9591 3.97165
26.4605 23.7308 2
27.023 21.4647 0.00914519
28.5459 32.3547 3.93877
30.1436 33.043 2
31.4373 33.8655 0.176445
31.4904 31.2743 0.116168
32.6069 28.1345 0.0564021
30.2004 29.5698 2
27.1446 29.1415 4.00481
27.9579 26.5605 2
28.8486 24.4165 0.0188282
29.7208 27.3312 0.0370897
27.1283 37.3663 3.94411
28.8544 37.505 2
30.354 37.4971 0.172679
29.2883 46.5466 -0.000808577
28.852 43.1451 0.0598567
29.2345 39.8546 0.111862
27.4246 44.8605 2
26.9926 40.6007 2
25.4501 43.1545 3.98422
24.2597 39.4435 3.97811
26.0539 46.6299 0.0243635
24.1415 45.1825 2
22.0385 43.9278 3.97869
22.9156 47.0542 0.0258093
21.0407 45.873 2
19.0867 44.955 3.97841
20.0694 47.6027 0.0230483
18.4023 46.7236 2
16.6911 46.2027 3.97647
17.7282 48.1675 0.0240858
16.3854 47.7035 2
14.9662 47.6624 3.9739
16.1823 48.6744 0.0251467
15.2259 49.0072 2
13.8055 49.5406 3.96957
15.881 50.1618 0.0306788
14.5094 50.9784 2
12.9042 51.8705 3.96777
12.1479 54.5224 3.96973
13.8383 53.4294 2
15.3964 52.4089 0.0339197
11.5365 57.4546 3.97386
13.2607 56.1614 2
14.8779 54.97 0.0330484
11.1338 60.6269 3.98461
12.8504 59.1233 2
14.4632 57.7341 0.0290597
10.9835 64.0165 4
12.6776 62.2995 2
14.2671 60.6894 0.0218394
12.7745 65.694 2
14.3331 63.8588 0.010992
14.6715 67.2507 0
16.4062 18.6567 3.97339
17.6706 17.1603 2
16.103 15.784 3.97878
18.9339 15.7847 0.0198192
17.5118 14.3738 2
16.0203 12.8092 3.98228
18.9796 13.1096 0.0190016
17.6387 11.4549 2
16.2018 9.6629 3.99104
19.3429 10.2361 0.0148286
18.0498 8.34059 2
16.6661 6.31991 4
18.75 5.02404 2
19.9904 7.14726 0.00863721
20.9142 3.86727 0
27.6526 34.787 3.93742
29.2301 35.1132 2
30.6741 35.585 0.175981
16.6989 21.3869 3.96383
21.7836 17.8563 0.0202428
19.2482 18.4142 0.0226766
20.8839 19.3866 2
17.9914 19.9465 2
19.7417 21.584 3.97524
22.2865 19.9025 0.025846
24.6036 21.3342 0.0141361
22.3762 21.7301 2
24.7305 23.1764 2
22.8984 24.6111 3.97091
24.6859 28.5382 3.97727
25.5426 25.9582 2
26.458 23.7308 0.030379
26.3904 31.7191 3.98692
28.5189 32.3374 2
30.1691 33.0557 0.116942
30.2123 29.5732 0.0426285
27.1606 29.1318 2
27.9618 26.5552 0.0202404
24.9555 36.8596 3.98765
27.1058 37.362 2
28.8923 37.511 0.104426
27.4308 44.8417 0.0192375
27.0077 40.5837 0.0365815
25.4365 43.1611 2
24.2461 39.4424 2
23.1563 41.8031 3.97996
21.9781 38.514 3.97759
24.1462 45.1838 0.0238907
22.0373 43.9283 2
19.8862 42.877 3.97763
21.0412 45.8742 0.0212589
19.0866 44.9544 2
17.0459 44.3695 3.97688
18.4009 46.7245 0.0220254
16.692 46.2021 2
14.9007 46.0831 3.97462
16.3846 47.7041 0.0240507
14.967 47.662 2
13.3172 48.0034 3.9707
15.2249 49.0076 0.0275847
13.8063 49.5403 2
12.1225 50.25 3.96818
14.5086 50.9787 0.0319669
12.9046 51.8704 2
11.1428 52.8338 3.96948
10.3274 55.708 3.97356
12.1483 54.5224 2
13.838 53.4295 0.0324424
9.70083 58.8488 3.98225
11.5367 57.4547 2
13.2605 56.1611 0.031474
9.30605 62.2254 4
11.1323 60.6247 2
12.8504 59.1227 0.0234159
10.9835 64.0165 2
12.679 62.301 0.0134426
12.7746 65.6939 0
15.1572 20.1947 3.96724
16.4067 18.6559 2
14.7505 17.3079 3.97555
17.6702 17.161 0.0230654
16.1034 15.783 2
14.483 14.2919 3.98072
17.5114 14.3743 0.0201106
16.0205 12.8085 2
14.4447 11.114 3.99023
17.6385 11.4552 0.0158333
16.2011 9.66369 2
14.6715 7.74927 4
18.0506 8.33999 0.00868956
16.6661 6.31988 2
18.75 5.0241 0
25.6097 34.2718 3.99092
27.6318 34.7792 2
29.2549 35.1347 0.107985
17.8817 22.3356 3.97349
15.5441 22.9264 3.96892
16.6994 21.3864 2
20.8833 19.3872 0.0229078
17.9907 19.9477 0.0272981
19.7421 21.5835 2
19.7186 24.3917 3.96945
22.3759 21.7303 0.0226132
24.7294 23.1769 0.0265767
22.8988 24.6109 2
22.0543 27.8389 3.97158
23.9488 31.203 3.97554
24.6964 28.5396 2
25.5448 25.9591 0.0283465
26.379 31.7007 2
28.5459 32.3547 0.061228
27.1446 29.1415 -0.00481277
22.7068 36.2854 3.98144
24.9341 36.8555 2
27.1283 37.3663 0.0558866
25.4501 43.1545 0.0157763
24.2597 39.4435 0.021886
23.1496 41.8018 2
21.9712 38.5128 2
20.8933 40.6396 3.97636
20.2969 37.7967 3.97748
22.0385 43.9278 0.0213148
19.886 42.8767 2
17.4899 42.0899 3.97683
19.0867 44.955 0.0215939
17.047 44.3688 2
14.9249 44.1939 3.97487
16.6911 46.2027 0.0235261
14.9014 46.0828 2
12.9985 46.2905 3.97119
14.9662 47.6624 0.0260989
13.3178 48.0032 2
11.4945 48.5474 3.96836
13.8055 49.5406 0.0304309
12.1229 50.2498 2
10.2681 51.0787 3.96927
12.9042 51.8705 0.0322259
11.1433 52.8337 2
9.23598 53.888 3.9737
8.38447 56.9816 3.98193
10.3278 55.7077 2
12.1479 54.5224 0.0302749
7.74927 60.3285 4
9.69961 58.8458 2
11.5365 57.4546 0.0261449
9.306 62.2255 2
11.1338 60.6269 0.0153896
10.9835 64.0165 0
13.9714 21.7591 3.96777
15.1578 20.1941 2
13.455 18.9075 3.97001
16.4062 18.6567 0.0266131
14.751 17.3067 2
13.0291 15.8856 3.97912
16.103 15.784 0.0212167
14.4832 14.2908 2
12.7822 12.6876 3.98863
16.0203 12.8092 0.0177249
14.4439 11.115 2
12.7746 9.30605 4
16.2018 9.6629 0.00896334
14.6715 7.74924 2
16.6661 6.31991 0
23.2838 33.8142 3.98155
25.5895 34.2667 2
27.6526 34.787 0.0625799
17.6718 24.0526 3.97131
17.882 22.3352 2
14.3409 24.4566 3.96969
15.5447 22.926 2
16.6989 21.3869 0.0361667
19.1524 27.2168 3.97089
19.7417 21.584 0.0247581
19.7186 24.3913 2
21.3458 30.6791 3.97358
22.8984 24.6111 0.0290909
22.0602 27.8396 2
23.9357 31.2037 2
24.6859 28.5382 0.0227272
26.3904 31.7191 0.0130802
20.4188 35.9368 3.97718
22.7025 36.2804 2
24.9555 36.8596 0.0123521
23.1563 41.8031 0.0200417
21.9781 38.514 0.0224095
20.8951 40.6401 2
20.2987 37.7967 2
18.2308 39.003 3.97754
19.8862 42.877 0.0223687
17.4916 42.0892 2
14.9003 41.9138 3.97542
17.0459 44.3695 0.0231166
14.926 44.1937 2
12.7525 44.3869 3.9713
14.9007 46.0831 0.025385
12.999 46.2903 2
10.9984 46.7312 3.96843
13.3172 48.0034 0.0293026
11.4948 48.5473 2
9.53106 49.2391 3.96886
12.1225 50.25 0.0318208
10.2685 51.0785 2
8.26876 52.0018 3.97337
11.1428 52.8338 0.0305223
9.23637 53.8874 2
7.19336 55.0323 3.9828
6.31991 58.3339 4
8.38363 56.9783 2
10.3274 55.708 0.0264406
7.74924 60.3285 2
9.70083 58.8488 0.0177504
9.30605 62.2254 0
13.2486 25.3668 3.97148
12.837 23.2848 3.96815
13.9723 21.7588 2
12.2428 20.5567 3.96891
15.1572 20.1947 0.0327621
13.4557 18.9065 2
11.6605 17.5678 3.97595
14.7505 17.3079 0.0244465
13.0293 15.8844 2
11.2199 14.3729 3.98644
14.483 14.2919 0.019282
12.7812 12.6887 2
10.9835 10.9835 4
14.4447 11.114 0.00977222
12.7745 9.306 2
14.6715 7.74927 0
20.7792 33.4096 3.97548
23.2896 33.8168 2
25.6097 34.2718 0.00907571
15.9785 26.4106 3.97156
17.672 24.0523 2
17.8817 22.3356 0.0265143
14.341 24.4564 2
15.5441 22.9264 0.0310774
18.5121 30.1854 3.97425
19.1521 27.2169 2
19.7186 24.3917 0.0305463
21.354 30.6798 2
22.0543 27.8389 0.0284236
23.9488 31.203 0.0244633
17.8474 35.9711 3.97809
20.417 35.9374 2
22.7068 36.2854 0.0185564
20.8933 40.6396 0.0236406
20.2969 37.7967 0.0225166
18.2331 39.0033 2
14.4151 39.1741 3.97651
17.4899 42.0899 0.0231674
14.9015 41.9137 2
12.4536 42.2723 3.97206
14.9249 44.1939 0.0251267
12.753 44.3867 2
10.5804 44.7998 3.96883
12.9985 46.2905 0.0288108
10.9986 46.7311 2
8.91315 47.3184 3.96847
11.4945 48.5474 0.0316364
9.53128 49.2389 2
7.43566 50.0353 3.97279
10.2681 51.0787 0.0307328
8.2691 52.0012 2
6.13396 53.0073 3.98331
9.23598 53.888 0.0263014
7.19282 55.0295 2
5.0241 56.25 4
6.31988 58.3339 2
8.38447 56.9816 0.0180713
7.74927 60.3285 0
13.506 26.82 3.97069
11.9468 24.7905 3.96924
13.2486 25.3666 2
11.1453 22.2383 3.96949
12.8373 23.2845 2
13.9714 21.7591 0.032226
12.2438 20.5562 2
10.3925 19.3229 3.97358
13.455 18.9075 0.0299889
11.6611 17.567 2
9.76108 16.157 3.98382
13.0291 15.8856 0.0208773
11.2186 14.3746 2
9.30607 12.7746 4
12.7822 12.6876 0.0113715
10.9835 10.9835 2
12.7746 9.30605 0
18.0174 33.1211 3.97672
20.7804 33.4098 2
23.2838 33.8142 0.0184508
15.5895 29.6457 3.97313
15.9786 26.4106 2
17.6718 24.0526 0.0286852
14.3409 24.4566 0.030307
18.512 30.1856 2
19.1524 27.2168 0.0291138
21.3458 30.6791 0.0264184
15.0329 36.0212 3.97634
17.8497 35.9714 2
20.4188 35.9368 0.0228204
12.6761 37.8287 3.97509
18.2308 39.003 0.0224643
14.4159 39.174 2
11.9734 40.1376 3.97264
14.9003 41.9138 0.0245832
12.4543 42.2722 2
10.1876 42.7752 3.96897
12.7525 44.3869 0.0287009
10.5805 44.7997 2
8.39095 45.3202 3.96824
10.9984 46.7312 0.0315687
8.91323 47.3183 2
6.72691 48.0006 3.97228
9.53106 49.2391 0.0311356
7.43584 50.0349 2
5.21079 50.9107 3.98315
8.26876 52.0018 0.0266311
6.13368 53.0054 2
3.86727 54.0858 4
7.19336 55.0323 0.0172013
5.02404 56.25 2
6.31991 58.3339 0
12.9745 29.0384 3.97042
11.3835 26.49 3.96903
13.5056 26.8198 2
10.2027 23.9693 3.96981
11.9473 24.7903 2
13.2486 25.3668 0.0285225
9.24495 21.1404 3.97322
11.1462 22.2381 2
12.837 23.2848 0.0318537
12.2428 20.5567 0.0310893
10.3934 19.3226 2
8.41736 18.0288 3.98193
11.6605 17.5678 0.0240472
9.75994 16.1596 2
7.74928 14.6715 4
11.2199 14.3729 0.0135616
9.30602 12.7745 2
10.9835 10.9835 0
14.5918 32.8683 3.97487
18.0195 33.1215 2
20.7792 33.4096 0.0245207
15.5902 29.6458 2
15.9785 26.4106 0.0284448
18.5121 30.1854 0.0257492
12.9741 36.2102 3.97383
15.035 36.0213 2
17.8474 35.9711 0.0219079
12.6769 37.8287 2
11.3185 38.3085 3.97313
14.4151 39.1741 0.0234905
11.9746 40.1374 2
9.77949 40.7521 3.96942
12.4536 42.2723 0.0279379
10.1882 42.775 2
7.94035 43.269 3.96802
10.5804 44.7998 0.0311716
8.39105 45.3201 2
6.13316 45.9056 3.97176
8.91315 47.3184 0.0315328
6.72696 48.0002 2
4.42236 48.7514 3.98261
7.43566 50.0353 0.0272084
5.21065 50.9096 2
2.85457 51.8506 4
6.13396 53.0073 0.0166882
3.86727 54.0858 2
5.0241 56.25 0
12.1216 31.2608 3.97161
10.8019 28.4176 3.96891
12.9752 29.0384 2
9.41746 25.7989 3.96918
11.3837 26.4899 2
13.506 26.82 0.0293108
8.23135 23.0237 3.97352
10.2033 23.9691 2
11.9468 24.7905 0.0307592
7.19953 19.979 3.98206
9.24585 21.1405 2
11.1453 22.2383 0.0305066
10.3925 19.3229 0.026416
8.41676 18.032 2
6.31992 16.6661 4
9.76108 16.157 0.0161794
7.74926 14.6714 2
9.30607 12.7746 0
12.1519 34.297 3.9741
14.5931 32.8685 2
18.0174 33.1211 0.0232778
15.5895 29.6457 0.0268693
10.881 36.6111 3.97256
12.975 36.2101 2
15.0329 36.0212 0.0236635
12.6761 37.8287 0.0249077
11.3193 38.3084 2
9.37037 38.8221 3.97013
11.9734 40.1376 0.0273607
9.78012 40.7519 2
7.55165 41.2105 3.96813
10.1876 42.7752 0.031029
7.9404 43.2689 2
5.64537 43.7684 3.9713
8.39095 45.3202 0.0317577
6.13326 45.9053 2
3.76801 46.5371 3.98204
6.72691 48.0006 0.0277187
4.42233 48.751 2
1.99014 49.554 4
5.21079 50.9107 0.016848
2.85451 51.8506 2
3.86727 54.0858 0
10.9641 32.9216 3.97297
10.1203 30.3845 3.96916
12.1224 31.2608 2
8.72536 27.7323 3.96877
10.8022 28.4175 2
12.9745 29.0384 0.0295763
7.35688 24.9825 3.97267
9.41774 25.7987 2
11.3835 26.49 0.0309671
6.11628 22.0023 3.98318
8.232 23.0239 2
10.2027 23.9693 0.0301861
5.02411 18.75 4
7.19931 19.9816 2
9.24495 21.1404 0.026776
8.41736 18.0288 0.0180744
6.3199 16.6661 2
7.74928 14.6715 0
10.4867 35.001 3.97231
12.1528 34.297 2
14.5918 32.8683 0.0251299
9.0385 36.9844 3.97039
10.8822 36.611 2
12.9741 36.2102 0.0261713
11.3185 38.3085 0.0268733
9.37104 38.822 2
7.23184 39.1815 3.96862
9.77949 40.7521 0.030577
7.55187 41.2103 2
5.26081 41.6139 3.97087
7.94035 43.269 0.0319819
5.64542 43.7681 2
3.24584 44.2819 3.9817
6.13316 45.9056 0.0282392
3.76813 46.5368 2
1.27781 47.2057 4
4.42236 48.7514 0.0173946
1.99012 49.554 2
2.85457 51.8506 0
10.1237 33.8828 3.97267
9.40792 32.156 3.96985
10.9647 32.9216 2
8.07432 29.6957 3.96866
10.1207 30.3844 2
12.1216 31.2608 0.0283898
6.60073 27.0084 3.97215
8.72538 27.7322 2
10.8019 28.4176 0.0310861
5.17167 24.095 3.98321
7.35721 24.9826 2
9.41746 25.7989 0.0308211
3.86728 20.9142 4
6.11623 22.004 2
8.23135 23.0237 0.0264753
5.02406 18.75 2
7.19953 19.979 0.0179358
6.31992 16.6661 0
8.86263 35.2796 3.97066
10.4872 35.0009 2
12.1519 34.297 0.0259001
7.01536 37.2055 3.96884
9.03872 36.9843 2
10.881 36.6111 0.0274435
9.37037 38.8221 0.0298708
7.23205 39.1814 2
4.98853 39.4672 3.97101
7.55165 41.2105 0.0318699
5.26102 41.6136 2
2.85642 42.0022 3.98142
5.64537 43.7684 0.0286975
3.24593 44.2818 2
0.720592 44.8159 4
3.76801 46.5371 0.017963
1.27778 47.2057 2
1.99014 49.554 0
8.90036 33.6985 3.97053
10.1243 33.8828 2
7.51175 31.6092 3.96885
9.40827 32.156 2
10.9641 32.9216 0.0270333
5.94587 29.0694 3.97198
8.07425 29.6957 2
10.1203 30.3845 0.0308352
4.35945 26.2475 3.98256
6.60079 27.0085 2
8.72536 27.7323 0.0312346
2.85458 23.1494 4
5.17168 24.0957 2
7.35688 24.9825 0.0273278
3.86728 20.9142 2
6.11628 22.0023 0.016819
5.02411 18.75 0
6.96544 35.3058 3.96901
8.8631 35.2796 2
10.4867 35.001 0.0276945
4.83849 37.3396 3.97164
7.01542 37.2055 2
9.0385 36.9844 0.0296113
7.23184 39.1815 0.0313799
4.98874 39.467 2
2.60453 39.7139 3.98119
5.26081 41.6139 0.029135
2.85665 42.0024 2
0.320823 42.3947 4
3.24584 44.2819 0.0183014
0.720551 44.8159 2
1.27781 47.2057 0
7.12541 33.4608 3.96911
8.90056 33.6985 2
10.1237 33.8828 0.0273278
5.41673 31.1333 3.97196
7.51178 31.6092 2
9.40792 32.156 0.0301513
3.6812 28.4434 3.98207
5.94582 29.0695 2
8.07432 29.6957 0.0313406
1.99015 25.446 4
4.35948 26.2476 2
6.60073 27.0084 0.027845
2.85453 23.1494 2
5.17167 24.095 0.0167943
3.86728 20.9142 0
4.85272 35.2513 3.97189
6.96572 35.3058 2
8.86263 35.2796 0.0293438
2.49588 37.4285 3.98183
4.83852 37.3396 2
7.01536 37.2055 0.0311629
4.98853 39.4672 0.0289853
2.60478 39.7143 2
0.080333 39.9526 4
2.85642 42.0022 0.0185794
0.320817 42.3947 2
0.720592 44.8159 0
5.04609 33.1899 3.97205
7.12553 33.4608 2
8.90036 33.6985 0.0294744
3.14552 30.666 3.98176
5.41676 31.1335 2
7.51175 31.6092 0.0311538
1.27793 27.7943 4
3.68125 28.4435 2
5.94587 29.0694 0.0280175
1.99013 25.446 2
4.35945 26.2475 0.0174383
2.85458 23.1494 0
2.54798 35.159 3.98186
4.853 35.2515 2
6.96544 35.3058 0.0309935
0 37.5 4
2.49595 37.4289 2
4.83849 37.3396 0.0283597
2.60453 39.7139 0.0188077
0.0802903 39.9526 2
0.320823 42.3947 0
2.76556 32.9057 3.98195
5.04621 33.1901 2
7.12541 33.4608 0.0308942
0.721173 30.1842 4
3.14565 30.6664 2
5.41673 31.1333 0.028039
1.27779 27.7943 2
3.6812 28.4434 0.0179332
1.99015 25.446 0
0.0806499 35.0474 4
2.54829 35.1594 2
4.85272 35.2513 0.0281096
0 37.5 2
2.49588 37.4285 0.0181712
0.080333 39.9526 0
0.32156 32.6054 4
2.76568 32.9062 2
5.04609 33.1899 0.0279526
0.72056 30.1841 2
3.14552 30.666 0.018243
1.27793 27.7943 0
0.0802889 35.0474 2
2.54798 35.159 0.0181403
0 37.5 0
0.320817 32.6053 2
2.76556 32.9057 0.0180484
0.721173 30.1842 0
0.0806499 35.0474 0
0.32156 32.6054 0
CELLS 1910 17190
8 18 6 25 56 2 0 5 16
8 57 23 6 18 17 4 0 2
8 78 36 9 29 31 11 1 7
8 31 11 1 7 79 37 10 30
8 110 57 18 50 48 17 2 14
8 50 18 56 111 14 2 16 49
8 116 62 22 55 52 20 3 15
8 56 25 67 118 16 5 24 53
8 119 63 23 57 54 21 4 17
8 55 22 63 119 15 3 21 54
8 58 26 68 121 18 6 25 56
8 122 65 26 58 57 23 6 18
8 73 31 7 27 142 79 30 71
8 143 78 29 72 73 31 7 27
8 83 147 76 34 32 74 28 8
8 84 148 78 36 33 75 29 9
8 76 34 8 28 148 84 33 75
8 37 79 150 86 10 30 77 35
8 151 87 36 78 80 38 11 31
8 80 38 11 31 152 88 37 79
8 175 100 42 94 96 44 12 40
8 44 96 176 101 12 40 95 43
8 101 176 98 46 43 95 41 13
8 46 98 178 103 13 41 97 45
8 178 103 45 97 147 83 32 74
8 189 116 55 109 106 52 15 47
8 111 56 118 191 49 16 53 107
8 192 119 57 110 108 54 17 48
8 109 55 119 192 47 15 54 108
8 194 122 58 112 110 57 18 50
8 112 58 121 195 50 18 56 111
8 115 61 19 51 197 124 59 113
8 115 61 125 198 51 19 60 114
8 198 125 62 116 114 60 20 52
8 200 127 64 120 116 62 22 55
8 118 67 132 202 53 24 66 117
8 121 68 133 203 56 25 67 118
8 120 64 128 204 55 22 63 119
8 204 128 65 122 119 63 23 57
8 206 134 68 121 123 69 26 58
8 123 69 26 58 207 131 65 122
8 226 147 74 138 140 76 28 70
8 229 148 75 139 143 78 29 72
8 140 76 28 70 229 148 75 139
8 142 79 30 71 231 150 77 141
8 144 80 31 73 232 152 79 142
8 233 151 78 143 144 80 31 73
8 150 86 35 77 235 154 81 145
8 235 154 81 145 146 82 39 91
8 146 82 39 91 236 155 90 165
8 238 157 83 147 149 85 34 76
8 239 158 84 148 151 87 36 78
8 149 85 34 76 239 158 84 148
8 152 88 37 79 241 160 86 150
8 242 161 87 151 153 89 38 80
8 153 89 38 80 243 162 88 152
8 171 98 41 92 265 178 97 169
8 265 178 97 169 226 147 74 138
8 172 96 40 93 266 176 95 170
8 266 176 95 170 171 98 41 92
8 269 175 94 173 172 96 40 93
8 271 180 99 174 175 100 42 94
8 197 124 59 113 271 180 99 174
8 272 181 100 175 177 102 44 96
8 273 182 101 176 179 104 46 98
8 177 102 44 96 273 182 101 176
8 179 104 46 98 275 184 103 178
8 275 184 103 178 238 157 83 147
8 188 115 51 105 283 197 113 186
8 188 115 198 284 105 51 114 187
8 284 198 116 189 187 114 52 106
8 286 200 120 193 189 116 55 109
8 191 118 202 288 107 53 117 190
8 195 121 203 289 111 56 118 191
8 193 120 204 290 109 55 119 192
8 290 204 122 194 192 119 57 110
8 196 123 58 112 292 207 122 194
8 293 206 121 195 196 123 58 112
8 199 126 61 115 297 211 124 197
8 298 212 127 200 198 125 62 116
8 199 126 212 298 115 61 125 198
8 205 129 64 120 300 214 127 200
8 301 217 130 201 202 132 66 117
8 209 136 168 264 301 217 130 201
8 302 219 132 202 203 133 67 118
8 303 220 133 203 206 134 68 121
8 205 129 215 304 120 64 128 204
8 304 215 131 207 204 128 65 122
8 306 221 134 206 208 135 69 123
8 208 135 69 123 307 218 131 207
8 210 137 167 263 309 223 136 209
8 328 238 147 226 230 149 76 140
8 228 146 91 166 329 236 165 260
8 231 150 77 141 330 235 145 227
8 330 235 145 227 228 146 91 166
8 332 239 148 229 233 151 78 143
8 230 149 76 140 332 239 148 229
8 232 152 79 142 334 241 150 231
8 234 153 80 144 335 243 152 232
8 336 242 151 233 234 153 80 144
8 236 155 90 165 338 245 164 259
8 241 160 86 150 339 246 154 235
8 339 246 154 235 237 156 82 146
8 237 156 82 146 340 247 155 236
8 342 249 157 238 240 159 85 149
8 343 250 158 239 242 161 87 151
8 240 159 85 149 343 250 158 239
8 243 162 88 152 345 252 160 241
8 244 163 253 346 153 89 161 242
8 244 163 89 153 347 254 162 243
8 311 224 261 371 210 137 167 263
8 263 167 262 372 209 136 168 264
8 267 179 98 171 375 275 178 265
8 375 275 178 265 328 238 147 226
8 376 273 176 266 267 179 98 171
8 268 177 96 172 376 273 176 266
8 379 272 175 269 268 177 96 172
8 380 271 174 270 269 175 94 173
8 283 197 113 186 380 271 174 270
8 381 277 180 271 272 181 100 175
8 297 211 124 197 381 277 180 271
8 382 278 181 272 274 183 102 177
8 274 183 102 177 383 279 182 273
8 383 279 182 273 276 185 104 179
8 385 281 184 275 342 249 157 238
8 276 185 104 179 385 281 184 275
8 285 199 115 188 393 297 197 283
8 394 298 200 286 284 198 116 189
8 285 199 298 394 188 115 198 284
8 291 205 120 193 396 300 200 286
8 397 301 201 287 288 202 117 190
8 295 209 264 374 397 301 201 287
8 398 302 202 288 289 203 118 191
8 399 303 203 289 293 206 121 195
8 291 205 304 400 193 120 204 290
8 400 304 207 292 290 204 122 194
8 294 208 123 196 402 307 207 292
8 403 306 206 293 294 208 123 196
8 296 210 263 373 405 309 209 295
8 408 312 213 299 297 211 126 199
8 299 213 313 409 199 126 212 298
8 409 313 214 300 298 212 127 200
8 305 216 129 205 411 315 214 300
8 412 318 217 301 302 219 132 202
8 309 223 136 209 412 318 217 301
8 413 320 219 302 303 220 133 203
8 306 221 321 414 206 134 220 303
8 307 218 131 207 415 316 215 304
8 305 216 316 415 205 129 215 304
8 417 322 221 306 308 222 135 208
8 308 222 135 208 418 319 218 307
8 310 225 137 210 420 325 223 309
8 423 326 224 311 310 225 137 210
8 329 236 165 260 441 338 259 368
8 442 342 238 328 333 240 149 230
8 331 237 146 228 443 340 236 329
8 334 241 150 231 444 339 235 330
8 444 339 235 330 331 237 146 228
8 446 343 239 332 336 242 151 233
8 333 240 149 230 446 343 239 332
8 335 243 152 232 448 345 241 334
8 337 244 153 234 449 347 243 335
8 337 244 346 450 234 153 242 336
8 338 245 164 259 452 349 258 367
8 340 247 155 236 453 350 245 338
8 345 252 160 241 454 351 246 339
8 454 351 246 339 341 248 156 237
8 341 248 156 237 455 352 247 340
8 240 159 251 344 342 249 354 457
8 242 161 253 346 343 250 355 458
8 343 250 355 458 240 159 251 344
8 347 254 162 243 460 357 252 345
8 348 255 358 461 244 163 253 346
8 348 255 163 244 462 359 254 347
8 473 360 257 365 363 256 364 482
8 452 349 258 367 365 257 366 485
8 422 324 369 488 311 224 261 371
8 371 261 370 490 263 167 262 372
8 407 311 371 491 296 210 263 373
8 373 263 372 492 295 209 264 374
8 493 385 275 375 442 342 238 328
8 377 276 179 267 493 385 275 375
8 378 274 177 268 494 383 273 376
8 494 383 273 376 377 276 179 267
8 497 382 272 379 378 274 177 268
8 498 381 271 380 379 272 175 269
8 393 297 197 283 498 381 271 380
8 499 387 277 381 382 278 181 272
8 408 312 211 297 499 387 277 381
8 500 388 278 382 384 280 183 274
8 501 389 279 383 386 282 185 276
8 384 280 183 274 501 389 279 383
8 386 282 185 276 503 391 281 385
8 503 391 281 385 457 354 249 342
8 511 408 299 395 393 297 199 285
8 395 299 409 512 285 199 298 394
8 512 409 300 396 394 298 200 286
8 401 305 205 291 514 411 300 396
8 515 412 301 397 398 302 202 288
8 405 309 209 295 515 412 301 397
8 516 413 302 398 399 303 203 289
8 403 306 414 517 293 206 303 399
8 402 307 207 292 518 415 304 400
8 401 305 415 518 291 205 304 400
8 404 308 208 294 520 418 307 402
8 521 417 306 403 404 308 208 294
8 406 310 210 296 523 420 309 405
8 526 423 311 407 406 310 210 296
8 410 314 213 299 527 424 312 408
8 528 425 315 411 409 313 214 300
8 410 314 425 528 299 213 313 409
8 416 317 216 305 530 427 315 411
8 531 430 318 412 413 320 219 302
8 420 325 223 309 531 430 318 412
8 532 432 320 413 414 321 220 303
8 417 322 433 533 306 221 321 414
8 418 319 218 307 534 428 316 415
8 416 317 428 534 305 216 316 415
8 419 323 434 536 308 222 322 417
8 419 323 222 308 537 431 319 418
8 421 327 225 310 539 438 325 420
8 421 327 439 541 310 225 326 423
8 543 437 324 422 423 326 224 311
8 441 338 259 368 559 452 367 486
8 443 340 236 329 560 453 338 441
8 333 240 344 447 442 342 457 561
8 445 341 237 331 562 455 340 443
8 448 345 241 334 563 454 339 444
8 563 454 339 444 445 341 237 331
8 336 242 346 450 446 343 458 565
8 446 343 458 565 333 240 344 447
8 449 347 243 335 567 460 345 448
8 451 348 244 337 568 462 347 449
8 451 348 461 569 337 244 346 450
8 570 463 349 452 473 360 257 365
8 453 350 245 338 570 463 349 452
8 455 352 247 340 571 464 350 453
8 460 357 252 345 572 465 351 454
8 572 465 351 454 456 353 248 341
8 456 353 248 341 573 466 352 455
8 344 251 356 459 457 354 468 575
8 458 355 469 576 344 251 356 459
8 346 253 358 461 458 355 469 576
8 462 359 254 347 578 471 357 460
8 348 255 359 462 461 358 472 579
8 591 474 360 473 475 361 256 363
8 475 361 256 363 594 477 362 479
8 363 256 364 482 479 362 480 603
8 590 473 365 484 481 363 482 605
8 482 364 257 365 606 483 366 485
8 559 452 367 486 484 365 485 607
8 542 436 487 609 422 324 369 488
8 525 422 488 611 407 311 371 491
8 488 369 489 612 371 261 370 490
8 491 371 490 613 373 263 372 492
8 495 386 276 377 614 503 385 493
8 614 503 385 493 561 457 342 442
8 615 501 383 494 495 386 276 377
8 496 384 274 378 615 501 383 494
8 618 500 382 497 496 384 274 378
8 619 499 381 498 497 382 272 379
8 511 408 297 393 619 499 381 498
8 620 505 387 499 500 388 278 382
8 527 424 312 408 620 505 387 499
8 502 390 506 621 384 280 388 500
8 622 507 389 501 504 392 282 386
8 502 390 280 384 622 507 389 501
8 504 392 282 386 624 509 391 503
8 624 509 391 503 575 468 354 457
8 513 410 299 395 630 527 408 511
8 631 528 411 514 512 409 300 396
8 513 410 528 631 395 299 409 512
8 519 416 305 401 633 530 411 514
8 634 531 412 515 516 413 302 398
8 523 420 309 405 634 531 412 515
8 635 532 413 516 517 414 303 399
8 521 417 533 636 403 306 414 517
8 520 418 307 402 637 534 415 518
8 519 416 534 637 401 305 415 518
8 522 419 308 404 639 537 418 520
8 522 419 536 640 404 308 417 521
8 524 421 310 406 642 539 420 523
8 524 421 541 644 406 310 423 526
8 646 543 422 525 526 423 311 407
8 529 426 314 410 647 544 424 527
8 528 425 545 648 411 315 427 530
8 529 426 545 648 410 314 425 528
8 535 429 317 416 649 546 427 530
8 650 548 430 531 532 432 320 413
8 539 438 325 420 650 548 430 531
8 533 433 550 651 414 321 432 532
8 536 434 551 652 417 322 433 533
8 537 431 319 418 653 547 428 534
8 535 429 547 653 416 317 428 534
8 538 435 552 654 419 323 434 536
8 538 435 323 419 655 549 431 537
8 540 440 327 421 657 556 438 539
8 540 440 557 659 421 327 439 541
8 541 439 555 660 423 326 437 543
8 661 554 436 542 543 437 324 422
8 676 570 452 559 590 473 365 484
8 560 453 338 441 676 570 452 559
8 562 455 340 443 677 571 453 560
8 447 344 459 566 561 457 575 678
8 564 456 341 445 679 573 455 562
8 567 460 345 448 680 572 454 563
8 680 572 454 563 564 456 341 445
8 565 458 576 682 447 344 459 566
8 450 346 461 569 565 458 576 682
8 568 462 347 449 684 578 460 567
8 451 348 462 568 569 461 579 685
8 686 580 463 570 591 474 360 473
8 571 464 350 453 686 580 463 570
8 573 466 352 455 687 581 464 571
8 572 465 582 688 460 357 471 578
8 574 467 582 688 456 353 465 572
8 574 467 353 456 689 583 466 573
8 459 356 470 577 575 468 585 691
8 576 469 586 692 459 356 470 577
8 461 358 472 579 576 469 586 692
8 462 359 471 578 579 472 588 694
8 704 591 473 590 593 475 363 481
8 595 476 592 705 475 361 474 591
8 593 475 363 481 707 594 479 602
8 594 477 362 479 709 598 478 600
8 595 476 361 475 711 597 477 594
8 479 362 480 603 600 478 601 720
8 481 363 482 605 602 479 603 722
8 603 480 364 482 723 604 483 606
8 605 482 365 484 724 606 485 607
8 656 553 608 726 542 436 487 609
8 645 542 609 728 525 422 488 611
8 609 487 610 729 488 369 489 612
8 611 488 612 730 491 371 490 613
8 616 504 386 495 731 624 503 614
8 731 624 503 614 678 575 457 561
8 732 622 501 615 616 504 386 495
8 617 502 384 496 732 622 501 615
8 617 502 621 735 496 384 500 618
8 736 620 499 619 618 500 382 497
8 630 527 408 511 736 620 499 619
8 621 506 626 737 500 388 505 620
8 647 544 424 527 737 626 505 620
8 623 508 627 738 502 390 506 621
8 623 508 390 502 739 628 507 622
8 625 510 628 739 504 392 507 622
8 740 629 509 624 691 585 468 575
8 625 510 392 504 740 629 509 624
8 632 529 410 513 744 647 527 630
8 631 528 648 745 514 411 530 633
8 632 529 648 745 513 410 528 631
8 638 535 416 519 746 649 530 633
8 747 650 531 634 635 532 413 516
8 642 539 420 523 747 650 531 634
8 636 533 651 748 517 414 532 635
8 640 536 652 749 521 417 533 636
8 639 537 418 520 750 653 534 637
8 638 535 653 750 519 416 534 637
8 641 538 419 522 751 655 537 639
8 641 538 654 752 522 419 536 640
8 643 540 421 524 753 657 539 642
8 643 540 659 755 524 421 541 644
8 644 541 660 757 526 423 543 646
8 758 661 542 645 646 543 422 525
8 529 426 544 647 648 545 662 759
8 530 427 545 648 649 546 663 760
8 535 429 546 649 653 547 664 761
8 762 666 548 650 651 550 432 532
8 657 556 438 539 762 666 548 650
8 652 551 668 763 533 433 550 651
8 654 552 669 764 536 434 551 652
8 655 549 431 537 765 665 547 653
8 538 435 549 655 654 552 667 766
8 661 554 671 768 542 436 553 656
8 658 558 440 540 769 674 556 657
8 658 558 675 770 540 440 557 659
8 659 557 673 771 541 439 555 660
8 660 555 672 772 543 437 554 661
8 788 686 570 676 704 591 473 590
8 677 571 453 560 788 686 570 676
8 679 573 455 562 789 687 571 677
8 566 459 577 683 678 575 691 790
8 681 574 456 564 791 689 573 679
8 680 572 688 792 567 460 578 684
8 681 574 688 792 564 456 572 680
8 682 576 692 794 566 459 577 683
8 569 461 579 685 682 576 692 794
8 568 462 578 684 685 579 694 796
8 687 581 464 571 798 696 580 686
8 798 696 580 686 705 592 474 591
8 689 583 466 573 799 697 581 687
8 688 582 698 800 578 471 588 694
8 690 584 698 800 574 467 582 688
8 690 584 467 574 801 699 583 689
8 693 587 701 803 577 470 585 691
8 693 587 470 577 804 702 586 692
8 695 589 702 804 579 472 586 692
8 695 589 472 579 805 703 588 694
8 708 595 705 813 593 475 591 704
8 710 596 706 814 595 476 592 705
8 707 594 479 602 816 709 600 719
8 708 595 475 593 817 711 594 707
8 709 598 478 600 819 715 599 717
8 711 597 477 594 820 714 598 709
8 710 596 476 595 822 713 597 711
8 600 478 601 720 717 599 718 832
8 602 479 603 722 719 600 720 834
8 720 601 480 603 835 721 604 723
8 722 603 482 605 836 723 606 724
8 767 670 725 839 656 553 608 726
8 756 656 726 841 645 542 609 728
8 726 608 727 842 609 487 610 729
8 728 609 729 843 611 488 612 730
8 844 740 624 731 790 691 575 678
8 733 625 504 616 844 740 624 731
8 734 623 502 617 845 739 622 732
8 733 625 739 845 616 504 622 732
8 734 623 738 846 617 502 621 735
8 735 621 737 847 618 500 620 736
8 744 647 527 630 847 737 620 736
8 621 506 627 738 737 626 741 848
8 647 544 626 737 759 662 741 848
8 623 508 628 739 738 627 742 849
8 740 629 585 691 850 743 700 802
8 625 510 629 740 739 628 743 850
8 632 529 647 744 745 648 759 854
8 633 530 648 745 746 649 760 855
8 638 535 649 746 750 653 761 856
8 857 762 650 747 748 651 532 635
8 753 657 539 642 857 762 650 747
8 749 652 763 858 636 533 651 748
8 752 654 764 859 640 536 652 749
8 751 655 537 639 860 765 653 750
8 641 538 655 751 752 654 766 861
8 754 658 540 643 862 769 657 753
8 754 658 770 863 643 540 659 755
8 755 659 771 864 644 541 660 757
8 758 661 768 866 645 542 656 756
8 757 660 772 867 646 543 661 758
8 759 662 773 868 648 545 663 760
8 649 546 663 760 761 664 774 871
8 765 665 547 653 872 775 664 761
8 873 777 666 762 763 668 550 651
8 769 674 556 657 873 777 666 762
8 764 669 779 874 652 551 668 763
8 654 552 667 766 764 669 778 875
8 655 549 665 765 766 667 776 876
8 768 671 782 877 656 553 670 767
8 772 672 783 878 661 554 671 768
8 658 558 674 769 770 675 786 879
8 659 557 675 770 771 673 785 881
8 882 784 672 772 771 673 555 660
8 789 687 571 677 897 798 686 788
8 897 798 686 788 813 705 591 704
8 791 689 573 679 898 799 687 789
8 795 693 803 900 683 577 691 790
8 793 690 574 681 901 801 689 791
8 792 688 800 902 684 578 694 796
8 793 690 800 902 681 574 688 792
8 795 693 577 683 903 804 692 794
8 797 695 804 903 685 579 692 794
8 797 695 579 685 904 805 694 796
8 905 806 697 799 798 696 581 687
8 814 706 806 905 705 592 696 798
8 689 583 697 799 801 699 808 907
8 800 698 809 908 694 588 703 805
8 690 584 699 801 800 698 809 908
8 803 701 810 909 691 585 700 802
8 693 587 702 804 803 701 811 910
8 695 589 703 805 804 702 812 911
8 818 710 814 919 708 595 705 813
8 821 712 815 920 710 596 706 814
8 816 709 600 719 922 819 717 831
8 817 711 594 707 923 820 709 816
8 818 710 595 708 924 822 711 817
8 819 715 599 717 926 827 716 829
8 820 714 598 709 927 826 715 819
8 929 825 713 822 820 714 597 711
8 821 712 596 710 930 824 713 822
8 717 599 718 832 829 716 830 942
8 719 600 720 834 831 717 832 944
8 832 718 601 720 945 833 721 835
8 834 720 603 722 946 835 723 836
8 869 780 838 950 767 670 725 839
8 865 767 839 952 756 656 726 841
8 839 725 840 953 726 608 727 842
8 841 726 842 954 728 609 729 843
8 844 740 691 790 955 850 802 899
8 733 625 740 844 845 739 850 955
8 734 623 739 845 846 738 849 956
8 735 621 738 846 847 737 848 957
8 744 647 737 847 854 759 848 957
8 738 627 742 849 848 741 851 958
8 848 741 851 958 759 662 773 868
8 850 743 700 802 959 852 807 906
8 849 742 628 739 959 852 743 850
8 854 759 868 965 745 648 760 855
8 746 649 760 855 856 761 871 966
8 860 765 653 750 967 872 761 856
8 968 873 762 857 858 763 651 748
8 862 769 657 753 968 873 762 857
8 859 764 874 969 749 652 763 858
8 752 654 766 861 859 764 875 970
8 751 655 765 860 861 766 876 971
8 754 658 769 862 863 770 879 972
8 755 659 770 863 864 771 881 974
8 976 882 772 867 864 771 660 757
8 866 768 877 977 756 656 767 865
8 867 772 878 978 758 661 768 866
8 760 663 773 868 871 774 883 980
8 870 781 837 948 982 890 780 869
8 982 890 780 869 877 782 670 767
8 761 664 774 871 872 775 884 984
8 876 776 665 765 985 885 775 872
8 873 777 668 763 986 887 779 874
8 769 674 777 873 879 786 887 986
8 764 669 778 875 874 779 888 987
8 766 667 776 876 875 778 886 988
8 878 783 892 989 768 671 782 877
8 878 783 672 772 990 893 784 882
8 880 787 675 770 991 896 786 879
8 880 787 895 992 770 675 785 881
8 881 785 894 993 771 673 784 882
8 1006 905 799 898 897 798 687 789
8 919 814 905 1006 813 705 798 897
8 791 689 799 898 901 801 907 1007
8 900 803 909 1009 790 691 802 899
8 795 693 804 903 900 803 910 1010
8 902 800 908 1011 796 694 805 904
8 793 690 801 901 902 800 908 1011
8 797 695 805 904 903 804 911 1012
8 799 697 806 905 907 808 912 1013
8 920 815 912 1013 814 706 806 905
8 802 700 810 909 906 807 913 1014
8 801 699 808 907 908 809 914 1015
8 805 703 809 908 911 812 915 1016
8 803 701 811 910 909 810 916 1017
8 911 812 917 1018 804 702 811 910
8 925 821 920 1030 818 710 814 919
8 928 823 921 1031 821 712 815 920
8 922 819 717 831 1033 926 829 941
8 923 820 709 816 1034 927 819 922
8 1035 929 822 924 923 820 711 817
8 925 821 710 818 1036 930 822 924
8 1038 933 825 929 927 826 714 820
8 926 827 716 829 1039 935 828 939
8 927 826 715 819 1040 934 827 926
8 928 823 712 821 1041 931 824 930
8 1042 932 824 930 929 825 713 822
8 829 716 830 942 939 828 940 1058
8 831 717 832 944 941 829 942 1060
8 942 830 718 832 1061 943 833 945
8 944 832 720 834 1062 945 835 946
8 981 889 947 1064 870 781 837 948
8 948 837 949 1067 869 780 838 950
8 975 869 950 1069 865 767 839 952
8 950 838 951 1070 839 725 840 953
8 952 839 953 1071 841 726 842 954
8 955 850 802 899 1072 959 906 1008
8 956 849 739 845 1072 959 850 955
8 846 738 849 956 957 848 958 1073
8 957 848 958 1073 854 759 868 965
8 849 742 852 959 958 851 961 1076
8 960 853 961 1076 906 807 852 959
8 958 851 961 1076 868 773 883 980
8 960 853 807 906 1077 963 913 1014
8 855 760 868 965 966 871 980 1085
8 856 761 871 966 967 872 984 1086
8 971 876 765 860 1087 985 872 967
8 968 873 763 858 1088 986 874 969
8 862 769 873 968 972 879 986 1088
8 859 764 875 970 969 874 987 1089
8 861 766 876 971 970 875 988 1090
8 973 880 770 863 1091 991 879 972
8 973 880 992 1092 863 770 881 974
8 974 881 993 1093 864 771 882 976
8 979 870 948 1066 1094 982 869 975
8 1094 982 869 975 977 877 767 865
8 978 878 772 867 1095 990 882 976
8 978 878 989 1096 866 768 877 977
8 871 774 883 980 984 884 994 1099
8 983 891 999 1100 870 781 889 981
8 1101 1000 890 982 989 892 782 877
8 983 891 781 870 1101 1000 890 982
8 872 775 884 984 985 885 995 1103
8 876 776 885 985 988 886 996 1104
8 986 887 779 874 1105 998 888 987
8 879 786 887 986 991 896 998 1105
8 875 778 886 988 987 888 997 1106
8 990 893 1002 1107 878 783 892 989
8 1108 1003 893 990 993 894 784 882
8 880 787 896 991 992 895 1005 1109
8 993 894 785 881 1110 1004 895 992
8 898 799 905 1006 1007 907 1013 1120
8 1030 920 1013 1120 919 814 905 1006
8 901 801 907 1007 1011 908 1015 1121
8 899 802 909 1009 1008 906 1014 1122
8 900 803 910 1010 1009 909 1017 1123
8 1012 911 1018 1124 903 804 910 1010
8 904 805 908 1011 1012 911 1016 1125
8 1013 912 1020 1127 907 808 914 1015
8 1031 921 1020 1127 920 815 912 1013
8 1019 918 962 1075 1128 1021 913 1014
8 1128 1021 913 1014 1017 916 810 909
8 1015 914 1022 1129 908 809 915 1016
8 1016 915 1023 1130 911 812 917 1018
8 1018 917 1024 1131 910 811 916 1017
8 1037 928 1031 1148 925 821 920 1030
8 928 823 931 1041 1031 921 1032 1149
8 1033 926 829 941 1151 1039 939 1057
8 1034 927 819 922 1152 1040 926 1033
8 1153 1038 929 1035 1034 927 820 923
8 1154 1042 930 1036 1035 929 822 924
8 1037 928 821 925 1155 1041 930 1036
8 1039 935 828 939 1156 1047 938 1055
8 1157 1043 932 1042 1038 933 825 929
8 1038 933 826 927 1158 1045 934 1040
8 1040 934 827 926 1159 1046 935 1039
8 930 824 932 1042 1041 931 1044 1160
8 1051 936 1048 1165 1175 1052 937 1053
8 1156 1047 938 1055 1053 937 1054 1178
8 939 828 940 1058 1055 938 1056 1181
8 941 829 942 1060 1057 939 1058 1183
8 942 830 943 1061 1058 940 1059 1184
8 1060 942 832 944 1185 1061 945 1062
8 1082 964 1063 1188 981 889 947 1064
8 1097 981 1064 1190 979 870 948 1066
8 1064 947 1065 1191 948 837 949 1067
8 1066 948 1067 1193 975 869 950 1069
8 1067 949 1068 1194 950 838 951 1070
8 1069 950 1070 1195 952 839 953 1071
8 956 849 959 1072 1073 958 1076 1197
8 1074 960 1076 1197 1008 906 959 1072
8 1073 958 1076 1197 965 868 980 1085
8 1074 960 906 1008 1198 1077 1014 1122
8 1133 1026 1079 1199 1019 918 962 1075
8 1077 963 913 1014 1200 1080 962 1075
8 960 853 963 1077 1076 961 1078 1201
8 980 883 961 1076 1099 994 1078 1201
8 1210 1083 964 1082 1100 999 889 981
8 966 871 980 1085 1086 984 1099 1215
8 967 872 984 1086 1087 985 1103 1216
8 971 876 985 1087 1090 988 1104 1217
8 1088 986 874 969 1218 1105 987 1089
8 972 879 986 1088 1091 991 1105 1218
8 970 875 988 1090 1089 987 1106 1219
8 973 880 991 1091 1092 992 1109 1220
8 1093 993 881 974 1221 1110 992 1092
8 1222 1108 990 1095 1093 993 882 976
8 1223 1101 982 1094 1096 989 877 977
8 1098 983 870 979 1223 1101 982 1094
8 1095 990 1107 1224 978 878 989 1096
8 1098 983 1100 1225 979 870 981 1097
8 984 884 994 1099 1103 995 1111 1227
8 1102 1001 1115 1228 983 891 999 1100
8 1101 1000 892 989 1229 1116 1002 1107
8 1102 1001 891 983 1229 1116 1000 1101
8 985 885 995 1103 1104 996 1112 1230
8 988 886 996 1104 1106 997 1113 1231
8 1105 998 888 987 1232 1114 997 1106
8 991 896 998 1105 1109 1005 1114 1232
8 1108 1003 1117 1233 990 893 1002 1107
8 1108 1003 894 993 1233 1117 1004 1110
8 992 895 1005 1109 1110 1004 1118 1234
8 1120 1013 1127 1244 1007 907 1015 1121
8 1148 1031 1127 1244 1030 920 1013 1120
8 1121 1015 1129 1245 1011 908 1016 1125
8 1126 1019 1075 1196 1246 1128 1014 1122
8 1246 1128 1014 1122 1123 1017 909 1009
8 1124 1018 1131 1247 1010 910 1017 1123
8 1125 1016 1130 1248 1012 911 1018 1124
8 1127 1020 1137 1254 1015 914 1022 1129
8 1031 921 1032 1149 1127 1020 1137 1254
8 1134 1027 918 1019 1257 1140 1021 1128
8 1257 1140 1021 1128 1131 1024 916 1017
8 1129 1022 1141 1258 1016 915 1023 1130
8 1130 1023 1142 1259 1018 917 1024 1131
8 1261 1144 1025 1132 1133 1026 1079 1199
8 1255 1138 1025 1132 1135 1028 1144 1261
8 1133 1026 918 1019 1262 1145 1027 1134
8 1136 1029 1139 1256 1263 1146 1028 1135
8 1037 928 1041 1155 1148 1031 1149 1275
8 1041 931 1044 1160 1149 1032 1150 1276
8 1151 1039 939 1057 1278 1156 1055 1180
8 1152 1040 926 1033 1279 1159 1039 1151
8 1153 1038 927 1034 1280 1158 1040 1152
8 1281 1157 1042 1154 1153 1038 929 1035
8 1036 930 1042 1154 1155 1041 1160 1282
8 1283 1164 1046 1159 1156 1047 935 1039
8 1165 1048 1164 1283 1053 937 1047 1156
8 1157 1043 933 1038 1284 1161 1045 1158
8 1157 1043 1161 1284 1042 932 1044 1160
8 1040 934 1046 1159 1158 1045 1163 1285
8 1166 1049 1167 1292 1051 936 1048 1165
8 1166 1049 936 1051 1293 1168 1050 1172
8 1051 936 1052 1175 1172 1050 1173 1306
8 1174 1051 1165 1290 1308 1175 1053 1177
8 1053 937 1054 1178 1175 1052 1176 1309
8 1278 1156 1055 1180 1177 1053 1178 1311
8 1055 938 1056 1181 1178 1054 1179 1312
8 1057 939 1058 1183 1180 1055 1181 1314
8 1058 940 1059 1184 1181 1056 1182 1315
8 1060 942 1061 1185 1183 1058 1184 1316
8 1208 1081 1187 1321 1082 964 1063 1188
8 1209 1082 1188 1322 1097 981 1064 1190
8 1188 1063 1189 1323 1064 947 1065 1191
8 1190 1064 1191 1325 1066 948 1067 1193
8 1191 1065 1192 1326 1067 949 1068 1194
8 1067 1193 1069 950 1194 1327 1195 1070
8 1250 1133 1199 1330 1126 1019 1075 1196
8 1198 1077 1014 1122 1331 1200 1075 1196
8 1074 960 1077 1198 1197 1076 1201 1332
8 1085 980 1076 1197 1215 1099 1201 1332
8 1199 1079 1203 1333 1075 962 1080 1200
8 1132 1025 1119 1243 1199 1079 1203 1333
8 1201 1078 963 1077 1334 1202 1080 1200
8 1099 994 1078 1201 1227 1111 1202 1334
8 1343 1207 1081 1208 1210 1083 964 1082
8 1214 1084 1186 1319 1343 1207 1081 1208
8 1345 1210 1082 1209 1225 1100 981 1097
8 1346 1211 1083 1210 1228 1115 999 1100
8 1086 984 1099 1215 1216 1103 1227 1352
8 1087 985 1103 1216 1217 1104 1230 1353
8 1090 988 1104 1217 1219 1106 1231 1354
8 1218 1105 987 1089 1355 1232 1106 1219
8 1091 991 1105 1218 1220 1109 1232 1355
8 1092 992 1109 1220 1221 1110 1234 1356
8 1222 1108 1233 1357 1095 990 1107 1224
8 1222 1108 993 1093 1357 1233 1110 1221
8 1223 1101 989 1096 1358 1229 1107 1224
8 1226 1102 983 1098 1358 1229 1101 1223
8 1226 1102 1228 1359 1098 983 1100 1225
8 1103 995 1111 1227 1230 1112 1235 1360
8 1107 1002 1117 1233 1229 1116 1240 1362
8 1102 1001 1116 1229 1228 1115 1240 1362
8 1104 996 1112 1230 1231 1113 1236 1363
8 1364 1237 1114 1232 1231 1113 997 1106
8 1109 1005 1114 1232 1234 1118 1238 1365
8 1110 1004 1118 1234 1233 1117 1241 1366
8 1242 1374 1255 1138 1119 1243 1132 1025
8 1244 1127 1254 1376 1121 1015 1129 1245
8 1148 1031 1149 1275 1244 1127 1254 1376
8 1245 1129 1258 1377 1125 1016 1130 1248
8 1251 1134 1019 1126 1378 1257 1128 1246
8 1378 1257 1128 1246 1247 1131 1017 1123
8 1248 1130 1259 1379 1124 1018 1131 1247
8 1261 1381 1250 1133 1132 1249 1330 1199
8 1255 1380 1252 1135 1132 1249 1381 1261
8 1250 1133 1019 1126 1382 1262 1134 1251
8 1253 1136 1256 1385 1384 1263 1135 1252
8 1254 1137 1265 1387 1129 1022 1141 1258
8 1149 1032 1150 1276 1254 1137 1265 1387
8 1028 1135 1255 1138 1139 1256 1388 1266
8 1136 1029 1147 1264 1256 1139 1267 1389
8 1390 1268 1140 1257 1259 1142 1024 1131
8 1260 1143 1027 1134 1390 1268 1140 1257
8 1258 1141 1269 1391 1130 1023 1142 1259
8 1262 1145 1027 1134 1393 1271 1143 1260
8 1261 1144 1026 1133 1394 1272 1145 1262
8 1135 1028 1144 1261 1263 1146 1272 1394
8 1136 1029 1146 1263 1264 1147 1273 1395
8 1155 1041 1160 1282 1275 1149 1276 1405
8 1276 1150 1044 1160 1406 1277 1162 1286
8 1408 1283 1159 1279 1278 1156 1039 1151
8 1290 1165 1283 1408 1177 1053 1156 1278
8 1152 1040 1159 1279 1280 1158 1285 1409
8 1281 1157 1038 1153 1410 1284 1158 1280
8 1281 1157 1284 1410 1154 1042 1160 1282
8 1159 1046 1164 1283 1285 1163 1289 1412
8 1292 1167 1289 1412 1165 1048 1164 1283
8 1158 1045 1163 1285 1284 1161 1288 1413
8 1284 1161 1288 1413 1160 1044 1162 1286
8 1291 1166 1292 1418 1174 1051 1165 1290
8 1291 1166 1051 1174 1419 1293 1172 1305
8 1294 1169 1296 1421 1166 1049 1167 1292
8 1293 1168 1050 1172 1422 1295 1171 1303
8 1294 1169 1049 1166 1423 1297 1168 1293
8 1422 1295 1171 1303 1301 1170 1302 1435
8 1172 1050 1173 1306 1303 1171 1304 1438
8 1174 1051 1175 1308 1305 1172 1306 1440
8 1175 1052 1176 1309 1306 1173 1307 1441
8 1177 1053 1178 1311 1308 1175 1309 1443
8 1178 1054 1179 1312 1309 1176 1310 1444
8 1180 1055 1181 1314 1311 1178 1312 1446
8 1056 1181 1312 1179 1182 1315 1447 1313
8 1183 1058 1184 1316 1314 1181 1315 1448
8 1319 1186 1084 1214 1451 1317 1213 1350
8 1319 1186 1318 1453 1208 1081 1187 1321
8 1321 1187 1320 1456 1188 1063 1189 1323
8 1344 1208 1321 1457 1209 1082 1188 1322
8 1322 1188 1323 1458 1190 1064 1191 1325
8 1323 1189 1324 1459 1191 1065 1192 1326
8 1191 1325 1193 1067 1326 1460 1327 1194
8 1242 1374 1243 1119 1328 1462 1335 1204
8 1330 1199 1333 1465 1196 1075 1200 1331
8 1132 1249 1330 1199 1243 1375 1465 1333
8 1332 1201 1077 1198 1466 1334 1200 1331
8 1215 1099 1201 1332 1352 1227 1334 1466
8 1119 1243 1333 1203 1204 1335 1470 1338
8 1333 1203 1338 1470 1200 1080 1202 1334
8 1227 1111 1202 1334 1360 1235 1338 1470
8 1328 1462 1335 1204 1205 1336 1471 1339
8 1337 1206 1340 1472 1464 1329 1205 1336
8 1346 1211 1342 1479 1210 1083 1207 1343
8 1346 1211 1115 1228 1479 1342 1239 1361
8 1348 1212 1084 1214 1479 1342 1207 1343
8 1480 1343 1208 1344 1345 1210 1082 1209
8 1351 1214 1319 1454 1480 1343 1208 1344
8 1481 1346 1210 1345 1359 1228 1100 1225
8 1348 1212 1347 1483 1214 1084 1213 1350
8 1216 1103 1227 1352 1353 1230 1360 1488
8 1217 1104 1230 1353 1354 1231 1363 1489
8 1490 1364 1232 1355 1354 1231 1106 1219
8 1220 1109 1232 1355 1356 1234 1365 1491
8 1221 1110 1234 1356 1357 1233 1366 1492
8 1224 1107 1233 1357 1358 1229 1362 1493
8 1226 1102 1229 1358 1359 1228 1362 1493
8 1230 1112 1235 1360 1363 1236 1367 1496
8 1361 1239 1115 1228 1497 1371 1240 1362
8 1366 1241 1372 1498 1233 1117 1240 1362
8 1364 1237 1113 1231 1499 1368 1236 1363
8 1364 1237 1368 1499 1232 1114 1238 1365
8 1234 1118 1238 1365 1366 1241 1369 1500
8 1507 1373 1242 1374 1388 1266 1138 1255
8 1508 1374 1243 1375 1380 1255 1132 1249
8 1376 1254 1387 1509 1245 1129 1258 1377
8 1275 1149 1276 1405 1376 1254 1387 1509
8 1377 1258 1391 1510 1248 1130 1259 1379
8 1511 1390 1257 1378 1379 1259 1131 1247
8 1383 1260 1134 1251 1511 1390 1257 1378
8 1252 1135 1256 1385 1380 1255 1388 1512
8 1261 1381 1513 1394 1133 1250 1382 1262
8 1135 1252 1384 1263 1261 1381 1513 1394
8 1382 1262 1134 1251 1514 1393 1260 1383
8 1253 1136 1263 1384 1386 1264 1395 1516
8 1253 1136 1264 1386 1385 1256 1389 1517
8 1387 1265 1397 1519 1258 1141 1269 1391
8 1276 1150 1277 1406 1387 1265 1397 1519
8 1256 1139 1267 1389 1388 1266 1398 1520
8 1264 1147 1274 1396 1389 1267 1399 1521
8 1392 1270 1143 1260 1522 1400 1268 1390
8 1390 1268 1142 1259 1522 1400 1269 1391
8 1392 1270 1401 1523 1260 1143 1271 1393
8 1272 1394 1524 1402 1145 1262 1393 1271
8 1395 1273 1146 1263 1524 1402 1272 1394
8 1273 1395 1264 1147 1403 1526 1396 1274
8 1405 1276 1160 1282 1534 1406 1286 1411
8 1414 1287 1407 1535 1286 1162 1277 1406
8 1279 1159 1283 1408 1409 1285 1412 1537
8 1418 1292 1412 1537 1290 1165 1283 1408
8 1280 1158 1285 1409 1410 1284 1413 1538
8 1410 1284 1413 1538 1282 1160 1286 1411
8 1285 1163 1289 1412 1413 1288 1417 1540
8 1421 1296 1417 1540 1292 1167 1289 1412
8 1414 1287 1162 1286 1541 1416 1288 1413
8 1420 1294 1421 1545 1291 1166 1292 1418
8 1419 1293 1172 1305 1546 1422 1303 1437
8 1420 1294 1166 1291 1547 1423 1293 1419
8 1294 1169 1297 1423 1421 1296 1425 1548
8 1423 1297 1168 1293 1549 1424 1295 1422
8 1301 1170 1298 1427 1422 1295 1424 1549
8 1432 1300 1428 1554 1301 1170 1298 1427
8 1431 1299 1428 1554 1560 1430 1300 1432
8 1563 1433 1300 1432 1435 1302 1170 1301
8 1546 1422 1303 1437 1434 1301 1435 1565
8 1303 1171 1304 1438 1435 1302 1436 1566
8 1305 1172 1306 1440 1437 1303 1438 1568
8 1306 1173 1307 1441 1438 1304 1439 1569
8 1308 1175 1309 1443 1440 1306 1441 1571
8 1309 1176 1310 1444 1441 1307 1442 1572
8 1311 1178 1312 1446 1443 1309 1444 1574
8 1179 1312 1444 1310 1313 1447 1575 1445
8 1314 1181 1315 1448 1446 1312 1447 1576
8 1350 1213 1349 1486 1451 1317 1449 1579
8 1451 1317 1450 1581 1319 1186 1318 1453
8 1454 1319 1214 1351 1582 1451 1350 1487
8 1453 1318 1452 1584 1321 1187 1320 1456
8 1454 1319 1453 1585 1344 1208 1321 1457
8 1456 1320 1455 1586 1323 1189 1324 1459
8 1457 1321 1456 1587 1322 1188 1323 1458
8 1458 1323 1459 1588 1325 1191 1326 1460
8 1205 1336 1464 1329 1328 1462 1590 1461
8 1507 1373 1461 1590 1374 1242 1328 1462
8 1508 1374 1462 1591 1375 1243 1335 1467
8 1337 1206 1329 1464 1473 1341 1463 1594
8 1375 1243 1335 1467 1465 1333 1470 1596
8 1465 1333 1470 1596 1331 1200 1334 1466
8 1352 1227 1334 1466 1488 1360 1470 1596
8 1591 1462 1336 1468 1467 1335 1471 1597
8 1469 1337 1472 1598 1595 1464 1336 1468
8 1471 1339 1474 1600 1335 1204 1338 1470
8 1600 1474 1367 1496 1470 1338 1235 1360
8 1336 1205 1340 1472 1471 1339 1475 1601
8 1337 1206 1341 1473 1472 1340 1476 1602
8 1495 1370 1478 1609 1361 1239 1342 1479
8 1348 1212 1342 1479 1483 1347 1478 1609
8 1481 1346 1479 1610 1345 1210 1343 1480
8 1481 1346 1228 1359 1610 1479 1361 1494
8 1484 1348 1214 1351 1610 1479 1343 1480
8 1483 1347 1482 1612 1350 1213 1349 1486
8 1484 1348 1483 1613 1351 1214 1350 1487
8 1353 1230 1360 1488 1489 1363 1496 1616
8 1490 1364 1231 1354 1617 1499 1363 1489
8 1490 1364 1499 1617 1355 1232 1365 1491
8 1356 1234 1365 1491 1492 1366 1500 1619
8 1492 1366 1498 1620 1357 1233 1362 1493
8 1494 1361 1228 1359 1621 1497 1362 1493
8 1495 1370 1239 1361 1622 1504 1371 1497
8 1363 1236 1367 1496 1499 1368 1501 1623
8 1497 1371 1240 1362 1624 1505 1372 1498
8 1625 1503 1372 1498 1500 1369 1241 1366
8 1365 1238 1368 1499 1500 1369 1502 1626
8 1520 1398 1506 1633 1388 1266 1373 1507
8 1634 1507 1374 1508 1512 1388 1255 1380
8 1509 1387 1519 1635 1377 1258 1391 1510
8 1405 1276 1406 1534 1509 1387 1519 1635
8 1515 1392 1260 1383 1636 1522 1390 1511
8 1511 1390 1259 1379 1636 1522 1391 1510
8 1385 1256 1389 1517 1512 1388 1520 1637
8 1513 1394 1262 1382 1638 1524 1393 1514
8 1395 1516 1638 1524 1263 1384 1513 1394
8 1515 1392 1523 1639 1383 1260 1393 1514
8 1516 1395 1526 1640 1386 1264 1396 1518
8 1386 1264 1396 1518 1517 1389 1521 1641
8 1519 1397 1527 1643 1391 1269 1400 1522
8 1535 1407 1527 1643 1406 1277 1397 1519
8 1389 1267 1399 1521 1520 1398 1528 1644
8 1645 1529 1399 1521 1525 1404 1274 1396
8 1392 1270 1400 1522 1523 1401 1531 1646
8 1524 1402 1271 1393 1648 1532 1401 1523
8 1403 1526 1648 1532 1273 1395 1524 1402
8 1525 1404 1274 1396 1649 1533 1403 1526
8 1539 1414 1535 1657 1411 1286 1406 1534
8 1542 1415 1536 1658 1414 1287 1407 1535
8 1409 1285 1412 1537 1538 1413 1540 1660
8 1545 1421 1540 1660 1418 1292 1412 1537
8 1539 1414 1286 1411 1661 1541 1413 1538
8 1540 1417 1544 1663 1413 1288 1416 1541
8 1421 1296 1425 1548 1540 1417 1544 1663
8 1542 1415 1287 1414 1664 1543 1416 1541
8 1420 1294 1423 1547 1545 1421 1548 1666
8 1547 1423 1293 1419 1667 1549 1422 1546
8 1434 1301 1427 1553 1546 1422 1549 1667
8 1423 1297 1424 1549 1548 1425 1550 1668
8 1551 1426 1550 1668 1427 1298 1424 1549
8 1551 1426 1298 1427 1671 1552 1428 1554
8 1562 1432 1554 1674 1434 1301 1427 1553
8 1431 1299 1429 1558 1554 1428 1555 1675
8 1431 1299 1430 1560 1558 1429 1557 1680
8 1560 1430 1300 1432 1683 1559 1433 1563
8 1561 1431 1554 1674 1684 1560 1432 1562
8 1685 1563 1432 1562 1565 1435 1301 1434
8 1435 1302 1436 1566 1563 1433 1564 1686
8 1437 1303 1438 1568 1565 1435 1566 1688
8 1438 1304 1439 1569 1566 1436 1567 1689
8 1440 1306 1441 1571 1568 1438 1569 1691
8 1441 1307 1442 1572 1569 1439 1570 1692
8 1443 1309 1444 1574 1571 1441 1572 1694
8 1310 1444 1572 1442 1445 1575 1695 1573
8 1446 1312 1447 1576 1574 1444 1575 1696
8 1486 1349 1485 1614 1579 1449 1577 1699
8 1451 1317 1449 1579 1581 1450 1578 1701
8 1487 1350 1486 1615 1582 1451 1579 1702
8 1581 1450 1580 1704 1453 1318 1452 1584
8 1582 1451 1581 1705 1454 1319 1453 1585
8 1584 1452 1583 1706 1456 1320 1455 1586
8 1585 1453 1584 1707 1457 1321 1456 1587
8 1587 1456 1586 1708 1458 1323 1459 1588
8 1633 1506 1589 1710 1507 1373 1461 1590
8 1464 1329 1461 1590 1594 1463 1589 1710
8 1468 1336 1462 1591 1595 1464 1590 1711
8 1634 1507 1590 1711 1508 1374 1462 1591
8 1473 1341 1463 1594 1603 1477 1593 1716
8 1469 1337 1464 1595 1599 1473 1594 1717
8 1471 1597 1467 1335 1600 1718 1596 1470
8 1718 1600 1496 1616 1596 1470 1360 1488
8 1336 1468 1597 1471 1472 1598 1719 1601
8 1469 1337 1473 1599 1598 1472 1602 1720
8 1722 1604 1501 1623 1600 1474 1367 1496
8 1475 1601 1471 1339 1604 1722 1600 1474
8 1602 1476 1605 1723 1472 1340 1475 1601
8 1476 1602 1724 1606 1341 1473 1603 1477
8 1483 1347 1478 1609 1612 1482 1608 1731
8 1495 1370 1504 1622 1609 1478 1608 1731
8 1618 1495 1609 1732 1494 1361 1479 1610
8 1484 1348 1479 1610 1613 1483 1609 1732
8 1486 1349 1482 1612 1614 1485 1611 1733
8 1613 1483 1612 1734 1487 1350 1486 1615
8 1489 1363 1496 1616 1617 1499 1623 1736
8 1491 1365 1499 1617 1619 1500 1626 1737
8 1618 1495 1361 1494 1738 1622 1497 1621
8 1739 1625 1498 1620 1619 1500 1366 1492
8 1621 1497 1362 1493 1740 1624 1498 1620
8 1742 1631 1504 1622 1624 1505 1371 1497
8 1743 1628 1502 1626 1623 1501 1368 1499
8 1744 1630 1505 1624 1625 1503 1372 1498
8 1745 1629 1503 1625 1626 1502 1369 1500
8 1520 1398 1528 1644 1633 1506 1632 1751
8 1637 1520 1633 1752 1512 1388 1507 1634
8 1635 1519 1643 1753 1510 1391 1522 1636
8 1657 1535 1643 1753 1534 1406 1519 1635
8 1515 1392 1522 1636 1639 1523 1646 1754
8 1517 1389 1521 1641 1637 1520 1644 1755
8 1524 1638 1756 1648 1393 1514 1639 1523
8 1640 1526 1395 1516 1756 1648 1524 1638
8 1642 1525 1396 1518 1757 1649 1526 1640
8 1758 1645 1521 1641 1642 1525 1396 1518
8 1646 1531 1400 1522 1760 1650 1527 1643
8 1535 1407 1536 1658 1643 1527 1650 1760
8 1521 1399 1529 1645 1644 1528 1651 1761
8 1647 1530 1652 1762 1525 1404 1529 1645
8 1401 1523 1648 1532 1531 1646 1763 1655
8 1525 1404 1533 1649 1647 1530 1654 1765
8 1533 1649 1766 1656 1403 1526 1648 1532
8 1662 1542 1658 1774 1539 1414 1535 1657
8 1542 1415 1543 1664 1658 1536 1659 1775
8 1660 1540 1663 1777 1538 1413 1541 1661
8 1545 1421 1548 1666 1660 1540 1663 1777
8 1662 1542 1414 1539 1778 1664 1541 1661
8 1664 1543 1416 1541 1779 1665 1544 1663
8 1548 1425 1550 1668 1663 1544 1665 1779
8 1547 1423 1549 1667 1666 1548 1668 1781
8 1670 1551 1668 1781 1553 1427 1549 1667
8 1551 1426 1552 1671 1668 1550 1669 1782
8 1670 1551 1427 1553 1784 1671 1554 1674
8 1675 1555 1672 1785 1554 1428 1552 1671
8 1678 1556 1673 1789 1558 1429 1555 1675
8 1561 1431 1558 1681 1674 1554 1675 1790
8 1794 1677 1556 1678 1680 1557 1429 1558
8 1560 1430 1559 1683 1680 1557 1679 1797
8 1561 1431 1560 1684 1681 1558 1680 1798
8 1563 1433 1564 1686 1683 1559 1682 1800
8 1684 1560 1432 1562 1801 1683 1563 1685
8 1565 1435 1566 1688 1685 1563 1686 1802
8 1566 1436 1567 1689 1686 1564 1687 1803
8 1568 1438 1569 1691 1688 1566 1689 1805
8 1569 1439 1570 1692 1689 1567 1690 1806
8 1571 1441 1572 1694 1691 1569 1692 1808
8 1442 1572 1692 1570 1573 1695 1809 1693
8 1574 1444 1575 1696 1694 1572 1695 1810
8 1614 1485 1592 1712 1699 1577 1697 1813
8 1579 1449 1577 1699 1701 1578 1698 1815
8 1615 1486 1614 1735 1702 1579 1699 1816
8 1701 1578 1700 1818 1581 1450 1580 1704
8 1582 1451 1579 1702 1705 1581 1701 1819
8 1704 1580 1703 1820 1584 1452 1583 1706
8 1705 1581 1704 1821 1585 1453 1584 1707
8 1707 1584 1706 1822 1587 1456 1586 1708
8 1710 1589 1506 1633 1824 1709 1632 1751
8 1594 1463 1589 1710 1716 1593 1709 1824
8 1752 1633 1710 1825 1634 1507 1590 1711
8 1595 1464 1590 1711 1717 1594 1710 1825
8 1830 1714 1592 1712 1733 1611 1485 1614
8 1603 1477 1593 1716 1725 1607 1715 1834
8 1599 1473 1594 1717 1721 1603 1716 1835
8 1837 1722 1623 1736 1718 1600 1496 1616
8 1719 1601 1722 1837 1597 1471 1600 1718
8 1602 1720 1598 1472 1723 1838 1719 1601
8 1720 1602 1473 1599 1839 1724 1603 1721
8 1723 1605 1726 1840 1601 1475 1604 1722
8 1840 1726 1628 1743 1722 1604 1501 1623
8 1724 1606 1727 1841 1602 1476 1605 1723
8 1725 1607 1728 1842 1603 1477 1606 1724
8 1612 1482 1608 1731 1733 1611 1730 1849
8 1741 1627 1730 1849 1622 1504 1608 1731
8 1613 1483 1609 1732 1734 1612 1731 1850
8 1618 1495 1622 1738 1732 1609 1731 1850
8 1615 1486 1612 1734 1735 1614 1733 1851
8 1852 1743 1626 1737 1736 1623 1499 1617
8 1853 1745 1625 1739 1737 1626 1500 1619
8 1855 1742 1622 1738 1740 1624 1497 1621
8 1856 1744 1624 1740 1739 1625 1498 1620
8 1741 1627 1504 1622 1857 1746 1631 1742
8 1742 1631 1505 1624 1858 1749 1630 1744
8 1859 1747 1629 1745 1743 1628 1502 1626
8 1860 1748 1630 1744 1745 1629 1503 1625
8 1644 1528 1651 1761 1751 1632 1750 1865
8 1637 1520 1644 1755 1752 1633 1751 1866
8 1754 1646 1522 1636 1867 1760 1643 1753
8 1657 1535 1658 1774 1753 1643 1760 1867
8 1639 1523 1646 1754 1756 1648 1763 1868
8 1641 1521 1645 1758 1755 1644 1761 1869
8 1757 1649 1526 1640 1870 1766 1648 1756
8 1642 1525 1649 1757 1759 1647 1765 1871
8 1759 1647 1762 1872 1642 1525 1645 1758
8 1760 1650 1767 1874 1646 1531 1655 1763
8 1658 1536 1659 1775 1760 1650 1767 1874
8 1762 1652 1768 1875 1645 1529 1651 1761
8 1764 1653 1769 1876 1647 1530 1652 1762
8 1656 1766 1877 1773 1532 1648 1763 1655
8 1771 1879 1765 1654 1653 1764 1647 1530
8 1533 1649 1765 1654 1656 1766 1880 1772
8 1662 1542 1664 1778 1774 1658 1775 1887
8 1664 1543 1665 1779 1775 1659 1776 1888
8 1778 1664 1541 1661 1890 1779 1663 1777
8 1666 1548 1668 1781 1777 1663 1779 1890
8 1782 1669 1780 1891 1668 1550 1665 1779
8 1670 1551 1671 1784 1781 1668 1782 1893
8 1671 1552 1672 1785 1782 1669 1783 1894
8 1790 1675 1785 1896 1674 1554 1671 1784
8 1675 1555 1673 1789 1785 1672 1786 1897
8 1792 1676 1788 1903 1678 1556 1673 1789
8 1795 1678 1789 1904 1681 1558 1675 1790
8 1792 1676 1556 1678 1906 1791 1677 1794
8 1680 1557 1679 1797 1794 1677 1793 1909
8 1910 1794 1678 1795 1798 1680 1558 1681
8 1683 1559 1682 1800 1797 1679 1796 1912
8 1684 1560 1683 1801 1798 1680 1797 1913
8 1686 1564 1687 1803 1800 1682 1799 1915
8 1685 1563 1686 1802 1801 1683 1800 1916
8 1688 1566 1689 1805 1802 1686 1803 1917
8 1689 1567 1690 1806 1803 1687 1804 1918
8 1691 1569 1692 1808 1805 1689 1806 1920
8 1692 1570 1693 1809 1806 1690 1807 1921
8 1694 1572 1695 1810 1808 1692 1809 1922
8 1829 1713 1811 1926 1712 1592 1697 1813
8 1813 1697 1812 1928 1699 1577 1698 1815
8 1735 1614 1712 1828 1816 1699 1813 1929
8 1815 1698 1814 1931 1701 1578 1700 1818
8 1702 1579 1699 1816 1819 1701 1815 1932
8 1818 1700 1817 1933 1704 1580 1703 1820
8 1819 1701 1818 1934 1705 1581 1704 1821
8 1821 1704 1820 1935 1707 1584 1706 1822
8 1824 1709 1632 1751 1937 1823 1750 1865
8 1716 1593 1709 1824 1834 1715 1823 1937
8 1825 1710 1633 1752 1938 1824 1751 1866
8 1717 1594 1710 1825 1835 1716 1824 1938
8 1945 1830 1712 1828 1851 1733 1614 1735
8 1830 1714 1831 1946 1712 1592 1713 1829
8 1947 1832 1714 1830 1849 1730 1611 1733
8 1843 1729 1607 1725 1950 1833 1715 1834
8 1721 1603 1716 1835 1836 1725 1834 1951
8 1836 1725 1842 1953 1721 1603 1724 1839
8 1723 1838 1719 1601 1840 1954 1837 1722
8 1954 1840 1743 1852 1837 1722 1623 1736
8 1724 1839 1720 1602 1841 1955 1838 1723
8 1841 1727 1844 1956 1723 1605 1726 1840
8 1956 1844 1747 1859 1840 1726 1628 1743
8 1728 1842 1724 1606 1845 1957 1841 1727
8 1725 1607 1729 1843 1842 1728 1846 1958
8 1741 1627 1746 1857 1849 1730 1848 1965
8 1734 1612 1731 1850 1851 1733 1849 1966
8 1854 1741 1849 1966 1738 1622 1731 1850
8 1967 1859 1745 1853 1852 1743 1626 1737
8 1968 1860 1744 1856 1853 1745 1625 1739
8 1854 1741 1622 1738 1969 1857 1742 1855
8 1855 1742 1624 1740 1970 1858 1744 1856
8 1857 1746 1631 1742 1971 1861 1749 1858
8 1858 1749 1630 1744 1972 1863 1748 1860
8 1859 1747 1862 1973 1745 1629 1748 1860
8 1875 1768 1864 1977 1761 1651 1750 1865
8 1755 1644 1761 1869 1866 1751 1865 1978
8 1867 1760 1874 1979 1754 1646 1763 1868
8 1774 1658 1775 1887 1867 1760 1874 1979
8 1870 1766 1648 1756 1980 1877 1763 1868
8 1872 1762 1875 1981 1758 1645 1761 1869
8 1757 1649 1766 1870 1871 1765 1880 1982
8 1983 1879 1764 1873 1871 1765 1647 1759
8 1873 1764 1876 1984 1759 1647 1762 1872
8 1877 1773 1655 1763 1986 1881 1767 1874
8 1775 1659 1776 1888 1874 1767 1881 1986
8 1876 1769 1882 1987 1762 1652 1768 1875
8 1878 1770 1883 1988 1764 1653 1769 1876
8 1880 1772 1656 1766 1989 1886 1773 1877
8 1878 1770 1653 1764 1990 1884 1771 1879
8 1765 1654 1772 1880 1879 1771 1885 1991
8 1778 1664 1779 1890 1887 1775 1888 1997
8 1998 1889 1776 1888 1891 1780 1665 1779
8 1893 1782 1891 2000 1781 1668 1779 1890
8 1894 1783 1892 2001 1782 1669 1780 1891
8 1784 1671 1785 1896 1893 1782 1894 2003
8 1897 1786 1895 2004 1785 1672 1783 1894
8 1790 1675 1789 1904 1896 1785 1897 2006
8 1901 1787 1898 2007 1789 1673 1786 1897
8 1903 1788 1900 2013 1789 1673 1787 1901
8 1792 1676 1791 1906 1903 1788 1902 2016
8 1907 1792 1903 2017 1795 1678 1789 1904
8 1906 1791 1677 1794 2019 1905 1793 1909
8 1907 1792 1678 1795 2020 1906 1794 1910
8 1797 1679 1796 1912 1909 1793 1908 2022
8 1798 1680 1797 1913 1910 1794 1909 2023
8 1800 1682 1799 1915 1912 1796 1911 2025
8 1801 1683 1800 1916 1913 1797 1912 2026
8 1803 1687 1804 1918 1915 1799 1914 2028
8 1802 1686 1803 1917 1916 1800 1915 2029
8 1805 1689 1806 1920 1917 1803 1918 2030
8 1806 1690 1807 1921 1918 1804 1919 2031
8 1808 1692 1809 1922 1920 1806 1921 2032
8 1939 1826 1924 2037 1829 1713 1811 1926
8 1926 1811 1925 2039 1813 1697 1812 1928
8 1944 1829 1926 2040 1828 1712 1813 1929
8 1928 1812 1927 2042 1815 1698 1814 1931
8 1929 1813 1928 2043 1816 1699 1815 1932
8 1931 1814 1930 2044 1818 1700 1817 1933
8 1932 1815 1931 2045 1819 1701 1818 1934
8 1934 1818 1933 2046 1821 1704 1820 1935
8 2048 1936 1823 1937 1977 1864 1750 1865
8 1950 1833 1715 1834 2048 1936 1823 1937
8 1938 1824 1751 1866 2049 1937 1865 1978
8 1835 1716 1824 1938 1951 1834 1937 2049
8 1939 1826 1713 1829 2053 1942 1831 1946
8 1940 1827 1923 2035 2053 1942 1826 1939
8 1945 1830 1946 2058 1828 1712 1829 1944
8 2059 1947 1830 1945 1966 1849 1733 1851
8 1947 1832 1730 1849 2060 1948 1848 1965
8 1947 1832 1948 2060 1830 1714 1831 1946
8 1959 1847 1729 1843 2063 1949 1833 1950
8 1952 1843 1725 1836 2064 1950 1834 1951
8 1836 1725 1843 1952 1953 1842 1958 2066
8 1953 1842 1957 2067 1839 1724 1841 1955
8 1841 1955 1838 1723 1956 2068 1954 1840
8 2068 1956 1859 1967 1954 1840 1743 1852
8 1956 1844 1960 2069 1859 1747 1862 1973
8 1845 1957 1841 1727 1960 2069 1956 1844
8 1728 1842 1957 1845 1846 1958 2071 1961
8 1962 2072 1959 1847 1846 1958 1843 1729
8 1971 1861 1964 2077 1857 1746 1848 1965
8 1854 1741 1857 1969 1966 1849 1965 2078
8 1967 1859 1973 2079 1853 1745 1860 1968
8 1970 1858 1744 1856 2080 1972 1860 1968
8 1969 1857 1742 1855 2081 1971 1858 1970
8 1971 1861 1749 1858 2082 1974 1863 1972
8 1973 1862 1975 2083 1860 1748 1863 1972
8 1987 1882 1976 2086 1875 1768 1864 1977
8 1981 1875 1977 2087 1869 1761 1865 1978
8 1980 1877 1763 1868 2088 1986 1874 1979
8 1887 1775 1888 1997 1979 1874 1986 2088
8 1880 1982 2089 1989 1766 1870 1980 1877
8 1984 1876 1987 2090 1872 1762 1875 1981
8 1765 1871 1983 1879 1880 1982 2091 1991
8 1985 1878 1764 1873 2092 1990 1879 1983
8 1985 1878 1988 2093 1873 1764 1876 1984
8 2094 1992 1881 1986 1998 1889 1776 1888
8 1986 1881 1992 2094 1877 1773 1886 1989
8 1988 1883 1993 2095 1876 1769 1882 1987
8 1878 1770 1884 1990 1988 1883 1994 2096
8 1991 1885 1772 1880 2097 1996 1886 1989
8 1879 1771 1885 1991 1990 1884 1995 2098
8 2103 1998 1888 1997 2000 1891 1779 1890
8 2104 1999 1889 1998 2001 1892 1780 1891
8 2003 1894 2001 2106 1893 1782 1891 2000
8 2004 1895 2002 2107 1894 1783 1892 2001
8 2006 1897 2004 2109 1896 1785 1894 2003
8 2007 1898 2005 2110 1897 1786 1895 2004
8 2014 1901 2007 2112 1904 1789 1897 2006
8 2011 1899 2008 2113 1901 1787 1898 2007
8 2119 2010 1899 2011 2013 1900 1787 1901
8 2016 1902 2012 2122 1903 1788 1900 2013
8 2017 1903 2013 2123 1904 1789 1901 2014
8 1906 1791 1905 2019 2016 1902 2015 2125
8 1907 1792 1906 2020 2017 1903 2016 2126
8 1909 1793 1908 2022 2019 1905 2018 2128
8 2020 1906 1794 1910 2129 2019 1909 2023
8 1912 1796 1911 2025 2022 1908 2021 2131
8 1913 1797 1912 2026 2023 1909 2022 2132
8 1915 1799 1914 2028 2025 1911 2024 2134
8 1916 1800 1915 2029 2026 1912 2025 2135
8 1918 1804 1919 2031 2028 1914 2027 2136
8 1917 1803 1918 2030 2029 1915 2028 2137
8 1920 1806 1921 2032 2030 1918 2031 2138
8 1940 1827 1941 2054 2035 1923 2033 2140
8 2035 1923 2034 2143 1939 1826 1924 2037
8 2037 1924 2036 2146 1926 1811 1925 2039
8 2051 1939 2037 2147 1944 1829 1926 2040
8 2039 1925 2038 2149 1928 1812 1927 2042
8 2040 1926 2039 2150 1929 1813 1928 2043
8 2042 1927 2041 2151 1931 1814 1930 2044
8 2043 1928 2042 2152 1932 1815 1931 2045
8 2045 1931 2044 2153 1934 1818 1933 2046
8 2155 2047 1936 2048 2086 1976 1864 1977
8 2063 1949 1833 1950 2155 2047 1936 2048
8 2156 2048 1937 2049 2087 1977 1865 1978
8 2064 1950 1834 1951 2156 2048 1937 2049
8 2051 1939 1829 1944 2160 2053 1946 2058
8 2052 1940 2035 2144 2160 2053 1939 2051
8 2053 1942 1831 1946 2163 2057 1948 2060
8 2055 1943 1827 1940 2163 2057 1942 2053
8 2055 1943 2056 2164 1940 1827 1941 2054
8 2059 1947 1849 1966 2167 2060 1965 2078
8 2059 1947 2060 2167 1945 1830 1946 2058
8 2077 1964 2061 2168 1965 1848 1948 2060
8 2070 1963 1847 1959 2170 2062 1949 2063
8 2065 1959 1843 1952 2171 2063 1950 2064
8 2173 2072 1958 2066 2065 1959 1843 1952
8 1953 1842 1958 2066 2067 1957 2071 2174
8 2068 1956 2069 2175 1967 1859 1973 2079
8 2067 1957 2069 2175 1955 1841 1956 2068
8 1845 1957 2069 1960 1961 2071 2176 2073
8 2069 1960 2073 2176 1973 1862 1975 2083
8 2070 1963 2075 2177 1959 1847 1962 2072
8 1846 1958 2071 1961 1962 2072 2178 2074
8 2077 1964 1861 1971 2182 2076 1974 2082
8 2081 1971 2077 2183 1969 1857 1965 2078
8 2079 1973 2083 2184 1968 1860 1972 2080
8 2081 1971 1858 1970 2185 2082 1972 2080
8 2083 1975 2084 2186 1972 1863 1974 2082
8 2086 1976 1882 1987 2189 2085 1993 2095
8 2090 1987 2086 2190 1981 1875 1977 2087
8 2191 2094 1986 2088 2103 1998 1888 1997
8 2088 1986 2094 2191 1980 1877 1989 2089
8 1991 2091 2192 2097 1880 1982 2089 1989
8 2093 1988 2095 2193 1984 1876 1987 2090
8 1879 1983 2092 1990 1991 2091 2194 2098
8 1985 1878 1990 2092 2093 1988 2096 2195
8 2097 1996 1886 1989 2196 2099 1992 2094
8 2196 2099 1992 2094 2104 1999 1889 1998
8 1994 2096 1988 1883 2100 2197 2095 1993
8 2096 1994 1884 1990 2198 2101 1995 2098
8 1995 2098 2199 2102 1885 1991 2097 1996
8 2203 2104 1998 2103 2106 2001 1891 2000
8 2107 2002 2105 2204 2001 1892 1999 2104
8 2109 2004 2107 2206 2003 1894 2001 2106
8 2110 2005 2108 2207 2004 1895 2002 2107
8 2112 2007 2110 2209 2006 1897 2004 2109
8 2113 2008 2111 2210 2007 1898 2005 2110
8 2120 2011 2113 2212 2014 1901 2007 2112
8 2117 2009 2114 2213 2011 1899 2008 2113
8 2219 2116 2009 2117 2119 2010 1899 2011
8 2222 2118 2010 2119 2122 2012 1900 2013
8 2223 2119 2011 2120 2123 2013 1901 2014
8 2016 1902 2015 2125 2122 2012 2121 2225
8 2126 2016 2122 2226 2017 1903 2013 2123
8 2019 1905 2018 2128 2125 2015 2124 2228
8 2020 1906 2019 2129 2126 2016 2125 2229
8 2022 1908 2021 2131 2128 2018 2127 2231
8 2023 1909 2022 2132 2129 2019 2128 2232
8 2025 1911 2024 2134 2131 2021 2130 2234
8 2026 1912 2025 2135 2132 2022 2131 2235
8 1914 2028 2134 2024 2027 2136 2236 2133
8 2029 1915 2028 2137 2135 2025 2134 2237
8 2030 1918 2031 2138 2137 2028 2136 2238
8 2157 2050 2139 2240 2054 1941 2033 2140
8 2052 1940 2054 2161 2144 2035 2140 2242
8 2140 2033 2141 2243 2035 1923 2034 2143
8 2143 2034 2142 2246 2037 1924 2036 2146
8 2144 2035 2143 2247 2051 1939 2037 2147
8 2146 2036 2145 2249 2039 1925 2038 2149
8 2147 2037 2146 2250 2040 1926 2039 2150
8 2149 2038 2148 2251 2042 1927 2041 2151
8 2150 2039 2149 2252 2043 1928 2042 2152
8 2152 2042 2151 2253 2045 1931 2044 2153
8 2255 2154 2047 2155 2189 2085 1976 2086
8 2170 2062 1949 2063 2255 2154 2047 2155
8 2256 2155 2048 2156 2190 2086 1977 2087
8 2171 2063 1950 2064 2256 2155 2048 2156
8 2258 2159 2050 2157 2164 2056 1941 2054
8 2160 2053 1946 2058 2262 2163 2060 2167
8 2162 2055 1940 2052 2262 2163 2053 2160
8 2162 2055 2164 2263 2052 1940 2054 2161
8 2163 2057 1948 2060 2264 2165 2061 2168
8 2055 1943 2057 2163 2164 2056 2165 2264
8 2182 2076 2166 2268 2077 1964 2061 2168
8 2183 2077 2168 2269 2078 1965 2060 2167
8 2070 1963 2062 2170 2177 2075 2169 2271
8 2172 2070 1959 2065 2272 2170 2063 2171
8 2172 2070 2177 2273 2065 1959 2072 2173
8 2066 1958 2072 2173 2174 2071 2178 2274
8 2067 1957 2071 2174 2175 2069 2176 2275
8 2175 2069 2176 2275 2079 1973 2083 2184
8 2071 1961 2074 2178 2176 2073 2179 2276
8 2176 2073 2179 2276 2083 1975 2084 2186
8 2072 1962 2075 2177 2178 2074 2180 2277
8 2182 2076 1974 2082 2280 2181 2084 2186
8 2183 2077 1971 2081 2281 2182 2082 2185
8 2184 2083 2186 2282 2080 1972 2082 2185
8 2189 2085 1993 2095 2285 2188 2100 2197
8 2190 2086 1987 2090 2286 2189 2095 2193
8 2192 2097 1989 2089 2287 2196 2094 2191
8 2287 2196 2094 2191 2203 2104 1998 2103
8 2194 2098 1991 2091 2288 2199 2097 2192
8 2195 2096 2197 2289 2093 1988 2095 2193
8 2096 2195 2290 2198 1990 2092 2194 2098
8 2097 1996 2099 2196 2199 2102 2200 2291
8 2196 2099 1999 2104 2291 2200 2105 2204
8 2100 2197 2292 2201 1994 2096 2198 2101
8 1995 2098 2198 2101 2102 2199 2293 2202
8 2206 2107 2204 2296 2106 2001 2104 2203
8 2207 2108 2205 2297 2107 2002 2105 2204
8 2209 2110 2207 2299 2109 2004 2107 2206
8 2210 2111 2208 2300 2110 2005 2108 2207
8 2212 2113 2210 2302 2112 2007 2110 2209
8 2213 2114 2211 2303 2113 2008 2111 2210
8 2220 2117 2213 2305 2120 2011 2113 2212
8 2216 2115 2214 2306 2117 2009 2114 2213
8 2216 2115 2009 2117 2311 2217 2116 2219
8 2219 2116 2010 2119 2314 2218 2118 2222
8 2315 2219 2117 2220 2223 2119 2011 2120
8 2122 2012 2121 2225 2222 2118 2221 2317
8 2318 2222 2119 2223 2226 2122 2013 2123
8 2125 2015 2124 2228 2225 2121 2224 2320
8 2126 2016 2125 2229 2226 2122 2225 2321
8 2128 2018 2127 2231 2228 2124 2227 2323
8 2129 2019 2128 2232 2229 2125 2228 2324
8 2131 2021 2130 2234 2231 2127 2230 2326
8 2132 2022 2131 2235 2232 2128 2231 2327
8 2134 2024 2133 2236 2234 2130 2233 2328
8 2135 2025 2134 2237 2235 2131 2234 2329
8 2137 2028 2136 2238 2237 2134 2236 2330
8 2157 2050 2158 2259 2240 2139 2239 2332
8 2257 2157 2240 2334 2161 2054 2140 2242
8 2240 2139 2241 2335 2140 2033 2141 2243
8 2242 2140 2243 2337 2144 2035 2143 2247
8 2243 2141 2244 2338 2143 2034 2142 2246
8 2246 2142 2245 2341 2146 2036 2145 2249
8 2247 2143 2246 2342 2147 2037 2146 2250
8 2249 2145 2248 2343 2149 2038 2148 2251
8 2250 2146 2249 2344 2150 2039 2149 2252
8 2252 2149 2251 2345 2152 2042 2151 2253
8 2169 2271 2347 2254 2062 2170 2255 2154
8 2189 2085 2188 2285 2255 2154 2254 2347
8 2348 2255 2155 2256 2286 2189 2086 2190
8 2272 2170 2063 2171 2348 2255 2155 2256
8 2349 2258 2157 2257 2263 2164 2054 2161
8 2258 2159 2261 2351 2157 2050 2158 2259
8 2258 2159 2056 2164 2351 2261 2165 2264
8 2262 2163 2060 2167 2355 2264 2168 2269
8 2162 2055 2163 2262 2263 2164 2264 2355
8 2357 2266 2165 2264 2268 2166 2061 2168
8 2268 2166 2076 2182 2361 2267 2181 2280
8 2281 2182 2268 2362 2183 2077 2168 2269
8 2271 2169 2270 2364 2177 2075 2180 2277
8 2172 2070 2170 2272 2273 2177 2271 2365
8 2072 2173 2274 2178 2177 2273 2366 2277
8 2071 2174 2275 2176 2178 2274 2367 2276
8 2275 2176 2276 2367 2184 2083 2186 2282
8 2283 2187 2084 2186 2368 2278 2179 2276
8 2178 2074 2180 2277 2276 2179 2278 2368
8 2283 2187 2279 2370 2186 2084 2181 2280
8 2281 2182 2082 2185 2371 2280 2186 2282
8 2188 2285 2374 2284 2100 2197 2292 2201
8 2286 2189 2095 2193 2375 2285 2197 2289
8 2192 2097 2196 2287 2288 2199 2291 2376
8 2287 2196 2104 2203 2376 2291 2204 2296
8 2194 2098 2199 2288 2290 2198 2293 2377
8 2289 2197 2096 2195 2378 2292 2198 2290
8 2291 2200 2105 2204 2379 2294 2205 2297
8 2199 2102 2200 2291 2293 2202 2294 2379
8 2198 2101 2202 2293 2292 2201 2295 2380
8 2299 2207 2297 2383 2206 2107 2204 2296
8 2300 2208 2298 2384 2207 2108 2205 2297
8 2302 2210 2300 2386 2209 2110 2207 2299
8 2303 2211 2301 2387 2210 2111 2208 2300
8 2305 2213 2303 2389 2212 2113 2210 2302
8 2306 2214 2304 2390 2213 2114 2211 2303
8 2310 2216 2306 2392 2220 2117 2213 2305
8 2308 2215 2307 2393 2216 2115 2214 2306
8 2308 2215 2115 2216 2396 2309 2217 2311
8 2310 2216 2117 2220 2398 2311 2219 2315
8 2311 2217 2116 2219 2399 2312 2218 2314
8 2314 2218 2118 2222 2402 2313 2221 2317
8 2315 2219 2119 2223 2403 2314 2222 2318
8 2225 2121 2224 2320 2317 2221 2316 2405
8 2226 2122 2225 2321 2318 2222 2317 2406
8 2228 2124 2227 2323 2320 2224 2319 2408
8 2229 2125 2228 2324 2321 2225 2320 2409
8 2231 2127 2230 2326 2323 2227 2322 2411
8 2232 2128 2231 2327 2324 2228 2323 2412
8 2234 2130 2233 2328 2326 2230 2325 2413
8 2235 2131 2234 2329 2327 2231 2326 2414
8 2237 2134 2236 2330 2329 2234 2328 2415
8 2259 2158 2260 2352 2332 2239 2331 2417
8 2257 2157 2259 2350 2334 2240 2332 2419
8 2240 2139 2239 2332 2335 2241 2333 2420
8 2334 2240 2335 2422 2242 2140 2243 2337
8 2335 2241 2336 2423 2243 2141 2244 2338
8 2337 2243 2338 2425 2247 2143 2246 2342
8 2338 2244 2339 2426 2246 2142 2245 2341
8 2341 2245 2340 2428 2249 2145 2248 2343
8 2342 2246 2341 2429 2250 2146 2249 2344
8 2344 2249 2343 2430 2252 2149 2251 2345
8 2188 2285 2347 2254 2284 2374 2432 2346
8 2347 2254 2346 2432 2271 2169 2270 2364
8 2365 2271 2170 2272 2433 2347 2255 2348
8 2286 2189 2285 2375 2348 2255 2347 2433
8 2349 2258 2351 2435 2257 2157 2259 2350
8 2349 2258 2164 2263 2435 2351 2264 2355
8 2259 2158 2261 2351 2352 2260 2354 2437
8 2356 2265 2354 2437 2264 2165 2261 2351
8 2441 2357 2264 2355 2362 2268 2168 2269
8 2356 2265 2165 2264 2442 2358 2266 2357
8 2443 2359 2266 2357 2361 2267 2166 2268
8 2370 2279 2360 2446 2280 2181 2267 2361
8 2362 2268 2182 2281 2447 2361 2280 2371
8 2180 2277 2368 2278 2270 2364 2449 2363
8 2271 2365 2273 2177 2364 2450 2366 2277
8 2372 2283 2186 2282 2451 2368 2276 2367
8 2178 2274 2367 2276 2277 2366 2451 2368
8 2283 2187 2278 2368 2370 2279 2369 2452
8 2372 2283 2370 2453 2282 2186 2280 2371
8 2284 2374 2455 2373 2201 2292 2380 2295
8 2375 2285 2197 2289 2456 2374 2292 2378
8 2376 2291 2204 2296 2457 2379 2297 2383
8 2288 2199 2291 2376 2377 2293 2379 2457
8 2198 2290 2378 2292 2293 2377 2458 2380
8 2293 2202 2294 2379 2380 2295 2381 2459
8 2384 2298 2381 2459 2297 2205 2294 2379
8 2386 2300 2384 2463 2299 2207 2297 2383
8 2387 2301 2385 2464 2300 2208 2298 2384
8 2389 2303 2387 2466 2302 2210 2300 2386
8 2390 2304 2388 2467 2303 2211 2301 2387
8 2392 2306 2390 2469 2305 2213 2303 2389
8 2393 2307 2391 2470 2306 2214 2304 2390
8 2395 2308 2393 2472 2310 2216 2306 2392
8 2308 2215 2309 2396 2393 2307 2394 2473
8 2395 2308 2216 2310 2475 2396 2311 2398
8 2396 2309 2217 2311 2476 2397 2312 2399
8 2398 2311 2219 2315 2478 2399 2314 2403
8 2399 2312 2218 2314 2479 2400 2313 2402
8 2317 2221 2316 2405 2402 2313 2401 2482
8 2403 2314 2222 2318 2483 2402 2317 2406
8 2320 2224 2319 2408 2405 2316 2404 2485
8 2321 2225 2320 2409 2406 2317 2405 2486
8 2323 2227 2322 2411 2408 2319 2407 2488
8 2324 2228 2323 2412 2409 2320 2408 2489
8 2326 2230 2325 2413 2411 2322 2410 2490
8 2327 2231 2326 2414 2412 2323 2411 2491
8 2329 2234 2328 2415 2414 2326 2413 2492
8 2417 2331 2260 2352 2494 2416 2353 2438
8 2350 2259 2352 2436 2419 2332 2417 2496
8 2332 2239 2331 2417 2420 2333 2418 2497
8 2334 2240 2332 2419 2422 2335 2420 2499
8 2420 2333 2421 2500 2335 2241 2336 2423
8 2422 2335 2423 2502 2337 2243 2338 2425
8 2423 2336 2424 2503 2338 2244 2339 2426
8 2425 2338 2426 2505 2342 2246 2341 2429
8 2426 2339 2427 2506 2341 2245 2340 2428
8 2429 2341 2428 2507 2344 2249 2343 2430
8 2432 2346 2284 2374 2509 2431 2373 2455
8 2432 2346 2431 2509 2364 2270 2363 2449
8 2375 2285 2374 2456 2433 2347 2432 2510
8 2347 2433 2365 2271 2432 2510 2450 2364
8 2350 2259 2351 2435 2436 2352 2437 2514
8 2440 2356 2437 2514 2355 2264 2351 2435
8 2352 2260 2354 2437 2438 2353 2439 2516
8 2356 2265 2358 2442 2437 2354 2439 2516
8 2440 2356 2264 2355 2518 2442 2357 2441
8 2519 2443 2357 2441 2447 2361 2268 2362
8 2443 2359 2444 2520 2357 2266 2358 2442
8 2443 2359 2267 2361 2520 2444 2360 2446
8 2446 2360 2279 2370 2523 2445 2369 2452
8 2453 2370 2446 2524 2371 2280 2361 2447
8 2449 2363 2448 2525 2368 2278 2369 2452
8 2366 2277 2364 2450 2451 2368 2449 2526
8 2372 2283 2368 2451 2453 2370 2452 2527
8 2455 2373 2295 2380 2529 2454 2382 2460
8 2456 2374 2292 2378 2530 2455 2380 2458
8 2377 2293 2379 2457 2458 2380 2459 2531
8 2463 2384 2459 2531 2383 2297 2379 2457
8 2533 2461 2382 2460 2459 2381 2295 2380
8 2464 2385 2461 2533 2384 2298 2381 2459
8 2466 2387 2464 2537 2386 2300 2384 2463
8 2467 2388 2465 2538 2387 2301 2385 2464
8 2469 2390 2467 2540 2389 2303 2387 2466
8 2470 2391 2468 2541 2390 2304 2388 2467
8 2472 2393 2470 2543 2392 2306 2390 2469
8 2393 2307 2394 2473 2470 2391 2471 2544
8 2395 2308 2396 2475 2472 2393 2473 2546
8 2396 2309 2397 2476 2473 2394 2474 2547
8 2475 2396 2311 2398 2549 2476 2399 2478
8 2476 2397 2312 2399 2550 2477 2400 2479
8 2478 2399 2314 2403 2552 2479 2402 2483
8 2479 2400 2313 2402 2553 2480 2401 2482
8 2405 2316 2404 2485 2482 2401 2481 2556
8 2406 2317 2405 2486 2483 2402 2482 2557
8 2408 2319 2407 2488 2485 2404 2484 2559
8 2409 2320 2408 2489 2486 2405 2485 2560
8 2411 2322 2410 2490 2488 2407 2487 2561
8 2412 2323 2411 2491 2489 2408 2488 2562
8 2414 2326 2413 2492 2491 2411 2490 2563
8 2513 2434 2493 2565 2438 2353 2416 2494
8 2496 2417 2352 2436 2567 2494 2438 2515
8 2494 2416 2495 2568 2417 2331 2418 2497
8 2419 2332 2417 2496 2499 2420 2497 2570
8 2497 2418 2498 2571 2420 2333 2421 2500
8 2499 2420 2500 2573 2422 2335 2423 2502
8 2500 2421 2501 2574 2423 2336 2424 2503
8 2502 2423 2503 2576 2425 2338 2426 2505
8 2503 2424 2504 2577 2426 2339 2427 2506
8 2505 2426 2506 2578 2429 2341 2428 2507
8 2509 2431 2373 2455 2580 2508 2454 2529
8 2509 2431 2508 2580 2449 2363 2448 2525
8 2432 2510 2581 2509 2374 2456 2530 2455
8 2432 2510 2450 2364 2509 2581 2526 2449
8 2583 2511 2434 2513 2516 2439 2353 2438
8 2436 2352 2437 2514 2515 2438 2516 2588
8 2440 2356 2442 2518 2514 2437 2516 2588
8 2442 2358 2444 2520 2516 2439 2517 2589
8 2519 2443 2520 2591 2441 2357 2442 2518
8 2519 2443 2361 2447 2591 2520 2446 2524
8 2446 2360 2445 2523 2520 2444 2521 2592
8 2525 2448 2522 2593 2452 2369 2445 2523
8 2524 2446 2370 2453 2594 2523 2452 2527
8 2526 2449 2525 2595 2451 2368 2452 2527
8 2534 2462 2528 2597 2460 2382 2454 2529
8 2530 2455 2380 2458 2598 2529 2460 2532
8 2599 2533 2460 2532 2531 2459 2380 2458
8 2537 2464 2533 2599 2463 2384 2459 2531
8 2534 2462 2382 2460 2601 2535 2461 2533
8 2538 2465 2535 2601 2464 2385 2461 2533
8 2540 2467 2538 2604 2466 2387 2464 2537
8 2541 2468 2539 2605 2467 2388 2465 2538
8 2543 2470 2541 2607 2469 2390 2467 2540
8 2470 2391 2471 2544 2541 2468 2542 2608
8 2472 2393 2473 2546 2543 2470 2544 2610
8 2473 2394 2474 2547 2544 2471 2545 2611
8 2475 2396 2476 2549 2546 2473 2547 2613
8 2476 2397 2477 2550 2547 2474 2548 2614
8 2549 2476 2399 2478 2616 2550 2479 2552
8 2479 2400 2480 2553 2550 2477 2551 2617
8 2552 2479 2402 2483 2619 2553 2482 2557
8 2482 2401 2481 2556 2553 2480 2554 2620
8 2485 2404 2484 2559 2556 2481 2555 2623
8 2486 2405 2485 2560 2557 2482 2556 2624
8 2488 2407 2487 2561 2559 2484 2558 2625
8 2489 2408 2488 2562 2560 2485 2559 2626
8 2491 2411 2490 2563 2562 2488 2561 2627
8 2513 2434 2512 2585 2565 2493 2564 2630
8 2586 2513 2565 2632 2515 2438 2494 2567
8 2565 2493 2566 2633 2494 2416 2495 2568
8 2567 2494 2568 2635 2496 2417 2497 2570
8 2568 2495 2569 2636 2497 2418 2498 2571
8 2570 2497 2571 2638 2499 2420 2500 2573
8 2571 2498 2572 2639 2500 2421 2501 2574
8 2573 2500 2574 2641 2502 2423 2503 2576
8 2574 2501 2575 2642 2503 2424 2504 2577
8 2576 2503 2577 2643 2505 2426 2506 2578
8 2597 2528 2579 2645 2529 2454 2508 2580
8 2580 2508 2579 2645 2525 2448 2522 2593
8 2581 2509 2455 2530 2646 2580 2529 2598
8 2581 2509 2580 2646 2526 2449 2525 2595
8 2583 2511 2582 2648 2513 2434 2512 2585
8 2583 2511 2439 2516 2648 2582 2517 2589
8 2649 2583 2513 2586 2588 2516 2438 2515
8 2589 2517 2444 2520 2653 2587 2521 2592
8 2518 2442 2520 2591 2588 2516 2589 2654
8 2593 2522 2590 2655 2523 2445 2521 2592
8 2524 2446 2523 2594 2591 2520 2592 2656
8 2595 2525 2593 2657 2527 2452 2523 2594
8 2602 2536 2596 2659 2534 2462 2528 2597
8 2600 2534 2597 2660 2532 2460 2529 2598
8 2600 2534 2460 2532 2661 2601 2533 2599
8 2604 2538 2601 2661 2537 2464 2533 2599
8 2602 2536 2462 2534 2663 2603 2535 2601
8 2601 2535 2465 2538 2663 2603 2539 2605
8 2607 2541 2605 2665 2540 2467 2538 2604
8 2608 2542 2606 2666 2541 2468 2539 2605
8 2543 2470 2544 2610 2607 2541 2608 2668
8 2544 2471 2545 2611 2608 2542 2609 2669
8 2546 2473 2547 2613 2610 2544 2611 2671
8 2547 2474 2548 2614 2611 2545 2612 2672
8 2549 2476 2550 2616 2613 2547 2614 2674
8 2550 2477 2551 2617 2614 2548 2615 2675
8 2552 2479 2553 2619 2616 2550 2617 2677
8 2553 2480 2554 2620 2617 2551 2618 2678
8 2557 2482 2556 2624 2619 2553 2620 2680
8 2556 2481 2555 2623 2620 2554 2621 2681
8 2559 2484 2558 2625 2623 2555 2622 2683
8 2560 2485 2559 2626 2624 2556 2623 2684
8 2562 2488 2561 2627 2626 2559 2625 2685
8 2690 2629 2564 2630 2650 2584 2512 2585
8 2586 2513 2585 2651 2632 2565 2630 2691
8 2630 2564 2631 2692 2565 2493 2566 2633
8 2632 2565 2633 2694 2567 2494 2568 2635
8 2633 2566 2634 2695 2568 2495 2569 2636
8 2635 2568 2636 2697 2570 2497 2571 2638
8 2636 2569 2637 2698 2571 2498 2572 2639
8 2638 2571 2639 2700 2573 2500 2574 2641
8 2639 2572 2640 2701 2574 2501 2575 2642
8 2641 2574 2642 2702 2576 2503 2577 2643
8 2597 2528 2596 2659 2645 2579 2644 2704
8 2645 2579 2644 2704 2593 2522 2590 2655
8 2660 2597 2645 2705 2598 2529 2580 2646
8 2646 2580 2645 2705 2595 2525 2593 2657
8 2650 2584 2512 2585 2707 2647 2582 2648
8 2648 2582 2517 2589 2707 2647 2587 2653
8 2649 2583 2648 2708 2586 2513 2585 2651
8 2649 2583 2516 2588 2708 2648 2589 2654
8 2655 2590 2652 2710 2592 2521 2587 2653
8 2654 2589 2520 2591 2711 2653 2592 2656
8 2657 2593 2655 2712 2594 2523 2592 2656
8 2602 2536 2603 2663 2659 2596 2658 2714
8 2662 2602 2659 2715 2600 2534 2597 2660
8 2662 2602 2534 2600 2717 2663 2601 2661
8 2661 2601 2538 2604 2717 2663 2605 2665
8 2666 2606 2664 2718 2605 2539 2603 2663
8 2668 2608 2666 2720 2607 2541 2605 2665
8 2608 2542 2609 2669 2666 2606 2667 2721
8 2610 2544 2611 2671 2668 2608 2669 2723
8 2611 2545 2612 2672 2669 2609 2670 2724
8 2613 2547 2614 2674 2671 2611 2672 2726
8 2614 2548 2615 2675 2672 2612 2673 2727
8 2616 2550 2617 2677 2674 2614 2675 2729
8 2617 2551 2618 2678 2675 2615 2676 2730
8 2619 2553 2620 2680 2677 2617 2678 2732
8 2620 2554 2621 2681 2678 2618 2679 2733
8 2624 2556 2623 2684 2680 2620 2681 2735
8 2681 2621 2555 2623 2736 2682 2622 2683
8 2626 2559 2625 2685 2684 2623 2683 2737
8 2688 2628 2584 2650 2740 2686 2647 2707
8 2688 2628 2687 2742 2650 2584 2629 2690
8 2690 2629 2689 2745 2630 2564 2631 2692
8 2746 2690 2630 2691 2709 2650 2585 2651
8 2691 2630 2692 2747 2632 2565 2633 2694
8 2692 2631 2693 2748 2633 2566 2634 2695
8 2694 2633 2695 2750 2635 2568 2636 2697
8 2695 2634 2696 2751 2636 2569 2637 2698
8 2697 2636 2698 2753 2638 2571 2639 2700
8 2698 2637 2699 2754 2639 2572 2640 2701
8 2700 2639 2701 2755 2641 2574 2642 2702
8 2659 2596 2658 2714 2704 2644 2703 2757
8 2704 2644 2703 2757 2655 2590 2652 2710
8 2660 2597 2659 2715 2705 2645 2704 2758
8 2705 2645 2704 2758 2657 2593 2655 2712
8 2759 2706 2647 2707 2710 2652 2587 2653
8 2709 2650 2585 2651 2760 2707 2648 2708
8 2708 2648 2589 2654 2760 2707 2653 2711
8 2712 2655 2710 2761 2656 2592 2653 2711
8 2763 2713 2658 2714 2718 2664 2603 2663
8 2662 2602 2663 2717 2715 2659 2714 2764
8 2720 2666 2718 2767 2665 2605 2663 2717
8 2768 2719 2664 2718 2721 2667 2606 2666
8 2668 2608 2669 2723 2720 2666 2721 2770
8 2669 2609 2670 2724 2721 2667 2722 2771
8 2671 2611 2672 2726 2723 2669 2724 2773
8 2672 2612 2673 2727 2724 2670 2725 2774
8 2674 2614 2675 2729 2726 2672 2727 2776
8 2675 2615 2676 2730 2727 2673 2728 2777
8 2677 2617 2678 2732 2729 2675 2730 2779
8 2678 2618 2679 2733 2730 2676 2731 2780
8 2680 2620 2681 2735 2732 2678 2733 2782
8 2733 2679 2621 2681 2783 2734 2682 2736
8 2735 2681 2623 2684 2784 2736 2683 2737
8 2740 2686 2647 2707 2787 2738 2706 2759
8 2688 2628 2686 2740 2742 2687 2739 2789
8 2743 2688 2650 2709 2790 2740 2707 2760
8 2742 2687 2741 2792 2690 2629 2689 2745
8 2743 2688 2742 2793 2709 2650 2690 2746
8 2745 2689 2744 2795 2692 2631 2693 2748
8 2746 2690 2745 2796 2691 2630 2692 2747
8 2747 2692 2748 2797 2694 2633 2695 2750
8 2748 2693 2749 2798 2695 2634 2696 2751
8 2750 2695 2751 2800 2697 2636 2698 2753
8 2751 2696 2752 2801 2698 2637 2699 2754
8 2753 2698 2754 2802 2700 2639 2701 2755
8 2763 2713 2756 2804 2714 2658 2703 2757
8 2759 2706 2652 2710 2804 2756 2703 2757
8 2715 2659 2714 2764 2758 2704 2757 2805
8 2758 2704 2757 2805 2712 2655 2710 2761
8 2806 2759 2707 2760 2761 2710 2653 2711
8 2765 2716 2762 2808 2718 2664 2713 2763
8 2809 2763 2714 2764 2767 2718 2663 2717
8 2765 2716 2664 2718 2811 2766 2719 2768
8 2813 2768 2718 2767 2770 2721 2666 2720
8 2814 2769 2719 2768 2771 2722 2667 2721
8 2723 2669 2724 2773 2770 2721 2771 2816
8 2724 2670 2725 2774 2771 2722 2772 2817
8 2726 2672 2727 2776 2773 2724 2774 2819
8 2727 2673 2728 2777 2774 2725 2775 2820
8 2729 2675 2730 2779 2776 2727 2777 2822
8 2730 2676 2731 2780 2777 2728 2778 2823
8 2732 2678 2733 2782 2779 2730 2780 2825
8 2780 2731 2679 2733 2826 2781 2734 2783
8 2782 2733 2681 2735 2827 2783 2736 2784
8 2830 2785 2738 2787 2804 2756 2706 2759
8 2789 2739 2686 2740 2832 2786 2738 2787
8 2790 2740 2707 2760 2833 2787 2759 2806
8 2742 2687 2739 2789 2792 2741 2788 2835
8 2743 2688 2740 2790 2793 2742 2789 2836
8 2792 2741 2791 2838 2745 2689 2744 2795
8 2793 2742 2792 2839 2746 2690 2745 2796
8 2795 2744 2794 2841 2748 2693 2749 2798
8 2796 2745 2795 2842 2747 2692 2748 2797
8 2797 2748 2798 2843 2750 2695 2751 2800
8 2798 2749 2799 2844 2751 2696 2752 2801
8 2800 2751 2801 2845 2753 2698 2754 2802
8 2808 2762 2803 2847 2763 2713 2756 2804
8 2809 2763 2804 2848 2764 2714 2757 2805
8 2806 2759 2710 2761 2848 2804 2757 2805
8 2765 2716 2766 2811 2808 2762 2807 2850
8 2810 2765 2808 2851 2767 2718 2763 2809
8 2810 2765 2718 2767 2852 2811 2768 2813
8 2811 2766 2719 2768 2853 2812 2769 2814
8 2855 2814 2768 2813 2816 2771 2721 2770
8 2856 2815 2769 2814 2817 2772 2722 2771
8 2773 2724 2774 2819 2816 2771 2817 2858
8 2774 2725 2775 2820 2817 2772 2818 2859
8 2776 2727 2777 2822 2819 2774 2820 2861
8 2777 2728 2778 2823 2820 2775 2821 2862
8 2779 2730 2780 2825 2822 2777 2823 2864
8 2823 2778 2731 2780 2865 2824 2781 2826
8 2825 2780 2733 2782 2866 2826 2783 2827
8 2869 2828 2785 2830 2847 2803 2756 2804
8 2871 2829 2786 2832 2830 2785 2738 2787
8 2872 2830 2787 2833 2848 2804 2759 2806
8 2789 2739 2786 2832 2835 2788 2831 2874
8 2836 2789 2740 2790 2875 2832 2787 2833
8 2792 2741 2788 2835 2838 2791 2834 2877
8 2793 2742 2789 2836 2839 2792 2835 2878
8 2838 2791 2837 2880 2795 2744 2794 2841
8 2839 2792 2838 2881 2796 2745 2795 2842
8 2841 2794 2840 2882 2798 2749 2799 2844
8 2842 2795 2841 2883 2797 2748 2798 2843
8 2843 2798 2844 2884 2800 2751 2801 2845
8 2886 2846 2803 2847 2850 2807 2762 2808
8 2851 2808 2847 2887 2809 2763 2804 2848
8 2850 2807 2766 2811 2889 2849 2812 2853
8 2810 2765 2811 2852 2851 2808 2850 2890
8 2852 2811 2768 2813 2891 2853 2814 2855
8 2853 2812 2769 2814 2892 2854 2815 2856
8 2894 2856 2814 2855 2858 2817 2771 2816
8 2817 2772 2818 2859 2856 2815 2857 2895
8 2819 2774 2820 2861 2858 2817 2859 2897
8 2820 2775 2821 2862 2859 2818 2860 2898
8 2822 2777 2823 2864 2861 2820 2862 2900
8 2823 2778 2824 2865 2862 2821 2863 2901
8 2864 2823 2780 2825 2902 2865 2826 2866
8 2904 2867 2828 2869 2886 2846 2803 2847
8 2869 2828 2868 2906 2830 2785 2829 2871
8 2907 2869 2830 2872 2887 2847 2804 2848
8 2871 2829 2870 2909 2832 2786 2831 2874
8 2910 2871 2832 2875 2872 2830 2787 2833
8 2835 2788 2831 2874 2877 2834 2873 2912
8 2836 2789 2832 2875 2878 2835 2874 2913
8 2877 2834 2876 2915 2838 2791 2837 2880
8 2839 2792 2835 2878 2881 2838 2877 2916
8 2880 2837 2879 2917 2841 2794 2840 2882
8 2881 2838 2880 2918 2842 2795 2841 2883
8 2883 2841 2882 2919 2843 2798 2844 2884
8 2921 2885 2846 2886 2889 2849 2807 2850
8 2922 2886 2847 2887 2890 2850 2808 2851
8 2889 2849 2812 2853 2924 2888 2854 2892
8 2890 2850 2811 2852 2925 2889 2853 2891
8 2891 2853 2814 2855 2926 2892 2856 2894
8 2892 2854 2815 2856 2927 2893 2857 2895
8 2858 2817 2859 2897 2894 2856 2895 2929
8 2859 2818 2860 2898 2895 2857 2896 2930
8 2861 2820 2862 2900 2897 2859 2898 2932
8 2862 2821 2863 2901 2898 2860 2899 2933
8 2864 2823 2865 2902 2900 2862 2901 2934
8 2904 2867 2846 2886 2936 2903 2885 2921
8 2904 2867 2903 2936 2869 2828 2868 2906
8 2937 2904 2869 2907 2922 2886 2847 2887
8 2906 2868 2905 2939 2871 2829 2870 2909
8 2907 2869 2906 2940 2872 2830 2871 2910
8 2909 2870 2908 2942 2874 2831 2873 2912
8 2910 2871 2909 2943 2875 2832 2874 2913
8 2912 2873 2911 2945 2877 2834 2876 2915
8 2878 2835 2874 2913 2916 2877 2912 2946
8 2915 2876 2914 2947 2880 2837 2879 2917
8 2916 2877 2915 2948 2881 2838 2880 2918
8 2918 2880 2917 2949 2883 2841 2882 2919
8 2921 2885 2849 2889 2951 2920 2888 2924
8 2952 2921 2886 2922 2925 2889 2850 2890
8 2924 2888 2854 2892 2954 2923 2893 2927
8 2925 2889 2853 2891 2955 2924 2892 2926
8 2926 2892 2856 2894 2956 2927 2895 2929
8 2895 2857 2896 2930 2927 2893 2928 2957
8 2897 2859 2898 2932 2929 2895 2930 2959
8 2898 2860 2899 2933 2930 2896 2931 2960
8 2900 2862 2901 2934 2932 2898 2933 2961
8 2936 2903 2885 2921 2963 2935 2920 2951
8 2936 2903 2935 2963 2906 2868 2905 2939
8 2937 2904 2886 2922 2964 2936 2921 2952
8 2937 2904 2936 2964 2907 2869 2906 2940
8 2939 2905 2938 2966 2909 2870 2908 2942
8 2940 2906 2939 2967 2910 2871 2909 2943
8 2942 2908 2941 2969 2912 2873 2911 2945
8 2943 2909 2942 2970 2913 2874 2912 2946
8 2945 2911 2944 2971 2915 2876 2914 2947
8 2946 2912 2945 2972 2916 2877 2915 2948
8 2948 2915 2947 2973 2918 2880 2917 2949
8 2951 2920 2888 2924 2975 2950 2923 2954
8 2952 2921 2889 2925 2976 2951 2924 2955
8 2927 2893 2928 2957 2954 2923 2953 2978
8 2955 2924 2892 2926 2979 2954 2927 2956
8 2929 2895 2930 2959 2956 2927 2957 2980
8 2930 2896 2931 2960 2957 2928 2958 2981
8 2932 2898 2933 2961 2959 2930 2960 2982
8 2951 2920 2950 2975 2963 2935 2962 2984
8 2963 2935 2962 2984 2939 2905 2938 2966
8 2964 2936 2921 2952 2985 2963 2951 2976
8 2964 2936 2963 2985 2940 2906 2939 2967
8 2966 2938 2965 2987 2942 2908 2941 2969
8 2967 2939 2966 2988 2943 2909 2942 2970
8 2969 2941 2968 2989 2945 2911 2944 2971
8 2970 2942 2969 2990 2946 2912 2945 2972
8 2972 2945 2971 2991 2948 2915 2947 2973
8 2954 2923 2953 2978 2975 2950 2974 2993
8 2976 2951 2924 2955 2994 2975 2954 2979
8 2957 2928 2958 2981 2978 2953 2977 2995
8 2956 2927 2957 2980 2979 2954 2978 2996
8 2959 2930 2960 2982 2980 2957 2981 2997
8 2984 2962 2983 2999 2966 2938 2965 2987
8 2975 2950 2974 2993 2984 2962 2983 2999
8 2976 2951 2975 2994 2985 2963 2984 3000
8 2985 2963 2984 3000 2967 2939 2966 2988
8 2987 2965 2986 3001 2969 2941 2968 2989
8 2988 2966 2987 3002 2970 2942 2969 2990
8 2990 2969 2989 3003 2972 2945 2971 2991
8 2978 2953 2977 2995 2993 2974 2992 3004
8 2979 2954 2978 2996 2994 2975 2993 3005
8 2980 2957 2981 2997 2996 2978 2995 3006
8 2974 2993 2999 2983 2992 3004 3007 2998
8 2983 2999 2987 2965 2998 3007 3001 2986
8 3000 2984 2999 3008 2988 2966 2987 3002
8 2994 2975 2993 3005 3000 2984 2999 3008
8 3002 2987 3001 3009 2990 2969 2989 3003
8 2996 2978 2995 3006 3005 2993 3004 3010
8 3005 2993 3004 3010 3008 2999 3007 3011
8 3008 2999 3007 3011 3002 2987 3001 3009

CELL_TYPES 1910
12
12
12
12
12
12
12
12
12
12
12
12
12
12
12
12
12
12
12
12
12
12
12
12
12
12
12
12
12
12
12
12
12
12
12
12
12
12
12
12
12
12
12
12
12
12
12
12
12
12
12
12
12
12
12
12
12
12
12
12
12
12
12
12
12
12
12
12
12
12
12
12
12
12
12
12
12
12
12
12
12
12
12
12
12
12
12
12
12
12
12
12
12
12
12
12
12
12
12
12
12
12
12
12
12
12
12
12
12
12
12
12
12
12
12
12
12
12
12
12
12
12
12
12
12
12
12
12
12
12
12
12
12
12
12
12
12
12
12
12
12
12
12
12
12
12
12
12
12
12
12
12
12
12
12
12
12
12
12
12
12
12
12
12
12
12
12
12
12
12
12
12
12
12
12
12
12
12
12
12
12
12
12
12
12
12
12
12
12
12
12
12
12
12
12
12
12
12
12
12
12
12
12
12
12
12
12
12
12
12
12
12
12
12
12
12
12
12
12
12
12
12
12
12
12
12
12
12
12
12
12
12
12
12
12
12
12
12
12
12
12
12
12
12
12
12
12
12
12
12
12
12
12
12
12
12
12
12
12
12
12
12
12
12
12
12
12
12
12
12
12
12
12
12
12
12
12
12
12
12
12
12
12
12
12
12
12
12
12
12
12
12
12
12
12
12
12
12
12
12
12
12
12
12
12
12
12
12
12
12
12
12
12
12
12
12
12
12
12
12
12
12
12
12
12
12
12
12
12
12
12
12
12
12
12
12
12
12
12
12
12
12
12
12
12
12
12
12
12
12
12
12
12
12
12
12
12
12
12
12
12
12
12
12
12
12
12
12
12
12
12
12
12
12
12
12
12
12
12
12
12
12
12
12
12
12
12
12
12
12
12
12
12
12
12
12
12
12
12
12
12
12
12
12
12
12
12
12
12
12
12
12
12
12
12
12
12
12
12
12
12
12
12
12
12
12
12
12
12
12
12
12
12
12
12
12
12
12
12
12
12
12
12
12
12
12
12
12
12
12
12
12
12
12
12
12
12
12
12
12
12
12
12
12
12
12
12
12
12
12
12
12
12
12
12
12
12
12
12
12
12
12
12
12
12
12
12
12
12
12
12
12
12
12
12
12
12
12
12
12
12
12
12
12
12
12
12
12
12
12
12
12
12
12
12
12
12
12
12
12
12
12
12
12
12
12
12
12
12
12
12
12
12
12
12
12
12
12
12
12
12
12
12
12
12
12
12
12
12
12
12
12
12
12
12
12
12
12
12
12
12
12
12
12
12
12
12
12
12
12
12
12
12
12
12
12
12
12
12
12
12
12
12
12
12
12
12
12
12
12
12
12
12
12
12
12
12
12
12
12
12
12
12
12
12
12
12
12
12
12
12
12
12
12
12
12
12
12
12
12
12
12
12
12
12
12
12
12
12
12
12
12
12
12
12
12
12
12
12
12
12
12
12
12
12
12
12
12
12
12
12
12
12
12
12
12
12
12
12
12
12
12
12
12
12
12
12
12
12
12
12
12
12
12
12
12
12
12
12
12
12
12
12
12
12
12
12
12
12
12
12
12
12
12
12
12
12
12
12
12
12
12
12
12
12
12
12
12
12
12
12
12
12
12
12
12
12
12
12
12
12
12
12
12
12
12
12
12
12
12
12
12
12
12
12
12
12
12
12
12
12
12
12
12
12
12
12
12
12
12
12
12
12
12
12
12
12
12
12
12
12
12
12
12
12
12
12
12
12
12
12
12
12
12
12
12
12
12
12
12
12
12
12
12
12
12
12
12
12
12
12
12
12
12
12
12
12
12
12
12
12
12
12
12
12
12
12
12
12
12
12
12
12
12
12
12
12
12
12
12
12
12
12
12
12
12
12
12
12
12
12
12
12
12
12
12
12
12
12
12
12
12
12
12
12
12
12
12
12
12
12
12
12
12
12
12
12
12
12
12
12
12
12
12
12
12
12
12
12
12
12
12
12
12
12
12
12
12
12
12
12
12
12
12
12
12
12
12
12
12
12
12
12
12
12
12
12
12
12
12
12
12
12
12
12
12
12
12
12
12
12
12
12
12
12
12
12
12
12
12
12
12
12
12
12
12
12
12
12
12
12
12
12
12
12
12
12
12
12
12
12
12
12
12
12
12
12
12
12
12
12
12
12
12
12
12
12
12
12
12
12
12
12
12
12
12
12
12
12
12
12
12
12
12
12
12
12
12
12
12
12
12
12
12
12
12
12
12
12
12
12
12
12
12
12
12
12
12
12
12
12
12
12
12
12
12
12
12
12
12
12
12
12
12
12
12
12
12
12
12
12
12
12
12
12
12
12
12
12
12
12
12
12
12
12
12
12
12
12
12
12
12
12
12
12
12
12
12
12
12
12
12
12
12
12
12
12
12
12
12
12
12
12
12
12
12
12
12
12
12
12
12
12
12
12
12
12
12
12
12
12
12
12
12
12
12
12
12
12
12
12
12
12
12
12
12
12
12
12
12
12
12
12
12
12
12
12
12
12
12
12
12
12
12
12
12
12
12
12
12
12
12
12
12
12
12
12
12
12
12
12
12
12
12
12
12
12
12
12
12
12
12
12
12
12
12
12
12
12
12
12
12
12
12
12
12
12
12
12
12
12
12
12
12
12
12
12
12
12
12
12
12
12
12
12
12
12
12
12
12
12
12
12
12
12
12
12
12
12
12
12
12
12
12
12
12
12
12
12
12
12
12
12
12
12
12
12
12
12
12
12
12
12
12
12
12
12
12
12
12
12
12
12
12
12
12
12
12
12
12
12
12
12
12
12
12
12
12
12
12
12
12
12
12
12
12
12
12
12
12
12
12
12
12
12
12
12
12
12
12
12
12
12
12
12
12
12
12
12
12
12
12
12
12
12
12
12
12
12
12
12
12
12
12
12
12
12
12
12
12
12
12
12
12
12
12
12
12
12
12
12
12
12
12
12
12
12
12
12
12
12
12
12
12
12
12
12
12
12
12
12
12
12
12
12
12
12
12
12
12
12
12
12
12
12
12
12
12
12
12
12
12
12
12
12
12
12
12
12
12
12
12
12
12
12
12
12
12
12
12
12
12
12
12
12
12
12
12
12
12
12
12
12
12
12
12
12
12
12
12
12
12
12
12
12
12
12
12
12
12
12
12
12
12
12
12
12
12
12
12
12
12
12
12
12
12
12
12
12
12
12
12
12
12
12
12
12
12
12
12
12
12
12
12
12
12
12
12
12
12
12
12
12
12
12
12
12
12
12
12
12
12
12
12
12
12
12
12
12
12
12
12
12
12
12
12
12
12
12
12
12
12
12
12
12
12
12
12
12
12
12
12
12
12
12
12
12
12
12
12
12
12
12
12
12
12
12
12
12
12
12
12
12
12
12
12
12
12
12
12
12
12
12
12
12
12
12
12
12
12
12
12
12
12
12
12
12
12
12
12
12
12
12
12
12
12
12
12
12
12
12
12
12
12
12
12
12
12
12
12
12
12
12
12
12
12
12
12
12
12
12
12
12
12
12
12
12
12
12
12
12
12
12
12
12
12
12
12
12
12
12
12
12
12
12
12
12
12
12
12
12
12
12
12
12
12
12
12
12
12
12
12
12
12
12
12
12
12
12
12
12
12
12
12
12
12
12
12
12
12
12
12
12
12
12
12
12
12
12
12
12
12
12
12
12
12
12
12
12
12
12
12
12
12
12
12
12
12
12
12
12
12
12
12
12
12
12
12
12
12
12
12
12
12
12
12
12
12
12
12
12
12
12
12
12
12
12
12
12
12
12
12
12
12
12
12
12
12
12
12
12
12
12
12
12
12
12
12
12
12
12
12
12
12
12
12
12
12
12
12
12
12
12
12
12
12
12
12
12
12
12
12
12
12
12
12
12
12
12
12
12
12
12
12
12
12
12
12
12
12
12
12
12
12
12
12
12
12
12
12
12
12
12
12
12
12
12
12
12
12
12
12
12
12
12
12
12
12
12
12
12
12
12
12
12
12
12
12
12
12
12
12
12
12
12
12
12
12
12
12
12
12
12
12
12
12
12
12
12
12
12
12
12
12
12
12
12
12
12
12
12
12
12
12
12
12
12
12
12
12
12
12
12
12
12
12
12
12
12
12
12
12
12
12
12
12
12
12
12
12
12
12
12
12
12
12
12
12
12
12
12
12
12
12
12
12
12
12
12
12
12
12
12
12
12
12
12
12
12
12
12
12
12
12
12
12
12
12
12
12
12
12
12
12
12
12
12
12
12
12
12
12
12
12
12
12
12
12
12
12
12
12
12
12
12
12
12
12
12
12
12
12
12
12
12
12
12
12
12
12

POINT_DATA 3012
SCALARS Jp_lamdaP float 4
LOOKUP_TABLE default
0.999939 1 1 0.999939
1 1 1 1
0.999942 1 1 0.999942
0.999909 1 1 0.999909
0.999936 1 1 0.999936
0.999944 1 1 0.999944
0.999596 1 1 0.999596
1 1 1 1
1 1 1 1
1 1 1 1
0.999993 1 1 0.999993
0.999766 1 1 0.999766
0.999869 1 1 0.999869
0.999901 1 1 0.999901
0.999942 1 1 0.999942
0.999918 1 1 0.999918
0.999948 1 1 0.999948
0.999941 1 1 0.999941
0.999599 1 1 0.999599
1 1 1 1
0.999896 1 1 0.999896
0.999924 1 1 0.999924
0.999478 1 1 0.999478
0.999562 1 1 0.999562
0.999967 1 1 0.999967
0.999642 1 1 0.999642
0.999041 1 1 0.999041
1 1 1 1
0.99996 1 1 0.99996
0.999974 1 1 0.999974
1 1 1 1
0.999773 1 1 0.999773
0.999916 1 1 0.999916
0.999938 1 1 0.999938
0.999647 1 1 0.999647
1 1 1 1
0.999738 1 1 0.999738
0.999835 1 1 0.999835
0.999135 1 1 0.999135
1 1 1 1
1 1 1 1
0.999949 1 1 0.999949
1 1 1 1
0.999891 1 1 0.999891
0.999419 1 1 0.999419
1 1 1 1
0.999571 1 1 0.999571
0.999925 1 1 0.999925
0.999943 1 1 0.999943
0.999951 1 1 0.999951
0.999604 1 1 0.999604
0.999934 1 1 0.999934
0.999905 1 1 0.999905
0.999972 1 1 0.999972
0.999931 1 1 0.999931
0.999479 1 1 0.999479
0.999647 1 1 0.999647
0.999565 1 1 0.999565
0.999027 1 1 0.999027
1 1 1 1
0.999881 1 1 0.999881
0.999522 1 1 0.999522
0.99945 1 1 0.99945
0.999519 1 1 0.999519
0.998759 1 1 0.998759
0.998894 1 1 0.998894
0.999992 1 1 0.999992
0.999746 1 1 0.999746
0.999154 1 1 0.999154
0.998488 1 1 0.998487
1 1 1 1
1 1 1 1
1 1 1 1
0.999781 1 1 0.999781
1 1 1 1
1 1 1 1
0.999613 1 1 0.999613
1 1 1 1
0.99972 1 1 0.99972
0.999855 1 1 0.999855
0.999133 1 1 0.999133
1 1 1 1
0.999994 1 1 0.999994
0.999564 1 1 0.999564
0.999651 1 1 0.999651
0.998753 1 1 0.998753
0.999917 1 1 0.999917
0.999042 1 1 0.999042
0.999237 1 1 0.999237
0.998742 1 1 0.998742
1 1 1 1
1 1 1 1
1 1 1 1
1 1 1 1
1 1 1 1
0.999941 1 1 0.999941
0.99947 1 1 0.99947
0.999953 1 1 0.999953
0.999549 1 1 0.999549
1 1 1 1
0.999392 1 1 0.999392
0.999539 1 1 0.999539
0.998437 1 1 0.998437
0.999597 1 1 0.999597
0.998543 1 1 0.998543
0.999882 1 1 0.999882
0.999913 1 1 0.999913
0.999978 1 1 0.999978
0.999937 1 1 0.999937
0.999481 1 1 0.999481
0.999569 1 1 0.999569
0.999651 1 1 0.999651
0.999013 1 1 0.999013
1 1 1 1
0.999891 1 1 0.999891
0.999416 1 1 0.999416
0.99945 1 1 0.99945
0.999996 1 1 0.999996
0.999783 1 1 0.999783
0.999522 1 1 0.999522
0.998727 1 1 0.998727
0.999135 1 1 0.999135
0.998917 1 1 0.998917
0.998514 1.00002 1 0.998489
0.999411 1 1 0.999411
0.999423 1 1 0.999423
0.998551 1 1 0.998551
0.998658 1 1 0.998658
0.998783 1 1 0.998783
0.999601 1.00136 1 0.998248
1 1 1 1
0.998555 1.00015 1 0.998409
0.999901 1 1 0.999901
0.999223 1 1 0.999223
0.998568 1 1 0.998568
1.00008 1.00181 1 0.998269
0.999968 1 1 0.999968
0.999542 1 1 0.999542
1 1 1 1
1 1 1 1
0.99962 1 1 0.99962
1 1 1 1
0.999869 1 1 0.999869
0.999724 1 1 0.999724
0.999131 1 1 0.999131
1 1 1 1
0.999996 1 1 0.999996
0.999595 1 1 0.999595
0.999681 1 1 0.999681
0.998756 1 1 0.998756
0.999933 1 1 0.999933
0.999044 1 1 0.999044
0.999237 1 1 0.999237
0.998728 1 1 0.998728
0.999969 1 1 0.999969
1 1 1 1
0.999649 1 1 0.999649
0.998646 1 1 0.998646
0.998902 1 1 0.998902
0.999777 1.00148 1 0.998302
0.999369 1 1 0.999369
0.998633 1 1 0.99863
0.999057 1 1.00024 0.998821
0.998595 1 1 0.998595
1 1 1 1
1 1 1 1
1 1 1 1
0.999986 1 1 0.999986
1 1 1 1
1 1 1 1
1 1 1 1
0.999525 1 1 0.999525
0.99944 1 1 0.99944
1 1 1 1
1 1 1 1
0.999394 1 1 0.999394
0.999517 1 1 0.999517
0.998437 1 1 0.998437
0.999549 1 1 0.999549
0.998543 1 1 0.998543
0.999381 1 1 0.999381
0.998378 1 1 0.998378
0.9985 1 1 0.9985
1.00219 1.00417 1 0.99803
0.998583 1 1 0.998583
1.00125 1.00312 1 0.998133
1 1 1 1
0.9999 1 1 0.9999
0.999304 1 1 0.999304
0.999451 1 1 0.999451
1 1 1 1
0.999821 1 1 0.999821
0.999525 1 1 0.999525
0.998695 1 1 0.998695
0.998939 1 1 0.998939
0.999115 1 1 0.999115
0.998538 1.00005 1 0.998492
0.999408 1 1 0.999408
0.999423 1 1 0.999423
0.998485 1 1 0.998485
0.998682 1 1 0.998682
1 1 1 1
0.999889 1 1 0.999889
0.999252 1 1 0.999252
0.998783 1 1 0.998783
0.999626 1.00142 1 0.998211
0.998563 1 1 0.998563
0.998678 1.00025 1 0.99843
1.00011 1.00184 1 0.998273
0.999961 1 1 0.999961
0.999542 1 1 0.999542
0.998393 1 1 0.998393
0.998612 1 1 0.998612
1.00115 1.00304 1 0.998115
0.999852 1.00173 1 0.998127
0.998882 1.00054 1 0.998341
1.00425 1.00618 1 0.998087
0.999942 1 1 0.999942
1.00077 1.00256 1 0.998216
0.999324 1 1 0.999324
0.998721 1 1 0.998721
0.999731 1.00139 1 0.998343
1.00339 1.00518 1 0.998218
0.999441 1 1 0.999441
0.999664 1 1 0.999664
0.999124 1 1 0.999124
0.999579 1 1 0.999579
1 1 1 1
0.999999 1 1 0.999999
0.999675 1 1 0.999675
0.998758 1 1 0.998758
0.999947 1 1 0.999947
0.999237 1 1 0.999237
0.999047 1 1 0.999047
0.998714 1 1 0.998714
0.999977 1 1 0.999977
1 1 1 1
0.999651 1 1 0.999651
0.998647 1 1 0.998647
0.998907 1 1 0.998907
0.999428 1.00113 1 0.998301
0.99937 1 1 0.99937
0.998654 1.00001 1 0.998641
0.998893 1 1.00007 0.998819
0.998584 1 1 0.998584
1 1 1 1
0.999501 1 1 0.999501
0.99979 1 1 0.99979
0.999237 1 1 0.999237
1.00079 1.00259 1 0.998206
0.998898 1.00043 1 0.998474
1.00373 1.00564 1 0.998098
0.99912 1 1.00015 0.998971
0.999618 1.00115 1 0.998474
0.999796 1 1.00123 0.998566
0.998918 1.00045 1 0.998467
0.999941 1 1 0.999941
1 1 1 1
1 1 1 1
1 1 1 1
1 1 1 1
0.999995 1 1 0.999995
1 1 1 1
0.999981 1 1 0.999981
1 1 1 1
0.99955 1 1 0.99955
0.999489 1 1 0.999489
0.998543 1 1 0.998543
0.998438 1 1 0.998438
0.999396 1 1 0.999396
1 1 1 1
0.99938 1 1 0.99938
0.998378 1 1 0.998378
0.9985 1 1 0.9985
1.00203 1.00401 1 0.998029
0.998583 1 1 0.998583
1.0013 1.00317 1 0.998133
0.998365 1 1 0.998365
1.00234 1.00437 1 0.997973
1.00164 1.00356 1 0.998089
1.01062 1.01269 1 0.997961
1.00128 1.00312 1 0.998164
1.00842 1.01041 1 0.998031
0.999405 1 1 0.999405
0.999423 1 1 0.999423
0.998419 1 1 0.998419
0.998706 1 1 0.998706
1 1 1 1
0.999876 1 1 0.999876
0.999281 1 1 0.999281
0.998784 1 1 0.998784
0.999646 1.00147 1 0.998175
0.998804 1.00035 1 0.998451
0.998557 1 1 0.998557
1.0002 1.00192 1 0.998277
0.999955 1 1 0.999955
0.999542 1 1 0.999542
0.998373 1 1 0.998373
0.99861 1 1 0.99861
1.00134 1.00324 1 0.998103
1.00004 1.00188 1 0.998165
0.999933 1 1 0.999933
0.999323 1 1 0.999323
0.998752 1 1 0.998752
0.99899 1.00065 1 0.998341
1.00459 1.00652 1 0.998084
0.999712 1.0014 1 0.998313
1.00106 1.00285 1 0.998218
1.00362 1.00541 1 0.998218
0.999444 1 1 0.999444
0.999123 1 1 0.999123
0.999662 1 1 0.999662
1.00175 1.00371 1 0.998052
1.00116 1.00303 1 0.998138
1.00951 1.01158 1 0.997958
1.00608 1.00808 1 0.998016
1.00243 1.00428 1 0.998153
1.01025 1.01214 1 0.998126
0.999388 1 1 0.999388
1.00561 1.00743 1 0.998196
0.998958 1 1 0.998958
0.99882 1.00041 1 0.998413
1.00163 1.00346 1 0.998174
1.00758 1.0093 1 0.998295
0.99976 1 1 0.99976
0.999106 1 1 0.999106
0.999183 1 1 0.999183
0.998977 1 1 0.998977
0.998648 1 1 0.998648
1 1 1 1
0.999986 1 1 0.999986
0.999652 1 1 0.999652
0.998911 1 1 0.998911
0.999129 1.00083 1 0.9983
0.999371 1 1 0.999371
0.998816 1 1 0.998816
0.998651 1 1 0.998651
0.998573 1 1 0.998573
1 1 1 1
0.999501 1 1 0.999501
0.999795 1 1 0.999795
0.999234 1 1 0.999234
1.00048 1.00228 1 0.998204
0.998781 1.00031 1 0.998476
1.00359 1.0055 1 0.998097
0.999091 1 1.00012 0.998974
0.999215 1.00073 1 0.998488
0.999792 1 1.00124 0.998556
0.998732 1.0002 1 0.998535
1 1 1 1
0.999874 1 1 0.999874
0.999113 1 1 0.999113
0.999376 1 1 0.999376
0.999092 1 1.00009 0.999006
1.00533 1.0073 1 0.998041
1.00168 1.00342 1 0.998275
1.00659 1.00855 1 0.998055
1.00026 1 1.00158 0.998678
0.999648 1.00125 1 0.998399
0.999355 1.00018 1.00086 0.998313
0.99993 1 1 0.99993
0.999654 1 1 0.999654
0.999949 1 1 0.999949
0.999944 1 1 0.999944
1 1 1 1
1 1 1 1
1 1 1 1
1 1 1 1
1 1 1 1
0.999999 1 1 0.999999
1 1 1 1
0.999993 1 1 0.999993
1 1 1 1
0.999977 1 1 0.999977
1 1 1 1
0.998583 1 1 0.998583
0.9985 1 1 0.9985
1.00135 1.00323 1 0.998133
1.00186 1.00384 1 0.998028
0.998379 1 1 0.998379
0.99938 1 1 0.99938
0.998365 1 1 0.998365
1.00233 1.00436 1 0.997974
1.00147 1.00339 1 0.998089
1.0108 1.01287 1 0.997962
1.0012 1.00305 1 0.998163
1.00787 1.00986 1 0.998031
1.00228 1.00433 1 0.997959
1.01212 1.01423 1 0.99792
1.0096 1.01163 1 0.997996
1.01625 1.01827 1 0.998014
1.00666 1.00864 1 0.998042
1.01255 1.01443 1 0.99814
0.998352 1 1 0.998352
0.998609 1 1 0.998609
1.00151 1.00343 1 0.998092
1.00022 1.00202 1 0.998202
0.999924 1 1 0.999924
0.999321 1 1 0.999321
0.998783 1 1 0.998783
0.999102 1.00076 1 0.998342
1.00493 1.00687 1 0.99808
1.00136 1.00314 1 0.998219
0.999653 1.00137 1 0.998282
1.00384 1.00563 1 0.998218
0.999446 1 1 0.999446
0.999121 1 1 0.999121
0.99966 1 1 0.99966
1.00192 1.00391 1 0.99802
1.00112 1.00299 1 0.998137
1.00945 1.01152 1 0.997954
1.00659 1.00859 1 0.998022
0.999389 1 1 0.999389
0.998953 1 1 0.998953
0.998912 1.00042 1.00003 0.998455
1.0027 1.00455 1 0.998162
1.00973 1.01161 1 0.998144
1.00177 1.00363 1 0.99815
1.00563 1.00744 1 0.998198
1.00701 1.00871 1 0.998309
0.999109 1 1 0.999109
0.99896 1 1 0.99896
0.999757 1 1 0.999757
0.9992 1 1 0.9992
1.01049 1.01261 1 0.997904
1.00905 1.01108 1 0.997993
1.01627 1.01836 1 0.997949
1.01186 1.01381 1 0.998083
1.0083 1.01013 1 0.998181
1.01236 1.01416 1 0.998222
0.999074 1 1 0.999074
1.00849 1.01016 1 0.998341
0.998693 1 1 0.998693
0.999923 1.00155 1.00018 0.998197
1.00555 1.00748 1 0.99809
1.00849 1.01018 1 0.998325
0.999815 1 1 0.999815
0.9993 1 1 0.9993
0.998966 1 1 0.998966
0.999073 1 1.00008 0.998997
0.998913 1 1 0.998913
1 1 1 1
1.00012 1.00192 1 0.998201
0.9998 1 1 0.9998
0.9995 1 1 0.9995
0.999232 1 1 0.999232
0.998672 1.00019 1 0.998478
1.00336 1.00527 1 0.998096
0.998976 1 1 0.998976
0.999814 1 1.00127 0.998546
0.998796 1.0003 1 0.998501
0.998602 1 1 0.998602
1 1 1 1
0.999879 1 1 0.999879
0.999114 1 1 0.999114
0.999377 1 1 0.999377
0.999037 1 1.00005 0.998988
1.00558 1.00756 1 0.998037
1.00109 1.00282 1 0.998276
1.00656 1.00853 1 0.998048
1.00025 1 1.00157 0.998682
0.999958 1.00155 1 0.998413
0.999596 1.0003 1.00096 0.998333
0.999911 1 1 0.999911
0.999501 1 1 0.999501
0.999278 1 1.00043 0.99885
0.999204 1 1.00008 0.99912
0.99924 1 1.00037 0.998866
1.0089 1.01088 1 0.998044
1.00297 1.00477 1 0.998206
1.00684 1.00867 1 0.998188
1.0022 1 1.00375 0.998452
0.999389 1.0012 1 0.998189
0.999933 1 1 0.999933
0.999594 1 1 0.999594
0.999637 1 1 0.999637
0.999467 1 1 0.999467
0.999661 1 1 0.999661
0.999951 1 1 0.999951
0.99995 1 1 0.99995
1 1 1 1
0.999946 1 1 0.999946
1 1 1 1
1 1 1 1
1 1 1 1
1 1 1 1
1 1 1 1
1 1 1 1
0.999999 1 1 0.999999
1 1 1 1
1 1 1 1
0.999991 1 1 0.999991
1 1 1 1
1.00114 1.00299 1 0.998161
1.0013 1.00322 1 0.998088
1.00733 1.00932 1 0.998031
1.01099 1.01305 1 0.997963
1.00233 1.00437 1 0.997974
0.998364 1 1 0.998364
1.0023 1.00435 1 0.99796
1.01216 1.01427 1 0.997912
1.0094 1.01142 1 0.997997
1.01604 1.01805 1 0.998026
1.00682 1.0088 1 0.998038
1.01269 1.01457 1 0.998147
1.01148 1.01362 1 0.997888
1.01745 1.01953 1 0.997959
1.01415 1.01609 1 0.998092
1.01556 1.01751 1 0.998084
1.01122 1.01314 1 0.99811
1.01436 1.01614 1 0.998249
1.00211 1.00413 1 0.997988
1.00107 1.00294 1 0.998136
1.00941 1.01149 1 0.997949
1.00712 1.00911 1 0.998028
0.99939 1 1 0.99939
0.998947 1 1 0.998947
0.999089 1.00041 1.00018 0.998498
1.003 1.00484 1 0.998172
1.00922 1.01108 1 0.998161
1.0056 1.00741 1 0.9982
1.00193 1.00381 1 0.998126
1.00642 1.00811 1 0.998324
0.999112 1 1 0.999112
0.998942 1 1 0.998942
0.999753 1 1 0.999753
0.999216 1 1 0.999216
1.0105 1.01263 1 0.997905
1.00905 1.01109 1 0.997988
1.016 1.01808 1 0.997957
1.01129 1.01324 1 0.998077
0.999071 1 1 0.999071
0.99876 1 1.00003 0.998729
1.00011 1.00153 1.00039 0.998192
1.00795 1.0098 1 0.998167
1.0125 1.01426 1 0.998259
1.00541 1.00734 1 0.99808
1.00817 1.00984 1 0.998343
1.00906 1.01072 1 0.998357
0.998966 1 1 0.998966
0.998911 1 1 0.998911
0.999163 1 1.00017 0.998994
0.999787 1 1 0.999787
0.999315 1 1 0.999315
1.01735 1.01946 1 0.997932
1.01525 1.0173 1 0.997986
1.0132 1.01503 1 0.998199
1.01054 1.01225 1 0.998308
0.998918 1 1 0.998918
1.01012 1.01169 1 0.998447
0.998813 1 1.00029 0.998526
1.00166 1.00319 1.00051 0.997971
1.00766 1.00964 1 0.998037
0.999808 1 1 0.999808
0.999448 1 1 0.999448
0.999181 1 1.00006 0.999121
0.998927 1 1 0.998927
0.999227 1 1.00037 0.998852
0.998862 1 1 0.998862
1 1 1 1
0.999884 1 1 0.999884
1.00588 1.00786 1 0.998033
0.999377 1 1 0.999377
0.999114 1 1 0.999114
0.999001 1 1.00003 0.99897
1.00058 1.00231 1 0.998276
1.00647 1.00845 1 0.998041
1.0003 1 1.00162 0.998685
0.99953 1.0004 1.00077 0.998352
1.00025 1.00183 1 0.998429
0.999915 1 1 0.999915
0.999503 1 1 0.999503
0.99922 1 1.00036 0.998858
0.999177 1 1.00006 0.999119
0.999368 1 1.00052 0.998853
1.00895 1.01093 1 0.99804
1.00308 1.00489 1 0.998199
1.00678 1.00859 1 0.998209
1.00163 1 1.0032 0.998435
0.999444 1.00123 1.00006 0.99816
0.99958 1 1 0.99958
0.999212 1 1 0.999212
1.00063 1 1.00194 0.99869
0.999594 1 1.00071 0.998888
0.999366 1 1.00061 0.998755
1.01231 1.014 1 0.99834
1.00306 1.00495 1 0.998123
1.00608 1.00786 1 0.998234
1.00285 1.00023 1.00433 0.998299
0.998804 1.00085 1 0.997958
0.999936 1 1 0.999936
0.999609 1 1 0.999609
0.99938 1 1 0.99938
0.99962 1 1 0.99962
0.999661 1 1 0.999661
0.999441 1 1 0.999441
0.999311 1 1 0.999311
0.999428 1 1 0.999428
0.999665 1 1 0.999665
0.999949 1 1 0.999949
0.999951 1 1 0.999951
1 1 1 1
0.999951 1 1 0.999951
1 1 1 1
1 1 1 1
1 1 1 1
1 1 1 1
1 1 1 1
1 1 1 1
1 1 1 1
1 1 1 1
0.999998 1 1 0.999998
1 1 1 1
1 1 1 1
1.00695 1.00894 1 0.998035
1.0092 1.01122 1 0.997997
1.01283 1.0147 1 0.998154
1.01585 1.01785 1 0.998038
1.01218 1.0143 1 0.997905
1.00232 1.00437 1 0.99796
1.01157 1.01372 1 0.99788
1.01748 1.01956 1 0.997955
1.01434 1.0163 1 0.998076
1.0156 1.01754 1 0.998088
1.01063 1.01254 1 0.99811
1.01417 1.01592 1 0.998274
1.01688 1.01899 1 0.997924
1.01705 1.01904 1 0.998053
1.01613 1.01797 0.999998 0.998193
1.01365 1.01533 1 0.998347
1.0105 1.01262 1 0.997906
1.00903 1.01107 1 0.997983
1.01573 1.0178 1 0.997964
1.01072 1.01267 1 0.99807
0.999069 1 1 0.999069
0.998765 1 1 0.998765
1.00032 1.00155 1.00058 0.998187
1.00759 1.00946 1 0.998153
1.01263 1.01436 1 0.998296
1.00793 1.00961 1 0.998345
1.00521 1.00715 1 0.998069
1.00949 1.01112 1 0.99839
0.998966 1 1 0.998966
0.998908 1 1 0.998908
0.999252 1 1.00026 0.99899
0.99976 1 1 0.99976
0.999329 1 1 0.999329
1.01707 1.01917 1 0.997935
1.01515 1.01719 1 0.997992
1.01302 1.01485 1 0.998198
0.998913 1 1 0.998913
0.998816 1 1.00026 0.99856
1.00178 1.00306 1.00076 0.997963
1.01082 1.01255 1 0.998298
1.00738 1.00932 1 0.998086
1.00962 1.0112 1 0.998438
0.999813 1 1 0.999813
0.998924 1 1 0.998924
0.998889 1 1 0.998889
0.999308 1 1.00047 0.998843
0.99915 1 1.00002 0.99913
0.999427 1 1 0.999427
1.01654 1.0186 1 0.997976
1.01599 1.01821 0.999714 0.998102
1.01269 1.01444 0.999997 0.998283
1.0134 1.01497 1 0.998446
0.998818 1 1 0.998818
1.00741 1.0092 1 0.998228
0.999838 1 1.00165 0.998196
1.00256 1.00368 1.00104 0.997841
0.999859 1 1 0.999859
0.999525 1 1 0.999525
0.999225 1 1 0.999225
0.999294 1 1.00039 0.998908
0.998853 1 1 0.998853
0.999001 1 1.00023 0.998773
0.999919 1 1 0.999919
0.999504 1 1 0.999504
1.00908 1.01106 1 0.998036
0.999133 1 1.00001 0.999118
0.999082 1 1.00022 0.998866
0.999582 1 1.00074 0.99884
1.00314 1.00496 1 0.998192
1.00681 1.00859 1 0.998229
1.0011 1 1.00269 0.998418
0.99959 1.00119 1.00027 0.99813
0.999581 1 1 0.999581
0.999222 1 1 0.999222
1.00065 1 1.00194 0.998707
0.999862 1 1.00097 0.998892
0.999112 1 1.00033 0.998785
1.01238 1.01405 1 0.998357
1.00297 1.00486 1 0.998122
1.00641 1.00811 1 0.998309
1.00293 1.00007 1.00458 0.99828
0.998884 1.00093 1.00003 0.997922
0.999327 1 1 0.999327
0.998969 1 1 0.998969
1.00234 1 1.00378 0.998567
0.999479 1 1.00081 0.998667
1.01821 1.02032 0.999459 0.998476
1.01141 1.01311 0.999872 0.998454
1.00328 1.00535 1 0.997949
1.00249 1.00029 1.00426 0.997957
0.999624 1 1 0.999624
0.999392 1 1 0.999392
0.999252 1 1 0.999252
0.999661 1 1 0.999661
0.999415 1 1 0.999415
0.999665 1 1 0.999665
0.999292 1 1 0.999292
0.999438 1 1 0.999438
0.999186 1 1 0.999186
0.999284 1 1 0.999284
0.999427 1 1 0.999427
0.99966 1 1 0.99966
0.999944 1 1 0.999944
0.999948 1 1 0.999948
1 1 1 1
0.999951 1 1 0.999951
1 1 1 1
1 1 1 1
1 1 1 1
1 1 1 1
1 1 1 1
1 1 1 1
1 1 1 1
1 1 1 1
1 1 1 1
1 1 1 1
1 1 1 1
1.01005 1.01196 1 0.998111
1.01452 1.01649 1 0.99806
1.01397 1.0157 1 0.9983
1.01563 1.01757 1 0.998093
1.01751 1.0196 1 0.997952
1.01168 1.01383 1 0.997873
1.0168 1.01891 1 0.99793
1.01642 1.0184 1 0.998049
1.01586 1.0177 1 0.998195
1.01476 1.01644 1 0.998344
1.01681 1.01884 1 0.998009
1.01962 1.0219 0.999563 0.998207
1.01896 1.02077 0.9999 0.998327
1.01679 1.01889 1 0.997939
1.01507 1.01711 1 0.997999
1.01282 1.01465 1 0.998196
0.998908 1 1 0.998908
0.998772 1 1.00018 0.998594
1.00176 1.00296 1.00085 0.997955
1.01102 1.01275 1 0.998288
1.00932 1.01091 1 0.99843
1.00744 1.00932 1 0.998136
0.998921 1 1 0.998921
0.998917 1 1 0.998917
0.999343 1 1.00051 0.998834
0.999817 1 1 0.999817
0.999139 1 1 0.999139
0.999405 1 1 0.999405
1.01707 1.01913 1 0.99798
1.01626 1.01836 0.999831 0.998105
1.01254 1.01429 0.999995 0.998272
0.998809 1 1 0.998809
0.999693 1.00004 1.0014 0.998262
1.00268 1.00393 1.0009 0.997855
1.01356 1.01513 0.999986 0.99846
1.0078 1.00959 1 0.99822
0.999885 1 1 0.999885
0.999525 1 1 0.999525
0.99886 1 1 0.99886
0.999026 1 1.00022 0.998811
0.999332 1 1.00042 0.998911
0.999208 1 1 0.999208
1.01966 1.0221 0.999492 0.998123
1.01421 1.01795 0.998103 0.998224
1.01455 1.01672 0.999403 0.99846
1.01151 1.01302 1 0.9985
0.999532 1 1.00088 0.998649
1.0027 1.00345 1.0014 0.99786
1.00088 1.00022 1.00264 0.998026
0.999944 1 1 0.999944
0.999677 1 1 0.999677
0.999541 1 1 0.999541
0.999263 1 1 0.999263
0.999018 1 1.00001 0.999013
0.999109 1 1.00033 0.998778
0.998885 1 1 0.998885
1.005 1 1.00611 0.998897
0.999583 1 1 0.999583
0.999232 1 1 0.999232
1.01233 1.01398 1 0.998373
1.00001 1 1.00111 0.998897
1.00085 1 1.00212 0.998724
0.99885 1 1.00004 0.998815
1.00287 1.00476 1 0.998121
1.00667 1.0083 1 0.998384
1.00307 1 1.00481 0.998261
0.998978 1.00109 1 0.997886
0.999316 1 1 0.999316
0.999074 1 1.0001 0.998978
1.00273 1 1.00415 0.998584
0.999341 1 1.00065 0.998688
1.01825 1.02035 0.999469 0.998476
1.01068 1.01232 0.999949 0.998434
1.00385 1.00588 1 0.997986
1.00208 1.00038 1.00377 0.997928
0.999163 1 1 0.999163
1.01768 1.02144 0.997868 0.998449
0.999656 1 1.00087 0.998784
1.00105 1 1.00268 0.998379
1.01647 1.01869 0.999252 0.998569
1.00617 1.00815 1 0.998032
1.0038 1.00278 1.00323 0.997793
0.999404 1 1 0.999404
0.999251 1 1 0.999251
0.999128 1 1 0.999128
0.999665 1 1 0.999665
0.999447 1 1 0.999447
0.999273 1 1 0.999273
0.999659 1 1 0.999659
0.999428 1 1 0.999428
0.999169 1 1 0.999169
0.999304 1 1 0.999304
0.999087 1 1 0.999087
0.999162 1 1 0.999162
0.999302 1 1 0.999302
0.99943 1 1 0.99943
0.999645 1 1 0.999645
0.999939 1 1 0.999939
0.999943 1 1 0.999943
1 1 1 1
0.999947 1 1 0.999947
1 1 1 1
1 1 1 1
1 1 1 1
1 1 1 1
1 1 1 1
0.999964 1 1 0.999964
1 1 1 1
1 1 1 1
1 1 1 1
1 1 1 1
1 1 1 1
1 1 1 1
1.01586 1.01755 1 0.99834
1.0156 1.01743 1 0.998198
1.01578 1.01777 1 0.998045
1.01671 1.01882 1 0.997935
1.01676 1.01877 1 0.998021
1.0197 1.02198 0.99957 0.998195
1.01934 1.02117 0.999872 0.99834
1.02026 1.02302 0.999129 0.998174
1.02264 1.02595 0.998451 0.998326
1.00929 1.01832 0.992615 0.998511
1.01757 1.01963 1 0.997983
1.01654 1.01854 0.999927 0.998109
1.01245 1.01423 0.999989 0.99826
0.998857 1 1.00006 0.998801
0.999625 1.00004 1.00126 0.998327
1.00252 1.00388 1.00078 0.99787
1.01381 1.01538 0.999977 0.998474
1.00762 1.00942 1 0.998212
0.998866 1 1 0.998866
0.999052 1 1.0002 0.998848
0.999458 1 1.00054 0.998914
0.999912 1 1 0.999912
0.999525 1 1 0.999525
0.999191 1 1 0.999191
1.01935 1.02181 0.999456 0.998138
0.99994 1 1 0.99994
0.999662 1 1 0.999662
1.01431 1.01746 0.998676 0.998223
1.01556 1.01762 0.999545 0.998429
0.999538 1 1.00084 0.998699
1.00163 1.00035 1.0033 0.997991
1.00247 1.00377 1.00084 0.997867
1.01068 1.01221 1 0.99849
0.999586 1 1 0.999586
0.999261 1 1 0.999261
0.998841 1 1 0.998841
1.00252 1 1.00355 0.998974
0.999178 1 1.00042 0.998759
0.999029 1 1.00001 0.999019
1.02147 1.02503 0.998227 0.998294
1.01302 1.0185 0.996258 0.998354
1.01356 1.0171 0.997855 0.998658
1.00371 1.00556 0.999922 0.998243
1.001 1 1.00234 0.998661
1.00413 1.00086 1.00547 0.997813
0.999682 1 1 0.999682
0.999632 1 1 0.999632
0.999459 1 1 0.999459
0.999264 1 1 0.999264
0.999102 1 1 0.999102
0.998848 1 1.00002 0.998829
1.00833 1 1.00964 0.998697
0.999731 1 1.00073 0.999001
0.999305 1 1 0.999305
0.999161 1 1.00017 0.998987
1.01839 1.02047 0.999478 0.998477
1.01022 1.01183 1 0.998414
0.99924 1 1.00053 0.998709
1.00301 1 1.00441 0.9986
1.00455 1.00651 1.00004 0.998024
1.00166 1.00042 1.00335 0.997898
0.999159 1 1 0.999159
1.01761 1.02208 0.997156 0.998469
0.999571 1 1.00078 0.998794
1.00104 1 1.00269 0.998357
1.01619 1.01837 0.999312 0.998546
1.00697 1.00892 1 0.998063
1.00363 1.00235 1.00348 0.997803
0.999332 1 1.00038 0.998948
1.01707 1.02405 0.994482 0.998699
0.999551 1 1.00093 0.998621
1.0023 1.00038 1.00379 0.998133
1.00804 1.01259 0.997225 0.998275
1.00192 1.00186 1.00221 0.997853
1.00551 1.00823 0.998499 0.998806
0.999249 1 1 0.999249
0.999127 1 1 0.999127
0.999022 1 1 0.999022
0.999658 1 1 0.999658
0.999429 1 1 0.999429
0.999323 1 1 0.999323
0.999152 1 1 0.999152
0.999644 1 1 0.999644
0.99942 1 1 0.99942
0.999077 1 1 0.999077
0.999302 1 1 0.999302
0.999178 1 1 0.999178
0.999067 1 1 0.999067
0.9992 1 1 0.9992
0.999302 1 1 0.999302
0.999382 1 1 0.999382
0.999596 1 1 0.999596
0.99946 1 1 0.99946
0.999598 1 1 0.999598
0.999935 1 1 0.999935
0.999939 1 1 0.999939
1 1 1 1
0.999942 1 1 0.999942
1 1 1 1
1 1 1 1
1 1 1 1
1 1 1 1
1 1 1 1
0.999975 1 1 0.999975
0.999961 1 1 0.999961
1 1 1 1
1 1 1 1
1 1 1 1
1 1 1 1
1 1 1 1
1 1 1 1
1.01971 1.02154 0.999851 0.998354
1.01978 1.02207 0.999577 0.998183
1.01673 1.01873 1 0.998033
1.0201 1.02283 0.999153 0.998172
1.02171 1.02496 0.998504 0.998323
1.01029 1.01859 0.99334 0.998508
1.0181 1.02486 0.995003 0.998394
1.00633 1.01596 0.992167 0.998339
1.01438 1.02407 0.991699 0.998825
0.999744 1 1 0.999744
1.01908 1.02154 0.99944 0.998153
1.01436 1.01691 0.999265 0.998222
1.01631 1.01835 0.9996 0.998398
0.999568 1 1.00082 0.998748
1.00254 1.00057 1.00402 0.997955
1.00272 1.00441 1.00045 0.997874
1.00994 1.01147 1 0.998481
0.998797 1 1 0.998797
1.00002 1 1.00097 0.999052
0.999187 1 1.00045 0.998739
0.999936 1 1 0.999936
0.999025 1 1 0.999025
0.999631 1 1 0.999631
0.999259 1 1 0.999259
0.999646 1 1 0.999646
1.02106 1.02571 0.997158 0.998301
0.999703 1 1 0.999703
0.999631 1 1 0.999631
0.999425 1 1 0.999425
1.01335 1.01868 0.996401 0.998358
1.01302 1.0163 0.998157 0.998613
1.00029 1 1.00161 0.998677
1.0038 1.00046 1.00554 0.997821
1.00364 1.0053 1.0001 0.998246
0.999287 1 1 0.999287
0.999087 1 1 0.999087
1.00128 1 1.00233 0.998946
1.00685 1 1.00813 0.998731
0.99885 1 1 0.998847
1.0139 1.02095 0.99471 0.998372
1.01262 1.02085 0.993459 0.998475
1.00805 1.01123 0.998437 0.998422
1.00458 1.00327 1.00321 0.99811
1.0034 1 1.00478 0.99863
0.999424 1 1 0.999424
0.999335 1 1 0.999335
0.999243 1 1 0.999243
0.999098 1 1 0.999098
0.998948 1 1 0.998948
1.0055 1 1.00678 0.998733
1.00921 1 1.01059 0.998637
0.999154 1 1 0.999154
0.99946 1 1.00066 0.998804
1.0174 1.02263 0.996392 0.998489
1.01569 1.01789 0.999313 0.998523
1.00744 1.00937 1 0.998093
1.00101 1 1.00268 0.998335
1.00319 1.00178 1.0036 0.997813
0.999286 1 1.00031 0.998976
1.01656 1.02409 0.993936 0.998704
0.999504 1 1.00087 0.998639
1.00238 1.00016 1.00408 0.998144
1.0091 1.01297 0.99784 0.998332
1.00245 1.00192 1.00269 0.997842
1.0055 1.00846 0.998546 0.998515
0.999231 1 1.0004 0.998831
1.00437 1.01544 0.990398 0.998684
1.00052 1 1.00193 0.998593
1.00443 1 1.00636 0.998078
1.00326 1.00415 1.00104 0.998073
0.958369 0.975705 0.991944 0.99021
0.985642 0.989221 1.00089 0.995499
0.981329 1.00069 0.981703 0.998931
0.892264 0.92285 0.976188 0.990442
0.868044 0.927729 0.945295 0.989813
0.999125 1 1 0.999125
0.999034 1 1 0.999034
0.999038 1 1 0.999038
0.999644 1 1 0.999644
0.999411 1 1 0.999411
0.999301 1 1 0.999301
0.999194 1 1 0.999194
0.999066 1 1 0.999066
0.999285 1 1 0.999285
0.999614 1 1 0.999614
0.999395 1 1 0.999395
0.999073 1 1 0.999073
0.999198 1 1 0.999198
0.999206 1 1 0.999206
0.999139 1 1 0.999139
0.999241 1 1 0.999241
0.999357 1 1 0.999357
0.999592 1 1 0.999592
0.999413 1 1 0.999413
0.999311 1 1 0.999311
0.999433 1 1 0.999433
0.999435 1 1 0.999435
0.999639 1 1 0.999639
0.999597 1 1 0.999597
0.999933 1 1 0.999933
0.999935 1 1 0.999935
1 1 1 1
0.999938 1 1 0.999938
1 1 1 1
1 1 1 1
1 1 1 1
1 1 1 1
1 1 1 1
0.99998 1 1 0.99998
0.999973 1 1 0.999973
1 1 1 1
0.999958 1 1 0.999958
1 1 1 1
1 1 1 1
1 1 1 1
1 1 1 1
1 1 1 1
1.02086 1.02404 0.998569 0.998321
1.01991 1.02262 0.99918 0.998171
1.0112 1.01872 0.994106 0.998504
1.00651 1.01572 0.992544 0.998371
1.01747 1.02419 0.995038 0.998392
1.01708 1.02538 0.993121 0.998768
1.02118 1.02649 0.996425 0.998394
0.970605 0.984914 0.990663 0.99476
1.01245 1.01935 0.994576 0.998648
0.999755 1 1 0.999755
0.999743 1 1 0.999743
0.999497 1 1 0.999497
0.999525 1 1 0.999525
1.02068 1.02639 0.996121 0.998308
1.01372 1.01872 0.996718 0.998361
1.01268 1.01554 0.998615 0.998567
0.999465 1 1.00077 0.998694
1.00326 1.00008 1.00536 0.997829
1.00361 1.00524 1.00013 0.998249
1.00284 1 1.00395 0.99889
1.00543 1 1.00668 0.998765
0.998866 1 1 0.998866
0.99963 1 1 0.99963
0.999073 1 1 0.999073
0.99931 1 1 0.99931
0.999725 1 1 0.999725
0.999392 1 1 0.999392
1.0123 1.01931 0.994731 0.998387
0.99946 1 1 0.99946
0.999356 1 1 0.999356
0.999249 1 1 0.999249
1.01467 1.02233 0.994021 0.998486
1.00685 1.01036 0.998103 0.998418
1.00331 1 1.0047 0.998624
1.00456 1.00365 1.00281 0.9981
0.9991 1 1 0.9991
0.998951 1 1 0.998951
1.00908 1 1.01046 0.998638
1.00639 1 1.00768 0.998712
1.01527 1.0241 0.99297 0.998401
1.0002 1.01674 0.985236 0.998471
1.0047 1.00585 1.00073 0.998138
1.0016 1 1.00306 0.998543
0.999177 1 1 0.999177
0.999144 1 1 0.999144
1.00052 1 1.00163 0.998898
1.01577 1 1.01729 0.998499
0.947094 0.972492 0.983886 0.989833
0.999329 1 1.00033 0.999004
0.999563 1 1.00091 0.998657
1.01571 1.02398 0.993213 0.998708
1.01024 1.01332 0.99857 0.998389
1.00324 1.00212 1.0033 0.99783
1.00262 1 1.00447 0.998155
1.00483 1.0084 0.998239 0.998218
0.999435 1 1.00058 0.998853
1.00348 1.0151 0.98987 0.99867
1.00003 1 1.00143 0.998602
1.00418 1 1.00611 0.99808
1.00363 1.00535 1.00019 0.998093
0.955994 0.975596 0.98962 0.990187
0.981242 0.987921 0.999087 0.994147
0.982984 0.999349 0.98463 0.998978
0.895808 0.922989 0.980205 0.990151
0.853939 0.91679 0.941822 0.988982
0.999591 1 1.00065 0.99894
0.908364 0.934382 0.981946 0.990028
0.902374 0.932597 0.976854 0.990519
0.980836 1.00593 0.976382 0.998643
1.00489 1 1.00625 0.998645
1.00988 1.00148 1.01017 0.99824
0.982034 0.996124 0.986728 0.999116
0.961139 0.972951 0.998107 0.989732
0.973349 0.976116 1.00349 0.993693
0.875335 0.922849 0.95768 0.990429
0.905582 0.956999 0.954423 0.99146
0.999046 1 1 0.999046
0.999034 1 1 0.999034
0.999183 1 1 0.999183
0.999633 1 1 0.999633
0.999408 1 1 0.999408
0.999267 1 1 0.999267
0.999196 1 1 0.999196
0.999079 1 1 0.999079
0.999592 1 1 0.999592
0.999205 1 1 0.999205
0.999258 1 1 0.999258
0.999377 1 1 0.999377
0.999133 1 1 0.999133
0.999158 1 1 0.999158
0.999347 1 1.0002 0.99915
0.999235 1 1 0.999235
0.999392 1 1 0.999392
0.999412 1 1 0.999412
0.999296 1 1 0.999296
0.99927 1 1 0.99927
0.999288 1 1 0.999288
0.999229 1 1 0.999229
0.999181 1 1 0.999181
0.999414 1 1 0.999414
0.999433 1 1 0.999433
0.999641 1 1 0.999641
0.99941 1 1 0.99941
0.999624 1 1 0.999624
0.999932 1 1 0.999932
0.999596 1 1 0.999596
0.999933 1 1 0.999933
1 1 1 1
0.999935 1 1 0.999935
1 1 1 1
1 1 1 1
1 1 1 1
1 1 1 1
1 1 1 1
0.999744 1 1 0.999744
0.999981 1 1 0.999981
0.999979 1 1 0.999979
1 1 1 1
0.999971 1 1 0.999971
1 1 1 1
1 1 1 1
1 1 1 1
1 1 1 1
1 1 1 1
1.00766 1.01579 0.993576 0.998405
1.01693 1.02365 0.995029 0.998391
1.01999 1.02694 0.994513 0.998711
0.972079 0.983492 0.992866 0.995497
1.01233 1.01907 0.994676 0.998706
1.02242 1.02836 0.995849 0.998372
1.01748 1.02316 0.99598 0.998462
0.97667 0.986145 0.994501 0.995868
0.9582 0.975943 0.992677 0.989063
0.873638 0.914938 0.965194 0.989293
0.85495 0.909111 0.950325 0.989581
0.999487 1 1 0.999487
0.999754 1 1 0.999754
0.999743 1 1 0.999743
0.999486 1 1 0.999486
0.999329 1 1 0.999329
0.999366 1 1 0.999366
0.999496 1 1 0.999496
0.999509 1 1 0.999509
1.01064 1.0178 0.994555 0.998402
1.01688 1.02437 0.994182 0.998496
1.00567 1.00953 0.997765 0.998414
1.00345 1 1.00483 0.998619
1.00455 1.00374 1.00272 0.99809
1.00891 1 1.01029 0.998639
1.00747 1 1.00879 0.998692
0.998954 1 1 0.998954
0.999377 1 1 0.999377
0.999103 1 1 0.999103
0.999495 1 1 0.999495
0.999255 1 1 0.999255
1.01561 1.02452 0.992914 0.998379
0.999196 1 1 0.999196
0.99915 1 1 0.99915
1.00168 1.01558 0.987848 0.998454
1.00436 1.00628 0.999867 0.998222
1.00343 1.00015 1.00479 0.998493
1.00146 1 1.00258 0.998882
1.01407 1 1.01559 0.998504
1.01436 1.02266 0.993521 0.998347
0.984177 1.00472 0.981067 0.998462
0.999459 1 1.00103 0.998429
1.0071 1 1.00856 0.998557
0.999074 1 1 0.999074
1.0001 1 1.00114 0.998961
1.01025 1 1.01158 0.998684
0.897248 0.936271 0.967667 0.990342
0.954132 0.973485 0.98936 0.990661
0.999488 1 1.00061 0.998874
0.999677 1 1.00107 0.998612
1.00361 1.01518 0.989932 0.998657
1.00406 1.00672 0.99925 0.998113
1.00378 1 1.00571 0.998082
0.956682 0.975324 0.991786 0.98901
0.982681 0.990245 0.997479 0.994869
0.985432 0.998552 0.987827 0.999022
0.88998 0.923892 0.973149 0.989872
0.840047 0.905035 0.939328 0.988146
0.999336 1 1.0004 0.99894
0.902229 0.93732 0.971865 0.990428
0.900533 0.929064 0.978864 0.990219
0.983625 1.00676 0.97836 0.998631
1.0045 1 1.00585 0.998662
1.00914 1.00078 1.01004 0.998324
0.975034 0.99299 0.982748 0.999155
0.963539 0.976568 0.997565 0.989066
0.975653 0.97985 1.00073 0.994993
0.876954 0.918328 0.965228 0.989348
0.904458 0.957108 0.953526 0.991048
1.00104 1 1.00197 0.999075
0.92213 0.936746 0.992644 0.991693
0.974729 0.980219 0.999999 0.9944
0.988092 1.00082 0.988249 0.999018
1.01079 1.0004 1.01139 0.999007
0.996828 0.989778 1.00767 0.999457
0.965394 0.974082 0.99497 0.996091
0.960202 0.966069 1.00491 0.989074
0.898233 0.940496 0.96523 0.989467
0.93018 0.974751 0.961052 0.992947
0.99903 1 1 0.99903
0.999161 1 1 0.999161
0.999751 1 1.00042 0.99933
0.999592 1 1 0.999592
0.999397 1 1 0.999397
0.999275 1 1 0.999275
0.999203 1 1 0.999203
0.999127 1 1 0.999127
0.999391 1 1 0.999391
0.999168 1 1 0.999168
0.999234 1 1 0.999234
0.999408 1 1.00024 0.999163
0.999831 1 1.00055 0.999277
0.999239 1 1.00009 0.999152
0.999238 1 1 0.999238
0.999411 1 1 0.999411
0.999281 1 1 0.999281
0.99927 1 1 0.99927
0.999287 1 1 0.999287
0.99923 1 1 0.99923
0.999252 1 1 0.999252
0.999206 1 1 0.999206
0.999205 1 1 0.999205
0.999029 1 1 0.999029
0.999495 1 1.00068 0.998818
0.999081 1 1 0.999081
0.999178 1 1 0.999178
0.999371 1 1 0.999371
0.999412 1 1 0.999412
0.999633 1 1 0.999633
0.999433 1 1 0.999433
0.999641 1 1 0.999641
0.999932 1 1 0.999932
0.999609 1 1 0.999609
0.999932 1 1 0.999932
1 1 1 1
0.999933 1 1 0.999933
1 1 1 1
1 1 1 1
1 1 1 1
1 1 1 1
1 1 1 1
0.999762 1 1 0.999762
0.999977 1 1 0.999977
0.999744 1 1 0.999744
1 1 1 1
0.999981 1 1 0.999981
0.999978 1 1 0.999978
1 1 1 1
1 1 1 1
1 1 1 1
1 1 1 1
1 1 1 1
0.899529 0.930031 0.97653 0.99045
0.908093 0.933503 0.981561 0.991053
0.974473 0.985009 0.993293 0.995984
1.01278 1.01871 0.995405 0.998764
1.02362 1.02996 0.995489 0.99835
0.974896 0.983548 0.994173 0.997014
1.01793 1.02297 0.996585 0.998485
0.960329 0.977301 0.992279 0.99028
0.887289 0.920379 0.973591 0.990197
0.845206 0.905962 0.943567 0.988735
0.99529 0.999906 0.997512 0.997866
0.960634 0.97261 0.997546 0.990117
0.868734 0.918511 0.95516 0.990208
0.903401 0.952005 0.957972 0.990577
0.999271 1 1 0.999271
0.999502 1 1 0.999502
0.999753 1 1 0.999753
0.999476 1 1 0.999476
0.99935 1 1 0.99935
0.9993 1 1 0.9993
0.999366 1 1 0.999366
0.999404 1 1 0.999404
0.999477 1 1 0.999477
0.999493 1 1 0.999493
1.01563 1.02467 0.99281 0.998359
1.00227 1.01359 0.990375 0.998439
1.00405 1.00676 0.998995 0.998307
1.00503 1.00034 1.00626 0.998444
1.01162 1 1.01313 0.998509
1.00226 1 1.0034 0.998866
0.999156 1 1 0.999156
0.999216 1 1 0.999216
1.01205 1.02273 0.991207 0.998338
0.999066 1 1 0.999066
1.00003 1 1.00109 0.99894
0.985749 1.0042 0.983197 0.998403
0.999852 1 1.00133 0.998521
1.00692 1 1.00845 0.998486
1.00901 1 1.01036 0.998667
1.0019 1.00734 0.996003 0.998593
0.990919 1 0.99198 0.998931
1.01033 1 1.01172 0.998633
0.999056 1 1 0.999056
0.999292 1 1.00037 0.998924
1.00424 1 1.00548 0.998768
0.923947 0.940188 0.99005 0.992602
0.904196 0.936104 0.975773 0.989896
0.951445 0.975609 0.985263 0.989818
0.998941 1 1 0.998941
1.0041 1 1.00543 0.99868
0.986343 1.00736 0.980491 0.99862
1.00845 1 1.01006 0.998406
0.898478 0.934719 0.971142 0.989791
0.962007 0.974344 0.996695 0.990612
0.97335 0.980759 0.998681 0.993756
0.972113 0.990594 0.982131 0.999199
0.879971 0.918745 0.967387 0.990086
0.902487 0.932642 0.977359 0.990083
0.89899 0.95456 0.950501 0.990829
1.00156 1 1.00248 0.999077
0.922269 0.939473 0.989743 0.991861
0.977094 0.981897 1.00074 0.99437
0.990261 1.00035 0.990836 0.999066
1.01053 1.00008 1.01146 0.998995
0.996345 0.990885 1.00635 0.99916
0.966278 0.973728 0.997882 0.994455
0.959878 0.969632 1.00061 0.989333
0.90236 0.945788 0.963201 0.990533
0.922211 0.967965 0.959707 0.992732
1.00204 0.99977 1.00278 0.99949
0.976272 0.981552 0.998845 0.995771
0.97312 0.976819 0.999849 0.996363
1.0095 0.996907 1.01292 0.999715
0.981187 0.978311 1.00518 0.997772
0.964563 0.967049 1.00868 0.988847
0.935005 0.962225 0.980706 0.990828
0.936293 0.983027 0.959714 0.99244
0.999139 1 1 0.999139
0.999688 1 1.00036 0.999333
1.00077 1 1.00132 0.999451
0.99939 1 1 0.99939
0.999233 1 1 0.999233
0.999179 1 1 0.999179
0.999458 1 1.00028 0.999177
0.999237 1 1 0.999237
0.999181 1 1.00003 0.99915
1.00059 1 1.00129 0.999303
1.00087 0.99942 1.00201 0.999446
1.00024 1 1.00101 0.999228
0.999172 1 1 0.999172
0.99927 1 1 0.99927
0.999285 1 1 0.999285
0.99923 1 1 0.99923
0.99921 1 1 0.99921
0.999251 1 1 0.999251
0.999209 1 1 0.999209
0.999153 1 1 0.999153
0.999235 1 1 0.999235
0.999031 1 1 0.999031
0.999045 1 1 0.999045
0.999573 1 1.00069 0.998879
0.999836 1 1.00127 0.998573
0.999024 1 1 0.999024
0.999397 1 1.00052 0.998878
0.999107 1 1 0.999107
0.99927 1 1 0.99927
0.999176 1 1 0.999176
0.999369 1 1 0.999369
0.999609 1 1 0.999609
0.999411 1 1 0.999411
0.999633 1 1 0.999633
0.999931 1 1 0.999931
0.999641 1 1 0.999641
0.999932 1 1 0.999932
1 1 1 1
0.999932 1 1 0.999932
1 1 1 1
1 1 1 1
1 1 1 1
1 1 1 1
1 1 1 1
0.999677 1 1 0.999677
0.999971 1 1 0.999971
0.999724 1 1 0.999724
1 1 1 1
0.999978 1 1 0.999978
0.999744 1 1 0.999744
1 1 1 1
1 1 1 1
0.999981 1 1 0.999981
1 1 1 1
1 1 1 1
1 1 1 1
0.927027 0.940843 0.99278 0.99248
0.900963 0.933149 0.975333 0.989926
0.975896 0.98348 0.998019 0.994259
0.899121 0.927236 0.978809 0.990672
0.97091 0.982754 0.992457 0.995458
1.0176 1.02286 0.996347 0.998507
0.961369 0.977932 0.991495 0.991496
0.88833 0.924203 0.971415 0.989468
0.837168 0.904224 0.937193 0.987887
0.991735 0.998389 0.996044 0.997279
0.962667 0.973644 0.999518 0.989203
0.875628 0.923243 0.958871 0.989108
0.900652 0.951148 0.956251 0.990232
0.985432 0.992014 0.996459 0.996895
0.967499 0.969432 1.0093 0.98881
0.90248 0.947304 0.962 0.990314
0.927634 0.975181 0.958708 0.992214
0.999154 1 1 0.999154
0.999292 1 1 0.999292
0.999517 1 1 0.999517
0.99937 1 1 0.99937
0.999182 1 1 0.999182
0.999315 1 1 0.999315
0.999365 1 1 0.999365
0.999384 1 1 0.999384
0.999425 1 1 0.999425
0.999458 1 1 0.999458
1.01007 1.02332 0.988705 0.998331
0.988322 1.0041 0.985917 0.998345
1.0002 1 1.00159 0.998612
1.00748 1 1.00908 0.998416
1.00843 1 1.0098 0.998649
0.999888 1 1.00097 0.998918
0.999059 1 1 0.999059
0.999059 1 1 0.999059
0.996203 1.00667 0.990975 0.99861
0.999112 1 1.00018 0.998935
1.00447 1 1.00572 0.998763
0.989314 1 0.990434 0.998869
1.00897 1 1.01037 0.998622
0.973679 0.995861 0.978644 0.999062
1.00744 1 1.00816 0.999288
1.00441 1 1.00561 0.99881
0.998961 1 1 0.998961
1.00345 1 1.00469 0.998767
0.973317 0.978038 0.998696 0.996472
0.927779 0.940448 0.993712 0.992771
0.900032 0.9337 0.97304 0.990649
1.00211 1 1.00304 0.999078
1.01008 0.999628 1.01149 0.998982
0.990933 1 0.991814 0.999112
0.930469 0.943556 0.993709 0.992374
0.967974 0.969794 1.00943 0.988803
0.968262 0.974787 0.99768 0.995617
0.988755 0.989577 1.00033 0.998837
0.902296 0.944029 0.965972 0.989462
0.978733 0.982779 1.00155 0.994341
0.918052 0.96478 0.958467 0.992799
1.00195 0.999685 1.00278 0.99948
0.975387 0.980165 0.998934 0.996187
0.977233 0.979958 1.00085 0.996374
1.01021 0.997903 1.01277 0.999577
0.980039 0.978044 1.00473 0.997324
0.964838 0.969474 1.00689 0.988405
0.936678 0.985799 0.956902 0.992965
0.923708 0.955712 0.975996 0.990284
1.00411 0.998154 1.00626 0.999711
0.973228 0.978039 0.996595 0.99848
0.982991 0.988682 0.997501 0.996734
0.930271 0.9768 0.959823 0.992231
0.997485 0.983464 1.0149 0.999367
0.976161 0.973673 1.01338 0.989314
0.917092 0.940994 0.983726 0.990722
0.999603 1 1.00027 0.999336
1.00051 1 1.0011 0.999409
1.00316 0.999337 1.00426 0.999566
0.999237 1 1 0.999237
0.999148 1 1 0.999148
1.00161 1 1.00228 0.99933
0.999178 1 1 0.999178
1.00051 1 1.00128 0.999232
1.00162 0.999558 1.00264 0.999421
1.00066 1 1.00117 0.999489
1.00022 1 1.001 0.999223
0.999213 1 1 0.999213
0.999249 1 1 0.999249
0.999213 1 1 0.999213
0.999229 1 1 0.999229
0.999162 1 1 0.999162
0.99949 1 1.0003 0.999195
0.999092 1 1 0.999092
1.00126 1 1.00258 0.998684
0.999061 1 1 0.999061
0.999425 1 1.00056 0.998862
0.999438 1 1.00101 0.998427
0.999716 1 1.00118 0.99854
0.999374 1 1.00047 0.998907
0.999717 1 1.00113 0.998585
0.999193 1 1 0.999193
0.999015 1 1.00001 0.999002
0.999302 1 1.00036 0.998938
0.999133 1 1 0.999133
0.999293 1 1 0.999293
0.999562 1 1 0.999562
0.999368 1 1 0.999368
0.999608 1 1 0.999608
0.999925 1 1 0.999925
0.999632 1 1 0.999632
0.999929 1 1 0.999929
1 1 1 1
0.999931 1 1 0.999931
1 1 1 1
1 1 1 1
1 1 1 1
1 1 1 1
1 1 1 1
0.999568 1 1 0.999568
0.999907 1 1 0.999907
0.999676 1 1 0.999676
1 1 1 1
0.999949 1 1 0.999949
0.999687 1 1 0.999687
1 1 1 1
1 1 1 1
0.99998 1 1 0.99998
1 1 1 1
1 1 1 1
1 1 1 1
0.973456 0.979019 0.998133 0.996178
0.91809 0.939206 0.98528 0.992121
0.90214 0.931072 0.979001 0.989708
0.99932 1 1 0.99932
0.969978 0.974476 0.998624 0.996755
0.978147 0.983656 1.00017 0.994235
0.892328 0.926439 0.972458 0.990459
0.991153 0.998674 0.995845 0.99661
0.967697 0.97553 1.00204 0.989955
0.881406 0.931116 0.956321 0.989847
0.894398 0.94706 0.953849 0.990087
0.987125 0.993846 0.998028 0.9952
0.958245 0.965193 1.00345 0.989383
0.909179 0.94916 0.967535 0.990018
0.926401 0.973744 0.959134 0.991916
0.974238 0.980566 0.999524 0.994019
0.969937 0.964458 1.01808 0.987819
0.923133 0.957311 0.9741 0.989937
0.933208 0.981181 0.958358 0.992434
0.999047 1 1 0.999047
0.999142 1 1 0.999142
0.999314 1 1 0.999314
0.999179 1 1 0.999179
0.999208 1 1 0.999208
0.999329 1 1 0.999329
0.99939 1 1 0.99939
0.999446 1 1 0.999446
0.990379 1.00576 0.986066 0.998625
0.987178 1 0.988356 0.998808
0.999061 1 1 0.999061
1.00715 1 1.00855 0.998611
1.00449 1 1.00574 0.998759
0.999112 1 1.00017 0.998947
0.999004 1 1.00004 0.998966
0.979331 0.998194 0.982011 0.999075
1.00331 1 1.00452 0.998795
1.00477 1 1.00596 0.998809
1.0019 0.999984 1.00261 0.999307
0.998997 1 1 0.998997
0.972096 0.989495 0.982955 0.999452
1.01163 0.998597 1.01361 0.999454
1.00353 1 1.00464 0.998893
1.00038 1 1.00147 0.998917
0.976783 0.979129 0.998841 0.998761
0.972851 0.977285 0.998927 0.996533
0.932268 0.941174 0.997575 0.992944
1.0018 0.9997 1.00263 0.999473
1.01196 0.998977 1.01356 0.999441
0.974524 0.979016 0.998806 0.996602
0.972161 0.968156 1.01512 0.989183
0.977315 0.975149 1.00679 0.995463
0.928181 0.958573 0.978478 0.989593
0.980439 0.982129 1.0019 0.996386
0.93856 0.989812 0.954435 0.993489
1.00447 0.998288 1.00652 0.999678
0.971602 0.977214 0.995757 0.998494
0.982144 0.986792 0.998049 0.997235
1.00628 0.990526 1.016 0.999908
0.928253 0.975574 0.959246 0.991919
0.970523 0.969442 1.01212 0.989124
0.926708 0.954801 0.980715 0.989663
1.0075 0.995522 1.01227 0.999771
0.981568 0.987464 0.995142 0.998882
0.97083 0.976023 0.997899 0.996773
0.904259 0.954618 0.956215 0.990621
0.922897 0.959505 0.971804 0.989754
0.983587 0.978863 1.00561 0.999219
0.97765 0.966859 1.02345 0.987995
1.00026 1 1.00089 0.999368
1.00264 0.999093 1.004 0.99955
1.0039 0.991489 1.01294 0.999582
0.999183 1 1 0.999183
1.00032 1 1.00108 0.999235
1.00239 1 1.00299 0.999396
0.999618 1 1.0004 0.999218
1.00086 0.999883 1.00149 0.999488
1.00575 0.998958 1.00748 0.999319
0.999223 1 1 0.999223
0.99917 1 1 0.99917
1.0001 1 1.00093 0.999166
1.00649 1 1.00769 0.998806
0.999152 1 1 0.999152
1.00072 1 1.00197 0.998749
1.00243 1 1.00413 0.998306
1.00002 1 1.00188 0.998143
0.999248 1 1.0004 0.998845
0.999473 1 1.00109 0.998381
0.999148 1 1.00053 0.998624
1.00029 1 1.0015 0.998786
0.999656 1 1.00108 0.998579
0.999177 1 1.00007 0.999105
0.999351 1 1.00045 0.998903
0.999628 1 1.00103 0.998598
0.999485 1 1 0.999485
0.999185 1 1 0.999185
0.999006 1 1.00003 0.998979
0.999316 1 1 0.999316
0.99956 1 1 0.99956
0.999911 1 1 0.999911
0.999607 1 1 0.999607
0.999922 1 1 0.999922
1 1 1 1
0.999928 1 1 0.999928
1 1 1 1
1 1 1 1
1 1 1 1
1 1 1 1
1 1 1 1
0.999526 1 1 0.999526
0.999866 1 1 0.999866
0.99959 1 1 0.99959
1 1 1 1
0.999904 1 1 0.999904
0.999675 1 1 0.999675
1 1 1 1
1 1 1 1
0.999927 1 1 0.999927
1 1 1 1
1 1 1 1
1 1 1 1
0.970379 0.975669 0.996092 0.99848
0.973289 0.978926 0.998051 0.996184
0.918266 0.940182 0.984396 0.992171
0.99933 1 1 0.99933
0.999293 1 1 0.999293
0.999206 1 1 0.999206
0.981972 0.987361 0.997811 0.996724
0.97187 0.975386 0.999619 0.996774
0.979896 0.983791 1.00184 0.994212
0.992736 0.993621 1.00261 0.996506
0.960179 0.966487 1.00466 0.988868
0.901917 0.942104 0.96749 0.989513
0.930156 0.97701 0.959812 0.991906
0.970821 0.976183 0.999011 0.995491
0.964794 0.964365 1.01173 0.988847
0.919855 0.949425 0.977632 0.991022
0.934612 0.984282 0.95627 0.992959
0.960525 0.969478 0.99592 0.994824
0.97982 0.971095 1.02018 0.989029
0.916983 0.939261 0.985355 0.990791
0.929141 0.973344 0.961416 0.992897
0.999042 1 1 0.999042
0.999045 1 1 0.999045
0.99913 1 1 0.99913
0.999176 1 1 0.999176
0.999234 1 1 0.999234
0.999395 1 1 0.999395
0.985873 1.00056 0.986223 0.999086
0.996973 1 0.997648 0.999324
0.998971 1 1 0.998971
1.00558 1 1.00678 0.998809
1.00351 1 1.00469 0.998823
0.998985 1 1.00001 0.99898
1.0003 1 1.00138 0.998925
0.983427 0.993034 0.990869 0.999452
1.00509 1 1.00613 0.998963
1.00684 0.995431 1.01199 0.99948
0.999034 1 1 0.999032
0.999767 0.984318 1.016 0.999701
0.993628 0.991835 1.00224 0.999566
1.00238 1 1.0033 0.999081
0.989972 0.991251 0.999471 0.999238
0.976222 0.978916 0.998352 0.998894
0.972431 0.976473 0.999267 0.996591
1.0051 0.9987 1.00677 0.999644
1.00155 0.992452 1.00951 0.999663
0.970175 0.976622 0.994884 0.998507
0.974775 0.96798 1.01514 0.992004
0.929445 0.952535 0.984615 0.991005
0.981288 0.985139 0.998351 0.997736
0.931795 0.97847 0.960048 0.991928
1.00672 0.995623 1.01136 0.999788
0.980077 0.987147 0.993834 0.998997
0.973122 0.97701 0.999226 0.996792
0.981915 0.974904 1.01014 0.997077
0.90073 0.952812 0.954602 0.990295
0.9177 0.953107 0.971751 0.990841
0.987606 0.972638 1.02672 0.98896
1.00628 0.980904 1.02605 0.999822
0.971411 0.976515 0.996263 0.998505
0.97711 0.98498 0.997678 0.994319
0.853924 0.908803 0.949387 0.989706
0.904228 0.949001 0.962106 0.990349
0.979271 0.972503 1.01826 0.988901
0.956749 0.969443 0.990759 0.996111
1.00172 0.998422 1.00377 0.999534
1.00744 0.994048 1.01389 0.999586
1.01899 0.998677 1.02082 0.999529
0.999212 1 1 0.999212
1.00104 0.999555 1.002 0.999487
1.00597 0.999471 1.00715 0.999361
1.01653 1 1.01754 0.999003
1.00063 1 1.0015 0.999138
1.00666 1 1.00794 0.998735
1.01335 1 1.01518 0.998205
1.00026 1 1.00145 0.998815
1.00328 1 1.005 0.998289
1.00308 1 1.0052 0.997884
1.00059 1.00087 1.00191 0.997816
0.999475 1 1.00108 0.9984
1.00009 1.00009 1.00189 0.998116
0.999558 1 1.00123 0.998334
0.999808 1 1.00104 0.998765
0.999164 1 1.00048 0.998685
1.00003 1 1.00109 0.998941
1.00034 1 1.00153 0.998813
0.999553 1 1.00094 0.998618
0.999369 1 1 0.999369
0.999177 1 1.00007 0.999107
0.999333 1 1.00043 0.998898
0.999877 1 1 0.999877
0.999484 1 1 0.999484
0.999177 1 1 0.999177
0.999558 1 1 0.999558
0.999907 1 1 0.999907
1 1 1 1
0.99992 1 1 0.99992
1 1 1 1
1 1 1 1
1 1 1 1
1 1 1 1
1 1 1 1
0.999524 1 1 0.999524
0.999884 1 1 0.999884
0.99954 1 1 0.99954
1 1 1 1
0.999892 1 1 0.999892
0.999611 1 1 0.999611
1 1 1 1
1 1 1 1
0.999902 1 1 0.999902
1 1 1 1
1 1 1 1
1 1 1 1
0.981281 0.987154 0.99517 0.998876
0.971737 0.977 0.996113 0.998495
0.973554 0.978769 0.998471 0.996195
0.999276 1 1 0.999276
0.999178 1 1 0.999178
0.99934 1 1 0.99934
0.999291 1 1 0.999291
0.99919 1 1 0.99919
0.999195 1 1 0.999195
0.999114 1 1 0.999114
0.972149 0.976286 0.999424 0.996337
0.980266 0.98506 0.9979 0.997226
0.974315 0.976264 1.00121 0.996794
0.938118 0.989017 0.954759 0.993483
0.962514 0.96972 0.998406 0.994153
0.970907 0.967836 1.01335 0.98996
0.923596 0.946893 0.985479 0.989769
0.95957 0.969731 0.995294 0.994201
0.969607 0.965553 1.01576 0.988615
0.928358 0.955569 0.981367 0.98997
0.921858 0.967537 0.959816 0.992678
0.955122 0.967878 0.991118 0.995664
0.970392 0.969131 1.0131 0.98835
0.937314 0.964058 0.981212 0.990876
0.9034 0.955564 0.953664 0.991345
0.999096 1 1 0.999096
0.999041 1 1 0.999041
0.999043 1 1 0.999043
0.999173 1 1 0.999173
0.992709 0.996216 0.997025 0.999453
1.00193 0.992689 1.0098 0.999505
0.998963 1 1 0.998963
0.999936 1 1.00101 0.998932
1.00572 1 1.00669 0.999033
0.999028 1 1 0.999028
1.00313 1 1.00407 0.999067
0.99544 0.982746 1.01363 0.999294
0.994632 0.993089 1.0019 0.999655
1.0003 1 1.00117 0.999137
1.00162 0.980331 1.02245 0.999287
1.00481 0.99633 1.00917 0.999342
0.976857 0.979053 0.998968 0.998787
0.986999 0.988981 0.998658 0.999336
0.976569 0.978733 0.998762 0.999027
1.00618 0.995825 1.0106 0.999805
0.983848 0.975383 1.00945 0.999235
0.978645 0.986689 0.99273 0.999112
0.975946 0.967128 1.02117 0.9882
0.921616 0.9497 0.980659 0.989568
0.975856 0.978001 1.001 0.996811
0.894931 0.948 0.95341 0.990152
1.01159 0.983562 1.02867 0.999838
0.971616 0.977231 0.995729 0.99852
0.97923 0.985176 0.999669 0.994294
0.960038 0.971084 0.990611 0.997995
0.84584 0.906431 0.943665 0.988862
0.906894 0.948443 0.965867 0.989984
0.979544 0.969875 1.02111 0.989088
0.998966 0.983361 1.01639 0.999484
0.973866 0.979675 0.997825 0.996238
0.909318 0.934602 0.981607 0.991178
0.871103 0.918859 0.957258 0.990358
0.968412 0.964113 1.01554 0.989091
0.948561 0.966863 0.986241 0.994758
1.01205 0.997628 1.01487 0.99959
1.01893 0.997195 1.02228 0.999522
1.01331 1 1.01393 0.999384
1.00618 1 1.00678 0.999403
1.0162 0.99967 1.0175 0.999058
1.00993 1.00005 1.01148 0.998412
1.00702 1 1.00837 0.998663
1.01271 1 1.01457 0.998161
1.0068 1.00017 1.00883 0.997817
1.00411 1 1.00585 0.998272
1.00333 1 1.0055 0.997842
1.0029 1.00172 1.00349 0.997689
1.00117 1.00337 1 0.997808
0.999674 1.00091 1.00077 0.997997
1.00086 1.00092 1.00218 0.997769
0.998719 1 1.00013 0.998593
0.99918 1 1.00074 0.998438
1.00013 1.00015 1.0019 0.998088
0.999776 1 1.00098 0.998802
0.999817 1 1.00106 0.998758
0.999172 1 1.00043 0.998746
0.999206 1 1 0.999206
0.999901 1 1.00094 0.998967
1.00037 1 1.00154 0.99884
0.999794 1 1 0.999794
0.999369 1 1 0.999369
0.999172 1 1.00006 0.999109
1 1 1 1
0.999872 1 1 0.999872
0.999483 1 1 0.999483
0.999903 1 1 0.999903
1 1 1 1
1 1 1 1
1 1 1 1
1 1 1 1
1 1 1 1
0.999272 1 1 0.999272
0.999489 1 1 0.999489
0.999858 1 1 0.999858
0.999523 1 1 0.999523
1 1 1 1
0.999888 1 1 0.999888
0.999555 1 1 0.999555
1 1 1 1
1 1 1 1
0.999917 1 1 0.999917
1 1 1 1
1 1 1 1
1 1 1 1
0.971644 0.977188 0.995827 0.998493
0.979739 0.986809 0.993838 0.998991
0.971566 0.97833 0.994568 0.99851
0.999284 1 1 0.999284
0.999165 1 1 0.999165
0.999106 1 1 0.999106
0.999167 1 1 0.999167
0.999093 1 1 0.999093
0.999289 1 1 0.999289
0.999174 1 1 0.999174
0.999196 1 1 0.999196
0.999109 1 1 0.999109
0.999145 1 1 0.999145
0.972734 0.978593 0.999682 0.994328
0.975446 0.978783 1.00024 0.996353
0.977921 0.982547 0.997557 0.997729
0.918659 0.965269 0.958658 0.992755
0.928284 0.950144 0.985752 0.991114
0.95136 0.96426 0.993117 0.99346
0.976632 0.973019 1.01499 0.988888
0.956697 0.968798 0.99347 0.994
0.982789 0.97704 1.01727 0.988811
0.92536 0.957121 0.976109 0.99048
0.9036 0.956516 0.953344 0.99091
0.975118 0.975849 1.00436 0.994916
0.972103 0.971371 1.01172 0.989161
0.895896 0.939912 0.963405 0.989376
0.867449 0.927393 0.94522 0.989572
0.999357 1 1 0.999357
0.999099 1 1 0.999099
0.999041 1 1 0.999041
0.991982 0.980739 1.01259 0.998884
0.994936 0.993258 1.00194 0.999748
0.999031 1 1.00001 0.999023
1.00443 1 1.00538 0.999054
1.0005 1 1.00136 0.999144
1.00523 0.997337 1.00859 0.999334
0.999441 0.978975 1.0216 0.999316
1.00544 1 1.00607 0.999367
1.00149 0.987403 1.0152 0.99908
0.974141 0.979219 0.998381 0.996427
0.975733 0.978426 0.998327 0.998919
0.983384 0.986637 0.997267 0.999434
1.01578 0.98509 1.03131 0.99985
0.961653 0.973694 0.992132 0.995466
0.970954 0.977968 0.994285 0.998534
0.974835 0.971658 1.01627 0.987212
0.902696 0.94238 0.968037 0.989517
0.980774 0.985421 1.00102 0.994272
0.839381 0.905538 0.938185 0.988016
0.997506 0.982022 1.01622 0.999557
0.974821 0.980352 0.998107 0.996244
0.900403 0.928409 0.978843 0.990797
0.94971 0.968513 0.984849 0.995671
0.877848 0.92388 0.9605 0.989252
0.958739 0.961987 1.00848 0.98824
0.978492 0.983467 0.996002 0.998936
0.928185 0.941729 0.992968 0.992597
0.876242 0.916142 0.966666 0.98943
0.970371 0.97161 1.00994 0.9889
0.959367 0.969592 0.993565 0.995863
1.01787 0.995434 1.02303 0.999515
1.01514 0.999664 1.01612 0.999367
0.993228 1.00003 0.994269 0.998925
1.0156 0.999327 1.01719 0.999112
1.01039 1.00033 1.01159 0.998486
1.00244 1.00161 1.00272 0.998119
1.0118 1 1.01371 0.998118
1.00555 1.00031 1.00742 0.997827
0.99941 1.00147 1.00003 0.997913
1.00341 1 1.00562 0.9978
1.00314 1.00271 1.00273 0.997704
1.00429 1.00638 1 0.997932
1.00541 1.00738 1 0.998036
1.00143 1.00356 1.00002 0.997864
1.00126 1.00344 1 0.99782
0.998643 1.0004 1 0.998249
0.999543 1.00052 1.00107 0.997955
1.00113 1.00098 1.00244 0.997722
0.998737 1 1 0.998737
0.998664 1 1.00002 0.99864
0.998794 1 1.00032 0.998477
0.999042 1 1 0.999042
0.999854 1 1.00104 0.998816
0.999845 1 1.0011 0.998751
0.999642 1 1 0.999642
0.999284 1 1.00008 0.999207
0.999795 1 1.0008 0.998993
1 1 1 1
0.99979 1 1 0.99979
0.99937 1 1 0.99937
1 1 1 1
1 1 1 1
0.999867 1 1 0.999867
1 1 1 1
1 1 1 1
1 1 1 1
0.999202 1 1 0.999202
0.999444 1 1 0.999444
0.999261 1 1 0.999261
0.999838 1 1 0.999838
0.999489 1 1 0.999489
1 1 1 1
0.999861 1 1 0.999861
0.999522 1 1 0.999522
1 1 1 1
1 1 1 1
0.999892 1 1 0.999892
1 1 1 1
1 1 1 1
1 1 1 1
0.976184 0.98133 0.998111 0.996638
0.970683 0.976535 0.995492 0.998508
0.978788 0.98638 0.99319 0.999107
0.999097 1 1 0.999097
0.999293 1 1 0.999293
0.999152 1 1 0.999152
0.99918 1 1 0.99918
0.999119 1 1 0.999119
0.999088 1 1 0.999088
0.999023 1 1 0.999023
0.999073 1 1 0.999073
0.999197 1 1 0.999197
0.999105 1 1 0.999105
0.999138 1 1 0.999138
0.999195 1 1 0.999195
0.901375 0.931469 0.977097 0.990375
0.975098 0.980365 1.00033 0.994297
0.977705 0.980216 1.00107 0.996369
0.899014 0.954296 0.950936 0.990678
0.932438 0.963183 0.977884 0.989975
0.970946 0.968653 1.01413 0.9884
0.958527 0.967723 0.995525 0.994949
0.975105 0.974938 1.00382 0.996369
0.854182 0.917078 0.941999 0.988766
0.974324 0.970156 1.0164 0.988091
0.900886 0.945521 0.962083 0.990344
0.968864 0.975761 0.996248 0.996671
0.965379 0.963322 1.0126 0.989661
0.874057 0.922289 0.957222 0.990056
1.00004 1 1.00041 0.999637
0.999358 1 1 0.999358
0.999102 1 1 0.999102
1.00017 0.980761 1.02046 0.999337
1.00642 0.99918 1.00792 0.999325
1.00056 1 1.00141 0.999152
1.00527 1 1.00591 0.999368
1.00026 0.987694 1.01362 0.99912
1.00422 0.995543 1.00939 0.999336
0.924676 0.940992 0.990823 0.991761
0.974024 0.978517 0.998429 0.996975
0.97491 0.977709 0.998085 0.99905
0.996015 0.980379 1.01632 0.99963
0.949026 0.970494 0.981468 0.996343
0.975803 0.981002 0.998441 0.996253
0.966272 0.964678 1.01183 0.989942
0.885958 0.933773 0.958386 0.989991
0.892975 0.927129 0.972317 0.990584
0.977977 0.984226 0.994658 0.998987
0.918746 0.939772 0.985276 0.992236
0.890003 0.921069 0.975693 0.990345
0.959022 0.967261 0.99728 0.994187
0.959733 0.968169 1.00189 0.989421
0.968049 0.990139 0.97836 0.999315
0.899999 0.930749 0.976177 0.990561
0.962481 0.973893 0.998374 0.989892
0.972869 0.981668 0.997042 0.993977
1.01786 0.999339 1.0192 0.99935
0.989669 1.00003 0.990637 0.998997
0.982176 1.0019 0.981634 0.99865
1.01124 1.00059 1.0121 0.99856
1.00293 1.00191 1.00291 0.998113
1.00069 1.00296 0.999428 0.998302
1.00469 1.00049 1.00638 0.997838
0.99949 1.00108 1.00048 0.997928
1.00693 1.00865 1 0.998291
1.00348 1.00372 1.00205 0.997719
1.00413 1.0062 1 0.997936
1.00961 1.01132 1 0.99831
1.01018 1.01189 1 0.998306
1.0049 1.00691 1 0.998007
1.00553 1.00749 1 0.998055
1.00076 1.00271 1 0.998063
1.0014 1.00351 1 0.997898
1.00134 1.00352 1 0.997832
0.998549 1 1 0.998549
0.999114 1.00072 1.00014 0.99826
0.999613 1.00023 1.00148 0.997912
0.99893 1 1 0.99893
0.998733 1 1 0.998733
0.998687 1 1 0.998687
0.999462 1 1 0.999462
0.999113 1 1.00007 0.999044
0.999911 1 1.00108 0.99883
0.999998 1 1 0.999998
0.999639 1 1 0.999639
0.999345 1 1.00014 0.999207
1 1 1 1
1 1 1 1
0.999785 1 1 0.999785
1 1 1 1
1 1 1 1
1 1 1 1
0.99918 1 1 0.99918
0.999204 1 1 0.999204
0.999384 1 1 0.999384
0.999815 1 1 0.999815
0.999445 1 1 0.999445
0.99925 1 1 0.99925
1 1 1 1
0.99984 1 1 0.99984
0.999488 1 1 0.999488
1 1 1 1
1 1 1 1
0.999864 1 1 0.999864
1 1 1 1
1 1 1 1
1 1 1 1
0.921747 0.936903 0.992016 0.991741
0.97531 0.980335 0.998216 0.996653
0.970052 0.976241 0.995132 0.998522
0.999085 1 1 0.999085
0.99904 1 1 0.99904
0.99902 1 1 0.99902
0.999192 1 1 0.999192
0.999132 1 1 0.999132
0.999083 1 1 0.999083
0.99907 1 1 0.99907
0.999021 1 1 0.999021
0.998948 1 1 0.998948
0.999179 1 1 0.999179
0.999132 1 1 0.999132
0.999193 1 1 0.999193
0.887716 0.91965 0.974832 0.990197
0.897845 0.927031 0.978236 0.990064
0.978048 0.982618 1.00109 0.994269
0.840161 0.904959 0.939714 0.987958
0.900284 0.942575 0.96542 0.989343
0.978905 0.974794 1.01403 0.990321
0.976466 0.97251 1.00939 0.994726
0.965461 0.972148 0.997944 0.995167
0.874388 0.91724 0.9638 0.989085
0.959171 0.961118 1.00835 0.989714
0.96604 0.973187 0.997038 0.995605
0.960692 0.97068 1.00052 0.989194
1.00735 1 1.00819 0.999166
0.999866 1 1.00027 0.9996
0.99936 1 1 0.99936
0.996058 0.985004 1.01207 0.99916
1.00523 1 1.00587 0.999369
1.00489 0.996509 1.00918 0.999242
0.998695 1.00067 0.999412 0.998613
0.896849 0.936858 0.966564 0.99041
0.928714 0.941517 0.99401 0.992345
0.974831 0.97845 0.998779 0.997519
0.976393 0.984815 0.992383 0.999058
0.958638 0.966958 0.996263 0.995114
0.919184 0.940628 0.984802 0.992284
0.961042 0.966783 1.00514 0.988976
0.892101 0.926623 0.972864 0.989598
0.971504 0.99079 0.981516 0.999
0.902402 0.934071 0.97584 0.990015
0.965114 0.9756 1.0001 0.989151
0.976179 0.980125 1.00059 0.995383
0.985565 0.997785 0.988635 0.999108
0.959201 0.977422 0.992332 0.988941
0.982323 0.990091 0.995893 0.996245
0.986028 1 0.986946 0.99907
0.983012 1.00227 0.982134 0.998631
0.983441 1.00499 0.979979 0.998554
1.00312 1.00226 1.00276 0.998106
1.00022 1.00329 0.998648 0.998297
1.00773 1.01187 0.997227 0.998674
0.999338 1.00062 1.00078 0.997943
1.00684 1.00857 1 0.998286
1.01412 1.01552 1 0.998618
1.00391 1.00598 1 0.997941
1.0091 1.01081 1 0.99831
1.01201 1.01348 1 0.998543
1.01 1.01156 1 0.998459
1.00999 1.01167 1 0.998337
1.00849 1.01027 1 0.998241
1.00457 1.00649 1 0.998096
1.00532 1.00732 1 0.99801
1.00566 1.0076 1 0.998075
0.998925 1.00063 1 0.998298
1.00112 1.00303 1 0.998095
1.00129 1.00337 1 0.997932
0.998797 1 1 0.998797
0.998637 1.00009 1 0.998543
0.999382 1.00094 1.00017 0.998271
0.999325 1 1 0.999325
0.99893 1 1 0.99893
0.998729 1 1 0.998729
0.999977 1 1 0.999977
0.999462 1 1 0.999462
0.999201 1 1.00015 0.999047
1 1 1 1
0.999993 1 1 0.999993
0.999636 1 1 0.999636
1 1 1 1
1 1 1 1
1 1 1 1
0.99911 1 1 0.99911
0.999167 1 1 0.999167
0.999317 1 1 0.999317
0.999206 1 1 0.999206
0.999384 1 1 0.999384
0.99977 1 1 0.99977
1 1 1 1
0.999816 1 1 0.999816
0.999445 1 1 0.999445
1 1 1 1
1 1 1 1
0.999842 1 1 0.999842
1 1 1 1
1 1 1 1
1 1 1 1
0.907307 0.933459 0.981771 0.990031
0.92176 0.938991 0.990139 0.991426
0.97363 0.978572 0.998278 0.996666
0.999072 1 1 0.999072
0.998999 1 1 0.998999
0.999062 1 1 0.999062
0.998922 1 1 0.998922
0.998961 1 1 0.998961
0.999068 1 1 0.999068
0.999019 1 1 0.999019
0.998961 1 1 0.998961
0.998869 1 1 0.998869
0.999021 1 1 0.999021
0.998957 1.00022 1.00026 0.998482
0.999321 1 1.00011 0.999212
0.999191 1 1 0.999191
0.960842 0.977819 0.993976 0.988594
0.891528 0.920206 0.978678 0.989943
0.89945 0.929858 0.977136 0.989932
0.874083 0.917176 0.962846 0.98979
0.96503 0.963624 1.01372 0.987908
0.967657 0.970872 0.999898 0.99679
0.968357 0.975103 0.996542 0.996528
0.96297 0.971987 1.00086 0.989875
0.980959 0.993534 0.991778 0.995529
1.00297 1.00132 1.00327 0.99839
1.0058 1 1.00666 0.999147
0.999562 1 1 0.999562
1.00538 0.998201 1.00804 0.999159
0.999081 1.00101 0.999531 0.998538
0.948388 0.97396 0.98376 0.989819
0.903774 0.936727 0.974568 0.99
0.932943 0.942049 0.99738 0.992935
0.974785 0.991531 0.984416 0.998675
0.970875 0.974862 1.00188 0.99404
0.903146 0.93247 0.978561 0.989771
0.966476 0.974583 1.00189 0.989816
0.983859 0.998252 0.98647 0.9991
0.960525 0.978206 0.991753 0.990091
0.983716 0.99153 0.997324 0.994781
1.0007 1.00551 0.99659 0.998618
0.99048 0.996936 0.996086 0.997428
0.983673 1.00276 0.982333 0.998612
0.985599 1.00451 0.982643 0.998509
1.00358 1.01981 0.985455 0.998608
0.999987 1.00358 0.998123 0.998292
1.0066 1.01078 0.997193 0.998665
1.01404 1.01919 0.996165 0.998779
1.00673 1.00846 1 0.998281
1.01416 1.01571 0.999873 0.998604
1.01479 1.01623 0.999918 0.998669
1.00866 1.01037 1 0.998309
1.01209 1.01358 1 0.99853
1.01017 1.01166 1 0.998532
1.01039 1.01192 1 0.998492
1.00901 1.01068 1 0.998349
1.00984 1.01149 1 0.998368
1.00833 1.01011 1 0.998236
1.0056 1.00742 1 0.998196
1.00066 1.00245 1 0.998217
1.00437 1.00629 1 0.998089
1.00568 1.00768 1 0.998013
0.998623 1 1 0.998623
0.999126 1.00081 1 0.998319
1.00159 1.00347 1 0.998128
0.999215 1 1 0.999215
0.998793 1 1 0.998793
0.998761 1.00022 1 0.998537
0.999924 1 1 0.999924
0.999327 1 1 0.999327
0.99893 1 1 0.99893
1 1 1 1
0.999964 1 1 0.999964
0.999462 1 1 0.999462
1 1 1 1
0.999989 1 1 0.999989
1 1 1 1
0.998953 1 1 0.998953
0.99911 1 1 0.99911
0.99921 1 1 0.99921
0.999155 1 1 0.999155
0.999299 1 1 0.999299
0.99968 1 1 0.99968
0.999383 1 1 0.999383
0.999771 1 1 0.999771
1 1 1 1
1 1 1 1
1 1 1 1
0.999818 1 1 0.999818
1 1 1 1
1 1 1 1
1 1 1 1
0.962066 0.978635 0.992877 0.990121
0.901058 0.935785 0.972132 0.990493
0.929377 0.943341 0.993686 0.991457
0.998977 1 1 0.998977
0.999084 1 1 0.999084
0.998971 1 1 0.998971
0.99893 1 1 0.99893
0.998756 1 1.00002 0.998734
0.998919 1 1 0.998919
0.998975 1 1 0.998975
0.998814 1 1 0.998814
0.999101 1 1.00011 0.998989
0.998717 1 1 0.998717
1.0007 1.00213 1 0.998572
0.99902 1.00113 0.999874 0.99802
0.99932 1.00071 1.00006 0.99855
0.999469 1 1.00022 0.999245
0.978889 0.991068 0.991978 0.995698
0.961668 0.977016 0.994761 0.989475
0.886174 0.921166 0.972146 0.989578
0.972411 0.97612 1.00732 0.988965
0.966757 0.976141 0.993091 0.997278
0.985722 0.995087 0.993401 0.997169
0.994784 1.00421 0.992051 0.998553
1.00047 1.00067 1.00132 0.99848
1.00475 1 1.00563 0.999128
0.997661 1.00112 0.998088 0.998453
0.976877 0.985693 0.995454 0.995583
0.955347 0.974303 0.989823 0.990625
0.898606 0.933938 0.97117 0.990731
0.984427 0.999861 0.985462 0.999089
0.989862 0.993026 1.00093 0.995887
0.961832 0.978957 0.991155 0.991275
0.994811 1.00461 0.99161 0.998627
0.988293 0.996104 0.995275 0.996869
1.00787 1.02116 0.988581 0.998382
1.00735 1.01459 0.994562 0.998291
0.98765 1.0039 0.985329 0.998463
1.00487 1.01987 0.986669 0.9986
1.01001 1.02302 0.988656 0.998612
1.00558 1.00995 0.997009 0.998657
1.01392 1.01877 0.996472 0.998768
1.01271 1.01684 0.997347 0.998594
1.01429 1.01598 0.999744 0.99859
1.01442 1.01597 0.99982 0.998655
1.01165 1.0133 0.999919 0.998462
1.01211 1.01361 1 0.998517
1.00982 1.0113 1 0.998535
1.00969 1.01138 1 0.998333
1.01076 1.01225 1 0.998525
1.00873 1.01038 1 0.998372
1.00606 1.00784 1 0.998231
1.00819 1.00998 1 0.998231
1.00553 1.00736 1 0.99819
1.00108 1.00282 1 0.998261
0.998471 1 1 0.998468
1.0006 1.00237 1 0.998236
1.00417 1.0061 1 0.998082
0.999077 1 1 0.999077
0.998624 1 1 0.998622
0.999319 1.00098 1 0.998339
0.999848 1 1 0.999848
0.999214 1 1 0.999214
0.998788 1 1 0.998788
1 1 1 1
0.999911 1 1 0.999911
0.999328 1 1 0.999328
1 1 1 1
0.999951 1 1 0.999951
1 1 1 1
0.998782 1 1 0.998782
0.998964 1 1 0.998964
0.999092 1 1 0.999092
0.99911 1 1 0.99911
0.999196 1 1 0.999196
0.999555 1 1 0.999555
0.999281 1 1 0.999281
0.999681 1 1 0.999681
0.999997 1 1 0.999997
0.999773 1 1 0.999773
1 1 1 1
1 1 1 1
1 1 1 1
1 1 1 1
1 1 1 1
0.974143 0.986272 0.991769 0.995899
0.956766 0.976904 0.989629 0.989649
0.897063 0.933331 0.971039 0.989806
0.999691 1.00113 1.00007 0.998503
0.998981 1 1 0.998981
0.998938 1 1 0.998938
0.998907 1 1 0.998907
0.998847 1 1.00012 0.998724
0.99905 1.00017 1 0.998884
0.998759 1 1 0.998759
0.999174 1 1.00022 0.998957
0.99876 1 1 0.99876
1.00002 1.00146 1 0.998566
1.00108 1.00299 1 0.998096
1.00362 1.0058 0.999965 0.997867
0.999993 1.00188 1.00013 0.997984
0.999931 1.00131 1 0.998619
0.999536 1.00617 0.994443 0.998956
0.979518 0.992291 0.992068 0.995021
0.964606 0.977829 0.995894 0.990544
0.982159 0.992319 0.993839 0.995897
0.999301 1.00615 0.99443 0.998752
1.00009 1.0002 1.00132 0.998571
1.00267 1.00668 0.997573 0.998441
0.976037 0.983777 0.995449 0.996668
0.952176 0.975266 0.986301 0.989886
0.988166 1.00289 0.986665 0.998633
0.988275 0.996207 0.995802 0.996221
1.00762 1.02179 0.987725 0.99839
1.00675 1.01276 0.995674 0.998391
1.01442 1.02595 0.990388 0.998359
1.0148 1.0187 0.99787 0.9983
1.00631 1.01986 0.988102 0.998593
1.01182 1.02401 0.989464 0.998619
1.00718 1.01596 0.99289 0.998462
1.01372 1.01816 0.996877 0.998757
1.01389 1.01759 0.997769 0.998592
1.01168 1.01418 0.999193 0.998341
1.01408 1.01573 0.999733 0.998642
1.01182 1.01341 0.999952 0.998478
1.01103 1.01283 1 0.998221
1.00949 1.01097 1 0.998538
1.00926 1.01095 1 0.998333
1.00792 1.00976 1 0.998181
1.00845 1.01008 1 0.998395
1.00616 1.00793 1 0.998241
1.00139 1.00318 1 0.99822
1.00545 1.00728 1 0.998183
1.00109 1.00285 1 0.998245
0.998579 1.00014 1 0.998436
0.998953 1 1 0.998953
0.998495 1 1 0.998491
1.00053 1.00228 1 0.998256
0.999759 1 1 0.999759
0.999076 1 1 0.999076
0.998622 1 1 0.998622
1 1 1 1
0.999837 1 1 0.999837
0.999212 1 1 0.999212
1 1 1 1
0.999897 1 1 0.999897
1 1 1 1
0.998634 1.00008 1 0.99855
0.998785 1 1 0.998785
0.998956 1 1 0.998956
0.998976 1 1 0.998976
0.999099 1 1 0.999099
0.999432 1 1 0.999432
0.999183 1 1 0.999183
0.999554 1 1 0.999554
0.999981 1 1 0.999981
0.999683 1 1 0.999683
0.999998 1 1 0.999998
1 1 1 1
1 1 1 1
1 1 1 1
1 1 1 1
1.00479 1.01037 0.995517 0.998959
0.973504 0.986745 0.991968 0.99457
0.960519 0.975027 0.994759 0.990311
1.001 1.00239 1.00001 0.998604
1.00255 1.00432 1 0.998236
0.999409 1.00074 1.00013 0.998535
0.998894 1 1 0.998894
0.998957 1 1.00024 0.998713
0.999255 1.00041 1 0.99884
1.00268 1.00446 1 0.998231
0.998802 1 1 0.998802
0.999197 1.00064 1 0.99856
1.00121 1.00308 1 0.99814
1.00622 1.00846 1 0.997782
1.0119 1.01497 0.998779 0.998186
1.00289 1.00524 0.999803 0.997858
1.00054 1.0026 1 0.997949
1.0027 1.00884 0.994886 0.99903
0.978347 0.991521 0.992469 0.994201
1.00123 1.00753 0.994788 0.998955
1.01401 1.01705 0.998249 0.998758
1.00166 1.00539 0.997779 0.998505
0.9738 0.984528 0.993838 0.995235
1.00726 1.02251 0.986663 0.9984
1.00561 1.01101 0.996163 0.998493
1.01311 1.02593 0.989082 0.998402
1.01706 1.02053 0.998284 0.998314
1.01167 1.01936 0.994111 0.998337
1.0217 1.02471 0.998626 0.998436
1.01329 1.02514 0.989792 0.998626
1.00725 1.01564 0.99326 0.998466
1.01411 1.01873 0.997209 0.998251
1.01498 1.0183 0.998147 0.998589
1.01185 1.01409 0.999447 0.998341
1.01317 1.01506 1 0.998145
1.01192 1.01347 0.999975 0.998495
1.01073 1.01253 1 0.99822
1.01078 1.01273 1 0.998084
1.00884 1.01052 1 0.998334
1.00793 1.00977 1 0.998182
1.00239 1.00424 1 0.998153
1.00625 1.00802 1 0.998251
1.00149 1.00328 1 0.998221
0.998622 1.00024 1 0.998381
1.00109 1.00287 1 0.998228
0.998558 1.00013 1 0.998426
0.998875 1 1 0.998875
0.999685 1 1 0.999685
0.998953 1 1 0.998953
0.998521 1.00001 1 0.998514
1 1 1 1
0.999748 1 1 0.999748
0.999075 1 1 0.999075
1 1 1 1
0.999826 1 1 0.999826
1 1 1 1
0.999002 1.0007 1 0.998301
0.998592 1.00007 1 0.998525
0.998751 1 1 0.998751
0.998789 1 1 0.998789
0.99896 1 1 0.99896
0.999311 1 1 0.999311
0.999106 1 1 0.999106
0.999431 1 1 0.999431
0.999941 1 1 0.999941
0.999554 1 1 0.999554
0.999987 1 1 0.999987
1 1 1 1
0.999999 1 1 0.999999
1 1 1 1
1 1 1 1
1.01262 1.01716 0.996971 0.998567
1.00286 1.00942 0.994734 0.998759
0.972401 0.985974 0.990832 0.99536
1.00598 1.00777 1 0.998222
1.00017 1.00142 1 0.998761
1.00951 1.01147 1 0.998068
1.00235 1.00414 1 0.998221
0.999113 1.00037 1.00018 0.998567
1.01227 1.01444 1 0.997861
0.999457 1.00066 1 0.998798
1.00275 1.00457 1 0.998181
1.01658 1.01868 1 0.99794
1.00128 1.0031 1 0.998183
1.00678 1.00904 1 0.997758
1.0108 1.01357 0.999079 0.998193
1.00186 1.00402 1 0.997846
1.00524 1.0108 0.995393 0.999106
1.02171 1.02379 0.999441 0.998523
1.01372 1.01687 0.998138 0.998758
1.00098 1.00409 0.99833 0.998565
1.01189 1.02589 0.987892 0.998447
1.01862 1.02182 0.998535 0.998329
1.01196 1.01981 0.993942 0.998349
1.0224 1.0258 0.998235 0.998444
1.02212 1.02565 0.998218 0.998337
1.00736 1.01524 0.993756 0.998471
1.01434 1.01844 0.997712 0.998258
1.01643 1.01912 0.999235 0.998129
1.01204 1.01404 0.999692 0.998341
1.01269 1.01459 1 0.998131
1.01328 1.01531 1 0.998
1.01046 1.01226 1 0.998219
1.0106 1.01254 1 0.998082
1.00447 1.00642 1 0.998059
1.00795 1.00978 1 0.998182
1.00264 1.00449 1 0.998153
0.998775 1.00048 1 0.998294
1.00161 1.00339 1 0.998223
0.99866 1.00028 1 0.998382
0.998805 1 1 0.998805
0.998534 1.00012 1 0.998416
0.998874 1 1 0.998874
0.999687 1 1 0.999687
0.999928 1 1 0.999928
0.999695 1 1 0.999695
0.998953 1 1 0.998953
1 1 1 1
0.999737 1 1 0.999737
1 1 1 1
1.01199 1.0139 1 0.99811
1.002 1.0038 1 0.998208
0.998713 1.00043 1 0.998281
0.998675 1.0001 1 0.998573
0.998553 1.00005 1 0.9985
0.998755 1 1 0.998755
0.999178 1 1 0.999178
0.998964 1 1 0.998964
0.999313 1 1 0.999313
0.999877 1 1 0.999877
0.999431 1 1 0.999431
0.999954 1 1 0.999954
1 1 1 1
0.999992 1 1 0.999992
1 1 1 1
1 1 1 1
1.02174 1.02365 0.999834 0.998293
1.01655 1.02061 0.997377 0.998647
1.00239 1.00962 0.994272 0.998558
1.01427 1.01637 1 0.997936
1.005 1.00671 1 0.998301
0.999335 1.00042 1 0.998916
1.00994 1.01187 1 0.998091
1.00214 1.00395 1 0.998206
1.01946 1.02159 1 0.997916
1.01151 1.01372 1 0.997827
1.00295 1.00483 1 0.998131
1.01654 1.01865 1 0.997933
1.00836 1.01065 1 0.997733
1.01187 1.01452 0.999176 0.998202
1.02454 1.02665 0.999522 0.998422
1.02295 1.02488 0.999588 0.998524
1.01418 1.017 0.998467 0.998758
1.01269 1.0207 0.993783 0.998361
1.02348 1.02713 0.997999 0.998452
1.02203 1.02624 0.99754 0.998352
1.02163 1.0235 0.999995 0.998175
1.0146 1.01814 0.998255 0.998264
1.01663 1.01891 0.999638 0.998123
1.01542 1.01748 1 0.997983
1.0122 1.01411 1 0.998118
1.01334 1.01537 1 0.998
1.00722 1.00926 1 0.997978
1.01041 1.01235 1 0.998081
1.0047 1.00665 1 0.998059
0.999253 1.00106 1 0.998198
1.00288 1.00474 1 0.998154
0.998911 1.00062 1 0.998294
0.998716 1 1 0.998716
0.9987 1.00032 1 0.998384
0.998803 1 1 0.998803
0.999678 1 1 0.999678
0.998873 1 1 0.998873
0.999683 1 1 0.999683
0.999929 1 1 0.999929
0.999965 1 1 0.999965
0.999706 1 1 0.999706
1 1 1 1
1.01446 1.01654 1 0.997949
1.00338 1.00517 1 0.998213
1.01161 1.01344 1 0.9982
0.998708 1.00027 1 0.998435
1.00243 1.00423 1 0.998204
0.998412 1.00015 1 0.99826
0.998644 1.00007 1 0.998573
0.99903 1 1 0.99903
0.99876 1 1 0.99876
0.99918 1 1 0.99918
0.999796 1 1 0.999796
0.999315 1 1 0.999315
0.999893 1 1 0.999893
1 1 1 1
0.999967 1 1 0.999967
1 1 1 1
1 1 1 1
1.02195 1.02383 1 0.998171
1.02083 1.02278 0.999797 0.99829
1.01841 1.0222 0.997559 0.998723
1.01883 1.02098 1 0.997897
1.01379 1.01588 1 0.99794
1.00401 1.00564 1 0.998381
1.01032 1.01223 1 0.998115
1.01919 1.02133 1 0.997904
1.01053 1.01276 1 0.997794
1.01452 1.01663 1 0.997926
1.02366 1.02546 1 0.998239
1.02417 1.02631 0.999532 0.998386
1.02406 1.02597 0.999617 0.998525
1.02045 1.0224 1 0.998098
1.02183 1.02678 0.996805 0.998368
1.02132 1.02345 0.999742 0.998173
1.01733 1.01933 1 0.998035
1.01682 1.01874 1 0.998117
1.01551 1.01756 1 0.997985
1.00989 1.01199 1 0.997931
1.01339 1.01542 1 0.997999
1.00717 1.00921 1 0.997979
1.00018 1.00207 1 0.998115
1.00492 1.00687 1 0.998058
0.999514 1.00132 1 0.998197
0.998625 1 1 0.998625
0.999049 1.00076 1 0.998294
0.998714 1 1 0.998714
0.999659 1 1 0.999659
0.998801 1 1 0.998801
0.999672 1 1 0.999672
0.999931 1 1 0.999931
0.999679 1 1 0.999679
0.99993 1 1 0.99993
1 1 1 1
1.01515 1.01734 1 0.997851
1.00641 1.0084 1 0.998023
1.01476 1.01682 1 0.997976
0.99885 1.00046 1 0.99839
1.00334 1.00514 1 0.99821
1.01128 1.01301 1 0.998289
0.998878 1 1 0.998878
0.99872 1.00029 1 0.998432
1.00291 1.00472 1 0.998201
0.99863 1.00006 1 0.998572
0.999032 1 1 0.999032
0.999711 1 1 0.999711
0.999182 1 1 0.999182
0.999808 1 1 0.999808
1 1 1 1
0.999908 1 1 0.999908
1 1 1 1
1 1 1 1
1.02123 1.02321 1 0.998061
1.02234 1.02423 1 0.998154
1.0212 1.02316 0.999804 0.998288
1.01834 1.02049 1 0.9979
1.01335 1.01544 1 0.997943
1.01922 1.02137 1 0.997892
1.02026 1.0222 1 0.998099
1.02352 1.02534 1 0.998232
1.02354 1.0257 0.999541 0.99835
1.02057 1.02251 1 0.998109
1.01734 1.01938 1 0.998002
1.02097 1.02334 0.999513 0.99817
1.01714 1.01916 1 0.998018
1.01191 1.014 1 0.997943
1.01556 1.01761 1 0.997987
1.00963 1.01172 1 0.997934
1.00159 1.00355 1 0.998045
1.00717 1.00921 1 0.997979
1.00061 1.0025 1 0.998115
0.998553 1 1 0.998553
0.999781 1.00159 1 0.998197
0.998624 1 1 0.998624
0.999626 1 1 0.999626
0.998712 1 1 0.998712
0.999651 1 1 0.999651
0.999923 1 1 0.999923
0.999668 1 1 0.999668
0.999935 1 1 0.999935
0.99993 1 1 0.99993
1.01706 1.01912 1 0.997979
1.00871 1.01085 1 0.997889
1.0154 1.01758 1 0.997854
1.00001 1.00178 1 0.998227
1.00622 1.00821 1 0.998033
1.01499 1.01702 1 0.998003
0.998758 1 1 0.998758
0.998739 1.00039 1 0.998349
1.00326 1.00506 1 0.998208
0.999642 1 1 0.999642
0.99888 1 1 0.99888
0.998702 1.00027 1 0.998428
0.999034 1 1 0.999034
0.99972 1 1 0.99972
1 1 1 1
0.999819 1 1 0.999819
1 1 1 1
1 1 1 1
1.01864 1.02065 1 0.998029
1.02089 1.02288 1 0.99806
1.02259 1.0245 1 0.998138
1.01787 1.02001 1 0.997903
1.01802 1.02009 1 0.997972
1.02071 1.02265 1 0.998107
1.02341 1.02523 1 0.998224
1.0207 1.02262 1 0.99812
1.01725 1.01928 1 0.998008
1.01152 1.0136 1 0.99795
1.01702 1.01906 1 0.998001
1.01166 1.01375 1 0.99794
1.00306 1.00508 1 0.997998
1.00934 1.01143 1 0.997937
1.00207 1.00403 1 0.998047
0.998487 1 1 0.998487
1.00101 1.0029 1 0.998115
0.998552 1 1 0.998552
0.999545 1 1 0.999545
0.998622 1 1 0.998622
0.9996 1 1 0.9996
1 1 1 1
0.999644 1 1 0.999644
0.999929 1 1 0.999929
0.999936 1 1 0.999936
1.01639 1.01842 1 0.998012
1.00994 1.01203 1 0.99793
1.01681 1.01887 1 0.997978
1.00177 1.00373 1 0.998052
1.00876 1.01087 1 0.997909
1.01572 1.0179 1 0.997857
0.998584 1 1 0.998584
1.00002 1.00179 1 0.998226
1.00608 1.00805 1 0.998043
0.999602 1 1 0.999602
0.998723 1 1 0.998723
0.998642 1.00033 1 0.998309
1 1 1 1
0.999652 1 1 0.999652
0.998882 1 1 0.998882
0.99973 1 1 0.99973
1 1 1 1
1 1 1 1
1.0176 1.01966 1 0.997978
1.0191 1.0211 1 0.998038
1.02053 1.02252 1 0.998058
1.01236 1.01449 1 0.997903
1.01733 1.01939 1 0.997974
1.02116 1.02309 1 0.998114
1.01714 1.01916 1 0.998014
1.0116 1.01368 1 0.99795
1.00332 1.00531 1 0.99803
1.01138 1.01347 1 0.997937
1.0033 1.00528 1 0.998029
0.998361 1 1 0.998361
1.00257 1.00453 1 0.998048
0.998487 1 1 0.998487
0.999497 1 1 0.999497
0.998551 1 1 0.998551
0.999542 1 1 0.999542
1 1 1 1
0.999569 1 1 0.999569
0.999958 1 1 0.999958
0.999934 1 1 0.999934
1.01469 1.01673 1 0.997994
1.01037 1.01243 1 0.997968
1.01632 1.01834 1 0.998013
1.00249 1.00444 1 0.998058
1.01027 1.01237 1 0.997928
1.01655 1.01861 1 0.997978
0.998483 1 1 0.998483
1.00169 1.0036 1 0.998095
1.00878 1.01087 1 0.997929
0.999573 1 1 0.999573
0.998571 1 1 0.998571
1.00003 1.0018 1 0.998224
1 1 1 1
0.99961 1 1 0.99961
0.998688 1 1 0.998688
1 1 1 1
0.999662 1 1 0.999662
1 1 1 1
1.01261 1.0147 1 0.997933
1.01712 1.01918 1 0.997975
1.01958 1.02157 1 0.998047
1.00284 1.00484 1 0.998006
1.01239 1.0145 1 0.997913
1.0167 1.01876 1 0.997976
1.0117 1.01378 1 0.997951
1.00335 1.00534 1 0.99803
0.998313 1 1 0.998313
1.00353 1.00548 1 0.998061
0.998393 1 1 0.998393
0.999432 1 1 0.999432
0.998487 1 1 0.998487
0.999494 1 1 0.999494
1 1 1 1
0.99954 1 1 0.99954
1 1 1 1
0.999924 1 1 0.999924
1.01043 1.01247 1 0.997984
1.01487 1.01691 1 0.997998
1.00209 1.00404 1 0.998061
1.01024 1.01229 1 0.997967
1.01625 1.01827 1 0.998014
0.998494 1 1 0.998494
1.00242 1.00437 1 0.998056
1.0106 1.0127 1 0.997925
0.999539 1 1 0.999539
0.998508 1 1 0.998508
1.0016 1.00346 1 0.998137
1 1 1 1
0.999579 1 1 0.999579
0.998557 1 1 0.998557
1 1 1 1
0.999618 1 1 0.999618
1 1 1 1
1.00257 1.00454 1 0.998039
1.01252 1.01462 1 0.997932
1.01656 1.01863 1 0.997972
0.998303 1 1 0.998303
1.00286 1.00486 1 0.998006
1.01236 1.01447 1 0.997923
1.00338 1.00536 1 0.998029
0.998317 1 1 0.998317
0.999379 1 1 0.999379
0.998425 1 1 0.998425
0.999428 1 1 0.999428
1 1 1 1
0.99949 1 1 0.99949
1 1 1 1
1 1 1 1
1.00185 1.00381 1 0.99805
1.01012 1.01216 1 0.997984
1.01505 1.01708 1 0.998002
0.998467 1 1 0.998467
1.00231 1.00426 1 0.998059
1.01008 1.01214 1 0.997967
0.9995 1 1 0.9995
0.998493 1 1 0.998493
1.00236 1.00432 1 0.998053
1 1 1 1
0.999543 1 1 0.999543
0.998532 1 1 0.998532
1 1 1 1
0.999584 1 1 0.999584
1 1 1 1
0.998378 1 1 0.998378
1.00255 1.00455 1 0.998007
1.01247 1.01457 1 0.997931
0.999366 1 1 0.999366
0.998303 1 1 0.998303
1.00288 1.00488 1 0.998006
0.998321 1 1 0.998321
0.999377 1 1 0.999377
1 1 1 1
0.999425 1 1 0.999425
1 1 1 1
1 1 1 1
0.998426 1 1 0.998426
1.00191 1.00388 1 0.998041
1.00983 1.01187 1 0.997984
0.99953 1 1 0.99953
0.998466 1 1 0.998466
1.00253 1.00448 1 0.998057
1 1 1 1
0.999501 1 1 0.999501
0.998492 1 1 0.998492
1 1 1 1
0.999546 1 1 0.999546
1 1 1 1
0.999367 1 1 0.999367
0.998352 1 1 0.998352
1.00253 1.00457 1 0.997974
1 1 1 1
0.999365 1 1 0.999365
0.998303 1 1 0.998303
0.999375 1 1 0.999375
1 1 1 1
1 1 1 1
0.999481 1 1 0.999481
0.998426 1 1 0.998426
1.00197 1.00395 1 0.998031
1 1 1 1
0.999461 1 1 0.999461
0.998464 1 1 0.998464
1 1 1 1
0.999503 1 1 0.999503
1 1 1 1
0.999842 1 1 0.999842
0.999421 1 1 0.999421
0.998326 1 1 0.998326
1 1 1 1
0.999365 1 1 0.999365
1 1 1 1
0.99986 1 1 0.99986
0.999453 1 1 0.999453
0.998426 1 1 0.998426
0.999935 1 1 0.999935
0.999459 1 1 0.999459
1 1 1 1
1 1 1 1
0.999383 1 1 0.999383
1 1 1 1
0.999926 1 1 0.999926
0.999418 1 1 0.999418
1 1 1 1
1 1 1 1
1 1 1 1

VECTORS lamdaE float
0.999819 1.00017 0.995551
0.999731 1.00019 0.997966
0.999584 1.00036 0.995684
1.00009 0.999922 0.995413
0.9999 0.999994 0.995629
0.999803 1.00027 0.995405
1.001 1.0005 0.99289
0.999703 1.00006 0.998019
0.999674 1.00023 0.998136
0.999371 1.00058 0.998172
0.999706 0.999848 0.996061
1.00069 1.00117 0.992302
1.00008 1.00002 0.995254
0.99981 0.999962 0.995547
0.999375 1.00057 0.99579
0.999906 0.999899 0.995594
0.999562 1.00054 0.995531
0.999696 1.00007 0.995777
1.00114 1.00035 0.99283
1.00005 1 0.997794
1.00013 0.999979 0.995269
1.00001 0.999896 0.995563
1.00137 0.999962 0.992763
1.00117 1.00013 0.992955
0.999704 1.00004 0.995662
1.00078 1.00103 0.992711
1.00345 1.00034 0.988868
0.999651 0.999966 0.998095
0.999797 1.00011 0.996803
0.999549 1.00043 0.996824
0.999649 0.999651 0.998218
1.00059 1.00128 0.992316
1.00004 0.999842 0.995436
0.999802 1.00037 0.995455
1.00147 1.00016 0.993124
0.999402 0.999033 0.998688
1.0011 1.00083 0.99316
1.00037 1.00117 0.992867
1.00221 1.00218 0.988605
0.999491 0.998215 0.998959
1.00008 1.00001 0.997756
0.999942 0.999988 0.996666
1.00007 1 0.997761
0.99979 1.00002 0.995552
1.00161 1.00005 0.991729
0.999837 0.999953 0.998071
1.00168 1.00009 0.99286
0.999722 0.999841 0.995776
0.999504 1.00016 0.995912
0.999317 1.00087 0.995649
1.00127 1.00019 0.992784
0.999956 1.00001 0.99665
0.999939 0.999973 0.995462
0.999511 1.00028 0.995785
0.999833 0.999892 0.995728
1.00145 0.999922 0.992694
1.00091 1.00091 0.992661
1.00128 1.00004 0.992898
1.00343 1.00036 0.988868
1.00003 1 0.997789
1.00013 1.00001 0.995239
1.00146 1.00001 0.993192
1.00143 1 0.992624
1.00131 0.999952 0.992894
1.00378 0.999913 0.988635
1.00361 0.999975 0.988642
0.999643 0.999362 0.996339
1.00011 1.00149 0.993221
1.00304 1.00111 0.9888
1.00458 0.999933 0.986559
0.999942 1.00014 0.997892
0.999581 0.99943 0.998375
0.99971 1.00026 0.997944
1.0005 1.00135 0.992335
1.00005 0.999971 0.997871
0.99985 1.00031 0.997903
1.00137 1.00011 0.992004
0.99948 0.999112 0.997695
1.00091 1.00092 0.992061
1.00024 1.00122 0.993524
1.00223 1.00212 0.988597
0.999561 0.998595 0.998739
0.999628 0.999732 0.995624
1.00156 0.999945 0.991914
1.00128 1.00041 0.991982
1.00377 1.00016 0.987757
0.999982 1.0008 0.994881
1.00298 1.00115 0.988214
1.0013 1.00312 0.989348
1.00319 1.0023 0.986621
0.999482 0.997876 0.999108
0.999445 0.998146 0.999024
1.00009 0.999971 0.997808
1.00009 1 0.997764
1.00008 1 0.997759
0.999934 1.00001 0.996662
1.00163 1.00004 0.992341
0.999948 0.999955 0.996715
1.00162 1.0001 0.992313
1.00007 0.999999 0.997768
1.00155 0.999988 0.991852
1.00167 1.00011 0.992865
1.00399 0.999804 0.987738
1.00162 0.99999 0.993002
1.00397 0.99997 0.987621
1.00004 1.00001 0.995326
0.999743 0.999961 0.995659
0.999287 1.00054 0.99594
0.999653 0.999869 0.995889
1.00153 0.999917 0.992624
1.00138 0.999948 0.992847
1.00104 1.00074 0.992615
1.00342 1.00038 0.988867
1.00007 1 0.997776
0.99993 1.00001 0.995434
1.00155 0.999987 0.992184
1.0015 0.99999 0.992546
0.999529 0.999525 0.997338
1.00035 1.00139 0.993356
1.00139 0.9999 0.992832
1.00379 0.999896 0.988507
1.00302 1.00118 0.988792
1.0036 1.00004 0.988737
1.00456 0.999955 0.98657
1.00153 1 0.991902
1.00145 1 0.992584
1.00391 0.999733 0.988321
1.00383 0.999869 0.988328
1.00373 0.999838 0.988526
1.00487 0.999585 0.986684
0.999553 0.998938 0.998612
1.00469 0.99974 0.986566
0.999846 1.00134 0.993488
1.00184 1.00238 0.988924
1.00426 1.00069 0.986436
1.00507 0.999646 0.98593
0.999786 1.00049 0.994487
1.0002 1.0029 0.991421
1.00003 1 0.997881
0.9998 1.00028 0.997909
1.00138 1.00009 0.992007
0.999521 0.998887 0.998662
1.00005 1.00141 0.993063
1.00085 1.00097 0.992072
1.00225 1.00207 0.98859
0.999499 0.998527 0.998823
0.99963 0.999649 0.995667
1.00156 0.999977 0.992504
1.00126 1.00044 0.992565
1.00378 1.00016 0.987758
0.999857 1.00083 0.994108
1.00299 1.00114 0.988222
1.00126 1.00311 0.989352
1.00322 1.00226 0.986592
0.999697 1.00033 0.994911
0.999698 0.999134 0.996105
1.00014 1.00206 0.99241
1.0039 1.00005 0.987667
1.00348 1.00052 0.987932
1.00482 1.00004 0.986027
1.00072 1.00314 0.990379
1.0041 1.00087 0.986311
1.00208 1.00375 0.98727
1.00365 1.00205 0.986181
0.999539 0.997606 0.999166
0.999465 0.997829 0.999129
0.999408 0.99808 0.999071
0.999774 1.00009 0.994926
0.99956 0.998625 0.998749
1.00008 0.999963 0.997845
1.00008 0.999993 0.997779
1.00155 1.00011 0.991754
1.00156 1.00005 0.991784
1.00006 1 0.997765
1.00006 1 0.997768
1.00155 0.999996 0.991848
1.00161 1.0001 0.992304
1.004 0.999801 0.987736
1.00154 1.00001 0.991851
1.00397 0.999971 0.987617
1.00153 0.999981 0.991891
1.00398 0.999733 0.987827
1.00399 0.999884 0.987671
1.00499 0.999255 0.986544
1.00395 1.00002 0.987616
1.00497 0.999571 0.986263
1.00006 0.999999 0.99777
0.999739 1.00001 0.99563
1.00156 0.999983 0.991262
1.00158 0.999981 0.992466
0.999309 0.999609 0.998504
1.00064 1.00121 0.993478
1.00147 0.999867 0.992772
1.00381 0.999864 0.988378
1.0036 1.00011 0.988833
1.003 1.00127 0.988782
1.00454 0.999978 0.986581
1.00152 0.999989 0.991903
1.00153 1 0.992497
1.00392 0.999722 0.98802
1.00385 0.999904 0.988406
0.999565 0.999014 0.998557
1.00002 1.00119 0.993915
1.00188 1.00248 0.989135
1.00373 0.999868 0.988513
1.00487 0.999492 0.986592
1.00421 1.00071 0.986351
1.00469 0.999785 0.986679
1.00505 0.999655 0.985958
0.99979 1.00052 0.994482
1.00025 1.0028 0.99143
1.00394 0.999726 0.987906
1.0039 0.999821 0.988267
1.00494 0.999315 0.986823
1.0049 0.999361 0.986532
1.0048 0.999585 0.986726
1.00518 0.998896 0.986621
0.999809 1.00088 0.994021
1.00512 0.999314 0.986203
1.0009 1.00307 0.989928
1.00321 1.0024 0.986401
1.00493 1.00046 0.985674
1.00517 0.999336 0.986162
1.00043 1.00295 0.991001
1.00012 1.00239 0.992055
1.00063 1.00379 0.989873
1.0015 0.999958 0.991962
0.999444 0.998442 0.99891
0.999634 0.999557 0.995707
1.00114 1.0005 0.992025
1.00378 1.00016 0.987758
0.999796 1.00088 0.994049
1.00122 1.0031 0.989358
1.00298 1.00113 0.98823
1.00324 1.0022 0.986562
0.999686 1.00026 0.994937
0.999703 0.999067 0.996133
1.00006 1.00215 0.992425
1.00389 1.00007 0.987662
1.00348 1.00052 0.987942
1.00482 1.00003 0.986014
1.00065 1.00319 0.990395
1.00413 1.00091 0.986339
1.00208 1.00383 0.987252
1.0037 1.00192 0.986157
0.999804 0.998701 0.996339
1.00036 1.0027 0.991375
1.00004 1.00126 0.993377
1.00032 1.0035 0.990718
1.0049 0.999855 0.986085
1.00461 1.00035 0.986113
1.00512 0.999784 0.985735
1.00124 1.00412 0.988505
1.00463 1.00044 0.985827
1.00247 1.00392 0.986302
1.00436 1.0012 0.985723
1.00027 0.999943 0.994294
0.999985 0.998216 0.996488
0.999628 0.997353 0.999194
0.99954 0.997555 0.999175
0.999455 0.997772 0.999148
0.999791 0.99966 0.995342
0.999557 0.998337 0.998869
0.999774 1.00014 0.994906
0.999582 0.998674 0.998702
1.00154 1.00004 0.991845
1.00156 1.00009 0.991743
1.00397 0.999974 0.987612
1.004 0.999799 0.987734
1.00156 1 0.991846
1.00008 1 0.997759
1.00154 0.999983 0.991889
1.00398 0.999738 0.987825
1.00399 0.999891 0.987668
1.00499 0.999257 0.98654
1.00394 1.00003 0.987609
1.00497 0.999572 0.986254
1.00395 0.999724 0.987899
1.00498 0.999147 0.986676
1.00499 0.999408 0.986399
1.0052 0.998336 0.987104
1.00495 0.999711 0.986158
1.00521 0.998788 0.986624
1.00153 0.999977 0.991904
1.00161 0.999987 0.992409
1.00393 0.999696 0.98772
1.00387 0.999937 0.988485
0.999583 0.999093 0.998494
1.0002 1.00114 0.994266
1.00198 1.00254 0.989344
1.00372 0.999888 0.988501
1.00487 0.999397 0.986501
1.00469 0.999832 0.986793
1.00416 1.00071 0.986267
1.00504 0.999666 0.985986
0.9998 1.00055 0.994476
1.0003 1.00271 0.991439
1.00394 0.999686 0.987833
1.00391 0.999809 0.988254
1.00494 0.999246 0.986873
1.0049 0.999452 0.986603
0.999854 1.00087 0.99402
1.00101 1.00303 0.989899
1.00317 1.00245 0.986475
1.00481 0.999632 0.986719
1.00518 0.998765 0.986732
1.00494 1.00042 0.985577
1.0051 0.999313 0.986225
1.00517 0.999302 0.986159
1.00046 1.00287 0.991013
1.00053 1.00384 0.989892
1.00015 1.00237 0.992045
1.00494 0.999234 0.986886
1.00493 0.999313 0.986791
1.00518 0.998405 0.987111
1.00519 0.99866 0.986763
1.00515 0.998907 0.986537
1.00518 0.997696 0.98773
1.00059 1.00294 0.990689
1.00517 0.998597 0.986766
1.00185 1.00349 0.987956
1.0043 1.0022 0.984757
1.00516 1.00035 0.985275
1.00516 0.998627 0.98689
1.00014 1.00176 0.992663
1.00092 1.00322 0.989877
1.00024 1.00407 0.990133
1.00095 1.00379 0.989455
1.00388 1.00008 0.987658
0.999703 0.999012 0.996162
0.999672 1.00021 0.994965
1.00001 1.00222 0.99244
1.00348 1.00051 0.987952
1.00483 1.00003 0.986001
1.00056 1.00325 0.99041
1.00207 1.00389 0.987234
1.00417 1.00097 0.986367
1.00374 1.00182 0.986133
0.999805 0.998672 0.99635
1.00033 1.00276 0.991377
1.00002 1.00124 0.993404
1.00023 1.00363 0.990709
1.0049 0.999857 0.986073
1.0046 1.00035 0.986109
1.00512 0.999794 0.985723
1.00119 1.00415 0.988522
1.00469 1.00052 0.985858
1.00253 1.00395 0.986251
1.00425 1.001 0.986013
0.999908 0.998404 0.99644
1.00011 1.00057 0.993949
1.00072 1.00384 0.98971
1.00014 1.00276 0.991775
1.00027 1.00445 0.989862
1.00515 0.999462 0.986023
1.00497 1.00003 0.985661
1.00513 0.99919 0.986299
1.00157 1.00477 0.987244
1.00494 1.00012 0.98567
1.0034 1.00271 0.985352
1.00024 1.00002 0.994258
1.00023 1.00118 0.993155
1.00028 0.999922 0.994309
1.00026 0.999953 0.994292
1.00002 0.998035 0.99705
0.999973 0.998206 0.996756
0.999784 0.997163 0.998159
0.999639 0.997308 0.999199
0.999546 0.997501 0.999185
0.999838 0.999244 0.995682
0.999572 0.998049 0.998973
0.999791 0.999709 0.995319
0.999583 0.998385 0.998828
0.999776 1.00018 0.994886
0.999604 0.998729 0.998653
1.00394 1.00005 0.987601
1.00399 0.999897 0.987664
1.00496 0.999583 0.986245
1.00498 0.999259 0.986535
1.00398 0.999742 0.987822
1.00153 0.999986 0.991888
1.00395 0.999721 0.987898
1.00497 0.999149 0.986676
1.00498 0.999422 0.986392
1.0052 0.998253 0.987206
1.00494 0.999715 0.986149
1.00521 0.998809 0.986614
1.00494 0.999122 0.986753
1.00517 0.998109 0.987419
1.00521 0.9985 0.986902
1.00518 0.997296 0.988165
1.00518 0.99914 0.986326
1.00517 0.997467 0.987938
1.00394 0.999647 0.98776
1.00393 0.999806 0.98824
1.00494 0.999184 0.986923
1.0049 0.999542 0.986674
0.999908 1.00085 0.994017
1.00105 1.00305 0.989871
1.00313 1.00252 0.986549
1.00481 0.99968 0.986712
1.00518 0.998631 0.986842
1.00508 0.999312 0.986246
1.00495 1.00037 0.985479
1.00517 0.999264 0.986157
1.0005 1.00279 0.991025
1.00049 1.00384 0.989911
1.00018 1.00235 0.992035
1.00494 0.999195 0.986814
1.00494 0.999311 0.986781
1.00518 0.998262 0.987248
1.00519 0.998701 0.986757
1.00064 1.0029 0.990673
1.00192 1.00344 0.987919
1.00409 1.00223 0.984996
1.00515 0.999038 0.986468
1.00518 0.99753 0.987931
1.00516 1.00037 0.985144
1.00517 0.998595 0.986792
1.00515 0.998539 0.987009
1.00096 1.00321 0.989881
1.00092 1.00381 0.989423
1.00016 1.00177 0.99265
1.00018 1.00403 0.990228
1.00516 0.998268 0.98727
1.00519 0.99849 0.987124
1.00516 0.997469 0.987981
1.00517 0.99703 0.988409
1.00517 0.997949 0.9875
1.00512 0.996697 0.988834
1.00128 1.00306 0.989376
1.00512 0.997415 0.987954
1.00223 1.00376 0.986441
1.00489 1.00202 0.984307
1.00514 1.00005 0.985379
1.0051 0.998226 0.987339
1.00015 1.00131 0.993113
1.00012 1.00352 0.990864
1.00122 1.00317 0.989407
1.00037 1.00463 0.989495
1.00117 1.00328 0.989563
0.999803 0.998651 0.996361
1.0049 0.999859 0.986061
1.00002 1.0012 0.993431
1.00027 1.00284 0.99138
1.00014 1.00375 0.990698
1.00458 1.00035 0.986105
1.00513 0.999803 0.985711
1.0012 1.00414 0.98854
1.00263 1.00395 0.986201
1.00476 1.0006 0.985888
1.00415 1.0008 0.986299
0.999906 0.998397 0.996444
1.00011 1.00055 0.993961
1.00072 1.0038 0.98972
1.00005 1.00285 0.991784
1.00019 1.00455 0.98979
1.00515 0.999472 0.986008
1.00502 1.00004 0.985641
1.00513 0.999181 0.986269
1.00151 1.00483 0.987268
1.00492 1.00017 0.985736
1.00359 1.00261 0.985397
1.0002 1.00019 0.994173
1.00015 1.0019 0.992613
1.00095 1.00444 0.988724
0.999965 1.00408 0.990774
1.0005 1.00449 0.989584
1.00513 0.998648 0.986846
1.00511 0.999644 0.985842
1.00513 0.998305 0.986904
1.0019 1.00474 0.986544
1.00477 1.00086 0.985139
1.00024 1.00003 0.994255
1.00023 1.00119 0.99306
1.00021 1.0012 0.993112
1.00017 1.00191 0.992653
1.00022 1.00121 0.993161
1.00026 0.999955 0.9943
1.00027 0.999925 0.994309
1.00008 0.997926 0.997055
1.00026 0.999965 0.99429
1.00003 0.99804 0.99705
0.999887 0.996935 0.998185
0.999963 0.998201 0.997019
0.999755 0.997119 0.998688
0.999651 0.997263 0.999204
0.999896 0.998883 0.995947
0.999834 0.99929 0.995663
0.999609 0.997787 0.999049
0.999592 0.998103 0.998939
0.999791 0.999761 0.995296
0.999609 0.998431 0.998783
1.00494 0.999719 0.98614
1.00497 0.999425 0.986385
1.0052 0.998827 0.986605
1.0052 0.998169 0.987309
1.00497 0.99915 0.986676
1.00395 0.99972 0.987898
1.00494 0.999121 0.986755
1.00517 0.998115 0.987429
1.00521 0.998511 0.986902
1.00518 0.997139 0.988352
1.00518 0.99915 0.986306
1.00518 0.997344 0.988059
1.00516 0.998143 0.987427
1.00515 0.997238 0.988283
1.00518 0.997015 0.988436
1.00517 0.996266 0.989193
1.00515 0.997996 0.987451
1.00515 0.99647 0.989025
1.00494 0.999152 0.986742
1.00495 0.999316 0.986771
1.00518 0.998117 0.987385
1.00519 0.998737 0.986752
1.00071 1.00287 0.990657
1.002 1.00339 0.987883
1.00389 1.00219 0.985236
1.00514 0.999171 0.9864
1.00517 0.997362 0.988132
1.00516 0.998593 0.986818
1.00516 1.00043 0.985014
1.00514 0.998455 0.987128
1.00094 1.00326 0.989885
1.0008 1.00392 0.989391
1.00017 1.00179 0.992637
1.00014 1.00397 0.990324
1.00516 0.998273 0.987265
1.00519 0.998541 0.987021
1.00516 0.997403 0.98808
1.00517 0.997125 0.988289
1.00128 1.00318 0.989336
1.00225 1.00378 0.986638
1.00485 1.00181 0.984278
1.00517 0.998095 0.987319
1.00513 0.996501 0.988966
1.00513 1.0001 0.985353
1.00512 0.997436 0.987962
1.00511 0.998026 0.987423
1.00128 1.00316 0.989394
1.00114 1.00323 0.989626
1.00033 1.00468 0.989466
1.00015 1.0013 0.993043
1.0001 1.00345 0.990965
1.00516 0.997307 0.988252
1.00515 0.99697 0.988541
1.00512 0.995995 0.989526
1.00511 0.996582 0.988785
1.00145 1.00362 0.988536
1.0051 0.996993 0.988579
1.00253 1.00347 0.985843
1.00509 1.00163 0.984094
1.00508 0.999586 0.985763
1.00011 1.00089 0.993406
1.00012 1.00286 0.991724
1.0002 1.00419 0.990279
1.00145 1.00281 0.989452
1.00053 1.00468 0.98908
1.00143 1.00255 0.989505
0.999904 0.998394 0.996448
1.00011 1.00052 0.993973
1.00515 0.999482 0.985992
0.999975 1.00294 0.991793
1.00067 1.00383 0.989729
1.00012 1.00467 0.989718
1.00506 1.00005 0.985622
1.00513 0.999174 0.986238
1.00143 1.0049 0.987292
1.00372 1.00257 0.985441
1.00491 1.0002 0.985806
1.0002 1.00019 0.994174
1.00011 1.00191 0.992629
1.00092 1.00449 0.988696
0.999885 1.00419 0.990763
1.00043 1.00442 0.989617
1.00513 0.998665 0.986823
1.00512 0.999641 0.985806
1.00512 0.998338 0.986948
1.00189 1.00463 0.986434
1.00477 1.00103 0.985119
1.00022 1.00139 0.993003
0.999886 1.00324 0.991572
1.00118 1.00421 0.988429
0.999969 1.00481 0.98998
1.00092 1.00371 0.989419
1.00513 0.99706 0.988217
1.00511 0.999461 0.985993
1.00508 0.99823 0.986982
1.00301 1.00361 0.985988
1.00483 1.00056 0.985144
1.00024 1.00004 0.994253
1.00024 1.00119 0.993092
1.00006 1.00197 0.992589
1.00019 1.00122 0.99307
1.0002 1.00123 0.993159
1.00011 1.00195 0.992597
1.00003 1.00238 0.992376
1.00011 1.00201 0.992468
1.00019 1.00129 0.99313
1.00022 1.00005 0.994279
1.00025 0.999965 0.9943
1.00012 0.997883 0.997032
1.00026 0.99993 0.994309
1.00009 0.997942 0.997052
0.999963 0.996802 0.998184
1.00004 0.998043 0.997052
0.999875 0.996907 0.998191
0.999721 0.997063 0.999227
0.99995 0.99855 0.996196
0.999892 0.998921 0.995929
0.999663 0.99753 0.999107
0.999828 0.999341 0.995644
0.99962 0.997835 0.999027
0.999614 0.998149 0.998901
1.00518 0.99916 0.986286
1.00521 0.998526 0.986902
1.00518 0.997218 0.98818
1.00517 0.996982 0.988538
1.00517 0.998122 0.987439
1.00494 0.999121 0.986757
1.00516 0.998202 0.987365
1.00514 0.997334 0.988216
1.00518 0.997088 0.988351
1.00515 0.996091 0.989361
1.00515 0.998022 0.987444
1.00514 0.996252 0.989175
1.00516 0.997423 0.988164
1.00518 0.996152 0.989271
1.00516 0.995809 0.98961
1.00512 0.996305 0.989175
1.00516 0.998278 0.987259
1.00518 0.99859 0.986918
1.00517 0.99734 0.988179
1.00517 0.997224 0.988168
1.00134 1.00323 0.989296
1.00226 1.0038 0.986835
1.0048 1.00158 0.984248
1.00517 0.998242 0.987138
1.00514 0.996312 0.989097
1.00512 0.997457 0.987971
1.00512 1.00012 0.985327
1.00513 0.997828 0.987508
1.00134 1.00315 0.989381
1.00119 1.00308 0.989688
1.0003 1.00474 0.989438
1.00015 1.0013 0.992972
1.00008 1.00337 0.991067
1.00516 0.997323 0.988252
1.00516 0.997014 0.988496
1.00513 0.996074 0.989394
1.00152 1.00362 0.988501
1.00273 1.0036 0.985957
1.00508 1.00148 0.984049
1.00511 0.996619 0.988764
1.00508 0.999364 0.986015
1.0051 0.996947 0.98843
1.00011 1.00083 0.993475
1.00153 1.00273 0.989418
1.00131 1.00243 0.989874
1.00061 1.00473 0.989006
1.0002 1.00422 0.990296
1.00011 1.00284 0.99167
1.00516 0.996563 0.988804
1.00518 0.995762 0.989695
1.00512 0.99553 0.989738
1.00515 0.995869 0.989485
1.00177 1.00356 0.988094
1.00511 0.997721 0.987566
1.00362 1.00325 0.984524
1.00508 1.00134 0.984104
1.00014 1.0003 0.993951
1.00011 1.00233 0.992272
1.00018 1.00354 0.991028
1.00023 1.00495 0.989378
1.00171 1.00233 0.989268
1.00142 1.00337 0.988867
1.00019 1.00019 0.994175
1.00008 1.0019 0.992646
1.00513 0.998683 0.9868
0.999809 1.00429 0.990754
1.00089 1.00452 0.988667
1.00028 1.00429 0.98965
1.00513 0.999635 0.98577
1.00512 0.998383 0.986992
1.00191 1.00455 0.986324
1.00483 1.00117 0.985099
1.0002 1.00138 0.993012
0.999941 1.0032 0.991596
1.0012 1.00426 0.988442
0.999864 1.00487 0.989943
1.00075 1.00354 0.989784
1.00513 0.997041 0.988412
1.00511 0.999441 0.986052
1.00509 0.998326 0.986938
1.00294 1.00374 0.985842
1.00498 1.00053 0.984979
0.999975 1.00226 0.992368
0.999805 1.00424 0.990559
1.00174 1.00361 0.98805
1.00018 1.00457 0.989075
1.00512 0.995586 0.989691
1.00496 0.997439 0.988283
1.00505 0.999535 0.985865
1.0035 1.00186 0.98543
1.00025 1.00118 0.993123
1.00007 1.00199 0.992605
0.999862 1.00262 0.992431
1.00018 1.00125 0.993158
1.00006 1.00198 0.992541
1.00019 1.00129 0.993124
1 1.00236 0.992366
1.00012 1.00201 0.992497
0.999946 1.00257 0.992291
1.00007 1.00244 0.992169
1.00013 1.00209 0.992324
1.00018 1.0014 0.993017
1.00017 1.00014 0.994255
1.00022 1.00004 0.994277
1.00014 0.997872 0.997001
1.00025 0.999959 0.994299
1.00012 0.997907 0.997026
1.00002 0.996718 0.998163
1.00009 0.997958 0.997049
0.999955 0.996768 0.998191
0.999865 0.996882 0.998193
1.00002 0.998212 0.996415
0.999954 0.998569 0.996178
0.999733 0.997239 0.999164
0.999886 0.998963 0.99591
0.999667 0.997582 0.99909
0.999634 0.997878 0.999001
1.00515 0.998047 0.987437
1.00517 0.997163 0.988266
1.00513 0.996036 0.989326
1.00514 0.995918 0.98953
1.00514 0.99743 0.988149
1.00516 0.998262 0.987303
1.00515 0.997417 0.988166
1.00517 0.99622 0.989204
1.00516 0.995829 0.989576
1.00513 0.996268 0.98923
1.00519 0.996518 0.988971
1.00518 0.995178 0.990245
1.00516 0.995256 0.989933
1.00517 0.997341 0.988253
1.00516 0.997057 0.988451
1.00513 0.996156 0.989262
1.00159 1.00362 0.988466
1.00296 1.00374 0.98607
1.00507 1.0014 0.984003
1.00512 0.996651 0.988742
1.0051 0.996897 0.98828
1.00508 0.999155 0.986267
1.0016 1.00266 0.989383
1.00115 1.00235 0.990245
1.00068 1.00481 0.988932
1.00012 1.00077 0.993544
1.00019 1.00422 0.990314
1.00011 1.00281 0.991616
1.00517 0.996626 0.988828
1.00518 0.995681 0.989754
1.00512 0.995538 0.989769
1.00178 1.0036 0.988055
1.00345 1.00332 0.984873
1.00507 1.00117 0.984323
1.00515 0.99591 0.989418
1.00511 0.997701 0.987527
1.00014 1.00027 0.994088
1.00011 1.00233 0.992267
1.00154 1.00227 0.989388
1.00133 1.00343 0.989194
1.00024 1.00485 0.989523
1.00016 1.00357 0.990954
1.00519 0.995218 0.990246
1.00517 0.995081 0.9902
1.00513 0.995254 0.990042
1.00513 0.996126 0.989167
1.00191 1.00332 0.987434
1.00502 0.9999 0.985535
1.00444 1.00317 0.984118
1.00018 0.999934 0.99446
1.00017 1.00117 0.993279
1.00011 1.00175 0.992666
1.00006 1.00321 0.991458
1.00005 1.0043 0.990306
1.00003 1.00474 0.989551
1.00214 1.00114 0.989313
1.00137 1.00325 0.989939
1.00018 1.00139 0.993022
0.99999 1.00319 0.991619
1.00512 0.997025 0.988607
0.999903 1.00495 0.989906
1.0012 1.00434 0.988455
1.00054 1.00342 0.990148
1.0051 0.999404 0.986112
1.00511 0.998403 0.986895
1.00281 1.00383 0.985699
1.00508 1.00049 0.984814
1 1.00231 0.992304
0.999872 1.00422 0.990574
1.00164 1.00372 0.988143
1.00045 1.00461 0.989163
1.00513 0.995467 0.98984
1.00501 0.997482 0.988071
1.00506 0.999484 0.98589
1.00384 1.00203 0.985283
0.999826 1.00315 0.991853
1.00508 0.995126 0.990195
1.00027 1.00489 0.989748
1.00183 1.00406 0.987391
1.00497 0.996034 0.989834
1.00484 0.998721 0.986517
1.00454 1.00115 0.985361
1.00006 1.00203 0.99262
0.999852 1.0026 0.992412
0.999652 1.00311 0.992314
1.00019 1.00128 0.993119
1.00012 1.00201 0.992526
0.999938 1.00237 0.992356
1.00019 1.0014 0.993006
1.00012 1.00209 0.992346
0.999897 1.0026 0.992262
1.0001 1.00239 0.992206
1.0001 1.00248 0.992165
1.00004 1.00258 0.992095
1.00014 1.00262 0.991902
1.00026 1.00216 0.9921
1.0002 1.00152 0.992868
1.00014 1.00024 0.994214
1.00017 1.00015 0.994253
1.00015 0.997908 0.996949
1.00022 1.00006 0.994274
1.00014 0.997906 0.996996
1.00007 0.996655 0.998144
1.00012 0.997933 0.997022
1.00002 0.996683 0.998169
0.999948 0.996737 0.998195
1.00017 0.999828 0.994599
1.00007 0.997968 0.996568
1.00003 0.998227 0.996401
0.999816 0.99697 0.999208
0.999957 0.998595 0.996159
0.999732 0.997307 0.999147
0.999673 0.997633 0.999073
1.00514 0.996231 0.989285
1.00517 0.995849 0.989542
1.00516 0.99629 0.989137
1.00515 0.997409 0.988168
1.0052 0.996449 0.989022
1.0052 0.995168 0.990249
1.00516 0.995318 0.989929
1.00519 0.994973 0.990394
1.00517 0.99498 0.990416
1.00492 0.995021 0.99081
1.00518 0.996688 0.988852
1.00518 0.995591 0.989813
1.00512 0.995541 0.9898
1.00179 1.00363 0.988017
1.00331 1.00338 0.985222
1.00505 1.00097 0.984543
1.00514 0.995952 0.989352
1.00512 0.997671 0.987489
1.00138 1.00224 0.989509
1.00129 1.00349 0.989516
1.00016 1.0048 0.989669
1.00014 1.00024 0.994225
1.00014 1.00231 0.992261
1.00015 1.00362 0.99088
1.00518 0.995185 0.990226
1.00017 0.999946 0.994458
1.00015 1.00119 0.99322
1.00517 0.995082 0.990214
1.00512 0.995248 0.990014
1.00169 1.00351 0.987821
1.00426 1.00307 0.984124
1.00502 0.999793 0.985492
1.00512 0.996187 0.989052
1.00012 1.00173 0.99284
1.00009 1.00317 0.991443
1.00233 1.00144 0.989077
1.00088 1.00329 0.990234
1.00009 1.00477 0.989621
1.00003 1.00428 0.990387
1.00515 0.994972 0.990336
1.00508 0.994903 0.99051
1.00509 0.995164 0.989933
1.005 0.996592 0.988486
1.002 1.00283 0.988109
1.00444 1.00287 0.984445
1.00012 1.00114 0.993236
1.00016 1.00132 0.993156
1.00017 1.0021 0.992492
1.00007 1.00291 0.991547
1 1.0038 0.991078
1.00039 1.00433 0.989717
0.999612 1.00488 0.99
1.00154 1.00127 0.990366
1.00003 1.00234 0.99224
0.999953 1.00416 0.99059
1.00515 0.995338 0.989988
1.00505 0.997552 0.98786
1.0007 1.00465 0.98925
1.00156 1.00379 0.988232
1.00507 0.99944 0.985913
1.00423 1.00221 0.985134
0.999858 1.00315 0.991814
1.00509 0.995025 0.990293
1.00009 1.00481 0.989849
1.00184 1.00389 0.98734
1.00498 0.99589 0.989734
1.00475 0.998788 0.98674
1.00453 1.00133 0.985398
0.999851 1.00439 0.990954
1.00465 0.995093 0.991686
1.00113 1.00453 0.989107
1.00272 1.00372 0.986793
1.00478 0.996839 0.988842
1.00407 1.00065 0.986168
0.999589 0.997481 0.99175
0.999838 1.0026 0.992394
0.999607 1.00315 0.992304
0.999886 1.0032 0.991954
1.00019 1.00141 0.992994
1.00011 1.00212 0.992368
1.00013 1.00235 0.992243
0.999872 1.0026 0.992232
1.0002 1.00151 0.992865
1.00023 1.0022 0.992098
1.00009 1.00257 0.992041
1.00012 1.00264 0.991906
1.00008 1.00253 0.992105
1.00022 1.00237 0.992027
1.00025 1.0028 0.991552
1.00019 1.00267 0.991788
1.00034 1.00228 0.991847
1.00023 1.00158 0.992646
1.00027 1.00214 0.992237
1.00022 1.00164 0.99258
1.00013 1.00029 0.994163
1.00014 1.00024 0.994213
1.00018 0.99799 0.996355
1.00017 1.00015 0.994252
1.00017 0.997947 0.996672
1.00003 0.996602 0.999201
1.00014 0.99794 0.996991
1.00006 0.996615 0.99815
1.00001 0.996648 0.998173
1.00013 0.999744 0.99472
1.00017 0.999811 0.994602
1.0001 0.997813 0.996686
1.00006 0.997972 0.99682
0.99989 0.99676 0.999243
1.00003 0.998238 0.996387
0.999809 0.997032 0.999196
0.999731 0.997371 0.999129
1.00516 0.99538 0.989925
1.00522 0.995153 0.990252
1.00521 0.996378 0.989072
1.00519 0.994966 0.990389
1.00516 0.994972 0.990391
1.00492 0.995109 0.990532
1.00515 0.994926 0.990451
1.00083 0.996462 0.988401
1.00424 0.994906 0.993191
1.00007 1.00112 0.993499
1.00516 0.995153 0.990207
1.00517 0.995097 0.990228
1.00511 0.995244 0.989985
1.00146 1.00366 0.988207
1.00408 1.003 0.984131
1.00503 0.999695 0.985451
1.00509 0.996269 0.988934
1.0026 1.00162 0.988846
1.00036 1.00331 0.990537
1.00017 1.00479 0.989693
1.00016 0.99997 0.994456
1.00002 1.00425 0.990468
1.00012 1.0017 0.993013
1.0001 1.00314 0.991428
1.00013 1.00119 0.993161
1.00516 0.994947 0.990358
1.00011 1.00113 0.993333
1.00015 1.00133 0.993154
1.00017 1.00209 0.992394
1.00506 0.994923 0.990502
1.0051 0.99527 0.98985
1.0021 1.00276 0.988155
1.00412 1.00244 0.984785
1.00497 0.996898 0.988426
1.00005 1.00292 0.991645
1.00003 1.00377 0.990939
1.00143 1.00178 0.990184
0.999837 1.00484 0.990064
1.00038 1.00421 0.989801
1.0051 0.994989 0.99054
1.00508 0.994892 0.990498
1.00505 0.996039 0.989136
1.00452 0.998928 0.988064
1.00136 1.00307 0.989172
1.00008 1.00218 0.99226
1.00018 1.00228 0.991958
0.999998 1.00308 0.991625
0.99992 1.00407 0.991042
1 1.00415 0.990516
0.999938 1.00462 0.989908
1.00009 1.00413 0.990263
0.999906 1.00313 0.991774
0.999881 1.00474 0.989949
1.00511 0.994956 0.99039
1.005 0.995739 0.989632
1.00471 0.998824 0.986962
1.00185 1.00368 0.987291
1.00454 1.00151 0.985435
0.999818 1.00425 0.991099
1.00456 0.995038 0.991765
1.00078 1.0044 0.989288
1.00245 1.00382 0.986762
1.00475 0.996668 0.989157
1.0042 1.00058 0.98611
0.999604 0.997454 0.989859
0.999973 1.00443 0.990634
1.00396 0.995902 0.991862
1.00071 1.00426 0.989389
1.00252 1.00247 0.987321
1.00414 0.998133 0.987778
1.00059 0.995613 0.956099
0.996483 0.996541 0.975023
0.997686 1.00189 0.991164
0.99984 0.996689 0.915516
0.994902 0.998125 0.897891
0.999569 1.00316 0.992295
0.999706 1.00333 0.992013
1.00008 1.00249 0.992192
1.0002 1.00151 0.992863
1.00026 1.00213 0.992096
1.00012 1.00265 0.99191
1.00013 1.00248 0.992115
1.00008 1.00267 0.991917
1.00022 1.00262 0.991741
1.00023 1.00156 0.992716
1.00034 1.00227 0.99186
1.00022 1.00239 0.991988
1.00021 1.00281 0.991602
1.00027 1.00281 0.991594
1.00012 1.00258 0.991834
1.00032 1.00271 0.991534
1.00038 1.00225 0.991753
1.00024 1.00165 0.992553
1.00034 1.00225 0.991941
1.00028 1.00235 0.991956
1.00014 1.00218 0.992294
1.00026 1.00216 0.992173
1.00023 1.00153 0.992809
1.00023 1.00165 0.992571
1.00016 1.00029 0.994118
1.00013 1.00029 0.994162
1.00017 0.998062 0.996326
1.00013 1.00025 0.994212
1.00018 0.997999 0.996353
1.00004 0.996612 0.999192
1.00018 0.997984 0.996396
1.00006 0.996605 0.998657
1.00006 0.996575 0.998154
1.0001 0.999718 0.994812
1.00014 0.999746 0.994718
1.00013 0.997702 0.99676
1.00017 0.999792 0.994605
1.0001 0.997782 0.99694
0.999946 0.996585 0.999271
1.00007 0.998011 0.996535
0.999879 0.996844 0.999226
0.999803 0.997083 0.999184
1.00514 0.994966 0.990365
1.00518 0.994959 0.990384
1.00493 0.995159 0.990254
1.00073 0.996329 0.988501
1.00514 0.994926 0.990424
1.00414 0.995365 0.992796
1.00491 0.996115 0.991199
0.997202 0.996539 0.973249
1.00128 0.996211 0.990234
1.00008 1.00112 0.993492
1.0001 1.00108 0.993493
0.999986 1.00219 0.992554
1.00006 1.00204 0.992602
1.00516 0.994925 0.990379
1.00504 0.994933 0.990493
1.00511 0.995366 0.989766
1.00237 1.00254 0.988202
1.00375 1.00189 0.98512
1.00497 0.997231 0.988364
1.00124 1.00241 0.989996
1.00011 1.00482 0.990126
1.00035 1.00405 0.989883
1.00013 1.00137 0.993151
1.00005 1.00372 0.990801
1.00006 1.00292 0.991745
1.00011 1.00113 0.99343
1.00015 1.00212 0.992293
1.00511 0.994934 0.990529
1.00006 1.00224 0.992383
1.00018 1.0023 0.992087
0.999919 1.00292 0.991876
1.00508 0.994888 0.990438
1.00502 0.995872 0.989153
1.00171 1.0026 0.989114
1.00431 0.998814 0.988286
0.999952 1.00401 0.990993
1.00012 1.00412 0.990296
1.00008 1.00439 0.990258
1.00026 1.00452 0.989862
1.00485 0.994818 0.99115
1.00508 0.995301 0.990196
1.00472 0.997051 0.989081
1.00191 1.00108 0.9904
0.999981 1.00337 0.991324
1.00002 1.00355 0.991075
0.999545 1.00456 0.990896
0.999708 1.0052 0.989926
1.00003 0.994941 0.950812
0.999765 1.00412 0.991244
1.00036 1.00432 0.989467
1.00451 0.99496 0.991839
1.00471 0.996516 0.989473
1.00434 1.00047 0.986049
1.00212 1.00393 0.986729
0.999729 0.997275 0.987921
0.999824 1.00448 0.990763
1.0041 0.995724 0.991844
1.00058 1.00431 0.989445
1.00275 1.00217 0.987317
1.00437 0.998155 0.987921
1.00151 0.995852 0.949596
0.996228 0.996673 0.971053
0.997576 1.00189 0.991
0.999817 0.997425 0.918185
0.99473 0.998086 0.889546
0.999788 1.0037 0.991653
0.999887 0.995322 0.923001
0.995306 0.998185 0.899518
1.00269 0.999672 0.99069
1.00027 1.00399 0.990311
1.00263 1.00128 0.987763
0.997096 1.00335 0.991035
1.00001 0.997044 0.954533
0.994872 0.997411 0.969351
0.998472 0.99852 0.921308
0.994751 0.999437 0.897841
0.99955 1.00346 0.992072
0.999975 1.00275 0.992115
0.999942 1.00159 0.993615
1.00024 1.00152 0.992786
1.00034 1.00228 0.991874
1.00014 1.00269 0.991695
1.00018 1.00281 0.991651
1.00022 1.0024 0.991949
1.00025 1.00162 0.992561
1.00023 1.00285 0.991542
1.00031 1.00269 0.991558
1.00039 1.00224 0.99181
1.00014 1.00251 0.991895
1.0002 1.00294 0.991615
1.00003 1.00248 0.991997
1.00043 1.00269 0.991307
1.00042 1.0023 0.991762
1.00037 1.00222 0.991927
1.00028 1.00235 0.991958
1.00044 1.00235 0.991681
1.00012 1.00254 0.991995
1.00019 1.00227 0.992003
0.999789 1.00335 0.991705
1.00003 1.00236 0.992308
1.00015 1.00219 0.992292
1.00018 1.0015 0.992902
1.00025 1.00219 0.992108
1.00024 1.00154 0.992754
1.00021 1.00024 0.994099
1.00024 1.00166 0.992563
1.00016 1.00029 0.99412
1.00013 0.998087 0.996884
1.00013 1.0003 0.994161
1.00016 0.998051 0.996607
1.00009 0.996645 0.998067
1.00018 0.998009 0.996352
1.00004 0.996619 0.999189
1.0001 0.996609 0.998112
1.00011 1.00119 0.993377
1.00008 0.999738 0.994822
1.0001 0.999711 0.994812
1.00014 0.997656 0.996783
1.00014 0.999748 0.994717
1.00013 0.997679 0.996759
0.999991 0.996476 0.999283
1.00008 0.99779 0.997174
0.99996 0.996657 0.99876
0.999921 0.996893 0.998189
1.00053 0.99627 0.988624
1.00512 0.994934 0.990399
1.00404 0.995946 0.992399
0.996558 0.996354 0.974768
1.00103 0.99618 0.99048
1.00497 0.995614 0.990977
1.0036 0.996443 0.989862
0.997299 0.996538 0.977649
1.00004 0.995564 0.954297
0.999414 0.997948 0.923706
0.994661 0.998065 0.89654
0.999965 1.00211 0.99251
1.00008 1.00111 0.993491
1.00013 1.00105 0.993487
1 1.00219 0.99251
0.999962 1.00298 0.991869
1.00017 1.00257 0.99194
1.00008 1.00227 0.992376
1.00002 1.00213 0.992529
1.00513 0.994899 0.990515
1.00507 0.994885 0.990372
1.00504 0.995622 0.989172
1.00188 1.00229 0.989058
1.00415 0.99874 0.988507
1.00008 1.0045 0.990254
1.00054 1.00445 0.989817
1.00027 1.00414 0.990078
1.00014 1.00231 0.992217
0.999955 1.004 0.990943
1.00006 1.0023 0.992507
0.999939 1.00272 0.992127
1.00485 0.994858 0.991192
0.999975 1.00336 0.991409
1.00001 1.00353 0.99122
1.00503 0.995171 0.990096
1.00419 0.996885 0.989513
1.00197 1.00091 0.990298
0.999751 1.00469 0.990576
0.999957 1.00493 0.989965
1.00301 0.9974 0.991771
1.00454 0.996082 0.990853
1.00337 0.996866 0.990927
1.00106 1.00171 0.990752
0.999999 1.00395 0.990715
0.999721 1.00445 0.99069
0.999672 1.00523 0.990208
0.999918 0.99486 0.923486
1.00061 0.995068 0.958698
0.999725 1.00454 0.990891
1.00048 1.00426 0.989502
1.00415 0.99555 0.991828
1.00457 0.998238 0.988064
1.00296 1.00197 0.987316
1.00044 0.995261 0.954442
0.996696 0.996947 0.970388
0.997459 1.00166 0.990816
0.998888 0.99711 0.925326
0.994697 0.998083 0.881083
0.999739 1.00366 0.991674
0.999911 0.995824 0.921914
0.995334 0.998095 0.895393
1.00263 0.999523 0.990693
1.00019 1.00389 0.990407
1.00239 1.00129 0.988408
0.997459 1.00301 0.991642
1.00119 0.996979 0.949466
0.994889 0.996844 0.973003
0.998569 0.999172 0.9218
0.994946 0.99935 0.895767
0.999352 1.00301 0.993397
0.995448 0.99761 0.9005
0.995088 0.999336 0.915872
0.99992 1.00175 0.992566
0.99938 1.00405 0.992234
0.996487 1.00292 0.992316
0.994827 0.999338 0.973179
0.998014 0.998807 0.94782
0.995295 0.999909 0.926848
0.994774 0.997693 0.904937
0.999935 1.00294 0.992039
1 1.00145 0.993565
0.999665 1.00052 0.994656
1.00026 1.0016 0.992569
1.00037 1.00224 0.991866
1.0003 1.00265 0.991582
1.00021 1.0029 0.991491
1.00012 1.00248 0.991957
1.00041 1.00231 0.991754
1.00021 1.00286 0.991585
1.00043 1.00271 0.99131
0.999854 1.00254 0.992167
0.998516 1.00331 0.993612
1.00022 1.00312 0.991358
1.00056 1.0026 0.991289
1.00039 1.0022 0.991914
1.0003 1.00233 0.99196
1.00043 1.00235 0.991675
1.00014 1.00254 0.99198
1.00021 1.00226 0.992053
0.999952 1.00288 0.991901
1.00025 1.00227 0.991896
1.00002 1.00243 0.992193
1.00017 1.00289 0.991569
0.999702 1.0049 0.989965
0.999553 1.0039 0.99136
0.999807 1.00337 0.991696
0.999925 1.00262 0.992219
1.00004 1.00237 0.992304
1.00013 1.00154 0.99294
1.00015 1.00222 0.992289
1.00019 1.00149 0.992906
1.00023 1.00017 0.994103
1.00025 1.00154 0.992699
1.00021 1.00023 0.994102
1.00011 0.998107 0.99689
1.00016 1.00029 0.994121
1.00014 0.998072 0.996606
1.00006 0.996663 0.998075
1.00017 0.998031 0.996326
1.00003 0.996652 0.999183
1.00004 0.996631 0.999186
1.00013 1.0013 0.993417
1.0001 0.999803 0.99474
1.00009 1.0012 0.993379
1.00015 0.99764 0.99678
1.00009 0.999732 0.994824
1.0001 0.999712 0.994812
1.00014 0.99765 0.996781
1.00002 0.996419 0.999286
1.00011 0.997668 0.997241
1.00001 0.996493 0.998792
0.99999 0.996649 0.998275
0.999853 0.996025 0.916969
0.995155 0.997391 0.899087
0.997697 0.996068 0.975301
1.00081 0.996004 0.990737
1.00502 0.994975 0.990758
0.99673 0.995821 0.979213
1.00368 0.995965 0.990124
1.00125 0.995875 0.953921
0.999825 0.997181 0.916691
0.994674 0.998035 0.888121
0.998314 0.996103 0.982566
0.999726 0.997652 0.9549
0.998408 0.998807 0.920126
0.994751 0.998904 0.896712
1.00008 1.003 0.991594
0.999986 1.0021 0.992583
1.0001 1.00109 0.99349
1.00002 1.00216 0.992465
0.999958 1.00288 0.991953
1.00019 1.00289 0.991596
1.00016 1.00256 0.991935
1.00017 1.0025 0.991928
1.00009 1.00225 0.992298
0.999994 1.0022 0.992458
1.00483 0.994876 0.991243
1.0051 0.995079 0.990014
1.00361 0.99675 0.989952
1.00193 1.00088 0.990195
1.00021 1.00479 0.990003
0.999933 1.0048 0.990256
0.999983 1.00351 0.991367
0.999925 1.00336 0.991493
1.00315 0.996907 0.991987
0.999975 1.00403 0.990663
0.999719 1.00455 0.99057
1.00446 0.996037 0.990565
1.0029 0.996751 0.991845
1.00137 1.00183 0.990187
0.999887 1.00519 0.990072
1.00015 0.9985 0.993352
1.00194 0.997069 0.994414
0.999747 1.00372 0.990881
0.999877 1.00424 0.99058
0.999836 1.00464 0.990261
0.99966 1.00514 0.990188
0.994835 0.997499 0.9138
0.999907 0.994895 0.926432
1.00004 0.994946 0.950727
0.999612 1.00378 0.991696
1.0001 1.00375 0.990504
1.00259 0.999385 0.990701
1.00224 1.00133 0.989047
0.999881 0.995562 0.926946
0.999661 0.996938 0.949556
0.994892 0.996162 0.969451
0.997794 1.00206 0.992191
0.998568 0.998519 0.914027
0.995251 0.997958 0.896483
0.994991 0.999248 0.900101
0.99911 1.00295 0.993401
0.995398 0.996915 0.905549
0.995294 0.999505 0.91529
1.00026 1.00176 0.992495
0.999041 1.00408 0.992227
0.996281 1.00069 0.994971
0.994839 0.998437 0.971493
0.997461 0.998863 0.955358
0.997279 0.999906 0.919019
0.994765 0.997667 0.909635
0.998153 1.00239 0.995677
0.995189 0.997168 0.926587
0.994638 0.997569 0.927859
0.996103 1.00247 0.998877
0.994848 1.00002 0.979515
0.995576 1.00001 0.95509
0.994814 0.999937 0.917538
0.994849 0.995973 0.906901
1.00005 1.00133 0.993515
0.999707 1.00057 0.994839
0.998303 1.00242 0.996162
1.00041 1.00233 0.991745
1.00044 1.00273 0.991313
1.00024 1.00275 0.991554
0.999712 1.0026 0.992338
1.00051 1.00264 0.991275
1.0002 1.00311 0.991364
0.998541 1.00321 0.993904
0.996567 1.00458 0.995954
0.99886 1.004 0.992952
1.00038 1.00278 0.991438
1.00045 1.00235 0.991668
1.00014 1.00254 0.991964
1.00021 1.00228 0.992102
1.00024 1.00232 0.991913
0.999954 1.00292 0.991898
1.00007 1.00242 0.992204
1.00011 1.00264 0.99201
0.999599 1.00214 0.993132
1.0008 1.00114 0.99199
1.0002 1.00277 0.991692
0.99985 1.00406 0.990706
1.00092 1.00496 0.988197
0.9998 1.00451 0.990874
0.99956 1.00492 0.990344
0.999638 1.00388 0.991434
0.999796 1.003 0.991888
0.999829 1.0034 0.991686
0.999969 1.0026 0.992214
1.00009 1.00167 0.992886
1.00008 1.00235 0.9923
1.00016 1.00153 0.992938
1.00023 1.00019 0.994102
1.00021 1.00149 0.992909
1.00024 1.00019 0.994105
1.00009 0.998125 0.996911
1.00021 1.00023 0.994105
1.00012 0.998094 0.996617
1.00001 0.99675 0.998083
1.00016 0.998047 0.996325
1.00004 0.996678 0.998627
1.00003 0.996663 0.999183
1.00015 1.00152 0.992988
1.00013 0.999889 0.994606
1.0001 1.00134 0.99326
1.00016 0.997663 0.996743
1.0001 0.999794 0.994743
1.00006 1.00124 0.99338
1.00003 0.996396 0.999285
1.00015 0.997638 0.996782
1.00009 0.999716 0.994825
1.00014 0.997644 0.996779
1.00002 0.99643 0.999286
0.999989 0.996486 0.999282
0.994999 0.995956 0.907407
0.999883 0.995572 0.921205
0.995143 0.999732 0.91521
0.995258 0.997919 0.896647
0.997348 0.995232 0.976217
1.00369 0.995988 0.990399
1.00057 0.996267 0.953137
0.999836 0.996944 0.924465
0.99469 0.998124 0.87965
0.998311 0.996597 0.98149
1.00127 0.997295 0.946248
0.99857 0.9991 0.920747
0.994764 0.999233 0.892236
0.995179 0.99802 0.977276
0.997879 0.999426 0.947778
0.99584 0.999789 0.915198
0.994789 0.997322 0.899259
1.00005 1.00356 0.991119
1.00005 1.00298 0.991693
0.999966 1.00215 0.992655
0.999943 1.00278 0.992037
1.00031 1.0031 0.991059
1.00018 1.00283 0.991665
1.00012 1.00257 0.99193
1.00031 1.00248 0.991827
1.00021 1.00244 0.992015
1.00011 1.00225 0.99222
1.00341 0.996603 0.992189
1.0043 0.99598 0.990279
1.00253 0.996686 0.992753
1.00174 1.00175 0.989634
1.00003 1.00514 0.989938
0.999772 1.00465 0.990452
0.999986 1.00405 0.990612
0.999968 1.00421 0.990543
1.00044 0.998582 0.993646
0.999913 1.00467 0.990268
0.999803 1.00515 0.99019
1.00206 0.996994 0.994003
1.00028 1.00355 0.990729
0.998654 0.997088 0.995072
0.998521 0.99855 0.999266
0.999222 1.00475 0.991267
0.999974 1.00465 0.990069
0.999693 1.00507 0.990147
0.994759 0.996979 0.932251
0.994816 0.997123 0.912307
0.99989 0.994875 0.919356
0.998901 1.00286 0.993402
0.998788 1.00409 0.992205
1.00052 1.00175 0.992434
0.995431 0.995918 0.906908
0.997904 0.998774 0.948373
0.994843 0.997788 0.972174
0.996363 0.999766 0.99784
0.996197 0.999758 0.926688
0.99568 0.999679 0.914715
0.994792 0.997624 0.909743
0.998143 1.00242 0.995881
0.995262 0.996079 0.929406
0.994634 0.997508 0.927786
0.996348 1.00295 0.998041
0.994856 0.99992 0.980575
0.996163 0.999979 0.948089
0.994825 0.996548 0.908172
0.994856 0.999957 0.923182
0.996561 1.00375 0.997948
0.994464 0.994623 0.948828
0.994692 0.996644 0.930911
0.994788 0.997405 0.899531
0.994935 1.00159 0.99375
0.995371 0.999863 0.957831
0.994908 1.00002 0.921557
0.999819 1.00062 0.995024
0.998474 1.00208 0.995928
0.995892 1.00477 0.997897
1.00047 1.00268 0.99126
1.00015 1.00308 0.991368
0.998535 1.00315 0.994198
1.0003 1.0027 0.991512
0.998888 1.00387 0.992959
0.996781 1.00429 0.995898
0.996537 1.00504 0.996412
0.999105 1.00307 0.99319
1.00023 1.00234 0.99193
0.999953 1.00295 0.991896
1.00012 1.00241 0.992216
0.999724 1.0022 0.993046
1.00011 1.00255 0.992017
0.999747 1.00224 0.992944
1.00026 1.00155 0.992593
1.0006 1.00305 0.990317
1.00026 1.00262 0.991816
1.00019 1.00397 0.99055
1.00117 1.00407 0.988038
1.00126 1.00445 0.987787
0.999983 1.00484 0.990024
1.00075 1.00486 0.988346
0.999881 1.00361 0.99141
0.999735 1.00457 0.990798
0.999409 1.00493 0.990723
0.999725 1.00387 0.991509
0.999833 1.00295 0.991973
1.00005 1.00187 0.992745
1 1.00257 0.992209
1.00011 1.00166 0.992886
1.0002 1.00029 0.994064
1.00018 1.00152 0.992936
1.00024 1.00018 0.994102
1.00004 0.998167 0.99694
1.00024 1.00018 0.994107
1.0001 0.998114 0.996643
0.999943 0.996845 0.998106
1.00014 0.998058 0.99634
0.999988 0.996761 0.998632
0.999996 0.996726 0.999185
1.00024 1.00168 0.992495
1.00017 1.00008 0.994148
1.00016 1.00153 0.992987
1.00016 0.997749 0.996643
1.00013 0.999898 0.994485
1.00008 1.00135 0.993104
1.00003 0.996434 0.999274
1.00015 0.997663 0.996747
1.0001 0.999781 0.994746
1.00003 0.996403 0.999285
1.00015 0.997637 0.996783
1.00002 0.996436 0.999285
0.994943 0.995582 0.930016
0.994989 0.996284 0.910792
0.999867 0.996038 0.922155
1.00039 1.00249 0.991563
0.994679 0.998174 0.931279
0.995295 0.999615 0.914738
0.995327 0.998044 0.899737
0.99832 0.99692 0.980028
0.999671 0.997714 0.954614
0.998396 0.99871 0.912556
0.99475 0.999514 0.894372
0.995922 0.997955 0.973351
0.997448 0.999025 0.954693
0.997365 0.999898 0.918638
0.994776 0.997752 0.900796
0.994876 0.998426 0.969582
0.995384 1.00039 0.953859
0.994854 0.999934 0.922762
0.994834 0.996392 0.906715
1.0002 1.00384 0.990554
1.00007 1.0036 0.991032
1.00006 1.00294 0.991791
1.00034 1.00299 0.991113
1.00031 1.00307 0.991171
1.00017 1.00279 0.991733
1.00032 1.00247 0.99185
1.00023 1.0024 0.992103
1.00063 0.998787 0.993914
1.00216 0.996984 0.993571
1.00001 1.00421 0.990506
1.00079 1.0034 0.990568
0.999998 1.00515 0.99019
0.999902 1.00473 0.990273
0.999998 1.00463 0.990134
0.998445 0.997918 0.995556
0.999826 1.0051 0.990076
0.999719 1.00396 0.991332
0.998624 0.99825 0.999271
0.999968 1.0045 0.990199
0.997014 0.998525 0.995673
0.996748 0.99959 1.00172
0.999454 1.00511 0.990703
0.99999 1.00495 0.990084
0.994494 0.995166 0.953042
0.994748 0.997217 0.932838
0.994788 0.996985 0.910823
0.998029 1.00245 0.996102
0.996323 1.00306 0.99718
0.995259 0.995334 0.932177
0.995648 1 0.955718
0.994864 0.998994 0.977201
0.994841 0.999939 0.922289
0.994645 0.997458 0.927713
0.994804 0.997043 0.909423
0.996643 1.00341 0.997816
0.994502 0.994807 0.948738
0.994675 0.996407 0.935334
0.994942 1.00255 0.996893
0.994785 0.997821 0.900987
0.995125 0.999338 0.953636
0.995187 1 0.925295
0.995358 1.00475 0.998102
0.994554 0.994651 0.953608
0.994676 0.998282 0.93146
0.994759 0.999046 0.896951
0.995808 0.99995 0.921965
0.994927 0.998739 0.987814
0.995726 1.00094 0.946092
0.998562 1.00151 0.995679
0.996004 1.00481 0.997507
0.995284 1.00476 1.00001
1.00022 1.00261 0.991586
0.998899 1.00382 0.992965
0.996991 1.00371 0.995833
0.999187 1.00308 0.993147
0.996597 1.00415 0.996392
0.997811 1.00395 0.995085
0.999866 1.00226 0.99296
1.00007 1.00249 0.992024
0.999896 1.00233 0.992933
0.999433 1.0041 0.991214
0.999692 1.00193 0.993189
1.0004 1.0029 0.990688
1.00133 1.00408 0.988233
1.00324 1.00293 0.985884
1.00054 1.00388 0.990391
1.00138 1.00419 0.987774
1.00212 1.00338 0.988089
1.00018 1.00491 0.989078
1.00129 1.00433 0.988025
0.999779 1.0044 0.990702
1.00003 1.00483 0.989994
1.00058 1.0048 0.988495
1.00002 1.00229 0.99237
0.99984 1.0036 0.991395
0.999673 1.00464 0.990722
0.999872 1.00291 0.992058
1.00008 1.00186 0.992738
1.00015 1.00046 0.993966
1.00014 1.00165 0.992885
1.00021 1.00028 0.994063
0.999991 0.998287 0.996404
1.00025 1.00019 0.994101
1.00006 0.998162 0.996401
0.999817 0.996947 0.999206
1.00011 0.998089 0.996368
0.999927 0.996852 0.998644
0.99995 0.996802 0.999188
1.00028 1.0018 0.992299
1.00023 1.00029 0.993819
1.00024 1.0017 0.992581
1.00016 0.997888 0.996496
1.00018 1.00009 0.994108
1.00016 1.00154 0.992986
1.00001 0.996528 0.999248
1.00016 0.997747 0.996651
1.00013 0.999911 0.994365
1.00003 0.996421 0.999278
1.00015 0.997662 0.996751
1.00003 0.996408 0.999286
0.994557 0.994895 0.949409
0.994932 0.996555 0.929808
0.994977 0.997092 0.910958
1.00037 1.0025 0.991641
1.00036 1.00241 0.991636
1.0004 1.0028 0.991318
0.994715 0.996422 0.93051
0.994653 0.997692 0.931211
0.995516 0.999888 0.914267
0.995474 0.997645 0.975679
0.998338 0.999744 0.946807
0.995206 0.999903 0.926659
0.994797 0.998195 0.897739
0.9951 0.997962 0.972645
0.996404 1.00001 0.951556
0.99481 0.999957 0.924124
0.994816 0.996625 0.90788
0.994891 0.998378 0.968565
0.995543 1.00001 0.955195
0.994898 0.999988 0.922056
0.994785 0.998014 0.90458
1.00035 1.00355 0.990572
1.0002 1.00382 0.990557
1.0001 1.00362 0.990944
1.00035 1.00302 0.991093
1.0003 1.00303 0.991285
1.00035 1.00246 0.991873
0.998156 0.998399 0.996026
0.998391 0.998138 0.99929
1.00003 1.00461 0.990201
1.00021 1.00309 0.991399
0.999936 1.00512 0.990007
1.00008 1.00449 0.99006
0.999764 1.00496 0.990118
0.996863 0.997994 0.996045
0.9995 1.00451 0.991297
0.996395 1.00047 1.00115
1.00003 1.0045 0.990478
0.995592 0.997598 0.996566
0.996817 1.00266 0.997772
0.999184 1.00519 0.991511
0.994472 0.995169 0.959071
0.99445 0.995127 0.954689
0.994734 0.997363 0.933403
0.996866 1.00332 0.997681
0.995166 1.00252 0.994531
0.994497 0.994994 0.948647
0.99494 0.999234 0.957466
0.994889 0.999998 0.918283
0.994646 0.996211 0.939759
0.994798 0.998299 0.898028
0.995355 1.00496 0.998403
0.994538 0.994672 0.955288
0.99466 0.997781 0.931398
0.994894 0.998922 0.983535
0.994756 0.999342 0.892625
0.994825 0.999975 0.923263
0.995465 1.00072 0.954316
0.994848 1.00358 0.998827
0.994578 0.994723 0.949729
0.99524 0.999647 0.915625
0.994654 0.998083 0.897411
0.996117 0.998966 0.915254
0.99611 1.00001 0.95406
0.995718 0.99986 0.977008
0.996314 1.00478 0.997179
0.995353 1.00367 0.999972
0.996572 1.00328 0.998423
0.999264 1.00305 0.993105
0.996647 1.00357 0.996385
0.997216 1.00417 0.995379
0.999437 1.00298 0.993163
1.00005 1.00247 0.992923
1.00025 1.00389 0.990825
1.00109 1.00484 0.987875
1.00019 1.00279 0.991067
1.00146 1.00407 0.988014
1.00343 1.00411 0.985109
1.00472 1.00242 0.983846
1.00277 1.00257 0.986717
1.00317 1.00323 0.985753
1.00158 1.00428 0.98751
1.00163 1.00364 0.988639
1.00181 1.00306 0.98861
0.999921 1.00497 0.989578
1.0003 1.00491 0.98919
1.00133 1.0042 0.988267
0.99995 1.00323 0.991547
0.999884 1.00431 0.990712
1.00007 1.00481 0.989963
1.0001 1.00076 0.99376
1.00006 1.00227 0.992359
0.999803 1.00359 0.991381
1.00011 1.00186 0.992731
1.00016 1.00046 0.993964
0.999905 0.998473 0.996364
1.00022 1.00028 0.994062
0.999994 0.998284 0.996401
0.99975 0.997106 0.999199
1.00007 0.99815 0.996398
0.999847 0.996973 0.998658
0.999889 0.996898 0.999194
1.00034 1.00185 0.992286
1.00029 1.00046 0.993738
1.0003 1.00179 0.992347
1.00016 0.998062 0.996329
1.00023 1.0003 0.993897
1.00025 1.00171 0.992666
0.999984 0.996667 0.999214
1.00016 0.997883 0.996506
1.00018 1.0001 0.994068
1.00002 0.996507 0.999257
1.00015 0.997746 0.996658
1.00004 0.996414 0.999282
0.994551 0.994585 0.953379
0.994512 0.994675 0.949319
0.994928 0.996878 0.929703
1.00027 1.00254 0.991647
1.00021 1.00303 0.99141
1.00032 1.00251 0.991718
1.00034 1.00245 0.991644
1.00035 1.00285 0.991289
1.00028 1.00276 0.991499
1.00051 1.00286 0.991099
0.99467 0.997435 0.927301
0.99469 0.996493 0.934984
0.994626 0.997174 0.931144
0.994794 0.996824 0.909039
0.994864 0.998217 0.969919
0.995252 1.00002 0.950106
0.994856 0.999955 0.92772
0.994883 0.998605 0.967942
0.995099 1.00002 0.948887
0.995112 0.999981 0.926343
0.994769 0.997758 0.909364
0.99564 0.997009 0.97186
0.995015 1.00064 0.948056
0.994812 0.999943 0.918141
0.994748 0.999482 0.897239
0.999977 1.00369 0.991072
1.00033 1.00354 0.990572
1.00019 1.00381 0.99056
1.00038 1.00303 0.991073
0.996895 0.997871 0.996431
0.996318 1.0012 1.00058
1.0001 1.00449 0.989921
0.999761 1.00496 0.990152
0.999721 1.00402 0.991893
0.999894 1.00438 0.990504
0.999047 1.0052 0.991496
0.995495 0.998733 0.993986
0.996368 1.00366 0.998077
0.998568 1.00469 0.992357
0.995306 0.999061 0.992299
0.997735 1.00474 0.996023
0.994519 0.994981 0.953223
0.994464 0.994858 0.961476
0.994418 0.994833 0.956332
0.995202 1.00515 0.998636
0.994936 0.997479 0.98879
0.99454 0.994635 0.956986
0.996742 1.00093 0.946668
0.99504 0.99996 0.926724
0.994643 0.997256 0.931332
0.994729 0.999541 0.894737
0.994867 1.00216 0.999229
0.994535 0.994707 0.949654
0.995459 0.999476 0.915147
0.994882 1.00065 0.978566
0.994666 0.998021 0.888999
0.997366 0.999903 0.91828
0.994977 1.00001 0.948281
0.995306 1.00401 0.993313
0.995178 0.995166 0.930685
0.995196 0.997369 0.899955
0.998691 0.997638 0.92129
0.995471 0.999973 0.954466
0.994899 0.999529 0.971592
0.99541 1.00245 0.999839
0.99594 1.00409 0.99842
0.998421 1.00005 0.997891
0.996625 1.00438 0.995673
0.998498 1.00321 0.993598
1.0028 1.00024 0.989846
1.0011 1.00361 0.990434
1.00141 1.00479 0.987739
1.00277 1.00357 0.985491
1.0016 1.0041 0.987797
1.00337 1.00416 0.98489
1.00438 1.00308 0.983735
1.00505 1.00114 0.984338
1.00492 1.00258 0.983925
1.00482 1.00244 0.983646
1.00227 1.00287 0.987278
1.00276 1.00268 0.986948
1.00312 1.00358 0.985623
1.00111 1.00446 0.988435
1.00151 1.00357 0.988664
1.00149 1.00277 0.989126
1.00004 1.00432 0.990336
0.99999 1.00491 0.989703
1.00043 1.00492 0.989304
1.00001 1.00143 0.993223
1.00004 1.00311 0.991543
0.999974 1.00422 0.990723
0.999817 0.998686 0.996301
1.0001 1.00078 0.993748
1.0001 1.00226 0.992348
1.00017 1.00046 0.993962
0.999906 0.998482 0.99636
0.999658 0.997295 0.99919
0.999998 0.998279 0.996399
0.999741 0.99714 0.999197
0.999816 0.997008 0.999199
1.00027 1.00264 0.991625
1.00039 1.00194 0.992147
1.00033 1.00063 0.99349
1.00035 1.00187 0.992275
1.00013 0.998277 0.996153
1.00028 1.00047 0.993736
1.00028 1.00183 0.992395
0.999942 0.996841 0.999175
1.00015 0.998061 0.99634
1.00024 1.0003 0.993975
0.99999 0.996636 0.999224
1.00016 0.997879 0.996517
1.00002 0.996479 0.999265
0.994512 0.994621 0.948554
0.994551 0.994646 0.955095
0.994468 0.994726 0.94922
1.00032 1.00249 0.99167
1.00015 1.00308 0.991373
1.00006 1.00337 0.991175
1.00014 1.00298 0.991397
1.00021 1.00344 0.991069
1.00032 1.00248 0.991652
1.0003 1.0029 0.991259
1.00029 1.00274 0.991494
1.00043 1.0029 0.991141
1.00015 1.00307 0.991521
0.995127 0.99916 0.915247
0.994665 0.997611 0.927254
0.994674 0.9966 0.939453
0.994776 0.997487 0.909477
0.994905 0.999969 0.918789
0.994895 0.998867 0.966568
0.994951 1.00026 0.954744
0.99498 0.997323 0.96859
0.995305 1.00033 0.954885
0.994831 0.999968 0.924259
0.994961 0.999288 0.895032
0.995089 0.995404 0.973372
0.994933 1.0004 0.955751
0.995681 0.999885 0.926117
0.994908 0.998164 0.896138
0.998959 1.00281 0.993553
0.999958 1.00382 0.991103
1.0003 1.0036 0.990572
0.995308 0.999462 0.991362
0.995892 1.00443 0.998357
0.999856 1.00433 0.990531
0.998594 1.00521 0.991481
0.998632 1.00474 0.992404
0.997098 1.00438 0.995978
0.994991 0.999392 0.992572
0.996714 1.00305 0.996806
0.995941 1.00056 0.992329
0.994932 0.99684 0.931997
0.994484 0.994947 0.954834
0.994439 0.994744 0.963886
0.994897 1.00064 0.999676
0.9949 1.00088 0.974333
0.994495 0.994723 0.949566
0.996832 1.0001 0.952049
0.99526 0.999909 0.92623
0.995634 0.999791 0.914683
0.994686 0.998131 0.880525
0.995338 1.00405 0.993695
0.995102 0.996015 0.930478
0.995349 0.99773 0.897522
0.994905 0.999493 0.972643
0.998574 0.998943 0.921579
0.996363 0.999973 0.950412
0.996089 1.00123 0.991279
0.995051 0.995682 0.908352
0.999332 0.997632 0.924592
0.997862 0.99855 0.948262
0.99485 0.997923 0.973891
0.995485 1.00479 0.998392
0.998213 1.00025 0.997833
1.00303 0.998558 0.992751
0.997602 1.00339 0.993986
1.00181 1.00065 0.990341
1.00392 0.998582 0.988353
1.00172 1.00471 0.9876
1.00285 1.0036 0.985562
1.0044 1.00084 0.985636
1.00331 1.00418 0.984673
1.00428 1.00293 0.98381
1.00497 1.00026 0.985297
1.0051 0.99943 0.985886
1.0051 1.00158 0.983757
1.00501 1.00109 0.984391
1.00435 1.00222 0.984949
1.00477 1.00246 0.983796
1.0049 1.00242 0.983448
1.00189 1.00392 0.987454
1.00221 1.00285 0.987576
1.00274 1.00279 0.987181
1.0007 1.00431 0.989212
1.00098 1.00443 0.988543
1.00139 1.0035 0.988688
0.999948 1.00258 0.99214
1.00013 1.00418 0.990343
1.00006 1.00486 0.989827
0.999723 0.999038 0.996655
1.00003 1.00144 0.993196
1.00013 1.003 0.99154
0.999578 0.997533 0.998059
0.999815 0.998734 0.99655
1.00011 1.00079 0.993735
0.999906 0.998492 0.996355
0.999651 0.997337 0.999185
0.999731 0.997171 0.999195
1.00019 1.00299 0.991355
1.00037 1.00215 0.991964
1.00024 1.0027 0.991592
1.00033 1.00082 0.993298
1.00035 1.00199 0.992141
1.00009 0.998499 0.995999
1.00032 1.00065 0.993489
1.00037 1.00186 0.992263
0.99989 0.997051 0.999133
1.00013 0.998271 0.996164
1.00028 1.00048 0.993733
0.999949 0.996807 0.999187
1.00015 0.998059 0.99635
0.999995 0.996608 0.999235
0.995503 0.994885 0.933058
0.994529 0.994719 0.948471
0.994558 0.994625 0.956823
1.00022 1.00315 0.991214
1.00032 1.00251 0.991694
1.00011 1.00313 0.991336
1.00019 1.00299 0.991429
1.00016 1.0033 0.991219
1.00014 1.00343 0.991092
1.00015 1.00377 0.99071
0.99995 1.0036 0.991
1.00034 1.00268 0.991489
1.00034 1.00293 0.991184
1.0001 1.00312 0.991471
0.999466 1.00351 0.992613
0.995275 0.998495 0.898531
0.995496 0.999355 0.914661
0.994653 0.997798 0.927207
0.99523 0.999059 0.899415
0.9949 0.999945 0.923905
0.994953 1.00064 0.948056
0.995663 0.997341 0.966397
0.995232 0.995583 0.975145
0.994768 0.998142 0.888108
0.994998 1.00002 0.9519
0.997302 0.999833 0.918303
0.994885 0.996372 0.976226
0.995642 1.00003 0.956044
0.999294 0.997737 0.918393
0.998895 1.00131 0.99542
0.999179 1.00274 0.993522
0.999928 1.00393 0.991135
0.994858 0.999574 0.992821
0.996738 1.00401 0.995934
0.998733 1.00469 0.99245
0.997887 1.00285 0.996578
0.995554 1.00074 0.992447
0.997145 1.00058 0.993672
0.994891 0.998727 0.907608
0.994905 0.995916 0.936257
0.994433 0.994841 0.956447
0.995241 1.00459 0.994088
0.994902 0.999348 0.97319
0.994978 0.996533 0.930351
0.995281 0.999994 0.949379
0.998677 0.997535 0.913628
0.995589 0.997591 0.900585
0.996257 1.00165 0.991299
0.995117 0.995898 0.911643
0.999834 0.996742 0.917706
0.99487 0.99809 0.9699
0.997524 0.998611 0.955055
0.997968 0.99937 0.993539
0.999858 0.995815 0.917586
0.999634 0.997894 0.954652
0.994875 0.997284 0.969428
0.997965 1.00065 0.997846
1.00222 0.997833 0.993351
1.00397 0.998483 0.990019
1.00084 1.00106 0.990838
1.0036 0.999225 0.988282
1.00473 0.997839 0.987857
1.0029 1.00358 0.985633
1.00421 1.00095 0.985627
1.00492 0.99823 0.987334
1.00416 1.0028 0.983883
1.00498 1.00012 0.9853
1.00509 0.997773 0.987551
1.00513 0.997996 0.987292
1.00512 1.00021 0.985148
1.0051 0.999361 0.985939
1.00509 1.00098 0.984423
1.00508 1.00151 0.983935
1.00498 1.00104 0.984444
1.00328 1.0029 0.985999
1.00401 1.00223 0.985071
1.00463 1.00232 0.983666
1.0016 1.00368 0.988202
1.00196 1.00385 0.987432
1.00217 1.00281 0.987872
1.00029 1.00328 0.990894
1.00074 1.00426 0.989218
1.00085 1.00439 0.988651
0.99966 0.999637 0.995575
1.00006 1.00247 0.992121
1.00023 1.00403 0.99035
0.99947 0.997764 0.999156
0.999716 0.999118 0.996063
1.00006 1.00145 0.99317
0.99957 0.997533 0.999168
0.999805 0.998768 0.996267
0.999645 0.997383 0.999179
1.00036 1.003 0.99117
1.00023 1.00298 0.991339
1.00035 1.00246 0.99169
1.0003 1.00105 0.993129
1.00033 1.00218 0.991964
1.00024 1.00271 0.991559
1.00003 0.998705 0.995893
1.00032 1.00083 0.993299
1.00033 1.00202 0.992136
0.999829 0.997257 0.999096
1.00009 0.99849 0.996007
1.00031 1.00066 0.993488
0.999896 0.997006 0.999145
1.00013 0.998266 0.996174
0.999955 0.996767 0.999198
0.995353 0.997665 0.900871
0.995306 0.995027 0.932875
0.994546 0.994821 0.948388
1.0001 1.00332 0.991178
1.00056 1.00327 0.99084
1.00009 1.00366 0.990888
1.00022 1.00301 0.991462
1.00025 1.00322 0.991263
1.00001 1.00348 0.991116
1.00007 1.00355 0.990984
1.00011 1.00381 0.99073
1.00003 1.00424 0.990506
0.999984 1.00128 0.99315
1.00018 1.00302 0.991421
0.999543 1.00321 0.992449
0.99981 0.996957 0.914501
0.995229 0.998479 0.894235
0.995747 0.999549 0.914105
0.994685 0.998152 0.879991
0.996738 0.998697 0.925756
0.994892 1.00004 0.951573
0.995473 0.995304 0.972708
0.994901 0.996689 0.974498
0.998564 0.998908 0.920576
0.996261 0.999985 0.949799
0.995257 0.998217 0.974938
0.998941 0.998352 0.948086
1.00197 0.998661 0.993011
0.999116 1.00125 0.995169
0.999346 1.00264 0.993504
0.994996 1.00106 0.992535
0.99872 1.00269 0.996339
0.997745 1.00081 0.992988
0.999932 0.999424 0.989873
0.999925 0.994851 0.923353
0.994927 0.997766 0.909022
0.994802 0.995021 0.940443
0.996408 1.00173 0.991436
0.994875 0.998181 0.968434
0.995233 0.99645 0.911782
0.998425 0.99815 0.947511
0.999835 0.997308 0.92545
0.997789 0.99916 0.991628
0.999891 0.995503 0.921819
1.00131 0.997109 0.946533
0.994893 0.996951 0.972675
0.999087 0.996386 0.993211
1.00005 0.996269 0.954174
0.996012 0.997197 0.975069
1.00145 0.996985 0.993921
1.00378 0.997681 0.989981
1.00497 0.997006 0.989148
1.00315 0.999866 0.988214
1.0045 0.997972 0.987855
1.00482 0.996792 0.988724
1.00406 1.0011 0.98562
1.00481 0.998337 0.987283
1.00508 0.996087 0.989062
1.00498 0.999996 0.985303
1.00509 0.997723 0.987549
1.00512 0.996357 0.988941
1.00511 0.997149 0.988361
1.00513 0.997844 0.987471
1.00516 0.998828 0.986607
1.00515 1.00029 0.985187
1.00513 1.00022 0.985169
1.0051 0.999292 0.985993
1.00463 1.0011 0.985191
1.00501 1.00099 0.984527
1.00507 1.00141 0.984113
1.00255 1.00325 0.986968
1.00329 1.00288 0.985979
1.00368 1.00228 0.985192
1.00087 1.00316 0.989974
1.00169 1.00363 0.988177
1.00202 1.00378 0.987411
0.999729 1.00041 0.994663
1.00038 1.00314 0.990896
1.00082 1.00416 0.989224
0.999476 0.998021 0.999053
0.999661 0.999733 0.99553
1.00016 1.00238 0.992103
0.999502 0.997787 0.998565
0.999707 0.99918 0.996041
0.999572 0.997595 0.999156
1.0005 1.00294 0.990985
1.00023 1.00309 0.991187
1.00026 1.00287 0.991374
1.00029 1.00297 0.991323
1.0003 1.00251 0.99169
1.00025 1.00136 0.992902
0.999954 0.998916 0.995829
1.00029 1.00105 0.993135
1.00028 1.00224 0.991964
0.999762 0.997442 0.999071
1.00003 0.998697 0.995899
1.00032 1.00083 0.9933
0.999835 0.997221 0.999107
1.00009 0.998486 0.996015
0.999903 0.996965 0.999158
0.999868 0.995242 0.923095
0.995398 0.997862 0.902163
0.99525 0.995168 0.932681
0.999984 1.0035 0.991142
1.00002 1.00389 0.990757
1.00036 1.00326 0.991031
1.00124 1.00341 0.989396
1.00007 1.00422 0.990489
1.00015 1.00356 0.990969
1.00009 1.00381 0.990749
0.999946 1.00409 0.990686
1.00022 1.00371 0.989734
1.00073 1.00099 0.99246
1.00412 0.99905 0.988321
0.999819 1.0014 0.993454
0.999727 1.00288 0.992282
0.9998 0.997411 0.953663
0.999756 0.997384 0.917673
0.995221 0.998234 0.895517
0.999117 0.998825 0.912084
0.995859 0.999933 0.953403
0.994912 0.996561 0.976469
0.99501 0.998158 0.977037
0.99744 0.998518 0.956449
0.996223 0.998757 0.975939
1.00372 0.996475 0.991575
1.00144 0.999002 0.993096
0.999347 1.00124 0.994907
0.998358 1.00085 0.992361
1.00123 1.00001 0.988095
1.00002 0.995096 0.950749
0.999912 0.994886 0.926538
0.995047 0.996819 0.910522
0.99751 0.999106 0.989683
0.994865 0.996833 0.969714
0.999873 0.995903 0.922737
0.999917 0.997961 0.954467
0.9986 0.997774 0.99357
1.00132 0.996163 0.953431
0.996241 0.996974 0.971919
1.00103 0.997518 0.991687
0.999202 0.996127 0.980266
1.00359 0.996902 0.989981
1.00496 0.996428 0.989072
1.00502 0.995665 0.989959
1.00431 0.99817 0.987852
1.00475 0.99683 0.98869
1.00508 0.995291 0.989924
1.00468 0.998449 0.987233
1.00507 0.996147 0.989039
1.00512 0.995223 0.989948
1.00509 0.997673 0.987547
1.00512 0.996366 0.988902
1.0051 0.996202 0.989341
1.00511 0.996944 0.988493
1.00513 0.997847 0.987659
1.00512 0.997692 0.987651
1.00515 0.99885 0.98659
1.00516 0.999497 0.985959
1.00505 1.00012 0.985469
1.00515 1.00036 0.985152
1.00514 1.00023 0.98519
1.00378 1.00183 0.986203
1.00459 1.00114 0.985225
1.0049 1.00102 0.984631
1.00151 1.00284 0.989101
1.00259 1.00319 0.986956
1.00328 1.00288 0.985957
0.999967 1.00093 0.993691
1.00093 1.00311 0.989968
1.00172 1.00364 0.988152
0.99953 0.998424 0.998859
0.999764 1.00043 0.994634
1.00049 1.00299 0.990901
0.999516 0.998093 0.998998
0.999667 0.999824 0.995483
0.999536 0.997822 0.999097
1.00131 1.00309 0.989369
1.00053 1.00284 0.990974
1.00033 1.00308 0.990951
1.00012 1.00315 0.991205
1.00023 1.00293 0.991327
1.0002 1.00183 0.992495
1.00025 1.00255 0.99169
1.00023 1.00136 0.992911
0.999862 0.999165 0.995749
0.999693 0.997612 0.999055
0.999958 0.998895 0.995835
1.00028 1.00104 0.99314
0.999768 0.997422 0.999078
1.00003 0.998693 0.995905
0.999841 0.997179 0.999118
1.00067 0.995065 0.957018
0.999885 0.995776 0.921837
0.995291 0.998273 0.89969
0.999947 1.00412 0.990626
1.00019 1.0032 0.991223
1.00014 1.00417 0.99053
1.00113 1.00337 0.989496
1.00218 1.00381 0.987352
1.00041 1.00389 0.989759
0.999855 1.00395 0.990866
1.00066 1.00378 0.989341
1.00058 1.00138 0.992282
1.00224 1.00092 0.989045
1.00423 0.99852 0.989349
1.00454 0.997267 0.988983
1.0036 0.998907 0.989041
0.999455 1.00174 0.993762
0.995823 0.997322 0.975352
1.00038 0.996596 0.951953
0.998837 0.997552 0.925203
0.998407 0.999032 0.947999
0.994869 0.998389 0.97834
0.996399 0.9986 0.980318
1.00038 0.998343 0.992255
1.00376 0.996238 0.99174
1.0012 0.999239 0.993185
1.00273 1.00045 0.986247
0.997258 0.997044 0.976346
1.00045 0.99522 0.958717
0.999895 0.994865 0.919352
0.998247 0.998637 0.993825
0.996217 0.996424 0.974012
1.0006 0.996443 0.952481
1.00098 0.9976 0.991823
0.998656 0.996372 0.979322
1.00362 0.996879 0.991079
1.00345 0.997307 0.988927
1.00489 0.995866 0.988973
1.00498 0.995568 0.989914
1.0051 0.994868 0.990463
1.00469 0.996841 0.988655
1.00508 0.995268 0.989887
1.00509 0.99499 0.990395
1.00506 0.996196 0.989014
1.00512 0.995314 0.989918
1.00511 0.995674 0.98986
1.00512 0.996375 0.988862
1.0051 0.996187 0.989244
1.00512 0.996986 0.988444
1.00512 0.996743 0.988623
1.00513 0.997719 0.987818
1.00517 0.998937 0.986564
1.00515 0.998872 0.986572
1.00516 0.999568 0.985924
1.00511 0.999766 0.985896
1.00451 1.00031 0.986158
1.00506 1.00021 0.985481
1.00514 1.00042 0.985116
1.00248 1.00196 0.988299
1.00373 1.00182 0.986225
1.00456 1.00117 0.985259
1.00019 1.00138 0.992818
1.00155 1.00287 0.989088
1.00263 1.00313 0.986944
0.999641 0.99891 0.998575
1.00003 1.00091 0.993679
1.001 1.00305 0.98996
0.999594 0.998532 0.998759
0.999792 1.00048 0.994606
0.999567 0.998164 0.998928
1.00201 1.00362 0.987596
1.00137 1.0031 0.989395
1.00091 1.00314 0.989952
1.00053 1.00279 0.990962
1.00039 1.00306 0.990867
1.00033 1.00224 0.991901
1.00019 1.003 0.99128
1.00019 1.00183 0.992502
0.999778 0.999522 0.995545
1.00022 1.00136 0.992919
0.99987 0.999125 0.99576
0.999631 0.997779 0.999031
0.999697 0.997593 0.99906
0.999961 0.998875 0.995842
0.999771 0.997392 0.999086
0.996666 0.996498 0.976992
1.00067 0.99525 0.949676
0.999871 0.99499 0.927057
1.00399 1.00234 0.985465
1.00023 1.00411 0.990571
1.00103 1.00334 0.989598
1.00061 1.00393 0.989606
1.00204 1.00381 0.987327
1.00227 1.00171 0.988638
1.00108 1.00383 0.988949
1.00043 1.00172 0.992107
1.00251 1.00087 0.989162
1.00424 0.998322 0.988985
1.00479 0.997866 0.987742
1.00421 0.996032 0.990952
1.00445 0.997102 0.988723
1.003 0.99868 0.989761
0.999969 0.998083 0.99358
0.995996 0.997451 0.97368
1.00013 0.996487 0.950789
0.996614 0.998216 0.97808
1.00046 0.997402 0.994387
1.00331 0.996138 0.991882
1.00142 0.996557 0.988846
0.996797 0.995944 0.978219
1.00003 0.995001 0.950911
1.00068 0.998111 0.991994
0.998568 0.996795 0.978025
1.00339 0.996443 0.991337
1.00336 0.996902 0.989157
1.00477 0.994911 0.991072
1.0046 0.997074 0.990742
1.00501 0.995454 0.989873
1.0051 0.994901 0.990367
1.00511 0.994885 0.99039
1.00506 0.995253 0.98985
1.00506 0.994977 0.990387
1.00512 0.995288 0.990133
1.00513 0.995413 0.989887
1.00512 0.995649 0.989798
1.00511 0.996529 0.988929
1.0051 0.996171 0.989147
1.00512 0.997001 0.988444
1.00517 0.998317 0.9871
1.00513 0.997591 0.987978
1.00517 0.998831 0.986696
1.00513 0.999561 0.985967
1.00516 0.999636 0.985888
1.00511 0.999787 0.985815
1.00468 0.999926 0.986394
1.00325 1.00082 0.988079
1.00447 1.00037 0.986224
1.00508 1.00031 0.985492
1.00064 1.00131 0.992119
1.00245 1.002 0.98831
1.00367 1.00181 0.986245
0.999698 0.999411 0.998303
1.00035 1.00121 0.992798
1.00158 1.00287 0.989076
0.999693 0.999003 0.998476
1.00011 1.00087 0.993667
0.999661 0.998618 0.998655
1.00343 1.00263 0.985829
1.00196 1.00365 0.987629
1.00163 1.0034 0.988562
1.00144 1.00311 0.989422
1.00095 1.0031 0.989968
1.00051 1.00266 0.991195
1.00046 1.00304 0.990783
1.00023 1.00237 0.991899
0.999739 1.00001 0.995127
1.00016 1.00186 0.992508
0.999789 0.999459 0.995566
0.999591 0.99799 0.99897
0.999878 0.999088 0.995771
0.999632 0.997759 0.999041
0.999701 0.99758 0.999065
1.00087 0.996823 0.991885
0.996975 0.99586 0.973329
1.00011 0.995144 0.957855
1.00352 1.00086 0.98674
1.0051 0.999231 0.986293
1.00387 1.00209 0.985601
1.00079 1.00397 0.989451
1.00189 1.00381 0.987293
1.00259 1.00163 0.988395
1.00507 0.998199 0.987573
1.00278 1.0008 0.989276
1.00421 0.998127 0.988616
1.00476 0.997876 0.987997
1.00501 0.996807 0.988634
1.00444 0.995517 0.990954
1.00422 0.99623 0.99062
1.00456 0.997112 0.988462
1.00013 0.998284 0.993703
0.995949 0.997593 0.971613
1.00067 0.996741 0.996563
1.00434 0.995386 0.992057
1.00114 0.996954 0.989005
0.997039 0.995328 0.975697
1.00341 0.996067 0.99157
1.00329 0.996981 0.989408
1.0048 0.994977 0.991272
1.00469 0.996328 0.990622
1.00513 0.994941 0.990285
1.00514 0.995113 0.990369
1.00511 0.994964 0.99027
1.00511 0.994899 0.99038
1.00519 0.99516 0.990063
1.00506 0.994959 0.990379
1.00512 0.995315 0.990057
1.00511 0.99604 0.98936
1.00512 0.995623 0.989735
1.00511 0.99654 0.988933
1.00517 0.997955 0.987479
1.00512 0.997018 0.988444
1.00517 0.998326 0.987115
1.00515 0.999375 0.986115
1.00517 0.998724 0.986829
1.00513 0.99952 0.986009
1.00474 0.999871 0.98635
1.00511 0.999816 0.985734
1.00467 0.999937 0.98635
1.00353 1.00023 0.988169
1.00102 1.00084 0.991856
1.00322 1.00084 0.988082
1.00443 1.00043 0.98629
0.999745 0.999912 0.99806
1.00072 1.00125 0.992097
1.0024 1.00208 0.988321
0.999748 0.999536 0.998209
1.00047 1.00112 0.992775
0.999743 0.999103 0.998381
1.00474 1.00035 0.985659
1.00346 1.00254 0.985799
1.00272 1.00294 0.986939
1.00192 1.00368 0.98766
1.00156 1.00341 0.988596
1.0009 1.003 0.990217
1.00098 1.00307 0.989983
1.00042 1.00276 0.991201
0.999832 1.00052 0.994469
1.00017 1.00247 0.991898
0.999743 0.999944 0.995149
0.999579 0.998308 0.998835
0.9998 0.9994 0.995586
0.999583 0.997956 0.998995
0.999634 0.997743 0.999049
1.00449 0.994993 0.991695
1.00101 0.996364 0.990544
0.996524 0.995324 0.973807
1.00512 0.998277 0.987175
1.00377 1.00043 0.986953
1.00514 0.998548 0.986953
1.00507 0.999352 0.986287
1.00374 1.00182 0.985748
1.0051 0.997411 0.987881
1.00291 1.00154 0.988159
1.00505 0.998266 0.987379
1.00514 0.996077 0.989035
1.00473 0.997924 0.988254
1.00495 0.996908 0.988559
1.00443 0.995611 0.99107
1.00406 0.996257 0.990277
1.0001 0.998471 0.993816
1.00512 0.995053 0.990117
1.00435 0.9959 0.992113
1.0009 0.997004 0.989138
1.00482 0.995045 0.991477
1.00471 0.995514 0.990506
1.00512 0.994949 0.990343
1.00515 0.99499 0.990331
1.0052 0.994946 0.990278
1.00511 0.994904 0.990372
1.0052 0.995113 0.990085
1.00514 0.99581 0.989651
1.00511 0.99534 0.98998
1.00512 0.996097 0.989286
1.00515 0.997733 0.987746
1.00511 0.996551 0.988937
1.00517 0.997968 0.987484
1.00517 0.99918 0.986298
1.00516 0.998333 0.98713
1.00515 0.999367 0.986133
1.0048 0.99984 0.986283
1.00512 0.99948 0.986051
1.00473 0.999879 0.98636
1.00363 1.00009 0.98813
1.00466 0.999945 0.986307
1.00352 1.00024 0.988155
1.00113 1.00044 0.99331
0.999973 0.999996 0.995363
1.00108 1.00079 0.992508
1.0032 1.00086 0.988085
0.999806 1 0.997978
1.00084 1.00111 0.992083
0.999801 0.999636 0.998107
1.0052 0.998544 0.986911
1.0051 0.999406 0.986192
1.00475 1.00035 0.98574
1.00396 1.00129 0.986264
1.00348 1.00246 0.985769
1.00269 1.00299 0.986936
1.00165 1.0028 0.989016
1.00148 1.00343 0.98863
1.00081 1.00303 0.990247
1.00008 1.00104 0.993568
1.00034 1.00286 0.991207
0.99979 1.00052 0.994482
0.999575 0.998772 0.998612
0.999748 0.99988 0.99517
0.999557 0.998239 0.998889
0.999579 0.997924 0.999016
1.00514 0.995411 0.989715
1.0047 0.994985 0.991895
1.00141 0.995792 0.989219
1.00511 0.99765 0.987658
1.00508 0.998304 0.987126
1.00403 1.00002 0.987153
1.00514 0.998611 0.986911
1.00504 0.999474 0.98628
1.00511 0.996341 0.989225
1.00509 0.997431 0.98779
1.00505 0.998335 0.987187
1.00513 0.996077 0.989054
1.00494 0.996989 0.988483
1.00449 0.995784 0.991209
1.00518 0.995088 0.990346
1.00513 0.995091 0.990254
1.00439 0.996449 0.992174
1.00513 0.99492 0.990397
1.00516 0.994954 0.990293
1.00521 0.994937 0.990279
1.00513 0.995745 0.989838
1.0052 0.995069 0.990107
1.00516 0.995789 0.989608
1.00511 0.997561 0.988023
1.00512 0.996157 0.989213
1.00515 0.997736 0.987749
1.00518 0.999001 0.986482
1.00517 0.997982 0.98749
1.00517 0.999175 0.986308
1.00486 0.99981 0.986218
1.00514 0.999359 0.986151
1.0048 0.99984 0.986293
1.00371 1.00008 0.98799
1.00473 0.999887 0.98637
1.00363 1.00008 0.988125
1.00123 1.00012 0.99347
1.00352 1.00025 0.988142
1.00126 1.00035 0.993269
0.999957 1.00002 0.995495
0.99984 1.00022 0.996622
1.00122 1.00071 0.993051
0.999846 1.00013 0.997911
1.00517 0.998144 0.987358
1.00514 0.999114 0.986425
1.0052 0.998376 0.987014
1.00464 0.999956 0.986417
1.00511 0.999416 0.986147
1.00476 1.00034 0.98582
1.004 1.00129 0.986237
1.00267 1.0017 0.98819
1.00267 1.00306 0.986933
1.00163 1.00277 0.989031
1.00043 1.00139 0.99259
1.00072 1.00306 0.990277
0.999952 1.00113 0.993591
0.999574 0.999423 0.998317
0.99974 1.00054 0.994494
0.999548 0.998671 0.9987
0.999546 0.998174 0.998935
1.00513 0.99557 0.989764
1.00515 0.995435 0.989703
1.00482 0.994956 0.992062
1.00513 0.997034 0.988471
1.00511 0.997682 0.987646
1.00504 0.99833 0.987076
1.00514 0.998669 0.98687
1.00511 0.996328 0.989097
1.00507 0.997457 0.987698
1.00512 0.996072 0.989074
1.00518 0.995725 0.989781
1.00518 0.995128 0.990264
1.00516 0.995085 0.99039
1.00511 0.996385 0.989122
1.00521 0.994934 0.990279
1.00513 0.995848 0.989696
1.00509 0.997304 0.988481
1.00517 0.995772 0.989565
1.0051 0.997552 0.988029
1.00517 0.99884 0.986661
1.00515 0.997744 0.987751
1.00517 0.999001 0.986492
1.00492 0.999746 0.986181
1.00516 0.999171 0.986318
1.00485 0.999805 0.98623
1.0038 1.00009 0.987824
1.0048 0.99984 0.986303
1.00372 1.00006 0.987992
1.00131 1.00003 0.993446
1.00364 1.00007 0.988119
1.00134 1.00008 0.993399
0.999979 0.999929 0.99557
1.00139 1.00024 0.993236
0.999729 1.00017 0.995622
0.999507 1.00049 0.998105
1.00516 0.998069 0.987354
1.00515 0.998842 0.986694
1.00518 0.998164 0.987262
1.00476 0.999642 0.986849
1.00514 0.999001 0.986475
1.00521 0.998213 0.987117
1.00341 1.00047 0.988048
1.00465 0.999921 0.986408
1.00512 0.999431 0.986101
1.00404 1.00129 0.98621
1.0027 1.00167 0.988179
1.00082 1.00125 0.991961
1.0016 1.00274 0.989047
1.00029 1.00151 0.992622
0.999617 1.00013 0.998025
0.999843 1.00122 0.993612
0.999536 0.999283 0.998433
0.999528 0.998557 0.998778
1.00515 0.99634 0.989022
1.00514 0.995491 0.989793
1.00515 0.995471 0.989691
1.00513 0.996959 0.988517
1.00511 0.997709 0.987635
1.00511 0.996312 0.98897
1.00513 0.996527 0.989084
1.00518 0.995763 0.989728
1.00517 0.995166 0.990183
1.0051 0.996398 0.989199
1.00511 0.997388 0.988218
1.00513 0.995948 0.989553
1.00508 0.997414 0.988262
1.00517 0.998507 0.98705
1.00509 0.997539 0.988035
1.00516 0.998828 0.986669
1.00498 0.999632 0.986185
1.00516 0.998993 0.986501
1.00491 0.999743 0.986193
1.00389 1.00008 0.987656
1.00485 0.999801 0.986242
1.0038 1.00008 0.987829
1.00138 1.00008 0.993272
1.00373 1.00005 0.987993
1.00141 0.999987 0.993351
1.00004 0.999904 0.995508
1.00144 1.00003 0.993336
0.999777 0.999989 0.99572
0.999516 1.00036 0.995733
1.00515 0.997461 0.988068
1.00517 0.998806 0.986637
1.00516 0.997924 0.987502
1.00485 0.999427 0.98676
1.00515 0.998904 0.98663
1.00518 0.998184 0.987166
1.00365 0.99995 0.988194
1.00474 0.999546 0.986731
1.00514 0.998886 0.986525
1.00111 1.00068 0.991937
1.00344 1.00046 0.98805
1.00466 0.999888 0.9864
1.00274 1.00164 0.98817
1.00073 1.00134 0.991974
0.999676 1.00058 0.99788
1.00015 1.00163 0.992654
0.99955 0.999976 0.998134
0.999506 0.999119 0.99854
1.00513 0.996661 0.988821
1.00515 0.996332 0.989045
1.00515 0.995412 0.989822
1.00512 0.996886 0.988564
1.00512 0.997481 0.988129
1.00513 0.996508 0.989116
1.00517 0.995802 0.989676
1.0051 0.996415 0.989277
1.00511 0.997321 0.988279
1.00514 0.998418 0.987239
1.00508 0.997522 0.988044
1.00517 0.998631 0.986893
1.00503 0.999362 0.986355
1.00516 0.998825 0.986678
1.00497 0.999632 0.986195
1.004 1.00003 0.987509
1.0049 0.999746 0.986205
1.0039 1.00007 0.987661
1.00148 1.00013 0.991834
1.00381 1.00007 0.987834
1.00147 1.00004 0.992568
0.999996 0.999947 0.997893
1.00151 0.999963 0.993258
0.99986 0.999898 0.995671
0.999589 1.00006 0.995853
1.00514 0.997318 0.988295
1.00517 0.998559 0.986958
1.00515 0.997543 0.988019
1.00495 0.999247 0.98651
1.00517 0.998795 0.986688
1.00516 0.997778 0.98765
1.00377 0.999749 0.987892
1.00485 0.99944 0.986768
1.00516 0.998964 0.986567
1.00125 1.00016 0.992178
1.00365 0.999903 0.988079
1.00473 0.999444 0.986612
0.999721 1.00057 0.997906
1.00108 1.00071 0.991937
1.00346 1.00045 0.988051
1.00064 1.0014 0.991998
0.999639 1.00044 0.997917
0.999486 0.999806 0.998248
1.00512 0.997401 0.988184
1.00513 0.996678 0.98882
1.00514 0.996323 0.989067
1.00515 0.998389 0.987187
1.00512 0.997417 0.988186
1.00513 0.996487 0.989149
1.00511 0.997248 0.988341
1.00514 0.9984 0.987245
1.005 0.999246 0.986736
1.00517 0.998757 0.986737
1.00502 0.99946 0.986379
1.00408 0.999866 0.98731
1.00496 0.999626 0.986205
1.00399 1.00002 0.987513
1.00156 1.00013 0.991702
1.00389 1.00007 0.987665
1.00149 1.00013 0.991828
1.00002 0.999975 0.99785
1.0015 1.00003 0.991942
0.999925 0.999935 0.996752
0.999681 0.999872 0.995831
1.00513 0.997613 0.987976
1.00517 0.998441 0.987025
1.00514 0.997298 0.988307
1.00498 0.999285 0.986491
1.00517 0.998607 0.986876
1.00515 0.997625 0.98797
1.00393 0.999632 0.987726
1.00495 0.999329 0.986585
1.00518 0.998786 0.986738
1.00138 0.999902 0.992213
1.00378 0.999751 0.987866
1.00486 0.999453 0.986776
0.999822 1.0003 0.997955
1.00125 1.00015 0.992182
1.00365 0.999858 0.987962
0.999732 1.0005 0.997881
1.00106 1.00073 0.991935
0.999557 1.00036 0.997982
1.00515 0.998248 0.987353
1.00512 0.997438 0.988125
1.00513 0.996696 0.988819
1.00496 0.999117 0.986922
1.00515 0.998332 0.987267
1.00512 0.997361 0.988242
1.00515 0.998383 0.987251
1.005 0.99925 0.986734
1.00406 0.999746 0.987458
1.00501 0.999561 0.986402
1.00407 0.999909 0.987376
1.00163 1.00007 0.991633
1.004 1.00002 0.987517
1.00156 1.00012 0.991698
1.00006 1 0.997785
1.00149 1.00013 0.99182
1.00003 0.999987 0.997823
0.999997 0.999885 0.99545
1.00517 0.9984 0.987117
1.00513 0.99748 0.988069
1.00499 0.999224 0.98657
1.00517 0.998449 0.987021
1.00514 0.997275 0.988319
1.00399 0.999687 0.987848
1.00498 0.999288 0.986485
1.00518 0.998653 0.986794
1.00151 0.999845 0.992041
1.00393 0.999682 0.987805
1.00495 0.999416 0.98666
0.999972 1.00006 0.997918
1.00138 0.999894 0.992221
1.00379 0.999747 0.98784
0.999806 1.0003 0.997938
1.00125 1.00015 0.992184
0.999716 1.00047 0.997867
1.00494 0.999077 0.987003
1.00515 0.998293 0.987297
1.00512 0.997477 0.988067
1.00398 0.999673 0.987662
1.00496 0.99913 0.986923
1.00515 0.998271 0.987347
1.005 0.999254 0.986732
1.00407 0.999741 0.98743
1.00163 1.00003 0.991671
1.00407 0.999949 0.987442
1.00162 1.00007 0.991633
1.00012 1.00001 0.997739
1.00156 1.00012 0.991694
1.00008 1.00001 0.997771
1.00005 0.999997 0.9978
1.00498 0.999165 0.98667
1.00517 0.998265 0.987248
1.00513 0.997348 0.988162
1.00398 0.999697 0.987855
1.00498 0.999226 0.986563
1.00517 0.998457 0.987016
1.00157 0.999926 0.991875
1.00398 0.999695 0.987842
1.00497 0.999291 0.986479
1.00007 0.999944 0.997839
1.0015 0.999861 0.992046
1.00393 0.999724 0.987883
0.999924 1.00009 0.997938
1.00137 0.999901 0.992231
0.999813 1.0003 0.997912
1.00395 0.999722 0.987912
1.00494 0.999041 0.986927
1.00515 0.998335 0.987242
1.00158 0.999982 0.991814
1.004 0.99966 0.987637
1.00496 0.999143 0.986925
1.00408 0.999733 0.987402
1.00163 1.00002 0.991679
1.00014 1.00001 0.997708
1.00161 1.00007 0.991633
1.00013 1.00001 0.997722
1.00009 1.00002 0.997757
1.00396 0.999697 0.987898
1.00496 0.999086 0.986724
1.00516 0.998133 0.987379
1.00164 0.999998 0.992985
1.00399 0.999694 0.987852
1.00497 0.999229 0.986555
1.0001 0.999947 0.997775
1.00156 0.999946 0.991878
1.00398 0.999703 0.987837
1.00004 0.999978 0.997869
1.0015 0.999888 0.992051
0.999895 1.0001 0.997951
1.00159 0.999978 0.991833
1.00395 0.999678 0.987827
1.00494 0.999002 0.986851
1.0001 1 0.997735
1.00157 0.999983 0.991817
1.00401 0.99965 0.987612
1.00162 1.00001 0.991685
1.00013 1.00001 0.997713
1.00014 1.00002 0.997713
1.00168 0.999985 0.992963
1.00397 0.999692 0.987898
1.00495 0.999006 0.986778
0.999809 0.999985 0.998054
1.00157 1 0.991818
1.004 0.99969 0.987849
1.00009 0.999959 0.997803
1.00156 0.999967 0.991881
1.00001 0.999998 0.997899
1.00007 1 0.995312
1.00161 0.999976 0.992433
1.00395 0.999637 0.987741
1.0001 0.999999 0.997741
1.00157 0.999983 0.991825
1.00014 1.00001 0.997713
0.999769 1 0.995606
1.00162 0.999986 0.992409
1.00397 0.999689 0.987897
0.99994 0.999985 0.996673
1.00157 0.999999 0.991825
1.00008 0.999971 0.99783
1.00007 0.999994 0.997757
1.00154 0.999978 0.991896
1.00008 0.999998 0.997749
0.999921 0.999995 0.996688
1.00156 0.99999 0.991864
1.00009 0.999972 0.997783
1.00007 0.999989 0.997769
1.00007 0.999985 0.99777

TENSORS stress float
0.00160195 -7.41948e-05 0.000151915
-7.41948e-05 0.000575555 -1.88459e-05
0.000151915 -1.88459e-05 0.000554722
0.00490588 -0.000114813 0.00014384
-0.000114813 0.00250111 1.28266e-05
0.00014384 1.28266e-05 0.00248229
0.00145665 -2.01288e-07 7.41902e-05
-2.01288e-07 0.000503581 -6.80031e-06
7.41902e-05 -6.80031e-06 0.000472721
0.00174863 -4.61817e-05 0.000152103
-4.61817e-05 0.000638084 -1.23719e-05
0.000152103 -1.23719e-05 0.000619454
0.00166956 -6.71657e-05 0.000148391
-6.71657e-05 0.000607943 -1.72345e-05
0.000148391 -1.72345e-05 0.000588046
0.00148226 -6.74577e-05 0.0001528
-6.74577e-05 0.000503921 -1.81153e-05
0.0001528 -1.81153e-05 0.000484852
0.00142917 -4.11487e-05 1.95584e-05
-4.11487e-05 0.000410427 -8.12045e-06
1.95584e-05 -8.12045e-06 0.000335451
0.00471711 -0.000133062 7.06601e-06
-0.000133062 0.00238936 -1.0123e-06
7.06601e-06 -1.0123e-06 0.00237262
0.00510734 -1.15952e-05 5.33219e-05
-1.15952e-05 0.00257513 2.58653e-06
5.33219e-05 2.58653e-06 0.00256241
0.00482728 -0.000287411 -7.48912e-06
-0.000287411 0.00248728 5.16952e-06
-7.48912e-06 5.16952e-06 0.00243712
0.00157798 3.31938e-05 0.000136522
3.31938e-05 0.000561414 1.13556e-05
0.000136522 1.13556e-05 0.000550801
0.000727728 0.000142738 1.85061e-05
0.000142738 2.41314e-05 1.19762e-05
1.85061e-05 1.19762e-05 -5.24218e-05
0.00163017 -2.65727e-05 0.000165958
-2.65727e-05 0.000564023 1.94134e-06
0.000165958 1.94134e-06 0.000550192
0.00126654 -2.33716e-05 2.01118e-05
-2.33716e-05 0.000374596 1.30805e-06
2.01118e-05 1.30805e-06 0.000340201
0.00138493 1.93521e-05 -1.85322e-05
1.93521e-05 0.00046217 4.3274e-06
-1.85322e-05 4.3274e-06 0.000428647
0.00149839 -4.44282e-05 5.73906e-05
-4.44282e-05 0.000504248 -3.31569e-06
5.73906e-05 -3.31569e-06 0.000478779
0.00143249 1.97288e-05 8.00896e-05
1.97288e-05 0.000497364 -6.02607e-06
8.00896e-05 -6.02607e-06 0.000461828
0.00147006 -2.05791e-05 6.56687e-05
-2.05791e-05 0.000498555 -6.57699e-06
6.56687e-05 -6.57699e-06 0.000473141
0.00149161 -8.61556e-05 -2.79423e-05
-8.61556e-05 0.000433448 2.30684e-06
-2.79423e-05 2.30684e-06 0.000367578
0.00523251 -0.000104203 0.00018488
-0.000104203 0.00265113 -4.45648e-06
0.00018488 -4.45648e-06 0.00264913
0.00173184 -3.05199e-05 0.000155426
-3.05199e-05 0.000625224 -9.38054e-06
0.000155426 -9.38054e-06 0.000606751
0.00173586 -5.8771e-05 0.000149535
-5.8771e-05 0.000636685 -1.5012e-05
0.000149535 -1.5012e-05 0.00061785
0.00146266 -8.12818e-05 3.85654e-05
-8.12818e-05 0.000393266 -5.84163e-06
3.85654e-05 -5.84163e-06 0.000327904
0.00144473 -5.99518e-05 2.81008e-05
-5.99518e-05 0.000398639 -7.12026e-06
2.81008e-05 -7.12026e-06 0.000331867
0.00126548 -3.4411e-05 0.000133123
-3.4411e-05 0.000378091 -1.4488e-05
0.000133123 -1.4488e-05 0.000363143
0.00135604 -2.2092e-05 1.25084e-05
-2.2092e-05 0.000391191 -9.30742e-06
1.25084e-05 -9.30742e-06 0.000307191
0.00199857 -0.000192518 1.16724e-05
-0.000192518 0.000591737 -4.58107e-06
1.16724e-05 -4.58107e-06 0.00046806
0.00454157 -0.000178066 -0.000112274
-0.000178066 0.00229879 -7.98292e-06
-0.000112274 -7.98292e-06 0.00227538
0.00328981 2.57669e-05 -8.76191e-05
2.57669e-05 0.001538 -5.44441e-06
-8.76191e-05 -5.44441e-06 0.00151954
0.00312347 -8.83544e-05 -7.92491e-05
-8.83544e-05 0.00147498 -2.15889e-06
-7.92491e-05 -2.15889e-06 0.00144487
0.00425902 -0.000146187 8.23389e-06
-0.000146187 0.00212475 -7.05533e-07
8.23389e-06 -7.05533e-07 0.00211058
0.000630469 0.000128849 -9.1961e-07
0.000128849 -2.86522e-05 -4.71783e-07
-9.1961e-07 -4.71783e-07 -0.000103222
0.00153387 4.8725e-05 0.000155067
4.8725e-05 0.000519221 1.10836e-05
0.000155067 1.10836e-05 0.000501091
0.00172047 0.000107231 0.000157294
0.000107231 0.000640848 1.57702e-05
0.000157294 1.57702e-05 0.00062121
0.0025215 0.000151686 9.58152e-05
0.000151686 0.00100499 1.14815e-05
9.58152e-05 1.14815e-05 0.0009474
0.00338622 -0.000188402 1.06831e-05
-0.000188402 0.00163119 2.33425e-06
1.06831e-05 2.33425e-06 0.00160901
0.00256218 0.000166761 9.24254e-05
0.000166761 0.00105744 1.26171e-05
9.24254e-05 1.26171e-05 0.000996006
0.000689491 9.08799e-05 1.74782e-05
9.08799e-05 1.18042e-05 1.45051e-05
1.74782e-05 1.45051e-05 -5.40139e-05
0.000944673 0.000153041 7.84083e-06
0.000153041 7.95379e-05 4.17249e-06
7.84083e-06 4.17249e-06 -5.74983e-05
0.00281486 -0.000102382 7.15774e-05
-0.000102382 0.00128206 2.5728e-06
7.15774e-05 2.5728e-06 0.00128502
0.00528568 5.33688e-05 4.03485e-06
5.33688e-05 0.00267094 -1.03206e-06
4.03485e-06 -1.03206e-06 0.00267453
0.00329048 3.68294e-05 -7.10882e-05
3.68294e-05 0.00153028 -2.30544e-06
-7.10882e-05 -2.30544e-06 0.00151443
0.00523201 5.6338e-05 0.00018271
5.6338e-05 0.00264254 1.44931e-06
0.00018271 1.44931e-06 0.00264559
0.00130874 3.92215e-05 2.29017e-05
3.92215e-05 0.000396794 1.49787e-06
2.29017e-05 1.49787e-06 0.000364642
0.000715495 4.30638e-06 1.60906e-05
4.30638e-06 -6.28527e-05 1.7776e-06
1.60906e-05 1.7776e-06 -0.000129843
0.00500759 0.00016236 8.31515e-05
0.00016236 0.00253276 6.81181e-06
8.31515e-05 6.81181e-06 0.00251291
0.00259724 4.18841e-05 9.56733e-05
4.18841e-05 0.00101774 5.5467e-06
9.56733e-05 5.5467e-06 0.000969239
0.00118692 -7.47662e-05 -3.4881e-05
-7.47662e-05 0.0003416 4.67154e-06
-3.4881e-05 4.67154e-06 0.000305314
0.00128736 -3.27671e-05 -3.00379e-05
-3.27671e-05 0.000399717 4.49551e-06
-3.00379e-05 4.49551e-06 0.000368931
0.00145305 8.80899e-05 -5.09878e-06
8.80899e-05 0.000521139 5.74054e-06
-5.09878e-06 5.74054e-06 0.000475243
0.0015095 -0.000103065 -8.22348e-05
-0.000103065 0.000436277 1.18097e-05
-8.22348e-05 1.18097e-05 0.000375951
0.00333051 1.94794e-05 -7.65145e-05
1.94794e-05 0.0015594 -1.26153e-06
-7.65145e-05 -1.26153e-06 0.00154003
0.00149891 -3.6106e-05 6.47491e-05
-3.6106e-05 0.000501662 -2.6329e-06
6.47491e-05 -2.6329e-06 0.000475913
0.00127978 3.18073e-05 6.87772e-05
3.18073e-05 0.000408687 -4.75048e-06
6.87772e-05 -4.75048e-06 0.000378227
0.00149458 -3.59898e-05 5.99969e-05
-3.59898e-05 0.000503447 -5.17466e-06
5.99969e-05 -5.17466e-06 0.000479711
0.00150686 -7.55795e-05 -2.24647e-05
-7.55795e-05 0.000414405 7.77623e-07
-2.24647e-05 7.77623e-07 0.000353314
0.0014508 -6.87914e-05 -3.22442e-05
-6.87914e-05 0.000429867 1.63892e-06
-3.22442e-05 1.63892e-06 0.000357186
0.00150068 -8.91377e-05 -2.34186e-05
-8.91377e-05 0.000425834 1.72682e-06
-2.34186e-05 1.72682e-06 0.000363886
0.00199581 -0.000190691 -5.54752e-06
-0.000190691 0.000589012 1.52438e-06
-5.54752e-06 1.52438e-06 0.000465666
0.00519068 5.38819e-05 0.000175702
5.38819e-05 0.00262017 -9.66082e-08
0.000175702 -9.66082e-08 0.00262319
0.00172817 -1.45866e-05 0.00015804
-1.45866e-05 0.000622788 -6.35172e-06
0.00015804 -6.35172e-06 0.000604993
0.00237167 3.87775e-05 2.3438e-05
3.87775e-05 0.000902702 -1.06472e-06
2.3438e-05 -1.06472e-06 0.000845704
0.00146547 -6.95081e-05 3.25185e-05
-6.95081e-05 0.000388531 -4.29931e-06
3.25185e-05 -4.29931e-06 0.000323807
0.00146413 -7.40094e-05 3.49272e-05
-7.40094e-05 0.00039743 -6.42389e-06
3.49272e-05 -6.42389e-06 0.000333253
0.00195658 -0.000117649 1.06306e-05
-0.000117649 0.000517677 -2.47928e-06
1.06306e-05 -2.47928e-06 0.000408119
0.00158089 -0.000151343 1.36211e-05
-0.000151343 0.000329975 -4.7301e-06
1.36211e-05 -4.7301e-06 0.000211623
0.00109823 1.94471e-05 9.62877e-05
1.94471e-05 0.000285387 -1.05987e-05
9.62877e-05 -1.05987e-05 0.00027158
0.000978383 1.01483e-05 8.84104e-06
1.01483e-05 0.000206204 -8.34962e-06
8.84104e-06 -8.34962e-06 0.000132564
0.00191376 -0.000200934 1.03805e-05
-0.000200934 0.000579925 -4.91345e-06
1.03805e-05 -4.91345e-06 0.000447892
0.00125501 -0.000176523 7.30902e-06
-0.000176523 7.70294e-05 -1.84067e-06
7.30902e-06 -1.84067e-06 -7.30771e-05
0.00530291 7.52172e-05 -0.000184257
7.52172e-05 0.00268366 -1.25456e-05
-0.000184257 -1.25456e-05 0.00268443
0.00398313 -0.000161213 -9.80684e-05
-0.000161213 0.00196862 -4.62727e-06
-9.80684e-05 -4.62727e-06 0.00195377
0.00492956 -0.000116683 -0.00014043
-0.000116683 0.00250256 -9.06906e-06
-0.00014043 -9.06906e-06 0.00248957
0.000523975 0.000127321 -1.78343e-05
0.000127321 -8.76094e-05 -1.21921e-05
-1.78343e-05 -1.21921e-05 -0.000160353
0.00532516 0.000115876 -2.72371e-06
0.000115876 0.00269427 -1.50553e-06
-2.72371e-06 -1.50553e-06 0.00269404
0.00532018 1.99285e-08 -8.23093e-06
1.99285e-08 0.00270528 -3.28264e-07
-8.23093e-06 -3.28264e-07 0.0027006
0.000574016 0.000111842 -3.73431e-07
0.000111842 -0.000109268 -2.18828e-07
-3.73431e-07 -2.18828e-07 -0.000184095
0.00226962 -0.000106511 -4.27072e-05
-0.000106511 0.00097797 -3.53465e-07
-4.27072e-05 -3.53465e-07 0.000961303
0.000576422 0.0001514 -1.13829e-06
0.0001514 -7.61839e-05 -1.91627e-07
-1.13829e-06 -1.91627e-07 -0.000153569
0.00135685 6.89839e-05 2.78083e-05
6.89839e-05 0.000404546 3.55158e-07
2.78083e-05 3.55158e-07 0.000347222
0.000900729 0.000146239 4.60516e-07
0.000146239 5.20034e-05 -3.88034e-07
4.60516e-07 -3.88034e-07 -8.37686e-05
0.00323748 -0.000103602 9.42149e-05
-0.000103602 0.00152442 3.77862e-06
9.42149e-05 3.77862e-06 0.0015259
0.000607121 -6.21193e-05 2.38097e-07
-6.21193e-05 8.29593e-06 6.53627e-06
2.38097e-07 6.53627e-06 -2.71076e-05
0.000690013 8.10295e-05 1.70643e-05
8.10295e-05 -6.14225e-05 7.99748e-06
1.70643e-05 7.99748e-06 -0.000132629
0.000716245 0.000131534 2.14964e-05
0.000131534 -1.6424e-05 1.29995e-05
2.14964e-05 1.29995e-05 -9.51903e-05
0.00103063 0.000128652 1.21994e-05
0.000128652 1.60518e-07 4.79593e-06
1.21994e-05 4.79593e-06 -0.000127094
0.00203575 6.04968e-06 5.63677e-05
6.04968e-06 0.00080715 6.9727e-06
5.63677e-05 6.9727e-06 0.000766668
0.000973364 0.000152183 9.71645e-06
0.000152183 3.82997e-05 5.12e-06
9.71645e-06 5.12e-06 -9.5858e-05
0.000959331 0.000143745 6.66048e-06
0.000143745 0.000148836 4.67951e-06
6.66048e-06 4.67951e-06 1.48817e-05
0.000944998 0.000181895 3.72166e-06
0.000181895 2.39382e-05 4.95123e-07
3.72166e-06 4.95123e-07 -0.000146277
0.00251046 -0.000105122 4.23317e-05
-0.000105122 0.00110471 2.44855e-06
4.23317e-05 2.44855e-06 0.00110714
0.00268572 -0.000117419 5.43177e-06
-0.000117419 0.00121138 -3.53375e-07
5.43177e-06 -3.53375e-07 0.00121035
0.00531267 4.71407e-06 -0.000177298
4.71407e-06 0.0026836 -7.09243e-06
-0.000177298 -7.09243e-06 0.00268597
0.00530101 4.57462e-05 -0.000185276
4.57462e-05 0.00267848 -3.73263e-06
-0.000185276 -3.73263e-06 0.00268257
0.00527502 7.76714e-05 -1.34495e-07
7.76714e-05 0.00267326 -1.78967e-06
-1.34495e-07 -1.78967e-06 0.00267221
0.00329026 1.1364e-06 -8.60651e-05
1.1364e-06 0.00152856 -2.5295e-06
-8.60651e-05 -2.5295e-06 0.00151477
0.00164834 2.37202e-05 4.07539e-05
2.37202e-05 0.0004731 6.02544e-07
4.07539e-05 6.02544e-07 0.000415824
0.00332953 7.80783e-05 -7.20054e-05
7.80783e-05 0.00155353 -3.37636e-06
-7.20054e-05 -3.37636e-06 0.00153643
0.0016675 5.90781e-05 3.93229e-05
5.90781e-05 0.000489348 1.22685e-06
3.93229e-05 1.22685e-06 0.000429707
0.00524968 0.000142564 0.000186217
0.000142564 0.00266898 3.95968e-06
0.000186217 3.95968e-06 0.00266162
0.000646717 4.33771e-06 1.72472e-05
4.33771e-06 -9.99442e-05 3.91203e-07
1.72472e-05 3.91203e-07 -0.000165949
0.00262443 1.23025e-05 9.6672e-05
1.23025e-05 0.00103131 3.64933e-06
9.6672e-05 3.64933e-06 0.000984071
0.00108277 2.93542e-05 1.18451e-05
2.93542e-05 -7.35695e-06 1.28658e-06
1.18451e-05 1.28658e-06 -0.0001207
0.00251709 8.42631e-05 9.59698e-05
8.42631e-05 0.000980655 6.83727e-06
9.59698e-05 6.83727e-06 0.000929742
0.00109145 7.02005e-05 1.15911e-05
7.02005e-05 6.85093e-06 2.46704e-06
1.15911e-05 2.46704e-06 -0.000111313
0.00163617 3.30933e-05 -0.000163827
3.30933e-05 0.000569738 1.13714e-06
-0.000163827 1.13714e-06 0.000556038
0.00125104 6.38588e-06 -2.13854e-05
6.38588e-06 0.000368384 1.67599e-06
-2.13854e-05 1.67599e-06 0.000335694
0.00130142 0.00012848 2.57364e-06
0.00012848 0.000452542 6.69362e-06
2.57364e-06 6.69362e-06 0.000400136
0.00122162 -5.45402e-05 -3.63948e-05
-5.45402e-05 0.000358791 4.72482e-06
-3.63948e-05 4.72482e-06 0.000326792
0.00161058 -5.48405e-05 -8.21828e-05
-5.48405e-05 0.000466705 6.65973e-06
-8.21828e-05 6.65973e-06 0.000411661
0.00155227 -8.88437e-05 -8.08679e-05
-8.88437e-05 0.000449909 1.05795e-05
-8.08679e-05 1.05795e-05 0.000392651
0.00148232 -0.000104674 -8.28833e-05
-0.000104674 0.000436873 1.21792e-05
-8.28833e-05 1.21792e-05 0.000372672
0.00200098 -0.000189779 -2.21459e-05
-0.000189779 0.000591264 7.25877e-06
-2.21459e-05 7.25877e-06 0.000468138
0.00524875 -8.11644e-05 2.10822e-06
-8.11644e-05 0.00265913 -1.20502e-06
2.10822e-06 -1.20502e-06 0.00265769
0.0014846 4.51272e-05 7.37013e-05
4.51272e-05 0.000492547 -2.08161e-06
7.37013e-05 -2.08161e-06 0.000467379
0.0011289 2.91218e-06 -4.33553e-05
2.91218e-06 0.000180111 6.68339e-07
-4.33553e-05 6.68339e-07 0.000121364
0.00152699 -4.09811e-05 -2.66851e-05
-4.09811e-05 0.000418773 1.05168e-06
-2.66851e-05 1.05168e-06 0.000358899
0.00248335 6.44144e-05 9.82495e-05
6.44144e-05 0.00109555 -1.00052e-06
9.82495e-05 -1.00052e-06 0.00108522
0.00166378 -3.15093e-05 -2.61625e-05
-3.15093e-05 0.000585335 -8.0195e-07
-2.61625e-05 -8.0195e-07 0.00051738
0.00151203 -8.33417e-05 -2.16067e-05
-8.33417e-05 0.000422327 1.21438e-06
-2.16067e-05 1.21438e-06 0.000361778
0.00178966 -0.000109462 -7.5723e-06
-0.000109462 0.000420981 1.30139e-06
-7.5723e-06 1.30139e-06 0.000310372
0.00195587 -0.000204203 -4.53591e-06
-0.000204203 0.000604499 1.25862e-06
-4.53591e-06 1.25862e-06 0.000471532
0.00181184 -0.000160369 -2.99185e-06
-0.000160369 0.000461833 6.61319e-07
-2.99185e-06 6.61319e-07 0.000344209
0.00126142 -0.000176176 2.52674e-07
-0.000176176 8.12221e-05 6.55377e-08
2.52674e-07 6.55377e-08 -6.87255e-05
0.000682498 1.00558e-05 1.76203e-05
1.00558e-05 -7.96649e-05 -1.16616e-06
1.76203e-05 -1.16616e-06 -0.000143555
0.00145701 1.88864e-05 2.45321e-05
1.88864e-05 0.000378643 -2.497e-06
2.45321e-05 -2.497e-06 0.000315651
0.00160775 -2.50587e-05 1.21533e-05
-2.50587e-05 0.000297591 -1.0336e-06
1.21533e-05 -1.0336e-06 0.000192098
0.00159739 -8.5355e-05 1.19701e-05
-8.5355e-05 0.00030511 -2.19414e-06
1.19701e-05 -2.19414e-06 0.000194698
0.00155723 -0.000127534 1.30801e-05
-0.000127534 0.000298931 -3.71255e-06
1.30801e-05 -3.71255e-06 0.000184482
0.00174689 -0.000127191 3.03125e-06
-0.000127191 0.00030235 -6.95293e-07
3.03125e-06 -6.95293e-07 0.00016923
0.00353787 0.000137472 8.78825e-05
0.000137472 0.00170291 -2.9324e-06
8.78825e-05 -2.9324e-06 0.00169565
0.0013118 -0.000159536 6.499e-06
-0.000159536 9.00608e-05 -1.95613e-06
6.499e-06 -1.95613e-06 -5.40023e-05
0.000441446 -2.04568e-05 7.62633e-06
-2.04568e-05 -0.000105629 -9.6142e-06
7.62633e-06 -9.6142e-06 -0.000160639
0.000724233 -0.000135116 6.05943e-06
-0.000135116 -2.54092e-05 -5.61786e-06
6.05943e-06 -5.61786e-06 -0.000158273
0.00128692 -0.000199398 7.93129e-06
-0.000199398 0.000133011 -1.80328e-06
7.93129e-06 -1.80328e-06 -2.96222e-05
0.00141154 -0.000196694 4.34219e-06
-0.000196694 0.00010539 1.26453e-08
4.34219e-06 1.26453e-08 -5.42084e-05
0.000488142 2.20445e-05 3.86012e-06
2.20445e-05 -7.26568e-05 -8.13962e-06
3.86012e-06 -8.13962e-06 -0.00011615
0.000669327 -1.42877e-06 1.21318e-06
-1.42877e-06 2.19923e-05 -3.84351e-06
1.21318e-06 -3.84351e-06 -6.75688e-05
0.00533087 0.000125017 -0.000194648
0.000125017 0.00269977 -1.33551e-05
-0.000194648 -1.33551e-05 0.00269878
0.00515541 -1.80006e-05 -0.000164507
-1.80006e-05 0.0026106 -1.05658e-05
-0.000164507 -1.05658e-05 0.00260852
0.000573322 0.000103603 -1.69478e-05
0.000103603 -0.000110833 -9.126e-06
-1.69478e-05 -9.126e-06 -0.000185588
0.00344604 -0.000140519 -8.3267e-05
-0.000140519 0.00165352 -2.83847e-06
-8.3267e-05 -2.83847e-06 0.00164604
0.000466535 5.51751e-05 -1.00131e-05
5.51751e-05 -0.000102787 -1.09566e-05
-1.00131e-05 -1.09566e-05 -0.000162331
0.00051552 0.000139176 -1.85137e-05
0.000139176 -0.000106763 -1.17259e-05
-1.85137e-05 -1.17259e-05 -0.000184941
0.000872342 0.000141809 -7.99989e-06
0.000141809 3.3623e-05 -5.22372e-06
-7.99989e-06 -5.22372e-06 -0.00010123
0.00309444 -0.000118204 5.26218e-06
-0.000118204 0.00144673 -2.61666e-07
5.26218e-06 -2.61666e-07 0.00144527
0.000550853 -6.93241e-05 4.74473e-07
-6.93241e-05 -2.17026e-05 2.51934e-07
4.74473e-07 2.51934e-07 -5.7682e-05
0.00161416 0.000102106 3.87374e-05
0.000102106 0.00047078 2.02491e-06
3.87374e-05 2.02491e-06 0.000407503
0.00154849 0.000144117 3.68144e-05
0.000144117 0.000463321 1.63494e-06
3.68144e-05 1.63494e-06 0.000393755
0.00103919 0.000131068 1.44358e-07
0.000131068 5.90793e-06 -1.28764e-07
1.44358e-07 -1.28764e-07 -0.000121923
0.00062615 6.7465e-06 -5.87138e-07
6.7465e-06 3.5618e-07 1.27139e-07
-5.87138e-07 1.27139e-07 -4.81075e-05
0.00096957 0.000151708 5.33558e-07
0.000151708 3.67881e-05 1.9861e-07
5.33558e-07 1.9861e-07 -9.72913e-05
0.000848454 0.000130253 1.88454e-07
0.000130253 8.47104e-05 -3.31774e-07
1.88454e-07 -3.31774e-07 -4.68238e-05
0.000939076 0.000181865 1.12431e-07
0.000181865 1.86209e-05 -1.66887e-07
1.12431e-07 -1.66887e-07 -0.000151882
0.000631792 -2.46211e-05 5.27577e-06
-2.46211e-05 1.52676e-05 7.53104e-06
5.27577e-06 7.53104e-06 -2.60197e-05
0.000618119 -7.12172e-05 -1.94856e-06
-7.12172e-05 8.88241e-06 5.54188e-06
-1.94856e-06 5.54188e-06 -2.03713e-05
0.000692369 2.11609e-05 2.41089e-06
2.11609e-05 4.81062e-05 3.67195e-06
2.41089e-06 3.67195e-06 -3.59544e-05
0.00106702 0.000109063 1.1995e-05
0.000109063 6.26286e-06 4.04127e-06
1.1995e-05 4.04127e-06 -0.000117495
0.000997068 0.000144849 1.1477e-05
0.000144849 1.00257e-05 5.10124e-06
1.1477e-05 5.10124e-06 -0.00012125
0.00132798 0.000167363 6.60253e-06
0.000167363 8.35342e-05 1.66041e-06
6.60253e-06 1.66041e-06 -7.07282e-05
0.00091534 0.000116951 5.26727e-06
0.000116951 0.000158524 4.52988e-06
5.26727e-06 4.52988e-06 3.78266e-05
0.000941556 0.000175681 4.43453e-06
0.000175681 -5.53037e-05 1.78828e-06
4.43453e-06 1.78828e-06 -0.000217135
0.00102307 0.000184193 2.97654e-06
0.000184193 0.000150273 1.60132e-06
2.97654e-06 1.60132e-06 -2.47809e-05
0.00130644 0.000223526 -1.95917e-06
0.000223526 0.000195502 -4.65622e-07
-1.95917e-06 -4.65622e-07 1.3028e-05
0.00235035 -9.35549e-05 3.41068e-05
-9.35549e-05 0.00100544 2.84503e-06
3.41068e-05 2.84503e-06 0.00101089
0.00242876 -0.000104669 2.48605e-06
-0.000104669 0.00105818 -2.5461e-07
2.48605e-06 -2.5461e-07 0.00106051
0.00255996 -0.000117521 -4.05316e-05
-0.000117521 0.00114073 -2.39762e-06
-4.05316e-05 -2.39762e-06 0.00113932
0.000503872 3.36464e-05 2.72148e-06
3.36464e-05 -6.25543e-05 -7.13609e-06
2.72148e-06 -7.13609e-06 -0.000101211
0.00329582 0.000126768 7.52909e-05
0.000126768 0.00155911 -2.81565e-06
7.52909e-05 -2.81565e-06 0.00155501
0.00532899 0.000144382 -0.000196913
0.000144382 0.00270253 -1.25878e-05
-0.000196913 -1.25878e-05 0.00269921
0.00527562 3.71484e-05 -0.000180618
3.71484e-05 0.00266231 -5.39179e-06
-0.000180618 -5.39179e-06 0.00266647
0.000676008 6.88256e-05 -1.78925e-05
6.88256e-05 -7.69683e-05 -4.36977e-06
-1.78925e-05 -4.36977e-06 -0.000145705
0.000659662 2.92943e-05 -1.78862e-05
2.92943e-05 -8.98379e-05 -2.12786e-06
-1.78862e-05 -2.12786e-06 -0.000157573
0.005238 -3.18355e-05 -0.000177339
-3.18355e-05 0.00264401 -8.38431e-07
-0.000177339 -8.38431e-07 0.0026483
0.00521966 1.71126e-05 -6.22272e-07
1.71126e-05 0.00263473 1.50459e-07
-6.22272e-07 1.50459e-07 0.0026385
0.000641548 -1.03412e-06 -1.22459e-07
-1.03412e-06 -0.000103845 -1.86706e-07
-1.22459e-07 -1.86706e-07 -0.000169103
0.00163235 2.39442e-05 4.03246e-05
2.39442e-05 0.000465429 1.08565e-06
4.03246e-05 1.08565e-06 0.00040815
0.00108898 3.35611e-05 1.00377e-07
3.35611e-05 -3.6965e-06 -1.34707e-07
1.00377e-07 -1.34707e-07 -0.000117272
0.00064927 6.13672e-05 -2.2608e-07
6.13672e-05 -8.81457e-05 -2.0399e-07
-2.2608e-07 -2.0399e-07 -0.000157634
0.0010854 7.26919e-05 -4.88163e-08
7.26919e-05 3.77649e-06 -1.636e-07
-4.88163e-08 -1.636e-07 -0.000114817
0.000630816 -2.03999e-05 1.75885e-05
-2.03999e-05 -0.000110662 -5.42523e-07
1.75885e-05 -5.42523e-07 -0.000174533
0.0010834 1.28549e-05 1.16892e-05
1.28549e-05 -8.44144e-06 4.1299e-07
1.16892e-05 4.1299e-07 -0.000120405
0.00108172 5.03039e-05 1.17563e-05
5.03039e-05 -3.74377e-06 1.90391e-06
1.17563e-05 1.90391e-06 -0.000119209
0.00140548 4.37154e-05 3.93278e-06
4.37154e-05 6.35589e-05 3.54098e-07
3.93278e-06 3.54098e-07 -6.26715e-05
0.00108523 8.87639e-05 1.16358e-05
8.87639e-05 8.6651e-06 3.19594e-06
1.16358e-05 3.19594e-06 -0.000112184
0.00140075 9.10458e-05 4.06679e-06
9.10458e-05 7.98128e-05 5.98017e-07
4.06679e-06 5.98017e-07 -5.50447e-05
0.00521334 -4.53234e-05 -0.000184311
-4.53234e-05 0.00263344 -2.88306e-07
-0.000184311 -2.88306e-07 0.0026357
0.00127291 -0.000100076 -2.24542e-05
-0.000100076 0.000385037 2.48924e-06
-2.24542e-05 2.48924e-06 0.000349697
-0.000202715 -7.15599e-07 -1.33684e-05
-7.15599e-07 -0.000582464 2.08132e-06
-1.33684e-05 2.08132e-06 -0.000656415
0.00160296 -3.73122e-05 -8.33923e-05
-3.73122e-05 0.000458054 4.91285e-06
-8.33923e-05 4.91285e-06 0.00040274
0.00371256 0.000223515 -9.00157e-06
0.000223515 0.00183507 2.77431e-06
-9.00157e-06 2.77431e-06 0.00180172
0.00234362 -0.000110302 -7.43021e-05
-0.000110302 0.00095445 1.12665e-05
-7.43021e-05 1.12665e-05 0.000896707
0.00159389 -7.28978e-05 -8.12923e-05
-7.28978e-05 0.000463449 8.69728e-06
-8.12923e-05 8.69728e-06 0.000407991
0.00159753 -0.000100689 -2.3778e-05
-0.000100689 0.000309679 4.53338e-06
-2.3778e-05 4.53338e-06 0.000198182
0.00203171 -0.000168996 -2.08923e-05
-0.000168996 0.000587618 6.24727e-06
-2.08923e-05 6.24727e-06 0.000470839
0.00203763 -0.00020968 -1.96382e-05
-0.00020968 0.00065218 7.46886e-06
-1.96382e-05 7.46886e-06 0.000517935
0.00125857 -0.000175292 -6.32175e-06
-0.000175292 8.03646e-05 1.79278e-06
-6.32175e-06 1.79278e-06 -6.93932e-05
0.000635989 8.7045e-06 -3.31384e-08
8.7045e-06 -0.000105187 -9.8944e-08
-3.31384e-08 -9.8944e-08 -0.000169537
0.00155301 -5.05006e-05 -2.70533e-05
-5.05006e-05 0.000430704 2.89334e-07
-2.70533e-05 2.89334e-07 0.000371163
0.00117893 -2.14778e-05 -5.55006e-06
-2.14778e-05 5.25082e-05 2.55838e-07
-5.55006e-06 2.55838e-07 -5.69272e-05
0.00181683 -8.79582e-05 -3.93723e-06
-8.79582e-05 0.000428525 5.61365e-07
-3.93723e-06 5.61365e-07 0.000319777
0.00359818 0.000130192 -2.84003e-06
0.000130192 0.0017368 -4.50709e-07
-2.84003e-06 -4.50709e-07 0.00173073
0.00132292 -2.75595e-05 9.98269e-07
-2.75595e-05 0.000399172 5.7383e-07
9.98269e-07 5.7383e-07 0.000340051
0.00128885 -0.000165209 5.38038e-07
-0.000165209 0.00029831 -1.1048e-06
5.38038e-07 -1.1048e-06 0.000164811
0.00157876 -0.000126883 -4.2826e-06
-0.000126883 0.000311033 8.51476e-07
-4.2826e-06 8.51476e-07 0.00019663
0.00147891 -0.000118483 -2.62091e-06
-0.000118483 0.000147995 5.72875e-07
-2.62091e-06 5.72875e-07 1.40741e-05
0.00106554 -0.000184588 1.38537e-08
-0.000184588 7.47062e-06 9.73855e-08
1.38537e-08 9.73855e-08 -0.000154665
0.00154179 -0.000168556 2.12897e-07
-0.000168556 0.000220864 -1.58974e-07
2.12897e-07 -1.58974e-07 7.77488e-05
0.00141302 -0.000196751 4.89022e-07
-0.000196751 0.000107552 1.25927e-07
4.89022e-07 1.25927e-07 -5.17967e-05
0.000535775 1.66129e-05 -6.8296e-07
1.66129e-05 -4.67888e-05 1.02505e-07
-6.8296e-07 1.02505e-07 -9.03463e-05
0.000668049 -1.61686e-05 -4.12494e-07
-1.61686e-05 2.02578e-05 1.60024e-08
-4.12494e-07 1.60024e-08 -7.0362e-05
0.00107613 -1.04123e-05 1.15805e-05
-1.04123e-05 -9.87651e-06 -8.94153e-07
1.15805e-05 -8.94153e-07 -0.000120715
0.00161844 -5.03659e-05 1.17258e-05
-5.03659e-05 0.000307708 -1.55025e-06
1.17258e-05 -1.55025e-06 0.000200285
0.00173083 -3.49704e-05 2.74661e-06
-3.49704e-05 0.000261374 -1.27841e-07
2.74661e-06 -1.27841e-07 0.000140077
0.00128811 -9.08836e-05 4.99073e-06
-9.08836e-05 2.8568e-05 -6.68717e-07
4.99073e-06 -6.68717e-07 -0.000102554
0.00162091 -0.000152993 4.84092e-06
-0.000152993 0.000248205 -1.0793e-06
4.84092e-06 -1.0793e-06 0.000110461
0.00165735 -0.000138071 -3.33925e-07
-0.000138071 0.000171814 5.33598e-07
-3.33925e-07 5.33598e-07 3.90101e-05
0.000446469 -1.4784e-06 6.20202e-06
-1.4784e-06 -9.99281e-05 -8.79668e-06
6.20202e-06 -8.79668e-06 -0.000148122
0.00146712 -0.000180706 2.69468e-06
-0.000180706 0.000115034 -1.31656e-07
2.69468e-06 -1.31656e-07 -3.46027e-05
0.00062759 -0.000104244 3.86168e-06
-0.000104244 -2.2697e-05 -3.87724e-06
3.86168e-06 -3.87724e-06 -0.000144306
0.000875736 -0.000182121 7.1499e-06
-0.000182121 -1.56082e-05 -4.69936e-06
7.1499e-06 -4.69936e-06 -0.000190538
0.00182044 -0.000248953 3.8608e-06
-0.000248953 0.000374246 3.36123e-07
3.8608e-06 3.36123e-07 0.000196193
0.00172045 -0.000225849 -4.90529e-07
-0.000225849 0.000229728 2.75956e-06
-4.90529e-07 2.75956e-06 7.06916e-05
0.000740684 -5.42351e-05 2.70931e-06
-5.42351e-05 6.26431e-05 -3.44462e-06
2.70931e-06 -3.44462e-06 -4.0734e-05
0.000623704 3.76705e-06 1.22187e-06
3.76705e-06 -3.73021e-07 -3.38933e-06
1.22187e-06 -3.38933e-06 -8.04469e-05
0.000888682 -9.53574e-05 1.33359e-06
-9.53574e-05 0.000151511 -6.72517e-07
1.33359e-06 -6.72517e-07 2.11924e-05
0.000611298 8.24109e-05 -1.64454e-05
8.24109e-05 -0.000102066 -7.1067e-06
-1.64454e-05 -7.1067e-06 -0.000173635
0.00295165 -0.000133661 -5.52788e-05
-0.000133661 0.0013687 -2.13515e-06
-5.52788e-05 -2.13515e-06 0.00136334
0.000481262 -7.58106e-05 1.69442e-06
-7.58106e-05 -5.86153e-05 -6.06526e-06
1.69442e-06 -6.06526e-06 -9.57244e-05
0.000528776 0.000125466 -1.76922e-05
0.000125466 -0.000116713 -1.09625e-05
-1.76922e-05 -1.09625e-05 -0.000194553
0.00104782 0.000133805 -1.26048e-05
0.000133805 1.15573e-05 -5.0526e-06
-1.26048e-05 -5.0526e-06 -0.000116876
0.000446709 -1.82146e-06 -6.09228e-06
-1.82146e-06 -9.91177e-05 -9.02957e-06
-6.09228e-06 -9.02957e-06 -0.000147014
0.000714497 0.000115105 -4.968e-06
0.000115105 7.80781e-06 -5.03733e-06
-4.968e-06 -5.03733e-06 -0.000121134
0.000954676 0.000150368 -9.33229e-06
0.000150368 2.91135e-05 -4.86689e-06
-9.33229e-06 -4.86689e-06 -0.000104786
0.000874817 0.000177565 -4.8916e-06
0.000177565 -2.00991e-05 -1.95402e-06
-4.8916e-06 -1.95402e-06 -0.000190239
0.000542416 -3.54061e-05 1.32897e-06
-3.54061e-05 -3.3907e-05 3.17229e-07
1.32897e-06 3.17229e-07 -7.50489e-05
0.000574407 -6.94584e-05 -2.51578e-07
-6.94584e-05 -1.71673e-05 1.80563e-07
-2.51578e-07 1.80563e-07 -4.56458e-05
0.000641654 -1.66173e-05 4.39671e-07
-1.66173e-05 1.51153e-05 3.76465e-07
4.39671e-07 3.76465e-07 -6.32919e-05
0.00106631 0.000111199 4.8657e-08
0.000111199 6.9128e-06 -2.12975e-07
4.8657e-08 -2.12975e-07 -0.000117475
0.00100977 0.000146778 4.29512e-07
0.000146778 1.83961e-05 -2.48692e-07
4.29512e-07 -2.48692e-07 -0.000113243
0.00131357 0.000166528 1.44134e-07
0.000166528 7.78324e-05 1.53973e-08
1.44134e-07 1.53973e-08 -7.65074e-05
0.00079468 0.000103367 -1.25506e-07
0.000103367 9.16184e-05 1.73233e-07
-1.25506e-07 1.73233e-07 -2.71747e-05
0.00110781 0.000186916 -2.45622e-07
0.000186916 4.07188e-05 -1.8428e-07
-2.45622e-07 -1.8428e-07 -0.000122313
0.00108982 0.000187809 5.9481e-07
0.000187809 0.000189886 -6.44608e-07
5.9481e-07 -6.44608e-07 1.49859e-05
0.0012216 0.000220553 -5.02269e-07
0.000220553 0.000142243 1.19106e-06
-5.02269e-07 1.19106e-06 -3.98295e-05
0.00061641 -6.01772e-05 3.32273e-07
-6.01772e-05 -5.98405e-06 4.39881e-06
3.32273e-07 4.39881e-06 -2.82264e-05
0.000737344 6.39591e-05 3.5076e-06
6.39591e-05 6.65835e-05 3.37696e-06
3.5076e-06 3.37696e-06 -3.38172e-05
0.000666203 -2.96274e-05 5.228e-07
-2.96274e-05 2.27841e-05 3.02438e-06
5.228e-07 3.02438e-06 -3.83105e-05
0.000845599 6.43574e-05 5.97626e-07
6.43574e-05 0.000147091 1.17889e-06
5.97626e-07 1.17889e-06 2.49585e-05
0.00136258 0.000142624 6.12731e-06
0.000142624 7.9313e-05 1.24675e-06
6.12731e-06 1.24675e-06 -6.77657e-05
0.0013145 0.000187902 6.78706e-06
0.000187902 0.000110423 2.33039e-06
6.78706e-06 2.33039e-06 -4.96133e-05
0.00151553 0.000203355 2.10717e-06
0.000203355 0.000122701 3.00189e-07
2.10717e-06 3.00189e-07 -4.10716e-05
0.00105103 0.000156998 2.57215e-06
0.000156998 0.000217184 3.1021e-06
2.57215e-06 3.1021e-06 5.99301e-05
0.00118832 0.000210676 5.47367e-07
0.000210676 3.0388e-05 2.19134e-06
5.47367e-07 2.19134e-06 -0.000141528
0.000995159 0.000198775 -1.81101e-07
0.000198775 0.000112508 -7.58494e-07
-1.81101e-07 -7.58494e-07 -8.93286e-05
0.00146413 0.00024348 6.45289e-07
0.00024348 0.000216858 6.22068e-07
6.45289e-07 6.22068e-07 3.12963e-05
0.000681813 -1.65778e-05 1.70812e-06
-1.65778e-05 8.30024e-06 1.94818e-06
1.70812e-06 1.94818e-06 -3.38097e-05
0.000615033 -4.35249e-05 8.82724e-07
-4.35249e-05 -2.66991e-05 4.01158e-06
8.82724e-07 4.01158e-06 -4.17334e-05
0.0022612 -8.17876e-05 2.91013e-05
-8.17876e-05 0.000945353 3.26507e-06
2.91013e-05 3.26507e-06 0.000953867
0.00229485 -9.18576e-05 2.22054e-06
-9.18576e-05 0.000972819 -2.08776e-07
2.22054e-06 -2.08776e-07 0.000978644
0.00234616 -0.000102314 -3.55162e-05
-0.000102314 0.0010106 -2.66655e-06
-3.55162e-05 -2.66655e-06 0.00101339
0.000526169 3.78481e-05 1.95211e-06
3.78481e-05 -5.31022e-05 -6.17625e-06
1.95211e-06 -6.17625e-06 -8.61496e-05
0.00303999 0.000117664 6.10861e-05
0.000117664 0.00140879 -2.90512e-06
6.10861e-05 -2.90512e-06 0.001407
0.000551673 3.132e-05 -2.80302e-07
3.132e-05 -3.60973e-05 1.24041e-07
-2.80302e-07 1.24041e-07 -7.48663e-05
0.00335888 0.000119497 -2.41708e-06
0.000119497 0.00159369 -3.11053e-07
-2.41708e-06 -3.11053e-07 0.0015912
0.000667902 8.06122e-05 -1.76787e-05
8.06122e-05 -7.60146e-05 -5.66819e-06
-1.76787e-05 -5.66819e-06 -0.000146714
0.000666313 3.08169e-05 -1.73954e-05
3.08169e-05 -8.6076e-05 -3.1148e-06
-1.73954e-05 -3.1148e-06 -0.000153521
0.00108446 7.45884e-05 -1.14479e-05
7.45884e-05 3.43909e-06 -2.771e-06
-1.14479e-05 -2.771e-06 -0.000115495
0.00108899 3.5786e-05 -1.19256e-05
3.5786e-05 -3.54827e-06 -1.53946e-06
-1.19256e-05 -1.53946e-06 -0.000117261
0.000679152 -3.80137e-06 -1.78928e-05
-3.80137e-06 -8.51464e-05 -8.83546e-07
-1.78928e-05 -8.83546e-07 -0.000148939
0.00526504 -9.64284e-05 -0.00019227
-9.64284e-05 0.00266777 2.53236e-06
-0.00019227 2.53236e-06 0.00266728
0.000662589 -8.16004e-07 1.32944e-07
-8.16004e-07 -9.36917e-05 -2.92574e-07
1.32944e-07 -2.92574e-07 -0.000157254
0.00108889 1.74412e-05 -1.68842e-08
1.74412e-05 -5.19482e-06 -1.84266e-07
-1.68842e-08 -1.84266e-07 -0.000117265
0.00108704 5.18563e-05 -1.44109e-08
5.18563e-05 -4.08583e-07 -1.2285e-07
-1.44109e-08 -1.2285e-07 -0.00011611
0.0013932 4.30048e-05 -5.25566e-08
4.30048e-05 5.79072e-05 -9.53705e-09
-5.25566e-08 -9.53705e-09 -6.84006e-05
0.00107645 9.13351e-05 -3.89675e-08
9.13351e-05 4.6599e-06 -1.86248e-07
-3.89675e-08 -1.86248e-07 -0.000116866
0.00138535 9.2832e-05 -4.07336e-08
9.2832e-05 7.1143e-05 -7.42786e-08
-4.07336e-08 -7.42786e-08 -6.4186e-05
0.00108919 -2.71273e-07 1.163e-05
-2.71273e-07 -3.56133e-06 -1.63619e-07
1.163e-05 -1.63619e-07 -0.000114646
0.00140506 2.51366e-05 3.77763e-06
2.51366e-05 6.02292e-05 7.96195e-08
3.77763e-06 7.96195e-08 -6.35641e-05
0.00140799 6.86317e-05 4.07166e-06
6.86317e-05 7.44167e-05 4.44349e-07
4.07166e-06 4.44349e-07 -5.57496e-05
0.00163123 6.20262e-05 -5.31905e-07
6.20262e-05 8.49883e-05 -2.36281e-07
-5.31905e-07 -2.36281e-07 -3.13448e-05
0.00139735 0.000117465 4.4413e-06
0.000117465 8.47439e-05 8.5734e-07
4.4413e-06 8.5734e-07 -5.58636e-05
0.00158998 0.000113836 -2.85027e-07
0.000113836 9.16233e-05 -7.45411e-07
-2.85027e-07 -7.45411e-07 -3.77043e-05
0.000646114 7.2582e-06 -1.69998e-05
7.2582e-06 -9.90037e-05 7.99998e-07
-1.69998e-05 7.99998e-07 -0.000164049
0.00161637 -1.70992e-05 -8.4308e-05
-1.70992e-05 0.000461973 3.22235e-06
-8.4308e-05 3.22235e-06 0.000407247
0.000732396 -1.65608e-05 -1.30099e-05
-1.65608e-05 -0.000202542 1.56364e-06
-1.30099e-05 1.56364e-06 -0.000316013
0.00202992 -8.94018e-05 -2.0957e-05
-8.94018e-05 0.000548064 3.24324e-06
-2.0957e-05 3.24324e-06 0.000441128
0.00367258 0.000115697 -0.000106086
0.000115697 0.00177731 4.28997e-06
-0.000106086 4.28997e-06 0.00177362
0.00222752 -4.97996e-05 -6.24115e-05
-4.97996e-05 0.000909391 8.19197e-06
-6.24115e-05 8.19197e-06 0.000859187
0.0019586 -0.000205039 -1.44782e-05
-0.000205039 0.000679315 6.30639e-06
-1.44782e-05 6.30639e-06 0.000543941
0.00158302 -0.000125362 -2.12353e-05
-0.000125362 0.00031306 5.17359e-06
-2.12353e-05 5.17359e-06 0.000198921
0.0012085 -0.000109568 -6.74703e-06
-0.000109568 -7.7609e-06 1.39991e-06
-6.74703e-06 1.39991e-06 -0.000142456
0.00177932 -0.000178068 -7.50161e-06
-0.000178068 0.000355831 1.93794e-06
-7.50161e-06 1.93794e-06 0.000213615
0.000812778 -0.00016741 -6.85307e-06
-0.00016741 -0.000136135 1.22399e-06
-6.85307e-06 1.22399e-06 -0.000297389
0.00143445 -0.0001982 -2.74829e-06
-0.0001982 0.000120313 -2.6521e-08
-2.74829e-06 -2.6521e-08 -3.89395e-05
0.000595464 7.96999e-06 -6.06228e-06
7.96999e-06 -1.34917e-05 7.91899e-06
-6.06228e-06 7.91899e-06 -5.75216e-05
0.000690951 -3.29211e-05 -2.59722e-06
-3.29211e-05 3.35788e-05 3.18839e-06
-2.59722e-06 3.18839e-06 -5.90797e-05
0.00090884 -6.05977e-06 -4.08509e-07
-6.05977e-06 -0.000104813 -1.42505e-07
-4.08509e-07 -1.42505e-07 -0.000216792
0.00162508 -5.14492e-05 -4.58604e-06
-5.14492e-05 0.000310513 4.55317e-07
-4.58604e-06 4.55317e-07 0.000203091
0.00171438 -3.15066e-05 -2.38718e-06
-3.15066e-05 0.000248902 2.74824e-07
-2.38718e-06 2.74824e-07 0.000128568
0.00152233 -9.50327e-05 6.07754e-07
-9.50327e-05 0.00016155 -1.09733e-07
6.07754e-07 -1.09733e-07 3.14477e-05
0.000554721 -1.17693e-05 1.33602e-07
-1.17693e-05 -4.09509e-05 2.13362e-07
1.33602e-07 2.13362e-07 -8.965e-05
0.000838406 -0.00012564 -7.40784e-08
-0.00012564 9.49317e-05 3.8906e-07
-7.40784e-08 3.8906e-07 -2.98407e-05
0.000917799 -0.000184533 1.70554e-06
-0.000184533 1.18127e-05 -1.78308e-06
1.70554e-06 -1.78308e-06 -0.000162413
0.00169623 -0.000153934 -1.86599e-06
-0.000153934 0.000289863 4.56015e-07
-1.86599e-06 4.56015e-07 0.00015215
0.00163716 -0.000136906 -2.46322e-07
-0.000136906 0.000155348 2.63093e-07
-2.46322e-07 2.63093e-07 2.46037e-05
0.00165458 -0.000238512 -1.98214e-06
-0.000238512 0.000276467 2.82821e-07
-1.98214e-06 2.82821e-07 9.83613e-05
0.00144848 -0.000180087 2.53249e-07
-0.000180087 0.000103329 -1.07608e-07
2.53249e-07 -1.07608e-07 -4.60848e-05
0.00167713 -0.000224802 6.36771e-07
-0.000224802 0.000202131 4.64146e-07
6.36771e-07 4.64146e-07 4.30882e-05
0.000730703 -6.18843e-05 -2.52163e-07
-6.18843e-05 5.67226e-05 -1.80014e-07
-2.52163e-07 -1.80014e-07 -4.74921e-05
0.000707833 -6.15766e-05 -6.26043e-07
-6.15766e-05 4.24497e-05 -5.18814e-07
-6.26043e-07 -5.18814e-07 -8.01776e-05
0.000667797 -5.62063e-06 2.54561e-07
-5.62063e-06 2.29472e-05 2.08675e-07
2.54561e-07 2.08675e-07 -5.73161e-05
0.00172331 -1.1196e-05 2.40644e-06
-1.1196e-05 0.000248983 -8.37854e-08
2.40644e-06 -8.37854e-08 0.000128944
0.00168143 -6.10891e-05 2.9719e-06
-6.10891e-05 0.0002348 1.02205e-08
2.9719e-06 1.02205e-08 0.000111423
0.00165277 -4.43777e-05 -6.91079e-07
-4.43777e-05 0.000110629 7.13183e-07
-6.91079e-07 7.13183e-07 -4.65429e-06
0.00157299 -0.000111615 -1.04886e-06
-0.000111615 9.76678e-05 7.83831e-07
-1.04886e-06 7.83831e-07 -2.899e-05
0.0014637 -0.000160725 1.45228e-06
-0.000160725 8.51891e-05 8.83456e-07
1.45228e-06 8.83456e-07 -5.39784e-05
0.00168411 -0.000155381 -2.33159e-06
-0.000155381 0.000111103 1.46284e-06
-2.33159e-06 1.46284e-06 -3.86984e-06
0.00070064 -8.58835e-05 3.52103e-06
-8.58835e-05 3.79793e-05 -2.78006e-06
3.52103e-06 -2.78006e-06 -7.43496e-05
0.00156649 -0.000209456 -1.09426e-06
-0.000209456 0.000105521 1.80855e-06
-1.09426e-06 1.80855e-06 -3.84553e-05
0.000955556 -0.000174094 1.79973e-06
-0.000174094 0.000128626 -3.11088e-06
1.79973e-06 -3.11088e-06 -3.39286e-05
0.0012866 -0.000236796 5.09887e-06
-0.000236796 0.000141017 -4.1555e-06
5.09887e-06 -4.1555e-06 -6.27562e-05
0.00187971 -0.000264024 1.34989e-06
-0.000264024 0.000357557 2.78534e-06
1.34989e-06 2.78534e-06 0.000171843
0.00187983 -0.000257307 -3.63765e-06
-0.000257307 0.000263986 3.90839e-06
-3.63765e-06 3.90839e-06 0.000112726
0.000631665 -3.41492e-06 1.33745e-06
-3.41492e-06 1.19895e-06 -2.96637e-06
1.33745e-06 -2.96637e-06 -6.91713e-05
0.000797673 -0.00010806 2.12314e-06
-0.00010806 8.00637e-05 6.6106e-07
2.12314e-06 6.6106e-07 -4.70521e-05
0.000607283 -4.01388e-05 1.29395e-06
-4.01388e-05 3.65456e-06 -2.0613e-06
1.29395e-06 -2.0613e-06 -0.000117124
0.00113673 -0.000163635 -8.20746e-08
-0.000163635 0.000287486 2.02816e-06
-8.20746e-08 2.02816e-06 0.000141394
0.00105558 0.000113179 -1.24422e-05
0.000113179 1.94133e-06 -4.41315e-06
-1.24422e-05 -4.41315e-06 -0.000123072
0.000535922 -6.38167e-05 -4.79418e-07
-6.38167e-05 -4.15042e-05 -4.65624e-06
-4.79418e-07 -4.65624e-06 -6.83628e-05
0.000466814 -5.32553e-05 6.26493e-07
-5.32553e-05 -7.22229e-05 -7.79985e-06
6.26493e-07 -7.79985e-06 -0.000114764
0.000631134 -4.82091e-05 1.28784e-06
-4.82091e-05 1.32148e-05 -3.70827e-06
1.28784e-06 -3.70827e-06 -6.56277e-05
0.00102416 0.000149066 -1.09848e-05
0.000149066 2.78641e-05 -5.58498e-06
-1.09848e-05 -5.58498e-06 -0.000104233
0.00128871 0.000165171 -6.35528e-06
0.000165171 6.60408e-05 -1.64959e-06
-6.35528e-06 -1.64959e-06 -8.83713e-05
0.000678684 8.79617e-05 -3.31369e-06
8.79617e-05 2.73512e-05 -3.49507e-06
-3.31369e-06 -3.49507e-06 -8.92486e-05
0.0011333 0.000189748 -4.09869e-06
0.000189748 0.00021601 -3.81486e-06
-4.09869e-06 -3.81486e-06 4.09363e-05
0.00133926 0.000202391 -5.14008e-06
0.000202391 0.000173403 -1.79282e-06
-5.14008e-06 -1.79282e-06 8.71312e-06
0.00115426 0.000218525 -2.47057e-06
0.000218525 9.96916e-05 -7.80087e-07
-2.47057e-06 -7.80087e-07 -8.21964e-05
0.000591593 -5.68631e-05 -4.48614e-08
-5.68631e-05 -2.15463e-05 6.20795e-08
-4.48614e-08 6.20795e-08 -4.29983e-05
0.000736585 5.52175e-05 4.28185e-07
5.52175e-05 7.11477e-05 -1.77092e-07
4.28185e-07 -1.77092e-07 -3.11846e-05
0.000636843 -4.54086e-05 -7.42198e-07
-4.54086e-05 9.49905e-06 6.00424e-07
-7.42198e-07 6.00424e-07 -5.27738e-05
0.000790803 3.73255e-05 8.18733e-07
3.73255e-05 0.00011451 -4.10188e-07
8.18733e-07 -4.10188e-07 -3.98738e-06
0.0013469 0.000141933 7.07638e-07
0.000141933 7.29027e-05 -1.98603e-08
7.07638e-07 -1.98603e-08 -7.43292e-05
0.00127926 0.000186971 2.39305e-07
0.000186971 9.26896e-05 6.10589e-08
2.39305e-07 6.10589e-08 -6.76286e-05
0.00153746 0.000204184 2.80074e-07
0.000204184 0.00013557 1.78763e-07
2.80074e-07 1.78763e-07 -2.84228e-05
0.000978714 0.000153386 5.04823e-07
0.000153386 0.000178417 5.85332e-07
5.04823e-07 5.85332e-07 2.2395e-05
0.00151309 0.000230442 -9.86116e-07
0.000230442 0.000217953 -8.21242e-07
-9.86116e-07 -8.21242e-07 4.42375e-05
0.0011377 0.000212239 1.63094e-07
0.000212239 0.00019296 -1.4661e-06
1.63094e-07 -1.4661e-06 -1.23585e-05
0.00128578 0.000230753 -2.37094e-06
0.000230753 0.000122867 -5.64409e-07
-2.37094e-06 -5.64409e-07 -5.63041e-05
0.00060975 -5.08386e-05 9.83583e-07
-5.08386e-05 -2.14673e-05 4.0786e-06
9.83583e-07 4.0786e-06 -3.92627e-05
0.000687459 -3.15679e-05 1.15138e-06
-3.15679e-05 2.72034e-05 2.28456e-06
1.15138e-06 2.28456e-06 -2.36485e-05
0.00096337 0.000107114 2.12016e-06
0.000107114 0.000193597 1.66471e-06
2.12016e-06 1.66471e-06 5.73312e-05
0.000802494 3.89147e-05 -3.65925e-07
3.89147e-05 0.000123065 2.13102e-06
-3.65925e-07 2.13102e-06 2.13132e-05
0.000881164 0.000116053 2.61099e-07
0.000116053 0.000177909 -3.9553e-07
2.61099e-07 -3.9553e-07 3.50467e-05
0.00156453 0.000174014 1.7753e-06
0.000174014 0.00012142 -6.92345e-07
1.7753e-06 -6.92345e-07 -2.97603e-05
0.00135989 0.000213564 1.94596e-06
0.000213564 7.36101e-05 1.79121e-06
1.94596e-06 1.79121e-06 -9.66436e-05
0.00171214 0.000241051 -3.79318e-07
0.000241051 0.000185614 -4.4786e-07
-3.79318e-07 -4.4786e-07 2.46099e-05
0.00114141 0.000198126 4.00729e-06
0.000198126 0.000263784 4.53423e-06
4.00729e-06 4.53423e-06 6.6121e-05
0.00152695 0.000252843 2.87621e-06
0.000252843 0.000181425 2.65719e-06
2.87621e-06 2.65719e-06 2.36888e-06
0.000524953 0.000182536 3.39568e-06
0.000182536 -0.000237802 -1.98861e-06
3.39568e-06 -1.98861e-06 -0.000443738
0.000676652 -1.988e-05 2.13657e-06
-1.988e-05 8.12337e-06 1.91395e-06
2.13657e-06 1.91395e-06 -3.51899e-05
0.000721584 2.68057e-05 3.34627e-07
2.68057e-05 5.43615e-05 8.29646e-07
3.34627e-07 8.29646e-07 -1.48708e-05
0.000699587 -6.86439e-06 1.40385e-06
-6.86439e-06 1.70692e-05 1.97449e-06
1.40385e-06 1.97449e-06 -2.44267e-05
0.000682027 -2.60459e-05 -2.4481e-07
-2.60459e-05 9.76531e-06 3.8758e-09
-2.4481e-07 3.8758e-09 -3.30439e-05
0.00126087 -4.91629e-05 1.17764e-06
-4.91629e-05 0.000340636 2.39345e-06
1.17764e-06 2.39345e-06 0.000331009
0.000947999 -4.93058e-05 7.31919e-07
-4.93058e-05 0.000165887 -5.7541e-08
7.31919e-07 -5.7541e-08 0.000152548
0.000920179 -4.37256e-05 2.42067e-05
-4.37256e-05 0.000159214 6.82496e-06
2.42067e-05 6.82496e-06 0.000164353
0.00223019 -8.03126e-05 2.21061e-06
-8.03126e-05 0.000926417 -1.89589e-07
2.21061e-06 -1.89589e-07 0.000935308
0.0022453 -8.98656e-05 -3.18743e-05
-8.98656e-05 0.000943394 -3.04859e-06
-3.18743e-05 -3.04859e-06 0.0009497
0.000539919 4.76286e-05 1.8801e-07
4.76286e-05 -4.91756e-05 -5.43682e-06
1.8801e-07 -5.43682e-06 -7.82201e-05
0.00281067 0.00010839 4.70963e-05
0.00010839 0.00127251 -3.13381e-06
4.70963e-05 -3.13381e-06 0.00127308
0.000567016 3.63504e-05 -2.53944e-07
3.63504e-05 -3.00274e-05 1.2571e-07
-2.53944e-07 1.2571e-07 -6.32703e-05
0.00311991 0.000112482 -3.3562e-06
0.000112482 0.00145298 -2.674e-07
-3.3562e-06 -2.674e-07 0.00145253
0.00059589 2.81619e-05 -3.23432e-06
2.81619e-05 -1.1772e-05 7.28502e-06
-3.23432e-06 7.28502e-06 -5.06755e-05
0.00342689 0.000110974 -9.31829e-05
0.000110974 0.00163089 3.67514e-06
-9.31829e-05 3.67514e-06 0.0016301
0.00107997 9.41772e-05 -1.18425e-05
9.41772e-05 7.17977e-06 -3.51312e-06
-1.18425e-05 -3.51312e-06 -0.000114955
0.0010948 5.59234e-05 -1.16722e-05
5.59234e-05 4.44164e-06 -2.11642e-06
-1.16722e-05 -2.11642e-06 -0.000111659
0.00136374 9.10828e-05 -4.39523e-06
9.10828e-05 5.89584e-05 -7.74818e-07
-4.39523e-06 -7.74818e-07 -7.65423e-05
0.00138041 4.24906e-05 -4.1504e-06
4.24906e-05 5.20463e-05 -3.39899e-07
-4.1504e-06 -3.39899e-07 -7.43461e-05
0.00109349 2.07672e-05 -1.18682e-05
2.07672e-05 -2.42856e-06 -8.33939e-07
-1.18682e-05 -8.33939e-07 -0.000114624
0.000641875 1.92431e-05 -1.756e-05
1.92431e-05 -0.000104682 -5.17613e-08
-1.756e-05 -5.17613e-08 -0.000168482
0.00108563 2.0061e-06 1.43235e-08
2.0061e-06 -5.62353e-06 -4.25501e-08
1.43235e-08 -4.25501e-08 -0.000116746
0.00139343 2.67404e-05 -9.44978e-08
2.67404e-05 5.41099e-05 -6.08046e-08
-9.44978e-08 -6.08046e-08 -6.97886e-05
0.00138559 6.56841e-05 5.83113e-10
6.56841e-05 6.34661e-05 -4.26859e-08
5.83113e-10 -4.26859e-08 -6.6701e-05
0.00167334 6.3122e-05 -6.9184e-08
6.3122e-05 0.000105467 1.73989e-07
-6.9184e-08 1.73989e-07 -9.20104e-06
0.00137595 0.000116983 -1.78079e-07
0.000116983 7.34917e-05 -7.1932e-08
-1.78079e-07 -7.1932e-08 -6.73234e-05
0.00160027 0.000112448 -1.58363e-07
0.000112448 0.000102089 3.90311e-08
-1.58363e-07 3.90311e-08 -2.72555e-05
0.00139578 6.70309e-06 3.95881e-06
6.70309e-06 5.68463e-05 5.62573e-08
3.95881e-06 5.62573e-08 -6.5739e-05
0.00169033 3.89591e-05 -1.16086e-06
3.89591e-05 0.000106113 9.76311e-08
-1.16086e-06 9.76311e-08 -4.48189e-06
0.00160859 9.33459e-05 -4.81805e-07
9.33459e-05 8.38178e-05 -5.44276e-07
-4.81805e-07 -5.44276e-07 -3.83373e-05
0.00175746 7.28878e-05 -1.26582e-06
7.28878e-05 8.97479e-05 1.18091e-07
-1.26582e-06 1.18091e-07 -8.89523e-06
0.00158444 0.000136605 1.14825e-08
0.000136605 0.000111671 -8.16183e-07
1.14825e-08 -8.16183e-07 -2.6661e-05
0.00168963 0.000135515 -2.98188e-06
0.000135515 8.26341e-05 -1.02438e-06
-2.98188e-06 -1.02438e-06 -2.49867e-05
0.000738533 -3.31378e-06 -1.14602e-05
-3.31378e-06 -0.000201242 4.95211e-07
-1.14602e-05 4.95211e-07 -0.000314415
0.0016524 -5.40077e-05 -2.0709e-05
-5.40077e-05 0.000324961 2.4059e-06
-2.0709e-05 2.4059e-06 0.000217528
0.0017013 -2.51369e-05 -7.22387e-06
-2.51369e-05 0.000238446 4.27677e-07
-7.22387e-06 4.27677e-07 0.000119221
0.00175558 -9.94258e-05 -5.23604e-06
-9.94258e-05 0.000294024 8.42972e-07
-5.23604e-06 8.42972e-07 0.000164924
0.000669739 -2.30852e-05 -8.4477e-06
-2.30852e-05 2.33977e-05 8.8667e-06
-8.4477e-06 8.8667e-06 -2.70104e-05
0.000921969 -0.000139672 -5.93982e-06
-0.000139672 0.000143268 5.35157e-06
-5.93982e-06 5.35157e-06 1.60522e-05
0.00102946 -0.000192326 -3.43594e-06
-0.000192326 7.89251e-05 1.14311e-06
-3.43594e-06 1.14311e-06 -9.54238e-05
0.00176839 -0.000154667 -8.13288e-06
-0.000154667 0.00032979 2.03927e-06
-8.13288e-06 2.03927e-06 0.00019213
0.00161154 -0.000135464 -6.76033e-07
-0.000135464 0.000135734 -4.73845e-07
-6.76033e-07 -4.73845e-07 7.07429e-06
0.00142907 -0.0001794 -2.11901e-06
-0.0001794 9.12184e-05 -1.65515e-07
-2.11901e-06 -1.65515e-07 -5.79639e-05
0.001467 -0.000226389 -5.75302e-06
-0.000226389 0.000166559 -1.94244e-07
-5.75302e-06 -1.94244e-07 -1.13072e-05
0.00161975 -0.000222729 2.05602e-06
-0.000222729 0.000166603 -2.31912e-06
2.05602e-06 -2.31912e-06 7.69556e-06
0.000714765 -6.66288e-05 -3.76218e-06
-6.66288e-05 4.52462e-05 2.94863e-06
-3.76218e-06 2.94863e-06 -5.84166e-05
0.000615158 -5.38231e-05 -2.39618e-06
-5.38231e-05 -8.67391e-06 -2.93214e-07
-2.39618e-06 -2.93214e-07 -0.000130696
0.000698467 -1.25312e-05 -1.38591e-06
-1.25312e-05 3.92064e-05 3.42859e-06
-1.38591e-06 3.42859e-06 -4.15761e-05
0.00156611 -9.40011e-06 -2.38177e-06
-9.40011e-06 0.000157909 1.16345e-07
-2.38177e-06 1.16345e-07 3.66379e-05
0.00168662 -6.74187e-05 -2.01103e-06
-6.74187e-05 0.000237825 3.58042e-07
-2.01103e-06 3.58042e-07 0.000113965
0.00163744 -4.09363e-05 1.78442e-08
-4.09363e-05 0.000100715 2.39594e-07
1.78442e-08 2.39594e-07 -1.20879e-05
0.00161946 -0.000109701 -1.03397e-06
-0.000109701 0.00012033 2.39129e-07
-1.03397e-06 2.39129e-07 -6.17451e-06
0.00076858 -9.88635e-05 2.34766e-07
-9.88635e-05 7.59966e-05 5.61693e-08
2.34766e-07 5.61693e-08 -3.79123e-05
0.0010461 -0.000182031 -7.60174e-07
-0.000182031 0.000175861 6.1779e-07
-7.60174e-07 6.1779e-07 1.21972e-05
0.00110383 -0.000220271 4.15508e-07
-0.000220271 4.85535e-05 -1.24703e-06
4.15508e-07 -1.24703e-06 -0.000150527
0.00154284 -0.000164213 -2.86487e-07
-0.000164213 0.000130184 2.28242e-07
-2.86487e-07 2.28242e-07 -1.06254e-05
0.00171935 -0.000155679 1.08073e-06
-0.000155679 0.000133309 1.97469e-07
1.08073e-06 1.97469e-07 2.19074e-05
0.00171343 -0.00025526 -9.91077e-07
-0.00025526 0.000260946 5.31863e-07
-9.91077e-07 5.31863e-07 7.39134e-05
0.00158639 -0.000209341 2.37417e-07
-0.000209341 0.000117196 1.96154e-07
2.37417e-07 1.96154e-07 -2.62841e-05
0.00191487 -0.000258131 1.06509e-06
-0.000258131 0.000286173 -5.4438e-07
1.06509e-06 -5.4438e-07 0.000137071
0.000919271 -0.000124263 8.56588e-08
-0.000124263 0.000152435 2.13739e-07
8.56588e-08 2.13739e-07 2.17474e-05
0.00103497 -0.000159841 -4.07443e-07
-0.000159841 0.000232155 3.88486e-07
-4.07443e-07 3.88486e-07 8.48168e-05
0.000672083 -9.74437e-06 1.63199e-07
-9.74437e-06 2.37756e-05 1.91025e-07
1.63199e-07 1.91025e-07 -4.71249e-05
0.000528141 -1.44311e-05 -1.50484e-07
-1.44311e-05 -4.60356e-05 -8.5519e-07
-1.50484e-07 -8.5519e-07 -0.000160554
0.00164404 -2.39115e-05 -3.27762e-07
-2.39115e-05 9.66729e-05 1.42893e-07
-3.27762e-07 1.42893e-07 -1.61036e-05
0.00183701 -7.48371e-05 -2.86625e-07
-7.48371e-05 0.000221542 8.66836e-07
-2.86625e-07 8.66836e-07 0.000104452
0.00164607 -5.80024e-05 4.48161e-07
-5.80024e-05 3.14855e-05 1.3983e-07
4.48161e-07 1.3983e-07 -7.00642e-05
0.00173664 -0.000137117 -3.84014e-06
-0.000137117 0.000108584 9.24997e-07
-3.84014e-06 9.24997e-07 8.37205e-06
0.00169986 -0.000186425 -3.07234e-06
-0.000186425 0.000145965 2.60761e-06
-3.07234e-06 2.60761e-06 2.04265e-05
0.00178087 -0.000157711 2.66832e-07
-0.000157711 0.000130618 1.37711e-07
2.66832e-07 1.37711e-07 3.5129e-05
0.000830993 -0.000152743 1.53875e-06
-0.000152743 8.98587e-05 -6.21172e-07
1.53875e-06 -6.21172e-07 -5.12252e-05
0.00162547 -0.000229879 -4.71519e-06
-0.000229879 8.84233e-05 3.13059e-06
-4.71519e-06 3.13059e-06 -3.71256e-05
0.000286872 -0.000146011 -3.55931e-07
-0.000146011 -0.000283436 -5.15026e-06
-3.55931e-07 -5.15026e-06 -0.000466278
0.00212174 -0.000314487 3.74712e-06
-0.000314487 0.000561238 -1.3982e-06
3.74712e-06 -1.3982e-06 0.00033934
0.00170187 -0.000269771 -1.08939e-06
-0.000269771 0.000205346 5.45809e-06
-1.08939e-06 5.45809e-06 1.88744e-05
0.00192417 -0.000259519 -1.651e-06
-0.000259519 0.000265156 1.58764e-06
-1.651e-06 1.58764e-06 0.000121445
0.00063938 -1.19033e-05 1.70674e-06
-1.19033e-05 3.39655e-06 -2.8127e-06
1.70674e-06 -2.8127e-06 -6.02069e-05
0.000536802 -1.81611e-05 4.80985e-08
-1.81611e-05 -2.7998e-05 -2.29281e-06
4.80985e-08 -2.29281e-06 -0.000139674
0.000887039 -0.000166681 5.7263e-07
-0.000166681 0.000131566 2.17128e-06
5.7263e-07 2.17128e-06 -1.55282e-05
0.000867682 -0.000119717 1.78208e-06
-0.000119717 0.000159818 3.60835e-07
1.78208e-06 3.60835e-07 1.7673e-05
0.00113519 -0.000189001 -9.18717e-07
-0.000189001 0.000280804 4.01268e-06
-9.18717e-07 4.01268e-06 0.000130098
0.000573411 -5.45214e-05 -1.2428e-06
-5.45214e-05 -3.28258e-05 -4.1524e-06
-1.2428e-06 -4.1524e-06 -5.37334e-05
0.00133511 0.000141356 -4.67524e-06
0.000141356 6.90039e-05 -1.28222e-06
-4.67524e-06 -1.28222e-06 -7.83784e-05
0.000592198 -6.22362e-05 -2.81917e-08
-6.22362e-05 -1.12633e-05 -2.41011e-06
-2.81917e-08 -2.41011e-06 -7.56336e-05
0.000720026 3.57768e-05 -8.39938e-07
3.57768e-05 5.86677e-05 -3.67807e-06
-8.39938e-07 -3.67807e-06 -3.97072e-05
0.000720753 9.23782e-06 1.64064e-06
9.23782e-06 7.21127e-05 -1.64374e-06
1.64064e-06 -1.64374e-06 -4.19411e-05
0.00121558 0.000184145 -6.18911e-06
0.000184145 5.91149e-05 -2.22855e-06
-6.18911e-06 -2.22855e-06 -0.000101294
0.00155348 0.000204553 -1.01864e-06
0.000204553 0.00014591 1.36094e-07
-1.01864e-06 1.36094e-07 -1.82397e-05
0.00101987 0.000166056 -2.07399e-06
0.000166056 0.000205834 -2.21414e-06
-2.07399e-06 -2.21414e-06 4.81116e-05
0.00135462 0.000232174 -2.96972e-06
0.000232174 0.000313666 -2.81531e-06
-2.96972e-06 -2.81531e-06 0.00010416
0.00184495 0.000250484 -4.06074e-06
0.000250484 0.000409257 -2.20116e-06
-4.06074e-06 -2.20116e-06 0.000233799
0.00112274 0.000219446 -6.11757e-06
0.000219446 3.75378e-05 -6.93048e-07
-6.11757e-06 -6.93048e-07 -0.000135508
0.000602071 -4.92052e-05 6.10845e-08
-4.92052e-05 -2.64028e-05 1.35206e-09
6.10845e-08 1.35206e-09 -4.39045e-05
0.00066182 -3.99959e-05 -6.01796e-07
-3.99959e-05 1.43163e-05 2.25534e-07
-6.01796e-07 2.25534e-07 -3.72679e-05
0.000918173 0.000108385 5.65809e-07
0.000108385 0.00016697 2.07896e-07
5.65809e-07 2.07896e-07 3.1605e-05
0.000722264 -8.28146e-06 -4.37253e-07
-8.28146e-06 7.47398e-05 3.16825e-07
-4.37253e-07 3.16825e-07 -2.25072e-05
0.000730487 7.94809e-05 1.0299e-06
7.94809e-05 8.66505e-05 -4.26765e-07
1.0299e-06 -4.26765e-07 -5.09212e-05
0.00156304 0.000175272 5.90862e-07
0.000175272 0.000118264 -3.5143e-07
5.90862e-07 -3.5143e-07 -3.34558e-05
0.00146399 0.000219468 6.9861e-07
0.000219468 0.000134857 7.40315e-07
6.9861e-07 7.40315e-07 -3.60726e-05
0.0016528 0.000239678 1.4301e-06
0.000239678 0.00015211 2.68774e-07
1.4301e-06 2.68774e-07 -9.53818e-06
0.00108785 0.000193099 1.3185e-06
0.000193099 0.0002392 1.33663e-06
1.3185e-06 1.33663e-06 4.13675e-05
0.00162774 0.000259237 1.37072e-06
0.000259237 0.000240436 -4.52611e-07
1.37072e-06 -4.52611e-07 6.12368e-05
0.000943689 0.000214382 -2.61387e-06
0.000214382 -8.58801e-06 -9.57715e-07
-2.61387e-06 -9.57715e-07 -0.000217186
0.000694213 -2.6066e-05 1.99639e-06
-2.6066e-05 2.29162e-05 1.95663e-06
1.99639e-06 1.95663e-06 -2.28542e-05
0.000780416 2.55473e-05 3.93288e-07
2.55473e-05 9.7437e-05 1.70568e-06
3.93288e-07 1.70568e-06 1.57907e-05
0.00105315 0.000178082 -8.59379e-07
0.000178082 0.000245823 -4.7193e-07
-8.59379e-07 -4.7193e-07 7.96529e-05
0.000850528 3.63031e-05 -2.12662e-07
3.63031e-05 0.000156632 9.56221e-07
-2.12662e-07 9.56221e-07 3.89706e-05
0.00119888 9.33468e-05 -3.26722e-06
9.33468e-05 0.000334766 -3.73139e-06
-3.26722e-06 -3.73139e-06 0.000191306
0.00163783 0.000185281 -2.75429e-06
0.000185281 0.000113858 -2.70527e-06
-2.75429e-06 -2.70527e-06 -2.49634e-05
0.00164408 0.000263031 1.44081e-06
0.000263031 0.000190442 6.4843e-07
1.44081e-06 6.4843e-07 1.47311e-05
0.00150193 0.000258617 5.72513e-07
0.000258617 3.30329e-05 -1.16907e-06
5.72513e-07 -1.16907e-06 -0.000120603
0.00104419 0.000200567 -8.97342e-07
0.000200567 0.000194644 2.54311e-06
-8.97342e-07 2.54311e-06 -3.32286e-05
0.00144916 0.00026856 5.43623e-06
0.00026856 0.000154818 -4.65052e-07
5.43623e-06 -4.65052e-07 -4.37631e-05
0.000677925 -2.78956e-05 -1.46534e-07
-2.78956e-05 9.84433e-06 -7.01646e-10
-1.46534e-07 -7.01646e-10 -3.3994e-05
0.000609028 5.65524e-06 1.39548e-06
5.65524e-06 -1.75571e-05 1.22193e-06
1.39548e-06 1.22193e-06 -8.3844e-05
0.000626338 -1.06253e-05 -5.78416e-07
-1.06253e-05 -3.00692e-06 -6.64098e-08
-5.78416e-07 -6.64098e-08 -7.02808e-05
0.000919244 5.78781e-05 8.08334e-07
5.78781e-05 0.000177058 -3.30519e-07
8.08334e-07 -3.30519e-07 9.45126e-05
0.000729337 4.31827e-05 1.68105e-06
4.31827e-05 5.81782e-05 1.0213e-06
1.68105e-06 1.0213e-06 -1.00036e-05
0.00068658 5.89032e-06 1.37423e-06
5.89032e-06 1.09071e-05 1.96774e-06
1.37423e-06 1.96774e-06 -3.09062e-05
0.000688424 -1.89153e-05 -4.2703e-07
-1.89153e-05 1.19331e-05 1.81414e-08
-4.2703e-07 1.81414e-08 -3.01228e-05
0.00125848 -3.88609e-05 7.9349e-07
-3.88609e-05 0.000333519 2.36032e-06
7.9349e-07 2.36032e-06 0.000325665
0.000684392 -3.36025e-05 -1.01212e-06
-3.36025e-05 1.20931e-05 -1.97668e-06
-1.01212e-06 -1.97668e-06 -3.11801e-05
0.00128745 -4.61899e-05 -4.93485e-06
-4.61899e-05 0.000355418 -1.30358e-06
-4.93485e-06 -1.30358e-06 0.000346227
0.000898627 -3.5764e-05 2.20646e-05
-3.5764e-05 0.000138027 7.02776e-06
2.20646e-05 7.02776e-06 0.000145693
0.00129059 -5.26852e-05 -9.73016e-06
-5.26852e-05 0.000364279 -3.52842e-06
-9.73016e-06 -3.52842e-06 0.000353061
0.00153656 -5.63666e-05 2.01902e-05
-5.63666e-05 0.000516366 1.95045e-06
2.01902e-05 1.95045e-06 0.000524705
0.00220299 -7.87828e-05 -2.83175e-05
-7.87828e-05 0.000909627 -3.45925e-06
-2.83175e-05 -3.45925e-06 0.000918908
0.000557032 4.72027e-05 3.76962e-07
4.72027e-05 -4.66368e-05 -4.80533e-06
3.76962e-07 -4.80533e-06 -7.09747e-05
0.000569084 4.16178e-05 -9.0284e-08
4.16178e-05 -3.36111e-05 1.30116e-07
-9.0284e-08 1.30116e-07 -6.20619e-05
0.00263533 9.64077e-05 3.81131e-05
9.64077e-05 0.00116587 -3.4543e-06
3.81131e-05 -3.4543e-06 0.0011694
0.00289245 0.000105756 -4.83744e-06
0.000105756 0.00131847 -2.85767e-07
-4.83744e-06 -2.85767e-07 0.00131981
0.000610319 3.45605e-05 -2.43256e-06
3.45605e-05 -5.62413e-06 6.39882e-06
-2.43256e-06 6.39882e-06 -3.90769e-05
0.00319118 0.000104368 -8.05368e-05
0.000104368 0.00149199 3.4398e-06
-8.05368e-05 3.4398e-06 0.0014934
0.00135395 0.000116629 -4.80827e-06
0.000116629 6.1771e-05 -1.01401e-06
-4.80827e-06 -1.01401e-06 -7.9275e-05
0.0013661 6.58951e-05 -4.30747e-06
6.58951e-05 5.42434e-05 -5.17449e-07
-4.30747e-06 -5.17449e-07 -7.62012e-05
0.00160508 0.000112115 -7.16664e-09
0.000112115 0.000109556 8.13063e-07
-7.16664e-09 8.13063e-07 -1.99252e-05
0.00171582 6.4217e-05 4.60682e-07
6.4217e-05 0.000126104 4.52328e-07
4.60682e-07 4.52328e-07 1.31137e-05
0.00138421 2.97708e-05 -3.7813e-06
2.97708e-05 4.92065e-05 -1.73178e-07
-3.7813e-06 -1.73178e-07 -7.48364e-05
0.0010917 6.75603e-06 -1.15809e-05
6.75603e-06 -2.49822e-06 -2.10085e-08
-1.15809e-05 -2.10085e-08 -0.000113589
0.00139316 1.01713e-05 6.62512e-08
1.01713e-05 5.53851e-05 5.37111e-08
6.62512e-08 5.37111e-08 -6.72934e-05
0.00169593 2.87459e-05 -8.72245e-07
2.87459e-05 0.000109876 -8.92525e-09
-8.72245e-07 -8.92525e-09 -4.15507e-07
0.0016287 9.22668e-05 -1.10093e-07
9.22668e-05 9.66715e-05 5.8057e-08
-1.10093e-07 5.8057e-08 -2.53211e-05
0.00180222 7.50622e-05 1.26914e-06
7.50622e-05 0.000114024 9.14627e-07
1.26914e-06 9.14627e-07 1.85414e-05
0.0015755 0.000137576 -2.0436e-07
0.000137576 0.000105175 -6.41957e-08
-2.0436e-07 -6.41957e-08 -3.3723e-05
0.00169712 0.000132928 -2.68166e-07
0.000132928 8.4103e-05 8.40646e-07
-2.68166e-07 8.40646e-07 -2.1009e-05
0.00166947 -3.403e-08 -2.59962e-07
-3.403e-08 0.000103445 2.57861e-07
-2.59962e-07 2.57861e-07 -6.67177e-06
0.00171287 4.42643e-05 2.80926e-08
4.42643e-05 6.02449e-05 9.58043e-07
2.80926e-08 9.58043e-07 -3.60116e-05
0.00180052 0.000108995 -3.68884e-06
0.000108995 0.000123487 -7.15796e-07
-3.68884e-06 -7.15796e-07 2.71889e-05
0.00180246 8.15164e-05 9.36911e-07
8.15164e-05 0.000101211 2.8614e-07
9.36911e-07 2.8614e-07 2.06996e-05
0.00160605 0.000141352 -1.84508e-06
0.000141352 6.33399e-05 -2.38659e-06
-1.84508e-06 -2.38659e-06 -5.52163e-05
0.00190834 0.000146131 1.10442e-06
0.000146131 0.000165754 4.48207e-08
1.10442e-06 4.48207e-08 7.71847e-05
0.00140428 -8.01088e-06 -5.8339e-06
-8.01088e-06 6.4059e-05 1.45645e-07
-5.8339e-06 1.45645e-07 -5.84509e-05
0.00169802 -7.06988e-05 -7.08746e-06
-7.06988e-05 0.000244266 7.16605e-07
-7.08746e-06 7.16605e-07 0.000120091
0.00161873 -3.90034e-05 1.79929e-07
-3.90034e-05 8.88063e-05 -6.16786e-07
1.79929e-07 -6.16786e-07 -2.16021e-05
0.00166179 -0.000108177 -9.12786e-07
-0.000108177 0.00014056 -1.72967e-07
-9.12786e-07 -1.72967e-07 1.41678e-05
0.00087105 -0.000114586 -4.67398e-06
-0.000114586 0.000133668 3.67288e-06
-4.67398e-06 3.67288e-06 1.78442e-05
0.00112874 -0.000189302 -3.01233e-06
-0.000189302 0.000218783 4.17252e-06
-3.01233e-06 4.17252e-06 5.40751e-05
0.00082564 -0.000195919 -3.22102e-06
-0.000195919 -9.80267e-05 6.97287e-07
-3.22102e-06 6.97287e-07 -0.000292173
0.00162495 -0.00016785 -1.85722e-06
-0.00016785 0.000176747 7.13531e-08
-1.85722e-06 7.13531e-08 3.42747e-05
0.00175436 -0.000155842 3.48742e-06
-0.000155842 0.000155342 -1.7414e-06
3.48742e-06 -1.7414e-06 4.75357e-05
0.00160982 -0.000209329 1.75236e-06
-0.000209329 0.000131308 -1.36336e-06
1.75236e-06 -1.36336e-06 -1.16689e-05
0.00161198 -0.0002514 -1.66332e-06
-0.0002514 0.000201556 -1.25861e-06
-1.66332e-06 -1.25861e-06 1.23582e-05
0.00195204 -0.000258446 5.3197e-06
-0.000258446 0.000309885 -6.02939e-06
5.3197e-06 -6.02939e-06 0.000163047
0.000938679 -0.000123863 -1.59378e-06
-0.000123863 0.000164462 -8.73636e-08
-1.59378e-06 -8.73636e-08 3.38667e-05
0.000826666 -0.000121292 -1.83107e-06
-0.000121292 0.000106702 -1.41335e-06
-1.83107e-06 -1.41335e-06 -3.24642e-05
0.000712775 -1.34007e-05 -1.57367e-06
-1.34007e-05 4.5978e-05 3.14223e-06
-1.57367e-06 3.14223e-06 -2.51448e-05
0.000489867 3.80685e-06 -2.64273e-07
3.80685e-06 -6.91947e-05 4.49105e-07
-2.64273e-07 4.49105e-07 -0.000180337
0.0016422 -2.36687e-05 -8.07276e-09
-2.36687e-05 9.57303e-05 1.38255e-08
-8.07276e-09 1.38255e-08 -1.71268e-05
0.00175039 -7.36723e-05 -3.44662e-07
-7.36723e-05 0.000171736 -9.13145e-08
-3.44662e-07 -9.13145e-08 5.30255e-05
0.00169916 -5.75791e-05 9.21426e-07
-5.75791e-05 6.36965e-05 -1.77546e-07
9.21426e-07 -1.77546e-07 -3.61003e-05
0.00168386 -0.000134893 -1.11094e-06
-0.000134893 8.57018e-05 4.64088e-07
-1.11094e-06 4.64088e-07 -1.64771e-05
0.000956092 -0.000152257 -3.58244e-07
-0.000152257 0.000159005 8.45567e-07
-3.58244e-07 8.45567e-07 1.82474e-05
0.000621083 -0.000168902 1.08406e-06
-0.000168902 -9.10432e-05 -1.78604e-06
1.08406e-06 -1.78604e-06 -0.000274156
0.00166761 -0.00028229 -3.19715e-07
-0.00028229 0.000302059 5.27084e-07
-3.19715e-07 5.27084e-07 8.25109e-05
0.001635 -0.0001836 -1.25784e-06
-0.0001836 0.000114101 6.02621e-07
-1.25784e-06 6.02621e-07 -1.43234e-05
0.00170866 -0.000158271 1.93186e-06
-0.000158271 8.59663e-05 -9.75613e-07
1.93186e-06 -9.75613e-07 -6.8514e-06
0.00170318 -0.000271223 -9.05696e-07
-0.000271223 0.000207901 1.21116e-06
-9.05696e-07 1.21116e-06 2.03711e-05
0.00165742 -0.000230685 -3.04757e-07
-0.000230685 0.000109342 8.37435e-07
-3.04757e-07 8.37435e-07 -1.6239e-05
0.00179948 -0.000253763 2.90035e-06
-0.000253763 0.000186495 -4.11405e-06
2.90035e-06 -4.11405e-06 4.59093e-05
0.00100612 -0.000176709 2.97183e-07
-0.000176709 0.000197912 6.61877e-07
2.97183e-07 6.61877e-07 4.92982e-05
0.00108841 -0.0001776 1.40492e-06
-0.0001776 0.000250213 6.2201e-07
1.40492e-06 6.2201e-07 0.000103641
0.000827163 -8.88267e-05 -4.0969e-07
-8.88267e-05 0.000131916 1.85815e-07
-4.0969e-07 1.85815e-07 -6.89134e-06
0.000534055 5.44491e-06 -8.06509e-07
5.44491e-06 -5.66514e-05 1.55538e-07
-8.06509e-07 1.55538e-07 -0.000121724
0.000520133 1.0367e-05 -1.35206e-07
1.0367e-05 -4.11305e-05 -6.64027e-07
-1.35206e-07 -6.64027e-07 -0.000148443
0.00178522 -3.67655e-05 4.95129e-07
-3.67655e-05 0.000102426 -3.04572e-07
4.95129e-07 -3.04572e-07 5.73869e-06
0.00177859 -8.16976e-05 4.51582e-07
-8.16976e-05 0.000105097 1.73264e-07
4.51582e-07 1.73264e-07 1.1983e-05
0.00184591 -0.000157345 -1.97338e-06
-0.000157345 0.0001391 -5.10201e-07
-1.97338e-06 -5.10201e-07 5.69864e-05
0.00155629 -0.00018353 -1.7965e-06
-0.00018353 1.77561e-05 1.04502e-06
-1.7965e-06 1.04502e-06 -8.31075e-05
0.000914011 -0.000175763 -7.48378e-07
-0.000175763 0.000133927 -5.26914e-07
-7.48378e-07 -5.26914e-07 -2.67277e-05
0.0020896 -0.000267867 -4.34526e-06
-0.000267867 0.000304991 1.82642e-06
-4.34526e-06 1.82642e-06 0.000185707
-0.000114482 -0.000130826 -8.24555e-07
-0.000130826 -0.00053607 -5.84068e-06
-8.24555e-07 -5.84068e-06 -0.000729328
0.00198411 -0.000324675 2.85043e-06
-0.000324675 0.000433703 9.9992e-07
2.85043e-06 9.9992e-07 0.000203469
0.00159489 -0.0002738 3.33675e-07
-0.0002738 0.000105077 3.81738e-06
3.33675e-07 3.81738e-06 -7.61954e-05
0.000350551 1.56373e-05 1.03787e-06
1.56373e-05 -0.000161978 -3.59262e-06
1.03787e-06 -3.59262e-06 -0.000221614
0.000803903 -2.10841e-05 1.17371e-06
-2.10841e-05 0.000125541 -1.37847e-06
1.17371e-06 -1.37847e-06 2.5491e-05
0.000918257 -5.66041e-05 -3.47631e-07
-5.66041e-05 0.000187501 -7.21938e-07
-3.47631e-07 -7.21938e-07 6.3101e-05
0.00103911 -0.000184726 -2.50349e-06
-0.000184726 0.000204407 2.91028e-06
-2.50349e-06 2.91028e-06 5.61373e-05
0.000821551 -0.000114132 2.55431e-06
-0.000114132 0.000119414 2.68998e-06
2.55431e-06 2.68998e-06 -2.91508e-05
0.000695138 -0.000161051 2.70381e-07
-0.000161051 2.36215e-06 1.88519e-06
2.70381e-07 1.88519e-06 -0.000141676
0.000596463 -4.79561e-05 -1.23708e-06
-4.79561e-05 -2.99302e-05 -4.05175e-06
-1.23708e-06 -4.05175e-06 -4.72277e-05
0.00063791 -4.27895e-05 -1.7693e-06
-4.27895e-05 1.0575e-06 -1.85786e-06
-1.7693e-06 -1.85786e-06 -5.04962e-05
0.00156586 0.00017684 -8.22127e-07
0.00017684 0.00011705 -7.36268e-08
-8.22127e-07 -7.36268e-08 -3.52413e-05
0.000655571 -6.5288e-05 1.29717e-06
-6.5288e-05 3.60788e-05 -1.68818e-06
1.29717e-06 -1.68818e-06 -5.79365e-05
0.000825439 0.000100683 -7.1121e-07
0.000100683 0.000112508 -8.0759e-07
-7.1121e-07 -8.0759e-07 -1.94687e-05
0.000598841 4.65519e-05 1.71711e-06
4.65519e-05 6.03496e-06 -2.62435e-07
1.71711e-06 -2.62435e-07 -0.000126185
0.00155365 0.000224715 -1.98148e-06
0.000224715 0.000187584 -6.95845e-07
-1.98148e-06 -6.95845e-07 1.5964e-05
0.00159917 0.000238393 1.29635e-06
0.000238393 0.000122284 6.84967e-07
1.29635e-06 6.84967e-07 -3.99776e-05
0.00100077 0.000185332 -5.16865e-08
0.000185332 0.000197231 -9.38666e-07
-5.16865e-08 -9.38666e-07 -1.06587e-06
0.00131659 0.000242325 -1.8195e-06
0.000242325 0.000194669 -1.13719e-06
-1.8195e-06 -1.13719e-06 -1.4286e-05
0.00174424 0.000267048 -4.17191e-06
0.000267048 0.000308066 -1.88154e-06
-4.17191e-06 -1.88154e-06 0.00012855
0.000676679 -2.69878e-05 -2.30958e-07
-2.69878e-05 1.33962e-05 5.62232e-08
-2.30958e-07 5.62232e-08 -3.24584e-05
0.000724241 -1.80865e-05 -8.37572e-07
-1.80865e-05 6.39426e-05 3.8066e-07
-8.37572e-07 3.8066e-07 -1.52966e-05
0.00101197 0.000174182 -8.77925e-07
0.000174182 0.000224326 -3.26606e-07
-8.77925e-07 -3.26606e-07 5.85089e-05
0.000797561 -1.0469e-06 1.76538e-07
-1.0469e-06 0.000123022 1.27781e-07
1.76538e-07 1.27781e-07 1.04236e-05
0.000939927 0.000107202 3.40729e-07
0.000107202 0.000198725 2.08155e-07
3.40729e-07 2.08155e-07 5.01383e-05
0.00164887 0.000188434 -1.71541e-06
0.000188434 0.000119893 -1.26466e-06
-1.71541e-06 -1.26466e-06 -2.00131e-05
0.00161524 0.000260355 1.33086e-06
0.000260355 0.000172682 4.64192e-07
1.33086e-06 4.64192e-07 -3.04449e-06
0.00160876 0.000260831 5.61865e-07
0.000260831 9.39237e-05 4.85207e-08
5.61865e-07 4.85207e-08 -5.87448e-05
0.000697942 0.000176068 4.32348e-07
0.000176068 -5.29364e-06 3.60037e-06
4.32348e-07 3.60037e-06 -0.000228759
0.00167569 0.000286022 -1.43609e-06
0.000286022 0.000286797 -6.94821e-07
-1.43609e-06 -6.94821e-07 8.39498e-05
0.000774142 1.98926e-05 1.00448e-06
1.98926e-05 8.3182e-05 1.19164e-06
1.00448e-06 1.19164e-06 1.21914e-05
0.000553624 -2.43545e-05 -9.39056e-07
-2.43545e-05 -2.5094e-05 2.14519e-06
-9.39056e-07 2.14519e-06 -0.000119921
0.000948194 0.000176883 -2.91593e-06
0.000176883 0.000173952 -1.15878e-06
-2.91593e-06 -1.15878e-06 -8.10213e-06
0.000794124 5.65829e-05 -2.52434e-06
5.65829e-05 0.000135342 -1.64707e-06
-2.52434e-06 -1.64707e-06 -5.63758e-06
0.00093382 0.000163755 -1.21134e-06
0.000163755 0.000173765 -1.68782e-06
-1.21134e-06 -1.68782e-06 1.70386e-05
0.00159838 0.000204003 -1.21746e-06
0.000204003 1.67473e-05 -2.57756e-06
-1.21746e-06 -2.57756e-06 -9.64031e-05
0.00183127 0.000302359 1.58763e-06
0.000302359 0.000268934 -1.68083e-06
1.58763e-06 -1.68083e-06 8.70015e-05
0.00151366 0.000265874 2.06481e-06
0.000265874 2.71606e-05 2.74032e-08
2.06481e-06 2.74032e-08 -0.000125527
0.00170237 0.000262537 2.52202e-06
0.000262537 0.000491097 6.09612e-06
2.52202e-06 6.09612e-06 0.000249072
0.00133341 0.000274256 -5.52176e-07
0.000274256 6.91477e-05 -9.37552e-07
-5.52176e-07 -9.37552e-07 -0.000132899
0.000675931 -3.0556e-05 -1.49106e-06
-3.0556e-05 9.47941e-06 -1.94415e-06
-1.49106e-06 -1.94415e-06 -3.47267e-05
0.000664434 8.5564e-06 5.59971e-07
8.5564e-06 1.57922e-05 4.11419e-07
5.59971e-07 4.11419e-07 -5.10708e-05
0.000621245 -1.78682e-05 -2.06259e-07
-1.78682e-05 -1.12492e-06 5.53326e-07
-2.06259e-07 5.53326e-07 -7.70743e-05
0.00054082 -3.94455e-05 -8.11665e-07
-3.94455e-05 -5.38045e-05 -9.13049e-07
-8.11665e-07 -9.13049e-07 -0.000119985
0.000716117 1.5724e-05 -7.72962e-08
1.5724e-05 4.91945e-05 2.45368e-08
-7.72962e-08 2.45368e-08 -1.76417e-05
0.000741453 1.72721e-05 -5.60721e-08
1.72721e-05 6.78195e-05 -3.60166e-07
-5.60721e-08 -3.60166e-07 -8.78496e-06
0.000840417 4.50482e-05 -3.45157e-07
4.50482e-05 0.000132563 -8.39064e-07
-3.45157e-07 -8.39064e-07 4.73889e-05
0.000625089 -2.56513e-05 7.0775e-07
-2.56513e-05 9.57822e-06 2.79805e-07
7.0775e-07 2.79805e-07 -7.38463e-05
0.000738171 3.21797e-05 6.15054e-07
3.21797e-05 5.81848e-05 9.54471e-07
6.15054e-07 9.54471e-07 -6.17168e-06
0.000688188 1.26985e-05 1.34408e-06
1.26985e-05 1.4863e-05 1.90108e-06
1.34408e-06 1.90108e-06 -2.78164e-05
0.000692976 -6.679e-06 -5.60765e-07
-6.679e-06 1.50221e-05 1.4109e-08
-5.60765e-07 1.4109e-08 -2.69819e-05
0.00126612 -2.82618e-05 8.2413e-07
-2.82618e-05 0.000333986 2.31856e-06
8.2413e-07 2.31856e-06 0.00032704
0.000680229 -3.14221e-05 -6.77136e-07
-3.14221e-05 8.47591e-06 -1.98975e-06
-6.77136e-07 -1.98975e-06 -3.41332e-05
0.00129131 -3.6104e-05 -4.22968e-06
-3.6104e-05 0.000352178 -1.36245e-06
-4.22968e-06 -1.36245e-06 0.000344522
0.000906306 -2.95228e-05 1.82284e-05
-2.95228e-05 0.000136262 7.31747e-06
1.82284e-05 7.31747e-06 0.000145211
0.00131369 -4.40393e-05 -8.33395e-06
-4.40393e-05 0.000370088 -5.07892e-06
-8.33395e-06 -5.07892e-06 0.000361098
0.00084126 -3.67245e-05 6.99184e-06
-3.67245e-05 0.000104884 2.73381e-06
6.99184e-06 2.73381e-06 0.000112117
0.0021349 -7.43315e-05 -5.6804e-06
-7.43315e-05 0.000862714 -1.72903e-06
-5.6804e-06 -1.72903e-06 0.000873237
0.000582576 3.95207e-05 4.04682e-07
3.95207e-05 -4.04584e-05 -4.22026e-06
4.04682e-07 -4.22026e-06 -5.9554e-05
0.000574714 4.74991e-05 -4.3339e-08
4.74991e-05 -3.58304e-05 7.16083e-08
-4.3339e-08 7.16083e-08 -6.05903e-05
0.00248957 8.45202e-05 3.01278e-05
8.45202e-05 0.00107534 -3.76681e-06
3.01278e-05 -3.76681e-06 0.00108184
0.000602002 3.9074e-05 -1.90303e-06
3.9074e-05 -1.48088e-05 5.56621e-06
-1.90303e-06 5.56621e-06 -4.32864e-05
0.00270177 9.68405e-05 -4.15319e-06
9.68405e-05 0.00120385 -2.76597e-07
-4.15319e-06 -2.76597e-07 0.00120737
0.00296277 9.94351e-05 -6.5406e-05
9.94351e-05 0.00135739 3.22954e-06
-6.5406e-05 3.22954e-06 0.00136029
0.00156606 0.000138431 -1.37738e-06
0.000138431 9.86021e-05 4.68545e-07
-1.37738e-06 4.68545e-07 -4.08441e-05
0.00165337 9.03342e-05 7.17006e-07
9.03342e-05 0.000111885 7.52029e-07
7.17006e-07 7.52029e-07 -9.84636e-06
0.00170156 0.000130288 2.71513e-06
0.000130288 8.38024e-05 2.02213e-06
2.71513e-06 2.02213e-06 -1.87892e-05
0.00184688 7.71217e-05 3.02533e-06
7.71217e-05 0.000137986 5.00661e-07
3.02533e-06 5.00661e-07 4.5679e-05
0.00170009 2.11012e-05 -8.18533e-07
2.11012e-05 0.000113143 1.81249e-09
-8.18533e-07 1.81249e-09 3.09977e-06
0.00138972 1.29519e-05 -3.64481e-06
1.29519e-05 5.351e-05 7.71302e-08
-3.64481e-06 7.71302e-08 -6.92107e-05
0.00165893 2.6551e-06 -6.80244e-07
2.6551e-06 9.75166e-05 -4.29058e-11
-6.80244e-07 -4.29058e-11 -1.37873e-05
0.00172914 3.84728e-05 8.66883e-07
3.84728e-05 7.22884e-05 -7.16793e-08
8.66883e-07 -7.16793e-08 -2.5113e-05
0.0017664 0.000107161 -1.19583e-06
0.000107161 0.000103373 -3.27402e-07
-1.19583e-06 -3.27402e-07 5.69289e-06
0.00176228 8.15219e-05 2.2446e-06
8.15219e-05 7.58577e-05 1.23283e-07
2.2446e-06 1.23283e-07 -1.78067e-06
0.00162611 0.000140242 -7.49078e-07
0.000140242 8.08156e-05 -1.13631e-07
-7.49078e-07 -1.13631e-07 -3.76996e-05
0.00180735 0.000146916 3.41337e-06
0.000146916 0.000106074 1.0649e-06
3.41337e-06 1.0649e-06 2.03524e-05
0.00176723 -1.78859e-06 -3.28832e-07
-1.78859e-06 0.000104205 3.34799e-07
-3.28832e-07 3.34799e-07 6.50138e-06
0.00171742 4.75872e-05 6.96871e-07
4.75872e-05 4.71761e-05 1.12911e-06
6.96871e-07 1.12911e-06 -3.09171e-05
0.00182316 0.000108728 3.76935e-07
0.000108728 9.4745e-05 -1.71818e-07
3.76935e-07 -1.71818e-07 2.03448e-05
0.00186592 0.000175619 -5.11882e-07
0.000175619 0.000143559 -1.21987e-06
-5.11882e-07 -1.21987e-06 5.42219e-05
0.00163838 -2.34166e-05 -7.11362e-08
-2.34166e-05 9.38721e-05 -7.91102e-08
-7.11362e-08 -7.91102e-08 -1.90682e-05
0.00166034 -7.4311e-05 -1.39699e-08
-7.4311e-05 0.000120284 -8.68548e-07
-1.39699e-08 -8.68548e-07 -1.4568e-07
0.0017515 -5.74032e-05 2.36884e-06
-5.74032e-05 9.5681e-05 -3.9745e-07
2.36884e-06 -3.9745e-07 -2.38961e-06
0.00163749 -0.000132495 8.78799e-07
-0.000132495 6.62801e-05 -3.4584e-07
8.78799e-07 -3.4584e-07 -3.78324e-05
0.00112201 -0.000164209 -1.73101e-06
-0.000164209 0.000253238 2.18322e-06
-1.73101e-06 2.18322e-06 0.000109896
0.000964125 -0.000193171 8.14763e-07
-0.000193171 0.000106628 2.03362e-06
8.14763e-07 2.03362e-06 -7.64465e-05
0.00117163 -0.000247396 -2.4645e-06
-0.000247396 1.89309e-05 1.59018e-06
-2.4645e-06 1.59018e-06 -0.000197845
0.00156954 -0.000180806 3.07732e-07
-0.000180806 8.20726e-05 -7.60261e-07
3.07732e-07 -7.60261e-07 -4.92426e-05
0.00164644 -0.000159429 4.20243e-06
-0.000159429 4.71868e-05 -2.31312e-06
4.20243e-06 -2.31312e-06 -4.305e-05
0.0016937 -0.000231746 3.8675e-06
-0.000231746 0.000131937 -1.34242e-06
3.8675e-06 -1.34242e-06 6.29867e-06
0.00166782 -0.000270856 -8.7035e-07
-0.000270856 0.000189466 -3.23798e-06
-8.7035e-07 -3.23798e-06 1.12483e-06
0.00168262 -0.000248732 4.11641e-06
-0.000248732 0.000113408 -9.77095e-06
4.11641e-06 -9.77095e-06 -2.41668e-05
0.00113032 -0.000187091 4.82527e-07
-0.000187091 0.000267414 -7.5144e-07
4.82527e-07 -7.5144e-07 0.000117179
0.00107663 -0.000176925 6.62728e-07
-0.000176925 0.000239484 -3.92518e-06
6.62728e-07 -3.92518e-06 9.47373e-05
0.000798248 -6.92204e-05 -2.97876e-07
-6.92204e-05 0.000110157 2.32013e-07
-2.97876e-07 2.32013e-07 -2.51029e-05
0.000420399 1.55076e-05 -1.74644e-06
1.55076e-05 -0.000120897 2.80802e-06
-1.74644e-06 2.80802e-06 -0.000187745
0.000506264 3.44378e-05 3.57006e-07
3.44378e-05 -5.08146e-05 7.64451e-07
3.57006e-07 7.64451e-07 -0.000155069
0.00182241 -3.97085e-05 1.84771e-07
-3.97085e-05 0.000126049 4.19519e-09
1.84771e-07 4.19519e-09 2.93168e-05
0.00179044 -8.47368e-05 5.54749e-07
-8.47368e-05 0.000112271 -5.74725e-07
5.54749e-07 -5.74725e-07 1.81754e-05
0.00176528 -0.000153354 -1.4763e-06
-0.000153354 9.6839e-05 1.24973e-07
-1.4763e-06 1.24973e-07 1.27709e-05
0.00105602 -0.000186391 -1.39663e-07
-0.000186391 0.000211377 1.17114e-06
-1.39663e-07 1.17114e-06 4.92138e-05
0.000796933 -0.000198662 1.90585e-06
-0.000198662 -2.46628e-05 -2.87263e-06
1.90585e-06 -2.87263e-06 -0.000224136
0.00167624 -0.00030357 -9.02108e-07
-0.00030357 0.000260037 8.78135e-07
-9.02108e-07 8.78135e-07 2.94956e-05
0.00159541 -0.000185032 3.8658e-07
-0.000185032 3.68411e-05 -1.66524e-07
3.8658e-07 -1.66524e-07 -6.46242e-05
0.00159286 -0.000270951 8.5951e-07
-0.000270951 0.000106432 -2.35461e-06
8.5951e-07 -2.35461e-06 -6.93349e-05
0.0017957 -0.000253715 -5.34761e-07
-0.000253715 0.000145401 -1.01687e-06
-5.34761e-07 -1.01687e-06 2.54802e-05
0.000377543 2.12519e-05 1.42122e-07
2.12519e-05 -0.000148275 -7.84423e-07
1.42122e-07 -7.84423e-07 -0.000206199
0.00109124 -0.000188098 -1.50408e-07
-0.000188098 0.000229302 6.96733e-07
-1.50408e-07 6.96733e-07 8.09541e-05
0.000744687 -0.000163217 -6.44472e-07
-0.000163217 3.65544e-05 1.57788e-07
-6.44472e-07 1.57788e-07 -0.000103147
0.000975252 -0.0001306 -5.22088e-07
-0.0001306 0.000210516 6.42933e-07
-5.22088e-07 6.42933e-07 5.56554e-05
0.000991714 -5.63508e-05 -1.00859e-07
-5.63508e-05 0.000229629 -1.47882e-07
-1.00859e-07 -1.47882e-07 0.000105391
0.000670803 6.64608e-06 -3.41459e-07
6.64608e-06 4.49093e-05 3.52511e-07
-3.41459e-07 3.52511e-07 -5.28713e-05
0.00159161 -4.61507e-05 -3.80825e-07
-4.61507e-05 -1.70941e-05 -2.51854e-07
-3.80825e-07 -2.51854e-07 -0.000103522
0.0019891 -0.000118175 7.72513e-08
-0.000118175 0.000174613 -9.64012e-08
7.72513e-08 -9.64012e-08 0.000103198
0.0015443 -0.000172842 -3.92586e-07
-0.000172842 -3.95019e-05 -3.06289e-07
-3.92586e-07 -3.06289e-07 -0.000118969
0.0019752 -0.00023207 -1.79277e-06
-0.00023207 0.000186608 -7.32327e-07
-1.79277e-06 -7.32327e-07 9.30874e-05
0.00107998 -0.000198677 -2.34814e-06
-0.000198677 0.00020836 -4.83161e-07
-2.34814e-06 -4.83161e-07 3.80705e-05
0.00177904 -0.000283036 2.88158e-07
-0.000283036 0.000156865 4.09283e-06
2.88158e-07 4.09283e-06 1.19443e-05
0.000799588 -0.000228915 -1.01061e-06
-0.000228915 -8.46383e-05 -2.56379e-06
-1.01061e-06 -2.56379e-06 -0.000320652
0.00171513 -0.000322942 -4.74858e-08
-0.000322942 0.000258003 3.47226e-06
-4.74858e-08 3.47226e-06 2.11322e-05
0.000362188 4.05725e-05 -8.54851e-07
4.05725e-05 -0.000161236 -2.94183e-06
-8.54851e-07 -2.94183e-06 -0.000212108
0.000801869 -1.08253e-05 9.59051e-07
-1.08253e-05 0.000118246 -1.39207e-06
9.59051e-07 -1.39207e-06 2.95327e-05
0.000989802 -7.76953e-05 -2.24394e-07
-7.76953e-05 0.000231497 4.90398e-07
-2.24394e-07 4.90398e-07 0.000116328
0.000835144 -2.15874e-05 -4.26295e-07
-2.15874e-05 0.00013797 -1.36759e-07
-4.26295e-07 -1.36759e-07 -2.52526e-06
0.000810634 -0.000177459 -1.17929e-06
-0.000177459 5.0389e-05 6.23676e-07
-1.17929e-06 6.23676e-07 -9.78635e-05
0.00094926 -0.000178213 -3.75489e-06
-0.000178213 0.000154728 2.98906e-06
-3.75489e-06 2.98906e-06 -4.56039e-06
0.000658192 -3.45568e-05 -1.90757e-06
-3.45568e-05 3.83222e-06 -1.86775e-06
-1.90757e-06 -1.86775e-06 -4.24684e-05
0.000647192 -5.84902e-05 6.80529e-08
-5.84902e-05 1.98349e-05 -1.07163e-06
6.80529e-08 -1.07163e-06 -5.79026e-05
0.00166048 0.000191779 -1.04277e-06
0.000191779 0.000125663 1.28084e-07
-1.04277e-06 1.28084e-07 -1.53783e-05
0.000724749 -3.69532e-05 8.63957e-07
-3.69532e-05 7.8817e-05 -8.55244e-07
8.63957e-07 -8.55244e-07 -2.92396e-05
0.000918742 0.000165905 6.16049e-07
0.000165905 0.000172248 -5.74103e-07
6.16049e-07 -5.74103e-07 8.03194e-06
0.000407179 6.09135e-05 2.02406e-06
6.09135e-05 -0.000109343 6.74239e-07
2.02406e-06 6.74239e-07 -0.000249584
0.00158408 0.000257448 -1.28923e-07
0.000257448 0.000154007 7.78474e-08
-1.28923e-07 7.78474e-08 -2.16863e-05
0.00173886 0.000264669 4.34479e-08
0.000264669 0.000166652 1.30126e-06
4.34479e-08 1.30126e-06 1.46977e-05
0.000491167 0.000162235 -3.63192e-07
0.000162235 -0.000126657 7.63263e-07
-3.63192e-07 7.63263e-07 -0.000346622
0.00199792 0.000310242 -1.51521e-06
0.000310242 0.000471717 7.66057e-07
-1.51521e-06 7.66057e-07 0.000262999
0.000723814 -5.59084e-06 -7.02537e-07
-5.59084e-06 5.36059e-05 1.28287e-07
-7.02537e-07 1.28287e-07 -1.60094e-05
0.000680197 -5.6225e-06 1.56839e-07
-5.6225e-06 4.67744e-05 1.07253e-06
1.56839e-07 1.07253e-06 -4.9283e-05
0.00108781 0.000187875 -1.35125e-07
0.000187875 0.000260505 -2.34286e-06
-1.35125e-07 -2.34286e-06 7.51175e-05
0.00056152 1.7696e-06 -4.60029e-07
1.7696e-06 -1.06287e-05 -1.74463e-07
-4.60029e-07 -1.74463e-07 -0.000139975
0.000738496 0.000133175 -1.69086e-06
0.000133175 5.98642e-05 -7.00685e-07
-1.69086e-06 -7.00685e-07 -8.33377e-05
0.00185131 0.000212727 -2.37389e-06
0.000212727 0.000158807 -1.21723e-06
-2.37389e-06 -1.21723e-06 4.78066e-05
0.00187305 0.000301643 1.18517e-06
0.000301643 0.00029296 -1.79331e-07
1.18517e-06 -1.79331e-07 0.000112606
0.00162321 0.000278164 5.2722e-07
0.000278164 8.62495e-05 1.65972e-06
5.2722e-07 1.65972e-06 -6.86324e-05
0.00149058 0.000249883 2.7412e-06
0.000249883 0.000379958 3.70708e-06
2.7412e-06 3.70708e-06 0.00013341
0.00145522 0.00028743 -2.02935e-06
0.00028743 0.00013098 4.20581e-07
-2.02935e-06 4.20581e-07 -7.54245e-05
0.000505332 -2.9381e-05 -3.01427e-07
-2.9381e-05 -5.96778e-05 1.5552e-06
-3.01427e-07 1.5552e-06 -0.000141401
0.000355787 5.8564e-05 -4.05574e-07
5.8564e-05 -0.000116401 7.16376e-07
-4.05574e-07 7.16376e-07 -0.000238695
0.00105723 0.000190109 1.08924e-06
0.000190109 0.000217173 2.61089e-06
1.08924e-06 2.61089e-06 1.37386e-05
-0.000270839 5.18534e-05 1.88987e-06
5.18534e-05 -0.000489938 3.38124e-07
1.88987e-06 3.38124e-07 -0.000639481
0.00190339 0.000216757 -2.68466e-06
0.000216757 7.35866e-05 -7.32674e-07
-2.68466e-06 -7.32674e-07 -5.27881e-06
0.002046 0.000263979 8.52428e-07
0.000263979 0.000256686 -4.40253e-07
8.52428e-07 -4.40253e-07 0.000134542
0.00177714 0.000330472 -1.44685e-06
0.000330472 0.000216698 -2.71883e-06
-1.44685e-06 -2.71883e-06 2.34312e-05
-0.000153114 0.000144434 -1.10881e-06
0.000144434 -0.000619639 1.50378e-06
-1.10881e-06 1.50378e-06 -0.000860142
0.000717775 2.93571e-05 -8.18056e-07
2.93571e-05 5.10162e-05 -3.72467e-07
-8.18056e-07 -3.72467e-07 -1.85907e-05
0.000695644 9.09786e-06 -3.04593e-07
9.09786e-06 4.66107e-05 3.78168e-07
-3.04593e-07 3.78168e-07 -3.26443e-05
0.000844367 -6.86357e-06 -6.76616e-07
-6.86357e-06 0.000134314 -2.85778e-07
-6.76616e-07 -2.85778e-07 5.40174e-05
0.000700603 -2.01089e-05 -1.2061e-06
-2.01089e-05 3.64251e-05 -9.11514e-07
-1.2061e-06 -9.11514e-07 -2.73169e-05
0.000570374 -2.50441e-05 -2.46618e-07
-2.50441e-05 -2.77223e-05 -5.8814e-07
-2.46618e-07 -5.8814e-07 -0.000105019
0.000724465 6.72956e-06 7.11066e-09
6.72956e-06 5.19872e-05 -7.77713e-09
7.11066e-09 -7.77713e-09 -1.33955e-05
0.000720928 4.53585e-05 -4.55836e-07
4.53585e-05 7.21937e-05 -2.7086e-07
-4.55836e-07 -2.7086e-07 -1.73814e-05
0.000680427 3.59481e-06 5.23401e-07
3.59481e-06 4.34987e-05 3.23305e-07
5.23401e-07 3.23305e-07 -4.11007e-05
0.000789096 1.55543e-05 8.81695e-07
1.55543e-05 0.000102033 1.34611e-07
8.81695e-07 1.34611e-07 1.6403e-05
0.000747936 -3.26615e-05 9.80265e-07
-3.26615e-05 8.20942e-05 -4.15319e-07
9.80265e-07 -4.15319e-07 -8.29061e-06
0.000602094 2.68645e-05 4.76722e-07
2.68645e-05 -4.36172e-06 8.18155e-07
4.76722e-07 8.18155e-07 -8.94435e-05
0.000714812 4.55914e-05 9.18837e-07
4.55914e-05 4.8133e-05 1.13446e-06
9.18837e-07 1.13446e-06 -1.93532e-05
0.000664375 2.37303e-05 9.06067e-07
2.37303e-05 5.88628e-06 1.79623e-06
9.06067e-07 1.79623e-06 -3.84184e-05
0.000674272 -5.18765e-06 -4.64562e-07
-5.18765e-06 7.58325e-06 1.77379e-08
-4.64562e-07 1.77379e-08 -3.55044e-05
0.00127319 -1.8128e-05 6.45222e-07
-1.8128e-05 0.000335744 2.2342e-06
6.45222e-07 2.2342e-06 0.000329169
0.000678111 -2.64111e-05 -4.01189e-07
-2.64111e-05 7.38673e-06 -1.99313e-06
-4.01189e-07 -1.99313e-06 -3.50865e-05
0.00129992 -2.57347e-05 -3.50806e-06
-2.57347e-05 0.000353583 -1.43892e-06
-3.50806e-06 -1.43892e-06 0.000346655
0.000912446 -2.25752e-05 1.51954e-05
-2.25752e-05 0.00013508 7.63045e-06
1.51954e-05 7.63045e-06 0.000144804
0.00132255 -3.40272e-05 -6.86549e-06
-3.40272e-05 0.000370038 -5.11828e-06
-6.86549e-06 -5.11828e-06 0.000362405
0.000850491 -2.996e-05 5.65518e-06
-2.996e-05 0.000103735 2.83479e-06
5.65518e-06 2.83479e-06 0.000112532
0.0007837 -3.61221e-05 -1.76112e-06
-3.61221e-05 7.14991e-05 -1.92266e-06
-1.76112e-06 -1.92266e-06 7.87499e-05
0.000594813 3.35263e-05 4.75051e-07
3.35263e-05 -4.20427e-05 -3.7912e-06
4.75051e-07 -3.7912e-06 -5.64637e-05
0.000593739 4.16689e-05 -1.38906e-07
4.16689e-05 -3.35981e-05 8.13138e-08
-1.38906e-07 8.13138e-08 -5.31596e-05
0.00233227 7.13247e-05 2.41651e-05
7.13247e-05 0.000977191 -3.95828e-06
2.41651e-05 -3.95828e-06 0.000987122
0.000594728 4.24709e-05 -1.24965e-06
4.24709e-05 -2.50038e-05 4.98139e-06
-1.24965e-06 4.98139e-06 -4.93153e-05
0.00254973 8.55181e-05 -3.98628e-06
8.55181e-05 0.00111026 -2.59008e-07
-3.98628e-06 -2.59008e-07 0.00111652
0.00276594 9.47191e-05 -4.89455e-05
9.47191e-05 0.00124009 3.32316e-06
-4.89455e-05 3.32316e-06 0.00124424
0.0016433 0.000139143 1.28655e-06
0.000139143 9.66072e-05 2.27652e-06
1.28655e-06 2.27652e-06 -2.18762e-05
0.00173508 0.000105308 6.66981e-07
0.000105308 8.50019e-05 4.21369e-07
6.66981e-07 4.21369e-07 -1.4068e-05
0.00170808 0.000147672 4.59945e-06
0.000147672 4.74088e-05 1.57701e-06
4.59945e-06 1.57701e-06 -3.54799e-05
0.00172304 8.16367e-05 2.86471e-06
8.16367e-05 5.12871e-05 -1.81092e-07
2.86471e-06 -1.81092e-07 -2.35107e-05
0.00174707 3.35643e-05 2.12379e-06
3.35643e-05 8.52757e-05 -3.80295e-07
2.12379e-06 -3.80295e-07 -1.3307e-05
0.00165152 1.56626e-06 -9.01602e-07
1.56626e-06 9.31126e-05 -6.51557e-08
-9.01602e-07 -6.51557e-08 -1.93087e-05
0.00174977 7.41888e-07 -1.62405e-07
7.41888e-07 9.48539e-05 1.69987e-08
-1.62405e-07 1.69987e-08 -2.84577e-06
0.00168898 4.49939e-05 1.71996e-06
4.49939e-05 3.74745e-05 -4.91274e-07
1.71996e-06 -4.91274e-07 -4.1784e-05
0.00181603 0.000112062 6.7767e-07
0.000112062 9.18952e-05 -3.34882e-07
6.7767e-07 -3.34882e-07 1.66394e-05
0.00192084 0.000172962 3.4124e-07
0.000172962 0.000164558 2.71815e-07
3.4124e-07 2.71815e-07 7.6653e-05
0.00176418 -1.34025e-06 -1.66454e-06
-1.34025e-06 8.79366e-05 7.90094e-07
-1.66454e-06 7.90094e-07 5.2447e-06
0.00190001 8.07516e-05 2.15941e-06
8.07516e-05 9.60764e-05 3.10008e-07
2.15941e-06 3.10008e-07 3.89632e-05
0.00168535 0.000158796 1.2536e-06
0.000158796 -3.421e-05 -3.45393e-07
1.2536e-06 -3.45393e-07 -0.000105671
0.00186284 -4.24301e-05 7.57527e-07
-4.24301e-05 0.000151446 1.49625e-07
7.57527e-07 1.49625e-07 5.46865e-05
0.00180156 -8.74662e-05 8.91381e-07
-8.74662e-05 0.000118956 -6.55555e-07
8.91381e-07 -6.55555e-07 2.3897e-05
0.00168797 -0.000148803 3.08466e-07
-0.000148803 5.71178e-05 -3.1946e-08
3.08466e-07 -3.1946e-08 -2.88534e-05
0.00120097 -0.000197197 1.10324e-07
-0.000197197 0.000290479 2.93519e-06
1.10324e-07 2.93519e-06 0.000126792
0.00178091 -0.000272111 -5.51362e-07
-0.000272111 0.000527415 1.9631e-06
-5.51362e-07 1.9631e-06 0.000321647
0.00147488 -0.000290329 -2.88702e-06
-0.000290329 0.000145832 1.06487e-06
-2.88702e-06 1.06487e-06 -8.47916e-05
0.00162969 -0.000186261 1.37247e-06
-0.000186261 5.37165e-05 -8.92843e-07
1.37247e-06 -8.92843e-07 -4.82956e-05
0.00149754 -0.000241552 1.35166e-06
-0.000241552 -1.9473e-05 -3.14904e-06
1.35166e-06 -3.14904e-06 -0.000140407
0.00163032 -0.000271298 -5.8094e-07
-0.000271298 0.000127318 -8.39966e-06
-5.8094e-07 -8.39966e-06 -4.3415e-05
0.00113349 -0.00019076 1.19676e-06
-0.00019076 0.000249178 -6.5465e-07
1.19676e-06 -6.5465e-07 0.000100748
0.000719664 -0.000158828 -5.55764e-06
-0.000158828 2.95595e-05 -2.15709e-06
-5.55764e-06 -2.15709e-06 -0.000104985
0.00117573 -0.000150711 -3.0214e-07
-0.000150711 0.00033513 -5.34274e-07
-3.0214e-07 -5.34274e-07 0.000169686
0.000408332 1.91432e-05 -3.81525e-07
1.91432e-05 -0.000131468 1.54358e-06
-3.81525e-07 1.54358e-06 -0.000188414
0.000987864 -5.14206e-05 4.02732e-07
-5.14206e-05 0.000223806 7.59048e-07
4.02732e-07 7.59048e-07 0.000102495
0.000550828 3.16211e-05 9.68307e-07
3.16211e-05 -2.91426e-05 1.86233e-06
9.68307e-07 1.86233e-06 -0.000124255
0.00174153 -4.59039e-05 -8.7651e-07
-4.59039e-05 6.53783e-05 1.28771e-08
-8.7651e-07 1.28771e-08 -2.08131e-05
0.00195609 -0.000119741 4.89517e-09
-0.000119741 0.000155929 -9.93294e-08
4.89517e-09 -9.93294e-08 8.43474e-05
0.0016069 -0.000172981 -2.75665e-07
-0.000172981 -2.8635e-06 3.82443e-07
-2.75665e-07 3.82443e-07 -8.17855e-05
0.00112172 -0.000199992 1.6893e-07
-0.000199992 0.000228983 1.90692e-06
1.6893e-07 1.90692e-06 5.85965e-05
0.000938992 -0.000235604 -5.89581e-07
-0.000235604 3.35057e-06 -8.97817e-08
-5.89581e-07 -8.97817e-08 -0.000227047
0.00173836 -0.000322189 -2.97773e-06
-0.000322189 0.000266753 6.46634e-07
-2.97773e-06 6.46634e-07 3.52328e-05
0.00191384 -0.000233657 9.11268e-07
-0.000233657 0.000152657 -5.77233e-07
9.11268e-07 -5.77233e-07 5.75724e-05
0.00170578 -0.000282161 1.20883e-06
-0.000282161 0.00011061 -1.46981e-06
1.20883e-06 -1.46981e-06 -3.48686e-05
0.000515573 2.838e-05 2.17798e-07
2.838e-05 -7.50324e-05 -7.80331e-07
2.17798e-07 -7.80331e-07 -0.000123025
0.000809037 -4.6547e-06 -4.4927e-07
-4.6547e-06 0.00012095 2.928e-07
-4.4927e-07 2.928e-07 3.29218e-05
0.000433459 -0.000146387 -2.40414e-06
-0.000146387 -0.00016269 2.05451e-06
-2.40414e-06 2.05451e-06 -0.000304566
0.00128086 -0.000192756 -9.75387e-08
-0.000192756 0.000350257 -9.57888e-08
-9.75387e-08 -9.57888e-08 0.000194113
0.000916222 -4.89577e-05 -1.25482e-07
-4.89577e-05 0.000188516 -2.21985e-07
-1.25482e-07 -2.21985e-07 4.65756e-05
0.000882848 -5.57308e-05 -4.45051e-07
-5.57308e-05 0.000170287 1.21584e-06
-4.45051e-07 1.21584e-06 5.48035e-05
0.00196778 -7.15441e-05 1.75239e-06
-7.15441e-05 0.000133987 4.80462e-07
1.75239e-06 4.80462e-07 7.73639e-05
0.00185481 -0.000168722 -1.11201e-06
-0.000168722 5.61021e-05 -1.04946e-06
-1.11201e-06 -1.04946e-06 4.95073e-06
0.00180953 -0.000194574 3.10447e-07
-0.000194574 6.56676e-05 -5.16699e-07
3.10447e-07 -5.16699e-07 -4.73716e-06
0.00214284 -0.000320799 5.60241e-06
-0.000320799 0.000252805 -7.95046e-07
5.60241e-06 -7.95046e-07 0.000137069
0.000242928 -0.000148179 -2.96874e-06
-0.000148179 -0.000281066 -1.73932e-06
-2.96874e-06 -1.73932e-06 -0.000464183
0.00175229 -0.000334437 -2.25208e-06
-0.000334437 0.000234745 8.8371e-06
-2.25208e-06 8.8371e-06 1.90975e-05
0.00251854 -0.00038512 2.4739e-06
-0.00038512 0.000829009 -3.83139e-06
2.4739e-06 -3.83139e-06 0.000561674
0.000683347 2.84665e-05 5.06721e-07
2.84665e-05 1.49232e-05 -1.93509e-06
5.06721e-07 -1.93509e-06 -2.63717e-05
0.000722578 -8.58927e-05 1.79241e-06
-8.58927e-05 7.07953e-05 -2.01266e-06
1.79241e-06 -2.01266e-06 -5.42342e-06
0.000515883 2.03107e-05 -2.61721e-07
2.03107e-05 -4.62295e-05 -2.13703e-06
-2.61721e-07 -2.13703e-06 -0.000129757
0.000804094 -3.72256e-05 8.33318e-07
-3.72256e-05 0.000132867 5.41324e-07
8.33318e-07 5.41324e-07 2.27719e-05
0.00073012 -6.93855e-06 1.19951e-06
-6.93855e-06 7.48454e-05 -1.78033e-06
1.19951e-06 -1.78033e-06 -4.34246e-05
0.000239011 -9.74122e-05 9.56828e-07
-9.74122e-05 -0.000179546 2.02192e-06
9.56828e-07 2.02192e-06 -0.000326886
0.000295708 -0.000143757 -1.08425e-06
-0.000143757 -0.000287651 -1.34993e-07
-1.08425e-06 -1.34993e-07 -0.000420889
0.00222613 -0.00026887 -7.73289e-06
-0.00026887 0.000932212 3.64005e-06
-7.73289e-06 3.64005e-06 0.000724206
0.00069665 -2.77006e-05 -8.78982e-07
-2.77006e-05 3.48042e-05 -7.44786e-07
-8.78982e-07 -7.44786e-07 -3.17846e-05
0.000836087 2.21554e-07 2.94295e-08
2.21554e-07 0.00013736 -1.65321e-07
2.94295e-08 -1.65321e-07 3.90198e-05
0.00210256 0.000220354 -4.22054e-07
0.000220354 0.000301479 3.05803e-07
-4.22054e-07 3.05803e-07 0.00019281
0.000724694 3.04673e-05 -1.44252e-07
3.04673e-05 8.91309e-05 -4.49208e-09
-1.44252e-07 -4.49208e-09 -4.71646e-05
0.00122867 0.000199536 1.535e-06
0.000199536 0.000350275 -2.88232e-06
1.535e-06 -2.88232e-06 0.000159376
0.000553012 0.000103402 2.67416e-07
0.000103402 -4.56108e-05 5.47337e-07
2.67416e-07 5.47337e-07 -0.000176042
0.00188334 0.000298426 -2.2461e-07
0.000298426 0.000299464 3.89817e-07
-2.2461e-07 3.89817e-07 0.000121115
0.00173164 0.000290369 8.17731e-07
0.000290369 0.000144169 3.99543e-06
8.17731e-07 3.99543e-06 -1.2678e-05
0.00106024 0.000221086 7.1003e-07
0.000221086 0.000147367 2.49819e-07
7.1003e-07 2.49819e-07 -0.000102431
0.00143864 0.000290324 -2.73499e-06
0.000290324 0.000115329 1.69394e-06
-2.73499e-06 1.69394e-06 -9.37643e-05
0.000545653 -8.16422e-06 3.99482e-08
-8.16422e-06 -3.10213e-05 8.19154e-07
3.99482e-08 8.19154e-07 -0.000118003
0.000523211 6.66851e-05 -5.61084e-07
6.66851e-05 -2.21744e-05 -1.55181e-06
-5.61084e-07 -1.55181e-06 -0.000146023
0.0010879 0.000194158 1.84407e-06
0.000194158 0.000246095 -1.93007e-06
1.84407e-06 -1.93007e-06 3.79977e-05
0.000644113 0.000114754 -1.02355e-06
0.000114754 2.35638e-05 -2.33509e-06
-1.02355e-06 -2.33509e-06 -0.000131303
0.00197014 0.000214626 5.58841e-07
0.000214626 0.000111043 -9.20695e-07
5.58841e-07 -9.20695e-07 3.52258e-05
0.00193514 0.000265441 2.28616e-06
0.000265441 0.00020151 8.07933e-07
2.28616e-06 8.07933e-07 7.47096e-05
0.00176896 0.000324379 -1.9778e-06
0.000324379 0.000207182 5.63201e-08
-1.9778e-06 5.63201e-08 1.6329e-05
0.000832865 0.00022386 6.6563e-07
0.00022386 -8.87114e-05 9.79832e-07
6.6563e-07 9.79832e-07 -0.000331065
0.000689469 1.01941e-05 -3.10994e-07
1.01941e-05 4.80629e-05 1.28206e-06
-3.10994e-07 1.28206e-06 -4.06828e-05
0.00191378 0.000168503 -1.30975e-06
0.000168503 5.12515e-05 1.55348e-06
-1.30975e-06 1.55348e-06 2.34062e-06
0.00140827 0.000196737 7.57482e-09
0.000196737 0.000493766 2.93637e-06
7.57482e-09 2.93637e-06 0.000327918
0.00108452 0.00020346 1.61105e-06
0.00020346 0.000217054 4.23e-06
1.61105e-06 4.23e-06 4.98004e-06
0.00243701 0.000265483 -1.09425e-05
0.000265483 0.00038363 -1.72635e-06
-1.09425e-05 -1.72635e-06 0.000298659
0.00130078 0.000313095 -3.04615e-06
0.000313095 -0.000121359 -4.57617e-06
-3.04615e-06 -4.57617e-06 -0.000298388
0.00178602 0.000323824 -2.72308e-06
0.000323824 0.000349224 3.09771e-07
-2.72308e-06 3.09771e-07 0.000108024
0.000762802 1.87836e-05 -1.41681e-06
1.87836e-05 8.54224e-05 -6.2747e-08
-1.41681e-06 -6.2747e-08 6.3918e-06
0.000758472 7.82627e-06 -4.77754e-07
7.82627e-06 8.80372e-05 -6.7408e-08
-4.77754e-07 -6.7408e-08 6.20294e-06
0.000848076 -5.09611e-06 -2.28932e-07
-5.09611e-06 0.000148805 6.16677e-07
-2.28932e-07 6.16677e-07 6.28573e-05
0.000696333 -1.73215e-05 -3.39287e-07
-1.73215e-05 3.75675e-05 -1.2124e-06
-3.39287e-07 -1.2124e-06 -2.90173e-05
0.000721382 2.21731e-05 4.70347e-07
2.21731e-05 6.84245e-05 1.2777e-07
4.70347e-07 1.2777e-07 -1.66623e-05
0.000553752 -5.67902e-06 -8.63618e-07
-5.67902e-06 -1.58687e-05 2.30559e-07
-8.63618e-07 2.30559e-07 -0.000108314
0.00070327 -6.36114e-06 -2.56496e-07
-6.36114e-06 4.65749e-05 -4.82245e-08
-2.56496e-07 -4.82245e-08 -2.44818e-05
0.000597918 -2.49077e-05 -5.97074e-07
-2.49077e-05 -1.11017e-06 3.60554e-07
-5.97074e-07 3.60554e-07 -8.91327e-05
0.000668254 -2.67104e-05 6.99355e-07
-2.67104e-05 3.43335e-05 -2.80749e-07
6.99355e-07 -2.80749e-07 -5.08111e-05
0.000801959 2.04903e-05 3.27108e-07
2.04903e-05 0.000121511 1.0685e-07
3.27108e-07 1.0685e-07 2.53606e-05
0.000912149 1.27437e-06 9.35504e-07
1.27437e-06 0.000154301 -6.40591e-07
9.35504e-07 -6.40591e-07 7.18842e-05
0.000749675 -4.63753e-05 1.04482e-06
-4.63753e-05 7.65846e-05 -7.14754e-08
1.04482e-06 -7.14754e-08 -1.18296e-05
0.000795283 2.14773e-05 4.68662e-07
2.14773e-05 0.000114327 2.97965e-07
4.68662e-07 2.97965e-07 1.59099e-05
0.000706143 2.4808e-05 1.84179e-06
2.4808e-05 6.09856e-05 7.40534e-07
1.84179e-06 7.40534e-07 -3.40675e-05
0.000727245 1.38172e-05 1.07528e-06
1.38172e-05 5.48766e-05 1.25169e-06
1.07528e-06 1.25169e-06 -1.47869e-05
0.000656372 -8.57687e-06 2.48339e-08
-8.57687e-06 2.19509e-06 1.71078e-06
2.48339e-08 1.71078e-06 -4.19899e-05
0.000669109 -8.4864e-06 -2.2825e-07
-8.4864e-06 7.69489e-06 4.68076e-08
-2.2825e-07 4.68076e-08 -3.59434e-05
0.00127883 -8.25629e-06 5.08867e-07
-8.25629e-06 0.000338322 2.14465e-06
5.08867e-07 2.14465e-06 0.000331404
0.000688059 -1.79594e-05 2.6118e-07
-1.79594e-05 1.53604e-05 -2.04072e-06
2.6118e-07 -2.04072e-06 -2.75938e-05
0.00130859 -1.5889e-05 -2.63104e-06
-1.5889e-05 0.000356733 -1.49437e-06
-2.63104e-06 -1.49437e-06 0.000350009
0.000909817 -1.54449e-05 1.14091e-05
-1.54449e-05 0.000130089 7.81106e-06
1.14091e-05 7.81106e-06 0.000140338
0.00133772 -2.40076e-05 -4.9937e-06
-2.40076e-05 0.000375547 -5.21397e-06
-4.9937e-06 -5.21397e-06 0.000368466
0.000862587 -2.29301e-05 3.91219e-06
-2.29301e-05 0.000105651 2.94938e-06
3.91219e-06 2.94938e-06 0.000115355
0.000797651 -2.91472e-05 -1.22861e-06
-2.91472e-05 7.27451e-05 -1.91907e-06
-1.22861e-06 -1.91907e-06 8.17131e-05
0.000702472 4.95341e-06 7.54675e-07
4.95341e-06 2.37499e-05 -2.07505e-06
7.54675e-07 -2.07505e-06 -1.4504e-05
0.000612709 2.67336e-05 4.53293e-07
2.67336e-05 -3.85437e-05 -3.74601e-06
4.53293e-07 -3.74601e-06 -4.9466e-05
0.000614361 3.4315e-05 -5.06602e-08
3.4315e-05 -3.08238e-05 7.25897e-08
-5.06602e-08 7.25897e-08 -4.54739e-05
0.00222259 5.83826e-05 2.00563e-05
5.83826e-05 0.000906097 -4.15064e-06
2.00563e-05 -4.15064e-06 0.000919224
0.000612705 4.51573e-05 2.2983e-07
4.51573e-05 -2.18173e-05 4.5507e-06
2.2983e-07 4.5507e-06 -4.21236e-05
0.00240218 7.32337e-05 -3.16406e-06
7.32337e-05 0.00101816 -2.04681e-07
-3.16406e-06 -2.04681e-07 0.00102752
0.00261661 8.61717e-05 -3.62965e-05
8.61717e-05 0.00114882 3.64409e-06
-3.62965e-05 3.64409e-06 0.00115494
0.00197614 0.000170291 1.18867e-06
0.000170291 0.000185844 2.14826e-06
1.18867e-06 2.14826e-06 9.93811e-05
0.00181108 0.000115342 7.17879e-07
0.000115342 9.03064e-05 -9.29253e-08
7.17879e-07 -9.29253e-08 1.42177e-05
0.0016646 4.51681e-05 1.42524e-06
4.51681e-05 3.0107e-05 -1.16903e-06
1.42524e-06 -1.16903e-06 -5.03122e-05
0.00172996 3.33968e-06 5.22201e-07
3.33968e-06 8.4263e-05 -1.64956e-07
5.22201e-07 -1.64956e-07 -1.34275e-05
0.00176709 1.48964e-06 -7.18779e-07
1.48964e-06 8.78939e-05 2.3968e-07
-7.18779e-07 2.3968e-07 6.41761e-06
0.00192783 7.78181e-05 2.08721e-07
7.78181e-05 0.000111261 1.6999e-07
2.08721e-07 1.6999e-07 5.44156e-05
0.00177328 0.000162425 -8.77491e-07
0.000162425 1.30804e-05 -2.92526e-07
-8.77491e-07 -2.92526e-07 -5.86211e-05
0.00180779 3.28509e-06 1.65614e-06
3.28509e-06 3.40206e-05 4.57419e-09
1.65614e-06 4.57419e-09 -1.51316e-05
0.00197254 0.000110769 2.92039e-06
0.000110769 8.03651e-05 3.79424e-07
2.92039e-06 3.79424e-07 3.48568e-05
0.00191491 6.16667e-05 -2.87224e-06
6.16667e-05 7.48106e-05 8.81904e-07
-2.87224e-06 8.81904e-07 8.70923e-05
0.00188712 -4.58154e-05 -6.27492e-07
-4.58154e-05 0.000145673 6.02398e-08
-6.27492e-07 6.02398e-08 5.97112e-05
0.00191435 -0.000122447 -5.97427e-07
-0.000122447 0.000131084 2.62449e-07
-5.97427e-07 2.62449e-07 5.94536e-05
0.00166189 -0.000173664 -6.72474e-07
-0.000173664 2.83196e-05 7.47281e-07
-6.72474e-07 7.47281e-07 -5.01317e-05
0.00116165 -0.0002016 3.27461e-07
-0.0002016 0.000248394 4.62235e-06
3.27461e-07 4.62235e-06 7.74969e-05
0.00113059 -0.000246567 7.26241e-07
-0.000246567 0.000119668 4.77005e-06
7.26241e-07 4.77005e-06 -0.00010659
0.00169765 -0.000315605 -2.90681e-06
-0.000315605 0.000243407 -2.24277e-06
-2.90681e-06 -2.24277e-06 1.80729e-05
0.00185107 -0.000233011 3.4403e-06
-0.000233011 0.000118168 -9.01619e-07
3.4403e-06 -9.01619e-07 2.18824e-05
0.00160517 -0.000275222 -2.18041e-07
-0.000275222 5.55963e-05 -5.32576e-06
-2.18041e-07 -5.32576e-06 -8.93286e-05
0.000144771 -0.000122365 -3.39539e-06
-0.000122365 -0.000324793 3.11668e-06
-3.39539e-06 3.11668e-06 -0.000461496
0.00172683 -0.000220448 9.35797e-06
-0.000220448 0.000611995 -4.29415e-06
9.35797e-06 -4.29415e-06 0.000456487
0.000847357 -1.67547e-05 -4.42963e-07
-1.67547e-05 0.000137921 -8.7291e-08
-4.42963e-07 -8.7291e-08 7.48116e-06
0.000665304 1.1048e-05 -4.00873e-07
1.1048e-05 9.37821e-06 1.21651e-06
-4.00873e-07 1.21651e-06 -3.60781e-05
0.000838094 1.52706e-05 -5.84955e-07
1.52706e-05 0.000135965 1.76643e-06
-5.84955e-07 1.76643e-06 4.81742e-05
0.00080141 -2.58193e-05 -1.86346e-07
-2.58193e-05 0.000123266 2.24947e-06
-1.86346e-07 2.24947e-06 7.59365e-06
0.0018574 -7.14885e-05 8.74269e-08
-7.14885e-05 7.20618e-05 1.1327e-08
8.74269e-08 1.1327e-08 1.55094e-05
0.000671597 7.94646e-06 1.01141e-06
7.94646e-06 9.02747e-06 6.52992e-08
1.01141e-06 6.52992e-08 -3.25695e-05
0.000610121 -2.41457e-05 -1.23845e-06
-2.41457e-05 -7.06468e-06 -4.12173e-08
-1.23845e-06 -4.12173e-08 -7.48038e-05
0.00186695 -0.000164675 -6.02971e-08
-0.000164675 7.4028e-05 2.68549e-07
-6.02971e-08 2.68549e-07 1.8225e-05
0.00170313 -0.000191997 -1.77343e-06
-0.000191997 3.54606e-06 5.06481e-07
-1.77343e-06 5.06481e-07 -6.85403e-05
0.000470248 -0.000163443 8.33485e-07
-0.000163443 -0.000141097 3.28473e-06
8.33485e-07 3.28473e-06 -0.000321077
0.00186392 -0.000331397 -3.01519e-06
-0.000331397 0.00047279 1.01501e-06
-3.01519e-06 1.01501e-06 0.000202995
0.00152311 -0.000316143 1.84753e-06
-0.000316143 0.000100154 -1.36498e-06
1.84753e-06 -1.36498e-06 -0.000108232
0.00204194 -0.000316152 2.46271e-06
-0.000316152 0.000207276 -1.15037e-06
2.46271e-06 -1.15037e-06 9.00785e-05
0.000769082 -2.06378e-05 1.05522e-06
-2.06378e-05 9.77713e-05 -8.85527e-07
1.05522e-06 -8.85527e-07 1.68536e-05
0.000786871 -2.58779e-05 5.17094e-08
-2.58779e-05 0.000123275 9.47597e-07
5.17094e-08 9.47597e-07 1.19851e-05
0.000911004 -0.000175087 -2.00601e-06
-0.000175087 5.9287e-05 -5.08051e-07
-2.00601e-06 -5.08051e-07 -8.0474e-05
0.00140828 -0.000209941 9.97963e-06
-0.000209941 0.000464728 -2.38397e-06
9.97963e-06 -2.38397e-06 0.000289603
0.000550903 -8.31535e-05 -1.47124e-06
-8.31535e-05 -1.40798e-05 2.50824e-07
-1.47124e-06 2.50824e-07 -0.000156687
0.000761028 -7.21218e-06 2.19908e-07
-7.21218e-06 9.67296e-05 -6.1185e-07
2.19908e-07 -6.1185e-07 -2.25492e-05
0.00187647 -8.14117e-05 1.27079e-06
-8.14117e-05 2.14162e-05 2.83741e-07
1.27079e-06 2.83741e-07 -2.1409e-05
0.00180214 -0.000167322 5.10173e-07
-0.000167322 1.32618e-05 -9.2139e-07
5.10173e-07 -9.2139e-07 -1.59024e-05
0.00196408 -0.000295872 -2.44208e-07
-0.000295872 6.81468e-05 -1.15208e-06
-2.44208e-07 -1.15208e-06 -5.24171e-06
0.00149865 -0.00034114 2.51402e-06
-0.00034114 -2.93776e-05 1.51372e-06
2.51402e-06 1.51372e-06 -0.000170528
0.000721613 -0.000145491 -6.34584e-06
-0.000145491 -1.19697e-05 -5.11598e-06
-6.34584e-06 -5.11598e-06 -0.000192414
0.00286606 -0.000443016 -4.37796e-06
-0.000443016 0.000966543 4.80181e-06
-4.37796e-06 4.80181e-06 0.000676926
0.000474309 5.46299e-05 -1.22152e-06
5.46299e-05 -7.83362e-05 -2.74148e-06
-1.22152e-06 -2.74148e-06 -0.000148631
0.000727481 -5.12414e-05 2.1534e-06
-5.12414e-05 6.2537e-05 -1.48955e-06
2.1534e-06 -1.48955e-06 -8.16362e-06
0.000947155 -6.78164e-05 1.4646e-06
-6.78164e-05 0.000203552 -7.27489e-08
1.4646e-06 -7.27489e-08 0.000111607
0.000504473 1.61244e-05 -3.13471e-07
1.61244e-05 -3.71041e-05 3.80187e-07
-3.13471e-07 3.80187e-07 -0.000147065
0.000993823 -4.40584e-05 2.63871e-07
-4.40584e-05 0.000230151 -1.41425e-07
2.63871e-07 -1.41425e-07 0.000119773
0.000859083 -4.61975e-05 2.16904e-06
-4.61975e-05 0.00013191 -5.25155e-07
2.16904e-06 -5.25155e-07 7.20102e-07
-3.98307e-05 -7.72322e-05 5.44956e-06
-7.72322e-05 -0.000247854 1.27036e-06
5.44956e-06 1.27036e-06 -0.000475291
0.000476212 -0.000189382 -1.53039e-05
-0.000189382 -0.000163682 4.45902e-06
-1.53039e-05 4.45902e-06 -0.000303334
0.00056846 1.71185e-05 -1.80633e-07
1.71185e-05 -1.4578e-05 -2.34e-07
-1.80633e-07 -2.34e-07 -0.000105584
0.00067831 8.47173e-05 -3.01593e-06
8.47173e-05 6.50545e-05 -2.97136e-06
-3.01593e-06 -2.97136e-06 -6.07638e-05
0.00202534 0.000213102 -1.46185e-06
0.000213102 0.000140753 -9.38564e-07
-1.46185e-06 -9.38564e-07 6.79262e-05
0.00182116 0.000267039 2.31705e-07
0.000267039 0.000143766 2.42142e-06
2.31705e-07 2.42142e-06 1.21981e-05
0.00150134 0.000155171 -4.6475e-06
0.000155171 0.000498066 -2.43492e-06
-4.6475e-06 -2.43492e-06 0.000342603
0.00110497 0.000196645 -1.78098e-06
0.000196645 0.000264879 -7.2701e-06
-1.78098e-06 -7.2701e-06 5.38692e-05
0.0017633 0.000318425 1.37665e-06
0.000318425 0.000199396 1.43426e-06
1.37665e-06 1.43426e-06 1.05632e-05
0.00196256 0.000313345 1.17613e-07
0.000313345 0.000523681 -4.02776e-08
1.17613e-07 -4.02776e-08 0.000277294
0.000708787 3.13708e-05 6.61208e-07
3.13708e-05 6.79206e-05 -7.41159e-07
6.61208e-07 -7.41159e-07 -2.7931e-05
0.00190075 0.000163175 -4.48103e-08
0.000163175 3.50991e-05 -9.48508e-08
-4.48103e-08 -9.48508e-08 -5.99062e-06
0.000946432 0.000138263 7.70866e-07
0.000138263 0.000227231 1.731e-06
7.70866e-07 1.731e-06 7.32736e-05
0.000775163 0.000179517 9.63543e-07
0.000179517 4.30734e-05 6.67713e-08
9.63543e-07 6.67713e-08 -0.0001681
0.00211533 0.000253432 2.59423e-06
0.000253432 0.000205475 1.77371e-07
2.59423e-06 1.77371e-07 0.000120408
0.00150582 0.000323827 -5.62709e-07
0.000323827 -9.74528e-06 -1.70665e-06
-5.62709e-07 -1.70665e-06 -0.000185255
0.00206987 0.000346436 4.55599e-07
0.000346436 0.000519255 3.08586e-07
4.55599e-07 3.08586e-07 0.000275222
0.00129456 8.4175e-05 -2.51624e-06
8.4175e-05 0.000417033 2.18284e-06
-2.51624e-06 2.18284e-06 0.000292498
0.00236192 0.000179272 -2.71804e-05
0.000179272 0.000327345 -4.432e-06
-2.71804e-05 -4.432e-06 0.000315035
0.00230713 0.000289099 -3.8665e-06
0.000289099 0.000960749 2.29089e-07
-3.8665e-06 2.29089e-07 0.000774249
0.00231228 0.000326579 -6.39075e-06
0.000326579 0.000824951 1.61437e-06
-6.39075e-06 1.61437e-06 0.000592941
0.00176521 0.000342234 -1.03003e-05
0.000342234 3.06014e-05 -9.14157e-06
-1.03003e-05 -9.14157e-06 -8.25984e-05
0.00133957 0.000319799 -9.07494e-06
0.000319799 4.70629e-05 -7.5117e-07
-9.07494e-06 -7.5117e-07 -0.000176577
0.000443895 0.000200597 1.68574e-05
0.000200597 -0.000563134 -6.0299e-06
1.68574e-05 -6.0299e-06 -0.000768461
0.000686715 1.76309e-05 3.01439e-07
1.76309e-05 5.22271e-05 -2.52866e-07
3.01439e-07 -2.52866e-07 -3.2536e-05
0.000763369 6.18585e-07 -2.12681e-07
6.18585e-07 0.000105105 5.20976e-07
-2.12681e-07 5.20976e-07 1.78064e-05
0.00108112 1.75973e-05 6.8972e-07
1.75973e-05 0.000267843 -7.9163e-07
6.8972e-07 -7.9163e-07 0.000177157
0.000692233 -5.39975e-05 -2.15417e-07
-5.39975e-05 4.49351e-05 -1.5163e-06
-2.15417e-07 -1.5163e-06 -2.91562e-05
0.000642694 -4.59013e-05 -1.21793e-06
-4.59013e-05 2.19189e-05 1.67051e-07
-1.21793e-06 1.67051e-07 -6.38856e-05
0.00087743 9.312e-05 -4.41755e-07
9.312e-05 0.000166342 5.09821e-07
-4.41755e-07 5.09821e-07 6.86294e-05
0.000545549 -3.63377e-05 -9.01881e-07
-3.63377e-05 -3.11943e-05 5.77041e-07
-9.01881e-07 5.77041e-07 -0.000118723
0.000701557 -2.44298e-05 2.62542e-08
-2.44298e-05 4.93808e-05 -1.76596e-08
2.62542e-08 -1.76596e-08 -2.61456e-05
0.00067906 2.45846e-05 -6.75932e-08
2.45846e-05 3.52011e-05 -2.56276e-07
-6.75932e-08 -2.56276e-07 -5.23627e-05
0.00082435 -3.43167e-06 -4.4873e-07
-3.43167e-06 0.000105743 -5.27897e-07
-4.4873e-07 -5.27897e-07 2.13539e-05
0.00079337 2.57943e-06 3.29978e-07
2.57943e-06 0.000105004 3.76646e-08
3.29978e-07 3.76646e-08 1.24773e-05
0.000814155 -2.51667e-05 -1.61279e-07
-2.51667e-05 0.00011196 -7.90057e-08
-1.61279e-07 -7.90057e-08 2.31266e-05
0.000851257 -5.15878e-06 1.51204e-07
-5.15878e-06 0.000113581 -9.15473e-07
1.51204e-07 -9.15473e-07 3.00704e-05
0.000859514 1.59858e-05 -3.19337e-07
1.59858e-05 0.000130786 -1.11611e-06
-3.19337e-07 -1.11611e-06 3.56429e-05
0.00083499 4.62318e-05 3.88855e-07
4.62318e-05 0.000120677 2.053e-07
3.88855e-07 2.053e-07 3.02441e-05
0.000719045 3.23042e-05 2.70021e-07
3.23042e-05 6.69878e-05 6.21658e-07
2.70021e-07 6.21658e-07 -3.27946e-05
0.000580545 -1.56904e-05 -1.40835e-07
-1.56904e-05 -3.14225e-05 1.56698e-06
-1.40835e-07 1.56698e-06 -0.000103417
0.000890177 -1.31281e-05 3.15826e-07
-1.31281e-05 0.000179496 -9.06277e-07
3.15826e-07 -9.06277e-07 7.7678e-05
0.000542075 -1.96172e-06 -5.76088e-07
-1.96172e-06 -4.81544e-05 1.61733e-06
-5.76088e-07 1.61733e-06 -0.000124013
0.000642627 9.43375e-06 -5.44264e-07
9.43375e-06 -3.64401e-06 1.66559e-06
-5.44264e-07 1.66559e-06 -4.942e-05
0.000651317 1.1984e-05 5.02298e-07
1.1984e-05 3.45844e-07 4.75346e-09
5.02298e-07 4.75346e-09 -4.44166e-05
0.000619718 1.65711e-06 1.47044e-07
1.65711e-06 -4.23296e-05 3.57975e-06
1.47044e-07 3.57975e-06 -5.37939e-05
0.000660818 -3.74035e-06 -6.58368e-07
-3.74035e-06 3.54064e-06 -1.85778e-06
-6.58368e-07 -1.85778e-06 -4.04695e-05
0.000974147 -5.65721e-06 -1.72685e-06
-5.65721e-06 0.000162566 -1.57643e-06
-1.72685e-06 -1.57643e-06 0.000153558
0.00225671 -1.14674e-05 7.21755e-06
-1.14674e-05 0.000907137 4.91416e-06
7.21755e-06 4.91416e-06 0.000925011
0.00134688 -1.44157e-05 -2.90441e-06
-1.44157e-05 0.000379347 -5.15365e-06
-2.90441e-06 -5.15365e-06 0.000372365
0.000862202 -1.54979e-05 2.06058e-06
-1.54979e-05 0.000101639 3.02798e-06
2.06058e-06 3.02798e-06 0.000112039
0.00081217 -2.17712e-05 -6.7472e-07
-2.17712e-05 7.58013e-05 -1.95053e-06
-6.7472e-07 -1.95053e-06 8.57852e-05
0.000665196 1.03874e-05 -3.74118e-07
1.03874e-05 4.17444e-06 -2.05336e-06
-3.74118e-07 -2.05336e-06 -3.28652e-05
0.000687046 -2.33182e-06 4.906e-07
-2.33182e-06 1.55974e-05 -4.63943e-08
4.906e-07 -4.63943e-08 -2.31537e-05
0.000635947 2.03198e-05 3.2943e-07
2.03198e-05 -2.92598e-05 -3.6304e-06
3.2943e-07 -3.6304e-06 -3.77416e-05
0.000947557 3.16185e-05 -4.45981e-07
3.16185e-05 0.000155473 4.17956e-08
-4.45981e-07 4.17956e-08 0.000146072
0.00216127 4.63177e-05 1.60477e-05
4.63177e-05 0.000864027 -4.29763e-06
1.60477e-05 -4.29763e-06 0.000879681
0.000623459 3.53532e-05 -2.50961e-07
3.53532e-05 -2.54723e-05 4.02567e-06
-2.50961e-07 4.02567e-06 -4.03816e-05
0.00227701 6.03139e-05 -2.6719e-06
6.03139e-05 0.000938379 -1.50536e-07
-2.6719e-06 -1.50536e-07 0.00095093
0.00247019 7.48869e-05 -2.73589e-05
7.48869e-05 0.00105795 3.99874e-06
-2.73589e-05 3.99874e-06 0.00106679
0.00186233 0.000166255 -2.84133e-06
0.000166255 6.10214e-05 -7.6569e-07
-2.84133e-06 -7.6569e-07 -1.10006e-05
0.0019484 7.54379e-05 -2.64292e-08
7.54379e-05 0.000122355 -1.41696e-07
-2.64292e-08 -1.41696e-07 6.57369e-05
0.00176992 1.71655e-06 -1.84286e-07
1.71655e-06 8.74757e-05 -3.33137e-07
-1.84286e-07 -3.33137e-07 7.23289e-06
0.00176095 6.59537e-06 1.37384e-07
6.59537e-06 1.03719e-05 -2.34042e-07
1.37384e-07 -2.34042e-07 -3.90943e-05
0.00186584 0.000107746 -4.20147e-07
0.000107746 2.93188e-05 -2.51652e-07
-4.20147e-07 -2.51652e-07 -1.7097e-05
0.00176858 5.78546e-05 2.56878e-06
5.78546e-05 -1.34398e-05 1.06615e-06
2.56878e-06 1.06615e-06 -9.30308e-06
0.00187354 1.5987e-05 1.49596e-06
1.5987e-05 8.29819e-06 -9.90969e-08
1.49596e-06 -9.90969e-08 -1.43461e-06
0.00276473 0.000183577 2.27964e-05
0.000183577 8.06457e-05 -1.05702e-06
2.27964e-05 -1.05702e-06 5.64477e-05
0.00194094 3.1628e-05 -2.2502e-05
3.1628e-05 0.000208259 1.39886e-06
-2.2502e-05 1.39886e-06 0.00023891
0.000692582 6.28854e-05 -6.73413e-07
6.28854e-05 4.56205e-05 -1.34288e-06
-6.73413e-07 -1.34288e-06 -1.89844e-05
0.00174642 -7.11268e-05 -2.08392e-06
-7.11268e-05 1.01533e-05 -3.28523e-07
-2.08392e-06 -3.28523e-07 -4.64839e-05
0.00189961 -0.000159334 4.82482e-07
-0.000159334 0.000105305 1.01535e-06
4.82482e-07 1.01535e-06 4.48762e-05
0.00160203 -0.000190034 1.3683e-06
-0.000190034 -5.47875e-05 1.21864e-06
1.3683e-06 1.21864e-06 -0.000127855
0.000627407 -0.000172511 2.6442e-06
-0.000172511 -4.12951e-05 6.64247e-06
2.6442e-06 6.64247e-06 -0.000217115
0.00124592 -0.000280379 1.80225e-06
-0.000280379 0.000138505 6.09718e-06
1.80225e-06 6.09718e-06 -0.000134871
0.00134366 -0.000304407 -8.40183e-07
-0.000304407 -1.01908e-05 -6.83381e-06
-8.40183e-07 -6.83381e-06 -0.000213711
0.00192237 -0.000313161 -5.71763e-06
-0.000313161 0.000150669 -3.05787e-06
-5.71763e-06 -3.05787e-06 3.13978e-05
0.00150994 -0.000209511 9.71972e-06
-0.000209511 0.000393912 -3.26704e-06
9.71972e-06 -3.26704e-06 0.000247371
0.000476483 -0.000143288 6.91668e-06
-0.000143288 -6.50271e-05 -7.33907e-06
6.91668e-06 -7.33907e-06 -0.000206935
0.000912914 -9.95632e-05 1.66304e-08
-9.95632e-05 0.000187821 -1.75517e-06
1.66304e-08 -1.75517e-06 4.41112e-05
0.0006678 -5.66455e-06 -1.28146e-06
-5.66455e-06 6.96211e-06 2.08883e-06
-1.28146e-06 2.08883e-06 -3.431e-05
0.000815082 -1.04338e-05 3.42893e-07
-1.04338e-05 0.000133868 5.83463e-07
3.42893e-07 5.83463e-07 1.1741e-05
0.000995824 -5.03343e-05 5.68741e-07
-5.03343e-05 0.000232373 4.78352e-07
5.68741e-07 4.78352e-07 0.000150476
0.000771064 -1.89759e-05 -7.23849e-07
-1.89759e-05 0.000112389 7.44784e-07
-7.23849e-07 7.44784e-07 1.51569e-06
0.000487474 -1.62432e-05 -1.17682e-06
-1.62432e-05 -8.191e-05 1.64392e-06
-1.17682e-06 1.64392e-06 -0.000147185
0.00190018 -9.07061e-05 -8.02621e-08
-9.07061e-05 1.79891e-05 3.67915e-08
-8.02621e-08 3.67915e-08 -1.54578e-05
0.000582845 3.31942e-05 9.42476e-08
3.31942e-05 -1.33023e-05 -9.84177e-07
9.42476e-08 -9.84177e-07 -8.40249e-05
0.000723081 -5.433e-05 9.42315e-08
-5.433e-05 6.70851e-05 2.58432e-07
9.42315e-08 2.58432e-07 -8.08777e-06
0.000807519 -3.80272e-05 -4.61367e-07
-3.80272e-05 0.000125385 7.5701e-07
-4.61367e-07 7.5701e-07 3.06833e-05
0.00178867 -0.000173296 8.99243e-07
-0.000173296 2.08002e-06 -2.05876e-07
8.99243e-07 -2.05876e-07 -2.89621e-05
0.00197556 -0.000294316 -1.21474e-06
-0.000294316 8.85568e-05 -4.99673e-07
-1.21474e-06 -4.99673e-07 1.01156e-05
0.00095144 -0.000181888 2.91649e-06
-0.000181888 0.000105755 2.2465e-08
2.91649e-06 2.2465e-08 -7.08754e-05
0.00174825 -0.000354294 3.67227e-06
-0.000354294 0.000382068 -9.65187e-08
3.67227e-06 -9.65187e-08 9.85192e-05
0.00179393 -0.000363976 2.13994e-07
-0.000363976 0.000135817 1.42429e-06
2.13994e-07 1.42429e-06 -1.18848e-05
0.000610121 -9.08685e-06 -2.75198e-07
-9.08685e-06 2.43854e-05 -5.83448e-08
-2.75198e-07 -5.83448e-08 -8.43776e-05
0.000825449 -5.52083e-05 -8.53395e-07
-5.52083e-05 0.000139165 2.56124e-07
-8.53395e-07 2.56124e-07 2.317e-05
0.000635302 -0.00020101 -4.27911e-06
-0.00020101 -5.54399e-05 1.03767e-06
-4.27911e-06 1.03767e-06 -0.000215049
0.000623734 -9.07585e-05 -1.2914e-07
-9.07585e-05 9.3676e-05 -6.38267e-07
-1.2914e-07 -6.38267e-07 -0.000111843
0.000788295 -6.70505e-05 -2.12666e-07
-6.70505e-05 9.35879e-05 -2.5883e-08
-2.12666e-07 -2.5883e-08 -3.72949e-05
0.00213545 -0.000175307 -4.73885e-06
-0.000175307 0.000130511 -3.71879e-07
-4.73885e-06 -3.71879e-07 0.000111984
0.00183415 -0.000193307 -5.50252e-06
-0.000193307 -1.09492e-05 1.31759e-06
-5.50252e-06 1.31759e-06 -2.17302e-05
0.00227957 -0.000401631 -3.03502e-06
-0.000401631 0.00026595 -2.92642e-07
-3.03502e-06 -2.92642e-07 0.000148619
0.00282615 -0.000462009 -1.90145e-05
-0.000462009 0.00082257 2.98224e-06
-1.90145e-05 2.98224e-06 0.000616174
0.000938624 -0.000196002 -8.01511e-06
-0.000196002 0.000135191 -2.76526e-06
-8.01511e-06 -2.76526e-06 -7.57992e-05
0.000494257 2.04166e-05 1.03744e-06
2.04166e-05 -5.62192e-05 -2.27726e-06
1.03744e-06 -2.27726e-06 -0.000147127
0.000487121 4.69921e-05 6.95625e-07
4.69921e-05 -6.33043e-05 -7.2973e-07
6.95625e-07 -7.2973e-07 -0.000160858
0.000688756 8.27958e-06 9.26239e-07
8.27958e-06 6.44666e-05 -1.10885e-06
9.26239e-07 -1.10885e-06 -4.18343e-05
0.00111094 -0.000116296 9.34744e-07
-0.000116296 0.000317491 1.27593e-06
9.34744e-07 1.27593e-06 0.000195549
0.000710025 -4.53526e-05 9.6604e-07
-4.53526e-05 5.61211e-05 1.47964e-06
9.6604e-07 1.47964e-06 -5.57446e-05
0.000315031 -5.67942e-05 2.65449e-06
-5.67942e-05 -8.61248e-05 3.77262e-07
2.65449e-06 3.77262e-07 -0.000285387
0.000610163 -0.000205537 4.97187e-06
-0.000205537 9.17073e-05 1.24864e-06
4.97187e-06 1.24864e-06 -0.000163678
0.000744374 6.2779e-05 9.67592e-07
6.2779e-05 9.8367e-05 -3.00797e-06
9.67592e-07 -3.00797e-06 -6.02734e-06
0.000429244 6.76985e-05 7.77738e-07
6.76985e-05 -7.26459e-05 -7.42307e-07
7.77738e-07 -7.42307e-07 -0.000212133
0.00195224 0.000158343 4.57591e-06
0.000158343 5.59028e-05 -4.80877e-07
4.57591e-06 -4.80877e-07 2.24872e-05
0.00179592 0.000241397 8.21759e-06
0.000241397 2.97083e-05 1.18041e-06
8.21759e-06 1.18041e-06 -5.49677e-05
0.00179442 0.000338491 6.82088e-06
0.000338491 0.000146865 2.24174e-06
6.82088e-06 2.24174e-06 -2.70197e-05
0.000403862 0.000151218 1.4089e-06
0.000151218 -0.000167046 -1.34747e-06
1.4089e-06 -1.34747e-06 -0.00037637
0.0024253 0.000375367 3.65147e-06
0.000375367 0.000726059 1.25577e-06
3.65147e-06 1.25577e-06 0.000480492
0.00121751 6.81099e-05 -2.73377e-07
6.81099e-05 0.000366017 5.84993e-07
-2.73377e-07 5.84993e-07 0.000250447
0.00204542 0.000155669 -2.19746e-06
0.000155669 0.000162704 -2.18016e-08
-2.19746e-06 -2.18016e-08 0.000157891
0.00140969 0.000205976 -1.37496e-06
0.000205976 0.000457256 -4.32775e-07
-1.37496e-06 -4.32775e-07 0.000285747
0.00163844 0.00027332 -7.59026e-07
0.00027332 0.000472464 1.42243e-06
-7.59026e-07 1.42243e-06 0.000236896
0.00191563 0.000339077 -5.09836e-07
0.000339077 0.000115169 -2.3342e-06
-5.09836e-07 -2.3342e-06 5.05869e-06
0.00152359 0.000339377 -1.29101e-06
0.000339377 0.000145699 2.90773e-06
-1.29101e-06 2.90773e-06 -8.45785e-05
0.0016013 0.000257835 2.44138e-05
0.000257835 -0.000190612 9.93689e-07
2.44138e-05 9.93689e-07 -0.00046384
0.00120544 0.000121289 -3.13282e-06
0.000121289 0.000367926 -1.22539e-06
-3.13282e-06 -1.22539e-06 0.000234101
0.00230804 0.000253575 -3.39961e-05
0.000253575 0.000329436 -1.6335e-05
-3.39961e-05 -1.6335e-05 0.000331648
0.00126241 0.000217162 -5.73338e-06
0.000217162 0.000350999 -9.55464e-07
-5.73338e-06 -9.55464e-07 0.000173728
0.00107645 0.000261261 -4.17063e-06
0.000261261 8.07715e-05 -1.19265e-06
-4.17063e-06 -1.19265e-06 -0.000161892
0.000491658 0.000349176 -9.61423e-06
0.000349176 -0.000536937 -7.48033e-06
-9.61423e-06 -7.48033e-06 -0.000727557
0.0088693 0.000230293 -0.000127588
0.000230293 0.00233565 -3.89405e-05
-0.000127588 -3.89405e-05 0.00138629
0.00479107 0.000522369 0.000118128
0.000522369 0.000768731 -7.36086e-06
0.000118128 -7.36086e-06 0.000182418
0.00100216 0.00036449 1.74433e-05
0.00036449 -0.000183929 1.70038e-05
1.74433e-05 1.70038e-05 -0.000336616
-0.00467335 -0.000475787 0.00019444
-0.000475787 -0.00164104 -4.69421e-06
0.00019444 -4.69421e-06 -0.00234643
0.00539352 -0.00135227 -1.22214e-05
-0.00135227 0.000895219 3.675e-06
-1.22214e-05 3.675e-06 0.00246869
0.000663602 8.04862e-06 1.07592e-06
8.04862e-06 5.15648e-05 -1.64085e-07
1.07592e-06 -1.64085e-07 -3.65263e-05
0.000880216 1.03494e-06 8.05502e-07
1.03494e-06 0.000163746 -4.58499e-07
8.05502e-07 -4.58499e-07 7.33371e-05
0.000901508 5.36612e-05 -1.17431e-06
5.36612e-05 0.000163843 -2.09354e-06
-1.17431e-06 -2.09354e-06 7.15718e-05
0.00068479 -5.73585e-05 1.42049e-07
-5.73585e-05 4.60044e-05 -1.28872e-06
1.42049e-07 -1.28872e-06 -3.35187e-05
0.000648956 5.22829e-05 -1.10471e-06
5.22829e-05 2.04627e-05 -6.69002e-07
-1.10471e-06 -6.69002e-07 -6.96305e-05
0.000796538 -3.52192e-05 -2.32159e-09
-3.52192e-05 0.000107936 -2.5965e-07
-2.32159e-09 -2.5965e-07 1.49984e-05
0.000872159 -5.39919e-07 -1.49279e-06
-5.39919e-07 0.000142548 8.75711e-07
-1.49279e-06 8.75711e-07 5.40862e-05
0.000758314 -1.29012e-05 -1.08537e-06
-1.29012e-05 6.96722e-05 -4.37537e-07
-1.08537e-06 -4.37537e-07 -1.67136e-05
0.000769288 5.97372e-05 -1.04474e-06
5.97372e-05 9.25123e-05 -3.30424e-07
-1.04474e-06 -3.30424e-07 -5.42105e-06
0.000634382 -6.88943e-06 -8.08782e-08
-6.88943e-06 4.47085e-06 6.63745e-07
-8.08782e-08 6.63745e-07 -6.97532e-05
0.000724057 2.06982e-05 1.71624e-09
2.06982e-05 6.73914e-05 -1.03134e-08
1.71624e-09 -1.03134e-08 -3.0535e-05
0.000812874 -2.63285e-06 4.80108e-07
-2.63285e-06 9.15688e-05 6.04509e-07
4.80108e-07 6.04509e-07 7.82162e-06
0.000849508 1.89442e-05 -5.02781e-07
1.89442e-05 0.0001241 -3.26199e-07
-5.02781e-07 -3.26199e-07 3.1381e-05
0.000970068 5.71717e-05 -6.03827e-07
5.71717e-05 0.000191905 -7.70669e-07
-6.03827e-07 -7.70669e-07 9.85037e-05
0.000607702 2.20301e-05 8.27732e-07
2.20301e-05 -1.64526e-05 -1.50875e-06
8.27732e-07 -1.50875e-06 -0.000103194
0.00085959 5.5996e-05 1.34141e-06
5.5996e-05 0.000130684 3.66844e-07
1.34141e-06 3.66844e-07 3.56842e-05
0.000652609 -1.11635e-05 9.1614e-07
-1.11635e-05 1.41239e-05 2.2734e-09
9.1614e-07 2.2734e-09 -7.84918e-05
0.000568721 -4.79597e-05 -1.16616e-06
-4.79597e-05 -3.17766e-05 1.37144e-06
-1.16616e-06 1.37144e-06 -0.000109266
0.00082423 1.07077e-05 -5.92934e-07
1.07077e-05 0.000123993 -2.44406e-07
-5.92934e-07 -2.44406e-07 2.77259e-05
0.000835896 5.03169e-05 2.39067e-07
5.03169e-05 0.000129255 -1.70341e-06
2.39067e-07 -1.70341e-06 3.32371e-05
0.000701374 -3.72665e-06 -7.47212e-07
-3.72665e-06 6.35137e-05 -3.2171e-07
-7.47212e-07 -3.2171e-07 -2.93434e-05
0.000821102 -3.32574e-06 9.41068e-07
-3.32574e-06 0.000127723 -4.93759e-07
9.41068e-07 -4.93759e-07 3.29537e-05
0.000712756 -5.96302e-05 -1.72708e-06
-5.96302e-05 5.09459e-05 8.67575e-07
-1.72708e-06 8.67575e-07 -2.29733e-05
0.000563371 -5.65604e-07 1.15749e-07
-5.65604e-07 -3.31619e-05 6.65418e-07
1.15749e-07 6.65418e-07 -0.000111196
0.000661037 4.38918e-06 -8.05936e-07
4.38918e-06 4.3575e-06 1.82435e-06
-8.05936e-07 1.82435e-06 -4.12844e-05
0.000652031 -6.13686e-06 4.27407e-07
-6.13686e-06 1.08694e-06 -2.52062e-08
4.27407e-07 -2.52062e-08 -4.43047e-05
0.000643366 7.31932e-06 -3.79539e-07
7.31932e-06 -2.7102e-05 5.1657e-06
-3.79539e-07 5.1657e-06 -3.93576e-05
0.000649659 1.90444e-06 -2.17976e-07
1.90444e-06 -7.38247e-07 -1.737e-06
-2.17976e-07 -1.737e-06 -4.5274e-05
0.000627611 1.78422e-06 2.8555e-07
1.78422e-06 -3.76787e-05 -1.54605e-08
2.8555e-07 -1.54605e-08 -4.92094e-05
0.00227508 -1.23898e-06 -1.22442e-07
-1.23898e-06 0.000917202 5.01122e-06
-1.22442e-07 5.01122e-06 0.000934937
0.000659278 -3.97487e-06 -4.92208e-07
-3.97487e-06 -1.944e-05 -5.1995e-06
-4.92208e-07 -5.1995e-06 -3.05931e-05
0.00156193 -8.80621e-06 -2.23064e-07
-8.80621e-06 0.000504531 5.69966e-08
-2.23064e-07 5.69966e-08 0.00051863
0.000809381 -1.40017e-05 -1.67725e-07
-1.40017e-05 7.02836e-05 -1.93109e-06
-1.67725e-07 -1.93109e-06 8.10394e-05
0.000668871 5.19292e-06 1.88397e-07
5.19292e-06 7.08315e-06 -1.92004e-06
1.88397e-07 -1.92004e-06 -2.85109e-05
0.000676389 -5.17159e-06 2.83256e-07
-5.17159e-06 1.02589e-05 2.4555e-08
2.83256e-07 2.4555e-08 -2.67993e-05
0.000645799 1.37433e-05 1.83681e-07
1.37433e-05 -2.66636e-05 -3.49895e-06
1.83681e-07 -3.49895e-06 -3.34484e-05
0.000669187 -1.41776e-05 -1.69922e-06
-1.41776e-05 5.53684e-06 2.05961e-06
-1.69922e-06 2.05961e-06 -3.33838e-05
0.00093481 2.34024e-05 -1.34259e-07
2.34024e-05 0.000143433 -7.33877e-07
-1.34259e-07 -7.33877e-07 0.000136827
0.00209469 3.41443e-05 1.22729e-05
3.41443e-05 0.000820445 -4.43476e-06
1.22729e-05 -4.43476e-06 0.000838187
0.000624429 2.80829e-05 -4.22879e-07
2.80829e-05 -3.10026e-05 3.76752e-06
-4.22879e-07 3.76752e-06 -4.253e-05
0.0022286 4.73889e-05 -7.55957e-06
4.73889e-05 0.000904709 1.17636e-06
-7.55957e-06 1.17636e-06 0.000919747
0.00231826 6.18507e-05 -2.10623e-05
6.18507e-05 0.000962995 4.17216e-06
-2.10623e-05 4.17216e-06 0.000975075
0.00175924 0.000104534 -2.92125e-06
0.000104534 -2.17601e-05 -4.9688e-07
-2.92125e-06 -4.9688e-07 -6.91904e-05
0.00171383 9.37252e-06 -1.3757e-06
9.37252e-06 -1.33546e-05 -6.90914e-07
-1.3757e-06 -6.90914e-07 -6.31222e-05
0.00156483 5.35828e-05 9.38868e-06
5.35828e-05 -0.000133923 -6.37451e-07
9.38868e-06 -6.37451e-07 -0.000137543
0.00216203 0.000128698 2.43567e-05
0.000128698 -0.000159762 5.29852e-06
2.43567e-05 5.29852e-06 -0.000188136
0.00184709 7.38763e-06 -2.58056e-06
7.38763e-06 -5.52479e-06 -4.24299e-07
-2.58056e-06 -4.24299e-07 -1.55357e-05
0.00180548 4.06327e-05 4.15368e-06
4.06327e-05 0.0001415 -1.98835e-07
4.15368e-06 -1.98835e-07 0.000161343
0.00286748 -4.61343e-06 -2.08864e-05
-4.61343e-06 0.000711096 6.9947e-07
-2.08864e-05 6.9947e-07 0.000687939
0.00272064 -1.15006e-05 0.000133202
-1.15006e-05 -0.000289742 -1.629e-05
0.000133202 -1.629e-05 -0.00044407
0.00252943 1.33025e-05 -3.72456e-06
1.33025e-05 0.000221632 2.34971e-06
-3.72456e-06 2.34971e-06 0.000216229
0.000706615 5.91842e-05 -3.69937e-07
5.91842e-05 5.6321e-05 -1.38256e-06
-3.69937e-07 -1.38256e-06 -1.02403e-05
0.000716855 -8.7965e-06 7.23668e-07
-8.7965e-06 6.41653e-05 -1.00173e-07
7.23668e-07 -1.00173e-07 -4.47389e-06
0.000681416 -7.24556e-05 1.63061e-07
-7.24556e-05 4.85084e-05 -8.75418e-07
1.63061e-07 -8.75418e-07 -3.38718e-05
0.000718273 -2.9078e-05 -1.06705e-06
-2.9078e-05 8.28628e-05 -2.25484e-07
-1.06705e-06 -2.25484e-07 -9.10566e-06
0.00192671 -0.000100312 -3.46469e-06
-0.000100312 1.59408e-05 7.85586e-08
-3.46469e-06 7.85586e-08 -8.44619e-06
0.00177766 -0.000179107 -7.02636e-07
-0.000179107 -5.34777e-06 1.01225e-06
-7.02636e-07 1.01225e-06 -4.00106e-05
0.00197161 -0.000290803 -5.42699e-06
-0.000290803 0.000101662 3.80948e-07
-5.42699e-06 3.80948e-07 1.73841e-05
0.00145828 -0.00025062 3.20187e-06
-0.00025062 0.000376326 4.30952e-06
3.20187e-06 4.30952e-06 0.000198586
0.000329676 -0.000243059 6.81998e-06
-0.000243059 -0.000371098 -3.42544e-06
6.81998e-06 -3.42544e-06 -0.000645297
0.00220564 -0.000394497 3.6775e-06
-0.000394497 0.000363446 -3.54651e-06
3.6775e-06 -3.54651e-06 0.000208917
0.000764863 -0.00019954 -5.50113e-06
-0.00019954 3.35244e-05 -3.72407e-07
-5.50113e-06 -3.72407e-07 -0.000142582
0.00143793 -0.000107446 -9.04105e-07
-0.000107446 0.000516772 -1.81558e-06
-9.04105e-07 -1.81558e-06 0.000333913
0.000588971 -8.28588e-05 -1.71109e-06
-8.28588e-05 -1.8948e-05 1.32598e-06
-1.71109e-06 1.32598e-06 -0.000147666
0.000732631 -2.68368e-05 -8.1196e-07
-2.68368e-05 6.7963e-05 1.75693e-06
-8.1196e-07 1.75693e-06 -3.8343e-06
0.000590776 -6.46471e-05 -8.49245e-07
-6.46471e-05 1.17752e-05 1.82233e-08
-8.49245e-07 1.82233e-08 -0.000110192
0.000788287 -1.07659e-05 -9.04937e-07
-1.07659e-05 0.000124417 4.81756e-07
-9.04937e-07 4.81756e-07 1.77143e-05
0.000720158 4.46816e-06 1.36457e-07
4.46816e-06 6.97418e-05 9.7333e-07
1.36457e-07 9.7333e-07 -2.57025e-06
0.00062665 1.58456e-05 -1.485e-06
1.58456e-05 2.52794e-05 2.75063e-06
-1.485e-06 2.75063e-06 -7.20493e-05
0.0020709 -0.000156584 9.93387e-07
-0.000156584 0.000115592 5.70682e-07
9.93387e-07 5.70682e-07 9.99145e-05
0.000704092 3.81342e-07 8.58968e-07
3.81342e-07 7.04165e-05 -4.76282e-07
8.58968e-07 -4.76282e-07 -2.24682e-05
0.000681023 9.10644e-06 1.12581e-06
9.10644e-06 5.36248e-05 -2.16212e-07
1.12581e-06 -2.16212e-07 -4.60833e-05
0.000606609 6.10037e-05 -1.55043e-07
6.10037e-05 2.25422e-05 1.46986e-06
-1.55043e-07 1.46986e-06 -8.12134e-05
0.00183647 -0.000195781 -1.90374e-06
-0.000195781 -2.77633e-05 -8.39885e-07
-1.90374e-06 -8.39885e-07 -4.38936e-05
0.0019302 -0.0003761 1.37158e-06
-0.0003761 8.48871e-05 -3.02058e-07
1.37158e-06 -3.02058e-07 -2.51488e-05
0.00115544 -0.000248484 -6.4304e-07
-0.000248484 0.000235086 -1.12188e-06
-6.4304e-07 -1.12188e-06 2.01705e-05
0.00239495 -0.000434022 -3.87457e-06
-0.000434022 0.000591489 1.59111e-06
-3.87457e-06 1.59111e-06 0.000386029
0.00103273 -5.31471e-05 -6.66176e-07
-5.31471e-05 0.000263027 3.44187e-07
-6.66176e-07 3.44187e-07 0.000146105
0.000655362 -6.32099e-05 -3.34499e-07
-6.32099e-05 2.63859e-05 1.0209e-06
-3.34499e-07 1.0209e-06 -9.28319e-05
0.000974205 -0.000237288 2.73616e-06
-0.000237288 0.000295754 -6.30425e-07
2.73616e-06 -6.30425e-07 3.73903e-05
0.000989168 -0.000120417 5.30245e-07
-0.000120417 0.000279386 -1.08615e-08
5.30245e-07 -1.08615e-08 7.63308e-05
0.00197215 -0.000148006 -1.61943e-05
-0.000148006 2.40246e-05 1.23374e-06
-1.61943e-05 1.23374e-06 2.90867e-05
0.00222818 -0.00031397 -1.44344e-05
-0.00031397 0.00013927 3.74524e-06
-1.44344e-05 3.74524e-06 0.000156443
0.00264463 -0.000475882 -1.12238e-05
-0.000475882 0.000573115 -4.35648e-06
-1.12238e-05 -4.35648e-06 0.00040194
0.0017668 -0.000370259 -2.38808e-06
-0.000370259 0.000484642 4.66108e-06
-2.38808e-06 4.66108e-06 0.000277566
0.000634977 1.64706e-05 -6.53057e-07
1.64706e-05 4.27787e-05 -2.77671e-06
-6.53057e-07 -2.77671e-06 -7.31099e-05
0.000647282 -6.99139e-05 1.27866e-06
-6.99139e-05 4.98794e-05 -3.15969e-06
1.27866e-06 -3.15969e-06 -7.14284e-05
0.000617719 -7.23429e-05 5.58742e-07
-7.23429e-05 5.87196e-05 1.21503e-06
5.58742e-07 1.21503e-06 -7.60537e-05
0.000576629 -7.49239e-05 1.54475e-06
-7.49239e-05 0.000163127 -1.94985e-06
1.54475e-06 -1.94985e-06 -0.000143632
0.000440227 -0.000248682 2.09936e-05
-0.000248682 -0.00230989 -8.47957e-07
2.09936e-05 -8.47957e-07 -0.00280225
0.00108317 5.11747e-05 9.72193e-07
5.11747e-05 0.000285107 -2.55292e-06
9.72193e-07 -2.55292e-06 0.000177168
0.000430491 0.00012107 2.89052e-06
0.00012107 -8.7964e-05 5.57161e-07
2.89052e-06 5.57161e-07 -0.00024544
0.00177362 0.000137455 2.94256e-05
0.000137455 2.28544e-05 3.8592e-06
2.94256e-05 3.8592e-06 2.45538e-05
0.00206321 0.000336171 1.01196e-05
0.000336171 0.00019773 3.56915e-06
1.01196e-05 3.56915e-06 8.97603e-05
0.00167171 0.000357286 5.16614e-06
0.000357286 0.000224903 4.26503e-06
5.16614e-06 4.26503e-06 -1.33233e-05
0.000833133 0.000208996 4.35562e-06
0.000208996 4.80702e-05 1.85453e-06
4.35562e-06 1.85453e-06 -0.000190876
0.00274893 0.000326874 3.77645e-05
0.000326874 0.00019821 9.54119e-06
3.77645e-05 9.54119e-06 -0.000155313
0.00107476 0.000101278 1.39178e-06
0.000101278 0.000299346 -3.42578e-07
1.39178e-06 -3.42578e-07 0.000167704
0.00235467 0.000256727 -9.04737e-06
0.000256727 0.000347959 -1.45913e-06
-9.04737e-06 -1.45913e-06 0.000358556
0.0010537 0.000199848 8.06553e-07
0.000199848 0.000246137 -1.76563e-07
8.06553e-07 -1.76563e-07 7.18218e-05
0.00123021 0.00028388 2.99609e-07
0.00028388 0.000169187 -4.40699e-07
2.99609e-07 -4.40699e-07 -7.74158e-05
0.00142178 0.000413346 -3.90943e-06
0.000413346 -7.33019e-05 -1.5856e-06
-3.90943e-06 -1.5856e-06 -0.000258221
0.0031131 -0.000163883 -7.92427e-05
-0.000163883 -0.000721084 -2.66843e-05
-7.92427e-05 -2.66843e-05 -0.00165614
0.00468331 0.000417899 -3.83118e-06
0.000417899 0.000479291 -2.24067e-05
-3.83118e-06 -2.24067e-05 -0.000204414
0.00023417 0.000271725 1.40101e-06
0.000271725 -0.000501781 7.53669e-06
1.40101e-06 7.53669e-06 -0.000678107
-0.000876719 -0.000367679 9.7272e-05
-0.000367679 0.000614178 3.58035e-05
9.7272e-05 3.58035e-05 -0.000307431
-0.000562931 -0.00133172 -4.63008e-05
-0.00133172 -0.00138958 -6.47842e-05
-4.63008e-05 -6.47842e-05 0.000361751
0.00112672 0.000145637 -3.51334e-06
0.000145637 0.000326753 -4.2229e-06
-3.51334e-06 -4.2229e-06 0.00020207
0.000365586 0.000275456 6.23748e-05
0.000275456 0.00106611 -2.86003e-05
6.23748e-05 -2.86003e-05 0.000259113
0.00134246 -0.000472465 -6.81601e-05
-0.000472465 0.00160585 -0.000105797
-6.81601e-05 -0.000105797 0.000890235
0.00284564 0.000388336 -2.47703e-05
0.000388336 0.000679249 -9.91226e-06
-2.47703e-05 -9.91226e-06 0.000690458
0.00117875 0.000142285 -1.20039e-05
0.000142285 0.000307445 -1.86216e-06
-1.20039e-05 -1.86216e-06 0.000126659
0.000697135 0.000377427 -1.6965e-05
0.000377427 -0.000158235 -1.17266e-05
-1.6965e-05 -1.17266e-05 -0.000427291
-5.09988e-05 0.000317385 2.447e-05
0.000317385 -0.00066649 5.43704e-05
2.447e-05 5.43704e-05 -0.00074875
0.00968144 0.00033022 -3.49085e-05
0.00033022 0.00323548 -2.44431e-05
-3.49085e-05 -2.44431e-05 0.00177306
0.00361095 0.000727126 1.30603e-06
0.000727126 0.000845792 1.12978e-05
1.30603e-06 1.12978e-05 -0.000354803
0.00139967 -0.00113892 0.000123605
-0.00113892 -0.000384821 9.77835e-05
0.000123605 9.77835e-05 7.25919e-05
0.00272017 -0.000679778 2.04552e-06
-0.000679778 -0.00153826 0.000140295
2.04552e-06 0.000140295 -9.92623e-05
0.000740657 -7.23522e-06 7.85955e-07
-7.23522e-06 9.35446e-05 -1.17076e-06
7.85955e-07 -1.17076e-06 3.24197e-06
0.000887591 5.36249e-05 7.77803e-07
5.36249e-05 0.000161195 9.76314e-07
7.77803e-07 9.76314e-07 6.7754e-05
0.00126866 0.000104535 -1.75802e-06
0.000104535 0.000382931 -3.16488e-06
-1.75802e-06 -3.16488e-06 0.000304671
0.000688934 3.88369e-06 3.19409e-07
3.88369e-06 4.9531e-05 -2.95821e-07
3.19409e-07 -2.95821e-07 -3.27411e-05
0.000771655 2.54797e-05 -7.30699e-08
2.54797e-05 9.29031e-05 -7.37234e-07
-7.30699e-08 -7.37234e-07 -3.70373e-06
0.000605372 -1.78221e-05 -8.13779e-07
-1.78221e-05 -1.04438e-05 -1.16695e-07
-8.13779e-07 -1.16695e-07 -0.000100669
0.000832515 2.32357e-05 -8.21961e-07
2.32357e-05 0.000113881 1.87445e-07
-8.21961e-07 1.87445e-07 2.31936e-05
0.000785194 -8.29576e-07 -7.3046e-07
-8.29576e-07 7.53489e-05 3.60648e-07
-7.3046e-07 3.60648e-07 -8.68541e-06
0.000555608 -1.08039e-06 4.25557e-07
-1.08039e-06 -3.68011e-05 6.78842e-07
4.25557e-07 6.78842e-07 -0.000116053
0.000859955 1.86506e-05 1.65591e-08
1.86506e-05 0.000129649 -4.17614e-08
1.65591e-08 -4.17614e-08 3.66637e-05
0.00084834 1.61169e-05 3.05274e-08
1.61169e-05 0.000125612 2.73356e-07
3.05274e-08 2.73356e-07 3.04024e-05
0.000733843 1.74766e-05 5.88931e-07
1.74766e-05 7.28802e-05 -3.56466e-07
5.88931e-07 -3.56466e-07 -2.69275e-05
0.000635076 2.50423e-05 -1.04848e-07
2.50423e-05 -1.32543e-06 5.32228e-08
-1.04848e-07 5.32228e-08 -8.74388e-05
0.00101405 2.27221e-05 7.17928e-08
2.27221e-05 0.00021486 -1.02402e-06
7.17928e-08 -1.02402e-06 0.000125076
0.000461985 4.29867e-05 -1.14828e-06
4.29867e-05 -8.86639e-05 -4.52418e-06
-1.14828e-06 -4.52418e-06 -0.000178791
0.000795052 -6.61362e-05 -2.38614e-07
-6.61362e-05 9.29921e-05 -4.89692e-08
-2.38614e-07 -4.89692e-08 -7.17673e-06
0.000821832 -5.41873e-05 -7.62281e-07
-5.41873e-05 0.000126625 -9.61149e-07
-7.62281e-07 -9.61149e-07 2.3268e-05
0.00083338 -1.84664e-05 -5.20994e-07
-1.84664e-05 0.000132876 -3.242e-07
-5.20994e-07 -3.242e-07 3.326e-05
0.00085 2.92137e-05 -4.61354e-07
2.92137e-05 0.000130599 -3.1014e-07
-4.61354e-07 -3.1014e-07 3.87642e-05
0.000839736 1.49273e-05 -1.04791e-06
1.49273e-05 0.000138634 -1.75489e-06
-1.04791e-06 -1.75489e-06 3.01246e-05
0.000763117 3.76588e-05 7.48198e-07
3.76588e-05 9.04101e-05 -8.59352e-07
7.48198e-07 -8.59352e-07 -2.78961e-06
0.00055222 6.59345e-06 7.43503e-07
6.59345e-06 -5.11623e-05 -1.80286e-06
7.43503e-07 -1.80286e-06 -0.000133432
0.000663186 3.54024e-05 1.29821e-06
3.54024e-05 3.90515e-05 7.20725e-07
1.29821e-06 7.20725e-07 -5.40487e-05
0.000709909 -1.67562e-05 3.68494e-08
-1.67562e-05 5.33287e-05 1.41566e-08
3.68494e-08 1.41566e-08 -2.70355e-05
0.000738018 -1.91184e-05 -1.95546e-07
-1.91184e-05 7.97966e-05 -6.63261e-10
-1.95546e-07 -6.63261e-10 -1.0492e-05
0.000707143 -2.42728e-05 -1.35504e-06
-2.42728e-05 4.06062e-05 6.19448e-07
-1.35504e-06 6.19448e-07 -2.65135e-05
0.000744141 -1.04492e-05 1.01861e-06
-1.04492e-05 6.96588e-05 -2.03593e-07
1.01861e-06 -2.03593e-07 -1.68501e-05
0.000670864 -5.43825e-05 -9.81903e-09
-5.43825e-05 2.55811e-05 1.0198e-07
-9.81903e-09 1.0198e-07 -4.84855e-05
0.000682466 5.92665e-06 -1.27899e-06
5.92665e-06 1.37226e-05 1.87651e-06
-1.27899e-06 1.87651e-06 -3.17943e-05
0.000568182 -1.25247e-06 8.42216e-07
-1.25247e-06 -2.46513e-05 -3.09949e-07
8.42216e-07 -3.09949e-07 -0.000106563
0.000664612 7.06452e-06 5.64235e-07
7.06452e-06 6.93304e-06 -2.36351e-08
5.64235e-07 -2.36351e-08 -3.90985e-05
0.00136872 1.68699e-05 -2.76045e-06
1.68699e-05 0.000394179 5.1051e-06
-2.76045e-06 5.1051e-06 0.000385326
0.000656429 1.64214e-05 4.39313e-10
1.64214e-05 3.44265e-06 -1.67463e-06
4.39313e-10 -1.67463e-06 -4.1896e-05
0.000999476 8.90432e-06 -1.54788e-06
8.90432e-06 0.000178839 7.78663e-07
-1.54788e-06 7.78663e-07 0.000168579
0.000867057 3.90425e-06 -3.55304e-06
3.90425e-06 0.000103203 4.87251e-06
-3.55304e-06 4.87251e-06 0.000113045
0.000636877 1.88078e-06 6.42487e-08
1.88078e-06 -3.22149e-05 -3.56311e-06
6.42487e-08 -3.56311e-06 -4.38206e-05
0.00228041 1.58879e-07 3.676e-06
1.58879e-07 0.000920345 -3.29421e-09
3.676e-06 -3.29421e-09 0.000938022
0.000885165 -3.64096e-06 -3.54402e-06
-3.64096e-06 0.000113135 -4.89349e-06
-3.54402e-06 -4.89349e-06 0.000123589
0.000720271 6.60364e-05 1.28593e-06
6.60364e-05 7.06495e-05 -6.19686e-07
1.28593e-06 -6.19686e-07 -2.30244e-06
0.00067357 1.39714e-05 -6.56665e-07
1.39714e-05 1.11756e-05 -2.01355e-06
-6.56665e-07 -2.01355e-06 -2.48324e-05
0.000664786 -6.06199e-07 6.37775e-07
-6.06199e-07 5.39746e-06 1.81466e-08
6.37775e-07 1.81466e-08 -3.0727e-05
0.000645222 7.53302e-06 -5.70129e-09
7.53302e-06 -2.85246e-05 -3.47577e-06
-5.70129e-09 -3.47577e-06 -3.46032e-05
0.000686215 -1.62336e-05 -1.16751e-06
-1.62336e-05 1.61808e-05 2.05438e-06
-1.16751e-06 2.05438e-06 -2.12941e-05
0.000629485 1.36888e-05 5.9673e-09
1.36888e-05 -3.65553e-05 -7.5616e-07
5.9673e-09 -7.5616e-07 -4.31705e-05
0.00207307 2.25656e-05 8.21416e-06
2.25656e-05 0.00080409 -4.59926e-06
8.21416e-06 -4.59926e-06 0.000823123
0.00124797 2.87764e-05 -8.32621e-07
2.87764e-05 0.000325 2.13398e-06
-8.32621e-07 2.13398e-06 0.000319716
0.00151044 2.92271e-05 2.77632e-07
2.92271e-05 0.000483183 1.45845e-06
2.77632e-07 1.45845e-06 0.000496977
0.000937718 3.22565e-05 -1.58968e-05
3.22565e-05 0.000157563 7.37284e-06
-1.58968e-05 7.37284e-06 0.000165592
0.00141993 7.1791e-05 4.78137e-05
7.1791e-05 -0.00047175 1.39998e-05
4.78137e-05 1.39998e-05 -0.000518733
0.00183607 -1.12297e-06 1.12057e-06
-1.12297e-06 -1.21043e-05 6.49649e-08
1.12057e-06 6.49649e-08 -2.2225e-05
0.0018211 4.8695e-05 2.63715e-05
4.8695e-05 0.000164037 -3.49576e-06
2.63715e-05 -3.49576e-06 0.000173451
0.000895962 5.35197e-05 1.28499e-06
5.35197e-05 -0.00089658 -5.47068e-06
1.28499e-06 -5.47068e-06 -0.00108335
0.00172243 2.44262e-05 1.18074e-05
2.44262e-05 -0.000160812 1.14211e-06
1.18074e-05 1.14211e-06 -0.000156763
0.00225833 -1.31116e-05 -1.11673e-06
-1.31116e-05 0.000306662 -9.8612e-07
-1.11673e-06 -9.8612e-07 0.000286531
0.00309608 -3.7121e-05 -5.5325e-05
-3.7121e-05 0.000646175 5.04388e-06
-5.5325e-05 5.04388e-06 0.000635436
0.00309411 -9.00082e-05 0.000133589
-9.00082e-05 0.00040687 -7.94145e-06
0.000133589 -7.94145e-06 0.000179062
0.00817152 -0.000277454 -3.92587e-06
-0.000277454 0.00199873 1.60219e-05
-3.92587e-06 1.60219e-05 0.000811498
0.00700723 0.00113539 0.000188081
0.00113539 0.00345561 -8.4613e-05
0.000188081 -8.4613e-05 0.00359201
0.0030108 0.001142 8.88291e-06
0.001142 0.00189011 1.14438e-05
8.88291e-06 1.14438e-05 0.00283195
0.000445179 -6.79344e-05 1.97338e-06
-6.79344e-05 -8.16027e-05 -1.35175e-06
1.97338e-06 -1.35175e-06 -0.000166707
0.00071273 -8.92353e-06 1.05762e-06
-8.92353e-06 6.18558e-05 -9.78221e-08
1.05762e-06 -9.78221e-08 -6.18293e-06
0.000729089 -6.96286e-05 -1.39747e-06
-6.96286e-05 7.60397e-05 1.82534e-06
-1.39747e-06 1.82534e-06 3.33716e-06
0.000664188 -2.50854e-05 -3.92092e-07
-2.50854e-05 4.11e-05 1.60003e-07
-3.92092e-07 1.60003e-07 -4.39816e-05
0.000792109 6.89297e-05 7.69997e-08
6.89297e-05 0.000129049 2.00679e-07
7.69997e-08 2.00679e-07 2.48489e-05
0.00086521 0.000113536 1.12854e-06
0.000113536 0.000159234 8.70952e-07
1.12854e-06 8.70952e-07 5.79133e-05
0.000784436 -9.23008e-06 1.42574e-06
-9.23008e-06 0.000113509 -2.06079e-06
1.42574e-06 -2.06079e-06 2.27056e-05
0.000652471 -2.81753e-05 -6.64666e-07
-2.81753e-05 3.78326e-05 6.80086e-07
-6.64666e-07 6.80086e-07 -4.92226e-05
0.00205217 -0.000139787 5.8092e-06
-0.000139787 0.00012285 4.60451e-07
5.8092e-06 4.60451e-07 0.000111267
0.00184254 -0.000202151 3.98154e-06
-0.000202151 -5.27765e-05 -1.73183e-06
3.98154e-06 -1.73183e-06 -7.14481e-05
0.00163564 -0.000354374 9.67398e-07
-0.000354374 -7.13338e-05 1.70406e-06
9.67398e-07 1.70406e-06 -0.00017444
0.00111856 -0.000269795 4.74432e-06
-0.000269795 0.000198395 3.11835e-06
4.74432e-06 3.11835e-06 -1.76782e-05
0.00217834 -0.000420701 4.59963e-06
-0.000420701 0.000476682 -2.36968e-07
4.59963e-06 -2.36968e-07 0.000270354
0.00109824 -0.000250069 -3.35966e-07
-0.000250069 0.000366047 -1.92673e-06
-3.35966e-07 -1.92673e-06 0.000105045
0.0016024 -0.00018318 -1.14606e-06
-0.00018318 0.000617993 -4.90876e-07
-1.14606e-06 -4.90876e-07 0.000406189
0.000776361 -9.59182e-05 -7.6225e-07
-9.59182e-05 9.68368e-05 1.19771e-06
-7.6225e-07 1.19771e-06 -3.15436e-05
0.000776495 -2.23227e-05 -3.54677e-07
-2.23227e-05 0.000112742 2.19072e-06
-3.54677e-07 2.19072e-06 1.27419e-05
0.000957275 -1.30866e-05 -1.58667e-06
-1.30866e-05 0.000211222 -2.40485e-06
-1.58667e-06 -2.40485e-06 9.95154e-05
0.000982825 -1.306e-05 9.61428e-07
-1.306e-05 0.000231903 1.17296e-06
9.61428e-07 1.17296e-06 0.000139197
0.000723474 0.000117356 2.22878e-06
0.000117356 9.34339e-05 3.45638e-06
2.22878e-06 3.45638e-06 -1.06501e-05
0.0017385 -0.00014658 -6.1243e-07
-0.00014658 -7.63293e-05 -2.22081e-07
-6.1243e-07 -2.22081e-07 -7.03995e-05
0.000732178 2.83949e-05 -1.04222e-06
2.83949e-05 9.84896e-05 2.28277e-07
-1.04222e-06 2.28277e-07 -1.61159e-05
0.000815368 -6.09482e-05 -9.4052e-07
-6.09482e-05 0.000140455 2.04073e-07
-9.4052e-07 2.04073e-07 2.45116e-05
0.00181643 -0.000307286 7.81619e-07
-0.000307286 -6.66983e-05 -1.52242e-06
7.81619e-07 -1.52242e-06 -6.35163e-05
0.00140907 -0.000387363 -2.0513e-07
-0.000387363 -6.27146e-05 2.63429e-06
-2.0513e-07 2.63429e-06 -0.00021086
0.00159174 -0.000356989 1.75122e-06
-0.000356989 0.000388647 -1.51067e-06
1.75122e-06 -1.51067e-06 0.00016856
0.00089648 -8.70227e-05 3.78486e-07
-8.70227e-05 0.000215591 -2.13246e-06
3.78486e-07 -2.13246e-06 6.68689e-05
0.000917767 -0.000107172 -3.13198e-07
-0.000107172 0.00032876 1.25605e-07
-3.13198e-07 1.25605e-07 3.88842e-05
0.00252875 -0.00020998 -1.91127e-05
-0.00020998 0.000442655 4.27993e-06
-1.91127e-05 4.27993e-06 0.000388289
0.00280396 -0.000423735 -2.49986e-05
-0.000423735 0.000534955 3.20072e-06
-2.49986e-05 3.20072e-06 0.000553774
0.000756818 -0.000375689 -7.1782e-06
-0.000375689 -0.00026833 1.43955e-06
-7.1782e-06 1.43955e-06 -0.000423387
0.000661365 -0.000234372 -3.23319e-06
-0.000234372 -9.94762e-07 1.51092e-05
-3.23319e-06 1.51092e-05 -0.000230448
0.000661736 -0.000107139 1.30839e-06
-0.000107139 5.44529e-05 -1.0498e-06
1.30839e-06 -1.0498e-06 -6.84552e-05
0.000614584 -6.70321e-05 2.13388e-06
-6.70321e-05 4.56755e-05 -4.09249e-06
2.13388e-06 -4.09249e-06 -8.61167e-05
0.000936507 -3.48626e-05 5.14705e-07
-3.48626e-05 0.000319584 -3.445e-06
5.14705e-07 -3.445e-06 8.20453e-05
-0.00423081 -2.86952e-05 0.00020034
-2.86952e-05 -0.00241839 2.37704e-07
0.00020034 2.37704e-07 -0.00188588
0.00942729 -0.000113799 -1.54181e-05
-0.000113799 0.00295445 1.1025e-06
-1.54181e-05 1.1025e-06 0.00231811
0.00108986 8.52601e-05 2.9744e-06
8.52601e-05 0.000308008 -4.96313e-07
2.9744e-06 -4.96313e-07 0.000180643
0.000760378 0.000175658 3.93426e-06
0.000175658 9.11158e-05 -1.40333e-06
3.93426e-06 -1.40333e-06 -7.92854e-05
0.0021509 0.000242795 2.27482e-05
0.000242795 0.000234734 1.48295e-05
2.27482e-05 1.48295e-05 0.000255672
0.00234482 0.000474778 6.86431e-06
0.000474778 0.000390336 6.66599e-06
6.86431e-06 6.66599e-06 0.000212307
0.00148506 0.000314485 6.70562e-06
0.000314485 0.000315763 7.45224e-07
6.70562e-06 7.45224e-07 6.54668e-05
0.00812144 0.000383496 5.83338e-05
0.000383496 0.00197695 6.08702e-06
5.83338e-05 6.08702e-06 0.00090687
0.0066601 0.00062028 -0.000120871
0.00062028 0.00118813 -3.11418e-05
-0.000120871 -3.11418e-05 0.000601569
-0.000892946 0.000161673 8.71017e-08
0.000161673 -0.00101815 -1.9335e-05
8.71017e-08 -1.9335e-05 -0.00121035
0.00539928 -0.000915187 -2.96363e-05
-0.000915187 0.0027083 2.78203e-05
-2.96363e-05 2.78203e-05 0.002353
-0.00675712 -0.00135559 -0.000283086
-0.00135559 -0.0036401 -0.000232731
-0.000283086 -0.000232731 -0.00175383
0.000955245 0.00014346 2.09602e-08
0.00014346 0.000239217 -1.71266e-06
2.09602e-08 -1.71266e-06 0.000113624
-0.00243856 -0.000382013 7.29763e-05
-0.000382013 -0.0017009 7.45946e-06
7.29763e-05 7.45946e-06 -0.00179663
-0.001577 -0.000386028 -8.2169e-05
-0.000386028 0.000567515 -3.85031e-05
-8.2169e-05 -3.85031e-05 -0.000426329
0.00254319 0.000352187 -5.06434e-06
0.000352187 0.00048692 -1.17176e-06
-5.06434e-06 -1.17176e-06 0.000525446
0.000888633 0.000159391 -1.85377e-06
0.000159391 0.000176424 3.78142e-07
-1.85377e-06 3.78142e-07 -1.49405e-05
0.000745108 0.000336263 4.52739e-06
0.000336263 -0.000102241 1.71432e-06
4.52739e-06 1.71432e-06 -0.000364411
0.000767494 0.000264867 1.18463e-05
0.000264867 -0.000161467 1.04076e-05
1.18463e-05 1.04076e-05 -0.000161615
0.00763565 0.000240774 -3.01403e-05
0.000240774 0.00178467 -1.92781e-05
-3.01403e-05 -1.92781e-05 0.000162713
0.006369 0.000935717 -4.37492e-05
0.000935717 0.0016674 -1.73242e-05
-4.37492e-05 -1.73242e-05 0.000853572
0.00772531 -0.00114729 6.70424e-05
-0.00114729 0.00366715 -3.30848e-05
6.70424e-05 -3.30848e-05 0.00376077
0.00231523 -0.000818864 8.61784e-05
-0.000818864 -0.0018822 0.000180179
8.61784e-05 0.000180179 -0.000395327
0.00146606 0.000123571 -1.23298e-05
0.000123571 0.000546722 -7.78373e-06
-1.23298e-05 -7.78373e-06 0.00044023
-0.00389778 6.06751e-05 -7.82672e-05
6.06751e-05 0.000205741 -4.01614e-05
-7.82672e-05 -4.01614e-05 -0.00136993
0.00235332 0.000123074 -0.000101439
0.000123074 0.000829914 -0.000147071
-0.000101439 -0.000147071 -0.000767038
0.000200277 0.000285261 -1.50712e-05
0.000285261 -0.000427874 1.22357e-06
-1.50712e-05 1.22357e-06 -0.000440379
0.00156376 0.000356982 -3.93327e-05
0.000356982 0.000611287 -1.0938e-05
-3.93327e-05 -1.0938e-05 0.000392331
0.00266086 0.000275635 -7.09911e-05
0.000275635 0.00117871 -5.63335e-06
-7.09911e-05 -5.63335e-06 0.000902647
0.00357976 0.000800116 -5.71558e-05
0.000800116 0.000496607 -1.36704e-05
-5.71558e-05 -1.36704e-05 0.00011698
9.87165e-05 0.000360589 0.000109222
0.000360589 -0.000475715 8.12116e-05
0.000109222 8.12116e-05 -0.00281516
0.008368 -0.00116801 9.39303e-06
-0.00116801 0.00254141 0.000145638
9.39303e-06 0.000145638 0.00236433
0.00284837 -0.000495216 -1.02642e-05
-0.000495216 -0.00209838 -2.03722e-05
-1.02642e-05 -2.03722e-05 -0.000717081
0.000943118 7.20995e-05 2.07199e-06
7.20995e-05 0.000201436 3.80518e-06
2.07199e-06 3.80518e-06 0.000101964
0.00115736 9.80572e-05 3.98184e-06
9.80572e-05 0.000315257 2.57792e-06
3.98184e-06 2.57792e-06 0.000237046
0.000491883 7.08428e-05 -1.05926e-06
7.08428e-05 -5.37257e-05 -7.20246e-06
-1.05926e-06 -7.20246e-06 -0.000116106
0.000547696 4.36801e-05 9.15621e-07
4.36801e-05 -4.22606e-05 -2.10569e-08
9.15621e-07 -2.10569e-08 -0.000120977
0.000779471 4.05776e-05 -6.97725e-07
4.05776e-05 0.000105142 -9.42513e-07
-6.97725e-07 -9.42513e-07 2.62077e-06
0.000811386 -8.69877e-06 -2.88862e-07
-8.69877e-06 0.000104516 7.78225e-07
-2.88862e-07 7.78225e-07 9.95706e-06
0.000816592 -5.84607e-06 9.97341e-07
-5.84607e-06 0.000108545 -2.69554e-07
9.97341e-07 -2.69554e-07 1.32149e-05
0.000622994 1.86483e-05 -5.66419e-07
1.86483e-05 -7.8435e-06 2.37696e-06
-5.66419e-07 2.37696e-06 -9.28324e-05
0.000823544 3.76017e-05 7.15665e-08
3.76017e-05 0.000128341 -6.82992e-07
7.15665e-08 -6.82992e-07 2.45757e-05
0.00089168 2.09119e-05 -7.93152e-08
2.09119e-05 0.000143925 2.57365e-07
-7.93152e-08 2.57365e-07 5.40229e-05
0.000829233 -3.12534e-05 -1.13207e-07
-3.12534e-05 0.00011551 4.61987e-07
-1.13207e-07 4.61987e-07 1.33558e-05
0.00031578 3.02011e-05 7.84856e-07
3.02011e-05 -0.000163673 -3.73346e-07
7.84856e-07 -3.73346e-07 -0.000251202
-2.30493e-05 1.93666e-05 1.63414e-06
1.93666e-05 -0.000274707 -3.70672e-06
1.63414e-06 -3.70672e-06 -0.000355921
0.000964551 -5.93266e-06 -2.03109e-06
-5.93266e-06 0.000195088 -2.61043e-06
-2.03109e-06 -2.61043e-06 9.61023e-05
0.000968965 1.09191e-06 2.38485e-08
1.09191e-06 0.000210804 -1.69614e-06
2.38485e-08 -1.69614e-06 9.45761e-05
0.000835874 -4.71002e-05 -3.3125e-08
-4.71002e-05 0.000137383 -4.51897e-07
-3.3125e-08 -4.51897e-07 3.49511e-05
0.000880519 -4.38794e-06 -7.1464e-07
-4.38794e-06 0.000143119 9.61344e-07
-7.1464e-07 9.61344e-07 5.36989e-05
0.000836417 -3.13799e-05 4.72365e-07
-3.13799e-05 0.000128487 -3.68547e-07
4.72365e-07 -3.68547e-07 2.5228e-05
0.00078308 3.28238e-05 -1.95439e-07
3.28238e-05 9.88976e-05 -7.66009e-08
-1.95439e-07 -7.66009e-08 6.76779e-06
0.000668108 -2.00699e-05 -1.86765e-07
-2.00699e-05 1.61552e-05 5.18008e-07
-1.86765e-07 5.18008e-07 -6.68595e-05
0.00068961 4.02669e-05 9.50212e-07
4.02669e-05 4.85657e-05 3.54827e-07
9.50212e-07 3.54827e-07 -4.17276e-05
0.000560655 3.56717e-06 -8.17769e-08
3.56717e-06 -2.94227e-05 -3.13936e-06
-8.17769e-08 -3.13936e-06 -0.000125542
0.000625303 -8.601e-06 1.63932e-06
-8.601e-06 -2.05846e-07 -1.23554e-06
1.63932e-06 -1.23554e-06 -8.19294e-05
0.000849535 6.62136e-06 2.91748e-06
6.62136e-06 0.000119034 -3.15352e-06
2.91748e-06 -3.15352e-06 2.52973e-05
0.000215617 -3.34031e-05 8.58174e-07
-3.34031e-05 -0.000191827 2.20986e-07
8.58174e-07 2.20986e-07 -0.000327932
0.000351153 3.09778e-05 -3.1469e-07
3.09778e-05 -0.000123035 -4.77637e-07
-3.1469e-07 -4.77637e-07 -0.00022403
0.000740242 2.79202e-05 4.11572e-07
2.79202e-05 8.20396e-05 3.99639e-07
4.11572e-07 3.99639e-07 -1.16318e-05
0.000688689 1.77376e-05 2.59381e-08
1.77376e-05 4.3988e-05 3.98715e-07
2.59381e-08 3.98715e-07 -3.71293e-05
0.000743607 -4.65365e-06 -4.6659e-08
-4.65365e-06 8.15647e-05 2.04831e-09
-4.6659e-08 2.04831e-09 -5.18366e-06
0.000667601 1.3809e-05 -6.1299e-07
1.3809e-05 2.31013e-05 5.70628e-07
-6.1299e-07 5.70628e-07 -4.54388e-05
0.0007739 -2.50412e-06 2.1705e-07
-2.50412e-06 9.84659e-05 2.40306e-07
2.1705e-07 2.40306e-07 9.28036e-06
0.000721005 -2.52454e-05 -2.3802e-07
-2.52454e-05 5.37794e-05 3.37143e-08
-2.3802e-07 3.37143e-08 -1.69807e-05
0.000651423 3.64274e-05 -7.30786e-07
3.64274e-05 -3.47406e-06 1.86383e-06
-7.30786e-07 1.86383e-06 -5.00916e-05
0.000623929 -4.60627e-05 1.05105e-06
-4.60627e-05 -5.03908e-06 -5.75151e-07
1.05105e-06 -5.75151e-07 -7.77537e-05
0.000667588 1.36953e-05 -1.94083e-07
1.36953e-05 5.55466e-06 -2.8667e-08
-1.94083e-07 -2.8667e-08 -4.01453e-05
0.00136838 2.56619e-05 -4.83299e-06
2.56619e-05 0.000395562 5.11108e-06
-4.83299e-06 5.11108e-06 0.000386237
0.000660391 -6.17158e-06 6.8957e-07
-6.17158e-06 4.1369e-06 -1.71284e-06
6.8957e-07 -1.71284e-06 -4.16103e-05
0.000994349 1.61754e-05 -2.44822e-06
1.61754e-05 0.00017715 7.47683e-07
-2.44822e-06 7.47683e-07 0.000166519
0.000814767 1.40316e-05 -4.20381e-07
1.40316e-05 7.42031e-05 1.91342e-06
-4.20381e-07 1.91342e-06 8.37253e-05
0.000621585 7.4055e-06 3.29972e-07
7.4055e-06 -4.04034e-05 -3.59797e-06
3.29972e-07 -3.59797e-06 -5.24372e-05
0.00229565 1.19419e-05 3.31176e-06
1.19419e-05 0.000929927 3.37651e-08
3.31176e-06 3.37651e-08 0.000947252
0.00229178 1.57639e-06 -7.98876e-08
1.57639e-06 0.000926974 -5.04002e-06
-7.98876e-08 -5.04002e-06 0.000944527
0.00102291 6.8884e-05 -1.30326e-06
6.8884e-05 0.0002384 -1.32858e-06
-1.30326e-06 -1.32858e-06 0.000168457
0.000683515 1.82702e-05 -8.20511e-07
1.82702e-05 1.70512e-05 -2.15155e-06
-8.20511e-07 -2.15155e-06 -2.0375e-05
0.000698193 -1.82025e-06 6.7729e-07
-1.82025e-06 5.65744e-05 7.88429e-07
6.7729e-07 7.88429e-07 -1.50047e-05
0.00064535 1.51187e-06 -1.28384e-07
1.51187e-06 -2.93581e-05 -3.56105e-06
-1.28384e-07 -3.56105e-06 -3.52517e-05
0.000670447 -3.09755e-06 2.29627e-07
-3.09755e-06 9.13253e-06 -3.14493e-08
2.29627e-07 -3.14493e-08 -2.67302e-05
0.000672321 -1.5251e-05 -9.93776e-07
-1.5251e-05 9.60672e-06 1.90984e-06
-9.93776e-07 1.90984e-06 -2.65756e-05
0.000639592 7.55345e-06 -1.64506e-07
7.55345e-06 -3.18702e-05 -1.78677e-08
-1.64506e-07 -1.78677e-08 -3.79177e-05
0.00207044 1.11437e-05 3.84429e-06
1.11437e-05 0.000800151 -4.72938e-06
3.84429e-06 -4.72938e-06 0.000819868
0.00123592 1.92803e-05 -6.29976e-07
1.92803e-05 0.000314683 2.13063e-06
-6.29976e-07 2.13063e-06 0.000311254
0.00145274 1.95334e-05 1.69611e-06
1.95334e-05 0.000444736 7.17478e-08
1.69611e-06 7.17478e-08 0.000460333
0.000890288 2.31252e-05 -1.4187e-05
2.31252e-05 0.000123635 7.23751e-06
-1.4187e-05 7.23751e-06 0.000134626
-0.00702355 0.000201508 0.000141578
0.000201508 -0.0032766 -6.61304e-07
0.000141578 -6.61304e-07 -0.00377376
-0.00208678 0.000149758 0.000137255
0.000149758 0.000608156 1.62237e-05
0.000137255 1.62237e-05 -0.000263563
0.00383679 0.000138314 -0.00017831
0.000138314 0.000512064 4.04541e-07
-0.00017831 4.04541e-07 0.000358796
0.000803174 2.97767e-05 3.35531e-05
2.97767e-05 -0.000595303 -9.11005e-07
3.35531e-05 -9.11005e-07 -0.000608238
0.00144782 -2.06413e-05 1.62051e-05
-2.06413e-05 -0.000215622 1.25727e-07
1.62051e-05 1.25727e-07 -0.000233788
0.00085841 3.51582e-05 1.30603e-05
3.51582e-05 -0.000616629 -3.33073e-06
1.30603e-05 -3.33073e-06 -0.000694155
0.00235589 -6.62074e-05 2.3851e-06
-6.62074e-05 0.000222405 2.5495e-06
2.3851e-06 2.5495e-06 0.000187122
0.00781497 0.000139953 2.10556e-05
0.000139953 0.00172171 -2.51147e-05
2.10556e-05 -2.51147e-05 0.00077219
-0.00360016 0.000596825 -3.19874e-05
0.000596825 -0.00120641 -4.60971e-06
-3.19874e-05 -4.60971e-06 -0.00183573
-0.00189104 0.00121488 -6.10022e-05
0.00121488 -0.000885823 2.54147e-05
-6.10022e-05 2.54147e-05 0.000601651
0.00118814 -0.000149265 4.49489e-05
-0.000149265 -0.000598269 1.1457e-05
4.49489e-05 1.1457e-05 -0.000875848
0.00953327 -1.51896e-06 5.17409e-05
-1.51896e-06 0.00293911 -2.5904e-05
5.17409e-05 -2.5904e-05 0.00157586
0.00094639 0.00112135 9.06972e-05
0.00112135 -0.000434871 -0.000151894
9.06972e-05 -0.000151894 0.000201869
0.004691 0.000881233 -0.000103002
0.000881233 6.79763e-05 7.87656e-05
-0.000103002 7.87656e-05 0.000806169
0.000735819 6.68709e-05 -1.09468e-06
6.68709e-05 9.93378e-05 -6.79817e-07
-1.09468e-06 -6.79817e-07 -1.39235e-05
0.000598051 1.13525e-05 -2.56659e-07
1.13525e-05 2.30512e-06 -6.58529e-07
-2.56659e-07 -6.58529e-07 -8.04095e-05
0.000715278 -7.50944e-05 -1.07566e-06
-7.50944e-05 6.75262e-05 1.46078e-06
-1.07566e-06 1.46078e-06 -3.72993e-06
0.000604207 2.0907e-06 1.12347e-07
2.0907e-06 1.10993e-05 1.1865e-06
1.12347e-07 1.1865e-06 -7.7867e-05
0.00075354 6.74426e-05 9.50267e-07
6.74426e-05 0.000109396 1.42134e-06
9.50267e-07 1.42134e-06 5.13057e-06
0.000884055 6.92381e-05 -2.31319e-07
6.92381e-05 0.000176183 -2.99453e-07
-2.31319e-07 -2.99453e-07 6.49819e-05
0.000804628 8.07748e-05 1.6235e-06
8.07748e-05 0.000129293 1.57835e-06
1.6235e-06 1.57835e-06 2.55195e-05
0.000713955 1.48444e-06 1.28761e-06
1.48444e-06 6.65459e-05 -8.09312e-07
1.28761e-06 -8.09312e-07 -2.92045e-05
0.000690094 -1.64193e-05 4.82181e-07
-1.64193e-05 6.2428e-05 -9.14731e-07
4.82181e-07 -9.14731e-07 -3.18022e-05
0.000583756 -9.19631e-06 -3.33404e-07
-9.19631e-06 -8.43129e-06 1.3266e-06
-3.33404e-07 1.3266e-06 -9.11636e-05
0.00143544 -0.000139301 1.38839e-05
-0.000139301 -0.000214458 -1.45692e-06
1.38839e-05 -1.45692e-06 -0.000206072
0.00178222 -0.000312485 1.47636e-05
-0.000312485 -6.15132e-05 -2.85365e-06
1.47636e-05 -2.85365e-06 -8.07081e-05
7.43122e-05 -0.000291466 1.18299e-05
-0.000291466 -0.000750043 2.516e-06
1.18299e-05 2.516e-06 -0.000873315
0.00130944 -0.000338296 2.42197e-06
-0.000338296 0.000241776 -1.40827e-06
2.42197e-06 -1.40827e-06 1.31275e-05
0.00148478 -0.000145905 -1.51545e-07
-0.000145905 0.0006157 3.02044e-06
-1.51545e-07 3.02044e-06 0.000347991
0.00108941 -0.000117724 -7.98773e-07
-0.000117724 0.000327915 1.07418e-06
-7.98773e-07 1.07418e-06 0.000164128
0.000922676 -5.23576e-05 -1.10622e-06
-5.23576e-05 0.000193403 8.38464e-07
-1.10622e-06 8.38464e-07 8.53857e-05
0.00072543 3.68781e-05 -1.37951e-06
3.68781e-05 9.48709e-05 2.3229e-06
-1.37951e-06 2.3229e-06 -1.69044e-05
0.0016215 -0.000174388 -1.65297e-06
-0.000174388 -2.20208e-05 -5.32097e-07
-1.65297e-06 -5.32097e-07 -5.10025e-05
0.00063799 -4.35973e-05 -2.10092e-07
-4.35973e-05 4.35813e-05 -3.88014e-08
-2.10092e-07 -3.88014e-08 -8.08832e-05
0.000590928 -5.95748e-05 7.73568e-07
-5.95748e-05 3.48584e-05 -1.12598e-06
7.73568e-07 -1.12598e-06 -0.000100057
0.00197241 -0.000378482 4.96449e-06
-0.000378482 0.000117474 -9.90739e-07
4.96449e-06 -9.90739e-07 0.000127143
0.000675293 -0.000365182 1.41577e-06
-0.000365182 -0.000290518 2.47484e-06
1.41577e-06 2.47484e-06 -0.000435037
0.000967746 -0.000271227 6.30515e-06
-0.000271227 0.000160267 -2.46527e-06
6.30515e-06 -2.46527e-06 -8.10016e-05
0.00126352 -8.20342e-05 -4.36293e-07
-8.20342e-05 0.000482966 -2.37349e-06
-4.36293e-07 -2.37349e-06 0.00025466
0.000452878 -0.000222161 -1.13472e-05
-0.000222161 -0.000333147 -1.17311e-06
-1.13472e-05 -1.17311e-06 -0.000564592
0.00145432 -0.000315601 -2.48399e-05
-0.000315601 0.000167262 8.5391e-06
-2.48399e-05 8.5391e-06 0.000121984
8.70461e-06 -0.00013226 -1.67524e-05
-0.00013226 -0.000205207 3.24493e-05
-1.67524e-05 3.24493e-05 -0.000455403
0.000569803 3.22293e-05 5.67963e-07
3.22293e-05 3.58382e-06 9.69965e-07
5.67963e-07 9.69965e-07 -0.000118097
0.000568158 -9.74522e-05 2.34442e-06
-9.74522e-05 1.58483e-05 -1.5696e-06
2.34442e-06 -1.5696e-06 -0.000119323
0.000761944 -5.72466e-05 1.89541e-06
-5.72466e-05 0.000157971 -5.76008e-06
1.89541e-06 -5.76008e-06 -1.36687e-05
0.000822566 9.5515e-05 -0.000116525
9.5515e-05 0.00257838 1.62045e-06
-0.000116525 1.62045e-06 0.00160899
0.00210593 -0.000223056 1.77562e-05
-0.000223056 0.00144417 1.38619e-05
1.77562e-05 1.38619e-05 0.00131715
0.000104193 0.000457761 -5.53833e-05
0.000457761 -0.0026085 2.09225e-05
-5.53833e-05 2.09225e-05 -0.00319249
0.000816394 0.000132444 4.78035e-06
0.000132444 0.000169442 2.03209e-06
4.78035e-06 2.03209e-06 4.62436e-05
0.000526534 0.000170446 6.44198e-06
0.000170446 2.79674e-06 4.58499e-06
6.44198e-06 4.58499e-06 -0.000197118
0.00229302 0.000315181 1.44204e-05
0.000315181 0.00033781 9.64011e-06
1.44204e-05 9.64011e-06 0.000387923
0.00109751 0.000309494 1.26559e-05
0.000309494 0.000103246 9.35509e-06
1.26559e-05 9.35509e-06 -0.00015731
0.00552701 -0.000485565 4.4873e-05
-0.000485565 0.00222051 2.76877e-05
4.4873e-05 2.76877e-05 0.00234572
0.000357706 -7.03378e-05 -8.81607e-05
-7.03378e-05 -0.0017386 -6.14963e-06
-8.81607e-05 -6.14963e-06 -0.00320795
0.00322782 0.000835529 -9.25596e-05
0.000835529 -0.000183176 -2.78707e-05
-9.25596e-05 -2.78707e-05 -0.00100338
0.000460097 0.000164234 2.38251e-05
0.000164234 -0.000213801 -1.75337e-05
2.38251e-05 -1.75337e-05 -0.000187645
-0.00407398 -0.000549517 -4.24451e-05
-0.000549517 -0.00146022 -6.36384e-05
-4.24451e-05 -6.36384e-05 -0.00164998
-1.50341e-05 -0.000522806 -2.31025e-05
-0.000522806 0.000712482 1.50619e-05
-2.31025e-05 1.50619e-05 -0.000307342
0.00674579 -0.00108946 0.000125446
-0.00108946 0.000440849 0.000105825
0.000125446 0.000105825 0.0019957
0.000715676 9.51769e-05 4.6216e-06
9.51769e-05 0.000141874 -2.56782e-06
4.6216e-06 -2.56782e-06 2.88211e-05
-0.00100213 -5.31095e-05 -5.54539e-05
-5.31095e-05 0.00123123 -1.73465e-05
-5.54539e-05 -1.73465e-05 -3.9745e-05
0.00266898 0.000143939 -7.49778e-06
0.000143939 0.000992734 -3.98662e-05
-7.49778e-06 -3.98662e-05 -0.000660808
0.00091854 0.000275898 -8.42542e-06
0.000275898 -4.8771e-06 3.60215e-06
-8.42542e-06 3.60215e-06 -6.54087e-05
0.00063058 0.000206315 7.03538e-07
0.000206315 0.000135577 1.71491e-06
7.03538e-07 1.71491e-06 -8.50381e-05
0.000102509 0.000202412 3.58072e-05
0.000202412 -0.000208681 -2.74296e-05
3.58072e-05 -2.74296e-05 -0.000408983
0.00524402 0.00103362 -9.50915e-06
0.00103362 0.00153306 1.40976e-06
-9.50915e-06 1.40976e-06 0.000772749
0.00973855 0.00022945 4.37527e-05
0.00022945 0.00355971 1.61001e-05
4.37527e-05 1.61001e-05 0.00181425
0.00202292 -0.000730619 9.7966e-06
-0.000730619 -0.0010853 -1.97746e-05
9.7966e-06 -1.97746e-05 -0.00104045
0.00739273 -0.000696905 7.02134e-06
-0.000696905 0.000856211 -2.10341e-05
7.02134e-06 -2.10341e-05 0.00216038
0.000625141 0.000136717 -1.11019e-05
0.000136717 0.000124358 -7.46969e-06
-1.11019e-05 -7.46969e-06 2.93713e-05
0.00215281 -6.96871e-06 -7.92631e-05
-6.96871e-06 0.000615788 -3.70924e-05
-7.92631e-05 -3.70924e-05 -0.000497963
0.000728302 6.56425e-05 -9.885e-06
6.56425e-05 0.000301039 -7.33081e-05
-9.885e-06 -7.33081e-05 -0.000894041
-0.000976412 2.95993e-05 -2.02847e-05
2.95993e-05 -0.000498576 -1.59764e-05
-2.02847e-05 -1.59764e-05 -0.000643569
0.00232806 0.000364532 -9.18016e-06
0.000364532 0.000691048 4.94052e-05
-9.18016e-06 4.94052e-05 7.50382e-05
0.00950003 0.000490737 3.34916e-05
0.000490737 0.00393187 -1.15886e-06
3.34916e-05 -1.15886e-06 0.00147182
-0.00692302 -0.00102147 -3.91183e-05
-0.00102147 -0.00414607 6.73676e-05
-3.91183e-05 6.73676e-05 -0.00556527
0.00549273 0.000243911 2.37505e-06
0.000243911 -0.000774887 -0.000107067
2.37505e-06 -0.000107067 0.000687406
0.00102704 8.51357e-05 1.67933e-06
8.51357e-05 0.000234268 6.98487e-06
1.67933e-06 6.98487e-06 0.000158629
0.000933963 0.000102107 -4.66104e-06
0.000102107 0.000203584 -1.02076e-06
-4.66104e-06 -1.02076e-06 0.000138139
0.00180627 0.000104639 -8.25062e-06
0.000104639 0.000783561 -3.06304e-06
-8.25062e-06 -3.06304e-06 0.000718881
0.000832405 7.49761e-05 -1.825e-06
7.49761e-05 0.000124824 -5.22023e-07
-1.825e-06 -5.22023e-07 2.6666e-05
0.000883783 -3.48844e-05 -3.49841e-07
-3.48844e-05 0.000155285 9.24558e-07
-3.49841e-07 9.24558e-07 4.73201e-05
0.000766371 2.70141e-05 2.63254e-07
2.70141e-05 7.19274e-05 1.04355e-06
2.63254e-07 1.04355e-06 -1.88565e-05
0.000280059 2.16616e-05 3.95589e-08
2.16616e-05 -0.000176412 2.47741e-06
3.95589e-08 2.47741e-06 -0.00026217
0.000875752 -2.80643e-07 7.85912e-07
-2.80643e-07 0.000144153 9.48415e-08
7.85912e-07 9.48415e-08 3.80752e-05
0.000889308 9.25166e-06 -1.98225e-08
9.25166e-06 0.000155342 -4.32512e-07
-1.98225e-08 -4.32512e-07 5.53988e-05
0.000327772 6.51058e-06 -3.50864e-07
6.51058e-06 -7.08836e-05 1.41414e-06
-3.50864e-07 1.41414e-06 -0.000155609
3.22718e-05 2.10182e-05 -4.04184e-06
2.10182e-05 -0.00011018 -4.01777e-06
-4.04184e-06 -4.01777e-06 -0.000187684
0.000934236 -2.05084e-05 1.47505e-06
-2.05084e-05 0.000256859 -6.35887e-06
1.47505e-06 -6.35887e-06 0.000164457
0.000995687 3.8498e-05 -3.42919e-07
3.8498e-05 0.000221038 -3.54734e-06
-3.42919e-07 -3.54734e-06 0.000113884
0.000861323 -7.59943e-05 9.63279e-07
-7.59943e-05 0.000133079 9.57432e-07
9.63279e-07 9.57432e-07 3.5472e-05
0.000771436 3.56901e-05 -6.95559e-07
3.56901e-05 8.99224e-05 2.27966e-07
-6.95559e-07 2.27966e-07 -1.11821e-06
0.00077531 -2.69188e-05 -1.83818e-06
-2.69188e-05 7.81578e-05 2.13526e-06
-1.83818e-06 2.13526e-06 -4.82775e-06
0.000637191 -7.08046e-06 7.27935e-07
-7.08046e-06 6.98748e-06 6.81399e-07
7.27935e-07 6.81399e-07 -8.41449e-05
0.000744544 3.7065e-05 2.88063e-07
3.7065e-05 8.12157e-05 2.59415e-07
2.88063e-07 2.59415e-07 -1.03586e-05
0.000759305 8.96548e-06 -6.1308e-07
8.96548e-06 7.44574e-05 1.5205e-07
-6.1308e-07 1.5205e-07 -7.49462e-06
0.000926886 1.88881e-05 8.94124e-07
1.88881e-05 0.000167848 -1.58482e-06
8.94124e-07 -1.58482e-06 8.14834e-05
0.000445592 -1.34797e-05 3.02771e-06
-1.34797e-05 -8.03226e-05 -3.85004e-06
3.02771e-06 -3.85004e-06 -0.000152099
0.000551131 -8.0957e-05 1.4075e-06
-8.0957e-05 -8.02785e-05 -7.38396e-07
1.4075e-06 -7.38396e-07 -0.000173239
0.000922732 -1.53633e-05 -1.55297e-06
-1.53633e-05 0.000165696 -2.83931e-07
-1.55297e-06 -2.83931e-07 6.86566e-05
0.000453667 -5.78398e-05 2.81234e-06
-5.78398e-05 -6.49389e-05 1.40525e-06
2.81234e-06 1.40525e-06 -0.000191867
0.00104652 -0.000186664 1.18937e-07
-0.000186664 0.000241032 4.73288e-06
1.18937e-07 4.73288e-06 5.40935e-05
0.00121553 -7.12971e-05 1.42437e-06
-7.12971e-05 0.000366694 -1.45799e-06
1.42437e-06 -1.45799e-06 0.000249709
0.000412671 -5.48067e-05 -1.28819e-06
-5.48067e-05 -6.73941e-05 -3.11823e-06
-1.28819e-06 -3.11823e-06 -0.000201955
0.000662752 2.22208e-05 -4.57443e-07
2.22208e-05 4.74708e-05 -5.66212e-07
-4.57443e-07 -5.66212e-07 -5.14355e-05
0.000429359 1.96947e-05 6.39169e-07
1.96947e-05 -9.4555e-05 4.78248e-07
6.39169e-07 4.78248e-07 -0.000182948
0.000830234 1.64828e-05 -2.38576e-07
1.64828e-05 0.000132548 3.4938e-07
-2.38576e-07 3.4938e-07 3.81047e-05
0.000763062 -1.08077e-05 -5.73251e-07
-1.08077e-05 9.24107e-05 4.53532e-07
-5.73251e-07 4.53532e-07 5.73024e-06
0.000679511 7.68724e-06 -7.58743e-07
7.68724e-06 2.80892e-05 6.55708e-07
-7.58743e-07 6.55708e-07 -3.90862e-05
0.000813119 -3.15926e-05 3.93387e-07
-3.15926e-05 0.00013006 -7.82582e-08
3.93387e-07 -7.82582e-08 3.61335e-05
0.000720972 -2.83442e-05 -4.35382e-07
-2.83442e-05 5.48498e-05 4.18486e-08
-4.35382e-07 4.18486e-08 -1.53523e-05
0.000661685 3.40527e-05 -1.42305e-06
3.40527e-05 2.44202e-06 1.72859e-06
-1.42305e-06 1.72859e-06 -4.40901e-05
0.000756844 -5.66402e-05 1.34507e-06
-5.66402e-05 7.67925e-05 -6.46496e-07
1.34507e-06 -6.46496e-07 3.92726e-06
0.000688956 1.02112e-05 -2.79557e-07
1.02112e-05 1.55115e-05 2.86112e-09
-2.79557e-07 2.86112e-09 -2.97319e-05
0.00136001 3.47795e-05 -6.95459e-06
3.47795e-05 0.000393264 5.04575e-06
-6.95459e-06 5.04575e-06 0.00038343
0.000678412 -9.85643e-06 1.51136e-06
-9.85643e-06 1.13877e-05 -1.7289e-06
1.51136e-06 -1.7289e-06 -3.41404e-05
0.000995233 2.4036e-05 -3.33038e-06
2.4036e-05 0.000179511 7.01618e-07
-3.33038e-06 7.01618e-07 0.000168433
0.000815691 2.17411e-05 -8.54245e-07
2.17411e-05 7.89373e-05 1.89842e-06
-8.54245e-07 1.89842e-06 8.75103e-05
0.000611776 1.38421e-05 4.29712e-07
1.38421e-05 -4.47953e-05 -3.65533e-06
4.29712e-07 -3.65533e-06 -5.71729e-05
0.00155684 2.05901e-05 5.25017e-06
2.05901e-05 0.000503935 -1.45254e-06
5.25017e-06 -1.45254e-06 0.000517065
0.00230071 1.40619e-05 4.36078e-06
1.40619e-05 0.000933213 -4.96195e-06
4.36078e-06 -4.96195e-06 0.000950411
0.000770698 -5.56414e-06 7.58344e-07
-5.56414e-06 8.63949e-05 -1.42106e-06
7.58344e-07 -1.42106e-06 1.52467e-05
0.000702726 1.25125e-05 -4.63114e-07
1.25125e-05 2.65252e-05 -2.15859e-06
-4.63114e-07 -2.15859e-06 -1.23575e-05
0.000761637 -1.68929e-06 7.19799e-07
-1.68929e-06 8.70848e-05 1.57362e-07
7.19799e-07 1.57362e-07 1.73451e-05
0.000642156 -4.76158e-06 -1.72562e-07
-4.76158e-06 -3.12005e-05 -3.64203e-06
-1.72562e-07 -3.64203e-06 -3.75705e-05
0.000673256 1.13163e-05 3.93805e-08
1.13163e-05 1.07621e-05 -2.34321e-08
3.93805e-08 -2.34321e-08 -2.63122e-05
0.000687031 -6.75893e-05 -2.7188e-06
-6.75893e-05 4.53431e-05 2.06811e-06
-2.7188e-06 2.06811e-06 -2.22853e-05
0.00207315 -2.56284e-07 -7.30142e-07
-2.56284e-07 0.000800656 -4.77542e-06
-7.30142e-07 -4.77542e-06 0.000820624
0.000641894 1.53089e-06 -1.43738e-07
1.53089e-06 -3.12527e-05 -4.83357e-09
-1.43738e-07 -4.83357e-09 -3.71283e-05
0.000656272 -1.10803e-05 -7.87272e-07
-1.10803e-05 7.97119e-07 1.96875e-06
-7.87272e-07 1.96875e-06 -3.49711e-05
0.000634473 7.59258e-06 -1.49212e-07
7.59258e-06 -3.49119e-05 3.51755e-06
-1.49212e-07 3.51755e-06 -4.09391e-05
0.00208 1.23397e-05 -3.26271e-06
1.23397e-05 0.000805855 -3.58786e-08
-3.26271e-06 -3.58786e-08 0.000825501
0.00207872 2.30739e-05 -1.07086e-05
2.30739e-05 0.000807522 4.48181e-06
-1.07086e-05 4.48181e-06 0.000826594
-0.00284708 -0.000112165 -3.76015e-05
-0.000112165 0.000553046 1.17775e-05
-3.76015e-05 1.17775e-05 -0.000778691
-0.00110919 0.000341313 -3.71466e-05
0.000341313 -0.00050578 9.58792e-06
-3.71466e-05 9.58792e-06 -0.000832964
0.00284616 -0.000149338 -0.000138752
-0.000149338 0.000690622 0.000115898
-0.000138752 0.000115898 -0.000782237
-0.00260763 0.000187008 0.000189027
0.000187008 0.000721684 -8.32191e-05
0.000189027 -8.32191e-05 -8.47213e-06
0.00182942 0.000161523 -8.68802e-05
0.000161523 -0.000291447 1.42307e-05
-8.68802e-05 1.42307e-05 -0.000490854
0.00211365 -0.000105321 8.47227e-05
-0.000105321 6.03873e-05 -9.80454e-06
8.47227e-05 -9.80454e-06 2.62082e-05
0.00179869 -0.000411009 -8.94992e-05
-0.000411009 -0.00121857 -4.48336e-05
-8.94992e-05 -4.48336e-05 -0.002224
0.0078595 0.000673127 -3.64303e-05
0.000673127 0.00384391 -1.20801e-05
-3.64303e-05 -1.20801e-05 0.00357535
-0.00683288 0.0013239 -0.000286326
0.0013239 -0.00378741 0.000238987
-0.000286326 0.000238987 -0.00173981
0.00237476 -4.3158e-05 -8.69524e-06
-4.3158e-05 -0.000111427 -5.66844e-06
-8.69524e-06 -5.66844e-06 -0.000340489
0.00399057 -0.000141652 2.87153e-05
-0.000141652 0.000243296 -3.97782e-05
2.87153e-05 -3.97782e-05 -0.00167922
0.00811052 0.00127861 -4.12193e-05
0.00127861 0.0026334 -4.81331e-05
-4.12193e-05 -4.81331e-05 0.00331791
0.00200891 0.000830558 -4.40356e-05
0.000830558 -0.00152548 9.49646e-05
-4.40356e-05 9.49646e-05 -0.000701905
0.00263049 -0.000490057 -5.52776e-05
-0.000490057 -0.000222455 1.59329e-05
-5.52776e-05 1.59329e-05 -0.000636952
0.00266681 -0.000449183 0.000144332
-0.000449183 0.000516883 -0.000104241
0.000144332 -0.000104241 -0.00218814
-0.00548121 0.000512239 -4.50674e-05
0.000512239 -0.00457841 -0.000189162
-4.50674e-05 -0.000189162 -0.0043837
0.00182125 0.000511158 -3.06064e-05
0.000511158 -0.00295028 -1.7345e-06
-3.06064e-05 -1.7345e-06 -0.001642
0.000812103 -1.33655e-05 8.80004e-07
-1.33655e-05 0.000143727 -1.15146e-07
8.80004e-07 -1.15146e-07 2.31266e-05
0.000763074 5.72735e-05 -1.73146e-06
5.72735e-05 0.000112063 -7.35104e-07
-1.73146e-06 -7.35104e-07 3.04198e-06
0.000723993 4.65011e-05 2.26119e-07
4.65011e-05 7.26526e-05 -7.64804e-08
2.26119e-07 -7.64804e-08 -7.532e-06
0.000687214 6.99395e-05 2.51644e-06
6.99395e-05 7.26586e-05 2.57099e-06
2.51644e-06 2.57099e-06 -3.04028e-05
0.000724364 3.398e-05 -2.15037e-07
3.398e-05 8.41541e-05 -3.64655e-07
-2.15037e-07 -3.64655e-07 -3.80097e-05
0.000871094 7.03608e-05 2.04178e-07
7.03608e-05 0.000170294 9.07979e-07
2.04178e-07 9.07979e-07 5.94909e-05
0.000703316 1.82548e-05 -5.28419e-07
1.82548e-05 6.82129e-05 2.34759e-06
-5.28419e-07 2.34759e-06 -3.2045e-05
0.000898536 0.000102294 -2.93505e-07
0.000102294 0.000188732 -3.81444e-07
-2.93505e-07 -3.81444e-07 7.62765e-05
0.00085169 5.67725e-05 -1.48681e-07
5.67725e-05 0.000160606 5.20438e-07
-1.48681e-07 5.20438e-07 5.48964e-05
0.000619667 -6.74849e-06 -1.59066e-06
-6.74849e-06 2.47069e-05 3.76625e-07
-1.59066e-06 3.76625e-07 -7.28738e-05
0.001282 -0.000174933 2.8798e-05
-0.000174933 -0.000189655 -1.26773e-05
2.8798e-05 -1.26773e-05 -0.000196558
0.000875898 -0.000327405 2.30167e-05
-0.000327405 -0.000440033 -3.49257e-06
2.30167e-05 -3.49257e-06 -0.000440836
0.000928133 -0.000380204 1.3877e-05
-0.000380204 -0.000138601 -1.70438e-06
1.3877e-05 -1.70438e-06 -0.0002762
0.0011737 -0.000300781 8.4698e-06
-0.000300781 0.000263935 -1.42195e-05
8.4698e-06 -1.42195e-05 2.99944e-06
0.00139336 -0.000103325 -7.75929e-07
-0.000103325 0.000537376 7.56268e-06
-7.75929e-07 7.56268e-06 0.000317011
0.000698189 -7.82197e-05 -1.37257e-06
-7.82197e-05 0.000103087 4.19163e-06
-1.37257e-06 4.19163e-06 -3.97084e-05
0.000633028 6.38133e-05 -3.83546e-07
6.38133e-05 4.38039e-05 -7.32757e-08
-3.83546e-07 -7.32757e-08 -8.37527e-05
0.000721336 -4.67114e-05 -4.0842e-07
-4.67114e-05 9.39285e-05 1.20941e-06
-4.0842e-07 1.20941e-06 -3.39308e-05
0.00121846 -0.000222618 -1.99916e-06
-0.000222618 4.36015e-05 -2.51963e-07
-1.99916e-06 -2.51963e-07 -0.000110744
0.000844864 -7.22508e-06 9.80869e-09
-7.22508e-06 0.000173196 4.29816e-08
9.80869e-09 4.29816e-08 3.55707e-05
0.00115802 -8.71524e-05 -7.70674e-08
-8.71524e-05 0.000390095 1.01342e-07
-7.70674e-08 1.01342e-07 0.000207901
0.00114232 -0.000299329 -2.34479e-06
-0.000299329 -2.47938e-05 -1.42512e-06
-2.34479e-06 -1.42512e-06 -5.26312e-05
0.00103743 -0.000170388 -1.03274e-05
-0.000170388 0.0003229 3.87179e-06
-1.03274e-05 3.87179e-06 8.81733e-05
-0.000611525 -0.000274458 -1.16934e-05
-0.000274458 -0.000961925 -1.53024e-05
-1.16934e-05 -1.53024e-05 -0.000946686
0.000612081 -0.00014086 -1.76937e-05
-0.00014086 9.79356e-05 2.28622e-05
-1.76937e-05 2.28622e-05 1.8502e-06
0.000655649 -4.13055e-05 -6.44719e-06
-4.13055e-05 0.000120082 2.58013e-05
-6.44719e-06 2.58013e-05 -4.62815e-05
0.000703149 -4.34736e-06 5.36904e-07
-4.34736e-06 7.09599e-05 -2.44492e-07
5.36904e-07 -2.44492e-07 -5.51377e-05
0.000660516 2.15019e-05 1.48846e-06
2.15019e-05 0.000109335 -3.5121e-06
1.48846e-06 -3.5121e-06 -6.60628e-05
0.00154288 -2.51994e-05 -2.21031e-05
-2.51994e-05 0.00052311 -1.89932e-06
-2.21031e-05 -1.89932e-06 -0.000394259
-0.00140267 3.28833e-05 -7.99972e-05
3.28833e-05 0.00160909 -3.55807e-06
-7.99972e-05 -3.55807e-06 0.000359538
-0.00813422 -0.000276136 -0.0002226
-0.000276136 -0.00415979 5.08572e-06
-0.0002226 5.08572e-06 -0.00411282
1.17894e-05 7.70231e-05 6.70587e-06
7.70231e-05 -0.000234785 -6.67301e-07
6.70587e-06 -6.67301e-07 -0.00035815
-0.000115891 8.41127e-05 5.05264e-06
8.41127e-05 -0.000247812 2.35927e-06
5.05264e-06 2.35927e-06 -0.000467665
0.00141016 0.000246001 1.37181e-05
0.000246001 0.000264987 3.41684e-06
1.37181e-05 3.41684e-06 0.000199105
-0.00275803 0.0001447 -1.234e-05
0.0001447 0.000453215 9.03785e-06
-1.234e-05 9.03785e-06 -0.000983368
0.00219562 0.000274453 -5.95708e-05
0.000274453 0.0003811 -5.11245e-05
-5.95708e-05 -5.11245e-05 -0.00230947
0.00356824 0.000857045 8.14658e-05
0.000857045 0.000499131 1.08641e-05
8.14658e-05 1.08641e-05 -6.74188e-05
0.00075154 0.000252547 5.59608e-06
0.000252547 7.56329e-05 -1.28343e-05
5.59608e-06 -1.28343e-05 2.98865e-05
0.0104132 -0.000939803 2.0062e-05
-0.000939803 0.00321126 -5.19629e-05
2.0062e-05 -5.19629e-05 0.00323712
0.00311085 0.00015485 8.74395e-05
0.00015485 0.0012947 6.53003e-05
8.74395e-05 6.53003e-05 -0.000413919
0.0072481 -0.000612772 2.66204e-05
-0.000612772 0.00105222 3.99794e-06
2.66204e-05 3.99794e-06 0.00242287
0.000925857 0.000155781 -5.5545e-07
0.000155781 0.000322902 -2.48556e-06
-5.5545e-07 -2.48556e-06 0.000220896
0.00231254 -2.94671e-06 5.85379e-06
-2.94671e-06 0.000846533 -7.84618e-06
5.85379e-06 -7.84618e-06 -0.000147732
0.0010594 8.86556e-05 7.28975e-06
8.86556e-05 0.000260436 1.4041e-05
7.28975e-06 1.4041e-05 -0.000984574
-2.24955e-05 0.000149563 -8.04598e-06
0.000149563 -3.83596e-05 -1.14375e-06
-8.04598e-06 -1.14375e-06 -0.000212439
0.00277205 0.000502701 -5.86172e-05
0.000502701 0.000752121 -3.55523e-05
-5.86172e-05 -3.55523e-05 0.00017199
0.00221747 0.000933311 5.24685e-05
0.000933311 0.000464294 3.85744e-05
5.24685e-05 3.85744e-05 -0.00231807
0.00447342 8.74729e-05 -6.30166e-06
8.74729e-05 -0.00197067 -7.30178e-05
-6.30166e-06 -7.30178e-05 -3.06452e-05
0.00105088 -0.000586899 -2.06171e-05
-0.000586899 -0.000181359 -1.42363e-05
-2.06171e-05 -1.42363e-05 -0.00109968
0.00121751 9.77784e-05 -3.29835e-06
9.77784e-05 0.000624466 -7.30315e-06
-3.29835e-06 -7.30315e-06 0.000521684
0.000843536 -4.58353e-05 3.5371e-07
-4.58353e-05 0.000129364 -2.83884e-05
3.5371e-07 -2.83884e-05 -0.000205425
0.00227325 -3.83302e-06 1.59288e-05
-3.83302e-06 0.000271383 -6.3165e-05
1.59288e-05 -6.3165e-05 -0.000676293
0.00199984 0.000536919 3.55981e-05
0.000536919 -0.00286124 6.28605e-07
3.55981e-05 6.28605e-07 -0.00164164
-0.00109247 3.9429e-05 -6.00121e-06
3.9429e-05 -0.000334251 -1.39608e-05
-6.00121e-06 -1.39608e-05 -0.000736509
0.00987957 0.000681091 0.000102258
0.000681091 0.00446145 4.3348e-05
0.000102258 4.3348e-05 0.00155765
-0.00839701 -0.000271611 5.35508e-05
-0.000271611 -0.00109378 9.76983e-05
5.35508e-05 9.76983e-05 -0.00246317
0.00158845 0.000158247 1.43696e-05
0.000158247 0.000581824 7.21292e-06
1.43696e-05 7.21292e-06 0.000509862
0.00141604 0.000115835 -2.71159e-06
0.000115835 0.000557476 9.04639e-07
-2.71159e-06 9.04639e-07 0.000487531
0.000673742 9.47617e-05 -1.52685e-05
9.47617e-05 0.000331182 -4.37668e-06
-1.52685e-05 -4.37668e-06 0.000247882
0.000793269 0.000115596 1.01908e-06
0.000115596 0.000105742 1.69411e-06
1.01908e-06 1.69411e-06 -4.75326e-06
0.000739775 3.7754e-05 4.45927e-07
3.7754e-05 6.6415e-05 1.58722e-06
4.45927e-07 1.58722e-06 -2.95732e-05
0.000666645 -2.69276e-06 2.88477e-07
-2.69276e-06 0.000126644 8.79928e-06
2.88477e-07 8.79928e-06 3.86509e-05
0.000751352 3.54986e-05 -1.99858e-07
3.54986e-05 7.68177e-05 -4.71817e-07
-1.99858e-07 -4.71817e-07 -2.36541e-05
0.000832259 -3.16954e-05 -2.41957e-07
-3.16954e-05 0.000202688 -1.29751e-06
-2.41957e-07 -1.29751e-06 0.000106366
0.000123863 1.47118e-05 6.72124e-06
1.47118e-05 -7.03927e-05 3.66269e-06
6.72124e-06 3.66269e-06 -0.000152932
0.00137556 -1.1122e-05 -4.81199e-06
-1.1122e-05 0.000635918 -1.02202e-05
-4.81199e-06 -1.02202e-05 0.000567351
0.000569911 -2.6678e-05 -1.20769e-06
-2.6678e-05 3.38085e-05 -6.40917e-06
-1.20769e-06 -6.40917e-06 -5.23185e-05
0.000686248 -1.4987e-05 -2.8142e-07
-1.4987e-05 2.64467e-05 3.09229e-06
-2.8142e-07 3.09229e-06 -5.87713e-05
0.000790365 3.76295e-05 -3.69858e-07
3.76295e-05 0.000108681 2.24565e-07
-3.69858e-07 2.24565e-07 1.59465e-05
0.000907914 2.01546e-05 -3.83685e-06
2.01546e-05 0.000157506 2.91974e-06
-3.83685e-06 2.91974e-06 7.51516e-05
0.000746678 -1.34433e-05 1.1453e-06
-1.34433e-05 8.49667e-05 8.151e-08
1.1453e-06 8.151e-08 1.23492e-05
0.000786847 2.43421e-05 1.23229e-07
2.43421e-05 9.06121e-05 1.42445e-07
1.23229e-07 1.42445e-07 3.26173e-06
0.000708226 -5.83261e-05 2.2873e-06
-5.83261e-05 7.47186e-05 1.53863e-07
2.2873e-06 1.53863e-07 -1.29493e-05
0.000587475 -6.14146e-05 -1.36496e-06
-6.14146e-05 -3.52512e-05 -8.37874e-07
-1.36496e-06 -8.37874e-07 -0.00011895
0.000407424 -0.000120428 5.08506e-06
-0.000120428 -0.000109069 1.4768e-07
5.08506e-06 1.4768e-07 -0.000263941
0.00103607 -3.89483e-05 -1.05879e-06
-3.89483e-05 0.000233543 6.58544e-07
-1.05879e-06 6.58544e-07 0.000133551
0.0010298 -0.000107243 -8.06643e-07
-0.000107243 0.000250348 1.87552e-06
-8.06643e-07 1.87552e-06 0.00011601
0.000250555 -0.000139839 6.14084e-07
-0.000139839 -0.000236781 2.55784e-06
6.14084e-07 2.55784e-06 -0.000417135
0.000630184 -0.00015666 -5.39132e-06
-0.00015666 -2.14388e-05 -5.80719e-07
-5.39132e-06 -5.80719e-07 -0.000206712
0.000948964 -0.000140205 -1.41317e-06
-0.000140205 0.000231399 2.41837e-06
-1.41317e-06 2.41837e-06 8.38255e-05
0.000663275 -0.000151583 7.13494e-07
-0.000151583 2.65726e-05 3.64788e-07
7.13494e-07 3.64788e-07 -0.000152543
0.000860141 -3.54103e-05 4.54673e-07
-3.54103e-05 0.000152492 5.08818e-07
4.54673e-07 5.08818e-07 5.22078e-05
0.00101346 -6.39031e-05 -1.10728e-06
-6.39031e-05 0.000258997 -7.11519e-07
-1.10728e-06 -7.11519e-07 0.00013834
0.000557257 -7.0185e-05 6.18964e-07
-7.0185e-05 2.6124e-05 -6.06506e-06
6.18964e-07 -6.06506e-06 -0.000105792
0.000984789 1.27687e-05 -1.24901e-06
1.27687e-05 0.000223353 -7.47762e-07
-1.24901e-06 -7.47762e-07 0.000126821
0.000578183 1.16947e-05 1.89853e-07
1.16947e-05 -8.72753e-06 -2.77582e-08
1.89853e-07 -2.77582e-08 -9.80061e-05
0.000675594 2.11256e-05 -3.07907e-07
2.11256e-05 2.94392e-05 6.4495e-07
-3.07907e-07 6.4495e-07 -4.1466e-05
0.000810897 -2.81895e-05 -9.64353e-08
-2.81895e-05 0.000126189 2.20546e-07
-9.64353e-08 2.20546e-07 3.3921e-05
0.000719889 -1.28261e-05 -4.25019e-07
-1.28261e-05 5.55687e-05 -8.21424e-09
-4.25019e-07 -8.21424e-09 -1.53339e-05
0.000664868 3.34172e-05 -1.12182e-06
3.34172e-05 7.63622e-06 1.72718e-06
-1.12182e-06 1.72718e-06 -4.03275e-05
0.000758727 -4.66576e-05 9.55461e-07
-4.66576e-05 8.05178e-05 -7.16253e-07
9.55461e-07 -7.16253e-07 6.95426e-06
0.00067882 2.51205e-05 -5.15083e-07
2.51205e-05 1.14893e-05 -2.05893e-08
-5.15083e-07 -2.05893e-08 -3.48837e-05
0.00133149 4.46991e-05 -8.01481e-06
4.46991e-05 0.000381454 3.43547e-06
-8.01481e-06 3.43547e-06 0.000370711
0.000695317 -3.04368e-06 1.8039e-06
-3.04368e-06 1.86058e-05 -1.75799e-06
1.8039e-06 -1.75799e-06 -2.64984e-05
0.00098346 3.22999e-05 -4.17125e-06
3.22999e-05 0.00017557 6.36955e-07
-4.17125e-06 6.36955e-07 0.000163977
0.000816904 2.92105e-05 -1.38291e-06
2.92105e-05 8.47713e-05 1.91305e-06
-1.38291e-06 1.91305e-06 9.23013e-05
0.000600028 2.05626e-05 6.5959e-07
2.05626e-05 -4.97731e-05 -3.73185e-06
6.5959e-07 -3.73185e-06 -6.24937e-05
0.00155733 3.05455e-05 7.04383e-06
3.05455e-05 0.000508238 -1.34993e-06
7.04383e-06 -1.34993e-06 0.000520392
0.0023127 2.65814e-05 8.50351e-06
2.65814e-05 0.000942865 -4.81956e-06
8.50351e-06 -4.81956e-06 0.000959323
0.000494737 3.19436e-06 -2.9361e-08
3.19436e-06 -6.34907e-05 -2.14259e-06
-2.9361e-08 -2.14259e-06 -0.000148816
0.00041195 -3.78602e-06 -3.07698e-07
-3.78602e-06 -0.000140514 -3.07907e-06
-3.07698e-07 -3.07907e-06 -0.000185426
0.00079735 6.25263e-06 6.83057e-08
6.25263e-06 0.000106301 6.21822e-08
6.83057e-08 6.21822e-08 3.19847e-05
0.000638802 -1.11837e-05 -1.11533e-07
-1.11837e-05 -3.23354e-05 -3.76774e-06
-1.11533e-07 -3.76774e-06 -4.0196e-05
0.000532217 4.52705e-06 6.66872e-07
4.52705e-06 -7.07904e-05 -4.97142e-08
6.66872e-07 -4.97142e-08 -0.000111173
0.000494655 -6.37059e-05 -3.58029e-07
-6.37059e-05 -6.34518e-05 1.60608e-06
-3.58029e-07 1.60608e-06 -0.000135997
0.00210411 -1.18478e-05 -5.19276e-06
-1.18478e-05 0.000819014 -4.78494e-06
-5.19276e-06 -4.78494e-06 0.000838568
0.000643413 -4.63062e-06 -1.4804e-07
-4.63062e-06 -3.04522e-05 -1.93046e-08
-1.4804e-07 -1.93046e-08 -3.67905e-05
0.000656137 -3.74736e-06 -6.85241e-07
-3.74736e-06 7.4393e-07 2.05609e-06
-6.85241e-07 2.05609e-06 -3.60552e-05
0.00208144 8.75165e-07 -3.34414e-06
8.75165e-07 0.000805484 4.01899e-09
-3.34414e-06 4.01899e-09 0.000825421
0.000637586 1.57677e-06 3.64694e-08
1.57677e-06 -3.36371e-05 3.52374e-06
3.64694e-08 3.52374e-06 -3.9494e-05
0.00208313 1.35108e-05 -3.97485e-06
1.35108e-05 0.00080784 4.6479e-06
-3.97485e-06 4.6479e-06 0.000827415
0.000934514 -6.74605e-05 -6.86492e-05
-6.74605e-05 -4.48802e-05 2.99148e-05
-6.86492e-05 2.99148e-05 -0.00102753
0.0014776 0.000147577 -1.30796e-05
0.000147577 0.0023311 -9.40364e-06
-1.30796e-05 -9.40364e-06 0.00154208
0.00131945 -0.000263666 -0.000141248
-0.000263666 0.00150367 -8.22379e-06
-0.000141248 -8.22379e-06 0.000868904
0.000759258 5.73009e-05 -1.03734e-07
5.73009e-05 9.26575e-05 -8.98973e-08
-1.03734e-07 -8.98973e-08 -1.54116e-05
0.00313835 -0.000125606 -1.93283e-05
-0.000125606 0.00168937 7.46448e-05
-1.93283e-05 7.46448e-05 0.000789778
0.00297695 -0.000180111 -4.7603e-05
-0.000180111 0.000871495 4.09834e-06
-4.7603e-05 4.09834e-06 -0.000746571
0.00144331 0.00045946 0.000106647
0.00045946 0.00216056 -0.000103363
0.000106647 -0.000103363 0.00185119
0.00321936 -0.000153101 4.7639e-06
-0.000153101 6.85947e-05 -2.6304e-05
4.7639e-06 -2.6304e-05 -0.000195886
0.00987817 1.58285e-05 6.92592e-05
1.58285e-05 0.00314845 -3.56848e-05
6.92592e-05 -3.56848e-05 0.0014376
-0.00348123 0.00086448 -7.57884e-05
0.00086448 -0.00357148 8.78347e-05
-7.57884e-05 8.78347e-05 -0.00269928
0.00398967 0.000918667 1.10556e-05
0.000918667 -0.000367754 2.4892e-05
1.10556e-05 2.4892e-05 0.000421433
0.00467749 -0.000599864 -7.61902e-05
-0.000599864 0.000499561 3.31487e-07
-7.61902e-05 3.31487e-07 -0.000189361
0.00871901 -0.000259554 4.74228e-05
-0.000259554 0.00349786 -1.3819e-05
4.74228e-05 -1.3819e-05 0.0015144
0.00542662 0.000672371 3.51063e-05
0.000672371 0.000324064 -6.44844e-05
3.51063e-05 -6.44844e-05 0.000352323
0.00400711 0.000513395 -1.40741e-05
0.000513395 -0.00163178 5.7441e-06
-1.40741e-05 5.7441e-06 -0.000439178
0.00487991 -0.00103396 -5.98937e-06
-0.00103396 0.000802358 -7.56025e-06
-5.98937e-06 -7.56025e-06 -0.000227656
0.0100867 -0.000724361 5.84009e-05
-0.000724361 0.00500018 -3.19108e-05
5.84009e-05 -3.19108e-05 0.00170123
0.00194218 -0.000100551 4.93875e-05
-0.000100551 -0.00037284 -0.000102701
4.93875e-05 -0.000102701 -0.000548574
0.00554059 0.000124203 -1.60494e-05
0.000124203 -0.000732351 4.75971e-05
-1.60494e-05 4.75971e-05 0.000828475
0.000783903 -2.5542e-05 1.67588e-07
-2.5542e-05 0.000120869 -1.02816e-06
1.67588e-07 -1.02816e-06 -7.53684e-06
0.000776535 -3.79803e-05 4.00409e-07
-3.79803e-05 0.000126339 4.506e-08
4.00409e-07 4.506e-08 2.32204e-06
0.000891083 8.31641e-05 -1.02129e-06
8.31641e-05 0.000189728 2.1901e-07
-1.02129e-06 2.1901e-07 7.86708e-05
0.000731112 1.92644e-05 -7.13921e-07
1.92644e-05 6.48966e-05 -9.12309e-07
-7.13921e-07 -9.12309e-07 -4.24217e-05
0.000847244 7.36414e-05 -6.84936e-07
7.36414e-05 0.000155503 6.61745e-07
-6.84936e-07 6.61745e-07 3.4034e-05
0.000870699 5.53133e-05 4.1975e-07
5.53133e-05 0.000169095 2.10499e-06
4.1975e-07 2.10499e-06 6.03822e-05
0.000964417 9.68661e-05 -7.20198e-07
9.68661e-05 0.0002239 1.98726e-08
-7.20198e-07 1.98726e-08 0.000112912
0.000993365 0.00010362 9.09253e-07
0.00010362 0.000248592 2.41168e-06
9.09253e-07 2.41168e-06 0.000138638
0.00178625 -0.000216929 4.55141e-05
-0.000216929 0.000302845 -1.59102e-05
4.55141e-05 -1.59102e-05 0.000232966
0.000822734 -0.00028158 8.92603e-06
-0.00028158 -0.000221395 -1.44734e-05
8.92603e-06 -1.44734e-05 -0.000227467
0.000774798 -0.000140048 -1.32688e-06
-0.000140048 0.000134933 8.82545e-07
-1.32688e-06 8.82545e-07 -1.51763e-06
0.00204798 -0.000195372 5.94147e-06
-0.000195372 0.000842418 -2.11606e-05
5.94147e-06 -2.11606e-05 0.000624907
0.00168877 -0.000115805 -2.23939e-06
-0.000115805 0.000687481 5.74194e-06
-2.23939e-06 5.74194e-06 0.000501285
0.000914791 -4.59613e-05 -2.02433e-06
-4.59613e-05 0.000205769 -2.3446e-07
-2.02433e-06 -2.3446e-07 7.28598e-05
0.000813095 1.17992e-05 9.6276e-08
1.17992e-05 0.000142467 -2.83881e-07
9.6276e-08 -2.83881e-07 1.05146e-05
0.000525287 -0.000354559 -9.81084e-06
-0.000354559 -0.000417122 6.1095e-08
-9.81084e-06 6.1095e-08 -0.000426739
0.000985994 3.25171e-05 -3.24128e-07
3.25171e-05 0.000295911 1.48304e-06
-3.24128e-07 1.48304e-06 0.000114044
0.00094551 -9.70236e-05 -6.5278e-08
-9.70236e-05 0.000256463 1.16954e-06
-6.5278e-08 1.16954e-06 8.4133e-05
0.000357659 -0.000123458 4.65073e-07
-0.000123458 -7.43649e-05 3.91611e-06
4.65073e-07 3.91611e-06 -0.000123887
0.000637208 2.35312e-05 1.04091e-06
2.35312e-05 1.98251e-05 -8.14275e-07
1.04091e-06 -8.14275e-07 -9.41568e-05
0.00111158 -0.000299561 2.92579e-05
-0.000299561 -4.76587e-05 -2.88697e-05
2.92579e-05 -2.88697e-05 8.87185e-05
0.000477637 -9.31445e-05 -9.01089e-06
-9.31445e-05 0.000227391 2.92808e-05
-9.01089e-06 2.92808e-05 0.000124385
0.000930773 -1.1521e-05 -1.23666e-06
-1.1521e-05 0.000272334 1.03172e-05
-1.23666e-06 1.03172e-05 0.000102542
0.00126272 0.000159155 1.93142e-06
0.000159155 0.000422841 -2.69242e-06
1.93142e-06 -2.69242e-06 0.000266053
0.00122257 -3.11207e-05 -9.30648e-06
-3.11207e-05 0.000459088 -3.64277e-06
-9.30648e-06 -3.64277e-06 9.2705e-05
0.00137335 -4.40115e-05 5.359e-05
-4.40115e-05 0.000487351 -5.41917e-06
5.359e-05 -5.41917e-06 -0.000434484
-0.00349836 -4.73787e-05 -6.70619e-05
-4.73787e-05 0.000720331 3.9787e-06
-6.70619e-05 3.9787e-06 -0.000829166
0.000968835 0.000146969 1.57861e-05
0.000146969 0.000381032 2.17052e-06
1.57861e-05 2.17052e-06 0.00027503
-0.000473216 0.000191798 1.51935e-05
0.000191798 -0.000300558 1.08029e-05
1.51935e-05 1.08029e-05 -0.000518802
0.00260636 -7.66238e-06 6.94947e-05
-7.66238e-06 0.00112573 7.4471e-06
6.94947e-05 7.4471e-06 0.00027143
0.00818405 0.000205754 0.00010938
0.000205754 0.00367069 5.77068e-05
0.00010938 5.77068e-05 0.000842877
0.00251474 0.000521846 -8.71145e-05
0.000521846 0.000837278 -8.22836e-05
-8.71145e-05 -8.22836e-05 -0.000125046
0.00313445 -0.000352159 5.99696e-06
-0.000352159 0.000554004 -9.86329e-05
5.99696e-06 -9.86329e-05 -0.00043083
0.00134869 0.000105276 2.53287e-05
0.000105276 0.000246037 0.000100627
2.53287e-05 0.000100627 -0.00105475
0.00353083 3.21e-06 1.07649e-06
3.21e-06 -0.00322143 -7.00131e-05
1.07649e-06 -7.00131e-05 -0.000814965
0.000666971 0.000116843 2.30373e-06
0.000116843 0.000327667 -9.23194e-07
2.30373e-06 -9.23194e-07 0.000209731
0.00099734 -4.38526e-05 -1.40787e-07
-4.38526e-05 0.000201057 -9.70487e-06
-1.40787e-07 -9.70487e-06 -8.58865e-05
0.00242324 1.30834e-05 2.68558e-05
1.30834e-05 0.000560718 6.49471e-06
2.68558e-05 6.49471e-06 -0.000258476
-0.000924827 9.3875e-05 -1.40384e-05
9.3875e-05 -0.000385939 -5.51865e-06
-1.40384e-05 -5.51865e-06 -0.000711801
0.00426335 0.000594489 1.21009e-05
0.000594489 -0.00160338 -6.09848e-06
1.21009e-05 -6.09848e-06 -0.000425686
0.00554333 0.000768868 7.53336e-05
0.000768868 0.0025961 3.2096e-05
7.53336e-05 3.2096e-05 -0.000400552
0.0031432 0.000178298 -4.57314e-05
0.000178298 0.00199331 5.47324e-06
-4.57314e-05 5.47324e-06 0.00122111
3.39138e-05 0.000137517 -2.7413e-05
0.000137517 5.90977e-05 -1.21815e-05
-2.7413e-05 -1.21815e-05 -0.000128992
0.00164797 2.26514e-05 7.63362e-07
2.26514e-05 0.000133992 -2.6719e-05
7.63362e-07 -2.6719e-05 -4.30273e-05
0.00321927 -9.58676e-05 2.30868e-05
-9.58676e-05 0.00163692 -7.35779e-05
2.30868e-05 -7.35779e-05 0.0007827
0.0050509 0.000941954 0.000103702
0.000941954 -9.3077e-05 -7.78485e-05
0.000103702 -7.78485e-05 0.000802883
0.00467937 -1.12336e-05 -6.2642e-05
-1.12336e-05 0.000532084 9.2852e-05
-6.2642e-05 9.2852e-05 0.000599129
0.00154313 0.000217353 -1.03982e-05
0.000217353 0.000162917 -3.74436e-05
-1.03982e-05 -3.74436e-05 0.000193903
-0.00014536 0.000525591 9.74966e-05
0.000525591 0.0018267 3.62647e-05
9.74966e-05 3.62647e-05 -0.00263255
0.000450021 0.000100324 2.2182e-06
0.000100324 7.16189e-06 5.40732e-06
2.2182e-06 5.40732e-06 -6.4687e-05
0.000567402 8.42661e-05 9.66277e-06
8.42661e-05 0.000264115 1.64488e-06
9.66277e-06 1.64488e-06 0.000176863
0.00161322 2.41104e-05 -2.10603e-05
2.41104e-05 0.000961243 -1.80304e-05
-2.10603e-05 -1.80304e-05 0.000878078
0.00054538 -9.67123e-06 6.68733e-07
-9.67123e-06 -5.02467e-05 3.4729e-06
6.68733e-07 3.4729e-06 -0.000141559
0.0008005 -3.50107e-05 1.14194e-06
-3.50107e-05 0.000183186 4.36372e-06
1.14194e-06 4.36372e-06 8.82557e-05
-0.000224955 5.44156e-06 -2.55921e-06
5.44156e-06 -0.000283764 7.75728e-06
-2.55921e-06 7.75728e-06 -0.000369899
0.000734945 -4.25374e-05 3.31771e-07
-4.25374e-05 0.000121037 -3.40972e-07
3.31771e-07 -3.40972e-07 3.81613e-05
0.000172816 -1.21038e-06 -2.59218e-06
-1.21038e-06 -4.7564e-05 1.75365e-06
-2.59218e-06 1.75365e-06 -0.000117059
0.0010195 -0.000161884 6.61425e-06
-0.000161884 0.000465566 -6.53429e-06
6.61425e-06 -6.53429e-06 0.000305841
0.00108746 -2.27314e-05 -2.0331e-06
-2.27314e-05 0.000273319 3.97555e-06
-2.0331e-06 3.97555e-06 0.000199048
0.000594632 3.89566e-05 -1.22461e-06
3.89566e-05 -1.49785e-05 1.60016e-06
-1.22461e-06 1.60016e-06 -0.000103086
0.00125682 -9.53421e-05 1.05431e-06
-9.53421e-05 0.000374169 1.41339e-06
1.05431e-06 1.41339e-06 0.000278545
6.70419e-05 -0.000103043 4.20192e-06
-0.000103043 -0.000189005 1.60317e-06
4.20192e-06 1.60317e-06 -0.000390416
0.000491045 -3.66445e-05 -4.40467e-06
-3.66445e-05 -6.42204e-05 1.25635e-06
-4.40467e-06 1.25635e-06 -0.000138553
0.000204234 -0.000107357 1.61325e-06
-0.000107357 -0.000222451 -9.07168e-07
1.61325e-06 -9.07168e-07 -0.000365536
0.0010431 -0.000213736 6.65006e-06
-0.000213736 0.000212829 -1.80097e-06
6.65006e-06 -1.80097e-06 -1.1461e-06
0.00122636 -0.000243833 -1.42977e-06
-0.000243833 0.000181434 4.9135e-06
-1.42977e-06 4.9135e-06 -3.97371e-05
0.00160248 -0.00015735 -2.25235e-06
-0.00015735 0.000564334 -2.94315e-08
-2.25235e-06 -2.94315e-08 0.000422217
0.000610828 -0.000169998 -1.99653e-07
-0.000169998 -4.16146e-05 -8.92574e-08
-1.99653e-07 -8.92574e-08 -0.000230534
0.00181241 -0.000263048 1.94114e-06
-0.000263048 0.000612222 -1.72949e-06
1.94114e-06 -1.72949e-06 0.000427801
0.000206345 -9.67059e-05 -2.17525e-06
-9.67059e-05 -0.000198674 -4.88899e-07
-2.17525e-06 -4.88899e-07 -0.000363433
0.000888639 -0.000176069 -3.56114e-07
-0.000176069 0.000126689 1.00665e-06
-3.56114e-07 1.00665e-06 -5.66625e-05
0.000728835 -3.15852e-05 7.24235e-08
-3.15852e-05 8.88865e-05 3.47756e-07
7.24235e-08 3.47756e-07 -2.51324e-05
0.00103389 -0.000151118 -3.03027e-06
-0.000151118 0.000279428 2.1848e-06
-3.03027e-06 2.1848e-06 0.000129537
0.000335913 -0.000121424 -1.80399e-06
-0.000121424 -0.0001547 -1.17845e-06
-1.80399e-06 -1.17845e-06 -0.000327414
0.000668754 3.65319e-05 3.26815e-07
3.65319e-05 3.39727e-05 9.02422e-07
3.26815e-07 9.02422e-07 -4.71711e-05
0.000715713 -2.05792e-05 8.00811e-07
-2.05792e-05 7.54645e-05 -9.33168e-08
8.00811e-07 -9.33168e-08 -2.69082e-05
0.00084507 -5.97785e-05 2.15841e-06
-5.97785e-05 0.000171259 -2.74501e-06
2.15841e-06 -2.74501e-06 4.61498e-05
0.000738177 1.11189e-06 2.6309e-07
1.11189e-06 8.32896e-05 -4.54114e-07
2.6309e-07 -4.54114e-07 -6.7908e-06
0.000729067 1.22456e-06 -5.39241e-07
1.22456e-06 6.34031e-05 -1.21829e-07
-5.39241e-07 -1.21829e-07 -1.09072e-05
0.000660175 3.67689e-05 -1.39827e-06
3.67689e-05 9.01503e-06 1.74741e-06
-1.39827e-06 1.74741e-06 -4.10477e-05
0.000766842 -3.06961e-05 7.64094e-07
-3.06961e-05 8.59895e-05 -7.25404e-07
7.64094e-07 -7.25404e-07 1.18904e-05
0.000677761 2.91519e-05 -3.24949e-07
2.91519e-05 1.37633e-05 -3.18657e-08
-3.24949e-07 -3.18657e-08 -3.36813e-05
0.000613048 4.25639e-05 -1.06562e-06
4.25639e-05 -2.79551e-05 3.79639e-06
-1.06562e-06 3.79639e-06 -4.40023e-05
0.000708791 7.0965e-06 1.79838e-06
7.0965e-06 2.64e-05 -1.74122e-06
1.79838e-06 -1.74122e-06 -1.88515e-05
0.00061712 3.54901e-05 1.28098e-07
3.54901e-05 -3.21911e-05 2.64585e-08
1.28098e-07 2.64585e-08 -4.65049e-05
0.00219153 6.38668e-05 -4.47514e-06
6.38668e-05 0.000887225 1.7734e-06
-4.47514e-06 1.7734e-06 0.000899602
0.000598312 2.81335e-05 8.03937e-07
2.81335e-05 -4.76194e-05 -3.77422e-06
8.03937e-07 -3.77422e-06 -6.09415e-05
0.00154606 4.00892e-05 8.54158e-06
4.00892e-05 0.000506865 -1.19217e-06
8.54158e-06 -1.19217e-06 0.00051788
0.00230468 3.85817e-05 1.2679e-05
3.85817e-05 0.000942273 -4.58645e-06
1.2679e-05 -4.58645e-06 0.000957762
0.000500804 -7.61443e-06 -2.28594e-07
-7.61443e-06 -6.99691e-05 -1.88571e-06
-2.28594e-07 -1.88571e-06 -0.000152724
0.000388117 -6.15193e-06 -2.81945e-07
-6.15193e-06 -0.000154962 -3.09279e-06
-2.81945e-07 -3.09279e-06 -0.000204536
0.000661837 1.09999e-05 -4.23605e-07
1.09999e-05 3.12139e-05 -7.61513e-07
-4.23605e-07 -7.61513e-07 -5.24544e-05
0.000634186 -1.77383e-05 -1.51175e-07
-1.77383e-05 -3.31039e-05 -3.93496e-06
-1.51175e-07 -3.93496e-06 -4.33118e-05
0.000386459 -4.56943e-06 -2.32343e-07
-4.56943e-06 -0.000154905 -9.36314e-07
-2.32343e-07 -9.36314e-07 -0.000200459
0.000816788 1.69405e-05 -1.09575e-07
1.69405e-05 0.000124364 1.68104e-06
-1.09575e-07 1.68104e-06 4.54796e-05
0.00215971 -2.36967e-05 -9.40466e-06
-2.36967e-05 0.000852944 -4.76759e-06
-9.40466e-06 -4.76759e-06 0.000871396
0.000638613 -1.1079e-05 -1.39418e-07
-1.1079e-05 -3.23503e-05 -3.82964e-08
-1.39418e-07 -3.82964e-08 -4.01456e-05
0.000368552 -3.60033e-06 3.9359e-07
-3.60033e-06 -0.000164282 2.1343e-06
3.9359e-07 2.1343e-06 -0.000206093
0.00209663 -1.06838e-05 -3.29728e-06
-1.06838e-05 0.000814462 3.66283e-08
-3.29728e-06 3.66283e-08 0.000834154
0.000643688 -4.51439e-06 1.30694e-07
-4.51439e-06 -3.02645e-05 3.58878e-06
1.30694e-07 3.58878e-06 -3.65647e-05
0.00208927 2.01626e-06 4.69234e-07
2.01626e-06 0.000810052 4.74489e-06
4.69234e-07 4.74489e-06 0.000829929
0.00139768 1.00352e-05 -2.22871e-06
1.00352e-05 0.000566069 2.2345e-05
-2.22871e-06 2.2345e-05 0.000256008
0.00148149 -5.29266e-05 9.80093e-06
-5.29266e-05 0.000316115 -4.33544e-06
9.80093e-06 -4.33544e-06 -0.000661891
0.00181979 9.33146e-05 2.9512e-05
9.33146e-05 0.00251788 -3.10997e-05
2.9512e-05 -3.10997e-05 0.00183999
0.000819403 6.28245e-05 -1.12333e-07
6.28245e-05 0.000121551 2.72237e-07
-1.12333e-07 2.72237e-07 1.88709e-05
0.000682047 3.3337e-05 -8.48437e-08
3.3337e-05 2.91576e-05 1.66036e-07
-8.48437e-08 1.66036e-07 -6.48534e-05
0.000907053 8.71728e-05 -2.96089e-07
8.71728e-05 0.000167463 6.35818e-07
-2.96089e-07 6.35818e-07 5.93055e-05
0.00200486 -3.76754e-05 1.07594e-05
-3.76754e-05 0.000165218 0.000117838
1.07594e-05 0.000117838 -0.000805061
0.00292806 -0.000104513 -4.85601e-06
-0.000104513 0.00157452 7.61313e-07
-4.85601e-06 7.61313e-07 0.000635775
0.00338766 -0.00020588 4.36757e-05
-0.00020588 0.00119544 -8.91006e-05
4.36757e-05 -8.91006e-05 -0.000522192
0.00480435 -0.000632101 -4.37559e-05
-0.000632101 0.000855845 -4.39349e-07
-4.37559e-05 -4.39349e-07 0.000112988
0.00183027 -0.000417586 -8.19916e-05
-0.000417586 0.000226341 6.53179e-05
-8.19916e-05 6.53179e-05 -0.00215494
0.00758519 0.000899538 6.33588e-05
0.000899538 0.00232672 3.11956e-05
6.33588e-05 3.11956e-05 0.00211634
0.00162465 0.000199277 1.89807e-05
0.000199277 -0.00305147 -5.04274e-05
1.89807e-05 -5.04274e-05 -0.00182776
0.00544199 -0.0010265 -1.32503e-05
-0.0010265 0.00146654 4.54281e-06
-1.32503e-05 4.54281e-06 0.000697348
0.00648304 -0.000618655 4.78741e-06
-0.000618655 0.00290464 7.16278e-06
4.78741e-06 7.16278e-06 0.000114344
-0.00209236 0.000399643 -1.26816e-05
0.000399643 -0.00058171 -6.41086e-05
-1.26816e-05 -6.41086e-05 -0.00164172
0.00437507 -4.59279e-05 -1.28666e-05
-4.59279e-05 -0.00201195 2.76301e-05
-1.28666e-05 2.76301e-05 -5.60227e-05
0.00282722 -0.000743775 -3.47922e-05
-0.000743775 0.000363544 -1.57015e-05
-3.47922e-05 -1.57015e-05 -0.000306684
0.0107627 -0.000892627 5.85829e-06
-0.000892627 0.00502597 3.17629e-05
5.85829e-06 3.17629e-05 0.00166846
-0.00853303 -9.1825e-05 5.36741e-05
-9.1825e-05 -0.000975207 -0.00013027
5.36741e-05 -0.00013027 -0.00251262
0.00280259 -0.000498912 2.79841e-06
-0.000498912 -0.00198198 -2.35501e-05
2.79841e-06 -2.35501e-05 -0.000639965
0.000799912 3.68785e-05 -7.21699e-07
3.68785e-05 0.000107851 -4.014e-07
-7.21699e-07 -4.014e-07 -1.08538e-05
0.000761367 2.23015e-06 9.61184e-08
2.23015e-06 0.000107587 -5.48585e-07
9.61184e-08 -5.48585e-07 -2.07329e-05
0.000753072 -5.51221e-05 3.09613e-07
-5.51221e-05 0.000113153 1.87757e-07
3.09613e-07 1.87757e-07 -1.32622e-05
0.000775343 4.27182e-05 -4.75502e-07
4.27182e-05 9.28685e-05 -4.87822e-07
-4.75502e-07 -4.87822e-07 -1.7015e-05
0.000930619 0.000113146 1.25256e-06
0.000113146 0.000202856 1.4183e-06
1.25256e-06 1.4183e-06 8.34077e-05
0.00105014 0.000108497 -5.85e-07
0.000108497 0.000274645 1.08959e-06
-5.85e-07 1.08959e-06 0.000161941
0.000934993 -0.000379288 1.3406e-05
-0.000379288 -0.000213868 5.25693e-06
1.3406e-05 5.25693e-06 -0.000265266
-0.000544455 -7.38183e-05 1.23633e-05
-7.38183e-05 -0.000575539 -2.10301e-05
1.23633e-05 -2.10301e-05 -0.000583427
0.000964694 5.90191e-05 -9.36513e-07
5.90191e-05 0.0002359 1.7208e-07
-9.36513e-07 1.7208e-07 9.9102e-05
0.00111067 -0.000130418 1.52812e-05
-0.000130418 0.000314199 -2.89249e-05
1.52812e-05 -2.89249e-05 0.000141862
0.00124844 1.43743e-05 -1.86921e-06
1.43743e-05 0.000437391 9.42165e-07
-1.86921e-06 9.42165e-07 0.000254012
0.0007316 1.66928e-05 1.59391e-07
1.66928e-05 7.36029e-05 4.05347e-09
1.59391e-07 4.05347e-09 -4.59513e-05
0.000708526 8.43225e-05 1.94509e-07
8.43225e-05 0.000102501 3.88356e-08
1.94509e-07 3.88356e-08 -4.17519e-05
0.000258915 -0.000299349 -2.88572e-06
-0.000299349 -0.00048248 -2.93565e-06
-2.88572e-06 -2.93565e-06 -0.000467542
0.000915905 -2.52659e-05 3.84338e-06
-2.52659e-05 0.000263605 -2.33472e-06
3.84338e-06 -2.33472e-06 9.7023e-05
0.000420072 -4.45974e-05 2.15719e-05
-4.45974e-05 0.00020913 2.02121e-08
2.15719e-05 2.02121e-08 0.000107574
0.00123021 6.18489e-05 1.60517e-06
6.18489e-05 0.00036096 -1.94176e-06
1.60517e-06 -1.94176e-06 0.000244798
-0.00242986 0.00011979 -4.57686e-05
0.00011979 -0.00111929 -1.73713e-05
-4.57686e-05 -1.73713e-05 -0.00146986
0.00028249 1.43762e-05 8.13633e-06
1.43762e-05 8.65742e-05 3.11268e-05
8.13633e-06 3.11268e-05 8.7977e-06
0.00127524 1.24928e-05 1.79967e-06
1.24928e-05 0.000476777 -4.18729e-07
1.79967e-06 -4.18729e-07 0.00033585
0.00135244 -2.46594e-05 3.70028e-06
-2.46594e-05 7.28945e-05 5.21898e-07
3.70028e-06 5.21898e-07 -0.000218192
0.00105214 -2.44857e-05 -1.32169e-05
-2.44857e-05 0.00033753 -4.52572e-06
-1.32169e-05 -4.52572e-06 2.16042e-05
0.00113603 -3.42485e-05 0.000131496
-3.42485e-05 0.000415984 -2.46617e-06
0.000131496 -2.46617e-06 -0.000522718
0.000870723 0.000167075 2.00244e-05
0.000167075 0.000435587 1.25017e-05
2.00244e-05 1.25017e-05 0.000306783
0.00227323 0.000385695 1.70327e-05
0.000385695 0.000840381 -1.38333e-05
1.70327e-05 -1.38333e-05 0.000638609
0.00112568 -4.56283e-05 -1.41426e-06
-4.56283e-05 0.000247118 8.64729e-06
-1.41426e-06 8.64729e-06 9.98617e-06
-0.00128368 0.000404922 1.40855e-05
0.000404922 -1.73089e-05 2.67255e-05
1.40855e-05 2.67255e-05 -0.00307099
-0.0102265 0.000126102 -5.27398e-05
0.000126102 -0.00372933 -0.000126491
-5.27398e-05 -0.000126491 -0.00526669
0.00257697 2.61874e-05 2.84568e-05
2.61874e-05 0.00084541 5.81591e-05
2.84568e-05 5.81591e-05 0.000184018
0.00186456 0.000323086 -2.49723e-05
0.000323086 -0.00297255 5.0442e-05
-2.49723e-05 5.0442e-05 -0.00177811
0.000410338 0.000128481 4.53368e-06
0.000128481 0.000286156 -9.27634e-07
4.53368e-06 -9.27634e-07 0.000116675
0.00153254 -3.10098e-06 7.45514e-06
-3.10098e-06 5.22347e-05 -1.45474e-05
7.45514e-06 -1.45474e-05 -4.61801e-05
0.00301805 -7.62369e-05 3.55622e-06
-7.62369e-05 0.00153568 -1.05518e-06
3.55622e-06 -1.05518e-06 0.000624287
0.00137781 0.000208608 6.03056e-06
0.000208608 0.000140187 -4.22107e-06
6.03056e-06 -4.22107e-06 -0.000198031
0.00226634 0.000864116 4.16172e-05
0.000864116 -0.00164409 -9.42287e-05
4.16172e-05 -9.42287e-05 -0.00067219
-0.00190873 0.000386456 1.09352e-05
0.000386456 -0.00127008 6.22987e-05
1.09352e-05 6.22987e-05 -0.00183082
0.00679003 1.22726e-05 6.0114e-05
1.22726e-05 0.00455986 -2.04273e-05
6.0114e-05 -2.04273e-05 0.00027106
0.00160601 -5.14431e-06 2.45595e-05
-5.14431e-06 0.00117374 -1.35264e-05
2.45595e-05 -1.35264e-05 0.000883338
0.00137111 3.00178e-05 4.32431e-06
3.00178e-05 0.000509895 -1.81533e-05
4.32431e-06 -1.81533e-05 0.00020009
0.00292161 -0.000119312 0.000137921
-0.000119312 0.000633793 -0.000116291
0.000137921 -0.000116291 -0.000798487
0.00325622 0.00118039 -8.68412e-06
0.00118039 0.00193492 -1.19937e-05
-8.68412e-06 -1.19937e-05 0.00293865
-0.00546335 0.000478911 4.24981e-05
0.000478911 -0.00470893 0.000181573
4.24981e-05 0.000181573 -0.0044912
0.0117203 -0.000721046 7.52449e-05
-0.000721046 0.00490701 -7.90986e-05
7.52449e-05 -7.90986e-05 0.00172572
0.00444496 -0.000379412 -8.88755e-05
-0.000379412 0.0013523 0.000107713
-8.88755e-05 0.000107713 0.0012871
0.000996202 9.7509e-05 5.95302e-06
9.7509e-05 0.000504344 4.77771e-06
5.95302e-06 4.77771e-06 0.000408362
8.08413e-05 -1.41306e-05 -5.70471e-06
-1.41306e-05 0.000116758 1.6835e-06
-5.70471e-06 1.6835e-06 1.56456e-06
0.000596803 -0.000206482 9.22547e-06
-0.000206482 0.000432301 -1.39846e-05
9.22547e-06 -1.39846e-05 0.00019371
0.000829263 -5.3019e-05 1.12217e-06
-5.3019e-05 0.000171112 2.57351e-06
1.12217e-06 2.57351e-06 8.89808e-05
-0.000580504 -1.56872e-05 5.14938e-06
-1.56872e-05 -0.000468968 1.35053e-05
5.14938e-06 1.35053e-05 -0.000544257
0.00019286 -0.000121075 -1.74279e-06
-0.000121075 1.68443e-05 2.50638e-08
-1.74279e-06 2.50638e-08 -0.000130768
0.00116295 -0.00021692 2.25824e-05
-0.00021692 0.000497766 -1.44818e-05
2.25824e-05 -1.44818e-05 0.000234929
0.00189258 -0.000136209 -3.50459e-06
-0.000136209 0.000723677 3.02006e-06
-3.50459e-06 3.02006e-06 0.000619533
0.00151095 -0.000235432 1.55851e-06
-0.000235432 0.000559259 2.68861e-07
1.55851e-06 2.68861e-07 0.000349121
0.00108357 -0.000237484 8.52275e-06
-0.000237484 0.000334382 2.39566e-06
8.52275e-06 2.39566e-06 -2.3022e-06
3.55826e-05 -8.93317e-05 -1.92378e-06
-8.93317e-05 -0.000317788 -8.46708e-07
-1.92378e-06 -8.46708e-07 -0.000447296
0.00110813 -0.000216873 -3.77545e-07
-0.000216873 0.000231911 1.32621e-06
-3.77545e-07 1.32621e-06 1.09439e-05
0.00262442 -0.000384356 2.92113e-06
-0.000384356 0.00095193 2.58437e-06
2.92113e-06 2.58437e-06 0.000666866
0.0018649 -0.000327497 -2.854e-06
-0.000327497 0.000409975 2.50768e-06
-2.854e-06 2.50768e-06 0.000155193
0.000504251 -0.0001763 1.24645e-06
-0.0001763 -0.000194943 6.8332e-06
1.24645e-06 6.8332e-06 -0.000387716
0.00128994 -0.000249745 -2.99264e-06
-0.000249745 0.000221154 2.02427e-06
-2.99264e-06 2.02427e-06 -3.67808e-06
0.000920205 -0.000196166 -4.84106e-06
-0.000196166 0.000124139 1.41603e-06
-4.84106e-06 1.41603e-06 -7.27584e-05
0.00163921 -0.000239105 4.68934e-06
-0.000239105 0.000547244 -3.19784e-06
4.68934e-06 -3.19784e-06 0.000368676
0.00125027 -0.000214405 2.70253e-06
-0.000214405 0.000300828 -2.24373e-06
2.70253e-06 -2.24373e-06 0.000131158
0.000317304 -4.50051e-05 1.8928e-06
-4.50051e-05 -0.000138395 8.38484e-07
1.8928e-06 8.38484e-07 -0.000281062
0.0007017 -0.000138637 1.34548e-06
-0.000138637 8.36517e-05 -4.75866e-07
1.34548e-06 -4.75866e-07 -8.50014e-05
0.00113426 -0.000194217 5.40303e-06
-0.000194217 0.000266939 -3.50787e-06
5.40303e-06 -3.50787e-06 8.62228e-05
0.000672925 4.52804e-05 1.13479e-06
4.52804e-05 4.57506e-05 1.3453e-06
1.13479e-06 1.3453e-06 -5.07405e-05
0.000888032 -6.04655e-05 -4.05744e-07
-6.04655e-05 0.00018308 -5.47901e-08
-4.05744e-07 -5.47901e-08 6.30769e-05
0.00104682 -0.000155429 -7.12164e-07
-0.000155429 0.000285858 -3.48937e-07
-7.12164e-07 -3.48937e-07 0.00013486
0.000645789 3.95235e-05 -1.15455e-06
3.95235e-05 6.76595e-06 1.82599e-06
-1.15455e-06 1.82599e-06 -4.77078e-05
0.000738091 8.22365e-06 -6.92575e-07
8.22365e-06 7.15765e-05 -2.86823e-07
-6.92575e-07 -2.86823e-07 -9.94523e-06
0.000578155 -9.17653e-06 1.25903e-07
-9.17653e-06 1.69597e-06 -6.54311e-07
1.25903e-07 -6.54311e-07 -0.000102521
0.000776777 -1.99195e-05 7.13025e-07
-1.99195e-05 9.16352e-05 -9.90094e-07
7.13025e-07 -9.90094e-07 1.55925e-05
0.000680861 2.61368e-05 -2.68248e-07
2.61368e-05 1.92472e-05 -6.47851e-08
-2.68248e-07 -6.47851e-08 -3.01057e-05
0.000596507 5.00026e-05 -1.01162e-06
5.00026e-05 -2.88511e-05 3.95625e-06
-1.01162e-06 3.95625e-06 -4.76083e-05
0.000695795 1.65728e-05 1.81198e-06
1.65728e-05 2.21862e-05 -1.73012e-06
1.81198e-06 -1.73012e-06 -2.43305e-05
0.000612961 4.36186e-05 2.57469e-08
4.36186e-05 -2.78694e-05 1.85994e-09
2.57469e-08 1.85994e-09 -4.40276e-05
0.00223202 6.97024e-05 -2.34081e-05
6.97024e-05 0.000917825 3.75896e-06
-2.34081e-05 3.75896e-06 0.00092898
0.000606086 3.61841e-05 8.75521e-07
3.61841e-05 -3.85939e-05 -3.7755e-06
8.75521e-07 -3.7755e-06 -5.29234e-05
0.00152902 4.9853e-05 1.00929e-05
4.9853e-05 0.000503799 -1.04066e-06
1.00929e-05 -1.04066e-06 0.000513256
0.00229185 5.02776e-05 1.65328e-05
5.02776e-05 0.000940179 -4.27992e-06
1.65328e-05 -4.27992e-06 0.000954397
0.000725838 4.75789e-05 -6.32376e-07
4.75789e-05 5.79414e-05 -8.74855e-07
-6.32376e-07 -8.74855e-07 -2.645e-05
0.000674225 6.47818e-06 -7.61841e-07
6.47818e-06 7.33401e-06 -2.32963e-06
-7.61841e-07 -2.32963e-06 -4.34224e-05
0.000613268 2.99821e-05 -9.6302e-07
2.99821e-05 1.69099e-06 -7.23592e-07
-9.6302e-07 -7.23592e-07 -8.57223e-05
0.000623267 -2.46672e-05 2.22086e-09
-2.46672e-05 -3.62273e-05 -4.16199e-06
2.22086e-09 -4.16199e-06 -4.93479e-05
0.000519469 2.60789e-06 -8.97135e-07
2.60789e-06 -7.98316e-05 -9.2313e-07
-8.97135e-07 -9.2313e-07 -0.000128288
0.000831068 2.62778e-05 3.41021e-07
2.62778e-05 0.000128424 6.57639e-07
3.41021e-07 6.57639e-07 4.54896e-05
0.0022359 -3.57986e-05 -1.38765e-05
-3.57986e-05 0.000900008 -4.68648e-06
-1.38765e-05 -4.68648e-06 0.000916818
0.000631917 -1.7451e-05 -2.2712e-07
-1.7451e-05 -3.43971e-05 -3.2812e-08
-2.2712e-07 -3.2812e-08 -4.44955e-05
0.000353295 -4.86978e-06 -3.5202e-07
-4.86978e-06 -0.000173719 1.38742e-06
-3.5202e-07 1.38742e-06 -0.000219845
0.00215116 -2.25637e-05 -3.27053e-06
-2.25637e-05 0.000847604 7.43807e-08
-3.27053e-06 7.43807e-08 0.000866289
0.000638652 -1.10022e-05 1.38237e-07
-1.10022e-05 -3.22147e-05 3.69281e-06
1.38237e-07 3.69281e-06 -3.9956e-05
0.00209865 -9.51637e-06 5.02756e-06
-9.51637e-06 0.000815426 4.75915e-06
5.02756e-06 4.75915e-06 0.000835178
0.00157056 -1.89815e-05 2.38535e-06
-1.89815e-05 0.000101639 2.85442e-05
2.38535e-06 2.85442e-05 -8.09633e-05
0.00129087 5.67736e-06 -4.95701e-06
5.67736e-06 0.000445579 -8.16538e-07
-4.95701e-06 -8.16538e-07 0.000138431
0.00167472 -4.63005e-05 8.96547e-05
-4.63005e-05 0.000491522 -2.84185e-05
8.96547e-05 -2.84185e-05 -0.000504052
0.000651542 -6.06793e-06 -2.56e-07
-6.06793e-06 4.41071e-06 -4.1807e-07
-2.56e-07 -4.1807e-07 -8.22739e-05
0.000878369 1.92603e-05 -1.13255e-06
1.92603e-05 0.000142363 -5.56317e-07
-1.13255e-06 -5.56317e-07 4.61795e-05
0.000827079 6.10924e-05 1.38806e-06
6.10924e-05 0.000123513 6.82662e-07
1.38806e-06 6.82662e-07 2.48697e-05
0.000687241 1.79136e-05 1.87183e-07
1.79136e-05 2.67113e-05 1.60695e-07
1.87183e-07 1.60695e-07 -6.30156e-05
0.000793834 4.1739e-05 3.26211e-08
4.1739e-05 0.000101492 1.99839e-07
3.26211e-08 1.99839e-07 -4.4833e-06
0.000789954 2.54125e-05 -1.08524e-06
2.54125e-05 9.26598e-05 1.69295e-07
-1.08524e-06 1.69295e-07 -4.37833e-06
0.000954609 0.000155876 5.83501e-07
0.000155876 0.000208035 2.8671e-07
5.83501e-07 2.8671e-07 8.32585e-05
0.000568208 2.70929e-05 3.02641e-05
2.70929e-05 0.000204408 0.000114203
3.02641e-05 0.000114203 -0.000981503
0.00231036 -2.27922e-05 -5.26786e-06
-2.27922e-05 0.000575997 4.04136e-05
-5.26786e-06 4.04136e-05 -0.000231028
0.00267921 -7.96947e-05 5.1907e-06
-7.96947e-05 0.00146661 -6.14408e-05
5.1907e-06 -6.14408e-05 0.000458368
0.00319313 -0.000123491 -2.22918e-05
-0.000123491 -0.00335439 3.31651e-05
-2.22918e-05 3.31651e-05 -0.00099267
0.00380864 -0.000882075 -4.26468e-05
-0.000882075 0.0012143 5.45996e-05
-4.26468e-05 5.45996e-05 0.000252508
-0.00172315 -0.000851192 2.54913e-05
-0.000851192 -0.000714935 4.64069e-05
2.54913e-05 4.64069e-05 -0.00387564
0.00627443 0.00102673 4.85205e-05
0.00102673 0.00367271 -2.1792e-05
4.85205e-05 -2.1792e-05 0.00212684
0.00410697 -0.000855266 -1.84228e-05
-0.000855266 0.000969253 5.07994e-06
-1.84228e-05 5.07994e-06 0.000190671
0.000522021 -0.000403506 4.01559e-05
-0.000403506 0.000895905 2.89386e-06
4.01559e-05 2.89386e-06 -0.00252214
0.00416432 -8.31986e-05 -1.86607e-05
-8.31986e-05 0.0022183 -3.90629e-06
-1.86607e-05 -3.90629e-06 0.00145228
0.00727609 -0.000705174 -2.35492e-05
-0.000705174 0.000857707 -3.05512e-05
-2.35492e-05 -3.05512e-05 0.00215534
0.00139823 6.9216e-06 -6.89466e-05
6.9216e-06 -0.000493881 4.87605e-05
-6.89466e-05 4.87605e-05 -0.00040274
0.000760995 0.000593753 3.30646e-06
0.000593753 0.000788168 -9.05504e-05
3.30646e-06 -9.05504e-05 -0.00242568
-0.00680406 -0.00101479 5.31179e-05
-0.00101479 -0.00422541 -8.06548e-05
5.31179e-05 -8.06548e-05 -0.00563557
0.00253185 -0.000676968 1.17375e-05
-0.000676968 -0.00158085 -0.000140048
1.17375e-05 -0.000140048 -6.92205e-05
0.000745173 -1.0316e-06 -1.8403e-06
-1.0316e-06 7.47889e-05 3.08651e-07
-1.8403e-06 3.08651e-07 -2.4473e-05
0.00073026 3.71143e-05 2.36487e-07
3.71143e-05 7.01575e-05 1.8334e-07
2.36487e-07 1.8334e-07 -4.90257e-05
0.000724455 1.24505e-05 -3.13624e-07
1.24505e-05 9.2926e-05 -1.33682e-07
-3.13624e-07 -1.33682e-07 -3.92146e-05
0.000818835 3.90928e-05 1.55045e-07
3.90928e-05 0.000127344 -6.97158e-07
1.55045e-07 -6.97158e-07 1.02247e-05
0.000581104 -0.000337952 8.65779e-07
-0.000337952 -0.000371793 1.789e-05
8.65779e-07 1.789e-05 -0.000425786
0.00097899 -3.67963e-05 -6.22219e-06
-3.67963e-05 0.00051881 -2.55214e-05
-6.22219e-06 -2.55214e-05 0.000434052
0.000570486 1.0802e-05 -7.1984e-07
1.0802e-05 -2.68126e-05 6.03823e-07
-7.1984e-07 6.03823e-07 -0.000142828
0.000740415 8.56576e-05 -1.53728e-06
8.56576e-05 0.000124148 2.53865e-06
-1.53728e-06 2.53865e-06 -1.99497e-05
0.0015516 -4.86875e-05 5.81681e-06
-4.86875e-05 0.000628469 -2.31383e-05
5.81681e-06 -2.31383e-05 0.000457666
0.000737396 3.56755e-05 -4.09448e-07
3.56755e-05 8.42806e-05 4.54834e-07
-4.09448e-07 4.54834e-07 -2.93658e-05
0.000929066 4.2353e-05 -1.39031e-06
4.2353e-05 0.000293015 -2.18477e-06
-1.39031e-06 -2.18477e-06 0.000144539
-0.000260681 2.42994e-05 1.16126e-05
2.42994e-05 -8.92257e-05 -1.19389e-05
1.16126e-05 -1.19389e-05 -0.000505324
0.000864639 -2.1978e-05 2.52854e-05
-2.1978e-05 0.000424311 -4.11489e-07
2.52854e-05 -4.11489e-07 0.000367666
0.000359624 7.10452e-05 -9.02895e-07
7.10452e-05 -4.71057e-05 -4.37515e-07
-9.02895e-07 -4.37515e-07 -0.000155509
0.000239185 -3.331e-05 -2.4177e-05
-3.331e-05 0.000680204 -4.2527e-05
-2.4177e-05 -4.2527e-05 -0.000412271
0.00300088 6.09229e-05 1.09196e-05
6.09229e-05 0.00154159 1.93648e-05
1.09196e-05 1.93648e-05 0.00140305
0.00119272 -1.67963e-05 1.19563e-05
-1.67963e-05 0.000440322 4.2203e-06
1.19563e-05 4.2203e-06 7.28974e-05
0.00131901 -2.34173e-05 -3.41968e-08
-2.34173e-05 0.000137773 5.73232e-07
-3.41968e-08 5.73232e-07 -8.82521e-05
0.000721054 -2.22056e-05 -8.79842e-06
-2.22056e-05 0.000162751 -5.62541e-06
-8.79842e-06 -5.62541e-06 -0.000139612
0.000296218 0.000105056 1.66389e-05
0.000105056 0.000246029 6.95429e-06
1.66389e-05 6.95429e-06 9.51609e-05
2.61978e-05 0.000185857 1.36768e-07
0.000185857 -0.000536984 2.97855e-05
1.36768e-07 2.97855e-05 -0.00062566
0.00139985 -1.64334e-05 7.82728e-06
-1.64334e-05 -2.31246e-05 3.85057e-06
7.82728e-06 3.85057e-06 -5.75111e-05
0.00364131 -0.000682266 0.000137755
-0.000682266 0.00313339 -0.000124648
0.000137755 -0.000124648 -0.000917397
0.00677386 0.00106794 -4.93125e-05
0.00106794 0.00327375 2.91335e-05
-4.93125e-05 2.91335e-05 0.00205587
0.00278761 -5.78306e-05 -1.16952e-05
-5.78306e-05 0.00143769 6.09303e-05
-1.16952e-05 6.09303e-05 0.000445059
0.00405166 0.000927186 -1.34178e-05
0.000927186 -0.000416628 -2.15368e-05
-1.34178e-05 -2.15368e-05 0.000417292
-0.00041385 5.86126e-05 1.99226e-05
5.86126e-05 0.000159844 4.9394e-06
1.99226e-05 4.9394e-06 -0.00022765
0.00136578 1.99577e-05 4.7963e-06
1.99577e-05 0.000461814 6.70709e-07
4.7963e-06 6.70709e-07 0.000177183
0.00308254 -0.000157201 4.6718e-05
-0.000157201 0.000827575 -3.98323e-06
4.6718e-05 -3.98323e-06 -0.000743442
0.000682019 -0.000107587 8.54346e-07
-0.000107587 -0.000653522 2.44456e-05
8.54346e-07 2.44456e-05 -0.000488166
-0.0017085 0.00125679 6.39021e-05
0.00125679 -0.000844805 -2.46166e-05
6.39021e-05 -2.46166e-05 0.00064053
0.00540074 0.000673745 -2.93086e-05
0.000673745 0.000155817 6.41927e-05
-2.93086e-05 6.41927e-05 0.000338169
-0.00210978 -0.000686363 5.68608e-05
-0.000686363 -0.000153896 -4.86038e-05
5.68608e-05 -4.86038e-05 -0.0042172
0.000579516 -2.33655e-05 3.61015e-05
-2.33655e-05 0.000238877 -8.66369e-06
3.61015e-05 -8.66369e-06 0.000105362
0.0010376 -5.80876e-05 5.79412e-05
-5.80876e-05 -3.58629e-05 -2.57204e-05
5.79412e-05 -2.57204e-05 -0.000985974
-0.00185417 0.000190783 -0.000139272
0.000190783 0.000637474 -1.79645e-05
-0.000139272 -1.79645e-05 -0.000212619
0.00105564 0.00109986 -9.47434e-05
0.00109986 -0.000323454 0.00014626
-9.47434e-05 0.00014626 0.000182736
0.00797827 -0.000342588 2.07819e-05
-0.000342588 0.0036592 -2.38547e-05
2.07819e-05 -2.38547e-05 0.000734028
0.00328596 -0.000345265 -6.95829e-05
-0.000345265 0.000685981 6.75328e-05
-6.95829e-05 6.75328e-05 0.000355596
-0.00186517 8.05569e-06 7.0129e-08
8.05569e-06 -0.000929262 1.2019e-05
7.0129e-08 1.2019e-05 -0.00108958
4.17736e-05 -0.000145641 -6.95482e-07
-0.000145641 0.000150135 -1.27806e-07
-6.95482e-07 -1.27806e-07 -7.98679e-05
0.000737539 -0.000218811 2.04917e-05
-0.000218811 0.000242135 -7.86414e-06
2.04917e-05 -7.86414e-06 9.87722e-05
-0.000634864 -7.95859e-05 -3.57277e-06
-7.95859e-05 -0.000432571 5.60336e-06
-3.57277e-06 5.60336e-06 -0.000567136
-0.000453255 -0.000109292 6.55711e-07
-0.000109292 -0.000336203 -3.47156e-06
6.55711e-07 -3.47156e-06 -0.000603429
0.00240852 -0.000395865 2.51702e-05
-0.000395865 0.000813853 -5.71626e-06
2.51702e-05 -5.71626e-06 0.000560375
0.00290494 -0.000370508 -5.91389e-06
-0.000370508 0.00127667 1.83561e-06
-5.91389e-06 1.83561e-06 0.00105657
0.00175168 -0.000286834 2.96595e-06
-0.000286834 0.000656067 8.11187e-07
2.96595e-06 8.11187e-07 0.000334558
0.000860916 -0.000273424 7.03785e-06
-0.000273424 -1.89116e-05 -4.04459e-06
7.03785e-06 -4.04459e-06 -0.000329591
0.00127673 -0.000229369 -5.14293e-06
-0.000229369 0.00030686 9.55557e-07
-5.14293e-06 9.55557e-07 7.88451e-05
0.00220523 -0.000352111 2.22504e-06
-0.000352111 0.000712107 5.46386e-08
2.22504e-06 5.46386e-08 0.000427767
0.00195914 -0.00035202 2.90795e-06
-0.00035202 0.000451496 -4.93836e-06
2.90795e-06 -4.93836e-06 0.000174254
0.00168875 -0.000302738 5.20393e-07
-0.000302738 0.000227502 -3.7056e-06
5.20393e-07 -3.7056e-06 9.93191e-06
0.00261858 -0.000375322 -6.48223e-06
-0.000375322 0.00083756 6.34589e-06
-6.48223e-06 6.34589e-06 0.000590811
0.00189732 -0.000332104 -1.30906e-06
-0.000332104 0.000420997 -3.73389e-07
-1.30906e-06 -3.73389e-07 0.000161136
0.000346526 -0.000153387 5.05405e-06
-0.000153387 -0.000261018 1.33155e-07
5.05405e-06 1.33155e-07 -0.000433426
0.000950655 -0.000208777 2.51048e-06
-0.000208777 5.78534e-05 -4.67073e-07
2.51048e-06 -4.67073e-07 -0.000132305
0.00149556 -0.000266743 -1.81918e-06
-0.000266743 0.000339796 -1.64719e-06
-1.81918e-06 -1.64719e-06 0.000110631
0.00112225 -0.000186015 1.91281e-06
-0.000186015 0.00027923 -1.27434e-07
1.91281e-06 -1.27434e-07 0.000103266
0.00126429 -0.000206624 -1.90372e-06
-0.000206624 0.000333449 -1.44921e-06
-1.90372e-06 -1.44921e-06 0.000159386
0.00070343 -0.00016713 3.89011e-06
-0.00016713 -1.27839e-06 -2.00042e-06
3.89011e-06 -2.00042e-06 -0.000156598
0.000749157 -2.04528e-05 1.96508e-06
-2.04528e-05 9.88758e-05 1.44252e-06
1.96508e-06 1.44252e-06 -2.39922e-05
0.000599548 -7.21045e-05 1.19798e-07
-7.21045e-05 2.60552e-05 7.72847e-07
1.19798e-07 7.72847e-07 -0.000119478
0.00123548 -0.000184257 2.11119e-06
-0.000184257 0.000387971 -1.87999e-06
2.11119e-06 -1.87999e-06 0.00021471
0.000593023 5.4212e-05 -4.14537e-08
5.4212e-05 -1.10665e-05 2.3584e-06
-4.14537e-08 2.3584e-06 -7.74909e-05
0.00074045 2.74913e-06 -4.36878e-07
2.74913e-06 8.55837e-05 -3.83956e-07
-4.36878e-07 -3.83956e-07 -1.50484e-05
0.00101592 -8.23745e-05 -6.00795e-07
-8.23745e-05 0.000259733 -6.60148e-07
-6.00795e-07 -6.60148e-07 0.000134156
0.000571645 5.71223e-05 -1.7324e-06
5.71223e-05 -3.33678e-05 5.51346e-06
-1.7324e-06 5.51346e-06 -5.53562e-05
0.000667846 3.65853e-05 -2.85523e-07
3.65853e-05 1.84529e-05 -2.01165e-07
-2.85523e-07 -2.01165e-07 -3.59342e-05
0.000804744 -1.44359e-05 1.15818e-08
-1.44359e-05 0.000110106 -1.27695e-06
1.15818e-08 -1.27695e-06 2.66591e-05
0.000689719 2.45347e-05 1.43563e-06
2.45347e-05 2.35716e-05 -1.8565e-06
1.43563e-06 -1.8565e-06 -2.56171e-05
0.000603134 5.15579e-05 2.92729e-08
5.15579e-05 -2.4472e-05 -3.52812e-09
2.92729e-08 -3.52812e-09 -4.35224e-05
0.00225148 8.10646e-05 -2.63706e-05
8.10646e-05 0.000937315 3.39405e-06
-2.63706e-05 3.39405e-06 0.00094594
0.000612415 4.47905e-05 7.65104e-07
4.47905e-05 -2.80464e-05 -3.84812e-06
7.65104e-07 -3.84812e-06 -4.43348e-05
0.00225337 7.13723e-05 2.1942e-06
7.13723e-05 0.000931026 1.66192e-07
2.1942e-06 1.66192e-07 0.000941845
0.00226427 6.14324e-05 1.98885e-05
6.14324e-05 0.000930666 -3.92067e-06
1.98885e-05 -3.92067e-06 0.000943344
0.000760411 2.99347e-05 -4.40895e-07
2.99347e-05 8.56941e-05 -7.0214e-07
-4.40895e-07 -7.0214e-07 -1.40846e-05
0.000781536 6.20035e-05 -7.23287e-07
6.20035e-05 9.77841e-05 -1.25002e-06
-7.23287e-07 -1.25002e-06 4.73072e-06
0.000676512 -1.87259e-06 -9.37243e-07
-1.87259e-06 7.72994e-06 -2.35025e-06
-9.37243e-07 -2.35025e-06 -4.63338e-05
0.000748391 5.59958e-05 -9.89848e-08
5.59958e-05 7.08134e-05 1.65363e-08
-9.89848e-08 1.65363e-08 -1.38016e-05
0.000609002 -3.18498e-05 -8.6678e-08
-3.18498e-05 -3.95161e-05 -4.406e-06
-8.6678e-08 -4.406e-06 -5.60708e-05
0.000678197 5.80103e-06 -1.17667e-07
5.80103e-06 9.96309e-06 -4.98996e-08
-1.17667e-07 -4.98996e-08 -4.08054e-05
0.000713286 3.31371e-05 -6.02002e-07
3.31371e-05 4.91222e-05 6.90499e-07
-6.02002e-07 6.90499e-07 -3.09565e-05
0.00232139 -4.81747e-05 -1.82577e-05
-4.81747e-05 0.000953641 -4.5808e-06
-1.82577e-05 -4.5808e-06 0.000968367
0.000624687 -2.41943e-05 -1.8612e-07
-2.41943e-05 -3.53761e-05 -4.05104e-08
-1.8612e-07 -4.05104e-08 -4.839e-05
0.000657453 9.56344e-06 -4.13003e-07
9.56344e-06 -1.02681e-06 1.48868e-06
-4.13003e-07 1.48868e-06 -4.83582e-05
0.00221889 -3.46609e-05 -3.40013e-06
-3.46609e-05 0.000889632 1.15658e-07
-3.40013e-06 1.15658e-07 0.000906754
0.000631877 -1.72017e-05 6.57488e-08
-1.72017e-05 -3.43783e-05 3.83903e-06
6.57488e-08 3.83903e-06 -4.43802e-05
0.00213374 -2.13491e-05 9.30582e-06
-2.13491e-05 0.000837127 4.7026e-06
9.30582e-06 4.7026e-06 0.000856067
0.000869858 -6.19834e-05 4.68738e-06
-6.19834e-05 0.000133673 2.65684e-05
4.68738e-06 2.65684e-05 -0.000168534
0.00151379 -3.22288e-05 -8.65596e-06
-3.22288e-05 5.14353e-05 1.53906e-05
-8.65596e-06 1.53906e-05 -5.06479e-05
0.00136872 -3.74485e-06 -2.44672e-06
-3.74485e-06 0.00036559 -1.81895e-05
-2.44672e-06 -1.81895e-05 0.000132923
0.000754261 2.98785e-05 -1.54886e-07
2.98785e-05 7.48567e-05 -4.8259e-08
-1.54886e-07 -4.8259e-08 -2.08112e-05
0.000746871 5.78225e-06 6.37932e-08
5.78225e-06 6.77567e-05 1.5229e-07
6.37932e-08 1.5229e-07 -2.73219e-05
0.000669862 8.41772e-06 -1.87432e-06
8.41772e-06 2.53898e-05 -1.88905e-06
-1.87432e-06 -1.88905e-06 -7.1596e-05
0.000592032 -1.26856e-05 -8.124e-07
-1.26856e-05 -2.06865e-05 -8.02699e-07
-8.124e-07 -8.02699e-07 -0.000114557
0.000992809 8.77719e-05 -1.47297e-06
8.77719e-05 0.00022202 -6.21784e-07
-1.47297e-06 -6.21784e-07 0.00011012
0.000709454 -9.31612e-07 9.37748e-08
-9.31612e-07 3.59746e-05 6.53562e-08
9.37748e-08 6.53562e-08 -5.0999e-05
0.000714524 2.09486e-05 9.77841e-07
2.09486e-05 4.86992e-05 -3.08891e-07
9.77841e-07 -3.08891e-07 -5.14453e-05
0.00077984 3.55268e-05 -1.03926e-07
3.55268e-05 9.03369e-05 -4.54854e-08
-1.03926e-07 -4.54854e-08 -9.35647e-06
0.000887067 6.8811e-05 3.4014e-07
6.8811e-05 0.000150718 3.39871e-07
3.4014e-07 3.39871e-07 4.13315e-05
0.000940021 3.95316e-05 -8.4943e-07
3.95316e-05 0.000195583 -5.86195e-08
-8.4943e-07 -5.86195e-08 8.95932e-05
0.00207859 6.4399e-05 9.72004e-05
6.4399e-05 0.000776402 0.000145276
9.72004e-05 0.000145276 -0.000822995
0.000995303 5.64097e-05 9.24532e-06
5.64097e-05 0.000254879 3.64054e-05
9.24532e-06 3.64054e-05 -0.000967697
0.00263313 -8.47095e-06 -1.51669e-05
-8.47095e-06 0.000982177 -1.72425e-05
-1.51669e-05 -1.72425e-05 0.000364705
0.00706021 -0.000625127 -4.93761e-05
-0.000625127 0.000914762 -6.45576e-05
-4.93761e-05 -6.45576e-05 0.0022598
-0.0103555 0.000398383 -5.04032e-05
0.000398383 -0.00355555 0.000156278
-5.04032e-05 0.000156278 -0.0052018
0.00505777 -0.00084797 -9.19121e-05
-0.00084797 0.00168562 5.08118e-05
-9.19121e-05 5.08118e-05 0.000915707
0.0092043 -0.000466597 -3.43665e-05
-0.000466597 0.00362715 -2.8934e-05
-3.43665e-05 -2.8934e-05 0.000829882
0.0028231 -0.00013795 -3.08332e-05
-0.00013795 0.000312933 4.99816e-05
-3.08332e-05 4.99816e-05 -2.6761e-05
0.0108632 -0.000182305 3.99369e-05
-0.000182305 0.00501586 -1.62823e-05
3.99369e-05 -1.62823e-05 0.00164644
0.0013718 -0.000577397 3.72785e-05
-0.000577397 -0.000178666 3.45626e-05
3.72785e-05 3.45626e-05 -0.000969335
0.00208239 -0.000806077 -7.99885e-05
-0.000806077 -0.00196173 -0.000174794
-7.99885e-05 -0.000174794 -0.000454649
0.0036132 0.000148113 -8.42004e-05
0.000148113 0.000557118 6.23966e-06
-8.42004e-05 6.23966e-06 0.00012627
0.00888549 0.000409181 -4.37437e-06
0.000409181 0.00383663 2.68723e-05
-4.37437e-06 2.68723e-05 0.00124314
0.00911467 -0.00131476 -6.09064e-06
-0.00131476 0.002768 -0.000126609
-6.09064e-06 -0.000126609 0.0028458
0.00485281 -0.00124726 3.84993e-05
-0.00124726 0.000704955 3.40327e-06
3.84993e-05 3.40327e-06 0.00229359
0.000366018 3.91007e-05 2.39309e-07
3.91007e-05 -7.65202e-05 7.2573e-07
2.39309e-07 7.2573e-07 -0.000158204
0.000936523 -3.25985e-06 -4.07175e-08
-3.25985e-06 0.000190357 8.9678e-07
-4.07175e-08 8.9678e-07 8.74886e-05
0.000746111 3.47458e-05 2.09352e-07
3.47458e-05 7.87757e-05 4.06541e-07
2.09352e-07 4.06541e-07 -3.91589e-05
0.000712309 2.39938e-05 -3.77147e-05
2.39938e-05 0.000371186 1.52592e-05
-3.77147e-05 1.52592e-05 -0.000134556
0.00097788 -5.94849e-05 -6.39003e-05
-5.94849e-05 0.00051517 -2.32432e-05
-6.39003e-05 -2.32432e-05 0.000474867
0.000595151 -7.00743e-06 -1.91024e-07
-7.00743e-06 6.45154e-06 1.78222e-06
-1.91024e-07 1.78222e-06 -0.000107533
-0.000273405 3.26279e-05 1.0778e-07
3.26279e-05 -0.000366817 -2.81257e-06
1.0778e-07 -2.81257e-06 -0.000521405
0.000683547 7.0441e-05 -2.69417e-07
7.0441e-05 0.000144063 -2.43756e-06
-2.69417e-07 -2.43756e-06 2.63867e-05
0.000506794 5.18699e-05 -4.0135e-06
5.18699e-05 0.000209035 4.74538e-06
-4.0135e-06 4.74538e-06 6.24613e-05
-6.63391e-05 -3.64398e-06 7.92426e-05
-3.64398e-06 0.000628608 -3.68024e-05
7.92426e-05 -3.68024e-05 -0.000450043
-0.00197746 -8.8947e-06 -1.91876e-05
-8.8947e-06 -0.00115062 1.20258e-05
-1.91876e-05 1.20258e-05 -0.00126485
0.00174725 0.000189661 -1.3007e-05
0.000189661 0.000927649 -3.31017e-05
-1.3007e-05 -3.31017e-05 0.000264381
0.00177696 -4.02416e-06 6.2192e-05
-4.02416e-06 0.000575851 7.33487e-06
6.2192e-05 7.33487e-06 -0.000344091
0.00100719 -1.98513e-05 1.48887e-05
-1.98513e-05 0.00032462 5.14802e-06
1.48887e-05 5.14802e-06 1.52363e-05
0.00141038 -2.62598e-05 -4.34699e-06
-2.62598e-05 0.000250872 -1.38266e-06
-4.34699e-06 -1.38266e-06 0.000104085
-0.00253951 4.52593e-05 2.04325e-06
4.52593e-05 -0.000906969 1.01258e-05
2.04325e-06 1.01258e-05 -0.0014091
0.00310815 5.61981e-05 -1.386e-05
5.61981e-05 0.00053919 -2.44683e-05
-1.386e-05 -2.44683e-05 0.000201394
0.00140053 7.11134e-06 7.0573e-07
7.11134e-06 0.000390472 1.35105e-05
7.0573e-07 1.35105e-05 0.000177368
0.0150707 -0.000825181 0.000107852
-0.000825181 0.00666285 -1.60499e-05
0.000107852 -1.60499e-05 0.003436
0.00758306 0.000942025 -5.55852e-05
0.000942025 0.00230899 -2.48221e-05
-5.55852e-05 -2.48221e-05 0.0020377
0.00349978 -0.000184469 -4.46099e-05
-0.000184469 0.00113194 8.89315e-05
-4.46099e-05 8.89315e-05 -0.000520795
-0.00663088 0.00138226 0.000295244
0.00138226 -0.00372669 -0.000239584
0.000295244 -0.000239584 -0.00174537
0.000689634 -6.59731e-05 -3.05476e-06
-6.59731e-05 0.000400967 -3.03384e-07
-3.05476e-06 -3.03384e-07 0.000228633
0.00149667 -5.14914e-05 -9.99634e-06
-5.14914e-05 0.000245024 4.63254e-06
-9.99634e-06 4.63254e-06 -0.000721705
-0.00241346 0.000233904 -0.000189233
0.000233904 0.000720713 8.41931e-05
-0.000189233 8.41931e-05 9.57481e-06
0.00180709 -0.00029224 -1.99911e-05
-0.00029224 -9.6786e-06 2.94873e-05
-1.99911e-05 2.94873e-05 -0.000280909
0.00850724 0.00136198 4.28647e-05
0.00136198 0.00282754 4.55036e-05
4.28647e-05 4.55036e-05 0.00341173
0.00744016 -0.000769924 6.3942e-05
-0.000769924 0.00310711 -3.90701e-05
6.3942e-05 -3.90701e-05 0.000461965
0.00117195 -0.000218374 8.72904e-06
-0.000218374 0.000187671 2.54224e-05
8.72904e-06 2.54224e-05 0.00032589
-0.00273311 -9.83968e-05 2.39033e-05
-9.83968e-05 0.000557845 -1.05818e-05
2.39033e-05 -1.05818e-05 -0.000757448
0.00654402 0.00116671 -0.000185766
0.00116671 0.0032448 8.64203e-05
-0.000185766 8.64203e-05 0.00329933
0.00257881 -0.000357016 -0.000133365
-0.000357016 0.000250093 9.17891e-05
-0.000133365 9.17891e-05 -0.00247327
0.00260069 -0.000761204 5.01631e-05
-0.000761204 0.000344638 -1.22245e-05
5.01631e-05 -1.22245e-05 -0.000145994
-0.000311202 -9.96317e-05 -3.7671e-06
-9.96317e-05 -2.8797e-05 1.18606e-05
-3.7671e-06 1.18606e-05 -0.000242561
0.000391523 -0.00019689 -4.05417e-06
-0.00019689 8.85045e-05 2.55721e-06
-4.05417e-06 2.55721e-06 -0.000100016
0.00407559 -0.000490726 3.02854e-05
-0.000490726 0.00157152 2.88571e-06
3.02854e-05 2.88571e-06 0.00150147
-0.00207798 -9.41608e-06 -5.5004e-06
-9.41608e-06 -0.00117863 8.17946e-06
-5.5004e-06 8.17946e-06 -0.00144692
0.000721864 -0.000254975 2.9547e-06
-0.000254975 -2.1704e-05 -2.53469e-07
2.9547e-06 -2.53469e-07 -0.000281249
0.00145573 -0.000378927 5.86987e-06
-0.000378927 6.39747e-05 1.21842e-06
5.86987e-06 1.21842e-06 -0.000136716
0.00232116 -0.000326104 -8.31206e-06
-0.000326104 0.000922317 1.94011e-06
-8.31206e-06 1.94011e-06 0.000619353
0.00124868 -0.000298637 -2.90858e-06
-0.000298637 0.000170207 -2.57899e-06
-2.90858e-06 -2.57899e-06 -0.000123173
0.00193764 -0.000394961 5.08163e-06
-0.000394961 0.00032267 -2.16061e-06
5.08163e-06 -2.16061e-06 0.000102829
0.00175455 -0.000316605 -3.57758e-06
-0.000316605 0.000454065 -9.2326e-07
-3.57758e-06 -9.2326e-07 0.00017151
0.00154016 -0.000319223 -3.32217e-07
-0.000319223 0.000210589 -3.31877e-06
-3.32217e-07 -3.31877e-06 -5.64776e-05
0.00182051 -0.000332492 9.14581e-07
-0.000332492 0.000233028 -5.20254e-06
9.14581e-07 -5.20254e-06 3.00241e-05
0.00156988 -0.000261781 -6.25154e-07
-0.000261781 9.99894e-05 -3.25386e-06
-6.25154e-07 -3.25386e-06 -7.45191e-05
0.00147498 -0.000283252 1.27054e-06
-0.000283252 0.000127783 -1.35106e-06
1.27054e-06 -1.35106e-06 -9.6953e-05
0.00159248 -0.000295984 1.34899e-06
-0.000295984 0.000174249 -1.00841e-06
1.34899e-06 -1.00841e-06 -4.15214e-05
0.00184395 -0.000291453 -1.66244e-06
-0.000291453 0.000447586 5.6953e-06
-1.66244e-06 5.6953e-06 0.000235247
0.00186129 -0.000318643 -4.09943e-07
-0.000318643 0.000419409 3.2307e-07
-4.09943e-07 3.2307e-07 0.000173869
0.0018274 -0.000328663 -1.13411e-06
-0.000328663 0.000376064 -3.07505e-06
-1.13411e-06 -3.07505e-06 0.000111463
0.00104283 -0.000194253 2.81914e-06
-0.000194253 0.000176721 -4.9775e-07
2.81914e-06 -4.9775e-07 -1.03969e-06
0.000572436 -0.000168306 -1.12689e-06
-0.000168306 -0.00012842 -2.08337e-06
-1.12689e-06 -2.08337e-06 -0.000297701
0.00140374 -0.000242073 5.05375e-06
-0.000242073 0.000314071 -6.14497e-06
5.05375e-06 -6.14497e-06 0.000126941
0.000889019 -0.000118879 3.21866e-07
-0.000118879 0.000155423 8.40597e-07
3.21866e-07 8.40597e-07 8.61954e-06
0.0008832 -0.000159525 1.32101e-07
-0.000159525 0.000144835 2.8464e-07
1.32101e-07 2.8464e-07 -2.59992e-05
0.000872988 -0.00017261 -1.67657e-06
-0.00017261 0.000110249 1.20938e-06
-1.67657e-06 1.20938e-06 -5.91151e-05
0.000563523 5.68759e-05 1.30343e-06
5.68759e-05 -1.96688e-05 3.65684e-06
1.30343e-06 3.65684e-06 -0.000104053
0.000793392 -4.15337e-05 5.13621e-07
-4.15337e-05 0.000127931 7.32068e-08
5.13621e-07 7.32068e-08 -9.08273e-07
0.000891169 -0.000104718 -1.58456e-06
-0.000104718 0.00019645 5.70071e-07
-1.58456e-06 5.70071e-07 4.7402e-05
0.00133442 8.81537e-05 -1.38219e-05
8.81537e-05 0.000420866 3.58755e-06
-1.38219e-05 3.58755e-06 0.00039588
0.000654083 3.1697e-05 -5.45634e-07
3.1697e-05 1.90121e-05 -5.50425e-07
-5.45634e-07 -5.50425e-07 -4.58849e-05
0.000808775 -3.23053e-05 -6.64541e-07
-3.23053e-05 0.000126515 -1.78071e-06
-6.64541e-07 -1.78071e-06 2.14531e-05
0.00076982 4.51599e-05 -2.59812e-05
4.51599e-05 8.89103e-05 3.36725e-06
-2.59812e-05 3.36725e-06 9.01876e-05
0.000990561 7.03926e-05 -7.43811e-06
7.03926e-05 0.000210239 1.74619e-07
-7.43811e-06 1.74619e-07 0.000188861
0.000685981 3.23192e-05 7.6547e-07
3.23192e-05 2.76008e-05 -2.20929e-06
7.6547e-07 -2.20929e-06 -2.65358e-05
0.000610836 5.36206e-05 5.33326e-07
5.36206e-05 -1.92539e-05 -4.02502e-06
5.33326e-07 -4.02502e-06 -3.87063e-05
0.00228508 8.27542e-05 2.14969e-06
8.27542e-05 0.000957555 1.87762e-07
2.14969e-06 1.87762e-07 0.000965795
0.00227039 7.27471e-05 2.34002e-05
7.27471e-05 0.000941758 -3.59844e-06
2.34002e-05 -3.59844e-06 0.000952288
0.000700524 1.91566e-05 -3.24166e-07
1.91566e-05 4.29718e-05 -8.44356e-07
-3.24166e-07 -8.44356e-07 -5.36669e-05
0.000791803 4.44801e-05 -3.99517e-07
4.44801e-05 0.000101848 -1.65234e-06
-3.99517e-07 -1.65234e-06 7.46694e-06
0.000726142 1.39614e-05 8.73704e-08
1.39614e-05 5.73527e-05 2.73284e-09
8.73704e-08 2.73284e-09 -3.62431e-05
0.000680198 -1.32638e-05 -1.15902e-06
-1.32638e-05 1.11663e-05 -2.51685e-06
-1.15902e-06 -2.51685e-06 -4.59215e-05
0.0007531 3.58278e-05 6.70992e-07
3.58278e-05 7.26778e-05 5.79609e-09
6.70992e-07 5.79609e-09 -1.35518e-05
0.000594506 -3.90739e-05 -1.26868e-07
-3.90739e-05 -4.17717e-05 -4.63313e-06
-1.26868e-07 -4.63313e-06 -6.18312e-05
0.000672997 1.55623e-06 -1.49566e-07
1.55623e-06 6.76569e-06 -4.02745e-08
-1.49566e-07 -4.02745e-08 -4.76164e-05
0.000767923 5.48849e-05 7.20424e-07
5.48849e-05 9.43709e-05 1.41317e-06
7.20424e-07 1.41317e-06 1.13984e-06
0.00242707 -6.05859e-05 -2.36843e-05
-6.05859e-05 0.00102 -4.38127e-06
-2.36843e-05 -4.38127e-06 0.0010323
0.000611062 -3.09705e-05 -3.47784e-07
-3.09705e-05 -3.85926e-05 -2.46592e-08
-3.47784e-07 -2.46592e-08 -5.49659e-05
0.000673881 6.20275e-06 5.79179e-07
6.20275e-06 7.89097e-06 2.46834e-06
5.79179e-07 2.46834e-06 -4.29021e-05
0.00230513 -4.71435e-05 -3.25819e-06
-4.71435e-05 0.00094359 1.5026e-07
-3.25819e-06 1.5026e-07 0.00095864
0.000624202 -2.37962e-05 1.1892e-07
-2.37962e-05 -3.55872e-05 4.05913e-06
1.1892e-07 4.05913e-06 -4.85049e-05
0.00220714 -3.35244e-05 1.34264e-05
-3.35244e-05 0.00088229 4.64496e-06
1.34264e-05 4.64496e-06 0.000899679
0.00272804 -2.0598e-05 6.32716e-05
-2.0598e-05 0.000965459 3.41478e-05
6.32716e-05 3.41478e-05 0.000142956
0.000943066 -5.83253e-05 4.57061e-07
-5.83253e-05 0.000176577 9.80256e-06
4.57061e-07 9.80256e-06 -0.000100236
0.00140963 -4.1982e-05 -1.45873e-05
-4.1982e-05 5.63277e-06 -5.68219e-06
-1.45873e-05 -5.68219e-06 -5.04742e-05
0.00080604 8.28656e-05 -2.96543e-06
8.28656e-05 0.000112005 -4.9364e-07
-2.96543e-06 -4.9364e-07 3.4477e-06
0.0008231 3.15061e-05 4.91108e-07
3.15061e-05 0.000111435 3.6684e-07
4.91108e-07 3.6684e-07 1.77867e-05
0.000662744 -6.08316e-07 7.83478e-07
-6.08316e-07 1.95641e-05 6.9356e-07
7.83478e-07 6.9356e-07 -7.4544e-05
0.000815979 5.01463e-06 3.97824e-08
5.01463e-06 0.000102415 -1.00434e-07
3.97824e-08 -1.00434e-07 9.976e-06
0.000880972 4.20695e-05 -1.33892e-07
4.20695e-05 0.000147933 -2.09693e-07
-1.33892e-07 -2.09693e-07 4.70702e-05
0.000821575 6.63413e-05 4.59174e-07
6.63413e-05 0.000122843 7.73059e-07
4.59174e-07 7.73059e-07 1.47692e-05
0.000807319 5.33061e-05 -1.7854e-06
5.33061e-05 0.000113351 -2.39947e-06
-1.7854e-06 -2.39947e-06 1.51215e-08
0.000442041 -2.84682e-06 -7.43946e-07
-2.84682e-06 -9.66688e-05 -7.59071e-07
-7.43946e-07 -7.59071e-07 -0.000197543
0.000831923 8.94989e-05 4.58311e-07
8.94989e-05 0.000124875 -1.93359e-07
4.58311e-07 -1.93359e-07 2.01636e-05
0.000748395 -1.01273e-05 1.59023e-06
-1.01273e-05 5.35523e-05 2.03684e-07
1.59023e-06 2.03684e-07 -4.05158e-05
0.000813154 3.55188e-05 -3.52024e-07
3.55188e-05 0.000118967 7.60482e-08
-3.52024e-07 7.60482e-08 1.67343e-05
0.00137169 7.82338e-05 4.38026e-06
7.82338e-05 0.00047441 4.11177e-06
4.38026e-06 4.11177e-06 0.000376371
0.00115942 -0.000494985 6.01705e-05
-0.000494985 0.00164351 0.000113845
6.01705e-05 0.000113845 0.000892781
0.002604 0.000101058 9.35593e-06
0.000101058 0.00104325 3.93497e-05
9.35593e-06 3.93497e-05 -0.000604635
0.00133978 7.54743e-05 -8.52822e-06
7.54743e-05 0.000346153 -3.98615e-05
-8.52822e-06 -3.98615e-05 -0.000908611
0.00668161 -0.00106145 -0.00013818
-0.00106145 0.000506904 -0.000113889
-0.00013818 -0.000113889 0.00202402
0.00444762 -0.000305058 9.78188e-06
-0.000305058 0.000601162 0.000124571
9.78188e-06 0.000124571 -9.48597e-05
0.000470622 -0.000522593 -9.32236e-05
-0.000522593 0.000640416 8.8779e-05
-9.32236e-05 8.8779e-05 -0.00266343
0.00249835 -0.00018314 -5.68303e-05
-0.00018314 0.000402223 7.91591e-05
-5.68303e-05 7.91591e-05 -0.000112388
0.00391062 -8.14274e-05 1.37247e-05
-8.14274e-05 0.000748105 4.24662e-05
1.37247e-05 4.24662e-05 0.000509157
-0.000802592 -0.00125707 4.17275e-05
-0.00125707 -0.00148264 5.77472e-05
4.17275e-05 5.77472e-05 0.000273852
0.00530924 0.000482288 4.84434e-06
0.000482288 0.00293009 1.89433e-06
4.84434e-06 1.89433e-06 -0.00039648
0.00155371 -0.000681233 -1.71904e-05
-0.000681233 -0.00132937 2.49699e-05
-1.71904e-05 2.49699e-05 -0.00118469
0.00147311 0.000311912 -1.4721e-05
0.000311912 -0.000301358 1.5851e-05
-1.4721e-05 1.5851e-05 -0.000464952
0.0079502 0.000189759 -3.22465e-05
0.000189759 0.0039894 1.70949e-05
-3.22465e-05 1.70949e-05 0.00135443
0.000662532 -0.00105127 -7.17631e-05
-0.00105127 -0.00073768 -8.96244e-05
-7.17631e-05 -8.96244e-05 -0.000240306
0.000517322 0.000198149 7.84196e-07
0.000198149 -1.98193e-05 -4.74388e-06
7.84196e-07 -4.74388e-06 -0.000110928
0.000808829 5.61318e-05 6.07115e-06
5.61318e-05 0.000165197 -1.76686e-07
6.07115e-06 -1.76686e-07 8.34054e-05
0.00106168 2.17228e-05 -1.71979e-07
2.17228e-05 0.000264169 1.1581e-06
-1.71979e-07 1.1581e-06 0.000160429
0.000146301 2.34101e-06 -0.000133262
2.34101e-06 0.000662908 -3.34677e-05
-0.000133262 -3.34677e-05 -0.000371837
-0.00126283 7.42499e-05 8.31226e-06
7.42499e-05 -0.000751816 -1.00971e-05
8.31226e-06 -1.00971e-05 -0.000901944
0.000968684 0.000102987 2.90792e-06
0.000102987 0.000309405 -2.8369e-06
2.90792e-06 -2.8369e-06 0.000183708
0.000746364 0.000192572 6.81868e-06
0.000192572 0.000262115 2.83055e-06
6.81868e-06 2.83055e-06 0.000135075
0.000765935 0.000206495 -5.02105e-06
0.000206495 0.000378347 -2.81077e-05
-5.02105e-06 -2.81077e-05 -0.000168431
-3.97633e-05 0.000323249 1.46801e-05
0.000323249 -0.00040467 1.02346e-06
1.46801e-05 1.02346e-06 -0.000636285
0.000261631 8.22262e-05 0.000110788
8.22262e-05 0.00221461 8.25502e-06
0.000110788 8.25502e-06 0.000953823
0.00171759 -2.42435e-05 -5.36901e-06
-2.42435e-05 0.000608492 1.10151e-05
-5.36901e-06 1.10151e-05 -0.00016511
0.000750516 -1.88589e-05 2.48513e-06
-1.88589e-05 0.000193569 5.62017e-06
2.48513e-06 5.62017e-06 -7.74916e-05
0.00129204 -9.00824e-05 -3.8598e-05
-9.00824e-05 0.000802815 7.90999e-06
-3.8598e-05 7.90999e-06 0.00063207
0.000821897 -0.00014799 -2.60933e-05
-0.00014799 -0.000925387 -1.40376e-05
-2.60933e-05 -1.40376e-05 -0.000835297
0.00173665 -4.97572e-05 -7.76967e-05
-4.97572e-05 0.00040089 2.40483e-05
-7.76967e-05 2.40483e-05 -0.000581103
-0.0011823 -0.000843107 4.93306e-05
-0.000843107 -0.000491808 -5.95339e-05
4.93306e-05 -5.95339e-05 -0.00355199
-0.00330479 0.000882238 7.29265e-05
0.000882238 -0.00360297 -8.87404e-05
7.29265e-05 -8.87404e-05 -0.00285135
0.00157951 0.000506089 -0.000104371
0.000506089 0.00215944 0.000103787
-0.000104371 0.000103787 0.0018745
0.00207124 -0.0001022 -4.39967e-06
-0.0001022 0.000444736 1.59508e-06
-4.39967e-06 1.59508e-06 0.000725147
0.00154041 0.000152469 1.2442e-05
0.000152469 0.002323 8.79467e-06
1.2442e-05 8.79467e-06 0.00155986
-0.00370011 0.000647581 3.15088e-05
0.000647581 -0.00116557 5.31984e-06
3.15088e-05 5.31984e-06 -0.00193082
0.00381617 -0.000830255 8.90116e-06
-0.000830255 0.0012482 -1.58119e-06
8.90116e-06 -1.58119e-06 0.000347531
0.00960811 -0.000160384 4.11238e-06
-0.000160384 0.00356225 -6.24513e-06
4.11238e-06 -6.24513e-06 0.00173406
0.00158617 -0.000358957 2.40687e-06
-0.000358957 0.000216196 2.10977e-05
2.40687e-06 2.10977e-05 0.000313799
-0.00703128 0.000251356 -0.000140964
0.000251356 -0.0033922 -1.82107e-06
-0.000140964 -1.82107e-06 -0.00385451
0.00922543 -3.71968e-05 -4.17036e-05
-3.71968e-05 0.00291223 1.87658e-05
-4.17036e-05 1.87658e-05 0.00144601
0.00489181 -0.000936116 -3.17232e-06
-0.000936116 0.000540751 1.57281e-06
-3.17232e-06 1.57281e-06 -0.000251674
0.000366877 -0.000180589 -2.13489e-05
-0.000180589 0.000114362 1.52573e-05
-2.13489e-05 1.52573e-05 -0.000127884
0.00171459 -0.00034033 -2.85773e-06
-0.00034033 0.000281479 9.95286e-07
-2.85773e-06 9.95286e-07 0.000285135
0.00271422 -0.000387355 1.54506e-05
-0.000387355 0.000604927 -1.96982e-06
1.54506e-05 -1.96982e-06 0.00060898
-0.000918559 -0.000116752 -5.26822e-06
-0.000116752 -0.000834237 5.28707e-07
-5.26822e-06 5.28707e-07 -0.00110477
0.00134736 -0.000366272 -3.21886e-06
-0.000366272 2.94731e-05 -7.50545e-07
-3.21886e-06 -7.50545e-07 -0.000179704
0.00213672 -0.000431382 1.68027e-06
-0.000431382 0.000287963 1.01184e-06
1.68027e-06 1.01184e-06 0.000121634
0.00148682 -0.000313929 -9.24519e-06
-0.000313929 0.000283631 -2.73664e-06
-9.24519e-06 -2.73664e-06 3.9497e-06
0.00150323 -0.000360057 6.79599e-07
-0.000360057 0.000106022 6.03548e-07
6.79599e-07 6.03548e-07 -0.000115137
0.00200151 -0.000354071 -1.78817e-06
-0.000354071 0.000241294 -3.83499e-06
-1.78817e-06 -3.83499e-06 7.76254e-05
0.00111352 -0.000286142 -6.72657e-06
-0.000286142 -3.27176e-05 -3.07925e-07
-6.72657e-06 -3.07925e-07 -0.000290471
0.00164661 -0.000318183 -3.98933e-07
-0.000318183 0.000134673 5.15563e-07
-3.98933e-07 5.15563e-07 -6.56684e-05
0.00179498 -0.000281404 -8.01981e-07
-0.000281404 0.000138139 -5.08846e-06
-8.01981e-07 -5.08846e-06 -4.59085e-06
0.00157442 -0.000221615 -2.0622e-06
-0.000221615 4.62576e-05 -3.38979e-06
-2.0622e-06 -3.38979e-06 -8.97753e-05
0.00153151 -0.000248865 -5.68545e-07
-0.000248865 0.000110628 -2.58928e-06
-5.68545e-07 -2.58928e-06 -7.56169e-05
0.00152036 -0.000253695 5.05757e-07
-0.000253695 7.2116e-05 1.43132e-06
5.05757e-07 1.43132e-06 -9.97365e-05
0.00133946 -0.00025506 -3.50671e-06
-0.00025506 7.31904e-05 9.64475e-07
-3.50671e-06 9.64475e-07 -0.000132406
0.00157277 -0.000286588 2.16405e-06
-0.000286588 0.000185606 -5.45737e-07
2.16405e-06 -5.45737e-07 -3.58983e-05
0.00149375 -0.00028893 9.10453e-07
-0.00028893 0.000119718 2.3434e-06
9.10453e-07 2.3434e-06 -9.41993e-05
0.0012631 -0.000225637 1.17729e-06
-0.000225637 0.00020585 3.53566e-06
1.17729e-06 3.53566e-06 1.31973e-05
0.00110604 -0.000235547 3.0246e-06
-0.000235547 4.32801e-05 -1.12346e-06
3.0246e-06 -1.12346e-06 -0.000162848
0.00106122 -0.000258429 -7.09663e-07
-0.000258429 -2.31758e-05 -4.44115e-06
-7.09663e-07 -4.44115e-06 -0.000267703
0.000923761 -0.000163634 -1.21008e-06
-0.000163634 0.000123386 6.5527e-07
-1.21008e-06 6.5527e-07 -3.52037e-05
0.00109458 -0.000197269 -3.94149e-08
-0.000197269 0.000200343 -1.34001e-06
-3.94149e-08 -1.34001e-06 2.28358e-05
0.000809956 -0.000184031 -2.22676e-06
-0.000184031 1.06814e-05 -5.2428e-06
-2.22676e-06 -5.2428e-06 -0.000156244
0.000702194 -3.74471e-05 -2.61085e-07
-3.74471e-05 4.6719e-05 4.00507e-06
-2.61085e-07 4.00507e-06 -5.78947e-05
0.000926649 -0.000121653 8.08573e-07
-0.000121653 0.000175038 4.15161e-07
8.08573e-07 4.15161e-07 2.75392e-05
0.000643301 -0.000130541 -2.15592e-06
-0.000130541 9.06783e-06 1.30003e-06
-2.15592e-06 1.30003e-06 -0.000156177
0.000477109 7.45765e-05 2.1552e-06
7.45765e-05 -6.26666e-05 6.12923e-06
2.1552e-06 6.12923e-06 -0.000100913
0.000682735 -5.77066e-06 -5.30685e-07
-5.77066e-06 4.38826e-05 -4.39794e-07
-5.30685e-07 -4.39794e-07 -4.20452e-05
0.000861209 -7.05517e-05 -1.85535e-08
-7.05517e-05 0.000168433 -1.61043e-06
-1.85535e-08 -1.61043e-06 3.44564e-05
0.00238846 0.000114103 -8.82772e-06
0.000114103 0.00103405 1.37762e-06
-8.82772e-06 1.37762e-06 0.00103396
0.000581834 7.15267e-05 -1.79917e-07
7.15267e-05 -1.26423e-05 -1.58775e-07
-1.79917e-07 -1.58775e-07 -4.2325e-05
0.000711297 1.11716e-05 1.4912e-06
1.11716e-05 4.90519e-05 -3.04233e-06
1.4912e-06 -3.04233e-06 -1.57755e-05
0.00233102 9.29596e-05 2.21348e-06
9.29596e-05 0.00099175 1.89097e-07
2.21348e-06 1.89097e-07 0.000997502
0.000610862 6.42336e-05 -5.4384e-07
6.42336e-05 -7.18835e-06 -4.43038e-06
-5.4384e-07 -4.43038e-06 -3.1221e-05
0.00232842 8.44174e-05 2.76456e-05
8.44174e-05 0.000983376 -3.20049e-06
2.76456e-05 -3.20049e-06 0.000991233
0.000876892 8.04769e-05 -7.34869e-07
8.04769e-05 0.000146237 2.56261e-07
-7.34869e-07 2.56261e-07 3.90125e-05
0.000769956 3.2137e-05 -1.05564e-07
3.2137e-05 8.36484e-05 -2.70785e-07
-1.05564e-07 -2.70785e-07 -1.50714e-05
0.000787859 2.44596e-05 -2.74689e-07
2.44596e-05 0.000105754 -2.03195e-06
-2.74689e-07 -2.03195e-06 3.27879e-06
0.000681425 -1.84139e-05 -1.24999e-06
-1.84139e-05 1.56837e-05 -2.92322e-06
-1.24999e-06 -2.92322e-06 -4.48849e-05
0.000739447 1.65469e-05 5.69529e-07
1.65469e-05 6.89141e-05 5.79332e-08
5.69529e-07 5.79332e-08 -2.22641e-05
0.000689937 2.38466e-05 1.05309e-06
2.38466e-05 4.15227e-05 8.51032e-07
1.05309e-06 8.51032e-07 -5.56653e-05
0.000587901 -4.73169e-05 -1.07125e-07
-4.73169e-05 -3.83267e-05 -4.94103e-06
-1.07125e-07 -4.94103e-06 -6.17428e-05
0.000668971 -6.54193e-06 -1.04935e-07
-6.54193e-06 5.71851e-06 -4.9735e-08
-1.04935e-07 -4.9735e-08 -5.16355e-05
0.000740745 3.22085e-05 1.40296e-06
3.22085e-05 6.28709e-05 1.24912e-06
1.40296e-06 1.24912e-06 -2.0926e-05
0.00251544 -7.24769e-05 -2.94834e-05
-7.24769e-05 0.00107707 -4.07119e-06
-2.94834e-05 -4.07119e-06 0.00108696
0.000595341 -3.7453e-05 -3.36535e-07
-3.7453e-05 -4.1816e-05 -4.49435e-09
-3.36535e-07 -4.49435e-09 -6.15848e-05
0.000674677 3.73066e-06 9.89911e-07
3.73066e-06 8.3317e-06 2.4857e-06
9.89911e-07 2.4857e-06 -4.6167e-05
0.00239645 -5.95643e-05 -3.60783e-06
-5.95643e-05 0.00100162 1.94017e-07
-3.60783e-06 1.94017e-07 0.00101427
0.000612195 -3.02483e-05 5.29032e-08
-3.02483e-05 -3.8083e-05 4.33195e-06
5.29032e-08 4.33195e-06 -5.4304e-05
0.0022808 -4.58631e-05 1.76616e-05
-4.58631e-05 0.000928871 4.545e-06
1.76616e-05 4.545e-06 0.000944292
-0.00372113 -1.28393e-05 4.23007e-06
-1.28393e-05 0.000239452 4.13854e-05
4.23007e-06 4.13854e-05 -0.00126908
0.00260585 -5.22262e-05 7.94858e-07
-5.22262e-05 0.000979044 1.20781e-05
7.94858e-07 1.20781e-05 0.000160315
0.00103829 -5.75698e-05 -3.18733e-06
-5.75698e-05 0.000213705 -6.43712e-06
-3.18733e-06 -6.43712e-06 -3.57741e-05
0.000677732 4.62493e-05 -6.02161e-07
4.62493e-05 3.57731e-05 4.3155e-07
-6.02161e-07 4.3155e-07 -6.71924e-05
0.00136034 0.00018933 -8.636e-07
0.00018933 0.000437476 7.94506e-07
-8.636e-07 7.94506e-07 0.00030207
0.000729615 4.70049e-05 -2.26299e-06
4.70049e-05 7.1975e-05 -2.45823e-07
-2.26299e-06 -2.45823e-07 -3.98601e-05
0.000957652 2.02546e-06 6.94846e-07
2.02546e-06 0.000180295 -8.32941e-09
6.94846e-07 -8.32941e-09 8.93619e-05
0.0010606 7.63496e-05 1.76109e-06
7.63496e-05 0.000249359 5.53174e-07
1.76109e-06 5.53174e-07 0.000146852
0.000599647 1.75059e-05 3.54089e-07
1.75059e-05 -1.14713e-05 2.31841e-06
3.54089e-07 2.31841e-06 -0.000109891
0.000659615 2.99021e-05 -1.09945e-06
2.99021e-05 3.39548e-05 1.55148e-07
-1.09945e-06 1.55148e-07 -7.55715e-05
0.000775236 3.90363e-05 -1.3481e-07
3.90363e-05 9.33432e-05 -3.03301e-07
-1.3481e-07 -3.03301e-07 -1.72103e-05
0.000906519 7.89259e-05 6.91717e-08
7.89259e-05 0.000191708 -1.94973e-06
6.91717e-08 -1.94973e-06 5.8815e-05
0.000517439 0.000124703 3.32533e-06
0.000124703 -8.12245e-05 -6.14273e-06
3.32533e-06 -6.14273e-06 -0.000176367
0.000792319 5.54586e-05 5.31483e-07
5.54586e-05 0.000110229 -3.54986e-07
5.31483e-07 -3.54986e-07 2.7823e-06
0.000885797 7.72789e-05 6.72926e-07
7.72789e-05 0.000199466 1.70206e-06
6.72926e-07 1.70206e-06 9.79402e-05
-0.00527126 -0.000575418 -0.000207108
-0.000575418 -0.00177799 2.40122e-05
-0.000207108 2.40122e-05 -0.00242993
-0.00189064 -0.000414392 9.08304e-05
-0.000414392 0.000561087 4.06837e-05
9.08304e-05 4.06837e-05 -0.000410339
0.00303512 0.00011503 -8.17321e-05
0.00011503 0.00122826 -6.54213e-05
-8.17321e-05 -6.54213e-05 -0.000475401
-0.00692395 -0.00129638 0.000219931
-0.00129638 -0.00364308 0.000207357
0.000219931 0.000207357 -0.00177095
0.00918607 -0.000922427 -5.17534e-05
-0.000922427 0.00278191 5.4669e-05
-5.17534e-05 5.4669e-05 0.00283977
-4.92729e-05 0.000700813 7.2021e-06
0.000700813 -5.95375e-05 -2.98152e-05
7.2021e-06 -2.98152e-05 -0.00323424
0.00376263 -6.1921e-05 -0.000144839
-6.1921e-05 0.000940495 5.75037e-05
-0.000144839 5.75037e-05 0.000215478
0.00287482 0.00025016 -2.14097e-05
0.00025016 0.00057797 1.33163e-05
-2.14097e-05 1.33163e-05 0.000269211
0.00707389 -0.00109197 -8.19763e-05
-0.00109197 0.00344359 3.97746e-05
-8.19763e-05 3.97746e-05 0.00363855
0.000802368 0.000470302 4.22674e-06
0.000470302 0.000651682 -7.83947e-06
4.22674e-06 -7.83947e-06 -0.00197209
0.00194461 0.000525659 -8.67128e-05
0.000525659 0.000526148 -7.15116e-05
-8.67128e-05 -7.15116e-05 -6.56283e-05
0.00369085 0.000888383 -0.000151078
0.000888383 0.000561345 -7.74395e-05
-0.000151078 -7.74395e-05 -0.00151667
0.00206994 0.000471968 1.27659e-05
0.000471968 0.000507492 -1.71949e-05
1.27659e-05 -1.71949e-05 0.000322237
0.000735952 0.000200405 -5.15312e-06
0.000200405 9.47688e-05 1.25654e-06
-5.15312e-06 1.25654e-06 4.61684e-06
0.00108201 6.00203e-05 6.99716e-07
6.00203e-05 0.000311286 -2.22527e-06
6.99716e-07 -2.22527e-06 0.000230175
-0.000585568 0.000157496 -3.32435e-05
0.000157496 -0.000233819 -3.32589e-05
-3.32435e-05 -3.32589e-05 -0.000679131
0.00252824 0.000307924 -1.05352e-05
0.000307924 0.00117816 -1.03775e-05
-1.05352e-05 -1.03775e-05 0.00103835
0.00119993 0.000424015 1.14737e-05
0.000424015 0.00013576 -3.49918e-06
1.14737e-05 -3.49918e-06 -0.000100982
0.00257041 0.000640491 7.31867e-05
0.000640491 0.000204594 2.88055e-05
7.31867e-05 2.88055e-05 0.000160473
-0.0041729 -3.37887e-05 -0.000220313
-3.37887e-05 -0.00256187 -5.1167e-06
-0.000220313 -5.1167e-06 -0.0019447
-0.00148738 4.82212e-05 7.64405e-05
4.82212e-05 0.00145314 1.23643e-06
7.64405e-05 1.23643e-06 5.15387e-05
0.00161406 -4.89477e-05 -5.48592e-05
-4.89477e-05 0.000582937 1.42261e-05
-5.48592e-05 1.42261e-05 -6.21763e-05
0.00273604 -0.000206154 -5.34462e-05
-0.000206154 0.000712779 -3.15546e-05
-5.34462e-05 -3.15546e-05 0.000977246
0.00264194 -0.000788388 -3.94332e-05
-0.000788388 0.000413344 -2.15217e-07
-3.94332e-05 -2.15217e-07 -0.000293956
0.00190833 0.000104287 -2.07131e-05
0.000104287 0.00252095 2.96774e-05
-2.07131e-05 2.96774e-05 0.0018304
0.000830226 -0.000437674 0.000108519
-0.000437674 -0.000262623 -9.06562e-05
0.000108519 -9.06562e-05 -0.00263526
0.00893215 0.0006957 1.77856e-05
0.0006957 0.004336 1.08124e-05
1.77856e-05 1.08124e-05 0.00398052
0.0022594 -0.000498609 -1.42999e-05
-0.000498609 0.000443239 5.28899e-06
-1.42999e-05 5.28899e-06 0.000415866
-0.00108861 0.000383031 2.65069e-05
0.000383031 -0.000514166 -9.14663e-06
2.65069e-05 -9.14663e-06 -0.00086883
0.00380888 -6.66015e-05 -2.85588e-05
-6.66015e-05 0.0001484 3.96371e-05
-2.85588e-05 3.96371e-05 -0.00180996
0.00583068 -0.000934478 -3.04492e-05
-0.000934478 0.00141391 1.13293e-05
-3.04492e-05 1.13293e-05 0.000615329
-0.000427506 -0.000236947 2.92263e-05
-0.000236947 -0.000780749 -6.76615e-06
2.92263e-05 -6.76615e-06 -0.00101389
0.00854869 -0.00029316 3.37753e-05
-0.00029316 0.00216174 -2.5875e-05
3.37753e-05 -2.5875e-05 0.000988807
0.00359968 -0.000414106 4.28497e-05
-0.000414106 0.000106646 -2.5221e-05
4.28497e-05 -2.5221e-05 -0.000281333
-0.000700249 -0.000191118 -2.07176e-05
-0.000191118 -0.00104026 6.56981e-06
-2.07176e-05 6.56981e-06 -0.000959054
0.000875306 -0.000290621 -4.87996e-06
-0.000290621 -0.000375624 -8.43104e-07
-4.87996e-06 -8.43104e-07 -0.000339423
0.00259526 -0.000395676 1.72158e-05
-0.000395676 0.000388239 -1.45013e-05
1.72158e-05 -1.45013e-05 0.000401016
0.00089006 -0.000327499 -1.01073e-05
-0.000327499 -0.000182788 -3.68321e-06
-1.01073e-05 -3.68321e-06 -0.000394242
0.00167353 -0.000396409 -7.58654e-07
-0.000396409 5.13535e-05 -4.01094e-07
-7.58654e-07 -4.01094e-07 -0.000105389
0.00207155 -0.000362873 -5.48523e-06
-0.000362873 0.000158708 -1.36812e-07
-5.48523e-06 -1.36812e-07 5.20138e-05
0.00126683 -0.000339076 -9.99437e-07
-0.000339076 -6.45449e-06 1.24658e-06
-9.99437e-07 1.24658e-06 -0.000228537
0.00177055 -0.000338646 -2.33662e-06
-0.000338646 0.000120139 -3.66331e-07
-2.33662e-06 -3.66331e-07 -4.30406e-05
0.00180766 -0.000276783 -3.30919e-06
-0.000276783 5.0358e-05 -1.27125e-06
-3.30919e-06 -1.27125e-06 -5.68232e-05
0.00146293 -0.000303015 1.54611e-06
-0.000303015 3.18975e-05 4.20435e-06
1.54611e-06 4.20435e-06 -0.000165742
0.00170591 -0.000271919 -1.29165e-07
-0.000271919 9.3948e-05 3.96907e-07
-1.29165e-07 3.96907e-07 -4.68843e-05
0.00177748 -0.000230197 -1.20138e-06
-0.000230197 9.9642e-05 -1.98775e-06
-1.20138e-06 -1.98775e-06 -3.59962e-06
0.00179574 -0.000208025 -1.04808e-06
-0.000208025 0.000164626 -1.10731e-06
-1.04808e-06 -1.10731e-06 5.26335e-05
0.00159217 -0.000219995 -2.38965e-06
-0.000219995 5.69154e-05 2.73274e-06
-2.38965e-06 2.73274e-06 -7.52013e-05
0.001716 -0.000222231 1.00622e-07
-0.000222231 0.000165777 -5.50324e-06
1.00622e-07 -5.50324e-06 1.65797e-05
0.00164264 -0.000245146 -3.48401e-06
-0.000245146 0.00019426 -1.42084e-06
-3.48401e-06 -1.42084e-06 1.05185e-05
0.00157597 -0.000250756 1.23848e-06
-0.000250756 0.000133592 4.95402e-07
1.23848e-06 4.95402e-07 -5.24528e-05
0.00146818 -0.000245125 3.44554e-07
-0.000245125 4.27007e-05 6.13882e-06
3.44554e-07 6.13882e-06 -0.000126416
0.00120854 -0.000224188 -6.05942e-06
-0.000224188 6.08766e-05 2.04861e-06
-6.05942e-06 2.04861e-06 -0.000128729
0.00127795 -0.000248949 7.79072e-07
-0.000248949 4.11858e-05 -4.27075e-07
7.79072e-07 -4.27075e-07 -0.000162102
0.00163191 -0.000287263 3.79323e-06
-0.000287263 0.000221871 -1.5391e-07
3.79323e-06 -1.5391e-07 3.91941e-06
0.00108712 -0.000189129 -1.64279e-06
-0.000189129 0.000157398 3.01093e-06
-1.64279e-06 3.01093e-06 -1.65268e-05
0.00123829 -0.000221943 1.15129e-06
-0.000221943 0.000187709 9.82392e-07
1.15129e-06 9.82392e-07 -3.96692e-06
0.000449302 -0.0001857 4.27783e-08
-0.0001857 -0.000315649 -6.09697e-06
4.27783e-08 -6.09697e-06 -0.000515346
0.000745021 -9.95981e-05 -4.06257e-06
-9.95981e-05 4.59086e-05 3.49634e-06
-4.06257e-06 3.49634e-06 -7.44643e-05
0.00104655 -0.000174719 5.93159e-08
-0.000174719 0.000190126 -6.74562e-07
5.93159e-08 -6.74562e-07 2.98866e-05
0.0011314 -0.000199229 -1.76571e-06
-0.000199229 0.000216085 -2.56864e-06
-1.76571e-06 -2.56864e-06 3.88817e-05
0.000467427 3.78951e-05 1.34932e-07
3.78951e-05 -7.83945e-05 7.94445e-06
1.34932e-07 7.94445e-06 -0.000122319
0.000744445 -5.81159e-05 3.69081e-07
-5.81159e-05 7.30848e-05 3.37808e-07
3.69081e-07 3.37808e-07 -3.61972e-05
0.000993269 -0.000129317 8.30008e-07
-0.000129317 0.000212535 -1.395e-07
8.30008e-07 -1.395e-07 6.22342e-05
0.00263072 0.00011927 -4.0706e-05
0.00011927 0.00117703 2.2949e-06
-4.0706e-05 2.2949e-06 0.00117584
0.0005609 6.04131e-05 -1.80187e-07
6.04131e-05 -2.03396e-05 -4.27361e-07
-1.80187e-07 -4.27361e-07 -5.61518e-05
0.00078685 -4.77101e-05 2.61224e-06
-4.77101e-05 0.000101515 -4.07321e-06
2.61224e-06 -4.07321e-06 1.30421e-05
0.00166188 8.51656e-05 1.76054e-05
8.51656e-05 0.000612094 -1.70389e-07
1.76054e-05 -1.70389e-07 0.000611227
0.000618675 6.77839e-05 -1.08401e-06
6.77839e-05 7.50222e-06 -5.29951e-06
-1.08401e-06 -5.29951e-06 -2.15729e-05
0.00241203 9.55123e-05 3.34745e-05
9.55123e-05 0.00103897 -2.72726e-06
3.34745e-05 -2.72726e-06 0.00104422
0.000897867 9.4079e-05 8.90746e-07
9.4079e-05 0.000150753 5.88829e-07
8.90746e-07 5.88829e-07 3.96165e-05
0.000706901 3.95007e-05 -2.39316e-07
3.95007e-05 4.37971e-05 4.85408e-07
-2.39316e-07 4.85408e-07 -5.55514e-05
0.000723314 -1.91102e-07 -8.89096e-08
-1.91102e-07 6.20533e-05 -1.68546e-06
-8.89096e-08 -1.68546e-06 -3.88218e-05
0.000877672 5.37732e-05 7.76582e-07
5.37732e-05 0.000146604 6.70245e-07
7.76582e-07 6.70245e-07 4.49994e-05
0.000735401 1.0711e-06 2.54228e-07
1.0711e-06 6.39954e-05 1.32388e-08
2.54228e-07 1.32388e-08 -2.90824e-05
0.00067707 -1.8921e-05 -1.3018e-06
-1.8921e-05 1.76516e-05 -3.33662e-06
-1.3018e-06 -3.33662e-06 -4.77698e-05
0.000586174 -5.45932e-05 -4.81585e-08
-5.45932e-05 -3.07702e-05 -5.36847e-06
-4.81585e-08 -5.36847e-06 -5.7296e-05
0.000664727 -1.50202e-05 2.01588e-07
-1.50202e-05 6.82476e-06 -8.82676e-08
2.01588e-07 -8.82676e-08 -5.38317e-05
0.000689629 -1.40292e-05 2.27399e-07
-1.40292e-05 2.8683e-05 1.42785e-06
2.27399e-07 1.42785e-06 -5.32241e-05
0.00257092 -8.35981e-05 -3.5266e-05
-8.35981e-05 0.00111564 -3.6584e-06
-3.5266e-05 -3.6584e-06 0.00112333
0.00058229 -4.41802e-05 -3.70721e-07
-4.41802e-05 -4.22775e-05 3.88859e-08
-3.70721e-07 3.88859e-08 -6.51714e-05
0.000665779 9.85444e-07 1.7688e-06
9.85444e-07 4.99058e-06 2.61187e-06
1.7688e-06 2.61187e-06 -5.27608e-05
0.00249283 -7.17406e-05 -3.56949e-06
-7.17406e-05 0.00106342 2.26103e-07
-3.56949e-06 2.26103e-07 0.00107351
0.000597881 -3.63801e-05 3.01284e-07
-3.63801e-05 -4.0618e-05 4.58408e-06
3.01284e-07 4.58408e-06 -6.02096e-05
0.00237371 -5.85839e-05 2.17553e-05
-5.85839e-05 0.00098773 4.39922e-06
2.17553e-05 4.39922e-06 0.0010007
0.000594502 0.000252845 -7.47011e-05
0.000252845 0.00116327 5.38775e-05
-7.47011e-05 5.38775e-05 0.000359922
-0.00125232 -0.00010868 6.09093e-06
-0.00010868 0.00110972 1.19837e-05
6.09093e-06 1.19837e-05 -0.000317485
0.00256297 -7.58908e-05 -5.37057e-05
-7.58908e-05 0.00108786 -8.16317e-06
-5.37057e-05 -8.16317e-06 0.000280211
0.000602743 1.59948e-05 1.73817e-06
1.59948e-05 -8.68181e-06 -1.83646e-07
1.73817e-06 -1.83646e-07 -0.000107359
0.000698541 2.49956e-05 9.15213e-07
2.49956e-05 5.25879e-05 5.68141e-07
9.15213e-07 5.68141e-07 -5.76232e-05
0.00108353 0.000161697 -7.67103e-07
0.000161697 0.000286817 4.95917e-07
-7.67103e-07 4.95917e-07 0.000156969
0.00132263 0.000212589 9.48898e-07
0.000212589 0.000378366 -5.14832e-07
9.48898e-07 -5.14832e-07 0.00022055
0.000940579 0.000120683 -4.12982e-06
0.000120683 0.000218753 -1.61296e-06
-4.12982e-06 -1.61296e-06 8.1192e-05
0.000878021 7.82091e-05 1.75447e-06
7.82091e-05 0.000157237 1.79017e-06
1.75447e-06 1.79017e-06 4.52327e-05
0.000769288 4.63043e-05 2.30552e-06
4.63043e-05 9.06569e-05 1.7055e-06
2.30552e-06 1.7055e-06 -1.95274e-05
0.000702802 9.48584e-05 -2.18357e-06
9.48584e-05 7.70754e-05 -2.09221e-06
-2.18357e-06 -2.09221e-06 -4.98955e-05
-0.000453809 6.9368e-05 -1.04838e-06
6.9368e-05 -0.000597899 -4.81402e-08
-1.04838e-06 -4.81402e-08 -0.000734479
0.00112332 0.000194761 2.3362e-07
0.000194761 0.00021643 -4.21167e-06
2.3362e-07 -4.21167e-06 0.00010514
0.00225166 0.000420084 3.84536e-06
0.000420084 0.000540785 -1.26534e-05
3.84536e-06 -1.26534e-05 0.000357446
0.000601726 0.000133224 -3.81504e-06
0.000133224 -1.08917e-05 -4.34831e-07
-3.81504e-06 -4.34831e-07 -0.000106769
0.000646159 2.84687e-05 1.23955e-06
2.84687e-05 4.08193e-05 -1.15891e-06
1.23955e-06 -1.15891e-06 -5.25961e-05
0.011413 0.000354436 -6.63828e-05
0.000354436 0.00347687 2.42361e-05
-6.63828e-05 2.42361e-05 0.00218213
-0.00119802 -0.000472677 -0.00011014
-0.000472677 0.000574832 -2.87868e-05
-0.00011014 -2.87868e-05 -0.000246771
-0.000213275 -0.000577597 3.13475e-05
-0.000577597 0.000821302 -3.02111e-05
3.13475e-05 -3.02111e-05 -0.000195191
-0.00347051 -0.000506718 -4.06441e-06
-0.000506718 -0.00143189 7.66367e-05
-4.06441e-06 7.66367e-05 -0.00129427
0.00991842 0.00032611 3.31302e-05
0.00032611 0.00482366 -7.78684e-06
3.31302e-05 -7.78684e-06 0.00184064
0.00149156 0.000292048 -4.07114e-05
0.000292048 -1.54847e-05 -9.08735e-06
-4.07114e-05 -9.08735e-06 -0.000204513
0.00138669 0.000508523 -2.78732e-05
0.000508523 0.000130532 -1.20592e-05
-2.78732e-05 -1.20592e-05 -0.000335366
0.00868598 0.000268288 3.74984e-05
0.000268288 0.00303148 1.64462e-05
3.74984e-05 1.64462e-05 0.00131011
0.00500975 0.000920284 -6.06895e-06
0.000920284 0.000882856 -3.47983e-05
-6.06895e-06 -3.47983e-05 0.000324416
0.00206943 0.000531623 6.78355e-07
0.000531623 0.000308116 5.27094e-06
6.78355e-07 5.27094e-06 0.000144629
0.000948562 0.000347557 4.49074e-06
0.000347557 3.44148e-05 -3.49661e-06
4.49074e-06 -3.49661e-06 -0.000147548
0.00101696 0.000199242 -1.46273e-05
0.000199242 0.000254446 9.6978e-06
-1.46273e-05 9.6978e-06 0.000166919
0.00219793 0.00052244 -2.99925e-05
0.00052244 0.000520976 -1.38849e-05
-2.99925e-05 -1.38849e-05 0.000299406
0.00236603 0.000624306 -6.00333e-06
0.000624306 0.000116803 1.5452e-05
-6.00333e-06 1.5452e-05 2.62077e-05
0.000449559 -0.000246556 -2.15506e-05
-0.000246556 -0.0024039 -6.27736e-06
-2.15506e-05 -6.27736e-06 -0.00287497
0.00237071 -0.000233765 -3.56001e-07
-0.000233765 0.00138407 -1.33163e-05
-3.56001e-07 -1.33163e-05 0.00135863
-0.00323063 7.68696e-06 8.16456e-05
7.68696e-06 0.00077207 -7.34428e-06
8.16456e-05 -7.34428e-06 -0.000778937
0.00246559 -0.000571976 -4.41333e-05
-0.000571976 0.000482481 3.49844e-06
-4.41333e-05 3.49844e-06 0.000384412
0.00365218 -0.000846643 1.76791e-05
-0.000846643 0.000873489 -1.49702e-05
1.76791e-05 -1.49702e-05 -0.000239679
0.00121318 -0.000223648 0.000117151
-0.000223648 0.00132536 1.58472e-05
0.000117151 1.58472e-05 0.000751761
0.0105224 -3.02029e-05 -8.72949e-05
-3.02029e-05 0.00370908 4.65066e-05
-8.72949e-05 4.65066e-05 0.00200978
0.000715896 -0.000298127 -1.66587e-05
-0.000298127 -0.000294724 -1.73241e-06
-1.66587e-05 -1.73241e-06 -0.000425471
0.00750085 6.56289e-05 -1.62984e-05
6.56289e-05 0.00156029 2.38304e-05
-1.62984e-05 2.38304e-05 0.000619118
0.00445414 -0.000504656 6.16318e-05
-0.000504656 0.000303679 -1.40747e-07
6.16318e-05 -1.40747e-07 -0.000354234
0.00178635 -0.000290353 2.66874e-05
-0.000290353 0.000252018 -7.03085e-06
2.66874e-05 -7.03085e-06 -2.8394e-05
0.00298568 -0.000150419 -7.45131e-05
-0.000150419 0.0002348 -1.10507e-05
-7.45131e-05 -1.10507e-05 -1.58635e-05
-0.000834916 -0.000200872 -1.78643e-05
-0.000200872 -0.0012993 4.68083e-06
-1.78643e-05 4.68083e-06 -0.00122732
0.00154217 -0.000347886 6.44512e-07
-0.000347886 -0.000152116 -8.32235e-07
6.44512e-07 -8.32235e-07 -0.00014488
0.0019997 -0.000271395 7.30499e-06
-0.000271395 -1.55478e-06 -5.78554e-06
7.30499e-06 -5.78554e-06 2.52741e-05
0.00139547 -0.000375568 -1.41544e-06
-0.000375568 -8.66301e-05 3.5618e-07
-1.41544e-06 3.5618e-07 -0.000237938
0.00180683 -0.000337313 -1.56729e-06
-0.000337313 3.8574e-05 -5.2511e-08
-1.56729e-06 -5.2511e-08 -6.58011e-05
0.0020301 -0.000252061 -1.83221e-06
-0.000252061 8.6777e-05 1.63429e-06
-1.83221e-06 1.63429e-06 3.69349e-05
0.0015003 -0.000319728 -1.95917e-06
-0.000319728 -2.09084e-05 3.30562e-06
-1.95917e-06 3.30562e-06 -0.000183284
0.00182238 -0.000275489 4.97769e-07
-0.000275489 5.99606e-05 1.31273e-06
4.97769e-07 1.31273e-06 -4.68844e-05
0.00177678 -0.000228478 -6.51998e-07
-0.000228478 3.5424e-05 9.98988e-07
-6.51998e-07 9.98988e-07 -4.51488e-05
0.00162029 -0.000263088 2.23011e-06
-0.000263088 5.08421e-05 4.97989e-06
2.23011e-06 4.97989e-06 -8.81964e-05
0.00173177 -0.000229455 4.68027e-08
-0.000229455 7.4627e-05 1.22351e-06
4.68027e-08 1.22351e-06 -2.94945e-05
0.0019545 -0.00022119 8.49259e-07
-0.00022119 0.000223134 -2.48497e-07
8.49259e-07 -2.48497e-07 0.00012834
0.00172612 -0.000207992 -3.6164e-06
-0.000207992 0.000118579 3.3429e-06
-3.6164e-06 3.3429e-06 9.29389e-06
0.00175533 -0.000208988 2.39453e-06
-0.000208988 0.000168911 -3.39796e-06
2.39453e-06 -3.39796e-06 4.31462e-05
0.00161089 -0.000218977 6.45486e-07
-0.000218977 6.78707e-05 7.64814e-06
6.45486e-07 7.64814e-06 -6.04668e-05
0.00171225 -0.000223262 7.56566e-07
-0.000223262 0.000164527 -8.59356e-07
7.56566e-07 -8.59356e-07 1.47663e-05
0.0016225 -0.000211993 -1.77987e-06
-0.000211993 0.000156541 -2.77745e-06
-1.77987e-06 -2.77745e-06 -3.18431e-06
0.00135166 -0.000212291 -6.87041e-06
-0.000212291 8.07584e-05 7.27528e-07
-6.87041e-06 7.27528e-07 -9.28378e-05
0.00167522 -0.000247918 6.23307e-07
-0.000247918 0.000215343 -7.28207e-07
6.23307e-07 -7.28207e-07 3.0334e-05
0.00163698 -0.00025388 2.13686e-06
-0.00025388 0.000166415 3.66088e-06
2.13686e-06 3.66088e-06 -1.95936e-05
0.0013055 -0.000210535 -5.55162e-06
-0.000210535 0.000191541 3.2142e-06
-5.55162e-06 3.2142e-06 1.53854e-05
0.00121577 -0.000223733 -1.55991e-06
-0.000223733 6.58324e-05 9.14775e-07
-1.55991e-06 9.14775e-07 -0.000123241
0.00118656 -0.000240526 3.83983e-06
-0.000240526 -7.18051e-06 -1.57854e-06
3.83983e-06 -1.57854e-06 -0.000208071
0.000753067 -0.000120892 -4.87092e-06
-0.000120892 1.17205e-05 4.49854e-06
-4.87092e-06 4.49854e-06 -0.000118689
0.0011007 -0.000190549 8.67285e-07
-0.000190549 0.000161599 9.16122e-08
8.67285e-07 9.16122e-08 -1.21603e-05
0.00120162 -0.000217765 2.40244e-06
-0.000217765 0.000163666 -2.10487e-06
2.40244e-06 -2.10487e-06 -2.71796e-05
0.00046063 -2.16806e-05 -7.1189e-06
-2.16806e-05 -0.000102415 9.21915e-06
-7.1189e-06 9.21915e-06 -0.000152903
0.000811088 -0.000111919 -1.67168e-07
-0.000111919 8.26582e-05 1.40695e-07
-1.67168e-07 1.40695e-07 -3.94018e-05
0.00110177 -0.000176613 1.11284e-06
-0.000176613 0.000218457 -1.85969e-06
1.11284e-06 -1.85969e-06 5.83198e-05
0.00308243 0.000139349 -5.3266e-05
0.000139349 0.00143889 2.20998e-06
-5.3266e-05 2.20998e-06 0.00143252
0.000564784 1.9105e-05 4.55751e-07
1.9105e-05 -2.76459e-05 -4.07629e-07
4.55751e-07 -4.07629e-07 -7.08729e-05
0.000825177 -9.96057e-05 3.77304e-06
-9.96057e-05 0.000117316 -3.36903e-06
3.77304e-06 -3.36903e-06 5.29532e-06
0.00276033 0.000119659 3.87123e-06
0.000119659 0.00124975 3.03092e-07
3.87123e-06 3.03092e-07 0.00124866
0.000645332 4.91112e-05 1.97011e-06
4.91112e-05 2.52028e-05 -6.50711e-06
1.97011e-06 -6.50711e-06 -1.00984e-05
0.00256129 0.000105746 4.31002e-05
0.000105746 0.00113029 -2.33229e-06
4.31002e-05 -2.33229e-06 0.0011331
0.000963585 0.000170539 1.13972e-06
0.000170539 0.000164845 -1.66431e-06
1.13972e-06 -1.66431e-06 1.81974e-05
0.000825399 0.000121908 7.07121e-07
0.000121908 0.00011709 -1.10652e-07
7.07121e-07 -1.10652e-07 -2.27517e-07
0.000593238 1.4642e-05 -8.05036e-07
1.4642e-05 -1.74327e-05 -8.3327e-07
-8.05036e-07 -8.3327e-07 -0.000124053
0.000527593 6.97771e-06 5.78604e-07
6.97771e-06 -5.92439e-05 5.85079e-07
5.78604e-07 5.85079e-07 -0.000154346
0.000647293 -1.41883e-05 -1.16059e-07
-1.41883e-05 1.41942e-05 3.02966e-07
-1.16059e-07 3.02966e-07 -8.33281e-05
0.000662099 -1.74942e-05 -1.35936e-06
-1.74942e-05 1.32987e-05 -3.50469e-06
-1.35936e-06 -3.50469e-06 -6.00104e-05
0.000675572 -1.64313e-05 2.81059e-07
-1.64313e-05 2.42562e-05 1.71833e-06
2.81059e-07 1.71833e-06 -6.37734e-05
0.00064962 -2.34615e-05 3.37565e-07
-2.34615e-05 3.44806e-06 -1.88738e-07
3.37565e-07 -1.88738e-07 -6.21627e-05
0.000585714 -6.13242e-05 7.01008e-08
-6.13242e-05 -2.16389e-05 -5.86631e-06
7.01008e-08 -5.86631e-06 -5.16566e-05
0.00261023 -9.43838e-05 -4.04803e-05
-9.43838e-05 0.00114518 -3.16183e-06
-4.04803e-05 -3.16183e-06 0.00115072
0.000573603 -5.28594e-05 -1.15357e-07
-5.28594e-05 -3.86874e-05 4.00045e-08
-1.15357e-07 4.00045e-08 -6.47881e-05
0.000638466 -1.30075e-05 1.98618e-06
-1.30075e-05 -7.36386e-06 2.88497e-06
1.98618e-06 2.88497e-06 -6.80979e-05
0.00256578 -8.3205e-05 -3.35501e-06
-8.3205e-05 0.00111219 2.55875e-07
-3.35501e-06 2.55875e-07 0.00111989
0.000580255 -4.22431e-05 5.66191e-07
-4.22431e-05 -4.38885e-05 4.874e-06
5.66191e-07 4.874e-06 -6.64907e-05
0.00246285 -7.07783e-05 2.69763e-05
-7.07783e-05 0.00104541 4.18743e-06
2.69763e-05 4.18743e-06 0.00105577
0.00998834 0.000364381 0.000138326
0.000364381 0.00271264 6.54671e-05
0.000138326 6.54671e-05 0.00176485
-0.00236463 -0.000446131 -7.38628e-05
-0.000446131 -0.00156208 -7.37959e-06
-7.38628e-05 -7.37959e-06 -0.0016996
-0.0032246 8.59178e-05 -4.01291e-05
8.59178e-05 0.000125976 -2.57989e-05
-4.01291e-05 -2.57989e-05 -0.00159021
0.000668285 -2.28206e-06 3.97294e-06
-2.28206e-06 3.12252e-05 1.77456e-06
3.97294e-06 1.77456e-06 -7.59097e-05
0.000812171 0.000145153 -5.91117e-07
0.000145153 0.000138311 1.34783e-06
-5.91117e-07 1.34783e-06 1.357e-05
0.00112424 0.000138769 3.44624e-07
0.000138769 0.000319502 -5.3033e-08
3.44624e-07 -5.3033e-08 0.000181577
0.00110846 0.00019399 -2.0405e-06
0.00019399 0.000260779 2.59021e-07
-2.0405e-06 2.59021e-07 0.000106963
0.00159034 0.000247992 1.71546e-05
0.000247992 0.000467434 -9.88345e-07
1.71546e-05 -9.88345e-07 0.000280356
0.000340464 0.000133026 -1.80383e-06
0.000133026 -0.000145686 -1.6337e-06
-1.80383e-06 -1.6337e-06 -0.00029202
0.000515147 9.80635e-05 -1.16621e-06
9.80635e-05 -2.19154e-05 -1.59773e-06
-1.16621e-06 -1.59773e-06 -0.000147201
0.000251994 0.000131254 3.93766e-07
0.000131254 -0.00021285 1.07867e-06
3.93766e-07 1.07867e-06 -0.000363729
0.00102363 0.000187355 -1.11901e-06
0.000187355 0.000168469 2.79969e-07
-1.11901e-06 2.79969e-07 5.28772e-05
0.000262853 0.000183006 2.27679e-06
0.000183006 -0.000350598 -8.29264e-07
2.27679e-06 -8.29264e-07 -0.000497261
0.00318794 0.000452029 -3.49854e-06
0.000452029 0.00104984 -4.41178e-06
-3.49854e-06 -4.41178e-06 0.000883077
0.00191948 0.000429017 -3.71413e-06
0.000429017 0.000249318 1.8795e-06
-3.71413e-06 1.8795e-06 8.46543e-05
0.00159625 0.000370171 4.12478e-06
0.000370171 0.000211024 -3.10345e-06
4.12478e-06 -3.10345e-06 4.2664e-05
0.000513667 0.0001409 -3.02934e-06
0.0001409 -4.07294e-05 5.46421e-06
-3.02934e-06 5.46421e-06 -0.000137297
0.00407841 0.000358181 -7.1151e-06
0.000358181 9.06647e-05 1.06977e-05
-7.1151e-06 1.06977e-05 -3.04534e-05
0.00713895 0.000244412 3.92404e-05
0.000244412 0.00145901 3.02416e-05
3.92404e-05 3.02416e-05 9.52067e-05
0.00590216 -0.000932167 2.7802e-05
-0.000932167 0.0031902 -5.6906e-05
2.7802e-05 -5.6906e-05 0.00288001
0.00461237 0.000700574 0.000293737
0.000700574 0.000878727 0.000100906
0.000293737 0.000100906 -0.00177455
0.00153802 0.000494099 1.79968e-05
0.000494099 9.8842e-07 2.3533e-05
1.79968e-05 2.3533e-05 -9.98311e-05
0.00302441 0.000714216 -7.18169e-05
0.000714216 -4.94247e-06 -2.33748e-05
-7.18169e-05 -2.33748e-05 -0.000336224
0.00324955 0.00061288 4.84955e-05
0.00061288 0.000558802 2.35229e-05
4.84955e-05 2.35229e-05 0.000568087
0.00261626 0.000567924 3.02175e-06
0.000567924 0.000534917 7.66791e-06
3.02175e-06 7.66791e-06 0.000388185
0.000664242 0.000303443 -4.35462e-06
0.000303443 -6.84464e-05 1.15966e-05
-4.35462e-06 1.15966e-05 -0.000240842
0.00276225 0.000673569 -9.24598e-05
0.000673569 0.000279733 -3.87596e-05
-9.24598e-05 -3.87596e-05 0.00013436
0.00320389 -0.000179608 -0.000111859
-0.000179608 0.000527946 5.66439e-06
-0.000111859 5.66439e-06 0.000186764
0.00958905 -0.000193882 4.69345e-06
-0.000193882 0.00298461 -3.74698e-06
4.69345e-06 -3.74698e-06 0.00231578
-0.00794993 -0.000301748 0.000238008
-0.000301748 -0.0042751 -3.73955e-06
0.000238008 -3.73955e-06 -0.00409048
0.00132474 -0.000349244 -3.55291e-05
-0.000349244 -8.78023e-05 8.63919e-06
-3.55291e-05 8.63919e-06 -0.000164418
0.00584568 -0.0005945 9.5174e-05
-0.0005945 0.00110949 1.2213e-05
9.5174e-05 1.2213e-05 0.000436894
0.00143065 -0.000391829 6.40496e-05
-0.000391829 -0.00152924 5.44479e-05
6.40496e-05 5.44479e-05 -0.002534
0.00129636 -0.000238563 1.85513e-05
-0.000238563 -3.14102e-05 -6.98861e-07
1.85513e-05 -6.98861e-07 -0.000213004
0.00226175 -5.0757e-05 -2.78482e-06
-5.0757e-05 -0.000276101 6.60534e-06
-2.78482e-06 6.60534e-06 -0.000513071
0.00373387 -0.000257716 1.54417e-05
-0.000257716 0.000963444 -5.06523e-06
1.54417e-05 -5.06523e-06 0.000943669
0.00328452 -4.32496e-05 6.46815e-05
-4.32496e-05 0.00073848 -2.92303e-06
6.46815e-05 -2.92303e-06 0.000717216
0.000285062 -0.000294592 -7.58264e-06
-0.000294592 -0.000798751 4.91614e-06
-7.58264e-06 4.91614e-06 -0.000791304
0.0017334 -0.000269587 -5.0785e-07
-0.000269587 -0.000139843 9.10366e-07
-5.0785e-07 9.10366e-07 -0.000120436
0.00170462 -0.000160774 8.554e-06
-0.000160774 -0.000143753 -5.18814e-07
8.554e-06 -5.18814e-07 -0.000102945
0.00157531 -0.000315844 4.02997e-06
-0.000315844 -7.12573e-05 -4.51773e-07
4.02997e-06 -4.51773e-07 -0.000172276
0.00190887 -0.000248569 2.13441e-06
-0.000248569 2.9278e-05 9.34867e-07
2.13441e-06 9.34867e-07 -2.34867e-05
0.00185955 -0.000184005 1.04104e-06
-0.000184005 6.21133e-05 1.80487e-06
1.04104e-06 1.80487e-06 1.98067e-05
0.00180928 -0.000273441 6.85974e-06
-0.000273441 5.30916e-05 3.24271e-06
6.85974e-06 3.24271e-06 -5.33263e-05
0.00183981 -0.000229198 1.10713e-06
-0.000229198 7.74024e-05 4.44327e-07
1.10713e-06 4.44327e-07 -3.24458e-06
0.00198433 -0.000195724 -6.15672e-07
-0.000195724 0.000212584 1.07348e-06
-6.15672e-07 1.07348e-06 0.000133096
0.00168277 -0.000227833 2.03751e-06
-0.000227833 4.8453e-05 3.93104e-06
2.03751e-06 3.93104e-06 -5.64068e-05
0.00178807 -0.000215145 -2.21321e-09
-0.000215145 0.000134314 5.31995e-07
-2.21321e-09 5.31995e-07 3.85461e-05
0.00164815 -0.00020047 4.08226e-06
-0.00020047 8.53916e-05 -1.97405e-06
4.08226e-06 -1.97405e-06 -2.45357e-05
0.00165847 -0.000208077 -3.32307e-06
-0.000208077 7.40062e-05 7.11975e-06
-3.32307e-06 7.11975e-06 -3.26016e-05
0.00180881 -0.000209765 -1.81382e-06
-0.000209765 0.000198786 3.86673e-08
-1.81382e-06 3.86673e-08 7.60225e-05
0.00170051 -0.000194639 8.03078e-07
-0.000194639 0.000185484 -1.74343e-06
8.03078e-07 -1.74343e-06 4.1838e-05
0.001709 -0.000224057 1.50585e-06
-0.000224057 0.000163318 3.32633e-06
1.50585e-06 3.32633e-06 1.30608e-05
0.00167712 -0.000214695 7.34428e-07
-0.000214695 0.000188658 -7.5266e-07
7.34428e-07 -7.5266e-07 2.79272e-05
0.00161828 -0.000198749 -3.1615e-06
-0.000198749 0.000211854 -2.74445e-07
-3.1615e-06 -2.74445e-07 5.29914e-05
0.00102318 -0.000179243 -8.75138e-06
-0.000179243 -3.95461e-05 1.88898e-06
-8.75138e-06 1.88898e-06 -0.00020041
0.00153516 -0.000224527 -1.34523e-06
-0.000224527 0.000187326 2.32312e-08
-1.34523e-06 2.32312e-08 1.207e-05
0.0017021 -0.000250195 4.27899e-06
-0.000250195 0.000233138 -1.43095e-07
4.27899e-06 -1.43095e-07 4.69603e-05
0.000925537 -0.00014804 -7.44878e-06
-0.00014804 4.85031e-05 5.96616e-06
-7.44878e-06 5.96616e-06 -8.98045e-05
0.00116928 -0.000199089 5.45523e-07
-0.000199089 0.000114376 9.27505e-07
5.45523e-07 9.27505e-07 -5.96471e-05
0.00122373 -0.000223212 2.75298e-06
-0.000223212 7.02775e-05 -4.88017e-07
2.75298e-06 -4.88017e-07 -0.000118072
0.000464251 -5.33216e-05 -1.07297e-05
-5.33216e-05 -0.000113571 1.04717e-05
-1.07297e-05 1.04717e-05 -0.000174388
0.000869422 -0.000133887 1.09622e-07
-0.000133887 7.81782e-05 -1.38141e-07
1.09622e-07 -1.38141e-07 -5.43666e-05
0.00112178 -0.000192568 3.37799e-06
-0.000192568 0.000170212 -2.69423e-06
3.37799e-06 -2.69423e-06 -3.48694e-06
0.00367576 0.000149722 -8.29633e-05
0.000149722 0.00177877 2.63526e-06
-8.29633e-05 2.63526e-06 0.00176939
0.000596229 -2.89728e-05 4.51525e-07
-2.89728e-05 -2.73939e-05 -2.39492e-07
4.51525e-07 -2.39492e-07 -7.94843e-05
0.000904126 -0.000123831 5.21923e-06
-0.000123831 0.000133757 -3.85958e-06
5.21923e-06 -3.85958e-06 1.02079e-05
0.00326391 0.000126539 5.66895e-06
0.000126539 0.00153888 2.64131e-07
5.66895e-06 2.64131e-07 0.00153565
0.000670555 8.87843e-06 5.89879e-06
8.87843e-06 2.90933e-05 -7.71921e-06
5.89879e-06 -7.71921e-06 -1.38407e-05
0.00289744 0.000107818 6.81999e-05
0.000107818 0.00132492 -2.48287e-06
6.81999e-05 -2.48287e-06 0.00132692
0.00112229 0.00019665 -7.91714e-07
0.00019665 0.000212502 -5.51514e-06
-7.91714e-07 -5.51514e-06 3.90874e-05
0.00119264 0.000188924 4.92551e-07
0.000188924 0.000297019 1.54898e-07
4.92551e-07 1.54898e-07 0.000147776
0.000785508 0.000108103 -1.57587e-06
0.000108103 7.27925e-05 -2.58283e-06
-1.57587e-06 -2.58283e-06 -5.55502e-05
0.00072308 0.000137921 -1.02552e-07
0.000137921 6.7097e-05 3.55873e-07
-1.02552e-07 3.55873e-07 -5.54305e-05
0.000609195 3.27769e-05 -4.78819e-07
3.27769e-05 -7.93084e-06 -2.14445e-07
-4.78819e-07 -2.14445e-07 -0.000118108
0.000731893 4.07329e-05 -2.4069e-06
4.07329e-05 6.20974e-05 -3.18334e-06
-2.4069e-06 -3.18334e-06 -2.97002e-05
0.000576245 -2.88864e-05 4.16865e-07
-2.88864e-05 -2.82786e-05 1.55605e-06
4.16865e-07 1.55605e-06 -0.00012413
0.00065209 -1.9495e-05 3.14574e-07
-1.9495e-05 1.00455e-05 -2.97571e-07
3.14574e-07 -2.97571e-07 -6.41606e-05
0.000586017 -5.92804e-05 -2.95862e-07
-5.92804e-05 -1.49135e-05 -6.43961e-06
-2.95862e-07 -6.43961e-06 -4.85221e-05
0.00062431 -2.66396e-05 1.42891e-06
-2.66396e-05 -9.82334e-06 3.22817e-06
1.42891e-06 3.22817e-06 -7.55052e-05
0.000563637 -5.9533e-05 1.99789e-07
-5.9533e-05 -3.53228e-05 -3.50095e-08
1.99789e-07 -3.50095e-08 -6.47928e-05
0.00265697 -0.000104473 -4.65201e-05
-0.000104473 0.00117859 -2.62566e-06
-4.65201e-05 -2.62566e-06 0.00118202
0.00260357 -9.39852e-05 -2.43455e-06
-9.39852e-05 0.00114089 2.46456e-07
-2.43455e-06 2.46456e-07 0.00114638
0.000563512 -4.90918e-05 9.87901e-07
-4.90918e-05 -4.57594e-05 5.21518e-06
9.87901e-07 5.21518e-06 -7.11269e-05
0.00254296 -8.24597e-05 3.2603e-05
-8.24597e-05 0.00109856 3.86707e-06
3.2603e-05 3.86707e-06 0.00110635
0.00310275 -1.69389e-05 -2.19144e-05
-1.69389e-05 2.30428e-07 2.57385e-05
-2.19144e-05 2.57385e-05 -1.53588e-05
0.00168375 -0.000431088 3.57348e-05
-0.000431088 -0.00156473 1.74545e-05
3.57348e-05 1.74545e-05 -0.00256883
0.00506906 -0.000549329 -3.4443e-05
-0.000549329 0.00204773 -4.88844e-05
-3.4443e-05 -4.88844e-05 0.00219408
0.00173163 0.000275122 8.92759e-06
0.000275122 0.000406745 5.12173e-06
8.92759e-06 5.12173e-06 0.00020444
0.00132623 0.000161756 2.32682e-06
0.000161756 0.000431972 1.23001e-06
2.32682e-06 1.23001e-06 0.000292313
0.000940046 0.000179405 -1.61002e-06
0.000179405 0.000169673 2.3572e-06
-1.61002e-06 2.3572e-06 1.91e-05
0.000710319 0.000165982 7.98502e-07
0.000165982 5.85068e-05 1.12297e-06
7.98502e-07 1.12297e-06 -9.4982e-05
0.00115172 0.000214616 -9.28558e-08
0.000214616 0.000225356 -3.28406e-06
-9.28558e-08 -3.28406e-06 4.0595e-05
0.000823951 0.000209721 9.98731e-07
0.000209721 -2.5191e-05 -3.90194e-07
9.98731e-07 -3.90194e-07 -0.000181035
0.000912393 0.000190358 -1.43716e-06
0.000190358 0.000147534 -8.53757e-07
-1.43716e-06 -8.53757e-07 -1.7402e-05
0.00089559 0.000179766 2.38703e-07
0.000179766 0.000105066 5.44548e-06
2.38703e-07 5.44548e-06 -1.45043e-05
0.00110733 0.000248074 1.08606e-06
0.000248074 0.000110326 -3.18316e-07
1.08606e-06 -3.18316e-07 -4.30522e-05
0.0023279 0.000389506 2.06897e-06
0.000389506 0.000586677 6.52185e-06
2.06897e-06 6.52185e-06 0.000425556
0.00169015 0.000377232 -1.63842e-06
0.000377232 0.000131082 -5.84695e-07
-1.63842e-06 -5.84695e-07 -4.0718e-05
0.00138221 0.000330487 7.68813e-06
0.000330487 -2.99587e-05 6.6851e-06
7.68813e-06 6.6851e-06 -0.000140335
0.00109984 0.000374864 -1.47294e-06
0.000374864 -0.000187281 -2.84429e-06
-1.47294e-06 -2.84429e-06 -0.0003505
0.000564117 0.000288641 1.13943e-06
0.000288641 -0.000316316 3.72172e-06
1.13943e-06 3.72172e-06 -0.000465021
0.000768706 0.000231472 1.58853e-05
0.000231472 -0.000330995 1.68911e-05
1.58853e-05 1.68911e-05 -0.000324888
0.00508421 0.000506541 -3.25781e-05
0.000506541 0.000429034 -3.2603e-06
-3.25781e-05 -3.2603e-06 0.000196543
0.0018873 6.2454e-05 0.000148435
6.2454e-05 -0.00114448 2.18198e-05
0.000148435 2.18198e-05 -0.00253051
0.00158208 0.000609501 2.43688e-05
0.000609501 -0.000608853 -4.12936e-06
2.43688e-05 -4.12936e-06 -0.00103919
0.00205226 0.000480451 -2.36366e-05
0.000480451 0.000203025 -2.20141e-06
-2.36366e-05 -2.20141e-06 0.000182236
0.00165524 0.000473762 -4.20289e-05
0.000473762 9.11238e-05 -2.27139e-05
-4.20289e-05 -2.27139e-05 -5.86334e-05
0.00234448 -0.000145541 1.44838e-05
-0.000145541 0.000194586 1.16755e-06
1.44838e-05 1.16755e-06 0.000139129
0.00126597 5.61994e-07 -9.11682e-06
5.61994e-07 -0.000396164 3.61046e-06
-9.11682e-06 3.61046e-06 -0.000579177
0.000625575 0.000484117 7.32234e-05
0.000484117 -0.00230359 -2.35526e-05
7.32234e-05 -2.35526e-05 -0.00295309
0.000812789 -0.000173084 -1.08796e-05
-0.000173084 -0.000308458 2.14539e-05
-1.08796e-05 2.14539e-05 -0.000370045
0.00291555 -8.02106e-05 -1.2274e-05
-8.02106e-05 -9.42184e-05 3.0395e-05
-1.2274e-05 3.0395e-05 -0.000420946
0.00180901 -0.000176053 -6.19327e-06
-0.000176053 -2.45793e-05 2.21336e-06
-6.19327e-06 2.21336e-06 -1.27062e-05
0.00256418 -7.55276e-05 -6.34162e-06
-7.55276e-05 0.000344679 -2.39199e-06
-6.34162e-06 -2.39199e-06 0.000299391
0.00145479 -0.000100684 2.28532e-05
-0.000100684 -0.000260731 -9.64939e-07
2.28532e-05 -9.64939e-07 -0.000229924
0.00296463 -4.75714e-05 2.15916e-05
-4.75714e-05 0.000789622 8.54683e-07
2.15916e-05 8.54683e-07 0.000746424
0.0016087 -0.000274852 -8.80175e-06
-0.000274852 -0.000202279 4.48968e-06
-8.80175e-06 4.48968e-06 -0.000196134
0.00175136 -0.000170369 1.73882e-06
-0.000170369 -0.000130931 1.62328e-06
1.73882e-06 1.62328e-06 -9.94373e-05
0.0018436 -0.000178684 7.92516e-07
-0.000178684 -6.43781e-07 8.73374e-07
7.92516e-07 8.73374e-07 2.99279e-08
0.0017458 -0.000242778 3.70715e-06
-0.000242778 -4.75128e-05 8.70636e-07
3.70715e-06 8.70636e-07 -0.000103904
0.00180641 -0.000194213 4.99898e-07
-0.000194213 2.63917e-05 1.44905e-07
4.99898e-07 1.44905e-07 -2.11726e-05
0.0018704 -0.000183424 5.40238e-07
-0.000183424 0.000118987 1.36308e-06
5.40238e-07 1.36308e-06 5.4284e-05
0.00191694 -0.000231229 1.24226e-06
-0.000231229 0.000127109 1.03887e-06
1.24226e-06 1.03887e-06 4.60754e-05
0.00187672 -0.000199636 -9.95304e-07
-0.000199636 0.000151144 5.04898e-08
-9.95304e-07 5.04898e-08 6.97235e-05
0.00166999 -0.000178971 2.035e-06
-0.000178971 7.61605e-05 -2.82715e-07
2.035e-06 -2.82715e-07 -2.12551e-05
0.00162087 -0.000209377 -2.13519e-06
-0.000209377 4.48386e-05 1.70893e-06
-2.13519e-06 1.70893e-06 -5.19509e-05
0.0016664 -0.000201136 4.54883e-07
-0.000201136 9.908e-05 -5.6633e-07
4.54883e-07 -5.6633e-07 -1.09807e-05
0.00161796 -0.000183727 1.99952e-06
-0.000183727 0.000109945 -1.60376e-06
1.99952e-06 -1.60376e-06 -2.2073e-05
0.00186267 -0.000210326 -4.85871e-06
-0.000210326 0.000228884 4.80711e-06
-4.85871e-06 4.80711e-06 0.000109158
0.00174256 -0.000195089 -7.47009e-07
-0.000195089 0.000206561 -4.62614e-08
-7.47009e-07 -4.62614e-08 6.53866e-05
0.0014949 -0.000169654 -2.32464e-06
-0.000169654 0.000127421 -7.62635e-08
-2.32464e-06 -7.62635e-08 -2.34159e-05
0.00172768 -0.000217262 2.97429e-06
-0.000217262 0.000218381 1.06052e-06
2.97429e-06 1.06052e-06 5.6653e-05
0.00153985 -0.000195113 8.51905e-07
-0.000195113 0.000166481 -6.5807e-07
8.51905e-07 -6.5807e-07 6.62232e-06
0.00126323 -0.000167309 -6.93412e-06
-0.000167309 7.19603e-05 2.34842e-06
-6.93412e-06 2.34842e-06 -7.74848e-05
0.00101211 -0.000152279 -1.021e-05
-0.000152279 4.04629e-05 5.04595e-06
-1.021e-05 5.04595e-06 -9.32567e-05
0.00109472 -0.00018227 -2.0871e-06
-0.00018227 4.12806e-06 3.61617e-07
-2.0871e-06 3.61617e-07 -0.000156282
0.00174973 -0.000238912 3.91607e-06
-0.000238912 0.00031119 -9.00877e-07
3.91607e-06 -9.00877e-07 0.00013404
0.000535329 -0.000131159 -1.69988e-05
-0.000131159 -9.09098e-05 1.19485e-05
-1.69988e-05 1.19485e-05 -0.000164834
0.000914177 -0.000149636 7.69326e-07
-0.000149636 4.41965e-05 5.32972e-07
7.69326e-07 5.32972e-07 -9.45492e-05
0.00103321 -0.000187936 6.13349e-06
-0.000187936 3.73315e-05 -1.3388e-06
6.13349e-06 -1.3388e-06 -0.000134649
0.0041641 0.000164299 -0.000102014
0.000164299 0.00206471 4.2717e-06
-0.000102014 4.2717e-06 0.0020496
0.000618064 -9.09998e-05 5.08865e-07
-9.09998e-05 -2.79776e-05 -1.16189e-07
5.08865e-07 -1.16189e-07 -9.33788e-05
0.000935688 -0.000144299 6.36294e-06
-0.000144299 0.000116305 -5.2308e-06
6.36294e-06 -5.2308e-06 -1.81195e-05
0.00380576 0.000131628 4.43362e-06
0.000131628 0.00184961 4.88932e-07
4.43362e-06 4.88932e-07 0.00184337
0.000720057 -4.67177e-05 1.05195e-05
-4.67177e-05 4.11367e-05 -9.29091e-06
1.05195e-05 -9.29091e-06 -1.30685e-05
0.00341587 0.000105057 9.65298e-05
0.000105057 0.00162091 -4.02738e-06
9.65298e-05 -4.02738e-06 0.00162162
0.00105195 0.000206266 -4.27666e-06
0.000206266 6.66654e-05 -8.05708e-07
-4.27666e-06 -8.05708e-07 -0.000122039
0.00108095 0.000193115 -7.63589e-08
0.000193115 0.000192684 -1.7323e-06
-7.63589e-08 -1.7323e-06 1.97347e-05
0.00112433 0.000176974 -1.32918e-06
0.000176974 0.000234027 -3.33818e-06
-1.32918e-06 -3.33818e-06 7.9542e-05
0.001408 0.00020611 -5.66079e-07
0.00020611 0.000421208 9.42648e-07
-5.66079e-07 9.42648e-07 0.000269599
0.00087042 0.000117453 -1.15951e-06
0.000117453 0.000120105 -1.07429e-06
-1.15951e-06 -1.07429e-06 -8.45613e-06
0.000822477 7.62546e-05 -3.27599e-06
7.62546e-05 0.0001105 -2.83007e-06
-3.27599e-06 -2.83007e-06 4.6266e-06
0.000635594 5.54529e-05 1.87495e-07
5.54529e-05 4.61231e-06 3.66529e-07
1.87495e-07 3.66529e-07 -0.00010747
0.000668902 -2.11753e-07 -4.51943e-07
-2.11753e-07 2.30843e-05 -7.16924e-08
-4.51943e-07 -7.16924e-08 -6.36236e-05
0.000586105 -4.65722e-05 -2.23584e-06
-4.65722e-05 -1.3475e-05 -6.85927e-06
-2.23584e-06 -6.85927e-06 -5.18698e-05
0.000607516 -3.46295e-05 1.08448e-06
-3.46295e-05 -1.31882e-05 3.51582e-06
1.08448e-06 3.51582e-06 -8.73605e-05
0.000550244 -6.31707e-05 4.02792e-07
-6.31707e-05 -3.45598e-05 -1.69629e-07
4.02792e-07 -1.69629e-07 -6.85591e-05
0.00276958 -0.000113811 -5.56455e-05
-0.000113811 0.00124883 -2.16114e-06
-5.56455e-05 -2.16114e-06 0.00125003
0.000547516 -5.80847e-05 6.54143e-07
-5.80847e-05 -4.55396e-05 5.63129e-06
6.54143e-07 5.63129e-06 -7.44808e-05
0.00264469 -0.000104746 -1.82845e-06
-0.000104746 0.00117134 2.25924e-07
-1.82845e-06 2.25924e-07 0.00117453
0.00260168 -9.34577e-05 3.84972e-05
-9.34577e-05 0.00113943 3.44316e-06
3.84972e-05 3.44316e-06 0.0011449
0.000485553 2.71168e-05 9.94926e-06
2.71168e-05 -0.000609308 8.26978e-06
9.94926e-06 8.26978e-06 -0.000607798
0.0041605 4.26169e-05 3.56536e-05
4.26169e-05 0.000373037 9.23028e-06
3.56536e-05 9.23028e-06 0.000150162
0.00897485 0.000435994 -8.46823e-05
0.000435994 0.00271193 -4.38204e-05
-8.46823e-05 -4.38204e-05 0.00160537
0.000270971 0.000169096 1.39456e-06
0.000169096 -0.000450072 1.97082e-06
1.39456e-06 1.97082e-06 -0.000614193
0.0016135 0.000269517 1.9427e-06
0.000269517 0.000186196 1.97214e-06
1.9427e-06 1.97214e-06 1.55662e-05
0.00123717 0.000241413 -2.36589e-06
0.000241413 0.000128237 2.46102e-07
-2.36589e-06 2.46102e-07 -6.80044e-05
0.00103815 0.000195179 -5.46493e-07
0.000195179 0.000238938 8.95421e-07
-5.46493e-07 8.95421e-07 7.89348e-05
0.000690995 0.00017866 -1.35524e-06
0.00017866 -3.03023e-05 -2.2058e-08
-1.35524e-06 -2.2058e-08 -0.000212404
0.00125916 0.000248097 6.19963e-06
0.000248097 0.000200143 1.32818e-06
6.19963e-06 1.32818e-06 3.66419e-05
0.00247116 0.000397615 -8.74947e-06
0.000397615 0.000572996 -4.06714e-06
-8.74947e-06 -4.06714e-06 0.000400795
0.0019284 0.000311683 -1.05088e-06
0.000311683 0.000558713 1.86076e-06
-1.05088e-06 1.86076e-06 0.000398744
0.00135314 0.000319839 9.50348e-06
0.000319839 6.1194e-05 1.61586e-05
9.50348e-06 1.61586e-05 -9.37695e-05
0.00197786 0.000391501 -1.67934e-06
0.000391501 0.000293295 1.00936e-06
-1.67934e-06 1.00936e-06 0.000123389
0.00214063 0.000368809 -1.12682e-05
0.000368809 0.000286413 1.65872e-06
-1.12682e-05 1.65872e-06 0.00014028
0.000785056 0.000159227 1.44221e-05
0.000159227 -0.000416988 4.88113e-06
1.44221e-05 4.88113e-06 -0.000475768
0.00128483 0.000318763 8.47618e-06
0.000318763 -7.69742e-05 9.07473e-07
8.47618e-06 9.07473e-07 -0.000189726
0.00109939 0.000369601 -6.5187e-06
0.000369601 -0.000198518 -7.1895e-06
-6.5187e-06 -7.1895e-06 -0.000362735
0.00130663 0.000228371 -2.54322e-06
0.000228371 -6.4807e-05 3.75e-06
-2.54322e-06 3.75e-06 -7.10744e-05
0.00486364 0.000289215 3.55765e-05
0.000289215 0.00023503 -6.64861e-06
3.55765e-05 -6.64861e-06 -7.1925e-05
0.0017465 0.000405244 8.02639e-06
0.000405244 0.000260428 -1.80333e-05
8.02639e-06 -1.80333e-05 0.000236102
0.00135057 -3.59213e-05 2.23039e-05
-3.59213e-05 -6.09665e-05 3.41127e-06
2.23039e-05 3.41127e-06 -8.98095e-05
0.00204207 -7.66955e-05 -1.61644e-05
-7.66955e-05 8.90713e-05 -7.39492e-07
-1.61644e-05 -7.39492e-07 2.65601e-05
0.00143329 0.00014119 3.90641e-05
0.00014119 -0.000607419 -8.68619e-06
3.90641e-05 -8.68619e-06 -0.000859799
0.000595733 -0.000142232 -2.40761e-05
-0.000142232 -0.000640682 1.62921e-05
-2.40761e-05 1.62921e-05 -0.000606087
0.00263019 -0.000126148 -7.80496e-05
-0.000126148 0.00035847 3.58076e-06
-7.80496e-05 3.58076e-06 0.000314654
0.00168514 -0.000128635 1.34362e-06
-0.000128635 -0.000128807 -8.03365e-07
1.34362e-06 -8.03365e-07 -9.18261e-05
0.00229404 -5.62061e-05 -5.57872e-06
-5.62061e-05 0.000367791 4.03959e-07
-5.57872e-06 4.03959e-07 0.00032221
0.00195414 -0.000152428 4.05167e-06
-0.000152428 2.36319e-05 4.05589e-07
4.05167e-06 4.05589e-07 1.4731e-05
0.00209815 -2.64861e-05 4.1768e-06
-2.64861e-05 0.00015582 2.92051e-07
4.1768e-06 2.92051e-07 0.000112769
0.0018559 -0.000181651 -2.29444e-06
-0.000181651 -9.06926e-05 1.40384e-06
-2.29444e-06 1.40384e-06 -6.50515e-05
0.00185085 -0.000174843 -1.75045e-06
-0.000174843 7.71925e-06 -8.86122e-08
-1.75045e-06 -8.86122e-08 5.50839e-06
0.00196136 -0.000156796 -7.36914e-07
-0.000156796 8.6734e-05 8.79821e-07
-7.36914e-07 8.79821e-07 4.38477e-05
0.00179887 -0.000204877 -1.19073e-06
-0.000204877 1.52204e-05 -1.32583e-06
-1.19073e-06 -1.32583e-06 -3.7066e-05
0.00178213 -0.000179525 6.90335e-08
-0.000179525 7.32652e-05 -2.86663e-07
6.90335e-08 -2.86663e-07 5.42771e-06
0.00167557 -0.000158015 8.5776e-07
-0.000158015 3.68943e-05 4.00732e-07
8.5776e-07 4.00732e-07 -4.8096e-05
0.00176877 -0.000202787 -3.53095e-06
-0.000202787 8.98546e-05 -3.46133e-07
-3.53095e-06 -3.46133e-07 6.70922e-06
0.00168746 -0.000179371 2.08344e-07
-0.000179371 8.75761e-05 -2.35419e-07
2.08344e-07 -2.35419e-07 -9.80505e-06
0.00165922 -0.000166027 2.12466e-06
-0.000166027 9.81088e-05 -5.92186e-07
2.12466e-06 -5.92186e-07 -2.40101e-05
0.00168595 -0.000201826 -2.50994e-06
-0.000201826 0.000113444 7.63104e-07
-2.50994e-06 7.63104e-07 3.25097e-06
0.00163816 -0.000183786 -8.50889e-08
-0.000183786 0.000121875 -3.14017e-07
-8.50889e-08 -3.14017e-07 -9.91118e-06
0.00149602 -0.000156996 -1.37058e-06
-0.000156996 0.000111684 -4.83281e-08
-1.37058e-06 -4.83281e-08 -3.40197e-05
0.00178126 -0.000195529 -1.22431e-06
-0.000195529 0.000225764 2.61664e-06
-1.22431e-06 2.61664e-06 8.70512e-05
0.00149147 -0.000169974 -4.79894e-07
-0.000169974 0.000124077 -1.159e-07
-4.79894e-07 -1.159e-07 -2.614e-05
0.00128695 -0.000149261 -6.64147e-06
-0.000149261 7.32513e-05 2.10673e-06
-6.64147e-06 2.10673e-06 -7.18887e-05
0.00147423 -0.000192362 4.93309e-06
-0.000192362 0.000128578 -8.23019e-07
4.93309e-06 -8.23019e-07 -3.24165e-05
0.00119532 -0.00016379 8.13414e-08
-0.00016379 3.36184e-05 -1.53556e-08
8.13414e-08 -1.53556e-08 -0.000116276
0.00103599 -0.000138747 -1.11608e-05
-0.000138747 2.60403e-05 4.86531e-06
-1.11608e-05 4.86531e-06 -9.93651e-05
0.000490302 -0.000144761 -1.88913e-05
-0.000144761 -0.000135298 1.17094e-05
-1.88913e-05 1.17094e-05 -0.000213379
0.000979271 -0.000150164 2.57188e-07
-0.000150164 2.2665e-05 1.47299e-07
2.57188e-07 1.47299e-07 -0.000110826
0.00117898 -0.000186129 4.81012e-06
-0.000186129 5.49176e-05 -1.34688e-06
4.81012e-06 -1.34688e-06 -0.000105117
0.00466421 0.000188973 -0.000108939
0.000188973 0.00236341 7.04212e-06
-0.000108939 7.04212e-06 0.00233867
0.000615982 -0.00012182 -7.62993e-07
-0.00012182 -4.71143e-05 4.29079e-07
-7.62993e-07 4.29079e-07 -0.000122191
0.000914388 -0.000153092 8.25795e-06
-0.000153092 4.75598e-05 -4.58211e-06
8.25795e-06 -4.58211e-06 -9.18996e-05
0.00434358 0.0001502 8.74064e-06
0.0001502 0.00216493 8.94434e-07
8.74064e-06 8.94434e-07 0.00215134
0.000776507 -9.32886e-05 1.44143e-05
-9.32886e-05 5.6479e-05 -1.11955e-05
1.44143e-05 -1.11955e-05 -1.00589e-05
0.00394842 0.000114704 0.00011454
0.000114704 0.00192709 -5.22653e-06
0.00011454 -5.22653e-06 0.00192328
0.00114797 0.000213449 -4.80973e-06
0.000213449 2.92531e-06 1.90997e-06
-4.80973e-06 1.90997e-06 -0.000173627
0.00097191 0.00020136 -1.37301e-06
0.00020136 1.87799e-05 2.22519e-06
-1.37301e-06 2.22519e-06 -0.0001697
0.00107112 0.00018505 -4.35869e-06
0.00018505 0.000128986 -1.85371e-06
-4.35869e-06 -1.85371e-06 -4.18225e-05
0.00105653 0.000191104 -2.63154e-07
0.000191104 0.00018212 1.42874e-06
-2.63154e-07 1.42874e-06 9.45955e-06
0.000995483 0.000165743 -3.94127e-07
0.000165743 0.000163457 -8.75586e-07
-3.94127e-07 -8.75586e-07 1.0878e-05
0.000952869 0.000120909 -4.91073e-06
0.000120909 0.000167637 -4.10192e-06
-4.91073e-06 -4.10192e-06 4.56482e-05
0.000934337 0.000124792 1.82164e-07
0.000124792 0.000155631 -2.54873e-07
1.82164e-07 -2.54873e-07 2.70485e-05
0.000736743 5.67845e-05 -3.40219e-07
5.67845e-05 6.37108e-05 5.4117e-08
-3.40219e-07 5.4117e-08 -4.04787e-05
0.000643478 -7.86655e-06 -6.38058e-06
-7.86655e-06 1.27666e-05 -7.6582e-06
-6.38058e-06 -7.6582e-06 -3.29904e-05
0.000631294 -2.77794e-05 8.92142e-07
-2.77794e-05 2.22796e-06 3.44041e-06
8.92142e-07 3.44041e-06 -8.25357e-05
0.000536212 -5.48934e-05 1.21304e-08
-5.48934e-05 -3.99082e-05 -2.5242e-07
1.21304e-08 -2.5242e-07 -7.89893e-05
0.00300374 -0.000120745 -7.11162e-05
-0.000120745 0.00138764 -1.97887e-06
-7.11162e-05 -1.97887e-06 0.00138668
0.000520906 -6.46773e-05 1.57558e-07
-6.46773e-05 -5.13782e-05 6.18562e-06
1.57558e-07 6.18562e-06 -8.52918e-05
0.00273303 -0.000115797 -1.77638e-06
-0.000115797 0.00122826 2.24623e-07
-1.77638e-06 2.24623e-07 0.00122884
0.00263649 -0.000104293 4.31932e-05
-0.000104293 0.00116637 2.93329e-06
4.31932e-05 2.93329e-06 0.00116954
0.000970919 4.91138e-05 1.17992e-05
4.91138e-05 -0.000326689 1.00257e-06
1.17992e-05 1.00257e-06 -0.000344451
0.00173956 -4.65435e-06 -4.92286e-06
-4.65435e-06 -9.52703e-05 2.10369e-06
-4.92286e-06 2.10369e-06 -0.000104791
0.00338389 -4.84244e-06 9.73954e-05
-4.84244e-06 -0.000132639 -4.6672e-06
9.73954e-05 -4.6672e-06 -0.000172006
0.00179848 0.000306679 -1.9648e-06
0.000306679 0.000220001 -3.0979e-07
-1.9648e-06 -3.0979e-07 5.98541e-05
0.000651647 0.000209961 1.15186e-06
0.000209961 -0.000241827 -9.7307e-07
1.15186e-06 -9.7307e-07 -0.00040638
0.00184789 0.000271799 -1.43256e-06
0.000271799 0.000227757 2.42178e-06
-1.43256e-06 2.42178e-06 7.11905e-05
0.00168041 0.000273581 1.08475e-06
0.000273581 0.000229832 4.65524e-07
1.08475e-06 4.65524e-07 5.77999e-05
0.000767078 0.00021083 -3.31902e-06
0.00021083 -0.000137746 2.1201e-06
-3.31902e-06 2.1201e-06 -0.000328365
0.00187227 0.000303158 -5.7952e-06
0.000303158 0.000143402 1.40127e-06
-5.7952e-06 1.40127e-06 -2.45287e-06
0.00165933 0.000283881 -6.63562e-07
0.000283881 0.000407156 2.09121e-07
-6.63562e-07 2.09121e-07 0.000236359
0.00220599 0.000377834 -2.16701e-07
0.000377834 0.000430512 -1.52566e-06
-2.16701e-07 -1.52566e-06 0.000258115
0.00180248 0.000207485 -8.46692e-06
0.000207485 3.44726e-05 7.14287e-07
-8.46692e-06 7.14287e-07 -6.63581e-05
0.00232166 0.000410457 5.22336e-06
0.000410457 0.00048644 3.66389e-06
5.22336e-06 3.66389e-06 0.000317601
0.00203963 0.000364561 -9.34953e-07
0.000364561 0.000230758 5.94573e-07
-9.34953e-07 5.94573e-07 8.30871e-05
0.00100346 0.000176624 9.91139e-07
0.000176624 -0.00027534 2.07334e-06
9.91139e-07 2.07334e-06 -0.000337364
0.000413827 0.000264993 -1.5676e-06
0.000264993 -0.000519594 -2.18421e-06
-1.5676e-06 -2.18421e-06 -0.000633704
0.00124352 0.000221697 -3.16888e-05
0.000221697 -0.000102155 -1.13784e-05
-3.16888e-05 -1.13784e-05 -0.000118807
0.00170046 3.00843e-05 3.07555e-06
3.00843e-05 -6.73238e-05 4.33637e-07
3.07555e-06 4.33637e-07 -0.000120079
0.00202383 -1.71826e-05 -4.63206e-07
-1.71826e-05 0.000330806 1.32825e-06
-4.63206e-07 1.32825e-06 0.000304983
0.00131121 -4.22658e-06 -5.40837e-05
-4.22658e-06 -0.000250116 -6.4646e-06
-5.40837e-05 -6.4646e-06 -0.000344561
0.00193387 -0.000154196 -2.09026e-05
-0.000154196 9.5094e-06 1.09536e-06
-2.09026e-05 1.09536e-06 5.21696e-05
0.00132877 -6.49116e-05 -9.17467e-06
-6.49116e-05 -0.00021751 2.32074e-07
-9.17467e-06 2.32074e-07 -0.000264129
0.0019226 -0.000145187 -4.66223e-08
-0.000145187 1.17034e-05 -2.75953e-07
-4.66223e-08 -2.75953e-07 4.03511e-06
0.00194275 -2.63586e-05 -1.38026e-06
-2.63586e-05 5.09143e-05 5.33392e-07
-1.38026e-06 5.33392e-07 1.17794e-05
0.00186865 -5.69982e-05 -4.19114e-06
-5.69982e-05 1.04884e-05 -1.00931e-06
-4.19114e-06 -1.00931e-06 -3.11637e-05
0.00184283 -0.000170338 -2.47435e-06
-0.000170338 9.70709e-06 -1.1545e-06
-2.47435e-06 -1.1545e-06 3.69184e-06
0.00190784 -0.00015118 6.0639e-07
-0.00015118 6.58878e-05 -1.7064e-07
6.0639e-07 -1.7064e-07 1.95257e-05
0.00199329 -0.000120168 -2.61198e-07
-0.000120168 0.000154305 -3.44731e-07
-2.61198e-07 -3.44731e-07 8.66223e-05
0.00169189 -0.000176234 -1.25457e-06
-0.000176234 2.59485e-05 -1.23422e-06
-1.25457e-06 -1.23422e-06 -4.50555e-05
0.00166257 -0.000156445 2.18501e-07
-0.000156445 3.36835e-05 -1.02537e-07
2.18501e-07 -1.02537e-07 -5.24946e-05
0.00174129 -0.000134431 1.6743e-06
-0.000134431 0.000108605 -2.32552e-07
1.6743e-06 -2.32552e-07 -3.8881e-06
0.00170959 -0.000179834 -1.65148e-06
-0.000179834 0.000101362 -1.80173e-07
-1.65148e-06 -1.80173e-07 4.02511e-06
0.00168749 -0.000165501 3.00233e-08
-0.000165501 0.000115778 -1.76931e-07
3.00233e-08 -1.76931e-07 -6.11985e-06
0.0015512 -0.000140219 -5.71e-07
-0.000140219 0.000115489 -8.71874e-08
-5.71e-07 -8.71874e-08 -2.40035e-05
0.00165875 -0.000183902 -1.80382e-06
-0.000183902 0.000133965 8.79332e-07
-1.80382e-06 8.79332e-07 2.40832e-06
0.00150447 -0.000157052 -1.42393e-07
-0.000157052 0.000114579 -2.86207e-08
-1.42393e-07 -2.86207e-08 -3.0819e-05
0.00131149 -0.000132997 -5.757e-06
-0.000132997 7.59371e-05 1.82796e-06
-5.757e-06 1.82796e-06 -6.66272e-05
0.0014872 -0.000170191 2.02021e-06
-0.000170191 0.000120134 1.01653e-07
2.02021e-06 1.01653e-07 -2.94454e-05
0.00130853 -0.000149631 -1.47842e-07
-0.000149631 8.53412e-05 4.15994e-08
-1.47842e-07 4.15994e-08 -5.96211e-05
0.00106117 -0.000123091 -1.19591e-05
-0.000123091 2.67021e-05 4.87773e-06
-1.19591e-05 4.87773e-06 -9.45871e-05
0.00111725 -0.000159643 6.44035e-06
-0.000159643 -1.04958e-05 -1.99952e-06
6.44035e-06 -1.99952e-06 -0.000160765
0.0010204 -0.000136694 1.82564e-07
-0.000136694 1.68786e-05 -2.12037e-08
1.82564e-07 -2.12037e-08 -0.000108321
0.00229469 -7.20687e-05 -1.90278e-05
-7.20687e-05 0.000897397 7.30403e-06
-1.90278e-05 7.30403e-06 0.000828189
0.00147906 -2.46991e-05 -0.000143232
-2.46991e-05 0.000489377 1.42699e-05
-0.000143232 1.42699e-05 0.000470302
0.00149629 -0.000109838 -1.56906e-06
-0.000109838 0.000443167 -1.3921e-07
-1.56906e-06 -1.3921e-07 0.000366715
0.000950539 -0.000148401 1.0004e-05
-0.000148401 7.26744e-06 -4.55455e-06
1.0004e-05 -4.55455e-06 -0.000126075
0.00484951 0.000138647 7.19458e-06
0.000138647 0.00245601 6.03872e-07
7.19458e-06 6.03872e-07 0.00243988
0.000716962 -0.000143854 1.87496e-05
-0.000143854 7.53257e-06 -1.18195e-05
1.87496e-05 -1.18195e-05 -6.99363e-05
0.00448477 0.000113048 0.000135726
0.000113048 0.00223905 -7.84572e-06
0.000135726 -7.84572e-06 0.00223015
0.00184802 0.000222997 2.78321e-07
0.000222997 0.000207508 7.99357e-07
2.78321e-07 7.99357e-07 6.3778e-05
0.00160872 0.000232023 -2.28566e-07
0.000232023 0.000196447 2.06323e-06
-2.28566e-07 2.06323e-06 3.28731e-05
0.00128667 0.000223594 -5.86561e-07
0.000223594 8.44257e-05 -9.81271e-08
-5.86561e-07 -9.81271e-08 -9.25164e-05
0.00111393 0.000189517 -6.49112e-06
0.000189517 5.62876e-05 -7.01821e-07
-6.49112e-06 -7.01821e-07 -0.000111531
0.000873187 0.000195091 1.67772e-06
0.000195091 -3.93311e-05 3.64446e-06
1.67772e-06 3.64446e-06 -0.000227446
0.00108773 0.000185344 -1.20454e-06
0.000185344 0.000141162 7.54608e-07
-1.20454e-06 7.54608e-07 -3.00352e-05
0.000956798 0.000144617 -6.72058e-06
0.000144617 0.000121361 -4.48e-06
-6.72058e-06 -4.48e-06 -1.34749e-05
0.000870953 0.000154782 1.59721e-06
0.000154782 9.54087e-05 2.18427e-06
1.59721e-06 2.18427e-06 -5.53122e-05
0.000801456 0.000106712 -3.94663e-08
0.000106712 8.28187e-05 -2.92387e-07
-3.94663e-08 -2.92387e-07 -3.6518e-05
0.000762193 5.59356e-05 -1.07732e-05
5.59356e-05 6.92919e-05 -9.52658e-06
-1.07732e-05 -9.52658e-06 1.11268e-05
0.000670497 3.76897e-05 1.57188e-06
3.76897e-05 2.45755e-05 2.56208e-06
1.57188e-06 2.56208e-06 -7.58412e-05
0.00054552 -1.94995e-05 -5.56047e-07
-1.94995e-05 -4.07309e-05 -3.20503e-07
-5.56047e-07 -3.20503e-07 -8.56658e-05
0.00334906 -0.000120104 -9.31866e-05
-0.000120104 0.00159018 -2.78361e-06
-9.31866e-05 -2.78361e-06 0.00158731
0.00047958 -6.36898e-05 -2.0902e-07
-6.36898e-05 -6.89144e-05 6.98685e-06
-2.0902e-07 6.98685e-06 -0.00010933
0.00292356 -0.000128053 -2.31432e-06
-0.000128053 0.0013432 2.66039e-07
-2.31432e-06 2.66039e-07 0.00134044
0.00270819 -0.000115989 4.79271e-05
-0.000115989 0.00121403 2.38097e-06
4.79271e-05 2.38097e-06 0.0012145
0.00179494 0.000113789 -1.13622e-06
0.000113789 -1.98047e-05 1.0431e-06
-1.13622e-06 1.0431e-06 -8.88993e-05
0.0018866 4.23322e-05 9.17717e-06
4.23322e-05 0.000151643 2.42893e-07
9.17717e-06 2.42893e-07 0.000129981
0.00361237 -3.12123e-05 -6.01844e-05
-3.12123e-05 0.000736969 -1.43249e-05
-6.01844e-05 -1.43249e-05 0.000705098
0.00167885 0.000257438 -3.42909e-06
0.000257438 5.25662e-05 9.41964e-07
-3.42909e-06 9.41964e-07 -8.74244e-05
0.0016084 0.000292607 -1.36743e-06
0.000292607 0.000131149 -1.41257e-07
-1.36743e-06 -1.41257e-07 -2.77831e-05
0.00106743 0.000252862 -1.47445e-05
0.000252862 -1.27544e-05 -4.55699e-06
-1.47445e-05 -4.55699e-06 -0.000177927
0.00184797 0.000261853 2.04792e-06
0.000261853 0.000227478 5.46423e-07
2.04792e-06 5.46423e-07 7.28126e-05
0.00176195 0.000278256 -2.83904e-07
0.000278256 0.000282366 -2.60257e-06
-2.83904e-07 -2.60257e-06 0.000108922
0.00213401 0.000205631 -3.56516e-06
0.000205631 0.000233892 1.24181e-06
-3.56516e-06 1.24181e-06 0.000136245
0.00173018 0.000298724 -1.3594e-06
0.000298724 6.92941e-05 7.6878e-07
-1.3594e-06 7.6878e-07 -7.82277e-05
0.00201046 0.000362934 3.52443e-06
0.000362934 0.000323091 1.25096e-07
3.52443e-06 1.25096e-07 0.000150009
0.00182621 0.000208443 -8.35461e-07
0.000208443 4.90944e-05 8.20013e-08
-8.35461e-07 8.20013e-08 -5.17761e-05
0.0020757 0.000368012 1.41252e-05
0.000368012 0.000237605 9.8731e-07
1.41252e-05 9.8731e-07 8.82114e-05
0.00155866 0.000197569 -1.9395e-05
0.000197569 3.0538e-05 -2.89984e-06
-1.9395e-05 -2.89984e-06 -3.39124e-05
0.00196067 3.42514e-05 -3.99371e-06
3.42514e-05 8.70872e-05 -1.60534e-07
-3.99371e-06 -1.60534e-07 3.56541e-05
0.0019022 3.81892e-05 -1.49134e-06
3.81892e-05 4.68213e-05 5.9234e-08
-1.49134e-06 5.9234e-08 -5.73036e-06
0.00284236 2.11213e-06 -3.54413e-05
2.11213e-06 0.000806939 -5.53478e-06
-3.54413e-05 -5.53478e-06 0.000779363
0.00187257 -0.000137781 -9.22633e-06
-0.000137781 -1.47961e-05 -8.08825e-07
-9.22633e-06 -8.08825e-07 -2.11028e-05
0.00192853 -2.622e-05 1.46588e-06
-2.622e-05 2.61211e-05 4.6676e-08
1.46588e-06 4.6676e-08 -1.07852e-05
0.00189971 -6.0608e-05 4.04601e-07
-6.0608e-05 1.473e-05 2.2784e-08
4.04601e-07 2.2784e-08 -2.07762e-05
0.0019331 -4.41814e-05 -1.03709e-06
-4.41814e-05 0.000122519 7.96323e-08
-1.03709e-06 7.96323e-08 5.48916e-05
0.00185118 -0.000145611 2.18413e-06
-0.000145611 4.39114e-05 -1.17086e-06
2.18413e-06 -1.17086e-06 -6.3011e-06
0.00191442 -0.000120076 2.35178e-07
-0.000120076 0.000115991 -1.24925e-07
2.35178e-07 -1.24925e-07 4.40716e-05
0.0018147 -9.7824e-05 2.91949e-06
-9.7824e-05 0.000125223 -1.41441e-06
2.91949e-06 -1.41441e-06 2.13803e-05
0.00165254 -0.000155045 -9.62693e-07
-0.000155045 3.23344e-05 -9.69892e-08
-9.62693e-07 -9.69892e-08 -5.50691e-05
0.00175064 -0.000134603 -5.15547e-08
-0.000134603 0.00011365 1.45685e-07
-5.15547e-08 1.45685e-07 1.16798e-06
0.00162162 -0.000116012 -3.3383e-07
-0.000116012 0.000120227 -2.62899e-07
-3.3383e-07 -2.62899e-07 -1.23509e-05
0.00171445 -0.000164843 -1.76525e-06
-0.000164843 0.000132776 2.1802e-07
-1.76525e-06 2.1802e-07 1.11138e-05
0.00155041 -0.000139802 -1.82551e-07
-0.000139802 0.000113389 9.50272e-08
-1.82551e-07 9.50272e-08 -2.59049e-05
0.00134286 -0.000114071 -5.19019e-06
-0.000114071 7.97457e-05 1.4585e-06
-5.19019e-06 1.4585e-06 -6.03461e-05
0.00151142 -0.000157078 1.03828e-06
-0.000157078 0.000116726 4.65997e-09
1.03828e-06 4.65997e-09 -2.837e-05
0.00132849 -0.000133142 -1.00421e-07
-0.000133142 8.43433e-05 8.19538e-08
-1.00421e-07 8.19538e-08 -5.79986e-05
0.00106846 -0.00010817 -1.20023e-05
-0.00010817 2.09145e-05 4.33017e-06
-1.20023e-05 4.33017e-06 -9.91626e-05
0.00133314 -0.000150184 6.14327e-06
-0.000150184 9.90934e-05 -1.93014e-06
6.14327e-06 -1.93014e-06 -4.57061e-05
0.00105097 -0.000120907 2.1133e-07
-0.000120907 2.01701e-05 4.93217e-08
2.1133e-07 4.93217e-08 -0.000100711
0.00233833 -8.40411e-05 -2.59425e-05
-8.40411e-05 0.000908173 6.28016e-06
-2.59425e-05 6.28016e-06 0.000846897
0.00100336 -0.000134838 1.123e-05
-0.000134838 6.93681e-06 -4.93291e-06
1.123e-05 -4.93291e-06 -0.0001181
0.00245585 -0.000121237 3.29649e-05
-0.000121237 0.000980404 -3.47841e-06
3.29649e-05 -3.47841e-06 0.000918221
0.00166071 -6.59982e-05 -0.000153024
-6.59982e-05 0.000598676 1.79434e-05
-0.000153024 1.79434e-05 0.000579225
0.00328679 2.51694e-05 -0.000151041
2.51694e-05 0.00155124 5.94661e-06
-0.000151041 5.94661e-06 0.00153181
0.00255498 -0.000162658 9.2553e-05
-0.000162658 0.00104347 -1.18421e-05
9.2553e-05 -1.18421e-05 0.000982544
0.005037 0.000116703 0.00014556
0.000116703 0.00256811 -1.22779e-05
0.00014556 -1.22779e-05 0.0025493
0.00191576 0.000217947 -2.09636e-06
0.000217947 0.000209604 -2.54314e-07
-2.09636e-06 -2.54314e-07 7.47317e-05
0.00160944 0.000198954 1.91778e-06
0.000198954 0.000170066 9.6586e-07
1.91778e-06 9.6586e-07 2.08124e-05
0.00177706 0.000222616 5.14944e-07
0.000222616 0.000166847 -4.95505e-07
5.14944e-07 -4.95505e-07 2.57631e-05
0.00128629 0.000188558 -6.75533e-06
0.000188558 8.99342e-05 -5.77525e-07
-6.75533e-06 -5.77525e-07 -6.543e-05
0.0015795 0.000227458 2.35901e-07
0.000227458 0.000175439 2.74193e-07
2.35901e-07 2.74193e-07 1.22943e-05
0.00140823 0.000232635 2.94884e-06
0.000232635 0.000156826 -9.3634e-07
2.94884e-06 -9.3634e-07 -2.04034e-05
0.00118311 0.000195598 -3.30105e-07
0.000195598 9.52547e-05 5.00783e-07
-3.30105e-07 5.00783e-07 -7.38638e-05
0.000908156 0.000148611 -9.27102e-06
0.000148611 2.15019e-05 -3.97091e-06
-9.27102e-06 -3.97091e-06 -0.00011635
0.00111128 0.000186067 2.76276e-06
0.000186067 0.000157328 3.81617e-06
2.76276e-06 3.81617e-06 -1.43205e-05
0.00085974 0.000134993 -5.51108e-07
0.000134993 6.61629e-05 1.31781e-07
-5.51108e-07 1.31781e-07 -6.70254e-05
0.000788752 0.0001142 -1.5998e-05
0.0001142 6.91314e-05 -1.10318e-05
-1.5998e-05 -1.10318e-05 -2.43265e-06
0.000645077 9.13884e-05 2.8124e-06
9.13884e-05 -4.30644e-06 2.81474e-06
2.8124e-06 2.81474e-06 -0.000121078
0.000579526 3.20352e-05 2.17165e-08
3.20352e-05 -2.96991e-05 -2.98962e-07
2.17165e-08 -2.98962e-07 -8.56714e-05
0.0038703 -0.000110453 -0.00011907
-0.000110453 0.00189628 -5.71458e-06
-0.00011907 -5.71458e-06 0.00188969
0.000443396 -4.34511e-05 1.37196e-06
-4.34511e-05 -9.22725e-05 7.80379e-06
1.37196e-06 7.80379e-06 -0.000138867
0.0032596 -0.000140599 -4.14012e-06
-0.000140599 0.00154205 3.75527e-07
-4.14012e-06 3.75527e-07 0.00153525
0.00286785 -0.000129748 5.40168e-05
-0.000129748 0.00131158 1.92123e-06
5.40168e-05 1.92123e-06 0.00130848
0.00183223 0.000118063 -3.23855e-06
0.000118063 2.65902e-05 1.03736e-06
-3.23855e-06 1.03736e-06 -4.59264e-05
0.00182939 0.000112926 6.17594e-07
0.000112926 7.12947e-06 -4.01192e-07
6.17594e-07 -4.01192e-07 -6.16776e-05
0.00243964 3.63072e-05 -4.44027e-05
3.63072e-05 0.000450446 -7.76344e-06
-4.44027e-05 -7.76344e-06 0.000429236
0.00196586 0.000183661 5.8592e-08
0.000183661 0.00016678 1.26091e-06
5.8592e-08 1.26091e-06 5.78721e-05
0.00167716 0.000251636 -5.95244e-07
0.000251636 6.12831e-05 -5.9715e-08
-5.95244e-07 -5.9715e-08 -7.78119e-05
0.00141771 0.00027861 3.49337e-08
0.00027861 4.13394e-05 -2.553e-06
3.49337e-08 -2.553e-06 -0.000116439
0.00184063 0.000251259 2.54174e-07
0.000251259 0.000223009 -1.91322e-06
2.54174e-07 -1.91322e-06 7.03488e-05
0.00193943 0.000196227 -4.03985e-07
0.000196227 0.000124527 -1.68942e-07
-4.03985e-07 -1.68942e-07 2.59292e-05
0.00159007 0.000293938 1.57014e-06
0.000293938 -2.00663e-06 -5.18609e-07
1.57014e-06 -5.18609e-07 -0.000151112
0.00181684 0.000206072 9.78965e-06
0.000206072 6.27366e-05 -3.96335e-07
9.78965e-06 -3.96335e-07 -3.78049e-05
0.00194689 2.58609e-05 -4.81594e-07
2.58609e-05 0.000114893 7.583e-07
-4.81594e-07 7.583e-07 4.74069e-05
0.00189975 3.36392e-05 -8.21932e-08
3.36392e-05 5.57569e-05 -6.44296e-10
-8.21932e-08 -6.44296e-10 2.56165e-06
0.00205868 4.65579e-05 -6.96556e-06
4.65579e-05 0.00013437 -1.71608e-06
-6.96556e-06 -1.71608e-06 8.32556e-05
0.00161344 -1.46177e-05 -1.39913e-06
-1.46177e-05 -2.83569e-05 2.65879e-07
-1.39913e-06 2.65879e-07 -0.000108251
0.00193193 -6.57722e-05 3.50485e-06
-6.57722e-05 1.98249e-05 3.90486e-07
3.50485e-06 3.90486e-07 -9.08465e-06
0.00188436 -4.61942e-05 -1.02727e-06
-4.61942e-05 9.14108e-05 6.08196e-07
-1.02727e-06 6.08196e-07 2.34383e-05
0.00197843 -5.05766e-05 4.02217e-07
-5.05766e-05 0.000213035 -6.57232e-07
4.02217e-07 -6.57232e-07 0.000119377
0.00184319 -0.000120061 5.08183e-07
-0.000120061 8.13087e-05 -8.20698e-08
5.08183e-07 -8.20698e-08 5.47837e-06
0.00178487 -9.75438e-05 1.58623e-06
-9.75438e-05 0.0001082 -6.41819e-07
1.58623e-06 -6.41819e-07 4.39501e-06
0.00166264 -8.39305e-05 1.70597e-07
-8.39305e-05 0.000111451 -6.70305e-07
1.70597e-07 -6.70305e-07 -1.45632e-05
0.00176738 -0.000134337 -1.14686e-06
-0.000134337 0.000122831 5.06036e-07
-1.14686e-06 5.06036e-07 1.04369e-05
0.00160426 -0.000114098 -1.76238e-07
-0.000114098 0.000111392 -8.79969e-09
-1.76238e-07 -8.79969e-09 -2.09197e-05
0.00137863 -9.12713e-05 -4.77126e-06
-9.12713e-05 8.16382e-05 1.07433e-06
-4.77126e-06 1.07433e-06 -5.54306e-05
0.0015506 -0.000139333 6.97342e-07
-0.000139333 0.000111907 1.85594e-07
6.97342e-07 1.85594e-07 -2.7171e-05
0.00134584 -0.000113694 -1.14337e-07
-0.000113694 7.93667e-05 1.22957e-07
-1.14337e-07 1.22957e-07 -6.049e-05
0.00107628 -9.16754e-05 -1.18076e-05
-9.16754e-05 1.59959e-05 3.57508e-06
-1.18076e-05 3.57508e-06 -0.000103558
0.00134641 -0.000133266 5.55051e-06
-0.000133266 9.32268e-05 -1.64386e-06
5.55051e-06 -1.64386e-06 -4.888e-05
0.00106833 -0.000105806 1.09391e-07
-0.000105806 1.9789e-05 1.56369e-07
1.09391e-07 1.56369e-07 -9.97063e-05
0.00238647 -9.94963e-05 -3.31712e-05
-9.94963e-05 0.000926796 5.7227e-06
-3.31712e-05 5.7227e-06 0.000868601
0.00103323 -0.000118444 1.18737e-05
-0.000118444 9.339e-06 -4.80326e-06
1.18737e-05 -4.80326e-06 -0.000111092
0.00244571 -0.000119986 2.956e-05
-0.000119986 0.000965475 -3.12707e-06
2.956e-05 -3.12707e-06 0.000908282
0.00169906 -5.78644e-05 -0.000148638
-5.78644e-05 0.00061854 1.62356e-05
-0.000148638 1.62356e-05 0.000599469
0.00258736 -0.000144572 9.40644e-05
-0.000144572 0.00105091 -1.37818e-05
9.40644e-05 -1.37818e-05 0.000992768
0.00147898 2.50661e-06 -7.2828e-05
2.50661e-06 0.000506047 6.48178e-06
-7.2828e-05 6.48178e-06 0.00047662
0.00495702 0.000266707 3.04202e-07
0.000266707 0.002545 -4.18237e-06
3.04202e-07 -4.18237e-06 0.00250055
0.00175955 0.000172462 5.38823e-07
0.000172462 0.000105746 8.46252e-07
5.38823e-07 8.46252e-07 -2.15088e-05
0.00171374 0.000186998 -8.67703e-07
0.000186998 0.000184708 -3.56979e-07
-8.67703e-07 -3.56979e-07 4.3177e-05
0.0018106 0.000214487 -2.62265e-06
0.000214487 0.000148747 6.2813e-08
-2.62265e-06 6.2813e-08 1.26962e-05
0.0017882 0.000191119 -4.25257e-06
0.000191119 0.000354403 -6.52852e-07
-4.25257e-06 -6.52852e-07 0.000210214
0.00154594 0.000201159 8.0181e-07
0.000201159 0.000130646 -6.11573e-07
8.0181e-07 -6.11573e-07 -1.8302e-05
0.00171602 0.000222729 3.34963e-07
0.000222729 0.000131757 -2.05901e-06
3.34963e-07 -2.05901e-06 -6.65663e-06
0.000950622 0.000146052 -1.13537e-05
0.000146052 -1.4186e-05 -3.71558e-06
-1.13537e-05 -3.71558e-06 -0.000145155
0.00124582 0.000187109 1.10083e-07
0.000187109 6.63617e-05 1.19453e-07
1.10083e-07 1.19453e-07 -8.90087e-05
0.00156772 0.000224342 3.29741e-06
0.000224342 0.000163885 -9.15101e-07
3.29741e-06 -9.15101e-07 9.17346e-07
0.00125186 0.000201877 6.26749e-06
0.000201877 0.000133855 1.75495e-06
6.26749e-06 1.75495e-06 -3.66227e-05
0.000930737 0.00014895 -8.97367e-07
0.00014895 3.29978e-05 3.84087e-07
-8.97367e-07 3.84087e-07 -0.000104764
0.000687011 0.0001633 -2.08832e-05
0.0001633 -5.44996e-06 -1.12201e-05
-2.08832e-05 -1.12201e-05 -8.65138e-05
0.000757303 0.000125005 5.05841e-06
0.000125005 8.12136e-06 4.67526e-06
5.05841e-06 4.67526e-06 -0.000123341
0.000619788 0.000106266 -4.28427e-07
0.000106266 -1.94629e-05 1.33831e-07
-4.28427e-07 1.33831e-07 -9.03226e-05
0.00459743 -0.000101932 -0.000140209
-0.000101932 0.00232498 -1.082e-05
-0.000140209 -1.082e-05 0.00230879
0.000443363 1.99534e-05 6.61294e-06
1.99534e-05 -0.000104615 8.88765e-06
6.61294e-06 8.88765e-06 -0.000157873
0.00373127 -0.000151048 -7.48461e-06
-0.000151048 0.00182206 5.88237e-07
-7.48461e-06 5.88237e-07 0.00180989
0.0031516 -0.000147253 6.31323e-05
-0.000147253 0.001481 1.65057e-06
6.31323e-05 1.65057e-06 0.0014728
0.00176668 9.96058e-05 -5.70943e-07
9.96058e-05 2.30862e-05 1.51525e-06
-5.70943e-07 1.51525e-06 -6.24724e-05
0.00177937 0.000119362 -3.51032e-07
0.000119362 -8.11565e-06 2.91769e-07
-3.51032e-07 2.91769e-07 -8.0281e-05
0.00188088 0.00011546 1.80975e-06
0.00011546 3.23088e-05 -9.12882e-07
1.80975e-06 -9.12882e-07 -3.69024e-05
0.00191449 0.000180098 7.68403e-07
0.000180098 0.000140201 -1.5823e-07
7.68403e-07 -1.5823e-07 3.27986e-05
0.00166775 0.000245413 1.72819e-07
0.000245413 6.55339e-05 -1.25731e-06
1.72819e-07 -1.25731e-06 -7.26136e-05
0.00172799 0.00018641 3.11775e-06
0.00018641 4.01348e-06 -1.3731e-06
3.11775e-06 -1.3731e-06 -9.5542e-05
0.00188682 2.67032e-05 -7.14239e-07
2.67032e-05 0.000124873 5.03964e-07
-7.14239e-07 5.03964e-07 4.34994e-05
0.00190536 2.66867e-05 4.7061e-07
2.66867e-05 9.37619e-05 -2.25707e-07
4.7061e-07 -2.25707e-07 2.52894e-05
0.00182628 3.36161e-05 4.43604e-06
3.36161e-05 1.93261e-05 1.71589e-07
4.43604e-06 1.71589e-07 -3.5647e-05
0.00172534 -2.09627e-05 -1.79705e-06
-2.09627e-05 3.72482e-05 -6.76121e-08
-1.79705e-06 -6.76121e-08 -4.17222e-05
0.00169414 -2.57391e-05 8.25387e-07
-2.57391e-05 5.87829e-05 -4.75165e-07
8.25387e-07 -4.75165e-07 -3.80206e-05
0.00183416 -4.80365e-05 6.69731e-07
-4.80365e-05 6.01786e-05 8.14365e-07
6.69731e-07 8.14365e-07 -8.32232e-06
0.00180044 -5.01628e-05 -8.24312e-07
-5.01628e-05 0.000113173 3.51133e-07
-8.24312e-07 3.51133e-07 1.58759e-05
0.00174219 -4.57971e-05 6.20551e-08
-4.57971e-05 0.000138598 -5.35333e-07
6.20551e-08 -5.35333e-07 2.14883e-05
0.00174351 -9.76316e-05 8.33827e-07
-9.76316e-05 8.52011e-05 1.01408e-07
8.33827e-07 1.01408e-07 -1.86504e-05
0.00163578 -8.49936e-05 5.46235e-07
-8.49936e-05 9.92397e-05 -3.5627e-07
5.46235e-07 -3.5627e-07 -2.68057e-05
0.00139737 -6.03649e-05 -4.84545e-06
-6.03649e-05 6.97611e-05 7.48053e-07
-4.84545e-06 7.48053e-07 -6.39282e-05
0.00157594 -0.000113653 1.55507e-07
-0.000113653 9.62008e-05 1.79218e-07
1.55507e-07 1.79218e-07 -3.60248e-05
0.00136619 -9.03096e-05 -2.32668e-08
-9.03096e-05 7.16301e-05 4.78122e-08
-2.32668e-08 4.78122e-08 -6.52701e-05
0.00107499 -7.14294e-05 -1.16803e-05
-7.14294e-05 4.44991e-06 2.94535e-06
-1.16803e-05 2.94535e-06 -0.000114274
0.00134654 -0.000113185 4.86211e-06
-0.000113185 7.76825e-05 -1.19862e-06
4.86211e-06 -1.19862e-06 -6.19332e-05
0.00107515 -8.90211e-05 -2.53401e-08
-8.90211e-05 1.45475e-05 1.56163e-07
-2.53401e-08 1.56163e-07 -0.000104428
0.0023802 -0.000114418 -3.62849e-05
-0.000114418 0.000919743 5.17651e-06
-3.62849e-05 5.17651e-06 0.00085981
0.00106476 -0.000103393 1.2009e-05
-0.000103393 1.66196e-05 -4.10484e-06
1.2009e-05 -4.10484e-06 -0.000102271
0.00244749 -0.000112243 2.84815e-05
-0.000112243 0.000958895 -2.44459e-06
2.84815e-05 -2.44459e-06 0.000903442
0.00173731 -5.03932e-05 -0.000148461
-5.03932e-05 0.000635094 1.40334e-05
-0.000148461 1.40334e-05 0.000616261
0.0025491 -0.00012614 9.28406e-05
-0.00012614 0.00102074 -1.21718e-05
9.28406e-05 -1.21718e-05 0.000967087
0.00147905 -1.37531e-05 -6.56811e-05
-1.37531e-05 0.000498702 6.18509e-06
-6.56811e-05 6.18509e-06 0.000473453
0.00136199 2.07991e-05 1.97995e-05
2.07991e-05 0.000440981 -4.23805e-06
1.97995e-05 -4.23805e-06 0.000407957
0.00188191 0.000103733 -1.56122e-08
0.000103733 0.000147216 1.96359e-06
-1.56122e-08 1.96359e-06 4.34151e-05
0.00163588 0.000151723 -1.58305e-06
0.000151723 0.000110284 3.12645e-07
-1.58305e-06 3.12645e-07 -2.61295e-05
0.0017811 0.000173584 -8.96935e-07
0.000173584 0.000112589 -8.56598e-08
-8.96935e-07 -8.56598e-08 -1.22368e-05
0.00163255 0.00016053 -4.28275e-06
0.00016053 0.000234989 -7.99113e-07
-4.28275e-06 -7.99113e-07 9.60988e-05
0.00170167 0.000184529 9.79971e-07
0.000184529 0.000181248 2.29957e-07
9.79971e-07 2.29957e-07 3.91465e-05
0.00170115 0.000210895 1.43191e-06
0.000210895 8.62172e-05 -1.90642e-07
1.43191e-06 -1.90642e-07 -5.10612e-05
0.00103517 0.000135878 -1.20142e-05
0.000135878 9.19001e-06 -4.14584e-06
-1.20142e-05 -4.14584e-06 -0.000114232
0.00145114 0.000177261 3.2044e-06
0.000177261 0.000161901 7.34492e-07
3.2044e-06 7.34492e-07 1.70625e-05
0.00147751 0.000203031 2.31578e-06
0.000203031 8.83673e-05 -1.07099e-06
2.31578e-06 -1.07099e-06 -6.02357e-05
0.000596675 0.000160119 -2.15137e-05
0.000160119 -7.68842e-05 -9.84594e-06
-2.15137e-05 -9.84594e-06 -0.000155457
0.000997938 0.000148902 -5.89721e-07
0.000148902 1.23925e-05 1.86638e-07
-5.89721e-07 1.86638e-07 -0.000118863
0.0012012 0.00018526 7.21028e-06
0.00018526 4.07326e-05 8.28128e-07
7.21028e-06 8.28128e-07 -0.000114582
0.000961312 0.000149962 8.80174e-06
0.000149962 4.93705e-05 5.15469e-06
8.80174e-06 5.15469e-06 -8.84658e-05
0.000616966 0.000150941 1.25678e-06
0.000150941 -4.2972e-05 3.85497e-07
1.25678e-06 3.85497e-07 -0.000122855
0.00519389 -0.000104759 -0.000142489
-0.000104759 0.00268279 -1.63109e-05
-0.000142489 -1.63109e-05 0.00265187
0.000460357 9.31143e-05 1.1795e-05
9.31143e-05 -0.000106736 1.05975e-05
1.1795e-05 1.05975e-05 -0.000174692
0.00434753 -0.000154308 -1.17415e-05
-0.000154308 0.00218782 1.05261e-06
-1.17415e-05 1.05261e-06 0.00216787
0.00356854 -0.000167897 7.78273e-05
-0.000167897 0.0017304 1.92194e-06
7.78273e-05 1.92194e-06 0.00171543
0.00176234 7.29914e-05 -5.82553e-07
7.29914e-05 5.81385e-05 4.14784e-07
-5.82553e-07 4.14784e-07 -2.94416e-05
0.00177089 9.9089e-05 5.4078e-07
9.9089e-05 2.90989e-05 5.18514e-07
5.4078e-07 5.18514e-07 -5.61101e-05
0.00174369 0.00012035 5.00997e-06
0.00012035 -3.21468e-05 -3.35783e-07
5.00997e-06 -3.35783e-07 -0.000103864
0.00187124 0.000176654 1.07269e-06
0.000176654 0.000117848 -1.09967e-06
1.07269e-06 -1.09967e-06 1.19885e-05
0.00173556 -7.74727e-06 1.47958e-06
-7.74727e-06 7.78122e-05 4.88807e-08
1.47958e-06 4.88807e-08 -2.07562e-05
0.00190017 2.17335e-05 -6.63454e-08
2.17335e-05 0.000130146 -2.18388e-07
-6.63454e-08 -2.18388e-07 4.93479e-05
0.00185587 2.68661e-05 1.72513e-06
2.68661e-05 6.81728e-05 -2.98832e-07
1.72513e-06 -2.98832e-07 -1.2699e-06
0.00184222 -2.47904e-05 -3.45943e-06
-2.47904e-05 0.000105456 -1.06871e-06
-3.45943e-06 -1.06871e-06 2.7442e-05
0.00167887 -1.85668e-05 -1.32858e-06
-1.85668e-05 4.99038e-05 -3.36254e-08
-1.32858e-06 -3.36254e-08 -4.55958e-05
0.00175361 -1.58326e-05 1.45564e-06
-1.58326e-05 0.000154955 -5.27673e-07
1.45564e-06 -5.27673e-07 4.18073e-05
0.00162556 -4.97145e-05 -1.82556e-06
-4.97145e-05 1.43857e-05 1.33835e-06
-1.82556e-06 1.33835e-06 -8.65391e-05
0.00169054 -4.61804e-05 2.88547e-07
-4.61804e-05 0.000112464 1.80597e-07
2.88547e-07 1.80597e-07 -7.24688e-06
0.00140236 -2.95462e-05 -4.21849e-06
-2.95462e-05 5.04756e-05 1.53323e-07
-4.21849e-06 1.53323e-07 -7.81126e-05
0.00162291 -8.46581e-05 8.77432e-07
-8.46581e-05 9.48425e-05 -5.09559e-08
8.77432e-07 -5.09559e-08 -3.1054e-05
0.00138713 -5.83756e-05 -1.60712e-07
-5.83756e-05 6.04611e-05 3.651e-08
-1.60712e-07 3.651e-08 -7.29672e-05
0.0010775 -4.72059e-05 -1.17466e-05
-4.72059e-05 -5.34715e-06 2.37475e-06
-1.17466e-05 2.37475e-06 -0.000123357
0.00134982 -8.72969e-05 4.35203e-06
-8.72969e-05 5.95304e-05 -9.50299e-07
4.35203e-06 -9.50299e-07 -7.70137e-05
0.00107757 -7.04343e-05 2.48286e-09
-7.04343e-05 5.5674e-06 1.37299e-07
2.48286e-09 1.37299e-07 -0.000112914
0.000640573 -6.2536e-05 -1.77053e-05
-6.2536e-05 -9.3424e-05 4.28023e-06
-1.77053e-05 4.28023e-06 -0.000160628
0.00108355 -8.67232e-05 1.17386e-05
-8.67232e-05 1.82373e-05 -3.31225e-06
1.17386e-05 -3.31225e-06 -0.000100143
0.00155344 -7.33014e-05 3.76561e-05
-7.33014e-05 0.000437122 -2.25004e-06
3.76561e-05 -2.25004e-06 0.000377859
0.00516458 -0.000109211 -0.000180373
-0.000109211 0.00260647 1.04547e-05
-0.000180373 1.04547e-05 0.00260623
0.00252849 -0.00010328 9.2463e-05
-0.00010328 0.000999292 -9.96928e-06
9.2463e-05 -9.96928e-06 0.000948212
0.00149256 -3.12295e-05 -5.90553e-05
-3.12295e-05 0.000500645 4.72723e-06
-5.90553e-05 4.72723e-06 0.000476582
0.00127795 -2.87882e-05 3.04454e-05
-2.87882e-05 0.000388969 -4.34264e-06
3.04454e-05 -4.34264e-06 0.000358697
0.00189643 7.50912e-05 8.27186e-07
7.50912e-05 0.000166532 1.24047e-06
8.27186e-07 1.24047e-06 6.94085e-05
0.00173687 0.000101802 -1.31283e-07
0.000101802 0.000149417 1.43284e-06
-1.31283e-07 1.43284e-06 2.60883e-05
0.00190551 0.000101189 3.6616e-07
0.000101189 0.000166136 2.02414e-08
3.6616e-07 2.02414e-08 6.1472e-05
0.0013086 0.000121724 -5.18783e-06
0.000121724 1.79986e-05 -7.41714e-07
-5.18783e-06 -7.41714e-07 -0.000118343
0.00170076 0.000151837 9.87377e-08
0.000151837 0.000146769 -1.21843e-08
9.87377e-08 -1.21843e-08 1.15499e-05
0.00180469 0.000175045 -4.29382e-07
0.000175045 0.000120034 -9.06387e-07
-4.29382e-07 -9.06387e-07 -2.43004e-06
0.000661858 9.95704e-05 -1.39119e-05
9.95704e-05 -0.000221775 -4.18029e-06
-1.39119e-05 -4.18029e-06 -0.000343127
0.00167496 0.000163796 1.74836e-06
0.000163796 0.000259143 4.59715e-07
1.74836e-06 4.59715e-07 0.000119963
0.00168774 0.000182179 2.28461e-06
0.000182179 0.000176694 1.8058e-07
2.28461e-06 1.8058e-07 3.39773e-05
0.000566755 0.000121592 -1.85931e-05
0.000121592 -0.000106348 -8.20981e-06
-1.85931e-05 -8.20981e-06 -0.000180019
0.000809357 0.000125751 6.01985e-07
0.000125751 -0.000120293 -2.02841e-08
6.01985e-07 -2.02841e-08 -0.000244603
0.00111167 0.000163262 8.82298e-06
0.000163262 -3.22181e-05 1.67458e-06
8.82298e-06 1.67458e-06 -0.000177666
0.00535899 -2.43809e-05 -0.000155017
-2.43809e-05 0.0027465 -1.47219e-05
-0.000155017 -1.47219e-05 0.00273125
0.000574501 0.000146415 1.47508e-06
0.000146415 -8.73099e-05 5.76218e-07
1.47508e-06 5.76218e-07 -0.000167107
0.0010364 0.000151434 1.15164e-05
0.000151434 3.39631e-05 4.2423e-06
1.15164e-05 4.2423e-06 -9.75737e-05
0.000493473 0.000141691 1.78878e-05
0.000141691 -0.000110154 1.13012e-05
1.78878e-05 1.13012e-05 -0.000189
0.00495367 -9.46942e-05 2.83851e-07
-9.46942e-05 0.00252543 -6.07704e-07
2.83851e-07 -6.07704e-07 0.00250856
0.00409177 -0.000188291 9.3359e-05
-0.000188291 0.00204593 4.16087e-06
9.3359e-05 4.16087e-06 0.00202214
0.00179457 4.55394e-05 -8.90535e-07
4.55394e-05 0.000102356 -4.24264e-07
-8.90535e-07 -4.24264e-07 4.10782e-06
0.00178536 7.23313e-05 -2.16613e-07
7.23313e-05 6.7625e-05 4.22903e-07
-2.16613e-07 4.22903e-07 -1.99369e-05
0.00177215 9.88313e-05 1.88799e-06
9.88313e-05 3.34952e-05 -4.81204e-07
1.88799e-06 -4.81204e-07 -5.13905e-05
0.00166506 2.60066e-06 1.67818e-06
2.60066e-06 9.60222e-05 -3.24424e-07
1.67818e-06 -3.24424e-07 -1.81896e-05
0.00172163 -5.45158e-06 1.53183e-07
-5.45158e-06 7.39e-05 8.01386e-08
1.53183e-07 8.01386e-08 -2.35013e-05
0.00191107 1.51049e-05 -4.72201e-07
1.51049e-05 0.000134119 -2.18499e-07
-4.72201e-07 -2.18499e-07 5.38672e-05
0.00165739 -1.27489e-05 -2.27891e-06
-1.27489e-05 3.74889e-05 5.49725e-07
-2.27891e-06 5.49725e-07 -5.67153e-05
0.00174198 -1.17716e-05 1.09662e-06
-1.17716e-05 0.000147246 -1.63758e-07
1.09662e-06 -1.63758e-07 3.4286e-05
0.00172026 -9.71417e-06 -2.04313e-06
-9.71417e-06 0.000228731 -2.00686e-07
-2.04313e-06 -2.00686e-07 0.000106754
0.00163737 -4.65744e-05 2.7177e-07
-4.65744e-05 8.57511e-05 7.45498e-07
2.7177e-07 7.45498e-07 -3.65723e-05
0.0015588 -2.95627e-05 1.99457e-09
-2.95627e-05 0.000138991 6.56509e-08
1.99457e-09 6.56509e-08 1.08068e-05
0.000783965 -2.08245e-05 -1.3561e-05
-2.08245e-05 -0.000181711 1.62885e-06
-1.3561e-05 1.62885e-06 -0.000301067
0.00138338 -5.86198e-05 4.16684e-06
-5.86198e-05 5.4684e-05 -6.68702e-07
4.16684e-06 -6.68702e-07 -7.86696e-05
0.00107416 -4.42001e-05 3.25218e-08
-4.42001e-05 -7.77586e-06 1.44912e-07
3.25218e-08 1.44912e-07 -0.000125448
0.000643163 -2.0326e-05 -1.72137e-05
-2.0326e-05 -9.90096e-05 2.88862e-06
-1.72137e-05 2.88862e-06 -0.000166563
0.00108137 -6.84096e-05 1.17147e-05
-6.84096e-05 7.29441e-06 -2.6747e-06
1.17147e-05 -2.6747e-06 -0.000110831
0.000653477 -4.78158e-05 -2.05698e-07
-4.78158e-05 -8.54709e-05 2.66534e-07
-2.05698e-07 2.66534e-07 -0.000153422
0.00521799 9.13358e-07 -0.000170376
9.13358e-07 0.00263236 6.55068e-06
-0.000170376 6.55068e-06 0.00263443
0.000684092 -5.87089e-05 1.6158e-05
-5.87089e-05 -6.48425e-05 -6.09686e-06
1.6158e-05 -6.09686e-06 -0.000132977
0.0032946 -6.64689e-05 8.41647e-05
-6.64689e-05 0.00153429 -2.1068e-06
8.41647e-05 -2.1068e-06 0.00151785
0.00121362 -5.52295e-05 3.56573e-05
-5.52295e-05 0.00035301 -4.68298e-06
3.56573e-05 -4.68298e-06 0.000320407
0.00180531 6.78192e-05 1.05578e-07
6.78192e-05 0.000132982 2.2499e-07
1.05578e-07 2.2499e-07 3.08399e-05
0.00161089 5.80475e-05 1.15882e-06
5.80475e-05 7.52179e-05 1.61176e-06
1.15882e-06 1.61176e-06 -4.2415e-05
0.00187904 7.24274e-05 -1.79518e-07
7.24274e-05 0.000156939 -2.20875e-07
-1.79518e-07 -2.20875e-07 6.0206e-05
0.0014136 8.65783e-05 -3.965e-06
8.65783e-05 6.5292e-05 -1.94292e-07
-3.965e-06 -1.94292e-07 -6.57363e-05
0.0016906 0.000100113 4.98852e-07
0.000100113 0.000120649 1.42732e-07
4.98852e-07 1.42732e-07 -3.88444e-06
0.00192899 9.84172e-05 -5.3836e-07
9.84172e-05 0.000185095 -1.75485e-06
-5.3836e-07 -1.75485e-06 7.95947e-05
0.000674953 7.94365e-05 -1.36223e-05
7.94365e-05 -0.000230591 -3.16029e-06
-1.36223e-05 -3.16029e-06 -0.000349771
0.00152927 0.000128379 -9.47847e-07
0.000128379 0.000146012 -8.053e-08
-9.47847e-07 -8.053e-08 1.05268e-05
0.00176612 0.000151842 1.72595e-06
0.000151842 0.000183744 -5.11271e-07
1.72595e-06 -5.11271e-07 4.97386e-05
0.000582748 8.68767e-05 -1.7088e-05
8.68767e-05 -0.000112181 -6.33261e-06
-1.7088e-05 -6.33261e-06 -0.000181313
0.000650273 9.98415e-05 -2.80305e-06
9.98415e-05 -0.000228493 -5.89795e-07
-2.80305e-06 -5.89795e-07 -0.000350411
0.00171958 0.000167236 7.99383e-06
0.000167236 0.000284572 1.84227e-06
7.99383e-06 1.84227e-06 0.000145083
0.00531405 6.126e-05 -0.000172468
6.126e-05 0.00269727 -1.3183e-05
-0.000172468 -1.3183e-05 0.00269466
0.000562483 0.000114104 7.38055e-07
0.000114104 -0.000108427 2.56345e-07
7.38055e-07 2.56345e-07 -0.000182752
0.000582786 0.000115815 1.19627e-05
0.000115815 -0.000250237 3.61875e-06
1.19627e-05 3.61875e-06 -0.000375466
0.00524869 -9.39257e-06 1.15447e-05
-9.39257e-06 0.00268067 -1.32905e-07
1.15447e-05 -1.32905e-07 0.00266843
0.000532816 0.00013271 1.81491e-05
0.00013271 -0.000108672 1.01469e-05
1.81491e-05 1.01469e-05 -0.000189638
0.00471197 -0.000148668 0.000119948
-0.000148668 0.00239262 7.22105e-06
0.000119948 7.22105e-06 0.00237295
0.00176562 3.279e-05 2.03726e-07
3.279e-05 0.000144328 -3.35179e-07
2.03726e-07 -3.35179e-07 3.2618e-05
0.00174885 4.36359e-05 -7.01722e-07
4.36359e-05 8.17424e-05 2.1305e-07
-7.01722e-07 2.1305e-07 -1.74088e-05
0.00180873 7.14462e-05 5.8952e-07
7.14462e-05 7.73387e-05 -6.90508e-08
5.8952e-07 -6.90508e-08 -1.02091e-05
0.0016933 -3.40553e-06 -1.73441e-06
-3.40553e-06 0.0002179 -2.59978e-07
-1.73441e-06 -2.59978e-07 9.83803e-05
0.00169822 1.17648e-06 5.14391e-07
1.17648e-06 0.000114315 4.55067e-08
5.14391e-07 4.55067e-08 1.45867e-06
0.00171887 -1.38398e-06 7.05313e-07
-1.38398e-06 7.59368e-05 -4.25669e-08
7.05313e-07 -4.25669e-08 -2.02878e-05
0.00173136 -8.19335e-06 4.26657e-07
-8.19335e-06 0.000140116 5.06199e-07
4.26657e-07 5.06199e-07 2.73226e-05
0.00172584 -9.07478e-06 2.14469e-06
-9.07478e-06 0.000231439 -2.41475e-07
2.14469e-06 -2.41475e-07 0.000109446
0.000785485 -7.62276e-06 -1.27903e-05
-7.62276e-06 -0.000182301 5.91097e-07
-1.27903e-05 5.91097e-07 -0.000299424
0.00171787 -2.97371e-05 5.03843e-06
-2.97371e-05 0.000229053 -2.70088e-07
5.03843e-06 -2.70088e-07 0.000101271
0.000930726 -1.97355e-05 -2.54858e-06
-1.97355e-05 -9.81059e-05 3.31637e-07
-2.54858e-06 3.31637e-07 -0.000216222
0.000658256 -6.04492e-06 -1.76044e-05
-6.04492e-06 -9.76359e-05 1.88656e-06
-1.76044e-05 1.88656e-06 -0.000165073
0.00107568 -4.24747e-05 1.14941e-05
-4.24747e-05 -7.45943e-06 -2.078e-06
1.14941e-05 -2.078e-06 -0.000124892
0.000640377 -2.40809e-05 5.25837e-07
-2.40809e-05 -0.00010195 2.30902e-09
5.25837e-07 2.30902e-09 -0.000168806
0.00525743 -9.15194e-05 -0.000181883
-9.15194e-05 0.00265863 5.97779e-06
-0.000181883 5.97779e-06 0.00265854
0.000644724 -3.29533e-05 1.63722e-05
-3.29533e-05 -9.15676e-05 -3.44081e-06
1.63722e-05 -3.44081e-06 -0.000158948
0.00521958 -3.38868e-05 8.65016e-06
-3.38868e-05 0.00263471 2.17364e-08
8.65016e-06 2.17364e-08 0.00263618
0.00150797 -1.35296e-05 0.000154054
-1.35296e-05 0.000503394 -7.58036e-06
0.000154054 -7.58036e-06 0.000487649
0.00166271 4.58438e-05 1.20025e-06
4.58438e-05 0.000105111 3.78488e-07
1.20025e-06 3.78488e-07 -1.00784e-05
0.00177835 7.17256e-05 -1.93837e-06
7.17256e-05 0.000111843 -2.7679e-07
-1.93837e-06 -2.7679e-07 1.12589e-05
0.00143453 4.93082e-05 -3.43135e-06
4.93082e-05 7.68033e-05 8.84599e-08
-3.43135e-06 8.84599e-08 -4.89605e-05
0.00161344 5.70984e-05 4.5271e-07
5.70984e-05 7.77624e-05 1.74347e-08
4.5271e-07 1.74347e-08 -3.99141e-05
0.00185988 6.98912e-05 -1.01813e-06
6.98912e-05 0.000146125 -2.02998e-06
-1.01813e-06 -2.02998e-06 4.97843e-05
0.00108802 6.55217e-05 -1.16031e-05
6.55217e-05 -3.43306e-06 -2.02101e-06
-1.16031e-05 -2.02101e-06 -0.000117597
0.00139629 8.61314e-05 5.38099e-08
8.61314e-05 5.63195e-05 1.36936e-07
5.38099e-08 1.36936e-07 -7.48357e-05
0.00164309 9.8451e-05 3.715e-07
9.8451e-05 9.12032e-05 -8.77817e-07
3.715e-07 -8.77817e-07 -3.45438e-05
0.000606151 6.06641e-05 -1.66563e-05
6.06641e-05 -0.000113501 -4.61101e-06
-1.66563e-05 -4.61101e-06 -0.000180475
0.000854506 8.67061e-05 -3.24625e-06
8.67061e-05 -0.000127643 -4.39508e-07
-3.24625e-06 -4.39508e-07 -0.000246259
0.00175749 0.000135227 5.21987e-06
0.000135227 0.000278284 9.48238e-07
5.21987e-06 9.48238e-07 0.000143654
0.00530074 0.000119108 -0.000191352
0.000119108 0.00268274 -1.26508e-05
-0.000191352 -1.26508e-05 0.00268254
0.000587041 8.43311e-05 7.31939e-08
8.43311e-05 -0.00010984 1.22405e-07
7.31939e-08 1.22405e-07 -0.000179094
0.000635141 0.000100082 8.31231e-06
0.000100082 -0.000237386 2.9035e-06
8.31231e-06 2.9035e-06 -0.000359842
0.00525241 7.9429e-05 1.03081e-05
7.9429e-05 0.00266787 1.57597e-06
1.03081e-05 1.57597e-06 0.0026628
0.000562935 0.000105528 1.71568e-05
0.000105528 -0.00010836 7.95271e-06
1.71568e-05 7.95271e-06 -0.00018293
0.00515392 -1.6388e-05 0.000159089
-1.6388e-05 0.00261504 1.03142e-05
0.000159089 1.03142e-05 0.00261078
0.00170918 2.30785e-05 -1.67131e-06
2.30785e-05 0.000229272 -1.56171e-07
-1.67131e-06 -1.56171e-07 0.000111002
0.00173522 2.8226e-05 -4.27989e-07
2.8226e-05 0.000129687 1.25728e-07
-4.27989e-07 1.25728e-07 1.71629e-05
0.00170615 4.15278e-05 -9.67126e-07
4.15278e-05 6.347e-05 2.51447e-07
-9.67126e-07 2.51447e-07 -3.65488e-05
0.000769518 -9.94847e-06 -1.32176e-05
-9.94847e-06 -0.000187251 -2.70291e-07
-1.32176e-05 -2.70291e-07 -0.000302114
0.0017162 2.88484e-06 2.32719e-06
2.88484e-06 0.000230976 -6.66404e-08
2.32719e-06 -6.66404e-08 0.00011146
0.00172514 -3.471e-07 3.60337e-07
-3.471e-07 0.000129311 2.197e-07
3.60337e-07 2.197e-07 1.78198e-05
0.00173184 -8.76658e-06 6.23317e-06
-8.76658e-06 0.000234409 1.58848e-08
6.23317e-06 1.58848e-08 0.000112398
0.000771937 -7.45189e-06 -1.945e-06
-7.45189e-06 -0.000190736 1.09296e-07
-1.945e-06 1.09296e-07 -0.000308134
0.000667721 -1.9477e-05 -1.77202e-05
-1.9477e-05 -9.46875e-05 6.44098e-07
-1.77202e-05 6.44098e-07 -0.00016148
0.00106926 -1.78947e-05 9.28148e-06
-1.78947e-05 -1.9188e-05 -1.19383e-06
9.28148e-06 -1.19383e-06 -0.000136052
0.000642775 3.41737e-06 1.94092e-07
3.41737e-06 -0.000106649 1.02266e-07
1.94092e-07 1.02266e-07 -0.000173843
0.00534744 -7.22429e-05 -0.000191603
-7.22429e-05 0.00270689 3.97353e-06
-0.000191603 3.97353e-06 0.00270829
0.000646956 -2.00585e-05 1.70944e-05
-2.00585e-05 -9.79707e-05 -2.3049e-06
1.70944e-05 -2.3049e-06 -0.000165283
0.00530208 1.39093e-05 -2.93274e-06
1.39093e-05 0.00267746 9.2255e-07
-2.93274e-06 9.2255e-07 0.00268113
0.00525121 -5.53518e-05 0.000182921
-5.53518e-05 0.00264947 -5.58895e-06
0.000182921 -5.58895e-06 0.00265295
0.0014387 3.14834e-05 -3.44484e-06
3.14834e-05 8.19801e-05 -1.39769e-07
-3.44484e-06 -1.39769e-07 -4.12999e-05
0.00167005 4.8658e-05 -2.70781e-07
4.8658e-05 0.000108288 -6.8915e-07
-2.70781e-07 -6.8915e-07 -4.75964e-06
0.00175058 7.58243e-05 -3.24531e-06
7.58243e-05 9.02926e-05 -3.17754e-07
-3.24531e-06 -3.17754e-07 -8.74452e-06
0.00108391 3.51853e-05 -1.14425e-05
3.51853e-05 -8.08775e-06 -1.46578e-06
-1.14425e-05 -1.46578e-06 -0.000119693
0.00140042 4.93527e-05 2.10481e-07
4.93527e-05 5.64286e-05 7.46585e-08
2.10481e-07 7.46585e-08 -6.96508e-05
0.00161526 5.60967e-05 -4.80437e-07
5.60967e-05 8.01115e-05 -1.51341e-06
-4.80437e-07 -1.51341e-06 -3.76069e-05
0.000633275 3.6074e-05 -1.62443e-05
3.6074e-05 -0.000105925 -3.47203e-06
-1.62443e-05 -3.47203e-06 -0.000172036
0.00107815 6.71531e-05 1.10502e-07
6.71531e-05 -8.62772e-06 2.06421e-07
1.10502e-07 2.06421e-07 -0.000123178
0.0013783 8.56538e-05 4.38557e-06
8.56538e-05 4.68544e-05 5.43761e-07
4.38557e-06 5.43761e-07 -8.44332e-05
0.00528695 0.000130243 -0.000203364
0.000130243 0.00267521 -1.11616e-05
-0.000203364 -1.11616e-05 0.00267439
0.000624426 6.16851e-05 2.32047e-07
6.16851e-05 -0.000102834 1.71427e-07
2.32047e-07 1.71427e-07 -0.000170015
0.00102916 9.38863e-05 8.52086e-06
9.38863e-05 -2.75367e-05 2.40959e-06
8.52086e-06 2.40959e-06 -0.000145548
0.00525078 0.000132198 5.27286e-06
0.000132198 0.00266101 1.87382e-06
5.27286e-06 1.87382e-06 0.00265815
0.000594387 8.21607e-05 1.62262e-05
8.21607e-05 -0.000105551 6.42817e-06
1.62262e-05 6.42817e-06 -0.0001748
0.0052254 9.96485e-05 0.000180461
9.96485e-05 0.00264879 1.36405e-05
0.000180461 1.36405e-05 0.00264669
0.00110798 1.02897e-05 -1.20735e-05
1.02897e-05 6.79005e-06 -7.16938e-07
-1.20735e-05 -7.16938e-07 -0.00010416
0.00154241 1.78722e-05 2.62868e-06
1.78722e-05 0.000134727 7.96535e-08
2.62868e-06 7.96535e-08 1.51766e-05
0.00170166 2.27074e-05 -8.19531e-07
2.27074e-05 0.000112805 2.20903e-07
-8.19531e-07 2.20903e-07 -5.4318e-07
0.000679745 2.49427e-05 -1.80921e-05
2.49427e-05 -9.2512e-05 -4.76406e-07
-1.80921e-05 -4.76406e-07 -0.000153465
0.000757081 -4.3716e-06 -2.142e-06
-4.3716e-06 -0.000195423 9.96163e-09
-2.142e-06 9.96163e-09 -0.000310502
0.00173986 9.21022e-06 6.44582e-06
9.21022e-06 0.000244436 1.21084e-07
6.44582e-06 1.21084e-07 0.000124916
0.000754518 -6.86472e-06 8.86346e-06
-6.86472e-06 -0.000201408 -3.30678e-07
8.86346e-06 -3.30678e-07 -0.000319072
0.000651553 -1.8155e-06 1.89454e-07
-1.8155e-06 -0.00010397 3.00094e-07
1.89454e-07 3.00094e-07 -0.000170495
0.00537681 5.17911e-05 -0.00019965
5.17911e-05 0.00272033 -9.0479e-07
-0.00019965 -9.0479e-07 0.00272383
0.000624308 1.25812e-05 1.68041e-05
1.25812e-05 -0.000117495 -1.12243e-06
1.68041e-05 -1.12243e-06 -0.000184328
0.00535735 -7.16009e-05 -7.87177e-06
-7.16009e-05 0.00271233 1.29613e-06
-7.87177e-06 1.29613e-06 0.00271354
0.0053115 3.86348e-05 0.000176606
3.86348e-05 0.00268342 -2.47345e-06
0.000176606 -2.47345e-06 0.00268619
0.00109186 1.81943e-05 -1.19439e-05
1.81943e-05 -3.28982e-06 -1.23084e-06
-1.19439e-05 -1.23084e-06 -0.000113849
0.00137764 3.07939e-05 3.69516e-08
3.07939e-05 4.59009e-05 -6.32044e-08
3.69516e-08 -6.32044e-08 -7.66113e-05
0.00168088 5.13214e-05 -1.72196e-06
5.13214e-05 0.000113354 -1.27553e-06
-1.72196e-06 -1.27553e-06 2.44638e-06
0.00256711 3.48743e-05 -9.90764e-05
3.48743e-05 0.000999412 -2.91229e-06
-9.90764e-05 -2.91229e-06 0.000952791
0.00109022 3.74411e-05 1.61097e-07
3.74411e-05 -4.95816e-06 1.89596e-07
1.61097e-07 1.89596e-07 -0.00011675
0.00136553 4.92578e-05 4.01601e-06
4.92578e-05 3.56046e-05 1.32855e-07
4.01601e-06 1.32855e-07 -9.07944e-05
0.0052641 0.000119704 -0.000206784
0.000119704 0.00266445 -8.75812e-06
-0.000206784 -8.75812e-06 0.00266305
0.000663371 4.66345e-05 5.45571e-07
4.66345e-05 -8.74675e-05 2.5067e-07
5.45571e-07 2.5067e-07 -0.000154474
0.00107959 6.90923e-05 1.1587e-05
6.90923e-05 -7.63953e-06 2.42439e-06
1.1587e-05 2.42439e-06 -0.000122555
0.00529445 0.000144642 8.65282e-07
0.000144642 0.00268355 1.57279e-06
8.65282e-07 1.57279e-06 0.00268099
0.000651092 6.28108e-05 1.67409e-05
6.28108e-05 -8.70329e-05 5.21364e-06
1.67409e-05 5.21364e-06 -0.000154525
0.00520936 0.000152334 0.000189328
0.000152334 0.00264196 1.48325e-05
0.000189328 1.48325e-05 0.00263719
0.000714896 7.8442e-06 -1.61999e-05
7.8442e-06 -6.35817e-05 -1.73819e-06
-1.61999e-05 -1.73819e-06 -0.000129654
0.000928963 8.00817e-06 6.29228e-07
8.00817e-06 -9.50152e-05 2.21875e-07
6.29228e-07 2.21875e-07 -0.000207325
0.00137011 1.24474e-05 6.01792e-06
1.24474e-05 3.70622e-05 2.26562e-07
6.01792e-06 2.26562e-07 -8.3742e-05
0.00528137 -9.19529e-05 -0.000183777
-9.19529e-05 0.0026814 -6.05199e-07
-0.000183777 -6.05199e-07 0.00267574
0.000651436 7.76583e-06 -3.26131e-07
7.76583e-06 -0.000104109 2.06342e-07
-3.26131e-07 2.06342e-07 -0.000167507
0.000750811 8.87038e-07 8.85052e-06
8.87038e-07 -0.000200132 1.63318e-07
8.85052e-06 1.63318e-07 -0.000315416
0.000623293 1.87078e-05 1.71697e-05
1.87078e-05 -0.000119823 2.08298e-07
1.71697e-05 2.08298e-07 -0.000186131
0.00534941 1.71632e-05 2.84992e-06
1.71632e-05 0.00270809 -2.33656e-07
2.84992e-06 -2.33656e-07 0.00270899
0.00538183 2.16073e-05 0.000188233
2.16073e-05 0.00271901 -6.5163e-07
0.000188233 -6.5163e-07 0.00272361
0.00261042 1.28079e-06 -9.74752e-05
1.28079e-06 0.0010204 -1.98165e-06
-9.74752e-05 -1.98165e-06 0.000974376
0.0011062 2.0834e-05 6.37764e-09
2.0834e-05 4.35514e-06 5.65726e-08
6.37764e-09 5.65726e-08 -0.000106284
0.00131467 3.03036e-05 3.73831e-06
3.03036e-05 8.78855e-06 -6.36191e-08
3.73831e-06 -6.36191e-08 -0.000112957
0.00495926 -6.55656e-05 -4.43899e-05
-6.55656e-05 0.00249974 -1.38411e-07
-4.43899e-05 -1.38411e-07 0.0024849
0.000674851 3.70819e-05 -3.90732e-08
3.70819e-05 -8.32805e-05 2.38081e-07
-3.90732e-08 2.38081e-07 -0.000149701
0.00110893 4.0218e-05 1.15526e-05
4.0218e-05 4.90536e-06 1.89164e-06
1.15526e-05 1.89164e-06 -0.000107036
0.00530273 8.36135e-05 -1.13213e-05
8.36135e-05 0.00268155 -5.33834e-07
-1.13213e-05 -5.33834e-07 0.00268278
0.000692584 6.43884e-05 1.79702e-05
6.43884e-05 -6.95041e-05 4.36617e-06
1.79702e-05 4.36617e-06 -0.00013735
0.00528111 0.000166251 0.000199234
0.000166251 0.00268213 1.44316e-05
0.000199234 1.44316e-05 0.00267663
0.00165606 -3.88808e-05 -0.000165261
-3.88808e-05 0.000580567 4.34145e-07
-0.000165261 4.34145e-07 0.000565747
0.00164201 1.98558e-05 -4.00257e-05
1.98558e-05 0.00046344 2.3324e-07
-4.00257e-05 2.3324e-07 0.000410446
0.000756654 8.19396e-06 1.17445e-05
8.19396e-06 -0.000193025 9.26038e-07
1.17445e-05 9.26038e-07 -0.000306717
0.00529615 -3.76082e-05 8.42017e-06
-3.76082e-05 0.00268539 2.55342e-07
8.42017e-06 2.55342e-07 0.00268334
0.000651822 -8.53583e-06 1.76463e-05
-8.53583e-06 -0.000100544 9.65654e-07
1.76463e-05 9.65654e-07 -0.00016577
0.00536133 -5.34071e-05 0.000203581
-5.34071e-05 0.00271487 -7.58323e-07
0.000203581 -7.58323e-07 0.00271667
0.00130147 -1.30788e-05 -2.127e-05
-1.30788e-05 0.000397569 -7.59278e-07
-2.127e-05 -7.59278e-07 0.000363779
0.00163643 1.05436e-05 -4.02825e-05
1.05436e-05 0.000464024 -2.96079e-07
-4.02825e-05 -2.96079e-07 0.000408729
0.00110805 2.19354e-05 1.17083e-05
2.19354e-05 5.22424e-06 1.37375e-06
1.17083e-05 1.37375e-06 -0.00010552
0.0032904 3.64201e-05 7.47393e-05
3.64201e-05 0.00152889 1.47251e-06
7.47393e-05 1.47251e-06 0.00151464
0.000683888 4.55612e-05 1.80609e-05
4.55612e-05 -7.79155e-05 3.56142e-06
1.80609e-05 3.56142e-06 -0.000144609
0.00532165 8.22828e-05 0.000189895
8.22828e-05 0.00268994 9.29777e-06
0.000189895 9.29777e-06 0.00269276
0.00522896 -2.61192e-05 -8.88472e-06
-2.61192e-05 0.00264949 -8.94825e-07
-8.88472e-06 -8.94825e-07 0.00264691
0.000664849 3.35269e-05 1.85346e-05
3.35269e-05 -9.65634e-05 1.75417e-06
1.85346e-05 1.75417e-06 -0.000157374
0.00523448 5.60366e-05 0.000188243
5.60366e-05 0.00264756 -5.43427e-07
0.000188243 -5.43427e-07 0.00264793
0.00327169 2.82383e-05 8.9261e-05
2.82383e-05 0.00152248 2.02871e-06
8.9261e-05 2.02871e-06 0.00150723
0.000689728 5.97208e-06 1.76125e-05
5.97208e-06 -7.64167e-05 2.50104e-06
1.76125e-05 2.50104e-06 -0.000141383
0.00528796 -3.87383e-05 0.000182919
-3.87383e-05 0.00267298 4.57375e-06
0.000182919 4.57375e-06 0.00267433
0.00523701 -0.000133962 0.00018271
-0.000133962 0.00266096 -1.61919e-06
0.00018271 -1.61919e-06 0.0026532
0.00523762 -2.51019e-05 0.000181226
-2.51019e-05 0.00264127 2.16193e-06
0.000181226 2.16193e-06 0.00264561
