# vtk DataFile Version 2.0
Wound Healing Simulation
ASCII
DATASET UNSTRUCTURED_GRID
POINTS 3012 float
69.9759 18.75 4
67.2507 60.3285 4
69.976 18.75 2
73.0099 25.446 4
71.1327 20.9142 4
68.6801 16.6661 4
67.8215 19.9262 3.97352
67.2507 60.3286 2
71.1327 54.0858 4
68.6801 58.3339 4
65.6939 62.2254 4
65.3081 58.9988 3.97219
74.6784 42.3946 4
73.7221 47.2057 4
69.9759 18.75 0
73.0099 25.446 2
68.6801 16.6661 2
71.1327 20.9142 2
67.822 19.9299 2
74.6792 32.6053 4
73.7222 27.7943 4
72.1454 23.1494 4
70.6113 26.2216 3.9735
68.8818 21.9578 3.97375
67.2507 14.6715 4
66.6328 17.9732 3.97235
65.7565 21.0392 3.96237
67.2507 60.3285 0
71.1327 54.0858 2
68.6801 58.3339 2
65.694 62.2255 2
65.3096 58.9943 2
72.1454 51.8506 4
69.9759 56.25 4
68.8322 53.1143 3.97356
64.0165 64.0165 4
66.6064 57.1329 3.97338
63.8813 60.762 3.96964
63.4858 57.7614 3.9622
60.3285 67.2507 4
74.6792 42.3947 2
73.7222 47.2057 2
74.9194 39.9526 4
74.2788 44.8158 4
72.1659 42.0857 3.97491
73.0099 49.554 4
71.2465 46.5985 3.97346
73.0099 25.446 0
71.1327 20.9142 0
68.6801 16.6661 0
67.8215 19.9262 0.0264803
74.6792 32.6053 2
73.7222 27.7943 2
67.2508 14.6715 2
72.1455 23.1494 2
70.6106 26.2224 2
66.6338 17.9775 2
68.882 21.9604 2
65.7547 21.041 2
74.9197 35.0474 4
74.2794 30.1841 4
72.1827 32.9448 3.97543
71.2758 28.4327 3.9736
69.8122 24.0596 3.97358
68.3261 26.9592 3.9641
66.7264 22.9451 3.96295
65.694 12.7746 4
65.3193 16.1065 3.97109
64.6746 19.2105 3.96152
63.7436 22.0913 3.96427
71.1327 54.0858 0
65.6939 62.2254 0
68.6801 58.3339 0
65.3081 58.9988 0.0278105
72.1455 51.8506 2
69.9759 56.25 2
68.8325 53.1112 2
64.0165 64.0165 2
66.6076 57.1283 2
63.8822 60.7572 2
63.478 57.7595 2
62.2254 65.694 4
58.8909 65.4122 3.98075
69.7651 50.9901 3.97325
67.7794 55.1678 3.97367
66.605 52.1984 3.963
62.3318 62.4242 3.97487
64.628 56.0208 3.96255
62.1923 59.3883 3.96289
61.7198 56.6327 3.96059
58.3339 68.6801 4
60.3285 67.2508 2
73.7221 47.2057 0
74.6784 42.3946 0
74.9197 39.9526 2
74.2794 44.8159 2
72.165 42.0855 2
73.0099 49.554 2
71.2457 46.5975 2
75 37.5 4
72.4033 39.8027 3.97612
71.78 44.353 3.97438
69.7969 41.7891 3.96598
70.5719 48.8144 3.97323
68.8928 46.0107 3.96549
74.6792 32.6053 0
73.7222 27.7943 0
67.2507 14.6715 0
72.1454 23.1494 0
70.6113 26.2216 0.0264983
68.8818 21.9578 0.0262479
66.6328 17.9732 0.0276483
65.7565 21.0392 0.0376334
74.9197 35.0474 2
74.2794 30.1841 2
72.1818 32.9447 2
71.2748 28.433 2
65.694 12.7745 2
65.3202 16.1111 2
69.8118 24.0612 2
68.3298 26.9599 2
64.6688 19.2127 2
66.7272 22.9465 2
63.7423 22.0921 2
72.4112 35.2254 3.97625
71.8016 30.678 3.97462
69.8339 33.2725 3.9661
68.9544 29.0442 3.96479
67.5815 24.9219 3.96345
66.0379 27.6771 3.97023
64.0165 10.9835 4
64.606 23.8825 3.96654
63.8846 14.3321 3.96809
63.4913 17.4624 3.96015
62.7683 20.3806 3.96214
61.836 23.0432 3.96987
60.6804 11.1027 3.97562
57.6048 11.4794 3.96715
72.1454 51.8506 0
69.9759 56.25 0
68.8322 53.1143 0.0264438
64.0165 64.0165 0
63.8813 60.762 0.0303646
66.6064 57.1329 0.0266194
63.4858 57.7614 0.0378013
62.2255 65.694 2
58.8932 65.4074 2
69.765 50.988 2
67.7801 55.1638 2
66.6054 52.197 2
62.3337 62.4184 2
64.6215 56.0186 2
62.1885 59.3882 2
61.7162 56.6326 2
60.6652 63.9728 3.97774
57.0214 66.7326 3.98291
57.5503 63.6674 3.97236
67.466 50.1673 3.96364
65.6613 54.1624 3.96258
64.3637 51.3332 3.96653
60.7663 60.9147 3.96675
62.6893 55.0175 3.96332
60.58 58.111 3.9582
60.144 55.7025 3.9653
56.25 69.9759 4
58.3339 68.6801 2
60.3285 67.2507 0
58.9177 9.65985 3.97782
62.2254 9.30607 4
73.0099 49.554 0
74.2788 44.8158 0
71.2465 46.5985 0.0265396
72.1659 42.0857 0.0250939
74.9194 39.9526 0
75 37.5 2
72.403 39.8025 2
71.7794 44.3524 2
69.7965 41.7889 2
70.5714 48.813 2
68.897 46.0103 2
72.4868 37.5129 3.97582
70.035 39.6581 3.96654
69.4213 43.9057 3.96594
67.4684 41.4852 3.975
68.2326 48.1001 3.96448
66.5432 45.408 3.97303
74.9197 35.0474 0
74.2794 30.1841 0
72.1827 32.9448 0.0245705
71.2758 28.4327 0.0264019
65.694 12.7746 0
65.3193 16.1065 0.0289144
69.8122 24.0596 0.0264208
68.3261 26.9592 0.0359044
66.7264 22.9451 0.0370462
64.6746 19.2105 0.038482
63.7436 22.0913 0.0357254
72.4109 35.225 2
71.8011 30.678 2
69.833 33.273 2
68.9577 29.0447 2
64.0165 10.9835 2
63.8859 14.3376 2
63.4858 17.4636 2
67.5839 24.923 2
66.0354 27.6782 2
62.7685 20.3806 2
64.6037 23.8837 2
61.8342 23.0437 2
60.6825 11.1077 2
57.6042 11.4724 2
70.052 35.3951 3.9667
69.4598 31.1545 3.96518
67.5351 33.6077 3.97438
66.6272 29.6566 3.97241
65.3676 25.7476 3.96841
63.8457 28.3352 3.976
62.337 12.6596 3.97368
62.5817 24.7317 3.97254
62.186 15.8048 3.96264
61.6895 18.7479 3.95954
60.973 21.448 3.96608
60.0646 23.8687 3.97339
59.2377 12.8149 3.96316
55.8676 10.2648 3.97376
56.3921 13.1797 3.96626
69.7651 50.9901 0.0267463
62.2254 65.694 0
58.8909 65.4122 0.0192478
67.7794 55.1678 0.0263307
66.605 52.1984 0.0369954
62.3318 62.4242 0.0251336
62.1923 59.3883 0.0371076
64.628 56.0208 0.0374459
61.7198 56.6327 0.0394142
60.6676 63.9695 2
57.0244 66.7289 2
57.5512 63.6716 2
67.4677 50.1662 2
65.659 54.1606 2
64.3619 51.3324 2
60.7633 60.9155 2
62.6893 55.0177 2
60.577 58.1117 2
60.1428 55.7024 2
55.0675 67.9302 3.98546
59.212 62.332 3.96678
55.7969 64.8869 3.97265
56.3155 62.0388 3.97693
65.1482 49.3597 3.96855
63.5474 53.2394 3.96484
62.1252 50.5579 3.9712
59.2938 59.5128 3.95887
60.8448 54.2203 3.968
59.1095 56.9223 3.9605
58.9897 55.0754 3.96851
48.0993 68.572 3.98178
50.9451 69.9306 3.9881
54.0858 71.1327 4
56.25 69.976 2
58.3339 68.6801 0
57.0547 8.3392 3.97903
60.3285 7.74928 4
58.9204 9.66463 2
62.2255 9.30602 2
70.5719 48.8144 0.0267703
71.78 44.353 0.0256248
68.8928 46.0107 0.0345093
69.7969 41.7891 0.0340222
72.4033 39.8027 0.023885
75 37.5 0
72.4859 37.5126 2
70.0347 39.658 2
69.4222 43.9053 2
67.4655 41.4846 2
68.2348 48.0991 2
66.5402 45.4069 2
70.1232 37.5235 3.96673
67.7142 39.5081 3.97486
67.078 43.4482 3.97465
65.2593 41.1835 3.97662
65.8871 47.3765 3.97078
64.3232 44.7846 3.97604
72.4112 35.2254 0.0237535
71.8016 30.678 0.0253773
69.8339 33.2725 0.0339
68.9544 29.0442 0.0352068
64.0165 10.9835 0
63.8846 14.3321 0.0319119
63.4913 17.4624 0.0398498
67.5815 24.9219 0.0365456
66.0379 27.6771 0.0297678
64.606 23.8825 0.033463
62.7683 20.3806 0.0378638
61.836 23.0432 0.0301308
60.6804 11.1027 0.02438
57.6048 11.4794 0.0328518
70.0517 35.3953 2
69.46 31.1549 2
67.5328 33.6082 2
66.6257 29.6576 2
62.339 12.665 2
62.1833 15.8053 2
61.6891 18.7476 2
65.3652 25.7488 2
63.8429 28.3362 2
60.9725 21.4477 2
62.5795 24.7324 2
60.0642 23.8693 2
59.2366 12.8139 2
56.3913 13.1767 2
55.8684 10.2679 2
67.7545 35.5572 3.97453
67.1397 31.6471 3.97411
65.4193 33.9584 3.97646
64.3585 30.2598 3.97576
63.2507 26.502 3.97485
61.8308 28.8899 3.97561
60.7662 14.2506 3.96431
60.6554 25.4753 3.97491
60.5342 17.1862 3.9576
59.983 19.9306 3.96201
59.31 22.4079 3.96892
58.5331 24.4987 3.97409
54.0316 9.15906 3.97038
57.8884 14.3889 3.96058
54.7754 12.0731 3.97118
55.2825 14.7336 3.9589
67.466 50.1673 0.0363567
57.0214 66.7326 0.0170895
60.6652 63.9728 0.0222641
57.5503 63.6674 0.0276436
65.6613 54.1624 0.037422
64.3637 51.3332 0.0334704
60.7663 60.9147 0.0332512
60.58 58.111 0.041803
62.6893 55.0175 0.0366767
60.144 55.7025 0.0346995
55.0708 67.9272 2
59.211 62.3357 2
55.7985 64.8864 2
56.3136 62.0392 2
65.1459 49.3587 2
63.5465 53.2391 2
62.124 50.5573 2
59.3023 59.5191 2
60.8455 54.2205 2
59.1179 56.9246 2
58.9965 55.0768 2
53.0392 68.9985 3.98644
53.9619 66.0014 3.97437
57.8596 60.8247 3.96499
54.6662 63.1541 3.96905
55.1875 60.5584 3.97517
62.863 48.5736 3.97368
61.4641 52.4818 3.96956
59.8266 49.8839 3.97299
57.8977 58.1856 3.95868
59.0203 53.8288 3.97063
57.8333 55.6867 3.96294
50.1051 67.848 3.97941
47.459 66.5661 3.97609
46.0534 69.1518 3.98382
48.1007 68.5712 2
48.7993 70.7223 3.98933
50.9479 69.9295 2
51.8506 72.1454 4
54.0858 71.1327 2
56.25 69.9759 0
55.0994 7.14358 3.98335
58.3339 6.31992 4
57.058 8.34461 2
60.3286 7.74926 2
58.9177 9.65985 0.0221825
62.2254 9.30607 0
68.2326 48.1001 0.035524
69.4213 43.9057 0.0340637
66.5432 45.408 0.0269652
67.4684 41.4852 0.0249993
70.035 39.6581 0.0334648
72.4868 37.5129 0.0241835
70.1224 37.5236 2
67.7107 39.5078 2
67.0766 43.4474 2
65.257 41.1833 2
65.8846 47.3754 2
64.321 44.7837 2
67.8156 37.5249 3.97466
65.5013 39.3592 3.97666
64.867 42.9792 3.9762
63.3368 40.8918 3.97668
63.6271 46.6389 3.97543
62.3444 44.1331 3.97581
70.052 35.3951 0.0332989
69.4598 31.1545 0.0348192
67.5351 33.6077 0.0256172
66.6272 29.6566 0.0275914
62.337 12.6596 0.0263225
62.186 15.8048 0.0373562
61.6895 18.7479 0.0404636
65.3676 25.7476 0.0315866
63.8457 28.3352 0.0240014
62.5817 24.7317 0.0274589
60.973 21.448 0.0339158
60.0646 23.8687 0.0266093
59.2377 12.8149 0.0368357
56.3921 13.1797 0.0337435
55.8676 10.2648 0.0262429
67.7515 35.5575 2
67.1385 31.6479 2
65.4158 33.9589 2
64.3562 30.2607 2
60.7643 14.2507 2
60.5247 17.1876 2
59.9803 19.9304 2
63.2489 26.5028 2
61.8294 28.89 2
59.3135 22.4076 2
60.6542 25.4764 2
58.5306 24.5012 2
57.8883 14.3887 2
55.2804 14.7286 2
54.0345 9.15609 2
54.7721 12.0762 2
65.6005 35.6843 3.97644
64.887 32.202 3.97582
63.9121 34.2876 3.97634
62.1499 30.7238 3.97565
61.2391 27.1999 3.97526
60.3325 29.2734 3.97578
59.2647 15.7257 3.9572
58.842 25.9768 3.97548
58.9448 18.4632 3.95916
58.4081 21.0098 3.96351
57.8552 23.2775 3.97022
57.4815 24.8671 3.97557
52.1085 8.16494 3.97309
53.0432 11.0758 3.96743
56.6247 15.8284 3.9571
53.793 13.7583 3.97783
54.3106 16.1085 3.96029
55.0675 67.9302 0.0145433
65.1482 49.3597 0.0314471
55.7969 64.8869 0.0273484
59.212 62.332 0.033216
56.3155 62.0388 0.0230671
63.5474 53.2394 0.0351609
62.1252 50.5579 0.0287999
59.2938 59.5128 0.0411312
59.1095 56.9223 0.0394958
60.8448 54.2203 0.031995
58.9897 55.0754 0.031485
53.0424 68.9965 2
53.9636 65.9999 2
57.8607 60.8272 2
54.6654 63.1557 2
55.1853 60.558 2
62.8615 48.5727 2
61.464 52.4816 2
59.8279 49.8835 2
57.9017 58.1883 2
59.0254 53.8296 2
57.8301 55.6853 2
52.0657 66.9892 3.97738
52.9415 64.1858 3.97388
56.5946 59.4281 3.95962
53.6493 61.5477 3.97085
54.209 59.2506 3.96513
60.5021 47.7479 3.97442
59.3226 51.9745 3.97131
57.4743 49.4411 3.97454
56.5931 56.8816 3.96178
56.727 53.9668 3.96648
50.107 67.848 2
49.3309 65.9022 3.97513
47.4601 66.5645 2
46.8855 64.7055 3.97669
45.556 67.0845 3.97913
43.9712 69.5842 3.9849
46.0552 69.1523 2
46.606 71.3666 3.99041
48.0993 68.572 0.0182209
48.8017 70.7213 2
49.554 73.0099 4
50.9451 69.9306 0.0119018
51.8506 72.1455 2
54.0858 71.1327 0
53.0621 6.07426 3.98712
55.1033 7.14577 2
56.25 5.02411 4
58.3339 6.3199 2
57.0547 8.3392 0.0209715
60.3285 7.74928 0
65.8871 47.3765 0.029215
67.078 43.4482 0.0253452
64.3232 44.7846 0.0239647
65.2593 41.1835 0.0233797
67.7142 39.5081 0.0251407
70.1232 37.5235 0.0332689
67.8125 37.525 2
65.4985 39.3591 2
64.8641 42.9785 2
63.337 40.8913 2
63.6252 46.6379 2
62.3437 44.1329 2
65.6109 37.5054 3.97654
63.4886 39.2511 3.97664
62.8862 42.4955 3.97623
61.9167 40.6534 3.97655
61.4851 45.8067 3.97559
60.88 43.5902 3.97593
67.7545 35.5572 0.0254736
67.1397 31.6471 0.0258903
65.4193 33.9584 0.0235404
64.3585 30.2598 0.0242434
60.7662 14.2506 0.0356904
60.5342 17.1862 0.0423989
59.983 19.9306 0.0379931
63.2507 26.502 0.0251457
61.8308 28.8899 0.0243916
60.6554 25.4753 0.0250903
59.31 22.4079 0.0310794
58.5331 24.4987 0.0259076
57.8884 14.3889 0.0394167
55.2825 14.7336 0.0411048
54.0316 9.15906 0.0296219
54.7754 12.0731 0.0288186
65.5974 35.6845 2
64.8842 32.2024 2
63.9117 34.2879 2
62.1491 30.7238 2
59.2693 15.7218 2
58.949 18.4606 2
58.4082 21.0104 2
61.2375 27.2004 2
60.3327 29.2736 2
57.848 23.2813 2
58.8401 25.9774 2
57.482 24.8695 2
56.608 15.8302 2
54.3088 16.0981 2
53.7848 13.7545 2
52.1108 8.16653 2
53.0455 11.0722 2
63.6992 35.6559 3.97643
62.4747 33.1092 3.97613
60.0428 30.7358 3.97564
59.0187 28.0764 3.97555
57.8241 17.081 3.95714
57.1794 25.9456 3.97555
57.439 19.627 3.95861
56.9455 22.0373 3.964
56.6768 24.166 3.97216
50.1091 7.29408 3.98012
51.2219 10.1584 3.97073
52.1461 12.886 3.96552
55.4316 17.0867 3.95645
52.9339 15.3576 3.9602
53.6582 17.1064 3.95847
53.0392 68.9985 0.0135624
53.9619 66.0014 0.0256296
62.863 48.5736 0.0263197
54.6662 63.1541 0.0309516
57.8596 60.8247 0.0350136
55.1875 60.5584 0.0248321
61.4641 52.4818 0.0304373
59.8266 49.8839 0.0270087
57.8977 58.1856 0.0413241
57.8333 55.6867 0.0370624
59.0203 53.8288 0.0293692
52.0676 66.9882 2
52.9414 64.1887 2
56.593 59.4285 2
53.6475 61.5475 2
54.2037 59.2522 2
60.5019 47.7472 2
59.3249 51.9745 2
57.4756 49.4408 2
56.5892 56.8849 2
56.7243 53.9657 2
51.1604 65.1089 3.9753
52.0215 62.4843 3.97088
55.3732 58.1657 3.96061
52.7789 60.0421 3.96768
53.559 58.3858 3.96164
57.6327 46.6614 3.97561
57.0843 51.6188 3.97128
55.6088 49.3452 3.97336
55.2268 55.6615 3.96195
54.9037 53.2061 3.96207
50.1051 67.848 0.0205865
49.3319 65.9034 2
48.6078 64.0959 3.97836
47.459 66.5661 0.0239113
45.5567 67.0867 2
46.8856 64.7069 2
46.3697 63.0132 3.98188
45.128 65.1759 3.97846
43.6302 67.4576 3.98078
41.8591 69.8712 3.98468
43.9724 69.5844 2
44.3737 71.8612 3.99075
46.0534 69.1518 0.0161834
46.608 71.3664 2
47.2057 73.7222 4
48.7993 70.7223 0.0106665
49.554 73.0099 2
51.8506 72.1454 0
50.9533 5.13414 3.98956
53.0651 6.07576 2
54.0858 3.86728 4
55.0994 7.14358 0.0166474
56.25 5.02406 2
58.3339 6.31992 0
63.6271 46.6389 0.0245748
64.867 42.9792 0.0238018
62.3444 44.1331 0.0241879
63.3368 40.8918 0.0233166
65.5013 39.3592 0.0233448
67.8156 37.5249 0.0253399
65.6079 37.5055 2
63.4888 39.251 2
62.8866 42.4948 2
61.9183 40.6532 2
61.4845 45.8063 2
60.8806 43.5905 2
63.5531 37.4607 3.97652
61.622 39.3299 3.97685
60.6238 41.8832 3.97673
59.6207 44.6363 3.97567
65.6005 35.6843 0.0235602
64.887 32.202 0.0241822
63.9121 34.2876 0.0236636
62.1499 30.7238 0.0243488
59.2647 15.7257 0.0427981
58.9448 18.4632 0.0408399
58.4081 21.0098 0.0364939
61.2391 27.1999 0.0247415
60.3325 29.2734 0.0242154
58.842 25.9768 0.024525
57.8552 23.2775 0.0297842
57.4815 24.8671 0.0244258
56.6247 15.8284 0.0429014
54.3106 16.1085 0.0397054
53.793 13.7583 0.0221689
52.1085 8.16494 0.0269102
53.0432 11.0758 0.0325728
63.6994 35.6562 2
62.476 33.1096 2
60.0436 30.7357 2
57.8314 17.077 2
57.4507 19.6235 2
56.9437 22.0403 2
59.0187 28.0761 2
56.6837 24.1677 2
57.1811 25.9455 2
50.112 7.29173 2
55.4288 17.0909 2
53.6628 17.1004 2
52.9245 15.3597 2
52.1496 12.8868 2
51.2237 10.1561 2
61.6651 35.3937 3.97659
59.6546 32.8385 3.97596
57.9363 30.2389 3.97547
56.6454 27.6009 3.97591
56.4616 18.2878 3.95848
55.6975 25.3527 3.97495
56.018 20.7084 3.95908
55.6104 23.1022 3.9647
48.0552 6.53355 3.98456
49.3182 9.35232 3.97504
50.4131 12.0613 3.9692
51.3272 14.6029 3.96276
54.2675 18.0673 3.96027
52.2786 17.1794 3.95503
52.0657 66.9892 0.0226202
52.9415 64.1858 0.0261236
60.5021 47.7479 0.0255763
53.6493 61.5477 0.0291516
56.5946 59.4281 0.0403845
54.209 59.2506 0.0348668
59.3226 51.9745 0.0286949
57.4743 49.4411 0.0254614
56.5931 56.8816 0.0382179
56.727 53.9668 0.0335202
51.1606 65.1077 2
52.0209 62.4871 2
55.3699 58.166 2
52.7771 60.0438 2
53.5557 58.3883 2
57.633 46.6607 2
57.0825 51.6179 2
55.607 49.3443 2
55.2249 55.6616 2
54.9026 53.2059 2
50.3305 63.3534 3.97499
51.1961 60.8555 3.97281
54.0756 57.166 3.96574
52.1932 58.5296 3.96443
55.8324 43.9972 3.97595
54.738 47.6623 3.97547
54.4664 51.1784 3.96522
53.6823 54.3901 3.96433
49.3309 65.9022 0.0248673
48.6067 64.0963 2
47.942 62.4426 3.98473
45.556 67.0845 0.0208707
46.8855 64.7055 0.0233107
43.6305 67.4578 2
46.3697 63.0169 2
45.1292 65.1722 2
45.9668 61.5411 3.99187
44.7593 63.4149 3.97645
43.3558 65.4888 3.97811
41.6629 67.6759 3.98014
39.7015 70.0175 3.98403
41.86 69.8717 2
42.1086 72.2053 3.99113
43.9712 69.5842 0.0150984
44.3752 71.8608 2
44.8159 74.2794 4
46.606 71.3666 0.00958552
47.2057 73.7222 2
49.554 73.0099 0
48.7847 4.32441 3.99039
50.9555 5.13404 2
51.8506 2.85458 4
53.0621 6.07426 0.0128846
54.0858 3.86728 2
56.25 5.02411 0
61.4851 45.8067 0.0244113
62.8862 42.4955 0.0237665
60.88 43.5902 0.0240684
61.9167 40.6534 0.0234454
63.4886 39.2511 0.0233601
65.6109 37.5054 0.0234568
63.5532 37.4608 2
61.6234 39.3298 2
60.626 41.8833 2
59.6218 44.6365 2
61.4481 37.4476 3.97685
59.5641 39.8019 3.97675
58.2293 42.802 3.97585
63.6992 35.6559 0.0235711
62.4747 33.1092 0.023872
60.0428 30.7358 0.0243567
57.8241 17.081 0.0428609
57.439 19.627 0.0413922
56.9455 22.0373 0.0360018
59.0187 28.0764 0.0244508
57.1794 25.9456 0.024447
56.6768 24.166 0.0278388
55.4316 17.0867 0.043555
53.6582 17.1064 0.04153
52.9339 15.3576 0.0397965
50.1091 7.29408 0.0198845
52.1461 12.886 0.0344771
51.2219 10.1584 0.0292663
61.6668 35.394 2
59.6553 32.8377 2
57.9375 30.2382 2
56.4613 18.287 2
56.0414 20.7031 2
55.6191 23.105 2
56.6469 27.6021 2
55.7055 25.3559 2
48.0562 6.53407 2
49.3195 9.35161 2
54.275 18.0712 2
52.2678 17.1804 2
51.3264 14.6046 2
50.4157 12.0618 2
59.1944 35.1671 3.97656
57.1951 32.3986 3.9754
55.7746 29.5533 3.97561
54.7364 26.8848 3.97501
55.1254 19.3507 3.96182
54.3864 24.32 3.97227
54.6012 21.786 3.96085
45.9619 5.88745 3.98661
43.3738 7.48275 3.98207
47.3525 8.6362 3.97852
48.5859 11.3362 3.97151
49.6722 13.817 3.96796
50.5554 16.2604 3.96136
52.9637 18.8478 3.96544
51.1973 18.2573 3.95854
51.1604 65.1089 0.0246991
52.0215 62.4843 0.0291175
57.6327 46.6614 0.0243923
52.7789 60.0421 0.0323243
55.3732 58.1657 0.0393889
53.559 58.3858 0.0383647
57.0843 51.6188 0.0287231
55.6088 49.3452 0.026636
55.2268 55.6615 0.0380536
54.9037 53.2061 0.0379251
50.3292 63.3532 2
51.1952 60.8561 2
54.0738 57.1671 2
52.1862 58.531 2
55.8346 43.9986 2
54.7375 47.6615 2
54.4627 51.1772 2
53.6765 54.3907 2
49.559 61.7113 3.9744
54.5374 41.6025 3.97376
50.478 59.2391 3.96572
51.9686 56.3649 3.96335
53.216 45.2945 3.97395
52.5753 49.0804 3.97005
52.1846 52.6614 3.95905
48.6078 64.0959 0.0216405
47.9421 62.4406 2
47.2968 60.9707 3.99303
43.6302 67.4576 0.0192227
45.128 65.1759 0.0215437
46.3697 63.0132 0.0181153
41.6638 67.6753 2
43.3581 65.4893 2
45.9669 61.5456 2
44.7595 63.4132 2
45.7321 60.5869 3.99356
44.4692 61.7868 3.9786
43.142 63.6936 3.97859
41.5464 65.6273 3.97501
39.6327 67.7535 3.97906
37.526 70.0417 3.98357
39.7023 70.0176 2
39.8162 72.4022 3.99135
41.8591 69.8712 0.0153243
42.1097 72.2056 2
42.3947 74.6792 4
44.3737 71.8612 0.00924668
44.8159 74.2794 2
47.2057 73.7222 0
43.8513 5.36386 3.98602
46.5709 3.64902 3.99112
48.7857 4.32493 2
49.554 1.99015 4
50.9533 5.13414 0.0104359
51.8506 2.85453 2
54.0858 3.86728 0
59.6207 44.6363 0.0243266
60.6238 41.8832 0.0232705
61.622 39.3299 0.0231454
63.5531 37.4607 0.0234841
61.4488 37.4477 2
59.5666 39.801 2
58.2314 42.8028 2
59.0512 37.567 3.9774
57.145 40.5773 3.97739
53.9371 39.6269 3.97546
61.6651 35.3937 0.0234084
59.6546 32.8385 0.0240446
57.9363 30.2389 0.0245256
56.4616 18.2878 0.0415237
56.018 20.7084 0.0409219
55.6104 23.1022 0.0352955
56.6454 27.6009 0.02409
55.6975 25.3527 0.0250518
54.2675 18.0673 0.039731
52.2786 17.1794 0.0449674
51.3272 14.6029 0.0372381
48.0552 6.53355 0.0154404
49.3182 9.35232 0.0249615
50.4131 12.0613 0.0308005
59.1963 35.1673 2
45.9626 5.88675 2
43.3742 7.48105 2
57.1952 32.399 2
55.7737 29.5521 2
55.1137 19.3555 2
54.6373 21.783 2
54.3884 24.3259 2
54.7386 26.8845 2
47.3531 8.63548 2
48.5879 11.332 2
52.9601 18.8114 2
51.1929 18.2517 2
50.5592 16.2635 2
49.6722 13.8228 2
56.5062 34.8321 3.97699
54.8135 31.7005 3.97512
53.678 28.6699 3.97659
53.1158 25.8021 3.9741
53.7134 20.334 3.96368
53.1313 22.9773 3.96253
41.4 7.08541 3.98266
45.3591 8.002 3.98652
42.8661 9.43154 3.97222
46.6601 10.6784 3.97766
47.711 13.1488 3.97005
48.8655 15.4864 3.96762
49.9003 17.8305 3.95901
51.4799 19.5452 3.98425
50.3305 63.3534 0.0250148
51.1961 60.8555 0.0271881
55.8324 43.9972 0.0240499
54.738 47.6623 0.0245332
52.1932 58.5296 0.035566
54.0756 57.166 0.0342601
54.4664 51.1784 0.0347833
53.6823 54.3901 0.0356664
49.5588 61.709 2
54.5354 41.5998 2
50.4749 59.2437 2
51.9748 56.3696 2
53.2114 45.2911 2
52.5729 49.0784 2
52.1878 52.6618 2
48.7886 60.1602 3.98695
51.2515 42.4706 3.98347
49.6424 57.5321 3.96392
50.2597 54.2792 3.96085
50.8837 46.985 3.97597
50.6032 50.7275 3.95358
46.9656 43.4748 3.96826
47.942 62.4426 0.0152706
47.2976 60.9705 2
46.5698 59.757 3.99324
41.6629 67.6759 0.0198639
43.3558 65.4888 0.0218861
44.7593 63.4149 0.0235503
45.9668 61.5411 0.00813365
39.6338 67.7541 2
41.5479 65.6248 2
45.7319 60.5912 2
43.1411 63.6918 2
44.4677 61.7887 2
44.5891 60.2411 3.99368
42.939 62.044 3.97581
41.5977 63.795 3.978
39.6471 65.5923 3.97458
37.5639 67.7346 3.97748
31.6989 65.1103 3.97351
33.3939 67.4734 3.97793
35.3344 69.9528 3.984
37.526 70.0436 2
37.5092 72.4563 3.99186
39.7015 70.0175 0.0159662
39.817 72.4022 2
39.9526 74.9197 4
42.1086 72.2053 0.00886651
42.3947 74.6792 2
44.8159 74.2794 0
41.7363 4.97151 3.9876
43.8518 5.36247 2
44.3267 3.11189 3.99196
46.5718 3.64898 2
47.2057 1.27793 4
48.7847 4.32441 0.00960837
49.554 1.99013 2
51.8506 2.85458 0
58.2293 42.802 0.0241514
59.5641 39.8019 0.0232467
61.4481 37.4476 0.0231454
59.0521 37.5671 2
57.1501 40.5786 2
53.9356 39.6348 2
55.861 37.8735 3.97713
48.275 41.1839 3.96832
51.8293 39.2488 3.97986
39.4435 6.80889 3.98235
59.1944 35.1671 0.0234446
57.1951 32.3986 0.0246021
55.7746 29.5533 0.0243916
55.1254 19.3507 0.038178
54.6012 21.786 0.0391478
54.3864 24.32 0.0277309
54.7364 26.8848 0.0249933
52.9637 18.8478 0.0345565
51.1973 18.2573 0.041459
50.5554 16.2604 0.0386424
45.9619 5.88745 0.0133896
49.6722 13.817 0.032036
47.3525 8.6362 0.0214808
48.5859 11.3362 0.0284886
43.3738 7.48275 0.0179346
56.5099 34.8294 2
41.4004 7.08593 2
45.3594 8.00118 2
42.866 9.43089 2
54.8155 31.7012 2
53.6762 28.6734 2
53.7145 20.3407 2
53.1137 22.9821 2
53.1158 25.8008 2
46.6609 10.6735 2
47.7133 13.1476 2
51.4862 19.5426 2
49.8968 17.8336 2
48.865 15.5112 2
53.7555 34.0415 3.97499
52.4925 30.7691 3.97502
51.7941 27.536 3.9747
51.6226 24.4271 3.97537
52.0996 21.2992 3.98111
41.0131 9.05946 3.97628
44.7274 10.0041 3.98627
42.4541 10.9176 4.00673
45.973 12.7505 3.96539
47.6299 14.6723 3.96628
48.011 17.0769 3.96542
49.701 19.9413 3.98477
49.559 61.7113 0.0256007
50.478 59.2391 0.0342834
54.5374 41.6025 0.0262416
53.216 45.2945 0.0260459
52.5753 49.0804 0.0299457
51.9686 56.3649 0.0366519
52.1846 52.6614 0.0409528
48.7866 60.1563 2
51.2639 42.4894 2
49.6408 57.5304 2
50.2624 54.2827 2
50.8859 46.9854 2
50.6083 50.7274 2
46.9751 43.5142 2
47.896 58.666 3.99045
48.9639 45.0213 3.982
48.379 55.8083 3.95527
48.6968 52.4235 3.97799
48.9425 48.7969 3.96967
44.6716 39.7359 3.83539
45.1961 42.4048 3.87934
45.501 45.4511 3.98303
42.5333 40.9679 3.6265
41.4034 41.6577 3.42433
47.2968 60.9707 0.00697367
46.5671 59.76 2
45.406 58.7508 3.99555
39.6327 67.7535 0.0209441
41.5464 65.6273 0.0249853
43.142 63.6936 0.0214095
44.4692 61.7868 0.0214033
45.7321 60.5869 0.00644456
41.5983 63.7908 2
37.5645 67.7372 2
39.6493 65.5928 2
44.5906 60.2435 2
42.9369 62.0457 2
41.7438 62.4511 3.97714
42.453 59.9393 3.98617
39.8936 63.5281 3.97694
37.6418 65.4886 3.97396
35.4644 67.6448 3.97748
33.5767 65.3211 3.97418
31.9623 63.2646 3.97779
29.8875 64.6982 3.97907
31.6983 65.1098 2
31.3794 67.1839 3.97829
33.3931 67.475 2
33.1583 69.7464 3.98397
35.3337 69.9544 2
35.1963 72.3712 3.992
37.526 70.0417 0.0164315
37.5096 72.4569 2
37.5 75 4
39.8162 72.4022 0.0086483
39.9526 74.9197 2
42.3947 74.6792 0
39.6246 4.71904 3.98855
41.7365 4.97146 2
42.0633 2.71885 3.99245
43.8513 5.36386 0.0139801
44.327 3.11125 2
44.8158 0.721173 4
46.5709 3.64902 0.00887784
47.2057 1.27779 2
49.554 1.99015 0
57.145 40.5773 0.0226115
59.0512 37.567 0.0226022
53.9371 39.6269 0.0245381
48.299 41.1978 2
55.8658 37.8727 2
51.8243 39.2235 2
52.6846 36.6163 3.97705
46.2055 40.2638 3.88873
49.2022 38.4927 3.97926
37.5175 6.67742 3.98489
39.4444 6.80811 2
39.2111 8.7029 3.98023
35.9435 8.49921 3.98223
56.5062 34.8321 0.0230129
54.8135 31.7005 0.024883
53.678 28.6699 0.0234093
53.7134 20.334 0.0363218
53.1313 22.9773 0.0374729
53.1158 25.8021 0.0258967
51.4799 19.5452 0.0157484
49.9003 17.8305 0.0409875
48.8655 15.4864 0.0323769
45.3591 8.002 0.0134755
47.711 13.1488 0.0299514
46.6601 10.6784 0.0223387
41.4 7.08541 0.0173434
42.8661 9.43154 0.0277845
53.7506 34.0316 2
41.0139 9.06196 2
44.7258 10.0033 2
42.4563 10.9212 2
52.483 30.7671 2
51.8072 27.5356 2
52.1006 21.3043 2
51.604 24.4284 2
45.9761 12.7465 2
47.6236 14.6447 2
49.7168 19.9599 2
48.007 17.0817 2
51.2243 32.989 3.98005
50.324 29.5009 3.97609
50.1052 26.0256 3.97051
49.6613 22.5485 3.98302
40.5583 11.6202 3.98541
43.8275 11.9152 3.96853
45.7507 15.5377 3.99065
47.4064 19.5646 3.98162
45.1105 37.4862 3.83731
48.7886 60.1602 0.0130494
49.6424 57.5321 0.0360812
51.2515 42.4706 0.0165344
50.8837 46.985 0.0240263
50.6032 50.7275 0.0464229
50.2597 54.2792 0.0391459
46.9656 43.4748 0.0317401
47.8915 58.6709 2
48.9795 45.0335 2
48.3757 55.81 2
48.6994 52.4292 2
48.9477 48.8 2
44.7877 39.7631 2
45.2264 42.4251 2
45.5108 45.4719 2
42.5987 41.0253 2
41.446 41.683 2
46.7089 57.2695 3.98353
43.2179 39.3488 3.61979
41.788 40.6229 3.4158
47.1865 47.0376 3.98338
46.8791 54.1033 3.95928
47.0543 50.5603 3.97729
44.1 47.0812 3.98759
43.8519 41.7557 3.83603
44.0112 44.191 3.86855
41.666 42.3104 3.6778
40.4817 41.9422 3.37548
46.5698 59.757 0.00675975
45.4047 58.7502 2
43.8132 57.6213 3.98265
37.5639 67.7346 0.0225246
39.6471 65.5923 0.0254237
41.5977 63.795 0.021997
42.939 62.044 0.0241902
44.5891 60.2411 0.00632304
35.4642 67.6473 2
41.7414 62.4547 2
39.8927 63.529 2
37.6432 65.4919 2
42.4553 59.9397 2
40.6139 61.5916 3.98503
40.4173 58.1106 3.98573
37.8372 63.1847 3.97244
35.5731 65.4122 3.97615
33.5766 65.3211 2
31.9648 63.267 2
33.6305 63.3125 3.97724
30.383 62.8283 3.98177
32.1338 61.9675 3.98814
26.8897 61.4353 3.98518
28.0704 64.1265 3.9816
29.8875 64.6976 2
29.4097 66.7475 3.97766
31.6989 65.1103 0.0264862
31.3786 67.1842 2
31.0163 69.4118 3.98353
33.3939 67.4734 0.0220741
33.1571 69.7477 2
32.8945 72.1456 3.99135
35.3344 69.9528 0.0160044
35.1958 72.372 2
35.0474 74.9194 4
37.5092 72.4563 0.00813936
37.5 75 2
39.9526 74.9197 0
35.6219 6.72932 3.98337
37.5245 4.61797 3.98921
39.6246 4.71813 2
39.7899 2.4754 3.99266
41.7363 4.97151 0.0124013
42.0632 2.71874 2
42.3946 0.32156 4
44.3267 3.11189 0.00804136
44.8159 0.72056 2
47.2057 1.27793 0
48.275 41.1839 0.0316795
55.861 37.8735 0.0228667
51.8293 39.2488 0.020136
46.2284 40.2704 2
49.2025 38.4798 2
52.7151 36.6359 2
50.0143 35.5505 3.97601
46.8476 37.736 3.8861
44.7006 35.2185 3.83643
42.5835 33.9733 3.62617
41.4425 33.2811 3.42332
37.459 8.53767 3.98396
37.5184 6.67762 2
39.4435 6.80889 0.0176493
39.2127 8.70212 2
38.9734 10.1393 3.98868
35.8992 9.78235 3.98045
34.1536 8.83164 3.98003
35.9449 8.49791 2
53.7555 34.0415 0.0250097
52.4925 30.7691 0.0249821
51.7941 27.536 0.0252983
52.0996 21.2992 0.0188888
51.6226 24.4271 0.0246319
49.701 19.9413 0.0152346
48.011 17.0769 0.0345763
47.6299 14.6723 0.0337215
44.7274 10.0041 0.0137339
45.973 12.7505 0.034609
41.0131 9.05946 0.0237222
42.4541 10.9176 -0.00672986
51.2367 32.979 2
40.5637 11.6272 2
43.8289 11.91 2
50.3363 29.5031 2
50.1044 26.0378 2
49.644 22.5112 2
45.7352 15.4689 2
47.4167 19.6009 2
48.818 31.5778 3.98359
48.4523 27.7974 3.97439
48.8923 24.66 3.98067
47.0081 22.3482 3.99264
38.2973 12.7607 3.97814
42.0742 14.3573 3.98356
44.7266 18.6608 3.97637
43.6162 37.4785 3.63566
45.2121 37.4813 2
47.896 58.666 0.00955205
48.379 55.8083 0.0447292
48.9639 45.0213 0.0180046
48.9425 48.7969 0.0303263
48.6968 52.4235 0.0220145
44.6716 39.7359 0.164613
45.1961 42.4048 0.120656
45.501 45.4511 0.016971
42.5333 40.9679 0.373498
41.4034 41.6577 0.575672
46.7059 57.2755 2
43.3011 39.3728 2
41.8029 40.6353 2
47.1945 47.0392 2
46.874 54.1073 2
47.0565 50.5721 2
44.14 47.0863 2
43.9225 41.7995 2
44.0682 44.2227 2
41.716 42.3852 2
40.5222 41.9623 2
45.2321 55.8353 4.00109
42.1271 39.1468 3.42602
40.3675 40.5172 3.51555
45.4497 48.683 4.00203
45.1403 52.3549 3.98813
42.8884 48.066 3.99082
42.7522 45.7073 3.86887
42.832 43.5146 3.82458
40.6603 43.2595 3.64293
39.149 42.2062 3.4452
45.406 58.7508 0.00445039
43.8102 57.6333 2
42.0334 56.1888 3.99089
35.4644 67.6448 0.0225188
37.6418 65.4886 0.0260449
39.8936 63.5281 0.0230616
41.7438 62.4511 0.022859
42.453 59.9393 0.0138323
35.5742 65.4161 2
40.613 61.5902 2
37.8376 63.183 2
40.4163 58.1177 2
38.8987 56.3246 3.99506
38.2429 60.2737 3.9842
35.6075 63.1793 3.97211
33.5767 65.3211 0.0258186
31.9623 63.2646 0.0222076
33.6333 63.315 2
30.3848 62.8308 2
32.1364 61.9696 2
28.6911 62.1678 3.98027
33.3523 61.4749 3.9817
31.0868 61.197 3.9912
27.6135 59.5322 3.97822
23.8526 58.9991 3.98822
25.0646 60.7999 3.97773
26.8907 61.438 2
26.2414 63.4566 3.97394
28.0697 64.1242 2
27.4672 66.1669 3.97631
29.8875 64.6982 0.0209312
29.4084 66.7448 2
28.9088 68.9373 3.98237
31.3794 67.1839 0.0217065
31.0148 69.4117 2
30.6176 71.7771 3.99054
33.1583 69.7464 0.016025
32.8933 72.1461 2
32.6054 74.6784 4
35.1963 72.3712 0.00800045
35.0474 74.9197 2
37.5 75 0
33.725 6.98573 3.98197
35.4367 4.68799 3.98857
35.6228 6.72874 2
37.5158 2.38786 3.99283
37.5246 4.61761 2
39.6246 4.71904 0.0114501
39.7896 2.47491 2
39.9526 0.0806499 4
42.0633 2.71885 0.0075461
42.3947 0.320817 2
44.8158 0.721173 0
43.2441 35.6023 3.6263
41.8173 34.3107 3.39954
46.2055 40.2638 0.111266
49.2022 38.4927 0.0207429
52.6846 36.6163 0.0229495
46.846 37.7198 2
50.028 35.5548 2
44.7973 35.2003 2
42.6376 33.9136 2
41.4705 33.2564 2
47.0806 34.3995 3.93525
43.9074 33.1926 3.8302
41.7219 32.6319 3.6747
40.5089 33.007 3.37481
37.3103 10.6352 3.98127
37.4607 8.53894 2
37.5175 6.67742 0.0151052
39.2111 8.7029 0.0197684
38.9785 10.1394 2
34.7566 10.3935 3.97759
35.9035 9.77875 2
32.3812 9.37949 3.97551
34.1534 8.82815 2
35.9435 8.49921 0.0177703
51.2243 32.989 0.019948
50.324 29.5009 0.0239069
50.1052 26.0256 0.0294937
49.6613 22.5485 0.0169819
47.4064 19.5646 0.0183803
45.7507 15.5377 0.00935125
43.8275 11.9152 0.0314746
40.5583 11.6202 0.0145852
48.835 31.5596 2
38.3005 12.7571 2
42.0815 14.3702 2
48.4487 27.7965 2
48.8897 24.6646 2
46.9967 22.3475 2
44.7393 18.7319 2
46.7707 29.8036 3.98158
46.5778 25.372 3.97742
44.1773 21.6722 3.98353
36.587 12.9764 3.9759
38.6728 14.8816 3.97715
41.7027 17.9887 3.97927
42.301 37.4544 3.45944
43.6872 37.4799 2
45.1105 37.4862 0.162687
46.7089 57.2695 0.0164677
46.8791 54.1033 0.0407215
47.1865 47.0376 0.0166153
47.0543 50.5603 0.0227057
43.2179 39.3488 0.380213
43.8519 41.7557 0.163973
44.0112 44.191 0.131452
44.1 47.0812 0.0124122
41.666 42.3104 0.322201
41.788 40.6229 0.584203
40.4817 41.9422 0.624518
45.2288 55.8397 2
42.1387 39.1549 2
40.4244 40.507 2
45.4512 48.7049 2
45.1354 52.3575 2
42.9248 48.0849 2
42.8183 45.7682 2
42.8729 43.5484 2
40.715 43.3378 2
39.1375 42.231 2
43.5506 54.2818 4.001
40.4562 38.9913 3.54188
39.045 40.6015 3.4886
43.2062 50.1626 4.00314
41.5504 47.2027 3.91951
41.4617 44.8006 3.82835
39.3614 43.9101 3.61446
37.5099 42.3416 3.49936
43.8132 57.6213 0.0173477
42.0408 56.1762 2
40.3439 54.7462 3.99435
35.5731 65.4122 0.0238492
37.8372 63.1847 0.0275552
40.6139 61.5916 0.0149745
40.4173 58.1106 0.0142732
35.6094 63.1755 2
38.2396 60.2722 2
38.9015 56.306 2
37.9728 55.0045 3.99519
36.9216 57.527 3.99247
35.3657 60.8743 3.98359
33.6305 63.3125 0.022759
30.383 62.8283 0.0182331
32.1338 61.9675 0.0118594
33.3544 61.4745 2
28.6922 62.1728 2
31.0891 61.2015 2
29.4358 60.2568 3.98065
32.3702 59.6689 3.99573
28.0922 58.3221 4.01737
27.6143 59.5313 2
25.4425 58.5225 3.97797
22.8476 58.154 3.97057
23.4374 60.266 3.97546
23.854 58.9996 2
25.066 60.8001 2
24.4493 62.7295 3.97586
26.8897 61.4353 0.0148232
26.2415 63.4546 2
25.5524 65.4767 3.9759
28.0704 64.1265 0.0184047
27.4667 66.1679 2
26.839 68.3231 3.98106
29.4097 66.7475 0.0223374
28.9077 68.9358 2
28.3729 71.2627 3.98965
31.0163 69.4118 0.0164656
30.616 71.7768 2
30.1842 74.2788 4
32.8945 72.1456 0.00865274
32.6053 74.6792 2
35.0474 74.9194 0
31.7895 7.426 3.97986
33.3493 4.92788 3.98739
33.7252 6.98376 2
35.2463 2.46365 3.99289
35.4365 4.68777 2
35.6219 6.72932 0.0166255
37.5 0 4
37.5151 2.38763 2
37.5245 4.61797 0.0107854
39.7899 2.4754 0.00733902
39.9526 0.0802889 2
42.3946 0.32156 0
42.1227 35.7594 3.39849
43.3365 35.5769 2
40.4199 34.4125 3.51881
41.8218 34.2933 2
46.8476 37.736 0.113901
50.0143 35.5505 0.0239874
44.7006 35.2185 0.163574
42.5835 33.9733 0.373825
41.4425 33.2811 0.576679
47.1134 34.4091 2
43.9646 33.1444 2
41.7728 32.5592 2
40.5443 32.9876 2
45.227 31.8419 3.89091
42.8905 31.4307 3.81619
40.7074 31.6855 3.64405
39.1607 32.7609 3.44176
35.6975 11.7925 3.97478
37.317 10.6365 2
37.459 8.53767 0.0160382
38.9734 10.1393 0.011319
33.1028 11.2339 3.9722
34.7582 10.3861 2
35.8992 9.78235 0.0195517
30.4874 10.0317 3.9761
32.3807 9.37838 2
34.1536 8.83164 0.0199704
48.818 31.5778 0.0164149
48.4523 27.7974 0.0256051
48.8923 24.66 0.0193289
47.0081 22.3482 0.00735638
44.7266 18.6608 0.0236332
42.0742 14.3573 0.0164353
38.2973 12.7607 0.0218561
36.5846 12.9561 2
46.7621 29.7454 2
38.6728 14.8647 2
41.6992 17.9903 2
46.58 25.3571 2
44.1563 21.6494 2
44.7934 27.9436 3.99327
43.4759 24.3094 4.02242
41.2587 21.0142 3.99448
35.7705 14.8172 3.98228
38.6471 17.7204 3.98606
40.5116 37.4268 3.5638
42.3184 37.4595 2
43.6162 37.4785 0.364342
45.2321 55.8353 -0.0010904
45.1403 52.3549 0.0118738
45.4497 48.683 -0.00202713
42.1271 39.1468 0.573982
42.832 43.5146 0.175425
42.7522 45.7073 0.131127
42.8884 48.066 0.00918013
40.6603 43.2595 0.357066
40.3675 40.5172 0.484455
39.149 42.2062 0.554798
43.5465 54.2758 2
40.4819 38.9934 2
39.0375 40.602 2
43.1979 50.1816 2
41.5446 47.2319 2
41.4913 44.8449 2
37.5047 42.3654 2
39.3793 43.9869 2
41.7032 52.732 4.00018
39.0547 39.0445 3.4865
37.5083 40.6506 3.53739
35.8732 42.2165 3.4412
40.7213 49.2993 3.9921
39.6591 45.4929 3.79075
37.5038 44.186 3.65894
42.0334 56.1888 0.00910805
40.3461 54.7541 2
38.7081 53.511 3.99679
35.6075 63.1793 0.0278897
38.2429 60.2737 0.0158017
38.8987 56.3246 0.00494407
35.3644 60.8592 2
36.9231 57.5371 2
37.9672 54.9976 2
36.311 55.0958 3.99832
34.4946 58.4529 3.99442
33.3523 61.4749 0.018295
28.6911 62.1678 0.0197289
31.0868 61.197 0.00879672
32.3686 59.673 2
29.4373 60.2581 2
30.3554 57.7584 3.9911
28.0941 58.3202 2
27.0774 56.7614 3.96923
27.6135 59.5322 0.0217809
25.4441 58.5227 2
23.9954 56.7055 3.96004
21.4912 57.2874 3.95758
22.0412 59.5423 3.97761
22.8488 58.1553 2
22.7585 61.9601 3.97273
23.4387 60.2664 2
23.8526 58.9991 0.0117806
25.0646 60.7999 0.0222674
24.4498 62.7298 2
23.689 64.689 3.97313
26.2414 63.4566 0.0260609
25.5525 65.4782 2
24.8114 67.5846 3.98003
27.4672 66.1669 0.0236884
26.8375 68.325 2
26.1684 70.6028 3.98883
28.9088 68.9373 0.0176251
28.3713 71.2618 2
27.7943 73.7221 4
30.6176 71.7771 0.00945934
30.1841 74.2794 2
32.6054 74.6784 0
29.8125 8.00294 3.97784
31.2546 5.33504 3.9861
31.7893 7.42467 2
32.9824 2.70188 3.99235
33.3487 4.92688 2
33.725 6.98573 0.0180268
35.0474 0.080333 4
35.2454 2.46367 2
35.4367 4.68799 0.0114252
37.5 0 2
37.5158 2.38786 0.00717274
39.9526 0.0806499 0
40.5353 35.8996 3.55584
42.1413 35.7585 2
43.2441 35.6023 0.373699
28.5481 10.7061 3.97669
39.0567 34.3677 3.48151
40.4338 34.4136 2
41.8173 34.3107 0.600456
47.0806 34.3995 0.0647512
43.9074 33.1926 0.169801
41.7219 32.6319 0.325298
40.5089 33.007 0.625193
45.2575 31.8264 2
42.9338 31.3921 2
40.7579 31.6072 2
39.1575 32.7316 2
43.6626 30.0974 3.87648
41.4897 30.1365 3.82837
39.3825 31.0443 3.6156
37.5303 32.6369 3.49711
34.1025 12.9576 3.97513
35.6989 11.7807 2
37.3103 10.6352 0.0187348
31.1933 12.0048 3.97725
33.105 11.2316 2
34.7566 10.3935 0.022406
30.4849 10.0268 2
32.3812 9.37949 0.0244895
46.7707 29.8036 0.0184151
46.5778 25.372 0.0225805
36.587 12.9764 0.0241023
44.1773 21.6722 0.0164664
41.7027 17.9887 0.0207269
38.6728 14.8816 0.0228491
35.7732 14.821 2
44.7899 27.9476 2
38.6505 17.7159 2
41.2436 20.994 2
43.4662 24.2878 2
33.6218 15.9163 3.99101
42.6139 26.7678 3.97738
40.7662 23.64 3.99395
38.372 20.5117 3.99322
35.8426 17.5959 3.98663
39.0762 37.4836 3.49033
40.5268 37.4336 2
42.301 37.4544 0.540561
43.5506 54.2818 -0.00100324
43.2062 50.1626 -0.00313821
40.4562 38.9913 0.45812
41.4617 44.8006 0.171651
41.5504 47.2027 0.0804949
39.3614 43.9101 0.385535
39.045 40.6015 0.511403
37.5099 42.3416 0.500644
41.6886 52.7277 2
39.0422 39.0342 2
37.5017 40.6472 2
40.703 49.3074 2
35.8809 42.2401 2
39.6835 45.5603 2
37.5013 44.2678 2
39.6998 51.5037 4.00057
37.5132 39.0427 3.53417
35.9836 40.6186 3.4894
34.5347 41.9636 3.37686
35.6492 43.928 3.61201
38.6351 48.1529 3.92762
37.5274 45.7899 3.82555
40.3439 54.7462 0.00564688
38.7062 53.524 2
36.7763 52.8599 3.99702
35.3657 60.8743 0.0164125
36.9216 57.527 0.00753443
37.9728 55.0045 0.00480785
34.493 58.4619 2
36.3131 55.0864 2
33.2872 55.2931 3.99338
32.3702 59.6689 0.0042667
29.4358 60.2568 0.0193509
30.3567 57.7548 2
28.8828 55.2672 3.99309
28.0922 58.3221 -0.0173708
27.0797 56.7595 2
25.5505 55.0343 3.9543
22.0813 55.2065 3.9605
25.4425 58.5225 0.0220265
23.9973 56.7069 2
20.3733 56.9169 3.96237
20.7135 58.6927 3.96197
21.4933 57.2892 2
21.1952 61.0926 3.97243
22.042 59.543 2
22.8476 58.154 0.0294266
21.9064 63.8007 3.97296
22.7595 61.9615 2
23.4374 60.266 0.0245399
24.4493 62.7295 0.024144
23.6891 64.6911 2
22.8399 66.7269 3.97705
25.5524 65.4767 0.0241031
24.8099 67.5849 2
24.0128 69.8046 3.98855
26.839 68.3231 0.0189426
26.166 70.603 2
25.446 73.0099 4
28.3729 71.2627 0.0103546
27.7943 73.7222 2
30.1842 74.2788 0
27.8225 8.66298 3.97857
29.1569 5.88232 3.98383
29.8111 7.99925 2
30.728 3.09882 3.99191
31.2538 5.33375 2
31.7895 7.426 0.0201414
32.6053 0.320823 4
32.9811 2.70165 2
33.3493 4.92788 0.0126121
35.0474 0.0802903 2
35.2463 2.46365 0.00710903
37.5 0 0
39.0155 35.9282 3.49917
40.5161 35.8966 2
42.1227 35.7594 0.601507
28.5455 10.7029 2
26.6287 11.4055 3.97621
29.2344 12.6552 3.9809
37.533 34.3324 3.53764
39.0805 34.3818 2
40.4199 34.4125 0.481193
45.227 31.8419 0.109091
42.8905 31.4307 0.183808
40.7074 31.6855 0.355949
39.1607 32.7609 0.558242
43.6896 30.0684 2
41.5268 30.0944 2
39.3957 30.9679 2
37.5351 32.6086 2
41.9057 28.8105 3.85846
39.6625 29.4475 3.81124
37.5257 30.7842 3.66151
35.888 32.7649 3.44786
31.9348 14.5017 3.98258
34.1033 12.9625 2
35.6975 11.7925 0.0252199
31.1933 11.9956 2
33.1028 11.2339 0.027801
30.4874 10.0317 0.0239002
44.7934 27.9436 0.00672683
43.4759 24.3094 -0.0224198
35.7705 14.8172 0.0177166
41.2587 21.0142 0.00552495
38.6471 17.7204 0.0139429
33.6118 15.9011 2
35.8376 17.5783 2
42.6831 26.7407 2
38.3597 20.553 2
40.7546 23.6337 2
33.5574 17.4606 3.98846
40.2087 26.1213 3.9658
38.0209 23.3826 3.99684
35.5359 20.2939 3.99645
37.5244 37.4789 3.55076
39.0538 37.4737 2
40.5116 37.4268 0.436204
41.7032 52.732 -0.000175885
40.7213 49.2993 0.00790234
39.0547 39.0445 0.513501
39.6591 45.4929 0.209254
37.5038 44.186 0.341063
37.5083 40.6506 0.462608
35.8732 42.2165 0.558798
39.6826 51.499 2
37.5117 39.0425 2
35.9776 40.604 2
38.6545 48.2156 2
34.5009 41.9832 2
35.6349 43.9977 2
37.5131 45.8482 2
37.6829 50.4723 3.99112
36.0094 39.0559 3.50044
34.6439 40.5477 3.52157
33.6049 41.6838 3.42691
34.3683 43.2801 3.63525
35.3056 45.5347 3.81491
36.9194 47.768 3.88939
38.7081 53.511 0.00320898
36.7736 52.8119 2
34.4921 52.1749 4.00111
34.4946 58.4529 0.00557635
36.311 55.0958 0.0016781
33.2885 55.2994 2
30.7324 53.2244 3.99955
30.3554 57.7584 0.00889746
28.8839 55.263 2
27.2056 53.3084 3.95608
27.0774 56.7614 0.0307688
25.553 55.0357 2
23.9539 53.31 3.95378
20.9347 53.0344 3.95858
20.1825 55.6963 3.96108
22.0805 55.2083 2
23.9954 56.7055 0.0399619
19.5427 57.7928 3.96108
20.3696 56.9197 2
19.7355 60.1266 3.97146
20.7089 58.696 2
21.4912 57.2874 0.0424189
20.2237 62.7998 3.97179
21.1967 61.0946 2
22.0412 59.5423 0.0223904
20.9422 65.7525 3.97408
21.9067 63.8051 2
22.7585 61.9601 0.0272703
23.689 64.689 0.0268664
22.8388 66.7263 2
21.9155 68.872 3.98755
24.8114 67.5846 0.0199731
24.0097 69.8033 2
23.1494 72.1454 4
26.1684 70.6028 0.0111675
25.446 73.0099 2
27.7943 73.7221 0
25.8624 9.39336 3.97664
27.0717 6.54698 3.98229
27.82 8.6607 2
28.4905 3.64478 3.99084
29.1554 5.88041 2
29.8125 8.00294 0.0221645
30.1841 0.720592 4
30.726 3.09866 2
31.2546 5.33504 0.013897
32.6053 0.320817 2
32.9824 2.70188 0.00765201
35.0474 0.080333 0
37.5186 35.9212 3.52615
38.9967 35.9098 2
40.5353 35.8996 0.444157
24.7877 12.0869 3.97533
23.7757 14.4285 3.97969
28.5481 10.7061 0.0233136
26.6245 11.4006 2
29.2341 12.6529 2
27.3019 13.3955 3.97458
29.8027 14.2125 3.98656
35.9865 34.3679 3.49318
37.5435 34.3321 2
39.0567 34.3677 0.518487
37.5303 32.6369 0.502887
43.6626 30.0974 0.123516
41.4897 30.1365 0.171632
39.3825 31.0443 0.384403
41.942 28.7365 2
39.6865 29.3839 2
37.5278 30.7082 2
35.8977 32.7412 2
39.8309 28.0738 3.86178
37.4981 29.1748 3.81602
35.677 31.0642 3.61754
34.5463 33.0236 3.3795
30.9583 16.8559 3.99784
31.9276 14.489 2
34.1025 12.9576 0.0248674
31.1933 12.0048 0.0227472
42.6139 26.7678 0.0226216
40.7662 23.64 0.00605026
33.6218 15.9163 0.00899004
35.8426 17.5959 0.0133666
38.372 20.5117 0.00678343
33.5464 17.4691 2
35.5403 20.3094 2
40.2598 26.0851 2
38.0206 23.3657 2
32.9238 19.8986 3.9965
37.6925 25.7519 3.96221
35.3026 23.0436 4.00762
35.9838 37.474 3.49381
37.5107 37.4782 2
39.0762 37.4836 0.509667
39.6998 51.5037 -0.000566049
38.6351 48.1529 0.0723849
37.5132 39.0427 0.465831
37.5274 45.7899 0.17445
35.6492 43.928 0.387987
35.9836 40.6186 0.510599
34.5347 41.9636 0.623139
37.6599 50.5132 2
36.0405 39.0429 2
34.5934 40.5523 2
36.92 47.8309 2
33.5629 41.7111 2
34.3084 43.3544 2
35.2845 45.5923 2
35.5705 49.6762 3.98248
34.5377 39.0446 3.55156
33.2257 40.657 3.40545
33.3407 42.3336 3.68202
33.5928 44.8123 3.81673
34.5701 46.9311 3.86289
36.7763 52.8599 0.00298435
34.4744 52.197 2
32.306 51.0018 3.99851
33.2872 55.2931 0.00661934
30.7364 53.2234 2
28.8249 51.3953 3.98113
28.8828 55.2672 0.00691478
27.2077 53.3081 2
25.5527 51.5422 3.95329
25.5505 55.0343 0.0457018
23.9565 53.3163 2
22.5153 51.5921 3.95404
19.8248 51.4173 3.96297
19.3077 54.143 3.96172
20.9398 53.0323 2
18.6407 56.6061 3.96241
20.1811 55.6981 2
22.0813 55.2065 0.039503
18.4146 59.035 3.96109
19.5414 57.795 2
20.3733 56.9169 0.0376346
18.6374 61.6988 3.97244
19.7359 60.1302 2
20.7135 58.6927 0.0380322
19.1335 64.6554 3.97293
20.2243 62.8038 2
21.1952 61.0926 0.0275737
19.8897 67.8075 3.9847
20.9412 65.7512 2
21.9064 63.8007 0.0270375
22.8399 66.7269 0.0229545
21.9118 68.8698 2
20.9142 71.1327 4
24.0128 69.8046 0.0114515
23.1494 72.1455 2
25.446 73.0099 0
23.1103 12.8406 3.97731
23.9752 10.181 3.97478
25.0253 7.3184 3.98019
25.8587 9.39117 2
26.2824 4.32904 3.98979
27.0693 6.5462 2
27.8225 8.66298 0.021426
27.7943 1.27781 4
28.4876 3.64504 2
29.1569 5.88232 0.0161668
30.1841 0.720551 2
30.728 3.09882 0.00808972
32.6053 0.320823 0
35.9801 35.9108 3.48896
37.5483 35.9309 2
39.0155 35.9282 0.500825
24.7817 12.1051 2
23.7754 14.4343 2
22.5153 15.1203 3.97734
25.3742 13.972 3.97258
24.0718 15.6858 3.99029
26.6287 11.4055 0.0237859
29.2344 12.6552 0.0191046
27.3067 13.3875 2
29.7948 14.2124 2
28.3973 15.9772 3.98991
34.6645 34.4431 3.51487
35.9923 34.3673 2
37.533 34.3324 0.462361
35.888 32.7649 0.552139
37.5257 30.7842 0.33849
41.9057 28.8105 0.141541
39.6625 29.4475 0.188757
39.8724 28.0233 2
37.498 29.1187 2
35.6604 30.9845 2
34.5066 33.0058 2
37.6223 27.8067 3.86506
35.369 29.4683 3.81055
34.3635 31.7065 3.64146
33.6169 33.3038 3.42476
30.2658 19.5094 3.97812
30.9441 16.8479 2
31.9348 14.5017 0.0174194
40.2087 26.1213 0.0341962
38.0209 23.3826 0.00315742
33.5574 17.4606 0.0115352
35.5359 20.2939 0.00355055
32.9286 19.9209 2
35.2792 23.0266 2
37.7136 25.7356 2
32.5142 22.6436 3.99909
35.1756 25.6431 3.98513
34.5084 37.5044 3.57211
35.981 37.4898 2
37.5244 37.4789 0.449245
37.6829 50.4723 0.00887741
36.9194 47.768 0.110605
36.0094 39.0559 0.499563
35.3056 45.5347 0.185092
34.3683 43.2801 0.364751
34.6439 40.5477 0.478426
33.6049 41.6838 0.573092
35.5549 49.6879 2
34.5233 39.0468 2
33.2129 40.6679 2
34.5193 46.997 2
33.2953 42.4086 2
33.5506 44.8591 2
33.4857 48.7958 3.9729
32.9024 39.1963 3.40417
32.4578 40.9952 3.62721
32.1698 43.5379 3.82275
32.8023 45.9302 3.86137
34.4921 52.1749 -0.00111092
32.3275 51.0011 2
30.3931 49.5306 4.00415
30.7324 53.2244 0.000447307
28.8304 51.4028 2
27.0953 49.7609 3.9742
27.2056 53.3084 0.0439213
25.5554 51.5443 2
23.9849 49.9452 3.96668
23.9539 53.31 0.0462219
22.5211 51.5887 2
21.1692 50.0723 3.9657
18.5844 50.1278 3.97195
18.3495 52.6043 3.96526
19.8175 51.4174 2
17.7551 55.1978 3.96258
19.3076 54.1427 2
20.9347 53.0344 0.0414159
17.2588 57.7832 3.96086
18.6394 56.6074 2
20.1825 55.6963 0.0389244
17.1505 60.4941 3.96385
18.4146 59.0365 2
19.5427 57.7928 0.0389179
17.4178 63.4285 3.96777
18.6387 61.7011 2
19.7355 60.1266 0.0285415
17.9456 66.6155 3.98242
19.1328 64.6558 2
20.2237 62.7998 0.0282141
18.75 69.9759 4
19.886 67.8042 2
20.9422 65.7525 0.0259218
21.9155 68.872 0.0124507
20.9142 71.1327 2
23.1494 72.1454 0
21.6082 13.678 3.97132
22.1967 11.0552 3.97079
23.109 12.841 2
23.0422 8.18554 3.97662
23.9738 10.1861 2
24.1203 5.14385 3.98946
25.0217 7.3174 2
25.8624 9.39336 0.0233628
25.446 1.99014 4
26.2787 4.33012 2
27.0717 6.54698 0.0177111
27.7943 1.27778 2
28.4905 3.64478 0.00915776
30.1841 0.720592 0
34.5822 35.9524 3.54212
35.9971 35.925 2
37.5186 35.9212 0.473852
21.3537 15.922 3.96684
24.7877 12.0869 0.024675
23.7757 14.4285 0.0203097
25.3735 13.9472 2
22.5145 15.1111 2
24.0762 15.6929 2
23.328 16.3283 3.9644
25.4298 16.1579 3.98792
27.3019 13.3955 0.0254212
29.8027 14.2125 0.013436
28.3886 15.9981 2
27.5038 18.941 3.982
33.2354 34.3378 3.41905
34.6077 34.4533 2
35.9865 34.3679 0.506823
34.5463 33.0236 0.6205
35.677 31.0642 0.38246
37.4981 29.1748 0.183978
39.8309 28.0738 0.138221
37.594 27.768 2
33.5812 33.2783 2
35.362 29.4025 2
34.3164 31.6303 2
35.2522 27.895 3.87729
33.5766 30.1615 3.82106
33.3502 32.6495 3.68032
29.8325 22.1201 4.00819
30.2686 19.5164 2
30.9583 16.8559 0.00216169
37.6925 25.7519 0.0377875
35.3026 23.0436 -0.00762075
32.9238 19.8986 0.00350346
32.5078 22.6216 2
35.1993 25.6344 2
32.1225 25.9309 4.00941
32.7227 37.4992 3.45549
34.5122 37.4968 2
35.9838 37.474 0.506189
35.5705 49.6762 0.0175181
34.5701 46.9311 0.137113
34.5377 39.0446 0.448439
33.5928 44.8123 0.183274
33.3407 42.3336 0.317983
33.2257 40.657 0.594553
33.4808 48.7892 2
32.9063 39.2054 2
32.4015 41.0506 2
32.7851 45.9848 2
32.1238 43.5731 2
31.7562 47.6292 3.98649
31.7942 39.3698 3.62669
31.1402 41.784 3.83141
31.2723 44.5694 3.86911
32.306 51.0018 0.00148773
30.3967 49.5643 2
28.5992 47.9321 3.97345
28.8249 51.3953 0.0188718
27.094 49.7635 2
25.428 48.1982 3.96933
25.5527 51.5422 0.0467126
23.991 49.9426 2
22.4765 48.5125 3.97183
22.5153 51.5921 0.0459559
21.1713 50.0706 2
19.7222 48.8639 3.97439
17.4532 49.1468 3.97582
17.2793 51.2312 3.97081
18.5857 50.1262 2
16.7779 53.7191 3.96638
18.3446 52.6048 2
19.8248 51.4173 0.037033
16.1871 56.3697 3.96188
17.7547 55.1983 2
19.3077 54.143 0.0382755
15.785 59.1577 3.95969
17.2533 57.7854 2
18.6407 56.6061 0.0375904
15.7933 62.0978 3.9707
17.1534 60.4953 2
18.4146 59.035 0.0389058
16.0923 65.2954 3.97851
17.4168 63.4323 2
18.6374 61.6988 0.0275558
16.6661 68.6801 4
17.9424 66.6113 2
19.1335 64.6554 0.0270705
18.75 69.9759 2
19.8897 67.8075 0.015299
20.9142 71.1327 0
20.2455 14.6767 3.97105
21.6074 13.6825 2
20.541 12.0528 3.97318
21.1453 9.15919 3.97502
22.1937 11.0598 2
23.1103 12.8406 0.0226863
22.0195 6.08229 3.98825
23.0394 8.18797 2
23.9752 10.181 0.0252213
23.1494 2.85457 4
24.1155 5.14535 2
25.0253 7.3184 0.0198076
25.446 1.99012 2
26.2824 4.32904 0.0102056
27.7943 1.27781 0
32.8904 35.8109 3.42686
34.55 35.9521 2
35.9801 35.9108 0.511041
21.358 15.9153 2
20.3814 17.0509 3.96331
22.1625 16.7235 3.96074
25.3742 13.972 0.027421
22.5153 15.1203 0.0226584
24.0718 15.6858 0.00971262
25.4322 16.158 2
23.3339 16.3241 2
24.2894 18.6131 3.97659
27.2706 21.737 3.99315
28.3973 15.9772 0.0100851
27.5026 18.9724 2
32.4895 33.9895 3.62245
33.2242 34.3237 2
34.6645 34.4431 0.485125
33.6169 33.3038 0.575235
34.3635 31.7065 0.35854
35.369 29.4683 0.189453
37.6223 27.8067 0.134936
35.2487 27.8496 2
33.2814 32.5776 2
33.5385 30.1158 2
33.0385 28.5337 3.88498
32.1694 31.4438 3.81368
29.2657 24.5995 4.01309
29.8094 22.1365 2
30.2658 19.5094 0.0218777
35.1756 25.6431 0.0148746
32.5142 22.6436 0.000909099
32.1105 25.9023 2
30.3212 27.6024 3.9765
31.4122 37.486 3.63188
32.7214 37.4991 2
34.5084 37.5044 0.427888
33.4857 48.7958 0.0270996
32.8023 45.9302 0.138628
32.9024 39.1963 0.595834
32.1698 43.5379 0.177254
32.4578 40.9952 0.372789
31.6975 47.6618 2
31.7059 39.3871 2
31.0785 41.8338 2
31.2213 44.6111 2
30.0452 46.241 3.98779
30.3317 39.7607 3.83884
29.8221 42.8804 3.8857
30.3931 49.5306 -0.00415297
28.5963 47.9354 2
26.8677 46.3614 3.9809
27.0953 49.7609 0.0257956
25.4283 48.1957 2
23.7502 46.7747 3.97369
23.9849 49.9452 0.0333151
22.4773 48.513 2
20.7547 47.3659 3.97599
21.1692 50.0723 0.0342984
19.7217 48.8624 2
18.312 47.9734 3.9766
16.6887 48.5093 3.97651
17.4521 49.1461 2
16.335 50.0086 3.97466
15.7774 52.2721 3.97077
17.2804 51.2303 2
18.5844 50.1278 0.0280498
15.1474 54.8629 3.96443
16.7776 53.719 2
18.3495 52.6043 0.0347432
14.5487 57.6802 3.95921
16.1869 56.3701 2
17.7551 55.1978 0.0374178
14.2749 60.6636 3.96508
15.7874 59.1583 2
17.2588 57.7832 0.039142
14.3372 63.8537 3.97652
15.7948 62.0991 2
17.1505 60.4941 0.0361457
14.6715 67.2507 4
16.0894 65.2913 2
17.4178 63.4285 0.0322275
16.6661 68.6801 2
17.9456 66.6155 0.0175819
18.75 69.9759 0
18.9734 15.8588 3.96857
20.2484 14.672 2
18.9954 13.1751 3.97082
21.6082 13.678 0.0286834
20.5389 12.052 2
19.347 10.2536 3.97276
19.9944 7.14799 3.98605
21.1423 9.16082 2
22.1967 11.0552 0.0292059
20.9142 3.86727 4
22.0143 6.08579 2
23.0422 8.18554 0.0233796
23.1494 2.85451 2
24.1203 5.14385 0.0105406
25.446 1.99014 0
31.8203 35.6171 3.6194
32.8888 35.8017 2
34.5822 35.9524 0.457882
21.3537 15.922 0.0331593
22.1666 16.717 2
20.3847 17.048 2
19.4225 18.5332 3.95894
21.867 17.9861 3.97931
25.4298 16.1579 0.0120786
23.328 16.3283 0.0356043
24.2794 18.6327 2
22.5143 20.0667 3.9762
24.8551 21.5869 3.98823
26.8947 23.888 3.9843
27.2686 21.6448 2
27.5038 18.941 0.0179954
31.1865 33.2041 3.83157
32.4372 33.9322 2
33.2354 34.3378 0.580949
33.3502 32.6495 0.319681
33.5766 30.1615 0.178937
35.2522 27.895 0.122708
33.0013 28.4987 2
32.1166 31.3938 2
30.9575 29.9066 3.90829
28.5955 26.778 4.00083
29.2543 24.6002 2
29.8325 22.1201 -0.00818619
32.1225 25.9309 -0.00941321
30.3122 27.5785 2
29.9094 37.4799 3.83789
31.3328 37.4838 2
32.7227 37.4992 0.544506
31.7562 47.6292 0.0135097
31.2723 44.5694 0.130886
31.7942 39.3698 0.373315
31.1402 41.784 0.168592
30.0465 46.2491 2
30.2412 39.7742 2
29.7908 42.9056 2
28.3623 44.5722 3.96645
28.0814 40.4644 3.9264
28.5992 47.9321 0.0265526
26.8659 46.362 2
25.0779 44.888 3.98051
25.428 48.1982 0.0306655
23.7483 46.7734 2
21.8033 45.6656 3.9777
22.4765 48.5125 0.0281722
20.7546 47.3648 2
19.0673 46.533 3.97609
19.7222 48.8639 0.0256099
18.312 47.9724 2
16.9423 47.537 3.97587
16.6895 48.5086 2
15.6889 48.8605 3.97553
17.4532 49.1468 0.0241827
16.3366 50.0078 2
14.8862 50.8527 3.97399
14.1114 53.3285 3.96795
15.7787 52.2714 2
17.2793 51.2312 0.0291888
13.4063 56.1005 3.96104
15.147 54.8628 2
16.7779 53.7191 0.0336192
12.8652 59.1041 3.96218
14.5501 57.6805 2
16.1871 56.3697 0.0381217
12.6833 62.2957 3.97324
14.2769 60.6643 2
15.785 59.1577 0.0403099
12.7746 65.6939 4
14.3347 63.849 2
15.7933 62.0978 0.029296
14.6714 67.2507 2
16.0923 65.2954 0.021486
16.6661 68.6801 0
17.7776 17.2513 3.9608
18.9747 15.8553 2
17.5326 14.4363 3.96901
20.2455 14.6767 0.0289452
18.9957 13.1769 2
17.647 11.4882 3.97302
20.541 12.0528 0.0268204
19.3437 10.2556 2
18.0544 8.34106 3.98356
18.75 5.0241 4
19.9887 7.15199 2
21.1453 9.15919 0.0249795
20.9142 3.86727 2
22.0195 6.08229 0.0117503
23.1494 2.85457 0
30.3532 35.2324 3.83624
31.7329 35.5943 2
32.8904 35.8109 0.573143
22.1625 16.7235 0.0392594
20.3814 17.0509 0.0366907
21.868 17.9821 2
19.4164 18.5269 2
18.2917 20.0948 3.96242
21.0913 19.5373 3.96794
24.2894 18.6131 0.0234131
22.5074 20.0683 2
24.8658 21.5661 2
22.7274 21.9209 3.97988
25.1875 23.2918 3.97732
26.209 26.156 3.97986
26.8968 23.8798 2
27.2706 21.737 0.00684964
29.5862 32.5592 3.88545
31.1068 33.1666 2
32.4895 33.9895 0.377549
32.1694 31.4438 0.18632
33.0385 28.5337 0.115018
30.9359 29.8939 2
27.9969 29.3739 4.01199
28.5817 26.7833 2
29.2657 24.5995 -0.0130947
30.3212 27.6024 0.0235001
28.259 37.3832 3.88159
29.8296 37.4814 2
31.4122 37.486 0.368125
30.0452 46.241 0.0122138
29.8221 42.8804 0.1143
30.3317 39.7607 0.161162
28.3594 44.6253 2
28.0462 40.4676 2
26.4761 42.9963 3.9811
25.3749 39.435 3.97573
26.8677 46.3614 0.019101
25.0677 44.8897 2
23.0074 43.7011 3.97536
23.7502 46.7747 0.0263122
21.7999 45.6669 2
19.8669 44.773 3.97558
20.7547 47.3659 0.0240061
19.0666 46.5335 2
17.3126 46.0391 3.97569
18.312 47.9734 0.0234003
16.9427 47.5367 2
15.4639 47.52 3.97551
16.6887 48.5093 0.0234917
15.6904 48.8597 2
14.2004 49.4205 3.97507
16.335 50.0086 0.0253426
14.8874 50.8519 2
13.1796 51.7774 3.97088
12.3062 54.4638 3.96325
14.1121 53.3279 2
15.7774 52.2721 0.0292344
11.567 57.4392 3.96106
13.4062 56.1005 2
15.1474 54.8629 0.035568
11.1395 60.6212 3.96785
12.8678 59.1035 2
14.5487 57.6802 0.0407899
10.9835 64.0165 4
12.6815 62.2907 2
14.2749 60.6636 0.0349167
12.7745 65.694 2
14.3372 63.8537 0.0234774
14.6715 67.2507 0
16.5996 18.7624 3.96124
17.7714 17.2459 2
16.1363 15.8396 3.96045
18.9734 15.8588 0.0314347
17.5336 14.4324 2
16.03 12.8524 3.96693
18.9954 13.1751 0.029176
17.644 11.496 2
16.2055 9.66611 3.98
19.347 10.2536 0.0272449
18.0493 8.34776 2
16.6661 6.31991 4
18.75 5.02404 2
19.9944 7.14799 0.0139538
20.9142 3.86727 0
28.7503 34.8717 3.89118
30.2518 35.1926 2
31.8203 35.6171 0.380604
17.0394 21.5305 3.96882
21.867 17.9861 0.0206947
19.4225 18.5332 0.041055
21.0824 19.5321 2
18.2913 20.0918 2
20.1454 21.7674 3.97238
22.5143 20.0667 0.023803
24.8551 21.5869 0.0117728
22.7282 21.9217 2
25.1725 23.328 2
23.5195 24.818 3.97184
25.5582 28.7459 3.98419
26.2001 26.1634 2
26.8947 23.888 0.0157004
27.4477 31.9169 3.98103
29.5453 32.5356 2
31.1865 33.2041 0.168435
30.9575 29.9066 0.0917098
28.0106 29.3448 2
28.5955 26.778 -0.000832831
26.0797 36.8583 3.97087
28.2338 37.3849 2
29.9094 37.4799 0.16211
28.3623 44.5722 0.0335482
28.0814 40.4644 0.0736039
26.4538 43.0213 2
25.3439 39.4371 2
24.2372 41.7124 3.97973
23.0849 38.5159 3.97651
25.0779 44.888 0.019493
23.0055 43.7028 2
20.7606 42.7328 3.9751
21.8033 45.6656 0.0223037
19.8678 44.7731 2
17.7322 44.2263 3.97531
19.0673 46.533 0.0239112
17.3126 46.0395 2
15.432 45.9519 3.97533
16.9423 47.537 0.0241312
15.4646 47.5196 2
13.7335 47.888 3.97548
15.6889 48.8605 0.0244731
14.2018 49.4197 2
12.4149 50.1626 3.97315
14.8862 50.8527 0.0260122
13.1807 51.7766 2
11.2997 52.78 3.96528
10.3761 55.6925 3.96215
12.3062 54.4633 2
14.1114 53.3285 0.0320531
9.70504 58.8455 3.97135
11.5714 57.4375 2
13.4063 56.1005 0.0389564
9.30605 62.2254 4
11.1381 60.6161 2
12.8652 59.1041 0.0378247
10.9835 64.0165 2
12.6833 62.2957 0.0267636
12.7746 65.6939 0
15.4059 20.3028 3.96446
16.6066 18.7614 2
14.8343 17.3693 3.96013
17.7776 17.2513 0.0392038
16.1379 15.8366 2
14.4905 14.3287 3.96787
17.5326 14.4363 0.0309867
16.0307 12.8481 2
14.4485 11.1193 3.97716
17.647 11.4882 0.0269838
16.201 9.673 2
14.6715 7.74927 4
18.0544 8.34106 0.0164445
16.6661 6.31988 2
18.75 5.0241 0
26.7071 34.3919 3.97293
28.7306 34.8783 2
30.3532 35.2324 0.163756
18.3187 22.5075 3.9752
15.9427 23.0718 3.97233
17.041 21.5293 2
21.0913 19.5373 0.0320566
18.2917 20.0948 0.0375751
20.1411 21.764 2
20.2877 24.6137 3.97201
22.7274 21.9209 0.0201178
25.1875 23.2918 0.0226831
23.5134 24.8169 2
22.9203 28.1 3.97118
25.0135 31.4376 3.9824
25.5645 28.7276 2
26.209 26.156 0.0201419
27.4164 31.8783 2
29.5862 32.5592 0.114549
27.9969 29.3739 -0.0119941
23.8238 36.3223 3.97762
26.0551 36.8517 2
28.259 37.3832 0.118406
26.4761 42.9963 0.0188952
25.3749 39.435 0.0242683
24.2141 41.7122 2
23.076 38.5161 2
21.8963 40.5615 3.97508
21.2198 37.7965 3.97739
23.0074 43.7011 0.0246379
20.7617 42.7317 2
18.2149 41.9895 3.97568
19.8669 44.773 0.0244171
17.7325 44.2266 2
15.4821 44.0798 3.97533
17.3126 46.0391 0.0243106
15.4318 45.952 2
13.4326 46.1871 3.97531
15.4639 47.52 0.0244877
13.7346 47.8875 2
11.805 48.4654 3.97493
14.2004 49.4205 0.0249291
12.4165 50.1616 2
10.4313 51.0287 3.96723
13.1796 51.7774 0.029124
11.3004 52.7792 2
9.28496 53.8741 3.96282
8.389 56.9803 3.97274
10.3783 55.6908 2
12.3062 54.4638 0.0367456
7.74927 60.3285 4
9.70381 58.8409 2
11.567 57.4392 0.0389445
9.306 62.2255 2
11.1395 60.6212 0.0321545
10.9835 64.0165 0
14.2436 21.8633 3.96824
15.4058 20.3008 2
13.5742 18.9682 3.9613
16.5996 18.7624 0.0387591
14.8348 17.3671 2
13.0393 15.9132 3.96649
16.1363 15.8396 0.0395508
14.4951 14.3259 2
12.7862 12.6934 3.9748
16.03 12.8524 0.0330725
14.4453 11.1269 2
12.7746 9.30605 4
16.2055 9.66611 0.019998
14.6715 7.74924 2
16.6661 6.31991 0
24.3804 33.9014 3.98093
26.6852 34.3913 2
28.7503 34.8717 0.108815
18.1966 24.2431 3.97321
18.3265 22.5076 2
14.7673 24.5962 3.9743
15.9431 23.0707 2
17.0394 21.5305 0.0311785
19.8479 27.4432 3.97354
20.1454 21.7674 0.0276192
20.2848 24.611 2
22.3076 30.8871 3.97415
23.5195 24.818 0.0281588
22.9202 28.102 2
24.9721 31.4453 2
25.5582 28.7459 0.0158112
27.4477 31.9169 0.0189725
21.3257 35.9692 3.97692
23.8178 36.3178 2
26.0797 36.8583 0.0291343
24.2372 41.7124 0.0202674
23.0849 38.5159 0.0234861
21.9007 40.5631 2
21.2235 37.797 2
18.9846 38.9731 3.97712
20.7606 42.7328 0.0249023
18.2147 41.9895 2
15.4661 41.8421 3.97592
17.7322 44.2263 0.0246918
15.4813 44.0798 2
13.1942 44.3042 3.97538
15.432 45.9519 0.0246658
13.4331 46.187 2
11.3194 46.6566 3.97572
13.7335 47.888 0.0245155
11.8071 48.4643 2
9.70319 49.193 3.96918
12.4149 50.1626 0.0268452
10.4326 51.0276 2
8.31243 51.9904 3.96346
11.2997 52.78 0.0347227
9.28498 53.8725 2
7.19797 55.0326 3.97377
6.31991 58.3339 4
8.38776 56.9759 2
10.3761 55.6925 0.037848
7.74924 60.3285 2
9.70504 58.8455 0.0286494
9.30605 62.2254 0
13.6234 25.484 3.97635
13.143 23.386 3.97193
14.2432 21.8618 2
12.3998 20.617 3.96371
15.4059 20.3028 0.035538
13.5741 18.9664 2
11.6753 17.5844 3.96188
14.8343 17.3693 0.0398718
13.0449 15.9107 2
11.2244 14.3809 3.9687
14.4905 14.3287 0.0321281
12.7846 12.7008 2
10.9835 10.9835 4
14.4485 11.1193 0.0228397
12.7745 9.306 2
14.6715 7.74927 0
21.6831 33.5327 3.97628
24.3834 33.8816 2
26.7071 34.3919 0.0270654
16.5188 26.583 3.97434
18.2007 24.2427 2
18.3187 22.5075 0.0247961
14.7662 24.5954 2
15.9427 23.0718 0.0276709
19.2504 30.3656 3.97449
19.8484 27.4444 2
20.2877 24.6137 0.0279909
22.3306 30.8865 2
22.9203 28.1 0.0288222
25.0135 31.4376 0.017602
18.5715 36.0098 3.9779
21.3266 35.971 2
23.8238 36.3223 0.022375
21.8963 40.5615 0.0249208
21.2198 37.7965 0.0226099
18.9849 38.9716 2
14.9531 39.1521 3.97699
18.2149 41.9895 0.0243209
15.4652 41.8415 2
12.8869 42.2187 3.97606
15.4821 44.0798 0.0246713
13.1943 44.3039 2
10.9044 44.7379 3.97564
13.4326 46.1871 0.024688
11.3219 46.6555 2
9.08718 47.2785 3.97117
11.805 48.4654 0.0250677
9.70507 49.1919 2
7.47277 50.0263 3.96388
10.4313 51.0287 0.0327657
8.31098 51.989 2
6.13854 53.0085 3.9738
9.28496 53.8741 0.0371799
7.1972 55.0287 2
5.0241 56.25 4
6.31988 58.3339 2
8.389 56.9803 0.0272573
7.74927 60.3285 0
13.9162 26.9403 3.97525
12.2494 24.8809 3.97484
13.6225 25.4833 2
11.3249 22.2975 3.96612
13.1441 23.3855 2
14.2436 21.8633 0.031755
12.3988 20.6156 2
10.4362 19.3393 3.96253
13.5742 18.9682 0.038703
11.6855 17.5854 2
9.76556 16.1631 3.97106
13.0393 15.9132 0.0335066
11.2243 14.3865 2
9.30607 12.7746 4
12.7862 12.6934 0.0252015
10.9835 10.9835 2
12.7746 9.30605 0
18.7381 33.2094 3.97582
21.679 33.5359 2
24.3804 33.9014 0.0190745
16.1476 29.7842 3.97513
16.5181 26.5825 2
18.1966 24.2431 0.0267864
14.7673 24.5962 0.0256979
19.2484 30.3656 2
19.8479 27.4432 0.0264642
22.3076 30.8871 0.0258462
15.5924 36.0449 3.97747
18.5708 36.0108 2
21.3257 35.9692 0.0230787
13.1161 37.8286 3.97711
18.9846 38.9731 0.0228824
14.9531 39.1521 2
12.3796 40.1102 3.97656
15.4661 41.8421 0.024076
12.8863 42.2181 2
10.5008 42.7333 3.9759
13.1942 44.3042 0.0246214
10.9067 44.737 2
8.55237 45.2896 3.97345
11.3194 46.6566 0.02428
9.0892 47.2774 2
6.75366 47.9941 3.96441
9.70319 49.193 0.0308223
7.47041 50.0252 2
5.21494 50.9119 3.97351
8.31243 51.9904 0.0365417
6.13824 53.0055 2
3.86727 54.0858 4
7.19797 55.0326 0.0262278
5.02404 56.25 2
6.31991 58.3339 0
13.3936 29.1351 3.97464
11.6979 26.5743 3.9754
13.9156 26.9402 2
10.3749 24.0214 3.96867
12.2523 24.881 2
13.6234 25.484 0.0236518
9.30044 21.1557 3.96337
11.3248 22.2969 2
13.143 23.386 0.0280684
12.3998 20.617 0.036286
10.4472 19.3412 2
8.42142 18.0318 3.97256
11.6753 17.5844 0.0381191
9.76491 16.1671 2
7.74928 14.6715 4
11.2244 14.3809 0.0313049
9.30602 12.7745 2
10.9835 10.9835 0
15.127 32.9362 3.97622
18.7375 33.2088 2
21.6831 33.5327 0.0237239
16.1473 29.7838 2
16.5188 26.583 0.0256607
19.2504 30.3656 0.0255078
13.4231 36.2253 3.97674
15.592 36.045 2
18.5715 36.0098 0.022101
13.1155 37.8286 2
11.6962 38.3038 3.97671
14.9531 39.1521 0.0230104
12.3793 40.1101 2
10.0724 40.7297 3.9764
12.8869 42.2187 0.0239369
10.5033 42.7328 2
8.08564 43.248 3.97446
10.9044 44.7379 0.0243564
8.55474 45.2886 2
6.14919 45.9014 3.96489
9.08718 47.2785 0.028828
6.75085 47.9932 2
4.42589 48.7522 3.9733
7.47277 50.0263 0.0361221
5.21504 50.9098 2
2.85457 51.8506 4
6.13854 53.0085 0.0261965
3.86727 54.0858 2
5.0241 56.25 0
12.5196 31.324 3.97578
11.1061 28.4888 3.97534
13.3934 29.1347 2
9.58924 25.8445 3.97031
11.7002 26.5743 2
13.9162 26.9403 0.0247528
8.27815 23.0358 3.96404
10.3772 24.0216 2
12.2494 24.8809 0.0251599
7.20382 19.9794 3.9737
9.30596 21.1573 2
11.3249 22.2975 0.033881
10.4362 19.3393 0.0374657
8.42077 18.0356 2
6.31992 16.6661 4
9.76556 16.1631 0.0289419
7.74926 14.6714 2
9.30607 12.7746 0
12.5548 34.3343 3.97657
15.1265 32.9369 2
18.7381 33.2094 0.0241796
16.1476 29.7842 0.0248683
11.2261 36.6233 3.97653
13.4225 36.2253 2
15.5924 36.0449 0.02253
13.1161 37.8286 0.0228895
11.6964 38.3035 2
9.64725 38.8156 3.97651
12.3796 40.1102 0.0234414
10.0745 40.7293 2
7.68739 41.1986 3.97457
10.5008 42.7333 0.0240994
8.08703 43.2472 2
5.6559 43.7655 3.96496
8.55237 45.2896 0.0265506
6.14593 45.9008 2
3.77114 46.5372 3.97323
6.75366 47.9941 0.0355885
4.42642 48.7508 2
1.99014 49.554 4
5.21494 50.9119 0.0264891
2.85451 51.8506 2
3.86727 54.0858 0
11.3118 32.9669 3.97638
10.4068 30.4364 3.97546
12.5192 31.3247 2
8.8873 27.7697 3.97154
11.1083 28.4891 2
13.3936 29.1351 0.025357
7.39224 24.991 3.96447
9.59181 25.845 2
11.6979 26.5743 0.0246009
6.12065 22.0013 3.9742
8.2795 23.037 2
10.3749 24.0214 0.0313257
5.02411 18.75 4
7.20341 19.9826 2
9.30044 21.1557 0.0366296
8.42142 18.0318 0.0274379
6.3199 16.6661 2
7.74928 14.6715 0
10.8048 35.0233 3.97633
12.5537 34.3342 2
15.127 32.9362 0.0237797
9.30003 36.9903 3.97647
11.2263 36.6234 2
13.4231 36.2253 0.0232587
11.6962 38.3038 0.0232865
9.6498 38.8151 2
7.35931 39.1772 3.9742
10.0724 40.7297 0.0235978
7.68992 41.1981 2
5.26813 41.6121 3.96529
8.08564 43.248 0.025536
5.65439 43.7651 2
3.24856 44.2816 3.97395
6.14919 45.9014 0.035105
3.77192 46.5363 2
1.27781 47.2057 4
4.42589 48.7522 0.0266982
1.99012 49.554 2
2.85457 51.8506 0
10.4322 33.9125 3.97604
9.67383 32.1926 3.97609
11.3123 32.9673 2
8.21662 29.7241 3.97288
10.409 30.4376 2
12.5196 31.324 0.0242241
6.62342 27.0141 3.96477
8.89036 27.7705 2
11.1061 28.4888 0.0246552
5.17556 24.0937 3.974
7.3905 24.9917 2
9.58924 25.8445 0.029688
3.86728 20.9142 4
6.12059 22.0036 2
8.27815 23.0358 0.0359644
5.02406 18.75 2
7.20382 19.9794 0.0262983
6.31992 16.6661 0
9.11099 35.2956 3.97657
10.8055 35.0234 2
12.5548 34.3343 0.0234273
7.13606 37.2076 3.97394
9.30289 36.99 2
11.2261 36.6233 0.0234701
9.64725 38.8156 0.0234921
7.3624 39.1771 2
4.99418 39.4667 3.96614
7.68739 41.1986 0.025432
5.26792 41.6119 2
2.85881 42.0017 3.97451
5.6559 43.7655 0.0350424
3.24915 44.2812 2
0.720592 44.8159 4
3.77114 46.5372 0.0267718
1.27778 47.2057 2
1.99014 49.554 0
9.14851 33.7233 3.97657
10.4337 33.9128 2
7.64282 31.6296 3.97326
9.67649 32.1933 2
11.3118 32.9669 0.0236225
5.95999 29.0735 3.96496
8.21877 29.7246 2
10.4068 30.4364 0.0245429
4.36268 26.2467 3.97364
6.62012 27.0145 2
8.8873 27.7697 0.0284572
2.85458 23.1494 4
5.17588 24.0952 2
7.39224 24.991 0.0355307
3.86728 20.9142 2
6.12065 22.0013 0.0257967
5.02411 18.75 0
7.08519 35.3135 3.97357
9.11449 35.2955 2
10.8048 35.0233 0.0236748
4.8442 37.3401 3.96672
7.13919 37.2076 2
9.30003 36.9903 0.0235284
7.35931 39.1772 0.0257993
4.99509 39.4665 2
2.60666 39.7135 3.97513
5.26813 41.6121 0.0347065
2.85963 42.0017 2
0.320823 42.3947 4
3.24856 44.2816 0.0260508
0.720551 44.8159 2
1.27781 47.2057 0
7.24857 33.4744 3.97344
9.15191 33.7236 2
10.4322 33.9125 0.0239629
5.42414 31.1364 3.96541
7.64444 31.6299 2
9.67383 32.1926 0.0239114
3.68389 28.4434 3.97373
5.95633 29.0737 2
8.21662 29.7241 0.0271227
1.99015 25.446 4
4.36327 26.2475 2
6.62342 27.0141 0.0352323
2.85453 23.1494 2
5.17556 24.0937 0.0259988
3.86728 20.9142 0
4.85831 35.2528 3.96661
7.08751 35.3137 2
9.11099 35.2956 0.0234283
2.49801 37.4282 3.97618
4.84442 37.3403 2
7.13606 37.2076 0.0260585
4.99418 39.4667 0.0338556
2.60744 39.7139 2
0.080333 39.9526 4
2.85881 42.0017 0.0254932
0.320817 42.3947 2
0.720592 44.8159 0
5.05177 33.1922 3.96614
7.25074 33.4746 2
9.14851 33.7233 0.0234256
3.14792 30.6666 3.97446
5.42336 31.1366 2
7.64282 31.6296 0.0267432
1.27793 27.7943 4
3.68476 28.4439 2
5.95999 29.0735 0.0350437
1.99013 25.446 2
4.36268 26.2467 0.0263633
2.85458 23.1494 0
2.55002 35.1591 3.976
4.85917 35.2531 2
7.08519 35.3135 0.0264281
0 37.5 4
2.49828 37.4287 2
4.8442 37.3401 0.033283
2.60666 39.7135 0.0248747
0.0802903 39.9526 2
0.320823 42.3947 0
2.76779 32.906 3.97579
5.05237 33.1926 2
7.24857 33.4744 0.0265556
0.721173 30.1842 4
3.1487 30.6669 2
5.42414 31.1364 0.0345879
1.27779 27.7943 2
3.68389 28.4434 0.0262696
1.99015 25.446 0
0.0806499 35.0474 4
2.55091 35.1595 2
4.85831 35.2528 0.0333891
0 37.5 2
2.49801 37.4282 0.0238224
0.080333 39.9526 0
0.32156 32.6054 4
2.76815 32.9065 2
5.05177 33.1922 0.0338564
0.72056 30.1841 2
3.14792 30.6666 0.0255428
1.27793 27.7943 0
0.0802889 35.0474 2
2.55002 35.1591 0.0240035
0 37.5 0
0.320817 32.6053 2
2.76779 32.906 0.0242128
0.721173 30.1842 0
0.0806499 35.0474 0
0.32156 32.6054 0
CELLS 1910 17190
8 18 6 25 56 2 0 5 16
8 57 23 6 18 17 4 0 2
8 78 36 9 29 31 11 1 7
8 31 11 1 7 79 37 10 30
8 110 57 18 50 48 17 2 14
8 50 18 56 111 14 2 16 49
8 116 62 22 55 52 20 3 15
8 56 25 67 118 16 5 24 53
8 119 63 23 57 54 21 4 17
8 55 22 63 119 15 3 21 54
8 58 26 68 121 18 6 25 56
8 122 65 26 58 57 23 6 18
8 73 31 7 27 142 79 30 71
8 143 78 29 72 73 31 7 27
8 83 147 76 34 32 74 28 8
8 84 148 78 36 33 75 29 9
8 76 34 8 28 148 84 33 75
8 37 79 150 86 10 30 77 35
8 151 87 36 78 80 38 11 31
8 80 38 11 31 152 88 37 79
8 175 100 42 94 96 44 12 40
8 44 96 176 101 12 40 95 43
8 101 176 98 46 43 95 41 13
8 46 98 178 103 13 41 97 45
8 178 103 45 97 147 83 32 74
8 189 116 55 109 106 52 15 47
8 111 56 118 191 49 16 53 107
8 192 119 57 110 108 54 17 48
8 109 55 119 192 47 15 54 108
8 194 122 58 112 110 57 18 50
8 112 58 121 195 50 18 56 111
8 115 61 19 51 197 124 59 113
8 115 61 125 198 51 19 60 114
8 198 125 62 116 114 60 20 52
8 200 127 64 120 116 62 22 55
8 118 67 132 202 53 24 66 117
8 121 68 133 203 56 25 67 118
8 120 64 128 204 55 22 63 119
8 204 128 65 122 119 63 23 57
8 206 134 68 121 123 69 26 58
8 123 69 26 58 207 131 65 122
8 226 147 74 138 140 76 28 70
8 229 148 75 139 143 78 29 72
8 140 76 28 70 229 148 75 139
8 142 79 30 71 231 150 77 141
8 144 80 31 73 232 152 79 142
8 233 151 78 143 144 80 31 73
8 150 86 35 77 235 154 81 145
8 235 154 81 145 146 82 39 91
8 146 82 39 91 236 155 90 165
8 238 157 83 147 149 85 34 76
8 239 158 84 148 151 87 36 78
8 149 85 34 76 239 158 84 148
8 152 88 37 79 241 160 86 150
8 242 161 87 151 153 89 38 80
8 153 89 38 80 243 162 88 152
8 171 98 41 92 265 178 97 169
8 265 178 97 169 226 147 74 138
8 172 96 40 93 266 176 95 170
8 266 176 95 170 171 98 41 92
8 269 175 94 173 172 96 40 93
8 271 180 99 174 175 100 42 94
8 197 124 59 113 271 180 99 174
8 272 181 100 175 177 102 44 96
8 273 182 101 176 179 104 46 98
8 177 102 44 96 273 182 101 176
8 179 104 46 98 275 184 103 178
8 275 184 103 178 238 157 83 147
8 188 115 51 105 283 197 113 186
8 188 115 198 284 105 51 114 187
8 284 198 116 189 187 114 52 106
8 286 200 120 193 189 116 55 109
8 191 118 202 288 107 53 117 190
8 195 121 203 289 111 56 118 191
8 193 120 204 290 109 55 119 192
8 290 204 122 194 192 119 57 110
8 196 123 58 112 292 207 122 194
8 293 206 121 195 196 123 58 112
8 199 126 61 115 297 211 124 197
8 298 212 127 200 198 125 62 116
8 199 126 212 298 115 61 125 198
8 205 129 64 120 300 214 127 200
8 301 217 130 201 202 132 66 117
8 209 136 168 264 301 217 130 201
8 302 219 132 202 203 133 67 118
8 303 220 133 203 206 134 68 121
8 205 129 215 304 120 64 128 204
8 304 215 131 207 204 128 65 122
8 306 221 134 206 208 135 69 123
8 208 135 69 123 307 218 131 207
8 210 137 167 263 309 223 136 209
8 328 238 147 226 230 149 76 140
8 228 146 91 166 329 236 165 260
8 231 150 77 141 330 235 145 227
8 330 235 145 227 228 146 91 166
8 332 239 148 229 233 151 78 143
8 230 149 76 140 332 239 148 229
8 232 152 79 142 334 241 150 231
8 234 153 80 144 335 243 152 232
8 336 242 151 233 234 153 80 144
8 236 155 90 165 338 245 164 259
8 241 160 86 150 339 246 154 235
8 339 246 154 235 237 156 82 146
8 237 156 82 146 340 247 155 236
8 342 249 157 238 240 159 85 149
8 343 250 158 239 242 161 87 151
8 240 159 85 149 343 250 158 239
8 243 162 88 152 345 252 160 241
8 244 163 253 346 153 89 161 242
8 244 163 89 153 347 254 162 243
8 311 224 261 371 210 137 167 263
8 263 167 262 372 209 136 168 264
8 267 179 98 171 375 275 178 265
8 375 275 178 265 328 238 147 226
8 376 273 176 266 267 179 98 171
8 268 177 96 172 376 273 176 266
8 379 272 175 269 268 177 96 172
8 380 271 174 270 269 175 94 173
8 283 197 113 186 380 271 174 270
8 381 277 180 271 272 181 100 175
8 297 211 124 197 381 277 180 271
8 382 278 181 272 274 183 102 177
8 274 183 102 177 383 279 182 273
8 383 279 182 273 276 185 104 179
8 385 281 184 275 342 249 157 238
8 276 185 104 179 385 281 184 275
8 285 199 115 188 393 297 197 283
8 394 298 200 286 284 198 116 189
8 285 199 298 394 188 115 198 284
8 291 205 120 193 396 300 200 286
8 397 301 201 287 288 202 117 190
8 295 209 264 374 397 301 201 287
8 398 302 202 288 289 203 118 191
8 399 303 203 289 293 206 121 195
8 291 205 304 400 193 120 204 290
8 400 304 207 292 290 204 122 194
8 294 208 123 196 402 307 207 292
8 403 306 206 293 294 208 123 196
8 296 210 263 373 405 309 209 295
8 408 312 213 299 297 211 126 199
8 299 213 313 409 199 126 212 298
8 409 313 214 300 298 212 127 200
8 305 216 129 205 411 315 214 300
8 412 318 217 301 302 219 132 202
8 309 223 136 209 412 318 217 301
8 413 320 219 302 303 220 133 203
8 306 221 321 414 206 134 220 303
8 307 218 131 207 415 316 215 304
8 305 216 316 415 205 129 215 304
8 417 322 221 306 308 222 135 208
8 308 222 135 208 418 319 218 307
8 310 225 137 210 420 325 223 309
8 423 326 224 311 310 225 137 210
8 329 236 165 260 441 338 259 368
8 442 342 238 328 333 240 149 230
8 331 237 146 228 443 340 236 329
8 334 241 150 231 444 339 235 330
8 444 339 235 330 331 237 146 228
8 446 343 239 332 336 242 151 233
8 333 240 149 230 446 343 239 332
8 335 243 152 232 448 345 241 334
8 337 244 153 234 449 347 243 335
8 337 244 346 450 234 153 242 336
8 338 245 164 259 452 349 258 367
8 340 247 155 236 453 350 245 338
8 345 252 160 241 454 351 246 339
8 454 351 246 339 341 248 156 237
8 341 248 156 237 455 352 247 340
8 240 159 251 344 342 249 354 457
8 242 161 253 346 343 250 355 458
8 343 250 355 458 240 159 251 344
8 347 254 162 243 460 357 252 345
8 348 255 358 461 244 163 253 346
8 348 255 163 244 462 359 254 347
8 473 360 257 365 363 256 364 482
8 452 349 258 367 365 257 366 485
8 422 324 369 488 311 224 261 371
8 371 261 370 490 263 167 262 372
8 407 311 371 491 296 210 263 373
8 373 263 372 492 295 209 264 374
8 493 385 275 375 442 342 238 328
8 377 276 179 267 493 385 275 375
8 378 274 177 268 494 383 273 376
8 494 383 273 376 377 276 179 267
8 497 382 272 379 378 274 177 268
8 498 381 271 380 379 272 175 269
8 393 297 197 283 498 381 271 380
8 499 387 277 381 382 278 181 272
8 408 312 211 297 499 387 277 381
8 500 388 278 382 384 280 183 274
8 501 389 279 383 386 282 185 276
8 384 280 183 274 501 389 279 383
8 386 282 185 276 503 391 281 385
8 503 391 281 385 457 354 249 342
8 511 408 299 395 393 297 199 285
8 395 299 409 512 285 199 298 394
8 512 409 300 396 394 298 200 286
8 401 305 205 291 514 411 300 396
8 515 412 301 397 398 302 202 288
8 405 309 209 295 515 412 301 397
8 516 413 302 398 399 303 203 289
8 403 306 414 517 293 206 303 399
8 402 307 207 292 518 415 304 400
8 401 305 415 518 291 205 304 400
8 404 308 208 294 520 418 307 402
8 521 417 306 403 404 308 208 294
8 406 310 210 296 523 420 309 405
8 526 423 311 407 406 310 210 296
8 410 314 213 299 527 424 312 408
8 528 425 315 411 409 313 214 300
8 410 314 425 528 299 213 313 409
8 416 317 216 305 530 427 315 411
8 531 430 318 412 413 320 219 302
8 420 325 223 309 531 430 318 412
8 532 432 320 413 414 321 220 303
8 417 322 433 533 306 221 321 414
8 418 319 218 307 534 428 316 415
8 416 317 428 534 305 216 316 415
8 419 323 434 536 308 222 322 417
8 419 323 222 308 537 431 319 418
8 421 327 225 310 539 438 325 420
8 421 327 439 541 310 225 326 423
8 543 437 324 422 423 326 224 311
8 441 338 259 368 559 452 367 486
8 443 340 236 329 560 453 338 441
8 333 240 344 447 442 342 457 561
8 445 341 237 331 562 455 340 443
8 448 345 241 334 563 454 339 444
8 563 454 339 444 445 341 237 331
8 336 242 346 450 446 343 458 565
8 446 343 458 565 333 240 344 447
8 449 347 243 335 567 460 345 448
8 451 348 244 337 568 462 347 449
8 451 348 461 569 337 244 346 450
8 570 463 349 452 473 360 257 365
8 453 350 245 338 570 463 349 452
8 455 352 247 340 571 464 350 453
8 460 357 252 345 572 465 351 454
8 572 465 351 454 456 353 248 341
8 456 353 248 341 573 466 352 455
8 344 251 356 459 457 354 468 575
8 458 355 469 576 344 251 356 459
8 346 253 358 461 458 355 469 576
8 462 359 254 347 578 471 357 460
8 348 255 359 462 461 358 472 579
8 591 474 360 473 475 361 256 363
8 475 361 256 363 594 477 362 479
8 363 256 364 482 479 362 480 603
8 590 473 365 484 481 363 482 605
8 482 364 257 365 606 483 366 485
8 559 452 367 486 484 365 485 607
8 542 436 487 609 422 324 369 488
8 525 422 488 611 407 311 371 491
8 488 369 489 612 371 261 370 490
8 491 371 490 613 373 263 372 492
8 495 386 276 377 614 503 385 493
8 614 503 385 493 561 457 342 442
8 615 501 383 494 495 386 276 377
8 496 384 274 378 615 501 383 494
8 618 500 382 497 496 384 274 378
8 619 499 381 498 497 382 272 379
8 511 408 297 393 619 499 381 498
8 620 505 387 499 500 388 278 382
8 527 424 312 408 620 505 387 499
8 502 390 506 621 384 280 388 500
8 622 507 389 501 504 392 282 386
8 502 390 280 384 622 507 389 501
8 504 392 282 386 624 509 391 503
8 624 509 391 503 575 468 354 457
8 513 410 299 395 630 527 408 511
8 631 528 411 514 512 409 300 396
8 513 410 528 631 395 299 409 512
8 519 416 305 401 633 530 411 514
8 634 531 412 515 516 413 302 398
8 523 420 309 405 634 531 412 515
8 635 532 413 516 517 414 303 399
8 521 417 533 636 403 306 414 517
8 520 418 307 402 637 534 415 518
8 519 416 534 637 401 305 415 518
8 522 419 308 404 639 537 418 520
8 522 419 536 640 404 308 417 521
8 524 421 310 406 642 539 420 523
8 524 421 541 644 406 310 423 526
8 646 543 422 525 526 423 311 407
8 529 426 314 410 647 544 424 527
8 528 425 545 648 411 315 427 530
8 529 426 545 648 410 314 425 528
8 535 429 317 416 649 546 427 530
8 650 548 430 531 532 432 320 413
8 539 438 325 420 650 548 430 531
8 533 433 550 651 414 321 432 532
8 536 434 551 652 417 322 433 533
8 537 431 319 418 653 547 428 534
8 535 429 547 653 416 317 428 534
8 538 435 552 654 419 323 434 536
8 538 435 323 419 655 549 431 537
8 540 440 327 421 657 556 438 539
8 540 440 557 659 421 327 439 541
8 541 439 555 660 423 326 437 543
8 661 554 436 542 543 437 324 422
8 676 570 452 559 590 473 365 484
8 560 453 338 441 676 570 452 559
8 562 455 340 443 677 571 453 560
8 447 344 459 566 561 457 575 678
8 564 456 341 445 679 573 455 562
8 567 460 345 448 680 572 454 563
8 680 572 454 563 564 456 341 445
8 565 458 576 682 447 344 459 566
8 450 346 461 569 565 458 576 682
8 568 462 347 449 684 578 460 567
8 451 348 462 568 569 461 579 685
8 686 580 463 570 591 474 360 473
8 571 464 350 453 686 580 463 570
8 573 466 352 455 687 581 464 571
8 572 465 582 688 460 357 471 578
8 574 467 582 688 456 353 465 572
8 574 467 353 456 689 583 466 573
8 459 356 470 577 575 468 585 691
8 576 469 586 692 459 356 470 577
8 461 358 472 579 576 469 586 692
8 462 359 471 578 579 472 588 694
8 704 591 473 590 593 475 363 481
8 595 476 592 705 475 361 474 591
8 593 475 363 481 707 594 479 602
8 594 477 362 479 709 598 478 600
8 595 476 361 475 711 597 477 594
8 479 362 480 603 600 478 601 720
8 481 363 482 605 602 479 603 722
8 603 480 364 482 723 604 483 606
8 605 482 365 484 724 606 485 607
8 656 553 608 726 542 436 487 609
8 645 542 609 728 525 422 488 611
8 609 487 610 729 488 369 489 612
8 611 488 612 730 491 371 490 613
8 616 504 386 495 731 624 503 614
8 731 624 503 614 678 575 457 561
8 732 622 501 615 616 504 386 495
8 617 502 384 496 732 622 501 615
8 617 502 621 735 496 384 500 618
8 736 620 499 619 618 500 382 497
8 630 527 408 511 736 620 499 619
8 621 506 626 737 500 388 505 620
8 647 544 424 527 737 626 505 620
8 623 508 627 738 502 390 506 621
8 623 508 390 502 739 628 507 622
8 625 510 628 739 504 392 507 622
8 740 629 509 624 691 585 468 575
8 625 510 392 504 740 629 509 624
8 632 529 410 513 744 647 527 630
8 631 528 648 745 514 411 530 633
8 632 529 648 745 513 410 528 631
8 638 535 416 519 746 649 530 633
8 747 650 531 634 635 532 413 516
8 642 539 420 523 747 650 531 634
8 636 533 651 748 517 414 532 635
8 640 536 652 749 521 417 533 636
8 639 537 418 520 750 653 534 637
8 638 535 653 750 519 416 534 637
8 641 538 419 522 751 655 537 639
8 641 538 654 752 522 419 536 640
8 643 540 421 524 753 657 539 642
8 643 540 659 755 524 421 541 644
8 644 541 660 757 526 423 543 646
8 758 661 542 645 646 543 422 525
8 529 426 544 647 648 545 662 759
8 530 427 545 648 649 546 663 760
8 535 429 546 649 653 547 664 761
8 762 666 548 650 651 550 432 532
8 657 556 438 539 762 666 548 650
8 652 551 668 763 533 433 550 651
8 654 552 669 764 536 434 551 652
8 655 549 431 537 765 665 547 653
8 538 435 549 655 654 552 667 766
8 661 554 671 768 542 436 553 656
8 658 558 440 540 769 674 556 657
8 658 558 675 770 540 440 557 659
8 659 557 673 771 541 439 555 660
8 660 555 672 772 543 437 554 661
8 788 686 570 676 704 591 473 590
8 677 571 453 560 788 686 570 676
8 679 573 455 562 789 687 571 677
8 566 459 577 683 678 575 691 790
8 681 574 456 564 791 689 573 679
8 680 572 688 792 567 460 578 684
8 681 574 688 792 564 456 572 680
8 682 576 692 794 566 459 577 683
8 569 461 579 685 682 576 692 794
8 568 462 578 684 685 579 694 796
8 687 581 464 571 798 696 580 686
8 798 696 580 686 705 592 474 591
8 689 583 466 573 799 697 581 687
8 688 582 698 800 578 471 588 694
8 690 584 698 800 574 467 582 688
8 690 584 467 574 801 699 583 689
8 693 587 701 803 577 470 585 691
8 693 587 470 577 804 702 586 692
8 695 589 702 804 579 472 586 692
8 695 589 472 579 805 703 588 694
8 708 595 705 813 593 475 591 704
8 710 596 706 814 595 476 592 705
8 707 594 479 602 816 709 600 719
8 708 595 475 593 817 711 594 707
8 709 598 478 600 819 715 599 717
8 711 597 477 594 820 714 598 709
8 710 596 476 595 822 713 597 711
8 600 478 601 720 717 599 718 832
8 602 479 603 722 719 600 720 834
8 720 601 480 603 835 721 604 723
8 722 603 482 605 836 723 606 724
8 767 670 725 839 656 553 608 726
8 756 656 726 841 645 542 609 728
8 726 608 727 842 609 487 610 729
8 728 609 729 843 611 488 612 730
8 844 740 624 731 790 691 575 678
8 733 625 504 616 844 740 624 731
8 734 623 502 617 845 739 622 732
8 733 625 739 845 616 504 622 732
8 734 623 738 846 617 502 621 735
8 735 621 737 847 618 500 620 736
8 744 647 527 630 847 737 620 736
8 621 506 627 738 737 626 741 848
8 647 544 626 737 759 662 741 848
8 623 508 628 739 738 627 742 849
8 740 629 585 691 850 743 700 802
8 625 510 629 740 739 628 743 850
8 632 529 647 744 745 648 759 854
8 633 530 648 745 746 649 760 855
8 638 535 649 746 750 653 761 856
8 857 762 650 747 748 651 532 635
8 753 657 539 642 857 762 650 747
8 749 652 763 858 636 533 651 748
8 752 654 764 859 640 536 652 749
8 751 655 537 639 860 765 653 750
8 641 538 655 751 752 654 766 861
8 754 658 540 643 862 769 657 753
8 754 658 770 863 643 540 659 755
8 755 659 771 864 644 541 660 757
8 758 661 768 866 645 542 656 756
8 757 660 772 867 646 543 661 758
8 759 662 773 868 648 545 663 760
8 649 546 663 760 761 664 774 871
8 765 665 547 653 872 775 664 761
8 873 777 666 762 763 668 550 651
8 769 674 556 657 873 777 666 762
8 764 669 779 874 652 551 668 763
8 654 552 667 766 764 669 778 875
8 655 549 665 765 766 667 776 876
8 768 671 782 877 656 553 670 767
8 772 672 783 878 661 554 671 768
8 658 558 674 769 770 675 786 879
8 659 557 675 770 771 673 785 881
8 882 784 672 772 771 673 555 660
8 789 687 571 677 897 798 686 788
8 897 798 686 788 813 705 591 704
8 791 689 573 679 898 799 687 789
8 795 693 803 900 683 577 691 790
8 793 690 574 681 901 801 689 791
8 792 688 800 902 684 578 694 796
8 793 690 800 902 681 574 688 792
8 795 693 577 683 903 804 692 794
8 797 695 804 903 685 579 692 794
8 797 695 579 685 904 805 694 796
8 905 806 697 799 798 696 581 687
8 814 706 806 905 705 592 696 798
8 689 583 697 799 801 699 808 907
8 800 698 809 908 694 588 703 805
8 690 584 699 801 800 698 809 908
8 803 701 810 909 691 585 700 802
8 693 587 702 804 803 701 811 910
8 695 589 703 805 804 702 812 911
8 818 710 814 919 708 595 705 813
8 821 712 815 920 710 596 706 814
8 816 709 600 719 922 819 717 831
8 817 711 594 707 923 820 709 816
8 818 710 595 708 924 822 711 817
8 819 715 599 717 926 827 716 829
8 820 714 598 709 927 826 715 819
8 929 825 713 822 820 714 597 711
8 821 712 596 710 930 824 713 822
8 717 599 718 832 829 716 830 942
8 719 600 720 834 831 717 832 944
8 832 718 601 720 945 833 721 835
8 834 720 603 722 946 835 723 836
8 869 780 838 950 767 670 725 839
8 865 767 839 952 756 656 726 841
8 839 725 840 953 726 608 727 842
8 841 726 842 954 728 609 729 843
8 844 740 691 790 955 850 802 899
8 733 625 740 844 845 739 850 955
8 734 623 739 845 846 738 849 956
8 735 621 738 846 847 737 848 957
8 744 647 737 847 854 759 848 957
8 738 627 742 849 848 741 851 958
8 848 741 851 958 759 662 773 868
8 850 743 700 802 959 852 807 906
8 849 742 628 739 959 852 743 850
8 854 759 868 965 745 648 760 855
8 746 649 760 855 856 761 871 966
8 860 765 653 750 967 872 761 856
8 968 873 762 857 858 763 651 748
8 862 769 657 753 968 873 762 857
8 859 764 874 969 749 652 763 858
8 752 654 766 861 859 764 875 970
8 751 655 765 860 861 766 876 971
8 754 658 769 862 863 770 879 972
8 755 659 770 863 864 771 881 974
8 976 882 772 867 864 771 660 757
8 866 768 877 977 756 656 767 865
8 867 772 878 978 758 661 768 866
8 760 663 773 868 871 774 883 980
8 870 781 837 948 982 890 780 869
8 982 890 780 869 877 782 670 767
8 761 664 774 871 872 775 884 984
8 876 776 665 765 985 885 775 872
8 873 777 668 763 986 887 779 874
8 769 674 777 873 879 786 887 986
8 764 669 778 875 874 779 888 987
8 766 667 776 876 875 778 886 988
8 878 783 892 989 768 671 782 877
8 878 783 672 772 990 893 784 882
8 880 787 675 770 991 896 786 879
8 880 787 895 992 770 675 785 881
8 881 785 894 993 771 673 784 882
8 1006 905 799 898 897 798 687 789
8 919 814 905 1006 813 705 798 897
8 791 689 799 898 901 801 907 1007
8 900 803 909 1009 790 691 802 899
8 795 693 804 903 900 803 910 1010
8 902 800 908 1011 796 694 805 904
8 793 690 801 901 902 800 908 1011
8 797 695 805 904 903 804 911 1012
8 799 697 806 905 907 808 912 1013
8 920 815 912 1013 814 706 806 905
8 802 700 810 909 906 807 913 1014
8 801 699 808 907 908 809 914 1015
8 805 703 809 908 911 812 915 1016
8 803 701 811 910 909 810 916 1017
8 911 812 917 1018 804 702 811 910
8 925 821 920 1030 818 710 814 919
8 928 823 921 1031 821 712 815 920
8 922 819 717 831 1033 926 829 941
8 923 820 709 816 1034 927 819 922
8 1035 929 822 924 923 820 711 817
8 925 821 710 818 1036 930 822 924
8 1038 933 825 929 927 826 714 820
8 926 827 716 829 1039 935 828 939
8 927 826 715 819 1040 934 827 926
8 928 823 712 821 1041 931 824 930
8 1042 932 824 930 929 825 713 822
8 829 716 830 942 939 828 940 1058
8 831 717 832 944 941 829 942 1060
8 942 830 718 832 1061 943 833 945
8 944 832 720 834 1062 945 835 946
8 981 889 947 1064 870 781 837 948
8 948 837 949 1067 869 780 838 950
8 975 869 950 1069 865 767 839 952
8 950 838 951 1070 839 725 840 953
8 952 839 953 1071 841 726 842 954
8 955 850 802 899 1072 959 906 1008
8 956 849 739 845 1072 959 850 955
8 846 738 849 956 957 848 958 1073
8 957 848 958 1073 854 759 868 965
8 849 742 852 959 958 851 961 1076
8 960 853 961 1076 906 807 852 959
8 958 851 961 1076 868 773 883 980
8 960 853 807 906 1077 963 913 1014
8 855 760 868 965 966 871 980 1085
8 856 761 871 966 967 872 984 1086
8 971 876 765 860 1087 985 872 967
8 968 873 763 858 1088 986 874 969
8 862 769 873 968 972 879 986 1088
8 859 764 875 970 969 874 987 1089
8 861 766 876 971 970 875 988 1090
8 973 880 770 863 1091 991 879 972
8 973 880 992 1092 863 770 881 974
8 974 881 993 1093 864 771 882 976
8 979 870 948 1066 1094 982 869 975
8 1094 982 869 975 977 877 767 865
8 978 878 772 867 1095 990 882 976
8 978 878 989 1096 866 768 877 977
8 871 774 883 980 984 884 994 1099
8 983 891 999 1100 870 781 889 981
8 1101 1000 890 982 989 892 782 877
8 983 891 781 870 1101 1000 890 982
8 872 775 884 984 985 885 995 1103
8 876 776 885 985 988 886 996 1104
8 986 887 779 874 1105 998 888 987
8 879 786 887 986 991 896 998 1105
8 875 778 886 988 987 888 997 1106
8 990 893 1002 1107 878 783 892 989
8 1108 1003 893 990 993 894 784 882
8 880 787 896 991 992 895 1005 1109
8 993 894 785 881 1110 1004 895 992
8 898 799 905 1006 1007 907 1013 1120
8 1030 920 1013 1120 919 814 905 1006
8 901 801 907 1007 1011 908 1015 1121
8 899 802 909 1009 1008 906 1014 1122
8 900 803 910 1010 1009 909 1017 1123
8 1012 911 1018 1124 903 804 910 1010
8 904 805 908 1011 1012 911 1016 1125
8 1013 912 1020 1127 907 808 914 1015
8 1031 921 1020 1127 920 815 912 1013
8 1019 918 962 1075 1128 1021 913 1014
8 1128 1021 913 1014 1017 916 810 909
8 1015 914 1022 1129 908 809 915 1016
8 1016 915 1023 1130 911 812 917 1018
8 1018 917 1024 1131 910 811 916 1017
8 1037 928 1031 1148 925 821 920 1030
8 928 823 931 1041 1031 921 1032 1149
8 1033 926 829 941 1151 1039 939 1057
8 1034 927 819 922 1152 1040 926 1033
8 1153 1038 929 1035 1034 927 820 923
8 1154 1042 930 1036 1035 929 822 924
8 1037 928 821 925 1155 1041 930 1036
8 1039 935 828 939 1156 1047 938 1055
8 1157 1043 932 1042 1038 933 825 929
8 1038 933 826 927 1158 1045 934 1040
8 1040 934 827 926 1159 1046 935 1039
8 930 824 932 1042 1041 931 1044 1160
8 1051 936 1048 1165 1175 1052 937 1053
8 1156 1047 938 1055 1053 937 1054 1178
8 939 828 940 1058 1055 938 1056 1181
8 941 829 942 1060 1057 939 1058 1183
8 942 830 943 1061 1058 940 1059 1184
8 1060 942 832 944 1185 1061 945 1062
8 1082 964 1063 1188 981 889 947 1064
8 1097 981 1064 1190 979 870 948 1066
8 1064 947 1065 1191 948 837 949 1067
8 1066 948 1067 1193 975 869 950 1069
8 1067 949 1068 1194 950 838 951 1070
8 1069 950 1070 1195 952 839 953 1071
8 956 849 959 1072 1073 958 1076 1197
8 1074 960 1076 1197 1008 906 959 1072
8 1073 958 1076 1197 965 868 980 1085
8 1074 960 906 1008 1198 1077 1014 1122
8 1133 1026 1079 1199 1019 918 962 1075
8 1077 963 913 1014 1200 1080 962 1075
8 960 853 963 1077 1076 961 1078 1201
8 980 883 961 1076 1099 994 1078 1201
8 1210 1083 964 1082 1100 999 889 981
8 966 871 980 1085 1086 984 1099 1215
8 967 872 984 1086 1087 985 1103 1216
8 971 876 985 1087 1090 988 1104 1217
8 1088 986 874 969 1218 1105 987 1089
8 972 879 986 1088 1091 991 1105 1218
8 970 875 988 1090 1089 987 1106 1219
8 973 880 991 1091 1092 992 1109 1220
8 1093 993 881 974 1221 1110 992 1092
8 1222 1108 990 1095 1093 993 882 976
8 1223 1101 982 1094 1096 989 877 977
8 1098 983 870 979 1223 1101 982 1094
8 1095 990 1107 1224 978 878 989 1096
8 1098 983 1100 1225 979 870 981 1097
8 984 884 994 1099 1103 995 1111 1227
8 1102 1001 1115 1228 983 891 999 1100
8 1101 1000 892 989 1229 1116 1002 1107
8 1102 1001 891 983 1229 1116 1000 1101
8 985 885 995 1103 1104 996 1112 1230
8 988 886 996 1104 1106 997 1113 1231
8 1105 998 888 987 1232 1114 997 1106
8 991 896 998 1105 1109 1005 1114 1232
8 1108 1003 1117 1233 990 893 1002 1107
8 1108 1003 894 993 1233 1117 1004 1110
8 992 895 1005 1109 1110 1004 1118 1234
8 1120 1013 1127 1244 1007 907 1015 1121
8 1148 1031 1127 1244 1030 920 1013 1120
8 1121 1015 1129 1245 1011 908 1016 1125
8 1126 1019 1075 1196 1246 1128 1014 1122
8 1246 1128 1014 1122 1123 1017 909 1009
8 1124 1018 1131 1247 1010 910 1017 1123
8 1125 1016 1130 1248 1012 911 1018 1124
8 1127 1020 1137 1254 1015 914 1022 1129
8 1031 921 1032 1149 1127 1020 1137 1254
8 1134 1027 918 1019 1257 1140 1021 1128
8 1257 1140 1021 1128 1131 1024 916 1017
8 1129 1022 1141 1258 1016 915 1023 1130
8 1130 1023 1142 1259 1018 917 1024 1131
8 1261 1144 1025 1132 1133 1026 1079 1199
8 1255 1138 1025 1132 1135 1028 1144 1261
8 1133 1026 918 1019 1262 1145 1027 1134
8 1136 1029 1139 1256 1263 1146 1028 1135
8 1037 928 1041 1155 1148 1031 1149 1275
8 1041 931 1044 1160 1149 1032 1150 1276
8 1151 1039 939 1057 1278 1156 1055 1180
8 1152 1040 926 1033 1279 1159 1039 1151
8 1153 1038 927 1034 1280 1158 1040 1152
8 1281 1157 1042 1154 1153 1038 929 1035
8 1036 930 1042 1154 1155 1041 1160 1282
8 1283 1164 1046 1159 1156 1047 935 1039
8 1165 1048 1164 1283 1053 937 1047 1156
8 1157 1043 933 1038 1284 1161 1045 1158
8 1157 1043 1161 1284 1042 932 1044 1160
8 1040 934 1046 1159 1158 1045 1163 1285
8 1166 1049 1167 1292 1051 936 1048 1165
8 1166 1049 936 1051 1293 1168 1050 1172
8 1051 936 1052 1175 1172 1050 1173 1306
8 1174 1051 1165 1290 1308 1175 1053 1177
8 1053 937 1054 1178 1175 1052 1176 1309
8 1278 1156 1055 1180 1177 1053 1178 1311
8 1055 938 1056 1181 1178 1054 1179 1312
8 1057 939 1058 1183 1180 1055 1181 1314
8 1058 940 1059 1184 1181 1056 1182 1315
8 1060 942 1061 1185 1183 1058 1184 1316
8 1208 1081 1187 1321 1082 964 1063 1188
8 1209 1082 1188 1322 1097 981 1064 1190
8 1188 1063 1189 1323 1064 947 1065 1191
8 1190 1064 1191 1325 1066 948 1067 1193
8 1191 1065 1192 1326 1067 949 1068 1194
8 1067 1193 1069 950 1194 1327 1195 1070
8 1250 1133 1199 1330 1126 1019 1075 1196
8 1198 1077 1014 1122 1331 1200 1075 1196
8 1074 960 1077 1198 1197 1076 1201 1332
8 1085 980 1076 1197 1215 1099 1201 1332
8 1199 1079 1203 1333 1075 962 1080 1200
8 1132 1025 1119 1243 1199 1079 1203 1333
8 1201 1078 963 1077 1334 1202 1080 1200
8 1099 994 1078 1201 1227 1111 1202 1334
8 1343 1207 1081 1208 1210 1083 964 1082
8 1214 1084 1186 1319 1343 1207 1081 1208
8 1345 1210 1082 1209 1225 1100 981 1097
8 1346 1211 1083 1210 1228 1115 999 1100
8 1086 984 1099 1215 1216 1103 1227 1352
8 1087 985 1103 1216 1217 1104 1230 1353
8 1090 988 1104 1217 1219 1106 1231 1354
8 1218 1105 987 1089 1355 1232 1106 1219
8 1091 991 1105 1218 1220 1109 1232 1355
8 1092 992 1109 1220 1221 1110 1234 1356
8 1222 1108 1233 1357 1095 990 1107 1224
8 1222 1108 993 1093 1357 1233 1110 1221
8 1223 1101 989 1096 1358 1229 1107 1224
8 1226 1102 983 1098 1358 1229 1101 1223
8 1226 1102 1228 1359 1098 983 1100 1225
8 1103 995 1111 1227 1230 1112 1235 1360
8 1107 1002 1117 1233 1229 1116 1240 1362
8 1102 1001 1116 1229 1228 1115 1240 1362
8 1104 996 1112 1230 1231 1113 1236 1363
8 1364 1237 1114 1232 1231 1113 997 1106
8 1109 1005 1114 1232 1234 1118 1238 1365
8 1110 1004 1118 1234 1233 1117 1241 1366
8 1242 1374 1255 1138 1119 1243 1132 1025
8 1244 1127 1254 1376 1121 1015 1129 1245
8 1148 1031 1149 1275 1244 1127 1254 1376
8 1245 1129 1258 1377 1125 1016 1130 1248
8 1251 1134 1019 1126 1378 1257 1128 1246
8 1378 1257 1128 1246 1247 1131 1017 1123
8 1248 1130 1259 1379 1124 1018 1131 1247
8 1261 1381 1250 1133 1132 1249 1330 1199
8 1255 1380 1252 1135 1132 1249 1381 1261
8 1250 1133 1019 1126 1382 1262 1134 1251
8 1253 1136 1256 1385 1384 1263 1135 1252
8 1254 1137 1265 1387 1129 1022 1141 1258
8 1149 1032 1150 1276 1254 1137 1265 1387
8 1028 1135 1255 1138 1139 1256 1388 1266
8 1136 1029 1147 1264 1256 1139 1267 1389
8 1390 1268 1140 1257 1259 1142 1024 1131
8 1260 1143 1027 1134 1390 1268 1140 1257
8 1258 1141 1269 1391 1130 1023 1142 1259
8 1262 1145 1027 1134 1393 1271 1143 1260
8 1261 1144 1026 1133 1394 1272 1145 1262
8 1135 1028 1144 1261 1263 1146 1272 1394
8 1136 1029 1146 1263 1264 1147 1273 1395
8 1155 1041 1160 1282 1275 1149 1276 1405
8 1276 1150 1044 1160 1406 1277 1162 1286
8 1408 1283 1159 1279 1278 1156 1039 1151
8 1290 1165 1283 1408 1177 1053 1156 1278
8 1152 1040 1159 1279 1280 1158 1285 1409
8 1281 1157 1038 1153 1410 1284 1158 1280
8 1281 1157 1284 1410 1154 1042 1160 1282
8 1159 1046 1164 1283 1285 1163 1289 1412
8 1292 1167 1289 1412 1165 1048 1164 1283
8 1158 1045 1163 1285 1284 1161 1288 1413
8 1284 1161 1288 1413 1160 1044 1162 1286
8 1291 1166 1292 1418 1174 1051 1165 1290
8 1291 1166 1051 1174 1419 1293 1172 1305
8 1294 1169 1296 1421 1166 1049 1167 1292
8 1293 1168 1050 1172 1422 1295 1171 1303
8 1294 1169 1049 1166 1423 1297 1168 1293
8 1422 1295 1171 1303 1301 1170 1302 1435
8 1172 1050 1173 1306 1303 1171 1304 1438
8 1174 1051 1175 1308 1305 1172 1306 1440
8 1175 1052 1176 1309 1306 1173 1307 1441
8 1177 1053 1178 1311 1308 1175 1309 1443
8 1178 1054 1179 1312 1309 1176 1310 1444
8 1180 1055 1181 1314 1311 1178 1312 1446
8 1056 1181 1312 1179 1182 1315 1447 1313
8 1183 1058 1184 1316 1314 1181 1315 1448
8 1319 1186 1084 1214 1451 1317 1213 1350
8 1319 1186 1318 1453 1208 1081 1187 1321
8 1321 1187 1320 1456 1188 1063 1189 1323
8 1344 1208 1321 1457 1209 1082 1188 1322
8 1322 1188 1323 1458 1190 1064 1191 1325
8 1323 1189 1324 1459 1191 1065 1192 1326
8 1191 1325 1193 1067 1326 1460 1327 1194
8 1242 1374 1243 1119 1328 1462 1335 1204
8 1330 1199 1333 1465 1196 1075 1200 1331
8 1132 1249 1330 1199 1243 1375 1465 1333
8 1332 1201 1077 1198 1466 1334 1200 1331
8 1215 1099 1201 1332 1352 1227 1334 1466
8 1119 1243 1333 1203 1204 1335 1470 1338
8 1333 1203 1338 1470 1200 1080 1202 1334
8 1227 1111 1202 1334 1360 1235 1338 1470
8 1328 1462 1335 1204 1205 1336 1471 1339
8 1337 1206 1340 1472 1464 1329 1205 1336
8 1346 1211 1342 1479 1210 1083 1207 1343
8 1346 1211 1115 1228 1479 1342 1239 1361
8 1348 1212 1084 1214 1479 1342 1207 1343
8 1480 1343 1208 1344 1345 1210 1082 1209
8 1351 1214 1319 1454 1480 1343 1208 1344
8 1481 1346 1210 1345 1359 1228 1100 1225
8 1348 1212 1347 1483 1214 1084 1213 1350
8 1216 1103 1227 1352 1353 1230 1360 1488
8 1217 1104 1230 1353 1354 1231 1363 1489
8 1490 1364 1232 1355 1354 1231 1106 1219
8 1220 1109 1232 1355 1356 1234 1365 1491
8 1221 1110 1234 1356 1357 1233 1366 1492
8 1224 1107 1233 1357 1358 1229 1362 1493
8 1226 1102 1229 1358 1359 1228 1362 1493
8 1230 1112 1235 1360 1363 1236 1367 1496
8 1361 1239 1115 1228 1497 1371 1240 1362
8 1366 1241 1372 1498 1233 1117 1240 1362
8 1364 1237 1113 1231 1499 1368 1236 1363
8 1364 1237 1368 1499 1232 1114 1238 1365
8 1234 1118 1238 1365 1366 1241 1369 1500
8 1507 1373 1242 1374 1388 1266 1138 1255
8 1508 1374 1243 1375 1380 1255 1132 1249
8 1376 1254 1387 1509 1245 1129 1258 1377
8 1275 1149 1276 1405 1376 1254 1387 1509
8 1377 1258 1391 1510 1248 1130 1259 1379
8 1511 1390 1257 1378 1379 1259 1131 1247
8 1383 1260 1134 1251 1511 1390 1257 1378
8 1252 1135 1256 1385 1380 1255 1388 1512
8 1261 1381 1513 1394 1133 1250 1382 1262
8 1135 1252 1384 1263 1261 1381 1513 1394
8 1382 1262 1134 1251 1514 1393 1260 1383
8 1253 1136 1263 1384 1386 1264 1395 1516
8 1253 1136 1264 1386 1385 1256 1389 1517
8 1387 1265 1397 1519 1258 1141 1269 1391
8 1276 1150 1277 1406 1387 1265 1397 1519
8 1256 1139 1267 1389 1388 1266 1398 1520
8 1264 1147 1274 1396 1389 1267 1399 1521
8 1392 1270 1143 1260 1522 1400 1268 1390
8 1390 1268 1142 1259 1522 1400 1269 1391
8 1392 1270 1401 1523 1260 1143 1271 1393
8 1272 1394 1524 1402 1145 1262 1393 1271
8 1395 1273 1146 1263 1524 1402 1272 1394
8 1273 1395 1264 1147 1403 1526 1396 1274
8 1405 1276 1160 1282 1534 1406 1286 1411
8 1414 1287 1407 1535 1286 1162 1277 1406
8 1279 1159 1283 1408 1409 1285 1412 1537
8 1418 1292 1412 1537 1290 1165 1283 1408
8 1280 1158 1285 1409 1410 1284 1413 1538
8 1410 1284 1413 1538 1282 1160 1286 1411
8 1285 1163 1289 1412 1413 1288 1417 1540
8 1421 1296 1417 1540 1292 1167 1289 1412
8 1414 1287 1162 1286 1541 1416 1288 1413
8 1420 1294 1421 1545 1291 1166 1292 1418
8 1419 1293 1172 1305 1546 1422 1303 1437
8 1420 1294 1166 1291 1547 1423 1293 1419
8 1294 1169 1297 1423 1421 1296 1425 1548
8 1423 1297 1168 1293 1549 1424 1295 1422
8 1301 1170 1298 1427 1422 1295 1424 1549
8 1432 1300 1428 1554 1301 1170 1298 1427
8 1431 1299 1428 1554 1560 1430 1300 1432
8 1563 1433 1300 1432 1435 1302 1170 1301
8 1546 1422 1303 1437 1434 1301 1435 1565
8 1303 1171 1304 1438 1435 1302 1436 1566
8 1305 1172 1306 1440 1437 1303 1438 1568
8 1306 1173 1307 1441 1438 1304 1439 1569
8 1308 1175 1309 1443 1440 1306 1441 1571
8 1309 1176 1310 1444 1441 1307 1442 1572
8 1311 1178 1312 1446 1443 1309 1444 1574
8 1179 1312 1444 1310 1313 1447 1575 1445
8 1314 1181 1315 1448 1446 1312 1447 1576
8 1350 1213 1349 1486 1451 1317 1449 1579
8 1451 1317 1450 1581 1319 1186 1318 1453
8 1454 1319 1214 1351 1582 1451 1350 1487
8 1453 1318 1452 1584 1321 1187 1320 1456
8 1454 1319 1453 1585 1344 1208 1321 1457
8 1456 1320 1455 1586 1323 1189 1324 1459
8 1457 1321 1456 1587 1322 1188 1323 1458
8 1458 1323 1459 1588 1325 1191 1326 1460
8 1205 1336 1464 1329 1328 1462 1590 1461
8 1507 1373 1461 1590 1374 1242 1328 1462
8 1508 1374 1462 1591 1375 1243 1335 1467
8 1337 1206 1329 1464 1473 1341 1463 1594
8 1375 1243 1335 1467 1465 1333 1470 1596
8 1465 1333 1470 1596 1331 1200 1334 1466
8 1352 1227 1334 1466 1488 1360 1470 1596
8 1591 1462 1336 1468 1467 1335 1471 1597
8 1469 1337 1472 1598 1595 1464 1336 1468
8 1471 1339 1474 1600 1335 1204 1338 1470
8 1600 1474 1367 1496 1470 1338 1235 1360
8 1336 1205 1340 1472 1471 1339 1475 1601
8 1337 1206 1341 1473 1472 1340 1476 1602
8 1495 1370 1478 1609 1361 1239 1342 1479
8 1348 1212 1342 1479 1483 1347 1478 1609
8 1481 1346 1479 1610 1345 1210 1343 1480
8 1481 1346 1228 1359 1610 1479 1361 1494
8 1484 1348 1214 1351 1610 1479 1343 1480
8 1483 1347 1482 1612 1350 1213 1349 1486
8 1484 1348 1483 1613 1351 1214 1350 1487
8 1353 1230 1360 1488 1489 1363 1496 1616
8 1490 1364 1231 1354 1617 1499 1363 1489
8 1490 1364 1499 1617 1355 1232 1365 1491
8 1356 1234 1365 1491 1492 1366 1500 1619
8 1492 1366 1498 1620 1357 1233 1362 1493
8 1494 1361 1228 1359 1621 1497 1362 1493
8 1495 1370 1239 1361 1622 1504 1371 1497
8 1363 1236 1367 1496 1499 1368 1501 1623
8 1497 1371 1240 1362 1624 1505 1372 1498
8 1625 1503 1372 1498 1500 1369 1241 1366
8 1365 1238 1368 1499 1500 1369 1502 1626
8 1520 1398 1506 1633 1388 1266 1373 1507
8 1634 1507 1374 1508 1512 1388 1255 1380
8 1509 1387 1519 1635 1377 1258 1391 1510
8 1405 1276 1406 1534 1509 1387 1519 1635
8 1515 1392 1260 1383 1636 1522 1390 1511
8 1511 1390 1259 1379 1636 1522 1391 1510
8 1385 1256 1389 1517 1512 1388 1520 1637
8 1513 1394 1262 1382 1638 1524 1393 1514
8 1395 1516 1638 1524 1263 1384 1513 1394
8 1515 1392 1523 1639 1383 1260 1393 1514
8 1516 1395 1526 1640 1386 1264 1396 1518
8 1386 1264 1396 1518 1517 1389 1521 1641
8 1519 1397 1527 1643 1391 1269 1400 1522
8 1535 1407 1527 1643 1406 1277 1397 1519
8 1389 1267 1399 1521 1520 1398 1528 1644
8 1645 1529 1399 1521 1525 1404 1274 1396
8 1392 1270 1400 1522 1523 1401 1531 1646
8 1524 1402 1271 1393 1648 1532 1401 1523
8 1403 1526 1648 1532 1273 1395 1524 1402
8 1525 1404 1274 1396 1649 1533 1403 1526
8 1539 1414 1535 1657 1411 1286 1406 1534
8 1542 1415 1536 1658 1414 1287 1407 1535
8 1409 1285 1412 1537 1538 1413 1540 1660
8 1545 1421 1540 1660 1418 1292 1412 1537
8 1539 1414 1286 1411 1661 1541 1413 1538
8 1540 1417 1544 1663 1413 1288 1416 1541
8 1421 1296 1425 1548 1540 1417 1544 1663
8 1542 1415 1287 1414 1664 1543 1416 1541
8 1420 1294 1423 1547 1545 1421 1548 1666
8 1547 1423 1293 1419 1667 1549 1422 1546
8 1434 1301 1427 1553 1546 1422 1549 1667
8 1423 1297 1424 1549 1548 1425 1550 1668
8 1551 1426 1550 1668 1427 1298 1424 1549
8 1551 1426 1298 1427 1671 1552 1428 1554
8 1562 1432 1554 1674 1434 1301 1427 1553
8 1431 1299 1429 1558 1554 1428 1555 1675
8 1431 1299 1430 1560 1558 1429 1557 1680
8 1560 1430 1300 1432 1683 1559 1433 1563
8 1561 1431 1554 1674 1684 1560 1432 1562
8 1685 1563 1432 1562 1565 1435 1301 1434
8 1435 1302 1436 1566 1563 1433 1564 1686
8 1437 1303 1438 1568 1565 1435 1566 1688
8 1438 1304 1439 1569 1566 1436 1567 1689
8 1440 1306 1441 1571 1568 1438 1569 1691
8 1441 1307 1442 1572 1569 1439 1570 1692
8 1443 1309 1444 1574 1571 1441 1572 1694
8 1310 1444 1572 1442 1445 1575 1695 1573
8 1446 1312 1447 1576 1574 1444 1575 1696
8 1486 1349 1485 1614 1579 1449 1577 1699
8 1451 1317 1449 1579 1581 1450 1578 1701
8 1487 1350 1486 1615 1582 1451 1579 1702
8 1581 1450 1580 1704 1453 1318 1452 1584
8 1582 1451 1581 1705 1454 1319 1453 1585
8 1584 1452 1583 1706 1456 1320 1455 1586
8 1585 1453 1584 1707 1457 1321 1456 1587
8 1587 1456 1586 1708 1458 1323 1459 1588
8 1633 1506 1589 1710 1507 1373 1461 1590
8 1464 1329 1461 1590 1594 1463 1589 1710
8 1468 1336 1462 1591 1595 1464 1590 1711
8 1634 1507 1590 1711 1508 1374 1462 1591
8 1473 1341 1463 1594 1603 1477 1593 1716
8 1469 1337 1464 1595 1599 1473 1594 1717
8 1471 1597 1467 1335 1600 1718 1596 1470
8 1718 1600 1496 1616 1596 1470 1360 1488
8 1336 1468 1597 1471 1472 1598 1719 1601
8 1469 1337 1473 1599 1598 1472 1602 1720
8 1722 1604 1501 1623 1600 1474 1367 1496
8 1475 1601 1471 1339 1604 1722 1600 1474
8 1602 1476 1605 1723 1472 1340 1475 1601
8 1476 1602 1724 1606 1341 1473 1603 1477
8 1483 1347 1478 1609 1612 1482 1608 1731
8 1495 1370 1504 1622 1609 1478 1608 1731
8 1618 1495 1609 1732 1494 1361 1479 1610
8 1484 1348 1479 1610 1613 1483 1609 1732
8 1486 1349 1482 1612 1614 1485 1611 1733
8 1613 1483 1612 1734 1487 1350 1486 1615
8 1489 1363 1496 1616 1617 1499 1623 1736
8 1491 1365 1499 1617 1619 1500 1626 1737
8 1618 1495 1361 1494 1738 1622 1497 1621
8 1739 1625 1498 1620 1619 1500 1366 1492
8 1621 1497 1362 1493 1740 1624 1498 1620
8 1742 1631 1504 1622 1624 1505 1371 1497
8 1743 1628 1502 1626 1623 1501 1368 1499
8 1744 1630 1505 1624 1625 1503 1372 1498
8 1745 1629 1503 1625 1626 1502 1369 1500
8 1520 1398 1528 1644 1633 1506 1632 1751
8 1637 1520 1633 1752 1512 1388 1507 1634
8 1635 1519 1643 1753 1510 1391 1522 1636
8 1657 1535 1643 1753 1534 1406 1519 1635
8 1515 1392 1522 1636 1639 1523 1646 1754
8 1517 1389 1521 1641 1637 1520 1644 1755
8 1524 1638 1756 1648 1393 1514 1639 1523
8 1640 1526 1395 1516 1756 1648 1524 1638
8 1642 1525 1396 1518 1757 1649 1526 1640
8 1758 1645 1521 1641 1642 1525 1396 1518
8 1646 1531 1400 1522 1760 1650 1527 1643
8 1535 1407 1536 1658 1643 1527 1650 1760
8 1521 1399 1529 1645 1644 1528 1651 1761
8 1647 1530 1652 1762 1525 1404 1529 1645
8 1401 1523 1648 1532 1531 1646 1763 1655
8 1525 1404 1533 1649 1647 1530 1654 1765
8 1533 1649 1766 1656 1403 1526 1648 1532
8 1662 1542 1658 1774 1539 1414 1535 1657
8 1542 1415 1543 1664 1658 1536 1659 1775
8 1660 1540 1663 1777 1538 1413 1541 1661
8 1545 1421 1548 1666 1660 1540 1663 1777
8 1662 1542 1414 1539 1778 1664 1541 1661
8 1664 1543 1416 1541 1779 1665 1544 1663
8 1548 1425 1550 1668 1663 1544 1665 1779
8 1547 1423 1549 1667 1666 1548 1668 1781
8 1670 1551 1668 1781 1553 1427 1549 1667
8 1551 1426 1552 1671 1668 1550 1669 1782
8 1670 1551 1427 1553 1784 1671 1554 1674
8 1675 1555 1672 1785 1554 1428 1552 1671
8 1678 1556 1673 1789 1558 1429 1555 1675
8 1561 1431 1558 1681 1674 1554 1675 1790
8 1794 1677 1556 1678 1680 1557 1429 1558
8 1560 1430 1559 1683 1680 1557 1679 1797
8 1561 1431 1560 1684 1681 1558 1680 1798
8 1563 1433 1564 1686 1683 1559 1682 1800
8 1684 1560 1432 1562 1801 1683 1563 1685
8 1565 1435 1566 1688 1685 1563 1686 1802
8 1566 1436 1567 1689 1686 1564 1687 1803
8 1568 1438 1569 1691 1688 1566 1689 1805
8 1569 1439 1570 1692 1689 1567 1690 1806
8 1571 1441 1572 1694 1691 1569 1692 1808
8 1442 1572 1692 1570 1573 1695 1809 1693
8 1574 1444 1575 1696 1694 1572 1695 1810
8 1614 1485 1592 1712 1699 1577 1697 1813
8 1579 1449 1577 1699 1701 1578 1698 1815
8 1615 1486 1614 1735 1702 1579 1699 1816
8 1701 1578 1700 1818 1581 1450 1580 1704
8 1582 1451 1579 1702 1705 1581 1701 1819
8 1704 1580 1703 1820 1584 1452 1583 1706
8 1705 1581 1704 1821 1585 1453 1584 1707
8 1707 1584 1706 1822 1587 1456 1586 1708
8 1710 1589 1506 1633 1824 1709 1632 1751
8 1594 1463 1589 1710 1716 1593 1709 1824
8 1752 1633 1710 1825 1634 1507 1590 1711
8 1595 1464 1590 1711 1717 1594 1710 1825
8 1830 1714 1592 1712 1733 1611 1485 1614
8 1603 1477 1593 1716 1725 1607 1715 1834
8 1599 1473 1594 1717 1721 1603 1716 1835
8 1837 1722 1623 1736 1718 1600 1496 1616
8 1719 1601 1722 1837 1597 1471 1600 1718
8 1602 1720 1598 1472 1723 1838 1719 1601
8 1720 1602 1473 1599 1839 1724 1603 1721
8 1723 1605 1726 1840 1601 1475 1604 1722
8 1840 1726 1628 1743 1722 1604 1501 1623
8 1724 1606 1727 1841 1602 1476 1605 1723
8 1725 1607 1728 1842 1603 1477 1606 1724
8 1612 1482 1608 1731 1733 1611 1730 1849
8 1741 1627 1730 1849 1622 1504 1608 1731
8 1613 1483 1609 1732 1734 1612 1731 1850
8 1618 1495 1622 1738 1732 1609 1731 1850
8 1615 1486 1612 1734 1735 1614 1733 1851
8 1852 1743 1626 1737 1736 1623 1499 1617
8 1853 1745 1625 1739 1737 1626 1500 1619
8 1855 1742 1622 1738 1740 1624 1497 1621
8 1856 1744 1624 1740 1739 1625 1498 1620
8 1741 1627 1504 1622 1857 1746 1631 1742
8 1742 1631 1505 1624 1858 1749 1630 1744
8 1859 1747 1629 1745 1743 1628 1502 1626
8 1860 1748 1630 1744 1745 1629 1503 1625
8 1644 1528 1651 1761 1751 1632 1750 1865
8 1637 1520 1644 1755 1752 1633 1751 1866
8 1754 1646 1522 1636 1867 1760 1643 1753
8 1657 1535 1658 1774 1753 1643 1760 1867
8 1639 1523 1646 1754 1756 1648 1763 1868
8 1641 1521 1645 1758 1755 1644 1761 1869
8 1757 1649 1526 1640 1870 1766 1648 1756
8 1642 1525 1649 1757 1759 1647 1765 1871
8 1759 1647 1762 1872 1642 1525 1645 1758
8 1760 1650 1767 1874 1646 1531 1655 1763
8 1658 1536 1659 1775 1760 1650 1767 1874
8 1762 1652 1768 1875 1645 1529 1651 1761
8 1764 1653 1769 1876 1647 1530 1652 1762
8 1656 1766 1877 1773 1532 1648 1763 1655
8 1771 1879 1765 1654 1653 1764 1647 1530
8 1533 1649 1765 1654 1656 1766 1880 1772
8 1662 1542 1664 1778 1774 1658 1775 1887
8 1664 1543 1665 1779 1775 1659 1776 1888
8 1778 1664 1541 1661 1890 1779 1663 1777
8 1666 1548 1668 1781 1777 1663 1779 1890
8 1782 1669 1780 1891 1668 1550 1665 1779
8 1670 1551 1671 1784 1781 1668 1782 1893
8 1671 1552 1672 1785 1782 1669 1783 1894
8 1790 1675 1785 1896 1674 1554 1671 1784
8 1675 1555 1673 1789 1785 1672 1786 1897
8 1792 1676 1788 1903 1678 1556 1673 1789
8 1795 1678 1789 1904 1681 1558 1675 1790
8 1792 1676 1556 1678 1906 1791 1677 1794
8 1680 1557 1679 1797 1794 1677 1793 1909
8 1910 1794 1678 1795 1798 1680 1558 1681
8 1683 1559 1682 1800 1797 1679 1796 1912
8 1684 1560 1683 1801 1798 1680 1797 1913
8 1686 1564 1687 1803 1800 1682 1799 1915
8 1685 1563 1686 1802 1801 1683 1800 1916
8 1688 1566 1689 1805 1802 1686 1803 1917
8 1689 1567 1690 1806 1803 1687 1804 1918
8 1691 1569 1692 1808 1805 1689 1806 1920
8 1692 1570 1693 1809 1806 1690 1807 1921
8 1694 1572 1695 1810 1808 1692 1809 1922
8 1829 1713 1811 1926 1712 1592 1697 1813
8 1813 1697 1812 1928 1699 1577 1698 1815
8 1735 1614 1712 1828 1816 1699 1813 1929
8 1815 1698 1814 1931 1701 1578 1700 1818
8 1702 1579 1699 1816 1819 1701 1815 1932
8 1818 1700 1817 1933 1704 1580 1703 1820
8 1819 1701 1818 1934 1705 1581 1704 1821
8 1821 1704 1820 1935 1707 1584 1706 1822
8 1824 1709 1632 1751 1937 1823 1750 1865
8 1716 1593 1709 1824 1834 1715 1823 1937
8 1825 1710 1633 1752 1938 1824 1751 1866
8 1717 1594 1710 1825 1835 1716 1824 1938
8 1945 1830 1712 1828 1851 1733 1614 1735
8 1830 1714 1831 1946 1712 1592 1713 1829
8 1947 1832 1714 1830 1849 1730 1611 1733
8 1843 1729 1607 1725 1950 1833 1715 1834
8 1721 1603 1716 1835 1836 1725 1834 1951
8 1836 1725 1842 1953 1721 1603 1724 1839
8 1723 1838 1719 1601 1840 1954 1837 1722
8 1954 1840 1743 1852 1837 1722 1623 1736
8 1724 1839 1720 1602 1841 1955 1838 1723
8 1841 1727 1844 1956 1723 1605 1726 1840
8 1956 1844 1747 1859 1840 1726 1628 1743
8 1728 1842 1724 1606 1845 1957 1841 1727
8 1725 1607 1729 1843 1842 1728 1846 1958
8 1741 1627 1746 1857 1849 1730 1848 1965
8 1734 1612 1731 1850 1851 1733 1849 1966
8 1854 1741 1849 1966 1738 1622 1731 1850
8 1967 1859 1745 1853 1852 1743 1626 1737
8 1968 1860 1744 1856 1853 1745 1625 1739
8 1854 1741 1622 1738 1969 1857 1742 1855
8 1855 1742 1624 1740 1970 1858 1744 1856
8 1857 1746 1631 1742 1971 1861 1749 1858
8 1858 1749 1630 1744 1972 1863 1748 1860
8 1859 1747 1862 1973 1745 1629 1748 1860
8 1875 1768 1864 1977 1761 1651 1750 1865
8 1755 1644 1761 1869 1866 1751 1865 1978
8 1867 1760 1874 1979 1754 1646 1763 1868
8 1774 1658 1775 1887 1867 1760 1874 1979
8 1870 1766 1648 1756 1980 1877 1763 1868
8 1872 1762 1875 1981 1758 1645 1761 1869
8 1757 1649 1766 1870 1871 1765 1880 1982
8 1983 1879 1764 1873 1871 1765 1647 1759
8 1873 1764 1876 1984 1759 1647 1762 1872
8 1877 1773 1655 1763 1986 1881 1767 1874
8 1775 1659 1776 1888 1874 1767 1881 1986
8 1876 1769 1882 1987 1762 1652 1768 1875
8 1878 1770 1883 1988 1764 1653 1769 1876
8 1880 1772 1656 1766 1989 1886 1773 1877
8 1878 1770 1653 1764 1990 1884 1771 1879
8 1765 1654 1772 1880 1879 1771 1885 1991
8 1778 1664 1779 1890 1887 1775 1888 1997
8 1998 1889 1776 1888 1891 1780 1665 1779
8 1893 1782 1891 2000 1781 1668 1779 1890
8 1894 1783 1892 2001 1782 1669 1780 1891
8 1784 1671 1785 1896 1893 1782 1894 2003
8 1897 1786 1895 2004 1785 1672 1783 1894
8 1790 1675 1789 1904 1896 1785 1897 2006
8 1901 1787 1898 2007 1789 1673 1786 1897
8 1903 1788 1900 2013 1789 1673 1787 1901
8 1792 1676 1791 1906 1903 1788 1902 2016
8 1907 1792 1903 2017 1795 1678 1789 1904
8 1906 1791 1677 1794 2019 1905 1793 1909
8 1907 1792 1678 1795 2020 1906 1794 1910
8 1797 1679 1796 1912 1909 1793 1908 2022
8 1798 1680 1797 1913 1910 1794 1909 2023
8 1800 1682 1799 1915 1912 1796 1911 2025
8 1801 1683 1800 1916 1913 1797 1912 2026
8 1803 1687 1804 1918 1915 1799 1914 2028
8 1802 1686 1803 1917 1916 1800 1915 2029
8 1805 1689 1806 1920 1917 1803 1918 2030
8 1806 1690 1807 1921 1918 1804 1919 2031
8 1808 1692 1809 1922 1920 1806 1921 2032
8 1939 1826 1924 2037 1829 1713 1811 1926
8 1926 1811 1925 2039 1813 1697 1812 1928
8 1944 1829 1926 2040 1828 1712 1813 1929
8 1928 1812 1927 2042 1815 1698 1814 1931
8 1929 1813 1928 2043 1816 1699 1815 1932
8 1931 1814 1930 2044 1818 1700 1817 1933
8 1932 1815 1931 2045 1819 1701 1818 1934
8 1934 1818 1933 2046 1821 1704 1820 1935
8 2048 1936 1823 1937 1977 1864 1750 1865
8 1950 1833 1715 1834 2048 1936 1823 1937
8 1938 1824 1751 1866 2049 1937 1865 1978
8 1835 1716 1824 1938 1951 1834 1937 2049
8 1939 1826 1713 1829 2053 1942 1831 1946
8 1940 1827 1923 2035 2053 1942 1826 1939
8 1945 1830 1946 2058 1828 1712 1829 1944
8 2059 1947 1830 1945 1966 1849 1733 1851
8 1947 1832 1730 1849 2060 1948 1848 1965
8 1947 1832 1948 2060 1830 1714 1831 1946
8 1959 1847 1729 1843 2063 1949 1833 1950
8 1952 1843 1725 1836 2064 1950 1834 1951
8 1836 1725 1843 1952 1953 1842 1958 2066
8 1953 1842 1957 2067 1839 1724 1841 1955
8 1841 1955 1838 1723 1956 2068 1954 1840
8 2068 1956 1859 1967 1954 1840 1743 1852
8 1956 1844 1960 2069 1859 1747 1862 1973
8 1845 1957 1841 1727 1960 2069 1956 1844
8 1728 1842 1957 1845 1846 1958 2071 1961
8 1962 2072 1959 1847 1846 1958 1843 1729
8 1971 1861 1964 2077 1857 1746 1848 1965
8 1854 1741 1857 1969 1966 1849 1965 2078
8 1967 1859 1973 2079 1853 1745 1860 1968
8 1970 1858 1744 1856 2080 1972 1860 1968
8 1969 1857 1742 1855 2081 1971 1858 1970
8 1971 1861 1749 1858 2082 1974 1863 1972
8 1973 1862 1975 2083 1860 1748 1863 1972
8 1987 1882 1976 2086 1875 1768 1864 1977
8 1981 1875 1977 2087 1869 1761 1865 1978
8 1980 1877 1763 1868 2088 1986 1874 1979
8 1887 1775 1888 1997 1979 1874 1986 2088
8 1880 1982 2089 1989 1766 1870 1980 1877
8 1984 1876 1987 2090 1872 1762 1875 1981
8 1765 1871 1983 1879 1880 1982 2091 1991
8 1985 1878 1764 1873 2092 1990 1879 1983
8 1985 1878 1988 2093 1873 1764 1876 1984
8 2094 1992 1881 1986 1998 1889 1776 1888
8 1986 1881 1992 2094 1877 1773 1886 1989
8 1988 1883 1993 2095 1876 1769 1882 1987
8 1878 1770 1884 1990 1988 1883 1994 2096
8 1991 1885 1772 1880 2097 1996 1886 1989
8 1879 1771 1885 1991 1990 1884 1995 2098
8 2103 1998 1888 1997 2000 1891 1779 1890
8 2104 1999 1889 1998 2001 1892 1780 1891
8 2003 1894 2001 2106 1893 1782 1891 2000
8 2004 1895 2002 2107 1894 1783 1892 2001
8 2006 1897 2004 2109 1896 1785 1894 2003
8 2007 1898 2005 2110 1897 1786 1895 2004
8 2014 1901 2007 2112 1904 1789 1897 2006
8 2011 1899 2008 2113 1901 1787 1898 2007
8 2119 2010 1899 2011 2013 1900 1787 1901
8 2016 1902 2012 2122 1903 1788 1900 2013
8 2017 1903 2013 2123 1904 1789 1901 2014
8 1906 1791 1905 2019 2016 1902 2015 2125
8 1907 1792 1906 2020 2017 1903 2016 2126
8 1909 1793 1908 2022 2019 1905 2018 2128
8 2020 1906 1794 1910 2129 2019 1909 2023
8 1912 1796 1911 2025 2022 1908 2021 2131
8 1913 1797 1912 2026 2023 1909 2022 2132
8 1915 1799 1914 2028 2025 1911 2024 2134
8 1916 1800 1915 2029 2026 1912 2025 2135
8 1918 1804 1919 2031 2028 1914 2027 2136
8 1917 1803 1918 2030 2029 1915 2028 2137
8 1920 1806 1921 2032 2030 1918 2031 2138
8 1940 1827 1941 2054 2035 1923 2033 2140
8 2035 1923 2034 2143 1939 1826 1924 2037
8 2037 1924 2036 2146 1926 1811 1925 2039
8 2051 1939 2037 2147 1944 1829 1926 2040
8 2039 1925 2038 2149 1928 1812 1927 2042
8 2040 1926 2039 2150 1929 1813 1928 2043
8 2042 1927 2041 2151 1931 1814 1930 2044
8 2043 1928 2042 2152 1932 1815 1931 2045
8 2045 1931 2044 2153 1934 1818 1933 2046
8 2155 2047 1936 2048 2086 1976 1864 1977
8 2063 1949 1833 1950 2155 2047 1936 2048
8 2156 2048 1937 2049 2087 1977 1865 1978
8 2064 1950 1834 1951 2156 2048 1937 2049
8 2051 1939 1829 1944 2160 2053 1946 2058
8 2052 1940 2035 2144 2160 2053 1939 2051
8 2053 1942 1831 1946 2163 2057 1948 2060
8 2055 1943 1827 1940 2163 2057 1942 2053
8 2055 1943 2056 2164 1940 1827 1941 2054
8 2059 1947 1849 1966 2167 2060 1965 2078
8 2059 1947 2060 2167 1945 1830 1946 2058
8 2077 1964 2061 2168 1965 1848 1948 2060
8 2070 1963 1847 1959 2170 2062 1949 2063
8 2065 1959 1843 1952 2171 2063 1950 2064
8 2173 2072 1958 2066 2065 1959 1843 1952
8 1953 1842 1958 2066 2067 1957 2071 2174
8 2068 1956 2069 2175 1967 1859 1973 2079
8 2067 1957 2069 2175 1955 1841 1956 2068
8 1845 1957 2069 1960 1961 2071 2176 2073
8 2069 1960 2073 2176 1973 1862 1975 2083
8 2070 1963 2075 2177 1959 1847 1962 2072
8 1846 1958 2071 1961 1962 2072 2178 2074
8 2077 1964 1861 1971 2182 2076 1974 2082
8 2081 1971 2077 2183 1969 1857 1965 2078
8 2079 1973 2083 2184 1968 1860 1972 2080
8 2081 1971 1858 1970 2185 2082 1972 2080
8 2083 1975 2084 2186 1972 1863 1974 2082
8 2086 1976 1882 1987 2189 2085 1993 2095
8 2090 1987 2086 2190 1981 1875 1977 2087
8 2191 2094 1986 2088 2103 1998 1888 1997
8 2088 1986 2094 2191 1980 1877 1989 2089
8 1991 2091 2192 2097 1880 1982 2089 1989
8 2093 1988 2095 2193 1984 1876 1987 2090
8 1879 1983 2092 1990 1991 2091 2194 2098
8 1985 1878 1990 2092 2093 1988 2096 2195
8 2097 1996 1886 1989 2196 2099 1992 2094
8 2196 2099 1992 2094 2104 1999 1889 1998
8 1994 2096 1988 1883 2100 2197 2095 1993
8 2096 1994 1884 1990 2198 2101 1995 2098
8 1995 2098 2199 2102 1885 1991 2097 1996
8 2203 2104 1998 2103 2106 2001 1891 2000
8 2107 2002 2105 2204 2001 1892 1999 2104
8 2109 2004 2107 2206 2003 1894 2001 2106
8 2110 2005 2108 2207 2004 1895 2002 2107
8 2112 2007 2110 2209 2006 1897 2004 2109
8 2113 2008 2111 2210 2007 1898 2005 2110
8 2120 2011 2113 2212 2014 1901 2007 2112
8 2117 2009 2114 2213 2011 1899 2008 2113
8 2219 2116 2009 2117 2119 2010 1899 2011
8 2222 2118 2010 2119 2122 2012 1900 2013
8 2223 2119 2011 2120 2123 2013 1901 2014
8 2016 1902 2015 2125 2122 2012 2121 2225
8 2126 2016 2122 2226 2017 1903 2013 2123
8 2019 1905 2018 2128 2125 2015 2124 2228
8 2020 1906 2019 2129 2126 2016 2125 2229
8 2022 1908 2021 2131 2128 2018 2127 2231
8 2023 1909 2022 2132 2129 2019 2128 2232
8 2025 1911 2024 2134 2131 2021 2130 2234
8 2026 1912 2025 2135 2132 2022 2131 2235
8 1914 2028 2134 2024 2027 2136 2236 2133
8 2029 1915 2028 2137 2135 2025 2134 2237
8 2030 1918 2031 2138 2137 2028 2136 2238
8 2157 2050 2139 2240 2054 1941 2033 2140
8 2052 1940 2054 2161 2144 2035 2140 2242
8 2140 2033 2141 2243 2035 1923 2034 2143
8 2143 2034 2142 2246 2037 1924 2036 2146
8 2144 2035 2143 2247 2051 1939 2037 2147
8 2146 2036 2145 2249 2039 1925 2038 2149
8 2147 2037 2146 2250 2040 1926 2039 2150
8 2149 2038 2148 2251 2042 1927 2041 2151
8 2150 2039 2149 2252 2043 1928 2042 2152
8 2152 2042 2151 2253 2045 1931 2044 2153
8 2255 2154 2047 2155 2189 2085 1976 2086
8 2170 2062 1949 2063 2255 2154 2047 2155
8 2256 2155 2048 2156 2190 2086 1977 2087
8 2171 2063 1950 2064 2256 2155 2048 2156
8 2258 2159 2050 2157 2164 2056 1941 2054
8 2160 2053 1946 2058 2262 2163 2060 2167
8 2162 2055 1940 2052 2262 2163 2053 2160
8 2162 2055 2164 2263 2052 1940 2054 2161
8 2163 2057 1948 2060 2264 2165 2061 2168
8 2055 1943 2057 2163 2164 2056 2165 2264
8 2182 2076 2166 2268 2077 1964 2061 2168
8 2183 2077 2168 2269 2078 1965 2060 2167
8 2070 1963 2062 2170 2177 2075 2169 2271
8 2172 2070 1959 2065 2272 2170 2063 2171
8 2172 2070 2177 2273 2065 1959 2072 2173
8 2066 1958 2072 2173 2174 2071 2178 2274
8 2067 1957 2071 2174 2175 2069 2176 2275
8 2175 2069 2176 2275 2079 1973 2083 2184
8 2071 1961 2074 2178 2176 2073 2179 2276
8 2176 2073 2179 2276 2083 1975 2084 2186
8 2072 1962 2075 2177 2178 2074 2180 2277
8 2182 2076 1974 2082 2280 2181 2084 2186
8 2183 2077 1971 2081 2281 2182 2082 2185
8 2184 2083 2186 2282 2080 1972 2082 2185
8 2189 2085 1993 2095 2285 2188 2100 2197
8 2190 2086 1987 2090 2286 2189 2095 2193
8 2192 2097 1989 2089 2287 2196 2094 2191
8 2287 2196 2094 2191 2203 2104 1998 2103
8 2194 2098 1991 2091 2288 2199 2097 2192
8 2195 2096 2197 2289 2093 1988 2095 2193
8 2096 2195 2290 2198 1990 2092 2194 2098
8 2097 1996 2099 2196 2199 2102 2200 2291
8 2196 2099 1999 2104 2291 2200 2105 2204
8 2100 2197 2292 2201 1994 2096 2198 2101
8 1995 2098 2198 2101 2102 2199 2293 2202
8 2206 2107 2204 2296 2106 2001 2104 2203
8 2207 2108 2205 2297 2107 2002 2105 2204
8 2209 2110 2207 2299 2109 2004 2107 2206
8 2210 2111 2208 2300 2110 2005 2108 2207
8 2212 2113 2210 2302 2112 2007 2110 2209
8 2213 2114 2211 2303 2113 2008 2111 2210
8 2220 2117 2213 2305 2120 2011 2113 2212
8 2216 2115 2214 2306 2117 2009 2114 2213
8 2216 2115 2009 2117 2311 2217 2116 2219
8 2219 2116 2010 2119 2314 2218 2118 2222
8 2315 2219 2117 2220 2223 2119 2011 2120
8 2122 2012 2121 2225 2222 2118 2221 2317
8 2318 2222 2119 2223 2226 2122 2013 2123
8 2125 2015 2124 2228 2225 2121 2224 2320
8 2126 2016 2125 2229 2226 2122 2225 2321
8 2128 2018 2127 2231 2228 2124 2227 2323
8 2129 2019 2128 2232 2229 2125 2228 2324
8 2131 2021 2130 2234 2231 2127 2230 2326
8 2132 2022 2131 2235 2232 2128 2231 2327
8 2134 2024 2133 2236 2234 2130 2233 2328
8 2135 2025 2134 2237 2235 2131 2234 2329
8 2137 2028 2136 2238 2237 2134 2236 2330
8 2157 2050 2158 2259 2240 2139 2239 2332
8 2257 2157 2240 2334 2161 2054 2140 2242
8 2240 2139 2241 2335 2140 2033 2141 2243
8 2242 2140 2243 2337 2144 2035 2143 2247
8 2243 2141 2244 2338 2143 2034 2142 2246
8 2246 2142 2245 2341 2146 2036 2145 2249
8 2247 2143 2246 2342 2147 2037 2146 2250
8 2249 2145 2248 2343 2149 2038 2148 2251
8 2250 2146 2249 2344 2150 2039 2149 2252
8 2252 2149 2251 2345 2152 2042 2151 2253
8 2169 2271 2347 2254 2062 2170 2255 2154
8 2189 2085 2188 2285 2255 2154 2254 2347
8 2348 2255 2155 2256 2286 2189 2086 2190
8 2272 2170 2063 2171 2348 2255 2155 2256
8 2349 2258 2157 2257 2263 2164 2054 2161
8 2258 2159 2261 2351 2157 2050 2158 2259
8 2258 2159 2056 2164 2351 2261 2165 2264
8 2262 2163 2060 2167 2355 2264 2168 2269
8 2162 2055 2163 2262 2263 2164 2264 2355
8 2357 2266 2165 2264 2268 2166 2061 2168
8 2268 2166 2076 2182 2361 2267 2181 2280
8 2281 2182 2268 2362 2183 2077 2168 2269
8 2271 2169 2270 2364 2177 2075 2180 2277
8 2172 2070 2170 2272 2273 2177 2271 2365
8 2072 2173 2274 2178 2177 2273 2366 2277
8 2071 2174 2275 2176 2178 2274 2367 2276
8 2275 2176 2276 2367 2184 2083 2186 2282
8 2283 2187 2084 2186 2368 2278 2179 2276
8 2178 2074 2180 2277 2276 2179 2278 2368
8 2283 2187 2279 2370 2186 2084 2181 2280
8 2281 2182 2082 2185 2371 2280 2186 2282
8 2188 2285 2374 2284 2100 2197 2292 2201
8 2286 2189 2095 2193 2375 2285 2197 2289
8 2192 2097 2196 2287 2288 2199 2291 2376
8 2287 2196 2104 2203 2376 2291 2204 2296
8 2194 2098 2199 2288 2290 2198 2293 2377
8 2289 2197 2096 2195 2378 2292 2198 2290
8 2291 2200 2105 2204 2379 2294 2205 2297
8 2199 2102 2200 2291 2293 2202 2294 2379
8 2198 2101 2202 2293 2292 2201 2295 2380
8 2299 2207 2297 2383 2206 2107 2204 2296
8 2300 2208 2298 2384 2207 2108 2205 2297
8 2302 2210 2300 2386 2209 2110 2207 2299
8 2303 2211 2301 2387 2210 2111 2208 2300
8 2305 2213 2303 2389 2212 2113 2210 2302
8 2306 2214 2304 2390 2213 2114 2211 2303
8 2310 2216 2306 2392 2220 2117 2213 2305
8 2308 2215 2307 2393 2216 2115 2214 2306
8 2308 2215 2115 2216 2396 2309 2217 2311
8 2310 2216 2117 2220 2398 2311 2219 2315
8 2311 2217 2116 2219 2399 2312 2218 2314
8 2314 2218 2118 2222 2402 2313 2221 2317
8 2315 2219 2119 2223 2403 2314 2222 2318
8 2225 2121 2224 2320 2317 2221 2316 2405
8 2226 2122 2225 2321 2318 2222 2317 2406
8 2228 2124 2227 2323 2320 2224 2319 2408
8 2229 2125 2228 2324 2321 2225 2320 2409
8 2231 2127 2230 2326 2323 2227 2322 2411
8 2232 2128 2231 2327 2324 2228 2323 2412
8 2234 2130 2233 2328 2326 2230 2325 2413
8 2235 2131 2234 2329 2327 2231 2326 2414
8 2237 2134 2236 2330 2329 2234 2328 2415
8 2259 2158 2260 2352 2332 2239 2331 2417
8 2257 2157 2259 2350 2334 2240 2332 2419
8 2240 2139 2239 2332 2335 2241 2333 2420
8 2334 2240 2335 2422 2242 2140 2243 2337
8 2335 2241 2336 2423 2243 2141 2244 2338
8 2337 2243 2338 2425 2247 2143 2246 2342
8 2338 2244 2339 2426 2246 2142 2245 2341
8 2341 2245 2340 2428 2249 2145 2248 2343
8 2342 2246 2341 2429 2250 2146 2249 2344
8 2344 2249 2343 2430 2252 2149 2251 2345
8 2188 2285 2347 2254 2284 2374 2432 2346
8 2347 2254 2346 2432 2271 2169 2270 2364
8 2365 2271 2170 2272 2433 2347 2255 2348
8 2286 2189 2285 2375 2348 2255 2347 2433
8 2349 2258 2351 2435 2257 2157 2259 2350
8 2349 2258 2164 2263 2435 2351 2264 2355
8 2259 2158 2261 2351 2352 2260 2354 2437
8 2356 2265 2354 2437 2264 2165 2261 2351
8 2441 2357 2264 2355 2362 2268 2168 2269
8 2356 2265 2165 2264 2442 2358 2266 2357
8 2443 2359 2266 2357 2361 2267 2166 2268
8 2370 2279 2360 2446 2280 2181 2267 2361
8 2362 2268 2182 2281 2447 2361 2280 2371
8 2180 2277 2368 2278 2270 2364 2449 2363
8 2271 2365 2273 2177 2364 2450 2366 2277
8 2372 2283 2186 2282 2451 2368 2276 2367
8 2178 2274 2367 2276 2277 2366 2451 2368
8 2283 2187 2278 2368 2370 2279 2369 2452
8 2372 2283 2370 2453 2282 2186 2280 2371
8 2284 2374 2455 2373 2201 2292 2380 2295
8 2375 2285 2197 2289 2456 2374 2292 2378
8 2376 2291 2204 2296 2457 2379 2297 2383
8 2288 2199 2291 2376 2377 2293 2379 2457
8 2198 2290 2378 2292 2293 2377 2458 2380
8 2293 2202 2294 2379 2380 2295 2381 2459
8 2384 2298 2381 2459 2297 2205 2294 2379
8 2386 2300 2384 2463 2299 2207 2297 2383
8 2387 2301 2385 2464 2300 2208 2298 2384
8 2389 2303 2387 2466 2302 2210 2300 2386
8 2390 2304 2388 2467 2303 2211 2301 2387
8 2392 2306 2390 2469 2305 2213 2303 2389
8 2393 2307 2391 2470 2306 2214 2304 2390
8 2395 2308 2393 2472 2310 2216 2306 2392
8 2308 2215 2309 2396 2393 2307 2394 2473
8 2395 2308 2216 2310 2475 2396 2311 2398
8 2396 2309 2217 2311 2476 2397 2312 2399
8 2398 2311 2219 2315 2478 2399 2314 2403
8 2399 2312 2218 2314 2479 2400 2313 2402
8 2317 2221 2316 2405 2402 2313 2401 2482
8 2403 2314 2222 2318 2483 2402 2317 2406
8 2320 2224 2319 2408 2405 2316 2404 2485
8 2321 2225 2320 2409 2406 2317 2405 2486
8 2323 2227 2322 2411 2408 2319 2407 2488
8 2324 2228 2323 2412 2409 2320 2408 2489
8 2326 2230 2325 2413 2411 2322 2410 2490
8 2327 2231 2326 2414 2412 2323 2411 2491
8 2329 2234 2328 2415 2414 2326 2413 2492
8 2417 2331 2260 2352 2494 2416 2353 2438
8 2350 2259 2352 2436 2419 2332 2417 2496
8 2332 2239 2331 2417 2420 2333 2418 2497
8 2334 2240 2332 2419 2422 2335 2420 2499
8 2420 2333 2421 2500 2335 2241 2336 2423
8 2422 2335 2423 2502 2337 2243 2338 2425
8 2423 2336 2424 2503 2338 2244 2339 2426
8 2425 2338 2426 2505 2342 2246 2341 2429
8 2426 2339 2427 2506 2341 2245 2340 2428
8 2429 2341 2428 2507 2344 2249 2343 2430
8 2432 2346 2284 2374 2509 2431 2373 2455
8 2432 2346 2431 2509 2364 2270 2363 2449
8 2375 2285 2374 2456 2433 2347 2432 2510
8 2347 2433 2365 2271 2432 2510 2450 2364
8 2350 2259 2351 2435 2436 2352 2437 2514
8 2440 2356 2437 2514 2355 2264 2351 2435
8 2352 2260 2354 2437 2438 2353 2439 2516
8 2356 2265 2358 2442 2437 2354 2439 2516
8 2440 2356 2264 2355 2518 2442 2357 2441
8 2519 2443 2357 2441 2447 2361 2268 2362
8 2443 2359 2444 2520 2357 2266 2358 2442
8 2443 2359 2267 2361 2520 2444 2360 2446
8 2446 2360 2279 2370 2523 2445 2369 2452
8 2453 2370 2446 2524 2371 2280 2361 2447
8 2449 2363 2448 2525 2368 2278 2369 2452
8 2366 2277 2364 2450 2451 2368 2449 2526
8 2372 2283 2368 2451 2453 2370 2452 2527
8 2455 2373 2295 2380 2529 2454 2382 2460
8 2456 2374 2292 2378 2530 2455 2380 2458
8 2377 2293 2379 2457 2458 2380 2459 2531
8 2463 2384 2459 2531 2383 2297 2379 2457
8 2533 2461 2382 2460 2459 2381 2295 2380
8 2464 2385 2461 2533 2384 2298 2381 2459
8 2466 2387 2464 2537 2386 2300 2384 2463
8 2467 2388 2465 2538 2387 2301 2385 2464
8 2469 2390 2467 2540 2389 2303 2387 2466
8 2470 2391 2468 2541 2390 2304 2388 2467
8 2472 2393 2470 2543 2392 2306 2390 2469
8 2393 2307 2394 2473 2470 2391 2471 2544
8 2395 2308 2396 2475 2472 2393 2473 2546
8 2396 2309 2397 2476 2473 2394 2474 2547
8 2475 2396 2311 2398 2549 2476 2399 2478
8 2476 2397 2312 2399 2550 2477 2400 2479
8 2478 2399 2314 2403 2552 2479 2402 2483
8 2479 2400 2313 2402 2553 2480 2401 2482
8 2405 2316 2404 2485 2482 2401 2481 2556
8 2406 2317 2405 2486 2483 2402 2482 2557
8 2408 2319 2407 2488 2485 2404 2484 2559
8 2409 2320 2408 2489 2486 2405 2485 2560
8 2411 2322 2410 2490 2488 2407 2487 2561
8 2412 2323 2411 2491 2489 2408 2488 2562
8 2414 2326 2413 2492 2491 2411 2490 2563
8 2513 2434 2493 2565 2438 2353 2416 2494
8 2496 2417 2352 2436 2567 2494 2438 2515
8 2494 2416 2495 2568 2417 2331 2418 2497
8 2419 2332 2417 2496 2499 2420 2497 2570
8 2497 2418 2498 2571 2420 2333 2421 2500
8 2499 2420 2500 2573 2422 2335 2423 2502
8 2500 2421 2501 2574 2423 2336 2424 2503
8 2502 2423 2503 2576 2425 2338 2426 2505
8 2503 2424 2504 2577 2426 2339 2427 2506
8 2505 2426 2506 2578 2429 2341 2428 2507
8 2509 2431 2373 2455 2580 2508 2454 2529
8 2509 2431 2508 2580 2449 2363 2448 2525
8 2432 2510 2581 2509 2374 2456 2530 2455
8 2432 2510 2450 2364 2509 2581 2526 2449
8 2583 2511 2434 2513 2516 2439 2353 2438
8 2436 2352 2437 2514 2515 2438 2516 2588
8 2440 2356 2442 2518 2514 2437 2516 2588
8 2442 2358 2444 2520 2516 2439 2517 2589
8 2519 2443 2520 2591 2441 2357 2442 2518
8 2519 2443 2361 2447 2591 2520 2446 2524
8 2446 2360 2445 2523 2520 2444 2521 2592
8 2525 2448 2522 2593 2452 2369 2445 2523
8 2524 2446 2370 2453 2594 2523 2452 2527
8 2526 2449 2525 2595 2451 2368 2452 2527
8 2534 2462 2528 2597 2460 2382 2454 2529
8 2530 2455 2380 2458 2598 2529 2460 2532
8 2599 2533 2460 2532 2531 2459 2380 2458
8 2537 2464 2533 2599 2463 2384 2459 2531
8 2534 2462 2382 2460 2601 2535 2461 2533
8 2538 2465 2535 2601 2464 2385 2461 2533
8 2540 2467 2538 2604 2466 2387 2464 2537
8 2541 2468 2539 2605 2467 2388 2465 2538
8 2543 2470 2541 2607 2469 2390 2467 2540
8 2470 2391 2471 2544 2541 2468 2542 2608
8 2472 2393 2473 2546 2543 2470 2544 2610
8 2473 2394 2474 2547 2544 2471 2545 2611
8 2475 2396 2476 2549 2546 2473 2547 2613
8 2476 2397 2477 2550 2547 2474 2548 2614
8 2549 2476 2399 2478 2616 2550 2479 2552
8 2479 2400 2480 2553 2550 2477 2551 2617
8 2552 2479 2402 2483 2619 2553 2482 2557
8 2482 2401 2481 2556 2553 2480 2554 2620
8 2485 2404 2484 2559 2556 2481 2555 2623
8 2486 2405 2485 2560 2557 2482 2556 2624
8 2488 2407 2487 2561 2559 2484 2558 2625
8 2489 2408 2488 2562 2560 2485 2559 2626
8 2491 2411 2490 2563 2562 2488 2561 2627
8 2513 2434 2512 2585 2565 2493 2564 2630
8 2586 2513 2565 2632 2515 2438 2494 2567
8 2565 2493 2566 2633 2494 2416 2495 2568
8 2567 2494 2568 2635 2496 2417 2497 2570
8 2568 2495 2569 2636 2497 2418 2498 2571
8 2570 2497 2571 2638 2499 2420 2500 2573
8 2571 2498 2572 2639 2500 2421 2501 2574
8 2573 2500 2574 2641 2502 2423 2503 2576
8 2574 2501 2575 2642 2503 2424 2504 2577
8 2576 2503 2577 2643 2505 2426 2506 2578
8 2597 2528 2579 2645 2529 2454 2508 2580
8 2580 2508 2579 2645 2525 2448 2522 2593
8 2581 2509 2455 2530 2646 2580 2529 2598
8 2581 2509 2580 2646 2526 2449 2525 2595
8 2583 2511 2582 2648 2513 2434 2512 2585
8 2583 2511 2439 2516 2648 2582 2517 2589
8 2649 2583 2513 2586 2588 2516 2438 2515
8 2589 2517 2444 2520 2653 2587 2521 2592
8 2518 2442 2520 2591 2588 2516 2589 2654
8 2593 2522 2590 2655 2523 2445 2521 2592
8 2524 2446 2523 2594 2591 2520 2592 2656
8 2595 2525 2593 2657 2527 2452 2523 2594
8 2602 2536 2596 2659 2534 2462 2528 2597
8 2600 2534 2597 2660 2532 2460 2529 2598
8 2600 2534 2460 2532 2661 2601 2533 2599
8 2604 2538 2601 2661 2537 2464 2533 2599
8 2602 2536 2462 2534 2663 2603 2535 2601
8 2601 2535 2465 2538 2663 2603 2539 2605
8 2607 2541 2605 2665 2540 2467 2538 2604
8 2608 2542 2606 2666 2541 2468 2539 2605
8 2543 2470 2544 2610 2607 2541 2608 2668
8 2544 2471 2545 2611 2608 2542 2609 2669
8 2546 2473 2547 2613 2610 2544 2611 2671
8 2547 2474 2548 2614 2611 2545 2612 2672
8 2549 2476 2550 2616 2613 2547 2614 2674
8 2550 2477 2551 2617 2614 2548 2615 2675
8 2552 2479 2553 2619 2616 2550 2617 2677
8 2553 2480 2554 2620 2617 2551 2618 2678
8 2557 2482 2556 2624 2619 2553 2620 2680
8 2556 2481 2555 2623 2620 2554 2621 2681
8 2559 2484 2558 2625 2623 2555 2622 2683
8 2560 2485 2559 2626 2624 2556 2623 2684
8 2562 2488 2561 2627 2626 2559 2625 2685
8 2690 2629 2564 2630 2650 2584 2512 2585
8 2586 2513 2585 2651 2632 2565 2630 2691
8 2630 2564 2631 2692 2565 2493 2566 2633
8 2632 2565 2633 2694 2567 2494 2568 2635
8 2633 2566 2634 2695 2568 2495 2569 2636
8 2635 2568 2636 2697 2570 2497 2571 2638
8 2636 2569 2637 2698 2571 2498 2572 2639
8 2638 2571 2639 2700 2573 2500 2574 2641
8 2639 2572 2640 2701 2574 2501 2575 2642
8 2641 2574 2642 2702 2576 2503 2577 2643
8 2597 2528 2596 2659 2645 2579 2644 2704
8 2645 2579 2644 2704 2593 2522 2590 2655
8 2660 2597 2645 2705 2598 2529 2580 2646
8 2646 2580 2645 2705 2595 2525 2593 2657
8 2650 2584 2512 2585 2707 2647 2582 2648
8 2648 2582 2517 2589 2707 2647 2587 2653
8 2649 2583 2648 2708 2586 2513 2585 2651
8 2649 2583 2516 2588 2708 2648 2589 2654
8 2655 2590 2652 2710 2592 2521 2587 2653
8 2654 2589 2520 2591 2711 2653 2592 2656
8 2657 2593 2655 2712 2594 2523 2592 2656
8 2602 2536 2603 2663 2659 2596 2658 2714
8 2662 2602 2659 2715 2600 2534 2597 2660
8 2662 2602 2534 2600 2717 2663 2601 2661
8 2661 2601 2538 2604 2717 2663 2605 2665
8 2666 2606 2664 2718 2605 2539 2603 2663
8 2668 2608 2666 2720 2607 2541 2605 2665
8 2608 2542 2609 2669 2666 2606 2667 2721
8 2610 2544 2611 2671 2668 2608 2669 2723
8 2611 2545 2612 2672 2669 2609 2670 2724
8 2613 2547 2614 2674 2671 2611 2672 2726
8 2614 2548 2615 2675 2672 2612 2673 2727
8 2616 2550 2617 2677 2674 2614 2675 2729
8 2617 2551 2618 2678 2675 2615 2676 2730
8 2619 2553 2620 2680 2677 2617 2678 2732
8 2620 2554 2621 2681 2678 2618 2679 2733
8 2624 2556 2623 2684 2680 2620 2681 2735
8 2681 2621 2555 2623 2736 2682 2622 2683
8 2626 2559 2625 2685 2684 2623 2683 2737
8 2688 2628 2584 2650 2740 2686 2647 2707
8 2688 2628 2687 2742 2650 2584 2629 2690
8 2690 2629 2689 2745 2630 2564 2631 2692
8 2746 2690 2630 2691 2709 2650 2585 2651
8 2691 2630 2692 2747 2632 2565 2633 2694
8 2692 2631 2693 2748 2633 2566 2634 2695
8 2694 2633 2695 2750 2635 2568 2636 2697
8 2695 2634 2696 2751 2636 2569 2637 2698
8 2697 2636 2698 2753 2638 2571 2639 2700
8 2698 2637 2699 2754 2639 2572 2640 2701
8 2700 2639 2701 2755 2641 2574 2642 2702
8 2659 2596 2658 2714 2704 2644 2703 2757
8 2704 2644 2703 2757 2655 2590 2652 2710
8 2660 2597 2659 2715 2705 2645 2704 2758
8 2705 2645 2704 2758 2657 2593 2655 2712
8 2759 2706 2647 2707 2710 2652 2587 2653
8 2709 2650 2585 2651 2760 2707 2648 2708
8 2708 2648 2589 2654 2760 2707 2653 2711
8 2712 2655 2710 2761 2656 2592 2653 2711
8 2763 2713 2658 2714 2718 2664 2603 2663
8 2662 2602 2663 2717 2715 2659 2714 2764
8 2720 2666 2718 2767 2665 2605 2663 2717
8 2768 2719 2664 2718 2721 2667 2606 2666
8 2668 2608 2669 2723 2720 2666 2721 2770
8 2669 2609 2670 2724 2721 2667 2722 2771
8 2671 2611 2672 2726 2723 2669 2724 2773
8 2672 2612 2673 2727 2724 2670 2725 2774
8 2674 2614 2675 2729 2726 2672 2727 2776
8 2675 2615 2676 2730 2727 2673 2728 2777
8 2677 2617 2678 2732 2729 2675 2730 2779
8 2678 2618 2679 2733 2730 2676 2731 2780
8 2680 2620 2681 2735 2732 2678 2733 2782
8 2733 2679 2621 2681 2783 2734 2682 2736
8 2735 2681 2623 2684 2784 2736 2683 2737
8 2740 2686 2647 2707 2787 2738 2706 2759
8 2688 2628 2686 2740 2742 2687 2739 2789
8 2743 2688 2650 2709 2790 2740 2707 2760
8 2742 2687 2741 2792 2690 2629 2689 2745
8 2743 2688 2742 2793 2709 2650 2690 2746
8 2745 2689 2744 2795 2692 2631 2693 2748
8 2746 2690 2745 2796 2691 2630 2692 2747
8 2747 2692 2748 2797 2694 2633 2695 2750
8 2748 2693 2749 2798 2695 2634 2696 2751
8 2750 2695 2751 2800 2697 2636 2698 2753
8 2751 2696 2752 2801 2698 2637 2699 2754
8 2753 2698 2754 2802 2700 2639 2701 2755
8 2763 2713 2756 2804 2714 2658 2703 2757
8 2759 2706 2652 2710 2804 2756 2703 2757
8 2715 2659 2714 2764 2758 2704 2757 2805
8 2758 2704 2757 2805 2712 2655 2710 2761
8 2806 2759 2707 2760 2761 2710 2653 2711
8 2765 2716 2762 2808 2718 2664 2713 2763
8 2809 2763 2714 2764 2767 2718 2663 2717
8 2765 2716 2664 2718 2811 2766 2719 2768
8 2813 2768 2718 2767 2770 2721 2666 2720
8 2814 2769 2719 2768 2771 2722 2667 2721
8 2723 2669 2724 2773 2770 2721 2771 2816
8 2724 2670 2725 2774 2771 2722 2772 2817
8 2726 2672 2727 2776 2773 2724 2774 2819
8 2727 2673 2728 2777 2774 2725 2775 2820
8 2729 2675 2730 2779 2776 2727 2777 2822
8 2730 2676 2731 2780 2777 2728 2778 2823
8 2732 2678 2733 2782 2779 2730 2780 2825
8 2780 2731 2679 2733 2826 2781 2734 2783
8 2782 2733 2681 2735 2827 2783 2736 2784
8 2830 2785 2738 2787 2804 2756 2706 2759
8 2789 2739 2686 2740 2832 2786 2738 2787
8 2790 2740 2707 2760 2833 2787 2759 2806
8 2742 2687 2739 2789 2792 2741 2788 2835
8 2743 2688 2740 2790 2793 2742 2789 2836
8 2792 2741 2791 2838 2745 2689 2744 2795
8 2793 2742 2792 2839 2746 2690 2745 2796
8 2795 2744 2794 2841 2748 2693 2749 2798
8 2796 2745 2795 2842 2747 2692 2748 2797
8 2797 2748 2798 2843 2750 2695 2751 2800
8 2798 2749 2799 2844 2751 2696 2752 2801
8 2800 2751 2801 2845 2753 2698 2754 2802
8 2808 2762 2803 2847 2763 2713 2756 2804
8 2809 2763 2804 2848 2764 2714 2757 2805
8 2806 2759 2710 2761 2848 2804 2757 2805
8 2765 2716 2766 2811 2808 2762 2807 2850
8 2810 2765 2808 2851 2767 2718 2763 2809
8 2810 2765 2718 2767 2852 2811 2768 2813
8 2811 2766 2719 2768 2853 2812 2769 2814
8 2855 2814 2768 2813 2816 2771 2721 2770
8 2856 2815 2769 2814 2817 2772 2722 2771
8 2773 2724 2774 2819 2816 2771 2817 2858
8 2774 2725 2775 2820 2817 2772 2818 2859
8 2776 2727 2777 2822 2819 2774 2820 2861
8 2777 2728 2778 2823 2820 2775 2821 2862
8 2779 2730 2780 2825 2822 2777 2823 2864
8 2823 2778 2731 2780 2865 2824 2781 2826
8 2825 2780 2733 2782 2866 2826 2783 2827
8 2869 2828 2785 2830 2847 2803 2756 2804
8 2871 2829 2786 2832 2830 2785 2738 2787
8 2872 2830 2787 2833 2848 2804 2759 2806
8 2789 2739 2786 2832 2835 2788 2831 2874
8 2836 2789 2740 2790 2875 2832 2787 2833
8 2792 2741 2788 2835 2838 2791 2834 2877
8 2793 2742 2789 2836 2839 2792 2835 2878
8 2838 2791 2837 2880 2795 2744 2794 2841
8 2839 2792 2838 2881 2796 2745 2795 2842
8 2841 2794 2840 2882 2798 2749 2799 2844
8 2842 2795 2841 2883 2797 2748 2798 2843
8 2843 2798 2844 2884 2800 2751 2801 2845
8 2886 2846 2803 2847 2850 2807 2762 2808
8 2851 2808 2847 2887 2809 2763 2804 2848
8 2850 2807 2766 2811 2889 2849 2812 2853
8 2810 2765 2811 2852 2851 2808 2850 2890
8 2852 2811 2768 2813 2891 2853 2814 2855
8 2853 2812 2769 2814 2892 2854 2815 2856
8 2894 2856 2814 2855 2858 2817 2771 2816
8 2817 2772 2818 2859 2856 2815 2857 2895
8 2819 2774 2820 2861 2858 2817 2859 2897
8 2820 2775 2821 2862 2859 2818 2860 2898
8 2822 2777 2823 2864 2861 2820 2862 2900
8 2823 2778 2824 2865 2862 2821 2863 2901
8 2864 2823 2780 2825 2902 2865 2826 2866
8 2904 2867 2828 2869 2886 2846 2803 2847
8 2869 2828 2868 2906 2830 2785 2829 2871
8 2907 2869 2830 2872 2887 2847 2804 2848
8 2871 2829 2870 2909 2832 2786 2831 2874
8 2910 2871 2832 2875 2872 2830 2787 2833
8 2835 2788 2831 2874 2877 2834 2873 2912
8 2836 2789 2832 2875 2878 2835 2874 2913
8 2877 2834 2876 2915 2838 2791 2837 2880
8 2839 2792 2835 2878 2881 2838 2877 2916
8 2880 2837 2879 2917 2841 2794 2840 2882
8 2881 2838 2880 2918 2842 2795 2841 2883
8 2883 2841 2882 2919 2843 2798 2844 2884
8 2921 2885 2846 2886 2889 2849 2807 2850
8 2922 2886 2847 2887 2890 2850 2808 2851
8 2889 2849 2812 2853 2924 2888 2854 2892
8 2890 2850 2811 2852 2925 2889 2853 2891
8 2891 2853 2814 2855 2926 2892 2856 2894
8 2892 2854 2815 2856 2927 2893 2857 2895
8 2858 2817 2859 2897 2894 2856 2895 2929
8 2859 2818 2860 2898 2895 2857 2896 2930
8 2861 2820 2862 2900 2897 2859 2898 2932
8 2862 2821 2863 2901 2898 2860 2899 2933
8 2864 2823 2865 2902 2900 2862 2901 2934
8 2904 2867 2846 2886 2936 2903 2885 2921
8 2904 2867 2903 2936 2869 2828 2868 2906
8 2937 2904 2869 2907 2922 2886 2847 2887
8 2906 2868 2905 2939 2871 2829 2870 2909
8 2907 2869 2906 2940 2872 2830 2871 2910
8 2909 2870 2908 2942 2874 2831 2873 2912
8 2910 2871 2909 2943 2875 2832 2874 2913
8 2912 2873 2911 2945 2877 2834 2876 2915
8 2878 2835 2874 2913 2916 2877 2912 2946
8 2915 2876 2914 2947 2880 2837 2879 2917
8 2916 2877 2915 2948 2881 2838 2880 2918
8 2918 2880 2917 2949 2883 2841 2882 2919
8 2921 2885 2849 2889 2951 2920 2888 2924
8 2952 2921 2886 2922 2925 2889 2850 2890
8 2924 2888 2854 2892 2954 2923 2893 2927
8 2925 2889 2853 2891 2955 2924 2892 2926
8 2926 2892 2856 2894 2956 2927 2895 2929
8 2895 2857 2896 2930 2927 2893 2928 2957
8 2897 2859 2898 2932 2929 2895 2930 2959
8 2898 2860 2899 2933 2930 2896 2931 2960
8 2900 2862 2901 2934 2932 2898 2933 2961
8 2936 2903 2885 2921 2963 2935 2920 2951
8 2936 2903 2935 2963 2906 2868 2905 2939
8 2937 2904 2886 2922 2964 2936 2921 2952
8 2937 2904 2936 2964 2907 2869 2906 2940
8 2939 2905 2938 2966 2909 2870 2908 2942
8 2940 2906 2939 2967 2910 2871 2909 2943
8 2942 2908 2941 2969 2912 2873 2911 2945
8 2943 2909 2942 2970 2913 2874 2912 2946
8 2945 2911 2944 2971 2915 2876 2914 2947
8 2946 2912 2945 2972 2916 2877 2915 2948
8 2948 2915 2947 2973 2918 2880 2917 2949
8 2951 2920 2888 2924 2975 2950 2923 2954
8 2952 2921 2889 2925 2976 2951 2924 2955
8 2927 2893 2928 2957 2954 2923 2953 2978
8 2955 2924 2892 2926 2979 2954 2927 2956
8 2929 2895 2930 2959 2956 2927 2957 2980
8 2930 2896 2931 2960 2957 2928 2958 2981
8 2932 2898 2933 2961 2959 2930 2960 2982
8 2951 2920 2950 2975 2963 2935 2962 2984
8 2963 2935 2962 2984 2939 2905 2938 2966
8 2964 2936 2921 2952 2985 2963 2951 2976
8 2964 2936 2963 2985 2940 2906 2939 2967
8 2966 2938 2965 2987 2942 2908 2941 2969
8 2967 2939 2966 2988 2943 2909 2942 2970
8 2969 2941 2968 2989 2945 2911 2944 2971
8 2970 2942 2969 2990 2946 2912 2945 2972
8 2972 2945 2971 2991 2948 2915 2947 2973
8 2954 2923 2953 2978 2975 2950 2974 2993
8 2976 2951 2924 2955 2994 2975 2954 2979
8 2957 2928 2958 2981 2978 2953 2977 2995
8 2956 2927 2957 2980 2979 2954 2978 2996
8 2959 2930 2960 2982 2980 2957 2981 2997
8 2984 2962 2983 2999 2966 2938 2965 2987
8 2975 2950 2974 2993 2984 2962 2983 2999
8 2976 2951 2975 2994 2985 2963 2984 3000
8 2985 2963 2984 3000 2967 2939 2966 2988
8 2987 2965 2986 3001 2969 2941 2968 2989
8 2988 2966 2987 3002 2970 2942 2969 2990
8 2990 2969 2989 3003 2972 2945 2971 2991
8 2978 2953 2977 2995 2993 2974 2992 3004
8 2979 2954 2978 2996 2994 2975 2993 3005
8 2980 2957 2981 2997 2996 2978 2995 3006
8 2974 2993 2999 2983 2992 3004 3007 2998
8 2983 2999 2987 2965 2998 3007 3001 2986
8 3000 2984 2999 3008 2988 2966 2987 3002
8 2994 2975 2993 3005 3000 2984 2999 3008
8 3002 2987 3001 3009 2990 2969 2989 3003
8 2996 2978 2995 3006 3005 2993 3004 3010
8 3005 2993 3004 3010 3008 2999 3007 3011
8 3008 2999 3007 3011 3002 2987 3001 3009

CELL_TYPES 1910
12
12
12
12
12
12
12
12
12
12
12
12
12
12
12
12
12
12
12
12
12
12
12
12
12
12
12
12
12
12
12
12
12
12
12
12
12
12
12
12
12
12
12
12
12
12
12
12
12
12
12
12
12
12
12
12
12
12
12
12
12
12
12
12
12
12
12
12
12
12
12
12
12
12
12
12
12
12
12
12
12
12
12
12
12
12
12
12
12
12
12
12
12
12
12
12
12
12
12
12
12
12
12
12
12
12
12
12
12
12
12
12
12
12
12
12
12
12
12
12
12
12
12
12
12
12
12
12
12
12
12
12
12
12
12
12
12
12
12
12
12
12
12
12
12
12
12
12
12
12
12
12
12
12
12
12
12
12
12
12
12
12
12
12
12
12
12
12
12
12
12
12
12
12
12
12
12
12
12
12
12
12
12
12
12
12
12
12
12
12
12
12
12
12
12
12
12
12
12
12
12
12
12
12
12
12
12
12
12
12
12
12
12
12
12
12
12
12
12
12
12
12
12
12
12
12
12
12
12
12
12
12
12
12
12
12
12
12
12
12
12
12
12
12
12
12
12
12
12
12
12
12
12
12
12
12
12
12
12
12
12
12
12
12
12
12
12
12
12
12
12
12
12
12
12
12
12
12
12
12
12
12
12
12
12
12
12
12
12
12
12
12
12
12
12
12
12
12
12
12
12
12
12
12
12
12
12
12
12
12
12
12
12
12
12
12
12
12
12
12
12
12
12
12
12
12
12
12
12
12
12
12
12
12
12
12
12
12
12
12
12
12
12
12
12
12
12
12
12
12
12
12
12
12
12
12
12
12
12
12
12
12
12
12
12
12
12
12
12
12
12
12
12
12
12
12
12
12
12
12
12
12
12
12
12
12
12
12
12
12
12
12
12
12
12
12
12
12
12
12
12
12
12
12
12
12
12
12
12
12
12
12
12
12
12
12
12
12
12
12
12
12
12
12
12
12
12
12
12
12
12
12
12
12
12
12
12
12
12
12
12
12
12
12
12
12
12
12
12
12
12
12
12
12
12
12
12
12
12
12
12
12
12
12
12
12
12
12
12
12
12
12
12
12
12
12
12
12
12
12
12
12
12
12
12
12
12
12
12
12
12
12
12
12
12
12
12
12
12
12
12
12
12
12
12
12
12
12
12
12
12
12
12
12
12
12
12
12
12
12
12
12
12
12
12
12
12
12
12
12
12
12
12
12
12
12
12
12
12
12
12
12
12
12
12
12
12
12
12
12
12
12
12
12
12
12
12
12
12
12
12
12
12
12
12
12
12
12
12
12
12
12
12
12
12
12
12
12
12
12
12
12
12
12
12
12
12
12
12
12
12
12
12
12
12
12
12
12
12
12
12
12
12
12
12
12
12
12
12
12
12
12
12
12
12
12
12
12
12
12
12
12
12
12
12
12
12
12
12
12
12
12
12
12
12
12
12
12
12
12
12
12
12
12
12
12
12
12
12
12
12
12
12
12
12
12
12
12
12
12
12
12
12
12
12
12
12
12
12
12
12
12
12
12
12
12
12
12
12
12
12
12
12
12
12
12
12
12
12
12
12
12
12
12
12
12
12
12
12
12
12
12
12
12
12
12
12
12
12
12
12
12
12
12
12
12
12
12
12
12
12
12
12
12
12
12
12
12
12
12
12
12
12
12
12
12
12
12
12
12
12
12
12
12
12
12
12
12
12
12
12
12
12
12
12
12
12
12
12
12
12
12
12
12
12
12
12
12
12
12
12
12
12
12
12
12
12
12
12
12
12
12
12
12
12
12
12
12
12
12
12
12
12
12
12
12
12
12
12
12
12
12
12
12
12
12
12
12
12
12
12
12
12
12
12
12
12
12
12
12
12
12
12
12
12
12
12
12
12
12
12
12
12
12
12
12
12
12
12
12
12
12
12
12
12
12
12
12
12
12
12
12
12
12
12
12
12
12
12
12
12
12
12
12
12
12
12
12
12
12
12
12
12
12
12
12
12
12
12
12
12
12
12
12
12
12
12
12
12
12
12
12
12
12
12
12
12
12
12
12
12
12
12
12
12
12
12
12
12
12
12
12
12
12
12
12
12
12
12
12
12
12
12
12
12
12
12
12
12
12
12
12
12
12
12
12
12
12
12
12
12
12
12
12
12
12
12
12
12
12
12
12
12
12
12
12
12
12
12
12
12
12
12
12
12
12
12
12
12
12
12
12
12
12
12
12
12
12
12
12
12
12
12
12
12
12
12
12
12
12
12
12
12
12
12
12
12
12
12
12
12
12
12
12
12
12
12
12
12
12
12
12
12
12
12
12
12
12
12
12
12
12
12
12
12
12
12
12
12
12
12
12
12
12
12
12
12
12
12
12
12
12
12
12
12
12
12
12
12
12
12
12
12
12
12
12
12
12
12
12
12
12
12
12
12
12
12
12
12
12
12
12
12
12
12
12
12
12
12
12
12
12
12
12
12
12
12
12
12
12
12
12
12
12
12
12
12
12
12
12
12
12
12
12
12
12
12
12
12
12
12
12
12
12
12
12
12
12
12
12
12
12
12
12
12
12
12
12
12
12
12
12
12
12
12
12
12
12
12
12
12
12
12
12
12
12
12
12
12
12
12
12
12
12
12
12
12
12
12
12
12
12
12
12
12
12
12
12
12
12
12
12
12
12
12
12
12
12
12
12
12
12
12
12
12
12
12
12
12
12
12
12
12
12
12
12
12
12
12
12
12
12
12
12
12
12
12
12
12
12
12
12
12
12
12
12
12
12
12
12
12
12
12
12
12
12
12
12
12
12
12
12
12
12
12
12
12
12
12
12
12
12
12
12
12
12
12
12
12
12
12
12
12
12
12
12
12
12
12
12
12
12
12
12
12
12
12
12
12
12
12
12
12
12
12
12
12
12
12
12
12
12
12
12
12
12
12
12
12
12
12
12
12
12
12
12
12
12
12
12
12
12
12
12
12
12
12
12
12
12
12
12
12
12
12
12
12
12
12
12
12
12
12
12
12
12
12
12
12
12
12
12
12
12
12
12
12
12
12
12
12
12
12
12
12
12
12
12
12
12
12
12
12
12
12
12
12
12
12
12
12
12
12
12
12
12
12
12
12
12
12
12
12
12
12
12
12
12
12
12
12
12
12
12
12
12
12
12
12
12
12
12
12
12
12
12
12
12
12
12
12
12
12
12
12
12
12
12
12
12
12
12
12
12
12
12
12
12
12
12
12
12
12
12
12
12
12
12
12
12
12
12
12
12
12
12
12
12
12
12
12
12
12
12
12
12
12
12
12
12
12
12
12
12
12
12
12
12
12
12
12
12
12
12
12
12
12
12
12
12
12
12
12
12
12
12
12
12
12
12
12
12
12
12
12
12
12
12
12
12
12
12
12
12
12
12
12
12
12
12
12
12
12
12
12
12
12
12
12
12
12
12
12
12
12
12
12
12
12
12
12
12
12
12
12
12
12
12
12
12
12
12
12
12
12
12
12
12
12
12
12
12
12
12
12
12
12
12
12
12
12
12
12
12
12
12
12
12
12
12
12
12
12
12
12
12
12
12
12
12
12
12
12
12
12
12
12
12
12
12
12
12
12
12
12
12
12
12
12
12
12
12
12
12
12
12
12
12
12
12
12
12
12
12
12
12
12
12
12
12
12
12
12
12
12
12
12
12
12
12
12
12
12
12
12
12
12
12
12
12
12
12
12
12
12
12
12
12
12
12
12
12
12
12
12
12
12
12
12
12
12
12
12
12
12
12
12
12
12
12
12
12
12
12
12
12
12
12
12
12
12
12
12
12
12
12
12
12
12
12
12
12
12
12
12
12
12
12
12
12
12
12
12
12
12
12
12
12
12
12
12
12
12
12
12
12
12
12
12
12
12
12
12
12
12
12
12
12
12
12
12
12
12
12
12
12
12
12
12
12
12
12
12
12
12
12
12
12
12
12
12
12
12
12
12
12
12
12
12
12
12
12
12
12
12
12
12
12
12
12
12
12
12
12
12
12
12
12
12
12
12
12
12
12
12
12
12
12
12
12
12
12
12
12
12
12
12
12
12
12
12
12
12
12
12
12
12
12
12
12
12
12
12
12
12
12
12
12
12
12
12
12
12
12
12
12
12
12
12
12
12
12
12
12
12
12
12
12
12
12
12
12
12
12
12
12
12
12
12
12
12
12
12
12
12
12
12
12
12
12
12
12
12
12
12
12
12
12
12
12
12
12
12
12
12
12
12
12
12
12
12
12
12
12
12
12
12
12
12
12
12
12
12
12
12
12
12
12
12
12
12
12
12
12
12
12
12
12
12
12
12
12
12
12
12
12
12
12
12
12

POINT_DATA 3012
SCALARS Jp_lamdaP float 4
LOOKUP_TABLE default
0.999546 1 1 0.999546
1 1 1 1
0.99956 1 1 0.99956
0.999488 1 1 0.999488
0.999548 1 1 0.999548
0.99952 1 1 0.99952
1.00527 1.00672 1 0.998556
1 1 1 1
1 1 1 1
1 1 1 1
0.999613 1 1 0.999613
1.00142 1.00281 1 0.998612
0.999512 1 1 0.999512
0.999505 1 1 0.999505
0.999564 1 1 0.999564
0.999521 1 1 0.999521
0.999529 1 1 0.999529
0.999571 1 1 0.999571
1.0053 1.00675 1 0.998556
1 1 1 1
0.999474 1 1 0.999474
0.999522 1 1 0.999522
1.00124 1.0028 1 0.998446
1.00442 1.00588 1 0.998541
0.999513 1 1 0.999513
1.0044 1.00585 1 0.998555
1.02747 1.03048 1 0.997074
1 1 1 1
0.999769 1 1 0.999769
0.999782 1 1 0.999782
1 1 1 1
1.0006 1.00198 1 0.998621
0.999529 1 1 0.999529
0.999558 1 1 0.999558
1.00571 1.00698 1 0.998742
1 1 1 1
1.00429 1.00548 1 0.998814
0.999163 1.00046 1 0.998703
1.01676 1.01979 1 0.997026
1 1 1 1
1 1 1 1
0.999754 1 1 0.999754
1 1 1 1
0.99952 1 1 0.99952
0.99838 1 1 0.998378
1 1 1 1
1.00025 1.0016 1 0.998649
0.999549 1 1 0.999549
0.999587 1 1 0.999587
0.999531 1 1 0.999531
1.00535 1.0068 1 0.99856
0.99974 1 1 0.99974
0.999504 1 1 0.999504
0.999528 1 1 0.999528
0.999552 1 1 0.999552
1.00097 1.00254 1 0.998439
1.0045 1.00595 1 0.998557
1.00433 1.0058 1 0.99854
1.02763 1.03065 1 0.997063
1 1 1 1
0.999485 1 1 0.999485
0.998714 1 1 0.998714
0.999442 1.00102 1 0.998426
1.00307 1.00458 1 0.998495
1.02962 1.03287 1 0.996857
1.02806 1.0312 1 0.996954
0.999569 1 1 0.999569
0.99986 1.00123 1 0.998636
1.02533 1.02827 1 0.997142
1.04781 1.05182 1 0.996194
1 1 1 1
1 1 1 1
1 1 1 1
1.00004 1.00141 1 0.99863
1 1 1 1
1 1 1 1
1.00549 1.00699 1 0.998501
0.99985 1 1 0.99985
1.00323 1.00464 1 0.998594
0.999398 1.00045 1.00009 0.998864
1.01674 1.01978 1 0.997022
1 1 1 1
1.00183 1 1.00224 0.999586
1.00446 1.00605 1 0.998416
1.00538 1.00685 1 0.998531
1.03289 1.03639 1 0.99663
0.999687 1 1.0005 0.999184
1.02294 1.02609 1 0.99693
1.01197 1.0148 1.00003 0.997189
1.03334 1.03721 1 0.996261
1 1 1 1
1 1 1 1
1 1 1 1
1 1 1 1
1 1 1 1
0.99976 1 1 0.99976
0.998611 1.00008 1 0.998535
0.999753 1 1 0.999753
1.00093 1.00241 1 0.998525
1 1 1 1
0.99841 1 1 0.99841
0.998964 1.00031 1 0.998656
1.02342 1.02698 1 0.996537
1.00274 1.00407 1 0.99868
1.03196 1.03555 1 0.996535
0.999537 1 1 0.999537
0.999531 1 1 0.999531
0.999537 1 1 0.999537
0.999578 1 1 0.999578
1.00072 1.00229 1 0.998435
1.00426 1.00572 1 0.998542
1.00451 1.00596 1 0.998562
1.02784 1.03088 1 0.997051
1 1 1 1
0.999513 1 1 0.999513
0.998445 1 1 0.998445
0.999208 1.00079 1 0.998417
0.999787 1 1 0.999787
1.00064 1.00192 1 0.998725
1.00287 1.00439 1 0.998492
1.02965 1.03292 1 0.996831
1.02484 1.02779 1 0.997128
1.02866 1.03178 1 0.996974
1.04766 1.05166 1 0.996203
0.998434 1 1 0.998434
0.998606 1.00017 1 0.998438
1.02224 1.02549 1 0.996829
1.027 1.03029 1 0.996807
1.02958 1.0328 1 0.996874
1.06079 1.06479 1 0.996243
1 1 1 1
1.05159 1.05559 1 0.996211
0.99934 1.00011 1.00043 0.998802
1.01647 1.01945 1 0.997081
1.04435 1.04836 1 0.996174
1.05238 1.05641 1 0.996186
1.00157 1 1.00235 0.999219
1.00647 1 1.00852 0.997966
1 1 1 1
1 1 1 1
1.00545 1.00695 1 0.998506
1 1 1 1
0.999354 1.00023 1.00034 0.998787
1.00251 1.00391 1 0.998601
1.01643 1.01947 1 0.997018
1 1 1 1
1.00167 1 1.00206 0.999611
1.00495 1.0064 1 0.998564
1.00519 1.00653 1 0.998666
1.03219 1.03568 1 0.996629
0.999993 1 1.00092 0.999077
1.023 1.02615 1 0.996932
1.00981 1.01259 1.00007 0.997186
1.03454 1.03843 1 0.996259
1.00126 1 1.00193 0.999334
1.00127 1 1.0015 0.999769
1.00497 1.00024 1.00643 0.998309
1.0348 1.03839 1 0.996546
1.02944 1.03276 1 0.996777
1.05538 1.05952 1 0.996097
1.00575 1.00737 1.00089 0.997502
1.042 1.0459 1 0.996279
1.02356 1.02675 1.00057 0.996328
1.0413 1.04532 1 0.996155
1 1 1 1
1 1 1 1
1 1 1 1
1.00176 1 1.00236 0.999401
1 1 1 1
1 1 1 1
1 1 1 1
1.00142 1.00302 1 0.998404
0.998572 1.00016 1 0.998415
1 1 1 1
1 1 1 1
0.998411 1 1 0.998411
0.999164 1.00063 1 0.998534
1.02414 1.0277 1 0.996538
1.00308 1.00467 1 0.998409
1.03137 1.03496 1 0.996534
0.998412 1 1 0.998412
1.02183 1.0254 1 0.996516
1.02683 1.03039 1 0.99655
1.06444 1.06882 0.999607 0.996294
1.03471 1.03833 1 0.996522
1.0674 1.07142 1 0.996246
1 1 1 1
0.999541 1 1 0.999541
0.998147 1 1 0.998147
0.998998 1.00059 1 0.998409
1 1 1 1
1.00172 1.00291 1 0.998817
1.00268 1.0042 1 0.998492
1.0297 1.033 1 0.996805
1.0294 1.0325 1 0.996994
1.02419 1.02716 1 0.997114
1.04746 1.05144 1 0.996212
0.998432 1 1 0.998432
0.998542 1.00011 1 0.998429
1.02218 1.02557 1 0.996689
1.02738 1.03066 1 0.996818
1 1 1 1
0.999771 1.00067 1.00022 0.998885
1.01782 1.0207 1 0.997175
1.03001 1.03325 1 0.996867
1.06091 1.0649 1 0.99625
1.04442 1.04844 1 0.996171
1.05172 1.05568 1 0.996244
1.05195 1.05597 1 0.996195
1.00139 1 1.00218 0.999207
1.00542 1.00007 1.0074 0.997967
1.02144 1.02499 1 0.996538
1.02317 1.02643 1 0.996828
1.06166 1.06567 0.999918 0.996319
1.06115 1.06604 0.999142 0.996271
1.05635 1.06028 1 0.996295
1.06174 1.0671 0.998507 0.996459
1.00045 1 1.00144 0.999011
1.05521 1.0591 1 0.996331
1.00913 1.01177 1.00011 0.997284
1.03889 1.04285 1 0.9962
1.05017 1.05434 1 0.99605
1.0517 1.05542 1 0.996474
1.00365 1.0011 1.00487 0.997681
1.00637 1 1.00808 0.998302
1.00475 1.00183 1.00569 0.997245
1.00516 1.00672 1 0.99845
1 1 1 1
1.00129 1 1.00166 0.999635
1.00471 1.00616 1 0.998567
1.03161 1.0351 1 0.996628
1.0002 1 1.00113 0.999075
1.00835 1.01116 1.00004 0.997184
1.02265 1.0258 1 0.996933
1.03614 1.04003 1 0.996257
1.00137 1 1.00202 0.999357
1.00084 1 1.00105 0.999788
1.00564 1 1.00734 0.998308
1.03391 1.0375 1 0.996542
1.02874 1.03206 1 0.996779
1.05552 1.05967 1 0.996091
1.00393 1.00579 1.00065 0.997507
1.0426 1.04649 1 0.996278
1.02633 1.02964 1.00047 0.99632
1.04262 1.04663 1 0.996161
1.00063 1 1.00076 0.999873
1.00371 1.00217 1.00367 0.997873
1.00521 1 1.00646 0.998752
1.00698 1.00257 1.0068 0.997625
1.05975 1.06389 1 0.996107
1.04938 1.05341 1 0.996176
1.0571 1.06119 1 0.996141
1.01492 1.0178 1.00049 0.996682
1.04435 1.04825 1 0.996276
1.03848 1.04096 1.00158 0.996049
1.0516 1.05568 1 0.996135
0.999539 1 1.00002 0.999515
0.999956 1 1 0.999956
1 1 1 1
1 1 1 1
1 1 1 1
1.0015 1 1.00192 0.99958
1 1 1 1
1.00198 1 1.0026 0.999384
1 1 1 1
1.00375 1.00535 1 0.99841
0.99945 1.00104 1 0.998413
1.03126 1.03485 1 0.996533
1.02483 1.02839 1 0.996538
0.998437 1.00003 1 0.998412
1 1 1 1
0.998412 1 1 0.998412
1.0222 1.02578 1 0.996517
1.02756 1.03112 1 0.996549
1.06374 1.06804 0.999673 0.996293
1.03393 1.03755 1 0.996518
1.06677 1.07079 1 0.996243
1.02128 1.02485 1 0.996517
1.06222 1.06645 0.999756 0.996274
1.06726 1.07147 0.99978 0.996287
1.06518 1.074 0.995133 0.996643
1.06447 1.06855 1 0.996175
1.06518 1.07227 0.996847 0.996531
0.99843 1 1 0.99843
0.998466 1.00005 1 0.99842
1.02212 1.02566 1 0.996549
1.02767 1.03094 1 0.996829
1 1 1 1
0.999953 1.00094 1.00004 0.998969
1.01882 1.02161 1 0.997268
1.03044 1.03369 1 0.99686
1.06095 1.06494 1 0.996257
1.05169 1.05562 1 0.996276
1.04477 1.04879 1 0.996169
1.0516 1.05561 1 0.996205
1.00134 1 1.00215 0.999194
1.00519 1.00037 1.00687 0.997968
1.02137 1.02492 1 0.996532
1.02339 1.02666 1 0.996821
1.06119 1.06555 0.999564 0.996347
1.06219 1.06665 0.999554 0.99626
1.00006 1 1.00106 0.999001
1.01065 1.01326 1.00014 0.997283
1.03839 1.04233 1 0.996225
1.05615 1.0601 1 0.996271
1.061 1.0667 0.998138 0.996511
1.04985 1.05402 1 0.996042
1.05528 1.05916 1 0.996335
1.05175 1.05548 1 0.996466
1.00423 1.00194 1.00462 0.997681
1.00558 1.00233 1.00601 0.997241
1.00693 1 1.00864 0.998302
1.06097 1.06496 0.999946 0.9963
1.06226 1.06683 0.999359 0.996348
1.06514 1.07237 0.996672 0.996571
1.0625 1.06996 0.996489 0.996529
1.05727 1.06207 0.999011 0.996461
1.05324 1.06416 0.9929 0.996817
1.00269 1.00454 1.00067 0.997491
1.05286 1.05824 0.998271 0.996643
1.02578 1.02942 1 0.99646
1.04204 1.04638 1 0.995854
1.04741 1.05152 1 0.996092
1.04475 1.0491 0.9991 0.996747
1.00662 1 1.00803 0.998603
1.00364 1.00592 1.00068 0.99706
1.00869 1.00029 1.01098 0.997443
1.00511 1.00542 1.00279 0.996916
1.03309 1.03668 1 0.996538
1.00046 1 1.00066 0.999806
1.00161 1 1.00223 0.99938
1.00713 1 1.00884 0.998307
1.02816 1.03148 1 0.996781
1.05558 1.05972 1 0.996085
1.00133 1.00339 1.00044 0.997512
1.02745 1.03091 1.00033 0.996311
1.04351 1.04741 1 0.996277
1.04254 1.04655 1 0.996167
1.00023 1 1.00035 0.999886
1.00374 1.00137 1.0045 0.997877
1.00538 1 1.00662 0.99876
1.00647 1.00183 1.00703 0.99762
1.05984 1.06399 1 0.9961
1.04959 1.05362 1 0.996173
1.05658 1.06067 1 0.996138
1.01263 1.01554 1.00045 0.996688
1.04391 1.04782 1 0.996264
1.03621 1.03854 1.00173 0.996035
1.05097 1.05496 1 0.996225
0.999929 1 1 0.999929
1.0028 1 1.00371 0.999093
1.00713 1.00804 1.00191 0.997195
1.00904 1.00098 1.01006 0.998006
1.00472 1.00413 1.00322 0.997373
1.06193 1.06608 0.999867 0.996242
1.05023 1.05427 1 0.99617
1.05157 1.05551 0.99995 0.996315
1.01686 1.01861 1.00199 0.996293
1.04414 1.048 1 0.996315
1.0306 1.03398 1.00086 0.995875
0.99944 1 1 0.99944
1.00006 1 1.0012 0.998859
0.999579 1 1 0.999579
0.999517 1 1 0.999517
0.999972 1 1 0.999972
0.999961 1 1 0.999961
1 1 1 1
1 1 1 1
1 1 1 1
1.00054 1 1.00078 0.999763
1 1 1 1
1.00173 1 1.00217 0.999563
1 1 1 1
1.00178 1 1.00241 0.999367
1 1 1 1
1.03302 1.03664 1 0.996514
1.02802 1.03158 1 0.996549
1.06575 1.06977 1 0.99624
1.06297 1.0672 0.99974 0.996291
1.0226 1.02618 1 0.996517
0.998411 1 1 0.998411
1.02139 1.02496 1 0.996517
1.062 1.0662 0.999786 0.996275
1.06586 1.07004 0.999805 0.996285
1.06494 1.07426 0.994653 0.996661
1.06397 1.06806 1 0.99617
1.06568 1.07264 0.996971 0.99653
1.06102 1.06514 0.999871 0.996265
1.06475 1.07361 0.995063 0.996667
1.06499 1.07383 0.995142 0.99661
1.05904 1.0703 0.992577 0.996876
1.06345 1.06852 0.998853 0.9964
1.05797 1.07243 0.989615 0.996874
1.0213 1.02486 1 0.996525
1.02365 1.02692 1 0.996815
1.06077 1.06545 0.999231 0.996376
1.06335 1.06736 1 0.996249
0.999687 1 1.0007 0.998991
1.01301 1.01562 1.00015 0.997283
1.03893 1.04284 1 0.99625
1.05594 1.05991 1 0.996246
1.06027 1.06633 0.997749 0.996563
1.05536 1.05924 1 0.996339
1.0494 1.05358 1 0.996035
1.0519 1.05564 1 0.996458
1.00459 1.00279 1.00413 0.99768
1.00588 1.00237 1.00629 0.997236
1.00705 1 1.00876 0.998303
1.0609 1.06492 0.999933 0.996289
1.06207 1.06685 0.999165 0.996346
1.06456 1.07239 0.996067 0.996618
1.06246 1.06951 0.996894 0.996504
1.00506 1.0067 1.00088 0.997489
1.02567 1.02931 1 0.996459
1.04093 1.04519 1.00003 0.995885
1.05775 1.06226 0.99934 0.996416
1.05288 1.06453 0.992166 0.996866
1.04854 1.0527 1 0.996052
1.05307 1.05838 0.998326 0.996644
1.04592 1.05007 0.999261 0.996784
1.00509 1.00671 1.00134 0.997059
1.00496 1.00484 1.00325 0.996872
1.00606 1 1.00747 0.998601
1.00821 1.00014 1.01061 0.997484
1.06446 1.07221 0.996136 0.996618
1.06598 1.07376 0.996185 0.996553
1.05409 1.06588 0.99212 0.996792
1.05172 1.06652 0.989202 0.996894
1.05317 1.06164 0.99521 0.996792
1.052 1.06618 0.989623 0.997041
1.01145 1.01472 1 0.996777
1.04489 1.05393 0.994399 0.997013
1.02821 1.0323 1 0.996044
1.03806 1.04236 1.00018 0.995697
1.04742 1.05152 1 0.996102
1.04838 1.0526 0.999178 0.996812
1.00228 1 1.00341 0.998877
1.01161 1.00045 1.01346 0.997728
1.00738 1.01071 1 0.9967
1.00734 1.00349 1.00673 0.997131
1.00789 1.00592 1.00525 0.996717
0.999914 1 1.00001 0.9999
1.05988 1.06404 1 0.996093
1.00528 1 1.00652 0.998767
1.00383 1.00072 1.00524 0.99788
1.00567 1.00104 1.00703 0.997615
1.04974 1.05378 1 0.99617
1.05611 1.06021 1 0.996135
1.01242 1.01526 1.00051 0.996694
1.03625 1.03839 1.00193 0.996022
1.04356 1.04748 1 0.996252
1.05121 1.0551 1 0.996315
0.999937 1 1 0.999937
1.00265 1 1.00355 0.999103
1.00489 1.00636 1.00134 0.997202
1.01008 1.00084 1.01125 0.998002
1.00438 1.00342 1.00363 0.997332
1.06166 1.06579 0.999888 0.996236
1.05002 1.05406 1 0.996168
1.05138 1.05538 0.999908 0.996303
1.01803 1.01965 1.00213 0.996292
1.04728 1.05117 1 0.9963
1.0308 1.03405 1.00096 0.995907
1.00025 1 1.00093 0.999316
1.0057 1 1.00732 0.998394
1.00285 1.00557 1.00048 0.996821
1.01105 1.00327 1.01012 0.997648
1.00611 1.00684 1.00203 0.997247
1.05842 1.06423 0.998061 0.996475
1.04548 1.04938 1 0.996282
1.0495 1.05402 0.999178 0.996532
1.00578 1.00587 1.00379 0.996143
1.02785 1.0321 1 0.995887
0.99946 1 1.00002 0.999443
0.998891 1 1.00012 0.998769
1.00018 1 1.00135 0.998833
1.0001 1 1.00152 0.99858
0.99994 1 1.00103 0.998913
0.999619 1 1 0.999619
0.999582 1 1 0.999582
0.999986 1 1 0.999986
0.999519 1 1 0.999519
0.999976 1 1 0.999976
1 1 1 1
0.999965 1 1 0.999965
1 1 1 1
1 1 1 1
0.999907 1 1 0.999907
1.00118 1 1.00143 0.999743
1 1 1 1
1 1 1 1
1.00228 1 1.00274 0.999546
1 1 1 1
1.06356 1.06766 1 0.996165
1.06482 1.06898 0.999829 0.996283
1.06631 1.07316 0.997078 0.996528
1.0648 1.07463 0.994159 0.996678
1.0617 1.06587 0.999816 0.996275
1.02146 1.02503 1 0.996517
1.06098 1.06508 0.999881 0.996266
1.06453 1.07328 0.995172 0.996662
1.06561 1.07449 0.995115 0.99661
1.05847 1.07028 0.992034 0.996905
1.0644 1.06937 0.998949 0.996394
1.05824 1.07255 0.989735 0.996896
1.0646 1.0729 0.995611 0.996637
1.05655 1.06915 0.991336 0.996855
1.05925 1.07174 0.99137 0.996942
1.059 1.07458 0.988443 0.997026
1.05919 1.07003 0.993145 0.996707
1.05939 1.07683 0.986676 0.997097
1.06078 1.06483 0.999918 0.996277
1.06183 1.06683 0.998957 0.996344
1.0639 1.07235 0.995437 0.996665
1.06229 1.06897 0.997267 0.996478
1.0067 1.00813 1.0011 0.997488
1.02352 1.02716 1 0.996457
1.03917 1.04324 1.00018 0.995917
1.05828 1.06247 0.999689 0.996372
1.05257 1.06488 0.991501 0.996914
1.05324 1.05851 0.998373 0.996645
1.0495 1.0537 1 0.996013
1.04674 1.05069 0.999412 0.996822
1.00718 1.00813 1.002 0.997059
1.00469 1.00487 1.003 0.996827
1.00592 1 1.00733 0.998599
1.00757 1.00012 1.00995 0.997525
1.06453 1.07227 0.996146 0.996617
1.0656 1.07332 0.996259 0.996535
1.05421 1.06616 0.991938 0.996823
1.05269 1.06663 0.99003 0.996877
1.01214 1.01533 1.00009 0.99677
1.02679 1.0308 1.00003 0.99608
1.03797 1.04206 1.00039 0.995685
1.0538 1.06166 0.995841 0.996741
1.05056 1.06519 0.98914 0.997096
1.04452 1.04862 1 0.996087
1.04602 1.05517 0.994299 0.997013
1.04882 1.05303 0.999122 0.996878
1.00651 1.00984 1 0.996703
1.00597 1.00602 1.00326 0.996705
1.00705 1.00256 1.00737 0.997126
1.00299 1 1.00415 0.998845
1.01106 1.00018 1.01314 0.997771
1.05536 1.06803 0.991279 0.996839
1.0555 1.06926 0.990237 0.996859
1.05112 1.07054 0.984737 0.99708
1.04612 1.06159 0.988288 0.997101
1.01419 1.01783 1 0.996418
1.05004 1.05958 0.993789 0.997186
1.01631 1.02029 1.00029 0.995812
1.03175 1.03587 1.00051 0.995524
1.04146 1.04554 1 0.996098
1.0001 1 1.00096 0.999141
1.00927 1 1.01114 0.998151
1.0075 1 1.01007 0.997452
1.00574 1.00875 1.00046 0.99656
1.00841 1.00457 1.00708 0.996762
1.0089 1.00683 1.00553 0.996547
0.999945 1 1 0.999945
1.00216 1 1.00305 0.999114
1.06135 1.06546 0.999912 0.996231
1.01134 1.00067 1.01269 0.997997
1.00184 1.0039 1.00074 0.997209
1.00409 1.0029 1.0039 0.997291
1.04969 1.05373 1 0.996167
1.05129 1.05534 0.999869 0.996292
1.01802 1.01948 1.00229 0.996291
1.02978 1.03318 1.00077 0.995939
1.05056 1.05447 1 0.996285
0.999803 1 1.00048 0.999322
1.00648 1 1.0081 0.998397
1.00523 1.00804 1.00041 0.996801
1.0113 1.00269 1.01097 0.997643
1.00646 1.0075 1.00174 0.997236
1.05752 1.06323 0.998151 0.99647
1.04699 1.05091 1 0.996269
1.05034 1.05482 0.999194 0.996556
1.00739 1.00806 1.00324 0.99611
1.02614 1.03035 1.00006 0.995856
1.00132 1 1.00265 0.998678
1.01076 1 1.01282 0.997959
1.00488 1.00625 1.002 0.996649
1.01231 1.00766 1.00726 0.997371
1.01748 1.01947 1.001 0.997058
1.05003 1.06256 0.991207 0.996967
1.04816 1.05221 1 0.996154
1.0515 1.05582 0.999384 0.996518
1.00876 1.00841 1.00433 0.996041
1.01328 1.0177 1 0.995656
0.999445 1 1 0.999445
0.998842 1 1.00006 0.998784
0.998676 1 1.00014 0.998536
0.999656 1 1.00085 0.998808
0.99956 1 1.00065 0.998912
1.00066 1 1.00211 0.998558
0.999466 1 1.00093 0.998535
1.00123 1 1.00274 0.9985
0.999129 1 1.00017 0.998959
0.999615 1 1 0.999615
0.99962 1 1 0.99962
0.999995 1 1 0.999995
0.999585 1 1 0.999585
0.999989 1 1 0.999989
1 1 1 1
0.999981 1 1 0.999981
1 1 1 1
1 1 1 1
0.999976 1 1 0.999976
1.00005 1 1.00016 0.999885
1 1 1 1
1.0015 1 1.00177 0.999723
1 1 1 1
1 1 1 1
1.06535 1.07023 0.999045 0.996388
1.06598 1.07487 0.9951 0.996611
1.05847 1.07262 0.989861 0.996918
1.0579 1.07021 0.99153 0.996935
1.06435 1.07296 0.995299 0.996657
1.06098 1.06508 0.999891 0.996266
1.06463 1.0727 0.995843 0.996619
1.05714 1.06931 0.991745 0.996848
1.05862 1.07116 0.99134 0.996928
1.05762 1.07396 0.987713 0.997036
1.05881 1.06941 0.993362 0.99671
1.05703 1.07526 0.985873 0.997133
1.05742 1.06913 0.992194 0.996829
1.05856 1.07564 0.987056 0.997026
1.05968 1.07719 0.986585 0.997117
1.05196 1.07282 0.983357 0.997152
1.06464 1.07237 0.996157 0.996617
1.06532 1.07297 0.996349 0.996516
1.05439 1.0665 0.991762 0.996854
1.05372 1.06684 0.990815 0.99686
1.01365 1.01683 1.00011 0.996762
1.02585 1.02985 1 0.996116
1.03791 1.04181 1.00058 0.995674
1.05429 1.06159 0.996423 0.99669
1.0491 1.06422 0.988605 0.997152
1.04707 1.05631 0.994217 0.997013
1.04223 1.04634 1 0.996072
1.05 1.05396 0.999295 0.996944
1.00351 1.00659 1.00023 0.996705
1.00545 1.00645 1.00232 0.996692
1.00772 1.00191 1.00871 0.997121
1.00327 1 1.00446 0.998814
1.01076 1 1.01297 0.997815
1.05551 1.06812 0.991332 0.99684
1.05604 1.06985 0.990199 0.996855
1.05139 1.06979 0.985692 0.997072
1.01431 1.01796 1 0.996416
1.01646 1.02043 1.00026 0.995849
1.03019 1.03404 1.00076 0.995512
1.04642 1.0615 0.988678 0.997087
1.04454 1.04863 0.999883 0.996218
1.04624 1.05613 0.993469 0.997152
1.00033 1 1.00114 0.999189
1.00577 1.0074 1.00183 0.996555
1.00877 1.00536 1.00676 0.996658
1.01139 1.00603 1.0086 0.996756
1.00928 1.00127 1.01054 0.997474
1.00944 1 1.01134 0.998117
1.05734 1.07379 0.987731 0.996913
1.05536 1.07751 0.982377 0.997016
1.04466 1.06828 0.980674 0.997158
1.04169 1.06331 0.982324 0.997297
1.00966 1.0132 1.00027 0.996237
1.04127 1.04761 0.997195 0.996747
1.00688 1.00983 1.00165 0.995442
1.01912 1.02279 1.00104 0.995373
0.999514 1 1 0.999514
1.00341 1 1.00488 0.998541
1.00851 1 1.01074 0.997793
1.00997 1.00201 1.01102 0.996958
1.00636 1.00491 1.00502 0.996436
1.01315 1.0052 1.01158 0.996374
0.999525 1 1.0002 0.999328
1.0074 1 1.00901 0.998401
1.05674 1.06236 0.998239 0.996464
1.0112 1.00193 1.01165 0.997638
1.0076 1.01058 1.00027 0.996781
1.00586 1.00713 1.00152 0.997226
1.04861 1.05255 1 0.996256
1.05108 1.05552 0.999208 0.99658
1.00943 1.01065 1.00273 0.996077
1.02432 1.02834 1.00027 0.995824
1.00125 1 1.00257 0.998682
1.01116 1 1.01325 0.997937
1.00529 1.00667 1.00198 0.996656
1.01206 1.00803 1.00664 0.997378
1.01912 1.02158 1.00048 0.997117
1.0523 1.06463 0.991383 0.997015
1.04757 1.05158 1 0.996188
1.0523 1.05661 0.999328 0.996596
1.00941 1.00883 1.00458 0.996007
1.0129 1.01737 1.00003 0.995573
1.00248 1 1.00411 0.99837
1.01147 1.00193 1.01198 0.997576
1.01241 1.01204 1.00378 0.996593
1.016 1.01748 1.00161 0.996938
1.04975 1.08291 0.972047 0.997263
1.04906 1.05762 0.994867 0.997025
1.03383 1.0382 1 0.995789
1.01565 1.01578 1.00426 0.995631
0.998889 1 1.00009 0.9988
0.998731 1 1.00019 0.998543
0.998599 1 1.00001 0.998586
0.999767 1 1.00086 0.99891
1.00167 1 1.00314 0.998536
0.999206 1 1.00025 0.998956
0.999328 1 1.00077 0.998555
1.00173 1 1.00323 0.998508
0.998679 1 1 0.998679
1.00163 1 1.00326 0.998376
1.00076 1 1.0023 0.998467
0.998937 1 1 0.998937
0.999575 1 1 0.999575
0.999612 1 1 0.999612
0.999999 1 1 0.999999
0.99962 1 1 0.99962
0.999996 1 1 0.999996
1 1 1 1
0.999992 1 1 0.999992
1 1 1 1
1 1 1 1
0.999997 1 1 0.999997
0.999962 1 1 0.999962
1 1 1 1
1.00041 1 1.00055 0.999862
1 1 1 1
1 1 1 1
1.05835 1.06871 0.993575 0.996712
1.0581 1.07069 0.991305 0.996913
1.05477 1.07377 0.985093 0.99717
1.0562 1.07335 0.986931 0.997047
1.05772 1.0695 0.992114 0.996841
1.06466 1.0725 0.996071 0.9966
1.05718 1.06901 0.99208 0.99683
1.05835 1.07528 0.987195 0.997017
1.05817 1.07635 0.985959 0.997115
1.0528 1.07348 0.983527 0.997162
1.05953 1.07557 0.988071 0.996972
1.05952 1.08209 0.981913 0.997175
1.05945 1.08463 0.979503 0.997224
1.05565 1.0682 0.991388 0.996842
1.05651 1.07035 0.99018 0.996851
1.05175 1.06902 0.986741 0.997065
1.01621 1.01987 1 0.996414
1.01621 1.02023 1.00018 0.995885
1.0284 1.03218 1.00085 0.9955
1.0468 1.0615 0.989045 0.997074
1.04213 1.05283 0.992695 0.997118
1.04726 1.05151 0.999619 0.996338
1.00535 1.00607 1.00275 0.996549
1.00384 1.00202 1.00506 0.99677
1.01298 1.007 1.00921 0.996751
1.00045 1 1.00122 0.999237
1.00962 1.00225 1.00988 0.997496
1.00986 1 1.0118 0.998082
1.05804 1.07418 0.988013 0.996922
1.05458 1.07722 0.981906 0.997021
1.04498 1.06818 0.981069 0.99715
1.00733 1.01104 1.00009 0.99623
1.00667 1.00979 1.0014 0.995516
1.0192 1.02292 1.0009 0.995469
1.04219 1.06309 0.982996 0.9973
1.03706 1.04421 0.996413 0.996724
0.999586 1 1 0.999586
1.00319 1 1.00466 0.998538
1.00328 1.00351 1.00331 0.996477
1.0157 1.00436 1.0148 0.99654
1.0105 1.00323 1.01027 0.99701
1.00853 1.00018 1.01063 0.997749
1.05741 1.08058 0.981405 0.997094
1.04517 1.07984 0.970693 0.997113
1.04159 1.06815 0.977737 0.997343
1.03088 1.04902 0.985366 0.997296
1.00215 1.00485 1.00133 0.995988
1.02057 1.02369 1.00113 0.995826
1.00747 1.00962 1.00264 0.99525
0.999782 1 1 0.999782
0.999226 1 1 0.999226
0.999698 1 1.00079 0.998909
1.00344 1 1.00542 0.998027
1.00946 1 1.01211 0.997379
1.01439 1.00306 1.01463 0.996713
1.00392 1.00192 1.00537 0.996643
1.03902 1.00237 1.03981 0.996873
1.00098 1 1.0023 0.998686
1.01175 1 1.01386 0.997915
1.05472 1.06677 0.991624 0.997062
1.01381 1.01011 1.0063 0.997384
1.00576 1.00696 1.00215 0.996664
1.02035 1.0232 1.00004 0.997177
1.04689 1.05086 1 0.996222
1.05307 1.05736 0.999273 0.996675
1.00983 1.00905 1.00482 0.995974
1.0123 1.01689 1 0.995491
1.00279 1 1.00447 0.998327
1.00998 1.00095 1.01148 0.997572
1.01572 1.01496 1.00415 0.996613
1.01602 1.01765 1.00142 0.996979
1.05119 1.08534 0.971174 0.997282
1.05164 1.05938 0.995705 0.996971
1.03242 1.03673 1 0.995844
1.0176 1.01827 1.00377 0.99558
1.00357 1 1.00542 0.99816
1.05775 1.09138 0.971826 0.997289
1.00545 1.00196 1.0063 0.997195
1.01576 1.01674 1.00268 0.996373
1.03721 1.06897 0.972817 0.997402
1.02808 1.03286 0.99944 0.995931
1.01258 1.01402 1.00323 0.995359
0.998641 1 1.00009 0.99855
0.998396 0.999646 1.00017 0.998577
0.999066 0.999495 1.00084 0.998729
0.999074 1 1.00012 0.998954
1.00171 1 1.0032 0.998516
0.999414 1 1.00084 0.998575
0.998933 1 1 0.998933
1.00092 1 1.00245 0.998474
0.998788 1 1.00008 0.998707
1.00096 1 1.00258 0.998388
0.998815 1 1 0.998815
0.999045 1 1.0005 0.998545
1.00153 1 1.0033 0.998236
0.998885 1 1.00051 0.99838
0.998851 1 1 0.998851
0.999528 1 1 0.999528
0.999571 1 1 0.999571
0.999999 1 1 0.999999
0.99961 1 1 0.99961
0.999999 1 1 0.999999
1 1 1 1
0.999997 1 1 0.999997
1 1 1 1
1 1 1 1
0.999814 1 1 0.999814
1 1 1 1
0.999993 1 1 0.999993
1 1 1 1
0.999948 1 1 0.999948
1 1 1 1
1 1 1 1
1.05366 1.07415 0.983707 0.997173
1.05669 1.07549 0.985367 0.997112
1.05819 1.07495 0.987368 0.997007
1.0569 1.06885 0.991971 0.99683
1.05916 1.07557 0.987711 0.996991
1.05947 1.08172 0.982211 0.997166
1.05659 1.08177 0.979435 0.997231
1.05903 1.08227 0.981318 0.997158
1.07115 1.09695 0.979164 0.99726
1.07238 1.10069 0.976703 0.997525
1.05877 1.07459 0.988306 0.99693
1.05357 1.07692 0.981231 0.997026
1.04535 1.06811 0.981501 0.997142
1.00606 1.00981 1.00006 0.996224
1.00751 1.01069 1.00126 0.995593
1.02106 1.02482 1.00078 0.995564
1.0429 1.0626 0.984118 0.997302
1.03264 1.04023 0.995988 0.996702
1.0047 1.00369 1.00451 0.996518
1.02051 1.00474 1.01906 0.996701
1.01227 1.00442 1.01079 0.997061
0.999659 1 1 0.999659
1.00298 1 1.00445 0.998535
1.00857 1.00012 1.01077 0.997704
1.05714 1.08091 0.980844 0.997104
0.999777 1 1 0.999777
0.999186 1 1 0.999186
1.04644 1.07885 0.972769 0.997115
1.03968 1.06655 0.977437 0.997312
1.00306 1.00509 1.00192 0.99607
1.00711 1.00856 1.00332 0.995255
1.01964 1.02392 1.00001 0.995813
1.02989 1.04889 0.984579 0.997268
0.999892 1 1.0009 0.998998
1.00372 1 1.00571 0.998017
1.00402 1.00187 1.00563 0.996533
1.03336 1.00219 1.03421 0.996998
1.01157 1.00218 1.01268 0.99673
1.00851 1 1.01114 0.997395
1.06818 1.09757 0.975947 0.997209
1.02683 1.07759 0.955526 0.997245
1.02676 1.05732 0.97354 0.99749
1.01262 1.02881 0.987244 0.996987
1.00548 1.0028 1.00646 0.996234
1.00741 1.00661 1.0055 0.995319
0.999133 1 1 0.999133
0.9992 1 1 0.9992
0.999025 1.00015 1 0.998876
0.99924 1 1.00098 0.998266
1.00842 1 1.0107 0.997743
1.00682 1.00036 1.00946 0.997029
1.0561 1.00014 1.05936 0.996783
0.996815 1.00049 0.998922 0.997399
1.00355 1 1.00527 0.998284
1.00792 1 1.01037 0.997568
1.05209 1.08688 0.970613 0.997301
1.05381 1.06078 0.996511 0.996917
1.01622 1.01809 1.00115 0.99702
1.01975 1.0187 1.00441 0.996631
1.03138 1.0356 1.00004 0.995898
1.0202 1.02136 1.00335 0.995529
1.00371 1 1.00558 0.998138
1.06068 1.09508 0.971158 0.997354
1.00559 1.00113 1.00724 0.997237
1.01374 1.01476 1.00269 0.996309
1.03706 1.06849 0.973131 0.997377
1.02675 1.03149 0.999384 0.996022
1.01378 1.01495 1.00348 0.995374
1.00709 0.99958 1.00966 0.997874
1.01053 1.05439 0.960547 0.997774
1.0045 1.00262 1.00495 0.996939
1.00511 1.00551 1.00379 0.99583
1.01726 1.03372 0.987112 0.996918
1.00281 1.00501 1.00221 0.99561
0.964154 1.00302 0.964278 0.996858
0.997925 0.999014 1.00034 0.998567
0.998964 0.998473 1.00176 0.998732
1.0004 0.99975 1.00198 0.998668
0.99893 1 1 0.99893
1.00172 1 1.00324 0.99848
0.999977 1 1.00158 0.9984
0.998895 1 1.00016 0.998736
0.99885 1 1 0.99885
0.999003 1 1.00063 0.998378
0.998781 1 1 0.998781
1.00138 1 1.00315 0.998237
0.998934 1 1.00042 0.998517
0.999603 1 1.00083 0.99877
0.998727 1 1.00067 0.998059
1.00213 1 1.00394 0.998202
0.998497 1 1.00025 0.998251
0.998688 1 1 0.998688
1.00015 1 1.00171 0.998441
0.99904 1 1.00039 0.998654
0.999507 1 1 0.999507
0.999525 1 1 0.999525
1 1 1 1
0.999567 1 1 0.999567
0.999999 1 1 0.999999
1 1 1 1
0.999999 1 1 0.999999
1 1 1 1
1 1 1 1
0.99985 1 1 0.99985
0.999815 1 1 0.999815
1 1 1 1
1 1 1 1
1 1 1 1
0.999988 1 1 0.999988
1 1 1 1
1 1 1 1
1.05384 1.07914 0.979263 0.997237
1.05922 1.08125 0.982421 0.997157
1.05879 1.07558 0.987348 0.99701
1.05887 1.08207 0.981354 0.997156
1.06814 1.09407 0.978985 0.997255
1.07108 1.09906 0.977036 0.997443
1.07524 1.10615 0.974666 0.997325
0.96344 1.01605 0.953115 0.994861
1.02282 1.05877 0.967745 0.998242
0.999304 1 1 0.999304
1.05692 1.08119 0.98038 0.997114
1.04783 1.07807 0.974755 0.997117
1.03749 1.06519 0.976646 0.997282
1.00004 1.00309 1.00082 0.99615
1.00559 1.00633 1.00402 0.995259
1.01787 1.02281 0.999373 0.995801
1.02849 1.04868 0.983455 0.99724
0.998804 1.00199 1.00039 0.996427
1.02741 1.00136 1.02897 0.997129
1.00814 1.00097 1.01044 0.996747
0.999771 1 1 0.999771
1.00894 1 1.01156 0.997411
0.999875 1 1.00079 0.999085
1.00403 1 1.00603 0.998006
0.999145 1 1 0.999145
1.06473 1.09782 0.972565 0.997216
0.999184 1 1 0.999184
0.999262 1 1.00006 0.999201
0.998803 1.0005 0.99947 0.998838
1.03122 1.07811 0.959156 0.997242
1.02619 1.057 0.973336 0.997441
1.00186 1.00217 1.00344 0.996267
1.01212 1.01129 1.00538 0.995458
1.01124 1.02646 0.988174 0.996968
0.999228 1 1.0009 0.99833
1.00801 1 1.01035 0.997689
1.00764 1.00031 1.0101 0.997251
1.04508 1.00043 1.04798 0.9968
1.00674 1.00059 1.00908 0.997084
1.04068 1.08657 0.960338 0.997326
1.00582 1.06441 0.947413 0.997404
1.01821 1.03832 0.983453 0.997128
0.993379 1.0122 0.984623 0.996735
1.00326 1 1.00626 0.997013
0.998705 1 1 0.998705
0.998934 1.00029 1.00002 0.998623
1.00011 1 1.00151 0.998608
1.00946 1 1.01143 0.998057
1.01036 1 1.01276 0.997622
1.04127 0.999899 1.04431 0.997187
1.0317 1.00174 1.0326 0.997396
1.00366 1 1.00556 0.998114
1.00515 1 1.00789 0.997279
1.06242 1.09933 0.968925 0.997418
1.03743 1.06879 0.973233 0.997351
1.02569 1.03047 0.999248 0.996112
1.01055 1.01165 1.00268 0.996246
1.01443 1.01547 1.0036 0.995389
1.00717 0.999844 1.00941 0.997929
1.01142 1.05538 0.96044 0.997821
1.00151 1.0017 1.00287 0.996946
1.00404 1.00415 1.00408 0.99583
1.01572 1.03312 0.98607 0.997046
1.00351 1.0052 1.00273 0.995606
0.964995 1.0028 0.96641 0.995744
1.00719 0.999548 1.00986 0.997809
0.99644 1.02532 0.974005 0.997767
1.00083 1.00137 1.00273 0.996736
1.00422 1.00164 1.00644 0.996166
0.991918 1.00637 0.988797 0.996807
0.902786 0.974674 0.953126 0.971796
0.893697 0.96383 0.941028 0.985343
0.962263 0.981976 0.982784 0.99709
0.698858 0.823067 0.902143 0.941192
0.612001 0.772711 0.858589 0.922465
0.998991 0.997635 1.00263 0.998735
1.0012 0.998402 1.00409 0.998721
1.00182 1 1.00312 0.998703
0.998849 1 1 0.998849
0.998901 1 1.00053 0.998375
1.00069 1 1.00246 0.998238
0.998893 1 1.0004 0.998489
0.998747 1 1 0.998747
1.00287 1 1.00469 0.998181
0.998726 1 1 0.998726
0.998471 1 1.0002 0.99827
0.999316 1 1.0006 0.998714
0.999207 1 1.00109 0.998116
1.00385 1 1.00573 0.998135
1.00539 1 1.00708 0.998324
1.00346 1 1.00534 0.99813
0.998976 1 1.00082 0.998157
0.998655 1 1 0.998655
0.999265 1 1.001 0.998265
0.999853 1 1.00154 0.99832
0.999739 1 1.00124 0.998497
1.00008 1 1.00168 0.998402
0.998923 1 1.00014 0.998779
0.999148 1 1.0005 0.99865
0.999501 1 1 0.999501
0.999508 1 1 0.999508
1 1 1 1
0.999522 1 1 0.999522
1 1 1 1
1 1 1 1
1 1 1 1
1 1 1 1
1 1 1 1
0.999894 1 1 0.999894
0.999847 1 1 0.999847
1 1 1 1
0.999817 1 1 0.999817
1 1 1 1
1 1 1 1
0.999999 1 1 0.999999
1 1 1 1
1 1 1 1
1.06492 1.09103 0.978762 0.99725
1.05886 1.08197 0.981435 0.997154
1.06991 1.09677 0.978087 0.997362
0.964717 1.01582 0.954517 0.994946
1.07246 1.10369 0.974315 0.997324
1.03343 1.06168 0.975232 0.998109
1.0536 1.07742 0.980381 0.997456
0.918083 0.977385 0.954134 0.984479
0.986191 1.01956 0.971319 0.995832
0.999337 1 1 0.999337
0.999298 1 1 0.999298
0.998814 1 1 0.998814
0.998931 1 1 0.998931
1.06186 1.09763 0.970102 0.997223
1.03552 1.0778 0.963435 0.99724
1.0264 1.05675 0.973825 0.997393
1.00057 1.00122 1.00306 0.996299
1.01691 1.01675 1.00458 0.995597
1.01019 1.0244 0.989141 0.99695
1.01911 1 1.02207 0.9971
1.03522 1.00095 1.03754 0.996815
1.00581 1.00037 1.00833 0.997138
0.999516 1 1.00031 0.999202
1.00598 1 1.00836 0.997637
0.999237 1 1.00085 0.998393
0.999236 1 1 0.999236
0.998848 1.00087 0.999177 0.9988
1.03953 1.08636 0.959446 0.997341
0.998732 1 1 0.998732
0.998909 1.00051 0.999701 0.998698
0.999562 0.999639 1.00112 0.998805
1.01247 1.06769 0.950751 0.997393
1.01885 1.03829 0.984103 0.997128
1.00193 1.0008 1.00414 0.996996
0.996513 1.01164 0.988194 0.996812
1.00762 1 1.00967 0.99797
1.01004 1 1.01259 0.99748
1.037 1.00225 1.0374 0.997374
1.04106 1.00054 1.04354 0.997087
0.995569 1.05251 0.948236 0.997532
0.996895 1.04135 0.959805 0.997399
1.00772 1.01542 0.995618 0.996785
0.978057 1.00096 0.979262 0.997816
1.00265 1 1.00416 0.998502
1.00303 1 1.00477 0.998262
1.01704 0.999516 1.01939 0.998182
1.0625 1.00081 1.06441 0.997399
0.882995 0.968132 0.942414 0.967792
1.0079 1 1.00993 0.997984
0.999575 1.00091 1.00172 0.996953
1.01302 1.05621 0.961155 0.997871
1.01393 1.03201 0.985267 0.997173
1.0041 1.00523 1.0033 0.995598
1.00351 1.00323 1.00447 0.995828
0.965435 1.00383 0.96698 0.994595
1.00555 0.999149 1.00856 0.997865
0.994948 1.02615 0.971782 0.997747
1.00069 1.00148 1.00248 0.996751
1.00474 1.00247 1.00611 0.996174
0.995249 1.0075 0.991017 0.996794
0.897473 0.979744 0.94646 0.967846
0.887659 0.959494 0.9418 0.982303
0.966615 0.982644 0.986518 0.997132
0.69365 0.817284 0.90039 0.942619
0.598784 0.763878 0.854578 0.917263
1.0024 0.99902 1.0054 0.997993
0.724693 0.835665 0.917079 0.945616
0.646639 0.782173 0.895578 0.923114
0.986884 1.00583 0.983309 0.997815
1.00862 1.00152 1.00975 0.997363
1.01426 1.00543 1.01158 0.997235
0.954385 0.971969 0.984378 0.997492
0.874535 0.951856 0.947332 0.969848
0.855585 0.930298 0.938126 0.980346
0.683195 0.810151 0.890596 0.946887
0.666049 0.830155 0.872667 0.919387
1.00201 0.997228 1.00603 0.998773
1.00152 0.998904 1.00395 0.998676
1.00936 1 1.01054 0.998837
0.998763 1 1 0.998763
0.99829 1 1 0.99829
1.00349 1 1.00534 0.998161
1.00012 1 1.00195 0.998173
0.998658 1 1 0.998658
0.998669 1 1.00001 0.998656
1.00434 1 1.00624 0.998114
1.00375 1 1.00563 0.99813
0.998511 1 1.00031 0.998202
1.00598 0.999962 1.00767 0.998362
1.00646 1 1.00821 0.998266
1.01919 1 1.02072 0.9985
1.00196 1 1.00394 0.99803
0.999013 1 1.00078 0.99823
0.998854 1 1.00059 0.99826
1.00039 1 1.00205 0.998343
1.00035 1 1.00224 0.998118
0.999497 1 1.0011 0.998403
1.00335 1 1.00492 0.998437
1.00756 1 1.00939 0.998184
1.00014 1 1.00167 0.998467
0.999399 1 1.0009 0.998499
0.998971 1 1.00016 0.998815
0.999828 1 1.00147 0.998364
0.998871 1 1.00012 0.998747
0.999483 1 1 0.999483
0.999236 1 1.00059 0.998647
0.999503 1 1 0.999503
0.999998 1 1 0.999998
0.999508 1 1 0.999508
1 1 1 1
1 1 1 1
1 1 1 1
1 1 1 1
1 1 1 1
0.999283 1 1 0.999283
0.999906 1 1 0.999906
0.99989 1 1 0.99989
1 1 1 1
0.999843 1 1 0.999843
1 1 1 1
1 1 1 1
1 1 1 1
1 1 1 1
1 1 1 1
0.966872 1.01545 0.95691 0.995036
1.07095 1.10192 0.974503 0.997323
1.04204 1.06546 0.980008 0.997975
0.908908 0.97277 0.947932 0.985672
0.986472 1.01984 0.971136 0.996035
1.0512 1.08079 0.975149 0.997411
0.994044 1.02999 0.968635 0.996351
0.924849 0.975191 0.960654 0.987221
0.901062 0.976621 0.951662 0.969496
0.699041 0.820918 0.899201 0.946992
0.571814 0.726301 0.854378 0.921485
0.99888 1 1 0.99888
0.999335 1 1 0.999335
0.999292 1 1 0.999292
0.998817 1 1 0.998817
0.998847 1 1.00023 0.998616
0.998594 1 1 0.998594
0.998771 1 1 0.998771
0.998886 1 1 0.998886
1.03796 1.08758 0.956908 0.997354
1.01914 1.07209 0.953103 0.997382
1.01808 1.03791 0.983715 0.997127
1.00219 1.00189 1.00333 0.99698
0.999338 1.01097 0.991575 0.99689
1.04563 1.00258 1.04571 0.997351
1.04183 1.00162 1.04329 0.996988
1.01034 1 1.01303 0.997339
0.998413 1.0007 0.99894 0.998773
1.00785 1 1.00999 0.997881
0.998762 1 1 0.998762
0.998522 0.99952 1 0.999002
0.993723 1.05345 0.945607 0.997562
1.002 0.999856 1.00366 0.998497
1.00444 1 1.00611 0.998343
0.994125 1.03924 0.959109 0.997372
1.00481 1.01611 0.991914 0.996939
0.981643 1.00131 0.982636 0.997679
1.0274 1.00013 1.02942 0.997901
1.05795 1.00216 1.05838 0.99744
0.972704 1.02936 0.947376 0.997446
0.990497 1.01292 0.980424 0.997384
0.974005 1.00166 0.974868 0.99746
0.980805 1.00028 0.982496 0.998
1.00686 1 1.00887 0.998004
1.01527 1 1.01718 0.998127
1.05385 1 1.05622 0.997755
0.735401 0.845173 0.917827 0.94802
0.899907 0.976325 0.947437 0.972866
1.0032 0.998967 1.00633 0.997923
1.0004 1.00132 1.00232 0.996767
0.995145 1.02726 0.970939 0.997727
0.998285 1.00893 0.992644 0.996783
1.00541 1.00352 1.00571 0.996187
0.897426 0.973926 0.95008 0.969868
0.891715 0.968011 0.937194 0.982916
0.968247 0.981767 0.989026 0.997171
0.703188 0.819182 0.905718 0.947759
0.586747 0.756061 0.851048 0.911885
1.00217 0.999424 1.00476 0.997996
0.729906 0.844598 0.913022 0.946533
0.628269 0.765308 0.892361 0.91996
0.986931 1.00694 0.982287 0.997807
1.00847 1.00207 1.00903 0.997375
1.0123 1.00361 1.01131 0.997386
0.948012 0.965935 0.983699 0.997707
0.886316 0.964739 0.950332 0.966726
0.851878 0.926098 0.935832 0.98293
0.691161 0.810041 0.903076 0.944817
0.66675 0.837945 0.866502 0.918286
1.00416 0.999749 1.00585 0.998566
0.673595 0.79456 0.918145 0.923339
0.743139 0.870775 0.916519 0.931156
0.985205 0.992307 0.994189 0.998646
1.01565 1.00256 1.01452 0.998562
0.957899 0.958159 1.0026 0.99714
0.866904 0.916549 0.96087 0.984353
0.831275 0.911398 0.945317 0.964848
0.698462 0.803764 0.918686 0.945903
0.724246 0.889965 0.881535 0.923152
1.0021 0.998695 1.00477 0.99865
1.00751 1 1.00873 0.99879
1.00865 0.999041 1.01055 0.999074
0.998657 1 1 0.998657
0.998246 1 1 0.998246
1.00462 1 1.0065 0.998129
1.00529 1 1.00721 0.998093
1.00604 0.999841 1.00782 0.9984
0.998836 1 1.00061 0.998228
1.0051 1 1.00689 0.998226
1.00196 1 1.00393 0.998033
1.01812 0.999566 1.02003 0.998563
1.03675 0.997973 1.0398 0.999094
1.01126 1 1.01301 0.998275
1.001 1 1.00301 0.997988
0.998624 1 1.00037 0.998255
1.0009 1 1.00254 0.998365
1.0009 1 1.0028 0.998108
1.00003 1 1.00165 0.998387
1.00131 1 1.00277 0.998546
1.00415 1 1.00582 0.998338
1.00566 1 1.00737 0.9983
1.00353 0.999006 1.00596 0.99858
0.999575 1 1.00131 0.998267
0.99959 1.00108 1.00093 0.997589
1.00574 1 1.00769 0.998064
1.00631 1 1.00813 0.998186
1.00656 1 1.00825 0.998322
1.00132 1 1.00286 0.998466
0.999089 1 1.0003 0.99879
0.999409 1 1.00091 0.998501
0.999128 1 1.00031 0.998819
0.99946 1 1 0.99946
0.998912 1 1.0002 0.998716
0.999486 1 1 0.999486
0.999989 1 1 0.999989
0.999505 1 1 0.999505
0.999996 1 1 0.999996
1 1 1 1
1 1 1 1
1 1 1 1
1 1 1 1
0.999282 1 1 0.999282
0.999876 1 1 0.999876
0.999285 1 1 0.999285
1 1 1 1
0.999906 1 1 0.999906
0.999886 1 1 0.999886
1 1 1 1
1 1 1 1
1 1 1 1
1 1 1 1
1 1 1 1
0.721681 0.835779 0.916513 0.942141
0.633666 0.775239 0.88721 0.921295
0.90828 0.973419 0.946093 0.986248
0.988264 1.01991 0.972617 0.99625
1.04947 1.08242 0.97212 0.997367
0.909522 0.957984 0.960372 0.988588
0.995432 1.0297 0.970075 0.996541
0.91315 0.988333 0.952208 0.970303
0.692134 0.821435 0.89392 0.942581
0.578299 0.741726 0.850917 0.916266
0.93647 0.995504 0.948752 0.991513
0.894244 0.965149 0.954801 0.970396
0.686499 0.814178 0.891144 0.946177
0.657721 0.82581 0.866533 0.91913
1.00078 1 1.00236 0.998425
0.99892 1 1 0.99892
0.999333 1 1 0.999333
0.99882 1 1 0.99882
0.998913 1 1.00022 0.998694
0.999416 1 1.00109 0.998331
0.998568 1 1 0.998568
0.998541 1 1.00015 0.998395
0.998725 1 1 0.998725
0.998841 1 1 0.998841
0.991745 1.05314 0.943975 0.997591
0.991002 1.03659 0.958565 0.997349
1.00386 1.01748 0.989493 0.997093
0.983576 1.00177 0.984255 0.997541
1.04888 1.0034 1.04796 0.997481
1.03822 1.0006 1.04007 0.997623
1.00444 1 1.00602 0.998425
1.00143 0.999566 1.00338 0.998491
0.972682 1.02974 0.946917 0.997542
1.00816 1 1.01022 0.997957
1.01525 1 1.0172 0.998079
0.984965 1.01098 0.976878 0.997325
0.972191 1.00159 0.973017 0.997564
0.979716 1.00098 0.980771 0.997942
1.04677 0.999853 1.04934 0.997693
0.968395 1.00325 0.96749 0.997694
0.963861 0.998436 0.967027 0.998287
1.01302 0.999575 1.01531 0.99817
1.00978 1 1.01192 0.997887
1.01243 1 1.01463 0.997832
1.02888 1 1.03108 0.997869
0.702339 0.810136 0.928428 0.933772
0.738873 0.843684 0.923396 0.948423
0.888206 0.973211 0.942878 0.967946
1.00132 0.998923 1.00441 0.997996
1.00827 1.00224 1.00866 0.997384
0.989264 1.00814 0.983441 0.9978
1.01085 1.00229 1.01104 0.997531
0.729996 0.83989 0.915834 0.949033
0.881009 0.960967 0.947253 0.967846
0.850398 0.922713 0.94 0.980454
0.946812 0.962216 0.986052 0.997911
0.687577 0.814142 0.897779 0.940701
0.625259 0.763135 0.889227 0.921396
0.665608 0.834745 0.864466 0.922395
1.0042 0.999464 1.0062 0.998541
0.675674 0.795489 0.916207 0.927065
0.756801 0.88405 0.91968 0.930825
0.984443 0.990208 0.995426 0.998746
1.01589 1.00181 1.01556 0.998513
0.954947 0.956121 1.00103 0.997747
0.85763 0.921643 0.947758 0.981838
0.860892 0.925953 0.959655 0.968823
0.71137 0.819937 0.921293 0.94171
0.715898 0.881472 0.876722 0.926362
1.00764 0.998175 1.01006 0.999431
0.778949 0.891238 0.931318 0.938464
0.751264 0.886195 0.906692 0.934983
0.980414 0.964589 1.01669 0.999715
0.897184 0.919559 0.986344 0.989176
0.861414 0.906214 0.982827 0.967173
0.777543 0.877224 0.944035 0.938913
0.761803 0.926226 0.887415 0.926828
1.00696 1 1.00823 0.998742
1.01019 0.99857 1.01259 0.999061
1.02508 0.992295 1.03371 0.999354
0.99903 1 1.00081 0.998225
1.00199 1 1.00396 0.998036
1.00315 1 1.00497 0.998186
1.01747 0.999272 1.01961 0.998626
1.00163 1 1.00365 0.997988
1.01056 1 1.01232 0.998265
1.04214 0.999147 1.0439 0.999173
1.04457 0.994159 1.05129 0.999446
1.04057 0.998828 1.04276 0.999068
1.00493 1 1.00675 0.998184
1.0011 1 1.003 0.998098
1.00037 1 1.002 0.998371
0.99927 1 1.00062 0.998653
1.00515 1 1.00684 0.998322
1.00303 1 1.0047 0.998337
1.00548 0.999549 1.00734 0.998607
1.00346 0.99969 1.0054 0.99838
1.01157 0.99808 1.01457 0.998962
0.996619 1.00086 0.997339 0.998419
1.00007 1.00063 1.00117 0.998278
0.998597 1.00007 1.00069 0.997832
1.00359 1.00546 1.00153 0.996621
1.0035 1.00075 1.00483 0.997928
0.999192 1.00051 1.00079 0.997893
1.00578 1 1.00773 0.998069
1.01126 1 1.01315 0.998136
1.00465 1 1.00647 0.998187
1.00592 1 1.00761 0.998321
0.99974 1 1.00108 0.998664
1.00205 1 1.00359 0.998464
0.998819 1 1.00003 0.998786
0.999429 1 1 0.999429
0.998963 1 1.00014 0.998823
0.999461 1 1 0.999461
0.999974 1 1 0.999974
0.999489 1 1 0.999489
0.999985 1 1 0.999985
1 1 1 1
0.999994 1 1 0.999994
1 1 1 1
1 1 1 1
0.999003 1 1 0.999003
0.999821 1 1 0.999821
0.999201 1 1 0.999201
1 1 1 1
0.999881 1 1 0.999881
0.999287 1 1 0.999287
1 1 1 1
1 1 1 1
0.999907 1 1 0.999907
1 1 1 1
1 1 1 1
1 1 1 1
0.663962 0.790189 0.906963 0.926452
0.728894 0.842632 0.915227 0.945143
0.749606 0.882043 0.913615 0.930209
0.63057 0.773767 0.885966 0.919826
0.909167 0.966514 0.954074 0.985946
0.995366 1.03022 0.969326 0.996742
0.915312 0.985753 0.956461 0.97081
0.706027 0.824285 0.904413 0.947059
0.587419 0.76022 0.848226 0.910956
0.937616 0.989769 0.956347 0.990548
0.883394 0.962309 0.951487 0.964799
0.700025 0.821544 0.902476 0.944163
0.652115 0.823215 0.864679 0.916128
0.904391 0.969896 0.94432 0.987443
0.842125 0.910685 0.9592 0.964049
0.731023 0.848744 0.917272 0.93898
0.719555 0.886675 0.881807 0.920293
1.00284 1 1.00477 0.998081
0.999861 1 1.00139 0.998476
0.99896 1 1 0.99896
0.998773 1 1 0.998773
0.998472 1 1.00054 0.997936
0.998735 1 1.00035 0.998385
0.998544 1 1 0.998544
0.998367 1 1 0.998367
0.998485 1 1.00005 0.998436
0.998679 1 1 0.998679
0.972983 1.03077 0.946171 0.997637
0.981528 1.00932 0.975131 0.99727
0.9683 1.00129 0.969316 0.997666
0.981506 1.00212 0.981505 0.997888
1.03839 1 1.04085 0.997631
1.01523 1 1.01723 0.998033
1.00885 1 1.01097 0.99791
1.00941 1 1.0116 0.997835
0.96696 1.00346 0.965806 0.99774
1.01157 1 1.01379 0.997807
1.0289 1 1.03112 0.997846
0.963276 0.998995 0.965899 0.998288
1.0078 1.00092 1.00877 0.998127
0.94858 0.978119 0.971694 0.99805
0.971529 0.978392 0.993746 0.999235
1.04258 0.99919 1.04512 0.99838
1.00513 1 1.00728 0.997864
1.02286 1 1.0249 0.998011
0.791452 0.900967 0.931767 0.942776
0.700609 0.808778 0.92876 0.932701
0.729717 0.839487 0.920434 0.944382
1.00355 0.999349 1.00569 0.998519
1.01652 1.00083 1.01724 0.998464
0.9803 0.987859 0.993491 0.998849
0.674402 0.794542 0.914964 0.927681
0.844964 0.914767 0.957733 0.964458
0.862666 0.918715 0.954872 0.98337
0.944749 0.950361 0.995724 0.998365
0.719139 0.829897 0.915676 0.946339
0.764607 0.890427 0.922673 0.930663
0.718789 0.882399 0.879042 0.926673
1.00605 0.998375 1.00832 0.999376
0.777547 0.891332 0.927798 0.940229
0.750372 0.884797 0.906893 0.93514
0.982132 0.968425 1.01463 0.999531
0.910614 0.931351 0.988591 0.989018
0.829884 0.898377 0.959445 0.962804
0.759253 0.924373 0.886011 0.927043
0.79421 0.883772 0.955021 0.940984
0.998989 0.972603 1.02743 0.999711
0.763669 0.879433 0.918123 0.945806
0.783848 0.916004 0.912555 0.937726
0.717628 0.884886 0.880986 0.92054
0.948607 0.938544 1.01361 0.997154
0.900394 0.927249 1.00251 0.968606
0.848045 0.931789 0.964366 0.943755
1.01203 0.998008 1.01502 0.999048
1.02546 0.99398 1.03242 0.99927
1.02876 0.983008 1.047 0.999566
1.00178 1 1.0038 0.997988
1.00877 0.999997 1.01054 0.998254
1.04657 0.999335 1.04805 0.999251
1.00521 1 1.00704 0.998189
1.04072 0.998909 1.04282 0.999079
1.0475 0.994215 1.05421 0.999421
1.0382 0.988973 1.05031 0.999489
1.02548 0.997701 1.02881 0.999058
1.00423 1 1.0059 0.998346
1.00224 1 1.00391 0.998337
1.00751 1 1.00889 0.998634
1.01077 0.998683 1.01318 0.998933
1.00331 0.999839 1.00509 0.998385
1.00337 0.999742 1.0048 0.998829
0.997419 1.00013 0.998566 0.998724
1.00317 1.00021 1.00564 0.997338
1.00049 1.00129 1.00091 0.998296
0.999687 1.00137 1.00059 0.997726
1.0001 1.00231 1.00149 0.996307
1.01544 1.01802 1.00129 0.996181
1.0041 1.00381 1.00276 0.997533
1.00183 1.00377 1.00138 0.996687
1.01071 1 1.01284 0.997896
1.00481 1.0014 1.00547 0.997938
0.998839 1 1.00065 0.998194
1.00616 1 1.0081 0.998073
1.01026 1 1.01211 0.99817
1.00368 1 1.00519 0.998498
1.00549 1 1.00718 0.998321
0.999958 1 1.0013 0.998664
0.999344 1 1 0.999344
0.998783 1 1 0.998783
0.999426 1 1 0.999426
0.999963 1 1 0.999963
0.999462 1 1 0.999462
0.999971 1 1 0.999971
1 1 1 1
0.99998 1 1 0.99998
1 1 1 1
1 1 1 1
0.998721 1 1 0.998721
0.999598 1 1 0.999598
0.999001 1 1 0.999001
1 1 1 1
0.999765 1 1 0.999765
0.99912 1 1 0.99912
1 1 1 1
1 1 1 1
0.999886 1 1 0.999886
1 1 1 1
1 1 1 1
1 1 1 1
0.78009 0.90026 0.923029 0.938775
0.66744 0.790749 0.907656 0.929935
0.721292 0.837224 0.912202 0.944449
0.99825 1 1 0.99825
0.757262 0.884079 0.913128 0.938043
0.748704 0.88177 0.912961 0.930042
0.639625 0.785008 0.8825 0.923286
0.946961 0.993433 0.963469 0.989364
0.875898 0.950681 0.95016 0.969666
0.70261 0.835531 0.894744 0.939838
0.644421 0.807491 0.868864 0.918502
0.90175 0.965205 0.949196 0.984261
0.856841 0.920482 0.961243 0.968393
0.728873 0.837523 0.926167 0.93965
0.717105 0.883099 0.881343 0.921357
0.84973 0.916189 0.945749 0.980664
0.839364 0.895745 0.970728 0.965314
0.806018 0.89252 0.958986 0.941704
0.762382 0.92468 0.889611 0.926789
1.00144 1 1.00357 0.997884
1.00397 1 1.00594 0.998037
0.999264 1 1.00074 0.998527
0.998224 1 1.00016 0.998064
0.998722 1 1.00071 0.998014
0.998439 1 1 0.998439
0.99837 1 1 0.99837
0.998502 1 1.00003 0.998477
0.965703 1.00406 0.963945 0.997772
0.963144 1.00076 0.964055 0.998298
1.00932 1 1.01156 0.997783
1.00211 1.00218 1.00185 0.998083
1.03028 1 1.03253 0.997822
1.01138 1 1.01363 0.997784
1.00598 1 1.00813 0.997872
0.951126 0.977222 0.975065 0.998186
1.02051 1 1.02253 0.998025
1.03203 1.00001 1.03365 0.998424
0.970614 0.981488 0.98963 0.999283
1.00732 1 1.00926 0.998073
0.936979 0.954464 0.983928 0.997717
1.00064 0.978371 1.02329 0.999477
1.0579 0.996903 1.06275 0.998536
1.02551 0.99924 1.02813 0.998214
0.770962 0.88055 0.922316 0.949291
0.791194 0.90129 0.931481 0.94242
0.70027 0.806919 0.931545 0.931605
1.0035 0.998411 1.00578 0.999323
0.985208 0.971766 1.01449 0.99935
0.779136 0.894225 0.925005 0.941938
0.854199 0.895839 0.984921 0.968116
0.899636 0.929978 0.981709 0.985397
0.78835 0.878177 0.955703 0.93932
0.751391 0.885925 0.906856 0.935256
0.758318 0.924161 0.884916 0.92726
1.00412 0.98063 1.02429 0.999669
0.765213 0.8811 0.91826 0.945783
0.784964 0.914053 0.913624 0.939963
0.960279 0.94618 1.01571 0.999205
0.714891 0.881334 0.880246 0.9215
0.871956 0.908136 0.994286 0.965677
0.848698 0.932456 0.964873 0.94331
0.995829 0.966987 1.03012 0.999717
0.794362 0.906967 0.922975 0.948937
0.754653 0.88005 0.913768 0.938434
0.654645 0.823668 0.864542 0.919323
0.804026 0.891504 0.958329 0.941092
0.940198 0.9407 1.00608 0.993424
0.907441 0.925492 1.01996 0.961312
1.02406 0.996028 1.02898 0.999188
1.02886 0.981298 1.04896 0.999534
1.0172 0.968155 1.0511 0.999582
1.00659 1 1.00841 0.998195
1.04449 0.998945 1.04655 0.999091
1.05404 0.995042 1.05993 0.999396
1.02138 0.998052 1.02435 0.999045
1.03634 0.990784 1.04652 0.999488
1.00919 0.986517 1.02376 0.999235
1.01068 0.999347 1.01245 0.998903
1.00332 0.999998 1.00494 0.998391
1.00685 0.999875 1.00818 0.998806
1.0124 0.998888 1.01547 0.998087
0.998429 0.999401 1 0.999028
1.00005 1.00019 1.00231 0.997556
1.00429 1.00156 1.00691 0.995834
1.00527 1.00753 1.00225 0.995516
1.00072 1.0027 1.0004 0.997615
1.00055 1.00298 1.00149 0.996097
1.01709 1.02038 1.00053 0.996256
1.01106 1.01158 1.00261 0.99688
1.01413 1.01663 1.00125 0.996286
1.00797 1.00066 1.00962 0.9977
1.00683 1.00598 1.00335 0.997498
0.999541 1.00151 1.00128 0.996755
1.00989 1 1.01163 0.998283
1.01001 1 1.01211 0.997923
1.00612 1.00204 1.00613 0.997948
1.00911 1 1.01093 0.998205
1.00372 1 1.00523 0.998498
0.999866 1 1.00068 0.999186
1.00012 1 1.00145 0.998665
0.999439 1 1.0001 0.999339
0.999952 1 1 0.999952
0.999423 1 1 0.999423
0.99996 1 1 0.99996
1 1 1 1
0.999967 1 1 0.999967
1 1 1 1
1 1 1 1
0.998631 1 1 0.998631
0.99942 1 1 0.99942
0.998773 1 1 0.998773
1 1 1 1
0.999579 1 1 0.999579
0.998998 1 1 0.998998
1 1 1 1
1 1 1 1
0.999708 1 1 0.999708
1 1 1 1
1 1 1 1
1 1 1 1
0.770736 0.883028 0.921078 0.947621
0.782023 0.899323 0.926273 0.938782
0.668484 0.790015 0.90977 0.930088
0.998291 1 1 0.998291
0.998841 1 1.00064 0.998205
0.998204 1 1 0.998204
0.785018 0.918379 0.911888 0.937381
0.75407 0.883757 0.909469 0.93819
0.746916 0.881208 0.911501 0.929899
0.908535 0.972453 0.947212 0.986338
0.827853 0.907722 0.946121 0.963948
0.727418 0.82509 0.932059 0.945887
0.724748 0.890635 0.885083 0.919396
0.853501 0.921924 0.941213 0.983607
0.853994 0.904146 0.978403 0.96538
0.790388 0.876064 0.957282 0.942464
0.759683 0.924464 0.886553 0.926911
0.863701 0.915219 0.961897 0.981092
0.876753 0.91162 0.99487 0.966711
0.84729 0.928734 0.966279 0.944144
0.728704 0.893418 0.883445 0.923244
0.998679 1 1.00064 0.998038
1.00175 1 1.00391 0.997845
1.00368 1 1.0057 0.997993
0.998105 1 1.00005 0.998051
0.998464 1 1.00037 0.998093
0.998373 1 1 0.998373
0.949577 0.972097 0.978481 0.998316
0.968568 0.980969 0.98804 0.99931
1.00669 1 1.00882 0.997881
1.02374 1.0005 1.0248 0.998466
1.02062 1 1.02263 0.998039
1.00941 1 1.01135 0.998087
1.02112 0.996894 1.0261 0.998252
0.944208 0.954126 0.991774 0.997813
1.05388 0.995445 1.0601 0.998678
1.00428 0.973073 1.03277 0.999325
1.01333 0.99549 1.01953 0.998418
0.969352 0.952948 1.01982 0.997445
1.01292 0.972906 1.04188 0.999275
1.03581 0.979086 1.05921 0.998792
0.80863 0.914268 0.929732 0.951303
0.774085 0.881939 0.924148 0.949748
0.790445 0.901504 0.930726 0.942067
1.00987 0.988606 1.02189 0.999627
0.949525 0.944014 1.00817 0.997689
0.766038 0.881665 0.918683 0.945761
0.86897 0.896014 0.999962 0.969855
0.845779 0.932863 0.964428 0.940089
0.785956 0.913061 0.913603 0.942195
0.724825 0.889469 0.886064 0.919681
0.991084 0.963107 1.02929 0.999766
0.794311 0.905296 0.923784 0.949794
0.756844 0.884597 0.911557 0.938593
0.935646 0.936567 1.00984 0.989278
0.649189 0.820044 0.863792 0.916483
0.787303 0.874599 0.956115 0.941505
0.914159 0.930921 1.0152 0.967289
1.00471 0.954062 1.05467 0.998498
0.77152 0.881379 0.923527 0.947839
0.759902 0.889225 0.918167 0.930731
0.572126 0.724191 0.856655 0.922215
0.719725 0.838305 0.914514 0.938803
0.881279 0.910874 1.00163 0.965938
0.912094 0.929672 0.994925 0.986097
1.02624 0.980439 1.04724 0.999501
1.02322 0.977121 1.04762 0.999585
1.00966 0.979235 1.0316 0.99949
1.01542 0.998476 1.01795 0.999032
1.03174 0.992229 1.04036 0.999487
1.01263 0.982995 1.03085 0.999319
1.00579 0.996932 1.01013 0.998773
1.01021 1 1.01144 0.998782
1.00966 0.999467 1.01238 0.997849
1.02233 1.00094 1.02529 0.996184
0.996711 1.00005 0.99888 0.997777
1.00541 1.00159 1.00798 0.995873
1.00546 1.00254 1.008 0.994964
1.00833 1.01134 1.00191 0.995121
1.00987 1.01295 1.00108 0.995888
1.0053 1.00738 1.00248 0.995459
1.0008 1.00355 1.00138 0.995889
1.01223 1.01459 1.0011 0.996585
1.01807 1.02131 1.00048 0.996346
1.0048 1.00295 1.00464 0.997227
1.01341 1.01372 1.00274 0.996961
1.01383 1.01631 1.00117 0.996392
1.01155 1 1.01361 0.997962
1.00827 1.00153 1.00906 0.997695
1.00975 1.00845 1.00383 0.997462
1.00227 1 1.00328 0.998992
1.00856 1 1.0103 0.998281
1.00928 1 1.01136 0.997949
1.00361 1 1.00512 0.998499
1.00027 1 1.00109 0.999181
0.999919 1 1 0.999919
0.999563 1 1.00023 0.999334
0.999945 1 1 0.999945
1 1 1 1
0.999958 1 1 0.999958
1 1 1 1
1 1 1 1
0.998577 1 1 0.998577
0.999386 1 1 0.999386
0.99866 1 1 0.99866
0.999993 1 1 0.999993
0.999466 1 1 0.999466
0.998826 1 1 0.998826
1 1 1 1
1 1 1 1
0.99956 1 1 0.99956
1 1 1 1
1 1 1 1
1 1 1 1
0.792748 0.906217 0.922166 0.948622
0.774651 0.884057 0.924692 0.947608
0.78412 0.898084 0.929993 0.938828
1.00658 1 1.00852 0.998075
1.00264 1 1.00467 0.997976
0.998333 1 1 0.998333
0.999351 1 1.00116 0.998188
0.998209 1 1 0.998209
1.0004 1 1.00222 0.998178
0.998242 1 1 0.998242
0.754722 0.891295 0.905796 0.934836
0.788237 0.916882 0.914905 0.939653
0.754943 0.881796 0.912399 0.938343
0.758267 0.924619 0.884618 0.92705
0.854122 0.923581 0.942689 0.981017
0.854872 0.900364 0.983632 0.965274
0.799925 0.89038 0.950726 0.944972
0.848945 0.916016 0.945615 0.980081
0.878571 0.906126 1.00775 0.962134
0.846442 0.92983 0.964286 0.944035
0.718039 0.883935 0.87682 0.92644
0.891685 0.926306 0.979218 0.983055
0.893031 0.916091 1.01344 0.961895
0.781762 0.880122 0.945556 0.939386
0.667914 0.833578 0.871669 0.919227
1.02568 0.999971 1.02737 0.998383
1.00028 1 1.00222 0.998065
1.00265 1 1.00486 0.997806
0.998038 1 1 0.998038
0.954741 0.95701 0.999687 0.997942
1.00593 0.97086 1.03699 0.999166
1.00889 1 1.01081 0.998101
1.01616 0.996308 1.02167 0.998289
1.04327 0.990598 1.05442 0.998821
1.01328 0.99836 1.01655 0.99842
1.0384 0.978934 1.06204 0.998779
0.968581 0.952381 1.0212 0.995893
1.0117 0.964045 1.05003 0.999432
1.01213 0.982493 1.03129 0.998906
0.953361 0.926643 1.03375 0.995242
1.00399 0.954628 1.05246 0.999284
0.77304 0.880187 0.924994 0.949486
0.806133 0.912354 0.92727 0.952878
0.777847 0.883364 0.9267 0.9502
0.986613 0.957539 1.03057 0.999805
0.941496 0.940495 1.00727 0.993835
0.792375 0.902951 0.923082 0.950663
0.91588 0.935387 1.0177 0.962119
0.791184 0.883478 0.94854 0.944118
0.760576 0.887121 0.913307 0.938735
0.6432 0.804849 0.869781 0.918801
1.00553 0.956287 1.05285 0.998713
0.774363 0.885768 0.922345 0.947832
0.753112 0.883226 0.916297 0.930575
0.914208 0.929989 0.994216 0.98875
0.579582 0.741432 0.852403 0.917062
0.717521 0.827741 0.923013 0.939145
0.877977 0.907618 1.005 0.962532
0.992951 0.960366 1.03739 0.99666
0.78264 0.903488 0.922436 0.939082
0.633286 0.772596 0.888962 0.922072
0.689758 0.817059 0.891552 0.946884
0.831091 0.880833 0.976064 0.966667
0.869962 0.905535 0.978515 0.981809
1.0311 0.981967 1.05047 0.99959
1.01281 0.976758 1.03743 0.999495
0.979897 0.974605 1.00617 0.999269
1.01727 0.979874 1.03879 0.999402
1.00313 0.988798 1.01563 0.998878
1.00321 1.0008 1.00475 0.997669
1.00706 1.00003 1.00944 0.997612
1.02066 1.00094 1.02376 0.996042
1.01046 1.00093 1.01445 0.995144
1.00696 1.00186 1.00922 0.995911
1.00621 1.00235 1.00903 0.994872
1.00173 1.00257 1.00448 0.994706
1.03145 1.03627 1 0.995352
1.01844 1.02232 1.00077 0.995444
1.00868 1.01149 1.00218 0.995062
1.01014 1.01387 1.00013 0.996192
1.00847 1.01181 1.00074 0.995952
1.0054 1.00718 1.00284 0.995402
1.01019 1.01245 1.00112 0.996658
1.01165 1.01405 1.00108 0.996556
1.0186 1.02181 1.00043 0.996436
1.00656 1.00098 1.00805 0.997542
1.00581 1.00388 1.00463 0.997313
1.01505 1.01514 1.00288 0.997043
1.00763 1 1.00895 0.998689
1.01043 1.00001 1.01248 0.997969
1.00863 1.0025 1.00845 0.997689
0.999859 1 1 0.999859
1.00304 1 1.00406 0.998986
1.00756 1 1.00929 0.99828
1.00075 1 1.00157 0.999177
0.999908 1 1 0.999908
1 1 1 1
0.999939 1 1 0.999939
1 1 1 1
1 1 1 1
1.00792 1 1.00986 0.998074
1.00154 1 1.00315 0.998393
0.999232 1 1 0.999232
0.998849 1 1.00028 0.998572
0.999972 1 1 0.999972
0.999389 1 1 0.999389
0.99869 1 1 0.99869
1 1 1 1
0.999995 1 1 0.999995
0.999512 1 1 0.999512
1 1 1 1
1 1 1 1
1 1 1 1
0.764955 0.880535 0.918579 0.945741
0.789656 0.902843 0.92115 0.949501
0.775267 0.887137 0.922232 0.947589
1.00806 1 1.00999 0.998086
1.00496 1.00007 1.00692 0.997989
1.00037 1 1.00243 0.997941
1.00888 1 1.0109 0.997997
1.00787 1.00017 1.00975 0.997964
1.0008 1 1.00264 0.998171
0.998213 1 1 0.998213
1.00003 1 1.00185 0.998182
0.998257 1 1 0.998257
1.01575 1 1.01746 0.998317
0.744175 0.873609 0.91508 0.930891
0.753905 0.888489 0.90748 0.935035
0.789228 0.916463 0.914276 0.941912
0.719345 0.884928 0.877132 0.926754
0.845645 0.930638 0.966124 0.940534
0.844133 0.911547 0.94632 0.978574
0.884063 0.909685 1.0058 0.966229
0.881939 0.926924 0.971288 0.979594
0.899577 0.92661 1.00457 0.966405
0.797345 0.883648 0.957888 0.942004
0.669188 0.84167 0.866055 0.918038
0.897567 0.916459 0.997179 0.982157
0.884838 0.906141 1.00972 0.967095
0.705603 0.808694 0.922722 0.945595
0.611942 0.772319 0.859571 0.92179
1.02394 0.999694 1.02533 0.998953
1.02635 0.999707 1.0283 0.998397
1.00308 1 1.005 0.998093
0.968659 0.952234 1.02311 0.994267
1.01293 0.957779 1.05801 0.999593
1.01424 0.999965 1.01588 0.998422
1.04383 0.978536 1.06805 0.998767
1.01517 0.986673 1.03001 0.998912
1.01034 0.962733 1.05021 0.999278
0.95615 0.933679 1.02902 0.995186
1.01383 0.988826 1.02596 0.999345
0.966955 0.952128 1.01965 0.996002
0.791917 0.901742 0.931987 0.942297
0.77859 0.883924 0.927258 0.949934
0.803029 0.910042 0.924505 0.954466
1.00684 0.963969 1.04563 0.998893
0.909039 0.926806 0.996584 0.984192
0.77999 0.890293 0.924339 0.947817
0.88056 0.911832 1.00227 0.963517
0.714305 0.813265 0.929196 0.945245
0.744404 0.877632 0.911582 0.930466
0.587158 0.758613 0.848854 0.911804
0.990266 0.95904 1.03574 0.996928
0.782295 0.89902 0.926626 0.939068
0.631314 0.772915 0.887213 0.920633
0.882053 0.917472 0.977619 0.983405
0.701039 0.82276 0.901922 0.944715
0.830442 0.891859 0.966006 0.963903
0.945851 0.945075 1.00585 0.995005
0.665396 0.791272 0.907107 0.927034
0.700571 0.821333 0.900071 0.947668
0.8405 0.912156 0.955697 0.964158
0.8473 0.906386 0.949711 0.984312
1.01269 0.974625 1.03957 0.999502
0.982598 0.970714 1.01301 0.999244
0.993378 0.989341 1.00567 0.998417
0.999729 0.978896 1.02233 0.998979
1.00244 1.00034 1.00435 0.997763
0.998269 1.00252 0.999119 0.996643
1.01888 1.00073 1.02234 0.995898
1.00927 1.00128 1.0129 0.995145
0.999466 1.00262 1.00137 0.995486
1.00634 1.002 1.0096 0.99478
1.00206 1.00364 1.0037 0.994744
1.0278 1.03235 1 0.995592
1.05682 1.06105 0.999967 0.996047
1.04241 1.04716 1.00002 0.995449
1.03171 1.03649 1 0.995384
1.02284 1.02722 1 0.995736
1.01722 1.02083 1.00107 0.995387
1.00973 1.01233 1.00244 0.995004
1.01616 1.01989 1 0.996337
1.00852 1.01228 1.00002 0.996266
1.0068 1.01051 1.00032 0.996016
1.0036 1.00446 1.00208 0.997075
1.0076 1.00962 1.0013 0.996704
1.01161 1.01403 1.0011 0.996527
1.01 1.00008 1.01173 0.998211
1.00809 1.00185 1.00871 0.997543
1.00681 1.00461 1.0048 0.997398
1.00067 1 1.0009 0.999767
1.00706 1 1.00839 0.998682
1.00965 1.00009 1.01161 0.997977
0.999979 1 1 0.999979
1 1 1.00016 0.999844
1.00355 1 1.00458 0.99898
0.999897 1 1 0.999897
1 1 1 1
1 1 1 1
1.00715 1.00073 1.00851 0.997928
1.00603 1 1.00783 0.998211
1.00895 1 1.01092 0.99805
0.999875 1 1.00081 0.999063
1.00113 1 1.00274 0.998389
0.999939 1 1 0.999939
0.999238 1 1 0.999237
0.998635 1 1.00007 0.998567
1 1 1 1
0.999979 1 1 0.999979
0.999391 1 1 0.999391
1 1 1 1
0.999998 1 1 0.999998
1 1 1 1
0.776452 0.89288 0.922705 0.94245
0.768796 0.883674 0.919925 0.945729
0.790336 0.899052 0.924976 0.950379
0.999604 1.00131 1.00039 0.997901
1.00675 1 1.00867 0.998096
1.00357 1 1.00558 0.998003
1.00478 1 1.00682 0.997974
1.00041 1.00003 1.00241 0.997968
1.00445 1 1.00635 0.998112
1.0128 1.00029 1.01505 0.997497
1.01771 1 1.01964 0.998101
1.00004 1 1.00186 0.998185
0.998271 1 1 0.998271
1.01697 1 1.0187 0.9983
1.03217 1.00053 1.03316 0.998512
0.646692 0.781516 0.896867 0.922638
0.756901 0.886239 0.917779 0.930572
0.754683 0.88791 0.90886 0.935188
0.667898 0.838556 0.863791 0.922081
0.793972 0.88218 0.956615 0.940828
0.895053 0.918467 1.01302 0.961981
0.882318 0.921378 0.976828 0.980323
0.897519 0.9178 0.993568 0.984232
0.600536 0.765914 0.855358 0.916666
0.875975 0.906812 1.00288 0.963218
0.717608 0.824491 0.924686 0.941255
0.897224 0.926264 0.982567 0.985835
0.859289 0.902999 0.982473 0.968571
0.688841 0.814956 0.893993 0.945476
0.992107 1.00014 0.992436 0.999529
1.02371 1.00005 1.02473 0.998959
1.02638 0.999988 1.02803 0.998408
0.957349 0.936841 1.02681 0.995213
1.01738 0.971565 1.04792 0.999273
1.01764 0.99206 1.02689 0.998919
1.01259 0.988394 1.02515 0.999344
0.963021 0.950858 1.01681 0.996049
0.987998 0.982501 1.00822 0.997395
0.701692 0.808882 0.932717 0.930061
0.788526 0.900565 0.927223 0.944314
0.780145 0.886193 0.926314 0.950361
0.991481 0.958805 1.03709 0.9971
0.873022 0.914332 0.970057 0.984292
0.780201 0.894655 0.928604 0.939118
0.8433 0.887781 0.984812 0.964546
0.706124 0.839015 0.894813 0.940543
0.642174 0.785377 0.884907 0.924011
0.945248 0.939781 1.0108 0.995069
0.669054 0.791592 0.90838 0.930449
0.694629 0.822133 0.89572 0.943276
0.843455 0.908129 0.947119 0.980642
0.857973 0.924831 0.957902 0.968479
0.940853 0.956605 0.98585 0.99765
0.719837 0.832643 0.917238 0.942526
0.896103 0.96749 0.954511 0.970356
0.848069 0.919713 0.940573 0.980362
0.985915 0.968322 1.01896 0.999224
0.98439 0.989615 0.996213 0.998503
0.995156 1.00083 0.996877 0.997449
1.00259 1.00041 1.00433 0.997856
1.0008 1.00262 1.00158 0.996612
1.0012 1.00524 0.999428 0.996551
1.00828 1.00179 1.01139 0.995145
0.999291 1.00215 1.00167 0.99549
1.02963 1.03584 0.997488 0.996505
1.00235 1.0044 1.00319 0.994781
1.0263 1.03083 1 0.995602
1.0565 1.06189 0.998228 0.996689
1.05686 1.06126 0.99907 0.996775
1.05802 1.06231 1 0.995962
1.05762 1.06187 0.999901 0.996096
1.04434 1.04887 1 0.995678
1.04047 1.04516 1 0.995517
1.03074 1.03549 1 0.995415
1.03215 1.03625 1 0.996044
1.02354 1.02776 1.00014 0.99576
1.01602 1.01928 1.00148 0.99533
1.01129 1.01467 1 0.996671
1.01471 1.01845 1 0.996333
1.00669 1.01039 1 0.99634
1.00391 1.00094 1.00523 0.997742
1.00603 1.00663 1.00234 0.997068
1.00457 1.00639 1.00145 0.996751
1.00229 1 1.00272 0.999569
1.00836 1.00052 1.00964 0.998208
1.00883 1.0027 1.0086 0.997544
1 1 1 1
1.00133 1 1.0016 0.999727
1.00634 1 1.00767 0.998675
1 1 1 1
1.0003 1 1.00047 0.999827
1 1 1 1
1.00156 1.00196 1.00185 0.997755
1.00588 1.00042 1.00757 0.997906
1.00838 1 1.01035 0.998052
1.00271 1 1.00382 0.998888
1.00713 1 1.00894 0.998208
1.01125 1 1.01325 0.998027
0.999891 1 1 0.999891
0.999622 1 1.00055 0.999068
1.00153 1 1.00315 0.998386
1 1 1 1
0.999949 1 1 0.999949
0.999241 1 1 0.999241
1 1 1 1
0.999986 1 1 0.999986
1 1 1 1
0.673734 0.794775 0.917313 0.924116
0.779623 0.896048 0.923154 0.942495
0.772837 0.887209 0.921082 0.945723
1.00246 1.00071 1.00388 0.997874
1.00742 1.00401 1.00593 0.997486
1.01121 1.00094 1.01259 0.997693
1.00553 1 1.0076 0.99795
1.00146 1.00107 1.0024 0.997996
1.00534 1 1.0071 0.998257
1.01699 1 1.01899 0.998041
1.0132 1.00075 1.01488 0.997601
1.01788 1.00174 1.01857 0.997581
0.982119 1.0015 0.981663 0.998965
1.01571 1 1.01746 0.998282
1.02755 1.00019 1.02891 0.998491
0.697503 0.819413 0.905283 0.940284
0.627836 0.764376 0.893266 0.919513
0.765046 0.893199 0.920573 0.930424
0.589574 0.759056 0.852246 0.91138
0.725581 0.832666 0.921288 0.945845
0.862393 0.899503 0.993608 0.964912
0.902206 0.921889 0.997174 0.981422
0.884716 0.918143 0.979933 0.983325
0.69351 0.810788 0.90629 0.943796
0.838943 0.893372 0.973451 0.964685
0.866556 0.922494 0.953712 0.984954
0.832821 0.918874 0.939465 0.964751
0.999028 1 1 0.999024
0.993187 1.00012 0.99359 0.999477
1.02404 0.999989 1.02511 0.998964
0.95672 0.947368 1.01382 0.996104
1.01087 0.986744 1.02512 0.999344
0.989405 0.984536 1.00762 0.997346
0.974441 0.989036 0.988891 0.996311
0.737638 0.84728 0.918481 0.947864
0.69889 0.806318 0.931578 0.93043
0.790627 0.90273 0.925546 0.946273
0.948616 0.946503 1.00701 0.995257
0.846088 0.905618 0.952289 0.981074
0.670259 0.791606 0.909898 0.930553
0.826963 0.909539 0.942784 0.96439
0.710274 0.827455 0.905677 0.947782
0.943087 0.95993 0.986032 0.996372
0.730381 0.842605 0.91674 0.945538
0.886163 0.964526 0.951961 0.965118
0.849053 0.921101 0.937647 0.983078
0.952889 0.980889 0.973919 0.997468
0.905286 0.977697 0.954939 0.96963
0.900217 0.968123 0.943108 0.98595
0.975277 0.988602 0.987934 0.99857
0.99038 1.00091 0.992036 0.997419
0.982392 1.00855 0.976732 0.997267
1.00228 1.00294 1.00277 0.996582
1.00056 1.00539 0.998648 0.996544
1.02469 1.04317 0.985012 0.997233
0.999139 1.00179 1.00186 0.995496
1.0278 1.03521 0.996345 0.996483
1.04394 1.06195 0.985698 0.997301
1.02567 1.03019 1 0.995611
1.05496 1.06128 0.99736 0.99668
1.05027 1.06222 0.991441 0.997286
1.05153 1.05891 0.995857 0.997166
1.05764 1.0625 0.998576 0.99685
1.05516 1.0588 0.99994 0.996624
1.05898 1.06321 1 0.996024
1.05813 1.06239 1 0.995985
1.05919 1.06347 0.999834 0.996145
1.04684 1.05115 1 0.995901
1.04611 1.05062 1 0.995707
1.03865 1.04326 1 0.995585
1.02833 1.03209 1 0.996361
1.032 1.0361 1 0.996042
1.02415 1.02831 1.00017 0.995784
1.00091 1.0032 1.00031 0.997408
1.01284 1.01623 1 0.996669
1.01422 1.01796 1 0.99633
1.00217 1 1.00289 0.99928
1.00443 1.00154 1.00516 0.997741
1.00905 1.009 1.003 0.997061
1 1 1 1
1.00272 1 1.00318 0.999543
1.00729 1.00073 1.00837 0.998205
0.999981 1 1 0.999981
1.00195 1 1.00224 0.999714
1 1 1 1
1.00056 1.00295 1 0.997614
1.00168 1.00102 1.00289 0.997773
1.00553 1 1.00766 0.997893
1.00373 1 1.00586 0.997883
1.00884 1 1.0108 0.998054
1.00588 1 1.0072 0.998691
1.00009 1 1.00027 0.999822
1.00186 1 1.00297 0.998889
1.00746 1 1.00927 0.998205
1 1 1 1
0.999906 1 1 0.999906
0.999351 1 1.00028 0.999073
1 1 1 1
0.99996 1 1 0.99996
1 1 1 1
0.724437 0.835766 0.916918 0.945334
0.675946 0.795252 0.918591 0.925307
0.780497 0.897476 0.922676 0.942539
1.00482 1.00007 1.00692 0.997848
1.01387 1.00039 1.01602 0.997499
1.00463 1.00296 1.00412 0.997557
1.00572 1.00766 1.00151 0.996564
1.01419 1.00218 1.01443 0.997586
1.01528 1 1.01733 0.997985
1.0111 1.00029 1.01313 0.997705
1.01916 1.00142 1.02007 0.997688
0.999742 1.00385 0.998557 0.997346
0.973709 1.00121 0.974004 0.998484
0.971622 1.00035 0.973536 0.997683
0.983892 1.00093 0.983969 0.998996
1.02265 1.00039 1.02382 0.998472
0.876114 0.953938 0.948664 0.968116
0.690638 0.813559 0.901208 0.941968
0.624156 0.761739 0.889767 0.920896
0.691383 0.817501 0.900045 0.93965
0.847906 0.903221 0.972324 0.965479
0.889924 0.914953 0.986569 0.985885
0.866344 0.920769 0.95346 0.986818
0.865802 0.929507 0.960691 0.969577
0.890238 0.960989 0.939598 0.985929
0.99319 1.00132 0.993652 0.998218
0.998284 1 0.999283 0.999001
0.99362 1 0.994191 0.999426
0.992371 0.988291 1.0068 0.997346
0.980322 0.991502 0.992008 0.996689
0.884985 0.966053 0.946561 0.967801
0.741162 0.845742 0.924003 0.948423
0.694814 0.801788 0.93096 0.930846
0.946229 0.965732 0.984716 0.995013
0.856931 0.931557 0.938111 0.980578
0.724569 0.83839 0.914676 0.944857
0.877862 0.952171 0.950782 0.969683
0.960104 0.981114 0.980978 0.997562
0.914903 0.988056 0.954427 0.970177
0.897822 0.964501 0.946757 0.983216
0.963837 1.00309 0.963837 0.996922
0.932566 0.991792 0.949522 0.990271
0.98956 1.00284 0.989309 0.997416
0.979811 1.0083 0.974455 0.997221
0.992614 1.03927 0.957426 0.997577
0.999577 1.00494 0.998123 0.996536
1.02706 1.04458 0.985988 0.997202
1.03958 1.06927 0.974575 0.997597
1.02564 1.03439 0.995065 0.996462
1.0439 1.0621 0.98555 0.997275
1.03683 1.06112 0.979529 0.997526
1.05273 1.06 0.996455 0.996671
1.05003 1.06216 0.991291 0.997263
1.04687 1.06249 0.987903 0.997366
1.0507 1.05886 0.995056 0.997223
1.05042 1.05693 0.996853 0.996977
1.05801 1.06334 0.99805 0.996926
1.05503 1.05866 0.99995 0.996616
1.05613 1.05995 1 0.996397
1.05618 1.0604 1 0.996023
1.05872 1.06296 1 0.996012
1.05812 1.06236 1 0.996009
1.0432 1.04721 1 0.99617
1.04713 1.05143 1 0.995903
1.04816 1.05265 1 0.995735
1.00821 1.01109 1 0.997148
1.02678 1.03053 1 0.996361
1.03144 1.03554 1 0.99604
1.0003 1 1.00134 0.998957
1.00323 1.00526 1.00058 0.997409
1.01384 1.01723 1 0.996667
1 1 1 1
1.00178 1 1.00253 0.999255
1.00478 1.00239 1.00465 0.99774
1 1 1 1
1.00298 1 1.00346 0.999518
1 1 1 1
1.01234 1.0153 1.00037 0.99671
1.00121 1.0036 1.00002 0.997599
1.00127 1.00138 1.00226 0.997639
1.0024 1 1.00461 0.997792
1.00482 1 1.00698 0.997855
1.0071 1 1.00869 0.998424
1.01044 1 1.01241 0.998055
1.00625 1 1.00757 0.99869
1.00143 1 1.00171 0.999724
1 1 1 1
0.999896 1 1.00006 0.999836
1.00111 1 1.00222 0.99889
1 1 1 1
0.999919 1 1 0.999919
1 1 1 1
0.90575 0.977316 0.953784 0.97168
0.72995 0.844185 0.9137 0.94635
0.676615 0.79595 0.920633 0.923356
1.01645 1.00003 1.01916 0.997306
1.00254 1.00263 1.00229 0.997628
1.01185 1.00221 1.01215 0.997507
1.00675 1.00854 1.00157 0.996662
1.0223 1.02598 1.00016 0.996249
1.00087 1.00376 1 0.997115
1.02172 1.0014 1.02255 0.997792
1.00067 1.00466 0.99887 0.997161
0.980623 1.0023 0.979871 0.998467
0.99588 1.00287 0.995604 0.997413
0.970728 1.00345 0.969636 0.997685
0.992913 1.00152 0.994176 0.997219
0.973143 1.00082 0.9745 0.99779
0.987869 1.00025 0.988578 0.999029
0.902127 0.971196 0.942203 0.985863
0.88604 0.963613 0.950032 0.96786
0.700803 0.814293 0.908893 0.946897
0.851172 0.923597 0.955821 0.964181
0.877263 0.922634 0.962519 0.98785
0.891403 0.952776 0.945198 0.989829
0.973487 1.00377 0.972717 0.997036
0.99088 1.0005 0.992219 0.998147
0.997125 0.999669 0.998476 0.998978
0.981878 0.992746 0.991979 0.99705
0.923197 0.973157 0.961771 0.986371
0.899644 0.973335 0.95014 0.972794
0.730772 0.840932 0.920242 0.944321
0.958136 0.976557 0.98344 0.997658
0.903005 0.970752 0.94443 0.984945
0.915637 0.985879 0.956903 0.970582
0.958132 1.00114 0.959921 0.997002
0.93407 0.988111 0.955433 0.989404
0.960317 1.02483 0.939758 0.99712
0.979073 1.01906 0.964877 0.995734
0.975873 1.00804 0.97084 0.997167
0.989595 1.0369 0.956699 0.997573
1.00684 1.06878 0.94435 0.997557
1.03008 1.04662 0.98699 0.99717
1.03893 1.06883 0.97439 0.997575
1.04003 1.06745 0.976772 0.997476
1.04441 1.06254 0.985647 0.997249
1.03766 1.06073 0.980701 0.997506
1.05007 1.06933 0.984617 0.997329
1.05012 1.06234 0.991233 0.997241
1.0453 1.0602 0.988555 0.997359
1.05008 1.062 0.991663 0.997088
1.05016 1.05905 0.994311 0.99728
1.05054 1.05697 0.996886 0.997023
1.0551 1.0595 0.999201 0.996643
1.05506 1.05868 0.999973 0.996607
1.05638 1.06021 1 0.996386
1.0571 1.06108 1 0.996254
1.04958 1.05365 1 0.996132
1.05638 1.06061 1 0.996013
1.0584 1.06265 1 0.996
1.02038 1.02351 1 0.996938
1.04172 1.04572 1 0.996175
1.04742 1.05173 1 0.995905
0.999468 1.0005 1.00027 0.998695
1.01061 1.01349 1.00001 0.997146
1.02537 1.02912 1 0.996362
1 1 1 1
0.9999 1 1.00096 0.998939
1.00557 1.00735 1.00082 0.99741
1 1 1 1
1.00152 1 1.00229 0.999231
1 1 1 1
1.02592 1.0297 1 0.99632
1.01402 1.01718 1.00016 0.996743
1.00993 1.01224 1.00066 0.997062
1.00102 1.00343 1.00001 0.997584
1.001 1.00122 1.0022 0.997584
1.00481 1.00166 1.00508 0.998074
1.00393 1 1.00613 0.997817
1.00761 1 1.00919 0.998426
1.00327 1 1.00369 0.999588
1.00687 1 1.00819 0.998689
1.00109 1 1.00135 0.999735
1 1 1 1
1 1 1 1
0.999851 1 1 0.999851
1 1 1 1
0.913907 0.971693 0.953137 0.986775
0.894812 0.975586 0.948367 0.967141
0.727379 0.837218 0.91571 0.948777
1.04195 1.04591 1.00007 0.996152
1.00928 1.00188 1.00998 0.997429
1.0079 1.00964 1.00153 0.996761
1.00125 1.00414 1 0.99712
1.02097 1.0244 1.00042 0.996229
1.00769 1.01087 0.999756 0.997099
1.0011 1.00443 0.99971 0.996977
0.983696 1.00244 0.982828 0.998448
0.993741 1.00325 0.993081 0.997425
0.964464 1.00246 0.964476 0.997534
1.01036 1.01635 0.997388 0.996716
0.993915 1.00727 0.989436 0.997281
0.992931 1.00213 0.993609 0.997193
0.975509 1.00134 0.976261 0.997897
0.968873 1.00612 0.965335 0.997559
0.895223 0.966385 0.941033 0.98441
0.883168 0.964896 0.945579 0.967977
0.888126 0.945957 0.950787 0.987462
0.976367 1.00486 0.973651 0.997937
0.990851 1.0002 0.992572 0.998067
0.976729 1.0076 0.974172 0.995062
0.908749 0.956893 0.961409 0.987808
0.887196 0.97081 0.944138 0.967943
0.957011 0.998901 0.960869 0.997081
0.942223 0.990213 0.962794 0.988307
0.964091 1.02657 0.941715 0.997265
0.9833 1.01924 0.968555 0.996057
0.991272 1.04661 0.949619 0.997374
1.05227 1.07801 0.978821 0.997243
0.986057 1.03391 0.956043 0.997569
1.01258 1.07028 0.948426 0.997539
1.03144 1.0817 0.956094 0.997328
1.03764 1.06794 0.974009 0.997553
1.0367 1.06545 0.97548 0.997473
1.05045 1.07716 0.977933 0.997211
1.03814 1.06014 0.981718 0.997487
1.04784 1.06766 0.984054 0.997343
1.05296 1.0682 0.988663 0.997037
1.04359 1.05783 0.989154 0.997352
1.05046 1.06236 0.991689 0.997086
1.05591 1.06331 0.996259 0.996767
1.05055 1.05691 0.996898 0.99707
1.05555 1.0599 0.999205 0.996689
1.05932 1.06318 1 0.996369
1.05661 1.06045 1 0.996375
1.05681 1.0608 1 0.996241
1.05172 1.05574 1 0.996194
1.02828 1.03155 1 0.996825
1.04942 1.05349 1 0.996139
1.05653 1.06077 1 0.996002
1.00172 1.00318 1 0.998549
1.0207 1.02383 1 0.996938
1.04045 1.04444 1 0.996181
1 1 1 1
0.999966 1.00119 1.0001 0.99868
1.01313 1.01603 1 0.997145
1 1 1 1
0.99939 1 1.00047 0.998922
1 1 1 1
1.04062 1.04472 1 0.996076
1.02737 1.03116 1 0.996314
1.0243 1.02775 1 0.996642
1.01612 1.0194 1.00001 0.996776
1.01096 1.01339 1.00056 0.997049
1.00683 1.00671 1.0024 0.997722
1.00052 1.00103 1.00196 0.997529
1.00483 1.00091 1.00584 0.998076
1.0023 1 1.00289 0.999403
1.00749 1 1.00908 0.998427
1.0024 1 1.0028 0.999601
1 1 1 1
1.00043 1 1.00068 0.999746
1 1 1 1
1 1 1 1
0.971702 1.01057 0.96427 0.997172
0.908376 0.969887 0.951882 0.983924
0.894216 0.968856 0.949515 0.972035
1.03268 1.03612 1.00001 0.996663
1.05178 1.05585 0.999818 0.996325
1.04 1.0438 1.00012 0.996234
1.00206 1.00495 1 0.997123
1.0194 1.02253 1.00073 0.996208
1.00998 1.01407 0.998883 0.997084
1.03211 1.03975 0.99599 0.996656
0.993089 1.00443 0.991244 0.997439
0.961237 1.00189 0.961942 0.997383
1.01139 1.01861 0.996066 0.996829
1.02468 1.04197 0.986775 0.996586
0.996631 1.02727 0.97264 0.997466
0.99911 1.00954 0.992418 0.997226
0.993836 1.00268 0.994002 0.997164
0.972561 1.00763 0.967263 0.997862
0.90044 0.970352 0.944112 0.982883
0.976568 1.00472 0.973086 0.998868
1.03152 1.06038 0.9749 0.997828
0.974776 1.00629 0.973348 0.995205
0.911817 0.966935 0.956923 0.985447
0.966987 1.02871 0.94245 0.997402
0.987365 1.01962 0.971864 0.996397
0.986465 1.04708 0.944428 0.997545
1.05052 1.0781 0.977088 0.997265
1.04677 1.0904 0.962627 0.997256
1.08712 1.11392 0.978486 0.997402
1.01821 1.07261 0.951646 0.997521
1.03763 1.0839 0.959869 0.997328
1.05359 1.08689 0.972163 0.997122
1.03355 1.06357 0.974235 0.997469
1.0503 1.07631 0.978563 0.997211
1.05347 1.07394 0.983885 0.997004
1.0457 1.06602 0.983531 0.997357
1.05364 1.06885 0.988699 0.997034
1.05631 1.06749 0.992728 0.996778
1.05084 1.06272 0.991714 0.997084
1.05655 1.06394 0.996281 0.996765
1.06238 1.06655 0.999653 0.99643
1.056 1.06029 0.999208 0.996735
1.0589 1.06275 1 0.996384
1.05561 1.05962 1 0.99621
1.05652 1.06052 1 0.996229
1.05164 1.05566 1 0.996198
1.02979 1.03313 1 0.996773
1.00508 1.00658 1 0.998513
1.02761 1.03088 1 0.996825
1.04933 1.05339 1 0.996145
1 1 1 1
1.0026 1.00407 1 0.998537
1.02068 1.02381 1 0.996937
1 1 1 1
1.0003 1.00164 1 0.998665
1 1 1 1
1.04949 1.05359 1 0.996109
1.04017 1.04427 1 0.996077
1.03642 1.04021 1 0.996358
1.02798 1.03178 1 0.996308
1.02441 1.02786 1 0.996647
1.01233 1.01456 1.00039 0.997417
1.01141 1.01394 1.00046 0.997037
1.00515 1.00475 1.00268 0.997724
1.00051 1 1.00137 0.999136
1.00552 1.00025 1.00721 0.998079
1.00254 1 1.00312 0.999421
1 1 1 1
1.00201 1 1.0024 0.999613
1 1 1 1
1 1 1 1
1.00139 1.04653 0.958915 0.997871
0.968828 1.00952 0.963344 0.996209
0.910399 0.971825 0.951384 0.984665
1.04682 1.05173 0.998771 0.996551
1.0337 1.03697 0.999971 0.996874
1.06462 1.0698 0.998706 0.996451
1.05207 1.05639 0.999603 0.996307
1.03818 1.04188 1.00014 0.996317
1.05572 1.07022 0.98997 0.996448
1.0122 1.01728 0.997929 0.99707
1.0319 1.039 0.996559 0.996594
1.04607 1.07807 0.973485 0.996746
1.00975 1.02065 0.992353 0.996941
1.02574 1.04268 0.987192 0.996512
0.997524 1.03063 0.970297 0.997505
1.00139 1.00988 0.994407 0.997168
0.976989 1.00924 0.969854 0.998134
1.07402 1.10481 0.97463 0.997436
1.03611 1.0612 0.978462 0.997853
0.973432 1.00511 0.973009 0.995348
0.982599 1.0469 0.940728 0.997715
1.04755 1.07744 0.974907 0.997289
1.04148 1.08822 0.959668 0.99728
1.09093 1.11767 0.978627 0.997394
1.07162 1.10178 0.975277 0.997281
1.04354 1.08571 0.963736 0.997328
1.05432 1.08608 0.973553 0.997132
1.05413 1.07846 0.980339 0.99704
1.05014 1.07543 0.979219 0.997212
1.05374 1.07391 0.984183 0.996984
1.05593 1.07001 0.990034 0.996767
1.05433 1.06951 0.988739 0.99703
1.05676 1.06795 0.992727 0.996774
1.06484 1.07044 0.998282 0.996473
1.05719 1.06456 0.996301 0.996763
1.06228 1.06647 0.999644 0.996432
1.06075 1.06479 1 0.996207
1.05852 1.06234 1 0.996398
1.05537 1.05937 1 0.996216
1.03048 1.03388 1 0.996715
1.05154 1.05555 1 0.996201
1.03027 1.0336 1 0.996773
1.00684 1.00807 1 0.998788
0.999506 1 1 0.999506
1.00572 1.0071 1 0.998628
1.02689 1.03016 1 0.996825
1 1 1 1
1.00377 1.00525 1 0.998524
1 1 1 1
1.06866 1.07374 0.998712 0.996557
1.05737 1.0613 1 0.9963
1.05019 1.05427 1 0.996124
1.04358 1.0475 1 0.996251
1.04036 1.04445 1 0.996079
1.03728 1.04108 1 0.996352
1.01649 1.01939 1 0.997151
1.02514 1.02859 1 0.996652
1.00985 1.0119 1.00056 0.997419
0.999294 1.00035 1.00012 0.998824
1.00332 1.00277 1.00282 0.997725
1.00091 1 1.00175 0.999155
1 1 1 1
1.00238 1 1.00294 0.999439
1 1 1 1
1 1 1 1
1.06211 1.10074 0.967626 0.997182
1.00809 1.05538 0.957203 0.997902
0.965856 1.00962 0.961207 0.995265
1.06003 1.07038 0.993823 0.99649
1.04267 1.04773 0.998568 0.996597
1.03453 1.03759 0.999965 0.997082
1.06314 1.06813 0.998855 0.996465
1.05234 1.05691 0.999388 0.996289
1.06228 1.09048 0.977341 0.996725
1.05199 1.06686 0.989617 0.996408
1.03183 1.03827 0.997258 0.996531
1.04325 1.07499 0.973644 0.996744
1.03038 1.04621 0.988388 0.996438
1.00269 1.039 0.967416 0.997554
1.06979 1.0953 0.979273 0.997385
1.07632 1.1071 0.974664 0.997474
1.04047 1.06237 0.981464 0.997879
1.03732 1.08711 0.956783 0.9973
1.09576 1.122 0.979176 0.997387
1.07213 1.10317 0.974508 0.997286
1.06069 1.07984 0.985068 0.99715
1.05504 1.08522 0.974975 0.997142
1.05463 1.07831 0.980955 0.997025
1.05763 1.07203 0.989728 0.996809
1.05405 1.07394 0.984469 0.996965
1.05651 1.07059 0.990048 0.996766
1.06597 1.07408 0.995945 0.996496
1.05724 1.06844 0.992729 0.996769
1.0645 1.07012 0.99827 0.996473
1.06423 1.06829 1 0.996195
1.06222 1.06641 0.999636 0.996434
1.06049 1.06453 1 0.996212
1.03172 1.0352 1 0.996634
1.05511 1.05911 1 0.996223
1.0316 1.035 1 0.996716
1.00613 1.00733 1 0.998804
1.03081 1.03414 1 0.996772
1.00668 1.0079 1 0.998782
0.999535 1 1 0.999535
0.999765 1 1 0.999765
1.00639 1.00765 1 0.998755
1 1 1 1
1.0612 1.07059 0.994639 0.996572
1.0618 1.06589 0.999776 0.996387
1.06714 1.07251 0.998307 0.996686
1.05339 1.05737 1 0.996236
1.05941 1.06336 1 0.996288
1.05084 1.05491 1 0.996139
1.04408 1.04802 1 0.996241
1.02373 1.02687 1 0.996945
1.03801 1.04182 1 0.996347
1.01634 1.01925 1 0.997152
1.00197 1.00337 1 0.998607
1.00752 1.0096 1.00052 0.997421
0.999688 1.00033 1.00052 0.998843
1 1 1 1
1.00142 1 1.00225 0.999175
1 1 1 1
1 1 1 1
1.06134 1.08989 0.976668 0.997069
1.05608 1.09414 0.967945 0.99718
1.01268 1.06078 0.956647 0.997925
1.06003 1.07915 0.98558 0.996652
1.05729 1.06775 0.993695 0.996488
1.03865 1.04382 0.998397 0.996645
1.06151 1.06634 0.998988 0.99648
1.0607 1.08839 0.977788 0.996701
1.04783 1.06305 0.989268 0.996367
1.0351 1.06603 0.974153 0.996742
1.06442 1.08237 0.986163 0.997214
1.06824 1.09343 0.979565 0.997344
1.07795 1.10888 0.974536 0.997511
1.05944 1.07386 0.989489 0.997054
1.07227 1.10429 0.973645 0.997291
1.0605 1.07974 0.984996 0.997136
1.05934 1.07259 0.990699 0.996918
1.05517 1.07813 0.981641 0.99701
1.05763 1.07206 0.989689 0.996811
1.06659 1.07579 0.994916 0.99652
1.05705 1.07112 0.990066 0.996765
1.0653 1.07337 0.995973 0.996496
1.06542 1.0695 0.999992 0.996196
1.06408 1.06971 0.998257 0.996472
1.06472 1.06878 1 0.996198
1.03186 1.03542 1 0.996558
1.06018 1.06421 1 0.996217
1.03288 1.03637 1 0.996636
1.00473 1.00596 1 0.998777
1.03275 1.03616 1 0.996717
1.00575 1.00696 1 0.998791
0.999538 1 1 0.999538
1.00648 1.00771 1 0.998779
0.999546 1 1 0.999546
1 1 1 1
1.05865 1.07099 0.991965 0.99648
1.06333 1.06878 0.998513 0.996382
1.06282 1.07198 0.994866 0.996569
1.0601 1.06405 1 0.996291
1.06282 1.06719 0.999473 0.996433
1.06578 1.07145 0.997895 0.996814
1.03298 1.0363 1 0.996803
1.05328 1.05727 1 0.996225
1.06155 1.06552 1 0.996276
1.04486 1.04881 1 0.996231
1.02448 1.02762 1 0.996946
1.00625 1.00773 1 0.998527
1.0159 1.01881 1 0.997153
1.0009 1.00228 1 0.998623
1 1 1 1
0.999781 1.00004 1.00088 0.998862
1 1 1 1
1 1 1 1
1.05969 1.07853 0.985538 0.99695
1.06169 1.09062 0.976358 0.997049
1.05331 1.09125 0.967959 0.997179
1.05978 1.07887 0.985592 0.996668
1.05425 1.06482 0.993569 0.996485
1.06061 1.08782 0.978239 0.996676
1.06138 1.07541 0.989865 0.997052
1.06439 1.08235 0.986161 0.997209
1.06667 1.09161 0.979795 0.997303
1.05991 1.07402 0.989756 0.997074
1.05818 1.06958 0.992438 0.996874
1.06028 1.07966 0.984886 0.997122
1.05973 1.07259 0.991111 0.996878
1.06653 1.07557 0.994971 0.99661
1.05767 1.07214 0.989649 0.996814
1.06617 1.07539 0.994893 0.996522
1.06534 1.06952 0.999889 0.996201
1.06471 1.07276 0.995989 0.996496
1.06685 1.07096 0.999959 0.996197
1.03002 1.03363 1 0.996516
1.06526 1.06932 1 0.996202
1.03258 1.03614 1 0.99656
1.00286 1.00415 1 0.998721
1.03409 1.03758 1 0.996638
1.00421 1.00546 1 0.998758
0.999512 1 1 0.999512
1.00535 1.00657 1 0.998781
0.999561 1 1 0.999561
0.999552 1 1 0.999552
1.05983 1.07269 0.991241 0.996741
1.06429 1.07131 0.997111 0.996328
1.05844 1.07189 0.990922 0.996506
1.0647 1.06868 1 0.996275
1.06301 1.06823 0.998745 0.996368
1.06443 1.07336 0.995101 0.996567
1.03533 1.03875 1 0.996712
1.06002 1.06398 1 0.99628
1.06375 1.06837 0.999191 0.996479
1.00756 1.00905 1 0.998524
1.03238 1.03569 1 0.996804
1.05325 1.05726 1 0.996214
1.0247 1.02784 1 0.996946
1.00493 1.0064 1 0.998539
1 1 1 1
1.00004 1.0014 1 0.998639
1 1 1 1
1 1 1 1
1.0586 1.07262 0.989959 0.996943
1.06009 1.07874 0.98573 0.99694
1.0612 1.09041 0.976111 0.997029
1.05953 1.07862 0.98557 0.996685
1.05887 1.0682 0.99442 0.996832
1.0614 1.07551 0.989786 0.997063
1.06446 1.08234 0.986232 0.997203
1.06038 1.07417 0.990035 0.997095
1.05835 1.06998 0.992227 0.996884
1.06672 1.07424 0.996396 0.996591
1.06012 1.07257 0.991529 0.996839
1.0672 1.07559 0.995628 0.996556
1.06404 1.06892 0.999164 0.996275
1.06576 1.07498 0.994876 0.996524
1.06611 1.07038 0.999805 0.996203
1.0269 1.03052 1 0.996488
1.06808 1.07222 0.999934 0.996198
1.02978 1.03338 1 0.996517
1.00054 1.00212 1 0.998422
1.0333 1.03686 1 0.996563
1.00211 1.00353 1 0.998586
1 1 1 1
1.00368 1.00495 1 0.99874
0.999542 1 1 0.999542
0.999576 1 1 0.999576
1.05881 1.06934 0.993286 0.996837
1.06432 1.0723 0.99608 0.996463
1.06021 1.07224 0.992016 0.996732
1.06588 1.07018 0.9998 0.996185
1.06364 1.07098 0.996809 0.996331
1.05827 1.0728 0.989889 0.996533
1.03457 1.03812 1 0.996573
1.06445 1.06851 0.999923 0.996276
1.06267 1.0677 0.998939 0.996354
1.00592 1.00739 1 0.998536
1.03428 1.03772 1 0.99668
1.05971 1.06368 1 0.996269
1 1 1 1
1.00749 1.00897 1 0.998535
1.03179 1.0351 1 0.996805
1.00384 1.0053 1 0.998552
1 1 1 1
1 1 1 1
1.0572 1.06622 0.994689 0.99684
1.05903 1.07272 0.99026 0.99695
1.06043 1.07894 0.98587 0.996931
1.06628 1.07266 0.997507 0.996532
1.05829 1.06803 0.994016 0.996844
1.06143 1.07563 0.989695 0.997074
1.05851 1.07038 0.991991 0.996893
1.06642 1.07408 0.996269 0.996592
1.06266 1.06726 0.999371 0.996314
1.0678 1.07552 0.996305 0.996503
1.06437 1.06892 0.999483 0.996252
1.0245 1.02815 1 0.996446
1.06697 1.07134 0.999716 0.996205
1.0265 1.03012 1 0.996489
0.999234 1.00084 1 0.998398
1.02975 1.03335 1 0.996518
1.00012 1.0017 1 0.998421
1 1 1 1
1.00134 1.00291 1 0.998428
0.999747 1 1 0.999747
0.999567 1 1 0.999567
1.05607 1.06512 0.994683 0.996799
1.06566 1.07221 0.997344 0.996541
1.05849 1.06885 0.993442 0.996845
1.06578 1.06987 1 0.996175
1.06526 1.07308 0.996255 0.996449
1.06054 1.07176 0.992788 0.996723
1.0314 1.03503 1 0.996497
1.06534 1.06952 0.999908 0.996185
1.06305 1.07067 0.99653 0.996335
1.00335 1.00485 1 0.998513
1.03398 1.03754 1 0.996561
1.06421 1.06833 0.99986 0.996277
1 1 1 1
1.00654 1.00801 1 0.998545
1.03346 1.03693 1 0.996648
1 1 1 1
1.00738 1.00885 1 0.998546
1 1 1 1
1.06531 1.07153 0.997612 0.996573
1.05683 1.0659 0.99465 0.996826
1.05942 1.07275 0.990586 0.996956
1.06192 1.06638 0.999506 0.996309
1.06558 1.07235 0.997129 0.996552
1.0577 1.06785 0.993621 0.996855
1.06611 1.07391 0.996127 0.996593
1.0624 1.06709 0.999281 0.996314
1.02317 1.02682 1 0.996448
1.06473 1.06899 0.999783 0.99623
1.02449 1.02814 1 0.996454
0.998645 1.00028 1 0.998366
1.02599 1.0296 1 0.996491
0.998991 1.0006 1 0.998396
1 1 1 1
0.999618 1.0012 1 0.998419
1 1 1 1
0.999539 1 1 0.999539
1.06592 1.07202 0.997755 0.996548
1.05539 1.06508 0.994067 0.996818
1.06431 1.06834 1 0.996228
1.06599 1.07257 0.997318 0.99654
1.0582 1.06839 0.993586 0.996853
1.02812 1.03172 1 0.996513
1.06505 1.06914 1 0.996172
1.0662 1.07386 0.996425 0.996435
1.00098 1.00253 1 0.998459
1.03142 1.03503 1 0.996509
1.06469 1.06877 1 0.996184
1 1 1 1
1.00409 1.00558 1 0.998519
1.03345 1.03703 1 0.99655
1 1 1 1
1.00714 1.0086 1 0.998554
1 1 1 1
1.06206 1.06641 0.999592 0.99633
1.06518 1.07129 0.997724 0.996561
1.05648 1.06559 0.994621 0.996812
1.02271 1.02634 1 0.996466
1.06166 1.06619 0.999434 0.99631
1.06485 1.07201 0.996739 0.996572
1.06216 1.06692 0.999218 0.996314
1.02335 1.027 1 0.996445
0.998414 1.00006 1 0.998355
1.02449 1.02813 1 0.996463
0.998533 1.00017 1 0.998364
1 1 1 1
0.998775 1.00038 1 0.998394
1 1 1 1
1 1 1 1
1.06342 1.06742 1 0.996258
1.06539 1.07185 0.997366 0.996597
1.05474 1.06508 0.993437 0.996837
1.02553 1.02911 1 0.996526
1.06402 1.06805 1 0.996225
1.06631 1.07292 0.997292 0.99654
0.99927 1.00086 1 0.998416
1.02803 1.03163 1 0.996511
1.06423 1.06832 1 0.996168
1 1 1 1
1.00162 1.00316 1 0.998462
1.03151 1.03511 1 0.996521
1 1 1 1
1.00477 1.00625 1 0.998524
1 1 1 1
1.02339 1.02697 1 0.996507
1.06176 1.06621 0.999505 0.996315
1.06505 1.07108 0.997806 0.99655
0.998384 1 1 0.998384
1.0229 1.02653 1 0.996463
1.06141 1.06602 0.999365 0.99631
1.02346 1.02712 1 0.996443
0.998357 1 1 0.998356
1 1 1 1
0.998401 1.00004 1 0.998362
1 1 1 1
1 1 1 1
1.02409 1.02766 1 0.996528
1.06291 1.0671 0.99979 0.996287
1.06488 1.07166 0.997023 0.996646
0.998766 1.00009 1 0.998681
1.02575 1.02933 1 0.996525
1.06383 1.06787 1 0.996222
1 1 1 1
0.999772 1.00136 1 0.998417
1.02817 1.03177 1 0.996508
1 1 1 1
1.00221 1.00375 1 0.998465
1 1 1 1
0.998368 1 1 0.998368
1.02354 1.02714 1 0.996496
1.06148 1.06602 0.999435 0.9963
1 1 1 1
0.998382 1 1 0.998382
1.02308 1.02671 1 0.99646
0.998355 1 1 0.998355
1 1 1 1
1 1 1 1
0.998653 1 1 0.998653
1.02445 1.02802 1 0.996528
1.06241 1.06682 0.999549 0.996316
1 1 1 1
0.998726 1.00032 1 0.998405
1.02585 1.02943 1 0.996524
1 1 1 1
1.00015 1.00173 1 0.998418
1 1 1 1
0.999515 1 1 0.999515
0.998526 1 1 0.998526
1.0237 1.02731 1 0.996484
1 1 1 1
0.998384 1 1 0.998384
1 1 1 1
0.999525 1 1 0.999525
0.998533 1 1 0.998533
1.02472 1.02829 1 0.996529
0.999757 1 1 0.999757
0.998995 1.00059 1 0.998407
1 1 1 1
1 1 1 1
0.998405 1 1 0.998405
1 1 1 1
0.999762 1 1 0.999762
0.998485 1.00007 1 0.998413
1 1 1 1
1 1 1 1
1 1 1 1

VECTORS lamdaE float
1.00202 1.00001 0.993005
1.00159 1.00077 0.99648
1.0015 1.00021 0.993371
1.00196 1.00011 0.992934
1.00208 0.999917 0.993009
1.00198 1.00025 0.992824
1.00317 1.00058 0.990011
1.00165 1.00079 0.996411
1.00138 1.00006 0.997102
1.00089 1.00087 0.997119
1.00139 1.00123 0.992529
1.00318 1.00123 0.988173
1.00146 0.999971 0.993595
1.00121 1.00003 0.993783
1.00103 1.00042 0.99371
1.00159 1.00007 0.993333
1.0014 1.0006 0.993159
1.00164 0.999967 0.993391
1.00341 1.00046 0.989827
1.00146 1.00002 0.996713
1.00187 1.00016 0.992981
1.00207 0.999984 0.992954
1.00319 1.00022 0.990368
1.00326 1.0003 0.990171
1.00198 1.00055 0.992543
1.00309 1.00106 0.989636
1.00529 1.00122 0.985451
1.00167 1.0008 0.996336
1.00164 0.999937 0.995161
1.00127 1.00057 0.995136
1.00158 1.00102 0.99633
1.00311 1.00136 0.988178
1.0019 0.999751 0.993148
1.00174 1.00002 0.993239
1.00358 1.00016 0.990441
1.00032 1.00146 0.997304
1.00342 1.00075 0.9902
1.00298 1.00207 0.987706
1.0051 1.00176 0.984526
1.00048 1.00011 0.99756
1.00151 0.999984 0.996681
1.00146 1.00001 0.995177
1.00139 0.999965 0.996769
1.00105 1.00005 0.993969
1.0032 0.999907 0.989671
1.00139 0.999943 0.997041
1.00355 1.00014 0.990533
1.00124 1 0.993732
1.00122 1.00001 0.993761
1.00086 1.00096 0.993475
1.00363 1.00033 0.989658
1.00126 1.00004 0.995359
1.00149 1.00017 0.993386
1.00141 1.00099 0.992825
1.00168 0.999952 0.993344
1.00338 1.00017 0.990159
1.00337 1.00088 0.989457
1.00346 1.00023 0.989981
1.00529 1.00119 0.985519
1.00135 1 0.99677
1.00174 1.00009 0.993224
1.00286 0.999981 0.991562
1.00312 1.0002 0.990515
1.00328 1.0002 0.990252
1.00526 1.00007 0.986672
1.00528 1.00038 0.98623
1.00183 1.00072 0.992247
1.003 1.00198 0.988943
1.00531 1.0018 0.984803
1.00529 0.999898 0.986042
1.00198 0.999947 0.996562
1.00144 1.0009 0.996562
1.00168 1.0005 0.996517
1.00308 1.00147 0.988185
1.00197 0.999864 0.996505
1.00186 1.00011 0.996584
1.00343 1.00011 0.988937
1.0006 1.00117 0.995329
1.0032 1.00071 0.988693
1.00282 1.00227 0.988867
1.0052 1.0016 0.984521
1.00079 1.00046 0.997161
1.00075 1.00247 0.991175
1.00357 1.00008 0.988817
1.0035 1.00017 0.988843
1.00533 1.00043 0.985609
1.00207 1.00287 0.990488
1.00531 1.00119 0.984832
1.00421 1.00291 0.984781
1.00537 1.00155 0.984186
1.00025 0.999452 0.997939
1.00032 0.999883 0.99772
1.00181 0.999968 0.99651
1.00157 0.999985 0.996644
1.00144 0.999972 0.996759
1.00134 0.999997 0.995309
1.00323 0.99991 0.990394
1.00162 0.999944 0.995112
1.00343 1.00017 0.989824
1.00138 0.999981 0.996791
1.00299 0.999797 0.990049
1.00345 1.00006 0.990776
1.00523 0.998954 0.98738
1.00355 1.00011 0.990497
1.00523 0.999364 0.986951
1.00141 0.999992 0.993679
1.0011 1.00016 0.993796
1.00084 1.0014 0.993093
1.00129 0.999909 0.99373
1.00356 1.00016 0.989951
1.00366 1.00017 0.989798
1.00361 1.00072 0.989287
1.0053 1.00116 0.985585
1.0014 0.999981 0.996782
1.00135 1.0001 0.993617
1.00306 0.999923 0.990391
1.00329 1.00017 0.990305
1.00163 1.00124 0.994197
1.0033 1.00176 0.989124
1.00346 1.00016 0.990053
1.00526 0.999859 0.986923
1.0053 1.00179 0.984897
1.00529 1.00059 0.986078
1.00528 0.999899 0.986071
1.00294 0.999839 0.990097
1.00301 1.00005 0.990782
1.00505 0.998781 0.988414
1.0052 0.999398 0.987556
1.0053 0.999916 0.986738
1.00534 0.997659 0.988529
1.00096 1.00111 0.996841
1.00528 0.99899 0.986949
1.00257 1.00303 0.987285
1.00525 1.00228 0.983723
1.00529 1.00088 0.985124
1.00526 0.997319 0.988436
1.00135 1.0032 0.989322
1.00251 1.0043 0.98639
1.00201 0.999878 0.996523
1.00185 1.00017 0.996572
1.00345 1.00008 0.988914
1.00086 1.00081 0.997036
1.00235 1.0026 0.988073
1.00323 1.00064 0.988695
1.00532 1.00145 0.984512
1.00062 1.0005 0.997316
1.0007 1.0026 0.991192
1.00359 1.00012 0.989627
1.00353 1.00023 0.989595
1.00533 1.00045 0.985577
1.00159 1.00301 0.989092
1.00532 1.00118 0.984808
1.00446 1.00254 0.984751
1.00535 1.00141 0.984397
1.00115 1.00275 0.990148
1.00041 1.00219 0.992091
1.00227 1.00389 0.987753
1.00532 1.00005 0.98605
1.00534 1.0008 0.985202
1.00532 0.998738 0.987251
1.00341 1.00348 0.985508
1.00532 1.00022 0.985764
1.0053 1.00247 0.983541
1.00532 0.999953 0.985605
1.00014 0.998972 0.998263
1.00016 0.999387 0.998077
1.00024 0.999776 0.997873
1.00103 1.00301 0.990138
1.00055 1.00089 0.997182
1.00195 0.999907 0.996492
1.00167 0.999987 0.996561
1.00326 1.00021 0.989157
1.00307 0.999927 0.989752
1.00142 0.99997 0.996736
1.00136 0.99997 0.996786
1.00297 0.999811 0.990039
1.00333 1.00005 0.990073
1.00519 0.998976 0.987393
1.0034 1.00017 0.98898
1.00523 0.999376 0.986928
1.00291 0.999793 0.990155
1.00514 0.998881 0.987568
1.00523 0.999118 0.987214
1.0053 0.995697 0.990736
1.00528 0.999687 0.986518
1.00532 0.996367 0.989916
1.00137 0.999979 0.996782
1.00094 1.00015 0.994008
1.00309 0.999902 0.989381
1.00348 1.00016 0.990091
1.00081 1.00194 0.996695
1.00361 1.00134 0.989316
1.00364 1.00014 0.989856
1.00525 0.999637 0.987175
1.0053 1.00077 0.985923
1.00529 1.00175 0.984991
1.00527 0.999902 0.986101
1.00292 0.999833 0.990101
1.00318 1.00006 0.990577
1.00509 0.998728 0.988176
1.0052 0.999615 0.98728
1.00112 1.00118 0.996683
1.0027 1.00278 0.988373
1.00507 1.00256 0.984081
1.0053 0.999981 0.986697
1.00535 0.99724 0.988945
1.0053 1.00077 0.985196
1.00528 0.999167 0.986864
1.00526 0.99738 0.988439
1.00142 1.00312 0.989298
1.00264 1.00424 0.98633
1.00505 0.998985 0.987631
1.00513 0.999075 0.988017
1.00532 0.996375 0.98989
1.00534 0.996529 0.98975
1.0053 0.998068 0.987914
1.00527 0.995424 0.990718
1.00181 1.00329 0.988285
1.00524 0.996198 0.989671
1.00462 1.00321 0.984014
1.0053 1.00186 0.983935
1.0053 0.999041 0.986847
1.00526 0.995881 0.990022
1.00337 1.00417 0.984961
1.00227 1.00388 0.987611
1.00392 1.00354 0.985198
1.00345 1.00011 0.988912
1.00039 1.00033 0.997482
1.00058 1.00262 0.991212
1.00338 1.00021 0.988885
1.00532 1.00047 0.985545
1.00155 1.00311 0.98897
1.00467 1.00227 0.984728
1.00534 1.00118 0.984779
1.00536 1.00126 0.984607
1.00106 1.00285 0.990186
1.00027 1.00229 0.992087
1.00206 1.00386 0.987749
1.00531 1.00007 0.986018
1.00533 1.00082 0.985175
1.00532 0.998736 0.987233
1.0036 1.00325 0.985494
1.00532 1.00033 0.985663
1.00536 1.00245 0.98347
1.00533 0.999629 0.985857
1.00023 1.00157 0.992865
1.00305 1.00377 0.986496
1.00149 1.00435 0.988289
1.00307 1.00117 0.988153
1.00531 0.997911 0.988171
1.00531 0.999576 0.986368
1.00528 0.996453 0.989346
1.00492 1.00288 0.983669
1.00527 0.998124 0.987807
1.00534 1.00139 0.984579
1.00538 0.998497 0.987037
1.00011 1.00331 0.991454
1.00029 1.00028 0.994123
1.00013 0.998366 0.998485
1.00008 0.998852 0.998351
1.00007 0.999305 0.998195
1.00067 1.00276 0.990969
1.00039 1.00049 0.997437
1.00112 1.00293 0.990065
1.00071 1.00093 0.997066
1.00338 1.0002 0.988974
1.00318 1.00006 0.989431
1.00522 0.999387 0.986913
1.00516 0.999003 0.987405
1.00298 0.999829 0.990037
1.00142 0.999957 0.996782
1.00293 0.999786 0.990157
1.00514 0.99889 0.987577
1.0052 0.999135 0.987212
1.00532 0.995663 0.990738
1.00528 0.999704 0.98649
1.00531 0.996361 0.989923
1.00508 0.998888 0.987669
1.00533 0.995676 0.99076
1.00529 0.995879 0.990502
1.00523 0.994958 0.991505
1.00533 0.997107 0.989082
1.00528 0.994916 0.991212
1.00293 0.999831 0.990111
1.00336 1.00004 0.990371
1.00512 0.998642 0.987941
1.0052 0.999814 0.987004
1.00134 1.00125 0.996478
1.00309 1.00263 0.989202
1.00488 1.00272 0.984433
1.0053 1.00004 0.986654
1.00536 0.99682 0.989358
1.00527 0.999347 0.986782
1.00531 1.00068 0.985269
1.00526 0.997435 0.988442
1.00148 1.00303 0.989277
1.00263 1.00409 0.986274
1.00506 0.99873 0.987905
1.00515 0.999039 0.988
1.00532 0.996355 0.989949
1.00535 0.996824 0.989359
1.00189 1.00327 0.988293
1.00436 1.00332 0.984044
1.00532 1.00201 0.983767
1.0053 0.998304 0.987765
1.00528 0.995203 0.990856
1.00529 0.998814 0.987097
1.00525 0.99622 0.98965
1.00526 0.995858 0.989894
1.00335 1.00424 0.984921
1.00354 1.00366 0.985251
1.00194 1.00402 0.987642
1.00532 0.99627 0.99004
1.00534 0.996508 0.989741
1.00527 0.994961 0.991339
1.00531 0.994918 0.991162
1.00525 0.99543 0.990446
1.00527 0.994927 0.99098
1.00387 1.00381 0.984421
1.00529 0.995096 0.990575
1.00532 1.00317 0.982703
1.0053 1.00038 0.985223
1.00525 0.997465 0.988401
1.00529 0.995571 0.990215
1.00133 1.00491 0.98772
1.00474 1.00397 0.983447
1.0026 1.00185 0.987896
1.00483 1.00379 0.983771
1.00531 1.00009 0.985987
1.00019 1.0024 0.99208
1.00088 1.0031 0.990228
1.00167 1.00388 0.987741
1.00533 1.00082 0.985146
1.00532 0.998735 0.987216
1.00379 1.00283 0.985483
1.00539 1.00241 0.983397
1.00531 1.00045 0.985564
1.00532 0.999329 0.98611
1.00016 1.00167 0.992886
1.00279 1.00359 0.986594
1.00134 1.00441 0.98822
1.00332 1.00116 0.9882
1.00531 0.997903 0.988157
1.00531 0.999565 0.98635
1.00528 0.996428 0.989353
1.00512 1.00286 0.983629
1.00527 0.998334 0.987556
1.00531 1.00126 0.984558
1.00537 0.998359 0.987241
1.00033 1.00082 0.993544
1.00116 1.00473 0.988683
1.00368 1.0028 0.985837
1.00289 1.00244 0.988164
1.0039 0.999997 0.988431
1.00527 0.99563 0.990245
1.00528 0.997296 0.988428
1.00529 0.995446 0.99009
1.00521 1.00261 0.983585
1.00531 0.996999 0.988653
1.00523 0.999849 0.985903
1.00044 1.00362 0.990555
1.00021 1.00484 0.989813
1.00009 1.00252 0.992285
1.00012 1.00323 0.991465
1.00017 0.9998 0.995535
1.00025 1.00022 0.994608
1.0003 0.997791 0.996972
1.00013 0.998271 0.998539
1.00005 0.998727 0.998419
1.00003 1.00259 0.992124
1.00016 1.00013 0.997823
1.00072 1.00271 0.990958
1.00046 1.00063 0.997343
1.0012 1.00287 0.989993
1.00085 1.00101 0.996957
1.00528 0.999724 0.98646
1.00518 0.999148 0.987208
1.0053 0.996374 0.989931
1.00533 0.995627 0.990741
1.00512 0.998899 0.987587
1.00293 0.999772 0.990154
1.00507 0.998891 0.987672
1.00532 0.995655 0.990766
1.00531 0.99587 0.990503
1.00523 0.994955 0.991488
1.00531 0.997089 0.989083
1.00529 0.994916 0.991238
1.00532 0.995728 0.990714
1.00522 0.994962 0.99153
1.00527 0.994951 0.991381
1.00524 0.994949 0.991373
1.00527 0.995068 0.990897
1.00528 0.994921 0.991009
1.00507 0.998474 0.98818
1.00517 0.999031 0.987985
1.00532 0.996358 0.990008
1.00535 0.997108 0.98897
1.00198 1.00323 0.988309
1.00413 1.00365 0.984088
1.00534 1.00215 0.983602
1.00529 0.998537 0.987617
1.00528 0.994979 0.990994
1.00526 0.996248 0.989628
1.00528 0.998564 0.987347
1.00526 0.995839 0.989765
1.00342 1.00451 0.984877
1.00332 1.00366 0.985303
1.00175 1.00414 0.987671
1.00531 0.996034 0.990345
1.00533 0.996531 0.98975
1.00528 0.994958 0.991364
1.00531 0.994964 0.991067
1.00379 1.004 0.984456
1.00528 1.00324 0.982775
1.00531 1.00057 0.98497
1.00525 0.995648 0.990241
1.00527 0.994921 0.990932
1.00525 0.997334 0.988372
1.00528 0.995108 0.990547
1.00528 0.995469 0.990252
1.00436 1.00401 0.983455
1.00455 1.00381 0.983574
1.00155 1.00464 0.987789
1.00281 1.002 0.987966
1.00526 0.994966 0.991483
1.00532 0.994943 0.991122
1.00525 0.994949 0.991344
1.00528 0.994923 0.990956
1.0053 0.994904 0.990795
1.00534 0.994903 0.990736
1.00519 1.00384 0.982482
1.00531 0.994907 0.990546
1.00529 1.00213 0.983504
1.00527 0.999579 0.985949
1.00518 0.9968 0.988924
1.00534 0.995221 0.990229
1.00107 1.00482 0.988235
1.0031 1.00321 0.986685
1.00517 1.00406 0.982182
1.00339 1.00087 0.987803
1.00449 1.00453 0.98308
1.00008 1.00175 0.992909
1.00532 0.997895 0.988143
1.00137 1.00431 0.988151
1.00252 1.00358 0.986693
1.00343 1.00099 0.988248
1.00531 0.999555 0.986332
1.00528 0.996404 0.989361
1.00528 1.00255 0.983588
1.0053 1.00118 0.984536
1.00527 0.998522 0.987306
1.00536 0.99823 0.987444
1.00029 1.0008 0.993576
1.00088 1.0048 0.988694
1.0039 1.00246 0.985909
1.00253 1.00248 0.988117
1.00414 0.999888 0.987736
1.00527 0.995608 0.990262
1.00528 0.997269 0.988436
1.00527 0.995449 0.9901
1.0052 1.00272 0.983508
1.00532 0.997105 0.988457
1.00522 0.999897 0.986128
1.00081 1.00412 0.989639
1.00169 1.00511 0.988131
1.00415 1.00278 0.984882
1.00381 1.00073 0.988035
1.00507 1.00169 0.986116
1.00531 0.994943 0.990655
1.00527 0.996093 0.989356
1.00522 0.995193 0.990222
1.0049 1.0016 0.984542
1.00522 0.998489 0.986984
1.00035 1.00382 0.990537
1.00049 1.00463 0.989444
0.999841 1.00491 0.989839
1.00052 1.00445 0.990197
1.00011 1.00436 0.990695
0.999955 1.00222 0.992763
0.999973 1.00263 0.992307
1.00013 0.999323 0.995961
1.00009 1.00325 0.991477
1.0002 0.999632 0.995607
1.00029 0.997325 0.997343
1.00022 1.00015 0.995081
1.0002 0.997859 0.997843
1.00012 0.998168 0.998591
0.999781 1.00152 0.99358
1.00017 1.00235 0.992152
0.999887 0.999398 0.998319
1.00031 1.00009 0.997655
1.00081 1.00258 0.99095
1.00056 1.0007 0.997242
1.0053 0.997068 0.989084
1.00533 0.995844 0.990504
1.00529 0.994916 0.991263
1.00522 0.994953 0.991472
1.00531 0.995634 0.990771
1.00508 0.998895 0.987676
1.00531 0.995721 0.990716
1.00522 0.994963 0.991529
1.00527 0.994946 0.991389
1.00523 0.994948 0.991349
1.00527 0.995052 0.990926
1.00529 0.994916 0.991011
1.00524 0.994965 0.991506
1.00524 0.994947 0.991448
1.00525 0.99496 0.991195
1.00527 0.994933 0.991293
1.0053 0.994852 0.990933
1.00533 0.994943 0.990887
1.0053 0.995797 0.99065
1.00532 0.99654 0.989758
1.00529 0.994951 0.99139
1.00531 0.995028 0.990972
1.00367 1.00408 0.98449
1.00523 1.00326 0.982841
1.00531 1.00071 0.984716
1.00526 0.995861 0.990036
1.00526 0.994916 0.990885
1.00527 0.995107 0.990519
1.00526 0.997218 0.988345
1.00529 0.995351 0.990293
1.00404 1.00445 0.983467
1.00415 1.00422 0.983377
1.00166 1.00435 0.987856
1.00279 1.00171 0.988024
1.00527 0.994968 0.991483
1.00532 0.994943 0.991149
1.00526 0.994947 0.991315
1.00528 0.994926 0.990961
1.00504 1.00401 0.982508
1.00529 1.00227 0.98337
1.00527 0.999542 0.985928
1.0053 0.994911 0.99081
1.00534 0.994897 0.990707
1.00523 0.996682 0.988932
1.00532 0.994904 0.990533
1.00531 0.995193 0.990363
1.00515 1.00406 0.982237
1.0044 1.00465 0.982929
1.0037 1.00102 0.987827
1.00092 1.00473 0.988377
1.00264 1.00357 0.98656
1.00525 0.994949 0.991378
1.00528 0.994931 0.991169
1.00533 0.994888 0.99071
1.00532 0.994893 0.990642
1.00519 1.00371 0.982347
1.00531 0.994902 0.990497
1.0052 1.00156 0.983808
1.00522 0.998959 0.986542
1.00526 0.996084 0.989203
1.00008 1.00415 0.99025
1.00184 1.00507 0.987161
1.00412 1.00366 0.985946
1.005 1.00438 0.982402
1.00465 1.00196 0.984924
1.00437 1.00481 0.982841
1.00026 1.00081 0.993606
1.00062 1.00489 0.988704
1.00526 0.995586 0.99028
1.00208 1.00265 0.988067
1.00433 1.00248 0.985983
1.0045 0.999972 0.987047
1.00528 0.997245 0.988443
1.00527 0.995454 0.990109
1.00519 1.00274 0.98344
1.00519 0.999959 0.986355
1.00534 0.997199 0.98826
1.00069 1.00422 0.989623
1.00106 1.00512 0.988123
1.00447 1.00291 0.984366
1.0037 1.00054 0.988125
1.00476 1.00119 0.985843
1.0053 0.994942 0.990683
1.00529 0.996119 0.989331
1.00525 0.995202 0.990155
1.00497 1.00158 0.984677
1.00519 0.998628 0.986915
1.00107 1.00482 0.988852
1.00115 1.00418 0.988127
1.00455 1.00287 0.984348
1.0039 1.001 0.98637
1.00511 1.00203 0.985065
1.0053 0.994826 0.990627
1.00531 0.99648 0.988705
1.00535 0.995424 0.989498
1.00505 1.00055 0.985679
1.00511 0.999176 0.986582
1.00027 1.00394 0.990521
1.00057 1.00475 0.989297
0.999718 1.00407 0.990961
0.999725 1.00487 0.989856
0.999863 1.00444 0.99068
0.999744 1.00475 0.990394
1.00001 1.00307 0.991813
0.99957 1.00496 0.990471
0.999837 1.00401 0.991254
0.999968 1.00216 0.992792
0.999977 1.00215 0.992762
1.00004 0.99922 0.996194
0.999939 1.00254 0.992325
1.00014 0.999299 0.996008
1.00022 0.997178 0.997593
1.00023 0.999524 0.995685
1.00023 0.997423 0.997322
1.00005 0.99787 0.998737
0.99985 1.00026 0.994745
0.99986 1.00151 0.993535
0.99977 0.998657 0.9987
1.00035 1.00221 0.992182
1.00005 0.999574 0.998131
1.00041 1.0003 0.997516
1.00527 0.995036 0.990955
1.00526 0.994941 0.991397
1.00529 0.994911 0.991013
1.00523 0.994948 0.991324
1.00523 0.994965 0.991529
1.0053 0.995717 0.990719
1.00525 0.994966 0.99152
1.00523 0.994949 0.991453
1.00525 0.994963 0.991213
1.00527 0.994934 0.991266
1.00531 0.994848 0.990946
1.00532 0.994938 0.99084
1.00525 0.994948 0.991421
1.00527 0.994929 0.99136
1.00529 0.994931 0.99114
1.00535 0.994878 0.990666
1.00527 0.99497 0.991483
1.00533 0.994945 0.991174
1.00526 0.994947 0.991286
1.00527 0.99493 0.990966
1.0049 1.00395 0.982532
1.00528 1.00248 0.983236
1.00527 0.999558 0.985907
1.00529 0.994917 0.990825
1.00534 0.994891 0.990677
1.00532 0.994902 0.99052
1.00527 0.996557 0.988938
1.00527 0.995208 0.990496
1.00491 1.00433 0.982287
1.00424 1.00465 0.982778
1.0043 1.00105 0.987842
1.00086 1.00453 0.988533
1.00231 1.00407 0.986444
1.00524 0.994949 0.991367
1.00528 0.994933 0.991169
1.00533 0.994893 0.990725
1.00519 1.00379 0.982389
1.00515 1.0018 0.983716
1.00523 0.998833 0.986547
1.00532 0.99489 0.990651
1.00528 0.995981 0.989414
1.00531 0.994893 0.99049
1.00002 1.00383 0.990521
1.00463 1.00464 0.982447
1.00416 1.00508 0.98265
1.00449 1.00258 0.984928
1.00405 1.00297 0.985927
1.00153 1.00507 0.987192
1.00528 0.994931 0.991297
1.00531 0.994912 0.990962
1.00533 0.994879 0.990596
1.0053 0.994868 0.990528
1.00481 1.00397 0.982849
1.00525 0.995052 0.990367
1.00503 1.00111 0.984627
1.0052 0.998266 0.986969
0.999934 1.00228 0.992221
1.00058 1.00509 0.989177
1.00265 1.00484 0.986865
1.00359 1.00395 0.984644
1.00435 1.00439 0.984117
1.00482 1.00469 0.982293
1.00056 1.00438 0.989606
1.00053 1.00511 0.988116
1.00528 0.994942 0.990712
1.00362 1.0003 0.988209
1.00489 1.00297 0.98384
1.00411 1.00154 0.985567
1.00531 0.996146 0.989307
1.00528 0.995208 0.990088
1.00507 1.00163 0.98481
1.00518 0.998776 0.986847
1.00079 1.00491 0.988867
1.00155 1.00422 0.987971
1.00449 1.00298 0.984289
1.00435 1.00151 0.986414
1.00507 1.00234 0.984649
1.00532 0.994826 0.990626
1.00531 0.996348 0.98897
1.00535 0.995544 0.989589
1.00506 1.00044 0.985635
1.00507 0.999484 0.986325
0.999542 1.00474 0.989359
1.00089 1.00356 0.988098
1.00482 1.00151 0.985343
1.00505 1.00136 0.985227
1.00539 0.994805 0.990423
1.00536 0.994933 0.990295
1.00526 0.998026 0.987131
1.00511 0.999913 0.985691
1.00085 1.00479 0.989151
0.999844 1.00435 0.990719
0.998655 1.00402 0.993504
0.999605 1.00472 0.99067
0.998947 1.00504 0.99059
0.999856 1.00399 0.991222
0.999621 1.00333 0.992225
0.999638 1.00503 0.990449
0.999754 1.00056 0.994757
0.999581 1.00464 0.991011
0.999511 1.00478 0.990484
1.00004 1.00383 0.991097
0.999945 1.00234 0.992603
0.999938 1.00216 0.992776
0.99994 0.999226 0.996314
0.999956 1.00214 0.992764
1.00006 0.999184 0.99621
1.00013 0.9972 0.997691
1.00014 0.999236 0.996055
1.00021 0.997205 0.997579
1.00019 0.997512 0.997291
1 0.999392 0.995405
0.999862 1.00039 0.994671
0.999769 0.998016 0.998903
0.999885 1.00154 0.993488
0.999835 0.998784 0.998587
1.00023 0.999557 0.997922
1.00532 0.994844 0.990959
1.00524 0.994966 0.991231
1.00532 0.994935 0.990793
1.00527 0.994934 0.991239
1.00523 0.994951 0.991458
1.00525 0.994966 0.991533
1.00525 0.994947 0.991433
1.00527 0.994929 0.991349
1.00529 0.994933 0.991096
1.00534 0.994877 0.990678
1.00527 0.994926 0.991374
1.00527 0.994907 0.99128
1.00535 0.994905 0.990839
1.00524 0.994948 0.991355
1.00528 0.994933 0.99117
1.00533 0.994897 0.99074
1.00526 1.00369 0.982438
1.00517 1.00201 0.983621
1.00525 0.998687 0.986551
1.00533 0.994886 0.99066
1.00531 0.994875 0.990481
1.00528 0.995879 0.989626
1.00432 1.00484 0.982492
1.00474 1.00471 0.982476
1.00454 1.00335 0.984946
1.00012 1.00368 0.990799
1.00409 1.00273 0.98591
1.00121 1.00508 0.987211
1.00527 0.994931 0.991316
1.00531 0.994909 0.990927
1.00533 0.99488 0.9906
1.00497 1.00374 0.982836
1.00501 1.0011 0.984613
1.0052 0.99807 0.987299
1.0053 0.994874 0.990498
1.00521 0.995084 0.990318
0.999927 1.00236 0.992438
1.00047 1.00508 0.989154
1.00406 1.00382 0.98396
1.00455 1.00457 0.982935
1.00402 1.00359 0.984824
1.00232 1.00495 0.986708
1.00529 0.994908 0.991235
1.00536 0.994851 0.990634
1.00534 0.994869 0.990503
1.00524 0.994894 0.990303
1.00405 1.00274 0.984567
1.00519 0.995859 0.989442
1.00493 1.00054 0.985503
1.00013 1.00138 0.993347
1.00023 1.00268 0.992074
0.999482 1.00419 0.991279
1.00129 1.00502 0.988045
1.00196 1.00501 0.986231
1.0041 1.00479 0.983517
1.00261 1.00431 0.986223
1.00342 1.00417 0.985873
1.00047 1.0049 0.988883
1.00206 1.00425 0.987815
1.00533 0.994827 0.990624
1.00473 1.00051 0.98646
1.00441 1.00312 0.984232
1.00515 1.00261 0.98424
1.00532 0.996202 0.989237
1.00534 0.995648 0.98968
1.00507 1.00028 0.985589
1.005 0.999757 0.98607
1.00038 1.00458 0.989141
1.0019 1.00369 0.987789
1.00484 1.00153 0.9851
1.00511 1.00148 0.985283
1.00539 0.994803 0.990411
1.00539 0.994948 0.990242
1.0052 0.997909 0.987288
1.00512 1.00007 0.985749
0.999034 1.00482 0.990842
1.00544 0.994879 0.990451
1.00334 1.00298 0.987333
1.00502 1.00097 0.985276
1.00532 0.994682 0.990825
1.00509 0.99716 0.987268
1.00507 1.00079 0.985487
0.999834 1.00468 0.990479
0.998687 1.00349 0.993501
0.997531 1.00253 0.996338
0.999828 1.00385 0.99119
0.999602 1.00507 0.990426
0.998227 1.0044 0.99264
1.00006 1.00369 0.991081
0.999574 1.00484 0.990529
0.998499 1.0018 0.995171
0.99976 1.0045 0.990896
0.999155 0.999803 0.997377
0.998501 1.00327 0.993639
0.999488 1.00505 0.990597
1.00036 1.00467 0.989601
1.00025 1.00383 0.990643
0.999963 1.00244 0.992489
0.999894 1.00244 0.992581
0.999818 0.999363 0.996415
0.999884 1.00228 0.99276
0.999954 0.999256 0.996319
0.999999 0.997359 0.997784
1.00008 0.999148 0.996231
1.00013 0.997233 0.997687
1.00019 0.997245 0.99756
1.00009 1.00127 0.993537
1.00001 0.998996 0.995778
0.999971 0.999506 0.99536
0.999847 0.997703 0.999002
0.999875 1.00041 0.9946
0.999805 0.998204 0.998857
0.999951 0.998951 0.998449
1.00533 0.994876 0.990691
1.00529 0.994934 0.991052
1.00527 0.994929 0.991339
1.00525 0.994947 0.991444
1.00528 0.994924 0.991374
1.00528 0.994908 0.991282
1.00533 0.994898 0.990789
1.00528 0.994903 0.991324
1.00537 0.994867 0.99115
1.00558 0.994981 0.990997
1.00527 0.994931 0.991335
1.00532 0.994904 0.990892
1.00533 0.994884 0.990605
1.00483 1.00352 0.982828
1.00495 1.00122 0.984619
1.0052 0.997863 0.987619
1.00531 0.994879 0.990466
1.00522 0.995116 0.990271
1.0035 1.0047 0.983801
1.00402 1.00466 0.983531
1.00372 1.00293 0.984996
0.999954 1.00227 0.992656
1.00024 1.00508 0.989128
1.00219 1.00502 0.98655
1.00529 0.994904 0.991212
1.00014 1.0013 0.993335
1.00013 1.00265 0.991911
1.00536 0.994865 0.990644
1.00533 0.994878 0.990517
1.00436 1.00296 0.984542
1.00494 1.00013 0.985872
1.00517 0.995917 0.989371
1.00525 0.994881 0.990251
0.999667 1.00406 0.991412
1.00121 1.00505 0.987974
1.00266 1.00446 0.986055
1.00386 1.00366 0.984741
1.00397 1.00469 0.983617
1.00196 1.00476 0.986319
1.00539 0.994851 0.990977
1.00538 0.994876 0.990444
1.00531 0.994871 0.990409
1.00522 0.995102 0.990106
1.00308 1.00213 0.987067
1.00497 0.998478 0.988061
1.00014 1.00292 0.991537
0.999841 1.00266 0.99242
1.00196 1.00103 0.991521
1.00074 1.00403 0.989391
1.00169 1.0051 0.987284
1.00282 1.00382 0.986262
1.00201 1.00452 0.984878
1.00114 1.00087 0.992259
1.0008 1.00443 0.988926
1.003 1.00403 0.987473
1.00539 0.994802 0.9904
1.00542 0.994976 0.990191
1.00512 1.00196 0.985334
1.00486 1.0016 0.984852
1.00515 0.9978 0.987446
1.00513 1.00026 0.985811
0.999707 1.00432 0.990718
1.00544 0.994868 0.990678
1.00252 1.00323 0.987904
1.00497 1.00101 0.985263
1.00534 0.994703 0.99085
1.00514 0.997278 0.987487
1.00494 1.00065 0.985444
0.998939 1.00509 0.99238
1.00497 0.994794 0.990612
1.00226 1.00279 0.987996
1.00445 1.00226 0.984463
1.00513 0.995609 0.990244
1.00362 1.00099 0.9865
0.999058 0.99471 0.984652
0.998662 1.00337 0.993495
0.997583 1.00245 0.996359
0.997465 1.00177 0.997433
0.999996 1.00373 0.991063
0.999491 1.00495 0.990577
1.00031 1.00425 0.990783
0.997878 1.00204 0.995603
1.00017 1.00394 0.990644
1.00021 1.00464 0.989788
0.998861 0.999328 0.997609
0.999489 1.00498 0.99058
0.998994 1.00337 0.993176
0.997551 1.00222 0.997096
1.00019 1.00388 0.990835
0.999924 1.00491 0.990366
1.00078 1.00439 0.989446
1.00023 1.00413 0.990144
1.00044 1.00504 0.989687
1.00006 1.00431 0.990148
0.999912 1.00245 0.992509
0.999918 1.00249 0.992476
0.999698 0.999387 0.995898
0.999891 1.00241 0.99256
0.999799 0.999391 0.996097
0.99998 0.997432 0.999087
0.999963 0.999292 0.996326
1.00002 0.99733 0.997778
1.00015 0.997258 0.997677
0.999983 1.00102 0.993863
1.00012 1.00114 0.993575
1.00007 0.998664 0.996093
1.00002 0.99901 0.996081
0.999875 0.997438 0.999087
0.999929 0.999691 0.995313
0.999841 0.99774 0.998981
0.999841 0.998258 0.998801
1.00532 0.994894 0.990738
1.00528 0.99491 0.991284
1.00528 0.994922 0.991374
1.00528 0.994899 0.991327
1.00534 0.994871 0.991107
1.0056 0.995082 0.990835
1.00544 0.994858 0.99116
1.0011 0.994828 0.9807
1.00508 0.995208 0.991111
1.00019 1.00219 0.992398
1.00529 0.9949 0.991189
1.00536 0.994874 0.990654
1.00532 0.994883 0.990531
1.00451 1.00258 0.984495
1.00497 0.999726 0.986223
1.00512 0.995783 0.989287
1.00525 0.99488 0.9902
1.00313 1.0036 0.985946
1.00476 1.00358 0.983694
1.0043 1.00445 0.983711
1.00015 1.0013 0.993325
1.00243 1.00492 0.986402
0.999776 1.00405 0.991531
1.00111 1.00504 0.987906
1.00001 1.00266 0.991755
1.0054 0.994861 0.990966
1.00014 1.00281 0.991753
0.999866 1.00271 0.992477
1.0011 1.00146 0.991966
1.00538 0.994861 0.990432
1.00529 0.99486 0.990373
1.00259 1.0028 0.98718
1.00484 0.997757 0.988398
1.00521 0.995035 0.99008
1.00068 1.00398 0.989563
1.00183 1.00501 0.98729
1.002 1.00122 0.991016
1.00324 1.00486 0.984638
1.00322 1.00366 0.986413
1.00544 0.994736 0.990938
1.00532 0.994857 0.990542
1.00525 0.9949 0.989994
1.00509 0.996591 0.99042
1.00179 0.999704 0.991053
0.999622 1.00338 0.991701
1.00206 1.00115 0.99071
1.00049 1.00086 0.99224
1.00139 1.00423 0.989203
1.00113 1.00433 0.988879
1.001 1.00361 0.98834
1.00137 0.999231 0.993402
1.0009 1.00371 0.990556
1.00152 1.00351 0.98849
1.00543 0.994947 0.990898
1.00535 0.994726 0.990866
1.00518 0.99737 0.987706
1.00495 1.00104 0.985251
1.00479 1.0005 0.985411
0.99907 1.0048 0.992902
1.00463 0.994812 0.990827
1.00235 1.0029 0.987971
1.0046 1.00218 0.984447
1.00496 0.995499 0.990557
1.0039 1.00093 0.986578
0.998833 0.994961 0.982863
0.997824 1.00472 0.993744
1.00356 0.99472 0.99098
1.00278 1.00308 0.986029
1.00303 1.00093 0.987357
1.00353 0.997521 0.990692
0.999963 0.994892 0.940136
0.994953 0.994787 0.962046
0.996033 0.998248 0.987445
0.997734 0.994789 0.851124
0.994708 0.994885 0.811054
0.997904 1.00218 0.996381
0.99735 1.00205 0.997557
0.99681 1.00333 0.997276
1.00016 1.00397 0.990646
1.00015 1.00456 0.989973
0.9996 1.005 0.990564
0.999339 1.00362 0.992684
0.998644 0.999106 0.997831
0.999749 1.00496 0.990493
1.0003 1.00409 0.990215
1.00068 1.00448 0.989399
0.997999 1.00132 0.996743
0.999687 1.00423 0.991245
1.00037 1.00393 0.991529
0.998071 1.0041 0.993772
0.999603 1.00475 0.991011
1.00061 1.00465 0.98891
1.00016 1.00423 0.990232
1.0001 1.00489 0.989668
1.0004 1.00368 0.991073
0.999673 1.00502 0.990679
1.00017 1.00502 0.989742
1.00015 1.00435 0.990317
1.0001 1.0043 0.990158
0.9999 1.00254 0.992492
0.999924 1.00248 0.992517
0.999675 0.999406 0.995951
0.999868 1.0026 0.992462
0.999681 0.99943 0.995898
0.999935 0.997422 0.999121
0.99977 0.999437 0.995783
0.999938 0.997434 0.99847
1.00005 0.997308 0.997769
0.999876 1.00072 0.994293
0.99997 1.00107 0.99387
1.00008 0.998411 0.996352
1.00017 1.001 0.993612
1.00006 0.998622 0.996396
0.999923 0.997097 0.999161
1.00004 0.999075 0.995709
0.999886 0.997554 0.99905
0.999849 0.997862 0.998963
1.00533 0.994877 0.991065
1.00527 0.994896 0.99133
1.00561 0.994889 0.990673
1.00029 0.99484 0.980867
1.00545 0.994862 0.991116
1.00504 0.994915 0.991079
1.00549 0.994786 0.99115
0.995838 0.994891 0.962761
1.00237 0.994863 0.981517
1.00025 1.00175 0.99281
1.00016 1.00233 0.992362
0.99946 1.00401 0.991574
0.999902 1.00269 0.992232
1.00539 0.994868 0.990956
1.00537 0.994859 0.990418
1.00528 0.994853 0.990337
1.00361 1.00309 0.98729
1.00481 0.996456 0.988775
1.00521 0.994955 0.990072
1.00198 1.00082 0.989712
1.00455 1.00472 0.984393
1.00294 1.00282 0.986563
0.999871 1.00269 0.992534
1.00172 1.00465 0.98732
1.00065 1.00408 0.989736
1.00007 1.00285 0.991966
1.00035 1.00188 0.992404
1.00543 0.994759 0.990931
0.999954 1.00351 0.991365
1.0019 1.00072 0.991226
0.998129 1.00155 0.995397
1.00533 0.994867 0.99048
1.00525 0.994914 0.990001
1.00296 0.998878 0.991102
1.0048 0.996122 0.990393
1.00161 1.0045 0.988449
1.0011 1.00398 0.988123
1.00124 0.999859 0.993382
1.00257 1.00344 0.987783
1.00418 0.995761 0.990965
1.00522 0.995174 0.990596
1.00504 0.995908 0.989782
1.00361 0.995718 0.993464
0.997191 1.00495 0.9942
1.00225 1.00207 0.989092
0.998219 1.00415 0.99371
0.99903 1.00373 0.992705
1.00001 0.99492 0.925619
0.998848 1.0046 0.993451
1.00213 1.0032 0.98793
1.0042 0.994768 0.991076
1.00482 0.995411 0.990864
1.00417 1.00085 0.986629
1.00462 1.00219 0.984417
0.998753 0.995451 0.980888
0.998205 1.00443 0.993808
1.00328 0.995087 0.990852
1.00277 1.00375 0.985974
1.00366 1.00068 0.9875
1.00378 0.997794 0.990472
0.999847 0.994874 0.926129
0.995449 0.994824 0.958746
0.996092 0.997709 0.987821
0.997288 0.994766 0.855662
0.994728 0.994978 0.804066
0.998541 1.00452 0.992371
0.999415 0.994802 0.86114
0.994745 0.994834 0.801674
1.00087 0.998074 0.992679
1.00146 1.00173 0.989956
1.00148 0.999723 0.992785
0.994871 0.997025 0.991072
0.997429 0.994777 0.939669
0.994877 0.994778 0.954903
0.995454 0.994777 0.876756
0.994739 0.994839 0.789806
0.997036 1.00222 0.997686
0.996786 1.00309 0.997169
0.996613 1.00506 0.996307
1.00041 1.00399 0.990282
1.00064 1.00453 0.989355
0.99921 1.00504 0.990621
0.999346 1.00449 0.991653
0.998476 1.00048 0.996406
1.00028 1.00408 0.990217
1.00004 1.00418 0.991234
0.999516 1.00488 0.990699
1.00081 1.00468 0.989053
0.998058 1.00374 0.994015
0.998989 1.00375 0.993511
0.996758 1.00507 0.994761
0.99976 1.00502 0.989958
1.0005 1.00471 0.989485
1.00032 1.00491 0.989636
1.00013 1.00321 0.991508
0.999784 1.00486 0.990722
1.00035 1.00239 0.992185
0.999028 1.00174 0.99384
0.99837 1.00469 0.992342
0.999155 1.00496 0.991021
0.999691 1.00487 0.990711
1.00007 1.00456 0.990136
0.999977 1.00498 0.989799
1.00023 1.00429 0.990228
0.999966 1.00265 0.99228
1.00017 1.00428 0.990168
0.999918 1.00248 0.992508
0.999889 0.999353 0.996388
0.999862 1.00253 0.992524
0.999738 0.999358 0.99621
0.999896 0.997376 0.997966
0.99967 0.999425 0.995897
0.999926 0.997439 0.99913
0.999923 0.997476 0.99785
1.00032 1.00184 0.992595
0.999903 1.00052 0.994487
0.999879 1.00078 0.994283
1.00003 0.998303 0.996506
0.999944 1.00114 0.993877
1.00008 0.99839 0.996346
0.999967 0.99694 0.999206
1.00006 0.99864 0.996643
0.999921 0.99727 0.998542
0.999898 0.997567 0.997784
0.999754 0.99482 0.980999
1.00549 0.994851 0.991068
1.00498 0.994899 0.991044
0.996194 0.994825 0.963208
1.00244 0.994875 0.981916
1.00548 0.995187 0.991142
1.00356 0.99549 0.986065
0.997859 0.994809 0.965047
0.999808 0.994842 0.939472
0.996952 0.994798 0.877639
0.994674 0.994836 0.809391
0.999608 1.00279 0.992399
1.00024 1.00174 0.992793
1.00025 1.00226 0.99232
0.999762 1.00339 0.991888
0.998582 1.00478 0.992826
1.00049 1.00264 0.991528
1.0002 1.00356 0.991252
1.00021 1.00243 0.992132
1.00546 0.994796 0.990916
1.00535 0.994872 0.990426
1.00524 0.995097 0.990006
1.00294 0.999597 0.991158
1.00454 0.996322 0.990346
1.00116 0.999744 0.993357
1.00391 1.00349 0.98724
1.00241 1.00424 0.987368
1.00161 1.00043 0.991732
1.00182 1.0046 0.987643
1.00038 1.00351 0.991046
0.99635 1.00246 0.998395
1.00425 0.99514 0.991269
0.997607 1.00464 0.994046
1.00157 1.00216 0.990746
1.00498 0.994966 0.990566
1.0046 0.996346 0.990083
1.00308 0.995793 0.993316
0.99965 1.00436 0.991756
1.00003 1.00242 0.992908
1.00325 0.995481 0.990115
1.00341 0.998628 0.990647
1.00411 0.996483 0.99167
1.00094 0.997315 0.995238
0.998818 1.005 0.991882
0.998174 1.00505 0.992736
0.998683 1.00478 0.992991
0.999805 0.994944 0.862635
1.00013 0.994877 0.940853
0.999126 1.00395 0.993882
1.00294 1.00428 0.985937
1.00299 0.995224 0.990708
1.00408 0.998075 0.990267
1.0041 1.00061 0.987679
0.999993 0.994853 0.938178
0.995818 0.994795 0.958299
0.996158 0.997795 0.988285
0.996942 0.994811 0.875116
0.994755 0.994853 0.796644
0.99888 1.00451 0.992334
0.999824 0.994853 0.85919
0.994712 0.994818 0.79505
1.00091 0.998198 0.992553
1.00143 1.00208 0.989986
1.00136 0.999878 0.993207
0.99487 0.998317 0.991895
0.997501 0.994776 0.932885
0.994902 0.994799 0.955313
0.994948 0.994792 0.876415
0.994758 0.994842 0.787851
0.997656 1.00485 0.994901
0.994737 0.994784 0.789767
0.994742 0.994772 0.793854
0.996842 1.00149 0.997204
0.999643 1.00182 0.995824
0.994894 0.9992 0.988418
0.994924 0.994814 0.958166
0.994907 0.994749 0.928475
0.994761 0.994879 0.879957
0.994845 0.994867 0.798408
0.996968 1.0026 0.997067
0.997311 1.00466 0.995882
0.996331 1.00394 0.996801
1.00036 1.00397 0.990201
1.00087 1.00465 0.989197
0.999663 1.00503 0.990385
0.999564 1.00444 0.990942
0.997788 1.00341 0.994259
1.00051 1.00475 0.98946
0.99907 1.00349 0.99299
1.00008 1.00498 0.989975
0.996344 1.00496 0.995035
0.996052 1.0051 0.997105
0.998236 1.00476 0.993233
1.00038 1.00498 0.990045
1.00055 1.00461 0.989606
0.999927 1.00275 0.991932
0.999708 1.00471 0.990681
1.0005 1.00208 0.99208
0.998643 1.0023 0.994224
0.998639 1.00395 0.992538
0.997842 1.00509 0.993008
0.998611 1.00121 0.995849
1.00014 1.00227 0.992711
1.00338 0.999451 0.99061
0.998694 1.00476 0.991583
0.998681 1.00466 0.992365
0.99932 1.00505 0.990073
0.999309 1.00501 0.991062
1.00019 1.00461 0.989867
0.999486 1.00501 0.990742
1.0001 1.00454 0.990213
1.00003 1.00288 0.991839
1.0003 1.0043 0.990139
0.99998 1.00262 0.992288
1.00002 0.999382 0.996124
0.999936 1.00244 0.992524
0.999872 0.99934 0.996024
1.00002 0.997274 0.99781
0.999733 0.999348 0.995921
0.999953 0.99735 0.999143
0.999922 0.997425 0.99914
1.00039 1.00231 0.992342
0.99995 1.0007 0.994286
1.00022 1.00196 0.992609
1.00003 0.998228 0.996574
0.999888 1.00054 0.994479
0.999858 1.00085 0.994273
1.00004 0.998304 0.996493
0.999991 0.996847 0.99923
1.00006 0.998426 0.996865
0.999973 0.996956 0.998644
0.999937 0.997248 0.997999
0.999543 0.99485 0.846366
0.994728 0.994811 0.788791
0.996226 0.994844 0.963714
1.00201 0.994872 0.982446
1.00541 0.994788 0.991151
0.997746 0.994869 0.963856
1.00343 0.99473 0.986627
0.999946 0.994861 0.935104
0.99701 0.994752 0.856519
0.994719 0.994876 0.802752
0.997668 0.994766 0.971801
0.997099 0.994807 0.940693
0.995854 0.994795 0.876431
0.994786 0.994863 0.798852
0.999867 1.00371 0.991836
0.999839 1.00252 0.992494
1.00015 1.0019 0.992783
0.999922 1.00296 0.992206
0.998238 1.00437 0.993554
1.00036 1.00407 0.990235
0.999997 1.00341 0.991582
1.00072 1.0038 0.989827
1.00018 1.00354 0.991121
0.999867 1.003 0.992025
1.00406 0.994774 0.991557
1.00486 0.994883 0.990529
1.00391 0.996605 0.990387
1.0024 0.995879 0.993165
1.00046 1.00237 0.993088
0.999656 1.00463 0.989855
1.00052 1.00199 0.992566
0.997896 1.00431 0.993847
1.00228 0.995275 0.990662
0.998884 1.00509 0.991619
0.997918 1.00503 0.992903
1.00314 0.998485 0.990578
1.00376 0.996244 0.991856
1.0007 0.99757 0.995573
0.998714 1.0047 0.992715
0.999755 0.995593 0.989045
1.00077 0.999252 0.994813
0.997049 1.00249 0.99665
0.998569 1.00471 0.991039
0.997681 1.00513 0.992425
0.998161 1.00485 0.993361
0.994716 0.994815 0.812313
0.999802 0.994876 0.868598
1.00008 0.994879 0.925946
0.998956 1.00474 0.992274
1.0017 1.00228 0.989975
1.00091 0.997736 0.99242
1.00109 0.99979 0.993632
0.999829 0.994908 0.873641
0.997225 0.994806 0.92656
0.994873 0.994816 0.954928
0.994879 0.999044 0.992573
0.995441 0.994799 0.860548
0.994685 0.994803 0.80146
0.994809 0.995011 0.803662
0.997667 1.00423 0.994588
0.994722 0.994795 0.79962
0.994764 0.994777 0.793189
0.996976 0.999876 0.997852
0.999081 1.00168 0.995722
0.994899 0.997829 0.990332
0.995143 0.994794 0.956749
0.995427 0.994788 0.940106
0.994706 0.996172 0.860683
0.99513 0.994868 0.808427
0.996653 1.00379 0.998219
0.994764 0.994813 0.801884
0.994811 0.994814 0.791984
0.994833 1.00249 0.999908
0.994996 0.996734 0.966255
0.994784 0.994837 0.937632
0.994897 0.99491 0.854846
0.995777 0.994901 0.821989
0.99793 1.00359 0.995424
0.99673 1.00415 0.996944
0.995559 1.00397 0.998436
1.00035 1.0048 0.989431
1.00024 1.00503 0.989995
0.999161 1.00317 0.992468
0.996169 1.00477 0.995314
0.999849 1.005 0.990063
0.998023 1.0049 0.993218
0.995553 1.00486 0.99737
0.994915 1.00432 0.998615
0.995651 1.00508 0.997394
0.998748 1.00513 0.992717
0.999786 1.00484 0.990635
1.0006 1.00158 0.991979
0.998164 1.00286 0.994598
0.997932 1.00503 0.993088
0.999164 1.00369 0.992481
0.998028 1.00201 0.995885
0.998165 1.0036 0.994174
0.995651 1.0051 0.997467
1.00132 0.99882 0.994844
0.999677 1.00166 0.993666
1.00195 1.00033 0.991141
1.00474 1.00005 0.987688
1.00251 1.00136 0.990288
1.00243 0.999004 0.991935
0.999304 1.00454 0.99138
0.999534 1.00511 0.989534
0.999057 1.00458 0.992389
0.999877 1.00506 0.990076
1.00046 1.00466 0.989268
0.999796 1.00478 0.991098
1.00036 1.00456 0.989851
1.00009 1.0034 0.991311
1.00023 1.00441 0.990291
1.00012 1.0029 0.991837
1.00017 0.999494 0.995812
1.00008 1.00246 0.992296
1.00002 0.999402 0.995721
1.0001 0.997369 0.997606
0.999877 0.999309 0.995726
1.00001 0.997281 0.998478
0.999968 0.997306 0.999126
1.00034 1.00309 0.991211
1.0001 1.00088 0.993917
1.00028 1.00234 0.992138
1.00004 0.998275 0.996511
0.999969 1.00063 0.994299
1.00024 1.00185 0.992623
1.00002 0.996788 0.999243
1.00003 0.998234 0.996574
0.999889 1.00059 0.994473
1.00005 0.998298 0.996481
0.999993 0.99688 0.999224
0.999964 0.996953 0.999199
0.994708 0.994763 0.790114
0.999618 0.994843 0.859516
0.994765 0.994774 0.791608
0.99474 0.994801 0.789107
0.997848 0.994879 0.962538
1.00322 0.994771 0.987183
0.999722 0.994816 0.929958
0.998217 0.994798 0.877392
0.994763 0.994844 0.796022
0.99827 0.994806 0.970728
0.997354 0.994786 0.926219
0.995058 0.994795 0.875366
0.99473 0.994855 0.791244
0.994901 0.994795 0.962916
0.995784 0.994727 0.926811
0.994822 0.996855 0.853102
0.994832 0.994879 0.800217
1.00067 1.00476 0.990229
0.999343 1.00374 0.991979
1.00005 1.00226 0.992584
0.997637 1.00392 0.994293
1.00103 1.00372 0.989375
1.00023 1.00401 0.990457
0.999462 1.00377 0.991639
1.00124 1.00311 0.99004
1.00078 1.00405 0.989848
1.00032 1.00322 0.990991
1.00198 0.9948 0.991171
1.0028 0.998157 0.990526
1.0037 0.995902 0.992044
1.00025 0.997315 0.995908
1.00012 1.00464 0.992414
0.998191 1.00498 0.993077
0.998948 1.00511 0.991357
0.999647 1.00462 0.990825
0.999485 0.996512 0.989688
0.998618 1.00511 0.99214
0.998859 1.00478 0.993227
1.00044 0.999181 0.995121
0.998455 1.00121 0.996493
0.996084 1.00089 0.988678
0.996642 1.00018 1.00039
0.995095 1.00509 0.997089
0.998139 1.00477 0.993072
0.996874 1.00511 0.994746
0.99479 0.994802 0.808486
0.994713 0.994788 0.807737
0.999823 0.994923 0.849696
0.997824 1.0043 0.994338
0.998839 1.00113 0.995621
0.997205 0.999418 0.998498
0.994694 0.994781 0.797349
0.995526 0.994738 0.928134
0.995251 0.994794 0.956222
0.994878 0.996067 0.992647
0.994768 0.995438 0.880491
0.994774 0.994781 0.793441
0.995598 0.994866 0.810158
0.996749 1.00367 0.998341
0.994776 0.994818 0.804381
0.994798 0.994815 0.793137
0.995007 1.00212 0.998903
0.9951 0.995873 0.968042
0.994806 0.995312 0.925438
0.99549 0.994889 0.817145
0.995277 0.998201 0.863594
0.994848 1.005 1.00024
0.994788 0.994832 0.792156
0.994864 0.994835 0.804868
0.99483 0.994869 0.800158
0.994784 0.999111 0.988951
0.9949 0.996477 0.94088
0.997723 0.995 0.875008
0.997098 1.00485 0.99711
0.99572 1.00472 0.998156
0.995072 1.00525 0.998981
0.999742 1.00497 0.990084
0.997904 1.00509 0.993199
0.995206 1.00505 0.99763
0.998195 1.00511 0.992723
0.995796 1.00503 0.997378
0.994925 1.005 0.998516
0.994897 1.00499 0.998827
0.995435 1.00508 0.997525
0.997724 1.00501 0.993192
0.999613 1.00363 0.992421
0.997615 1.00277 0.995922
0.995676 1.00484 0.997374
0.997933 1.00385 0.994209
0.99831 1.00132 0.996865
0.998446 0.998763 0.998668
1.00201 1.00008 0.990307
0.999254 1.00112 0.994558
1.00234 1.00021 0.990801
1.00443 1.00151 0.986198
1.00474 1.00267 0.984489
1.00429 0.99922 0.989131
1.00382 1.00015 0.98782
1.00149 1.00399 0.988703
1.00164 1.00174 0.990609
1.00142 0.998601 0.993228
0.999922 1.00436 0.991177
0.999958 1.0051 0.989479
1.00047 1.00508 0.988557
1.00042 1.00506 0.990084
1.00062 1.0047 0.989255
1.00024 1.00374 0.990675
1.00052 1.00439 0.989832
1.00017 1.00324 0.991307
1.0002 0.999777 0.995494
1.00008 1.00299 0.991834
1.00013 0.999564 0.995374
1.00022 0.997454 0.997386
1.00003 0.999411 0.995392
1.0001 0.997333 0.998337
1.00005 0.997276 0.999057
1.00071 1.00316 0.990366
1.00014 1.00134 0.993024
1.00047 1.00296 0.991215
1.00012 0.998369 0.996306
1.00009 1.00088 0.993737
1.00022 1.00239 0.991935
1.00004 0.996798 0.999225
1.00005 0.998242 0.996525
0.999993 1.00053 0.994311
1.00002 0.996819 0.99924
1.00002 0.998255 0.996574
0.999994 0.996867 0.999219
0.994816 0.99481 0.79859
0.994715 0.994806 0.804434
0.999522 0.99482 0.85819
1.00107 1.00293 0.990279
0.994798 0.994801 0.797928
0.994766 0.994776 0.791552
0.994773 0.994804 0.803498
0.998643 0.994817 0.970151
0.997021 0.994789 0.94036
0.995768 0.994836 0.858109
0.994699 0.994843 0.801819
0.995865 0.994807 0.960619
0.99558 0.994782 0.938871
0.994732 0.995252 0.856619
0.99485 0.994877 0.803093
0.99484 0.994793 0.955007
0.99477 0.994802 0.935501
0.996058 0.998654 0.86716
0.995397 0.994899 0.822191
0.999277 1.00456 0.991276
0.999945 1.00467 0.990322
0.999565 1.00352 0.992126
1.00116 1.00228 0.990662
1.00093 1.00404 0.989513
1.00014 1.00435 0.990679
1.00131 1.00321 0.989956
1.00081 1.00411 0.989868
0.998472 0.99736 0.990182
0.999727 0.999155 0.995347
0.999836 1.0046 0.990603
0.99984 0.999872 0.996345
0.999155 1.0046 0.993102
0.999258 1.00511 0.991852
0.998275 1.00445 0.992955
0.995678 1.00009 0.989053
0.997568 1.00503 0.994672
0.996344 1.00366 0.997363
0.995925 1.0006 1.00045
0.997496 1.00426 0.994855
0.994793 1.00084 0.986691
0.995225 1.00285 0.998836
0.995704 1.005 0.997543
0.996917 1.00533 0.995792
0.994767 0.994812 0.796923
0.994789 0.994806 0.805392
0.994707 0.994766 0.80299
0.996848 1.00385 0.998441
0.995181 1.00108 0.997868
0.994792 0.994824 0.806677
0.994746 0.994827 0.939086
0.995313 0.995895 0.965105
0.995389 0.996898 0.861887
0.994793 0.994817 0.79404
0.994892 0.994875 0.812266
0.995104 1.00502 1.00005
0.99479 0.994829 0.792405
0.994868 0.99485 0.804585
0.994827 0.999717 0.992686
0.994852 0.99487 0.80309
0.994853 0.996651 0.933085
0.996394 0.997434 0.87673
0.99503 1.00365 0.997635
0.994841 0.99484 0.801999
0.994802 0.994809 0.799631
0.994789 0.994864 0.798547
0.99613 0.998644 0.866762
0.994878 1.00112 0.972288
0.995238 0.997328 0.925992
0.996142 1.00508 0.997891
0.995246 1.00521 0.998993
0.99482 1.0053 0.99826
0.997546 1.00513 0.992727
0.995189 1.00494 0.997368
0.994913 1.00509 0.99845
0.995299 1.00489 0.997496
0.994899 1.0049 0.998826
0.997496 1.00209 0.99865
0.995536 1.00467 0.997274
0.997408 1.00418 0.99428
0.997795 1.00161 0.997289
0.998084 1.00074 0.994774
0.995888 0.99875 1.0022
1.00163 0.9998 0.991606
1.00439 1.00443 0.982537
1.00434 1.003 0.984368
1.00276 1.00004 0.990388
1.00425 1.00186 0.985692
1.00508 1.00241 0.983986
1.00509 1.00096 0.985854
1.00434 1.00247 0.984772
1.00319 1.0012 0.98855
1.0037 0.999813 0.988944
1.00308 1.00021 0.987981
1.00064 1.00513 0.988183
1.00098 1.00418 0.988884
1.00073 1.0021 0.990921
1.0004 1.0051 0.989424
1.0008 1.00508 0.988591
1.00037 1.00447 0.989678
1.00077 1.00491 0.989239
1.00034 1.00369 0.990667
1.00018 1.00008 0.994407
1.00038 1.00313 0.991305
1.00022 0.999824 0.994669
1.00014 0.997501 0.998826
1.0001 0.999708 0.995009
1.00017 0.997418 0.998178
1.00013 0.997303 0.998964
1.00061 1.00335 0.990355
1.00033 1.00188 0.992223
1.00065 1.00324 0.990558
1.0002 0.998586 0.995974
1.00024 1.00132 0.992925
1.00051 1.00294 0.991213
1.00008 0.996821 0.999177
1.00013 0.998329 0.996324
1.0001 1.00087 0.993558
1.00004 0.996786 0.999232
1.00006 0.998208 0.996539
1.00001 0.99685 0.999237
0.994792 0.994825 0.801026
0.994811 0.994809 0.798978
0.994706 0.994816 0.803907
1.00116 1.00289 0.990337
1.00033 1.00428 0.989852
1.00163 1.00137 0.991437
0.994869 0.994851 0.803849
0.994805 0.994801 0.798944
0.994767 0.994767 0.791638
0.99685 0.994801 0.960725
0.994863 0.994741 0.926804
0.994758 0.996439 0.878837
0.994836 0.994862 0.797328
0.994975 0.994785 0.956277
0.994787 0.996133 0.93137
0.995994 0.997389 0.86425
0.995243 0.994898 0.817166
0.994861 0.99523 0.954354
0.994857 0.996384 0.935296
0.997045 0.994914 0.875335
0.994842 0.994873 0.799928
0.999192 1.00244 0.993309
0.999947 1.00398 0.991056
0.999887 1.00443 0.990413
1.0012 1.00237 0.99059
1.00059 1.00448 0.989648
1.00135 1.00331 0.989873
0.99555 1.0001 0.989717
0.995728 1.00108 1.00063
0.998906 1.0036 0.992842
0.998054 1.00253 0.997538
0.998164 1.00463 0.994598
0.996959 1.0038 0.995501
0.99629 1.00504 0.99592
0.994769 1.00245 0.986618
0.995403 1.00514 0.997856
0.995007 1.00338 0.998167
0.996073 1.00477 0.997104
0.9955 0.999693 0.985043
0.995223 1.00518 0.994815
0.994804 1.00356 0.999217
0.994863 0.994843 0.796082
0.994773 0.99482 0.795949
0.994789 0.994804 0.802347
0.995178 1.00496 0.999823
0.994849 0.999886 0.988327
0.994784 0.994825 0.792665
0.994832 0.997132 0.932624
0.99631 0.995003 0.861763
0.994878 0.994848 0.804273
0.994835 0.994858 0.797494
0.994929 1.00346 0.998147
0.994826 0.994839 0.801616
0.994816 0.994803 0.800742
0.994909 1.00067 0.969614
0.994718 0.994858 0.791337
0.995804 0.997999 0.863524
0.994843 0.995947 0.939927
0.994958 1.00521 0.989083
0.994787 0.994831 0.801965
0.994772 0.99479 0.793065
0.99467 0.994849 0.810806
0.994822 0.996613 0.852025
0.994886 0.997006 0.935937
0.994841 1.00133 0.963796
0.995207 1.00519 0.998953
0.994916 1.00526 0.998186
0.995664 1.0047 0.997456
0.995641 1.00458 0.99747
0.994919 1.00494 0.99883
0.996066 1.0038 0.998545
0.998835 1.00017 0.998159
0.997322 1.00193 0.997688
1.00077 1.00038 0.993702
1.00214 1.00484 0.986335
1.00096 0.999606 0.993284
1.00422 1.00426 0.983474
1.00429 1.00397 0.982801
1.00499 1.00096 0.984958
1.00509 1.00165 0.984595
1.00428 1.00305 0.984252
1.00424 1.00219 0.985198
1.00518 1.0019 0.984301
1.0051 1.00223 0.984124
1.0047 1.00066 0.986688
1.00461 1.00103 0.986074
1.00378 1.00231 0.985062
1.00142 1.00415 0.988083
1.00286 1.00181 0.988456
1.00296 1.00048 0.988742
1.00062 1.005 0.988681
1.00104 1.00511 0.98819
1.00054 1.00433 0.989067
1.00111 1.00507 0.988628
1.00062 1.00427 0.989691
1.00014 1.00073 0.993816
1.00054 1.00348 0.990658
1.00023 1.0001 0.994386
1.00019 0.997694 0.998767
1.00024 0.999809 0.994678
1.00022 0.997542 0.998027
1.00018 0.997468 0.998868
1.00109 1.0034 0.989915
1.0005 1.00221 0.991875
1.00082 1.0031 0.990385
1.00028 0.998898 0.995526
1.00034 1.00188 0.99231
1.0006 1.00326 0.990755
1.00012 0.996914 0.999102
1.00021 0.998522 0.995997
1.00031 1.00129 0.992828
1.00008 0.99682 0.999192
1.00014 0.998292 0.996342
1.00004 0.996808 0.99924
0.994831 0.99484 0.800506
0.994793 0.994841 0.801311
0.994812 0.994816 0.799348
0.999683 1.00521 0.989679
1.00126 1.00347 0.991022
1.001 1.00288 0.990403
1.0004 1.00414 0.989753
1.00072 1.00164 0.991795
1.00038 1.00272 0.991237
0.999454 1.00127 0.994041
0.994826 0.994822 0.79338
0.99487 0.994853 0.803606
0.994806 0.994829 0.799965
0.99489 0.994897 0.812143
0.995555 0.994793 0.955043
0.994793 0.996812 0.925844
0.995928 0.994904 0.878014
0.994886 0.99532 0.953812
0.994867 0.998395 0.921847
0.996268 0.997404 0.876394
0.995004 0.99487 0.809793
0.99535 0.996084 0.957962
0.994868 0.998242 0.924271
0.994902 0.994912 0.855433
0.99475 0.994839 0.791135
0.996693 1.00441 0.995795
0.998893 1.00297 0.993851
0.999936 1.00427 0.990835
1.00111 1.00278 0.990526
0.99479 1.00186 0.986457
0.994776 1.00383 0.997437
0.996551 1.00455 0.996149
0.996555 1.00503 0.99606
0.995207 1.00513 0.998292
0.99558 1.00498 0.997126
0.995533 1.0038 0.999284
0.995444 1.00043 0.981884
0.995263 1.0052 0.994907
0.995678 1.0037 0.998612
0.995303 1.0024 0.978363
0.994702 1.00321 0.999337
0.994767 0.994825 0.798272
0.994849 0.994842 0.800045
0.994783 0.994836 0.794953
0.994835 1.00359 0.998645
0.994878 1.00078 0.973089
0.994815 0.99484 0.801268
0.994862 0.997841 0.927204
0.996102 0.994902 0.877515
0.994814 0.994833 0.801704
0.994686 0.99485 0.801667
0.994903 1.005 0.990057
0.9948 0.994837 0.802286
0.994762 0.994791 0.793068
0.994833 1.00013 0.963918
0.994723 0.99486 0.804215
0.99472 0.996055 0.855055
0.994878 0.997344 0.923236
0.99485 1.00433 0.984228
0.994831 0.994813 0.798829
0.994715 0.994819 0.790353
0.99523 0.994795 0.878282
0.99476 0.995193 0.935585
0.994814 0.999975 0.958072
0.994933 1.00526 0.998552
0.995333 1.00463 0.997528
0.996755 1.00243 0.997324
0.995054 1.005 0.998441
0.996916 1.00255 0.9985
1.00141 1.00103 0.992752
1.00336 0.999798 0.992642
1.00295 1.0049 0.985469
1.00433 1.00249 0.984276
1.00385 1.00408 0.984412
1.00445 1.004 0.982743
1.00463 1.00256 0.984121
1.00525 0.998624 0.98669
1.00512 1.00035 0.985736
1.00501 1.00111 0.984931
1.00514 1.00152 0.984651
1.00502 1.00151 0.98459
1.00419 1.00314 0.984134
1.00518 1.00191 0.984367
1.00518 1.00204 0.984253
1.0051 1.00205 0.984266
1.00356 1.0019 0.987492
1.00401 1.00104 0.987113
1.0043 1.00099 0.986298
1.00098 1.00511 0.987768
1.00176 1.004 0.988114
1.00238 1.00251 0.988363
1.00026 1.00138 0.992985
1.00082 1.00488 0.988717
1.00138 1.0051 0.988196
1.00076 1.00415 0.989702
1.00017 1.00076 0.993787
1.00015 0.997952 0.998666
1.00025 1.00013 0.994366
1.0002 0.997659 0.998747
1.00021 0.997485 0.998797
1.00033 1.00509 0.989954
1.00097 1.00504 0.989007
1.00077 1.00269 0.990982
1.00079 1.00384 0.989887
1.00027 0.999316 0.995099
1.0005 1.00224 0.991869
1.00091 1.00307 0.990417
1.00013 0.997139 0.998992
1.00026 0.998891 0.995548
1.00037 1.00191 0.992392
1.00011 0.99691 0.999125
1.00022 0.998489 0.996024
1.00008 0.996799 0.999208
0.994799 0.994844 0.793397
0.994824 0.994833 0.800151
0.994799 0.994831 0.801591
1.00007 1.00517 0.989636
1.00024 1.00283 0.991306
1.00153 1.0023 0.988295
0.998783 1.00408 0.991205
1.0017 1.00168 0.991623
1.00072 1.00419 0.989651
1.00024 1.00212 0.992155
1.00027 1.00358 0.991257
0.999934 1.00101 0.994293
0.99895 1.00369 0.99423
0.994755 0.994771 0.794702
0.994808 0.994827 0.794641
0.994872 0.99484 0.80332
0.995201 0.994865 0.811433
0.995868 0.994911 0.861914
0.994845 0.994883 0.952888
0.994809 0.996781 0.93445
0.995428 0.996152 0.953931
0.994871 0.996666 0.936663
0.995062 0.998314 0.864576
0.994765 0.994843 0.789196
0.994916 0.998128 0.95678
0.99484 0.998017 0.93634
0.994763 0.994894 0.880321
0.994708 0.99488 0.812736
0.998939 1.00046 0.99644
0.99635 1.00434 0.996331
0.998925 1.00273 0.994413
0.995245 1.00258 0.978394
0.995097 1.00518 0.994727
0.995283 1.00494 0.997123
0.994739 1.00435 0.999364
0.995688 1.00364 0.998501
0.994731 1.00241 0.999784
0.994863 1.00193 0.978324
0.996119 1.00128 1.00073
0.994895 1.00068 0.98486
0.994803 0.994818 0.808083
0.994789 0.994835 0.79727
0.994834 0.994835 0.804114
0.99495 1.00493 0.99036
0.994858 0.999944 0.961625
0.994818 0.994841 0.802611
0.994858 0.997373 0.935408
0.99475 0.996145 0.876159
0.994761 0.994769 0.79334
0.994768 0.994847 0.797454
0.995229 1.00481 0.984851
0.994816 0.994816 0.799047
0.994732 0.994812 0.790681
0.994965 0.998527 0.959158
0.994929 0.99479 0.87624
0.994803 0.996425 0.929205
0.995371 1.00253 0.981636
0.994707 0.994775 0.790957
0.997146 0.994801 0.878477
0.995459 0.994726 0.92718
0.994847 0.995311 0.959598
0.995514 1.00515 0.997633
0.995748 1.00386 0.997208
0.998273 1.0014 0.996863
0.99488 1.00513 0.998889
0.999959 1.00176 0.993936
1.00416 0.997805 0.990462
1.00385 1.00502 0.984585
1.00417 1.00263 0.984181
1.00463 0.999419 0.986828
1.00471 1.00409 0.982682
1.00472 1.00212 0.984199
1.00506 0.998581 0.987172
1.00534 0.995971 0.989051
1.00528 0.998184 0.986904
1.00525 0.998554 0.986745
1.00516 1.00034 0.985843
1.00512 1.00039 0.985667
1.00497 1.0012 0.984903
1.00518 1.00211 0.984165
1.00515 1.00142 0.984603
1.00497 1.00141 0.984584
1.00495 1.00154 0.985546
1.00481 1.00227 0.984648
1.0052 1.00225 0.984204
1.00198 1.004 0.987184
1.00323 1.00201 0.987422
1.00363 1.00131 0.987534
1.00036 1.00246 0.992886
1.00124 1.0051 0.987816
1.00205 1.00381 0.988146
1.00018 0.998596 0.996169
1.00029 1.00157 0.993384
1.00102 1.00477 0.988753
1.00022 1.00081 0.993755
1.00017 0.998057 0.998599
1.00021 0.997662 0.998723
1.00131 1.00379 0.9888
1.00148 1.00513 0.988246
0.999486 1.00511 0.989848
1.00073 1.00391 0.989887
1.00075 1.00479 0.988969
1.00021 0.999789 0.99471
1.00062 1.00293 0.990997
1.00059 1.00419 0.989852
1.00012 0.997436 0.998904
1.00028 0.999266 0.995121
1.00049 1.00224 0.991865
1.00012 0.997116 0.999026
1.00025 0.998849 0.995568
1.00011 0.996884 0.999148
0.994779 0.994821 0.808395
0.994802 0.994842 0.793697
0.994811 0.994851 0.799771
1.00333 1.00185 0.986711
0.99992 1.005 0.989592
0.999684 1.00304 0.991642
0.999988 1.00494 0.990763
1.00275 1.00211 0.988389
1.00064 1.00208 0.993024
1.00362 1.00223 0.986981
0.996792 1.00479 0.993868
0.999701 1.00387 0.991274
0.999889 0.999875 0.994549
0.997831 1.00341 0.994182
0.998207 1.00328 0.994555
0.994746 0.994837 0.802461
0.994773 0.994776 0.794087
0.994801 0.994831 0.795646
0.994808 0.995296 0.804692
0.995122 0.997003 0.863022
0.994856 0.998366 0.92434
0.99567 0.995115 0.953229
0.995114 0.997714 0.957217
0.994733 0.995177 0.805506
0.994864 0.996717 0.927684
0.994717 0.996761 0.861166
0.994883 0.996528 0.961944
0.994779 0.995826 0.938359
0.995048 0.994813 0.87834
1.00017 0.994961 1.00076
0.998672 1.00103 0.996302
0.995829 1.00434 0.996834
0.994914 1.0017 0.978273
0.99545 1.00123 1.00016
0.996137 1.00349 0.998432
0.996756 1.00033 1.00109
0.994946 0.999667 0.984989
0.995805 0.998876 0.992329
0.994712 0.994811 0.807093
0.994798 0.994815 0.808785
0.994805 0.994837 0.796122
0.994923 1.00443 0.98504
0.99488 0.999886 0.958437
0.994799 0.994825 0.799507
0.994832 0.996586 0.923644
0.995442 0.994797 0.859618
0.994767 0.994817 0.804656
0.995022 1.00496 0.981399
0.994715 0.994817 0.804976
0.996881 0.99476 0.857345
0.994871 0.995482 0.955221
0.995285 0.994784 0.939225
0.994888 1.00084 0.990092
0.999651 0.994861 0.84637
0.997146 0.994811 0.940823
0.994875 0.994811 0.953915
0.994869 1.00509 0.997039
0.997462 1.00187 0.996732
1.00064 0.999834 0.99356
0.998791 1.00177 0.995107
1.00377 0.997948 0.990215
1.00471 0.997566 0.989335
1.00401 1.00274 0.984086
1.00461 0.999378 0.986726
1.0051 0.996178 0.989098
1.00471 1.0016 0.984286
1.00494 0.998526 0.98713
1.00535 0.995347 0.989734
1.00528 0.995041 0.990581
1.00532 0.996188 0.988995
1.00536 0.995951 0.989112
1.0053 0.998162 0.987001
1.00527 0.998158 0.9871
1.00524 0.998515 0.986798
1.00523 1.00099 0.984944
1.00517 1.00022 0.985779
1.00512 1.00039 0.985597
1.00516 1.00262 0.983808
1.00511 1.00217 0.984215
1.00516 1.0013 0.984555
1.00303 1.00302 0.986798
1.00438 1.00213 0.985487
1.00423 1.00265 0.984931
1.00077 1.00298 0.990574
1.00224 1.00402 0.98718
1.00299 1.00243 0.987346
0.999888 0.99971 0.998126
1.0005 1.00236 0.991635
1.00153 1.00508 0.987865
1.00019 0.998576 0.998363
1.00034 1.00158 0.992819
1.0002 0.998141 0.998522
1.00406 1.00184 0.987512
1.00176 1.00343 0.988545
1.00166 1.00466 0.987998
1.00094 1.00466 0.989004
1.00102 1.00514 0.988251
0.999763 1.00517 0.989746
1.00006 1.00068 0.994127
1.00067 1.00392 0.9899
1.00071 1.00443 0.988928
1.0001 0.997637 0.998814
1.00019 0.999787 0.99473
1.00044 1.00315 0.991008
1.00011 0.997378 0.998927
1.00029 0.999242 0.995139
1.00011 0.997068 0.99906
0.994736 0.994785 0.792016
0.994796 0.994822 0.808767
0.994808 0.994837 0.794045
1.00332 1.00247 0.986553
1.00466 1.00298 0.985741
1.0025 1.00349 0.986767
0.999706 1.00492 0.990315
1.00379 1.0017 0.988494
0.998666 1.00128 0.994354
0.998246 1.00398 0.993351
1.00207 1.00271 0.988293
1.00167 1.00075 0.991324
0.998746 0.99979 0.996363
0.998589 1.00356 0.994106
0.998869 1.00356 0.994288
0.997795 0.994786 0.851158
0.994716 0.994817 0.796112
0.994781 0.994781 0.794327
0.994759 0.994869 0.797785
0.994768 0.996161 0.880771
0.994849 0.996452 0.923661
0.994866 0.996762 0.955679
0.994897 0.996795 0.959444
0.995312 0.994996 0.876365
0.994798 0.995717 0.925521
0.994848 0.997412 0.963307
0.995407 0.994714 0.927586
0.999273 0.99547 1.00357
0.999835 0.99532 1.00074
0.998291 1.00072 0.996297
0.994855 0.999335 0.985272
0.997112 0.999442 1.00144
0.996279 0.999003 0.991893
0.99585 0.996552 0.98996
0.999803 0.9951 0.861377
0.994705 0.99479 0.803945
0.994802 0.994818 0.809239
0.994832 1.00461 0.981856
0.994838 0.994874 0.953253
0.994708 0.994824 0.804257
0.99496 0.99474 0.927976
0.997598 0.994809 0.878396
0.994908 0.998767 0.986587
0.999644 0.994856 0.859643
0.997246 0.994791 0.926674
0.994856 0.994789 0.954918
0.996097 0.998182 0.987139
0.999791 0.994845 0.939607
0.995015 0.994834 0.961355
0.996338 1.00141 0.996624
0.999885 0.999624 0.993511
1.00333 0.998801 0.991635
1.00285 0.998907 0.989991
1.0044 0.997487 0.989255
1.00514 0.995786 0.989849
1.00463 0.999396 0.986626
1.00496 0.996615 0.989029
1.00532 0.99484 0.990176
1.00488 0.998503 0.987084
1.00535 0.995364 0.989678
1.0053 0.994855 0.990619
1.00532 0.994888 0.990728
1.00529 0.995025 0.990649
1.00525 0.995268 0.990588
1.0053 0.996647 0.988928
1.00532 0.996216 0.989143
1.00538 0.995907 0.989176
1.00531 0.9992 0.986414
1.0053 0.998221 0.986934
1.00527 0.99811 0.987296
1.0053 1.00224 0.983693
1.00524 1.00103 0.984965
1.00519 1.00014 0.985715
1.00388 1.00298 0.985493
1.00503 1.00257 0.983882
1.00499 1.00222 0.984267
1.00114 1.0032 0.989708
1.00301 1.00305 0.986728
1.00394 1.00222 0.985434
1.00017 1.00007 0.997731
1.00092 1.00279 0.990584
1.00248 1.00395 0.987169
1.00008 0.999649 0.99681
1.0007 1.00223 0.991664
1.00022 0.998802 0.998214
1.00488 1.00177 0.98578
1.00325 1.00199 0.987399
1.00207 1.00348 0.987726
1.00184 1.00355 0.988288
1.00137 1.00483 0.988035
1.00103 1.00509 0.988481
1.00015 1.00142 0.993293
1.00075 1.00474 0.98898
1.00031 1.00512 0.98826
1.00008 0.998124 0.99863
1.00007 1.00052 0.994154
1.00068 1.00395 0.989914
1.00007 0.997685 0.998843
1.00017 0.99974 0.994768
1.0001 0.997348 0.998952
0.999351 0.994809 0.860491
0.994723 0.994793 0.798082
0.994806 0.994821 0.809227
1.00324 1.00268 0.986406
1.00304 1.00366 0.985807
1.00436 1.00338 0.985502
1.00467 1.00335 0.984156
1.0019 1.00269 0.9891
0.999426 1.00424 0.992881
1.00206 1.00316 0.989592
1.00132 1.00108 0.991781
1.00459 0.995699 0.990586
1.00203 0.998457 0.994064
1.00169 0.997236 0.995281
1.00032 0.998832 0.996016
0.999919 1.00183 0.994009
0.997429 0.994819 0.937404
0.997905 0.994756 0.855518
0.994694 0.994807 0.802268
0.995502 0.994805 0.861493
0.994784 0.995778 0.936463
0.995032 0.996223 0.961079
0.994835 0.996752 0.964968
0.996042 0.994765 0.940257
0.995745 0.994779 0.963326
0.998398 0.996719 1.00142
0.998304 0.996127 1.00366
0.999576 0.996567 1.00061
0.996518 0.99836 0.991575
0.997013 0.99703 0.990207
1.00003 0.99494 0.925292
0.999804 0.994893 0.867684
0.994695 0.994773 0.800909
0.995032 0.998391 0.982707
0.994965 0.994773 0.954408
0.999637 0.994835 0.858539
0.997174 0.994811 0.940546
0.99595 0.997683 0.987382
0.999954 0.994862 0.934971
0.995631 0.994825 0.959176
1.00018 0.99504 0.985886
0.997684 0.99473 0.970389
0.999406 0.999006 0.993477
1.00244 0.997446 0.991646
1.00507 0.994819 0.991572
1.00442 0.997191 0.989163
1.0051 0.995622 0.989767
1.00528 0.994806 0.990496
1.00473 0.996979 0.988961
1.00531 0.994854 0.990134
1.00532 0.994808 0.990462
1.00533 0.995361 0.989622
1.00528 0.99486 0.990605
1.00534 0.99482 0.990609
1.0053 0.994875 0.990765
1.00532 0.994971 0.990708
1.00529 0.995015 0.990717
1.00525 0.99525 0.990594
1.00522 0.995716 0.990149
1.0053 0.997815 0.98798
1.0053 0.996698 0.988918
1.00532 0.996249 0.989292
1.00533 1.00129 0.984505
1.00533 0.999315 0.986232
1.0053 0.998283 0.986869
1.00476 1.00257 0.984324
1.00529 1.00223 0.983752
1.00524 1.00107 0.984987
1.00164 1.00327 0.988511
1.00357 1.00323 0.985521
1.00472 1.00274 0.983955
1.00044 1.00076 0.997302
1.00124 1.00306 0.989693
1.00296 1.00314 0.986666
1.00032 1.00028 0.997558
1.00102 1.00261 0.990598
1.00028 0.999655 0.997818
1.00508 1.00337 0.98385
1.0045 1.00152 0.985812
1.00327 1.00283 0.986606
1.00286 1.00184 0.98728
1.00198 1.00367 0.987671
1.0016 1.00471 0.987713
1.00099 1.00479 0.988067
1.00086 1.00512 0.988433
1.00035 1.00219 0.992271
1.00008 0.998653 0.998346
1.00002 1.0015 0.993303
1.0005 1.0049 0.988956
1.00004 0.998009 0.998699
1.00009 1.00045 0.994156
1.00005 0.997631 0.998868
0.999968 0.994882 0.940006
0.999831 0.994861 0.858791
0.994701 0.994775 0.79189
1.00298 1.00466 0.984836
1.00378 1.00348 0.985258
1.00311 1.00267 0.988095
1.00421 1.00326 0.984332
1.00519 1.00007 0.985701
1.00364 0.999173 0.988222
1.00072 1.00176 0.992205
1.00451 0.995467 0.99076
1.00199 0.998092 0.994095
1.00418 0.995822 0.990849
1.00286 0.998524 0.992927
1.00184 0.9986 0.994003
1.00121 0.997833 0.995244
1.00018 0.999431 0.995685
0.995346 0.994792 0.961879
0.997897 0.994988 0.932573
0.996876 0.994813 0.874162
0.995107 0.994708 0.927324
0.994853 0.996739 0.965273
0.995621 0.99569 0.968961
0.999131 0.994801 0.991296
0.999542 0.996068 1.00056
0.997771 0.996624 1.00377
0.998591 0.998826 0.990521
0.997521 0.994836 0.963949
1.00006 0.994887 0.940435
0.99982 0.995077 0.848711
0.995622 0.997797 0.987783
0.996169 0.994806 0.959251
0.999603 0.994823 0.929843
0.999446 0.996258 0.986382
0.997895 0.994785 0.969405
1.00281 0.996408 0.988171
1.00334 0.994807 0.985255
1.00149 0.996758 0.991643
1.00449 0.99487 0.991615
1.00525 0.994797 0.990845
1.00503 0.995581 0.989687
1.00527 0.994806 0.990444
1.00535 0.994852 0.990474
1.00531 0.99488 0.99009
1.00532 0.994822 0.990451
1.00536 0.994866 0.99049
1.00528 0.994865 0.99059
1.00534 0.994828 0.990633
1.00536 0.994851 0.990649
1.00529 0.994858 0.990801
1.00531 0.994959 0.990709
1.00527 0.995273 0.990644
1.00526 0.995231 0.990601
1.00523 0.995697 0.990163
1.00526 0.996998 0.988948
1.00531 0.999944 0.985917
1.0053 0.998029 0.987687
1.0053 0.99675 0.988908
1.00531 1.00172 0.984257
1.00533 1.00132 0.984546
1.00535 0.999433 0.986051
1.00263 1.0027 0.987498
1.00451 1.00283 0.984344
1.00529 1.00223 0.98381
1.00092 1.00109 0.996888
1.00186 1.00317 0.988451
1.00329 1.00352 0.985548
1.00064 1.00083 0.997158
1.00131 1.00293 0.98968
1.00049 1.00044 0.997391
1.00527 1.00142 0.984646
1.00499 1.00295 0.983872
1.00457 1.00292 0.984378
1.00442 1.00184 0.985846
1.00344 1.00274 0.986325
1.00289 1.0035 0.986587
1.00185 1.00411 0.987621
1.00154 1.0047 0.987713
1.00078 1.00265 0.991047
1.00059 1.00511 0.988395
1.0002 1.00227 0.992275
1.00009 0.999539 0.997975
1.00004 0.998634 0.998455
0.999941 1.00152 0.993323
1.00002 0.997988 0.99876
0.996186 0.994926 0.964859
0.999797 0.994892 0.924786
0.999836 0.994934 0.873076
1.00526 0.997943 0.987454
1.00454 1.00273 0.987111
1.00377 1.00317 0.984505
1.00424 0.999132 0.988629
1.00518 1.00025 0.985691
1.00514 0.996673 0.989032
1.00482 0.996107 0.990932
1.00165 0.997635 0.994145
1.00468 0.995879 0.990889
1.00248 0.998504 0.992548
1.0041 0.99732 0.990069
1.00322 0.994826 0.9944
1.00175 0.997504 0.994169
1.0011 0.998011 0.995204
0.998512 0.994725 0.990069
0.995711 0.994788 0.960377
0.997741 0.994783 0.926358
0.995385 0.996114 0.969525
0.998839 0.99481 0.994
0.999791 0.995603 0.999646
1.00232 0.99497 0.980371
0.997658 0.99489 0.963134
1.00009 0.994887 0.925403
0.99836 0.996749 0.986867
0.998058 0.994804 0.968824
1.00196 0.995534 0.988776
1.00305 0.994805 0.985792
1.00371 0.996353 0.990386
1.00552 0.995007 0.990737
1.00395 0.994829 0.991658
1.00521 0.994821 0.990808
1.00539 0.994877 0.990416
1.00526 0.994808 0.990394
1.00534 0.994845 0.990481
1.00538 0.994862 0.990474
1.00532 0.994833 0.990442
1.00535 0.994861 0.990497
1.00536 0.994885 0.990641
1.00534 0.994837 0.990656
1.00536 0.994852 0.990643
1.00529 0.994894 0.990866
1.00531 0.994953 0.990711
1.00527 0.995188 0.990681
1.00527 0.995973 0.990067
1.00524 0.995674 0.990177
1.00527 0.996847 0.989083
1.0053 0.999382 0.986677
1.00533 1.0012 0.98473
1.00532 1.00016 0.985689
1.0053 0.998242 0.987395
1.00322 1.00148 0.987816
1.00519 1.00186 0.984255
1.00532 1.00135 0.984588
1.00153 1.00118 0.996396
1.00283 1.00248 0.987471
1.0043 1.00301 0.984371
1.00112 1.00117 0.996683
1.00212 1.00308 0.9884
1.00079 1.00094 0.997009
1.00527 0.999667 0.985977
1.00524 1.00145 0.984588
1.0053 1.00201 0.983976
1.00489 1.00252 0.983897
1.00494 1.0027 0.984132
1.0034 1.00328 0.985971
1.00385 1.00228 0.986045
1.00271 1.00373 0.986617
1.00106 1.00305 0.989948
1.00144 1.00477 0.987687
1.00059 1.00281 0.991085
1.00019 1.00042 0.997556
1.00002 1.00235 0.99228
1.00003 0.999305 0.998118
0.999991 0.998472 0.99855
0.999782 0.995302 0.986025
0.996328 0.9949 0.960596
1.00001 0.994852 0.939738
1.00531 0.996215 0.989136
1.00529 0.995893 0.989465
1.00527 0.997616 0.98772
1.00484 0.998686 0.989034
1.00517 1.00045 0.985687
1.00516 0.996649 0.989214
1.00532 0.995134 0.989743
1.00489 0.995603 0.990933
1.0022 0.998416 0.992187
1.00401 0.99752 0.990585
1.00519 0.994801 0.990921
1.00367 0.994801 0.993052
1.00281 0.994875 0.994125
1.00203 0.99685 0.994344
0.999119 0.994697 0.990058
0.996044 0.994803 0.959211
0.998952 0.994798 0.996851
1.00496 0.99496 0.990258
1.00238 0.994974 0.980523
0.997811 0.994896 0.962191
1.00165 0.994751 0.989312
1.00273 0.99468 0.986344
1.00383 0.995578 0.990878
1.00546 0.994807 0.990788
1.00547 0.994748 0.990825
1.00557 0.994792 0.991042
1.00521 0.994848 0.990767
1.00541 0.994857 0.990414
1.00537 0.994857 0.990673
1.00533 0.994835 0.990488
1.00538 0.994862 0.990494
1.00534 0.994883 0.990713
1.00535 0.994856 0.990505
1.00536 0.994886 0.990641
1.00531 0.994899 0.990893
1.00535 0.994852 0.990637
1.0053 0.994894 0.990847
1.00528 0.995331 0.990652
1.00528 0.995098 0.990718
1.00527 0.995933 0.990039
1.00531 0.998606 0.987442
1.00527 0.996697 0.989218
1.00529 0.999252 0.986819
1.0053 1.0008 0.985242
1.0033 1.00071 0.988504
1.00533 1.00119 0.984746
1.00532 1.00038 0.985461
1.00187 1.0009 0.996231
1.00325 1.00148 0.987819
1.005 1.00207 0.984246
1.00167 1.00117 0.99627
1.00304 1.00237 0.987428
1.00137 1.00125 0.996459
1.00531 0.997494 0.987977
1.00527 0.999473 0.986217
1.00537 1.00122 0.984716
1.00521 1.00145 0.984523
1.00532 1.00209 0.983896
1.00402 1.00269 0.985401
1.00525 1.00254 0.983887
1.00352 1.00293 0.985977
1.0015 1.00345 0.988819
1.0027 1.00371 0.986663
1.00101 1.00318 0.98997
1.00039 1.00114 0.997178
1.0004 1.00298 0.991115
1.00007 1.00023 0.997716
0.999992 0.999207 0.998251
1.00408 0.995356 0.99185
0.999621 0.995174 0.983701
0.996409 0.994904 0.960754
1.00532 0.995254 0.990078
1.00529 0.995826 0.989429
1.00527 0.995113 0.990556
1.00529 0.996025 0.989419
1.00528 0.997279 0.98798
1.0054 0.994845 0.990249
1.00517 0.996807 0.989387
1.0053 0.995405 0.989738
1.00535 0.994784 0.990622
1.004 0.997431 0.991095
1.00518 0.994881 0.990572
1.0032 0.994913 0.993309
1.00208 0.995217 0.993864
0.99938 0.994668 0.989781
1.00556 0.994829 0.991012
1.00509 0.995082 0.990227
1.00222 0.995018 0.980786
1.00382 0.994718 0.991362
1.00548 0.994746 0.990847
1.00546 0.994753 0.990829
1.0056 0.994832 0.991114
1.00537 0.994868 0.991191
1.00543 0.994842 0.990414
1.00537 0.994865 0.990679
1.00531 0.994901 0.990971
1.00539 0.994865 0.990515
1.00534 0.994888 0.990709
1.0053 0.994926 0.990975
1.00536 0.994886 0.990641
1.0053 0.994898 0.99089
1.00531 0.994989 0.991049
1.00531 0.994894 0.990828
1.00528 0.995348 0.990622
1.00532 0.997753 0.988346
1.00527 0.995894 0.990012
1.0053 0.998619 0.987458
1.0053 1.00043 0.985647
1.00529 0.999121 0.986961
1.00531 1.00078 0.985266
1.00325 1.00042 0.990645
1.00208 1.00008 0.992907
1.00329 1.00076 0.989398
1.00533 1.00119 0.984763
1.00178 1.00088 0.99633
1.00328 1.00133 0.987827
1.00168 1.00125 0.996231
1.00521 0.995104 0.990864
1.00526 0.996243 0.989564
1.00531 0.997466 0.988197
1.00533 1.00011 0.985776
1.00528 0.999272 0.986457
1.00535 1.00123 0.984636
1.00481 1.00188 0.984677
1.00534 1.00214 0.983816
1.00427 1.00221 0.985361
1.0024 1.00297 0.987738
1.00365 1.00257 0.985983
1.00144 1.00352 0.988802
1.00085 1.00172 0.996628
1.00093 1.0033 0.990005
1.00027 1.00095 0.997322
0.999978 0.999982 0.997872
1.00549 0.994835 0.990919
1.00394 0.995122 0.991443
0.999849 0.994901 0.981455
1.00532 0.994872 0.990641
1.00531 0.995302 0.989996
1.00529 0.995441 0.989732
1.00526 0.995237 0.99051
1.0053 0.996163 0.989373
1.00539 0.99485 0.990626
1.00539 0.994844 0.990225
1.0053 0.995578 0.989734
1.00532 0.994783 0.990673
1.00518 0.995012 0.990222
1.00297 0.994719 0.993558
1.00529 0.994878 0.9913
1.00554 0.994818 0.991035
1.00523 0.99516 0.99019
1.00542 0.994752 0.990819
1.0056 0.99486 0.991186
1.00539 0.994866 0.991147
1.00529 0.994911 0.991286
1.00537 0.994866 0.990686
1.00531 0.9949 0.990928
1.00527 0.994928 0.991163
1.00535 0.994891 0.990705
1.00529 0.994926 0.990979
1.00531 0.994918 0.991208
1.0053 0.994898 0.990887
1.0053 0.99499 0.991016
1.00532 0.996923 0.989254
1.00527 0.995363 0.990591
1.00532 0.997776 0.988353
1.0053 1.0001 0.986024
1.00529 0.99863 0.987475
1.00531 1.00041 0.985679
1.00333 1.00024 0.990734
1.00532 1.00075 0.98529
1.00349 1.0003 0.990499
1.00215 0.999742 0.99311
1.00174 1.00042 0.994792
1.00348 1.00076 0.990099
1.00172 1.00082 0.996411
1.00525 0.994899 0.99098
1.00524 0.995991 0.989998
1.0052 0.995082 0.990942
1.00528 0.998984 0.986978
1.00526 0.996254 0.989602
1.00531 0.997448 0.988418
1.00532 1.0001 0.98574
1.00528 1.00116 0.984848
1.00535 1.00127 0.984557
1.00506 1.00165 0.984684
1.00302 1.00174 0.987818
1.00448 1.00201 0.985331
1.00223 1.00311 0.987797
1.0013 1.00182 0.996297
1.00133 1.00355 0.988795
1.00064 1.00149 0.996864
1.0001 1.00083 0.997465
1.00534 0.994889 0.990936
1.00541 0.994842 0.990986
1.0036 0.995056 0.991041
1.00531 0.994886 0.990811
1.00532 0.994874 0.990588
1.00529 0.995334 0.98992
1.00525 0.995365 0.990461
1.00539 0.994854 0.990617
1.00536 0.994843 0.9902
1.00526 0.994785 0.99072
1.00528 0.994913 0.991333
1.0053 0.994882 0.99126
1.00552 0.994816 0.991055
1.00528 0.994926 0.991357
1.00542 0.994867 0.991102
1.00529 0.994912 0.991276
1.00525 0.994936 0.991314
1.00532 0.994901 0.990885
1.00527 0.994927 0.991167
1.00528 0.994946 0.991343
1.00529 0.994926 0.990983
1.00531 0.994917 0.991189
1.00533 0.996243 0.990035
1.00529 0.994992 0.990983
1.00534 0.996946 0.989249
1.00527 0.999837 0.986394
1.00533 0.9978 0.988361
1.00531 1.00008 0.986056
1.00332 1.00024 0.990718
1.00532 1.00039 0.985711
1.00353 1.00015 0.990557
1.00221 0.999695 0.993059
1.00371 1.00017 0.990361
1.00165 0.999919 0.993457
1.00106 1.0008 0.997055
1.00525 0.994907 0.991018
1.00527 0.995314 0.990636
1.00524 0.994905 0.991001
1.00531 0.998498 0.98752
1.00524 0.995703 0.990213
1.00519 0.995057 0.99102
1.00533 1.00048 0.985491
1.00529 0.998963 0.98695
1.00526 0.996258 0.989642
1.0053 1.00008 0.985703
1.00528 1.00115 0.984829
1.00311 1.00098 0.988527
1.0053 1.00134 0.984687
1.00296 1.00189 0.987844
1.00146 1.00133 0.996404
1.00221 1.00318 0.987832
1.00118 1.00169 0.996388
1.00049 1.00134 0.997059
1.0053 0.994925 0.991103
1.00535 0.994886 0.990875
1.00535 0.994846 0.991059
1.00531 0.994887 0.990813
1.00533 0.994876 0.990536
1.00541 0.994856 0.990607
1.00528 0.994933 0.991343
1.00527 0.994914 0.991351
1.0053 0.994884 0.99122
1.00528 0.994926 0.991369
1.00524 0.99495 0.991434
1.00528 0.994913 0.991266
1.00525 0.99494 0.991336
1.00525 0.994954 0.991428
1.00528 0.994927 0.991172
1.00528 0.994946 0.99134
1.00534 0.995824 0.990486
1.00531 0.994916 0.991169
1.00532 0.996269 0.990031
1.00522 0.999621 0.986711
1.00536 0.996969 0.989243
1.00527 0.999816 0.986427
1.00324 1.00031 0.990727
1.00532 1.00006 0.986089
1.00351 1.00017 0.990534
1.00217 0.999816 0.992974
1.00372 1.00006 0.990388
1.00176 0.999755 0.993435
1.00117 1.00012 0.99379
1.00526 0.994936 0.991135
1.00529 0.994929 0.991091
1.00525 0.994907 0.990985
1.00534 0.997298 0.988727
1.00527 0.995348 0.990631
1.00523 0.994912 0.99102
1.00532 1.00009 0.985956
1.00531 0.998049 0.987908
1.00524 0.995418 0.990427
1.00322 1.00037 0.988965
1.00532 1.0005 0.985462
1.0053 0.998949 0.986923
1.00531 1.00115 0.984806
1.00312 1.00097 0.988507
1.00155 1.00085 0.996546
1.00284 1.00213 0.987877
1.00148 1.00139 0.996344
1.00103 1.00158 0.996563
1.00528 0.99494 0.991273
1.0053 0.994924 0.991067
1.00536 0.994884 0.990815
1.00532 0.99489 0.990815
1.00525 0.994955 0.991414
1.00528 0.994931 0.991352
1.00527 0.994915 0.991369
1.00527 0.994925 0.991381
1.00525 0.994949 0.991432
1.00527 0.994964 0.991368
1.00525 0.994944 0.991358
1.00525 0.994957 0.991409
1.00533 0.995782 0.990691
1.00528 0.994946 0.991338
1.00531 0.995882 0.990486
1.0052 0.999425 0.98693
1.00532 0.996299 0.990027
1.00522 0.999599 0.986728
1.00325 1.00034 0.989037
1.00526 0.999796 0.98646
1.00342 1.00027 0.989699
1.00185 0.999922 0.996509
1.0037 1.0001 0.99035
1.00177 0.999806 0.993354
1.00134 0.99981 0.993795
1.00526 0.994948 0.99125
1.0053 0.99495 0.991154
1.00526 0.994936 0.991159
1.00533 0.996364 0.989769
1.00529 0.995075 0.990942
1.00525 0.994906 0.990952
1.00529 0.999357 0.986797
1.00533 0.997318 0.988727
1.00527 0.995383 0.990626
1.00334 1.00003 0.989149
1.00531 0.999862 0.986159
1.00531 0.997591 0.988294
1.00169 1.00037 0.996626
1.00326 1.00031 0.98895
1.00531 1.00052 0.985431
1.00311 1.00096 0.988493
1.00157 1.00088 0.9965
1.00145 1.00141 0.996284
1.00526 0.994957 0.991331
1.00528 0.994943 0.991267
1.0053 0.994923 0.991032
1.00528 0.994972 0.991368
1.00525 0.994953 0.991396
1.00528 0.994929 0.991361
1.00525 0.994947 0.99143
1.00527 0.994993 0.991363
1.00533 0.996347 0.99002
1.00526 0.99496 0.991389
1.00532 0.996059 0.990318
1.00517 0.998748 0.98783
1.00529 0.995936 0.990487
1.00522 0.999401 0.986927
1.0032 1.0002 0.98926
1.00522 0.999577 0.986748
1.00328 1.00031 0.989041
1.00178 1 0.996503
1.00346 1.00025 0.988835
1.00169 0.999953 0.994986
1.00138 0.999788 0.993732
1.00524 0.994953 0.991351
1.00529 0.994958 0.991307
1.00526 0.994948 0.991257
1.0053 0.996385 0.989863
1.0053 0.994948 0.991176
1.00525 0.994937 0.991183
1.00522 0.999121 0.987164
1.00532 0.996778 0.989385
1.00529 0.995216 0.990793
1.00336 1.00001 0.989149
1.00528 0.999304 0.986838
1.00533 0.997338 0.988727
1.00182 1.00002 0.996621
1.00336 0.999997 0.989139
1.00529 0.99964 0.986362
1.00171 1.0004 0.996599
1.00331 1.00025 0.988933
1.00156 1.00095 0.996462
1.00528 0.995026 0.991273
1.00526 0.994956 0.991344
1.00528 0.994946 0.991261
1.00531 0.99635 0.990026
1.00528 0.995016 0.991348
1.00525 0.994951 0.991378
1.00527 0.995029 0.991358
1.00533 0.99635 0.990031
1.0051 0.9986 0.988073
1.00532 0.996325 0.989946
1.00521 0.998963 0.98746
1.00313 1.00004 0.989543
1.00524 0.999376 0.986923
1.0032 1.0002 0.989263
1.00168 1.00003 0.996527
1.00329 1.00029 0.98904
1.00174 1.00002 0.996503
1.00179 0.999936 0.993133
1.00527 0.995076 0.991242
1.00524 0.99495 0.991289
1.00531 0.996226 0.990083
1.00529 0.994959 0.99131
1.00525 0.994949 0.991264
1.0052 0.999483 0.986828
1.00531 0.996405 0.989865
1.0053 0.994944 0.991198
1.00334 1.00011 0.989118
1.00522 0.999357 0.986907
1.00531 0.997201 0.989002
1.00186 0.999907 0.996557
1.00337 1.00001 0.989142
1.00528 0.999248 0.98688
1.00183 1.00006 0.996627
1.00338 0.999972 0.989127
1.00174 1.00043 0.996568
1.00531 0.996451 0.989917
1.00528 0.995056 0.991293
1.00525 0.994955 0.991358
1.00501 0.998594 0.988187
1.00531 0.996398 0.99003
1.00528 0.995065 0.991328
1.00532 0.996365 0.990041
1.00512 0.998573 0.988037
1.003 0.99993 0.989865
1.00524 0.99919 0.987089
1.00312 1.00003 0.989553
1.0016 1.00002 0.996596
1.00321 1.0002 0.989267
1.00164 1.00005 0.996557
1.00172 1.00004 0.996515
1.00532 0.996205 0.990182
1.00527 0.995024 0.991293
1.00524 0.994945 0.991227
1.00519 0.999322 0.987035
1.00531 0.996245 0.990087
1.00528 0.994961 0.991313
1.00327 1.00014 0.989217
1.00519 0.999508 0.986823
1.00531 0.996434 0.989868
1.00181 0.999944 0.996504
1.00333 1.00013 0.989116
1.00522 0.999585 0.98665
1.00187 0.999928 0.996584
1.00337 1.00003 0.989134
1.00187 1.00007 0.996623
1.00503 0.999098 0.987553
1.00531 0.996247 0.990189
1.00528 0.995087 0.991313
1.0029 0.999862 0.990128
1.00503 0.998564 0.988176
1.00531 0.996434 0.990033
1.00514 0.998525 0.987999
1.00302 0.999907 0.989877
1.0015 1.00001 0.996659
1.00313 1.00002 0.989562
1.00156 1.00003 0.996613
1.00159 1.00007 0.996581
1.00508 0.999241 0.987323
1.00531 0.996147 0.990274
1.00527 0.99496 0.991346
1.0033 1.00005 0.990934
1.00515 0.999366 0.98705
1.00532 0.996261 0.990091
1.00171 0.999997 0.996524
1.00325 1.00017 0.98922
1.00517 0.999533 0.986821
1.00184 0.999943 0.996524
1.00332 1.00016 0.989113
1.00189 0.999936 0.996605
1.00301 0.999846 0.990042
1.00502 0.998876 0.987824
1.00531 0.996043 0.990462
1.00138 0.999984 0.996753
1.0029 0.999849 0.990125
1.00505 0.998543 0.988166
1.00301 0.999886 0.989885
1.00146 1 0.996693
1.00153 1.00004 0.996639
1.00322 0.999958 0.9912
1.00508 0.99923 0.987334
1.00531 0.9961 0.990366
1.00106 1.00003 0.997191
1.00314 1.00008 0.989497
1.00511 0.999408 0.987063
1.00173 0.999993 0.996519
1.00323 1.0002 0.989219
1.00187 0.999939 0.996545
1.00134 0.999935 0.993833
1.00303 0.999865 0.99074
1.00502 0.998651 0.988094
1.00139 0.999982 0.996768
1.00291 0.999839 0.990129
1.00146 0.999991 0.996722
1.00082 1.00001 0.994295
1.00312 0.999935 0.990519
1.00507 0.999221 0.987342
1.0013 1.00002 0.995337
1.0031 1.00012 0.989528
1.00178 0.999983 0.996521
1.00137 0.999972 0.99677
1.00288 0.999867 0.990138
1.00135 0.999979 0.996771
1.00113 0.99997 0.995533
1.00299 0.999924 0.989909
1.00162 1.00001 0.996567
1.0014 0.999979 0.996766
1.00146 0.999987 0.996678

TENSORS stress float
0.00244555 -0.000172837 0.000285944
-0.000172837 0.00123311 -5.10891e-05
0.000285944 -5.10891e-05 0.00120579
0.00757245 0.00011821 0.000342573
0.00011821 0.0045142 4.15037e-05
0.000342573 4.15037e-05 0.00452617
0.00206391 -0.000103257 0.000116388
-0.000103257 0.000984792 -1.98259e-05
0.000116388 -1.98259e-05 0.000944265
0.00234043 -9.65091e-05 0.000271594
-9.65091e-05 0.00114446 -2.90686e-05
0.000271594 -2.90686e-05 0.00112777
0.00246258 -0.000151584 0.000279659
-0.000151584 0.00123327 -4.49364e-05
0.000279659 -4.49364e-05 0.00120975
0.00245406 -0.000178816 0.000297554
-0.000178816 0.00124026 -5.3155e-05
0.000297554 -5.3155e-05 0.0012129
0.00200167 -0.000182565 5.74272e-05
-0.000182565 0.000821093 -1.50176e-05
5.74272e-05 -1.50176e-05 0.000689705
0.007657 0.000111533 -8.89389e-06
0.000111533 0.00455885 -2.52777e-06
-8.89389e-06 -2.52777e-06 0.00457545
0.00693774 0.000251629 0.000169553
0.000251629 0.00411564 1.84182e-05
0.000169553 1.84182e-05 0.00408508
0.00703253 3.58212e-05 0.00010619
3.58212e-05 0.00414567 6.45929e-06
0.00010619 6.45929e-06 0.00412619
0.00204123 0.000238013 0.000317313
0.000238013 0.000988226 4.54785e-05
0.000317313 4.54785e-05 0.000971379
0.000254238 0.000270098 2.69039e-05
0.000270098 -0.000239242 2.13513e-05
2.69039e-05 2.13513e-05 -0.000400849
0.00189864 -3.29189e-05 0.000266246
-3.29189e-05 0.0008584 4.5423e-06
0.000266246 4.5423e-06 0.000862111
0.00165026 4.98268e-06 7.34042e-05
4.98268e-06 0.000723783 2.67905e-06
7.34042e-05 2.67905e-06 0.000673653
0.00176573 -0.000102173 -6.78958e-05
-0.000102173 0.00080661 1.23012e-05
-6.78958e-05 1.23012e-05 0.000745127
0.00198571 -9.49935e-05 8.74882e-05
-9.49935e-05 0.00093601 -5.67537e-06
8.74882e-05 -5.67537e-06 0.000898849
0.00209148 -9.32494e-05 0.000126908
-9.32494e-05 0.00100715 -2.19174e-05
0.000126908 -2.19174e-05 0.000963214
0.00206012 -0.000107735 0.000104278
-0.000107735 0.000978042 -1.50432e-05
0.000104278 -1.50432e-05 0.000939867
0.00211224 -0.000219615 -4.44703e-05
-0.000219615 0.000891977 7.16255e-06
-4.44703e-05 7.16255e-06 0.000769792
0.00647529 -0.000159622 0.000349772
-0.000159622 0.00382813 -1.6627e-05
0.000349772 -1.6627e-05 0.00385149
0.00224705 -7.24387e-05 0.000268324
-7.24387e-05 0.00108468 -2.1533e-05
0.000268324 -2.1533e-05 0.00107116
0.00244171 -0.000124909 0.0002765
-0.000124909 0.00121169 -3.71997e-05
0.0002765 -3.71997e-05 0.00119211
0.00194269 -0.000153841 7.41838e-05
-0.000153841 0.000801828 -1.16598e-05
7.41838e-05 -1.16598e-05 0.000695121
0.00200851 -0.000181411 6.54536e-05
-0.000181411 0.000823265 -1.4732e-05
6.54536e-05 -1.4732e-05 0.000702584
0.00246825 -0.000161806 0.00030666
-0.000161806 0.00124137 -5.03757e-05
0.00030666 -5.03757e-05 0.00121738
0.00201493 -0.000185175 5.24821e-05
-0.000185175 0.00084696 -1.54918e-05
5.24821e-05 -1.54918e-05 0.000700249
0.00209349 -0.000394214 1.92658e-05
-0.000394214 0.000600714 -7.39802e-06
1.92658e-05 -7.39802e-06 0.000347819
0.00760743 0.000100995 -0.000356231
0.000100995 0.00451625 -3.30457e-05
-0.000356231 -3.30457e-05 0.00453832
0.00456412 0.000184211 -0.000158794
0.000184211 0.00258615 -1.90161e-05
-0.000158794 -1.90161e-05 0.00256241
0.00459732 0.000111567 -0.000163041
0.000111567 0.00261087 -1.83485e-05
-0.000163041 -1.83485e-05 0.00258956
0.00770319 4.15817e-05 -3.08165e-06
4.15817e-05 0.00459448 -1.26763e-06
-3.08165e-06 -1.26763e-06 0.00460896
0.000300923 0.000257629 -7.85895e-07
0.000257629 -0.000205911 -1.38593e-06
-7.85895e-07 -1.38593e-06 -0.000367418
0.00198827 7.50735e-05 0.000275296
7.50735e-05 0.000914979 2.74925e-05
0.000275296 2.74925e-05 0.000904327
0.00214273 0.000167978 0.000286031
0.000167978 0.00104673 4.28119e-05
0.000286031 4.28119e-05 0.00102313
0.00292826 0.000239152 0.000169054
0.000239152 0.00140491 2.61335e-05
0.000169054 2.61335e-05 0.0013106
0.00678679 -0.000247562 3.67638e-05
-0.000247562 0.00406741 3.74961e-06
3.67638e-05 3.74961e-06 0.0040207
0.0030396 0.000325295 0.000179536
0.000325295 0.00152699 3.30148e-05
0.000179536 3.30148e-05 0.00141068
0.000319145 0.000252384 2.57275e-05
0.000252384 -0.000188585 2.98611e-05
2.57275e-05 2.98611e-05 -0.00035455
0.00101222 0.000354593 2.41841e-05
0.000354593 3.09928e-05 7.54884e-06
2.41841e-05 7.54884e-06 -0.000247774
0.00547565 -0.000121763 0.000203878
-0.000121763 0.0032685 2.52205e-05
0.000203878 2.52205e-05 0.00325829
0.00648796 8.83162e-05 3.34214e-06
8.83162e-05 0.00381948 -2.08549e-06
3.34214e-06 -2.08549e-06 0.00385162
0.00424769 9.94127e-05 -0.000133066
9.94127e-05 0.00238192 -6.33989e-06
-0.000133066 -6.33989e-06 0.0023712
0.00630452 5.73092e-05 0.000339968
5.73092e-05 0.00370599 4.82598e-06
0.000339968 4.82598e-06 0.00373897
0.00157085 9.21571e-05 7.57496e-05
9.21571e-05 0.000676644 5.36302e-06
7.57496e-05 5.36302e-06 0.000630773
0.000463578 1.32843e-05 1.41821e-05
1.32843e-05 -0.000162161 1.68213e-06
1.41821e-05 1.68213e-06 -0.000255606
0.00665713 0.000244734 0.000196434
0.000244734 0.00395911 1.97284e-05
0.000196434 1.97284e-05 0.00393321
0.00290983 8.56684e-05 0.000156755
8.56684e-05 0.00138745 1.10425e-05
0.000156755 1.10425e-05 0.00132482
0.00160912 -9.55145e-05 -8.79576e-05
-9.55145e-05 0.000714357 1.15702e-05
-8.79576e-05 1.15702e-05 0.000656172
0.00166801 -0.000125872 -8.10542e-05
-0.000125872 0.000753521 1.47546e-05
-8.10542e-05 1.47546e-05 0.000689427
0.00183706 -6.27896e-05 -5.57456e-05
-6.27896e-05 0.000845114 1.00748e-05
-5.57456e-05 1.00748e-05 0.000784427
0.00218354 -0.000222314 -0.000154008
-0.000222314 0.000928292 2.93541e-05
-0.000154008 2.93541e-05 0.000819159
0.00406591 -3.27923e-05 -0.000135792
-3.27923e-05 0.00227731 -1.08546e-06
-0.000135792 -1.08546e-06 0.00226708
0.00195597 -7.54769e-05 9.2377e-05
-7.54769e-05 0.00091352 -4.62829e-06
9.2377e-05 -4.62829e-06 0.000880734
0.00221109 -6.92112e-05 0.000133196
-6.92112e-05 0.00108083 -2.06106e-05
0.000133196 -2.06106e-05 0.00103466
0.00203482 -0.000101838 9.43159e-05
-0.000101838 0.000962582 -9.74043e-06
9.43159e-05 -9.74043e-06 0.000925228
0.00202437 -0.000131646 -3.60277e-05
-0.000131646 0.000841913 2.91768e-06
-3.60277e-05 2.91768e-06 0.000748677
0.00211848 -0.00023107 -5.14084e-05
-0.00023107 0.00091143 8.28334e-06
-5.14084e-05 8.28334e-06 0.000776465
0.0020987 -0.000197155 -3.91827e-05
-0.000197155 0.000879405 5.23387e-06
-3.91827e-05 5.23387e-06 0.000768244
0.00217771 -0.00040103 -1.03626e-05
-0.00040103 0.000653005 2.75747e-06
-1.03626e-05 2.75747e-06 0.000400559
0.00628167 -8.33586e-06 0.000335758
-8.33586e-06 0.00368943 -3.69907e-06
0.000335758 -3.69907e-06 0.00372359
0.00219714 -4.71122e-05 0.00026507
-4.71122e-05 0.001055 -1.46655e-05
0.00026507 -1.46655e-05 0.00104667
0.0024827 -1.94304e-05 5.73633e-05
-1.94304e-05 0.00114941 -6.28844e-07
5.73633e-05 -6.28844e-07 0.00107672
0.00191548 -0.000124133 6.74701e-05
-0.000124133 0.000789534 -7.60171e-06
6.74701e-05 -7.60171e-06 0.000692898
0.00198617 -0.000169499 7.14912e-05
-0.000169499 0.00081535 -1.37463e-05
7.14912e-05 -1.37463e-05 0.000701982
0.00200713 -0.000251315 4.7858e-06
-0.000251315 0.000463121 -2.07426e-06
4.7858e-06 -2.07426e-06 0.000282837
0.00200953 -0.00034879 1.55287e-05
-0.00034879 0.000505948 -4.99678e-06
1.55287e-05 -4.99678e-06 0.000284721
0.00193791 -0.00012274 0.000281886
-0.00012274 0.000901875 -4.27449e-05
0.000281886 -4.27449e-05 0.000876144
0.00215069 -0.000155725 4.58875e-05
-0.000155725 0.000961008 -1.38204e-05
4.58875e-05 -1.38204e-05 0.000807646
0.00207188 -0.000441243 2.36149e-05
-0.000441243 0.000629546 -8.11943e-06
2.36149e-05 -8.11943e-06 0.000342767
0.00193405 -0.000526709 6.86466e-06
-0.000526709 0.000252846 7.81516e-07
6.86466e-06 7.81516e-07 -4.40668e-05
0.00739023 0.000306983 -0.0003871
0.000306983 0.00440094 -4.70608e-05
-0.0003871 -4.70608e-05 0.0044091
0.00751221 5.74011e-06 -0.000314395
5.74011e-06 0.00447555 -2.63638e-05
-0.000314395 -2.63638e-05 0.00449103
0.00746362 0.000173253 -0.000361616
0.000173253 0.00442594 -3.77726e-05
-0.000361616 -3.77726e-05 0.00444742
0.000402885 0.000252967 -2.66704e-05
0.000252967 -0.000135437 -2.11379e-05
-2.66704e-05 -2.11379e-05 -0.00029974
0.0071699 0.000263158 -1.79382e-06
0.000263158 0.00425429 -2.57306e-06
-1.79382e-06 -2.57306e-06 0.00426897
0.00739982 0.000266562 -8.38341e-06
0.000266562 0.00439737 -3.51531e-06
-8.38341e-06 -3.51531e-06 0.00440857
0.000348378 0.000153234 3.19091e-07
0.000153234 -0.000249659 -2.52563e-07
3.19091e-07 -2.52563e-07 -0.000380527
0.00414659 -5.59472e-05 -0.000136885
-5.59472e-05 0.00236758 -7.8318e-06
-0.000136885 -7.8318e-06 0.00233661
0.000297556 0.000229135 9.69571e-07
0.000229135 -0.00022564 -4.11329e-07
9.69571e-07 -4.11329e-07 -0.000379523
0.00190851 0.00027099 7.10347e-05
0.00027099 0.000831524 4.45276e-06
7.10347e-05 4.45276e-06 0.000694062
0.00100186 0.000354887 1.58788e-06
0.000354887 2.11192e-05 1.65663e-07
1.58788e-06 1.65663e-07 -0.000256993
0.00616646 -0.000104102 0.000242018
-0.000104102 0.00369496 2.9895e-05
0.000242018 2.9895e-05 0.00368597
0.000550258 0.000116722 2.43053e-05
0.000116722 1.19328e-05 1.50515e-05
2.43053e-05 1.50515e-05 -7.67556e-05
0.000448465 0.000119706 1.43073e-05
0.000119706 -0.000200221 1.1834e-05
1.43073e-05 1.1834e-05 -0.000322229
0.000454912 0.00018407 1.89097e-05
0.00018407 -0.000168812 1.9915e-05
1.89097e-05 1.9915e-05 -0.000309135
0.00136156 0.000323353 1.47051e-05
0.000323353 4.36473e-05 5.94767e-06
1.47051e-05 5.94767e-06 -0.000187387
0.00333306 0.000278785 0.000168979
0.000278785 0.00175612 2.62412e-05
0.000168979 2.62412e-05 0.00165888
0.00122105 0.000375029 2.48304e-05
0.000375029 8.72166e-05 8.60627e-06
2.48304e-05 8.60627e-06 -0.000185245
0.000794205 0.0003242 1.79764e-05
0.0003242 -6.86827e-06 6.73104e-06
1.79764e-05 6.73104e-06 -0.000283885
0.0016019 0.000576749 9.75408e-06
0.000576749 0.00024009 -2.82495e-06
9.75408e-06 -2.82495e-06 -0.000135902
0.00453976 -0.000140587 0.000138836
-0.000140587 0.00264908 1.24908e-05
0.000138836 1.24908e-05 0.00264091
0.0050145 -0.000165676 1.88152e-05
-0.000165676 0.00296683 1.09387e-06
1.88152e-05 1.09387e-06 0.00295068
0.0069438 7.43213e-05 -0.000359538
7.43213e-05 0.00409341 -1.93668e-05
-0.000359538 -1.93668e-05 0.00412357
0.00659503 8.00224e-05 -0.00035353
8.00224e-05 0.0038831 -1.18629e-05
-0.00035353 -1.18629e-05 0.0039164
0.00640854 8.37125e-05 1.38025e-07
8.37125e-05 0.00377662 -4.2409e-06
1.38025e-07 -4.2409e-06 0.00380684
0.00412008 4.06015e-05 -0.000145066
4.06015e-05 0.0022998 -8.26749e-06
-0.000145066 -8.26749e-06 0.0022949
0.00157374 4.147e-05 6.9264e-05
4.147e-05 0.000549489 2.09644e-06
6.9264e-05 2.09644e-06 0.000476017
0.00442566 0.000161585 -0.000136139
0.000161585 0.00250131 -8.436e-06
-0.000136139 -8.436e-06 0.00248214
0.00164084 0.000100585 6.95981e-05
0.000100585 0.000578503 3.79633e-06
6.95981e-05 3.79633e-06 0.000491878
0.00632984 0.000113522 0.000342015
0.000113522 0.00373538 7.40849e-06
0.000342015 7.40849e-06 0.00376093
0.000341496 1.02563e-05 1.76811e-05
1.02563e-05 -0.000233342 9.27331e-07
1.76811e-05 9.27331e-07 -0.000322391
0.00289153 4.67202e-05 0.000156129
4.67202e-05 0.00138317 7.30472e-06
0.000156129 7.30472e-06 0.00132746
0.00116177 8.05185e-05 9.56099e-06
8.05185e-05 -6.12187e-05 4.60463e-07
9.56099e-06 4.60463e-07 -0.000197517
0.00283257 0.00013657 0.000161745
0.00013657 0.00133202 1.47085e-05
0.000161745 1.47085e-05 0.00126051
0.00128368 0.000165852 4.79844e-06
0.000165852 -4.34119e-05 1.50701e-06
4.79844e-06 1.50701e-06 -0.000203366
0.00193149 3.98895e-05 -0.000264747
3.98895e-05 0.000877785 3.59327e-06
-0.000264747 3.59327e-06 0.000884416
0.0016091 -2.61854e-05 -7.48415e-05
-2.61854e-05 0.000704322 3.61096e-06
-7.48415e-05 3.61096e-06 0.000653069
0.00188826 -2.93046e-05 -4.96397e-05
-2.93046e-05 0.000873482 8.8618e-06
-4.96397e-05 8.8618e-06 0.000810958
0.00161291 -0.000113564 -8.93293e-05
-0.000113564 0.000718235 1.43001e-05
-8.93293e-05 1.43001e-05 0.00065722
0.00213374 -0.000109302 -0.000141352
-0.000109302 0.0008999 1.39755e-05
-0.000141352 1.39755e-05 0.000820213
0.00219897 -0.000182829 -0.000148722
-0.000182829 0.000930007 2.46608e-05
-0.000148722 2.46608e-05 0.000833723
0.00220215 -0.000252601 -0.000160884
-0.000252601 0.000962748 3.16764e-05
-0.000160884 3.16764e-05 0.000838902
0.00226272 -0.000408464 -3.64048e-05
-0.000408464 0.000706476 1.18438e-05
-3.64048e-05 1.18438e-05 0.000454367
0.00637378 -0.000116466 2.60849e-06
-0.000116466 0.00376233 -2.06672e-06
2.60849e-06 -2.06672e-06 0.00378794
0.00186843 2.04719e-05 9.99454e-05
2.04719e-05 0.000848318 -5.4178e-06
9.99454e-05 -5.4178e-06 0.000826271
0.00118577 -1.61996e-05 -7.1693e-05
-1.61996e-05 0.00030915 2.61069e-06
-7.1693e-05 2.61069e-06 0.000236077
0.00198484 -8.78642e-05 -3.89329e-05
-8.78642e-05 0.000824729 3.52784e-06
-3.89329e-05 3.52784e-06 0.000739958
0.00506386 -9.2677e-05 0.000296649
-9.2677e-05 0.00290725 -2.58267e-05
0.000296649 -2.58267e-05 0.00290135
0.0027602 -0.000235676 -4.99195e-05
-0.000235676 0.00134154 5.50098e-06
-4.99195e-05 5.50098e-06 0.00120499
0.00207528 -0.000165648 -3.63554e-05
-0.000165648 0.000865434 3.79495e-06
-3.63554e-05 3.79495e-06 0.000763919
0.00205569 -0.000251816 -9.11615e-06
-0.000251816 0.000490821 1.79175e-06
-9.11615e-06 1.79175e-06 0.000315485
0.00219081 -0.000453973 -9.22538e-06
-0.000453973 0.000712411 2.70683e-06
-9.22538e-06 2.70683e-06 0.000424271
0.00209227 -0.0003528 -1.00152e-05
-0.0003528 0.000559197 2.73731e-06
-1.00152e-05 2.73731e-06 0.00033562
0.00195874 -0.000528351 9.27995e-07
-0.000528351 0.000270522 -2.516e-07
9.27995e-07 -2.516e-07 -2.61363e-05
0.000354121 7.26956e-06 1.83602e-05
7.26956e-06 -0.000227389 -5.09331e-08
1.83602e-05 -5.09331e-08 -0.000312605
0.00183771 -1.51039e-05 5.96753e-05
-1.51039e-05 0.000730732 -2.33266e-06
5.96753e-05 -2.33266e-06 0.000649381
0.00196346 -8.76739e-05 7.42764e-06
-8.76739e-05 0.00046684 1.79044e-07
7.42764e-06 1.79044e-07 0.000348158
0.00206644 -0.000199658 4.77985e-06
-0.000199658 0.000512409 -3.70567e-07
4.77985e-06 -3.70567e-07 0.000360467
0.00204454 -0.000303906 1.01163e-05
-0.000303906 0.000496145 -3.01623e-06
1.01163e-05 -3.01623e-06 0.000301146
0.0021101 -0.000360463 -4.1908e-07
-0.000360463 0.000205775 6.09532e-09
-4.1908e-07 6.09532e-09 2.78009e-05
0.00708113 4.74909e-05 0.00026755
4.74909e-05 0.00422651 -2.34219e-05
0.00026755 -2.34219e-05 0.00423084
0.00187289 -0.000480569 5.89457e-06
-0.000480569 0.000154147 6.21235e-07
5.89457e-06 6.21235e-07 -0.000103287
0.000210696 -0.000217637 2.06011e-05
-0.000217637 -0.000282179 -2.48506e-05
2.06011e-05 -2.48506e-05 -0.000433627
0.00104865 -0.00037839 2.34995e-05
-0.00037839 5.55688e-05 -9.8e-06
2.34995e-05 -9.8e-06 -0.000245746
0.00206638 -0.000593221 8.55188e-06
-0.000593221 0.000404678 1.09447e-06
8.55188e-06 1.09447e-06 5.68473e-05
0.00203742 -0.000593729 2.5297e-06
-0.000593729 0.000215343 4.58819e-06
2.5297e-06 4.58819e-06 -5.91269e-05
0.000426551 -0.000178168 2.34657e-05
-0.000178168 -9.35225e-05 -2.04172e-05
2.34657e-05 -2.04172e-05 -0.00021775
0.000701379 -0.000159112 -5.68534e-07
-0.000159112 0.000133399 -3.3528e-06
-5.68534e-07 -3.3528e-06 -0.000129885
0.00729017 0.000289865 -0.000391217
0.000289865 0.00433692 -4.3273e-05
-0.000391217 -4.3273e-05 0.00434825
0.00743036 0.000258294 -0.00037536
0.000258294 0.00441523 -4.43057e-05
-0.00037536 -4.43057e-05 0.00443002
0.00031664 0.000151693 -1.7754e-05
0.000151693 -0.000271168 -1.45573e-05
-1.7754e-05 -1.45573e-05 -0.000402739
0.00668546 -7.55588e-05 -0.000252758
-7.55588e-05 0.00398741 -2.03699e-05
-0.000252758 -2.03699e-05 0.00399201
0.000145724 0.000215674 -2.15819e-05
0.000215674 -0.000294173 -2.34469e-05
-2.15819e-05 -2.34469e-05 -0.000442583
0.000275665 0.000215781 -2.12228e-05
0.000215781 -0.00023849 -2.01833e-05
-2.12228e-05 -2.01833e-05 -0.00039231
0.00103505 0.000355886 -2.61274e-05
0.000355886 3.85734e-05 -9.29789e-06
-2.61274e-05 -9.29789e-06 -0.000238365
0.00604551 -0.00010081 -1.13634e-05
-0.00010081 0.00361066 1.9967e-06
-1.13634e-05 1.9967e-06 0.00360643
0.000605163 9.59513e-05 5.20181e-07
9.59513e-05 5.06466e-05 5.53782e-07
5.20181e-07 5.53782e-07 -3.54577e-05
0.00171469 0.000166301 7.29518e-05
0.000166301 0.000613409 6.76346e-06
7.29518e-05 6.76346e-06 0.000508548
0.00170193 0.00023496 7.59439e-05
0.00023496 0.000638146 8.24103e-06
7.59439e-05 8.24103e-06 0.000513589
0.00132684 0.000321628 -9.41044e-08
0.000321628 2.70284e-05 -3.51179e-07
-9.41044e-08 -3.51179e-07 -0.000205058
0.000386043 0.000201144 -1.03623e-06
0.000201144 -0.000122582 -1.67974e-07
-1.03623e-06 -1.67974e-07 -0.000252432
0.00117279 0.000371153 8.95967e-07
0.000371153 5.57996e-05 1.62232e-07
8.95967e-07 1.62232e-07 -0.000216609
0.000792047 0.000312316 1.24541e-06
0.000312316 -5.62952e-06 -9.14627e-07
1.24541e-06 -9.14627e-07 -0.000276448
0.00171125 0.000594631 -1.76879e-06
0.000594631 0.000298673 -5.35726e-07
-1.76879e-06 -5.35726e-07 -7.91161e-05
0.000447221 0.000167008 2.06794e-05
0.000167008 -6.75119e-05 1.88823e-05
2.06794e-05 1.88823e-05 -0.000180679
0.000610498 6.13932e-05 1.5283e-05
6.13932e-05 7.52115e-05 1.40614e-05
1.5283e-05 1.40614e-05 1.11739e-06
0.00141748 0.000293425 2.48303e-06
0.000293425 0.000611713 3.33044e-06
2.48303e-06 3.33044e-06 0.000371487
0.00137722 0.00027793 1.05167e-05
0.00027793 1.73343e-05 4.13284e-06
1.05167e-05 4.13284e-06 -0.000188836
0.00132242 0.000358337 2.0173e-05
0.000358337 7.2175e-05 7.67315e-06
2.0173e-05 7.67315e-06 -0.000182069
0.00209721 0.000512935 4.89697e-06
0.000512935 0.000271409 -4.21619e-07
4.89697e-06 -4.21619e-07 8.9427e-06
0.000557064 0.000261485 1.11084e-05
0.000261485 -5.08924e-05 6.415e-06
1.11084e-05 6.415e-06 -0.000309777
0.00209624 0.000621972 5.39608e-06
0.000621972 0.000435002 -2.07896e-06
5.39608e-06 -2.07896e-06 8.81444e-05
0.00157968 0.000582532 4.72828e-06
0.000582532 0.000371285 -4.40208e-06
4.72828e-06 -4.40208e-06 -3.94921e-05
0.00169263 0.000646424 -6.91284e-06
0.000646424 0.000189361 -6.5853e-06
-6.91284e-06 -6.5853e-06 -0.000188699
0.00405702 -0.000143823 9.79506e-05
-0.000143823 0.00232892 7.11325e-06
9.79506e-05 7.11325e-06 0.00232054
0.00442697 -0.000182635 2.01646e-05
-0.000182635 0.00258544 -1.47549e-06
2.01646e-05 -1.47549e-06 0.00256598
0.0048788 -0.000222125 -0.000111982
-0.000222125 0.00289176 -1.07823e-05
-0.000111982 -1.07823e-05 0.00286107
0.000502497 -0.000168344 2.32344e-05
-0.000168344 -2.39068e-05 -1.76292e-05
2.32344e-05 -1.76292e-05 -0.00013116
0.00625934 9.8933e-05 0.000219793
9.8933e-05 0.00373908 -2.23472e-05
0.000219793 -2.23472e-05 0.0037325
0.00715227 0.000237382 -0.000386875
0.000237382 0.00424212 -3.52436e-05
-0.000386875 -3.52436e-05 0.00426136
0.00670386 0.000106888 -0.000354907
0.000106888 0.00394872 -1.67361e-05
-0.000354907 -1.67361e-05 0.0039796
0.000330097 0.000104693 -1.74977e-05
0.000104693 -0.000259474 -6.66065e-06
-1.74977e-05 -6.66065e-06 -0.000366145
0.000303806 4.46609e-05 -1.77564e-05
4.46609e-05 -0.00025784 -2.73901e-06
-1.77564e-05 -2.73901e-06 -0.000352312
0.00635214 -3.22e-06 -0.000339056
-3.22e-06 0.00373175 -3.2562e-06
-0.000339056 -3.2562e-06 0.00376617
0.0062746 -2.47551e-07 -3.77359e-08
-2.47551e-07 0.00368439 -1.23721e-06
-3.77359e-08 -1.23721e-06 0.00371892
0.00031064 9.66865e-07 -7.6445e-08
9.66865e-07 -0.000255633 2.3348e-07
-7.6445e-08 2.3348e-07 -0.000342994
0.00156853 4.51119e-05 6.95198e-05
4.51119e-05 0.000538579 3.35663e-06
6.95198e-05 3.35663e-06 0.000461513
0.00113193 8.35634e-05 -1.35379e-08
8.35634e-05 -8.437e-05 -1.77977e-07
-1.35379e-08 -1.77977e-07 -0.000221695
0.000367641 9.72425e-05 -7.14188e-07
9.72425e-05 -0.000243604 -3.44531e-07
-7.14188e-07 -3.44531e-07 -0.000358117
0.00126068 0.000167911 -2.02938e-07
0.000167911 -5.11665e-05 -1.39274e-08
-2.02938e-07 -1.39274e-08 -0.000212595
0.00030177 -3.32324e-05 1.81419e-05
-3.32324e-05 -0.000261729 -5.8738e-07
1.81419e-05 -5.8738e-07 -0.000345933
0.00108601 3.56731e-05 1.01329e-05
3.56731e-05 -9.51869e-05 1.70507e-07
1.01329e-05 1.70507e-07 -0.000225321
0.00121483 0.000124196 6.84177e-06
0.000124196 -5.1123e-05 1.26278e-06
6.84177e-06 1.26278e-06 -0.000197271
0.00203884 0.000132992 1.7394e-06
0.000132992 7.86436e-05 4.2991e-07
1.7394e-06 4.2991e-07 -4.44066e-06
0.0013504 0.000221483 6.76184e-06
0.000221483 -1.37509e-05 2.42694e-06
6.76184e-06 2.42694e-06 -0.000194856
0.00212138 0.000290449 1.9581e-06
0.000290449 0.000135679 -3.32625e-07
1.9581e-06 -3.32625e-07 3.09065e-06
0.00629569 -7.84049e-05 -0.000341358
-7.84049e-05 0.0037065 4.55358e-06
-0.000341358 4.55358e-06 0.00373617
0.00150083 -0.000165624 -7.47282e-05
-0.000165624 0.000656502 9.12833e-06
-7.47282e-05 9.12833e-06 0.000598215
-0.000229159 -9.66827e-06 -1.11005e-05
-9.66827e-06 -0.000590716 9.32355e-07
-1.11005e-05 9.32355e-07 -0.000692122
0.00209792 -7.81459e-05 -0.000139856
-7.81459e-05 0.000889365 9.65961e-06
-0.000139856 9.65961e-06 0.000815978
0.00779538 0.000209493 -5.9255e-05
0.000209493 0.00465937 3.33289e-06
-5.9255e-05 3.33289e-06 0.0046157
0.00307673 -0.000301154 -0.00016619
-0.000301154 0.00155076 3.19381e-05
-0.00016619 3.19381e-05 0.00142292
0.00218348 -0.00014543 -0.000144851
-0.00014543 0.000921015 1.91841e-05
-0.000144851 1.91841e-05 0.000834008
0.00208993 -0.000251879 -2.5654e-05
-0.000251879 0.000508864 4.78684e-06
-2.5654e-05 4.78684e-06 0.000338549
0.00214922 -0.000355243 -3.20191e-05
-0.000355243 0.000594303 1.0249e-05
-3.20191e-05 1.0249e-05 0.000368734
0.00226854 -0.000462233 -3.96956e-05
-0.000462233 0.000769641 1.28884e-05
-3.96956e-05 1.28884e-05 0.000481245
0.00197559 -0.000529096 -5.48393e-06
-0.000529096 0.000283744 -1.10483e-06
-5.48393e-06 -1.10483e-06 -1.24925e-05
0.000309882 2.5279e-06 7.34584e-08
2.5279e-06 -0.000254039 3.95518e-07
7.34584e-08 3.95518e-07 -0.000340189
0.00194801 -9.70131e-05 -3.80748e-05
-9.70131e-05 0.000809709 6.41581e-07
-3.80748e-05 6.41581e-07 0.00072991
0.00163854 -8.41634e-05 -1.26882e-05
-8.41634e-05 0.000257858 7.15924e-07
-1.26882e-05 7.15924e-07 0.000135416
0.00199902 -0.000195817 -1.13858e-05
-0.000195817 0.000462466 1.95814e-06
-1.13858e-05 1.95814e-06 0.000306891
0.0073486 4.38897e-05 3.30924e-06
4.38897e-05 0.00439776 3.18421e-07
3.30924e-06 3.18421e-07 0.00440077
0.00170909 -0.000219538 8.24912e-06
-0.000219538 0.000694486 1.91377e-07
8.24912e-06 1.91377e-07 0.00053598
0.00153498 -0.000406873 -1.16555e-06
-0.000406873 0.000364724 -1.14733e-06
-1.16555e-06 -1.14733e-06 6.51302e-05
0.00209646 -0.00030892 -1.00171e-05
-0.00030892 0.000526289 2.70331e-06
-1.00171e-05 2.70331e-06 0.000330014
0.00214698 -0.000367646 1.22145e-06
-0.000367646 0.000222747 -7.72056e-07
1.22145e-06 -7.72056e-07 5.08065e-05
0.00204783 -0.000591433 1.54947e-06
-0.000591433 0.000390734 2.44846e-08
1.54947e-06 2.44846e-08 4.46116e-05
0.00196963 -0.000482867 1.67096e-07
-0.000482867 0.000221301 -1.22707e-07
1.67096e-07 -1.22707e-07 -3.71038e-05
0.00211355 -0.000598926 9.17724e-07
-0.000598926 0.000269655 2.66682e-07
9.17724e-07 2.66682e-07 -5.92326e-06
0.000437753 -0.000195691 1.68332e-06
-0.000195691 -9.38916e-05 1.80922e-07
1.68332e-06 1.80922e-07 -0.000216883
0.000843302 -0.000229955 4.31302e-07
-0.000229955 0.000217269 6.95276e-07
4.31302e-07 6.95276e-07 -4.65531e-05
0.00109971 -4.15095e-05 1.05585e-05
-4.15095e-05 -7.80904e-05 -1.55515e-07
1.05585e-05 -1.55515e-07 -0.000208085
0.0020415 -0.000140082 5.37025e-06
-0.000140082 0.000512162 9.503e-08
5.37025e-06 9.503e-08 0.000380502
0.00184649 -0.000143887 2.84148e-06
-0.000143887 -2.17163e-05 -3.82114e-07
2.84148e-06 -3.82114e-07 -0.000123412
0.00215102 -0.000296435 -7.77565e-07
-0.000296435 0.000191371 1.27828e-06
-7.77565e-07 1.27828e-06 6.31976e-05
0.00187379 -0.000427303 -9.11974e-10
-0.000427303 9.65858e-05 7.82434e-07
-9.11974e-10 7.82434e-07 -0.000118644
0.00225298 -0.000410977 5.32202e-06
-0.000410977 0.000207606 -1.25433e-06
5.32202e-06 -1.25433e-06 7.25981e-05
0.000186591 -0.000196745 2.09621e-05
-0.000196745 -0.000265288 -2.36533e-05
2.09621e-05 -2.36533e-05 -0.000407535
0.00208729 -0.000543416 2.06446e-06
-0.000543416 0.000196989 2.67727e-06
2.06446e-06 2.67727e-06 -2.69587e-05
0.00110989 -0.000333312 1.62073e-05
-0.000333312 0.000194409 -8.75094e-06
1.62073e-05 -8.75094e-06 -9.06048e-05
0.00173899 -0.00064123 1.65807e-05
-0.00064123 0.000283047 8.13969e-07
1.65807e-05 8.13969e-07 -0.000127278
0.0023687 -0.000671829 2.23146e-06
-0.000671829 0.000496049 3.89727e-06
2.23146e-06 3.89727e-06 0.000154058
0.0023781 -0.000637824 -1.26249e-06
-0.000637824 0.00040347 4.47799e-06
-1.26249e-06 4.47799e-06 0.000152082
0.000605667 -0.000222608 3.55986e-06
-0.000222608 3.72202e-05 -3.83028e-06
3.55986e-06 -3.83028e-06 -0.000243773
0.00119911 -0.000192181 3.86551e-06
-0.000192181 0.000449972 -3.01399e-06
3.86551e-06 -3.01399e-06 0.000219858
0.00141062 -0.000349042 -1.17047e-06
-0.000349042 0.000592048 -1.78767e-06
-1.17047e-06 -1.78767e-06 0.000250722
0.000336475 0.000127241 -1.66383e-05
0.000127241 -0.000267735 -1.13971e-05
-1.66383e-05 -1.13971e-05 -0.000391925
0.00549259 -0.000137553 -0.00018361
-0.000137553 0.00325894 -1.45755e-05
-0.00018361 -1.45755e-05 0.00325079
0.000378271 8.50253e-05 -1.84248e-05
8.50253e-05 -9.23236e-05 -1.43527e-05
-1.84248e-05 -1.43527e-05 -0.000172207
0.00029452 0.000183714 -1.95273e-05
0.000183714 -0.000261359 -1.79369e-05
-1.95273e-05 -1.79369e-05 -0.000403067
0.00129079 0.000320314 -1.61059e-05
0.000320314 8.61201e-06 -6.52267e-06
-1.61059e-05 -6.52267e-06 -0.000224638
0.000271602 0.000197041 -2.31766e-05
0.000197041 -0.000202887 -2.20937e-05
-2.31766e-05 -2.20937e-05 -0.000330515
0.000827395 0.000308215 -1.70391e-05
0.000308215 1.90152e-05 -9.26074e-06
-1.70391e-05 -9.26074e-06 -0.000248022
0.00116568 0.00036927 -2.57189e-05
0.00036927 5.39602e-05 -9.00659e-06
-2.57189e-05 -9.00659e-06 -0.000218466
0.00184656 0.000617361 -1.01875e-05
0.000617361 0.000370363 1.91443e-06
-1.01875e-05 1.91443e-06 -1.05611e-05
0.000446366 0.000168713 -3.73919e-06
0.000168713 -7.60041e-05 1.69681e-06
-3.73919e-06 1.69681e-06 -0.000180627
0.000401318 3.42692e-05 1.39376e-06
3.42692e-05 -4.87969e-05 3.0694e-07
1.39376e-06 3.0694e-07 -0.000122286
0.000842281 0.000209535 9.76902e-07
0.000209535 0.000214884 6.53808e-07
9.76902e-07 6.53808e-07 1.39667e-06
0.00134241 0.000276562 -2.43465e-07
0.000276562 2.28305e-06 -3.36951e-07
-2.43465e-07 -3.36951e-07 -0.00020502
0.00128556 0.000354891 1.90069e-07
0.000354891 5.40201e-05 -3.12139e-07
1.90069e-07 -3.12139e-07 -0.000200501
0.00207771 0.000511277 -3.74655e-07
0.000511277 0.000257614 -1.5762e-07
-3.74655e-07 -1.5762e-07 -4.78754e-06
0.000642682 0.000253035 -5.48972e-07
0.000253035 -7.16826e-07 1.39527e-07
-5.48972e-07 1.39527e-07 -0.000251071
0.00208709 0.000616859 -1.05868e-06
0.000616859 0.000429829 -4.92365e-07
-1.05868e-06 -4.92365e-07 8.29765e-05
0.00162131 0.000597585 -5.41302e-07
0.000597585 0.000375787 -1.66687e-06
-5.41302e-07 -1.66687e-06 -4.08905e-05
0.00167687 0.000655936 -1.32814e-06
0.000655936 0.000156792 2.57099e-06
-1.32814e-06 2.57099e-06 -0.000219938
0.000398352 1.60259e-05 5.52583e-06
1.60259e-05 -4.5089e-05 1.32856e-05
5.52583e-06 1.32856e-05 -0.000109083
0.00137692 0.000255005 5.47455e-06
0.000255005 0.000536169 2.38994e-06
5.47455e-06 2.38994e-06 0.00028653
0.000941433 0.000140681 4.40595e-06
0.000140681 0.00029316 2.3563e-06
4.40595e-06 2.3563e-06 0.000106351
2.78459e-05 0.000164725 -2.74313e-06
0.000164725 -0.000278379 3.84456e-06
-2.74313e-06 3.84456e-06 -0.000548881
0.00213033 0.000450057 2.32785e-06
0.000450057 0.00023021 -1.85522e-06
2.32785e-06 -1.85522e-06 1.32861e-05
0.00205486 0.0005689 5.05751e-06
0.0005689 0.000323723 -7.00616e-07
5.05751e-06 -7.00616e-07 1.55159e-05
0.00220462 0.000576834 7.85682e-07
0.000576834 0.000256843 -1.34676e-06
7.85682e-07 -1.34676e-06 1.26982e-05
0.00112542 0.000462916 -1.58771e-06
0.000462916 0.000173227 -3.17317e-06
-1.58771e-06 -3.17317e-06 -0.000195049
0.00245091 0.000722852 -5.98126e-06
0.000722852 0.000564599 -3.599e-06
-5.98126e-06 -3.599e-06 0.000221465
0.00212348 0.000760279 -1.09906e-05
0.000760279 0.000581345 -1.16161e-05
-1.09906e-05 -1.16161e-05 0.000107165
0.00209554 0.000697893 -3.58084e-06
0.000697893 0.000316781 -3.37786e-06
-3.58084e-06 -3.37786e-06 -4.03317e-05
0.000617239 7.3987e-05 7.39315e-07
7.3987e-05 0.000129095 6.40941e-06
7.39315e-07 6.40941e-06 2.85799e-05
0.000470401 7.18748e-06 2.53021e-06
7.18748e-06 -6.2406e-06 9.86672e-06
2.53021e-06 9.86672e-06 -4.90493e-05
0.00349357 -0.000128806 6.76368e-05
-0.000128806 0.00195612 5.67307e-06
6.76368e-05 5.67307e-06 0.00195125
0.00387935 -0.000165359 1.13717e-05
-0.000165359 0.00222018 -1.10851e-06
1.13717e-05 -1.10851e-06 0.00220536
0.00427691 -0.000209182 -7.48671e-05
-0.000209182 0.0024949 -7.3227e-06
-7.48671e-05 -7.3227e-06 0.00246731
0.000455928 -0.000175006 2.66332e-05
-0.000175006 -3.63644e-05 -1.70097e-05
2.66332e-05 -1.70097e-05 -0.000128071
0.00566611 0.000128669 0.000183764
0.000128669 0.00337638 -2.06325e-05
0.000183764 -2.06325e-05 0.00336385
0.000500226 -0.000177657 2.40112e-06
-0.000177657 -3.23562e-05 7.95027e-07
2.40112e-06 7.95027e-07 -0.000142061
0.00653929 7.49798e-05 6.3541e-06
7.49798e-05 0.00391098 2.77581e-07
6.3541e-06 2.77581e-07 0.0039076
0.00035076 0.00012251 -1.74809e-05
0.00012251 -0.000254178 -9.01703e-06
-1.74809e-05 -9.01703e-06 -0.000371592
0.000310032 3.6748e-05 -1.62225e-05
3.6748e-05 -0.000264146 -3.7281e-06
-1.62225e-05 -3.7281e-06 -0.000362164
0.00124098 0.000169637 -5.69185e-06
0.000169637 -6.16741e-05 -1.51297e-06
-5.69185e-06 -1.51297e-06 -0.000224528
0.0011098 8.59697e-05 -9.38916e-06
8.59697e-05 -0.000101914 -7.59409e-07
-9.38916e-06 -7.59409e-07 -0.000240092
0.000361258 -7.28651e-06 -1.81708e-05
-7.28651e-06 -0.000226284 -7.4e-07
-1.81708e-05 -7.4e-07 -0.000312053
0.00637392 -0.000103426 -0.000348755
-0.000103426 0.00376049 6.29321e-06
-0.000348755 6.29321e-06 0.00378863
0.000355863 -3.32095e-06 3.29988e-08
-3.32095e-06 -0.000228456 -7.22098e-07
3.29988e-08 -7.22098e-07 -0.000312463
0.00109368 4.11533e-05 -3.70307e-08
4.11533e-05 -9.23148e-05 9.90452e-08
-3.70307e-08 9.90452e-08 -0.000222822
0.0011901 0.000125642 -1.34102e-07
0.000125642 -7.15402e-05 7.56279e-08
-1.34102e-07 7.56279e-08 -0.000218814
0.00202106 0.000131021 -4.46478e-08
0.000131021 7.23058e-05 2.1082e-07
-4.46478e-08 2.1082e-07 -1.10979e-05
0.00132781 0.000221715 -3.61413e-07
0.000221715 -2.10066e-05 -2.86208e-07
-3.61413e-07 -2.86208e-07 -0.00020347
0.0020852 0.000286862 -4.43601e-07
0.000286862 0.00011758 1.14573e-07
-4.43601e-07 1.14573e-07 -1.46054e-05
0.00106433 -4.7954e-06 1.03776e-05
-4.7954e-06 -0.000102226 -1.86647e-07
1.03776e-05 -1.86647e-07 -0.00023053
0.00205078 6.50527e-05 3.26591e-06
6.50527e-05 0.000100767 3.11087e-07
3.26591e-06 3.11087e-07 2.34023e-05
0.00201154 0.000203557 6.92095e-07
0.000203557 5.00761e-05 2.88686e-07
6.92095e-07 2.88686e-07 -5.07999e-05
0.00221341 0.000157895 5.68039e-06
0.000157895 8.32962e-05 7.65167e-07
5.68039e-06 7.65167e-07 5.46647e-05
0.00217309 0.000377744 2.80945e-06
0.000377744 0.000205779 -7.53954e-07
2.80945e-06 -7.53954e-07 3.28266e-05
0.00212041 0.000312835 4.39616e-06
0.000312835 4.95262e-05 1.17052e-06
4.39616e-06 1.17052e-06 -3.24792e-05
0.000344689 -4.54843e-06 -1.73927e-05
-4.54843e-06 -0.000228573 3.19612e-07
-1.73927e-05 3.19612e-07 -0.00031698
0.00205334 -5.25614e-05 -0.000139225
-5.25614e-05 0.000866129 6.21035e-06
-0.000139225 6.21035e-06 0.000798998
0.00126093 -7.95489e-05 -1.93684e-05
-7.95489e-05 1.47634e-05 1.29126e-06
-1.93684e-05 1.29126e-06 -0.000111831
0.00191264 -0.000192134 -2.32805e-05
-0.000192134 0.000399962 3.46743e-06
-2.32805e-05 3.46743e-06 0.000240747
0.00765806 1.22941e-05 -0.000318341
1.22941e-05 0.0045868 3.37951e-05
-0.000318341 3.37951e-05 0.00459299
0.00359275 -0.000307028 -0.000185153
-0.000307028 0.00189348 2.9633e-05
-0.000185153 2.9633e-05 0.00177039
0.00180008 -0.000441672 -3.23964e-05
-0.000441672 0.000547262 1.08498e-05
-3.23964e-05 1.08498e-05 0.00024321
0.00213662 -0.000313045 -2.97545e-05
-0.000313045 0.000548502 7.83488e-06
-2.97545e-05 7.83488e-06 0.000351173
0.00218287 -0.000374635 -2.09758e-06
-0.000374635 0.000239401 -1.18286e-06
-2.09758e-06 -1.18286e-06 7.35163e-05
0.00207551 -0.000485707 -3.76502e-06
-0.000485707 0.000295939 -7.58025e-08
-3.76502e-06 -7.58025e-08 3.64999e-05
0.00205825 -0.000592723 -6.77583e-06
-0.000592723 0.000393317 -1.85382e-06
-6.77583e-06 -1.85382e-06 4.82801e-05
0.00218339 -0.000603992 -1.04177e-06
-0.000603992 0.000318816 -3.81935e-06
-1.04177e-06 -3.81935e-06 4.21216e-05
0.000424614 -0.000207266 -2.32627e-05
-0.000207266 -0.000100291 2.10522e-05
-2.32627e-05 2.10522e-05 -0.000228148
0.00053105 -0.000228235 -9.71028e-07
-0.000228235 3.12345e-05 3.10034e-06
-9.71028e-07 3.10034e-06 -0.000239448
0.0011533 -3.69329e-05 5.0104e-07
-3.69329e-05 -4.42765e-05 2.15331e-08
5.0104e-07 2.15331e-08 -0.000169137
0.00201408 -0.000139694 -1.13183e-05
-0.000139694 0.00049205 1.50942e-06
-1.13183e-05 1.50942e-06 0.00036077
0.00190884 -0.000141385 1.6862e-06
-0.000141385 1.7269e-05 -2.25226e-07
1.6862e-06 -2.25226e-07 -7.92566e-05
0.00201855 -0.000292912 -2.276e-06
-0.000292912 0.000104707 8.70399e-07
-2.276e-06 8.70399e-07 -3.40926e-05
0.000364425 -0.000220519 7.42327e-07
-0.000220519 -0.000151949 6.64849e-07
7.42327e-07 6.64849e-07 -0.000296037
0.000732368 -0.000324975 -2.15723e-06
-0.000324975 -4.01686e-05 1.39845e-07
-2.15723e-06 1.39845e-07 -0.000330106
0.00174838 -0.000639397 1.95799e-06
-0.000639397 0.000294244 -6.53658e-08
1.95799e-06 -6.53658e-08 -0.000117644
0.00196785 -0.000429951 -2.47551e-06
-0.000429951 0.000165058 7.14476e-07
-2.47551e-06 7.14476e-07 -5.32542e-05
0.0021811 -0.000409201 1.89055e-06
-0.000409201 0.000151172 -5.67427e-07
1.89055e-06 -5.67427e-07 2.31498e-05
0.00240614 -0.000678436 -4.03489e-07
-0.000678436 0.000516139 -1.06043e-06
-4.03489e-07 -1.06043e-06 0.000176418
0.00211468 -0.000546445 4.94351e-07
-0.000546445 0.000213333 1.56254e-07
4.94351e-07 1.56254e-07 -1.16116e-05
0.00219371 -0.000628905 5.80152e-07
-0.000628905 0.000278756 9.58514e-07
5.80152e-07 9.58514e-07 2.61337e-05
0.000596395 -0.000225475 -1.02529e-07
-0.000225475 3.5005e-05 -1.02371e-06
-1.02529e-07 -1.02371e-06 -0.00024845
0.000726598 -0.000239843 -1.35542e-06
-0.000239843 0.000124684 -1.34914e-06
-1.35542e-06 -1.34914e-06 -0.000183741
0.000659486 -0.00017585 2.82196e-06
-0.00017585 0.000135091 1.11474e-06
2.82196e-06 1.11474e-06 -0.000106835
0.00183603 -6.7825e-05 3.35586e-06
-6.7825e-05 -2.49963e-05 -2.52704e-07
3.35586e-06 -2.52704e-07 -0.000116827
0.00199093 -0.000212319 -5.29317e-08
-0.000212319 6.4443e-05 4.11248e-07
-5.29317e-08 4.11248e-07 -4.51454e-05
0.00206001 -0.000149579 7.99722e-06
-0.000149579 -1.89073e-07 -6.49947e-07
7.99722e-06 -6.49947e-07 -4.46726e-05
0.00219622 -0.000335103 3.22378e-06
-0.000335103 0.00010797 -1.13738e-06
3.22378e-06 -1.13738e-06 2.43241e-05
0.00203567 -0.000487345 1.09026e-06
-0.000487345 0.000107609 1.88647e-06
1.09026e-06 1.88647e-06 -6.67627e-05
0.00227466 -0.000429459 3.74321e-06
-0.000429459 0.000142373 -4.66731e-07
3.74321e-06 -4.66731e-07 6.45911e-05
0.0006151 -0.000256881 1.00117e-05
-0.000256881 -1.8924e-05 -5.8516e-06
1.00117e-05 -5.8516e-06 -0.00028697
0.00216922 -0.000586282 7.40317e-07
-0.000586282 0.00019239 7.06033e-07
7.40317e-07 7.06033e-07 -6.69413e-06
0.00155937 -0.000616826 1.42961e-05
-0.000616826 0.000336595 -1.25302e-06
1.42961e-05 -1.25302e-06 -0.000100889
0.00208772 -0.000776677 9.32289e-06
-0.000776677 0.000399545 5.66546e-06
9.32289e-06 5.66546e-06 -4.24922e-05
0.00245904 -0.000700485 3.53343e-06
-0.000700485 0.000518649 4.77058e-06
3.53343e-06 4.77058e-06 0.000197974
0.0024658 -0.000669829 -1.28609e-07
-0.000669829 0.000456455 1.08931e-06
-1.28609e-07 1.08931e-06 0.000211006
0.000495798 -0.000142179 -9.37333e-08
-0.000142179 7.37318e-05 -5.46584e-06
-9.37333e-08 -5.46584e-06 -0.000160268
0.00170453 -0.000403823 1.15238e-06
-0.000403823 0.000643575 -3.10771e-06
1.15238e-06 -3.10771e-06 0.00031363
-0.000560205 -0.000125809 2.49333e-06
-0.000125809 -0.000582414 1.0341e-06
2.49333e-06 1.0341e-06 -0.00089061
0.00208967 -0.000505592 1.67552e-06
-0.000505592 0.000969381 1.0007e-06
1.67552e-06 1.0007e-06 0.000575658
0.00130421 0.000275347 -1.2011e-05
0.000275347 -1.54894e-05 -4.72341e-06
-1.2011e-05 -4.72341e-06 -0.000223959
0.00037401 7.13669e-06 -3.6219e-06
7.13669e-06 -5.41002e-05 -1.55617e-05
-3.6219e-06 -1.55617e-05 -0.000130697
0.000419798 0.000130976 -2.30218e-05
0.000130976 -8.26728e-05 -1.6107e-05
-2.30218e-05 -1.6107e-05 -0.000185772
-9.24203e-05 0.000149454 -5.50001e-06
0.000149454 -0.000361936 9.30192e-07
-5.50001e-06 9.30192e-07 -0.000578326
0.00123121 0.000350771 -2.09449e-05
0.000350771 2.36156e-05 -8.25142e-06
-2.09449e-05 -8.25142e-06 -0.000231207
0.00205665 0.000509218 -4.7402e-06
0.000509218 0.000243361 4.97563e-07
-4.7402e-06 4.97563e-07 -1.88585e-05
0.000436448 0.000218141 -8.58913e-06
0.000218141 -0.000135677 -3.76391e-06
-8.58913e-06 -3.76391e-06 -0.000370764
0.00155012 0.000592994 -7.82746e-06
0.000592994 0.000317718 6.93494e-07
-7.82746e-06 6.93494e-07 -9.81713e-05
0.00208351 0.000612749 -5.03637e-06
0.000612749 0.000426241 1.81559e-06
-5.03637e-06 1.81559e-06 7.90929e-05
0.0016537 0.000659554 6.57231e-06
0.000659554 0.000130194 1.08025e-05
6.57231e-06 1.08025e-05 -0.000243059
0.000397754 -2.04736e-06 -3.87443e-06
-2.04736e-06 -3.76984e-05 8.10392e-07
-3.87443e-06 8.10392e-07 -0.000102437
0.000605114 0.000223531 -1.16928e-07
0.000223531 7.15602e-05 -1.25811e-06
-1.16928e-07 -1.25811e-06 -0.000182744
0.000541961 0.000124019 2.30979e-06
0.000124019 4.17719e-05 -1.35624e-06
2.30979e-06 -1.35624e-06 -0.000142727
0.000678841 0.000198225 -2.23697e-06
0.000198225 0.000119092 2.78686e-06
-2.23697e-06 2.78686e-06 -0.000150831
0.00210797 0.000448091 -1.76054e-06
0.000448091 0.000214691 -1.32669e-06
-1.76054e-06 -1.32669e-06 -2.08729e-06
0.00201535 0.000566573 -6.1761e-07
0.000566573 0.000297148 -2.79519e-07
-6.1761e-07 -2.79519e-07 -1.12503e-05
0.00217962 0.000572801 1.3508e-07
0.000572801 0.00024524 2.17758e-07
1.3508e-07 2.17758e-07 2.30943e-06
0.00146152 0.000485634 3.10669e-06
0.000485634 0.000404228 3.45574e-08
3.10669e-06 3.45574e-08 3.41298e-05
0.00234125 0.000705736 9.76419e-07
0.000705736 0.000505661 7.6064e-07
9.76419e-07 7.6064e-07 0.000162801
0.0018743 0.000727867 -1.02718e-06
0.000727867 0.000433052 -2.11275e-06
-1.02718e-06 -2.11275e-06 -3.44121e-05
0.00212261 0.000683543 -6.04093e-06
0.000683543 0.000343309 2.57555e-06
-6.04093e-06 2.57555e-06 -2.05382e-06
0.00050186 3.74896e-06 3.49765e-06
3.74896e-06 1.41324e-05 1.15997e-05
3.49765e-06 1.15997e-05 -3.63294e-05
0.00119011 9.8117e-05 5.18988e-07
9.8117e-05 0.000479121 8.03182e-06
5.18988e-07 8.03182e-06 0.000312399
0.000749393 0.000318572 -5.08849e-06
0.000318572 7.30194e-05 6.24909e-07
-5.08849e-06 6.24909e-07 -0.000219431
0.00138037 0.000173792 3.79375e-06
0.000173792 0.000614625 -3.54731e-06
3.79375e-06 -3.54731e-06 0.00033118
0.000878894 0.000184254 -1.01254e-06
0.000184254 0.000152958 1.06961e-05
-1.01254e-06 1.06961e-05 -9.07463e-05
0.00221639 0.000502904 5.47366e-07
0.000502904 0.000193371 -2.81066e-06
5.47366e-07 -2.81066e-06 2.36519e-06
0.00219153 0.000649684 -1.59211e-06
0.000649684 0.000324079 -2.14596e-06
-1.59211e-06 -2.14596e-06 2.57173e-05
0.00215486 0.000622766 -3.61009e-06
0.000622766 0.000211538 -1.42266e-06
-3.61009e-06 -1.42266e-06 -3.24802e-05
0.00176319 0.000714158 -1.71096e-06
0.000714158 0.00057526 -5.28834e-06
-1.71096e-06 -5.28834e-06 7.60002e-05
0.00252135 0.000765895 -5.74719e-06
0.000765895 0.00054804 -3.32401e-06
-5.74719e-06 -3.32401e-06 0.000208848
0.00183095 0.000769808 5.37293e-06
0.000769808 0.00032913 -6.18055e-06
5.37293e-06 -6.18055e-06 -0.000122466
0.000527123 7.21421e-05 3.66019e-07
7.21421e-05 6.03992e-05 6.31899e-06
3.66019e-07 6.31899e-06 -5.03395e-05
0.000678841 0.000135927 -2.6462e-06
0.000135927 0.000232192 2.51927e-06
-2.6462e-06 2.51927e-06 5.77071e-05
0.000600558 6.9756e-05 5.7021e-07
6.9756e-05 0.000116076 5.40382e-06
5.7021e-07 5.40382e-06 2.72913e-05
0.000506909 2.33053e-05 -9.46483e-07
2.33053e-05 5.608e-05 6.05923e-08
-9.46483e-07 6.05923e-08 -4.26276e-05
0.00151124 -1.94425e-05 1.98024e-06
-1.94425e-05 0.000665286 5.84826e-06
1.98024e-06 5.84826e-06 0.000633256
0.000967883 -7.16335e-06 1.57276e-07
-7.16335e-06 0.000315544 8.8289e-09
1.57276e-07 8.8289e-09 0.000275405
0.000895527 -3.92095e-05 4.93355e-05
-3.92095e-05 0.000267453 1.18551e-05
4.93355e-05 1.18551e-05 0.000261781
0.00341692 -0.000137491 1.08466e-05
-0.000137491 0.00190842 -1.04345e-06
1.08466e-05 -1.04345e-06 0.00190115
0.00371186 -0.000169516 -6.21821e-05
-0.000169516 0.0021143 -6.02118e-06
-6.21821e-05 -6.02118e-06 0.00209791
0.0003426 -0.000104029 1.54212e-05
-0.000104029 -7.20541e-05 -1.45492e-05
1.54212e-05 -1.45492e-05 -0.000148932
0.00514941 0.000184187 0.000126916
0.000184187 0.00306779 -1.659e-05
0.000126916 -1.659e-05 0.00304047
0.000486799 -0.000150022 9.61956e-07
-0.000150022 -8.36447e-06 9.79095e-07
9.61956e-07 9.79095e-07 -0.000108276
0.00589933 0.000124255 -2.89176e-07
0.000124255 0.0035315 1.12234e-06
-2.89176e-07 1.12234e-06 0.00351628
0.000503562 -0.000178803 -2.35821e-05
-0.000178803 -3.27595e-05 1.93351e-05
-2.35821e-05 1.93351e-05 -0.000145431
0.00681618 7.93159e-05 -0.000258694
7.93159e-05 0.00409066 3.00573e-05
-0.000258694 3.00573e-05 0.00408506
0.00129864 0.00022123 -8.01238e-06
0.00022123 -3.13292e-05 -2.93496e-06
-8.01238e-06 -2.93496e-06 -0.000214994
0.0011578 0.000128386 -7.24754e-06
0.000128386 -9.37303e-05 -1.08005e-06
-7.24754e-06 -1.08005e-06 -0.000242373
0.00209013 0.000281017 -1.95625e-06
0.000281017 0.000128468 1.01174e-06
-1.95625e-06 1.01174e-06 -2.48062e-06
0.00199367 0.000128972 -2.02185e-06
0.000128972 6.01649e-05 8.75751e-09
-2.02185e-06 8.75751e-09 -2.36048e-05
0.00109447 4.62808e-05 -1.01799e-05
4.62808e-05 -9.42819e-05 -2.02941e-08
-1.01799e-05 -2.02941e-08 -0.000225215
0.000315957 2.85473e-05 -1.82234e-05
2.85473e-05 -0.000256323 -9.97082e-07
-1.82234e-05 -9.97082e-07 -0.000338654
0.00106548 -7.31559e-07 -1.75783e-08
-7.31559e-07 -0.000101189 -3.17811e-10
-1.75783e-08 -3.17811e-10 -0.0002295
0.00199837 6.4319e-05 2.03455e-08
6.4319e-05 6.79662e-05 1.37051e-07
2.03455e-08 1.37051e-07 -9.77561e-06
0.00205812 0.000201716 -2.13812e-07
0.000201716 9.09035e-05 3.42803e-07
-2.13812e-07 3.42803e-07 -9.4599e-06
0.00218679 0.00015254 -4.21745e-07
0.00015254 5.64475e-05 1.91295e-07
-4.21745e-07 1.91295e-07 3.31671e-05
0.00211823 0.00037271 -7.49828e-07
0.00037271 0.000172455 -1.45664e-07
-7.49828e-07 -1.45664e-07 3.1244e-07
0.00218171 0.000317762 1.11114e-07
0.000317762 8.94076e-05 2.55243e-07
1.11114e-07 2.55243e-07 5.87511e-06
0.00202323 -2.57671e-06 3.46058e-06
-2.57671e-06 9.2452e-05 9.0101e-08
3.46058e-06 9.0101e-08 1.51867e-05
0.00213815 7.24895e-05 4.716e-06
7.24895e-05 3.33829e-05 3.99021e-07
4.716e-06 3.99021e-07 1.5405e-05
0.00220138 0.000230058 5.58321e-06
0.000230058 8.02327e-05 9.87301e-07
5.58321e-06 9.87301e-07 3.73204e-05
0.00212934 0.000133807 4.01655e-06
0.000133807 1.11392e-05 9.85413e-07
4.01655e-06 9.85413e-07 1.10615e-05
0.00216199 0.000416798 2.55085e-06
0.000416798 0.000113866 3.34327e-07
2.55085e-06 3.34327e-07 -2.32709e-05
0.00221778 0.000334272 2.09901e-06
0.000334272 4.89916e-06 3.11659e-07
2.09901e-06 3.11659e-07 -1.21047e-05
0.00120466 -3.32742e-05 -1.13586e-05
-3.32742e-05 -1.16773e-05 4.78568e-07
-1.13586e-05 4.78568e-07 -0.000131486
0.00202526 -0.000139547 -2.70977e-05
-0.000139547 0.000497692 2.39764e-06
-2.70977e-05 2.39764e-06 0.000366808
0.00200879 -0.000137848 -1.15872e-06
-0.000137848 8.01786e-05 -3.46506e-07
-1.15872e-06 -3.46506e-07 -1.09597e-05
0.00186678 -0.000287886 -5.12354e-07
-0.000287886 4.19457e-06 4.38993e-07
-5.12354e-07 4.38993e-07 -0.000145289
0.000567322 -0.000259539 -2.75596e-05
-0.000259539 -2.32833e-05 2.41495e-05
-2.75596e-05 2.41495e-05 -0.000169384
0.000755441 -0.000334847 -1.52069e-05
-0.000334847 -3.32961e-05 7.6896e-06
-1.52069e-05 7.6896e-06 -0.000328313
0.00175646 -0.000642478 -1.18196e-05
-0.000642478 0.000296311 1.3655e-07
-1.18196e-05 1.3655e-07 -0.000119187
0.0020541 -0.000431757 -4.19988e-06
-0.000431757 0.000228357 4.00402e-07
-4.19988e-06 4.00402e-07 7.15458e-06
0.00210818 -0.000406942 -1.04535e-06
-0.000406942 9.35639e-05 -1.06445e-07
-1.04535e-06 -1.06445e-07 -2.71441e-05
0.00215156 -0.00055038 -2.48099e-06
-0.00055038 0.000235821 -1.96227e-06
-2.48099e-06 -1.96227e-06 9.65212e-06
0.0023961 -0.000679825 -9.57125e-07
-0.000679825 0.000507111 -7.32687e-06
-9.57125e-07 -7.32687e-06 0.000170913
0.00199312 -0.000615863 1.89955e-06
-0.000615863 0.000144272 -1.96083e-06
1.89955e-06 -1.96083e-06 -0.000108292
0.00108675 -0.000280621 -8.8233e-06
-0.000280621 0.000343432 3.95956e-06
-8.8233e-06 3.95956e-06 5.56277e-05
0.000269075 -0.000178196 -9.37752e-07
-0.000178196 -0.000167542 3.2097e-06
-9.37752e-07 3.2097e-06 -0.000463501
0.000432171 -0.000216576 -1.29517e-08
-0.000216576 -1.5721e-06 4.4982e-06
-1.29517e-08 4.4982e-06 -0.000246708
0.00191641 -6.45953e-05 1.99666e-06
-6.45953e-05 2.65266e-05 -1.73355e-07
1.99666e-06 -1.73355e-07 -5.97219e-05
0.00201366 -0.00022093 -7.31446e-08
-0.00022093 8.25867e-05 -2.4462e-07
-7.31446e-08 -2.4462e-07 -2.70406e-05
0.00213527 -0.000147895 1.37774e-06
-0.000147895 4.17766e-05 -1.21295e-07
1.37774e-06 -1.21295e-07 4.6021e-06
0.00209693 -0.000321581 -1.51022e-06
-0.000321581 4.84071e-05 2.74186e-07
-1.51022e-06 2.74186e-07 -3.82382e-05
0.000765161 -0.000284359 1.20279e-06
-0.000284359 7.49433e-05 -3.78741e-07
1.20279e-06 -3.78741e-07 -0.000204444
0.00167271 -0.000635215 -3.99343e-07
-0.000635215 0.000411478 -7.83113e-07
-3.99343e-07 -7.83113e-07 -3.06842e-05
0.00198984 -0.000764118 1.33736e-06
-0.000764118 0.000348936 1.11757e-06
1.33736e-06 1.11757e-06 -9.54616e-05
0.00203112 -0.000483342 -4.90524e-07
-0.000483342 0.000111776 7.55044e-07
-4.90524e-07 7.55044e-07 -6.90594e-05
0.00222045 -0.000431322 1.90561e-07
-0.000431322 9.33711e-05 -5.01355e-08
1.90561e-07 -5.01355e-08 2.20033e-05
0.00228244 -0.000691859 -7.53432e-07
-0.000691859 0.000390834 4.72653e-07
-7.53432e-07 4.72653e-07 6.9993e-05
0.00212243 -0.000581857 -6.23156e-07
-0.000581857 0.000160758 7.70472e-07
-6.23156e-07 7.70472e-07 -3.81268e-05
0.00233912 -0.000650696 1.12049e-06
-0.000650696 0.00036957 -5.9372e-07
1.12049e-06 -5.9372e-07 0.00013003
0.000853184 -0.000359296 -2.15209e-06
-0.000359296 0.000135648 5.0753e-07
-2.15209e-06 5.0753e-07 -0.00020647
0.00118438 -0.000403615 1.61977e-07
-0.000403615 0.000395694 1.97709e-06
1.61977e-07 1.97709e-06 1.56408e-05
0.000749884 -0.000171189 -1.47096e-06
-0.000171189 0.000218434 -1.77862e-06
-1.47096e-06 -1.77862e-06 -8.83866e-06
0.000275735 -0.000157044 1.95343e-06
-0.000157044 -0.000107417 1.71871e-06
1.95343e-06 1.71871e-06 -0.000384321
0.0021773 -8.06956e-05 7.35595e-06
-8.06956e-05 7.98952e-05 -4.68521e-07
7.35595e-06 -4.68521e-07 5.01999e-05
0.00203708 -0.000232494 4.45512e-06
-0.000232494 -3.99129e-05 -8.24773e-07
4.45512e-06 -8.24773e-07 -9.67587e-05
0.00210451 -0.000136929 5.28968e-06
-0.000136929 2.63719e-05 -8.0988e-07
5.28968e-06 -8.0988e-07 2.91995e-05
0.00222064 -0.000349158 3.30911e-07
-0.000349158 3.94236e-05 -1.90388e-08
3.30911e-07 -1.90388e-08 2.11321e-05
0.00217897 -0.000521373 3.11594e-07
-0.000521373 0.000126172 3.18366e-07
3.11594e-07 3.18366e-07 -9.44819e-06
0.00228123 -0.000457782 2.77053e-06
-0.000457782 7.02527e-05 -1.67116e-07
2.77053e-06 -1.67116e-07 1.67086e-05
0.00146488 -0.000529746 6.39758e-06
-0.000529746 0.000439143 -2.30783e-06
6.39758e-06 -2.30783e-06 2.90914e-05
0.00217038 -0.000624121 -1.50161e-06
-0.000624121 0.000145902 4.62536e-07
-1.50161e-06 4.62536e-07 -2.41572e-05
0.00179997 -0.000802079 -2.98293e-06
-0.000802079 0.000409448 7.97652e-06
-2.98293e-06 7.97652e-06 -0.000103113
0.00229107 -0.000829892 5.31731e-06
-0.000829892 0.000487207 4.75894e-06
5.31731e-06 4.75894e-06 4.04403e-05
0.00227401 -0.000699426 2.79479e-06
-0.000699426 0.00036262 3.5976e-06
2.79479e-06 3.5976e-06 5.09831e-05
0.00221029 -0.000684449 -4.5155e-06
-0.000684449 0.00023281 -1.78593e-06
-4.5155e-06 -1.78593e-06 -1.4616e-05
0.000458909 -0.000169853 -5.58033e-07
-0.000169853 3.29272e-05 -8.3776e-06
-5.58033e-07 -8.3776e-06 -0.000152748
0.000837625 -0.000182109 1.65495e-06
-0.000182109 0.000304339 1.01236e-06
1.65495e-06 1.01236e-06 -3.69005e-05
0.00138318 -0.000542743 1.06644e-05
-0.000542743 0.000431405 9.60964e-07
1.06644e-05 9.60964e-07 -1.97033e-06
-1.50368e-05 -0.00019278 1.57517e-05
-0.00019278 -0.000341579 -6.59046e-06
1.57517e-05 -6.59046e-06 -0.000622464
0.00156446 -0.00051305 -1.51162e-06
-0.00051305 0.000654053 8.35345e-06
-1.51162e-06 8.35345e-06 0.000197014
0.000352381 -1.32732e-05 -4.13585e-06
-1.32732e-05 -6.37839e-05 -1.29118e-05
-4.13585e-06 -1.29118e-05 -0.000126064
0.0020844 0.000445791 -5.12264e-06
0.000445791 0.000198873 -4.33598e-07
-5.12264e-06 -4.33598e-07 -1.76743e-05
0.00033544 6.10526e-05 1.07643e-07
6.10526e-05 -7.35415e-05 -4.66499e-06
1.07643e-07 -4.66499e-06 -0.00026627
9.93364e-05 0.000225645 -6.86494e-06
0.000225645 -0.000284549 6.60871e-07
-6.86494e-06 6.60871e-07 -0.000508881
0.000739312 0.000216469 -1.30588e-06
0.000216469 0.000157172 5.4239e-06
-1.30588e-06 5.4239e-06 -0.000113223
0.00198136 0.000564576 -4.76509e-06
0.000564576 0.000274737 6.68006e-07
-4.76509e-06 6.68006e-07 -3.39015e-05
0.00215185 0.000568662 4.12538e-07
0.000568662 0.000231545 1.98417e-06
4.12538e-07 1.98417e-06 -1.01812e-05
0.00129948 0.000499269 2.20644e-06
0.000499269 0.000324412 -5.34885e-07
2.20644e-06 -5.34885e-07 -5.9269e-05
0.00175466 0.000721162 5.3131e-06
0.000721162 0.00035429 7.22037e-06
5.3131e-06 7.22037e-06 -0.000115225
0.00220502 0.000685197 4.02181e-06
0.000685197 0.00042863 5.1147e-06
4.02181e-06 5.1147e-06 8.70276e-05
0.00218714 0.000679298 9.30401e-06
0.000679298 0.000389814 1.3881e-05
9.30401e-06 1.3881e-05 5.24007e-05
0.000433378 6.97375e-06 -4.69135e-07
6.97375e-06 -2.70381e-05 1.13492e-07
-4.69135e-07 1.13492e-07 -7.71517e-05
0.000636092 8.14256e-05 -9.21734e-07
8.14256e-05 0.000134312 3.20455e-08
-9.21734e-07 3.20455e-08 -3.01953e-05
0.000852282 0.000350592 3.78389e-06
0.000350592 0.000161428 5.37545e-07
3.78389e-06 5.37545e-07 -0.000136592
0.000483285 0.000123184 4.52813e-07
0.000123184 4.67672e-05 -2.87485e-06
4.52813e-07 -2.87485e-06 -0.000231632
0.000297021 0.000139059 -2.90909e-08
0.000139059 -0.000225001 3.14211e-06
-2.90909e-08 3.14211e-06 -0.000467514
0.00220425 0.00050183 -1.97719e-06
0.00050183 0.000187903 -1.88265e-06
-1.97719e-06 -1.88265e-06 -2.81011e-06
0.00216433 0.000646129 4.296e-07
0.000646129 0.000310012 1.12463e-07
4.296e-07 1.12463e-07 1.27595e-05
0.00214815 0.000623144 1.51672e-06
0.000623144 0.000211684 1.98173e-07
1.51672e-06 1.98173e-07 -3.26822e-05
0.00177833 0.000717939 1.36296e-06
0.000717939 0.000593259 -1.38963e-06
1.36296e-06 -1.38963e-06 8.80976e-05
0.00241418 0.000754628 3.01407e-06
0.000754628 0.00046159 4.55915e-07
3.01407e-06 4.55915e-07 0.000122319
0.00216408 0.000802403 -4.31511e-06
0.000802403 0.000553549 2.22008e-07
-4.31511e-06 2.22008e-07 9.8856e-05
0.000810307 9.53224e-05 9.21339e-07
9.53224e-05 0.000231993 6.77162e-06
9.21339e-07 6.77162e-06 0.000103133
0.00226069 0.000321982 -1.66657e-07
0.000321982 0.00123813 7.70924e-07
-1.66657e-07 7.70924e-07 0.000966817
0.000779397 0.000457562 -5.22488e-07
0.000457562 0.000105924 3.80084e-06
-5.22488e-07 3.80084e-06 -0.000270182
0.00108251 0.00014568 5.81248e-06
0.00014568 0.00028404 5.90602e-07
5.81248e-06 5.90602e-07 3.58804e-05
0.00317261 0.000537906 -1.08915e-06
0.000537906 0.00151256 -9.65715e-08
-1.08915e-06 -9.65715e-08 0.00117549
0.00217275 0.000529925 -3.89153e-06
0.000529925 0.000115057 -1.73186e-06
-3.89153e-06 -1.73186e-06 -5.54903e-05
0.00217206 0.000701462 -4.49763e-06
0.000701462 0.00028105 -1.4459e-06
-4.49763e-06 -1.4459e-06 -1.78567e-05
0.00213828 0.000684966 8.15779e-07
0.000684966 0.000165206 -8.32222e-07
8.15779e-07 -8.32222e-07 -8.94453e-05
0.00125622 0.000734469 9.37629e-06
0.000734469 0.000304006 -6.10048e-06
9.37629e-06 -6.10048e-06 -0.00022487
0.00189629 0.000792871 1.30118e-05
0.000792871 0.000268025 -2.85593e-06
1.30118e-05 -2.85593e-06 -0.000144466
0.000587833 6.68394e-05 -7.52482e-08
6.68394e-05 0.0001005 1.12002e-07
-7.52482e-08 1.12002e-07 -9.53533e-06
0.000534662 0.000138018 1.42573e-06
0.000138018 8.87444e-05 1.0982e-06
1.42573e-06 1.0982e-06 -6.21382e-05
-3.56793e-05 8.65384e-05 1.95482e-07
8.65384e-05 -0.000242994 -1.1396e-06
1.95482e-07 -1.1396e-06 -0.000397771
0.00144486 0.00023593 -2.77316e-06
0.00023593 0.000736911 -3.06764e-06
-2.77316e-06 -3.06764e-06 0.000535945
0.00102602 0.000170948 -8.48363e-07
0.000170948 0.000455014 2.37119e-06
-8.48363e-07 2.37119e-06 0.000292043
0.000536683 7.83191e-05 1.61841e-06
7.83191e-05 8.29941e-05 4.2148e-06
1.61841e-06 4.2148e-06 -2.13728e-06
0.000516313 2.58059e-05 -1.03655e-06
2.58059e-05 6.59279e-05 3.48368e-08
-1.03655e-06 3.48368e-08 -2.24533e-05
0.00134793 -3.97437e-06 1.76527e-06
-3.97437e-06 0.000558528 4.7405e-06
1.76527e-06 4.7405e-06 0.00053336
0.000496562 4.68577e-05 6.06822e-07
4.68577e-05 4.2205e-05 -6.16636e-06
6.06822e-07 -6.16636e-06 -5.14986e-05
0.00143222 -1.55741e-05 -1.10157e-05
-1.55741e-05 0.00061278 -1.79193e-06
-1.10157e-05 -1.79193e-06 0.000584069
0.000732639 -2.72516e-05 4.21266e-05
-2.72516e-05 0.000157042 1.08037e-05
4.21266e-05 1.08037e-05 0.000157967
0.00147751 -1.26893e-05 -2.16506e-05
-1.26893e-05 0.000646152 -7.68648e-06
-2.16506e-05 -7.68648e-06 0.000610988
0.00200875 -7.6476e-05 4.71813e-05
-7.6476e-05 0.000989626 1.34182e-06
4.71813e-05 1.34182e-06 0.00098568
0.00332346 -0.000136403 -5.12986e-05
-0.000136403 0.00184777 -5.75944e-06
-5.12986e-05 -5.75944e-06 0.0018405
0.000281228 5.16777e-05 -3.32734e-06
5.16777e-05 -8.65038e-05 -1.10251e-05
-3.32734e-06 -1.10251e-05 -0.000149751
0.000374936 -8.71313e-05 -1.56884e-06
-8.71313e-05 -5.02115e-05 4.27953e-07
-1.56884e-06 4.27953e-07 -0.000133699
0.00417795 0.000205899 2.6787e-05
0.000205899 0.00243169 -9.11199e-06
2.6787e-05 -9.11199e-06 0.00239975
0.00520288 0.00013326 -1.33503e-05
0.00013326 0.00309148 -1.16425e-06
-1.33503e-05 -1.16425e-06 0.00307574
0.000505138 -0.000153235 -2.15462e-05
-0.000153235 -3.36621e-07 1.71104e-05
-2.15462e-05 1.71104e-05 -0.000104117
0.00607907 0.000119686 -0.00021541
0.000119686 0.003655 3.0496e-05
-0.00021541 3.0496e-05 0.00363676
0.00206362 0.000368092 -2.95837e-06
0.000368092 0.000138623 9.81646e-07
-2.95837e-06 9.81646e-07 -3.2825e-05
0.0020654 0.000201896 -1.2386e-06
0.000201896 0.000103832 5.75986e-07
-1.2386e-06 5.75986e-07 3.23249e-06
0.00223531 0.000323233 -4.3194e-06
0.000323233 0.000123503 -7.65519e-07
-4.3194e-06 -7.65519e-07 3.84096e-05
0.00216413 0.000147355 -5.0433e-06
0.000147355 3.122e-05 -3.73696e-07
-5.0433e-06 -3.73696e-07 1.33463e-05
0.00195305 6.48399e-05 -3.2938e-06
6.48399e-05 4.04681e-05 -2.73353e-08
-3.2938e-06 -2.73353e-08 -3.76447e-05
0.00108787 3.89833e-06 -1.00764e-05
3.89833e-06 -8.69806e-05 5.56988e-08
-1.00764e-05 5.56988e-08 -0.000215131
0.0019902 -2.05181e-07 1.12035e-07
-2.05181e-07 7.14228e-05 9.50271e-08
1.12035e-07 9.50271e-08 -6.11047e-06
0.00214393 6.41007e-05 -6.00524e-07
6.41007e-05 4.08776e-05 -1.93873e-08
-6.00524e-07 -1.93873e-08 2.22777e-05
0.00220811 0.000229065 3.17252e-08
0.000229065 7.82655e-05 2.1768e-08
3.17252e-08 2.1768e-08 3.60807e-05
0.00210055 0.000134256 -1.17189e-07
0.000134256 -1.53657e-05 8.06108e-08
-1.17189e-07 8.06108e-08 -1.02384e-05
0.00219499 0.000422362 -1.55509e-07
0.000422362 0.000130824 3.67671e-07
-1.55509e-07 3.67671e-07 -7.92377e-06
0.00220091 0.00032447 -5.15437e-08
0.00032447 -7.47904e-06 -6.42433e-08
-5.15437e-08 -6.42433e-08 -2.27755e-05
0.00212963 -7.55317e-06 5.66718e-06
-7.55317e-06 3.80382e-05 2.28113e-09
5.66718e-06 2.28113e-09 1.6801e-05
0.00212195 5.72716e-05 3.71888e-06
5.72716e-05 1.03157e-05 1.24103e-07
3.71888e-06 1.24103e-07 2.93407e-05
0.00214852 0.000210007 4.37032e-07
0.000210007 -1.10066e-05 1.29687e-07
4.37032e-07 1.29687e-07 -1.39341e-05
0.00221703 0.000139191 -8.31625e-07
0.000139191 -1.54472e-05 5.68573e-07
-8.31625e-07 5.68573e-07 2.27844e-05
0.00219485 0.00042636 6.66239e-07
0.00042636 4.04096e-05 4.04099e-07
6.66239e-07 4.04099e-07 -3.84917e-05
0.00235931 0.000325725 1.28424e-07
0.000325725 1.28343e-05 -1.29222e-07
1.28424e-07 -1.29222e-07 2.60846e-05
0.00199648 -6.13788e-05 -1.85521e-06
-6.13788e-05 7.83069e-05 -2.66379e-08
-1.85521e-06 -2.66379e-08 -2.33033e-06
0.00202787 -0.000227996 -3.40913e-07
-0.000227996 9.24527e-05 -6.90258e-07
-3.40913e-07 -6.90258e-07 -1.67124e-05
0.00220274 -0.000146704 -4.0456e-06
-0.000146704 7.93371e-05 2.3013e-07
-4.0456e-06 2.3013e-07 4.95153e-05
0.00202478 -0.000309695 -4.65379e-06
-0.000309695 8.81577e-06 9.00736e-07
-4.65379e-06 9.00736e-07 -8.08589e-05
0.00065011 -0.000286369 -1.19869e-05
-0.000286369 1.42152e-06 7.71166e-06
-1.19869e-05 7.71166e-06 -0.000283006
0.00163654 -0.000628908 -1.51498e-05
-0.000628908 0.000404264 3.37572e-07
-1.51498e-05 3.37572e-07 -3.50315e-05
0.00181084 -0.000740415 -7.24588e-07
-0.000740415 0.000253508 -4.51178e-06
-7.24588e-07 -4.51178e-06 -0.00019086
0.00202905 -0.000479802 -3.31876e-06
-0.000479802 0.000117401 -1.54962e-07
-3.31876e-06 -1.54962e-07 -7.01108e-05
0.0021643 -0.000432918 -1.74559e-06
-0.000432918 4.39702e-05 2.78619e-08
-1.74559e-06 2.78619e-08 -2.15817e-05
0.00207703 -0.000576874 -7.71172e-07
-0.000576874 0.000129791 8.49975e-08
-7.71172e-07 8.49975e-08 -6.85946e-05
0.0021564 -0.000693658 -9.28166e-07
-0.000693658 0.000294948 -5.16802e-06
-9.28166e-07 -5.16802e-06 -2.94131e-05
0.00224043 -0.000639974 3.64447e-06
-0.000639974 0.000300192 -2.34153e-06
3.64447e-06 -2.34153e-06 6.40114e-05
0.000754729 -0.000355479 -5.14186e-07
-0.000355479 8.08135e-05 2.63658e-07
-5.14186e-07 2.63658e-07 -0.000269983
0.000548021 -0.000317603 -6.4867e-06
-0.000317603 -3.22874e-05 2.29366e-06
-6.4867e-06 2.29366e-06 -0.000387232
0.000700959 -0.000170335 -3.39119e-06
-0.000170335 0.000178613 4.30807e-06
-3.39119e-06 4.30807e-06 -4.56361e-05
-6.14974e-05 -0.000168741 -1.03739e-06
-0.000168741 -0.000363371 -4.24232e-07
-1.03739e-06 -4.24232e-07 -0.000610747
0.00218217 -8.08695e-05 -1.37427e-07
-8.08695e-05 8.2897e-05 2.56383e-08
-1.37427e-07 2.56383e-08 5.30499e-05
0.00207962 -0.000236994 2.21901e-06
-0.000236994 -6.40504e-06 -5.00533e-07
2.21901e-06 -5.00533e-07 -6.4548e-05
0.00207584 -0.000135934 6.25602e-07
-0.000135934 9.50756e-07 -2.71514e-07
6.25602e-07 -2.71514e-07 5.84093e-06
0.00218857 -0.000346935 -4.15118e-07
-0.000346935 2.78604e-05 1.0576e-07
-4.15118e-07 1.0576e-07 2.29206e-06
0.00140648 -0.00049991 -3.24279e-06
-0.00049991 0.000378376 1.74429e-07
-3.24279e-06 1.74429e-07 -1.5633e-05
0.00176675 -0.000794777 2.45254e-06
-0.000794777 0.000400157 5.27211e-08
2.45254e-06 5.27211e-08 -0.000112329
0.00221873 -0.000838535 -6.55595e-07
-0.000838535 0.000438096 5.77442e-07
-6.55595e-07 5.77442e-07 -1.65397e-05
0.00218604 -0.000517674 -1.16551e-06
-0.000517674 0.000139815 3.6363e-07
-1.16551e-06 3.6363e-07 -1.14373e-06
0.00223707 -0.000455544 9.63801e-07
-0.000455544 4.30812e-05 -4.36192e-07
9.63801e-07 -4.36192e-07 -5.21336e-06
0.0022631 -0.000703805 -8.52833e-07
-0.000703805 0.000367929 8.02668e-07
-8.52833e-07 8.02668e-07 5.46237e-05
0.00217918 -0.000628705 -1.04703e-06
-0.000628705 0.000140572 7.92685e-07
-1.04703e-06 7.92685e-07 -2.9723e-05
0.00223709 -0.000687568 5.02644e-06
-0.000687568 0.000245729 -4.23736e-06
5.02644e-06 -4.23736e-06 1.70555e-06
0.00140596 -0.000552768 -2.90231e-07
-0.000552768 0.000453228 -1.5963e-06
-2.90231e-07 -1.5963e-06 1.59027e-05
0.00134464 -0.000496817 3.22966e-06
-0.000496817 0.00049657 2.65857e-06
3.22966e-06 2.65857e-06 5.86263e-05
0.000947688 -0.00023302 1.28067e-07
-0.00023302 0.000273605 -5.08446e-06
1.28067e-07 -5.08446e-06 -1.9599e-05
0.000175921 -0.000115844 -2.76684e-06
-0.000115844 -0.000142573 1.06687e-06
-2.76684e-06 1.06687e-06 -0.000330052
8.74028e-05 -0.000166085 -1.63214e-06
-0.000166085 -0.00017966 -6.38601e-07
-1.63214e-06 -6.38601e-07 -0.000504976
0.00207622 -8.09442e-05 2.43745e-06
-8.09442e-05 -1.52005e-05 -4.66295e-07
2.43745e-06 -4.66295e-07 2.22779e-06
0.00214181 -0.000208523 9.3821e-07
-0.000208523 -1.11071e-05 -4.59298e-07
9.3821e-07 -4.59298e-07 -3.07532e-06
0.00228385 -0.000417069 -4.92377e-07
-0.000417069 -2.19886e-05 3.78947e-07
-4.92377e-07 3.78947e-07 -1.54667e-05
0.00224245 -0.000542803 9.78669e-07
-0.000542803 6.76858e-05 1.65488e-07
9.78669e-07 1.65488e-07 -5.09604e-06
0.00152025 -0.000687586 6.35009e-07
-0.000687586 0.000432417 3.85275e-06
6.35009e-07 3.85275e-06 -6.57052e-05
0.00246491 -0.000756454 -7.21808e-06
-0.000756454 0.000219432 -1.9219e-06
-7.21808e-06 -1.9219e-06 1.67379e-05
0.00151797 -0.000857082 -1.57211e-05
-0.000857082 0.0002468 8.03334e-06
-1.57211e-05 8.03334e-06 -0.000298256
0.00245257 -0.000911268 -9.31015e-07
-0.000911268 0.000550987 3.14455e-06
-9.31015e-07 3.14455e-06 8.22402e-05
0.00197707 -0.000673192 -8.48079e-06
-0.000673192 0.000176854 -1.14642e-07
-8.48079e-06 -1.14642e-07 -0.000118475
1.40074e-05 -5.43967e-05 -1.89042e-06
-5.43967e-05 -0.000233895 -7.72957e-06
-1.89042e-06 -7.72957e-06 -0.000370818
0.00112792 -0.000254557 -3.87244e-06
-0.000254557 0.000574972 -1.59419e-06
-3.87244e-06 -1.59419e-06 0.000238173
0.00298516 -0.000228188 -1.89411e-06
-0.000228188 0.00159653 -3.14228e-06
-1.89411e-06 -3.14228e-06 0.00126964
0.00199938 -0.000692949 -4.49244e-06
-0.000692949 0.000814783 1.35128e-06
-4.49244e-06 1.35128e-06 0.000319809
0.000744309 -0.000350011 1.38421e-05
-0.000350011 8.3347e-05 -3.08277e-06
1.38421e-05 -3.08277e-06 -0.000290136
0.00157138 -0.000582428 -2.5884e-06
-0.000582428 0.00062878 1.19856e-05
-2.5884e-06 1.19856e-05 0.00013696
0.000406722 9.15183e-06 -3.63938e-06
9.15183e-06 -4.24462e-05 -1.12777e-05
-3.63938e-06 -1.12777e-05 -9.22464e-05
0.000160883 6.87607e-05 -7.79724e-07
6.87607e-05 -0.000163137 -7.79251e-06
-7.79724e-07 -7.79251e-06 -0.000322898
0.00219209 0.00050072 -3.70393e-06
0.00050072 0.000182845 -7.7741e-07
-3.70393e-06 -7.7741e-07 -7.59633e-06
-0.000467316 3.27678e-05 -1.33196e-06
3.27678e-05 -0.000548133 1.2569e-06
-1.33196e-06 1.2569e-06 -0.000823989
0.00200673 0.000425572 7.86942e-06
0.000425572 0.000894213 -3.29239e-06
7.86942e-06 -3.29239e-06 0.000596336
0.000332739 0.000142659 -6.50209e-06
0.000142659 -0.000214685 -2.28859e-06
-6.50209e-06 -2.28859e-06 -0.000469919
0.00213795 0.000642243 2.45596e-06
0.000642243 0.00029731 2.3145e-06
2.45596e-06 2.3145e-06 1.31159e-06
0.00215045 0.000624358 3.58226e-06
0.000624358 0.000216641 1.14232e-06
3.58226e-06 1.14232e-06 -2.8199e-05
0.00166295 0.000701621 5.37244e-06
0.000701621 0.000530864 3.99046e-06
5.37244e-06 3.99046e-06 2.59069e-05
0.00247305 0.000825169 -4.27943e-06
0.000825169 0.000765032 6.0663e-06
-4.27943e-06 6.0663e-06 0.000312815
0.00230372 0.000745018 4.25201e-06
0.000745018 0.000370884 3.90872e-06
4.25201e-06 3.90872e-06 3.08462e-05
0.000643503 8.84078e-05 4.58752e-07
8.84078e-05 0.000126596 3.72469e-07
4.58752e-07 3.72469e-07 1.35805e-06
0.000743865 0.000155147 -1.31642e-06
0.000155147 0.000268169 7.58528e-08
-1.31642e-06 7.58528e-08 1.6349e-05
0.000992921 0.000491678 6.37676e-07
0.000491678 0.000222636 1.17212e-06
6.37676e-07 1.17212e-06 -0.000169813
0.00065727 8.13625e-05 2.02916e-07
8.13625e-05 2.40538e-05 -6.24137e-07
2.02916e-07 -6.24137e-07 -0.00022347
0.00134526 0.00034836 3.87897e-06
0.00034836 0.000317159 -4.97683e-06
3.87897e-06 -4.97683e-06 2.14806e-05
0.00216946 0.000531515 -2.26618e-06
0.000531515 0.000125319 -1.21849e-06
-2.26618e-06 -1.21849e-06 -4.71654e-05
0.00223495 0.000708125 2.43488e-06
0.000708125 0.000310309 7.048e-07
2.43488e-06 7.048e-07 9.98191e-06
0.00215863 0.000685377 1.2455e-06
0.000685377 0.000166376 1.40663e-07
1.2455e-06 1.40663e-07 -8.77821e-05
0.00161011 0.000793735 2.13372e-06
0.000793735 0.000496622 8.91109e-07
2.13372e-06 8.91109e-07 -4.14349e-05
0.00193303 0.000800969 -2.01835e-06
0.000800969 0.000317046 -2.28158e-06
-2.01835e-06 -2.28158e-06 -0.000102871
0.00134876 0.00022398 1.72975e-06
0.00022398 0.000629447 2.28437e-06
1.72975e-06 2.28437e-06 0.000431233
-0.000332754 6.6232e-05 -2.6242e-07
6.6232e-05 -0.000401111 -1.58543e-07
-2.6242e-07 -1.58543e-07 -0.000695846
0.00140173 0.000613846 1.73871e-06
0.000613846 0.000483578 -5.29334e-06
1.73871e-06 -5.29334e-06 2.48924e-05
-0.00038298 0.000175319 5.77355e-06
0.000175319 -0.000780145 3.32341e-06
5.77355e-06 3.32341e-06 -0.00102799
0.00259727 0.000669872 2.48405e-06
0.000669872 0.00105014 -4.24457e-06
2.48405e-06 -4.24457e-06 0.000651801
0.00232565 0.000608185 -2.9661e-06
0.000608185 0.000107095 -4.73135e-07
-2.9661e-06 -4.73135e-07 -1.56202e-05
0.00226333 0.000766794 8.76886e-06
0.000766794 0.000282331 -3.27735e-06
8.76886e-06 -3.27735e-06 -5.4033e-05
0.00216956 0.00071234 6.92666e-06
0.00071234 0.000112575 7.92251e-07
6.92666e-06 7.92251e-07 -0.000160911
0.00195528 0.000859076 1.50807e-05
0.000859076 0.000644745 6.91996e-07
1.50807e-05 6.91996e-07 0.000105867
0.0022168 0.000930617 7.40028e-06
0.000930617 0.000520157 -3.09113e-07
7.40028e-06 -3.09113e-07 4.13817e-05
0.000556881 5.33622e-05 3.34772e-07
5.33622e-05 8.10111e-05 -7.01812e-06
3.34772e-07 -7.01812e-06 -2.76466e-05
0.000676247 0.000133929 8.90715e-07
0.000133929 0.000184339 -1.09724e-06
8.90715e-07 -1.09724e-06 2.77002e-05
0.000122328 9.87055e-05 -2.17232e-06
9.87055e-05 -0.000169297 -4.55787e-06
-2.17232e-06 -4.55787e-06 -0.000297226
-0.000335069 -2.10432e-05 3.38922e-06
-2.10432e-05 -0.00044475 -2.56129e-06
3.38922e-06 -2.56129e-06 -0.000588206
0.000553636 8.73648e-05 -1.27204e-06
8.73648e-05 0.000141503 4.07159e-07
-1.27204e-06 4.07159e-07 -6.94178e-06
0.000324571 0.000105327 1.4547e-06
0.000105327 -1.13607e-06 -2.94017e-07
1.4547e-06 -2.94017e-07 -0.00016551
0.000572913 0.000166395 -1.68085e-06
0.000166395 0.000151013 -9.56174e-06
-1.68085e-06 -9.56174e-06 -3.02932e-06
0.000333206 3.99906e-05 -4.00575e-06
3.99906e-05 2.47276e-05 1.16087e-06
-4.00575e-06 1.16087e-06 -0.000150926
0.000689609 0.000114716 -1.12395e-07
0.000114716 0.000209336 2.39702e-06
-1.12395e-07 2.39702e-06 8.14902e-05
0.000517084 8.32936e-05 2.65026e-06
8.32936e-05 7.13481e-05 4.33874e-06
2.65026e-06 4.33874e-06 -1.45652e-05
0.000477211 3.0933e-05 -2.80782e-06
3.0933e-05 3.99449e-05 9.92082e-08
-2.80782e-06 9.92082e-08 -4.24368e-05
0.001318 7.08105e-06 2.44712e-06
7.08105e-06 0.00054235 4.07645e-06
2.44712e-06 4.07645e-06 0.000519784
0.000328885 -7.54186e-05 4.84966e-06
-7.54186e-05 -4.48821e-05 -4.80815e-06
4.84966e-06 -4.80815e-06 -0.000137475
0.00138882 -1.13046e-06 -9.32858e-06
-1.13046e-06 0.000584316 -1.75907e-06
-9.32858e-06 -1.75907e-06 0.000560989
0.000732435 -1.98346e-05 3.56924e-05
-1.98346e-05 0.000156238 9.84078e-06
3.56924e-05 9.84078e-06 0.000160025
0.00145036 -5.22877e-06 -1.72167e-05
-5.22877e-06 0.000622565 -9.11757e-06
-1.72167e-05 -9.11757e-06 0.000595944
0.00073959 -3.64151e-05 1.57072e-05
-3.64151e-05 0.000162123 3.89761e-06
1.57072e-05 3.89761e-06 0.000158976
0.00295953 -0.000129522 1.1685e-06
-0.000129522 0.00160549 -3.81626e-06
1.1685e-06 -3.81626e-06 0.00159895
0.0002816 7.42612e-05 -5.16553e-06
7.42612e-05 -8.42795e-05 -7.86244e-06
-5.16553e-06 -7.86244e-06 -0.00013691
0.000386606 -1.79682e-05 -3.95408e-06
-1.79682e-05 -2.98829e-05 5.07614e-07
-3.95408e-06 5.07614e-07 -9.15883e-05
0.00337559 0.000188919 -1.77792e-05
0.000188919 0.00191171 -9.90638e-06
-1.77792e-05 -9.90638e-06 0.00188827
0.000625576 -0.000121409 -1.58346e-05
-0.000121409 0.000103115 1.38985e-05
-1.58346e-05 1.38985e-05 1.71748e-05
0.00454621 0.000153765 -4.20204e-05
0.000153765 0.00266169 -4.24832e-08
-4.20204e-05 -4.24832e-08 0.00264338
0.00552923 0.000126 -0.000180202
0.000126 0.00330372 2.66479e-05
-0.000180202 2.66479e-05 0.00328718
0.00222955 0.000427938 -3.55062e-06
0.000427938 0.000148761 1.89895e-07
-3.55062e-06 1.89895e-07 8.4182e-06
0.00221495 0.000227108 -5.29163e-06
0.000227108 7.80501e-05 -8.75729e-07
-5.29163e-06 -8.75729e-07 3.67448e-05
0.00218653 0.000314678 -7.0983e-08
0.000314678 -1.78374e-05 -1.51736e-07
-7.0983e-08 -1.51736e-07 -3.15302e-05
0.00207112 0.000134915 -2.14522e-07
0.000134915 -4.16603e-05 -4.25171e-07
-2.14522e-07 -4.25171e-07 -3.17192e-05
0.00215046 5.69862e-05 -6.29564e-06
5.69862e-05 4.91135e-05 -1.16135e-07
-6.29564e-06 -1.16135e-07 2.96678e-05
0.00195914 1.49251e-06 -3.30577e-06
1.49251e-06 5.10758e-05 1.2945e-07
-3.30577e-06 1.2945e-07 -2.66588e-05
0.00215269 -9.19512e-06 1.27116e-07
-9.19512e-06 5.84871e-05 3.26686e-08
1.27116e-07 3.26686e-08 3.50158e-05
0.00211268 5.89423e-05 1.10684e-06
5.89423e-05 7.78545e-06 4.09637e-09
1.10684e-06 4.09637e-09 2.29006e-05
0.0021665 0.00021041 -3.18422e-07
0.00021041 5.55734e-06 -7.84215e-08
-3.18422e-07 -7.84215e-08 2.81745e-06
0.00218975 0.000139753 5.44636e-07
0.000139753 -3.81572e-05 1.03828e-07
5.44636e-07 1.03828e-07 7.06516e-06
0.00221574 0.000426359 -4.23897e-07
0.000426359 6.18511e-05 2.62934e-07
-4.23897e-07 2.62934e-07 -1.8754e-05
0.00231023 0.000327924 2.37093e-06
0.000327924 -1.93242e-05 5.63162e-07
2.37093e-06 5.63162e-07 6.40977e-07
0.00206982 -1.45488e-05 2.68028e-06
-1.45488e-05 -1.48338e-05 -8.80317e-08
2.68028e-06 -8.80317e-08 -2.8297e-06
0.00219578 6.75593e-05 -1.5318e-06
6.75593e-05 -4.37443e-05 1.0232e-07
-1.5318e-06 1.0232e-07 1.50764e-05
0.00228191 0.000214726 -3.68402e-06
0.000214726 -2.64994e-05 -4.40912e-07
-3.68402e-06 -4.40912e-07 1.69101e-05
0.00240459 0.000462052 -2.71996e-06
0.000462052 2.43417e-05 -6.0488e-07
-2.71996e-06 -6.0488e-07 2.84573e-05
0.00218675 -8.11438e-05 -7.55607e-06
-8.11438e-05 8.52779e-05 5.30403e-07
-7.55607e-06 5.30403e-07 5.52646e-05
0.00211333 -0.000242072 -3.19891e-06
-0.000242072 2.19636e-05 3.01568e-07
-3.19891e-06 3.01568e-07 -3.77716e-05
0.00205239 -0.000135614 -3.02564e-06
-0.000135614 -2.09552e-05 4.22784e-07
-3.02564e-06 4.22784e-07 -1.41898e-05
0.00215755 -0.000344756 -4.0782e-06
-0.000344756 1.52356e-05 4.15166e-07
-4.0782e-06 4.15166e-07 -1.72226e-05
0.00106759 -0.000470856 -5.87242e-06
-0.000470856 0.000150833 -3.98421e-07
-5.87242e-06 -3.98421e-07 -0.000237582
0.00179098 -0.000793178 8.73912e-06
-0.000793178 0.000425442 -7.9702e-06
8.73912e-06 -7.9702e-06 -8.77166e-05
0.00220593 -0.000855514 -2.31442e-06
-0.000855514 0.000424771 -4.43246e-06
-2.31442e-06 -4.43246e-06 -4.02619e-05
0.00217868 -0.000513017 -4.11256e-06
-0.000513017 0.000144547 7.11559e-07
-4.11256e-06 7.11559e-07 -1.11642e-06
0.00219109 -0.000453678 7.0626e-07
-0.000453678 1.4366e-05 -6.77398e-08
7.0626e-07 -6.77398e-08 -2.8275e-05
0.00216584 -0.000631341 -9.35922e-07
-0.000631341 0.000122428 1.08995e-06
-9.35922e-07 1.08995e-06 -4.79855e-05
0.00219656 -0.000693137 -4.05125e-06
-0.000693137 0.000337648 -2.43384e-06
-4.05125e-06 -2.43384e-06 2.77378e-05
0.00231059 -0.000690854 1.00511e-05
-0.000690854 0.0002906 -3.58076e-06
1.00511e-05 -3.58076e-06 4.8353e-05
0.00124078 -0.000527257 -1.29298e-05
-0.000527257 0.000379081 -1.07814e-06
-1.29298e-05 -1.07814e-06 -5.42696e-05
0.000748547 -0.000437692 5.1602e-06
-0.000437692 9.8466e-05 -7.28025e-06
5.1602e-06 -7.28025e-06 -0.000323495
0.00245262 -0.000310634 -5.50587e-06
-0.000310634 0.00118835 -3.43958e-06
-5.50587e-06 -3.43958e-06 0.000901718
-2.97495e-05 -8.46386e-05 1.98642e-06
-8.46386e-05 -0.000273269 5.96973e-06
1.98642e-06 5.96973e-06 -0.000460275
-0.000156331 -0.000163996 2.94664e-06
-0.000163996 -0.000327891 -2.94006e-06
2.94664e-06 -2.94006e-06 -0.000647893
0.00206087 -8.87742e-05 1.0983e-07
-8.87742e-05 -2.62483e-05 -9.7829e-08
1.0983e-07 -9.7829e-08 -1.00549e-05
0.00215071 -0.00020919 1.69562e-06
-0.00020919 -9.3229e-06 7.41513e-09
1.69562e-06 7.41513e-09 -1.72564e-06
0.00226782 -0.000409682 -7.19185e-07
-0.000409682 -1.43749e-05 1.5253e-07
-7.19185e-07 1.5253e-07 -1.52045e-05
0.00173838 -0.000703024 -1.71917e-06
-0.000703024 0.000564997 -4.01747e-07
-1.71917e-06 -4.01747e-07 6.69653e-05
0.00154905 -0.000839577 4.30014e-06
-0.000839577 0.000270514 -5.57364e-07
4.30014e-06 -5.57364e-07 -0.000266446
0.00230375 -0.000909881 -1.23376e-06
-0.000909881 0.000464278 -8.07347e-09
-1.23376e-06 -8.07347e-09 -9.56672e-06
0.00224397 -0.000538758 4.99813e-07
-0.000538758 7.33516e-05 -1.24472e-07
4.99813e-07 -1.24472e-07 -1.76899e-06
0.00218072 -0.000713334 3.062e-06
-0.000713334 0.000271814 -4.40215e-06
3.062e-06 -4.40215e-06 -2.79511e-05
0.00238895 -0.000734522 -9.91485e-07
-0.000734522 0.000205361 -4.37769e-07
-9.91485e-07 -4.37769e-07 1.04839e-05
-0.000194601 2.68363e-05 -2.08494e-06
2.68363e-05 -0.000382732 -6.32281e-07
-2.08494e-06 -6.32281e-07 -0.000504985
0.00145518 -0.000610306 -4.094e-07
-0.000610306 0.000509124 -1.59195e-06
-4.094e-07 -1.59195e-06 2.45367e-05
0.00119663 -0.000543531 -4.92405e-06
-0.000543531 0.000406333 -1.32386e-06
-4.92405e-06 -1.32386e-06 -0.000100419
0.00119559 -0.00034576 -4.44306e-06
-0.00034576 0.000386184 3.85681e-06
-4.44306e-06 3.85681e-06 1.23824e-06
0.00174957 -0.00040413 1.53715e-06
-0.00040413 0.0008438 -1.8364e-06
1.53715e-06 -1.8364e-06 0.000489467
0.00045476 -0.000130402 -4.70293e-07
-0.000130402 0.00013066 1.02001e-06
-4.70293e-07 1.02001e-06 -0.000188691
0.00215778 -0.000111137 -1.1958e-06
-0.000111137 -5.05146e-05 -2.31269e-07
-1.1958e-06 -2.31269e-07 -3.16926e-06
0.00232037 -0.00028169 -1.51532e-06
-0.00028169 -6.05632e-05 8.20142e-07
-1.51532e-06 8.20142e-07 6.29513e-06
0.00234754 -0.000505783 9.87057e-08
-0.000505783 -1.58288e-05 5.57878e-07
9.87057e-08 5.57878e-07 8.83555e-07
0.00238467 -0.000650272 -7.4856e-07
-0.000650272 5.33874e-05 -1.0293e-06
-7.4856e-07 -1.0293e-06 2.03612e-06
0.00194917 -0.000809261 -7.70413e-06
-0.000809261 0.000693762 4.09932e-06
-7.70413e-06 4.09932e-06 0.000150376
0.00243425 -0.000851869 -9.52872e-06
-0.000851869 0.000301441 -4.32959e-06
-9.52872e-06 -4.32959e-06 1.47755e-05
0.00192815 -0.000973596 -5.0839e-05
-0.000973596 0.000489733 9.25353e-06
-5.0839e-05 9.25353e-06 -9.51228e-05
0.00219635 -0.000945112 -2.76782e-05
-0.000945112 0.000419047 4.38831e-06
-2.76782e-05 4.38831e-06 -6.62341e-05
-0.000228506 4.49651e-05 -5.97593e-06
4.49651e-05 -0.000407084 -4.96624e-06
-5.97593e-06 -4.96624e-06 -0.000496776
0.00105363 -1.6649e-05 -2.97896e-06
-1.6649e-05 0.000494689 -1.51765e-06
-2.97896e-06 -1.51765e-06 0.000264932
0.00234172 -0.000437044 -8.84624e-06
-0.000437044 0.00135161 -1.51165e-07
-8.84624e-06 -1.51165e-07 0.000980052
0.000297969 -0.000242214 -1.14421e-06
-0.000242214 -9.86847e-05 -9.73483e-06
-1.14421e-06 -9.73483e-06 -0.000461359
0.00309168 -0.000844222 -1.01473e-05
-0.000844222 0.00149514 1.48899e-05
-1.01473e-05 1.48899e-05 0.000950876
0.00172857 -0.000612255 6.56016e-06
-0.000612255 0.000741472 1.19447e-05
6.56016e-06 1.19447e-05 0.000173722
0.000541123 7.64967e-05 -5.16851e-07
7.64967e-05 6.20405e-05 -7.56139e-06
-5.16851e-07 -7.56139e-06 -5.98722e-05
-0.000588942 4.93942e-05 1.08585e-06
4.93942e-05 -0.000579238 3.84311e-07
1.08585e-06 3.84311e-07 -0.00081895
0.00216558 0.000533474 -1.15537e-06
0.000533474 0.000134141 -8.73345e-07
-1.15537e-06 -8.73345e-07 -4.04028e-05
0.000221842 5.22929e-05 -4.35549e-06
5.22929e-05 -0.000239167 1.76108e-06
-4.35549e-06 1.76108e-06 -0.000487578
0.00136039 0.000545079 3.96004e-06
0.000545079 0.000436972 -4.94977e-06
3.96004e-06 -4.94977e-06 2.3982e-05
-0.000146788 0.000155797 -7.45419e-06
0.000155797 -0.000630905 -7.82778e-06
-7.45419e-06 -7.82778e-06 -0.000870404
0.00229265 0.00071453 4.91419e-06
0.00071453 0.00033551 1.90403e-06
4.91419e-06 1.90403e-06 3.3767e-05
0.00216141 0.000683475 -3.38144e-06
0.000683475 0.000157698 6.595e-07
-3.38144e-06 6.595e-07 -9.55081e-05
0.00213649 0.000873905 -5.08273e-06
0.000873905 0.000796111 4.93579e-06
-5.08273e-06 4.93579e-06 0.000243371
0.00199706 0.000810908 -8.06512e-06
0.000810908 0.000387918 2.0847e-06
-8.06512e-06 2.0847e-06 -4.09615e-05
0.000846568 0.000169203 -8.96972e-07
0.000169203 0.000302752 -2.14418e-07
-8.96972e-07 -2.14418e-07 0.00011633
0.000456926 0.000169666 2.1559e-06
0.000169666 9.62269e-05 -6.31934e-07
2.1559e-06 -6.31934e-07 -0.000212224
0.00128542 0.000590027 -3.37017e-06
0.000590027 0.000409122 -1.002e-06
-3.37017e-06 -1.002e-06 -4.14971e-05
0.00151084 0.00025892 -2.06514e-06
0.00025892 0.000407504 1.62255e-06
-2.06514e-06 1.62255e-06 0.000157275
0.00235115 0.000595665 2.0121e-07
0.000595665 0.000876663 -2.01326e-06
2.0121e-07 -2.01326e-06 0.000500234
0.00237605 0.000618608 -2.44765e-06
0.000618608 0.000120755 -7.30135e-07
-2.44765e-06 -7.30135e-07 -5.24582e-06
0.00243352 0.000765153 2.94263e-06
0.000765153 0.000394694 -7.74629e-07
2.94263e-06 -7.74629e-07 6.76226e-05
0.00245707 0.000742976 9.97704e-07
0.000742976 0.000286571 2.69483e-06
9.97704e-07 2.69483e-06 7.94266e-06
0.00181621 0.000851858 4.75157e-06
0.000851858 0.000557075 1.31527e-06
4.75157e-06 1.31527e-06 1.44066e-05
0.00218265 0.000962365 -4.93558e-06
0.000962365 0.000502931 8.52245e-07
-4.93558e-06 8.52245e-07 2.96661e-06
-0.00164693 2.9838e-05 -6.29993e-06
2.9838e-05 -0.0012586 3.15298e-06
-6.29993e-06 3.15298e-06 -0.00143575
-0.00189833 0.000110328 -8.67103e-07
0.000110328 -0.00132538 -5.14927e-07
-8.67103e-07 -5.14927e-07 -0.00167241
0.00174625 0.000690329 6.82449e-06
0.000690329 0.000620253 -3.7865e-06
6.82449e-06 -3.7865e-06 0.000146015
0.00170859 0.000457133 6.15158e-06
0.000457133 0.000445158 1.66019e-07
6.15158e-06 1.66019e-07 0.000131462
0.00258797 0.000608651 4.79064e-07
0.000608651 -7.79567e-05 4.52222e-07
4.79064e-07 4.52222e-07 -1.42324e-05
0.00261496 0.00074616 6.108e-06
0.00074616 0.000284049 9.02541e-07
6.108e-06 9.02541e-07 7.92025e-05
0.00246343 0.000911747 8.4413e-06
0.000911747 0.000420438 -4.43448e-06
8.4413e-06 -4.43448e-06 -7.43496e-06
0.00171374 0.000940153 5.54268e-06
0.000940153 0.00033955 -9.57514e-07
5.54268e-06 -9.57514e-07 -0.000230016
0.00117057 0.000178888 1.03785e-06
0.000178888 0.000518069 -1.00762e-06
1.03785e-06 -1.00762e-06 0.000342469
0.000454934 0.000178703 -3.0046e-06
0.000178703 6.57513e-05 -2.67897e-07
-3.0046e-06 -2.67897e-07 -8.1927e-05
0.00117762 0.000140479 -9.76786e-06
0.000140479 0.000535228 -5.86035e-06
-9.76786e-06 -5.86035e-06 0.000425761
0.00034676 5.2825e-05 5.01392e-07
5.2825e-05 -1.61477e-05 -2.69723e-06
5.01392e-07 -2.69723e-06 -0.000143761
-0.000866685 5.54902e-05 3.52201e-07
5.54902e-05 -0.00073783 1.3282e-06
3.52201e-07 1.3282e-06 -0.000898018
0.000669405 6.78534e-05 -8.13193e-07
6.78534e-05 0.000198469 2.55687e-08
-8.13193e-07 2.55687e-08 6.86577e-05
0.000604451 0.000185728 1.66176e-06
0.000185728 0.000204644 1.24101e-06
1.66176e-06 1.24101e-06 4.37667e-05
0.000550543 9.18077e-05 7.53083e-07
9.18077e-05 0.000184612 1.18986e-06
7.53083e-07 1.18986e-06 -9.06023e-06
0.000611514 0.000146309 2.68695e-06
0.000146309 0.000120887 -9.45452e-06
2.68695e-06 -9.45452e-06 3.30028e-05
0.000679922 5.08544e-05 6.33213e-07
5.08544e-05 0.000254958 -6.07119e-06
6.33213e-07 -6.07119e-06 6.88654e-05
-5.60551e-05 7.50105e-05 -4.52098e-07
7.50105e-05 -0.000232286 2.93809e-06
-4.52098e-07 2.93809e-06 -0.000398164
0.000689775 0.000126934 2.26459e-06
0.000126934 0.000207991 4.19684e-06
2.26459e-06 4.19684e-06 7.56723e-05
0.000444445 8.80742e-05 2.75884e-06
8.80742e-05 3.09871e-05 4.15645e-06
2.75884e-06 4.15645e-06 -6.08317e-05
0.000433262 2.05057e-05 -1.58424e-06
2.05057e-05 1.42977e-05 -4.17756e-07
-1.58424e-06 -4.17756e-07 -6.89544e-05
0.00125675 1.28833e-05 8.84718e-07
1.28833e-05 0.000508523 3.4265e-06
8.84718e-07 3.4265e-06 0.000486247
0.000417045 -4.15142e-05 1.17697e-06
-4.15142e-05 -2.52482e-06 -3.72254e-06
1.17697e-06 -3.72254e-06 -8.18138e-05
0.00133139 -6.36691e-07 -8.95201e-06
-6.36691e-07 0.000550558 -1.74974e-06
-8.95201e-06 -1.74974e-06 0.000529083
0.00068365 -9.97181e-06 3.2752e-05
-9.97181e-06 0.000127924 9.91592e-06
3.2752e-05 9.91592e-06 0.000132499
0.00136852 -2.46557e-05 -1.15685e-05
-2.46557e-05 0.000571867 -7.80433e-06
-1.15685e-05 -7.80433e-06 0.000549415
0.000732468 -2.58799e-05 1.35927e-05
-2.58799e-05 0.00015449 3.72318e-06
1.35927e-05 3.72318e-06 0.000155902
0.000741853 -4.06396e-05 1.75343e-06
-4.06396e-05 0.000163315 -4.15315e-06
1.75343e-06 -4.15315e-06 0.000158189
0.000337918 4.86307e-05 -2.51256e-06
4.86307e-05 -7.46932e-05 -5.94863e-06
-2.51256e-06 -5.94863e-06 -0.000108334
0.000403134 6.592e-05 -1.33342e-06
6.592e-05 -1.36322e-05 1.4459e-07
-1.33342e-06 1.4459e-07 -6.38739e-05
0.00273759 0.000138579 -4.56429e-06
0.000138579 0.00148486 -7.1783e-06
-4.56429e-06 -7.1783e-06 0.00147562
0.00043442 -2.33832e-05 -1.01997e-05
-2.33832e-05 3.64038e-07 1.20571e-05
-1.01997e-05 1.20571e-05 -6.45354e-05
0.00355305 0.000165469 -2.44199e-05
0.000165469 0.00201636 -2.1704e-06
-2.44199e-05 -2.1704e-06 0.00199754
0.00462597 8.19719e-05 -0.000159961
8.19719e-05 0.00270467 2.02006e-05
-0.000159961 2.02006e-05 0.00270321
0.00223258 0.000425883 -4.60837e-07
0.000425883 8.13773e-05 1.72144e-07
-4.60837e-07 1.72144e-07 -7.8167e-07
0.00218528 0.000211091 -2.02154e-06
0.000211091 2.17161e-05 -9.05833e-07
-2.02154e-06 -9.05833e-07 1.91932e-05
0.00225959 0.000329671 2.69246e-06
0.000329671 -5.28562e-05 1.64376e-06
2.69246e-06 1.64376e-06 -2.61956e-05
0.00215436 0.000140365 2.65748e-06
0.000140365 -6.67958e-05 -1.63707e-07
2.65748e-06 -1.63707e-07 -1.39454e-05
0.00210337 6.06238e-05 -2.83208e-06
6.06238e-05 4.63331e-06 -3.29845e-07
-2.83208e-06 -3.29845e-07 1.62305e-05
0.00217724 -1.2419e-05 -8.05829e-06
-1.2419e-05 7.96368e-05 2.21582e-07
-8.05829e-06 2.21582e-07 5.40305e-05
0.00208126 -1.32688e-05 2.75105e-07
-1.32688e-05 -6.41064e-06 -7.57309e-09
2.75105e-07 -7.57309e-09 6.53145e-06
0.00217692 7.05459e-05 9.6625e-07
7.05459e-05 -5.20239e-05 5.72165e-08
9.6625e-07 5.72165e-08 5.17718e-06
0.00225862 0.000220807 1.01765e-06
0.000220807 -4.48067e-05 2.09014e-07
1.01765e-06 2.09014e-07 2.63885e-06
0.00237825 0.000448621 5.03492e-07
0.000448621 1.38671e-06 1.55959e-07
5.03492e-07 1.55959e-07 8.80732e-06
0.00214295 -1.68803e-05 -2.0394e-06
-1.68803e-05 -6.44346e-05 -1.38805e-07
-2.0394e-06 -1.38805e-07 -1.29798e-05
0.00230306 0.000120246 -6.02964e-06
0.000120246 -8.91099e-05 -1.44051e-07
-6.02964e-06 -1.44051e-07 1.32198e-05
0.00253203 0.000335293 -3.26347e-06
0.000335293 -1.83293e-05 -1.42765e-06
-3.26347e-06 -1.42765e-06 5.78398e-05
0.0020436 -9.6496e-05 -1.93072e-06
-9.6496e-05 -3.84642e-05 4.11102e-07
-1.93072e-06 4.11102e-07 -2.35038e-05
0.0021565 -0.000209303 -1.71833e-06
-0.000209303 -8.7967e-06 -7.51073e-08
-1.71833e-06 -7.51073e-08 -1.65194e-06
0.00224962 -0.000401986 -8.6247e-07
-0.000401986 -7.26537e-06 -2.93987e-07
-8.6247e-07 -2.93987e-07 -1.62168e-05
0.00187718 -0.000719178 -1.39233e-06
-0.000719178 0.000627463 -5.00276e-06
-1.39233e-06 -5.00276e-06 0.000128616
0.00172759 -0.000836002 1.8814e-05
-0.000836002 0.000383457 -8.57407e-06
1.8814e-05 -8.57407e-06 -0.000147117
0.00215648 -0.00090678 2.99576e-06
-0.00090678 0.000383418 -2.05065e-06
2.99576e-06 -2.05065e-06 -9.35861e-05
0.00224811 -0.000535491 -1.26931e-06
-0.000535491 7.95195e-05 7.57544e-08
-1.26931e-06 7.57544e-08 2.1065e-06
0.00229928 -0.000712812 6.97296e-06
-0.000712812 0.00017657 7.75861e-07
6.97296e-06 7.75861e-07 -6.53526e-06
0.00236152 -0.000755937 7.716e-06
-0.000755937 0.000351945 -7.04886e-06
7.716e-06 -7.04886e-06 4.74862e-05
0.00101686 -0.000540613 -3.71449e-06
-0.000540613 0.000253688 -3.13013e-06
-3.71449e-06 -3.13013e-06 -0.000220323
0.00195495 -0.000660284 1.13287e-06
-0.000660284 0.000857565 -1.26533e-05
1.13287e-06 -1.26533e-05 0.000341105
0.00240408 -0.00041435 -1.29103e-05
-0.00041435 0.00119737 1.46389e-05
-1.29103e-05 1.46389e-05 0.000767477
0.000226662 3.58799e-05 5.2394e-06
3.58799e-05 -0.000114013 4.01773e-06
5.2394e-06 4.01773e-06 -0.000235165
0.00149515 -0.00044707 3.18336e-07
-0.00044707 0.0006787 2.64157e-07
3.18336e-07 2.64157e-07 0.000323208
-0.000267054 -9.33712e-06 7.46437e-06
-9.33712e-06 -0.000345179 5.05997e-07
7.46437e-06 5.05997e-07 -0.000647207
0.00216535 -0.000107132 -5.04105e-07
-0.000107132 -4.48553e-05 6.9038e-08
-5.04105e-07 6.9038e-08 4.96185e-07
0.00229856 -0.000291821 3.86908e-07
-0.000291821 -7.83692e-05 2.62871e-08
3.86908e-07 2.62871e-08 -9.56493e-06
0.00235036 -0.000497708 -7.04185e-07
-0.000497708 -1.01801e-05 3.09648e-07
-7.04185e-07 3.09648e-07 5.14769e-06
0.00205123 -0.000824814 -1.32686e-06
-0.000824814 0.000750202 1.26902e-06
-1.32686e-06 1.26902e-06 0.00020591
0.00180227 -0.00094679 8.34428e-06
-0.00094679 0.000421821 -1.83812e-06
8.34428e-06 -1.83812e-06 -0.000152517
0.00235581 -0.000938624 -1.83461e-06
-0.000938624 0.00051893 -1.76971e-06
-1.83461e-06 -1.76971e-06 4.9109e-05
0.00238517 -0.000661145 1.99572e-07
-0.000661145 5.66379e-05 -1.27534e-07
1.99572e-07 -1.27534e-07 -5.32631e-06
0.00230046 -0.000820432 2.1738e-06
-0.000820432 0.000243262 -1.40859e-06
2.1738e-06 -1.40859e-06 -2.87698e-05
0.000202632 6.4331e-05 -2.4597e-06
6.4331e-05 -0.000129301 -1.72951e-06
-2.4597e-06 -1.72951e-06 -0.000217798
0.000748329 -5.58111e-05 -1.35881e-06
-5.58111e-05 0.000284519 6.74152e-07
-1.35881e-06 6.74152e-07 6.87521e-05
0.00123023 -0.000615509 -3.10294e-06
-0.000615509 0.000375244 6.9811e-07
-3.10294e-06 6.9811e-07 -0.000109691
0.00168889 -0.000569503 -4.7724e-06
-0.000569503 0.000753999 2.9474e-06
-4.7724e-06 2.9474e-06 0.000194111
0.00112393 -0.000213985 9.66527e-07
-0.000213985 0.00039699 -2.33642e-06
9.66527e-07 -2.33642e-06 3.44846e-05
0.00150775 -0.000322403 -8.26295e-07
-0.000322403 0.000814014 1.891e-06
-8.26295e-07 1.891e-06 0.000453478
0.00229054 -0.000142914 -4.67826e-06
-0.000142914 -8.73276e-05 9.94567e-07
-4.67826e-06 9.94567e-07 1.60567e-05
0.00246697 -0.000426426 -1.94671e-06
-0.000426426 -0.000126782 1.8553e-06
-1.94671e-06 1.8553e-06 1.09571e-05
0.00242261 -0.000621985 2.8729e-06
-0.000621985 -2.62748e-05 -1.07984e-06
2.8729e-06 -1.07984e-06 -1.38389e-05
0.00253869 -0.000841632 1.68598e-06
-0.000841632 0.000176875 -1.88689e-06
1.68598e-06 -1.88689e-06 1.85711e-05
0.000975826 -0.000717919 -7.17359e-06
-0.000717919 0.000119319 -3.06469e-06
-7.17359e-06 -3.06469e-06 -0.000391415
0.00245262 -0.00101302 -3.85014e-06
-0.00101302 0.000481502 -5.50382e-07
-3.85014e-06 -5.50382e-07 4.22322e-05
0.00236262 -0.00111746 -5.86435e-05
-0.00111746 0.000670628 5.22743e-06
-5.86435e-05 5.22743e-06 4.37251e-05
0.000556278 4.5584e-05 -3.77676e-07
4.5584e-05 7.77679e-05 -1.90772e-06
-3.77676e-07 -1.90772e-06 1.04512e-05
0.000794906 -0.000168296 3.86905e-06
-0.000168296 0.000306671 -4.15121e-06
3.86905e-06 -4.15121e-06 0.000168563
0.000158048 8.3801e-05 -8.29653e-06
8.3801e-05 -0.000105598 -2.34119e-06
-8.29653e-06 -2.34119e-06 -0.000245177
0.00105508 -9.64483e-05 -5.23088e-06
-9.64483e-05 0.000504537 1.84322e-06
-5.23088e-06 1.84322e-06 0.000225927
0.000119152 -0.000174944 -2.98734e-06
-0.000174944 -0.000143202 -1.28124e-05
-2.98734e-06 -1.28124e-05 -0.000464257
0.00122766 -0.000317635 1.22455e-06
-0.000317635 0.00057136 -1.07428e-05
1.22455e-06 -1.07428e-05 0.000100238
0.00134524 -0.000666078 -2.0668e-05
-0.000666078 0.000448705 3.71839e-05
-2.0668e-05 3.71839e-05 -4.20664e-05
0.00266552 -0.00064076 -1.81059e-05
-0.00064076 0.00150798 1.62052e-05
-1.81059e-05 1.62052e-05 0.000752869
8.88605e-05 7.60281e-05 5.1522e-07
7.60281e-05 -0.000203009 -2.53377e-08
5.1522e-07 -2.53377e-08 -0.000364773
0.00154284 0.000299936 7.26534e-08
0.000299936 0.000767674 1.83572e-06
7.26534e-08 1.83572e-06 0.000447929
0.00242812 0.00063009 -1.64308e-07
0.00063009 0.000135105 -8.53758e-07
-1.64308e-07 -8.53758e-07 5.04259e-06
0.00105398 0.000201109 -4.97487e-06
0.000201109 9.90657e-05 -3.01658e-06
-4.97487e-06 -3.01658e-06 -0.000154708
0.00117942 0.000566785 -2.02483e-06
0.000566785 0.000346621 -5.24139e-07
-2.02483e-06 -5.24139e-07 -9.83185e-05
0.00239135 0.000562554 -5.03953e-06
0.000562554 0.000881182 3.85241e-06
-5.03953e-06 3.85241e-06 0.000515377
0.00259298 0.000760642 -5.19447e-06
0.000760642 0.000501651 3.54391e-07
-5.19447e-06 3.54391e-07 0.000185017
0.00272462 0.000772459 -6.76163e-06
0.000772459 0.000448812 6.8579e-06
-6.76163e-06 6.8579e-06 0.000165407
0.00161889 0.000839755 -4.87464e-06
0.000839755 0.000429322 1.67954e-06
-4.87464e-06 1.67954e-06 -0.000115165
0.00203834 0.000983946 -1.25733e-05
0.000983946 0.000419976 -3.41414e-07
-1.25733e-05 -3.41414e-07 -9.84791e-05
-0.000206714 8.69227e-05 1.58648e-06
8.69227e-05 -0.00032144 1.47314e-06
1.58648e-06 1.47314e-06 -0.00054042
0.000306139 0.000323489 4.40732e-06
0.000323489 7.07481e-05 -2.44985e-06
4.40732e-06 -2.44985e-06 -0.000301461
0.00152999 0.000678988 9.53262e-07
0.000678988 0.000456506 -2.20025e-07
9.53262e-07 -2.20025e-07 -2.38718e-05
0.00204339 0.000500088 -5.59951e-06
0.000500088 0.000692708 9.81144e-07
-5.59951e-06 9.81144e-07 0.000361118
0.00254005 0.000585338 2.52866e-07
0.000585338 -0.0001389 -9.88346e-07
2.52866e-07 -9.88346e-07 -5.43664e-05
0.00267987 0.000760692 3.26973e-06
0.000760692 0.000318662 -3.38254e-07
3.26973e-06 -3.38254e-07 9.95582e-05
0.00228642 0.000874026 -3.12545e-06
0.000874026 0.000346993 4.83658e-09
-3.12545e-06 4.83658e-09 -6.72936e-05
0.00207793 0.00097317 2.13034e-06
0.00097317 0.000537202 3.38348e-07
2.13034e-06 3.38348e-07 -2.96181e-05
-0.000625383 3.58111e-05 -5.11873e-06
3.58111e-05 -0.000563941 -2.09765e-08
-5.11873e-06 -2.09765e-08 -0.000752639
0.0024568 0.000422459 2.18905e-06
0.000422459 -0.000213916 -1.03642e-06
2.18905e-06 -1.03642e-06 -9.51204e-05
0.00234357 0.000598344 -1.95272e-06
0.000598344 0.00129906 9.26375e-06
-1.95272e-06 9.26375e-06 0.000870454
0.00171794 0.00069017 8.88192e-07
0.00069017 0.000493274 -4.23521e-06
8.88192e-07 -4.23521e-06 3.31483e-05
0.00262918 0.000743339 -1.50036e-05
0.000743339 6.70751e-05 -9.71463e-06
-1.50036e-05 -9.71463e-06 5.70686e-05
0.00131729 0.000807516 4.089e-06
0.000807516 -0.000315318 -1.06125e-05
4.089e-06 -1.06125e-05 -0.000697523
0.003026 0.00111463 2.81105e-06
0.00111463 0.00102123 3.57287e-06
2.81105e-06 3.57287e-06 0.000425069
0.000558546 0.000151055 -4.72851e-08
0.000151055 0.00014916 6.78133e-07
-4.72851e-08 6.78133e-07 -7.8167e-06
0.000465507 0.000133037 -2.69758e-06
0.000133037 0.000104099 -1.19659e-06
-2.69758e-06 -1.19659e-06 -1.1253e-05
0.000370601 9.73767e-05 -3.57812e-06
9.73767e-05 7.00704e-05 -1.59775e-06
-3.57812e-06 -1.59775e-06 -1.14205e-05
0.000346865 8.64261e-06 1.4717e-06
8.64261e-06 -1.18652e-05 -3.64226e-06
1.4717e-06 -3.64226e-06 -0.00013716
0.000503566 9.48555e-05 2.71991e-06
9.48555e-05 0.000151204 -3.4291e-06
2.71991e-06 -3.4291e-06 -3.93224e-05
-0.000568286 0.000139868 -4.54776e-06
0.000139868 -0.000491008 1.11194e-05
-4.54776e-06 1.11194e-05 -0.000640621
0.000507471 2.78557e-05 -1.70379e-06
2.78557e-05 9.39054e-05 -6.4902e-08
-1.70379e-06 -6.4902e-08 -3.97405e-05
0.000234741 8.39329e-07 -6.20836e-07
8.39329e-07 -2.71264e-05 -4.34017e-07
-6.20836e-07 -4.34017e-07 -0.000207479
5.09805e-06 8.39188e-05 -4.53185e-06
8.39188e-05 -0.000225786 2.85455e-06
-4.53185e-06 2.85455e-06 -0.00029946
0.000736493 0.000140781 1.55933e-06
0.000140781 0.00030209 -1.33614e-06
1.55933e-06 -1.33614e-06 0.000106804
0.00187262 0.000193909 -1.30267e-06
0.000193909 0.000912536 -8.09358e-06
-1.30267e-06 -8.09358e-06 0.000855684
-7.72906e-05 2.41252e-05 1.23106e-05
2.41252e-05 -0.000264956 -1.18419e-05
1.23106e-05 -1.18419e-05 -0.000362114
0.000449344 0.000126482 7.07323e-07
0.000126482 0.000128327 2.86228e-06
7.07323e-07 2.86228e-06 -7.05841e-05
0.000504906 6.87417e-05 5.88836e-07
6.87417e-05 0.000122542 3.96624e-06
5.88836e-07 3.96624e-06 -6.42846e-05
0.000527845 2.35988e-05 2.20843e-06
2.35988e-05 9.20586e-05 3.42841e-06
2.20843e-06 3.42841e-06 -4.25272e-05
0.000486456 -7.19253e-05 -1.51361e-06
-7.19253e-05 5.00572e-05 3.07278e-06
-1.51361e-06 3.07278e-06 -3.98762e-05
0.000462886 1.57395e-05 7.14592e-07
1.57395e-05 2.97753e-05 -4.77172e-07
7.14592e-07 -4.77172e-07 -5.37996e-05
0.00131734 2.87366e-05 3.66984e-06
2.87366e-05 0.000553268 3.66829e-06
3.66984e-06 3.66829e-06 0.000530294
0.000462648 1.4826e-05 7.25614e-07
1.4826e-05 1.92911e-05 -3.95628e-06
7.25614e-07 -3.95628e-06 -5.50059e-05
0.00133734 1.90811e-05 -9.10141e-06
1.90811e-05 0.000561442 -1.90644e-06
-9.10141e-06 -1.90644e-06 0.00053869
0.00075099 -3.63924e-06 2.8219e-05
-3.63924e-06 0.000176623 9.41639e-06
2.8219e-05 9.41639e-06 0.000180419
0.00133721 -1.2518e-05 -9.76528e-06
-1.2518e-05 0.000553606 -7.50164e-06
-9.76528e-06 -7.50164e-06 0.000533175
0.000751846 -1.62316e-05 1.12081e-05
-1.62316e-05 0.000168715 3.71209e-06
1.12081e-05 3.71209e-06 0.000171298
0.000737604 -2.94937e-05 1.29299e-06
-2.94937e-05 0.0001559 -3.26318e-06
1.29299e-06 -3.26318e-06 0.000156096
0.000584926 -2.00347e-05 6.95494e-07
-2.00347e-05 8.96622e-05 -2.80941e-06
6.95494e-07 -2.80941e-06 2.89657e-05
0.000334264 2.97075e-05 -7.22199e-07
2.97075e-05 -8.7189e-05 -5.15576e-06
-7.22199e-07 -5.15576e-06 -0.000112078
0.000368911 4.5061e-05 7.18269e-07
4.5061e-05 -5.3837e-05 4.00308e-07
7.18269e-07 4.00308e-07 -8.81613e-05
0.0026114 0.000110016 4.73698e-06
0.000110016 0.00139094 -5.85087e-06
4.73698e-06 -5.85087e-06 0.00138976
0.000362704 3.97218e-05 2.78918e-06
3.97218e-05 -5.23234e-05 9.21294e-06
2.78918e-06 9.21294e-06 -9.69782e-05
0.00302874 0.000154904 -4.78447e-06
0.000154904 0.00167586 -5.62172e-07
-4.78447e-06 -5.62172e-07 0.0016629
0.0038731 0.000117776 -6.95214e-05
0.000117776 0.0022094 8.48725e-06
-6.95214e-05 8.48725e-06 0.0022009
0.00235376 0.000435797 2.9307e-06
0.000435797 -2.0399e-05 1.04756e-06
2.9307e-06 1.04756e-06 -9.94797e-06
0.00224151 0.000227502 2.75119e-06
0.000227502 -5.85195e-05 5.02492e-07
2.75119e-06 5.02492e-07 -7.57142e-06
0.00216145 7.43748e-05 1.74937e-06
7.43748e-05 -5.7475e-05 -2.10037e-07
1.74937e-06 -2.10037e-07 -2.29757e-06
0.00209149 -1.17653e-05 -3.1561e-06
-1.17653e-05 1.68821e-06 5.73235e-08
-3.1561e-06 5.73235e-08 1.55578e-05
0.00215808 -1.17599e-05 -7.29558e-07
-1.17599e-05 -5.72535e-05 7.12621e-09
-7.29558e-07 7.12621e-09 -2.36822e-06
0.00229563 0.000114682 4.76597e-07
0.000114682 -8.58074e-05 6.55073e-07
4.76597e-07 6.55073e-07 1.40566e-05
0.002429 0.00034428 -8.95133e-07
0.00034428 -6.74151e-05 -3.31337e-07
-8.95133e-07 -3.31337e-07 8.59717e-06
0.00226691 -1.26148e-05 -4.77918e-06
-1.26148e-05 -0.000114025 3.03117e-07
-4.77918e-06 3.03117e-07 1.16347e-06
0.00259819 0.000167879 -5.48169e-06
0.000167879 -5.52837e-05 -2.73984e-06
-5.48169e-06 -2.73984e-06 6.75758e-05
0.00243273 0.000136901 2.26044e-06
0.000136901 -0.000133957 6.34811e-06
2.26044e-06 6.34811e-06 -7.66364e-06
0.00218253 -0.000103387 1.02029e-06
-0.000103387 -3.26744e-05 2.93858e-07
1.02029e-06 2.93858e-07 1.04505e-05
0.00228146 -0.000302372 5.76735e-07
-0.000302372 -9.52454e-05 -1.10249e-06
5.76735e-07 -1.10249e-06 -2.27277e-05
0.00234908 -0.000488091 4.17678e-07
-0.000488091 -5.91807e-06 -9.06274e-07
4.17678e-07 -9.06274e-07 8.01809e-06
0.00138584 -0.000747995 2.64632e-06
-0.000747995 0.000335999 -1.13397e-06
2.64632e-06 -1.13397e-06 -0.00018899
0.00179444 -0.000945074 3.51516e-05
-0.000945074 0.00041095 -5.19378e-06
3.51516e-05 -5.19378e-06 -0.000161855
0.00248112 -0.000933725 1.46896e-05
-0.000933725 0.000586421 -4.73689e-06
1.46896e-05 -4.73689e-06 0.00013035
0.00237492 -0.000667629 3.15121e-06
-0.000667629 5.95402e-05 6.03875e-07
3.15121e-06 6.03875e-07 -1.56032e-05
0.00226401 -0.000794814 1.24245e-05
-0.000794814 0.000248779 6.25752e-07
1.24245e-05 6.25752e-07 -1.17587e-05
0.000786202 -0.00054949 2.90283e-06
-0.00054949 0.0001331 -2.08973e-05
2.90283e-06 -2.08973e-05 -0.000357582
0.00119337 -0.000469846 3.39771e-06
-0.000469846 0.000516273 -1.87264e-05
3.39771e-06 -1.87264e-05 -4.1705e-05
-0.000321593 -0.000145069 -4.48658e-06
-0.000145069 -0.000548012 7.76708e-06
-4.48658e-06 7.76708e-06 -0.000888242
0.000442938 1.46183e-05 2.24367e-06
1.46183e-05 2.26158e-05 3.36291e-06
2.24367e-06 3.36291e-06 -6.20555e-05
0.000162701 -2.42656e-06 7.43339e-06
-2.42656e-06 -0.000104536 1.565e-06
7.43339e-06 1.565e-06 -0.000303121
0.00106503 -0.000259564 1.07474e-07
-0.000259564 0.000526324 7.50103e-06
1.07474e-07 7.50103e-06 0.000168575
0.00228677 -0.000145835 3.50555e-07
-0.000145835 -0.000101273 3.65008e-07
3.50555e-07 3.65008e-07 6.20352e-06
0.000455503 2.003e-06 1.92661e-06
2.003e-06 1.19502e-05 3.63903e-07
1.92661e-06 3.63903e-07 -5.50234e-05
0.000320751 -8.65412e-05 -3.72275e-06
-8.65412e-05 -3.8637e-05 -1.09456e-06
-3.72275e-06 -1.09456e-06 -0.000150711
0.00243677 -0.000413228 -3.62347e-07
-0.000413228 -0.000116986 -2.25248e-07
-3.62347e-07 -2.25248e-07 4.3928e-06
0.00239964 -0.000605645 -1.94793e-06
-0.000605645 -2.29421e-05 6.79375e-07
-1.94793e-06 6.79375e-07 -4.24968e-06
0.00205119 -0.000877749 1.42992e-06
-0.000877749 0.000754028 1.89935e-06
1.42992e-06 1.89935e-06 0.000196133
0.00230664 -0.0011115 9.88724e-06
-0.0011115 0.000644624 -1.08056e-06
9.88724e-06 -1.08056e-06 1.91545e-05
0.00238148 -0.00100516 2.11793e-06
-0.00100516 0.00042815 -3.69861e-06
2.11793e-06 -3.69861e-06 -1.29345e-07
0.00246845 -0.000838434 2.32726e-06
-0.000838434 0.000132139 -5.91907e-07
2.32726e-06 -5.91907e-07 -1.92957e-05
0.000581463 9.52636e-06 -1.58703e-06
9.52636e-06 0.000174793 -1.20159e-06
-1.58703e-06 -1.20159e-06 2.74081e-05
0.000792751 -8.92367e-05 1.30659e-06
-8.92367e-05 0.000333966 1.99809e-06
1.30659e-06 1.99809e-06 5.9561e-05
0.00143934 -0.000656999 1.13269e-05
-0.000656999 0.000546444 1.15945e-05
1.13269e-05 1.15945e-05 5.8243e-05
0.00138709 -0.00050654 2.06444e-05
-0.00050654 0.000702951 -1.14981e-05
2.06444e-05 -1.14981e-05 3.24012e-05
0.000850969 -0.000217771 -3.04241e-06
-0.000217771 0.000291758 -2.21012e-07
-3.04241e-06 -2.21012e-07 -0.000124208
-0.000144503 -0.000182775 1.96216e-06
-0.000182775 -0.000293559 -2.32444e-06
1.96216e-06 -2.32444e-06 -0.000620044
0.00230439 -0.000169861 -4.86807e-06
-0.000169861 -0.000285216 5.3809e-06
-4.86807e-06 5.3809e-06 -0.000129961
0.00248175 -0.000540782 1.26132e-06
-0.000540782 -0.000250315 2.95478e-06
1.26132e-06 2.95478e-06 6.0382e-07
0.00276452 -0.000862163 -6.05192e-06
-0.000862163 0.000126368 -3.5232e-06
-6.05192e-06 -3.5232e-06 8.4744e-05
0.00275487 -0.0010901 1.04224e-05
-0.0010901 0.00039589 -1.40641e-06
1.04224e-05 -1.40641e-06 0.000103641
0.000964448 -0.000807169 -7.22965e-07
-0.000807169 0.00019302 -8.56358e-06
-7.22965e-07 -8.56358e-06 -0.000370846
0.00360925 -0.00137562 -1.05086e-05
-0.00137562 0.00123886 4.82626e-06
-1.05086e-05 4.82626e-06 0.000579368
0.000207923 6.51052e-05 -3.84629e-06
6.51052e-05 -0.000111381 -6.95549e-06
-3.84629e-06 -6.95549e-06 -0.000228016
0.000398255 -5.49799e-05 6.16843e-06
-5.49799e-05 1.37633e-05 -1.83581e-06
6.16843e-06 -1.83581e-06 -8.86252e-05
0.0018155 -0.000227276 -7.89243e-06
-0.000227276 0.000875108 1.66783e-05
-7.89243e-06 1.66783e-05 0.000725622
0.000219675 2.386e-05 -4.5217e-06
2.386e-05 -8.36397e-05 1.92969e-06
-4.5217e-06 1.92969e-06 -0.000272728
0.0010667 -0.000193135 -8.43661e-06
-0.000193135 0.000501023 8.47242e-06
-8.43661e-06 8.47242e-06 0.000185383
0.000462962 -7.5672e-05 6.24299e-06
-7.5672e-05 -3.81205e-06 -2.30922e-05
6.24299e-06 -2.30922e-05 -0.000284383
-0.00224694 -0.000232792 -3.09001e-06
-0.000232792 -0.00110982 -1.67879e-06
-3.09001e-06 -1.67879e-06 -0.00204716
0.00102459 -0.000826471 -4.93245e-05
-0.000826471 0.000161998 2.84239e-05
-4.93245e-05 2.84239e-05 -0.000227085
0.000243495 0.000189984 -1.91839e-07
0.000189984 7.34399e-06 -9.5702e-07
-1.91839e-07 -9.5702e-07 -0.000258019
0.0030414 0.000511006 -1.61065e-05
0.000511006 0.00175356 -7.5204e-06
-1.61065e-05 -7.5204e-06 0.00138846
0.00250516 0.000559828 -3.7136e-06
0.000559828 -0.000182152 -2.7524e-07
-3.7136e-06 -2.7524e-07 -8.02494e-05
0.00276544 0.000775822 -5.56624e-06
0.000775822 0.000369234 -1.09246e-06
-5.56624e-06 -1.09246e-06 0.000135851
0.00280291 0.00053563 -6.73893e-06
0.00053563 0.00118205 1.81696e-06
-6.73893e-06 1.81696e-06 0.000853767
0.00138089 0.00067601 -9.33812e-06
0.00067601 0.000336973 -9.09117e-07
-9.33812e-06 -9.09117e-07 -0.00015155
0.00216205 0.000841655 -5.70491e-06
0.000841655 0.000302922 2.74086e-06
-5.70491e-06 2.74086e-06 -9.91901e-05
0.0025032 0.00100875 -9.81178e-06
0.00100875 0.000771892 -7.38142e-07
-9.81178e-06 -7.38142e-07 0.000207408
5.73622e-05 0.000163168 2.01333e-06
0.000163168 -8.81669e-05 -3.66916e-07
2.01333e-06 -3.66916e-07 -0.000331766
0.00251203 0.000406549 -1.18645e-06
0.000406549 -0.00017892 -2.64585e-06
-1.18645e-06 -2.64585e-06 -4.93188e-05
0.00150005 0.000443134 3.12849e-06
0.000443134 0.000773394 5.54374e-06
3.12849e-06 5.54374e-06 0.000402945
0.00157622 0.000660561 3.10624e-06
0.000660561 0.000432509 1.96088e-06
3.10624e-06 1.96088e-06 -1.91398e-05
0.00273939 0.000727958 8.937e-07
0.000727958 0.000163622 -3.33416e-07
8.937e-07 -3.33416e-07 0.000148128
0.00192496 0.000878675 -2.30634e-06
0.000878675 3.87114e-05 -5.73807e-06
-2.30634e-06 -5.73807e-06 -0.000355108
0.00242511 0.0010135 -8.59621e-07
0.0010135 0.000698738 -2.11881e-07
-8.59621e-07 -2.11881e-07 0.000126711
0.00176099 0.000401139 -4.92384e-06
0.000401139 0.00108952 -2.2824e-06
-4.92384e-06 -2.2824e-06 0.00076227
0.00392928 0.000678378 -9.28411e-05
0.000678378 0.000613636 -3.27445e-05
-9.28411e-05 -3.27445e-05 0.000853292
0.00065175 0.000518799 -1.12671e-05
0.000518799 0.000196269 8.05521e-06
-1.12671e-05 8.05521e-06 -0.000221399
0.00145786 0.000737279 -7.03541e-06
0.000737279 0.000317384 -1.06595e-05
-7.03541e-06 -1.06595e-05 -0.000194056
0.00313213 0.00101749 -4.00627e-05
0.00101749 0.000559283 -2.38066e-05
-4.00627e-05 -2.38066e-05 0.000295712
0.00115462 0.000863581 -2.97126e-05
0.000863581 -4.26353e-05 -4.44176e-06
-2.97126e-05 -4.44176e-06 -0.000552742
0.00127088 0.00125124 1.97136e-05
0.00125124 -0.00197719 -5.06626e-05
1.97136e-05 -5.06626e-05 -0.00118711
0.000184373 0.000169083 7.22714e-06
0.000169083 -3.15629e-05 3.68299e-06
7.22714e-06 3.68299e-06 -0.000163897
0.000381235 0.000131141 3.10494e-06
0.000131141 0.000113129 1.71999e-06
3.10494e-06 1.71999e-06 1.43332e-05
0.000644884 0.000134054 1.81716e-06
0.000134054 0.000251616 -3.99513e-06
1.81716e-06 -3.99513e-06 0.000164406
0.000372595 -6.57526e-05 1.46377e-06
-6.57526e-05 1.42752e-05 -4.86536e-06
1.46377e-06 -4.86536e-06 -0.0001221
0.000269901 -1.68474e-05 -2.24677e-07
-1.68474e-05 -6.27261e-06 -2.89463e-06
-2.24677e-07 -2.89463e-06 -0.000185765
0.00151504 0.000259305 -2.3002e-07
0.000259305 0.000799784 5.30596e-08
-2.3002e-07 5.30596e-08 0.00059137
-0.000522167 5.31483e-05 -7.6633e-06
5.31483e-05 -0.000528875 2.10195e-05
-7.6633e-06 2.10195e-05 -0.000598116
0.000489426 -1.70973e-05 -1.25247e-07
-1.70973e-05 8.637e-05 -2.65871e-07
-1.25247e-07 -2.65871e-07 -5.81674e-05
0.000407688 8.57951e-05 1.50988e-07
8.57951e-05 3.50733e-05 -6.65367e-07
1.50988e-07 -6.65367e-07 -0.000130057
0.000793208 0.000143946 4.19167e-06
0.000143946 0.000240319 3.77629e-06
4.19167e-06 3.77629e-06 0.000193656
0.00034232 8.12761e-05 1.27204e-06
8.12761e-05 3.28766e-05 8.73971e-07
1.27204e-06 8.73971e-07 -0.000148214
0.000594176 8.29289e-05 7.83963e-09
8.29289e-05 0.000149613 -2.0047e-06
7.83963e-09 -2.0047e-06 3.86128e-05
0.00105867 0.000147642 -3.12209e-06
0.000147642 0.000470446 -1.58437e-05
-3.12209e-06 -1.58437e-05 0.00039643
0.000828762 0.000158493 -2.88815e-06
0.000158493 0.00026838 -5.90025e-06
-2.88815e-06 -5.90025e-06 0.000118759
0.00098118 0.000149155 1.85358e-06
0.000149155 0.000427541 3.20777e-06
1.85358e-06 3.20777e-06 0.00023563
0.00088136 0.000126767 -9.32745e-07
0.000126767 0.000352879 7.15081e-07
-9.32745e-07 7.15081e-07 0.000160587
0.000212788 -2.55036e-05 -1.94791e-06
-2.55036e-05 -0.00011652 1.29443e-06
-1.94791e-06 1.29443e-06 -0.000252754
0.00135683 -0.000124547 1.18812e-06
-0.000124547 0.000729175 -2.18446e-06
1.18812e-06 -2.18446e-06 0.000494418
7.30633e-05 -5.18037e-05 -3.34932e-07
-5.18037e-05 -0.000196183 3.36105e-06
-3.34932e-07 3.36105e-06 -0.00033706
0.000404396 2.41621e-06 -2.01104e-06
2.41621e-06 4.4875e-06 2.91535e-06
-2.01104e-06 2.91535e-06 -8.88009e-05
0.000429953 4.24418e-05 2.49313e-06
4.24418e-05 1.93215e-05 -1.01524e-07
2.49313e-06 -1.01524e-07 -7.31227e-05
0.000340818 2.0805e-05 -1.43508e-06
2.0805e-05 -6.5859e-05 4.86951e-06
-1.43508e-06 4.86951e-06 -9.34553e-05
0.000370716 1.24007e-06 -1.55836e-06
1.24007e-06 -1.7229e-05 -4.2452e-06
-1.55836e-06 -4.2452e-06 -0.000108247
0.000861389 1.70984e-05 -4.21957e-06
1.70984e-05 0.00026287 -1.5159e-06
-4.21957e-06 -1.5159e-06 0.000238034
0.00265975 1.62634e-06 2.62667e-05
1.62634e-06 0.00140027 5.86452e-06
2.62667e-05 5.86452e-06 0.00141253
0.00141407 4.29265e-05 -1.5008e-05
4.29265e-05 0.000612712 -7.70723e-06
-1.5008e-05 -7.70723e-06 0.000589045
0.000765458 -6.968e-06 1.05184e-05
-6.968e-06 0.00018218 3.666e-06
1.05184e-05 3.666e-06 0.000185054
0.000833137 -1.9816e-05 1.21413e-06
-1.9816e-05 0.000216685 -3.07457e-06
1.21413e-06 -3.07457e-06 0.000218549
0.000432594 1.15278e-05 -2.61058e-06
1.15278e-05 1.51675e-06 -3.80007e-06
-2.61058e-06 -3.80007e-06 -5.8942e-05
0.000527472 -3.77096e-05 5.47418e-07
-3.77096e-05 5.78507e-05 -3.40607e-07
5.47418e-07 -3.40607e-07 -5.74644e-06
0.000448415 2.33153e-05 -1.59429e-07
2.33153e-05 -2.18837e-05 -4.37982e-06
-1.59429e-07 -4.37982e-06 -4.1211e-05
0.000789765 4.63987e-05 1.21064e-08
4.63987e-05 0.000207305 1.33974e-07
1.21064e-08 1.33974e-07 0.000182935
0.00241617 8.46512e-05 4.06239e-06
8.46512e-05 0.00125716 -5.36393e-06
4.06239e-06 -5.36393e-06 0.00126208
0.00046977 6.76474e-05 6.38804e-06
6.76474e-05 2.22931e-05 7.71165e-06
6.38804e-06 7.71165e-06 -1.89249e-05
0.00261846 0.000115235 -2.4973e-06
0.000115235 0.00139759 -2.48219e-07
-2.4973e-06 -2.48219e-07 0.00139507
0.00311336 0.0001425 3.22545e-06
0.0001425 0.00172466 8.18164e-06
3.22545e-06 8.18164e-06 0.00171388
0.00232104 0.000352689 2.80263e-06
0.000352689 -0.000122726 1.64509e-06
2.80263e-06 1.64509e-06 -4.57152e-05
0.00228735 0.000110223 6.47178e-06
0.000110223 -8.29763e-05 -3.72662e-07
6.47178e-06 -3.72662e-07 1.52693e-05
0.00216632 -7.41018e-06 1.45563e-06
-7.41018e-06 -5.51482e-05 -5.35324e-08
1.45563e-06 -5.35324e-08 3.29626e-06
0.00225657 -6.66028e-06 2.50801e-09
-6.66028e-06 -0.000118693 -4.33822e-07
2.50801e-09 -4.33822e-07 -3.50842e-06
0.00250515 0.000175637 1.00434e-06
0.000175637 -0.00010017 2.48794e-07
1.00434e-06 2.48794e-07 2.18253e-05
0.00262265 0.000120002 6.64093e-06
0.000120002 -1.12323e-05 -5.22891e-06
6.64093e-06 -5.22891e-06 0.000101269
0.00263322 1.56868e-05 -1.27248e-05
1.56868e-05 -0.000123626 -2.62283e-06
-1.27248e-05 -2.62283e-06 5.02632e-05
0.00512726 0.00126307 8.02256e-05
0.00126307 -0.000874977 9.47346e-06
8.02256e-05 9.47346e-06 0.000269665
0.00303824 0.000109194 -2.79723e-05
0.000109194 0.000377449 2.43124e-05
-2.79723e-05 2.43124e-05 0.000649186
0.0004827 0.000121761 -3.96937e-06
0.000121761 7.25074e-05 -3.1275e-06
-3.96937e-06 -3.1275e-06 -3.8753e-05
0.00227854 -0.000148667 4.408e-06
-0.000148667 -0.000116522 -1.95162e-06
4.408e-06 -1.95162e-06 -5.93903e-06
0.00241432 -0.000402122 2.24032e-06
-0.000402122 -0.00010503 -9.93483e-07
2.24032e-06 -9.93483e-07 5.22977e-07
0.00238761 -0.000594092 -1.51751e-07
-0.000594092 -2.01134e-05 3.76841e-07
-1.51751e-07 3.76841e-07 8.11292e-06
0.00176683 -0.000864814 -4.46694e-06
-0.000864814 0.000590733 7.30098e-06
-4.46694e-06 7.30098e-06 3.63326e-05
0.00231497 -0.00108597 3.52584e-05
-0.00108597 0.000669424 4.18847e-06
3.52584e-05 4.18847e-06 5.89344e-05
0.00193229 -0.000948457 1.23908e-06
-0.000948457 0.000174917 -1.26319e-06
1.23908e-06 -1.26319e-06 -0.000234452
0.00242626 -0.000838034 1.89011e-06
-0.000838034 0.00010308 -1.19895e-06
1.89011e-06 -1.19895e-06 -4.01298e-05
0.00136705 -0.000621189 2.62279e-05
-0.000621189 0.000412762 -4.88269e-05
2.62279e-05 -4.88269e-05 -2.4873e-06
0.00206973 -0.000619971 1.08232e-05
-0.000619971 0.00103518 -5.24804e-05
1.08232e-05 -5.24804e-05 0.000394173
0.00140913 -0.00022374 6.61857e-06
-0.00022374 0.000608949 1.20385e-05
6.61857e-06 1.20385e-05 0.000226376
0.000440536 7.76944e-06 3.30038e-06
7.76944e-06 4.09761e-06 2.91868e-06
3.30038e-06 2.91868e-06 -6.43471e-05
0.00137569 -0.000232417 2.72796e-06
-0.000232417 0.000678143 1.281e-05
2.72796e-06 1.281e-05 0.000330226
0.000983469 -3.8338e-05 7.71693e-06
-3.8338e-05 0.000454307 8.01872e-07
7.71693e-06 8.01872e-07 0.000294201
0.000450346 -7.19452e-05 3.41189e-06
-7.19452e-05 9.72805e-05 -1.10005e-06
3.41189e-06 -1.10005e-06 -0.0001645
-0.000156829 -3.18283e-05 -4.39562e-06
-3.18283e-05 -0.000359597 1.19323e-06
-4.39562e-06 1.19323e-06 -0.000461012
0.00241981 -0.000194706 8.66837e-08
-0.000194706 -0.000237874 9.77186e-07
8.66837e-08 9.77186e-07 -5.78239e-05
0.000346944 4.19875e-05 6.71461e-07
4.19875e-05 -8.5635e-06 -2.90153e-06
6.71461e-07 -2.90153e-06 -0.000131172
0.000600628 -7.96028e-05 3.3198e-06
-7.96028e-05 0.000170643 1.52701e-06
3.3198e-06 1.52701e-06 5.0539e-05
0.0010653 -0.000148199 6.59541e-06
-0.000148199 0.000393273 -1.02927e-06
6.59541e-06 -1.02927e-06 0.000268465
0.00247663 -0.000556205 2.15987e-06
-0.000556205 -0.000238709 -8.32904e-07
2.15987e-06 -8.32904e-07 -2.59602e-05
0.00265095 -0.000848581 -2.35524e-07
-0.000848581 6.56986e-05 5.32524e-07
-2.35524e-07 5.32524e-07 3.11508e-05
0.000732198 -0.000684687 6.52042e-06
-0.000684687 2.32167e-05 8.782e-08
6.52042e-06 8.782e-08 -0.000452204
0.00262322 -0.00124563 1.70037e-05
-0.00124563 0.000685988 1.47308e-06
1.70037e-05 1.47308e-06 6.46836e-05
0.00261035 -0.00108483 -4.44437e-08
-0.00108483 0.000326958 1.54061e-06
-4.44437e-08 1.54061e-06 2.64882e-05
0.000234628 -1.39819e-05 -4.68968e-07
-1.39819e-05 -7.50721e-05 1.40145e-07
-4.68968e-07 1.40145e-07 -0.000258066
0.00127385 -0.000195658 2.11316e-06
-0.000195658 0.000653898 3.91881e-06
2.11316e-06 3.91881e-06 0.00031671
0.00212692 -0.000983914 -1.2506e-06
-0.000983914 0.000806382 3.79588e-06
-1.2506e-06 3.79588e-06 0.00028774
0.00110937 -0.000367702 -4.4717e-07
-0.000367702 0.000635853 6.52293e-06
-4.4717e-07 6.52293e-06 -6.49533e-05
0.00141608 -0.000179589 3.20744e-06
-0.000179589 0.000617148 9.58272e-06
3.20744e-06 9.58272e-06 0.000316497
0.00283624 -0.000387804 -1.16303e-05
-0.000387804 -3.2218e-05 1.36182e-05
-1.16303e-05 1.36182e-05 0.000187514
0.00221749 -0.000624247 -1.10132e-05
-0.000624247 -0.000369897 6.21519e-06
-1.10132e-05 6.21519e-06 -7.89019e-05
0.00248891 -0.000998835 -1.39142e-05
-0.000998835 0.000121042 -4.82206e-06
-1.39142e-05 -4.82206e-06 -8.95981e-05
0.00458226 -0.00146226 4.01122e-06
-0.00146226 0.00159264 7.0458e-06
4.01122e-06 7.0458e-06 0.00113432
-0.000290209 -0.00077612 -1.18358e-05
-0.00077612 -0.000656561 1.43824e-05
-1.18358e-05 1.43824e-05 -0.00114004
-8.75348e-05 -2.79573e-05 -3.51253e-07
-2.79573e-05 -0.000285137 2.10023e-06
-3.51253e-07 2.10023e-06 -0.000406494
0.00107361 7.24307e-06 -3.56737e-06
7.24307e-06 0.000352512 1.47431e-05
-3.56737e-06 1.47431e-05 0.000222376
-0.000843404 -0.000206598 -1.00358e-05
-0.000206598 -0.000798707 -1.60935e-06
-1.00358e-05 -1.60935e-06 -0.000915539
0.00186069 -0.000311209 -3.87203e-05
-0.000311209 0.000964605 3.15891e-05
-3.87203e-05 3.15891e-05 0.000688776
0.000889005 -0.000159496 -5.68731e-06
-0.000159496 0.000380331 2.73855e-05
-5.68731e-06 2.73855e-05 8.41628e-05
-0.00180994 -0.00010397 8.19671e-06
-0.00010397 -0.000718416 1.95554e-06
8.19671e-06 1.95554e-06 -0.00151483
0.00107934 -0.00104023 -1.03192e-05
-0.00104023 0.000535478 -9.84162e-06
-1.03192e-05 -9.84162e-06 -0.000221359
0.00184562 0.000439512 7.27019e-09
0.000439512 0.00103983 -3.38357e-06
7.27019e-09 -3.38357e-06 0.000751361
0.000218907 0.000256353 -3.06349e-06
0.000256353 2.35761e-06 -1.42479e-06
-3.06349e-06 -1.42479e-06 -0.000309809
0.00261571 0.000384922 1.00027e-05
0.000384922 -0.000119828 6.28216e-06
1.00027e-05 6.28216e-06 2.79722e-05
0.00284254 0.000713475 1.47465e-05
0.000713475 0.000246425 9.50612e-06
1.47465e-05 9.50612e-06 0.000230895
0.00242884 0.000938275 7.04305e-06
0.000938275 0.000333342 4.45192e-06
7.04305e-06 4.45192e-06 -6.88466e-05
0.001464 0.000633226 -2.21687e-06
0.000633226 0.000401574 3.10977e-06
-2.21687e-06 3.10977e-06 -4.24137e-05
0.00174142 0.000905209 1.88653e-06
0.000905209 0.000330644 4.58736e-06
1.88653e-06 4.58736e-06 -0.000216147
0.002424 0.000452686 1.0029e-07
0.000452686 0.0014368 1.86201e-07
1.0029e-07 1.86201e-07 0.00115055
0.00300312 0.000541155 1.08588e-05
0.000541155 0.000113026 4.53631e-06
1.08588e-05 4.53631e-06 0.000408329
0.000987963 0.000481412 -5.82469e-06
0.000481412 0.000372638 5.46974e-06
-5.82469e-06 5.46974e-06 -1.78984e-06
0.00170346 0.000779046 3.13661e-06
0.000779046 0.000505379 -2.1134e-06
3.13661e-06 -2.1134e-06 -2.96286e-05
0.00274943 0.000961176 -2.36833e-06
0.000961176 0.000378569 -4.20474e-06
-2.36833e-06 -4.20474e-06 0.000150285
0.0020017 0.000978358 -5.65756e-06
0.000978358 0.000428672 6.49665e-06
-5.65756e-06 6.49665e-06 -0.000110103
0.00295036 0.00157035 4.76385e-05
0.00157035 -0.00140481 1.01636e-05
4.76385e-05 1.01636e-05 -0.000786418
0.000418779 0.000336592 1.72821e-06
0.000336592 0.000316362 1.15635e-06
1.72821e-06 1.15635e-06 -1.78386e-05
0.00361701 0.00105852 -0.000104353
0.00105852 0.000545229 -4.56647e-05
-0.000104353 -4.56647e-05 0.000536261
0.000214719 0.000462624 -1.60808e-05
0.000462624 -0.000302242 5.1972e-06
-1.60808e-05 5.1972e-06 -0.000693987
0.000136693 0.000643943 -6.5492e-06
0.000643943 -0.000438561 -2.08137e-05
-6.5492e-06 -2.08137e-05 -0.000927465
0.00182498 0.00109334 -4.68687e-05
0.00109334 7.21696e-05 -2.1163e-05
-4.68687e-05 -2.1163e-05 -0.000295246
0.0156782 0.000699476 -0.000694353
0.000699476 0.00155982 -0.000105172
-0.000694353 -0.000105172 0.00166401
0.00276666 0.0023709 -9.73606e-05
0.0023709 -0.00350931 -8.90894e-05
-9.73606e-05 -8.90894e-05 -0.00104645
0.00148946 0.00191652 1.89584e-05
0.00191652 -0.000634209 -3.35805e-06
1.89584e-05 -3.35805e-06 -0.000836955
0.00478777 -0.00365462 0.00238479
-0.00365462 0.00274271 0.000326519
0.00238479 0.000326519 -0.00230041
0.0283506 -0.0125019 -4.50432e-05
-0.0125019 0.0139731 7.05375e-05
-4.50432e-05 7.05375e-05 0.00724978
0.000786944 0.00017317 6.77068e-06
0.00017317 0.000381767 7.8326e-06
6.77068e-06 7.8326e-06 0.000268169
0.000945234 0.000148131 -2.42509e-06
0.000148131 0.000477343 -1.80122e-06
-2.42509e-06 -1.80122e-06 0.00037105
0.000929853 0.000227472 7.13727e-06
0.000227472 0.000484599 -3.20149e-06
7.13727e-06 -3.20149e-06 0.00033959
0.000507882 -6.11344e-05 5.84084e-07
-6.11344e-05 0.000109333 -2.87497e-06
5.84084e-07 -2.87497e-06 -4.17586e-05
0.000399205 7.39836e-05 -1.23184e-07
7.39836e-05 3.60163e-05 -3.87219e-06
-1.23184e-07 -3.87219e-06 -0.000128854
0.00061134 -1.27843e-05 -4.28326e-07
-1.27843e-05 0.000201613 -1.47267e-06
-4.28326e-07 -1.47267e-06 2.14168e-05
0.0010892 0.000112986 2.73013e-07
0.000112986 0.000446535 1.26601e-05
2.73013e-07 1.26601e-05 0.000329422
0.000263631 0.000112962 3.17641e-06
0.000112962 -8.94854e-05 1.31757e-05
3.17641e-06 1.31757e-05 -0.000128068
0.000796404 0.000172514 -1.17963e-06
0.000172514 0.000354599 6.7615e-08
-1.17963e-06 6.7615e-08 0.000137119
0.000394922 -2.16584e-05 2.7651e-07
-2.16584e-05 1.04294e-05 1.12881e-06
2.7651e-07 1.12881e-06 -0.000133031
0.000696629 7.02588e-05 -8.5868e-07
7.02588e-05 0.000229199 1.68608e-07
-8.5868e-07 1.68608e-07 4.37799e-05
0.000325855 0.000112578 -2.60381e-06
0.000112578 -5.63815e-06 -3.68678e-06
-2.60381e-06 -3.68678e-06 -7.20816e-05
0.000729643 0.000137966 -1.45634e-06
0.000137966 0.000228624 -4.647e-07
-1.45634e-06 -4.647e-07 7.98408e-05
0.00232632 0.000292525 -1.16353e-06
0.000292525 0.00128441 -1.72941e-06
-1.16353e-06 -1.72941e-06 0.00106798
0.000150103 0.000102946 -1.03649e-06
0.000102946 -2.44795e-06 -8.41459e-06
-1.03649e-06 -8.41459e-06 -0.000194852
0.000895338 0.00010576 3.51978e-06
0.00010576 0.000399508 -8.55286e-07
3.51978e-06 -8.55286e-07 0.000202442
0.000106992 9.04863e-06 -5.70551e-07
9.04863e-06 -0.000175822 -1.07703e-06
-5.70551e-07 -1.07703e-06 -0.000350051
0.000293553 -7.41704e-05 -5.04548e-07
-7.41704e-05 -5.11527e-05 -2.4721e-07
-5.04548e-07 -2.4721e-07 -0.000194099
0.000334312 -2.12045e-05 -2.70887e-07
-2.12045e-05 -4.87178e-06 -3.16753e-06
-2.70887e-07 -3.16753e-06 -0.000176353
0.00135002 -6.81613e-05 2.21899e-06
-6.81613e-05 0.000632178 -1.13022e-05
2.21899e-06 -1.13022e-05 0.0004616
0.000955023 -7.35555e-05 -2.32269e-06
-7.35555e-05 0.000450158 -1.62441e-06
-2.32269e-06 -1.62441e-06 0.000258598
0.00078485 -9.80216e-05 2.13747e-06
-9.80216e-05 0.000316777 -8.18242e-07
2.13747e-06 -8.18242e-07 0.000119628
0.000574483 -0.000129606 -1.20943e-06
-0.000129606 0.00014276 5.11615e-06
-1.20943e-06 5.11615e-06 -8.31729e-06
0.000155452 -2.78995e-05 1.12596e-07
-2.78995e-05 -0.000136064 1.06817e-06
1.12596e-07 1.06817e-06 -0.000282796
0.000490732 -6.90507e-05 -1.28775e-06
-6.90507e-05 4.97361e-05 3.9115e-06
-1.28775e-06 3.9115e-06 -3.77215e-05
0.000484309 -4.68072e-05 2.10605e-06
-4.68072e-05 5.32972e-05 1.25336e-07
2.10605e-06 1.25336e-07 -3.89899e-05
0.000385135 6.27418e-07 3.92597e-06
6.27418e-07 -3.32589e-05 6.70748e-06
3.92597e-06 6.70748e-06 -6.27628e-05
0.000463949 6.16167e-05 -1.51611e-06
6.16167e-05 3.35509e-05 -3.39547e-06
-1.51611e-06 -3.39547e-06 -5.36827e-05
0.00036539 3.10814e-05 5.00659e-07
3.10814e-05 -4.89603e-05 1.08016e-07
5.00659e-07 1.08016e-07 -7.70403e-05
0.0025882 9.93975e-06 1.22082e-05
9.93975e-06 0.00135607 5.55942e-06
1.22082e-05 5.55942e-06 0.00136769
0.000407777 5.66855e-05 -4.69654e-06
5.66855e-05 -2.1852e-05 -8.04522e-06
-4.69654e-06 -8.04522e-06 -5.29665e-05
0.0016967 -1.90796e-06 -7.61141e-06
-1.90796e-06 0.000782419 1.59399e-07
-7.61141e-06 1.59399e-07 0.000789266
0.000807786 -9.18689e-06 7.85163e-07
-9.18689e-06 0.000204282 -2.485e-06
7.85163e-07 -2.485e-06 0.000206962
0.000381247 1.81191e-05 -9.93104e-07
1.81191e-05 -4.10292e-05 -2.91128e-06
-9.93104e-07 -2.91128e-06 -8.88154e-05
0.000489519 -4.29582e-05 3.68444e-07
-4.29582e-05 4.14743e-05 1.16519e-07
3.68444e-07 1.16519e-07 -2.11619e-05
0.000485621 9.24332e-06 1.23996e-06
9.24332e-06 -2.33228e-06 -4.01393e-06
1.23996e-06 -4.01393e-06 -1.6984e-05
0.000465802 -5.07923e-05 -6.77762e-07
-5.07923e-05 1.98269e-05 1.15443e-06
-6.77762e-07 1.15443e-06 -4.49203e-05
0.000801952 2.85775e-05 -4.86378e-08
2.85775e-05 0.000205726 -8.41789e-07
-4.86378e-08 -8.41789e-07 0.000188618
0.00213786 6.08931e-05 2.4087e-06
6.08931e-05 0.00107063 -5.14224e-06
2.4087e-06 -5.14224e-06 0.00108115
0.000429409 3.40552e-05 1.44808e-06
3.40552e-05 -2.67992e-05 5.40299e-06
1.44808e-06 5.40299e-06 -5.29773e-05
0.00255299 9.2888e-05 -3.6536e-06
9.2888e-05 0.00134891 1.40846e-06
-3.6536e-06 1.40846e-06 0.00135186
0.00278778 0.000127024 1.3979e-05
0.000127024 0.0015104 8.17706e-06
1.3979e-05 8.17706e-06 0.00150533
0.00243543 0.00018651 5.62016e-06
0.00018651 -0.000125487 5.49847e-07
5.62016e-06 5.49847e-07 -4.81829e-06
0.0022455 -2.53779e-06 5.01693e-06
-2.53779e-06 -0.000124515 -6.9121e-07
5.01693e-06 -6.9121e-07 -9.57643e-06
0.00239234 8.72795e-05 3.02333e-06
8.72795e-05 -0.000182125 7.62977e-06
3.02333e-06 7.62977e-06 -6.89607e-05
0.00270821 0.000968864 0.000120806
0.000968864 -0.00212695 3.08933e-05
0.000120806 3.08933e-05 -0.000882649
0.00257064 -2.01522e-05 -1.29218e-06
-2.01522e-05 -0.000141523 -1.55804e-06
-1.29218e-06 -1.55804e-06 3.02474e-05
0.00254296 9.23287e-05 -5.44408e-06
9.23287e-05 6.19138e-05 -6.9031e-06
-5.44408e-06 -6.9031e-06 0.000273531
0.00243155 -5.05636e-05 -3.95469e-05
-5.05636e-05 6.00376e-05 -1.95876e-06
-3.95469e-05 -1.95876e-06 0.000164267
0.00329537 0.000540726 -7.04014e-05
0.000540726 -0.00246991 -4.72308e-05
-7.04014e-05 -4.72308e-05 -0.00081268
0.00278025 0.000312337 0.000156003
0.000312337 -0.00113688 6.42016e-05
0.000156003 6.42016e-05 -0.000410562
0.000569937 9.4849e-05 7.57304e-08
9.4849e-05 0.000130017 -2.69623e-06
7.57304e-08 -2.69623e-06 2.18195e-05
0.000562403 -3.59799e-06 -2.61236e-07
-3.59799e-06 0.000137562 -1.39732e-07
-2.61236e-07 -1.39732e-07 1.7425e-05
0.000278951 -9.6731e-05 -7.26707e-06
-9.6731e-05 -3.9567e-05 1.77911e-06
-7.26707e-06 1.77911e-06 -0.00016727
0.000313566 -5.94213e-05 -4.04773e-06
-5.94213e-05 -8.78398e-06 7.26124e-07
-4.04773e-06 7.26124e-07 -0.000138914
0.00249084 -0.000213919 1.49206e-06
-0.000213919 -0.000211984 -7.85578e-06
1.49206e-06 -7.85578e-06 -1.46477e-05
0.0024499 -0.000563231 -1.71556e-06
-0.000563231 -0.00022634 -1.68354e-06
-1.71556e-06 -1.68354e-06 -5.58141e-05
0.00253112 -0.000835467 5.35872e-07
-0.000835467 3.57476e-06 1.45377e-06
5.35872e-07 1.45377e-06 -2.95193e-05
0.00418477 -0.00108923 2.47081e-05
-0.00108923 0.00199345 2.79136e-06
2.47081e-05 2.79136e-06 0.00143801
0.00114508 -0.00109513 -8.35032e-06
-0.00109513 -0.000172098 1.60351e-06
-8.35032e-06 1.60351e-06 -0.000753557
0.00246704 -0.00108371 -1.90705e-06
-0.00108371 0.000256853 -4.62039e-06
-1.90705e-06 -4.62039e-06 -5.29977e-05
-0.000339299 -0.00070153 2.3207e-06
-0.00070153 -0.000558673 -2.12545e-05
2.3207e-06 -2.12545e-05 -0.00114377
0.00410653 -0.000511163 1.25126e-05
-0.000511163 0.00211617 -5.52927e-06
1.25126e-05 -5.52927e-06 0.00165954
-0.000222622 -9.37493e-05 -1.9869e-06
-9.37493e-05 -0.000411553 1.05926e-05
-1.9869e-06 1.05926e-05 -0.000697357
0.000674858 -7.44606e-05 4.4798e-06
-7.44606e-05 0.000216389 1.06163e-06
4.4798e-06 1.06163e-06 9.5461e-05
0.000530262 -0.000128312 -8.16371e-06
-0.000128312 0.000203858 -1.10849e-05
-8.16371e-06 -1.10849e-05 -0.000137041
0.000568169 -5.14923e-05 5.3012e-06
-5.14923e-05 0.000137886 1.20324e-06
5.3012e-06 1.20324e-06 -4.38308e-05
0.000537673 -2.46743e-06 9.94698e-07
-2.46743e-06 0.000137611 3.51971e-06
9.94698e-07 3.51971e-06 3.35832e-06
0.000561021 -7.50478e-05 -1.05659e-05
-7.50478e-05 6.5607e-05 4.97683e-06
-1.05659e-05 4.97683e-06 -3.78548e-05
0.00273929 -0.000362964 2.31592e-06
-0.000362964 -7.52315e-05 9.73122e-07
2.31592e-06 9.73122e-07 0.000157725
0.000390642 -3.87396e-05 -8.10446e-07
-3.87396e-05 3.90453e-05 3.53253e-06
-8.10446e-07 3.53253e-06 -0.000104819
0.000824644 -7.52255e-05 8.94994e-06
-7.52255e-05 0.000204118 -1.5058e-06
8.94994e-06 -1.5058e-06 7.52124e-05
-0.00094815 -7.77748e-05 1.10117e-05
-7.77748e-05 -0.000788161 -3.22513e-07
1.10117e-05 -3.22513e-07 -0.000867148
0.00222854 -0.000644296 3.74043e-07
-0.000644296 -0.000376874 -1.06154e-06
3.74043e-07 -1.06154e-06 -0.000117729
0.00247345 -0.00100588 2.66606e-06
-0.00100588 0.000107612 -1.29214e-06
2.66606e-06 -1.29214e-06 -0.000105858
0.0018908 -0.00110039 -1.32597e-05
-0.00110039 0.000554856 6.11933e-07
-1.32597e-05 6.11933e-07 -2.2114e-06
0.00309717 -0.00131072 -3.85886e-06
-0.00131072 0.000772921 -3.06661e-08
-3.85886e-06 -3.06661e-08 0.00033486
0.00166931 -0.000198932 1.04411e-05
-0.000198932 0.000862426 -6.11005e-06
1.04411e-05 -6.11005e-06 0.000572516
-0.000778442 -3.73024e-05 8.34804e-06
-3.73024e-05 -0.000665864 8.53552e-06
8.34804e-06 8.53552e-06 -0.000976064
0.00152481 -0.00121352 -5.34762e-07
-0.00121352 0.00087927 -1.19784e-06
-5.34762e-07 -1.19784e-06 2.97256e-05
0.00185819 -0.00054973 -1.11238e-05
-0.00054973 0.000997147 -1.87459e-06
-1.11238e-05 -1.87459e-06 0.000412356
0.00380318 -0.000540042 -5.14562e-05
-0.000540042 0.000534077 1.97873e-05
-5.14562e-05 1.97873e-05 0.000844786
0.00282833 -0.000845001 -3.48299e-05
-0.000845001 0.00019265 1.38022e-05
-3.48299e-05 1.38022e-05 0.000267767
0.00280478 -0.00116278 -2.83022e-06
-0.00116278 0.000538938 -1.73189e-05
-2.83022e-06 -1.73189e-05 0.000127448
0.00276522 -0.00128921 1.78148e-05
-0.00128921 0.000813358 3.81882e-05
1.78148e-05 3.81882e-05 0.000395965
-6.46095e-06 -0.000134178 -7.01496e-06
-0.000134178 -6.64712e-05 -1.08147e-05
-7.01496e-06 -1.08147e-05 -0.000235698
0.000568471 -0.000203303 -1.74088e-05
-0.000203303 0.000135649 -7.33727e-06
-1.74088e-05 -7.33727e-06 -0.000127493
0.000309036 -0.000246972 -1.14009e-05
-0.000246972 0.000307634 7.17169e-05
-1.14009e-05 7.17169e-05 -7.29857e-05
1.38802e-05 -0.00100936 -4.06877e-06
-0.00100936 0.000706206 -4.4652e-05
-4.06877e-06 -4.4652e-05 -0.000483851
0.00460416 -0.000456884 8.0772e-05
-0.000456884 -0.00608882 -2.11947e-06
8.0772e-05 -2.11947e-06 -0.0062721
0.00236834 0.000357955 1.01622e-05
0.000357955 0.00139023 -3.94262e-06
1.01622e-05 -3.94262e-06 0.00111278
0.000758839 0.000398701 7.62379e-07
0.000398701 0.00022286 -2.80452e-06
7.62379e-07 -2.80452e-06 -0.000117884
0.00183923 0.000425666 5.55736e-05
0.000425666 -0.000567575 2.56696e-05
5.55736e-05 2.56696e-05 -0.000211918
0.0024748 0.000919032 2.68404e-05
0.000919032 0.000254327 1.33101e-05
2.68404e-05 1.33101e-05 5.65243e-05
0.00274179 0.00107625 1.40162e-05
0.00107625 0.000843744 1.49667e-05
1.40162e-05 1.49667e-05 0.000279535
0.00173545 0.000793263 1.42256e-05
0.000793263 0.000554426 1.17725e-05
1.42256e-05 1.17725e-05 3.65176e-06
0.00526594 0.00199611 0.000103282
0.00199611 -0.000567134 3.55934e-05
0.000103282 3.55934e-05 -0.000165293
0.00104535 0.000343802 3.81816e-06
0.000343802 0.000648387 -3.16769e-06
3.81816e-06 -3.16769e-06 0.000344264
0.00299004 0.000968742 -1.46233e-05
0.000968742 0.000177422 2.55441e-06
-1.46233e-05 2.55441e-06 0.000244543
0.000989171 0.000562125 -7.42407e-06
0.000562125 0.000217687 5.77193e-06
-7.42407e-06 5.77193e-06 -0.000210949
0.00169702 0.00087599 1.17636e-06
0.00087599 0.000449694 -8.24572e-06
1.17636e-06 -8.24572e-06 -9.1308e-05
0.00268181 0.00116019 -1.2732e-05
0.00116019 0.000550327 -1.47916e-07
-1.2732e-05 -1.47916e-07 0.00015309
0.00539264 -0.000465842 -0.000204957
-0.000465842 -0.00597231 -0.00013588
-0.000204957 -0.00013588 -0.00637817
0.00681169 0.00258868 -0.000182756
0.00258868 -0.00120381 -7.69176e-05
-0.000182756 -7.69176e-05 0.000790732
0.00123937 0.00181023 -4.20629e-06
0.00181023 -0.000703383 1.75802e-06
-4.20629e-06 1.75802e-06 -0.00100188
0.0046055 -0.00327096 0.000769014
-0.00327096 0.00409274 0.000264613
0.000769014 0.000264613 0.000220106
0.0218591 -0.0132984 -0.000601802
-0.0132984 0.0125981 -0.000532731
-0.000601802 -0.000532731 0.00562472
0.000177165 0.000267022 -1.1538e-05
0.000267022 -5.76425e-05 -2.9199e-06
-1.1538e-05 -2.9199e-06 -0.000319325
0.00239759 0.00033641 0.00120617
0.00033641 0.00486387 8.69863e-05
0.00120617 8.69863e-05 0.00263149
0.00695437 -0.00556746 -0.000104435
-0.00556746 0.00846806 -0.000206953
-0.000104435 -0.000206953 0.000713118
0.00368695 0.00157859 -8.13763e-05
0.00157859 0.000732426 -2.90484e-05
-8.13763e-05 -2.90484e-05 0.000436204
0.000534886 0.00048002 -3.34167e-05
0.00048002 -0.00010002 -7.63941e-06
-3.34167e-05 -7.63941e-06 -0.000477415
0.00138574 0.000894204 -4.65044e-05
0.000894204 0.000300778 -3.77586e-05
-4.65044e-05 -3.77586e-05 -0.000163873
-0.000116069 0.00172357 0.000121534
0.00172357 -0.00104556 0.000117244
0.000121534 0.000117244 -0.00138697
0.0143631 0.00359861 0.00013891
0.00359861 0.000614831 -6.08492e-06
0.00013891 -6.08492e-06 0.000933286
0.00625141 0.00391267 -8.37014e-05
0.00391267 -0.000564369 -8.70009e-05
-8.37014e-05 -8.70009e-05 0.000997024
0.0215192 -0.0079794 0.00134812
-0.0079794 0.00842829 0.000467573
0.00134812 0.000467573 0.00188962
0.0165588 -0.00332248 -0.00023799
-0.00332248 0.00676779 0.000725145
-0.00023799 0.000725145 0.00337115
0.000616121 0.000119636 1.69779e-06
0.000119636 0.00031333 3.44908e-06
1.69779e-06 3.44908e-06 0.000192684
0.000359787 0.000184174 5.69344e-06
0.000184174 0.000162394 7.12512e-07
5.69344e-06 7.12512e-07 1.30033e-05
0.00128223 0.00029219 3.56888e-06
0.00029219 0.000760484 -4.6084e-06
3.56888e-06 -4.6084e-06 0.000520843
0.000601482 -2.67496e-06 2.01931e-06
-2.67496e-06 0.000171274 1.05724e-06
2.01931e-06 1.05724e-06 8.33475e-06
0.000624642 7.79127e-05 8.50744e-07
7.79127e-05 0.000173105 -1.64673e-06
8.50744e-07 -1.64673e-06 -4.68343e-06
-0.000174445 3.57912e-05 -1.47095e-06
3.57912e-05 -0.000292575 2.10005e-06
-1.47095e-06 2.10005e-06 -0.00047703
0.000869067 0.000143068 -5.12548e-06
0.000143068 0.000342793 4.68471e-06
-5.12548e-06 4.68471e-06 0.000185928
-0.000227859 8.21742e-05 -3.55333e-06
8.21742e-05 -0.000374259 6.19134e-06
-3.55333e-06 6.19134e-06 -0.000431313
0.000334448 -1.2099e-05 -4.74458e-07
-1.2099e-05 -2.03062e-05 6.86148e-07
-4.74458e-07 6.86148e-07 -0.000168881
0.00149961 0.000185679 3.15725e-06
0.000185679 0.0007379 1.20608e-06
3.15725e-06 1.20608e-06 0.000539417
0.000423467 6.4675e-05 -6.73076e-07
6.4675e-05 0.000110444 -8.40522e-07
-6.73076e-07 -8.40522e-07 -9.63797e-05
0.000786246 4.33171e-05 1.63601e-06
4.33171e-05 0.000299644 4.73745e-09
1.63601e-06 4.73745e-09 9.72387e-05
-5.3356e-05 8.48311e-05 -9.54959e-07
8.48311e-05 -0.000125947 -3.562e-06
-9.54959e-07 -3.562e-06 -0.00032032
0.00163612 0.000171453 -1.82295e-06
0.000171453 0.000856853 -6.12649e-06
-1.82295e-06 -6.12649e-06 0.000674818
-0.000341934 8.07838e-05 -7.0995e-06
8.07838e-05 -0.000107403 -5.92936e-06
-7.0995e-06 -5.92936e-06 -0.000432438
0.000130445 -4.32511e-05 2.31392e-07
-4.32511e-05 -0.000106193 1.35614e-06
2.31392e-07 1.35614e-06 -0.000300345
0.000718288 -8.3156e-05 -3.32237e-06
-8.3156e-05 0.00026467 -1.87296e-06
-3.32237e-06 -1.87296e-06 6.76623e-05
0.000803221 -6.40338e-05 -4.39874e-07
-6.40338e-05 0.000323664 -1.34307e-06
-4.39874e-07 -1.34307e-06 0.000129047
0.000650603 -6.70262e-05 -4.74029e-06
-6.70262e-05 0.000177737 1.54974e-06
-4.74029e-06 1.54974e-06 2.58077e-05
0.00103624 2.03356e-05 -8.35826e-06
2.03356e-05 0.000523324 -6.87587e-06
-8.35826e-06 -6.87587e-06 0.000307942
0.000979895 -0.000142658 4.69457e-06
-0.000142658 0.000358129 -1.3752e-05
4.69457e-06 -1.3752e-05 0.00022821
-0.000772526 -2.1474e-05 -4.94938e-06
-2.1474e-05 -0.00067783 -8.512e-06
-4.94938e-06 -8.512e-06 -0.000811422
-0.000232572 -2.97506e-05 2.22463e-06
-2.97506e-05 -0.000248607 -4.92101e-06
2.22463e-06 -4.92101e-06 -0.00047528
0.000165589 -7.48671e-05 6.70664e-07
-7.48671e-05 -9.72662e-05 -4.01759e-07
6.70664e-07 -4.01759e-07 -0.000246244
0.000838881 -0.000141827 -1.12505e-06
-0.000141827 0.000351594 1.06234e-06
-1.12505e-06 1.06234e-06 0.000176
0.000439066 -9.40397e-05 4.50855e-08
-9.40397e-05 3.42604e-05 4.72606e-06
4.50855e-08 4.72606e-06 -0.000103321
0.000373624 -9.99196e-05 3.93498e-06
-9.99196e-05 1.17485e-05 9.16409e-09
3.93498e-06 9.16409e-09 -0.000152095
0.0005405 -0.000130094 -1.20577e-08
-0.000130094 0.000118377 1.02634e-07
-1.20577e-08 1.02634e-07 -3.40004e-05
0.000501156 -6.79904e-05 -1.47893e-06
-6.79904e-05 5.53439e-05 5.70521e-06
-1.47893e-06 5.70521e-06 -3.5034e-05
0.000300766 5.57608e-07 7.29594e-08
5.57608e-07 -2.39945e-05 -3.91607e-07
7.29594e-08 -3.91607e-07 -0.000184723
0.000454121 -2.08364e-08 2.54516e-06
-2.08364e-08 3.53998e-05 1.27163e-07
2.54516e-06 1.27163e-07 -5.7609e-05
0.0014226 -4.11333e-05 -1.3098e-05
-4.11333e-05 0.000620922 7.2201e-06
-1.3098e-05 7.2201e-06 0.000597164
0.000432669 7.75514e-05 -2.52969e-06
7.75514e-05 2.1091e-05 -2.9999e-06
-2.52969e-06 -2.9999e-06 -7.02129e-05
0.000829447 -2.53785e-05 -5.20663e-06
-2.53785e-05 0.000250064 7.54142e-07
-5.20663e-06 7.54142e-07 0.000222825
0.000816735 1.74936e-06 -5.52331e-06
1.74936e-06 0.00022196 4.75165e-06
-5.52331e-06 4.75165e-06 0.000225804
0.00032906 -3.458e-05 5.00764e-06
-3.458e-05 -7.23185e-05 -5.29953e-06
5.00764e-06 -5.29953e-06 -9.98578e-05
0.00260711 4.53329e-06 1.06261e-05
4.53329e-06 0.00136865 2.04728e-08
1.06261e-05 2.04728e-08 0.00138012
0.000855101 5.84269e-06 -1.31673e-05
5.84269e-06 0.00024628 -5.58442e-06
-1.31673e-05 -5.58442e-06 0.000248729
0.000544591 7.90548e-05 2.25539e-06
7.90548e-05 0.000120283 -6.46963e-07
2.25539e-06 -6.46963e-07 3.87928e-06
0.000420234 6.17746e-05 -2.66139e-06
6.17746e-05 -2.45411e-06 -3.51183e-06
-2.66139e-06 -3.51183e-06 -5.70419e-05
0.000446887 1.98983e-06 1.41886e-06
1.98983e-06 1.53559e-05 2.62304e-07
1.41886e-06 2.62304e-07 -4.15229e-05
0.000438201 1.02929e-05 1.1258e-06
1.02929e-05 -3.17701e-05 -3.72002e-06
1.1258e-06 -3.72002e-06 -4.44637e-05
0.000538629 -7.51661e-05 -1.54417e-06
-7.51661e-05 8.39435e-05 3.35049e-06
-1.54417e-06 3.35049e-06 1.49819e-05
0.00045932 1.13683e-05 1.95625e-07
1.13683e-05 -1.94998e-05 -7.54051e-07
1.95625e-07 -7.54051e-07 -3.41282e-05
0.00207946 4.23237e-05 1.37976e-06
4.23237e-05 0.00102802 -5.0698e-06
1.37976e-06 -5.0698e-06 0.00104171
0.00116571 4.12699e-05 9.94084e-07
4.12699e-05 0.000441052 2.49863e-06
9.94084e-07 2.49863e-06 0.000424426
0.00151355 5.15323e-05 -7.85366e-07
5.15323e-05 0.000670848 1.59823e-06
-7.85366e-07 1.59823e-06 0.000676206
0.000816622 5.41057e-05 1.15526e-06
5.41057e-05 0.000230022 1.01915e-05
1.15526e-06 1.01915e-05 0.000226328
0.000937488 0.000711157 8.19635e-05
0.000711157 -0.00295779 2.78062e-05
8.19635e-05 2.78062e-05 -0.00168796
0.00252452 -5.04287e-05 1.17624e-05
-5.04287e-05 -0.000146538 4.7578e-06
1.17624e-05 4.7578e-06 1.89536e-05
0.00230104 8.49526e-05 4.40488e-05
8.49526e-05 -6.12573e-05 -1.15624e-05
4.40488e-05 -1.15624e-05 0.000100555
0.00356839 0.000667748 -8.24553e-05
0.000667748 -0.0025506 -4.59386e-05
-8.24553e-05 -4.59386e-05 -0.000282319
0.0031838 0.000118016 7.49862e-05
0.000118016 -0.000781733 -3.44146e-06
7.49862e-05 -3.44146e-06 -6.68357e-05
0.00293192 -5.87088e-05 -6.53018e-06
-5.87088e-05 0.000326987 -6.82988e-06
-6.53018e-06 -6.82988e-06 0.000466378
0.00519752 -0.000562775 -7.23782e-05
-0.000562775 0.000793272 -1.85068e-05
-7.23782e-05 -1.85068e-05 0.00131181
0.0046455 -0.000653964 4.82978e-05
-0.000653964 -0.000878617 -4.22098e-07
4.82978e-05 -4.22098e-07 0.000623864
0.0202368 -0.00112744 0.000101912
-0.00112744 0.00301233 -6.83247e-05
0.000101912 -6.83247e-05 0.00257409
0.0184428 0.00822822 0.00203547
0.00822822 0.00741551 -0.000447546
0.00203547 -0.000447546 0.00227971
0.0278196 0.00952854 0.000133723
0.00952854 0.0179464 5.54345e-05
0.000133723 5.54345e-05 0.0118443
7.9494e-06 -0.000106906 8.65306e-07
-0.000106906 -0.000200566 -2.25544e-06
8.65306e-07 -2.25544e-06 -0.000325577
0.000521416 -6.17736e-06 2.08396e-06
-6.17736e-06 9.87006e-05 3.561e-08
2.08396e-06 3.561e-08 -9.16491e-06
0.000601958 -9.61454e-05 -7.59019e-07
-9.61454e-05 0.000171398 5.28351e-06
-7.59019e-07 5.28351e-06 4.39148e-05
0.000540078 -3.93194e-05 2.005e-06
-3.93194e-05 0.000116259 4.57005e-09
2.005e-06 4.57005e-09 -8.24288e-06
0.0011147 0.000157204 -6.88285e-06
0.000157204 0.000570685 -1.69905e-06
-6.88285e-06 -1.69905e-06 0.000414552
0.000628552 0.0001555 -9.01299e-07
0.0001555 0.000171066 5.27486e-06
-9.01299e-07 5.27486e-06 2.8923e-05
0.000886303 1.70565e-05 2.16786e-06
1.70565e-05 0.000364153 2.01304e-06
2.16786e-06 2.01304e-06 0.000206804
0.000530092 -2.37342e-05 -1.47402e-06
-2.37342e-05 0.000113476 1.29047e-06
-1.47402e-06 1.29047e-06 -1.63522e-05
0.00273358 -0.000354342 1.48471e-05
-0.000354342 -8.42481e-05 -1.3895e-05
1.48471e-05 -1.3895e-05 0.000174387
0.00227482 -0.000674461 9.90636e-06
-0.000674461 -0.000377917 -5.58681e-06
9.90636e-06 -5.58681e-06 -0.000146151
0.00270348 -0.00102745 6.39101e-06
-0.00102745 0.000234385 6.3476e-06
6.39101e-06 6.3476e-06 2.26284e-05
0.00301133 -0.00122238 9.47515e-06
-0.00122238 0.00113078 -4.67847e-06
9.47515e-06 -4.67847e-06 0.000575545
0.00259058 -0.00125339 -3.24943e-05
-0.00125339 0.000516836 -3.41168e-06
-3.24943e-05 -3.41168e-06 6.2029e-05
0.00106381 -0.00119275 2.653e-05
-0.00119275 0.000620037 1.11247e-05
2.653e-05 1.11247e-05 -0.000270342
0.0049571 -0.000893686 8.2968e-06
-0.000893686 0.0025672 6.97244e-06
8.2968e-06 6.97244e-06 0.00207105
0.00168765 -0.00039088 2.06827e-05
-0.00039088 0.000965785 -5.39116e-05
2.06827e-05 -5.39116e-05 0.000539747
0.000460413 -0.000124294 -5.49487e-07
-0.000124294 -4.73408e-05 5.59958e-06
-5.49487e-07 5.59958e-06 -0.000149944
0.0011532 -9.34925e-05 1.52111e-05
-9.34925e-05 0.000501688 -2.23826e-05
1.52111e-05 -2.23826e-05 0.000226622
0.000948661 -6.51043e-05 5.12308e-06
-6.51043e-05 0.00039022 3.60169e-06
5.12308e-06 3.60169e-06 0.000233759
0.000487694 -5.68534e-06 1.00953e-05
-5.68534e-06 0.000142502 -4.60189e-06
1.00953e-05 -4.60189e-06 0.000111026
0.00261055 -0.000476225 -4.95572e-07
-0.000476225 -0.000166884 3.29122e-06
-4.95572e-07 3.29122e-06 0.000224693
0.000318878 -0.000113546 -5.87692e-06
-0.000113546 0.000106641 -6.50608e-07
-5.87692e-06 -6.50608e-07 -5.46177e-05
0.00148638 -0.000264245 -7.972e-06
-0.000264245 0.000709262 6.09307e-06
-7.972e-06 6.09307e-06 0.000481988
0.00174545 -0.000760345 8.67521e-06
-0.000760345 -0.000434239 -4.65539e-06
8.67521e-06 -4.65539e-06 -0.000293891
0.0023922 -0.0010699 1.82146e-06
-0.0010699 0.000323788 5.51107e-06
1.82146e-06 5.51107e-06 -1.82078e-05
0.0012669 -0.00108991 -3.41618e-06
-0.00108991 -7.53987e-05 -1.63342e-05
-3.41618e-06 -1.63342e-05 -0.000428947
0.00155301 -0.000418255 -2.93561e-06
-0.000418255 0.000967214 -3.35716e-05
-2.93561e-06 -3.35716e-05 0.000481775
0.00119618 -0.000765032 1.23745e-05
-0.000765032 0.00116499 2.66229e-06
1.23745e-05 2.66229e-06 0.000203595
0.00615267 -0.00111229 -5.20185e-05
-0.00111229 0.00158765 3.61613e-05
-5.20185e-05 3.61613e-05 0.00186357
0.00334245 -0.00112827 -3.97503e-05
-0.00112827 0.000833711 1.43287e-05
-3.97503e-05 1.43287e-05 0.000581457
0.00266303 -0.0012774 1.13974e-05
-0.0012774 0.000595627 1.80456e-05
1.13974e-05 1.80456e-05 0.000228362
-0.000128794 -0.000697249 -7.75358e-06
-0.000697249 -0.000505224 2.70993e-05
-7.75358e-06 2.70993e-05 -0.000661237
0.000594021 -0.00018355 5.57089e-07
-0.00018355 0.000338579 4.13505e-06
5.57089e-07 4.13505e-06 5.9054e-05
0.000254259 -0.000200201 4.00072e-06
-0.000200201 0.000210682 2.52e-06
4.00072e-06 2.52e-06 -0.000138815
0.00121175 -0.000338437 -1.79248e-05
-0.000338437 0.0011633 -2.07332e-05
-1.79248e-05 -2.07332e-05 0.000358574
-0.00772182 -0.000586344 0.000843516
-0.000586344 -0.0034267 -4.45949e-05
0.000843516 -4.45949e-05 -0.00478405
0.0121546 -0.000476518 8.25353e-05
-0.000476518 -0.000310273 4.63348e-05
8.25353e-05 4.63348e-05 0.000558435
0.00277992 0.000441388 1.04135e-05
0.000441388 0.00162177 -1.04019e-05
1.04135e-05 -1.04019e-05 0.00135595
0.00207727 0.000701839 6.27889e-07
0.000701839 0.000930051 7.80773e-06
6.27889e-07 7.80773e-06 0.000453496
0.00193675 0.000804379 0.000108817
0.000804379 -0.000389018 5.24689e-05
0.000108817 5.24689e-05 -0.000256125
0.00366962 0.00125047 3.27248e-05
0.00125047 0.00109526 1.80115e-05
3.27248e-05 1.80115e-05 0.000662848
0.00304767 0.00107173 2.57709e-05
0.00107173 0.00121317 8.24225e-06
2.57709e-05 8.24225e-06 0.000631803
0.0179798 0.000858772 0.000105591
0.000858772 0.00218835 -9.92019e-05
0.000105591 -9.92019e-05 0.00213187
0.00862912 0.00319415 -0.000279203
0.00319415 -0.00169265 -3.7577e-05
-0.000279203 -3.7577e-05 0.000819114
0.00194052 0.00181613 6.289e-06
0.00181613 -0.000209974 -3.41062e-05
6.289e-06 -3.41062e-05 -0.000643214
0.0168623 -0.00642351 -0.000783352
-0.00642351 0.0074646 4.87761e-05
-0.000783352 4.87761e-05 0.00269305
0.013451 -0.014471 -0.00314509
-0.014471 0.0112061 -0.00177959
-0.00314509 -0.00177959 0.00381213
0.000781067 0.000368978 5.54584e-06
0.000368978 0.000380829 -2.79038e-06
5.54584e-06 -2.79038e-06 7.31664e-05
-0.000101129 -0.003778 0.000761208
-0.003778 -0.00195886 9.46733e-05
0.000761208 9.46733e-05 -0.00540252
0.000270859 -0.00438962 -0.000793567
-0.00438962 0.00886792 -0.000187815
-0.000793567 -0.000187815 0.00138605
0.00395857 0.00149729 -1.92427e-05
0.00149729 0.000828772 2.31807e-06
-1.92427e-05 2.31807e-06 0.000588484
0.000889688 0.000583323 -1.11926e-05
0.000583323 0.000171855 8.85905e-06
-1.11926e-05 8.85905e-06 -0.000259332
0.00186727 0.0010391 4.93453e-06
0.0010391 0.000563507 1.65929e-06
4.93453e-06 1.65929e-06 3.79862e-05
0.00186472 0.00173808 7.07614e-05
0.00173808 0.000334446 4.94722e-05
7.07614e-05 4.94722e-05 1.03081e-05
0.0142278 0.00393866 -0.000166641
0.00393866 -0.000441025 -0.000120224
-0.000166641 -0.000120224 -0.00131843
0.00330052 0.00371905 -1.51156e-05
0.00371905 -0.00132205 -4.29619e-05
-1.51156e-05 -4.29619e-05 0.000375843
0.0220093 -0.00672728 0.00074353
-0.00672728 0.00977942 -3.66495e-05
0.00074353 -3.66495e-05 0.00330782
0.0221511 -0.00555705 -6.35404e-06
-0.00555705 0.00655331 0.000874135
-6.35404e-06 0.000874135 0.00192631
0.00152734 0.000448782 -1.73543e-05
0.000448782 0.000773554 -1.83199e-05
-1.73543e-05 -1.83199e-05 0.000491422
-0.00887957 0.00129044 -8.45969e-05
0.00129044 0.00520486 -0.000156219
-8.45969e-05 -0.000156219 -0.00298936
0.00661862 0.00154397 -0.000545425
0.00154397 0.00537854 -0.000596136
-0.000545425 -0.000596136 4.5239e-05
0.0027592 0.00111858 -4.43525e-05
0.00111858 0.000651059 -2.14394e-05
-4.43525e-05 -2.14394e-05 0.000538973
0.00310608 0.00110671 -9.03345e-05
0.00110671 0.00139681 -3.39054e-05
-9.03345e-05 -3.39054e-05 0.00089523
0.00228829 0.0013496 -0.00010119
0.0013496 0.00139902 -3.34267e-05
-0.00010119 -3.34267e-05 0.000592167
-0.00325764 0.00245228 4.7955e-05
0.00245228 -0.00115266 -3.0174e-05
4.7955e-05 -3.0174e-05 -0.00121208
0.00402746 0.00549717 0.000696104
0.00549717 -0.00191389 0.000112951
0.000696104 0.000112951 -0.00326809
0.0238754 -0.00848856 -7.31194e-05
-0.00848856 0.0132907 0.000898963
-7.31194e-05 0.000898963 0.00603663
0.00930617 0.000145121 -0.000208888
0.000145121 -0.00181682 -0.000203716
-0.000208888 -0.000203716 -0.00143263
-8.70678e-05 0.000184254 -1.17474e-06
0.000184254 -7.79562e-05 -1.92921e-06
-1.17474e-06 -1.92921e-06 -0.000250679
0.0018711 0.000381683 8.62139e-06
0.000381683 0.00110057 2.33798e-06
8.62139e-06 2.33798e-06 0.000845713
-0.000590774 0.000124212 -6.60081e-06
0.000124212 -0.00034482 3.04223e-06
-6.60081e-06 3.04223e-06 -0.000552452
0.000344436 5.50853e-05 2.35706e-06
5.50853e-05 -1.58083e-05 2.25184e-06
2.35706e-06 2.25184e-06 -0.000164919
0.00110313 8.7228e-05 4.15224e-07
8.7228e-05 0.000517099 -3.9817e-07
4.15224e-07 -3.9817e-07 0.000306564
0.000532155 3.71804e-05 -2.56847e-06
3.71804e-05 0.000184306 2.51947e-06
-2.56847e-06 2.51947e-06 -3.52958e-05
0.000285152 0.000111806 7.40585e-06
0.000111806 -8.2159e-08 8.85106e-06
7.40585e-06 8.85106e-06 -0.000210021
-0.000865192 2.33267e-05 -5.18867e-06
2.33267e-05 -0.000614767 3.71829e-06
-5.18867e-06 3.71829e-06 -0.000803858
0.000770362 3.61925e-05 3.76043e-07
3.61925e-05 0.000302454 -6.84966e-07
3.76043e-07 -6.84966e-07 0.000101922
0.000678961 0.000100536 4.12216e-07
0.000100536 0.000249635 -9.1944e-08
4.12216e-07 -9.1944e-08 7.46621e-05
0.000856839 -4.09886e-05 -1.25227e-06
-4.09886e-05 0.000378489 2.38561e-06
-1.25227e-06 2.38561e-06 0.000161856
-0.00115154 4.79436e-05 1.59294e-06
4.79436e-05 -0.00058103 1.19178e-06
1.59294e-06 1.19178e-06 -0.000905435
0.00123523 9.87847e-05 -5.88401e-07
9.87847e-05 0.000954735 6.6529e-06
-5.88401e-07 6.6529e-06 0.000566889
0.000809808 -1.29543e-05 -8.81947e-09
-1.29543e-05 0.00047143 -6.78578e-06
-8.81947e-09 -6.78578e-06 0.00021915
0.00163209 -1.67679e-05 -2.89104e-06
-1.67679e-05 0.000925279 3.401e-06
-2.89104e-06 3.401e-06 0.00067082
0.000869111 -9.49795e-05 -6.31628e-07
-9.49795e-05 0.000368057 -7.07387e-07
-6.31628e-07 -7.07387e-07 0.000167269
0.000112113 -0.000118325 3.82035e-06
-0.000118325 -0.000173338 1.36761e-05
3.82035e-06 1.36761e-05 -0.00031249
0.000596861 -9.33411e-05 6.06909e-07
-9.33411e-05 0.000217478 -5.16326e-07
6.06909e-07 -5.16326e-07 1.83139e-05
0.000759758 -0.000125211 -2.86514e-06
-0.000125211 0.0002083 -1.33008e-06
-2.86514e-06 -1.33008e-06 7.73625e-05
-0.000338792 -6.99001e-05 1.11801e-06
-6.99001e-05 -0.00039719 6.15131e-06
1.11801e-06 6.15131e-06 -0.000518683
-0.000382681 -4.80934e-05 4.87767e-07
-4.80934e-05 -0.000390765 -8.3036e-06
4.87767e-07 -8.3036e-06 -0.000565786
1.60422e-05 -4.88005e-05 -8.18232e-06
-4.88005e-05 -4.85902e-05 -2.18588e-06
-8.18232e-06 -2.18588e-06 -0.000263075
0.00026476 -0.00013277 2.06134e-06
-0.00013277 -7.11119e-06 -1.11822e-05
2.06134e-06 -1.11822e-05 -0.000136066
0.00118747 -0.000147455 2.4514e-05
-0.000147455 0.000449971 -1.77566e-05
2.4514e-05 -1.77566e-05 0.000328659
0.00230583 -0.000429254 -1.09932e-06
-0.000429254 0.00107914 3.01966e-06
-1.09932e-06 3.01966e-06 0.000836959
-0.000434062 -9.37221e-05 -4.293e-06
-9.37221e-05 -0.000420475 -2.48561e-06
-4.293e-06 -2.48561e-06 -0.000626819
0.00052591 -4.87906e-05 2.44475e-06
-4.87906e-05 0.000207148 -6.41831e-07
2.44475e-06 -6.41831e-07 -8.34859e-06
-0.000715895 -1.36517e-05 4.85641e-06
-1.36517e-05 -0.000603354 -9.1513e-07
4.85641e-06 -9.1513e-07 -0.000826746
0.000663065 -0.000172054 -1.64209e-06
-0.000172054 0.000240901 -9.27032e-07
-1.64209e-06 -9.27032e-07 6.4406e-05
0.000428614 -4.85014e-05 1.55266e-06
-4.85014e-05 2.61385e-05 9.39723e-07
1.55266e-06 9.39723e-07 -0.000118294
0.000606755 -0.000163985 1.33328e-06
-0.000163985 0.000186357 2.17553e-07
1.33328e-06 2.17553e-07 2.52096e-05
0.000584411 -9.80779e-05 -5.38207e-07
-9.80779e-05 0.000145876 1.30141e-07
-5.38207e-07 1.30141e-07 -4.06177e-06
0.000342428 3.31613e-05 1.0453e-06
3.31613e-05 -4.7905e-05 5.65349e-06
1.0453e-06 5.65349e-06 -0.0001428
0.000600233 -0.00012977 -9.71199e-08
-0.00012977 0.000148649 -3.10433e-06
-9.71199e-08 -3.10433e-06 -2.15695e-06
0.00050407 -5.29876e-05 -6.13681e-07
-5.29876e-05 5.10519e-05 1.80469e-07
-6.13681e-07 1.80469e-07 -3.56082e-05
0.00140186 2.51173e-05 -8.33872e-06
2.51173e-05 0.000599002 7.91141e-06
-8.33872e-06 7.91141e-06 0.00057546
0.000478643 -7.55621e-05 7.35676e-07
-7.55621e-05 4.43825e-05 -3.48257e-06
7.35676e-07 -3.48257e-06 -4.47485e-05
0.000848604 -2.66325e-05 -9.93839e-06
-2.66325e-05 0.000254166 8.87684e-07
-9.93839e-06 8.87684e-07 0.000227583
0.000737937 1.07097e-05 1.71071e-06
1.07097e-05 0.000161079 2.23556e-06
1.71071e-06 2.23556e-06 0.000164232
0.000404298 -3.29127e-05 3.66291e-06
-3.29127e-05 -2.8783e-05 -4.85885e-06
3.66291e-06 -4.85885e-06 -5.50724e-05
0.00255863 8.59094e-06 7.08541e-06
8.59094e-06 0.00133591 9.69191e-10
7.08541e-06 9.69191e-10 0.0013482
0.00259049 -1.58731e-06 6.5288e-06
-1.58731e-06 0.00135775 -5.06777e-06
6.5288e-06 -5.06777e-06 0.00136931
0.00104496 8.14746e-05 -8.36093e-07
8.14746e-05 0.000439724 -5.39957e-07
-8.36093e-07 -5.39957e-07 0.000317618
0.000496262 7.19079e-05 -1.87747e-06
7.19079e-05 5.05489e-05 -3.82703e-06
-1.87747e-06 -3.82703e-06 -1.05374e-05
0.000525187 -1.82547e-05 -7.45472e-07
-1.82547e-05 0.000109683 8.52286e-07
-7.45472e-07 8.52286e-07 -6.04676e-06
0.00043081 1.03265e-05 1.27386e-06
1.03265e-05 -3.7035e-05 -3.95584e-06
1.27386e-06 -3.95584e-06 -4.86649e-05
0.000411878 -8.79812e-06 1.62796e-06
-8.79812e-06 -1.01346e-05 -2.29731e-07
1.62796e-06 -2.29731e-07 -6.31032e-05
0.000483633 -6.60246e-05 -2.03358e-06
-6.60246e-05 4.43275e-05 3.51571e-06
-2.03358e-06 3.51571e-06 -1.57745e-05
0.000445318 6.48469e-06 -6.35084e-07
6.48469e-06 -2.7668e-05 1.5905e-08
-6.35084e-07 1.5905e-08 -4.03316e-05
0.00203504 2.72442e-05 -3.95675e-06
2.72442e-05 0.000996555 -5.09548e-06
-3.95675e-06 -5.09548e-06 0.00101214
0.00118173 2.37339e-05 -6.83792e-07
2.37339e-05 0.000446592 2.69524e-06
-6.83792e-07 2.69524e-06 0.000434795
0.00132916 3.28096e-05 -3.1892e-06
3.28096e-05 0.000544324 2.3008e-08
-3.1892e-06 2.3008e-08 0.000554406
0.000758883 3.86977e-05 -4.21981e-06
3.86977e-05 0.000184567 8.43523e-06
-4.21981e-06 8.43523e-06 0.000187042
-0.00709361 0.00220841 0.000853096
0.00220841 -0.00217791 -0.000104655
0.000853096 -0.000104655 -0.00635565
0.00164371 0.00155244 0.00190694
0.00155244 0.00900579 -0.000377838
0.00190694 -0.000377838 0.003434
0.00223844 0.000680364 -0.000162293
0.000680364 -0.00309683 -3.76154e-05
-0.000162293 -3.76154e-05 -0.000578441
0.00239458 -4.85135e-05 1.71846e-05
-4.85135e-05 -0.00120402 -3.28003e-05
1.71846e-05 -3.28003e-05 -0.000405854
0.00222649 -8.20172e-05 4.67081e-05
-8.20172e-05 -0.000191035 1.63346e-05
4.67081e-05 1.63346e-05 -2.88555e-05
-0.00143499 -8.71385e-05 -0.000129834
-8.71385e-05 -0.0026327 -3.6138e-05
-0.000129834 -3.6138e-05 -0.000811456
0.00402387 -0.000603845 1.9848e-06
-0.000603845 1.75326e-05 4.10561e-06
1.9848e-06 4.10561e-06 0.000453782
0.0123779 -0.000323485 0.000260899
-0.000323485 -0.00237941 -0.0001135
0.000260899 -0.0001135 -0.00257817
0.00476354 0.00546041 -5.40955e-06
0.00546041 0.00182819 -8.41288e-05
-5.40955e-06 -8.41288e-05 -0.00278347
0.0225597 0.0115497 -0.000760645
0.0115497 0.0149314 0.000308127
-0.000760645 0.000308127 0.00842867
0.00198985 -0.00125662 1.41634e-05
-0.00125662 -0.00331755 -3.13606e-05
1.41634e-05 -3.13606e-05 -0.00123376
0.0156241 -0.00369495 0.000274779
-0.00369495 0.000578722 -7.07385e-05
0.000274779 -7.07385e-05 -0.000299918
0.0241109 0.00762616 0.000478994
0.00762616 0.00877115 -0.000521704
0.000478994 -0.000521704 0.00216737
0.0267704 0.00566694 -0.000361039
0.00566694 0.00972287 0.000352016
-0.000361039 0.000352016 0.00549716
0.00116187 0.000183279 -5.55218e-06
0.000183279 0.000604775 3.54144e-07
-5.55218e-06 3.54144e-07 0.000395531
0.000312077 4.0808e-05 8.68115e-07
4.0808e-05 -3.06447e-05 -8.06403e-07
8.68115e-07 -8.06403e-07 -0.000145394
0.000518989 -0.000101824 3.1549e-06
-0.000101824 0.000110396 3.15429e-06
3.1549e-06 3.15429e-06 -4.05724e-06
0.000740491 -1.97942e-06 7.3328e-06
-1.97942e-06 0.000254352 -7.66938e-08
7.3328e-06 -7.66938e-08 0.000123517
0.000764928 8.26559e-05 3.64035e-06
8.26559e-05 0.000341722 2.29435e-07
3.64035e-06 2.29435e-07 0.000207471
0.000567221 6.57305e-05 -7.00689e-07
6.57305e-05 0.00016439 7.10862e-06
-7.00689e-07 7.10862e-06 -2.17228e-05
0.000665718 8.62768e-05 -6.5977e-07
8.62768e-05 0.000220033 3.03368e-06
-6.5977e-07 3.03368e-06 7.15e-05
0.000420639 9.71743e-05 4.32268e-06
9.71743e-05 1.8007e-05 3.31347e-06
4.32268e-06 3.31347e-06 -0.000138597
0.000614158 -6.76143e-06 1.95633e-06
-6.76143e-06 0.000187602 -1.1919e-06
1.95633e-06 -1.1919e-06 3.21397e-05
0.0003978 -2.79511e-05 2.96579e-06
-2.79511e-05 2.05835e-05 -9.1185e-07
2.96579e-06 -9.1185e-07 -9.79073e-05
0.00112224 -0.000382881 3.92193e-05
-0.000382881 -0.00104068 -1.9763e-05
3.92193e-05 -1.9763e-05 -0.000556874
0.00107349 -0.00069846 2.12439e-05
-0.00069846 -0.00079402 -8.9191e-06
2.12439e-05 -8.9191e-06 -0.000616349
0.000985821 -0.000872427 6.80768e-06
-0.000872427 -0.000451792 4.99663e-06
6.80768e-06 4.99663e-06 -0.000694211
-0.000696534 -0.000806525 -1.85873e-05
-0.000806525 -0.00115748 -1.24317e-05
-1.85873e-05 -1.24317e-05 -0.00144775
0.00271218 -0.000663478 9.4705e-06
-0.000663478 0.00184724 5.28863e-05
9.4705e-06 5.28863e-05 0.00106946
-0.000654896 -0.000689508 -7.74705e-06
-0.000689508 -0.000337094 -1.33939e-05
-7.74705e-06 -1.33939e-05 -0.00101425
0.00133595 -0.000323688 1.16424e-05
-0.000323688 0.000639898 -4.36185e-06
1.16424e-05 -4.36185e-06 0.000447277
0.000231069 -6.15467e-05 3.61642e-06
-6.15467e-05 1.99484e-05 4.76435e-06
3.61642e-06 4.76435e-06 -0.000126452
0.00271756 -0.000793685 1.5328e-05
-0.000793685 -0.000355592 -1.01558e-05
1.5328e-05 -1.01558e-05 9.95584e-05
0.000511694 -0.000105543 4.87888e-07
-0.000105543 0.00027501 2.52222e-06
4.87888e-07 2.52222e-06 -7.51641e-06
-0.000148738 -0.000240682 -5.08226e-06
-0.000240682 -3.52668e-05 -4.75783e-06
-5.08226e-06 -4.75783e-06 -0.000382566
0.00198085 -0.000956978 1.93347e-05
-0.000956978 6.77607e-05 -1.54932e-06
1.93347e-05 -1.54932e-06 -6.29872e-05
0.0018411 -0.00115616 -2.06184e-06
-0.00115616 8.20989e-05 -3.23513e-06
-2.06184e-06 -3.23513e-06 -0.000172854
3.02745e-05 -0.000799376 1.48108e-05
-0.000799376 -0.00037116 -1.95523e-05
1.48108e-05 -1.95523e-05 -0.00062611
0.000866802 -0.000433658 1.64979e-05
-0.000433658 0.000939777 -2.4493e-05
1.64979e-05 -2.4493e-05 0.000163602
0.00171888 -0.00120595 -5.29046e-05
-0.00120595 -0.000404345 4.63933e-05
-5.29046e-05 4.63933e-05 -0.000545411
0.00197005 -0.00102792 -3.68673e-05
-0.00102792 0.000304199 2.40454e-05
-3.68673e-05 2.40454e-05 0.000231262
-0.00100513 -0.000558227 -4.0289e-05
-0.000558227 -0.000472515 3.62595e-05
-4.0289e-05 3.62595e-05 -0.000892978
-0.00164762 -0.000149122 -1.00711e-05
-0.000149122 -0.00111352 1.15195e-05
-1.00711e-05 1.15195e-05 -0.00137749
-0.00122445 -6.10832e-06 -1.96513e-06
-6.10832e-06 -0.000723087 1.27249e-05
-1.96513e-06 1.27249e-05 -0.00104327
0.000874253 -7.99936e-05 2.04782e-06
-7.99936e-05 0.000611059 -1.15715e-05
2.04782e-06 -1.15715e-05 0.000212491
-0.00289114 0.00151928 -0.000581944
0.00151928 0.00801841 2.54604e-05
-0.000581944 2.54604e-05 0.00169823
-0.000234075 -0.00211926 -2.39698e-05
-0.00211926 0.00344876 -2.27128e-05
-2.39698e-05 -2.27128e-05 0.00168253
0.00479009 0.000884558 -0.000174844
0.000884558 -0.00639442 -3.7487e-05
-0.000174844 -3.7487e-05 -0.00646357
0.00108145 0.000420354 1.72778e-05
0.000420354 0.000625525 -5.64306e-06
1.72778e-05 -5.64306e-06 0.000290792
0.00179659 0.000768143 1.87616e-05
0.000768143 0.000758012 2.67055e-05
1.87616e-05 2.67055e-05 0.000251257
0.00330696 0.00130236 8.45958e-05
0.00130236 0.000449453 3.74786e-05
8.45958e-05 3.74786e-05 0.000283391
0.00152636 0.00108412 2.15649e-05
0.00108412 0.000420612 2.90024e-05
2.15649e-05 2.90024e-05 -0.000156088
0.0149917 -0.00448063 0.000328166
-0.00448063 0.00669074 9.78273e-05
0.000328166 9.78273e-05 0.0034345
0.00361533 0.00259884 -0.00049133
0.00259884 -0.00618228 -0.000124254
-0.00049133 -0.000124254 -0.00698169
0.0059472 0.00376547 4.95241e-05
0.00376547 0.000503658 3.08682e-05
4.95241e-05 3.08682e-05 0.00154257
0.00296229 0.00162605 8.19067e-05
0.00162605 0.00123456 6.20572e-06
8.19067e-05 6.20572e-06 0.000929685
0.0139243 -0.00386776 -0.000677728
-0.00386776 0.00593901 -0.000310579
-0.000677728 -0.000310579 0.000199821
0.00199435 -0.00572519 -0.001178
-0.00572519 0.0097716 -0.000283734
-0.001178 -0.000283734 0.00226503
0.0324628 -0.00785946 0.00110596
-0.00785946 0.0104825 0.000471346
0.00110596 0.000471346 0.00509037
0.000162132 0.000326996 1.55957e-05
0.000326996 -1.76299e-05 -5.52913e-06
1.55957e-05 -5.52913e-06 -0.000294088
-0.00317973 0.000293052 -0.000195574
0.000293052 0.00745755 -2.7764e-05
-0.000195574 -2.7764e-05 0.000317384
0.00724862 0.00205206 -0.000223048
0.00205206 0.00414321 -0.000200187
-0.000223048 -0.000200187 -0.00191542
0.00188127 0.00114187 1.00548e-05
0.00114187 0.000302032 3.21808e-06
1.00548e-05 3.21808e-06 0.000108825
0.000896969 0.000846862 1.82951e-05
0.000846862 0.000321447 7.67152e-06
1.82951e-05 7.67152e-06 -0.000185951
0.00115981 0.0013916 -9.63589e-05
0.0013916 0.000715177 -8.02927e-05
-9.63589e-05 -8.02927e-05 5.88079e-05
0.0037284 0.00428699 6.02638e-05
0.00428699 0.000889924 4.9289e-05
6.02638e-05 4.9289e-05 0.00102521
0.0142183 0.006461 -6.98515e-06
0.006461 0.00158289 1.34191e-06
-6.98515e-06 1.34191e-06 -0.000573894
0.0109689 -0.00462363 0.000105539
-0.00462363 0.00736059 -0.00013736
0.000105539 -0.00013736 -0.000172143
0.0177657 -0.00216885 -3.6435e-05
-0.00216885 0.00264598 -6.80517e-05
-3.6435e-05 -6.80517e-05 0.00318642
0.00121691 0.000722702 -1.86395e-05
0.000722702 0.000575946 -8.57357e-06
-1.86395e-05 -8.57357e-06 0.000175454
0.00151072 0.000366051 -0.000490533
0.000366051 0.00304424 -0.000133448
-0.000490533 -0.000133448 -0.00314908
0.00193768 0.00137091 -0.000176887
0.00137091 0.000170134 -0.000197406
-0.000176887 -0.000197406 -0.00185673
-0.000861811 0.000446639 -5.37584e-06
0.000446639 -0.000157812 -2.53927e-05
-5.37584e-06 -2.53927e-05 -0.000514087
-0.00183323 0.000963186 -0.000182665
0.000963186 0.000741363 -1.44408e-06
-0.000182665 -1.44408e-06 -1.94121e-05
0.00970797 0.00646814 0.000173171
0.00646814 0.0035336 -2.47219e-05
0.000173171 -2.47219e-05 -0.00151174
0.0027446 -0.00665325 -2.21847e-05
-0.00665325 0.00107012 0.000229412
-2.21847e-05 0.000229412 -0.00540647
0.0145034 -0.000271686 7.35699e-05
-0.000271686 -0.00121227 -0.000349712
7.35699e-05 -0.000349712 0.000707942
0.00125314 0.000287898 1.48841e-06
0.000287898 0.000666822 2.23293e-05
1.48841e-06 2.23293e-05 0.000457276
0.000989127 0.000295443 -8.70164e-06
0.000295443 0.000635456 -6.30655e-06
-8.70164e-06 -6.30655e-06 0.000374725
-0.000609811 0.000143399 1.46477e-06
0.000143399 -0.000115388 -9.61096e-07
1.46477e-06 -9.61096e-07 -0.000506841
0.000449778 8.44513e-05 1.17467e-07
8.44513e-05 7.20088e-05 -3.25323e-07
1.17467e-07 -3.25323e-07 -0.000108983
0.00131706 -2.83769e-05 -3.7203e-06
-2.83769e-05 0.000693424 4.76975e-06
-3.7203e-06 4.76975e-06 0.000459165
-0.000326589 7.84426e-05 2.78097e-06
7.84426e-05 -0.000389557 4.80761e-06
2.78097e-06 4.80761e-06 -0.000559215
-0.00148254 6.60275e-05 2.20484e-06
6.60275e-05 -0.000762353 1.79207e-06
2.20484e-06 1.79207e-06 -0.0010956
0.000455486 -2.16103e-05 1.68433e-06
-2.16103e-05 0.000125029 5.70851e-07
1.68433e-06 5.70851e-07 -8.54546e-05
0.000476056 9.0597e-05 8.47255e-07
9.0597e-05 0.000259369 -2.3618e-06
8.47255e-07 -2.3618e-06 1.23627e-05
-5.68732e-05 5.02867e-05 4.05567e-06
5.02867e-05 0.000300384 2.7979e-06
4.05567e-06 2.7979e-06 -0.00018652
-0.00143439 1.19968e-06 -6.81137e-07
1.19968e-06 -0.000360927 1.0059e-05
-6.81137e-07 1.0059e-05 -0.000937427
0.000843977 1.89513e-05 -1.20368e-06
1.89513e-05 0.000774952 -6.19261e-06
-1.20368e-06 -6.19261e-06 0.000354861
0.00183478 5.53701e-05 -1.84932e-06
5.53701e-05 0.00110562 1.77822e-06
-1.84932e-06 1.77822e-06 0.000867209
0.000901058 -0.000178195 4.26736e-06
-0.000178195 0.000415625 3.3308e-06
4.26736e-06 3.3308e-06 0.00021066
0.000122798 -8.93531e-05 8.13515e-07
-8.93531e-05 -0.000213155 7.74449e-06
8.13515e-07 7.74449e-06 -0.000334894
-0.000120623 -8.47373e-05 1.01589e-05
-8.47373e-05 -0.00026208 1.84049e-05
1.01589e-05 1.84049e-05 -0.000360904
0.000266748 -2.79941e-05 8.65573e-07
-2.79941e-05 9.37615e-05 1.37936e-06
8.65573e-07 1.37936e-06 -0.000108097
0.000444372 -4.35656e-05 -2.69614e-07
-4.35656e-05 0.000100733 1.82175e-06
-2.69614e-07 1.82175e-06 -6.57047e-05
9.02813e-05 -7.38139e-05 -3.62707e-06
-7.38139e-05 -8.2665e-05 -1.16632e-06
-3.62707e-06 -1.16632e-06 -0.000221122
0.000345476 -9.26281e-05 -3.44718e-06
-9.26281e-05 6.43651e-05 -6.15199e-06
-3.44718e-06 -6.15199e-06 -8.22089e-05
0.00108003 -0.000118344 9.49552e-06
-0.000118344 0.000723623 -1.12223e-05
9.49552e-06 -1.12223e-05 0.000519055
0.00230928 -0.000378057 6.54725e-06
-0.000378057 0.00108807 3.53672e-06
6.54725e-06 3.53672e-06 0.00096841
0.000621921 -0.000141922 -1.86695e-05
-0.000141922 0.000111538 1.32536e-07
-1.86695e-05 1.32536e-07 -6.30838e-06
0.000813769 -0.000314386 8.80926e-06
-0.000314386 0.000170994 4.67491e-06
8.80926e-06 4.67491e-06 -3.54089e-05
0.00262912 -0.000735883 -4.82705e-06
-0.000735883 0.00123186 2.07598e-05
-4.82705e-06 2.07598e-05 0.000808747
0.00221014 -0.000305766 8.71817e-06
-0.000305766 0.00106339 -8.98446e-06
8.71817e-06 -8.98446e-06 0.000846788
0.00113169 -0.000317079 -3.43839e-06
-0.000317079 0.000372307 -6.46558e-06
-3.43839e-06 -6.46558e-06 0.000176584
0.000458968 -0.00012115 -6.37255e-07
-0.00012115 0.000114786 -1.05537e-06
-6.37255e-07 -1.05537e-06 -9.39541e-05
-0.000897429 -6.08837e-05 1.32763e-07
-6.08837e-05 -0.000685192 -2.64136e-06
1.32763e-07 -2.64136e-06 -0.000963033
0.00136334 -5.25465e-05 1.98757e-06
-5.25465e-05 0.000716642 2.87168e-06
1.98757e-06 2.87168e-06 0.000509285
0.000680817 -0.000172895 1.64425e-06
-0.000172895 0.000262765 -1.00586e-06
1.64425e-06 -1.00586e-06 3.43843e-05
0.000286907 -7.07995e-05 7.49718e-07
-7.07995e-05 -8.50996e-05 -8.89567e-07
7.49718e-07 -8.89567e-07 -0.000233898
0.0015456 -0.00028352 -5.09347e-06
-0.00028352 0.000815143 1.03136e-06
-5.09347e-06 1.03136e-06 0.00061165
0.000737191 -0.000140799 -1.17827e-07
-0.000140799 0.000230499 2.0228e-07
-1.17827e-07 2.0228e-07 7.70206e-05
0.000493929 -6.04905e-06 -2.97355e-07
-6.04905e-06 3.97236e-05 4.33323e-06
-2.97355e-07 4.33323e-06 -5.72453e-05
0.000809601 -0.000152155 -9.36098e-07
-0.000152155 0.000296834 -2.7499e-06
-9.36098e-07 -2.7499e-06 0.000140926
0.000575996 -6.95864e-05 -2.60471e-07
-6.95864e-05 9.89802e-05 3.4911e-08
-2.60471e-07 3.4911e-08 3.36591e-06
0.00145221 5.17938e-06 -1.38178e-05
5.17938e-06 0.000627351 8.77069e-06
-1.38178e-05 8.77069e-06 0.00060045
0.000524656 -7.79105e-05 9.4959e-07
-7.79105e-05 7.21318e-05 -5.56207e-06
9.4959e-07 -5.56207e-06 -2.12461e-05
0.000843664 -1.78192e-05 -1.15887e-05
-1.78192e-05 0.000243136 8.29491e-07
-1.15887e-05 8.29491e-07 0.00021564
0.000785354 1.93759e-05 1.7373e-06
1.93759e-05 0.000189407 3.14673e-06
1.7373e-06 3.14673e-06 0.000189923
0.000401875 -4.50712e-05 3.12517e-06
-4.50712e-05 -3.42562e-05 -5.47531e-06
3.12517e-06 -5.47531e-06 -6.30807e-05
0.00166328 1.72872e-05 1.41206e-05
1.72872e-05 0.000757959 -1.55648e-06
1.41206e-05 -1.55648e-06 0.00076608
0.00250247 6.082e-06 1.72343e-05
6.082e-06 0.00129901 -5.2132e-06
1.72343e-05 -5.2132e-06 0.00131174
0.000466516 7.35467e-05 1.40952e-06
7.35467e-05 4.03109e-05 -1.60595e-06
1.40952e-06 -1.60595e-06 -7.77293e-05
0.00056875 7.41615e-05 -1.10362e-06
7.41615e-05 9.16562e-05 -3.33973e-06
-1.10362e-06 -3.33973e-06 2.64137e-05
0.000547432 1.34542e-05 5.27502e-07
1.34542e-05 0.000110483 8.21863e-07
5.27502e-07 8.21863e-07 -4.76865e-06
0.000432227 9.44911e-06 2.13582e-06
9.44911e-06 -3.58848e-05 -4.3573e-06
2.13582e-06 -4.3573e-06 -4.82347e-05
0.000462579 6.26152e-05 -8.80493e-08
6.26152e-05 2.3167e-05 -2.33469e-07
-8.80493e-08 -2.33469e-07 -3.42293e-05
0.000422436 -0.000115347 -2.702e-06
-0.000115347 2.74459e-05 2.63872e-06
-2.702e-06 2.63872e-06 -7.8236e-05
0.00203438 1.27693e-05 -8.97427e-06
1.27693e-05 0.000993817 -5.10219e-06
-8.97427e-06 -5.10219e-06 0.00101064
0.000418637 7.87548e-06 -2.73748e-07
7.87548e-06 -4.45478e-05 3.09471e-08
-2.73748e-07 3.09471e-08 -5.61444e-05
0.000480601 2.29568e-06 -7.56103e-07
2.29568e-06 2.57263e-05 3.2826e-06
-7.56103e-07 3.2826e-06 -2.24258e-05
0.000441659 3.08236e-06 -1.99981e-06
3.08236e-06 -3.07791e-05 4.00233e-06
-1.99981e-06 4.00233e-06 -4.34522e-05
0.00207746 2.86315e-05 -5.78908e-06
2.86315e-05 0.00102409 -1.42035e-07
-5.78908e-06 -1.42035e-07 0.00103933
0.00207909 4.37485e-05 -1.85748e-06
4.37485e-05 0.00102817 5.16091e-06
-1.85748e-06 5.16091e-06 0.00104163
-0.004431 -0.00216381 -0.000294226
-0.00216381 0.00773795 7.11508e-05
-0.000294226 7.11508e-05 0.00284498
0.00430473 0.00239512 -0.000389432
0.00239512 0.00204092 0.000125685
-0.000389432 0.000125685 -0.00151809
0.00297649 -0.00117655 -0.000678027
-0.00117655 0.00139562 0.000300264
-0.000678027 0.000300264 -0.00362085
0.00358003 0.00227391 0.00145246
0.00227391 0.00878361 -0.00031794
0.00145246 -0.00031794 0.00263479
0.00463222 0.000886755 -5.31522e-05
0.000886755 -0.000641201 4.50456e-06
-5.31522e-05 4.50456e-06 0.000743612
0.00361138 -0.0006654 0.000105885
-0.0006654 -0.000182808 3.56461e-06
0.000105885 3.56461e-06 0.000159436
0.00184197 -0.000489646 0.00039434
-0.000489646 -0.00665875 -5.2446e-05
0.00039434 -5.2446e-05 -0.00731264
0.0272242 0.00479638 -0.00142258
0.00479638 0.0123003 4.22881e-05
-0.00142258 4.22881e-05 0.00735445
0.0150991 0.0138506 -0.0029894
0.0138506 0.0107988 0.00178762
-0.0029894 0.00178762 0.00369233
0.00544638 -0.00102925 5.32694e-05
-0.00102925 -0.000993963 3.31802e-06
5.32694e-05 3.31802e-06 0.000407859
0.00783542 -0.0035726 0.000220981
-0.0035726 -0.0039229 -0.000185036
0.000220981 -0.000185036 -0.00543851
0.0234541 0.00741724 -0.000431797
0.00741724 0.0088038 -0.00015268
-0.000431797 -0.00015268 0.00216608
0.0196915 0.00539958 0.000153324
0.00539958 0.00653073 0.000481248
0.000153324 0.000481248 0.00227045
0.00165581 -0.00241461 -0.000105051
-0.00241461 -0.00417298 4.65018e-05
-0.000105051 4.65018e-05 -0.00194061
0.00727808 -0.00574779 0.00065683
-0.00574779 -0.000464304 -0.000270711
0.00065683 -0.000270711 -0.00350306
0.0138537 0.00398282 -6.352e-05
0.00398282 0.00466366 -0.00103892
-6.352e-05 -0.00103892 -0.00204817
0.00985407 -3.79607e-05 -0.00039547
-3.79607e-05 -0.00107087 4.8527e-05
-0.00039547 4.8527e-05 -0.00117097
0.00234043 -5.06255e-05 6.01297e-07
-5.06255e-05 0.00139171 1.6547e-05
6.01297e-07 1.6547e-05 0.0010936
0.00019255 8.06893e-05 -1.65529e-06
8.06893e-05 -5.62618e-05 -2.17527e-06
-1.65529e-06 -2.17527e-06 -0.000213182
0.000571609 0.000118594 4.15005e-06
0.000118594 0.000124554 1.56092e-06
4.15005e-06 1.56092e-06 1.28149e-05
-0.000215186 -5.67993e-05 4.74228e-06
-5.67993e-05 -0.000328035 -2.68169e-06
4.74228e-06 -2.68169e-06 -0.000404717
0.000457678 0.000141019 1.5994e-06
0.000141019 6.3972e-05 8.27535e-06
1.5994e-06 8.27535e-06 -0.000133322
0.00050924 7.5299e-05 -7.83136e-08
7.5299e-05 0.000122632 1.38377e-06
-7.83136e-08 1.38377e-06 -5.20323e-05
2.46689e-05 1.43567e-05 2.58325e-06
1.43567e-05 -0.000193013 -9.26928e-07
2.58325e-06 -9.26928e-07 -0.000327144
0.000914302 0.000189352 5.82742e-06
0.000189352 0.000377248 1.00132e-05
5.82742e-06 1.00132e-05 0.000183289
0.000932562 0.000163227 4.5782e-08
0.000163227 0.000401147 -5.24727e-07
4.5782e-08 -5.24727e-07 0.00020562
0.000297763 1.04695e-05 -2.82715e-06
1.04695e-05 -3.09817e-05 -5.4237e-06
-2.82715e-06 -5.4237e-06 -0.000180134
0.000670102 -0.000639012 9.74146e-05
-0.000639012 -0.00150382 -6.20972e-05
9.74146e-05 -6.20972e-05 -0.000962571
0.000228057 -0.000775206 1.7266e-06
-0.000775206 -0.000943063 -1.02234e-05
1.7266e-06 -1.02234e-05 -0.000952144
0.00159079 -0.00112583 -2.81075e-06
-0.00112583 -0.000113222 8.56139e-06
-2.81075e-06 8.56139e-06 -0.000269238
-0.00114526 -0.000806169 3.38757e-06
-0.000806169 -0.00103403 -8.32234e-06
3.38757e-06 -8.32234e-06 -0.00133942
0.00412404 -0.000609961 -4.1003e-05
-0.000609961 0.00262681 7.95979e-05
-4.1003e-05 7.95979e-05 0.00206855
0.00069877 -0.00026291 -1.74267e-06
-0.00026291 0.000506111 5.88895e-06
-1.74267e-06 5.88895e-06 0.000137999
0.000331527 0.000100523 -5.67912e-07
0.000100523 0.000133982 -1.39121e-05
-5.67912e-07 -1.39121e-05 -0.000136176
0.000557924 -1.18833e-05 -4.77618e-06
-1.18833e-05 0.000265744 7.94943e-06
-4.77618e-06 7.94943e-06 -3.21583e-05
0.0025886 -0.00120169 -2.3874e-05
-0.00120169 -4.2685e-06 1.2877e-06
-2.3874e-05 1.2877e-06 3.52488e-05
0.000651185 -5.24126e-05 2.05949e-06
-5.24126e-05 0.000390286 3.07744e-06
2.05949e-06 3.07744e-06 8.26009e-05
0.00233243 -0.000400613 6.92356e-06
-0.000400613 0.0014818 -3.83408e-06
6.92356e-06 -3.83408e-06 0.00106426
0.00153308 -0.00098366 1.59266e-05
-0.00098366 5.98745e-05 -4.95489e-06
1.59266e-05 -4.95489e-06 -1.9511e-05
0.000569898 -0.000722665 -3.7544e-05
-0.000722665 0.000362019 1.14964e-05
-3.7544e-05 1.14964e-05 -3.1518e-05
0.00245339 -0.00203307 5.8751e-05
-0.00203307 0.000231668 -3.34557e-05
5.8751e-05 -3.34557e-05 -0.000127807
0.000789755 -0.000743134 -1.48432e-05
-0.000743134 0.000292428 3.39754e-05
-1.48432e-05 3.39754e-05 0.000127363
-0.00182284 -0.000151926 1.01222e-05
-0.000151926 -0.000723287 5.47446e-06
1.01222e-05 5.47446e-06 -0.00125971
0.000359024 6.57428e-05 -3.73686e-06
6.57428e-05 0.000137726 8.57983e-06
-3.73686e-06 8.57983e-06 -7.41713e-05
0.000109 -0.000107665 4.18841e-08
-0.000107665 0.000169547 6.81529e-06
4.18841e-08 6.81529e-06 -0.00018824
0.0015922 0.000262074 -9.08561e-05
0.000262074 0.00224355 -3.31122e-05
-9.08561e-05 -3.31122e-05 -0.0026496
-0.00772428 0.000433702 -0.000556864
0.000433702 0.00741747 -2.1512e-05
-0.000556864 -2.1512e-05 0.00142649
-0.0138994 -0.00360217 -0.00106443
-0.00360217 -0.00436388 -5.90501e-06
-0.00106443 -5.90501e-06 -0.00666478
0.00022141 0.000383048 1.72188e-05
0.000383048 0.000101947 -2.01047e-06
1.72188e-05 -2.01047e-06 -0.000226292
-0.000909831 0.000641937 -1.13007e-06
0.000641937 -0.000589564 1.00304e-05
-1.13007e-06 1.00304e-05 -0.00109269
0.00298031 0.00137971 5.08663e-05
0.00137971 0.000904617 4.37509e-05
5.08663e-05 4.37509e-05 0.000621541
-0.00445176 0.00241321 0.000143253
0.00241321 0.0083984 6.84611e-05
0.000143253 6.84611e-05 0.00291497
0.00679137 0.00568828 -0.000533184
0.00568828 -0.000954122 -0.000209472
-0.000533184 -0.000209472 -0.0036092
0.000488586 0.00276718 0.000502516
0.00276718 -0.000263151 0.000205205
0.000502516 0.000205205 -0.000115731
-0.000156743 0.00123066 -1.32789e-05
0.00123066 -9.25841e-06 -4.5528e-05
-1.32789e-05 -4.5528e-05 -0.00031372
0.0305421 -0.00445306 -7.12681e-05
-0.00445306 0.0113308 -0.000494224
-7.12681e-05 -0.000494224 0.00551759
0.0078604 0.00264949 0.000842363
0.00264949 0.00389177 0.000293225
0.000842363 0.000293225 -0.0027594
0.0141037 -0.00137632 0.00018117
-0.00137632 0.00272693 5.90648e-05
0.00018117 5.90648e-05 0.00389941
0.00138473 0.000725143 9.18178e-06
0.000725143 0.000754704 -1.17842e-06
9.18178e-06 -1.17842e-06 0.000358383
0.00390248 0.00107185 -4.68867e-05
0.00107185 0.00406344 4.07116e-06
-4.68867e-05 4.07116e-06 -0.000746524
0.00217882 0.00116009 0.000108692
0.00116009 0.00050787 -1.00171e-05
0.000108692 -1.00171e-05 -0.00147443
-0.000208625 0.000714034 -4.99211e-06
0.000714034 8.84119e-05 -5.79915e-06
-4.99211e-06 -5.79915e-06 -0.000358645
-0.00043076 0.00188567 -0.000147668
0.00188567 0.000567151 -8.15127e-05
-0.000147668 -8.15127e-05 -0.000782229
0.00263329 0.00656832 0.000333833
0.00656832 0.0014557 0.000128414
0.000333833 0.000128414 -0.00310608
0.0118385 -0.00042462 1.39107e-05
-0.00042462 -0.00318753 -0.000230478
1.39107e-05 -0.000230478 -0.000879187
0.00863692 -0.00289615 -0.000111729
-0.00289615 0.00484871 -0.000211101
-0.000111729 -0.000211101 -0.00152844
0.00106495 0.000612151 -2.55939e-06
0.000612151 0.000924855 -1.21536e-05
-2.55939e-06 -1.21536e-05 0.000441151
-0.0039741 0.000590013 3.88137e-05
0.000590013 0.000686564 5.84207e-05
3.88137e-05 5.84207e-05 -0.000724005
0.00682083 -0.000693928 0.000216514
-0.000693928 2.02355e-05 -0.000135054
0.000216514 -0.000135054 -0.00161555
0.00960293 0.000117404 0.000354963
0.000117404 -0.00101334 -1.44218e-05
0.000354963 -1.44218e-05 -0.00098202
-0.0029089 0.000289331 5.96827e-05
0.000289331 0.000118594 -1.55376e-05
5.96827e-05 -1.55376e-05 -0.000884343
0.0103059 0.00413717 0.000406259
0.00413717 0.00601937 0.000154094
0.000406259 0.000154094 -0.000392709
0.00500432 -0.000739594 -4.08957e-05
-0.000739594 0.00317876 0.000376672
-4.08957e-05 0.000376672 -0.00131414
0.00321517 0.000540142 2.80562e-05
0.000540142 0.00202758 1.07827e-05
2.80562e-05 1.07827e-05 0.00169756
0.000379238 0.000284714 -9.02198e-06
0.000284714 0.000487443 -2.13854e-06
-9.02198e-06 -2.13854e-06 4.82868e-05
0.000194358 0.000260203 1.09426e-06
0.000260203 0.000548496 -1.28272e-05
1.09426e-06 -1.28272e-05 -3.64875e-05
0.000184835 0.000115433 1.95672e-06
0.000115433 -3.86763e-05 -3.84506e-06
1.95672e-06 -3.84506e-06 -0.000251548
0.000438613 0.000127822 -1.0774e-07
0.000127822 0.000218965 2.48518e-07
-1.0774e-07 2.48518e-07 -9.51843e-06
-0.000184472 1.3839e-05 4.8899e-06
1.3839e-05 0.000253229 -4.22912e-06
4.8899e-06 -4.22912e-06 -0.000249732
0.000511421 3.84625e-05 6.00894e-07
3.84625e-05 0.000244497 -5.88332e-07
6.00894e-07 -5.88332e-07 3.46579e-05
0.00105631 -4.08479e-05 -8.47727e-07
-4.08479e-05 0.00093316 -2.85279e-06
-8.47727e-07 -2.85279e-06 0.000492586
-0.000213447 2.55481e-05 2.69281e-06
2.55481e-05 0.000343037 7.55999e-07
2.69281e-06 7.55999e-07 -0.000204872
-5.01117e-05 -5.93606e-05 2.41371e-06
-5.93606e-05 0.000407553 1.63559e-05
2.41371e-06 1.63559e-05 -7.65096e-05
0.000572457 -4.62152e-05 1.20125e-06
-4.62152e-05 0.000576923 -1.31898e-05
1.20125e-06 -1.31898e-05 0.000232242
-9.62477e-05 -4.36006e-05 5.24295e-06
-4.36006e-05 -0.000170168 8.69053e-06
5.24295e-06 8.69053e-06 -0.000341356
0.00136659 -4.30538e-05 1.27894e-06
-4.30538e-05 0.000657403 5.85075e-06
1.27894e-06 5.85075e-06 0.000496749
0.000294339 -6.55212e-05 -1.05225e-05
-6.55212e-05 7.30779e-05 1.19299e-05
-1.05225e-05 1.19299e-05 -7.7956e-05
0.000643465 -9.26669e-05 1.50502e-06
-9.26669e-05 0.000442973 5.8507e-07
1.50502e-06 5.8507e-07 0.000247897
0.00016408 -4.88891e-05 -2.37206e-06
-4.88891e-05 -3.47524e-05 -1.84677e-06
-2.37206e-06 -1.84677e-06 -0.000181119
0.00116696 -0.000291903 2.94646e-06
-0.000291903 0.000567684 2.6784e-06
2.94646e-06 2.6784e-06 0.000416767
0.000543017 -0.000222112 -2.13361e-05
-0.000222112 0.000113255 2.68376e-07
-2.13361e-05 2.68376e-07 4.82208e-05
-0.000664254 -0.000320259 1.56806e-05
-0.000320259 -0.000575822 2.16256e-05
1.56806e-05 2.16256e-05 -0.000910749
0.000118583 -0.000122072 1.59994e-06
-0.000122072 -0.00017703 1.189e-06
1.59994e-06 1.189e-06 -0.000292373
0.00113216 -0.000349624 -5.92124e-06
-0.000349624 0.00035312 1.05165e-05
-5.92124e-06 1.05165e-05 0.000134124
0.00213432 -0.000703222 -6.43628e-06
-0.000703222 0.000913054 1.23342e-05
-6.43628e-06 1.23342e-05 0.000464335
0.00199835 -0.000729638 -5.08168e-06
-0.000729638 0.000738612 -2.05303e-06
-5.08168e-06 -2.05303e-06 0.000249409
0.00190553 -0.000476774 2.29707e-06
-0.000476774 0.000836639 1.27959e-06
2.29707e-06 1.27959e-06 0.000541434
0.000625051 -0.000462258 1.09327e-05
-0.000462258 -9.95462e-06 -3.94905e-06
1.09327e-05 -3.94905e-06 -0.000356048
0.00110106 -0.00021062 3.32903e-06
-0.00021062 0.000503335 -4.25906e-06
3.32903e-06 -4.25906e-06 0.000197726
0.00107366 -0.000242964 -7.99368e-06
-0.000242964 0.000402275 1.85386e-06
-7.99368e-06 1.85386e-06 0.00017368
-0.000125836 -0.000195498 2.12628e-05
-0.000195498 -0.000397782 -1.58022e-05
2.12628e-05 -1.58022e-05 -0.000544004
0.00142022 -0.000149767 -5.16694e-06
-0.000149767 0.000692989 3.41845e-06
-5.16694e-06 3.41845e-06 0.000479378
5.36705e-05 -0.00011563 6.31255e-07
-0.00011563 -0.00010474 1.29747e-06
6.31255e-07 1.29747e-06 -0.000378548
-0.000100024 -4.58536e-05 1.25641e-06
-4.58536e-05 -0.000296517 -1.35432e-06
1.25641e-06 -1.35432e-06 -0.00049494
0.00202259 -0.000335676 -3.14835e-06
-0.000335676 0.00110361 -2.36239e-07
-3.14835e-06 -2.36239e-07 0.000861743
0.000709972 -0.000141771 -5.83981e-07
-0.000141771 0.000206491 -6.92206e-08
-5.83981e-07 -6.92206e-08 3.66625e-05
0.000415658 -2.62841e-06 3.18621e-06
-2.62841e-06 3.26227e-06 4.97199e-06
3.18621e-06 4.97199e-06 -0.000113427
0.000822325 -0.000176813 -2.46974e-07
-0.000176813 0.000297632 -2.17063e-06
-2.46974e-07 -2.17063e-06 0.000131845
0.000435711 1.63398e-06 -2.11292e-06
1.63398e-06 1.84833e-05 -2.13998e-07
-2.11292e-06 -2.13998e-07 -8.97961e-05
0.001483 -9.45126e-06 -2.15793e-05
-9.45126e-06 0.000647353 6.3694e-06
-2.15793e-05 6.3694e-06 0.000617052
0.000596199 -8.1205e-05 1.15711e-06
-8.1205e-05 0.000121068 -6.00438e-06
1.15711e-06 -6.00438e-06 2.07293e-05
0.000843343 -1.73941e-05 -1.08776e-05
-1.73941e-05 0.00023805 5.19777e-07
-1.08776e-05 5.19777e-07 0.000208002
0.000860803 3.02757e-05 9.90539e-07
3.02757e-05 0.000234604 3.6476e-06
9.90539e-07 3.6476e-06 0.000232037
0.000432395 -3.8956e-05 3.34545e-06
-3.8956e-05 -2.23255e-05 -6.89341e-06
3.34545e-06 -6.89341e-06 -5.31965e-05
0.00175268 2.94314e-05 1.73871e-05
2.94314e-05 0.00081268 -1.29392e-06
1.73871e-05 -1.29392e-06 0.000819116
0.00255053 1.92022e-05 2.25395e-05
1.92022e-05 0.00132669 -5.61498e-06
2.25395e-05 -5.61498e-06 0.00133927
0.000207006 2.84065e-05 1.49867e-06
2.84065e-05 -0.000110548 2.44451e-06
1.49867e-06 2.44451e-06 -0.000258247
5.24077e-05 2.58374e-05 3.19541e-07
2.58374e-05 -0.000245808 -5.09197e-06
3.19541e-07 -5.09197e-06 -0.000319362
0.000577294 7.15197e-05 -1.1618e-07
7.15197e-05 0.000124419 4.39095e-07
-1.1618e-07 4.39095e-07 -4.81898e-06
0.000438974 1.069e-05 2.01205e-06
1.069e-05 -3.3373e-05 -4.62339e-06
2.01205e-06 -4.62339e-06 -4.79606e-05
0.000299383 9.18847e-06 1.75241e-06
9.18847e-06 -8.9888e-05 4.84468e-08
1.75241e-06 4.84468e-08 -0.000151364
0.000192072 -9.91345e-05 -3.27513e-07
-9.91345e-05 -0.000119509 9.75888e-07
-3.27513e-07 9.75888e-07 -0.000234477
0.00208145 -1.54456e-06 -1.34905e-05
-1.54456e-06 0.00102295 -5.17964e-06
-1.34905e-05 -5.17964e-06 0.00103991
0.000426769 7.05651e-06 6.897e-08
7.05651e-06 -4.02594e-05 -7.68887e-08
6.897e-08 -7.68887e-08 -5.22423e-05
0.000396339 -1.06569e-05 -3.3234e-06
-1.06569e-05 -2.59053e-05 3.52502e-06
-3.3234e-06 3.52502e-06 -7.90805e-05
0.00206394 1.40815e-05 -4.92986e-06
1.40815e-05 0.00101333 -6.09713e-09
-4.92986e-06 -6.09713e-09 0.00102982
0.000426291 6.59353e-06 -1.76348e-06
6.59353e-06 -3.9121e-05 3.87169e-06
-1.76348e-06 3.87169e-06 -5.08089e-05
0.00205431 2.95994e-05 4.11187e-06
2.95994e-05 0.00100924 5.29275e-06
4.11187e-06 5.29275e-06 0.00102438
-0.000750802 -0.00131162 -0.000325702
-0.00131162 -0.000133648 0.000140089
-0.000325702 0.000140089 -0.00419413
0.0032819 0.00139713 -0.000195836
0.00139713 0.00982355 4.99288e-05
-0.000195836 4.99288e-05 0.0040215
0.00408413 0.000522519 -0.00130835
0.000522519 0.00462247 0.000295922
-0.00130835 0.000295922 0.00238239
0.000601267 0.000127389 8.40325e-06
0.000127389 0.000148494 8.04818e-06
8.40325e-06 8.04818e-06 -2.03553e-05
0.00612449 -0.00133044 -0.000180398
-0.00133044 0.00381848 0.000312008
-0.000180398 0.000312008 0.00113436
0.00447682 -0.00157345 -0.000322244
-0.00157345 0.00210694 3.65843e-05
-0.000322244 3.65843e-05 -0.00297986
0.0170085 0.0061445 0.000321661
0.0061445 0.0105313 -0.000472972
0.000321661 -0.000472972 0.00380489
0.00783662 -0.00159078 0.000148169
-0.00159078 0.000117446 -3.15758e-05
0.000148169 -3.15758e-05 0.00104051
0.0149922 -0.00339965 0.000351329
-0.00339965 0.000707714 -0.000210642
0.000351329 -0.000210642 0.000631468
0.0165646 0.00576032 -0.000955093
0.00576032 0.00417931 0.000440327
-0.000955093 0.000440327 -0.00211104
0.0158006 0.00479203 0.000228162
0.00479203 0.00815305 0.000276681
0.000228162 0.000276681 0.00439438
0.00778409 -0.00317427 -0.000102385
-0.00317427 -0.000537911 -5.63604e-06
-0.000102385 -5.63604e-06 0.000646003
0.0141749 -0.00610711 4.89872e-06
-0.00610711 0.0018538 -4.37914e-05
4.89872e-06 -4.37914e-05 -0.000572821
0.0106603 0.00299457 0.000129389
0.00299457 0.00591243 -0.00043079
0.000129389 -0.00043079 -0.000485251
0.0147003 0.0013582 -5.39883e-06
0.0013582 0.00101238 6.14919e-05
-5.39883e-06 6.14919e-05 -3.61206e-05
0.00354903 -0.00331587 -5.7064e-05
-0.00331587 0.000378635 7.08614e-05
-5.7064e-05 7.08614e-05 0.00103584
0.0107954 -0.00603216 0.000258732
-0.00603216 0.00452211 -0.000157248
0.000258732 -0.000157248 0.000534467
0.00975228 -0.000233261 6.96175e-05
-0.000233261 0.00610677 -0.00050045
6.96175e-05 -0.00050045 0.00183475
0.0141701 -0.000152733 -0.000197297
-0.000152733 -0.000844763 0.000316879
-0.000197297 0.000316879 0.000612935
0.000209764 0.000149739 8.84379e-06
0.000149739 4.37016e-06 1.6029e-05
8.84379e-06 1.6029e-05 -0.000215756
0.000581835 -0.000112592 4.17573e-07
-0.000112592 0.000262581 2.53551e-08
4.17573e-07 2.53551e-08 -1.95295e-07
0.000593623 8.26466e-05 4.95667e-06
8.26466e-05 0.000204904 -1.82922e-06
4.95667e-06 -1.82922e-06 4.4793e-05
0.00053592 0.000181038 3.09118e-06
0.000181038 5.99146e-05 1.7199e-05
3.09118e-06 1.7199e-05 -8.99773e-05
0.000874305 0.000243749 2.58119e-07
0.000243749 0.000359947 -5.1835e-07
2.58119e-07 -5.1835e-07 0.000144572
0.00108827 0.000136976 -1.70174e-06
0.000136976 0.000514717 -3.99638e-06
-1.70174e-06 -3.99638e-06 0.000330534
0.00111458 0.000203952 -1.87319e-06
0.000203952 0.000509364 -1.05555e-07
-1.87319e-06 -1.05555e-07 0.000309469
0.00112241 0.00022632 2.3108e-06
0.00022632 0.00054347 1.57144e-06
2.3108e-06 1.57144e-06 0.000333665
0.000973304 -0.000944771 0.000131808
-0.000944771 -0.000988391 -8.45368e-05
0.000131808 -8.45368e-05 -0.000665155
-7.57262e-05 -0.000810268 -3.22398e-05
-0.000810268 -0.000877668 -1.254e-05
-3.22398e-05 -1.254e-05 -0.000863247
0.000652013 -0.000194024 5.88928e-06
-0.000194024 0.0003396 -3.2355e-05
5.88928e-06 -3.2355e-05 2.71949e-05
0.00197105 -0.000826113 2.67895e-05
-0.000826113 0.00111359 -2.63031e-05
2.67895e-05 -2.63031e-05 0.000734655
0.00273396 -0.000566393 -2.16039e-05
-0.000566393 0.00165825 2.14958e-05
-2.16039e-05 2.14958e-05 0.00124557
0.00180738 -0.000192279 1.02842e-05
-0.000192279 0.00110369 -2.05281e-05
1.02842e-05 -2.05281e-05 0.000769319
6.05218e-05 3.7534e-05 3.55997e-06
3.7534e-05 -5.76298e-05 7.01915e-06
3.55997e-06 7.01915e-06 -0.000276074
0.00045686 -0.00168869 -1.14406e-05
-0.00168869 -0.000689497 -7.03622e-06
-1.14406e-05 -7.03622e-06 -0.000952487
0.00153051 -6.23259e-05 -1.53577e-06
-6.23259e-05 0.00104893 -1.85841e-06
-1.53577e-06 -1.85841e-06 0.000678671
-0.000239008 -0.000258617 -1.21211e-05
-0.000258617 9.81932e-05 9.42511e-06
-1.21211e-05 9.42511e-06 -0.000382515
-0.000558739 -0.000544803 3.09164e-05
-0.000544803 -0.000552656 -3.22759e-06
3.09164e-05 -3.22759e-06 -0.000556266
0.00066038 0.000116055 4.49254e-06
0.000116055 0.00033577 7.63693e-06
4.49254e-06 7.63693e-06 0.000148061
-0.000727314 -0.0016709 -0.000116371
-0.0016709 -0.000314528 -2.28812e-05
-0.000116371 -2.28812e-05 -0.000874679
-0.000972504 -0.000495914 -1.97891e-05
-0.000495914 -0.000301699 2.43304e-05
-1.97891e-05 2.43304e-05 -0.000728051
0.00042901 0.000138343 3.23902e-06
0.000138343 0.000640731 -1.32903e-05
3.23902e-06 -1.32903e-05 0.000106101
0.00191046 0.000302357 -3.94533e-06
0.000302357 0.00139702 3.39598e-06
-3.94533e-06 3.39598e-06 0.000979548
-0.00100567 0.000112786 0.000211332
0.000112786 0.00276848 5.17511e-05
0.000211332 5.17511e-05 0.00104843
9.0033e-05 2.3258e-05 0.000201922
2.3258e-05 0.00130403 -3.72021e-05
0.000201922 -3.72021e-05 -0.0037479
-0.013726 -0.000505075 -0.000423457
-0.000505075 0.00679814 2.89921e-05
-0.000423457 2.89921e-05 0.000845474
0.00189336 0.000756921 2.18977e-05
0.000756921 0.0011511 -3.44579e-07
2.18977e-05 -3.44579e-07 0.000752288
-0.000663448 0.000931432 1.26838e-05
0.000931432 -0.000177062 1.11701e-05
1.26838e-05 1.11701e-05 -0.000764596
0.0059129 0.00146372 0.00049053
0.00146372 0.0045195 0.000116028
0.00049053 0.000116028 0.000944037
0.00684563 0.00492884 0.00026659
0.00492884 0.00299407 0.000222823
0.00026659 0.000222823 -0.00107984
0.00359934 0.00333736 -0.000161372
0.00333736 0.00209294 -0.000144313
-0.000161372 -0.000144313 0.000457927
0.00469616 -0.00232583 -0.000183935
-0.00232583 0.00525757 -0.000514303
-0.000183935 -0.000514303 0.000398562
0.00331429 0.000753157 0.000143061
0.000753157 0.000801878 0.000169053
0.000143061 0.000169053 -0.00115332
0.00934299 -0.000442729 -4.95538e-05
-0.000442729 -0.00549139 -0.000267196
-4.95538e-05 -0.000267196 -0.00264505
0.00100587 0.000706073 3.53922e-06
0.000706073 0.000839853 -4.23616e-07
3.53922e-06 -4.23616e-07 0.00031035
-0.00308626 0.000310867 -1.58992e-06
0.000310867 0.00087089 7.33289e-06
-1.58992e-06 7.33289e-06 -0.000708934
0.00570075 -0.000354325 0.000168257
-0.000354325 -2.81422e-05 1.55938e-05
0.000168257 1.55938e-05 -0.00125543
-0.00191406 0.000675756 -1.98463e-05
0.000675756 -5.84583e-05 -1.23447e-05
-1.98463e-05 -1.23447e-05 -0.000989566
0.0148449 0.00159175 6.26551e-06
0.00159175 0.000974033 -6.53283e-05
6.26551e-06 -6.53283e-05 -3.61188e-05
0.00380766 0.00255503 0.000306112
0.00255503 0.0049296 0.000184882
0.000306112 0.000184882 -0.00137609
0.0107792 0.000686848 -0.000196327
0.000686848 0.00415713 1.40511e-05
-0.000196327 1.40511e-05 -0.000274981
0.000586896 0.000647786 1.54818e-06
0.000647786 0.000788804 -2.20479e-05
1.54818e-06 -2.20479e-05 9.69749e-05
0.00242866 -3.56907e-05 3.12002e-06
-3.56907e-05 0.00117765 7.47415e-06
3.12002e-06 7.47415e-06 -4.79245e-05
0.00410174 -0.00202431 0.000183862
-0.00202431 0.00370207 -0.000279755
0.000183862 -0.000279755 0.00144824
0.0270286 0.00641516 0.000375253
0.00641516 0.00965965 -0.000345003
0.000375253 -0.000345003 0.00522941
0.0102315 -0.000432654 -0.00014699
-0.000432654 0.00662315 0.000563901
-0.00014699 0.000563901 0.00216382
-0.00111322 0.000662969 -9.70356e-05
0.000662969 0.00072702 -0.000133026
-9.70356e-05 -0.000133026 -0.000238377
0.00369752 0.00128097 0.000271018
0.00128097 0.00661021 2.21984e-05
0.000271018 2.21984e-05 -0.00268727
0.00151531 0.000469389 1.23055e-05
0.000469389 0.00112614 1.13125e-05
1.23055e-05 1.13125e-05 0.000658027
0.000860013 0.000328583 5.38961e-06
0.000328583 0.000948229 6.7987e-06
5.38961e-06 6.7987e-06 0.000395968
0.000581073 -7.82333e-05 -7.49323e-06
-7.82333e-05 0.00103473 1.42705e-05
-7.49323e-06 1.42705e-05 0.000522861
-0.00101933 -9.67658e-06 2.37255e-06
-9.67658e-06 -0.000724558 -3.23498e-06
2.37255e-06 -3.23498e-06 -0.000924777
-0.000705875 -2.77964e-05 1.51087e-06
-2.77964e-05 -2.30667e-05 4.13753e-06
1.51087e-06 4.13753e-06 -0.000559507
-9.65574e-06 3.3876e-05 -2.40364e-06
3.3876e-05 0.000493005 -8.48091e-06
-2.40364e-06 -8.48091e-06 -7.57057e-05
-8.00661e-05 -1.54384e-05 2.47642e-07
-1.54384e-05 0.000129015 3.10129e-07
2.47642e-07 3.10129e-07 -0.000172009
-0.000210277 -7.2781e-05 2.71864e-06
-7.2781e-05 0.000303043 1.73889e-06
2.71864e-06 1.73889e-06 -0.000181297
0.00207926 -0.000498566 1.15406e-05
-0.000498566 0.00137423 -1.1985e-05
1.15406e-05 -1.1985e-05 0.00101401
-7.57412e-05 -5.26569e-05 -4.09441e-06
-5.26569e-05 -1.49461e-06 8.89748e-06
-4.09441e-06 8.89748e-06 -0.000192845
-0.00054271 2.47574e-05 9.64395e-07
2.47574e-05 -0.000452201 4.22513e-06
9.64395e-07 4.22513e-06 -0.00059521
0.000975946 -0.000324468 -1.31229e-06
-0.000324468 0.000462461 6.14263e-06
-1.31229e-06 6.14263e-06 0.000258188
-0.00411324 3.89088e-05 2.57754e-05
3.89088e-05 -0.00237958 2.33474e-05
2.57754e-05 2.33474e-05 -0.0027386
-0.000783534 -9.97445e-05 1.55819e-05
-9.97445e-05 -0.000616681 -4.43355e-07
1.55819e-05 -4.43355e-07 -0.000634939
-3.495e-05 -0.000374564 -4.91885e-06
-0.000374564 -0.000251573 -5.56644e-06
-4.91885e-06 -5.56644e-06 -0.000547065
0.00162811 -0.000717376 9.9044e-07
-0.000717376 0.000571484 -5.9016e-07
9.9044e-07 -5.9016e-07 -8.18034e-06
0.00191937 -0.000847191 -9.90296e-06
-0.000847191 0.00062673 6.92237e-07
-9.90296e-06 6.92237e-07 7.77536e-05
0.00137896 -0.00038425 4.61832e-06
-0.00038425 0.000486024 -5.59672e-06
4.61832e-06 -5.59672e-06 0.000254953
0.0014911 -0.000623368 9.41883e-07
-0.000623368 0.000508968 1.07469e-06
9.41883e-07 1.07469e-06 7.13778e-05
0.00179233 -0.000744091 4.43777e-06
-0.000744091 0.000552346 -6.06565e-06
4.43777e-06 -6.06565e-06 6.22409e-05
0.00191254 -0.000576687 7.14605e-07
-0.000576687 0.000772049 5.12887e-06
7.14605e-07 5.12887e-06 0.00037516
0.00105558 -0.00060376 2.50408e-06
-0.00060376 0.000163035 -5.22938e-06
2.50408e-06 -5.22938e-06 -0.000288069
0.000958641 -0.00022844 9.80085e-07
-0.00022844 0.000300913 -5.93506e-06
9.80085e-07 -5.93506e-06 2.69761e-05
0.00106911 -0.000406061 -4.09109e-06
-0.000406061 0.000315807 2.00631e-06
-4.09109e-06 2.00631e-06 1.85691e-05
-0.000947844 -0.000240952 6.66923e-07
-0.000240952 -0.000975009 -9.05105e-06
6.66923e-07 -9.05105e-06 -0.00125635
-0.000173873 -8.30197e-05 5.82329e-07
-8.30197e-05 -0.000294873 -5.40467e-06
5.82329e-07 -5.40467e-06 -0.000563515
0.000375226 -0.000186847 5.86729e-07
-0.000186847 8.03904e-05 2.17097e-07
5.86729e-07 2.17097e-07 -0.000227279
-0.000198345 -0.000175809 9.01354e-06
-0.000175809 -0.000338466 1.03513e-06
9.01354e-06 1.03513e-06 -0.00058014
0.00105519 -0.000179396 -1.01658e-06
-0.000179396 0.000496992 1.6949e-06
-1.01658e-06 1.6949e-06 0.000235454
0.000727227 -0.000146014 4.04694e-07
-0.000146014 0.000234325 4.12031e-07
4.04694e-07 4.12031e-07 2.27926e-05
0.000365737 -3.13884e-05 1.41337e-06
-3.13884e-05 -4.60382e-05 6.94248e-06
1.41337e-06 6.94248e-06 -0.000171099
0.00134774 -0.000220295 -1.63373e-06
-0.000220295 0.000635856 4.03832e-07
-1.63373e-06 4.03832e-07 0.000443927
0.000575013 -3.38946e-05 -1.34611e-06
-3.38946e-05 8.64183e-05 -3.14686e-07
-1.34611e-06 -3.14686e-07 -2.20444e-05
0.000331737 4.79457e-05 3.31377e-06
4.79457e-05 -8.09959e-05 8.6335e-06
3.31377e-06 8.6335e-06 -0.000127214
0.00075652 -8.95298e-05 1.07861e-06
-8.95298e-05 0.000210802 -4.11177e-06
1.07861e-06 -4.11177e-06 0.000105303
0.000434333 -1.56785e-05 -1.60233e-06
-1.56785e-05 -2.72151e-05 -9.48681e-08
-1.60233e-06 -9.48681e-08 -6.47448e-05
0.00276687 9.49433e-05 -9.04039e-07
9.49433e-05 0.00146733 2.93839e-06
-9.04039e-07 2.93839e-06 0.00146926
0.000479569 -3.35338e-05 3.31577e-06
-3.35338e-05 5.23484e-06 -7.43555e-06
3.31577e-06 -7.43555e-06 -2.93782e-05
0.00181126 4.33889e-05 2.05697e-05
4.33889e-05 0.000849869 -9.86565e-07
2.05697e-05 -9.86565e-07 0.000853848
0.00264164 3.50271e-05 2.95014e-05
3.50271e-05 0.0013832 -6.01088e-06
2.95014e-05 -6.01088e-06 0.00139485
0.000247 3.63608e-05 3.75159e-06
3.63608e-05 -0.000101283 2.07657e-06
3.75159e-06 2.07657e-06 -0.000237827
0.000133464 1.40432e-05 2.31469e-06
1.40432e-05 -0.000194652 -3.73556e-06
2.31469e-06 -3.73556e-06 -0.000282207
0.000456418 4.70597e-05 -3.90773e-07
4.70597e-05 4.8333e-05 -1.06816e-06
-3.90773e-07 -1.06816e-06 -9.5015e-05
0.00046633 1.40056e-05 1.63554e-06
1.40056e-05 -1.61207e-05 -5.32758e-06
1.63554e-06 -5.32758e-06 -3.49721e-05
0.000126652 2.37089e-05 -7.93951e-07
2.37089e-05 -0.000198354 -2.08053e-06
-7.93951e-07 -2.08053e-06 -0.000274931
0.000628389 7.46453e-05 1.60484e-07
7.46453e-05 0.000173911 2.37364e-06
1.60484e-07 2.37364e-06 3.34136e-05
0.00213283 -1.55919e-05 -1.88778e-05
-1.55919e-05 0.00105479 -5.16438e-06
-1.88778e-05 -5.16438e-06 0.00107137
0.000439392 7.75893e-06 -8.50994e-07
7.75893e-06 -3.40414e-05 -1.2398e-07
-8.50994e-07 -1.2398e-07 -4.80765e-05
4.27276e-05 1.78054e-05 1.66782e-06
1.78054e-05 -0.000251021 3.14045e-06
1.66782e-06 3.14045e-06 -0.0003168
0.00207171 -6.56265e-07 -4.09444e-06
-6.56265e-07 0.00101666 6.14704e-08
-4.09444e-06 6.14704e-08 0.00103368
0.000416887 6.34187e-06 -2.19494e-06
6.34187e-06 -4.71287e-05 4.08896e-06
-2.19494e-06 4.08896e-06 -5.87108e-05
0.00209778 1.54147e-05 9.55077e-06
1.54147e-05 0.00103554 5.28884e-06
9.55077e-06 5.28884e-06 0.00105162
0.000686305 -9.65163e-05 0.000210725
-9.65163e-05 0.00357254 0.000112162
0.000210725 0.000112162 0.00216924
-0.000509318 -0.000541484 -7.1514e-05
-0.000541484 0.000520044 -1.81271e-06
-7.1514e-05 -1.81271e-06 -0.00425671
0.000600245 0.00140622 -0.000179718
0.00140622 0.0093252 -7.93539e-05
-0.000179718 -7.93539e-05 0.00315315
0.000865851 0.000158247 1.11938e-06
0.000158247 0.000301701 1.08002e-07
1.11938e-06 1.08002e-07 0.0001409
0.000236959 0.000114181 8.11573e-06
0.000114181 -8.36073e-05 4.98433e-06
8.11573e-06 4.98433e-06 -0.000243998
0.00138658 0.000242927 1.28304e-05
0.000242927 0.000628381 1.26247e-05
1.28304e-05 1.26247e-05 0.000464556
0.00793792 -0.000838876 -0.000214619
-0.000838876 -7.22111e-05 0.000195301
-0.000214619 0.000195301 -0.00181383
0.00632909 -0.00184658 0.000138885
-0.00184658 0.00339743 2.62314e-05
0.000138885 2.62314e-05 0.00157461
0.00466783 -0.00280257 0.000298736
-0.00280257 0.00196653 -0.000325535
0.000298736 -0.000325535 -0.00303804
0.00979165 -0.00382905 -2.38838e-05
-0.00382905 -0.000245532 -4.17564e-05
-2.38838e-05 -4.17564e-05 0.00111166
0.00250684 -0.00526484 -0.000681056
-0.00526484 -0.00226248 6.80295e-05
-0.000681056 6.80295e-05 -0.00388771
0.029146 0.00558996 0.000458593
0.00558996 0.0134013 0.000256706
0.000458593 0.000256706 0.00584482
0.00823363 -0.000696411 0.000405451
-0.000696411 -0.0019669 -0.000312742
0.000405451 -0.000312742 -0.00302595
0.00270275 -0.00345251 -2.11923e-05
-0.00345251 -0.000858412 1.84446e-05
-2.11923e-05 1.84446e-05 0.000385405
0.00688833 -0.00607189 -0.000200772
-0.00607189 0.00260805 1.43262e-05
-0.000200772 1.43262e-05 -0.00238427
0.00317875 0.00439385 -0.000112732
0.00439385 0.0061313 -0.000370394
-0.000112732 -0.000370394 3.84766e-05
0.0119958 -0.00022327 -0.00012177
-0.00022327 -0.00311946 0.000170396
-0.00012177 0.000170396 -0.000947555
-0.00112968 -0.00226363 -0.000165643
-0.00226363 0.000239639 8.33499e-05
-0.000165643 8.33499e-05 -0.000246092
0.00922071 -0.00354913 -0.000425675
-0.00354913 0.00596157 0.000242336
-0.000425675 0.000242336 0.000173764
0.00273906 -0.00019788 5.67376e-05
-0.00019788 0.00293215 -0.000342088
5.67376e-05 -0.000342088 -0.00165175
0.00973108 4.35139e-05 0.000113021
4.35139e-05 -0.00166487 0.000133438
0.000113021 0.000133438 -0.00156616
-0.000134614 9.97252e-05 1.08561e-05
9.97252e-05 -0.000272875 2.27101e-05
1.08561e-05 2.27101e-05 -0.000410585
0.000673608 2.00216e-05 1.99263e-06
2.00216e-05 0.000278362 -2.60949e-06
1.99263e-06 -2.60949e-06 4.82366e-05
0.000279709 -0.000186868 6.30904e-06
-0.000186868 -1.6814e-06 -1.13952e-05
6.30904e-06 -1.13952e-05 -0.000225757
0.000647082 0.000164538 -2.14146e-06
0.000164538 0.000144123 2.34959e-06
-2.14146e-06 2.34959e-06 -1.48595e-05
0.000892864 0.000185013 3.63434e-06
0.000185013 0.000381996 -8.54945e-06
3.63434e-06 -8.54945e-06 0.000172646
0.00124154 0.000231962 -5.5327e-06
0.000231962 0.000590287 -6.4129e-06
-5.5327e-06 -6.4129e-06 0.00038784
0.000938278 -0.00155028 6.7215e-05
-0.00155028 -0.00022281 -1.82742e-05
6.7215e-05 -1.82742e-05 -0.000476171
-1.27527e-05 -0.000469689 1.29823e-05
-0.000469689 -0.000287007 -2.82542e-05
1.29823e-05 -2.82542e-05 -0.000244634
0.000193783 0.000137192 -2.95772e-06
0.000137192 4.16213e-05 -2.07062e-05
-2.95772e-06 -2.07062e-05 -0.000202763
0.00289756 -0.000572051 8.35427e-05
-0.000572051 0.00183262 -4.09733e-05
8.35427e-05 -4.09733e-05 0.00138815
0.0023053 -0.000167458 7.34774e-06
-0.000167458 0.00145833 -4.88535e-06
7.34774e-06 -4.88535e-06 0.00112507
-0.00043949 9.52503e-05 7.69151e-06
9.52503e-05 -0.000282458 2.60963e-06
7.69151e-06 2.60963e-06 -0.000496978
0.00015583 5.93954e-05 3.26087e-06
5.93954e-05 0.000299032 1.26244e-06
3.26087e-06 1.26244e-06 -7.00222e-05
0.00185952 -0.0017901 -5.59455e-05
-0.0017901 0.000932274 1.79143e-06
-5.59455e-05 1.79143e-06 0.000267827
0.000128862 -4.33094e-05 -6.2406e-06
-4.33094e-05 0.000545474 1.44128e-06
-6.2406e-06 1.44128e-06 -4.94779e-05
0.000202734 -0.000429107 -1.41351e-05
-0.000429107 0.000516777 -2.5069e-06
-1.41351e-05 -2.5069e-06 -4.3123e-05
0.000901161 0.00021564 5.24251e-06
0.00021564 0.000723769 -1.10312e-05
5.24251e-06 -1.10312e-05 0.000415869
-0.00254147 -0.000441609 -2.8804e-05
-0.000441609 -0.000159916 -1.86908e-05
-2.8804e-05 -1.86908e-05 -0.00118202
0.000398356 -0.000214672 -1.7989e-05
-0.000214672 0.00101063 -5.62042e-06
-1.7989e-05 -5.62042e-06 0.00035121
-0.00193299 -4.48007e-05 -2.16258e-05
-4.48007e-05 -0.00043721 -3.92098e-07
-2.16258e-05 -3.92098e-07 -0.00105215
0.000278244 0.000394831 -1.07164e-05
0.000394831 -0.000417249 1.73607e-06
-1.07164e-05 1.73607e-06 -0.00280803
-0.00205185 0.000480565 0.000118387
0.000480565 0.00250339 -5.39832e-06
0.000118387 -5.39832e-06 0.000721085
-0.00105656 -0.00010746 0.000418502
-0.00010746 0.000530734 4.44512e-05
0.000418502 4.44512e-05 -0.00447772
0.00027217 0.000701998 8.52839e-06
0.000701998 0.000376245 1.92934e-05
8.52839e-06 1.92934e-05 -0.000183198
0.000136861 0.00108515 -2.0768e-05
0.00108515 0.000594371 -2.64928e-05
-2.0768e-05 -2.64928e-05 -0.000280784
-0.00269197 0.000272719 -0.000116373
0.000272719 0.00107611 -4.31457e-05
-0.000116373 -4.31457e-05 -0.000646052
-0.00449625 0.000853856 0.000128248
0.000853856 0.00344235 0.000223411
0.000128248 0.000223411 -0.00253925
0.00105151 0.000734945 -0.000154547
0.000734945 -0.00174407 -0.000491589
-0.000154547 -0.000491589 -0.00748158
0.00494071 -5.30115e-05 0.000108401
-5.30115e-05 -0.000211894 6.23599e-05
0.000108401 6.23599e-05 -0.000862741
0.00742533 -0.000436319 -0.00038182
-0.000436319 -0.00198344 0.00029219
-0.00038182 0.00029219 -0.00312476
0.000245729 0.000509634 -3.6238e-06
0.000509634 0.000658388 -3.78142e-07
-3.6238e-06 -3.78142e-07 5.2271e-05
0.0014502 0.000165522 4.60518e-05
0.000165522 0.00109278 1.33019e-05
4.60518e-05 1.33019e-05 -9.46515e-05
0.00524237 -0.00137518 -0.000129246
-0.00137518 0.00332166 -1.20162e-05
-0.000129246 -1.20162e-05 0.00151791
-0.000339089 0.000860621 -0.00015135
0.000860621 0.00186396 -1.39524e-05
-0.00015135 -1.39524e-05 2.17448e-05
0.0190179 0.00620968 -0.000134309
0.00620968 0.00667351 -0.000472769
-0.000134309 -0.000472769 0.00228527
0.00472219 0.00382605 9.83397e-05
0.00382605 0.00638523 0.000397186
9.83397e-05 0.000397186 -0.000215237
0.00556354 0.00134826 7.73165e-05
0.00134826 0.00659666 -1.13658e-05
7.73165e-05 -1.13658e-05 -0.00112873
0.000222316 3.53061e-05 2.86863e-05
3.53061e-05 0.00150101 -2.05029e-05
2.86863e-05 -2.05029e-05 0.000170091
0.000167492 -0.000128619 -0.000197462
-0.000128619 0.0040013 4.50071e-07
-0.000197462 4.50071e-07 0.00234125
0.00121102 -0.000958349 0.000848298
-0.000958349 0.000541248 -0.000278646
0.000848298 -0.000278646 -0.0049313
0.0265658 0.0103392 -0.000116927
0.0103392 0.0182509 -4.57018e-05
-0.000116927 -4.57018e-05 0.0117158
0.0126172 0.00465302 0.000109769
0.00465302 0.00490491 0.001014
0.000109769 0.001014 -0.00177186
0.0123001 -0.00473128 0.000419366
-0.00473128 0.0069641 -0.000301906
0.000419366 -0.000301906 3.98722e-05
0.00219546 -0.000810659 -7.62784e-05
-0.000810659 0.0033745 4.58462e-05
-7.62784e-05 4.58462e-05 0.0021358
0.000939112 0.000287869 -4.81299e-06
0.000287869 0.00100414 3.52463e-06
-4.81299e-06 3.52463e-06 0.000500199
5.92924e-06 -8.70008e-05 -1.2451e-06
-8.70008e-05 0.000589374 -5.37295e-06
-1.2451e-06 -5.37295e-06 1.77903e-05
0.0011072 -0.000602211 5.13756e-05
-0.000602211 0.000956484 -1.50617e-05
5.13756e-05 -1.50617e-05 0.00030536
0.000253768 -7.45803e-05 -3.97602e-06
-7.45803e-05 0.000284088 1.1882e-05
-3.97602e-06 1.1882e-05 3.14686e-05
-0.000101296 -9.9846e-05 -5.27091e-06
-9.9846e-05 0.000308207 -1.96234e-05
-5.27091e-06 -1.96234e-05 -0.000136092
0.000737244 -0.00033604 -5.1129e-06
-0.00033604 0.000722763 1.05553e-06
-5.1129e-06 1.05553e-06 0.000347115
0.00125535 -0.000766572 2.99779e-05
-0.000766572 0.000614288 -1.76435e-05
2.99779e-05 -1.76435e-05 0.000191441
0.000903663 -0.000383709 2.65007e-06
-0.000383709 0.000451376 7.97789e-07
2.65007e-06 7.97789e-07 0.000165319
0.00140064 -0.000691625 1.7881e-05
-0.000691625 0.000641742 -3.89628e-06
1.7881e-05 -3.89628e-06 0.000183272
0.00145558 -0.000765617 1.21206e-05
-0.000765617 0.000639996 -1.37105e-06
1.21206e-05 -1.37105e-06 -0.000114535
0.000511069 -0.000396037 -8.8933e-06
-0.000396037 3.80492e-05 -6.2499e-06
-8.8933e-06 -6.2499e-06 -0.000203259
0.0023148 -0.000807184 -3.69282e-06
-0.000807184 0.000937544 -1.82543e-06
-3.69282e-06 -1.82543e-06 0.000360931
0.00179222 -0.000938236 -1.43431e-05
-0.000938236 0.000487159 -1.5924e-06
-1.43431e-05 -1.5924e-06 -0.000190155
0.00235256 -0.00108694 -1.41857e-05
-0.00108694 0.000635447 1.00433e-06
-1.41857e-05 1.00433e-06 3.00773e-05
0.00213679 -0.000945848 -4.74026e-06
-0.000945848 0.000693309 -9.3898e-07
-4.74026e-06 -9.3898e-07 0.000130439
0.00171366 -0.00081902 -5.38333e-06
-0.00081902 0.000501064 8.33518e-07
-5.38333e-06 8.33518e-07 -4.51954e-05
0.00127085 -0.000602586 3.49324e-07
-0.000602586 0.00034839 -7.18529e-06
3.49324e-07 -7.18529e-06 -9.05496e-05
0.00159575 -0.000690821 8.14531e-06
-0.000690821 0.000486904 -5.44802e-06
8.14531e-06 -5.44802e-06 1.97212e-05
0.00175752 -0.000751838 7.75897e-06
-0.000751838 0.000531969 -1.42962e-06
7.75897e-06 -1.42962e-06 4.06971e-05
0.00140653 -0.000349421 2.67162e-06
-0.000349421 0.000488183 1.2363e-07
2.67162e-06 1.2363e-07 0.000190608
0.00117591 -0.000509003 6.43157e-06
-0.000509003 0.000298994 -4.24776e-06
6.43157e-06 -4.24776e-06 -8.39258e-05
-0.000212668 -0.000438268 -1.0745e-05
-0.000438268 -0.000619981 -4.24067e-06
-1.0745e-05 -4.24067e-06 -0.00102419
0.000174079 -0.000125916 -1.02819e-08
-0.000125916 -0.000111409 -5.98661e-06
-1.02819e-08 -5.98661e-06 -0.00039283
0.000904796 -0.000273212 -8.54513e-07
-0.000273212 0.000290791 -6.0942e-07
-8.54513e-07 -6.0942e-07 6.36833e-06
-1.52159e-05 -0.000314692 -6.44033e-06
-0.000314692 -0.000362201 -1.54872e-06
-6.44033e-06 -1.54872e-06 -0.000658271
0.00030739 -8.29911e-05 -5.37666e-07
-8.29911e-05 -7.30228e-05 6.8536e-06
-5.37666e-07 6.8536e-06 -0.000234525
0.000801408 -0.000150201 -2.1328e-08
-0.000150201 0.000308679 4.15418e-07
-2.1328e-08 4.15418e-07 4.31471e-05
-0.000250026 -0.00020191 -5.95956e-07
-0.00020191 -0.00029563 4.77154e-06
-5.95956e-07 4.77154e-06 -0.000595938
0.00153283 -0.00021398 5.3934e-08
-0.00021398 0.000753584 2.00965e-06
5.3934e-08 2.00965e-06 0.000530099
0.000685766 -8.66216e-05 -3.68791e-07
-8.66216e-05 0.000159025 -2.64192e-07
-3.68791e-07 -2.64192e-07 2.6205e-05
0.000336973 1.62514e-05 2.99573e-06
1.62514e-05 -7.46236e-05 1.171e-05
2.99573e-06 1.171e-05 -0.000128739
0.000730246 -8.68513e-05 4.77341e-07
-8.68513e-05 0.00018597 -4.89591e-06
4.77341e-07 -4.89591e-06 7.21218e-05
0.000444632 5.64193e-07 -4.28153e-06
5.64193e-07 -1.68065e-05 -3.43409e-07
-4.28153e-06 -3.43409e-07 -6.01246e-05
0.00306434 0.000100237 -4.63715e-05
0.000100237 0.0016658 5.39696e-06
-4.63715e-05 5.39696e-06 0.00166788
0.000478876 -2.59548e-05 3.00261e-06
-2.59548e-05 -1.48665e-06 -7.45961e-06
3.00261e-06 -7.45961e-06 -3.84197e-05
0.00188298 6.22906e-05 2.56542e-05
6.22906e-05 0.00089854 -7.30252e-07
2.56542e-05 -7.30252e-07 0.000898739
0.0028609 5.61854e-05 3.74773e-05
5.61854e-05 0.00152515 -5.76214e-06
3.74773e-05 -5.76214e-06 0.00153418
0.000814121 0.000116822 6.1669e-06
0.000116822 0.000269774 -1.8974e-06
6.1669e-06 -1.8974e-06 0.000109909
0.000499156 5.98832e-05 3.98773e-06
5.98832e-05 4.15849e-05 -3.27829e-06
3.98773e-06 -3.27829e-06 -5.48393e-05
0.000402065 5.86613e-05 -4.23913e-07
5.86613e-05 1.31309e-05 -1.19055e-06
-4.23913e-07 -1.19055e-06 -0.000136502
0.000454389 1.47907e-05 1.40877e-06
1.47907e-05 -2.27785e-05 -6.65938e-06
1.40877e-06 -6.65938e-06 -4.76181e-05
0.000276108 4.53843e-05 -2.46286e-06
4.53843e-05 -0.000100907 -2.2156e-06
-2.46286e-06 -2.2156e-06 -0.000188656
0.000659043 9.6185e-05 -2.05301e-06
9.6185e-05 0.00018448 -3.03214e-06
-2.05301e-06 -3.03214e-06 4.04923e-05
0.00223794 -3.1894e-05 -2.22331e-05
-3.1894e-05 0.00112255 -5.37403e-06
-2.22331e-05 -5.37403e-06 0.00113751
0.00043124 -3.98626e-07 5.73698e-07
-3.98626e-07 -3.97186e-05 -2.03787e-07
5.73698e-07 -2.03787e-07 -5.76282e-05
0.000103932 2.02484e-05 -2.08845e-06
2.02484e-05 -0.000212928 1.01629e-06
-2.08845e-06 1.01629e-06 -0.000291738
0.00214869 -1.51415e-05 -5.87678e-06
-1.51415e-05 0.00106514 1.29074e-07
-5.87678e-06 1.29074e-07 0.00108172
0.00043152 2.48454e-06 -3.54659e-06
2.48454e-06 -3.98302e-05 4.38274e-06
-3.54659e-06 4.38274e-06 -5.33643e-05
0.0021179 8.03781e-07 1.44137e-05
8.03781e-07 0.00104655 5.23512e-06
1.44137e-05 5.23512e-06 0.00106334
0.00215004 -0.000358526 -0.000108174
-0.000358526 0.000954087 2.88392e-05
-0.000108174 2.88392e-05 -0.000298717
-0.00138154 -0.000157852 0.000107928
-0.000157852 0.00308733 -5.23337e-06
0.000107928 -5.23337e-06 0.00123498
-0.000935721 -0.000389964 0.000170634
-0.000389964 0.00111361 -0.000226384
0.000170634 -0.000226384 -0.00438499
-0.000184184 1.76763e-05 4.64755e-06
1.76763e-05 -0.000292156 6.09732e-07
4.64755e-06 6.09732e-07 -0.000513352
0.00305743 0.000193288 5.29412e-06
0.000193288 0.00171049 6.56456e-06
5.29412e-06 6.56456e-06 0.00149951
0.000561158 0.000157262 -4.92792e-06
0.000157262 0.000110872 -7.80318e-06
-4.92792e-06 -7.80318e-06 -4.71535e-05
6.62015e-05 7.34511e-05 1.23664e-06
7.34511e-05 -0.000209028 -7.53851e-07
1.23664e-06 -7.53851e-07 -0.000364841
0.000159293 9.11287e-05 1.81698e-07
9.11287e-05 -0.000178574 -1.71479e-06
1.81698e-07 -1.71479e-06 -0.000300072
0.000115011 9.27155e-05 6.63756e-06
9.27155e-05 -0.000169377 4.66749e-06
6.63756e-06 4.66749e-06 -0.000321815
-0.000155137 8.44382e-05 1.68525e-05
8.44382e-05 -0.000321041 5.05478e-06
1.68525e-05 5.05478e-06 -0.000425505
0.00315677 0.00165355 0.000281634
0.00165355 -0.000202263 0.00026255
0.000281634 0.00026255 -0.00196979
0.00652178 -0.000463616 -8.52165e-05
-0.000463616 7.85498e-05 5.00628e-05
-8.52165e-05 5.00628e-05 -0.00165092
0.00478798 -0.000957596 0.000358716
-0.000957596 0.00367367 -0.000130682
0.000358716 -0.000130682 0.00158809
0.00972223 -0.000131538 -8.70027e-06
-0.000131538 -0.00551301 0.000189715
-8.70027e-06 0.000189715 -0.00262108
0.00706185 -0.00443553 -0.00015765
-0.00443553 0.00110801 3.45253e-05
-0.00015765 3.45253e-05 0.00171081
0.00114369 -0.00533277 -0.000384425
-0.00533277 0.00181722 0.000140788
-0.000384425 0.000140788 -0.00448677
0.0202584 0.0048626 0.000201198
0.0048626 0.00841412 -0.000229142
0.000201198 -0.000229142 0.00253878
0.00240554 -0.00334396 -6.61487e-05
-0.00334396 0.000243388 3.61637e-05
-6.61487e-05 3.61637e-05 0.000771327
-0.0012835 -0.00121546 -8.26041e-05
-0.00121546 0.00488248 5.46744e-05
-8.26041e-05 5.46744e-05 -0.00316609
0.0120965 0.000412459 0.000280969
0.000412459 0.00462197 -3.96313e-05
0.000280969 -3.96313e-05 0.00023743
0.0177568 -0.00196 -8.52113e-05
-0.00196 0.0024238 -9.30801e-06
-8.52113e-05 -9.30801e-06 0.00313958
-0.0037926 -0.000560766 -0.000202736
-0.000560766 -0.000334173 0.000198994
-0.000202736 0.000198994 -0.000798695
0.00203252 0.00197895 -0.000256286
0.00197895 0.00565249 -0.000149262
-0.000256286 -0.000149262 -0.00247474
0.00262928 -0.00636636 1.10446e-06
-0.00636636 0.000995418 -0.00025121
1.10446e-06 -0.00025121 -0.00546874
0.0170638 -0.0030768 0.000255108
-0.0030768 0.00649531 -0.000728026
0.000255108 -0.000728026 0.0034024
0.000211679 -1.33151e-06 2.38667e-05
-1.33151e-06 0.000230899 -1.91104e-06
2.38667e-05 -1.91104e-06 -9.49064e-05
0.000710274 0.000197817 -2.35316e-06
0.000197817 0.000287223 -4.03578e-06
-2.35316e-06 -4.03578e-06 0.000131231
0.000767497 -1.35816e-06 -3.98318e-07
-1.35816e-06 0.000355301 -6.69944e-06
-3.98318e-07 -6.69944e-06 0.000102601
0.000922767 0.000178198 -3.55944e-06
0.000178198 0.000346164 -1.29276e-05
-3.55944e-06 -1.29276e-05 0.000169432
0.001027 -0.00145456 9.78394e-05
-0.00145456 0.000464078 2.9045e-05
9.78394e-05 2.9045e-05 -0.000186597
0.0010468 -0.000410921 6.21955e-06
-0.000410921 0.00110462 -2.47702e-05
6.21955e-06 -2.47702e-05 0.000427422
0.000626193 0.000107846 -2.19794e-05
0.000107846 0.000371872 -2.32979e-05
-2.19794e-05 -2.32979e-05 0.000177955
0.000993671 -1.96902e-05 5.80616e-07
-1.96902e-05 0.000747862 -1.37149e-05
5.80616e-07 -1.37149e-05 0.000437971
0.000232816 -4.99657e-05 8.50506e-07
-4.99657e-05 0.000617652 8.71747e-06
8.50506e-07 8.71747e-06 9.98197e-05
0.000129685 9.41036e-05 2.16034e-06
9.41036e-05 0.000183584 3.73311e-06
2.16034e-06 3.73311e-06 -7.78394e-05
0.000474201 -3.91277e-05 6.54657e-07
-3.91277e-05 0.000851047 1.67688e-06
6.54657e-07 1.67688e-06 0.000301635
0.000277518 -0.000863449 2.08395e-06
-0.000863449 0.0011927 -3.04134e-06
2.08395e-06 -3.04134e-06 -0.00022045
0.000514367 -0.00014478 -4.07787e-06
-0.00014478 0.00121197 -1.10644e-05
-4.07787e-06 -1.10644e-05 0.000580873
-2.76481e-06 0.00012318 2.53895e-06
0.00012318 0.000250799 -8.16314e-06
2.53895e-06 -8.16314e-06 -5.88758e-05
-0.000344505 0.000315583 -0.000182394
0.000315583 0.00280669 -1.84883e-05
-0.000182394 -1.84883e-05 0.000634736
0.000431888 0.000361012 -1.54558e-05
0.000361012 0.0010623 5.95369e-06
-1.54558e-05 5.95369e-06 0.000441371
-0.00276097 -8.0527e-06 -9.72988e-05
-8.0527e-06 0.00269604 -6.19932e-05
-9.72988e-05 -6.19932e-05 0.000972308
0.00149411 0.000149977 2.68213e-05
0.000149977 0.000418279 1.30189e-05
2.68213e-05 1.30189e-05 -0.000937178
-0.00382249 0.000739804 -5.93947e-05
0.000739804 0.00192935 -8.6225e-05
-5.93947e-05 -8.6225e-05 -8.336e-05
0.000350668 0.000409594 -2.07469e-05
0.000409594 0.000825361 2.79922e-06
-2.07469e-05 2.79922e-06 0.000309645
-0.00134108 0.00104023 0.000203892
0.00104023 0.0006053 0.000115325
0.000203892 0.000115325 -0.000416102
0.000973936 6.67349e-05 9.16241e-05
6.67349e-05 0.00112787 -9.51208e-06
9.16241e-05 -9.51208e-06 0.000221328
0.00675745 -0.00242174 0.00034045
-0.00242174 0.00662745 -0.00020075
0.00034045 -0.00020075 -0.00246219
0.0218292 0.00435716 -0.000234239
0.00435716 0.00883948 0.000213964
-0.000234239 0.000213964 0.00279549
0.00320121 -0.000848702 -0.000321592
-0.000848702 0.00250367 0.000104257
-0.000321592 0.000104257 0.000628025
0.0147542 0.00530174 -0.000179867
0.00530174 0.00845462 -0.000275502
-0.000179867 -0.000275502 0.00430122
0.000453724 0.000259547 -5.29503e-05
0.000259547 0.0014608 1.00173e-05
-5.29503e-05 1.00173e-05 0.000191264
-0.000193066 -0.000384322 -0.000112767
-0.000384322 0.00306059 1.46465e-06
-0.000112767 1.46465e-06 0.00171183
0.00276952 -0.00187905 0.000307217
-0.00187905 0.00181838 -5.52956e-05
0.000307217 -5.52956e-05 -0.00350145
-0.00359387 -4.60813e-05 6.09707e-05
-4.60813e-05 -0.000142846 3.65734e-05
6.09707e-05 3.65734e-05 -0.000819361
0.0214851 0.0122051 0.000833742
0.0122051 0.0150851 -0.000302196
0.000833742 -0.000302196 0.00822098
0.0107654 0.00338802 -0.000170547
0.00338802 0.00633647 0.000432668
-0.000170547 0.000432668 -9.76098e-05
-0.00247237 -0.00151676 0.000231585
-0.00151676 0.00351509 -0.000176473
0.000231585 -0.000176473 -0.00487927
-0.00173056 -0.000523952 -2.16063e-05
-0.000523952 0.000437947 -3.13754e-05
-2.16063e-05 -3.13754e-05 -0.000868309
0.00091332 -0.00110581 0.000379233
-0.00110581 -2.7602e-05 -9.82894e-05
0.000379233 -9.82894e-05 -0.0040777
0.00128354 0.00187385 -0.00179669
0.00187385 0.00950805 0.000387311
-0.00179669 0.000387311 0.0037905
0.0231309 0.0084061 -0.000691143
0.0084061 0.00836061 0.000494293
-0.000691143 0.000494293 0.00162501
0.00636174 -0.00442632 -0.000226724
-0.00442632 0.0034167 0.000100464
-0.000226724 0.000100464 -0.00011151
0.00348409 -0.00225203 5.20933e-05
-0.00225203 0.00378368 1.50055e-05
5.20933e-05 1.50055e-05 0.00247392
7.73945e-05 -7.17249e-05 2.39224e-06
-7.17249e-05 0.000584917 -1.64103e-05
2.39224e-06 -1.64103e-05 -4.236e-05
1.98786e-05 -0.000445323 4.52282e-06
-0.000445323 0.000453975 -2.09068e-06
4.52282e-06 -2.09068e-06 -0.000232903
0.00107139 -0.00107101 -3.39351e-06
-0.00107101 0.000713147 -9.83018e-09
-3.39351e-06 -9.83018e-09 0.000176221
-0.00022754 -0.00019811 -4.49128e-06
-0.00019811 0.000277729 8.03762e-06
-4.49128e-06 8.03762e-06 -0.00010563
9.78976e-05 -0.000534491 -1.37139e-06
-0.000534491 0.000124664 6.1997e-06
-1.37139e-06 6.1997e-06 -0.00024405
0.00265321 -0.00103216 4.06063e-05
-0.00103216 0.00108084 -2.98e-05
4.06063e-05 -2.98e-05 0.000578869
0.00635904 -0.00136195 -1.43881e-05
-0.00136195 0.00334455 2.36085e-08
-1.43881e-05 2.36085e-08 0.00278904
0.0027621 -0.000954611 1.06376e-05
-0.000954611 0.00127554 -3.78086e-06
1.06376e-05 -3.78086e-06 0.000527014
0.00231521 -0.00111854 3.14978e-06
-0.00111854 0.000687935 -1.99685e-05
3.14978e-06 -1.99685e-05 -5.73985e-05
0.00245755 -0.000820673 -1.31478e-05
-0.000820673 0.000988925 -7.19649e-06
-1.31478e-05 -7.19649e-06 0.00042947
0.00220454 -0.00099925 5.64892e-07
-0.00099925 0.000708656 -2.02212e-06
5.64892e-07 -2.02212e-06 1.33727e-05
0.00279876 -0.00117716 -8.76678e-06
-0.00117716 0.000899793 -1.04094e-05
-8.76678e-06 -1.04094e-05 0.000220921
0.00239156 -0.000894117 -2.07732e-06
-0.000894117 0.000441907 -5.8319e-06
-2.07732e-06 -5.8319e-06 -3.75158e-06
0.0027834 -0.00112336 -1.10299e-05
-0.00112336 0.000844452 3.85951e-07
-1.10299e-05 3.85951e-07 0.000261963
0.00261264 -0.00112146 -4.02774e-06
-0.00112146 0.000773643 1.4339e-09
-4.02774e-06 1.4339e-09 0.000157379
0.00193717 -0.000906706 6.29561e-06
-0.000906706 0.000589565 -5.79511e-06
6.29561e-06 -5.79511e-06 5.09775e-05
0.00169147 -0.000871391 3.23967e-06
-0.000871391 0.00043858 -1.35045e-06
3.23967e-06 -1.35045e-06 -9.81022e-05
0.00147807 -0.000785325 7.25239e-06
-0.000785325 0.000351448 -9.45808e-07
7.25239e-06 -9.45808e-07 -0.000190342
0.00148221 -0.000588059 8.1328e-06
-0.000588059 0.000459777 3.31989e-06
8.1328e-06 3.31989e-06 3.8e-05
0.00173149 -0.000706595 -1.0734e-06
-0.000706595 0.000580808 -2.1419e-06
-1.0734e-06 -2.1419e-06 0.000108176
0.00172623 -0.000760135 4.39989e-06
-0.000760135 0.000513839 5.76193e-06
4.39989e-06 5.76193e-06 2.15601e-05
0.00137382 -0.000227285 3.64932e-07
-0.000227285 0.00050421 -5.09769e-06
3.64932e-07 -5.09769e-06 0.000252935
0.000856498 -0.000304866 -3.08102e-06
-0.000304866 0.000164637 2.51815e-06
-3.08102e-06 2.51815e-06 -0.000121088
0.000672716 -0.000456691 -4.62994e-06
-0.000456691 -3.12617e-05 -8.98051e-06
-4.62994e-06 -8.98051e-06 -0.000400189
7.10561e-06 -9.35252e-05 -1.77553e-06
-9.35252e-05 -0.000238323 3.03632e-06
-1.77553e-06 3.03632e-06 -0.000464794
0.000853899 -0.000236592 1.08703e-07
-0.000236592 0.000326477 8.55226e-07
1.08703e-07 8.55226e-07 3.20872e-05
0.000620719 -0.000290096 1.1642e-06
-0.000290096 0.000155513 1.47367e-06
1.1642e-06 1.47367e-06 -0.000149238
0.000354704 -3.7878e-05 -8.68962e-06
-3.7878e-05 -8.13683e-05 1.7092e-05
-8.68962e-06 1.7092e-05 -0.000138089
0.00067565 -0.000104579 6.03295e-07
-0.000104579 0.0001508 3.7742e-07
6.03295e-07 3.7742e-07 -1.16965e-05
0.00162567 -0.000242292 -6.05168e-07
-0.000242292 0.000817203 4.73438e-06
-6.05168e-07 4.73438e-06 0.000553398
0.000853186 -0.000100677 4.50477e-07
-0.000100677 0.000262074 -6.25348e-06
4.50477e-07 -6.25348e-06 0.000126442
0.000413516 -2.15585e-06 -8.8128e-07
-2.15585e-06 -3.41929e-05 -5.62643e-07
-8.8128e-07 -5.62643e-07 -8.50192e-05
0.0032028 0.000129482 -4.60041e-05
0.000129482 0.00176508 5.58354e-06
-4.60041e-05 5.58354e-06 0.00176032
0.000517957 -1.75529e-05 3.0254e-06
-1.75529e-05 2.29888e-05 -9.144e-06
3.0254e-06 -9.144e-06 -1.73621e-05
0.00299983 0.000101438 5.86267e-06
0.000101438 0.00162388 7.46834e-07
5.86267e-06 7.46834e-07 0.00162598
0.00285911 7.69811e-05 4.09884e-05
7.69811e-05 0.00152632 -5.33076e-06
4.09884e-05 -5.33076e-06 0.00153304
0.00156461 0.000103313 6.42503e-06
0.000103313 0.000900526 -7.60344e-06
6.42503e-06 -7.60344e-06 0.000604774
0.00161775 0.000201976 8.15195e-06
0.000201976 0.000885085 -7.52186e-06
8.15195e-06 -7.52186e-06 0.000636989
0.000544262 4.72854e-05 6.31014e-06
4.72854e-05 6.29508e-05 -6.10206e-06
6.31014e-06 -6.10206e-06 -4.60158e-05
0.000687657 0.000134286 -1.47901e-07
0.000134286 0.000208852 5.38653e-07
-1.47901e-07 5.38653e-07 4.22583e-05
0.000426186 -7.43606e-06 4.02545e-06
-7.43606e-06 -3.766e-05 -7.98116e-06
4.02545e-06 -7.98116e-06 -6.77983e-05
0.000524577 6.32045e-05 1.76593e-07
6.32045e-05 5.83914e-05 -2.90389e-07
1.76593e-07 -2.90389e-07 -3.81877e-05
0.000626804 6.42622e-05 -6.50328e-06
6.42622e-05 0.000144972 -2.85595e-06
-6.50328e-06 -2.85595e-06 1.31756e-06
0.00244565 -4.96208e-05 -2.88354e-05
-4.96208e-05 0.00125852 -5.69704e-06
-2.88354e-05 -5.69704e-06 0.00127059
0.000443757 6.72734e-06 -1.00725e-06
6.72734e-06 -2.88368e-05 -1.64076e-07
-1.00725e-06 -1.64076e-07 -5.31015e-05
0.000497003 6.78808e-05 -5.03702e-06
6.78808e-05 4.33855e-05 9.66494e-07
-5.03702e-06 9.66494e-07 -4.5075e-05
0.00225257 -3.18645e-05 -5.16277e-06
-3.18645e-05 0.00113203 2.82482e-07
-5.16277e-06 2.82482e-07 0.001147
0.000442639 3.41598e-06 -3.62413e-06
3.41598e-06 -3.3253e-05 4.86872e-06
-3.62413e-06 4.86872e-06 -5.06301e-05
0.00214293 -1.49085e-05 1.7778e-05
-1.49085e-05 0.00106124 5.11827e-06
1.7778e-05 5.11827e-06 0.00107784
-0.0026928 0.000586208 -1.84488e-05
0.000586208 0.00126847 -9.40109e-05
-1.84488e-05 -9.40109e-05 -0.000191187
0.00257523 -0.000296119 -1.92983e-05
-0.000296119 0.0014859 -3.07163e-05
-1.92983e-05 -3.07163e-05 0.000448752
2.05152e-05 -0.000322456 2.27018e-05
-0.000322456 0.00289885 -5.34907e-05
2.27018e-05 -5.34907e-05 0.00140316
0.000589315 7.75215e-05 2.14548e-06
7.75215e-05 0.000269336 -5.18918e-06
2.14548e-06 -5.18918e-06 -1.29367e-05
7.38182e-05 0.000144132 6.88882e-06
0.000144132 -0.00015754 -3.36201e-06
6.88882e-06 -3.36201e-06 -0.000362997
-0.00193235 5.03928e-06 1.15766e-05
5.03928e-06 -0.00152198 -1.09414e-05
1.15766e-05 -1.09414e-05 -0.00170056
-0.00181194 -1.02019e-05 -4.46269e-06
-1.02019e-05 -0.00124388 1.83363e-05
-4.46269e-06 1.83363e-05 -0.00149775
0.00254885 0.000378935 3.32767e-06
0.000378935 0.00138218 -1.35509e-06
3.32767e-06 -1.35509e-06 0.00109528
0.000766653 4.86592e-05 -6.41843e-06
4.86592e-05 0.000232322 -2.2679e-06
-6.41843e-06 -2.2679e-06 6.23278e-05
0.000248349 0.000120904 -1.04196e-05
0.000120904 -9.74323e-05 -1.19544e-05
-1.04196e-05 -1.19544e-05 -0.000220737
0.00115727 2.46755e-05 3.41646e-06
2.46755e-05 0.000480206 5.08971e-07
3.41646e-06 5.08971e-07 0.000336756
0.000990829 0.000190877 -1.85165e-06
0.000190877 0.000406161 -4.8153e-06
-1.85165e-06 -4.8153e-06 0.00028647
0.00237439 0.000186478 1.11078e-06
0.000186478 0.00146458 -1.83214e-05
1.11078e-06 -1.83214e-05 0.00117765
0.00735952 0.00171098 0.000580425
0.00171098 0.0051184 0.000579875
0.000580425 0.000579875 1.46131e-05
0.00321987 0.00128974 2.48627e-05
0.00128974 0.000557707 8.93188e-05
2.48627e-05 8.93188e-05 -0.00145792
0.00596875 -0.000318737 0.00010465
-0.000318737 -0.000190111 -1.57776e-05
0.00010465 -1.57776e-05 -0.00123822
0.0144809 -0.0011561 -0.000304452
-0.0011561 0.00212073 -0.000145685
-0.000304452 -0.000145685 0.00384568
-0.0012611 0.000986829 0.000110472
0.000986829 -0.00219768 0.00042726
0.000110472 0.00042726 -0.00783886
0.00273166 -0.00348731 -4.35151e-05
-0.00348731 0.000862415 -2.86518e-05
-4.35151e-05 -2.86518e-05 0.00111518
0.00547967 -0.00210606 -0.000257624
-0.00210606 0.00552889 6.50618e-05
-0.000257624 6.50618e-05 -0.000557047
0.000757292 -0.00147778 -0.000142593
-0.00147778 0.00132105 0.000139962
-0.000142593 0.000139962 0.000730689
0.0108282 -0.000160567 -0.000259962
-0.000160567 0.00792601 -2.56788e-06
-0.000259962 -2.56788e-06 0.000614578
0.00813665 -0.00288404 0.000119076
-0.00288404 0.00492338 0.00023017
0.000119076 0.00023017 -0.00123888
0.0224631 -0.00526707 5.61309e-06
-0.00526707 0.0062706 -0.000867653
5.61309e-06 -0.000867653 0.00187733
0.000723575 0.000368739 -0.000148359
0.000368739 0.00308747 0.000103221
-0.000148359 0.000103221 0.0014876
0.00917902 0.0026931 -0.000289744
0.0026931 0.00686922 -5.67865e-05
-0.000289744 -5.67865e-05 0.000701362
0.0234681 -0.00876025 0.000140609
-0.00876025 0.0129514 -0.000903877
0.000140609 -0.000903877 0.00555022
0.0288812 -0.0119408 0.000105221
-0.0119408 0.0141503 -7.81539e-05
0.000105221 -7.81539e-05 0.00759123
0.000801197 0.000325552 2.71295e-05
0.000325552 0.000536699 1.31402e-07
2.71295e-05 1.31402e-07 0.00012646
-2.62119e-05 5.14469e-05 6.82119e-06
5.14469e-05 0.000165991 1.59119e-06
6.82119e-06 1.59119e-06 -0.000212166
0.00123748 0.000214578 -2.39388e-05
0.000214578 0.000642547 -1.8517e-05
-2.39388e-05 -1.8517e-05 0.000467833
0.00454558 -0.00144777 0.000125814
-0.00144777 0.0030802 -1.54645e-05
0.000125814 -1.54645e-05 0.00130026
-0.000545509 -0.000160789 7.86137e-05
-0.000160789 0.000824842 -6.09117e-06
7.86137e-05 -6.09117e-06 0.000119514
-0.00055855 6.10209e-05 -6.57141e-06
6.10209e-05 -0.000253211 -1.60259e-06
-6.57141e-06 -1.60259e-06 -0.000503821
-0.000485112 -0.000158391 2.26435e-05
-0.000158391 0.000358069 -8.17532e-06
2.26435e-05 -8.17532e-06 -0.000274312
-0.000253287 0.000131216 -3.08934e-06
0.000131216 7.99848e-05 -4.04908e-07
-3.08934e-06 -4.04908e-07 -0.000234517
-0.000147146 0.000306875 1.903e-05
0.000306875 0.000556419 5.08767e-06
1.903e-05 5.08767e-06 -9.59929e-05
-0.00236195 9.13568e-05 0.000193832
9.13568e-05 0.00129256 -4.32909e-05
0.000193832 -4.32909e-05 -0.000838766
0.000632884 0.000683729 2.49581e-05
0.000683729 0.000375168 3.19476e-05
2.49581e-05 3.19476e-05 -8.29581e-05
0.0013036 0.00095573 -0.000134737
0.00095573 0.00174128 -0.000106181
-0.000134737 -0.000106181 3.88703e-05
0.000708936 2.33094e-05 0.000252799
2.33094e-05 0.00179903 9.18055e-05
0.000252799 9.18055e-05 -0.0032411
-0.00289346 0.000377667 -0.000129149
0.000377667 0.00245262 6.39848e-06
-0.000129149 6.39848e-06 0.000357338
0.00348825 -0.000353251 -6.98052e-05
-0.000353251 0.00167994 -1.98554e-06
-6.98052e-05 -1.98554e-06 0.001275
0.000206108 0.000606913 9.30444e-05
0.000606913 0.00105949 1.80433e-05
9.30444e-05 1.80433e-05 -0.000267734
0.00108245 0.000313361 -0.000113355
0.000313361 0.00308592 0.00010857
-0.000113355 0.00010857 0.00132039
-0.000804147 -0.000276443 -9.64594e-06
-0.000276443 0.00242834 -3.97512e-05
-9.64594e-06 -3.97512e-05 0.000778638
0.0157207 -0.00526123 0.000313192
-0.00526123 0.00912089 -0.000179909
0.000313192 -0.000179909 0.00170897
0.0259603 0.00645216 -0.000435818
0.00645216 0.0131569 -0.000249431
-0.000435818 -0.000249431 0.00553475
0.0057641 -0.00229061 -0.000429647
-0.00229061 0.00312717 0.000318675
-0.000429647 0.000318675 -0.00157573
0.0141534 0.0144251 0.0030809
0.0144251 0.0109093 -0.00182017
0.0030809 -0.00182017 0.00368347
0.000794853 -0.000681708 4.46603e-05
-0.000681708 0.00165633 -1.31788e-05
4.46603e-05 -1.31788e-05 0.000280123
-0.000301893 -0.000752747 6.91949e-05
-0.000752747 0.000772135 9.18615e-06
6.91949e-05 9.18615e-06 -0.00398826
0.00335845 0.00245284 -0.00149676
0.00245284 0.00898167 0.000311303
-0.00149676 0.000311303 0.00281015
2.81757e-05 -0.00118228 3.97742e-05
-0.00118228 0.00161321 2.61174e-05
3.97742e-05 2.61174e-05 0.000535755
0.0236159 0.0080887 0.000444602
0.0080887 0.0087964 0.000135339
0.000444602 0.000135339 0.00210556
0.00770368 -0.00686735 0.00030847
-0.00686735 0.00288145 -8.97179e-05
0.00030847 -8.97179e-05 -0.00139736
0.000421221 -0.00176623 -7.18941e-06
-0.00176623 0.000666854 3.99482e-05
-7.18941e-06 3.99482e-05 -0.000538078
-0.00433574 -0.0020351 0.000197802
-0.0020351 0.0076197 -0.000105248
0.000197802 -0.000105248 0.00283921
0.0192903 0.00842408 -0.00203921
0.00842408 0.00787738 0.000511926
-0.00203921 0.000511926 0.00262123
0.00688039 -0.00543016 -0.000601147
-0.00543016 -0.000941681 0.000224958
-0.000601147 0.000224958 -0.00349459
-0.000526651 -0.00233613 0.000193977
-0.00233613 -0.000314178 -0.000141403
0.000193977 -0.000141403 0.000651405
0.00136456 -0.000657627 -0.000117049
-0.000657627 0.00104788 3.93374e-05
-0.000117049 3.93374e-05 0.000407748
0.000452692 -0.000818421 -1.78709e-05
-0.000818421 0.000446824 1.21054e-05
-1.78709e-05 1.21054e-05 -0.00010768
0.00234387 -0.00106877 2.41766e-05
-0.00106877 0.00105697 -3.33092e-05
2.41766e-05 -3.33092e-05 0.00054477
-0.000997362 -0.00027891 1.06133e-05
-0.00027891 -0.00031707 4.09953e-06
1.06133e-05 4.09953e-06 -0.000640038
0.00116598 -0.000824517 -6.92374e-07
-0.000824517 0.000334252 -2.77956e-06
-6.92374e-07 -2.77956e-06 -0.000134049
0.00339192 -0.00128376 1.02797e-05
-0.00128376 0.00107715 -1.29847e-05
1.02797e-05 -1.29847e-05 0.0005611
0.00434501 -0.0011862 -3.32333e-05
-0.0011862 0.00206288 4.6079e-06
-3.32333e-05 4.6079e-06 0.00131848
0.00185545 -0.00102299 -2.88771e-06
-0.00102299 0.000434615 -1.14296e-06
-2.88771e-06 -1.14296e-06 -0.000282902
0.00259732 -0.00123944 -2.06448e-06
-0.00123944 0.000575661 -1.09044e-05
-2.06448e-06 -1.09044e-05 -1.22919e-05
0.00304339 -0.00111869 6.84119e-06
-0.00111869 0.0011592 6.69794e-06
6.84119e-06 6.69794e-06 0.000440975
0.00252877 -0.00114137 2.52056e-06
-0.00114137 0.000726503 -3.9653e-06
2.52056e-06 -3.9653e-06 6.97636e-05
0.00276956 -0.000965422 -4.7027e-06
-0.000965422 0.00061062 -7.63407e-06
-4.7027e-06 -7.63407e-06 0.000162915
0.00190407 -0.000592157 -1.05467e-06
-0.000592157 -5.9106e-06 -2.18831e-06
-1.05467e-06 -2.18831e-06 -0.00026433
0.00203158 -0.000875031 2.17118e-06
-0.000875031 0.000174701 -3.16339e-06
2.17118e-06 -3.16339e-06 -0.000266586
0.00237388 -0.000902215 3.46678e-06
-0.000902215 0.000418937 -2.52461e-06
3.46678e-06 -2.52461e-06 -2.82265e-05
0.00262615 -0.000996281 -5.00495e-06
-0.000996281 0.000817082 -1.81087e-06
-5.00495e-06 -1.81087e-06 0.000291567
0.00277493 -0.00112026 -3.58007e-06
-0.00112026 0.000847206 -1.46829e-07
-3.58007e-06 -1.46829e-07 0.00026024
0.00265675 -0.00113004 1.08442e-05
-0.00113004 0.000787688 -4.85094e-06
1.08442e-05 -4.85094e-06 0.000165448
0.00181315 -0.000787513 7.05444e-06
-0.000787513 0.000565033 -3.98283e-06
7.05444e-06 -3.98283e-06 6.63654e-05
0.0017262 -0.00087263 2.13271e-06
-0.00087263 0.000475715 -8.07998e-07
2.13271e-06 -8.07998e-07 -5.21503e-05
0.00134942 -0.000812799 3.81997e-06
-0.000812799 0.000245645 3.18448e-06
3.81997e-06 3.18448e-06 -0.000268818
0.00164176 -0.000354255 1.09721e-06
-0.000354255 0.000600316 3.65809e-06
1.09721e-06 3.65809e-06 0.000305009
0.00145156 -0.000564048 1.50486e-06
-0.000564048 0.000470082 1.07699e-06
1.50486e-06 1.07699e-06 6.01503e-05
0.00201156 -0.000735821 -4.76957e-06
-0.000735821 0.000767892 4.64638e-06
-4.76957e-06 4.64638e-06 0.000286927
4.97682e-05 -0.000145897 -3.59059e-06
-0.000145897 -0.000272358 -1.34968e-07
-3.59059e-06 -1.34968e-07 -0.000515559
0.000618026 -0.000254605 -2.81788e-06
-0.000254605 6.46936e-05 -2.19574e-06
-2.81788e-06 -2.19574e-06 -0.000210762
0.000892469 -0.000308228 -4.22835e-06
-0.000308228 0.000204222 1.03287e-06
-4.22835e-06 1.03287e-06 -8.00553e-05
0.00200891 -1.47397e-05 -5.8927e-05
-1.47397e-05 0.000985073 1.13273e-05
-5.8927e-05 1.13273e-05 0.000921026
0.000732752 -0.000169768 9.06635e-07
-0.000169768 0.000189587 1.21165e-07
9.06635e-07 1.21165e-07 -2.38662e-05
0.00134443 -0.000325463 1.77059e-06
-0.000325463 0.00064169 6.11221e-06
1.77059e-06 6.11221e-06 0.000336506
0.000628318 1.333e-05 -6.64405e-05
1.333e-05 0.000105944 7.52488e-06
-6.64405e-05 7.52488e-06 9.38217e-05
0.00127662 -1.9577e-05 -2.13781e-05
-1.9577e-05 0.000512083 -7.13554e-07
-2.13781e-05 -7.13554e-07 0.000457483
0.00105476 -0.000124543 3.24338e-06
-0.000124543 0.000382613 -5.51366e-06
3.24338e-06 -5.51366e-06 0.000219389
0.000556418 -1.89742e-05 4.14602e-06
-1.89742e-05 4.9911e-05 -1.18108e-05
4.14602e-06 -1.18108e-05 1.03604e-06
0.00330007 0.000128681 1.0852e-05
0.000128681 0.00182768 9.03408e-07
1.0852e-05 9.03408e-07 0.00182335
0.00298758 9.99184e-05 4.53601e-05
9.99184e-05 0.0016155 -5.45655e-06
4.53601e-05 -5.45655e-06 0.00161823
0.000420847 0.000165889 8.57094e-06
0.000165889 6.9388e-05 2.56946e-06
8.57094e-06 2.56946e-06 -0.000199559
0.00186411 0.00019345 5.53699e-06
0.00019345 0.00105776 -7.86866e-06
5.53699e-06 -7.86866e-06 0.000754898
-0.000570455 3.73181e-05 2.91503e-06
3.73181e-05 -0.000478959 -2.58822e-07
2.91503e-06 -2.58822e-07 -0.000743873
0.000680471 7.69118e-05 2.37528e-06
7.69118e-05 0.000157947 -9.76638e-06
2.37528e-06 -9.76638e-06 2.53521e-05
0.000678369 0.00013439 1.31487e-06
0.00013439 0.000235569 -1.21862e-07
1.31487e-06 -1.21862e-07 2.36483e-05
0.000417021 1.20113e-05 -7.86763e-07
1.20113e-05 -3.52099e-05 -1.10176e-05
-7.86763e-07 -1.10176e-05 -7.3496e-05
0.000559292 6.36999e-05 -7.52789e-08
6.36999e-05 8.23671e-05 -5.08508e-07
-7.52789e-08 -5.08508e-07 -2.94704e-05
0.000695269 6.39723e-05 -6.2375e-06
6.39723e-05 0.000238696 1.8203e-06
-6.2375e-06 1.8203e-06 6.16257e-05
0.00272421 -6.98482e-05 -3.79606e-05
-6.98482e-05 0.00144274 -5.57093e-06
-3.79606e-05 -5.57093e-06 0.00145133
0.000410032 5.67344e-06 -2.44358e-07
5.67344e-06 -4.64416e-05 -1.89643e-08
-2.44358e-07 -1.89643e-08 -7.70846e-05
0.000486529 6.84958e-05 -2.81904e-06
6.84958e-05 3.50705e-05 3.71388e-06
-2.81904e-06 3.71388e-06 -6.18554e-05
0.00243958 -5.07255e-05 -6.94164e-06
-5.07255e-05 0.00125476 4.54012e-07
-6.94164e-06 4.54012e-07 0.00126667
0.000388674 -1.47845e-05 -7.14336e-06
-1.47845e-05 -6.38823e-05 6.19888e-06
-7.14336e-06 6.19888e-06 -8.74845e-05
0.00224661 -3.04033e-05 2.31799e-05
-3.04033e-05 0.00112814 5.19592e-06
2.31799e-05 5.19592e-06 0.00114343
0.0068875 0.00110507 0.00048675
0.00110507 0.00472642 0.000118989
0.00048675 0.000118989 0.00165601
-0.00237939 0.000453162 -9.86349e-06
0.000453162 0.00111794 -1.2325e-05
-9.86349e-06 -1.2325e-05 -0.000672295
0.000461527 0.00054182 -8.77109e-06
0.00054182 0.00160606 -1.7335e-05
-8.77109e-06 -1.7335e-05 0.000203192
-0.000398976 0.000190502 -9.08772e-06
0.000190502 -0.00060527 8.24979e-06
-9.08772e-06 8.24979e-06 -0.000831024
-3.81436e-05 4.34678e-05 -8.09269e-06
4.34678e-05 -0.000201056 1.38781e-05
-8.09269e-06 1.38781e-05 -0.000428565
-0.000442608 6.11319e-05 -9.47228e-06
6.11319e-05 -0.000475125 -1.0304e-05
-9.47228e-06 -1.0304e-05 -0.000659854
0.00175871 0.000107559 6.10141e-06
0.000107559 0.000921162 3.61008e-07
6.10141e-06 3.61008e-07 0.000711402
0.00093422 0.000200795 -3.16525e-06
0.000200795 0.000259486 -7.63247e-06
-3.16525e-06 -7.63247e-06 6.16046e-05
0.00252644 0.000393605 -1.55012e-05
0.000393605 0.0013775 -5.87485e-06
-1.55012e-05 -5.87485e-06 0.00115272
0.00133215 0.000319771 1.77248e-06
0.000319771 0.000534036 -1.33228e-05
1.77248e-06 -1.33228e-05 0.000189448
-0.00191014 0.000166801 -5.22896e-06
0.000166801 -0.00100693 5.53859e-07
-5.22896e-06 5.53859e-07 -0.0014134
0.000211532 8.17869e-05 -6.15719e-06
8.17869e-05 -7.69994e-05 -7.51877e-06
-6.15719e-06 -7.51877e-06 -0.000231692
-0.000374072 5.71875e-05 -1.37248e-05
5.71875e-05 -0.000527989 -9.18509e-06
-1.37248e-05 -9.18509e-06 -0.000596209
-0.000853914 1.28385e-05 -3.25893e-06
1.28385e-05 -0.000513565 2.17804e-06
-3.25893e-06 2.17804e-06 -0.000812877
0.000403315 0.000337869 1.41857e-05
0.000337869 0.000408519 5.49482e-06
1.41857e-05 5.49482e-06 -0.000136344
0.00673481 -0.00545286 1.7219e-05
-0.00545286 0.00855342 0.00023354
1.7219e-05 0.00023354 0.000659219
0.00802285 0.00225471 0.000222459
0.00225471 0.00392019 0.000196303
0.000222459 0.000196303 -0.00182883
0.00399413 0.000682856 -6.43366e-06
0.000682856 0.00125231 -8.32055e-05
-6.43366e-06 -8.32055e-05 -0.00105342
0.0327726 -0.00744496 -0.00108886
-0.00744496 0.010219 -0.000464486
-0.00108886 -0.000464486 0.00509634
0.0054516 -0.00162742 0.000324278
-0.00162742 0.00468082 0.000577251
0.000324278 0.000577251 0.000162348
0.00228633 -0.0015984 -0.000269412
-0.0015984 0.00567296 0.000138506
-0.000269412 0.000138506 -0.00242821
-0.000605851 -0.0013945 9.01501e-05
-0.0013945 0.0015448 5.1609e-05
9.01501e-05 5.1609e-05 0.000282114
-0.00151987 -4.64563e-05 0.000178013
-4.64563e-05 0.00147446 5.26319e-05
0.000178013 5.26319e-05 0.000401447
0.0229953 -0.0130619 0.000546344
-0.0130619 0.0127275 0.000523063
0.000546344 0.000523063 0.00572818
0.0032066 0.00212127 -0.000154392
0.00212127 0.00525363 -0.000109703
-0.000154392 -0.000109703 -0.00197723
0.0115586 -0.00463272 -0.000156888
-0.00463272 0.00743821 0.000154125
-0.000156888 0.000154125 -0.000280099
-0.000210701 0.00091103 -1.15901e-05
0.00091103 0.00140395 3.42447e-05
-1.15901e-05 3.42447e-05 0.00063914
0.00835114 0.00530223 -0.000161355
0.00530223 0.00311982 -3.54308e-06
-0.000161355 -3.54308e-06 -0.00102223
0.0218474 -0.00806916 -0.00102129
-0.00806916 0.00812709 -0.000474521
-0.00102129 -0.000474521 0.00115412
0.00123929 0.000780853 1.34266e-05
0.000780853 0.000362366 2.42282e-06
1.34266e-05 2.42282e-06 0.000148631
0.000724776 0.000293135 8.40268e-06
0.000293135 0.000518426 6.54482e-06
8.40268e-06 6.54482e-06 0.000103218
-0.000637745 1.21793e-05 -2.3499e-05
1.21793e-05 -0.000197275 -1.05005e-06
-2.3499e-05 -1.05005e-06 -0.00058667
-0.00297343 -0.00026794 -0.000128956
-0.00026794 0.000746434 -5.09222e-05
-0.000128956 -5.09222e-05 -0.00128048
0.000503419 0.000299378 -5.68034e-06
0.000299378 0.000561673 -1.80082e-05
-5.68034e-06 -1.80082e-05 -1.6165e-05
0.000480265 0.000240292 -5.93765e-06
0.000240292 0.000489681 6.17934e-06
-5.93765e-06 6.17934e-06 0.000135229
0.00118302 0.000780216 1.39634e-05
0.000780216 0.000641386 3.15237e-06
1.39634e-05 3.15237e-06 0.00017189
-0.000242739 0.000764754 1.65536e-05
0.000764754 0.00101898 -4.16029e-05
1.65536e-05 -4.16029e-05 -0.000464671
0.00147965 0.00191004 9.11134e-05
0.00191004 0.000472122 9.38822e-06
9.11134e-05 9.38822e-06 -0.000679608
-0.00682866 0.00126116 0.000491852
0.00126116 0.00614249 -1.7593e-05
0.000491852 -1.7593e-05 -0.00239245
0.00220853 -0.000447065 -1.90325e-05
-0.000447065 0.00231222 8.69205e-05
-1.90325e-05 8.69205e-05 -0.00107405
-0.00316341 -8.46144e-06 -2.67646e-05
-8.46144e-06 0.0017885 8.60167e-05
-2.67646e-05 8.60167e-05 -7.71567e-05
-0.00103003 -0.000383563 -5.22292e-05
-0.000383563 0.000767667 1.15459e-05
-5.22292e-05 1.15459e-05 -0.000663212
-0.00167008 -0.000805388 -5.97358e-05
-0.000805388 0.0001009 4.92228e-05
-5.97358e-05 4.92228e-05 0.00012174
-0.000972763 -0.000786317 -0.000250237
-0.000786317 0.00129785 0.000167345
-0.000250237 0.000167345 -0.00389607
-0.00141524 -0.00516049 0.000258166
-0.00516049 0.00224589 -0.000143399
0.000258166 -0.000143399 -0.00448293
0.0171505 0.00640894 0.000914777
0.00640894 0.00406765 -0.000470249
0.000914777 -0.000470249 -0.00226454
0.0160169 0.00605328 -0.0004594
0.00605328 0.0105028 0.000447695
-0.0004594 0.000447695 0.00347772
0.000919037 -0.00122824 -3.59961e-05
-0.00122824 0.00155613 7.09462e-06
-3.59961e-05 7.09462e-06 0.000414836
0.00348447 0.00120722 0.000228524
0.00120722 0.00968762 -4.83316e-05
0.000228524 -4.83316e-05 0.00384053
0.0043591 0.00583865 2.0519e-05
0.00583865 0.00194973 9.49757e-05
2.0519e-05 9.49757e-05 -0.00292252
0.00246321 -0.00373011 8.63348e-05
-0.00373011 0.000867161 -5.6765e-05
8.63348e-05 -5.6765e-05 0.00110423
0.0141475 -0.00593542 -9.55361e-07
-0.00593542 0.00115173 1.05173e-05
-9.55361e-07 1.05173e-05 -0.000679485
0.00335077 -0.00224929 1.06525e-05
-0.00224929 0.00145649 1.63814e-05
1.06525e-05 1.63814e-05 0.000851506
-0.00654708 0.00201264 -0.000894693
0.00201264 -0.00126751 0.000156794
-0.000894693 0.000156794 -0.00553185
0.0159488 -0.003817 -0.000242637
-0.003817 0.000766076 6.95181e-05
-0.000242637 6.95181e-05 -9.26679e-05
0.00436633 -0.00354328 0.000138235
-0.00354328 2.81674e-05 -8.10597e-05
0.000138235 -8.10597e-05 0.00115391
-0.000276202 -0.000573962 1.00087e-05
-0.000573962 0.000184528 4.75747e-07
1.00087e-05 4.75747e-07 -0.000385325
0.00203566 -0.00118646 1.45906e-05
-0.00118646 0.000723696 -8.57152e-06
1.45906e-05 -8.57152e-06 0.000311851
0.00300028 -0.00113113 2.39437e-05
-0.00113113 0.000885436 -2.02539e-05
2.39437e-05 -2.02539e-05 0.00048783
-0.000507913 -0.000613425 -6.66591e-06
-0.000613425 -0.000546157 1.65454e-05
-6.66591e-06 1.65454e-05 -0.000975598
0.0020193 -0.00113088 -4.8992e-06
-0.00113088 0.000349036 1.32146e-06
-4.8992e-06 1.32146e-06 -0.00016264
0.00355519 -0.00133056 6.80503e-06
-0.00133056 0.000948331 -6.28686e-06
6.80503e-06 -6.28686e-06 0.00044865
0.0013823 -0.000925834 -8.34572e-06
-0.000925834 0.000164611 1.14135e-05
-8.34572e-06 1.14135e-05 -0.000525679
0.00232994 -0.0011982 -8.79589e-07
-0.0011982 0.000436974 2.7766e-06
-8.79589e-07 2.7766e-06 -0.000148044
0.00230236 -0.000936954 -3.7228e-06
-0.000936954 0.000176284 -4.36965e-06
-3.7228e-06 -4.36965e-06 -0.000173934
0.00185937 -0.00105136 9.07905e-06
-0.00105136 0.00034575 3.51707e-06
9.07905e-06 3.51707e-06 -0.000281234
0.00225405 -0.00089059 -1.77541e-06
-0.00089059 0.000331676 1.94737e-06
-1.77541e-06 1.94737e-06 -9.73793e-05
0.00228685 -0.000645968 -1.06672e-06
-0.000645968 0.000146661 -1.95382e-06
-1.06672e-06 -1.95382e-06 -8.16881e-05
0.00209142 -0.000559444 -2.33546e-06
-0.000559444 0.000114207 5.43649e-07
-2.33546e-06 5.43649e-07 -7.86424e-05
0.00187836 -0.000607782 -2.72325e-06
-0.000607782 8.08125e-06 -1.9862e-06
-2.72325e-06 -1.9862e-06 -0.000264326
0.00196218 -0.000591775 1.61401e-06
-0.000591775 2.64534e-05 2.92e-06
1.61401e-06 2.92e-06 -0.000228341
0.00185319 -0.000758827 -3.60354e-06
-0.000758827 0.000139725 -4.24085e-06
-3.60354e-06 -4.24085e-06 -0.000254346
0.00221745 -0.000886424 2.74705e-06
-0.000886424 0.000311164 9.46248e-08
2.74705e-06 9.46248e-08 -0.000127628
0.00234853 -0.000903446 2.78129e-06
-0.000903446 0.000400734 2.70377e-06
2.78129e-06 2.70377e-06 -4.56431e-05
0.00202219 -0.000857153 6.92574e-07
-0.000857153 0.000488681 -3.18155e-06
6.92574e-07 -3.18155e-06 -7.29509e-06
0.00241499 -0.000978881 1.98073e-06
-0.000978881 0.000681507 -6.43719e-07
1.98073e-06 -6.43719e-07 0.000156427
0.00269024 -0.0011058 3.83623e-06
-0.0011058 0.000807073 -1.82051e-06
3.83623e-06 -1.82051e-06 0.000218165
0.00158288 -0.000544927 -7.13317e-06
-0.000544927 0.000483943 3.97426e-06
-7.13317e-06 3.97426e-06 9.74159e-05
0.0018031 -0.00077214 7.26144e-07
-0.00077214 0.000564265 5.86237e-07
7.26144e-07 5.86237e-07 7.39278e-05
0.00146104 -0.000829938 -7.37827e-07
-0.000829938 0.000331839 3.37828e-06
-7.37827e-07 3.37828e-06 -0.000183188
0.00071842 -0.000242197 -6.11365e-06
-0.000242197 9.56698e-05 -8.72122e-07
-6.11365e-06 -8.72122e-07 -0.000141713
0.00103492 -0.000324925 3.04892e-06
-0.000324925 0.000222556 -6.38241e-07
3.04892e-06 -6.38241e-07 -7.42022e-05
0.000941422 -0.000499116 -6.08082e-06
-0.000499116 0.000186761 3.43946e-06
-6.08082e-06 3.43946e-06 -0.000205242
0.000439598 -0.000104301 -1.77772e-05
-0.000104301 -5.89152e-05 1.53394e-05
-1.77772e-05 1.53394e-05 -0.000152509
0.000697085 -0.000196228 8.74524e-07
-0.000196228 0.000157681 1.90055e-06
8.74524e-07 1.90055e-06 -0.00010195
0.000535125 -0.000304274 -3.42487e-06
-0.000304274 4.99752e-05 8.18101e-07
-3.42487e-06 8.18101e-07 -0.000250773
0.00435217 0.000281128 1.70846e-05
0.000281128 0.0025637 8.38644e-06
1.70846e-05 8.38644e-06 0.00251055
0.00041715 -6.83569e-05 1.40374e-07
-6.83569e-05 -4.80479e-05 -3.7133e-07
1.40374e-07 -3.7133e-07 -0.000129124
0.00149651 -0.000184901 1.10422e-06
-0.000184901 0.000666592 -3.76024e-06
1.10422e-06 -3.76024e-06 0.000453439
0.00374312 0.000144959 9.91136e-06
0.000144959 0.00212131 6.56845e-07
9.91136e-06 6.56845e-07 0.00211265
0.000606716 -3.93273e-05 8.03719e-06
-3.93273e-05 7.89561e-05 -1.36305e-05
8.03719e-06 -1.36305e-05 1.61221e-05
0.00337074 0.000114896 7.00533e-05
0.000114896 0.00187041 -6.20379e-06
7.00533e-05 -6.20379e-06 0.00186968
0.00245959 0.000427565 2.36585e-06
0.000427565 0.00124204 2.0275e-06
2.36585e-06 2.0275e-06 0.000963269
0.000595409 0.000208353 -2.35932e-07
0.000208353 0.000183236 -1.73575e-06
-2.35932e-07 -1.73575e-06 -9.87521e-05
0.00132514 0.000361625 -3.57256e-06
0.000361625 0.000678833 -3.53876e-06
-3.57256e-06 -3.53876e-06 0.000366689
0.00102383 0.000126194 8.92618e-07
0.000126194 0.000379964 -9.40512e-06
8.92618e-07 -9.40512e-06 0.000214499
0.000794739 0.000135996 8.24917e-08
0.000135996 0.000371346 1.03915e-06
8.24917e-08 1.03915e-06 7.64982e-05
1.98754e-05 0.000112358 -3.25618e-06
0.000112358 -6.5235e-05 6.52046e-06
-3.25618e-06 6.52046e-06 -0.00036775
0.000509748 1.76918e-06 -1.39733e-06
1.76918e-06 3.51315e-05 -1.3626e-05
-1.39733e-06 -1.3626e-05 -1.43247e-05
0.000572457 5.96401e-05 -3.82099e-07
5.96401e-05 9.38081e-05 6.17741e-08
-3.82099e-07 6.17741e-08 -3.88585e-05
7.56717e-06 8.65479e-05 -5.12523e-06
8.65479e-05 -0.000219144 8.56812e-06
-5.12523e-06 8.56812e-06 -0.000414205
0.00282707 -8.60937e-05 -4.72171e-05
-8.60937e-05 0.00151491 -5.97776e-06
-4.72171e-05 -5.97776e-06 0.00152088
0.000393524 -2.66119e-05 2.47419e-06
-2.66119e-05 -4.66403e-05 -3.46109e-07
2.47419e-06 -3.46109e-07 -8.56406e-05
0.000467457 5.38003e-05 -4.6945e-06
5.38003e-05 3.23728e-05 6.02385e-06
-4.6945e-06 6.02385e-06 -8.08038e-05
0.00264745 -7.01312e-05 -7.79293e-06
-7.01312e-05 0.00139342 6.01003e-07
-7.79293e-06 6.01003e-07 0.00140174
0.000416617 9.37412e-06 -2.33004e-06
9.37412e-06 -4.29563e-05 7.72547e-06
-2.33004e-06 7.72547e-06 -7.27085e-05
0.00239792 -5.02925e-05 2.4404e-05
-5.02925e-05 0.00122794 5.36583e-06
2.4404e-05 5.36583e-06 0.00124007
-0.00819876 0.00100541 -0.00024624
0.00100541 0.00502638 7.6181e-05
-0.00024624 7.6181e-05 -0.00280489
0.00649803 0.00090589 3.47844e-05
0.00090589 0.00419603 8.10836e-08
3.47844e-05 8.10836e-08 0.00126056
-0.00169706 0.000430358 0.000118202
0.000430358 0.00113271 6.18997e-05
0.000118202 6.18997e-05 -0.000907013
0.000234788 0.00021375 -3.57405e-06
0.00021375 -0.000170828 7.65698e-06
-3.57405e-06 7.65698e-06 -0.000443722
0.00355011 0.000863662 1.98425e-05
0.000863662 0.00188765 2.03347e-05
1.98425e-05 2.03347e-05 0.00141469
-0.000125343 0.000192767 -1.03435e-05
0.000192767 -0.000179018 7.76307e-06
-1.03435e-05 7.76307e-06 -0.000597186
0.000381486 9.29313e-05 -8.00275e-06
9.29313e-05 7.26566e-05 -1.77362e-05
-8.00275e-06 -1.77362e-05 -0.000146496
0.00303943 0.000391813 -2.97502e-07
0.000391813 0.00155474 -4.22127e-06
-2.97502e-07 -4.22127e-06 0.00133388
-0.00163203 2.34313e-06 -1.35526e-05
2.34313e-06 -0.00119677 1.59071e-05
-1.35526e-05 1.59071e-05 -0.00134427
-0.000186543 0.000225161 -3.30975e-07
0.000225161 -9.93234e-05 7.46091e-06
-3.30975e-07 7.46091e-06 -0.000428204
-1.22424e-05 0.000133636 -5.09221e-06
0.000133636 -0.000204886 -5.49753e-06
-5.09221e-06 -5.49753e-06 -0.000545395
0.0010417 0.000718705 1.21554e-06
0.000718705 0.000495957 -1.9687e-05
1.21554e-06 -1.9687e-05 -5.10462e-05
-0.000957262 0.000572092 -2.59726e-05
0.000572092 -0.000897297 6.73744e-05
-2.59726e-05 6.73744e-05 -0.00107569
0.00113738 6.04163e-05 -1.60194e-05
6.04163e-05 0.000636181 1.70867e-05
-1.60194e-05 1.70867e-05 0.000390336
0.00195084 0.000447265 1.01975e-05
0.000447265 0.00127892 -7.97823e-06
1.01975e-05 -7.97823e-06 0.000816269
0.00413489 -0.00362771 -0.00238712
-0.00362771 0.00304369 -0.0002649
-0.00238712 -0.0002649 -0.00252715
0.000553261 -0.00425178 0.000788219
-0.00425178 0.00897818 0.000183319
0.000788219 0.000183319 0.00137567
0.0087432 0.0028222 -0.000857194
0.0028222 0.00356037 -0.000283625
-0.000857194 -0.000283625 -0.00273603
0.0143608 -0.0142394 0.00304582
-0.0142394 0.0111916 0.001739
0.00304582 0.001739 0.0036188
0.0305155 -0.00459296 -2.81209e-05
-0.00459296 0.0115002 0.000479011
-2.81209e-05 0.000479011 0.00559642
-0.00305884 0.00149924 -7.264e-05
0.00149924 0.00329188 -0.00020929
-7.264e-05 -0.00020929 -0.00308237
-0.002497 0.000271119 -0.000243546
0.000271119 0.00172857 -4.67663e-05
-0.000243546 -4.67663e-05 -0.000269082
0.000174747 0.000958575 7.31046e-05
0.000958575 0.00178875 5.845e-05
7.31046e-05 5.845e-05 0.00114451
0.0232981 -0.00653403 -0.000851686
-0.00653403 0.0102253 4.33484e-05
-0.000851686 4.33484e-05 0.00347465
-0.0017233 0.00454554 -0.000207486
0.00454554 0.000738407 -4.75788e-05
-0.000207486 -4.75788e-05 -0.00413045
0.00348141 0.00306508 5.39408e-05
0.00306508 0.00122549 -8.34013e-05
5.39408e-05 -8.34013e-05 0.00199419
0.0063463 0.00755971 -0.000688825
0.00755971 -0.00166094 -0.000108853
-0.000688825 -0.000108853 -0.00380193
0.00379393 0.00152498 3.10553e-05
0.00152498 0.00152382 -6.65826e-06
3.10553e-05 -6.65826e-06 0.00106305
0.000983734 0.000711985 -5.7447e-06
0.000711985 0.000208612 -3.58252e-06
-5.7447e-06 -3.58252e-06 2.93949e-05
-0.000694242 0.000180256 -2.25119e-05
0.000180256 -0.000347573 3.73601e-06
-2.25119e-05 3.73601e-06 -0.000743935
-0.00110902 0.000655045 -0.000121582
0.000655045 0.000653199 -7.53433e-05
-0.000121582 -7.53433e-05 -0.000635295
0.00116281 0.000838042 -5.65735e-05
0.000838042 0.000546522 -3.9083e-05
-5.65735e-05 -3.9083e-05 8.14819e-05
0.00253509 0.00207098 5.41777e-06
0.00207098 0.000878051 -1.16864e-05
5.41777e-06 -1.16864e-05 -0.000254713
-0.00144521 0.00202566 0.000109943
0.00202566 -0.00207672 5.95238e-05
0.000109943 5.95238e-05 -0.00256875
-0.00699357 -0.000693927 -0.000850633
-0.000693927 -0.00326584 6.55349e-05
-0.000850633 6.55349e-05 -0.00493291
-0.0101728 0.000513967 0.000590343
0.000513967 0.0066125 1.71138e-05
0.000590343 1.71138e-05 -0.000760271
0.00272713 3.7423e-05 -0.000180955
3.7423e-05 0.00221619 3.5536e-05
-0.000180955 3.5536e-05 6.87264e-05
0.000785598 -0.00126001 -5.53718e-05
-0.00126001 0.00101734 -5.2456e-05
-5.53718e-05 -5.2456e-05 -7.93853e-05
-0.0012271 -0.00256006 0.000167053
-0.00256006 -0.000366367 1.55584e-05
0.000167053 1.55584e-05 -0.000158806
0.00137017 0.00136536 0.000218746
0.00136536 0.00927582 7.8799e-05
0.000218746 7.8799e-05 0.00315191
0.00504386 -0.00548492 0.000733038
-0.00548492 -0.00177802 -7.09268e-05
0.000733038 -7.09268e-05 -0.00298228
0.0255064 0.00520128 0.00137304
0.00520128 0.0116763 -7.81199e-05
0.00137304 -7.81199e-05 0.00661356
0.00187226 -0.00243922 -2.18433e-05
-0.00243922 0.000486416 3.73712e-06
-2.18433e-05 3.73712e-06 -0.000373804
0.00429058 0.00245794 0.000397714
0.00245794 0.00210807 -0.000116622
0.000397714 -0.000116622 -0.00164882
0.00760253 -0.00341082 -0.000213448
-0.00341082 -0.00401741 0.000189436
-0.000213448 0.000189436 -0.00548988
0.0026002 -0.00331144 -5.48303e-06
-0.00331144 -0.00121526 2.80223e-05
-5.48303e-06 2.80223e-05 0.000504021
0.00278588 -0.00197651 7.35769e-05
-0.00197651 0.000206922 -1.51584e-05
7.35769e-05 -1.51584e-05 -2.13223e-05
0.019483 -0.00116294 -0.000117233
-0.00116294 0.00309372 8.26876e-05
-0.000117233 8.26876e-05 0.00242054
0.00275458 -0.00245692 0.000135724
-0.00245692 -0.00388634 -9.65294e-05
0.000135724 -9.65294e-05 -0.00149668
-0.000508445 -0.00097333 -3.84068e-05
-0.00097333 -0.000733389 4.79687e-05
-3.84068e-05 4.79687e-05 -0.000949767
0.000332722 -0.000827526 -3.55388e-05
-0.000827526 -0.000573041 4.19425e-06
-3.55388e-05 4.19425e-06 -0.000786445
0.00619669 -0.00141012 6.40744e-05
-0.00141012 0.00225691 -2.43489e-05
6.40744e-05 -2.43489e-05 0.00196513
0.000237922 -0.000898556 -1.34503e-05
-0.000898556 -0.000549234 1.17736e-05
-1.34503e-05 1.17736e-05 -0.00103694
0.00233268 -0.00116671 -1.67528e-06
-0.00116671 0.000323124 -1.7907e-06
-1.67528e-06 -1.7907e-06 -0.000134159
0.00303683 -0.00101464 3.19915e-06
-0.00101464 0.000387782 -3.64064e-06
3.19915e-06 -3.64064e-06 0.000169965
0.00230085 -0.00118909 1.03317e-05
-0.00118909 0.000420276 1.04326e-05
1.03317e-05 1.04326e-05 -0.00016798
0.00246921 -0.000946515 -2.49821e-06
-0.000946515 0.00026849 9.72279e-07
-2.49821e-06 9.72279e-07 -7.812e-05
0.00234539 -0.000673768 4.03828e-07
-0.000673768 1.89267e-05 -8.71875e-07
4.03828e-07 -8.71875e-07 -7.97684e-05
0.00192269 -0.000841789 9.73271e-06
-0.000841789 0.000147598 6.42657e-06
9.73271e-06 6.42657e-06 -0.000268995
0.00219407 -0.000631667 -1.94439e-07
-0.000631667 8.73853e-05 2.56649e-06
-1.94439e-07 2.56649e-06 -0.000130067
0.00230366 -0.000630815 -1.17123e-06
-0.000630815 0.000103727 2.39515e-06
-1.17123e-06 2.39515e-06 -2.65748e-05
0.00221192 -0.000601458 -2.8733e-06
-0.000601458 0.000147329 1.53925e-06
-2.8733e-06 1.53925e-06 -1.53516e-05
0.00217107 -0.000566934 -3.19364e-06
-0.000566934 0.000152151 2.73012e-06
-3.19364e-06 2.73012e-06 -3.49691e-05
0.00221818 -0.000563683 -1.19443e-06
-0.000563683 0.000256659 -2.34961e-06
-1.19443e-06 -2.34961e-06 4.86755e-05
0.00221087 -0.000646724 -6.34207e-06
-0.000646724 0.000250553 -2.93566e-06
-6.34207e-06 -2.93566e-06 -3.57493e-05
0.00210724 -0.00062477 1.16558e-06
-0.00062477 0.000158405 1.29535e-06
1.16558e-06 1.29535e-06 -0.000114364
0.00202458 -0.000594883 2.07341e-06
-0.000594883 5.36595e-05 7.80949e-06
2.07341e-06 7.80949e-06 -0.000198487
0.00211968 -0.000764549 -5.8925e-06
-0.000764549 0.000365633 -4.40051e-06
-5.8925e-06 -4.40051e-06 -4.00504e-05
0.00184177 -0.000768526 -7.37434e-07
-0.000768526 0.0001162 2.01742e-07
-7.37434e-07 2.01742e-07 -0.000282943
0.00239034 -0.000898882 6.44317e-06
-0.000898882 0.000436122 3.13855e-06
6.44317e-06 3.13855e-06 -7.293e-07
0.00161824 -0.000669465 -9.11137e-06
-0.000669465 0.000323484 1.44936e-06
-9.11137e-06 1.44936e-06 -0.000113165
0.00212863 -0.000871392 -2.70045e-07
-0.000871392 0.000550023 8.60424e-07
-2.70045e-07 8.60424e-07 5.07534e-05
0.00226757 -0.000970091 5.1029e-06
-0.000970091 0.000582755 1.83439e-06
5.1029e-06 1.83439e-06 5.62225e-05
0.000986358 -0.000289909 -8.94911e-06
-0.000289909 0.000216657 8.55991e-06
-8.94911e-06 8.55991e-06 -3.64076e-05
0.00130743 -0.000524012 1.73688e-06
-0.000524012 0.000297221 7.932e-07
1.73688e-06 7.932e-07 -8.56429e-05
0.00165008 -0.000744787 -3.49372e-06
-0.000744787 0.000466985 3.88021e-06
-3.49372e-06 3.88021e-06 -1.32626e-05
0.000451848 -0.000175547 -2.93655e-05
-0.000175547 -8.26889e-05 1.61201e-05
-2.93655e-05 1.61201e-05 -0.000193689
0.000607296 -0.000231466 -2.41476e-06
-0.000231466 4.20303e-05 -8.13609e-07
-2.41476e-06 -8.13609e-07 -0.000207451
5.18987e-05 -0.000308398 2.18089e-06
-0.000308398 -0.000396736 -2.14066e-06
2.18089e-06 -2.14066e-06 -0.000699622
0.00494777 0.00022488 -0.000106826
0.00022488 0.00293685 1.12143e-05
-0.000106826 1.12143e-05 0.00290259
0.000552258 -0.000129164 2.60243e-06
-0.000129164 5.75178e-06 1.92123e-07
2.60243e-06 1.92123e-07 -9.22747e-05
0.00119097 -0.00026779 6.1185e-06
-0.00026779 0.000460363 -1.44592e-06
6.1185e-06 -1.44592e-06 0.000200545
0.00282693 0.000144243 6.70285e-05
0.000144243 0.00155501 1.58926e-06
6.70285e-05 1.58926e-06 0.00152142
0.000754079 -7.49696e-05 1.44237e-05
-7.49696e-05 0.000159813 -1.55878e-05
1.44237e-05 -1.55878e-05 7.4598e-05
0.00393113 0.000132953 9.64945e-05
0.000132953 0.00224076 -7.9948e-06
9.64945e-05 -7.9948e-06 0.00223481
0.00209293 0.000446388 4.64046e-08
0.000446388 0.000892911 5.28828e-07
4.64046e-08 5.28828e-07 0.00060296
0.00056856 0.00021276 -4.38452e-06
0.00021276 8.88803e-06 3.35199e-07
-4.38452e-06 3.35199e-07 -0.000214252
0.000271542 0.000210764 -1.86722e-07
0.000210764 -6.47642e-05 -3.17039e-06
-1.86722e-07 -3.17039e-06 -0.000338206
0.000590996 0.000203015 -7.97582e-07
0.000203015 0.000165163 2.605e-06
-7.97582e-07 2.605e-06 -0.000101282
0.000931742 0.000126407 -2.57274e-07
0.000126407 0.000423621 9.92741e-08
-2.57274e-07 9.92741e-08 0.000125381
0.00117963 0.000156512 -1.74426e-06
0.000156512 0.000487468 -1.03137e-05
-1.74426e-06 -1.03137e-05 0.000286403
0.000599014 6.17373e-05 -9.06503e-06
6.17373e-05 8.74561e-05 -1.61808e-05
-9.06503e-06 -1.61808e-05 2.6158e-05
0.00066299 0.000110175 -1.7344e-07
0.000110175 0.000157157 1.93204e-07
-1.7344e-07 1.93204e-07 -5.63684e-06
-0.000875529 8.67838e-06 -7.35412e-06
8.67838e-06 -0.000731992 8.14036e-06
-7.35412e-06 8.14036e-06 -0.000987144
0.00321502 -0.000100183 -7.13801e-05
-0.000100183 0.00177392 -7.13676e-06
-7.13801e-05 -7.13676e-06 0.00177711
0.000349317 2.8402e-05 1.4409e-06
2.8402e-05 -6.66428e-05 -3.12772e-07
1.4409e-06 -3.12772e-07 -0.000115625
0.000648187 8.06985e-05 -3.93916e-06
8.06985e-05 0.000147007 9.94792e-06
-3.93916e-06 9.94792e-06 1.24389e-05
0.00289046 -9.11588e-05 -8.56457e-06
-9.11588e-05 0.00155723 7.80083e-07
-8.56457e-06 7.80083e-07 0.00156144
0.000305678 -1.15646e-05 -1.39372e-06
-1.15646e-05 -9.97062e-05 9.73317e-06
-1.39372e-06 9.73317e-06 -0.000138906
0.00262972 -7.06853e-05 3.04047e-05
-7.06853e-05 0.00138179 5.74343e-06
3.04047e-05 5.74343e-06 0.00138978
0.00237713 -0.000318648 -0.0013376
-0.000318648 0.00446757 -7.51548e-05
-0.0013376 -7.51548e-05 0.00198639
-0.00522216 -0.000129846 7.79565e-06
-0.000129846 0.00635144 -2.64895e-05
7.79565e-06 -2.64895e-05 -0.0018436
0.00645499 0.000470414 -0.000416498
0.000470414 0.00396991 -0.000112649
-0.000416498 -0.000112649 0.00120671
0.000109671 0.000120517 6.12421e-06
0.000120517 -0.000257809 -1.90199e-07
6.12421e-06 -1.90199e-07 -0.000523753
0.000127178 0.000144688 7.07786e-06
0.000144688 -0.000139455 3.62322e-06
7.07786e-06 3.62322e-06 -0.000518138
0.00295384 0.000761037 -3.3355e-06
0.000761037 0.00153776 2.49714e-06
-3.3355e-06 2.49714e-06 0.00107913
0.00237521 0.00090663 1.90011e-05
0.00090663 0.00102187 1.29542e-05
1.90011e-05 1.29542e-05 0.000448391
0.00100939 0.000636205 9.47261e-06
0.000636205 0.000532328 1.4704e-05
9.47261e-06 1.4704e-05 2.49779e-05
0.00242446 0.000330413 -6.15758e-06
0.000330413 0.00146078 6.21492e-06
-6.15758e-06 6.21492e-06 0.00115689
0.00239736 0.000339116 1.27652e-05
0.000339116 0.00133936 8.49057e-06
1.27652e-05 8.49057e-06 0.00100393
0.00121246 0.00066647 -4.60141e-06
0.00066647 0.000633272 1.43211e-06
-4.60141e-06 1.43211e-06 0.000105157
0.000462655 0.000873655 1.49373e-05
0.000873655 -0.000254187 -3.86489e-06
1.49373e-05 -3.86489e-06 -0.000692352
0.00290583 0.00110482 -6.10097e-06
0.00110482 0.00116384 3.36763e-05
-6.10097e-06 3.36763e-05 0.000843463
0.00156596 0.00113743 3.36903e-05
0.00113743 9.05805e-05 1.21188e-05
3.36903e-05 1.21188e-05 -0.000114043
0.0014459 0.000823394 2.9146e-06
0.000823394 0.00052845 -4.11604e-07
2.9146e-06 -4.11604e-07 0.000219611
0.00191131 0.000581692 -1.90844e-06
0.000581692 0.00116471 2.51827e-05
-1.90844e-06 2.51827e-05 0.000656511
0.0153463 0.00387281 -0.000151689
0.00387281 0.00139669 5.33902e-05
-0.000151689 5.33902e-05 0.000652465
0.00628985 -0.00314213 -0.000777205
-0.00314213 0.00498434 -0.000249128
-0.000777205 -0.000249128 0.000870424
0.00237315 -0.00575603 0.00126163
-0.00575603 0.0099604 0.000260278
0.00126163 0.000260278 0.00227393
0.0153548 -0.00348837 0.000517311
-0.00348837 0.00610323 0.00027889
0.000517311 0.00027889 0.000124784
0.0127272 0.00681399 -0.000141765
0.00681399 0.00446204 -6.04592e-05
-0.000141765 -6.04592e-05 0.00022495
-0.00240676 0.000596992 -3.7976e-06
0.000596992 0.000914617 -1.21548e-05
-3.7976e-06 -1.21548e-05 0.000127756
0.00198197 0.002607 -9.25024e-05
0.002607 0.000541108 -3.84541e-05
-9.25024e-05 -3.84541e-05 0.00155566
0.0149896 0.00690342 1.70047e-05
0.00690342 0.00173308 4.20721e-05
1.70047e-05 4.20721e-05 -0.000849693
0.00715832 0.00491933 -0.000156876
0.00491933 -0.000600418 -0.000137106
-0.000156876 -0.000137106 0.000405224
0.00167344 0.00150589 7.37719e-06
0.00150589 0.000130237 1.899e-07
7.37719e-06 1.899e-07 -0.000236315
0.00156952 0.00115931 1.34403e-05
0.00115931 0.000441192 -3.54689e-06
1.34403e-05 -3.54689e-06 7.60434e-05
0.00188951 0.000736172 -3.7116e-05
0.000736172 0.000862324 -8.30939e-06
-3.7116e-05 -8.30939e-06 0.000680767
0.00210762 0.00210415 -8.18122e-05
0.00210415 0.000482597 -3.22822e-05
-8.18122e-05 -3.22822e-05 -0.000607382
0.00174545 0.00243058 0.000105647
0.00243058 -0.000660871 5.58806e-05
0.000105647 5.58806e-05 -0.00132615
0.00433106 -0.000311445 -0.000147546
-0.000311445 -0.00566491 4.30401e-05
-0.000147546 4.30401e-05 -0.00604013
0.000160001 -0.00231938 1.55377e-05
-0.00231938 0.0032541 4.54924e-05
1.55377e-05 4.54924e-05 0.00125247
-0.0138763 -0.000429351 0.000495325
-0.000429351 0.00750655 -1.64194e-05
0.000495325 -1.64194e-05 0.00142002
0.00212028 -0.00296056 -9.71982e-05
-0.00296056 0.000225948 4.73308e-05
-9.71982e-05 4.73308e-05 -0.000914945
0.00653764 -0.00448365 2.50583e-05
-0.00448365 -7.59671e-05 6.01498e-05
2.50583e-05 6.01498e-05 0.00107604
0.00442011 0.000546116 0.00139934
0.000546116 0.00489435 -0.000331049
0.00139934 -0.000331049 0.00243189
0.015598 -0.00356404 -0.000398058
-0.00356404 0.000987259 0.00022501
-0.000398058 0.00022501 0.00089142
0.00187597 -0.00193307 -3.04315e-05
-0.00193307 -0.000231796 6.24619e-06
-3.04315e-05 6.24619e-06 -0.000578719
0.0123416 -0.000309212 -0.000269362
-0.000309212 -0.00219788 9.38706e-05
-0.000269362 9.38706e-05 -0.00257558
0.00728065 -0.00283824 9.96732e-05
-0.00283824 -0.00109681 1.09811e-05
9.96732e-05 1.09811e-05 0.000487332
0.00375634 -0.00163548 6.35438e-05
-0.00163548 1.52763e-05 -4.13461e-05
6.35438e-05 -4.13461e-05 1.55795e-05
0.00264405 -0.00110982 2.90382e-05
-0.00110982 -0.00301983 -1.45668e-06
2.90382e-05 -1.45668e-06 -0.000888526
-0.00210475 -0.000594042 -7.21452e-06
-0.000594042 -0.00192137 2.23821e-05
-7.21452e-06 2.23821e-05 -0.0019932
0.00142593 -0.00094184 -2.26748e-05
-0.00094184 -0.000414838 4.5852e-06
-2.26748e-05 4.5852e-06 -0.000421092
0.00395709 -0.000962301 4.35262e-05
-0.000962301 0.000752354 -1.38877e-05
4.35262e-05 -1.38877e-05 0.000814406
0.00177378 -0.0010982 -1.41541e-05
-0.0010982 3.36353e-05 8.14037e-06
-1.41541e-05 8.14037e-06 -0.000403219
0.00250247 -0.000968531 -4.56236e-06
-0.000968531 9.24787e-05 2.68439e-06
-4.56236e-06 2.68439e-06 -0.000121323
0.00265647 -0.000768757 6.71469e-06
-0.000768757 -4.78563e-06 -5.70695e-07
6.71469e-06 -5.70695e-07 -4.47188e-06
0.00223626 -0.000902022 -2.72823e-06
-0.000902022 0.000151826 9.16325e-06
-2.72823e-06 9.16325e-06 -0.000177347
0.00227518 -0.000668254 1.25209e-07
-0.000668254 -2.58071e-05 1.26624e-06
1.25209e-07 1.26624e-06 -0.000122589
0.00245246 -0.000671312 4.1001e-07
-0.000671312 4.58809e-05 4.22946e-07
4.1001e-07 4.22946e-07 1.77354e-05
0.00203182 -0.000607445 3.3818e-06
-0.000607445 -8.7581e-06 5.22249e-06
3.3818e-06 5.22249e-06 -0.000212556
0.00224918 -0.000624165 -3.41755e-08
-0.000624165 7.32117e-05 9.84677e-07
-3.41755e-08 9.84677e-07 -5.52137e-05
0.00239732 -0.000658438 -1.1305e-06
-0.000658438 0.000113805 1.73266e-06
-1.1305e-06 1.73266e-06 1.14854e-05
0.00222269 -0.000609448 -4.7778e-06
-0.000609448 0.000144905 1.32188e-06
-4.7778e-06 1.32188e-06 -1.20355e-05
0.00224684 -0.000586468 -6.1406e-07
-0.000586468 0.000216354 1.25938e-07
-6.1406e-07 1.25938e-07 4.29658e-05
0.00225257 -0.00057463 2.55794e-07
-0.00057463 0.000194807 3.46589e-06
2.55794e-07 3.46589e-06 1.34869e-05
0.00222683 -0.000562827 8.08779e-07
-0.000562827 0.00026077 -4.51642e-07
8.08779e-07 -4.51642e-07 5.32674e-05
0.00214858 -0.000579156 -2.83019e-06
-0.000579156 0.000222516 -1.52357e-06
-2.83019e-06 -1.52357e-06 -5.50849e-06
0.00224921 -0.000637387 -3.12924e-06
-0.000637387 0.000348438 -5.15727e-06
-3.12924e-06 -5.15727e-06 4.48768e-05
0.00227704 -0.000656094 -6.12143e-07
-0.000656094 0.000295664 1.0139e-07
-6.12143e-07 1.0139e-07 6.06844e-06
0.00233826 -0.000640811 7.0788e-06
-0.000640811 0.000313319 4.77854e-06
7.0788e-06 4.77854e-06 4.04966e-05
0.00185184 -0.000674629 -9.17193e-06
-0.000674629 0.000298462 -1.79464e-08
-9.17193e-06 -1.79464e-08 -0.000108267
0.00205736 -0.000760059 -1.79215e-06
-0.000760059 0.000322383 -6.90968e-07
-1.79215e-06 -6.90968e-07 -8.61228e-05
0.00183874 -0.000778812 4.33259e-06
-0.000778812 9.6244e-05 3.54243e-06
4.33259e-06 3.54243e-06 -0.000308065
0.000984576 -0.000338027 -1.40117e-05
-0.000338027 0.000103815 8.55095e-06
-1.40117e-05 8.55095e-06 -0.000176489
0.00166623 -0.000669133 5.42425e-07
-0.000669133 0.00036519 8.84934e-07
5.42425e-07 8.84934e-07 -6.93299e-05
0.00223131 -0.000882783 7.23536e-07
-0.000882783 0.000612494 4.12404e-06
7.23536e-07 4.12404e-06 0.00011111
5.72087e-05 -0.000206847 -1.84013e-05
-0.000206847 -0.00032892 2.19666e-05
-1.84013e-05 2.19666e-05 -0.000474536
0.000647652 -0.000278669 8.76603e-07
-0.000278669 4.83345e-06 5.25769e-07
8.76603e-07 5.25769e-07 -0.000253391
0.000920637 -0.000485608 7.64143e-06
-0.000485608 4.84377e-05 -1.35122e-06
7.64143e-06 -1.35122e-06 -0.00032536
0.00600276 0.00013039 -0.000192418
0.00013039 0.00357441 1.30056e-05
-0.000192418 1.30056e-05 0.00356617
0.00048398 -0.000199308 -7.74563e-06
-0.000199308 -5.88889e-05 -1.24325e-06
-7.74563e-06 -1.24325e-06 -0.000176068
0.000523193 -0.000258387 4.68182e-06
-0.000258387 1.29273e-05 -5.09614e-06
4.68182e-06 -5.09614e-06 -0.000253264
0.00537606 0.000169384 1.51148e-05
0.000169384 0.00319519 -1.12544e-06
1.51148e-05 -1.12544e-06 0.00317693
0.000562396 -0.000158255 2.91926e-05
-0.000158255 9.91337e-06 -1.49841e-05
2.91926e-05 -1.49841e-05 -9.34037e-05
0.00474592 0.000141067 0.000147077
0.000141067 0.00277802 -1.17679e-05
0.000147077 -1.17679e-05 0.00276922
0.00271281 0.000826609 3.39243e-06
0.000826609 0.00123151 5.80219e-06
3.39243e-06 5.80219e-06 0.00071949
0.000822981 0.00036406 -2.88563e-06
0.00036406 0.000110027 -1.15569e-06
-2.88563e-06 -1.15569e-06 -0.000180603
0.000738056 0.000227797 6.38236e-06
0.000227797 9.32778e-05 -1.40891e-07
6.38236e-06 -1.40891e-07 -0.000139384
-0.000769297 8.78181e-05 -7.81532e-07
8.78181e-05 -0.000832404 -5.03949e-06
-7.81532e-07 -5.03949e-06 -0.00105152
0.000278515 0.000207581 2.82668e-06
0.000207581 -0.000106729 9.76984e-07
2.82668e-06 9.76984e-07 -0.000346861
0.000927899 0.000219201 -4.74032e-06
0.000219201 0.000294618 -9.64632e-06
-4.74032e-06 -9.64632e-06 7.33875e-05
1.53894e-06 7.76475e-05 -2.85084e-06
7.76475e-05 -0.000172308 1.95728e-06
-2.85084e-06 1.95728e-06 -0.000465309
0.000716598 0.000126094 5.62795e-07
0.000126094 0.000209996 7.60652e-07
5.62795e-07 7.60652e-07 1.61614e-06
0.000728383 8.54146e-05 -1.44652e-05
8.54146e-05 0.000163509 -1.85994e-05
-1.44652e-05 -1.85994e-05 8.33395e-05
0.00357673 -0.000109182 -9.75461e-05
-0.000109182 0.00201684 -1.0226e-05
-9.75461e-05 -1.0226e-05 0.0020172
0.000432265 3.43371e-05 1.99116e-06
3.43371e-05 -9.88732e-06 -5.22071e-07
1.99116e-06 -5.22071e-07 -7.16663e-05
0.000249294 7.1786e-05 -2.88848e-06
7.1786e-05 -9.57754e-05 1.0744e-05
-2.88848e-06 1.0744e-05 -0.000256515
0.00307414 -0.000112163 -1.05196e-05
-0.000112163 0.00168471 1.03448e-06
-1.05196e-05 1.03448e-06 0.00168409
0.000273886 -6.26537e-05 -9.76061e-06
-6.26537e-05 -0.000103824 1.33118e-05
-9.76061e-06 1.33118e-05 -0.00015821
0.00279121 -9.03855e-05 3.82794e-05
-9.03855e-05 0.00149382 5.91654e-06
3.82794e-05 5.91654e-06 0.00149768
0.0159955 0.000809983 0.000630968
0.000809983 0.00131413 0.000147177
0.000630968 0.000147177 0.00150827
0.000574392 -0.00418066 -0.000793576
-0.00418066 -0.00157218 -9.44914e-05
-0.000793576 -9.44914e-05 -0.00538187
-0.00899719 0.00173405 -0.000272451
0.00173405 0.00598692 -0.00012819
-0.000272451 -0.00012819 -0.00210287
2.19816e-05 7.91985e-05 1.10202e-05
7.91985e-05 -0.000210045 -2.30059e-05
1.10202e-05 -2.30059e-05 -0.000611548
0.00121691 0.000544832 -7.84402e-06
0.000544832 0.000471958 -5.47608e-06
-7.84402e-06 -5.47608e-06 4.69435e-05
0.00267278 0.000802194 -1.17367e-05
0.000802194 0.00146174 -4.71736e-06
-1.17367e-05 -4.71736e-06 0.000916325
0.00129862 0.00076216 1.05403e-06
0.00076216 0.00036998 -6.27291e-07
1.05403e-06 -6.27291e-07 -0.000167197
0.00173216 0.000857245 1.51371e-05
0.000857245 0.000376883 2.28585e-05
1.51371e-05 2.28585e-05 -0.000126701
-0.000429564 0.000662819 3.40461e-05
0.000662819 -0.000720391 1.29385e-05
3.40461e-05 1.29385e-05 -0.00116278
0.00108944 0.000568994 -1.22227e-05
0.000568994 0.000609825 4.31907e-06
-1.22227e-05 4.31907e-06 9.28261e-05
0.000174216 0.000811386 7.20252e-06
0.000811386 -0.000425178 8.39333e-07
7.20252e-06 8.39333e-07 -0.000840724
0.00227718 0.00102167 1.86432e-05
0.00102167 0.000859237 4.56677e-06
1.86432e-05 4.56677e-06 0.000491471
0.000549194 0.000829571 8.26007e-06
0.000829571 -0.000335915 -2.00202e-06
8.26007e-06 -2.00202e-06 -0.000690445
0.00373452 0.00127553 8.05548e-06
0.00127553 0.00128941 1.02029e-05
8.05548e-06 1.02029e-05 0.00102566
0.00239372 0.00123172 2.21287e-05
0.00123172 0.00056403 7.47345e-06
2.21287e-05 7.47345e-06 0.00014915
0.000944741 0.00105095 8.98409e-06
0.00105095 -0.000265743 -1.65105e-06
8.98409e-06 -1.65105e-06 -0.000404652
0.00149951 0.000757862 -1.66089e-05
0.000757862 0.000562181 -7.59433e-05
-1.66089e-05 -7.59433e-05 0.000269116
0.00409862 0.00238097 2.90794e-05
0.00238097 -0.00309141 4.48295e-05
2.90794e-05 4.48295e-05 -0.000595893
0.0135377 0.00462643 0.000357616
0.00462643 -0.00059123 0.000207093
0.000357616 0.000207093 -0.00176117
0.0146105 -0.00623913 0.00085671
-0.00623913 0.00720043 -8.95476e-05
0.00085671 -8.95476e-05 0.0019957
0.0058056 0.00732376 0.000802815
0.00732376 -0.00155961 0.000410073
0.000802815 0.000410073 -0.00541279
-0.000640895 0.00174621 -4.47122e-05
0.00174621 7.38233e-06 2.16234e-05
-4.47122e-05 2.16234e-05 0.000688073
0.00357698 0.00308668 -9.32201e-05
0.00308668 -0.0011552 -5.74814e-05
-9.32201e-05 -5.74814e-05 0.000365125
0.00678298 0.0027982 5.47355e-05
0.0027982 0.00108739 3.36917e-05
5.47355e-05 3.36917e-05 0.00088402
0.00541793 0.00211683 2.41255e-05
0.00211683 0.00181775 1.05982e-05
2.41255e-05 1.05982e-05 0.00130214
0.000718999 0.00100875 -3.5141e-05
0.00100875 -2.53679e-05 3.08122e-06
-3.5141e-05 3.08122e-06 -0.000319454
0.00856503 0.0033704 -0.00020855
0.0033704 0.00250999 -1.28136e-05
-0.00020855 -1.28136e-05 0.00154919
0.00413408 -0.000817921 -5.65625e-06
-0.000817921 -0.00139662 2.57437e-05
-5.65625e-06 2.57437e-05 0.000117334
0.0119046 -0.000625931 -6.24357e-05
-0.000625931 -4.3475e-05 -3.64413e-05
-6.24357e-05 -3.64413e-05 0.00056506
-0.013152 -0.00386386 0.00110421
-0.00386386 -0.00413832 -8.40562e-06
0.00110421 -8.40562e-06 -0.00675985
0.00143028 -0.00172776 -0.00014306
-0.00172776 -0.000340233 4.3806e-05
-0.00014306 4.3806e-05 -0.000606193
0.00826239 -0.00341069 -5.07543e-05
-0.00341069 -0.00136912 9.86745e-05
-5.07543e-05 9.86745e-05 0.000451135
0.00177077 -0.000394402 -0.0003962
-0.000394402 -0.00659829 3.33893e-05
-0.0003962 3.33893e-05 -0.00735272
0.00344314 -0.0014489 3.84443e-05
-0.0014489 -0.00014763 1.60959e-06
3.84443e-05 1.60959e-06 0.000153685
0.00530441 -0.00109119 -6.97903e-05
-0.00109119 -0.00129709 2.72547e-07
-6.97903e-05 2.72547e-07 0.000255556
0.00701911 -0.00119113 6.4063e-05
-0.00119113 0.00171718 -3.93337e-05
6.4063e-05 -3.93337e-05 0.00217784
0.00594054 -0.000693178 0.000126424
-0.000693178 0.000819934 1.94263e-07
0.000126424 1.94263e-07 0.00150004
-0.00242718 -0.000587946 1.08971e-05
-0.000587946 -0.00266932 1.13381e-05
1.08971e-05 1.13381e-05 -0.00236741
0.00224126 -0.000814416 -9.85347e-06
-0.000814416 -0.000258939 2.90982e-06
-9.85347e-06 2.90982e-06 -4.3122e-05
0.00255533 -0.000612078 2.70017e-05
-0.000612078 -0.000258558 -6.26978e-06
2.70017e-05 -6.26978e-06 6.57944e-05
0.00210186 -0.000941887 -3.13183e-06
-0.000941887 -0.000136364 4.46907e-06
-3.13183e-06 4.46907e-06 -0.000352339
0.00258083 -0.000760955 1.06777e-06
-0.000760955 -4.13619e-05 1.65893e-06
1.06777e-06 1.65893e-06 -4.0011e-05
0.0026123 -0.000662224 1.37133e-06
-0.000662224 3.2615e-07 -2.30458e-07
1.37133e-06 -2.30458e-07 2.18679e-05
0.00223642 -0.00066819 1.65231e-06
-0.00066819 -5.30717e-05 4.50689e-06
1.65231e-06 4.50689e-06 -0.000151433
0.0024219 -0.00066742 1.80272e-07
-0.00066742 4.21333e-05 4.59911e-07
1.80272e-07 4.59911e-07 5.07739e-06
0.00240529 -0.000582067 -1.27524e-06
-0.000582067 2.66013e-05 -2.505e-08
-1.27524e-06 -2.505e-08 -1.60911e-05
0.00221013 -0.000620324 1.76925e-06
-0.000620324 4.99147e-05 2.06839e-07
1.76925e-06 2.06839e-07 -7.80155e-05
0.00240339 -0.000655991 -1.79057e-09
-0.000655991 0.000146332 -3.83855e-08
-1.79057e-09 -3.83855e-08 3.79721e-05
0.00229054 -0.000573444 1.10081e-06
-0.000573444 0.000128902 5.66229e-07
1.10081e-06 5.66229e-07 1.32659e-05
0.00222644 -0.000616952 -3.21921e-06
-0.000616952 0.000136742 -1.81393e-07
-3.21921e-06 -1.81393e-07 -1.47748e-05
0.00219902 -0.000579988 -1.61957e-06
-0.000579988 0.000184348 8.56349e-08
-1.61957e-06 8.56349e-08 1.3593e-05
0.00230826 -0.000567705 -2.17252e-06
-0.000567705 0.000294172 4.07998e-07
-2.17252e-06 4.07998e-07 9.76921e-05
0.00222918 -0.000559767 3.26889e-06
-0.000559767 0.000260389 1.55339e-06
3.26889e-06 1.55339e-06 5.39425e-05
0.00216884 -0.00057879 -3.22083e-07
-0.00057879 0.000232378 3.63381e-08
-3.22083e-07 3.63381e-08 4.93777e-06
0.00220587 -0.000578531 -7.62176e-07
-0.000578531 0.000289119 -2.31225e-06
-7.62176e-07 -2.31225e-06 3.67243e-05
0.00193639 -0.00057566 -6.69192e-06
-0.00057566 0.000257415 -2.07095e-06
-6.69192e-06 -2.07095e-06 -6.70495e-05
0.0021498 -0.000635383 -3.92638e-07
-0.000635383 0.000282697 -1.51832e-06
-3.92638e-07 -1.51832e-06 -2.76727e-05
0.00234257 -0.000665831 4.37728e-06
-0.000665831 0.000340824 3.41219e-06
4.37728e-06 3.41219e-06 4.77551e-05
0.00117191 -0.00040026 -2.0719e-05
-0.00040026 8.4219e-05 8.9564e-06
-2.0719e-05 8.9564e-06 -0.000212195
0.00193189 -0.000674402 -9.32523e-07
-0.000674402 0.000361136 6.74838e-07
-9.32523e-07 6.74838e-07 -4.28323e-05
0.00200468 -0.000756551 1.03696e-06
-0.000756551 0.000285188 3.10556e-06
1.03696e-06 3.10556e-06 -0.000126344
0.000142015 -0.000217547 -1.68312e-05
-0.000217547 -0.000312649 2.39621e-05
-1.68312e-05 2.39621e-05 -0.000470626
0.00081562 -0.000337774 2.7475e-06
-0.000337774 -9.36686e-06 1.16875e-07
2.7475e-06 1.16875e-07 -0.000294596
0.00174247 -0.000672285 1.00331e-05
-0.000672285 0.00042368 5.29854e-09
1.00331e-05 5.29854e-09 -9.59814e-06
0.0070244 4.13764e-05 -0.000268675
4.13764e-05 0.00419024 1.95447e-05
-0.000268675 1.95447e-05 0.00419698
0.00035535 -0.000231339 -3.09828e-06
-0.000231339 -0.000145846 -5.02981e-07
-3.09828e-06 -5.02981e-07 -0.000294035
0.000454206 -0.0002735 8.91086e-06
-0.0002735 -0.000119075 -7.06403e-06
8.91086e-06 -7.06403e-06 -0.000382137
0.00635257 9.39993e-05 -1.2223e-05
9.39993e-05 0.00380039 -2.5361e-06
-1.2223e-05 -2.5361e-06 0.00379352
0.000459919 -0.000208114 2.35115e-05
-0.000208114 -6.99993e-05 -1.92165e-05
2.35115e-05 -1.92165e-05 -0.000192217
0.00576153 0.000131455 0.000201743
0.000131455 0.00344898 -2.39923e-05
0.000201743 -2.39923e-05 0.00343329
0.00201299 0.000804361 -8.14466e-06
0.000804361 0.000586216 8.78542e-06
-8.14466e-06 8.78542e-06 9.88834e-05
0.00188272 0.000719792 -1.31048e-06
0.000719792 0.000684876 -8.24103e-07
-1.31048e-06 -8.24103e-07 0.000207337
0.00118049 0.000470725 -3.89722e-06
0.000470725 0.00028539 1.17565e-06
-3.89722e-06 1.17565e-06 -7.59425e-05
0.00114508 0.000442608 -3.73716e-06
0.000442608 0.000354274 -3.6076e-06
-3.73716e-06 -3.6076e-06 2.65336e-05
0.000603425 0.000236406 -2.19927e-07
0.000236406 2.27652e-05 -1.43239e-06
-2.19927e-07 -1.43239e-06 -0.000222682
0.000680575 0.000242908 -4.4629e-06
0.000242908 0.000110748 -4.85997e-06
-4.4629e-06 -4.85997e-06 -0.000144744
0.000553337 0.000133673 1.17088e-06
0.000133673 6.2652e-05 6.11575e-07
1.17088e-06 6.11575e-07 -0.000164365
0.00076002 0.000175646 1.63099e-06
0.000175646 0.000227207 -1.10076e-06
1.63099e-06 -1.10076e-06 -2.07451e-05
0.000695954 0.000126979 -2.24402e-05
0.000126979 0.000115241 -2.00688e-05
-2.24402e-05 -2.00688e-05 1.56057e-05
-2.7255e-05 0.000101226 -1.00515e-06
0.000101226 -0.000237426 1.15172e-05
-1.00515e-06 1.15172e-05 -0.000458174
0.000483954 8.47383e-05 1.44345e-07
8.47383e-05 1.31121e-05 -2.75147e-07
1.44345e-07 -2.75147e-07 -6.50817e-05
0.00435164 -0.000136767 -0.000125686
-0.000136767 0.00253209 -1.43835e-05
-0.000125686 -1.43835e-05 0.00252296
0.00361768 -0.000137298 -1.31861e-05
-0.000137298 0.00204835 1.22835e-06
-1.31861e-05 1.22835e-06 0.00204133
0.000283533 6.61843e-05 8.99231e-06
6.61843e-05 -0.000102957 1.64332e-05
8.99231e-06 1.64332e-05 -0.000162888
0.00308189 -0.000115901 4.6142e-05
-0.000115901 0.00169043 6.36438e-06
4.6142e-05 6.36438e-06 0.00168854
0.00322058 0.000326133 0.000105334
0.000326133 -0.00191477 3.6658e-05
0.000105334 3.6658e-05 5.19478e-05
0.00592212 -0.000786083 0.000241647
-0.000786083 -0.00538146 0.000123849
0.000241647 0.000123849 -0.00606687
0.015166 -0.00461866 -0.000297284
-0.00461866 0.00720959 -0.000127847
-0.000297284 -0.000127847 0.00379514
0.00171558 0.000782091 7.69919e-06
0.000782091 0.000145907 1.13476e-05
7.69919e-06 1.13476e-05 -0.000261731
0.00507576 0.00104913 -1.46855e-05
0.00104913 0.00280214 -9.24509e-06
-1.46855e-05 -9.24509e-06 0.00223337
0.000244347 0.000619059 -9.66224e-06
0.000619059 -0.000267826 -1.18518e-05
-9.66224e-06 -1.18518e-05 -0.000767513
0.00169036 0.000933172 1.92418e-06
0.000933172 0.000553381 -2.15846e-06
1.92418e-06 -2.15846e-06 4.45215e-05
0.00194982 0.000882889 -1.26694e-06
0.000882889 0.000535039 4.11509e-06
-1.26694e-06 4.11509e-06 1.9186e-05
0.00194403 0.000968454 2.72573e-05
0.000968454 0.000458431 1.74462e-05
2.72573e-05 1.74462e-05 1.78032e-06
0.00223439 0.00103798 -4.18918e-05
0.00103798 0.00081444 -5.73577e-06
-4.18918e-05 -5.73577e-06 0.000327268
0.000726703 0.000814612 8.80226e-06
0.000814612 1.59467e-05 -3.67576e-05
8.80226e-06 -3.67576e-05 -0.000333605
0.00200611 0.00108456 -8.05946e-07
0.00108456 0.00046655 -1.0804e-06
-8.05946e-07 -1.0804e-06 5.96114e-05
0.00206998 0.00109196 1.41047e-05
0.00109196 0.000301096 -2.07096e-05
1.41047e-05 -2.07096e-05 0.000186453
0.00226502 0.0010931 2.16215e-05
0.0010931 0.000354004 -3.87887e-06
2.16215e-05 -3.87887e-06 -6.27939e-05
0.00205963 0.000922328 3.16969e-05
0.000922328 0.000280584 2.73324e-05
3.16969e-05 2.73324e-05 7.30988e-05
0.000743321 0.00101576 -9.00942e-06
0.00101576 -0.000321559 -6.98283e-06
-9.00942e-06 -6.98283e-06 -0.000651276
0.000764034 0.0010023 -3.01313e-05
0.0010023 -0.000309351 -2.04796e-05
-3.01313e-05 -2.04796e-05 -0.000454111
0.00223778 0.00110879 5.48133e-05
0.00110879 -0.00114664 4.11129e-05
5.48133e-05 4.11129e-05 -0.000413546
0.00630067 0.00257266 -0.000107499
0.00257266 -0.00199643 -3.54692e-05
-0.000107499 -3.54692e-05 0.000318368
0.0045538 0.00329235 0.000718901
0.00329235 -0.00613504 0.000193505
0.000718901 0.000193505 -0.00713683
0.00334494 0.00269783 -0.000257635
0.00269783 -0.000241603 -0.000110732
-0.000257635 -0.000110732 0.000883036
0.00530476 0.0023006 -3.22293e-05
0.0023006 0.000802003 -9.50256e-06
-3.22293e-05 -9.50256e-06 0.00071654
0.00642016 0.0022989 -0.000187448
0.0022989 0.00219589 -5.36415e-05
-0.000187448 -5.36415e-05 0.00163999
0.00322819 -0.000238029 -5.1379e-05
-0.000238029 -0.000657157 -2.15049e-05
-5.1379e-05 -2.15049e-05 -0.000113019
-0.000572967 -0.000483417 0.000118423
-0.000483417 -0.00205084 2.84796e-05
0.000118423 2.84796e-05 -0.000418974
0.00561229 0.000531333 0.000298659
0.000531333 -0.00576658 -1.58379e-05
0.000298659 -1.58379e-05 -0.00596183
0.00106459 -0.00112837 -6.82367e-05
-0.00112837 -0.0013135 8.36471e-05
-6.82367e-05 8.36471e-05 -0.000795516
0.00688741 -0.00120245 -0.000204336
-0.00120245 -0.00049076 5.70427e-05
-0.000204336 5.70427e-05 0.000594652
0.00308211 -0.000900773 -2.89767e-05
-0.000900773 -0.000560263 1.16158e-05
-2.89767e-05 1.16158e-05 8.87948e-05
0.0046403 -0.000655423 -1.65474e-05
-0.000655423 0.000217278 -1.20869e-06
-1.65474e-05 -1.20869e-06 0.000744976
0.00416873 -0.000491708 8.60827e-05
-0.000491708 0.000635998 -1.43277e-05
8.60827e-05 -1.43277e-05 0.000990205
0.00306591 -0.000115095 4.91102e-05
-0.000115095 0.000405859 -1.7646e-06
4.91102e-05 -1.7646e-06 0.000505243
0.000484058 -0.000642672 -2.09173e-05
-0.000642672 -0.00124315 1.10743e-05
-2.09173e-05 1.10743e-05 -0.000887271
0.00247252 -0.000638092 -3.2816e-06
-0.000638092 -0.000312879 6.02226e-07
-3.2816e-06 6.02226e-07 -1.37394e-05
0.00260742 -0.000501935 3.6157e-06
-0.000501935 -0.00021738 -5.40448e-07
3.6157e-06 -5.40448e-07 3.3155e-05
0.00249994 -0.000747818 -3.04078e-06
-0.000747818 -7.47369e-05 2.80024e-06
-3.04078e-06 2.80024e-06 -6.97957e-05
0.00260733 -0.000641112 -1.30655e-07
-0.000641112 2.56283e-05 -5.36236e-07
-1.30655e-07 -5.36236e-07 5.76227e-05
0.00245004 -0.00049067 -1.08342e-06
-0.00049067 -6.59748e-05 -2.03812e-07
-1.08342e-06 -2.03812e-07 -1.64751e-05
0.00238155 -0.000660947 -1.22013e-06
-0.000660947 3.44558e-05 4.48057e-07
-1.22013e-06 4.48057e-07 -9.69152e-06
0.00239895 -0.000585531 -7.14586e-07
-0.000585531 3.52306e-05 5.11884e-08
-7.14586e-07 5.11884e-08 -5.02481e-06
0.00229105 -0.000488291 -2.3358e-07
-0.000488291 4.97886e-05 4.62388e-07
-2.3358e-07 4.62388e-07 -7.1721e-06
0.00241108 -0.000652808 -7.1448e-07
-0.000652808 0.000180551 -1.48403e-06
-7.1448e-07 -1.48403e-06 6.6732e-05
0.00227398 -0.000573321 1.01721e-06
-0.000573321 0.000116229 -2.84126e-07
1.01721e-06 -2.84126e-07 3.57377e-07
0.00218818 -0.000515495 -1.10562e-06
-0.000515495 0.000138447 3.82573e-07
-1.10562e-06 3.82573e-07 -4.68042e-06
0.00216006 -0.00057476 -2.34923e-06
-0.00057476 0.00015853 2.61357e-07
-2.34923e-06 2.61357e-07 -9.72456e-06
0.00224893 -0.000562167 -1.29928e-06
-0.000562167 0.000248671 6.96766e-07
-1.29928e-06 6.96766e-07 5.53475e-05
0.00231698 -0.000552606 -1.27957e-06
-0.000552606 0.00031635 -1.71944e-06
-1.27957e-06 -1.71944e-06 0.000102533
0.00218658 -0.000578646 2.67227e-06
-0.000578646 0.000240245 2.37931e-06
2.67227e-06 2.37931e-06 1.32914e-05
0.00220336 -0.000579759 -1.63837e-08
-0.000579759 0.000287222 -1.42761e-07
-1.63837e-08 -1.42761e-07 3.65307e-05
0.00206476 -0.000518534 -4.98044e-06
-0.000518534 0.000301788 -5.24067e-07
-4.98044e-06 -5.24067e-07 2.46577e-05
0.0012381 -0.000386128 -1.97807e-05
-0.000386128 3.76113e-05 7.88456e-06
-1.97807e-05 7.88456e-06 -0.000239383
0.00192944 -0.000574805 -6.47398e-07
-0.000574805 0.000257682 -9.71543e-07
-6.47398e-07 -9.71543e-07 -7.08099e-05
0.00205205 -0.000633706 1.54926e-06
-0.000633706 0.000217976 2.11257e-06
1.54926e-06 2.11257e-06 -9.93282e-05
0.000246055 -0.000243523 -2.21907e-05
-0.000243523 -0.000255537 1.96566e-05
-2.21907e-05 1.96566e-05 -0.00042359
0.00112215 -0.000396747 1.99546e-06
-0.000396747 5.35968e-05 -9.09649e-08
1.99546e-06 -9.09649e-08 -0.000243096
0.00201257 -0.000675014 7.38187e-06
-0.000675014 0.000422918 1.09933e-06
7.38187e-06 1.09933e-06 2.13841e-05
0.0079091 -5.57701e-06 -0.000317484
-5.57701e-06 0.00472075 2.59459e-05
-0.000317484 2.59459e-05 0.00473224
0.000271716 -0.000271395 -1.53376e-06
-0.000271395 -0.000220106 2.50688e-06
-1.53376e-06 2.50688e-06 -0.000390736
0.000668229 -0.000339859 1.44311e-05
-0.000339859 -0.000112431 -6.69882e-06
1.44311e-05 -6.69882e-06 -0.000402564
0.00732083 2.46661e-05 -6.46232e-06
2.46661e-05 0.00437928 1.77315e-07
-6.46232e-06 1.77315e-07 0.00438455
0.000790265 -0.000291252 2.64041e-05
-0.000291252 0.000126991 -2.4449e-05
2.64041e-05 -2.4449e-05 -2.76705e-05
0.0066628 9.12954e-05 0.000252348
9.12954e-05 0.00400708 -3.07036e-05
0.000252348 -3.07036e-05 0.00399629
0.00176426 0.000724903 -3.9291e-06
0.000724903 0.000246476 9.23928e-06
-3.9291e-06 9.23928e-06 -0.000167012
0.00191072 0.000793947 -1.62458e-06
0.000793947 0.000516767 1.01663e-06
-1.62458e-06 1.01663e-06 3.05599e-05
0.00148068 0.00059499 -9.01495e-06
0.00059499 0.000302554 3.49878e-06
-9.01495e-06 3.49878e-06 -0.000101044
0.00105434 0.000615165 -4.44672e-06
0.000615165 0.000129605 -5.27788e-06
-4.44672e-06 -5.27788e-06 -0.000313931
0.00142041 0.000464136 -4.11317e-06
0.000464136 0.000399191 -2.22808e-06
-4.11317e-06 -2.22808e-06 4.72474e-05
0.000809308 0.000265977 -1.25359e-05
0.000265977 0.000131147 -1.73849e-06
-1.25359e-05 -1.73849e-06 -0.00012841
0.00054608 0.000207767 -1.14272e-06
0.000207767 -3.97458e-05 -4.53507e-06
-1.14272e-06 -4.53507e-06 -0.000280181
0.000630813 0.000208946 1.56108e-06
0.000208946 5.27363e-05 -3.33521e-07
1.56108e-06 -3.33521e-07 -0.000177835
0.000397955 0.00017881 -3.01814e-05
0.00017881 -0.000108518 -1.94262e-05
-3.01814e-05 -1.94262e-05 -0.000214483
0.000557097 0.000144064 1.56058e-06
0.000144064 8.63506e-05 9.77057e-06
1.56058e-06 9.77057e-06 -0.000149964
0.000506466 0.00011931 -1.25281e-06
0.00011931 1.87317e-06 -3.33931e-07
-1.25281e-06 -3.33931e-07 -9.21377e-05
0.00524724 -0.000162405 -0.000165079
-0.000162405 0.00312538 -1.89841e-05
-0.000165079 -1.89841e-05 0.00310563
0.000193006 8.9986e-05 1.46202e-05
8.9986e-05 -0.000167127 1.87736e-05
1.46202e-05 1.87736e-05 -0.000240859
0.00407569 -0.000158603 -1.32211e-05
-0.000158603 0.00236046 1.48101e-06
-1.32211e-05 1.48101e-06 0.00234541
0.00340642 -0.000145729 5.66381e-05
-0.000145729 0.00191294 7.46422e-06
5.66381e-05 7.46422e-06 0.00190274
0.00104226 0.000291994 3.34015e-06
0.000291994 -0.0019477 1.15501e-05
3.34015e-06 1.15501e-05 -0.000931052
0.00488248 0.000214469 7.18014e-05
0.000214469 -0.00136636 2.92033e-05
7.18014e-05 2.92033e-05 0.000559577
0.0161417 0.000867334 2.13091e-05
0.000867334 0.00153313 5.80656e-05
2.13091e-05 5.80656e-05 0.00196625
0.00216174 0.000901477 1.98481e-06
0.000901477 0.000370887 7.28621e-06
1.98481e-06 7.28621e-06 -3.20685e-05
0.00225483 0.000829921 8.84109e-07
0.000829921 0.000272498 5.85916e-06
8.84109e-07 5.85916e-06 -7.40902e-05
0.00170242 0.000782538 -5.87247e-07
0.000782538 0.00014688 -4.50412e-06
-5.87247e-07 -4.50412e-06 -0.000256213
0.00322852 0.00113308 -1.65666e-05
0.00113308 0.00146498 -2.89956e-06
-1.65666e-05 -2.89956e-06 0.000912367
0.00219059 0.000908671 -7.57075e-06
0.000908671 0.000709683 -1.22969e-05
-7.57075e-06 -1.22969e-05 0.00018163
0.00222285 0.0010336 7.51454e-06
0.0010336 0.000574645 3.60984e-06
7.51454e-06 3.60984e-06 0.000111174
0.00232563 0.00101655 -2.50127e-06
0.00101655 0.00022438 -1.12852e-06
-2.50127e-06 -1.12852e-06 -0.000138746
0.00219571 0.00115438 -1.52416e-05
0.00115438 0.000511772 -9.17838e-07
-1.52416e-05 -9.17838e-07 9.73026e-05
0.000555228 0.000934455 -2.77431e-05
0.000934455 -0.000598423 5.89851e-05
-2.77431e-05 5.89851e-05 -0.000591376
0.00289588 0.00117723 3.42625e-07
0.00117723 0.000708365 -3.98634e-08
3.42625e-07 -3.98634e-08 0.000272225
0.00293004 0.000993384 -4.78973e-06
0.000993384 0.000432994 7.77526e-06
-4.78973e-06 7.77526e-06 0.000195619
0.00162262 0.000468652 5.22555e-05
0.000468652 -0.000187464 1.48855e-05
5.22555e-05 1.48855e-05 -5.50541e-05
0.000386664 0.000755531 7.60247e-06
0.000755531 -0.000595215 -6.70292e-06
7.60247e-06 -6.70292e-06 -0.000782412
0.000767899 0.0010092 -3.95565e-05
0.0010092 -0.000304998 -5.05125e-06
-3.95565e-05 -5.05125e-06 -0.000630198
0.00368907 0.00125345 2.02298e-05
0.00125345 -0.000321366 1.1427e-05
2.02298e-05 1.1427e-05 0.000249592
0.00875443 0.0023971 -6.20156e-05
0.0023971 -0.000739395 -4.92845e-05
-6.20156e-05 -4.92845e-05 0.00109556
0.00518309 0.00194481 -6.48273e-05
0.00194481 0.0012215 -7.70765e-05
-6.48273e-05 -7.70765e-05 0.00121748
0.00291315 -8.1615e-05 5.87615e-05
-8.1615e-05 0.000200777 8.12517e-06
5.87615e-05 8.12517e-06 0.000459263
0.00324565 -0.000246496 -8.26469e-05
-0.000246496 -0.000699898 6.70042e-06
-8.26469e-05 6.70042e-06 3.28799e-06
0.00514112 0.000497643 1.42155e-05
0.000497643 -0.000134505 -2.08871e-05
1.42155e-05 -2.08871e-05 0.00102785
0.000602225 -0.000755683 -8.14832e-05
-0.000755683 -0.00200357 6.0398e-05
-8.14832e-05 6.0398e-05 -0.00124812
0.0030168 -0.000674744 -0.000104879
-0.000674744 -0.000577601 6.01534e-06
-0.000104879 6.01534e-06 -0.000195718
0.00304489 -0.000451523 3.31947e-06
-0.000451523 -4.38581e-05 -3.35873e-06
3.31947e-06 -3.35873e-06 0.000417737
0.00235188 -0.000105297 -1.44957e-05
-0.000105297 -6.42793e-05 -3.67046e-07
-1.44957e-05 -3.67046e-07 6.57894e-05
0.00254408 -0.000287961 1.17492e-05
-0.000287961 -0.00019686 -1.72575e-06
1.17492e-05 -1.72575e-06 3.03202e-05
0.00230362 5.2104e-05 7.25565e-06
5.2104e-05 -0.000327667 -4.71816e-07
7.25565e-06 -4.71816e-07 -0.000188925
0.00249458 -0.000672922 -2.01505e-05
-0.000672922 -0.000311259 4.68895e-06
-2.01505e-05 4.68895e-06 -4.05638e-05
0.00263989 -0.000525868 -2.82249e-06
-0.000525868 -0.000206247 7.06253e-07
-2.82249e-06 7.06253e-07 6.10741e-06
0.00251437 -0.000358617 -5.00484e-07
-0.000358617 -0.000140642 -1.82927e-07
-5.00484e-07 -1.82927e-07 2.79099e-06
0.0025931 -0.000620584 -3.8667e-06
-0.000620584 4.08606e-05 4.83033e-07
-3.8667e-06 4.83033e-07 8.39437e-05
0.00246208 -0.000490593 2.44359e-07
-0.000490593 -4.61068e-05 -1.67331e-07
2.44359e-07 -1.67331e-07 -2.7495e-06
0.00234286 -0.000401589 3.76577e-07
-0.000401589 -2.26688e-05 1.29864e-07
3.76577e-07 1.29864e-07 -5.25048e-06
0.00239435 -0.000589427 -1.32426e-06
-0.000589427 4.41291e-05 -2.7559e-07
-1.32426e-06 -2.7559e-07 5.96522e-06
0.00230129 -0.000487397 3.77422e-07
-0.000487397 5.13368e-05 -3.21204e-08
3.77422e-07 -3.21204e-08 -5.40926e-06
0.00222666 -0.000436475 -1.9393e-06
-0.000436475 8.77121e-05 8.47609e-07
-1.9393e-06 8.47609e-07 6.9562e-06
0.0022579 -0.000573311 1.50971e-06
-0.000573311 0.000103732 -1.13295e-06
1.50971e-06 -1.13295e-06 -1.23628e-05
0.00218643 -0.000515545 7.37331e-07
-0.000515545 0.000131851 -4.38521e-07
7.37331e-07 -4.38521e-07 -1.15254e-05
0.00219251 -0.000488308 -2.0211e-06
-0.000488308 0.000191049 -5.40523e-07
-2.0211e-06 -5.40523e-07 1.58e-05
0.0021845 -0.000556358 -3.65359e-07
-0.000556358 0.000199614 7.57115e-07
-3.65359e-07 7.57115e-07 9.50251e-06
0.00222993 -0.000548149 -1.67803e-07
-0.000548149 0.000259951 -1.50784e-07
-1.67803e-07 -1.50784e-07 4.63948e-05
0.00203465 -0.000481919 -4.06585e-06
-0.000481919 0.000226403 -4.59848e-07
-4.06585e-06 -4.59848e-07 -1.80706e-05
0.00220019 -0.000580893 1.49848e-06
-0.000580893 0.000285122 2.87962e-06
1.49848e-06 2.87962e-06 3.61543e-05
0.00208132 -0.000522502 -7.16387e-07
-0.000522502 0.000311803 -2.47326e-08
-7.16387e-07 -2.47326e-08 3.58303e-05
0.00127232 -0.000334824 -1.62369e-05
-0.000334824 2.55977e-05 7.25162e-06
-1.62369e-05 7.25162e-06 -0.00021888
0.00029742 -0.000226325 -1.94591e-05
-0.000226325 -0.000247305 1.95055e-05
-1.94591e-05 1.95055e-05 -0.000404994
0.00124551 -0.000384065 2.32276e-07
-0.000384065 4.68611e-05 2.467e-08
2.32276e-07 2.467e-08 -0.000228677
0.00191274 -0.000573275 4.93075e-06
-0.000573275 0.000251261 -1.19486e-07
4.93075e-06 -1.19486e-07 -8.11825e-05
0.00807953 -0.000103675 -0.000369351
-0.000103675 0.00480614 3.20343e-05
-0.000369351 3.20343e-05 0.00482765
0.000313956 -0.000251331 -1.35207e-06
-0.000251331 -0.000222991 1.20491e-06
-1.35207e-06 1.20491e-06 -0.000388126
0.000971568 -0.000385768 1.92044e-05
-0.000385768 -3.48529e-05 -7.21481e-06
1.92044e-05 -7.21481e-06 -0.000330962
0.00805071 -4.83854e-05 1.85827e-06
-4.83854e-05 0.00480803 1.25781e-06
1.85827e-06 1.25781e-06 0.00482261
0.000551368 -0.000287901 2.68299e-05
-0.000287901 -5.1689e-05 -2.27052e-05
2.68299e-05 -2.27052e-05 -0.000223523
0.00770177 -2.21606e-05 0.000331098
-2.21606e-05 0.00461011 -3.35814e-05
0.000331098 -3.35814e-05 0.00462032
0.00197733 0.000752594 1.11887e-06
0.000752594 0.000220625 9.2892e-06
1.11887e-06 9.2892e-06 -0.000143735
0.00184206 0.000739309 7.84689e-07
0.000739309 0.000300444 3.67608e-07
7.84689e-07 3.67608e-07 -0.000113646
0.00191581 0.000660194 -7.38823e-06
0.000660194 0.000428591 4.99817e-06
-7.38823e-06 4.99817e-06 2.98376e-05
0.00175061 0.000773089 4.87941e-06
0.000773089 0.000418726 -6.73069e-06
4.87941e-06 -6.73069e-06 -6.32503e-05
0.001517 0.000596622 -6.19282e-07
0.000596622 0.000327511 6.28386e-07
-6.19282e-07 6.28386e-07 -7.73604e-05
0.000894643 0.000308613 -1.6224e-05
0.000308613 5.79326e-05 -3.34146e-06
-1.6224e-05 -3.34146e-06 -0.000206086
0.00156066 0.000452983 1.8663e-06
0.000452983 0.000462935 -2.44838e-06
1.8663e-06 -2.44838e-06 0.000119415
0.000577106 0.000228241 1.06584e-06
0.000228241 -2.44632e-05 5.60946e-07
1.06584e-06 5.60946e-07 -0.000271762
0.000441933 0.000236285 -3.10411e-05
0.000236285 -9.53861e-05 -2.20653e-05
-3.10411e-05 -2.20653e-05 -0.000222079
0.000627316 0.000156352 2.98614e-06
0.000156352 6.31265e-05 5.61701e-06
2.98614e-06 5.61701e-06 -0.000175325
0.000485943 0.000163296 1.25651e-06
0.000163296 -4.94149e-05 -9.55369e-07
1.25651e-06 -9.55369e-07 -0.000154164
0.00622626 -0.00019218 -0.000198453
-0.00019218 0.00377179 -2.62302e-05
-0.000198453 -2.62302e-05 0.00373655
0.000338314 0.000112029 1.91427e-05
0.000112029 -9.55541e-05 2.04715e-05
1.91427e-05 2.04715e-05 -0.000188476
0.00494454 -0.000198411 -1.39983e-05
-0.000198411 0.00294139 1.68377e-06
-1.39983e-05 1.68377e-06 0.00291186
0.00403702 -0.000181258 8.09718e-05
-0.000181258 0.00233934 1.01667e-05
8.09718e-05 1.01667e-05 0.00231862
0.00167667 0.000263295 4.21805e-05
0.000263295 -0.00039133 2.13259e-05
4.21805e-05 2.13259e-05 -5.5944e-05
0.00231438 0.000356047 -2.59173e-05
0.000356047 -0.00161357 -3.64517e-06
-2.59173e-05 -3.64517e-06 -0.000530201
0.00493262 0.000598507 0.000259628
0.000598507 -0.00167995 8.05725e-05
0.000259628 8.05725e-05 0.000619999
0.00262158 0.000887101 -8.95194e-06
0.000887101 0.000429394 7.40256e-07
-8.95194e-06 7.40256e-07 9.95436e-05
0.00206308 0.000914885 -8.08186e-06
0.000914885 0.000292177 -5.45082e-06
-8.08186e-06 -5.45082e-06 -0.000108667
0.00236305 0.000675062 2.27822e-06
0.000675062 0.000227207 5.53782e-06
2.27822e-06 5.53782e-06 -1.49034e-05
0.00235095 0.00082879 1.50709e-06
0.00082879 0.000336638 4.97512e-07
1.50709e-06 4.97512e-07 -7.29519e-06
0.00166808 0.000780824 1.03905e-06
0.000780824 0.00013403 -1.44411e-05
1.03905e-06 -1.44411e-05 -0.000264056
0.00256571 0.000788283 -4.78783e-06
0.000788283 0.000153454 1.14857e-06
-4.78783e-06 1.14857e-06 -4.00342e-05
0.00273711 0.00112706 -1.0004e-05
0.00112706 0.000832676 -8.037e-06
-1.0004e-05 -8.037e-06 0.00035302
0.00264936 0.00102092 -1.92308e-07
0.00102092 0.000433083 -1.29168e-07
-1.92308e-07 -1.29168e-07 6.54716e-05
0.00219786 0.000491123 -1.79498e-05
0.000491123 -0.00025054 6.60267e-07
-1.79498e-05 6.60267e-07 -0.000178654
0.00337086 0.00126205 -8.77569e-06
0.00126205 0.000937114 1.33401e-05
-8.77569e-06 1.33401e-05 0.000514564
0.00262704 0.000961853 9.21736e-08
0.000961853 0.000266211 -1.09649e-06
9.21736e-08 -1.09649e-06 2.90955e-05
0.000624751 0.000454265 -7.79261e-06
0.000454265 -0.000797921 1.55857e-06
-7.79261e-06 1.55857e-06 -0.000616493
-0.00178281 0.000537976 -2.75136e-05
0.000537976 -0.00172814 -1.17967e-05
-2.75136e-05 -1.17967e-05 -0.00186994
0.00383991 0.00134187 -0.000147709
0.00134187 -0.000239525 -5.37976e-05
-0.000147709 -5.37976e-05 0.000210074
0.00252373 0.000159957 6.81547e-07
0.000159957 -0.00015721 -2.26114e-06
6.81547e-07 -2.26114e-06 -1.10644e-06
0.00293132 -6.06387e-05 -2.04858e-06
-6.06387e-05 0.000307285 5.33244e-07
-2.04858e-06 5.33244e-07 0.000482492
0.00293125 -0.000293107 -0.000112362
-0.000293107 -0.000945719 -1.94878e-06
-0.000112362 -1.94878e-06 -8.8083e-05
0.00154614 -0.000394791 -7.99126e-05
-0.000394791 -0.00094968 1.29493e-05
-7.99126e-05 1.29493e-05 -0.000381286
0.00206394 -0.000111778 -1.94788e-05
-0.000111778 -0.00025868 2.23019e-06
-1.94788e-05 2.23019e-06 -0.000103838
0.00252601 -0.000292703 3.38741e-06
-0.000292703 -0.000219521 -9.08606e-07
3.38741e-06 -9.08606e-07 3.74252e-05
0.00260427 6.21107e-05 -3.48503e-06
6.21107e-05 -0.000142145 1.314e-07
-3.48503e-06 1.314e-07 -1.01744e-05
0.00255325 -6.94974e-05 -1.73355e-06
-6.94974e-05 -0.000142673 -6.20387e-07
-1.73355e-06 -6.20387e-07 2.45165e-05
0.00266776 -0.000546229 -3.9535e-06
-0.000546229 -0.000190042 2.57384e-08
-3.9535e-06 2.57384e-08 -1.62037e-05
0.00246768 -0.000344684 3.28547e-07
-0.000344684 -0.000150298 -2.76497e-07
3.28547e-07 -2.76497e-07 -1.64665e-05
0.0023857 -0.000261548 8.63752e-07
-0.000261548 -5.411e-05 -1.90976e-08
8.63752e-07 -1.90976e-08 3.47091e-05
0.00247978 -0.000491127 -2.28465e-07
-0.000491127 -2.13168e-05 2.0916e-07
-2.28465e-07 2.0916e-07 1.51654e-05
0.00234398 -0.000399125 1.76002e-07
-0.000399125 -1.84267e-05 9.76494e-08
1.76002e-07 9.76494e-08 -3.18808e-06
0.00223435 -0.000337669 -1.62367e-06
-0.000337669 3.56039e-05 6.90591e-07
-1.62367e-06 6.90591e-07 1.18212e-05
0.00231104 -0.000486313 9.78663e-07
-0.000486313 5.24874e-05 -4.23665e-07
9.78663e-07 -4.23665e-07 -4.03072e-06
0.0022195 -0.000437235 4.64181e-07
-0.000437235 7.88476e-05 -5.18156e-08
4.64181e-07 -5.18156e-08 -1.92915e-06
0.0022298 -0.000413183 -3.36084e-06
-0.000413183 0.000159892 8.27486e-07
-3.36084e-06 8.27486e-07 3.24895e-05
0.00218341 -0.000515526 2.04188e-06
-0.000515526 0.000124559 -1.06872e-06
2.04188e-06 -1.06872e-06 -1.90451e-05
0.00216395 -0.00048586 -3.03979e-08
-0.00048586 0.000171611 -4.26917e-07
-3.03979e-08 -4.26917e-07 -3.62844e-06
0.00205219 -0.000431175 -2.67176e-06
-0.000431175 0.000181507 -5.32598e-07
-2.67176e-06 -5.32598e-07 -2.54334e-05
0.0021478 -0.00054395 1.04815e-06
-0.00054395 0.000206481 1.10218e-06
1.04815e-06 1.10218e-06 -6.81565e-06
0.00205199 -0.000482772 -6.81475e-07
-0.000482772 0.000240405 1.01307e-07
-6.81475e-07 1.01307e-07 -3.93441e-06
0.00125052 -0.000292639 -1.2799e-05
-0.000292639 -1.10829e-05 5.96243e-06
-1.2799e-05 5.96243e-06 -0.000231717
0.00209794 -0.000526303 4.00637e-06
-0.000526303 0.000321808 7.68545e-07
4.00637e-06 7.68545e-07 4.70769e-05
0.00129429 -0.000336295 1.18237e-07
-0.000336295 3.49801e-05 1.76161e-07
1.18237e-07 1.76161e-07 -0.000208729
0.00286774 -0.000225972 -5.54651e-05
-0.000225972 0.00137157 1.42762e-05
-5.54651e-05 1.42762e-05 0.0012485
0.00255155 -0.000127683 -0.000291043
-0.000127683 0.00127939 4.32417e-05
-0.000291043 4.32417e-05 0.00126113
0.00164172 -0.00024541 -1.62468e-05
-0.00024541 0.000606294 1.96521e-07
-1.62468e-05 1.96521e-07 0.000459464
0.00127111 -0.000383235 1.85179e-05
-0.000383235 6.85712e-05 -7.46819e-06
1.85179e-05 -7.46819e-06 -0.00020569
0.00796327 -0.000107646 -1.15512e-05
-0.000107646 0.00474335 2.44634e-06
-1.15512e-05 2.44634e-06 0.00475824
0.0001584 -0.000273595 2.39635e-05
-0.000273595 -0.000319766 -2.09945e-05
2.39635e-05 -2.09945e-05 -0.000488944
0.00812297 -6.00678e-05 0.000345096
-6.00678e-05 0.00486038 -3.64094e-05
0.000345096 -3.64094e-05 0.00486937
0.00218949 0.000521024 7.11823e-08
0.000521024 0.000124198 1.5893e-06
7.11823e-08 1.5893e-06 -5.04403e-05
0.00225863 0.000677861 3.74998e-06
0.000677861 0.000306972 7.57655e-06
3.74998e-06 7.57655e-06 2.0025e-05
0.00228118 0.000776332 6.13695e-07
0.000776332 0.000410241 8.49994e-08
6.13695e-07 8.49994e-08 4.60447e-05
0.00205029 0.000657997 -4.99381e-06
0.000657997 0.000393677 5.106e-06
-4.99381e-06 5.106e-06 2.8983e-05
0.00194096 0.000759266 6.66852e-06
0.000759266 0.000361759 -7.70037e-06
6.66852e-06 -7.70037e-06 -5.48032e-05
0.00179956 0.000652637 1.71957e-09
0.000652637 0.000344342 9.27648e-07
1.71957e-09 9.27648e-07 -5.47899e-05
0.000751894 0.000355547 -2.65228e-05
0.000355547 -0.000124857 -4.87224e-06
-2.65228e-05 -4.87224e-06 -0.000407329
0.00151378 0.000597474 9.60407e-06
0.000597474 0.000320169 -2.23712e-06
9.60407e-06 -2.23712e-06 -8.6187e-05
0.000680547 0.000300469 -7.40298e-07
0.000300469 -6.13815e-05 -3.83437e-07
-7.40298e-07 -3.83437e-07 -0.000322265
0.000342752 0.000291465 -3.01095e-05
0.000291465 -0.000164557 -2.23347e-05
-3.01095e-05 -2.23347e-05 -0.000323406
0.00039087 0.000201699 8.92523e-06
0.000201699 -0.000145121 -1.259e-06
8.92523e-06 -1.259e-06 -0.00038231
0.000385494 0.00021056 4.11677e-06
0.00021056 -0.000130647 -1.61644e-06
4.11677e-06 -1.61644e-06 -0.000256164
0.007404 -7.78671e-05 -0.000285416
-7.78671e-05 0.00446365 -3.07236e-05
-0.000285416 -3.07236e-05 0.00445385
0.000510485 0.00014869 2.69456e-05
0.00014869 -2.94107e-05 1.98093e-05
2.69456e-05 1.98093e-05 -0.000130562
0.00588337 -0.000172102 3.71479e-06
-0.000172102 0.00352582 -2.14043e-06
3.71479e-06 -2.14043e-06 0.00350365
0.00457295 -0.000213167 0.000104195
-0.000213167 0.00270796 1.42527e-05
0.000104195 1.42527e-05 0.00267421
0.00248217 0.00023905 -7.11518e-06
0.00023905 -0.000231078 -2.7683e-07
-7.11518e-06 -2.7683e-07 -2.38471e-05
0.00181131 0.000210915 1.36213e-05
0.000210915 -0.000534666 -3.46821e-06
1.36213e-05 -3.46821e-06 -9.79009e-05
0.00446172 0.00047905 -0.000135966
0.00047905 -0.000756429 -6.13069e-06
-0.000135966 -6.13069e-06 0.00037614
0.00241748 0.000628195 -2.64022e-06
0.000628195 0.000162819 1.52412e-06
-2.64022e-06 1.52412e-06 -3.87347e-06
0.00246474 0.000858494 -4.30272e-06
0.000858494 0.000378093 -4.90659e-07
-4.30272e-06 -4.90659e-07 5.53066e-05
0.00201342 0.000930323 -3.73875e-06
0.000930323 0.000243708 -1.12864e-05
-3.73875e-06 -1.12864e-05 -0.000154345
0.00239324 0.000663492 2.3241e-06
0.000663492 0.000262566 1.51847e-06
2.3241e-06 1.51847e-06 2.32194e-05
0.00245165 0.000828818 -8.62027e-07
0.000828818 0.000403868 -6.97323e-06
-8.62027e-07 -6.97323e-06 6.21154e-05
0.00262407 0.000497109 -3.10869e-07
0.000497109 -1.20749e-05 5.83143e-07
-3.10869e-07 5.83143e-07 3.36175e-05
0.00252687 0.000788167 -7.07237e-07
0.000788167 0.000147541 -1.12372e-07
-7.07237e-07 -1.12372e-07 -4.43856e-05
0.00287782 0.00101721 -4.10762e-06
0.00101721 0.000584817 -4.20537e-06
-4.10762e-06 -4.20537e-06 0.00021415
0.00218695 0.000470324 1.09131e-07
0.000470324 -0.00021597 -2.38821e-07
1.09131e-07 -2.38821e-07 -0.000141178
0.00244334 0.000932263 1.63322e-05
0.000932263 0.000158375 1.7198e-08
1.63322e-05 1.7198e-08 -7.93856e-05
-0.000256928 0.000409076 -4.44305e-05
0.000409076 -0.0013429 -1.69908e-05
-4.44305e-05 -1.69908e-05 -0.00110858
0.00248298 0.000103887 2.4292e-07
0.000103887 -0.000103285 -3.4087e-07
2.4292e-07 -3.4087e-07 2.74765e-05
0.00239844 0.000161119 -9.08932e-07
0.000161119 -0.000248108 1.387e-06
-9.08932e-07 1.387e-06 -8.86705e-05
0.00296442 -4.53163e-05 -5.87662e-05
-4.53163e-05 0.000406025 -6.24034e-06
-5.87662e-05 -6.24034e-06 0.000509972
0.00240765 -0.000292508 -2.35358e-05
-0.000292508 -0.000316671 3.98548e-06
-2.35358e-05 3.98548e-06 -2.52208e-05
0.00281222 7.68096e-05 4.23924e-07
7.68096e-05 -2.61789e-05 1.55627e-06
4.23924e-07 1.55627e-06 9.89798e-05
0.00252957 -7.91342e-05 -6.17042e-07
-7.91342e-05 -0.000172625 -7.02144e-07
-6.17042e-07 -7.02144e-07 -4.65251e-07
0.00224248 -7.54729e-05 1.44318e-07
-7.54729e-05 -7.63966e-05 -1.09324e-07
1.44318e-07 -1.09324e-07 1.58943e-07
0.00240762 -0.00032965 7.05883e-07
-0.00032965 -0.000168472 -6.43617e-07
7.05883e-07 -6.43617e-07 -4.37071e-05
0.00233888 -0.000268412 -2.09395e-08
-0.000268412 -7.91837e-05 6.68496e-10
-2.09395e-08 6.68496e-10 2.27638e-06
0.00216892 -0.000224674 -1.46174e-07
-0.000224674 -2.18206e-05 -4.1546e-08
-1.46174e-07 -4.1546e-08 -1.31643e-05
0.00234422 -0.000396632 -4.04424e-07
-0.000396632 -1.51501e-05 2.96554e-07
-4.04424e-07 2.96554e-07 -1.93157e-06
0.0022281 -0.000337701 5.5085e-08
-0.000337701 2.77427e-05 1.92863e-07
5.5085e-08 1.92863e-07 3.93249e-06
0.00226332 -0.00032677 -4.80885e-06
-0.00032677 0.00011833 1.3574e-06
-4.80885e-06 1.3574e-06 4.23593e-05
0.00221475 -0.000438226 2.54415e-06
-0.000438226 7.12668e-05 -8.91084e-07
2.54415e-06 -8.91084e-07 -9.58135e-06
0.00216923 -0.000408187 3.12137e-07
-0.000408187 0.000120606 -3.51598e-07
3.12137e-07 -3.51598e-07 -6.31029e-06
0.00203575 -0.00035536 -1.76257e-06
-0.00035536 0.000126109 -6.28135e-07
-1.76257e-06 -6.28135e-07 -3.90457e-05
0.0021298 -0.000483172 2.3895e-06
-0.000483172 0.0001483 -3.81487e-07
2.3895e-06 -3.81487e-07 -2.69231e-05
0.00209549 -0.000433825 -6.49858e-07
-0.000433825 0.000212943 7.73038e-08
-6.49858e-07 7.73038e-08 5.77922e-06
0.00125565 -0.00025439 -9.76221e-06
-0.00025439 -2.97675e-05 4.56139e-06
-9.76221e-06 4.56139e-06 -0.000230673
0.00206823 -0.000483466 3.11051e-06
-0.000483466 0.000253905 3.7409e-07
3.11051e-06 3.7409e-07 9.7403e-06
0.00129655 -0.000296319 -1.14655e-07
-0.000296319 9.18801e-06 2.09652e-07
-1.14655e-07 2.09652e-07 -0.000210955
0.0028709 -0.000212795 -6.32389e-05
-0.000212795 0.00136938 1.38968e-05
-6.32389e-05 1.38968e-05 0.00125714
0.00130834 -0.000337761 1.52035e-05
-0.000337761 3.88837e-05 -6.792e-06
1.52035e-05 -6.792e-06 -0.000204181
0.00300826 -0.000261742 5.39468e-05
-0.000261742 0.00146384 -9.04708e-06
5.39468e-05 -9.04708e-06 0.00135009
0.00250907 -0.000157905 -0.000286839
-0.000157905 0.00126024 4.77573e-05
-0.000286839 4.77573e-05 0.00123966
0.00498487 -0.000158037 -0.000282151
-0.000158037 0.00285303 3.30072e-05
-0.000282151 3.30072e-05 0.0028503
0.00308825 -0.000324913 0.000179066
-0.000324913 0.00153661 -3.11124e-05
0.000179066 -3.11124e-05 0.00141917
0.00785866 -0.000122011 0.000346628
-0.000122011 0.00468689 -4.01793e-05
0.000346628 -4.01793e-05 0.00469832
0.00230918 0.000503753 -1.65733e-06
0.000503753 0.000152066 -2.0234e-07
-1.65733e-06 -2.0234e-07 2.87323e-05
0.00214279 0.000538319 -2.21688e-07
0.000538319 0.000200442 2.51307e-06
-2.21688e-07 2.51307e-06 -1.39052e-05
0.00221072 0.00051352 3.18659e-07
0.00051352 0.000145524 -8.72922e-07
3.18659e-07 -8.72922e-07 -2.01727e-05
0.00205349 0.000581991 -3.60006e-06
0.000581991 0.000286448 4.49708e-06
-3.60006e-06 4.49708e-06 -1.59744e-05
0.00233759 0.000686829 4.56748e-07
0.000686829 0.000342791 1.53275e-07
4.56748e-07 1.53275e-07 5.5283e-05
0.00258756 0.000800985 -1.08984e-06
0.000800985 0.000602332 -8.26649e-06
-1.08984e-06 -8.26649e-06 0.000237969
0.001962 0.000652379 8.58602e-07
0.000652379 0.000332947 3.82762e-07
8.58602e-07 3.82762e-07 -3.20382e-05
0.00124996 0.000414369 -3.0488e-05
0.000414369 9.30589e-05 -6.60211e-06
-3.0488e-05 -6.60211e-06 -0.000194393
0.00174976 0.000650656 9.59617e-06
0.000650656 0.000305245 -2.97877e-06
9.59617e-06 -2.97877e-06 -9.53788e-05
0.00100425 0.000372594 -3.30937e-06
0.000372594 2.71156e-05 1.47573e-07
-3.30937e-06 1.47573e-07 -0.000255513
0.000148641 0.000282046 -2.82102e-05
0.000282046 -0.000308275 -2.02831e-05
-2.82102e-05 -2.02831e-05 -0.000474892
0.000805372 0.000298048 1.68671e-05
0.000298048 2.85534e-05 3.32495e-06
1.68671e-05 3.32495e-06 -0.000227876
0.000235935 0.000247078 1.64192e-06
0.000247078 -0.000236451 1.40031e-06
1.64192e-06 1.40031e-06 -0.000388442
0.00815452 1.54388e-05 -0.000328827
1.54388e-05 0.00490489 -3.66501e-05
-0.000328827 -3.66501e-05 0.00490324
0.000139965 0.000171896 2.66407e-05
0.000171896 -0.000287487 2.10301e-05
2.66407e-05 2.10301e-05 -0.000407754
0.00692477 -0.000120416 6.27771e-06
-0.000120416 0.00416005 -2.65042e-06
6.27771e-06 -2.65042e-06 0.00414732
0.00551813 -0.000207251 0.0001478
-0.000207251 0.0033027 1.4581e-05
0.0001478 1.4581e-05 0.00327217
0.00252445 0.000285875 8.3758e-07
0.000285875 -8.4652e-05 5.82211e-07
8.3758e-07 5.82211e-07 3.27152e-05
0.00234901 0.00024163 2.21272e-06
0.00024163 -0.000260711 -6.9584e-07
2.21272e-06 -6.9584e-07 -5.42254e-05
0.00166203 0.00015864 -6.87588e-05
0.00015864 -0.000833451 -1.10751e-05
-6.87588e-05 -1.10751e-05 -0.000291062
0.00236251 0.000441835 1.68279e-06
0.000441835 7.19132e-07 8.33122e-07
1.68279e-06 8.33122e-07 -1.4693e-05
0.00235362 0.000620646 -9.69002e-07
0.000620646 0.000141024 3.74753e-08
-9.69002e-07 3.74753e-08 -2.33635e-05
0.00225632 0.000824252 6.94864e-06
0.000824252 0.000295879 -3.38564e-06
6.94864e-06 -3.38564e-06 -1.87758e-05
0.00243497 0.00065235 -9.99845e-07
0.00065235 0.000305267 -3.58689e-06
-9.99845e-07 -3.58689e-06 6.88825e-05
0.00255964 0.000478388 -1.19977e-06
0.000478388 -3.48555e-05 -1.53429e-07
-1.19977e-06 -1.53429e-07 1.21264e-05
0.00244457 0.00078443 -1.20295e-06
0.00078443 0.000118108 -3.23836e-07
-1.20295e-06 -3.23836e-07 -7.11586e-05
0.00204908 0.000448783 1.62627e-05
0.000448783 -0.00021661 -1.43169e-06
1.62627e-05 -1.43169e-06 -0.00014014
0.0022874 7.82435e-05 2.20062e-06
7.82435e-05 -5.62405e-05 1.3535e-07
2.20062e-06 1.3535e-07 1.06419e-05
0.00243604 0.000100119 2.32133e-07
0.000100119 -0.000117457 1.6015e-07
2.32133e-07 1.6015e-07 9.58632e-06
0.00230559 0.000167817 -8.39473e-06
0.000167817 -0.000312057 -1.16581e-06
-8.39473e-06 -1.16581e-06 -0.000149723
0.00214162 -1.30318e-05 -1.37687e-06
-1.30318e-05 -4.25699e-05 4.17574e-08
-1.37687e-06 4.17574e-08 -3.47926e-06
0.00254404 -9.48843e-05 2.45013e-06
-9.48843e-05 -0.000173979 3.27575e-07
2.45013e-06 3.27575e-07 2.6536e-06
0.00224873 -7.91743e-05 -3.54451e-07
-7.91743e-05 -7.44193e-05 4.28511e-07
-3.54451e-07 4.28511e-07 1.34895e-06
0.0021133 -0.000118844 -1.60129e-06
-0.000118844 -4.19622e-05 3.24651e-07
-1.60129e-06 3.24651e-07 -2.31994e-05
0.00229106 -0.000275173 -5.93427e-07
-0.000275173 -0.000104105 5.2309e-08
-5.93427e-07 5.2309e-08 -3.06806e-05
0.00217823 -0.000221534 8.92052e-07
-0.000221534 -1.54738e-05 -4.22256e-07
8.92052e-07 -4.22256e-07 -5.99416e-06
0.00225908 -0.000229447 -3.67053e-06
-0.000229447 8.80839e-05 3.15507e-07
-3.67053e-06 3.15507e-07 4.67165e-05
0.00222391 -0.000337403 1.92598e-06
-0.000337403 2.1278e-05 -5.08059e-07
1.92598e-06 -5.08059e-07 -2.50749e-06
0.00223543 -0.000322752 3.80962e-07
-0.000322752 0.000104625 -3.11255e-08
3.80962e-07 -3.11255e-08 2.89249e-05
0.00203454 -0.000272825 -1.07193e-06
-0.000272825 9.72612e-05 -6.34128e-07
-1.07193e-06 -6.34128e-07 -3.01322e-05
0.00210882 -0.000402887 3.67715e-06
-0.000402887 8.20216e-05 -1.43781e-06
3.67715e-06 -1.43781e-06 -4.43087e-05
0.0021014 -0.000359543 -6.17771e-07
-0.000359543 0.000167072 1.21475e-07
-6.17771e-07 1.21475e-07 1.4674e-06
0.00127616 -0.000210934 -7.2043e-06
-0.000210934 -2.78672e-05 3.08153e-06
-7.2043e-06 3.08153e-06 -0.000209594
0.00213929 -0.000436304 2.27346e-06
-0.000436304 0.000245173 2.67356e-07
2.27346e-06 2.67356e-07 3.78454e-05
0.00130389 -0.000256742 -3.19055e-07
-0.000256742 -9.11676e-06 2.693e-07
-3.19055e-07 2.693e-07 -0.000209064
0.00279985 -0.000195274 -6.94317e-05
-0.000195274 0.00132894 1.31262e-05
-6.94317e-05 1.31262e-05 0.00122373
0.00133632 -0.000299868 1.18797e-05
-0.000299868 2.5034e-05 -5.63558e-06
1.18797e-05 -5.63558e-06 -0.000194594
0.00295392 -0.00023153 4.95575e-05
-0.00023153 0.00142279 -7.07582e-06
4.95575e-05 -7.07582e-06 0.00132027
0.00251205 -0.000133935 -0.00028033
-0.000133935 0.00125248 4.1644e-05
-0.00028033 4.1644e-05 0.00123472
0.00312859 -0.000267202 0.000169892
-0.000267202 0.0015355 -3.14377e-05
0.000169892 -3.14377e-05 0.00143439
0.00210663 -9.4204e-05 -0.000113158
-9.4204e-05 0.00100358 1.7614e-05
-0.000113158 1.7614e-05 0.000967876
0.00723158 -5.92352e-05 0.000117042
-5.92352e-05 0.0042707 -7.31408e-06
0.000117042 -7.31408e-06 0.00425123
0.00229567 0.000426757 -9.55103e-07
0.000426757 0.000101238 5.95153e-08
-9.55103e-07 5.95153e-08 2.95728e-05
0.00220751 0.000478041 -3.69943e-06
0.000478041 0.000163758 -4.46147e-07
-3.69943e-06 -4.46147e-07 1.28026e-06
0.00231318 0.000503976 -3.14278e-06
0.000503976 0.000150936 -2.79656e-09
-3.14278e-06 -2.79656e-09 2.5631e-05
0.00204618 0.000496793 -2.67408e-06
0.000496793 0.000214516 1.68155e-06
-2.67408e-06 1.68155e-06 -3.6128e-05
0.00209489 0.000544069 -1.31621e-06
0.000544069 0.000148316 -2.48659e-06
-1.31621e-06 -2.48659e-06 -6.08405e-05
0.00221773 0.000504706 -3.33611e-06
0.000504706 0.000157475 -3.57995e-06
-3.33611e-06 -3.57995e-06 1.11448e-06
0.00136517 0.000379529 -2.48795e-05
0.000379529 6.11526e-05 -6.23029e-06
-2.48795e-05 -6.23029e-06 -0.000194846
0.00201059 0.000578791 1.41778e-06
0.000578791 0.000258753 4.16172e-07
1.41778e-06 4.16172e-07 -4.36302e-05
0.00240526 0.000694566 1.72063e-06
0.000694566 0.00037089 -6.82253e-06
1.72063e-06 -6.82253e-06 8.30898e-05
0.00184125 0.000644874 6.52902e-06
0.000644874 0.000249096 -4.42145e-06
6.52902e-06 -4.42145e-06 -0.000116052
0.00119743 0.00041059 -1.14054e-06
0.00041059 5.40781e-05 -7.99026e-08
-1.14054e-06 -7.99026e-08 -0.000233297
0.000296154 0.000267639 -2.54491e-05
0.000267639 -0.000234162 -1.8538e-05
-2.54491e-05 -1.8538e-05 -0.000398232
0.00112914 0.000380467 2.76788e-05
0.000380467 9.90078e-05 8.07513e-06
2.76788e-05 8.07513e-06 -0.00018189
0.000263325 0.000274279 1.07667e-06
0.000274279 -0.000231552 1.47084e-06
1.07667e-06 1.47084e-06 -0.000398085
0.00798401 0.000106266 -0.000334347
0.000106266 0.00478197 -4.28577e-05
-0.000334347 -4.28577e-05 0.00478129
0.000339163 0.000225321 2.43491e-05
0.000225321 -0.000177458 2.26128e-05
2.43491e-05 2.26128e-05 -0.000325801
0.00781788 -2.84658e-05 6.89308e-06
-2.84658e-05 0.00468699 6.69804e-08
6.89308e-06 6.69804e-08 0.00468785
0.00661706 -0.000150994 0.000210601
-0.000150994 0.00396243 1.45819e-05
0.000210601 1.45819e-05 0.00394914
0.00228834 0.000231159 8.9251e-07
0.000231159 -4.20878e-05 7.44329e-08
8.9251e-07 7.44329e-08 3.63579e-06
0.00248777 0.000291854 -6.82175e-07
0.000291854 -0.000121284 7.93753e-07
-6.82175e-07 7.93753e-07 -7.86397e-07
0.00229074 0.000241109 2.40723e-06
0.000241109 -0.000275693 3.75436e-08
2.40723e-06 3.75436e-08 -6.79938e-05
0.00235906 0.000436254 1.51679e-07
0.000436254 -3.88947e-07 2.24945e-07
1.51679e-07 2.24945e-07 -1.32788e-05
0.00230021 0.000613435 2.52158e-07
0.000613435 0.000127944 -1.37908e-06
2.52158e-07 -1.37908e-06 -3.42796e-05
0.00253022 0.000462253 2.58746e-06
0.000462253 -4.44732e-05 -4.14153e-07
2.58746e-06 -4.14153e-07 2.92566e-06
0.00218644 7.22746e-05 8.24998e-07
7.22746e-05 -2.46477e-05 1.37488e-07
8.24998e-07 1.37488e-07 7.31879e-06
0.00227343 7.61016e-05 3.89169e-07
7.61016e-05 -6.20887e-05 -2.13142e-07
3.89169e-07 -2.13142e-07 5.65287e-06
0.00236551 9.63494e-05 -8.02372e-07
9.63494e-05 -0.000149478 3.57494e-08
-8.02372e-07 3.57494e-08 -2.47323e-05
0.00215076 -1.04935e-05 -7.77862e-07
-1.04935e-05 -3.5739e-05 9.55002e-09
-7.77862e-07 9.55002e-09 1.20674e-06
0.0021118 -3.54601e-05 -4.23965e-06
-3.54601e-05 8.9448e-06 3.97251e-07
-4.23965e-06 3.97251e-07 1.86929e-05
0.00225416 -8.24891e-05 -5.92921e-07
-8.24891e-05 -7.36262e-05 1.58193e-07
-5.92921e-07 1.58193e-07 1.75428e-06
0.00213024 -0.000119191 -1.39205e-06
-0.000119191 -2.42165e-05 2.53481e-07
-1.39205e-06 2.53481e-07 -9.48506e-06
0.00216198 -0.000145285 -5.76887e-06
-0.000145285 2.67593e-05 7.39148e-07
-5.76887e-06 7.39148e-07 9.07766e-07
0.00218464 -0.000218623 2.25854e-06
-0.000218623 -1.08693e-05 -8.68427e-07
2.25854e-06 -8.68427e-07 -6.30128e-07
0.00224928 -0.000230273 2.0117e-06
-0.000230273 8.60396e-05 -4.86288e-07
2.0117e-06 -4.86288e-07 4.44445e-05
0.00203977 -0.000204415 2.85845e-07
-0.000204415 8.0006e-05 -1.91608e-07
2.85845e-07 -1.91608e-07 -2.21415e-05
0.0021982 -0.000319577 4.78072e-06
-0.000319577 8.48915e-05 -1.34119e-06
4.78072e-06 -1.34119e-06 9.28589e-06
0.00207558 -0.000276795 -4.65831e-07
-0.000276795 0.000113594 -2.53568e-07
-4.65831e-07 -2.53568e-07 -1.41569e-05
0.00123604 -0.00016713 -6.11391e-06
-0.00016713 -4.9203e-05 2.0026e-06
-6.11391e-06 2.0026e-06 -0.00021458
0.00217205 -0.000364062 2.00359e-06
-0.000364062 0.000211065 3.61015e-07
2.00359e-06 3.61015e-07 4.49741e-05
0.00129313 -0.000209904 -3.66123e-07
-0.000209904 -2.47263e-05 2.10489e-07
-3.66123e-07 2.10489e-07 -0.000205057
0.00268825 -0.000185245 -7.08267e-05
-0.000185245 0.00126713 1.11135e-05
-7.08267e-05 1.11135e-05 0.00116776
0.00135389 -0.000259334 8.92269e-06
-0.000259334 1.22859e-05 -4.1291e-06
8.92269e-06 -4.1291e-06 -0.000186697
0.00287455 -0.000193434 4.71636e-05
-0.000193434 0.00137161 -5.43918e-06
4.71636e-05 -5.43918e-06 0.00127802
0.00247385 -0.000109681 -0.000275828
-0.000109681 0.00122282 3.46153e-05
-0.000275828 3.46153e-05 0.00120668
0.00303848 -0.000221792 0.000165594
-0.000221792 0.00146797 -2.67064e-05
0.000165594 -2.67064e-05 0.00137924
0.00209231 -9.25704e-05 -0.000103147
-9.25704e-05 0.000990076 1.39175e-05
-0.000103147 1.39175e-05 0.000956433
0.00176244 -8.97955e-05 7.17097e-05
-8.97955e-05 0.000798507 -1.21071e-05
7.17097e-05 -1.21071e-05 0.000741701
0.00219642 0.000267326 -4.51783e-07
0.000267326 4.91269e-06 -4.95113e-07
-4.51783e-07 -4.95113e-07 -1.1727e-05
0.00222754 0.000390897 -4.3771e-06
0.000390897 0.000126677 -3.8175e-07
-4.3771e-06 -3.8175e-07 1.68545e-05
0.00227325 0.000427197 -3.61593e-07
0.000427197 6.75448e-05 -1.71084e-07
-3.61593e-07 -1.71084e-07 5.51652e-06
0.00211866 0.000449855 -2.85147e-07
0.000449855 0.000183574 1.33298e-06
-2.85147e-07 1.33298e-06 -2.1332e-05
0.00223379 0.000478026 -1.72502e-06
0.000478026 0.000189361 -6.09453e-07
-1.72502e-06 -6.09453e-07 2.47569e-05
0.0023177 0.000505227 2.1183e-06
0.000505227 0.000149943 -1.33039e-07
2.1183e-06 -1.33039e-07 2.22239e-05
0.00136687 0.000322523 -1.83082e-05
0.000322523 2.37577e-05 -5.26386e-06
-1.83082e-05 -5.26386e-06 -0.000200407
0.00199907 0.000500189 1.30664e-06
0.000500189 0.000175007 -6.69054e-07
1.30664e-06 -6.69054e-07 -7.02698e-05
0.00207216 0.000552433 -2.13419e-06
0.000552433 0.000112394 -6.13496e-06
-2.13419e-06 -6.13496e-06 -9.2325e-05
0.000317659 0.000214219 -2.24039e-05
0.000214219 -0.000249385 -1.57356e-05
-2.24039e-05 -1.57356e-05 -0.000396189
0.0013197 0.000374413 -2.79682e-07
0.000374413 3.72856e-05 1.27333e-07
-2.79682e-07 1.27333e-07 -0.000218518
0.00197183 0.000576015 5.48992e-06
0.000576015 0.000233557 -3.88691e-06
5.48992e-06 -3.88691e-06 -6.88919e-05
0.00121766 0.000411669 3.16673e-05
0.000411669 6.53776e-05 7.26455e-06
3.16673e-05 7.26455e-06 -0.000222497
0.000285877 0.000253939 3.87496e-07
0.000253939 -0.000236217 9.24587e-07
3.87496e-07 9.24587e-07 -0.000399948
0.00770599 0.000204239 -0.000337824
0.000204239 0.00459663 -4.73307e-05
-0.000337824 -4.73307e-05 0.00459599
0.000397706 0.000260334 2.56357e-05
0.000260334 -0.000142806 1.86154e-05
2.56357e-05 1.86154e-05 -0.000308008
0.00803294 8.33808e-05 8.53793e-06
8.33808e-05 0.0048007 1.09665e-06
8.53793e-06 1.09665e-06 0.00480876
0.00756558 -6.44933e-05 0.000275542
-6.44933e-05 0.00452259 1.95786e-05
0.000275542 1.95786e-05 0.00452379
0.00220422 0.00013991 -8.23171e-07
0.00013991 4.01597e-06 -2.0446e-07
-8.23171e-07 -2.0446e-07 2.73171e-05
0.0022672 0.000235667 6.62327e-07
0.000235667 -6.00046e-05 4.36511e-07
6.62327e-07 4.36511e-07 -1.6845e-05
0.00244422 0.000298041 9.30902e-08
0.000298041 -0.000155474 -7.85078e-07
9.30902e-08 -7.85078e-07 -3.26381e-05
0.00235632 0.00042978 4.046e-07
0.00042978 -1.26695e-06 -9.72155e-07
4.046e-07 -9.72155e-07 -1.10805e-05
0.00207916 2.83107e-05 -4.25424e-06
2.83107e-05 1.6917e-05 3.46122e-07
-4.25424e-06 3.46122e-07 7.72342e-06
0.00218428 6.34365e-05 -1.92654e-08
6.34365e-05 -2.66336e-05 -8.40358e-08
-1.92654e-08 -8.40358e-08 6.99943e-06
0.00226478 7.37659e-05 -1.50552e-06
7.37659e-05 -6.36703e-05 1.09805e-07
-1.50552e-06 1.09805e-07 4.12695e-06
0.00215767 -7.38155e-06 -1.56949e-06
-7.38155e-06 -2.9919e-05 -3.92145e-08
-1.56949e-06 -3.92145e-08 4.76706e-06
0.00211868 -2.98235e-05 -7.48498e-07
-2.98235e-05 7.9235e-06 -2.02248e-07
-7.48498e-07 -2.02248e-07 1.98433e-05
0.00200611 -6.26217e-05 -5.49488e-06
-6.26217e-05 -5.30846e-05 6.66188e-07
-5.49488e-06 6.66188e-07 -8.58678e-05
0.00214831 -0.000119732 1.88698e-06
-0.000119732 -5.64478e-06 -1.29281e-07
1.88698e-06 -1.29281e-07 4.99665e-06
0.00213413 -0.000146761 -1.80409e-06
-0.000146761 1.49596e-05 3.4338e-07
-1.80409e-06 3.4338e-07 -1.84634e-05
0.00222282 -0.000143833 -1.47407e-06
-0.000143833 0.000192259 1.89461e-07
-1.47407e-06 1.89461e-07 0.000111933
0.00225042 -0.000230397 7.533e-06
-0.000230397 9.01503e-05 -1.2999e-06
7.533e-06 -1.2999e-06 4.84901e-05
0.00206775 -0.000203523 9.96548e-07
-0.000203523 9.20509e-05 -3.94445e-07
9.96548e-07 -3.94445e-07 -9.10391e-06
0.00117487 -0.000125047 -6.97818e-06
-0.000125047 -7.40787e-05 1.39248e-06
-6.97818e-06 1.39248e-06 -0.000226826
0.00213027 -0.000279117 1.46145e-06
-0.000279117 0.000139336 -2.44556e-07
1.46145e-06 -2.44556e-07 1.16859e-05
0.00122659 -0.00016455 -1.69542e-07
-0.00016455 -5.50213e-05 -6.09071e-09
-1.69542e-07 -6.09071e-09 -0.000219183
0.00031075 -9.53323e-05 -1.81162e-05
-9.53323e-05 -0.000263819 6.50873e-06
-1.81162e-05 6.50873e-06 -0.000371514
0.00130195 -0.000208449 6.22979e-06
-0.000208449 -2.6878e-05 -2.72138e-06
6.22979e-06 -2.72138e-06 -0.00020577
0.00157447 -0.000124195 6.93486e-05
-0.000124195 0.000540427 -5.6976e-06
6.93486e-05 -5.6976e-06 0.000445975
0.00696685 -0.000180245 -0.000364623
-0.000180245 0.00411743 2.90312e-05
-0.000364623 2.90312e-05 0.00414127
0.00295462 -0.000174791 0.000161019
-0.000174791 0.00141209 -2.09032e-05
0.000161019 -2.09032e-05 0.00133252
0.00206022 -8.58898e-05 -9.32276e-05
-8.58898e-05 0.000970424 9.00257e-06
-9.32276e-05 9.00257e-06 0.000936709
0.00168095 -0.00010849 8.37431e-05
-0.00010849 0.000751671 -1.39405e-05
8.37431e-05 -1.39405e-05 0.000693762
0.00213958 0.000176837 -1.99342e-06
0.000176837 1.84639e-05 -8.65714e-07
-1.99342e-06 -8.65714e-07 3.77055e-06
0.00222277 0.000302435 -2.85397e-06
0.000302435 9.24014e-05 -4.2341e-07
-2.85397e-06 -4.2341e-07 2.05266e-05
0.00219775 0.000259868 -2.54432e-07
0.000259868 1.7725e-05 -8.55154e-08
-2.54432e-07 -8.55154e-08 -4.56226e-06
0.00209277 0.000357513 -1.06876e-06
0.000357513 0.000126788 1.31759e-06
-1.06876e-06 1.31759e-06 -2.62259e-05
0.00222552 0.000390779 5.92501e-07
0.000390779 0.000126717 3.40937e-08
5.92501e-07 3.40937e-08 1.72627e-05
0.00224944 0.000427558 1.07415e-07
0.000427558 3.30485e-05 -6.66603e-07
1.07415e-07 -6.66603e-07 -1.94716e-05
0.00140498 0.000280539 -1.28152e-05
0.000280539 3.0428e-05 -2.84756e-06
-1.28152e-05 -2.84756e-06 -0.000163745
0.00212856 0.000446372 1.62673e-06
0.000446372 0.000191939 1.84652e-07
1.62673e-06 1.84652e-07 -1.10391e-05
0.00225227 0.00047675 1.51509e-06
0.00047675 0.000210468 -1.55415e-06
1.51509e-06 -1.55415e-06 4.43509e-05
0.000336518 0.000153305 -1.92255e-05
0.000153305 -0.000256382 -1.20774e-05
-1.92255e-05 -1.20774e-05 -0.000384297
0.0013077 0.000318456 4.76066e-07
0.000318456 -9.74127e-06 5.41598e-07
4.76066e-07 5.41598e-07 -0.000230402
0.0019329 0.000500729 5.54447e-06
0.000500729 0.000124074 -3.87542e-06
5.54447e-06 -3.87542e-06 -0.000115057
0.00745706 0.000269441 -0.00034346
0.000269441 0.00443199 -4.66864e-05
-0.00034346 -4.66864e-05 0.00443377
0.000299782 0.000208385 -4.59874e-08
0.000208385 -0.000263243 7.14653e-07
-4.59874e-08 7.14653e-07 -0.00041076
0.00125604 0.000368225 2.62085e-05
0.000368225 1.72884e-06 6.73464e-06
2.62085e-05 6.73464e-06 -0.000253774
0.000224468 0.000237107 2.25376e-05
0.000237107 -0.000272081 1.82007e-05
2.25376e-05 1.82007e-05 -0.000435118
0.00774569 0.00019712 1.12493e-05
0.00019712 0.00461671 2.33285e-06
1.12493e-05 2.33285e-06 0.00462211
0.00791907 4.77923e-05 0.000332255
4.77923e-05 0.00471517 2.70282e-05
0.000332255 2.70282e-05 0.00472862
0.00206762 8.51478e-05 -5.74879e-06
8.51478e-05 1.65272e-05 -8.29619e-08
-5.74879e-06 -8.29619e-08 1.01424e-06
0.00219313 0.000135114 -8.63236e-09
0.000135114 -1.71052e-06 -3.62777e-08
-8.63236e-09 -3.62777e-08 1.9484e-05
0.00224423 0.000240022 -4.314e-07
0.000240022 -7.9724e-05 -7.17313e-08
-4.314e-07 -7.17313e-08 -3.85911e-05
0.00199425 7.77757e-06 -7.19029e-06
7.77757e-06 -3.61318e-05 3.51454e-07
-7.19029e-06 3.51454e-07 -7.81937e-05
0.002066 3.38742e-05 7.36154e-07
3.38742e-05 4.09524e-06 -1.48909e-08
7.36154e-07 -1.48909e-08 -1.60807e-06
0.00218337 5.3625e-05 -1.2689e-06
5.3625e-05 -2.82208e-05 2.64342e-08
-1.2689e-06 2.64342e-08 7.22636e-06
0.00212637 -2.44315e-05 2.33552e-06
-2.44315e-05 6.96389e-06 -2.9119e-07
2.33552e-06 -2.9119e-07 2.12941e-05
0.00204467 -6.15919e-05 -8.56994e-07
-6.15919e-05 -2.54107e-05 2.24366e-08
-8.56994e-07 2.24366e-08 -5.701e-05
0.0019831 -7.06854e-05 -2.21746e-06
-7.06854e-05 5.06511e-05 1.05168e-07
-2.21746e-06 1.05168e-07 -3.57746e-05
0.00210472 -0.00014827 3.90303e-06
-0.00014827 3.05084e-06 -4.00193e-07
3.90303e-06 -4.00193e-07 -3.80734e-05
0.00205984 -0.000143933 8.06634e-07
-0.000143933 8.75982e-05 -4.8904e-08
8.06634e-07 -4.8904e-08 -2.64157e-06
0.00140228 -8.08569e-05 -8.69036e-06
-8.08569e-05 8.708e-05 3.03305e-07
-8.69036e-06 3.03305e-07 -4.2947e-05
0.00207777 -0.000204185 1.82862e-06
-0.000204185 9.26621e-05 -7.10454e-07
1.82862e-06 -7.10454e-07 -7.96279e-06
0.00117656 -0.00012041 9.74017e-09
-0.00012041 -7.21064e-05 1.15208e-07
9.74017e-09 1.15208e-07 -0.000223608
0.000301118 -2.65663e-05 -1.6864e-05
-2.65663e-05 -0.000269492 3.2302e-06
-1.6864e-05 3.2302e-06 -0.000368779
0.00122465 -0.000160968 5.16373e-06
-0.000160968 -5.86491e-05 -1.97614e-06
5.16373e-06 -1.97614e-06 -0.000221367
0.000329543 -7.97314e-05 -4.58229e-07
-7.97314e-05 -0.000249687 5.27317e-07
-4.58229e-07 5.27317e-07 -0.00035732
0.006919 -7.08172e-05 -0.000354971
-7.08172e-05 0.00407978 1.83715e-05
-0.000354971 1.83715e-05 0.00410959
0.000410383 -8.50684e-05 1.30159e-05
-8.50684e-05 -0.000206322 -8.83252e-06
1.30159e-05 -8.83252e-06 -0.000320198
0.00442 -0.000117949 0.000153126
-0.000117949 0.00249013 -8.71246e-06
0.000153126 -8.71246e-06 0.00247454
0.00163391 -9.59689e-05 8.89818e-05
-9.59689e-05 0.000721443 -1.31923e-05
8.89818e-05 -1.31923e-05 0.000665115
0.0021236 0.000143461 -7.20124e-06
0.000143461 6.14364e-05 -6.76871e-07
-7.20124e-06 -6.76871e-07 3.90423e-05
0.00222205 0.000220178 -4.53874e-06
0.000220178 0.000106417 -5.81371e-07
-4.53874e-06 -5.81371e-07 4.45493e-05
0.00213011 0.00017079 -7.34021e-07
0.00017079 1.73784e-05 -1.98503e-07
-7.34021e-07 -1.98503e-07 2.52058e-06
0.00204388 0.000282323 -6.24517e-07
0.000282323 8.538e-05 6.46659e-07
-6.24517e-07 6.46659e-07 -4.61686e-05
0.00224519 0.000301314 -1.33468e-07
0.000301314 0.000103016 -2.13747e-07
-1.33468e-07 -2.13747e-07 3.03102e-05
0.00220074 0.000252651 1.98025e-06
0.000252651 3.19179e-05 6.88623e-07
1.98025e-06 6.88623e-07 4.01379e-06
0.00132422 0.00021833 -7.92632e-06
0.00021833 -1.14694e-05 -1.50186e-06
-7.92632e-06 -1.50186e-06 -0.000181452
0.00208245 0.000354081 2.523e-06
0.000354081 0.000133559 8.27688e-07
2.523e-06 8.27688e-07 -2.69558e-05
0.00221678 0.000390559 3.34779e-06
0.000390559 0.000121775 -3.05708e-07
3.34779e-06 -3.05708e-07 1.25467e-05
0.00033258 0.00010832 -1.73431e-05
0.00010832 -0.000262331 -8.89889e-06
-1.73431e-05 -8.89889e-06 -0.000378186
0.00136367 0.000273727 4.20898e-07
0.000273727 8.96497e-06 8.3876e-07
4.20898e-07 8.3876e-07 -0.0001831
0.00214017 0.000443497 4.1067e-06
0.000443497 0.000201573 -7.10218e-07
4.1067e-06 -7.10218e-07 1.98827e-07
0.00721678 0.000308791 -0.000356795
0.000308791 0.00428665 -4.43895e-05
-0.000356795 -4.43895e-05 0.00428894
0.000330323 0.000154609 2.93185e-07
0.000154609 -0.000264618 4.28565e-07
2.93185e-07 4.28565e-07 -0.000393881
0.00125186 0.000316205 1.83261e-05
0.000316205 -4.264e-05 4.9182e-06
1.83261e-05 4.9182e-06 -0.000260337
0.00749614 0.000289704 1.27737e-05
0.000289704 0.00446692 4.64772e-06
1.27737e-05 4.64772e-06 0.00446578
0.000300674 0.000203093 2.02763e-05
0.000203093 -0.000265514 1.59321e-05
2.02763e-05 1.59321e-05 -0.000413757
0.00775448 0.000169824 0.000353709
0.000169824 0.00460769 3.64154e-05
0.000353709 3.64154e-05 0.00462322
0.00198825 6.59515e-05 -7.31692e-06
6.59515e-05 -3.54819e-05 1.90688e-07
-7.31692e-06 1.90688e-07 -8.11619e-05
0.00207293 9.16975e-05 -1.03706e-06
9.16975e-05 2.46413e-05 -1.82472e-07
-1.03706e-06 -1.82472e-07 8.82205e-06
0.00218244 0.000130776 7.80391e-07
0.000130776 -6.24064e-06 2.05956e-07
7.80391e-07 2.05956e-07 1.25568e-05
0.00191346 -1.02768e-05 -1.66029e-06
-1.02768e-05 1.27566e-05 -1.03161e-07
-1.66029e-06 -1.03161e-07 -7.27118e-05
0.00203708 9.34971e-06 -1.00461e-06
9.34971e-06 -7.07417e-06 1.64284e-08
-1.00461e-06 1.64284e-08 -4.56369e-05
0.00205259 4.03241e-05 4.41732e-06
4.03241e-05 -8.69376e-06 1.50644e-09
4.41732e-06 1.50644e-09 -1.10265e-05
0.00209102 -6.08314e-05 3.61934e-06
-6.08314e-05 7.87821e-06 -4.56366e-07
3.61934e-06 -4.56366e-07 -2.24028e-05
0.00198601 -7.0563e-05 2.87138e-07
-7.0563e-05 5.42719e-05 2.01005e-07
2.87138e-07 2.01005e-07 -3.11217e-05
0.00133583 -3.66669e-05 -1.03172e-05
-3.66669e-05 5.49672e-05 -5.3736e-07
-1.03172e-05 -5.3736e-07 -6.74009e-05
0.00187989 -0.000143771 3.48987e-07
-0.000143771 -2.93851e-05 -2.81892e-08
3.48987e-07 -2.81892e-08 -0.000129401
0.00127219 -7.99181e-05 2.3465e-06
-7.99181e-05 -6.16376e-07 -3.03911e-07
2.3465e-06 -3.03911e-07 -0.000136377
0.000309457 -9.83063e-06 -1.74759e-05
-9.83063e-06 -0.000261389 1.59144e-06
-1.74759e-05 1.59144e-06 -0.00035594
0.00117178 -0.000117358 6.45514e-06
-0.000117358 -7.23015e-05 -1.14073e-06
6.45514e-06 -1.14073e-06 -0.00022282
0.000298554 -3.91672e-05 5.61627e-07
-3.91672e-05 -0.000270363 -2.93601e-07
5.61627e-07 -2.93601e-07 -0.000369081
0.00673373 -0.000166928 -0.000357361
-0.000166928 0.00398081 2.00662e-05
-0.000357361 2.00662e-05 0.00400364
0.000323096 -6.33266e-05 1.66211e-05
-6.33266e-05 -0.000252469 -4.94692e-06
1.66211e-05 -4.94692e-06 -0.000359075
0.00685152 -0.000107794 7.45759e-06
-0.000107794 0.00404114 8.17265e-08
7.45759e-06 8.17265e-08 0.00406997
0.00195909 -4.37498e-05 0.000272779
-4.37498e-05 0.00089711 -1.99521e-05
0.000272779 -1.99521e-05 0.000888924
0.00208976 0.000148911 -7.50875e-06
0.000148911 3.13591e-05 -5.76492e-07
-7.50875e-06 -5.76492e-07 -2.50248e-05
0.00207126 0.000144375 -1.5796e-06
0.000144375 1.62359e-05 -1.53369e-07
-1.5796e-06 -1.53369e-07 -8.05683e-07
0.00205367 0.000211583 5.85953e-07
0.000211583 8.93342e-05 6.90304e-07
5.85953e-07 6.90304e-07 -2.10923e-05
0.00222868 0.000219759 8.24632e-07
0.000219759 0.000107477 -3.18414e-09
8.24632e-07 -3.18414e-09 4.61827e-05
0.00211345 0.000164368 2.81309e-06
0.000164368 1.11116e-05 2.62631e-07
2.81309e-06 2.62631e-07 -3.74778e-06
0.00122982 0.000162803 -5.67986e-06
0.000162803 -5.12706e-05 -1.08623e-06
-5.67986e-06 -1.08623e-06 -0.000212978
0.0021043 0.000282936 3.52724e-07
0.000282936 0.000132591 -1.15061e-07
3.52724e-07 -1.15061e-07 1.22689e-06
0.00227751 0.000300256 4.17765e-06
0.000300256 0.000120338 1.11954e-06
4.17765e-06 1.11954e-06 4.69075e-05
0.000338203 7.79319e-05 -1.66021e-05
7.79319e-05 -0.00025334 -6.37764e-06
-1.66021e-05 -6.37764e-06 -0.000362455
0.00128904 0.000216369 1.64138e-06
0.000216369 -2.93627e-05 7.63229e-07
1.64138e-06 7.63229e-07 -0.000203737
0.0020935 0.00035172 1.91593e-06
0.00035172 0.000155584 -1.18747e-07
1.91593e-06 -1.18747e-07 -1.23764e-05
0.00703142 0.0003056 -0.000371269
0.0003056 0.00418058 -4.04788e-05
-0.000371269 -4.04788e-05 0.00418406
0.000350705 0.000113794 4.89037e-07
0.000113794 -0.000254312 2.01961e-07
4.89037e-07 2.01961e-07 -0.00037182
0.00131727 0.000266367 1.06373e-05
0.000266367 -1.63997e-05 3.83129e-06
1.06373e-05 3.83129e-06 -0.000206141
0.00730133 0.000335313 9.45315e-06
0.000335313 0.00435275 5.36688e-06
9.45315e-06 5.36688e-06 0.00434934
0.000336647 0.000155305 1.78516e-05
0.000155305 -0.000265257 1.26423e-05
1.78516e-05 1.26423e-05 -0.000395672
0.00755987 0.000296877 0.000365579
0.000296877 0.00450103 4.67552e-05
0.000365579 4.67552e-05 0.00450468
0.00191732 6.25383e-05 -1.0145e-07
6.25383e-05 1.81642e-05 -1.34803e-08
-1.0145e-07 -1.34803e-08 -7.17148e-05
0.00204143 6.74495e-05 -3.02899e-06
6.74495e-05 7.63958e-06 -8.71051e-08
-3.02899e-06 -8.71051e-08 -3.9097e-05
0.00207652 9.77945e-05 5.85183e-06
9.77945e-05 3.16785e-05 1.13091e-07
5.85183e-06 1.13091e-07 1.55411e-05
0.00126189 -1.26846e-05 -1.05259e-05
-1.26846e-05 1.61575e-05 -5.30445e-07
-1.05259e-05 -5.30445e-07 -0.000104118
0.00197551 -7.03552e-06 7.91359e-07
-7.03552e-06 5.83846e-05 1.02302e-07
7.91359e-07 1.02302e-07 -2.63559e-05
0.00208683 1.04114e-05 3.81882e-06
1.04114e-05 2.70966e-05 -1.84774e-07
3.81882e-06 -1.84774e-07 -7.85794e-06
0.00200442 -7.09872e-05 2.48144e-06
-7.09872e-05 6.86946e-05 2.58e-07
2.48144e-06 2.58e-07 -1.59161e-05
0.00128551 -3.85176e-05 1.77338e-06
-3.85176e-05 1.90959e-05 -1.15373e-07
1.77338e-06 -1.15373e-07 -0.000103777
0.000315124 -3.2512e-05 -1.81025e-05
-3.2512e-05 -0.00025407 5.18792e-07
-1.81025e-05 5.18792e-07 -0.000344077
0.00112416 -7.82306e-05 1.02641e-05
-7.82306e-05 -9.8284e-05 -6.55262e-07
1.02641e-05 -6.55262e-07 -0.000239897
0.000297097 1.30521e-06 1.72352e-07
1.30521e-06 -0.000270577 1.09219e-07
1.72352e-07 1.09219e-07 -0.00036367
0.00662724 -0.000135091 -0.000357351
-0.000135091 0.00391211 1.51285e-05
-0.000357351 1.51285e-05 0.00393866
0.000336603 -4.74356e-05 1.77625e-05
-4.74356e-05 -0.000243492 -3.01969e-06
1.77625e-05 -3.01969e-06 -0.000343212
0.00673154 -6.15262e-05 -2.85041e-06
-6.15262e-05 0.00396536 3.33078e-06
-2.85041e-06 3.33078e-06 0.00399692
0.00682978 -0.000122105 0.00035649
-0.000122105 0.00402922 -1.80684e-05
0.00035649 -1.80684e-05 0.004058
0.0020338 0.000136521 -8.05236e-08
0.000136521 8.75776e-05 2.5466e-07
-8.05236e-08 2.5466e-07 -9.1396e-06
0.00211986 0.000147652 -2.41979e-06
0.000147652 4.51805e-05 -2.84166e-07
-2.41979e-06 -2.84166e-07 -5.54845e-06
0.00202628 0.000145799 5.15782e-06
0.000145799 -2.45652e-05 5.13265e-07
5.15782e-06 5.13265e-07 -3.62071e-05
0.00119711 0.000113981 -8.15765e-06
0.000113981 -5.5872e-05 -4.15389e-07
-8.15765e-06 -4.15389e-07 -0.000203812
0.00208998 0.00021117 1.58101e-07
0.00021117 0.000117513 -1.51286e-07
1.58101e-07 -1.51286e-07 7.13638e-06
0.00222614 0.000218922 4.54547e-06
0.000218922 0.000102403 2.90669e-07
4.54547e-06 2.90669e-07 4.16788e-05
0.000330314 5.25799e-05 -1.61702e-05
5.25799e-05 -0.000250859 -4.21535e-06
-1.61702e-05 -4.21535e-06 -0.000354347
0.00122372 0.000165155 2.01003e-07
0.000165155 -5.0746e-05 2.1949e-07
2.01003e-07 2.1949e-07 -0.000213814
0.0021517 0.000283061 1.07506e-06
0.000283061 0.000172053 -1.18217e-06
1.07506e-06 -1.18217e-06 4.07462e-05
0.00687583 0.000251194 -0.000379373
0.000251194 0.00407953 -3.2783e-05
-0.000379373 -3.2783e-05 0.00409285
0.000347475 8.55492e-05 8.19905e-07
8.55492e-05 -0.000249081 2.1086e-07
8.19905e-07 2.1086e-07 -0.00036018
0.00123366 0.000213087 6.10366e-06
0.000213087 -6.17901e-05 2.76906e-06
6.10366e-06 2.76906e-06 -0.00024036
0.00712425 0.000324375 4.92234e-06
0.000324375 0.00424443 3.49786e-06
4.92234e-06 3.49786e-06 0.00424564
0.000370827 0.000121069 1.67959e-05
0.000121069 -0.000243714 9.7896e-06
1.67959e-05 9.7896e-06 -0.000363463
0.0074029 0.000374274 0.000378982
0.000374274 0.00442901 5.32163e-05
0.000378982 5.32163e-05 0.00441982
0.0011056 3.32759e-05 -1.1336e-05
3.32759e-05 -8.76844e-05 -5.29223e-07
-1.1336e-05 -5.29223e-07 -0.00021962
0.00201762 6.00163e-05 7.731e-07
6.00163e-05 8.45715e-05 -1.69738e-08
7.731e-07 -1.69738e-08 3.53071e-07
0.00209662 6.94128e-05 3.56092e-06
6.94128e-05 5.14332e-05 -8.47437e-08
3.56092e-06 -8.47437e-08 3.86414e-06
0.000360381 3.21677e-05 -1.87808e-05
3.21677e-05 -0.000230657 -1.19491e-06
-1.87808e-05 -1.19491e-06 -0.000311414
0.00123812 -7.69494e-06 1.35406e-06
-7.69494e-06 -2.65969e-06 -3.95532e-08
1.35406e-06 -3.95532e-08 -0.000122996
0.00202113 -2.29075e-06 2.99574e-06
-2.29075e-06 9.23491e-05 1.01829e-07
2.99574e-06 1.01829e-07 8.28359e-06
0.00122779 -3.97532e-05 1.29229e-05
-3.97532e-05 -2.2984e-05 -1.25188e-07
1.29229e-05 -1.25188e-07 -0.000146235
0.000325771 -5.98389e-06 3.98673e-07
-5.98389e-06 -0.000247568 4.18819e-07
3.98673e-07 4.18819e-07 -0.000337283
0.00648025 4.15288e-06 -0.000357907
4.15288e-06 0.00381031 2.86007e-06
-0.000357907 2.86007e-06 0.00384537
0.000304766 1.27048e-05 1.74244e-05
1.27048e-05 -0.000268206 -5.03254e-07
1.74244e-05 -5.03254e-07 -0.000359549
0.00658028 -0.000132416 -7.45447e-06
-0.000132416 0.00388433 2.21891e-06
-7.45447e-06 2.21891e-06 0.0039104
0.00666948 -4.39433e-05 0.000343459
-4.39433e-05 0.00392593 -1.00878e-05
0.000343459 -1.00878e-05 0.00395782
0.00115291 7.1011e-05 -1.0592e-05
7.1011e-05 -6.4259e-05 -6.27868e-07
-1.0592e-05 -6.27868e-07 -0.000202135
0.00208903 0.00013334 -3.53105e-07
0.00013334 0.000124097 -3.08803e-07
-3.53105e-07 -3.08803e-07 3.15553e-05
0.00213537 0.000145915 1.63105e-06
0.000145915 4.92462e-05 -3.18625e-07
1.63105e-06 -3.18625e-07 3.77901e-06
0.00275048 7.11554e-05 -0.000160974
7.11554e-05 0.00129986 -5.84303e-06
-0.000160974 -5.84303e-06 0.0012442
0.0011845 0.000114934 1.03463e-07
0.000114934 -6.2863e-05 1.82e-07
1.03463e-07 1.82e-07 -0.00021178
0.00213701 0.000211258 7.37806e-07
0.000211258 0.000152035 -8.01999e-07
7.37806e-07 -8.01999e-07 4.17024e-05
0.00674824 0.000183345 -0.000378242
0.000183345 0.00399144 -2.34646e-05
-0.000378242 -2.34646e-05 0.0040153
0.0003484 7.25053e-05 1.14081e-06
7.25053e-05 -0.000238533 5.31221e-07
1.14081e-06 5.31221e-07 -0.000344477
0.00123245 0.000167814 6.14155e-06
0.000167814 -4.27707e-05 1.45413e-06
6.14155e-06 1.45413e-06 -0.000207144
0.00698233 0.000268306 1.267e-06
0.000268306 0.00414844 1.66843e-06
1.267e-06 1.66843e-06 0.0041601
0.000365231 9.5606e-05 1.66143e-05
9.5606e-05 -0.000238228 7.58296e-06
1.66143e-05 7.58296e-06 -0.000351928
0.00721807 0.00036074 0.000384894
0.00036074 0.00431788 5.08088e-05
0.000384894 5.08088e-05 0.00431223
0.000459617 1.38806e-05 -1.46303e-05
1.38806e-05 -0.000156717 -1.95404e-06
-1.46303e-05 -1.95404e-06 -0.000246444
0.00116244 3.27973e-05 -2.28341e-07
3.27973e-05 -5.37675e-05 8.71448e-08
-2.28341e-07 8.71448e-08 -0.000181372
0.00211262 5.60778e-05 3.23575e-06
5.60778e-05 0.000147562 -1.76546e-07
3.23575e-06 -1.76546e-07 6.88728e-05
0.0062823 -0.000105021 -0.000338976
-0.000105021 0.00370437 5.27525e-06
-0.000338976 5.27525e-06 0.0037281
0.00032485 1.06959e-05 -6.67395e-07
1.06959e-05 -0.000249549 -2.15854e-07
-6.67395e-07 -2.15854e-07 -0.000332841
0.00125215 -4.09183e-06 1.32206e-05
-4.09183e-06 2.43294e-06 1.91876e-07
1.32206e-05 1.91876e-07 -0.000117812
0.000289213 2.04344e-05 1.77294e-05
2.04344e-05 -0.000272489 8.63909e-07
1.77294e-05 8.63909e-07 -0.0003608
0.00642166 -3.10787e-05 2.18341e-06
-3.10787e-05 0.00378031 -1.84205e-06
2.18341e-06 -1.84205e-06 0.00381013
0.0065662 -5.63504e-05 0.000347114
-5.63504e-05 0.00386227 -7.36414e-06
0.000347114 -7.36414e-06 0.00389492
0.00280181 2.17693e-05 -0.000153838
2.17693e-05 0.00133487 -3.04855e-06
-0.000153838 -3.04855e-06 0.00128417
0.00114939 7.41652e-05 1.20154e-08
7.41652e-05 -7.09356e-05 -7.4557e-08
1.20154e-08 -7.4557e-08 -0.000209427
0.00216598 0.000130717 1.73625e-06
0.000130717 0.000175255 -6.12393e-07
1.73625e-06 -6.12393e-07 8.71838e-05
0.00622008 -2.23829e-05 -0.000157296
-2.23829e-05 0.00366814 -8.29562e-08
-0.000157296 -8.29562e-08 0.00365815
0.000321888 6.20621e-05 6.23477e-07
6.20621e-05 -0.000249683 3.23771e-07
6.23477e-07 3.23771e-07 -0.000347915
0.00116238 0.00011637 8.26434e-06
0.00011637 -7.43614e-05 6.9153e-07
8.26434e-06 6.9153e-07 -0.00022435
0.00680336 0.000159787 -1.00118e-05
0.000159787 0.00402035 -1.87544e-06
-1.00118e-05 -1.87544e-06 0.00404532
0.000347301 9.51351e-05 1.78541e-05
9.51351e-05 -0.000239067 6.05425e-06
1.78541e-05 6.05425e-06 -0.00034659
0.00706515 0.000291593 0.000388516
0.000291593 0.00420637 4.20458e-05
0.000388516 4.20458e-05 0.00421599
0.00190958 -5.32851e-05 -0.00026284
-5.32851e-05 0.000872435 1.77083e-06
-0.00026284 1.77083e-06 0.000875568
0.0015529 3.42316e-05 -6.68096e-05
3.42316e-05 0.000535301 -1.07155e-07
-6.68096e-05 -1.07155e-07 0.000470557
0.00124006 3.52178e-05 1.21409e-05
3.52178e-05 -6.96606e-06 4.72728e-07
1.21409e-05 4.72728e-07 -0.000130165
0.00633941 -5.15634e-05 6.49963e-06
-5.15634e-05 0.00373419 3.14165e-06
6.49963e-06 3.14165e-06 0.00376363
0.000333652 -9.8398e-06 1.80788e-05
-9.8398e-06 -0.000237321 1.03469e-06
1.80788e-05 1.03469e-06 -0.000324556
0.00643328 -9.20825e-05 0.000356473
-9.20825e-05 0.00379331 -6.49542e-06
0.000356473 -6.49542e-06 0.00382223
0.00145273 2.58885e-05 -7.26337e-05
2.58885e-05 0.000610248 -1.22378e-06
-7.26337e-05 -1.22378e-06 0.000567902
0.00154001 2.33208e-05 -6.81838e-05
2.33208e-05 0.000528784 -1.82768e-06
-6.81838e-05 -1.82768e-06 0.000458532
0.00112292 7.51646e-05 1.0884e-05
7.51646e-05 -9.13298e-05 4.27776e-07
1.0884e-05 4.27776e-07 -0.000230456
0.00410053 7.697e-05 0.000133358
7.697e-05 0.00229154 4.59605e-06
0.000133358 4.59605e-06 0.00228559
0.000334408 7.23345e-05 1.85562e-05
7.23345e-05 -0.000241675 4.20519e-06
1.85562e-05 4.20519e-06 -0.000340044
0.00690257 0.000147312 0.000371331
0.000147312 0.00407459 2.54589e-05
0.000371331 2.54589e-05 0.00410341
0.00626907 -1.82461e-05 -8.36253e-06
-1.82461e-05 0.00369388 -3.63665e-06
-8.36253e-06 -3.63665e-06 0.00372162
0.000316229 5.26503e-05 1.97559e-05
5.26503e-05 -0.000258036 2.50569e-06
1.97559e-05 2.50569e-06 -0.00033826
0.00623647 3.19685e-05 0.000342586
3.19685e-05 0.00366416 1.85466e-07
0.000342586 1.85466e-07 0.00369727
0.00392382 3.70706e-05 0.000144258
3.70706e-05 0.00218503 6.17356e-06
0.000144258 6.17356e-06 0.00218214
0.000343946 1.24373e-05 1.78635e-05
1.24373e-05 -0.000233205 2.20127e-06
1.78635e-05 2.20127e-06 -0.000323393
0.00664752 1.46434e-05 0.000356902
1.46434e-05 0.00391334 1.1679e-05
0.000356902 1.1679e-05 0.00394511
0.00633346 -0.000112156 0.000342512
-0.000112156 0.0037379 -4.52542e-06
0.000342512 -4.52542e-06 0.00376183
0.00638969 1.94729e-05 0.000347297
1.94729e-05 0.00375155 6.97108e-06
0.000347297 6.97108e-06 0.00378641
