# vtk DataFile Version 2.0
Wound Healing Simulation
ASCII
DATASET UNSTRUCTURED_GRID
POINTS 3012 float
69.9759 18.75 4
67.2507 60.3285 4
69.976 18.75 2
73.0099 25.446 4
71.1327 20.9142 4
68.6801 16.6661 4
67.8188 19.9235 3.96905
67.2507 60.3286 2
71.1327 54.0858 4
68.6801 58.3339 4
65.6939 62.2254 4
65.3051 59 3.96816
74.6784 42.3946 4
73.7221 47.2057 4
69.9759 18.75 0
73.0099 25.446 2
68.6801 16.6661 2
71.1327 20.9142 2
67.8192 19.9279 2
74.6792 32.6053 4
73.7222 27.7943 4
72.1454 23.1494 4
70.6102 26.2214 3.97054
68.8799 21.956 3.96954
67.2507 14.6715 4
66.6293 17.9702 3.96805
65.6823 21.0641 3.96039
67.2507 60.3285 0
71.1327 54.0858 2
68.6801 58.3339 2
65.694 62.2255 2
65.3068 58.9936 2
72.1454 51.8506 4
69.9759 56.25 4
68.8304 53.1153 3.96941
64.0165 64.0165 4
66.6033 57.1348 3.9688
63.8779 60.7614 3.96407
63.4058 57.7295 3.95681
60.3285 67.2507 4
74.6792 42.3947 2
73.7222 47.2057 2
74.9194 39.9526 4
74.2788 44.8158 4
72.1653 42.0859 3.97313
73.0099 49.554 4
71.2457 46.5984 3.97145
73.0099 25.446 0
71.1327 20.9142 0
68.6801 16.6661 0
67.8188 19.9235 0.0309452
74.6792 32.6053 2
73.7222 27.7943 2
67.2508 14.6715 2
72.1455 23.1494 2
70.6094 26.2228 2
66.6307 17.9753 2
68.8798 21.9592 2
65.6839 21.0651 2
74.9197 35.0474 4
74.2794 30.1841 4
72.182 32.9449 3.97324
71.2749 28.4326 3.97122
69.8107 24.0588 3.96988
68.2684 26.9744 3.96421
66.6619 22.966 3.96253
65.694 12.7746 4
65.3159 16.1037 3.9675
64.5896 19.2391 3.95792
63.6104 22.1435 3.96688
71.1327 54.0858 0
65.6939 62.2254 0
68.6801 58.3339 0
65.3051 59 0.0318398
72.1455 51.8506 2
69.9759 56.25 2
68.8305 53.1115 2
64.0165 64.0165 2
66.6048 57.1288 2
63.8794 60.7539 2
63.3976 57.729 2
62.2254 65.694 4
58.8878 65.409 3.97306
69.7639 50.9904 3.96992
67.777 55.1696 3.96925
66.5395 52.1755 3.96304
62.3284 62.4221 3.96625
64.5461 55.9899 3.95913
62.1588 59.3654 3.95231
61.5856 56.5652 3.96169
58.3339 68.6801 4
60.3285 67.2508 2
73.7221 47.2057 0
74.6784 42.3946 0
74.9197 39.9526 2
74.2794 44.8159 2
72.1641 42.0848 2
73.0099 49.554 2
71.2448 46.5967 2
75 37.5 4
72.4025 39.8028 3.974
71.7792 44.3531 3.97249
69.7685 41.7852 3.96816
70.5709 48.8144 3.97076
68.8426 45.9992 3.96699
74.6792 32.6053 0
73.7222 27.7943 0
67.2507 14.6715 0
72.1454 23.1494 0
70.6102 26.2214 0.0294573
68.8799 21.956 0.0304626
66.6293 17.9702 0.0319544
65.6823 21.0641 0.0396123
74.9197 35.0474 2
74.2794 30.1841 2
72.1806 32.9451 2
71.2738 28.4336 2
65.694 12.7745 2
65.3167 16.11 2
69.8102 24.061 2
68.271 26.9752 2
64.5832 19.2414 2
66.664 22.9671 2
63.611 22.1441 2
72.4105 35.2255 3.97405
71.8009 30.6779 3.97262
69.8039 33.2774 3.9675
68.902 29.0562 3.96542
67.5217 24.9396 3.96353
65.9186 27.7105 3.9752
64.0165 10.9835 4
64.4743 23.9289 3.9702
63.8807 14.3312 3.96344
63.3979 17.4932 3.95459
62.639 20.4371 3.96387
61.6529 23.1233 3.97373
60.6769 11.106 3.96849
57.6001 11.5067 3.96336
72.1454 51.8506 0
69.9759 56.25 0
68.8304 53.1153 0.0305912
64.0165 64.0165 0
63.8779 60.7614 0.0359311
66.6033 57.1348 0.031204
63.4058 57.7295 0.0431883
62.2255 65.694 2
58.8914 65.4026 2
69.7636 50.9877 2
67.7777 55.1646 2
66.5403 52.1744 2
62.3312 62.4126 2
64.5391 55.9885 2
62.1514 59.3657 2
61.5916 56.567 2
60.6617 63.9701 3.96806
57.0192 66.7287 3.97401
57.542 63.6362 3.96725
67.4038 50.1478 3.96421
65.5884 54.1355 3.96126
64.2335 51.2835 3.97166
60.7537 60.8938 3.95528
62.5534 54.9551 3.96591
60.4248 58.0316 3.95708
59.9645 55.6076 3.96799
56.25 69.9759 4
58.3339 68.6801 2
60.3285 67.2507 0
58.9163 9.66438 3.97023
62.2254 9.30607 4
73.0099 49.554 0
74.2788 44.8158 0
71.2457 46.5984 0.0285516
72.1653 42.0859 0.0268744
74.9194 39.9526 0
75 37.5 2
72.4018 39.802 2
71.7785 44.3516 2
69.7699 41.7846 2
70.5704 48.8123 2
68.8454 45.9985 2
72.4861 37.513 3.97389
70.0142 39.6566 3.96814
69.3828 43.8983 3.96797
67.3333 41.4707 3.97662
68.1754 48.0844 3.9654
66.4144 45.3787 3.97633
74.9197 35.0474 0
74.2794 30.1841 0
72.182 32.9449 0.0267584
71.2749 28.4326 0.0287823
65.694 12.7746 0
65.3159 16.1037 0.0325016
69.8107 24.0588 0.0301217
68.2684 26.9744 0.035794
66.6619 22.966 0.037471
64.5896 19.2391 0.0420781
63.6104 22.1435 0.0331166
72.4097 35.2251 2
71.8001 30.6787 2
69.8063 33.2778 2
68.9056 29.0567 2
64.0165 10.9835 2
63.8828 14.3385 2
63.4099 17.4899 2
67.5244 24.9406 2
65.9159 27.7119 2
62.6462 20.4359 2
64.4733 23.93 2
61.6535 23.1249 2
60.6797 11.1119 2
57.5971 11.4951 2
70.0278 35.3975 3.96774
69.4195 31.1624 3.96653
67.3996 33.6228 3.97647
66.4982 29.6855 3.97635
65.2473 25.7868 3.97359
63.6652 28.3807 3.97551
62.3329 12.6607 3.96632
62.4001 24.8066 3.97442
62.1543 15.8214 3.9526
61.5479 18.8128 3.96012
60.7957 21.5328 3.97013
59.8445 23.9774 3.97424
59.2306 12.8316 3.95964
55.8668 10.2853 3.9693
56.3683 13.2124 3.96069
69.7639 50.9904 0.0300754
62.2254 65.694 0
58.8878 65.409 0.0269385
67.777 55.1696 0.0307487
66.5395 52.1755 0.0369638
62.3284 62.4221 0.0337484
62.1588 59.3654 0.0476901
64.5461 55.9899 0.0408695
61.5856 56.5652 0.0383062
60.6659 63.9632 2
57.0231 66.7231 2
57.5462 63.6458 2
67.4047 50.1467 2
65.587 54.1344 2
64.2321 51.2828 2
60.7457 60.8953 2
62.5577 54.9565 2
60.4229 58.0312 2
59.9619 55.6064 2
55.0651 67.9297 3.98101
59.2083 62.307 3.96971
55.7842 64.8474 3.96777
56.3029 62.0012 3.98008
65.0225 49.317 3.97387
63.4089 53.1818 3.96851
61.9342 50.4756 3.97349
59.1961 59.4461 3.95381
60.6609 54.1283 3.97209
58.8833 56.808 3.95994
58.7673 54.9581 3.97101
48.0962 68.5662 3.97779
50.9435 69.9295 3.9845
54.0858 71.1327 4
56.25 69.976 2
58.3339 68.6801 0
57.0548 8.33837 3.97795
60.3285 7.74928 4
58.9187 9.66972 2
62.2255 9.30602 2
70.5709 48.8144 0.029237
71.7792 44.3531 0.0275126
68.8426 45.9992 0.0330125
69.7685 41.7852 0.0318373
72.4025 39.8028 0.0259953
75 37.5 0
72.4848 37.5124 2
70.0162 39.6563 2
69.3836 43.8976 2
67.3301 41.4703 2
68.1754 48.0832 2
66.4106 45.3776 2
70.1021 37.5239 3.96801
67.5808 39.5016 3.97656
66.9442 43.4267 3.97648
65.11 41.171 3.9762
65.76 47.3406 3.97575
64.1639 44.7605 3.97565
72.4105 35.2255 0.0259493
71.8009 30.6779 0.0273777
69.8039 33.2774 0.0324955
68.902 29.0562 0.0345819
64.0165 10.9835 0
63.8807 14.3312 0.0365555
63.3979 17.4932 0.045414
67.5217 24.9396 0.0364664
65.9186 27.7105 0.0248002
64.4743 23.9289 0.0298016
62.639 20.4371 0.036131
61.6529 23.1233 0.0262702
60.6769 11.106 0.031515
57.6001 11.5067 0.0366403
70.03 35.3977 2
69.4222 31.1629 2
67.397 33.6234 2
66.4948 29.6869 2
62.3358 12.6678 2
62.1606 15.8217 2
61.5564 18.8116 2
65.2453 25.7882 2
63.6641 28.3812 2
60.7965 21.5344 2
62.3995 24.8081 2
59.8426 23.9797 2
59.229 12.8272 2
56.3643 13.2032 2
55.8668 10.2883 2
67.6224 35.5655 3.97663
66.9995 31.6709 3.97652
65.2679 33.9733 3.97634
64.1876 30.2919 3.97561
63.0672 26.5661 3.97453
61.608 28.9494 3.97508
60.7509 14.266 3.95275
60.4298 25.5689 3.97432
60.3826 17.259 3.95752
59.7947 20.0253 3.96519
59.0936 22.5202 3.97214
58.2716 24.6292 3.97399
54.0377 9.15903 3.98616
57.8312 14.4399 3.95207
54.7688 12.1168 3.9739
55.217 14.8005 3.95293
67.4038 50.1478 0.0357934
57.0192 66.7287 0.0259894
60.6617 63.9701 0.0319449
57.542 63.6362 0.0327488
65.5884 54.1355 0.0387426
64.2335 51.2835 0.0283392
60.7537 60.8938 0.0447179
60.4248 58.0316 0.0429181
62.5534 54.9551 0.0340879
59.9645 55.6076 0.0320102
55.07 67.9239 2
59.205 62.3121 2
55.7886 64.8423 2
56.2995 62.0043 2
65.0202 49.3159 2
63.4091 53.1818 2
61.9335 50.4752 2
59.2212 59.4547 2
60.6599 54.1276 2
58.892 56.8098 2
58.7758 54.9593 2
53.0369 68.9955 3.98138
53.9518 65.9769 3.96949
57.8231 60.7872 3.95071
54.6507 63.0947 3.96513
55.1541 60.5086 3.97508
62.675 48.5054 3.97407
61.2734 52.3919 3.97314
59.5748 49.7685 3.97278
57.7395 58.0882 3.95621
58.7935 53.7081 3.97261
57.5628 55.5477 3.96272
50.101 67.8435 3.97362
47.4503 66.5537 3.974
46.0514 69.1469 3.98044
48.1008 68.5668 2
48.7976 70.7208 3.98701
50.9488 69.9261 2
51.8506 72.1454 4
54.0858 71.1327 2
56.25 69.9759 0
55.1012 7.14166 3.99157
58.3339 6.31992 4
57.0583 8.34325 2
60.3286 7.74926 2
58.9163 9.66438 0.029772
62.2254 9.30607 0
68.1754 48.0844 0.0345999
69.3828 43.8983 0.0320315
66.4144 45.3787 0.0236683
67.3333 41.4707 0.0233823
70.0142 39.6566 0.0318565
72.4861 37.513 0.0261096
70.1052 37.5239 2
67.5775 39.5013 2
66.9418 43.4254 2
65.1098 41.1708 2
65.7572 47.3393 2
64.1635 44.7604 2
67.6837 37.5261 3.9765
65.352 39.3528 3.97639
64.7145 42.96 3.97607
63.151 40.8756 3.97631
63.4504 46.5952 3.9748
62.145 44.1002 3.97568
70.0278 35.3975 0.0322604
69.4195 31.1624 0.0334657
67.3996 33.6228 0.0235295
66.4982 29.6855 0.0236519
62.3329 12.6607 0.03368
62.1543 15.8214 0.0474003
61.5479 18.8128 0.0398761
65.2473 25.7868 0.0264126
63.6652 28.3807 0.0244919
62.4001 24.8066 0.0255795
60.7957 21.5328 0.0298748
59.8445 23.9774 0.0257629
59.2306 12.8316 0.040357
56.3683 13.2124 0.0393054
55.8668 10.2853 0.0307027
67.6197 35.5659 2
66.997 31.672 2
65.2668 33.9735 2
64.1872 30.2921 2
60.7478 14.2672 2
60.3777 17.2608 2
59.7931 20.0276 2
63.0661 26.5671 2
61.608 28.9493 2
59.094 22.5226 2
60.4292 25.5694 2
58.267 24.632 2
57.8297 14.428 2
55.204 14.7826 2
54.0404 9.15196 2
54.7587 12.1117 2
65.4508 35.693 3.97636
64.726 32.2236 3.97572
63.735 34.3042 3.9761
61.9341 30.7701 3.9754
61.0101 27.2701 3.9746
60.07 29.3459 3.97547
59.1531 15.7919 3.95459
58.5662 26.0827 3.97474
58.7245 18.5714 3.96022
58.1759 21.1323 3.96705
57.606 23.4129 3.9725
57.1868 25.007 3.9748
52.1036 8.18687 3.96696
53.0546 11.0707 3.96956
56.5065 15.915 3.95638
53.7544 13.8073 3.95765
54.1956 16.1903 3.95564
55.0651 67.9297 0.0189907
65.0225 49.317 0.0261276
55.7842 64.8474 0.032235
59.2083 62.307 0.0302871
56.3029 62.0012 0.0199218
63.4089 53.1818 0.0314872
61.9342 50.4756 0.0265108
59.1961 59.4461 0.0461873
58.8833 56.808 0.0400563
60.6609 54.1283 0.0279127
58.7673 54.9581 0.0289864
53.0425 68.992 2
53.9561 65.9743 2
57.8246 60.7965 2
54.6474 63.0922 2
55.1511 60.5086 2
62.6744 48.5049 2
61.2731 52.3913 2
59.5749 49.7682 2
57.7432 58.09 2
58.7976 53.7077 2
57.5595 55.5452 2
52.0589 66.9767 3.97281
52.9262 64.1338 3.96742
56.4883 59.345 3.95271
53.6123 61.4631 3.96536
54.1453 59.1639 3.9633
60.2594 47.67 3.97376
59.0831 51.8564 3.97263
57.1636 49.302 3.97334
56.4034 56.7633 3.95996
56.4027 53.801 3.96735
50.1053 67.84 2
49.3193 65.8743 3.97265
47.4549 66.5461 2
46.8725 64.6696 3.97809
45.5514 67.0741 3.97814
43.9704 69.58 3.98258
46.0555 69.1478 2
46.605 71.3653 3.98862
48.0962 68.5662 0.0222095
48.8028 70.7198 2
49.554 73.0099 4
50.9435 69.9295 0.0154993
51.8506 72.1455 2
54.0858 71.1327 0
53.0628 6.08145 3.97893
55.1046 7.14369 2
56.25 5.02411 4
58.3339 6.3199 2
57.0548 8.33837 0.0220484
60.3285 7.74928 0
65.76 47.3406 0.0242529
66.9442 43.4267 0.0235168
64.1639 44.7605 0.0243469
65.11 41.171 0.0237955
67.5808 39.5016 0.0234396
70.1021 37.5239 0.0319929
67.6804 37.5261 2
65.3519 39.3529 2
64.7137 42.9597 2
63.1519 40.8758 2
63.45 46.5945 2
62.1455 44.1005 2
65.4616 37.5068 3.97629
63.2993 39.2444 3.97631
62.6975 42.4691 3.97608
61.6954 40.636 3.97649
61.2611 45.7548 3.97491
60.6479 43.5496 3.97615
67.6224 35.5655 0.0233716
66.9995 31.6709 0.0234796
65.2679 33.9733 0.0236596
64.1876 30.2919 0.0243861
60.7509 14.266 0.0472492
60.3826 17.259 0.0424785
59.7947 20.0253 0.0348135
63.0672 26.5661 0.0254707
61.608 28.9494 0.0249227
60.4298 25.5689 0.0256806
59.0936 22.5202 0.0278631
58.2716 24.6292 0.0260064
57.8312 14.4399 0.0479255
55.217 14.8005 0.0470688
54.0377 9.15903 0.0138443
54.7688 12.1168 0.026096
65.4504 35.6931 2
64.7254 32.2239 2
63.7361 34.3041 2
61.9342 30.7697 2
59.1704 15.7884 2
58.7282 18.572 2
58.1724 21.1359 2
61.0098 27.2707 2
60.0706 29.346 2
57.6018 23.4174 2
58.5637 26.0838 2
57.1818 25.0095 2
56.4924 15.9182 2
54.1973 16.1899 2
53.7377 13.792 2
52.103 8.19481 2
53.0522 11.0653 2
63.5126 35.6677 3.97611
62.2659 33.1378 3.97591
59.7719 30.798 3.97535
58.7272 28.1697 3.97496
57.6469 17.1802 3.95676
56.8631 26.0774 3.9748
57.1831 19.7607 3.96001
56.6814 22.1827 3.96863
56.3879 24.3182 3.97371
50.1045 7.31376 3.973
51.1952 10.216 3.96354
52.1246 12.8887 3.9676
55.2581 17.2035 3.95508
52.8631 15.4371 3.9632
53.5103 17.2164 3.95431
53.0369 68.9955 0.0186199
53.9518 65.9769 0.0305108
62.675 48.5054 0.0259295
54.6507 63.0947 0.0348735
57.8231 60.7872 0.0492857
55.1541 60.5086 0.0249217
61.2734 52.3919 0.0268636
59.5748 49.7685 0.0272192
57.7395 58.0882 0.0437942
57.5628 55.5477 0.0372795
58.7935 53.7081 0.0273896
52.0634 66.9724 2
52.9266 64.1308 2
56.4829 59.3451 2
53.6085 61.4575 2
54.1389 59.163 2
60.2596 47.6697 2
59.0849 51.856 2
57.1641 49.3025 2
56.3996 56.7653 2
56.3999 53.7993 2
51.1461 65.0715 3.96547
51.9914 62.4117 3.96337
55.2362 58.0598 3.95957
52.6923 59.9372 3.95785
53.469 58.2835 3.96162
57.2935 46.5509 3.97453
56.7846 51.4571 3.97263
55.2815 49.1684 3.97524
55.0121 55.5247 3.9602
54.5735 53.0331 3.96142
50.101 67.8435 0.0263793
49.3224 65.8748 2
48.5896 64.0482 3.97713
47.4503 66.5537 0.0260029
45.5535 67.0804 2
46.876 64.6668 2
46.3516 62.9717 3.98556
45.1168 65.1594 3.98116
43.6273 67.4515 3.97977
41.8587 69.8679 3.98274
43.9728 69.5815 2
44.3731 71.86 3.98946
46.0514 69.1469 0.0195588
46.6088 71.3647 2
47.2057 73.7222 4
48.7976 70.7208 0.0129872
49.554 73.0099 2
51.8506 72.1454 0
50.954 5.13671 3.9846
53.0651 6.08162 2
54.0858 3.86728 4
55.1012 7.14166 0.00842955
56.25 5.02406 2
58.3339 6.31992 0
63.4504 46.5952 0.0252023
64.7145 42.96 0.0239309
62.145 44.1002 0.0243163
63.151 40.8756 0.023692
65.352 39.3528 0.0236141
67.6837 37.5261 0.023498
65.4609 37.5069 2
63.3007 39.2447 2
62.6984 42.4689 2
61.6959 40.6361 2
61.2614 45.7544 2
60.6479 43.5496 2
63.3649 37.4632 3.97639
61.3865 39.3205 3.97667
60.3818 41.8513 3.97684
59.3466 44.5771 3.97527
65.4508 35.693 0.0236409
64.726 32.2236 0.0242752
63.735 34.3042 0.0239039
61.9341 30.7701 0.0245974
59.1531 15.7919 0.0454138
58.7245 18.5714 0.0397788
58.1759 21.1323 0.0329513
61.0101 27.2701 0.0254042
60.07 29.3459 0.0245273
58.5662 26.0827 0.0252575
57.606 23.4129 0.0274992
57.1868 25.007 0.0252012
56.5065 15.915 0.0436219
54.1956 16.1903 0.0443596
53.7544 13.8073 0.0423515
52.1036 8.18687 0.0330351
53.0546 11.0707 0.0304421
63.514 35.6676 2
62.2676 33.1381 2
59.7722 30.7979 2
57.6532 17.1799 2
57.1846 19.7614 2
56.6775 22.1875 2
58.727 28.1692 2
56.3929 24.3198 2
56.8622 26.0773 2
50.1105 7.29462 2
55.2586 17.1998 2
53.5182 17.2078 2
52.8517 15.4335 2
52.133 12.8919 2
51.1998 10.2166 2
61.4284 35.4123 3.97639
59.3727 32.8846 3.97593
57.6055 30.3291 3.97496
56.3019 27.7229 3.975
56.2301 18.4165 3.95733
55.3574 25.5069 3.97372
55.7275 20.8647 3.96152
55.3153 23.2661 3.9686
48.0563 6.536 3.97952
49.2982 9.38995 3.97255
50.3746 12.1503 3.97205
51.2823 14.6392 3.97741
54.08 18.1986 3.95942
52.1409 17.276 3.95706
52.0589 66.9767 0.0271935
52.9262 64.1338 0.0325823
60.2594 47.67 0.0262431
53.6123 61.4631 0.0346429
56.4883 59.345 0.0472938
54.1453 59.1639 0.0367038
59.0831 51.8564 0.0273668
57.1636 49.302 0.0266562
56.4034 56.7633 0.0400353
56.4027 53.801 0.0326488
51.1481 65.0689 2
51.994 62.4269 2
55.2288 58.058 2
52.6906 59.9376 2
53.4628 58.2854 2
57.2934 46.5505 2
56.7837 51.456 2
55.281 49.1678 2
55.0099 55.5245 2
54.572 53.0329 2
50.3071 63.2993 3.96971
51.1345 60.7692 3.96998
53.9203 57.0454 3.96719
52.0451 58.407 3.96504
55.4485 43.9109 3.97509
54.3558 47.4914 3.97508
54.062 50.9804 3.96559
53.4326 54.237 3.96381
49.3193 65.8743 0.0273487
48.5883 64.0639 2
47.9147 62.396 3.99
45.5514 67.0741 0.0218645
46.8725 64.6696 0.0219105
43.6292 67.4531 2
46.3524 62.9678 2
45.1216 65.1523 2
45.9449 61.4874 3.99071
44.7447 63.3862 3.97652
43.3491 65.4777 3.97931
41.6614 67.6702 3.97852
39.7014 70.015 3.98201
41.8603 69.8702 2
42.1084 72.2041 3.99032
43.9704 69.58 0.0174215
44.376 71.8597 2
44.8159 74.2794 4
46.605 71.3653 0.0113817
47.2057 73.7222 2
49.554 73.0099 0
48.7847 4.32518 3.98574
50.9545 5.13551 2
51.8506 2.85458 4
53.0628 6.08145 0.0210706
54.0858 3.86728 2
56.25 5.02411 0
61.2611 45.7548 0.0250871
62.6975 42.4691 0.0239159
60.6479 43.5496 0.0238524
61.6954 40.636 0.0235098
63.2993 39.2444 0.0236917
65.4616 37.5068 0.0237055
63.3662 37.4632 2
61.3869 39.3211 2
60.3819 41.8513 2
59.3477 44.5768 2
61.2037 37.4519 3.9768
59.2799 39.7873 3.9766
57.9292 42.7557 3.97595
63.5126 35.6677 0.0238943
62.2659 33.1378 0.0240869
59.7719 30.798 0.0246498
57.6469 17.1802 0.0432377
57.1831 19.7607 0.0399888
56.6814 22.1827 0.0313701
58.7272 28.1697 0.025039
56.8631 26.0774 0.0252034
56.3879 24.3182 0.0262858
55.2581 17.2035 0.0449207
53.5103 17.2164 0.0456907
52.8631 15.4371 0.0367977
50.1045 7.31376 0.0269985
52.1246 12.8887 0.0324041
51.1952 10.216 0.0364604
61.4288 35.4122 2
59.3723 32.8851 2
57.6058 30.3298 2
56.2317 18.4169 2
55.7454 20.861 2
55.3317 23.2675 2
56.3016 27.7229 2
55.3606 25.5119 2
48.0518 6.54622 2
49.301 9.39109 2
54.0866 18.1991 2
52.1378 17.2702 2
51.2759 14.6336 2
50.3789 12.1447 2
58.8933 35.1949 3.97634
56.8385 32.4692 3.97511
55.3884 29.6684 3.97503
54.3632 27.0374 3.97413
54.8801 19.4952 3.96055
54.0368 24.4936 3.97124
54.2895 21.9561 3.96575
45.9615 5.8967 3.9799
43.3687 7.49536 3.97905
47.3372 8.66035 3.97245
48.5587 11.4032 3.96867
49.6165 13.921 3.97837
50.4727 16.333 3.96106
52.7699 18.9854 3.95947
51.0486 18.3793 3.95312
51.1461 65.0715 0.0345339
51.9914 62.4117 0.0366302
57.2935 46.5509 0.0254697
52.6923 59.9372 0.0421542
55.2362 58.0598 0.040432
53.469 58.2835 0.038375
56.7846 51.4571 0.0273659
55.2815 49.1684 0.0247587
55.0121 55.5247 0.0397954
54.5735 53.0331 0.0385798
50.3046 63.2955 2
51.1349 60.7715 2
53.91 57.0451 2
52.0374 58.4099 2
55.4524 43.9106 2
54.3567 47.4919 2
54.0575 50.979 2
53.4253 54.2381 2
49.5176 61.6583 3.97671
54.1162 41.5541 3.97435
50.3765 59.1367 3.969
51.7514 56.2208 3.96442
52.7475 45.1393 3.97246
52.1324 48.8623 3.96967
51.8695 52.4822 3.9579
48.5896 64.0482 0.0228671
47.9132 62.3993 2
47.2627 60.9158 3.99258
43.6273 67.4515 0.0202345
45.1168 65.1594 0.0188377
46.3516 62.9717 0.0144396
41.6638 67.6723 2
43.3567 65.4775 2
45.9459 61.4914 2
44.747 63.3783 2
45.6959 60.5312 4.00421
44.4499 61.7476 3.98514
43.1316 63.6717 3.98047
41.5427 65.6168 3.97314
39.632 67.7492 3.97732
37.5261 70.0398 3.98232
39.7024 70.0155 2
39.8163 72.4015 3.99057
41.8587 69.8679 0.0172631
42.1104 72.205 2
42.3947 74.6792 4
44.3731 71.86 0.010544
44.8159 74.2794 2
47.2057 73.7222 0
43.8503 5.37036 3.97868
46.5691 3.65112 3.98717
48.7838 4.32903 2
49.554 1.99015 4
50.954 5.13671 0.0154033
51.8506 2.85453 2
54.0858 3.86728 0
59.3466 44.5771 0.0247304
60.3818 41.8513 0.0231631
61.3865 39.3205 0.0233303
63.3649 37.4632 0.023608
61.2046 37.4519 2
59.2783 39.7877 2
57.9278 42.7544 2
58.7354 37.5723 3.97676
56.8147 40.5398 3.97753
53.5004 39.6047 3.97691
61.4284 35.4123 0.0236066
59.3727 32.8846 0.024066
57.6055 30.3291 0.0250445
56.2301 18.4165 0.0426666
55.7275 20.8647 0.0384828
55.3153 23.2661 0.0314028
56.3019 27.7229 0.0250024
55.3574 25.5069 0.026281
54.08 18.1986 0.0405786
52.1409 17.276 0.0429442
51.2823 14.6392 0.0225945
48.0563 6.536 0.0204818
49.2982 9.38995 0.0274488
50.3746 12.1503 0.0279502
58.8911 35.1939 2
45.9614 5.89488 2
43.3696 7.49861 2
56.8376 32.469 2
55.3907 29.6664 2
54.8696 19.5016 2
54.3165 21.9552 2
54.0343 24.5017 2
54.363 27.0372 2
47.3397 8.65258 2
48.5615 11.3938 2
52.7681 18.9544 2
51.0524 18.3792 2
50.4803 16.3301 2
49.6124 13.9216 2
56.1362 34.8746 3.97736
54.3826 31.8107 3.97427
53.2444 28.8216 3.97573
52.7358 25.9774 3.97326
53.4608 20.4912 3.96784
52.8139 23.162 3.96963
41.3962 7.09332 3.97808
45.3482 8.01263 3.98429
42.8566 9.44953 3.97251
46.6401 10.7309 3.97342
47.6702 13.2275 3.97365
48.7777 15.5762 3.97649
49.7674 17.9678 3.9574
51.2836 19.6945 3.97681
50.3071 63.2993 0.0302911
51.1345 60.7692 0.0300167
55.4485 43.9109 0.0249096
54.3558 47.4914 0.0249194
52.0451 58.407 0.0349623
53.9203 57.0454 0.0328067
54.062 50.9804 0.0344085
53.4326 54.237 0.0361917
49.5193 61.6543 2
54.1096 41.5458 2
50.3757 59.1417 2
51.7544 56.2259 2
52.7411 45.1366 2
52.1279 48.8603 2
51.8744 52.4837 2
48.7213 60.1036 3.99619
50.6805 42.3497 3.98287
49.4929 57.4198 3.96235
50.001 54.1151 3.95856
50.4109 46.7515 3.97696
50.2265 50.525 3.95295
46.4546 43.2786 3.95579
47.9147 62.396 0.00999897
47.2682 60.9124 2
46.514 59.701 3.99334
41.6614 67.6702 0.0214831
43.3491 65.4777 0.0206853
44.7447 63.3862 0.0234783
45.9449 61.4874 0.00928953
39.6345 67.7502 2
41.5483 65.6136 2
45.7021 60.5342 2
43.1319 63.6689 2
44.4507 61.7431 2
44.5738 60.1864 3.99326
42.9241 62.0063 3.98031
41.5881 63.7827 3.9819
39.6448 65.5876 3.97586
37.563 67.732 3.97631
31.7039 65.0942 3.97259
33.3945 67.4701 3.97867
35.3345 69.951 3.98247
37.5262 70.0416 2
37.5095 72.4555 3.99111
39.7014 70.015 0.0179866
39.8176 72.4016 2
39.9526 74.9197 4
42.1084 72.2041 0.00967949
42.3947 74.6792 2
44.8159 74.2794 0
41.7354 4.97675 3.98385
43.8502 5.37069 2
44.3254 3.11348 3.98909
46.5705 3.65054 2
47.2057 1.27793 4
48.7847 4.32518 0.0142648
49.554 1.99013 2
51.8506 2.85458 0
57.9292 42.7557 0.024046
59.2799 39.7873 0.0234037
61.2037 37.4519 0.0231994
58.7365 37.5725 2
56.815 40.5414 2
53.4963 39.6068 2
55.4645 37.8839 3.97697
47.6929 41.0876 3.96637
51.2104 39.2484 3.97921
39.4395 6.81626 3.97735
58.8933 35.1949 0.0236605
56.8385 32.4692 0.0248861
55.3884 29.6684 0.0249725
54.8801 19.4952 0.0394514
54.2895 21.9561 0.0342493
54.0368 24.4936 0.0287626
54.3632 27.0374 0.0258725
52.7699 18.9854 0.0405347
51.0486 18.3793 0.0468846
50.4727 16.333 0.0389439
45.9615 5.8967 0.0200959
49.6165 13.921 0.0216301
47.3372 8.66035 0.0275481
48.5587 11.4032 0.0313316
43.3687 7.49536 0.0209496
56.1342 34.8765 2
41.3974 7.09489 2
45.349 8.0132 2
42.854 9.44901 2
54.3783 31.8102 2
53.2393 28.8228 2
53.4621 20.4986 2
52.7916 23.1748 2
52.7412 25.9757 2
46.64 10.7212 2
47.6722 13.2145 2
51.2926 19.6939 2
49.7696 17.9575 2
48.7878 15.601 2
53.2765 34.1304 3.97567
52.0013 30.8851 3.97464
51.3786 27.6935 3.975
51.2212 24.5941 3.97141
51.838 21.4739 3.97359
41.0066 9.06815 3.97591
44.7117 10.0423 3.97879
42.4455 10.9386 4.00397
45.9416 12.8131 3.97181
47.5663 14.7529 3.97576
47.9039 17.1695 3.97807
49.5307 20.0924 3.98771
49.5176 61.6583 0.0232893
50.3765 59.1367 0.0309968
54.1162 41.5541 0.0256502
52.7475 45.1393 0.0275383
52.1324 48.8623 0.0303346
51.7514 56.2208 0.0355841
51.8695 52.4822 0.0421004
48.7212 60.1023 2
50.7082 42.376 2
49.4927 57.4126 2
50.0009 54.118 2
50.4118 46.7512 2
50.2294 50.5251 2
46.4659 43.3205 2
47.809 58.5707 3.99039
48.452 44.8614 3.98254
48.194 55.6731 3.94981
48.4078 52.244 3.97658
48.5313 48.5768 3.97266
44.1055 39.6673 3.80614
44.6789 42.2288 3.85508
45.057 45.1978 3.97185
42.0314 40.9472 3.56185
41.1192 41.4192 3.36023
47.2627 60.9158 0.00742079
46.521 59.702 2
45.3574 58.675 3.99392
39.632 67.7492 0.0226777
41.5427 65.6168 0.0268628
43.1316 63.6717 0.0195315
44.4499 61.7476 0.0148557
45.6959 60.5312 -0.00420596
41.5924 63.7771 2
37.5653 67.7342 2
39.6493 65.5896 2
44.5706 60.1932 2
42.9246 61.9997 2
41.734 62.429 3.98578
42.443 59.8735 3.98811
39.8853 63.5224 3.98019
37.6407 65.4863 3.97578
35.4638 67.6414 3.97554
33.5794 65.3111 3.97359
31.9711 63.2479 3.99094
29.8962 64.6848 3.97929
31.6964 65.1034 2
31.3823 67.1836 3.97897
33.3962 67.475 2
33.1586 69.7447 3.98299
35.3342 69.9528 2
35.1967 72.3707 3.9915
37.5261 70.0398 0.017676
37.5102 72.4562 2
37.5 75 4
39.8163 72.4015 0.00943079
39.9526 74.9197 2
42.3947 74.6792 0
39.6239 4.7228 3.98529
41.735 4.97755 2
42.062 2.72029 3.98989
43.8503 5.37036 0.0213222
44.3255 3.11348 2
44.8158 0.721173 4
46.5691 3.65112 0.0128278
47.2057 1.27779 2
49.554 1.99015 0
56.8147 40.5398 0.022465
58.7354 37.5723 0.0232409
53.5004 39.6047 0.0230906
47.7378 41.1156 2
55.4624 37.8826 2
51.2267 39.2318 2
52.1526 36.6341 3.97709
45.6133 40.1986 3.87857
48.5354 38.4623 3.96385
37.5141 6.68436 3.98192
39.4405 6.81476 2
39.207 8.71658 3.98359
35.942 8.51052 3.97741
56.1362 34.8746 0.0226396
54.3826 31.8107 0.0257346
53.2444 28.8216 0.0242711
53.4608 20.4912 0.032162
52.8139 23.162 0.0303732
52.7358 25.9774 0.0267377
51.2836 19.6945 0.0231914
49.7674 17.9678 0.0425962
48.7777 15.5762 0.0235116
45.3482 8.01263 0.0157069
47.6702 13.2275 0.026351
46.6401 10.7309 0.0265814
41.3962 7.09332 0.0219238
42.8566 9.44953 0.0274855
53.2788 34.1355 2
41.0028 9.07025 2
44.7106 10.0377 2
42.4423 10.9449 2
52.0059 30.8814 2
51.381 27.6964 2
51.8315 21.4797 2
51.209 24.6054 2
45.9426 12.8007 2
47.5608 14.734 2
49.5512 20.1062 2
47.9052 17.1654 2
50.6486 33.1344 3.97483
49.808 29.6865 3.97654
49.6742 26.2144 3.97085
49.368 22.6576 3.97229
40.5537 11.6301 3.98957
43.8079 11.9673 3.9674
45.6878 15.6164 4.0026
47.2486 19.6692 3.97734
44.3702 37.5081 3.81806
48.7213 60.1036 0.00381311
49.4929 57.4198 0.0376481
50.6805 42.3497 0.0171329
50.4109 46.7515 0.0230445
50.2265 50.525 0.0470518
50.001 54.1151 0.0414364
46.4546 43.2786 0.0442123
47.8013 58.5722 2
48.467 44.8738 2
48.1891 55.6758 2
48.4079 52.2493 2
48.5353 48.5778 2
44.2263 39.6826 2
44.7155 42.2744 2
45.0638 45.2213 2
42.0976 41.0116 2
41.1632 41.4379 2
46.5972 57.1562 3.99246
42.6173 39.4011 3.55487
41.4939 40.4202 3.34167
46.747 46.8125 3.99369
46.6646 53.9487 3.95523
46.7254 50.3702 3.97226
43.7414 46.8088 3.97946
43.3603 41.6317 3.81346
43.6171 43.9923 3.84193
41.4367 42.1111 3.58309
40.2958 41.6873 3.27889
46.514 59.701 0.00666225
45.351 58.6751 2
43.7702 57.536 3.9968
37.563 67.732 0.0236914
39.6448 65.5876 0.0241353
41.5881 63.7827 0.0181009
42.9241 62.0063 0.0196908
44.5738 60.1864 0.0067361
35.4655 67.6433 2
41.7337 62.4254 2
39.8878 63.5257 2
37.6438 65.4893 2
42.4413 59.8767 2
40.6058 61.5746 3.98832
40.4112 58.0515 3.9923
37.8334 63.1743 3.97363
35.5737 65.4036 3.97491
33.5746 65.3037 2
31.9707 63.2314 2
33.6352 63.302 3.98917
30.4043 62.7862 3.98127
32.1426 61.9472 3.99039
26.932 61.3613 3.9911
28.0872 64.08 3.98834
29.8927 64.6787 2
29.4142 66.7352 3.98064
31.7039 65.0942 0.0274147
31.3838 67.1856 2
31.0169 69.4109 3.98352
33.3945 67.4701 0.0213288
33.1576 69.7476 2
32.8951 72.145 3.99121
35.3345 69.951 0.0175287
35.1963 72.3717 2
35.0474 74.9194 4
37.5095 72.4555 0.00889457
37.5 75 2
39.9526 74.9197 0
35.619 6.73691 3.97865
37.524 4.62173 3.98604
39.6232 4.72162 2
39.7889 2.47634 3.9914
41.7354 4.97675 0.0161521
42.062 2.72066 2
42.3946 0.32156 4
44.3254 3.11348 0.0109051
44.8159 0.72056 2
47.2057 1.27793 0
47.6929 41.0876 0.0336341
55.4645 37.8839 0.0230296
51.2104 39.2484 0.0207896
45.6791 40.1841 2
48.5844 38.4583 2
52.1479 36.63 2
49.3903 35.6372 3.97867
46.1592 37.6956 3.83588
44.1366 35.3132 3.80933
42.0837 34.0121 3.56225
41.1662 33.5369 3.36389
37.4571 8.54774 3.97995
37.5151 6.68457 2
39.4395 6.81626 0.0226493
39.2062 8.71891 2
38.9695 10.1548 3.9937
35.8978 9.7947 3.98138
34.1525 8.84184 3.97634
35.9407 8.51138 2
53.2765 34.1304 0.0243252
52.0013 30.8851 0.025358
51.3786 27.6935 0.025
51.838 21.4739 0.0264117
51.2212 24.5941 0.0285948
49.5307 20.0924 0.012287
47.9039 17.1695 0.0219274
47.5663 14.7529 0.0242407
44.7117 10.0423 0.0212085
45.9416 12.8131 0.0281897
41.0066 9.06815 0.0240875
42.4455 10.9386 -0.00397402
50.6731 33.117 2
40.5553 11.6462 2
43.8068 11.9457 2
49.8173 29.6821 2
49.6733 26.2311 2
49.3607 22.6416 2
45.6714 15.5571 2
47.2649 19.7147 2
48.2552 31.6945 3.97925
47.9939 28.0026 3.97541
48.5301 24.8199 3.966
46.7754 22.4849 3.99067
38.2975 12.7781 3.98035
42.0403 14.4297 3.9943
44.6002 18.7188 3.99426
42.8634 37.489 3.54741
44.4932 37.4948 2
47.809 58.5707 0.0096051
48.194 55.6731 0.0501929
48.452 44.8614 0.0174636
48.5313 48.5768 0.0273407
48.4078 52.244 0.0234173
44.1055 39.6673 0.19386
44.6789 42.2288 0.144923
45.057 45.1978 0.0281538
42.0314 40.9472 0.438145
41.1192 41.4192 0.639774
46.591 57.1615 2
42.7102 39.4164 2
41.5229 40.4248 2
46.7523 46.8163 2
46.657 53.952 2
46.7249 50.3833 2
43.7841 46.8271 2
43.4326 41.6951 2
43.6831 44.0317 2
41.4967 42.2081 2
40.3834 41.7043 2
45.0939 55.7169 4.00327
41.7975 39.02 3.35268
40.133 40.3806 3.37123
45.1001 48.4545 4.00379
44.8828 52.1723 3.99482
42.5828 47.7844 3.98693
42.4244 45.4452 3.85303
42.4771 43.2861 3.77842
40.6109 42.9781 3.55253
39.0858 41.9906 3.36957
45.3574 58.675 0.00607589
43.7645 57.5476 2
41.998 56.071 3.9954
35.4638 67.6414 0.0244611
37.6407 65.4863 0.0242217
39.8853 63.5224 0.0198055
41.734 62.429 0.0142152
42.443 59.8735 0.0118947
35.5755 65.411 2
40.6071 61.5613 2
37.8367 63.1785 2
40.4099 58.0627 2
38.9014 56.2209 3.99542
38.2389 60.2542 3.98977
35.608 63.1691 3.97502
33.5794 65.3111 0.0264104
31.9711 63.2479 0.00905839
33.6345 63.3054 2
30.4025 62.774 2
32.156 61.9338 2
28.7242 62.1113 3.98692
33.3624 61.4697 3.98981
31.1395 61.1498 4.01005
27.6872 59.4643 3.96535
23.9407 58.8983 3.97543
25.1192 60.6994 3.98293
26.9292 61.3714 2
26.27 63.4018 3.97834
28.0884 64.0881 2
27.4783 66.1553 3.97806
29.8962 64.6848 0.0207106
29.4149 66.7497 2
28.9124 68.9303 3.98096
31.3823 67.1836 0.0210323
31.0152 69.4122 2
30.6186 71.7772 3.99083
33.1586 69.7447 0.0170102
32.8937 72.1462 2
32.6054 74.6784 4
35.1967 72.3707 0.0085048
35.0474 74.9197 2
37.5 75 0
33.722 6.99324 3.97721
35.4364 4.69183 3.98559
35.62 6.73716 2
37.5151 2.38883 3.99159
37.5227 4.62107 2
39.6239 4.7228 0.0147114
39.7885 2.47596 2
39.9526 0.0806499 4
42.062 2.72029 0.0101073
42.3947 0.320817 2
44.8158 0.721173 0
42.6596 35.5658 3.56049
41.5368 34.5223 3.32767
45.6133 40.1986 0.121426
48.5354 38.4623 0.0361512
52.1526 36.6341 0.022905
46.1989 37.7114 2
49.4362 35.6533 2
44.2548 35.2966 2
42.149 33.943 2
41.18 33.5117 2
46.5122 34.5489 3.92
43.4158 33.3256 3.80516
41.4762 32.8491 3.58621
40.3124 33.2753 3.27648
37.3074 10.6496 3.9804
37.4568 8.54774 2
37.5141 6.68436 0.0180833
39.207 8.71658 0.0164141
38.9719 10.1595 2
34.7562 10.4076 3.97451
35.902 9.79525 2
32.3816 9.3915 3.97188
34.1507 8.84297 2
35.942 8.51052 0.0225934
50.6486 33.1344 0.0251723
49.808 29.6865 0.0234612
49.6742 26.2144 0.0291504
49.368 22.6576 0.027705
47.2486 19.6692 0.0226593
45.6878 15.6164 -0.00259962
43.8079 11.9673 0.0325951
40.5537 11.6301 0.0104258
48.2749 31.6715 2
38.2942 12.7832 2
42.0529 14.4245 2
47.9853 28.0005 2
48.5289 24.8316 2
46.7667 22.4754 2
44.6177 18.7851 2
46.2668 30.0442 3.97634
46.2301 25.5271 3.97744
44.0071 21.7572 3.98233
36.592 12.9934 3.98185
38.6532 14.9463 3.98173
41.6396 18.066 3.98936
41.931 37.4557 3.35912
42.9529 37.4904 2
44.3702 37.5081 0.181943
46.5972 57.1562 0.00754422
46.6646 53.9487 0.0447738
46.747 46.8125 0.00631351
46.7254 50.3702 0.0277364
42.6173 39.4011 0.445127
43.3603 41.6317 0.186543
43.6171 43.9923 0.158065
43.7414 46.8088 0.0205372
41.4367 42.1111 0.416914
41.4939 40.4202 0.658333
40.2958 41.6873 0.721107
45.09 55.7174 2
41.83 39.0261 2
40.2329 40.3685 2
45.0976 48.4814 2
44.8736 52.1741 2
42.6337 47.8092 2
42.4952 45.5274 2
42.5332 43.3216 2
40.6841 43.0719 2
39.0352 42.0374 2
43.4118 54.1244 4.00492
40.1592 38.9207 3.40832
38.9969 40.4855 3.37483
42.9329 49.9 4.00414
41.3055 46.9171 3.90951
41.2061 44.4997 3.77823
39.3652 43.647 3.55907
37.5031 42.1555 3.44356
43.7702 57.536 0.00320028
41.9978 56.0596 2
40.2988 54.6265 3.99725
35.5737 65.4036 0.0250866
37.8334 63.1743 0.0263726
40.6058 61.5746 0.0116811
40.4112 58.0515 0.00769834
35.6097 63.1731 2
38.2405 60.2359 2
38.9012 56.2107 2
37.9668 54.9032 3.99617
36.9311 57.4597 3.99367
35.3672 60.8468 3.98466
33.6352 63.302 0.0108332
30.4043 62.7862 0.0187311
32.1426 61.9472 0.00961192
33.3779 61.462 2
28.7181 62.1241 2
31.133 61.1426 2
29.5128 60.2823 3.9801
32.3901 59.5974 3.99403
28.1799 58.2249 4.0082
27.6874 59.4714 2
25.538 58.424 3.96933
22.954 58.0415 3.96553
23.4984 60.1717 3.96958
23.9407 58.8973 2
25.1182 60.6947 2
24.4878 62.6679 3.96778
26.932 61.3613 0.00889505
26.2704 63.4147 2
25.5706 65.4439 3.97342
28.0872 64.08 0.0116586
27.4732 66.1394 2
26.8446 68.3229 3.98123
29.4142 66.7352 0.019359
28.9079 68.9338 2
28.3749 71.2606 3.98751
31.0169 69.4109 0.0164831
30.6164 71.7767 2
30.1842 74.2788 4
32.8951 72.145 0.00878744
32.6053 74.6792 2
35.0474 74.9194 0
31.7866 7.43592 3.97475
33.3489 4.93161 3.98379
33.7231 6.99396 2
35.2459 2.46484 3.99119
35.4343 4.69224 2
35.619 6.73691 0.0213498
37.5 0 4
37.5139 2.38872 2
37.524 4.62173 0.0139562
39.7889 2.47634 0.00859875
39.9526 0.0802889 2
42.3946 0.32156 0
41.8008 35.8929 3.29611
42.768 35.5515 2
40.1936 34.555 3.39433
41.5638 34.509 2
46.1592 37.6956 0.164119
49.3903 35.6372 0.0213326
44.1366 35.3132 0.190666
42.0837 34.0121 0.437755
41.1662 33.5369 0.636112
46.5625 34.5465 2
43.4787 33.2658 2
41.5211 32.7543 2
40.3745 33.2609 2
44.715 32.0427 3.87272
42.5083 31.671 3.76651
40.6451 31.9824 3.55862
39.0796 32.9773 3.37046
35.6979 11.814 3.97343
37.3143 10.6496 2
37.4571 8.54774 0.0200527
38.9695 10.1548 0.00629503
33.1055 11.2585 3.97091
34.7599 10.4044 2
35.8978 9.7947 0.0186249
30.4907 10.0533 3.97198
32.3798 9.39729 2
34.1525 8.84184 0.0236629
48.2552 31.6945 0.0207514
47.9939 28.0026 0.0245914
48.5301 24.8199 0.0339973
46.7754 22.4849 0.00932894
44.6002 18.7188 0.00573801
42.0403 14.4297 0.00569952
38.2975 12.7781 0.0196545
36.585 12.9941 2
46.2453 29.9887 2
38.6625 14.9151 2
41.6145 18.0469 2
46.2283 25.5139 2
44.004 21.754 2
44.394 28.2179 3.98902
43.2088 24.4276 4.00565
41.1224 21.1092 3.99593
35.78 14.8226 3.99333
38.605 17.8225 3.99324
40.2167 37.4082 3.44036
41.9738 37.4643 2
42.8634 37.489 0.452592
45.0939 55.7169 -0.00326518
44.8828 52.1723 0.00518281
45.1001 48.4545 -0.00379095
41.7975 39.02 0.647317
42.4771 43.2861 0.221578
42.4244 45.4452 0.146973
42.5828 47.7844 0.0130739
40.6109 42.9781 0.447467
40.133 40.3806 0.628771
39.0858 41.9906 0.630432
43.4053 54.1209 2
40.2222 38.9255 2
38.957 40.4885 2
42.9144 49.9212 2
41.303 46.9437 2
41.231 44.5519 2
37.4897 42.1771 2
39.3812 43.7443 2
41.5689 52.5764 4.00523
39.0099 38.9857 3.357
37.4955 40.5197 3.45749
35.9055 42.0135 3.36876
40.5742 49.0705 3.98742
39.535 45.1998 3.74924
37.495 43.9667 3.61062
41.998 56.071 0.00459806
40.2942 54.6307 2
38.6646 53.3674 3.99859
35.608 63.1691 0.0249757
38.2389 60.2542 0.0102275
38.9014 56.2209 0.00457632
35.3797 60.8364 2
36.9357 57.474 2
37.9589 54.8979 2
36.3258 55.0185 3.99561
34.5133 58.3835 3.9945
33.3624 61.4697 0.0101857
28.7242 62.1113 0.0130823
31.1395 61.1498 -0.0100524
32.3948 59.5913 2
29.5112 60.2867 2
30.4204 57.5775 3.9816
28.1746 58.2198 2
27.2009 56.6536 3.96352
27.6872 59.4643 0.0346501
25.5382 58.4207 2
24.1422 56.5821 3.95776
21.655 57.1634 3.95976
22.1156 59.4468 3.97163
22.958 58.0411 2
22.8043 61.8738 3.97046
23.4968 60.1728 2
23.9407 58.8983 0.0245658
25.1192 60.6994 0.0170671
24.4873 62.678 2
23.7113 64.6498 3.96445
26.27 63.4018 0.0216626
25.5663 65.4386 2
24.8186 67.583 3.97152
27.4783 66.1553 0.0219377
26.8402 68.3254 2
26.1706 70.6031 3.98811
28.9124 68.9303 0.0190393
28.3714 71.2615 2
27.7943 73.7221 4
30.6186 71.7772 0.0091668
30.1841 74.2794 2
32.6054 74.6784 0
29.8102 8.01607 3.9704
31.2542 5.34055 3.98188
31.788 7.43472 2
32.982 2.70298 3.99055
33.3465 4.93218 2
33.722 6.99324 0.02279
35.0474 0.080333 4
35.2442 2.46516 2
35.4364 4.69183 0.0144121
37.5 0 2
37.5151 2.38883 0.00841053
39.9526 0.0806499 0
40.3159 35.9623 3.45302
41.8538 35.8921 2
42.6596 35.5658 0.439508
28.5545 10.7379 3.97076
38.9834 34.5028 3.35437
40.2007 34.5461 2
41.5368 34.5223 0.672331
46.5122 34.5489 0.0800038
43.4158 33.3256 0.194837
41.4762 32.8491 0.413794
40.3124 33.2753 0.723516
44.7394 32.0093 2
42.5711 31.628 2
40.7151 31.8918 2
39.0455 32.9309 2
43.2495 30.352 3.85594
41.2236 30.4386 3.7795
39.3636 31.3168 3.56472
37.4996 32.8375 3.4408
34.1057 12.9824 3.98292
35.7014 11.8063 2
37.3074 10.6496 0.0195954
31.1999 12.0385 3.974
33.1083 11.2521 2
34.7562 10.4076 0.0254879
30.4865 10.0506 2
32.3816 9.3915 0.0281237
46.2668 30.0442 0.0236596
46.2301 25.5271 0.0225555
36.592 12.9934 0.0181528
44.0071 21.7572 0.0176702
41.6396 18.066 0.0106386
38.6532 14.9463 0.0182687
35.7658 14.8505 2
44.3883 28.2297 2
38.6172 17.8137 2
41.1441 21.0876 2
43.1971 24.4087 2
33.6442 15.9594 3.99194
42.3475 26.9925 3.96701
40.7054 23.8502 4.00299
38.3517 20.6525 3.99558
35.8235 17.7334 3.98643
39.0115 37.49 3.33409
40.2559 37.4185 2
41.931 37.4557 0.640876
43.4118 54.1244 -0.00491842
42.9329 49.9 -0.00413715
40.1592 38.9207 0.591676
41.2061 44.4997 0.221767
41.3055 46.9171 0.0904853
39.3652 43.647 0.440933
38.9969 40.4855 0.625173
37.5031 42.1555 0.55644
41.556 52.5704 2
38.9743 38.9821 2
37.4791 40.5267 2
40.5611 49.0748 2
35.9481 42.0556 2
39.5716 45.2765 2
37.4857 44.0493 2
39.6604 51.3098 3.99927
37.4929 38.9809 3.42462
36.0401 40.5094 3.36524
34.7064 41.7185 3.27459
35.6292 43.6677 3.55822
38.5614 47.8819 3.91682
37.4813 45.4879 3.78229
40.2988 54.6265 0.0027508
38.6557 53.3789 2
36.774 52.7153 3.99886
35.3672 60.8468 0.0153439
36.9311 57.4597 0.00632951
37.9668 54.9032 0.00383232
34.5088 58.3876 2
36.3304 55.0178 2
33.421 55.2062 4.00673
32.3901 59.5974 0.00597454
29.5128 60.2823 0.0199014
30.4196 57.5669 2
29.0486 55.1703 3.98505
28.1799 58.2249 -0.0081956
27.2056 56.6512 2
25.7373 54.9051 3.95728
22.3122 55.0581 3.95946
25.538 58.424 0.0306722
24.1449 56.5798 2
20.5487 56.7954 3.96173
20.8119 58.5951 3.95996
21.659 57.1638 2
21.2476 61.004 3.96643
22.1113 59.4495 2
22.954 58.0415 0.0344661
21.935 63.7399 3.96822
22.8038 61.8786 2
23.4984 60.1717 0.0304185
24.4878 62.6679 0.0322177
23.7056 64.6491 2
22.8486 66.7161 3.96939
25.5706 65.4439 0.0265761
24.8143 67.577 2
24.0147 69.8045 3.9857
26.8446 68.3229 0.0187741
26.1651 70.6024 2
25.446 73.0099 4
28.3749 71.2606 0.0124875
27.7943 73.7222 2
30.1842 74.2788 0
27.8217 8.69059 3.97173
29.156 5.88682 3.97964
29.8105 8.01383 2
30.7279 3.10058 3.98959
31.2515 5.33977 2
31.7866 7.43592 0.0252479
32.6053 0.320823 4
32.9799 2.70348 2
33.3489 4.93161 0.0162128
35.0474 0.0802903 2
35.2459 2.46484 0.00881022
37.5 0 0
38.8882 36.0054 3.3505
40.2876 35.9621 2
41.8008 35.8929 0.703892
28.5514 10.7388 2
26.6398 11.4387 3.9719
29.2461 12.6866 3.97839
37.5099 34.4801 3.45753
38.9992 34.5113 2
40.1936 34.555 0.605672
44.715 32.0427 0.127285
42.5083 31.671 0.233492
40.6451 31.9824 0.441381
39.0796 32.9773 0.629538
43.3085 30.3039 2
41.2697 30.3797 2
39.38 31.2159 2
37.5118 32.8127 2
41.636 29.0901 3.84758
39.5562 29.7653 3.77153
37.4938 31.0112 3.61358
35.9141 32.9952 3.37509
31.953 14.5413 3.98589
34.1086 12.9805 2
35.6979 11.814 0.0265744
31.1988 12.0266 2
33.1055 11.2585 0.029093
30.4907 10.0533 0.0280182
44.394 28.2179 0.0109802
43.2088 24.4276 -0.00564783
35.78 14.8226 0.00666621
41.1224 21.1092 0.00407219
38.605 17.8225 0.00676132
33.6242 15.9358 2
35.8422 17.6158 2
42.4041 26.9491 2
38.2904 20.6966 2
40.6803 23.8683 2
33.5852 17.5095 3.99048
40.1331 26.3603 3.95855
37.9836 23.6293 3.99508
35.5233 20.5012 3.99454
37.5267 37.4842 3.44584
38.9672 37.4872 2
40.2167 37.4082 0.559643
41.5689 52.5764 -0.00523343
40.5742 49.0705 0.0125831
39.0099 38.9857 0.643003
39.535 45.1998 0.250764
37.495 43.9667 0.389376
37.4955 40.5197 0.542508
35.9055 42.0135 0.631238
39.6474 51.2995 2
37.4757 38.9883 2
36.0219 40.4833 2
38.5865 47.9529 2
34.6311 41.735 2
35.6043 43.7694 2
37.4901 45.5625 2
37.6743 50.2756 3.98949
36.1165 39.0153 3.35905
34.8226 40.4159 3.395
33.8571 41.4591 3.36331
34.3902 43.0113 3.54957
35.4087 45.2793 3.78078
36.9456 47.5151 3.86738
38.6646 53.3674 0.00140633
36.802 52.6579 2
34.542 52.0686 3.9991
34.5133 58.3835 0.00550304
36.3258 55.0185 0.00438509
33.425 55.2047 2
30.9363 53.1869 3.99436
30.4204 57.5775 0.0183951
29.055 55.176 2
27.4305 53.1702 3.95262
27.2009 56.6536 0.0364812
25.749 54.9033 2
24.2268 53.1469 3.95349
21.2458 52.8628 3.95886
20.4161 55.5567 3.96002
22.3147 55.0574 2
24.1422 56.5821 0.0422426
19.6938 57.6865 3.96113
20.5411 56.7991 2
19.7872 60.0613 3.97274
20.8019 58.6006 2
21.655 57.1634 0.0402423
20.2623 62.7161 3.97079
21.254 61.0131 2
22.1156 59.4468 0.0283693
20.9554 65.7132 3.96488
21.9309 63.7332 2
22.8043 61.8738 0.0295376
23.7113 64.6498 0.0355543
22.8456 66.7096 2
21.9184 68.8678 3.98128
24.8186 67.583 0.0284797
24.01 69.8005 2
23.1494 72.1454 4
26.1706 70.6031 0.0118927
25.446 73.0099 2
27.7943 73.7221 0
25.863 9.42771 3.97146
27.0708 6.55334 3.9761
27.8209 8.67934 2
28.4903 3.64599 3.9885
29.1535 5.88771 2
29.8102 8.01607 0.0296032
30.1841 0.720592 4
30.7245 3.10066 2
31.2542 5.34055 0.0181237
32.6053 0.320817 2
32.982 2.70298 0.00945067
35.0474 0.080333 0
37.5174 35.9911 3.41138
38.8618 35.9625 2
40.3159 35.9623 0.546978
24.8043 12.1243 3.96753
23.8089 14.5448 3.97961
28.5545 10.7379 0.0292415
26.6336 11.4472 2
29.2424 12.707 2
27.3117 13.4719 3.97403
29.8282 14.2415 4
36.0028 34.5014 3.38259
37.5387 34.4634 2
38.9834 34.5028 0.645628
37.4996 32.8375 0.559205
43.2495 30.352 0.144061
41.2236 30.4386 0.220495
39.3636 31.3168 0.435283
41.6655 29.011 2
39.5683 29.6895 2
37.4994 30.9299 2
35.9573 32.9489 2
39.7355 28.3807 3.84422
37.4656 29.4634 3.76687
35.6352 31.34 3.56186
34.6874 33.298 3.28404
31.0063 16.9003 3.99694
31.944 14.5173 2
34.1057 12.9824 0.0170759
31.1999 12.0385 0.0259966
42.3475 26.9925 0.0329919
40.7054 23.8502 -0.00299415
33.6442 15.9594 0.00805999
35.8235 17.7334 0.0135652
38.3517 20.6525 0.00442056
33.5348 17.5584 2
35.4626 20.5669 2
40.1435 26.3507 2
38.0554 23.6258 2
33.0271 20.0764 3.99737
37.767 26.0357 3.95366
35.4125 23.257 4.00605
36.0666 37.4843 3.34261
37.496 37.4842 2
39.0115 37.49 0.665912
39.6604 51.3098 0.000729713
38.5614 47.8819 0.0831829
37.4929 38.9809 0.575384
37.4813 45.4879 0.217712
35.6292 43.6677 0.441781
36.0401 40.5094 0.634761
34.7064 41.7185 0.725406
37.6296 50.3112 2
36.1725 38.997 2
34.7755 40.4343 2
36.9265 47.5858 2
33.819 41.4854 2
34.3166 43.0983 2
35.3788 45.3417 2
35.5948 49.4676 3.98063
34.7389 38.9869 3.44809
33.4806 40.4723 3.3262
33.5504 42.1484 3.58367
33.8231 44.5347 3.76887
34.7235 46.6858 3.84732
36.774 52.7153 0.00113947
34.5327 52.0922 2
32.4771 50.8333 4.00485
33.421 55.2062 -0.00673031
30.94 53.184 2
29.0552 51.1846 3.98363
29.0486 55.1703 0.0149505
27.4383 53.1679 2
25.851 51.3577 3.95502
25.7373 54.9051 0.0427153
24.2336 53.149 2
22.8445 51.4091 3.95392
20.1641 51.2381 3.96568
19.5979 53.987 3.96148
21.2451 52.8613 2
18.8599 56.4807 3.96138
20.4134 55.5587 2
22.3122 55.0581 0.0405413
18.5248 58.9499 3.95346
19.6898 57.6881 2
20.5487 56.7954 0.0382683
18.6654 61.6697 3.97717
19.7938 60.0633 2
20.8119 58.5951 0.0400424
19.1505 64.5993 3.96673
20.2601 62.7189 2
21.2476 61.004 0.0335703
19.892 67.8077 3.97992
20.9494 65.7149 2
21.935 63.7399 0.031782
22.8486 66.7161 0.0306122
21.9133 68.865 2
20.9142 71.1327 4
24.0147 69.8045 0.0143031
23.1494 72.1455 2
25.446 73.0099 0
23.1256 12.9364 3.97174
23.9824 10.2054 3.96932
25.0248 7.32682 3.97207
25.8633 9.42437 2
26.2823 4.33085 3.98715
27.0675 6.55417 2
27.8217 8.69059 0.0282748
27.7943 1.27781 4
28.486 3.64793 2
29.156 5.88682 0.0203624
30.1841 0.720551 2
30.7279 3.10058 0.0104118
32.6053 0.320823 0
36.0168 35.9949 3.3622
37.5651 36.006 2
38.8882 36.0054 0.649501
24.7889 12.169 2
23.8062 14.5541 2
22.567 15.2097 3.98159
25.3941 14.0763 3.97458
24.1346 15.7986 4.008
26.6398 11.4387 0.028097
29.2461 12.6866 0.0216051
27.3244 13.4427 2
29.8155 14.261 2
28.4493 16.0003 3.98887
34.8489 34.5969 3.37907
36.0505 34.5013 2
37.5099 34.4801 0.542472
35.9141 32.9952 0.624908
37.4938 31.0112 0.386421
41.636 29.0901 0.152421
39.5562 29.7653 0.228474
39.7859 28.3199 2
37.4691 29.4181 2
35.618 31.2448 2
34.6115 33.2803 2
37.604 28.0807 3.83809
35.4588 29.7791 3.76506
34.3685 32.0041 3.55378
33.8524 33.5623 3.36404
30.3732 19.7263 3.98293
30.9628 16.9075 2
31.953 14.5413 0.0141124
40.1331 26.3603 0.0414474
37.9836 23.6293 0.00492481
33.5852 17.5095 0.00952084
35.5233 20.5012 0.0054581
33.017 20.092 2
35.3567 23.2405 2
37.7318 26.0093 2
32.6783 22.848 4.00717
35.2637 25.89 3.98027
34.7456 37.5225 3.46546
36.0575 37.5086 2
37.5267 37.4842 0.554163
37.6743 50.2756 0.0105059
36.9456 47.5151 0.13262
36.1165 39.0153 0.640946
35.4087 45.2793 0.219222
34.3902 43.0113 0.450433
34.8226 40.4159 0.605
33.8571 41.4591 0.636687
35.59 49.4769 2
34.7099 39.0007 2
33.4526 40.4727 2
34.671 46.762 2
33.4934 42.2461 2
33.7728 44.5916 2
33.683 48.5853 3.9688
33.1962 39.0858 3.29751
32.9291 40.9817 3.56127
32.5071 43.3261 3.77499
33.0727 45.6779 3.84213
34.542 52.0686 0.000897781
32.4932 50.8251 2
30.6741 49.3264 4.00306
30.9363 53.1869 0.00563903
29.0623 51.1724 2
27.42 49.544 3.97887
27.4305 53.1702 0.0473781
25.8597 51.3562 2
24.3354 49.7513 3.96905
24.2268 53.1469 0.0465081
22.8472 51.4061 2
21.5505 49.8767 3.96776
18.8632 49.9712 3.97368
18.6496 52.4453 3.96711
20.1599 51.2369 2
18.017 55.0601 3.96256
19.5913 53.9878 2
21.2458 52.8628 0.0411417
17.4337 57.6785 3.958
18.8589 56.481 2
20.4161 55.5567 0.0399755
17.2217 60.4416 3.94846
18.527 58.9518 2
19.6938 57.6865 0.0388736
17.415 63.4113 3.97226
18.6635 61.6635 2
19.7872 60.0613 0.0272582
17.9501 66.6072 3.97045
19.1409 64.5975 2
20.2623 62.7161 0.0292107
18.75 69.9759 4
19.8876 67.8021 2
20.9554 65.7132 0.0351169
21.9184 68.8678 0.0187198
20.9142 71.1327 2
23.1494 72.1454 0
21.6331 13.7549 3.9678
22.207 11.1048 3.96382
23.1248 12.929 2
23.0438 8.20066 3.97131
23.9778 10.2319 2
24.1201 5.14593 3.98593
25.02 7.32793 2
25.863 9.42771 0.0285401
25.446 1.99014 4
26.2769 4.33259 2
27.0708 6.55334 0.023904
27.7943 1.27778 2
28.4903 3.64599 0.0115037
30.1841 0.720592 0
34.8257 36.0366 3.4163
36.0585 35.9981 2
37.5174 35.9911 0.588616
21.4378 16.0144 3.95934
24.8043 12.1243 0.0324676
23.8089 14.5448 0.0203862
25.3943 14.0414 2
22.5687 15.2047 2
24.1357 15.8141 2
23.4232 16.4219 3.96664
25.4829 16.3093 3.98969
27.3117 13.4719 0.0259733
29.8282 14.2415 2.48528e-06
28.4328 16.0617 2
27.6287 19.1254 3.98929
33.4792 34.5555 3.34654
34.7551 34.6081 2
36.0028 34.5014 0.617406
34.6874 33.298 0.715963
35.6352 31.34 0.438138
37.4656 29.4634 0.233132
39.7355 28.3807 0.155782
37.563 28.0513 2
33.8138 33.5454 2
35.4449 29.7088 2
34.3062 31.9129 2
35.3381 28.1759 3.85896
33.7947 30.4686 3.7774
33.5325 32.8625 3.5884
30.0203 22.3488 4.0122
30.3482 19.743 2
31.0063 16.9003 0.00305849
37.767 26.0357 0.0463376
35.4125 23.257 -0.00605459
33.0271 20.0764 0.0026345
32.6779 22.8068 2
35.2731 25.88 2
32.3674 26.179 4.02008
33.0513 37.5132 3.34605
34.732 37.5166 2
36.0666 37.4843 0.657388
35.5948 49.4676 0.0193743
34.7235 46.6858 0.152682
34.7389 38.9869 0.551909
33.8231 44.5347 0.23113
33.5504 42.1484 0.41633
33.4806 40.4723 0.673802
33.635 48.5815 2
33.1827 39.0913 2
32.8639 41.0523 2
33.0549 45.7471 2
32.4572 43.3526 2
32.0459 47.3662 3.98291
32.3525 39.4276 3.56445
31.5989 41.6726 3.80769
31.633 44.3655 3.84226
32.4771 50.8333 -0.00485205
30.6887 49.3458 2
28.9692 47.7483 3.97229
29.0552 51.1846 0.0163656
27.4267 49.5424 2
25.8236 47.9838 3.97708
25.851 51.3577 0.0449837
24.3381 49.7491 2
22.8779 48.3091 3.97313
22.8445 51.4091 0.0460775
21.5508 49.8741 2
20.0446 48.705 3.97509
17.7386 49.0187 3.97586
17.5277 51.0918 3.97241
18.8648 49.9691 2
17.0356 53.5844 3.96817
18.6489 52.4441 2
20.1641 51.2381 0.034319
16.4088 56.2534 3.96251
18.0123 55.0608 2
19.5979 53.987 0.0385178
15.8741 59.0862 3.95521
17.4391 57.6791 2
18.8599 56.4807 0.0386215
15.7993 62.0611 3.969
17.2115 60.4459 2
18.5248 58.9499 0.0465363
16.0969 65.2987 3.9765
17.4147 63.4209 2
18.6654 61.6697 0.0228316
16.6661 68.6801 4
17.9449 66.6033 2
19.1505 64.5993 0.0332652
18.75 69.9759 2
19.892 67.8077 0.0200843
20.9142 71.1327 0
20.2922 14.7557 3.96194
21.6372 13.756 2
20.5575 12.1216 3.97061
21.1497 9.18309 3.97211
22.1974 11.1193 2
23.1256 12.9364 0.0282641
22.0211 6.08576 3.98571
23.039 8.20821 2
23.9824 10.2054 0.0306772
23.1494 2.85457 4
24.1143 5.15049 2
25.0248 7.32682 0.0279278
25.446 1.99012 2
26.2823 4.33085 0.0128523
27.7943 1.27781 0
33.1746 35.9516 3.35082
34.7601 36.037 2
36.0168 35.9949 0.637798
21.4484 16.0149 2
20.5243 17.1946 3.96268
22.2722 16.8243 3.96659
25.3941 14.0763 0.0254232
22.567 15.2097 0.0184064
24.1346 15.7986 -0.00799705
25.4811 16.3056 2
23.4272 16.4292 2
24.4246 18.7709 3.98103
27.4823 21.928 3.99027
28.4493 16.0003 0.011128
27.6105 19.1173 2
32.9233 34.0219 3.55932
33.451 34.5558 2
34.8489 34.5969 0.620935
33.8524 33.5623 0.635959
34.3685 32.0041 0.446222
35.4588 29.7791 0.234942
37.604 28.0807 0.161908
35.3184 28.1264 2
33.4866 32.7734 2
33.746 30.4024 2
33.2667 28.816 3.8702
32.5108 31.6782 3.77144
29.537 24.8346 4.0145
30.0154 22.316 2
30.3732 19.7263 0.01707
35.2637 25.89 0.0197324
32.6783 22.848 -0.00717442
32.3436 26.1358 2
30.6499 27.8351 3.99044
32.1404 37.495 3.54537
33.0268 37.5144 2
34.7456 37.5225 0.53454
33.683 48.5853 0.0312001
33.0727 45.6779 0.157868
33.1962 39.0858 0.702487
32.5071 43.3261 0.225007
32.9291 40.9817 0.438727
32.0036 47.3954 2
32.2569 39.4323 2
31.5296 41.7354 2
31.5585 44.429 2
30.4349 45.9893 3.97719
30.872 39.6868 3.81296
30.2951 42.7142 3.8663
30.6741 49.3264 -0.00306474
28.9744 47.7541 2
27.2992 46.1761 3.98677
27.42 49.544 0.0211291
25.829 47.9819 2
24.1979 46.5742 3.97608
24.3354 49.7513 0.0309524
22.8783 48.3066 2
21.1415 47.212 3.97525
21.5505 49.8767 0.0322413
20.0441 48.7044 2
18.6428 47.8423 3.97554
16.983 48.3929 3.97541
17.7385 49.0189 2
16.5773 49.8896 3.97477
15.9926 52.1542 3.97312
17.5293 51.0901 2
18.8632 49.9712 0.0263167
15.3385 54.759 3.96835
17.036 53.5833 2
18.6496 52.4453 0.0328915
14.6805 57.6047 3.96139
16.4083 56.2539 2
18.017 55.0601 0.0374385
14.2865 60.6435 3.95847
15.8724 59.0873 2
17.4337 57.6785 0.0420035
14.3399 63.8519 3.96545
15.8036 62.0657 2
17.2217 60.4416 0.0515354
14.6715 67.2507 4
16.0913 65.2907 2
17.415 63.4113 0.0277379
16.6661 68.6801 2
17.9501 66.6072 0.0295473
18.75 69.9759 0
19.0646 15.9683 3.95714
20.3 14.7456 2
19.0169 13.2492 3.96726
21.6331 13.7549 0.0322013
20.5472 12.1226 2
19.3562 10.2871 3.96998
19.9963 7.1483 3.98172
21.1433 9.18 2
22.207 11.1048 0.03618
20.9142 3.86727 4
22.0126 6.08743 2
23.0438 8.20066 0.0286852
23.1494 2.85451 2
24.1201 5.14593 0.014067
25.446 1.99014 0
32.3681 35.5709 3.54943
33.151 35.9456 2
34.8257 36.0366 0.583703
21.4378 16.0144 0.0406649
22.2844 16.8272 2
20.5376 17.1924 2
19.6012 18.6829 3.96768
21.9986 18.1707 3.98062
25.4829 16.3093 0.0103089
23.4232 16.4219 0.0333555
24.4352 18.7801 2
22.7377 20.2294 3.96973
25.0975 21.7668 3.98708
27.1897 24.0897 3.97533
27.4989 21.8336 2
27.6287 19.1254 0.0107099
31.5998 33.3377 3.80546
32.8673 33.9681 2
33.4792 34.5555 0.653455
33.5325 32.8625 0.4116
33.7947 30.4686 0.222603
35.3381 28.1759 0.141044
33.2194 28.7661 2
32.4295 31.6138 2
31.334 30.1628 3.88709
28.9483 27.0193 4.01451
29.5299 24.8231 2
30.0203 22.3488 -0.0121957
32.3674 26.179 -0.0200751
30.6483 27.8419 2
30.6265 37.4834 3.81687
32.0304 37.4955 2
33.0513 37.5132 0.65395
32.0459 47.3662 0.0170943
31.633 44.3655 0.157736
32.3525 39.4276 0.435554
31.5989 41.6726 0.192306
30.4492 46.0059 2
30.7705 39.697 2
30.2646 42.7477 2
28.8179 44.3806 3.95665
28.6258 40.3473 3.91199
28.9692 47.7483 0.0277095
27.3014 46.1739 2
25.5584 44.721 3.97911
25.8236 47.9838 0.0229158
24.1987 46.5736 2
22.2469 45.5355 3.97642
22.8779 48.3091 0.0268688
21.1423 47.2116 2
19.4355 46.4096 3.97512
20.0446 48.705 0.0249092
18.6435 47.8427 2
17.2516 47.427 3.97484
16.9846 48.3934 2
15.9526 48.7523 3.97487
17.7386 49.0187 0.0241405
16.579 49.8888 2
15.0936 50.7485 3.97417
14.2841 53.2378 3.97239
15.993 52.1533 2
17.5277 51.0918 0.0275858
13.5382 56.0305 3.96235
15.3382 54.7591 2
17.0356 53.5844 0.0318348
12.9108 59.0742 3.95108
14.6806 57.6046 2
16.4088 56.2534 0.0374939
12.687 62.2933 3.9645
14.2896 60.6473 2
15.8741 59.0862 0.0447872
12.7746 65.6939 4
14.3361 63.8437 2
15.7993 62.0611 0.0309952
14.6714 67.2507 2
16.0969 65.2987 0.0234965
16.6661 68.6801 0
17.9442 17.3745 3.95969
19.0845 15.9603 2
17.5667 14.4978 3.95602
20.2922 14.7557 0.0380552
19.009 13.2286 2
17.6619 11.5445 3.96869
20.5575 12.1216 0.0293931
19.3479 10.3075 2
18.0564 8.3435 3.97733
18.75 5.0241 4
19.988 7.15829 2
21.1497 9.18309 0.0278882
20.9142 3.86727 2
22.0211 6.08576 0.0142931
23.1494 2.85457 0
30.8724 35.327 3.80714
32.266 35.5598 2
33.1746 35.9516 0.649184
22.2722 16.8243 0.0334094
20.5243 17.1946 0.037322
22.0164 18.1593 2
19.6019 18.6781 2
18.5367 20.254 3.96931
21.3045 19.7037 3.97464
24.4246 18.7709 0.0189705
22.7479 20.227 2
25.1155 21.7284 2
23.0246 22.1105 3.97456
25.5123 23.4153 3.97266
26.5905 26.3862 3.98504
27.1896 24.0969 2
27.4823 21.928 0.00973296
30.0363 32.7437 3.86433
31.5255 33.2853 2
32.9233 34.0219 0.440682
32.5108 31.6782 0.228557
33.2667 28.816 0.129802
31.3129 30.121 2
28.4322 29.6318 4.00443
28.9404 27.0346 2
29.537 24.8346 -0.014497
30.6499 27.8351 0.00956003
28.9249 37.4364 3.83689
30.51 37.498 2
32.1404 37.495 0.454627
30.4349 45.9893 0.0228123
30.2951 42.7142 0.133703
30.872 39.6868 0.187037
28.8244 44.439 2
28.5781 40.375 2
27.0002 42.8951 3.98251
25.9722 39.3605 3.97758
27.2992 46.1761 0.0132271
25.5503 44.7304 2
23.5193 43.5914 3.97467
24.1979 46.5742 0.023924
22.2454 45.5355 2
20.2817 44.662 3.97465
21.1415 47.212 0.0247528
19.4354 46.4099 2
17.6408 45.9392 3.97494
18.6428 47.8423 0.0244643
17.2521 47.4272 2
15.7344 47.4308 3.9748
16.983 48.3929 0.0245945
15.9544 48.7523 2
14.4194 49.3284 3.97438
16.5773 49.8896 0.0252314
15.0945 50.7475 2
13.3525 51.6944 3.97419
12.4283 54.4034 3.96605
14.2845 53.2375 2
15.9926 52.1542 0.0268798
11.6449 57.4044 3.95687
13.5359 56.0309 2
15.3385 54.759 0.0316545
11.1414 60.6202 3.96358
12.9053 59.0758 2
14.6805 57.6047 0.0386136
10.9835 64.0165 4
12.6841 62.2843 2
14.2865 60.6435 0.041534
12.7745 65.694 2
14.3399 63.8519 0.0345535
14.6715 67.2507 0
16.8065 18.8925 3.96268
17.9513 17.3698 2
16.2436 15.9244 3.95626
19.0646 15.9683 0.042864
17.5708 14.4961 2
16.0333 12.8811 3.96135
19.0169 13.2492 0.0327357
17.6491 11.5407 2
16.2093 9.67076 3.96907
19.3562 10.2871 0.0300221
18.049 8.35204 2
16.6661 6.31991 4
18.75 5.02404 2
19.9963 7.1483 0.0182837
20.9142 3.86727 0
29.272 34.9655 3.87917
30.7484 35.2973 2
32.3681 35.5709 0.450572
17.277 21.6786 3.97161
21.9986 18.1707 0.0193824
19.6012 18.6829 0.0323216
21.3132 19.6999 2
18.5276 20.2469 2
20.446 21.9561 3.97373
22.7377 20.2294 0.030269
25.0975 21.7668 0.0129217
23.027 22.1088 2
25.5002 23.4604 2
23.9024 25.0416 3.97159
26.0071 29.0112 3.98387
26.5864 26.4104 2
27.1897 24.0897 0.024669
27.9203 32.0939 3.97392
29.9848 32.7218 2
31.5998 33.3377 0.19454
31.334 30.1628 0.112909
28.4394 29.5917 2
28.9483 27.0193 -0.014506
26.7118 36.8934 3.95452
28.8699 37.3954 2
30.6265 37.4834 0.183129
28.8179 44.3806 0.0433493
28.6258 40.3473 0.0880141
26.9748 42.9313 2
25.92 39.3463 2
24.7855 41.5845 3.97597
23.6673 38.5117 3.97552
25.5584 44.721 0.0208934
23.5171 43.5983 2
21.2041 42.6396 3.97446
22.2469 45.5355 0.0235805
20.2833 44.6628 2
18.0731 44.1412 3.97504
19.4355 46.4096 0.0248764
17.6411 45.9397 2
15.7064 45.8735 3.97497
17.2516 47.427 0.0251565
15.7346 47.431 2
13.9573 47.8152 3.97475
15.9526 48.7523 0.0251303
14.4203 49.328 2
12.5941 50.087 3.97428
15.0936 50.7485 0.0258288
13.3533 51.694 2
11.4231 52.7267 3.96894
10.4475 55.6617 3.95967
12.4256 54.4036 2
14.2841 53.2378 0.0276076
9.70836 58.8455 3.96657
11.6493 57.4038 2
13.5382 56.0305 0.0376543
9.30605 62.2254 4
11.1399 60.6128 2
12.9108 59.0742 0.048921
10.9835 64.0165 2
12.687 62.2933 0.0354956
12.7746 65.6939 0
15.5904 20.4184 3.96803
16.8158 18.8897 2
14.9826 17.4597 3.95856
17.9442 17.3745 0.0403054
16.2264 15.9137 2
14.4976 14.3584 3.95791
17.5667 14.4978 0.04398
16.0391 12.8797 2
14.4527 11.1216 3.96799
17.6619 11.5445 0.0313103
16.2022 9.68252 2
14.6715 7.74927 4
18.0564 8.3435 0.0226683
16.6661 6.31988 2
18.75 5.0241 0
27.2254 34.4874 3.9749
29.2292 34.977 2
30.8724 35.327 0.192863
18.5879 22.6793 3.97443
16.1681 23.2101 3.97284
17.2759 21.674 2
21.3045 19.7037 0.0253611
18.5367 20.254 0.0306924
20.4518 21.9547 2
20.6337 24.8174 3.97199
23.0246 22.1105 0.0254439
25.5123 23.4153 0.0273409
23.9042 25.0388 2
23.3869 28.3264 3.97084
25.4993 31.5695 3.98282
26.0204 28.925 2
26.5905 26.3862 0.0149624
27.8844 32.0671 2
30.0363 32.7437 0.135667
28.4322 29.6318 -0.00443292
24.3968 36.3538 3.97852
26.6572 36.9014 2
28.9249 37.4364 0.163107
27.0002 42.8951 0.0174873
25.9722 39.3605 0.0224166
24.752 41.5946 2
23.6596 38.5147 2
22.3985 40.4837 3.97531
21.6839 37.7904 3.97814
23.5193 43.5914 0.0253307
21.2049 42.6379 2
18.5751 41.9311 3.97568
20.2817 44.662 0.0253545
18.0734 44.1411 2
15.7579 44.0198 3.97515
17.6408 45.9392 0.0250622
15.706 45.8735 2
13.6534 46.129 3.97487
15.7344 47.4308 0.0251963
13.9572 47.815 2
11.985 48.4038 3.97499
14.4194 49.3284 0.0256194
12.5951 50.0865 2
10.5549 50.9819 3.97231
13.3525 51.6944 0.0258139
11.4235 52.7258 2
9.34686 53.8486 3.96193
8.39158 56.9814 3.96811
10.4502 55.6603 2
12.4283 54.4034 0.033953
7.74927 60.3285 4
9.70693 58.8395 2
11.6449 57.4044 0.0431275
9.306 62.2255 2
11.1414 60.6202 0.0364152
10.9835 64.0165 0
14.4262 21.9687 3.97238
15.5935 20.4146 2
13.7128 19.047 3.96313
16.8065 18.8925 0.0373184
14.9792 17.4532 2
13.0524 15.9344 3.95501
16.2436 15.9244 0.0437417
14.5092 14.3489 2
12.7884 12.6951 3.96637
16.0333 12.8811 0.0386497
14.4475 11.1354 2
12.7746 9.30605 4
16.2093 9.67076 0.0309308
14.6715 7.74924 2
16.6661 6.31991 0
24.8989 33.9937 3.98035
27.1989 34.435 2
29.272 34.9655 0.120827
18.4798 24.4179 3.97219
18.5959 22.6784 2
14.9812 24.693 3.97373
16.167 23.2063 2
17.277 21.6786 0.0283901
20.1964 27.5954 3.97296
20.446 21.9561 0.0262676
20.6377 24.8175 2
22.7627 31.0214 3.97375
23.9024 25.0416 0.0284096
23.3789 28.3337 2
25.4437 31.6419 2
26.0071 29.0112 0.0161302
27.9203 32.0939 0.0260788
21.7659 36.0116 3.97777
24.389 36.3699 2
26.7118 36.8934 0.0454773
24.7855 41.5845 0.0240295
23.6673 38.5117 0.0244779
22.4043 40.4857 2
21.6818 37.7886 2
19.3774 38.9563 3.97708
21.2041 42.6396 0.0255449
18.5755 41.9312 2
15.7489 41.8045 3.97585
18.0731 44.1412 0.02496
15.7574 44.0196 2
13.4122 44.2599 3.97513
15.7064 45.8735 0.025028
13.6527 46.1291 2
11.4964 46.6111 3.97526
13.9573 47.8152 0.0252469
11.9861 48.4031 2
9.82544 49.1523 3.97447
12.5941 50.087 0.0257191
10.5559 50.9807 2
8.37263 51.9683 3.96348
11.4231 52.7267 0.0310585
9.34525 53.8476 2
7.20005 55.0334 3.96926
6.31991 58.3339 4
8.39018 56.9758 2
10.4475 55.6617 0.0403271
7.74924 60.3285 2
9.70836 58.8455 0.0334292
9.30605 62.2254 0
13.8133 25.5721 3.97583
13.3156 23.4767 3.97374
14.4267 21.9647 2
12.5305 20.6852 3.96636
15.5904 20.4184 0.031974
13.7032 19.0402 2
11.7493 17.6181 3.95476
14.9826 17.4597 0.0414355
13.0688 15.9316 2
11.2273 14.3823 3.96364
14.4976 14.3584 0.0420939
12.7877 12.7072 2
10.9835 10.9835 4
14.4527 11.1216 0.0320058
12.7745 9.306 2
14.6715 7.74927 0
22.1359 33.6191 3.97691
24.8956 33.9395 2
27.2254 34.4874 0.0250981
16.782 26.6856 3.97385
18.4814 24.417 2
18.5879 22.6793 0.0255679
14.9776 24.6926 2
16.1681 23.2101 0.0271602
19.588 30.4657 3.97478
20.1967 27.5923 2
20.6337 24.8174 0.0280131
22.7777 31.0085 2
23.3869 28.3264 0.0291599
25.4993 31.5695 0.0171822
18.9453 36.0394 3.9774
21.7682 36.0081 2
24.3968 36.3538 0.0214784
22.3985 40.4837 0.024688
21.6839 37.7904 0.021862
19.3761 38.9566 2
15.2283 39.1404 3.97684
18.5751 41.9311 0.0243161
15.7486 41.8044 2
13.1004 42.1903 3.97581
15.7579 44.0198 0.0248451
13.4114 44.2598 2
11.0753 44.7084 3.97546
13.6534 46.129 0.0251347
11.4971 46.6106 2
9.21542 47.2428 3.97593
11.985 48.4038 0.0250118
9.82749 49.151 2
7.53304 50.0072 3.9644
10.5549 50.9819 0.0276911
8.37079 51.9672 2
6.14007 53.0086 3.96978
9.34686 53.8486 0.0380723
7.19941 55.0286 2
5.0241 56.25 4
6.31988 58.3339 2
8.39158 56.9814 0.0318884
7.74927 60.3285 0
14.1224 27.0147 3.97462
12.4115 24.955 3.97472
13.8111 25.5713 2
11.449 22.3561 3.97031
13.3134 23.4742 2
14.4262 21.9687 0.027615
12.5243 20.6804 2
10.526 19.3757 3.95829
13.7128 19.047 0.0368693
11.7637 17.6172 2
9.76784 16.1632 3.96611
13.0524 15.9344 0.0449874
11.2271 14.3897 2
9.30607 12.7746 4
12.7884 12.6951 0.0336323
10.9835 10.9835 2
12.7746 9.30605 0
19.0957 33.2759 3.97576
22.1291 33.6279 2
24.8989 33.9937 0.019651
16.4103 29.8651 3.97499
16.7809 26.6873 2
18.4798 24.4179 0.0278122
14.9812 24.693 0.0262719
19.5836 30.4674 2
20.1964 27.5954 0.0270394
22.7627 31.0214 0.0262517
15.8843 36.0678 3.9771
18.9432 36.0398 2
21.7659 36.0116 0.0222323
13.3415 37.8311 3.97706
19.3774 38.9563 0.02292
15.2283 39.1405 2
12.5847 40.0979 3.97637
15.7489 41.8045 0.0241458
13.0993 42.1901 2
10.666 42.7134 3.97572
13.4122 44.2599 0.024869
11.0757 44.7083 2
8.69071 45.2589 3.97632
11.4964 46.6111 0.0247427
9.21833 47.2415 2
6.8121 47.9785 3.96559
9.82544 49.1523 0.0255281
7.53123 50.0063 2
5.21609 50.9116 3.97033
8.37263 51.9683 0.0365207
6.13997 53.005 2
3.86727 54.0858 4
7.20005 55.0334 0.0307449
5.02404 56.25 2
6.31991 58.3339 0
13.5952 29.1927 3.97417
11.8595 26.6276 3.97485
14.1219 27.015 2
10.4866 24.0697 3.97399
12.4121 24.9544 2
13.8133 25.5721 0.0241722
9.36993 21.1854 3.96204
11.4479 22.3535 2
13.3156 23.4767 0.026255
12.5305 20.6852 0.0336399
10.5361 19.3758 2
8.42364 18.0315 3.9682
11.7493 17.6181 0.0452425
9.76812 16.1682 2
7.74928 14.6715 4
11.2273 14.3823 0.036362
9.30602 12.7745 2
10.9835 10.9835 0
15.3819 32.9808 3.9763
19.0964 33.2751 2
22.1359 33.6191 0.0230925
16.4112 29.8648 2
16.782 26.6856 0.0261476
19.588 30.4657 0.0252226
13.6549 36.2398 3.97672
15.8838 36.0676 2
18.9453 36.0394 0.0226026
13.3407 37.8312 2
11.8871 38.3033 3.97643
15.2283 39.1404 0.0231629
12.5839 40.098 2
10.2316 40.7179 3.97615
13.1004 42.1903 0.0241938
10.6664 42.7129 2
8.23175 43.2257 3.97621
11.0753 44.7084 0.0245418
8.69408 45.258 2
6.20326 45.89 3.96697
9.21542 47.2428 0.024073
6.81082 47.9776 2
4.42681 48.7518 3.97095
7.53304 50.0072 0.0356021
5.21633 50.9089 2
2.85457 51.8506 4
6.14007 53.0086 0.0302203
3.86727 54.0858 2
5.0241 56.25 0
12.7097 31.3629 3.97555
11.2649 28.5325 3.97507
13.5951 29.1923 2
9.70088 25.8861 3.97516
11.8598 26.628 2
14.1224 27.0147 0.0253826
8.33496 23.0594 3.96387
10.4879 24.0683 2
12.4115 24.955 0.0252825
7.20555 19.9792 3.96927
9.37505 21.1859 2
11.449 22.3561 0.0296913
10.526 19.3757 0.0417061
8.42343 18.0354 2
6.31992 16.6661 4
9.76784 16.1632 0.0338928
7.74926 14.6714 2
9.30607 12.7746 0
12.7572 34.3594 3.9766
15.3818 32.9809 2
19.0957 33.2759 0.0242419
16.4103 29.8651 0.0250067
11.4033 36.6324 3.9764
13.654 36.24 2
15.8843 36.0678 0.022903
13.3415 37.8311 0.0229422
11.8862 38.3034 2
9.79901 38.8136 3.9764
12.5847 40.0979 0.0236264
10.2317 40.7177 2
7.82983 41.1862 3.97623
10.666 42.7134 0.0242848
8.23404 43.2244 2
5.69702 43.759 3.96798
8.69071 45.2589 0.0236824
6.20115 45.8892 2
3.77188 46.5371 3.97155
6.8121 47.9785 0.0344147
4.42741 48.7498 2
1.99014 49.554 4
5.21609 50.9116 0.0296737
2.85451 51.8506 2
3.86727 54.0858 0
11.479 32.9939 3.97632
10.5575 30.4676 3.97551
12.7085 31.3633 2
9.00398 27.8056 3.97582
11.2648 28.5323 2
13.5952 29.1927 0.0258265
7.44526 25.0107 3.96473
9.70192 25.8853 2
11.8595 26.6276 0.0251468
6.12183 22.0018 3.97007
8.33533 23.0598 2
10.4866 24.0697 0.0260071
5.02411 18.75 4
7.20569 19.9824 2
9.36993 21.1854 0.037965
8.42364 18.0315 0.0317997
6.3199 16.6661 2
7.74928 14.6715 0
10.9723 35.0386 3.97607
12.7562 34.3591 2
15.3819 32.9808 0.023703
9.44441 36.9957 3.97646
11.402 36.6327 2
13.6549 36.2398 0.0232754
11.8871 38.3033 0.0235719
9.7994 38.8137 2
7.49213 39.1737 3.97649
10.2316 40.7179 0.0238495
7.83326 41.1856 2
5.30102 41.6096 3.96834
8.23175 43.2257 0.0237864
5.69592 43.7583 2
3.24934 44.2819 3.97248
6.20326 45.89 0.0330307
3.77276 46.5355 2
1.27781 47.2057 4
4.42681 48.7518 0.0290487
1.99012 49.554 2
2.85457 51.8506 0
10.5856 33.9308 3.97576
9.81348 32.2151 3.97618
11.4781 32.994 2
8.33811 29.7533 3.97624
10.5578 30.468 2
12.7097 31.3629 0.0244535
6.67284 27.0301 3.9653
9.00607 27.8055 2
11.2649 28.5325 0.0249283
5.17626 24.0949 3.97058
7.4438 25.011 2
9.70088 25.8861 0.0248402
3.86728 20.9142 4
6.12227 22.004 2
8.33496 23.0594 0.0361298
5.02406 18.75 2
7.20555 19.9792 0.0307274
6.31992 16.6661 0
9.24884 35.3077 3.97662
10.9714 35.0384 2
12.7572 34.3594 0.0234008
7.25891 37.2116 3.97654
9.44528 36.9959 2
11.4033 36.6324 0.0236027
9.79901 38.8136 0.0235996
7.49539 39.1734 2
5.02348 39.4671 3.96821
7.82983 41.1862 0.0237699
5.29966 41.6091 2
2.85953 42.0024 3.97306
5.69702 43.759 0.0320185
3.25002 44.2807 2
0.720592 44.8159 4
3.77188 46.5371 0.0284544
1.27778 47.2057 2
1.99014 49.554 0
9.28264 33.7395 3.97682
10.5852 33.9306 2
7.76098 31.6508 3.97645
9.81509 32.215 2
11.479 32.9939 0.0236782
6.00396 29.0859 3.96568
8.34074 29.7536 2
10.5575 30.4676 0.0244879
4.36316 26.2483 3.97089
6.67071 27.0304 2
9.00398 27.8056 0.024181
2.85458 23.1494 4
5.17699 24.0963 2
7.44526 25.0107 0.0352675
3.86728 20.9142 2
6.12183 22.0018 0.0299304
5.02411 18.75 0
7.1989 35.3242 3.97671
9.2505 35.3077 2
10.9723 35.0386 0.0239291
4.86781 37.343 3.96779
7.26205 37.2116 2
9.44441 36.9957 0.0235365
7.49213 39.1737 0.0235145
5.02178 39.4667 2
2.6073 39.7144 3.97357
5.30102 41.6096 0.0316612
2.86052 42.0016 2
0.320823 42.3947 4
3.24934 44.2819 0.0275177
0.720551 44.8159 2
1.27781 47.2057 0
7.36059 33.4899 3.97694
9.28444 33.7398 2
10.5856 33.9308 0.0242432
5.46132 31.1458 3.96613
7.76353 31.6512 2
9.81348 32.2151 0.02382
3.68429 28.4451 3.9717
6.00076 29.0861 2
8.33811 29.7533 0.0237592
1.99015 25.446 4
4.364 26.2493 2
6.67284 27.0301 0.0347033
2.85453 23.1494 2
5.17626 24.0949 0.0294172
3.86728 20.9142 0
4.88148 35.2576 3.96702
7.20087 35.3245 2
9.24884 35.3077 0.023384
2.49872 37.4294 3.97426
4.86458 37.3429 2
7.25891 37.2116 0.0234597
5.02348 39.4671 0.0317944
2.60844 39.7141 2
0.080333 39.9526 4
2.85953 42.0024 0.0269429
0.320817 42.3947 2
0.720592 44.8159 0
5.08127 33.1991 3.96649
7.36236 33.4903 2
9.28264 33.7395 0.0231824
3.14833 30.6681 3.97256
5.45707 31.1459 2
7.76098 31.6508 0.0235483
1.27793 27.7943 4
3.68533 28.4459 2
6.00396 29.0859 0.034316
1.99013 25.446 2
4.36316 26.2483 0.0291064
2.85458 23.1494 0
2.55071 35.1605 3.97396
4.87842 35.2577 2
7.1989 35.3242 0.02329
0 37.5 4
2.49956 37.4294 2
4.86781 37.343 0.0322134
2.6073 39.7144 0.0264304
0.0802903 39.9526 2
0.320823 42.3947 0
2.76839 32.9076 3.9736
5.07819 33.1993 2
7.36059 33.4899 0.0230608
0.721173 30.1842 4
3.14961 30.6689 2
5.46132 31.1458 0.0338734
1.27779 27.7943 2
3.68429 28.4451 0.0283041
1.99015 25.446 0
0.0806499 35.0474 4
2.55212 35.1606 2
4.88148 35.2576 0.0329757
0 37.5 2
2.49872 37.4294 0.0257369
0.080333 39.9526 0
0.32156 32.6054 4
2.76931 32.9082 2
5.08127 33.1991 0.0335144
0.72056 30.1841 2
3.14833 30.6681 0.0274442
1.27793 27.7943 0
0.0802889 35.0474 2
2.55071 35.1605 0.0260367
0 37.5 0
0.320817 32.6053 2
2.76839 32.9076 0.0264033
0.721173 30.1842 0
0.0806499 35.0474 0
0.32156 32.6054 0
CELLS 1910 17190
8 18 6 25 56 2 0 5 16
8 57 23 6 18 17 4 0 2
8 78 36 9 29 31 11 1 7
8 31 11 1 7 79 37 10 30
8 110 57 18 50 48 17 2 14
8 50 18 56 111 14 2 16 49
8 116 62 22 55 52 20 3 15
8 56 25 67 118 16 5 24 53
8 119 63 23 57 54 21 4 17
8 55 22 63 119 15 3 21 54
8 58 26 68 121 18 6 25 56
8 122 65 26 58 57 23 6 18
8 73 31 7 27 142 79 30 71
8 143 78 29 72 73 31 7 27
8 83 147 76 34 32 74 28 8
8 84 148 78 36 33 75 29 9
8 76 34 8 28 148 84 33 75
8 37 79 150 86 10 30 77 35
8 151 87 36 78 80 38 11 31
8 80 38 11 31 152 88 37 79
8 175 100 42 94 96 44 12 40
8 44 96 176 101 12 40 95 43
8 101 176 98 46 43 95 41 13
8 46 98 178 103 13 41 97 45
8 178 103 45 97 147 83 32 74
8 189 116 55 109 106 52 15 47
8 111 56 118 191 49 16 53 107
8 192 119 57 110 108 54 17 48
8 109 55 119 192 47 15 54 108
8 194 122 58 112 110 57 18 50
8 112 58 121 195 50 18 56 111
8 115 61 19 51 197 124 59 113
8 115 61 125 198 51 19 60 114
8 198 125 62 116 114 60 20 52
8 200 127 64 120 116 62 22 55
8 118 67 132 202 53 24 66 117
8 121 68 133 203 56 25 67 118
8 120 64 128 204 55 22 63 119
8 204 128 65 122 119 63 23 57
8 206 134 68 121 123 69 26 58
8 123 69 26 58 207 131 65 122
8 226 147 74 138 140 76 28 70
8 229 148 75 139 143 78 29 72
8 140 76 28 70 229 148 75 139
8 142 79 30 71 231 150 77 141
8 144 80 31 73 232 152 79 142
8 233 151 78 143 144 80 31 73
8 150 86 35 77 235 154 81 145
8 235 154 81 145 146 82 39 91
8 146 82 39 91 236 155 90 165
8 238 157 83 147 149 85 34 76
8 239 158 84 148 151 87 36 78
8 149 85 34 76 239 158 84 148
8 152 88 37 79 241 160 86 150
8 242 161 87 151 153 89 38 80
8 153 89 38 80 243 162 88 152
8 171 98 41 92 265 178 97 169
8 265 178 97 169 226 147 74 138
8 172 96 40 93 266 176 95 170
8 266 176 95 170 171 98 41 92
8 269 175 94 173 172 96 40 93
8 271 180 99 174 175 100 42 94
8 197 124 59 113 271 180 99 174
8 272 181 100 175 177 102 44 96
8 273 182 101 176 179 104 46 98
8 177 102 44 96 273 182 101 176
8 179 104 46 98 275 184 103 178
8 275 184 103 178 238 157 83 147
8 188 115 51 105 283 197 113 186
8 188 115 198 284 105 51 114 187
8 284 198 116 189 187 114 52 106
8 286 200 120 193 189 116 55 109
8 191 118 202 288 107 53 117 190
8 195 121 203 289 111 56 118 191
8 193 120 204 290 109 55 119 192
8 290 204 122 194 192 119 57 110
8 196 123 58 112 292 207 122 194
8 293 206 121 195 196 123 58 112
8 199 126 61 115 297 211 124 197
8 298 212 127 200 198 125 62 116
8 199 126 212 298 115 61 125 198
8 205 129 64 120 300 214 127 200
8 301 217 130 201 202 132 66 117
8 209 136 168 264 301 217 130 201
8 302 219 132 202 203 133 67 118
8 303 220 133 203 206 134 68 121
8 205 129 215 304 120 64 128 204
8 304 215 131 207 204 128 65 122
8 306 221 134 206 208 135 69 123
8 208 135 69 123 307 218 131 207
8 210 137 167 263 309 223 136 209
8 328 238 147 226 230 149 76 140
8 228 146 91 166 329 236 165 260
8 231 150 77 141 330 235 145 227
8 330 235 145 227 228 146 91 166
8 332 239 148 229 233 151 78 143
8 230 149 76 140 332 239 148 229
8 232 152 79 142 334 241 150 231
8 234 153 80 144 335 243 152 232
8 336 242 151 233 234 153 80 144
8 236 155 90 165 338 245 164 259
8 241 160 86 150 339 246 154 235
8 339 246 154 235 237 156 82 146
8 237 156 82 146 340 247 155 236
8 342 249 157 238 240 159 85 149
8 343 250 158 239 242 161 87 151
8 240 159 85 149 343 250 158 239
8 243 162 88 152 345 252 160 241
8 244 163 253 346 153 89 161 242
8 244 163 89 153 347 254 162 243
8 311 224 261 371 210 137 167 263
8 263 167 262 372 209 136 168 264
8 267 179 98 171 375 275 178 265
8 375 275 178 265 328 238 147 226
8 376 273 176 266 267 179 98 171
8 268 177 96 172 376 273 176 266
8 379 272 175 269 268 177 96 172
8 380 271 174 270 269 175 94 173
8 283 197 113 186 380 271 174 270
8 381 277 180 271 272 181 100 175
8 297 211 124 197 381 277 180 271
8 382 278 181 272 274 183 102 177
8 274 183 102 177 383 279 182 273
8 383 279 182 273 276 185 104 179
8 385 281 184 275 342 249 157 238
8 276 185 104 179 385 281 184 275
8 285 199 115 188 393 297 197 283
8 394 298 200 286 284 198 116 189
8 285 199 298 394 188 115 198 284
8 291 205 120 193 396 300 200 286
8 397 301 201 287 288 202 117 190
8 295 209 264 374 397 301 201 287
8 398 302 202 288 289 203 118 191
8 399 303 203 289 293 206 121 195
8 291 205 304 400 193 120 204 290
8 400 304 207 292 290 204 122 194
8 294 208 123 196 402 307 207 292
8 403 306 206 293 294 208 123 196
8 296 210 263 373 405 309 209 295
8 408 312 213 299 297 211 126 199
8 299 213 313 409 199 126 212 298
8 409 313 214 300 298 212 127 200
8 305 216 129 205 411 315 214 300
8 412 318 217 301 302 219 132 202
8 309 223 136 209 412 318 217 301
8 413 320 219 302 303 220 133 203
8 306 221 321 414 206 134 220 303
8 307 218 131 207 415 316 215 304
8 305 216 316 415 205 129 215 304
8 417 322 221 306 308 222 135 208
8 308 222 135 208 418 319 218 307
8 310 225 137 210 420 325 223 309
8 423 326 224 311 310 225 137 210
8 329 236 165 260 441 338 259 368
8 442 342 238 328 333 240 149 230
8 331 237 146 228 443 340 236 329
8 334 241 150 231 444 339 235 330
8 444 339 235 330 331 237 146 228
8 446 343 239 332 336 242 151 233
8 333 240 149 230 446 343 239 332
8 335 243 152 232 448 345 241 334
8 337 244 153 234 449 347 243 335
8 337 244 346 450 234 153 242 336
8 338 245 164 259 452 349 258 367
8 340 247 155 236 453 350 245 338
8 345 252 160 241 454 351 246 339
8 454 351 246 339 341 248 156 237
8 341 248 156 237 455 352 247 340
8 240 159 251 344 342 249 354 457
8 242 161 253 346 343 250 355 458
8 343 250 355 458 240 159 251 344
8 347 254 162 243 460 357 252 345
8 348 255 358 461 244 163 253 346
8 348 255 163 244 462 359 254 347
8 473 360 257 365 363 256 364 482
8 452 349 258 367 365 257 366 485
8 422 324 369 488 311 224 261 371
8 371 261 370 490 263 167 262 372
8 407 311 371 491 296 210 263 373
8 373 263 372 492 295 209 264 374
8 493 385 275 375 442 342 238 328
8 377 276 179 267 493 385 275 375
8 378 274 177 268 494 383 273 376
8 494 383 273 376 377 276 179 267
8 497 382 272 379 378 274 177 268
8 498 381 271 380 379 272 175 269
8 393 297 197 283 498 381 271 380
8 499 387 277 381 382 278 181 272
8 408 312 211 297 499 387 277 381
8 500 388 278 382 384 280 183 274
8 501 389 279 383 386 282 185 276
8 384 280 183 274 501 389 279 383
8 386 282 185 276 503 391 281 385
8 503 391 281 385 457 354 249 342
8 511 408 299 395 393 297 199 285
8 395 299 409 512 285 199 298 394
8 512 409 300 396 394 298 200 286
8 401 305 205 291 514 411 300 396
8 515 412 301 397 398 302 202 288
8 405 309 209 295 515 412 301 397
8 516 413 302 398 399 303 203 289
8 403 306 414 517 293 206 303 399
8 402 307 207 292 518 415 304 400
8 401 305 415 518 291 205 304 400
8 404 308 208 294 520 418 307 402
8 521 417 306 403 404 308 208 294
8 406 310 210 296 523 420 309 405
8 526 423 311 407 406 310 210 296
8 410 314 213 299 527 424 312 408
8 528 425 315 411 409 313 214 300
8 410 314 425 528 299 213 313 409
8 416 317 216 305 530 427 315 411
8 531 430 318 412 413 320 219 302
8 420 325 223 309 531 430 318 412
8 532 432 320 413 414 321 220 303
8 417 322 433 533 306 221 321 414
8 418 319 218 307 534 428 316 415
8 416 317 428 534 305 216 316 415
8 419 323 434 536 308 222 322 417
8 419 323 222 308 537 431 319 418
8 421 327 225 310 539 438 325 420
8 421 327 439 541 310 225 326 423
8 543 437 324 422 423 326 224 311
8 441 338 259 368 559 452 367 486
8 443 340 236 329 560 453 338 441
8 333 240 344 447 442 342 457 561
8 445 341 237 331 562 455 340 443
8 448 345 241 334 563 454 339 444
8 563 454 339 444 445 341 237 331
8 336 242 346 450 446 343 458 565
8 446 343 458 565 333 240 344 447
8 449 347 243 335 567 460 345 448
8 451 348 244 337 568 462 347 449
8 451 348 461 569 337 244 346 450
8 570 463 349 452 473 360 257 365
8 453 350 245 338 570 463 349 452
8 455 352 247 340 571 464 350 453
8 460 357 252 345 572 465 351 454
8 572 465 351 454 456 353 248 341
8 456 353 248 341 573 466 352 455
8 344 251 356 459 457 354 468 575
8 458 355 469 576 344 251 356 459
8 346 253 358 461 458 355 469 576
8 462 359 254 347 578 471 357 460
8 348 255 359 462 461 358 472 579
8 591 474 360 473 475 361 256 363
8 475 361 256 363 594 477 362 479
8 363 256 364 482 479 362 480 603
8 590 473 365 484 481 363 482 605
8 482 364 257 365 606 483 366 485
8 559 452 367 486 484 365 485 607
8 542 436 487 609 422 324 369 488
8 525 422 488 611 407 311 371 491
8 488 369 489 612 371 261 370 490
8 491 371 490 613 373 263 372 492
8 495 386 276 377 614 503 385 493
8 614 503 385 493 561 457 342 442
8 615 501 383 494 495 386 276 377
8 496 384 274 378 615 501 383 494
8 618 500 382 497 496 384 274 378
8 619 499 381 498 497 382 272 379
8 511 408 297 393 619 499 381 498
8 620 505 387 499 500 388 278 382
8 527 424 312 408 620 505 387 499
8 502 390 506 621 384 280 388 500
8 622 507 389 501 504 392 282 386
8 502 390 280 384 622 507 389 501
8 504 392 282 386 624 509 391 503
8 624 509 391 503 575 468 354 457
8 513 410 299 395 630 527 408 511
8 631 528 411 514 512 409 300 396
8 513 410 528 631 395 299 409 512
8 519 416 305 401 633 530 411 514
8 634 531 412 515 516 413 302 398
8 523 420 309 405 634 531 412 515
8 635 532 413 516 517 414 303 399
8 521 417 533 636 403 306 414 517
8 520 418 307 402 637 534 415 518
8 519 416 534 637 401 305 415 518
8 522 419 308 404 639 537 418 520
8 522 419 536 640 404 308 417 521
8 524 421 310 406 642 539 420 523
8 524 421 541 644 406 310 423 526
8 646 543 422 525 526 423 311 407
8 529 426 314 410 647 544 424 527
8 528 425 545 648 411 315 427 530
8 529 426 545 648 410 314 425 528
8 535 429 317 416 649 546 427 530
8 650 548 430 531 532 432 320 413
8 539 438 325 420 650 548 430 531
8 533 433 550 651 414 321 432 532
8 536 434 551 652 417 322 433 533
8 537 431 319 418 653 547 428 534
8 535 429 547 653 416 317 428 534
8 538 435 552 654 419 323 434 536
8 538 435 323 419 655 549 431 537
8 540 440 327 421 657 556 438 539
8 540 440 557 659 421 327 439 541
8 541 439 555 660 423 326 437 543
8 661 554 436 542 543 437 324 422
8 676 570 452 559 590 473 365 484
8 560 453 338 441 676 570 452 559
8 562 455 340 443 677 571 453 560
8 447 344 459 566 561 457 575 678
8 564 456 341 445 679 573 455 562
8 567 460 345 448 680 572 454 563
8 680 572 454 563 564 456 341 445
8 565 458 576 682 447 344 459 566
8 450 346 461 569 565 458 576 682
8 568 462 347 449 684 578 460 567
8 451 348 462 568 569 461 579 685
8 686 580 463 570 591 474 360 473
8 571 464 350 453 686 580 463 570
8 573 466 352 455 687 581 464 571
8 572 465 582 688 460 357 471 578
8 574 467 582 688 456 353 465 572
8 574 467 353 456 689 583 466 573
8 459 356 470 577 575 468 585 691
8 576 469 586 692 459 356 470 577
8 461 358 472 579 576 469 586 692
8 462 359 471 578 579 472 588 694
8 704 591 473 590 593 475 363 481
8 595 476 592 705 475 361 474 591
8 593 475 363 481 707 594 479 602
8 594 477 362 479 709 598 478 600
8 595 476 361 475 711 597 477 594
8 479 362 480 603 600 478 601 720
8 481 363 482 605 602 479 603 722
8 603 480 364 482 723 604 483 606
8 605 482 365 484 724 606 485 607
8 656 553 608 726 542 436 487 609
8 645 542 609 728 525 422 488 611
8 609 487 610 729 488 369 489 612
8 611 488 612 730 491 371 490 613
8 616 504 386 495 731 624 503 614
8 731 624 503 614 678 575 457 561
8 732 622 501 615 616 504 386 495
8 617 502 384 496 732 622 501 615
8 617 502 621 735 496 384 500 618
8 736 620 499 619 618 500 382 497
8 630 527 408 511 736 620 499 619
8 621 506 626 737 500 388 505 620
8 647 544 424 527 737 626 505 620
8 623 508 627 738 502 390 506 621
8 623 508 390 502 739 628 507 622
8 625 510 628 739 504 392 507 622
8 740 629 509 624 691 585 468 575
8 625 510 392 504 740 629 509 624
8 632 529 410 513 744 647 527 630
8 631 528 648 745 514 411 530 633
8 632 529 648 745 513 410 528 631
8 638 535 416 519 746 649 530 633
8 747 650 531 634 635 532 413 516
8 642 539 420 523 747 650 531 634
8 636 533 651 748 517 414 532 635
8 640 536 652 749 521 417 533 636
8 639 537 418 520 750 653 534 637
8 638 535 653 750 519 416 534 637
8 641 538 419 522 751 655 537 639
8 641 538 654 752 522 419 536 640
8 643 540 421 524 753 657 539 642
8 643 540 659 755 524 421 541 644
8 644 541 660 757 526 423 543 646
8 758 661 542 645 646 543 422 525
8 529 426 544 647 648 545 662 759
8 530 427 545 648 649 546 663 760
8 535 429 546 649 653 547 664 761
8 762 666 548 650 651 550 432 532
8 657 556 438 539 762 666 548 650
8 652 551 668 763 533 433 550 651
8 654 552 669 764 536 434 551 652
8 655 549 431 537 765 665 547 653
8 538 435 549 655 654 552 667 766
8 661 554 671 768 542 436 553 656
8 658 558 440 540 769 674 556 657
8 658 558 675 770 540 440 557 659
8 659 557 673 771 541 439 555 660
8 660 555 672 772 543 437 554 661
8 788 686 570 676 704 591 473 590
8 677 571 453 560 788 686 570 676
8 679 573 455 562 789 687 571 677
8 566 459 577 683 678 575 691 790
8 681 574 456 564 791 689 573 679
8 680 572 688 792 567 460 578 684
8 681 574 688 792 564 456 572 680
8 682 576 692 794 566 459 577 683
8 569 461 579 685 682 576 692 794
8 568 462 578 684 685 579 694 796
8 687 581 464 571 798 696 580 686
8 798 696 580 686 705 592 474 591
8 689 583 466 573 799 697 581 687
8 688 582 698 800 578 471 588 694
8 690 584 698 800 574 467 582 688
8 690 584 467 574 801 699 583 689
8 693 587 701 803 577 470 585 691
8 693 587 470 577 804 702 586 692
8 695 589 702 804 579 472 586 692
8 695 589 472 579 805 703 588 694
8 708 595 705 813 593 475 591 704
8 710 596 706 814 595 476 592 705
8 707 594 479 602 816 709 600 719
8 708 595 475 593 817 711 594 707
8 709 598 478 600 819 715 599 717
8 711 597 477 594 820 714 598 709
8 710 596 476 595 822 713 597 711
8 600 478 601 720 717 599 718 832
8 602 479 603 722 719 600 720 834
8 720 601 480 603 835 721 604 723
8 722 603 482 605 836 723 606 724
8 767 670 725 839 656 553 608 726
8 756 656 726 841 645 542 609 728
8 726 608 727 842 609 487 610 729
8 728 609 729 843 611 488 612 730
8 844 740 624 731 790 691 575 678
8 733 625 504 616 844 740 624 731
8 734 623 502 617 845 739 622 732
8 733 625 739 845 616 504 622 732
8 734 623 738 846 617 502 621 735
8 735 621 737 847 618 500 620 736
8 744 647 527 630 847 737 620 736
8 621 506 627 738 737 626 741 848
8 647 544 626 737 759 662 741 848
8 623 508 628 739 738 627 742 849
8 740 629 585 691 850 743 700 802
8 625 510 629 740 739 628 743 850
8 632 529 647 744 745 648 759 854
8 633 530 648 745 746 649 760 855
8 638 535 649 746 750 653 761 856
8 857 762 650 747 748 651 532 635
8 753 657 539 642 857 762 650 747
8 749 652 763 858 636 533 651 748
8 752 654 764 859 640 536 652 749
8 751 655 537 639 860 765 653 750
8 641 538 655 751 752 654 766 861
8 754 658 540 643 862 769 657 753
8 754 658 770 863 643 540 659 755
8 755 659 771 864 644 541 660 757
8 758 661 768 866 645 542 656 756
8 757 660 772 867 646 543 661 758
8 759 662 773 868 648 545 663 760
8 649 546 663 760 761 664 774 871
8 765 665 547 653 872 775 664 761
8 873 777 666 762 763 668 550 651
8 769 674 556 657 873 777 666 762
8 764 669 779 874 652 551 668 763
8 654 552 667 766 764 669 778 875
8 655 549 665 765 766 667 776 876
8 768 671 782 877 656 553 670 767
8 772 672 783 878 661 554 671 768
8 658 558 674 769 770 675 786 879
8 659 557 675 770 771 673 785 881
8 882 784 672 772 771 673 555 660
8 789 687 571 677 897 798 686 788
8 897 798 686 788 813 705 591 704
8 791 689 573 679 898 799 687 789
8 795 693 803 900 683 577 691 790
8 793 690 574 681 901 801 689 791
8 792 688 800 902 684 578 694 796
8 793 690 800 902 681 574 688 792
8 795 693 577 683 903 804 692 794
8 797 695 804 903 685 579 692 794
8 797 695 579 685 904 805 694 796
8 905 806 697 799 798 696 581 687
8 814 706 806 905 705 592 696 798
8 689 583 697 799 801 699 808 907
8 800 698 809 908 694 588 703 805
8 690 584 699 801 800 698 809 908
8 803 701 810 909 691 585 700 802
8 693 587 702 804 803 701 811 910
8 695 589 703 805 804 702 812 911
8 818 710 814 919 708 595 705 813
8 821 712 815 920 710 596 706 814
8 816 709 600 719 922 819 717 831
8 817 711 594 707 923 820 709 816
8 818 710 595 708 924 822 711 817
8 819 715 599 717 926 827 716 829
8 820 714 598 709 927 826 715 819
8 929 825 713 822 820 714 597 711
8 821 712 596 710 930 824 713 822
8 717 599 718 832 829 716 830 942
8 719 600 720 834 831 717 832 944
8 832 718 601 720 945 833 721 835
8 834 720 603 722 946 835 723 836
8 869 780 838 950 767 670 725 839
8 865 767 839 952 756 656 726 841
8 839 725 840 953 726 608 727 842
8 841 726 842 954 728 609 729 843
8 844 740 691 790 955 850 802 899
8 733 625 740 844 845 739 850 955
8 734 623 739 845 846 738 849 956
8 735 621 738 846 847 737 848 957
8 744 647 737 847 854 759 848 957
8 738 627 742 849 848 741 851 958
8 848 741 851 958 759 662 773 868
8 850 743 700 802 959 852 807 906
8 849 742 628 739 959 852 743 850
8 854 759 868 965 745 648 760 855
8 746 649 760 855 856 761 871 966
8 860 765 653 750 967 872 761 856
8 968 873 762 857 858 763 651 748
8 862 769 657 753 968 873 762 857
8 859 764 874 969 749 652 763 858
8 752 654 766 861 859 764 875 970
8 751 655 765 860 861 766 876 971
8 754 658 769 862 863 770 879 972
8 755 659 770 863 864 771 881 974
8 976 882 772 867 864 771 660 757
8 866 768 877 977 756 656 767 865
8 867 772 878 978 758 661 768 866
8 760 663 773 868 871 774 883 980
8 870 781 837 948 982 890 780 869
8 982 890 780 869 877 782 670 767
8 761 664 774 871 872 775 884 984
8 876 776 665 765 985 885 775 872
8 873 777 668 763 986 887 779 874
8 769 674 777 873 879 786 887 986
8 764 669 778 875 874 779 888 987
8 766 667 776 876 875 778 886 988
8 878 783 892 989 768 671 782 877
8 878 783 672 772 990 893 784 882
8 880 787 675 770 991 896 786 879
8 880 787 895 992 770 675 785 881
8 881 785 894 993 771 673 784 882
8 1006 905 799 898 897 798 687 789
8 919 814 905 1006 813 705 798 897
8 791 689 799 898 901 801 907 1007
8 900 803 909 1009 790 691 802 899
8 795 693 804 903 900 803 910 1010
8 902 800 908 1011 796 694 805 904
8 793 690 801 901 902 800 908 1011
8 797 695 805 904 903 804 911 1012
8 799 697 806 905 907 808 912 1013
8 920 815 912 1013 814 706 806 905
8 802 700 810 909 906 807 913 1014
8 801 699 808 907 908 809 914 1015
8 805 703 809 908 911 812 915 1016
8 803 701 811 910 909 810 916 1017
8 911 812 917 1018 804 702 811 910
8 925 821 920 1030 818 710 814 919
8 928 823 921 1031 821 712 815 920
8 922 819 717 831 1033 926 829 941
8 923 820 709 816 1034 927 819 922
8 1035 929 822 924 923 820 711 817
8 925 821 710 818 1036 930 822 924
8 1038 933 825 929 927 826 714 820
8 926 827 716 829 1039 935 828 939
8 927 826 715 819 1040 934 827 926
8 928 823 712 821 1041 931 824 930
8 1042 932 824 930 929 825 713 822
8 829 716 830 942 939 828 940 1058
8 831 717 832 944 941 829 942 1060
8 942 830 718 832 1061 943 833 945
8 944 832 720 834 1062 945 835 946
8 981 889 947 1064 870 781 837 948
8 948 837 949 1067 869 780 838 950
8 975 869 950 1069 865 767 839 952
8 950 838 951 1070 839 725 840 953
8 952 839 953 1071 841 726 842 954
8 955 850 802 899 1072 959 906 1008
8 956 849 739 845 1072 959 850 955
8 846 738 849 956 957 848 958 1073
8 957 848 958 1073 854 759 868 965
8 849 742 852 959 958 851 961 1076
8 960 853 961 1076 906 807 852 959
8 958 851 961 1076 868 773 883 980
8 960 853 807 906 1077 963 913 1014
8 855 760 868 965 966 871 980 1085
8 856 761 871 966 967 872 984 1086
8 971 876 765 860 1087 985 872 967
8 968 873 763 858 1088 986 874 969
8 862 769 873 968 972 879 986 1088
8 859 764 875 970 969 874 987 1089
8 861 766 876 971 970 875 988 1090
8 973 880 770 863 1091 991 879 972
8 973 880 992 1092 863 770 881 974
8 974 881 993 1093 864 771 882 976
8 979 870 948 1066 1094 982 869 975
8 1094 982 869 975 977 877 767 865
8 978 878 772 867 1095 990 882 976
8 978 878 989 1096 866 768 877 977
8 871 774 883 980 984 884 994 1099
8 983 891 999 1100 870 781 889 981
8 1101 1000 890 982 989 892 782 877
8 983 891 781 870 1101 1000 890 982
8 872 775 884 984 985 885 995 1103
8 876 776 885 985 988 886 996 1104
8 986 887 779 874 1105 998 888 987
8 879 786 887 986 991 896 998 1105
8 875 778 886 988 987 888 997 1106
8 990 893 1002 1107 878 783 892 989
8 1108 1003 893 990 993 894 784 882
8 880 787 896 991 992 895 1005 1109
8 993 894 785 881 1110 1004 895 992
8 898 799 905 1006 1007 907 1013 1120
8 1030 920 1013 1120 919 814 905 1006
8 901 801 907 1007 1011 908 1015 1121
8 899 802 909 1009 1008 906 1014 1122
8 900 803 910 1010 1009 909 1017 1123
8 1012 911 1018 1124 903 804 910 1010
8 904 805 908 1011 1012 911 1016 1125
8 1013 912 1020 1127 907 808 914 1015
8 1031 921 1020 1127 920 815 912 1013
8 1019 918 962 1075 1128 1021 913 1014
8 1128 1021 913 1014 1017 916 810 909
8 1015 914 1022 1129 908 809 915 1016
8 1016 915 1023 1130 911 812 917 1018
8 1018 917 1024 1131 910 811 916 1017
8 1037 928 1031 1148 925 821 920 1030
8 928 823 931 1041 1031 921 1032 1149
8 1033 926 829 941 1151 1039 939 1057
8 1034 927 819 922 1152 1040 926 1033
8 1153 1038 929 1035 1034 927 820 923
8 1154 1042 930 1036 1035 929 822 924
8 1037 928 821 925 1155 1041 930 1036
8 1039 935 828 939 1156 1047 938 1055
8 1157 1043 932 1042 1038 933 825 929
8 1038 933 826 927 1158 1045 934 1040
8 1040 934 827 926 1159 1046 935 1039
8 930 824 932 1042 1041 931 1044 1160
8 1051 936 1048 1165 1175 1052 937 1053
8 1156 1047 938 1055 1053 937 1054 1178
8 939 828 940 1058 1055 938 1056 1181
8 941 829 942 1060 1057 939 1058 1183
8 942 830 943 1061 1058 940 1059 1184
8 1060 942 832 944 1185 1061 945 1062
8 1082 964 1063 1188 981 889 947 1064
8 1097 981 1064 1190 979 870 948 1066
8 1064 947 1065 1191 948 837 949 1067
8 1066 948 1067 1193 975 869 950 1069
8 1067 949 1068 1194 950 838 951 1070
8 1069 950 1070 1195 952 839 953 1071
8 956 849 959 1072 1073 958 1076 1197
8 1074 960 1076 1197 1008 906 959 1072
8 1073 958 1076 1197 965 868 980 1085
8 1074 960 906 1008 1198 1077 1014 1122
8 1133 1026 1079 1199 1019 918 962 1075
8 1077 963 913 1014 1200 1080 962 1075
8 960 853 963 1077 1076 961 1078 1201
8 980 883 961 1076 1099 994 1078 1201
8 1210 1083 964 1082 1100 999 889 981
8 966 871 980 1085 1086 984 1099 1215
8 967 872 984 1086 1087 985 1103 1216
8 971 876 985 1087 1090 988 1104 1217
8 1088 986 874 969 1218 1105 987 1089
8 972 879 986 1088 1091 991 1105 1218
8 970 875 988 1090 1089 987 1106 1219
8 973 880 991 1091 1092 992 1109 1220
8 1093 993 881 974 1221 1110 992 1092
8 1222 1108 990 1095 1093 993 882 976
8 1223 1101 982 1094 1096 989 877 977
8 1098 983 870 979 1223 1101 982 1094
8 1095 990 1107 1224 978 878 989 1096
8 1098 983 1100 1225 979 870 981 1097
8 984 884 994 1099 1103 995 1111 1227
8 1102 1001 1115 1228 983 891 999 1100
8 1101 1000 892 989 1229 1116 1002 1107
8 1102 1001 891 983 1229 1116 1000 1101
8 985 885 995 1103 1104 996 1112 1230
8 988 886 996 1104 1106 997 1113 1231
8 1105 998 888 987 1232 1114 997 1106
8 991 896 998 1105 1109 1005 1114 1232
8 1108 1003 1117 1233 990 893 1002 1107
8 1108 1003 894 993 1233 1117 1004 1110
8 992 895 1005 1109 1110 1004 1118 1234
8 1120 1013 1127 1244 1007 907 1015 1121
8 1148 1031 1127 1244 1030 920 1013 1120
8 1121 1015 1129 1245 1011 908 1016 1125
8 1126 1019 1075 1196 1246 1128 1014 1122
8 1246 1128 1014 1122 1123 1017 909 1009
8 1124 1018 1131 1247 1010 910 1017 1123
8 1125 1016 1130 1248 1012 911 1018 1124
8 1127 1020 1137 1254 1015 914 1022 1129
8 1031 921 1032 1149 1127 1020 1137 1254
8 1134 1027 918 1019 1257 1140 1021 1128
8 1257 1140 1021 1128 1131 1024 916 1017
8 1129 1022 1141 1258 1016 915 1023 1130
8 1130 1023 1142 1259 1018 917 1024 1131
8 1261 1144 1025 1132 1133 1026 1079 1199
8 1255 1138 1025 1132 1135 1028 1144 1261
8 1133 1026 918 1019 1262 1145 1027 1134
8 1136 1029 1139 1256 1263 1146 1028 1135
8 1037 928 1041 1155 1148 1031 1149 1275
8 1041 931 1044 1160 1149 1032 1150 1276
8 1151 1039 939 1057 1278 1156 1055 1180
8 1152 1040 926 1033 1279 1159 1039 1151
8 1153 1038 927 1034 1280 1158 1040 1152
8 1281 1157 1042 1154 1153 1038 929 1035
8 1036 930 1042 1154 1155 1041 1160 1282
8 1283 1164 1046 1159 1156 1047 935 1039
8 1165 1048 1164 1283 1053 937 1047 1156
8 1157 1043 933 1038 1284 1161 1045 1158
8 1157 1043 1161 1284 1042 932 1044 1160
8 1040 934 1046 1159 1158 1045 1163 1285
8 1166 1049 1167 1292 1051 936 1048 1165
8 1166 1049 936 1051 1293 1168 1050 1172
8 1051 936 1052 1175 1172 1050 1173 1306
8 1174 1051 1165 1290 1308 1175 1053 1177
8 1053 937 1054 1178 1175 1052 1176 1309
8 1278 1156 1055 1180 1177 1053 1178 1311
8 1055 938 1056 1181 1178 1054 1179 1312
8 1057 939 1058 1183 1180 1055 1181 1314
8 1058 940 1059 1184 1181 1056 1182 1315
8 1060 942 1061 1185 1183 1058 1184 1316
8 1208 1081 1187 1321 1082 964 1063 1188
8 1209 1082 1188 1322 1097 981 1064 1190
8 1188 1063 1189 1323 1064 947 1065 1191
8 1190 1064 1191 1325 1066 948 1067 1193
8 1191 1065 1192 1326 1067 949 1068 1194
8 1067 1193 1069 950 1194 1327 1195 1070
8 1250 1133 1199 1330 1126 1019 1075 1196
8 1198 1077 1014 1122 1331 1200 1075 1196
8 1074 960 1077 1198 1197 1076 1201 1332
8 1085 980 1076 1197 1215 1099 1201 1332
8 1199 1079 1203 1333 1075 962 1080 1200
8 1132 1025 1119 1243 1199 1079 1203 1333
8 1201 1078 963 1077 1334 1202 1080 1200
8 1099 994 1078 1201 1227 1111 1202 1334
8 1343 1207 1081 1208 1210 1083 964 1082
8 1214 1084 1186 1319 1343 1207 1081 1208
8 1345 1210 1082 1209 1225 1100 981 1097
8 1346 1211 1083 1210 1228 1115 999 1100
8 1086 984 1099 1215 1216 1103 1227 1352
8 1087 985 1103 1216 1217 1104 1230 1353
8 1090 988 1104 1217 1219 1106 1231 1354
8 1218 1105 987 1089 1355 1232 1106 1219
8 1091 991 1105 1218 1220 1109 1232 1355
8 1092 992 1109 1220 1221 1110 1234 1356
8 1222 1108 1233 1357 1095 990 1107 1224
8 1222 1108 993 1093 1357 1233 1110 1221
8 1223 1101 989 1096 1358 1229 1107 1224
8 1226 1102 983 1098 1358 1229 1101 1223
8 1226 1102 1228 1359 1098 983 1100 1225
8 1103 995 1111 1227 1230 1112 1235 1360
8 1107 1002 1117 1233 1229 1116 1240 1362
8 1102 1001 1116 1229 1228 1115 1240 1362
8 1104 996 1112 1230 1231 1113 1236 1363
8 1364 1237 1114 1232 1231 1113 997 1106
8 1109 1005 1114 1232 1234 1118 1238 1365
8 1110 1004 1118 1234 1233 1117 1241 1366
8 1242 1374 1255 1138 1119 1243 1132 1025
8 1244 1127 1254 1376 1121 1015 1129 1245
8 1148 1031 1149 1275 1244 1127 1254 1376
8 1245 1129 1258 1377 1125 1016 1130 1248
8 1251 1134 1019 1126 1378 1257 1128 1246
8 1378 1257 1128 1246 1247 1131 1017 1123
8 1248 1130 1259 1379 1124 1018 1131 1247
8 1261 1381 1250 1133 1132 1249 1330 1199
8 1255 1380 1252 1135 1132 1249 1381 1261
8 1250 1133 1019 1126 1382 1262 1134 1251
8 1253 1136 1256 1385 1384 1263 1135 1252
8 1254 1137 1265 1387 1129 1022 1141 1258
8 1149 1032 1150 1276 1254 1137 1265 1387
8 1028 1135 1255 1138 1139 1256 1388 1266
8 1136 1029 1147 1264 1256 1139 1267 1389
8 1390 1268 1140 1257 1259 1142 1024 1131
8 1260 1143 1027 1134 1390 1268 1140 1257
8 1258 1141 1269 1391 1130 1023 1142 1259
8 1262 1145 1027 1134 1393 1271 1143 1260
8 1261 1144 1026 1133 1394 1272 1145 1262
8 1135 1028 1144 1261 1263 1146 1272 1394
8 1136 1029 1146 1263 1264 1147 1273 1395
8 1155 1041 1160 1282 1275 1149 1276 1405
8 1276 1150 1044 1160 1406 1277 1162 1286
8 1408 1283 1159 1279 1278 1156 1039 1151
8 1290 1165 1283 1408 1177 1053 1156 1278
8 1152 1040 1159 1279 1280 1158 1285 1409
8 1281 1157 1038 1153 1410 1284 1158 1280
8 1281 1157 1284 1410 1154 1042 1160 1282
8 1159 1046 1164 1283 1285 1163 1289 1412
8 1292 1167 1289 1412 1165 1048 1164 1283
8 1158 1045 1163 1285 1284 1161 1288 1413
8 1284 1161 1288 1413 1160 1044 1162 1286
8 1291 1166 1292 1418 1174 1051 1165 1290
8 1291 1166 1051 1174 1419 1293 1172 1305
8 1294 1169 1296 1421 1166 1049 1167 1292
8 1293 1168 1050 1172 1422 1295 1171 1303
8 1294 1169 1049 1166 1423 1297 1168 1293
8 1422 1295 1171 1303 1301 1170 1302 1435
8 1172 1050 1173 1306 1303 1171 1304 1438
8 1174 1051 1175 1308 1305 1172 1306 1440
8 1175 1052 1176 1309 1306 1173 1307 1441
8 1177 1053 1178 1311 1308 1175 1309 1443
8 1178 1054 1179 1312 1309 1176 1310 1444
8 1180 1055 1181 1314 1311 1178 1312 1446
8 1056 1181 1312 1179 1182 1315 1447 1313
8 1183 1058 1184 1316 1314 1181 1315 1448
8 1319 1186 1084 1214 1451 1317 1213 1350
8 1319 1186 1318 1453 1208 1081 1187 1321
8 1321 1187 1320 1456 1188 1063 1189 1323
8 1344 1208 1321 1457 1209 1082 1188 1322
8 1322 1188 1323 1458 1190 1064 1191 1325
8 1323 1189 1324 1459 1191 1065 1192 1326
8 1191 1325 1193 1067 1326 1460 1327 1194
8 1242 1374 1243 1119 1328 1462 1335 1204
8 1330 1199 1333 1465 1196 1075 1200 1331
8 1132 1249 1330 1199 1243 1375 1465 1333
8 1332 1201 1077 1198 1466 1334 1200 1331
8 1215 1099 1201 1332 1352 1227 1334 1466
8 1119 1243 1333 1203 1204 1335 1470 1338
8 1333 1203 1338 1470 1200 1080 1202 1334
8 1227 1111 1202 1334 1360 1235 1338 1470
8 1328 1462 1335 1204 1205 1336 1471 1339
8 1337 1206 1340 1472 1464 1329 1205 1336
8 1346 1211 1342 1479 1210 1083 1207 1343
8 1346 1211 1115 1228 1479 1342 1239 1361
8 1348 1212 1084 1214 1479 1342 1207 1343
8 1480 1343 1208 1344 1345 1210 1082 1209
8 1351 1214 1319 1454 1480 1343 1208 1344
8 1481 1346 1210 1345 1359 1228 1100 1225
8 1348 1212 1347 1483 1214 1084 1213 1350
8 1216 1103 1227 1352 1353 1230 1360 1488
8 1217 1104 1230 1353 1354 1231 1363 1489
8 1490 1364 1232 1355 1354 1231 1106 1219
8 1220 1109 1232 1355 1356 1234 1365 1491
8 1221 1110 1234 1356 1357 1233 1366 1492
8 1224 1107 1233 1357 1358 1229 1362 1493
8 1226 1102 1229 1358 1359 1228 1362 1493
8 1230 1112 1235 1360 1363 1236 1367 1496
8 1361 1239 1115 1228 1497 1371 1240 1362
8 1366 1241 1372 1498 1233 1117 1240 1362
8 1364 1237 1113 1231 1499 1368 1236 1363
8 1364 1237 1368 1499 1232 1114 1238 1365
8 1234 1118 1238 1365 1366 1241 1369 1500
8 1507 1373 1242 1374 1388 1266 1138 1255
8 1508 1374 1243 1375 1380 1255 1132 1249
8 1376 1254 1387 1509 1245 1129 1258 1377
8 1275 1149 1276 1405 1376 1254 1387 1509
8 1377 1258 1391 1510 1248 1130 1259 1379
8 1511 1390 1257 1378 1379 1259 1131 1247
8 1383 1260 1134 1251 1511 1390 1257 1378
8 1252 1135 1256 1385 1380 1255 1388 1512
8 1261 1381 1513 1394 1133 1250 1382 1262
8 1135 1252 1384 1263 1261 1381 1513 1394
8 1382 1262 1134 1251 1514 1393 1260 1383
8 1253 1136 1263 1384 1386 1264 1395 1516
8 1253 1136 1264 1386 1385 1256 1389 1517
8 1387 1265 1397 1519 1258 1141 1269 1391
8 1276 1150 1277 1406 1387 1265 1397 1519
8 1256 1139 1267 1389 1388 1266 1398 1520
8 1264 1147 1274 1396 1389 1267 1399 1521
8 1392 1270 1143 1260 1522 1400 1268 1390
8 1390 1268 1142 1259 1522 1400 1269 1391
8 1392 1270 1401 1523 1260 1143 1271 1393
8 1272 1394 1524 1402 1145 1262 1393 1271
8 1395 1273 1146 1263 1524 1402 1272 1394
8 1273 1395 1264 1147 1403 1526 1396 1274
8 1405 1276 1160 1282 1534 1406 1286 1411
8 1414 1287 1407 1535 1286 1162 1277 1406
8 1279 1159 1283 1408 1409 1285 1412 1537
8 1418 1292 1412 1537 1290 1165 1283 1408
8 1280 1158 1285 1409 1410 1284 1413 1538
8 1410 1284 1413 1538 1282 1160 1286 1411
8 1285 1163 1289 1412 1413 1288 1417 1540
8 1421 1296 1417 1540 1292 1167 1289 1412
8 1414 1287 1162 1286 1541 1416 1288 1413
8 1420 1294 1421 1545 1291 1166 1292 1418
8 1419 1293 1172 1305 1546 1422 1303 1437
8 1420 1294 1166 1291 1547 1423 1293 1419
8 1294 1169 1297 1423 1421 1296 1425 1548
8 1423 1297 1168 1293 1549 1424 1295 1422
8 1301 1170 1298 1427 1422 1295 1424 1549
8 1432 1300 1428 1554 1301 1170 1298 1427
8 1431 1299 1428 1554 1560 1430 1300 1432
8 1563 1433 1300 1432 1435 1302 1170 1301
8 1546 1422 1303 1437 1434 1301 1435 1565
8 1303 1171 1304 1438 1435 1302 1436 1566
8 1305 1172 1306 1440 1437 1303 1438 1568
8 1306 1173 1307 1441 1438 1304 1439 1569
8 1308 1175 1309 1443 1440 1306 1441 1571
8 1309 1176 1310 1444 1441 1307 1442 1572
8 1311 1178 1312 1446 1443 1309 1444 1574
8 1179 1312 1444 1310 1313 1447 1575 1445
8 1314 1181 1315 1448 1446 1312 1447 1576
8 1350 1213 1349 1486 1451 1317 1449 1579
8 1451 1317 1450 1581 1319 1186 1318 1453
8 1454 1319 1214 1351 1582 1451 1350 1487
8 1453 1318 1452 1584 1321 1187 1320 1456
8 1454 1319 1453 1585 1344 1208 1321 1457
8 1456 1320 1455 1586 1323 1189 1324 1459
8 1457 1321 1456 1587 1322 1188 1323 1458
8 1458 1323 1459 1588 1325 1191 1326 1460
8 1205 1336 1464 1329 1328 1462 1590 1461
8 1507 1373 1461 1590 1374 1242 1328 1462
8 1508 1374 1462 1591 1375 1243 1335 1467
8 1337 1206 1329 1464 1473 1341 1463 1594
8 1375 1243 1335 1467 1465 1333 1470 1596
8 1465 1333 1470 1596 1331 1200 1334 1466
8 1352 1227 1334 1466 1488 1360 1470 1596
8 1591 1462 1336 1468 1467 1335 1471 1597
8 1469 1337 1472 1598 1595 1464 1336 1468
8 1471 1339 1474 1600 1335 1204 1338 1470
8 1600 1474 1367 1496 1470 1338 1235 1360
8 1336 1205 1340 1472 1471 1339 1475 1601
8 1337 1206 1341 1473 1472 1340 1476 1602
8 1495 1370 1478 1609 1361 1239 1342 1479
8 1348 1212 1342 1479 1483 1347 1478 1609
8 1481 1346 1479 1610 1345 1210 1343 1480
8 1481 1346 1228 1359 1610 1479 1361 1494
8 1484 1348 1214 1351 1610 1479 1343 1480
8 1483 1347 1482 1612 1350 1213 1349 1486
8 1484 1348 1483 1613 1351 1214 1350 1487
8 1353 1230 1360 1488 1489 1363 1496 1616
8 1490 1364 1231 1354 1617 1499 1363 1489
8 1490 1364 1499 1617 1355 1232 1365 1491
8 1356 1234 1365 1491 1492 1366 1500 1619
8 1492 1366 1498 1620 1357 1233 1362 1493
8 1494 1361 1228 1359 1621 1497 1362 1493
8 1495 1370 1239 1361 1622 1504 1371 1497
8 1363 1236 1367 1496 1499 1368 1501 1623
8 1497 1371 1240 1362 1624 1505 1372 1498
8 1625 1503 1372 1498 1500 1369 1241 1366
8 1365 1238 1368 1499 1500 1369 1502 1626
8 1520 1398 1506 1633 1388 1266 1373 1507
8 1634 1507 1374 1508 1512 1388 1255 1380
8 1509 1387 1519 1635 1377 1258 1391 1510
8 1405 1276 1406 1534 1509 1387 1519 1635
8 1515 1392 1260 1383 1636 1522 1390 1511
8 1511 1390 1259 1379 1636 1522 1391 1510
8 1385 1256 1389 1517 1512 1388 1520 1637
8 1513 1394 1262 1382 1638 1524 1393 1514
8 1395 1516 1638 1524 1263 1384 1513 1394
8 1515 1392 1523 1639 1383 1260 1393 1514
8 1516 1395 1526 1640 1386 1264 1396 1518
8 1386 1264 1396 1518 1517 1389 1521 1641
8 1519 1397 1527 1643 1391 1269 1400 1522
8 1535 1407 1527 1643 1406 1277 1397 1519
8 1389 1267 1399 1521 1520 1398 1528 1644
8 1645 1529 1399 1521 1525 1404 1274 1396
8 1392 1270 1400 1522 1523 1401 1531 1646
8 1524 1402 1271 1393 1648 1532 1401 1523
8 1403 1526 1648 1532 1273 1395 1524 1402
8 1525 1404 1274 1396 1649 1533 1403 1526
8 1539 1414 1535 1657 1411 1286 1406 1534
8 1542 1415 1536 1658 1414 1287 1407 1535
8 1409 1285 1412 1537 1538 1413 1540 1660
8 1545 1421 1540 1660 1418 1292 1412 1537
8 1539 1414 1286 1411 1661 1541 1413 1538
8 1540 1417 1544 1663 1413 1288 1416 1541
8 1421 1296 1425 1548 1540 1417 1544 1663
8 1542 1415 1287 1414 1664 1543 1416 1541
8 1420 1294 1423 1547 1545 1421 1548 1666
8 1547 1423 1293 1419 1667 1549 1422 1546
8 1434 1301 1427 1553 1546 1422 1549 1667
8 1423 1297 1424 1549 1548 1425 1550 1668
8 1551 1426 1550 1668 1427 1298 1424 1549
8 1551 1426 1298 1427 1671 1552 1428 1554
8 1562 1432 1554 1674 1434 1301 1427 1553
8 1431 1299 1429 1558 1554 1428 1555 1675
8 1431 1299 1430 1560 1558 1429 1557 1680
8 1560 1430 1300 1432 1683 1559 1433 1563
8 1561 1431 1554 1674 1684 1560 1432 1562
8 1685 1563 1432 1562 1565 1435 1301 1434
8 1435 1302 1436 1566 1563 1433 1564 1686
8 1437 1303 1438 1568 1565 1435 1566 1688
8 1438 1304 1439 1569 1566 1436 1567 1689
8 1440 1306 1441 1571 1568 1438 1569 1691
8 1441 1307 1442 1572 1569 1439 1570 1692
8 1443 1309 1444 1574 1571 1441 1572 1694
8 1310 1444 1572 1442 1445 1575 1695 1573
8 1446 1312 1447 1576 1574 1444 1575 1696
8 1486 1349 1485 1614 1579 1449 1577 1699
8 1451 1317 1449 1579 1581 1450 1578 1701
8 1487 1350 1486 1615 1582 1451 1579 1702
8 1581 1450 1580 1704 1453 1318 1452 1584
8 1582 1451 1581 1705 1454 1319 1453 1585
8 1584 1452 1583 1706 1456 1320 1455 1586
8 1585 1453 1584 1707 1457 1321 1456 1587
8 1587 1456 1586 1708 1458 1323 1459 1588
8 1633 1506 1589 1710 1507 1373 1461 1590
8 1464 1329 1461 1590 1594 1463 1589 1710
8 1468 1336 1462 1591 1595 1464 1590 1711
8 1634 1507 1590 1711 1508 1374 1462 1591
8 1473 1341 1463 1594 1603 1477 1593 1716
8 1469 1337 1464 1595 1599 1473 1594 1717
8 1471 1597 1467 1335 1600 1718 1596 1470
8 1718 1600 1496 1616 1596 1470 1360 1488
8 1336 1468 1597 1471 1472 1598 1719 1601
8 1469 1337 1473 1599 1598 1472 1602 1720
8 1722 1604 1501 1623 1600 1474 1367 1496
8 1475 1601 1471 1339 1604 1722 1600 1474
8 1602 1476 1605 1723 1472 1340 1475 1601
8 1476 1602 1724 1606 1341 1473 1603 1477
8 1483 1347 1478 1609 1612 1482 1608 1731
8 1495 1370 1504 1622 1609 1478 1608 1731
8 1618 1495 1609 1732 1494 1361 1479 1610
8 1484 1348 1479 1610 1613 1483 1609 1732
8 1486 1349 1482 1612 1614 1485 1611 1733
8 1613 1483 1612 1734 1487 1350 1486 1615
8 1489 1363 1496 1616 1617 1499 1623 1736
8 1491 1365 1499 1617 1619 1500 1626 1737
8 1618 1495 1361 1494 1738 1622 1497 1621
8 1739 1625 1498 1620 1619 1500 1366 1492
8 1621 1497 1362 1493 1740 1624 1498 1620
8 1742 1631 1504 1622 1624 1505 1371 1497
8 1743 1628 1502 1626 1623 1501 1368 1499
8 1744 1630 1505 1624 1625 1503 1372 1498
8 1745 1629 1503 1625 1626 1502 1369 1500
8 1520 1398 1528 1644 1633 1506 1632 1751
8 1637 1520 1633 1752 1512 1388 1507 1634
8 1635 1519 1643 1753 1510 1391 1522 1636
8 1657 1535 1643 1753 1534 1406 1519 1635
8 1515 1392 1522 1636 1639 1523 1646 1754
8 1517 1389 1521 1641 1637 1520 1644 1755
8 1524 1638 1756 1648 1393 1514 1639 1523
8 1640 1526 1395 1516 1756 1648 1524 1638
8 1642 1525 1396 1518 1757 1649 1526 1640
8 1758 1645 1521 1641 1642 1525 1396 1518
8 1646 1531 1400 1522 1760 1650 1527 1643
8 1535 1407 1536 1658 1643 1527 1650 1760
8 1521 1399 1529 1645 1644 1528 1651 1761
8 1647 1530 1652 1762 1525 1404 1529 1645
8 1401 1523 1648 1532 1531 1646 1763 1655
8 1525 1404 1533 1649 1647 1530 1654 1765
8 1533 1649 1766 1656 1403 1526 1648 1532
8 1662 1542 1658 1774 1539 1414 1535 1657
8 1542 1415 1543 1664 1658 1536 1659 1775
8 1660 1540 1663 1777 1538 1413 1541 1661
8 1545 1421 1548 1666 1660 1540 1663 1777
8 1662 1542 1414 1539 1778 1664 1541 1661
8 1664 1543 1416 1541 1779 1665 1544 1663
8 1548 1425 1550 1668 1663 1544 1665 1779
8 1547 1423 1549 1667 1666 1548 1668 1781
8 1670 1551 1668 1781 1553 1427 1549 1667
8 1551 1426 1552 1671 1668 1550 1669 1782
8 1670 1551 1427 1553 1784 1671 1554 1674
8 1675 1555 1672 1785 1554 1428 1552 1671
8 1678 1556 1673 1789 1558 1429 1555 1675
8 1561 1431 1558 1681 1674 1554 1675 1790
8 1794 1677 1556 1678 1680 1557 1429 1558
8 1560 1430 1559 1683 1680 1557 1679 1797
8 1561 1431 1560 1684 1681 1558 1680 1798
8 1563 1433 1564 1686 1683 1559 1682 1800
8 1684 1560 1432 1562 1801 1683 1563 1685
8 1565 1435 1566 1688 1685 1563 1686 1802
8 1566 1436 1567 1689 1686 1564 1687 1803
8 1568 1438 1569 1691 1688 1566 1689 1805
8 1569 1439 1570 1692 1689 1567 1690 1806
8 1571 1441 1572 1694 1691 1569 1692 1808
8 1442 1572 1692 1570 1573 1695 1809 1693
8 1574 1444 1575 1696 1694 1572 1695 1810
8 1614 1485 1592 1712 1699 1577 1697 1813
8 1579 1449 1577 1699 1701 1578 1698 1815
8 1615 1486 1614 1735 1702 1579 1699 1816
8 1701 1578 1700 1818 1581 1450 1580 1704
8 1582 1451 1579 1702 1705 1581 1701 1819
8 1704 1580 1703 1820 1584 1452 1583 1706
8 1705 1581 1704 1821 1585 1453 1584 1707
8 1707 1584 1706 1822 1587 1456 1586 1708
8 1710 1589 1506 1633 1824 1709 1632 1751
8 1594 1463 1589 1710 1716 1593 1709 1824
8 1752 1633 1710 1825 1634 1507 1590 1711
8 1595 1464 1590 1711 1717 1594 1710 1825
8 1830 1714 1592 1712 1733 1611 1485 1614
8 1603 1477 1593 1716 1725 1607 1715 1834
8 1599 1473 1594 1717 1721 1603 1716 1835
8 1837 1722 1623 1736 1718 1600 1496 1616
8 1719 1601 1722 1837 1597 1471 1600 1718
8 1602 1720 1598 1472 1723 1838 1719 1601
8 1720 1602 1473 1599 1839 1724 1603 1721
8 1723 1605 1726 1840 1601 1475 1604 1722
8 1840 1726 1628 1743 1722 1604 1501 1623
8 1724 1606 1727 1841 1602 1476 1605 1723
8 1725 1607 1728 1842 1603 1477 1606 1724
8 1612 1482 1608 1731 1733 1611 1730 1849
8 1741 1627 1730 1849 1622 1504 1608 1731
8 1613 1483 1609 1732 1734 1612 1731 1850
8 1618 1495 1622 1738 1732 1609 1731 1850
8 1615 1486 1612 1734 1735 1614 1733 1851
8 1852 1743 1626 1737 1736 1623 1499 1617
8 1853 1745 1625 1739 1737 1626 1500 1619
8 1855 1742 1622 1738 1740 1624 1497 1621
8 1856 1744 1624 1740 1739 1625 1498 1620
8 1741 1627 1504 1622 1857 1746 1631 1742
8 1742 1631 1505 1624 1858 1749 1630 1744
8 1859 1747 1629 1745 1743 1628 1502 1626
8 1860 1748 1630 1744 1745 1629 1503 1625
8 1644 1528 1651 1761 1751 1632 1750 1865
8 1637 1520 1644 1755 1752 1633 1751 1866
8 1754 1646 1522 1636 1867 1760 1643 1753
8 1657 1535 1658 1774 1753 1643 1760 1867
8 1639 1523 1646 1754 1756 1648 1763 1868
8 1641 1521 1645 1758 1755 1644 1761 1869
8 1757 1649 1526 1640 1870 1766 1648 1756
8 1642 1525 1649 1757 1759 1647 1765 1871
8 1759 1647 1762 1872 1642 1525 1645 1758
8 1760 1650 1767 1874 1646 1531 1655 1763
8 1658 1536 1659 1775 1760 1650 1767 1874
8 1762 1652 1768 1875 1645 1529 1651 1761
8 1764 1653 1769 1876 1647 1530 1652 1762
8 1656 1766 1877 1773 1532 1648 1763 1655
8 1771 1879 1765 1654 1653 1764 1647 1530
8 1533 1649 1765 1654 1656 1766 1880 1772
8 1662 1542 1664 1778 1774 1658 1775 1887
8 1664 1543 1665 1779 1775 1659 1776 1888
8 1778 1664 1541 1661 1890 1779 1663 1777
8 1666 1548 1668 1781 1777 1663 1779 1890
8 1782 1669 1780 1891 1668 1550 1665 1779
8 1670 1551 1671 1784 1781 1668 1782 1893
8 1671 1552 1672 1785 1782 1669 1783 1894
8 1790 1675 1785 1896 1674 1554 1671 1784
8 1675 1555 1673 1789 1785 1672 1786 1897
8 1792 1676 1788 1903 1678 1556 1673 1789
8 1795 1678 1789 1904 1681 1558 1675 1790
8 1792 1676 1556 1678 1906 1791 1677 1794
8 1680 1557 1679 1797 1794 1677 1793 1909
8 1910 1794 1678 1795 1798 1680 1558 1681
8 1683 1559 1682 1800 1797 1679 1796 1912
8 1684 1560 1683 1801 1798 1680 1797 1913
8 1686 1564 1687 1803 1800 1682 1799 1915
8 1685 1563 1686 1802 1801 1683 1800 1916
8 1688 1566 1689 1805 1802 1686 1803 1917
8 1689 1567 1690 1806 1803 1687 1804 1918
8 1691 1569 1692 1808 1805 1689 1806 1920
8 1692 1570 1693 1809 1806 1690 1807 1921
8 1694 1572 1695 1810 1808 1692 1809 1922
8 1829 1713 1811 1926 1712 1592 1697 1813
8 1813 1697 1812 1928 1699 1577 1698 1815
8 1735 1614 1712 1828 1816 1699 1813 1929
8 1815 1698 1814 1931 1701 1578 1700 1818
8 1702 1579 1699 1816 1819 1701 1815 1932
8 1818 1700 1817 1933 1704 1580 1703 1820
8 1819 1701 1818 1934 1705 1581 1704 1821
8 1821 1704 1820 1935 1707 1584 1706 1822
8 1824 1709 1632 1751 1937 1823 1750 1865
8 1716 1593 1709 1824 1834 1715 1823 1937
8 1825 1710 1633 1752 1938 1824 1751 1866
8 1717 1594 1710 1825 1835 1716 1824 1938
8 1945 1830 1712 1828 1851 1733 1614 1735
8 1830 1714 1831 1946 1712 1592 1713 1829
8 1947 1832 1714 1830 1849 1730 1611 1733
8 1843 1729 1607 1725 1950 1833 1715 1834
8 1721 1603 1716 1835 1836 1725 1834 1951
8 1836 1725 1842 1953 1721 1603 1724 1839
8 1723 1838 1719 1601 1840 1954 1837 1722
8 1954 1840 1743 1852 1837 1722 1623 1736
8 1724 1839 1720 1602 1841 1955 1838 1723
8 1841 1727 1844 1956 1723 1605 1726 1840
8 1956 1844 1747 1859 1840 1726 1628 1743
8 1728 1842 1724 1606 1845 1957 1841 1727
8 1725 1607 1729 1843 1842 1728 1846 1958
8 1741 1627 1746 1857 1849 1730 1848 1965
8 1734 1612 1731 1850 1851 1733 1849 1966
8 1854 1741 1849 1966 1738 1622 1731 1850
8 1967 1859 1745 1853 1852 1743 1626 1737
8 1968 1860 1744 1856 1853 1745 1625 1739
8 1854 1741 1622 1738 1969 1857 1742 1855
8 1855 1742 1624 1740 1970 1858 1744 1856
8 1857 1746 1631 1742 1971 1861 1749 1858
8 1858 1749 1630 1744 1972 1863 1748 1860
8 1859 1747 1862 1973 1745 1629 1748 1860
8 1875 1768 1864 1977 1761 1651 1750 1865
8 1755 1644 1761 1869 1866 1751 1865 1978
8 1867 1760 1874 1979 1754 1646 1763 1868
8 1774 1658 1775 1887 1867 1760 1874 1979
8 1870 1766 1648 1756 1980 1877 1763 1868
8 1872 1762 1875 1981 1758 1645 1761 1869
8 1757 1649 1766 1870 1871 1765 1880 1982
8 1983 1879 1764 1873 1871 1765 1647 1759
8 1873 1764 1876 1984 1759 1647 1762 1872
8 1877 1773 1655 1763 1986 1881 1767 1874
8 1775 1659 1776 1888 1874 1767 1881 1986
8 1876 1769 1882 1987 1762 1652 1768 1875
8 1878 1770 1883 1988 1764 1653 1769 1876
8 1880 1772 1656 1766 1989 1886 1773 1877
8 1878 1770 1653 1764 1990 1884 1771 1879
8 1765 1654 1772 1880 1879 1771 1885 1991
8 1778 1664 1779 1890 1887 1775 1888 1997
8 1998 1889 1776 1888 1891 1780 1665 1779
8 1893 1782 1891 2000 1781 1668 1779 1890
8 1894 1783 1892 2001 1782 1669 1780 1891
8 1784 1671 1785 1896 1893 1782 1894 2003
8 1897 1786 1895 2004 1785 1672 1783 1894
8 1790 1675 1789 1904 1896 1785 1897 2006
8 1901 1787 1898 2007 1789 1673 1786 1897
8 1903 1788 1900 2013 1789 1673 1787 1901
8 1792 1676 1791 1906 1903 1788 1902 2016
8 1907 1792 1903 2017 1795 1678 1789 1904
8 1906 1791 1677 1794 2019 1905 1793 1909
8 1907 1792 1678 1795 2020 1906 1794 1910
8 1797 1679 1796 1912 1909 1793 1908 2022
8 1798 1680 1797 1913 1910 1794 1909 2023
8 1800 1682 1799 1915 1912 1796 1911 2025
8 1801 1683 1800 1916 1913 1797 1912 2026
8 1803 1687 1804 1918 1915 1799 1914 2028
8 1802 1686 1803 1917 1916 1800 1915 2029
8 1805 1689 1806 1920 1917 1803 1918 2030
8 1806 1690 1807 1921 1918 1804 1919 2031
8 1808 1692 1809 1922 1920 1806 1921 2032
8 1939 1826 1924 2037 1829 1713 1811 1926
8 1926 1811 1925 2039 1813 1697 1812 1928
8 1944 1829 1926 2040 1828 1712 1813 1929
8 1928 1812 1927 2042 1815 1698 1814 1931
8 1929 1813 1928 2043 1816 1699 1815 1932
8 1931 1814 1930 2044 1818 1700 1817 1933
8 1932 1815 1931 2045 1819 1701 1818 1934
8 1934 1818 1933 2046 1821 1704 1820 1935
8 2048 1936 1823 1937 1977 1864 1750 1865
8 1950 1833 1715 1834 2048 1936 1823 1937
8 1938 1824 1751 1866 2049 1937 1865 1978
8 1835 1716 1824 1938 1951 1834 1937 2049
8 1939 1826 1713 1829 2053 1942 1831 1946
8 1940 1827 1923 2035 2053 1942 1826 1939
8 1945 1830 1946 2058 1828 1712 1829 1944
8 2059 1947 1830 1945 1966 1849 1733 1851
8 1947 1832 1730 1849 2060 1948 1848 1965
8 1947 1832 1948 2060 1830 1714 1831 1946
8 1959 1847 1729 1843 2063 1949 1833 1950
8 1952 1843 1725 1836 2064 1950 1834 1951
8 1836 1725 1843 1952 1953 1842 1958 2066
8 1953 1842 1957 2067 1839 1724 1841 1955
8 1841 1955 1838 1723 1956 2068 1954 1840
8 2068 1956 1859 1967 1954 1840 1743 1852
8 1956 1844 1960 2069 1859 1747 1862 1973
8 1845 1957 1841 1727 1960 2069 1956 1844
8 1728 1842 1957 1845 1846 1958 2071 1961
8 1962 2072 1959 1847 1846 1958 1843 1729
8 1971 1861 1964 2077 1857 1746 1848 1965
8 1854 1741 1857 1969 1966 1849 1965 2078
8 1967 1859 1973 2079 1853 1745 1860 1968
8 1970 1858 1744 1856 2080 1972 1860 1968
8 1969 1857 1742 1855 2081 1971 1858 1970
8 1971 1861 1749 1858 2082 1974 1863 1972
8 1973 1862 1975 2083 1860 1748 1863 1972
8 1987 1882 1976 2086 1875 1768 1864 1977
8 1981 1875 1977 2087 1869 1761 1865 1978
8 1980 1877 1763 1868 2088 1986 1874 1979
8 1887 1775 1888 1997 1979 1874 1986 2088
8 1880 1982 2089 1989 1766 1870 1980 1877
8 1984 1876 1987 2090 1872 1762 1875 1981
8 1765 1871 1983 1879 1880 1982 2091 1991
8 1985 1878 1764 1873 2092 1990 1879 1983
8 1985 1878 1988 2093 1873 1764 1876 1984
8 2094 1992 1881 1986 1998 1889 1776 1888
8 1986 1881 1992 2094 1877 1773 1886 1989
8 1988 1883 1993 2095 1876 1769 1882 1987
8 1878 1770 1884 1990 1988 1883 1994 2096
8 1991 1885 1772 1880 2097 1996 1886 1989
8 1879 1771 1885 1991 1990 1884 1995 2098
8 2103 1998 1888 1997 2000 1891 1779 1890
8 2104 1999 1889 1998 2001 1892 1780 1891
8 2003 1894 2001 2106 1893 1782 1891 2000
8 2004 1895 2002 2107 1894 1783 1892 2001
8 2006 1897 2004 2109 1896 1785 1894 2003
8 2007 1898 2005 2110 1897 1786 1895 2004
8 2014 1901 2007 2112 1904 1789 1897 2006
8 2011 1899 2008 2113 1901 1787 1898 2007
8 2119 2010 1899 2011 2013 1900 1787 1901
8 2016 1902 2012 2122 1903 1788 1900 2013
8 2017 1903 2013 2123 1904 1789 1901 2014
8 1906 1791 1905 2019 2016 1902 2015 2125
8 1907 1792 1906 2020 2017 1903 2016 2126
8 1909 1793 1908 2022 2019 1905 2018 2128
8 2020 1906 1794 1910 2129 2019 1909 2023
8 1912 1796 1911 2025 2022 1908 2021 2131
8 1913 1797 1912 2026 2023 1909 2022 2132
8 1915 1799 1914 2028 2025 1911 2024 2134
8 1916 1800 1915 2029 2026 1912 2025 2135
8 1918 1804 1919 2031 2028 1914 2027 2136
8 1917 1803 1918 2030 2029 1915 2028 2137
8 1920 1806 1921 2032 2030 1918 2031 2138
8 1940 1827 1941 2054 2035 1923 2033 2140
8 2035 1923 2034 2143 1939 1826 1924 2037
8 2037 1924 2036 2146 1926 1811 1925 2039
8 2051 1939 2037 2147 1944 1829 1926 2040
8 2039 1925 2038 2149 1928 1812 1927 2042
8 2040 1926 2039 2150 1929 1813 1928 2043
8 2042 1927 2041 2151 1931 1814 1930 2044
8 2043 1928 2042 2152 1932 1815 1931 2045
8 2045 1931 2044 2153 1934 1818 1933 2046
8 2155 2047 1936 2048 2086 1976 1864 1977
8 2063 1949 1833 1950 2155 2047 1936 2048
8 2156 2048 1937 2049 2087 1977 1865 1978
8 2064 1950 1834 1951 2156 2048 1937 2049
8 2051 1939 1829 1944 2160 2053 1946 2058
8 2052 1940 2035 2144 2160 2053 1939 2051
8 2053 1942 1831 1946 2163 2057 1948 2060
8 2055 1943 1827 1940 2163 2057 1942 2053
8 2055 1943 2056 2164 1940 1827 1941 2054
8 2059 1947 1849 1966 2167 2060 1965 2078
8 2059 1947 2060 2167 1945 1830 1946 2058
8 2077 1964 2061 2168 1965 1848 1948 2060
8 2070 1963 1847 1959 2170 2062 1949 2063
8 2065 1959 1843 1952 2171 2063 1950 2064
8 2173 2072 1958 2066 2065 1959 1843 1952
8 1953 1842 1958 2066 2067 1957 2071 2174
8 2068 1956 2069 2175 1967 1859 1973 2079
8 2067 1957 2069 2175 1955 1841 1956 2068
8 1845 1957 2069 1960 1961 2071 2176 2073
8 2069 1960 2073 2176 1973 1862 1975 2083
8 2070 1963 2075 2177 1959 1847 1962 2072
8 1846 1958 2071 1961 1962 2072 2178 2074
8 2077 1964 1861 1971 2182 2076 1974 2082
8 2081 1971 2077 2183 1969 1857 1965 2078
8 2079 1973 2083 2184 1968 1860 1972 2080
8 2081 1971 1858 1970 2185 2082 1972 2080
8 2083 1975 2084 2186 1972 1863 1974 2082
8 2086 1976 1882 1987 2189 2085 1993 2095
8 2090 1987 2086 2190 1981 1875 1977 2087
8 2191 2094 1986 2088 2103 1998 1888 1997
8 2088 1986 2094 2191 1980 1877 1989 2089
8 1991 2091 2192 2097 1880 1982 2089 1989
8 2093 1988 2095 2193 1984 1876 1987 2090
8 1879 1983 2092 1990 1991 2091 2194 2098
8 1985 1878 1990 2092 2093 1988 2096 2195
8 2097 1996 1886 1989 2196 2099 1992 2094
8 2196 2099 1992 2094 2104 1999 1889 1998
8 1994 2096 1988 1883 2100 2197 2095 1993
8 2096 1994 1884 1990 2198 2101 1995 2098
8 1995 2098 2199 2102 1885 1991 2097 1996
8 2203 2104 1998 2103 2106 2001 1891 2000
8 2107 2002 2105 2204 2001 1892 1999 2104
8 2109 2004 2107 2206 2003 1894 2001 2106
8 2110 2005 2108 2207 2004 1895 2002 2107
8 2112 2007 2110 2209 2006 1897 2004 2109
8 2113 2008 2111 2210 2007 1898 2005 2110
8 2120 2011 2113 2212 2014 1901 2007 2112
8 2117 2009 2114 2213 2011 1899 2008 2113
8 2219 2116 2009 2117 2119 2010 1899 2011
8 2222 2118 2010 2119 2122 2012 1900 2013
8 2223 2119 2011 2120 2123 2013 1901 2014
8 2016 1902 2015 2125 2122 2012 2121 2225
8 2126 2016 2122 2226 2017 1903 2013 2123
8 2019 1905 2018 2128 2125 2015 2124 2228
8 2020 1906 2019 2129 2126 2016 2125 2229
8 2022 1908 2021 2131 2128 2018 2127 2231
8 2023 1909 2022 2132 2129 2019 2128 2232
8 2025 1911 2024 2134 2131 2021 2130 2234
8 2026 1912 2025 2135 2132 2022 2131 2235
8 1914 2028 2134 2024 2027 2136 2236 2133
8 2029 1915 2028 2137 2135 2025 2134 2237
8 2030 1918 2031 2138 2137 2028 2136 2238
8 2157 2050 2139 2240 2054 1941 2033 2140
8 2052 1940 2054 2161 2144 2035 2140 2242
8 2140 2033 2141 2243 2035 1923 2034 2143
8 2143 2034 2142 2246 2037 1924 2036 2146
8 2144 2035 2143 2247 2051 1939 2037 2147
8 2146 2036 2145 2249 2039 1925 2038 2149
8 2147 2037 2146 2250 2040 1926 2039 2150
8 2149 2038 2148 2251 2042 1927 2041 2151
8 2150 2039 2149 2252 2043 1928 2042 2152
8 2152 2042 2151 2253 2045 1931 2044 2153
8 2255 2154 2047 2155 2189 2085 1976 2086
8 2170 2062 1949 2063 2255 2154 2047 2155
8 2256 2155 2048 2156 2190 2086 1977 2087
8 2171 2063 1950 2064 2256 2155 2048 2156
8 2258 2159 2050 2157 2164 2056 1941 2054
8 2160 2053 1946 2058 2262 2163 2060 2167
8 2162 2055 1940 2052 2262 2163 2053 2160
8 2162 2055 2164 2263 2052 1940 2054 2161
8 2163 2057 1948 2060 2264 2165 2061 2168
8 2055 1943 2057 2163 2164 2056 2165 2264
8 2182 2076 2166 2268 2077 1964 2061 2168
8 2183 2077 2168 2269 2078 1965 2060 2167
8 2070 1963 2062 2170 2177 2075 2169 2271
8 2172 2070 1959 2065 2272 2170 2063 2171
8 2172 2070 2177 2273 2065 1959 2072 2173
8 2066 1958 2072 2173 2174 2071 2178 2274
8 2067 1957 2071 2174 2175 2069 2176 2275
8 2175 2069 2176 2275 2079 1973 2083 2184
8 2071 1961 2074 2178 2176 2073 2179 2276
8 2176 2073 2179 2276 2083 1975 2084 2186
8 2072 1962 2075 2177 2178 2074 2180 2277
8 2182 2076 1974 2082 2280 2181 2084 2186
8 2183 2077 1971 2081 2281 2182 2082 2185
8 2184 2083 2186 2282 2080 1972 2082 2185
8 2189 2085 1993 2095 2285 2188 2100 2197
8 2190 2086 1987 2090 2286 2189 2095 2193
8 2192 2097 1989 2089 2287 2196 2094 2191
8 2287 2196 2094 2191 2203 2104 1998 2103
8 2194 2098 1991 2091 2288 2199 2097 2192
8 2195 2096 2197 2289 2093 1988 2095 2193
8 2096 2195 2290 2198 1990 2092 2194 2098
8 2097 1996 2099 2196 2199 2102 2200 2291
8 2196 2099 1999 2104 2291 2200 2105 2204
8 2100 2197 2292 2201 1994 2096 2198 2101
8 1995 2098 2198 2101 2102 2199 2293 2202
8 2206 2107 2204 2296 2106 2001 2104 2203
8 2207 2108 2205 2297 2107 2002 2105 2204
8 2209 2110 2207 2299 2109 2004 2107 2206
8 2210 2111 2208 2300 2110 2005 2108 2207
8 2212 2113 2210 2302 2112 2007 2110 2209
8 2213 2114 2211 2303 2113 2008 2111 2210
8 2220 2117 2213 2305 2120 2011 2113 2212
8 2216 2115 2214 2306 2117 2009 2114 2213
8 2216 2115 2009 2117 2311 2217 2116 2219
8 2219 2116 2010 2119 2314 2218 2118 2222
8 2315 2219 2117 2220 2223 2119 2011 2120
8 2122 2012 2121 2225 2222 2118 2221 2317
8 2318 2222 2119 2223 2226 2122 2013 2123
8 2125 2015 2124 2228 2225 2121 2224 2320
8 2126 2016 2125 2229 2226 2122 2225 2321
8 2128 2018 2127 2231 2228 2124 2227 2323
8 2129 2019 2128 2232 2229 2125 2228 2324
8 2131 2021 2130 2234 2231 2127 2230 2326
8 2132 2022 2131 2235 2232 2128 2231 2327
8 2134 2024 2133 2236 2234 2130 2233 2328
8 2135 2025 2134 2237 2235 2131 2234 2329
8 2137 2028 2136 2238 2237 2134 2236 2330
8 2157 2050 2158 2259 2240 2139 2239 2332
8 2257 2157 2240 2334 2161 2054 2140 2242
8 2240 2139 2241 2335 2140 2033 2141 2243
8 2242 2140 2243 2337 2144 2035 2143 2247
8 2243 2141 2244 2338 2143 2034 2142 2246
8 2246 2142 2245 2341 2146 2036 2145 2249
8 2247 2143 2246 2342 2147 2037 2146 2250
8 2249 2145 2248 2343 2149 2038 2148 2251
8 2250 2146 2249 2344 2150 2039 2149 2252
8 2252 2149 2251 2345 2152 2042 2151 2253
8 2169 2271 2347 2254 2062 2170 2255 2154
8 2189 2085 2188 2285 2255 2154 2254 2347
8 2348 2255 2155 2256 2286 2189 2086 2190
8 2272 2170 2063 2171 2348 2255 2155 2256
8 2349 2258 2157 2257 2263 2164 2054 2161
8 2258 2159 2261 2351 2157 2050 2158 2259
8 2258 2159 2056 2164 2351 2261 2165 2264
8 2262 2163 2060 2167 2355 2264 2168 2269
8 2162 2055 2163 2262 2263 2164 2264 2355
8 2357 2266 2165 2264 2268 2166 2061 2168
8 2268 2166 2076 2182 2361 2267 2181 2280
8 2281 2182 2268 2362 2183 2077 2168 2269
8 2271 2169 2270 2364 2177 2075 2180 2277
8 2172 2070 2170 2272 2273 2177 2271 2365
8 2072 2173 2274 2178 2177 2273 2366 2277
8 2071 2174 2275 2176 2178 2274 2367 2276
8 2275 2176 2276 2367 2184 2083 2186 2282
8 2283 2187 2084 2186 2368 2278 2179 2276
8 2178 2074 2180 2277 2276 2179 2278 2368
8 2283 2187 2279 2370 2186 2084 2181 2280
8 2281 2182 2082 2185 2371 2280 2186 2282
8 2188 2285 2374 2284 2100 2197 2292 2201
8 2286 2189 2095 2193 2375 2285 2197 2289
8 2192 2097 2196 2287 2288 2199 2291 2376
8 2287 2196 2104 2203 2376 2291 2204 2296
8 2194 2098 2199 2288 2290 2198 2293 2377
8 2289 2197 2096 2195 2378 2292 2198 2290
8 2291 2200 2105 2204 2379 2294 2205 2297
8 2199 2102 2200 2291 2293 2202 2294 2379
8 2198 2101 2202 2293 2292 2201 2295 2380
8 2299 2207 2297 2383 2206 2107 2204 2296
8 2300 2208 2298 2384 2207 2108 2205 2297
8 2302 2210 2300 2386 2209 2110 2207 2299
8 2303 2211 2301 2387 2210 2111 2208 2300
8 2305 2213 2303 2389 2212 2113 2210 2302
8 2306 2214 2304 2390 2213 2114 2211 2303
8 2310 2216 2306 2392 2220 2117 2213 2305
8 2308 2215 2307 2393 2216 2115 2214 2306
8 2308 2215 2115 2216 2396 2309 2217 2311
8 2310 2216 2117 2220 2398 2311 2219 2315
8 2311 2217 2116 2219 2399 2312 2218 2314
8 2314 2218 2118 2222 2402 2313 2221 2317
8 2315 2219 2119 2223 2403 2314 2222 2318
8 2225 2121 2224 2320 2317 2221 2316 2405
8 2226 2122 2225 2321 2318 2222 2317 2406
8 2228 2124 2227 2323 2320 2224 2319 2408
8 2229 2125 2228 2324 2321 2225 2320 2409
8 2231 2127 2230 2326 2323 2227 2322 2411
8 2232 2128 2231 2327 2324 2228 2323 2412
8 2234 2130 2233 2328 2326 2230 2325 2413
8 2235 2131 2234 2329 2327 2231 2326 2414
8 2237 2134 2236 2330 2329 2234 2328 2415
8 2259 2158 2260 2352 2332 2239 2331 2417
8 2257 2157 2259 2350 2334 2240 2332 2419
8 2240 2139 2239 2332 2335 2241 2333 2420
8 2334 2240 2335 2422 2242 2140 2243 2337
8 2335 2241 2336 2423 2243 2141 2244 2338
8 2337 2243 2338 2425 2247 2143 2246 2342
8 2338 2244 2339 2426 2246 2142 2245 2341
8 2341 2245 2340 2428 2249 2145 2248 2343
8 2342 2246 2341 2429 2250 2146 2249 2344
8 2344 2249 2343 2430 2252 2149 2251 2345
8 2188 2285 2347 2254 2284 2374 2432 2346
8 2347 2254 2346 2432 2271 2169 2270 2364
8 2365 2271 2170 2272 2433 2347 2255 2348
8 2286 2189 2285 2375 2348 2255 2347 2433
8 2349 2258 2351 2435 2257 2157 2259 2350
8 2349 2258 2164 2263 2435 2351 2264 2355
8 2259 2158 2261 2351 2352 2260 2354 2437
8 2356 2265 2354 2437 2264 2165 2261 2351
8 2441 2357 2264 2355 2362 2268 2168 2269
8 2356 2265 2165 2264 2442 2358 2266 2357
8 2443 2359 2266 2357 2361 2267 2166 2268
8 2370 2279 2360 2446 2280 2181 2267 2361
8 2362 2268 2182 2281 2447 2361 2280 2371
8 2180 2277 2368 2278 2270 2364 2449 2363
8 2271 2365 2273 2177 2364 2450 2366 2277
8 2372 2283 2186 2282 2451 2368 2276 2367
8 2178 2274 2367 2276 2277 2366 2451 2368
8 2283 2187 2278 2368 2370 2279 2369 2452
8 2372 2283 2370 2453 2282 2186 2280 2371
8 2284 2374 2455 2373 2201 2292 2380 2295
8 2375 2285 2197 2289 2456 2374 2292 2378
8 2376 2291 2204 2296 2457 2379 2297 2383
8 2288 2199 2291 2376 2377 2293 2379 2457
8 2198 2290 2378 2292 2293 2377 2458 2380
8 2293 2202 2294 2379 2380 2295 2381 2459
8 2384 2298 2381 2459 2297 2205 2294 2379
8 2386 2300 2384 2463 2299 2207 2297 2383
8 2387 2301 2385 2464 2300 2208 2298 2384
8 2389 2303 2387 2466 2302 2210 2300 2386
8 2390 2304 2388 2467 2303 2211 2301 2387
8 2392 2306 2390 2469 2305 2213 2303 2389
8 2393 2307 2391 2470 2306 2214 2304 2390
8 2395 2308 2393 2472 2310 2216 2306 2392
8 2308 2215 2309 2396 2393 2307 2394 2473
8 2395 2308 2216 2310 2475 2396 2311 2398
8 2396 2309 2217 2311 2476 2397 2312 2399
8 2398 2311 2219 2315 2478 2399 2314 2403
8 2399 2312 2218 2314 2479 2400 2313 2402
8 2317 2221 2316 2405 2402 2313 2401 2482
8 2403 2314 2222 2318 2483 2402 2317 2406
8 2320 2224 2319 2408 2405 2316 2404 2485
8 2321 2225 2320 2409 2406 2317 2405 2486
8 2323 2227 2322 2411 2408 2319 2407 2488
8 2324 2228 2323 2412 2409 2320 2408 2489
8 2326 2230 2325 2413 2411 2322 2410 2490
8 2327 2231 2326 2414 2412 2323 2411 2491
8 2329 2234 2328 2415 2414 2326 2413 2492
8 2417 2331 2260 2352 2494 2416 2353 2438
8 2350 2259 2352 2436 2419 2332 2417 2496
8 2332 2239 2331 2417 2420 2333 2418 2497
8 2334 2240 2332 2419 2422 2335 2420 2499
8 2420 2333 2421 2500 2335 2241 2336 2423
8 2422 2335 2423 2502 2337 2243 2338 2425
8 2423 2336 2424 2503 2338 2244 2339 2426
8 2425 2338 2426 2505 2342 2246 2341 2429
8 2426 2339 2427 2506 2341 2245 2340 2428
8 2429 2341 2428 2507 2344 2249 2343 2430
8 2432 2346 2284 2374 2509 2431 2373 2455
8 2432 2346 2431 2509 2364 2270 2363 2449
8 2375 2285 2374 2456 2433 2347 2432 2510
8 2347 2433 2365 2271 2432 2510 2450 2364
8 2350 2259 2351 2435 2436 2352 2437 2514
8 2440 2356 2437 2514 2355 2264 2351 2435
8 2352 2260 2354 2437 2438 2353 2439 2516
8 2356 2265 2358 2442 2437 2354 2439 2516
8 2440 2356 2264 2355 2518 2442 2357 2441
8 2519 2443 2357 2441 2447 2361 2268 2362
8 2443 2359 2444 2520 2357 2266 2358 2442
8 2443 2359 2267 2361 2520 2444 2360 2446
8 2446 2360 2279 2370 2523 2445 2369 2452
8 2453 2370 2446 2524 2371 2280 2361 2447
8 2449 2363 2448 2525 2368 2278 2369 2452
8 2366 2277 2364 2450 2451 2368 2449 2526
8 2372 2283 2368 2451 2453 2370 2452 2527
8 2455 2373 2295 2380 2529 2454 2382 2460
8 2456 2374 2292 2378 2530 2455 2380 2458
8 2377 2293 2379 2457 2458 2380 2459 2531
8 2463 2384 2459 2531 2383 2297 2379 2457
8 2533 2461 2382 2460 2459 2381 2295 2380
8 2464 2385 2461 2533 2384 2298 2381 2459
8 2466 2387 2464 2537 2386 2300 2384 2463
8 2467 2388 2465 2538 2387 2301 2385 2464
8 2469 2390 2467 2540 2389 2303 2387 2466
8 2470 2391 2468 2541 2390 2304 2388 2467
8 2472 2393 2470 2543 2392 2306 2390 2469
8 2393 2307 2394 2473 2470 2391 2471 2544
8 2395 2308 2396 2475 2472 2393 2473 2546
8 2396 2309 2397 2476 2473 2394 2474 2547
8 2475 2396 2311 2398 2549 2476 2399 2478
8 2476 2397 2312 2399 2550 2477 2400 2479
8 2478 2399 2314 2403 2552 2479 2402 2483
8 2479 2400 2313 2402 2553 2480 2401 2482
8 2405 2316 2404 2485 2482 2401 2481 2556
8 2406 2317 2405 2486 2483 2402 2482 2557
8 2408 2319 2407 2488 2485 2404 2484 2559
8 2409 2320 2408 2489 2486 2405 2485 2560
8 2411 2322 2410 2490 2488 2407 2487 2561
8 2412 2323 2411 2491 2489 2408 2488 2562
8 2414 2326 2413 2492 2491 2411 2490 2563
8 2513 2434 2493 2565 2438 2353 2416 2494
8 2496 2417 2352 2436 2567 2494 2438 2515
8 2494 2416 2495 2568 2417 2331 2418 2497
8 2419 2332 2417 2496 2499 2420 2497 2570
8 2497 2418 2498 2571 2420 2333 2421 2500
8 2499 2420 2500 2573 2422 2335 2423 2502
8 2500 2421 2501 2574 2423 2336 2424 2503
8 2502 2423 2503 2576 2425 2338 2426 2505
8 2503 2424 2504 2577 2426 2339 2427 2506
8 2505 2426 2506 2578 2429 2341 2428 2507
8 2509 2431 2373 2455 2580 2508 2454 2529
8 2509 2431 2508 2580 2449 2363 2448 2525
8 2432 2510 2581 2509 2374 2456 2530 2455
8 2432 2510 2450 2364 2509 2581 2526 2449
8 2583 2511 2434 2513 2516 2439 2353 2438
8 2436 2352 2437 2514 2515 2438 2516 2588
8 2440 2356 2442 2518 2514 2437 2516 2588
8 2442 2358 2444 2520 2516 2439 2517 2589
8 2519 2443 2520 2591 2441 2357 2442 2518
8 2519 2443 2361 2447 2591 2520 2446 2524
8 2446 2360 2445 2523 2520 2444 2521 2592
8 2525 2448 2522 2593 2452 2369 2445 2523
8 2524 2446 2370 2453 2594 2523 2452 2527
8 2526 2449 2525 2595 2451 2368 2452 2527
8 2534 2462 2528 2597 2460 2382 2454 2529
8 2530 2455 2380 2458 2598 2529 2460 2532
8 2599 2533 2460 2532 2531 2459 2380 2458
8 2537 2464 2533 2599 2463 2384 2459 2531
8 2534 2462 2382 2460 2601 2535 2461 2533
8 2538 2465 2535 2601 2464 2385 2461 2533
8 2540 2467 2538 2604 2466 2387 2464 2537
8 2541 2468 2539 2605 2467 2388 2465 2538
8 2543 2470 2541 2607 2469 2390 2467 2540
8 2470 2391 2471 2544 2541 2468 2542 2608
8 2472 2393 2473 2546 2543 2470 2544 2610
8 2473 2394 2474 2547 2544 2471 2545 2611
8 2475 2396 2476 2549 2546 2473 2547 2613
8 2476 2397 2477 2550 2547 2474 2548 2614
8 2549 2476 2399 2478 2616 2550 2479 2552
8 2479 2400 2480 2553 2550 2477 2551 2617
8 2552 2479 2402 2483 2619 2553 2482 2557
8 2482 2401 2481 2556 2553 2480 2554 2620
8 2485 2404 2484 2559 2556 2481 2555 2623
8 2486 2405 2485 2560 2557 2482 2556 2624
8 2488 2407 2487 2561 2559 2484 2558 2625
8 2489 2408 2488 2562 2560 2485 2559 2626
8 2491 2411 2490 2563 2562 2488 2561 2627
8 2513 2434 2512 2585 2565 2493 2564 2630
8 2586 2513 2565 2632 2515 2438 2494 2567
8 2565 2493 2566 2633 2494 2416 2495 2568
8 2567 2494 2568 2635 2496 2417 2497 2570
8 2568 2495 2569 2636 2497 2418 2498 2571
8 2570 2497 2571 2638 2499 2420 2500 2573
8 2571 2498 2572 2639 2500 2421 2501 2574
8 2573 2500 2574 2641 2502 2423 2503 2576
8 2574 2501 2575 2642 2503 2424 2504 2577
8 2576 2503 2577 2643 2505 2426 2506 2578
8 2597 2528 2579 2645 2529 2454 2508 2580
8 2580 2508 2579 2645 2525 2448 2522 2593
8 2581 2509 2455 2530 2646 2580 2529 2598
8 2581 2509 2580 2646 2526 2449 2525 2595
8 2583 2511 2582 2648 2513 2434 2512 2585
8 2583 2511 2439 2516 2648 2582 2517 2589
8 2649 2583 2513 2586 2588 2516 2438 2515
8 2589 2517 2444 2520 2653 2587 2521 2592
8 2518 2442 2520 2591 2588 2516 2589 2654
8 2593 2522 2590 2655 2523 2445 2521 2592
8 2524 2446 2523 2594 2591 2520 2592 2656
8 2595 2525 2593 2657 2527 2452 2523 2594
8 2602 2536 2596 2659 2534 2462 2528 2597
8 2600 2534 2597 2660 2532 2460 2529 2598
8 2600 2534 2460 2532 2661 2601 2533 2599
8 2604 2538 2601 2661 2537 2464 2533 2599
8 2602 2536 2462 2534 2663 2603 2535 2601
8 2601 2535 2465 2538 2663 2603 2539 2605
8 2607 2541 2605 2665 2540 2467 2538 2604
8 2608 2542 2606 2666 2541 2468 2539 2605
8 2543 2470 2544 2610 2607 2541 2608 2668
8 2544 2471 2545 2611 2608 2542 2609 2669
8 2546 2473 2547 2613 2610 2544 2611 2671
8 2547 2474 2548 2614 2611 2545 2612 2672
8 2549 2476 2550 2616 2613 2547 2614 2674
8 2550 2477 2551 2617 2614 2548 2615 2675
8 2552 2479 2553 2619 2616 2550 2617 2677
8 2553 2480 2554 2620 2617 2551 2618 2678
8 2557 2482 2556 2624 2619 2553 2620 2680
8 2556 2481 2555 2623 2620 2554 2621 2681
8 2559 2484 2558 2625 2623 2555 2622 2683
8 2560 2485 2559 2626 2624 2556 2623 2684
8 2562 2488 2561 2627 2626 2559 2625 2685
8 2690 2629 2564 2630 2650 2584 2512 2585
8 2586 2513 2585 2651 2632 2565 2630 2691
8 2630 2564 2631 2692 2565 2493 2566 2633
8 2632 2565 2633 2694 2567 2494 2568 2635
8 2633 2566 2634 2695 2568 2495 2569 2636
8 2635 2568 2636 2697 2570 2497 2571 2638
8 2636 2569 2637 2698 2571 2498 2572 2639
8 2638 2571 2639 2700 2573 2500 2574 2641
8 2639 2572 2640 2701 2574 2501 2575 2642
8 2641 2574 2642 2702 2576 2503 2577 2643
8 2597 2528 2596 2659 2645 2579 2644 2704
8 2645 2579 2644 2704 2593 2522 2590 2655
8 2660 2597 2645 2705 2598 2529 2580 2646
8 2646 2580 2645 2705 2595 2525 2593 2657
8 2650 2584 2512 2585 2707 2647 2582 2648
8 2648 2582 2517 2589 2707 2647 2587 2653
8 2649 2583 2648 2708 2586 2513 2585 2651
8 2649 2583 2516 2588 2708 2648 2589 2654
8 2655 2590 2652 2710 2592 2521 2587 2653
8 2654 2589 2520 2591 2711 2653 2592 2656
8 2657 2593 2655 2712 2594 2523 2592 2656
8 2602 2536 2603 2663 2659 2596 2658 2714
8 2662 2602 2659 2715 2600 2534 2597 2660
8 2662 2602 2534 2600 2717 2663 2601 2661
8 2661 2601 2538 2604 2717 2663 2605 2665
8 2666 2606 2664 2718 2605 2539 2603 2663
8 2668 2608 2666 2720 2607 2541 2605 2665
8 2608 2542 2609 2669 2666 2606 2667 2721
8 2610 2544 2611 2671 2668 2608 2669 2723
8 2611 2545 2612 2672 2669 2609 2670 2724
8 2613 2547 2614 2674 2671 2611 2672 2726
8 2614 2548 2615 2675 2672 2612 2673 2727
8 2616 2550 2617 2677 2674 2614 2675 2729
8 2617 2551 2618 2678 2675 2615 2676 2730
8 2619 2553 2620 2680 2677 2617 2678 2732
8 2620 2554 2621 2681 2678 2618 2679 2733
8 2624 2556 2623 2684 2680 2620 2681 2735
8 2681 2621 2555 2623 2736 2682 2622 2683
8 2626 2559 2625 2685 2684 2623 2683 2737
8 2688 2628 2584 2650 2740 2686 2647 2707
8 2688 2628 2687 2742 2650 2584 2629 2690
8 2690 2629 2689 2745 2630 2564 2631 2692
8 2746 2690 2630 2691 2709 2650 2585 2651
8 2691 2630 2692 2747 2632 2565 2633 2694
8 2692 2631 2693 2748 2633 2566 2634 2695
8 2694 2633 2695 2750 2635 2568 2636 2697
8 2695 2634 2696 2751 2636 2569 2637 2698
8 2697 2636 2698 2753 2638 2571 2639 2700
8 2698 2637 2699 2754 2639 2572 2640 2701
8 2700 2639 2701 2755 2641 2574 2642 2702
8 2659 2596 2658 2714 2704 2644 2703 2757
8 2704 2644 2703 2757 2655 2590 2652 2710
8 2660 2597 2659 2715 2705 2645 2704 2758
8 2705 2645 2704 2758 2657 2593 2655 2712
8 2759 2706 2647 2707 2710 2652 2587 2653
8 2709 2650 2585 2651 2760 2707 2648 2708
8 2708 2648 2589 2654 2760 2707 2653 2711
8 2712 2655 2710 2761 2656 2592 2653 2711
8 2763 2713 2658 2714 2718 2664 2603 2663
8 2662 2602 2663 2717 2715 2659 2714 2764
8 2720 2666 2718 2767 2665 2605 2663 2717
8 2768 2719 2664 2718 2721 2667 2606 2666
8 2668 2608 2669 2723 2720 2666 2721 2770
8 2669 2609 2670 2724 2721 2667 2722 2771
8 2671 2611 2672 2726 2723 2669 2724 2773
8 2672 2612 2673 2727 2724 2670 2725 2774
8 2674 2614 2675 2729 2726 2672 2727 2776
8 2675 2615 2676 2730 2727 2673 2728 2777
8 2677 2617 2678 2732 2729 2675 2730 2779
8 2678 2618 2679 2733 2730 2676 2731 2780
8 2680 2620 2681 2735 2732 2678 2733 2782
8 2733 2679 2621 2681 2783 2734 2682 2736
8 2735 2681 2623 2684 2784 2736 2683 2737
8 2740 2686 2647 2707 2787 2738 2706 2759
8 2688 2628 2686 2740 2742 2687 2739 2789
8 2743 2688 2650 2709 2790 2740 2707 2760
8 2742 2687 2741 2792 2690 2629 2689 2745
8 2743 2688 2742 2793 2709 2650 2690 2746
8 2745 2689 2744 2795 2692 2631 2693 2748
8 2746 2690 2745 2796 2691 2630 2692 2747
8 2747 2692 2748 2797 2694 2633 2695 2750
8 2748 2693 2749 2798 2695 2634 2696 2751
8 2750 2695 2751 2800 2697 2636 2698 2753
8 2751 2696 2752 2801 2698 2637 2699 2754
8 2753 2698 2754 2802 2700 2639 2701 2755
8 2763 2713 2756 2804 2714 2658 2703 2757
8 2759 2706 2652 2710 2804 2756 2703 2757
8 2715 2659 2714 2764 2758 2704 2757 2805
8 2758 2704 2757 2805 2712 2655 2710 2761
8 2806 2759 2707 2760 2761 2710 2653 2711
8 2765 2716 2762 2808 2718 2664 2713 2763
8 2809 2763 2714 2764 2767 2718 2663 2717
8 2765 2716 2664 2718 2811 2766 2719 2768
8 2813 2768 2718 2767 2770 2721 2666 2720
8 2814 2769 2719 2768 2771 2722 2667 2721
8 2723 2669 2724 2773 2770 2721 2771 2816
8 2724 2670 2725 2774 2771 2722 2772 2817
8 2726 2672 2727 2776 2773 2724 2774 2819
8 2727 2673 2728 2777 2774 2725 2775 2820
8 2729 2675 2730 2779 2776 2727 2777 2822
8 2730 2676 2731 2780 2777 2728 2778 2823
8 2732 2678 2733 2782 2779 2730 2780 2825
8 2780 2731 2679 2733 2826 2781 2734 2783
8 2782 2733 2681 2735 2827 2783 2736 2784
8 2830 2785 2738 2787 2804 2756 2706 2759
8 2789 2739 2686 2740 2832 2786 2738 2787
8 2790 2740 2707 2760 2833 2787 2759 2806
8 2742 2687 2739 2789 2792 2741 2788 2835
8 2743 2688 2740 2790 2793 2742 2789 2836
8 2792 2741 2791 2838 2745 2689 2744 2795
8 2793 2742 2792 2839 2746 2690 2745 2796
8 2795 2744 2794 2841 2748 2693 2749 2798
8 2796 2745 2795 2842 2747 2692 2748 2797
8 2797 2748 2798 2843 2750 2695 2751 2800
8 2798 2749 2799 2844 2751 2696 2752 2801
8 2800 2751 2801 2845 2753 2698 2754 2802
8 2808 2762 2803 2847 2763 2713 2756 2804
8 2809 2763 2804 2848 2764 2714 2757 2805
8 2806 2759 2710 2761 2848 2804 2757 2805
8 2765 2716 2766 2811 2808 2762 2807 2850
8 2810 2765 2808 2851 2767 2718 2763 2809
8 2810 2765 2718 2767 2852 2811 2768 2813
8 2811 2766 2719 2768 2853 2812 2769 2814
8 2855 2814 2768 2813 2816 2771 2721 2770
8 2856 2815 2769 2814 2817 2772 2722 2771
8 2773 2724 2774 2819 2816 2771 2817 2858
8 2774 2725 2775 2820 2817 2772 2818 2859
8 2776 2727 2777 2822 2819 2774 2820 2861
8 2777 2728 2778 2823 2820 2775 2821 2862
8 2779 2730 2780 2825 2822 2777 2823 2864
8 2823 2778 2731 2780 2865 2824 2781 2826
8 2825 2780 2733 2782 2866 2826 2783 2827
8 2869 2828 2785 2830 2847 2803 2756 2804
8 2871 2829 2786 2832 2830 2785 2738 2787
8 2872 2830 2787 2833 2848 2804 2759 2806
8 2789 2739 2786 2832 2835 2788 2831 2874
8 2836 2789 2740 2790 2875 2832 2787 2833
8 2792 2741 2788 2835 2838 2791 2834 2877
8 2793 2742 2789 2836 2839 2792 2835 2878
8 2838 2791 2837 2880 2795 2744 2794 2841
8 2839 2792 2838 2881 2796 2745 2795 2842
8 2841 2794 2840 2882 2798 2749 2799 2844
8 2842 2795 2841 2883 2797 2748 2798 2843
8 2843 2798 2844 2884 2800 2751 2801 2845
8 2886 2846 2803 2847 2850 2807 2762 2808
8 2851 2808 2847 2887 2809 2763 2804 2848
8 2850 2807 2766 2811 2889 2849 2812 2853
8 2810 2765 2811 2852 2851 2808 2850 2890
8 2852 2811 2768 2813 2891 2853 2814 2855
8 2853 2812 2769 2814 2892 2854 2815 2856
8 2894 2856 2814 2855 2858 2817 2771 2816
8 2817 2772 2818 2859 2856 2815 2857 2895
8 2819 2774 2820 2861 2858 2817 2859 2897
8 2820 2775 2821 2862 2859 2818 2860 2898
8 2822 2777 2823 2864 2861 2820 2862 2900
8 2823 2778 2824 2865 2862 2821 2863 2901
8 2864 2823 2780 2825 2902 2865 2826 2866
8 2904 2867 2828 2869 2886 2846 2803 2847
8 2869 2828 2868 2906 2830 2785 2829 2871
8 2907 2869 2830 2872 2887 2847 2804 2848
8 2871 2829 2870 2909 2832 2786 2831 2874
8 2910 2871 2832 2875 2872 2830 2787 2833
8 2835 2788 2831 2874 2877 2834 2873 2912
8 2836 2789 2832 2875 2878 2835 2874 2913
8 2877 2834 2876 2915 2838 2791 2837 2880
8 2839 2792 2835 2878 2881 2838 2877 2916
8 2880 2837 2879 2917 2841 2794 2840 2882
8 2881 2838 2880 2918 2842 2795 2841 2883
8 2883 2841 2882 2919 2843 2798 2844 2884
8 2921 2885 2846 2886 2889 2849 2807 2850
8 2922 2886 2847 2887 2890 2850 2808 2851
8 2889 2849 2812 2853 2924 2888 2854 2892
8 2890 2850 2811 2852 2925 2889 2853 2891
8 2891 2853 2814 2855 2926 2892 2856 2894
8 2892 2854 2815 2856 2927 2893 2857 2895
8 2858 2817 2859 2897 2894 2856 2895 2929
8 2859 2818 2860 2898 2895 2857 2896 2930
8 2861 2820 2862 2900 2897 2859 2898 2932
8 2862 2821 2863 2901 2898 2860 2899 2933
8 2864 2823 2865 2902 2900 2862 2901 2934
8 2904 2867 2846 2886 2936 2903 2885 2921
8 2904 2867 2903 2936 2869 2828 2868 2906
8 2937 2904 2869 2907 2922 2886 2847 2887
8 2906 2868 2905 2939 2871 2829 2870 2909
8 2907 2869 2906 2940 2872 2830 2871 2910
8 2909 2870 2908 2942 2874 2831 2873 2912
8 2910 2871 2909 2943 2875 2832 2874 2913
8 2912 2873 2911 2945 2877 2834 2876 2915
8 2878 2835 2874 2913 2916 2877 2912 2946
8 2915 2876 2914 2947 2880 2837 2879 2917
8 2916 2877 2915 2948 2881 2838 2880 2918
8 2918 2880 2917 2949 2883 2841 2882 2919
8 2921 2885 2849 2889 2951 2920 2888 2924
8 2952 2921 2886 2922 2925 2889 2850 2890
8 2924 2888 2854 2892 2954 2923 2893 2927
8 2925 2889 2853 2891 2955 2924 2892 2926
8 2926 2892 2856 2894 2956 2927 2895 2929
8 2895 2857 2896 2930 2927 2893 2928 2957
8 2897 2859 2898 2932 2929 2895 2930 2959
8 2898 2860 2899 2933 2930 2896 2931 2960
8 2900 2862 2901 2934 2932 2898 2933 2961
8 2936 2903 2885 2921 2963 2935 2920 2951
8 2936 2903 2935 2963 2906 2868 2905 2939
8 2937 2904 2886 2922 2964 2936 2921 2952
8 2937 2904 2936 2964 2907 2869 2906 2940
8 2939 2905 2938 2966 2909 2870 2908 2942
8 2940 2906 2939 2967 2910 2871 2909 2943
8 2942 2908 2941 2969 2912 2873 2911 2945
8 2943 2909 2942 2970 2913 2874 2912 2946
8 2945 2911 2944 2971 2915 2876 2914 2947
8 2946 2912 2945 2972 2916 2877 2915 2948
8 2948 2915 2947 2973 2918 2880 2917 2949
8 2951 2920 2888 2924 2975 2950 2923 2954
8 2952 2921 2889 2925 2976 2951 2924 2955
8 2927 2893 2928 2957 2954 2923 2953 2978
8 2955 2924 2892 2926 2979 2954 2927 2956
8 2929 2895 2930 2959 2956 2927 2957 2980
8 2930 2896 2931 2960 2957 2928 2958 2981
8 2932 2898 2933 2961 2959 2930 2960 2982
8 2951 2920 2950 2975 2963 2935 2962 2984
8 2963 2935 2962 2984 2939 2905 2938 2966
8 2964 2936 2921 2952 2985 2963 2951 2976
8 2964 2936 2963 2985 2940 2906 2939 2967
8 2966 2938 2965 2987 2942 2908 2941 2969
8 2967 2939 2966 2988 2943 2909 2942 2970
8 2969 2941 2968 2989 2945 2911 2944 2971
8 2970 2942 2969 2990 2946 2912 2945 2972
8 2972 2945 2971 2991 2948 2915 2947 2973
8 2954 2923 2953 2978 2975 2950 2974 2993
8 2976 2951 2924 2955 2994 2975 2954 2979
8 2957 2928 2958 2981 2978 2953 2977 2995
8 2956 2927 2957 2980 2979 2954 2978 2996
8 2959 2930 2960 2982 2980 2957 2981 2997
8 2984 2962 2983 2999 2966 2938 2965 2987
8 2975 2950 2974 2993 2984 2962 2983 2999
8 2976 2951 2975 2994 2985 2963 2984 3000
8 2985 2963 2984 3000 2967 2939 2966 2988
8 2987 2965 2986 3001 2969 2941 2968 2989
8 2988 2966 2987 3002 2970 2942 2969 2990
8 2990 2969 2989 3003 2972 2945 2971 2991
8 2978 2953 2977 2995 2993 2974 2992 3004
8 2979 2954 2978 2996 2994 2975 2993 3005
8 2980 2957 2981 2997 2996 2978 2995 3006
8 2974 2993 2999 2983 2992 3004 3007 2998
8 2983 2999 2987 2965 2998 3007 3001 2986
8 3000 2984 2999 3008 2988 2966 2987 3002
8 2994 2975 2993 3005 3000 2984 2999 3008
8 3002 2987 3001 3009 2990 2969 2989 3003
8 2996 2978 2995 3006 3005 2993 3004 3010
8 3005 2993 3004 3010 3008 2999 3007 3011
8 3008 2999 3007 3011 3002 2987 3001 3009

CELL_TYPES 1910
12
12
12
12
12
12
12
12
12
12
12
12
12
12
12
12
12
12
12
12
12
12
12
12
12
12
12
12
12
12
12
12
12
12
12
12
12
12
12
12
12
12
12
12
12
12
12
12
12
12
12
12
12
12
12
12
12
12
12
12
12
12
12
12
12
12
12
12
12
12
12
12
12
12
12
12
12
12
12
12
12
12
12
12
12
12
12
12
12
12
12
12
12
12
12
12
12
12
12
12
12
12
12
12
12
12
12
12
12
12
12
12
12
12
12
12
12
12
12
12
12
12
12
12
12
12
12
12
12
12
12
12
12
12
12
12
12
12
12
12
12
12
12
12
12
12
12
12
12
12
12
12
12
12
12
12
12
12
12
12
12
12
12
12
12
12
12
12
12
12
12
12
12
12
12
12
12
12
12
12
12
12
12
12
12
12
12
12
12
12
12
12
12
12
12
12
12
12
12
12
12
12
12
12
12
12
12
12
12
12
12
12
12
12
12
12
12
12
12
12
12
12
12
12
12
12
12
12
12
12
12
12
12
12
12
12
12
12
12
12
12
12
12
12
12
12
12
12
12
12
12
12
12
12
12
12
12
12
12
12
12
12
12
12
12
12
12
12
12
12
12
12
12
12
12
12
12
12
12
12
12
12
12
12
12
12
12
12
12
12
12
12
12
12
12
12
12
12
12
12
12
12
12
12
12
12
12
12
12
12
12
12
12
12
12
12
12
12
12
12
12
12
12
12
12
12
12
12
12
12
12
12
12
12
12
12
12
12
12
12
12
12
12
12
12
12
12
12
12
12
12
12
12
12
12
12
12
12
12
12
12
12
12
12
12
12
12
12
12
12
12
12
12
12
12
12
12
12
12
12
12
12
12
12
12
12
12
12
12
12
12
12
12
12
12
12
12
12
12
12
12
12
12
12
12
12
12
12
12
12
12
12
12
12
12
12
12
12
12
12
12
12
12
12
12
12
12
12
12
12
12
12
12
12
12
12
12
12
12
12
12
12
12
12
12
12
12
12
12
12
12
12
12
12
12
12
12
12
12
12
12
12
12
12
12
12
12
12
12
12
12
12
12
12
12
12
12
12
12
12
12
12
12
12
12
12
12
12
12
12
12
12
12
12
12
12
12
12
12
12
12
12
12
12
12
12
12
12
12
12
12
12
12
12
12
12
12
12
12
12
12
12
12
12
12
12
12
12
12
12
12
12
12
12
12
12
12
12
12
12
12
12
12
12
12
12
12
12
12
12
12
12
12
12
12
12
12
12
12
12
12
12
12
12
12
12
12
12
12
12
12
12
12
12
12
12
12
12
12
12
12
12
12
12
12
12
12
12
12
12
12
12
12
12
12
12
12
12
12
12
12
12
12
12
12
12
12
12
12
12
12
12
12
12
12
12
12
12
12
12
12
12
12
12
12
12
12
12
12
12
12
12
12
12
12
12
12
12
12
12
12
12
12
12
12
12
12
12
12
12
12
12
12
12
12
12
12
12
12
12
12
12
12
12
12
12
12
12
12
12
12
12
12
12
12
12
12
12
12
12
12
12
12
12
12
12
12
12
12
12
12
12
12
12
12
12
12
12
12
12
12
12
12
12
12
12
12
12
12
12
12
12
12
12
12
12
12
12
12
12
12
12
12
12
12
12
12
12
12
12
12
12
12
12
12
12
12
12
12
12
12
12
12
12
12
12
12
12
12
12
12
12
12
12
12
12
12
12
12
12
12
12
12
12
12
12
12
12
12
12
12
12
12
12
12
12
12
12
12
12
12
12
12
12
12
12
12
12
12
12
12
12
12
12
12
12
12
12
12
12
12
12
12
12
12
12
12
12
12
12
12
12
12
12
12
12
12
12
12
12
12
12
12
12
12
12
12
12
12
12
12
12
12
12
12
12
12
12
12
12
12
12
12
12
12
12
12
12
12
12
12
12
12
12
12
12
12
12
12
12
12
12
12
12
12
12
12
12
12
12
12
12
12
12
12
12
12
12
12
12
12
12
12
12
12
12
12
12
12
12
12
12
12
12
12
12
12
12
12
12
12
12
12
12
12
12
12
12
12
12
12
12
12
12
12
12
12
12
12
12
12
12
12
12
12
12
12
12
12
12
12
12
12
12
12
12
12
12
12
12
12
12
12
12
12
12
12
12
12
12
12
12
12
12
12
12
12
12
12
12
12
12
12
12
12
12
12
12
12
12
12
12
12
12
12
12
12
12
12
12
12
12
12
12
12
12
12
12
12
12
12
12
12
12
12
12
12
12
12
12
12
12
12
12
12
12
12
12
12
12
12
12
12
12
12
12
12
12
12
12
12
12
12
12
12
12
12
12
12
12
12
12
12
12
12
12
12
12
12
12
12
12
12
12
12
12
12
12
12
12
12
12
12
12
12
12
12
12
12
12
12
12
12
12
12
12
12
12
12
12
12
12
12
12
12
12
12
12
12
12
12
12
12
12
12
12
12
12
12
12
12
12
12
12
12
12
12
12
12
12
12
12
12
12
12
12
12
12
12
12
12
12
12
12
12
12
12
12
12
12
12
12
12
12
12
12
12
12
12
12
12
12
12
12
12
12
12
12
12
12
12
12
12
12
12
12
12
12
12
12
12
12
12
12
12
12
12
12
12
12
12
12
12
12
12
12
12
12
12
12
12
12
12
12
12
12
12
12
12
12
12
12
12
12
12
12
12
12
12
12
12
12
12
12
12
12
12
12
12
12
12
12
12
12
12
12
12
12
12
12
12
12
12
12
12
12
12
12
12
12
12
12
12
12
12
12
12
12
12
12
12
12
12
12
12
12
12
12
12
12
12
12
12
12
12
12
12
12
12
12
12
12
12
12
12
12
12
12
12
12
12
12
12
12
12
12
12
12
12
12
12
12
12
12
12
12
12
12
12
12
12
12
12
12
12
12
12
12
12
12
12
12
12
12
12
12
12
12
12
12
12
12
12
12
12
12
12
12
12
12
12
12
12
12
12
12
12
12
12
12
12
12
12
12
12
12
12
12
12
12
12
12
12
12
12
12
12
12
12
12
12
12
12
12
12
12
12
12
12
12
12
12
12
12
12
12
12
12
12
12
12
12
12
12
12
12
12
12
12
12
12
12
12
12
12
12
12
12
12
12
12
12
12
12
12
12
12
12
12
12
12
12
12
12
12
12
12
12
12
12
12
12
12
12
12
12
12
12
12
12
12
12
12
12
12
12
12
12
12
12
12
12
12
12
12
12
12
12
12
12
12
12
12
12
12
12
12
12
12
12
12
12
12
12
12
12
12
12
12
12
12
12
12
12
12
12
12
12
12
12
12
12
12
12
12
12
12
12
12
12
12
12
12
12
12
12
12
12
12
12
12
12
12
12
12
12
12
12
12
12
12
12
12
12
12
12
12
12
12
12
12
12
12
12
12
12
12
12
12
12
12
12
12
12
12
12
12
12
12
12
12
12
12
12
12
12
12
12
12
12
12
12
12
12
12
12
12
12
12
12
12
12
12
12
12
12
12
12
12
12
12
12
12
12
12
12
12
12
12
12
12
12
12
12
12
12
12
12
12
12
12
12
12
12
12
12
12
12
12
12
12
12
12
12
12
12
12
12
12
12
12
12
12
12
12
12
12
12
12
12
12
12
12
12
12
12
12
12
12
12
12
12
12
12
12
12
12
12
12
12
12
12
12
12
12
12
12
12
12
12
12
12
12
12
12
12
12
12
12
12
12
12
12
12
12
12
12
12
12
12
12
12
12
12
12
12
12
12
12
12
12
12
12
12
12
12
12
12
12
12
12
12
12
12
12
12
12
12
12
12
12
12
12
12
12
12
12
12
12
12
12
12
12
12
12
12
12
12
12
12
12
12
12
12
12
12
12
12
12
12
12
12
12
12
12
12
12
12
12
12
12
12
12
12
12
12
12
12
12
12
12
12
12
12
12
12
12
12
12
12
12
12
12
12
12
12
12
12
12
12
12
12
12
12
12
12
12
12
12
12
12
12
12
12
12
12
12
12
12
12
12
12
12
12
12
12
12
12
12
12
12
12
12
12
12
12
12
12
12
12
12
12
12
12
12
12
12
12
12
12
12
12
12
12
12
12
12
12
12
12
12
12
12
12
12
12
12
12
12
12
12
12
12
12
12
12
12
12
12
12
12
12
12
12
12
12
12
12
12
12
12
12
12
12
12
12
12
12
12
12
12
12
12
12
12
12
12
12
12
12
12
12
12
12
12
12
12
12
12
12
12
12
12
12
12
12
12
12
12
12
12
12
12
12
12
12
12
12
12
12
12
12
12
12
12
12
12
12
12
12
12
12
12
12
12
12
12
12
12
12

POINT_DATA 3012
SCALARS Jp_lamdaP float 4
LOOKUP_TABLE default
0.999304 1 1 0.999304
1 1 1 1
0.999326 1 1 0.999326
0.999252 1 1 0.999252
0.999307 1 1 0.999307
0.999269 1 1 0.999269
1.0208 1.02279 1 0.998054
1 1 1 1
1 1 1 1
1 1 1 1
0.999326 1 1 0.999326
1.01687 1.01894 1 0.997969
0.999332 1 1 0.999332
0.9993 1 1 0.9993
0.999337 1 1 0.999337
0.999295 1 1 0.999295
0.999284 1 1 0.999284
0.99934 1 1 0.99934
1.02064 1.02263 1 0.998048
1 1 1 1
0.999248 1 1 0.999248
0.999282 1 1 0.999282
1.01278 1.01481 1 0.997995
1.01781 1.01979 1 0.998061
0.999251 1 1 0.999251
1.02221 1.02424 1 0.998018
1.05638 1.06037 1 0.996238
0.999999 1 1 0.999999
0.99966 1 1 0.99966
0.99967 1 1 0.99967
0.999999 1 1 0.999999
1.0146 1.01666 1 0.997976
0.999312 1 1 0.999312
0.999338 1 1 0.999338
1.01891 1.02065 1 0.998302
1 1 1 1
1.02078 1.02248 1 0.998344
1.00885 1.01055 1.00032 0.997994
1.0419 1.04602 1.00002 0.996043
1 1 1 1
1 1 1 1
0.999654 1 1 0.999654
1 1 1 1
0.999329 1 1 0.999329
1.00306 1.00517 1 0.997908
1 1 1 1
1.00943 1.01122 1 0.998238
0.999333 1 1 0.999333
0.999366 1 1 0.999366
0.99929 1 1 0.99929
1.02056 1.02256 1 0.998047
0.999638 1 1 0.999638
0.999287 1 1 0.999287
0.999265 1 1 0.999265
0.999323 1 1 0.999323
1.01252 1.01457 1 0.997981
1.02209 1.02413 1 0.998014
1.01763 1.01961 1 0.998054
1.05724 1.06124 1 0.996236
1 1 1 1
0.999277 1 1 0.999277
1.00415 1.00581 1 0.998354
1.00978 1.01181 1 0.997992
1.01521 1.01721 1 0.998031
1.05542 1.05948 1 0.996169
1.05684 1.06085 1 0.996216
0.999258 1 1 0.999258
1.01254 1.01453 1 0.998032
1.05538 1.05937 1 0.996229
1.07608 1.08096 1 0.995492
1 1 1 1
1 1 1 1
1 1 1 1
1.01252 1.01457 1 0.997982
1 1 1 1
1 1 1 1
1.019 1.0211 1 0.997941
0.999717 1 1 0.999717
1.01991 1.02195 1 0.998001
1.00704 1.00819 1.00061 0.998245
1.04595 1.05011 1 0.996037
1 1 1 1
1.00476 1 1.00563 0.999136
1.01654 1.01872 1 0.997858
1.01996 1.02205 1 0.997955
1.06201 1.06643 1 0.995854
1.00368 1.00327 1.00173 0.998675
1.05472 1.05892 1 0.996028
1.03484 1.03783 1.00095 0.996178
1.07184 1.07684 1 0.995353
1 1 1 1
1 1 1 1
1 1 1 1
1 1 1 1
1 1 1 1
0.999667 1 1 0.999667
1.00392 1.00581 1 0.998119
0.999648 1 1 0.999648
1.01067 1.01263 1 0.99806
1 1 1 1
1.00195 1.00399 1 0.997968
1.00585 1.0076 1 0.998267
1.0537 1.058 1 0.995936
1.01383 1.01559 1 0.998261
1.06103 1.0654 1 0.995893
0.999357 1 1 0.999357
0.999323 1 1 0.999323
0.999274 1 1 0.999274
0.999359 1 1 0.999359
1.01225 1.01431 1 0.997971
1.01744 1.01943 1 0.99805
1.02159 1.02362 1 0.998014
1.05848 1.06248 1 0.996233
1 1 1 1
0.999312 1 1 0.999312
1.00367 1.00566 1 0.998023
1.00947 1.01152 1 0.997976
0.999637 1 1 0.999637
1.01426 1.01597 1.00017 0.998152
1.01498 1.01699 1 0.998021
1.05588 1.05994 1 0.996172
1.0553 1.0593 1 0.996226
1.05772 1.06174 1 0.996219
1.07532 1.08018 1 0.995502
1.00286 1.00488 1 0.997989
1.00651 1.0085 1 0.998028
1.05057 1.05475 0.999743 0.996292
1.05345 1.05747 0.999996 0.996206
1.05606 1.06009 1 0.9962
1.08827 1.09425 0.998754 0.995781
1 1 1 1
1.08135 1.08613 1 0.9956
1.00321 1.00403 1.00113 0.998058
1.04758 1.05175 1 0.996027
1.07161 1.07659 1 0.995378
1.07769 1.08306 0.999333 0.995709
1.00278 1.00013 1.00402 0.998637
1.0116 1.00217 1.01227 0.997171
1 1 1 1
1 1 1 1
1.01938 1.02148 1 0.997944
1 1 1 1
1.00469 1.00558 1.00102 0.998099
1.01956 1.02159 1 0.998007
1.04942 1.0536 1 0.99603
1 1 1 1
1.00533 1 1.00618 0.99916
1.01742 1.01939 1 0.998068
1.02051 1.0224 1 0.998149
1.06116 1.06558 1 0.99585
1.00297 1.00215 1.00237 0.998444
1.05432 1.05852 1 0.996027
1.03537 1.03856 1.00075 0.996173
1.07095 1.07592 1 0.995375
1.00349 1.00047 1.00423 0.998797
1.00664 1 1.00723 0.999408
1.01402 1.00442 1.01196 0.997628
1.06232 1.06677 1 0.995823
1.06138 1.06571 1 0.99594
1.0857 1.09075 0.999832 0.995535
1.02613 1.02683 1.00274 0.996592
1.07054 1.07532 1 0.995555
1.06058 1.06476 1.00077 0.995313
1.08072 1.0857 1 0.995415
1 1 1 1
1 1 1 1
1 1 1 1
1.00415 1 1.00525 0.998908
1 1 1 1
1 1 1 1
1 1 1 1
1.01171 1.01385 1 0.997889
1.00436 1.00642 1 0.997953
1 1 1 1
1 1 1 1
1.00218 1.00422 1 0.997968
1.00667 1.0086 1 0.998093
1.05316 1.05746 1 0.995937
1.01439 1.01655 1 0.997873
1.05903 1.0634 1 0.995891
1.00195 1.00399 1 0.997975
1.05105 1.05535 1 0.995922
1.05714 1.06146 1 0.995933
1.08769 1.0955 0.996866 0.995991
1.06242 1.06685 1 0.995843
1.08753 1.0946 0.99763 0.995905
1 1 1 1
0.99935 1 1 0.99935
1.00314 1.0055 1 0.997649
1.00918 1.01124 1 0.997961
1 1 1 1
1.01608 1.01784 1 0.998276
1.01476 1.01678 1 0.998015
1.05629 1.06034 1 0.996175
1.05869 1.06271 1 0.996222
1.05445 1.05845 1 0.996224
1.07385 1.07869 1 0.995512
1.00254 1.00456 1 0.997987
1.00628 1.00829 1 0.998013
1.05106 1.05549 0.999665 0.996137
1.05443 1.05847 0.999996 0.996188
1 1 1 1
1.00623 1.00743 1.00059 0.998223
1.0444 1.04809 1.00033 0.996157
1.05659 1.06063 1 0.99619
1.0864 1.09313 0.998016 0.995822
1.07119 1.07616 1 0.995383
1.0815 1.08626 0.999999 0.99562
1.07731 1.08269 0.99931 0.995717
1.00254 1.0004 1.00352 0.998622
1.01166 1.00409 1.01041 0.997165
1.04981 1.05409 1 0.995935
1.05231 1.05661 0.999667 0.996261
1.08733 1.09421 0.997762 0.995942
1.08723 1.0946 0.997349 0.995904
1.08355 1.09021 0.998127 0.995757
1.07933 1.09151 0.992687 0.996124
1.00204 1.00127 1.00244 0.998334
1.07817 1.08629 0.996574 0.995939
1.0373 1.0404 1.00081 0.996213
1.07026 1.07533 1 0.995279
1.0782 1.08314 1 0.995435
1.07253 1.08265 0.994549 0.996087
1.01267 1.00928 1.00662 0.996757
1.01174 1.00049 1.01359 0.997689
1.0162 1.01167 1.0082 0.996312
1.01788 1.02002 1 0.997899
1 1 1 1
1.00538 1 1.0062 0.999184
1.02057 1.02262 1 0.997993
1.06048 1.06491 1 0.995846
1.00247 1.00118 1.00285 0.998443
1.03727 1.0407 1.00054 0.996168
1.05348 1.05769 1 0.996025
1.07143 1.07639 1 0.995397
1.00367 1.00027 1.00458 0.998824
1.006 1 1.00657 0.999426
1.01208 1.00249 1.01196 0.997629
1.06115 1.06561 1 0.995817
1.05978 1.0641 1 0.995939
1.08558 1.09059 0.999873 0.995529
1.02203 1.02317 1.0023 0.996593
1.07194 1.07674 1 0.995545
1.06475 1.06911 1.00063 0.995297
1.08105 1.08599 1 0.995447
1.00544 1 1.00584 0.9996
1.01628 1.01218 1.00698 0.997096
1.01498 1.00087 1.01603 0.9981
1.01483 1.0122 1.00561 0.997005
1.08681 1.09269 0.998978 0.995634
1.07917 1.08403 1 0.99552
1.08145 1.0904 0.996043 0.995737
1.04074 1.04096 1.0042 0.99561
1.07425 1.07909 0.999754 0.995759
1.06942 1.07291 1.00158 0.995184
1.09385 1.09876 1 0.995529
1.00206 1 1.00291 0.999146
1.00033 1 1.00052 0.999813
1 1 1 1
1 1 1 1
1 1 1 1
1.00452 1 1.0053 0.999226
1 1 1 1
1.00428 1 1.0054 0.998885
1 1 1 1
1.01552 1.01768 1 0.997874
1.00761 1.0097 1 0.997925
1.05747 1.06184 1 0.995889
1.05267 1.05697 1 0.995939
1.00245 1.00449 1 0.99797
1 1 1 1
1.00191 1.00394 1 0.997975
1.05102 1.05532 1 0.995923
1.0562 1.06052 1 0.995933
1.08765 1.09542 0.996906 0.995989
1.06093 1.06536 1 0.995838
1.08885 1.09587 0.99768 0.995902
1.04967 1.05397 1 0.995922
1.08752 1.09526 0.996949 0.995972
1.08805 1.09545 0.997255 0.995974
1.07463 1.08783 0.991471 0.996363
1.08715 1.09385 0.998096 0.995779
1.07834 1.0918 0.991412 0.996227
1.00229 1.00432 1 0.997986
1.00605 1.00807 1 0.997997
1.05154 1.05625 0.999556 0.995984
1.05546 1.05952 1 0.99617
1 1 1 1
1.00912 1.01027 1.00046 0.998394
1.04185 1.04529 1.00042 0.996285
1.0571 1.06116 1 0.996179
1.08463 1.09213 0.997261 0.995862
1.08155 1.08629 1 0.99564
1.07226 1.07723 1 0.995388
1.07737 1.08276 0.99929 0.995725
1.00244 1.00068 1.00315 0.998607
1.01302 1.00607 1.00978 0.997159
1.05007 1.05448 0.999856 0.995956
1.05301 1.05719 0.999796 0.996255
1.08664 1.09391 0.99737 0.995971
1.08697 1.09379 0.997896 0.995861
1.00218 1.00191 1.00196 0.99832
1.0353 1.03834 1.00086 0.996214
1.073 1.07809 1 0.995283
1.08441 1.09036 0.998814 0.995728
1.07907 1.09205 0.9919 0.996179
1.07774 1.08267 1 0.995451
1.07787 1.08609 0.996481 0.99594
1.07256 1.08286 0.994394 0.99607
1.01585 1.01269 1.00638 0.996754
1.01675 1.01028 1.01013 0.996308
1.01351 1.00062 1.01523 0.997693
1.08743 1.09429 0.997789 0.995933
1.08727 1.09485 0.997114 0.995953
1.07431 1.08595 0.99297 0.996293
1.07726 1.09099 0.991165 0.996218
1.07771 1.09002 0.992577 0.996104
1.07136 1.09074 0.985703 0.996476
1.02113 1.02283 1.00186 0.996476
1.06805 1.08585 0.987276 0.996281
1.06437 1.0693 1 0.995388
1.07468 1.07998 1 0.995092
1.07213 1.07772 0.999204 0.9956
1.06385 1.08059 0.988105 0.996359
1.01671 1.00301 1.01563 0.998061
1.02778 1.02366 1.0081 0.995958
1.01458 1.0012 1.01665 0.99677
1.02449 1.01901 1.00956 0.995855
1.06007 1.06453 1 0.995811
1.00583 1 1.00639 0.999444
1.00398 1 1.00513 0.998851
1.01237 1.0012 1.01356 0.997629
1.05854 1.06285 1 0.995938
1.08536 1.09033 0.999916 0.995523
1.0159 1.01755 1.00179 0.996594
1.0652 1.06976 1.00046 0.995281
1.07337 1.07819 1 0.995535
1.07919 1.08409 1 0.995478
1.00452 1 1.00491 0.999614
1.01285 1.00824 1.00748 0.997111
1.01581 1.00097 1.01675 0.998097
1.01306 1.00936 1.00668 0.997007
1.08746 1.0932 0.999118 0.995628
1.07977 1.08463 1 0.995517
1.08123 1.09018 0.996039 0.995736
1.04028 1.04018 1.00451 0.995604
1.07315 1.07804 0.999743 0.995725
1.06523 1.06855 1.00173 0.99517
1.09356 1.09835 1 0.995644
1.00201 1 1.00228 0.999722
1.0131 1 1.01466 0.998457
1.02182 1.02058 1.00492 0.996306
1.01833 1.00606 1.01488 0.997361
1.01314 1.01224 1.00409 0.996803
1.08041 1.09356 0.992053 0.995882
1.07798 1.08396 0.998768 0.995707
1.07199 1.08668 0.99052 0.995928
1.03423 1.03588 1.00316 0.995267
1.07835 1.08484 0.99816 0.995856
1.0542 1.05844 1.00086 0.995141
1.00371 1 1.00474 0.998969
1.00709 1 1.00871 0.9984
0.999789 1 1.00049 0.999296
1.00111 1 1.00196 0.999148
0.999889 1 1 0.999889
1.00014 1 1.00031 0.999827
0.99999 1 1 0.99999
1 1 1 1
1 1 1 1
1.0025 1 1.00297 0.999528
1 1 1 1
1.00474 1 1.00555 0.9992
1 1 1 1
1.00372 1 1.00486 0.998862
1 1 1 1
1.05915 1.06359 1 0.995832
1.05498 1.05929 1 0.995933
1.08981 1.09675 0.997758 0.9959
1.08755 1.09527 0.996951 0.995988
1.05092 1.05522 1 0.995925
1.00176 1.00379 1 0.997974
1.04987 1.05417 1 0.995922
1.0873 1.09505 0.996938 0.995972
1.08811 1.09558 0.997201 0.995972
1.07409 1.08798 0.990828 0.996379
1.08827 1.09485 0.998203 0.995775
1.07805 1.09137 0.991529 0.996227
1.08714 1.09464 0.997173 0.99596
1.07366 1.0876 0.990768 0.996388
1.07648 1.08914 0.992027 0.996322
1.0762 1.09384 0.987249 0.996576
1.07792 1.09311 0.989994 0.996071
1.07599 1.09711 0.984151 0.996542
1.05017 1.05474 0.999697 0.995977
1.05376 1.05778 0.999949 0.996248
1.08601 1.09363 0.997026 0.996
1.08661 1.09289 0.998431 0.995819
1.00276 1.00291 1.00154 0.998307
1.0345 1.03726 1.00112 0.996217
1.0761 1.08119 1 0.995288
1.08528 1.09049 0.999518 0.995698
1.07875 1.09252 0.991127 0.996233
1.07747 1.08579 0.996376 0.995941
1.07692 1.08182 1 0.995467
1.07237 1.08293 0.994174 0.996052
1.01922 1.01647 1.00597 0.996751
1.01554 1.00915 1.01007 0.996305
1.01383 1.00096 1.01519 0.997697
1.08692 1.09392 0.99764 0.995951
1.08659 1.09435 0.99694 0.995952
1.07397 1.08639 0.992197 0.996337
1.07795 1.09112 0.991709 0.996192
1.02634 1.02748 1.00242 0.996479
1.0647 1.0696 1.00002 0.995393
1.07471 1.07997 1.00003 0.995097
1.0781 1.08969 0.993287 0.996051
1.07112 1.09112 0.985099 0.996521
1.07295 1.0784 0.999385 0.995562
1.06837 1.08619 0.987266 0.99628
1.06362 1.08104 0.98744 0.996398
1.02601 1.02386 1.00616 0.995962
1.02104 1.0164 1.00881 0.995796
1.01391 1.00247 1.01338 0.998065
1.01237 1.00139 1.01417 0.996836
1.07407 1.08628 0.992386 0.996342
1.07687 1.08962 0.99201 0.996254
1.07151 1.08871 0.987664 0.996493
1.06894 1.0923 0.981999 0.996556
1.06935 1.08897 0.985498 0.996436
1.07306 1.09667 0.981732 0.99668
1.04519 1.04832 1.00139 0.995632
1.0606 1.08578 0.980102 0.996637
1.05869 1.06389 1 0.995104
1.06795 1.07312 1.00018 0.995008
1.06947 1.07772 0.996679 0.995647
1.06549 1.08469 0.985829 0.996427
1.01326 1.00386 1.01111 0.998266
1.02318 1.00926 1.01675 0.997098
1.02701 1.02841 1.00309 0.995559
1.01356 1.00508 1.01207 0.996414
1.02099 1.01399 1.01132 0.995625
1.00334 1 1.00372 0.999629
1.08813 1.09373 0.999256 0.995622
1.01489 1.00106 1.01575 0.998093
1.00992 1.00471 1.00808 0.997127
1.01037 1.00612 1.00723 0.997009
1.08028 1.08515 1 0.995514
1.08095 1.0899 0.996035 0.995736
1.04355 1.04455 1.00345 0.9956
1.06476 1.06788 1.00193 0.995156
1.07243 1.07736 0.999733 0.99569
1.09423 1.09889 1 0.995758
1.00125 1 1.00152 0.999733
1.01382 1 1.01538 0.998467
1.02083 1.0199 1.00461 0.99632
1.01807 1.00507 1.01563 0.997349
1.0144 1.01279 1.00493 0.996682
1.08007 1.09326 0.992026 0.995878
1.07772 1.08374 0.998732 0.995707
1.07114 1.08599 0.990365 0.995917
1.03515 1.03706 1.00291 0.995263
1.08306 1.0895 0.998259 0.995826
1.05479 1.05886 1.00096 0.995198
1.0072 1 1.00846 0.998751
1.0175 1.00209 1.01774 0.997672
1.0122 1.01414 1.00218 0.995911
1.02447 1.014 1.01339 0.996963
1.02237 1.02186 1.00407 0.99645
1.07433 1.09482 0.985113 0.996113
1.07212 1.08077 0.996117 0.995863
1.06155 1.08085 0.985946 0.996143
1.00941 1.01039 1.00379 0.995261
1.04986 1.05505 0.999822 0.995262
1.00382 1 1.00485 0.998972
1.00708 1 1.00885 0.998244
1.00752 1 1.00916 0.998382
1.00658 1 1.0084 0.998202
1.00329 1 1.00476 0.998534
0.999447 1 1.00006 0.999388
0.999958 1 1.00066 0.9993
0.999936 1 1 0.999936
1.00095 1 1.0018 0.99915
0.999903 1 1 0.999903
1 1 1 1
0.999906 1 1.00007 0.99984
0.999995 1 1 0.999995
1 1 1 1
1.002 1 1.00228 0.999725
1.00376 1 1.00425 0.999513
1 1 1 1
1 1 1 1
1.00558 1 1.00641 0.999173
1 1 1 1
1.08955 1.09603 0.998309 0.995771
1.08846 1.09602 0.99712 0.995971
1.07789 1.09109 0.991641 0.996227
1.07364 1.08821 0.990187 0.996395
1.08708 1.09484 0.996924 0.995973
1.05028 1.05458 1 0.995923
1.08696 1.09446 0.997172 0.99596
1.07383 1.0875 0.991018 0.996383
1.07668 1.08934 0.992026 0.996323
1.0752 1.09363 0.986505 0.996603
1.07767 1.09301 0.98986 0.996067
1.07596 1.09725 0.98398 0.996565
1.07377 1.08706 0.991379 0.996359
1.07485 1.09379 0.98608 0.99656
1.07643 1.0948 0.986544 0.996629
1.07754 1.10154 0.981435 0.996719
1.07544 1.09728 0.983674 0.996364
1.08037 1.10518 0.980723 0.996758
1.08648 1.0936 0.997505 0.995969
1.08586 1.09384 0.996738 0.99595
1.07353 1.08679 0.991386 0.996381
1.07866 1.09126 0.992261 0.996167
1.02949 1.02999 1.00305 0.996483
1.062 1.06692 1 0.995397
1.0741 1.07919 1.00018 0.995101
1.07848 1.08936 0.993989 0.995997
1.07096 1.0915 0.984567 0.996566
1.06885 1.08667 0.987271 0.99628
1.07384 1.07908 0.99962 0.995524
1.0634 1.08146 0.98681 0.996438
1.02555 1.02286 1.00669 0.995965
1.01993 1.01317 1.01098 0.995737
1.01272 1.0021 1.01255 0.998068
1.01083 1.00197 1.01198 0.996901
1.07428 1.08648 0.992403 0.996342
1.07664 1.0894 0.992019 0.996239
1.07097 1.08848 0.987346 0.996522
1.07023 1.09258 0.982942 0.996539
1.04408 1.04507 1.00344 0.995631
1.0577 1.06284 1.00003 0.995126
1.06738 1.07233 1.00039 0.994995
1.0702 1.0892 0.986123 0.996388
1.07066 1.09519 0.980798 0.996736
1.06776 1.07568 0.996998 0.995634
1.06167 1.08686 0.980117 0.996636
1.0638 1.0836 0.985171 0.996502
1.02716 1.02699 1.00462 0.995568
1.01882 1.01191 1.01127 0.995609
1.01635 1.00491 1.01502 0.996414
1.0131 1.00259 1.01226 0.998251
1.01944 1.00456 1.01773 0.997128
1.07356 1.09225 0.98631 0.996538
1.07383 1.09508 0.984001 0.996542
1.06957 1.10122 0.974462 0.996721
1.06599 1.0923 0.979112 0.99673
1.03795 1.04279 1.00002 0.995346
1.06253 1.08956 0.978318 0.996801
1.03955 1.04458 1.00029 0.9949
1.05666 1.06225 0.999849 0.994889
1.06332 1.07717 0.991443 0.99566
1.00788 1 1.00925 0.99864
1.01891 1.00051 1.02099 0.997461
1.02151 1.01301 1.01164 0.996798
1.01933 1.01821 1.00565 0.995472
1.02111 1.0065 1.0187 0.9959
1.01999 1.0097 1.01476 0.995493
1.00068 1 1.00093 0.999743
1.01489 1 1.01644 0.998477
1.07967 1.09288 0.992 0.995875
1.01939 1.00365 1.01839 0.997336
1.01913 1.01703 1.00575 0.996335
1.01656 1.01414 1.00584 0.996562
1.07718 1.08323 0.998697 0.995708
1.07048 1.08551 0.990211 0.995906
1.03392 1.03592 1.00282 0.99526
1.054 1.0582 1.00077 0.995255
1.08806 1.09446 0.998352 0.995796
1.00735 1 1.00861 0.998757
1.01838 1.00093 1.01981 0.997676
1.01765 1.01869 1.00317 0.995819
1.02531 1.01259 1.01565 0.99697
1.02357 1.02321 1.00395 0.996424
1.07303 1.09335 0.985246 0.996109
1.07539 1.08401 0.996185 0.995849
1.06451 1.08435 0.985487 0.996163
1.01188 1.01342 1.00324 0.995248
1.04725 1.05242 0.999869 0.99522
1.01125 1.00033 1.01292 0.998032
1.02296 1.0031 1.02261 0.997261
1.00867 1.01027 1.00267 0.99576
1.03274 1.02343 1.01255 0.996591
1.04408 1.04683 1.00111 0.996265
1.06202 1.09367 0.974381 0.996594
1.07703 1.08764 0.994556 0.995662
1.07345 1.09009 0.988618 0.996073
1.0146 1.01501 1.00433 0.995292
1.02081 1.02596 1 0.994985
1.00336 1 1.00439 0.998975
1.00641 1 1.00818 0.998247
1.00151 1 1.00329 0.998221
1.00555 1 1.0072 0.998362
1.00261 1 1.00408 0.998531
1.00771 1 1.00953 0.998202
1.00289 1 1.0046 0.998295
1.00679 1 1.00866 0.998143
1.00016 1 1.00154 0.998626
0.999393 1 1 0.999393
0.999387 1 1 0.999387
0.999966 1 1 0.999966
0.999628 1 1.00032 0.999304
0.999945 1 1 0.999945
1 1 1 1
0.999916 1 1 0.999916
0.999999 1 1 0.999999
1 1 1 1
1.00026 1 1.00041 0.999857
1.00184 1 1.00213 0.999705
1 1 1 1
1.00414 1 1.00465 0.999498
1 1 1 1
1 1 1 1
1.07742 1.09291 0.989721 0.996064
1.0767 1.08935 0.992038 0.996324
1.07593 1.09741 0.983785 0.996588
1.07413 1.09337 0.985732 0.99663
1.07403 1.08742 0.991275 0.996378
1.08669 1.09419 0.997173 0.995961
1.07403 1.087 0.991687 0.996343
1.07541 1.09379 0.986602 0.996553
1.07604 1.09423 0.986713 0.996616
1.07525 1.10039 0.980366 0.996728
1.07575 1.09731 0.98392 0.996367
1.07744 1.10357 0.979469 0.996792
1.07575 1.09363 0.987077 0.996533
1.07874 1.10415 0.980205 0.996723
1.07708 1.10411 0.978653 0.996801
1.07137 1.10495 0.972739 0.996787
1.07453 1.08671 0.99242 0.996341
1.07648 1.08923 0.992042 0.996224
1.07052 1.08833 0.987036 0.99655
1.07156 1.09293 0.983871 0.996522
1.04485 1.04545 1.00381 0.995631
1.05805 1.06321 1 0.995149
1.06663 1.07138 1.00058 0.994982
1.07091 1.08935 0.986687 0.99634
1.06823 1.09373 0.979834 0.996791
1.06247 1.08765 0.980147 0.996635
1.06601 1.07373 0.997179 0.99562
1.06308 1.08325 0.984755 0.996577
1.02403 1.02364 1.00483 0.995576
1.01505 1.01026 1.00918 0.995593
1.01959 1.00523 1.01794 0.996414
1.01077 1.00181 1.01072 0.998238
1.01672 1.00068 1.01892 0.99716
1.07336 1.09198 0.986361 0.996539
1.07447 1.09564 0.984081 0.996539
1.07071 1.10065 0.976002 0.996714
1.03761 1.04225 1.00021 0.995345
1.04036 1.04539 1.00026 0.994929
1.05489 1.06004 1.00026 0.994879
1.06626 1.09203 0.97962 0.996717
1.06481 1.07868 0.991312 0.995793
1.05979 1.08701 0.978115 0.996769
1.00764 1 1.00894 0.998712
1.01599 1.01501 1.00552 0.995469
1.01953 1.00846 1.01547 0.995575
1.02461 1.00909 1.01958 0.995882
1.02275 1.01282 1.01301 0.996829
1.0217 1.00412 1.02015 0.997409
1.07752 1.10204 0.981083 0.996604
1.07471 1.1081 0.973096 0.996681
1.06351 1.10028 0.969696 0.996784
1.05583 1.09243 0.96949 0.996913
1.02154 1.02612 1.00031 0.995221
1.05316 1.07514 0.983143 0.996353
1.02426 1.02812 1.00165 0.994608
1.04028 1.04768 0.998157 0.994776
1.00159 1 1.00242 0.999172
1.01671 1 1.01878 0.997971
1.01849 1.00696 1.01438 0.997114
1.02907 1.00956 1.02314 0.99627
1.01174 1.00604 1.0102 0.995507
1.02494 1.00775 1.02186 0.995301
1.00749 1 1.00873 0.998763
1.01742 1 1.01979 0.99768
1.07173 1.09189 0.985375 0.996104
1.024 1.0106 1.01633 0.996976
1.02296 1.02344 1.00382 0.995726
1.02323 1.02314 1.00371 0.996397
1.07882 1.0874 0.996257 0.995834
1.06716 1.0876 0.984961 0.996183
1.01494 1.01702 1.00273 0.995234
1.04444 1.04942 1.00007 0.995179
1.01082 1.00013 1.01267 0.99804
1.02269 1.00286 1.02262 0.997213
1.00932 1.01056 1.00304 0.995751
1.03309 1.02498 1.01138 0.996574
1.04946 1.05278 1.00056 0.996289
1.06495 1.09626 0.97472 0.99664
1.07679 1.08734 0.994552 0.995718
1.07397 1.08978 0.989278 0.996167
1.01694 1.01713 1.00458 0.995255
1.01979 1.02501 1.00003 0.994879
1.0076 1 1.00977 0.997846
1.02238 1.00337 1.02204 0.996979
1.0268 1.02721 1.00378 0.995835
1.04176 1.0426 1.00301 0.996198
1.06506 1.12123 0.952886 0.996873
1.05977 1.09033 0.975259 0.996629
1.0569 1.06332 0.998798 0.99516
1.0285 1.0294 1.00426 0.994886
1.00597 1 1.00774 0.998251
1.0028 1 1.00461 0.9982
1.00069 0.99938 1.00284 0.998478
1.00372 1 1.0052 0.998527
1.00998 1 1.0118 0.998201
1.00037 1 1.00176 0.998618
1.00263 0.999655 1.00465 0.998333
1.0087 1 1.01056 0.998156
1.0002 1 1.0016 0.99861
1.00856 1 1.01051 0.998063
1.00407 1 1.00598 0.998099
0.999412 1 1.00083 0.998584
0.999347 1 1 0.999347
0.99939 1 1 0.99939
0.99998 1 1 0.99998
0.999387 1 1 0.999387
0.99997 1 1 0.99997
1 1 1 1
0.999955 1 1 0.999955
1 1 1 1
0.999998 1 1 0.999998
0.999932 1 1 0.999932
1.00158 1 1.00174 0.999833
1 1 1 1
1.00336 1 1.00367 0.999686
1 1 1 1
1 1 1 1
1.07596 1.09725 0.984166 0.996369
1.07574 1.09374 0.986897 0.996602
1.07461 1.102 0.97825 0.996827
1.07307 1.09932 0.979317 0.996737
1.07595 1.09375 0.987138 0.996546
1.07427 1.08694 0.99198 0.996326
1.07534 1.09342 0.986878 0.996534
1.07794 1.10328 0.980248 0.996713
1.07642 1.10369 0.978422 0.996795
1.07086 1.10436 0.972777 0.996801
1.08037 1.10469 0.981258 0.996669
1.07578 1.1095 0.972658 0.996867
1.07827 1.11607 0.969153 0.996882
1.07312 1.09166 0.986423 0.99654
1.07508 1.09616 0.984184 0.996536
1.07173 1.10006 0.977459 0.996708
1.0381 1.04226 1.00067 0.995345
1.04011 1.04519 1.00018 0.994958
1.05365 1.05846 1.00059 0.994868
1.0667 1.09199 0.980074 0.996705
1.05655 1.08446 0.977453 0.996736
1.06629 1.0803 0.991068 0.995926
1.01419 1.01233 1.0064 0.995467
1.01731 1.00709 1.01455 0.995659
1.02733 1.01162 1.01974 0.995866
1.00894 1 1.01016 0.998786
1.02047 1.01094 1.0126 0.996858
1.02463 1.00681 1.02039 0.997355
1.07887 1.10285 0.981579 0.996614
1.07352 1.10805 0.972064 0.996683
1.064 1.10013 0.970292 0.996777
1.02068 1.02516 1.00042 0.995212
1.02324 1.02727 1.0014 0.994684
1.04341 1.05107 0.9978 0.994895
1.05686 1.09295 0.969977 0.996913
1.05015 1.0728 0.982493 0.996328
1.0023 1 1.00304 0.999264
1.01568 1 1.01776 0.997964
1.00926 1.00529 1.00846 0.995528
1.02797 1.00749 1.02494 0.995501
1.02714 1.01038 1.02037 0.996286
1.02047 1.01013 1.0132 0.997079
1.07567 1.11043 0.97183 0.996781
1.06499 1.11471 0.958511 0.996746
1.05719 1.10008 0.963942 0.996958
1.0394 1.07442 0.970418 0.996894
1.00471 1.00827 1.00133 0.995143
1.03348 1.05084 0.988027 0.99539
1.01872 1.02167 1.00261 0.994524
0.99954 1 1 0.99954
0.999477 1 1.00055 0.998928
1.00888 1 1.01042 0.99848
1.01224 1 1.01488 0.997405
1.0145 1 1.0178 0.996764
1.03633 1.01478 1.02552 0.995816
1.00919 1.00209 1.01126 0.995869
1.049 1.00546 1.04736 0.996124
1.01146 1 1.01344 0.998049
1.0252 1.00328 1.02475 0.997165
1.06826 1.09915 0.975132 0.996687
1.03644 1.02927 1.01045 0.996558
1.00994 1.01057 1.00365 0.995742
1.0544 1.058 1.00029 0.996315
1.07655 1.08704 0.994546 0.995775
1.07468 1.08966 0.989951 0.996262
1.01858 1.01856 1.00482 0.995219
1.01847 1.02382 1 0.994773
1.00916 1.0001 1.01131 0.997772
1.02094 1.00354 1.02047 0.996928
1.03383 1.03387 1.00415 0.99583
1.03963 1.0412 1.00229 0.99622
1.06616 1.12299 0.952353 0.996893
1.06671 1.09495 0.977563 0.996574
1.05233 1.05897 0.9985 0.995226
1.03001 1.03146 1.00377 0.994838
1.00637 0.999266 1.0093 0.997829
1.07702 1.13356 0.95305 0.99692
1.0132 1.00403 1.01257 0.996604
1.0341 1.03516 1.00335 0.995641
1.04267 1.10181 0.949137 0.997036
1.04238 1.05262 0.994959 0.995292
1.02023 1.02248 1.00323 0.994578
1.00447 1 1.0063 0.998178
0.998874 0.998184 1.00222 0.99847
1.00088 0.997722 1.00445 0.998723
1.00001 1 1.0014 0.998611
1.00948 1 1.01133 0.998169
1.00277 0.998984 1.00542 0.998372
0.999157 1 1.00058 0.998579
1.0042 1 1.0061 0.998112
1.00072 0.999492 1.00257 0.998665
1.00724 1 1.0092 0.998062
0.997225 0.998125 1.00028 0.998815
1.00367 1 1.00526 0.998419
1.00827 1 1.01038 0.997909
0.999272 1 1.00135 0.997925
0.998661 1 1.00019 0.998467
0.999298 1 1 0.999298
0.999342 1 1 0.999342
0.999986 1 1 0.999986
0.999386 1 1 0.999386
0.999982 1 1 0.999982
1 1 1 1
0.999975 1 1 0.999975
1 1 1 1
1 1 1 1
0.999685 1 1.00008 0.999607
0.999965 1 1 0.999965
0.999921 1 1 0.999921
1 1 1 1
1.00127 1 1.00147 0.999809
1 1 1 1
1 1 1 1
1.07022 1.10364 0.972817 0.996814
1.07574 1.10322 0.978234 0.996788
1.07703 1.10233 0.980276 0.996703
1.07497 1.09325 0.986699 0.996535
1.07996 1.10471 0.980844 0.996687
1.07536 1.10919 0.972557 0.996858
1.0747 1.11241 0.969124 0.996883
1.07691 1.1116 0.97186 0.996849
1.08658 1.12779 0.966412 0.996948
1.10145 1.15384 0.957272 0.997203
1.08009 1.10356 0.982045 0.996624
1.07246 1.10797 0.971173 0.996684
1.06473 1.09997 0.971104 0.99677
1.02086 1.0253 1.00048 0.995203
1.02331 1.0274 1.00126 0.994763
1.04659 1.05454 0.997433 0.995014
1.05781 1.09294 0.970851 0.996913
1.04673 1.06958 0.98227 0.996303
1.00972 1.00483 1.00936 0.995549
1.03336 1.00822 1.02937 0.995694
1.02618 1.0097 1.02009 0.996302
1.00092 1 1.00157 0.999356
1.01448 1 1.01656 0.997957
1.02314 1.0136 1.0124 0.997044
1.07492 1.11028 0.971275 0.996789
0.999624 1 1.00009 0.999532
0.999965 1 1.00109 0.998877
1.06647 1.114 0.960458 0.996749
1.05609 1.09874 0.964141 0.996929
1.00597 1.00886 1.00192 0.995219
1.02 1.02256 1.00295 0.994562
1.03022 1.04737 0.988196 0.995373
1.03831 1.07383 0.969958 0.996862
1.00781 1 1.00924 0.998581
1.01277 1 1.01542 0.997387
1.01015 1.00217 1.01228 0.995736
1.04432 1.0066 1.0415 0.996124
1.03371 1.01126 1.02649 0.995816
1.01475 1.00241 1.01555 0.996809
1.08382 1.13382 0.958895 0.996882
1.04927 1.11281 0.94588 0.996852
1.03966 1.0874 0.958876 0.997103
1.022 1.04978 0.976909 0.996555
1.00829 1.00519 1.00752 0.9956
1.01713 1.02394 0.998533 0.994809
0.999592 1 1.00078 0.998809
1.00245 1 1.00356 0.998892
1.00076 1.00021 1.00203 0.998525
1.00686 1 1.00915 0.997734
1.01447 1 1.01739 0.997129
1.01004 1.0004 1.01315 0.996528
1.07648 1.00656 1.0737 0.996061
0.993462 1.00049 0.995828 0.997132
1.00859 1 1.01091 0.997698
1.01795 1.00279 1.0183 0.996877
1.06616 1.12299 0.95234 0.996912
1.07315 1.09901 0.979879 0.996519
1.03784 1.03966 1.00202 0.996241
1.04224 1.04202 1.00441 0.995823
1.0482 1.05497 0.998278 0.99529
1.03253 1.03447 1.00335 0.99479
1.00651 0.999022 1.0097 0.997817
1.07788 1.1368 0.951023 0.997003
1.01414 1.0022 1.01526 0.996694
1.02904 1.03027 1.00325 0.995563
1.0436 1.10255 0.949365 0.997017
1.03775 1.04932 0.993539 0.995401
1.02198 1.02398 1.00348 0.994588
1.01613 0.998121 1.02043 0.997664
1.00185 1.07718 0.932532 0.997354
1.00638 0.999846 1.01017 0.996401
1.01078 1.01155 1.0043 0.994954
1.00687 1.04565 0.96625 0.996543
1.00433 1.00724 1.00221 0.99491
0.92986 1.00061 0.933562 0.995424
0.996172 0.996058 1.00166 0.998462
0.998969 0.994907 1.00536 0.998728
1.00165 0.995934 1.00708 0.998668
0.999196 1 1.00062 0.998574
1.00596 1 1.00785 0.998125
1.00601 1 1.00796 0.998063
1.00182 0.999214 1.00389 0.998721
0.99872 1 1.00025 0.998467
0.999905 1 1.00196 0.997947
0.995318 0.995912 1.00062 0.998781
1.00918 1 1.0113 0.997905
1.00427 1 1.00591 0.998376
0.999882 0.994874 1.00627 0.99877
1.00833 1 1.01056 0.997788
1.00697 1 1.00912 0.99787
0.998155 1 1.00034 0.997812
0.99836 1 1.00009 0.998272
1.00619 1 1.0082 0.99801
1.00038 1 1.00214 0.998245
0.99928 1 1 0.99928
0.999294 1 1 0.999294
0.999992 1 1 0.999992
0.999336 1 1 0.999336
0.999988 1 1 0.999988
1 1 1 1
0.999984 1 1 0.999984
1 1 1 1
1 1 1 1
0.999697 1 1 0.999697
0.999616 1 1 0.999612
0.999984 1 1 0.999984
0.999959 1 1 0.999959
1 1 1 1
1.00053 1 1.00062 0.999911
1 1 1 1
1 1 1 1
1.0714 1.10926 0.968888 0.996885
1.07503 1.10909 0.972355 0.996848
1.07968 1.10487 0.980429 0.996706
1.07662 1.11135 0.97181 0.996847
1.08388 1.12576 0.96575 0.996938
1.10316 1.15401 0.958702 0.997114
1.09564 1.14502 0.959731 0.997015
0.925327 1.01626 0.916985 0.992955
1.0446 1.1007 0.951104 0.997821
0.999621 1 1.00059 0.999033
1.07431 1.11036 0.970638 0.996797
1.06767 1.11309 0.962317 0.996751
1.05455 1.09728 0.964046 0.9969
1.00326 1.00717 1.00082 0.995292
1.0211 1.02327 1.0033 0.994596
1.02715 1.04388 0.988565 0.995356
1.03776 1.07402 0.969316 0.996829
1.00574 1.00221 1.00794 0.995614
1.03767 1.00746 1.03398 0.996137
1.03179 1.00769 1.02822 0.995814
1.00083 1 1.0013 0.999525
1.01443 1.00386 1.01372 0.996851
1.00778 1 1.00911 0.998679
1.01349 1 1.01617 0.99737
1.00043 1 1.00161 0.998827
1.08285 1.13404 0.957844 0.996889
0.999273 1 1.0004 0.998875
1.00325 1 1.00436 0.998896
1.00072 1.00053 1.0017 0.998486
1.05281 1.1132 0.948739 0.996851
1.03662 1.08459 0.958603 0.997051
1.00361 1.00342 1.00457 0.995639
1.01893 1.02554 0.998591 0.994962
1.02219 1.04948 0.97739 0.996536
1.00671 1 1.00893 0.997801
1.01328 1 1.01623 0.997093
1.00436 1.00031 1.00718 0.996886
1.064 1.00483 1.0631 0.996032
1.01041 1.00359 1.01025 0.996584
1.05821 1.12739 0.94149 0.996972
1.0183 1.09563 0.932197 0.997021
1.02776 1.06188 0.971053 0.996719
1.00693 1.02861 0.982555 0.996302
1.00053 1.00057 1.00333 0.996637
0.998564 1 1.00012 0.998443
1.00433 1.00038 1.00581 0.998151
1.00301 0.999385 1.00531 0.998321
1.01508 1 1.01755 0.99757
1.01384 1 1.01666 0.997224
1.04688 0.999932 1.05025 0.996859
1.02823 1.00316 1.0278 0.997274
1.00723 0.999385 1.01007 0.997802
1.01483 1.00053 1.01756 0.996786
1.07813 1.14115 0.947538 0.997083
1.04528 1.10443 0.949299 0.996996
1.03337 1.04637 0.992027 0.995509
1.0222 1.02388 1.00288 0.995486
1.02286 1.02472 1.0036 0.994601
1.0166 0.998449 1.02043 0.997793
1.00426 1.07925 0.932926 0.997418
1.00354 1.00052 1.00663 0.996404
1.00819 1.00873 1.00454 0.994945
1.0052 1.04305 0.966906 0.996696
1.00547 1.00787 1.00273 0.994912
0.926658 0.998185 0.933964 0.993982
1.01754 0.995343 1.02472 0.997645
0.972146 1.02879 0.947465 0.997336
1.00063 1.00137 1.00325 0.996017
1.00423 1.00256 1.00614 0.995551
0.988213 1.00761 0.984217 0.996479
0.86419 0.968935 0.927397 0.96172
0.829287 0.943832 0.896763 0.979789
0.929575 0.972279 0.959897 0.996022
0.593776 0.762558 0.855412 0.910278
0.507008 0.685402 0.840901 0.87968
0.997774 0.992262 1.00683 0.998733
1.00348 0.993423 1.01142 0.998721
1.00339 0.994316 1.01044 0.998703
0.998467 1 1 0.998467
0.999796 1 1.00183 0.997969
1.00878 1 1.0109 0.997902
1.00372 1 1.0054 0.998332
0.992531 0.993776 1 0.998747
1.00756 1 1.0097 0.997871
0.998314 1 1 0.998314
0.9984 1 1.00057 0.997827
0.999198 0.995839 1.00469 0.998693
1.00845 1 1.01059 0.997881
1.01336 1 1.01546 0.997929
1.01303 0.998531 1.01628 0.998265
1.00751 1 1.00967 0.997861
0.998971 1 1.0013 0.997677
0.99898 1 1.00075 0.998232
1.0023 1 1.00445 0.997863
1.00669 1 1.00863 0.998078
1.0067 1 1.00854 0.998175
1.00588 1 1.00791 0.997986
1.00093 1 1.00254 0.998398
1.00115 1 1.00291 0.99824
0.999278 1 1 0.999278
0.99928 1 1 0.99928
0.999996 1 1 0.999996
0.999289 1 1 0.999289
0.999994 1 1 0.999994
1 1 1 1
0.99999 1 1 0.99999
1 1 1 1
1 1 1 1
0.999787 1 1 0.999787
0.999783 1 1.00009 0.999696
0.999995 1 1 0.999995
0.999791 1 1.00017 0.999617
0.99998 1 1 0.99998
1 1 1 1
0.999953 1 1 0.999953
1 1 1 1
1 1 1 1
1.08095 1.12344 0.965147 0.996929
1.0759 1.11066 0.971766 0.996845
1.10744 1.15548 0.961286 0.997027
0.931102 1.0157 0.923142 0.993036
1.09443 1.14516 0.95857 0.997011
1.05175 1.10327 0.955503 0.997695
1.06787 1.12116 0.955212 0.99713
0.879252 0.967023 0.928536 0.979215
0.96834 1.02863 0.947338 0.993721
0.999097 1 1 0.999097
0.999361 1 1.00034 0.999025
0.999624 1 1.00109 0.99854
0.998644 1 1 0.998644
1.08169 1.13431 0.956584 0.996896
1.05604 1.11387 0.951082 0.99685
1.0338 1.08193 0.958392 0.996999
1.00309 1.00324 1.00419 0.995677
1.01999 1.0272 0.997854 0.995119
1.02124 1.04831 0.977584 0.996519
1.01707 1 1.02051 0.99663
1.05349 1.00439 1.05309 0.996003
1.01276 1.00705 1.00905 0.996644
1.00316 1 1.00427 0.9989
1.01253 1.00061 1.01489 0.99706
1.00618 1 1.00833 0.997867
0.998941 1 1 0.998941
1.00059 1.00048 1.00167 0.998448
1.05824 1.12945 0.939788 0.996985
0.999173 0.999999 1.00073 0.99844
1.00318 1.0006 1.00433 0.998253
1.00255 0.998333 1.00557 0.99866
1.02657 1.09977 0.93624 0.997008
1.02723 1.06138 0.971014 0.996717
0.999622 1.00349 0.999515 0.996631
1.00788 1.02834 0.983666 0.996372
1.01425 1 1.01685 0.997438
1.01403 1.00003 1.01702 0.997031
1.0353 1.00405 1.03396 0.997257
1.04835 1.00317 1.04848 0.996724
1.00877 1.07827 0.938271 0.997098
0.995759 1.06182 0.940575 0.997032
1.01165 1.02638 0.989278 0.996335
0.972287 1.0031 0.971659 0.997551
1.00808 0.999496 1.01015 0.998454
1.00815 1 1.0105 0.997678
1.02126 0.999151 1.02405 0.998121
1.07024 1.00147 1.07155 0.997302
0.858148 0.967351 0.929066 0.954842
1.01728 0.998182 1.02125 0.997923
1.00183 1.00091 1.00453 0.996405
1.00673 1.08076 0.933844 0.99749
1.00333 1.04019 0.967615 0.996848
1.0068 1.00863 1.0033 0.994907
1.00663 1.00656 1.00517 0.994932
0.925515 0.997868 0.934526 0.992474
1.01359 0.995343 1.02068 0.997707
0.970895 1.02902 0.946058 0.997307
1.00103 1.00151 1.00351 0.996028
1.00623 1.00482 1.00585 0.995575
0.990785 1.00867 0.985761 0.996458
0.852904 0.970235 0.92045 0.955043
0.831356 0.943345 0.902896 0.976065
0.93247 0.972411 0.962679 0.996101
0.591361 0.760669 0.85162 0.912875
0.503823 0.69122 0.834439 0.873508
1.00488 0.99539 1.01182 0.997744
0.637564 0.788067 0.882171 0.917081
0.547158 0.715913 0.869357 0.879133
0.976702 1.00558 0.973577 0.997642
1.0112 1.00202 1.01226 0.99695
1.01625 1.00638 1.0128 0.997049
0.9239 0.958563 0.967009 0.996722
0.799355 0.93527 0.890833 0.959415
0.797919 0.910864 0.900082 0.973247
0.564912 0.737186 0.832578 0.920405
0.552168 0.764959 0.82902 0.870699
1.00479 0.990912 1.01525 0.998773
1.00402 0.992974 1.01246 0.998676
1.0141 0.995608 1.01976 0.998837
0.998355 1 1 0.998355
0.998836 1 1.001 0.997842
1.00796 1 1.01011 0.997872
1.00959 1 1.01164 0.997974
0.998976 0.996751 1.00362 0.998615
0.998887 1 1.00066 0.998231
1.01346 1 1.01558 0.997917
1.00762 1 1.00981 0.997831
0.99878 1 1.00105 0.99773
1.0131 0.998274 1.01656 0.998325
1.01319 1 1.01502 0.998193
1.02965 0.997695 1.03359 0.998495
1.00629 1 1.00865 0.997663
0.999406 1 1.00164 0.997769
1.00133 1 1.00348 0.997854
1.00575 0.99969 1.00793 0.998141
1.00138 0.999955 1.00356 0.997881
1.00124 0.999502 1.00351 0.998234
1.01034 0.998153 1.01384 0.99839
1.01226 0.999713 1.01455 0.99803
1.0092 1 1.01102 0.998208
1.00868 1 1.01052 0.998178
1.00617 1 1.00775 0.998434
1.00766 1 1.00972 0.997962
1.00134 1 1.00298 0.998357
0.999249 1 1 0.999249
1.00184 1 1.00361 0.998236
0.999281 1 1 0.999281
0.999991 1 1 0.999991
0.999281 1 1 0.999281
0.999996 1 1 0.999996
1 1 1 1
0.999995 1 1 0.999995
1 1 1 1
1 1 1 1
0.99902 1 1 0.99902
0.999817 1 1 0.999817
0.999783 1 1 0.999783
1 1 1 1
0.999702 1 1.00001 0.999694
0.999992 1 1 0.999992
1 1 1 1
0.999975 1 1 0.999975
1 1 1 1
1 1 1 1
0.934027 1.01498 0.926624 0.993116
1.09338 1.14476 0.957984 0.997007
1.05676 1.10502 0.958664 0.997567
0.865587 0.965821 0.914029 0.980515
0.962813 1.02802 0.942237 0.993982
1.07045 1.12384 0.955274 0.99709
0.97383 1.04709 0.934479 0.995244
0.88575 0.975009 0.924947 0.982168
0.864114 0.974026 0.924901 0.959191
0.606071 0.770128 0.853709 0.921831
0.47399 0.656507 0.821738 0.878611
0.999589 1 1.00096 0.998635
0.999291 1 1.0002 0.999095
0.999409 1 1.00039 0.999017
0.999795 1 1.00123 0.998569
1.0006 1 1.00214 0.998464
0.99867 1 1.0004 0.998274
0.999259 1 1.00087 0.998394
0.99864 1 1.00004 0.998596
1.06013 1.13128 0.939921 0.996998
1.03536 1.10399 0.940661 0.996994
1.02714 1.06158 0.970745 0.996715
0.998064 1.00504 0.996418 0.996626
1.00955 1.02827 0.985297 0.996439
1.04252 1.00463 1.04059 0.997239
1.04912 1.00588 1.04655 0.996589
1.01148 1.00036 1.01432 0.996835
1.0021 1.00077 1.00298 0.998353
1.01487 1 1.01761 0.9973
0.99998 1 1.00154 0.99844
1.00211 0.998282 1.00483 0.999002
1.004 1.07799 0.934011 0.997165
1.00732 0.999333 1.0096 0.998411
1.01018 1 1.01229 0.997914
0.994859 1.05994 0.941415 0.997004
1.01149 1.02889 0.986536 0.9965
0.974727 1.00268 0.974648 0.99741
1.03064 0.99968 1.03331 0.997733
1.06175 1.00349 1.06087 0.997351
0.956603 1.03527 0.926942 0.996841
0.996884 1.02103 0.979273 0.997019
0.974227 1.00266 0.974464 0.997101
0.971404 0.99607 0.977287 0.997903
1.01157 1 1.0138 0.997806
1.02067 0.997503 1.02528 0.997996
1.05661 0.999044 1.06006 0.997697
0.663556 0.797672 0.90416 0.920043
0.866585 0.972309 0.925549 0.962958
1.01003 0.996623 1.01572 0.997772
1.00089 1.00132 1.00354 0.996042
0.971013 1.02923 0.946011 0.997276
0.993455 1.01005 0.987085 0.996441
1.00848 1.00718 1.00571 0.995606
0.855857 0.971603 0.918248 0.959296
0.837601 0.955178 0.897832 0.976692
0.933238 0.970472 0.965298 0.996203
0.606434 0.76023 0.865104 0.922084
0.500181 0.698274 0.826107 0.867092
1.00506 0.997276 1.01007 0.997756
0.653206 0.79893 0.890574 0.918062
0.516922 0.685261 0.862568 0.874532
0.9766 1.00671 0.972416 0.99761
1.01132 1.00277 1.01162 0.996946
1.01406 1.00413 1.01273 0.997193
0.919567 0.952684 0.968092 0.997053
0.800034 0.941734 0.889696 0.954858
0.797135 0.907885 0.899542 0.976066
0.584605 0.748669 0.850247 0.918391
0.561316 0.780895 0.826986 0.869194
1.00553 0.996271 1.01085 0.998453
0.553088 0.724911 0.870198 0.876782
0.599335 0.798494 0.850963 0.882037
0.984108 0.989201 0.996253 0.998593
1.0187 1.00265 1.01751 0.998522
0.930478 0.940646 0.993173 0.995991
0.819112 0.899967 0.930367 0.978279
0.736928 0.881584 0.878497 0.951527
0.617225 0.751739 0.892612 0.919844
0.639928 0.85712 0.851627 0.876678
1.00639 0.994842 1.01298 0.99865
1.01182 0.996911 1.01619 0.998787
1.01056 0.994621 1.01696 0.999074
0.998539 1 1.00031 0.99823
0.99862 1 1.00084 0.997784
1.00866 1 1.01088 0.9978
1.01357 1 1.01569 0.997905
1.01244 0.997787 1.01632 0.998385
0.998906 1 1.00115 0.997762
1.01382 1 1.01572 0.998124
1.00549 1 1.00784 0.997665
1.02656 0.995514 1.03267 0.998559
1.04376 0.993166 1.05189 0.999094
1.02091 0.999976 1.02281 0.998173
1.00336 1 1.00574 0.997635
1.00013 1 1.00229 0.997845
1.00378 0.999855 1.00574 0.998203
1.00155 1 1.00369 0.997869
1.00105 1.00002 1.00283 0.998209
1.00419 0.995364 1.01036 0.998518
1.00405 0.999377 1.00649 0.998199
1.0164 0.997847 1.0204 0.998232
0.99843 0.990751 1.0092 0.998564
1.01642 1.00032 1.01816 0.997972
1.00636 1.00831 1.00093 0.99714
1.01766 1 1.01991 0.997792
1.01249 0.999699 1.01479 0.998034
1.01407 1 1.01617 0.99794
1.00917 0.999977 1.011 0.998213
1.00563 1 1.00727 0.998374
1.0072 1 1.00904 0.99818
1.003 1 1.00456 0.998447
0.99935 1 1.00016 0.999191
1.00043 1 1.00212 0.998316
0.999254 1 1 0.999254
0.999972 1 1 0.999972
0.999285 1 1 0.999285
0.999987 1 1 0.999987
1 1 1 1
0.999995 1 1 0.999995
1 1 1 1
1 1 1 1
0.998991 1 1 0.998991
0.999769 1 1 0.999769
0.999023 1 1 0.999023
1 1 1 1
0.999816 1 1 0.999816
0.999778 1 1 0.999778
0.999999 1 1 0.999999
1 1 1 1
0.99999 1 1 0.99999
1 1 1 1
1 1 1 1
0.636044 0.78718 0.887465 0.910462
0.530211 0.709151 0.855564 0.873892
0.864858 0.963649 0.914628 0.981254
0.960295 1.02725 0.940205 0.994273
1.07242 1.12774 0.953761 0.997051
0.880614 0.960045 0.932876 0.983263
0.976615 1.04401 0.939635 0.995544
0.870323 0.979879 0.925919 0.959257
0.586765 0.763244 0.841968 0.913072
0.487403 0.678397 0.823458 0.872495
0.896645 0.991337 0.915499 0.987964
0.825759 0.950903 0.904297 0.960298
0.572488 0.744978 0.835308 0.919975
0.563916 0.772995 0.835621 0.873028
1.00111 1 1.00295 0.998169
0.998983 1 1.00031 0.998675
0.999377 1 1.00028 0.999094
0.999626 1 1.00103 0.998598
1.00005 1 1.00144 0.998611
1.00021 1 1.00231 0.997909
0.998956 1 1.00068 0.998274
1.00055 1 1.00265 0.997899
0.998959 1 1.00062 0.998338
0.998572 1 1.00002 0.998548
0.997073 1.07762 0.927826 0.99723
0.993389 1.05774 0.942012 0.996979
1.01183 1.03133 0.984374 0.996666
0.977308 1.00262 0.977426 0.997269
1.05238 1.00557 1.04928 0.997401
1.04139 1.00022 1.04392 0.997351
1.01105 0.999987 1.01293 0.998149
1.00639 0.998925 1.00912 0.998366
0.95616 1.03581 0.925868 0.997009
1.01494 1 1.01723 0.997744
1.02068 0.997209 1.02561 0.997976
0.985918 1.01657 0.972811 0.996958
0.972041 1.00206 0.972797 0.997171
0.974634 0.997849 0.978799 0.997891
1.04893 0.998095 1.05341 0.997641
0.93697 1.00177 0.938191 0.996938
0.970149 0.997002 0.97491 0.998108
1.01473 0.988391 1.02853 0.998168
1.01115 1 1.01353 0.997652
1.02637 0.998196 1.03059 0.997707
1.02843 0.996728 1.03405 0.997838
0.576055 0.735456 0.878727 0.891361
0.658612 0.794491 0.899615 0.921476
0.862028 0.97337 0.927284 0.95506
1.00398 0.996135 1.01013 0.997763
1.01098 1.00296 1.01109 0.996935
0.977983 1.00796 0.97262 0.997575
1.01212 1.00247 1.01233 0.99733
0.660602 0.792394 0.902946 0.923287
0.808848 0.945783 0.89559 0.954918
0.790522 0.905995 0.896408 0.973379
0.920471 0.949697 0.971804 0.997347
0.579628 0.755432 0.842381 0.910846
0.504069 0.671991 0.854889 0.877438
0.571827 0.786176 0.829364 0.876999
1.00506 0.995945 1.01078 0.998394
0.556653 0.724169 0.871261 0.88226
0.619375 0.819608 0.857213 0.881575
0.980392 0.986401 0.99519 0.998712
1.0176 1.00114 1.01801 0.998463
0.927608 0.938285 0.991666 0.996929
0.806492 0.905751 0.913151 0.9751
0.764751 0.889445 0.897557 0.957941
0.617005 0.759022 0.891872 0.911447
0.633306 0.848106 0.846454 0.882186
1.00588 0.993497 1.01304 0.999431
0.642759 0.821407 0.877676 0.89157
0.636753 0.835201 0.860745 0.88574
0.967958 0.945355 1.0242 0.999715
0.85945 0.89835 0.971599 0.984663
0.773294 0.85775 0.943648 0.955376
0.715512 0.852281 0.924783 0.907809
0.689869 0.904008 0.860801 0.886526
1.00944 0.997494 1.01326 0.998736
1.01324 0.994435 1.01987 0.999059
1.02285 0.981494 1.04281 0.999354
0.999121 1 1.00137 0.997755
1.00413 1 1.00647 0.997667
1.01377 1 1.01575 0.998055
1.02447 0.993879 1.0322 0.998624
1.00376 1 1.00614 0.997635
1.01967 0.999377 1.02219 0.998161
1.04913 0.993057 1.05734 0.999173
1.04057 0.979528 1.0629 0.999446
1.04577 0.994009 1.05306 0.999068
1.01443 0.999499 1.01691 0.998058
1.00117 1 1.00332 0.997856
1.00051 1.00012 1.00221 0.998183
0.996604 0.990695 1.00733 0.998643
1.01459 0.997689 1.01871 0.998258
1.00195 0.999825 1.00395 0.998189
1.00134 0.989886 1.013 0.998598
1.02005 0.999196 1.02265 0.99826
1.01973 0.98508 1.03625 0.998962
1.00628 1.00276 1.00532 0.998203
1.01191 1.00125 1.01267 0.998002
1.00166 1.00178 1.00248 0.997417
1.01152 1.01404 1.00153 0.995993
1.00955 1.00436 1.00775 0.997445
1.00407 1.00582 1.00075 0.997508
1.01532 0.999927 1.01765 0.997785
1.02425 1 1.02665 0.997664
1.01138 0.999677 1.0137 0.998038
1.01452 1 1.01662 0.997942
1.00874 1 1.01063 0.99813
1.01045 1 1.01226 0.998217
1.00775 1 1.00939 0.998372
1.00225 1 1.00317 0.999083
1.00333 1 1.00488 0.99846
1.00018 1 1.00099 0.999193
0.999936 1 1 0.999936
0.999295 1 1.00004 0.999258
0.999962 1 1 0.999962
1 1 1 1
0.999984 1 1 0.999984
1 1 1 1
1 1 1 1
0.999014 1 1.00041 0.998603
0.999679 1 1 0.999679
0.998896 1 1 0.998891
0.999999 1 1 0.999999
0.999776 1 1 0.999776
0.999026 1 1 0.999026
1 1 1 1
1 1 1 1
0.999816 1 1 0.999816
0.999998 1 1 0.999998
1 1 1 1
1 1 1 1
0.5372 0.712482 0.857822 0.87895
0.647695 0.794489 0.88968 0.916324
0.620207 0.823708 0.854256 0.881405
0.528222 0.71247 0.849608 0.872632
0.879445 0.963175 0.93125 0.980476
0.979687 1.04068 0.945302 0.995861
0.864507 0.983055 0.917156 0.958843
0.600782 0.757599 0.86046 0.92161
0.502005 0.705764 0.821043 0.866329
0.903549 0.985789 0.92888 0.986752
0.796688 0.937326 0.893131 0.951661
0.588196 0.752567 0.851502 0.917891
0.551093 0.763737 0.830909 0.868416
0.853737 0.954028 0.911007 0.982294
0.731495 0.859944 0.89515 0.950266
0.645019 0.798508 0.890353 0.907259
0.630114 0.845346 0.852124 0.874746
1.00519 1 1.0075 0.99771
1.00113 1 1.0029 0.99823
0.998801 1 1.00009 0.998713
0.999729 1 1.00097 0.998759
0.999782 1 1.00232 0.997466
0.999823 1 1.00185 0.997979
0.999115 1 1.00084 0.998274
1.00025 1 1.00239 0.997865
0.999987 1 1.00205 0.997937
0.998629 1 1.00035 0.998282
0.956706 1.03672 0.925439 0.99717
0.976885 1.0125 0.967823 0.996902
0.968433 1.00129 0.969863 0.997241
0.977076 0.999493 0.979648 0.997882
1.03819 0.996935 1.0439 0.997582
1.02101 0.997991 1.02516 0.997958
1.01696 1 1.01932 0.997683
1.01071 1 1.01315 0.997598
0.938616 1.00117 0.940281 0.997065
1.02102 0.998694 1.02474 0.997665
1.02855 0.99736 1.03353 0.997816
0.969127 0.998449 0.972471 0.998109
1.00754 0.991683 1.0179 0.998124
0.936192 0.968035 0.969842 0.997178
0.954011 0.953749 1.00105 0.999225
1.04392 0.980008 1.06695 0.998377
1.00989 0.998832 1.01328 0.997827
1.03337 0.996236 1.03935 0.998004
0.657628 0.836712 0.875623 0.897609
0.56836 0.735264 0.869333 0.889189
0.648209 0.788355 0.900099 0.913487
1.00533 0.996555 1.01049 0.99834
1.01669 0.999202 1.01914 0.998401
0.974515 0.983748 0.991765 0.998839
0.548736 0.718066 0.866424 0.881999
0.735965 0.868269 0.891482 0.950803
0.811232 0.903185 0.91944 0.976888
0.916922 0.931762 0.986116 0.997928
0.627611 0.771725 0.883958 0.920018
0.635007 0.83441 0.863328 0.881503
0.629845 0.843036 0.846199 0.882906
1.00336 0.993369 1.01069 0.999376
0.646867 0.825275 0.877193 0.893554
0.632273 0.828881 0.860802 0.886154
0.970588 0.950954 1.02118 0.999481
0.870989 0.910835 0.971183 0.984627
0.747512 0.857869 0.918848 0.948317
0.681517 0.897049 0.857986 0.885483
0.73201 0.852626 0.941513 0.911868
0.987844 0.950808 1.03925 0.999711
0.640197 0.817639 0.874063 0.895797
0.682654 0.878993 0.870553 0.892112
0.627901 0.844066 0.850249 0.87492
0.91979 0.910909 1.01389 0.995915
0.844471 0.892777 0.987957 0.957423
0.795321 0.92432 0.937695 0.917611
1.01683 0.994719 1.02321 0.999043
1.02638 0.986661 1.04102 0.99927
1.03987 0.976115 1.06578 0.999566
1.00446 1 1.00684 0.997635
1.01843 0.998945 1.0214 0.998148
1.05354 0.991511 1.06335 0.999251
1.01732 0.999416 1.01988 0.998069
1.04587 0.993873 1.05329 0.999079
1.04832 0.980984 1.06926 0.999421
1.03358 0.970672 1.06535 0.999489
1.03021 0.991387 1.04014 0.999058
1.01329 0.997882 1.01719 0.998287
1.00133 1.00018 1.00298 0.998179
1.00687 0.991788 1.0166 0.998633
1.02124 0.989446 1.03324 0.998933
1.02637 1.00005 1.0281 0.998272
1.01261 0.999832 1.01399 0.998801
1.00743 0.999919 1.00891 0.998613
1.00366 1.00215 1.00465 0.996874
1.00841 1.00324 1.00712 0.998043
1.00319 1.00397 1.00194 0.997293
1.00391 1.00612 1.00227 0.995554
1.02837 1.03186 1.00129 0.995337
1.01135 1.01183 1.00258 0.996948
1.00789 1.01049 1.00138 0.996057
1.01657 1.00029 1.019 0.997318
1.01005 1.00487 1.00771 0.997474
1.00231 1.00386 1.00059 0.997871
1.01423 1.00019 1.0163 0.997779
1.02348 1 1.02586 0.99768
1.01474 1 1.01692 0.997853
1.01601 0.999954 1.01815 0.997946
1.00835 1.00019 1.01005 0.998128
1.00454 1 1.00567 0.998873
1.00591 1 1.00756 0.998369
1.00212 1 1.00304 0.999078
0.9999 1 1 0.9999
1.00022 1 1.00102 0.999194
0.999926 1 1 0.999926
1 1 1 1
0.999952 1 1 0.999952
1 1 1 1
1 1 1 1
1.00039 1 1.00217 0.998223
0.999372 1 1.00001 0.999365
0.999226 1 1.00063 0.998601
0.999995 1 1 0.999995
0.999604 1 1 0.999604
0.998792 1 1 0.998792
1 1 1 1
0.999999 1 1 0.999999
0.999782 1 1 0.999782
1 1 1 1
1 1 1 1
1 1 1 1
0.661298 0.84846 0.874289 0.891479
0.550529 0.716328 0.867613 0.885813
0.634522 0.786999 0.881041 0.915117
1.00092 1 1.00316 0.997766
0.630864 0.824232 0.860208 0.889779
0.621276 0.822124 0.857566 0.88121
0.546673 0.734128 0.846914 0.879258
0.910118 0.991363 0.931606 0.985446
0.802545 0.931226 0.898281 0.959405
0.577145 0.756334 0.838548 0.910004
0.538869 0.740638 0.833009 0.873428
0.849455 0.950298 0.913508 0.978516
0.760011 0.879704 0.90243 0.957348
0.632224 0.776221 0.89636 0.908664
0.632442 0.846762 0.852273 0.876355
0.791711 0.896373 0.907076 0.97372
0.754081 0.84692 0.934218 0.953076
0.740663 0.858119 0.945194 0.913171
0.68803 0.898508 0.863753 0.886535
1.00267 1 1.005 0.997674
1.0055 1 1.00783 0.997692
1.001 1 1.00272 0.998292
0.999619 1 1.00195 0.997676
1.00051 1 1.00298 0.997543
0.999988 1 1.00194 0.998049
1.00072 1 1.00286 0.997863
0.999878 1 1.00191 0.997974
0.9415 1.00234 0.941981 0.99716
0.969661 1.00115 0.970375 0.99812
1.00934 1 1.01182 0.997543
0.999915 0.994879 1.007 0.998079
1.0283 0.996332 1.03437 0.997793
1.02157 0.999977 1.02403 0.99762
1.01511 0.99968 1.01768 0.997801
0.938191 0.967157 0.972627 0.997351
1.03067 0.996751 1.0361 0.998003
1.03428 0.986367 1.05023 0.998422
0.958556 0.958137 1.00117 0.999267
1.01877 0.99883 1.02194 0.998065
0.921176 0.929282 0.994763 0.996496
0.984179 0.953155 1.03309 0.999476
1.0715 0.990762 1.08307 0.998536
1.06277 0.995352 1.06965 0.998211
0.637745 0.811103 0.873336 0.900305
0.656062 0.835494 0.875951 0.896441
0.561164 0.733655 0.86239 0.88694
0.999784 0.993227 1.00729 0.999322
0.974227 0.955268 1.02061 0.999248
0.654268 0.832414 0.877775 0.895433
0.765995 0.840134 0.952951 0.956769
0.859975 0.908624 0.965652 0.980124
0.720074 0.843032 0.939077 0.90956
0.63065 0.826368 0.860887 0.88648
0.678516 0.894669 0.857516 0.884413
0.997433 0.963495 1.03557 0.999669
0.641456 0.819728 0.873489 0.895859
0.687922 0.879459 0.874833 0.894126
0.937088 0.923109 1.0165 0.998661
0.630532 0.845279 0.851116 0.876432
0.812301 0.871145 0.978397 0.95304
0.791658 0.91338 0.945062 0.917119
0.991389 0.953502 1.04015 0.999602
0.686261 0.863054 0.881582 0.901962
0.633668 0.823402 0.864083 0.890624
0.560627 0.769444 0.834583 0.873027
0.734842 0.85281 0.944338 0.912461
0.921208 0.922527 1.00865 0.990005
0.859968 0.901739 1.00714 0.946915
1.02838 0.992787 1.0367 0.999188
1.03429 0.969277 1.06757 0.999534
1.01569 0.947298 1.07264 0.999581
1.01914 0.998778 1.02235 0.998079
1.04731 0.992537 1.05615 0.999091
1.0576 0.983424 1.07608 0.999396
1.02596 0.99139 1.03587 0.999045
1.02859 0.970862 1.06 0.999488
0.986657 0.967149 1.02095 0.999234
1.02208 0.992482 1.03095 0.998903
1.03127 0.997845 1.03527 0.998285
1.01904 0.9989 1.02142 0.998772
1.00231 0.998515 1.00586 0.997954
1.00833 0.998154 1.01119 0.999021
0.997683 1.00215 0.998396 0.997138
1.00795 1.0037 1.00945 0.994834
1.0093 1.01189 1.00283 0.994618
1.00386 1.00611 1.00061 0.997156
1.004 1.00667 1.00205 0.995307
1.02564 1.02988 1.00053 0.995356
1.02367 1.02501 1.00261 0.996086
1.0248 1.02819 1.00125 0.995453
1.01343 1.00617 1.01014 0.997109
1.0153 1.01512 1.00328 0.996903
1.00359 1.0062 1.00128 0.996125
1.02164 1 1.02407 0.997631
1.01634 1.0005 1.01852 0.997351
1.01043 1.00503 1.00789 0.997502
1.02213 1 1.02449 0.997697
1.014 1.0001 1.01608 0.997855
1.0103 1 1.01172 0.998594
1.00868 1.0002 1.01038 0.998125
1.0051 1 1.00624 0.998867
0.999931 1 1.00009 0.999841
1.00334 1 1.00427 0.999074
0.999891 1 1 0.999891
1 1 1 1
0.999916 1 1 0.999916
1 1 1 1
1 1 1 1
1.00111 1 1.00298 0.998128
1.00066 1 1.00157 0.999095
1.00072 1 1.00242 0.998295
0.99998 1 1 0.99998
0.999336 1 1 0.999336
0.999283 1 1.00068 0.998599
1 1 1 1
0.999996 1 1 0.999996
0.999531 1 1 0.999531
1 1 1 1
1 1 1 1
1 1 1 1
0.644183 0.819665 0.873437 0.899789
0.660013 0.845583 0.87549 0.891548
0.552065 0.714604 0.872175 0.88577
1.00116 1 1.00336 0.997812
1.0073 1 1.00962 0.997694
0.999897 1 1.00204 0.997866
0.688367 0.883723 0.873783 0.891457
0.630679 0.827242 0.856441 0.89018
0.618752 0.823408 0.852878 0.881078
0.852187 0.954933 0.909885 0.980789
0.730997 0.873068 0.881015 0.950352
0.644704 0.76633 0.914918 0.919523
0.634668 0.854437 0.8508 0.87305
0.798196 0.900311 0.907353 0.977104
0.768143 0.857392 0.940671 0.952411
0.734593 0.853782 0.941133 0.914217
0.681891 0.895179 0.860368 0.885362
0.817945 0.893913 0.939242 0.974206
0.81087 0.873879 0.972019 0.954608
0.797564 0.920765 0.943539 0.91803
0.643994 0.858674 0.854998 0.877179
0.999635 0.999601 1.00209 0.997953
1.00206 1 1.00444 0.997631
1.00496 1 1.00731 0.997674
0.99938 1 1.00173 0.997655
1.00069 1 1.00307 0.997621
1.00025 1 1.0024 0.997862
0.933708 0.959732 0.975267 0.997556
0.960878 0.957866 1.00386 0.999284
1.01371 0.999955 1.01601 0.997778
1.03044 0.994742 1.03748 0.998466
1.02643 0.998245 1.03029 0.998
1.0175 0.998055 1.02144 0.998083
1.04336 0.989148 1.05666 0.998248
0.922273 0.926609 0.998701 0.996615
1.06478 0.985577 1.0818 0.998678
0.984696 0.941038 1.04721 0.999221
1.03061 0.986146 1.04674 0.998418
0.939444 0.923203 1.02165 0.996028
1.00838 0.953126 1.05903 0.998998
1.02822 0.957365 1.07531 0.998792
0.706148 0.878445 0.890718 0.902487
0.644217 0.815518 0.877143 0.900593
0.653667 0.834434 0.874994 0.895282
1.00765 0.975965 1.03285 0.999627
0.925275 0.922337 1.00672 0.99649
0.641346 0.819719 0.873284 0.895925
0.808602 0.856617 0.98579 0.957554
0.782888 0.917401 0.936832 0.910917
0.690558 0.881685 0.874013 0.896125
0.634184 0.853353 0.850981 0.873306
0.983942 0.946547 1.03981 0.99971
0.682738 0.85689 0.88264 0.902704
0.637188 0.832738 0.858709 0.891073
0.91646 0.918228 1.01339 0.984883
0.54738 0.758191 0.831146 0.868626
0.735023 0.852498 0.944334 0.913023
0.849694 0.898445 0.989376 0.955894
1.00412 0.941708 1.06887 0.997577
0.646899 0.819265 0.87689 0.900466
0.631288 0.829638 0.862637 0.882086
0.476065 0.654647 0.827054 0.879275
0.631482 0.785984 0.886111 0.90669
0.819767 0.870518 0.987023 0.954082
0.880646 0.900734 0.996999 0.98064
1.02855 0.965416 1.06593 0.999501
1.02679 0.962443 1.06732 0.999571
0.996279 0.955292 1.04351 0.999421
1.02196 0.992669 1.03051 0.999032
1.02358 0.971672 1.05396 0.999487
0.991226 0.964515 1.0284 0.999318
1.01184 0.992664 1.0206 0.99874
1.0269 0.998727 1.0295 0.998739
0.999493 1.00041 1.00147 0.997614
1.03144 1.00153 1.03456 0.995452
0.991224 1.00121 0.992598 0.997412
1.00925 1.00336 1.011 0.99492
1.00845 1.00467 1.00985 0.993975
1.01795 1.02183 1.00191 0.994306
1.01696 1.02095 1.00108 0.995014
1.00938 1.01175 1.00312 0.994558
1.00399 1.00728 1.00169 0.995062
1.01743 1.02073 1.0011 0.995675
1.02833 1.03253 1.00048 0.995453
1.01395 1.01243 1.00504 0.996475
1.02483 1.02596 1.00274 0.996179
1.02265 1.026 1.00117 0.995571
1.02117 1.00342 1.02036 0.997388
1.01487 1.00732 1.01043 0.997093
1.01885 1.01809 1.0039 0.996854
1.01872 1.00032 1.02011 0.998321
1.02052 1 1.02294 0.997629
1.01699 1.00092 1.01872 0.997384
1.01454 1.00038 1.01634 0.997858
1.00958 1 1.011 0.998591
1.00084 1 1.00111 0.999731
1.00474 1 1.00589 0.998859
1.00006 1 1.00023 0.999828
1 1 1 1
0.999882 1 1 0.999882
1 1 1 1
1 1 1 1
1.00179 1 1.00375 0.998044
1.00157 1 1.00255 0.999016
1.00203 1 1.00389 0.998155
0.999947 1 1 0.999947
1.00009 1 1.00094 0.999151
1.00074 1 1.00238 0.998368
1 1 1 1
0.999985 1 1 0.999985
0.999307 1 1 0.999307
1 1 1 1
0.999998 1 1 0.999998
1 1 1 1
0.683117 0.860482 0.881009 0.9011
0.651601 0.821631 0.881305 0.899867
0.662111 0.845726 0.878027 0.891647
1.02466 1 1.02716 0.997559
1.00788 1.00134 1.00885 0.997705
1.00144 1 1.00359 0.997859
1.00698 1 1.00933 0.997668
1.00001 1 1.00211 0.997905
1.00678 1 1.00896 0.997838
0.99691 0.998771 1 0.998137
0.644122 0.844348 0.86098 0.886041
0.691021 0.881935 0.876929 0.893491
0.638302 0.826876 0.866791 0.890577
0.679572 0.894611 0.859141 0.884172
0.802637 0.90802 0.907453 0.974091
0.777124 0.857458 0.952651 0.951358
0.740177 0.868547 0.927358 0.918955
0.806056 0.897582 0.922977 0.972972
0.815421 0.867566 0.992312 0.947177
0.791161 0.911048 0.946217 0.917768
0.637308 0.852329 0.847162 0.882623
0.856123 0.899715 0.974274 0.976675
0.837954 0.883151 1.0019 0.947023
0.718907 0.854803 0.925751 0.908473
0.558106 0.772656 0.829346 0.870954
1.05264 0.997161 1.05736 0.998375
1.00249 0.999387 1.00513 0.997989
1.00335 1 1.00577 0.997588
0.99995 1 1.00232 0.997635
0.930361 0.92953 1.00416 0.996746
0.984385 0.933088 1.05607 0.998961
1.01678 0.997555 1.02121 0.998101
1.03384 0.989996 1.04608 0.998285
1.04603 0.968205 1.08166 0.998821
1.03272 0.992354 1.04233 0.99842
1.03875 0.957618 1.08605 0.998779
0.940679 0.923856 1.02439 0.993969
1.01049 0.946349 1.06866 0.999172
1.0133 0.965947 1.05017 0.998906
0.933923 0.912592 1.03102 0.992586
0.981726 0.928762 1.05785 0.999223
0.645003 0.812655 0.880777 0.901134
0.700627 0.871291 0.888224 0.905318
0.653271 0.820144 0.884181 0.90087
0.973182 0.934291 1.04183 0.999805
0.92466 0.922515 1.01185 0.990587
0.677533 0.849857 0.882421 0.903459
0.867038 0.909485 1.00556 0.948054
0.736573 0.863496 0.929252 0.917957
0.644594 0.833159 0.86788 0.891454
0.536058 0.734393 0.835639 0.873503
1.00358 0.943094 1.06638 0.997895
0.652985 0.825457 0.878399 0.900569
0.625603 0.820853 0.864183 0.881917
0.883915 0.900987 0.997356 0.983653
0.490275 0.678731 0.827189 0.873247
0.622179 0.765033 0.895919 0.907749
0.819064 0.873513 0.989042 0.948056
0.986031 0.942905 1.05101 0.994982
0.668566 0.856828 0.874879 0.891871
0.526526 0.700784 0.858968 0.874698
0.571493 0.743485 0.834998 0.920564
0.758979 0.835195 0.951837 0.954727
0.83064 0.874825 0.973465 0.975374
1.03368 0.967758 1.06855 0.99959
1.00176 0.95408 1.05057 0.999437
0.982593 0.964227 1.01989 0.999174
0.995932 0.961654 1.03626 0.999402
1.01283 0.979889 1.03479 0.998863
1.02211 1.0008 1.02381 0.997543
0.996138 1.00227 0.996596 0.997277
1.03116 1.00177 1.03426 0.995244
1.01805 1.00343 1.02039 0.994292
1.01073 1.00322 1.01255 0.995007
1.00987 1.00498 1.01105 0.993877
1.00658 1.00829 1.00448 0.993853
1.05561 1.06193 0.999329 0.994714
1.03311 1.03783 1.00077 0.994689
1.01787 1.02153 1.00218 0.994249
1.01897 1.02362 1.00013 0.99533
1.01469 1.01895 1.00074 0.995079
1.00943 1.0114 1.00357 0.994498
1.02239 1.02476 1.00203 0.995671
1.01794 1.02128 1.00108 0.99565
1.0299 1.03406 1.00043 0.995551
1.01346 1.00705 1.00947 0.996918
1.01397 1.01116 1.00618 0.996612
1.02569 1.02656 1.00289 0.996272
1.0192 1.00316 1.01801 0.998013
1.01963 1.00445 1.01777 0.997394
1.0153 1.00849 1.00971 0.997076
1.00444 1 1.00485 0.999593
1.01737 1.00051 1.01856 0.998322
1.01831 1 1.02073 0.997627
1.00836 1 1.00979 0.998588
1.00174 1 1.00202 0.999718
1 1 1 1
1.00015 1 1.00033 0.999815
1 1 1 1
1 1 1 1
1.01787 1.00058 1.01975 0.997578
1.01262 1.00013 1.01471 0.997801
1.00183 1 1.00305 0.99878
1.00344 1 1.00541 0.998039
0.9999 1 1 0.9999
1.00143 1 1.00241 0.999018
1.00371 1 1.00554 0.998182
1 1 1 1
0.999957 1 1 0.999957
0.999746 1 1.00054 0.999206
1 1 1 1
0.99999 1 1 0.99999
1 1 1 1
0.647199 0.822061 0.878461 0.896213
0.676773 0.854882 0.877785 0.90188
0.651117 0.825191 0.876784 0.899936
1.02607 1 1.0286 0.997544
1.01139 1.00093 1.01274 0.99774
0.998303 1.00131 0.999538 0.997456
1.02814 0.99993 1.03056 0.997724
1.00951 1.00324 1.00847 0.997799
1.00905 1 1.01143 0.997642
1.00004 0.999931 1.00218 0.997942
1.00798 0.999595 1.01057 0.997844
0.998319 0.999797 1.00032 0.998202
1.0281 0.999337 1.03061 0.998227
0.606619 0.80816 0.850828 0.88222
0.640391 0.835859 0.864203 0.886536
0.688243 0.880986 0.872358 0.895526
0.633649 0.849977 0.843945 0.88334
0.785731 0.914939 0.942271 0.911393
0.800758 0.890432 0.926024 0.971132
0.815837 0.866122 0.987549 0.953818
0.84659 0.903964 0.963348 0.972161
0.841311 0.897356 0.982661 0.954088
0.735567 0.852157 0.945236 0.913192
0.566169 0.786654 0.827854 0.869377
0.873503 0.901575 0.993649 0.975055
0.820198 0.859528 0.999266 0.954942
0.626476 0.756697 0.900066 0.919831
0.511631 0.69058 0.842393 0.879484
1.041 0.998589 1.04359 0.998928
1.0535 0.996148 1.05928 0.998382
1.0078 1 1.00979 0.998028
0.938083 0.922259 1.02559 0.991776
1.01363 0.94376 1.07479 0.999299
1.03313 0.995531 1.03941 0.998422
1.05195 0.955303 1.10253 0.998767
1.01892 0.971997 1.04942 0.998912
0.987035 0.93772 1.05338 0.999247
0.929763 0.909988 1.02931 0.992638
1.00414 0.978496 1.02688 0.999346
0.949358 0.935607 1.02062 0.994199
0.667359 0.844323 0.880852 0.897321
0.65691 0.822733 0.885809 0.901378
0.693545 0.864573 0.883247 0.908219
1.00752 0.954674 1.05734 0.998129
0.879206 0.902621 0.995713 0.978252
0.663129 0.8347 0.882079 0.900659
0.822865 0.87329 0.990648 0.951153
0.630254 0.753478 0.910876 0.918301
0.61623 0.819016 0.853188 0.881872
0.503451 0.705308 0.823155 0.867156
0.982654 0.941189 1.04891 0.99537
0.6649 0.849535 0.877563 0.891859
0.526645 0.706587 0.853341 0.873433
0.844611 0.890241 0.970767 0.977314
0.586593 0.751241 0.850271 0.918333
0.751997 0.848022 0.933109 0.950334
0.924841 0.922472 1.00963 0.993004
0.538234 0.711944 0.859542 0.879545
0.608886 0.772031 0.854926 0.922513
0.734384 0.864992 0.893422 0.950287
0.800782 0.882982 0.927108 0.978209
1.00683 0.95581 1.05395 0.999457
0.984887 0.953821 1.03346 0.999142
0.997884 0.986622 1.01306 0.998379
1.01365 0.965476 1.05097 0.998979
1.01411 0.998937 1.01759 0.997642
0.990961 1.00447 0.990127 0.996386
1.03045 1.00172 1.03382 0.99503
1.01676 1.00481 1.0177 0.994284
1.00387 1.00839 1.00065 0.994869
1.01085 1.00524 1.01187 0.99378
1.00573 1.00818 1.0037 0.993895
1.04279 1.05397 0.99437 0.995
1.07659 1.09123 0.990937 0.995603
1.07007 1.07563 1.00002 0.994817
1.05623 1.06295 0.998925 0.994749
1.04423 1.04949 1 0.994991
1.03161 1.03607 1.00107 0.994627
1.01822 1.02168 1.00244 0.994192
1.03902 1.04364 1.0002 0.995375
1.0167 1.02138 1.00002 0.995397
1.01224 1.01685 1.00032 0.995144
1.02277 1.01901 1.00755 0.996167
1.0189 1.02012 1.00305 0.995762
1.01926 1.02262 1.0011 0.995624
1.02095 1.00491 1.01842 0.997573
1.01791 1.00881 1.01214 0.996912
1.0147 1.01078 1.00716 0.996747
1.00701 1 1.00756 0.999451
1.02123 1.00437 1.01881 0.998014
1.01932 1.00539 1.01649 0.9974
0.999886 1 1 0.999886
1.00609 1 1.00652 0.999575
1.01735 1.00064 1.0184 0.998323
1.00303 1 1.00333 0.999703
1 1 1 1
1 1 1 1
1.01113 1.00353 1.01022 0.997379
1.01804 1.00052 1.02 0.997565
1.02054 1.00035 1.02268 0.997553
1.00596 1 1.00743 0.998539
1.01071 1.00026 1.01268 0.997796
1.00039 1 1.00055 0.999842
1.00285 1 1.00407 0.998784
1.0045 1 1.00648 0.998033
1 1 1 1
0.999914 1 1 0.999914
1.00081 1 1.0018 0.999019
1 1 1 1
0.999968 1 1 0.999968
1 1 1 1
0.652197 0.829959 0.876228 0.896821
0.651104 0.826578 0.878842 0.896305
0.677334 0.846323 0.886665 0.902626
1.01081 1.00448 1.00919 0.997144
1.0235 1 1.02603 0.99753
1.0089 1 1.01114 0.997778
1.02263 1 1.02505 0.997646
1.00154 1.00381 1.00027 0.997474
1.00312 1.00131 1.00379 0.998026
1.01735 1.00338 1.01703 0.996945
1.02147 0.991379 1.03235 0.998071
1.00789 0.999197 1.01087 0.997852
0.998267 1 1 0.998267
1.02979 0.997419 1.03431 0.998212
1.04778 1.00075 1.04859 0.998473
0.547661 0.717745 0.868168 0.878897
0.624602 0.826803 0.856736 0.881768
0.639879 0.831976 0.867169 0.886918
0.576209 0.791567 0.829967 0.877066
0.724051 0.844911 0.940258 0.911405
0.842614 0.889163 1.00051 0.947164
0.852801 0.904338 0.969174 0.973006
0.869449 0.898108 0.990372 0.977501
0.508374 0.696042 0.836285 0.87336
0.812972 0.866846 0.988035 0.949209
0.626848 0.764454 0.899853 0.911255
0.868798 0.905474 0.978984 0.980093
0.77735 0.854399 0.950542 0.95716
0.572356 0.741186 0.839857 0.91946
0.984979 1.001 0.984436 0.999553
1.04358 0.998983 1.04576 0.998934
1.05195 0.994932 1.05902 0.998386
0.934758 0.914543 1.02962 0.992695
0.994984 0.950199 1.04789 0.999273
1.02778 0.982407 1.04731 0.998919
1.00054 0.975366 1.02647 0.999356
0.946246 0.936223 1.01653 0.994269
0.970134 0.970711 1.00301 0.996411
0.569514 0.730469 0.879212 0.886766
0.663601 0.841027 0.877443 0.899244
0.662467 0.831245 0.883991 0.901544
0.980859 0.938181 1.05013 0.995583
0.839024 0.887188 0.966768 0.97822
0.659767 0.84027 0.880248 0.892003
0.769478 0.847289 0.955801 0.950161
0.577524 0.75696 0.837827 0.910632
0.548239 0.731072 0.852248 0.879921
0.92471 0.916492 1.01605 0.993028
0.552109 0.715746 0.87032 0.886312
0.589717 0.764016 0.844752 0.913718
0.799892 0.890813 0.922375 0.973503
0.763139 0.886497 0.899177 0.957373
0.918934 0.94157 0.979107 0.996785
0.636185 0.785425 0.889353 0.910761
0.830112 0.954018 0.906116 0.960277
0.792082 0.904121 0.900339 0.973055
0.988525 0.946506 1.04532 0.999117
0.983719 0.985634 0.999602 0.998454
0.98635 1.00025 0.98881 0.997265
1.00582 0.997559 1.01057 0.997743
0.993291 1.00437 0.992598 0.996339
0.993899 1.01045 0.987366 0.996207
1.01631 1.00672 1.01534 0.994277
1.00372 1.00819 1.00071 0.994863
1.03466 1.05419 0.98536 0.996053
1.00525 1.00817 1.00319 0.993938
1.04169 1.05312 0.994114 0.995005
1.0708 1.09321 0.983151 0.996282
1.06656 1.08734 0.984402 0.996428
1.08036 1.09118 0.994549 0.995514
1.07886 1.09332 0.991081 0.995654
1.07789 1.08325 1 0.995054
1.06772 1.07323 0.999969 0.994901
1.0559 1.06303 0.998502 0.994784
1.06416 1.06928 1 0.995212
1.04438 1.04947 1.00014 0.995007
1.02973 1.03383 1.00148 0.994564
1.04484 1.04683 1.00249 0.99561
1.03628 1.04077 1.00032 0.99537
1.01477 1.01939 1 0.995463
1.01634 1.00906 1.01021 0.99704
1.02588 1.02212 1.00755 0.996156
1.01416 1.01406 1.00426 0.995854
1.00613 1.00005 1.00697 0.999118
1.02005 1.00721 1.01522 0.997564
1.02061 1.01044 1.01321 0.996904
1 1 1 1
1.00668 1.00003 1.00733 0.99933
1.02226 1.00557 1.01862 0.998013
1 1 1 1
1.00718 1 1.00765 0.999534
1 1 1 1
1.01103 1.00949 1.00451 0.997024
1.00944 1.00336 1.00876 0.99732
1.01838 1.00241 1.01857 0.997399
1.01297 1 1.01467 0.998318
1.02045 1.00045 1.02248 0.997562
1.02606 1 1.0286 0.997528
1.00207 1 1.00232 0.999753
1.0056 1 1.00707 0.998545
1.00888 1 1.01111 0.99779
1 1 1 1
1.00034 1 1.00048 0.999855
1.00367 1 1.00489 0.998788
1 1 1 1
0.999927 1 1 0.999927
1 1 1 1
0.55031 0.721399 0.869009 0.877823
0.656689 0.836556 0.875204 0.896923
0.655157 0.831993 0.878442 0.896422
1.01737 1.00327 1.01698 0.997118
1.03191 1.01347 1.0216 0.996673
1.03418 1.00253 1.03463 0.997042
1.02328 1 1.02578 0.997566
1.00446 1.00716 0.999833 0.997493
1.0002 0.999015 1.00294 0.998246
1.02332 0.996666 1.02884 0.997963
1.01949 1.00333 1.01902 0.997147
1.01968 0.998842 1.02354 0.997391
0.97119 0.999872 0.972323 0.998962
1.0312 0.998704 1.0344 0.998196
1.0425 0.999285 1.04488 0.998436
0.597781 0.765049 0.85917 0.909439
0.519207 0.688581 0.862335 0.874399
0.638184 0.839124 0.862584 0.881694
0.504888 0.702573 0.828873 0.866994
0.636456 0.774404 0.893534 0.919792
0.801223 0.861654 0.978256 0.950534
0.863648 0.890862 0.995094 0.974232
0.854247 0.896475 0.975467 0.976861
0.591901 0.752324 0.857472 0.917539
0.758591 0.851622 0.937042 0.950609
0.832287 0.904615 0.939435 0.979361
0.736498 0.890806 0.868969 0.951446
0.992676 1 0.993579 0.999091
0.985315 1.0008 0.985028 0.99949
1.04445 0.997995 1.04766 0.998939
0.934031 0.928013 1.01219 0.994365
0.993833 0.969175 1.02609 0.999365
0.972853 0.974162 1.00229 0.996373
0.951985 0.982903 0.973419 0.994993
0.666558 0.79802 0.908305 0.919587
0.56371 0.729963 0.871388 0.886224
0.667261 0.842757 0.878722 0.901036
0.927554 0.924732 1.00983 0.99329
0.804325 0.890703 0.927228 0.973895
0.55352 0.715087 0.873496 0.886163
0.733751 0.8794 0.877485 0.950874
0.601628 0.7562 0.862624 0.922296
0.916343 0.945006 0.974552 0.99499
0.650719 0.79587 0.891883 0.916735
0.799813 0.940201 0.893542 0.952034
0.795879 0.90275 0.903171 0.976134
0.919788 0.969385 0.952313 0.99635
0.865515 0.973695 0.926535 0.959378
0.85062 0.953381 0.909993 0.980463
0.969004 0.982732 0.987507 0.998506
0.981601 1.00035 0.983985 0.997224
0.971498 1.00912 0.965625 0.996989
0.995323 1.00395 0.995094 0.996295
0.993317 1.00972 0.987518 0.996193
1.01253 1.05678 0.96113 0.996874
1.00306 1.00762 1.00062 0.994859
1.03084 1.0519 0.983888 0.996022
1.04889 1.09141 0.964031 0.996902
1.04098 1.05265 0.993879 0.995009
1.06944 1.09281 0.98228 0.996268
1.05719 1.08811 0.974582 0.996922
1.06517 1.0879 0.982247 0.996809
1.06627 1.08768 0.983758 0.996505
1.06967 1.08496 0.989591 0.996277
1.08441 1.09216 0.997309 0.995582
1.08147 1.09146 0.995279 0.99555
1.08175 1.09604 0.991217 0.995706
1.08362 1.08881 1 0.995236
1.07913 1.0845 0.999972 0.995078
1.06595 1.07138 0.999944 0.994985
1.06511 1.07004 1 0.995388
1.06611 1.07124 1 0.99521
1.04459 1.04964 1.00017 0.995023
1.01845 1.01986 1.00211 0.996517
1.04508 1.04779 1.00181 0.99562
1.03336 1.03773 1.00043 0.995366
1.00534 1.00025 1.00638 0.998726
1.01881 1.01198 1.00975 0.997032
1.03058 1.02651 1.00785 0.996146
1 1 1 1
1.00624 1 1.00716 0.999094
1.02063 1.00948 1.01353 0.997555
0.99991 1 1 0.99991
1.00704 1 1.00771 0.999331
1 1 1 1
1.02245 1.01704 1.00871 0.996639
1.00972 1.00488 1.0078 0.997033
1.01103 1.00488 1.00893 0.997215
1.00736 1.00345 1.00665 0.99726
1.01691 1.00156 1.01797 0.997405
1.0186 1 1.02056 0.998086
1.00382 1 1.0042 0.999618
1.01196 1 1.01367 0.998317
1.02038 1 1.02287 0.99756
1 1 1 1
1.00101 1 1.00124 0.99977
1.00499 1 1.00645 0.998551
1 1 1 1
0.999873 1 1 0.999871
1 1 1 1
0.636932 0.787718 0.882153 0.916597
0.552854 0.722288 0.869492 0.880307
0.658181 0.839876 0.873592 0.897059
1.02211 1.00185 1.0232 0.997093
1.04192 1.00195 1.04329 0.996746
1.02578 1.01179 1.01719 0.996698
1.01823 1.02012 1.00242 0.995737
1.0315 1.00418 1.03004 0.997251
1.0207 0.999899 1.02299 0.997862
1.02016 1.00329 1.01952 0.997348
1.02039 1.00078 1.02213 0.997517
0.996957 1.00928 0.990709 0.997055
0.962348 1.00159 0.962326 0.998431
0.969278 1.00096 0.970651 0.997629
0.977856 1.00098 0.977892 0.998983
1.03674 0.99842 1.04005 0.998402
0.803965 0.938656 0.894805 0.957199
0.593643 0.762644 0.85333 0.912193
0.50673 0.675437 0.855279 0.87717
0.58633 0.759996 0.84767 0.910131
0.763363 0.854039 0.937384 0.953533
0.864098 0.897658 0.982151 0.980108
0.828466 0.900221 0.937448 0.9817
0.768757 0.889894 0.900846 0.958959
0.84325 0.95004 0.905161 0.980592
0.986634 1.00048 0.987893 0.998245
0.994562 0.999418 0.996075 0.999062
0.985747 1.00037 0.985943 0.999428
0.978166 0.979553 1.00218 0.996413
0.961357 0.986347 0.978726 0.99585
0.858318 0.963999 0.93253 0.954793
0.660767 0.795384 0.901831 0.921184
0.556432 0.726934 0.864181 0.885753
0.919981 0.954036 0.971042 0.993061
0.799715 0.913379 0.899507 0.973374
0.638761 0.78953 0.883654 0.915562
0.807112 0.93709 0.897706 0.959441
0.929543 0.971364 0.96034 0.996465
0.871477 0.98023 0.926932 0.959136
0.847495 0.950119 0.912834 0.977163
0.924689 0.998826 0.929742 0.995734
0.895424 0.986803 0.919812 0.986504
0.979302 1.00219 0.979891 0.997214
0.965254 1.00906 0.95952 0.996947
0.970159 1.04468 0.931193 0.997284
0.99242 1.00905 0.987294 0.996178
1.01636 1.05894 0.962844 0.996836
1.0373 1.09537 0.94962 0.997225
1.02711 1.0496 0.982516 0.995992
1.04903 1.09092 0.964614 0.996873
1.04744 1.09114 0.962709 0.997139
1.06755 1.09188 0.981388 0.996255
1.05683 1.08742 0.974894 0.996899
1.0611 1.09278 0.973938 0.996992
1.06288 1.08654 0.981298 0.996866
1.0667 1.08796 0.983783 0.996617
1.06571 1.08766 0.98318 0.996583
1.06881 1.08475 0.988991 0.99627
1.07186 1.08287 0.993779 0.996032
1.08485 1.09059 0.999216 0.995516
1.08524 1.09245 0.997817 0.99557
1.08244 1.09159 0.996009 0.995587
1.07745 1.08252 1 0.995317
1.08597 1.09119 1 0.995223
1.08018 1.08556 0.999939 0.995102
1.03285 1.03546 1.00137 0.996122
1.06411 1.06903 1 0.995396
1.06833 1.07348 1 0.995208
1.00283 1.00132 1.00323 0.998285
1.021 1.02212 1.0024 0.996523
1.04543 1.0483 1.00163 0.99563
1 1 1 1
1.00481 1.0004 1.00573 0.998697
1.02003 1.01466 1.0083 0.997025
1 1 1 1
1.00575 1 1.00668 0.999071
1 1 1 1
1.03084 1.03435 1.00086 0.995751
1.02101 1.01942 1.00495 0.996632
1.01443 1.0082 1.00943 0.996772
1.00915 1.00054 1.01159 0.997043
1.01101 1.00309 1.01076 0.997161
1.01781 1.00321 1.01685 0.997737
1.01879 1.00115 1.02027 0.99741
1.02003 1.00003 1.02197 0.998078
1.00849 1 1.00909 0.999406
1 1 1 1
1.00383 1 1.0042 0.999632
1.01352 1 1.01523 0.998316
1 1 1 1
1.00113 1 1.00135 0.999783
1 1 1 1
0.862467 0.970904 0.923843 0.961541
0.652479 0.797959 0.891064 0.91765
0.546316 0.720001 0.865222 0.876967
1.0521 1.00153 1.05423 0.996448
1.02016 1.01165 1.01173 0.996723
1.02801 1.00587 1.02502 0.997058
1.01726 1.01923 1.00224 0.995832
1.04079 1.04527 1.00016 0.995559
1.00263 1.01369 0.992358 0.996712
1.02419 1.0033 1.02324 0.997637
0.998101 1.01058 0.990809 0.996817
0.970602 1.0022 0.970012 0.998411
0.999973 1.00763 0.995341 0.997045
0.972892 1.00362 0.971791 0.997521
0.990189 1.00171 0.991381 0.997088
0.967941 1.00118 0.969003 0.997731
0.984734 1.0001 0.985621 0.999004
0.854387 0.961898 0.905937 0.980454
0.806679 0.946136 0.891846 0.955999
0.610252 0.762476 0.868963 0.921046
0.738959 0.87772 0.885605 0.950657
0.840312 0.90252 0.947284 0.982887
0.850534 0.938558 0.919466 0.985587
0.949128 1.00336 0.949688 0.996067
0.983239 0.99994 0.985134 0.998136
0.996105 0.998692 0.998374 0.999035
0.969119 0.989404 0.98275 0.99669
0.884672 0.973307 0.926383 0.981166
0.866084 0.969711 0.927632 0.962813
0.650467 0.789487 0.902322 0.9131
0.928043 0.966701 0.963277 0.996609
0.846392 0.950593 0.909462 0.979023
0.866002 0.981835 0.920092 0.958626
0.924516 0.997112 0.931013 0.995898
0.899931 0.984356 0.92777 0.98541
0.940416 1.0256 0.920319 0.99633
0.94916 1.02596 0.930239 0.99452
0.958783 1.00905 0.953137 0.996898
0.967543 1.04134 0.931658 0.997289
1.00621 1.08977 0.925917 0.997198
1.02084 1.06159 0.964698 0.996799
1.03721 1.09495 0.949929 0.997199
1.05638 1.10161 0.961743 0.997088
1.04933 1.09072 0.965099 0.996843
1.04879 1.09102 0.964077 0.997119
1.06753 1.10196 0.971721 0.996947
1.05667 1.08701 0.97514 0.996877
1.05976 1.09067 0.974596 0.996987
1.06767 1.09395 0.979188 0.996721
1.06074 1.08541 0.980286 0.996923
1.0662 1.0878 0.983425 0.996663
1.07141 1.08687 0.989438 0.996291
1.06801 1.08463 0.988379 0.996262
1.07232 1.08345 0.993686 0.996022
1.07899 1.08638 0.997372 0.995812
1.07886 1.08382 1 0.995427
1.08585 1.09137 0.999459 0.995477
1.08605 1.09268 0.998368 0.995557
1.04933 1.05361 1 0.995943
1.0759 1.08096 1 0.995325
1.08848 1.09371 1 0.995209
1.00511 1.00593 1.00121 0.997984
1.0325 1.03487 1.00159 0.996123
1.06196 1.06685 1.00001 0.995404
1 1 1 1
1.00332 1.00252 1.00254 0.998258
1.0235 1.02427 1.00273 0.99653
1 1 1 1
1.00457 1.00051 1.0054 0.998669
1 1 1 1
1.05414 1.05894 1 0.995468
1.03101 1.03488 1.00049 0.995771
1.03308 1.03393 1.00313 0.996064
1.02022 1.02106 1.00256 0.996625
1.01705 1.0127 1.00763 0.996691
1.019 1.01296 1.00871 0.997278
1.00975 1.00028 1.01239 0.997108
1.01619 1.00214 1.01631 0.997741
1.00777 1 1.00864 0.999131
1.01793 1 1.01989 0.998072
1.00644 1 1.00703 0.999418
1 1 1 1
1 1 1 1
1.00236 1 1.00271 0.999648
1 1 1 1
0.879792 0.962722 0.930634 0.981975
0.854617 0.96709 0.926354 0.953954
0.659623 0.790313 0.904411 0.922848
1.06849 1.07357 0.999685 0.995589
1.02345 1.00692 1.01961 0.99687
1.01669 1.01872 1.00208 0.995927
1.00406 1.01521 0.992266 0.996723
1.0414 1.04567 1.00037 0.995544
1.02795 1.03246 0.99898 0.99665
1.00082 1.01195 0.992396 0.99658
0.976993 1.00203 0.976587 0.998389
0.998314 1.00927 0.992062 0.99706
0.96464 1.0029 0.964392 0.997369
1.02348 1.02563 1.0016 0.996308
0.96989 1.00791 0.964977 0.997205
0.989793 1.00228 0.990423 0.997091
0.967951 1.00138 0.968715 0.997833
0.934604 1.00502 0.932991 0.996726
0.84141 0.953455 0.901742 0.978646
0.810738 0.952202 0.891517 0.955042
0.84788 0.931868 0.925534 0.983077
0.951255 1.00321 0.950727 0.997356
0.980142 0.999948 0.982146 0.998012
0.957232 1.01527 0.949657 0.992816
0.883636 0.959545 0.937409 0.982379
0.859309 0.97001 0.927643 0.954975
0.929685 0.99638 0.936762 0.996052
0.90734 0.987036 0.934027 0.984187
0.942679 1.02751 0.920609 0.996561
0.956622 1.02634 0.936804 0.994944
0.990699 1.0599 0.937591 0.996926
1.05504 1.11858 0.946161 0.99687
0.963861 1.03727 0.931747 0.997294
1.01274 1.09145 0.930515 0.99718
1.05288 1.11726 0.945272 0.99694
1.0371 1.09416 0.950537 0.997173
1.05285 1.09928 0.960561 0.997085
1.06999 1.11203 0.965263 0.99683
1.05004 1.09069 0.965534 0.9971
1.06492 1.09987 0.971177 0.996961
1.07192 1.09903 0.978586 0.996673
1.05842 1.08846 0.975339 0.996982
1.0683 1.09452 0.979256 0.996718
1.07144 1.09112 0.985494 0.996419
1.06562 1.08755 0.983074 0.996709
1.07092 1.08692 0.988902 0.996337
1.07999 1.0899 0.994878 0.996007
1.07275 1.08405 0.993545 0.996013
1.07892 1.08615 0.997527 0.995815
1.08005 1.08486 1 0.995568
1.05637 1.0607 1 0.995925
1.07815 1.08312 1 0.995411
1.08685 1.09215 0.999707 0.995439
1.01427 1.01642 1 0.997884
1.04731 1.05157 1 0.995943
1.07488 1.07993 1 0.995332
1 1 1 1
1.008 1.00946 1.00059 0.997966
1.03311 1.03576 1.00132 0.996124
1 1 1 1
1.00392 1.00416 1.00154 0.998231
1 1 1 1
1.07137 1.07635 1 0.995373
1.05205 1.05684 1 0.99546
1.06027 1.06489 1 0.995659
1.03023 1.03431 1.00026 0.995792
1.03824 1.03887 1.00339 0.996026
1.02891 1.02771 1.00435 0.99684
1.01893 1.01724 1.00507 0.996609
1.01536 1.0084 1.00965 0.997283
1.00491 1.00026 1.00582 0.998841
1.01691 1.00076 1.01844 0.99774
1.00793 1.00013 1.00866 0.999147
1 1 1 1
1.00583 1 1.0064 0.99943
1 1 1 1
1 1 1 1
0.936921 1.01024 0.931042 0.996116
0.869256 0.962481 0.923303 0.978163
0.853967 0.967 0.918103 0.961885
1.06526 1.07069 0.998718 0.996207
1.0731 1.08485 0.993241 0.995896
1.0678 1.07305 0.999413 0.99569
1.00551 1.01699 0.99195 0.996733
1.04184 1.04587 1.00062 0.995528
1.03091 1.03627 0.99818 0.996641
1.05245 1.0727 0.984846 0.996222
0.997532 1.011 0.989573 0.997077
0.959223 1.00267 0.959338 0.997218
1.02728 1.02945 1.00142 0.996472
1.02483 1.06298 0.967742 0.996253
0.978923 1.03165 0.951452 0.997307
0.982438 1.01144 0.974122 0.997127
0.99364 1.00275 0.993805 0.997092
0.931871 1.00577 0.929212 0.997106
0.851183 0.958009 0.909535 0.976865
0.952017 1.00183 0.951518 0.998693
1.038 1.08561 0.958699 0.997333
0.952726 1.01444 0.945801 0.992987
0.883816 0.964756 0.934898 0.979897
0.9452 1.02984 0.920781 0.996774
0.961996 1.02684 0.941181 0.995394
0.984452 1.06 0.931393 0.99714
1.05143 1.11684 0.944355 0.996908
1.05995 1.13199 0.939263 0.996909
1.10628 1.16011 0.956381 0.997087
1.01928 1.09429 0.934107 0.997161
1.0586 1.1207 0.94749 0.996941
1.07214 1.12217 0.958516 0.996764
1.04896 1.09702 0.958989 0.997082
1.07008 1.11161 0.965699 0.996832
1.07036 1.10437 0.972463 0.996648
1.06228 1.09781 0.970571 0.996974
1.07295 1.09999 0.978679 0.99667
1.07335 1.09423 0.984434 0.996435
1.06895 1.09512 0.979317 0.996716
1.07207 1.09172 0.985541 0.996416
1.07959 1.09243 0.992124 0.996094
1.07043 1.08695 0.98837 0.996382
1.07912 1.08938 0.994543 0.996016
1.08444 1.0894 0.999786 0.995662
1.07884 1.08586 0.997706 0.995817
1.07986 1.08465 1 0.995583
1.05689 1.06119 1 0.995944
1.02018 1.02232 1 0.997904
1.0565 1.06082 1 0.995928
1.0777 1.08269 1 0.995395
0.999999 1 1 0.999999
1.01574 1.01773 1.00017 0.997876
1.04453 1.04843 1.00034 0.995943
0.999999 1 1 0.999999
1.01025 1.01179 1.00053 0.997947
0.999999 1 1 0.999999
1.07722 1.08367 0.998458 0.995589
1.0705 1.0755 0.999949 0.995398
1.07229 1.07714 1 0.995498
1.05028 1.05507 1 0.995451
1.06125 1.06588 1 0.995656
1.03253 1.03473 1.00142 0.996455
1.04454 1.04509 1.0035 0.995988
1.0242 1.02274 1.00459 0.996841
1.00283 1.0015 1.00285 0.998478
1.01184 1.00508 1.00946 0.997292
1.0053 1.00018 1.00626 0.998862
1 1 1 1
1.00708 1 1.00792 0.999162
1 1 1 1
1 1 1 1
0.983461 1.05841 0.931407 0.997617
0.938361 1.00856 0.935312 0.994746
0.872175 0.966384 0.921708 0.979176
1.06575 1.08383 0.987124 0.996142
1.06338 1.06922 0.998102 0.996429
1.07877 1.09713 0.987132 0.996086
1.07241 1.08553 0.992008 0.995874
1.06673 1.07226 0.999056 0.99579
1.07311 1.1076 0.972697 0.996054
1.03398 1.04016 0.997417 0.996632
1.05028 1.0694 0.985908 0.99616
1.04872 1.10839 0.949595 0.996389
1.0255 1.03315 0.995953 0.996635
1.02485 1.0645 0.966472 0.996149
0.972049 1.03757 0.939334 0.997356
0.990351 1.01352 0.980038 0.997045
0.929567 1.0063 0.926135 0.997421
1.09188 1.14797 0.953877 0.997131
1.04326 1.09103 0.958743 0.997362
0.95444 1.0131 0.948576 0.993167
0.978318 1.05931 0.925999 0.99735
1.04833 1.11484 0.943225 0.996947
1.0521 1.12725 0.936208 0.996928
1.11467 1.16695 0.957986 0.997089
1.08841 1.13811 0.959236 0.996969
1.06418 1.12358 0.950044 0.996942
1.07269 1.12099 0.96001 0.996774
1.07094 1.10853 0.969279 0.996708
1.0703 1.11117 0.966273 0.996834
1.07109 1.10449 0.973035 0.996629
1.07279 1.09585 0.982456 0.996435
1.07401 1.10097 0.97878 0.996666
1.07381 1.09467 0.984459 0.99643
1.0781 1.09254 0.990582 0.996157
1.07272 1.09233 0.985588 0.996413
1.08006 1.09285 0.992174 0.996093
1.08888 1.09442 0.999182 0.995746
1.07825 1.08889 0.994182 0.996025
1.08441 1.08942 0.999734 0.995668
1.0575 1.06181 1 0.995941
1.07946 1.08423 1 0.995598
1.05799 1.0623 1 0.995946
1.02033 1.02204 1 0.99833
0.999261 1 1 0.999261
1.02029 1.02225 1 0.998082
1.05628 1.06059 1 0.99593
1 1 1 1
1.01771 1.01988 1 0.997868
1 1 1 1
1.08387 1.09934 0.989668 0.996214
1.07844 1.08963 0.993816 0.995892
1.07635 1.08383 0.99746 0.995622
1.07106 1.07588 1 0.99552
1.06997 1.07495 0.99995 0.995423
1.07011 1.07496 1 0.995487
1.03621 1.03979 1.00039 0.996164
1.06135 1.06598 1 0.995652
1.03298 1.03539 1.00122 0.996453
1.00637 1.00772 1.00056 0.9981
1.01896 1.017 1.0051 0.996842
1.00343 1.0012 1.00374 0.998499
1 1 1 1
1.00602 1.00033 1.00681 0.998884
1 1 1 1
1 1 1 1
1.07801 1.13724 0.950906 0.99686
0.996742 1.06994 0.933832 0.997593
0.936454 1.00846 0.934763 0.993404
1.07342 1.09902 0.980509 0.996124
1.06203 1.08015 0.986988 0.996183
1.06175 1.06789 0.9976 0.996651
1.07828 1.09508 0.988514 0.996101
1.07178 1.08606 0.990967 0.995852
1.07808 1.12402 0.962626 0.996368
1.06619 1.10171 0.971631 0.996009
1.04835 1.06641 0.986915 0.996098
1.0426 1.10168 0.949802 0.996391
1.03068 1.06822 0.968692 0.996044
0.967216 1.04745 0.925799 0.997414
1.08384 1.12635 0.965074 0.997079
1.09288 1.14841 0.95435 0.997169
1.04786 1.09706 0.957651 0.997392
1.04442 1.12329 0.932644 0.996944
1.12281 1.17446 0.958811 0.997091
1.09069 1.14062 0.959126 0.996972
1.07902 1.10969 0.97544 0.996842
1.07321 1.11974 0.961533 0.996784
1.07176 1.10839 0.970161 0.996689
1.07431 1.09713 0.982646 0.996492
1.07183 1.10464 0.973605 0.996609
1.07338 1.09641 0.982502 0.996434
1.07686 1.09187 0.990018 0.996194
1.07429 1.09513 0.984485 0.996426
1.07878 1.09318 0.990641 0.996154
1.09054 1.09689 0.998401 0.995806
1.08047 1.09321 0.992223 0.996092
1.08801 1.09365 0.999093 0.99575
1.05823 1.06258 1 0.995907
1.08441 1.08947 0.999682 0.995674
1.0586 1.06291 1 0.995945
1.01855 1.02022 1 0.99836
1.05949 1.0638 1 0.995948
1.01981 1.02152 1 0.998323
0.999297 1 1 0.999297
0.99965 1 1 0.99965
1.02054 1.0223 1 0.998278
1 1 1 1
1.07476 1.0957 0.984594 0.99623
1.08122 1.09198 0.994102 0.996016
1.08214 1.09774 0.989402 0.996346
1.08032 1.08517 0.999894 0.99563
1.08067 1.0913 0.994346 0.995889
1.07536 1.084 0.996362 0.995656
1.07149 1.07632 1 0.995508
1.05252 1.05672 1 0.996033
1.0686 1.07346 1 0.995476
1.04116 1.04494 1.00022 0.996164
1.01603 1.01814 1 0.997928
1.03344 1.03624 1.00085 0.996451
1.00467 1.00523 1.00132 0.998125
1 1 1 1
1.00362 1.00061 1.0045 0.998521
1 1 1 1
1 1 1 1
1.07781 1.12092 0.964689 0.996736
1.06844 1.12657 0.951386 0.996864
1.00924 1.07878 0.937818 0.997563
1.07544 1.10626 0.975746 0.996305
1.07043 1.09661 0.979926 0.996118
1.05785 1.07613 0.986733 0.996226
1.07749 1.09293 0.989716 0.996116
1.07866 1.12313 0.963935 0.996341
1.05886 1.09513 0.970803 0.995965
1.03303 1.09012 0.951063 0.996393
1.08276 1.11256 0.976236 0.996908
1.08256 1.12427 0.965767 0.997035
1.09376 1.14797 0.955449 0.997207
1.07785 1.10173 0.981522 0.996751
1.09276 1.14283 0.95909 0.996975
1.07863 1.10941 0.97535 0.996827
1.07678 1.09791 0.984083 0.996612
1.07257 1.10823 0.971055 0.996671
1.07462 1.09747 0.982625 0.996495
1.07679 1.0912 0.990529 0.99623
1.07393 1.09691 0.982548 0.996433
1.07715 1.0922 0.989992 0.996193
1.09019 1.09737 0.997589 0.995856
1.07946 1.09381 0.9907 0.996152
1.08941 1.09577 0.998378 0.995809
1.05833 1.06272 1 0.995869
1.08713 1.09285 0.999006 0.995754
1.05952 1.06387 1 0.995911
1.01691 1.0186 1 0.998342
1.05968 1.064 1 0.995948
1.01801 1.0197 1 0.998344
0.999299 1 1 0.999299
1.01914 1.02085 1 0.99832
0.999317 1 1 0.999317
1 1 1 1
1.07411 1.09454 0.985141 0.996144
1.07831 1.09277 0.990687 0.996043
1.0768 1.09687 0.985422 0.996229
1.08718 1.09258 0.99932 0.995737
1.08101 1.0937 0.992299 0.996071
1.08066 1.0963 0.989214 0.996478
1.06316 1.06745 1 0.995988
1.0811 1.08588 0.999977 0.99562
1.08337 1.09336 0.994956 0.995887
1.07207 1.07692 1 0.995497
1.05319 1.05738 1 0.996031
1.02248 1.02461 1 0.997923
1.04544 1.04947 1 0.996164
1.01291 1.0149 1.0001 0.997943
1 1 1 1
1.0033 1.00316 1.002 0.998147
0.999999 1 1 0.999999
1 1 1 1
1.07742 1.10631 0.977183 0.996629
1.07901 1.12316 0.963865 0.99671
1.06083 1.11922 0.95081 0.996868
1.07499 1.10558 0.975916 0.996322
1.06741 1.09427 0.979263 0.996112
1.08006 1.12339 0.964984 0.996314
1.08042 1.10322 0.982528 0.996749
1.08285 1.11239 0.976473 0.996903
1.08174 1.12269 0.966431 0.996991
1.07827 1.10178 0.98183 0.996773
1.07523 1.09349 0.986678 0.996581
1.07822 1.10913 0.975246 0.996812
1.07721 1.09772 0.984683 0.996576
1.07541 1.09002 0.990244 0.996324
1.07495 1.09782 0.982606 0.996498
1.07667 1.09111 0.990502 0.996232
1.08911 1.09739 0.996558 0.995885
1.07753 1.09262 0.989963 0.996193
1.08946 1.09673 0.997506 0.995857
1.05734 1.06173 1 0.995858
1.08829 1.09467 0.998353 0.995812
1.05985 1.06424 1 0.995873
1.01467 1.0164 1 0.998298
1.06085 1.0652 1 0.995915
1.01624 1.01795 1 0.998319
0.999275 1 1 0.999275
1.01748 1.01918 1 0.998333
0.999333 1 1 0.999333
0.99933 1 1 0.99933
1.07534 1.09554 0.985085 0.996422
1.0789 1.09202 0.991947 0.99601
1.07349 1.09546 0.983711 0.996168
1.08728 1.09516 0.996977 0.995815
1.079 1.09241 0.991666 0.996027
1.07883 1.09803 0.986233 0.996228
1.06192 1.06623 1 0.995965
1.0863 1.09255 0.99852 0.99576
1.08061 1.09528 0.990439 0.996127
1.02134 1.02343 1 0.997961
1.06121 1.06548 1 0.995986
1.08142 1.08619 1 0.995609
1.05371 1.05791 1 0.996029
1.02134 1.02346 1 0.997931
1 1 1 1
1.0099 1.01165 1.00032 0.99796
1 1 1 1
1 1 1 1
1.07645 1.09797 0.983705 0.996639
1.07744 1.10636 0.977163 0.996616
1.07945 1.12453 0.9631 0.996685
1.07492 1.10508 0.976281 0.99634
1.07574 1.09087 0.989554 0.996539
1.08054 1.10355 0.982332 0.99676
1.08303 1.11222 0.976783 0.996899
1.07869 1.10182 0.982155 0.996795
1.07525 1.09389 0.986323 0.99659
1.07588 1.08887 0.991723 0.996314
1.07767 1.09755 0.9853 0.996539
1.07643 1.09023 0.991033 0.996274
1.0875 1.09651 0.9958 0.995964
1.07657 1.09103 0.990475 0.996234
1.0885 1.09672 0.996608 0.995887
1.0554 1.05979 1 0.995856
1.08858 1.09591 0.997442 0.995858
1.05864 1.06305 1 0.995859
1.01121 1.01334 1 0.9979
1.06129 1.06568 1 0.995877
1.01356 1.01549 1 0.998104
1 1 1 1
1.01556 1.01729 1 0.998298
0.999315 1 1 0.999315
0.999357 1 1 0.999357
1.07505 1.09144 0.988412 0.996531
1.07663 1.09041 0.991169 0.996158
1.07589 1.09492 0.986149 0.996416
1.08732 1.09441 0.997693 0.995818
1.0781 1.09138 0.991783 0.996009
1.07288 1.09639 0.982301 0.996193
1.05943 1.06377 1 0.995923
1.0877 1.09504 0.997475 0.995816
1.07978 1.09207 0.992704 0.996012
1.01748 1.01953 1 0.997992
1.06033 1.06464 1 0.995957
1.08527 1.09227 0.997798 0.995782
1 1 1 1
1.02228 1.02436 1 0.997969
1.05933 1.0636 1 0.995983
1.02027 1.02238 1 0.99794
1 1 1 1
0.999999 1 1 0.999999
1.07441 1.08843 0.990547 0.99654
1.07754 1.0986 0.984125 0.996644
1.07731 1.1063 0.977115 0.996603
1.07622 1.08737 0.993463 0.996259
1.07482 1.09053 0.989007 0.996549
1.08065 1.1039 0.982111 0.996772
1.07523 1.09429 0.985937 0.9966
1.07581 1.08893 0.991602 0.996314
1.08765 1.09538 0.996984 0.995947
1.07735 1.09036 0.991814 0.996224
1.08791 1.0963 0.996417 0.995913
1.05299 1.05775 0.999607 0.995891
1.08799 1.09617 0.99664 0.995888
1.05647 1.06086 1 0.995857
1.00793 1.01005 1 0.997901
1.06013 1.06454 1 0.995861
1.01023 1.01235 1 0.997899
1 1 1 1
1.01249 1.01464 1 0.997878
0.999629 1 1 0.999629
0.999349 1 1 0.999349
1.07083 1.08476 0.990624 0.996503
1.07633 1.08737 0.993577 0.996253
1.07443 1.09062 0.988577 0.99654
1.08648 1.09324 0.997988 0.995822
1.07706 1.09054 0.991455 0.996146
1.07634 1.09422 0.987203 0.99641
1.0575 1.06188 1 0.995874
1.08773 1.09441 0.998093 0.995787
1.0772 1.09071 0.991576 0.996009
1.01387 1.01593 1 0.997975
1.05848 1.06282 1 0.995915
1.08807 1.09492 0.997917 0.995817
1 1 1 1
1.0187 1.02074 1 0.998
1.05908 1.06339 1 0.99595
1 1 1 1
1.02322 1.0253 1 0.997977
1 1 1 1
1.07702 1.08725 0.994272 0.996292
1.07352 1.08771 0.990398 0.996528
1.07863 1.09921 0.984574 0.99665
1.08777 1.09514 0.99732 0.99594
1.07571 1.08731 0.993033 0.996276
1.0739 1.09019 0.988462 0.996558
1.07575 1.08898 0.991503 0.996315
1.08695 1.09488 0.996795 0.995948
1.0504 1.05504 0.9997 0.995904
1.08829 1.09609 0.997008 0.995862
1.05387 1.05846 0.999791 0.995869
1.00521 1.00733 1 0.997893
1.05737 1.06176 1 0.995857
1.00702 1.00914 1 0.997899
1 1 1 1
1.00916 1.01129 1 0.997897
1 1 1 1
0.999325 1 1 0.999325
1.07651 1.08627 0.99473 0.996266
1.06948 1.08441 0.98968 0.996516
1.08677 1.09321 0.998208 0.995889
1.07691 1.08789 0.993631 0.996252
1.0738 1.08983 0.988705 0.996548
1.0552 1.0596 1 0.995846
1.08713 1.09386 0.998016 0.995819
1.0776 1.0908 0.991733 0.996135
1.0106 1.0127 1 0.997928
1.05685 1.06125 1 0.995858
1.08824 1.09446 0.998547 0.995756
1 1 1 1
1.01489 1.01694 1 0.99798
1.05756 1.06191 1 0.995908
1 1 1 1
1.01982 1.02186 1 0.998007
1 1 1 1
1.08771 1.09433 0.997988 0.995953
1.07703 1.08709 0.994437 0.996282
1.07262 1.08696 0.990259 0.996515
1.04883 1.05339 0.99975 0.995919
1.08715 1.09458 0.997261 0.995941
1.07519 1.08722 0.992615 0.996294
1.08626 1.09438 0.996618 0.995948
1.05102 1.05576 0.99961 0.9959
1.00368 1.00579 1 0.997902
1.05482 1.05922 1 0.995847
1.00473 1.00686 1 0.997892
1 1 1 1
1.00616 1.00828 1 0.997899
1 1 1 1
1 1 1 1
1.08795 1.0938 0.998714 0.995927
1.07617 1.08641 0.994234 0.996313
1.06822 1.08413 0.988754 0.99653
1.05271 1.05707 1 0.995876
1.08712 1.09355 0.99822 0.995886
1.07746 1.08837 0.993705 0.996252
1.0076 1.00972 1 0.997901
1.05423 1.05862 1 0.995844
1.08769 1.09441 0.998037 0.995816
1 1 1 1
1.01152 1.01362 1 0.997931
1.05614 1.06055 1 0.995842
1 1 1 1
1.01587 1.01792 1 0.997985
1 1 1 1
1.04915 1.05348 1 0.995893
1.08717 1.09403 0.997756 0.995967
1.07702 1.08696 0.994563 0.996273
1.00267 1.00474 1 0.997945
1.04939 1.05403 0.999682 0.995916
1.08652 1.09404 0.997177 0.995941
1.0516 1.05645 0.999511 0.995896
1.00336 1.00547 1 0.997903
1 1 1 1
1.00426 1.00638 1 0.99789
1 1 1 1
1 1 1 1
1.05038 1.05471 1 0.995897
1.08753 1.09367 0.998416 0.995958
1.07575 1.08648 0.993745 0.996361
1.0054 1.00711 1 0.998298
1.05184 1.0562 1 0.995876
1.08736 1.09379 0.998227 0.995883
1 1 1 1
1.00842 1.01054 1 0.997903
1.05327 1.05766 1 0.995842
1 1 1 1
1.01247 1.01457 1 0.997935
1 1 1 1
1.00228 1.00437 1 0.997917
1.04874 1.05319 0.999855 0.99591
1.08667 1.09371 0.997571 0.99598
1 1 1 1
1.00251 1.00458 1 0.997943
1.04998 1.05469 0.99962 0.995914
1.00306 1.00517 1 0.997902
1 1 1 1
1 1 1 1
1.00355 1.00527 1 0.998284
1.04996 1.05429 1 0.995899
1.08722 1.09366 0.998114 0.99599
1 1 1 1
1.00577 1.00787 1 0.997915
1.05119 1.05554 1 0.995876
1 1 1 1
1.00926 1.01138 1 0.997903
1 1 1 1
0.999348 1 1 0.999348
1.00271 1.00459 1 0.998127
1.04834 1.05295 0.999688 0.995928
1 1 1 1
1.00233 1.0044 1 0.997944
1 1 1 1
0.999351 1 1 0.999351
1.00387 1.00577 1 0.998116
1.0494 1.05372 1 0.995899
0.999665 1 1 0.999665
1.00644 1.00854 1 0.997919
1 1 1 1
1 1 1 1
1.00273 1.00477 1 0.997963
1 1 1 1
0.999677 1 1 0.999677
1.00425 1.00631 1 0.997953
1 1 1 1
1 1 1 1
1 1 1 1

VECTORS lamdaE float
1.00325 0.999691 0.9919
1.00282 1.00052 0.995856
1.00266 0.999851 0.992366
1.00263 1.00014 0.992226
1.00307 0.999858 0.991963
1.00342 0.99963 0.991786
1.00372 1.00084 0.989206
1.00291 1.00061 0.995773
1.00215 1 0.996636
1.00201 1.00057 0.996615
1.0025 1.00127 0.991207
1.00379 1.00173 0.986713
1.00193 0.99996 0.993187
1.00157 1.00011 0.993445
1.0021 1.00004 0.992804
1.00218 1.00015 0.992692
1.00271 0.999963 0.992223
1.00256 0.999912 0.992436
1.004 1.00076 0.988931
1.00199 1.00001 0.996349
1.00243 1.00017 0.992418
1.00288 1.00002 0.992051
1.00352 1.00028 0.990107
1.00367 1.00059 0.989574
1.00342 0.999777 0.991664
1.00376 1.00126 0.988689
1.00532 1.00152 0.985155
1.00302 1.00066 0.995662
1.00247 0.999911 0.994461
1.00245 1.00026 0.994363
1.00289 1.0012 0.995563
1.00379 1.00184 0.986653
1.00254 0.999871 0.992401
1.00278 0.999791 0.992196
1.00407 1.00056 0.989526
1.00111 1.00288 0.996393
1.00407 1.0012 0.989049
1.00394 1.00249 0.985693
1.00541 1.00314 0.982873
1.00128 1.00148 0.996481
1.00197 0.999985 0.99636
1.00188 1.00005 0.994845
1.00189 0.999961 0.996428
1.0014 1.00008 0.993662
1.00348 0.999828 0.989447
1.00181 1.00001 0.996749
1.00384 1.0002 0.990295
1.00175 1.00012 0.993157
1.00206 0.999951 0.992895
1.00208 1.00026 0.992646
1.00427 1.00066 0.988673
1.00176 1.00003 0.994962
1.00198 1.00021 0.992889
1.00277 1.00023 0.99203
1.00241 1.00003 0.992519
1.00375 1.00025 0.989841
1.00408 1.00111 0.988432
1.00392 1.00053 0.989301
1.00533 1.00145 0.985311
1.00189 0.999988 0.996406
1.00225 1.00009 0.992729
1.00321 0.999888 0.991295
1.0034 1.00011 0.990451
1.00364 1.00042 0.989821
1.0054 0.999453 0.987282
1.0053 1.00007 0.986689
1.00345 1.00032 0.991076
1.00375 1.00224 0.987813
1.00533 1.00257 0.984024
1.00534 0.998012 0.987911
1.00292 0.999834 0.995949
1.00281 1.00128 0.99564
1.00296 1.00017 0.995905
1.0038 1.00187 0.986593
1.00263 0.999895 0.996014
1.00292 0.999876 0.995952
1.00389 1.0006 0.98785
1.00153 1.00221 0.993916
1.00385 1.00114 0.987332
1.00396 1.00263 0.986756
1.00544 1.00303 0.982845
1.00179 1.00179 0.995997
1.00199 1.00342 0.988185
1.00395 1.0004 0.988075
1.00408 1.00063 0.987574
1.00532 0.999896 0.986373
1.0035 1.00353 0.987735
1.0054 1.00168 0.984314
1.00534 1.00446 0.981616
1.00555 1.00031 0.985122
1.0008 1.00106 0.996969
1.00098 1.00145 0.996687
1.00229 1 0.996149
1.00203 0.999983 0.996326
1.00193 0.999965 0.996419
1.00175 1 0.994997
1.00351 0.999828 0.990184
1.0021 1 0.994693
1.0037 1.00021 0.989559
1.00189 0.999966 0.996441
1.00331 0.999684 0.98976
1.00373 1.00003 0.990594
1.00534 0.997772 0.988775
1.00387 1.00027 0.990079
1.00537 0.998235 0.988216
1.00194 0.999945 0.993189
1.00152 1.00024 0.993363
1.00204 1.00072 0.992387
1.00194 1.00003 0.992982
1.00398 1.00025 0.989575
1.00417 1.00049 0.989036
1.00435 1.00105 0.988181
1.00534 1.00137 0.985463
1.00193 0.99997 0.996423
1.00182 1.00009 0.993194
1.00345 0.999739 0.990194
1.00363 1.00009 0.99018
1.003 1.00101 0.993325
1.00404 1.00193 0.988017
1.00387 1.00037 0.989555
1.0054 0.999096 0.987708
1.00535 1.00254 0.984186
1.0053 1.00036 0.986454
1.00534 0.998068 0.987897
1.00332 0.999716 0.989736
1.00329 0.999865 0.990863
1.00535 0.997679 0.989259
1.00541 0.998323 0.988456
1.0053 0.999284 0.987582
1.00529 0.995939 0.990498
1.00228 1.00162 0.995933
1.00534 0.996836 0.989067
1.00373 1.00307 0.985384
1.00536 1.00369 0.982102
1.00532 0.999317 0.986692
1.00532 0.995277 0.990502
1.0027 1.00353 0.986762
1.00385 1.0038 0.985149
1.00275 0.999873 0.995979
1.00302 0.999899 0.995932
1.00385 1.00065 0.987838
1.00207 1.00181 0.995899
1.0036 1.00294 0.985804
1.00388 1.00107 0.987304
1.00546 1.00293 0.982814
1.00163 1.00179 0.99618
1.00212 1.00351 0.988134
1.00397 1.00045 0.988903
1.00411 1.00074 0.988393
1.00533 0.9999 0.98634
1.00305 1.00363 0.98599
1.0054 1.00173 0.984271
1.0053 1.00436 0.981583
1.00554 1.00001 0.985437
1.00265 1.00354 0.986951
1.00174 1.00303 0.989239
1.00285 1.00273 0.98654
1.00538 0.999233 0.987066
1.00536 1.00069 0.985436
1.00534 0.996244 0.989782
1.00424 1.00493 0.982677
1.00541 0.99834 0.987571
1.00561 1.00252 0.983419
1.0056 0.997795 0.98716
1.00047 1.0003 0.997524
1.0006 1.00091 0.99718
1.00081 1.00138 0.996851
1.00182 1.004 0.98811
1.00142 1.00202 0.996229
1.00253 0.999935 0.996052
1.00213 0.999995 0.996233
1.00349 1.00026 0.988887
1.00334 0.999839 0.989551
1.00191 0.999962 0.996404
1.00187 0.999958 0.99644
1.0033 0.999694 0.989759
1.00359 1.00001 0.989885
1.00533 0.997784 0.988785
1.00368 1.00036 0.98851
1.00536 0.998245 0.988223
1.00329 0.999646 0.98982
1.00534 0.997735 0.988824
1.00535 0.997916 0.988599
1.00532 0.994953 0.991796
1.0054 0.998687 0.987662
1.0053 0.994954 0.991631
1.00189 0.999967 0.99643
1.00135 1.00017 0.993657
1.00348 0.999655 0.98928
1.00386 1.00007 0.989907
1.00196 1.00189 0.996163
1.00438 1.00142 0.988233
1.0041 1.00035 0.989292
1.0054 0.998727 0.988133
1.0053 1.00062 0.986219
1.00535 1.00242 0.984361
1.00533 0.99813 0.987884
1.00331 0.999706 0.989737
1.00349 0.999876 0.990601
1.00535 0.997584 0.989194
1.00541 0.998672 0.988124
1.00246 1.00152 0.995807
1.00376 1.00291 0.98663
1.00534 1.00381 0.982526
1.0053 0.999339 0.98756
1.00528 0.995619 0.990858
1.00531 0.999212 0.98678
1.00535 0.997118 0.988839
1.00531 0.995309 0.990463
1.0027 1.00359 0.986683
1.00335 1.00428 0.985056
1.00534 0.997867 0.988696
1.00538 0.998019 0.988942
1.00533 0.995503 0.991115
1.00529 0.995009 0.991458
1.00531 0.996488 0.989616
1.00515 0.994933 0.991509
1.00336 1.00323 0.985885
1.00533 0.994886 0.991001
1.0054 1.00475 0.981132
1.00539 1.00041 0.985186
1.00534 0.996734 0.989096
1.00535 0.99482 0.99087
1.00463 1.00411 0.982921
1.0013 1.005 0.988431
1.0049 1.00358 0.983422
1.00377 1.00052 0.988144
1.00124 1.00174 0.996407
1.00196 1.00358 0.988088
1.0039 1.00078 0.987585
1.00533 0.999895 0.98631
1.00318 1.00347 0.986082
1.00544 1.00423 0.981547
1.00539 1.00177 0.984224
1.00554 0.999694 0.985757
1.00244 1.00371 0.987058
1.00151 1.00319 0.989233
1.00304 1.0035 0.986608
1.00536 0.99924 0.987052
1.00536 1.00071 0.985394
1.00535 0.996205 0.989803
1.00472 1.00433 0.982607
1.00541 0.998389 0.987502
1.00559 1.00238 0.98337
1.00558 0.997489 0.987417
1.0012 1.00262 0.990627
1.00303 1.00408 0.985296
1.00285 1.00402 0.986523
1.00262 1.00227 0.987191
1.00526 0.995551 0.990725
1.0054 0.9973 0.988573
1.00537 0.99488 0.990824
1.00547 1.00451 0.98181
1.00541 0.995656 0.989933
1.00553 1.00062 0.985251
1.00558 0.996516 0.988467
1.00076 1.00419 0.989912
1.00044 1.00174 0.992492
1.00032 0.99942 0.997949
1.00034 1.00007 0.997706
1.00036 1.00074 0.997415
1.0004 1.00258 0.99136
1.00055 1.00147 0.996863
1.00193 1.00368 0.988042
1.00172 1.0019 0.996127
1.00364 1.0004 0.988513
1.00343 1 0.989243
1.00535 0.998254 0.988236
1.00532 0.997797 0.988795
1.00331 0.999706 0.989764
1.00192 0.999947 0.996437
1.0033 0.999645 0.989826
1.00533 0.997745 0.98883
1.00534 0.997932 0.988611
1.00533 0.994953 0.991796
1.00539 0.998697 0.987664
1.00529 0.994956 0.991643
1.00534 0.997783 0.988787
1.00533 0.99495 0.991817
1.0053 0.994959 0.991741
1.00522 0.994927 0.991726
1.00527 0.99512 0.991332
1.00518 0.994965 0.991554
1.00332 0.999703 0.989746
1.00372 0.999821 0.990339
1.00535 0.997469 0.989135
1.00541 0.999003 0.987794
1.00265 1.00144 0.995658
1.00404 1.00276 0.987591
1.00534 1.00374 0.982935
1.0053 0.999384 0.987537
1.00527 0.995296 0.991218
1.00536 0.9974 0.988611
1.00532 0.999127 0.986867
1.00531 0.995337 0.990423
1.00272 1.00354 0.986595
1.00309 1.00428 0.984966
1.00534 0.997596 0.988987
1.00538 0.99793 0.98896
1.00533 0.995513 0.991089
1.00528 0.9954 0.99113
1.00329 1.00334 0.985833
1.00536 1.00467 0.981167
1.00541 1.00077 0.984875
1.00531 0.996495 0.989691
1.00517 0.994933 0.991454
1.00534 0.996478 0.989363
1.00533 0.994886 0.990952
1.00534 0.994803 0.990796
1.00448 1.00451 0.982905
1.00443 1.00416 0.983561
1.00131 1.00422 0.988538
1.00533 0.995489 0.991194
1.00531 0.995639 0.990911
1.0052 0.994928 0.991839
1.00514 0.994953 0.99157
1.00531 0.994888 0.991094
1.00531 0.994906 0.991104
1.00521 1.00518 0.981225
1.00533 0.994826 0.990878
1.0055 1.00252 0.98316
1.00544 0.997957 0.987402
1.00534 0.995495 0.990243
1.00542 0.994763 0.990668
1.00122 1.00123 0.990409
1.00516 1.00526 0.981548
1.00202 1.00412 0.986532
1.00518 1.00396 0.982284
1.00534 0.999246 0.98704
1.00135 1.00338 0.989225
1.00234 1.00394 0.987145
1.0029 1.00415 0.986667
1.00536 1.00072 0.985356
1.00536 0.996169 0.989825
1.00498 1.0039 0.982523
1.00557 1.00225 0.983314
1.00541 0.998456 0.987433
1.00556 0.997224 0.987674
1.00093 1.00277 0.990648
1.00355 1.00385 0.985414
1.00249 1.00413 0.986371
1.00351 1.00173 0.987302
1.0053 0.995482 0.990739
1.0054 0.997242 0.988595
1.00537 0.994878 0.990857
1.00548 1.00449 0.981618
1.0054 0.995924 0.989724
1.00549 1.0005 0.985243
1.00558 0.996502 0.988761
1.00074 1.0022 0.991709
1.00217 1.00521 0.986829
1.00373 1.00478 0.983379
1.00329 1.00258 0.987246
1.0031 1.00244 0.987928
1.00531 0.994897 0.991087
1.0054 0.995015 0.990447
1.0054 0.994863 0.99059
1.00524 1.00362 0.982868
1.00546 0.995276 0.990105
1.00521 0.99939 0.98655
1.00115 1.00479 0.988582
1.00044 1.00509 0.989388
1.00027 1.00361 0.991122
1.00041 1.00432 0.98992
1.00029 1.0008 0.99455
1.00035 1.00169 0.99313
1.00048 0.998736 0.996047
1.00026 0.999447 0.998028
1.00031 0.999945 0.997834
1.00023 1.00113 0.993316
0.99983 0.999984 0.998118
1.00068 1.00265 0.991198
1.00095 1.00168 0.996586
1.00203 1.00343 0.987972
1.00193 1.00183 0.996021
1.00537 0.998712 0.987662
1.00533 0.997948 0.98862
1.00528 0.994957 0.991655
1.00533 0.994954 0.991796
1.00533 0.997758 0.988836
1.00329 0.999636 0.989828
1.00534 0.997787 0.988786
1.00534 0.99495 0.991815
1.00531 0.994959 0.991748
1.00522 0.994925 0.991717
1.00529 0.99508 0.991346
1.00519 0.994967 0.991551
1.00534 0.99495 0.991819
1.00522 0.994934 0.991758
1.00521 0.994945 0.991677
1.00534 0.994912 0.991529
1.00522 0.994935 0.991336
1.0053 0.994939 0.991217
1.00535 0.99734 0.989275
1.00537 0.997864 0.988979
1.00533 0.995523 0.991062
1.00527 0.995801 0.9908
1.00324 1.00347 0.985799
1.00535 1.00483 0.981203
1.00541 1.00105 0.984569
1.0053 0.996498 0.989765
1.00518 0.994932 0.991398
1.00533 0.994884 0.990902
1.00533 0.996212 0.98963
1.00533 0.994789 0.990721
1.00417 1.00501 0.982899
1.00384 1.00511 0.983701
1.00131 1.00387 0.988643
1.00533 0.995227 0.9915
1.00531 0.995604 0.990922
1.00521 0.994926 0.991779
1.00515 0.994951 0.991623
1.00504 1.00513 0.981309
1.00553 1.00255 0.983206
1.00544 0.998188 0.987026
1.00531 0.994889 0.991095
1.0053 0.994907 0.99106
1.00534 0.995347 0.990279
1.00532 0.994827 0.990879
1.00542 0.994754 0.990658
1.00493 1.00522 0.981661
1.00516 1.00423 0.982174
1.00169 1.00159 0.990477
1.0024 1.00398 0.986948
1.00521 0.994929 0.991798
1.00518 0.99494 0.991696
1.00534 0.994928 0.991539
1.00532 0.994899 0.991146
1.00531 0.994909 0.990868
1.00536 0.994879 0.990871
1.00544 1.00421 0.981706
1.00537 0.994827 0.990643
1.00547 1.0004 0.984968
1.0054 0.996958 0.988336
1.0054 0.994984 0.990505
1.00539 0.99476 0.990634
1.0031 1.00109 0.988169
1.0019 1.00173 0.98776
1.00511 1.00423 0.982089
1.00426 1.00505 0.985024
1.00526 1.00405 0.982076
1.00068 1.00286 0.990679
1.00535 0.995415 0.990753
1.00291 1.00434 0.986213
1.00366 1.00355 0.985559
1.0042 1.00088 0.987418
1.00539 0.997184 0.988617
1.00537 0.994875 0.99089
1.0055 1.00447 0.981442
1.00547 1.00041 0.985235
1.0054 0.996165 0.989515
1.00559 0.996473 0.989056
1.00059 1.00229 0.991732
1.00194 1.00521 0.986764
1.00436 1.00424 0.983418
1.00326 1.00252 0.987153
1.00367 1.00166 0.986963
1.00528 0.994896 0.991105
1.0054 0.995032 0.990489
1.00539 0.994862 0.990593
1.00525 1.00368 0.982889
1.00548 0.995346 0.989984
1.00521 0.999555 0.986909
1.00155 1.00512 0.987603
1.00325 1.00518 0.985613
1.00358 1.00496 0.984053
1.00399 1.00242 0.98633
1.00473 1.00324 0.985286
1.00537 0.994866 0.990806
1.0054 0.994872 0.990418
1.00538 0.994782 0.99049
1.00503 1.00178 0.984565
1.00518 0.99805 0.987865
1.00097 1.00486 0.988611
1.001 1.00512 0.988023
0.999662 1.0051 0.989513
0.999983 1.00496 0.991018
1.00022 1.00482 0.990527
0.999935 1.00323 0.9919
1.00002 1.00381 0.991142
1.00011 1.00033 0.995232
1.00021 1.00453 0.989927
1.00026 1.00075 0.994667
1.00033 0.997959 0.996765
1.00031 1.00172 0.993753
1.00025 0.998901 0.997186
1.00018 0.999324 0.998108
1.00039 1.00243 0.992254
1.00027 1.00099 0.993363
0.999848 0.99977 0.998309
1.00024 1.00029 0.997602
1.00104 1.00265 0.99106
1.00124 1.00198 0.99637
1.00531 0.995039 0.991359
1.00531 0.994958 0.991754
1.00519 0.994968 0.991548
1.00522 0.994924 0.991708
1.00534 0.99495 0.991813
1.00534 0.997789 0.988786
1.00534 0.99495 0.991816
1.00522 0.994933 0.991764
1.00521 0.994945 0.991673
1.00534 0.99491 0.991516
1.0052 0.994936 0.991344
1.0053 0.994934 0.991228
1.00521 0.994936 0.99179
1.00533 0.994916 0.991624
1.00531 0.994918 0.991437
1.00534 0.994898 0.991524
1.00532 0.994915 0.991038
1.00532 0.994917 0.991174
1.00533 0.99495 0.991807
1.00531 0.995571 0.990932
1.00521 0.994924 0.991719
1.00517 0.994951 0.991676
1.0048 1.00511 0.98138
1.00554 1.00269 0.983249
1.00544 0.998395 0.986653
1.00531 0.994891 0.991097
1.0053 0.994907 0.991016
1.00531 0.994827 0.990879
1.00535 0.995181 0.990314
1.00542 0.994747 0.990648
1.00474 1.00519 0.981768
1.00515 1.00479 0.982055
1.00213 1.00197 0.990537
1.00225 1.00299 0.987347
1.00521 0.99493 0.991801
1.00519 0.994941 0.991711
1.00533 0.994924 0.991507
1.00532 0.994901 0.991148
1.00542 1.00431 0.981787
1.00549 1.0005 0.984775
1.0054 0.996881 0.988342
1.00531 0.994908 0.990904
1.00536 0.994874 0.99086
1.00541 0.994929 0.990527
1.00537 0.994826 0.990639
1.00539 0.994769 0.990653
1.0051 1.00449 0.982141
1.00519 1.00456 0.98213
1.00342 1.00412 0.985115
1.00265 1.00204 0.988246
1.00215 1.00365 0.987595
1.00534 0.994914 0.991563
1.00534 0.994907 0.991385
1.00537 0.994854 0.990903
1.00535 0.994883 0.990706
1.00534 1.003 0.983191
1.00535 0.99479 0.990457
1.00539 0.999463 0.985289
1.00531 0.996192 0.989058
1.00544 0.994763 0.990506
1.00108 1.00509 0.987865
1.00399 1.00386 0.986922
1.00243 1.00137 0.988166
1.0049 1.00502 0.98245
1.00452 1.00331 0.985392
1.00504 1.00369 0.983015
1.00044 1.00244 0.991752
1.0017 1.0052 0.986704
1.00526 0.994895 0.991123
1.0027 1.00263 0.987058
1.00524 1.00401 0.983452
1.00429 1.00093 0.986009
1.0054 0.995051 0.990532
1.00538 0.994861 0.990597
1.00527 1.00369 0.982921
1.00521 0.999731 0.987267
1.00551 0.995409 0.989863
1.00148 1.00515 0.987612
1.0027 1.00525 0.98561
1.00417 1.00496 0.983203
1.00402 1.00174 0.98648
1.00457 1.00225 0.985142
1.00536 0.994866 0.990805
1.00543 0.994871 0.990397
1.0054 0.994762 0.990497
1.00501 1.00183 0.984811
1.00518 0.998172 0.987709
1.00287 1.00518 0.986094
1.00172 1.00522 0.985988
1.00455 1.003 0.984582
1.00296 1.0023 0.985159
1.00534 1.00131 0.985605
1.00538 0.994799 0.990613
1.00546 0.995473 0.98947
1.0054 0.994803 0.98996
1.00502 1.00063 0.98619
1.0051 0.999007 0.98723
1.00084 1.00485 0.988645
1.00142 1.00513 0.98784
0.999077 1.00458 0.991206
0.999379 1.00509 0.989613
0.99971 1.00495 0.990497
0.99897 1.00476 0.991385
0.998641 1.00447 0.993065
0.998869 1.00507 0.991506
0.999626 1.00468 0.991089
1.00004 1.00282 0.99209
0.999925 1.00313 0.991886
1.00001 1 0.995646
0.999783 1.00382 0.991157
1.00012 1.00023 0.995302
1.0002 0.997761 0.997158
1.00026 1.00061 0.994786
1.00027 0.998078 0.996716
0.999968 0.999029 0.998353
1.00023 1.00229 0.992301
1.00067 1.00143 0.992372
0.99969 1.00006 0.998164
1.00063 1.0006 0.99339
0.999825 0.99955 0.998347
1.00063 1.00067 0.99713
1.00519 0.994937 0.991352
1.00521 0.994945 0.99167
1.00531 0.994928 0.991238
1.00533 0.994908 0.991502
1.00522 0.994931 0.991771
1.00534 0.99495 0.991812
1.00521 0.994938 0.991804
1.00534 0.994916 0.991616
1.00531 0.994922 0.991443
1.00533 0.994894 0.99151
1.00533 0.994915 0.991036
1.00532 0.99491 0.991173
1.00532 0.994912 0.991634
1.00536 0.994895 0.991572
1.00531 0.994884 0.991481
1.00537 0.994881 0.990827
1.00521 0.99493 0.991803
1.00519 0.994942 0.991725
1.00533 0.99492 0.991475
1.00531 0.994903 0.991149
1.00543 1.00434 0.981876
1.00553 1.0006 0.984577
1.00539 0.996832 0.988346
1.00531 0.994908 0.990941
1.00536 0.994869 0.990849
1.00537 0.994825 0.990637
1.00541 0.994885 0.990548
1.00539 0.994775 0.990673
1.00512 1.00462 0.982196
1.00477 1.00467 0.982185
1.00331 1.00364 0.985212
1.00223 1.0029 0.988355
1.00273 1.00525 0.987453
1.00534 0.994916 0.99155
1.00534 0.99491 0.99139
1.00537 0.994858 0.990914
1.00531 1.00318 0.983189
1.00539 0.999715 0.985175
1.00534 0.996031 0.989102
1.00535 0.994887 0.990721
1.0054 0.994758 0.990569
1.00537 0.994792 0.990475
1.00076 1.00477 0.988176
1.00485 1.00455 0.982472
1.00516 1.00386 0.982522
1.00424 1.00325 0.985212
1.00272 1.00245 0.987878
1.00348 1.00356 0.986547
1.00536 0.994897 0.991497
1.00538 0.994855 0.991216
1.00538 0.99484 0.990716
1.00536 0.99482 0.990508
1.00522 1.00286 0.9836
1.00534 0.994786 0.990337
1.00534 0.998594 0.986765
1.00532 0.995305 0.989437
1.00011 1.00408 0.989756
1.00161 1.00506 0.987818
1.00336 1.00305 0.988058
1.00163 1.00151 0.990498
1.00449 1.00391 0.983999
1.00498 1.00343 0.98354
1.00126 1.00519 0.987618
1.00235 1.00509 0.985599
1.00536 0.994867 0.990805
1.00414 1.00092 0.986623
1.00485 1.00496 0.982346
1.00401 1.00256 0.984987
1.00545 0.994869 0.990377
1.00542 0.994743 0.990503
1.00501 1.0019 0.985056
1.00517 0.998317 0.987555
1.00233 1.00514 0.986158
1.0027 1.00505 0.985703
1.00447 1.00321 0.984356
1.00419 1.00316 0.984736
1.00528 1.00195 0.985311
1.00538 0.994807 0.990612
1.00546 0.995314 0.98974
1.00538 0.994804 0.990284
1.00506 1.00051 0.986091
1.00501 0.999434 0.986916
1.00017 1.00469 0.9884
1.00011 1.0049 0.987762
1.00492 1.00075 0.986251
1.00509 1.00131 0.985847
1.00545 0.994792 0.990506
1.00535 0.994695 0.990446
1.00528 0.997465 0.987897
1.00513 0.999889 0.986213
1.00186 1.0051 0.987667
0.999442 1.00483 0.990804
0.99689 1.00491 0.994567
0.999271 1.0051 0.990476
0.997558 1.00505 0.991748
0.999677 1.0046 0.991017
0.998206 1.00455 0.993435
0.999026 1.00507 0.991561
0.998659 1.00143 0.996077
0.998446 1.00501 0.992499
0.998801 1.0051 0.991248
0.999992 1.00446 0.990739
0.999969 1.00299 0.991993
0.999944 1.00293 0.992062
0.999918 0.999769 0.995923
0.999815 1.00325 0.991876
1.00001 0.99994 0.995686
1.00008 0.99769 0.997382
1.0001 1.00016 0.995368
1.00017 0.997814 0.997126
1.00015 0.998229 0.996655
1.0004 1.00091 0.993365
1.00029 1.00215 0.992227
0.999883 0.998892 0.998374
1.00054 1.00074 0.992494
0.999847 0.999947 0.998185
1.00004 0.999147 0.998247
1.00534 0.994916 0.991033
1.00532 0.994926 0.991451
1.00533 0.994903 0.991172
1.00533 0.994889 0.991496
1.00534 0.994917 0.991608
1.00521 0.994941 0.991818
1.00533 0.994912 0.991633
1.00535 0.994896 0.991567
1.00533 0.994887 0.991422
1.00536 0.994878 0.990876
1.00536 0.994893 0.991586
1.00536 0.994865 0.991515
1.00536 0.994856 0.991159
1.00534 0.994918 0.991536
1.00534 0.994913 0.991394
1.00537 0.994861 0.990925
1.0052 1.00337 0.98319
1.00536 0.999962 0.985063
1.00537 0.995809 0.989143
1.00535 0.994891 0.990736
1.00539 0.994787 0.990491
1.00536 0.994761 0.990637
1.00506 1.00412 0.982494
1.00527 1.00437 0.982043
1.00388 1.0035 0.985033
1.00083 1.0048 0.988487
1.00321 1.00348 0.987567
1.00276 1.00332 0.98615
1.00537 0.994898 0.991515
1.00537 0.994855 0.991188
1.00538 0.994844 0.99073
1.00506 1.00293 0.983596
1.00532 0.998418 0.986641
1.00535 0.995218 0.989611
1.00536 0.994813 0.99048
1.00538 0.994789 0.990329
1.00002 1.0045 0.98998
1.00137 1.00506 0.987736
1.00455 1.00358 0.983757
1.00468 1.00329 0.983693
1.00254 1.0022 0.989307
1.00265 1.00244 0.988168
1.00538 0.99486 0.991434
1.00542 0.994831 0.990857
1.00536 0.994804 0.990532
1.00533 0.994774 0.990285
1.00468 1.00124 0.985788
1.00536 0.994779 0.990311
1.00491 0.997639 0.988189
0.999978 1.00427 0.990674
1.00047 1.00357 0.990802
0.999528 1.00506 0.989358
1.00111 1.00508 0.988257
1.0016 1.00448 0.990357
1.00438 1.00081 0.986065
1.00387 1.00364 0.98533
1.00376 1.00503 0.985256
1.00215 1.00519 0.986229
1.00315 1.00529 0.985415
1.00539 0.994814 0.990612
1.00531 1.00232 0.984325
1.00447 1.0033 0.984132
1.00541 1.00226 0.98503
1.00545 0.995136 0.99001
1.00536 0.994802 0.990606
1.00509 1.00037 0.985995
1.00492 0.9998 0.986603
1.00089 1.00426 0.987979
1.00138 1.00486 0.987164
1.0049 1.00086 0.985908
1.00507 1.00163 0.985666
1.00544 0.994795 0.99051
1.00538 0.994731 0.990458
1.00522 0.997354 0.988007
1.00513 0.999997 0.986251
0.998787 1.00374 0.991922
1.00549 0.994748 0.990908
1.00278 1.00363 0.988648
1.00474 1.00066 0.986191
1.00539 0.994722 0.9907
1.00511 0.9968 0.987849
1.00512 1.00077 0.985876
0.999761 1.00482 0.990406
0.997312 1.00465 0.994695
0.996139 1.00264 0.997273
0.999444 1.00453 0.990939
0.998894 1.00506 0.991609
0.997037 1.00496 0.993812
0.999884 1.00438 0.990721
0.998935 1.00508 0.991353
0.996816 1.00316 0.996564
0.99866 1.00489 0.992306
0.996623 1.00268 0.998231
0.996634 1.00466 0.995329
0.998812 1.00493 0.992225
1.00016 1.00489 0.989866
1.00019 1.00431 0.990329
0.999989 1.0029 0.99201
0.999928 1.00303 0.991973
0.999796 0.999833 0.996078
0.999845 1.00309 0.992037
0.999932 0.99981 0.995937
0.999952 0.997781 0.997578
1.00001 0.999859 0.995732
1.00009 0.997718 0.997362
1.00017 0.997869 0.997088
1.00025 1.00362 0.990902
0.999967 1.00088 0.993935
1.00025 1.00109 0.993324
1.00005 0.998689 0.998535
1.00037 1.00188 0.992155
0.999862 0.999574 0.99827
0.99994 0.9998 0.998259
1.00535 0.994876 0.990924
1.00534 0.99489 0.991363
1.00534 0.994897 0.991561
1.00533 0.994912 0.991633
1.00536 0.994889 0.991596
1.00535 0.994865 0.991503
1.00536 0.994856 0.991101
1.00539 0.994861 0.991466
1.00536 0.994826 0.991513
1.0056 0.994716 0.991405
1.00537 0.9949 0.991532
1.00537 0.994852 0.99116
1.00537 0.994844 0.990744
1.00502 1.00299 0.983594
1.00532 0.998358 0.986528
1.00538 0.995202 0.989776
1.00536 0.99481 0.990452
1.00542 0.994789 0.990319
1.00487 1.00348 0.983511
1.00424 1.00308 0.983802
1.00265 1.00382 0.988122
1.00025 1.00449 0.990207
1.00109 1.00495 0.987648
1.00215 1.00212 0.988282
1.00538 0.994854 0.991428
1.00047 1.00362 0.990655
0.999976 1.00421 0.990697
1.00542 0.994822 0.990857
1.00538 0.994814 0.990555
1.00474 1.00148 0.985594
1.00526 0.997138 0.988462
1.00532 0.994768 0.990297
1.00532 0.994765 0.990225
1.0001 1.00505 0.989441
1.00115 1.00506 0.988155
1.00353 1.00409 0.985074
1.00409 1.00414 0.983836
1.00425 1.00216 0.985856
1.00082 1.00292 0.990941
1.00546 0.994735 0.991363
1.0054 0.995096 0.990481
1.00535 0.994739 0.990528
1.00526 0.994742 0.989887
1.00353 1.0007 0.987725
1.0053 0.995759 0.990016
1.00019 1.00434 0.990251
0.999525 1.00396 0.990848
1.00052 1.00435 0.990689
1.00072 1.00472 0.98888
1.00102 1.00438 0.989566
1.00112 1.001 0.991229
1.00262 1.00278 0.986206
1.0018 1.00254 0.990026
1.00117 1.00483 0.987575
1.00333 1.00505 0.986559
1.00542 0.994799 0.990515
1.0054 0.994767 0.990471
1.005 1.00249 0.98548
1.00484 1.00107 0.985554
1.00516 0.997261 0.988118
1.00513 1.0001 0.986291
0.999269 1.00418 0.991863
1.00549 0.994735 0.991072
1.0017 1.00387 0.989237
1.00462 1.00075 0.986015
1.0054 0.994717 0.990777
1.00515 0.996952 0.988069
1.00511 1.00049 0.985787
0.998188 1.00441 0.994307
1.00501 0.994681 0.990295
1.00162 1.0036 0.988735
1.00416 1.00296 0.984339
1.00497 0.995189 0.991159
1.00395 1.00058 0.986884
0.99867 0.994762 0.981229
0.997508 1.00463 0.994803
0.996946 1.00257 0.997231
0.996006 1.00259 0.998177
0.99987 1.00429 0.990699
0.998591 1.00507 0.991471
0.999362 1.00484 0.992122
0.995602 1.00348 0.997075
1.00018 1.00427 0.990346
0.999739 1.00495 0.990289
0.99598 1.00143 0.999674
0.99842 1.00498 0.992167
0.99709 1.00464 0.994836
0.994921 1.00519 0.997967
0.998193 1.00501 0.993087
0.998806 1.0049 0.992145
1.00029 1.00435 0.990332
1.00001 1.00446 0.990139
1.00024 1.00453 0.990682
1.00003 1.0041 0.990545
0.999865 1.0029 0.992122
0.999918 1.00301 0.991995
0.999689 0.999791 0.995544
0.999948 1.00292 0.991959
0.999792 0.999825 0.995733
0.999965 0.997717 0.999005
0.999927 0.999818 0.995958
0.999981 0.997696 0.997563
1.0001 0.997736 0.997334
0.999969 1.003 0.991853
1.00046 1.00336 0.990968
1.0001 1.00011 0.994592
1.00011 1.00074 0.994396
0.999968 0.998246 0.998711
1.00008 1.00155 0.993282
0.999961 0.998472 0.998514
0.999881 0.999871 0.998119
1.00536 0.994855 0.991043
1.00535 0.994865 0.991492
1.00536 0.994885 0.991605
1.00538 0.994861 0.991467
1.00538 0.994827 0.991445
1.00562 0.994729 0.99141
1.00549 0.994807 0.991484
1.00042 0.994632 0.979831
1.00547 0.99471 0.989752
1.00024 1.00375 0.990749
1.00538 0.994851 0.991421
1.00541 0.994824 0.990857
1.00538 0.994826 0.990578
1.00462 1.00169 0.985385
1.0053 0.996344 0.988714
1.00529 0.994772 0.990262
1.00531 0.994766 0.990163
1.00382 1.00422 0.984881
1.00463 1.00512 0.982492
1.00386 1.00231 0.985628
1.00067 1.00326 0.990638
1.00095 1.00216 0.991502
1.00077 1.00501 0.989503
1.00085 1.00505 0.988059
0.999976 1.00435 0.990593
1.00544 0.994766 0.99138
1.00043 1.00405 0.990263
1.00011 1.00414 0.990844
0.999751 1.00428 0.991164
1.00539 0.99491 0.990507
1.00534 0.994742 0.990489
1.00348 1.00168 0.987747
1.00505 0.995513 0.990004
1.00529 0.994772 0.989913
1.00059 1.00484 0.988936
1.0009 1.00425 0.989967
1.00286 1.00254 0.989191
1.00317 1.00456 0.985543
1.00284 0.99969 0.991514
1.00546 0.994725 0.990942
1.00535 0.994878 0.990544
1.00528 0.994713 0.990379
1.0046 0.997427 0.989429
1.00329 1.00003 0.989103
0.999625 1.00339 0.992379
1.0001 1.00445 0.98957
0.999103 1.00339 0.992747
1.0007 1.00355 0.991364
1.00048 1.00114 0.993572
0.999799 1.00107 0.993425
1.00201 1.00002 0.992489
1.00076 1.00364 0.991742
1.0001 1.00409 0.989832
1.0055 0.994712 0.991225
1.00542 0.994713 0.990837
1.00518 0.997114 0.988289
1.00452 1.00098 0.985841
1.0051 1.00021 0.985708
0.998037 1.00463 0.995275
1.00455 0.994664 0.990416
1.00179 1.00354 0.988539
1.00453 1.00281 0.984195
1.00475 0.995139 0.991381
1.00424 1.00045 0.986935
0.998563 0.994728 0.979534
0.997348 1.0051 0.994258
1.00333 0.994654 0.990415
1.00213 1.00438 0.986159
1.00369 1.00113 0.987016
1.00351 0.997302 0.992227
0.999898 0.994862 0.934532
0.994845 0.994686 0.956973
0.997064 0.994658 0.984577
0.994825 0.996195 0.842038
0.994733 0.999125 0.801617
0.997874 1.00285 0.997195
0.996452 1.00254 0.998368
0.994908 1.00519 0.998478
1.00026 1.00421 0.990371
0.999546 1.00499 0.990716
0.998495 1.00498 0.992097
0.997409 1.00488 0.994319
0.995444 1.00073 1.00108
0.998613 1.00479 0.992506
1.00029 1.00426 0.990138
1.00022 1.00454 0.990221
0.995259 1.00466 0.997911
0.99774 1.00501 0.993484
0.997893 1.00497 0.993959
0.99629 1.00517 0.995801
0.998441 1.00465 0.992969
1.00008 1.00463 0.990002
1.00007 1.00442 0.990091
0.99913 1.00441 0.991394
0.997831 1.00428 0.994363
0.998865 1.00491 0.99203
0.999857 1.00456 0.991046
1.00007 1.00365 0.991115
0.999854 1.00408 0.990497
0.999966 1.00263 0.992348
0.999988 1.00281 0.992139
0.999672 0.999708 0.995676
0.999881 1.00312 0.991978
0.999677 0.999809 0.99555
0.999934 0.997693 0.999044
0.999774 0.999843 0.995398
0.999911 0.99772 0.998332
1.00004 0.997623 0.997544
0.999919 1.00226 0.99276
1.00011 1.00286 0.991885
1.00003 0.999609 0.995237
1.00065 1.00296 0.991029
1.00007 1.00017 0.995009
1 0.997845 0.998861
1.0003 1.00048 0.993849
1 0.998475 0.998632
0.999918 0.998912 0.998486
1.0054 0.994825 0.991377
1.00538 0.994862 0.991468
1.00565 0.994745 0.99144
0.999245 0.994669 0.979578
1.00552 0.994781 0.991485
1.00548 0.994722 0.98984
1.00547 0.994668 0.991295
0.994914 0.994752 0.960189
1.00471 0.994708 0.975537
1.00027 1.0033 0.991142
1.00041 1.00362 0.990751
0.999047 1.00387 0.992486
1.00038 1.00377 0.990549
1.00543 0.99479 0.991396
1.00538 0.994832 0.990535
1.00532 0.994738 0.990451
1.00379 1.00154 0.987777
1.00512 0.995623 0.990038
1.00532 0.994778 0.989963
1.00281 1.00129 0.98829
1.00412 1.00505 0.984888
1.00279 0.997601 0.99185
1.00012 1.0048 0.990849
1.00004 1.00351 0.990403
1.00051 1.00502 0.98899
1.00064 1.0037 0.99027
0.998994 1.0048 0.991744
1.00548 0.994739 0.990919
0.999417 1.00381 0.991824
1.00047 1.00433 0.98977
0.996585 1.00458 0.995317
1.00536 0.994891 0.990534
1.00527 0.994708 0.990353
1.00389 0.998729 0.989285
1.00453 0.997463 0.989435
1.00105 1.00335 0.990713
0.999374 1.00149 0.992941
1.00151 0.999941 0.992557
1.00172 1.00025 0.992447
1.00381 0.996915 0.989656
1.00523 0.99464 0.990871
1.00396 0.998831 0.989596
1.00455 0.998281 0.989486
0.99623 1.00474 0.99606
1.00111 1.0035 0.989682
0.997868 0.999486 0.999389
0.997963 1.0037 0.994078
0.99958 0.997454 0.917209
0.998086 1.0045 0.996293
1.00149 1.00374 0.988333
1.00398 0.994663 0.990583
1.00448 0.995078 0.991592
1.00441 1.00022 0.986956
1.00479 1.00266 0.984038
0.998221 0.994698 0.97751
0.997718 1.00481 0.99457
1.00295 0.994661 0.990362
1.00245 1.00438 0.98614
1.00401 1.00089 0.9872
1.00346 0.997629 0.992138
0.998346 0.99487 0.919958
0.995078 0.994717 0.953745
0.996843 0.995094 0.985024
0.996102 0.995793 0.849179
0.994779 0.997923 0.79911
0.997833 1.00444 0.993729
0.997384 0.994844 0.852988
0.994827 0.997572 0.797968
1.00143 0.994795 0.993945
1.00171 1.00244 0.989755
1.00149 1.00089 0.99247
0.995272 0.995697 0.988307
0.997411 0.994639 0.932012
0.994948 0.994736 0.948081
0.994736 0.997401 0.85696
0.994795 0.995718 0.778005
0.996771 1.00216 0.998569
0.995001 1.00523 0.998265
0.995257 1.00509 0.999266
1.00046 1.00407 0.990129
0.999995 1.0047 0.990104
0.997957 1.00494 0.99287
0.997542 1.00504 0.993882
0.995617 1.00403 0.997867
1.00017 1.00446 0.990052
0.997553 1.00492 0.994243
0.998344 1.00488 0.992533
1.00024 1.00463 0.990008
0.996035 1.00516 0.996208
0.996544 1.00516 0.995459
0.995128 1.00519 0.997315
0.998751 1.00513 0.991512
1.00011 1.00456 0.990061
0.999749 1.0042 0.991308
0.997299 1.00424 0.995023
0.99773 1.00355 0.994501
0.998085 1.00295 0.994896
0.995417 1.0039 0.998818
0.99867 1.00193 0.99441
0.99728 1.00517 0.993282
0.998795 1.00499 0.992008
0.998907 1.00478 0.991336
0.999454 1.0046 0.991413
1.00002 1.00414 0.990997
1.00007 1.00274 0.992284
1.00005 1.0042 0.99044
0.999941 1.00264 0.992378
0.999872 0.999559 0.996279
0.999765 1.00312 0.992157
0.999743 0.999651 0.995971
0.999917 0.997567 0.997843
0.999668 0.999804 0.995547
0.999924 0.99769 0.999056
0.999915 0.997758 0.997654
1.00038 1.00368 0.990768
0.99986 1.00202 0.993065
0.999963 1.00223 0.992749
0.99997 0.99921 0.99571
1.00017 1.00288 0.991921
1.00005 0.999628 0.995212
1 0.997567 0.998987
1.00004 1.00036 0.995312
0.999968 0.997996 0.997994
0.999969 0.998296 0.996821
0.998474 0.994693 0.979294
1.00553 0.994765 0.991487
1.00549 0.994713 0.989915
0.996045 0.99475 0.96002
1.0046 0.994657 0.97562
1.00547 0.994697 0.99141
1.00419 0.994557 0.984487
0.99951 0.994728 0.95763
0.998028 0.995173 0.933579
0.996469 0.994795 0.868792
0.994862 0.999066 0.801817
0.999298 1.00388 0.991724
1.00028 1.0034 0.991187
1.0006 1.00356 0.990749
0.99909 1.00378 0.992629
0.997569 1.00483 0.994067
1.00009 1.00448 0.990695
1.00014 1.00492 0.989714
1.00014 1.00408 0.990613
1.0055 0.99475 0.990891
1.00537 0.994789 0.990522
1.00526 0.994714 0.990326
1.00418 0.998524 0.989457
1.00457 0.99737 0.989422
1.00112 1.00039 0.992617
1.00407 0.99877 0.991477
1.00074 1.0025 0.9923
1.00077 1.00369 0.989923
1.00122 1.00341 0.990007
0.999239 1.00463 0.991272
0.995019 1.00498 0.997546
1.0042 0.995737 0.990072
0.996439 1.00483 0.995744
1.00041 1.00299 0.991517
1.00501 0.994655 0.990841
1.00386 0.999135 0.989515
1.00387 0.998443 0.989812
0.998545 1.00014 0.997252
0.999085 1.00246 0.994334
1.00265 0.996512 0.988039
1.00272 0.999397 0.990714
1.0037 1.00077 0.989486
1.00171 0.998882 0.993372
0.997874 1.00481 0.993886
0.996358 1.00336 0.996585
0.996979 1.00254 0.997227
0.999846 0.999962 0.845882
1.0007 0.994872 0.933774
0.998337 1.00404 0.994883
1.00294 1.00433 0.986139
1.00253 0.994674 0.990296
1.00347 0.997788 0.992071
1.00417 1.00065 0.987428
0.999974 0.994828 0.931855
0.995591 0.994724 0.95314
0.996585 0.995561 0.985731
0.994817 0.996656 0.867995
0.994827 0.996759 0.796215
0.998238 1.00435 0.99381
0.99961 0.99533 0.849966
0.994778 0.996096 0.791993
1.00106 0.995309 0.993739
1.00153 1.00263 0.989797
1.00149 1.00062 0.993407
0.995714 0.996416 0.989405
0.995766 0.994624 0.925242
0.995135 0.99474 0.949248
0.994785 0.997082 0.861639
0.994831 0.996335 0.775108
0.996716 1.00503 0.996863
0.994794 0.994815 0.785359
0.994734 0.994731 0.769228
0.997211 1.00067 0.99674
0.999069 1.00248 0.997104
0.994876 0.998095 0.986785
0.994991 0.99478 0.95466
0.994885 0.994575 0.91459
0.994818 0.996316 0.865267
0.994899 0.994903 0.793875
0.995231 1.00523 0.998077
0.995075 1.00477 0.999507
0.994898 1.00504 0.999264
1.00031 1.00433 0.990007
1.00047 1.00466 0.990016
0.998429 1.00504 0.992098
0.997147 1.00473 0.994524
0.995778 1.00515 0.996616
1.00032 1.00466 0.989973
0.99674 1.00507 0.995046
0.999029 1.00509 0.991534
0.995224 1.00516 0.997447
0.995005 1.00512 0.998163
0.996442 1.00492 0.9954
0.999741 1.00493 0.991534
1.00029 1.00381 0.991229
0.997413 1.0039 0.995664
0.998005 1.00358 0.994463
0.999046 1.00199 0.994707
0.995218 1.00404 0.998234
0.999765 0.999742 0.995086
0.99532 1.00499 0.996237
0.996986 1.00199 0.999515
1.00129 1.00499 0.988591
1.00515 1.00039 0.98772
0.997718 1.00446 0.991728
0.998457 1.00259 0.994489
0.998629 1.00495 0.991267
0.998159 1.00486 0.993406
0.999632 1.00478 0.990716
0.999216 1.00505 0.991983
0.999347 1.00438 0.991463
0.999492 1.00351 0.991876
1.00002 1.00436 0.990871
0.999897 1.00267 0.992323
0.999964 0.999565 0.996067
1.00008 1.00239 0.992406
0.999856 0.999505 0.99595
1.00004 0.997296 0.997789
0.999724 0.999664 0.995671
0.999966 0.99753 0.999086
0.999921 0.997661 0.999069
1.00068 1.00388 0.990438
0.999905 1.00227 0.992814
1.00051 1.00342 0.990774
0.999995 0.999029 0.995875
0.999988 1.00189 0.993047
1.00008 1.00207 0.992736
0.999992 0.999226 0.995693
0.999992 0.997311 0.999084
1.00005 0.999715 0.995883
1.00001 0.997616 0.99821
0.99999 0.99798 0.997288
0.99916 0.997678 0.835392
0.994841 0.99517 0.781712
0.995417 0.99477 0.960984
1.00445 0.994622 0.975936
1.00549 0.994729 0.991514
1.0023 0.994751 0.954493
1.00331 0.994647 0.985261
0.999558 0.99498 0.928896
0.994786 0.995117 0.847882
0.994857 0.997574 0.799722
0.998794 0.994729 0.967549
0.994872 0.994663 0.934643
0.994725 0.996229 0.858697
0.995008 0.997462 0.790988
0.999857 1.00433 0.991958
0.999876 1.00364 0.991497
1.00027 1.00332 0.991243
0.999098 1.00336 0.99279
0.997105 1.0042 0.995148
1.00033 1.00477 0.989632
0.999396 1.00468 0.991169
1.0009 1.00508 0.98844
1.00028 1.00486 0.989643
0.999437 1.00495 0.990691
1.00443 0.994798 0.990458
1.00487 0.994672 0.990808
1.00354 0.999449 0.98943
1.00298 0.998692 0.990141
0.999678 1.00245 0.994579
0.998992 1.0007 0.99518
0.999301 1.00273 0.993595
0.996583 1.00481 0.99542
1.00218 0.995728 0.988738
0.997798 1.00497 0.993662
0.99645 1.00332 0.997112
1.00256 0.999199 0.990806
1.00339 1.00171 0.988377
1.00085 0.999193 0.994173
0.997242 1.00291 0.997373
0.999454 0.995099 0.986904
1.0009 1.00158 0.992845
0.996767 1.00402 0.996281
0.998601 1.00418 0.993431
0.99606 1.00507 0.995562
0.995141 1.00481 0.998045
0.99478 0.994767 0.796528
0.999743 0.995242 0.856866
0.999806 0.997457 0.917492
0.998465 1.00435 0.993869
1.00171 1.00288 0.989782
1.00068 0.99582 0.993516
1.00131 1.0001 0.994351
0.999425 0.998712 0.864848
0.994927 0.994678 0.919092
0.994943 0.99469 0.948257
0.996016 0.997186 0.990259
0.99476 0.996464 0.844691
0.994736 0.995174 0.798179
0.99492 0.997385 0.790414
0.99683 1.00481 0.996552
0.994801 0.994976 0.791226
0.994769 0.994757 0.769003
0.997539 0.998938 0.997408
0.998753 1.00238 0.997001
0.994878 0.997027 0.988516
0.995266 0.994772 0.950987
0.995163 0.994594 0.927696
0.994804 0.996545 0.844476
0.995311 0.994894 0.802358
0.995761 1.00442 1.00067
0.994727 0.99477 0.776885
0.994818 0.994833 0.775362
0.994819 1.00205 1.0005
0.994859 0.996662 0.963202
0.994799 0.994765 0.925802
0.994952 0.994902 0.848618
0.995723 0.994907 0.824234
0.994859 1.00454 0.999737
0.994869 1.00514 0.999592
0.994853 1.00498 1
1.00007 1.00498 0.989887
0.999372 1.00504 0.991556
0.996931 1.00497 0.994635
0.995282 1.00512 0.99758
0.999109 1.00491 0.991507
0.996671 1.00498 0.995281
0.995065 1.00503 0.998233
0.995047 1.00497 0.998794
0.995517 1.00494 0.997906
0.997628 1.00486 0.994263
0.998372 1.00401 0.994409
0.999015 1.00142 0.994548
0.995174 1.00456 0.997726
0.995909 1.00447 0.996566
0.999739 1.00032 0.994784
0.99581 1.0016 0.999839
1.00137 1.00238 0.993025
0.994679 1.00534 0.999332
1.00262 1.00007 0.990675
1.001 1.00391 0.990003
1.00259 1.00248 0.987588
1.00507 1.00047 0.986298
1.00399 1.00126 0.98804
1.00451 1.00011 0.98809
0.999355 1.00412 0.991753
0.998964 1.00517 0.989197
0.998422 1.00351 0.994574
0.999289 1.00484 0.991342
1.00119 1.0048 0.988464
0.998514 1.00457 0.993521
0.999403 1.00494 0.990783
0.999879 1.00403 0.990727
0.999978 1.00431 0.991591
0.999966 1.00328 0.991896
1.00021 1 0.995387
0.999827 1.00283 0.992368
0.999948 0.999724 0.995566
1.00013 0.997446 0.997569
0.999867 0.999453 0.995656
1.00004 0.997347 0.998442
0.999981 0.99747 0.999084
1.00038 1.00473 0.98929
1.00001 1.00265 0.992324
1.00027 1.00426 0.990241
1.00003 0.999155 0.995705
0.999886 1.00225 0.992836
1.00036 1.00351 0.990776
1.00001 0.997264 0.999094
0.999976 0.999068 0.995871
0.999937 1.00203 0.993038
1.00002 0.999216 0.995678
0.999998 0.997386 0.999058
1 0.997636 0.998941
0.994766 0.994827 0.777615
0.99862 0.995576 0.849886
0.994813 0.994779 0.773847
0.994856 0.995255 0.783893
0.999417 0.995074 0.955857
1.00228 0.994712 0.986077
0.999094 0.994734 0.923584
0.995338 0.995213 0.867692
0.994857 0.996001 0.797937
0.998471 0.994771 0.966178
0.996086 0.994651 0.918499
0.994756 0.996622 0.862906
0.994831 0.996637 0.78376
0.994912 0.994775 0.959073
0.994784 0.994642 0.911768
0.994802 0.995994 0.838731
0.994865 0.9949 0.800517
1.00031 1.00431 0.990732
0.998816 1.00443 0.992146
0.999815 1.00397 0.991267
0.996465 1.00363 0.99619
1.00082 1.00418 0.989127
1.00018 1.00484 0.989808
0.998893 1.00461 0.991633
1.0014 1.00503 0.988022
1.00111 1.00506 0.988437
1.00048 1.00465 0.989564
1.00241 0.994711 0.989348
1.00229 0.999086 0.990917
1.00317 1.00276 0.98728
1.00026 0.999192 0.994982
0.997433 1.00405 0.997509
0.996967 1.00263 0.997633
0.998247 1.00504 0.993427
0.999031 1.00328 0.993467
0.999508 0.996195 0.987594
0.997115 1.00504 0.995097
0.996426 1.00333 0.998175
1.0006 1.00116 0.99286
0.997517 1.00308 0.996351
0.996697 0.999339 0.986181
0.996805 1.00296 0.997499
0.994698 1.00555 0.998221
0.996042 1.00438 0.997267
0.995068 1.00479 0.997841
0.99474 0.994759 0.782165
0.994795 0.994721 0.791428
0.999807 1.00038 0.83541
0.996882 1.0045 0.996294
0.998897 1.00222 0.996923
0.998133 0.997881 0.998048
0.99479 0.994817 0.786107
0.994791 0.99459 0.912338
0.994943 0.994761 0.951922
0.994977 0.995599 0.990732
0.994792 0.996575 0.862449
0.99481 0.994777 0.769666
0.996049 0.994884 0.804547
0.996099 1.00432 1.00063
0.994739 0.994793 0.777164
0.994797 0.994832 0.77656
0.994921 1.00257 0.99915
0.994856 0.995659 0.964894
0.995342 0.994772 0.911041
0.995719 0.9949 0.818605
0.995452 0.995828 0.858139
0.994733 1.00482 1.00186
0.994762 0.99483 0.764039
0.994865 0.994847 0.795587
0.994865 0.994891 0.799952
0.994728 1.00009 0.987429
0.994827 0.995623 0.931726
0.997305 0.994878 0.872936
0.99488 1.00521 0.999922
0.995166 1.00469 0.999777
0.994989 1.00494 0.999502
0.998884 1.00469 0.9915
0.996887 1.005 0.995161
0.995101 1.00491 0.998308
0.997034 1.00499 0.994388
0.995381 1.00456 0.998028
0.995063 1.00471 0.998759
0.994959 1.00479 0.999598
0.995278 1.00509 0.997958
0.996092 1.0036 0.996959
0.999738 1.00085 0.994463
0.994753 1.00119 1.00002
0.994751 1.0049 0.999096
0.999602 1.00144 0.993694
1.00076 1.00128 0.994349
0.99993 1.00133 0.994243
1.00343 1.0004 0.988245
1.00067 1.00271 0.991338
1.00288 1.00216 0.987772
1.00487 1.00164 0.985416
1.00508 1.00133 0.985156
1.00501 0.999484 0.987219
1.0049 1.00046 0.986319
1.00276 1.00398 0.987324
1.00312 1.00182 0.988137
1.00381 0.999787 0.988466
1.00082 1.00341 0.991773
1.00021 1.00517 0.988656
1.00204 1.00517 0.986193
0.999838 1.00473 0.991419
1.00124 1.00504 0.988387
1.00085 1.00479 0.988411
0.999855 1.005 0.990831
1.00032 1.0037 0.990667
1.0003 1.00035 0.994927
1.00028 1.00268 0.991908
1.00021 1.00003 0.994922
1.00037 0.997688 0.996935
0.999896 0.999859 0.99523
1.00013 0.997412 0.998346
1.00008 0.997303 0.999056
1.00116 1.00509 0.987795
1.00021 1.00306 0.991188
1.00071 1.0046 0.989298
1.00007 0.999437 0.995358
1.00009 1.00257 0.992097
1.0004 1.00418 0.990045
1.00003 0.99734 0.999047
1.00002 0.99914 0.995721
1.00001 1.00201 0.992853
0.999999 0.997284 0.999097
0.999957 0.999094 0.995868
1 0.997388 0.999032
0.99479 0.994819 0.776046
0.994785 0.995051 0.792413
0.999348 0.995138 0.849319
1.00108 1.00512 0.988076
0.994777 0.994799 0.777743
0.994797 0.994794 0.773797
0.994865 0.995542 0.797199
0.99787 0.994716 0.966133
0.994845 0.994687 0.93345
0.99472 0.997254 0.845769
0.994812 0.995861 0.795561
0.995271 0.994762 0.956305
0.994972 0.994637 0.927167
0.994807 0.996578 0.844686
0.994894 0.994917 0.800917
0.994948 0.994751 0.950044
0.994818 0.994821 0.923068
0.996479 0.994912 0.860952
0.995268 0.994908 0.824586
0.998342 1.00369 0.993705
0.999456 1.00451 0.991261
0.998799 1.0038 0.992336
1.00126 1.00286 0.990196
1.00095 1.00467 0.989103
1.00007 1.00486 0.989983
1.00154 1.00513 0.988014
1.00134 1.00484 0.988435
0.998813 0.997195 0.988156
0.999873 1.00076 0.992811
0.997829 1.00395 0.993494
0.997907 1.00227 0.99635
0.996934 1.00332 0.998269
0.997581 1.0047 0.994564
0.996155 1.00408 0.996314
0.996388 0.999794 0.986257
0.995919 1.00487 0.997618
0.995403 1.00456 0.998225
0.996244 1.00309 0.99765
0.994911 1.00528 0.997007
0.995528 1.00401 0.983284
0.994729 1.00401 0.999046
0.994757 1.00523 0.999047
0.995171 1.0051 0.997595
0.994727 0.994804 0.764302
0.994731 0.994756 0.778558
0.994803 0.994664 0.78607
0.996029 1.00467 1.00057
0.99493 1.00182 0.997751
0.994758 0.994814 0.777322
0.994756 0.994822 0.926825
0.994851 0.995427 0.961085
0.995696 0.994904 0.857379
0.99478 0.994834 0.777527
0.994892 0.994893 0.812777
0.994794 1.00496 1.00168
0.994765 0.994825 0.764569
0.994876 0.994858 0.793303
0.994724 1.00081 0.991053
0.99488 0.994916 0.800247
0.994835 0.996733 0.925303
0.996663 0.996447 0.874226
0.994744 1.00427 0.997124
0.994833 0.994841 0.780867
0.994789 0.994814 0.779713
0.994842 0.997415 0.789429
0.996612 0.994901 0.860826
0.994844 1.00153 0.969277
0.994887 0.995165 0.918203
0.995353 1.00482 0.999585
0.99502 1.00508 0.999538
0.994719 1.00522 0.998115
0.996497 1.0052 0.994488
0.995345 1.00418 0.998153
0.995115 1.0046 0.998774
0.995345 1.00471 0.997865
0.994876 1.00492 0.999459
0.997216 1.00298 0.999712
0.994814 1.00434 0.998875
0.997674 1.00044 0.994483
0.999276 1.0014 0.995119
1.00115 0.99982 0.991803
0.996457 1.00305 0.997356
1.00282 1.00034 0.989008
1.00467 1.00275 0.983894
1.00477 1.00201 0.984846
1.00354 1.00204 0.98785
1.00483 1.00172 0.985064
1.00513 1.00165 0.984838
1.00487 1.00117 0.985696
1.00503 1.00128 0.985212
1.00418 1.00138 0.987613
1.00409 1.00046 0.987129
1.00485 1.00036 0.986354
1.00179 1.00519 0.986253
1.00193 1.00445 0.987269
1.0019 1.0027 0.988212
1.00129 1.0052 0.988122
1.00259 1.00496 0.986168
1.00158 1.00512 0.986411
1.00103 1.00515 0.988312
1.00109 1.00475 0.988394
1.00032 1.00138 0.993001
1.00096 1.00361 0.990643
1.00045 1.00022 0.994022
1.00014 0.997758 0.998709
1.00024 1.00001 0.99457
1.00026 0.997687 0.997911
1.00017 0.997594 0.998894
1.00102 1.00512 0.987787
1.00054 1.00367 0.989992
1.00103 1.00508 0.988066
1.00019 0.999719 0.994904
1.00024 1.00313 0.991061
1.00071 1.00478 0.989301
1.00005 0.997502 0.998967
1.0001 0.999361 0.995383
1.00003 1.00259 0.991873
1.00002 0.997328 0.999063
1.00001 0.999143 0.995738
0.999991 0.997296 0.999101
0.99474 0.994808 0.771918
0.994781 0.994797 0.776408
0.994782 0.995576 0.79098
1.00112 1.0051 0.988306
1.00038 1.00516 0.9883
1.00146 1.00331 0.99082
0.994879 0.99486 0.794294
0.994798 0.994798 0.778922
0.994788 0.994783 0.773924
0.996015 0.994752 0.95691
0.994875 0.994617 0.91312
0.994809 0.997203 0.863587
0.994888 0.994884 0.795508
0.994963 0.994778 0.952456
0.995038 0.994794 0.918712
0.995987 0.994916 0.86158
0.995415 0.994905 0.818818
0.994944 0.994856 0.952016
0.994777 0.995634 0.927141
0.996805 0.9949 0.873121
0.994895 0.994906 0.79634
0.997352 1.00341 0.995231
0.99829 1.00409 0.993691
0.999199 1.00503 0.991788
1.00085 1.00338 0.990085
1.00066 1.00508 0.989083
1.00144 1.00514 0.988001
0.996013 0.999868 0.986682
0.996367 1.00323 0.997839
0.997474 1.0031 0.995416
0.996408 1.0038 0.998111
0.997046 1.00443 0.997426
0.995107 1.00532 0.99709
0.995406 1.00523 0.997245
0.995281 1.00302 0.98332
0.994721 1.00531 0.999137
0.994716 1.0048 0.99748
0.995104 1.00548 0.998123
0.994753 1.00247 0.982226
0.99482 1.005 0.994592
0.994903 1.00334 0.998967
0.99486 0.994854 0.76765
0.994735 0.99481 0.763967
0.99472 0.994755 0.774912
0.994865 1.00491 1.00145
0.994743 1.00171 0.9864
0.994759 0.99482 0.765113
0.994818 0.99676 0.926242
0.996311 0.994881 0.860718
0.99489 0.994852 0.791015
0.994878 0.994875 0.794999
0.994722 1.0044 0.997643
0.994812 0.994843 0.779495
0.994812 0.994795 0.781094
0.99486 1.00219 0.965546
0.994814 0.997026 0.78222
0.995938 0.996059 0.860439
0.994862 0.997375 0.931977
0.994799 1.00515 0.987955
0.994757 0.994812 0.775076
0.994793 0.994785 0.773952
0.994869 1.00023 0.800254
0.994782 0.996572 0.836432
0.994805 0.994905 0.929663
0.994799 1.00176 0.958969
0.995248 1.00485 0.999495
0.994781 1.00515 0.998223
0.99507 1.00509 0.99832
0.995288 1.0043 0.997767
0.994788 1.00494 0.999166
0.996156 1.00251 1.00016
0.998445 1.00263 0.998101
0.998078 1.00106 0.995833
1.00299 0.999414 0.990966
1.0019 1.00426 0.98619
1.00224 1.00051 0.990325
1.00451 1.00283 0.984069
1.0045 1.00285 0.983842
1.00521 0.999626 0.98599
1.00508 1.00139 0.985033
1.00482 1.00203 0.984754
1.00474 1.00197 0.984719
1.00495 1.0028 0.984361
1.00511 1.00147 0.984907
1.0051 1.00088 0.985896
1.00499 1.00149 0.985826
1.00484 1.00115 0.985263
1.00237 1.00266 0.988129
1.00364 1.00104 0.987485
1.00393 1.00108 0.987023
1.0025 1.00521 0.98543
1.00232 1.00517 0.986265
1.00111 1.00434 0.987221
1.00282 1.00488 0.986162
1.00236 1.00515 0.98642
1.00063 1.00227 0.991568
1.00192 1.00455 0.988347
1.00045 1.00131 0.992924
1.00029 0.998284 0.998524
1.00068 1 0.993951
1.00035 0.997846 0.997784
1.00028 0.997616 0.998729
1.0019 1.00515 0.987541
1.00105 1.0041 0.989329
1.0013 1.00514 0.98775
1.00025 1.00019 0.994357
1.00051 1.00376 0.990163
1.00101 1.00506 0.988345
1.00007 0.997608 0.99886
1.00018 0.999686 0.994923
1.00041 1.00315 0.990937
1.00004 0.997433 0.998991
1.00013 0.999299 0.995407
1.00001 0.997334 0.99908
0.994833 0.994844 0.777855
0.994747 0.994827 0.772476
0.994792 0.994778 0.776442
1.00054 1.00488 0.988074
1.00291 1.00227 0.991609
1.00056 1.00518 0.988546
1.00061 1.00517 0.98823
1.00033 1.00201 0.991608
1.00098 1.00257 0.991017
0.998437 1.00185 0.995178
0.994832 0.994838 0.778095
0.994876 0.994859 0.791845
0.994819 0.994823 0.780006
0.994892 0.994903 0.812797
0.995063 0.994761 0.949898
0.994841 0.994834 0.914175
0.995983 0.994957 0.87191
0.995204 0.994861 0.950427
0.994803 0.997327 0.9132
0.99637 0.995544 0.873317
0.995146 0.994897 0.804569
0.99486 0.995759 0.954836
0.994882 0.99852 0.914398
0.994985 0.994905 0.84931
0.994819 0.996272 0.780812
0.995366 1.00523 0.996977
0.997026 1.00371 0.995802
0.99799 1.00422 0.993682
1.00045 1.00444 0.989973
0.995323 1.00227 0.983223
0.994713 1.00525 0.996055
0.995151 1.00541 0.997208
0.996275 1.00529 0.997007
0.994657 1.00534 0.999581
0.995044 1.00546 0.998075
0.995835 1.00384 0.999379
0.994904 1.00238 0.97932
0.994879 1.00529 0.994487
0.995753 1.00285 1.00006
0.996247 1.00066 0.97425
0.994917 1.0041 0.998565
0.994733 0.994829 0.768299
0.994837 0.994856 0.774335
0.994745 0.994831 0.763627
0.994632 1.00491 0.998162
0.994863 1.00158 0.970229
0.994789 0.994844 0.778101
0.994876 0.995158 0.919356
0.995823 0.994917 0.871556
0.994803 0.994822 0.782176
0.994792 0.996441 0.79374
0.994773 1.00501 0.989091
0.994752 0.994827 0.775752
0.994789 0.994809 0.773955
0.994813 1.00204 0.959232
0.994857 0.997819 0.798212
0.994788 0.996882 0.842506
0.994843 0.99523 0.915793
0.995353 1.00404 0.982278
0.994816 0.994824 0.776856
0.994831 0.995255 0.7805
0.994718 0.996452 0.857197
0.994812 0.994887 0.925262
0.994842 0.999022 0.954794
0.994762 1.00503 0.999001
0.994972 1.00487 0.998387
0.99495 1.00516 0.997882
0.994977 1.00197 1.0006
0.996894 1.00263 0.998668
1.0008 1.00158 0.993679
1.00485 0.998959 0.990141
1.00307 1.00452 0.985424
1.0043 1.0018 0.98559
1.0044 1.00268 0.98424
1.00465 1.00279 0.983787
1.00509 1.00107 0.985278
1.0054 0.996919 0.988198
1.00527 0.99941 0.986632
1.00521 0.999831 0.986013
1.00508 1.00181 0.985148
1.00512 1.00119 0.985065
1.00496 1.00195 0.984657
1.0052 1.00421 0.982686
1.00498 1.00273 0.984473
1.00522 1.0015 0.984986
1.00423 1.00231 0.987337
1.00397 1.00177 0.986696
1.00454 1.00214 0.985956
1.00364 1.00296 0.986246
1.00255 1.00263 0.988087
1.00331 1.00162 0.987353
1.00124 1.00228 0.990481
1.00275 1.00516 0.985557
1.00274 1.00513 0.986276
1.0024 1.00512 0.986426
1.00072 1.00213 0.991555
1.00033 0.999033 0.998154
1.00043 1.00134 0.992859
1.0003 0.998393 0.998406
1.00034 0.997687 0.998614
1.00316 1.00462 0.987823
1.00301 1.00521 0.986657
1.00139 1.00472 0.988242
1.00171 1.00479 0.987527
1.00021 1.00092 0.993698
1.00098 1.00425 0.989297
1.00144 1.00516 0.987707
1.00007 0.997975 0.998727
1.00023 1.00017 0.994378
1.00055 1.00387 0.990329
1.00006 0.997667 0.998892
1.00017 0.999693 0.994948
1.00004 0.997408 0.999017
0.994778 0.994846 0.76679
0.994821 0.994834 0.776556
0.994745 0.994822 0.773044
1.00139 1.00511 0.987658
0.999867 1.00222 0.992394
1.00219 1.00147 0.989347
0.998003 1.00463 0.991942
1.00193 0.998423 0.994009
1.00081 1.00516 0.988131
0.999531 1.0028 0.992488
1.00064 1.00334 0.991004
0.998761 1.00052 0.996954
0.999206 1.00275 0.995404
0.994771 0.994745 0.77288
0.994814 0.994844 0.779439
0.994869 0.994843 0.789531
0.995449 0.994881 0.806896
0.996305 0.994903 0.860893
0.995032 0.99487 0.948943
0.994748 0.996176 0.926267
0.994868 0.996626 0.949343
0.994859 0.998323 0.926763
0.995146 0.995626 0.85894
0.994846 0.996548 0.777973
0.994874 0.999335 0.950173
0.994814 0.996379 0.926188
0.994826 0.996476 0.86674
0.99476 0.999559 0.804115
0.998333 1.00031 0.99801
0.99541 1.00501 0.997286
0.997385 1.00318 0.996399
0.994821 1.00224 0.975849
0.994864 1.00531 0.993361
0.995149 1.00542 0.997924
0.994822 1.00421 0.999633
0.995386 1.0037 0.999931
0.994766 1.0026 0.999163
0.994819 1.00223 0.975136
0.995028 1.00193 1.00351
0.994733 1.00044 0.983129
0.994762 0.994776 0.785019
0.994751 0.994841 0.767658
0.994819 0.994848 0.78141
0.994805 1.00491 0.989388
0.994837 0.99974 0.956846
0.994765 0.994831 0.776412
0.99483 0.99491 0.927582
0.994796 0.9974 0.860867
0.994822 0.994789 0.774309
0.994851 0.996155 0.796542
0.995097 1.00426 0.983198
0.994815 0.994804 0.776813
0.994842 0.995826 0.782534
0.994854 0.998317 0.956211
0.994747 0.996912 0.861914
0.995104 0.994808 0.915511
0.994763 1.00253 0.981157
0.994755 0.994829 0.77666
0.995902 0.99506 0.86868
0.994797 0.994636 0.911321
0.994957 0.994925 0.955304
0.994963 1.00484 0.998482
0.994865 1.00516 0.997652
0.997959 1.00001 0.996719
0.995501 1.00263 0.999215
0.999751 1.00181 0.994529
1.00429 0.995913 0.992718
1.00418 1.00495 0.984638
1.00417 1.00173 0.985564
1.00505 0.997328 0.988561
1.00462 1.0029 0.983734
1.00498 1.00074 0.985322
1.00528 0.997195 0.988412
1.00544 0.99481 0.990339
1.00543 0.996586 0.988222
1.00539 0.996846 0.988241
1.0054 0.999218 0.98679
1.00527 0.999416 0.986582
1.00518 0.999964 0.986038
1.00537 1.00272 0.98367
1.00504 1.00163 0.985014
1.00506 1.00094 0.985097
1.00528 1.00509 0.983073
1.00423 1.00414 0.983425
1.00498 1.00243 0.984586
1.00244 1.0038 0.987605
1.00304 1.00252 0.987227
1.00278 1.00222 0.987498
1.00196 1.00306 0.990568
1.0031 1.0033 0.986362
1.00264 1.0026 0.988041
1.0006 1.00012 0.994644
1.00143 1.00268 0.990708
1.00302 1.00518 0.985697
1.00096 1.00211 0.991519
1.00043 0.999201 0.998032
1.00035 0.998781 0.998282
1.00209 1.00196 0.987441
1.00298 1.0051 0.986259
1.00081 1.00452 0.988052
1.00138 1.00516 0.987786
1.00188 1.00518 0.986688
0.999985 1.00158 0.993235
1.00122 1.00478 0.988242
1.0016 1.00517 0.987505
1.00004 0.998371 0.998578
1.0002 1.00077 0.993754
1.00076 1.00428 0.989268
1.00006 0.997856 0.998768
1.00024 1.00006 0.994397
1.00005 0.997574 0.998924
0.994759 0.994824 0.782945
0.994783 0.99484 0.767429
0.994797 0.994855 0.775014
1.00276 1.00452 0.985582
1.00087 1.00503 0.987286
0.998401 1.00263 0.993433
0.999899 1.00501 0.991197
1.00336 1.00043 0.989013
1.00024 0.99782 0.997125
1.00342 1.00038 0.989559
0.995301 1.00519 0.995783
0.999805 1.00377 0.990931
0.998488 0.997468 0.998609
0.99733 1.00323 0.995523
0.997664 1.00251 0.996057
0.994839 0.997931 0.799291
0.994794 0.994768 0.772587
0.994799 0.994851 0.780449
0.994966 0.99739 0.793022
0.995353 0.994897 0.857737
0.994855 0.998518 0.91481
0.995105 0.995417 0.950265
0.995537 0.999004 0.951213
0.994803 0.998266 0.801624
0.994836 0.996511 0.917515
0.99482 0.996812 0.846017
0.994846 0.996767 0.958159
0.994785 0.994816 0.927844
0.994731 0.997351 0.859288
0.999104 0.996362 1.00263
0.998185 1.00033 0.997924
0.994914 1.00545 0.997572
0.99497 1.00251 0.975618
0.995551 1.00128 0.999758
0.99571 1.00294 0.999924
0.995773 0.999847 1.00388
0.994915 0.999715 0.983301
0.995479 0.996827 0.995208
0.994758 0.99474 0.792655
0.994758 0.994793 0.784128
0.99478 0.994832 0.766697
0.99476 1.0048 0.983232
0.994826 0.999777 0.955755
0.994796 0.994805 0.777069
0.994827 0.994824 0.912459
0.994712 0.99729 0.844574
0.99485 0.99658 0.795971
0.994794 1.00441 0.980884
0.994775 0.995055 0.791773
0.994785 0.995184 0.847236
0.995135 0.994842 0.949538
0.995037 0.994634 0.926692
0.995839 0.998279 0.987865
0.998956 0.998613 0.83485
0.994877 0.994677 0.93488
0.994949 0.994731 0.947414
0.994807 1.00514 0.997484
0.997647 1.00179 0.996384
1.00119 0.997421 0.993926
0.998643 1.00255 0.995382
1.00339 0.996952 0.992503
1.0049 0.99473 0.992132
1.00413 1.00159 0.985541
1.00505 0.997197 0.988434
1.00521 0.99526 0.990252
1.00484 1.0003 0.985368
1.00519 0.997043 0.98834
1.00538 0.994716 0.99044
1.00535 0.994741 0.991054
1.00543 0.99487 0.990297
1.00543 0.994831 0.990325
1.00551 0.996346 0.988409
1.00544 0.996518 0.988396
1.00539 0.996784 0.988284
1.00553 0.999422 0.986041
1.00538 0.999067 0.986661
1.00526 0.999447 0.986529
1.00545 1.00347 0.982016
1.00539 1.00271 0.983588
1.00501 1.00147 0.984879
1.00353 1.00296 0.986105
1.00416 1.00496 0.983062
1.00347 1.00418 0.984175
1.00194 1.00321 0.988344
1.00292 1.00282 0.987463
1.00188 1.00265 0.987098
1.00014 1.00224 0.997056
1.00192 1.00333 0.988582
1.00338 1.0027 0.986446
1.00055 0.999621 0.997692
1.00154 1.00263 0.989964
1.0005 0.999127 0.997908
1.00467 1.00357 0.984887
1.00357 1.0019 0.987133
1.00236 1.0043 0.986614
1.00171 1.00521 0.987719
1.00253 1.00506 0.986261
1.00065 1.00474 0.988269
1.00013 1.00206 0.992738
1.00127 1.00518 0.987805
1.00193 1.00444 0.986716
1.00003 0.99898 0.998478
0.999971 1.0017 0.993231
1.00113 1.00496 0.988239
1.00002 0.998386 0.998625
1.00018 1.00087 0.993797
1.00004 0.99788 0.998807
0.994777 0.99482 0.784564
0.994767 0.994813 0.783113
0.994786 0.994832 0.768184
1.00273 1.00444 0.985886
1.00461 1.00282 0.986203
1.00143 1.00464 0.987702
0.999644 1.00505 0.990422
1.00457 1.00028 0.988709
0.996476 0.998226 0.999909
0.997807 1.00208 0.995566
1.00168 1.00124 0.991152
1.00083 1.00054 0.993123
0.998629 1.00164 0.995496
0.997356 1.00314 0.995622
0.998746 1.00251 0.996035
0.995312 0.99627 0.842519
0.994792 0.996258 0.79374
0.99482 0.994786 0.773148
0.994845 0.996764 0.798687
0.994793 0.996972 0.864076
0.994844 0.995892 0.915064
0.99483 0.999739 0.950147
0.994904 0.997569 0.954318
0.99479 0.997318 0.862763
0.994967 0.994793 0.913467
0.994918 0.995042 0.960195
0.994902 0.994566 0.91492
0.998408 0.995747 1.00586
0.999086 0.996245 1.00237
0.99797 1.00035 0.997896
0.99482 0.999804 0.983595
0.995986 0.999238 1.00418
0.995422 0.997001 0.994738
0.99501 0.99496 0.992146
0.999438 0.999975 0.845281
0.994784 0.994707 0.788867
0.994754 0.994817 0.782991
0.994832 1.00423 0.981413
0.995019 0.994863 0.949441
0.994775 0.995239 0.79001
0.994889 0.994608 0.913563
0.995383 0.99593 0.867156
0.995678 0.998287 0.984197
0.998628 0.995196 0.850079
0.995847 0.994644 0.918864
0.995071 0.994767 0.949013
0.997143 0.996514 0.983616
0.998075 0.994867 0.933991
0.994914 0.994758 0.957294
0.997257 1.00254 0.99607
1.00066 0.996848 0.993829
1.0035 0.99632 0.992702
1.00258 0.99748 0.992298
1.00458 0.994766 0.992062
1.00507 0.994602 0.991432
1.00507 0.997128 0.988309
1.00521 0.995332 0.990114
1.00535 0.994673 0.990476
1.00509 0.996885 0.988265
1.00539 0.99472 0.990391
1.00535 0.994811 0.99068
1.00537 0.994854 0.990761
1.00534 0.994742 0.991031
1.00537 0.994782 0.991034
1.00536 0.994983 0.990598
1.00544 0.994943 0.990417
1.00543 0.994845 0.990312
1.0055 0.996746 0.988361
1.0055 0.996304 0.98842
1.00544 0.996435 0.988571
1.00555 1.00095 0.984342
1.00556 0.999462 0.986041
1.00537 0.998954 0.986537
1.00525 1.00284 0.982991
1.00549 1.00365 0.982213
1.00543 1.00272 0.983503
1.00208 1.00411 0.98704
1.00337 1.00361 0.986033
1.00318 1.00494 0.983068
1.00113 1.00112 0.996836
1.00207 1.00323 0.988386
1.00273 1.00276 0.987333
1.00064 1.00133 0.995228
1.00184 1.00298 0.988904
1.00073 1.00054 0.997313
1.00484 1.00412 0.98268
1.00373 1.00394 0.984848
1.00323 1.00282 0.986046
1.00413 1.00234 0.986829
1.00294 1.00414 0.986686
1.00193 1.00518 0.987299
1.00079 1.00239 0.991624
1.00142 1.00521 0.987644
1.0013 1.00504 0.986275
1.00012 0.998848 0.998254
1.00004 1.00207 0.992722
1.0013 1.00519 0.987825
0.999965 0.99867 0.9985
1.00003 1.00149 0.993262
0.999996 0.998201 0.99867
0.997385 0.994852 0.852002
0.994793 0.995042 0.789949
0.994774 0.994808 0.783426
1.00274 1.00397 0.986196
1.00176 1.00483 0.987557
1.00444 1.00234 0.985592
1.00501 0.998769 0.987966
1.00294 0.999791 0.99069
0.999885 1.00232 0.995377
1.0019 1.00029 0.992722
1.00148 1.00046 0.993231
1.00472 0.996458 0.991021
1.00182 0.999035 0.993743
1.00221 0.998889 0.993565
1.00025 0.99983 0.995562
0.999248 1.00212 0.996095
0.997434 0.994651 0.930046
0.996333 0.996011 0.848927
0.994755 0.995232 0.799405
0.994753 0.996988 0.846661
0.99479 0.994812 0.924722
0.995101 0.997463 0.957514
0.994988 0.99516 0.962362
0.994916 0.994615 0.929734
0.995616 0.994777 0.95819
0.997218 0.995635 1.00515
0.997496 0.996521 1.00599
0.999327 0.996029 1.00208
0.995218 0.996858 0.99448
0.996345 0.994731 0.993685
0.99961 0.99745 0.917109
0.99974 0.99565 0.85543
0.994806 0.994673 0.784973
0.995588 0.99737 0.980006
0.994927 0.994739 0.947875
0.999101 0.994889 0.849274
0.994852 0.994666 0.933707
0.997337 0.995163 0.983773
0.999453 0.994831 0.929177
0.99531 0.994763 0.95446
0.999805 0.994619 0.983146
0.998071 0.994769 0.966709
1.00022 0.997276 0.993696
1.00254 0.995492 0.992771
1.00483 0.994713 0.991991
1.00419 0.994804 0.991986
1.00501 0.994619 0.991329
1.00532 0.994701 0.990672
1.0052 0.995411 0.989975
1.00534 0.994693 0.990436
1.00538 0.994809 0.990408
1.0054 0.99472 0.990343
1.00535 0.9948 0.990688
1.00539 0.994832 0.990514
1.00536 0.994855 0.990735
1.00538 0.994846 0.990749
1.00533 0.994741 0.991008
1.00537 0.994768 0.991038
1.00533 0.994833 0.991025
1.00536 0.995522 0.99026
1.00537 0.995048 0.990597
1.00544 0.99503 0.990536
1.00547 0.999496 0.986024
1.00552 0.996814 0.988265
1.00549 0.996243 0.988429
1.00536 1.00439 0.981802
1.00551 1.00126 0.984423
1.0056 0.999484 0.98604
1.00323 1.00373 0.985649
1.00478 1.00356 0.983108
1.00552 1.00377 0.98241
1.00127 1.00142 0.996508
1.00247 1.00381 0.986925
1.00312 1.00416 0.985976
1.00112 1.00098 0.996784
1.00238 1.00314 0.988433
1.00103 1.00076 0.996953
1.00511 1.00246 0.985025
1.00492 1.00466 0.982837
1.00329 1.00515 0.98282
1.0035 1.00388 0.984793
1.00274 1.00411 0.985602
1.00221 1.00436 0.985831
1.00255 1.00359 0.986735
1.00163 1.00512 0.98718
1.00159 1.00309 0.989691
1.00025 0.99996 0.997769
1.00044 1.00265 0.991604
1.00103 1.0052 0.987574
1.00001 0.999298 0.998345
0.999755 1.00248 0.992655
0.999939 0.998732 0.998533
0.999955 0.994826 0.934387
0.999803 0.996218 0.848351
0.994789 0.994778 0.784088
1.00147 1.00505 0.987412
1.00439 1.00257 0.984979
1.00341 1.00003 0.989898
1.00496 0.999172 0.987536
1.00518 0.996963 0.988977
1.00498 0.995824 0.990524
1.00241 0.998681 0.993295
1.00491 0.996608 0.990329
1.00206 0.999462 0.993484
1.0044 0.998438 0.989942
1.00239 0.999857 0.991471
1.00256 0.99854 0.994134
1.0021 0.999684 0.993824
1.0011 0.999209 0.995619
0.994936 0.99475 0.957811
0.996294 0.994631 0.924844
0.994832 0.996789 0.867152
0.99481 0.994584 0.913843
0.994848 0.995664 0.963234
0.995707 0.994802 0.964858
0.998561 0.99472 0.989762
0.998501 0.995093 1.00366
0.996762 0.997187 1.00612
0.997391 0.994739 0.995247
0.999282 0.994704 0.957158
1.0009 0.994858 0.933592
0.999406 1.00126 0.833871
0.997398 0.994725 0.984203
0.995825 0.994763 0.954748
0.998523 0.994748 0.923976
0.999729 0.994668 0.983782
0.997693 0.99478 0.965365
1.00174 0.996305 0.987065
1.00387 0.994656 0.983808
1.00139 0.994694 0.992857
1.00411 0.994685 0.992138
1.00525 0.994831 0.990751
1.00493 0.994621 0.991228
1.00532 0.99469 0.990647
1.00541 0.994786 0.990444
1.00532 0.994709 0.990395
1.00538 0.994806 0.990419
1.0054 0.994827 0.990518
1.00536 0.994791 0.990695
1.0054 0.994834 0.990534
1.00539 0.994863 0.990686
1.00535 0.994854 0.99071
1.00539 0.994848 0.990738
1.00535 0.994855 0.990922
1.00537 0.994754 0.991042
1.00533 0.994817 0.99103
1.00536 0.995366 0.990553
1.0054 0.997816 0.987864
1.00537 0.995776 0.989932
1.00539 0.99512 0.990595
1.00538 1.00272 0.982933
1.00546 0.999629 0.986028
1.00554 0.996889 0.988171
1.00362 1.00321 0.985528
1.00504 1.00438 0.981838
1.00545 1.00162 0.984513
1.00208 1.00201 0.995681
1.00318 1.0038 0.985513
1.00419 1.00437 0.983223
1.00163 1.00171 0.99611
1.00283 1.00353 0.986805
1.0013 1.00095 0.996568
1.00541 0.999524 0.986194
1.00497 1.00249 0.984631
1.00531 1.00376 0.982806
1.00484 1.00377 0.982987
1.0047 1.00457 0.982566
1.00354 1.00469 0.983896
1.00377 1.00518 0.98518
1.00323 1.00435 0.985924
1.00217 1.00368 0.987594
1.00187 1.00499 0.987096
1.00117 1.00329 0.989707
1.00051 1.00114 0.997029
1.00013 0.999579 0.997964
1.00022 1.0026 0.991607
0.999906 0.999017 0.998404
0.994936 0.994789 0.962198
0.998433 0.995034 0.917652
0.999527 0.999495 0.86391
1.00539 0.995599 0.989643
1.00404 1.00006 0.98912
1.00499 0.999256 0.98711
1.00515 0.996093 0.990479
1.0053 0.996843 0.989056
1.00535 0.995611 0.990001
1.00495 0.996667 0.989657
1.00152 0.999461 0.993268
1.00449 0.997488 0.989987
1.00228 0.99997 0.990879
1.00344 0.999031 0.990181
1.00351 0.994522 0.994555
1.00159 0.998226 0.994633
1.00164 0.999808 0.994097
0.997795 0.994705 0.987931
0.995259 0.994739 0.955949
0.995428 0.994674 0.919243
0.995093 0.994776 0.966011
0.998557 0.994695 0.991851
0.99936 0.994717 1.00215
1.00444 0.994639 0.974858
1.00101 0.994783 0.954308
0.999837 0.997441 0.917511
0.999315 0.994723 0.984365
0.996582 0.994763 0.965172
1.00133 0.995566 0.98784
1.00263 0.994658 0.984417
1.00314 0.996416 0.990136
1.00548 0.994524 0.990638
1.00356 0.994686 0.992283
1.00526 0.99481 0.990728
1.00543 0.994939 0.990494
1.00533 0.994693 0.990624
1.00541 0.9948 0.990457
1.00541 0.994844 0.990632
1.00539 0.994804 0.990431
1.0054 0.994829 0.990504
1.00539 0.994871 0.990779
1.0054 0.994836 0.990554
1.00539 0.994864 0.990681
1.00534 0.994891 0.990919
1.00539 0.99485 0.990728
1.00535 0.994854 0.990893
1.00533 0.994855 0.991092
1.00533 0.994801 0.991035
1.00535 0.995144 0.990725
1.0054 0.997023 0.988987
1.00537 1.00148 0.984518
1.00542 0.998131 0.987568
1.00538 0.996015 0.989604
1.00376 1.00221 0.986255
1.0054 1.00285 0.982933
1.00547 0.999749 0.986027
1.00275 1.00163 0.995541
1.00359 1.00315 0.985521
1.00491 1.00449 0.981865
1.00225 1.00203 0.995602
1.00313 1.0038 0.985387
1.00182 1.00204 0.995826
1.00549 0.997088 0.988089
1.00536 0.999606 0.986226
1.00558 1.00196 0.983972
1.00479 1.00303 0.984246
1.00514 1.00407 0.982668
1.00448 1.00446 0.982522
1.00528 1.00496 0.982318
1.00372 1.00455 0.983928
1.00259 1.0041 0.986391
1.00288 1.00457 0.985924
1.00207 1.00402 0.987654
1.00088 1.00241 0.996369
1.00094 1.00365 0.989721
1.00023 1.00102 0.99732
0.999994 0.999791 0.998136
0.998552 0.994667 0.985407
0.996399 0.994772 0.956437
0.999984 0.994839 0.933949
1.0054 0.994915 0.990082
1.00539 0.994814 0.990398
1.00541 0.995417 0.98976
1.00521 0.996464 0.990425
1.00538 0.996625 0.989141
1.00533 0.99576 0.990004
1.00538 0.995086 0.990033
1.00472 0.996693 0.990023
1.00308 1.00069 0.99029
1.00367 0.998301 0.990532
1.00524 0.994694 0.99128
1.00355 0.99479 0.993049
1.00256 0.994598 0.994514
1.0015 0.997939 0.995141
0.998781 0.994669 0.987754
0.995864 0.994776 0.955139
0.999446 0.994682 0.994071
1.00532 0.994646 0.989234
1.00439 0.994625 0.974819
0.999242 0.994791 0.955599
1.00153 0.994786 0.988496
1.00136 0.994659 0.985058
1.0036 0.995623 0.990458
1.00538 0.994544 0.990858
1.00552 0.994721 0.990964
1.00555 0.994634 0.991418
1.00526 0.994783 0.990706
1.00543 0.994893 0.990513
1.00543 0.994842 0.990946
1.00541 0.994809 0.990469
1.00541 0.994841 0.990641
1.00537 0.994863 0.990947
1.00541 0.994829 0.990491
1.00539 0.994872 0.990782
1.00534 0.994908 0.991008
1.00539 0.994866 0.990676
1.00534 0.994891 0.990915
1.00523 0.994893 0.991295
1.00535 0.994854 0.990863
1.00534 0.994859 0.991044
1.00538 0.996065 0.989985
1.00535 0.994928 0.990897
1.0054 0.996894 0.98906
1.00534 1.00053 0.985618
1.00383 1.00134 0.987082
1.00535 1.00146 0.984549
1.00543 0.998459 0.987272
1.00301 1.00093 0.995596
1.00375 1.00218 0.98633
1.00543 1.00289 0.982932
1.00276 1.00157 0.995523
1.00354 1.00319 0.985514
1.00239 1.00216 0.995522
1.00538 0.995364 0.989925
1.00547 0.996974 0.988336
1.00545 1.00012 0.985787
1.00534 0.999699 0.986258
1.00554 1.0019 0.983893
1.00506 1.00429 0.982006
1.00541 1.00406 0.982527
1.00469 1.00455 0.982473
1.00266 1.00418 0.985823
1.0046 1.00413 0.984011
1.00249 1.00411 0.986474
1.0012 1.00277 0.99603
1.00171 1.0043 0.987717
1.00066 1.00217 0.996592
1.00013 1.00052 0.997584
1.00376 0.994718 0.992063
0.998018 0.994723 0.982749
0.995802 0.994769 0.958257
1.00542 0.994782 0.990258
1.00538 0.994987 0.990119
1.00532 0.994835 0.990789
1.00539 0.994898 0.990372
1.00542 0.995291 0.989868
1.00542 0.994753 0.990498
1.00531 0.995831 0.990001
1.00536 0.994992 0.990056
1.00532 0.994725 0.990929
1.00372 0.997513 0.990883
1.00525 0.994654 0.990891
1.00292 0.994804 0.993246
1.00133 0.99463 0.994501
0.999463 0.994634 0.987377
1.00547 0.994703 0.99164
1.00534 0.994594 0.98927
1.00416 0.994642 0.974877
1.00387 0.99487 0.990742
1.00542 0.994561 0.991067
1.00547 0.994724 0.990886
1.00561 0.994633 0.991563
1.00548 0.994766 0.991466
1.00543 0.994835 0.990534
1.00543 0.994834 0.990944
1.00537 0.994854 0.991253
1.00542 0.994839 0.99065
1.00537 0.994864 0.990945
1.00535 0.994906 0.991162
1.00538 0.994873 0.990784
1.00533 0.994908 0.991011
1.00518 0.994941 0.991446
1.00534 0.994892 0.990911
1.00525 0.994894 0.991272
1.00535 0.995375 0.990886
1.00535 0.994862 0.990995
1.00536 0.996111 0.989966
1.00534 0.999801 0.986443
1.00541 0.996765 0.989132
1.00534 1.00051 0.985651
1.00368 1.00112 0.989582
1.00339 0.999912 0.991766
1.00384 1.00136 0.988109
1.00534 1.00143 0.984577
1.00293 1.00086 0.995686
1.00372 1.00206 0.986404
1.00276 1.00153 0.995556
1.00532 0.994894 0.991034
1.00539 0.994838 0.990704
1.00539 0.995391 0.990083
1.00539 0.998301 0.987526
1.00546 0.996812 0.988584
1.00544 0.999979 0.985747
1.00529 1.00349 0.982509
1.00552 1.00195 0.98381
1.00522 1.00417 0.981954
1.00316 1.00365 0.985572
1.00479 1.00484 0.982421
1.00288 1.00409 0.985864
1.00187 1.0027 0.995692
1.00264 1.00406 0.986565
1.00119 1.00256 0.996159
1.00024 1.00208 0.99686
1.0054 0.994767 0.991424
1.00325 0.994774 0.991556
0.997991 0.994758 0.980066
1.00533 0.994853 0.990752
1.00542 0.994798 0.990215
1.00536 0.994964 0.990166
1.00532 0.994839 0.990835
1.00539 0.994948 0.990346
1.00538 0.994793 0.991017
1.00538 0.994741 0.99046
1.00532 0.995004 0.990077
1.0053 0.994706 0.99098
1.00522 0.99466 0.990499
1.00239 0.994549 0.99337
1.00543 0.994788 0.991496
1.00547 0.994698 0.991637
1.00536 0.994563 0.98931
1.00544 0.994718 0.9908
1.00567 0.994624 0.991707
1.00549 0.994765 0.99144
1.00538 0.994863 0.991516
1.00542 0.99483 0.990941
1.00537 0.99486 0.991211
1.00534 0.994903 0.991367
1.00537 0.994865 0.990943
1.00534 0.994906 0.991167
1.0052 0.994947 0.99153
1.00533 0.994908 0.991015
1.00519 0.99494 0.991437
1.00531 0.995034 0.991454
1.00528 0.994895 0.991248
1.00531 0.995432 0.990873
1.00536 0.999197 0.987095
1.00534 0.996154 0.989947
1.00533 0.999792 0.986472
1.00368 1.00078 0.989862
1.00533 1.00048 0.985687
1.00396 1.00092 0.989418
1.0032 0.999702 0.991997
1.00291 1.00027 0.993923
1.00407 1.00135 0.988906
1.00287 1.00074 0.995759
1.00529 0.994904 0.991048
1.00532 0.994904 0.991112
1.00531 0.994909 0.991078
1.00534 0.996765 0.989144
1.00537 0.994843 0.990785
1.00538 0.995461 0.99024
1.00537 0.998187 0.987551
1.00533 1.00195 0.984002
1.00542 0.999829 0.985711
1.00525 1.0036 0.982488
1.00355 1.00261 0.986194
1.00542 1.00402 0.981909
1.00318 1.00363 0.9856
1.00242 1.00211 0.995561
1.00292 1.0039 0.985914
1.00168 1.00248 0.995839
1.001 1.00262 0.99626
1.00539 0.99481 0.991273
1.00536 0.994774 0.991472
1.00222 0.995087 0.991092
1.00532 0.994862 0.991063
1.00533 0.99484 0.990711
1.00543 0.994813 0.990177
1.00531 0.994847 0.99088
1.00539 0.994801 0.990968
1.00535 0.994729 0.990422
1.00528 0.994688 0.991026
1.00538 0.994853 0.991528
1.00542 0.994795 0.991478
1.00547 0.994698 0.991632
1.00534 0.994882 0.991583
1.00551 0.994762 0.991415
1.00538 0.994862 0.991506
1.00534 0.994904 0.991521
1.00537 0.994863 0.991169
1.00534 0.994904 0.991371
1.00522 0.994928 0.991635
1.00534 0.994905 0.991171
1.0052 0.994947 0.991536
1.0053 0.994941 0.991691
1.0052 0.99494 0.991429
1.00529 0.99506 0.991435
1.00538 0.998666 0.987709
1.00526 0.99549 0.99086
1.00538 0.999191 0.987107
1.00364 1.00054 0.990115
1.00533 0.999778 0.986503
1.00394 1.00064 0.989674
1.00308 0.999764 0.992081
1.00423 1.00072 0.989261
1.00261 0.999884 0.992435
1.00204 1.00066 0.996537
1.00527 0.994927 0.99115
1.00516 0.99492 0.991396
1.00529 0.994909 0.991074
1.00529 0.996514 0.989632
1.00531 0.994889 0.991117
1.0053 0.994923 0.991123
1.00532 1.0005 0.985619
1.00537 0.996651 0.989179
1.00537 0.994842 0.990866
1.00536 0.998046 0.987575
1.00533 1.00205 0.983971
1.00366 1.00163 0.987126
1.00537 1.00371 0.982456
1.00355 1.00259 0.986158
1.00259 1.00127 0.995738
1.00325 1.00364 0.985611
1.00234 1.0021 0.995596
1.00169 1.00236 0.995997
1.00533 0.99487 0.991403
1.00539 0.994807 0.991217
1.00532 0.99478 0.991523
1.00531 0.994867 0.991073
1.00533 0.994826 0.990672
1.00541 0.994811 0.99092
1.00534 0.994889 0.991594
1.00538 0.994856 0.991539
1.00541 0.9948 0.991459
1.00534 0.994885 0.991607
1.00533 0.994915 0.991625
1.00537 0.994863 0.991496
1.00534 0.994904 0.991537
1.00522 0.994921 0.991707
1.00535 0.994905 0.991376
1.00522 0.994929 0.991643
1.00533 0.994945 0.991737
1.0052 0.994946 0.991541
1.00531 0.994939 0.991675
1.00536 0.998202 0.988289
1.00528 0.995084 0.991415
1.0054 0.998659 0.987709
1.00349 1.0004 0.990445
1.0054 0.999186 0.98712
1.00387 1.00045 0.989929
1.00287 0.999878 0.992223
1.00418 1.00051 0.989493
1.00255 0.999851 0.992535
1.00204 1.0001 0.992859
1.00528 0.994911 0.991384
1.00513 0.99496 0.991502
1.00528 0.994918 0.991122
1.00527 0.995941 0.990375
1.00516 0.99493 0.991396
1.00529 0.994916 0.991099
1.00532 0.999667 0.986605
1.00531 0.996123 0.990006
1.00529 0.994878 0.991122
1.0037 1.001 0.987716
1.00531 1.00057 0.985575
1.00538 0.996612 0.989215
1.00533 1.00211 0.983938
1.00365 1.00162 0.987056
1.0026 1.0007 0.995905
1.00352 1.00262 0.986126
1.00264 1.00138 0.995661
1.0022 1.002 0.995672
1.00532 0.994903 0.991562
1.00532 0.994868 0.991362
1.0054 0.994806 0.991162
1.0053 0.994872 0.991082
1.00531 0.994927 0.991635
1.00534 0.994888 0.991599
1.00539 0.994861 0.991549
1.00534 0.994887 0.991632
1.00533 0.994914 0.991635
1.00521 0.994934 0.991859
1.00534 0.994905 0.991553
1.00522 0.994923 0.991757
1.00534 0.994949 0.991689
1.00521 0.99493 0.991651
1.00532 0.994946 0.99173
1.00533 0.997861 0.988705
1.00531 0.994937 0.991659
1.00537 0.998194 0.988276
1.00348 1.00026 0.988922
1.00542 0.998657 0.987708
1.00371 1.00035 0.989379
1.00237 0.99997 0.996126
1.00409 1.00037 0.989744
1.0024 0.999913 0.992665
1.00205 0.999918 0.99297
1.00529 0.994923 0.99152
1.00512 0.994942 0.991618
1.00528 0.994917 0.991419
1.00526 0.995034 0.991435
1.00513 0.994956 0.991514
1.00528 0.994911 0.991095
1.00539 0.998343 0.987935
1.00528 0.995924 0.990368
1.00515 0.994937 0.991396
1.00376 1.00061 0.988055
1.00531 0.999282 0.986985
1.00534 0.995668 0.990379
1.0026 1.00032 0.995996
1.00371 1.00099 0.98767
1.0053 1.00062 0.985532
1.00366 1.00163 0.986992
1.00268 1.00075 0.995854
1.00271 1.00142 0.995598
1.0053 0.994935 0.991545
1.00532 0.994906 0.991554
1.00532 0.994865 0.99132
1.00517 0.994946 0.991951
1.00531 0.994924 0.991619
1.00535 0.994889 0.991604
1.00532 0.994913 0.991645
1.00521 0.994933 0.991861
1.00533 0.995382 0.991209
1.00522 0.994926 0.991808
1.00533 0.99519 0.991454
1.00533 0.997215 0.989437
1.00532 0.994947 0.991723
1.00534 0.997838 0.988693
1.00341 1.00001 0.989277
1.00538 0.998183 0.988265
1.0035 1.00022 0.98894
1.00225 1.00002 0.996174
1.00377 1.0003 0.988506
1.00218 1 0.994574
1.00193 0.999925 0.993103
1.00528 0.994941 0.991621
1.0051 0.994938 0.991807
1.00529 0.994923 0.991524
1.00526 0.994997 0.991652
1.00513 0.994943 0.991646
1.00528 0.994921 0.991454
1.0054 0.997965 0.988325
1.00526 0.995376 0.991108
1.00513 0.994952 0.991525
1.0037 1.00047 0.988311
1.00539 0.998284 0.987991
1.00528 0.995913 0.990361
1.00254 1.00011 0.996043
1.00373 1.00064 0.988037
1.0053 0.998902 0.987371
1.00267 1.00033 0.995966
1.00372 1.00097 0.987621
1.0027 1.0008 0.995799
1.00514 0.994952 0.99192
1.0053 0.994936 0.991567
1.00533 0.994908 0.991545
1.00532 0.995426 0.991201
1.00517 0.994942 0.991934
1.00531 0.99492 0.991602
1.00521 0.99493 0.991863
1.00533 0.99543 0.991201
1.00533 0.997142 0.989455
1.00533 0.995444 0.991218
1.00533 0.997452 0.989164
1.00335 0.999809 0.989566
1.00535 0.997818 0.98868
1.0034 1.00001 0.989286
1.00211 0.999999 0.996251
1.00351 1.00019 0.988955
1.00219 1.00003 0.996198
1.00228 0.999989 0.992639
1.00508 0.994946 0.991992
1.00528 0.994935 0.991532
1.00526 0.994949 0.991773
1.00511 0.994939 0.991812
1.00529 0.994924 0.991528
1.0054 0.998523 0.987819
1.00527 0.994963 0.991653
1.00513 0.994944 0.991675
1.00361 1.0004 0.988563
1.00539 0.998327 0.987982
1.00527 0.99572 0.990782
1.00241 1.00008 0.996061
1.00368 1.00052 0.9883
1.00539 0.99822 0.988047
1.00261 1.00012 0.996025
1.00372 1.00067 0.988013
1.00275 1.00034 0.995936
1.00528 0.995501 0.991167
1.00514 0.994954 0.991956
1.0053 0.994936 0.991589
1.00535 0.997267 0.989313
1.00532 0.995474 0.991188
1.00518 0.994939 0.991918
1.00533 0.995478 0.991192
1.00533 0.997201 0.989459
1.0033 0.999691 0.98978
1.00533 0.997675 0.988894
1.00335 0.999803 0.989567
1.00203 0.999981 0.996333
1.00341 1.00002 0.989299
1.00207 1.00003 0.996289
1.00215 1.00004 0.99623
1.00523 0.994968 0.991884
1.00509 0.994945 0.991915
1.00527 0.994931 0.991443
1.00536 0.998413 0.988014
1.00525 0.994949 0.991772
1.00512 0.994939 0.991816
1.0035 1.00029 0.988877
1.00538 0.998558 0.98783
1.00527 0.994941 0.991654
1.00225 1.00012 0.996097
1.00358 1.00045 0.988558
1.00538 0.998674 0.987639
1.00247 1.00008 0.996056
1.00365 1.00057 0.988288
1.0027 1.0001 0.996003
1.00536 0.998082 0.988421
1.00528 0.995239 0.991493
1.00515 0.99496 0.991991
1.00326 0.999668 0.98988
1.00534 0.997301 0.989336
1.00532 0.995522 0.991176
1.00532 0.997256 0.989463
1.00331 0.999669 0.989774
1.00195 0.999965 0.996384
1.00336 0.999798 0.989567
1.00199 0.999985 0.996347
1.00201 1.00004 0.996316
1.00535 0.998298 0.988215
1.00523 0.99497 0.991844
1.0051 0.99494 0.991839
1.00357 1.00014 0.990644
1.00536 0.99844 0.988023
1.00524 0.994949 0.991771
1.00211 1.00013 0.996173
1.00347 1.00033 0.988876
1.00537 0.998595 0.987841
1.00231 1.00011 0.996084
1.00356 1.0005 0.988553
1.00255 1.00006 0.996046
1.00344 0.999686 0.989662
1.00535 0.997797 0.988778
1.00528 0.99496 0.991821
1.00186 0.999969 0.996444
1.00328 0.999639 0.989863
1.00534 0.997338 0.989359
1.00333 0.999645 0.989766
1.00192 0.999959 0.996405
1.00195 0.999996 0.996367
1.00365 0.999912 0.990818
1.00535 0.998302 0.988223
1.00522 0.994972 0.991804
1.00141 1.00016 0.996954
1.00339 1.00014 0.989204
1.00537 0.998465 0.988034
1.00215 1.00014 0.996153
1.00345 1.00038 0.988876
1.00237 1.00009 0.996073
1.00188 0.999845 0.993364
1.00345 0.999724 0.990376
1.00534 0.997524 0.989131
1.00188 0.999965 0.996444
1.0033 0.999618 0.989853
1.00192 0.999955 0.99642
1.00122 1.00006 0.993909
1.00352 0.999851 0.99015
1.00535 0.998311 0.98823
1.00167 1.00012 0.994996
1.00336 1.00014 0.989228
1.00219 1.00013 0.996131
1.00189 0.999972 0.996421
1.00329 0.999723 0.989764
1.00187 0.999952 0.996435
1.00164 0.99995 0.995156
1.00337 0.999826 0.989542
1.00203 1.00012 0.996222
1.00189 1 0.996406
1.00194 1.00004 0.996324

TENSORS stress float
0.00293376 -0.000205181 0.000336913
-0.000205181 0.00159333 -6.51216e-05
0.000336913 -6.51216e-05 0.0015647
0.00887565 0.00022746 0.000427424
0.00022746 0.00550385 5.88119e-05
0.000427424 5.88119e-05 0.00552625
0.00250324 -0.000133461 0.000130728
-0.000133461 0.00130334 -2.43667e-05
0.000130728 -2.43667e-05 0.00125755
0.00262103 -0.00011338 0.000308149
-0.00011338 0.00138356 -3.59272e-05
0.000308149 -3.59272e-05 0.00136869
0.00285463 -0.000177621 0.00032547
-0.000177621 0.00153931 -5.61765e-05
0.00032547 -5.61765e-05 0.00151428
0.00308165 -0.000218064 0.000354214
-0.000218064 0.00168369 -6.96505e-05
0.000354214 -6.96505e-05 0.0016566
0.00235068 -0.000274291 6.63417e-05
-0.000274291 0.000995524 -1.70168e-05
6.63417e-05 -1.70168e-05 0.000820248
0.00910344 0.000226874 -8.21532e-06
0.000226874 0.00564392 -3.94944e-06
-8.21532e-06 -3.94944e-06 0.00567122
0.00767521 0.000308241 0.000205765
0.000308241 0.00475529 2.52968e-05
0.000205765 2.52968e-05 0.00471678
0.00821734 0.000144267 0.000152167
0.000144267 0.00504975 1.27355e-05
0.000152167 1.27355e-05 0.00502667
0.00252152 0.000280862 0.000384045
0.000280862 0.00135449 6.62642e-05
0.000384045 6.62642e-05 0.0013256
0.000187937 0.000348963 2.64786e-05
0.000348963 -0.000344458 2.69551e-05
2.64786e-05 2.69551e-05 -0.000574771
0.00211113 -2.4184e-05 0.00029263
-2.4184e-05 0.00104797 6.38809e-06
0.00029263 6.38809e-06 0.00105667
0.00186778 1.25066e-05 8.56384e-05
1.25066e-05 0.000916089 4.14761e-06
8.56384e-05 4.14761e-06 0.000861277
0.00213929 -0.000128257 -8.64758e-05
-0.000128257 0.00108082 1.69382e-05
-8.64758e-05 1.69382e-05 0.001007
0.00226338 -0.000108943 9.84754e-05
-0.000108943 0.0011696 -6.92544e-06
9.84754e-05 -6.92544e-06 0.00112882
0.0026099 -0.000128699 0.000144068
-0.000128699 0.00136853 -2.81844e-05
0.000144068 -2.81844e-05 0.00132181
0.00244322 -0.000132503 0.000117484
-0.000132503 0.00127135 -1.799e-05
0.000117484 -1.799e-05 0.0012266
0.00248308 -0.000310411 -5.22942e-05
-0.000310411 0.00108403 9.63258e-06
-5.22942e-05 9.63258e-06 0.00091993
0.00688353 -0.000180828 0.000391564
-0.000180828 0.00424157 -2.20397e-05
0.000391564 -2.20397e-05 0.0042737
0.00246802 -8.64429e-05 0.000299266
-8.64429e-05 0.00128536 -2.7131e-05
0.000299266 -2.7131e-05 0.00127484
0.00276416 -0.000145359 0.000317919
-0.000145359 0.0014768 -4.59008e-05
0.000317919 -4.59008e-05 0.00145718
0.00216383 -0.000199761 7.95437e-05
-0.000199761 0.000921895 -1.31294e-05
7.95437e-05 -1.31294e-05 0.000797094
0.00232133 -0.000257615 7.2978e-05
-0.000257615 0.000995718 -1.65809e-05
7.2978e-05 -1.65809e-05 0.000840237
0.00313731 -0.000203494 0.000366749
-0.000203494 0.0017095 -6.82901e-05
0.000366749 -6.82901e-05 0.00168839
0.00241459 -0.000295489 6.47192e-05
-0.000295489 0.00103149 -1.86666e-05
6.47192e-05 -1.86666e-05 0.000830494
0.0023053 -0.000546805 1.43886e-05
-0.000546805 0.000595549 -5.67784e-06
1.43886e-05 -5.67784e-06 0.000266676
0.00927117 0.000228729 -0.000469484
0.000228729 0.00573942 -5.34843e-05
-0.000469484 -5.34843e-05 0.00577427
0.00514635 0.000225995 -0.000178852
0.000225995 0.00306752 -2.3363e-05
-0.000178852 -2.3363e-05 0.00303998
0.00549405 0.000182141 -0.000192015
0.000182141 0.00328044 -2.58066e-05
-0.000192015 -2.58066e-05 0.00325716
0.00960499 0.000174164 -6.69743e-06
0.000174164 0.0059693 -3.24269e-06
-6.69743e-06 -3.24269e-06 0.00599876
0.000253178 0.000336101 -7.23521e-07
0.000336101 -0.000291412 -1.04451e-06
-7.23521e-07 -1.04451e-06 -0.000519872
0.00226844 8.80687e-05 0.000307701
8.80687e-05 0.00114566 3.33119e-05
0.000307701 3.33119e-05 0.00113575
0.0024356 0.000182723 0.000329681
0.000182723 0.00127595 5.38895e-05
0.000329681 5.38895e-05 0.00125209
0.0031377 0.000305414 0.000189164
0.000305414 0.00153625 3.095e-05
0.000189164 3.095e-05 0.0014112
0.00921544 -0.000149497 8.86517e-05
-0.000149497 0.00575328 4.98779e-06
8.86517e-05 4.98779e-06 0.00571262
0.00340166 0.000424041 0.000210201
0.000424041 0.00175053 4.26048e-05
0.000210201 4.26048e-05 0.0015844
0.000112833 0.000313917 2.41999e-05
0.000313917 -0.000361235 3.72685e-05
2.41999e-05 3.72685e-05 -0.000596826
0.00171123 0.000624871 3.01228e-05
0.000624871 0.000316275 4.20973e-06
3.01228e-05 4.20973e-06 -0.000110201
0.00756045 -3.71391e-05 0.000316371
-3.71391e-05 0.00475434 4.25145e-05
0.000316371 4.25145e-05 0.00475768
0.00680858 9.66842e-05 2.6661e-06
9.66842e-05 0.00417529 -2.32997e-06
2.6661e-06 -2.32997e-06 0.00421757
0.00451177 0.000112853 -0.000147694
0.000112853 0.00265741 -7.73584e-06
-0.000147694 -7.73584e-06 0.00264849
0.0066834 5.82069e-05 0.000379989
5.82069e-05 0.00409475 5.70324e-06
0.000379989 5.70324e-06 0.00413858
0.00175047 9.284e-05 8.73018e-05
9.284e-05 0.000844874 7.39158e-06
8.73018e-05 7.39158e-06 0.000793396
0.000367515 2.07687e-05 1.19028e-05
2.07687e-05 -0.000231082 3.12925e-06
1.19028e-05 3.12925e-06 -0.000331974
0.00702898 0.000260785 0.000220493
0.000260785 0.0043582 2.36011e-05
0.000220493 2.36011e-05 0.00433084
0.00300211 0.000118677 0.000168735
0.000118677 0.00146808 1.34085e-05
0.000168735 1.34085e-05 0.00139934
0.00188965 -0.000109357 -0.000101597
-0.000109357 0.000946232 1.44537e-05
-0.000101597 1.44537e-05 0.000878969
0.00201851 -0.000144903 -9.81443e-05
-0.000144903 0.00102148 1.89479e-05
-9.81443e-05 1.89479e-05 0.000944962
0.00222936 -9.59828e-05 -7.48148e-05
-9.59828e-05 0.00112187 1.46393e-05
-7.48148e-05 1.46393e-05 0.0010514
0.00257099 -0.000311181 -0.000177828
-0.000311181 0.00112884 3.61975e-05
-0.000177828 3.61975e-05 0.000981961
0.00439638 -5.16703e-05 -0.000149589
-5.16703e-05 0.00258864 -3.58585e-07
-0.000149589 -3.58585e-07 0.00258134
0.00216949 -8.67897e-05 0.000101005
-8.67897e-05 0.001107 -5.4803e-06
0.000101005 -5.4803e-06 0.00107182
0.00286156 -0.000108067 0.000150452
-0.000108067 0.00152517 -2.73804e-05
0.000150452 -2.73804e-05 0.0014789
0.0023719 -0.000121316 0.000106785
-0.000121316 0.00123243 -1.16958e-05
0.000106785 -1.16958e-05 0.00118938
0.00227163 -0.000180159 -4.23493e-05
-0.000180159 0.000977583 4.02714e-06
-4.23493e-05 4.02714e-06 0.000869072
0.00253938 -0.00034475 -6.0269e-05
-0.00034475 0.00111469 1.12472e-05
-6.0269e-05 1.12472e-05 0.000925831
0.00242132 -0.000270644 -4.69007e-05
-0.000270644 0.00105658 7.35362e-06
-4.69007e-05 7.35362e-06 0.000914059
0.00245246 -0.000558889 -1.01404e-05
-0.000558889 0.000691396 2.64775e-06
-1.01404e-05 2.64775e-06 0.000363344
0.00669934 -2.76725e-05 0.000378258
-2.76725e-05 0.00410135 -6.54628e-06
0.000378258 -6.54628e-06 0.00414652
0.00237866 -5.95017e-05 0.00029232
-5.95017e-05 0.00123003 -1.94122e-05
0.00029232 -1.94122e-05 0.00122541
0.00249314 -4.10328e-05 6.16392e-05
-4.10328e-05 0.00118259 -1.46801e-06
6.16392e-05 -1.46801e-06 0.00110409
0.00210525 -0.000155947 7.15257e-05
-0.000155947 0.00089434 -8.87943e-06
7.15257e-05 -8.87943e-06 0.00078692
0.00228008 -0.000232097 7.80747e-05
-0.000232097 0.000984483 -1.54869e-05
7.80747e-05 -1.54869e-05 0.000844717
0.00217271 -0.000344802 1.41438e-06
-0.000344802 0.000432641 -1.49642e-06
1.41438e-06 -1.49642e-06 0.000228687
0.00230643 -0.000487983 9.48213e-06
-0.000487983 0.000551307 -2.53166e-06
9.48213e-06 -2.53166e-06 0.000280097
0.00314436 -0.000182097 0.000376948
-0.000182097 0.00171007 -6.3979e-05
0.000376948 -6.3979e-05 0.00168767
0.00260215 -0.000265968 5.48205e-05
-0.000265968 0.00119511 -1.67205e-05
5.48205e-05 -1.67205e-05 0.000984329
0.00234352 -0.000625598 1.54046e-05
-0.000625598 0.000656834 -5.52142e-06
1.54046e-05 -5.52142e-06 0.000265639
0.00228338 -0.000727965 -2.78405e-06
-0.000727965 0.000318454 3.50793e-06
-2.78405e-06 3.50793e-06 -3.81955e-05
0.00820373 0.000363876 -0.000455754
0.000363876 0.00509166 -6.14396e-05
-0.000455754 -6.14396e-05 0.0051049
0.00964736 0.00014132 -0.000445989
0.00014132 0.00599989 -4.73643e-05
-0.000445989 -4.73643e-05 0.00603177
0.00873888 0.000280692 -0.000453167
0.000280692 0.00540384 -5.66232e-05
-0.000453167 -5.66232e-05 0.00543316
0.000229861 0.00032309 -2.63791e-05
0.00032309 -0.000296946 -2.68576e-05
-2.63791e-05 -2.68576e-05 -0.000525482
0.00770328 0.000294125 -2.16044e-06
0.000294125 0.00476142 -3.01902e-06
-2.16044e-06 -3.01902e-06 0.00478296
0.00826772 0.000339916 -7.30945e-06
0.000339916 0.0051192 -4.32229e-06
-7.30945e-06 -4.32229e-06 0.00513452
0.000376913 0.000210524 -1.37614e-07
0.000210524 -0.000290063 -3.83404e-07
-1.37614e-07 -3.83404e-07 -0.00046237
0.00559625 2.71492e-05 -0.000195099
2.71492e-05 0.00338929 -1.65468e-05
-0.000195099 -1.65468e-05 0.00335591
0.00036437 0.00030576 1.48956e-06
0.00030576 -0.0002562 -4.00645e-07
1.48956e-06 -4.00645e-07 -0.000469528
0.00189594 0.000353961 9.82178e-05
0.000353961 0.000817438 8.03755e-06
9.82178e-05 8.03755e-06 0.000618599
0.00158753 0.000640232 -1.22674e-07
0.000640232 0.00020896 3.59438e-07
-1.22674e-07 3.59438e-07 -0.000228457
0.00853057 -4.15279e-06 0.000365703
-4.15279e-06 0.00535993 4.91364e-05
0.000365703 4.91364e-05 0.00536695
0.000430563 0.000247416 3.21328e-05
0.000247416 -0.000112847 1.90343e-05
3.21328e-05 1.90343e-05 -0.000248418
0.000498898 0.000169712 1.47561e-05
0.000169712 -0.000213614 1.27726e-05
1.47561e-05 1.27726e-05 -0.000366324
0.000484019 0.000248678 1.84808e-05
0.000248678 -0.000214533 2.23784e-05
1.84808e-05 2.23784e-05 -0.000403274
0.00172139 0.000468738 1.21925e-05
0.000468738 9.97403e-05 3.91317e-06
1.21925e-05 3.91317e-06 -0.000179029
0.00353049 0.000394828 0.000224625
0.000394828 0.00191868 4.31777e-05
0.000224625 4.31777e-05 0.00176484
0.00169415 0.000589396 2.63498e-05
0.000589396 0.000192325 5.4184e-06
2.63498e-05 5.4184e-06 -0.000186254
0.00146152 0.000611302 3.10959e-05
0.000611302 0.000260659 3.06093e-06
3.10959e-05 3.06093e-06 -0.00020751
0.00214518 0.00086164 -4.25886e-06
0.00086164 0.00035727 -8.92832e-06
-4.25886e-06 -8.92832e-06 -0.000142001
0.00653347 -0.000172724 0.000200919
-0.000172724 0.00411144 2.81345e-05
0.000200919 2.81345e-05 0.00408549
0.00711965 -0.000136013 1.05429e-05
-0.000136013 0.00447648 5.38696e-06
1.05429e-05 5.38696e-06 0.00446116
0.00728523 9.70336e-05 -0.000401579
9.70336e-05 0.00446987 -2.43042e-05
-0.000401579 -2.43042e-05 0.00451006
0.00690681 8.94695e-05 -0.000392181
8.94695e-05 0.00423466 -1.49864e-05
-0.000392181 -1.49864e-05 0.00427844
0.00676711 8.40902e-05 -4.08461e-07
8.40902e-05 0.00415335 -4.75392e-06
-4.08461e-07 -4.75392e-06 0.00419521
0.00437974 5.66399e-05 -0.000158078
5.66399e-05 0.0025692 -9.69041e-06
-0.000158078 -9.69041e-06 0.00256677
0.00149672 5.01779e-05 7.52118e-05
5.01779e-05 0.000511325 2.58437e-06
7.52118e-05 2.58437e-06 0.000433579
0.00474856 0.000178079 -0.000152088
0.000178079 0.00281801 -1.04122e-05
-0.000152088 -1.04122e-05 0.00279931
0.00164344 0.000129959 7.64891e-05
0.000129959 0.000571545 4.66028e-06
7.64891e-05 4.66028e-06 0.000473564
0.00672456 0.000101317 0.000383667
0.000101317 0.00413214 7.12636e-06
0.000383667 7.12636e-06 0.00417019
0.000216653 1.09209e-05 1.46044e-05
1.09209e-05 -0.000320009 1.87202e-06
1.46044e-05 1.87202e-06 -0.000416176
0.00291201 6.77586e-05 0.000166865
6.77586e-05 0.00142787 9.41419e-06
0.000166865 9.41419e-06 0.00137048
0.00152504 0.000111051 5.31989e-06
0.000111051 -6.1528e-05 1.30206e-06
5.31989e-06 1.30206e-06 -0.000186853
0.00291964 0.000180286 0.000174351
0.000180286 0.00139678 1.73231e-05
0.000174351 1.73231e-05 0.00131124
0.0016041 0.000236371 3.86081e-06
0.000236371 -3.65251e-05 1.25115e-06
3.86081e-06 1.25115e-06 -0.000197919
0.00212475 2.91208e-05 -0.000292557
2.91208e-05 0.00105152 5.90854e-06
-0.000292557 5.90854e-06 0.00106347
0.0018409 -3.90886e-05 -8.76372e-05
-3.90886e-05 0.000903738 5.69763e-06
-8.76372e-05 5.69763e-06 0.000846298
0.00244991 -6.83992e-05 -7.06784e-05
-6.83992e-05 0.00125791 1.33866e-05
-7.06784e-05 1.33866e-05 0.00118776
0.00195118 -0.000129494 -0.000104839
-0.000129494 0.00098408 1.77265e-05
-0.000104839 1.77265e-05 0.000911972
0.0024067 -0.000159439 -0.000159032
-0.000159439 0.00105214 1.70952e-05
-0.000159032 1.70952e-05 0.000959936
0.00255081 -0.000256268 -0.000170407
-0.000256268 0.00112468 2.97362e-05
-0.000170407 2.97362e-05 0.00100079
0.0027267 -0.000377191 -0.000188813
-0.000377191 0.00124326 4.05061e-05
-0.000188813 4.05061e-05 0.00106542
0.00260806 -0.000574258 -3.18411e-05
-0.000574258 0.000792268 9.98029e-06
-3.18411e-05 9.98029e-06 0.000463895
0.00677937 -0.000129482 2.54522e-06
-0.000129482 0.00417053 -2.22531e-06
2.54522e-06 -2.22531e-06 0.00420632
0.00206782 2.83716e-06 0.000107025
2.83716e-06 0.00102857 -6.43759e-06
0.000107025 -6.43759e-06 0.00100656
0.00123766 -2.97831e-05 -7.8348e-05
-2.97831e-05 0.000337758 3.57079e-06
-7.8348e-05 3.57079e-06 0.000261683
0.00219794 -0.000122552 -4.39989e-05
-0.000122552 0.000942247 4.56309e-06
-4.39989e-05 4.56309e-06 0.000849839
0.0063786 -0.00018026 0.000369703
-0.00018026 0.00384317 -4.15772e-05
0.000369703 -4.15772e-05 0.00384534
0.00302814 -0.000345432 -5.72388e-05
-0.000345432 0.00148763 7.49065e-06
-5.72388e-05 7.49065e-06 0.00129597
0.00236663 -0.00022654 -4.37232e-05
-0.00022654 0.00103017 5.38167e-06
-4.37232e-05 5.38167e-06 0.000905772
0.00226905 -0.000349564 -8.59082e-06
-0.000349564 0.000492557 1.53033e-06
-8.59082e-06 1.53033e-06 0.000296422
0.00260473 -0.000657603 -7.62466e-06
-0.000657603 0.000842 2.53738e-06
-7.62466e-06 2.53738e-06 0.000444837
0.00234978 -0.000491153 -1.08822e-05
-0.000491153 0.000582202 3.40753e-06
-1.08822e-05 3.40753e-06 0.000306242
0.00233667 -0.000731635 1.11767e-06
-0.000731635 0.000361891 -1.28909e-07
1.11767e-06 -1.28909e-07 4.11336e-06
0.000247844 -1.92886e-06 1.5583e-05
-1.92886e-06 -0.000309874 7.26973e-08
1.5583e-05 7.26973e-08 -0.000403487
0.00204979 -4.43229e-05 6.34929e-05
-4.43229e-05 0.000862687 -3.33916e-06
6.34929e-05 -3.33916e-06 0.00077733
0.00211251 -0.000125961 7.37607e-07
-0.000125961 0.000361436 2.40055e-07
7.37607e-07 2.40055e-07 0.00024988
0.00215966 -0.000277087 -5.58811e-07
-0.000277087 0.000410891 -2.32142e-07
-5.58811e-07 -2.32142e-07 0.000250056
0.0022734 -0.00041881 4.34503e-06
-0.00041881 0.000512016 -1.57734e-06
4.34503e-06 -1.57734e-06 0.000286462
0.0022639 -0.000473085 1.92721e-06
-0.000473085 0.00013292 -1.11187e-06
1.92721e-06 -1.11187e-06 -4.11041e-05
0.00932559 -9.07402e-05 0.000399781
-9.07402e-05 0.00581179 -4.29739e-05
0.000399781 -4.29739e-05 0.00583438
0.00216942 -0.00064621 3.31294e-07
-0.00064621 0.000161831 2.29783e-06
3.31294e-07 2.29783e-06 -0.000129186
0.000122288 -0.000268923 1.97577e-05
-0.000268923 -0.000377631 -3.12099e-05
1.97577e-05 -3.12099e-05 -0.000586428
0.00138928 -0.000679374 2.3071e-06
-0.000679374 7.2666e-05 -2.20243e-06
2.3071e-06 -2.20243e-06 -0.000407879
0.00245133 -0.000807197 -7.1049e-06
-0.000807197 0.000514179 5.54974e-06
-7.1049e-06 5.54974e-06 8.71766e-05
0.002377 -0.000799605 -1.85264e-06
-0.000799605 0.00029631 1.34381e-06
-1.85264e-06 1.34381e-06 -2.91263e-05
0.000312576 -0.000260422 2.31378e-05
-0.000260422 -0.000207346 -2.57128e-05
2.31378e-05 -2.57128e-05 -0.000389265
0.00133749 -0.000284451 2.97946e-06
-0.000284451 0.000527436 4.72192e-06
2.97946e-06 4.72192e-06 0.000181942
0.00790255 0.000324112 -0.000449022
0.000324112 0.00489573 -5.39293e-05
-0.000449022 -5.39293e-05 0.00491456
0.00850409 0.000344669 -0.000459545
0.000344669 0.00527095 -6.22109e-05
-0.000459545 -6.22109e-05 0.00529093
0.000344235 0.000211998 -1.71922e-05
0.000211998 -0.000311581 -1.60561e-05
-1.71922e-05 -1.60561e-05 -0.000486165
0.00906454 4.45221e-05 -0.000381909
4.45221e-05 0.0056606 -3.91722e-05
-0.000381909 -3.91722e-05 0.00568179
0.000183726 0.000290613 -2.54275e-05
0.000290613 -0.000311507 -3.16317e-05
-2.54275e-05 -3.16317e-05 -0.000526673
0.000281023 0.0002972 -2.05064e-05
0.0002972 -0.000309357 -2.47734e-05
-2.05064e-05 -2.47734e-05 -0.000524182
0.00145747 0.000648857 -3.35917e-05
0.000648857 9.87505e-05 -3.84795e-06
-3.35917e-05 -3.84795e-06 -0.000347323
0.00839188 2.61808e-06 -1.53361e-05
2.61808e-06 0.0052643 4.71036e-07
-1.53361e-05 4.71036e-07 0.00527539
0.000785464 0.000217918 1.04935e-06
0.000217918 0.00010955 7.65366e-07
1.04935e-06 7.65366e-07 -2.1754e-05
0.00179838 0.000221165 8.24344e-05
0.000221165 0.0006454 8.38481e-06
8.24344e-05 8.38481e-06 0.000512612
0.00189275 0.00031333 8.85103e-05
0.00031333 0.000723627 1.11122e-05
8.85103e-05 1.11122e-05 0.000552881
0.00168263 0.000466414 -3.30609e-07
0.000466414 7.95196e-05 -1.97041e-07
-3.30609e-07 -1.97041e-07 -0.000200393
0.000169482 0.00028225 1.60283e-06
0.00028225 -0.000300706 -9.8599e-07
1.60283e-06 -9.8599e-07 -0.000503419
0.00169129 0.000586729 3.83609e-07
0.000586729 0.00019466 -1.32837e-07
3.83609e-07 -1.32837e-07 -0.000184419
0.00117069 0.000591192 2.11341e-06
0.000591192 6.14967e-05 -1.87445e-06
2.11341e-06 -1.87445e-06 -0.000401587
0.00218547 0.000869245 -7.12276e-08
0.000869245 0.000380401 6.49525e-07
-7.12276e-08 6.49525e-07 -0.000115105
0.000434747 0.000254602 1.92812e-05
0.000254602 -0.000114419 2.86712e-05
1.92812e-05 2.86712e-05 -0.000294475
0.000725393 0.000166573 2.36482e-05
0.000166573 0.000117432 2.01406e-05
2.36482e-05 2.01406e-05 -1.08737e-05
-0.00077266 0.000368442 6.84258e-06
0.000368442 -0.000775153 -3.07247e-06
6.84258e-06 -3.07247e-06 -0.00110953
0.00174009 0.000402889 8.99585e-06
0.000402889 8.48409e-05 2.87134e-06
8.99585e-06 2.87134e-06 -0.00015148
0.00173897 0.000532942 1.89743e-05
0.000532942 0.000144797 4.89247e-06
1.89743e-05 4.89247e-06 -0.000181904
0.00237534 0.000675622 2.46115e-06
0.000675622 0.00027486 -1.78608e-06
2.46115e-06 -1.78608e-06 -1.20645e-05
0.000729109 0.000483809 1.42962e-05
0.000483809 -2.49756e-05 4.1693e-06
1.42962e-05 4.1693e-06 -0.000463188
0.00254072 0.000869061 -3.94594e-06
0.000869061 0.00056891 -6.69061e-06
-3.94594e-06 -6.69061e-06 0.00013362
0.00263071 0.00107716 -1.03004e-05
0.00107716 0.000851112 -1.20176e-05
-1.03004e-05 -1.20176e-05 0.000188198
0.00202359 0.000869832 -1.14767e-05
0.000869832 0.000146307 -8.29511e-06
-1.14767e-05 -8.29511e-06 -0.000312656
0.00550596 -0.000156389 0.000150528
-0.000156389 0.00341128 1.73764e-05
0.000150528 1.73764e-05 0.0033932
0.00619241 -0.000174225 7.51566e-06
-0.000174225 0.00386648 2.14e-06
7.51566e-06 2.14e-06 0.00384387
0.00689321 -0.000169411 -0.00019913
-0.000169411 0.00431258 -1.69204e-05
-0.00019913 -1.69204e-05 0.00429439
0.00077123 -0.000261508 2.71727e-05
-0.000261508 0.000146184 -2.39691e-05
2.71727e-05 -2.39691e-05 -1.46649e-05
0.008354 -1.02416e-05 0.000325191
-1.02416e-05 0.00522895 -3.79861e-05
0.000325191 -3.79861e-05 0.00523636
0.0075772 0.00025798 -0.000433787
0.00025798 0.00467757 -4.27402e-05
-0.000433787 -4.27402e-05 0.00470555
0.00701449 0.000122832 -0.000393929
0.000122832 0.00430224 -2.10229e-05
-0.000393929 -2.10229e-05 0.0043427
0.000290783 0.0001302 -1.54009e-05
0.0001302 -0.000322805 -7.78562e-06
-1.54009e-05 -7.78562e-06 -0.000445874
0.000202643 5.1932e-05 -1.46354e-05
5.1932e-05 -0.000340667 -3.9853e-06
-1.46354e-05 -3.9853e-06 -0.000443107
0.00671491 2.5017e-06 -0.000378165
2.5017e-06 0.00411072 -4.58431e-06
-0.000378165 -4.58431e-06 0.00415585
0.00666069 -7.14915e-06 7.62888e-08
-7.14915e-06 0.00407629 -1.43533e-06
7.62888e-08 -1.43533e-06 0.00412182
0.000194259 4.38112e-06 -9.6363e-08
4.38112e-06 -0.000338349 2.26851e-07
-9.6363e-08 2.26851e-07 -0.000433097
0.00154547 6.59395e-05 7.61884e-05
6.59395e-05 0.000524507 4.00027e-06
7.61884e-05 4.00027e-06 0.000440912
0.00152544 0.000113891 8.88447e-08
0.000113891 -5.03172e-05 -1.88686e-08
8.88447e-08 -1.88686e-08 -0.000176515
0.000369675 0.000137208 -8.87686e-07
0.000137208 -0.000284825 -3.53139e-07
-8.87686e-07 -3.53139e-07 -0.000422016
0.00160677 0.000236919 -1.26862e-07
0.000236919 -1.4056e-05 -2.57737e-08
-1.26862e-07 -2.57737e-08 -0.000176456
0.000191294 -3.26661e-05 1.54217e-05
-3.26661e-05 -0.000341902 -3.56534e-08
1.54217e-05 -3.56534e-08 -0.000433847
0.00148573 5.15326e-05 4.26204e-06
5.15326e-05 -7.15485e-05 9.44631e-07
4.26204e-06 9.44631e-07 -0.000189756
0.00155339 0.000174149 4.48374e-06
0.000174149 -5.65797e-05 1.50453e-06
4.48374e-06 1.50453e-06 -0.000196021
0.00233467 0.000172466 2.68302e-06
0.000172466 0.000100417 8.65642e-07
2.68302e-06 8.65642e-07 5.00104e-05
0.00169483 0.000321808 6.20136e-06
0.000321808 3.33797e-05 1.72882e-06
6.20136e-06 1.72882e-06 -0.000162572
0.00234374 0.000367121 3.5822e-06
0.000367121 0.00014246 1.22532e-06
3.5822e-06 1.22532e-06 3.66001e-05
0.00669226 -9.27931e-05 -0.000381737
-9.27931e-05 0.00410778 6.98701e-06
-0.000381737 6.98701e-06 0.00414718
0.0017423 -0.000168652 -8.70601e-05
-0.000168652 0.000866042 1.21472e-05
-8.70601e-05 1.21472e-05 0.000799231
-0.00011271 -1.70015e-05 -8.49661e-06
-1.70015e-05 -0.000550979 1.19927e-06
-8.49661e-06 1.19927e-06 -0.000657064
0.00231292 -0.00011306 -0.000154026
-0.00011306 0.00100797 1.21898e-05
-0.000154026 1.21898e-05 0.000929373
0.00942057 9.04733e-05 -0.000107262
9.04733e-05 0.00581979 5.25788e-06
-0.000107262 5.25788e-06 0.00578789
0.00329372 -0.000408723 -0.000192764
-0.000408723 0.00167772 4.20508e-05
-0.000192764 4.20508e-05 0.00149836
0.00248236 -0.000206039 -0.000164853
-0.000206039 0.00108893 2.31056e-05
-0.000164853 2.31056e-05 0.000982392
0.00235244 -0.000353348 -2.13315e-05
-0.000353348 0.000543541 4.21946e-06
-2.13315e-05 4.21946e-06 0.000355473
0.00236086 -0.000492257 -2.77926e-05
-0.000492257 0.000589234 8.95833e-06
-2.77926e-05 8.95833e-06 0.000309041
0.00272097 -0.000670545 -3.67705e-05
-0.000670545 0.000929331 1.16528e-05
-3.67705e-05 1.16528e-05 0.000531895
0.002372 -0.000731332 3.24794e-06
-0.000731332 0.000398685 -3.31814e-06
3.24794e-06 -3.31814e-06 4.09341e-05
0.000202876 -4.28217e-06 8.49021e-08
-4.28217e-06 -0.00033612 4.09099e-07
8.49021e-08 4.09099e-07 -0.00043035
0.00214736 -0.000117199 -4.25652e-05
-0.000117199 0.00093555 1.22159e-06
-4.25652e-05 1.22159e-06 0.000852817
0.00189636 -0.000122983 -1.36616e-05
-0.000122983 0.000209944 8.09407e-07
-1.36616e-05 8.09407e-07 9.73098e-05
0.00217195 -0.000274624 -1.30988e-05
-0.000274624 0.000414393 2.31288e-06
-1.30988e-05 2.31288e-06 0.000248564
0.00943458 -8.58694e-05 5.34456e-06
-8.58694e-05 0.00587698 -1.22115e-06
5.34456e-06 -1.22115e-06 0.00589826
0.00173701 -0.000285227 1.24235e-05
-0.000285227 0.000696013 5.33614e-07
1.24235e-05 5.33614e-07 0.000481002
0.00209391 -0.000685632 5.59644e-06
-0.000685632 0.000557085 -2.60328e-06
5.59644e-06 -2.60328e-06 9.89202e-05
0.00233467 -0.000425077 -1.13423e-05
-0.000425077 0.000551738 3.3679e-06
-1.13423e-05 3.3679e-06 0.000324501
0.00233536 -0.000479691 3.17977e-06
-0.000479691 0.000180167 -1.03782e-06
3.17977e-06 -1.03782e-06 1.84282e-05
0.00239886 -0.00080089 1.84075e-06
-0.00080089 0.000482309 -1.39224e-07
1.84075e-06 -1.39224e-07 5.82851e-05
0.00223124 -0.000647394 1.39829e-07
-0.000647394 0.000208843 -1.11048e-07
1.39829e-07 -1.11048e-07 -8.58782e-05
0.00234348 -0.000794929 2.96508e-07
-0.000794929 0.000276495 1.08216e-06
2.96508e-07 1.08216e-06 -4.8427e-05
0.000303198 -0.000286623 1.35788e-06
-0.000286623 -0.000218952 -2.54222e-07
1.35788e-06 -2.54222e-07 -0.000400261
0.000718819 -0.000335963 1.13279e-06
-0.000335963 0.000152568 -3.02955e-07
1.13279e-06 -3.02955e-07 -0.000208937
0.00147834 -5.87105e-05 3.67375e-06
-5.87105e-05 -5.89018e-05 -4.52275e-08
3.67375e-06 -4.52275e-08 -0.000179518
0.00227846 -0.000201848 -7.38983e-07
-0.000201848 0.000475011 1.77258e-08
-7.38983e-07 1.77258e-08 0.000346251
0.00220093 -0.000184576 2.35242e-06
-0.000184576 2.10042e-05 -7.75144e-07
2.35242e-06 -7.75144e-07 -5.24257e-05
0.00221301 -0.000388414 3.81726e-07
-0.000388414 4.55952e-05 -1.42082e-07
3.81726e-07 -1.42082e-07 -6.58708e-05
0.00214911 -0.000567686 -5.37237e-07
-0.000567686 9.02865e-05 4.374e-07
-5.37237e-07 4.374e-07 -0.000134141
0.00236052 -0.000498539 5.07199e-06
-0.000498539 0.000113804 -1.19832e-06
5.07199e-06 -1.19832e-06 1.07981e-05
0.000220728 -0.000258242 1.79367e-05
-0.000258242 -0.000295713 -3.06711e-05
1.79367e-05 -3.06711e-05 -0.000496049
0.002454 -0.000721967 -4.86912e-08
-0.000721967 0.000272697 -1.31401e-06
-4.86912e-08 -1.31401e-06 2.90724e-05
0.00142079 -0.000609785 3.86236e-06
-0.000609785 0.000166313 -5.75377e-06
3.86236e-06 -5.75377e-06 -0.000304007
0.00219811 -0.000901702 5.303e-07
-0.000901702 0.000394694 4.52525e-06
5.303e-07 4.52525e-06 -0.000130373
0.00260644 -0.00087977 -4.02213e-06
-0.00087977 0.000516176 1.79633e-06
-4.02213e-06 1.79633e-06 0.000108728
0.00247589 -0.000828099 1.47696e-06
-0.000828099 0.000294286 -1.26255e-06
1.47696e-06 -1.26255e-06 1.81433e-05
0.000596807 -0.000323612 4.64522e-06
-0.000323612 2.14505e-06 1.39572e-06
4.64522e-06 1.39572e-06 -0.000389069
0.00160355 -0.000225738 -4.81251e-06
-0.000225738 0.000825328 -6.35416e-06
-4.81251e-06 -6.35416e-06 0.000517883
0.00134263 -0.000487062 2.70671e-06
-0.000487062 0.000490331 1.02095e-05
2.70671e-06 1.02095e-05 1.89112e-05
0.000347789 0.000178181 -1.589e-05
0.000178181 -0.000311516 -1.21851e-05
-1.589e-05 -1.21851e-05 -0.000469029
0.00777129 -4.71041e-05 -0.000298927
-4.71041e-05 0.00485992 -2.785e-05
-0.000298927 -2.785e-05 0.00486793
0.000392642 0.00017096 -2.08402e-05
0.00017096 -0.00012498 -2.05256e-05
-2.08402e-05 -2.05256e-05 -0.000259211
0.000316292 0.000252945 -1.89108e-05
0.000252945 -0.000316982 -2.05183e-05
-1.89108e-05 -2.05183e-05 -0.000510665
0.00163981 0.000464634 -1.41645e-05
0.000464634 5.49573e-05 -4.05416e-06
-1.41645e-05 -4.05416e-06 -0.000226251
0.000368846 0.000276442 -2.11405e-05
0.000276442 -0.000191501 -3.12453e-05
-2.11405e-05 -3.12453e-05 -0.000387059
0.00125473 0.000598917 -2.83576e-05
0.000598917 8.15315e-05 -6.89349e-06
-2.83576e-05 -6.89349e-06 -0.000378678
0.00165337 0.000579882 -2.79062e-05
0.000579882 0.000176178 -5.63646e-06
-2.79062e-05 -5.63646e-06 -0.000202378
0.00222786 0.000881781 -1.82759e-06
0.000881781 0.000395919 7.47651e-06
-1.82759e-06 7.47651e-06 -9.78961e-05
0.000328146 0.000265104 -6.10334e-06
0.000265104 -0.00018895 1.40256e-06
-6.10334e-06 1.40256e-06 -0.000358997
0.000380092 0.000133198 -1.27924e-06
0.000133198 -9.36905e-05 1.29728e-06
-1.27924e-06 1.29728e-06 -0.000218588
0.000918392 0.000361285 3.4103e-07
0.000361285 0.000254741 -7.1332e-08
3.4103e-07 -7.1332e-08 -3.40435e-05
0.00167338 0.000398813 -3.76952e-07
0.000398813 4.81956e-05 -2.75496e-07
-3.76952e-07 -2.75496e-07 -0.000188924
0.00170421 0.00052663 -2.00516e-07
0.00052663 0.000133592 -3.30231e-07
-2.00516e-07 -3.30231e-07 -0.000192751
0.00237493 0.000674823 -1.10515e-06
0.000674823 0.000275783 -3.47677e-07
-1.10515e-06 -3.47677e-07 -1.06412e-05
0.000864582 0.000446567 5.0183e-06
0.000446567 3.21894e-05 -6.98237e-07
5.0183e-06 -6.98237e-07 -0.000375401
0.00250835 0.000861883 -1.86052e-06
0.000861883 0.000541826 -8.3569e-07
-1.86052e-06 -8.3569e-07 0.000108024
0.00236838 0.00105229 -2.79074e-06
0.00105229 0.000648508 -2.13863e-06
-2.79074e-06 -2.13863e-06 -8.70471e-06
0.00199194 0.000867923 -2.37692e-07
0.000867923 0.000106343 4.8022e-06
-2.37692e-07 4.8022e-06 -0.00034587
0.000803258 9.85377e-05 1.26299e-05
9.85377e-05 0.000222544 1.88351e-05
1.26299e-05 1.88351e-05 0.000110197
1.43743e-05 0.000452123 1.75957e-07
0.000452123 -0.000338286 9.88551e-07
1.75957e-07 9.88551e-07 -0.00069483
0.000972224 0.00023816 -2.28024e-06
0.00023816 0.000367205 1.05059e-06
-2.28024e-06 1.05059e-06 5.67193e-05
-0.000907908 0.000230765 -8.56541e-06
0.000230765 -0.000884409 5.27332e-06
-8.56541e-06 5.27332e-06 -0.00122675
0.00232164 0.000583366 2.60179e-06
0.000583366 0.000187348 -1.09384e-06
2.60179e-06 -1.09384e-06 -3.03261e-05
0.00243473 0.000771359 -4.61972e-07
0.000771359 0.000402958 -3.79307e-06
-4.61972e-07 -3.79307e-06 4.01158e-05
0.00242765 0.000740015 7.7852e-07
0.000740015 0.000224774 -1.90693e-08
7.7852e-07 -1.90693e-08 -2.86305e-05
0.00232564 0.000968035 -1.57926e-05
0.000968035 0.000883666 -1.34229e-05
-1.57926e-05 -1.34229e-05 0.00019772
0.00262754 0.000943181 -5.97214e-06
0.000943181 0.000516577 -2.79051e-06
-5.97214e-06 -2.79051e-06 0.000102448
0.00271888 0.00118276 -1.68451e-05
0.00118276 0.000785221 -1.6464e-05
-1.68451e-05 -1.6464e-05 9.35084e-05
0.00221927 0.000885095 -3.75079e-06
0.000885095 0.000131234 -2.56548e-06
-3.75079e-06 -2.56548e-06 -0.00029262
0.00103665 0.000154289 -3.2456e-06
0.000154289 0.000456054 7.772e-06
-3.2456e-06 7.772e-06 0.000296921
0.000424926 6.11728e-05 6.20017e-06
6.11728e-05 -1.02886e-06 1.51898e-05
6.20017e-06 1.51898e-05 -7.01774e-05
0.00452038 -0.000141195 9.25894e-05
-0.000141195 0.00274071 1.15805e-05
9.25894e-05 1.15805e-05 0.00272762
0.00514422 -0.000200225 2.13621e-05
-0.000200225 0.00318136 -1.92991e-06
2.13621e-05 -1.92991e-06 0.003151
0.00573577 -0.000247749 -0.000108785
-0.000247749 0.0035946 -1.60324e-05
-0.000108785 -1.60324e-05 0.00354894
1.42746e-05 -0.000212868 2.34162e-05
-0.000212868 -0.000288157 -1.72812e-05
2.34162e-05 -1.72812e-05 -0.000404956
0.00648271 5.59344e-05 0.000214779
5.59344e-05 0.00403075 -2.82271e-05
0.000214779 -2.82271e-05 0.00402583
0.000514545 -0.000263 3.20816e-06
-0.000263 -3.32823e-05 1.23638e-06
3.20816e-06 1.23638e-06 -0.000196822
0.00872147 -5.24036e-05 4.90123e-06
-5.24036e-05 0.00545958 -7.35916e-07
4.90123e-06 -7.35916e-07 0.00547307
0.000339957 0.000159921 -1.60805e-05
0.000159921 -0.000306171 -9.80055e-06
-1.60805e-05 -9.80055e-06 -0.000447396
0.000233762 5.5735e-05 -1.34911e-05
5.5735e-05 -0.000342586 -4.86218e-06
-1.34911e-05 -4.86218e-06 -0.000451514
0.00161653 0.000237309 -3.967e-06
0.000237309 8.565e-06 -8.77095e-07
-3.967e-06 -8.77095e-07 -0.00015476
0.0015326 0.00011629 -4.976e-06
0.00011629 -3.52798e-05 -1.16898e-06
-4.976e-06 -1.16898e-06 -0.000162181
0.000239001 -1.23933e-06 -1.50678e-05
-1.23933e-06 -0.000312595 -1.82043e-06
-1.50678e-05 -1.82043e-06 -0.000406123
0.00675504 -0.000104763 -0.000389437
-0.000104763 0.00415217 7.26421e-06
-0.000389437 7.26421e-06 0.00419131
0.000231468 -4.16489e-06 -3.91491e-08
-4.16489e-06 -0.000315772 -6.69904e-07
-3.91491e-08 -6.69904e-07 -0.000407458
0.00149552 5.67531e-05 3.9191e-10
5.67531e-05 -6.0037e-05 3.83768e-08
3.9191e-10 3.83768e-08 -0.000178718
0.00156531 0.000173826 -9.741e-09
0.000173826 -3.58994e-05 1.28879e-07
-9.741e-09 1.28879e-07 -0.000175919
0.0023496 0.000170307 -1.00257e-07
0.000170307 0.00011146 1.36445e-07
-1.00257e-07 1.36445e-07 6.11291e-05
0.00166018 0.00031852 -4.34283e-07
0.00031852 2.28614e-05 -2.74643e-07
-4.34283e-07 -2.74643e-07 -0.000173664
0.00234001 0.000368116 -1.18703e-07
0.000368116 0.00013237 2.34658e-07
-1.18703e-07 2.34658e-07 2.60358e-05
0.00147411 -5.18407e-06 3.31443e-06
-5.18407e-06 -6.56884e-05 3.65216e-07
3.31443e-06 3.65216e-07 -0.000183146
0.00234057 8.26278e-05 3.1485e-06
8.26278e-05 0.000100531 4.53318e-07
3.1485e-06 4.53318e-07 5.9603e-05
0.00232519 0.000264913 2.60321e-06
0.000264913 0.000109452 1.25343e-06
2.60321e-06 1.25343e-06 3.66505e-05
0.0021929 0.000175153 4.0141e-06
0.000175153 -1.88366e-05 5.33123e-07
4.0141e-06 5.33123e-07 -1.52156e-05
0.00232704 0.000476862 3.58233e-06
0.000476862 0.000155637 6.20664e-07
3.58233e-06 6.20664e-07 1.45582e-06
0.00225862 0.000353168 4.28409e-06
0.000353168 9.73683e-06 6.71713e-07
4.28409e-06 6.71713e-07 -3.1524e-05
0.00024132 -9.4437e-06 -1.46024e-05
-9.4437e-06 -0.000306175 9.18379e-08
-1.46024e-05 9.18379e-08 -0.000402307
0.00221947 -7.33264e-05 -0.000151327
-7.33264e-05 0.000966951 8.37943e-06
-0.000151327 8.37943e-06 0.000900363
0.00165891 -0.000119891 -1.50941e-05
-0.000119891 4.3657e-05 1.32352e-06
-1.50941e-05 1.32352e-06 -7.01641e-05
0.00216476 -0.000272464 -1.92935e-05
-0.000272464 0.000402653 3.20353e-06
-1.92935e-05 3.20353e-06 0.000231657
0.00954914 -0.000116872 -0.000427218
-0.000116872 0.00594102 5.24102e-05
-0.000427218 5.24102e-05 0.00596408
0.00355094 -0.000396834 -0.00022223
-0.000396834 0.00188932 4.14671e-05
-0.00022223 4.14671e-05 0.00171329
0.00251738 -0.000698101 -1.89743e-05
-0.000698101 0.000891009 8.23313e-06
-1.89743e-05 8.23313e-06 0.000442302
0.002384 -0.000430493 -2.61114e-05
-0.000430493 0.000582664 7.08842e-06
-2.61114e-05 7.08842e-06 0.000353962
0.00240138 -0.000486048 3.90633e-07
-0.000486048 0.000222384 -8.97767e-07
3.90633e-07 -8.97767e-07 7.3138e-05
0.00230846 -0.000649803 1.31391e-07
-0.000649803 0.000267573 -1.04994e-06
1.31391e-07 -1.04994e-06 -3.11036e-05
0.00242873 -0.00080671 8.21028e-06
-0.00080671 0.00049636 -5.03201e-06
8.21028e-06 -5.03201e-06 7.19486e-05
0.00232634 -0.000793288 3.49055e-06
-0.000793288 0.000264295 2.95681e-07
3.49055e-06 2.95681e-07 -6.09692e-05
0.00014821 -0.000301123 -2.52056e-05
-0.000301123 -0.000317347 2.7489e-05
-2.52056e-05 2.7489e-05 -0.000501637
2.43434e-06 -0.000337411 -4.39365e-06
-0.000337411 -0.000276118 -3.14493e-06
-4.39365e-06 -3.14493e-06 -0.0006597
0.00153561 -5.58827e-05 8.68957e-07
-5.58827e-05 -2.53872e-05 -7.38485e-08
8.68957e-07 -7.38485e-08 -0.000138801
0.0021688 -0.0002008 -1.22395e-05
-0.0002008 0.000393901 1.40377e-06
-1.22395e-05 1.40377e-06 0.000264264
0.00219331 -0.000180036 2.53064e-06
-0.000180036 1.1563e-05 -3.79429e-07
2.53064e-06 -3.79429e-07 -5.70491e-05
0.00223847 -0.000386635 -1.30763e-06
-0.000386635 8.5207e-05 4.17485e-07
-1.30763e-06 4.17485e-07 -3.83474e-05
0.000135564 -0.000274412 -1.84427e-06
-0.000274412 -0.000336556 -2.48393e-07
-1.84427e-06 -2.48393e-07 -0.000541767
0.00127419 -0.000606475 -1.53874e-06
-0.000606475 0.000111377 -3.15381e-07
-1.53874e-06 -3.15381e-07 -0.000365148
0.00230018 -0.000919908 -4.12319e-07
-0.000919908 0.000451303 1.55389e-06
-4.12319e-07 1.55389e-06 -8.55515e-05
0.00223221 -0.00056818 7.29014e-07
-0.00056818 0.000155232 -2.40895e-07
7.29014e-07 -2.40895e-07 -7.38725e-05
0.00235862 -0.000501993 3.22979e-07
-0.000501993 9.53327e-05 -1.55897e-07
3.22979e-07 -1.55897e-07 -9.1435e-07
0.00264223 -0.000883186 2.01116e-06
-0.000883186 0.000538276 -2.1321e-06
2.01116e-06 -2.1321e-06 0.000135174
0.00238889 -0.000714567 -6.07244e-07
-0.000714567 0.0002281 5.4028e-07
-6.07244e-07 5.4028e-07 -1.34195e-05
0.00236883 -0.00083015 1.28314e-07
-0.00083015 0.000214203 7.60083e-07
1.28314e-07 7.60083e-07 -6.36763e-05
0.000791146 -0.000357665 -1.18453e-06
-0.000357665 0.000115536 7.59213e-07
-1.18453e-06 7.59213e-07 -0.000285744
0.00125457 -0.000445505 4.64425e-07
-0.000445505 0.000435207 1.19819e-06
4.64425e-07 1.19819e-06 -2.49985e-05
0.000644097 -0.000200907 -4.32837e-06
-0.000200907 0.00025973 -4.18694e-07
-4.32837e-06 -4.18694e-07 -8.0293e-05
0.0022069 -9.07804e-05 2.78958e-06
-9.07804e-05 2.27617e-05 -3.86991e-07
2.78958e-06 -3.86991e-07 -3.84598e-05
0.00222389 -0.000276015 6.11223e-07
-0.000276015 3.42073e-05 -1.04917e-06
6.11223e-07 -1.04917e-06 -5.32601e-05
0.00228216 -0.000169359 6.4098e-06
-0.000169359 7.45561e-05 -6.36704e-07
6.4098e-06 -6.36704e-07 6.49771e-05
0.00228439 -0.000392661 3.32062e-06
-0.000392661 2.83147e-05 -7.90355e-07
3.32062e-06 -7.90355e-07 -2.11724e-05
0.00242844 -0.00063647 1.4274e-06
-0.00063647 0.000175547 -1.05692e-06
1.4274e-06 -1.05692e-06 1.43659e-05
0.00249074 -0.000531292 1.31711e-06
-0.000531292 9.79274e-05 1.49157e-07
1.31711e-06 1.49157e-07 5.20771e-05
0.00137399 -0.00048642 7.99604e-06
-0.00048642 0.000359843 -9.5794e-06
7.99604e-06 -9.5794e-06 -7.37104e-05
0.00249291 -0.000764971 1.47637e-06
-0.000764971 0.000191499 -1.86771e-06
1.47637e-06 -1.86771e-06 2.16062e-05
0.00225932 -0.00103424 -2.84084e-06
-0.00103424 0.000578064 2.66808e-06
-2.84084e-06 2.66808e-06 -7.36855e-05
0.00261245 -0.0010094 7.65064e-06
-0.0010094 0.000557448 2.86617e-06
7.65064e-06 2.86617e-06 3.39109e-05
0.00268789 -0.000901979 4.29738e-06
-0.000901979 0.000547029 -1.62521e-06
4.29738e-06 -1.62521e-06 0.00016629
0.0025708 -0.000884311 4.77778e-06
-0.000884311 0.000279832 -2.85407e-06
4.77778e-06 -2.85407e-06 4.29812e-05
-0.00139531 -1.86005e-05 8.50708e-06
-1.86005e-05 -0.00109537 6.99257e-07
8.50708e-06 6.99257e-07 -0.00139367
0.00204298 -0.000721316 -1.7726e-06
-0.000721316 0.000838018 1.07746e-05
-1.7726e-06 1.07746e-05 0.00024076
-0.000732096 -0.000254335 2.07961e-05
-0.000254335 -0.000480772 4.90503e-06
2.07961e-05 4.90503e-06 -0.000982368
0.00122748 -0.000688127 1.79231e-05
-0.000688127 0.000434111 2.14722e-05
1.79231e-05 2.14722e-05 -0.000211689
0.0016065 0.000395043 -1.05292e-05
0.000395043 1.08041e-05 -3.25485e-06
-1.05292e-05 -3.25485e-06 -0.000227136
0.000280843 0.000130772 -1.62183e-05
0.000130772 -0.000157337 -2.03382e-05
-1.62183e-05 -2.03382e-05 -0.000278296
0.000545733 0.000225974 -2.51505e-05
0.000225974 -4.8357e-05 -2.48499e-05
-2.51505e-05 -2.48499e-05 -0.000210055
0.00160859 0.000303667 -2.09969e-06
0.000303667 0.0006976 7.55711e-06
-2.09969e-06 7.55711e-06 0.000415829
0.0016581 0.000521119 -2.04176e-05
0.000521119 0.000111582 -5.00563e-06
-2.04176e-05 -5.00563e-06 -0.000214846
0.0023775 0.000674028 -2.42164e-06
0.000674028 0.000279445 1.84159e-06
-2.42164e-06 1.84159e-06 -6.46281e-06
0.000694629 0.000396575 -1.34321e-05
0.000396575 -6.24442e-05 -1.14463e-05
-1.34321e-05 -1.14463e-05 -0.000441287
0.00207446 0.0010042 3.54994e-06
0.0010042 0.000447545 7.76721e-06
3.54994e-06 7.76721e-06 -0.000192813
0.00249983 0.000857835 5.06307e-06
0.000857835 0.000531375 6.70582e-06
5.06307e-06 6.70582e-06 9.80861e-05
0.00197342 0.000862422 1.0289e-05
0.000862422 8.89658e-05 1.52758e-05
1.0289e-05 1.52758e-05 -0.000354918
0.000401461 7.91869e-05 -2.19135e-06
7.91869e-05 -2.72431e-05 6.04381e-07
-2.19135e-06 6.04381e-07 -0.000138952
0.00104829 0.000364136 -4.97726e-06
0.000364136 0.000334015 3.34149e-06
-4.97726e-06 3.34149e-06 -6.08333e-06
5.16133e-05 0.000230724 3.89072e-06
0.000230724 -0.000213939 -1.87393e-06
3.89072e-06 -1.87393e-06 -0.000536
0.000627041 0.000302854 -4.8164e-06
0.000302854 6.72752e-05 8.95247e-06
-4.8164e-06 8.95247e-06 -0.000277916
0.0023644 0.000588695 -1.34143e-06
0.000588695 0.000212902 -8.75724e-07
-1.34143e-06 -8.75724e-07 -6.34508e-06
0.0023772 0.000767904 -1.20379e-06
0.000767904 0.000359898 -4.02719e-07
-1.20379e-06 -4.02719e-07 -2.12855e-06
0.00245898 0.000742462 3.31064e-07
0.000742462 0.000248404 1.58062e-07
3.31064e-07 1.58062e-07 -5.08684e-06
0.00201803 0.000956913 1.21645e-06
0.000956913 0.000688503 -1.92133e-06
1.21645e-06 -1.92133e-06 -8.83437e-06
0.00263394 0.000940317 1.16742e-06
0.000940317 0.000536654 6.65538e-07
1.16742e-06 6.65538e-07 0.000118957
0.00247257 0.00113486 -1.33702e-06
0.00113486 0.00065054 -2.69737e-06
-1.33702e-06 -2.69737e-06 -2.56373e-05
0.00251795 0.000884222 -8.83473e-06
0.000884222 0.000357056 3.32174e-06
-8.83473e-06 3.32174e-06 -5.38598e-05
0.000661035 7.21565e-05 9.27428e-06
7.21565e-05 0.00014382 1.70505e-05
9.27428e-06 1.70505e-05 5.96261e-05
0.00144906 0.000200755 -2.47028e-06
0.000200755 0.000727197 1.34804e-05
-2.47028e-06 1.34804e-05 0.000436544
0.000314241 0.000579051 -8.223e-06
0.000579051 -0.000173189 -8.31567e-06
-8.223e-06 -8.31567e-06 -0.000694347
0.00111192 0.00038766 1.11444e-05
0.00038766 0.000448976 -1.73042e-06
1.11444e-05 -1.73042e-06 8.97659e-05
0.00164408 0.000299455 1.62229e-06
0.000299455 0.000580935 1.76985e-05
1.62229e-06 1.76985e-05 0.000230591
0.00249743 0.000634618 1.24941e-06
0.000634618 0.000188256 -3.49344e-07
1.24941e-06 -3.49344e-07 3.06903e-05
0.00234908 0.000843823 -1.71469e-06
0.000843823 0.000258357 -1.09823e-06
-1.71469e-06 -1.09823e-06 -8.60665e-05
0.00252062 0.000813021 -1.96054e-06
0.000813021 0.000227218 -1.8669e-09
-1.96054e-06 -1.8669e-09 -5.34387e-06
0.00239769 0.00127816 -2.62945e-06
0.00127816 0.000922882 -1.14311e-05
-2.62945e-06 -1.14311e-05 7.16535e-05
0.00285478 0.000992086 -5.86665e-06
0.000992086 0.00056865 -1.91489e-06
-5.86665e-06 -1.91489e-06 0.000161993
0.00207342 0.00118107 6.37701e-06
0.00118107 0.000286167 -7.26796e-06
6.37701e-06 -7.26796e-06 -0.000383996
0.00089232 0.000160274 -7.96256e-07
0.000160274 0.000358976 1.22149e-05
-7.96256e-07 1.22149e-05 0.000169524
0.000853439 0.000195721 -9.21722e-06
0.000195721 0.000480622 5.14016e-06
-9.21722e-06 5.14016e-06 0.000193698
0.000786505 0.000115497 -2.4018e-06
0.000115497 0.000292404 4.65833e-06
-2.4018e-06 4.65833e-06 0.000167345
0.000432626 6.15564e-05 -2.85044e-06
6.15564e-05 5.90561e-05 -4.06259e-08
-2.85044e-06 -4.06259e-08 -8.96175e-05
0.00166545 1.40566e-05 1.21994e-06
1.40566e-05 0.000825585 8.51245e-06
1.21994e-06 8.51245e-06 0.000776335
0.00105195 3.94029e-05 -7.73573e-07
3.94029e-05 0.000417815 -3.76996e-07
-7.73573e-07 -3.76996e-07 0.000353477
0.00119198 -5.57967e-06 9.21749e-05
-5.57967e-06 0.000506122 1.80723e-05
9.21749e-05 1.80723e-05 0.000496159
0.00454145 -0.000151682 1.53674e-05
-0.000151682 0.0027615 -1.79587e-06
1.53674e-05 -1.79587e-06 0.00274475
0.00507647 -0.000216372 -8.90089e-05
-0.000216372 0.00314403 -1.34523e-05
-8.90089e-05 -1.34523e-05 0.00310892
0.000295792 -0.00014068 3.13529e-05
-0.00014068 -8.8366e-05 -8.1814e-06
3.13529e-05 -8.1814e-06 -0.000165204
0.00447402 0.000150556 9.83045e-05
0.000150556 0.0027431 -1.48895e-05
9.83045e-05 -1.48895e-05 0.00272084
0.000548542 -0.000184722 -1.64273e-06
-0.000184722 6.86336e-05 1.69502e-06
-1.64273e-06 1.69502e-06 -6.11686e-05
0.00726696 2.4724e-05 1.60669e-07
2.4724e-05 0.00455697 1.78508e-06
1.60669e-07 1.78508e-06 0.00455398
0.000307247 -0.000261318 -2.42774e-05
-0.000261318 -0.000173565 2.32563e-05
-2.42774e-05 2.32563e-05 -0.00034002
0.00896323 -4.21822e-05 -0.00037567
-4.21822e-05 0.00561178 4.8395e-05
-0.00037567 4.8395e-05 0.00562392
0.00162651 0.000314412 -7.2347e-06
0.000314412 1.56826e-05 -2.04755e-06
-7.2347e-06 -2.04755e-06 -0.000181147
0.00156822 0.000174441 -4.29706e-06
0.000174441 -1.79727e-05 -9.11477e-07
-4.29706e-06 -9.11477e-07 -0.00015884
0.00234989 0.000366693 -3.79347e-06
0.000366693 0.000132026 -8.29522e-07
-3.79347e-06 -8.29522e-07 2.58694e-05
0.0023633 0.000168387 -2.9001e-06
0.000168387 0.000122446 -5.6543e-07
-2.9001e-06 -5.6543e-07 7.20911e-05
0.0015044 6.21237e-05 -4.18217e-06
6.21237e-05 -4.86292e-05 -7.65115e-07
-4.18217e-06 -7.65115e-07 -0.000167785
0.000197671 2.64268e-05 -1.52424e-05
2.64268e-05 -0.000339799 -1.60413e-06
-1.52424e-05 -1.60413e-06 -0.000429526
0.00148077 3.80519e-07 -3.6807e-08
3.80519e-07 -6.05499e-05 -1.81504e-08
-3.6807e-08 -1.81504e-08 -0.000178005
0.00234689 8.10877e-05 -1.19142e-07
8.10877e-05 0.000106478 1.0535e-07
-1.19142e-07 1.0535e-07 6.58273e-05
0.00235159 0.000263887 4.18732e-08
0.000263887 0.000124189 1.37687e-07
4.18732e-08 1.37687e-07 5.26565e-05
0.00218406 0.000170978 -3.8078e-07
0.000170978 -3.41796e-05 -6.18256e-08
-3.8078e-07 -6.18256e-08 -2.36022e-05
0.00235066 0.000481802 -6.81039e-07
0.000481802 0.000164614 2.27143e-07
-6.81039e-07 2.27143e-07 9.00193e-06
0.00226524 0.000354271 -6.3112e-08
0.000354271 1.8864e-05 1.51776e-07
-6.3112e-08 1.51776e-07 -2.36532e-05
0.00234037 -5.57451e-06 2.76251e-06
-5.57451e-06 0.000104908 2.00927e-08
2.76251e-06 2.00927e-08 6.49241e-05
0.00214755 8.0155e-05 2.45162e-06
8.0155e-05 -5.98979e-05 7.70216e-08
2.45162e-06 7.70216e-08 -3.7713e-05
0.00220428 0.000249301 4.58221e-06
0.000249301 -7.3067e-06 7.4026e-07
4.58221e-06 7.4026e-07 -2.39924e-05
0.00229916 0.000169891 1.16785e-06
0.000169891 -5.12896e-05 2.97712e-08
1.16785e-06 2.97712e-08 -4.96211e-06
0.00242757 0.000505251 2.97288e-06
0.000505251 0.000105334 5.94327e-07
2.97288e-06 5.94327e-07 2.3843e-05
0.00237226 0.000381327 4.23133e-08
0.000381327 -6.13259e-05 -5.88513e-07
4.23133e-08 -5.88513e-07 -3.81864e-05
0.00160482 -5.3335e-05 -5.8881e-06
-5.3335e-05 1.91891e-05 2.56071e-07
-5.8881e-06 2.56071e-07 -8.68932e-05
0.00208156 -0.000199664 -2.21816e-05
-0.000199664 0.000328497 2.67803e-06
-2.21816e-05 2.67803e-06 0.000197812
0.00219742 -0.000174152 3.08547e-06
-0.000174152 8.70408e-06 -1.99306e-07
3.08547e-06 -1.99306e-07 -5.51581e-05
0.00227433 -0.000384216 -3.35589e-07
-0.000384216 0.000133439 9.04193e-07
-3.35589e-07 9.04193e-07 -1.85949e-06
0.000137693 -0.000300399 -2.40627e-05
-0.000300399 -0.000326266 3.11195e-05
-2.40627e-05 3.11195e-05 -0.000535431
0.00155593 -0.000624653 -6.65483e-06
-0.000624653 0.000302413 4.63312e-06
-6.65483e-06 4.63312e-06 -0.000177026
0.0022785 -0.000928502 7.96386e-06
-0.000928502 0.000419695 -3.55374e-06
7.96386e-06 -3.55374e-06 -0.000127241
0.00230465 -0.000567776 3.2062e-07
-0.000567776 0.000212735 -9.37654e-07
3.2062e-07 -9.37654e-07 -2.09746e-05
0.00235457 -0.000505236 -2.47535e-06
-0.000505236 7.60122e-05 2.72849e-07
-2.47535e-06 2.72849e-07 -1.35892e-05
0.0023076 -0.000705329 2.06399e-07
-0.000705329 0.000172978 1.64056e-06
2.06399e-07 1.64056e-06 -6.59026e-05
0.00265075 -0.000882727 3.69905e-06
-0.000882727 0.000544733 -4.63179e-06
3.69905e-06 -4.63179e-06 0.00014706
0.00224724 -0.000829216 -1.13566e-06
-0.000829216 0.000125821 3.10947e-06
-1.13566e-06 3.10947e-06 -0.000152056
0.000774348 -0.000372133 -3.5864e-06
-0.000372133 9.2594e-05 -2.30354e-07
-3.5864e-06 -2.30354e-07 -0.000313352
0.00138831 -0.000388945 -8.93176e-06
-0.000388945 0.000531229 -1.47267e-05
-8.93176e-06 -1.47267e-05 9.74412e-05
0.000275365 -0.000257228 -1.74103e-07
-0.000257228 4.89457e-05 2.10039e-06
-1.74103e-07 2.10039e-06 -0.000315453
0.00227995 -8.75344e-05 3.89527e-06
-8.75344e-05 7.40484e-05 -1.56681e-07
3.89527e-06 -1.56681e-07 2.0564e-05
0.00216972 -0.000279394 2.09676e-06
-0.000279394 3.79466e-07 -6.82131e-07
2.09676e-06 -6.82131e-07 -8.62718e-05
0.00223679 -0.000163234 -6.04717e-08
-0.000163234 2.48794e-05 9.26842e-08
-6.04717e-08 9.26842e-08 2.38147e-05
0.00235192 -0.000388623 -5.00359e-07
-0.000388623 8.33301e-05 5.43639e-08
-5.00359e-07 5.43639e-08 3.0148e-05
0.00106779 -0.00048839 -3.0664e-06
-0.00048839 0.000134244 -1.30616e-06
-3.0664e-06 -1.30616e-06 -0.000312771
0.00242638 -0.00107275 1.43597e-06
-0.00107275 0.000680974 -6.26285e-07
1.43597e-06 -6.26285e-07 1.58171e-05
0.00238709 -0.000988347 8.37864e-07
-0.000988347 0.000411023 2.1886e-06
8.37864e-07 2.1886e-06 -0.000116342
0.00238709 -0.000628172 -8.76142e-07
-0.000628172 0.000159962 3.49444e-07
-8.76142e-07 3.49444e-07 -6.35303e-06
0.00245914 -0.000533514 5.3337e-08
-0.000533514 6.28609e-05 -2.50418e-08
5.3337e-08 -2.50418e-08 2.24153e-05
0.00257913 -0.000891862 -7.66195e-07
-0.000891862 0.00046598 -2.38688e-07
-7.66195e-07 -2.38688e-07 8.63314e-05
0.00246713 -0.000763714 -7.11039e-07
-0.000763714 0.00017149 2.44183e-07
-7.11039e-07 2.44183e-07 2.50028e-06
0.00249573 -0.000882368 1.44991e-06
-0.000882368 0.000221564 -4.75891e-07
1.44991e-06 -4.75891e-07 -6.74855e-06
0.00160131 -0.000697697 -3.47017e-06
-0.000697697 0.000576299 -1.97795e-06
-3.47017e-06 -1.97795e-06 -1.51619e-05
0.00139494 -0.000697463 -3.26158e-06
-0.000697463 0.000547739 -2.60702e-07
-3.26158e-06 -2.60702e-07 -8.86764e-05
0.000347725 -6.02349e-05 5.7352e-06
-6.02349e-05 1.8902e-05 2.3174e-06
5.7352e-06 2.3174e-06 -0.00025475
0.000562256 -0.000230121 3.02505e-06
-0.000230121 0.000220698 -7.92045e-06
3.02505e-06 -7.92045e-06 -0.000192513
0.0021797 -9.29176e-05 5.14514e-06
-9.29176e-05 -1.04833e-05 -3.48538e-07
5.14514e-06 -3.48538e-07 -5.35667e-06
0.00226588 -0.000270265 3.76923e-06
-0.000270265 2.50033e-05 -1.13147e-06
3.76923e-06 -1.13147e-06 3.05004e-06
0.00231157 -0.000170549 1.8044e-06
-0.000170549 2.74476e-06 -2.51493e-07
1.8044e-06 -2.51493e-07 4.36901e-05
0.00241634 -0.00042047 -1.12359e-06
-0.00042047 -1.97396e-05 5.69596e-07
-1.12359e-06 5.69596e-07 1.06496e-05
0.00242959 -0.000656406 -5.53937e-07
-0.000656406 8.49817e-05 1.9231e-07
-5.53937e-07 1.9231e-07 -1.4738e-05
0.00254711 -0.000575084 1.46105e-06
-0.000575084 2.63575e-05 1.95851e-08
1.46105e-06 1.95851e-08 6.42092e-06
0.00184327 -0.00099186 -8.63651e-06
-0.00099186 0.000536758 8.99238e-06
-8.63651e-06 8.99238e-06 -0.000165165
0.00260127 -0.000834551 1.6458e-06
-0.000834551 0.000158601 -7.40138e-07
1.6458e-06 -7.40138e-07 3.15752e-05
0.00241992 -0.0011837 1.912e-07
-0.0011837 0.000634343 4.59385e-06
1.912e-07 4.59385e-06 -6.45097e-05
0.00275479 -0.00104033 1.00024e-05
-0.00104033 0.000627594 -4.60339e-07
1.00024e-05 -4.60339e-07 0.00011188
0.00267512 -0.000931333 1.58632e-06
-0.000931333 0.000479876 -2.34086e-06
1.58632e-06 -2.34086e-06 0.000119622
0.00254964 -0.000953241 1.15894e-06
-0.000953241 0.00018715 -3.71638e-06
1.15894e-06 -3.71638e-06 -4.93791e-05
-0.000402232 -0.00023601 1.28051e-05
-0.00023601 -0.000579123 -9.09796e-06
1.28051e-05 -9.09796e-06 -0.000841968
-0.00271312 7.2708e-05 6.82834e-06
7.2708e-05 -0.00195259 1.15591e-06
6.82834e-06 1.15591e-06 -0.00236968
0.0014649 -0.000942172 1.65694e-05
-0.000942172 0.000479611 1.08018e-05
1.65694e-05 1.08018e-05 -0.000247146
0.00398218 -0.000784849 1.30643e-05
-0.000784849 0.00241716 1.52636e-05
1.30643e-05 1.52636e-05 0.00187339
0.00146144 -0.000867029 -6.56398e-06
-0.000867029 0.000625318 1.18792e-05
-6.56398e-06 1.18792e-05 -0.000143802
-1.12472e-05 6.24667e-05 -8.37655e-06
6.24667e-05 -0.000288927 -1.86738e-05
-8.37655e-06 -1.86738e-05 -0.000394844
0.00240991 0.00059409 -3.81226e-06
0.00059409 0.00024047 -6.70439e-08
-3.81226e-06 -6.70439e-08 1.966e-05
0.00111147 0.000142509 3.05803e-06
0.000142509 0.000440434 -6.25691e-06
3.05803e-06 -6.25691e-06 0.000132467
0.00110961 0.000393806 -6.68521e-06
0.000393806 0.000337438 8.4416e-06
-6.68521e-06 8.4416e-06 3.12433e-05
0.00120082 0.000311306 -3.36013e-06
0.000311306 0.000416553 9.77347e-06
-3.36013e-06 9.77347e-06 7.76129e-05
0.00231705 0.000764099 7.43553e-07
0.000764099 0.000315739 3.72748e-06
7.43553e-07 3.72748e-06 -4.54271e-05
0.00248935 0.000744737 -8.56597e-07
0.000744737 0.000271695 -1.32004e-07
-8.56597e-07 -1.32004e-07 1.81501e-05
0.00172223 0.000994394 1.59389e-05
0.000994394 0.000504718 1.27557e-05
1.59389e-05 1.27557e-05 -0.00022918
0.00236037 0.00112407 7.19876e-06
0.00112407 0.000581951 9.94209e-06
7.19876e-06 9.94209e-06 -9.35006e-05
0.00261139 0.000931561 6.37506e-06
0.000931561 0.000534408 5.56996e-06
6.37506e-06 5.56996e-06 0.00011551
0.00285692 0.000894656 1.35147e-05
0.000894656 0.000605978 1.68902e-05
1.35147e-05 1.68902e-05 0.000203444
0.000470508 8.07333e-05 -2.16711e-06
8.07333e-05 2.26407e-05 3.35158e-07
-2.16711e-06 3.35158e-07 -5.74774e-05
0.000760406 0.000180897 -1.17732e-06
0.000180897 0.000301868 -6.19294e-07
-1.17732e-06 -6.19294e-07 -2.08481e-06
0.0010623 0.000620409 9.82463e-06
0.000620409 0.000301176 -3.25303e-06
9.82463e-06 -3.25303e-06 -0.000223615
0.000781338 0.000234362 -1.28434e-06
0.000234362 0.000227006 -4.83957e-06
-1.28434e-06 -4.83957e-06 -0.000118748
0.000541851 0.00031629 -1.77264e-06
0.00031629 -0.000123685 4.9396e-06
-1.77264e-06 4.9396e-06 -0.00050992
0.00247378 0.000632547 -7.0904e-07
0.000632547 0.000173582 -6.49214e-07
-7.0904e-07 -6.49214e-07 1.69445e-05
0.00242537 0.000849195 4.91034e-07
0.000849195 0.000313531 -1.7813e-08
4.91034e-07 -1.7813e-08 -3.10415e-05
0.00250635 0.000813291 1.27445e-06
0.000813291 0.000222103 5.30981e-07
1.27445e-06 5.30981e-07 -9.92293e-06
0.00250355 0.00128851 2.01031e-06
0.00128851 0.00101022 -1.48738e-06
2.01031e-06 -1.48738e-06 0.000157932
0.00282584 0.000989148 3.40577e-06
0.000989148 0.000523095 8.24708e-08
3.40577e-06 8.24708e-08 0.000115322
0.0027624 0.00125923 -5.80093e-06
0.00125923 0.000767313 8.12751e-07
-5.80093e-06 8.12751e-07 8.29619e-05
0.000933537 0.000185601 -1.02988e-06
0.000185601 0.000383402 1.32455e-05
-1.02988e-06 1.32455e-05 0.000154081
0.00229495 0.000539064 3.65878e-06
0.000539064 0.00134216 6.88375e-06
3.65878e-06 6.88375e-06 0.000910555
0.00131123 0.000880043 1.02575e-06
0.000880043 0.000506953 -5.80066e-07
1.02575e-06 -5.80066e-07 -0.000166662
0.00161987 0.000283707 9.99546e-06
0.000283707 0.00049068 -5.34112e-07
9.99546e-06 -5.34112e-07 0.000178625
0.0034957 0.000875707 3.34752e-06
0.000875707 0.00158666 8.67936e-07
3.34752e-06 8.67936e-07 0.00104663
0.00252623 0.000673655 -2.96382e-06
0.000673655 9.78071e-05 -1.53046e-06
-2.96382e-06 -1.53046e-06 -8.07712e-06
0.0025549 0.000927773 -3.18934e-06
0.000927773 0.000343633 2.80328e-07
-3.18934e-06 2.80328e-07 -7.0198e-06
0.00258596 0.000918941 -5.14398e-07
0.000918941 0.000229429 -5.59216e-07
-5.14398e-07 -5.59216e-07 -3.26652e-06
0.00184725 0.00130496 1.17235e-05
0.00130496 0.000656004 -6.1914e-06
1.17235e-05 -6.1914e-06 -0.000201561
0.0024857 0.00119825 1.68255e-05
0.00119825 0.000451837 -3.20376e-06
1.68255e-05 -3.20376e-06 -0.000150234
0.000632574 0.00013335 -1.53118e-07
0.00013335 0.00019092 -3.77841e-07
-1.53118e-07 -3.77841e-07 2.8917e-06
0.000238518 0.000269172 -6.57896e-06
0.000269172 1.92712e-05 -5.5778e-07
-6.57896e-06 -5.5778e-07 -0.000272894
-0.000768661 0.000106995 5.14118e-07
0.000106995 -0.000579493 -2.50049e-06
5.14118e-07 -2.50049e-06 -0.000856398
0.00197085 0.000339941 -1.29657e-05
0.000339941 0.00127105 -3.74852e-07
-1.29657e-05 -3.74852e-07 0.00094991
0.00159766 0.000284519 -5.75982e-06
0.000284519 0.000943929 -2.76147e-07
-5.75982e-06 -2.76147e-07 0.000703883
0.000596922 0.000111918 -5.54409e-07
0.000111918 0.000177242 2.25094e-06
-5.54409e-07 2.25094e-06 6.39404e-05
0.000556494 5.90996e-05 -1.75216e-06
5.90996e-05 0.000145671 -2.97224e-07
-1.75216e-06 -2.97224e-07 2.18658e-05
0.00155715 2.59899e-05 1.5992e-06
2.59899e-05 0.000758458 6.20776e-06
1.5992e-06 6.20776e-06 0.000717575
0.000297591 7.3013e-05 6.3362e-06
7.3013e-05 -3.57821e-05 -6.96204e-06
6.3362e-06 -6.96204e-06 -0.000176316
0.00168858 1.20095e-05 -1.85545e-05
1.20095e-05 0.000840574 -2.47636e-06
-1.85545e-05 -2.47636e-06 0.000796355
0.000750305 -6.84158e-06 6.46104e-05
-6.84158e-06 0.000213084 1.37225e-05
6.46104e-05 1.37225e-05 0.000209762
0.00188795 4.41906e-05 -3.7771e-05
4.41906e-05 0.00097456 -1.19127e-05
-3.7771e-05 -1.19127e-05 0.000920272
0.00254535 -7.3682e-05 8.06183e-05
-7.3682e-05 0.0014215 1.70939e-06
8.06183e-05 1.70939e-06 0.00140857
0.00428157 -0.000161148 -7.13436e-05
-0.000161148 0.00259509 -1.09205e-05
-7.13436e-05 -1.09205e-05 0.00257498
0.0010025 2.86521e-05 2.87023e-06
2.86521e-05 0.000381768 -9.50162e-06
2.87023e-06 -9.50162e-06 0.000296824
0.000257099 -0.00011046 3.89536e-06
-0.00011046 -0.000109315 1.37978e-06
3.89536e-06 1.37978e-06 -0.000196239
0.00447647 0.000182047 6.00684e-05
0.000182047 0.00275041 -1.2027e-05
6.00684e-05 -1.2027e-05 0.00271749
0.00509318 9.14243e-05 -1.6555e-05
9.14243e-05 0.00314724 2.75931e-06
-1.6555e-05 2.75931e-06 0.00313537
0.00122349 -0.000186642 -1.83357e-05
-0.000186642 0.000501319 2.05919e-05
-1.83357e-05 2.05919e-05 0.000359827
0.00806028 5.64292e-06 -0.000330848
5.64292e-06 0.00507618 4.74436e-05
-0.000330848 4.74436e-05 0.00507541
0.0023718 0.000487186 -3.56113e-06
0.000487186 0.00017062 1.29285e-07
-3.56113e-06 1.29285e-07 1.34221e-05
0.00236322 0.000264488 -3.11818e-06
0.000264488 0.000128534 -1.01544e-06
-3.11818e-06 -1.01544e-06 5.78449e-05
0.00226669 0.000355907 -3.99564e-06
0.000355907 2.38783e-05 -3.18758e-07
-3.99564e-06 -3.18758e-07 -1.99935e-05
0.00217553 0.000166517 -3.37883e-06
0.000166517 -5.00178e-05 -2.8722e-07
-3.37883e-06 -2.8722e-07 -3.24791e-05
0.00235474 8.01958e-05 -3.19241e-06
8.01958e-05 0.000113679 -2.11842e-07
-3.19241e-06 -2.11842e-07 7.33026e-05
0.00149294 5.82544e-06 -3.28538e-06
5.82544e-06 -5.38292e-05 -3.98223e-07
-3.28538e-06 -3.98223e-07 -0.000171259
0.00233754 -5.19474e-06 -1.19993e-08
-5.19474e-06 0.000104295 5.01701e-08
-1.19993e-08 5.01701e-08 6.4258e-05
0.00214951 7.21996e-05 -4.35206e-07
7.21996e-05 -5.56506e-05 -4.64192e-08
-4.35206e-07 -4.64192e-08 -3.53498e-05
0.00220245 0.000248858 -1.41821e-07
0.000248858 -1.08678e-05 5.20883e-08
-1.41821e-07 5.20883e-08 -2.74095e-05
0.00229101 0.000172076 1.0864e-07
0.000172076 -6.3929e-05 4.36496e-08
1.0864e-07 4.36496e-08 -1.07049e-05
0.00240551 0.000502804 1.22497e-07
0.000502804 8.96336e-05 9.3461e-08
1.22497e-07 9.3461e-08 1.03377e-05
0.00237635 0.000371857 2.30164e-07
0.000371857 -6.28194e-05 2.98156e-07
2.30164e-07 2.98156e-07 -3.50037e-05
0.00214893 -1.10048e-05 3.22848e-06
-1.10048e-05 -4.88812e-05 -1.58242e-07
3.22848e-06 -1.58242e-07 -2.98678e-05
0.00233368 7.2395e-05 4.10029e-07
7.2395e-05 -3.42784e-05 -4.64684e-07
4.10029e-07 -4.64684e-07 3.31579e-05
0.00230802 0.000245364 -8.52833e-07
0.000245364 -6.4807e-05 -5.37822e-07
-8.52833e-07 -5.37822e-07 -2.62474e-05
0.00242432 0.000182713 -1.22261e-07
0.000182713 -8.42307e-05 -4.92716e-07
-1.22261e-07 -4.92716e-07 1.63735e-05
0.00246906 0.000512699 -5.16156e-07
0.000512699 9.72345e-06 -5.5818e-07
-5.16156e-07 -5.5818e-07 -9.97141e-06
0.00247877 0.000365137 1.43111e-07
0.000365137 -0.000103905 -8.03674e-08
1.43111e-07 -8.03674e-08 -4.05267e-05
0.00233475 -8.42036e-05 6.81569e-07
-8.42036e-05 0.000111174 1.19531e-07
6.81569e-07 1.19531e-07 6.52653e-05
0.00213575 -0.000282487 3.69291e-06
-0.000282487 -2.1565e-05 -7.20356e-08
3.69291e-06 -7.20356e-08 -0.00010698
0.00218609 -0.000157174 -3.19527e-06
-0.000157174 -2.76176e-05 2.61179e-07
-3.19527e-06 2.61179e-07 -1.99498e-05
0.00242045 -0.000385303 -5.35646e-06
-0.000385303 0.000139568 1.53984e-06
-5.35646e-06 1.53984e-06 8.24477e-05
0.000620422 -0.000476841 -8.68719e-06
-0.000476841 -0.000160997 5.92487e-06
-8.68719e-06 5.92487e-06 -0.000619323
0.00268954 -0.00110699 2.61228e-06
-0.00110699 0.000870418 -2.9423e-06
2.61228e-06 -2.9423e-06 0.000195869
0.0021346 -0.000960096 2.81213e-06
-0.000960096 0.000250909 -1.76137e-06
2.81213e-06 -1.76137e-06 -0.000278082
0.00235162 -0.000620455 -3.64619e-06
-0.000620455 0.000148407 1.72983e-06
-3.64619e-06 1.72983e-06 -2.31107e-05
0.00242498 -0.000535227 7.27108e-09
-0.000535227 2.66142e-05 -6.61296e-07
7.27108e-09 -6.61296e-07 -8.91897e-06
0.00244426 -0.000763615 -1.47243e-06
-0.000763615 0.000152535 1.80843e-06
-1.47243e-06 1.80843e-06 -1.60002e-05
0.0024716 -0.000885465 -2.73225e-06
-0.000885465 0.000383621 1.24052e-06
-2.73225e-06 1.24052e-06 2.82145e-06
0.00245862 -0.000890176 -2.25658e-06
-0.000890176 0.000185916 1.6611e-06
-2.25658e-06 1.6611e-06 -3.80758e-05
0.00127257 -0.000664395 6.96285e-07
-0.000664395 0.000353627 -1.63138e-05
6.96285e-07 -1.63138e-05 -0.00023117
0.0020035 -0.000734846 -2.46657e-05
-0.000734846 0.000926992 -1.27881e-05
-2.46657e-05 -1.27881e-05 0.000292619
0.00203418 -9.1023e-05 7.03361e-06
-9.1023e-05 0.00112029 6.35777e-06
7.03361e-06 6.35777e-06 0.00084866
-0.000641446 -4.18061e-05 -1.32237e-05
-4.18061e-05 -0.000624767 -8.24232e-06
-1.32237e-05 -8.24232e-06 -0.000962696
0.00217861 -9.23344e-05 -1.17555e-07
-9.23344e-05 -1.25354e-05 2.77768e-08
-1.17555e-07 2.77768e-08 -7.50088e-06
0.00230713 -0.00027287 1.29519e-06
-0.00027287 5.58509e-05 -1.79676e-07
1.29519e-06 -1.79676e-07 3.32738e-05
0.00226656 -0.000168035 -2.63137e-08
-0.000168035 -3.32855e-05 -1.29343e-07
-2.63137e-08 -1.29343e-07 1.14532e-05
0.00238469 -0.000418943 -2.74355e-07
-0.000418943 -3.34312e-05 2.73923e-07
-2.74355e-07 2.73923e-07 -1.15483e-05
0.0020688 -0.000962473 -1.47915e-06
-0.000962473 0.000676467 -7.67751e-07
-1.47915e-06 -7.67751e-07 -7.01431e-06
0.00230979 -0.00117031 2.44031e-06
-0.00117031 0.000557896 3.60078e-07
2.44031e-06 3.60078e-07 -0.000139765
0.0026881 -0.00104922 -7.28833e-07
-0.00104922 0.00058075 8.62251e-07
-7.28833e-07 8.62251e-07 5.70195e-05
0.00245039 -0.000657788 -9.77847e-07
-0.000657788 0.000107626 1.56432e-07
-9.77847e-07 1.56432e-07 1.22166e-06
0.00251715 -0.000571392 6.96998e-07
-0.000571392 7.25414e-06 -4.87539e-07
6.96998e-07 -4.87539e-07 -2.36317e-06
0.00266706 -0.000936297 -1.85084e-06
-0.000936297 0.000484763 6.04979e-07
-1.85084e-06 6.04979e-07 0.000118111
0.00260674 -0.000838679 -1.14138e-06
-0.000838679 0.000155084 5.34416e-07
-1.14138e-06 5.34416e-07 2.67021e-05
0.00257626 -0.000950196 7.8082e-06
-0.000950196 0.000201896 -2.61145e-06
7.8082e-06 -2.61145e-06 -2.56282e-05
0.00186151 -0.00100502 1.24079e-06
-0.00100502 0.000752629 -7.27803e-07
1.24079e-06 -7.27803e-07 -8.72638e-06
0.00213694 -0.000952057 -5.23658e-06
-0.000952057 0.00104326 -1.31377e-06
-5.23658e-06 -1.31377e-06 0.000267852
0.000764167 -0.000512882 -3.98114e-06
-0.000512882 0.000361036 3.44886e-06
-3.98114e-06 3.44886e-06 -0.000169289
1.09882e-05 -0.000177518 -7.18198e-06
-0.000177518 -0.000250057 3.00243e-08
-7.18198e-06 3.00243e-08 -0.000532001
0.000385798 0.000120016 -4.60431e-06
0.000120016 8.7332e-05 -3.18975e-06
-4.60431e-06 -3.18975e-06 -0.000313153
0.00228351 -0.000106253 -3.0395e-07
-0.000106253 -5.88197e-05 2.38154e-07
-3.0395e-07 2.38154e-07 3.65278e-06
0.00234167 -0.000254133 -1.35146e-06
-0.000254133 -7.13725e-05 -2.19001e-07
-1.35146e-06 -2.19001e-07 -1.12082e-05
0.00254997 -0.000511731 -2.75165e-07
-0.000511731 -8.65984e-05 -5.81993e-09
-2.75165e-07 -5.81993e-09 -1.06722e-05
0.00253592 -0.000699983 1.30811e-06
-0.000699983 3.30803e-05 4.59512e-07
1.30811e-06 4.59512e-07 -1.5746e-05
0.00234387 -0.00125617 -1.72419e-06
-0.00125617 0.000848739 1.02599e-06
-1.72419e-06 1.02599e-06 4.41936e-05
0.00274669 -0.00096953 -5.73885e-07
-0.00096953 0.000142601 -2.40064e-06
-5.73885e-07 -2.40064e-06 -1.84095e-05
0.00180776 -0.0011655 -3.60156e-06
-0.0011655 0.000260591 6.14851e-06
-3.60156e-06 6.14851e-06 -0.000441905
0.00281461 -0.00110888 -7.71871e-07
-0.00110888 0.000650941 -3.56449e-07
-7.71871e-07 -3.56449e-07 0.000122228
0.0026099 -0.000970524 -1.11648e-05
-0.000970524 0.000359157 -3.56321e-06
-1.11648e-05 -3.56321e-06 3.57886e-05
0.000141421 -0.000192518 -5.62636e-07
-0.000192518 -7.46374e-05 5.92532e-07
-5.62636e-07 5.92532e-07 -0.000339563
0.00401348 -0.000418994 -5.22607e-06
-0.000418994 0.0024539 3.38104e-06
-5.22607e-06 3.38104e-06 0.00202446
-0.00127208 -0.000127767 -8.90481e-06
-0.000127767 -0.00114331 7.88568e-06
-8.90481e-06 7.88568e-06 -0.00148256
0.00271912 -0.00122059 -1.03197e-05
-0.00122059 0.00131505 8.52353e-06
-1.03197e-05 8.52353e-06 0.00046459
0.00308494 -0.000786268 4.05745e-06
-0.000786268 0.00173481 9.74147e-06
4.05745e-06 9.74147e-06 0.0011203
0.00209275 -0.000998989 -1.42576e-05
-0.000998989 0.00098718 1.52636e-05
-1.42576e-05 1.52636e-05 0.000174002
0.000388998 8.38342e-05 -1.15716e-05
8.38342e-05 -2.8109e-05 -1.69008e-05
-1.15716e-05 -1.69008e-05 -0.000105165
7.67357e-05 0.000181782 1.23543e-07
0.000181782 -0.000119333 -1.42004e-05
1.23543e-07 -1.42004e-05 -0.000439619
0.00244781 0.000630242 -3.63096e-06
0.000630242 0.000157833 -1.31208e-06
-3.63096e-06 -1.31208e-06 2.16326e-06
-0.000591835 -8.46161e-06 -4.67445e-06
-8.46161e-06 -0.00060577 -1.38214e-06
-4.67445e-06 -1.38214e-06 -0.000975321
0.00287338 0.000695972 1.89537e-05
0.000695972 0.00141914 -4.00282e-06
1.89537e-05 -4.00282e-06 0.000901802
-0.000360053 0.000383107 -1.63492e-05
0.000383107 -0.000711822 -4.68134e-06
-1.63492e-05 -4.68134e-06 -0.00115262
0.00249861 0.000853429 1.35196e-06
0.000853429 0.000368872 3.36567e-07
1.35196e-06 3.36567e-07 2.45283e-05
0.00249051 0.000813769 2.29757e-06
0.000813769 0.000214672 4.61484e-07
2.29757e-06 4.61484e-07 -1.68558e-05
0.00259018 0.00128707 7.16722e-06
0.00128707 0.00109267 8.61377e-06
7.16722e-06 8.61377e-06 0.000243062
0.00341436 0.00132402 -5.66332e-06
0.00132402 0.00122277 7.43592e-06
-5.66332e-06 7.43592e-06 0.00053079
0.00279156 0.000989562 3.16237e-06
0.000989562 0.000469645 2.46514e-06
3.16237e-06 2.46514e-06 5.92805e-05
0.000803786 0.000187005 5.46876e-08
0.000187005 0.000307936 -6.08362e-08
5.46876e-08 -6.08362e-08 7.33999e-05
0.00100421 0.000328423 -3.84453e-06
0.000328423 0.000511208 -6.03402e-07
-3.84453e-06 -6.03402e-07 9.54437e-05
0.00158128 0.000939713 1.47265e-07
0.000939713 0.000651974 4.97561e-08
1.47265e-07 4.97561e-08 -6.2384e-05
0.000884043 0.000249117 -1.18358e-07
0.000249117 2.91972e-05 -9.65222e-07
-1.18358e-07 -9.65222e-07 -0.000288098
0.00151724 0.000659151 1.72532e-06
0.000659151 0.000228353 -5.83875e-06
1.72532e-06 -5.83875e-06 -0.000258293
0.00251689 0.000672029 -2.01989e-06
0.000672029 0.000105547 -1.0936e-06
-2.01989e-06 -1.0936e-06 -2.10848e-06
0.00259477 0.000936205 2.65107e-06
0.000936205 0.00034795 4.89947e-07
2.65107e-06 4.89947e-07 -5.24357e-06
0.00263842 0.000925333 1.04035e-06
0.000925333 0.000230449 1.11754e-06
1.04035e-06 1.11754e-06 2.568e-06
0.00223393 0.00137765 2.69043e-06
0.00137765 0.000865253 1.15952e-06
2.69043e-06 1.15952e-06 -6.26855e-06
0.00245303 0.0012165 -3.11114e-06
0.0012165 0.000474137 -3.5843e-06
-3.11114e-06 -3.5843e-06 -0.000145787
0.00195587 0.000510463 3.31461e-06
0.000510463 0.00111121 6.56336e-06
3.31461e-06 6.56336e-06 0.000752063
-0.000615866 0.000320676 6.40086e-08
0.000320676 -0.000559407 -4.32161e-06
6.40086e-08 -4.32161e-06 -0.000990991
0.00191616 0.00109183 7.87383e-06
0.00109183 0.000838532 -4.8356e-06
7.87383e-06 -4.8356e-06 9.14442e-05
-0.00229952 0.00050586 1.21767e-05
0.00050586 -0.00210441 -2.99908e-06
1.21767e-05 -2.99908e-06 -0.0025731
0.00307998 0.0011272 1.02572e-05
0.0011272 0.00115424 -6.25084e-06
1.02572e-05 -6.25084e-06 0.00052687
0.00267688 0.000791829 -3.00916e-06
0.000791829 4.67246e-05 -6.66247e-07
-3.00916e-06 -6.66247e-07 3.67586e-06
0.00264109 0.00100153 9.53631e-06
0.00100153 0.000303403 -2.86477e-06
9.53631e-06 -2.86477e-06 -8.33707e-05
0.00235964 0.000880838 6.98547e-06
0.000880838 -2.76189e-05 1.42197e-07
6.98547e-06 1.42197e-07 -0.000272331
0.00267106 0.00145907 2.39998e-05
0.00145907 0.00103194 4.0598e-06
2.39998e-05 4.0598e-06 0.000173367
0.00286055 0.00145959 1.04792e-05
0.00145959 0.000813715 -5.20575e-07
1.04792e-05 -5.20575e-07 7.16847e-05
0.000351825 9.73454e-05 7.45163e-06
9.73454e-05 7.15113e-06 -1.17661e-05
7.45163e-06 -1.17661e-05 -0.000176623
0.000960271 0.000255985 -1.24564e-06
0.000255985 0.000475974 7.08333e-07
-1.24564e-06 7.08333e-07 0.000192427
-0.000374146 0.000127806 -8.5981e-06
0.000127806 -0.00038658 -2.33369e-05
-8.5981e-06 -2.33369e-05 -0.000582592
-0.00127377 -3.72007e-05 1.062e-05
-3.72007e-05 -0.000952339 -2.54015e-06
1.062e-05 -2.54015e-06 -0.00118347
0.000578092 0.000133963 -2.42116e-06
0.000133963 0.000248033 1.12327e-07
-2.42116e-06 1.12327e-07 4.12004e-05
-0.000143251 0.000110733 4.97279e-06
0.000110733 -0.000149966 1.05139e-06
4.97279e-06 1.05139e-06 -0.000409297
0.00107325 0.000271849 -4.87052e-06
0.000271849 0.000668744 -5.25703e-07
-4.87052e-06 -5.25703e-07 0.000417941
0.000283246 -2.62307e-06 -1.20405e-05
-2.62307e-06 0.000107797 5.86783e-06
-1.20405e-05 5.86783e-06 -0.000131826
0.000868845 0.000152767 -3.62308e-06
0.000152767 0.000401759 -2.75969e-06
-3.62308e-06 -2.75969e-06 0.000236889
0.000504589 0.000104245 1.10014e-06
0.000104245 0.000109691 2.36657e-06
1.10014e-06 2.36657e-06 1.47718e-06
0.00040645 4.58753e-05 -3.26908e-06
4.58753e-05 4.11036e-05 1.91145e-07
-3.26908e-06 1.91145e-07 -6.46808e-05
0.00146347 8.36941e-06 1.56088e-06
8.36941e-06 0.000695656 5.02008e-06
1.56088e-06 5.02008e-06 0.000662114
4.69098e-05 -8.11609e-05 1.01433e-05
-8.11609e-05 -0.000181785 -3.3546e-06
1.01433e-05 -3.3546e-06 -0.000303695
0.00154549 1.16552e-05 -1.63055e-05
1.16552e-05 0.000747409 -2.42885e-06
-1.63055e-05 -2.42885e-06 0.00071158
0.000754217 -6.34312e-06 5.14985e-05
-6.34312e-06 0.000216404 1.22806e-05
5.14985e-05 1.22806e-05 0.000215518
0.00166662 1.49685e-05 -2.38811e-05
1.49685e-05 0.000822551 -1.15858e-05
-2.38811e-05 -1.15858e-05 0.000782952
0.000739545 -2.7532e-05 2.7103e-05
-2.7532e-05 0.000206713 4.99051e-06
2.7103e-05 4.99051e-06 0.000195739
0.00375164 -0.000169717 1.53152e-05
-0.000169717 0.00223295 -6.87889e-06
1.53152e-05 -6.87889e-06 0.00220991
0.000443529 0.000114349 -3.68686e-06
0.000114349 7.2489e-05 -1.02624e-05
-3.68686e-06 -1.02624e-05 -3.10066e-05
0.000354705 -4.90385e-05 -7.16577e-06
-4.90385e-05 -3.99479e-05 -1.86746e-06
-7.16577e-06 -1.86746e-06 -0.000131965
0.00432231 0.000256083 -3.46148e-05
0.000256083 0.00266639 -1.57668e-05
-3.46148e-05 -1.57668e-05 0.00261598
0.000574642 -0.000158884 -1.54065e-05
-0.000158884 9.46453e-05 1.40059e-05
-1.54065e-05 1.40059e-05 1.08917e-06
0.00415159 0.000159396 -1.55934e-05
0.000159396 0.00254019 -3.62699e-07
-1.55934e-05 -3.62699e-07 0.00251393
0.00582668 6.28877e-05 -0.00024396
6.28877e-05 0.00365932 4.53139e-05
-0.00024396 4.53139e-05 0.00364161
0.00238596 0.000500386 -3.82428e-06
0.000500386 7.55967e-05 -7.14907e-07
-3.82428e-06 -7.14907e-07 -1.45965e-06
0.00220477 0.000248045 -4.30994e-06
0.000248045 -1.03296e-05 -4.63966e-07
-4.30994e-06 -4.63966e-07 -2.67407e-05
0.00238155 0.000362678 1.10048e-06
0.000362678 -6.39609e-05 9.05326e-07
1.10048e-06 9.05326e-07 -3.13338e-05
0.00228287 0.00017477 1.19866e-06
0.00017477 -7.64362e-05 4.20968e-07
1.19866e-06 4.20968e-07 -1.61002e-05
0.00214982 6.50779e-05 -3.40028e-06
6.50779e-05 -5.25844e-05 1.01019e-07
-3.40028e-06 1.01019e-07 -3.42511e-05
0.00233329 -5.21262e-06 -2.64977e-06
-5.21262e-06 0.000103165 1.46308e-07
-2.64977e-06 1.46308e-07 6.31085e-05
0.00215911 -1.24406e-05 2.7259e-07
-1.24406e-05 -3.71182e-05 -2.64656e-08
2.7259e-07 -2.64656e-08 -2.10959e-05
0.00231427 7.46747e-05 4.51852e-07
7.46747e-05 -4.29384e-05 2.48501e-08
4.51852e-07 2.48501e-08 1.96058e-05
0.00232812 0.000245999 -6.61387e-07
0.000245999 -4.50242e-05 -5.27102e-08
-6.61387e-07 -5.27102e-08 -8.40067e-06
0.00239457 0.000185062 6.18775e-07
0.000185062 -0.000108506 1.63435e-07
6.18775e-07 1.63435e-07 2.82948e-06
0.00247571 0.000515402 -2.82971e-07
0.000515402 1.73282e-05 7.65968e-09
-2.82971e-07 7.65968e-09 -5.53936e-06
0.00249689 0.000369321 1.8603e-06
0.000369321 -9.19797e-05 7.57913e-07
1.8603e-06 7.57913e-07 -1.81143e-05
0.00227499 -1.67348e-05 -1.28692e-06
-1.67348e-05 -6.5004e-05 2.83565e-08
-1.28692e-06 2.83565e-08 -4.28708e-06
0.00244045 9.23576e-05 -8.61872e-07
9.23576e-05 -0.000102657 -9.07123e-07
-8.61872e-07 -9.07123e-07 2.03724e-05
0.0024958 0.000258006 -3.78623e-07
0.000258006 -8.77666e-05 -3.87215e-07
-3.78623e-07 -3.87215e-07 2.7376e-05
0.00260316 0.000529654 -1.28672e-06
0.000529654 -9.66245e-05 1.0364e-07
-1.28672e-06 1.0364e-07 -1.30493e-05
0.00217523 -9.17736e-05 -5.0999e-06
-9.17736e-05 -1.66322e-05 4.69232e-07
-5.0999e-06 4.69232e-07 -1.16713e-05
0.00234038 -0.000275819 -3.9096e-06
-0.000275819 8.18929e-05 1.18351e-06
-3.9096e-06 1.18351e-06 5.85304e-05
0.00221707 -0.000166427 1.80032e-07
-0.000166427 -7.28006e-05 -1.84531e-07
1.80032e-07 -1.84531e-07 -2.43776e-05
0.00235976 -0.000418052 -1.83537e-06
-0.000418052 -4.3681e-05 -2.67815e-07
-1.83537e-06 -2.67815e-07 -3.04479e-05
0.00228157 -0.000966171 7.61297e-06
-0.000966171 0.000818864 -9.31981e-06
7.61297e-06 -9.31981e-06 0.000139041
0.00225889 -0.00117048 1.01855e-05
-0.00117048 0.000511832 -3.63759e-06
1.01855e-05 -3.63759e-06 -0.000188744
0.0026325 -0.00106347 -8.30423e-06
-0.00106347 0.000543438 -2.01648e-07
-8.30423e-06 -2.01648e-07 8.87889e-06
0.00247461 -0.000659123 -2.88636e-06
-0.000659123 0.000132636 1.01065e-06
-2.88636e-06 1.01065e-06 2.01149e-05
0.00249209 -0.000568548 1.8926e-06
-0.000568548 -8.4003e-06 -7.47056e-07
1.8926e-06 -7.47056e-07 -7.76491e-06
0.00260681 -0.000841166 -4.32877e-06
-0.000841166 0.000150484 1.83906e-06
-4.32877e-06 1.83906e-06 2.11356e-05
0.00263621 -0.000934874 -2.48812e-06
-0.000934874 0.000477666 3.01207e-06
-2.48812e-06 3.01207e-06 0.000108281
0.00256625 -0.000943696 1.08719e-06
-0.000943696 0.000190891 5.81975e-07
1.08719e-06 5.81975e-07 -2.80497e-05
0.00218205 -0.00103817 -1.83893e-05
-0.00103817 0.000973964 -9.21222e-06
-1.83893e-05 -9.21222e-06 0.00020718
0.00132871 -0.000830947 1.49225e-05
-0.000830947 0.000549217 -1.39846e-05
1.49225e-05 -1.39846e-05 -0.000183696
-0.000112259 -0.000341081 -1.81964e-05
-0.000341081 -0.000217452 -6.62283e-06
-1.81964e-05 -6.62283e-06 -0.000741885
0.000418812 -0.000110544 -6.76515e-06
-0.000110544 4.57132e-05 1.55077e-06
-6.76515e-06 1.55077e-06 -0.000229289
0.00387431 0.000111558 1.78874e-06
0.000111558 0.00231178 -7.94192e-07
1.78874e-06 -7.94192e-07 0.001942
0.00227591 -0.000114252 2.07051e-07
-0.000114252 -6.15567e-05 -9.53533e-08
2.07051e-07 -9.53533e-08 -6.12901e-07
0.00234992 -0.000255749 1.88945e-06
-0.000255749 -6.79322e-05 -9.79122e-09
1.88945e-06 -9.79122e-09 -9.51102e-06
0.00252973 -0.00050541 -1.02119e-06
-0.00050541 -7.99637e-05 1.52995e-07
-1.02119e-06 1.52995e-07 -1.71948e-05
0.00252504 -0.00125892 -2.25481e-06
-0.00125892 0.000966008 1.29766e-07
-2.25481e-06 1.29766e-07 0.000164656
0.00193839 -0.00117436 5.12294e-06
-0.00117436 0.000335427 -2.30967e-07
5.12294e-06 -2.30967e-07 -0.000368661
0.00274858 -0.00111937 -1.33208e-06
-0.00111937 0.000609344 -7.87783e-07
-1.33208e-06 -7.87783e-07 7.07277e-05
0.00254446 -0.000691147 2.40807e-07
-0.000691147 4.64668e-05 -3.47062e-07
2.40807e-07 -3.47062e-07 -4.10169e-06
0.00262953 -0.000989791 5.50233e-06
-0.000989791 0.000352546 -3.04947e-06
5.50233e-06 -3.04947e-06 2.56058e-05
0.00274685 -0.000958744 -6.09214e-07
-0.000958744 0.000169284 -6.5053e-07
-6.09214e-07 -6.5053e-07 1.21571e-05
-0.000602547 -3.06108e-05 -2.30574e-06
-3.06108e-05 -0.000595437 -1.94448e-07
-2.30574e-06 -1.94448e-07 -0.000823307
0.00196444 -0.0010953 1.05112e-06
-0.0010953 0.000846871 -9.01977e-08
1.05112e-06 -9.01977e-08 3.48199e-05
0.0019849 -0.00101133 -6.12159e-06
-0.00101133 0.000925978 2.94612e-06
-6.12159e-06 2.94612e-06 8.46697e-05
0.00199546 -0.000700746 2.95633e-06
-0.000700746 0.00108381 2.78014e-06
2.95633e-06 2.78014e-06 0.000445549
0.000568175 -0.000236169 -5.01074e-06
-0.000236169 5.38638e-05 4.18968e-07
-5.01074e-06 4.18968e-07 -0.000313251
0.0018557 -0.00016283 -3.77727e-06
-0.00016283 0.00100553 4.6454e-06
-3.77727e-06 4.6454e-06 0.000581683
0.00237605 -0.000147323 -1.55842e-06
-0.000147323 -0.000126197 5.40939e-07
-1.55842e-06 5.40939e-07 -1.79288e-05
0.0025417 -0.000337068 1.4642e-06
-0.000337068 -0.000154078 4.17871e-07
1.4642e-06 4.17871e-07 -6.24563e-06
0.00265353 -0.000638555 -5.53809e-08
-0.000638555 -6.23646e-05 6.79226e-07
-5.53809e-08 6.79226e-07 1.09601e-05
0.00268651 -0.000832218 3.65805e-07
-0.000832218 1.39745e-05 9.21288e-07
3.65805e-07 9.21288e-07 3.59967e-06
0.00275167 -0.00136448 -7.42348e-06
-0.00136448 0.00111869 5.83467e-06
-7.42348e-06 5.83467e-06 0.000277505
0.00273512 -0.00110236 -1.15349e-06
-0.00110236 0.000250944 -7.84947e-06
-1.15349e-06 -7.84947e-06 -3.24736e-05
0.00283356 -0.00141963 -4.7302e-05
-0.00141963 0.000887923 1.0882e-05
-4.7302e-05 1.0882e-05 0.000107297
0.00237894 -0.00114836 -3.1716e-05
-0.00114836 0.000389714 8.01262e-07
-3.1716e-05 8.01262e-07 -0.000144754
-0.000856595 -5.3859e-06 -1.64038e-06
-5.3859e-06 -0.000786853 -1.37178e-06
-1.64038e-06 -1.37178e-06 -0.00093353
0.00129277 -0.00021943 -2.56067e-06
-0.00021943 0.000803989 6.70713e-06
-2.56067e-06 6.70713e-06 0.00039649
0.0031282 -0.000450271 -1.49835e-05
-0.000450271 0.00179718 9.88898e-06
-1.49835e-05 9.88898e-06 0.00141291
0.000410258 -0.000281737 -2.70509e-08
-0.000281737 3.9519e-05 -3.81338e-06
-2.70509e-08 -3.81338e-06 -0.000373286
0.00256641 -0.00117748 -1.23555e-05
-0.00117748 0.00122672 2.25653e-05
-1.23555e-05 2.25653e-05 0.000387598
0.00225446 -0.00102893 -1.00578e-05
-0.00102893 0.00113257 1.90681e-05
-1.00578e-05 1.90681e-05 0.000257741
0.000340745 0.000161 2.21215e-06
0.000161 1.59061e-05 -1.25982e-05
2.21215e-06 -1.25982e-05 -0.00022176
-0.000100721 0.000155975 -4.05093e-07
0.000155975 -0.000237166 -4.43721e-06
-4.05093e-07 -4.43721e-06 -0.000615559
0.00250825 0.000670536 -9.51987e-07
0.000670536 0.000113503 -4.74206e-07
-9.51987e-07 -4.74206e-07 4.05954e-06
0.000159275 0.000218152 -7.28003e-06
0.000218152 -0.000425742 3.24605e-06
-7.28003e-06 3.24605e-06 -0.000737844
0.0020431 0.00102069 6.04286e-06
0.00102069 0.000927276 -3.03484e-06
6.04286e-06 -3.03484e-06 0.000168982
0.000316561 0.000464501 -1.78373e-05
0.000464501 -0.000490409 -2.42683e-06
-1.78373e-05 -2.42683e-06 -0.000916942
0.0026389 0.00094487 3.68619e-06
0.00094487 0.000354268 -5.43619e-07
3.68619e-06 -5.43619e-07 -1.50249e-06
0.00268834 0.000930388 -3.59379e-06
0.000930388 0.000231505 -8.41862e-08
-3.59379e-06 -8.41862e-08 9.37782e-06
0.00264976 0.00145391 -9.44073e-06
0.00145391 0.00109233 4.14646e-06
-9.44073e-06 4.14646e-06 0.000206249
0.0024239 0.00123159 -1.04673e-05
0.00123159 0.000509601 2.26126e-06
-1.04673e-05 2.26126e-06 -0.000128311
0.000688594 0.000304085 -1.29804e-07
0.000304085 0.000294581 -7.04127e-07
-1.29804e-07 -7.04127e-07 -5.52508e-05
0.00109645 0.000420382 -7.83002e-07
0.000420382 0.000519914 -4.3826e-06
-7.83002e-07 -4.3826e-06 8.25104e-05
0.00164743 0.00103212 -3.5689e-06
0.00103212 0.000679512 -7.05879e-07
-3.5689e-06 -7.05879e-07 -5.41491e-05
0.00140305 0.000560963 -1.69911e-06
0.000560963 0.000179649 9.29561e-07
-1.69911e-06 9.29561e-07 -0.000225576
0.00339639 0.00107877 -8.48618e-08
0.00107877 0.00138995 1.68724e-06
-8.48618e-08 1.68724e-06 0.000785303
0.00271871 0.000802308 -2.57118e-06
0.000802308 5.63574e-05 -4.10975e-07
-2.57118e-06 -4.10975e-07 7.31091e-06
0.0027401 0.000968177 2.86226e-06
0.000968177 0.000377234 -9.735e-07
2.86226e-06 -9.735e-07 1.43082e-05
0.00273147 0.000911608 5.7163e-07
0.000911608 0.000229682 2.85352e-06
5.7163e-07 2.85352e-06 -2.38832e-05
0.00251308 0.00145282 6.33719e-06
0.00145282 0.000925299 1.86431e-06
6.33719e-06 1.86431e-06 6.13684e-05
0.00275735 0.00152396 -5.91537e-06
0.00152396 0.000759498 1.40569e-06
-5.91537e-06 1.40569e-06 -2.47803e-05
-0.00169628 0.000136461 -1.03809e-05
0.000136461 -0.00125929 -5.99499e-06
-1.03809e-05 -5.99499e-06 -0.00152229
-0.00251992 0.000490392 -1.39221e-06
0.000490392 -0.00141263 -6.10043e-06
-1.39221e-06 -6.10043e-06 -0.00206193
0.00229122 0.0011722 1.96079e-05
0.0011722 0.000914301 -2.78564e-06
1.96079e-05 -2.78564e-06 0.000181723
0.00287773 0.000823806 5.62358e-06
0.000823806 0.00099715 -1.01226e-05
5.62358e-06 -1.01226e-05 0.000537185
0.00286566 0.00072682 1.04528e-06
0.00072682 -0.000209996 2.84945e-06
1.04528e-06 2.84945e-06 -1.58018e-05
0.00276028 0.000979607 6.64787e-06
0.000979607 7.53564e-05 6.39043e-07
6.64787e-06 6.39043e-07 -5.08989e-05
0.00300563 0.00126661 1.19938e-05
0.00126661 0.000561774 -5.41646e-06
1.19938e-05 -5.41646e-06 -1.81378e-05
0.00253713 0.00157933 1.02751e-05
0.00157933 0.00071476 -1.353e-06
1.02751e-05 -1.353e-06 -0.000180225
0.00165336 0.000292981 8.54534e-06
0.000292981 0.000977148 -6.6054e-07
8.54534e-06 -6.6054e-07 0.000655315
0.000225414 0.000238589 -5.04472e-06
0.000238589 4.88913e-05 1.61445e-06
-5.04472e-06 1.61445e-06 -0.000187405
-0.000269471 9.78875e-05 -1.93164e-06
9.78875e-05 -0.000236022 -9.35344e-06
-1.93164e-06 -9.35344e-06 -0.00038292
-0.000226568 3.36422e-05 5.66126e-06
3.36422e-05 -0.000304355 3.05043e-07
5.66126e-06 3.05043e-07 -0.000491338
-0.00252756 1.70296e-05 4.10661e-06
1.70296e-05 -0.00162919 -3.08664e-06
4.10661e-06 -3.08664e-06 -0.00190409
0.000750394 9.90959e-05 -1.29114e-06
9.90959e-05 0.000326669 -2.97319e-07
-1.29114e-06 -2.97319e-07 0.000158288
0.000679605 0.000259521 8.94856e-06
0.000259521 0.000447559 3.21447e-06
8.94856e-06 3.21447e-06 0.00020067
0.000707366 0.000102136 1.78978e-06
0.000102136 0.000424471 2.29678e-06
1.78978e-06 2.29678e-06 0.000146923
0.00111679 0.000198674 -9.56307e-06
0.000198674 0.000540662 -1.07933e-05
-9.56307e-06 -1.07933e-05 0.000419549
0.000619596 5.61889e-05 -8.12646e-06
5.61889e-05 0.00038777 1.64193e-06
-8.12646e-06 1.64193e-06 0.00011137
-0.000196983 8.37669e-05 -6.34082e-06
8.37669e-05 -0.000243704 2.57516e-06
-6.34082e-06 2.57516e-06 -0.0004497
0.000867194 0.000168033 4.67632e-07
0.000168033 0.000397222 1.0668e-06
4.67632e-07 1.0668e-06 0.000227259
0.000465033 0.000108155 2.51714e-06
0.000108155 9.16401e-05 3.61322e-06
2.51714e-06 3.61322e-06 -2.20495e-05
0.000414413 2.42665e-05 -2.05291e-06
2.42665e-05 4.62369e-05 -5.14046e-07
-2.05291e-06 -5.14046e-07 -5.80267e-05
0.00130731 3.08476e-05 6.11057e-07
3.08476e-05 0.000597919 3.37857e-06
6.11057e-07 3.37857e-06 0.000566189
0.000330451 -5.26563e-05 4.24843e-06
-5.26563e-05 -1.36087e-05 -1.94979e-06
4.24843e-06 -1.94979e-06 -0.00011441
0.00140856 1.28614e-05 -1.46283e-05
1.28614e-05 0.000663185 -2.11188e-06
-1.46283e-05 -2.11188e-06 0.000630138
0.00069257 6.53803e-07 4.62606e-05
6.53803e-07 0.00017861 1.16139e-05
4.62606e-05 1.16139e-05 0.000179327
0.00147376 -3.92969e-05 -1.43987e-05
-3.92969e-05 0.000703777 -9.78952e-06
-1.43987e-05 -9.78952e-06 0.000668603
0.000716108 -1.83063e-05 2.26919e-05
-1.83063e-05 0.000190076 4.53231e-06
2.26919e-05 4.53231e-06 0.000184748
0.000614305 -3.56763e-05 6.08414e-06
-3.56763e-05 0.00012653 -5.44547e-06
6.08414e-06 -5.44547e-06 0.00011168
0.00039064 1.6509e-05 3.61471e-06
1.6509e-05 -2.32523e-05 -1.03448e-05
3.61471e-06 -1.03448e-05 -7.68585e-05
0.000301601 2.30217e-05 -1.91142e-06
2.30217e-05 -5.98225e-05 5.4953e-07
-1.91142e-06 5.4953e-07 -0.000146126
0.00336898 0.000189938 -2.80958e-05
0.000189938 0.00200049 -1.38184e-05
-2.80958e-05 -1.38184e-05 0.00197199
-0.00075879 -8.03842e-05 -2.36348e-05
-8.03842e-05 -0.00077014 5.93838e-06
-2.36348e-05 5.93838e-06 -0.000863433
0.00456532 0.000166001 -2.81963e-05
0.000166001 0.00279273 -1.66036e-06
-2.81963e-05 -1.66036e-06 0.00276494
0.00389165 6.98504e-05 -0.000135139
6.98504e-05 0.00235495 2.63204e-05
-0.000135139 2.63204e-05 0.00235181
0.00247999 0.000517628 9.69834e-07
0.000517628 2.4144e-05 7.84845e-07
9.69834e-07 7.84845e-07 -1.76496e-06
0.00234941 0.000246621 -6.28504e-08
0.000246621 -2.49225e-05 2.96462e-08
-6.28504e-08 2.96462e-08 9.64518e-06
0.00251526 0.000372689 1.68625e-06
0.000372689 -8.00099e-05 1.96349e-06
1.68625e-06 1.96349e-06 4.30266e-06
0.0023635 0.000187324 1.80182e-06
0.000187324 -0.000134083 5.09935e-07
1.80182e-06 5.09935e-07 -1.21539e-05
0.00229664 7.69456e-05 6.44387e-07
7.69456e-05 -4.98574e-05 5.14585e-07
6.44387e-07 5.14585e-07 7.64173e-06
0.00217243 -1.47874e-05 -5.09977e-06
-1.47874e-05 -2.34034e-05 1.71319e-07
-5.09977e-06 1.71319e-07 -1.02216e-05
0.00228183 -1.62795e-05 6.34631e-07
-1.62795e-05 -5.95697e-05 -3.54557e-08
6.34631e-07 -3.54557e-08 2.66544e-06
0.00240356 9.76421e-05 4.44498e-07
9.76421e-05 -0.000121634 2.08738e-07
4.44498e-07 2.08738e-07 9.08968e-07
0.00248722 0.000263039 7.03219e-07
0.000263039 -9.71534e-05 2.37076e-08
7.03219e-07 2.37076e-08 1.81138e-05
0.00261018 0.000512077 5.16505e-07
0.000512077 -9.00438e-05 2.90904e-07
5.16505e-07 2.90904e-07 -6.44939e-07
0.00240606 -1.55774e-05 -2.16428e-06
-1.55774e-05 -0.000119376 -8.42157e-08
-2.16428e-06 -8.42157e-08 -3.10991e-06
0.00254922 0.000161955 -3.31977e-07
0.000161955 -0.000150007 -8.4506e-07
-3.31977e-07 -8.4506e-07 3.83339e-05
0.00272119 0.000360715 9.95263e-07
0.000360715 -0.000141891 -7.80081e-08
9.95263e-07 -7.80081e-08 3.05897e-05
0.00227278 -0.000121939 8.152e-07
-0.000121939 -6.05822e-05 -4.97998e-07
8.152e-07 -4.97998e-07 -1.26914e-06
0.00235846 -0.000256324 -5.90959e-07
-0.000256324 -6.36196e-05 -3.31784e-07
-5.90959e-07 -3.31784e-07 -7.01818e-06
0.00250282 -0.000498216 -4.08268e-07
-0.000498216 -7.85125e-05 -2.25723e-08
-4.08268e-07 -2.25723e-08 -2.76951e-05
0.00254959 -0.00124831 -5.26313e-07
-0.00124831 0.000977815 -3.04421e-06
-5.26313e-07 -3.04421e-06 0.000178399
0.00199762 -0.00115887 1.06989e-05
-0.00115887 0.000373973 -4.83581e-06
1.06989e-05 -4.83581e-06 -0.00032122
0.00262672 -0.00111151 2.98538e-06
-0.00111151 0.000532338 1.58631e-07
2.98538e-06 1.58631e-07 -7.94789e-06
0.00255495 -0.000683011 -1.10182e-06
-0.000683011 5.86633e-05 1.6873e-07
-1.10182e-06 1.6873e-07 6.64829e-06
0.00275906 -0.000946642 -9.90795e-07
-0.000946642 0.000200174 2.69955e-06
-9.90795e-07 2.69955e-06 5.13001e-05
0.00267576 -0.00101189 8.08603e-06
-0.00101189 0.000361686 -2.17466e-06
8.08603e-06 -2.17466e-06 3.10634e-05
0.00193204 -0.00109006 1.08476e-06
-0.00109006 0.000825709 -8.67931e-06
1.08476e-06 -8.67931e-06 1.82628e-05
0.00239991 -0.00109839 2.45332e-05
-0.00109839 0.00119339 -2.40588e-05
2.45332e-05 -2.40588e-05 0.000318325
0.00120859 -0.000793024 -7.91808e-06
-0.000793024 0.000672305 -7.57563e-06
-7.91808e-06 -7.57563e-06 -3.52346e-05
1.1378e-05 1.51807e-05 5.8361e-06
1.51807e-05 -0.000161737 -4.50034e-06
5.8361e-06 -4.50034e-06 -0.000408733
0.00280821 -0.000346966 1.02167e-05
-0.000346966 0.00146354 -1.92091e-06
1.02167e-05 -1.92091e-06 0.00111373
-0.000713381 9.52469e-05 7.7589e-06
9.52469e-05 -0.000700497 -8.97089e-08
7.7589e-06 -8.97089e-08 -0.00111513
0.0024062 -0.000138337 -3.72378e-07
-0.000138337 -0.000105098 1.57045e-07
-3.72378e-07 1.57045e-07 -8.69337e-07
0.00253585 -0.000352608 9.63791e-08
-0.000352608 -0.000166504 -4.60001e-07
9.63791e-08 -4.60001e-07 -1.31252e-05
0.00264281 -0.000623561 -3.88322e-07
-0.000623561 -6.33748e-05 -1.79911e-07
-3.88322e-07 -1.79911e-07 9.41546e-06
0.00242508 -0.0013119 -2.16638e-06
-0.0013119 0.000915683 5.71936e-07
-2.16638e-06 5.71936e-07 8.92659e-05
0.00230205 -0.00133151 9.9543e-06
-0.00133151 0.000579716 -3.26602e-06
9.9543e-06 -3.26602e-06 -0.000172373
0.00254806 -0.00115861 -1.17463e-06
-0.00115861 0.000468975 -1.84111e-06
-1.17463e-06 -1.84111e-06 -5.62075e-05
0.00268324 -0.00084577 5.32857e-07
-0.00084577 8.02711e-06 -5.4275e-07
5.32857e-07 -5.4275e-07 -1.24796e-05
0.00278742 -0.00109574 2.28466e-06
-0.00109574 0.0002954 -1.66688e-06
2.28466e-06 -1.66688e-06 1.9747e-05
-0.000122023 2.8536e-05 -6.73214e-08
2.8536e-05 -0.000291564 -5.62492e-06
-6.73214e-08 -5.62492e-06 -0.000443236
0.000626227 -0.000175064 -2.30251e-06
-0.000175064 0.000346671 1.00051e-06
-2.30251e-06 1.00051e-06 -3.78785e-05
0.00191797 -0.00109815 -7.26394e-06
-0.00109815 0.00082821 3.18497e-07
-7.26394e-06 3.18497e-07 1.75704e-05
0.00137863 -0.000849214 1.13784e-06
-0.000849214 0.000643048 1.24902e-06
1.13784e-06 1.24902e-06 -0.000209091
0.00197627 -0.000342354 -2.35997e-06
-0.000342354 0.000994539 -7.12253e-06
-2.35997e-06 -7.12253e-06 0.000573263
0.000694074 -0.000315162 3.43251e-06
-0.000315162 0.000214579 -2.36661e-06
3.43251e-06 -2.36661e-06 -0.000171351
0.00250072 -0.000185588 1.71075e-06
-0.000185588 -0.000199006 1.00101e-06
1.71075e-06 1.00101e-06 -5.50786e-06
0.00277184 -0.000520151 2.96736e-06
-0.000520151 -0.000190484 6.26175e-07
2.96736e-06 6.26175e-07 3.53982e-05
0.00269889 -0.000786692 1.26285e-06
-0.000786692 -0.000109411 1.50474e-06
1.26285e-06 1.50474e-06 -3.46057e-05
0.00291899 -0.00109061 3.59125e-06
-0.00109061 0.00019104 -7.79264e-07
3.59125e-06 -7.79264e-07 4.77033e-05
0.00230279 -0.00135615 -5.51248e-06
-0.00135615 0.000867356 -4.97913e-06
-5.51248e-06 -4.97913e-06 5.34282e-05
0.00310114 -0.00139333 4.34731e-06
-0.00139333 0.000635082 -1.3067e-05
4.34731e-06 -1.3067e-05 0.000133056
0.00240663 -0.0014648 -5.68162e-05
-0.0014648 0.000618308 4.43931e-06
-5.68162e-05 4.43931e-06 -0.000176582
0.000445119 3.07627e-05 2.02799e-06
3.07627e-05 5.42757e-05 -5.11823e-06
2.02799e-06 -5.11823e-06 -5.38097e-05
0.000694802 -0.000191996 5.30816e-06
-0.000191996 0.000309897 -7.20369e-06
5.30816e-06 -7.20369e-06 0.000123629
-0.00133736 1.17764e-05 -7.58095e-06
1.17764e-05 -0.000953606 2.69852e-06
-7.58095e-06 2.69852e-06 -0.00123225
0.000827278 -0.000338383 -1.05554e-05
-0.000338383 0.000536643 1.59028e-05
-1.05554e-05 1.59028e-05 0.000123928
0.00426932 -8.63839e-05 -1.35505e-05
-8.63839e-05 0.0025694 -1.18235e-06
-1.35505e-05 -1.18235e-06 0.00224672
-0.000213086 -0.000318337 -5.39927e-06
-0.000318337 -0.000382504 -2.32151e-06
-5.39927e-06 -2.32151e-06 -0.000977358
0.00241349 -0.00125104 -3.16574e-05
-0.00125104 0.00104033 4.45088e-05
-3.16574e-05 4.45088e-05 0.000200064
0.00396925 -0.00127959 -4.01212e-05
-0.00127959 0.00222312 2.77893e-05
-4.01212e-05 2.77893e-05 0.0011879
0.000424827 0.000161469 7.81866e-06
0.000161469 9.36942e-05 -4.98202e-06
7.81866e-06 -4.98202e-06 -0.000227707
0.00213767 0.000559823 5.01208e-06
0.000559823 0.00118336 1.16541e-05
5.01208e-06 1.16541e-05 0.000719755
0.00276611 0.00081476 8.39251e-09
0.00081476 6.71701e-05 -6.12114e-07
8.39251e-09 -6.12114e-07 1.09974e-05
0.00241082 0.000438188 -7.56075e-07
0.000438188 0.000685993 -1.46689e-06
-7.56075e-07 -1.46689e-06 0.000327434
0.00144201 0.00098396 -3.24629e-06
0.00098396 0.000560588 -3.0713e-06
-3.24629e-06 -3.0713e-06 -0.000164405
0.00381546 0.00108851 -9.69398e-06
0.00108851 0.00166081 1.15182e-05
-9.69398e-06 1.15182e-05 0.00105634
0.00281124 0.000930271 -5.50893e-06
0.000930271 0.000432998 -1.07086e-06
-5.50893e-06 -1.07086e-06 9.56977e-05
0.00309995 0.000942711 -3.45253e-06
0.000942711 0.000483932 6.77869e-06
-3.45253e-06 6.77869e-06 0.000221174
0.00235293 0.00144679 -1.11137e-05
0.00144679 0.000815515 3.96109e-07
-1.11137e-05 3.96109e-07 -5.24592e-05
0.00255092 0.00158082 -1.9403e-05
0.00158082 0.000641158 -5.25048e-07
-1.9403e-05 -5.25048e-07 -0.000182946
-0.00126755 0.000211626 4.25602e-07
0.000211626 -0.000924426 -2.72248e-08
4.25602e-07 -2.72248e-08 -0.00125411
-0.000338681 0.00054785 4.6733e-06
0.00054785 -9.16282e-05 -8.03498e-07
4.6733e-06 -8.03498e-07 -0.000698788
0.00198397 0.00116443 5.51957e-07
0.00116443 0.000662958 -7.46968e-07
5.51957e-07 -7.46968e-07 -8.11251e-05
0.00294739 0.000832742 -8.25094e-06
0.000832742 0.00114884 -5.93648e-07
-8.25094e-06 -5.93648e-07 0.000665001
0.0027995 0.000688605 2.91918e-08
0.000688605 -0.00029036 8.29571e-08
2.91918e-08 8.29571e-08 -6.80013e-05
0.00293759 0.000985879 3.49722e-06
0.000985879 0.000187083 -1.04677e-06
3.49722e-06 -1.04677e-06 3.42482e-05
0.00274043 0.00121014 -4.58854e-06
0.00121014 0.000463523 -6.91471e-07
-4.58854e-06 -6.91471e-07 -9.4852e-05
0.00278559 0.00157823 1.48363e-06
0.00157823 0.000855524 7.88019e-07
1.48363e-06 7.88019e-07 -2.26773e-05
-0.00137096 9.16753e-06 -7.28401e-06
9.16753e-06 -0.000959033 -4.32411e-06
-7.28401e-06 -4.32411e-06 -0.00118931
0.00278313 0.000474923 1.6989e-06
0.000474923 -0.000334784 4.35408e-06
1.6989e-06 4.35408e-06 -5.80686e-05
0.00370301 0.000993009 -9.48476e-06
0.000993009 0.00240384 9.93775e-06
-9.48476e-06 9.93775e-06 0.00171561
0.00209035 0.00103925 7.62937e-06
0.00103925 0.00064697 -4.20147e-06
7.62937e-06 -4.20147e-06 -7.7152e-06
0.00293336 0.000974919 -2.37818e-05
0.000974919 -5.60273e-05 -1.45156e-05
-2.37818e-05 -1.45156e-05 4.06788e-05
0.00191016 0.00113709 8.10999e-06
0.00113709 -0.000148032 -1.28816e-05
8.10999e-06 -1.28816e-05 -0.00063863
0.00375186 0.00173924 6.29456e-06
0.00173924 0.00135704 3.07575e-06
6.29456e-06 3.07575e-06 0.000437934
0.000343732 0.000208195 4.92209e-06
0.000208195 0.000152198 9.7312e-06
4.92209e-06 9.7312e-06 -0.000112859
0.00053266 0.000178233 -4.0952e-06
0.000178233 0.000290362 -1.56685e-07
-4.0952e-06 -1.56685e-07 0.000126716
-0.0015603 2.04715e-05 -1.18593e-05
2.04715e-05 -0.00102947 8.94643e-07
-1.18593e-05 8.94643e-07 -0.00114862
-3.5211e-06 1.80002e-06 4.26544e-06
1.80002e-06 -0.000184771 6.60568e-07
4.26544e-06 6.60568e-07 -0.000334945
0.00046088 0.000138027 7.10384e-06
0.000138027 0.000257486 -8.02732e-06
7.10384e-06 -8.02732e-06 -1.55533e-05
-0.000898377 0.000135162 -6.13109e-06
0.000135162 -0.000558923 5.92889e-06
-6.13109e-06 5.92889e-06 -0.000770505
0.000473709 4.19313e-05 -1.73259e-06
4.19313e-05 0.000133564 -4.50939e-07
-1.73259e-06 -4.50939e-07 -2.8679e-05
0.000227265 1.40247e-05 3.69882e-07
1.40247e-05 5.97027e-05 -8.9909e-07
3.69882e-07 -8.9909e-07 -0.000166563
-3.02452e-05 0.000116459 -5.35641e-06
0.000116459 -0.000120252 3.35908e-06
-5.35641e-06 3.35908e-06 -0.00023327
0.000663754 0.000170854 2.97011e-06
0.000170854 0.000422968 -4.08302e-06
2.97011e-06 -4.08302e-06 0.00013958
0.00114766 0.000194254 -4.77315e-06
0.000194254 0.000628943 -6.86375e-06
-4.77315e-06 -6.86375e-06 0.000543641
-2.69973e-05 8.54082e-05 3.10712e-06
8.54082e-05 -9.57888e-05 -1.15189e-05
3.10712e-06 -1.15189e-05 -0.000247781
0.000961365 0.000104258 -6.95865e-06
0.000104258 0.000609193 5.82002e-06
-6.95865e-06 5.82002e-06 0.000325528
0.000629247 6.01508e-05 -5.89865e-06
6.01508e-05 0.000289517 1.35035e-06
-5.89865e-06 1.35035e-06 6.23275e-05
0.000501539 5.29017e-05 9.43628e-08
5.29017e-05 0.000128923 2.00346e-06
9.43628e-08 2.00346e-06 -2.84312e-05
0.00041133 -9.02271e-05 -2.8428e-06
-9.02271e-05 4.38675e-05 3.26737e-06
-2.8428e-06 3.26737e-06 -6.37389e-05
0.000417434 1.68806e-05 7.94267e-07
1.68806e-05 4.04411e-05 -4.63064e-07
7.94267e-07 -4.63064e-07 -6.11108e-05
0.00134967 3.5923e-05 4.27496e-06
3.5923e-05 0.000629998 4.20528e-06
4.27496e-06 4.20528e-06 0.000598908
0.000411538 1.64812e-05 2.788e-06
1.64812e-05 2.52034e-05 -2.11567e-06
2.788e-06 -2.11567e-06 -6.64223e-05
0.00141343 2.23589e-05 -1.39453e-05
2.23589e-05 0.000671687 -2.24552e-06
-1.39453e-05 -2.24552e-06 0.000638911
0.000823252 6.2753e-06 4.1776e-05
6.2753e-06 0.000268986 1.04148e-05
4.1776e-05 1.04148e-05 0.000269746
0.00136334 -2.48959e-05 -1.28806e-05
-2.48959e-05 0.000631416 -8.68331e-06
-1.28806e-05 -8.68331e-06 0.000601368
0.000746403 -9.91575e-06 1.88822e-05
-9.91575e-06 0.000210201 4.48664e-06
1.88822e-05 4.48664e-06 0.000207589
0.000762809 -2.77939e-05 4.47047e-06
-2.77939e-05 0.00021745 -4.12932e-06
4.47047e-06 -4.12932e-06 0.000209748
0.000438128 -3.47479e-05 -2.98819e-08
-3.47479e-05 3.3988e-05 -5.73457e-06
-2.98819e-08 -5.73457e-06 -6.62301e-05
0.000176177 3.63402e-05 -4.70466e-07
3.63402e-05 -0.000144761 -9.45903e-06
-4.70466e-07 -9.45903e-06 -0.000197963
0.000242705 3.20157e-05 1.93384e-06
3.20157e-05 -0.000107228 1.19848e-06
1.93384e-06 1.19848e-06 -0.000168747
0.00369789 0.000146448 3.04057e-06
0.000146448 0.00219451 -9.16985e-06
3.04057e-06 -9.16985e-06 0.00217905
-1.45211e-05 -9.19509e-06 -3.34344e-06
-9.19509e-06 -0.000279629 1.02174e-05
-3.34344e-06 1.02174e-05 -0.000362056
0.00416903 0.000223032 -1.58581e-05
0.000223032 0.00254196 -2.24313e-06
-1.58581e-05 -2.24313e-06 0.00250452
0.00466409 0.000155955 -7.29727e-05
0.000155955 0.00285969 1.05691e-05
-7.29727e-05 1.05691e-05 0.00283726
0.00261691 0.000495861 1.38189e-06
0.000495861 -8.23738e-05 5.56642e-07
1.38189e-06 5.56642e-07 1.22329e-05
0.00247722 0.000269026 -6.18163e-08
0.000269026 -0.000106552 5.28709e-07
-6.18163e-08 5.28709e-07 8.17668e-06
0.00236038 0.000103197 1.72962e-06
0.000103197 -0.000144357 7.03801e-07
1.72962e-06 7.03801e-07 -2.20456e-05
0.00228442 -1.59716e-05 1.50998e-07
-1.59716e-05 -5.7369e-05 -8.805e-08
1.50998e-07 -8.805e-08 6.25326e-06
0.00240277 -1.22328e-05 -5.54834e-07
-1.22328e-05 -0.000125338 -9.32622e-08
-5.54834e-07 -9.32622e-08 -4.64616e-06
0.00250706 0.00016132 8.39636e-07
0.00016132 -0.000178023 2.19231e-07
8.39636e-07 2.19231e-07 1.2484e-05
0.0026403 0.000377159 -6.31443e-07
0.000377159 -0.000172559 -2.53287e-08
-6.31443e-07 -2.53287e-08 -2.47016e-06
0.00246966 -1.13517e-05 8.3143e-07
-1.13517e-05 -0.000234618 2.14555e-08
8.3143e-07 2.14555e-08 -2.69174e-05
0.00278399 0.000200231 2.71874e-06
0.000200231 -0.000198705 -1.52517e-06
2.71874e-06 -1.52517e-06 4.88723e-05
0.00258265 0.000208259 -1.86078e-06
0.000208259 -0.000486583 9.88437e-06
-1.86078e-06 9.88437e-06 -0.000177058
0.00242996 -0.000130174 1.27308e-06
-0.000130174 -8.82278e-05 -5.22006e-07
1.27308e-06 -5.22006e-07 1.22983e-05
0.00252912 -0.000369011 -2.14699e-06
-0.000369011 -0.000178568 -4.64822e-08
-2.14699e-06 -4.64822e-08 -2.11183e-05
0.00262641 -0.00060896 2.92542e-07
-0.00060896 -6.57052e-05 3.30587e-07
2.92542e-07 3.30587e-07 4.56276e-06
0.00245499 -0.00131856 -6.68527e-07
-0.00131856 0.000916921 -3.43019e-06
-6.68527e-07 -3.43019e-06 8.82945e-05
0.00197902 -0.0012913 2.91684e-05
-0.0012913 0.000387535 -4.74534e-06
2.91684e-05 -4.74534e-06 -0.000354786
0.0027589 -0.00118278 2.16118e-05
-0.00118278 0.000572959 -7.87925e-07
2.16118e-05 -7.87925e-07 5.08992e-05
0.00266545 -0.000856394 1.16051e-06
-0.000856394 -6.21616e-07 -1.14958e-06
1.16051e-06 -1.14958e-06 -3.35994e-05
0.00283232 -0.00108293 4.98675e-06
-0.00108293 0.000343767 5.1574e-06
4.98675e-06 5.1574e-06 7.5133e-05
0.00231087 -0.00116125 9.98349e-06
-0.00116125 0.00106056 -2.44956e-05
9.98349e-06 -2.44956e-05 0.000227654
-4.82702e-05 -0.000587288 1.64296e-05
-0.000587288 -0.000171202 -1.75784e-05
1.64296e-05 -1.75784e-05 -0.00100654
0.00291003 -0.000478071 4.71649e-06
-0.000478071 0.00156653 -1.27885e-06
4.71649e-06 -1.27885e-06 0.00114734
0.00071223 -8.19614e-05 -3.31561e-06
-8.19614e-05 0.000259506 9.04231e-06
-3.31561e-06 9.04231e-06 0.000113535
-0.000308312 -1.9598e-05 8.81663e-06
-1.9598e-05 -0.000300746 -8.66168e-06
8.81663e-06 -8.66168e-06 -0.00065296
-0.000768194 -0.000166317 6.13221e-06
-0.000166317 -0.000740408 -1.40878e-05
6.13221e-06 -1.40878e-05 -0.00113331
0.00251568 -0.0001869 6.34667e-08
-0.0001869 -0.00019404 -4.84292e-07
6.34667e-08 -4.84292e-07 3.01033e-06
0.000583116 -5.62703e-05 2.00744e-06
-5.62703e-05 0.000142202 4.34095e-07
2.00744e-06 4.34095e-07 2.69838e-05
0.000383348 -0.000123105 -3.81525e-06
-0.000123105 7.53913e-05 -2.78115e-07
-3.81525e-06 -2.78115e-07 -8.70231e-05
0.00270717 -0.000510358 -9.16706e-09
-0.000510358 -0.000214662 1.44918e-07
-9.16706e-09 1.44918e-07 -1.12557e-06
0.00271493 -0.000774404 -1.67479e-06
-0.000774404 -8.08751e-05 4.13162e-07
-1.67479e-06 4.13162e-07 -5.0217e-06
0.00254914 -0.00141199 2.44389e-07
-0.00141199 0.00101144 1.74736e-06
2.44389e-07 1.74736e-06 0.000167505
0.00310596 -0.00159566 1.04526e-05
-0.00159566 0.000988556 -2.75163e-06
1.04526e-05 -2.75163e-06 0.000162113
0.00291098 -0.00135585 3.78131e-06
-0.00135585 0.000546109 -8.21496e-07
3.78131e-06 -8.21496e-07 5.63439e-05
0.00280522 -0.00108271 2.4885e-06
-0.00108271 0.000123452 -1.24267e-06
2.4885e-06 -1.24267e-06 -1.27091e-05
9.84234e-05 -5.50314e-05 -3.21765e-06
-5.50314e-05 -2.13921e-05 -1.96103e-06
-3.21765e-06 -1.96103e-06 -0.000299013
0.000748207 -0.000245195 -3.31946e-07
-0.000245195 0.000475186 4.82651e-07
-3.31946e-07 4.82651e-07 6.40788e-05
0.00173627 -0.00108705 1.58991e-05
-0.00108705 0.000706179 6.64728e-06
1.58991e-05 6.64728e-06 -9.90992e-05
0.00136889 -0.000864375 1.68616e-05
-0.000864375 0.00075094 -1.79378e-05
1.68616e-05 -1.79378e-05 -0.000268356
0.000989466 -0.000401858 -2.87933e-06
-0.000401858 0.000458825 1.98543e-07
-2.87933e-06 1.98543e-07 -0.000146601
0.000999085 -0.000239465 8.94859e-06
-0.000239465 0.000465848 -3.08608e-06
8.94859e-06 -3.08608e-06 0.000163618
0.00256948 -0.000228112 2.46362e-06
-0.000228112 -0.000448034 -1.87547e-06
2.46362e-06 -1.87547e-06 -0.000122901
0.00294544 -0.000689536 -9.20335e-07
-0.000689536 -0.000160022 4.3358e-06
-9.20335e-07 4.3358e-06 0.000110085
0.00313466 -0.00114415 4.57879e-07
-0.00114415 0.000103074 -8.06871e-07
4.57879e-07 -8.06871e-07 6.89212e-05
0.00266033 -0.00128448 5.3116e-06
-0.00128448 0.000182205 -7.14412e-06
5.3116e-06 -7.14412e-06 -0.000136655
0.00100276 -0.0012478 6.37228e-06
-0.0012478 0.000143644 -9.38876e-06
6.37228e-06 -9.38876e-06 -0.000668781
0.00385147 -0.00187685 2.02396e-06
-0.00187685 0.00123132 -1.64018e-05
2.02396e-06 -1.64018e-05 0.000379879
0.000425247 7.79762e-05 -4.18373e-06
7.79762e-05 8.75299e-05 -5.72824e-06
-4.18373e-06 -5.72824e-06 -7.14628e-05
-0.000825777 -9.38918e-05 4.88284e-06
-9.38918e-05 -0.000689763 -1.39218e-06
4.88284e-06 -1.39218e-06 -0.000871127
0.00189504 -0.000283998 -1.15525e-05
-0.000283998 0.00109234 1.57045e-05
-1.15525e-05 1.57045e-05 0.000872299
0.000258415 -9.66659e-05 -7.18245e-06
-9.66659e-05 9.08485e-05 1.83295e-05
-7.18245e-06 1.83295e-05 -0.000224999
0.00153691 -0.000386491 -1.48698e-05
-0.000386491 0.000952714 3.05294e-05
-1.48698e-05 3.05294e-05 0.000562101
-0.000683923 -9.98784e-05 -1.18953e-05
-9.98784e-05 -0.000644276 -1.77597e-05
-1.18953e-05 -1.77597e-05 -0.000889787
-0.00145676 -0.00043001 -2.54343e-05
-0.00043001 -0.000488172 1.41662e-05
-2.54343e-05 1.41662e-05 -0.00166252
0.00157113 -0.00140508 -7.69179e-05
-0.00140508 0.000380971 2.8766e-05
-7.69179e-05 2.8766e-05 -0.000298091
-0.000436438 0.000436179 3.00523e-06
0.000436179 -0.000288784 3.77608e-06
3.00523e-06 3.77608e-06 -0.000690612
0.00383009 0.000741261 -3.85958e-06
0.000741261 0.00242508 -3.53594e-07
-3.85958e-06 -3.53594e-07 0.00191139
0.0027119 0.000647525 -2.7034e-06
0.000647525 -0.000371931 -3.63045e-06
-2.7034e-06 -3.63045e-06 -0.000125635
0.00310447 0.000990319 -5.20398e-06
0.000990319 0.000295895 -5.32087e-07
-5.20398e-06 -5.32087e-07 0.000117114
0.00364621 0.000835281 -8.29e-06
0.000835281 0.00167431 3.7507e-06
-8.29e-06 3.7507e-06 0.00120025
0.00167396 0.00115652 -1.91958e-05
0.00115652 0.000412201 -4.97143e-06
-1.91958e-05 -4.97143e-06 -0.000343847
0.00251728 0.00115699 -6.56576e-06
0.00115699 0.000390775 3.62275e-06
-6.56576e-06 3.62275e-06 -0.000147495
0.00303842 0.00156996 -1.50608e-05
0.00156996 0.00099611 -9.09151e-07
-1.50608e-05 -9.09151e-07 0.000136841
0.000342991 0.00035692 2.20444e-06
0.00035692 0.000237546 4.0613e-07
2.20444e-06 4.0613e-07 -9.41933e-05
0.00275428 0.000467075 -4.37291e-06
0.000467075 -0.00035256 -4.87114e-06
-4.37291e-06 -4.87114e-06 -5.78894e-05
0.00216067 0.000736359 2.40994e-06
0.000736359 0.00146811 6.33693e-06
2.40994e-06 6.33693e-06 0.00087092
0.00159344 0.000953201 2.97009e-06
0.000953201 0.000399673 2.42906e-06
2.97009e-06 2.42906e-06 -0.000234891
0.00302444 0.000936019 2.21716e-07
0.000936019 5.03194e-05 4.64586e-07
2.21716e-07 4.64586e-07 0.000146073
0.00247286 0.00123092 -3.4937e-06
0.00123092 0.000190423 -6.72663e-06
-3.4937e-06 -6.72663e-06 -0.00031358
0.00325428 0.00161838 -1.83233e-06
0.00161838 0.00109331 -5.29774e-07
-1.83233e-06 -5.29774e-07 0.000214086
0.00161325 0.000548109 -1.09091e-05
0.000548109 0.00115725 -2.13671e-06
-1.09091e-05 -2.13671e-06 0.000695718
0.00471225 0.00100301 -0.00014502
0.00100301 0.000584522 -5.80963e-05
-0.00014502 -5.80963e-05 0.00110153
0.00101863 0.000755047 -1.02938e-05
0.000755047 0.000611993 1.96643e-05
-1.02938e-05 1.96643e-05 -2.23152e-05
0.001592 0.00107469 5.33577e-07
0.00107469 0.000432884 -1.1392e-05
5.33577e-07 -1.1392e-05 -0.000312966
0.00382294 0.00136237 -5.36523e-05
0.00136237 0.000795274 -2.63896e-05
-5.36523e-05 -2.63896e-05 0.000531887
0.00195584 0.0014128 -3.40151e-05
0.0014128 0.000354255 -8.36101e-06
-3.40151e-05 -8.36101e-06 -0.000429481
0.00124074 0.00217802 -5.60042e-06
0.00217802 -0.00360179 -7.77499e-05
-5.60042e-06 -7.77499e-05 -0.00151796
0.00107605 0.000288819 1.33788e-05
0.000288819 0.000693852 1.45994e-05
1.33788e-05 1.45994e-05 0.000502841
0.000200107 0.000185272 -3.24348e-06
0.000185272 0.000139497 -9.70698e-07
-3.24348e-06 -9.70698e-07 -1.97241e-05
-0.000801239 9.1081e-05 -8.45857e-06
9.1081e-05 -0.000490079 3.12792e-06
-8.45857e-06 3.12792e-06 -0.000647758
0.000277113 -6.238e-05 4.32886e-06
-6.238e-05 4.63419e-06 -1.20784e-06
4.32886e-06 -1.20784e-06 -0.000157362
-0.000422595 1.94509e-05 5.40431e-06
1.94509e-05 -0.000360058 -3.85293e-06
5.40431e-06 -3.85293e-06 -0.000585069
0.00194238 0.000350513 8.51075e-07
0.000350513 0.00127232 -9.46112e-06
8.51075e-07 -9.46112e-06 0.000962689
-0.00171343 3.51098e-06 -7.29421e-06
3.51098e-06 -0.00113437 1.12447e-05
-7.29421e-06 1.12447e-05 -0.00124431
0.000445613 -4.77253e-06 -4.10649e-08
-4.77253e-06 0.000107234 -4.33496e-07
-4.10649e-08 -4.33496e-07 -5.90635e-05
0.000369993 9.75242e-05 5.30048e-07
9.75242e-05 8.04816e-05 -5.37506e-07
5.30048e-07 -5.37506e-07 -0.000109096
-0.000126287 0.000125333 1.97815e-06
0.000125333 -0.000149552 3.44261e-06
1.97815e-06 3.44261e-06 -0.000211552
4.44964e-05 9.05754e-05 8.90456e-07
9.05754e-05 -1.45764e-05 7.24537e-08
8.90456e-07 7.24537e-08 -0.000273669
0.000299541 9.74688e-05 7.51961e-07
9.74688e-05 0.000115919 1.41699e-06
7.51961e-07 1.41699e-06 -4.99001e-05
0.000211419 0.000118929 1.07809e-05
0.000118929 0.000184116 -1.31994e-05
1.07809e-05 -1.31994e-05 3.31027e-05
0.000888844 0.000160226 -5.88349e-06
0.000160226 0.000532483 5.23079e-06
-5.88349e-06 5.23079e-06 0.000285702
0.000820854 0.000134077 -4.94666e-06
0.000134077 0.000445741 1.77883e-06
-4.94666e-06 1.77883e-06 0.000215003
0.000802368 0.00014632 -7.80148e-06
0.00014632 0.000378949 -4.1258e-06
-7.80148e-06 -4.1258e-06 0.000174677
4.91364e-05 3.06739e-06 -3.48284e-06
3.06739e-06 -0.000183064 -4.74182e-07
-3.48284e-06 -4.74182e-07 -0.000330574
0.00143416 -0.000231858 8.85157e-06
-0.000231858 0.000916243 -1.18177e-05
8.85157e-06 -1.18177e-05 0.000600926
0.000157325 -7.5432e-05 -2.90547e-06
-7.5432e-05 -8.65925e-05 2.55492e-06
-2.90547e-06 2.55492e-06 -0.000256731
0.000283193 2.70431e-06 -2.94927e-06
2.70431e-06 -3.37894e-05 2.64876e-06
-2.94927e-06 2.64876e-06 -0.000142475
0.000385339 5.11987e-05 2.31577e-06
5.11987e-05 3.33061e-05 -8.78359e-08
2.31577e-06 -8.78359e-08 -7.72174e-05
0.000293522 1.93145e-05 -3.75726e-06
1.93145e-05 -5.95214e-05 5.60159e-06
-3.75726e-06 5.60159e-06 -9.73021e-05
0.000266071 -2.66436e-06 -3.48284e-07
-2.66436e-06 -4.69028e-05 -3.74317e-06
-3.48284e-07 -3.74317e-06 -0.000156367
0.000835427 1.83945e-05 -5.42613e-06
1.83945e-05 0.000294811 -1.63019e-06
-5.42613e-06 -1.63019e-06 0.000260294
0.00277815 1.11046e-05 3.75539e-05
1.11046e-05 0.00156107 6.95239e-06
3.75539e-05 6.95239e-06 0.00157194
0.00143331 7.22528e-05 -2.34188e-05
7.22528e-05 0.000691049 -8.85029e-06
-2.34188e-05 -8.85029e-06 0.000656145
0.000759538 -1.37309e-06 1.78071e-05
-1.37309e-06 0.000222271 4.30409e-06
1.78071e-05 4.30409e-06 0.000221457
0.000780857 -1.76266e-05 3.5951e-06
-1.76266e-05 0.000228825 -3.48367e-06
3.5951e-06 -3.48367e-06 0.000224772
0.000259104 8.62779e-06 -3.29751e-06
8.62779e-06 -6.10124e-05 -7.00236e-06
-3.29751e-06 -7.00236e-06 -0.000158719
0.00062579 -7.03064e-05 4.66851e-07
-7.03064e-05 0.00017251 -5.5738e-07
4.66851e-07 -5.5738e-07 6.12273e-05
0.000304381 2.65068e-05 -8.926e-07
2.65068e-05 -7.24052e-05 -7.14407e-06
-8.926e-07 -7.14407e-06 -0.00011305
0.000960591 4.43347e-05 -3.13585e-08
4.43347e-05 0.000366258 9.27845e-08
-3.13585e-08 9.27845e-08 0.00031798
0.00312333 0.000115908 -1.0722e-05
0.000115908 0.00180688 -8.73119e-06
-1.0722e-05 -8.73119e-06 0.00179995
0.000485425 3.24178e-05 -6.3747e-08
3.24178e-05 5.99244e-05 1.08158e-05
-6.3747e-08 1.08158e-05 -5.36722e-06
0.00314386 0.000147599 -9.13245e-07
0.000147599 0.0018325 6.35781e-08
-9.13245e-07 6.35781e-08 0.0018167
0.004445 0.000146652 -3.09709e-05
0.000146652 0.00269803 1.0001e-05
-3.09709e-05 1.0001e-05 0.00267482
0.00256868 0.000392253 -1.44537e-06
0.000392253 -0.000202312 -7.45607e-07
-1.44537e-06 -7.45607e-07 -3.21125e-05
0.0024585 0.000160691 7.50919e-08
0.000160691 -0.000213455 8.07028e-07
7.50919e-08 8.07028e-07 -1.93156e-05
0.00241016 -8.67756e-06 1.50101e-06
-8.67756e-06 -0.000124741 4.91137e-08
1.50101e-06 4.91137e-08 2.05618e-07
0.00244933 -2.80494e-06 -4.56946e-08
-2.80494e-06 -0.000248526 -6.06831e-08
-4.56946e-08 -6.06831e-08 -3.94196e-05
0.00275874 0.000214074 1.13758e-06
0.000214074 -0.000204192 2.49311e-07
1.13758e-06 2.49311e-07 4.40827e-05
0.00276087 0.000175578 5.69892e-06
0.000175578 -0.00036758 -3.3041e-06
5.69892e-06 -3.3041e-06 -7.02134e-05
0.00290488 6.14503e-05 2.87073e-06
6.14503e-05 -0.000265338 1.62779e-06
2.87073e-06 1.62779e-06 5.17376e-05
0.00684063 0.00242482 1.21437e-05
0.00242482 -0.00164819 2.07875e-05
1.21437e-05 2.07875e-05 0.000805859
0.0028862 0.000219976 -7.82575e-05
0.000219976 -0.000426953 1.50387e-05
-7.82575e-05 1.50387e-05 0.000139891
0.000354479 0.000123244 -4.39266e-06
0.000123244 4.36979e-05 -2.81856e-06
-4.39266e-06 -2.81856e-06 -0.000107988
0.00252784 -0.000186625 -1.28466e-06
-0.000186625 -0.000193784 -6.57734e-07
-1.28466e-06 -6.57734e-07 7.92846e-06
0.00264922 -0.000498619 -3.34098e-06
-0.000498619 -0.000233901 -9.21885e-07
-3.34098e-06 -9.21885e-07 -3.20931e-05
0.0027415 -0.000759023 1.02473e-06
-0.000759023 -4.59454e-05 -1.2645e-06
1.02473e-06 -1.2645e-06 3.37393e-05
0.00219322 -0.00137131 -8.4362e-06
-0.00137131 0.000815957 1.14751e-06
-8.4362e-06 1.14751e-06 -2.2206e-05
0.00242699 -0.00147325 2.80115e-05
-0.00147325 0.000599115 4.03246e-06
2.80115e-05 4.03246e-06 -0.000184388
0.00275886 -0.00132743 -3.8294e-06
-0.00132743 0.000479844 1.24323e-05
-3.8294e-06 1.24323e-05 -3.02594e-06
0.0027045 -0.00108151 8.05857e-07
-0.00108151 5.70468e-05 -1.95667e-06
8.05857e-07 -1.95667e-06 -7.29809e-05
0.0024953 -0.00115194 5.47146e-05
-0.00115194 0.00110803 -6.01681e-05
5.47146e-05 -6.01681e-05 0.000330855
0.00226766 -0.00103332 4.49042e-05
-0.00103332 0.00120799 -5.08576e-05
4.49042e-05 -5.08576e-05 0.000221801
-0.000136981 -0.000354514 1.87848e-05
-0.000354514 -0.0001793 7.32611e-06
1.87848e-05 7.32611e-06 -0.000833082
0.000472382 -2.85361e-05 -1.69587e-08
-2.85361e-05 6.41785e-05 6.27047e-06
-1.69587e-08 6.27047e-06 -5.6176e-05
0.00106801 -0.00028811 -3.84151e-06
-0.00028811 0.000516474 -3.96486e-07
-3.84151e-06 -3.96486e-07 0.000196077
0.00162885 -0.000186343 1.01622e-05
-0.000186343 0.00103921 -4.93459e-06
1.01622e-05 -4.93459e-06 0.000716892
-7.60739e-05 -0.000128573 5.9074e-06
-0.000128573 -0.000105016 -1.51613e-05
5.9074e-06 -1.51613e-05 -0.000484842
0.000428481 -0.000106098 -7.49038e-06
-0.000106098 0.000115507 4.82054e-06
-7.49038e-06 4.82054e-06 -5.48068e-05
0.00268116 -0.000249277 -8.02363e-07
-0.000249277 -0.000370982 -1.12631e-06
-8.02363e-07 -1.12631e-06 -4.85344e-05
0.000541941 7.24191e-05 1.15491e-06
7.24191e-05 0.00018077 -2.30776e-06
1.15491e-06 -2.30776e-06 9.90738e-06
0.000749217 -0.00019848 2.18428e-06
-0.00019848 0.000421929 2.86412e-06
2.18428e-06 2.86412e-06 0.000178913
0.000712953 -0.000162269 9.87608e-06
-0.000162269 0.000304583 7.83214e-07
9.87608e-06 7.83214e-07 0.000116738
0.00277586 -0.000686372 2.70931e-06
-0.000686372 -0.00028296 -5.85626e-07
2.70931e-06 -5.85626e-07 -2.22664e-05
0.00304015 -0.00111185 -8.16682e-07
-0.00111185 7.35718e-05 -5.39943e-09
-8.16682e-07 -5.39943e-09 5.24073e-05
0.00229142 -0.00136281 -4.47891e-06
-0.00136281 0.0008423 2.29151e-06
-4.47891e-06 2.29151e-06 6.34574e-05
0.002632 -0.00168983 1.16943e-05
-0.00168983 0.000561162 -1.05986e-06
1.16943e-05 -1.05986e-06 -0.000235396
0.00284149 -0.00132421 4.39551e-07
-0.00132421 0.000289722 4.48492e-07
4.39551e-07 4.48492e-07 -5.27484e-05
0.000212344 -9.5769e-05 -1.16797e-06
-9.5769e-05 5.74278e-05 -6.68786e-07
-1.16797e-06 -6.68786e-07 -0.000251066
0.00165187 -0.000358786 9.46107e-06
-0.000358786 0.00104103 -8.20277e-07
9.46107e-06 -8.20277e-07 0.000648325
0.00346372 -0.00171283 -4.68563e-06
-0.00171283 0.00148749 1.12376e-05
-4.68563e-06 1.12376e-05 0.000597723
0.00181591 -0.000681965 -3.70014e-06
-0.000681965 0.00109278 8.51614e-06
-3.70014e-06 8.51614e-06 0.00019462
0.00195432 -0.000241833 1.16565e-05
-0.000241833 0.00101573 1.22473e-05
1.16565e-05 1.22473e-05 0.000719341
0.00297855 -0.000482658 -2.43405e-05
-0.000482658 -0.000332445 5.11754e-06
-2.43405e-05 5.11754e-06 6.79773e-05
0.00267531 -0.000809232 -2.3835e-05
-0.000809232 -0.000357512 1.20121e-05
-2.3835e-05 1.20121e-05 1.1469e-05
0.00308954 -0.0013587 -4.34432e-06
-0.0013587 0.000278731 -8.31088e-06
-4.34432e-06 -8.31088e-06 1.13571e-05
0.00339462 -0.00163178 1.22315e-05
-0.00163178 0.000875076 -9.7643e-06
1.22315e-05 -9.7643e-06 0.000261574
0.00184006 -0.00154292 1.1306e-05
-0.00154292 0.000394541 2.23217e-06
1.1306e-05 2.23217e-06 -0.000413714
0.000819011 4.63414e-06 -3.93178e-06
4.63414e-06 0.000386392 1.02737e-06
-3.93178e-06 1.02737e-06 0.000226162
-0.00054254 -8.67072e-05 -6.78511e-06
-8.67072e-05 -0.000542725 2.12717e-05
-6.78511e-06 2.12717e-05 -0.000754386
0.000171803 -0.000207066 -5.98003e-06
-0.000207066 1.21169e-05 5.65118e-06
-5.98003e-06 5.65118e-06 -0.000182609
0.00219421 -0.000485117 -5.53994e-05
-0.000485117 0.00134316 5.36788e-05
-5.53994e-05 5.36788e-05 0.000972758
0.00130833 -0.000284801 3.87681e-06
-0.000284801 0.000748239 2.74226e-05
3.87681e-06 2.74226e-05 0.000456308
-0.00107492 -0.000131624 -1.02433e-05
-0.000131624 -0.000257242 1.55287e-06
-1.02433e-05 1.55287e-06 -0.000992873
0.00259111 -0.00181718 -3.19873e-05
-0.00181718 0.00131636 -1.67577e-05
-3.19873e-05 -1.67577e-05 0.000251838
0.00298627 0.000790487 7.82858e-06
0.000790487 0.00193435 3.95332e-06
7.82858e-06 3.95332e-06 0.00151261
-0.000759388 0.000321591 -6.73313e-07
0.000321591 -0.000308246 -3.73559e-06
-6.73313e-07 -3.73559e-06 -0.000803252
0.00270582 0.000452454 1.43871e-05
0.000452454 -0.00039867 3.86112e-06
1.43871e-05 3.86112e-06 -7.142e-05
0.00312772 0.000899004 2.24164e-05
0.000899004 0.000152811 1.39039e-05
2.24164e-05 1.39039e-05 0.000254535
0.00302882 0.00132238 4.58098e-06
0.00132238 0.000523549 5.06674e-06
4.58098e-06 5.06674e-06 7.84213e-06
0.00131899 0.000896169 -6.60176e-06
0.000896169 0.000298507 1.48228e-06
-6.60176e-06 1.48228e-06 -0.000321683
0.00276022 0.00150436 2.12963e-06
0.00150436 0.000834982 7.54314e-06
2.12963e-06 7.54314e-06 -6.38696e-06
0.0028726 0.000642884 -4.23742e-07
0.000642884 0.00194526 -9.38538e-07
-4.23742e-07 -9.38538e-07 0.00149333
0.00328482 0.00079294 2.21049e-05
0.00079294 -0.0002433 6.72737e-06
2.21049e-05 6.72737e-06 0.000392104
0.00109758 0.000705606 -7.20389e-06
0.000705606 0.000597972 8.38644e-06
-7.20389e-06 8.38644e-06 2.2687e-05
0.00222857 0.00119546 4.18971e-06
0.00119546 0.000830874 -2.65192e-06
4.18971e-06 -2.65192e-06 3.73698e-05
0.0031715 0.00125062 -4.01121e-06
0.00125062 0.00048879 -4.09529e-06
-4.01121e-06 -4.09529e-06 0.000278006
0.00271809 0.00153703 -4.10788e-06
0.00153703 0.000768782 8.30575e-06
-4.10788e-06 8.30575e-06 -5.19057e-05
0.00296272 0.00263591 5.48191e-05
0.00263591 -0.00296322 5.26434e-06
5.48191e-05 5.26434e-06 -0.00103435
0.000216166 0.000424009 1.14515e-06
0.000424009 0.000431559 5.55594e-06
1.14515e-06 5.55594e-06 -0.000145138
0.00459233 0.00166743 -0.000143214
0.00166743 0.000589552 -5.97399e-05
-0.000143214 -5.97399e-05 0.000738872
0.000331958 0.000742571 -2.22502e-05
0.000742571 -9.91066e-05 1.03613e-05
-2.22502e-05 1.03613e-05 -0.000707392
0.00160971 0.00126928 -8.37293e-06
0.00126928 0.000394358 -2.63277e-05
-8.37293e-06 -2.63277e-05 -0.000405771
0.00381156 0.00181462 -6.27302e-05
0.00181462 0.00106654 -3.51975e-05
-6.27302e-05 -3.51975e-05 0.000436343
0.0158678 0.00115694 -0.00095972
0.00115694 -0.00120405 -7.24534e-05
-0.00095972 -7.24534e-05 0.00114838
0.00271734 0.00406557 -0.00022375
0.00406557 -0.00578918 -0.000205044
-0.00022375 -0.000205044 -0.000413045
0.000855063 0.00304712 3.27699e-05
0.00304712 -0.00179738 -1.05689e-05
3.27699e-05 -1.05689e-05 -0.00144281
0.00683877 -0.00820712 0.00413801
-0.00820712 0.00558718 -0.000367674
0.00413801 -0.000367674 -0.00403516
0.0382435 -0.0204667 -0.000222142
-0.0204667 0.0275056 -1.74242e-05
-0.000222142 -1.74242e-05 0.0103408
0.00277772 0.00036501 1.85433e-05
0.00036501 0.00180463 6.50844e-06
1.85433e-05 6.50844e-06 0.00160538
0.000499756 0.00016753 1.67659e-06
0.00016753 0.000378297 1.83511e-06
1.67659e-06 1.83511e-06 0.000181282
0.000305446 0.000242394 8.6592e-06
0.000242394 0.000340024 -4.37459e-06
8.6592e-06 -4.37459e-06 7.38056e-05
0.000558813 -6.08162e-05 2.97927e-06
-6.08162e-05 0.00019518 -3.99546e-07
2.97927e-06 -3.99546e-07 2.02148e-05
0.000583244 8.58994e-05 6.90062e-06
8.58994e-05 0.000242331 -2.1746e-06
6.90062e-06 -2.1746e-06 4.9089e-05
0.000116978 -2.45436e-05 4.0464e-06
-2.45436e-05 2.63031e-05 -5.33852e-06
4.0464e-06 -5.33852e-06 -0.000228482
0.000650816 0.000127962 7.18659e-06
0.000127962 0.00032707 5.0538e-06
7.18659e-06 5.0538e-06 0.000158543
-0.000434471 0.000110641 8.56055e-06
0.000110641 -0.000322907 1.28048e-05
8.56055e-06 1.28048e-05 -0.000361406
0.000696725 0.000151633 -2.98061e-06
0.000151633 0.000415129 1.87694e-06
-2.98061e-06 1.87694e-06 0.000158365
0.000376011 -6.88079e-06 3.18123e-07
-6.88079e-06 4.4177e-05 6.06519e-07
3.18123e-07 6.06519e-07 -0.000116195
0.000756843 8.61498e-05 -9.79188e-07
8.61498e-05 0.000349677 3.56342e-07
-9.79188e-07 3.56342e-07 0.000145448
0.000195486 0.000126942 -2.00596e-06
0.000126942 0.000139123 -4.3725e-06
-2.00596e-06 -4.3725e-06 6.85144e-06
0.000381795 9.90078e-05 1.0056e-06
9.90078e-05 0.00020416 1.97542e-07
1.0056e-06 1.97542e-07 -2.77386e-05
0.00134806 0.000193333 -2.71536e-06
0.000193333 0.000876489 8.51696e-06
-2.71536e-06 8.51696e-06 0.000594314
0.00026303 9.97986e-05 5.95881e-07
9.97986e-05 0.000249998 -3.99779e-06
5.95881e-07 -3.99779e-06 -1.91176e-05
0.00076507 0.000120068 -1.36622e-06
0.000120068 0.000452405 -9.94262e-07
-1.36622e-06 -9.94262e-07 0.00021052
0.000270471 7.93567e-06 -4.04521e-06
7.93567e-06 -4.91601e-06 -5.24491e-06
-4.04521e-06 -5.24491e-06 -0.00019022
6.32512e-05 -5.21999e-05 -1.89147e-06
-5.21999e-05 -0.000161721 -2.16291e-06
-1.89147e-06 -2.16291e-06 -0.000322534
-0.000232605 -3.08007e-05 2.68507e-06
-3.08007e-05 -0.000296246 -7.39326e-06
2.68507e-06 -7.39326e-06 -0.000484408
0.000839703 -0.000144875 1.31911e-05
-0.000144875 0.000480861 9.8814e-06
1.31911e-05 9.8814e-06 0.000272397
0.000757436 -9.9277e-05 3.35625e-06
-9.9277e-05 0.000472077 -6.68175e-06
3.35625e-06 -6.68175e-06 0.000198051
0.00115292 -0.000246679 2.72977e-06
-0.000246679 0.000676938 1.01241e-06
2.72977e-06 1.01241e-06 0.000411185
0.000390733 -0.00014544 -4.51434e-06
-0.00014544 0.000100194 -4.34013e-06
-4.51434e-06 -4.34013e-06 -8.61787e-05
-0.000353779 -5.10104e-05 -1.03912e-06
-5.10104e-05 -0.000419264 1.88271e-06
-1.03912e-06 1.88271e-06 -0.000590749
0.000455476 -8.82264e-05 -2.59162e-06
-8.82264e-05 6.50781e-05 2.18212e-06
-2.59162e-06 2.18212e-06 -3.4761e-05
0.000463078 -5.70015e-05 2.8209e-06
-5.70015e-05 8.27038e-05 6.2221e-08
2.8209e-06 6.2221e-08 -2.73678e-05
0.00031523 3.96311e-06 5.21839e-06
3.96311e-06 -4.22542e-05 7.44288e-06
5.21839e-06 7.44288e-06 -8.05192e-05
0.000441451 7.76619e-05 -1.32482e-06
7.76619e-05 6.02696e-05 -3.87534e-06
-1.32482e-06 -3.87534e-06 -4.40453e-05
0.000301547 3.23907e-05 4.97814e-07
3.23907e-05 -5.50274e-05 2.00675e-07
4.97814e-07 2.00675e-07 -9.22196e-05
0.00273241 1.81582e-05 2.44672e-05
1.81582e-05 0.00153175 6.54217e-06
2.44672e-05 6.54217e-06 0.00154156
0.000335621 8.14125e-05 -6.53502e-06
8.14125e-05 -2.70099e-05 -9.16348e-06
-6.53502e-06 -9.16348e-06 -7.07892e-05
0.00171679 2.68886e-06 -1.46913e-05
2.68886e-06 0.000857464 -1.44482e-07
-1.46913e-05 -1.44482e-07 0.000861578
0.000768286 -7.8089e-06 2.41278e-06
-7.8089e-06 0.000220931 -2.32089e-06
2.41278e-06 -2.32089e-06 0.000219705
0.000398955 2.42364e-05 -5.4971e-08
2.42364e-05 8.12826e-06 -3.9073e-06
-5.4971e-08 -3.9073e-06 -6.40415e-05
0.000416544 -5.41372e-05 1.39304e-06
-5.41372e-05 4.05277e-05 1.32722e-07
1.39304e-06 1.32722e-07 -5.82722e-05
0.000365809 -1.13845e-06 2.19489e-06
-1.13845e-06 -3.69134e-05 -6.46789e-06
2.19489e-06 -6.46789e-06 -6.76977e-05
0.000534068 -8.77556e-05 -1.18955e-06
-8.77556e-05 0.000111657 2.78653e-06
-1.18955e-06 2.78653e-06 -2.17189e-06
0.000933992 3.93376e-05 8.78499e-07
3.93376e-05 0.000345761 -1.02503e-06
8.78499e-07 -1.02503e-06 0.000306298
0.00283276 8.18605e-05 -5.69837e-06
8.18605e-05 0.0016035 -7.52799e-06
-5.69837e-06 -7.52799e-06 0.00160485
0.00023629 2.69332e-05 -1.50929e-06
2.69332e-05 -0.000120891 8.90637e-06
-1.50929e-06 8.90637e-06 -0.000171286
0.00341776 0.000129105 -5.60941e-06
0.000129105 0.00200858 1.73227e-06
-5.60941e-06 1.73227e-06 0.00199859
0.00364656 0.000173772 3.44076e-05
0.000173772 0.00217706 1.46756e-05
3.44076e-05 1.46756e-05 0.00215494
0.00272536 0.000230373 -2.84244e-06
0.000230373 -0.000213479 -8.18289e-07
-2.84244e-06 -8.18289e-07 3.49669e-05
0.00244163 3.1638e-06 -4.87469e-07
3.1638e-06 -0.000249048 -3.08339e-07
-4.87469e-07 -3.08339e-07 -3.94036e-05
0.00299893 0.000140988 3.41894e-06
0.000140988 -0.000191625 -1.02294e-06
3.41894e-06 -1.02294e-06 7.598e-05
0.0027725 0.00183126 0.000166574
0.00183126 -0.0038105 6.74845e-05
0.000166574 6.74845e-05 -0.0012443
0.00288926 2.13368e-05 -1.62665e-06
2.13368e-05 -0.000273324 2.33638e-07
-1.62665e-06 2.33638e-07 4.91952e-05
0.00295283 0.000176413 1.33241e-06
0.000176413 -0.000354547 -3.77948e-06
1.33241e-06 -3.77948e-06 0.000144902
0.00322539 -0.000115687 -5.28695e-05
-0.000115687 9.7703e-06 1.05356e-06
-5.28695e-05 1.05356e-06 0.000374674
0.00350105 0.00156936 -0.000245122
0.00156936 -0.00390443 1.11493e-05
-0.000245122 1.11493e-05 -0.000426681
0.00434871 0.000625713 0.000135135
0.000625713 -0.00175629 6.83874e-05
0.000135135 6.83874e-05 -0.00014579
0.000338937 8.2093e-05 1.24747e-06
8.2093e-05 3.20163e-05 -3.51675e-06
1.24747e-06 -3.51675e-06 -0.000111254
0.000551119 -4.13927e-05 2.01075e-07
-4.13927e-05 0.000188263 -2.10422e-07
2.01075e-07 -2.10422e-07 2.44279e-05
0.000362145 -0.000119168 4.95185e-07
-0.000119168 8.14963e-05 3.12008e-06
4.95185e-07 3.12008e-06 -6.83162e-05
0.000431377 -9.70833e-05 3.61078e-08
-9.70833e-05 0.000118199 8.1801e-07
3.61078e-08 8.1801e-07 -5.77898e-05
0.0028054 -0.000271887 -4.05979e-06
-0.000271887 -0.000285968 3.1104e-06
-4.05979e-06 3.1104e-06 3.51475e-05
0.00272308 -0.000686813 -9.28593e-07
-0.000686813 -0.000312331 -2.30693e-06
-9.28593e-07 -2.30693e-06 -7.1241e-05
0.00293964 -0.00108167 -2.74342e-06
-0.00108167 3.64756e-05 2.14972e-07
-2.74342e-06 2.14972e-07 2.84515e-05
0.00304308 -0.00146881 1.16398e-05
-0.00146881 0.00129405 6.49931e-06
1.16398e-05 6.49931e-06 0.000481688
0.00294624 -0.00178945 -1.98448e-05
-0.00178945 0.00071326 2.02813e-05
-1.98448e-05 2.02813e-05 -0.000102589
0.00300351 -0.00135345 2.11652e-07
-0.00135345 0.000390876 3.01998e-06
2.11652e-07 3.01998e-06 3.16206e-05
0.000316312 -0.00123837 3.45124e-05
-0.00123837 -0.000189397 -2.48044e-05
3.45124e-05 -2.48044e-05 -0.00112287
0.00413514 -0.000764306 3.77423e-05
-0.000764306 0.002248 -1.90331e-05
3.77423e-05 -1.90331e-05 0.00156867
-0.00069689 -0.000243409 1.5478e-05
-0.000243409 -0.000708212 7.67332e-06
1.5478e-05 7.67332e-06 -0.00101291
0.0017817 -0.00012685 9.62408e-06
-0.00012685 0.00107816 1.08413e-06
9.62408e-06 1.08413e-06 0.000846925
-0.000890783 -3.17523e-05 -1.64281e-05
-3.17523e-05 -0.000550647 -2.149e-05
-1.64281e-05 -2.149e-05 -0.000940593
0.000383141 -7.33595e-05 2.29272e-06
-7.33595e-05 0.000149732 -1.5131e-05
2.29272e-06 -1.5131e-05 -0.00014151
0.000516034 -3.83959e-05 3.77901e-07
-3.83959e-05 0.000168039 4.7176e-06
3.77901e-07 4.7176e-06 -8.09703e-06
0.000569527 -0.000134819 -1.00386e-05
-0.000134819 0.000221244 3.94313e-06
-1.00386e-05 3.94313e-06 3.78953e-05
0.00288831 -0.000476056 4.34584e-06
-0.000476056 -0.000395644 -6.02121e-08
4.34584e-06 -6.02121e-08 2.64047e-05
0.000145284 -5.38707e-05 -1.46327e-06
-5.38707e-05 -6.04107e-05 5.47894e-06
-1.46327e-06 5.47894e-06 -0.000218903
0.000444547 -0.000164671 4.9929e-06
-0.000164671 0.000127761 -5.07633e-06
4.9929e-06 -5.07633e-06 -0.000109781
-0.000296509 -9.59958e-05 1.79087e-05
-9.59958e-05 -0.000223077 -6.69395e-06
1.79087e-05 -6.69395e-06 -0.000375408
0.00270278 -0.000858079 1.62425e-06
-0.000858079 -0.000344201 -9.92236e-07
1.62425e-06 -9.92236e-07 -3.11857e-05
0.00302564 -0.00134404 1.52111e-06
-0.00134404 0.000238063 -2.06184e-06
1.52111e-06 -2.06184e-06 -2.045e-05
0.00203657 -0.00162781 -1.0585e-05
-0.00162781 0.000485567 1.84114e-07
-1.0585e-05 1.84114e-07 -0.000333631
0.00327533 -0.00167346 -3.99835e-06
-0.00167346 0.000784827 -2.91913e-07
-3.99835e-06 -2.91913e-07 0.000150711
0.00180253 -0.00032466 2.3856e-05
-0.00032466 0.0010948 -9.59436e-06
2.3856e-05 -9.59436e-06 0.000725214
-0.00177742 -4.66352e-05 1.36409e-05
-4.66352e-05 -0.00114029 2.0819e-06
1.36409e-05 2.0819e-06 -0.0014907
0.000961966 -0.00153111 1.04265e-07
-0.00153111 0.00054649 1.84214e-06
1.04265e-07 1.84214e-06 -0.000516981
0.00164223 -0.000634343 -2.15419e-05
-0.000634343 0.000928025 1.75277e-06
-2.15419e-05 1.75277e-06 0.000303853
0.00395993 -0.00071886 -8.79997e-05
-0.00071886 0.000323029 2.98976e-05
-8.79997e-05 2.98976e-05 0.000715766
0.00311228 -0.00121389 -4.24053e-05
-0.00121389 5.49193e-05 2.29824e-05
-4.24053e-05 2.29824e-05 0.000185432
0.00332492 -0.00153794 1.14431e-05
-0.00153794 0.000859292 -2.3207e-05
1.14431e-05 -2.3207e-05 0.000251344
0.0035891 -0.00199288 -3.85789e-06
-0.00199288 0.00113019 1.01643e-05
-3.85789e-06 1.01643e-05 0.000397332
0.000115097 -0.000219879 4.03412e-06
-0.000219879 0.000153812 -1.75359e-05
4.03412e-06 -1.75359e-05 -8.86041e-05
0.000769144 -0.000394198 -1.478e-05
-0.000394198 0.00037147 2.93865e-05
-1.478e-05 2.93865e-05 2.13312e-05
0.000800285 -0.000368709 -2.56884e-05
-0.000368709 0.000695792 7.2154e-05
-2.56884e-05 7.2154e-05 0.000303784
-0.000831679 -0.00099817 7.29947e-06
-0.00099817 0.000197336 -4.43701e-05
7.29947e-06 -4.43701e-05 -0.000960835
0.0077279 -0.000547874 9.82947e-06
-0.000547874 -0.00721742 3.78505e-05
9.82947e-06 3.78505e-05 -0.00781205
0.00424526 0.000639138 1.78581e-05
0.000639138 0.0027762 -3.65851e-06
1.78581e-05 -3.65851e-06 0.00233292
0.000285156 0.000564034 -9.56093e-07
0.000564034 8.85861e-05 -1.16791e-05
-9.56093e-07 -1.16791e-05 -0.000440124
0.00171456 0.000619363 9.09639e-05
0.000619363 -0.00120012 4.11077e-05
9.09639e-05 4.11077e-05 -0.000441481
0.00236943 0.00112382 3.19511e-05
0.00112382 9.70457e-05 1.45871e-05
3.19511e-05 1.45871e-05 -5.2373e-05
0.00298253 0.00157908 1.41476e-05
0.00157908 0.000913022 1.88885e-05
1.41476e-05 1.88885e-05 7.69509e-05
0.00255109 0.00127097 1.47226e-05
0.00127097 0.00103156 1.52478e-05
1.47226e-05 1.52478e-05 0.000199925
0.00371522 0.00299109 0.000135788
0.00299109 -0.00289718 7.2725e-05
0.000135788 7.2725e-05 -0.0011626
0.00114464 0.000476178 2.94627e-06
0.000476178 0.000919879 -7.05017e-06
2.94627e-06 -7.05017e-06 0.000418774
0.00321827 0.0014635 -7.6462e-06
0.0014635 -0.000211118 4.18992e-06
-7.6462e-06 4.18992e-06 0.000116775
0.00114637 0.000875601 -1.21013e-05
0.000875601 0.000404796 9.53848e-06
-1.21013e-05 9.53848e-06 -0.000251538
0.00241859 0.00142084 2.86124e-06
0.00142084 0.000849918 -9.65735e-06
2.86124e-06 -9.65735e-06 1.01825e-05
0.00395824 0.00175802 -1.29183e-05
0.00175802 0.001203 -1.1791e-06
-1.29183e-05 -1.1791e-06 0.00056871
0.00378384 0.000600921 -0.000268888
0.000600921 -0.0103283 -0.000192548
-0.000268888 -0.000192548 -0.00891276
0.00673103 0.00447314 -0.000225084
0.00447314 -0.00325084 -0.000119288
-0.000225084 -0.000119288 0.000978853
0.00108973 0.00291801 -1.95131e-05
0.00291801 -0.00159486 -1.00007e-05
-1.95131e-05 -1.00007e-05 -0.00130136
0.0144246 -0.00549293 0.00110893
-0.00549293 0.00875869 0.000192654
0.00110893 0.000192654 0.00168482
0.0386548 -0.0237001 -0.000424325
-0.0237001 0.0274568 -0.000536474
-0.000424325 -0.000536474 0.00895747
-0.000148464 0.000409973 -2.39538e-06
0.000409973 -9.48639e-05 -3.35888e-06
-2.39538e-06 -3.35888e-06 -0.000525946
0.00260063 -0.00276607 0.00262816
-0.00276607 0.00485679 -0.000120447
0.00262816 -0.000120447 0.000863051
0.0160059 -0.0132279 0.000306872
-0.0132279 0.0182922 -0.000265427
0.000306872 -0.000265427 0.00132077
0.00469975 0.00262664 -9.6364e-05
0.00262664 0.000895317 -3.46404e-05
-9.6364e-05 -3.46404e-05 0.000372308
0.00159037 0.00100026 -4.00016e-05
0.00100026 0.000563728 -5.50819e-06
-4.00016e-05 -5.50819e-06 -9.66938e-05
0.00223999 0.00147947 -6.07576e-05
0.00147947 0.00071417 -5.37216e-05
-6.07576e-05 -5.37216e-05 -5.27028e-05
-0.000512487 0.00269288 0.000173132
0.00269288 -0.00158277 0.000141069
0.000173132 0.000141069 -0.0016156
0.0161873 0.0069238 0.000352341
0.0069238 -0.00365851 -2.02681e-05
0.000352341 -2.02681e-05 0.000792816
0.0069856 0.00680286 -0.000197562
0.00680286 -0.00159448 -0.000219448
-0.000197562 -0.000219448 0.000849447
0.0290929 -0.0109123 0.00131917
-0.0109123 0.0153789 -4.48803e-07
0.00131917 -4.48803e-07 0.00327706
0.0246248 -0.00237101 -0.0010088
-0.00237101 0.0131237 0.000863027
-0.0010088 0.000863027 0.00621893
0.00106131 0.000187736 1.18327e-05
0.000187736 0.000770398 7.11408e-07
1.18327e-05 7.11408e-07 0.000552023
0.000345546 0.00024384 2.5122e-06
0.00024384 0.000384459 8.55605e-07
2.5122e-06 8.55605e-07 0.000109862
0.00145668 0.000494418 5.84129e-06
0.000494418 0.00107408 -8.57992e-06
5.84129e-06 -8.57992e-06 0.000658202
0.0004747 3.5861e-06 4.27444e-06
3.5861e-06 0.000133912 1.54643e-06
4.27444e-06 1.54643e-06 -4.45067e-05
0.000317802 0.000110843 6.11018e-06
0.000110843 3.22917e-05 1.95065e-06
6.11018e-06 1.95065e-06 -0.000151042
-5.34953e-05 3.17484e-05 5.01633e-06
3.17484e-05 -0.000107145 2.55413e-06
5.01633e-06 2.55413e-06 -0.000324765
0.000522575 0.00011924 -2.88272e-06
0.00011924 0.000315511 -2.1718e-06
-2.88272e-06 -2.1718e-06 7.46199e-05
0.000125305 0.000123383 -4.79961e-06
0.000123383 6.55242e-05 5.77282e-06
-4.79961e-06 5.77282e-06 -5.26437e-05
0.000281966 1.70359e-05 -2.18314e-07
1.70359e-05 -4.92283e-06 8.63931e-07
-2.18314e-07 8.63931e-07 -0.000176004
0.000896562 0.000117325 2.99454e-06
0.000117325 0.000569828 2.15928e-06
2.99454e-06 2.15928e-06 0.000306862
0.000267014 7.18551e-05 -2.86918e-07
7.18551e-05 0.00010794 -2.98077e-06
-2.86918e-07 -2.98077e-06 -0.000124926
0.000634238 8.64251e-05 1.13556e-06
8.64251e-05 0.000280867 5.8596e-08
1.13556e-06 5.8596e-08 6.28048e-05
0.000214376 9.17383e-05 -2.37514e-06
9.17383e-05 0.00022849 -1.89361e-06
-2.37514e-06 -1.89361e-06 -3.82862e-05
0.000568808 7.6635e-05 -1.06767e-06
7.6635e-05 0.000385677 5.41585e-06
-1.06767e-06 5.41585e-06 0.000144671
-0.000611412 3.05468e-05 8.81125e-07
3.05468e-05 -7.81129e-05 -4.15593e-06
8.81125e-07 -4.15593e-06 -0.000515652
7.37126e-05 -8.93468e-05 -5.47799e-06
-8.93468e-05 -1.83696e-05 1.22187e-06
-5.47799e-06 1.22187e-06 -0.00026863
0.000303724 -5.80273e-05 -6.47264e-06
-5.80273e-05 4.29492e-05 -8.97645e-06
-6.47264e-06 -8.97645e-06 -0.00015931
0.000742426 -1.91965e-05 6.97341e-07
-1.91965e-05 0.000379897 -5.87251e-06
6.97341e-07 -5.87251e-06 0.000158927
0.000501247 -0.000151049 1.02256e-06
-0.000151049 0.000268994 2.88938e-06
1.02256e-06 2.88938e-06 7.75781e-05
-0.000259037 9.65456e-05 -9.82619e-06
9.65456e-05 -0.000273545 1.17991e-06
-9.82619e-06 1.17991e-06 -0.000423755
0.000290957 -0.000198802 1.05476e-05
-0.000198802 4.04803e-05 6.02708e-06
1.05476e-05 6.02708e-06 -9.94067e-05
0.00100061 -7.79012e-05 -6.01481e-06
-7.79012e-05 0.000704254 1.16576e-05
-6.01481e-06 1.16576e-05 0.000513184
-0.000646886 -2.18435e-05 1.64411e-06
-2.18435e-05 -0.00043441 -1.15725e-05
1.64411e-06 -1.15725e-05 -0.000729946
-0.000741447 -1.19351e-05 -1.05445e-06
-1.19351e-05 -0.000501312 -1.11887e-05
-1.05445e-06 -1.11887e-05 -0.00074084
0.000684858 -0.000239125 -3.50945e-07
-0.000239125 0.000429845 8.95325e-07
-3.50945e-07 8.95325e-07 0.000143308
-0.000306607 -1.14253e-05 -1.82319e-06
-1.14253e-05 -0.000319079 -3.39417e-06
-1.82319e-06 -3.39417e-06 -0.000525226
0.000846196 -0.00027999 -3.63572e-06
-0.00027999 0.00043486 2.35135e-07
-3.63572e-06 2.35135e-07 0.000200137
0.000828864 -0.000173119 2.28548e-06
-0.000173119 0.000395876 1.42974e-07
2.28548e-06 1.42974e-07 0.00020178
0.00075227 -8.8456e-05 -1.24685e-06
-8.8456e-05 0.000261337 1.32595e-06
-1.24685e-06 1.32595e-06 0.000158162
0.000182035 2.19796e-05 1.44817e-06
2.19796e-05 -3.10093e-05 4.08913e-07
1.44817e-06 4.08913e-07 -0.000232346
0.000453591 -8.2936e-06 3.20545e-06
-8.2936e-06 7.80498e-05 1.27334e-07
3.20545e-06 1.27334e-07 -2.95439e-05
0.00140137 -4.34449e-05 -1.98521e-05
-4.34449e-05 0.00066386 7.54478e-06
-1.98521e-05 7.54478e-06 0.000635767
0.000428699 9.9215e-05 -1.85143e-06
9.9215e-05 6.58171e-05 -2.22033e-06
-1.85143e-06 -2.22033e-06 -4.3592e-05
0.000809175 -3.4981e-05 -7.41131e-06
-3.4981e-05 0.000284862 8.96901e-07
-7.41131e-06 8.96901e-07 0.000248598
0.000839175 -7.64467e-06 -1.98878e-05
-7.64467e-06 0.000278513 5.13185e-06
-1.98878e-05 5.13185e-06 0.000280691
0.000266165 -5.86935e-05 7.33207e-06
-5.86935e-05 -7.70692e-05 -6.26147e-06
7.33207e-06 -6.26147e-06 -0.000114494
0.00272261 1.43985e-06 2.09818e-05
1.43985e-06 0.00152497 5.03392e-09
2.09818e-05 5.03392e-09 0.0015346
0.000834617 9.81903e-06 -1.90253e-05
9.81903e-06 0.000277695 -6.04975e-06
-1.90253e-05 -6.04975e-06 0.000276914
0.000599512 8.68081e-05 2.82656e-06
8.68081e-05 0.000223899 -3.43933e-06
2.82656e-06 -3.43933e-06 6.15081e-05
0.000333328 7.66253e-05 -1.70786e-06
7.66253e-05 -9.74927e-06 -5.10142e-06
-1.70786e-06 -5.10142e-06 -9.24302e-05
0.000412514 4.0814e-06 2.95922e-06
4.0814e-06 3.95028e-05 2.36646e-07
2.95922e-06 2.36646e-07 -4.71006e-05
0.000329218 1.46808e-05 1.02908e-06
1.46808e-05 -6.122e-05 -5.32038e-06
1.02908e-06 -5.32038e-06 -8.61504e-05
0.000616933 -0.000111528 -2.50865e-06
-0.000111528 0.000192391 5.81297e-06
-2.50865e-06 5.81297e-06 8.11679e-05
0.00040373 4.80916e-06 1.66238e-06
4.80916e-06 -1.21158e-05 -9.80721e-07
1.66238e-06 -9.80721e-07 -4.37061e-05
0.00261019 5.42305e-05 -3.15834e-06
5.42305e-05 0.00144995 -6.52038e-06
-3.15834e-06 -6.52038e-06 0.00145692
0.00156366 5.28277e-05 2.96189e-06
5.28277e-05 0.000767335 4.91812e-06
2.96189e-06 4.91812e-06 0.000726535
0.00174633 6.36675e-05 -2.51229e-06
6.36675e-05 0.000887488 2.38812e-06
-2.51229e-06 2.38812e-06 0.000882639
0.000503881 5.01841e-05 1.2487e-05
5.01841e-05 7.17762e-05 1.64322e-05
1.2487e-05 1.64322e-05 5.5201e-05
-0.00013294 0.00142947 0.000187913
0.00142947 -0.00551342 4.15855e-05
0.000187913 4.15855e-05 -0.00267151
0.00282435 -1.61029e-05 -2.71146e-06
-1.61029e-05 -0.000309439 -1.84544e-06
-2.71146e-06 -1.84544e-06 1.64168e-05
0.00287944 0.000132276 6.8317e-05
0.000132276 -0.000357081 -1.0539e-05
6.8317e-05 -1.0539e-05 7.4148e-05
0.00578946 0.00181187 -0.000118791
0.00181187 -0.00378999 -4.6778e-05
-0.000118791 -4.6778e-05 0.000832578
0.00384391 0.000339737 0.000145166
0.000339737 -0.00240889 -1.25869e-05
0.000145166 -1.25869e-05 -0.00046277
0.00322947 -0.000137749 5.9432e-07
-0.000137749 2.13535e-05 2.78973e-06
5.9432e-07 2.78973e-06 0.000356791
0.00675546 -0.00112065 -0.000101607
-0.00112065 0.000307217 -3.23234e-05
-0.000101607 -3.23234e-05 0.00175836
0.00494315 -0.000746416 -0.000174181
-0.000746416 -0.00392783 -6.07e-05
-0.000174181 -6.07e-05 0.000169078
0.0185605 -0.00163805 4.90869e-05
-0.00163805 -0.00120016 -0.000160794
4.90869e-05 -0.000160794 0.000421572
0.0259245 0.0120761 0.00273555
0.0120761 0.0129417 0.000104298
0.00273555 0.000104298 0.00236818
0.0497523 0.0186665 0.000189477
0.0186665 0.0320328 0.000307619
0.000189477 0.000307619 0.0147814
-0.000160148 -9.67483e-05 6.81082e-06
-9.67483e-05 -0.000260034 6.61906e-07
6.81082e-06 6.61906e-07 -0.000413948
0.000579091 -3.67114e-05 2.27669e-06
-3.67114e-05 0.000208912 -4.37923e-08
2.27669e-06 -4.37923e-08 5.37851e-05
0.00088128 -0.00015851 -7.79579e-07
-0.00015851 0.000434367 3.80837e-06
-7.79579e-07 3.80837e-06 0.000249544
0.00055063 -0.000111942 6.89135e-06
-0.000111942 0.000190282 -7.75015e-07
6.89135e-06 -7.75015e-07 4.87938e-05
0.000635051 0.000133349 -1.88011e-06
0.000133349 0.000333324 -7.25236e-06
-1.88011e-06 -7.25236e-06 0.000168151
0.00102646 0.000215099 1.27667e-06
0.000215099 0.000543777 2.99619e-06
1.27667e-06 2.99619e-06 0.000345245
0.00039337 2.75098e-05 4.44418e-06
2.75098e-05 9.14282e-05 -3.2902e-06
4.44418e-06 -3.2902e-06 -9.77485e-05
0.000461017 -1.4027e-05 -8.21042e-07
-1.4027e-05 0.000126964 6.3758e-07
-8.21042e-07 6.3758e-07 -4.04053e-05
0.00279331 -0.00047352 2.0781e-05
-0.00047352 -0.000450542 -5.81427e-06
2.0781e-05 -5.81427e-06 -2.5235e-05
0.00261877 -0.00090877 2.19259e-05
-0.00090877 -0.000426489 -9.7613e-06
2.19259e-05 -9.7613e-06 -0.000159533
0.00297033 -0.00133265 -1.66208e-06
-0.00133265 0.000199184 9.2825e-06
-1.66208e-06 9.2825e-06 -5.01029e-05
0.00283263 -0.00170715 4.55842e-06
-0.00170715 0.000886619 1.00475e-05
4.55842e-06 1.00475e-05 0.000108787
0.00329956 -0.00171746 -2.8222e-05
-0.00171746 0.000791451 1.91531e-05
-2.8222e-05 1.91531e-05 0.000119553
0.000409407 -0.00142464 3.23203e-05
-0.00142464 0.000281234 1.87451e-05
3.23203e-05 1.87451e-05 -0.000806738
0.00437858 -0.00102672 2.69733e-05
-0.00102672 0.00225389 6.10853e-07
2.69733e-05 6.10853e-07 0.00167707
0.00212923 -0.000516137 3.34259e-05
-0.000516137 0.00138152 -5.40144e-05
3.34259e-05 -5.40144e-05 0.00092515
0.000441683 -5.51415e-05 1.58108e-07
-5.51415e-05 0.000103265 -1.94238e-06
1.58108e-07 -1.94238e-06 -0.000115621
0.00126575 -0.000163276 1.97852e-05
-0.000163276 0.000699946 -4.40563e-05
1.97852e-05 -4.40563e-05 0.000357755
0.000172618 -0.000162191 1.72584e-07
-0.000162191 -4.98829e-05 4.5058e-06
1.72584e-07 4.5058e-06 -0.000214869
-0.000137436 4.91095e-06 -2.51888e-05
4.91095e-06 -0.000106091 -6.61071e-06
-2.51888e-05 -6.61071e-06 -0.000206662
0.00294704 -0.000652495 9.79532e-07
-0.000652495 -0.000341504 5.4785e-06
9.79532e-07 5.4785e-06 0.000179797
0.000295705 -9.23824e-05 -7.44385e-06
-9.23824e-05 0.000212509 4.91656e-06
-7.44385e-06 4.91656e-06 -7.85917e-08
0.000956599 -0.000317223 -3.34024e-06
-0.000317223 0.000498504 1.1751e-06
-3.34024e-06 1.1751e-06 0.000199465
0.00233694 -0.00114687 1.02597e-05
-0.00114687 -0.000401758 -5.85344e-06
1.02597e-05 -5.85344e-06 -0.000211245
0.00319232 -0.00151629 8.10478e-07
-0.00151629 0.000749476 5.35958e-06
8.10478e-07 5.35958e-06 0.000184381
0.00229325 -0.00174731 4.0152e-06
-0.00174731 0.000421456 -1.42116e-05
4.0152e-06 -1.42116e-05 -0.000236748
0.000509835 -0.000430507 -6.07241e-06
-0.000430507 0.000448289 -2.61874e-05
-6.07241e-06 -2.61874e-05 -7.20904e-05
0.000703655 -0.000968184 1.63394e-05
-0.000968184 0.000963023 -1.56267e-06
1.63394e-05 -1.56267e-06 -6.30599e-05
0.00637204 -0.0016611 -5.95682e-05
-0.0016611 0.00109733 4.90103e-05
-5.95682e-05 4.90103e-05 0.00173525
0.00267813 -0.00156572 -3.61028e-05
-0.00156572 0.000363375 2.27754e-05
-3.61028e-05 2.27754e-05 -9.85206e-05
0.00413888 -0.00205739 3.83281e-06
-0.00205739 0.00133846 4.81559e-06
3.83281e-06 4.81559e-06 0.000611868
0.00131518 -0.00133415 -4.26726e-05
-0.00133415 0.000333579 1.37916e-05
-4.26726e-05 1.37916e-05 -5.47941e-05
0.000838739 -0.000242715 1.37234e-05
-0.000242715 0.000659959 -3.34452e-06
1.37234e-05 -3.34452e-06 0.000294201
-0.00121302 -1.79329e-05 1.7474e-05
-1.79329e-05 -0.000544759 2.05877e-05
1.7474e-05 2.05877e-05 -0.000935808
-0.000584205 -0.000373085 -1.91007e-05
-0.000373085 0.000209929 -1.87199e-05
-1.91007e-05 -1.87199e-05 -0.000606498
-0.00700906 -0.000953389 0.0017578
-0.000953389 0.00176274 -7.04553e-06
0.0017578 -7.04553e-06 -0.00592989
0.0148339 -0.000498927 -5.76683e-05
-0.000498927 -0.00264074 4.9596e-05
-5.76683e-05 4.9596e-05 -6.00965e-05
0.00203686 0.000531792 1.01287e-05
0.000531792 0.00133878 -1.82505e-05
1.01287e-05 -1.82505e-05 0.000916712
0.00233777 0.00106235 -4.52529e-06
0.00106235 0.00114671 6.92998e-06
-4.52529e-06 6.92998e-06 0.000428113
0.00169193 0.00119615 0.000144595
0.00119615 -0.00107073 6.94772e-05
0.000144595 6.94772e-05 -0.000575912
0.00407292 0.0017039 3.99258e-05
0.0017039 0.00131846 2.30775e-05
3.99258e-05 2.30775e-05 0.000672327
0.00284649 0.00150934 2.40187e-05
0.00150934 0.00107625 1.04104e-05
2.40187e-05 1.04104e-05 0.000214978
0.020364 0.00121257 4.51159e-05
0.00121257 -0.000418853 -0.000288266
4.51159e-05 -0.000288266 0.0020811
0.00830493 0.00528858 -0.000365958
0.00528858 -0.00437317 2.66216e-05
-0.000365958 2.66216e-05 0.000578846
0.00143373 0.00288369 -3.35529e-05
0.00288369 -0.00120764 -4.30302e-05
-3.35529e-05 -4.30302e-05 -0.00106516
0.0200842 -0.00985141 -0.00170531
-0.00985141 0.0117605 0.000525272
-0.00170531 0.000525272 0.00162187
0.0362096 -0.0279537 -0.00236241
-0.0279537 0.0273003 -0.0017601
-0.00236241 -0.0017601 0.00785472
0.000633927 0.000542504 9.25646e-06
0.000542504 0.000433017 -7.52015e-06
9.25646e-06 -7.52015e-06 -4.26999e-05
0.00421953 -0.00828571 0.00150458
-0.00828571 0.00231856 -1.72947e-05
0.00150458 -1.72947e-05 -0.00683093
0.00761901 -0.00999766 -0.00138462
-0.00999766 0.0183265 0.000119975
-0.00138462 0.000119975 0.00415346
0.00413409 0.00235806 -1.27675e-05
0.00235806 0.00055306 9.99495e-06
-1.27675e-05 9.99495e-06 0.000159594
0.00123028 0.000993967 -1.49301e-05
0.000993967 0.000421751 1.11103e-05
-1.49301e-05 1.11103e-05 -0.000274515
0.00332482 0.00172147 -4.91091e-06
0.00172147 0.00127006 -1.71064e-06
-4.91091e-06 -1.71064e-06 0.000422634
0.00223345 0.00291633 0.000105151
0.00291633 0.000195994 6.99498e-05
0.000105151 6.99498e-05 1.81603e-05
0.0136849 0.00770238 -0.000364956
0.00770238 -0.00570314 -0.000135539
-0.000364956 -0.000135539 -0.00210625
0.00371044 0.00653637 -9.41691e-05
0.00653637 -0.00174196 -0.000109937
-9.41691e-05 -0.000109937 0.0004224
0.0345898 -0.0104627 0.00114077
-0.0104627 0.0173843 -0.000382281
0.00114077 -0.000382281 0.00505171
0.0337229 -0.0072836 -0.000494922
-0.0072836 0.0140708 0.00110495
-0.000494922 0.00110495 0.00325131
0.00122827 0.000730605 -1.78525e-05
0.000730605 0.000723355 -1.41986e-05
-1.78525e-05 -1.41986e-05 0.000242057
0.000344239 -0.000781717 0.000390647
-0.000781717 0.00906646 -0.000254417
0.000390647 -0.000254417 -0.00208568
0.0111807 0.00495464 -0.00126883
0.00495464 0.0082173 -0.000636816
-0.00126883 -0.000636816 0.00242609
0.00320229 0.00188879 -6.36955e-05
0.00188879 0.000571314 -3.86098e-05
-6.36955e-05 -3.86098e-05 0.000251281
0.00294423 0.00171065 -0.000100013
0.00171065 0.0013409 -4.4024e-05
-0.000100013 -4.4024e-05 0.000492119
0.00114278 0.00216739 -0.000130359
0.00216739 0.00103133 -6.36615e-05
-0.000130359 -6.36615e-05 3.84811e-05
-0.0018599 0.00504469 0.000105343
0.00504469 -0.000385393 -6.9933e-05
0.000105343 -6.9933e-05 -0.000625263
0.00593074 0.0111114 0.00139257
0.0111114 -0.00522346 0.000209416
0.00139257 0.000209416 -0.00344594
0.034953 -0.0127618 -0.00147158
-0.0127618 0.0215302 0.0013721
-0.00147158 0.0013721 0.00734283
0.0102631 0.00131335 -7.62835e-05
0.00131335 -0.00130889 -0.000289732
-7.62835e-05 -0.000289732 -0.00379148
0.000640363 0.000305373 -6.82343e-06
0.000305373 0.000573595 6.45199e-06
-6.82343e-06 6.45199e-06 0.000269944
0.000891998 0.000438644 7.49742e-06
0.000438644 0.000717322 8.13524e-07
7.49742e-06 8.13524e-07 0.000335089
0.000104345 0.000392259 4.57029e-07
0.000392259 0.000294421 8.66862e-07
4.57029e-07 8.66862e-07 -0.000115713
0.000353308 8.8523e-05 5.97941e-06
8.8523e-05 4.63971e-05 3.91443e-06
5.97941e-06 3.91443e-06 -0.000129065
0.00119423 0.000181316 1.98298e-06
0.000181316 0.000675709 3.58696e-06
1.98298e-06 3.58696e-06 0.000436407
5.95849e-05 4.01891e-05 2.07605e-06
4.01891e-05 -2.55158e-05 3.0795e-06
2.07605e-06 3.0795e-06 -0.000268579
4.53665e-05 4.19024e-05 9.36247e-06
4.19024e-05 3.84669e-05 -2.90963e-06
9.36247e-06 -2.90963e-06 -0.000222917
0.00017635 8.73962e-05 -3.46839e-06
8.73962e-05 0.000203492 4.62307e-06
-3.46839e-06 4.62307e-06 -5.14835e-05
0.000805311 8.34388e-05 -1.04933e-06
8.34388e-05 0.000399494 -1.32816e-06
-1.04933e-06 -1.32816e-06 0.000174973
0.000306093 5.31414e-05 1.71907e-06
5.31414e-05 0.000219111 -3.17065e-06
1.71907e-06 -3.17065e-06 -3.53578e-05
0.000693548 -1.8609e-06 -1.69029e-07
-1.8609e-06 0.000392617 3.19137e-06
-1.69029e-07 3.19137e-06 0.000135807
-0.000212237 7.96076e-05 -2.23041e-06
7.96076e-05 0.000167808 -5.84767e-07
-2.23041e-06 -5.84767e-07 -0.000250581
-0.000137542 5.03659e-05 1.50918e-06
5.03659e-05 0.00037824 -1.68651e-07
1.50918e-06 -1.68651e-07 -0.000186796
-0.000144592 -5.69273e-05 -9.008e-08
-5.69273e-05 5.32399e-05 3.12971e-06
-9.008e-08 3.12971e-06 -0.000296044
0.00206623 -0.000123277 -1.16452e-05
-0.000123277 0.00135921 -4.36501e-06
-1.16452e-05 -4.36501e-06 0.00104524
0.00130227 -0.000201294 -4.09396e-06
-0.000201294 0.000760524 -1.07944e-06
-4.09396e-06 -1.07944e-06 0.000521501
0.00119233 -0.000183203 -1.37764e-05
-0.000183203 0.000690299 1.93492e-06
-1.37764e-05 1.93492e-06 0.000524216
0.000356064 -0.000144833 4.44966e-07
-0.000144833 0.000140982 2.53347e-06
4.44966e-07 2.53347e-06 -2.61354e-05
0.000902243 -0.000328849 2.57244e-06
-0.000328849 0.000387969 -2.52842e-06
2.57244e-06 -2.52842e-06 0.000247636
-0.000195916 -3.71271e-05 -1.20512e-05
-3.71271e-05 -2.11342e-05 9.17668e-06
-1.20512e-05 9.17668e-06 -0.000200991
-0.000206502 -0.000114512 1.39916e-05
-0.000114512 -0.000292598 -1.63163e-05
1.39916e-05 -1.63163e-05 -0.00046501
-0.00140703 -2.87893e-05 -1.84832e-05
-2.87893e-05 -0.000788 7.66451e-06
-1.84832e-05 7.66451e-06 -0.00106375
0.00262941 -0.000335385 1.02308e-05
-0.000335385 0.00166754 -1.56181e-06
1.02308e-05 -1.56181e-06 0.00150664
0.0018143 -1.79022e-05 1.58064e-05
-1.79022e-05 0.000961226 -1.65582e-05
1.58064e-05 -1.65582e-05 0.000651043
0.00389837 -0.000806047 -7.57093e-07
-0.000806047 0.00207662 7.4813e-06
-7.57093e-07 7.4813e-06 0.00163916
-0.00312242 -0.000318575 5.21181e-06
-0.000318575 -0.00192288 3.18623e-06
5.21181e-06 3.18623e-06 -0.00233065
-7.4257e-05 -1.62743e-06 4.80754e-07
-1.62743e-06 -3.35989e-05 -1.64431e-07
4.80754e-07 -1.64431e-07 -0.000345871
-0.000836222 -2.08368e-05 1.42589e-05
-2.08368e-05 -0.000566501 -2.03287e-05
1.42589e-05 -2.03287e-05 -0.000876942
0.00106889 -0.000211018 -3.04913e-06
-0.000211018 0.000668786 -1.61509e-06
-3.04913e-06 -1.61509e-06 0.000403662
0.000473661 -6.85165e-05 9.47099e-06
-6.85165e-05 0.000188367 7.53627e-06
9.47099e-06 7.53627e-06 -4.33962e-05
0.00170637 -0.000141216 -1.24821e-07
-0.000141216 0.00107596 3.88323e-06
-1.24821e-07 3.88323e-06 0.000799949
0.000307964 -7.67507e-05 -2.52705e-06
-7.67507e-05 6.55354e-05 2.9686e-07
-2.52705e-06 2.9686e-07 -0.000123579
-2.6479e-05 4.49315e-05 5.61786e-06
4.49315e-05 -0.000235638 -9.18751e-07
5.61786e-06 -9.18751e-07 -0.000342995
0.000979898 -0.000185284 8.91067e-07
-0.000185284 0.000485702 6.97135e-06
8.91067e-07 6.97135e-06 0.000297924
0.000320137 -5.33654e-05 -1.20736e-06
-5.33654e-05 -3.17729e-05 -3.08513e-08
-1.20736e-06 -3.08513e-08 -0.00012532
0.0013118 4.31318e-05 -9.39925e-06
4.31318e-05 0.000599406 8.07123e-06
-9.39925e-06 8.07123e-06 0.000571231
0.000445732 -9.81938e-05 2.0715e-06
-9.81938e-05 6.05998e-05 -1.2607e-06
2.0715e-06 -1.2607e-06 -4.15547e-05
0.000828471 -3.02379e-05 -1.39321e-05
-3.02379e-05 0.000285968 1.09276e-06
-1.39321e-05 1.09276e-06 0.000254896
0.000649217 7.39717e-06 2.2397e-06
7.39717e-06 0.000139585 1.74234e-06
2.2397e-06 1.74234e-06 0.000142547
0.000373967 -5.79255e-05 6.07773e-06
-5.79255e-05 -1.0764e-05 -5.33206e-06
6.07773e-06 -5.33206e-06 -4.55995e-05
0.00262763 -6.25319e-07 6.45256e-06
-6.25319e-07 0.00145917 -1.29703e-08
6.45256e-06 -1.29703e-08 0.00147043
0.00269269 -1.04256e-05 1.96453e-05
-1.04256e-05 0.00150441 -5.62168e-06
1.96453e-05 -5.62168e-06 0.00151427
0.001119 8.62005e-05 -6.47675e-07
8.62005e-05 0.000559264 -4.09733e-06
-6.47675e-07 -4.09733e-06 0.000389563
0.000434076 8.82544e-05 -3.44357e-07
8.82544e-05 6.49837e-05 -6.71503e-06
-3.44357e-07 -6.71503e-06 -2.72832e-05
0.000503582 -2.09269e-05 -8.60241e-07
-2.09269e-05 0.000152422 8.94402e-07
-8.60241e-07 8.94402e-07 -7.23692e-06
0.000362843 1.65233e-05 1.34096e-06
1.65233e-05 -4.11086e-05 -5.38876e-06
1.34096e-06 -5.38876e-06 -6.3852e-05
0.000403219 -1.87114e-05 2.53401e-06
-1.87114e-05 3.04643e-05 -2.74751e-07
2.53401e-06 -2.74751e-07 -5.09458e-05
0.000435612 -8.86111e-05 -4.06715e-06
-8.86111e-05 5.82425e-05 5.2177e-06
-4.06715e-06 5.2177e-06 -3.26758e-05
0.000379825 -6.03611e-06 -3.30763e-07
-6.03611e-06 -2.95061e-05 1.52311e-07
-3.30763e-07 1.52311e-07 -5.42137e-05
0.00236101 3.3473e-05 -7.62962e-06
3.3473e-05 0.00128137 -6.14378e-06
-7.62962e-06 -6.14378e-06 0.00129243
0.00146861 2.1375e-05 -8.15593e-07
2.1375e-05 0.000692695 4.91696e-06
-8.15593e-07 4.91696e-06 0.000665073
0.00160591 3.88421e-05 -7.82461e-06
3.88421e-05 0.000782811 3.68816e-08
-7.82461e-06 3.68816e-08 0.000784648
0.000778881 4.65949e-05 7.68095e-06
4.65949e-05 0.000245071 1.32052e-05
7.68095e-06 1.32052e-05 0.000235741
0.000484811 0.0056733 0.00175189
0.0056733 0.00323594 -2.91012e-05
0.00175189 -2.91012e-05 -0.00613277
0.00925106 0.00703785 0.00326146
0.00703785 0.0158449 4.30406e-05
0.00326146 4.30406e-05 0.00335067
0.00158223 0.0018658 -4.67076e-05
0.0018658 -0.00554198 -9.15735e-05
-4.67076e-05 -9.15735e-05 -0.000421709
0.00342093 3.94813e-05 0.000117819
3.94813e-05 -0.0029011 8.77059e-06
0.000117819 8.77059e-06 -0.000743136
0.00334664 -0.000156083 4.6561e-05
-0.000156083 7.88719e-05 -4.58408e-06
4.6561e-05 -4.58408e-06 0.000398293
0.00323876 0.000182565 -5.14991e-05
0.000182565 -0.00288431 -3.96429e-05
-5.14991e-05 -3.96429e-05 0.000556541
0.00499288 -0.00101673 2.82317e-05
-0.00101673 -0.000481552 7.50335e-07
2.82317e-05 7.50335e-07 0.000742677
0.0130103 -0.00144137 0.000461202
-0.00144137 -0.00493771 -0.000179709
0.000461202 -0.000179709 -0.00363425
0.0115685 0.0079195 -8.93316e-05
0.0079195 0.00523421 -0.000119686
-8.93316e-05 -0.000119686 -0.00256179
0.0440565 0.0230974 -0.000741813
0.0230974 0.0299086 0.000281624
-0.000741813 0.000281624 0.0117538
0.00411468 -0.00252066 -0.000114729
-0.00252066 -0.0041489 -1.4072e-05
-0.000114729 -1.4072e-05 -2.09929e-05
0.0137767 -0.00657045 0.000637637
-0.00657045 -0.00462361 -0.000105591
0.000637637 -0.000105591 -0.00253825
0.0303349 0.0108853 0.000293777
0.0108853 0.0154143 -0.000521567
0.000293777 -0.000521567 0.00302585
0.0367442 0.00708229 -0.000547157
0.00708229 0.0174499 0.00047174
-0.000547157 0.00047174 0.00819419
0.00212484 0.000213073 -4.72181e-06
0.000213073 0.00137515 5.94289e-07
-4.72181e-06 5.94289e-07 0.00108312
0.000500072 4.75232e-05 1.50703e-06
4.75232e-05 0.000153396 -8.81105e-07
1.50703e-06 -8.81105e-07 -2.21297e-06
0.000507857 -0.00013399 1.95324e-06
-0.00013399 0.00016836 1.78102e-06
1.95324e-06 1.78102e-06 9.81367e-06
0.000170231 -1.66793e-05 4.77076e-06
-1.66793e-05 -5.15722e-05 -1.55337e-06
4.77076e-06 -1.55337e-06 -0.000191019
0.000212425 8.9072e-05 4.18642e-06
8.9072e-05 4.55443e-05 -2.38906e-07
4.18642e-06 -2.38906e-07 -8.34628e-05
0.00053407 0.000151221 1.77575e-06
0.000151221 0.000207883 2.9883e-06
1.77575e-06 2.9883e-06 -1.8783e-05
0.000437723 7.62595e-05 -2.711e-06
7.62595e-05 0.000157977 3.95369e-07
-2.711e-06 3.95369e-07 -2.61313e-05
0.00054815 0.000134233 7.01043e-06
0.000134233 0.000188854 1.34762e-06
7.01043e-06 1.34762e-06 -4.04223e-05
0.000523457 2.15823e-05 8.02203e-07
2.15823e-05 0.000192641 -6.62232e-07
8.02203e-07 -6.62232e-07 -9.69626e-06
0.000242995 -3.01401e-05 -8.60488e-08
-3.01401e-05 -2.19441e-05 6.512e-07
-8.60488e-08 6.512e-07 -0.000171375
0.00180605 -0.000575172 6.92246e-05
-0.000575172 -0.00112371 -2.83418e-05
6.92246e-05 -2.83418e-05 -0.000433401
0.00176141 -0.0010749 2.65792e-05
-0.0010749 -0.000698216 -1.73964e-05
2.65792e-05 -1.73964e-05 -0.000470365
0.00239716 -0.00139688 2.37725e-06
-0.00139688 0.000285361 1.18514e-05
2.37725e-06 1.18514e-05 -0.000206784
0.000526256 -0.00142503 -9.20283e-06
-0.00142503 -0.000545302 5.31109e-06
-9.20283e-06 5.31109e-06 -0.00112106
0.00269712 -0.00102211 6.77995e-06
-0.00102211 0.00202473 6.40051e-05
6.77995e-06 6.40051e-05 0.00109196
-0.000438611 -0.000733411 -1.88355e-05
-0.000733411 -7.23663e-05 -2.56582e-05
-1.88355e-05 -2.56582e-05 -0.000799241
0.000895156 -0.000318982 1.64574e-05
-0.000318982 0.00049736 -2.21782e-05
1.64574e-05 -2.21782e-05 0.000237284
0.000145325 -3.99141e-05 -4.2814e-06
-3.99141e-05 6.71037e-05 3.49633e-06
-4.2814e-06 3.49633e-06 -0.000117519
0.00363619 -0.00135222 8.39548e-06
-0.00135222 -0.000526094 -1.07257e-05
8.39548e-06 -1.07257e-05 0.000337073
0.000548128 -0.000103839 -1.03383e-06
-0.000103839 0.000471901 2.00115e-06
-1.03383e-06 2.00115e-06 9.96402e-05
-0.000220085 -0.000200418 -1.39042e-05
-0.000200418 7.44451e-05 1.5997e-06
-1.39042e-05 1.5997e-06 -0.000308135
0.00197218 -0.00139672 2.25722e-05
-0.00139672 -5.23522e-05 -1.08711e-06
2.25722e-05 -1.08711e-06 -0.000340932
0.00313089 -0.0018395 -1.70411e-06
-0.0018395 0.000840922 -7.1155e-06
-1.70411e-06 -7.1155e-06 0.000152304
0.000449119 -0.0011971 2.4494e-05
-0.0011971 -0.000118403 -1.61701e-05
2.4494e-05 -1.61701e-05 -0.000531725
0.00104313 -0.000638766 3.28562e-05
-0.000638766 0.00117924 -3.63204e-05
3.28562e-05 -3.63204e-05 0.000402015
0.00175526 -0.00213524 -3.30837e-05
-0.00213524 -0.00134477 5.05703e-05
-3.30837e-05 5.05703e-05 -0.00085206
0.00268434 -0.00161962 -4.40277e-05
-0.00161962 0.00083379 3.25687e-05
-4.40277e-05 3.25687e-05 0.000264931
-0.000401364 -0.000671741 -6.87603e-05
-0.000671741 0.000134125 2.20178e-05
-6.87603e-05 2.20178e-05 -0.00043858
0.00105413 0.000132112 2.09245e-06
0.000132112 0.000731663 -2.4914e-06
2.09245e-06 -2.4914e-06 0.000393252
-0.000862398 7.79333e-06 8.4706e-08
7.79333e-06 -0.000266783 1.83078e-05
8.4706e-08 1.83078e-05 -0.000731091
-6.35099e-05 -6.34161e-05 1.06728e-05
-6.34161e-05 0.00026217 9.70375e-06
1.06728e-05 9.70375e-06 -0.000162814
-0.0026894 0.00187127 -0.000857596
0.00187127 0.00894923 -4.01685e-05
-0.000857596 -4.01685e-05 0.000604193
0.000827048 -0.00263258 -3.2566e-06
-0.00263258 0.00671444 -7.37286e-05
-3.2566e-06 -7.37286e-05 0.00131778
0.00832792 0.000161899 -8.88178e-05
0.000161899 -0.00766444 -2.59256e-05
-8.88178e-05 -2.59256e-05 -0.00781718
0.00114208 0.000610551 2.02529e-05
0.000610551 0.000797568 -1.32546e-05
2.02529e-05 -1.32546e-05 0.000298672
0.00194879 0.00116321 2.46844e-05
0.00116321 0.000896278 3.24283e-05
2.46844e-05 3.24283e-05 0.00011766
0.00355234 0.00201039 0.000110186
0.00201039 0.000205918 5.71551e-05
0.000110186 5.71551e-05 -3.1542e-05
0.00341776 0.0018211 4.6439e-05
0.0018211 0.00133925 4.22418e-05
4.6439e-05 4.22418e-05 0.000436962
0.0195059 -0.00977654 0.000343007
-0.00977654 0.0138836 0.00015477
0.000343007 0.00015477 0.00305319
0.00236115 0.00587628 -0.000996486
0.00587628 -0.0126499 -0.000170401
-0.000996486 -0.000170401 -0.0096441
0.00655499 0.0070282 -3.98842e-05
0.0070282 -0.000902628 3.12792e-05
-3.98842e-05 3.12792e-05 0.00119787
0.0043961 0.00292945 0.000124074
0.00292945 0.00161166 3.47315e-05
0.000124074 3.47315e-05 0.00135403
0.0253538 -0.00723296 -0.000690361
-0.00723296 0.0119376 -0.000194246
-0.000690361 -0.000194246 0.00127134
0.00772428 -0.0105816 -0.00216665
-0.0105816 0.0197098 -1.55052e-06
-0.00216665 -1.55052e-06 0.00641959
0.0460015 -0.0125145 0.00196996
-0.0125145 0.0185866 0.00047638
0.00196996 0.00047638 0.00551812
0.00075034 0.000690198 1.58471e-05
0.000690198 0.000483085 -4.74169e-06
1.58471e-05 -4.74169e-06 -1.76819e-05
0.00240973 -0.00270449 -8.94407e-06
-0.00270449 0.0117987 1.18204e-05
-8.94407e-06 1.18204e-05 0.000600658
0.0107138 0.00527711 -0.000351062
0.00527711 0.00551182 -0.000209423
-0.000351062 -0.000209423 -0.00147841
0.00307219 0.00207414 1.29048e-05
0.00207414 0.000661315 5.70948e-06
1.29048e-05 5.70948e-06 0.000176029
0.00149983 0.00142834 6.18357e-06
0.00142834 0.00067829 7.81982e-06
6.18357e-06 7.81982e-06 -0.000131913
0.000318339 0.00217461 -0.000168582
0.00217461 0.000531872 -0.000114047
-0.000168582 -0.000114047 -0.000260084
0.00427886 0.00743629 0.000114835
0.00743629 0.000989885 5.96947e-05
0.000114835 5.96947e-05 0.000718536
0.0117733 0.0115487 -3.96718e-05
0.0115487 -0.00124672 -1.88596e-05
-3.96718e-05 -1.88596e-05 -0.00163053
0.0174343 -0.00745936 6.5761e-05
-0.00745936 0.0145839 -0.000192209
6.5761e-05 -0.000192209 0.00142724
0.0210445 -0.00245134 -0.000177299
-0.00245134 0.00447898 -3.15545e-05
-0.000177299 -3.15545e-05 0.00226826
0.00145062 0.00127068 -1.57696e-05
0.00127068 0.00087294 -1.28627e-05
-1.57696e-05 -1.28627e-05 0.000153385
0.00189415 0.00141932 -0.000785187
0.00141932 0.00464116 -0.000209362
-0.000785187 -0.000209362 -0.00282014
0.00485284 0.0015765 -6.4725e-05
0.0015765 0.00166022 -0.000210455
-6.4725e-05 -0.000210455 -0.00251632
-0.00106997 0.000849419 -4.13377e-06
0.000849419 -8.00464e-06 -3.45816e-05
-4.13377e-06 -3.45816e-05 -0.000630127
-0.00272641 0.00226405 -8.57191e-05
0.00226405 0.000885724 4.86583e-05
-8.57191e-05 4.86583e-05 -0.000258837
0.00700953 0.00981619 0.000497514
0.00981619 0.00427473 6.08876e-05
0.000497514 6.08876e-05 -0.00153111
0.0142573 -0.00655764 5.92152e-05
-0.00655764 0.00535143 0.000221521
5.92152e-05 0.000221521 -0.00485332
0.0203448 -0.0012114 0.000133541
-0.0012114 0.000926263 -0.000338115
0.000133541 -0.000338115 0.000510174
0.000410972 0.000373064 -7.74016e-08
0.000373064 0.00040752 1.96894e-05
-7.74016e-08 1.96894e-05 6.92657e-05
0.000752298 0.000447507 -2.33981e-06
0.000447507 0.000700568 -5.28807e-06
-2.33981e-06 -5.28807e-06 0.00026727
0.000490471 0.000438142 8.02326e-06
0.000438142 0.000697925 -1.30258e-06
8.02326e-06 -1.30258e-06 0.000127757
0.000587122 0.000127782 2.07218e-06
0.000127782 0.000229892 6.73151e-06
2.07218e-06 6.73151e-06 2.61188e-05
0.00145296 -2.97224e-05 4.55806e-07
-2.97224e-05 0.000906003 5.73834e-06
4.55806e-07 5.73834e-06 0.000636652
2.66161e-05 5.80772e-05 4.80116e-06
5.80772e-05 4.21132e-05 -3.49374e-06
4.80116e-06 -3.49374e-06 -0.000225357
3.40378e-05 0.000123899 1.36439e-06
0.000123899 0.000323253 9.72038e-07
1.36439e-06 9.72038e-07 -8.88815e-05
0.000567767 -2.8037e-05 4.40463e-06
-2.8037e-05 0.000298545 1.2293e-06
4.40463e-06 1.2293e-06 5.08403e-05
0.000326656 -1.47903e-05 2.41076e-07
-1.47903e-05 0.000330244 -4.4152e-06
2.41076e-07 -4.4152e-06 6.2081e-07
5.51917e-06 6.07325e-05 -3.36992e-08
6.07325e-05 0.000504067 1.0507e-06
-3.36992e-08 1.0507e-06 -9.67781e-05
-0.000436638 8.43528e-05 1.63089e-06
8.43528e-05 0.000379933 4.42082e-06
1.63089e-06 4.42082e-06 -0.000279985
0.000960918 -0.000101422 7.88468e-06
-0.000101422 0.00104761 -1.02789e-05
7.88468e-06 -1.02789e-05 0.000509475
0.000926302 -7.17032e-05 -2.26139e-05
-7.17032e-05 0.000735726 5.48841e-06
-2.26139e-05 5.48841e-06 0.000375115
0.00174728 -0.000265199 5.32055e-06
-0.000265199 0.00108323 6.37742e-06
5.32055e-06 6.37742e-06 0.000878748
-0.000205216 -0.000390585 -8.81352e-06
-0.000390585 -0.000357367 -4.50591e-06
-8.81352e-06 -4.50591e-06 -0.000481429
-0.000362383 -5.03386e-05 2.37914e-05
-5.03386e-05 -6.87562e-05 -5.25507e-06
2.37914e-05 -5.25507e-06 -0.000242237
-0.000332772 -2.35173e-05 2.28144e-06
-2.35173e-05 -7.55331e-05 -1.04338e-06
2.28144e-06 -1.04338e-06 -0.000363052
0.000165874 -0.000168965 -2.09483e-06
-0.000168965 -0.000102931 4.93953e-06
-2.09483e-06 4.93953e-06 -0.000242228
-0.000256483 -0.00022125 -1.15753e-05
-0.00022125 -0.000120851 5.47199e-07
-1.15753e-05 5.47199e-07 -0.000263577
0.00422942 -0.000348629 1.64589e-05
-0.000348629 0.00253159 5.13246e-06
1.64589e-05 5.13246e-06 0.00217146
0.00163199 -0.000168717 1.61637e-06
-0.000168717 0.00135573 7.53826e-06
1.61637e-06 7.53826e-06 0.000991842
0.00112366 -0.000603972 -1.07893e-05
-0.000603972 0.000548327 9.07737e-06
-1.07893e-05 9.07737e-06 4.38066e-05
0.00164302 -0.000194567 -2.10499e-05
-0.000194567 0.000831242 2.24699e-06
-2.10499e-05 2.24699e-06 0.000533412
0.000445325 -0.000438718 2.37942e-05
-0.000438718 -4.57544e-05 3.98738e-06
2.37942e-05 3.98738e-06 -0.000384529
0.00214535 -0.00101199 -1.71404e-05
-0.00101199 0.000950046 1.91483e-05
-1.71404e-05 1.91483e-05 0.000304089
0.00240518 -0.000399024 2.20153e-05
-0.000399024 0.00113673 -7.73391e-06
2.20153e-05 -7.73391e-06 0.000852027
0.00235251 -0.000626539 8.98917e-07
-0.000626539 0.00112928 -8.77815e-06
8.98917e-07 -8.77815e-06 0.000752961
0.000424612 -0.000343712 5.28959e-07
-0.000343712 0.000230813 -9.48254e-07
5.28959e-07 -9.48254e-07 -0.000129033
-0.00278758 -0.000277502 1.20632e-05
-0.000277502 -0.00174677 -1.45205e-05
1.20632e-05 -1.45205e-05 -0.00219592
0.00132213 -9.31127e-05 2.69228e-08
-9.31127e-05 0.00085303 5.21848e-06
2.69228e-08 5.21848e-06 0.000552516
0.000774256 -0.000417398 6.46868e-06
-0.000417398 0.000414575 -3.29055e-06
6.46868e-06 -3.29055e-06 0.000102246
0.000893397 -0.000146972 1.54541e-05
-0.000146972 0.000416942 7.30714e-06
1.54541e-05 7.30714e-06 0.000141056
0.00168125 -0.000532835 -1.02095e-05
-0.000532835 0.00106079 1.48269e-05
-1.02095e-05 1.48269e-05 0.0007695
0.000249434 -0.000195462 -5.58468e-07
-0.000195462 0.000104427 -1.02648e-06
-5.58468e-07 -1.02648e-06 -0.000171121
-3.70365e-05 -4.5872e-05 6.20553e-06
-4.5872e-05 -0.000235767 4.54875e-06
6.20553e-06 4.54875e-06 -0.000380821
0.00182234 -0.000307046 -3.22855e-06
-0.000307046 0.00111477 7.55563e-06
-3.22855e-06 7.55563e-06 0.000878106
0.000751802 -0.000116444 3.71611e-07
-0.000116444 0.000275809 6.7164e-07
3.71611e-07 6.7164e-07 0.000155968
0.00152498 -7.22854e-06 -1.80274e-05
-7.22854e-06 0.000737305 8.62591e-06
-1.80274e-05 8.62591e-06 0.000699936
0.000451089 -0.000105154 -4.9629e-07
-0.000105154 8.12096e-05 3.85575e-10
-4.9629e-07 3.85575e-10 -2.76832e-05
0.000801546 -2.03908e-05 -1.67958e-05
-2.03908e-05 0.000263734 8.12942e-07
-1.67958e-05 8.12942e-07 0.000229848
0.000766488 1.6577e-05 3.58406e-06
1.6577e-05 0.000214951 3.01234e-06
3.58406e-06 3.01234e-06 0.000214779
0.000370314 -6.08901e-05 5.11729e-06
-6.08901e-05 -1.89333e-05 -5.35561e-06
5.11729e-06 -5.35561e-06 -5.286e-05
0.00163104 1.01135e-05 1.93601e-05
1.01135e-05 0.00079374 -1.96211e-06
1.93601e-05 -1.96211e-06 0.000801807
0.00257077 -4.55868e-06 2.80571e-05
-4.55868e-06 0.0014206 -5.5686e-06
2.80571e-05 -5.5686e-06 0.00143267
7.08085e-05 0.000114681 1.81901e-06
0.000114681 -0.000183668 -4.60109e-06
1.81901e-06 -4.60109e-06 -0.000334476
0.000527136 9.07994e-05 9.59622e-07
9.07994e-05 0.0001247 -7.1936e-06
9.59622e-07 -7.1936e-06 2.50479e-05
0.000444133 2.52576e-05 1.14245e-06
2.52576e-05 0.000101001 9.13769e-07
1.14245e-06 9.13769e-07 -5.54147e-05
0.000370022 1.38416e-05 3.25844e-06
1.38416e-05 -3.71227e-05 -6.29089e-06
3.25844e-06 -6.29089e-06 -6.15255e-05
0.000400736 7.34305e-05 4.05302e-07
7.34305e-05 3.29736e-05 1.4148e-08
4.05302e-07 1.4148e-08 -5.24046e-05
0.000322568 -0.000121187 -4.59575e-06
-0.000121187 1.1886e-05 5.75437e-06
-4.59575e-06 5.75437e-06 -0.000131939
0.00234227 1.71179e-05 -1.30243e-05
1.71179e-05 0.00126711 -6.32079e-06
-1.30243e-05 -6.32079e-06 0.00127964
0.000369957 1.06697e-05 -5.10648e-07
1.06697e-05 -3.60909e-05 -3.10392e-08
-5.10648e-07 -3.10392e-08 -5.87386e-05
0.000493065 -3.69082e-06 -3.45006e-06
-3.69082e-06 7.65674e-05 4.63388e-06
-3.45006e-06 4.63388e-06 3.61254e-06
0.000406164 -1.20802e-05 -3.49389e-06
-1.20802e-05 -1.34748e-05 5.63177e-06
-3.49389e-06 5.63177e-06 -3.84398e-05
0.00244478 3.53252e-05 -6.67041e-06
3.53252e-05 0.0013375 -2.06888e-07
-6.67041e-06 -2.06888e-07 0.00134774
0.00265487 5.75145e-05 5.51417e-06
5.75145e-05 0.00148085 7.39071e-06
5.51417e-06 7.39071e-06 0.00148669
0.00365324 -0.00098712 -0.000518465
-0.00098712 0.0128302 7.57332e-05
-0.000518465 7.57332e-05 0.00507476
0.00808958 0.00646042 -0.00055246
0.00646042 0.00625959 0.000196349
-0.00055246 0.000196349 -0.00272202
0.00759278 -0.00274863 -0.000539896
-0.00274863 0.00281943 0.000363667
-0.000539896 0.000363667 -0.00293347
0.0145828 0.00793205 0.0017301
0.00793205 0.0159061 -2.83932e-05
0.0017301 -2.83932e-05 0.00296079
0.00565601 0.000957922 6.98989e-05
0.000957922 -0.00209366 1.07188e-05
6.98989e-05 1.07188e-05 0.000933558
0.00283421 -0.000990429 0.000129066
-0.000990429 -0.00157731 -1.25252e-07
0.000129066 -1.25252e-07 -0.000499387
0.00324942 -0.00112987 0.000672057
-0.00112987 -0.0120087 -2.69128e-05
0.000672057 -2.69128e-05 -0.0090028
0.0231654 0.00863944 -0.00270156
0.00863944 0.0155727 -0.000366555
-0.00270156 -0.000366555 0.00569824
0.0361115 0.0272929 -0.0025614
0.0272929 0.0257 0.00176326
-0.0025614 0.00176326 0.00689986
0.00586589 -0.00179852 9.09666e-05
-0.00179852 -0.00271971 -6.52675e-06
9.09666e-05 -6.52675e-06 0.000303345
0.00880057 -0.00699992 0.000423437
-0.00699992 -0.00809886 -0.000244197
0.000423437 -0.000244197 -0.00561201
0.0330606 0.010707 -0.000688472
0.010707 0.0169627 -0.000407704
-0.000688472 -0.000407704 0.00414023
0.0276833 0.00648696 0.000546997
0.00648696 0.0136555 0.00061722
0.000546997 0.00061722 0.00461313
0.00288092 -0.00417007 -0.000103166
-0.00417007 -0.00495095 0.000140769
-0.000103166 0.000140769 -0.00109086
0.000519248 -0.0101932 0.00127093
-0.0101932 -0.00460624 -0.0003119
0.00127093 -0.0003119 -0.00449939
0.0189527 0.00456432 -0.000807354
0.00456432 0.0102847 -0.00144608
-0.000807354 -0.00144608 -0.00104473
0.0125935 -0.00155033 -0.000397011
-0.00155033 0.00237198 4.95614e-05
-0.000397011 4.95614e-05 -0.000622152
0.00145283 -1.42894e-05 2.64758e-06
-1.42894e-05 0.000891775 1.36405e-05
2.64758e-06 1.36405e-05 0.000578459
0.000147806 1.09563e-05 -3.30208e-07
1.09563e-05 -1.11973e-05 -7.46982e-07
-3.30208e-07 -7.46982e-07 -0.000201775
0.000505182 0.000130974 -1.01111e-06
0.000130974 0.000146325 7.90971e-07
-1.01111e-06 7.90971e-07 -2.04986e-06
-0.000528416 -0.000102907 -1.21935e-05
-0.000102907 -0.000529657 1.59892e-06
-1.21935e-05 1.59892e-06 -0.000567412
0.000103309 0.000150882 5.10062e-06
0.000150882 -0.000108746 1.78418e-05
5.10062e-06 1.78418e-05 -0.000336069
0.000524569 0.000102405 -1.50362e-06
0.000102405 0.000221613 -1.38149e-06
-1.50362e-06 -1.38149e-06 -7.82562e-06
-0.000140754 -4.58703e-05 6.08592e-07
-4.58703e-05 -0.000231503 1.28416e-06
6.08592e-07 1.28416e-06 -0.000394944
0.000975407 0.00023265 1.13531e-05
0.00023265 0.000523258 7.62032e-06
1.13531e-05 7.62032e-06 0.000247201
0.000973596 0.000230479 -6.49117e-07
0.000230479 0.000518396 -2.66131e-06
-6.49117e-07 -2.66131e-06 0.000253632
0.000540622 5.25393e-05 -4.14218e-06
5.25393e-05 0.000206129 4.52714e-08
-4.14218e-06 4.52714e-08 -1.43216e-06
0.00226519 -0.00123901 0.000156061
-0.00123901 -0.00130928 -9.37633e-05
0.000156061 -9.37633e-05 -0.000402122
0.00105321 -0.00125241 -5.63188e-06
-0.00125241 -0.000630136 -1.44563e-05
-5.63188e-06 -1.44563e-05 -0.000749391
0.00245489 -0.00168648 8.38442e-06
-0.00168648 0.000528422 1.74011e-05
8.38442e-06 1.74011e-05 -0.000133276
-0.000134321 -0.00115225 1.16682e-05
-0.00115225 -0.000444764 -3.5728e-06
1.16682e-05 -3.5728e-06 -0.000878425
0.00358951 -0.000773258 -6.9219e-05
-0.000773258 0.00252344 8.01637e-05
-6.9219e-05 8.01637e-05 0.00196961
0.000775987 -0.000323209 -3.67186e-06
-0.000323209 0.00072138 -1.78049e-05
-3.67186e-06 -1.78049e-05 0.000299081
0.00139155 8.30766e-05 -4.53169e-06
8.30766e-05 0.0010018 -1.026e-05
-4.53169e-06 -1.026e-05 0.000608828
0.000840511 6.4458e-05 -7.27018e-06
6.4458e-05 0.000551586 -8.03251e-07
-7.27018e-06 -8.03251e-07 0.000227258
0.00360363 -0.00223775 -3.8993e-05
-0.00223775 -0.000298837 6.44584e-06
-3.8993e-05 6.44584e-06 0.000250331
0.0010504 -9.83608e-05 -2.22293e-06
-9.83608e-05 0.000862729 7.87651e-06
-2.22293e-06 7.87651e-06 0.000434721
0.00102712 -0.000334381 1.22973e-05
-0.000334381 0.000883857 -7.06103e-06
1.22973e-05 -7.06103e-06 0.00043495
0.00138742 -0.00146059 1.929e-05
-0.00146059 7.71961e-05 -4.10524e-06
1.929e-05 -4.10524e-06 -0.000398584
0.000259199 -0.000722126 -1.2315e-05
-0.000722126 0.000361343 6.33871e-06
-1.2315e-05 6.33871e-06 -0.00011223
0.00203997 -0.00320537 1.21932e-05
-0.00320537 0.000131248 -5.31821e-06
1.21932e-05 -5.31821e-06 -0.000628422
0.000376665 -0.00105083 -9.62859e-06
-0.00105083 0.0004965 1.31664e-05
-9.62859e-06 1.31664e-05 -5.21613e-05
-0.00108636 -0.000213404 -2.6488e-06
-0.000213404 2.60547e-05 -4.91678e-06
-2.6488e-06 -4.91678e-06 -0.000678597
0.000767505 0.000138163 1.52407e-05
0.000138163 0.000589214 -5.56661e-06
1.52407e-05 -5.56661e-06 0.000330198
-0.000595509 -0.000142119 -4.33309e-06
-0.000142119 -4.08101e-05 2.74312e-05
-4.33309e-06 2.74312e-05 -0.000509956
0.00323008 0.000373788 -0.000229428
0.000373788 0.00263349 -9.02304e-05
-0.000229428 -9.02304e-05 -0.00270164
-0.00657243 0.000450323 -0.00112778
0.000450323 0.00770419 3.57062e-05
-0.00112778 3.57062e-05 0.00118362
-0.00809461 -0.00467495 -0.00209015
-0.00467495 0.00150296 0.000101331
-0.00209015 0.000101331 -0.006398
-2.4394e-05 0.00062209 2.12527e-05
0.00062209 7.92058e-05 -1.00501e-05
2.12527e-05 -1.00501e-05 -0.000448768
0.00145683 0.00136682 8.32746e-06
0.00136682 0.000742878 1.35138e-05
8.32746e-06 1.35138e-05 -6.98427e-05
0.00480238 0.00259706 8.39675e-05
0.00259706 0.00160195 8.2521e-05
8.39675e-05 8.2521e-05 0.000875345
0.000943738 -0.000378925 0.000251567
-0.000378925 0.012785 9.40617e-05
0.000251567 9.40617e-05 0.00397409
0.00123556 0.0106786 -0.00121276
0.0106786 -0.00556631 -0.000230521
-0.00121276 -0.000230521 -0.00474216
0.00090262 0.00539237 0.000624913
0.00539237 -0.000714733 0.000331857
0.000624913 0.000331857 -0.00032844
-0.00012591 0.0020439 -6.26886e-06
0.0020439 0.000283391 -5.73947e-05
-6.26886e-06 -5.73947e-05 -9.14718e-05
0.0351128 -0.0075686 0.000362111
-0.0075686 0.0169738 -0.000791472
0.000362111 -0.000791472 0.0057823
0.0110263 0.00602173 0.00158899
0.00602173 0.00443546 0.000440355
0.00158899 0.000440355 -0.00366972
0.015142 -0.000830655 2.93468e-05
-0.000830655 0.00410731 8.55839e-05
2.93468e-05 8.55839e-05 0.00376807
0.00218087 0.00133445 9.4141e-06
0.00133445 0.00131444 -1.06888e-06
9.4141e-06 -1.06888e-06 0.0005954
0.00420343 0.0026475 -0.000183004
0.0026475 0.00572996 -5.13517e-05
-0.000183004 -5.13517e-05 -0.000977736
0.00441496 0.00116201 0.000209427
0.00116201 0.00250553 -2.62504e-05
0.000209427 -2.62504e-05 -0.00128873
0.00042404 0.00143066 -3.19874e-05
0.00143066 0.000633356 -1.21493e-05
-3.19874e-05 -1.21493e-05 -0.000213261
-0.00148714 0.00345329 -0.000188198
0.00345329 0.000486826 -0.000142215
-0.000188198 -0.000142215 -0.00123683
0.00319264 0.0109399 0.00066757
0.0109399 0.00258314 0.00024385
0.00066757 0.00024385 -0.0031308
0.0153263 -0.000993037 3.28366e-05
-0.000993037 -0.00135968 -0.000211172
3.28366e-05 -0.000211172 -0.0013551
0.011059 -0.00423653 -0.000134451
-0.00423653 0.0073646 -0.00028237
-0.000134451 -0.00028237 -0.00212301
0.00153315 0.00109508 -1.56941e-06
0.00109508 0.00142443 -1.46051e-05
-1.56941e-06 -1.46051e-05 0.000599654
-0.00322254 0.00143015 0.000149826
0.00143015 0.00334344 0.000110484
0.000149826 0.000110484 -0.00142203
0.00968447 -0.00192001 0.000578123
-0.00192001 0.0011234 -9.74728e-06
0.000578123 -9.74728e-06 -0.00193363
0.0128874 -0.00170691 0.000400295
-0.00170691 0.00224155 -3.2085e-05
0.000400295 -3.2085e-05 -0.00046388
-0.00319147 0.000931018 7.36559e-05
0.000931018 0.000817403 -7.06982e-06
7.36559e-05 -7.06982e-06 -0.000770065
0.00661554 0.00508235 0.000552027
0.00508235 0.00674547 0.000309922
0.000552027 0.000309922 -0.00148996
0.0136171 -0.000993923 -5.70773e-05
-0.000993923 0.00411904 0.000457076
-5.70773e-05 0.000457076 -0.000886693
0.00140901 0.000512154 1.51409e-05
0.000512154 0.00111974 1.07127e-05
1.51409e-05 1.07127e-05 0.000650939
0.000379479 0.000475683 -8.10944e-06
0.000475683 0.00061424 -2.30456e-06
-8.10944e-06 -2.30456e-06 -3.09796e-06
-0.000145956 0.00029276 1.30654e-05
0.00029276 0.00057986 -8.02963e-06
1.30654e-05 -8.02963e-06 -0.000258097
-0.000266192 5.78981e-05 7.98692e-06
5.78981e-05 -0.000254689 5.14762e-06
7.98692e-06 5.14762e-06 -0.000488676
0.00070688 0.000100171 6.52228e-06
0.000100171 0.000555396 -5.13592e-06
6.52228e-06 -5.13592e-06 0.000239602
0.000153949 6.44411e-05 2.38236e-06
6.44411e-05 0.000647482 1.37653e-06
2.38236e-06 1.37653e-06 1.98058e-05
-8.13015e-05 -5.45173e-05 -1.34762e-06
-5.45173e-05 8.37443e-05 -3.39972e-07
-1.34762e-06 -3.39972e-07 -0.000268218
0.000151633 -4.68493e-05 -1.8785e-06
-4.68493e-05 0.000589328 -1.40363e-06
-1.8785e-06 -1.40363e-06 2.31597e-05
-0.000288695 3.61365e-05 3.6504e-06
3.61365e-05 0.000513346 1.49889e-06
3.6504e-06 1.49889e-06 -0.000158869
0.000593421 -0.000165905 -1.38082e-05
-0.000165905 0.000951178 1.5358e-05
-1.38082e-05 1.5358e-05 0.000397435
0.000789527 -9.03457e-05 8.89519e-07
-9.03457e-05 0.000884212 -8.4011e-06
8.89519e-07 -8.4011e-06 0.000437506
-0.000603692 1.8178e-06 2.02368e-05
1.8178e-06 -0.000275417 -7.96618e-06
2.02368e-05 -7.96618e-06 -0.000537245
0.000513854 -0.000172347 -6.75996e-06
-0.000172347 8.80165e-05 8.82699e-06
-6.75996e-06 8.82699e-06 -3.89357e-05
-0.00309804 -0.000100819 3.24829e-06
-0.000100819 -0.00189394 -1.56112e-05
3.24829e-06 -1.56112e-05 -0.00203357
0.000859497 -0.000123332 1.72169e-07
-0.000123332 0.000850001 5.51658e-06
1.72169e-07 5.51658e-06 0.000489958
-0.000537632 -7.13048e-05 -1.81613e-05
-7.13048e-05 -0.000259103 1.79145e-06
-1.81613e-05 1.79145e-06 -0.000735109
0.00349281 -0.000891807 4.2359e-06
-0.000891807 0.00209234 1.69884e-05
4.2359e-06 1.69884e-05 0.00157879
0.00131267 -0.000500677 1.05892e-05
-0.000500677 0.000699449 -3.8128e-06
1.05892e-05 -3.8128e-06 0.000360221
0.000617452 -0.000557214 7.36873e-06
-0.000557214 4.27115e-05 1.75544e-05
7.36873e-06 1.75544e-05 -0.000361514
0.00104916 -0.00025869 -7.96334e-06
-0.00025869 0.000436722 8.82534e-07
-7.96334e-06 8.82534e-07 0.000183171
0.00092831 -0.000499868 -6.88152e-06
-0.000499868 0.000276745 4.03303e-06
-6.88152e-06 4.03303e-06 -8.56928e-05
0.0025087 -0.00107047 -1.7525e-05
-0.00107047 0.00111963 1.56808e-05
-1.7525e-05 1.56808e-05 0.000440118
0.00195817 -0.0011599 -7.02911e-06
-0.0011599 0.000691237 3.5016e-07
-7.02911e-06 3.5016e-07 -5.84937e-05
0.00141515 -0.00057305 9.0631e-06
-0.00057305 0.000455716 -1.13295e-06
9.0631e-06 -1.13295e-06 6.89635e-05
0.0016413 -0.000914076 4.56342e-06
-0.000914076 0.000654711 -8.28683e-07
4.56342e-06 -8.28683e-07 4.46704e-05
0.00203422 -0.000370189 4.87453e-06
-0.000370189 0.00115198 -1.23586e-05
4.87453e-06 -1.23586e-05 0.000734656
0.00122541 -0.000333737 -4.88797e-06
-0.000333737 0.000445183 3.46315e-06
-4.88797e-06 3.46315e-06 0.00014167
0.000566183 -0.000438839 1.10585e-05
-0.000438839 2.78073e-05 -1.80329e-05
1.10585e-05 -1.80329e-05 -0.00028882
0.00296141 -0.000339113 -6.23519e-06
-0.000339113 0.00177644 5.61375e-06
-6.23519e-06 5.61375e-06 0.00143332
-0.000509427 -0.000434212 1.46782e-06
-0.000434212 -0.000376331 -3.04626e-06
1.46782e-06 -3.04626e-06 -0.00079754
0.000134712 -8.73302e-05 1.40948e-05
-8.73302e-05 -4.63608e-05 4.87811e-06
1.40948e-05 4.87811e-06 -0.00041874
0.00217499 -0.00090234 -1.42365e-05
-0.00090234 0.00123514 1.8941e-05
-1.42365e-05 1.8941e-05 0.00093608
0.00126661 -0.000323748 5.67614e-08
-0.000323748 0.000675445 -6.95922e-07
5.67614e-08 -6.95922e-07 0.000380212
-3.47211e-05 -0.000135516 9.51814e-06
-0.000135516 -0.00024717 1.56948e-05
9.51814e-06 1.56948e-05 -0.000441148
0.00146754 -0.000256056 -8.79835e-06
-0.000256056 0.000879801 -5.73835e-06
-8.79835e-06 -5.73835e-06 0.000621192
0.000389053 -6.5141e-05 -3.34411e-06
-6.5141e-05 4.50418e-05 -7.55797e-07
-3.34411e-06 -7.55797e-07 -0.000108251
0.00158624 -5.15926e-05 -2.88803e-05
-5.15926e-05 0.000773269 7.74155e-06
-2.88803e-05 7.74155e-06 0.000732854
0.000610376 -0.000109179 -1.65444e-06
-0.000109179 0.000174354 -3.1512e-07
-1.65444e-06 -3.1512e-07 5.42488e-05
0.000898027 -4.00623e-05 -1.56505e-05
-4.00623e-05 0.000320435 1.08732e-06
-1.56505e-05 1.08732e-06 0.000280656
0.000750946 2.49742e-05 3.49246e-06
2.49742e-05 0.00019938 3.04019e-06
3.49246e-06 3.04019e-06 0.000192105
0.000418856 -5.05641e-05 3.25187e-06
-5.05641e-05 9.23345e-06 -6.24508e-06
3.25187e-06 -6.24508e-06 -2.79487e-05
0.00178516 2.26159e-05 2.25181e-05
2.26159e-05 0.000892768 -1.51352e-06
2.25181e-05 -1.51352e-06 0.000899559
0.00250514 7.06355e-06 3.14962e-05
7.06355e-06 0.00137228 -5.75852e-06
3.14962e-05 -5.75852e-06 0.00138579
0.000185696 2.16932e-05 1.87667e-06
2.16932e-05 -6.09603e-05 1.42878e-06
1.87667e-06 1.42878e-06 -0.000284806
-5.61321e-05 3.91622e-05 5.92563e-07
3.91622e-05 -0.000278629 -8.72841e-06
5.92563e-07 -8.72841e-06 -0.000386896
0.000605641 7.96325e-05 4.12464e-07
7.96325e-05 0.000210304 1.12378e-06
4.12464e-07 1.12378e-06 2.6297e-05
0.000368287 1.64567e-05 4.15687e-06
1.64567e-05 -3.70132e-05 -6.91612e-06
4.15687e-06 -6.91612e-06 -6.61914e-05
0.000265586 5.82453e-06 1.60746e-06
5.82453e-06 -6.73791e-05 1.59258e-07
1.60746e-06 1.59258e-07 -0.000159433
0.000350972 -0.000138689 -5.88521e-07
-0.000138689 5.04853e-05 6.24405e-06
-5.88521e-07 6.24405e-06 -0.000118268
0.00242519 1.50387e-06 -1.7852e-05
1.50387e-06 0.00132164 -6.60093e-06
-1.7852e-05 -6.60093e-06 0.00133389
0.00036162 1.2817e-05 1.26734e-06
1.2817e-05 -4.19452e-05 -8.57162e-08
1.26734e-06 -8.57162e-08 -6.65198e-05
0.000358578 -1.73279e-05 -6.81753e-06
-1.73279e-05 -4.25213e-06 5.88491e-06
-6.81753e-06 5.88491e-06 -8.51026e-05
0.00235633 1.77786e-05 -6.17156e-06
1.77786e-05 0.00127707 -2.61183e-08
-6.17156e-06 -2.61183e-08 0.00128931
0.000358418 -4.3281e-06 -4.3356e-06
-4.3281e-06 -4.30752e-05 5.38622e-06
-4.3356e-06 5.38622e-06 -6.56947e-05
0.00242365 3.78082e-05 1.14218e-05
3.78082e-05 0.00132409 7.1666e-06
1.14218e-05 7.1666e-06 0.00133389
-0.00178446 -0.00274532 -0.000361058
-0.00274532 6.11837e-05 0.000147659
-0.000361058 0.000147659 -0.00543857
0.00774803 0.00492056 -0.000478788
0.00492056 0.01558 7.97314e-05
-0.000478788 7.97314e-05 0.00509964
0.0103745 0.00302463 -0.00233194
0.00302463 0.00802452 0.000318763
-0.00233194 0.000318763 0.00340115
0.000446385 0.00013498 1.06042e-05
0.00013498 0.000155785 2.34515e-06
1.06042e-05 2.34515e-06 -0.000103436
0.00904896 -0.00230414 -0.000286052
-0.00230414 0.00651729 0.000391726
-0.000286052 0.000391726 0.00225604
0.0056401 -0.00212778 -0.000278095
-0.00212778 0.00325129 3.38761e-05
-0.000278095 3.38761e-05 -0.00269422
0.0283109 0.0150294 -2.61163e-05
0.0150294 0.0188549 -0.000781041
-2.61163e-05 -0.000781041 0.00293366
0.00673487 -0.00280207 0.000218539
-0.00280207 -0.0027913 -4.7488e-05
0.000218539 -4.7488e-05 4.33248e-05
0.0114289 -0.0059454 0.000436253
-0.0059454 -0.0052135 -0.000370519
0.000436253 -0.000370519 -0.0018638
0.0238257 0.00843118 -0.00132019
0.00843118 0.0116717 0.000130175
-0.00132019 0.000130175 -1.87004e-05
0.0207051 0.00598397 0.000696877
0.00598397 0.0149231 0.000424676
0.000696877 0.000424676 0.00822172
0.00746425 -0.00512481 -9.84933e-05
-0.00512481 -0.00215179 2.47714e-06
-9.84933e-05 2.47714e-06 0.000603891
0.0107899 -0.010493 4.47255e-05
-0.010493 -0.000725713 -9.91382e-05
4.47255e-05 -9.91382e-05 -0.00146806
0.0166029 0.00218851 5.63619e-05
0.00218851 0.0123679 -0.000609788
5.63619e-05 -0.000609788 0.00181536
0.0187947 0.00140263 -4.27772e-05
0.00140263 0.00490504 0.00010275
-4.27772e-05 0.00010275 0.000157021
0.00488327 -0.00676691 1.00614e-05
-0.00676691 0.000396452 5.29176e-05
1.00614e-05 5.29176e-05 0.00137134
0.00764977 -0.00932798 0.000459263
-0.00932798 0.00455734 -0.000274424
0.000459263 -0.000274424 2.62915e-05
0.00862344 0.000936958 -0.00018881
0.000936958 0.00804578 -0.000510196
-0.00018881 -0.000510196 0.00122722
0.0187808 -0.00104487 -0.000330441
-0.00104487 0.00180369 0.000346304
-0.000330441 0.000346304 0.000711975
0.000183784 0.00028569 2.32385e-05
0.00028569 5.68931e-05 2.16839e-05
2.32385e-05 2.16839e-05 -0.000171987
0.000477148 -0.00011412 -1.174e-06
-0.00011412 0.000255832 -3.57928e-06
-1.174e-06 -3.57928e-06 -2.19531e-05
-0.000519306 -4.69925e-05 2.7147e-06
-4.69925e-05 -0.000498914 1.88243e-06
2.7147e-06 1.88243e-06 -0.000644895
0.000777066 0.000259594 1.67682e-05
0.000259594 0.000312423 2.21604e-05
1.67682e-05 2.21604e-05 9.7393e-05
0.00105576 0.000285992 -3.76461e-06
0.000285992 0.000582704 -4.32825e-06
-3.76461e-06 -4.32825e-06 0.000301389
0.00054716 0.000105077 1.58841e-06
0.000105077 0.000243006 -7.97731e-07
1.58841e-06 -7.97731e-07 1.16295e-05
0.0014382 0.00025618 -1.94955e-06
0.00025618 0.000850735 -1.80933e-07
-1.94955e-06 -1.80933e-07 0.000554538
0.0011556 0.000226858 1.50949e-07
0.000226858 0.000656 7.11155e-06
1.50949e-07 7.11155e-06 0.000376284
0.00309612 -0.00207086 0.000185589
-0.00207086 -0.00064644 -0.000118004
0.000185589 -0.000118004 0.000137267
-0.00119993 -0.00111674 -1.34343e-05
-0.00111674 -0.00141318 -1.50572e-05
-1.34343e-05 -1.50572e-05 -0.00172078
-0.0010077 6.57113e-05 -1.28209e-05
6.57113e-05 -0.000706277 -7.89825e-06
-1.28209e-05 -7.89825e-06 -0.000928878
1.50918e-05 -0.000658052 1.92302e-05
-0.000658052 7.56282e-05 -1.18745e-05
1.92302e-05 -1.18745e-05 -0.000285104
0.00242812 -0.000572154 -4.12383e-05
-0.000572154 0.00165988 8.81774e-06
-4.12383e-05 8.81774e-06 0.00122619
0.000899112 -0.000109536 1.09396e-05
-0.000109536 0.000751792 -3.11044e-05
1.09396e-05 -3.11044e-05 0.000298091
-0.000829371 0.000196825 2.88135e-06
0.000196825 -0.000438984 1.94166e-05
2.88135e-06 1.94166e-05 -0.000720368
0.0019437 -0.00310029 -2.31581e-05
-0.00310029 1.80173e-05 -4.6291e-06
-2.31581e-05 -4.6291e-06 -0.000663505
0.00120635 -0.000255396 -5.55226e-06
-0.000255396 0.00105356 6.15374e-06
-5.55226e-06 6.15374e-06 0.000575035
-0.000597592 -0.000193069 -1.38218e-06
-0.000193069 0.000127468 8.25632e-06
-1.38218e-06 8.25632e-06 -0.000458872
-0.000769728 -0.000890868 1.16235e-05
-0.000890868 -0.000314492 1.38825e-06
1.16235e-05 1.38825e-06 -0.00070207
-0.000987329 -5.6797e-05 2.55209e-05
-5.6797e-05 -0.000453624 -2.67155e-06
2.55209e-05 -2.67155e-06 -0.000758855
0.0030115 -0.0031829 -0.000107448
-0.0031829 0.00247993 -1.26426e-05
-0.000107448 -1.26426e-05 0.000884316
-0.000727791 -0.000802563 7.71438e-06
-0.000802563 9.36243e-05 -1.76467e-05
7.71438e-06 -1.76467e-05 -0.000566153
0.000141596 -2.42426e-06 2.22721e-05
-2.42426e-06 0.000731567 -1.36835e-05
2.22721e-05 -1.36835e-05 -9.28647e-06
-0.000606156 -0.000117998 2.19912e-05
-0.000117998 0.000262739 2.70966e-05
2.19912e-05 2.70966e-05 -0.000510436
0.00145929 -0.000329647 0.00043506
-0.000329647 0.00693984 0.00010154
0.00043506 0.00010154 0.00181959
-0.00034233 8.80081e-05 0.000208107
8.80081e-05 0.00128024 -4.93758e-06
0.000208107 -4.93758e-06 -0.00424157
-0.0128697 -0.000776731 -0.00124874
-0.000776731 0.00574374 2.33406e-05
-0.00124874 2.33406e-05 0.000819993
0.00236923 0.00127973 2.84578e-05
0.00127973 0.00146607 6.39222e-06
2.84578e-05 6.39222e-06 0.000795024
-0.000514911 0.0016757 3.12291e-05
0.0016757 0.000176897 1.79777e-05
3.12291e-05 1.79777e-05 -0.00086288
0.00546909 0.00320715 0.000911125
0.00320715 0.00561273 0.000223671
0.000911125 0.000223671 -0.000631406
0.00275592 0.00654967 0.0002386
0.00654967 0.00349445 0.000281746
0.0002386 0.000281746 -0.000552497
0.000841582 0.00503442 -0.000296555
0.00503442 0.00174664 -0.000256384
-0.000296555 -0.000256384 -0.00087509
0.0091062 -0.00165642 -0.000137535
-0.00165642 0.00778968 -0.000547812
-0.000137535 -0.000547812 0.000812629
0.00510086 0.000384106 2.47949e-05
0.000384106 0.0032547 8.86767e-05
2.47949e-05 8.86767e-05 -0.000364844
0.0116597 -0.000122909 -4.22184e-05
-0.000122909 -0.00331915 -0.000312133
-4.22184e-05 -0.000312133 -0.00366429
0.000809413 0.00118696 5.55682e-06
0.00118696 0.000943213 -9.22733e-07
5.55682e-06 -9.22733e-07 3.49131e-05
-0.00178441 0.000960333 2.12769e-05
0.000960333 0.00369156 -5.47395e-07
2.12769e-05 -5.47395e-07 -0.00122737
0.00849059 -0.000673034 0.000335798
-0.000673034 0.00105068 6.59003e-06
0.000335798 6.59003e-06 -0.002376
-0.00224172 0.00141541 -3.89072e-05
0.00141541 0.000423353 -2.03805e-05
-3.89072e-05 -2.03805e-05 -0.00110213
0.0199489 0.00181339 4.31944e-05
0.00181339 0.00484354 -0.000116239
4.31944e-05 -0.000116239 -5.96295e-06
0.00379942 0.00357234 0.000458005
0.00357234 0.00682999 0.000303565
0.000458005 0.000303565 -0.0010589
0.0164862 0.000734727 -0.0002456
0.000734727 0.00615149 -3.4571e-05
-0.0002456 -3.4571e-05 -4.92624e-05
5.01541e-05 0.00100244 1.91992e-06
0.00100244 0.000818423 -1.51898e-05
1.91992e-06 -1.51898e-05 -0.000288363
0.00550226 1.74716e-05 0.00018428
1.74716e-05 0.00388131 8.42783e-05
0.00018428 8.42783e-05 0.000103908
0.00382457 -0.00444082 0.000445992
-0.00444082 0.00520706 -0.000260038
0.000445992 -0.000260038 0.00164517
0.0388693 0.00855163 0.000718253
0.00855163 0.0182221 -0.000454269
0.000718253 -0.000454269 0.00777453
0.0108919 -2.68349e-05 2.41055e-05
-2.68349e-05 0.00929406 0.000656133
2.41055e-05 0.000656133 0.00228337
-0.00205158 0.00127147 -0.000211842
0.00127147 0.00150771 -0.00013853
-0.000211842 -0.00013853 -0.000227585
0.00125659 -0.000265345 0.000174611
-0.000265345 0.00608223 -5.60693e-05
0.000174611 -5.60693e-05 -0.0046024
0.000567258 0.000577254 1.69792e-06
0.000577254 0.000683054 1.15819e-05
1.69792e-06 1.15819e-05 2.47297e-05
0.000462148 0.000362801 3.22828e-06
0.000362801 0.000976703 5.4624e-06
3.22828e-06 5.4624e-06 0.000191604
0.000506196 -0.000160244 -1.34457e-05
-0.000160244 0.00145655 2.31082e-05
-1.34457e-05 2.31082e-05 0.000682936
-0.000873589 5.76626e-05 1.84631e-05
5.76626e-05 -0.00044791 -4.37804e-06
1.84631e-05 -4.37804e-06 -0.000777883
-0.000393269 3.70078e-06 6.89492e-06
3.70078e-06 0.00028976 7.98759e-06
6.89492e-06 7.98759e-06 -0.000298058
4.47959e-05 4.47428e-05 -9.09784e-06
4.47428e-05 0.000730598 -3.3194e-06
-9.09784e-06 -3.3194e-06 4.37407e-05
0.000228786 -3.36322e-05 -6.01883e-06
-3.36322e-05 0.000498634 1.57619e-06
-6.01883e-06 1.57619e-06 8.76796e-05
0.000177619 -0.000126484 1.094e-06
-0.000126484 0.000745459 2.5294e-06
1.094e-06 2.5294e-06 0.000168159
0.00404604 -0.000824585 2.03068e-05
-0.000824585 0.00267552 -8.84847e-06
2.03068e-05 -8.84847e-06 0.00221685
-8.89208e-05 -5.13068e-05 -5.87224e-07
-5.13068e-05 0.000229359 -7.95779e-06
-5.87224e-07 -7.95779e-06 -0.000122132
-0.00562037 0.000119629 -6.16204e-07
0.000119629 -0.00320335 -6.2621e-06
-6.16204e-07 -6.2621e-06 -0.00380504
0.00097714 -0.000620242 -1.4202e-06
-0.000620242 0.000721042 5.44267e-06
-1.4202e-06 5.44267e-06 7.79923e-05
-0.00170444 -0.000259607 2.19972e-05
-0.000259607 -0.00109223 1.95513e-05
2.19972e-05 1.95513e-05 -0.00152927
-0.000410155 -0.00027437 -2.34948e-06
-0.00027437 -0.000291797 -7.77968e-06
-2.34948e-06 -7.77968e-06 -0.000513108
0.000173043 -0.000571601 -1.25258e-05
-0.000571601 -0.000230942 -5.80302e-06
-1.25258e-05 -5.80302e-06 -0.000613117
0.00207345 -0.00112057 -1.72005e-05
-0.00112057 0.000840155 6.86459e-06
-1.72005e-05 6.86459e-06 1.87395e-05
0.00243621 -0.00136933 -1.61588e-05
-0.00136933 0.000896579 5.88026e-06
-1.61588e-05 5.88026e-06 5.67874e-05
0.00252727 -0.00066132 2.19897e-06
-0.00066132 0.00126235 -1.40824e-05
2.19897e-06 -1.40824e-05 0.000875839
0.00207563 -0.00101802 -2.72882e-06
-0.00101802 0.000856955 2.46002e-06
-2.72882e-06 2.46002e-06 0.00018338
0.00208718 -0.00124218 1.0619e-05
-0.00124218 0.000697345 -6.28011e-06
1.0619e-05 -6.28011e-06 -7.16173e-05
0.00152235 -0.00085451 4.93412e-06
-0.00085451 0.000529824 1.70945e-06
4.93412e-06 1.70945e-06 -6.8992e-05
0.00177653 -0.00113652 5.01554e-06
-0.00113652 0.000591743 -4.02031e-06
5.01554e-06 -4.02031e-06 -0.000149744
0.00228131 -0.000379709 -2.52818e-06
-0.000379709 0.00107989 -9.58551e-06
-2.52818e-06 -9.58551e-06 0.000763889
0.000465376 -0.000500432 -7.69555e-07
-0.000500432 -0.000127613 4.17852e-07
-7.69555e-07 4.17852e-07 -0.000527957
0.00136883 -0.000848867 8.34568e-06
-0.000848867 0.000501336 -1.0981e-05
8.34568e-06 -1.0981e-05 -8.16547e-05
-0.000304177 -0.000185089 7.8481e-06
-0.000185089 -0.000287495 -2.75318e-07
7.8481e-06 -2.75318e-07 -0.000726496
0.000611673 -0.000331325 1.73326e-07
-0.000331325 0.000304892 -9.42173e-07
1.73326e-07 -9.42173e-07 -0.000134452
-0.000362975 -0.000226649 -2.98659e-06
-0.000226649 -0.000485104 -8.69456e-07
-2.98659e-06 -8.69456e-07 -0.000807878
0.00141752 -0.000536462 -1.21973e-05
-0.000536462 0.000791609 2.07079e-05
-1.21973e-05 2.07079e-05 0.000388198
0.00114205 -0.000348856 1.88788e-06
-0.000348856 0.000573398 1.1159e-06
1.88788e-06 1.1159e-06 0.000203397
-0.000775854 -0.000101482 5.84597e-06
-0.000101482 -0.000703721 1.35172e-05
5.84597e-06 1.35172e-05 -0.000987274
0.000854624 -0.000553541 -1.45516e-05
-0.000553541 0.000448409 -7.90396e-06
-1.45516e-05 -7.90396e-06 0.000109086
0.000439285 -0.000117367 -8.65448e-07
-0.000117367 6.03402e-05 -9.407e-08
-8.65448e-07 -9.407e-08 -0.000139889
0.000364556 2.37254e-05 2.96488e-06
2.37254e-05 -3.32141e-05 1.36761e-05
2.96488e-06 1.36761e-05 -9.70145e-05
0.00170226 -0.000207982 -7.4481e-06
-0.000207982 0.000899455 -6.36555e-06
-7.4481e-06 -6.36555e-06 0.000733241
0.000454544 -5.58043e-05 -2.82006e-06
-5.58043e-05 1.50188e-05 2.22687e-07
-2.82006e-06 2.22687e-07 -3.29032e-05
0.00280917 9.66628e-05 5.83724e-06
9.66628e-05 0.00157713 3.97937e-06
5.83724e-06 3.97937e-06 0.00157588
0.000466361 -6.53827e-05 3.19657e-06
-6.53827e-05 3.19313e-05 -6.7232e-06
3.19657e-06 -6.7232e-06 -1.329e-05
0.00185678 3.36423e-05 3.01152e-05
3.36423e-05 0.000941312 -1.8076e-06
3.01152e-05 -1.8076e-06 0.000943079
0.00290004 2.1296e-05 4.45444e-05
2.1296e-05 0.00163362 -6.93498e-06
4.45444e-05 -6.93498e-06 0.00164492
-9.30521e-05 9.71348e-05 2.18098e-06
9.71348e-05 -0.000253805 5.04918e-06
2.18098e-06 5.04918e-06 -0.000476318
-0.000150093 4.3657e-05 2.88275e-06
4.3657e-05 -0.000333109 -8.62563e-06
2.88275e-06 -8.62563e-06 -0.000474188
0.000242006 0.000111251 -4.43964e-07
0.000111251 -1.28636e-05 5.9012e-07
-4.43964e-07 5.9012e-07 -0.000238143
0.00039952 1.98203e-05 4.22059e-06
1.98203e-05 -1.88207e-05 -7.96951e-06
4.22059e-06 -7.96951e-06 -5.33431e-05
-7.02196e-05 3.695e-05 -8.64474e-07
3.695e-05 -0.000285843 -2.69855e-06
-8.64474e-07 -2.69855e-06 -0.000397149
0.000853956 0.000115038 -7.0231e-07
0.000115038 0.000410983 7.03555e-06
-7.0231e-07 7.03555e-06 0.000202953
0.00259075 -1.43727e-05 -2.46663e-05
-1.43727e-05 0.00143191 -6.80218e-06
-2.46663e-05 -6.80218e-06 0.00144285
0.000372587 1.55608e-05 -5.22723e-07
1.55608e-05 -3.59221e-05 -2.1086e-07
-5.22723e-07 -2.1086e-07 -6.42957e-05
-0.000176878 2.27362e-05 -5.56122e-07
2.27362e-05 -0.000362132 6.74573e-06
-5.56122e-07 6.74573e-06 -0.00045445
0.00241564 1.63997e-06 -5.03496e-06
1.63997e-06 0.0013155 1.11152e-07
-5.03496e-06 1.11152e-07 0.00132776
0.000373082 2.0127e-05 -2.42993e-06
2.0127e-05 -3.38806e-05 5.98441e-06
-2.42993e-06 5.98441e-06 -5.84083e-05
0.00236129 1.86893e-05 1.32066e-05
1.86893e-05 0.00128097 6.40341e-06
1.32066e-05 6.40341e-06 0.00129296
0.00102501 -0.000393819 0.000406545
-0.000393819 0.00686952 0.00023264
0.000406545 0.00023264 0.00349478
-0.00210279 -0.000910548 -6.38351e-05
-0.000910548 0.000325814 1.0082e-05
-6.38351e-05 1.0082e-05 -0.0055421
0.00381361 0.00489267 -0.000917193
0.00489267 0.0142793 -0.000241197
-0.000917193 -0.000241197 0.00375379
0.000850371 0.000218042 -3.59354e-07
0.000218042 0.000422633 5.01934e-09
-3.59354e-07 5.01934e-09 0.000162943
-0.000785958 0.000150163 9.78026e-06
0.000150163 -0.000585591 -2.19338e-06
9.78026e-06 -2.19338e-06 -0.000894086
0.00268688 0.000400919 3.23256e-05
0.000400919 0.00165531 4.45714e-06
3.23256e-05 4.45714e-06 0.00139295
0.0107782 -0.00144743 -0.000560933
-0.00144743 0.000916699 6.20431e-05
-0.000560933 6.20431e-05 -0.00308136
0.0101179 -0.00415592 0.000242075
-0.00415592 0.00571891 5.92589e-05
0.000242075 5.92589e-05 0.00262616
0.00484816 -0.00555848 0.000399493
-0.00555848 0.00224268 -0.000364301
0.000399493 -0.000364301 -0.00298106
0.00868595 -0.00576482 5.52971e-05
-0.00576482 -0.00219512 -0.000130433
5.52971e-05 -0.000130433 0.000831757
0.00351729 -0.0102166 -0.00133079
-0.0102166 -0.00497851 0.000121862
-0.00133079 0.000121862 -0.00361476
0.0334506 0.00910595 0.00111396
0.00910595 0.0199777 0.000406651
0.00111396 0.000406651 0.00623288
0.0104528 -0.00206783 0.00053843
-0.00206783 -0.000160517 -0.000333672
0.00053843 -0.000333672 -0.00411105
0.00386062 -0.00627488 8.16889e-06
-0.00627488 -0.000401623 1.18808e-05
8.16889e-06 1.18808e-05 0.00106124
0.00391891 -0.0100367 -0.00036678
-0.0100367 0.00315448 1.67228e-05
-0.00036678 1.67228e-05 -0.0028028
0.0109143 0.00520369 -0.000232999
0.00520369 0.00891591 -0.000449987
-0.000232999 -0.000449987 0.000652719
0.0153032 -0.000645513 -0.000221581
-0.000645513 -0.000388587 0.000193618
-0.000221581 0.000193618 -0.0011191
0.000963754 -0.00538867 -0.000239522
-0.00538867 0.00212004 0.000139715
-0.000239522 0.000139715 0.000497388
0.00838085 -0.00492529 -0.000431387
-0.00492529 0.0071721 0.000348947
-0.000431387 0.000348947 0.00044382
0.0129899 -0.000332234 5.03404e-05
-0.000332234 0.00490812 -0.000402852
5.03404e-05 -0.000402852 -0.000714594
0.0105128 0.00131864 -0.000108221
0.00131864 -0.00030701 0.000272439
-0.000108221 0.000272439 -0.00354527
-0.000384639 0.000142509 1.90028e-05
0.000142509 -0.000293614 3.40867e-05
1.90028e-05 3.40867e-05 -0.000463993
0.000605893 1.93798e-05 -6.82914e-06
1.93798e-05 0.00034621 2.35067e-06
-6.82914e-06 2.35067e-06 0.000117336
0.00136523 -0.000395489 1.1748e-05
-0.000395489 0.000854788 -1.13795e-05
1.1748e-05 -1.13795e-05 0.000561436
0.000407366 0.00020459 8.21429e-07
0.00020459 6.85258e-05 5.30968e-06
8.21429e-07 5.30968e-06 -0.000133716
0.000945183 0.000308854 -2.55228e-06
0.000308854 0.000530327 -1.22211e-05
-2.55228e-06 -1.22211e-05 0.000244452
0.00119003 0.000321731 -8.40174e-06
0.000321731 0.000694258 -4.39604e-06
-8.40174e-06 -4.39604e-06 0.000396122
0.00145912 -0.00261595 8.19238e-05
-0.00261595 -8.02367e-07 -3.68723e-05
8.19238e-05 -3.68723e-05 -0.000449869
0.000342688 -0.000928804 1.08511e-05
-0.000928804 0.000137882 -2.91454e-05
1.08511e-05 -2.91454e-05 -0.000156386
-0.000395714 0.000240513 -1.29524e-05
0.000240513 -0.000218262 -3.53621e-05
-1.29524e-05 -3.53621e-05 -0.000512757
0.000800488 -0.000363555 4.08685e-05
-0.000363555 0.000754053 -2.16886e-05
4.08685e-05 -2.16886e-05 0.000220306
0.00304079 -0.000191454 -2.50996e-06
-0.000191454 0.0021426 -4.22502e-05
-2.50996e-06 -4.22502e-05 0.00167327
-0.000398844 4.48232e-05 7.35257e-06
4.48232e-05 -7.72915e-05 8.9171e-06
7.35257e-06 8.9171e-06 -0.000380022
-0.000440824 2.08239e-05 5.14953e-06
2.08239e-05 0.00036884 2.06143e-05
5.14953e-06 2.06143e-05 -0.000342938
0.00136718 -0.00275793 -1.39504e-05
-0.00275793 0.00169448 -1.34874e-05
-1.39504e-05 -1.34874e-05 0.000260306
2.69071e-05 -3.06224e-05 -6.46021e-06
-3.06224e-05 0.000716538 -1.0626e-06
-6.46021e-06 -1.0626e-06 -7.62541e-05
0.00026673 -0.000774711 -3.0526e-06
-0.000774711 0.00098078 5.34842e-06
-3.0526e-06 5.34842e-06 9.41241e-05
0.000209329 0.000244943 5.92088e-05
0.000244943 0.000625119 -4.33501e-05
5.92088e-05 -4.33501e-05 1.87883e-05
-0.00330908 -0.000509669 -0.000248535
-0.000509669 0.000399408 1.62595e-05
-0.000248535 1.62595e-05 -0.000944464
-0.000871563 -0.00030503 -7.21173e-05
-0.00030503 0.00116001 -2.84618e-05
-7.21173e-05 -2.84618e-05 0.000103714
-0.00315874 -9.80306e-05 1.95985e-05
-9.80306e-05 -0.000883096 -4.41748e-06
1.95985e-05 -4.41748e-06 -0.0017066
0.00209727 0.000878168 1.56204e-05
0.000878168 0.000230098 -2.22385e-05
1.56204e-05 -2.22385e-05 -0.00653611
-0.000852886 0.00164298 0.000293984
0.00164298 0.00643659 3.69764e-05
0.000293984 3.69764e-05 0.00180194
-0.00256507 0.000521949 0.000534943
0.000521949 0.000613729 4.82643e-05
0.000534943 4.82643e-05 -0.00443662
-0.000213124 0.00122614 1.64205e-05
0.00122614 0.000297213 2.90127e-05
1.64205e-05 2.90127e-05 -0.000691697
0.00166134 0.00218416 7.91743e-06
0.00218416 0.00188577 -4.8598e-05
7.91743e-06 -4.8598e-05 0.000331844
-0.00116714 0.0010539 -0.000407734
0.0010539 0.00422752 -0.000118571
-0.000407734 -0.000118571 -0.000793347
-0.00243798 0.00194195 0.000331481
0.00194195 0.005717 0.000327972
0.000331481 0.000327972 -0.00132259
0.00994867 0.000194833 -0.000225698
0.000194833 0.000342938 -0.000539686
-0.000225698 -0.000539686 -0.00644643
0.0088016 0.000126446 9.99143e-05
0.000126446 0.000353092 -3.53162e-05
9.99143e-05 -3.53162e-05 -0.00234691
0.00935383 -0.00198362 -0.000558183
-0.00198362 -0.000834542 0.000320532
-0.000558183 0.000320532 -0.00435796
0.000572567 0.00091362 -2.11044e-05
0.00091362 0.00114157 -4.69825e-06
-2.11044e-05 -4.69825e-06 0.000161975
0.00289085 0.000926304 0.000118538
0.000926304 0.00386082 6.89606e-05
0.000118538 6.89606e-05 0.000203516
0.00935462 -0.0029652 -0.000239429
-0.0029652 0.0052 -4.87666e-05
-0.000239429 -4.87666e-05 0.00242344
-0.000305977 0.00141106 -0.000195509
0.00141106 0.00333934 -3.12106e-05
-0.000195509 -3.12106e-05 0.000283975
0.0284917 0.00818094 -0.000613408
0.00818094 0.0147496 -0.000619506
-0.000613408 -0.000619506 0.00492783
0.0152039 0.00410382 0.000154305
0.00410382 0.0104145 0.000516336
0.000154305 0.000516336 0.00079153
0.00800879 0.00329371 0.000129154
0.00329371 0.0086475 -2.02015e-06
0.000129154 -2.02015e-06 0.000610503
7.37648e-05 4.71784e-05 6.12699e-05
4.71784e-05 0.00205733 -1.70289e-05
6.12699e-05 -1.70289e-05 9.51176e-05
0.00275865 0.000479069 -0.000439419
0.000479069 0.0088665 -1.02608e-05
-0.000439419 -1.02608e-05 0.00514199
0.00165833 -0.0015747 0.000768123
-0.0015747 0.00139263 -0.000277895
0.000768123 -0.000277895 -0.00515289
0.0481063 0.0198584 -2.45668e-05
0.0198584 0.0327577 -0.000269406
-2.45668e-05 -0.000269406 0.0145291
0.0201165 0.00670778 0.0010728
0.00670778 0.0112272 0.00150135
0.0010728 0.00150135 -0.000608194
0.0121754 -0.00715774 0.000725155
-0.00715774 0.00933329 -0.000494372
0.000725155 -0.000494372 3.3674e-06
4.12758e-05 -0.00094824 -9.33052e-05
-0.00094824 0.00422961 6.82611e-05
-9.33052e-05 6.82611e-05 0.00206573
0.00110493 0.00039896 -9.04424e-06
0.00039896 0.00134521 3.02355e-07
-9.04424e-06 3.02355e-07 0.000634015
-0.000262493 -0.000120626 -1.32964e-05
-0.000120626 0.000778158 -7.71496e-06
-1.32964e-05 -7.71496e-06 -9.06352e-05
0.00120638 -0.00100336 6.94452e-05
-0.00100336 0.00137575 -1.62482e-05
6.94452e-05 -1.62482e-05 0.000325071
-0.000725245 2.26395e-05 6.7574e-07
2.26395e-05 -0.000102622 4.88975e-06
6.7574e-07 4.88975e-06 -0.00050278
-0.000614896 -8.42608e-05 1.74926e-05
-8.42608e-05 0.000312872 -1.75302e-05
1.74926e-05 -1.75302e-05 -0.000276699
0.00115862 -0.00051889 -1.03678e-05
-0.00051889 0.0010907 1.13589e-06
-1.03678e-05 1.13589e-06 0.000695168
0.00285713 -0.00133893 5.21519e-05
-0.00133893 0.00173244 -1.41526e-05
5.21519e-05 -1.41526e-05 0.000873072
-0.00157347 -0.000336191 5.39551e-06
-0.000336191 -0.000708946 -6.36402e-06
5.39551e-06 -6.36402e-06 -0.00146828
0.00200395 -0.00100573 2.07925e-05
-0.00100573 0.000848571 -7.15814e-06
2.07925e-05 -7.15814e-06 0.000279404
-0.000644123 -0.000738613 -9.32821e-06
-0.000738613 -0.00045272 -4.17052e-07
-9.32821e-06 -4.17052e-07 -0.00149279
0.00096436 -0.000673444 -1.13256e-05
-0.000673444 0.000275531 -1.39674e-06
-1.13256e-05 -1.39674e-06 -8.79062e-05
0.00195691 -0.00109552 1.48213e-06
-0.00109552 0.000764866 -1.74471e-06
1.48213e-06 -1.74471e-06 -4.48084e-05
0.00237551 -0.00144489 -2.53146e-05
-0.00144489 0.000785764 4.7621e-06
-2.53146e-05 4.7621e-06 -0.000181582
0.00290102 -0.00157844 -1.45364e-05
-0.00157844 0.000866419 5.19367e-07
-1.45364e-05 5.19367e-07 9.05326e-06
0.00246291 -0.00149622 -2.58033e-06
-0.00149622 0.000834133 1.36887e-07
-2.58033e-06 1.36887e-07 -3.96642e-05
0.00254254 -0.00137341 -4.9277e-06
-0.00137341 0.000946811 1.42424e-06
-4.9277e-06 1.42424e-06 0.000106232
0.00172911 -0.000975276 6.65589e-06
-0.000975276 0.000642406 -1.06122e-05
6.65589e-06 -1.06122e-05 -2.59513e-05
0.00231865 -0.00124261 1.53474e-05
-0.00124261 0.000954041 -7.37088e-06
1.53474e-05 -7.37088e-06 0.000170362
0.00184861 -0.00122618 1.16039e-05
-0.00122618 0.000547149 -3.73601e-06
1.16039e-05 -3.73601e-06 -0.000218251
0.0015688 -0.000576705 -5.0595e-06
-0.000576705 0.000541305 -3.5024e-06
-5.0595e-06 -3.5024e-06 9.96251e-05
0.00246609 -0.000966853 5.01836e-06
-0.000966853 0.001109 -5.41544e-06
5.01836e-06 -5.41544e-06 0.000489155
0.00111845 -0.00104991 4.23409e-06
-0.00104991 0.00018917 -4.90022e-06
4.23409e-06 -4.90022e-06 -0.000526887
0.000271606 -1.0108e-05 1.6384e-06
-1.0108e-05 -5.02419e-05 -2.64457e-06
1.6384e-06 -2.64457e-06 -0.000405865
0.000311344 -0.000396341 1.34718e-06
-0.000396341 -0.000175425 2.62901e-07
1.34718e-06 2.62901e-07 -0.000510028
0.000875261 -0.000557898 -1.3317e-05
-0.000557898 0.000115101 3.91051e-06
-1.3317e-05 3.91051e-06 -0.000311515
0.000149345 -0.000232983 6.87199e-06
-0.000232983 -8.92032e-05 9.07824e-06
6.87199e-06 9.07824e-06 -0.000456702
0.000992753 -0.000375891 -1.28896e-07
-0.000375891 0.000536631 1.17091e-06
-1.28896e-07 1.17091e-06 9.19307e-05
-0.00163236 -0.000466762 -5.48702e-06
-0.000466762 -0.00113893 1.12581e-05
-5.48702e-06 1.12581e-05 -0.00157327
0.0016372 -0.000543385 -8.4771e-06
-0.000543385 0.000879202 -4.18502e-06
-8.4771e-06 -4.18502e-06 0.000503511
0.00114074 -0.000199295 -8.97216e-07
-0.000199295 0.00051133 5.48536e-07
-8.97216e-07 5.48536e-07 0.000243788
0.000295523 -2.07731e-05 1.85712e-06
-2.07731e-05 -7.21401e-05 1.94196e-05
1.85712e-06 1.94196e-05 -0.000166001
0.00200493 -0.00020413 -2.37478e-06
-0.00020413 0.0010622 -1.51233e-05
-2.37478e-06 -1.51233e-05 0.000864465
0.000442254 -2.57976e-05 -7.90987e-06
-2.57976e-05 2.05829e-05 -9.2658e-07
-7.90987e-06 -9.2658e-07 -4.95093e-05
0.00362615 0.000106518 -5.43336e-05
0.000106518 0.00212894 7.98119e-06
-5.43336e-05 7.98119e-06 0.00212585
0.000558812 -6.2615e-05 2.63932e-06
-6.2615e-05 7.45898e-05 -1.13678e-05
2.63932e-06 -1.13678e-05 2.60878e-05
0.00210721 6.07989e-05 3.44973e-05
6.07989e-05 0.00110717 -6.34946e-07
3.44973e-05 -6.34946e-07 0.00110441
0.00294451 4.10411e-05 4.86929e-05
4.10411e-05 0.00166029 -6.67023e-06
4.86929e-05 -6.67023e-06 0.00166993
0.00160812 0.000252994 6.13997e-07
0.000252994 0.000915781 -9.93987e-06
6.13997e-07 -9.93987e-06 0.000630169
0.000684744 0.000127845 4.22718e-06
0.000127845 0.000231637 -6.8872e-06
4.22718e-06 -6.8872e-06 6.05274e-05
0.000480289 0.000117994 -1.45377e-06
0.000117994 0.000173387 2.64884e-06
-1.45377e-06 2.64884e-06 -8.72275e-05
0.000420247 4.27802e-05 -8.69656e-07
4.27802e-05 1.99156e-06 -1.09282e-05
-8.69656e-07 -1.09282e-05 -4.29481e-05
0.000157553 6.42658e-05 -2.66385e-06
6.42658e-05 -0.000126319 -4.05308e-06
-2.66385e-06 -4.05308e-06 -0.000264343
0.000565389 0.000105306 -1.62661e-06
0.000105306 0.00021303 -2.55691e-06
-1.62661e-06 -2.55691e-06 -1.60604e-05
0.00265189 -3.12619e-05 -2.8886e-05
-3.12619e-05 0.00147333 -7.29324e-06
-2.8886e-05 -7.29324e-06 0.00148268
0.000356739 3.8639e-06 7.86981e-07
3.8639e-06 -4.45902e-05 -3.6928e-07
7.86981e-07 -3.6928e-07 -7.92114e-05
0.000144892 2.00937e-05 -3.53614e-06
2.00937e-05 -0.000138085 3.92314e-06
-3.53614e-06 3.92314e-06 -0.000257275
0.00251523 -1.47126e-05 -7.25111e-06
-1.47126e-05 0.00138166 1.62121e-07
-7.25111e-06 1.62121e-07 0.00139294
0.000373434 8.88616e-06 -5.72717e-06
8.88616e-06 -3.61354e-05 6.56157e-06
-5.72717e-06 6.56157e-06 -6.38333e-05
0.00243551 2.75272e-06 1.79754e-05
2.75272e-06 0.00132912 6.49217e-06
1.79754e-05 6.49217e-06 0.00134124
0.00427942 -0.000122783 -0.000348874
-0.000122783 0.00331858 -1.96042e-05
-0.000348874 -1.96042e-05 -0.000504066
-0.00232974 0.000282709 0.000284436
0.000282709 0.00662707 4.14682e-07
0.000284436 4.14682e-07 0.00216154
2.13052e-05 -0.000635506 -4.8535e-06
-0.000635506 0.00158849 -0.000301693
-4.8535e-06 -0.000301693 -0.00490157
-0.00113002 -5.32811e-05 9.06784e-06
-5.32811e-05 -0.000718058 -9.91381e-06
9.06784e-06 -9.91381e-06 -0.00117945
0.00598772 0.000596817 1.97748e-05
0.000596817 0.00366288 1.82562e-05
1.97748e-05 1.82562e-05 0.0033237
2.90491e-05 0.000167207 -7.06607e-06
0.000167207 -9.09072e-05 -1.13374e-06
-7.06607e-06 -1.13374e-06 -0.000352036
-0.000288898 9.84208e-05 2.15557e-06
9.84208e-05 -0.000309507 -3.23456e-06
2.15557e-06 -3.23456e-06 -0.000601778
-0.000613494 5.927e-05 4.58134e-07
5.927e-05 -0.000612314 -6.53107e-06
4.58134e-07 -6.53107e-06 -0.000769103
0.000869175 0.000197051 1.17797e-05
0.000197051 0.000410667 -4.15123e-06
1.17797e-05 -4.15123e-06 0.00016423
-0.000137968 9.17925e-05 2.44722e-05
9.17925e-05 -0.000227976 -1.81229e-05
2.44722e-05 -1.81229e-05 -0.000343804
0.00690672 0.00227256 0.000181825
0.00227256 0.00106643 0.000218972
0.000181825 0.000218972 -0.00263983
0.00951738 -0.000455497 -0.000207264
-0.000455497 0.00125185 2.74482e-05
-0.000207264 2.74482e-05 -0.00302514
0.0078336 -0.00131152 0.000651139
-0.00131152 0.00661108 -0.000121685
0.000651139 -0.000121685 0.00230027
0.0122763 0.000287829 -6.58847e-05
0.000287829 -0.00271011 0.000247255
-6.58847e-05 0.000247255 -0.00348121
0.00651257 -0.00752694 -0.000121835
-0.00752694 0.000235343 1.69268e-05
-0.000121835 1.69268e-05 0.00103663
2.89154e-05 -0.00835781 -0.000535579
-0.00835781 0.00293667 0.000234968
-0.000535579 0.000234968 -0.00492363
0.0283392 0.0043424 0.000396548
0.0043424 0.0114453 -0.000410915
0.000396548 -0.000410915 0.00304454
0.00419143 -0.00715059 -0.000146739
-0.00715059 0.00194033 9.66154e-05
-0.000146739 9.66154e-05 0.000871125
-0.000575132 -0.00238791 -0.000183906
-0.00238791 0.00647003 8.77769e-05
-0.000183906 8.77769e-05 -0.00302083
0.0157286 0.000155602 0.000536274
0.000155602 0.00626852 -4.69217e-05
0.000536274 -4.69217e-05 -0.00051416
0.0211177 -0.0020007 -4.27218e-05
-0.0020007 0.00416413 5.21139e-06
-4.27218e-05 5.21139e-06 0.00211514
-0.00560985 -0.000992242 -0.000253993
-0.000992242 0.000336603 0.000265635
-0.000253993 0.000265635 -0.000916354
0.0012139 2.32949e-05 -0.000222303
2.32949e-05 0.0067154 -0.000233495
-0.000222303 -0.000233495 -0.00252419
0.01499 -0.00595551 -0.000126883
-0.00595551 0.00567768 -0.000248576
-0.000126883 -0.000248576 -0.00445365
0.025606 -0.00192445 0.000939439
-0.00192445 0.0127708 -0.00084092
0.000939439 -0.00084092 0.00610454
-0.000367644 0.000144426 5.20294e-05
0.000144426 0.000296377 -2.17862e-05
5.20294e-05 -2.17862e-05 -0.00038028
0.000128129 0.00018533 -3.5696e-06
0.00018533 6.81928e-05 -7.33214e-06
-3.5696e-06 -7.33214e-06 -0.000124857
6.92214e-05 -2.12179e-05 1.0087e-06
-2.12179e-05 1.35943e-05 -1.6446e-05
1.0087e-06 -1.6446e-05 -0.000222454
0.000833135 0.000175825 -8.65054e-06
0.000175825 0.000390796 -1.09232e-05
-8.65054e-06 -1.09232e-05 0.000164593
0.000627523 -0.00270909 6.07375e-05
-0.00270909 0.00119352 2.65303e-05
6.07375e-05 2.65303e-05 -0.000280143
0.00112951 -0.000739959 -3.63151e-06
-0.000739959 0.00170604 4.68151e-06
-3.63151e-06 4.68151e-06 0.000657093
3.39485e-05 4.82961e-05 -4.12817e-05
4.82961e-05 0.000175331 -1.92441e-05
-4.12817e-05 -1.92441e-05 -0.000108674
0.00138998 -0.000301601 2.53641e-06
-0.000301601 0.00119507 -7.49328e-05
2.53641e-06 -7.49328e-05 0.000672859
0.000844439 2.3215e-05 -1.42262e-05
2.3215e-05 0.00129828 1.79199e-05
-1.42262e-05 1.79199e-05 0.000626801
0.000380537 0.000187238 -6.16688e-06
0.000187238 0.00061739 1.27679e-05
-6.16688e-06 1.27679e-05 9.03409e-05
0.000837493 -0.000197232 6.03542e-07
-0.000197232 0.00123636 -1.23005e-06
6.03542e-07 -1.23005e-06 0.000513316
-0.000120001 -0.00150516 4.77301e-05
-0.00150516 0.00198061 -1.49704e-05
4.77301e-05 -1.49704e-05 -0.00011667
0.000215602 -0.000136589 -1.93507e-05
-0.000136589 0.00163615 -1.90623e-05
-1.93507e-05 -1.90623e-05 0.000686668
0.000203058 0.000129542 4.40297e-05
0.000129542 0.000465128 -1.938e-05
4.40297e-05 -1.938e-05 -1.76597e-05
-0.00169369 -0.000185798 -0.000307654
-0.000185798 0.00250313 1.07784e-05
-0.000307654 1.07784e-05 -0.000367602
0.00173139 0.000658763 5.22303e-05
0.000658763 0.001993 -2.29733e-06
5.22303e-05 -2.29733e-06 0.00118544
-0.00502991 -0.000508345 -1.4688e-05
-0.000508345 0.00623224 -0.000157874
-1.4688e-05 -0.000157874 0.00211083
0.00331837 9.93021e-05 5.70236e-05
9.93021e-05 0.00245843 3.41124e-05
5.70236e-05 3.41124e-05 -0.00232055
-0.0048734 0.00285508 -0.0001932
0.00285508 0.00578231 -0.000118549
-0.0001932 -0.000118549 0.00050561
0.00131686 0.000811522 -3.28264e-06
0.000811522 0.00168525 -1.30988e-06
-3.28264e-06 -1.30988e-06 0.000847034
-0.00122739 0.00178833 0.000357766
0.00178833 0.00193644 0.000128097
0.000357766 0.000128097 6.29956e-05
0.00100079 -0.000109175 8.76654e-05
-0.000109175 0.00450452 -4.02763e-06
8.76654e-05 -4.02763e-06 0.000982881
0.00556794 -0.00159792 0.000466312
-0.00159792 0.00659133 -0.000244787
0.000466312 -0.000244787 -0.00423406
0.0305167 0.00401254 -0.000529334
0.00401254 0.0122074 0.000397736
-0.000529334 0.000397736 0.00258244
0.00408826 -0.00114361 -0.000644589
-0.00114361 0.00474606 -1.34065e-06
-0.000644589 -1.34065e-06 0.000917899
0.020873 0.00706555 -0.00081088
0.00706555 0.0164056 -0.000420217
-0.00081088 -0.000420217 0.00858863
0.000672372 0.000292299 -7.83508e-05
0.000292299 0.00216954 5.38187e-06
-7.83508e-05 5.38187e-06 0.00024583
-0.00158752 -0.0012351 -0.000237613
-0.0012351 0.00630614 9.75262e-06
-0.000237613 9.75262e-06 0.00282581
0.0012054 -0.0027198 0.000255989
-0.0027198 0.00296111 -6.91775e-05
0.000255989 -6.91775e-05 -0.00354468
-0.00412385 0.000103288 0.000102672
0.000103288 0.00171693 5.41502e-05
0.000102672 5.41502e-05 0.000184432
0.0429804 0.0236673 0.000845484
0.0236673 0.0304946 -0.000240883
0.000845484 -0.000240883 0.0113019
0.0176791 0.00389798 -6.07087e-05
0.00389798 0.0133878 0.000599707
-6.07087e-05 0.000599707 0.00207478
-0.000106222 -0.00228877 0.000442667
-0.00228877 0.00563437 -0.0002756
0.000442667 -0.0002756 -0.00452255
-0.00176318 -0.00118976 -3.70429e-05
-0.00118976 0.00143687 -5.51154e-05
-3.70429e-05 -5.51154e-05 -0.000636599
0.00221595 -0.00169806 0.000484148
-0.00169806 0.000481435 -0.000121392
0.000484148 -0.000121392 -0.00553792
0.00712539 0.00770367 -0.00331676
0.00770367 0.0172138 -2.50083e-06
-0.00331676 -2.50083e-06 0.00419859
0.0297504 0.0115163 -0.000316927
0.0115163 0.0155423 0.000503049
-0.000316927 0.000503049 0.00305967
0.0053602 -0.00735776 -0.000404493
-0.00735776 0.0045636 0.000211794
-0.000404493 0.000211794 -0.000154308
0.00277111 -0.00391774 6.07515e-05
-0.00391774 0.00528141 8.29135e-05
6.07515e-05 8.29135e-05 0.00234097
-0.000275554 -0.000149711 2.10689e-05
-0.000149711 0.000700606 -2.52913e-05
2.10689e-05 -2.52913e-05 -0.000257944
0.00066938 -0.000776086 -1.78101e-05
-0.000776086 0.00117203 3.39898e-06
-1.78101e-05 3.39898e-06 7.7173e-05
8.66613e-05 -0.00166597 2.28079e-05
-0.00166597 0.000510946 1.88427e-05
2.28079e-05 1.88427e-05 -0.0006404
-0.00213236 -0.000203626 7.09469e-06
-0.000203626 -0.000678602 5.26843e-07
7.09469e-06 5.26843e-07 -0.00101924
-0.000373831 -0.000771589 -1.59401e-05
-0.000771589 0.000100387 5.12705e-06
-1.59401e-05 5.12705e-06 -0.000597553
0.00254527 -0.00133639 3.92047e-05
-0.00133639 0.00116391 -8.61609e-06
3.92047e-05 -8.61609e-06 0.000308031
0.00569053 -0.00176167 -1.03953e-05
-0.00176167 0.00277063 6.08161e-06
-1.03953e-05 6.08161e-06 0.00207295
0.00226225 -0.00127252 1.09737e-05
-0.00127252 0.00102472 -3.44283e-06
1.09737e-05 -3.44283e-06 -4.90469e-05
0.00291813 -0.00172491 -1.06502e-06
-0.00172491 0.00100435 -1.88098e-05
-1.06502e-06 -1.88098e-05 -0.000113974
0.00166836 -0.001055 3.0692e-06
-0.001055 0.000555251 -1.13075e-05
3.0692e-06 -1.13075e-05 -0.000239902
0.00267983 -0.00149932 1.84051e-06
-0.00149932 0.00095237 -2.81707e-06
1.84051e-06 -2.81707e-06 -3.52102e-05
0.00403402 -0.00182121 -5.8085e-06
-0.00182121 0.00148312 -1.15146e-05
-5.8085e-06 -1.15146e-05 0.00050595
0.00270915 -0.00115674 -1.07528e-06
-0.00115674 0.00045843 -4.26072e-06
-1.07528e-06 -4.26072e-06 -9.2223e-05
0.00355553 -0.00161524 -6.02741e-06
-0.00161524 0.00120657 -1.86109e-06
-6.02741e-06 -1.86109e-06 0.000376313
0.00323539 -0.00163702 -4.11963e-06
-0.00163702 0.00104535 -9.25968e-07
-4.11963e-06 -9.25968e-07 0.000168164
0.00300653 -0.00153533 1.47995e-05
-0.00153533 0.00119283 -7.44024e-06
1.47995e-05 -7.44024e-06 0.000323776
0.00228402 -0.00143018 4.14355e-06
-0.00143018 0.00074526 -1.64888e-06
4.14355e-06 -1.64888e-06 -9.58756e-05
0.00274996 -0.00139302 1.21748e-05
-0.00139302 0.00105187 -5.92292e-06
1.21748e-05 -5.92292e-06 0.000206857
0.00245623 -0.00112513 1.40111e-05
-0.00112513 0.00112005 3.67911e-06
1.40111e-05 3.67911e-06 0.000357593
0.00247298 -0.00126101 -1.7913e-06
-0.00126101 0.00105352 -2.59935e-06
-1.7913e-06 -2.59935e-06 0.000266488
0.00232424 -0.00130837 -6.0418e-06
-0.00130837 0.000847903 4.4999e-06
-6.0418e-06 4.4999e-06 5.74619e-05
0.00324319 -0.00031357 1.18159e-05
-0.00031357 0.00174515 2.61862e-06
1.18159e-05 2.61862e-06 0.00137233
0.00113604 -0.000420955 -1.0188e-05
-0.000420955 0.000342356 4.33376e-06
-1.0188e-05 4.33376e-06 -7.84563e-05
0.00245042 -0.000987231 -7.52925e-06
-0.000987231 0.00111915 -6.72076e-06
-7.52925e-06 -6.72076e-06 0.000484877
0.000904178 -0.000293321 7.84455e-07
-0.000293321 0.000237449 -3.92218e-06
7.84455e-07 -3.92218e-06 -7.40728e-05
0.000636429 -0.000187017 -3.7512e-06
-0.000187017 0.000162676 2.17833e-07
-3.7512e-06 2.17833e-07 -0.000191993
0.000148441 -0.000181115 7.72316e-06
-0.000181115 -0.000246792 8.48045e-06
7.72316e-06 8.48045e-06 -0.000604328
0.000162029 -0.000123987 -1.88313e-05
-0.000123987 -0.000198408 2.47338e-05
-1.88313e-05 2.47338e-05 -0.000310168
0.000913049 -0.000256436 4.9237e-06
-0.000256436 0.000355444 2.52834e-06
4.9237e-06 2.52834e-06 2.4435e-05
0.00197338 -0.000506601 -5.0428e-06
-0.000506601 0.00114022 -1.31132e-06
-5.0428e-06 -1.31132e-06 0.000714197
0.00121028 -0.000156675 -6.80852e-06
-0.000156675 0.000549013 -1.42748e-05
-6.80852e-06 -1.42748e-05 0.000289387
0.000295269 -7.04975e-05 -3.71817e-07
-7.04975e-05 -9.31854e-05 -7.09978e-07
-3.71817e-07 -7.09978e-07 -0.000180462
0.00427778 0.000142831 -6.81435e-05
0.000142831 0.00257314 9.01204e-06
-6.81435e-05 9.01204e-06 0.00255962
0.000352832 -6.92385e-05 5.81289e-06
-6.92385e-05 -4.81757e-05 -1.5795e-05
5.81289e-06 -1.5795e-05 -0.000113296
0.00363939 0.000104261 1.16434e-05
0.000104261 0.00213783 1.0645e-06
1.16434e-05 1.0645e-06 0.0021348
0.00302006 6.28375e-05 5.53474e-05
6.28375e-05 0.00171218 -7.57397e-06
5.53474e-05 -7.57397e-06 0.00171971
0.00444608 0.000358565 1.60523e-05
0.000358565 0.00289026 -1.10653e-05
1.60523e-05 -1.10653e-05 0.0023635
0.00304532 0.00031617 1.31307e-05
0.00031617 0.00198785 -3.35623e-05
1.31307e-05 -3.35623e-05 0.00153815
0.000801956 0.000121371 5.25588e-06
0.000121371 0.000305543 -1.26141e-05
5.25588e-06 -1.26141e-05 0.000112938
0.000630658 0.000192573 1.72581e-06
0.000192573 0.000276083 1.30737e-06
1.72581e-06 1.30737e-06 -1.03331e-05
0.000451734 -3.03945e-05 8.55455e-06
-3.03945e-05 2.58154e-05 -1.31945e-05
8.55455e-06 -1.31945e-05 -2.75444e-05
0.000687458 0.000126616 -7.49779e-07
0.000126616 0.000234418 -5.77001e-07
-7.49779e-07 -5.77001e-07 6.46401e-05
0.000784196 0.000115765 -5.22058e-06
0.000115765 0.000366993 -1.10287e-05
-5.22058e-06 -1.10287e-05 0.000101858
0.00298407 -4.83356e-05 -4.18319e-05
-4.83356e-05 0.00169877 -8.21371e-06
-4.18319e-05 -8.21371e-06 0.00170536
0.000395703 2.01096e-06 -3.31236e-06
2.01096e-06 -1.5214e-05 -3.46448e-07
-3.31236e-06 -3.46448e-07 -5.85014e-05
0.000635706 0.000117088 -6.27419e-06
0.000117088 0.000198444 5.67079e-06
-6.27419e-06 5.67079e-06 5.83064e-05
0.00275459 -3.52675e-05 -7.32524e-06
-3.52675e-05 0.00154227 4.89885e-07
-7.32524e-06 4.89885e-07 0.00155071
0.000372895 -7.10097e-06 -6.88585e-06
-7.10097e-06 -3.50099e-05 7.73348e-06
-6.88585e-06 7.73348e-06 -6.86656e-05
0.00251978 -1.50309e-05 2.1662e-05
-1.50309e-05 0.00138439 6.66339e-06
2.1662e-05 6.66339e-06 0.00139561
-0.00114733 0.00172412 -0.000111893
0.00172412 0.00491738 -0.000194155
-0.000111893 -0.000194155 -0.000270926
0.00695159 -0.000671905 -6.97418e-05
-0.000671905 0.00497801 -0.000107502
-6.97418e-05 -0.000107502 0.00129335
7.28648e-05 -0.000689914 0.000155335
-0.000689914 0.00675571 -9.92709e-05
0.000155335 -9.92709e-05 0.00277672
0.000607205 0.000114517 2.77916e-06
0.000114517 0.000510904 -1.00856e-05
2.77916e-06 -1.00856e-05 -5.47146e-05
-0.000323267 0.000393789 -3.66273e-06
0.000393789 -0.000267279 -1.16036e-05
-3.66273e-06 -1.16036e-05 -0.000609121
-0.000211476 0.000297593 2.41235e-05
0.000297593 -0.00046484 -2.53418e-05
2.41235e-05 -2.53418e-05 -0.000689534
-0.00200044 2.65851e-05 5.46614e-06
2.65851e-05 -0.00104783 3.15302e-05
5.46614e-06 3.15302e-05 -0.00163102
0.00176674 0.000641628 5.51097e-06
0.000641628 0.000938583 -9.41243e-06
5.51097e-06 -9.41243e-06 0.000513197
-1.66576e-05 0.000110456 -9.86184e-06
0.000110456 -0.000115935 7.60113e-06
-9.86184e-06 7.60113e-06 -0.000435295
-2.53527e-05 0.00011392 -1.88795e-05
0.00011392 -0.000191659 2.84742e-06
-1.88795e-05 2.84742e-06 -0.000353362
0.00114188 2.746e-05 1.10989e-05
2.746e-05 0.000608751 1.66608e-06
1.10989e-05 1.66608e-06 0.000346494
0.00129148 0.000236573 -9.31079e-06
0.000236573 0.000705316 -9.70647e-06
-9.31079e-06 -9.70647e-06 0.000585171
0.00310633 0.000310092 -5.26172e-06
0.000310092 0.00210205 -4.09451e-05
-5.26172e-06 -4.09451e-05 0.00166593
0.0128212 0.00536037 0.00123236
0.00536037 0.00764231 0.000656983
0.00123236 0.000656983 0.00214753
0.00591429 0.00187717 3.0162e-05
0.00187717 0.00289564 6.26371e-05
3.0162e-05 6.26371e-05 -0.00131308
0.0102277 -0.000486389 0.000287009
-0.000486389 0.00101754 7.23639e-06
0.000287009 7.23639e-06 -0.00207847
0.0165627 -0.00033757 -0.000226218
-0.00033757 0.00303814 -0.00012226
-0.000226218 -0.00012226 0.00352658
0.0094601 0.000581286 0.000199298
0.000581286 0.000998236 0.000473628
0.000199298 0.000473628 -0.00615734
0.00395331 -0.00706819 -0.000169324
-0.00706819 0.00245227 7.87898e-05
-0.000169324 7.87898e-05 0.00107964
0.00340373 -0.00247225 -0.00061813
-0.00247225 0.00680241 0.000187657
-0.00061813 0.000187657 -0.000101423
-0.00156901 -0.00253897 -0.000151807
-0.00253897 0.00174521 0.000185419
-0.000151807 0.000185419 -0.000156375
0.0124059 -0.000415053 -0.000480281
-0.000415053 0.00984908 -1.59805e-05
-0.000480281 -1.59805e-05 0.000853104
0.0100308 -0.00421739 0.000151463
-0.00421739 0.0072671 0.000292411
0.000151463 0.000292411 -0.00172373
0.0341889 -0.00690199 0.000481375
-0.00690199 0.0138477 -0.00112138
0.000481375 -0.00112138 0.00329591
-0.00104348 0.000669643 -0.000287753
0.000669643 0.00332801 0.000117323
-0.000287753 0.000117323 0.000407124
0.00345986 0.00203346 -0.00042996
0.00203346 0.00755645 -0.000172912
-0.00042996 -0.000172912 0.000116261
0.0346436 -0.0126047 0.00151975
-0.0126047 0.0213399 -0.00138075
0.00151975 -0.00138075 0.00705298
0.0389688 -0.0203505 0.000188217
-0.0203505 0.0273325 -4.77133e-05
0.000188217 -4.77133e-05 0.0102988
0.00090748 0.000648221 5.94269e-05
0.000648221 0.000864202 1.59948e-05
5.94269e-05 1.59948e-05 0.0001428
-0.000230689 0.000113119 1.73087e-05
0.000113119 0.000413289 2.74867e-06
1.73087e-05 2.74867e-06 -0.000286039
0.00107201 0.000193418 -4.33825e-05
0.000193418 0.000683185 -1.43065e-05
-4.33825e-05 -1.43065e-05 0.000467227
0.00147527 -0.00206063 9.78728e-05
-0.00206063 0.00258331 1.14841e-05
9.78728e-05 1.14841e-05 -2.50356e-05
-0.00192188 -0.000213772 0.000182527
-0.000213772 0.000639371 3.34452e-05
0.000182527 3.34452e-05 -0.00044808
0.000589196 0.000210368 -4.75307e-05
0.000210368 0.000697111 1.33596e-05
-4.75307e-05 1.33596e-05 0.000206512
-0.00070301 -0.000135072 -4.81979e-05
-0.000135072 0.000613205 -3.77344e-06
-4.81979e-05 -3.77344e-06 -0.000298426
0.000263816 0.000293764 -1.50454e-05
0.000293764 0.000551847 3.63424e-06
-1.50454e-05 3.63424e-06 5.12514e-05
-0.000272463 0.000543954 2.9784e-05
0.000543954 0.000729031 6.12887e-06
2.9784e-05 6.12887e-06 -7.49599e-05
-0.00322752 2.94504e-05 0.000197875
2.94504e-05 0.00178726 -0.000118198
0.000197875 -0.000118198 -0.000710891
0.00227851 0.00118536 7.75612e-05
0.00118536 0.0013289 8.1491e-05
7.75612e-05 8.1491e-05 0.000703126
0.000695131 0.00139672 -0.000103648
0.00139672 0.00202572 -0.000145319
-0.000103648 -0.000145319 -0.000286626
-0.000291287 -0.00139242 0.000383647
-0.00139242 0.00127449 0.000145325
0.000383647 0.000145325 -0.00414188
-0.00404352 0.00116378 -0.000296987
0.00116378 0.00617794 -2.45958e-05
-0.000296987 -2.45958e-05 0.000891658
0.00694883 -0.000818001 -0.000235015
-0.000818001 0.00531467 1.85354e-05
-0.000235015 1.85354e-05 0.00267785
0.000151754 0.000969392 0.00010331
0.000969392 0.00153935 1.81513e-05
0.00010331 1.81513e-05 -0.000502196
-0.000635459 0.00055191 -4.31266e-05
0.00055191 0.00347538 0.000118991
-4.31266e-05 0.000118991 0.000672926
-0.00196645 -5.96911e-05 -0.000125951
-5.96911e-05 0.00498551 -0.00011524
-0.000125951 -0.00011524 0.000878713
0.0138809 -0.00763443 0.000623103
-0.00763443 0.010742 -0.000358986
0.000623103 -0.000358986 0.000433404
0.0332248 0.0111916 -0.00116586
0.0111916 0.0205946 -0.000460943
-0.00116586 -0.000460943 0.00641687
0.0086514 -0.00389323 -0.000616964
-0.00389323 0.00457319 0.000364879
-0.000616964 0.000364879 -0.000635548
0.035632 0.0279388 0.0023187
0.0279388 0.0262601 -0.00179256
0.0023187 -0.00179256 0.00677213
-0.00115381 -0.00097728 1.96962e-05
-0.00097728 0.00155058 -2.41049e-07
1.96962e-05 -2.41049e-07 -0.000603233
0.00086089 -0.00120509 0.000143245
-0.00120509 0.0015182 3.44254e-06
0.000143245 3.44254e-06 -0.00476822
0.0130976 0.00825534 -0.0017192
0.00825534 0.0168543 2.97654e-06
-0.0017192 2.97654e-06 0.00338672
1.92316e-06 -0.00251706 4.66948e-05
-0.00251706 0.00289728 4.06477e-05
4.66948e-05 4.06477e-05 0.000736073
0.0336469 0.011483 0.000709018
0.011483 0.0172705 0.000411729
0.000709018 0.000411729 0.00441768
0.00441995 -0.0106578 0.000586843
-0.0106578 0.00360901 -0.000199038
0.000586843 -0.000199038 -0.00230898
-0.000689558 -0.00284366 4.06509e-05
-0.00284366 0.0010975 5.58254e-05
4.06509e-05 5.58254e-05 -0.000995588
0.00322029 -0.00036704 0.000191334
-0.00036704 0.0132671 -0.00017857
0.000191334 -0.00017857 0.00542339
0.0252017 0.0123381 -0.00273203
0.0123381 0.0127478 -4.67762e-05
-0.00273203 -4.67762e-05 0.00187536
0.00151258 -0.0100418 -0.00126593
-0.0100418 -0.0050311 0.000298236
-0.00126593 0.000298236 -0.00449151
-6.90893e-05 -0.00434669 0.000275705
-0.00434669 0.000375701 -0.00022402
0.000275705 -0.00022402 0.000826956
0.00050466 -0.000638582 -9.12002e-05
-0.000638582 0.00102069 3.08976e-05
-9.12002e-05 3.08976e-05 -7.07184e-05
-0.000115483 -0.00129233 -2.73113e-05
-0.00129233 0.000543762 1.88664e-05
-2.73113e-05 1.88664e-05 -0.00054668
-0.000518399 -0.00128209 -8.46435e-06
-0.00128209 -0.000392169 -1.14307e-05
-8.46435e-06 -1.14307e-05 -0.00121326
-0.00315121 -0.000240431 2.16287e-05
-0.000240431 -0.00127002 -3.76867e-06
2.16287e-05 -3.76867e-06 -0.00182177
0.000926129 -0.00112945 6.88564e-06
-0.00112945 0.000295128 -7.2638e-06
6.88564e-06 -7.2638e-06 -0.000465656
0.00407786 -0.0019483 -3.50357e-06
-0.0019483 0.00132335 -1.91792e-06
-3.50357e-06 -1.91792e-06 0.000577116
0.00521311 -0.00178794 -2.73181e-05
-0.00178794 0.00256 4.72355e-06
-2.73181e-05 4.72355e-06 0.00145202
0.0024529 -0.00158967 -2.18249e-06
-0.00158967 0.00074612 -2.01465e-06
-2.18249e-06 -2.01465e-06 -0.000304993
0.00350057 -0.00186211 2.41532e-06
-0.00186211 0.000935051 -1.07257e-05
2.41532e-06 -1.07257e-05 8.53966e-05
0.0026853 -0.00149125 1.2636e-05
-0.00149125 0.000970554 4.3544e-07
1.2636e-05 4.3544e-07 -2.49336e-05
0.00323586 -0.00168135 2.88257e-06
-0.00168135 0.00104859 -5.02656e-06
2.88257e-06 -5.02656e-06 0.000121563
0.00344703 -0.0013385 -1.36906e-06
-0.0013385 0.000814098 -5.90335e-06
-1.36906e-06 -5.90335e-06 0.000259227
0.00234911 -0.000765274 -1.77077e-06
-0.000765274 6.16728e-05 3.00409e-07
-1.77077e-06 3.00409e-07 -0.000157292
0.00237579 -0.00111109 1.83422e-06
-0.00111109 0.000203769 -2.18107e-06
1.83422e-06 -2.18107e-06 -0.000340107
0.00268912 -0.00116225 4.89092e-06
-0.00116225 0.000425084 -1.67965e-06
4.89092e-06 -1.67965e-06 -0.00012337
0.00346442 -0.00144953 -2.24514e-07
-0.00144953 0.00120249 -3.2536e-06
-2.24514e-07 -3.2536e-06 0.000456672
0.0034737 -0.00161468 -4.66479e-06
-0.00161468 0.00116286 -6.48074e-07
-4.66479e-06 -6.48074e-07 0.000324707
0.00341647 -0.00167456 7.34692e-06
-0.00167456 0.00113481 -5.72335e-06
7.34692e-06 -5.72335e-06 0.000243126
0.00273468 -0.0013672 -2.66883e-06
-0.0013672 0.00105365 -1.19299e-05
-2.66883e-06 -1.19299e-05 0.000226621
0.00243286 -0.00144909 2.66169e-06
-0.00144909 0.000857794 -9.94167e-07
2.66169e-06 -9.94167e-07 1.36951e-05
0.00179193 -0.00132529 1.32842e-06
-0.00132529 0.000470117 1.08622e-06
1.32842e-06 1.08622e-06 -0.000328315
0.0041337 -0.000852666 1.59311e-05
-0.000852666 0.00226273 1.42177e-05
1.59311e-05 1.42177e-05 0.00168266
0.000969786 -0.000935921 4.72111e-06
-0.000935921 0.000240183 4.96442e-06
4.72111e-06 4.96442e-06 -0.000483099
0.00222667 -0.00121826 -1.67248e-05
-0.00121826 0.000891101 8.97878e-06
-1.67248e-05 8.97878e-06 0.000121106
0.0014395 -0.000374478 6.62241e-06
-0.000374478 0.000540462 -9.00121e-06
6.62241e-06 -9.00121e-06 0.000264098
0.000547427 -0.000406626 -1.26712e-06
-0.000406626 7.00996e-05 -7.48937e-06
-1.26712e-06 -7.48937e-06 -0.000336048
-0.000107673 -0.000266287 -7.20748e-07
-0.000266287 -0.000342664 -2.01271e-06
-7.20748e-07 -2.01271e-06 -0.000759247
0.00313665 -0.00014728 -0.000120216
-0.00014728 0.00172219 1.7472e-05
-0.000120216 1.7472e-05 0.00161956
0.000354657 -0.000269979 -5.0572e-06
-0.000269979 -8.46038e-05 8.31498e-07
-5.0572e-06 8.31498e-07 -0.000414376
0.000767862 -0.000469861 -5.07767e-06
-0.000469861 0.000231052 9.30282e-07
-5.07767e-06 9.30282e-07 -0.000138255
0.00146547 -8.6219e-06 -0.00011752
-8.6219e-06 0.000689767 1.22991e-05
-0.00011752 1.22991e-05 0.000665177
0.0014991 -0.000104454 -3.30491e-05
-0.000104454 0.000693508 -8.68079e-07
-3.30491e-05 -8.68079e-07 0.000572443
0.00181924 -0.000337612 2.00004e-06
-0.000337612 0.000894659 -4.69058e-06
2.00004e-06 -4.69058e-06 0.000592688
0.000778192 -9.67498e-05 1.49733e-05
-9.67498e-05 0.000213641 -1.80157e-05
1.49733e-05 -1.80157e-05 0.000122334
0.00457892 0.000132381 1.32434e-05
0.000132381 0.00277051 8.84917e-07
1.32434e-05 8.84917e-07 0.0027604
0.00414648 9.69705e-05 8.53279e-05
9.69705e-05 0.00247292 -8.94951e-06
8.53279e-05 -8.94951e-06 0.00247124
-0.00240887 9.96082e-05 8.46788e-06
9.96082e-05 -0.0017545 7.28613e-06
8.46788e-06 7.28613e-06 -0.00210691
0.00234304 0.000466434 4.79338e-06
0.000466434 0.00151587 -2.48719e-05
4.79338e-06 -2.48719e-05 0.00102508
-0.00102271 0.000102704 4.11423e-06
0.000102704 -0.000634866 -5.91366e-08
4.11423e-06 -5.91366e-08 -0.00112068
0.000813699 0.000152991 -4.38345e-07
0.000152991 0.000321703 -1.67592e-05
-4.38345e-07 -1.67592e-05 9.30102e-05
0.000410482 0.000228581 6.79446e-06
0.000228581 0.000215403 -1.08279e-06
6.79446e-06 -1.08279e-06 -0.000184621
0.000222871 3.84668e-05 -7.78272e-06
3.84668e-05 -0.000103603 -1.61993e-05
-7.78272e-06 -1.61993e-05 -0.00017342
0.000504162 0.000110985 -1.35545e-07
0.000110985 0.000121401 1.1101e-06
-1.35545e-07 1.1101e-06 -8.05373e-05
0.000857124 0.000232087 -3.72461e-06
0.000232087 0.000474132 7.40601e-06
-3.72461e-06 7.40601e-06 0.000157452
0.00328152 -6.73442e-05 -5.7335e-05
-6.73442e-05 0.00190377 -9.05929e-06
-5.7335e-05 -9.05929e-06 0.00190707
0.0002978 2.05131e-05 -1.10993e-06
2.05131e-05 -7.10444e-05 -4.59635e-08
-1.10993e-06 -4.59635e-08 -0.000125109
0.000201331 0.000108074 -3.96569e-06
0.000108074 -9.2666e-05 8.73096e-06
-3.96569e-06 8.73096e-06 -0.000252746
0.00283919 -5.41523e-05 -9.73599e-06
-5.41523e-05 0.00160247 6.39656e-07
-9.73599e-06 6.39656e-07 0.00160808
0.000273216 -2.05839e-05 -9.45517e-06
-2.05839e-05 -9.58433e-05 9.82138e-06
-9.45517e-06 9.82138e-06 -0.000137444
0.00263633 -3.37547e-05 2.66027e-05
-3.37547e-05 0.00146383 7.00881e-06
2.66027e-05 7.00881e-06 0.00147296
0.00612559 0.00208576 0.000770419
0.00208576 0.00607772 0.000185938
0.000770419 0.000185938 0.00115146
-0.00122794 0.0016906 -4.80244e-05
0.0016906 0.00418378 -7.53524e-06
-4.80244e-05 -7.53524e-06 -0.00115491
0.000620052 0.00226464 5.43217e-06
0.00226464 0.00506379 -3.38442e-05
5.43217e-06 -3.38442e-05 0.000343938
0.000410624 0.000529568 -2.23137e-05
0.000529568 8.69115e-05 4.77125e-06
-2.23137e-05 4.77125e-06 -0.000401614
-0.00124741 7.7757e-06 -2.19425e-05
7.7757e-06 -0.000795609 3.80433e-05
-2.19425e-05 3.80433e-05 -0.00128576
-0.00176633 7.57173e-05 -2.39075e-05
7.57173e-05 -0.00120258 -1.64194e-05
-2.39075e-05 -1.64194e-05 -0.00145037
0.00213974 0.00016008 1.28142e-05
0.00016008 0.00136757 4.46143e-08
1.28142e-05 4.46143e-08 0.00097172
0.000755634 0.000387412 4.15004e-06
0.000387412 8.75982e-05 -7.54647e-06
4.15004e-06 -7.54647e-06 -0.000155759
0.00103287 0.000567942 -2.67826e-05
0.000567942 0.000474517 -1.16493e-05
-2.67826e-05 -1.16493e-05 0.000201399
0.00177345 0.000578282 1.35404e-05
0.000578282 0.000810186 -3.86408e-05
1.35404e-05 -3.86408e-05 0.000368687
-0.00230559 0.000157041 -2.46161e-05
0.000157041 -0.00104779 9.55654e-06
-2.46161e-05 9.55654e-06 -0.00152693
-0.000344316 6.91484e-05 -6.86877e-06
6.91484e-05 -0.000262501 -4.60483e-06
-6.86877e-06 -4.60483e-06 -0.000561094
-0.00139461 3.66392e-05 -1.5096e-05
3.66392e-05 -0.0011363 1.93946e-05
-1.5096e-05 1.93946e-05 -0.00116275
-0.000599214 7.19767e-05 -9.37274e-06
7.19767e-05 -0.000126702 4.20308e-06
-9.37274e-06 4.20308e-06 -0.000592445
-0.000394639 0.000441105 -2.15473e-07
0.000441105 0.000143853 2.17977e-05
-2.15473e-07 2.17977e-05 -0.000655964
0.0177061 -0.0134355 -0.00036731
-0.0134355 0.018248 0.000261939
-0.00036731 0.000261939 0.00141884
0.0120886 0.005593 0.000345463
0.005593 0.0051231 0.000212461
0.000345463 0.000212461 -0.00141899
0.00589679 0.0011479 0.000258929
0.0011479 0.00419593 -5.09719e-05
0.000258929 -5.09719e-05 -0.000517875
0.0461385 -0.0121392 -0.00185842
-0.0121392 0.0182885 -0.000497914
-0.00185842 -0.000497914 0.0056037
0.00903867 -0.000833529 0.000370745
-0.000833529 0.00702832 0.000652047
0.000370745 0.000652047 0.000467041
0.00183646 -0.000227435 -0.000288984
-0.000227435 0.00663506 0.000202011
-0.000288984 0.000202011 -0.00266715
-0.000787494 -0.00290965 -3.23141e-05
-0.00290965 0.00270781 0.000134715
-3.23141e-05 0.000134715 -3.61034e-05
-0.00132463 -0.000575849 0.000235649
-0.000575849 0.00290751 5.31781e-05
0.000235649 5.31781e-05 0.000702939
0.0400429 -0.0235681 0.000343351
-0.0235681 0.027531 0.000545111
0.000343351 0.000545111 0.00905054
0.00302303 0.00293383 -0.000251876
0.00293383 0.00688261 -0.000156131
-0.000251876 -0.000156131 -0.00206856
0.0168888 -0.00700349 -0.000105787
-0.00700349 0.0144991 0.000220433
-0.000105787 0.000220433 0.000990193
-0.000347325 0.00182042 2.14549e-05
0.00182042 0.00247778 -2.62143e-05
2.14549e-05 -2.62143e-05 0.000483422
0.00481651 0.00798727 -0.000314015
0.00798727 0.00357674 1.43721e-05
-0.000314015 1.43721e-05 -0.0011799
0.0302675 -0.0108254 -0.00114804
-0.0108254 0.0157617 -9.84347e-05
-0.00114804 -9.84347e-05 0.00297211
0.00221095 0.00124485 1.44321e-05
0.00124485 0.00102601 5.33093e-05
1.44321e-05 5.33093e-05 0.000623656
0.000249149 0.000545362 6.31568e-06
0.000545362 0.000548016 2.25712e-06
6.31568e-06 2.25712e-06 -0.000235042
-0.000563516 5.5705e-05 -7.47835e-05
5.5705e-05 0.000253564 1.79912e-05
-7.47835e-05 1.79912e-05 -0.000477433
-0.00187141 -0.000370959 -0.000194201
-0.000370959 0.00244523 -3.42804e-05
-0.000194201 -3.42804e-05 0.000103623
0.000858059 0.000568872 -8.18212e-05
0.000568872 0.000875482 -3.40071e-06
-8.18212e-05 -3.40071e-06 0.000211903
-8.10147e-05 0.000303876 -2.56538e-05
0.000303876 0.000343362 2.47927e-06
-2.56538e-05 2.47927e-06 -0.000192251
0.00137733 0.00105064 -5.25989e-06
0.00105064 0.000784056 -6.56376e-07
-5.25989e-06 -6.56376e-07 0.000174119
0.000182973 0.00150373 -8.47406e-05
0.00150373 0.00172744 -8.79008e-05
-8.47406e-05 -8.79008e-05 -0.000381744
0.00336328 0.00339781 0.000146677
0.00339781 0.0017722 5.40263e-05
0.000146677 5.40263e-05 -3.35058e-05
-0.00690794 0.00151755 0.000776108
0.00151755 0.00670501 -7.17625e-05
0.000776108 -7.17625e-05 -0.00294376
0.00100028 -0.00142664 -7.19045e-05
-0.00142664 0.00262852 9.90768e-05
-7.19045e-05 9.90768e-05 -0.00146345
-0.00232807 0.000490956 -8.72563e-05
0.000490956 0.00512154 0.000144401
-8.72563e-05 0.000144401 -2.25868e-05
-0.00200247 -0.000625585 -6.71976e-05
-0.000625585 0.00107878 1.87364e-06
-6.71976e-05 1.87364e-06 -0.00106863
-0.00139649 -0.00164356 -9.49322e-06
-0.00164356 0.00168084 4.3625e-06
-9.49322e-06 4.3625e-06 0.000714392
-0.0036829 -0.00237013 -0.000284839
-0.00237013 0.00117553 0.000204094
-0.000284839 0.000204094 -0.00511644
-0.000998274 -0.00830818 0.000485274
-0.00830818 0.00392728 -0.000307658
0.000485274 -0.000307658 -0.00475388
0.024272 0.00939053 0.00117038
0.00939053 0.0118012 -0.000211252
0.00117038 -0.000211252 -6.03616e-05
0.0284039 0.0150843 -0.000252691
0.0150843 0.0201792 0.000743958
-0.000252691 0.000743958 0.0030413
0.000178913 -0.00203164 -5.00973e-05
-0.00203164 0.00202166 1.66142e-05
-5.00973e-05 1.66142e-05 0.000125304
0.00842366 0.00455228 0.000595982
0.00455228 0.0161258 -6.74091e-05
0.000595982 -6.74091e-05 0.00515653
0.0111729 0.00823371 8.31246e-05
0.00823371 0.00566981 0.000129313
8.31246e-05 0.000129313 -0.00257025
0.00273235 -0.00672377 8.60433e-05
-0.00672377 0.0013254 -5.56288e-05
8.60433e-05 -5.56288e-05 0.00046215
0.0116848 -0.0105486 3.97621e-06
-0.0105486 -0.00144503 2.27996e-05
3.97621e-06 2.27996e-05 -0.00155504
0.00245489 -0.00339031 4.45882e-05
-0.00339031 0.00115423 8.21777e-07
4.45882e-05 8.21777e-07 0.000286264
0.000807625 0.00577841 -0.00200259
0.00577841 0.00405461 7.75395e-05
-0.00200259 7.75395e-05 -0.00566929
0.0144416 -0.00681248 -0.000601263
-0.00681248 -0.00407447 9.33877e-05
-0.000601263 9.33877e-05 -0.00221397
0.00507234 -0.00683756 0.000123302
-0.00683756 -0.00107672 -0.000100326
0.000123302 -0.000100326 0.000771375
-2.22835e-05 -0.000936431 -1.43767e-05
-0.000936431 0.0007124 -1.23364e-05
-1.43767e-05 -1.23364e-05 -0.000345303
0.00251628 -0.00200748 3.98623e-05
-0.00200748 0.00101833 -1.89356e-05
3.98623e-05 -1.89356e-05 0.000124936
0.00304019 -0.00176633 3.69222e-06
-0.00176633 0.000688562 -1.58259e-05
3.69222e-06 -1.58259e-05 6.43703e-05
-0.000126774 -0.00103446 -2.49181e-06
-0.00103446 -0.000287049 1.31724e-06
-2.49181e-06 1.31724e-06 -0.000977463
0.00240115 -0.00174587 -7.6881e-06
-0.00174587 0.000452081 1.52995e-06
-7.6881e-06 1.52995e-06 -0.000241835
0.00423884 -0.00189832 -2.09355e-06
-0.00189832 0.00114682 -2.44986e-06
-2.09355e-06 -2.44986e-06 0.000513387
0.00214769 -0.00150119 6.87357e-06
-0.00150119 0.000563544 7.7935e-06
6.87357e-06 7.7935e-06 -0.000430215
0.00317255 -0.00181348 -1.08652e-06
-0.00181348 0.000754932 3.68347e-06
-1.08652e-06 3.68347e-06 -8.57246e-05
0.00305701 -0.00138524 -9.88586e-07
-0.00138524 0.000389915 -8.9021e-07
-9.88586e-07 -8.9021e-07 -2.76086e-05
0.00219429 -0.00150589 7.71286e-06
-0.00150589 0.000477639 2.03422e-06
7.71286e-06 2.03422e-06 -0.000392435
0.00280453 -0.00123723 -3.13657e-06
-0.00123723 0.000451245 4.25767e-06
-3.13657e-06 4.25767e-06 -7.16083e-05
0.00257755 -0.000857228 8.07657e-08
-0.000857228 7.12464e-05 -3.50111e-07
8.07657e-08 -3.50111e-07 -9.22705e-05
0.00258346 -0.000834399 -3.24953e-06
-0.000834399 0.000203016 1.13624e-06
-3.24953e-06 1.13624e-06 4.57794e-05
0.00221323 -0.000757468 -4.05055e-06
-0.000757468 3.64491e-05 4.70305e-07
-4.05055e-06 4.70305e-07 -0.000225714
0.00229937 -0.000755699 8.67157e-07
-0.000755699 1.5311e-05 2.66486e-06
8.67157e-07 2.66486e-06 -0.000201334
0.00222231 -0.000963183 -3.65595e-06
-0.000963183 0.00017269 -3.70032e-06
-3.65595e-06 -3.70032e-06 -0.000300298
0.00252095 -0.00111296 4.23914e-06
-0.00111296 0.000323273 5.90105e-07
4.23914e-06 5.90105e-07 -0.000214516
0.00271288 -0.0011693 3.12507e-06
-0.0011693 0.000422031 3.54854e-06
3.12507e-06 3.54854e-06 -0.000123861
0.00265143 -0.00126081 -6.16506e-06
-0.00126081 0.000704457 -6.73266e-06
-6.16506e-06 -6.73266e-06 1.30847e-05
0.00303548 -0.00140447 1.95601e-06
-0.00140447 0.000929409 -1.24597e-06
1.95601e-06 -1.24597e-06 0.000189991
0.00342236 -0.00161399 -2.46612e-06
-0.00161399 0.0011406 -1.10456e-06
-2.46612e-06 -1.10456e-06 0.000295194
0.00144438 -0.000898755 -4.55758e-06
-0.000898755 0.000212672 -6.51391e-06
-4.55758e-06 -6.51391e-06 -0.000437652
0.00265352 -0.00135427 2.15136e-06
-0.00135427 0.000992286 -9.19895e-07
2.15136e-06 -9.19895e-07 0.000169664
0.00191546 -0.00137019 -3.19811e-06
-0.00137019 0.000554694 4.50253e-06
-3.19811e-06 4.50253e-06 -0.000266683
0.000908551 -0.000489624 -1.26183e-05
-0.000489624 8.90055e-05 -6.79889e-06
-1.26183e-05 -6.79889e-06 -0.000188529
0.00131357 -0.000817607 3.3986e-06
-0.000817607 0.000472201 4.07228e-06
3.3986e-06 4.07228e-06 -0.00010431
0.000156948 -0.000821237 -2.86766e-06
-0.000821237 -0.000218858 9.48159e-06
-2.86766e-06 9.48159e-06 -0.000907695
0.000194578 -0.000218495 -3.21492e-05
-0.000218495 -0.000272403 1.68346e-05
-3.21492e-05 1.68346e-05 -0.000399707
0.000887703 -0.00048195 3.25702e-06
-0.00048195 0.000263266 3.61586e-07
3.25702e-06 3.61586e-07 -7.49478e-05
-0.00221488 -0.000462492 -8.89597e-06
-0.000462492 -0.00165624 -1.11706e-05
-8.89597e-06 -1.11706e-05 -0.00208202
0.00693332 0.000412071 3.62163e-05
0.000412071 0.00441877 1.35799e-05
3.62163e-05 1.35799e-05 0.00432303
0.00061919 -0.000204221 6.79205e-06
-0.000204221 3.52779e-05 1.72502e-06
6.79205e-06 1.72502e-06 -9.72554e-05
0.000285094 -0.000219147 -7.15305e-06
-0.000219147 -0.000153963 4.73226e-06
-7.15305e-06 4.73226e-06 -0.000476057
0.00493628 0.00016488 2.61246e-05
0.00016488 0.00302291 1.48234e-06
2.61246e-05 1.48234e-06 0.00300346
0.00065559 -0.000133251 1.31284e-05
-0.000133251 0.000129136 -1.86668e-05
1.31284e-05 -1.86668e-05 -8.58165e-06
0.00444343 0.000122558 9.36575e-05
0.000122558 0.00267576 -1.1845e-05
9.36575e-05 -1.1845e-05 0.00266801
0.00270317 0.000597482 3.30943e-07
0.000597482 0.00136492 1.3934e-05
3.30943e-07 1.3934e-05 0.000951398
0.000625113 0.000300756 4.40004e-06
0.000300756 0.000117345 6.53065e-07
4.40004e-06 6.53065e-07 -0.000225213
0.000392312 0.000827525 -1.61784e-06
0.000827525 0.000122441 1.44117e-06
-1.61784e-06 1.44117e-06 -0.000323963
0.0017103 0.000377018 -2.66757e-06
0.000377018 0.000863289 -1.53128e-05
-2.66757e-06 -1.53128e-05 0.000607192
0.00120794 0.000246717 -2.12752e-07
0.000246717 0.000801576 1.41638e-06
-2.12752e-07 1.41638e-06 0.000290917
-0.00082975 0.000195738 -4.30871e-06
0.000195738 -0.000433828 1.01574e-05
-4.30871e-06 1.01574e-05 -0.00095267
0.000556314 3.29147e-05 -5.67385e-06
3.29147e-05 0.000118908 -1.78025e-05
-5.67385e-06 -1.78025e-05 2.97682e-05
0.000618446 0.000158867 1.13001e-07
0.000158867 0.000194562 1.17244e-06
1.13001e-07 1.17244e-06 -3.25824e-05
-0.000537608 7.03084e-05 -1.20465e-05
7.03084e-05 -0.000493139 3.29453e-05
-1.20465e-05 3.29453e-05 -0.000825192
0.0039924 -9.92163e-05 -7.20342e-05
-9.92163e-05 0.00238711 -9.86445e-06
-7.20342e-05 -9.86445e-06 0.0023848
0.000371388 -2.79134e-05 9.11413e-07
-2.79134e-05 -6.31503e-06 -2.01988e-07
9.11413e-07 -2.01988e-07 -7.51517e-05
0.000551181 9.93521e-05 -4.82926e-06
9.93521e-05 0.000166824 1.15861e-05
-4.82926e-06 1.15861e-05 -4.54169e-05
0.00332154 -7.96979e-05 -1.21762e-05
-7.96979e-05 0.00193233 1.04765e-06
-1.21762e-05 1.04765e-06 0.00193254
0.000446282 4.0896e-05 6.79278e-07
4.0896e-05 2.55232e-05 1.25017e-05
6.79278e-07 1.25017e-05 -2.74828e-05
0.00290497 -5.84075e-05 2.76201e-05
-5.84075e-05 0.00164652 7.60206e-06
2.76201e-05 7.60206e-06 0.00165111
-0.00116287 -0.00158932 -0.000720976
-0.00158932 0.00803331 0.000148381
-0.000720976 0.000148381 -0.00247158
0.00673413 0.00196119 0.000134578
0.00196119 0.0050715 8.11197e-06
0.000134578 8.11197e-06 0.000596876
-0.000136142 0.00200468 0.000387286
0.00200468 0.00409223 0.000153976
0.000387286 0.000153976 -0.00115599
0.000599973 0.000429524 -7.56341e-06
0.000429524 0.000264629 4.41691e-06
-7.56341e-06 4.41691e-06 -0.000288754
0.00401331 0.00129748 2.46503e-06
0.00129748 0.00221116 3.20403e-05
2.46503e-06 3.20403e-05 0.00143026
0.000117317 0.000372542 -2.6641e-05
0.000372542 0.000301841 1.50823e-06
-2.6641e-05 1.50823e-06 -0.000479065
0.000379454 0.000266336 -9.4373e-06
0.000266336 0.000316762 -1.72483e-05
-9.4373e-06 -1.72483e-05 -0.000124518
0.00310697 0.000622592 -3.47354e-06
0.000622592 0.0015329 -1.69585e-06
-3.47354e-06 -1.69585e-06 0.00123754
-0.00369871 8.62549e-05 1.147e-05
8.62549e-05 -0.00256139 3.35839e-05
1.147e-05 3.35839e-05 -0.00260092
-0.000943405 0.000324659 -1.05522e-06
0.000324659 -0.000414663 6.94683e-06
-1.05522e-06 6.94683e-06 -0.000868793
0.000807678 0.000425993 -1.22381e-05
0.000425993 0.000397456 4.95818e-07
-1.22381e-05 4.95818e-07 -8.56942e-05
0.00103347 0.00111141 -3.89324e-05
0.00111141 0.000660509 -8.77235e-06
-3.89324e-05 -8.77235e-06 -0.000119981
-0.000874042 0.000917062 -5.68965e-05
0.000917062 -0.000768577 8.51914e-05
-5.68965e-05 8.51914e-05 -0.00118882
-0.000574462 0.000154246 -1.31424e-05
0.000154246 -0.000193798 2.62427e-05
-1.31424e-05 2.62427e-05 -0.000628221
0.00216929 0.000900346 2.97638e-05
0.000900346 0.00154267 5.84187e-07
2.97638e-05 5.84187e-07 0.000830242
0.00953328 -0.00807134 -0.00403477
-0.00807134 0.00671641 0.000383763
-0.00403477 0.000383763 -0.0037811
0.00962091 -0.0103527 0.00129254
-0.0103527 0.0180905 -0.000108807
0.00129254 -0.000108807 0.0038675
0.0118355 0.00605809 -0.00150771
0.00605809 0.00406076 -0.000421596
-0.00150771 -0.000421596 -0.00342742
0.037595 -0.0276203 0.00226649
-0.0276203 0.0273326 0.00175516
0.00226649 0.00175516 0.00775808
0.0340154 -0.00719811 -0.000378049
-0.00719811 0.0169482 0.000699672
-0.000378049 0.000699672 0.00574205
0.000610788 0.00268546 -0.000235552
0.00268546 0.00580456 -0.000279882
-0.000235552 -0.000279882 -0.00191947
0.000144114 -0.000390272 -0.00020511
-0.000390272 0.00479634 7.7283e-05
-0.00020511 7.7283e-05 0.00189017
-1.39044e-05 0.00185579 4.9443e-05
0.00185579 0.00297583 4.94512e-05
4.9443e-05 4.94512e-05 0.00101698
0.0348285 -0.0103386 -0.00115923
-0.0103386 0.0175014 0.000391579
-0.00115923 0.000391579 0.00464265
-0.00108745 0.00820379 -0.00044915
0.00820379 0.00171505 -5.45104e-05
-0.00044915 -5.45104e-05 -0.00382701
0.00146227 0.00510292 1.17809e-05
0.00510292 0.000929968 -0.000147678
1.17809e-05 -0.000147678 0.000663039
0.00728004 0.0136257 -0.00131156
0.0136257 -0.00416052 -0.000164818
-0.00131156 -0.000164818 -0.00398825
0.00400421 0.00211755 3.7882e-05
0.00211755 0.00175433 2.9048e-05
3.7882e-05 2.9048e-05 0.00103974
0.00175515 0.00112925 -1.44369e-05
0.00112925 0.000735297 -5.51932e-06
-1.44369e-05 -5.51932e-06 0.000422328
-0.000280762 0.000414907 -6.47586e-05
0.000414907 0.000199152 -1.42294e-05
-6.47586e-05 -1.42294e-05 -0.000528467
-0.000296483 0.00155301 -0.000180205
0.00155301 0.00163171 -9.98436e-05
-0.000180205 -9.98436e-05 -0.000275013
0.00123132 0.00112518 -8.84161e-05
0.00112518 0.00072177 -8.22123e-05
-8.84161e-05 -8.22123e-05 0.000144773
0.00282681 0.00336506 1.13774e-06
0.00336506 0.00126713 -1.81998e-05
1.13774e-06 -1.81998e-05 -0.000399619
-0.000168328 0.00364631 0.000199055
0.00364631 -0.0016831 0.000131153
0.000199055 0.000131153 -0.00228925
-0.0075804 -0.000740708 -0.00173538
-0.000740708 0.00198051 2.91621e-05
-0.00173538 2.91621e-05 -0.00647656
-0.00983973 0.000853434 0.00117685
0.000853434 0.00719124 -4.23552e-05
0.00117685 -4.23552e-05 -0.00037436
0.000834345 0.000799258 -0.000293623
0.000799258 0.00283058 5.14995e-05
-0.000293623 5.14995e-05 -0.000353791
0.000961076 -0.00237321 -0.000117879
-0.00237321 0.00181324 -7.84819e-05
-0.000117879 -7.84819e-05 -0.000119619
0.00136473 -0.00584993 0.000174922
-0.00584993 0.00103686 6.30559e-05
0.000174922 6.30559e-05 6.45689e-05
0.00486977 0.00464473 0.00108329
0.00464473 0.0150277 0.000296006
0.00108329 0.000296006 0.00419579
0.0058802 -0.0107341 0.00139481
-0.0107341 -0.00515622 -0.000228616
0.00139481 -0.000228616 -0.00340592
0.0231421 0.00899377 0.00267064
0.00899377 0.0160937 0.000317091
0.00267064 0.000317091 0.0059769
0.00378308 -0.00442231 -1.88496e-05
-0.00442231 0.00151619 -8.52116e-06
-1.88496e-05 -8.52116e-06 0.000132644
0.00840907 0.00677099 0.000595664
0.00677099 0.00657277 -0.00019027
0.000595664 -0.00019027 -0.00285794
0.00883358 -0.00711138 -0.000433429
-0.00711138 -0.00813936 0.000232131
-0.000433429 0.000232131 -0.00565239
0.00307568 -0.00590874 -7.91348e-05
-0.00590874 -0.0016767 8.22592e-05
-7.91348e-05 8.22592e-05 0.000554948
0.00383977 -0.0033915 6.46764e-05
-0.0033915 0.00011779 -3.52066e-05
6.46764e-05 -3.52066e-05 0.000254906
0.0178949 -0.00175461 -0.000125014
-0.00175461 -0.00109109 0.000164607
-0.000125014 0.000164607 0.000502765
0.00355372 -0.00421583 0.000146267
-0.00421583 -0.0052302 -0.000199254
0.000146267 -0.000199254 -0.00100908
0.00367914 -0.00242023 -9.5114e-05
-0.00242023 0.00157722 5.26179e-05
-9.5114e-05 5.26179e-05 0.000673666
0.000488036 -0.00142161 -1.80653e-05
-0.00142161 -0.000687635 2.93392e-06
-1.80653e-05 2.93392e-06 -0.00107892
0.00636432 -0.00194568 5.7981e-05
-0.00194568 0.002124 -2.74019e-05
5.7981e-05 -2.74019e-05 0.00172246
0.00024836 -0.00144185 -5.7204e-06
-0.00144185 -0.000657678 4.57939e-07
-5.7204e-06 4.57939e-07 -0.00128741
0.0030866 -0.00172944 2.20732e-06
-0.00172944 0.00056229 -8.95991e-07
2.20732e-06 -8.95991e-07 -8.62427e-06
0.00344737 -0.00137643 -2.03769e-07
-0.00137643 0.000434539 -1.41651e-06
-2.03769e-07 -1.41651e-06 0.000265496
0.00297765 -0.00178097 9.96819e-06
-0.00178097 0.000648866 1.10117e-05
9.96819e-06 1.10117e-05 -0.000185165
0.00303178 -0.0013667 -3.8872e-06
-0.0013667 0.000374127 2.6878e-06
-3.8872e-06 2.6878e-06 -2.519e-05
0.00273439 -0.000926669 -2.45718e-07
-0.000926669 -1.54544e-05 6.0911e-07
-2.45718e-07 6.0911e-07 -1.73891e-05
0.00215668 -0.00113646 8.68828e-06
-0.00113646 8.58124e-05 7.17975e-06
8.68828e-06 7.17975e-06 -0.000405671
0.00251682 -0.000844859 -4.33486e-08
-0.000844859 2.91697e-05 2.59203e-06
-4.33486e-08 2.59203e-06 -0.000123411
0.00266859 -0.000893833 -2.20478e-06
-0.000893833 8.46906e-05 9.00128e-07
-2.20478e-06 9.00128e-07 4.54169e-06
0.00259312 -0.000859749 -4.32351e-06
-0.000859749 0.00012976 3.06624e-07
-4.32351e-06 3.06624e-07 -8.64049e-06
0.00252637 -0.000833103 -3.6888e-06
-0.000833103 0.000155378 1.82688e-06
-3.6888e-06 1.82688e-06 6.17819e-06
0.00253115 -0.000796688 -8.62802e-07
-0.000796688 0.00025926 -8.97187e-07
-8.62802e-07 -8.97187e-07 5.93158e-05
0.00248946 -0.000801633 -6.05594e-06
-0.000801633 0.000281218 -1.03109e-06
-6.05594e-06 -1.03109e-06 -2.20219e-05
0.00245415 -0.000767429 1.48721e-06
-0.000767429 0.000211151 1.28629e-06
1.48721e-06 1.28629e-06 -5.62163e-05
0.00225934 -0.000750362 2.98069e-06
-0.000750362 -3.04973e-05 5.56042e-06
2.98069e-06 5.56042e-06 -0.000246094
0.00237988 -0.000960011 -5.58995e-06
-0.000960011 0.000318877 -7.16616e-06
-5.58995e-06 -7.16616e-06 -0.000154104
0.00219478 -0.000978778 -4.70309e-07
-0.000978778 0.000135769 -1.09028e-07
-4.70309e-07 -1.09028e-07 -0.000344022
0.00264887 -0.00111681 6.99532e-06
-0.00111681 0.000425942 4.04838e-06
6.99532e-06 4.04838e-06 -0.000106951
0.00189794 -0.00107279 -6.68352e-06
-0.00107279 0.000244365 -5.86128e-06
-6.68352e-06 -5.86128e-06 -0.00039596
0.00283018 -0.00129154 -1.68899e-06
-0.00129154 0.000787821 8.7342e-07
-1.68899e-06 8.7342e-07 8.7543e-05
0.00269984 -0.00137404 2.86903e-06
-0.00137404 0.000711983 2.64524e-06
2.86903e-06 2.64524e-06 -2.5263e-05
0.000684591 -0.000386589 -7.70487e-06
-0.000386589 -0.000183524 7.96921e-06
-7.70487e-06 7.96921e-06 -0.000539519
0.0020272 -0.000975986 -2.47838e-06
-0.000975986 0.00059544 2.98903e-06
-2.47838e-06 2.98903e-06 -6.76428e-05
0.00266314 -0.00135542 6.96811e-06
-0.00135542 0.000985574 9.24284e-06
6.96811e-06 9.24284e-06 0.000163024
5.22042e-05 -0.000221211 -1.82872e-05
-0.000221211 -0.000333766 2.67029e-05
-1.82872e-05 2.67029e-05 -0.000526586
0.0013889 -0.000512981 -1.18015e-05
-0.000512981 0.000446378 -6.17735e-07
-1.18015e-05 -6.17735e-07 0.000124905
-0.00103034 -0.000795222 -3.08174e-06
-0.000795222 -0.00100307 -1.60428e-06
-3.08174e-06 -1.60428e-06 -0.00159734
0.00721487 0.000186354 -0.000212724
0.000186354 0.00452336 1.81883e-05
-0.000212724 1.81883e-05 0.00450234
0.000626593 -0.000225673 -7.00607e-06
-0.000225673 1.71379e-05 -1.58227e-06
-7.00607e-06 -1.58227e-06 -0.000125841
0.000167032 -0.000500157 1.77652e-05
-0.000500157 -0.000114447 8.06205e-08
1.77652e-05 8.06205e-08 -0.000504665
0.00412396 0.000146899 0.000106008
0.000146899 0.00249141 -3.48433e-06
0.000106008 -3.48433e-06 0.00244017
0.00039696 -0.000214163 3.09581e-05
-0.000214163 -0.00010304 -1.66979e-05
3.09581e-05 -1.66979e-05 -0.000243653
0.00615119 0.000113263 0.000200153
0.000113263 0.00381616 -1.70987e-05
0.000200153 -1.70987e-05 0.00381047
0.00107183 0.000666508 -2.31027e-05
0.000666508 0.000211926 1.80319e-05
-2.31027e-05 1.80319e-05 -0.000352819
0.000862275 0.000412556 -9.17275e-06
0.000412556 0.000260812 1.84354e-06
-9.17275e-06 1.84354e-06 -0.000151378
-0.000307715 0.000228291 1.58904e-05
0.000228291 -0.000517466 1.40385e-05
1.58904e-05 1.40385e-05 -0.000846447
0.00214743 0.000448419 1.92959e-06
0.000448419 0.0010947 -6.0044e-06
1.92959e-06 -6.0044e-06 0.000731715
0.00161691 0.000295644 2.05864e-06
0.000295644 0.000895494 -6.34254e-07
2.05864e-06 -6.34254e-07 0.000483265
0.00159058 0.000250674 3.65857e-06
0.000250674 0.000853979 -1.58721e-05
3.65857e-06 -1.58721e-05 0.000507495
0.000956027 0.000152514 -2.10877e-05
0.000152514 0.00035067 -2.37698e-05
-2.10877e-05 -2.37698e-05 0.000243042
0.000828038 0.000221269 -2.10793e-06
0.000221269 0.000364552 9.35075e-07
-2.10793e-06 9.35075e-07 7.53304e-05
-0.00170899 1.90166e-05 -1.9672e-05
1.90166e-05 -0.00111813 2.91826e-05
-1.9672e-05 2.91826e-05 -0.00160445
0.00366798 -9.20568e-05 -9.37344e-05
-9.20568e-05 0.00217542 -1.37449e-05
-9.37344e-05 -1.37449e-05 0.0021758
0.000319028 8.35074e-05 1.38623e-06
8.35074e-05 -3.39104e-05 -6.43719e-07
1.38623e-06 -6.43719e-07 -0.000118368
0.000739164 0.0001959 -3.32581e-06
0.0001959 0.000285427 1.49037e-05
-3.32581e-06 1.49037e-05 5.40616e-05
0.00342638 -9.28871e-05 -1.07891e-05
-9.28871e-05 0.0020116 9.32945e-07
-1.07891e-05 9.32945e-07 0.00200914
0.000225793 -4.01684e-06 2.08912e-06
-4.01684e-06 -9.79991e-05 1.47998e-05
2.08912e-06 1.47998e-05 -0.000165761
0.00306528 -8.04992e-05 3.52051e-05
-8.04992e-05 0.00176138 8.5938e-06
3.52051e-05 8.5938e-06 0.00176122
0.00285252 -0.00339242 -0.00276404
-0.00339242 0.00499417 0.000121571
-0.00276404 0.000121571 0.000625467
0.000151617 -0.00302657 -0.000229595
-0.00302657 0.00999554 -8.7714e-05
-0.000229595 -8.7714e-05 -0.00124848
0.00722053 0.00152833 -0.000766895
0.00152833 0.00449651 -0.000200475
-0.000766895 -0.000200475 0.000289843
0.000332848 0.000264974 2.13972e-06
0.000264974 8.4375e-05 1.08797e-05
2.13972e-06 1.08797e-05 -0.000437924
0.00109437 0.000361889 1.57121e-05
0.000361889 0.000799017 9.83308e-07
1.57121e-05 9.83308e-07 7.32905e-05
0.0019838 0.00102349 -4.05457e-06
0.00102349 0.000937074 -2.10226e-06
-4.05457e-06 -2.10226e-06 0.000187962
0.00236792 0.00136237 9.8241e-06
0.00136237 0.000927164 2.18656e-05
9.8241e-06 2.18656e-05 0.000139351
0.00170072 0.00116829 -3.54539e-05
0.00116829 0.00105724 1.97548e-05
-3.54539e-05 1.97548e-05 0.000153113
0.00418649 0.000694508 7.18191e-06
0.000694508 0.00263672 6.10066e-06
7.18191e-06 6.10066e-06 0.00226038
0.00211269 0.000582708 2.88985e-05
0.000582708 0.00132038 2.04043e-05
2.88985e-05 2.04043e-05 0.000788476
0.00258775 0.00114176 -5.33629e-06
0.00114176 0.00154048 1.8564e-07
-5.33629e-06 1.8564e-07 0.000793572
0.002513 0.00159408 -2.59651e-05
0.00159408 0.000969705 4.1759e-06
-2.59651e-05 4.1759e-06 0.000214606
0.00214507 0.00148567 -2.3716e-05
0.00148567 0.000676829 6.06807e-05
-2.3716e-05 6.06807e-05 0.000236196
0.0019467 0.00201032 4.57862e-05
0.00201032 9.042e-05 -1.27229e-05
4.57862e-05 -1.27229e-05 -0.000451791
0.00123422 0.00124219 2.07814e-05
0.00124219 0.000425737 9.70236e-06
2.07814e-05 9.70236e-06 -9.27632e-05
0.00318348 0.0010908 -1.64272e-05
0.0010908 0.00215631 -6.13257e-06
-1.64272e-05 -6.13257e-06 0.00130192
0.0186636 0.00758036 -0.000217463
0.00758036 -0.00123419 9.57246e-05
-0.000217463 9.57246e-05 0.00108564
0.0163571 -0.00588817 -0.00104219
-0.00588817 0.00925461 -0.000202207
-0.00104219 -0.000202207 0.00155706
0.00949035 -0.0108607 0.00212362
-0.0108607 0.0196461 3.12766e-05
0.00212362 3.12766e-05 0.00613932
0.0264916 -0.0067047 0.000706053
-0.0067047 0.0122569 0.000165262
0.000706053 0.000165262 0.00112372
0.00887518 0.00991805 -0.00032879
0.00991805 0.00478296 -0.00013579
-0.00032879 -0.00013579 -0.000236516
-9.23583e-05 0.00198426 4.20663e-05
0.00198426 0.00308796 5.08985e-05
4.20663e-05 5.08985e-05 0.000996281
0.00160501 0.00483563 -0.000172428
0.00483563 0.000980807 -0.000102412
-0.000172428 -0.000102412 0.00113175
0.0105587 0.0112225 9.81935e-05
0.0112225 -0.00104943 0.000111487
9.81935e-05 0.000111487 -0.00191493
0.00830976 0.00799457 -0.000220678
0.00799457 -0.000962399 -0.000167892
-0.000220678 -0.000167892 0.00031737
0.00194659 0.00218659 4.12507e-06
0.00218659 0.000237003 -2.48478e-05
4.12507e-06 -2.48478e-05 -0.000314554
0.00238714 0.00180776 1.95878e-05
0.00180776 0.000891139 4.8293e-06
1.95878e-05 4.8293e-06 0.00027382
0.00166725 0.00105167 -1.69467e-05
0.00105167 0.000729075 -5.06773e-05
-1.69467e-05 -5.06773e-05 0.000430428
0.00199322 0.00335274 -0.000113708
0.00335274 0.000597741 -6.29254e-05
-0.000113708 -6.29254e-05 -0.00100893
0.00477694 0.00430058 0.000128157
0.00430058 0.000701594 4.12594e-05
0.000128157 4.12594e-05 -0.000401063
0.00748946 -0.000284701 -4.7778e-05
-0.000284701 -0.00661353 1.39165e-05
-4.7778e-05 1.39165e-05 -0.00744596
0.000685384 -0.00295235 -4.26178e-05
-0.00295235 0.0068444 9.94938e-05
-4.26178e-05 9.94938e-05 0.000916195
-0.0132273 -2.62282e-05 0.00157757
-2.62282e-05 0.00835033 3.63889e-05
0.00157757 3.63889e-05 0.00284658
0.00300876 -0.00513044 -0.000179364
-0.00513044 0.00061829 0.000111546
-0.000179364 0.000111546 -0.00104605
0.0068175 -0.00754365 -2.79068e-05
-0.00754365 -0.000928964 0.000139224
-2.79068e-05 0.000139224 0.000821739
0.00999411 0.00319302 0.00269089
0.00319302 0.00793416 -0.000345975
0.00269089 -0.000345975 0.00296734
0.0123499 -0.00640497 -0.000486792
-0.00640497 -0.00543421 0.000381241
-0.000486792 0.000381241 -0.00194879
0.00282785 -0.00335202 -4.9114e-05
-0.00335202 -0.000523382 1.591e-05
-4.9114e-05 1.591e-05 -0.000488307
0.0133706 -0.00141458 -0.000457299
-0.00141458 -0.00461374 0.000159852
-0.000457299 0.000159852 -0.00339491
0.00783502 -0.00497298 0.000122122
-0.00497298 -0.00248597 -8.46918e-06
0.000122122 -8.46918e-06 0.000625684
0.00396686 -0.00261723 7.09519e-05
-0.00261723 -0.00103247 -8.21174e-05
7.09519e-05 -8.21174e-05 -0.000104651
0.00411092 -0.00205922 0.000157435
-0.00205922 -0.00429856 -4.71243e-05
0.000157435 -4.71243e-05 -0.000141191
-0.000358078 -0.00133986 5.70058e-06
-0.00133986 -0.00124232 1.84593e-05
5.70058e-06 1.84593e-05 -0.00148018
0.00233451 -0.00146527 -3.53215e-05
-0.00146527 -0.000257428 1.14975e-05
-3.53215e-05 1.14975e-05 -0.000229845
0.00473656 -0.00136072 5.36019e-05
-0.00136072 0.000962288 -2.70632e-05
5.36019e-05 -2.70632e-05 0.00110374
0.00171708 -0.00152559 -4.44756e-06
-0.00152559 -0.000136915 1.01967e-05
-4.44756e-06 1.01967e-05 -0.000629614
0.0030867 -0.0013606 -5.57184e-06
-0.0013606 0.000218751 1.96412e-06
-5.57184e-06 1.96412e-06 5.24464e-05
0.00309445 -0.00101305 4.54745e-06
-0.00101305 4.43472e-06 -1.36817e-06
4.54745e-06 -1.36817e-06 0.00011539
0.00298341 -0.0013445 -1.20756e-05
-0.0013445 0.000348785 9.22163e-06
-1.20756e-05 9.22163e-06 -3.24824e-05
0.00266498 -0.000919251 -2.46568e-07
-0.000919251 -5.76591e-05 1.27026e-06
-2.46568e-07 1.27026e-06 -5.91902e-05
0.0028069 -0.000884184 -9.24137e-07
-0.000884184 4.18526e-06 -1.63185e-07
-9.24137e-07 -1.63185e-07 3.9898e-05
0.00243457 -0.000827405 2.53132e-06
-0.000827405 -2.29372e-05 4.23489e-06
2.53132e-06 4.23489e-06 -0.000162788
0.0026504 -0.000884505 -2.68222e-07
-0.000884505 8.68228e-05 5.47965e-07
-2.68222e-07 5.47965e-07 6.36568e-06
0.00272423 -0.000855861 -2.21699e-06
-0.000855861 6.66031e-05 8.18519e-08
-2.21699e-06 8.18519e-08 7.69527e-06
0.00255301 -0.000859479 -5.01907e-06
-0.000859479 0.000101224 4.17312e-07
-5.01907e-06 4.17312e-07 -2.8418e-05
0.00250427 -0.000805524 -1.148e-06
-0.000805524 0.000119074 -3.62369e-07
-1.148e-06 -3.62369e-07 -2.21943e-05
0.00246468 -0.000831212 3.26715e-07
-0.000831212 0.000107974 2.70205e-06
3.26715e-07 2.70205e-06 -3.37882e-05
0.00252445 -0.000795491 9.19859e-07
-0.000795491 0.000252358 -5.76876e-07
9.19859e-07 -5.76876e-07 5.80731e-05
0.00248867 -0.000785096 -2.49243e-06
-0.000785096 0.00029736 5.97401e-07
-2.49243e-06 5.97401e-07 5.39311e-05
0.00253998 -0.000824673 -6.34422e-07
-0.000824673 0.000390388 -5.11567e-06
-6.34422e-07 -5.11567e-06 4.59315e-05
0.00261856 -0.000810473 -4.10853e-07
-0.000810473 0.000371688 6.0013e-08
-4.10853e-07 6.0013e-08 6.15894e-05
0.00270159 -0.00077627 7.69344e-06
-0.00077627 0.000394309 1.89595e-06
7.69344e-06 1.89595e-06 0.00012222
0.00231577 -0.000960213 -3.45792e-06
-0.000960213 0.000385732 -2.82078e-06
-3.45792e-06 -2.82078e-06 -0.000138519
0.00237593 -0.00097793 -3.5497e-06
-0.00097793 0.000297477 -9.34078e-07
-3.5497e-06 -9.34078e-07 -0.000186056
0.00210021 -0.000984068 4.4307e-06
-0.000984068 5.78126e-05 3.47839e-06
4.4307e-06 3.47839e-06 -0.000425621
0.00177843 -0.000662107 -1.37804e-05
-0.000662107 0.00045702 7.35531e-06
-1.37804e-05 7.35531e-06 -2.1675e-05
0.00231493 -0.00111504 -1.64685e-06
-0.00111504 0.000539282 -1.99241e-08
-1.64685e-06 -1.99241e-08 -0.000111661
0.00298097 -0.0013197 6.23074e-06
-0.0013197 0.000850822 6.76195e-06
6.23074e-06 6.76195e-06 0.000142459
0.000287061 -0.00028485 -1.67541e-05
-0.00028485 -0.000233103 2.94259e-05
-1.67541e-05 2.94259e-05 -0.000452108
0.000764942 -0.000418976 4.80036e-06
-0.000418976 -9.7014e-05 -1.56732e-06
4.80036e-06 -1.56732e-06 -0.000478168
0.00254598 -0.00103201 6.08418e-06
-0.00103201 0.000929582 5.98801e-06
6.08418e-06 5.98801e-06 0.000262718
0.00752284 2.81814e-05 -0.000278318
2.81814e-05 0.004678 2.49236e-05
-0.000278318 2.49236e-05 0.00468642
0.000405868 -0.000257135 -5.22495e-06
-0.000257135 -0.000120283 2.56e-07
-5.22495e-06 2.56e-07 -0.00031552
0.00147483 -0.000618153 5.2093e-06
-0.000618153 0.000608091 -6.20826e-07
5.2093e-06 -6.20826e-07 0.00021428
0.00692319 0.000124707 1.59763e-05
0.000124707 0.0043187 -4.1934e-06
1.59763e-05 -4.1934e-06 0.00430865
0.00132568 -0.000258475 2.55993e-05
-0.000258475 0.000460322 -2.20645e-05
2.55993e-05 -2.20645e-05 0.000313965
0.00663995 0.000189974 0.000174936
0.000189974 0.00415893 -2.31203e-05
0.000174936 -2.31203e-05 0.00413255
0.00338409 0.0013452 -9.77448e-06
0.0013452 0.00157797 1.92317e-05
-9.77448e-06 1.92317e-05 0.000787381
0.00225209 0.00087718 -1.3619e-06
0.00087718 0.00104031 1.73797e-06
-1.3619e-06 1.73797e-06 0.00040236
-0.00128256 0.000408241 -3.12337e-06
0.000408241 -0.0010795 1.31405e-05
-3.12337e-06 1.31405e-05 -0.00157436
4.57678e-05 0.000272593 4.24041e-06
0.000272593 -0.000204365 -8.53768e-06
4.24041e-06 -8.53768e-06 -0.000606566
-0.000248477 0.000439037 2.94084e-06
0.000439037 -0.00045658 -6.57212e-06
2.94084e-06 -6.57212e-06 -0.000797189
-0.000903732 0.000589851 -9.92118e-06
0.000589851 -0.000892153 -5.41675e-06
-9.92118e-06 -5.41675e-06 -0.00123754
-4.60121e-05 0.00013023 -1.47495e-05
0.00013023 -0.000169147 -2.90593e-06
-1.47495e-05 -2.90593e-06 -0.000592796
0.000652127 0.000410085 4.18929e-06
0.000410085 0.000222976 4.26855e-07
4.18929e-06 4.26855e-07 -0.000125843
0.0011065 0.000230095 -3.08264e-05
0.000230095 0.000389162 -2.68539e-05
-3.08264e-05 -2.68539e-05 0.000253837
0.00486455 -0.00013439 -0.000127835
-0.00013439 0.00299279 -2.21309e-05
-0.000127835 -2.21309e-05 0.00298082
0.000492824 0.000101948 4.85097e-06
0.000101948 6.84687e-05 -4.0533e-07
4.85097e-06 -4.0533e-07 -4.44889e-05
-0.000235254 8.60596e-05 -6.4525e-06
8.60596e-05 -0.000274695 1.87529e-05
-6.4525e-06 1.87529e-05 -0.00059755
0.00421176 -0.000136543 -1.53736e-05
-0.000136543 0.00254902 1.88586e-06
-1.53736e-05 1.88586e-06 0.00253713
0.000165924 -7.36201e-05 -1.34536e-05
-7.36201e-05 -0.000108125 1.85096e-05
-1.34536e-05 1.85096e-05 -0.000204804
0.00350606 -0.000107346 4.75523e-05
-0.000107346 0.00206717 1.0066e-05
4.75523e-05 1.0066e-05 0.00206072
0.0162153 0.00113459 0.000883556
0.00113459 -0.00157752 0.000171439
0.000883556 0.000171439 0.00115258
0.00538059 -0.00858771 -0.00155026
-0.00858771 0.00321428 3.69162e-05
-0.00155026 3.69162e-05 -0.00653871
-0.00257121 -0.000517491 -0.000328085
-0.000517491 0.00935201 -6.9851e-05
-0.000328085 -6.9851e-05 -0.000371196
0.00050881 0.000183614 5.95788e-06
0.000183614 0.000387898 -1.72266e-05
5.95788e-06 -1.72266e-05 -0.000330584
0.00124007 0.000939254 2.2015e-05
0.000939254 0.000506227 -2.25178e-05
2.2015e-05 -2.25178e-05 -0.000260361
0.00215206 0.0011277 -9.70084e-06
0.0011277 0.00116695 -1.03983e-05
-9.70084e-06 -1.03983e-05 0.000366787
0.00213255 0.0013501 -4.36813e-06
0.0013501 0.000797296 -7.45996e-07
-4.36813e-06 -7.45996e-07 -2.27752e-06
0.00216256 0.00126974 2.72302e-05
0.00126974 0.000545364 2.82742e-05
2.72302e-05 2.82742e-05 -0.000131818
0.00158176 0.00149568 -1.19602e-05
0.00149568 0.000355635 1.70656e-05
-1.19602e-05 1.70656e-05 -0.000361315
0.00236779 0.00106215 -8.07613e-06
0.00106215 0.00128792 -1.53907e-05
-8.07613e-06 -1.53907e-05 0.000550541
0.00227963 0.00158392 1.18323e-06
0.00158392 0.000790266 3.20355e-06
1.18323e-06 3.20355e-06 4.59156e-05
0.00303773 0.001522 3.55826e-05
0.001522 0.00136047 8.92333e-06
3.55826e-05 8.92333e-06 0.000720978
0.003592 0.00160012 6.25665e-06
0.00160012 0.00146109 9.5935e-06
6.25665e-06 9.5935e-06 0.000726917
0.00148418 0.00154718 4.56616e-07
0.00154718 6.22677e-05 8.1883e-06
4.56616e-07 8.1883e-06 -0.000455922
0.00418486 0.0021786 1.76041e-05
0.0021786 0.00134569 2.30804e-05
1.76041e-05 2.30804e-05 0.000556587
0.00308969 0.00208186 1.59778e-05
0.00208186 0.000815868 4.34002e-06
1.59778e-05 4.34002e-06 0.000209108
0.00283891 0.00133665 -4.32687e-05
0.00133665 0.00131698 -0.000119883
-4.32687e-05 -0.000119883 0.000742595
0.00533392 0.00404661 3.49038e-05
0.00404661 -0.0048909 8.65182e-05
3.49038e-05 8.65182e-05 -5.76588e-05
0.0134334 0.00866468 0.000640185
0.00866468 -0.00519208 0.000295722
0.000640185 0.000295722 -0.00271793
0.0207195 -0.0101186 0.0016966
-0.0101186 0.0119816 -0.000532368
0.0016966 -0.000532368 0.00118666
0.00408641 0.0133829 0.00155458
0.0133829 -0.00374124 0.000524042
0.00155458 0.000524042 -0.0049169
-0.000577839 0.00377291 -2.95101e-05
0.00377291 0.000562723 4.19929e-05
-2.95101e-05 4.19929e-05 0.000485887
0.0036185 0.00482191 -0.000133197
0.00482191 -0.00167512 -0.000117289
-0.000133197 -0.000117289 0.000361568
0.00755398 0.00406834 5.18814e-05
0.00406834 0.000852428 2.58158e-05
5.18814e-05 2.58158e-05 0.000697746
0.0059027 0.00300974 2.38834e-05
0.00300974 0.00200253 6.16105e-06
2.38834e-05 6.16105e-06 0.00122375
0.00118466 0.00154434 -2.64978e-05
0.00154434 0.000259744 -2.91024e-05
-2.64978e-05 -2.91024e-05 -0.000275144
0.00902402 0.00483969 -0.000176793
0.00483969 0.00262003 8.52523e-05
-0.000176793 8.52523e-05 0.00122589
0.00623164 -0.00108835 0.000197263
-0.00108835 -0.00359463 7.7706e-05
0.000197263 7.7706e-05 0.000439742
0.0155972 -0.00038601 1.27451e-05
-0.00038601 -0.00192864 -5.34934e-05
1.27451e-05 -5.34934e-05 0.000416323
-0.00821527 -0.00512078 0.00210873
-0.00512078 0.00181923 -0.000128315
0.00210873 -0.000128315 -0.00704816
0.00289921 -0.00329451 -0.000155071
-0.00329451 -0.000467324 8.70369e-05
-0.000155071 8.70369e-05 -0.000359174
0.00792603 -0.00529087 -0.000160922
-0.00529087 -0.00285536 0.000207384
-0.000160922 0.000207384 0.000661827
0.00297387 -0.00092565 -0.000581204
-0.00092565 -0.0115688 2.6619e-05
-0.000581204 2.6619e-05 -0.00900113
0.0039197 -0.0024709 4.82391e-05
-0.0024709 -0.00101569 7.69957e-07
4.82391e-05 7.69957e-07 0.000100053
0.00528991 -0.00207068 -0.000114647
-0.00207068 -0.00332106 1.79246e-05
-0.000114647 1.79246e-05 -6.26037e-06
0.0063266 -0.00176255 7.18655e-05
-0.00176255 0.000526913 -7.06637e-05
7.18655e-05 -7.06637e-05 0.00152481
0.00921996 -0.00137363 0.00020133
-0.00137363 0.00146647 9.76542e-06
0.00020133 9.76542e-06 0.00304813
-0.00200148 -0.00101542 4.47006e-05
-0.00101542 -0.00296499 1.10647e-05
4.47006e-05 1.10647e-05 -0.00240002
0.00268614 -0.00116642 -1.71604e-05
-0.00116642 -0.000333997 2.54486e-06
-1.71604e-05 2.54486e-06 7.36123e-05
0.00291436 -0.000815387 3.352e-05
-0.000815387 -0.000318502 -1.79464e-05
3.352e-05 -1.79464e-05 0.000132054
0.00267381 -0.00134469 -4.38066e-06
-0.00134469 -3.10038e-05 4.03523e-06
-4.38066e-06 4.03523e-06 -0.000194885
0.00304675 -0.00101138 3.82888e-07
-0.00101138 -1.6602e-05 1.0615e-06
3.82888e-07 1.0615e-06 9.43504e-05
0.00292693 -0.000824452 -5.03256e-07
-0.000824452 -9.16023e-05 -1.16516e-06
-5.03256e-07 -1.16516e-06 1.68125e-06
0.00259265 -0.000914227 6.97557e-07
-0.000914227 -0.000107223 2.12944e-06
6.97557e-07 2.12944e-06 -0.000107514
0.00277808 -0.00088249 -6.73896e-08
-0.00088249 -3.57877e-06 2.03182e-07
-6.73896e-08 2.03182e-07 2.24286e-05
0.00269633 -0.00073425 -1.70484e-06
-0.00073425 -4.75866e-05 -4.93231e-07
-1.70484e-06 -4.93231e-07 -2.96806e-05
0.00263909 -0.000877855 1.58329e-06
-0.000877855 8.922e-05 6.4187e-07
1.58329e-06 6.4187e-07 8.53938e-06
0.00272509 -0.000856259 -1.99351e-07
-0.000856259 9.3424e-05 -1.7323e-07
-1.99351e-07 -1.7323e-07 2.70213e-05
0.00263349 -0.000736437 1.05203e-06
-0.000736437 0.000100826 -6.07634e-07
1.05203e-06 -6.07634e-07 3.3777e-05
0.00250947 -0.000859224 -1.87783e-06
-0.000859224 6.84629e-05 4.36668e-07
-1.87783e-06 4.36668e-07 -5.17466e-05
0.00249024 -0.000811232 -1.47487e-06
-0.000811232 0.00010217 2.13984e-07
-1.47487e-06 2.13984e-07 -3.56075e-05
0.00246479 -0.000749463 -1.66466e-06
-0.000749463 0.000185088 5.98779e-07
-1.66466e-06 5.98779e-07 6.74132e-06
0.00251205 -0.000792508 3.28201e-06
-0.000792508 0.000241768 2.14749e-07
3.28201e-06 2.14749e-07 5.39429e-05
0.00247716 -0.00077587 3.89034e-07
-0.00077587 0.000285759 -2.3093e-07
3.89034e-07 -2.3093e-07 4.64877e-05
0.00252307 -0.000782368 -1.14867e-06
-0.000782368 0.000357644 -1.85933e-07
-1.14867e-06 -1.85933e-07 6.86295e-05
0.00219822 -0.000780058 4.34381e-07
-0.000780058 0.000258011 -6.2095e-06
4.34381e-07 -6.2095e-06 -0.000130907
0.00248355 -0.000825451 -3.37108e-07
-0.000825451 0.000348483 -1.57373e-06
-3.37108e-07 -1.57373e-06 -6.53412e-06
0.00275949 -0.000821167 4.77964e-06
-0.000821167 0.000470903 1.22058e-06
4.77964e-06 1.22058e-06 0.000152934
0.0013578 -0.000641843 -1.96032e-05
-0.000641843 3.8044e-06 1.53559e-06
-1.96032e-05 1.53559e-06 -0.000438013
0.00245876 -0.000965673 -1.57567e-07
-0.000965673 0.000497295 3.77917e-07
-1.57567e-07 3.77917e-07 -2.63862e-05
0.00238324 -0.000998009 -3.13235e-07
-0.000998009 0.00028237 4.77157e-06
-3.13235e-07 4.77157e-06 -0.000212501
0.000282863 -0.000292965 -1.90579e-05
-0.000292965 -0.000258302 2.92898e-05
-1.90579e-05 2.92898e-05 -0.00048224
0.00106688 -0.000597724 6.58979e-06
-0.000597724 2.27053e-05 1.56089e-06
6.58979e-06 1.56089e-06 -0.000450099
0.00276156 -0.0011557 2.91343e-06
-0.0011557 0.000862143 4.95863e-06
2.91343e-06 4.95863e-06 0.000201488
0.00909724 -8.36453e-05 -0.000373295
-8.36453e-05 0.0056643 3.8283e-05
-0.000373295 3.8283e-05 0.00567988
5.3719e-05 -0.000293738 3.30173e-06
-0.000293738 -0.000375312 9.70192e-07
3.30173e-06 9.70192e-07 -0.000598823
0.000718245 -0.000422537 -2.11229e-07
-0.000422537 -8.98047e-05 -1.51753e-06
-2.11229e-07 -1.51753e-06 -0.000492274
0.00818723 -3.14528e-07 -2.42534e-05
-3.14528e-07 0.00512281 -1.35351e-06
-2.42534e-05 -1.35351e-06 0.00512487
0.000669957 -0.000250464 1.10931e-05
-0.000250464 4.07412e-05 -2.93284e-05
1.10931e-05 -2.93284e-05 -0.000159369
0.00697133 5.58207e-05 0.000286684
5.58207e-05 0.00436526 -4.12645e-05
0.000286684 -4.12645e-05 0.0043601
0.0023568 0.00116999 -1.21423e-05
0.00116999 0.00063823 1.94968e-05
-1.21423e-05 1.94968e-05 -3.0605e-05
0.00247467 0.00120659 1.14953e-06
0.00120659 0.00100414 4.35157e-07
1.14953e-06 4.35157e-07 0.000254406
0.0021889 0.000940756 -3.10533e-06
0.000940756 0.000805174 1.69178e-05
-3.10533e-06 1.69178e-05 0.00016774
0.000991672 0.000789408 2.31669e-05
0.000789408 0.000215141 -1.34641e-05
2.31669e-05 -1.34641e-05 -0.000412999
0.00105078 0.000501414 -1.97141e-06
0.000501414 0.000201382 -8.8898e-07
-1.97141e-06 -8.8898e-07 -0.000258644
4.70782e-05 0.00038443 -4.50974e-06
0.00038443 -0.000254219 -8.3138e-07
-4.50974e-06 -8.3138e-07 -0.000679216
0.00319459 0.000373399 -1.9498e-06
0.000373399 0.0017209 -1.0397e-05
-1.9498e-06 -1.0397e-05 0.00137809
0.00162777 0.000307797 5.21248e-06
0.000307797 0.000753124 -2.21484e-06
5.21248e-06 -2.21484e-06 0.000415238
0.000405219 0.000264942 -3.37718e-05
0.000264942 -0.000124343 -2.93496e-05
-3.37718e-05 -2.93496e-05 -0.00028759
0.000868165 0.0002894 -2.39636e-06
0.0002894 0.000378288 1.88143e-05
-2.39636e-06 1.88143e-05 2.99665e-05
0.000420501 0.000207371 -3.61141e-06
0.000207371 -2.93846e-05 -4.85296e-07
-3.61141e-06 -4.85296e-07 -0.00016611
0.00607994 -0.000138427 -0.000201212
-0.000138427 0.00381515 -3.27988e-05
-0.000201212 -3.27988e-05 0.00379325
0.00431782 -0.000152004 -1.98224e-05
-0.000152004 0.00263372 2.31423e-06
-1.98224e-05 2.31423e-06 0.00261561
-8.46397e-05 0.000173858 2.58238e-05
0.000173858 -0.000312585 2.3244e-05
2.58238e-05 2.3244e-05 -0.000412344
0.00365163 -0.000126889 6.16928e-05
-0.000126889 0.00217655 1.11454e-05
6.16928e-05 1.11454e-05 0.00216514
0.00145086 0.00113908 0.000188128
0.00113908 -0.00448993 5.49107e-05
0.000188128 5.49107e-05 -0.000613093
0.0038735 0.000491158 0.000317357
0.000491158 -0.00955082 0.000205707
0.000317357 0.000205707 -0.00906125
0.020597 -0.00991626 -0.000392144
-0.00991626 0.0149384 -0.000179016
-0.000392144 -0.000179016 0.00342409
0.00223069 0.00105427 1.50599e-05
0.00105427 0.000329706 1.7392e-05
1.50599e-05 1.7392e-05 -0.000176639
0.00276407 0.00116628 1.59628e-05
0.00116628 0.0013958 -1.76082e-05
1.59628e-05 -1.76082e-05 0.000635528
0.00167695 0.00131324 5.02686e-07
0.00131324 0.00051528 -2.45467e-05
5.02686e-07 -2.45467e-05 -0.000287743
0.00240989 0.00158423 3.67825e-06
0.00158423 0.000856076 1.91082e-06
3.67825e-06 1.91082e-06 0.000104694
0.00246267 0.00131877 1.04363e-06
0.00131877 0.000731563 3.07284e-06
1.04363e-06 3.07284e-06 3.71632e-05
0.00273614 0.0014428 8.45301e-06
0.0014428 0.00079134 1.58117e-05
8.45301e-06 1.58117e-05 0.000113585
0.00152134 0.00147062 6.27384e-06
0.00147062 0.000314614 -4.03673e-06
6.27384e-06 -4.03673e-06 -0.000400302
0.0012812 0.00121973 2.08885e-05
0.00121973 0.000383532 -6.04015e-05
2.08885e-05 -6.04015e-05 -0.000180982
0.00250909 0.00156926 1.31432e-06
0.00156926 0.000732552 -1.01597e-06
1.31432e-06 -1.01597e-06 4.97157e-05
0.000383053 0.00144888 1.16177e-05
0.00144888 -0.000620211 -3.15941e-05
1.16177e-05 -3.15941e-05 -0.00101197
0.00290176 0.00146643 1.27942e-05
0.00146643 0.000806922 -1.00879e-06
1.27942e-05 -1.00879e-06 8.51715e-05
0.00348635 0.00141242 6.34189e-05
0.00141242 0.00085312 8.20302e-05
6.34189e-05 8.20302e-05 0.000641268
0.00142318 0.00164777 -1.56015e-05
0.00164777 -5.31981e-05 -1.98421e-05
-1.56015e-05 -1.98421e-05 -0.000621401
0.00232381 0.00186762 -3.21425e-05
0.00186762 0.000457092 -1.34101e-05
-3.21425e-05 -1.34101e-05 -3.90913e-05
0.00267105 0.0018722 2.02124e-05
0.0018722 -0.00235229 6.91698e-05
2.02124e-05 6.91698e-05 -0.000459155
0.00651743 0.00441486 -0.000179925
0.00441486 -0.00419905 -8.27434e-05
-0.000179925 -8.27434e-05 0.000626019
0.00355109 0.00636758 0.0012093
0.00636758 -0.0119537 0.00034181
0.0012093 0.00034181 -0.00924172
0.00255068 0.00451005 -0.000291492
0.00451005 -0.00119552 -0.00014713
-0.000291492 -0.00014713 0.000356159
0.00578929 0.00330372 -2.66537e-05
0.00330372 0.000412258 -1.6708e-05
-2.66537e-05 -1.6708e-05 0.000563717
0.00894184 0.00365201 -0.000254418
0.00365201 0.00327408 -8.06818e-05
-0.000254418 -8.06818e-05 0.00235217
0.00512985 -2.81819e-05 -4.24626e-05
-2.81819e-05 -0.00123978 -2.89687e-05
-4.24626e-05 -2.89687e-05 0.000221973
0.00227891 -0.00044424 0.000108386
-0.00044424 -0.00330341 3.18806e-05
0.000108386 3.18806e-05 -0.000128304
0.0097197 -0.000224349 0.000195226
-0.000224349 -0.00664876 -4.0188e-05
0.000195226 -4.0188e-05 -0.00688451
0.00291922 -0.00223896 -8.43382e-05
-0.00223896 -0.00144028 0.000139412
-8.43382e-05 0.000139412 -0.000256359
0.00505895 -0.0020817 -0.000264593
-0.0020817 -0.00396743 0.000101715
-0.000264593 0.000101715 -0.000937899
0.00388072 -0.00149899 -1.21266e-05
-0.00149899 -0.000852912 1.29845e-05
-1.21266e-05 1.29845e-05 0.000305907
0.00516006 -0.00109156 -7.63134e-05
-0.00109156 -0.000612142 3.60152e-07
-7.63134e-05 3.60152e-07 0.000786895
0.00436407 -0.000721533 0.000129253
-0.000721533 0.000427499 -3.1503e-05
0.000129253 -3.1503e-05 0.000928991
0.00326439 -0.000152259 7.1106e-05
-0.000152259 -0.000145782 -3.77278e-06
7.1106e-05 -3.77278e-06 0.000324433
0.00101903 -0.000961997 -2.02106e-05
-0.000961997 -0.00128863 1.85281e-05
-2.02106e-05 1.85281e-05 -0.000687655
0.00287642 -0.000843936 -5.69998e-06
-0.000843936 -0.000312027 1.25781e-06
-5.69998e-06 1.25781e-06 8.24559e-05
0.00289233 -0.000603558 4.83353e-06
-0.000603558 -0.000277942 -3.84687e-06
4.83353e-06 -3.84687e-06 4.44529e-05
0.00300415 -0.00100715 -3.34071e-06
-0.00100715 -2.51159e-05 1.92847e-06
-3.34071e-06 1.92847e-06 8.26018e-05
0.00292961 -0.00079816 -3.39584e-07
-0.00079816 -4.93849e-05 -3.62391e-07
-3.39584e-07 -3.62391e-07 5.36425e-05
0.00269814 -0.000590152 -1.61131e-06
-0.000590152 -0.000176919 -4.87724e-07
-1.61131e-06 -4.87724e-07 -3.74817e-05
0.00274946 -0.000878961 -2.53696e-07
-0.000878961 -6.69822e-06 3.91804e-07
-2.53696e-07 3.91804e-07 8.77724e-06
0.00268207 -0.000736016 -6.09559e-07
-0.000736016 -4.0142e-05 -9.05567e-10
-6.09559e-07 -9.05567e-10 -2.03255e-05
0.00258208 -0.000604196 5.01887e-07
-0.000604196 1.04206e-05 -3.16741e-07
5.01887e-07 -3.16741e-07 6.40524e-06
0.00272609 -0.000855375 6.51691e-07
-0.000855375 0.000122325 1.95244e-07
6.51691e-07 1.95244e-07 4.79381e-05
0.00263411 -0.000737388 1.0444e-06
-0.000737388 9.76985e-05 -1.25771e-07
1.0444e-06 -1.25771e-07 2.98858e-05
0.00246577 -0.000655405 1.88103e-07
-0.000655405 0.000103638 -8.36447e-08
1.88103e-07 -8.36447e-08 5.18205e-06
0.00247868 -0.000817575 -1.26183e-06
-0.000817575 8.70961e-05 1.11734e-06
-1.26183e-06 1.11734e-06 -4.74839e-05
0.00243339 -0.000753006 -1.07321e-06
-0.000753006 0.000153627 2.67045e-07
-1.07321e-06 2.67045e-07 -1.9744e-05
0.00246824 -0.0007217 -1.69774e-06
-0.0007217 0.000240715 3.55063e-07
-1.69774e-06 3.55063e-07 1.98697e-05
0.00246913 -0.000767026 3.31456e-06
-0.000767026 0.000275797 -1.00464e-06
3.31456e-06 -1.00464e-06 4.10178e-05
0.00245765 -0.000774536 -3.62937e-07
-0.000774536 0.00031263 7.3731e-07
-3.62937e-07 7.3731e-07 2.75293e-05
0.00243729 -0.000720324 -1.09953e-06
-0.000720324 0.000385111 -2.81947e-06
-1.09953e-06 -2.81947e-06 6.09429e-05
0.00169332 -0.000576613 -2.05422e-05
-0.000576613 0.000158782 5.06131e-06
-2.05422e-05 5.06131e-06 -0.000209676
0.00224793 -0.0007834 4.12383e-07
-0.0007834 0.000302512 -1.90407e-06
4.12383e-07 -1.90407e-06 -9.32278e-05
0.00242771 -0.000825829 -1.15621e-06
-0.000825829 0.000305911 2.98679e-06
-1.15621e-06 2.98679e-06 -5.93643e-05
0.000214785 -0.00033518 -2.18715e-05
-0.00033518 -0.000326379 2.59969e-05
-2.18715e-05 2.59969e-05 -0.000564987
0.00159465 -0.000654536 -1.03765e-06
-0.000654536 0.000168906 -7.9776e-08
-1.03765e-06 -7.9776e-08 -0.000271241
0.00261191 -0.000974574 -4.97565e-07
-0.000974574 0.000611932 5.50827e-06
-4.97565e-07 5.50827e-06 8.7641e-05
0.00988888 -0.000155334 -0.00045003
-0.000155334 0.00614944 4.75981e-05
-0.00045003 4.75981e-05 0.00617639
9.0678e-05 -0.000330725 1.76602e-07
-0.000330725 -0.000366198 1.92856e-06
1.76602e-07 1.92856e-06 -0.000608914
0.000986074 -0.000595815 1.41627e-05
-0.000595815 -2.87692e-05 -8.45808e-07
1.41627e-05 -8.45808e-07 -0.000501847
0.00940034 -0.000120354 -5.87542e-06
-0.000120354 0.00586514 1.51813e-06
-5.87542e-06 1.51813e-06 0.00588426
-0.000226975 -0.000338962 2.41843e-05
-0.000338962 -0.000547009 -3.23945e-05
2.41843e-05 -3.23945e-05 -0.000775819
0.00872141 -3.32436e-05 0.000372615
-3.32436e-05 0.00547211 -5.12138e-05
0.000372615 -5.12138e-05 0.00547687
0.0021101 0.000981998 -5.24005e-06
0.000981998 0.000286373 1.67562e-05
-5.24005e-06 1.67562e-05 -0.00022462
0.00239283 0.00115445 -7.74868e-07
0.00115445 0.000687974 2.40958e-06
-7.74868e-07 2.40958e-06 2.6804e-05
0.00254427 0.00107484 6.35841e-06
0.00107484 0.000798692 2.12649e-05
6.35841e-06 2.12649e-05 0.000154039
0.00217713 0.00113531 4.71379e-06
0.00113531 0.000844172 -1.92944e-05
4.71379e-06 -1.92944e-05 0.000114697
0.00197469 0.000947373 2.58739e-06
0.000947373 0.000684314 2.18263e-06
2.58739e-06 2.18263e-06 2.99727e-05
0.000343388 0.000447921 -2.094e-05
0.000447921 -0.000305098 5.08286e-06
-2.094e-05 5.08286e-06 -0.000735817
0.00270616 0.000671308 1.12032e-06
0.000671308 0.00124473 -1.08449e-05
1.12032e-06 -1.08449e-05 0.000746831
0.000338701 0.000385529 3.22479e-06
0.000385529 -0.000149018 -1.90897e-06
3.22479e-06 -1.90897e-06 -0.000515231
0.000364438 0.000315917 -4.18863e-05
0.000315917 -0.000207447 -3.12258e-05
-4.18863e-05 -3.12258e-05 -0.000369348
0.0011333 0.00038986 2.59994e-06
0.00038986 0.000426216 3.6677e-06
2.59994e-06 3.6677e-06 8.76138e-05
0.0007585 0.000280807 3.86197e-06
0.000280807 9.60378e-05 -2.21599e-06
3.86197e-06 -2.21599e-06 -5.20207e-05
0.00783525 -0.000231265 -0.00023726
-0.000231265 0.00501211 -4.3141e-05
-0.00023726 -4.3141e-05 0.00495522
0.000405014 0.000194386 2.65582e-05
0.000194386 -2.28967e-05 2.76123e-05
2.65582e-05 2.76123e-05 -0.000160633
0.00570571 -0.000219775 -2.37951e-05
-0.000219775 0.00359387 2.54592e-06
-2.37951e-05 2.54592e-06 0.0035502
0.00458045 -0.000185924 7.63928e-05
-0.000185924 0.00281732 1.50496e-05
7.63928e-05 1.50496e-05 0.00279004
0.000908104 0.00091517 4.11509e-05
0.00091517 -0.00382454 7.0711e-05
4.11509e-05 7.0711e-05 -0.00127218
0.00613173 0.00110794 8.18411e-05
0.00110794 -0.0033055 2.67446e-05
8.18411e-05 2.67446e-05 0.000947344
0.0180059 0.00120061 4.6983e-05
0.00120061 -0.00126757 0.000207933
4.6983e-05 0.000207933 0.00175462
0.00244329 0.0011626 3.32161e-07
0.0011626 0.000362333 8.58334e-06
3.32161e-07 8.58334e-06 -0.000152781
0.00265991 0.00108265 3.59828e-06
0.00108265 0.000350636 8.35986e-06
3.59828e-06 8.35986e-06 -4.63605e-05
0.00224845 0.00106394 -1.4001e-06
0.00106394 0.0003371 -4.07299e-06
-1.4001e-06 -4.07299e-06 -0.000167841
0.00307122 0.00163989 1.91492e-05
0.00163989 0.00125186 -8.8002e-06
1.91492e-05 -8.8002e-06 0.000484085
0.00253718 0.00133157 -1.46821e-05
0.00133157 0.000777298 -1.86443e-05
-1.46821e-05 -1.86443e-05 7.78333e-05
0.00290217 0.00150689 8.12699e-06
0.00150689 0.000842982 2.33131e-06
8.12699e-06 2.33131e-06 0.000150577
0.00329183 0.00139869 -1.4569e-05
0.00139869 0.000580551 -6.00967e-07
-1.4569e-05 -6.00967e-07 0.000130882
0.0020098 0.00160602 9.42285e-06
0.00160602 0.000367245 -8.2587e-06
9.42285e-06 -8.2587e-06 -0.000308186
0.00255407 0.00180271 4.92217e-06
0.00180271 0.000627036 9.42517e-05
4.92217e-06 9.42517e-05 5.55165e-05
0.00284287 0.00156041 7.26392e-06
0.00156041 0.00069109 -3.5967e-06
7.26392e-06 -3.5967e-06 -4.06142e-05
0.00363826 0.00135871 3.11386e-06
0.00135871 0.000613281 3.08162e-05
3.11386e-06 3.08162e-05 0.000375993
0.00253874 0.000683122 9.11497e-05
0.000683122 0.000120634 1.04239e-05
9.11497e-05 1.04239e-05 0.000412174
0.000474996 0.0010434 -4.56308e-06
0.0010434 -0.000752193 -3.10671e-05
-4.56308e-06 -3.10671e-05 -0.000849586
0.00126 0.00156162 -4.59153e-05
0.00156162 -6.67415e-05 5.83615e-06
-4.59153e-05 5.83615e-06 -0.000634702
0.00498878 0.00209047 5.15764e-05
0.00209047 -0.00101154 1.79074e-05
5.15764e-05 1.79074e-05 0.000748625
0.010322 0.00440889 -0.000110539
0.00440889 -0.00169262 -8.26115e-05
-0.000110539 -8.26115e-05 0.00202911
0.00692345 0.00293542 -0.000134976
0.00293542 0.00161646 -0.000119511
-0.000134976 -0.000119511 0.00176695
0.00375405 2.75398e-05 0.000105997
2.75398e-05 0.000175891 6.66783e-06
0.000105997 6.66783e-06 0.000659146
0.00446999 -0.000213912 -0.000163889
-0.000213912 -0.00213984 1.3004e-05
-0.000163889 1.3004e-05 -0.000123051
0.00527306 0.000363542 -7.7376e-05
0.000363542 -0.00230531 -4.94367e-05
-7.7376e-05 -4.94367e-05 0.000684388
0.00285972 -0.00142333 -0.000149352
-0.00142333 -0.00139909 0.000107595
-0.000149352 0.000107595 -0.0002252
0.00114944 -0.000949596 -0.000114041
-0.000949596 -0.00285393 2.20166e-05
-0.000114041 2.20166e-05 -0.00147895
0.00375028 -0.000682265 9.75985e-06
-0.000682265 1.65109e-05 -1.00266e-05
9.75985e-06 -1.00266e-05 0.000631316
0.00271349 -0.00015649 -2.22088e-05
-0.00015649 -0.000459672 -2.22257e-06
-2.22088e-05 -2.22257e-06 2.50525e-05
0.00288438 -0.000387408 1.18742e-05
-0.000387408 -0.000400065 -6.57983e-06
1.18742e-05 -6.57983e-06 2.63132e-05
0.0025647 0.000146916 7.57056e-06
0.000146916 -0.000633446 -2.32482e-06
7.57056e-06 -2.32482e-06 -0.000279295
0.00287535 -0.000881176 -2.38136e-05
-0.000881176 -0.000300511 1.39972e-05
-2.38136e-05 1.39972e-05 4.55109e-05
0.00292382 -0.000634563 -3.35655e-06
-0.000634563 -0.00028471 8.33103e-07
-3.35655e-06 8.33103e-07 6.94924e-06
0.00278413 -0.00044082 -1.37707e-06
-0.00044082 -0.000238983 -7.96682e-07
-1.37707e-06 -7.96682e-07 1.80782e-05
0.00293417 -0.000771772 -2.40985e-06
-0.000771772 -1.23764e-05 8.07942e-07
-2.40985e-06 8.07942e-07 0.00010484
0.00270384 -0.000594883 3.24252e-07
-0.000594883 -0.000165942 -2.22853e-07
3.24252e-07 -2.22853e-07 -3.30631e-05
0.00260172 -0.000486562 7.77462e-07
-0.000486562 -9.17762e-05 -2.2058e-07
7.77462e-07 -2.2058e-07 1.08457e-05
0.00266971 -0.000738432 -4.76723e-07
-0.000738432 -3.30813e-05 7.7791e-07
-4.76723e-07 7.7791e-07 -1.08719e-05
0.00257745 -0.000602 3.72025e-07
-0.000602 2.54181e-07 -7.24943e-08
3.72025e-07 -7.24943e-08 -3.18343e-06
0.00243587 -0.00053305 3.80389e-07
-0.00053305 3.05556e-05 9.68412e-08
3.80389e-07 9.68412e-08 -5.48586e-06
0.00263472 -0.000738632 1.5943e-06
-0.000738632 9.41718e-05 2.13451e-07
1.5943e-06 2.13451e-07 2.55854e-05
0.00247122 -0.000656187 5.95307e-07
-0.000656187 0.000102897 -2.33625e-07
5.95307e-07 -2.33625e-07 3.99435e-06
0.00241077 -0.000616504 -3.04477e-06
-0.000616504 0.000153988 5.99213e-07
-3.04477e-06 5.99213e-07 6.83346e-06
0.00240403 -0.000756831 4.70349e-07
-0.000756831 0.000123519 1.2475e-07
4.70349e-07 1.2475e-07 -4.50177e-05
0.00244076 -0.000723528 6.18177e-07
-0.000723528 0.000221511 -1.91585e-07
6.18177e-07 -1.91585e-07 2.13881e-06
0.00237658 -0.000660294 -1.65402e-06
-0.000660294 0.00027408 -2.06157e-06
-1.65402e-06 -2.06157e-06 3.81923e-06
0.00239111 -0.00076706 -4.34588e-07
-0.00076706 0.000267842 1.66444e-06
-4.34588e-07 1.66444e-06 -1.38193e-05
0.00237732 -0.000719146 -3.46231e-07
-0.000719146 0.000342777 8.46224e-08
-3.46231e-07 8.46224e-08 1.96405e-05
0.0016461 -0.00049583 -1.39625e-05
-0.00049583 0.000101143 4.45623e-06
-1.39625e-05 4.45623e-06 -0.000206755
0.000292517 -0.000301514 -1.76589e-05
-0.000301514 -0.000317622 2.29622e-05
-1.76589e-05 2.29622e-05 -0.000535962
0.00168585 -0.000576158 3.14577e-08
-0.000576158 0.00015258 1.38986e-07
3.14577e-08 1.38986e-07 -0.000214699
0.00230353 -0.000788548 -1.63674e-06
-0.000788548 0.000350103 3.17631e-06
-1.63674e-06 3.17631e-06 -5.31869e-05
0.00954586 -0.000224933 -0.000459176
-0.000224933 0.00591226 5.03366e-05
-0.000459176 5.03366e-05 0.00594108
0.000248972 -0.000335704 -4.41795e-07
-0.000335704 -0.000319768 1.37851e-06
-4.41795e-07 1.37851e-06 -0.00055286
0.00170525 -0.00064606 1.8901e-05
-0.00064606 0.000256078 -3.28247e-06
1.8901e-05 -3.28247e-06 -0.00017786
0.00981096 -0.000178476 -5.79216e-06
-0.000178476 0.00609928 3.01239e-06
-5.79216e-06 3.01239e-06 0.00612357
2.89824e-05 -0.000340615 2.08971e-05
-0.000340615 -0.000410379 -2.94331e-05
2.08971e-05 -2.94331e-05 -0.000657529
0.00982474 -0.000158485 0.000440544
-0.000158485 0.00613337 -5.36718e-05
0.000440544 -5.36718e-05 0.0061528
0.00224441 0.00098923 4.66905e-06
0.00098923 0.000223703 1.43685e-05
4.66905e-06 1.43685e-05 -0.000213669
0.00227688 0.000999712 2.86454e-06
0.000999712 0.000407454 -2.46621e-07
2.86454e-06 -2.46621e-07 -0.000103709
0.00255854 0.000982066 7.95826e-06
0.000982066 0.000650982 1.89151e-05
7.95826e-06 1.89151e-05 0.000108761
0.00247726 0.00114674 1.17448e-05
0.00114674 0.000771043 -1.47068e-05
1.17448e-05 -1.47068e-05 0.000114608
0.00227331 0.00103588 2.70759e-07
0.00103588 0.000613703 1.31357e-06
2.70759e-07 1.31357e-06 -1.96225e-05
0.00106993 0.000544044 -3.43829e-05
0.000544044 1.13632e-05 4.77868e-06
-3.43829e-05 4.77868e-06 -0.000431634
0.00245173 0.00096732 -1.59628e-05
0.00096732 0.000901767 -1.96609e-05
-1.59628e-05 -1.96609e-05 0.00026114
0.000857177 0.000429624 -1.21432e-06
0.000429624 3.48212e-05 3.67463e-07
-1.21432e-06 3.67463e-07 -0.000374971
-0.000154192 0.000303998 -3.26161e-05
0.000303998 -0.000502427 -3.38852e-05
-3.26161e-05 -3.38852e-05 -0.000700152
0.00196411 0.000262117 2.69453e-06
0.000262117 0.000819638 8.65086e-07
2.69453e-06 8.65086e-07 0.000510623
0.000259472 0.000278116 5.16896e-06
0.000278116 -0.000258205 -4.6316e-07
5.16896e-06 -4.6316e-07 -0.000426068
0.00865423 -0.000125767 -0.000296927
-0.000125767 0.00546993 -4.14176e-05
-0.000296927 -4.14176e-05 0.00544786
0.000368488 0.00026405 3.60032e-05
0.00026405 -0.000126475 3.02746e-05
3.60032e-05 3.02746e-05 -0.000279645
0.00732367 -0.000184199 -2.98868e-06
-0.000184199 0.00463265 -2.39673e-06
-2.98868e-06 -2.39673e-06 0.00459944
0.00512646 -0.000233267 9.95887e-05
-0.000233267 0.00320988 2.26234e-05
9.95887e-05 2.26234e-05 0.00316342
0.00166953 0.000490935 6.68539e-05
0.000490935 -0.000846242 4.48326e-05
6.68539e-05 4.48326e-05 -0.000215445
0.00145039 0.00102859 4.56594e-05
0.00102859 -0.0038486 -1.28623e-05
4.56594e-05 -1.28623e-05 -0.00138732
0.00609396 0.00198004 0.000310942
0.00198004 -0.00353467 0.00014537
0.000310942 0.00014537 0.00118962
0.00288983 0.00113291 -6.42355e-06
0.00113291 0.000377584 9.83585e-07
-6.42355e-06 9.83585e-07 2.73131e-05
0.00259929 0.00120124 -1.02548e-05
0.00120124 0.000454596 -3.81823e-06
-1.02548e-05 -3.81823e-06 -6.69159e-05
0.00257483 0.000834269 7.16219e-06
0.000834269 0.000168395 3.32405e-06
7.16219e-06 3.32405e-06 -4.25087e-05
0.00269958 0.00107791 1.08064e-06
0.00107791 0.000373301 2.15072e-07
1.08064e-06 2.15072e-07 -1.00664e-05
0.00231 0.00107203 -8.22197e-06
0.00107203 0.000379998 -1.7567e-05
-8.22197e-06 -1.7567e-05 -0.000121967
0.00305674 0.00101265 -4.82951e-06
0.00101265 0.000186712 2.06143e-06
-4.82951e-06 2.06143e-06 4.78562e-05
0.00295914 0.00155982 3.75108e-06
0.00155982 0.000832558 -7.66581e-06
3.75108e-06 -7.66581e-06 0.000129135
0.00313362 0.00132827 -6.35035e-07
0.00132827 0.000522026 -1.37768e-06
-6.35035e-07 -1.37768e-06 9.13302e-05
0.00244062 0.000630938 -4.9943e-06
0.000630938 -0.00041345 4.2616e-06
-4.9943e-06 4.2616e-06 -0.000169929
0.00212781 0.00156562 -8.72972e-06
0.00156562 0.000209953 1.98194e-05
-8.72972e-06 1.98194e-05 -0.000484678
0.00312732 0.00129373 4.14176e-06
0.00129373 0.000326564 -6.65075e-06
4.14176e-06 -6.65075e-06 0.000109427
0.000920828 0.000691006 -4.36005e-05
0.000691006 -0.00104188 -4.57662e-06
-4.36005e-05 -4.57662e-06 -0.000545632
-0.00345188 0.000605245 -1.71688e-05
0.000605245 -0.00285992 -1.88054e-05
-1.71688e-05 -1.88054e-05 -0.00282002
0.00623168 0.00224293 -0.000252227
0.00224293 -0.00029298 -0.00010419
-0.000252227 -0.00010419 0.00134846
0.00282365 0.000257999 1.76768e-06
0.000257999 -0.000333247 -1.19985e-06
1.76768e-06 -1.19985e-06 8.74518e-06
0.00350627 5.32673e-05 -2.9172e-06
5.32673e-05 -6.02087e-05 -7.94268e-06
-2.9172e-06 -7.94268e-06 0.000439941
0.00345771 -0.000452426 -0.000220856
-0.000452426 -0.00279651 -2.19645e-05
-0.000220856 -2.19645e-05 -0.000697168
0.00274121 -0.00061178 -0.000135279
-0.00061178 -0.000637529 3.6574e-05
-0.000135279 3.6574e-05 0.000110217
0.00245518 -0.000174162 -2.68015e-05
-0.000174162 -0.000564821 3.12683e-06
-2.68015e-05 3.12683e-06 -9.00126e-05
0.00275947 -0.000412461 7.12995e-06
-0.000412461 -0.000518041 -1.10982e-06
7.12995e-06 -1.10982e-06 -3.70317e-05
0.00292419 0.000164844 -1.28546e-06
0.000164844 -0.000364843 2.86509e-06
-1.28546e-06 2.86509e-06 -4.38241e-05
0.00278905 -7.54248e-05 3.41091e-07
-7.54248e-05 -0.000314269 -1.96574e-06
3.41091e-07 -1.96574e-06 1.08176e-05
0.00291155 -0.000659216 -3.22368e-06
-0.000659216 -0.000314026 3.16359e-06
-3.22368e-06 3.16359e-06 -5.14134e-05
0.00270968 -0.000421527 3.50967e-07
-0.000421527 -0.000274016 -2.83919e-07
3.50967e-07 -2.83919e-07 -2.34919e-05
0.00260887 -0.000314601 1.00348e-06
-0.000314601 -0.000150235 -8.5596e-07
1.00348e-06 -8.5596e-07 3.71461e-05
0.00270921 -0.000599632 6.91946e-07
-0.000599632 -0.000153208 7.30623e-07
6.91946e-07 7.30623e-07 -2.83981e-05
0.00258618 -0.000485813 2.7835e-07
-0.000485813 -9.82167e-05 1.56321e-07
2.7835e-07 1.56321e-07 -3.84898e-07
0.0024202 -0.000408449 7.3902e-07
-0.000408449 -3.13377e-05 1.00479e-08
7.3902e-07 1.00479e-08 -1.85335e-06
0.00257336 -0.000599603 1.52505e-07
-0.000599603 -9.69178e-06 1.38864e-07
1.52505e-07 1.38864e-07 -1.25398e-05
0.00243444 -0.000533219 3.29286e-07
-0.000533219 2.55271e-05 -1.20675e-08
3.29286e-07 -1.20675e-08 -1.0592e-05
0.00234307 -0.00049195 -3.72321e-06
-0.00049195 7.74257e-05 1.00825e-06
-3.72321e-06 1.00825e-06 -3.75449e-06
0.00247765 -0.000657085 9.03302e-07
-0.000657085 0.00010273 -4.31203e-07
9.03302e-07 -4.31203e-07 3.32947e-06
0.00244047 -0.000619821 4.55421e-07
-0.000619821 0.000171677 -3.25246e-07
4.55421e-07 -3.25246e-07 2.29223e-05
0.00239751 -0.000583107 -2.08928e-06
-0.000583107 0.000236256 -5.27383e-07
-2.08928e-06 -5.27383e-07 2.43972e-05
0.00241199 -0.000725339 1.6061e-06
-0.000725339 0.00020085 -1.39424e-07
1.6061e-06 -1.39424e-07 -1.6752e-05
0.00236748 -0.000659316 -9.6508e-07
-0.000659316 0.000268063 -1.30421e-07
-9.6508e-07 -1.30421e-07 -2.0472e-06
0.00161233 -0.000438374 -1.0242e-05
-0.000438374 5.43e-05 3.77339e-06
-1.0242e-05 3.77339e-06 -0.0002117
0.00231761 -0.000716618 8.15593e-07
-0.000716618 0.000301896 2.71964e-06
8.15593e-07 2.71964e-06 -1.96252e-05
0.00165942 -0.000498392 -8.93245e-08
-0.000498392 0.00010175 1.53968e-07
-8.93245e-08 1.53968e-07 -0.000205689
0.00316884 -0.000318141 -6.54661e-05
-0.000318141 0.00156783 1.74321e-05
-6.54661e-05 1.74321e-05 0.00139624
0.00342007 -0.000183662 -0.000370948
-0.000183662 0.00188876 6.13993e-05
-0.000370948 6.13993e-05 0.00187165
0.00182241 -0.000332089 -2.24011e-05
-0.000332089 0.000687031 6.23785e-07
-2.24011e-05 6.23785e-07 0.000482686
0.00164543 -0.00057213 1.81589e-05
-0.00057213 0.000126189 -4.70948e-06
1.81589e-05 -4.70948e-06 -0.00023909
0.00938108 -0.000230328 -7.16326e-06
-0.000230328 0.00581712 3.45064e-06
-7.16326e-06 3.45064e-06 0.00584189
0.000134329 -0.000358633 2.40114e-05
-0.000358633 -0.000393553 -2.5548e-05
2.40114e-05 -2.5548e-05 -0.000632749
0.00978547 -0.000190766 0.000442235
-0.000190766 0.00608905 -5.49231e-05
0.000442235 -5.49231e-05 0.00610897
0.0024282 0.000649556 4.06329e-06
0.000649556 9.38004e-05 1.17813e-06
4.06329e-06 1.17813e-06 -4.54554e-05
0.0024373 0.000858172 9.00515e-06
0.000858172 0.000244994 8.9113e-06
9.00515e-06 8.9113e-06 -5.38177e-05
0.0025142 0.0010128 7.23196e-07
0.0010128 0.000399789 -2.86458e-07
7.23196e-07 -2.86458e-07 -3.04322e-05
0.00249266 0.000904716 8.28302e-06
0.000904716 0.000532007 1.58383e-05
8.28302e-06 1.58383e-05 7.47655e-05
0.0023832 0.00101467 3.72164e-06
0.00101467 0.000481991 -1.75032e-05
3.72164e-06 -1.75032e-05 -2.96035e-05
0.00231204 0.000951518 1.23508e-06
0.000951518 0.000488035 2.05658e-07
1.23508e-06 2.05658e-07 -4.54481e-05
0.00146508 0.000633771 -3.91294e-05
0.000633771 0.000188758 1.10814e-06
-3.91294e-05 1.10814e-06 -0.000257811
0.00215834 0.00100947 -4.03518e-06
0.00100947 0.000541135 -1.85456e-05
-4.03518e-06 -1.85456e-05 -8.33662e-05
0.00118138 0.000564438 -3.43051e-06
0.000564438 6.86754e-05 2.92596e-07
-3.43051e-06 2.92596e-07 -0.000374925
-9.44144e-05 0.000340236 -3.12125e-05
0.000340236 -0.000466811 -2.94823e-05
-3.12125e-05 -2.94823e-05 -0.0006977
0.00139866 0.000409959 2.23829e-05
0.000409959 0.000410997 -3.4978e-06
2.23829e-05 -3.4978e-06 2.09332e-05
0.000292712 0.000278475 3.26711e-06
0.000278475 -0.000230073 -4.22403e-07
3.26711e-06 -4.22403e-07 -0.000424125
0.00965965 3.80175e-05 -0.000392351
3.80175e-05 0.00605494 -4.86269e-05
-0.000392351 -4.86269e-05 0.00605976
0.000651787 0.000272262 3.43529e-05
0.000272262 -2.05308e-05 3.19905e-05
3.43529e-05 3.19905e-05 -0.000178789
0.00851015 -0.000112674 1.35815e-05
-0.000112674 0.00535972 -3.42312e-06
1.35815e-05 -3.42312e-06 0.005346
0.00662336 -0.000222673 0.000162054
-0.000222673 0.00418287 2.51968e-05
0.000162054 2.51968e-05 0.00414094
0.00259015 0.000292573 -8.81225e-07
0.000292573 -0.000462019 3.51999e-06
-8.81225e-07 3.51999e-06 -9.94592e-05
0.00148275 0.000410184 -5.11088e-06
0.000410184 -0.00133981 -1.03812e-05
-5.11088e-06 -1.03812e-05 -0.000469621
0.00313705 0.00124844 -0.000202608
0.00124844 -0.00340814 -7.75687e-05
-0.000202608 -7.75687e-05 -0.000801491
0.00266643 0.000785457 -8.2504e-09
0.000785457 0.000111591 -2.92737e-07
-8.2504e-09 -2.92737e-07 -4.08147e-06
0.00277656 0.0011093 -5.05744e-06
0.0011093 0.000339695 -5.95423e-07
-5.05744e-06 -5.95423e-07 -1.23183e-06
0.00264718 0.00122952 -1.05024e-06
0.00122952 0.000474714 -9.28656e-06
-1.05024e-06 -9.28656e-06 -5.00482e-05
0.00256925 0.000817864 1.68456e-06
0.000817864 0.0001888 1.11218e-06
1.68456e-06 1.11218e-06 -2.62656e-05
0.00269499 0.00107167 -3.01964e-06
0.00107167 0.000367409 -1.04826e-05
-3.01964e-06 -1.04826e-05 -3.99965e-06
0.0029135 0.000620225 4.62589e-06
0.000620225 -6.37935e-05 8.5397e-07
4.62589e-06 8.5397e-07 8.352e-05
0.00293746 0.000999312 -1.69686e-06
0.000999312 0.000135285 1.03218e-06
-1.69686e-06 1.03218e-06 1.02176e-05
0.0030819 0.00127418 6.90178e-06
0.00127418 0.000524447 -2.58791e-06
6.90178e-06 -2.58791e-06 0.000108224
0.00234368 0.000572502 -1.89045e-07
0.000572502 -0.000393246 9.58706e-07
-1.89045e-07 9.58706e-07 -0.00013526
0.00260092 0.0011854 4.82025e-06
0.0011854 3.128e-05 -1.07385e-05
4.82025e-06 -1.07385e-05 -0.000158107
-0.000853743 0.000585522 -3.90497e-05
0.000585522 -0.00241046 -6.74925e-06
-3.90497e-05 -6.74925e-06 -0.00150502
0.00269673 0.000140491 2.74677e-06
0.000140491 -0.000244574 4.09132e-07
2.74677e-06 4.09132e-07 2.25268e-05
0.00278003 0.000237363 1.47508e-06
0.000237363 -0.000366124 -9.58155e-07
1.47508e-06 -9.58155e-07 -2.16088e-05
0.00330089 6.32993e-05 -7.65718e-05
6.32993e-05 -0.000221127 1.41718e-05
-7.65718e-05 1.41718e-05 0.000258036
0.00263013 -0.000446072 -3.06059e-05
-0.000446072 -0.000657852 9.72914e-06
-3.06059e-05 9.72914e-06 -0.000115519
0.00324732 0.00018827 -3.16678e-06
0.00018827 -0.000136993 -2.93842e-08
-3.16678e-06 -2.93842e-08 0.000161449
0.00279182 -7.64472e-05 -9.49465e-07
-7.64472e-05 -0.000321284 -5.91152e-07
-9.49465e-07 -5.91152e-07 -9.27375e-07
0.00247809 -8.73702e-05 9.2182e-07
-8.73702e-05 -0.000174579 -5.72776e-07
9.2182e-07 -5.72776e-07 -4.7555e-06
0.00263165 -0.000401383 1.53185e-06
-0.000401383 -0.000310605 -1.48582e-07
1.53185e-06 -1.48582e-07 -6.64141e-05
0.00257303 -0.000325169 -3.17811e-08
-0.000325169 -0.00016683 1.05365e-07
-3.17811e-08 1.05365e-07 9.26594e-06
0.00236705 -0.000268993 1.87539e-06
-0.000268993 -8.17759e-05 -7.17365e-07
1.87539e-06 -7.17365e-07 -1.3219e-05
0.00256707 -0.000484848 -1.1071e-06
-0.000484848 -0.000107162 3.76633e-07
-1.1071e-06 3.76633e-07 -1.39364e-05
0.00241349 -0.000407095 1.88326e-08
-0.000407095 -3.95522e-05 9.09908e-08
1.88326e-08 9.09908e-08 -9.88523e-06
0.00230654 -0.000372771 -4.02533e-06
-0.000372771 2.84733e-05 9.52921e-07
-4.02533e-06 9.52921e-07 -4.73758e-06
0.00243347 -0.000533488 2.76057e-07
-0.000533488 2.05903e-05 -2.47507e-07
2.76057e-07 -2.47507e-07 -1.56322e-05
0.00236258 -0.000494995 3.15059e-07
-0.000494995 8.67367e-05 -1.2434e-07
3.15059e-07 -1.2434e-07 4.08295e-06
0.00236328 -0.000479948 -2.78035e-06
-0.000479948 0.000176612 2.14796e-07
-2.78035e-06 2.14796e-07 2.21236e-05
0.0024719 -0.000623182 3.15949e-06
-0.000623182 0.000191122 -1.03826e-06
3.15949e-06 -1.03826e-06 4.07624e-05
0.00235449 -0.000577619 -7.30629e-07
-0.000577619 0.000212238 -1.00885e-07
-7.30629e-07 -1.00885e-07 1.67485e-06
0.00157471 -0.000374704 -7.88803e-06
-0.000374704 6.54225e-06 2.98536e-06
-7.88803e-06 2.98536e-06 -0.000221909
0.00235654 -0.000658234 1.72855e-06
-0.000658234 0.000260574 8.57683e-07
1.72855e-06 8.57683e-07 -9.36121e-06
0.00163763 -0.000441274 -9.7349e-08
-0.000441274 6.30393e-05 3.96447e-08
-9.7349e-08 3.96447e-08 -0.000202437
0.00301965 -0.000283911 -7.04902e-05
-0.000283911 0.00147104 1.60622e-05
-7.04902e-05 1.60622e-05 0.00132034
0.00166428 -0.00050194 1.23632e-05
-0.00050194 9.35296e-05 -4.33711e-06
1.23632e-05 -4.33711e-06 -0.000213935
0.00326865 -0.000346848 6.22028e-05
-0.000346848 0.00163687 -1.13298e-05
6.22028e-05 -1.13298e-05 0.00147911
0.0029848 -0.000190002 -0.000338568
-0.000190002 0.00162114 6.10028e-05
-0.000338568 6.10028e-05 0.00159825
0.00593711 -0.000226687 -0.000327113
-0.000226687 0.0035676 4.46688e-05
-0.000327113 4.46688e-05 0.00356756
0.00345917 -0.000415596 0.000205849
-0.000415596 0.00177382 -3.94085e-05
0.000205849 -3.94085e-05 0.00160733
0.00917302 -0.000232681 0.000429217
-0.000232681 0.00568996 -5.68834e-05
0.000429217 -5.68834e-05 0.00570976
0.00248774 0.000622036 -2.79872e-07
0.000622036 8.59778e-05 -1.06114e-06
-2.79872e-07 -1.06114e-06 9.9538e-06
0.00244716 0.000695919 3.41751e-06
0.000695919 0.000239542 3.86215e-06
3.41751e-06 3.86215e-06 3.02487e-05
0.00243847 0.000636927 6.5462e-07
0.000636927 0.00011116 -1.11598e-07
6.5462e-07 -1.11598e-07 -1.97998e-05
0.00233557 0.000765041 2.79554e-06
0.000765041 0.000320589 1.10764e-05
2.79554e-06 1.10764e-05 -2.98155e-05
0.00250678 0.000860828 -4.41472e-08
0.000860828 0.000283131 -3.35054e-07
-4.41472e-08 -3.35054e-07 -1.74703e-05
0.00281981 0.00103994 -4.62318e-06
0.00103994 0.000599513 -1.3587e-05
-4.62318e-06 -1.3587e-05 0.00017616
0.00232414 0.000890028 7.72399e-07
0.000890028 0.000412726 2.66825e-07
7.72399e-07 2.66825e-07 -4.11016e-05
0.00166013 0.000627754 -3.32578e-05
0.000627754 0.000167609 -4.46684e-07
-3.32578e-05 -4.46684e-07 -0.000235736
0.00200664 0.000916518 -4.83464e-06
0.000916518 0.000282809 -1.83116e-05
-4.83464e-06 -1.83116e-05 -0.000241364
0.00148084 0.000664153 -3.60155e-06
0.000664153 0.000174268 1.85583e-07
-3.60155e-06 1.85583e-07 -0.000285653
0.00024665 0.000368711 -2.93352e-05
0.000368711 -0.000299928 -2.41035e-05
-2.93352e-05 -2.41035e-05 -0.000542399
0.00135855 0.000560845 3.58661e-05
0.000560845 0.000145556 -2.87129e-06
3.58661e-05 -2.87129e-06 -0.000285372
-3.11979e-05 0.000302043 1.61263e-06
0.000302043 -0.000437981 2.21442e-06
1.61263e-06 2.21442e-06 -0.000657113
0.00987839 0.000143795 -0.000420587
0.000143795 0.00616153 -5.45337e-05
-0.000420587 -5.45337e-05 0.00617208
0.000160802 0.000231017 2.80697e-05
0.000231017 -0.000327302 3.22183e-05
2.80697e-05 3.22183e-05 -0.000512558
0.00908946 -1.54233e-05 1.58255e-05
-1.54233e-05 0.00568393 -1.40534e-06
1.58255e-05 -1.40534e-06 0.00568643
0.00831151 -0.000137682 0.000266491
-0.000137682 0.00522547 2.64654e-05
0.000266491 2.64654e-05 0.00521161
0.00275117 0.000378198 2.87697e-06
0.000378198 -0.000172262 4.97772e-07
2.87697e-06 4.97772e-07 4.23305e-05
0.00246757 0.000305911 2.66069e-06
0.000305911 -0.0004568 -2.31476e-06
2.66069e-06 -2.31476e-06 -9.74157e-05
0.000443583 0.000366843 -6.35995e-05
0.000366843 -0.00234981 -1.28266e-05
-6.35995e-05 -1.28266e-05 -0.00125654
0.00258457 0.000542322 3.15626e-06
0.000542322 -4.87644e-05 4.56044e-07
3.15626e-06 4.56044e-07 -1.55941e-06
0.00260056 0.0007801 -1.08592e-06
0.0007801 7.79191e-05 9.37487e-07
-1.08592e-06 9.37487e-07 -2.97479e-05
0.00267407 0.00108348 6.32608e-06
0.00108348 0.000309923 -3.94519e-06
6.32608e-06 -3.94519e-06 -1.96961e-05
0.00257099 0.000802227 -5.98882e-06
0.000802227 0.000211691 -3.24696e-06
-5.98882e-06 -3.24696e-06 -5.87451e-06
0.00283031 0.000608514 -2.10663e-06
0.000608514 -0.000108266 5.58356e-07
-2.10663e-06 5.58356e-07 3.24783e-05
0.00283541 0.000985729 7.308e-07
0.000985729 0.000102297 -3.43118e-06
7.308e-07 -3.43118e-06 -1.16964e-05
0.00219596 0.000569779 2.98001e-06
0.000569779 -0.000368088 -7.39785e-06
2.98001e-06 -7.39785e-06 -0.000117896
0.00252887 0.000111532 2.64269e-06
0.000111532 -0.000153248 2.72842e-07
2.64269e-06 2.72842e-07 7.30425e-06
0.00265838 0.000143322 -2.17228e-07
0.000143322 -0.000250326 -2.61182e-07
-2.17228e-07 -2.61182e-07 8.52137e-06
0.00273706 0.000232208 -1.18395e-05
0.000232208 -0.000384302 2.76118e-06
-1.18395e-05 2.76118e-06 -4.62524e-05
0.00233047 -1.13958e-05 8.47245e-07
-1.13958e-05 -0.000153502 -2.95195e-07
8.47245e-07 -2.95195e-07 -3.63625e-05
0.00281265 -8.15007e-05 3.45456e-07
-8.15007e-05 -0.000313861 7.75568e-07
3.45456e-07 7.75568e-07 3.4579e-07
0.00248681 -9.19813e-05 -4.21206e-08
-9.19813e-05 -0.000168017 3.38191e-07
-4.21206e-08 3.38191e-07 5.02449e-07
0.002338 -0.00013955 7.58317e-07
-0.00013955 -9.12704e-05 -3.37108e-07
7.58317e-07 -3.37108e-07 -1.13738e-05
0.00253449 -0.000335481 -7.37944e-07
-0.000335481 -0.000185581 7.30755e-07
-7.37944e-07 7.30755e-07 -2.06498e-05
0.00237135 -0.00026539 6.09583e-07
-0.00026539 -8.06624e-05 -4.53901e-07
6.09583e-07 -4.53901e-07 -1.12295e-05
0.00225404 -0.000255596 -3.03535e-06
-0.000255596 -1.35493e-05 5.27714e-07
-3.03535e-06 5.27714e-07 -1.8491e-05
0.00240906 -0.000405476 -4.10381e-07
-0.000405476 -4.62396e-05 1.14053e-07
-4.10381e-07 1.14053e-07 -1.63622e-05
0.00230702 -0.000372118 9.1992e-08
-0.000372118 2.57991e-05 -2.2467e-08
9.1992e-08 -2.2467e-08 -7.00428e-06
0.00234694 -0.0003679 -3.11698e-06
-0.0003679 0.000134555 1.01612e-06
-3.11698e-06 1.01612e-06 2.96585e-05
0.00238388 -0.000498023 3.98383e-06
-0.000498023 9.7208e-05 -1.24679e-06
3.98383e-06 -1.24679e-06 1.30964e-05
0.00233525 -0.000474821 -4.12595e-07
-0.000474821 0.000164823 -2.82719e-07
-4.12595e-07 -2.82719e-07 1.12118e-05
0.00159701 -0.000307467 -5.93326e-06
-0.000307467 5.66158e-06 1.84629e-06
-5.93326e-06 1.84629e-06 -0.000187508
0.00230673 -0.000571702 2.00201e-06
-0.000571702 0.000184983 -1.90873e-07
2.00201e-06 -1.90873e-07 -2.42036e-05
0.00163301 -0.000378665 -2.74487e-07
-0.000378665 3.63821e-05 2.31485e-07
-2.74487e-07 2.31485e-07 -0.000191442
0.00287805 -0.000251656 -7.46588e-05
-0.000251656 0.00138425 1.46673e-05
-7.46588e-05 1.46673e-05 0.00125032
0.00165961 -0.000444221 8.47579e-06
-0.000444221 6.94377e-05 -3.70302e-06
8.47579e-06 -3.70302e-06 -0.000195482
0.00312838 -0.000299814 5.65514e-05
-0.000299814 0.00154206 -8.70762e-06
5.65514e-05 -8.70762e-06 0.00140544
0.00289872 -0.000158935 -0.000326454
-0.000158935 0.00156058 5.16605e-05
-0.000326454 5.16605e-05 0.00154189
0.00336055 -0.000346768 0.000192805
-0.000346768 0.00169158 -3.80126e-05
0.000192805 -3.80126e-05 0.001552
0.00253915 -0.000123535 -0.000127411
-0.000123535 0.00132781 2.15723e-05
-0.000127411 2.15723e-05 0.00128513
0.0083008 -0.00016085 0.000160153
-0.00016085 0.00511069 -1.36256e-05
0.000160153 -1.36256e-05 0.00508584
0.00246548 0.000521245 -2.86903e-08
0.000521245 5.87606e-05 3.2835e-07
-2.86903e-08 3.2835e-07 1.86983e-05
0.00243157 0.000598976 -2.06898e-06
0.000598976 0.000156723 -5.10489e-07
-2.06898e-06 -5.10489e-07 2.95047e-05
0.00250815 0.000618088 -2.23547e-06
0.000618088 0.000102987 1.20981e-07
-2.23547e-06 1.20981e-07 2.09609e-05
0.00222395 0.000641805 -1.1518e-06
0.000641805 0.00017847 4.40568e-06
-1.1518e-06 4.40568e-06 -9.41223e-05
0.00247614 0.000707557 -7.84075e-07
0.000707557 0.000228892 -1.85147e-06
-7.84075e-07 -1.85147e-06 3.32908e-05
0.00245239 0.000623496 -7.06931e-06
0.000623496 0.000132774 -3.07628e-06
-7.06931e-06 -3.07628e-06 9.83573e-06
0.00169595 0.000536626 -2.30743e-05
0.000536626 9.19204e-05 -1.37535e-06
-2.30743e-05 -1.37535e-06 -0.000233771
0.00231129 0.000764562 1.68292e-06
0.000764562 0.000299145 3.08177e-07
1.68292e-06 3.08177e-07 -5.11995e-05
0.00261131 0.000867854 -4.68011e-06
0.000867854 0.000344193 -7.81271e-06
-4.68011e-06 -7.81271e-06 3.97672e-05
0.00215011 0.00087485 -7.20977e-06
0.00087485 0.000288937 -1.56057e-05
-7.20977e-06 -1.56057e-05 -0.00016112
0.00173674 0.000635812 -6.80279e-07
0.000635812 0.000220276 2.69301e-07
-6.80279e-07 2.69301e-07 -0.000186784
0.000431049 0.000345705 -2.59335e-05
0.000345705 -0.000217897 -2.0067e-05
-2.59335e-05 -2.0067e-05 -0.000447703
0.00186119 0.000719521 4.31667e-05
0.000719521 0.000391857 1.24802e-06
4.31667e-05 1.24802e-06 -8.28651e-05
0.000158793 0.000342839 8.17607e-07
0.000342839 -0.000346566 1.62477e-06
8.17607e-07 1.62477e-06 -0.000584052
0.00929035 0.000225651 -0.000413728
0.000225651 0.00577723 -6.00864e-05
-0.000413728 -6.00864e-05 0.0057841
0.000178901 0.000281923 2.84769e-05
0.000281923 -0.000308856 2.91127e-05
2.84769e-05 2.91127e-05 -0.000522199
0.00972978 0.000102299 8.03354e-06
0.000102299 0.00605928 1.65937e-06
8.03354e-06 1.65937e-06 0.00607513
0.00915576 -3.94751e-05 0.000339218
-3.94751e-05 0.00572097 2.95198e-05
0.000339218 2.95198e-05 0.0057288
0.00249393 0.000302614 1.18814e-06
0.000302614 -0.000117218 1.14256e-06
1.18814e-06 1.14256e-06 -3.54863e-06
0.00269741 0.00038556 -9.82674e-07
0.00038556 -0.000240138 8.49517e-07
-9.82674e-07 8.49517e-07 -1.43578e-05
0.00240125 0.0002831 -5.8446e-06
0.0002831 -0.000452084 -9.49261e-07
-5.8446e-06 -9.49261e-07 -8.26801e-05
0.0025755 0.000537528 -6.46724e-07
0.000537528 -5.04432e-05 3.07996e-07
-6.46724e-07 3.07996e-07 -2.10453e-06
0.00254168 0.000776872 -1.78044e-06
0.000776872 4.83337e-05 -1.62577e-06
-1.78044e-06 -1.62577e-06 -5.13895e-05
0.00275456 0.000593029 -1.71847e-07
0.000593029 -0.000159195 -2.04161e-06
-1.71847e-07 -2.04161e-06 -2.07309e-05
0.00241975 0.000103125 2.31853e-06
0.000103125 -8.98843e-05 2.12925e-07
2.31853e-06 2.12925e-07 1.01543e-05
0.00252443 0.000110702 1.22148e-07
0.000110702 -0.000149958 -9.34308e-08
1.22148e-07 -9.34308e-08 8.83144e-06
0.00258633 0.000144259 -2.34158e-06
0.000144259 -0.00028689 -5.34442e-08
-2.34158e-06 -5.34442e-08 -3.36867e-05
0.00237245 -7.22327e-06 -6.82275e-07
-7.22327e-06 -0.000119833 -1.96573e-09
-6.82275e-07 -1.96573e-09 -6.15998e-06
0.00230448 -3.11452e-05 -2.63304e-07
-3.11452e-05 -5.00256e-05 -3.59083e-07
-2.63304e-07 -3.59083e-07 1.42498e-05
0.00249419 -9.66314e-05 -1.88244e-06
-9.66314e-05 -0.000162641 9.06725e-07
-1.88244e-06 9.06725e-07 4.63711e-06
0.00234111 -0.000141837 -8.75764e-07
-0.000141837 -7.98154e-05 2.65456e-07
-8.75764e-07 2.65456e-07 -5.91239e-06
0.00217798 -0.000155817 -3.24437e-06
-0.000155817 -6.52413e-05 5.43779e-07
-3.24437e-06 5.43779e-07 -4.70795e-05
0.00237272 -0.000262015 -3.09944e-07
-0.000262015 -8.11102e-05 -1.52446e-07
-3.09944e-07 -1.52446e-07 -1.08262e-05
0.00224612 -0.000253705 9.44065e-07
-0.000253705 -1.72571e-05 -2.9477e-07
9.44065e-07 -2.9477e-07 -2.16907e-05
0.00238613 -0.000269481 -2.63979e-06
-0.000269481 0.00012892 1.32733e-06
-2.63979e-06 1.32733e-06 6.16879e-05
0.00230145 -0.00037211 4.12345e-06
-0.00037211 1.92426e-05 -9.99017e-07
4.12345e-06 -9.99017e-07 -1.33002e-05
0.0023354 -0.000366174 -2.21508e-09
-0.000366174 0.000129009 -2.03808e-07
-2.21508e-09 -2.03808e-07 2.50241e-05
0.00160159 -0.000239333 -4.4977e-06
-0.000239333 -6.84134e-07 1.10009e-06
-4.4977e-06 1.10009e-06 -0.000163214
0.00230561 -0.00046964 2.80188e-06
-0.00046964 0.000151619 -9.56968e-07
2.80188e-06 -9.56968e-07 -1.0967e-06
0.00163216 -0.000309999 -3.5577e-07
-0.000309999 1.76479e-05 1.81442e-07
-3.5577e-07 1.81442e-07 -0.000174947
0.0027478 -0.000225848 -7.4453e-05
-0.000225848 0.00131007 1.23754e-05
-7.4453e-05 1.23754e-05 0.00119171
0.00169449 -0.00038295 6.76605e-06
-0.00038295 6.81069e-05 -2.67957e-06
6.76605e-06 -2.67957e-06 -0.000159086
0.00300077 -0.000249279 5.30971e-05
-0.000249279 0.00145916 -6.60484e-06
5.30971e-05 -6.60484e-06 0.00134106
0.00279566 -0.00012846 -0.000315747
-0.00012846 0.00149146 4.19223e-05
-0.000315747 4.19223e-05 0.0014767
0.00324526 -0.000289053 0.000185597
-0.000289053 0.00160823 -3.1271e-05
0.000185597 -3.1271e-05 0.00148985
0.00247235 -0.000114477 -0.000115717
-0.000114477 0.0012866 1.64523e-05
-0.000115717 1.64523e-05 0.00124671
0.00213595 -0.000114114 9.02788e-05
-0.000114114 0.00108191 -1.65414e-05
9.02788e-05 -1.65414e-05 0.00101141
0.00236644 0.000329337 1.03047e-06
0.000329337 -4.28818e-05 5.25469e-07
1.03047e-06 5.25469e-07 -1.5752e-05
0.00233203 0.000467201 -3.18103e-06
0.000467201 7.42453e-05 5.4337e-08
-3.18103e-06 5.4337e-08 -1.12604e-05
0.00245539 0.000522598 -7.82449e-07
0.000522598 2.94252e-05 -2.79021e-07
-7.82449e-07 -2.79021e-07 3.00732e-06
0.00233255 0.000575355 -1.24198e-07
0.000575355 0.000177561 1.62664e-06
-1.24198e-07 1.62664e-06 -2.24958e-05
0.00242241 0.000595423 -3.54578e-07
0.000595423 0.000161057 -2.07236e-07
-3.54578e-07 -2.07236e-07 2.54874e-05
0.00252735 0.000615233 -2.05904e-07
0.000615233 0.000118464 4.69212e-07
-2.05904e-07 4.69212e-07 3.00816e-05
0.00164371 0.000451098 -1.47476e-05
0.000451098 5.331e-05 -1.71062e-06
-1.47476e-05 -1.71062e-06 -0.000215416
0.00229465 0.000654919 -2.65572e-07
0.000654919 0.000214241 -1.6887e-06
-2.65572e-07 -1.6887e-06 -4.76102e-05
0.00249482 0.000718993 -4.41386e-06
0.000718993 0.000210097 -4.59685e-06
-4.41386e-06 -4.59685e-06 2.84783e-05
0.000412987 0.000275637 -2.17964e-05
0.000275637 -0.00024504 -1.59668e-05
-2.17964e-05 -1.59668e-05 -0.000442893
0.00167364 0.00052705 2.3372e-07
0.00052705 9.42836e-05 -2.88344e-08
2.3372e-07 -2.88344e-08 -0.000229652
0.00232029 0.000764578 -2.33305e-06
0.000764578 0.000305856 -1.19437e-05
-2.33305e-06 -1.19437e-05 -4.41003e-05
0.00176401 0.00064078 3.60127e-05
0.00064078 0.000239192 8.86951e-07
3.60127e-05 8.86951e-07 -0.000171325
0.000298071 0.000332054 3.84409e-07
0.000332054 -0.000301006 1.00843e-06
3.84409e-07 1.00843e-06 -0.000530623
0.00872295 0.000308675 -0.00040834
0.000308675 0.00541234 -6.35046e-05
-0.00040834 -6.35046e-05 0.00541439
6.39321e-05 0.000313117 2.56575e-05
0.000313117 -0.00040165 2.30843e-05
2.56575e-05 2.30843e-05 -0.000632499
0.00944835 0.000208912 9.40947e-06
0.000208912 0.00586609 2.64701e-06
9.40947e-06 2.64701e-06 0.00588257
0.00935808 6.33286e-05 0.000377504
6.33286e-05 0.00581139 3.61995e-05
0.000377504 3.61995e-05 0.00582742
0.00240555 0.000188267 1.64778e-06
0.000188267 -4.84553e-05 4.1352e-07
1.64778e-06 4.1352e-07 2.94794e-05
0.00246376 0.000307786 4.76062e-07
0.000307786 -0.000144765 4.07968e-07
4.76062e-07 4.07968e-07 -3.09652e-05
0.00266439 0.000397636 -7.86301e-07
0.000397636 -0.000283933 -1.13735e-06
-7.86301e-07 -1.13735e-06 -5.02207e-05
0.00255713 0.00053052 4.32072e-07
0.00053052 -5.89267e-05 -7.80552e-07
4.32072e-07 -7.80552e-07 -1.01937e-05
0.00225989 4.73061e-05 -4.44777e-07
4.73061e-05 -3.3036e-05 -1.40408e-08
-4.44777e-07 -1.40408e-08 2.92422e-06
0.00242004 9.13021e-05 1.325e-07
9.13021e-05 -9.38091e-05 -1.32878e-07
1.325e-07 -1.32878e-07 9.56481e-06
0.00252913 0.000109544 -1.9482e-06
0.000109544 -0.000139004 -2.6569e-07
-1.9482e-06 -2.6569e-07 1.70573e-05
0.00240986 -2.72358e-06 -3.27867e-06
-2.72358e-06 -8.91897e-05 4.56794e-07
-3.27867e-06 4.56794e-07 2.09898e-05
0.00231752 -2.50353e-05 -6.51037e-07
-2.50353e-05 -4.676e-05 -1.62118e-07
-6.51037e-07 -1.62118e-07 2.11042e-05
0.00223755 -5.72215e-05 -4.20528e-06
-5.72215e-05 6.62564e-06 2.09939e-08
-4.20528e-06 2.09939e-08 2.10392e-05
0.00234415 -0.000144008 -6.9364e-07
-0.000144008 -6.85316e-05 5.2682e-07
-6.9364e-07 5.2682e-07 -7.76955e-07
0.00223434 -0.000156982 -1.59413e-06
-0.000156982 -1.57922e-05 3.0249e-07
-1.59413e-06 3.0249e-07 -5.64293e-06
0.00230165 -0.000177373 -2.43089e-06
-0.000177373 4.68923e-05 7.13266e-07
-2.43089e-06 7.13266e-07 5.38683e-06
0.00224517 -0.000251262 4.93721e-06
-0.000251262 -1.73924e-05 -1.11194e-06
4.93721e-06 -1.11194e-06 -2.11802e-05
0.00237327 -0.000267255 6.77329e-07
-0.000267255 0.000123896 -1.24219e-07
6.77329e-07 -1.24219e-07 5.66551e-05
0.00158806 -0.00017651 -4.8997e-06
-0.00017651 -1.439e-05 1.00838e-06
-4.8997e-06 1.00838e-06 -0.000154251
0.00233397 -0.00036345 3.1779e-06
-0.00036345 0.000130537 -1.44206e-06
3.1779e-06 -1.44206e-06 2.77301e-05
0.0015999 -0.000239594 -9.43275e-08
-0.000239594 -1.33871e-05 4.08277e-08
-9.43275e-08 4.08277e-08 -0.000175341
0.000298086 -0.00012137 -1.59771e-05
-0.00012137 -0.0003137 7.24868e-06
-1.59771e-05 7.24868e-06 -0.000435343
0.0016707 -0.000312484 5.23427e-06
-0.000312484 3.28851e-05 -1.74094e-06
5.23427e-06 -1.74094e-06 -0.000159057
0.00162984 -0.000166818 7.78669e-05
-0.000166818 0.00055727 -6.83758e-06
7.78669e-05 -6.83758e-06 0.000446242
0.00738448 -0.000201881 -0.000409839
-0.000201881 0.00454626 3.55611e-05
-0.000409839 3.55611e-05 0.0045788
0.00313487 -0.000231437 0.000178203
-0.000231437 0.00153591 -2.40467e-05
0.000178203 -2.40467e-05 0.0014357
0.00238397 -0.000102183 -0.000104446
-0.000102183 0.00123461 1.05394e-05
-0.000104446 1.05394e-05 0.00119674
0.00203546 -0.000123608 0.000100292
-0.000123608 0.00102657 -1.74702e-05
0.000100292 -1.74702e-05 0.00095685
0.00231276 0.000221847 6.47656e-07
0.000221847 -1.74615e-05 -2.54402e-07
6.47656e-07 -2.54402e-07 7.38255e-06
0.00225585 0.000352597 -2.5868e-06
0.000352597 1.53909e-06 1.47259e-07
-2.5868e-06 1.47259e-07 -3.64821e-05
0.00239025 0.000320957 -4.03494e-07
0.000320957 -9.97544e-06 -7.43042e-08
-4.03494e-07 -7.43042e-08 9.16916e-06
0.00227576 0.000456039 2.45563e-07
0.000456039 0.000112813 1.70505e-06
2.45563e-07 1.70505e-06 -2.75359e-05
0.00233848 0.000469197 1.21082e-07
0.000469197 8.29446e-05 -1.20516e-07
1.21082e-07 -1.20516e-07 -1.36997e-06
0.00244321 0.00052377 -4.13955e-07
0.00052377 -9.32189e-07 -6.13563e-07
-4.13955e-07 -6.13563e-07 -1.38927e-05
0.00170779 0.000398223 -6.65581e-06
0.000398223 8.10685e-05 4.67015e-07
-6.65581e-06 4.67015e-07 -0.000138024
0.0023008 0.000568854 -1.52526e-06
0.000568854 0.000158756 -8.43584e-07
-1.52526e-06 -8.43584e-07 -4.38316e-05
0.00239888 0.000590108 1.73242e-06
0.000590108 0.000156701 -5.29018e-07
1.73242e-06 -5.29018e-07 1.28734e-05
0.000381859 0.000205049 -1.81874e-05
0.000205049 -0.000270976 -1.17115e-05
-1.81874e-05 -1.17115e-05 -0.000438912
0.00161457 0.000447176 5.07796e-07
0.000447176 4.08246e-05 2.91831e-07
5.07796e-07 2.91831e-07 -0.000220497
0.00230087 0.000662629 -1.65027e-06
0.000662629 0.000204741 -8.96893e-06
-1.65027e-06 -8.96893e-06 -4.55162e-05
0.00827772 0.000352161 -0.000407161
0.000352161 0.00512863 -6.09605e-05
-0.000407161 -6.09605e-05 0.00513022
0.000360151 0.000274723 3.23376e-07
0.000274723 -0.000286056 7.94157e-07
3.23376e-07 7.94157e-07 -0.000486752
0.00165479 0.000518649 2.58036e-05
0.000518649 9.86763e-05 1.11101e-06
2.58036e-05 1.11101e-06 -0.00022385
0.000236063 0.000319978 2.38093e-05
0.000319978 -0.000338106 2.03605e-05
2.38093e-05 2.03605e-05 -0.0005679
0.00889427 0.000308124 9.54166e-06
0.000308124 0.00552006 3.64261e-06
9.54166e-06 3.64261e-06 0.00552787
0.00960765 0.000183987 0.000438967
0.000183987 0.00595068 4.58377e-05
0.000438967 4.58377e-05 0.00597613
0.00222278 0.000119383 -1.32625e-06
0.000119383 -3.84808e-05 1.98116e-07
-1.32625e-06 1.98116e-07 -1.82607e-05
0.00240195 0.000182342 -7.90412e-08
0.000182342 -5.29587e-05 -1.25694e-08
-7.90412e-08 -1.25694e-08 2.20234e-05
0.00243414 0.000313118 -6.05113e-07
0.000313118 -0.000171406 -7.45245e-07
-6.05113e-07 -7.45245e-07 -5.73443e-05
0.0022513 2.62308e-05 -6.15537e-06
2.62308e-05 4.94563e-05 -3.10784e-07
-6.15537e-06 -3.10784e-07 4.87247e-05
0.00224416 5.54369e-05 9.01985e-07
5.54369e-05 -4.8098e-05 5.11465e-08
9.01985e-07 5.11465e-08 -7.30672e-06
0.0024229 7.87217e-05 -2.44734e-06
7.87217e-05 -9.61777e-05 1.94993e-08
-2.44734e-06 1.94993e-08 1.07229e-05
0.00233284 -1.90106e-05 -6.58229e-07
-1.90106e-05 -4.23362e-05 4.40878e-07
-6.58229e-07 4.40878e-07 2.93912e-05
0.00224091 -5.66801e-05 -2.5888e-07
-5.66801e-05 7.69816e-06 1.89449e-08
-2.5888e-07 1.89449e-08 2.34947e-05
0.00209068 -8.08967e-05 -2.35216e-06
-8.08967e-05 -8.54466e-05 1.91017e-07
-2.35216e-06 1.91017e-07 -0.000137167
0.00228939 -0.000158394 3.98151e-06
-0.000158394 3.35375e-05 -4.16698e-07
3.98151e-06 -4.16698e-07 3.57621e-05
0.00228272 -0.000180052 5.58358e-07
-0.000180052 4.56816e-05 8.28648e-09
5.58358e-07 8.28648e-09 -7.40001e-06
0.00168157 -0.000114894 -5.29041e-06
-0.000114894 4.88319e-05 6.21906e-07
-5.29041e-06 6.21906e-07 -6.21311e-05
0.00235186 -0.000266131 3.50306e-06
-0.000266131 0.000113714 -1.54068e-06
3.50306e-06 -1.54068e-06 4.61754e-05
0.00156588 -0.000172964 5.19042e-08
-0.000172964 -4.29708e-05 -3.33175e-08
5.19042e-08 -3.33175e-08 -0.000181825
0.000251092 -4.82118e-05 -1.42763e-05
-4.82118e-05 -0.000334739 4.20319e-06
-1.42763e-05 4.20319e-06 -0.000442121
0.0016006 -0.000238498 4.40406e-06
-0.000238498 -2.72429e-05 -1.37815e-06
4.40406e-06 -1.37815e-06 -0.000188294
0.000307826 -0.000105738 -4.00534e-07
-0.000105738 -0.000301999 4.73843e-07
-4.00534e-07 4.73843e-07 -0.000422253
0.00724392 -9.43984e-05 -0.000396517
-9.43984e-05 0.0044456 2.31539e-05
-0.000396517 2.31539e-05 0.00448558
0.000449166 -0.000124446 1.25302e-05
-0.000124446 -0.000222462 -9.3941e-06
1.25302e-05 -9.3941e-06 -0.00035555
0.00474752 -0.00013395 0.000167033
-0.00013395 0.00280942 -1.06832e-05
0.000167033 -1.06832e-05 0.0027948
0.00194599 -0.000106888 0.000103238
-0.000106888 0.000972001 -1.57547e-05
0.000103238 -1.57547e-05 0.00090666
0.00233777 0.000186527 -4.0257e-06
0.000186527 7.7689e-05 -2.78305e-07
-4.0257e-06 -2.78305e-07 8.76314e-05
0.00221104 0.000250099 -5.61298e-06
0.000250099 1.16485e-05 -1.54061e-07
-5.61298e-06 -1.54061e-07 -1.96166e-05
0.00229933 0.000212135 -7.84264e-07
0.000212135 -1.98567e-05 -3.51132e-07
-7.84264e-07 -3.51132e-07 5.53337e-06
0.00237802 0.000369602 -4.37564e-07
0.000369602 0.000175725 9.28519e-07
-4.37564e-07 9.28519e-07 6.6207e-05
0.00229442 0.0003499 -1.28376e-07
0.0003499 3.10292e-05 -1.73322e-07
-1.28376e-07 -1.73322e-07 -8.35846e-06
0.0024149 0.000312939 -5.17545e-08
0.000312939 2.3952e-05 -5.43056e-07
-5.17545e-08 -5.43056e-07 3.51308e-05
0.00161697 0.000317596 -2.95104e-06
0.000317596 7.54718e-06 4.78459e-07
-2.95104e-06 4.78459e-07 -0.000175226
0.00227861 0.000455794 1.137e-06
0.000455794 0.000125537 1.55959e-07
1.137e-06 1.55959e-07 -2.5364e-05
0.00234721 0.000471381 3.26341e-06
0.000471381 9.30429e-05 -2.44049e-07
3.26341e-06 -2.44049e-07 1.03257e-05
0.000345232 0.000153199 -1.58077e-05
0.000153199 -0.000290127 -8.49746e-06
-1.58077e-05 -8.49746e-06 -0.000437113
0.00167948 0.00038976 2.3404e-06
0.00038976 6.96861e-05 1.30138e-06
2.3404e-06 1.30138e-06 -0.000146135
0.00227909 0.000563136 -2.48835e-06
0.000563136 0.000146382 -3.37103e-06
-2.48835e-06 -3.37103e-06 -5.84395e-05
0.00786829 0.000365903 -0.000412204
0.000365903 0.00487802 -5.622e-05
-0.000412204 -5.622e-05 0.00488005
0.000356297 0.000209839 5.09107e-07
0.000209839 -0.000293025 5.49377e-07
5.09107e-07 5.49377e-07 -0.000464319
0.00160164 0.000445911 1.53025e-05
0.000445911 3.70938e-05 6.70439e-07
1.53025e-05 6.70439e-07 -0.000217553
0.00839758 0.000376197 1.14585e-05
0.000376197 0.00521753 5.94539e-06
1.14585e-05 5.94539e-06 0.00521587
0.000304131 0.00027309 1.96136e-05
0.00027309 -0.000329611 1.66724e-05
1.96136e-05 1.66724e-05 -0.000533195
0.00894609 0.000288343 0.000438594
0.000288343 0.00553716 5.5214e-05
0.000438594 5.5214e-05 0.0055558
0.00220851 9.53013e-05 -6.0895e-06
9.53013e-05 2.29842e-05 -1.31604e-07
-6.0895e-06 -1.31604e-07 1.11114e-05
0.0022426 0.000127682 -7.51154e-07
0.000127682 -1.71516e-05 -3.24366e-07
-7.51154e-07 -3.24366e-07 3.53951e-06
0.00239865 0.000176782 -1.35444e-06
0.000176782 -5.66993e-05 -3.04822e-07
-1.35444e-06 -3.04822e-07 1.50134e-05
0.00209072 3.10701e-06 -1.09016e-06
3.10701e-06 -7.93273e-05 -1.09207e-07
-1.09016e-06 -1.09207e-07 -0.000131442
0.00224201 2.92563e-05 -2.37231e-07
2.92563e-05 3.7813e-05 4.21648e-08
-2.37231e-07 4.21648e-08 4.12338e-05
0.00222982 6.40597e-05 2.25099e-07
6.40597e-05 -6.2079e-05 3.00261e-07
2.25099e-07 3.00261e-07 -1.64902e-05
0.00224315 -5.63072e-05 3.50517e-06
-5.63072e-05 8.21877e-06 8.01371e-08
3.50517e-06 8.01371e-08 2.52154e-05
0.00213922 -7.97516e-05 -1.66963e-06
-7.97516e-05 -4.53025e-05 1.92513e-07
-1.66963e-06 1.92513e-07 -9.49357e-05
0.00154472 -4.80264e-05 -3.59373e-06
-4.80264e-05 -2.87172e-05 3.37336e-07
-3.59373e-06 3.37336e-07 -0.000132934
0.00227885 -0.000182945 1.63283e-06
-0.000182945 5.56699e-05 -1.0254e-06
1.63283e-06 -1.0254e-06 -8.74684e-06
0.0016261 -0.000116595 3.19443e-06
-0.000116595 3.97846e-06 -2.67534e-07
3.19443e-06 -2.67534e-07 -0.000113877
0.000211421 -2.23017e-05 -1.42304e-05
-2.23017e-05 -0.000345976 2.74162e-06
-1.42304e-05 2.74162e-06 -0.000446164
0.00154087 -0.000171249 5.01107e-06
-0.000171249 -7.0875e-05 -1.34625e-06
5.01107e-06 -1.34625e-06 -0.000209049
0.000242799 -5.66158e-05 4.27027e-07
-5.66158e-05 -0.000334365 -3.85303e-07
4.27027e-07 -3.85303e-07 -0.000440784
0.0070051 -0.000180454 -0.000393614
-0.000180454 0.00431073 2.47791e-05
-0.000393614 2.47791e-05 0.00434276
0.000300047 -8.9851e-05 1.39773e-05
-8.9851e-05 -0.00030233 -5.74167e-06
1.39773e-05 -5.74167e-06 -0.000420437
0.00715604 -0.000128362 6.48445e-06
-0.000128362 0.00439417 3.20617e-07
6.48445e-06 3.20617e-07 0.00443222
0.00217877 -5.71999e-05 0.000299299
-5.71999e-05 0.00109232 -2.43139e-05
0.000299299 -2.43139e-05 0.00108662
0.00224086 0.000176319 -7.84078e-06
0.000176319 6.16655e-05 -6.28803e-07
-7.84078e-06 -6.28803e-07 3.52398e-05
0.00223067 0.000187448 -6.24211e-07
0.000187448 -9.16662e-06 7.21258e-08
-6.24211e-07 7.21258e-08 9.70331e-06
0.00238274 0.000273304 7.7437e-07
0.000273304 0.000158205 7.19444e-07
7.7437e-07 7.19444e-07 7.5077e-05
0.00224636 0.000251216 6.28837e-07
0.000251216 3.27402e-05 2.77094e-08
6.28837e-07 2.77094e-08 1.11213e-06
0.00228598 0.000202222 -9.73787e-08
0.000202222 -2.28189e-05 -4.10238e-07
-9.73787e-08 -4.10238e-07 3.48112e-06
0.00154158 0.000239194 -1.19836e-06
0.000239194 -3.83706e-05 -2.86057e-07
-1.19836e-06 -2.86057e-07 -0.000207405
0.00235513 0.000369096 3.72191e-07
0.000369096 0.00015241 -4.15049e-08
3.72191e-07 -4.15049e-08 4.29111e-05
0.0023355 0.000347138 3.8735e-06
0.000347138 6.12615e-05 3.22429e-07
3.8735e-06 3.22429e-07 2.05996e-05
0.00032804 0.000114594 -1.45612e-05
0.000114594 -0.000289847 -6.15528e-06
-1.45612e-05 -6.15528e-06 -0.000421701
0.00160033 0.000312927 3.2226e-06
0.000312927 9.92045e-06 1.11479e-06
3.2226e-06 1.11479e-06 -0.000178741
0.00229328 0.000456807 -2.1989e-07
0.000456807 0.000146534 -1.46264e-06
-2.1989e-07 -1.46264e-06 -1.5693e-05
0.00753945 0.000341808 -0.000418957
0.000341808 0.00467719 -4.98103e-05
-0.000418957 -4.98103e-05 0.00468339
0.000357559 0.000160933 4.95719e-07
0.000160933 -0.000285304 2.41479e-07
4.95719e-07 2.41479e-07 -0.000435466
0.00164463 0.000380682 9.09525e-06
0.000380682 5.33469e-05 1.7854e-06
9.09525e-06 1.7854e-06 -0.000158925
0.00801886 0.000395909 8.45619e-06
0.000395909 0.00498748 6.07735e-06
8.45619e-06 6.07735e-06 0.00498412
0.000340222 0.000213527 1.66348e-05
0.000213527 -0.000308925 1.24662e-05
1.66348e-05 1.24662e-05 -0.000483444
0.00855627 0.000393886 0.000442667
0.000393886 0.00531806 6.53256e-05
0.000442667 6.53256e-05 0.00531971
0.00205637 9.26546e-05 7.67485e-07
9.26546e-05 -8.72672e-05 -4.53127e-07
7.67485e-07 -4.53127e-07 -0.000150731
0.00224785 9.58393e-05 -2.08709e-06
9.58393e-05 5.65765e-05 -5.67985e-08
-2.08709e-06 -5.67985e-08 4.32956e-05
0.00225841 0.000135839 2.31593e-06
0.000135839 1.53622e-06 -1.57918e-08
2.31593e-06 -1.57918e-08 2.26389e-05
0.0015345 -3.16808e-06 -2.21736e-06
-3.16808e-06 -2.02494e-05 2.53236e-07
-2.21736e-06 2.53236e-07 -0.00012487
0.00212523 4.78701e-06 -1.67539e-06
4.78701e-06 -4.70797e-05 4.14019e-08
-1.67539e-06 4.14019e-08 -9.87153e-05
0.00223059 3.1745e-05 4.14557e-06
3.1745e-05 2.49392e-05 3.75843e-07
4.14557e-06 3.75843e-07 3.23982e-05
0.00218754 -7.89165e-05 -1.57874e-06
-7.89165e-05 -5.18498e-06 1.45682e-07
-1.57874e-06 1.45682e-07 -5.28518e-05
0.00163454 -5.16721e-05 2.51995e-06
-5.16721e-05 2.71795e-05 -9.57364e-08
2.51995e-06 -9.57364e-08 -7.60858e-05
0.000230044 -3.39245e-05 -1.49941e-05
-3.39245e-05 -0.000325542 1.85724e-06
-1.49941e-05 1.85724e-06 -0.000420745
0.00155894 -0.000117274 8.1725e-06
-0.000117274 -5.10029e-05 -1.52499e-06
8.1725e-06 -1.52499e-06 -0.000175848
0.000223821 -1.12545e-05 -5.47112e-08
-1.12545e-05 -0.000337419 6.3914e-08
-5.47112e-08 6.3914e-08 -0.000435829
0.00689939 -0.000144914 -0.000393167
-0.000144914 0.0042395 1.89777e-05
-0.000393167 1.89777e-05 0.00427623
0.00027337 -6.19452e-05 1.48117e-05
-6.19452e-05 -0.000307251 -4.18251e-06
1.48117e-05 -4.18251e-06 -0.000413741
0.00699742 -8.13056e-05 -2.60738e-06
-8.13056e-05 0.0042906 3.86814e-06
-2.60738e-06 3.86814e-06 0.00433214
0.00711995 -0.000141471 0.000393029
-0.000141471 0.0043738 -2.27785e-05
0.000393029 -2.27785e-05 0.0044114
0.00231163 0.000178921 1.6064e-06
0.000178921 0.000109619 -2.94944e-07
1.6064e-06 -2.94944e-07 4.13595e-05
0.0021921 0.000177923 -6.71403e-07
0.000177923 1.49132e-05 9.57904e-08
-6.71403e-07 9.57904e-08 -6.96464e-06
0.00212649 0.00018859 2.38181e-06
0.00018859 -9.43621e-05 2.67131e-07
2.38181e-06 2.67131e-07 -6.67628e-05
0.00148665 0.000164306 -6.50324e-08
0.000164306 -6.8934e-05 -1.48202e-08
-6.50324e-08 -1.48202e-08 -0.000217038
0.002358 0.000271017 2.81176e-07
0.000271017 0.00013731 -1.90818e-08
2.81176e-07 -1.90818e-08 5.44711e-05
0.00228218 0.000252469 5.06272e-06
0.000252469 5.46976e-05 -4.86438e-08
5.06272e-06 -4.86438e-08 2.25089e-05
0.000295571 7.95225e-05 -1.36482e-05
7.95225e-05 -0.000297496 -4.51119e-06
-1.36482e-05 -4.51119e-06 -0.000416511
0.00157599 0.000240408 5.18518e-08
0.000240408 -4.40897e-08 1.83788e-07
5.18518e-08 1.83788e-07 -0.000170051
0.00234177 0.000368772 5.5577e-07
0.000368772 0.000136909 -1.1054e-06
5.5577e-07 -1.1054e-06 2.74778e-05
0.00726904 0.000276578 -0.000420587
0.000276578 0.00449787 -3.99248e-05
-0.000420587 -3.99248e-05 0.00451679
0.000340616 0.000123682 4.32742e-07
0.000123682 -0.00028399 2.32827e-07
4.32742e-07 2.32827e-07 -0.000418864
0.00155465 0.000306118 5.06136e-06
0.000306118 -8.14903e-06 1.6261e-06
5.06136e-06 1.6261e-06 -0.000202261
0.0076589 0.000362458 4.94167e-06
0.000362458 0.00475915 3.7989e-06
4.94167e-06 3.7989e-06 0.00476301
0.000364557 0.000169775 1.53576e-05
0.000169775 -0.000282657 9.35639e-06
1.53576e-05 9.35639e-06 -0.00043659
0.00816788 0.000438822 0.000444849
0.000438822 0.00509907 6.91127e-05
0.000444849 6.91127e-05 0.00508899
0.00142938 5.22621e-05 -2.68646e-06
5.22621e-05 -8.23728e-05 2.76907e-07
-2.68646e-06 2.76907e-07 -0.000207621
0.00216276 9.04323e-05 -2.96801e-06
9.04323e-05 -1.17025e-05 -2.86297e-07
-2.96801e-06 -2.86297e-07 -6.62108e-05
0.00229432 9.69286e-05 5.08353e-06
9.69286e-05 9.46243e-05 4.95983e-07
5.08353e-06 4.95983e-07 8.02588e-05
0.000263388 3.25013e-05 -1.57414e-05
3.25013e-05 -0.000305223 -2.65621e-07
-1.57414e-05 -2.65621e-07 -0.000392814
0.00161004 -4.02986e-07 2.7274e-06
-4.02986e-07 2.66718e-05 5.6776e-08
2.7274e-06 5.6776e-08 -7.69523e-05
0.00216212 8.28762e-06 -2.70896e-06
8.28762e-06 -1.36892e-05 9.77326e-08
-2.70896e-06 9.77326e-08 -6.46353e-05
0.00171785 -5.47648e-05 9.81866e-06
-5.47648e-05 7.90062e-05 -1.01666e-06
9.81866e-06 -1.01666e-06 -2.32267e-05
0.000227998 -8.87215e-06 2.10117e-07
-8.87215e-06 -0.000325612 3.88495e-07
2.10117e-07 3.88495e-07 -0.000420576
0.00678098 -4.99123e-06 -0.000393929
-4.99123e-06 0.00415169 4.80195e-06
-0.000393929 4.80195e-06 0.00419785
0.000221362 2.12841e-07 1.45887e-05
2.12841e-07 -0.000338724 -1.80242e-06
1.45887e-05 -1.80242e-06 -0.000435303
0.00684431 -0.000141633 -6.93148e-06
-0.000141633 0.00420585 2.40707e-06
-6.93148e-06 2.40707e-06 0.00424193
0.00692656 -6.49542e-05 0.000379018
-6.49542e-05 0.00424424 -1.36904e-05
0.000379018 -1.36904e-05 0.00428611
0.0014884 0.000103688 -1.5229e-06
0.000103688 -4.63871e-05 -1.45252e-07
-1.5229e-06 -1.45252e-07 -0.000180333
0.0022622 0.000173863 -2.65132e-07
0.000173863 6.86904e-05 -3.5346e-07
-2.65132e-07 -3.5346e-07 3.85069e-06
0.00213577 0.000179105 3.46904e-06
0.000179105 -3.66568e-05 -2.01794e-07
3.46904e-06 -2.01794e-07 -5.40045e-05
0.00275516 9.17251e-05 -0.000171091
9.17251e-05 0.00133491 -7.66394e-06
-0.000171091 -7.66394e-06 0.00127513
0.00154028 0.000166493 -1.89632e-08
0.000166493 -1.92293e-05 1.0619e-07
-1.89632e-08 1.0619e-07 -0.00016807
0.00232935 0.000268324 1.37927e-07
0.000268324 0.000114378 -6.98225e-07
1.37927e-07 -6.98225e-07 3.19156e-05
0.00707468 0.000206036 -0.000416479
0.000206036 0.00436279 -2.92717e-05
-0.000416479 -2.92717e-05 0.0043939
0.000315451 9.95072e-05 5.87428e-07
9.95072e-05 -0.000285166 4.48502e-07
5.87428e-07 4.48502e-07 -0.000407449
0.00161781 0.000241389 1.32816e-06
0.000241389 4.34706e-05 3.60416e-07
1.32816e-06 3.60416e-07 -0.000127478
0.00738178 0.000294097 2.28077e-06
0.000294097 0.00457201 2.05644e-06
2.28077e-06 2.05644e-06 0.0045891
0.000364963 0.000135101 1.51169e-05
0.000135101 -0.000269503 7.37243e-06
1.51169e-05 7.37243e-06 -0.000408058
0.00778551 0.000398117 0.000439859
0.000398117 0.00485438 6.26519e-05
0.000439859 6.26519e-05 0.00485232
0.000366361 2.03955e-05 -1.20629e-05
2.03955e-05 -0.000226396 -1.33629e-06
-1.20629e-05 -1.33629e-06 -0.00032388
0.00151794 5.2563e-05 -9.53788e-07
5.2563e-05 -2.21972e-05 -2.61271e-08
-9.53788e-07 -2.61271e-08 -0.000139759
0.00224491 8.67625e-05 -2.61814e-06
8.67625e-05 4.57717e-05 3.21013e-07
-2.61814e-06 3.21013e-07 -2.21303e-07
0.00665593 -0.000101176 -0.00037779
-0.000101176 0.00408724 6.85789e-06
-0.00037779 6.85789e-06 0.00412315
0.000224373 1.37016e-05 -7.13664e-07
1.37016e-05 -0.000326604 -2.9512e-07
-7.13664e-07 -2.9512e-07 -0.000416754
0.00169047 8.51936e-07 8.71737e-06
8.51936e-07 7.67459e-05 -5.8345e-07
8.71737e-06 -5.8345e-07 -2.59288e-05
0.000209047 1.57568e-05 1.48921e-05
1.57568e-05 -0.000338738 -4.64497e-07
1.48921e-05 -4.64497e-07 -0.000432349
0.0067262 -3.70738e-05 1.56271e-06
-3.70738e-05 0.00412331 -2.1288e-06
1.56271e-06 -2.1288e-06 0.00416383
0.00681102 -7.10477e-05 0.000381687
-7.10477e-05 0.00417063 -1.02561e-05
0.000381687 -1.02561e-05 0.00421318
0.0028625 3.7933e-05 -0.00016613
3.7933e-05 0.0014095 -4.0069e-06
-0.00016613 -4.0069e-06 0.00135736
0.00150133 0.000106455 -1.75528e-07
0.000106455 -3.28248e-05 -1.70599e-08
-1.75528e-07 -1.70599e-08 -0.00016744
0.00221909 0.000169124 -5.16725e-07
0.000169124 3.15783e-05 -5.79543e-07
-5.16725e-07 -5.79543e-07 -2.98275e-05
0.00663268 1.2022e-05 -0.000185449
1.2022e-05 0.00408305 -2.28394e-06
-0.000185449 -2.28394e-06 0.00407492
0.000280836 7.8487e-05 5.26395e-07
7.8487e-05 -0.000296755 2.07385e-07
5.26395e-07 2.07385e-07 -0.00040689
0.00159544 0.000169746 7.2672e-07
0.000169746 2.93765e-05 -6.4884e-09
7.2672e-07 -6.4884e-09 -0.000120339
0.00714089 0.000184364 -7.20986e-06
0.000184364 0.00439836 -1.67228e-06
-7.20986e-06 -1.67228e-06 0.00443087
0.000333675 0.000120732 1.60752e-05
0.000120732 -0.000275059 6.21286e-06
1.60752e-05 6.21286e-06 -0.000399888
0.00746118 0.000315119 0.000433323
0.000315119 0.00462767 5.04633e-05
0.000433323 5.04633e-05 0.00464331
0.00209714 -4.67675e-05 -0.000290282
-4.67675e-05 0.00104138 1.91736e-06
-0.000290282 1.91736e-06 0.00105027
0.00149445 4.23391e-05 -7.45255e-05
4.23391e-05 0.000509535 -4.52239e-07
-7.45255e-05 -4.52239e-07 0.000440322
0.00162247 5.55508e-05 4.6415e-06
5.55508e-05 5.04534e-05 -9.30314e-08
4.6415e-06 -9.30314e-08 -5.92445e-05
0.00670852 -4.79312e-05 6.36983e-06
-4.79312e-05 0.00411528 3.74662e-06
6.36983e-06 3.74662e-06 0.00415716
0.000227467 -3.22456e-06 1.55433e-05
-3.22456e-06 -0.000317939 6.07573e-08
1.55433e-05 6.07573e-08 -0.000411668
0.00673487 -9.45051e-05 0.000393706
-9.45051e-05 0.00413464 -8.22062e-06
0.000393706 -8.22062e-06 0.00417469
0.00166847 3.38635e-05 -8.64662e-05
3.38635e-05 0.000795876 -2.29592e-06
-8.64662e-05 -2.29592e-06 0.000748747
0.00150282 3.8743e-05 -7.51246e-05
3.8743e-05 0.000511652 -2.45472e-06
-7.51246e-05 -2.45472e-06 0.00043562
0.00151524 0.000107445 1.76777e-06
0.000107445 -1.75015e-05 -1.22669e-07
1.76777e-06 -1.22669e-07 -0.000152682
0.00435968 9.45362e-05 0.000148589
9.45362e-05 0.00256273 6.00894e-06
0.000148589 6.00894e-06 0.00255831
0.000251298 8.96233e-05 1.59058e-05
8.96233e-05 -0.000319402 4.81772e-06
1.59058e-05 4.81772e-06 -0.000430201
0.00720056 0.000172581 0.000411203
0.000172581 0.00442808 3.14943e-05
0.000411203 3.14943e-05 0.00446438
0.00670497 -5.95427e-06 -7.74177e-06
-5.95427e-06 0.00411816 -4.2104e-06
-7.74177e-06 -4.2104e-06 0.00415781
0.000236837 5.80099e-05 1.74355e-05
5.80099e-05 -0.000323223 2.20916e-06
1.74355e-05 2.20916e-06 -0.000412392
0.00664231 3.39828e-05 0.0003843
3.39828e-05 0.00406772 7.09048e-07
0.0003843 7.09048e-07 0.00411274
0.00427183 5.47445e-05 0.000158721
5.47445e-05 0.00250559 7.72335e-06
0.000158721 7.72335e-06 0.00250573
0.000260602 2.72421e-05 1.53959e-05
2.72421e-05 -0.000307857 2.48042e-06
1.53959e-05 2.48042e-06 -0.000407738
0.00696638 4.30026e-05 0.000395407
4.30026e-05 0.00427119 1.58904e-05
0.000395407 1.58904e-05 0.00431319
0.00672839 -9.45949e-05 0.000384595
-9.45949e-05 0.00413448 -3.66726e-06
0.000384595 -3.66726e-06 0.0041714
0.00676664 4.21582e-05 0.000387631
4.21582e-05 0.00414116 1.03612e-05
0.000387631 1.03612e-05 0.00418636
