# vtk DataFile Version 2.0
Wound Healing Simulation
ASCII
DATASET UNSTRUCTURED_GRID
POINTS 3012 float
69.9759 18.75 4
67.2507 60.3285 4
69.976 18.75 2
73.0099 25.446 4
71.1327 20.9142 4
68.6801 16.6661 4
67.8249 19.9262 3.98115
67.2507 60.3286 2
71.1327 54.0858 4
68.6801 58.3339 4
65.6939 62.2254 4
65.3114 59.0007 3.98003
74.6784 42.3946 4
73.7221 47.2057 4
69.9759 18.75 0
73.0099 25.446 2
68.6801 16.6661 2
71.1327 20.9142 2
67.8255 19.9294 2
74.6792 32.6053 4
73.7222 27.7943 4
72.1454 23.1494 4
70.6136 26.2208 3.98067
68.8851 21.958 3.98151
67.2507 14.6715 4
66.6363 17.9723 3.98034
65.7947 21.0267 3.97074
67.2507 60.3285 0
71.1327 54.0858 2
68.6801 58.3339 2
65.694 62.2255 2
65.3126 58.9969 2
72.1454 51.8506 4
69.9759 56.25 4
68.8358 53.1129 3.98062
64.0165 64.0165 4
66.6101 57.1335 3.98087
63.8846 60.7651 3.98069
63.4978 57.7684 3.97159
60.3285 67.2507 4
74.6792 42.3947 2
73.7222 47.2057 2
74.9194 39.9526 4
74.2788 44.8158 4
72.1679 42.0854 3.98017
73.0099 49.554 4
71.2488 46.5979 3.97987
73.0099 25.446 0
71.1327 20.9142 0
68.6801 16.6661 0
67.8249 19.9262 0.0188496
74.6792 32.6053 2
73.7222 27.7943 2
67.2508 14.6715 2
72.1455 23.1494 2
70.6136 26.2214 2
66.6373 17.9763 2
68.8854 21.9601 2
65.7941 21.0276 2
74.9197 35.0474 4
74.2794 30.1841 4
72.1845 32.9433 3.98049
71.2777 28.4313 3.98019
69.815 24.0595 3.98133
68.3447 26.952 3.96971
66.7602 22.9341 3.97025
65.694 12.7746 4
65.3226 16.1043 3.9798
64.7111 19.1973 3.97152
63.8815 22.0394 3.96717
71.1327 54.0858 0
65.6939 62.2254 0
68.6801 58.3339 0
65.3114 59.0007 0.0199709
72.1455 51.8506 2
69.9759 56.25 2
68.836 53.111 2
64.0165 64.0165 2
66.611 57.1299 2
63.8863 60.7618 2
63.4972 57.7682 2
62.2254 65.694 4
58.8941 65.4139 3.98984
69.7684 50.9888 3.98049
67.7831 55.1671 3.98065
66.6472 52.2079 3.96933
62.3354 62.4271 3.98485
64.6586 56.0297 3.97134
62.1995 59.3987 3.97025
61.8171 56.674 3.96674
58.3339 68.6801 4
60.3285 67.2508 2
73.7221 47.2057 0
74.6784 42.3946 0
74.9197 39.9526 2
74.2794 44.8159 2
72.1674 42.0854 2
73.0099 49.554 2
71.2487 46.5977 2
75 37.5 4
72.4051 39.8021 3.98072
71.7821 44.3527 3.9802
69.8024 41.7892 3.9697
70.5746 48.8134 3.98003
68.9103 46.0139 3.96931
74.6792 32.6053 0
73.7222 27.7943 0
67.2507 14.6715 0
72.1454 23.1494 0
70.6136 26.2208 0.0193304
68.8851 21.958 0.0184885
66.6363 17.9723 0.0196569
65.7947 21.0267 0.0292563
74.9197 35.0474 2
74.2794 30.1841 2
72.184 32.9436 2
71.2776 28.4317 2
65.694 12.7745 2
65.324 16.1085 2
69.8151 24.0606 2
68.3447 26.9526 2
64.7106 19.1981 2
66.7598 22.935 2
63.8809 22.0398 2
72.413 35.2241 3.98081
71.8035 30.6762 3.98053
69.8384 33.2685 3.96998
68.9641 29.0385 3.96968
67.6091 24.9126 3.96987
66.1856 27.6371 3.96718
64.0165 10.9835 4
64.7507 23.8331 3.9671
63.8891 14.3282 3.98195
63.51 17.4515 3.97138
62.9008 20.3262 3.96696
62.0645 22.9554 3.96693
60.6833 11.0985 3.98607
57.6113 11.4526 3.97768
72.1454 51.8506 0
69.9759 56.25 0
68.8358 53.1129 0.0193815
64.0165 64.0165 0
63.8846 60.7651 0.0193095
66.6101 57.1335 0.0191313
63.4978 57.7684 0.0284085
62.2255 65.694 2
58.8955 65.4132 2
69.7684 50.9879 2
67.7836 55.1641 2
66.6467 52.2071 2
62.3373 62.4247 2
64.658 56.0292 2
62.1989 59.3991 2
61.8165 56.674 2
60.6681 63.9765 3.98717
57.0253 66.7347 3.99122
57.5569 63.6887 3.97991
67.5054 50.1755 3.96905
65.6995 54.1717 3.96994
64.5299 51.3808 3.96625
60.7712 60.9334 3.97484
62.8147 55.0624 3.96696
60.6502 58.1484 3.96445
60.3188 55.7738 3.9667
56.25 69.9759 4
58.3339 68.6801 2
60.3285 67.2507 0
58.9206 9.65669 3.98755
62.2254 9.30607 4
73.0099 49.554 0
74.2788 44.8158 0
71.2488 46.5979 0.0201299
72.1679 42.0854 0.0198317
74.9194 39.9526 0
75 37.5 2
72.4051 39.8023 2
71.7821 44.3525 2
69.8019 41.7889 2
70.5745 48.8131 2
68.9102 46.0134 2
72.4885 37.512 3.98036
70.0397 39.6571 3.96977
69.4286 43.9068 3.96958
67.5877 41.4958 3.96818
68.2638 48.106 3.96903
66.6956 45.4363 3.96739
74.9197 35.0474 0
74.2794 30.1841 0
72.1845 32.9433 0.0195078
71.2777 28.4313 0.0198075
65.694 12.7746 0
65.3226 16.1043 0.0201983
69.815 24.0595 0.01867
68.3447 26.952 0.0302909
66.7602 22.9341 0.0297481
64.7111 19.1973 0.028482
63.8815 22.0394 0.0328274
72.4129 35.2242 2
71.8035 30.6767 2
69.8378 33.2689 2
68.9641 29.0391 2
64.0165 10.9835 2
63.8911 14.3317 2
63.5094 17.4524 2
67.6089 24.9134 2
66.1858 27.6375 2
62.9002 20.3265 2
64.7503 23.8335 2
62.0637 22.9558 2
60.6856 11.101 2
57.6123 11.4511 2
70.0564 35.3919 3.96998
69.4653 31.1497 3.96976
67.6485 33.5919 3.96805
66.7626 29.625 3.9674
65.5162 25.702 3.96709
64.0939 28.2663 3.96975
62.341 12.6557 3.98478
62.8208 24.6492 3.96795
62.196 15.791 3.97231
61.8058 18.6938 3.96673
61.1935 21.3551 3.96558
60.3602 23.7498 3.96886
59.2448 12.7845 3.97576
55.8738 10.2376 3.98011
56.4034 13.1266 3.97426
69.7684 50.9888 0.01951
62.2254 65.694 0
58.8941 65.4139 0.0101597
67.7831 55.1671 0.0193513
66.6472 52.2079 0.030672
62.3354 62.4271 0.0151527
62.1995 59.3987 0.0297503
64.6586 56.0297 0.0286622
61.8171 56.674 0.0332593
60.6697 63.975 2
57.0262 66.7343 2
57.5571 63.6903 2
67.505 50.1748 2
65.6989 54.171 2
64.5297 51.3805 2
60.771 60.9344 2
62.8142 55.0622 2
60.6499 58.1486 2
60.3183 55.7736 2
55.0711 67.9315 3.99183
59.2176 62.3617 3.97618
55.8043 64.9083 3.98423
56.3248 62.0816 3.97525
65.32 49.4038 3.96646
63.7006 53.2876 3.96626
62.3968 50.6369 3.96709
59.3283 59.5478 3.96953
61.064 54.2975 3.96581
59.2722 56.9949 3.96354
59.2289 55.1671 3.96528
48.102 68.5774 3.98734
50.9489 69.9312 3.99199
54.0858 71.1327 4
56.25 69.976 2
58.3339 68.6801 0
57.0582 8.33646 3.98895
60.3285 7.74928 4
58.9228 9.65812 2
62.2255 9.30602 2
70.5746 48.8134 0.0199686
71.7821 44.3527 0.0198022
68.9103 46.0139 0.0306941
69.8024 41.7892 0.0303031
72.4051 39.8021 0.0192775
75 37.5 0
72.488 37.5122 2
70.0396 39.657 2
69.4285 43.9065 2
67.5876 41.4956 2
68.2637 48.1054 2
66.6953 45.436 2
70.1277 37.5214 3.96984
67.8275 39.5113 3.96825
67.2106 43.4672 3.9678
65.4936 41.2034 3.97182
66.0548 47.4138 3.96695
64.585 44.8367 3.97014
72.413 35.2241 0.0191941
71.8035 30.6762 0.0194651
69.8384 33.2685 0.0300181
68.9641 29.0385 0.0303209
64.0165 10.9835 0
63.8891 14.3282 0.0180542
63.51 17.4515 0.0286179
67.6091 24.9126 0.0301347
66.1856 27.6371 0.0328222
64.7507 23.8331 0.0328968
62.9008 20.3262 0.03304
62.0645 22.9554 0.0330661
60.6833 11.0985 0.013929
57.6113 11.4526 0.022318
70.0564 35.3921 2
69.4653 31.1501 2
67.6486 33.592 2
66.7627 29.6253 2
62.3431 12.659 2
62.1957 15.791 2
61.8049 18.6941 2
65.516 25.7024 2
64.093 28.2667 2
61.1925 21.3556 2
62.8202 24.6496 2
60.36 23.7504 2
59.2456 12.7842 2
56.404 13.125 2
55.8745 10.2362 2
67.8651 35.5479 3.96828
67.2567 31.624 3.96774
65.6467 33.9312 3.97183
64.6071 30.2012 3.97044
63.4948 26.4257 3.96902
62.1573 28.7966 3.97356
60.7738 14.2287 3.9754
60.9685 25.3595 3.9708
60.6045 17.1403 3.96682
60.2015 19.832 3.96404
59.5976 22.2828 3.96597
58.8817 24.351 3.97137
54.0372 9.13878 3.98211
57.9073 14.3437 3.9749
54.7853 12.0209 3.97531
55.3083 14.6656 3.97279
67.5054 50.1755 0.0309469
57.0253 66.7347 0.00877537
60.6681 63.9765 0.0128349
57.5569 63.6887 0.0200878
65.6995 54.1717 0.030064
64.5299 51.3808 0.0337474
60.7712 60.9334 0.0251588
60.6502 58.1484 0.0355537
62.8147 55.0624 0.0330402
60.3188 55.7738 0.0332952
55.0718 67.9314 2
59.2177 62.3629 2
55.8042 64.9093 2
56.3243 62.0838 2
65.3198 49.4034 2
63.7 53.2873 2
62.3969 50.6367 2
59.3278 59.5493 2
61.064 54.2973 2
59.2722 56.9946 2
59.2287 55.1667 2
53.0431 68.9993 3.9919
53.9666 66.0117 3.98573
57.8773 60.8606 3.97476
54.6831 63.2032 3.97938
55.2075 60.6007 3.97445
63.1384 48.646 3.96823
61.7124 52.5615 3.96633
60.1812 49.993 3.96891
58.0064 58.2477 3.96758
59.2985 53.9284 3.96705
58.0949 55.791 3.96233
50.1087 67.8557 3.98706
47.4628 66.578 3.9839
46.0556 69.1565 3.98753
48.102 68.5781 2
48.803 70.7224 3.9921
50.9494 69.9312 2
51.8506 72.1454 4
54.0858 71.1327 2
56.25 69.9759 0
55.103 7.14083 3.99046
58.3339 6.31992 4
57.0598 8.33716 2
60.3286 7.74926 2
58.9206 9.65669 0.0124466
62.2254 9.30607 0
68.2638 48.106 0.0309708
69.4286 43.9068 0.0304184
66.6956 45.4363 0.0326071
67.5877 41.4958 0.0318245
70.0397 39.6571 0.030232
72.4885 37.512 0.0196422
70.1273 37.5214 2
67.8274 39.5112 2
67.2113 43.4669 2
65.4926 41.2032 2
66.0549 47.4135 2
64.5838 44.8363 2
67.9258 37.5217 3.9683
65.7311 39.3666 3.97222
65.1124 43.0163 3.97122
63.6393 40.9191 3.97625
63.9 46.7028 3.96917
62.6869 44.1971 3.97402
70.0564 35.3919 0.0300156
69.4653 31.1497 0.0302355
67.6485 33.5919 0.031955
66.7626 29.625 0.0326031
62.341 12.6557 0.0152164
62.196 15.791 0.0276851
61.8058 18.6938 0.0332676
65.5162 25.702 0.0329072
64.0939 28.2663 0.0302465
62.8208 24.6492 0.0320492
61.1935 21.3551 0.0344198
60.3602 23.7498 0.031141
59.2448 12.7845 0.0242413
56.4034 13.1266 0.0257367
55.8738 10.2376 0.0198926
67.8649 35.548 2
67.2571 31.6242 2
65.6462 33.9314 2
64.6062 30.2015 2
60.7737 14.2291 2
60.6043 17.1399 2
60.2019 19.8321 2
63.4942 26.4261 2
62.1558 28.7971 2
59.5993 22.2831 2
60.9681 25.3601 2
58.881 24.352 2
57.9073 14.3427 2
55.3086 14.6654 2
54.0376 9.13733 2
54.7859 12.0187 2
65.8219 35.6684 3.97205
65.1275 32.1612 3.97098
64.1917 34.2556 3.97629
62.472 30.6528 3.97434
61.5608 27.0931 3.97197
60.7138 29.1649 3.97709
59.3061 15.6795 3.97143
59.2112 25.8278 3.97434
59.1065 18.3742 3.96414
58.6954 20.8786 3.96316
58.1892 23.1256 3.96661
57.8512 24.7018 3.97337
52.112 8.15566 3.98435
53.0573 11.0245 3.97751
56.6704 15.7597 3.97399
53.8065 13.6974 3.97482
54.3678 16.0215 3.97439
55.0711 67.9315 0.00817367
65.32 49.4038 0.0335369
55.8043 64.9083 0.0157703
59.2176 62.3617 0.0238213
56.3248 62.0816 0.0247547
63.7006 53.2876 0.0337391
62.3968 50.6369 0.0329135
59.3283 59.5478 0.0304729
59.2722 56.9949 0.0364636
61.064 54.2975 0.0341933
59.2289 55.1671 0.0347152
53.0436 68.9993 2
53.9666 66.0125 2
57.8766 60.8622 2
54.6826 63.2041 2
55.2073 60.6024 2
63.1378 48.6457 2
61.7132 52.5614 2
60.1809 49.9925 2
58.0059 58.2492 2
59.3 53.9281 2
58.0938 55.7903 2
52.07 66.9986 3.98675
52.9531 64.2152 3.98225
56.6414 59.4759 3.9742
53.6785 61.6148 3.97631
54.2516 59.3027 3.97415
60.8741 47.8539 3.96961
59.6394 52.0806 3.96771
57.8933 49.5806 3.97049
56.7557 56.9651 3.96743
57.0701 54.0958 3.96494
50.1087 67.8561 2
49.3368 65.9185 3.98379
47.4629 66.5786 2
46.8922 64.7313 3.98221
45.5579 67.0949 3.984
43.9728 69.5886 3.9877
46.0556 69.1571 2
46.6095 71.3669 3.99214
48.102 68.5774 0.0126638
48.8034 70.7226 2
49.554 73.0099 4
50.9489 69.9312 0.00801416
51.8506 72.1455 2
54.0858 71.1327 0
53.0645 6.0721 3.99137
55.1042 7.14091 2
56.25 5.02411 4
58.3339 6.3199 2
57.0582 8.33646 0.0110479
60.3285 7.74928 0
66.0548 47.4138 0.0330518
67.2106 43.4672 0.0322028
64.585 44.8367 0.0298621
65.4936 41.2034 0.0281813
67.8275 39.5113 0.0317514
70.1277 37.5214 0.0301568
67.9257 37.5217 2
65.7299 39.3665 2
65.1115 43.016 2
63.6373 40.9187 2
63.8989 46.7024 2
62.6846 44.1965 2
65.8365 37.5008 3.97219
63.7888 39.2607 3.97647
63.2019 42.5346 3.97508
62.2709 40.6821 3.977
61.8475 45.896 3.97182
61.2871 43.6589 3.97731
67.8651 35.5479 0.0317186
67.2567 31.624 0.0322574
65.6467 33.9312 0.0281651
64.6071 30.2012 0.0295632
60.7738 14.2287 0.0245963
60.6045 17.1403 0.0331847
60.2015 19.832 0.0359613
63.4948 26.4257 0.0309756
62.1573 28.7966 0.0264412
60.9685 25.3595 0.0292017
59.5976 22.2828 0.0340341
58.8817 24.351 0.0286301
57.9073 14.3437 0.0251003
55.3083 14.6656 0.027212
54.0372 9.13878 0.0178891
54.7853 12.0209 0.0246925
65.8208 35.6685 2
65.1268 32.1614 2
64.1909 34.2558 2
62.4705 30.6532 2
59.3053 15.6797 2
59.1072 18.3736 2
58.6994 20.8785 2
61.5598 27.0936 2
60.7131 29.1654 2
58.1882 23.1268 2
59.2107 25.8287 2
57.851 24.7031 2
56.6703 15.7586 2
54.3677 16.0218 2
53.8066 13.6937 2
52.1122 8.15457 2
53.0576 11.0229 2
63.9887 35.6348 3.9759
62.8043 33.0582 3.97541
60.4504 30.6365 3.97684
59.4277 27.9409 3.97533
57.9289 17.0006 3.96911
57.6047 25.7653 3.9761
57.6849 19.5005 3.9623
57.2877 21.8761 3.96366
57.0557 23.9896 3.96792
50.1123 7.28634 3.98668
51.2323 10.1299 3.97993
52.1696 12.8082 3.97626
55.5256 16.9937 3.97278
52.9722 15.2877 3.9722
53.7457 17.0067 3.9783
53.0431 68.9993 0.00810475
53.9666 66.0117 0.014265
63.1384 48.646 0.0317667
54.6831 63.2032 0.0206183
57.8773 60.8606 0.025238
55.2075 60.6007 0.02555
61.7124 52.5615 0.0336723
60.1812 49.993 0.0310908
58.0064 58.2477 0.0324198
58.0949 55.791 0.0376701
59.2985 53.9284 0.0329534
52.07 66.9993 2
52.9528 64.2159 2
56.641 59.477 2
53.678 61.6153 2
54.2515 59.3045 2
60.8729 47.8532 2
59.6393 52.0801 2
57.8905 49.5795 2
56.7545 56.9694 2
57.0683 54.095 2
51.1679 65.1253 3.98379
52.0449 62.533 3.97931
55.4677 58.2337 3.97471
52.8281 60.1188 3.97733
53.6265 58.4527 3.97918
58.128 46.8095 3.97415
57.4679 51.7541 3.96707
56.0834 49.5114 3.97068
55.4369 55.7646 3.96253
55.2821 53.3494 3.96321
50.1087 67.8557 0.0129388
49.3367 65.9189 2
48.6179 64.1184 3.9827
47.4628 66.578 0.0161007
45.5579 67.0955 2
46.8923 64.7318 2
46.3817 63.0467 3.9821
45.1325 65.192 3.98213
43.6311 67.4654 3.98413
41.8602 69.8759 3.98753
43.9727 69.5892 2
44.3768 71.8617 3.9921
46.0556 69.1565 0.0124723
46.6099 71.3671 2
47.2057 73.7222 4
48.803 70.7224 0.00789741
49.554 73.0099 2
51.8506 72.1454 0
50.9546 5.13245 3.99203
53.0654 6.07208 2
54.0858 3.86728 4
55.103 7.14083 0.00953988
56.25 5.02406 2
58.3339 6.31992 0
63.9 46.7028 0.0308297
65.1124 43.0163 0.0287819
62.6869 44.1971 0.0259823
63.6393 40.9191 0.0237466
65.7311 39.3666 0.027779
67.9258 37.5217 0.0316958
65.8354 37.5008 2
63.7871 39.2605 2
63.1999 42.5341 2
62.2686 40.6816 2
61.8456 45.8953 2
61.285 43.6581 2
63.8494 37.4553 3.97587
61.9907 39.3449 3.97684
61.0333 41.9354 3.97687
60.0796 44.7402 3.9764
65.8219 35.6684 0.0279513
65.1275 32.1612 0.029018
64.1917 34.2556 0.0237085
62.472 30.6528 0.0256648
59.3061 15.6795 0.0285732
59.1065 18.3742 0.0358614
58.6954 20.8786 0.0368389
61.5608 27.0931 0.0280346
60.7138 29.1649 0.0229056
59.2112 25.8278 0.0256606
58.1892 23.1256 0.033393
57.8512 24.7018 0.0266294
56.6704 15.7597 0.0260123
54.3678 16.0215 0.0256141
53.8065 13.6974 0.0251804
52.112 8.15566 0.0156475
53.0573 11.0245 0.0224919
63.9873 35.6349 2
62.8028 33.0586 2
60.4489 30.6371 2
57.9281 17.0006 2
57.6873 19.4993 2
57.2904 21.8767 2
59.4269 27.9417 2
57.0549 23.9912 2
57.6049 25.7665 2
50.1126 7.28486 2
55.5256 16.9931 2
53.7454 17.0062 2
52.9722 15.2866 2
52.1702 12.8069 2
51.2326 10.1286 2
62.0289 35.3686 3.97675
60.0898 32.768 3.97707
58.4245 30.1127 3.97703
57.1134 27.426 3.97658
56.6168 18.1795 3.96711
56.1411 25.1516 3.97356
56.3084 20.5542 3.96057
55.9905 22.9154 3.96304
48.0566 6.52808 3.98849
49.3247 9.33506 3.98192
50.432 12.003 3.97746
51.3726 14.514 3.97329
54.396 17.9462 3.97399
52.3492 17.0684 3.96991
52.07 66.9986 0.0132494
52.9531 64.2152 0.0177509
60.8741 47.8539 0.0303862
53.6785 61.6148 0.0236868
56.6414 59.4759 0.0258011
54.2516 59.3027 0.0258466
59.6394 52.0806 0.0322887
57.8933 49.5806 0.029507
56.7557 56.9651 0.0325685
57.0701 54.0958 0.0350648
51.1678 65.126 2
52.0445 62.5336 2
55.4672 58.2349 2
52.828 60.1221 2
53.6261 58.4538 2
58.1267 46.8085 2
57.4663 51.7532 2
56.0801 49.5104 2
55.4367 55.765 2
55.2845 53.3498 2
50.3459 63.3769 3.98226
51.2404 60.9263 3.97642
54.1972 57.2498 3.97464
52.3004 58.6115 3.97499
56.4497 44.1322 3.97734
55.2821 47.8458 3.97362
54.9478 51.3496 3.96614
53.9495 54.5112 3.96505
49.3368 65.9185 0.0162107
48.618 64.1186 2
47.9615 62.4687 3.98179
45.5579 67.0949 0.0159967
46.8922 64.7313 0.0177915
43.6311 67.466 2
46.3819 63.0471 2
45.1325 65.1926 2
45.9869 61.5777 3.98325
44.7671 63.4463 3.98079
43.3567 65.5011 3.98183
41.6633 67.684 3.98399
39.7021 70.0226 3.98771
41.8601 69.8764 2
42.1111 72.2066 3.99213
43.9728 69.5886 0.0123033
44.3771 71.862 2
44.8159 74.2794 4
46.6095 71.3669 0.00785835
47.2057 73.7222 2
49.554 73.0099 0
48.7853 4.32298 3.99261
50.9552 5.13194 2
51.8506 2.85458 4
53.0645 6.0721 0.00862826
54.0858 3.86728 2
56.25 5.02411 0
61.8475 45.896 0.0281805
63.2019 42.5346 0.0249156
61.2871 43.6589 0.0226881
62.2709 40.6821 0.0229999
63.7888 39.2607 0.0235276
65.8365 37.5008 0.0278129
63.8479 37.4554 2
61.9885 39.3448 2
61.0314 41.9348 2
60.0784 44.7393 2
61.8277 37.4442 3.97731
60.0231 39.827 3.97724
58.7507 42.88 3.97718
63.9887 35.6348 0.0241015
62.8043 33.0582 0.0245917
60.4504 30.6365 0.0231588
57.9289 17.0006 0.030891
57.6849 19.5005 0.0376985
57.2877 21.8761 0.0363417
59.4277 27.9409 0.0246692
57.6047 25.7653 0.0238995
57.0557 23.9896 0.0320807
55.5256 16.9937 0.0272228
53.7457 17.0067 0.0217042
52.9722 15.2877 0.0278013
50.1123 7.28634 0.0133176
52.1696 12.8082 0.0237438
51.2323 10.1299 0.0200714
62.0271 35.369 2
60.0877 32.7684 2
58.424 30.1137 2
56.6161 18.1798 2
56.3119 20.5515 2
55.9927 22.9167 2
57.1141 27.4271 2
56.1426 25.1532 2
48.0566 6.52694 2
49.325 9.33342 2
54.3962 17.9458 2
52.3489 17.0684 2
51.3723 14.5106 2
50.4324 12.0015 2
59.6679 35.1339 3.97711
57.7314 32.3072 3.97679
56.3261 29.3906 3.97738
55.2336 26.661 3.97731
55.3102 19.2172 3.96395
54.7804 24.1154 3.96385
54.9242 21.6057 3.96003
45.9627 5.88293 3.98896
43.3742 7.47421 3.98598
47.3556 8.62586 3.9843
48.5996 11.3006 3.97889
49.7096 13.7552 3.97678
50.6246 16.1578 3.97608
53.1 18.6933 3.96894
51.2833 18.0885 3.97856
51.1679 65.1253 0.0162099
52.0449 62.533 0.0206923
58.128 46.8095 0.0258548
52.8281 60.1188 0.0226698
55.4677 58.2337 0.0252948
53.6265 58.4527 0.020817
57.4679 51.7541 0.0329345
56.0834 49.5114 0.0293226
55.4369 55.7646 0.0374724
55.2821 53.3494 0.0367881
50.3457 63.3771 2
51.24 60.9263 2
54.1971 57.251 2
52.3 58.6124 2
56.4486 44.1313 2
55.2814 47.8449 2
54.9492 51.3495 2
53.9502 54.5124 2
49.5907 61.7391 3.98092
55.2749 41.6716 3.97598
50.5578 59.3134 3.97417
52.1556 56.4663 3.96849
53.8917 45.5014 3.97491
53.1455 49.2773 3.9697
52.5754 52.8143 3.9624
48.6179 64.1184 0.0172978
47.9615 62.4686 2
47.3272 61.0016 3.98464
43.6311 67.4654 0.0158724
45.1325 65.192 0.0178702
46.3817 63.0467 0.0179047
41.6635 67.6842 2
43.3567 65.502 2
45.9871 61.5783 2
44.7673 63.4471 2
45.7637 60.6215 3.98269
44.4832 61.8252 3.98097
43.1464 63.718 3.98014
41.5462 65.6387 3.9811
39.6327 67.7633 3.98367
37.5261 70.0474 3.98724
39.7021 70.0232 2
39.8178 72.4035 3.99194
41.8602 69.8759 0.0124682
42.1114 72.2069 2
42.3947 74.6792 4
44.3768 71.8617 0.00789763
44.8159 74.2794 2
47.2057 73.7222 0
43.852 5.35983 3.98897
46.5712 3.64744 3.99274
48.7856 4.32253 2
49.554 1.99015 4
50.9546 5.13245 0.00797465
51.8506 2.85453 2
54.0858 3.86728 0
60.0796 44.7402 0.0235984
61.0333 41.9354 0.0231343
61.9907 39.3449 0.0231632
63.8494 37.4553 0.0241314
61.8262 37.4443 2
60.0221 39.8272 2
58.7493 42.8792 2
59.5249 37.5646 3.97739
57.7058 40.6281 3.97743
54.7037 39.6865 3.97553
62.0289 35.3686 0.0232468
60.0898 32.768 0.0229271
58.4245 30.1127 0.0229665
56.6168 18.1795 0.0328871
56.3084 20.5542 0.0394344
55.9905 22.9154 0.0369614
57.1134 27.426 0.0234214
56.1411 25.1516 0.0264382
54.396 17.9462 0.0260101
52.3492 17.0684 0.0300939
51.3726 14.514 0.0267108
48.0566 6.52808 0.0115146
49.3247 9.33506 0.0180816
50.432 12.003 0.022539
59.6672 35.1336 2
45.9625 5.88223 2
43.3741 7.47348 2
57.731 32.3079 2
56.3255 29.3917 2
55.3098 19.2178 2
54.9303 21.605 2
54.7797 24.1177 2
55.2304 26.6634 2
47.3557 8.62397 2
48.6 11.2987 2
53.1009 18.6927 2
51.2835 18.0899 2
50.6247 16.1577 2
49.7095 13.7539 2
57.0941 34.7763 3.97739
55.4512 31.5646 3.97715
54.2466 28.4771 3.9777
53.592 25.5712 3.97599
53.9241 20.1741 3.96429
53.4732 22.7695 3.95578
41.3993 7.08 3.98619
45.3604 7.99567 3.9865
42.8663 9.41752 3.98294
46.667 10.6573 3.98138
47.7425 13.1116 3.97879
48.9243 15.4179 3.97398
49.9899 17.723 3.97561
51.6185 19.3664 3.97779
50.3459 63.3769 0.0177374
51.2404 60.9263 0.0235801
56.4497 44.1322 0.022661
55.2821 47.8458 0.0263768
52.3004 58.6115 0.025013
54.1972 57.2498 0.0253564
54.9478 51.3496 0.0338595
53.9495 54.5112 0.0349543
49.5903 61.7389 2
55.2731 41.6705 2
50.5575 59.3148 2
52.1553 56.4674 2
53.8955 45.5013 2
53.1511 49.2774 2
52.5759 52.8135 2
48.8437 60.1953 3.97872
52.1266 42.5712 3.98119
49.7702 57.606 3.97186
50.5309 54.4007 3.96472
51.5559 47.2092 3.97623
51.0724 50.9026 3.95757
47.7847 43.7089 3.98871
47.9615 62.4687 0.0182115
47.3274 61.0016 2
46.6141 59.7883 3.98476
41.6633 67.684 0.0160083
43.3567 65.5011 0.0181698
44.7671 63.4463 0.0192076
45.9869 61.5777 0.0167504
39.633 67.764 2
41.5461 65.6385 2
45.7637 60.6224 2
43.1465 63.7189 2
44.4834 61.826 2
44.6206 60.2819 3.98332
42.9503 62.0722 3.97859
41.6 63.8112 3.98035
39.6477 65.6058 3.9801
37.5635 67.7447 3.98286
31.6973 65.125 3.98113
33.3925 67.4828 3.98261
35.3339 69.9575 3.98741
37.526 70.0483 2
37.5095 72.458 3.99192
39.7021 70.0226 0.012292
39.818 72.4039 2
39.9526 74.9197 4
42.1111 72.2066 0.00786906
42.3947 74.6792 2
44.8159 74.2794 0
41.7365 4.96903 3.98915
43.8519 5.35906 2
44.3265 3.11059 3.99307
46.5714 3.64709 2
47.2057 1.27793 4
48.7853 4.32298 0.00739338
49.554 1.99013 2
51.8506 2.85458 0
58.7507 42.88 0.0228178
60.0231 39.827 0.0227615
61.8277 37.4442 0.0226918
59.5249 37.565 2
57.7058 40.6286 2
54.7033 39.6862 2
56.4859 37.8852 3.97718
49.1592 41.2785 3.98742
52.7231 39.3052 3.9833
39.4428 6.80384 3.98607
59.6679 35.1339 0.0228874
57.7314 32.3072 0.023214
56.3261 29.3906 0.0226239
55.3102 19.2172 0.0360511
54.9242 21.6057 0.0399725
54.7804 24.1154 0.0361516
55.2336 26.661 0.02269
53.1 18.6933 0.0310597
51.2833 18.0885 0.0214353
50.6246 16.1578 0.0239197
45.9627 5.88293 0.0110397
49.7096 13.7552 0.0232152
47.3556 8.62586 0.0156964
48.5996 11.3006 0.021109
43.3742 7.47421 0.0140185
57.0933 34.776 2
41.3993 7.07891 2
45.3601 7.99499 2
42.8661 9.41688 2
55.4544 31.5636 2
54.2464 28.4776 2
53.9247 20.1761 2
53.4725 22.7677 2
53.59 25.5729 2
46.6671 10.6542 2
47.7428 13.1089 2
51.6196 19.3669 2
49.9892 17.7211 2
48.9238 15.4176 2
54.5038 33.9752 3.97609
53.1935 30.5657 3.97754
52.341 27.2883 3.97583
52.0059 24.179 3.97708
52.3278 21.1043 3.97446
41.0139 9.05134 3.98273
44.7254 9.99592 3.98458
42.4683 10.9042 3.98564
46.0036 12.736 3.97737
47.675 14.5964 3.97374
48.097 17.0029 3.97358
49.798 19.7049 3.9734
49.5907 61.7391 0.0190825
50.5578 59.3134 0.0258266
55.2749 41.6716 0.0240186
53.8917 45.5014 0.0250931
53.1455 49.2773 0.0302975
52.1556 56.4663 0.0315115
52.5754 52.8143 0.037599
48.8434 60.1939 2
52.1391 42.5745 2
49.7698 57.6068 2
50.5308 54.4022 2
51.5592 47.2097 2
51.0731 50.9009 2
47.7949 43.7323 2
47.9751 58.7286 3.97895
49.7384 45.2128 3.97893
48.5598 55.8985 3.97575
49.0367 52.5621 3.9767
49.4838 48.994 3.97292
45.5596 39.8428 3.88161
46.0191 42.5826 3.91409
46.1852 45.7475 3.98524
43.3703 41.0973 3.77873
41.8245 41.98 3.62324
47.3272 61.0016 0.0153568
46.6139 59.7885 2
45.4607 58.7828 3.98175
39.6327 67.7633 0.0163268
41.5462 65.6387 0.0188979
43.1464 63.718 0.0198598
44.4832 61.8252 0.0190267
45.7637 60.6215 0.0173122
41.6001 63.8113 2
37.5637 67.7456 2
39.6476 65.6065 2
44.6207 60.2826 2
42.9505 62.0729 2
41.7534 62.4833 3.97948
42.4787 59.9689 3.98197
39.8939 63.544 3.97847
37.6423 65.5037 3.98054
35.4637 67.6541 3.98279
33.5757 65.337 3.9801
31.9593 63.2941 3.98097
29.8834 64.7169 3.98235
31.6973 65.1257 2
31.3771 67.1931 3.98325
33.3926 67.4835 2
33.1571 69.7514 3.98725
35.3338 69.9584 2
35.195 72.3724 3.99184
37.5261 70.0474 0.0127605
37.5096 72.4585 2
37.5 75 4
39.8178 72.4035 0.00806193
39.9526 74.9197 2
42.3947 74.6792 0
39.6242 4.71651 3.98948
41.7365 4.96814 2
42.0628 2.71808 3.99328
43.852 5.35983 0.0110308
44.3266 3.1101 2
44.8158 0.721173 4
46.5712 3.64744 0.0072561
47.2057 1.27779 2
49.554 1.99015 0
57.7058 40.6281 0.0225729
59.5249 37.5646 0.0226092
54.7037 39.6865 0.0244661
49.1798 41.2899 2
56.4862 37.8857 2
52.7222 39.296 2
53.5671 36.6313 3.97729
47.0839 40.3653 3.92107
50.0996 38.5204 3.99134
37.5168 6.67518 3.98601
39.4429 6.80261 2
39.2113 8.69455 3.98342
35.9427 8.49496 3.98383
57.0941 34.7763 0.0226077
55.4512 31.5646 0.0228526
54.2466 28.4771 0.0222988
53.9241 20.1741 0.0357109
53.4732 22.7695 0.0442183
53.592 25.5712 0.0240075
51.6185 19.3664 0.0222071
49.9899 17.723 0.0243853
48.9243 15.4179 0.0260188
45.3604 7.99567 0.0134977
47.7425 13.1116 0.0212148
46.667 10.6573 0.0186175
41.3993 7.08 0.0138132
42.8663 9.41752 0.0170639
54.4999 33.9776 2
41.0139 9.05038 2
44.7247 9.9954 2
42.4681 10.9041 2
53.1915 30.5652 2
52.3482 27.2909 2
52.3297 21.1048 2
52.0066 24.1802 2
46.0034 12.7314 2
47.6747 14.5934 2
49.799 19.7048 2
48.0956 17.0005 2
52.0511 32.8899 3.97985
50.9942 29.2497 3.97507
50.5865 25.8141 3.97295
49.8803 22.2943 3.98281
40.5689 11.6109 3.9808
43.8578 11.9165 3.98021
45.7945 15.4343 3.98127
47.4887 19.3172 3.97742
45.9406 37.4827 3.88104
48.8437 60.1953 0.0212784
49.7702 57.606 0.0281442
52.1266 42.5712 0.0188072
51.5559 47.2092 0.0237747
51.0724 50.9026 0.0424341
50.5309 54.4007 0.0352834
47.7847 43.7089 0.0112851
47.9746 58.7298 2
49.7528 45.2223 2
48.5584 55.9005 2
49.036 52.566 2
49.4868 48.9914 2
45.601 39.8524 2
46.0432 42.6068 2
46.1914 45.7506 2
43.3958 41.1247 2
41.8434 41.9977 2
46.8195 57.3305 3.98202
44.122 39.384 3.7779
42.1777 40.8529 3.67663
47.8153 47.1962 3.97928
47.1116 54.2133 3.97138
47.4613 50.7148 3.9686
44.5796 47.3442 3.97651
44.6712 41.9145 3.86296
44.6584 44.4796 3.93066
42.2698 42.5974 3.78978
40.7586 42.3066 3.66086
46.6141 59.7883 0.0152382
45.4612 58.7833 2
43.8655 57.7015 3.98336
37.5635 67.7447 0.0171428
39.6477 65.6058 0.0198951
41.6 63.8112 0.0196522
42.9503 62.0722 0.0214145
44.6206 60.2819 0.0166767
35.4639 67.6553 2
41.7535 62.4838 2
39.8937 63.5445 2
37.6424 65.5045 2
42.4791 59.9694 2
40.6234 61.6384 3.98047
40.4408 58.1938 3.98056
37.8371 63.2045 3.97874
35.5731 65.4256 3.98005
33.5757 65.3375 2
31.959 63.2947 2
33.6287 63.332 3.97932
30.3786 62.8539 3.98173
32.1239 61.9988 3.98344
26.8706 61.4952 3.97946
28.0623 64.1454 3.98198
29.8834 64.7175 2
29.4066 66.7574 3.98393
31.6973 65.125 0.0188739
31.3772 67.1938 2
31.0147 69.4165 3.98719
33.3925 67.4828 0.0173931
33.157 69.752 2
32.8921 72.1468 3.99195
35.3339 69.9575 0.0125905
35.1949 72.3729 2
35.0474 74.9194 4
37.5095 72.458 0.00807847
37.5 75 2
39.9526 74.9197 0
35.6215 6.72637 3.98553
37.5237 4.61605 3.98957
39.6242 4.71544 2
39.7893 2.47459 3.99327
41.7365 4.96903 0.0108496
42.0628 2.71756 2
42.3946 0.32156 4
44.3265 3.11059 0.00693239
44.8159 0.72056 2
47.2057 1.27793 0
49.1592 41.2785 0.0125778
56.4859 37.8852 0.0228173
52.7231 39.3052 0.0166984
47.1035 40.3646 2
50.1073 38.5105 2
53.5738 36.6345 2
50.8871 35.5778 3.97645
47.7497 37.7506 3.93531
45.5593 35.1437 3.87913
43.3763 33.8885 3.77201
41.8261 33.0159 3.61937
37.4585 8.53641 3.98418
37.5167 6.67401 2
39.4428 6.80384 0.013933
39.2114 8.69304 2
38.9764 10.1293 3.98373
35.8991 9.77667 3.98174
34.1516 8.82543 3.98282
35.9422 8.49346 2
54.5038 33.9752 0.0239094
53.1935 30.5657 0.0224562
52.341 27.2883 0.0241694
52.3278 21.1043 0.0255386
52.0059 24.179 0.0229155
49.798 19.7049 0.0266027
48.097 17.0029 0.0264238
47.675 14.5964 0.026261
44.7254 9.99592 0.0154246
46.0036 12.736 0.022629
41.0139 9.05134 0.0172738
42.4683 10.9042 0.0143606
52.0576 32.8895 2
40.5696 11.611 2
43.8568 11.9169 2
51.0105 29.2516 2
50.5918 25.8175 2
49.8795 22.2906 2
45.793 15.4248 2
47.4891 19.3232 2
49.5948 31.481 3.98646
49.0206 27.5862 3.97466
49.2625 24.4953 3.97855
47.1543 22.0609 3.98218
38.3024 12.7417 3.97805
42.1002 14.3068 3.97872
44.7898 18.5115 3.97775
44.4633 37.4908 3.78711
46.0039 37.4891 2
47.9751 58.7286 0.0210535
48.5598 55.8985 0.0242492
49.7384 45.2128 0.0210749
49.4838 48.994 0.0270809
49.0367 52.5621 0.0232999
45.5596 39.8428 0.11839
46.0191 42.5826 0.0859085
46.1852 45.7475 0.0147608
43.3703 41.0973 0.221265
41.8245 41.98 0.376763
46.8184 57.3314 2
44.1568 39.4053 2
42.1722 40.8627 2
47.8183 47.1989 2
47.1096 54.2175 2
47.4634 50.7186 2
44.5899 47.3226 2
44.6953 41.9366 2
44.6806 44.4989 2
42.3177 42.6275 2
40.7678 42.3047 2
45.368 55.9201 3.98939
42.4992 39.2656 3.68734
40.6434 40.747 3.7766
45.9154 48.873 3.9894
45.452 52.5018 3.98216
43.2787 48.3545 3.99814
43.2198 46.0189 3.91185
43.395 43.6954 3.8615
40.9106 43.7136 3.7751
39.2516 42.6058 3.6774
45.4607 58.7828 0.0182453
43.8658 57.7027 2
42.0927 56.316 3.98324
35.4637 67.6541 0.0172116
37.6423 65.5037 0.0194611
39.8939 63.544 0.0215304
41.7534 62.4833 0.0205199
42.4787 59.9689 0.0180264
35.5733 65.4272 2
40.6236 61.6392 2
37.8368 63.2051 2
40.4412 58.1949 2
38.9198 56.4851 3.9901
38.2507 60.3197 3.97932
35.6069 63.1968 3.97689
33.5757 65.337 0.0198982
31.9593 63.2941 0.0190255
33.6285 63.3326 2
30.3785 62.8543 2
32.124 61.9994 2
28.6818 62.1993 3.98133
33.3461 61.5084 3.981
31.0685 61.2165 3.98103
27.5742 59.5893 3.98085
23.7997 59.0759 3.97886
25.037 60.8681 3.97962
26.8708 61.4959 2
26.2295 63.4761 3.9811
28.0624 64.1457 2
27.4632 66.1816 3.98417
29.8834 64.7169 0.0176494
29.4067 66.7578 2
28.907 68.9425 3.98704
31.3771 67.1931 0.0167477
31.0145 69.4172 2
30.6144 71.7778 3.99182
33.1571 69.7514 0.0127459
32.8918 72.1472 2
32.6054 74.6784 4
35.195 72.3724 0.00815969
35.0474 74.9197 2
37.5 75 0
33.7243 6.98165 3.98492
35.4355 4.68634 3.98941
35.6213 6.72533 2
37.5148 2.38713 3.99325
37.5236 4.61525 2
39.6242 4.71651 0.0105155
39.7891 2.474 2
39.9526 0.0806499 4
42.0628 2.71808 0.00671842
42.3947 0.320817 2
44.8158 0.721173 0
44.1334 35.5953 3.77476
42.1829 34.1346 3.67253
47.0839 40.3653 0.0789309
50.0996 38.5204 0.0086626
53.5671 36.6313 0.022709
47.7518 37.7547 2
50.9 35.5753 2
45.5929 35.1227 2
43.4061 33.8595 2
41.8459 32.9977 2
47.9174 34.3039 3.96239
44.6705 33.0586 3.85664
42.2721 32.3989 3.78396
40.7609 32.6937 3.65774
37.3109 10.634 3.98113
37.4583 8.53466 2
37.5168 6.67518 0.0139933
39.2113 8.69455 0.0165755
38.9772 10.1278 2
34.7548 10.3842 3.9813
35.8992 9.77428 2
32.3785 9.37293 3.98078
34.1507 8.82355 2
35.9427 8.49496 0.0161653
52.0511 32.8899 0.0201532
50.9942 29.2497 0.0249313
50.5865 25.8141 0.0270546
49.8803 22.2943 0.0171903
47.4887 19.3172 0.022583
45.7945 15.4343 0.01873
43.8578 11.9165 0.0197939
40.5689 11.6109 0.0192029
49.6084 31.4755 2
38.3024 12.7396 2
42.1005 14.3094 2
49.0261 27.5868 2
49.2661 24.4922 2
47.1492 22.0574 2
44.7896 18.5274 2
47.4315 29.583 3.98325
46.9514 25.2431 3.98017
44.2652 21.4451 3.97654
36.5831 12.9405 3.97636
38.6828 14.8199 3.97601
41.7459 17.8753 3.97862
42.6184 37.4843 3.70231
44.4932 37.4905 2
45.9406 37.4827 0.118957
46.8195 57.3305 0.0179809
47.1116 54.2133 0.0286157
47.8153 47.1962 0.0207213
47.4613 50.7148 0.0314012
44.122 39.384 0.222098
44.6712 41.9145 0.137041
44.6584 44.4796 0.0693369
44.5796 47.3442 0.0234929
42.2698 42.5974 0.210221
42.1777 40.8529 0.323369
40.7586 42.3066 0.33914
45.3668 55.9196 2
42.4906 39.264 2
40.6363 40.7327 2
45.916 48.8808 2
45.451 52.5077 2
43.2831 48.3732 2
43.2534 46.0475 2
43.4278 43.7231 2
40.943 43.7568 2
39.2493 42.6039 2
43.6993 54.4183 3.99591
40.7398 39.1442 3.79779
39.1169 40.8139 3.78116
43.5757 50.4161 4.00432
41.8721 47.5626 3.94831
41.7834 45.1111 3.87577
39.3361 44.3966 3.7791
37.5044 42.7009 3.70012
43.8655 57.7015 0.0166367
42.0933 56.3165 2
40.4042 54.9081 3.98188
35.5731 65.4256 0.0199541
37.8371 63.2045 0.0212569
40.6234 61.6384 0.0195304
40.4408 58.1938 0.0194377
35.6067 63.1981 2
38.251 60.3205 2
38.9201 56.4852 2
37.9956 55.2264 3.99063
36.9337 57.6162 3.98331
35.3636 60.9026 3.97709
33.6287 63.332 0.0206803
30.3786 62.8539 0.0182712
32.1239 61.9988 0.0165597
33.3463 61.5091 2
28.6819 62.1995 2
31.069 61.2169 2
29.4065 60.2857 3.97958
32.3608 59.74 3.98764
28.0346 58.3705 3.9898
27.5748 59.5901 2
25.3881 58.5899 3.97744
22.7686 58.23 3.96991
23.4045 60.3454 3.97887
23.8001 59.0768 2
25.0373 60.8689 2
24.4327 62.7678 3.98123
26.8706 61.4952 0.0205389
26.2296 63.4769 2
25.5475 65.491 3.98323
28.0623 64.1454 0.0180171
27.4633 66.1821 2
26.8365 68.331 3.98707
29.4066 66.7574 0.0160703
28.9069 68.9428 2
28.3694 71.263 3.99185
31.0147 69.4165 0.0128088
30.6141 71.7781 2
30.1842 74.2788 4
32.8921 72.1468 0.00804968
32.6053 74.6792 2
35.0474 74.9194 0
31.7888 7.42174 3.98374
33.3479 4.92587 3.98887
33.7239 6.98019 2
35.245 2.46318 3.99317
35.4353 4.68569 2
35.6215 6.72637 0.0144725
37.5 0 4
37.5145 2.38669 2
37.5237 4.61605 0.0104255
39.7893 2.47459 0.00672984
39.9526 0.0802889 2
42.3946 0.32156 0
42.4924 35.7094 3.6881
44.1663 35.5744 2
40.6483 34.2493 3.77525
42.1733 34.1263 2
47.7497 37.7506 0.0646931
50.8871 35.5778 0.0235532
45.5593 35.1437 0.120868
43.3763 33.8885 0.22799
41.8261 33.0159 0.380631
47.9347 34.2971 2
44.6975 33.0405 2
42.3229 32.3649 2
40.772 32.6952 2
45.9445 31.628 3.93508
43.3865 31.3026 3.86338
40.9093 31.2851 3.77682
39.2523 32.4046 3.67639
35.6934 11.7816 3.97939
37.312 10.6314 2
37.4585 8.53641 0.0158186
38.9764 10.1293 0.0162687
33.0994 11.2229 3.97756
34.7543 10.3812 2
35.8991 9.77667 0.0182642
30.4836 10.0228 3.98038
32.3778 9.37242 2
34.1516 8.82543 0.0171769
49.5948 31.481 0.0135375
49.0206 27.5862 0.0253428
49.2625 24.4953 0.0214506
47.1543 22.0609 0.0178243
44.7898 18.5115 0.0222512
42.1002 14.3068 0.021281
38.3024 12.7417 0.0219469
36.5826 12.9356 2
47.4423 29.56 2
38.6819 14.8144 2
41.7439 17.878 2
46.9587 25.2419 2
44.2624 21.4293 2
45.301 27.7099 4.00214
43.7099 24.1631 4.00781
41.325 20.8313 3.97999
35.7736 14.7728 3.97722
38.6822 17.6211 3.97838
40.7912 37.4781 3.80704
42.6152 37.4859 2
44.4633 37.4908 0.212894
45.368 55.9201 0.0106122
45.452 52.5018 0.0178409
45.9154 48.873 0.0105965
42.4992 39.2656 0.312659
43.395 43.6954 0.1385
43.2198 46.0189 0.0881534
43.2787 48.3545 0.001858
40.9106 43.7136 0.224901
40.6434 40.747 0.223404
39.2516 42.6058 0.322596
43.6969 54.4175 2
40.7222 39.1371 2
39.1178 40.7958 2
43.5742 50.4331 2
41.8644 47.5837 2
41.8047 45.1415 2
37.5029 42.7015 2
39.353 44.432 2
41.8487 52.9616 3.99485
39.1365 39.1565 3.8024
37.5043 40.8627 3.79478
35.7598 42.6136 3.67904
40.8604 49.616 3.99725
39.8009 45.9556 3.85286
37.5033 44.6264 3.77337
42.0927 56.316 0.0167604
40.402 54.9141 2
38.7228 53.7902 3.99629
35.6069 63.1968 0.0231082
38.2507 60.3197 0.0206782
38.9198 56.4851 0.00989966
35.3638 60.9033 2
36.9348 57.617 2
37.9952 55.2214 2
36.3241 55.3076 3.99797
34.4892 58.5082 3.98532
33.3461 61.5084 0.0189985
28.6818 62.1993 0.0186717
31.0685 61.2165 0.0189683
32.3614 59.7407 2
29.4072 60.2858 2
30.312 57.8151 3.98432
28.0351 58.3712 2
26.9684 56.823 3.97538
27.5742 59.5893 0.0191465
25.3887 58.5909 2
23.8622 56.7895 3.96259
21.3506 57.3823 3.96885
22.0001 59.6146 3.97712
22.7689 58.2317 2
22.7377 62.0175 3.97882
23.4048 60.3463 2
23.7997 59.0759 0.0211395
25.037 60.8681 0.0203826
24.433 62.7687 2
23.6817 64.7083 3.98277
26.2295 63.4761 0.0188954
25.5475 65.492 2
24.8086 67.5922 3.98678
27.4632 66.1816 0.0158295
26.8364 68.3317 2
26.1645 70.6037 3.9919
28.907 68.9425 0.012965
28.369 71.2632 2
27.7943 73.7221 4
30.6144 71.7778 0.00818144
30.1841 74.2794 2
32.6054 74.6784 0
29.8115 7.99639 3.98274
31.2533 5.33288 3.98796
31.7884 7.42088 2
32.9808 2.70147 3.99285
33.3476 4.92486 2
33.7243 6.98165 0.0150752
35.0474 0.080333 4
35.2447 2.46286 2
35.4355 4.68634 0.0105882
37.5 0 2
37.5148 2.38713 0.00675244
39.9526 0.0806499 0
40.744 35.8273 3.79561
42.4839 35.7123 2
44.1334 35.5953 0.225236
28.5443 10.6983 3.97919
39.1145 34.1952 3.78044
40.6381 34.2637 2
42.1829 34.1346 0.327466
47.9174 34.3039 0.0376124
44.6705 33.0586 0.143361
42.2721 32.3989 0.216037
40.7609 32.6937 0.34226
45.9726 31.6125 2
43.4179 31.2711 2
40.9442 31.243 2
39.2548 32.4078 2
44.2048 29.8231 3.92806
41.7784 29.8867 3.87418
39.3404 30.6085 3.77792
37.5081 32.3181 3.69958
34.0943 12.9439 3.97601
35.6932 11.7766 2
37.3109 10.634 0.0188668
31.1878 11.9933 3.97821
33.0996 11.2222 2
34.7548 10.3842 0.0187022
30.4824 10.0203 2
32.3785 9.37293 0.0192234
47.4315 29.583 0.0167486
46.9514 25.2431 0.0198295
36.5831 12.9405 0.0236369
44.2652 21.4451 0.0234613
41.7459 17.8753 0.0213777
38.6828 14.8199 0.0239867
35.7742 14.7782 2
45.3052 27.7092 2
38.6798 17.6238 2
41.3206 20.8211 2
43.7132 24.1532 2
33.6107 15.8922 3.97713
42.903 26.5608 3.99633
40.864 23.3961 4.01312
38.4129 20.3995 3.98404
35.8522 17.527 3.9795
39.1416 37.4886 3.82614
40.7757 37.478 2
42.6184 37.4843 0.297689
43.6993 54.4183 0.00409256
43.5757 50.4161 -0.00432486
40.7398 39.1442 0.202212
41.7834 45.1111 0.124225
41.8721 47.5626 0.0516927
39.3361 44.3966 0.220898
39.1169 40.8139 0.218838
37.5044 42.7009 0.299884
41.8455 52.959 2
39.1257 39.1448 2
37.5037 40.84 2
40.8657 49.6313 2
35.7569 42.6108 2
39.8202 45.9933 2
37.497 44.6579 2
39.7895 51.8299 4.00149
37.5013 39.1672 3.82917
35.8928 40.8276 3.78134
34.2505 42.3164 3.65799
35.6691 44.4099 3.77512
38.6702 48.6019 3.96297
37.5179 46.2524 3.86917
40.4042 54.9081 0.0181241
38.722 53.7837 2
36.743 53.1263 3.99908
35.3636 60.9026 0.0229146
36.9337 57.6162 0.0166861
37.9956 55.2264 0.00937407
34.4904 58.509 2
36.3252 55.3101 2
33.2466 55.4867 3.99479
32.3608 59.74 0.0123641
29.4065 60.2857 0.0204219
30.3126 57.8154 2
28.7288 55.311 3.97907
28.0346 58.3705 0.0102016
26.9686 56.8236 2
25.3524 55.1286 3.97
21.8406 55.3297 3.96477
25.3881 58.5899 0.0225579
23.8622 56.7918 2
20.2367 57.0108 3.97119
20.6542 58.7659 3.97259
21.3505 57.3839 2
21.1697 61.1653 3.97683
22.0004 59.6156 2
22.7686 58.23 0.0300862
21.8956 63.8354 3.98136
22.738 62.0185 2
23.4045 60.3454 0.0211301
24.4327 62.7678 0.0187706
23.6818 64.7091 2
22.837 66.7352 3.98594
25.5475 65.491 0.0167658
24.8086 67.5931 2
24.0087 69.8049 3.99199
26.8365 68.331 0.012929
26.1641 70.604 2
25.446 73.0099 4
28.3694 71.263 0.00815334
27.7943 73.7222 2
30.1842 74.2788 0
27.8214 8.65604 3.98233
29.1555 5.87921 3.98687
29.8107 7.99441 2
30.7261 3.09852 3.99256
31.2529 5.33209 2
31.7888 7.42174 0.0162634
32.6053 0.320823 4
32.9804 2.70097 2
33.3479 4.92587 0.0111273
35.0474 0.0802903 2
35.245 2.46318 0.00683182
37.5 0 0
39.1367 35.8323 3.80294
40.7252 35.8331 2
42.4924 35.7094 0.311903
28.5433 10.6974 2
26.6228 11.3945 3.97903
29.2269 12.6496 3.97885
37.5012 34.1585 3.79368
39.116 34.2144 2
40.6483 34.2493 0.224746
45.9445 31.628 0.0649219
43.3865 31.3026 0.136617
40.9093 31.2851 0.223179
39.2523 32.4046 0.32361
44.2055 29.812 2
41.7944 29.8606 2
39.3523 30.5721 2
37.5098 32.3164 2
42.2327 28.4847 3.90118
39.8065 29.0399 3.87386
37.5108 30.3888 3.77346
35.766 32.4049 3.67715
31.9171 14.4934 3.97733
34.0951 12.9439 2
35.6934 11.7816 0.0206103
31.187 11.9895 2
33.0994 11.2229 0.0224382
30.4836 10.0228 0.019615
45.301 27.7099 -0.0021424
43.7099 24.1631 -0.00780527
35.7736 14.7728 0.0227834
41.325 20.8313 0.0200087
38.6822 17.6211 0.0216189
33.6093 15.8883 2
35.849 17.5299 2
42.912 26.5616 2
38.4115 20.4005 2
40.8602 23.38 2
33.5554 17.4019 3.97821
40.3235 25.7556 3.98648
38.0675 23.0476 3.99787
35.5835 20.1134 3.98207
37.4996 37.4995 3.84808
39.1318 37.4879 2
40.7912 37.4781 0.192965
41.8487 52.9616 0.00515175
40.8604 49.616 0.00274724
39.1365 39.1565 0.197599
39.8009 45.9556 0.147144
37.5033 44.6264 0.226632
37.5043 40.8627 0.205222
35.7598 42.6136 0.320956
39.7898 51.8326 2
37.5015 39.1532 2
35.8915 40.8097 2
38.6851 48.643 2
34.241 42.3153 2
35.6523 44.4476 2
37.5207 46.2917 2
37.658 50.895 4.00125
35.8701 39.1744 3.80314
34.367 40.7673 3.77592
33.1793 41.9919 3.62278
34.0864 43.7153 3.77624
35.1877 45.9521 3.86583
36.9104 48.2274 3.93187
38.7228 53.7902 0.0037114
36.7381 53.13 2
34.3971 52.431 3.99657
34.4892 58.5082 0.0146801
36.3241 55.3076 0.00203241
33.2473 55.4896 2
30.5618 53.3409 3.97987
30.312 57.8151 0.0156777
28.7292 55.3128 2
26.9465 53.4249 3.97213
26.9684 56.823 0.0246238
25.3524 55.1323 2
23.6444 53.4601 3.95856
20.5497 53.1951 3.96214
19.9587 55.8117 3.96639
21.8393 55.3312 2
23.8622 56.7895 0.0374087
19.4503 57.8723 3.97153
20.2362 57.0122 2
19.7112 60.1916 3.97608
20.6542 58.7665 2
21.3506 57.3823 0.0311461
20.2087 62.8553 3.97887
21.17 61.1667 2
22.0001 59.6146 0.0228764
20.9383 65.7638 3.98497
21.8957 63.8363 2
22.7377 62.0175 0.0211756
23.6817 64.7083 0.017229
22.837 66.7358 2
21.9113 68.8719 3.99162
24.8086 67.5922 0.0132207
24.0081 69.8051 2
23.1494 72.1454 4
26.1645 70.6037 0.00809784
25.446 73.0099 2
27.7943 73.7221 0
25.8605 9.38492 3.98136
27.0703 6.54326 3.98584
27.8205 8.65516 2
28.4883 3.64459 3.99203
29.1549 5.87791 2
29.8115 7.99639 0.017256
30.1841 0.720592 4
30.7255 3.09817 2
31.2533 5.33288 0.0120355
32.6053 0.320817 2
32.9808 2.70147 0.00715371
35.0474 0.080333 0
37.5009 35.8381 3.82812
39.1243 35.8426 2
40.744 35.8273 0.204386
24.7778 12.0797 3.97896
23.7536 14.3694 3.97755
28.5443 10.6983 0.0208095
26.6221 11.3943 2
29.2261 12.6486 2
27.2932 13.3832 3.97829
29.7834 14.212 3.9785
35.8906 34.1938 3.7802
37.503 34.1805 2
39.1145 34.1952 0.219561
37.5081 32.3181 0.300422
44.2048 29.8231 0.0719415
41.7784 29.8867 0.125818
39.3404 30.6085 0.22208
42.2531 28.4546 2
39.8187 29.0051 2
37.5143 30.355 2
35.7649 32.4074 2
39.9909 27.6769 3.90454
37.5034 28.7557 3.86948
35.678 30.6194 3.78067
34.2614 32.7002 3.65797
30.9306 16.8556 3.97782
31.9165 14.487 2
34.0943 12.9439 0.0239881
31.1878 11.9933 0.0217878
42.903 26.5608 0.00367135
40.864 23.3961 -0.0131151
33.6107 15.8922 0.0228687
35.8522 17.527 0.0204965
38.4129 20.3995 0.0159613
33.5511 17.4146 2
35.5853 20.1173 2
40.3255 25.7383 2
38.058 23.0363 2
32.8692 19.8082 3.98685
37.7796 25.3536 3.99914
35.1947 22.7687 3.99398
35.8585 37.5034 3.82683
37.4995 37.4994 2
39.1416 37.4886 0.173856
39.7895 51.8299 -0.00149109
38.6702 48.6019 0.0370298
37.5013 39.1672 0.170826
37.5179 46.2524 0.130827
35.6691 44.4099 0.224877
35.8928 40.8276 0.218662
34.2505 42.3164 0.342013
37.6457 50.9164 2
35.8825 39.163 2
34.373 40.7538 2
36.8895 48.2695 2
33.1601 42.0083 2
34.0588 43.7546 2
35.1729 45.983 2
35.5127 50.0592 3.9923
34.2714 39.1716 3.79759
32.8204 40.8709 3.67463
32.7326 42.61 3.78598
33.227 45.1139 3.87148
34.345 47.3247 3.90658
36.743 53.1263 0.000924725
34.391 52.4374 2
32.0802 51.1519 4.00724
33.2466 55.4867 0.0052072
30.562 53.3456 2
28.5063 51.5591 3.9821
28.7288 55.311 0.0209253
26.9461 53.4284 2
25.177 51.7122 3.95637
25.3524 55.1286 0.0299989
23.6435 53.4625 2
22.0799 51.7693 3.95474
19.3269 51.6018 3.96285
18.9684 54.2852 3.96327
20.5491 53.1944 2
18.4657 56.7044 3.9686
19.9575 55.813 2
21.8406 55.3297 0.0352318
18.3761 59.0949 3.9702
19.45 57.8733 2
20.2367 57.0108 0.0288069
18.6213 61.758 3.97446
19.7116 60.193 2
20.6542 58.7659 0.0274072
19.1274 64.6734 3.9836
20.2087 62.8565 2
21.1697 61.1653 0.0231704
19.8855 67.8086 3.99154
20.9383 65.7646 2
21.8956 63.8354 0.0186431
22.837 66.7352 0.0140585
21.9107 68.8718 2
20.9142 71.1327 4
24.0087 69.8049 0.00801226
23.1494 72.1455 2
25.446 73.0099 0
23.0973 12.7955 3.97848
23.9731 10.1732 3.98051
25.0239 7.31392 3.98483
25.8598 9.38444 2
26.2801 4.32871 3.99154
27.0696 6.54258 2
27.8214 8.65604 0.0176671
27.7943 1.27781 4
28.4875 3.64418 2
29.1555 5.87921 0.0131298
30.1841 0.720551 2
30.7261 3.09852 0.00744159
32.6053 0.320823 0
35.8635 35.8369 3.80126
37.5014 35.8523 2
39.1367 35.8323 0.197058
24.7772 12.0789 2
23.7539 14.3695 2
22.4829 15.0466 3.9788
25.3595 13.9177 3.97717
24.0303 15.6332 3.97934
26.6228 11.3945 0.0209711
29.2269 12.6496 0.0211499
27.2931 13.3833 2
29.7817 14.2102 2
28.3617 15.9881 3.97778
34.3684 34.2573 3.7741
35.89 34.2127 2
37.5012 34.1585 0.206325
35.766 32.4049 0.322853
37.5108 30.3888 0.226543
42.2327 28.4847 0.0988179
39.8065 29.0399 0.126142
40.0113 27.6495 2
37.505 28.7199 2
35.6614 30.5777 2
34.248 32.7031 2
37.5804 27.3903 3.9168
35.1966 29.055 3.87245
34.0984 31.2997 3.7762
33.1963 33.0265 3.62157
30.2163 19.3702 3.98094
30.9288 16.8485 2
31.9171 14.4934 0.0226735
40.3235 25.7556 0.0135156
38.0675 23.0476 0.00212725
33.5554 17.4019 0.0217915
35.5835 20.1134 0.0179296
32.8686 19.8218 2
35.1905 22.7574 2
37.776 25.3404 2
32.3187 22.4967 3.99641
35.0205 25.3172 4.00057
34.2131 37.5113 3.80836
35.8687 37.5045 2
37.4996 37.4995 0.151924
37.658 50.895 -0.00125119
36.9104 48.2274 0.0681271
35.8701 39.1744 0.196862
35.1877 45.9521 0.134172
34.0864 43.7153 0.223757
34.367 40.7673 0.224079
33.1793 41.9919 0.377217
35.5017 50.0633 2
34.2909 39.1656 2
32.8257 40.8778 2
34.3327 47.3652 2
32.6943 42.6397 2
33.2098 45.1419 2
33.3344 49.0582 3.98502
32.5036 39.2906 3.69048
31.6224 41.1126 3.77647
31.6094 43.7042 3.86348
32.3985 46.264 3.90535
34.3971 52.431 0.00342791
32.0818 51.162 2
29.9818 49.67 3.98474
30.5618 53.3409 0.0201282
28.505 51.5574 2
26.6385 49.9391 3.96909
26.9465 53.4249 0.02787
25.1757 51.71 2
23.4862 50.1429 3.96435
23.6444 53.4601 0.0414443
22.0792 51.7678 2
20.6164 50.2731 3.96534
18.1316 50.2963 3.96803
17.9304 52.7637 3.96441
19.3255 51.6011 2
17.4661 55.3218 3.96317
18.9651 54.2854 2
20.5497 53.1951 0.0378559
17.1464 57.8561 3.9666
18.4649 56.7047 2
19.9587 55.8117 0.0336143
17.1399 60.535 3.97337
18.3761 59.0959 2
19.4503 57.8723 0.0284681
17.4087 63.4641 3.97951
18.6215 61.7592 2
19.7112 60.1916 0.0239196
17.942 66.617 3.99086
19.1273 64.6746 2
20.2087 62.8553 0.0211267
18.75 69.9759 4
19.8847 67.8083 2
20.9383 65.7638 0.0150288
21.9113 68.8719 0.00837818
20.9142 71.1327 2
23.1494 72.1454 0
21.5886 13.6169 3.97817
22.1912 11.0335 3.9796
23.0973 12.7957 2
23.0417 8.18035 3.98393
23.9724 10.1722 2
24.1177 5.1435 3.99104
25.0232 7.31329 2
25.8605 9.38492 0.0186396
25.446 1.99014 4
26.2791 4.32869 2
27.0703 6.54326 0.0141618
27.7943 1.27778 2
28.4883 3.64459 0.00796571
30.1841 0.720592 0
34.2657 35.8461 3.79651
35.8745 35.8482 2
37.5009 35.8381 0.171877
21.3103 15.8434 3.98063
24.7778 12.0797 0.02104
23.7536 14.3694 0.022447
25.3596 13.9168 2
22.4837 15.0469 2
24.0306 15.634 2
23.2714 16.2638 3.97597
25.3863 16.103 3.97893
27.2932 13.3832 0.0217103
29.7834 14.212 0.0215044
28.3595 15.991 2
27.4474 18.8217 3.97903
32.8312 34.1496 3.67405
34.3799 34.2717 2
35.8906 34.1938 0.219795
34.2614 32.7002 0.342028
35.678 30.6194 0.219332
37.5034 28.7557 0.130525
39.9909 27.6769 0.0954592
37.5829 27.3534 2
33.176 33.01 2
35.1902 29.0131 2
34.0616 31.254 2
35.092 27.5105 3.91578
33.2274 29.902 3.86877
32.7484 32.4016 3.77348
29.6065 21.9669 3.99555
30.2161 19.3816 2
30.9306 16.8556 0.0221802
37.7796 25.3536 0.000863223
35.1947 22.7687 0.00602398
32.8692 19.8082 0.0131537
32.3185 22.4873 2
35.0375 25.3049 2
31.797 25.7204 4.00797
32.3722 37.5122 3.70477
34.2335 37.5113 2
35.8585 37.5034 0.173173
35.5127 50.0592 0.00769674
34.345 47.3247 0.0934245
34.2714 39.1716 0.202409
33.227 45.1139 0.128521
32.7326 42.61 0.214022
32.8204 40.8709 0.325371
33.3289 49.0571 2
32.5183 39.2893 2
31.5928 41.1381 2
32.3652 46.2957 2
31.5782 43.7316 2
31.3052 47.8957 3.98587
30.8716 39.4052 3.77653
30.3271 41.9415 3.85765
30.6387 44.8644 3.92654
32.0802 51.1519 -0.0072356
29.9806 49.6745 2
28.0598 48.123 3.96391
28.5063 51.5591 0.0179016
26.6373 49.9368 2
24.8379 48.4114 3.97248
25.177 51.7122 0.0436274
23.4857 50.1408 2
21.859 48.7354 3.96987
22.0799 51.7693 0.0452614
20.6146 50.2721 2
19.2056 49.0522 3.97225
17.029 49.3011 3.97302
16.8784 51.3799 3.96699
18.1333 50.2952 2
16.4394 53.8504 3.96456
17.9281 52.7635 2
19.3269 51.6018 0.0371492
15.9918 56.4603 3.96617
17.4637 55.3223 2
18.9684 54.2852 0.0367346
15.7562 59.1973 3.96947
17.1463 57.8569 2
18.4657 56.7044 0.0314046
15.7904 62.131 3.97439
17.1403 60.5367 2
18.3761 59.0949 0.0298006
16.0892 65.2995 3.98957
17.4083 63.4658 2
18.6213 61.758 0.0255406
16.6661 68.6801 4
17.941 66.6167 2
19.1274 64.6734 0.0164043
18.75 69.9759 2
19.8855 67.8086 0.00845845
20.9142 71.1327 0
20.2219 14.6076 3.97676
21.5889 13.6171 2
20.5306 12.0044 3.97892
21.1444 9.15075 3.98321
22.1909 11.0334 2
23.0973 12.7955 0.0215245
22.0168 6.08273 3.99044
23.0409 8.17948 2
23.9731 10.1732 0.0194948
23.1494 2.85457 4
24.1165 5.14362 2
25.0239 7.31392 0.0151699
25.446 1.99012 2
26.2801 4.32871 0.00845668
27.7943 1.27781 0
32.4981 35.7302 3.68452
34.2845 35.8558 2
35.8635 35.8369 0.198739
21.3111 15.8431 2
20.3107 16.9756 3.9806
22.1038 16.6497 3.97352
25.3595 13.9177 0.0228347
22.4829 15.0466 0.0212046
24.0303 15.6332 0.0206618
25.3859 16.1034 2
23.2719 16.2646 2
24.2129 18.4773 3.97369
27.0464 21.4894 3.99145
28.3617 15.9881 0.0222224
27.4488 18.8205 2
31.6394 33.9133 3.77367
32.8373 34.1394 2
34.3684 34.2573 0.2259
33.1963 33.0265 0.378426
34.0984 31.2997 0.223799
35.1966 29.055 0.127547
37.5804 27.3903 0.0832034
35.0858 27.4693 2
32.6806 32.3707 2
33.2137 29.8826 2
32.6641 28.2188 3.92687
31.6115 31.3214 3.86433
28.9056 24.4486 3.98187
29.6011 21.9783 2
30.2163 19.3702 0.0190621
35.0205 25.3172 -0.000566353
32.3187 22.4967 0.00359029
31.7991 25.6983 2
29.8021 27.3782 3.97287
30.5226 37.5061 3.78557
32.3843 37.511 2
34.2131 37.5113 0.191636
33.3344 49.0582 0.0149831
32.3985 46.264 0.094648
32.5036 39.2906 0.309516
31.6094 43.7042 0.136518
31.6224 41.1126 0.223533
31.3015 47.8998 2
30.8305 39.4261 2
30.3016 41.9582 2
30.6172 44.8866 2
29.421 46.4997 4.00263
29.431 39.8525 3.88081
29.033 43.0948 3.92657
29.9818 49.67 0.0152557
28.0574 48.1193 2
26.1901 46.5902 3.97633
26.6385 49.9391 0.0309096
24.8372 48.4086 2
23.0579 47.0129 3.97456
23.4862 50.1429 0.0356493
21.8578 48.7343 2
20.1826 47.5713 3.97709
20.6164 50.2731 0.0346556
19.2075 49.0508 2
17.8291 48.1442 3.97636
16.2675 48.656 3.97611
17.0302 49.3002 2
15.958 50.1444 3.97052
15.4456 52.3951 3.96651
16.8789 51.3792 2
18.1316 50.2963 0.0319744
14.8909 54.9638 3.96502
16.4394 53.8502 2
17.9304 52.7637 0.0355859
14.4686 57.727 3.96668
15.9921 56.4603 2
17.4661 55.3218 0.0368266
14.2695 60.6847 3.9734
15.7566 59.1985 2
17.1464 57.8561 0.0333964
14.3344 63.8581 3.98619
15.7902 62.1321 2
17.1399 60.535 0.0266296
14.6715 67.2507 4
16.0877 65.2987 2
17.4087 63.4641 0.0204937
16.6661 68.6801 2
17.942 66.617 0.00914007
18.75 69.9759 0
18.9371 15.7942 3.97825
20.2224 14.6075 2
18.981 13.1165 3.97758
21.5886 13.6169 0.0218319
20.5307 12.0045 2
19.3436 10.2393 3.98244
19.9913 7.14743 3.98997
21.1439 9.15047 2
22.1912 11.0335 0.0204029
20.9142 3.86727 4
22.0153 6.083 2
23.0417 8.18035 0.016074
23.1494 2.85451 2
24.1177 5.1435 0.00896005
25.446 1.99014 0
30.8894 35.6244 3.77868
32.5095 35.733 2
34.2657 35.8461 0.203494
21.3103 15.8434 0.0193684
22.1047 16.65 2
20.3114 16.9745 2
19.2605 18.4251 3.97325
21.7907 17.869 3.97986
25.3863 16.103 0.0210683
23.2714 16.2638 0.024035
24.2133 18.4784 2
22.3065 19.9199 3.96855
24.6281 21.3628 3.98872
26.5144 23.7561 3.97147
27.0456 21.4858 2
27.4474 18.8217 0.0209663
30.3583 33.0878 3.8714
31.6153 33.8774 2
32.8312 34.1496 0.325953
32.7484 32.4016 0.226517
33.2274 29.902 0.131233
35.092 27.5105 0.0842162
32.6249 28.1918 2
31.5752 31.2857 2
30.3259 29.6363 3.94617
28.0499 26.5898 3.98781
28.9004 24.4648 2
29.6065 21.9669 0.00445259
31.797 25.7204 -0.00797063
29.7978 27.3475 2
29.0437 37.5184 3.88165
30.5 37.5069 2
32.3722 37.5122 0.295226
31.3052 47.8957 0.0141307
30.6387 44.8644 0.073463
30.8716 39.4052 0.223472
30.3271 41.9415 0.142351
29.4203 46.5115 2
29.3972 39.8725 2
29.0046 43.1222 2
27.6059 44.8061 3.97414
27.2008 40.5936 3.95195
28.0598 48.123 0.0360931
26.1859 46.5918 2
24.3117 45.1346 3.97617
24.8379 48.4114 0.0275184
23.0567 47.012 2
21.1622 45.8387 3.97826
21.859 48.7354 0.0301305
20.1817 47.5701 2
18.5129 46.6971 3.97821
19.2056 49.0522 0.0277493
17.8305 48.143 2
16.4753 47.685 3.97709
16.2686 48.6552 2
15.3031 48.9916 3.97376
17.029 49.3011 0.0269818
15.9594 50.1437 2
14.5637 50.9653 3.96857
13.8619 53.4216 3.96584
15.4468 52.3946 2
16.8784 51.3799 0.033009
13.2642 56.1583 3.9668
14.8901 54.9639 2
16.4394 53.8504 0.0354406
12.8533 59.1183 3.97156
14.4692 57.7271 2
15.9918 56.4603 0.0338349
12.6802 62.3002 3.9833
14.2695 60.6851 2
15.7562 59.1973 0.0305318
12.7746 65.6939 4
14.3326 63.8564 2
15.7904 62.131 0.02561
14.6714 67.2507 2
16.0892 65.2995 0.010427
16.6661 68.6801 0
17.6771 17.1712 3.97275
18.9376 15.7937 2
17.5133 14.3816 3.97669
20.2219 14.6076 0.0232384
18.9812 13.1163 2
17.6393 11.459 3.98112
20.5306 12.0044 0.0210755
19.3434 10.2391 2
18.0514 8.34038 3.98963
18.75 5.0241 4
19.9897 7.14832 2
21.1444 9.15075 0.0167897
20.9142 3.86727 2
22.0168 6.08273 0.00956237
23.1494 2.85457 0
29.4474 35.16 3.88321
30.8406 35.5988 2
32.4981 35.7302 0.315476
22.1038 16.6497 0.0264794
20.3107 16.9756 0.0194002
21.7915 17.8682 2
19.261 18.4239 2
18.0153 19.963 3.96176
20.901 19.3997 3.9739
24.2129 18.4773 0.026311
22.3064 19.9197 2
24.6278 21.3641 2
22.4109 21.7519 3.97755
24.7832 23.1991 3.97726
25.6376 25.9873 3.97653
26.5163 23.754 2
27.0464 21.4894 0.00854784
28.7379 32.4091 3.93004
30.326 33.0662 2
31.6394 33.9133 0.226326
31.6115 31.3214 0.135672
32.6641 28.2188 0.0731286
30.3198 29.6363 2
27.276 29.1788 4.00617
28.0419 26.6026 2
28.9056 24.4486 0.0181287
29.8021 27.3782 0.0271311
27.3123 37.3679 3.93239
28.9894 37.5063 2
30.5226 37.5061 0.214427
29.421 46.4997 -0.00263401
29.033 43.0948 0.0734339
29.431 39.8525 0.119188
27.5963 44.8315 2
27.1828 40.5978 2
25.6326 43.1141 3.98846
24.4571 39.4524 3.97595
26.1901 46.5902 0.0236747
24.3036 45.1354 2
22.1986 43.8891 3.97807
23.0579 47.0129 0.0254387
21.1597 45.8378 2
19.2168 44.9291 3.97781
20.1826 47.5713 0.0229067
18.5134 46.696 2
16.7966 46.1823 3.97712
17.8291 48.1442 0.0236408
16.4767 47.6842 2
15.0507 47.6466 3.97514
16.2675 48.656 0.0238925
15.3046 48.991 2
13.8662 49.5278 3.97067
15.958 50.1444 0.0294776
14.5647 50.9648 2
12.9326 51.8623 3.96689
12.1512 54.5205 3.967
13.8617 53.4215 2
15.4456 52.3951 0.0334945
11.5389 57.4524 3.971
13.2647 56.1583 2
14.8909 54.9638 0.0349792
11.1351 60.6258 3.98091
12.8539 59.118 2
14.4686 57.727 0.0333166
10.9835 64.0165 4
12.6784 62.2975 2
14.2695 60.6847 0.0265961
12.7745 65.694 2
14.3344 63.8581 0.0138055
14.6715 67.2507 0
16.4195 18.669 3.96439
17.6774 17.1704 2
16.1061 15.792 3.97395
18.9371 15.7942 0.0217526
17.5136 14.3809 2
16.0212 12.8135 3.97905
18.981 13.1165 0.0224177
17.6392 11.4587 2
16.2025 9.66352 3.98918
19.3436 10.2393 0.0175561
18.0498 8.34166 2
16.6661 6.31991 4
18.75 5.02404 2
19.9913 7.14743 0.0100285
20.9142 3.86727 0
27.8436 34.8026 3.92366
29.4134 35.1446 2
30.8894 35.6244 0.221323
16.7275 21.398 3.96531
21.7907 17.869 0.0201395
19.2605 18.4251 0.026749
20.9012 19.3986 2
18.0157 19.9622 2
19.7815 21.6007 3.97029
22.3065 19.9199 0.0314494
24.6281 21.3628 0.011278
22.4108 21.7518 2
24.7836 23.1985 2
22.9821 24.6364 3.97257
24.8173 28.5697 3.97854
25.6351 25.9848 2
26.5144 23.7561 0.0285322
26.5859 31.7628 3.98251
28.7097 32.3856 2
30.3583 33.0878 0.128597
30.3259 29.6363 0.0538319
27.2976 29.1611 2
28.0499 26.5898 0.0121862
25.1422 36.8593 3.98208
27.2978 37.3595 2
29.0437 37.5184 0.118346
27.6059 44.8061 0.025862
27.2008 40.5936 0.0480478
25.6161 43.1262 2
24.4409 39.453 2
23.351 41.8135 3.9801
22.1744 38.5212 3.9778
24.3117 45.1346 0.0238335
22.1972 43.8891 2
20.0416 42.862 3.97686
21.1622 45.8387 0.0217423
19.217 44.9291 2
17.1684 44.3487 3.97716
18.5129 46.6971 0.0217894
16.7982 46.1815 2
14.9932 46.0673 3.97564
16.4753 47.685 0.0229126
15.052 47.6461 2
13.385 47.9912 3.97228
15.3031 48.9916 0.0262401
13.8674 49.5273 2
12.1557 50.2419 3.96794
14.5637 50.9653 0.0314311
12.9328 51.8621 2
11.1467 52.8321 3.96696
10.3295 55.7072 3.97088
12.1518 54.5204 2
13.8619 53.4216 0.0341592
9.7018 58.8481 3.97968
11.5392 57.452 2
13.2642 56.1583 0.0332043
9.30605 62.2254 4
11.1335 60.6226 2
12.8533 59.1183 0.0284427
10.9835 64.0165 2
12.6802 62.3002 0.0166992
12.7746 65.6939 0
15.1663 20.2006 3.96505
16.42 18.6687 2
14.7573 17.3189 3.96764
17.6771 17.1712 0.0272531
16.1065 15.791 2
14.4844 14.2968 3.97693
17.5133 14.3816 0.0233085
16.0212 12.8128 2
14.4454 11.1149 3.98826
17.6393 11.459 0.0188815
16.2009 9.66516 2
14.6715 7.74927 4
18.0514 8.34038 0.0103684
16.6661 6.31988 2
18.75 5.0241 0
25.8032 34.2926 3.98974
27.8213 34.8119 2
29.4474 35.16 0.116786
17.929 22.3485 3.97008
15.5858 22.9394 3.9679
16.7281 21.3979 2
20.901 19.3997 0.0261019
18.0153 19.963 0.0382399
19.7818 21.6002 2
19.8099 24.4176 3.97044
22.4109 21.7519 0.0224482
24.7832 23.1991 0.0227369
22.9813 24.6361 2
22.1851 27.8702 3.97275
24.1427 31.2419 3.97658
24.8315 28.5695 2
25.6376 25.9873 0.0234714
26.5688 31.7335 2
28.7379 32.4091 0.0699625
27.276 29.1788 -0.00617241
22.8953 36.288 3.98235
25.1261 36.8614 2
27.3123 37.3679 0.0676107
25.6326 43.1141 0.0115428
24.4571 39.4524 0.0240458
23.3409 41.8125 2
22.1669 38.5198 2
21.0756 40.6369 3.97566
20.4679 37.8031 3.97697
22.1986 43.8891 0.0219262
20.0405 42.8629 2
17.6279 42.0713 3.97647
19.2168 44.9291 0.0221907
17.1701 44.3486 2
15.0247 44.178 3.97601
16.7966 46.1823 0.0228783
14.9942 46.0668 2
13.0733 46.2793 3.97349
15.0507 47.6466 0.0248599
13.386 47.9908 2
11.5338 48.5397 3.9688
13.8662 49.5278 0.0293255
12.1562 50.2417 2
10.273 51.0771 3.96689
12.9326 51.8623 0.0331083
11.1473 52.8318 2
9.23833 53.8872 3.97051
8.38521 56.9813 3.98017
10.3299 55.7065 2
12.1512 54.5205 0.0329965
7.74927 60.3285 4
9.70059 58.8446 2
11.5389 57.4524 0.0290031
9.306 62.2255 2
11.1351 60.6258 0.0190917
10.9835 64.0165 0
13.9887 21.7662 3.96523
15.1671 20.2007 2
13.4612 18.9143 3.96707
16.4195 18.669 0.0356062
14.7578 17.3181 2
13.0321 15.8922 3.97283
16.1061 15.792 0.0260478
14.4844 14.2958 2
12.783 12.6886 3.98641
16.0212 12.8135 0.0209521
14.4437 11.1169 2
12.7746 9.30605 4
16.2025 9.66352 0.0108189
14.6715 7.74924 2
16.6661 6.31991 0
23.4806 33.8339 3.9839
25.7787 34.2845 2
27.8436 34.8026 0.0763424
17.7477 24.0721 3.97005
17.9299 22.3485 2
14.4113 24.4727 3.96949
15.5871 22.9396 2
16.7275 21.398 0.0346921
19.264 27.2449 3.97199
19.7815 21.6007 0.0297095
19.8077 24.4174 2
21.5153 30.7123 3.97532
22.9821 24.6364 0.0274257
22.194 27.8715 2
24.1235 31.2401 2
24.8173 28.5697 0.0214576
26.5859 31.7628 0.0174943
20.5894 35.9529 3.97701
22.8948 36.2857 2
25.1422 36.8593 0.0179195
23.351 41.8135 0.0199037
22.1744 38.5212 0.0221969
21.0816 40.6362 2
20.4699 37.8023 2
18.3715 39.0061 3.97728
20.0416 42.862 0.0231403
17.629 42.0715 2
15.0081 41.8985 3.9768
17.1684 44.3487 0.0228422
15.0263 44.1775 2
12.8339 44.3777 3.97409
14.9932 46.0673 0.0243634
13.0745 46.279 2
11.043 46.7243 3.9695
13.385 47.9912 0.02772
11.5344 48.5394 2
9.53773 49.2375 3.96679
12.1557 50.2419 0.0320637
10.2734 51.0768 2
8.2711 52.0012 3.97022
11.1467 52.8321 0.0330369
9.2388 53.8864 2
7.19419 55.0322 3.98093
6.31991 58.3339 4
8.38432 56.9779 2
10.3295 55.7072 0.0291218
7.74924 60.3285 2
9.7018 58.8481 0.0203206
9.30605 62.2254 0
13.3058 25.3801 3.97231
12.8728 23.2949 3.96697
13.988 21.766 2
12.246 20.559 3.96753
15.1663 20.2006 0.0349478
13.4623 18.9141 2
11.6638 17.5733 3.97099
14.7573 17.3189 0.0323578
13.0325 15.8914 2
11.221 14.3745 3.98268
14.4844 14.2968 0.0230749
12.7811 12.691 2
10.9835 10.9835 4
14.4454 11.1149 0.0117438
12.7745 9.306 2
14.6715 7.74927 0
20.9492 33.4403 3.97598
23.4814 33.8392 2
25.8032 34.2926 0.0102615
16.0692 26.4314 3.97195
17.7481 24.0721 2
17.929 22.3485 0.0299218
14.4114 24.473 2
15.5858 22.9394 0.0321036
18.6441 30.2136 3.97491
19.2627 27.245 2
19.8099 24.4176 0.029557
21.5172 30.7125 2
22.1851 27.8702 0.0272505
24.1427 31.2419 0.0234164
17.9829 35.9845 3.97812
20.5898 35.9549 2
22.8953 36.288 0.0176459
21.0756 40.6369 0.0243448
20.4679 37.8031 0.0230342
18.3702 39.0058 2
14.5153 39.1708 3.97751
17.6279 42.0713 0.02353
15.0094 41.8981 2
12.5318 42.2668 3.97478
15.0247 44.178 0.0239946
12.8352 44.3774 2
10.6301 44.7941 3.97009
13.0733 46.2793 0.026511
11.0436 46.724 2
8.92174 47.3168 3.96672
11.5338 48.5397 0.0312039
9.53789 49.2372 2
7.43797 50.0348 3.96976
10.273 51.0771 0.033114
8.27145 52.0004 2
6.13483 53.0074 3.98138
9.23833 53.8872 0.0294864
7.19365 55.0293 2
5.0241 56.25 4
6.31988 58.3339 2
8.38521 56.9813 0.0198262
7.74927 60.3285 0
13.5718 26.8342 3.9718
11.9809 24.7998 3.96879
13.3051 25.3803 2
11.1501 22.2405 3.96656
12.8732 23.2951 2
13.9887 21.7662 0.0347688
12.2471 20.559 2
10.3944 19.325 3.97154
13.4612 18.9143 0.0329328
11.6647 17.5734 2
9.76243 16.1588 3.97972
13.0321 15.8922 0.0271741
11.2192 14.3778 2
9.30607 12.7746 4
12.783 12.6886 0.0135926
10.9835 10.9835 2
12.7746 9.30605 0
18.1561 33.148 3.97721
20.951 33.441 2
23.4806 33.8339 0.0160984
15.6945 29.6661 3.97439
16.0686 26.4318 2
17.7477 24.0721 0.0299522
14.4113 24.4727 0.0305115
18.6422 30.2138 2
19.264 27.2449 0.0280102
21.5153 30.7123 0.0246769
15.1332 36.0343 3.97788
17.9847 35.9846 2
20.5894 35.9529 0.0229854
12.7561 37.8313 3.97755
18.3715 39.0061 0.0227208
14.516 39.1706 2
12.0361 40.1357 3.9758
15.0081 41.8985 0.0231978
12.5328 42.2665 2
10.2365 42.7713 3.97054
12.8339 44.3777 0.0259105
10.6306 44.7939 2
8.40088 45.3189 3.96698
11.043 46.7243 0.0305019
8.92154 47.3165 2
6.72917 48.0001 3.96939
9.53773 49.2375 0.0332061
7.43817 50.0342 2
5.21164 50.9109 3.9811
8.2711 52.0012 0.0297797
6.13455 53.0055 2
3.86727 54.0858 4
7.19419 55.0322 0.0190699
5.02404 56.25 2
6.31991 58.3339 0
13.0475 29.0519 3.97136
11.4248 26.4995 3.96905
13.5711 26.8344 2
10.2093 23.9721 3.96687
11.9819 24.8 2
13.3058 25.3801 0.0276937
9.24715 21.1416 3.97005
11.151 22.2406 2
12.8728 23.2949 0.0330276
12.246 20.559 0.0324653
10.3954 19.3254 2
8.41806 18.0298 3.97988
11.6638 17.5733 0.0290072
9.76112 16.1628 2
7.74928 14.6715 4
11.221 14.3745 0.0173207
9.30602 12.7745 2
10.9835 10.9835 0
14.6899 32.8843 3.97661
18.1541 33.1483 2
20.9492 33.4403 0.0240181
15.696 29.6667 2
16.0692 26.4314 0.0280479
18.6441 30.2136 0.0250863
13.0486 36.2165 3.97705
15.1338 36.0344 2
17.9829 35.9845 0.0218757
12.7578 37.8312 2
11.3803 38.3093 3.97566
14.5153 39.1708 0.0224917
12.0378 40.1355 2
9.8216 40.7502 3.97121
12.5318 42.2668 0.0252223
10.2376 42.771 2
7.95051 43.2681 3.96733
10.6301 44.7941 0.0299109
8.40097 45.3186 2
6.13521 45.9053 3.96924
8.92174 47.3168 0.033277
6.72933 47.9996 2
4.42316 48.7516 3.98045
7.43797 50.0348 0.0302369
5.21153 50.9098 2
2.85457 51.8506 4
6.13483 53.0074 0.0186173
3.86727 54.0858 2
5.0241 56.25 0
12.1926 31.2721 3.97255
10.8473 28.4267 3.9693
13.0489 29.0523 2
9.42644 25.8018 3.96715
11.4253 26.4997 2
13.5718 26.8342 0.0282033
8.23359 23.0251 3.97011
10.2099 23.9723 2
11.9809 24.7998 0.0312093
7.2002 19.9795 3.98031
9.24807 21.1422 2
11.1501 22.2405 0.0334425
10.3944 19.325 0.0284578
8.41728 18.0336 2
6.31992 16.6661 4
9.76243 16.1588 0.0202751
7.74926 14.6714 2
9.30607 12.7746 0
12.2175 34.3054 3.97685
14.6912 32.8848 2
18.1561 33.148 0.0227939
15.6945 29.6661 0.0256072
10.937 36.614 3.97481
13.0499 36.2166 2
15.1332 36.0343 0.0221169
12.7561 37.8313 0.0224494
11.382 38.3092 2
9.4114 38.822 3.9715
12.0361 40.1357 0.0242016
9.82256 40.75 2
7.5617 41.2102 3.96773
10.2365 42.7713 0.0294641
7.94989 43.2679 2
5.64709 43.7682 3.96919
8.40088 45.3189 0.0330153
6.13534 45.9048 2
3.76871 46.5371 3.98004
6.72917 48.0001 0.0306053
4.42323 48.751 2
1.99014 49.554 4
5.21164 50.9109 0.0189025
2.85451 51.8506 2
3.86727 54.0858 0
11.021 32.9296 3.97447
10.1652 30.3922 3.9698
12.1939 31.2724 2
8.73763 27.7354 3.96721
10.848 28.4269 2
13.0475 29.0519 0.028644
7.35901 24.9836 3.96981
9.42665 25.802 2
11.4248 26.4995 0.0309506
6.11709 22.0025 3.98128
8.23419 23.0256 2
10.2093 23.9721 0.0331302
5.02411 18.75 4
7.19985 19.9826 2
9.24715 21.1416 0.0299463
8.41806 18.0298 0.0201186
6.3199 16.6661 2
7.74928 14.6715 0
10.537 35.0056 3.97459
12.2194 34.3057 2
14.6899 32.8843 0.0233945
9.07571 36.9859 3.97199
10.9384 36.614 2
13.0486 36.2165 0.0229506
11.3803 38.3093 0.0243439
9.41274 38.8219 2
7.24043 39.1819 3.96821
9.8216 40.7502 0.0287885
7.5618 41.21 2
5.26221 41.614 3.96907
7.95051 43.2681 0.0326673
5.64715 43.7678 2
3.24642 44.2819 3.98001
6.13521 45.9053 0.0307629
3.76888 46.5368 2
1.27781 47.2057 4
4.42316 48.7516 0.0195492
1.99012 49.554 2
2.85457 51.8506 0
10.1723 33.8885 3.9751
9.44853 32.1619 3.97054
11.0225 32.9298 2
8.08606 29.6985 3.9675
10.1661 30.3925 2
12.1926 31.2721 0.0274468
6.60255 27.0093 3.96963
8.73734 27.7356 2
10.8473 28.4267 0.0307019
5.17246 24.0951 3.98116
7.35932 24.9841 2
9.42644 25.8018 0.0328521
3.86728 20.9142 4
6.11696 22.0044 2
8.23359 23.0251 0.0298868
5.02406 18.75 2
7.2002 19.9795 0.0196918
6.31992 16.6661 0
8.89621 35.2826 3.97205
10.5381 35.0057 2
12.2175 34.3054 0.0231455
7.0212 37.2064 3.96815
9.07651 36.9859 2
10.937 36.614 0.0251917
9.4114 38.822 0.0285048
7.24091 39.1818 2
4.98968 39.4674 3.96937
7.5617 41.2102 0.0322738
5.26261 41.6137 2
2.85686 42.0022 3.97998
5.64709 43.7682 0.0308107
3.24648 44.2817 2
0.720592 44.8159 4
3.76871 46.5371 0.0199609
1.27778 47.2057 2
1.99014 49.554 0
8.93573 33.7028 3.9717
10.1735 33.8886 2
7.52198 31.6115 3.96775
9.44962 32.1621 2
11.021 32.9296 0.0255255
5.94754 29.0702 3.96968
8.08553 29.6987 2
10.1652 30.3922 0.0301982
4.36013 26.2475 3.98068
6.60266 27.0097 2
8.73763 27.7354 0.032792
2.85458 23.1494 4
5.17246 24.0959 2
7.35901 24.9836 0.0301877
3.86728 20.9142 2
6.11709 22.0025 0.0187187
5.02411 18.75 0
6.96973 35.3071 3.96809
8.89698 35.2826 2
10.537 35.0056 0.0254053
4.83978 37.3399 3.96979
7.02153 37.2064 2
9.07571 36.9859 0.0280079
7.24043 39.1819 0.0317923
4.99008 39.4672 2
2.60486 39.7138 3.98003
5.26221 41.614 0.0309263
2.85719 42.0021 2
0.320823 42.3947 4
3.24642 44.2819 0.0199928
0.720551 44.8159 2
1.27781 47.2057 0
7.13209 33.4626 3.96796
8.9363 33.7029 2
10.1723 33.8885 0.0248953
5.41822 31.1339 3.96988
7.52179 31.6116 2
9.44853 32.1619 0.0294635
3.68177 28.4434 3.98028
5.94763 29.0705 2
8.08606 29.6985 0.0325002
1.99015 25.446 4
4.36019 26.2478 2
6.60255 27.0093 0.0303741
2.85453 23.1494 2
5.17246 24.0951 0.0188376
3.86728 20.9142 0
4.85412 35.2517 3.9699
6.96977 35.3072 2
8.89621 35.2826 0.0279479
2.49628 37.4284 3.98069
4.8398 37.3399 2
7.0212 37.2064 0.031847
4.98968 39.4674 0.0306273
2.60527 39.7142 2
0.080333 39.9526 4
2.85686 42.0022 0.020017
0.320817 42.3947 2
0.720592 44.8159 0
5.04756 33.1905 3.96989
7.13194 33.4627 2
8.93573 33.7028 0.0283042
3.14601 30.6661 3.98023
5.41832 31.1343 2
7.52198 31.6115 0.0322453
1.27793 27.7943 4
3.68194 28.4436 2
5.94754 29.0702 0.0303156
1.99013 25.446 2
4.36013 26.2475 0.0193227
2.85458 23.1494 0
2.54839 35.159 3.98051
4.85461 35.252 2
6.96973 35.3071 0.031907
0 37.5 4
2.49631 37.4288 2
4.83978 37.3399 0.0302079
2.60486 39.7138 0.019966
0.0802903 39.9526 2
0.320823 42.3947 0
2.76603 32.9057 3.9806
5.04769 33.1908 2
7.13209 33.4626 0.0320431
0.721173 30.1842 4
3.14621 30.6666 2
5.41822 31.1339 0.0301198
1.27779 27.7943 2
3.68177 28.4434 0.0197226
1.99015 25.446 0
0.0806499 35.0474 4
2.54888 35.1594 2
4.85412 35.2517 0.0301039
0 37.5 2
2.49628 37.4284 0.0193054
0.080333 39.9526 0
0.32156 32.6054 4
2.76612 32.9063 2
5.04756 33.1905 0.0301075
0.72056 30.1841 2
3.14601 30.6661 0.0197708
1.27793 27.7943 0
0.0802889 35.0474 2
2.54839 35.159 0.0194948
0 37.5 0
0.320817 32.6053 2
2.76603 32.9057 0.0193952
0.721173 30.1842 0
0.0806499 35.0474 0
0.32156 32.6054 0
CELLS 1910 17190
8 18 6 25 56 2 0 5 16
8 57 23 6 18 17 4 0 2
8 78 36 9 29 31 11 1 7
8 31 11 1 7 79 37 10 30
8 110 57 18 50 48 17 2 14
8 50 18 56 111 14 2 16 49
8 116 62 22 55 52 20 3 15
8 56 25 67 118 16 5 24 53
8 119 63 23 57 54 21 4 17
8 55 22 63 119 15 3 21 54
8 58 26 68 121 18 6 25 56
8 122 65 26 58 57 23 6 18
8 73 31 7 27 142 79 30 71
8 143 78 29 72 73 31 7 27
8 83 147 76 34 32 74 28 8
8 84 148 78 36 33 75 29 9
8 76 34 8 28 148 84 33 75
8 37 79 150 86 10 30 77 35
8 151 87 36 78 80 38 11 31
8 80 38 11 31 152 88 37 79
8 175 100 42 94 96 44 12 40
8 44 96 176 101 12 40 95 43
8 101 176 98 46 43 95 41 13
8 46 98 178 103 13 41 97 45
8 178 103 45 97 147 83 32 74
8 189 116 55 109 106 52 15 47
8 111 56 118 191 49 16 53 107
8 192 119 57 110 108 54 17 48
8 109 55 119 192 47 15 54 108
8 194 122 58 112 110 57 18 50
8 112 58 121 195 50 18 56 111
8 115 61 19 51 197 124 59 113
8 115 61 125 198 51 19 60 114
8 198 125 62 116 114 60 20 52
8 200 127 64 120 116 62 22 55
8 118 67 132 202 53 24 66 117
8 121 68 133 203 56 25 67 118
8 120 64 128 204 55 22 63 119
8 204 128 65 122 119 63 23 57
8 206 134 68 121 123 69 26 58
8 123 69 26 58 207 131 65 122
8 226 147 74 138 140 76 28 70
8 229 148 75 139 143 78 29 72
8 140 76 28 70 229 148 75 139
8 142 79 30 71 231 150 77 141
8 144 80 31 73 232 152 79 142
8 233 151 78 143 144 80 31 73
8 150 86 35 77 235 154 81 145
8 235 154 81 145 146 82 39 91
8 146 82 39 91 236 155 90 165
8 238 157 83 147 149 85 34 76
8 239 158 84 148 151 87 36 78
8 149 85 34 76 239 158 84 148
8 152 88 37 79 241 160 86 150
8 242 161 87 151 153 89 38 80
8 153 89 38 80 243 162 88 152
8 171 98 41 92 265 178 97 169
8 265 178 97 169 226 147 74 138
8 172 96 40 93 266 176 95 170
8 266 176 95 170 171 98 41 92
8 269 175 94 173 172 96 40 93
8 271 180 99 174 175 100 42 94
8 197 124 59 113 271 180 99 174
8 272 181 100 175 177 102 44 96
8 273 182 101 176 179 104 46 98
8 177 102 44 96 273 182 101 176
8 179 104 46 98 275 184 103 178
8 275 184 103 178 238 157 83 147
8 188 115 51 105 283 197 113 186
8 188 115 198 284 105 51 114 187
8 284 198 116 189 187 114 52 106
8 286 200 120 193 189 116 55 109
8 191 118 202 288 107 53 117 190
8 195 121 203 289 111 56 118 191
8 193 120 204 290 109 55 119 192
8 290 204 122 194 192 119 57 110
8 196 123 58 112 292 207 122 194
8 293 206 121 195 196 123 58 112
8 199 126 61 115 297 211 124 197
8 298 212 127 200 198 125 62 116
8 199 126 212 298 115 61 125 198
8 205 129 64 120 300 214 127 200
8 301 217 130 201 202 132 66 117
8 209 136 168 264 301 217 130 201
8 302 219 132 202 203 133 67 118
8 303 220 133 203 206 134 68 121
8 205 129 215 304 120 64 128 204
8 304 215 131 207 204 128 65 122
8 306 221 134 206 208 135 69 123
8 208 135 69 123 307 218 131 207
8 210 137 167 263 309 223 136 209
8 328 238 147 226 230 149 76 140
8 228 146 91 166 329 236 165 260
8 231 150 77 141 330 235 145 227
8 330 235 145 227 228 146 91 166
8 332 239 148 229 233 151 78 143
8 230 149 76 140 332 239 148 229
8 232 152 79 142 334 241 150 231
8 234 153 80 144 335 243 152 232
8 336 242 151 233 234 153 80 144
8 236 155 90 165 338 245 164 259
8 241 160 86 150 339 246 154 235
8 339 246 154 235 237 156 82 146
8 237 156 82 146 340 247 155 236
8 342 249 157 238 240 159 85 149
8 343 250 158 239 242 161 87 151
8 240 159 85 149 343 250 158 239
8 243 162 88 152 345 252 160 241
8 244 163 253 346 153 89 161 242
8 244 163 89 153 347 254 162 243
8 311 224 261 371 210 137 167 263
8 263 167 262 372 209 136 168 264
8 267 179 98 171 375 275 178 265
8 375 275 178 265 328 238 147 226
8 376 273 176 266 267 179 98 171
8 268 177 96 172 376 273 176 266
8 379 272 175 269 268 177 96 172
8 380 271 174 270 269 175 94 173
8 283 197 113 186 380 271 174 270
8 381 277 180 271 272 181 100 175
8 297 211 124 197 381 277 180 271
8 382 278 181 272 274 183 102 177
8 274 183 102 177 383 279 182 273
8 383 279 182 273 276 185 104 179
8 385 281 184 275 342 249 157 238
8 276 185 104 179 385 281 184 275
8 285 199 115 188 393 297 197 283
8 394 298 200 286 284 198 116 189
8 285 199 298 394 188 115 198 284
8 291 205 120 193 396 300 200 286
8 397 301 201 287 288 202 117 190
8 295 209 264 374 397 301 201 287
8 398 302 202 288 289 203 118 191
8 399 303 203 289 293 206 121 195
8 291 205 304 400 193 120 204 290
8 400 304 207 292 290 204 122 194
8 294 208 123 196 402 307 207 292
8 403 306 206 293 294 208 123 196
8 296 210 263 373 405 309 209 295
8 408 312 213 299 297 211 126 199
8 299 213 313 409 199 126 212 298
8 409 313 214 300 298 212 127 200
8 305 216 129 205 411 315 214 300
8 412 318 217 301 302 219 132 202
8 309 223 136 209 412 318 217 301
8 413 320 219 302 303 220 133 203
8 306 221 321 414 206 134 220 303
8 307 218 131 207 415 316 215 304
8 305 216 316 415 205 129 215 304
8 417 322 221 306 308 222 135 208
8 308 222 135 208 418 319 218 307
8 310 225 137 210 420 325 223 309
8 423 326 224 311 310 225 137 210
8 329 236 165 260 441 338 259 368
8 442 342 238 328 333 240 149 230
8 331 237 146 228 443 340 236 329
8 334 241 150 231 444 339 235 330
8 444 339 235 330 331 237 146 228
8 446 343 239 332 336 242 151 233
8 333 240 149 230 446 343 239 332
8 335 243 152 232 448 345 241 334
8 337 244 153 234 449 347 243 335
8 337 244 346 450 234 153 242 336
8 338 245 164 259 452 349 258 367
8 340 247 155 236 453 350 245 338
8 345 252 160 241 454 351 246 339
8 454 351 246 339 341 248 156 237
8 341 248 156 237 455 352 247 340
8 240 159 251 344 342 249 354 457
8 242 161 253 346 343 250 355 458
8 343 250 355 458 240 159 251 344
8 347 254 162 243 460 357 252 345
8 348 255 358 461 244 163 253 346
8 348 255 163 244 462 359 254 347
8 473 360 257 365 363 256 364 482
8 452 349 258 367 365 257 366 485
8 422 324 369 488 311 224 261 371
8 371 261 370 490 263 167 262 372
8 407 311 371 491 296 210 263 373
8 373 263 372 492 295 209 264 374
8 493 385 275 375 442 342 238 328
8 377 276 179 267 493 385 275 375
8 378 274 177 268 494 383 273 376
8 494 383 273 376 377 276 179 267
8 497 382 272 379 378 274 177 268
8 498 381 271 380 379 272 175 269
8 393 297 197 283 498 381 271 380
8 499 387 277 381 382 278 181 272
8 408 312 211 297 499 387 277 381
8 500 388 278 382 384 280 183 274
8 501 389 279 383 386 282 185 276
8 384 280 183 274 501 389 279 383
8 386 282 185 276 503 391 281 385
8 503 391 281 385 457 354 249 342
8 511 408 299 395 393 297 199 285
8 395 299 409 512 285 199 298 394
8 512 409 300 396 394 298 200 286
8 401 305 205 291 514 411 300 396
8 515 412 301 397 398 302 202 288
8 405 309 209 295 515 412 301 397
8 516 413 302 398 399 303 203 289
8 403 306 414 517 293 206 303 399
8 402 307 207 292 518 415 304 400
8 401 305 415 518 291 205 304 400
8 404 308 208 294 520 418 307 402
8 521 417 306 403 404 308 208 294
8 406 310 210 296 523 420 309 405
8 526 423 311 407 406 310 210 296
8 410 314 213 299 527 424 312 408
8 528 425 315 411 409 313 214 300
8 410 314 425 528 299 213 313 409
8 416 317 216 305 530 427 315 411
8 531 430 318 412 413 320 219 302
8 420 325 223 309 531 430 318 412
8 532 432 320 413 414 321 220 303
8 417 322 433 533 306 221 321 414
8 418 319 218 307 534 428 316 415
8 416 317 428 534 305 216 316 415
8 419 323 434 536 308 222 322 417
8 419 323 222 308 537 431 319 418
8 421 327 225 310 539 438 325 420
8 421 327 439 541 310 225 326 423
8 543 437 324 422 423 326 224 311
8 441 338 259 368 559 452 367 486
8 443 340 236 329 560 453 338 441
8 333 240 344 447 442 342 457 561
8 445 341 237 331 562 455 340 443
8 448 345 241 334 563 454 339 444
8 563 454 339 444 445 341 237 331
8 336 242 346 450 446 343 458 565
8 446 343 458 565 333 240 344 447
8 449 347 243 335 567 460 345 448
8 451 348 244 337 568 462 347 449
8 451 348 461 569 337 244 346 450
8 570 463 349 452 473 360 257 365
8 453 350 245 338 570 463 349 452
8 455 352 247 340 571 464 350 453
8 460 357 252 345 572 465 351 454
8 572 465 351 454 456 353 248 341
8 456 353 248 341 573 466 352 455
8 344 251 356 459 457 354 468 575
8 458 355 469 576 344 251 356 459
8 346 253 358 461 458 355 469 576
8 462 359 254 347 578 471 357 460
8 348 255 359 462 461 358 472 579
8 591 474 360 473 475 361 256 363
8 475 361 256 363 594 477 362 479
8 363 256 364 482 479 362 480 603
8 590 473 365 484 481 363 482 605
8 482 364 257 365 606 483 366 485
8 559 452 367 486 484 365 485 607
8 542 436 487 609 422 324 369 488
8 525 422 488 611 407 311 371 491
8 488 369 489 612 371 261 370 490
8 491 371 490 613 373 263 372 492
8 495 386 276 377 614 503 385 493
8 614 503 385 493 561 457 342 442
8 615 501 383 494 495 386 276 377
8 496 384 274 378 615 501 383 494
8 618 500 382 497 496 384 274 378
8 619 499 381 498 497 382 272 379
8 511 408 297 393 619 499 381 498
8 620 505 387 499 500 388 278 382
8 527 424 312 408 620 505 387 499
8 502 390 506 621 384 280 388 500
8 622 507 389 501 504 392 282 386
8 502 390 280 384 622 507 389 501
8 504 392 282 386 624 509 391 503
8 624 509 391 503 575 468 354 457
8 513 410 299 395 630 527 408 511
8 631 528 411 514 512 409 300 396
8 513 410 528 631 395 299 409 512
8 519 416 305 401 633 530 411 514
8 634 531 412 515 516 413 302 398
8 523 420 309 405 634 531 412 515
8 635 532 413 516 517 414 303 399
8 521 417 533 636 403 306 414 517
8 520 418 307 402 637 534 415 518
8 519 416 534 637 401 305 415 518
8 522 419 308 404 639 537 418 520
8 522 419 536 640 404 308 417 521
8 524 421 310 406 642 539 420 523
8 524 421 541 644 406 310 423 526
8 646 543 422 525 526 423 311 407
8 529 426 314 410 647 544 424 527
8 528 425 545 648 411 315 427 530
8 529 426 545 648 410 314 425 528
8 535 429 317 416 649 546 427 530
8 650 548 430 531 532 432 320 413
8 539 438 325 420 650 548 430 531
8 533 433 550 651 414 321 432 532
8 536 434 551 652 417 322 433 533
8 537 431 319 418 653 547 428 534
8 535 429 547 653 416 317 428 534
8 538 435 552 654 419 323 434 536
8 538 435 323 419 655 549 431 537
8 540 440 327 421 657 556 438 539
8 540 440 557 659 421 327 439 541
8 541 439 555 660 423 326 437 543
8 661 554 436 542 543 437 324 422
8 676 570 452 559 590 473 365 484
8 560 453 338 441 676 570 452 559
8 562 455 340 443 677 571 453 560
8 447 344 459 566 561 457 575 678
8 564 456 341 445 679 573 455 562
8 567 460 345 448 680 572 454 563
8 680 572 454 563 564 456 341 445
8 565 458 576 682 447 344 459 566
8 450 346 461 569 565 458 576 682
8 568 462 347 449 684 578 460 567
8 451 348 462 568 569 461 579 685
8 686 580 463 570 591 474 360 473
8 571 464 350 453 686 580 463 570
8 573 466 352 455 687 581 464 571
8 572 465 582 688 460 357 471 578
8 574 467 582 688 456 353 465 572
8 574 467 353 456 689 583 466 573
8 459 356 470 577 575 468 585 691
8 576 469 586 692 459 356 470 577
8 461 358 472 579 576 469 586 692
8 462 359 471 578 579 472 588 694
8 704 591 473 590 593 475 363 481
8 595 476 592 705 475 361 474 591
8 593 475 363 481 707 594 479 602
8 594 477 362 479 709 598 478 600
8 595 476 361 475 711 597 477 594
8 479 362 480 603 600 478 601 720
8 481 363 482 605 602 479 603 722
8 603 480 364 482 723 604 483 606
8 605 482 365 484 724 606 485 607
8 656 553 608 726 542 436 487 609
8 645 542 609 728 525 422 488 611
8 609 487 610 729 488 369 489 612
8 611 488 612 730 491 371 490 613
8 616 504 386 495 731 624 503 614
8 731 624 503 614 678 575 457 561
8 732 622 501 615 616 504 386 495
8 617 502 384 496 732 622 501 615
8 617 502 621 735 496 384 500 618
8 736 620 499 619 618 500 382 497
8 630 527 408 511 736 620 499 619
8 621 506 626 737 500 388 505 620
8 647 544 424 527 737 626 505 620
8 623 508 627 738 502 390 506 621
8 623 508 390 502 739 628 507 622
8 625 510 628 739 504 392 507 622
8 740 629 509 624 691 585 468 575
8 625 510 392 504 740 629 509 624
8 632 529 410 513 744 647 527 630
8 631 528 648 745 514 411 530 633
8 632 529 648 745 513 410 528 631
8 638 535 416 519 746 649 530 633
8 747 650 531 634 635 532 413 516
8 642 539 420 523 747 650 531 634
8 636 533 651 748 517 414 532 635
8 640 536 652 749 521 417 533 636
8 639 537 418 520 750 653 534 637
8 638 535 653 750 519 416 534 637
8 641 538 419 522 751 655 537 639
8 641 538 654 752 522 419 536 640
8 643 540 421 524 753 657 539 642
8 643 540 659 755 524 421 541 644
8 644 541 660 757 526 423 543 646
8 758 661 542 645 646 543 422 525
8 529 426 544 647 648 545 662 759
8 530 427 545 648 649 546 663 760
8 535 429 546 649 653 547 664 761
8 762 666 548 650 651 550 432 532
8 657 556 438 539 762 666 548 650
8 652 551 668 763 533 433 550 651
8 654 552 669 764 536 434 551 652
8 655 549 431 537 765 665 547 653
8 538 435 549 655 654 552 667 766
8 661 554 671 768 542 436 553 656
8 658 558 440 540 769 674 556 657
8 658 558 675 770 540 440 557 659
8 659 557 673 771 541 439 555 660
8 660 555 672 772 543 437 554 661
8 788 686 570 676 704 591 473 590
8 677 571 453 560 788 686 570 676
8 679 573 455 562 789 687 571 677
8 566 459 577 683 678 575 691 790
8 681 574 456 564 791 689 573 679
8 680 572 688 792 567 460 578 684
8 681 574 688 792 564 456 572 680
8 682 576 692 794 566 459 577 683
8 569 461 579 685 682 576 692 794
8 568 462 578 684 685 579 694 796
8 687 581 464 571 798 696 580 686
8 798 696 580 686 705 592 474 591
8 689 583 466 573 799 697 581 687
8 688 582 698 800 578 471 588 694
8 690 584 698 800 574 467 582 688
8 690 584 467 574 801 699 583 689
8 693 587 701 803 577 470 585 691
8 693 587 470 577 804 702 586 692
8 695 589 702 804 579 472 586 692
8 695 589 472 579 805 703 588 694
8 708 595 705 813 593 475 591 704
8 710 596 706 814 595 476 592 705
8 707 594 479 602 816 709 600 719
8 708 595 475 593 817 711 594 707
8 709 598 478 600 819 715 599 717
8 711 597 477 594 820 714 598 709
8 710 596 476 595 822 713 597 711
8 600 478 601 720 717 599 718 832
8 602 479 603 722 719 600 720 834
8 720 601 480 603 835 721 604 723
8 722 603 482 605 836 723 606 724
8 767 670 725 839 656 553 608 726
8 756 656 726 841 645 542 609 728
8 726 608 727 842 609 487 610 729
8 728 609 729 843 611 488 612 730
8 844 740 624 731 790 691 575 678
8 733 625 504 616 844 740 624 731
8 734 623 502 617 845 739 622 732
8 733 625 739 845 616 504 622 732
8 734 623 738 846 617 502 621 735
8 735 621 737 847 618 500 620 736
8 744 647 527 630 847 737 620 736
8 621 506 627 738 737 626 741 848
8 647 544 626 737 759 662 741 848
8 623 508 628 739 738 627 742 849
8 740 629 585 691 850 743 700 802
8 625 510 629 740 739 628 743 850
8 632 529 647 744 745 648 759 854
8 633 530 648 745 746 649 760 855
8 638 535 649 746 750 653 761 856
8 857 762 650 747 748 651 532 635
8 753 657 539 642 857 762 650 747
8 749 652 763 858 636 533 651 748
8 752 654 764 859 640 536 652 749
8 751 655 537 639 860 765 653 750
8 641 538 655 751 752 654 766 861
8 754 658 540 643 862 769 657 753
8 754 658 770 863 643 540 659 755
8 755 659 771 864 644 541 660 757
8 758 661 768 866 645 542 656 756
8 757 660 772 867 646 543 661 758
8 759 662 773 868 648 545 663 760
8 649 546 663 760 761 664 774 871
8 765 665 547 653 872 775 664 761
8 873 777 666 762 763 668 550 651
8 769 674 556 657 873 777 666 762
8 764 669 779 874 652 551 668 763
8 654 552 667 766 764 669 778 875
8 655 549 665 765 766 667 776 876
8 768 671 782 877 656 553 670 767
8 772 672 783 878 661 554 671 768
8 658 558 674 769 770 675 786 879
8 659 557 675 770 771 673 785 881
8 882 784 672 772 771 673 555 660
8 789 687 571 677 897 798 686 788
8 897 798 686 788 813 705 591 704
8 791 689 573 679 898 799 687 789
8 795 693 803 900 683 577 691 790
8 793 690 574 681 901 801 689 791
8 792 688 800 902 684 578 694 796
8 793 690 800 902 681 574 688 792
8 795 693 577 683 903 804 692 794
8 797 695 804 903 685 579 692 794
8 797 695 579 685 904 805 694 796
8 905 806 697 799 798 696 581 687
8 814 706 806 905 705 592 696 798
8 689 583 697 799 801 699 808 907
8 800 698 809 908 694 588 703 805
8 690 584 699 801 800 698 809 908
8 803 701 810 909 691 585 700 802
8 693 587 702 804 803 701 811 910
8 695 589 703 805 804 702 812 911
8 818 710 814 919 708 595 705 813
8 821 712 815 920 710 596 706 814
8 816 709 600 719 922 819 717 831
8 817 711 594 707 923 820 709 816
8 818 710 595 708 924 822 711 817
8 819 715 599 717 926 827 716 829
8 820 714 598 709 927 826 715 819
8 929 825 713 822 820 714 597 711
8 821 712 596 710 930 824 713 822
8 717 599 718 832 829 716 830 942
8 719 600 720 834 831 717 832 944
8 832 718 601 720 945 833 721 835
8 834 720 603 722 946 835 723 836
8 869 780 838 950 767 670 725 839
8 865 767 839 952 756 656 726 841
8 839 725 840 953 726 608 727 842
8 841 726 842 954 728 609 729 843
8 844 740 691 790 955 850 802 899
8 733 625 740 844 845 739 850 955
8 734 623 739 845 846 738 849 956
8 735 621 738 846 847 737 848 957
8 744 647 737 847 854 759 848 957
8 738 627 742 849 848 741 851 958
8 848 741 851 958 759 662 773 868
8 850 743 700 802 959 852 807 906
8 849 742 628 739 959 852 743 850
8 854 759 868 965 745 648 760 855
8 746 649 760 855 856 761 871 966
8 860 765 653 750 967 872 761 856
8 968 873 762 857 858 763 651 748
8 862 769 657 753 968 873 762 857
8 859 764 874 969 749 652 763 858
8 752 654 766 861 859 764 875 970
8 751 655 765 860 861 766 876 971
8 754 658 769 862 863 770 879 972
8 755 659 770 863 864 771 881 974
8 976 882 772 867 864 771 660 757
8 866 768 877 977 756 656 767 865
8 867 772 878 978 758 661 768 866
8 760 663 773 868 871 774 883 980
8 870 781 837 948 982 890 780 869
8 982 890 780 869 877 782 670 767
8 761 664 774 871 872 775 884 984
8 876 776 665 765 985 885 775 872
8 873 777 668 763 986 887 779 874
8 769 674 777 873 879 786 887 986
8 764 669 778 875 874 779 888 987
8 766 667 776 876 875 778 886 988
8 878 783 892 989 768 671 782 877
8 878 783 672 772 990 893 784 882
8 880 787 675 770 991 896 786 879
8 880 787 895 992 770 675 785 881
8 881 785 894 993 771 673 784 882
8 1006 905 799 898 897 798 687 789
8 919 814 905 1006 813 705 798 897
8 791 689 799 898 901 801 907 1007
8 900 803 909 1009 790 691 802 899
8 795 693 804 903 900 803 910 1010
8 902 800 908 1011 796 694 805 904
8 793 690 801 901 902 800 908 1011
8 797 695 805 904 903 804 911 1012
8 799 697 806 905 907 808 912 1013
8 920 815 912 1013 814 706 806 905
8 802 700 810 909 906 807 913 1014
8 801 699 808 907 908 809 914 1015
8 805 703 809 908 911 812 915 1016
8 803 701 811 910 909 810 916 1017
8 911 812 917 1018 804 702 811 910
8 925 821 920 1030 818 710 814 919
8 928 823 921 1031 821 712 815 920
8 922 819 717 831 1033 926 829 941
8 923 820 709 816 1034 927 819 922
8 1035 929 822 924 923 820 711 817
8 925 821 710 818 1036 930 822 924
8 1038 933 825 929 927 826 714 820
8 926 827 716 829 1039 935 828 939
8 927 826 715 819 1040 934 827 926
8 928 823 712 821 1041 931 824 930
8 1042 932 824 930 929 825 713 822
8 829 716 830 942 939 828 940 1058
8 831 717 832 944 941 829 942 1060
8 942 830 718 832 1061 943 833 945
8 944 832 720 834 1062 945 835 946
8 981 889 947 1064 870 781 837 948
8 948 837 949 1067 869 780 838 950
8 975 869 950 1069 865 767 839 952
8 950 838 951 1070 839 725 840 953
8 952 839 953 1071 841 726 842 954
8 955 850 802 899 1072 959 906 1008
8 956 849 739 845 1072 959 850 955
8 846 738 849 956 957 848 958 1073
8 957 848 958 1073 854 759 868 965
8 849 742 852 959 958 851 961 1076
8 960 853 961 1076 906 807 852 959
8 958 851 961 1076 868 773 883 980
8 960 853 807 906 1077 963 913 1014
8 855 760 868 965 966 871 980 1085
8 856 761 871 966 967 872 984 1086
8 971 876 765 860 1087 985 872 967
8 968 873 763 858 1088 986 874 969
8 862 769 873 968 972 879 986 1088
8 859 764 875 970 969 874 987 1089
8 861 766 876 971 970 875 988 1090
8 973 880 770 863 1091 991 879 972
8 973 880 992 1092 863 770 881 974
8 974 881 993 1093 864 771 882 976
8 979 870 948 1066 1094 982 869 975
8 1094 982 869 975 977 877 767 865
8 978 878 772 867 1095 990 882 976
8 978 878 989 1096 866 768 877 977
8 871 774 883 980 984 884 994 1099
8 983 891 999 1100 870 781 889 981
8 1101 1000 890 982 989 892 782 877
8 983 891 781 870 1101 1000 890 982
8 872 775 884 984 985 885 995 1103
8 876 776 885 985 988 886 996 1104
8 986 887 779 874 1105 998 888 987
8 879 786 887 986 991 896 998 1105
8 875 778 886 988 987 888 997 1106
8 990 893 1002 1107 878 783 892 989
8 1108 1003 893 990 993 894 784 882
8 880 787 896 991 992 895 1005 1109
8 993 894 785 881 1110 1004 895 992
8 898 799 905 1006 1007 907 1013 1120
8 1030 920 1013 1120 919 814 905 1006
8 901 801 907 1007 1011 908 1015 1121
8 899 802 909 1009 1008 906 1014 1122
8 900 803 910 1010 1009 909 1017 1123
8 1012 911 1018 1124 903 804 910 1010
8 904 805 908 1011 1012 911 1016 1125
8 1013 912 1020 1127 907 808 914 1015
8 1031 921 1020 1127 920 815 912 1013
8 1019 918 962 1075 1128 1021 913 1014
8 1128 1021 913 1014 1017 916 810 909
8 1015 914 1022 1129 908 809 915 1016
8 1016 915 1023 1130 911 812 917 1018
8 1018 917 1024 1131 910 811 916 1017
8 1037 928 1031 1148 925 821 920 1030
8 928 823 931 1041 1031 921 1032 1149
8 1033 926 829 941 1151 1039 939 1057
8 1034 927 819 922 1152 1040 926 1033
8 1153 1038 929 1035 1034 927 820 923
8 1154 1042 930 1036 1035 929 822 924
8 1037 928 821 925 1155 1041 930 1036
8 1039 935 828 939 1156 1047 938 1055
8 1157 1043 932 1042 1038 933 825 929
8 1038 933 826 927 1158 1045 934 1040
8 1040 934 827 926 1159 1046 935 1039
8 930 824 932 1042 1041 931 1044 1160
8 1051 936 1048 1165 1175 1052 937 1053
8 1156 1047 938 1055 1053 937 1054 1178
8 939 828 940 1058 1055 938 1056 1181
8 941 829 942 1060 1057 939 1058 1183
8 942 830 943 1061 1058 940 1059 1184
8 1060 942 832 944 1185 1061 945 1062
8 1082 964 1063 1188 981 889 947 1064
8 1097 981 1064 1190 979 870 948 1066
8 1064 947 1065 1191 948 837 949 1067
8 1066 948 1067 1193 975 869 950 1069
8 1067 949 1068 1194 950 838 951 1070
8 1069 950 1070 1195 952 839 953 1071
8 956 849 959 1072 1073 958 1076 1197
8 1074 960 1076 1197 1008 906 959 1072
8 1073 958 1076 1197 965 868 980 1085
8 1074 960 906 1008 1198 1077 1014 1122
8 1133 1026 1079 1199 1019 918 962 1075
8 1077 963 913 1014 1200 1080 962 1075
8 960 853 963 1077 1076 961 1078 1201
8 980 883 961 1076 1099 994 1078 1201
8 1210 1083 964 1082 1100 999 889 981
8 966 871 980 1085 1086 984 1099 1215
8 967 872 984 1086 1087 985 1103 1216
8 971 876 985 1087 1090 988 1104 1217
8 1088 986 874 969 1218 1105 987 1089
8 972 879 986 1088 1091 991 1105 1218
8 970 875 988 1090 1089 987 1106 1219
8 973 880 991 1091 1092 992 1109 1220
8 1093 993 881 974 1221 1110 992 1092
8 1222 1108 990 1095 1093 993 882 976
8 1223 1101 982 1094 1096 989 877 977
8 1098 983 870 979 1223 1101 982 1094
8 1095 990 1107 1224 978 878 989 1096
8 1098 983 1100 1225 979 870 981 1097
8 984 884 994 1099 1103 995 1111 1227
8 1102 1001 1115 1228 983 891 999 1100
8 1101 1000 892 989 1229 1116 1002 1107
8 1102 1001 891 983 1229 1116 1000 1101
8 985 885 995 1103 1104 996 1112 1230
8 988 886 996 1104 1106 997 1113 1231
8 1105 998 888 987 1232 1114 997 1106
8 991 896 998 1105 1109 1005 1114 1232
8 1108 1003 1117 1233 990 893 1002 1107
8 1108 1003 894 993 1233 1117 1004 1110
8 992 895 1005 1109 1110 1004 1118 1234
8 1120 1013 1127 1244 1007 907 1015 1121
8 1148 1031 1127 1244 1030 920 1013 1120
8 1121 1015 1129 1245 1011 908 1016 1125
8 1126 1019 1075 1196 1246 1128 1014 1122
8 1246 1128 1014 1122 1123 1017 909 1009
8 1124 1018 1131 1247 1010 910 1017 1123
8 1125 1016 1130 1248 1012 911 1018 1124
8 1127 1020 1137 1254 1015 914 1022 1129
8 1031 921 1032 1149 1127 1020 1137 1254
8 1134 1027 918 1019 1257 1140 1021 1128
8 1257 1140 1021 1128 1131 1024 916 1017
8 1129 1022 1141 1258 1016 915 1023 1130
8 1130 1023 1142 1259 1018 917 1024 1131
8 1261 1144 1025 1132 1133 1026 1079 1199
8 1255 1138 1025 1132 1135 1028 1144 1261
8 1133 1026 918 1019 1262 1145 1027 1134
8 1136 1029 1139 1256 1263 1146 1028 1135
8 1037 928 1041 1155 1148 1031 1149 1275
8 1041 931 1044 1160 1149 1032 1150 1276
8 1151 1039 939 1057 1278 1156 1055 1180
8 1152 1040 926 1033 1279 1159 1039 1151
8 1153 1038 927 1034 1280 1158 1040 1152
8 1281 1157 1042 1154 1153 1038 929 1035
8 1036 930 1042 1154 1155 1041 1160 1282
8 1283 1164 1046 1159 1156 1047 935 1039
8 1165 1048 1164 1283 1053 937 1047 1156
8 1157 1043 933 1038 1284 1161 1045 1158
8 1157 1043 1161 1284 1042 932 1044 1160
8 1040 934 1046 1159 1158 1045 1163 1285
8 1166 1049 1167 1292 1051 936 1048 1165
8 1166 1049 936 1051 1293 1168 1050 1172
8 1051 936 1052 1175 1172 1050 1173 1306
8 1174 1051 1165 1290 1308 1175 1053 1177
8 1053 937 1054 1178 1175 1052 1176 1309
8 1278 1156 1055 1180 1177 1053 1178 1311
8 1055 938 1056 1181 1178 1054 1179 1312
8 1057 939 1058 1183 1180 1055 1181 1314
8 1058 940 1059 1184 1181 1056 1182 1315
8 1060 942 1061 1185 1183 1058 1184 1316
8 1208 1081 1187 1321 1082 964 1063 1188
8 1209 1082 1188 1322 1097 981 1064 1190
8 1188 1063 1189 1323 1064 947 1065 1191
8 1190 1064 1191 1325 1066 948 1067 1193
8 1191 1065 1192 1326 1067 949 1068 1194
8 1067 1193 1069 950 1194 1327 1195 1070
8 1250 1133 1199 1330 1126 1019 1075 1196
8 1198 1077 1014 1122 1331 1200 1075 1196
8 1074 960 1077 1198 1197 1076 1201 1332
8 1085 980 1076 1197 1215 1099 1201 1332
8 1199 1079 1203 1333 1075 962 1080 1200
8 1132 1025 1119 1243 1199 1079 1203 1333
8 1201 1078 963 1077 1334 1202 1080 1200
8 1099 994 1078 1201 1227 1111 1202 1334
8 1343 1207 1081 1208 1210 1083 964 1082
8 1214 1084 1186 1319 1343 1207 1081 1208
8 1345 1210 1082 1209 1225 1100 981 1097
8 1346 1211 1083 1210 1228 1115 999 1100
8 1086 984 1099 1215 1216 1103 1227 1352
8 1087 985 1103 1216 1217 1104 1230 1353
8 1090 988 1104 1217 1219 1106 1231 1354
8 1218 1105 987 1089 1355 1232 1106 1219
8 1091 991 1105 1218 1220 1109 1232 1355
8 1092 992 1109 1220 1221 1110 1234 1356
8 1222 1108 1233 1357 1095 990 1107 1224
8 1222 1108 993 1093 1357 1233 1110 1221
8 1223 1101 989 1096 1358 1229 1107 1224
8 1226 1102 983 1098 1358 1229 1101 1223
8 1226 1102 1228 1359 1098 983 1100 1225
8 1103 995 1111 1227 1230 1112 1235 1360
8 1107 1002 1117 1233 1229 1116 1240 1362
8 1102 1001 1116 1229 1228 1115 1240 1362
8 1104 996 1112 1230 1231 1113 1236 1363
8 1364 1237 1114 1232 1231 1113 997 1106
8 1109 1005 1114 1232 1234 1118 1238 1365
8 1110 1004 1118 1234 1233 1117 1241 1366
8 1242 1374 1255 1138 1119 1243 1132 1025
8 1244 1127 1254 1376 1121 1015 1129 1245
8 1148 1031 1149 1275 1244 1127 1254 1376
8 1245 1129 1258 1377 1125 1016 1130 1248
8 1251 1134 1019 1126 1378 1257 1128 1246
8 1378 1257 1128 1246 1247 1131 1017 1123
8 1248 1130 1259 1379 1124 1018 1131 1247
8 1261 1381 1250 1133 1132 1249 1330 1199
8 1255 1380 1252 1135 1132 1249 1381 1261
8 1250 1133 1019 1126 1382 1262 1134 1251
8 1253 1136 1256 1385 1384 1263 1135 1252
8 1254 1137 1265 1387 1129 1022 1141 1258
8 1149 1032 1150 1276 1254 1137 1265 1387
8 1028 1135 1255 1138 1139 1256 1388 1266
8 1136 1029 1147 1264 1256 1139 1267 1389
8 1390 1268 1140 1257 1259 1142 1024 1131
8 1260 1143 1027 1134 1390 1268 1140 1257
8 1258 1141 1269 1391 1130 1023 1142 1259
8 1262 1145 1027 1134 1393 1271 1143 1260
8 1261 1144 1026 1133 1394 1272 1145 1262
8 1135 1028 1144 1261 1263 1146 1272 1394
8 1136 1029 1146 1263 1264 1147 1273 1395
8 1155 1041 1160 1282 1275 1149 1276 1405
8 1276 1150 1044 1160 1406 1277 1162 1286
8 1408 1283 1159 1279 1278 1156 1039 1151
8 1290 1165 1283 1408 1177 1053 1156 1278
8 1152 1040 1159 1279 1280 1158 1285 1409
8 1281 1157 1038 1153 1410 1284 1158 1280
8 1281 1157 1284 1410 1154 1042 1160 1282
8 1159 1046 1164 1283 1285 1163 1289 1412
8 1292 1167 1289 1412 1165 1048 1164 1283
8 1158 1045 1163 1285 1284 1161 1288 1413
8 1284 1161 1288 1413 1160 1044 1162 1286
8 1291 1166 1292 1418 1174 1051 1165 1290
8 1291 1166 1051 1174 1419 1293 1172 1305
8 1294 1169 1296 1421 1166 1049 1167 1292
8 1293 1168 1050 1172 1422 1295 1171 1303
8 1294 1169 1049 1166 1423 1297 1168 1293
8 1422 1295 1171 1303 1301 1170 1302 1435
8 1172 1050 1173 1306 1303 1171 1304 1438
8 1174 1051 1175 1308 1305 1172 1306 1440
8 1175 1052 1176 1309 1306 1173 1307 1441
8 1177 1053 1178 1311 1308 1175 1309 1443
8 1178 1054 1179 1312 1309 1176 1310 1444
8 1180 1055 1181 1314 1311 1178 1312 1446
8 1056 1181 1312 1179 1182 1315 1447 1313
8 1183 1058 1184 1316 1314 1181 1315 1448
8 1319 1186 1084 1214 1451 1317 1213 1350
8 1319 1186 1318 1453 1208 1081 1187 1321
8 1321 1187 1320 1456 1188 1063 1189 1323
8 1344 1208 1321 1457 1209 1082 1188 1322
8 1322 1188 1323 1458 1190 1064 1191 1325
8 1323 1189 1324 1459 1191 1065 1192 1326
8 1191 1325 1193 1067 1326 1460 1327 1194
8 1242 1374 1243 1119 1328 1462 1335 1204
8 1330 1199 1333 1465 1196 1075 1200 1331
8 1132 1249 1330 1199 1243 1375 1465 1333
8 1332 1201 1077 1198 1466 1334 1200 1331
8 1215 1099 1201 1332 1352 1227 1334 1466
8 1119 1243 1333 1203 1204 1335 1470 1338
8 1333 1203 1338 1470 1200 1080 1202 1334
8 1227 1111 1202 1334 1360 1235 1338 1470
8 1328 1462 1335 1204 1205 1336 1471 1339
8 1337 1206 1340 1472 1464 1329 1205 1336
8 1346 1211 1342 1479 1210 1083 1207 1343
8 1346 1211 1115 1228 1479 1342 1239 1361
8 1348 1212 1084 1214 1479 1342 1207 1343
8 1480 1343 1208 1344 1345 1210 1082 1209
8 1351 1214 1319 1454 1480 1343 1208 1344
8 1481 1346 1210 1345 1359 1228 1100 1225
8 1348 1212 1347 1483 1214 1084 1213 1350
8 1216 1103 1227 1352 1353 1230 1360 1488
8 1217 1104 1230 1353 1354 1231 1363 1489
8 1490 1364 1232 1355 1354 1231 1106 1219
8 1220 1109 1232 1355 1356 1234 1365 1491
8 1221 1110 1234 1356 1357 1233 1366 1492
8 1224 1107 1233 1357 1358 1229 1362 1493
8 1226 1102 1229 1358 1359 1228 1362 1493
8 1230 1112 1235 1360 1363 1236 1367 1496
8 1361 1239 1115 1228 1497 1371 1240 1362
8 1366 1241 1372 1498 1233 1117 1240 1362
8 1364 1237 1113 1231 1499 1368 1236 1363
8 1364 1237 1368 1499 1232 1114 1238 1365
8 1234 1118 1238 1365 1366 1241 1369 1500
8 1507 1373 1242 1374 1388 1266 1138 1255
8 1508 1374 1243 1375 1380 1255 1132 1249
8 1376 1254 1387 1509 1245 1129 1258 1377
8 1275 1149 1276 1405 1376 1254 1387 1509
8 1377 1258 1391 1510 1248 1130 1259 1379
8 1511 1390 1257 1378 1379 1259 1131 1247
8 1383 1260 1134 1251 1511 1390 1257 1378
8 1252 1135 1256 1385 1380 1255 1388 1512
8 1261 1381 1513 1394 1133 1250 1382 1262
8 1135 1252 1384 1263 1261 1381 1513 1394
8 1382 1262 1134 1251 1514 1393 1260 1383
8 1253 1136 1263 1384 1386 1264 1395 1516
8 1253 1136 1264 1386 1385 1256 1389 1517
8 1387 1265 1397 1519 1258 1141 1269 1391
8 1276 1150 1277 1406 1387 1265 1397 1519
8 1256 1139 1267 1389 1388 1266 1398 1520
8 1264 1147 1274 1396 1389 1267 1399 1521
8 1392 1270 1143 1260 1522 1400 1268 1390
8 1390 1268 1142 1259 1522 1400 1269 1391
8 1392 1270 1401 1523 1260 1143 1271 1393
8 1272 1394 1524 1402 1145 1262 1393 1271
8 1395 1273 1146 1263 1524 1402 1272 1394
8 1273 1395 1264 1147 1403 1526 1396 1274
8 1405 1276 1160 1282 1534 1406 1286 1411
8 1414 1287 1407 1535 1286 1162 1277 1406
8 1279 1159 1283 1408 1409 1285 1412 1537
8 1418 1292 1412 1537 1290 1165 1283 1408
8 1280 1158 1285 1409 1410 1284 1413 1538
8 1410 1284 1413 1538 1282 1160 1286 1411
8 1285 1163 1289 1412 1413 1288 1417 1540
8 1421 1296 1417 1540 1292 1167 1289 1412
8 1414 1287 1162 1286 1541 1416 1288 1413
8 1420 1294 1421 1545 1291 1166 1292 1418
8 1419 1293 1172 1305 1546 1422 1303 1437
8 1420 1294 1166 1291 1547 1423 1293 1419
8 1294 1169 1297 1423 1421 1296 1425 1548
8 1423 1297 1168 1293 1549 1424 1295 1422
8 1301 1170 1298 1427 1422 1295 1424 1549
8 1432 1300 1428 1554 1301 1170 1298 1427
8 1431 1299 1428 1554 1560 1430 1300 1432
8 1563 1433 1300 1432 1435 1302 1170 1301
8 1546 1422 1303 1437 1434 1301 1435 1565
8 1303 1171 1304 1438 1435 1302 1436 1566
8 1305 1172 1306 1440 1437 1303 1438 1568
8 1306 1173 1307 1441 1438 1304 1439 1569
8 1308 1175 1309 1443 1440 1306 1441 1571
8 1309 1176 1310 1444 1441 1307 1442 1572
8 1311 1178 1312 1446 1443 1309 1444 1574
8 1179 1312 1444 1310 1313 1447 1575 1445
8 1314 1181 1315 1448 1446 1312 1447 1576
8 1350 1213 1349 1486 1451 1317 1449 1579
8 1451 1317 1450 1581 1319 1186 1318 1453
8 1454 1319 1214 1351 1582 1451 1350 1487
8 1453 1318 1452 1584 1321 1187 1320 1456
8 1454 1319 1453 1585 1344 1208 1321 1457
8 1456 1320 1455 1586 1323 1189 1324 1459
8 1457 1321 1456 1587 1322 1188 1323 1458
8 1458 1323 1459 1588 1325 1191 1326 1460
8 1205 1336 1464 1329 1328 1462 1590 1461
8 1507 1373 1461 1590 1374 1242 1328 1462
8 1508 1374 1462 1591 1375 1243 1335 1467
8 1337 1206 1329 1464 1473 1341 1463 1594
8 1375 1243 1335 1467 1465 1333 1470 1596
8 1465 1333 1470 1596 1331 1200 1334 1466
8 1352 1227 1334 1466 1488 1360 1470 1596
8 1591 1462 1336 1468 1467 1335 1471 1597
8 1469 1337 1472 1598 1595 1464 1336 1468
8 1471 1339 1474 1600 1335 1204 1338 1470
8 1600 1474 1367 1496 1470 1338 1235 1360
8 1336 1205 1340 1472 1471 1339 1475 1601
8 1337 1206 1341 1473 1472 1340 1476 1602
8 1495 1370 1478 1609 1361 1239 1342 1479
8 1348 1212 1342 1479 1483 1347 1478 1609
8 1481 1346 1479 1610 1345 1210 1343 1480
8 1481 1346 1228 1359 1610 1479 1361 1494
8 1484 1348 1214 1351 1610 1479 1343 1480
8 1483 1347 1482 1612 1350 1213 1349 1486
8 1484 1348 1483 1613 1351 1214 1350 1487
8 1353 1230 1360 1488 1489 1363 1496 1616
8 1490 1364 1231 1354 1617 1499 1363 1489
8 1490 1364 1499 1617 1355 1232 1365 1491
8 1356 1234 1365 1491 1492 1366 1500 1619
8 1492 1366 1498 1620 1357 1233 1362 1493
8 1494 1361 1228 1359 1621 1497 1362 1493
8 1495 1370 1239 1361 1622 1504 1371 1497
8 1363 1236 1367 1496 1499 1368 1501 1623
8 1497 1371 1240 1362 1624 1505 1372 1498
8 1625 1503 1372 1498 1500 1369 1241 1366
8 1365 1238 1368 1499 1500 1369 1502 1626
8 1520 1398 1506 1633 1388 1266 1373 1507
8 1634 1507 1374 1508 1512 1388 1255 1380
8 1509 1387 1519 1635 1377 1258 1391 1510
8 1405 1276 1406 1534 1509 1387 1519 1635
8 1515 1392 1260 1383 1636 1522 1390 1511
8 1511 1390 1259 1379 1636 1522 1391 1510
8 1385 1256 1389 1517 1512 1388 1520 1637
8 1513 1394 1262 1382 1638 1524 1393 1514
8 1395 1516 1638 1524 1263 1384 1513 1394
8 1515 1392 1523 1639 1383 1260 1393 1514
8 1516 1395 1526 1640 1386 1264 1396 1518
8 1386 1264 1396 1518 1517 1389 1521 1641
8 1519 1397 1527 1643 1391 1269 1400 1522
8 1535 1407 1527 1643 1406 1277 1397 1519
8 1389 1267 1399 1521 1520 1398 1528 1644
8 1645 1529 1399 1521 1525 1404 1274 1396
8 1392 1270 1400 1522 1523 1401 1531 1646
8 1524 1402 1271 1393 1648 1532 1401 1523
8 1403 1526 1648 1532 1273 1395 1524 1402
8 1525 1404 1274 1396 1649 1533 1403 1526
8 1539 1414 1535 1657 1411 1286 1406 1534
8 1542 1415 1536 1658 1414 1287 1407 1535
8 1409 1285 1412 1537 1538 1413 1540 1660
8 1545 1421 1540 1660 1418 1292 1412 1537
8 1539 1414 1286 1411 1661 1541 1413 1538
8 1540 1417 1544 1663 1413 1288 1416 1541
8 1421 1296 1425 1548 1540 1417 1544 1663
8 1542 1415 1287 1414 1664 1543 1416 1541
8 1420 1294 1423 1547 1545 1421 1548 1666
8 1547 1423 1293 1419 1667 1549 1422 1546
8 1434 1301 1427 1553 1546 1422 1549 1667
8 1423 1297 1424 1549 1548 1425 1550 1668
8 1551 1426 1550 1668 1427 1298 1424 1549
8 1551 1426 1298 1427 1671 1552 1428 1554
8 1562 1432 1554 1674 1434 1301 1427 1553
8 1431 1299 1429 1558 1554 1428 1555 1675
8 1431 1299 1430 1560 1558 1429 1557 1680
8 1560 1430 1300 1432 1683 1559 1433 1563
8 1561 1431 1554 1674 1684 1560 1432 1562
8 1685 1563 1432 1562 1565 1435 1301 1434
8 1435 1302 1436 1566 1563 1433 1564 1686
8 1437 1303 1438 1568 1565 1435 1566 1688
8 1438 1304 1439 1569 1566 1436 1567 1689
8 1440 1306 1441 1571 1568 1438 1569 1691
8 1441 1307 1442 1572 1569 1439 1570 1692
8 1443 1309 1444 1574 1571 1441 1572 1694
8 1310 1444 1572 1442 1445 1575 1695 1573
8 1446 1312 1447 1576 1574 1444 1575 1696
8 1486 1349 1485 1614 1579 1449 1577 1699
8 1451 1317 1449 1579 1581 1450 1578 1701
8 1487 1350 1486 1615 1582 1451 1579 1702
8 1581 1450 1580 1704 1453 1318 1452 1584
8 1582 1451 1581 1705 1454 1319 1453 1585
8 1584 1452 1583 1706 1456 1320 1455 1586
8 1585 1453 1584 1707 1457 1321 1456 1587
8 1587 1456 1586 1708 1458 1323 1459 1588
8 1633 1506 1589 1710 1507 1373 1461 1590
8 1464 1329 1461 1590 1594 1463 1589 1710
8 1468 1336 1462 1591 1595 1464 1590 1711
8 1634 1507 1590 1711 1508 1374 1462 1591
8 1473 1341 1463 1594 1603 1477 1593 1716
8 1469 1337 1464 1595 1599 1473 1594 1717
8 1471 1597 1467 1335 1600 1718 1596 1470
8 1718 1600 1496 1616 1596 1470 1360 1488
8 1336 1468 1597 1471 1472 1598 1719 1601
8 1469 1337 1473 1599 1598 1472 1602 1720
8 1722 1604 1501 1623 1600 1474 1367 1496
8 1475 1601 1471 1339 1604 1722 1600 1474
8 1602 1476 1605 1723 1472 1340 1475 1601
8 1476 1602 1724 1606 1341 1473 1603 1477
8 1483 1347 1478 1609 1612 1482 1608 1731
8 1495 1370 1504 1622 1609 1478 1608 1731
8 1618 1495 1609 1732 1494 1361 1479 1610
8 1484 1348 1479 1610 1613 1483 1609 1732
8 1486 1349 1482 1612 1614 1485 1611 1733
8 1613 1483 1612 1734 1487 1350 1486 1615
8 1489 1363 1496 1616 1617 1499 1623 1736
8 1491 1365 1499 1617 1619 1500 1626 1737
8 1618 1495 1361 1494 1738 1622 1497 1621
8 1739 1625 1498 1620 1619 1500 1366 1492
8 1621 1497 1362 1493 1740 1624 1498 1620
8 1742 1631 1504 1622 1624 1505 1371 1497
8 1743 1628 1502 1626 1623 1501 1368 1499
8 1744 1630 1505 1624 1625 1503 1372 1498
8 1745 1629 1503 1625 1626 1502 1369 1500
8 1520 1398 1528 1644 1633 1506 1632 1751
8 1637 1520 1633 1752 1512 1388 1507 1634
8 1635 1519 1643 1753 1510 1391 1522 1636
8 1657 1535 1643 1753 1534 1406 1519 1635
8 1515 1392 1522 1636 1639 1523 1646 1754
8 1517 1389 1521 1641 1637 1520 1644 1755
8 1524 1638 1756 1648 1393 1514 1639 1523
8 1640 1526 1395 1516 1756 1648 1524 1638
8 1642 1525 1396 1518 1757 1649 1526 1640
8 1758 1645 1521 1641 1642 1525 1396 1518
8 1646 1531 1400 1522 1760 1650 1527 1643
8 1535 1407 1536 1658 1643 1527 1650 1760
8 1521 1399 1529 1645 1644 1528 1651 1761
8 1647 1530 1652 1762 1525 1404 1529 1645
8 1401 1523 1648 1532 1531 1646 1763 1655
8 1525 1404 1533 1649 1647 1530 1654 1765
8 1533 1649 1766 1656 1403 1526 1648 1532
8 1662 1542 1658 1774 1539 1414 1535 1657
8 1542 1415 1543 1664 1658 1536 1659 1775
8 1660 1540 1663 1777 1538 1413 1541 1661
8 1545 1421 1548 1666 1660 1540 1663 1777
8 1662 1542 1414 1539 1778 1664 1541 1661
8 1664 1543 1416 1541 1779 1665 1544 1663
8 1548 1425 1550 1668 1663 1544 1665 1779
8 1547 1423 1549 1667 1666 1548 1668 1781
8 1670 1551 1668 1781 1553 1427 1549 1667
8 1551 1426 1552 1671 1668 1550 1669 1782
8 1670 1551 1427 1553 1784 1671 1554 1674
8 1675 1555 1672 1785 1554 1428 1552 1671
8 1678 1556 1673 1789 1558 1429 1555 1675
8 1561 1431 1558 1681 1674 1554 1675 1790
8 1794 1677 1556 1678 1680 1557 1429 1558
8 1560 1430 1559 1683 1680 1557 1679 1797
8 1561 1431 1560 1684 1681 1558 1680 1798
8 1563 1433 1564 1686 1683 1559 1682 1800
8 1684 1560 1432 1562 1801 1683 1563 1685
8 1565 1435 1566 1688 1685 1563 1686 1802
8 1566 1436 1567 1689 1686 1564 1687 1803
8 1568 1438 1569 1691 1688 1566 1689 1805
8 1569 1439 1570 1692 1689 1567 1690 1806
8 1571 1441 1572 1694 1691 1569 1692 1808
8 1442 1572 1692 1570 1573 1695 1809 1693
8 1574 1444 1575 1696 1694 1572 1695 1810
8 1614 1485 1592 1712 1699 1577 1697 1813
8 1579 1449 1577 1699 1701 1578 1698 1815
8 1615 1486 1614 1735 1702 1579 1699 1816
8 1701 1578 1700 1818 1581 1450 1580 1704
8 1582 1451 1579 1702 1705 1581 1701 1819
8 1704 1580 1703 1820 1584 1452 1583 1706
8 1705 1581 1704 1821 1585 1453 1584 1707
8 1707 1584 1706 1822 1587 1456 1586 1708
8 1710 1589 1506 1633 1824 1709 1632 1751
8 1594 1463 1589 1710 1716 1593 1709 1824
8 1752 1633 1710 1825 1634 1507 1590 1711
8 1595 1464 1590 1711 1717 1594 1710 1825
8 1830 1714 1592 1712 1733 1611 1485 1614
8 1603 1477 1593 1716 1725 1607 1715 1834
8 1599 1473 1594 1717 1721 1603 1716 1835
8 1837 1722 1623 1736 1718 1600 1496 1616
8 1719 1601 1722 1837 1597 1471 1600 1718
8 1602 1720 1598 1472 1723 1838 1719 1601
8 1720 1602 1473 1599 1839 1724 1603 1721
8 1723 1605 1726 1840 1601 1475 1604 1722
8 1840 1726 1628 1743 1722 1604 1501 1623
8 1724 1606 1727 1841 1602 1476 1605 1723
8 1725 1607 1728 1842 1603 1477 1606 1724
8 1612 1482 1608 1731 1733 1611 1730 1849
8 1741 1627 1730 1849 1622 1504 1608 1731
8 1613 1483 1609 1732 1734 1612 1731 1850
8 1618 1495 1622 1738 1732 1609 1731 1850
8 1615 1486 1612 1734 1735 1614 1733 1851
8 1852 1743 1626 1737 1736 1623 1499 1617
8 1853 1745 1625 1739 1737 1626 1500 1619
8 1855 1742 1622 1738 1740 1624 1497 1621
8 1856 1744 1624 1740 1739 1625 1498 1620
8 1741 1627 1504 1622 1857 1746 1631 1742
8 1742 1631 1505 1624 1858 1749 1630 1744
8 1859 1747 1629 1745 1743 1628 1502 1626
8 1860 1748 1630 1744 1745 1629 1503 1625
8 1644 1528 1651 1761 1751 1632 1750 1865
8 1637 1520 1644 1755 1752 1633 1751 1866
8 1754 1646 1522 1636 1867 1760 1643 1753
8 1657 1535 1658 1774 1753 1643 1760 1867
8 1639 1523 1646 1754 1756 1648 1763 1868
8 1641 1521 1645 1758 1755 1644 1761 1869
8 1757 1649 1526 1640 1870 1766 1648 1756
8 1642 1525 1649 1757 1759 1647 1765 1871
8 1759 1647 1762 1872 1642 1525 1645 1758
8 1760 1650 1767 1874 1646 1531 1655 1763
8 1658 1536 1659 1775 1760 1650 1767 1874
8 1762 1652 1768 1875 1645 1529 1651 1761
8 1764 1653 1769 1876 1647 1530 1652 1762
8 1656 1766 1877 1773 1532 1648 1763 1655
8 1771 1879 1765 1654 1653 1764 1647 1530
8 1533 1649 1765 1654 1656 1766 1880 1772
8 1662 1542 1664 1778 1774 1658 1775 1887
8 1664 1543 1665 1779 1775 1659 1776 1888
8 1778 1664 1541 1661 1890 1779 1663 1777
8 1666 1548 1668 1781 1777 1663 1779 1890
8 1782 1669 1780 1891 1668 1550 1665 1779
8 1670 1551 1671 1784 1781 1668 1782 1893
8 1671 1552 1672 1785 1782 1669 1783 1894
8 1790 1675 1785 1896 1674 1554 1671 1784
8 1675 1555 1673 1789 1785 1672 1786 1897
8 1792 1676 1788 1903 1678 1556 1673 1789
8 1795 1678 1789 1904 1681 1558 1675 1790
8 1792 1676 1556 1678 1906 1791 1677 1794
8 1680 1557 1679 1797 1794 1677 1793 1909
8 1910 1794 1678 1795 1798 1680 1558 1681
8 1683 1559 1682 1800 1797 1679 1796 1912
8 1684 1560 1683 1801 1798 1680 1797 1913
8 1686 1564 1687 1803 1800 1682 1799 1915
8 1685 1563 1686 1802 1801 1683 1800 1916
8 1688 1566 1689 1805 1802 1686 1803 1917
8 1689 1567 1690 1806 1803 1687 1804 1918
8 1691 1569 1692 1808 1805 1689 1806 1920
8 1692 1570 1693 1809 1806 1690 1807 1921
8 1694 1572 1695 1810 1808 1692 1809 1922
8 1829 1713 1811 1926 1712 1592 1697 1813
8 1813 1697 1812 1928 1699 1577 1698 1815
8 1735 1614 1712 1828 1816 1699 1813 1929
8 1815 1698 1814 1931 1701 1578 1700 1818
8 1702 1579 1699 1816 1819 1701 1815 1932
8 1818 1700 1817 1933 1704 1580 1703 1820
8 1819 1701 1818 1934 1705 1581 1704 1821
8 1821 1704 1820 1935 1707 1584 1706 1822
8 1824 1709 1632 1751 1937 1823 1750 1865
8 1716 1593 1709 1824 1834 1715 1823 1937
8 1825 1710 1633 1752 1938 1824 1751 1866
8 1717 1594 1710 1825 1835 1716 1824 1938
8 1945 1830 1712 1828 1851 1733 1614 1735
8 1830 1714 1831 1946 1712 1592 1713 1829
8 1947 1832 1714 1830 1849 1730 1611 1733
8 1843 1729 1607 1725 1950 1833 1715 1834
8 1721 1603 1716 1835 1836 1725 1834 1951
8 1836 1725 1842 1953 1721 1603 1724 1839
8 1723 1838 1719 1601 1840 1954 1837 1722
8 1954 1840 1743 1852 1837 1722 1623 1736
8 1724 1839 1720 1602 1841 1955 1838 1723
8 1841 1727 1844 1956 1723 1605 1726 1840
8 1956 1844 1747 1859 1840 1726 1628 1743
8 1728 1842 1724 1606 1845 1957 1841 1727
8 1725 1607 1729 1843 1842 1728 1846 1958
8 1741 1627 1746 1857 1849 1730 1848 1965
8 1734 1612 1731 1850 1851 1733 1849 1966
8 1854 1741 1849 1966 1738 1622 1731 1850
8 1967 1859 1745 1853 1852 1743 1626 1737
8 1968 1860 1744 1856 1853 1745 1625 1739
8 1854 1741 1622 1738 1969 1857 1742 1855
8 1855 1742 1624 1740 1970 1858 1744 1856
8 1857 1746 1631 1742 1971 1861 1749 1858
8 1858 1749 1630 1744 1972 1863 1748 1860
8 1859 1747 1862 1973 1745 1629 1748 1860
8 1875 1768 1864 1977 1761 1651 1750 1865
8 1755 1644 1761 1869 1866 1751 1865 1978
8 1867 1760 1874 1979 1754 1646 1763 1868
8 1774 1658 1775 1887 1867 1760 1874 1979
8 1870 1766 1648 1756 1980 1877 1763 1868
8 1872 1762 1875 1981 1758 1645 1761 1869
8 1757 1649 1766 1870 1871 1765 1880 1982
8 1983 1879 1764 1873 1871 1765 1647 1759
8 1873 1764 1876 1984 1759 1647 1762 1872
8 1877 1773 1655 1763 1986 1881 1767 1874
8 1775 1659 1776 1888 1874 1767 1881 1986
8 1876 1769 1882 1987 1762 1652 1768 1875
8 1878 1770 1883 1988 1764 1653 1769 1876
8 1880 1772 1656 1766 1989 1886 1773 1877
8 1878 1770 1653 1764 1990 1884 1771 1879
8 1765 1654 1772 1880 1879 1771 1885 1991
8 1778 1664 1779 1890 1887 1775 1888 1997
8 1998 1889 1776 1888 1891 1780 1665 1779
8 1893 1782 1891 2000 1781 1668 1779 1890
8 1894 1783 1892 2001 1782 1669 1780 1891
8 1784 1671 1785 1896 1893 1782 1894 2003
8 1897 1786 1895 2004 1785 1672 1783 1894
8 1790 1675 1789 1904 1896 1785 1897 2006
8 1901 1787 1898 2007 1789 1673 1786 1897
8 1903 1788 1900 2013 1789 1673 1787 1901
8 1792 1676 1791 1906 1903 1788 1902 2016
8 1907 1792 1903 2017 1795 1678 1789 1904
8 1906 1791 1677 1794 2019 1905 1793 1909
8 1907 1792 1678 1795 2020 1906 1794 1910
8 1797 1679 1796 1912 1909 1793 1908 2022
8 1798 1680 1797 1913 1910 1794 1909 2023
8 1800 1682 1799 1915 1912 1796 1911 2025
8 1801 1683 1800 1916 1913 1797 1912 2026
8 1803 1687 1804 1918 1915 1799 1914 2028
8 1802 1686 1803 1917 1916 1800 1915 2029
8 1805 1689 1806 1920 1917 1803 1918 2030
8 1806 1690 1807 1921 1918 1804 1919 2031
8 1808 1692 1809 1922 1920 1806 1921 2032
8 1939 1826 1924 2037 1829 1713 1811 1926
8 1926 1811 1925 2039 1813 1697 1812 1928
8 1944 1829 1926 2040 1828 1712 1813 1929
8 1928 1812 1927 2042 1815 1698 1814 1931
8 1929 1813 1928 2043 1816 1699 1815 1932
8 1931 1814 1930 2044 1818 1700 1817 1933
8 1932 1815 1931 2045 1819 1701 1818 1934
8 1934 1818 1933 2046 1821 1704 1820 1935
8 2048 1936 1823 1937 1977 1864 1750 1865
8 1950 1833 1715 1834 2048 1936 1823 1937
8 1938 1824 1751 1866 2049 1937 1865 1978
8 1835 1716 1824 1938 1951 1834 1937 2049
8 1939 1826 1713 1829 2053 1942 1831 1946
8 1940 1827 1923 2035 2053 1942 1826 1939
8 1945 1830 1946 2058 1828 1712 1829 1944
8 2059 1947 1830 1945 1966 1849 1733 1851
8 1947 1832 1730 1849 2060 1948 1848 1965
8 1947 1832 1948 2060 1830 1714 1831 1946
8 1959 1847 1729 1843 2063 1949 1833 1950
8 1952 1843 1725 1836 2064 1950 1834 1951
8 1836 1725 1843 1952 1953 1842 1958 2066
8 1953 1842 1957 2067 1839 1724 1841 1955
8 1841 1955 1838 1723 1956 2068 1954 1840
8 2068 1956 1859 1967 1954 1840 1743 1852
8 1956 1844 1960 2069 1859 1747 1862 1973
8 1845 1957 1841 1727 1960 2069 1956 1844
8 1728 1842 1957 1845 1846 1958 2071 1961
8 1962 2072 1959 1847 1846 1958 1843 1729
8 1971 1861 1964 2077 1857 1746 1848 1965
8 1854 1741 1857 1969 1966 1849 1965 2078
8 1967 1859 1973 2079 1853 1745 1860 1968
8 1970 1858 1744 1856 2080 1972 1860 1968
8 1969 1857 1742 1855 2081 1971 1858 1970
8 1971 1861 1749 1858 2082 1974 1863 1972
8 1973 1862 1975 2083 1860 1748 1863 1972
8 1987 1882 1976 2086 1875 1768 1864 1977
8 1981 1875 1977 2087 1869 1761 1865 1978
8 1980 1877 1763 1868 2088 1986 1874 1979
8 1887 1775 1888 1997 1979 1874 1986 2088
8 1880 1982 2089 1989 1766 1870 1980 1877
8 1984 1876 1987 2090 1872 1762 1875 1981
8 1765 1871 1983 1879 1880 1982 2091 1991
8 1985 1878 1764 1873 2092 1990 1879 1983
8 1985 1878 1988 2093 1873 1764 1876 1984
8 2094 1992 1881 1986 1998 1889 1776 1888
8 1986 1881 1992 2094 1877 1773 1886 1989
8 1988 1883 1993 2095 1876 1769 1882 1987
8 1878 1770 1884 1990 1988 1883 1994 2096
8 1991 1885 1772 1880 2097 1996 1886 1989
8 1879 1771 1885 1991 1990 1884 1995 2098
8 2103 1998 1888 1997 2000 1891 1779 1890
8 2104 1999 1889 1998 2001 1892 1780 1891
8 2003 1894 2001 2106 1893 1782 1891 2000
8 2004 1895 2002 2107 1894 1783 1892 2001
8 2006 1897 2004 2109 1896 1785 1894 2003
8 2007 1898 2005 2110 1897 1786 1895 2004
8 2014 1901 2007 2112 1904 1789 1897 2006
8 2011 1899 2008 2113 1901 1787 1898 2007
8 2119 2010 1899 2011 2013 1900 1787 1901
8 2016 1902 2012 2122 1903 1788 1900 2013
8 2017 1903 2013 2123 1904 1789 1901 2014
8 1906 1791 1905 2019 2016 1902 2015 2125
8 1907 1792 1906 2020 2017 1903 2016 2126
8 1909 1793 1908 2022 2019 1905 2018 2128
8 2020 1906 1794 1910 2129 2019 1909 2023
8 1912 1796 1911 2025 2022 1908 2021 2131
8 1913 1797 1912 2026 2023 1909 2022 2132
8 1915 1799 1914 2028 2025 1911 2024 2134
8 1916 1800 1915 2029 2026 1912 2025 2135
8 1918 1804 1919 2031 2028 1914 2027 2136
8 1917 1803 1918 2030 2029 1915 2028 2137
8 1920 1806 1921 2032 2030 1918 2031 2138
8 1940 1827 1941 2054 2035 1923 2033 2140
8 2035 1923 2034 2143 1939 1826 1924 2037
8 2037 1924 2036 2146 1926 1811 1925 2039
8 2051 1939 2037 2147 1944 1829 1926 2040
8 2039 1925 2038 2149 1928 1812 1927 2042
8 2040 1926 2039 2150 1929 1813 1928 2043
8 2042 1927 2041 2151 1931 1814 1930 2044
8 2043 1928 2042 2152 1932 1815 1931 2045
8 2045 1931 2044 2153 1934 1818 1933 2046
8 2155 2047 1936 2048 2086 1976 1864 1977
8 2063 1949 1833 1950 2155 2047 1936 2048
8 2156 2048 1937 2049 2087 1977 1865 1978
8 2064 1950 1834 1951 2156 2048 1937 2049
8 2051 1939 1829 1944 2160 2053 1946 2058
8 2052 1940 2035 2144 2160 2053 1939 2051
8 2053 1942 1831 1946 2163 2057 1948 2060
8 2055 1943 1827 1940 2163 2057 1942 2053
8 2055 1943 2056 2164 1940 1827 1941 2054
8 2059 1947 1849 1966 2167 2060 1965 2078
8 2059 1947 2060 2167 1945 1830 1946 2058
8 2077 1964 2061 2168 1965 1848 1948 2060
8 2070 1963 1847 1959 2170 2062 1949 2063
8 2065 1959 1843 1952 2171 2063 1950 2064
8 2173 2072 1958 2066 2065 1959 1843 1952
8 1953 1842 1958 2066 2067 1957 2071 2174
8 2068 1956 2069 2175 1967 1859 1973 2079
8 2067 1957 2069 2175 1955 1841 1956 2068
8 1845 1957 2069 1960 1961 2071 2176 2073
8 2069 1960 2073 2176 1973 1862 1975 2083
8 2070 1963 2075 2177 1959 1847 1962 2072
8 1846 1958 2071 1961 1962 2072 2178 2074
8 2077 1964 1861 1971 2182 2076 1974 2082
8 2081 1971 2077 2183 1969 1857 1965 2078
8 2079 1973 2083 2184 1968 1860 1972 2080
8 2081 1971 1858 1970 2185 2082 1972 2080
8 2083 1975 2084 2186 1972 1863 1974 2082
8 2086 1976 1882 1987 2189 2085 1993 2095
8 2090 1987 2086 2190 1981 1875 1977 2087
8 2191 2094 1986 2088 2103 1998 1888 1997
8 2088 1986 2094 2191 1980 1877 1989 2089
8 1991 2091 2192 2097 1880 1982 2089 1989
8 2093 1988 2095 2193 1984 1876 1987 2090
8 1879 1983 2092 1990 1991 2091 2194 2098
8 1985 1878 1990 2092 2093 1988 2096 2195
8 2097 1996 1886 1989 2196 2099 1992 2094
8 2196 2099 1992 2094 2104 1999 1889 1998
8 1994 2096 1988 1883 2100 2197 2095 1993
8 2096 1994 1884 1990 2198 2101 1995 2098
8 1995 2098 2199 2102 1885 1991 2097 1996
8 2203 2104 1998 2103 2106 2001 1891 2000
8 2107 2002 2105 2204 2001 1892 1999 2104
8 2109 2004 2107 2206 2003 1894 2001 2106
8 2110 2005 2108 2207 2004 1895 2002 2107
8 2112 2007 2110 2209 2006 1897 2004 2109
8 2113 2008 2111 2210 2007 1898 2005 2110
8 2120 2011 2113 2212 2014 1901 2007 2112
8 2117 2009 2114 2213 2011 1899 2008 2113
8 2219 2116 2009 2117 2119 2010 1899 2011
8 2222 2118 2010 2119 2122 2012 1900 2013
8 2223 2119 2011 2120 2123 2013 1901 2014
8 2016 1902 2015 2125 2122 2012 2121 2225
8 2126 2016 2122 2226 2017 1903 2013 2123
8 2019 1905 2018 2128 2125 2015 2124 2228
8 2020 1906 2019 2129 2126 2016 2125 2229
8 2022 1908 2021 2131 2128 2018 2127 2231
8 2023 1909 2022 2132 2129 2019 2128 2232
8 2025 1911 2024 2134 2131 2021 2130 2234
8 2026 1912 2025 2135 2132 2022 2131 2235
8 1914 2028 2134 2024 2027 2136 2236 2133
8 2029 1915 2028 2137 2135 2025 2134 2237
8 2030 1918 2031 2138 2137 2028 2136 2238
8 2157 2050 2139 2240 2054 1941 2033 2140
8 2052 1940 2054 2161 2144 2035 2140 2242
8 2140 2033 2141 2243 2035 1923 2034 2143
8 2143 2034 2142 2246 2037 1924 2036 2146
8 2144 2035 2143 2247 2051 1939 2037 2147
8 2146 2036 2145 2249 2039 1925 2038 2149
8 2147 2037 2146 2250 2040 1926 2039 2150
8 2149 2038 2148 2251 2042 1927 2041 2151
8 2150 2039 2149 2252 2043 1928 2042 2152
8 2152 2042 2151 2253 2045 1931 2044 2153
8 2255 2154 2047 2155 2189 2085 1976 2086
8 2170 2062 1949 2063 2255 2154 2047 2155
8 2256 2155 2048 2156 2190 2086 1977 2087
8 2171 2063 1950 2064 2256 2155 2048 2156
8 2258 2159 2050 2157 2164 2056 1941 2054
8 2160 2053 1946 2058 2262 2163 2060 2167
8 2162 2055 1940 2052 2262 2163 2053 2160
8 2162 2055 2164 2263 2052 1940 2054 2161
8 2163 2057 1948 2060 2264 2165 2061 2168
8 2055 1943 2057 2163 2164 2056 2165 2264
8 2182 2076 2166 2268 2077 1964 2061 2168
8 2183 2077 2168 2269 2078 1965 2060 2167
8 2070 1963 2062 2170 2177 2075 2169 2271
8 2172 2070 1959 2065 2272 2170 2063 2171
8 2172 2070 2177 2273 2065 1959 2072 2173
8 2066 1958 2072 2173 2174 2071 2178 2274
8 2067 1957 2071 2174 2175 2069 2176 2275
8 2175 2069 2176 2275 2079 1973 2083 2184
8 2071 1961 2074 2178 2176 2073 2179 2276
8 2176 2073 2179 2276 2083 1975 2084 2186
8 2072 1962 2075 2177 2178 2074 2180 2277
8 2182 2076 1974 2082 2280 2181 2084 2186
8 2183 2077 1971 2081 2281 2182 2082 2185
8 2184 2083 2186 2282 2080 1972 2082 2185
8 2189 2085 1993 2095 2285 2188 2100 2197
8 2190 2086 1987 2090 2286 2189 2095 2193
8 2192 2097 1989 2089 2287 2196 2094 2191
8 2287 2196 2094 2191 2203 2104 1998 2103
8 2194 2098 1991 2091 2288 2199 2097 2192
8 2195 2096 2197 2289 2093 1988 2095 2193
8 2096 2195 2290 2198 1990 2092 2194 2098
8 2097 1996 2099 2196 2199 2102 2200 2291
8 2196 2099 1999 2104 2291 2200 2105 2204
8 2100 2197 2292 2201 1994 2096 2198 2101
8 1995 2098 2198 2101 2102 2199 2293 2202
8 2206 2107 2204 2296 2106 2001 2104 2203
8 2207 2108 2205 2297 2107 2002 2105 2204
8 2209 2110 2207 2299 2109 2004 2107 2206
8 2210 2111 2208 2300 2110 2005 2108 2207
8 2212 2113 2210 2302 2112 2007 2110 2209
8 2213 2114 2211 2303 2113 2008 2111 2210
8 2220 2117 2213 2305 2120 2011 2113 2212
8 2216 2115 2214 2306 2117 2009 2114 2213
8 2216 2115 2009 2117 2311 2217 2116 2219
8 2219 2116 2010 2119 2314 2218 2118 2222
8 2315 2219 2117 2220 2223 2119 2011 2120
8 2122 2012 2121 2225 2222 2118 2221 2317
8 2318 2222 2119 2223 2226 2122 2013 2123
8 2125 2015 2124 2228 2225 2121 2224 2320
8 2126 2016 2125 2229 2226 2122 2225 2321
8 2128 2018 2127 2231 2228 2124 2227 2323
8 2129 2019 2128 2232 2229 2125 2228 2324
8 2131 2021 2130 2234 2231 2127 2230 2326
8 2132 2022 2131 2235 2232 2128 2231 2327
8 2134 2024 2133 2236 2234 2130 2233 2328
8 2135 2025 2134 2237 2235 2131 2234 2329
8 2137 2028 2136 2238 2237 2134 2236 2330
8 2157 2050 2158 2259 2240 2139 2239 2332
8 2257 2157 2240 2334 2161 2054 2140 2242
8 2240 2139 2241 2335 2140 2033 2141 2243
8 2242 2140 2243 2337 2144 2035 2143 2247
8 2243 2141 2244 2338 2143 2034 2142 2246
8 2246 2142 2245 2341 2146 2036 2145 2249
8 2247 2143 2246 2342 2147 2037 2146 2250
8 2249 2145 2248 2343 2149 2038 2148 2251
8 2250 2146 2249 2344 2150 2039 2149 2252
8 2252 2149 2251 2345 2152 2042 2151 2253
8 2169 2271 2347 2254 2062 2170 2255 2154
8 2189 2085 2188 2285 2255 2154 2254 2347
8 2348 2255 2155 2256 2286 2189 2086 2190
8 2272 2170 2063 2171 2348 2255 2155 2256
8 2349 2258 2157 2257 2263 2164 2054 2161
8 2258 2159 2261 2351 2157 2050 2158 2259
8 2258 2159 2056 2164 2351 2261 2165 2264
8 2262 2163 2060 2167 2355 2264 2168 2269
8 2162 2055 2163 2262 2263 2164 2264 2355
8 2357 2266 2165 2264 2268 2166 2061 2168
8 2268 2166 2076 2182 2361 2267 2181 2280
8 2281 2182 2268 2362 2183 2077 2168 2269
8 2271 2169 2270 2364 2177 2075 2180 2277
8 2172 2070 2170 2272 2273 2177 2271 2365
8 2072 2173 2274 2178 2177 2273 2366 2277
8 2071 2174 2275 2176 2178 2274 2367 2276
8 2275 2176 2276 2367 2184 2083 2186 2282
8 2283 2187 2084 2186 2368 2278 2179 2276
8 2178 2074 2180 2277 2276 2179 2278 2368
8 2283 2187 2279 2370 2186 2084 2181 2280
8 2281 2182 2082 2185 2371 2280 2186 2282
8 2188 2285 2374 2284 2100 2197 2292 2201
8 2286 2189 2095 2193 2375 2285 2197 2289
8 2192 2097 2196 2287 2288 2199 2291 2376
8 2287 2196 2104 2203 2376 2291 2204 2296
8 2194 2098 2199 2288 2290 2198 2293 2377
8 2289 2197 2096 2195 2378 2292 2198 2290
8 2291 2200 2105 2204 2379 2294 2205 2297
8 2199 2102 2200 2291 2293 2202 2294 2379
8 2198 2101 2202 2293 2292 2201 2295 2380
8 2299 2207 2297 2383 2206 2107 2204 2296
8 2300 2208 2298 2384 2207 2108 2205 2297
8 2302 2210 2300 2386 2209 2110 2207 2299
8 2303 2211 2301 2387 2210 2111 2208 2300
8 2305 2213 2303 2389 2212 2113 2210 2302
8 2306 2214 2304 2390 2213 2114 2211 2303
8 2310 2216 2306 2392 2220 2117 2213 2305
8 2308 2215 2307 2393 2216 2115 2214 2306
8 2308 2215 2115 2216 2396 2309 2217 2311
8 2310 2216 2117 2220 2398 2311 2219 2315
8 2311 2217 2116 2219 2399 2312 2218 2314
8 2314 2218 2118 2222 2402 2313 2221 2317
8 2315 2219 2119 2223 2403 2314 2222 2318
8 2225 2121 2224 2320 2317 2221 2316 2405
8 2226 2122 2225 2321 2318 2222 2317 2406
8 2228 2124 2227 2323 2320 2224 2319 2408
8 2229 2125 2228 2324 2321 2225 2320 2409
8 2231 2127 2230 2326 2323 2227 2322 2411
8 2232 2128 2231 2327 2324 2228 2323 2412
8 2234 2130 2233 2328 2326 2230 2325 2413
8 2235 2131 2234 2329 2327 2231 2326 2414
8 2237 2134 2236 2330 2329 2234 2328 2415
8 2259 2158 2260 2352 2332 2239 2331 2417
8 2257 2157 2259 2350 2334 2240 2332 2419
8 2240 2139 2239 2332 2335 2241 2333 2420
8 2334 2240 2335 2422 2242 2140 2243 2337
8 2335 2241 2336 2423 2243 2141 2244 2338
8 2337 2243 2338 2425 2247 2143 2246 2342
8 2338 2244 2339 2426 2246 2142 2245 2341
8 2341 2245 2340 2428 2249 2145 2248 2343
8 2342 2246 2341 2429 2250 2146 2249 2344
8 2344 2249 2343 2430 2252 2149 2251 2345
8 2188 2285 2347 2254 2284 2374 2432 2346
8 2347 2254 2346 2432 2271 2169 2270 2364
8 2365 2271 2170 2272 2433 2347 2255 2348
8 2286 2189 2285 2375 2348 2255 2347 2433
8 2349 2258 2351 2435 2257 2157 2259 2350
8 2349 2258 2164 2263 2435 2351 2264 2355
8 2259 2158 2261 2351 2352 2260 2354 2437
8 2356 2265 2354 2437 2264 2165 2261 2351
8 2441 2357 2264 2355 2362 2268 2168 2269
8 2356 2265 2165 2264 2442 2358 2266 2357
8 2443 2359 2266 2357 2361 2267 2166 2268
8 2370 2279 2360 2446 2280 2181 2267 2361
8 2362 2268 2182 2281 2447 2361 2280 2371
8 2180 2277 2368 2278 2270 2364 2449 2363
8 2271 2365 2273 2177 2364 2450 2366 2277
8 2372 2283 2186 2282 2451 2368 2276 2367
8 2178 2274 2367 2276 2277 2366 2451 2368
8 2283 2187 2278 2368 2370 2279 2369 2452
8 2372 2283 2370 2453 2282 2186 2280 2371
8 2284 2374 2455 2373 2201 2292 2380 2295
8 2375 2285 2197 2289 2456 2374 2292 2378
8 2376 2291 2204 2296 2457 2379 2297 2383
8 2288 2199 2291 2376 2377 2293 2379 2457
8 2198 2290 2378 2292 2293 2377 2458 2380
8 2293 2202 2294 2379 2380 2295 2381 2459
8 2384 2298 2381 2459 2297 2205 2294 2379
8 2386 2300 2384 2463 2299 2207 2297 2383
8 2387 2301 2385 2464 2300 2208 2298 2384
8 2389 2303 2387 2466 2302 2210 2300 2386
8 2390 2304 2388 2467 2303 2211 2301 2387
8 2392 2306 2390 2469 2305 2213 2303 2389
8 2393 2307 2391 2470 2306 2214 2304 2390
8 2395 2308 2393 2472 2310 2216 2306 2392
8 2308 2215 2309 2396 2393 2307 2394 2473
8 2395 2308 2216 2310 2475 2396 2311 2398
8 2396 2309 2217 2311 2476 2397 2312 2399
8 2398 2311 2219 2315 2478 2399 2314 2403
8 2399 2312 2218 2314 2479 2400 2313 2402
8 2317 2221 2316 2405 2402 2313 2401 2482
8 2403 2314 2222 2318 2483 2402 2317 2406
8 2320 2224 2319 2408 2405 2316 2404 2485
8 2321 2225 2320 2409 2406 2317 2405 2486
8 2323 2227 2322 2411 2408 2319 2407 2488
8 2324 2228 2323 2412 2409 2320 2408 2489
8 2326 2230 2325 2413 2411 2322 2410 2490
8 2327 2231 2326 2414 2412 2323 2411 2491
8 2329 2234 2328 2415 2414 2326 2413 2492
8 2417 2331 2260 2352 2494 2416 2353 2438
8 2350 2259 2352 2436 2419 2332 2417 2496
8 2332 2239 2331 2417 2420 2333 2418 2497
8 2334 2240 2332 2419 2422 2335 2420 2499
8 2420 2333 2421 2500 2335 2241 2336 2423
8 2422 2335 2423 2502 2337 2243 2338 2425
8 2423 2336 2424 2503 2338 2244 2339 2426
8 2425 2338 2426 2505 2342 2246 2341 2429
8 2426 2339 2427 2506 2341 2245 2340 2428
8 2429 2341 2428 2507 2344 2249 2343 2430
8 2432 2346 2284 2374 2509 2431 2373 2455
8 2432 2346 2431 2509 2364 2270 2363 2449
8 2375 2285 2374 2456 2433 2347 2432 2510
8 2347 2433 2365 2271 2432 2510 2450 2364
8 2350 2259 2351 2435 2436 2352 2437 2514
8 2440 2356 2437 2514 2355 2264 2351 2435
8 2352 2260 2354 2437 2438 2353 2439 2516
8 2356 2265 2358 2442 2437 2354 2439 2516
8 2440 2356 2264 2355 2518 2442 2357 2441
8 2519 2443 2357 2441 2447 2361 2268 2362
8 2443 2359 2444 2520 2357 2266 2358 2442
8 2443 2359 2267 2361 2520 2444 2360 2446
8 2446 2360 2279 2370 2523 2445 2369 2452
8 2453 2370 2446 2524 2371 2280 2361 2447
8 2449 2363 2448 2525 2368 2278 2369 2452
8 2366 2277 2364 2450 2451 2368 2449 2526
8 2372 2283 2368 2451 2453 2370 2452 2527
8 2455 2373 2295 2380 2529 2454 2382 2460
8 2456 2374 2292 2378 2530 2455 2380 2458
8 2377 2293 2379 2457 2458 2380 2459 2531
8 2463 2384 2459 2531 2383 2297 2379 2457
8 2533 2461 2382 2460 2459 2381 2295 2380
8 2464 2385 2461 2533 2384 2298 2381 2459
8 2466 2387 2464 2537 2386 2300 2384 2463
8 2467 2388 2465 2538 2387 2301 2385 2464
8 2469 2390 2467 2540 2389 2303 2387 2466
8 2470 2391 2468 2541 2390 2304 2388 2467
8 2472 2393 2470 2543 2392 2306 2390 2469
8 2393 2307 2394 2473 2470 2391 2471 2544
8 2395 2308 2396 2475 2472 2393 2473 2546
8 2396 2309 2397 2476 2473 2394 2474 2547
8 2475 2396 2311 2398 2549 2476 2399 2478
8 2476 2397 2312 2399 2550 2477 2400 2479
8 2478 2399 2314 2403 2552 2479 2402 2483
8 2479 2400 2313 2402 2553 2480 2401 2482
8 2405 2316 2404 2485 2482 2401 2481 2556
8 2406 2317 2405 2486 2483 2402 2482 2557
8 2408 2319 2407 2488 2485 2404 2484 2559
8 2409 2320 2408 2489 2486 2405 2485 2560
8 2411 2322 2410 2490 2488 2407 2487 2561
8 2412 2323 2411 2491 2489 2408 2488 2562
8 2414 2326 2413 2492 2491 2411 2490 2563
8 2513 2434 2493 2565 2438 2353 2416 2494
8 2496 2417 2352 2436 2567 2494 2438 2515
8 2494 2416 2495 2568 2417 2331 2418 2497
8 2419 2332 2417 2496 2499 2420 2497 2570
8 2497 2418 2498 2571 2420 2333 2421 2500
8 2499 2420 2500 2573 2422 2335 2423 2502
8 2500 2421 2501 2574 2423 2336 2424 2503
8 2502 2423 2503 2576 2425 2338 2426 2505
8 2503 2424 2504 2577 2426 2339 2427 2506
8 2505 2426 2506 2578 2429 2341 2428 2507
8 2509 2431 2373 2455 2580 2508 2454 2529
8 2509 2431 2508 2580 2449 2363 2448 2525
8 2432 2510 2581 2509 2374 2456 2530 2455
8 2432 2510 2450 2364 2509 2581 2526 2449
8 2583 2511 2434 2513 2516 2439 2353 2438
8 2436 2352 2437 2514 2515 2438 2516 2588
8 2440 2356 2442 2518 2514 2437 2516 2588
8 2442 2358 2444 2520 2516 2439 2517 2589
8 2519 2443 2520 2591 2441 2357 2442 2518
8 2519 2443 2361 2447 2591 2520 2446 2524
8 2446 2360 2445 2523 2520 2444 2521 2592
8 2525 2448 2522 2593 2452 2369 2445 2523
8 2524 2446 2370 2453 2594 2523 2452 2527
8 2526 2449 2525 2595 2451 2368 2452 2527
8 2534 2462 2528 2597 2460 2382 2454 2529
8 2530 2455 2380 2458 2598 2529 2460 2532
8 2599 2533 2460 2532 2531 2459 2380 2458
8 2537 2464 2533 2599 2463 2384 2459 2531
8 2534 2462 2382 2460 2601 2535 2461 2533
8 2538 2465 2535 2601 2464 2385 2461 2533
8 2540 2467 2538 2604 2466 2387 2464 2537
8 2541 2468 2539 2605 2467 2388 2465 2538
8 2543 2470 2541 2607 2469 2390 2467 2540
8 2470 2391 2471 2544 2541 2468 2542 2608
8 2472 2393 2473 2546 2543 2470 2544 2610
8 2473 2394 2474 2547 2544 2471 2545 2611
8 2475 2396 2476 2549 2546 2473 2547 2613
8 2476 2397 2477 2550 2547 2474 2548 2614
8 2549 2476 2399 2478 2616 2550 2479 2552
8 2479 2400 2480 2553 2550 2477 2551 2617
8 2552 2479 2402 2483 2619 2553 2482 2557
8 2482 2401 2481 2556 2553 2480 2554 2620
8 2485 2404 2484 2559 2556 2481 2555 2623
8 2486 2405 2485 2560 2557 2482 2556 2624
8 2488 2407 2487 2561 2559 2484 2558 2625
8 2489 2408 2488 2562 2560 2485 2559 2626
8 2491 2411 2490 2563 2562 2488 2561 2627
8 2513 2434 2512 2585 2565 2493 2564 2630
8 2586 2513 2565 2632 2515 2438 2494 2567
8 2565 2493 2566 2633 2494 2416 2495 2568
8 2567 2494 2568 2635 2496 2417 2497 2570
8 2568 2495 2569 2636 2497 2418 2498 2571
8 2570 2497 2571 2638 2499 2420 2500 2573
8 2571 2498 2572 2639 2500 2421 2501 2574
8 2573 2500 2574 2641 2502 2423 2503 2576
8 2574 2501 2575 2642 2503 2424 2504 2577
8 2576 2503 2577 2643 2505 2426 2506 2578
8 2597 2528 2579 2645 2529 2454 2508 2580
8 2580 2508 2579 2645 2525 2448 2522 2593
8 2581 2509 2455 2530 2646 2580 2529 2598
8 2581 2509 2580 2646 2526 2449 2525 2595
8 2583 2511 2582 2648 2513 2434 2512 2585
8 2583 2511 2439 2516 2648 2582 2517 2589
8 2649 2583 2513 2586 2588 2516 2438 2515
8 2589 2517 2444 2520 2653 2587 2521 2592
8 2518 2442 2520 2591 2588 2516 2589 2654
8 2593 2522 2590 2655 2523 2445 2521 2592
8 2524 2446 2523 2594 2591 2520 2592 2656
8 2595 2525 2593 2657 2527 2452 2523 2594
8 2602 2536 2596 2659 2534 2462 2528 2597
8 2600 2534 2597 2660 2532 2460 2529 2598
8 2600 2534 2460 2532 2661 2601 2533 2599
8 2604 2538 2601 2661 2537 2464 2533 2599
8 2602 2536 2462 2534 2663 2603 2535 2601
8 2601 2535 2465 2538 2663 2603 2539 2605
8 2607 2541 2605 2665 2540 2467 2538 2604
8 2608 2542 2606 2666 2541 2468 2539 2605
8 2543 2470 2544 2610 2607 2541 2608 2668
8 2544 2471 2545 2611 2608 2542 2609 2669
8 2546 2473 2547 2613 2610 2544 2611 2671
8 2547 2474 2548 2614 2611 2545 2612 2672
8 2549 2476 2550 2616 2613 2547 2614 2674
8 2550 2477 2551 2617 2614 2548 2615 2675
8 2552 2479 2553 2619 2616 2550 2617 2677
8 2553 2480 2554 2620 2617 2551 2618 2678
8 2557 2482 2556 2624 2619 2553 2620 2680
8 2556 2481 2555 2623 2620 2554 2621 2681
8 2559 2484 2558 2625 2623 2555 2622 2683
8 2560 2485 2559 2626 2624 2556 2623 2684
8 2562 2488 2561 2627 2626 2559 2625 2685
8 2690 2629 2564 2630 2650 2584 2512 2585
8 2586 2513 2585 2651 2632 2565 2630 2691
8 2630 2564 2631 2692 2565 2493 2566 2633
8 2632 2565 2633 2694 2567 2494 2568 2635
8 2633 2566 2634 2695 2568 2495 2569 2636
8 2635 2568 2636 2697 2570 2497 2571 2638
8 2636 2569 2637 2698 2571 2498 2572 2639
8 2638 2571 2639 2700 2573 2500 2574 2641
8 2639 2572 2640 2701 2574 2501 2575 2642
8 2641 2574 2642 2702 2576 2503 2577 2643
8 2597 2528 2596 2659 2645 2579 2644 2704
8 2645 2579 2644 2704 2593 2522 2590 2655
8 2660 2597 2645 2705 2598 2529 2580 2646
8 2646 2580 2645 2705 2595 2525 2593 2657
8 2650 2584 2512 2585 2707 2647 2582 2648
8 2648 2582 2517 2589 2707 2647 2587 2653
8 2649 2583 2648 2708 2586 2513 2585 2651
8 2649 2583 2516 2588 2708 2648 2589 2654
8 2655 2590 2652 2710 2592 2521 2587 2653
8 2654 2589 2520 2591 2711 2653 2592 2656
8 2657 2593 2655 2712 2594 2523 2592 2656
8 2602 2536 2603 2663 2659 2596 2658 2714
8 2662 2602 2659 2715 2600 2534 2597 2660
8 2662 2602 2534 2600 2717 2663 2601 2661
8 2661 2601 2538 2604 2717 2663 2605 2665
8 2666 2606 2664 2718 2605 2539 2603 2663
8 2668 2608 2666 2720 2607 2541 2605 2665
8 2608 2542 2609 2669 2666 2606 2667 2721
8 2610 2544 2611 2671 2668 2608 2669 2723
8 2611 2545 2612 2672 2669 2609 2670 2724
8 2613 2547 2614 2674 2671 2611 2672 2726
8 2614 2548 2615 2675 2672 2612 2673 2727
8 2616 2550 2617 2677 2674 2614 2675 2729
8 2617 2551 2618 2678 2675 2615 2676 2730
8 2619 2553 2620 2680 2677 2617 2678 2732
8 2620 2554 2621 2681 2678 2618 2679 2733
8 2624 2556 2623 2684 2680 2620 2681 2735
8 2681 2621 2555 2623 2736 2682 2622 2683
8 2626 2559 2625 2685 2684 2623 2683 2737
8 2688 2628 2584 2650 2740 2686 2647 2707
8 2688 2628 2687 2742 2650 2584 2629 2690
8 2690 2629 2689 2745 2630 2564 2631 2692
8 2746 2690 2630 2691 2709 2650 2585 2651
8 2691 2630 2692 2747 2632 2565 2633 2694
8 2692 2631 2693 2748 2633 2566 2634 2695
8 2694 2633 2695 2750 2635 2568 2636 2697
8 2695 2634 2696 2751 2636 2569 2637 2698
8 2697 2636 2698 2753 2638 2571 2639 2700
8 2698 2637 2699 2754 2639 2572 2640 2701
8 2700 2639 2701 2755 2641 2574 2642 2702
8 2659 2596 2658 2714 2704 2644 2703 2757
8 2704 2644 2703 2757 2655 2590 2652 2710
8 2660 2597 2659 2715 2705 2645 2704 2758
8 2705 2645 2704 2758 2657 2593 2655 2712
8 2759 2706 2647 2707 2710 2652 2587 2653
8 2709 2650 2585 2651 2760 2707 2648 2708
8 2708 2648 2589 2654 2760 2707 2653 2711
8 2712 2655 2710 2761 2656 2592 2653 2711
8 2763 2713 2658 2714 2718 2664 2603 2663
8 2662 2602 2663 2717 2715 2659 2714 2764
8 2720 2666 2718 2767 2665 2605 2663 2717
8 2768 2719 2664 2718 2721 2667 2606 2666
8 2668 2608 2669 2723 2720 2666 2721 2770
8 2669 2609 2670 2724 2721 2667 2722 2771
8 2671 2611 2672 2726 2723 2669 2724 2773
8 2672 2612 2673 2727 2724 2670 2725 2774
8 2674 2614 2675 2729 2726 2672 2727 2776
8 2675 2615 2676 2730 2727 2673 2728 2777
8 2677 2617 2678 2732 2729 2675 2730 2779
8 2678 2618 2679 2733 2730 2676 2731 2780
8 2680 2620 2681 2735 2732 2678 2733 2782
8 2733 2679 2621 2681 2783 2734 2682 2736
8 2735 2681 2623 2684 2784 2736 2683 2737
8 2740 2686 2647 2707 2787 2738 2706 2759
8 2688 2628 2686 2740 2742 2687 2739 2789
8 2743 2688 2650 2709 2790 2740 2707 2760
8 2742 2687 2741 2792 2690 2629 2689 2745
8 2743 2688 2742 2793 2709 2650 2690 2746
8 2745 2689 2744 2795 2692 2631 2693 2748
8 2746 2690 2745 2796 2691 2630 2692 2747
8 2747 2692 2748 2797 2694 2633 2695 2750
8 2748 2693 2749 2798 2695 2634 2696 2751
8 2750 2695 2751 2800 2697 2636 2698 2753
8 2751 2696 2752 2801 2698 2637 2699 2754
8 2753 2698 2754 2802 2700 2639 2701 2755
8 2763 2713 2756 2804 2714 2658 2703 2757
8 2759 2706 2652 2710 2804 2756 2703 2757
8 2715 2659 2714 2764 2758 2704 2757 2805
8 2758 2704 2757 2805 2712 2655 2710 2761
8 2806 2759 2707 2760 2761 2710 2653 2711
8 2765 2716 2762 2808 2718 2664 2713 2763
8 2809 2763 2714 2764 2767 2718 2663 2717
8 2765 2716 2664 2718 2811 2766 2719 2768
8 2813 2768 2718 2767 2770 2721 2666 2720
8 2814 2769 2719 2768 2771 2722 2667 2721
8 2723 2669 2724 2773 2770 2721 2771 2816
8 2724 2670 2725 2774 2771 2722 2772 2817
8 2726 2672 2727 2776 2773 2724 2774 2819
8 2727 2673 2728 2777 2774 2725 2775 2820
8 2729 2675 2730 2779 2776 2727 2777 2822
8 2730 2676 2731 2780 2777 2728 2778 2823
8 2732 2678 2733 2782 2779 2730 2780 2825
8 2780 2731 2679 2733 2826 2781 2734 2783
8 2782 2733 2681 2735 2827 2783 2736 2784
8 2830 2785 2738 2787 2804 2756 2706 2759
8 2789 2739 2686 2740 2832 2786 2738 2787
8 2790 2740 2707 2760 2833 2787 2759 2806
8 2742 2687 2739 2789 2792 2741 2788 2835
8 2743 2688 2740 2790 2793 2742 2789 2836
8 2792 2741 2791 2838 2745 2689 2744 2795
8 2793 2742 2792 2839 2746 2690 2745 2796
8 2795 2744 2794 2841 2748 2693 2749 2798
8 2796 2745 2795 2842 2747 2692 2748 2797
8 2797 2748 2798 2843 2750 2695 2751 2800
8 2798 2749 2799 2844 2751 2696 2752 2801
8 2800 2751 2801 2845 2753 2698 2754 2802
8 2808 2762 2803 2847 2763 2713 2756 2804
8 2809 2763 2804 2848 2764 2714 2757 2805
8 2806 2759 2710 2761 2848 2804 2757 2805
8 2765 2716 2766 2811 2808 2762 2807 2850
8 2810 2765 2808 2851 2767 2718 2763 2809
8 2810 2765 2718 2767 2852 2811 2768 2813
8 2811 2766 2719 2768 2853 2812 2769 2814
8 2855 2814 2768 2813 2816 2771 2721 2770
8 2856 2815 2769 2814 2817 2772 2722 2771
8 2773 2724 2774 2819 2816 2771 2817 2858
8 2774 2725 2775 2820 2817 2772 2818 2859
8 2776 2727 2777 2822 2819 2774 2820 2861
8 2777 2728 2778 2823 2820 2775 2821 2862
8 2779 2730 2780 2825 2822 2777 2823 2864
8 2823 2778 2731 2780 2865 2824 2781 2826
8 2825 2780 2733 2782 2866 2826 2783 2827
8 2869 2828 2785 2830 2847 2803 2756 2804
8 2871 2829 2786 2832 2830 2785 2738 2787
8 2872 2830 2787 2833 2848 2804 2759 2806
8 2789 2739 2786 2832 2835 2788 2831 2874
8 2836 2789 2740 2790 2875 2832 2787 2833
8 2792 2741 2788 2835 2838 2791 2834 2877
8 2793 2742 2789 2836 2839 2792 2835 2878
8 2838 2791 2837 2880 2795 2744 2794 2841
8 2839 2792 2838 2881 2796 2745 2795 2842
8 2841 2794 2840 2882 2798 2749 2799 2844
8 2842 2795 2841 2883 2797 2748 2798 2843
8 2843 2798 2844 2884 2800 2751 2801 2845
8 2886 2846 2803 2847 2850 2807 2762 2808
8 2851 2808 2847 2887 2809 2763 2804 2848
8 2850 2807 2766 2811 2889 2849 2812 2853
8 2810 2765 2811 2852 2851 2808 2850 2890
8 2852 2811 2768 2813 2891 2853 2814 2855
8 2853 2812 2769 2814 2892 2854 2815 2856
8 2894 2856 2814 2855 2858 2817 2771 2816
8 2817 2772 2818 2859 2856 2815 2857 2895
8 2819 2774 2820 2861 2858 2817 2859 2897
8 2820 2775 2821 2862 2859 2818 2860 2898
8 2822 2777 2823 2864 2861 2820 2862 2900
8 2823 2778 2824 2865 2862 2821 2863 2901
8 2864 2823 2780 2825 2902 2865 2826 2866
8 2904 2867 2828 2869 2886 2846 2803 2847
8 2869 2828 2868 2906 2830 2785 2829 2871
8 2907 2869 2830 2872 2887 2847 2804 2848
8 2871 2829 2870 2909 2832 2786 2831 2874
8 2910 2871 2832 2875 2872 2830 2787 2833
8 2835 2788 2831 2874 2877 2834 2873 2912
8 2836 2789 2832 2875 2878 2835 2874 2913
8 2877 2834 2876 2915 2838 2791 2837 2880
8 2839 2792 2835 2878 2881 2838 2877 2916
8 2880 2837 2879 2917 2841 2794 2840 2882
8 2881 2838 2880 2918 2842 2795 2841 2883
8 2883 2841 2882 2919 2843 2798 2844 2884
8 2921 2885 2846 2886 2889 2849 2807 2850
8 2922 2886 2847 2887 2890 2850 2808 2851
8 2889 2849 2812 2853 2924 2888 2854 2892
8 2890 2850 2811 2852 2925 2889 2853 2891
8 2891 2853 2814 2855 2926 2892 2856 2894
8 2892 2854 2815 2856 2927 2893 2857 2895
8 2858 2817 2859 2897 2894 2856 2895 2929
8 2859 2818 2860 2898 2895 2857 2896 2930
8 2861 2820 2862 2900 2897 2859 2898 2932
8 2862 2821 2863 2901 2898 2860 2899 2933
8 2864 2823 2865 2902 2900 2862 2901 2934
8 2904 2867 2846 2886 2936 2903 2885 2921
8 2904 2867 2903 2936 2869 2828 2868 2906
8 2937 2904 2869 2907 2922 2886 2847 2887
8 2906 2868 2905 2939 2871 2829 2870 2909
8 2907 2869 2906 2940 2872 2830 2871 2910
8 2909 2870 2908 2942 2874 2831 2873 2912
8 2910 2871 2909 2943 2875 2832 2874 2913
8 2912 2873 2911 2945 2877 2834 2876 2915
8 2878 2835 2874 2913 2916 2877 2912 2946
8 2915 2876 2914 2947 2880 2837 2879 2917
8 2916 2877 2915 2948 2881 2838 2880 2918
8 2918 2880 2917 2949 2883 2841 2882 2919
8 2921 2885 2849 2889 2951 2920 2888 2924
8 2952 2921 2886 2922 2925 2889 2850 2890
8 2924 2888 2854 2892 2954 2923 2893 2927
8 2925 2889 2853 2891 2955 2924 2892 2926
8 2926 2892 2856 2894 2956 2927 2895 2929
8 2895 2857 2896 2930 2927 2893 2928 2957
8 2897 2859 2898 2932 2929 2895 2930 2959
8 2898 2860 2899 2933 2930 2896 2931 2960
8 2900 2862 2901 2934 2932 2898 2933 2961
8 2936 2903 2885 2921 2963 2935 2920 2951
8 2936 2903 2935 2963 2906 2868 2905 2939
8 2937 2904 2886 2922 2964 2936 2921 2952
8 2937 2904 2936 2964 2907 2869 2906 2940
8 2939 2905 2938 2966 2909 2870 2908 2942
8 2940 2906 2939 2967 2910 2871 2909 2943
8 2942 2908 2941 2969 2912 2873 2911 2945
8 2943 2909 2942 2970 2913 2874 2912 2946
8 2945 2911 2944 2971 2915 2876 2914 2947
8 2946 2912 2945 2972 2916 2877 2915 2948
8 2948 2915 2947 2973 2918 2880 2917 2949
8 2951 2920 2888 2924 2975 2950 2923 2954
8 2952 2921 2889 2925 2976 2951 2924 2955
8 2927 2893 2928 2957 2954 2923 2953 2978
8 2955 2924 2892 2926 2979 2954 2927 2956
8 2929 2895 2930 2959 2956 2927 2957 2980
8 2930 2896 2931 2960 2957 2928 2958 2981
8 2932 2898 2933 2961 2959 2930 2960 2982
8 2951 2920 2950 2975 2963 2935 2962 2984
8 2963 2935 2962 2984 2939 2905 2938 2966
8 2964 2936 2921 2952 2985 2963 2951 2976
8 2964 2936 2963 2985 2940 2906 2939 2967
8 2966 2938 2965 2987 2942 2908 2941 2969
8 2967 2939 2966 2988 2943 2909 2942 2970
8 2969 2941 2968 2989 2945 2911 2944 2971
8 2970 2942 2969 2990 2946 2912 2945 2972
8 2972 2945 2971 2991 2948 2915 2947 2973
8 2954 2923 2953 2978 2975 2950 2974 2993
8 2976 2951 2924 2955 2994 2975 2954 2979
8 2957 2928 2958 2981 2978 2953 2977 2995
8 2956 2927 2957 2980 2979 2954 2978 2996
8 2959 2930 2960 2982 2980 2957 2981 2997
8 2984 2962 2983 2999 2966 2938 2965 2987
8 2975 2950 2974 2993 2984 2962 2983 2999
8 2976 2951 2975 2994 2985 2963 2984 3000
8 2985 2963 2984 3000 2967 2939 2966 2988
8 2987 2965 2986 3001 2969 2941 2968 2989
8 2988 2966 2987 3002 2970 2942 2969 2990
8 2990 2969 2989 3003 2972 2945 2971 2991
8 2978 2953 2977 2995 2993 2974 2992 3004
8 2979 2954 2978 2996 2994 2975 2993 3005
8 2980 2957 2981 2997 2996 2978 2995 3006
8 2974 2993 2999 2983 2992 3004 3007 2998
8 2983 2999 2987 2965 2998 3007 3001 2986
8 3000 2984 2999 3008 2988 2966 2987 3002
8 2994 2975 2993 3005 3000 2984 2999 3008
8 3002 2987 3001 3009 2990 2969 2989 3003
8 2996 2978 2995 3006 3005 2993 3004 3010
8 3005 2993 3004 3010 3008 2999 3007 3011
8 3008 2999 3007 3011 3002 2987 3001 3009

CELL_TYPES 1910
12
12
12
12
12
12
12
12
12
12
12
12
12
12
12
12
12
12
12
12
12
12
12
12
12
12
12
12
12
12
12
12
12
12
12
12
12
12
12
12
12
12
12
12
12
12
12
12
12
12
12
12
12
12
12
12
12
12
12
12
12
12
12
12
12
12
12
12
12
12
12
12
12
12
12
12
12
12
12
12
12
12
12
12
12
12
12
12
12
12
12
12
12
12
12
12
12
12
12
12
12
12
12
12
12
12
12
12
12
12
12
12
12
12
12
12
12
12
12
12
12
12
12
12
12
12
12
12
12
12
12
12
12
12
12
12
12
12
12
12
12
12
12
12
12
12
12
12
12
12
12
12
12
12
12
12
12
12
12
12
12
12
12
12
12
12
12
12
12
12
12
12
12
12
12
12
12
12
12
12
12
12
12
12
12
12
12
12
12
12
12
12
12
12
12
12
12
12
12
12
12
12
12
12
12
12
12
12
12
12
12
12
12
12
12
12
12
12
12
12
12
12
12
12
12
12
12
12
12
12
12
12
12
12
12
12
12
12
12
12
12
12
12
12
12
12
12
12
12
12
12
12
12
12
12
12
12
12
12
12
12
12
12
12
12
12
12
12
12
12
12
12
12
12
12
12
12
12
12
12
12
12
12
12
12
12
12
12
12
12
12
12
12
12
12
12
12
12
12
12
12
12
12
12
12
12
12
12
12
12
12
12
12
12
12
12
12
12
12
12
12
12
12
12
12
12
12
12
12
12
12
12
12
12
12
12
12
12
12
12
12
12
12
12
12
12
12
12
12
12
12
12
12
12
12
12
12
12
12
12
12
12
12
12
12
12
12
12
12
12
12
12
12
12
12
12
12
12
12
12
12
12
12
12
12
12
12
12
12
12
12
12
12
12
12
12
12
12
12
12
12
12
12
12
12
12
12
12
12
12
12
12
12
12
12
12
12
12
12
12
12
12
12
12
12
12
12
12
12
12
12
12
12
12
12
12
12
12
12
12
12
12
12
12
12
12
12
12
12
12
12
12
12
12
12
12
12
12
12
12
12
12
12
12
12
12
12
12
12
12
12
12
12
12
12
12
12
12
12
12
12
12
12
12
12
12
12
12
12
12
12
12
12
12
12
12
12
12
12
12
12
12
12
12
12
12
12
12
12
12
12
12
12
12
12
12
12
12
12
12
12
12
12
12
12
12
12
12
12
12
12
12
12
12
12
12
12
12
12
12
12
12
12
12
12
12
12
12
12
12
12
12
12
12
12
12
12
12
12
12
12
12
12
12
12
12
12
12
12
12
12
12
12
12
12
12
12
12
12
12
12
12
12
12
12
12
12
12
12
12
12
12
12
12
12
12
12
12
12
12
12
12
12
12
12
12
12
12
12
12
12
12
12
12
12
12
12
12
12
12
12
12
12
12
12
12
12
12
12
12
12
12
12
12
12
12
12
12
12
12
12
12
12
12
12
12
12
12
12
12
12
12
12
12
12
12
12
12
12
12
12
12
12
12
12
12
12
12
12
12
12
12
12
12
12
12
12
12
12
12
12
12
12
12
12
12
12
12
12
12
12
12
12
12
12
12
12
12
12
12
12
12
12
12
12
12
12
12
12
12
12
12
12
12
12
12
12
12
12
12
12
12
12
12
12
12
12
12
12
12
12
12
12
12
12
12
12
12
12
12
12
12
12
12
12
12
12
12
12
12
12
12
12
12
12
12
12
12
12
12
12
12
12
12
12
12
12
12
12
12
12
12
12
12
12
12
12
12
12
12
12
12
12
12
12
12
12
12
12
12
12
12
12
12
12
12
12
12
12
12
12
12
12
12
12
12
12
12
12
12
12
12
12
12
12
12
12
12
12
12
12
12
12
12
12
12
12
12
12
12
12
12
12
12
12
12
12
12
12
12
12
12
12
12
12
12
12
12
12
12
12
12
12
12
12
12
12
12
12
12
12
12
12
12
12
12
12
12
12
12
12
12
12
12
12
12
12
12
12
12
12
12
12
12
12
12
12
12
12
12
12
12
12
12
12
12
12
12
12
12
12
12
12
12
12
12
12
12
12
12
12
12
12
12
12
12
12
12
12
12
12
12
12
12
12
12
12
12
12
12
12
12
12
12
12
12
12
12
12
12
12
12
12
12
12
12
12
12
12
12
12
12
12
12
12
12
12
12
12
12
12
12
12
12
12
12
12
12
12
12
12
12
12
12
12
12
12
12
12
12
12
12
12
12
12
12
12
12
12
12
12
12
12
12
12
12
12
12
12
12
12
12
12
12
12
12
12
12
12
12
12
12
12
12
12
12
12
12
12
12
12
12
12
12
12
12
12
12
12
12
12
12
12
12
12
12
12
12
12
12
12
12
12
12
12
12
12
12
12
12
12
12
12
12
12
12
12
12
12
12
12
12
12
12
12
12
12
12
12
12
12
12
12
12
12
12
12
12
12
12
12
12
12
12
12
12
12
12
12
12
12
12
12
12
12
12
12
12
12
12
12
12
12
12
12
12
12
12
12
12
12
12
12
12
12
12
12
12
12
12
12
12
12
12
12
12
12
12
12
12
12
12
12
12
12
12
12
12
12
12
12
12
12
12
12
12
12
12
12
12
12
12
12
12
12
12
12
12
12
12
12
12
12
12
12
12
12
12
12
12
12
12
12
12
12
12
12
12
12
12
12
12
12
12
12
12
12
12
12
12
12
12
12
12
12
12
12
12
12
12
12
12
12
12
12
12
12
12
12
12
12
12
12
12
12
12
12
12
12
12
12
12
12
12
12
12
12
12
12
12
12
12
12
12
12
12
12
12
12
12
12
12
12
12
12
12
12
12
12
12
12
12
12
12
12
12
12
12
12
12
12
12
12
12
12
12
12
12
12
12
12
12
12
12
12
12
12
12
12
12
12
12
12
12
12
12
12
12
12
12
12
12
12
12
12
12
12
12
12
12
12
12
12
12
12
12
12
12
12
12
12
12
12
12
12
12
12
12
12
12
12
12
12
12
12
12
12
12
12
12
12
12
12
12
12
12
12
12
12
12
12
12
12
12
12
12
12
12
12
12
12
12
12
12
12
12
12
12
12
12
12
12
12
12
12
12
12
12
12
12
12
12
12
12
12
12
12
12
12
12
12
12
12
12
12
12
12
12
12
12
12
12
12
12
12
12
12
12
12
12
12
12
12
12
12
12
12
12
12
12
12
12
12
12
12
12
12
12
12
12
12
12
12
12
12
12
12
12
12
12
12
12
12
12
12
12
12
12
12
12
12
12
12
12
12
12
12
12
12
12
12
12
12
12
12
12
12
12
12
12
12
12
12
12
12
12
12
12
12
12
12
12
12
12
12
12
12
12
12
12
12
12
12
12
12
12
12
12
12
12
12
12
12
12
12
12
12
12
12
12
12
12
12
12
12
12
12
12
12
12
12
12
12
12
12
12
12
12
12
12
12
12
12
12
12
12
12
12
12
12
12
12
12
12
12
12
12
12
12
12
12
12
12
12
12
12
12
12
12
12
12
12
12
12
12
12
12
12
12
12
12
12
12
12
12
12
12
12
12
12
12
12
12
12
12
12
12
12
12
12
12
12
12
12
12
12
12
12
12
12
12
12
12
12
12
12
12
12
12
12
12
12
12
12
12
12
12
12
12
12
12
12
12
12
12
12
12
12
12
12
12
12
12
12
12
12
12
12
12
12
12
12
12
12
12
12
12
12
12
12
12
12
12
12
12
12
12
12
12
12
12
12
12
12
12
12
12
12
12
12
12
12
12
12
12
12
12
12
12
12
12
12
12
12
12
12
12
12
12
12
12
12
12
12
12
12
12
12
12
12
12
12
12
12
12
12
12
12
12
12
12
12
12
12
12
12
12
12
12
12
12
12
12
12
12
12
12
12
12
12
12
12
12
12
12
12
12
12
12
12
12
12
12
12
12
12
12
12
12
12
12
12
12
12
12
12
12
12
12
12
12
12
12
12
12
12
12
12
12
12
12
12
12
12
12
12
12
12
12
12
12
12
12
12
12
12
12
12
12
12
12
12
12
12
12
12
12
12
12
12
12
12
12
12
12
12
12
12
12
12
12
12
12
12
12
12
12
12
12
12
12
12
12
12
12
12
12
12
12
12
12
12
12
12
12
12
12
12
12
12
12
12
12
12
12
12
12
12
12
12
12
12
12
12
12
12
12
12
12
12
12
12
12
12
12
12
12
12
12
12
12
12
12
12
12
12
12
12
12
12
12
12
12
12
12
12
12
12
12
12
12
12
12
12
12
12
12
12
12
12
12
12
12
12
12
12
12
12
12
12
12
12
12
12
12
12
12
12
12
12

POINT_DATA 3012
SCALARS Jp_lamdaP float 4
LOOKUP_TABLE default
0.999875 1 1 0.999875
1 1 1 1
0.999879 1 1 0.999879
0.999834 1 1 0.999834
0.999873 1 1 0.999873
0.999871 1 1 0.999871
0.999382 1 1 0.999382
1 1 1 1
1 1 1 1
1 1 1 1
0.999946 1 1 0.999946
0.999546 1 1 0.999546
0.999795 1 1 0.999795
0.999825 1 1 0.999825
0.999878 1 1 0.999878
0.999848 1 1 0.999848
0.999875 1 1 0.999875
0.999881 1 1 0.999881
0.999385 1 1 0.999385
1 1 1 1
0.999815 1 1 0.999815
0.999857 1 1 0.999857
0.999254 1 1 0.999254
0.99935 1 1 0.99935
0.999892 1 1 0.999892
0.999417 1 1 0.999417
0.998609 1.00001 1 0.9986
1 1 1 1
0.999926 1 1 0.999926
0.99994 1 1 0.99994
1 1 1 1
0.999554 1 1 0.999554
0.999847 1 1 0.999847
0.99987 1 1 0.99987
0.999459 1 1 0.999459
1 1 1 1
0.999549 1 1 0.999549
0.999641 1 1 0.999641
0.998654 1 1 0.998654
1 1 1 1
1 1 1 1
0.999911 1 1 0.999911
1 1 1 1
0.999816 1 1 0.999816
0.999184 1 1 0.999184
1 1 1 1
0.999368 1 1 0.999368
0.99986 1 1 0.99986
0.999886 1 1 0.999886
0.999877 1 1 0.999877
0.99939 1 1 0.99939
0.999895 1 1 0.999895
0.999829 1 1 0.999829
0.999902 1 1 0.999902
0.999869 1 1 0.999869
0.999254 1 1 0.999254
0.999422 1 1 0.999422
0.999353 1 1 0.999353
0.998617 1.00003 1 0.998585
1 1 1 1
0.999802 1 1 0.999802
0.999338 1 1 0.999338
0.999219 1 1 0.999219
0.999303 1 1 0.999303
0.999238 1.00094 1 0.998303
0.998538 1.0001 1 0.998438
0.999944 1 1 0.999944
0.999532 1 1 0.999532
0.998706 1 1 0.998706
1.00238 1.0045 1 0.997893
1 1 1 1
1 1 1 1
1 1 1 1
0.999562 1 1 0.999562
1 1 1 1
1 1 1 1
0.999389 1 1 0.999389
0.999989 1 1 0.999989
0.999497 1 1 0.999497
0.999687 1 1 0.999687
0.998651 1 1 0.998651
1 1 1 1
0.999963 1 1 0.999963
0.999332 1 1 0.999332
0.999426 1 1 0.999426
0.999104 1.00087 1 0.998238
0.999812 1 1 0.999812
0.998552 1 1 0.998552
0.998788 1 1 0.998788
0.998234 1.0001 1 0.998133
1 1 1 1
1 1 1 1
1 1 1 1
1 1 1 1
1 1 1 1
0.999904 1 1 0.999904
0.999257 1 1 0.999257
0.999916 1 1 0.999916
0.999328 1 1 0.999328
1 1 1 1
0.999168 1 1 0.999168
0.999339 1 1 0.999339
0.99916 1.00123 1 0.997936
0.999402 1 1 0.999402
1.00015 1.00213 1 0.998027
0.999813 1 1 0.999813
0.999842 1 1 0.999842
0.99991 1 1 0.99991
0.999878 1 1 0.999878
0.999256 1 1 0.999256
0.999357 1 1 0.999357
0.999427 1 1 0.999427
0.998626 1.00006 1 0.99857
1 1 1 1
0.999816 1 1 0.999816
0.999193 1 1 0.999193
0.999218 1 1 0.999218
0.999972 1 1 0.999972
0.999582 1 1 0.999582
0.999305 1 1 0.999305
0.999217 1.00096 1 0.998264
0.998687 1 1 0.998687
0.998612 1.00015 1 0.998466
1.0028 1.00492 1 0.997897
0.99919 1 1 0.99919
0.999195 1 1 0.999195
0.998886 1.0008 1 0.998092
0.999286 1.0011 1 0.998188
0.998949 1.00063 1 0.998321
1.00824 1.01059 1 0.997678
1 1 1 1
1.00394 1.00614 1 0.99782
0.999748 1 1 0.999748
0.998751 1 1 0.998751
1.00137 1.00341 1 0.997964
1.01153 1.01391 1 0.997649
0.999895 1 1 0.999895
0.999355 1 1.0001 0.999253
1 1 1 1
1 1 1 1
0.999396 1 1 0.999396
1 1 1 1
0.99969 1 1 0.99969
0.999501 1 1 0.999501
0.998648 1 1 0.998648
1 1 1 1
0.999974 1 1 0.999974
0.999383 1 1 0.999383
0.999475 1 1 0.999475
0.998898 1.00066 1 0.99824
0.999828 1 1 0.999828
0.998555 1 1 0.998555
0.998787 1 1 0.998787
0.998396 1.00028 1 0.998117
0.999904 1 1 0.999904
0.999994 1 1 0.999994
0.999427 1 1 0.999427
0.99972 1.0016 1 0.998126
0.998627 1.00023 1 0.998399
1.00588 1.00821 1 0.997688
0.998992 1 1 0.998992
1.00012 1.00211 1 0.99802
0.998914 1.00012 1.00057 0.998227
0.999862 1.00191 1 0.997958
1 1 1 1
1 1 1 1
1 1 1 1
0.999938 1 1 0.999938
1 1 1 1
1 1 1 1
1 1 1 1
0.999285 1 1 0.999285
0.999209 1 1 0.999209
1 1 1 1
1 1 1 1
0.99917 1 1 0.99917
0.999298 1 1 0.999298
0.999347 1.00141 1 0.997936
0.999313 1 1 0.999313
1.00014 1.00211 1 0.998026
0.99916 1 1 0.99916
0.998628 1.00074 1 0.997885
0.999757 1.00177 1 0.997991
1.01146 1.01403 1 0.997469
1.00008 1.00202 1 0.998063
1.01156 1.01405 1 0.997547
1 1 1 1
0.99983 1 1 0.99983
0.999037 1 1 0.999037
0.999218 1 1 0.999218
1 1 1 1
0.999633 1 1 0.999633
0.999308 1 1 0.999308
0.999196 1.00097 1 0.998225
0.998683 1.00019 1 0.998493
0.998669 1 1 0.998669
1.00322 1.00533 1 0.9979
0.999187 1 1 0.999187
0.999194 1 1 0.999194
0.998759 1.00076 1 0.998004
0.999323 1.00111 1 0.998216
1 1 1 1
0.999741 1 1 0.999741
0.998798 1 1 0.998798
0.998932 1.00061 1 0.99832
1.00818 1.01056 1 0.997639
1.00143 1.00348 1 0.997953
1.00439 1.00656 1 0.997849
1.01106 1.01344 1 0.997655
0.999885 1 1 0.999885
0.999369 1 1.00012 0.999254
0.998466 1.00056 1 0.997906
0.999201 1.00106 1 0.998145
1.00943 1.01189 1 0.997567
1.00878 1.01125 1 0.997559
1.00576 1.00801 1 0.997772
1.01928 1.02179 1 0.997544
0.999833 1 1 0.999833
1.01347 1.01588 1 0.997628
0.998908 1 1 0.998908
0.999122 1.00103 1 0.998099
1.00935 1.01167 1 0.997699
1.01556 1.01795 1 0.997645
0.999151 1 1.00003 0.999119
0.999427 1 1 0.999427
0.999601 1 1.00087 0.998729
0.99935 1 1 0.99935
1 1 1 1
0.999985 1 1 0.999985
0.999453 1 1 0.999453
0.998672 1.00043 1 0.998243
0.999839 1 1 0.999839
0.998795 1 1.00001 0.998787
0.998558 1 1 0.998558
0.998567 1.00047 1 0.998101
0.999921 1 1 0.999921
0.999996 1 1 0.999996
0.99943 1 1 0.99943
0.999522 1.0014 1 0.998126
0.998536 1.00013 1 0.998404
1.00542 1.00776 1 0.997686
0.998999 1 1 0.998995
0.999668 1.00164 1 0.99803
0.998977 1.00028 1.00047 0.998223
0.999926 1.00199 1 0.997944
1 1 1 1
0.999202 1 1 0.999202
0.999644 1 1 0.999644
0.999413 1 1.00051 0.998902
1.00834 1.01076 1 0.997599
1.00328 1.00543 1 0.99786
1.01456 1.01711 1 0.997488
0.998896 1 1.00044 0.99846
1.00371 1.00588 1 0.997841
1.00134 1.00185 1.00158 0.997918
1.00523 1.00743 1 0.997815
0.999878 1 1 0.999878
1 1 1 1
1 1 1 1
1 1 1 1
1 1 1 1
0.999969 1 1 0.999969
1 1 1 1
0.999928 1 1 0.999928
1 1 1 1
0.999314 1 1 0.999314
0.999251 1 1 0.999251
1.00018 1.00215 1 0.998026
0.999527 1.00159 1 0.997936
0.999172 1 1 0.999172
1 1 1 1
0.999159 1 1 0.999159
0.998762 1.00088 1 0.997885
0.999905 1.00192 1 0.99799
1.01133 1.0139 1 0.997468
1.00001 1.00195 1 0.998062
1.01157 1.01405 1 0.997546
0.998368 1.00049 1 0.997877
1.01059 1.0132 1 0.997422
1.01195 1.01447 1 0.997515
1.02517 1.02777 1 0.997471
1.01061 1.01308 1 0.997566
1.02372 1.02628 1 0.9975
0.999184 1 1 0.999184
0.999192 1 1 0.999192
0.99864 1.00072 1 0.997918
0.99936 1.00112 1 0.998244
1 1 1 1
0.999734 1 1 0.999734
0.998844 1 1 0.998844
0.998914 1.0006 1 0.998319
1.00811 1.01053 1 0.997601
1.00483 1.00697 1 0.997878
1.00147 1.00353 1 0.997942
1.01068 1.01305 1 0.997661
0.999875 1 1 0.999875
0.999459 1 1.0002 0.999255
0.99841 1.00053 1 0.997881
0.999166 1.00103 1 0.998142
1.00965 1.01212 1 0.997562
1.00895 1.01138 1 0.997597
0.999823 1 1 0.999823
0.998905 1 1 0.998905
0.999378 1.00125 1 0.998132
1.00601 1.00826 1 0.997771
1.01962 1.02212 1 0.997551
1.00868 1.01104 1 0.997665
1.01334 1.01574 1 0.997631
1.01586 1.01826 1 0.997645
0.999173 1 1.00005 0.999122
0.999677 1 1.00095 0.998731
0.999527 1 1.0001 0.999424
1.00973 1.01225 1 0.99751
1.00984 1.01228 1 0.997591
1.0232 1.0258 1 0.997464
1.02161 1.02418 1 0.997492
1.01562 1.01806 1 0.997601
1.02223 1.02461 1 0.997675
0.999033 1 1 0.999033
1.01758 1.01996 1 0.99767
0.998513 1.00011 1 0.998405
1.00201 1.0043 1 0.997714
1.01282 1.01532 1 0.997532
1.01578 1.01804 1 0.997781
0.999575 1 1 0.999575
0.998707 1 1 0.998707
1.00004 1 1.00123 0.998814
0.999314 1 1.00075 0.998563
0.999333 1.00121 1 0.998126
0.999999 1 1 0.999999
0.999938 1 1 0.999938
0.999433 1 1 0.999432
0.998457 1.00005 1 0.998408
1.00496 1.0073 1 0.997684
0.998998 1 1 0.998998
0.998987 1.00044 1.00033 0.998218
0.99918 1.00114 1 0.998041
0.999939 1.00201 1 0.99793
1 1 1 1
0.999203 1 1 0.999202
0.999651 1 1 0.999651
0.999423 1 1.00053 0.998898
1.00811 1.01054 1 0.997595
1.00234 1.00448 1 0.997861
1.01465 1.0172 1 0.997487
0.998914 1 1.00045 0.998464
1.00346 1.00561 1 0.997856
1.00151 1.00188 1.00173 0.997907
1.00516 1.0073 1 0.997882
1 1 1 1
0.999777 1 1 0.999777
0.998796 1 1.00009 0.998703
0.999579 1 1.00046 0.999119
0.999639 1 1.00101 0.99863
1.01788 1.02047 1 0.997456
1.00925 1.01163 1 0.997647
1.01527 1.01782 1 0.997493
1.00028 1.00018 1.00199 0.998105
1.0064 1.00866 1 0.997768
1.00414 1.00565 1.00086 0.99764
0.999862 1 1 0.999862
0.999509 1 1 0.999509
0.999889 1 1 0.999889
0.999881 1 1 0.999881
1 1 1 1
1 1 1 1
1 1 1 1
1 1 1 1
1 1 1 1
0.999991 1 1 0.999991
1 1 1 1
0.999961 1 1 0.999961
1 1 1 1
0.999918 1 1 0.999918
1 1 1 1
0.999917 1.00186 1 0.998061
1 1.00202 1 0.99799
1.01145 1.01394 1 0.997545
1.01118 1.01375 1 0.997467
0.998926 1.00104 1 0.997885
0.999158 1 1 0.999158
0.998432 1.00056 1 0.997877
1.01057 1.01318 1 0.997423
1.01167 1.0142 1 0.997514
1.02541 1.028 1 0.997481
1.0103 1.01277 1 0.997564
1.02321 1.02577 1 0.997499
1.01013 1.01275 1 0.997412
1.02456 1.02717 1 0.997456
1.02536 1.02794 1 0.997489
1.03015 1.03262 0.999997 0.99761
1.02018 1.02275 1 0.997484
1.02462 1.02698 1 0.997703
0.998369 1.00051 1 0.997856
0.999135 1.001 1 0.99814
1.00985 1.01233 1 0.997557
1.00912 1.01151 1 0.997635
0.999813 1 1 0.999813
0.998902 1 1 0.998902
0.999647 1.00148 1 0.998166
1.00628 1.00853 1 0.997769
1.01996 1.02246 1 0.997558
1.01322 1.01562 1 0.997634
1.00792 1.01031 1 0.997632
1.01614 1.01854 1 0.997645
0.999124 1 1 0.999124
0.999687 1 1.00096 0.998732
0.999621 1 1.0002 0.999422
1.00986 1.01242 1 0.997475
1.0099 1.01234 1 0.99759
1.02288 1.02547 1 0.997473
1.02189 1.02446 1 0.997496
0.999032 1 1 0.999032
0.998742 1.00034 1 0.998399
1.00184 1.00406 1.00003 0.997764
1.01577 1.01821 1 0.997602
1.02159 1.02394 1 0.997707
1.01289 1.01543 1 0.997501
1.01761 1.01999 1 0.997673
1.01523 1.01747 1 0.997804
0.998734 1 1.00002 0.998709
0.999314 1 1.00077 0.998545
0.99957 1 1 0.99957
1.00005 1 1.00121 0.998838
1.02333 1.02597 1 0.997426
1.02372 1.02629 1 0.997497
1.02672 1.02925 1 0.997537
1.0241 1.02653 0.999952 0.997684
1.01961 1.02196 1 0.997708
1.02112 1.02333 1 0.997845
0.998621 1 1 0.998621
1.01583 1.01796 1 0.997901
0.998439 1.00039 1 0.998054
1.00638 1.00875 1.00018 0.997478
1.01485 1.01744 1 0.997462
1.01429 1.01649 1 0.997837
0.99967 1 1 0.99967
0.999233 1 1.00025 0.998986
0.998537 1 1 0.998537
1.00031 1 1.00172 0.998598
0.998913 1 1.0004 0.998513
1 1 1 1
1.00781 1.01025 1 0.997592
0.999658 1 1 0.999658
0.999203 1 1 0.999203
0.999544 1 1.00065 0.998894
1.00145 1.0036 1 0.997862
1.01479 1.01734 1 0.997485
0.998974 1 1.00051 0.998469
1.00187 1.00204 1.00193 0.997896
1.00334 1.00548 1 0.99787
1.00525 1.00732 1 0.997948
1 1 1 1
0.999783 1 1 0.999783
0.998851 1 1.00015 0.998704
0.999554 1 1.00043 0.99912
0.999982 1 1.00138 0.998608
1.01811 1.02071 1 0.997451
1.00938 1.01176 1 0.997647
1.01526 1.01782 1 0.997484
1.00036 1.00012 1.00213 0.998109
1.00842 1.01066 1 0.99778
1.00345 1.00484 1.00096 0.99766
0.999835 1 1 0.999835
0.99931 1 1 0.99931
0.998873 1 1.00048 0.998397
1.00033 1 1.00154 0.998799
0.999672 1 1.00119 0.998486
1.01861 1.02114 1 0.997522
1.01087 1.0133 1 0.997606
1.01379 1.01618 1 0.997654
1.00165 1 1.00379 0.997866
1.00487 1.00737 1 0.997517
0.999865 1 1 0.999865
0.999443 1 1 0.999443
0.999488 1 1 0.999488
0.999286 1 1 0.999286
0.999517 1 1 0.999517
0.999892 1 1 0.999892
0.99989 1 1 0.99989
1 1 1 1
0.999883 1 1 0.999883
1 1 1 1
1 1 1 1
1 1 1 1
1 1 1 1
1 1 1 1
0.999999 1 1 0.999999
0.999985 1 1 0.999985
1 1 1 1
1 1 1 1
0.999953 1 1 0.999953
1 1 1 1
1.01006 1.01253 1 0.997562
1.01153 1.01405 1 0.997513
1.02276 1.02533 1 0.997498
1.02569 1.02827 1 0.99749
1.01053 1.01314 1 0.997423
0.998467 1.00059 1 0.997876
1.01005 1.01267 1 0.997413
1.02446 1.02708 1 0.99745
1.02528 1.02786 1 0.997489
1.02921 1.03189 0.999761 0.997635
1.02062 1.0232 1 0.997479
1.02493 1.02727 1 0.997719
1.02376 1.0264 1 0.997424
1.02822 1.03113 0.999608 0.99757
1.02776 1.03013 1 0.9977
1.02827 1.03146 0.999157 0.997748
1.02225 1.02467 1 0.997633
1.02542 1.02772 0.999879 0.997884
1.00999 1.01258 1 0.99744
1.00995 1.01239 1 0.997588
1.02258 1.02516 1 0.997483
1.02219 1.02475 1 0.997499
0.999032 1 1 0.999032
0.998984 1.00059 1 0.998392
1.00191 1.00393 1.00018 0.997814
1.01592 1.01836 1 0.997603
1.02091 1.02323 1 0.997739
1.01763 1.02 1 0.997676
1.01301 1.01558 1 0.99747
1.01464 1.01685 1 0.997826
0.998795 1 1.00008 0.998712
0.999282 1 1.00076 0.998527
0.999565 1 1 0.999565
0.99994 1 1.00108 0.998862
1.02328 1.02592 1 0.997426
1.02333 1.02591 1 0.997484
1.02663 1.02915 1 0.997555
1.02369 1.0261 0.999983 0.997669
0.998616 1 1 0.998616
0.998605 1.00048 1.00003 0.998098
1.00657 1.00874 1.00039 0.997471
1.01934 1.02171 1 0.997681
1.02115 1.02331 1 0.997893
1.01433 1.01692 1 0.99745
1.0159 1.01803 1 0.997904
1.0156 1.01776 1 0.997877
0.998535 1 1 0.998535
0.998698 1 1.00018 0.998516
1.00076 1 1.00217 0.998592
0.999638 1 1 0.999638
0.999118 1 1.00011 0.999008
1.0274 1.03034 0.999598 0.997549
1.02736 1.02991 0.999919 0.997606
1.02219 1.02497 0.99942 0.997869
1.01849 1.02062 1 0.997922
0.998408 1 1 0.998408
1.01831 1.0203 1 0.998048
0.998177 1.00005 1.00029 0.997836
1.00855 1.01082 1.00051 0.997244
1.01404 1.01665 1 0.99743
0.999695 1 1 0.999695
0.999201 1 1 0.999201
0.999547 1 1.00078 0.998771
0.998495 1 1 0.998495
1.00125 1 1.00283 0.998425
0.998453 1 1 0.998453
1 1 1 1
0.999789 1 1 0.999789
1.01839 1.02099 1 0.997446
0.999486 1 1.00037 0.99912
0.998838 1 1.00013 0.998706
1.00044 1 1.00185 0.998586
1.0093 1.01168 1 0.997646
1.01509 1.01766 1 0.997475
1.0004 1 1.00229 0.998114
1.00236 1.00391 1.00077 0.99768
1.01017 1.01241 1 0.997794
0.999839 1 1 0.999839
0.999313 1 1 0.999313
0.998816 1 1.00041 0.998403
1.00065 1 1.00186 0.998796
0.999828 1 1.00135 0.998478
1.01861 1.02115 1 0.997516
1.0114 1.01383 1 0.997597
1.01365 1.01601 1 0.997678
1.00108 1 1.00324 0.997839
1.00401 1.00648 1.00006 0.997486
0.999423 1 1 0.999423
0.999605 1 1.00066 0.998947
1.00022 1 1.002 0.99823
1.00108 1 1.00255 0.998532
0.999364 1 1.001 0.99837
1.01994 1.02208 1 0.9979
1.00991 1.01242 1 0.99752
1.01124 1.01356 1 0.997703
1.0034 1.0014 1.00433 0.997676
1.00063 1.00336 1 0.997285
0.999868 1 1 0.999868
0.99946 1 1 0.99946
0.999197 1 1 0.999197
0.999468 1 1 0.999468
0.999517 1 1 0.999517
0.999256 1 1 0.999256
0.999113 1 1 0.999113
0.999233 1 1 0.999233
0.999521 1 1 0.999521
0.999889 1 1 0.999889
0.999892 1 1 0.999892
1 1 1 1
0.999892 1 1 0.999892
1 1 1 1
1 1 1 1
1 1 1 1
1 1 1 1
1 1 1 1
1 1 1 1
0.999997 1 1 0.999997
1 1 1 1
0.99998 1 1 0.99998
1 1 1 1
1 1 1 1
1.021 1.02359 1 0.997474
1.02514 1.02772 1 0.997489
1.02524 1.02757 1 0.997735
1.02826 1.03119 0.999499 0.99766
1.02436 1.02699 1 0.997443
1.00999 1.01261 1 0.997413
1.024 1.02666 1 0.99741
1.02858 1.03132 0.999781 0.997561
1.02747 1.02986 1 0.997679
1.02781 1.03123 0.998925 0.997762
1.02163 1.02406 1 0.997633
1.02482 1.02707 0.999891 0.997921
1.02786 1.0304 1 0.997531
1.02851 1.03325 0.99767 0.997737
1.02695 1.03018 0.998996 0.997868
1.02296 1.02504 0.999989 0.997981
1.02321 1.02585 1 0.997427
1.02293 1.02552 1 0.997471
1.02652 1.02902 1 0.997574
1.02331 1.02572 1 0.997654
0.998611 1 1 0.998611
0.998527 1.00038 1 0.998143
1.00669 1.00866 1.00058 0.997463
1.01903 1.02142 1 0.997654
1.02121 1.02331 1 0.997941
1.01602 1.01815 1 0.997906
1.01387 1.01648 1 0.997438
1.01679 1.01891 1 0.997918
0.998533 1 1 0.998533
0.998518 1 1 0.998518
1.00155 1 1.00297 0.998586
0.999605 1 1 0.999605
0.999043 1 1.00001 0.999031
1.02756 1.03028 0.999803 0.997552
1.02759 1.0301 0.999956 0.997609
1.02207 1.02475 0.999518 0.997859
0.998401 1 1 0.998401
0.999108 1.00098 1.00026 0.997877
1.0081 1.01013 1.00076 0.997234
1.01906 1.02119 1 0.997912
1.0137 1.01624 1 0.997498
1.0171 1.01912 0.999986 0.998029
0.999706 1 1 0.999706
0.998488 1 1 0.998488
0.998514 1 1 0.998514
1.0011 1 1.00269 0.998412
0.999448 1 1.00067 0.998781
0.999175 1 1 0.999175
1.02808 1.03169 0.998865 0.997629
1.02623 1.03131 0.997286 0.997779
1.01974 1.0236 0.998268 0.997956
1.02346 1.02594 0.999477 0.998102
0.998305 1.00004 1 0.998267
1.01503 1.01732 1 0.99775
1.0009 1.00183 1.00165 0.997428
1.0057 1.00758 1.00104 0.997101
0.999793 1 1 0.999793
0.999331 1 1 0.999331
0.998928 1 1 0.998928
1.00139 1 1.00289 0.998499
0.998404 1 1 0.998404
0.999815 1 1.0015 0.998316
0.999843 1 1 0.999843
0.999316 1 1 0.999316
1.01875 1.02129 1 0.997511
1.0007 1 1.00191 0.998793
0.998679 1 1.00027 0.99841
0.999894 1 1.00143 0.998469
1.01216 1.01461 1 0.997588
1.01374 1.01607 1 0.997702
1.00054 1 1.00273 0.997812
1.0033 1.00559 1.00027 0.997456
0.999425 1 1 0.999425
0.999329 1 1.00037 0.998956
1.00023 1 1.00198 0.998247
1.00134 1 1.00281 0.998536
0.998904 1 1.00048 0.998429
1.02011 1.02223 1 0.99793
1.00942 1.01192 1 0.997523
1.01248 1.01474 1 0.997778
1.00305 1.00083 1.00458 0.997645
1.00141 1.00415 1.00003 0.99724
0.99913 1 1 0.99913
1.00006 1 1.00143 0.998639
1.00192 1.00006 1.00378 0.998083
0.99981 1 1.00155 0.998259
1.02283 1.02936 0.995526 0.998125
1.0162 1.01836 0.999872 0.99801
1.00597 1.00866 1 0.99733
1.00312 1.00157 1.00426 0.997295
0.999476 1 1 0.999476
0.999209 1 1 0.999209
0.999064 1 1 0.999064
0.999517 1 1 0.999517
0.999227 1 1 0.999227
0.999521 1 1 0.999521
0.999095 1 1 0.999095
0.999245 1 1 0.999245
0.998993 1 1 0.998993
0.999069 1 1 0.999069
0.999221 1 1 0.999221
0.99951 1 1 0.99951
0.999883 1 1 0.999883
0.999888 1 1 0.999888
1 1 1 1
0.999892 1 1 0.999892
1 1 1 1
1 1 1 1
1 1 1 1
1 1 1 1
1 1 1 1
1 1 1 1
1 1 1 1
1 1 1 1
0.999995 1 1 0.999995
1 1 1 1
1 1 1 1
1.02098 1.0234 1 0.997633
1.02717 1.02958 1 0.997659
1.02424 1.02643 0.999905 0.997958
1.02735 1.03095 0.998727 0.997776
1.02894 1.03149 0.999977 0.997553
1.02426 1.02693 1 0.997396
1.02767 1.0304 0.999816 0.997538
1.0277 1.03222 0.997893 0.997728
1.02675 1.03014 0.998843 0.997868
1.02439 1.02647 0.99999 0.997983
1.02807 1.03248 0.998052 0.997678
1.02817 1.03494 0.995533 0.997908
1.02798 1.03206 0.998035 0.998008
1.02772 1.03024 0.999999 0.997555
1.02779 1.03025 1 0.997612
1.02189 1.02448 0.999622 0.997849
0.998411 1.00002 1 0.998395
1.00011 1.00201 1.00018 0.997918
1.00746 1.00941 1.00085 0.997223
1.0196 1.02174 1 0.997901
1.01607 1.0181 0.999993 0.998011
1.01366 1.01614 1 0.997566
0.998482 1 1 0.998482
0.998575 1 1 0.998575
1.00081 1 1.00242 0.998398
0.999717 1 1 0.999717
0.999217 1 1.00043 0.998791
0.99915 1 1 0.99915
1.02876 1.0321 0.999127 0.997636
1.02685 1.03152 0.997683 0.997786
1.01991 1.02346 0.998585 0.997948
0.998555 1.0003 1 0.998256
1.00087 1.00197 1.0014 0.997512
1.00498 1.00696 1.0009 0.997136
1.02331 1.02568 0.999579 0.998112
1.01571 1.01802 0.999996 0.997738
0.999829 1 1 0.999829
0.99933 1 1 0.99933
0.998425 1 1 0.998425
1.0005 1 1.00212 0.998384
1.00133 1 1.00282 0.998516
0.998906 1 1 0.998906
1.02832 1.03425 0.996438 0.997825
1.01962 1.02842 0.993507 0.997919
1.02079 1.02543 0.997325 0.998144
1.01926 1.02185 0.999324 0.99814
0.999258 1.00033 1.00088 0.998047
1.00496 1.00635 1.0014 0.997219
1.00296 1.00309 1.00264 0.997233
0.999913 1 1 0.999913
0.999571 1 1 0.999571
0.99939 1 1 0.99939
0.999007 1 1 0.999007
0.999423 1 1.00075 0.998669
1.00091 1 1.00253 0.998388
0.998451 1 1 0.998451
1.01102 1 1.01252 0.998519
0.999427 1 1 0.999427
0.999185 1 1.00022 0.998965
1.02017 1.02226 1 0.99796
1.00187 1 1.00334 0.99854
1.00042 1 1.00215 0.998265
0.998523 1 1.00004 0.998488
1.00869 1.01119 1 0.997527
1.01361 1.01579 1 0.997852
1.00284 1.00042 1.00482 0.997613
1.00227 1.00509 1 0.997195
0.999113 1 1 0.999113
1.00038 1 1.00174 0.998651
1.0023 1.00005 1.00415 0.998107
0.999632 1 1.00135 0.998286
1.02419 1.03034 0.995891 0.998136
1.01589 1.018 0.999949 0.997977
1.00687 1.00953 1 0.997369
1.00302 1.002 1.00377 0.997256
0.999029 1 1.0001 0.998933
1.02169 1.03099 0.99284 0.99813
1.0009 1 1.0025 0.998407
1.00075 1.00022 1.00268 0.997855
1.02168 1.02499 0.998541 0.998226
1.00679 1.00936 1 0.997453
1.00443 1.00408 1.00323 0.997124
0.999222 1 1 0.999222
0.999061 1 1 0.999061
0.99895 1 1 0.99895
0.99952 1 1 0.99952
0.999257 1 1 0.999257
0.999077 1 1 0.999077
0.999508 1 1 0.999508
0.999224 1 1 0.999224
0.998977 1 1 0.998977
0.99909 1 1 0.99909
0.998904 1 1 0.998904
0.998955 1 1 0.998955
0.999066 1 1 0.999066
0.999211 1 1 0.999211
0.999485 1 1 0.999485
0.999875 1 1 0.999875
0.999882 1 1 0.999882
1 1 1 1
0.999887 1 1 0.999887
1 1 1 1
1 1 1 1
1 1 1 1
1 1 1 1
1 1 1 1
0.999939 1 1 0.999939
1 1 1 1
1 1 1 1
1 1 1 1
1 1 1 1
1 1 1 1
1 1 1 1
1.02584 1.02792 0.999996 0.997985
1.02657 1.0301 0.998699 0.997868
1.02692 1.03123 0.998094 0.997719
1.02752 1.03041 0.999647 0.997544
1.0278 1.03238 0.997856 0.997697
1.0285 1.03503 0.995783 0.997896
1.02749 1.0319 0.997703 0.998021
1.02798 1.03574 0.994613 0.997881
1.03108 1.03867 0.994658 0.998025
1.01536 1.02855 0.988929 0.998236
1.02949 1.03255 0.999388 0.997642
1.02754 1.03182 0.998056 0.997794
1.02003 1.02331 0.998851 0.997939
0.998847 1.00055 1.00006 0.998246
1.00091 1.00205 1.00126 0.997598
1.00421 1.00628 1.00078 0.997171
1.02324 1.02553 0.999638 0.998123
1.01584 1.01818 0.999972 0.997727
0.998447 1 1 0.998447
1.00124 1 1.00279 0.99845
1.00164 1 1.00312 0.998532
0.999865 1 1 0.999865
0.99933 1 1 0.99933
0.99889 1 1.00001 0.998884
1.02793 1.03428 0.996015 0.997838
0.999909 1 1 0.999909
0.999551 1 1 0.999551
1.01949 1.02765 0.994137 0.997918
1.02138 1.02617 0.997216 0.998112
0.999112 1.00015 1.00084 0.998124
1.00326 1.00276 1.0033 0.997207
1.00555 1.00751 1.00084 0.997221
1.01815 1.02084 0.999237 0.998124
0.999447 1 1 0.999447
0.999004 1 1 0.999004
0.998389 1 1 0.998389
1.00753 1 1.00892 0.998621
1.00091 1 1.00254 0.998379
0.999567 1 1.00089 0.998681
1.03075 1.03808 0.994947 0.997986
1.0111 1.02604 0.987364 0.998057
1.01866 1.0245 0.995961 0.998328
1.00573 1.00893 0.998971 0.997852
1.00046 1 1.00234 0.99812
1.00435 1.00182 1.00547 0.997074
0.999566 1 1 0.999566
0.999519 1 1 0.999519
0.999303 1 1 0.999303
0.99903 1 1 0.99903
0.998818 1 1 0.998817
0.999611 1 1.00117 0.998445
1.01671 1 1.0184 0.998341
1.00029 1 1.00164 0.998655
0.999096 1 1 0.999096
1.0004 1 1.00174 0.998663
1.02544 1.03114 0.996315 0.998147
1.01572 1.01782 1 0.997944
0.999396 1 1.00108 0.998313
1.00253 1 1.00441 0.99813
1.00803 1.01062 1.00004 0.997408
1.00286 1.0023 1.00335 0.997217
0.99908 1 1.00015 0.998925
1.02267 1.03288 0.991936 0.998159
1.0007 1 1.00228 0.998423
1.00062 1.0001 1.00269 0.997828
1.02052 1.02412 0.998284 0.998199
1.00723 1.00976 1 0.9975
1.00428 1.00367 1.00348 0.997137
1.00006 1 1.0014 0.998664
1.01651 1.02786 0.990454 0.998489
1.00008 1.00017 1.00171 0.998209
1.00224 1.00089 1.00379 0.997569
1.01018 1.01531 0.997059 0.997882
1.00184 1.00239 1.00221 0.997246
1.00344 1.00753 0.997401 0.998533
0.999058 1 1 0.999058
0.999011 1 1.00006 0.998947
0.998918 1 1.00009 0.99883
0.999507 1 1 0.999507
0.999226 1 1 0.999226
0.999112 1 1 0.999112
0.998961 1 1 0.998961
0.999484 1 1 0.999484
0.999201 1 1 0.999201
0.998886 1 1 0.998886
0.999066 1 1 0.999066
0.998969 1 1 0.998969
0.998875 1 1 0.998875
0.998944 1 1 0.998944
0.999059 1 1 0.999059
0.999145 1 1 0.999145
0.999418 1 1 0.999418
0.999255 1 1 0.999255
0.999413 1 1 0.999413
0.999867 1 1 0.999867
0.999874 1 1 0.999874
1 1 1 1
0.999881 1 1 0.999881
1 1 1 1
1 1 1 1
1 1 1 1
1 1 1 1
1 1 1 1
0.999955 1 1 0.999955
0.999937 1 1 0.999937
1 1 1 1
1 1 1 1
1 1 1 1
1 1 1 1
1 1 1 1
1 1 1 1
1.02704 1.03182 0.997331 0.998033
1.02884 1.03514 0.996021 0.997885
1.0275 1.03227 0.997649 0.997716
1.02781 1.03555 0.994644 0.997879
1.02953 1.03699 0.994773 0.998022
1.01601 1.02818 0.989927 0.998211
1.02842 1.03853 0.992155 0.998089
0.997035 1.01596 0.983591 0.997746
1.00995 1.02569 0.985934 0.9987
0.999643 1 1 0.999643
1.0275 1.03425 0.995613 0.997851
1.01969 1.02698 0.994976 0.997918
1.02201 1.02684 0.997206 0.99808
0.99902 1 1.00082 0.9982
1.00358 1.00239 1.00402 0.997181
1.00647 1.00882 1.00045 0.997223
1.01715 1.01979 0.999297 0.998108
0.998328 1 1 0.998328
1.00404 1 1.00532 0.998724
1.00073 1 1.00237 0.998369
0.999905 1 1 0.999905
0.999588 1 1.0009 0.998693
0.999504 1 1 0.999504
0.999001 1 1 0.999001
0.999531 1 1 0.999531
1.02971 1.03863 0.993402 0.997994
0.999594 1 1 0.999594
0.999518 1 1 0.999518
0.999264 1 1 0.999264
1.01202 1.02564 0.988639 0.998059
1.01847 1.02421 0.996113 0.998281
0.9998 1.00002 1.00164 0.99814
1.00433 1.00168 1.00555 0.997115
1.00495 1.0078 0.999322 0.997849
0.999062 1 1 0.999062
0.998917 1 1.00013 0.998791
1.00292 1 1.00434 0.998587
1.01344 1 1.01509 0.998379
0.999407 1 1.00094 0.998469
1.01936 1.03133 0.990298 0.998074
1.01162 1.02906 0.984853 0.998174
1.01128 1.01565 0.997651 0.998046
1.00297 1.00396 1.00134 0.99768
1.00306 1 1.00484 0.998223
0.999244 1 1 0.999244
0.999143 1 1 0.999143
0.999031 1 1 0.999031
0.998937 1 1.0001 0.998832
0.999281 1 1.00065 0.998629
1.01197 1 1.01362 0.998375
1.01423 1 1.01594 0.998314
0.999139 1 1.00022 0.998918
1.00053 1 1.00209 0.99844
1.0234 1.03491 0.990682 0.998188
1.01929 1.02327 0.997936 0.998173
1.00729 1.00976 1 0.997547
1.00047 1 1.00268 0.997801
1.00385 1.00311 1.0036 0.99715
1.00003 1 1.00134 0.9987
1.01488 1.02739 0.9893 0.998502
0.999609 1.00008 1.0013 0.998237
1.0021 1.00045 1.00408 0.997582
1.01119 1.01588 0.997423 0.997961
1.00204 1.00212 1.00269 0.997232
1.00269 1.00771 0.99696 0.998049
1.00017 1 1.00164 0.998536
1.00568 1.01743 0.989948 0.998486
1.00015 1 1.00194 0.998212
1.00412 1.0002 1.00636 0.997571
1.0019 1.00532 0.998959 0.997637
0.952465 0.980226 0.985038 0.986438
0.973442 0.986622 0.993134 0.993462
0.982293 0.998596 0.985059 0.998594
0.855544 0.901729 0.965579 0.982604
0.815362 0.899423 0.92542 0.979597
0.998996 1 1.00005 0.998945
0.999108 1 1.00026 0.998847
0.998857 1 1 0.998857
0.999483 1 1 0.999483
0.999191 1 1 0.999191
0.999065 1 1 0.999065
0.998983 1 1 0.998983
0.998868 1 1 0.998868
0.999038 1 1 0.999038
0.999441 1 1 0.999441
0.999159 1 1 0.999159
0.998876 1 1 0.998876
0.998947 1 1 0.998947
0.998955 1 1 0.998955
0.998921 1 1 0.998921
0.998981 1 1 0.998981
0.999116 1 1 0.999116
0.999405 1 1 0.999405
0.999181 1 1 0.999181
0.999092 1 1 0.999092
0.999236 1 1 0.999236
0.999226 1 1 0.999226
0.999476 1 1 0.999476
0.999411 1 1 0.999411
0.999863 1 1 0.999863
0.999867 1 1 0.999867
1 1 1 1
0.999873 1 1 0.999873
1 1 1 1
1 1 1 1
1 1 1 1
1 1 1 1
1 1 1 1
0.999963 1 1 0.999963
0.999952 1 1 0.999952
1 1 1 1
0.999934 1 1 0.999934
1 1 1 1
1 1 1 1
1 1 1 1
1 1 1 1
1 1 1 1
1.02797 1.03527 0.994918 0.998019
1.02761 1.03531 0.994673 0.997877
1.01671 1.02769 0.991115 0.998185
0.999267 1.01572 0.98598 0.99779
1.02666 1.03682 0.992098 0.998087
1.01472 1.02774 0.988706 0.998619
1.02536 1.03194 0.995478 0.99814
0.961363 0.984778 0.983452 0.99265
1.00595 1.01935 0.988648 0.998182
0.99965 1 1 0.99965
0.999642 1 1 0.999642
0.999333 1 1 0.999333
0.999361 1 1 0.999361
1.02835 1.03902 0.991719 0.998001
1.01219 1.02479 0.989624 0.998062
1.01814 1.02387 0.996166 0.998233
0.998979 1.00005 1.00077 0.998159
1.00409 1.00159 1.00536 0.997155
1.0041 1.00687 0.9994 0.997847
1.00538 1 1.00687 0.998518
1.01023 1 1.01183 0.998416
0.999203 1 1.00071 0.998494
0.999517 1 1 0.999517
0.998914 1 1.00015 0.998765
0.999093 1 1 0.999093
0.999622 1 1 0.999622
0.999225 1 1 0.999225
1.01752 1.03054 0.98926 0.998088
0.999287 1 1 0.999287
0.999175 1 1 0.999175
0.99906 1 1 0.99906
1.01403 1.03094 0.985394 0.99818
1.00991 1.01477 0.997166 0.998043
1.0029 1 1.0047 0.998211
1.00332 1.00426 1.00137 0.997694
0.999015 1 1.00019 0.998828
0.99898 1 1.00037 0.998606
1.01503 1 1.01675 0.998312
1.01292 1 1.0146 0.99835
1.00872 1.02952 0.981614 0.998156
1.00395 1.02344 0.98278 0.998143
1.00501 1.00742 0.999851 0.997754
0.999548 1.00032 1.00095 0.99828
0.998939 1 1 0.998939
0.999162 1 1.00027 0.998894
1.00364 1 1.00502 0.998634
1.02539 1 1.02727 0.998169
0.935282 0.972728 0.97549 0.985662
1.00017 1 1.00144 0.998736
0.999357 1 1.00109 0.998265
1.01297 1.02665 0.988143 0.998514
1.01225 1.0164 0.997873 0.998041
1.00265 1.00215 1.0033 0.997218
1.00205 1 1.00447 0.997593
1.0018 1.00768 0.996597 0.997555
1.0002 1 1.00163 0.998565
1.00525 1.01785 0.989137 0.998473
0.999659 1 1.00144 0.998224
1.00376 1.00009 1.00611 0.997571
1.00258 1.00619 0.998751 0.997661
0.951528 0.982617 0.982225 0.985885
0.968382 0.984237 0.992121 0.991704
0.983629 0.996608 0.988338 0.998623
0.857975 0.900882 0.96929 0.982546
0.798953 0.887262 0.920854 0.977864
0.999577 1 1.00086 0.998714
0.879716 0.920761 0.971963 0.982983
0.856134 0.904039 0.965538 0.980811
0.983857 1.00679 0.978814 0.998369
1.00499 1.00011 1.00656 0.998332
1.01095 1.00293 1.01019 0.997817
0.978923 0.9919 0.988151 0.998751
0.950582 0.972115 0.99215 0.985586
0.954858 0.966455 0.996992 0.990981
0.835211 0.90203 0.942003 0.982931
0.864751 0.936381 0.940966 0.981441
0.999395 1 1.00053 0.998863
0.998959 1 1.00011 0.998848
0.999086 1 1.00001 0.999074
0.999464 1 1 0.999464
0.999173 1 1 0.999173
0.999018 1 1 0.999018
0.998951 1 1 0.998951
0.998877 1 1 0.998877
0.999406 1 1 0.999406
0.99895 1 1 0.99895
0.999 1 1 0.999
0.99914 1 1 0.99914
0.99892 1 1 0.99892
0.998919 1 1 0.998919
0.999142 1 1.0002 0.998945
0.998964 1 1 0.998964
0.999146 1 1 0.999146
0.999178 1 1 0.999178
0.999079 1 1 0.999079
0.999023 1 1 0.999023
0.999075 1 1 0.999075
0.99902 1 1 0.99902
0.998941 1 1 0.998941
0.999216 1 1 0.999216
0.999236 1 1 0.999236
0.999488 1 1 0.999488
0.999197 1 1 0.999197
0.999456 1 1 0.999456
0.999861 1 1 0.999861
0.99941 1 1 0.99941
0.999863 1 1 0.999863
1 1 1 1
0.999867 1 1 0.999867
1 1 1 1
1 1 1 1
1 1 1 1
1 1 1 1
1 1 1 1
0.999629 1 1 0.999629
0.999963 1 1 0.999963
0.999961 1 1 0.999961
1 1 1 1
0.999949 1 1 0.999949
1 1 1 1
1 1 1 1
1 1 1 1
1 1 1 1
1 1 1 1
1.00117 1.01579 0.987745 0.997837
1.02531 1.0353 0.992252 0.998085
1.01923 1.03001 0.990978 0.998538
0.958096 0.980619 0.983395 0.993528
1.00608 1.01907 0.988965 0.998272
1.02744 1.03477 0.994807 0.998105
1.01658 1.02387 0.994818 0.998043
0.967397 0.983171 0.989715 0.994181
0.953045 0.978804 0.988507 0.985005
0.836648 0.893922 0.953101 0.981983
0.797015 0.873595 0.931725 0.979194
0.999319 1 1 0.999319
0.999649 1 1 0.999649
0.999641 1 1 0.999641
0.99932 1 1 0.99932
0.999122 1 1 0.999122
0.999157 1 1 0.999157
0.999312 1 1 0.999312
0.999339 1 1 0.999339
1.01631 1.03022 0.988371 0.998102
1.01704 1.03359 0.985779 0.998184
1.00868 1.01399 0.996718 0.998041
1.00312 1.00004 1.00488 0.998201
1.00383 1.00437 1.00177 0.997707
1.01564 1 1.01735 0.998311
1.01405 1 1.01575 0.998324
0.998847 1 1.00026 0.998584
0.999207 1 1 0.999207
0.999006 1 1.00018 0.998824
0.999329 1 1 0.999329
0.99909 1 1 0.99909
1.00977 1.02961 0.982552 0.99814
0.998964 1 1 0.998964
0.999032 1 1.00012 0.99891
1.00475 1.02276 0.984237 0.998122
1.00384 1.00711 0.998891 0.997861
1.00139 1.00064 1.00254 0.998214
1.00532 1 1.00674 0.998588
1.02254 1 1.02441 0.99818
1.00794 1.02564 0.984584 0.998131
0.985687 1.00709 0.980542 0.998174
0.996744 1.00054 0.998026 0.998173
1.00636 1.00012 1.00794 0.998312
0.998998 1 1.00022 0.998776
1.0023 1 1.00362 0.998686
1.02141 1 1.02306 0.99838
0.867809 0.925169 0.953752 0.983485
0.947555 0.976349 0.98318 0.987111
0.999934 1 1.00134 0.998594
0.999301 1 1.00107 0.998235
1.00604 1.01878 0.98901 0.998461
1.00324 1.00714 0.998438 0.997686
1.00327 1 1.00571 0.997572
0.949314 0.977254 0.986125 0.985078
0.970954 0.988324 0.989973 0.992375
0.985405 0.995168 0.99153 0.998648
0.852185 0.901726 0.961585 0.982814
0.784816 0.87468 0.919223 0.976108
0.999158 1 1.00044 0.998716
0.872132 0.923343 0.960506 0.983374
0.851126 0.89832 0.966745 0.980055
0.98597 1.00755 0.980185 0.99836
1.00458 1.00008 1.00615 0.998354
1.00996 1.00147 1.01057 0.997937
0.970575 0.987058 0.984447 0.998835
0.955714 0.979573 0.991039 0.984466
0.956928 0.970242 0.993544 0.992687
0.837863 0.896463 0.952086 0.981668
0.864263 0.938119 0.939311 0.980797
1.0011 1 1.00216 0.998945
0.882428 0.912443 0.984427 0.982404
0.945094 0.965001 0.992484 0.986787
0.989318 1.00026 0.990214 0.998832
1.01232 1.00154 1.01196 0.998812
0.98565 0.979053 1.00772 0.999028
0.940318 0.95701 0.988737 0.993751
0.942022 0.957682 0.999385 0.984253
0.854175 0.912752 0.952957 0.982022
0.893662 0.957934 0.948281 0.983786
0.998919 1 1.00008 0.998839
0.999053 1 1 0.999053
1.00019 1 1.00094 0.999251
0.999407 1 1 0.999407
0.999164 1 1 0.999164
0.999018 1 1 0.999018
0.998946 1 1 0.998946
0.99892 1 1 0.99892
0.999145 1 1 0.999145
0.998925 1 1 0.998925
0.998964 1 1 0.998964
0.999374 1 1.00041 0.998968
1.00519 1 1.00601 0.99919
0.998983 1 1.00009 0.998896
0.998949 1 1 0.998949
0.999176 1 1 0.999176
0.999065 1 1 0.999065
0.999022 1 1 0.999022
0.999072 1 1 0.999072
0.999028 1 1 0.999028
0.999028 1 1 0.999028
0.998978 1 1 0.998978
0.99901 1 1 0.99901
0.998797 1 1 0.998797
0.999384 1 1.00093 0.998457
0.998822 1 1 0.998822
0.998938 1 1 0.998938
0.999163 1 1 0.999163
0.999214 1 1 0.999214
0.999483 1 1 0.999483
0.999235 1 1 0.999235
0.999488 1 1 0.999488
0.999862 1 1 0.999862
0.999437 1 1 0.999437
0.999861 1 1 0.999861
1 1 1 1
0.999863 1 1 0.999863
1 1 1 1
1 1 1 1
1 1 1 1
1 1 1 1
1 1 1 1
0.999649 1 1 0.999649
0.999954 1 1 0.999954
0.99963 1 1 0.99963
1 1 1 1
0.999963 1 1 0.999963
0.99996 1 1 0.99996
1 1 1 1
1 1 1 1
1 1 1 1
1 1 1 1
1 1 1 1
0.868239 0.913638 0.966836 0.982907
0.860552 0.906168 0.967667 0.981393
0.960104 0.983542 0.982027 0.994035
1.00791 1.01871 0.991018 0.998363
1.02956 1.03723 0.994525 0.998069
0.961001 0.976001 0.989135 0.995447
1.01608 1.02352 0.994628 0.998095
0.957014 0.983337 0.986743 0.986306
0.850733 0.900161 0.962 0.982422
0.787954 0.872383 0.924085 0.977422
0.98641 0.998705 0.990985 0.996674
0.951659 0.973011 0.991914 0.986029
0.827418 0.896097 0.939747 0.982559
0.858894 0.928378 0.943838 0.980206
0.999039 1 1 0.999039
0.999339 1 1 0.999339
0.999649 1 1 0.999649
0.999308 1 1 0.999308
0.999151 1 1 0.999151
0.999085 1 1.00002 0.99906
0.999157 1 1 0.999157
0.999178 1 1 0.999178
0.999287 1 1 0.999287
0.999318 1 1 0.999318
1.0106 1.02925 0.983732 0.998125
1.0046 1.02107 0.98574 0.998103
1.00291 1.00703 0.997936 0.997969
1.00291 1.00095 1.00382 0.998148
1.01909 1 1.02093 0.99819
1.00708 1 1.00855 0.998542
0.998926 1 1 0.998926
0.998989 1 1 0.998989
1.00758 1.02599 0.983882 0.99814
0.999068 1 1.0003 0.998763
1.00225 1 1.0036 0.998656
0.986458 1.00587 0.982567 0.998097
0.996333 1.0004 0.997635 0.998295
1.0074 1.00066 1.00854 0.998211
1.01878 1 1.02046 0.998354
0.99898 1.00504 0.995527 0.998435
0.988353 1 0.98952 0.998821
1.01379 1.00041 1.01502 0.998386
1.00092 1 1.00218 0.998743
1.00058 1 1.00199 0.998602
1.01265 1 1.0142 0.998468
0.888876 0.918712 0.982514 0.984742
0.876255 0.924369 0.964168 0.983178
0.941411 0.976776 0.977805 0.985672
0.998742 1 1.00002 0.998717
1.00415 1 1.00579 0.998375
0.98847 1.00808 0.982162 0.998353
1.00912 1.00001 1.01108 0.998055
0.865815 0.91831 0.959089 0.983052
0.955717 0.977827 0.991059 0.986206
0.951967 0.969771 0.990501 0.991055
0.966647 0.982995 0.984431 0.998921
0.83851 0.896864 0.95225 0.981818
0.853328 0.902893 0.964417 0.979975
0.855689 0.9325 0.935498 0.980899
1.00176 1 1.00282 0.998951
0.883564 0.91597 0.98126 0.983044
0.94986 0.968996 0.993455 0.98671
0.991695 1.00021 0.992579 0.998902
1.01173 1.00036 1.01259 0.998791
0.983589 0.978425 1.00636 0.998929
0.941672 0.958921 0.990006 0.991925
0.944332 0.962408 0.996072 0.985087
0.864305 0.92361 0.952407 0.982552
0.883789 0.949293 0.946262 0.983867
1.00355 0.999757 1.00433 0.999467
0.94779 0.968735 0.988773 0.989488
0.934299 0.958464 0.984559 0.990076
1.0043 0.990906 1.01381 0.999715
0.959876 0.960908 1.00281 0.996129
0.950026 0.958417 1.00698 0.984377
0.900203 0.941541 0.973029 0.982597
0.900024 0.97017 0.943516 0.983234
0.999033 1 1 0.999033
1.00004 1 1.00079 0.999251
1.01074 1 1.01133 0.999413
0.999143 1 1 0.999143
0.998964 1 1 0.998964
0.998931 1 1 0.998931
0.999384 1 1.00039 0.998991
0.998947 1 1 0.998947
0.998923 1 1.00003 0.998892
1.00761 1 1.00839 0.99923
1.01505 0.998428 1.01721 0.999446
1.00578 1 1.00667 0.999119
0.998897 1 1 0.998897
0.99902 1 1 0.99902
0.999069 1 1 0.999069
0.999036 1 1 0.999036
0.998986 1 1 0.998986
0.999027 1 1 0.999027
0.999016 1 1 0.999016
0.99894 1 1 0.99894
0.999114 1 1 0.999114
0.998821 1 1 0.998821
0.99882 1 1 0.99882
0.999265 1 1.00069 0.998572
0.999598 1 1.00153 0.998075
0.999067 1 1.00033 0.998733
0.999335 1 1.00079 0.998543
0.998852 1 1 0.998852
0.99904 1 1 0.99904
0.998935 1 1 0.998935
0.999161 1 1 0.999161
0.999449 1 1 0.999449
0.999212 1 1 0.999212
0.999482 1 1 0.999482
0.99986 1 1 0.99986
0.999488 1 1 0.999488
0.999862 1 1 0.999862
1 1 1 1
0.999862 1 1 0.999862
1 1 1 1
1 1 1 1
1 1 1 1
1 1 1 1
1 1 1 1
0.999528 1 1 0.999528
0.999941 1 1 0.999941
0.9996 1 1 0.9996
1 1 1 1
0.999957 1 1 0.999957
0.99963 1 1 0.99963
1 1 1 1
1 1 1 1
0.999964 1 1 0.999964
1 1 1 1
1 1 1 1
1 1 1 1
0.88627 0.915906 0.983462 0.983915
0.871641 0.919264 0.964909 0.982677
0.947126 0.970276 0.989404 0.986594
0.851781 0.899056 0.966073 0.980689
0.957829 0.978731 0.984943 0.993604
1.0142 1.0233 0.992942 0.998148
0.960796 0.983575 0.98915 0.987555
0.85202 0.903411 0.960188 0.982218
0.782187 0.87365 0.917667 0.975637
0.982727 0.99649 0.990159 0.995991
0.951188 0.973664 0.992413 0.984384
0.838301 0.902964 0.946043 0.981338
0.857199 0.929948 0.941132 0.979427
0.966732 0.985098 0.986175 0.995113
0.955018 0.96411 1.00671 0.983963
0.863524 0.925764 0.949858 0.982009
0.889796 0.959162 0.944318 0.982382
0.999203 1 1.00032 0.99888
0.999068 1 1 0.999068
0.999359 1 1 0.999359
0.999181 1 1 0.999181
0.998893 1 1 0.998893
0.999081 1 1 0.999081
0.999156 1 1 0.999156
0.999148 1 1 0.999148
0.999205 1 1 0.999205
0.999262 1 1 0.999262
1.00782 1.02702 0.983129 0.998149
0.98872 1.00549 0.985273 0.998021
0.995776 1.00003 0.997323 0.998416
1.00938 1.00127 1.01001 0.998111
1.0164 1 1.01811 0.998328
1.00192 1 1.0033 0.998627
0.999211 1 1.00046 0.99875
1.00032 1 1.00159 0.998739
0.994925 1.00585 0.990678 0.998448
1.00052 1 1.00191 0.998611
1.01279 1 1.01435 0.998462
0.987061 1.0002 0.988111 0.998741
1.01369 1.00069 1.01465 0.998364
0.96785 0.991608 0.977083 0.998933
1.00445 0.998623 1.00657 0.999268
1.01749 1 1.01891 0.9986
0.999833 1 1.00121 0.998621
1.00761 1 1.00915 0.99847
0.947912 0.964772 0.991567 0.990881
0.892622 0.91861 0.986687 0.98482
0.869278 0.920524 0.960218 0.983453
1.00241 1 1.00346 0.998957
1.01114 0.999244 1.01315 0.998769
0.991893 1 0.992918 0.998968
0.893667 0.922051 0.985207 0.98377
0.953396 0.961982 1.00719 0.983995
0.944263 0.960022 0.990333 0.993187
0.974151 0.975226 1.00009 0.998804
0.865603 0.922838 0.955117 0.982058
0.954318 0.972619 0.994474 0.986636
0.883282 0.949429 0.945502 0.983954
1.0031 0.999462 1.0042 0.999443
0.945929 0.966943 0.987929 0.99022
0.936727 0.960619 0.984891 0.990087
1.00565 0.992815 1.01336 0.999568
0.963501 0.963608 1.00419 0.995714
0.941396 0.956982 1.00033 0.983388
0.903177 0.972275 0.944014 0.984023
0.896461 0.939569 0.971216 0.982397
1.00529 0.994254 1.01139 0.999711
0.930115 0.955702 0.97864 0.994469
0.944866 0.970995 0.98218 0.990745
0.892024 0.960062 0.94575 0.982429
0.990596 0.977049 1.01493 0.998954
0.965402 0.966392 1.01415 0.985037
0.901691 0.934236 0.982115 0.98274
1.00045 1 1.0012 0.999252
1.00986 1 1.01052 0.999355
1.01528 0.997421 1.01835 0.999566
0.998946 1 1 0.998946
0.998889 1 1 0.998889
1.0109 1 1.01164 0.99927
0.998907 1 1 0.998907
1.00554 1 1.00642 0.999124
1.01665 0.998362 1.01891 0.999421
1.00649 0.997821 1.0092 0.999489
1.00372 1 1.0046 0.999118
0.998994 1 1 0.998994
0.999025 1 1 0.999025
0.999022 1 1 0.999022
0.999099 1 1 0.999099
0.998948 1 1 0.998948
0.999384 1 1.00033 0.999052
0.998937 1 1 0.998937
1.00093 1 1.00259 0.998347
0.998844 1 1 0.998844
0.999105 1 1.00057 0.99854
0.998923 1 1.00101 0.997913
0.999296 1 1.00129 0.998009
1.00004 1 1.00149 0.998554
0.999475 1 1.00138 0.998096
0.998924 1 1 0.998924
0.9991 1 1.00039 0.998706
0.999275 1 1.00065 0.99863
0.998883 1 1 0.998883
0.999069 1 1 0.999069
0.999387 1 1 0.999387
0.999159 1 1 0.999159
0.999448 1 1 0.999448
0.999848 1 1 0.999848
0.99948 1 1 0.99948
0.999858 1 1 0.999858
1 1 1 1
0.999861 1 1 0.999861
1 1 1 1
1 1 1 1
1 1 1 1
1 1 1 1
1 1 1 1
0.999382 1 1 0.999382
0.999842 1 1 0.999842
0.999527 1 1 0.999527
1 1 1 1
0.999911 1 1 0.999911
0.999552 1 1 0.999552
1 1 1 1
1 1 1 1
0.999959 1 1 0.999959
1 1 1 1
1 1 1 1
1 1 1 1
0.942316 0.9642 0.986971 0.990206
0.875377 0.913755 0.973786 0.98379
0.87214 0.916352 0.968698 0.982508
0.999059 1 1 0.999059
0.934945 0.956571 0.986384 0.990884
0.9505 0.971232 0.99201 0.986536
0.847509 0.900568 0.959617 0.980686
0.985018 0.997473 0.992304 0.995172
0.953344 0.973273 0.993654 0.985779
0.844675 0.913985 0.941613 0.981473
0.850686 0.92385 0.940132 0.979443
0.968788 0.985877 0.989589 0.993005
0.941341 0.95772 0.99777 0.985095
0.87331 0.929055 0.957314 0.981912
0.888068 0.955561 0.946281 0.982127
0.950386 0.966819 0.991586 0.991344
0.950793 0.953754 1.01389 0.983237
0.900462 0.944728 0.970482 0.982134
0.899305 0.968505 0.944391 0.983226
0.999198 1 1.00047 0.998726
0.999397 1 1.00054 0.99886
0.999097 1 1 0.999097
0.99889 1 1 0.99889
0.99894 1 1.00001 0.998928
0.999102 1 1 0.999102
0.999156 1 1 0.999156
0.999232 1 1 0.999232
0.989185 1.00576 0.985042 0.99846
0.984789 1.00014 0.985971 0.998661
0.999634 1 1.0009 0.998734
1.01335 1.00092 1.0141 0.998341
1.01328 1 1.01485 0.998455
1.0007 1 1.00208 0.998619
1.00007 1 1.00144 0.99863
0.972461 0.993177 0.980163 0.998959
1.00809 1 1.0096 0.998497
1.01449 1 1.01591 0.998603
0.998881 0.998895 1.00069 0.999297
1.00033 1 1.00167 0.998662
0.96423 0.984162 0.98047 0.999263
1.00913 0.996152 1.01358 0.999454
1.02359 1 1.02495 0.998676
1.00189 1 1.00327 0.998618
0.942801 0.957967 0.988888 0.995228
0.94728 0.963798 0.991797 0.990991
0.897584 0.918797 0.991887 0.984903
1.00221 0.999091 1.0037 0.999423
1.00837 0.99489 1.01414 0.999425
0.944635 0.965458 0.987371 0.990947
0.95691 0.957738 1.0145 0.984851
0.958309 0.961532 1.00326 0.993407
0.900966 0.943199 0.973173 0.981556
0.937664 0.961301 0.985167 0.990097
0.907437 0.97555 0.944529 0.984808
1.00633 0.995856 1.01084 0.999673
0.930093 0.955337 0.978982 0.994477
0.942523 0.969078 0.980697 0.991741
0.999118 0.983493 1.01607 0.999824
0.889557 0.956747 0.946673 0.982147
0.955443 0.959543 1.01148 0.984428
0.912281 0.948242 0.979771 0.98194
1.00715 0.992131 1.01538 0.999771
0.943085 0.96885 0.978 0.995303
0.93563 0.957598 0.986004 0.990929
0.859197 0.930211 0.942239 0.980281
0.900402 0.946566 0.968825 0.981839
0.974069 0.970685 1.00524 0.998254
0.967861 0.959857 1.02617 0.982621
1.00771 1 1.00842 0.999297
1.01423 0.996733 1.01802 0.999543
1.00366 0.986366 1.01796 0.999582
0.998917 1 1 0.998917
1.00496 1 1.00584 0.99913
1.01772 0.999 1.01935 0.999396
1.00176 1 1.00265 0.999107
1.00636 0.998462 1.00842 0.999488
1.00672 0.997643 1.00984 0.999259
0.999085 1 1 0.999085
0.998957 1 1 0.998957
1.00002 1 1.001 0.999022
1.00641 1 1.00787 0.998545
0.999051 1 1 0.999051
1.00042 1 1.00198 0.998442
1.00194 1 1.00413 0.997817
1.00053 1.00117 1.00188 0.997483
0.998911 1 1.0004 0.998507
0.999055 1.00013 1.00109 0.997828
0.998626 1 1.00053 0.998102
1.00067 1 1.00232 0.998356
0.999315 1 1.00125 0.998063
1.00019 1 1.0014 0.998789
1 1 1.00146 0.998547
0.999393 1 1.00128 0.998116
0.999278 1 1 0.999278
0.998992 1 1.00007 0.998917
0.999186 1 1.00051 0.998678
0.999098 1 1 0.999098
0.999385 1 1 0.999385
0.999821 1 1 0.999821
0.999447 1 1 0.999447
0.999845 1 1 0.999845
1 1 1 1
0.999857 1 1 0.999857
1 1 1 1
1 1 1 1
1 1 1 1
1 1 1 1
1 1 1 1
0.999321 1 1 0.999321
0.999775 1 1 0.999775
0.999409 1 1 0.999409
1 1 1 1
0.999836 1 1 0.999836
0.999525 1 1 0.999525
1 1 1 1
1 1 1 1
0.999881 1 1 0.999881
1 1 1 1
1 1 1 1
1 1 1 1
0.931939 0.955578 0.980647 0.994508
0.943448 0.964734 0.987613 0.990201
0.875449 0.915003 0.972446 0.983882
0.999075 1 1 0.999075
0.999029 1 1 0.999029
0.998926 1 1 0.998926
0.941682 0.969736 0.980188 0.990698
0.933397 0.955678 0.98565 0.990906
0.954121 0.972284 0.994771 0.986478
0.975517 0.987776 0.992987 0.994563
0.940298 0.958073 0.997435 0.983971
0.864059 0.918376 0.958025 0.982078
0.895514 0.960781 0.949268 0.981882
0.952514 0.966967 0.991824 0.993173
0.946262 0.952934 1.00899 0.984153
0.890656 0.930991 0.972931 0.983291
0.901386 0.9709 0.943499 0.983999
0.93897 0.95611 0.98998 0.992013
0.964658 0.963698 1.01673 0.984525
0.902522 0.932684 0.984489 0.982907
0.894096 0.957172 0.949578 0.983702
0.998715 1 1 0.998715
0.999408 1 1.00069 0.998721
0.999511 1 1.00067 0.99884
0.998885 1 1 0.998885
0.998963 1 1 0.998963
0.999163 1 1 0.999163
0.97927 0.995713 0.984493 0.998978
0.993964 0.99902 0.995612 0.999324
1.00021 1 1.00158 0.998639
1.01149 1 1.0129 0.998607
1.00879 1 1.01028 0.998523
1.0001 1 1.00147 0.998638
1.00174 1 1.00311 0.998631
0.975873 0.987484 0.988945 0.999289
1.02108 1 1.02233 0.998776
1.00588 0.991468 1.01506 0.99948
1.00004 1 1.00129 0.998745
0.990532 0.976781 1.01461 0.999475
0.998399 0.988199 1.0108 0.999523
1.01704 1 1.01815 0.998902
0.958551 0.972689 0.989176 0.996248
0.942316 0.958033 0.988026 0.995515
0.946919 0.96273 0.992411 0.991098
1.00829 0.99782 1.01086 0.999636
0.994161 0.985427 1.00952 0.999344
0.930745 0.955646 0.979344 0.994486
0.956027 0.954247 1.01419 0.987851
0.911694 0.945181 0.981401 0.982851
0.941136 0.96755 0.979816 0.992738
0.89661 0.961388 0.949781 0.981932
1.00562 0.991988 1.01396 0.999788
0.943673 0.969164 0.978009 0.995592
0.934633 0.956881 0.985669 0.990951
0.972935 0.967293 1.01029 0.99559
0.85628 0.930485 0.939474 0.979539
0.888316 0.933974 0.967566 0.982996
0.977034 0.965582 1.02793 0.984363
1.00223 0.974769 1.02853 0.999644
0.932645 0.956159 0.980735 0.994568
0.948536 0.971958 0.989051 0.986706
0.794864 0.87192 0.930784 0.979416
0.865433 0.927904 0.949736 0.982037
0.964843 0.964292 1.01661 0.984221
0.950699 0.962375 0.993721 0.99411
1.01352 0.995827 1.01825 0.999518
1.00711 0.990483 1.01721 0.999586
1.01725 0.995282 1.02255 0.999529
0.999808 1 1.00071 0.999096
1.0062 0.998461 1.00827 0.999487
1.0078 0.997766 1.01073 0.99933
1.01716 1 1.01834 0.998839
1.0006 1 1.00161 0.998993
1.0067 1 1.00827 0.998447
1.0151 1 1.01743 0.997707
0.999981 1 1.00145 0.998537
1.00308 1.00023 1.00509 0.997775
1.00471 1.00161 1.00595 0.997165
1.00289 1.00392 1.00191 0.997079
0.998926 1.00006 1.00108 0.997789
1.0005 1.00117 1.00189 0.997447
0.999227 1.00025 1.00124 0.997744
0.999381 1 1.0011 0.998285
0.998669 1 1.00048 0.99819
1.00109 1 1.00254 0.998548
1.00075 1 1.00236 0.998392
0.999286 1 1.00117 0.998118
0.999538 1 1.00044 0.999094
0.999998 1 1.00121 0.998792
0.999904 1 1.00137 0.998539
0.999766 1 1 0.999766
0.999276 1 1 0.999276
0.999056 1 1.00015 0.998911
0.999382 1 1 0.999382
0.999817 1 1 0.999817
1 1 1 1
0.999843 1 1 0.999843
1 1 1 1
1 1 1 1
1 1 1 1
1 1 1 1
1 1 1 1
0.999313 1 1 0.999313
0.999783 1 1 0.999783
0.999339 1 1 0.999339
1 1 1 1
0.999805 1 1 0.999805
0.999437 1 1 0.999437
1 1 1 1
1 1 1 1
0.999831 1 1 0.999831
1 1 1 1
1 1 1 1
1 1 1 1
0.942364 0.968116 0.978026 0.99527
0.93176 0.955947 0.980069 0.994519
0.942953 0.965191 0.986622 0.990206
0.999007 1 1 0.999007
0.998893 1 1 0.998893
0.99909 1 1 0.99909
0.999026 1 1 0.999026
0.998908 1 1 0.998908
0.998916 1 1 0.998916
0.998816 1 1 0.998816
0.931572 0.957672 0.98258 0.989991
0.941057 0.967747 0.98056 0.9917
0.931928 0.954638 0.985147 0.990928
0.904111 0.973918 0.942677 0.984774
0.941104 0.956986 0.991797 0.991538
0.949722 0.954332 1.01012 0.985202
0.894804 0.931732 0.977678 0.982293
0.934682 0.955378 0.986908 0.991315
0.955284 0.956004 1.01594 0.983574
0.914486 0.949369 0.980519 0.982394
0.882965 0.948603 0.946144 0.983789
0.938634 0.956626 0.987977 0.993133
0.961153 0.961223 1.01701 0.983204
0.902217 0.943269 0.973265 0.982752
0.8623 0.934722 0.940171 0.981226
0.999765 1 1.00097 0.998801
0.998819 1 1.0001 0.998715
0.999634 1 1.00092 0.998716
0.998881 1 1 0.998881
0.984836 0.990073 0.995389 0.999319
1.00153 0.987484 1.01473 0.999505
0.998651 1 1.00004 0.998615
1.0015 1 1.00286 0.998644
1.01769 1 1.01884 0.998875
0.999509 1 1.00077 0.998738
1.01781 0.999873 1.01907 0.998888
0.986288 0.97495 1.01282 0.998827
1.00079 0.987913 1.0134 0.999634
1.00781 0.999388 1.00945 0.99899
0.990966 0.972903 1.01989 0.998703
1.01629 0.993912 1.02323 0.999301
0.943305 0.958303 0.989035 0.995263
0.953934 0.970713 0.98611 0.996557
0.941717 0.9581 0.987045 0.995801
1.00295 0.990629 1.01264 0.999805
0.975926 0.968821 1.00898 0.998373
0.943511 0.968837 0.977886 0.995883
0.969492 0.963293 1.0239 0.982945
0.892073 0.933294 0.973398 0.981955
0.933564 0.95615 0.985273 0.990973
0.850439 0.924073 0.939523 0.979556
1.00722 0.978095 1.03007 0.999714
0.932177 0.956471 0.979911 0.99458
0.95177 0.972774 0.991652 0.986645
0.953171 0.962508 0.994039 0.996238
0.78795 0.872078 0.924173 0.977664
0.871179 0.928512 0.955615 0.981832
0.962753 0.959465 1.01975 0.98399
0.999338 0.979083 1.02169 0.999019
0.943572 0.965365 0.986961 0.990338
0.861311 0.906677 0.967753 0.98162
0.830018 0.897099 0.941415 0.982801
0.948487 0.95186 1.01209 0.984551
0.933773 0.955427 0.985088 0.99213
1.01076 0.994481 1.01678 0.99959
1.01783 0.993807 1.02466 0.999522
1.01263 0.99922 1.01407 0.99936
1.0092 0.998108 1.01172 0.999402
1.01632 0.998722 1.01872 0.998912
1.01088 1.00079 1.01203 0.998074
1.0072 1 1.00886 0.998347
1.01418 1 1.01656 0.997656
1.00898 1.00017 1.01171 0.997138
1.00428 1.00052 1.00604 0.997734
1.00472 1.0012 1.00644 0.9971
1.00325 1.00209 1.00428 0.996888
1.00476 1.00767 1 0.997112
1.00468 1.00666 1.00077 0.997271
1.00343 1.00424 1.00218 0.997027
0.998377 1.00023 1.00013 0.99802
0.998736 1.00015 1.00074 0.997842
1.00051 1.00121 1.0019 0.997411
0.999426 1 1.00112 0.998312
0.999359 1 1.00108 0.998278
0.998702 1 1.00043 0.998277
1.00038 1 1.00154 0.998844
1.00093 1 1.00234 0.998587
1.00081 1 1.00238 0.998429
0.999637 1 1 0.999637
0.999476 1 1.00038 0.999095
0.999816 1 1.00102 0.998795
1 1 1 1
0.99976 1 1 0.99976
0.999274 1 1 0.999274
0.999812 1 1 0.999812
1 1 1 1
1 1 1 1
1 1 1 1
1 1 1 1
1 1 1 1
0.999001 1 1 0.999001
0.999261 1 1 0.999261
0.999734 1 1 0.999734
0.999311 1 1 0.999311
1 1 1 1
0.999787 1 1 0.999787
0.999357 1 1 0.999357
1 1 1 1
1 1 1 1
0.999836 1 1 0.999836
1 1 1 1
1 1 1 1
1 1 1 1
0.929776 0.955898 0.978103 0.994449
0.942817 0.968581 0.977738 0.995563
0.931667 0.956366 0.979533 0.994529
0.999017 1 1 0.999017
0.998879 1 1 0.998879
0.998817 1 1 0.998817
0.998879 1 1 0.998879
0.998989 1 1.0002 0.99879
0.999024 1 1 0.999024
0.99889 1 1 0.99889
0.998916 1 1 0.998916
0.998816 1 1 0.998816
0.999286 1 1.00042 0.998863
0.943192 0.963853 0.991845 0.98661
0.935463 0.960093 0.984177 0.990011
0.941351 0.966417 0.981225 0.992701
0.881171 0.948615 0.944114 0.983888
0.912243 0.943642 0.9834 0.983044
0.927371 0.951313 0.98429 0.990391
0.963419 0.963219 1.01615 0.984316
0.939476 0.958409 0.989053 0.991094
0.972432 0.9703 1.01825 0.984232
0.898443 0.940385 0.972135 0.982784
0.863164 0.937189 0.939296 0.980535
0.959808 0.966726 1.00039 0.992459
0.96244 0.963045 1.0149 0.984695
0.852374 0.912381 0.951515 0.981835
0.817209 0.90017 0.92721 0.979107
1.00168 1 1.00249 0.99919
1.00125 1 1.00246 0.998801
0.999581 1 1.00087 0.998716
0.984433 0.973517 1.01307 0.99817
1.00316 0.986918 1.01671 0.999748
0.999828 1 1.0011 0.998732
1.0192 0.99983 1.02052 0.998875
1.0089 0.999719 1.01019 0.998998
1.01732 0.995858 1.02228 0.999291
0.987388 0.969873 1.01934 0.998741
1.01458 0.999275 1.01599 0.999345
0.993695 0.98024 1.0152 0.998549
0.950441 0.966661 0.992369 0.990782
0.942739 0.958173 0.988294 0.995546
0.949185 0.968797 0.982836 0.996867
1.01229 0.981779 1.03131 0.999778
0.952032 0.963249 0.995156 0.993165
0.932123 0.956753 0.979555 0.994591
0.963427 0.965352 1.016 0.98229
0.864171 0.918374 0.958198 0.98203
0.954965 0.973615 0.994178 0.986588
0.784122 0.874682 0.918603 0.9759
0.998246 0.977518 1.02209 0.999129
0.944807 0.966071 0.987535 0.990333
0.852668 0.900047 0.965788 0.980919
0.936167 0.95834 0.983552 0.9932
0.840228 0.903523 0.947418 0.981559
0.937195 0.949827 1.00337 0.983388
0.974318 0.978195 0.997797 0.998235
0.88659 0.916761 0.982675 0.98414
0.838899 0.894764 0.954518 0.982238
0.953238 0.964053 1.00482 0.984039
0.933936 0.955053 0.98421 0.993578
1.01739 0.992452 1.02562 0.999515
1.01355 0.997621 1.01665 0.999331
0.994707 1.001 0.99499 0.998716
1.01498 0.997141 1.01892 0.998985
1.01128 1.00089 1.01223 0.998171
1.00253 1.00196 1.00292 0.997664
1.01296 1 1.01539 0.997605
1.00743 1.00032 1.00998 0.997153
0.999552 1.00147 1.00084 0.997246
1.00447 1.00077 1.00669 0.997034
1.00346 1.00301 1.00355 0.996909
1.00572 1.00848 1 0.997268
1.01402 1.01662 1 0.997437
1.00892 1.01178 1.00002 0.997149
1.00444 1.00733 1 0.997129
1.0015 1.00395 1 0.997552
1.00309 1.0048 1.00107 0.997225
1.00397 1.00457 1.00244 0.996975
0.998176 1 1 0.998175
0.998278 1.00017 1.00002 0.998083
0.99844 1.00023 1.00032 0.997895
0.999772 1 1.00117 0.998606
0.99962 1 1.00129 0.998335
0.999363 1 1.0011 0.99827
0.999685 1 1.00029 0.999398
1.00027 1 1.00142 0.998846
1.00077 1 1.00215 0.998625
0.999998 1 1 0.999998
0.999631 1 1 0.999631
0.999451 1 1.00035 0.999096
1 1 1 1
1 1 1 1
0.999753 1 1 0.999753
1 1 1 1
1 1 1 1
1 1 1 1
0.998917 1 1 0.998917
0.9992 1 1 0.9992
0.998988 1 1 0.998988
0.999694 1 1 0.999694
0.999261 1 1 0.999261
0.999997 1 1 0.999997
0.999737 1 1 0.999737
0.99931 1 1 0.99931
1 1 1 1
1 1 1 1
0.99979 1 1 0.99979
1 1 1 1
1 1 1 1
1 1 1 1
0.946461 0.968914 0.985662 0.991036
0.929488 0.95532 0.97838 0.994461
0.942806 0.968371 0.97765 0.995858
0.998818 1 1 0.998818
0.999027 1 1 0.999027
0.998865 1 1 0.998865
0.998893 1 1 0.998893
0.998833 1 1 0.998833
0.998881 1 1.00009 0.998793
0.999599 1 1.00091 0.998691
0.999709 1 1.00095 0.998764
0.998917 1 1 0.998917
0.998816 1 1 0.998816
0.99942 1 1.00057 0.998854
1.0001 1 1.00112 0.998988
0.855651 0.904133 0.965182 0.980517
0.947692 0.967849 0.99254 0.986532
0.937317 0.960426 0.985767 0.99003
0.856737 0.932933 0.93646 0.980635
0.90553 0.94737 0.973143 0.982215
0.962178 0.96157 1.01767 0.983257
0.944329 0.959372 0.992371 0.991886
0.959532 0.964217 1.00101 0.99414
0.800778 0.888016 0.922583 0.97743
0.958705 0.959156 1.01656 0.98325
0.861301 0.922667 0.950342 0.982268
0.949904 0.96276 0.992045 0.994558
0.950828 0.955056 1.0104 0.985329
0.834727 0.902237 0.94198 0.982159
1.00019 1 1.0006 0.999596
1.0013 1 1.00211 0.999192
1.00234 1 1.00355 0.998801
0.984623 0.967966 1.01846 0.998774
1.01915 0.998648 1.02126 0.99928
1.00996 1 1.01096 0.999005
1.01381 0.999694 1.01479 0.999344
0.993637 0.981756 1.01352 0.998598
1.00065 0.992352 1.00939 0.998983
0.890283 0.919653 0.984578 0.983227
0.94873 0.965381 0.990896 0.99178
0.941811 0.957899 0.987324 0.995829
0.99863 0.976123 1.02385 0.99923
0.932381 0.958586 0.978583 0.99395
0.944374 0.966682 0.986456 0.990335
0.945814 0.950702 1.00993 0.985075
0.848308 0.915756 0.943591 0.981725
0.847672 0.901017 0.959089 0.980926
0.975495 0.978731 0.998399 0.998292
0.875763 0.914263 0.973455 0.98401
0.853715 0.901312 0.963859 0.982707
0.93596 0.955032 0.988476 0.991456
0.941852 0.96067 0.995232 0.985109
0.964708 0.986896 0.978452 0.999045
0.868394 0.914109 0.966306 0.983114
0.954292 0.975926 0.991931 0.985787
0.948175 0.967768 0.9884 0.991253
1.01526 0.996433 1.0196 0.999302
0.990107 1.00046 0.990819 0.99882
0.982833 1.00258 0.981987 0.998286
1.01198 1.00103 1.01269 0.998267
1.00342 1.00238 1.00339 0.997655
1.0006 1.00336 0.999428 0.997821
1.00621 1.0005 1.00856 0.997168
0.999637 1.00111 1.00127 0.997259
1.01045 1.01272 1 0.997767
1.00381 1.00395 1.00294 0.996929
1.00542 1.00816 1 0.997275
1.01454 1.01675 1 0.99782
1.01957 1.0218 1 0.997814
1.01564 1.01832 1 0.997374
1.01355 1.01612 1 0.997463
1.00761 1.01027 1 0.997364
1.00812 1.01096 1 0.99719
1.00404 1.00692 1 0.997145
0.999342 1.00143 1 0.997913
1.00164 1.00393 1.00014 0.997573
1.00163 1.00298 1.00148 0.997179
0.998417 1 1 0.998417
0.998449 1.00028 1 0.998169
0.998146 1 1 0.998146
0.999342 1 1.00022 0.999125
0.999592 1 1.00099 0.998608
0.999801 1 1.00145 0.998358
0.999979 1 1 0.999979
0.999623 1 1.00023 0.999395
1.00004 1 1.0012 0.998847
1 1 1 1
0.999994 1 1 0.999994
0.999624 1 1 0.999624
1 1 1 1
1 1 1 1
1 1 1 1
0.998883 1 1 0.998883
0.998917 1 1 0.998917
0.999119 1 1 0.999119
0.999654 1 1 0.999654
0.9992 1 1 0.9992
0.998976 1 1 0.998976
0.999993 1 1 0.999993
0.999697 1 1 0.999697
0.99926 1 1 0.99926
1 1 1 1
0.999998 1 1 0.999998
0.99974 1 1 0.99974
1 1 1 1
1 1 1 1
1 1 1 1
0.880416 0.911185 0.983441 0.982501
0.945299 0.967022 0.98637 0.991044
0.930156 0.955729 0.978652 0.994472
0.998804 1 1 0.998804
0.998745 1 1 0.998745
0.999237 1 1.00052 0.99872
0.998907 1 1 0.998907
0.998849 1 1 0.998849
0.998896 1 1.0001 0.998797
0.999635 1 1.00088 0.99876
0.999577 1 1.00088 0.998694
0.999973 1 1.00137 0.998605
0.998827 1 0.999756 0.99907
0.999164 1 1.00032 0.998845
0.999583 1 1.00061 0.998972
0.850684 0.898667 0.963784 0.982177
0.849864 0.897575 0.966427 0.979737
0.952836 0.972393 0.993335 0.986462
0.785384 0.874128 0.920821 0.975735
0.862471 0.920314 0.9545 0.981821
0.960141 0.961785 1.01289 0.985584
0.96032 0.961732 1.00639 0.992193
0.94868 0.961688 0.993583 0.992844
0.835835 0.895205 0.951572 0.981197
0.941582 0.951489 1.00477 0.984893
0.944536 0.963156 0.987137 0.993446
0.940341 0.962602 0.992353 0.984402
1.00723 1 1.00819 0.999052
0.999861 1 1.00032 0.999537
1.00053 1 1.00134 0.999195
0.992229 0.981725 1.01207 0.998644
1.01287 1 1.01353 0.999344
1.0013 0.993312 1.00917 0.998879
0.992237 0.996445 0.997638 0.998135
0.867544 0.92626 0.952279 0.983545
0.894099 0.91989 0.987743 0.984024
0.947973 0.964334 0.990193 0.992771
0.975362 0.98041 0.996462 0.998384
0.935261 0.954433 0.987568 0.992249
0.876141 0.915576 0.972394 0.984095
0.939188 0.957685 0.996538 0.984092
0.856719 0.906896 0.961521 0.982476
0.96799 0.987623 0.981552 0.998542
0.873139 0.920424 0.96516 0.98287
0.954716 0.977067 0.992649 0.984361
0.954228 0.969267 0.991387 0.993037
0.978967 0.994486 0.985504 0.998875
0.955538 0.981215 0.988755 0.984907
0.965002 0.985396 0.984987 0.99423
0.985611 1 0.986676 0.998921
0.983621 1.00331 0.98208 0.998263
0.983871 1.00632 0.979484 0.998167
1.0039 1.0027 1.00356 0.997647
0.999915 1.00346 0.998648 0.997816
1.01381 1.01844 0.997191 0.998261
0.999518 1.00064 1.00162 0.997272
1.01026 1.01253 1 0.997757
1.01956 1.02166 0.99972 0.99823
1.00493 1.00767 1 0.997282
1.01392 1.01613 1 0.99782
1.01993 1.02181 1 0.998158
1.01756 1.01956 1 0.998045
1.01977 1.02196 1 0.997858
1.01925 1.02159 1 0.997709
1.01489 1.01747 1 0.997456
1.01632 1.01899 1 0.997379
1.01311 1.01566 1 0.997489
1.00329 1.00567 1 0.997633
1.00811 1.01073 1 0.997399
1.00733 1.01013 1 0.997231
0.998419 1.00021 1 0.998211
1.00011 1.00221 1 0.997906
1.00186 1.0041 1.00017 0.997594
0.998923 1 1 0.998923
0.998416 1 1 0.998416
0.998814 1.00065 1 0.998164
0.999909 1 1 0.999909
0.99939 1 1.00027 0.999125
0.999488 1 1.00088 0.99861
1 1 1 1
0.999964 1 1 0.999964
0.999634 1 1.00024 0.999391
1 1 1 1
0.999991 1 1 0.999991
1 1 1 1
0.998816 1 1 0.998816
0.998874 1 1 0.998874
0.99903 1 1 0.99903
0.998917 1 1 0.998917
0.999118 1 1 0.999118
0.999591 1 1 0.999591
0.999988 1 1 0.999988
0.999657 1 1 0.999657
0.999201 1 1 0.999201
1 1 1 1
0.999994 1 1 0.999994
0.999699 1 1 0.999699
1 1 1 1
0.999999 1 1 0.999999
1 1 1 1
0.876197 0.918193 0.970807 0.982958
0.882805 0.915316 0.981925 0.982235
0.943736 0.964809 0.986992 0.991051
0.998789 1 1 0.998789
0.999259 1 1.00058 0.998684
0.998783 1 1 0.998783
0.99849 1 1 0.99849
0.999158 1 1.00051 0.998647
0.999657 1 1.0009 0.998756
0.999472 1 1.00078 0.998697
0.999835 1 1.0012 0.998635
0.998488 1 1 0.998488
0.997987 1.00012 0.998981 0.998882
0.99868 1.00034 1.00026 0.998088
0.999415 1 1.0003 0.99912
0.999458 1 1.0005 0.998955
0.949656 0.975972 0.988466 0.98439
0.853529 0.897481 0.968228 0.982235
0.850663 0.900488 0.964275 0.979668
0.834474 0.8961 0.949018 0.981255
0.946257 0.954296 1.00845 0.983269
0.95116 0.960153 0.995919 0.994693
0.945599 0.962431 0.987842 0.994603
0.946062 0.964109 0.995485 0.985732
0.96664 0.986557 0.986113 0.99361
1.00091 1.00132 1.00134 0.998249
1.00568 1 1.00666 0.99903
0.999478 1 1 0.999478
1.00188 0.995084 1.00804 0.998793
0.997228 0.999953 0.999234 0.998039
0.936497 0.973956 0.975528 0.985661
0.876329 0.925634 0.96281 0.983303
0.899019 0.920512 0.991692 0.984833
0.971344 0.988681 0.984416 0.998018
0.949332 0.964598 0.992755 0.991356
0.873948 0.918128 0.968669 0.98267
0.953589 0.973858 0.993487 0.985606
0.979188 0.994625 0.98557 0.998893
0.95816 0.984528 0.986934 0.986102
0.966105 0.985532 0.987765 0.992431
0.997633 1.00476 0.994557 0.998339
0.980135 0.996087 0.98792 0.996017
0.984587 1.00423 0.982161 0.998246
0.985565 1.00588 0.98165 0.998119
1.0049 1.02542 0.981665 0.998284
0.999505 1.00358 0.998123 0.997811
1.01314 1.01794 0.997037 0.998248
1.02047 1.02783 0.994394 0.998442
1.01022 1.0125 1 0.997748
1.01938 1.02181 0.999405 0.998214
1.01914 1.02212 0.998728 0.998348
1.0135 1.01571 1 0.997819
1.02018 1.02214 0.999943 0.998142
1.01835 1.02021 1 0.998181
1.01825 1.0202 1 0.998088
1.01748 1.01963 1 0.997892
1.01996 1.0221 1 0.997903
1.0191 1.02145 1 0.997703
1.01763 1.02007 1 0.997612
1.00941 1.01187 1 0.997574
1.0147 1.0173 1 0.997447
1.01695 1.01962 1 0.997384
0.999407 1.0014 1 0.998007
1.00342 1.00577 1 0.997655
1.00854 1.01113 1 0.997435
0.998759 1 1 0.998759
0.998661 1.00045 1 0.998206
1.00061 1.00272 1 0.997899
0.99979 1 1 0.99979
0.998924 1 1 0.998924
0.998415 1 1 0.998415
1 1 1 1
0.999887 1 1 0.999887
0.999366 1 1.00024 0.999125
1 1 1 1
0.999949 1 1 0.999949
1 1 1 1
0.998554 1.00005 1 0.998504
0.998815 1 1 0.998815
0.9989 1 1 0.9989
0.998865 1 1 0.998865
0.999009 1 1 0.999009
0.999472 1 1 0.999472
0.999118 1 1 0.999118
0.999593 1 1 0.999593
0.999982 1 1 0.999982
1 1 1 1
0.999989 1 1 0.999989
0.999659 1 1 0.999659
1 1 1 1
0.999996 1 1 0.999996
1 1 1 1
0.955274 0.981728 0.986476 0.986394
0.868672 0.920233 0.959882 0.983423
0.89399 0.921839 0.987516 0.98205
0.999265 1 1.00062 0.998647
0.998821 1 1 0.998821
0.999082 1 1.00043 0.998656
0.998506 1 1 0.998506
1.00047 1.0023 1.00002 0.99815
0.998542 1 1 0.998542
0.999686 1 1.00102 0.998664
0.998392 1 1 0.998392
0.998706 1.00006 0.999796 0.998848
0.998329 1.00001 1 0.998321
0.999578 1.0023 0.999028 0.998253
0.998229 1.00129 0.999264 0.997679
0.998802 1.00081 0.999793 0.998203
1.00015 1 1.00098 0.99917
0.964935 0.98728 0.983484 0.99378
0.952103 0.97702 0.989151 0.985186
0.848299 0.898177 0.961354 0.982435
0.958487 0.970632 1.00345 0.984094
0.944936 0.961732 0.987025 0.995453
0.970698 0.987527 0.987174 0.995729
0.993475 1.00379 0.991458 0.998254
0.998668 1.00067 0.999699 0.9983
1.00463 1 1.00563 0.999009
0.997427 1.00112 0.998382 0.997925
0.967173 0.982294 0.990778 0.99377
0.948575 0.977245 0.983368 0.98708
0.867759 0.920945 0.958015 0.983544
0.980116 0.99566 0.985462 0.998911
0.97056 0.987569 0.988953 0.993755
0.961768 0.984984 0.988981 0.98731
0.991528 1.00394 0.989269 0.998351
0.978057 0.994122 0.988402 0.995384
0.998782 1.02299 0.97819 0.998109
1.00569 1.01503 0.993001 0.997785
0.986929 1.00526 0.983661 0.998068
1.00496 1.02496 0.982178 0.998275
1.00847 1.03193 0.978916 0.998315
1.01266 1.01773 0.996778 0.998236
1.02018 1.02761 0.994328 0.998428
1.01468 1.02276 0.993795 0.998292
1.01906 1.02187 0.999059 0.998197
1.01869 1.02184 0.998583 0.998333
1.01911 1.02216 0.998865 0.998142
1.02038 1.02242 0.999876 0.998126
1.01788 1.01981 0.999938 0.998178
1.01758 1.01969 1 0.997928
1.01897 1.02088 1 0.99813
1.01735 1.01946 1 0.997925
1.01809 1.02045 1 0.997694
1.01901 1.02136 1 0.997696
1.01751 1.01995 1 0.997604
1.01282 1.0152 1 0.997653
1.00141 1.00356 1 0.997855
1.00909 1.01152 1 0.997593
1.01454 1.01714 1 0.997438
0.998587 1 1 0.998587
1.00005 1.00205 1 0.998007
1.00376 1.0061 1 0.997676
0.999656 1 1 0.999656
0.998757 1 1 0.998757
0.99894 1.00074 1 0.998202
1 1 1 1
0.999775 1 1 0.999775
0.998924 1 1 0.998924
1 1 1 1
0.999866 1 1 0.999866
1 1 1 1
1.00019 1.002 1 0.9982
0.998547 1.00003 1 0.998516
0.998686 1 1 0.998686
0.998814 1 1 0.998814
0.99888 1 1 0.99888
0.999305 1 1 0.999305
0.998989 1 1 0.998989
0.999473 1 1 0.999473
0.999967 1 1 0.999967
0.999595 1 1 0.999595
0.999984 1 1 0.999984
1 1 1 1
1 1 1 1
0.999991 1 1 0.999991
1 1 1 1
0.96648 0.985193 0.986794 0.994135
0.951435 0.982206 0.983049 0.985374
0.86239 0.916019 0.95769 0.983047
1.00551 1.00763 1.00007 0.997827
0.999017 1 1.00035 0.998666
0.998522 1 1 0.998522
0.998514 1 1 0.998514
1.00038 1.00212 1.00012 0.99814
0.999992 1.00157 1 0.998421
0.998296 1 1 0.998296
0.999311 1 1.0005 0.998814
0.998486 1.00013 0.999994 0.998363
0.99868 1.00159 0.998868 0.998228
1.00117 1.00352 1 0.997659
1.00303 1.0058 0.99962 0.997629
0.999315 1.00195 0.999732 0.997633
0.999067 1.00134 0.999414 0.998319
0.995649 1.0062 0.990763 0.99874
0.964502 0.987681 0.983495 0.99292
0.956061 0.978366 0.990812 0.986264
0.965015 0.983682 0.986775 0.994171
0.99761 1.00586 0.993196 0.998593
0.999284 1.0002 1.00073 0.998351
0.998586 1.00668 0.994082 0.997863
0.963149 0.976085 0.991697 0.995008
0.942102 0.976814 0.978404 0.985752
0.98497 1.00235 0.984277 0.998358
0.981264 0.995192 0.991354 0.994604
1.00005 1.02385 0.978574 0.998141
1.00464 1.01349 0.993338 0.997917
1.00666 1.02999 0.979203 0.998105
1.02067 1.02621 0.99658 0.998016
1.00487 1.02423 0.982799 0.998267
1.01089 1.0331 0.980152 0.998314
1.00775 1.02575 0.984274 0.998156
1.01963 1.02711 0.994289 0.998414
1.01528 1.02303 0.994129 0.998289
1.01882 1.02404 0.996867 0.998031
1.01832 1.02157 0.998491 0.998317
1.01903 1.02184 0.999089 0.998156
1.0194 1.0216 1 0.997849
1.0174 1.01937 0.999885 0.998175
1.01741 1.01953 1 0.997929
1.01994 1.0223 1 0.99769
1.01719 1.01927 1 0.997959
1.01811 1.02044 1 0.997715
1.01459 1.017 1 0.997626
1.01735 1.0198 1 0.997595
1.01266 1.01506 1 0.997633
1.00373 1.00591 1 0.997838
0.998462 1 1 0.998462
1.0018 1.00392 1 0.99788
1.00871 1.01112 1 0.997613
0.999529 1 1 0.999529
0.998587 1 1 0.998587
1.00064 1.00264 1 0.998008
1 1 1 1
0.999643 1 1 0.999643
0.998756 1 1 0.998756
1 1 1 1
0.999759 1 1 0.999759
1 1 1 1
1.00186 1.00398 1 0.997893
0.99971 1.0015 1 0.998205
0.998454 1.00002 1 0.998439
0.998535 1 1.00001 0.998529
0.998693 1 1 0.998693
0.999121 1 1 0.999121
0.99886 1 1 0.99886
0.999305 1 1 0.999305
0.999932 1 1 0.999932
0.999475 1 1 0.999475
0.999972 1 1 0.999972
1 1 1 1
0.999986 1 1 0.999986
1 1 1 1
1 1 1 1
1.00007 1.01052 0.990944 0.998707
0.961171 0.983569 0.984658 0.992454
0.951026 0.975803 0.98777 0.986675
1.00578 1.00776 1.00001 0.998022
1.01041 1.0128 1 0.997636
1.00483 1.00684 1.00013 0.997866
0.998486 1 1 0.998486
1.00029 1.00192 1.00024 0.998128
1.0006 1.00223 1 0.998365
1.00765 1.00993 1 0.997747
0.998593 1.00023 0.999958 0.998404
0.997711 1.00077 0.998739 0.998203
1.0018 1.00411 0.999983 0.997718
1.00988 1.01252 1 0.997396
1.01094 1.01744 0.995657 0.997946
1.00307 1.00605 0.999432 0.997604
1.00008 1.00262 0.999869 0.997587
0.999683 1.00851 0.992389 0.998854
0.966391 0.98783 0.986277 0.991908
0.998157 1.00714 0.992133 0.99894
1.01388 1.02149 0.993977 0.998563
0.997424 1.00539 0.994119 0.997944
0.962687 0.98013 0.9888 0.993329
1.00187 1.02495 0.979272 0.998173
1.00275 1.01219 0.992605 0.998055
1.00575 1.02995 0.978297 0.998167
1.02258 1.0284 0.996312 0.998025
1.01797 1.03065 0.989651 0.998028
1.0328 1.0392 0.995699 0.998136
1.01343 1.03475 0.981052 0.998313
1.00882 1.02538 0.98566 0.99816
1.0214 1.0301 0.993596 0.997939
1.01591 1.02333 0.994447 0.998286
1.019 1.02363 0.997453 0.998028
1.02301 1.02569 0.999583 0.997801
1.0189 1.02148 0.999299 0.998169
1.01961 1.02181 1 0.997847
1.02256 1.02499 1 0.997625
1.01724 1.01935 1 0.997929
1.01982 1.02218 1 0.997691
1.01673 1.0192 1 0.997576
1.01813 1.02044 1 0.997735
1.01442 1.01682 1 0.997631
1.00473 1.00697 1 0.997782
1.01253 1.01496 1 0.997612
1.00374 1.00593 1 0.997826
0.998434 1.00005 1 0.998388
0.999451 1 1 0.999451
0.998462 1 1 0.998462
1.00221 1.00432 1 0.997906
1 1 1 1
0.999518 1 1 0.999518
0.998586 1 1 0.998586
1 1 1 1
0.999631 1 1 0.999631
1 1 1 1
1.0036 1.00596 1 0.997657
1.00175 1.00389 1 0.997866
0.999312 1.00116 1 0.998155
0.999226 1.00102 1 0.99821
0.998444 1 1 0.998444
0.998918 1 1 0.998918
0.998701 1 1 0.998701
0.999142 1 1.00002 0.999122
0.999858 1 1 0.999858
0.999305 1 1 0.999305
0.999944 1 1 0.999944
1 1 1 1
0.999977 1 1 0.999977
1 1 1 1
1 1 1 1
1.01103 1.02207 0.990802 0.998385
0.996941 1.00952 0.989161 0.998361
0.958828 0.984091 0.980935 0.993265
1.01341 1.01576 1 0.997693
1.00525 1.00709 1 0.998182
1.02034 1.02285 1 0.997541
1.01048 1.01289 1 0.997622
1.00423 1.00616 1.00018 0.997908
1.01983 1.02248 1 0.997413
1.00122 1.00291 1 0.998311
1.00702 1.00935 1 0.997689
1.02516 1.02827 0.999398 0.997575
1.00231 1.00455 0.999991 0.997778
1.01084 1.01351 1 0.997365
1.01091 1.01692 0.996119 0.99796
1.00276 1.00565 0.999552 0.997578
1.00305 1.01038 0.993776 0.99897
1.02733 1.03521 0.994164 0.998211
1.01366 1.02137 0.993872 0.998566
0.997188 1.00409 0.995095 0.998021
1.00506 1.02953 0.97796 0.99823
1.02329 1.02967 0.995756 0.998035
1.0169 1.03095 0.988302 0.998043
1.03289 1.04016 0.994868 0.998139
1.03094 1.03948 0.993745 0.998035
1.00971 1.02484 0.987052 0.998163
1.02127 1.02965 0.993894 0.997946
1.02642 1.03179 0.996987 0.997808
1.0192 1.02325 0.998018 0.998025
1.02273 1.02527 0.999732 0.997784
1.02469 1.02719 1 0.997563
1.01992 1.02212 1 0.997846
1.02235 1.02478 1 0.997624
1.01963 1.02218 1 0.997503
1.01973 1.02209 1 0.997691
1.01677 1.01924 1 0.997578
1.00619 1.00852 1 0.997695
1.01424 1.01665 1 0.997637
1.00493 1.00716 1 0.997785
0.998528 1.00022 1 0.998312
1.00373 1.00593 1 0.997815
0.998458 1.00007 1 0.998386
0.999506 1 1 0.999506
0.999853 1 1 0.999853
0.999481 1 1 0.999481
0.998461 1 1 0.998461
1 1 1 1
0.999507 1 1 0.999507
1 1 1 1
1.02628 1.02876 1 0.997586
1.01253 1.01495 1 0.997612
1.0042 1.00657 1 0.997642
1.00208 1.00412 1 0.997965
1.00154 1.00371 1 0.997839
0.998902 1.00074 1 0.998159
0.998714 1 1 0.998714
0.998449 1 1 0.998449
0.998921 1 1 0.998921
0.999732 1 1 0.999732
0.999123 1 1 0.999123
0.999876 1 1 0.999876
1 1 1 1
0.999955 1 1 0.999955
1 1 1 1
1 1 1 1
1.02843 1.03423 0.99642 0.997964
1.01444 1.02523 0.990994 0.99847
0.994819 1.00962 0.987302 0.998016
1.02254 1.02514 1 0.997465
1.01267 1.01494 1 0.997763
1.00464 1.00631 1 0.998339
1.02015 1.02264 1 0.997561
1.01056 1.01298 1 0.997608
1.02935 1.03192 0.999946 0.997558
1.01785 1.02053 1 0.997374
1.00652 1.00891 1 0.99763
1.02449 1.02744 0.999552 0.997569
1.01266 1.01537 1 0.997333
1.01287 1.01856 0.996423 0.997979
1.03378 1.04034 0.995564 0.998124
1.02922 1.03649 0.994752 0.998222
1.01435 1.02135 0.994568 0.99857
1.01667 1.03208 0.986989 0.998058
1.03377 1.04155 0.994372 0.998141
1.03105 1.04022 0.99312 0.998048
1.03007 1.03567 0.996713 0.997872
1.02097 1.02909 0.994152 0.997954
1.02629 1.03117 0.997458 0.997799
1.02707 1.02958 1 0.997563
1.0224 1.02481 0.999881 0.997766
1.02513 1.02764 1 0.997563
1.02264 1.02527 1 0.99744
1.02209 1.02453 1 0.997623
1.01969 1.02224 1 0.997503
1.00785 1.01027 1 0.9976
1.01681 1.01928 1 0.99758
1.00643 1.00875 1 0.997696
0.998753 1.00054 1 0.998214
1.00514 1.00737 1 0.997787
0.998605 1.0003 1 0.99831
0.999504 1 1 0.999504
0.998482 1.0001 1 0.998384
0.999501 1 1 0.999501
0.999862 1 1 0.999862
0.999928 1 1 0.999928
0.999512 1 1 0.999512
1 1 1 1
1.02607 1.02868 1 0.997467
1.01762 1.02003 1 0.997634
1.02617 1.02855 1 0.997686
1.00459 1.00677 1 0.99784
1.01379 1.01623 1 0.997604
1.00488 1.00727 1 0.997627
1.0011 1.00314 1 0.997964
0.998567 1.00003 1 0.998537
0.99853 1.00037 1 0.998163
0.998716 1 1 0.998716
0.999586 1 1 0.999586
0.998966 1 1.00004 0.998925
0.99975 1 1 0.99975
1 1 1 1
0.999894 1 1 0.999894
1 1 1 1
1 1 1 1
1.03226 1.03612 0.998432 0.997846
1.02838 1.03415 0.996452 0.997961
1.01586 1.02698 0.990614 0.998549
1.02921 1.0318 1 0.997492
1.02167 1.02426 1 0.997468
1.01206 1.01425 1 0.997834
1.01984 1.02231 1 0.997581
1.02915 1.03177 0.99993 0.997538
1.01589 1.0186 1 0.997336
1.02246 1.02532 0.999656 0.997563
1.03283 1.03758 0.997485 0.997932
1.03325 1.03956 0.995842 0.998086
1.03123 1.03807 0.995169 0.998233
1.02967 1.03353 0.998504 0.997759
1.03103 1.04082 0.992521 0.998061
1.02975 1.03545 0.996637 0.99786
1.02874 1.03136 0.999815 0.997645
1.02622 1.0306 0.997956 0.997791
1.028 1.0305 1 0.997566
1.02427 1.02694 1 0.997409
1.02555 1.02805 1 0.997564
1.02237 1.02499 1 0.997441
1.00958 1.01209 1 0.997521
1.01971 1.02227 1 0.997504
1.00812 1.01055 1 0.9976
0.999054 1.00094 1 0.998114
1.00665 1.00897 1 0.997698
0.99886 1.00065 1 0.998212
0.999482 1 1 0.999482
0.998684 1.00038 1 0.998308
0.999497 1 1 0.999497
0.999865 1 1 0.999865
0.999499 1 1 0.999499
0.999864 1 1 0.999864
1 1 1 1
1.02674 1.02945 1 0.997369
1.01949 1.02207 1 0.997479
1.02666 1.02925 1 0.997486
1.00572 1.00792 1 0.997816
1.01774 1.02015 1 0.997639
1.02613 1.02841 1 0.997784
0.998687 1.0003 1 0.998383
1.00413 1.00631 1 0.997835
1.01517 1.01762 1 0.997596
1.00002 1.00207 1 0.997962
0.998551 1.00001 1 0.998538
0.999475 1 1 0.999475
0.998717 1 1 0.998717
0.9996 1 1 0.9996
1 1 1 1
0.999768 1 1 0.999768
1 1 1 1
1 1 1 1
1.03223 1.03504 0.999584 0.997704
1.03219 1.03638 0.998118 0.997831
1.02892 1.03456 0.996582 0.997958
1.02869 1.03127 1 0.997499
1.02074 1.02333 1 0.997471
1.02875 1.0314 0.999913 0.997518
1.03034 1.03322 0.999445 0.997763
1.03287 1.0376 0.997515 0.997925
1.03249 1.03854 0.996114 0.998048
1.03035 1.03411 0.998586 0.997778
1.02848 1.03101 0.999949 0.997596
1.02943 1.03523 0.996536 0.997848
1.02907 1.03163 0.999902 0.997613
1.02439 1.027 1 0.997451
1.02888 1.03139 0.999997 0.997568
1.02396 1.02662 1 0.997412
1.01107 1.01364 1 0.99746
1.02221 1.02483 1 0.997442
1.00999 1.0125 1 0.997522
0.999357 1.00132 1 0.998036
1.00845 1.01088 1 0.997601
0.99917 1.00106 1 0.998113
0.999438 1 1 0.999438
0.998972 1.00076 1 0.998211
0.999471 1 1 0.999471
0.999852 1 1 0.999852
0.999491 1 1 0.999491
0.999872 1 1 0.999872
0.999864 1 1 0.999864
1.02844 1.03097 1 0.99755
1.02189 1.02461 1 0.997348
1.02708 1.02977 1 0.997383
1.00804 1.0104 1 0.997662
1.01919 1.02176 1 0.997483
1.02719 1.02976 1 0.997505
0.998924 1.00066 1 0.998268
1.00569 1.00794 1 0.997771
1.01774 1.02014 1 0.997644
0.999415 1 1 0.999415
0.998631 1.00025 1 0.998386
1.00368 1.00586 1 0.99783
0.99854 1 1 0.99854
0.999485 1 1 0.999485
1 1 1 1
0.999613 1 1 0.999613
1 1 1 1
1 1 1 1
1.02874 1.03132 0.999837 0.997669
1.03145 1.03447 0.999373 0.997701
1.03228 1.03682 0.997802 0.997816
1.02816 1.03073 1 0.997507
1.02832 1.03084 1 0.99756
1.031 1.03416 0.99917 0.997772
1.03284 1.03754 0.99755 0.997917
1.03105 1.03471 0.998666 0.997796
1.02783 1.03056 0.99974 0.997606
1.02384 1.02644 1 0.997462
1.0295 1.03199 0.999999 0.997581
1.02412 1.02675 1 0.997434
1.01192 1.01453 1 0.997434
1.02362 1.02627 1 0.997415
1.01131 1.01389 1 0.997462
0.999479 1.00151 1 0.997968
1.0103 1.0128 1 0.997522
0.999407 1.00137 1 0.998036
0.999308 1 1 0.999308
0.999265 1.00115 1 0.998113
0.999391 1 1 0.999391
1 1 1 1
0.999462 1 1 0.999462
0.999863 1 1 0.999863
0.999876 1 1 0.999876
1.02687 1.02934 1 0.997605
1.02293 1.02558 1 0.997415
1.02805 1.03058 1 0.997546
1.01069 1.01325 1 0.99748
1.02192 1.02461 1 0.99737
1.02751 1.03019 1 0.997397
0.999293 1.00122 1 0.998079
1.00811 1.01047 1 0.997661
1.01896 1.02153 1 0.997487
0.999389 1 1 0.999389
0.998802 1.00058 1 0.998226
1.0057 1.00799 1 0.997726
1 1 1 1
0.999425 1 1 0.999425
0.998568 1.00018 1 0.998388
0.999496 1 1 0.999496
1 1 1 1
1 1 1 1
1.02702 1.02953 1 0.997571
1.02909 1.03164 0.999857 0.997677
1.03064 1.03388 0.999162 0.997699
1.02496 1.02762 1 0.997409
1.02737 1.02988 1 0.997566
1.03163 1.03507 0.998892 0.997782
1.02717 1.0301 0.999532 0.997617
1.02386 1.02647 1 0.997462
1.01181 1.01437 1 0.997485
1.02378 1.02643 1 0.997418
1.01191 1.01448 1 0.997463
0.99949 1.00166 1 0.997838
1.01162 1.01419 1 0.997464
0.99953 1.00156 1 0.997968
0.999257 1 1 0.999257
0.999489 1.00146 1 0.998035
0.999306 1 1 0.999306
1 1 1 1
0.999337 1 1 0.999337
0.99992 1 1 0.99992
0.999872 1 1 0.999872
1.02455 1.02705 1 0.997567
1.02321 1.02581 1 0.99746
1.0266 1.02906 1 0.997608
1.01173 1.01428 1 0.997483
1.02342 1.02608 1 0.997407
1.02766 1.0302 1 0.997543
0.99988 1.00191 1 0.997972
1.01064 1.01315 1 0.997523
1.02189 1.02456 1 0.997391
0.999362 1 1 0.999362
0.999269 1.00121 1 0.998065
1.00817 1.01053 1 0.99766
1 1 1 1
0.999398 1 1 0.999398
0.998683 1.0005 1 0.998185
1 1 1 1
0.999436 1 1 0.999436
1 1 1 1
1.02526 1.02788 1 0.997451
1.02658 1.02909 1 0.997562
1.02951 1.03203 0.99988 0.997685
1.01102 1.01358 1 0.997471
1.02497 1.02761 1 0.997425
1.02648 1.02898 1 0.997573
1.0239 1.0265 1 0.997463
1.01185 1.0144 1 0.997485
0.999294 1.0015 1 0.997799
1.0119 1.01445 1 0.997492
0.999502 1.00163 1 0.997873
0.999191 1 1 0.999191
0.999545 1.00158 1 0.997969
0.999253 1 1 0.999253
1 1 1 1
0.999303 1 1 0.999303
1 1 1 1
0.999856 1 1 0.999856
1.02355 1.02614 1 0.997481
1.02473 1.02721 1 0.997579
1.01135 1.01389 1 0.997494
1.02324 1.02585 1 0.997459
1.02632 1.02878 1 0.997611
0.999925 1.00194 1 0.997993
1.01159 1.01414 1 0.99748
1.02391 1.02658 1 0.997399
0.999318 1 1 0.999318
0.999921 1.00192 1 0.998001
1.01058 1.01304 1 0.997567
1 1 1 1
0.999368 1 1 0.999368
0.999245 1.0012 1 0.998051
1 1 1 1
0.999407 1 1 0.999407
1 1 1 1
1.01056 1.01308 1 0.997508
1.02516 1.02779 1 0.997445
1.02604 1.02855 1 0.997554
0.998719 1.00092 1 0.9978
1.01106 1.01362 1 0.997471
1.02495 1.02758 1 0.997441
1.01189 1.01444 1 0.997484
0.999294 1.0015 1 0.997801
0.999143 1 1 0.999143
0.99953 1.00163 1 0.997908
0.999188 1 1 0.999188
1 1 1 1
0.99925 1 1 0.99925
1 1 1 1
1 1 1 1
1.01075 1.01329 1 0.997491
1.02319 1.02576 1 0.997494
1.02491 1.02738 1 0.99759
0.999492 1.00153 1 0.99797
1.0114 1.01395 1 0.997491
1.02323 1.02584 1 0.997459
0.99927 1 1 0.99927
0.999981 1.00199 1 0.997991
1.01148 1.01404 1 0.997477
1 1 1 1
0.999322 1 1 0.999322
0.999968 1.00194 1 0.99803
1 1 1 1
0.999374 1 1 0.999374
1 1 1 1
0.998444 1.00056 1 0.99789
1.01051 1.01307 1 0.997472
1.02509 1.02772 1 0.997439
0.99914 1 1 0.99914
0.998738 1.00094 1 0.997799
1.0111 1.01366 1 0.997471
0.999293 1.00149 1 0.997804
0.999142 1 1 0.999142
1 1 1 1
0.999185 1 1 0.999185
1 1 1 1
1 1 1 1
0.998821 1.00089 1 0.997935
1.01059 1.01314 1 0.997488
1.02287 1.02542 1 0.997506
0.99934 1 1 0.99934
0.99965 1.00169 1 0.997968
1.01146 1.01401 1 0.997489
1 1 1 1
0.999271 1 1 0.999271
1.00002 1.00203 1 0.997989
1 1 1 1
0.999325 1 1 0.999325
1 1 1 1
0.999141 1 1 0.999141
0.998501 1.00064 1 0.997859
1.01046 1.01306 1 0.997435
1 1 1 1
0.999139 1 1 0.999139
0.998755 1.00096 1 0.997797
0.999141 1 1 0.999141
1 1 1 1
1 1 1 1
0.999292 1 1 0.999292
0.999025 1.00109 1 0.997935
1.01042 1.01296 1 0.997485
1 1 1 1
0.99923 1 1 0.99923
0.999819 1.00186 1 0.997966
1 1 1 1
0.999273 1 1 0.999273
1 1 1 1
0.999775 1 1 0.999775
0.999216 1 1 0.999216
0.998554 1.00073 1 0.997828
1 1 1 1
0.99914 1 1 0.99914
1 1 1 1
0.999792 1 1 0.999792
0.999245 1 1 0.999245
0.999234 1.0013 1 0.997935
0.999899 1 1 0.999899
0.999229 1 1 0.999229
1 1 1 1
1 1 1 1
0.999161 1 1 0.999161
1 1 1 1
0.999893 1 1 0.999893
0.999193 1 1 0.999193
1 1 1 1
1 1 1 1
1 1 1 1

VECTORS lamdaE float
1.00025 1.00015 0.995015
1.00008 1.00043 0.99762
0.99993 1.00035 0.995203
1.00053 0.999932 0.994819
1.00036 0.99995 0.995058
1.00021 1.00031 0.994884
1.00151 1.00048 0.992186
1.0001 1.00033 0.997623
0.999997 1.00022 0.997908
0.999592 1.00072 0.997958
1.00008 1.00034 0.995075
1.00132 1.00122 0.991178
1.00037 1.00001 0.994882
1.00009 0.999993 0.995126
0.999645 1.00057 0.995364
1.00029 0.999909 0.995053
0.999871 1.00061 0.995045
1.0001 1.00002 0.995259
1.00167 1.00033 0.992109
1.00036 1 0.997539
1.00054 0.999991 0.994719
1.00046 0.999879 0.994985
1.00187 0.999996 0.992067
1.00171 1.00011 0.992231
1.00022 1.00028 0.994817
1.00127 1.001 0.992068
1.00417 1.0003 0.987884
1.0001 1.00028 0.997648
1.00015 1.00011 0.996433
0.999834 1.00055 0.996464
1.00007 1.00011 0.997735
1.00123 1.00136 0.991175
1.00042 0.999845 0.994901
1.00014 1.00037 0.994971
1.00197 1.00018 0.992469
0.999591 0.999542 0.998378
1.00162 1.00083 0.992463
1.00098 1.00167 0.991333
1.00334 1.00174 0.987153
0.999678 0.99849 0.998718
1.00038 1.00001 0.997513
1.00025 1.00001 0.996318
1.00034 0.999994 0.997533
1.00002 1.00004 0.995196
1.00198 1.00002 0.991246
1.00017 0.999965 0.997827
1.00214 1.00011 0.99227
1.00006 0.999849 0.995287
0.999843 1.00009 0.995446
0.999552 1.00095 0.995191
1.00182 1.00016 0.992046
1.00023 1.00002 0.996345
1.0003 0.999994 0.994958
0.999875 1.00064 0.994973
1.00023 0.999864 0.995202
1.00197 0.999961 0.991969
1.00147 1.00078 0.99199
1.00183 1.00002 0.99215
1.00416 1.00032 0.987869
1.00031 1 0.997553
1.00048 1.00002 0.994783
1.00181 1 0.992783
1.00189 1.00003 0.992004
1.00182 0.999968 0.992184
1.00437 0.99995 0.987777
1.00432 0.999969 0.987697
0.999987 0.999813 0.995403
1.00082 1.0017 0.992039
1.00392 1.00076 0.98784
1.00508 1.00005 0.985779
1.00033 1.00014 0.997598
0.999947 0.999888 0.997938
1.00008 1.00039 0.997619
1.00117 1.00146 0.991166
1.00045 0.999978 0.997559
1.00021 1.00032 0.997618
1.00186 1.00013 0.99126
0.999712 0.999621 0.997122
1.00141 1.00091 0.99129
1.00086 1.00171 0.992147
1.00341 1.00164 0.987137
0.999822 0.998957 0.998411
0.999745 1.00045 0.994787
1.00205 0.999992 0.991134
1.00177 1.00041 0.99125
1.00437 1.00022 0.986853
1.00045 1.00155 0.993668
1.00375 1.00099 0.987206
1.00234 1.00339 0.987296
1.00467 1.00137 0.985192
0.999598 0.998052 0.998968
0.999595 0.998406 0.998825
1.00045 0.999994 0.997504
1.0004 1.00001 0.997511
1.00037 0.999997 0.997533
1.00022 1.00002 0.996358
1.00201 1.00001 0.991884
1.0003 0.999975 0.996331
1.00208 1.00012 0.991676
1.00036 0.999992 0.997543
1.0019 0.999942 0.991425
1.0021 1.0001 0.99236
1.00442 0.999686 0.987338
1.00211 1.00003 0.992354
1.00447 0.999892 0.987051
1.00033 1.00001 0.994939
1.00004 0.99999 0.995203
0.999521 1.00105 0.995136
0.999997 0.999826 0.995415
1.00207 0.999963 0.991871
1.00195 0.999929 0.992075
1.00167 1.00052 0.99192
1.00415 1.00034 0.987853
1.00035 0.999996 0.997547
1.00022 1.00002 0.995024
1.00193 0.999977 0.991712
1.00198 1.00001 0.991895
0.999864 1.0001 0.996612
1.00108 1.00157 0.992173
1.00192 0.999915 0.992096
1.00439 0.999927 0.987698
1.00391 1.00078 0.987848
1.00431 1.00004 0.987759
1.00506 1.00007 0.985804
1.00188 0.999971 0.99146
1.00182 1.00001 0.992097
1.00434 0.999652 0.987947
1.00438 0.999849 0.987672
1.00436 0.999871 0.987678
1.0052 0.999556 0.986354
0.999734 0.999504 0.998269
1.00515 0.999815 0.985901
1.00029 1.00212 0.99192
1.00329 1.00173 0.987228
1.00496 1.00046 0.985643
1.00523 0.99975 0.985813
0.999906 1.0014 0.993387
1.00022 1.0044 0.989974
1.00043 1.00001 0.997574
1.00016 1.00031 0.997628
1.00187 1.00011 0.991259
0.999792 0.999311 0.998309
1.0006 1.00198 0.991577
1.00136 1.00094 0.991297
1.00348 1.00155 0.987121
0.999728 0.998878 0.998526
0.999727 1.00035 0.994839
1.00206 1.00002 0.991778
1.00175 1.00044 0.991885
1.00437 1.00023 0.986848
1.0002 1.00163 0.992759
1.00376 1.00096 0.987212
1.00237 1.00333 0.987286
1.00461 1.00133 0.985187
0.999945 1.00109 0.9938
0.99975 0.999653 0.995554
1.0003 1.00343 0.99089
1.00445 1.00009 0.986857
1.0041 1.00055 0.986987
1.00513 1.00009 0.985662
1.00139 1.00413 0.988288
1.00478 1.00083 0.985455
1.00392 1.00293 0.985142
1.00504 1.00116 0.984907
0.999615 0.997736 0.999085
0.999564 0.997983 0.999018
0.999535 0.998292 0.998914
0.999819 1.00094 0.994005
0.999679 0.999134 0.998465
1.00047 0.999978 0.997531
1.0004 1.00001 0.9975
1.00199 1.00014 0.99109
1.00193 1.00001 0.991307
1.00034 1 0.997534
1.00033 0.999995 0.99754
1.00189 0.99995 0.991421
1.00203 1.00009 0.99176
1.00441 0.999684 0.987339
1.00201 1.00006 0.991105
1.00446 0.99989 0.987045
1.00187 0.999939 0.991464
1.00439 0.999624 0.987439
1.00444 0.999774 0.987205
1.00519 0.998918 0.98683
1.00448 0.999999 0.986924
1.00522 0.999319 0.986371
1.00033 0.999993 0.99754
0.999977 1.00003 0.995264
1.00194 0.99997 0.990744
1.00208 1.00001 0.991785
0.999487 1.00037 0.998104
1.00141 1.00133 0.992305
1.00203 0.999887 0.992011
1.00441 0.999889 0.98762
1.0043 1.00009 0.987821
1.00388 1.00083 0.987856
1.00504 1.00009 0.985828
1.00186 0.999957 0.991461
1.00194 1.00001 0.991983
1.00436 0.999631 0.987631
1.00441 0.99989 0.987708
0.999778 0.999593 0.998181
1.00054 1.00189 0.9925
1.00318 1.00196 0.98751
1.00437 0.999903 0.987655
1.0052 0.999417 0.986391
1.00495 1.00048 0.985603
1.00514 0.999862 0.986003
1.00522 0.999741 0.985843
0.999951 1.00139 0.993378
1.00031 1.00421 0.989993
1.00435 0.999636 0.987497
1.00437 0.99977 0.987804
1.00519 0.999073 0.98686
1.0052 0.999139 0.986592
1.00519 0.999565 0.986335
1.00523 0.998448 0.987227
1.00005 1.00179 0.992701
1.00523 0.999192 0.986393
1.00196 1.00354 0.98773
1.00471 1.00115 0.985211
1.00521 1.00045 0.985343
1.00519 0.998869 0.986858
1.00067 1.00427 0.989355
1.00017 1.00364 0.990814
1.00094 1.00471 0.988589
1.00198 1 0.991194
0.999633 0.998786 0.998648
0.999712 1.00025 0.99489
1.00162 1.00048 0.991315
1.00436 1.00024 0.986842
1.0001 1.00173 0.992675
1.00237 1.00329 0.987275
1.00376 1.00095 0.987218
1.00456 1.00128 0.985183
0.999903 1.00105 0.993824
0.999762 0.999534 0.995597
1.00013 1.00363 0.99089
1.00444 1.00011 0.986846
1.00411 1.00055 0.986986
1.00515 1.00009 0.985642
1.0013 1.00421 0.988316
1.00482 1.00082 0.985467
1.00386 1.00291 0.985131
1.00498 1.00103 0.984875
0.999867 0.999026 0.995946
1.00079 1.00388 0.989556
1.00008 1.00243 0.992239
1.00049 1.00465 0.989349
1.00518 0.999835 0.985874
1.005 1.00043 0.985541
1.0052 0.999536 0.98612
1.00255 1.00417 0.986431
1.00513 1.00054 0.985294
1.00445 1.00227 0.984723
1.00515 1.00097 0.984776
1.00027 1.00046 0.993849
1.00008 0.998429 0.996147
0.999685 0.997502 0.999121
0.999608 0.997697 0.999097
0.999541 0.997922 0.999053
0.999822 1.0003 0.994661
0.999641 0.998739 0.998646
0.999854 1.00098 0.993981
0.999733 0.999181 0.998398
1.002 1.00009 0.9911
1.00197 1.00007 0.991177
1.00446 0.99989 0.98704
1.00441 0.999684 0.98734
1.0019 0.999959 0.99142
1.00036 0.999995 0.997535
1.00188 0.999942 0.991464
1.00438 0.999631 0.987439
1.00444 0.999779 0.987202
1.00519 0.998926 0.986825
1.00447 1.00001 0.986912
1.00522 0.999322 0.98636
1.00436 0.999625 0.987489
1.00518 0.998819 0.986952
1.00521 0.999091 0.986624
1.0052 0.997394 0.988395
1.00521 0.999569 0.986113
1.00523 0.998091 0.987612
1.00188 0.999944 0.991464
1.00205 0.999989 0.991868
1.00438 0.999597 0.987316
1.00443 0.999924 0.987745
0.999854 0.999704 0.998079
1.00079 1.00177 0.992957
1.00317 1.00212 0.987789
1.00437 0.999923 0.987632
1.0052 0.999275 0.986428
1.00513 0.999912 0.986105
1.00494 1.0005 0.985563
1.00522 0.999733 0.985873
1 1.00138 0.993368
1.00041 1.00401 0.99001
1.00435 0.999581 0.987459
1.00439 0.999753 0.987787
1.00519 0.998947 0.987003
1.0052 0.999281 0.986529
1.00013 1.00177 0.992686
1.00207 1.00342 0.987732
1.00467 1.00122 0.985265
1.00518 0.999652 0.986263
1.00523 0.998267 0.987443
1.0052 1.00044 0.98534
1.00523 0.999185 0.986414
1.0052 0.998821 0.986857
1.00075 1.0041 0.989351
1.00079 1.00465 0.988613
1.00021 1.00359 0.990814
1.00517 0.998958 0.986986
1.0052 0.999021 0.98692
1.00521 0.99756 0.988175
1.00523 0.997985 0.987686
1.00522 0.998536 0.987069
1.00517 0.996874 0.988812
1.00116 1.00403 0.988668
1.00519 0.997931 0.987621
1.00356 1.00296 0.985675
1.00516 1.0012 0.984403
1.0052 1.00003 0.985694
1.00513 0.997961 0.987801
1.00018 1.00272 0.991711
1.00141 1.00403 0.988271
1.0004 1.00498 0.988952
1.0017 1.00387 0.988269
1.00443 1.00012 0.986835
0.999773 0.999427 0.995638
0.999853 1.00103 0.993849
1.00001 1.00376 0.990891
1.00412 1.00054 0.986985
1.00516 1.00008 0.985623
1.0012 1.00429 0.988345
1.00382 1.00292 0.985119
1.00486 1.00083 0.985479
1.00491 1.00091 0.984842
0.99988 0.998962 0.995964
1.00071 1.004 0.989564
1.00005 1.00238 0.992271
1.00037 1.00487 0.989307
1.00518 0.999841 0.985859
1.00502 1.00042 0.985515
1.00519 0.999539 0.986109
1.00243 1.00416 0.986463
1.00514 1.00059 0.985278
1.0045 1.0021 0.984729
1.00516 1.00098 0.98472
1 0.998634 0.996086
1.0002 1.00132 0.993126
1.00131 1.00447 0.988175
1.00022 1.00403 0.990518
1.00105 1.00429 0.988884
1.0052 0.999058 0.986626
1.00517 1.00003 0.985612
1.00513 0.998756 0.986915
1.00311 1.0034 0.986027
1.00515 1.00019 0.985576
1.00445 1.00192 0.984489
1.00028 1.00054 0.993753
1.00024 1.00185 0.99254
1.00022 1.00047 0.993927
1.00026 1.00047 0.993848
1.00011 0.99825 0.996774
1.00008 0.998413 0.996443
0.999842 0.997311 0.997981
0.999692 0.997463 0.999124
0.999605 0.99765 0.999108
0.999838 0.999687 0.995279
0.999638 0.998318 0.998837
0.999827 1.00038 0.994635
0.999695 0.998812 0.998582
0.999895 1.00099 0.993958
0.999777 0.999242 0.998329
1.00446 1.00002 0.986901
1.00443 0.999782 0.987199
1.00522 0.999339 0.98635
1.00519 0.998935 0.98682
1.00438 0.999637 0.987439
1.00187 0.999943 0.991462
1.00436 0.999623 0.98749
1.00518 0.998823 0.98695
1.00521 0.999106 0.986615
1.0052 0.997253 0.988551
1.00521 0.999579 0.986103
1.00523 0.998105 0.987595
1.00517 0.998802 0.986981
1.00515 0.997027 0.988903
1.00522 0.99764 0.988078
1.00518 0.995842 0.989863
1.00521 0.998603 0.98712
1.0052 0.996475 0.989056
1.00436 0.999528 0.987421
1.00441 0.999749 0.987771
1.00519 0.998834 0.987146
1.0052 0.999425 0.986466
1.00023 1.00174 0.992668
1.00207 1.00339 0.987735
1.0046 1.00128 0.98532
1.00518 0.999739 0.986191
1.00523 0.998085 0.98766
1.00522 0.999178 0.986436
1.0052 1.00041 0.985337
1.0052 0.99877 0.986855
1.00083 1.00399 0.989346
1.00075 1.00464 0.988638
1.00024 1.00349 0.990815
1.00517 0.998908 0.986967
1.0052 0.999021 0.986912
1.0052 0.997318 0.988455
1.00522 0.998078 0.9876
1.00121 1.00402 0.988636
1.00357 1.00289 0.985671
1.00513 1.00129 0.984427
1.00522 0.99872 0.986889
1.00517 0.996669 0.98903
1.0052 1.00003 0.98562
1.00519 0.997944 0.987632
1.00513 0.997838 0.987928
1.00152 1.00399 0.988258
1.00163 1.00391 0.988249
1.00021 1.00269 0.991699
1.00033 1.00489 0.989055
1.00518 0.997277 0.988573
1.00522 0.997715 0.98808
1.00514 0.99607 0.989694
1.00518 0.995989 0.989597
1.00516 0.997167 0.988454
1.00514 0.995948 0.989843
1.00235 1.00368 0.987061
1.00512 0.996567 0.988914
1.00425 1.00272 0.984523
1.00515 1.00133 0.984345
1.00518 0.999531 0.985983
1.00512 0.997577 0.988143
1.00015 1.00195 0.9925
1.00024 1.00448 0.98971
1.00215 1.00328 0.98775
1.00067 1.00503 0.988605
1.00203 1.0032 0.98845
0.999888 0.998913 0.995983
1.00519 0.999845 0.985844
1.00002 1.00234 0.992303
1.00058 1.00419 0.989572
1.00025 1.00502 0.989265
1.00505 1.0004 0.985488
1.00519 0.999543 0.986098
1.00242 1.00401 0.986495
1.00454 1.00193 0.984738
1.00516 1.00064 0.985262
1.00517 1.001 0.984665
1.00001 0.998617 0.996096
1.00017 1.00133 0.993148
1.00131 1.00441 0.988186
1.00008 1.00413 0.99051
1.00089 1.00424 0.988883
1.0052 0.999053 0.986614
1.00518 1.00003 0.985593
1.00513 0.99873 0.986884
1.00311 1.00336 0.986037
1.00518 1.00023 0.985456
1.00474 1.00183 0.984455
1.00028 1.00077 0.993555
1.00019 1.00291 0.991674
1.00191 1.00358 0.987964
1.00035 1.00484 0.989639
1.00138 1.00339 0.989185
1.00516 0.998077 0.987577
1.00513 0.999403 0.986216
1.00509 0.998088 0.987275
1.00319 1.00264 0.986276
1.00499 1.00099 0.984719
1.00028 1.00053 0.99375
1.00025 1.00181 0.992478
1.00018 1.00191 0.992496
1.00025 1.00252 0.992014
1.00019 1.00191 0.992572
1.00016 1.00052 0.993964
1.00022 1.00046 0.993927
1.00013 0.998182 0.996801
1.00025 1.00048 0.993846
1.00011 0.998271 0.996777
0.999936 0.997088 0.998013
1.00007 0.998412 0.996734
0.999805 0.997272 0.998561
0.999701 0.99741 0.999128
0.999889 0.999098 0.995782
0.999833 0.999746 0.995251
0.999641 0.997925 0.998989
0.999671 0.998406 0.998765
0.999832 1.00046 0.99461
0.999746 0.998861 0.998514
1.00521 0.999588 0.986093
1.00521 0.999107 0.986606
1.00523 0.998113 0.987578
1.0052 0.997107 0.988706
1.00517 0.998826 0.986948
1.00436 0.999623 0.98749
1.00517 0.998803 0.986983
1.00515 0.997023 0.988916
1.00522 0.99765 0.988067
1.00518 0.995702 0.990025
1.00521 0.998593 0.987099
1.0052 0.996374 0.989187
1.00515 0.997056 0.988898
1.00517 0.995654 0.990111
1.0052 0.995788 0.989858
1.00519 0.995048 0.990553
1.00518 0.997283 0.988343
1.00519 0.995521 0.990017
1.00517 0.998853 0.986948
1.0052 0.999028 0.986904
1.0052 0.997066 0.988735
1.00522 0.998169 0.987513
1.00127 1.00402 0.988606
1.00361 1.00282 0.985668
1.00504 1.00133 0.98445
1.00522 0.998906 0.986709
1.00518 0.996463 0.989249
1.00519 0.997957 0.987644
1.0052 1.00003 0.985547
1.00514 0.997715 0.988054
1.00148 1.00403 0.988245
1.00141 1.00397 0.98823
1.00025 1.00268 0.991687
1.00028 1.00483 0.989159
1.00517 0.997284 0.988568
1.00522 0.99781 0.987951
1.00514 0.995859 0.989928
1.00519 0.996081 0.989486
1.00225 1.00391 0.987017
1.00425 1.00263 0.984538
1.00515 1.00133 0.984316
1.00516 0.997359 0.988245
1.00513 0.99566 0.99003
1.00517 0.999575 0.985959
1.00513 0.996588 0.988913
1.00513 0.997313 0.988291
1.00227 1.00322 0.987718
1.00195 1.00312 0.988525
1.00066 1.00504 0.988579
1.00016 1.00196 0.992429
1.00015 1.00446 0.989836
1.00515 0.995576 0.9903
1.00518 0.995731 0.989999
1.00516 0.995113 0.990427
1.00513 0.995822 0.989673
1.00296 1.00349 0.986147
1.00515 0.996096 0.989547
1.00475 1.00242 0.983823
1.00499 1.0013 0.984483
1.00513 0.999176 0.986226
1.00006 1.00124 0.993173
1.00009 1.00382 0.990837
1.00048 1.00478 0.989281
1.00252 1.00302 0.987525
1.00091 1.00479 0.988169
1.00224 1.00243 0.988248
1.00001 0.998606 0.996106
1.00015 1.00131 0.99317
1.0052 0.999048 0.986601
0.999928 1.00425 0.990502
1.00119 1.00452 0.988198
1.00073 1.0042 0.988882
1.00519 1.00003 0.985574
1.00513 0.998705 0.986854
1.0031 1.00332 0.986047
1.00497 1.0018 0.984417
1.0052 1.00026 0.985337
1.00026 1.00077 0.993561
1.00009 1.00296 0.991697
1.00195 1.00356 0.987951
1.00018 1.00492 0.989604
1.0013 1.00322 0.989286
1.00515 0.998093 0.987553
1.00513 0.999403 0.986191
1.00509 0.998122 0.987336
1.00335 1.00256 0.986046
1.005 1.00106 0.984755
1.00023 1.00214 0.992333
0.999812 1.00431 0.990571
1.00261 1.00213 0.988142
1.00028 1.00473 0.989501
1.00191 1.00214 0.989201
1.00511 0.996615 0.988813
1.00509 0.999518 0.986084
1.00506 0.997944 0.987378
1.00409 1.00187 0.98573
1.00485 1.00087 0.985067
1.00028 1.00052 0.993746
1.00025 1.00183 0.992501
1.00007 1.00251 0.992062
1.00013 1.00196 0.992453
1.00016 1.00196 0.992567
1.00013 1.0026 0.991966
1.00009 1.00285 0.99187
1.00009 1.00276 0.991756
1.00012 1.00203 0.992578
1.0001 1.00064 0.993962
1.00016 1.00052 0.993964
1.00013 0.99818 0.996806
1.00021 1.00045 0.993928
1.00014 0.998206 0.996802
0.999999 0.996964 0.998024
1.00012 0.998282 0.996783
0.999925 0.997059 0.998019
0.999766 0.997225 0.999153
0.999937 0.998641 0.996169
0.999877 0.999174 0.995749
0.999673 0.997616 0.99909
0.999827 0.999824 0.995224
0.999667 0.998014 0.998944
0.999716 0.998476 0.9987
1.00522 0.998584 0.987077
1.00523 0.997665 0.988056
1.0052 0.996272 0.989318
1.00517 0.995572 0.990186
1.00515 0.997021 0.988928
1.00517 0.998804 0.986985
1.00515 0.997154 0.988773
1.00516 0.995694 0.990111
1.00519 0.995821 0.989844
1.0052 0.99502 0.990591
1.00518 0.997324 0.988334
1.00518 0.995319 0.990189
1.00516 0.995575 0.990281
1.00522 0.994962 0.990711
1.00519 0.995054 0.990513
1.00517 0.995642 0.989873
1.00517 0.997292 0.988562
1.00521 0.997902 0.987822
1.00515 0.995657 0.99016
1.0052 0.996182 0.989375
1.00227 1.00401 0.986973
1.00434 1.00255 0.984554
1.00514 1.00137 0.984288
1.00516 0.99755 0.988035
1.00513 0.99538 0.990215
1.00514 0.996609 0.988911
1.00516 0.999611 0.985934
1.00514 0.997062 0.988439
1.00238 1.0032 0.987686
1.00196 1.00287 0.988599
1.00065 1.00504 0.988551
1.00017 1.00193 0.992359
1.00012 1.0044 0.989963
1.00516 0.995578 0.990288
1.00518 0.995748 0.989939
1.00515 0.995237 0.990342
1.00295 1.0036 0.986136
1.00465 1.00242 0.983898
1.00504 1.00122 0.984462
1.00514 0.99584 0.989664
1.00513 0.998957 0.986527
1.00514 0.996061 0.989397
1.00008 1.00112 0.993291
1.00268 1.00281 0.987452
1.00204 1.0022 0.988857
1.00107 1.0049 0.988104
1.00049 1.00488 0.989299
1.00011 1.00377 0.990772
1.00522 0.995008 0.990557
1.00517 0.995137 0.99051
1.00514 0.994972 0.990396
1.00516 0.995266 0.990211
1.00376 1.00305 0.9854
1.00512 0.997166 0.988252
1.00503 1.00246 0.983183
1.00497 1.00142 0.984285
1.00014 1.00029 0.994025
1.00006 1.00285 0.99186
1.00028 1.00438 0.990072
1.00076 1.00503 0.988485
1.00269 1.00276 0.987014
1.00208 1.00367 0.98753
1.00024 1.00076 0.993567
1 1.00298 0.99172
1.00515 0.998107 0.987529
1 1.005 0.989571
1.002 1.00352 0.987937
1.00103 1.00314 0.989389
1.00513 0.999404 0.986167
1.00509 0.998159 0.987396
1.00357 1.00253 0.985814
1.00502 1.00111 0.98479
1.00018 1.00215 0.992347
0.999893 1.00438 0.99053
1.0027 1.00218 0.98812
1.00011 1.00491 0.989542
1.00175 1.00183 0.989694
1.00512 0.996575 0.988997
1.00508 0.999512 0.98616
1.00507 0.998036 0.987366
1.00402 1.00206 0.98555
1.00492 1.00089 0.984906
0.999878 1.00298 0.991804
0.999776 1.00504 0.989686
1.00329 1.00125 0.987805
1.00086 1.00352 0.988761
1.00518 0.995339 0.989902
1.00506 0.996983 0.988783
1.00497 0.999821 0.985785
1.00436 1.00093 0.985268
1.00027 1.00182 0.992524
1.00009 1.00251 0.992071
0.999835 1.00301 0.992205
1.00012 1.00203 0.992561
1.00003 1.00267 0.991918
1.00011 1.00204 0.992571
1.00002 1.00283 0.991916
1.00012 1.00275 0.991792
0.999976 1.00262 0.992243
1.00007 1.00314 0.991521
1.00012 1.00293 0.991554
1.00009 1.00212 0.992513
1.00004 1.00074 0.99392
1.0001 1.00061 0.993961
1.00012 0.99821 0.9968
1.00016 1.0005 0.993964
1.00013 0.998211 0.996804
1.00004 0.996897 0.998022
1.00014 0.99823 0.996804
0.999992 0.99693 0.998031
0.999911 0.997036 0.998021
1.00003 0.998233 0.996432
0.999944 0.998676 0.996138
0.999732 0.997286 0.999164
0.999864 0.99925 0.995715
0.999685 0.997663 0.999063
0.999696 0.998088 0.998879
1.00517 0.997364 0.988324
1.00519 0.995854 0.98983
1.00517 0.995119 0.990361
1.0052 0.994984 0.99063
1.00516 0.995725 0.990111
1.00514 0.997255 0.988648
1.00516 0.995657 0.990198
1.00523 0.99496 0.990701
1.00518 0.995094 0.990483
1.00517 0.995557 0.989967
1.00523 0.994985 0.990693
1.00519 0.994952 0.990674
1.00518 0.994986 0.990447
1.00518 0.995583 0.990277
1.00518 0.995764 0.989879
1.00514 0.995362 0.990258
1.00295 1.00372 0.986125
1.00456 1.00241 0.983972
1.00504 1.00117 0.984441
1.00514 0.995852 0.989655
1.00513 0.996005 0.989246
1.00513 0.998734 0.986829
1.00286 1.00262 0.987378
1.00179 1.00209 0.989465
1.00128 1.00502 0.988039
1.00009 1.00102 0.993409
1.0004 1.0049 0.989317
1.00012 1.00372 0.990706
1.00522 0.995034 0.990589
1.00517 0.995038 0.990557
1.00514 0.99504 0.990436
1.00356 1.00322 0.985384
1.00487 1.0025 0.983284
1.00494 1.00121 0.984597
1.00515 0.995269 0.990171
1.00512 0.997101 0.988189
1.00012 1.00026 0.994184
1.00008 1.00284 0.991858
1.00245 1.00262 0.987388
1.00192 1.00372 0.988032
1.00071 1.00502 0.988662
1.00025 1.00443 0.989999
1.00517 0.994929 0.990732
1.00515 0.994927 0.990533
1.00513 0.995025 0.990442
1.00511 0.995061 0.990109
1.00399 1.00305 0.984112
1.00477 1.00046 0.985541
1.00505 1.00271 0.983058
1.00021 0.999845 0.994567
1.00022 1.00098 0.993482
1.00009 1.00173 0.992774
1.00002 1.00392 0.990812
1.00026 1.00487 0.989363
1.00051 1.00462 0.988758
1.00262 1.00185 0.987648
1.00198 1.00356 0.988886
1.00012 1.0022 0.99236
0.999968 1.00448 0.990488
1.00513 0.996529 0.989182
1.00018 1.00494 0.989578
1.00278 1.00227 0.9881
1.00155 1.00157 0.990183
1.00508 0.999492 0.986237
1.00508 0.998116 0.987357
1.00394 1.00219 0.985376
1.00497 1.00091 0.984746
0.999899 1.00307 0.991697
0.999881 1.00497 0.989767
1.00325 1.00131 0.9879
1.00121 1.00359 0.988894
1.00518 0.995274 0.990015
1.00507 0.99699 0.988598
1.005 0.999777 0.985792
1.00465 1.00102 0.985136
0.999716 1.00375 0.991354
1.00521 0.994905 0.990279
1.00075 1.00487 0.989096
1.00339 1.00175 0.987053
1.00514 0.99579 0.989962
1.00505 0.9985 0.986158
1.00497 1.00113 0.984858
1.00009 1.00255 0.99208
0.999804 1.00297 0.992172
0.999529 1.00302 0.992737
1.00011 1.00202 0.992564
1.00013 1.00274 0.991828
0.999832 1.00292 0.991961
1.0001 1.00211 0.992501
1.00009 1.00294 0.991576
0.99979 1.00274 0.992314
1.00015 1.00304 0.99154
0.999955 1.00236 0.992776
0.999905 1.00301 0.991931
1.00018 1.00345 0.991069
1.00026 1.00295 0.99136
1.00011 1.00226 0.992336
1.00001 1.00089 0.993838
1.00004 1.00077 0.993914
1.0001 0.99829 0.996761
1.0001 1.00063 0.99396
1.00012 0.99825 0.996796
1.00006 0.996859 0.998021
1.00014 0.998243 0.996804
1.00004 0.996863 0.998026
0.999989 0.9969 0.998033
1.00019 0.999835 0.994622
1.00009 0.997997 0.996571
1.00003 0.998263 0.996415
0.999821 0.997007 0.99921
0.999947 0.998723 0.996106
0.999737 0.99737 0.999144
0.999703 0.997738 0.999035
1.00517 0.99547 0.990062
1.00517 0.995136 0.990454
1.00523 0.994961 0.99069
1.00517 0.995726 0.990115
1.00523 0.994949 0.990734
1.00518 0.994952 0.990692
1.00518 0.995011 0.99042
1.00518 0.994958 0.99073
1.00521 0.994947 0.990546
1.00523 0.994927 0.990868
1.00521 0.995058 0.990622
1.00517 0.994933 0.990604
1.00513 0.995102 0.990475
1.00335 1.00338 0.98537
1.00478 1.00258 0.98339
1.00494 1.00099 0.98491
1.00515 0.995292 0.990132
1.00512 0.997035 0.988127
1.00222 1.00254 0.987766
1.00184 1.00377 0.98853
1.00051 1.00501 0.98884
1.00011 1.0002 0.994344
1.00013 1.00281 0.991856
1.00023 1.00458 0.989926
1.00518 0.994932 0.990708
1.00019 0.999867 0.994561
1.00017 1.00102 0.993409
1.00515 0.994921 0.990545
1.00513 0.995016 0.990439
1.00377 1.00324 0.984468
1.00498 1.00267 0.983198
1.00484 1.00023 0.985475
1.0051 0.995253 0.990049
1.00008 1.00174 0.992959
1.00008 1.00388 0.990786
1.00288 1.00241 0.98728
1.00136 1.00358 0.989279
1.00058 1.00461 0.988939
1.00022 1.00491 0.989443
1.00521 0.994941 0.990496
1.00515 0.994865 0.990539
1.00512 0.994922 0.990215
1.00471 0.995907 0.989818
1.00358 1.00314 0.985059
1.00441 1.00329 0.983886
1.0001 1.00122 0.993237
1.00018 1.00107 0.993425
1.00038 1.00151 0.992797
1.00014 1.00296 0.991417
1.00001 1.00464 0.990278
1.00105 1.00433 0.988748
0.999852 1.00483 0.989369
1.00203 1.00118 0.989287
0.999926 1.00314 0.991591
1.00007 1.00488 0.989852
1.00518 0.995216 0.990128
1.00509 0.997036 0.988414
1.00155 1.00365 0.989027
1.00322 1.00133 0.987991
1.00501 0.999749 0.985797
1.0049 1.00113 0.985
0.999802 1.00374 0.991307
1.00522 0.994912 0.990394
1.00053 1.00484 0.989148
1.00339 1.00171 0.986958
1.00513 0.995673 0.989946
1.00498 0.998621 0.986435
1.00489 1.00117 0.984907
0.999865 1.00465 0.99065
1.00454 0.995087 0.991664
1.00206 1.00354 0.988525
1.00394 1.00193 0.986322
1.00488 0.996459 0.989261
1.00391 1.00108 0.985753
0.998786 0.997371 0.99051
0.999732 1.00299 0.992141
0.999368 1.00315 0.992718
0.999624 1.00321 0.99268
1.00008 1.00213 0.992489
1.00007 1.00298 0.991598
1.00026 1.00293 0.991559
0.999687 1.00275 0.992385
1.00011 1.00226 0.992334
1.00022 1.00303 0.991346
0.999922 1.00233 0.99271
1.00014 1.00351 0.991074
1.00002 1.00294 0.991847
0.99995 1.00255 0.992445
1.00027 1.00354 0.990827
1.00019 1.00357 0.99096
1.00037 1.00311 0.991048
1.00015 1.0024 0.992009
1.00026 1.00284 0.991649
1.00016 1.00245 0.9919
1 1.00092 0.993797
1 1.00089 0.993833
1.0001 0.998387 0.996145
1.00004 1.00076 0.993908
1.00011 0.998339 0.996464
1.00003 0.996852 0.999149
1.00012 0.99829 0.996793
1.00006 0.996821 0.998026
1.00004 0.996831 0.998028
1.00014 0.99983 0.994689
1.0002 0.999793 0.994631
1.0001 0.99788 0.996676
1.00007 0.998002 0.996827
0.999892 0.996825 0.999241
1.00003 0.998292 0.996397
0.999811 0.997074 0.999199
0.999743 0.997418 0.999124
1.00517 0.995035 0.990394
1.00518 0.994951 0.990711
1.00523 0.994926 0.990774
1.00519 0.994958 0.990732
1.00521 0.994943 0.99055
1.00523 0.994931 0.99052
1.00525 0.994962 0.990481
1.00104 0.994854 0.986787
1.00442 0.994902 0.99305
1.00003 1.00127 0.993441
1.00519 0.994935 0.990684
1.00515 0.994914 0.990558
1.00513 0.995007 0.990435
1.0035 1.00334 0.984818
1.00495 1.00261 0.983338
1.00492 1.00001 0.985413
1.0051 0.995455 0.989988
1.00329 1.00261 0.986915
1.0007 1.00358 0.98968
1.0007 1.00458 0.989122
1.00017 0.999911 0.994556
1.00021 1.00496 0.989523
1.00007 1.00172 0.993142
1.00017 1.00383 0.99076
1.00016 1.00101 0.993335
1.0052 0.994936 0.9905
1.00011 1.00118 0.993335
1.00015 1.00112 0.99342
1.00035 1.00153 0.992742
1.00515 0.994884 0.990522
1.00513 0.994918 0.990241
1.00377 1.00303 0.985103
1.0043 1.00265 0.984445
1.00462 0.996368 0.989716
1.00004 1.00302 0.991567
1.00012 1.00453 0.99011
1.00196 1.00204 0.988993
1.00029 1.00469 0.98941
1.00092 1.00426 0.988853
1.0052 0.995097 0.990548
1.00515 0.994872 0.990519
1.00508 0.995538 0.98976
1.0044 0.998246 0.988998
1.0019 1.00333 0.988258
1.00012 1.00215 0.992292
1.00039 1.00171 0.992273
1.00016 1.00229 0.992036
0.999888 1.00445 0.990948
1.00007 1.00459 0.989835
1.00021 1.00453 0.989368
1.00063 1.00329 0.989798
0.999941 1.00367 0.991257
1.00022 1.00481 0.989198
1.00523 0.994911 0.990505
1.00513 0.995512 0.989927
1.00496 0.998761 0.986711
1.00343 1.00165 0.986864
1.00485 1.00117 0.984959
0.999951 1.00453 0.990751
1.00447 0.995073 0.99178
1.00173 1.00354 0.988578
1.00368 1.00197 0.986331
1.00495 0.996052 0.989566
1.00408 1.00126 0.985726
0.998807 0.997528 0.988384
1.00003 1.00451 0.990491
1.00275 0.997659 0.991703
1.00166 1.00283 0.989075
1.00257 1.0017 0.98766
1.00371 0.997473 0.989222
1.00013 0.995299 0.952816
0.997038 0.994903 0.971709
0.996486 1.00218 0.989792
0.999787 0.996387 0.896532
0.994704 0.996503 0.870874
0.999234 1.00328 0.992701
0.999239 1.00343 0.992787
0.999643 1.00313 0.992478
1.0001 1.00226 0.992333
1.00027 1.00294 0.991331
1.00011 1.00355 0.991078
1.00014 1.00287 0.991761
0.999845 1.00232 0.992644
1.00023 1.00351 0.990923
1.00015 1.00238 0.992081
1.00035 1.0031 0.991076
0.999956 1.00251 0.992356
1.00017 1.00359 0.99096
1.00021 1.0037 0.990942
0.999755 1.00332 0.991675
1.00029 1.00363 0.990736
1.00035 1.00314 0.990977
1.0002 1.00244 0.991873
1.00033 1.00316 0.991132
1.00017 1.00302 0.991546
1.00012 1.00277 0.99181
1.00024 1.00287 0.991589
1.00023 1.00213 0.992279
1.00018 1.00246 0.991885
1.00006 1.00086 0.993779
1.00001 1.00093 0.993796
1.0001 0.998449 0.996125
0.999996 1.00092 0.993828
1.0001 0.998402 0.996142
1.00003 0.99685 0.999146
1.00011 0.998389 0.996167
1.00005 0.99685 0.998571
1.00006 0.996784 0.998029
1.00007 0.999856 0.994774
1.00015 0.999816 0.994692
1.00011 0.997788 0.996761
1.00021 0.999757 0.99464
1.0001 0.997838 0.996933
0.999943 0.996663 0.999271
1.00008 0.998038 0.996545
0.999882 0.996901 0.999226
0.999807 0.997138 0.999188
1.0052 0.994939 0.990553
1.00519 0.994958 0.990733
1.00522 0.994937 0.990173
1.00087 0.994942 0.98691
1.00524 0.994961 0.990482
1.0043 0.995278 0.992648
1.00501 0.996211 0.991115
0.996813 0.994885 0.970695
1.00059 0.996795 0.988591
1.00005 1.00131 0.993388
1.00009 1.00122 0.993434
1.00003 1.00225 0.992465
1.00003 1.00221 0.992524
1.0052 0.994932 0.990504
1.00514 0.994896 0.990506
1.00513 0.994912 0.990267
1.00426 1.00271 0.985145
1.00413 1.00186 0.984997
1.00455 0.99688 0.98961
1.00169 1.00309 0.988697
1.00082 1.00457 0.989448
1.00079 1.00412 0.988957
1.00012 1.0012 0.993414
1.00017 1.0045 0.98994
1.00006 1.00304 0.991718
1.00011 1.00117 0.993433
1.00027 1.00158 0.992682
1.00521 0.995013 0.990545
1.00014 1.00216 0.99238
1.00036 1.00171 0.992456
0.999943 1.00223 0.992479
1.00516 0.994868 0.990426
1.00495 0.99547 0.989783
1.00248 1.00247 0.98817
1.00406 0.998064 0.989415
1 1.00423 0.990787
1.00021 1.0048 0.989431
1.00074 1.00378 0.989705
1.00083 1.0043 0.989259
1.00463 0.995028 0.991407
1.00511 0.995637 0.990127
1.00503 0.996112 0.989569
1.00201 0.999611 0.991619
0.999913 1.00323 0.991611
1.00022 1.00283 0.991459
0.999333 1.00475 0.991073
0.999574 1.00474 0.99018
0.999995 0.994892 0.944919
0.999982 1.00446 0.990853
1.00129 1.00364 0.988629
1.00445 0.994999 0.991896
1.00503 0.995682 0.989869
1.00417 1.00134 0.985693
1.0034 1.00208 0.986335
0.998883 0.997629 0.986198
0.999907 1.00466 0.990632
1.00292 0.997447 0.991736
1.0016 1.00289 0.98908
1.00311 1.00122 0.987624
1.004 0.997581 0.989227
1.0012 0.995456 0.943358
0.996837 0.995013 0.967397
0.996462 1.00236 0.989586
0.99977 0.996545 0.900074
0.994699 0.99651 0.860077
0.999731 1.0039 0.991537
0.999834 0.994982 0.906719
0.994928 0.996137 0.871364
1.00156 1 0.991318
1.0009 1.00257 0.990301
1.00199 1.00074 0.989286
0.996402 1.00299 0.98963
1.00064 0.996793 0.949248
0.994913 0.996085 0.965154
0.997806 0.99872 0.905095
0.99479 0.997329 0.866471
0.998971 1.0036 0.992892
0.999487 1.00334 0.9924
0.99945 1.00313 0.993222
1.00017 1.00234 0.992152
1.00034 1.00313 0.991105
1.00007 1.00365 0.990888
1.00007 1.00362 0.991093
1.00001 1.00245 0.992267
1.0002 1.00243 0.99188
1.00009 1.00381 0.990898
1.00028 1.00363 0.990732
1.00039 1.00308 0.991045
0.999743 1.00335 0.991743
0.999964 1.00385 0.991282
0.999154 1.0039 0.991863
1.00039 1.00356 0.990587
1.00044 1.00321 0.990894
1.00037 1.00312 0.991107
1.00015 1.003 0.991604
1.0004 1.00325 0.990949
1.00004 1.00306 0.991691
0.999799 1.00291 0.991834
0.999725 1.00408 0.991102
0.999965 1.00305 0.991777
1.00015 1.00275 0.991806
1.00016 1.00203 0.992484
1.00023 1.00287 0.991528
1.00024 1.00213 0.992212
1.00014 1.00077 0.993752
1.0002 1.00247 0.99187
1.00005 1.00088 0.993783
1.0001 0.998404 0.996721
0.999999 1.00095 0.993794
1.00009 0.998419 0.996425
1.00007 0.996866 0.997968
1.0001 0.998417 0.99614
1.00003 0.996861 0.999145
1.00007 0.996858 0.997992
1.00009 1.00141 0.993216
1.00002 0.999919 0.994796
1.00008 0.999843 0.994777
1.00011 0.997761 0.99679
1.00016 0.999792 0.994696
1.00012 0.99775 0.996763
0.999982 0.996559 0.999286
1.00009 0.99784 0.997167
0.999958 0.996746 0.998755
0.999925 0.996953 0.998188
1.00054 0.995108 0.987054
1.00522 0.994967 0.990485
1.00413 0.995998 0.992241
0.996743 0.994872 0.971951
1.0005 0.996494 0.988873
1.00504 0.995856 0.990961
1.00312 0.997213 0.988567
0.996571 0.996877 0.974691
1.00005 0.995642 0.950024
0.99935 0.99809 0.90869
0.994647 0.996807 0.869244
0.999935 1.00229 0.992449
1.00008 1.00129 0.993384
1.00015 1.00115 0.993427
1.00004 1.00224 0.99246
0.999802 1.00319 0.991915
1.00021 1.00257 0.991855
1.00003 1.00268 0.992173
0.999995 1.00231 0.992431
1.00522 0.994915 0.990539
1.00517 0.994871 0.990331
1.00488 0.995334 0.989807
1.00273 1.002 0.988089
1.00374 0.99795 0.989838
1.00088 1.00437 0.989609
1.00135 1.00415 0.989151
1.00044 1.00494 0.989031
1.00026 1.00171 0.992642
1.00001 1.00425 0.990625
1.00017 1.00219 0.992471
0.999843 1.00216 0.992922
1.00466 0.994944 0.991522
0.9999 1.00328 0.991667
1.00017 1.00297 0.991599
1.00504 0.995406 0.990085
1.00483 0.995669 0.989737
1.00199 0.999606 0.991261
0.999661 1.00497 0.990593
1.00021 1.00438 0.99026
1.00336 0.99599 0.9918
1.00466 0.99637 0.99044
1.0045 0.995193 0.99107
1.00158 0.999398 0.992216
0.999971 1.00439 0.990412
0.999576 1.00429 0.991071
0.999556 1.00499 0.990789
0.999868 0.994846 0.908216
1.00053 0.994965 0.954648
0.999841 1.00475 0.990774
1.00155 1.00282 0.989089
1.00305 0.997057 0.991776
1.00429 0.997822 0.989234
1.00369 1.00076 0.987598
1.00033 0.99493 0.951308
0.997172 0.995266 0.96665
0.996517 1.00257 0.989338
0.99948 0.996824 0.910357
0.994701 0.996617 0.848935
0.999745 1.00385 0.99153
0.999843 0.995698 0.905577
0.99484 0.996181 0.865919
1.00157 1.00013 0.991366
1.00098 1.00243 0.990359
1.00221 1.0005 0.989939
0.996643 1.00304 0.990234
1.00169 0.996796 0.942585
0.994912 0.9956 0.969005
0.998514 0.999222 0.905253
0.994802 0.99701 0.864553
0.99937 1.00354 0.992931
0.99504 0.996206 0.86947
0.994806 0.99689 0.884061
0.999339 1.00195 0.993494
0.999554 1.00294 0.992846
0.995819 1.00272 0.990182
0.994856 0.998307 0.968246
0.998162 0.999064 0.940129
0.994891 0.999804 0.910971
0.994842 0.9948 0.871218
0.999452 1.0035 0.992324
0.999609 1.00268 0.993191
0.998361 1.00432 0.992937
1.0002 1.00242 0.991888
1.00041 1.00303 0.991114
1.00027 1.00361 0.990728
1.00002 1.00393 0.990853
0.999657 1.00343 0.991811
1.00041 1.00325 0.990889
0.999989 1.00373 0.991184
1.00041 1.00351 0.990612
0.998904 1.00421 0.99202
0.997272 1.00483 0.993901
1.00006 1.00376 0.991031
1.00064 1.00372 0.990123
1.00041 1.00309 0.991082
1.00018 1.00292 0.991662
1.0004 1.00329 0.990911
1.00006 1.00306 0.991659
0.999831 1.00284 0.992048
0.999791 1.00365 0.991446
0.999871 1.0035 0.991306
0.999699 1.00287 0.99222
1.00026 1.0028 0.991532
1.00017 1.00461 0.989327
0.999573 1.00442 0.990841
0.999794 1.00405 0.991095
0.999813 1.00353 0.991543
0.999991 1.00306 0.991766
1.00005 1.00213 0.992517
1.00014 1.0028 0.991802
1.00017 1.00202 0.992492
1.00021 1.00061 0.993752
1.00025 1.00214 0.992144
1.00014 1.00075 0.993763
1.00013 0.998378 0.996699
1.00005 1.00088 0.993786
1.00012 0.998374 0.996424
1.00006 0.99682 0.997981
1.00011 0.998389 0.996132
1.00002 0.996868 0.999141
1.00002 0.996862 0.999143
1.00012 1.00162 0.99321
1.00001 1.00005 0.994698
1.00008 1.00143 0.993222
1.00012 0.997769 0.996777
1.00002 0.999916 0.994798
1.00008 0.999845 0.99478
1.00012 0.99775 0.996786
1.00001 0.996501 0.999288
1.0001 0.997725 0.997242
1 0.996573 0.998796
0.999981 0.996753 0.998268
0.999851 0.99574 0.89819
0.994669 0.996216 0.869225
0.998061 0.994875 0.971959
1.0005 0.995599 0.989178
1.00509 0.995176 0.990809
0.996233 0.995909 0.97577
1.00337 0.996324 0.98892
1.00126 0.995932 0.948853
0.99983 0.997146 0.898384
0.99467 0.996734 0.858423
0.998681 0.994971 0.979393
1.00002 0.997763 0.949693
0.998206 0.999088 0.903397
0.994762 0.996254 0.866448
1.00001 1.00332 0.991469
0.999932 1.00227 0.992528
1.00012 1.00124 0.993382
1.00003 1.00222 0.992456
0.999777 1.00304 0.992111
1.00002 1.00359 0.99128
1.00013 1.00279 0.991815
1.00025 1.00305 0.991269
1.00007 1.00263 0.992073
0.999954 1.00243 0.99234
1.0047 0.994878 0.991637
1.00507 0.995131 0.990057
1.00438 0.995386 0.989905
1.00181 0.999696 0.990903
1.00074 1.00415 0.990341
0.99986 1.0051 0.990112
1.00015 1.00298 0.991741
0.999837 1.00336 0.991722
1.00336 0.995532 0.992064
0.999912 1.00463 0.990289
0.99952 1.00439 0.99097
1.00483 0.995952 0.990267
1.00433 0.995333 0.990958
1.00151 0.999368 0.992205
0.999789 1.0049 0.990764
1.00076 0.997252 0.99232
1.00297 0.995814 0.993899
1.00047 1.00103 0.992408
0.999498 1.00477 0.990159
0.999638 1.00504 0.990124
0.999318 1.00511 0.99088
0.994747 0.99626 0.885731
0.999851 0.994867 0.911431
1 0.994902 0.945171
0.999584 1.00394 0.991521
1.00109 1.00229 0.990412
1.00152 1.00022 0.991415
1.00246 1.00026 0.990587
0.999825 0.99522 0.913146
1.00013 0.996566 0.942599
0.994889 0.9951 0.965302
0.996833 1.00214 0.990806
0.998014 0.998863 0.894549
0.994802 0.996162 0.867994
0.99478 0.996591 0.871148
0.999096 1.00344 0.992883
0.994902 0.99551 0.876152
0.994839 0.996997 0.883692
0.999426 1.00159 0.993603
0.999379 1.00285 0.992855
0.995769 0.99977 0.992983
0.994876 0.99781 0.967322
0.997427 0.999429 0.949857
0.997135 0.999908 0.899559
0.994816 0.99479 0.878164
0.997551 1.00392 0.99533
0.994823 0.996125 0.893636
0.994797 0.994766 0.889544
0.995729 1.0021 0.99955
0.994836 0.99971 0.974819
0.994943 0.999971 0.950607
0.994843 0.999556 0.896166
0.994865 0.994811 0.876169
0.999765 1.00223 0.993158
0.998641 1.00418 0.993281
0.996938 1.0051 0.995027
1.00037 1.00331 0.990883
1.00045 1.00348 0.990637
1.00004 1.00355 0.991086
0.998644 1.00457 0.992183
1.00053 1.00383 0.990109
1.00003 1.00385 0.990978
0.997419 1.00477 0.994315
0.995258 1.00531 0.997036
0.998065 1.00464 0.993755
1.00035 1.00392 0.990423
1.00042 1.00331 0.990871
1.00007 1.00307 0.991626
0.999806 1.00284 0.992258
0.999878 1.00344 0.991429
0.999832 1.00363 0.991456
0.999697 1.00299 0.992264
1.00001 1.00315 0.991792
0.998589 1.00335 0.99351
1.00136 1.0001 0.991938
1.0003 1.00264 0.991665
1.00047 1.00361 0.990137
1.00191 1.00441 0.987132
0.999897 1.00486 0.990482
1.00003 1.00468 0.989709
0.999707 1.00434 0.990891
0.999651 1.00398 0.991188
0.999866 1.00401 0.991087
0.999908 1.00343 0.991542
0.999988 1.00249 0.992289
1.00008 1.003 0.991756
1.00011 1.0021 0.99251
1.00023 1.0006 0.993735
1.0002 1.00199 0.992499
1.00022 1.00064 0.993758
1.00015 0.998355 0.996689
1.00014 1.00074 0.993773
1.00014 0.998357 0.996401
1.00003 0.9969 0.997957
1.00014 0.998349 0.996128
1.00004 0.996844 0.998561
1.00002 0.996856 0.999143
1.00014 1.00205 0.992522
1.00006 1.00017 0.994514
1.00008 1.00165 0.993032
1.00011 0.997829 0.996712
1.00001 1.00003 0.994701
1.00006 1.00147 0.993226
1.00003 0.996484 0.999283
1.00011 0.997765 0.996778
1.00003 0.999904 0.994801
1.00012 0.997739 0.996783
1.00001 0.996518 0.999288
0.999982 0.996561 0.999286
0.994692 0.994846 0.875835
0.999869 0.995519 0.904704
0.994812 0.997293 0.883104
0.994677 0.996269 0.86671
0.996004 0.995552 0.973154
1.00344 0.996208 0.989307
1.00012 0.996268 0.947081
0.999821 0.997319 0.909359
0.994699 0.99685 0.847372
0.99834 0.995648 0.978537
1.00139 0.997545 0.93891
0.998401 0.999396 0.904153
0.994784 0.996789 0.861
0.995687 0.995995 0.973461
0.997744 0.998894 0.940721
0.995549 0.99988 0.894637
0.99484 0.994798 0.865971
1.00005 1.00414 0.990781
0.999986 1.00321 0.991602
0.999917 1.00231 0.992605
0.99975 1.00291 0.992306
1.00039 1.00382 0.990241
1.00002 1.00338 0.99141
0.999997 1.00297 0.991774
1.00043 1.00304 0.991141
1.00027 1.00309 0.991351
1.00008 1.00257 0.991972
1.00349 0.994917 0.992313
1.00487 0.995357 0.990108
1.00456 0.99526 0.990841
1.00158 0.999049 0.992206
1.00009 1.00468 0.990742
0.999623 1.00452 0.990872
0.99981 1.00478 0.990165
0.999939 1.00489 0.989967
1.00078 0.99682 0.992627
0.999869 1.00496 0.990028
0.999623 1.0051 0.990858
1.00314 0.995531 0.993777
1.00111 1.00054 0.99221
0.998452 0.996823 0.993888
0.998297 0.998361 1.00014
0.998524 1.00358 0.992772
0.999988 1.00483 0.989962
0.999299 1.00504 0.990927
0.994839 0.99616 0.898261
0.994747 0.996208 0.883158
0.999841 0.994853 0.901198
0.998847 1.00336 0.992838
0.999239 1.00272 0.99285
0.999562 1.00135 0.993723
0.994742 0.994876 0.876585
0.997433 0.99885 0.941393
0.994859 0.997277 0.967515
0.996033 0.998283 0.996001
0.995324 0.999883 0.91131
0.994891 0.997225 0.883387
0.994832 0.994804 0.878465
0.997505 1.0039 0.99556
0.994838 0.995494 0.896505
0.994778 0.994765 0.88963
0.995905 1.00229 0.998552
0.994867 0.999412 0.976337
0.996098 0.999847 0.941382
0.994857 0.994813 0.876006
0.994841 0.999956 0.903452
0.995652 1.00488 0.998269
0.994712 0.994793 0.907478
0.994806 0.994778 0.892689
0.994831 0.994794 0.866608
0.995117 1.0003 0.992712
0.994947 0.999773 0.953929
0.994965 0.999861 0.903538
0.999017 1.00384 0.993622
0.997506 1.00506 0.994183
0.995231 1.00514 0.998402
1.00049 1.00387 0.990094
0.999967 1.00393 0.990922
0.997463 1.00471 0.994717
1.00022 1.0039 0.990483
0.998061 1.00451 0.993806
0.995598 1.00532 0.996783
0.99524 1.00516 0.998291
0.997956 1.00431 0.993745
0.999874 1.00337 0.991555
0.999868 1.00361 0.991465
0.999733 1.00309 0.992311
0.998812 1.00352 0.993366
0.999917 1.00308 0.991785
0.999677 1.00238 0.993028
1.00057 1.00057 0.992964
1.00141 1.00195 0.989641
1.00034 1.00247 0.991801
1.00092 1.00353 0.989838
1.00259 1.00332 0.986654
1.00257 1.00363 0.986555
1.00038 1.00478 0.989497
1.00158 1.00437 0.98721
0.999869 1.00467 0.990469
0.999801 1.0049 0.990428
0.99985 1.00473 0.990091
0.999834 1.00427 0.990941
0.999711 1.00386 0.991288
0.999976 1.00283 0.991955
0.999988 1.00334 0.991541
1.00004 1.00244 0.992292
1.0002 1.00082 0.993583
1.00015 1.00209 0.992504
1.00025 1.00061 0.99373
1.00012 0.998353 0.996706
1.00023 1.00062 0.993765
1.00015 0.998332 0.996397
0.999997 0.996977 0.997964
1.00016 0.998309 0.99611
1.00001 0.996907 0.998548
1.00001 0.996879 0.999141
1.00029 1.00222 0.99192
1.00011 1.00047 0.993905
1.00017 1.00204 0.992521
1.00013 0.997924 0.996579
1.00006 1.00018 0.994373
1.00009 1.00164 0.992858
1.00003 0.996537 0.999265
1.00012 0.997818 0.996718
1.00002 1.00001 0.994703
1.00003 0.996494 0.999285
1.00011 0.997763 0.996778
1.00001 0.996518 0.999289
0.994816 0.994818 0.893719
0.994701 0.995476 0.88201
0.999851 0.995725 0.905532
1.00056 1.00316 0.990709
0.994785 0.995455 0.895092
0.994808 0.996572 0.88292
0.994707 0.996257 0.871933
0.998469 0.995931 0.977227
0.999598 0.998182 0.948995
0.998096 0.998808 0.892855
0.994774 0.996844 0.864449
0.996554 0.99551 0.969709
0.997425 0.998998 0.949409
0.996926 0.999895 0.898731
0.994826 0.995088 0.868833
0.994864 0.996392 0.965673
0.995303 0.999931 0.948958
0.994879 0.999978 0.904062
0.994876 0.994821 0.875896
1.00015 1.00452 0.989973
1.00004 1.00419 0.990608
1.00001 1.00311 0.991736
1.00037 1.00386 0.990292
1.00029 1.00393 0.990429
1.00004 1.00332 0.991538
1.00048 1.00301 0.991167
1.00027 1.0031 0.991432
1.00044 0.996982 0.992865
1.0033 0.995485 0.993614
1.00006 1.00501 0.989775
1.0017 1.00039 0.991997
0.999915 1.00511 0.990833
1.00001 1.00502 0.989931
0.999919 1.00484 0.989968
0.997722 0.997298 0.994497
0.999576 1.00486 0.991031
0.999264 1.00343 0.992828
0.998354 0.997874 1.00015
0.999977 1.00487 0.990101
0.996034 0.998943 0.993757
0.994988 1.00081 1.00295
0.997836 1.00512 0.993008
0.999654 1.00473 0.991072
0.994706 0.994773 0.912615
0.994834 0.99619 0.898142
0.99474 0.996198 0.880573
0.997435 1.00394 0.995811
0.995806 1.00203 0.997543
0.994827 0.994809 0.899295
0.995058 0.999986 0.950836
0.994882 0.998942 0.973461
0.994846 0.999956 0.902887
0.994769 0.994764 0.889681
0.994844 0.994817 0.875841
0.995892 1.0048 0.997856
0.994727 0.994796 0.907291
0.994801 0.994767 0.896432
0.994958 1.00105 0.996049
0.994813 0.995219 0.86922
0.994905 0.999015 0.948345
0.994955 0.999857 0.908175
0.995063 1.00417 0.998637
0.994748 0.994792 0.911503
0.994769 0.995674 0.895514
0.994747 0.996352 0.866745
0.995771 0.999985 0.903561
0.994906 0.999738 0.982435
0.994953 1.00037 0.941029
0.998115 1.00513 0.993341
0.995519 1.00507 0.997912
0.994968 1.00505 0.999633
1.00006 1.00389 0.990545
0.998031 1.00443 0.993859
0.996078 1.00516 0.996538
0.998197 1.00427 0.993633
0.995354 1.00457 0.998227
0.997569 1.00333 0.99628
0.999066 1.00361 0.993218
0.999733 1.00309 0.991779
0.999739 1.00255 0.99316
0.999454 1.00356 0.9913
0.99978 1.00099 0.993972
1.00126 1.00181 0.990184
1.00293 1.00276 0.986667
1.00438 1.00207 0.984813
1.00137 1.00346 0.989535
1.00302 1.00343 0.985835
1.0035 1.00288 0.9865
1.00117 1.00421 0.988099
1.0025 1.00359 0.98674
0.999927 1.00499 0.989793
1.00042 1.00478 0.989449
1.00125 1.00433 0.987291
0.999988 1.00336 0.991362
0.999781 1.00462 0.990549
0.999725 1.00492 0.990373
0.999781 1.00374 0.991388
1.00003 1.0028 0.991953
1.00019 1.00114 0.993271
1.00009 1.0024 0.992296
1.00021 1.00082 0.993577
1.00008 0.998494 0.996098
1.00026 1.00063 0.993725
1.00015 0.998348 0.996123
0.999877 0.99704 0.999144
1.00016 0.998314 0.996104
0.999974 0.996983 0.998545
0.999983 0.996937 0.999134
1.00032 1.00245 0.991608
1.00021 1.00079 0.993426
1.00026 1.00227 0.992021
1.00015 0.998091 0.996389
1.00013 1.00048 0.993847
1.00016 1.00206 0.992519
1.00003 0.996606 0.999233
1.00013 0.997914 0.99659
1.00006 1.0002 0.994233
1.00003 0.996513 0.999271
1.00012 0.997805 0.996723
1.00003 0.996507 0.999287
0.994733 0.994784 0.908591
0.994812 0.995471 0.893573
0.994699 0.996099 0.882221
1.00048 1.00319 0.990802
1.00045 1.00336 0.990539
1.00052 1.0036 0.990446
0.994815 0.99477 0.892189
0.994784 0.995305 0.895136
0.994803 0.996325 0.882728
0.996419 0.994871 0.971989
0.998312 0.999302 0.939449
0.995191 0.999907 0.910734
0.99484 0.995783 0.865001
0.994895 0.996415 0.969047
0.995973 0.999951 0.945615
0.994821 0.999794 0.90373
0.994865 0.994821 0.875611
0.994897 0.996685 0.96498
0.994903 0.999641 0.95072
0.994993 0.999949 0.903715
0.994855 0.994805 0.871062
1.00035 1.00422 0.989918
1.00021 1.00453 0.989848
1.00017 1.00414 0.990435
1.00047 1.00372 0.990265
1.00015 1.00396 0.990617
1.0005 1.003 0.991193
0.997106 0.997676 0.995102
0.998111 0.99748 1.00019
1.00001 1.00464 0.989974
0.999907 1.00298 0.992892
0.999649 1.00479 0.991136
0.999945 1.00473 0.990063
0.999296 1.00474 0.991197
0.995741 0.998806 0.994061
0.997892 1.00514 0.993684
0.99531 1.00111 1.00184
0.999585 1.00424 0.991269
0.995053 0.998659 0.993525
0.995939 1.00206 0.998436
0.998245 1.00516 0.993528
0.994734 0.99474 0.91683
0.994712 0.994766 0.91369
0.994828 0.996184 0.89801
0.996088 1.00478 0.997426
0.994929 1.00107 0.992953
0.994732 0.994801 0.907108
0.994865 0.999235 0.9502
0.994955 0.999851 0.89736
0.994796 0.994759 0.900165
0.994839 0.996051 0.865531
0.995162 1.00391 0.999095
0.994739 0.994799 0.91303
0.994781 0.995424 0.895572
0.994918 0.999705 0.979018
0.994776 0.997008 0.861388
0.994806 0.99997 0.902919
0.99493 1.00004 0.951354
0.995146 1.00487 0.994883
0.994733 0.994791 0.908944
0.994836 0.997614 0.883591
0.99463 0.996999 0.869926
0.995905 0.999203 0.894508
0.995893 0.999924 0.949137
0.994971 1.00044 0.97308
0.995928 1.00505 0.997429
0.995257 1.00413 0.99957
0.996635 1.00335 0.998157
0.998368 1.00434 0.993524
0.995542 1.00414 0.998187
0.996579 1.00414 0.996706
0.999798 1.0014 0.99452
0.999809 1.00282 0.993291
1.00078 1.00315 0.990895
1.00185 1.00415 0.987366
1.00109 1.00172 0.990746
1.00309 1.00286 0.986453
1.00406 1.0039 0.983576
1.0049 1.00169 0.984214
1.00409 1.002 0.985362
1.00435 1.00228 0.984617
1.00347 1.00352 0.985015
1.00299 1.003 0.987019
1.00321 1.00275 0.98668
1.00054 1.00467 0.988612
1.0013 1.0042 0.988258
1.00245 1.00357 0.986925
0.999954 1.00442 0.990245
1.00009 1.00493 0.989795
1.00043 1.00481 0.989401
1.00017 1.00162 0.992837
1.00008 1.00332 0.991348
0.999689 1.00457 0.990629
1.00008 1.00276 0.991952
1.0002 1.00116 0.993264
0.999996 0.998735 0.995993
1.00022 1.00083 0.993572
1.00008 0.998498 0.99609
0.999818 0.997198 0.999133
1.00015 0.998343 0.99612
0.999912 0.99707 0.998554
0.999939 0.99702 0.999133
1.00035 1.00275 0.991449
1.00029 1.00101 0.993243
1.00036 1.00243 0.991672
1.00017 0.998281 0.996153
1.0002 1.00078 0.99351
1.00028 1.00227 0.992123
1.00002 0.996736 0.999191
1.00015 0.998064 0.996404
1.00015 1.00047 0.993788
1.00003 0.996598 0.999243
1.00013 0.997906 0.996601
1.00004 0.996511 0.999278
0.994751 0.994799 0.911155
0.994736 0.994801 0.90841
0.994808 0.996121 0.893536
1.00032 1.00378 0.990323
1.00056 1.00389 0.990059
1.00042 1.00323 0.990897
1.00041 1.00348 0.99051
1.00037 1.00372 0.990417
1.00029 1.004 0.990253
1.00038 1.00387 0.990218
0.9948 0.994759 0.889044
0.994811 0.994768 0.895992
0.994782 0.994753 0.895196
0.994851 0.994815 0.875356
0.9949 0.996224 0.96618
0.995184 0.999949 0.942663
0.994859 0.999619 0.910999
0.994915 0.997153 0.964085
0.994881 0.99993 0.94191
0.994951 0.999857 0.908657
0.994821 0.99479 0.878044
0.994983 0.996308 0.968031
0.994914 1.00007 0.941785
0.994811 0.999798 0.896785
0.994788 0.997603 0.86566
0.999599 1.00499 0.990594
1.00022 1.00438 0.989956
1.00026 1.00471 0.989723
1.00058 1.00359 0.990238
0.995553 0.998705 0.99449
0.995483 1.00247 1.00072
0.999913 1.0049 0.990027
0.999242 1.00475 0.991322
0.998331 1.00512 0.994352
0.999559 1.00443 0.991223
0.997931 1.00516 0.993532
0.994905 1.00012 0.990622
0.995417 1.00344 0.998684
0.997613 1.00488 0.994213
0.995038 0.998619 0.989568
0.997351 1.00411 0.997315
0.994704 0.994782 0.912741
0.994728 0.994736 0.91966
0.994721 0.994754 0.914762
0.995013 1.00362 0.999507
0.994939 0.998498 0.983118
0.994734 0.994798 0.914594
0.995927 1.00002 0.941684
0.994838 0.999878 0.910186
0.994793 0.994753 0.895642
0.994768 0.997195 0.864927
0.994965 1.00375 0.995538
0.994735 0.994798 0.908779
0.994808 0.996773 0.883409
0.994915 1.00056 0.97398
0.99466 0.996858 0.859347
0.996954 0.999902 0.898308
0.994873 0.999857 0.941179
0.995409 1.00482 0.9896
0.994814 0.994827 0.894403
0.99465 0.996297 0.870074
0.998613 0.998051 0.904029
0.995189 0.99997 0.948889
0.994935 1.00006 0.966724
0.995292 1.0033 0.999713
0.995957 1.00401 0.998114
0.997362 1.00134 0.997578
0.99566 1.00479 0.997129
0.998617 1.00165 0.994984
1.00286 0.999966 0.990898
1.00213 1.00264 0.99049
1.00227 1.00395 0.987313
1.00299 1.00446 0.984402
1.00323 1.00297 0.986241
1.00442 1.00388 0.983155
1.00434 1.00426 0.982642
1.00496 1.00111 0.98479
1.00504 1.00119 0.984612
1.00481 1.00185 0.984188
1.00388 1.00179 0.98575
1.0041 1.0019 0.985521
1.0043 1.00252 0.984421
1.00231 1.00414 0.98681
1.00284 1.00298 0.986992
1.00289 1.00263 0.986857
1.00036 1.005 0.988951
1.00059 1.0047 0.988839
1.00145 1.00417 0.98842
1.00006 1.00252 0.99203
1.00014 1.00429 0.990264
1.00024 1.00488 0.989796
0.999909 0.999004 0.995861
1.00019 1.00162 0.992819
1.00017 1.00329 0.991334
1.00022 1.00115 0.993257
0.999993 0.998759 0.99598
0.999734 0.997409 0.999113
1.00009 0.998495 0.996081
0.999811 0.997237 0.999128
0.999879 0.997098 0.999137
1.00035 1.00389 0.990292
1.00045 1.00299 0.991084
1.00033 1.00137 0.992829
1.00037 1.00274 0.991438
1.00017 0.998535 0.9959
1.00028 1.00103 0.993243
1.00031 1.0025 0.991735
1.00001 0.996886 0.999136
1.00016 0.998277 0.996169
1.0002 1.00078 0.993592
1.00002 0.996702 0.999204
1.00015 0.998048 0.996419
1.00004 0.996567 0.999253
0.994701 0.994788 0.907131
0.994742 0.994798 0.912717
0.994739 0.994821 0.908208
1.0004 1.00375 0.990352
1.00043 1.00395 0.990075
1.00026 1.00361 0.990342
1.00016 1.00422 0.990058
1.00048 1.00434 0.990016
1.00041 1.00355 0.99048
1.0003 1.00383 0.990388
1.00035 1.00394 0.990258
1.0004 1.00399 0.990273
1.00008 1.00464 0.990231
0.994791 0.997326 0.883142
0.994775 0.994764 0.889186
0.99481 0.994766 0.899773
0.994829 0.994798 0.878349
0.994985 0.999941 0.89757
0.994891 0.998381 0.962545
0.994895 0.999972 0.95049
0.995049 0.996641 0.964843
0.99492 0.999586 0.951017
0.994851 0.999975 0.904592
0.994803 0.997325 0.863525
0.99503 0.994987 0.969737
0.994917 1 0.950998
0.995424 0.999881 0.909849
0.994714 0.996762 0.868584
0.998752 1.0038 0.99282
0.999735 1.00486 0.990535
1.00023 1.00439 0.989995
0.994935 1.00074 0.987546
0.995354 1.004 0.99894
0.999511 1.00445 0.991175
0.997228 1.0052 0.993537
0.997725 1.00454 0.994233
0.996442 1.00366 0.997379
0.994984 0.998898 0.989663
0.996098 1.00198 0.998598
0.996009 0.999871 0.990491
0.994833 0.995852 0.897866
0.994712 0.994775 0.913784
0.994721 0.994737 0.922493
0.994977 1.00264 0.995831
0.994924 1.00099 0.970561
0.994739 0.994823 0.908587
0.995916 0.999975 0.94825
0.995048 0.99991 0.91027
0.994778 0.996467 0.883236
0.994704 0.99687 0.848533
0.99541 1.005 0.990113
0.994807 0.99526 0.894268
0.994676 0.996379 0.867577
0.994924 1.00004 0.967721
0.998437 0.999202 0.904781
0.996003 0.999944 0.944402
0.994917 1.00459 0.987203
0.994692 0.994839 0.876763
0.999756 0.99765 0.909682
0.997662 0.998771 0.940589
0.994886 0.997392 0.969649
0.995458 1.00488 0.998063
0.997338 1.00175 0.997486
1.00159 1.00184 0.991658
0.997479 1.00193 0.995374
1.00176 1.00027 0.991041
1.00387 0.999534 0.988283
1.00266 1.00372 0.987257
1.00309 1.00428 0.984432
1.00441 1.00165 0.984749
1.00477 1.00389 0.982736
1.00438 1.00387 0.982739
1.00478 1.00093 0.985136
1.00514 0.999114 0.986293
1.00508 1.00059 0.984952
1.0049 1.00101 0.984878
1.00506 1.00141 0.984529
1.00502 1.00123 0.984592
1.00475 1.00198 0.984161
1.00369 1.00284 0.985662
1.00384 1.00184 0.985902
1.00413 1.00183 0.985681
1.00148 1.00427 0.987783
1.0021 1.00409 0.986979
1.0027 1.00298 0.986963
1.00004 1.00397 0.990537
1.00052 1.00492 0.98897
1.00066 1.00475 0.989065
0.999828 0.999527 0.996112
1.00014 1.00254 0.991998
1.00032 1.00414 0.990284
0.999665 0.997659 0.997839
0.999905 0.999095 0.996109
1.00022 1.00161 0.992801
0.999988 0.998789 0.995966
0.999731 0.99745 0.999104
0.999803 0.997265 0.999123
1.00026 1.00414 0.990181
1.00043 1.00336 0.990753
1.00028 1.00397 0.99026
1.00036 1.00172 0.992444
1.00037 1.0031 0.991076
1.00014 0.998841 0.995644
1.00033 1.00136 0.992832
1.00043 1.00268 0.991426
0.999979 0.997086 0.999078
1.00016 0.998517 0.995916
1.00027 1.00104 0.993242
1.00001 0.996872 0.999152
1.00015 0.998265 0.996185
1.00003 0.996684 0.999217
0.994938 0.994847 0.899768
0.994723 0.994793 0.906962
0.994732 0.994797 0.914304
1.00058 1.00309 0.990551
1.00037 1.00384 0.99038
1.00033 1.00397 0.99009
1.00031 1.00424 0.990048
1.00052 1.0035 0.990391
1.00037 1.0041 0.990254
1.00079 1.00405 0.989414
0.999758 1.00471 0.99006
1.00043 1.00384 0.990262
1.0001 1.00411 0.990327
0.999942 1.00458 0.990215
0.999404 1.00486 0.991567
0.995145 0.996503 0.870123
0.994988 0.997292 0.882771
0.994764 0.994767 0.889296
0.994787 0.996904 0.870293
0.994853 0.999957 0.9044
0.994951 0.999951 0.941839
0.994971 0.996539 0.963443
0.99493 0.995021 0.971295
0.99471 0.996923 0.858202
0.994895 0.999781 0.945932
0.996965 0.999911 0.898685
0.994874 0.996252 0.971864
0.995244 0.999961 0.951173
0.999118 0.998506 0.900686
0.999174 1.00157 0.995048
0.998917 1.0039 0.992774
0.99963 1.0048 0.990476
0.994883 0.999221 0.989899
0.995695 1.00325 0.997437
0.997722 1.00424 0.99425
0.997286 1.00183 0.998447
0.995528 0.99969 0.990594
0.996963 0.998751 0.993643
0.994751 0.997279 0.879765
0.994835 0.9954 0.901348
0.994725 0.994759 0.914826
0.995225 1.00499 0.990405
0.994873 1.00005 0.967799
0.994798 0.995777 0.894233
0.995083 0.999966 0.941963
0.998446 0.99799 0.893734
0.994708 0.99635 0.872885
0.995084 1.00487 0.987149
0.994701 0.995304 0.882893
0.999825 0.996428 0.899642
0.994973 0.997149 0.965693
0.99744 0.999012 0.949165
0.99664 1.00229 0.991108
0.999839 0.99559 0.898961
1.00002 0.997673 0.949609
0.994891 0.995566 0.965132
0.997149 1.00217 0.997503
1.00095 1.00111 0.991921
1.00314 1.00129 0.988838
1.00067 1.00074 0.991192
1.00319 1.00024 0.988282
1.00457 0.998356 0.987848
1.00317 1.00412 0.98446
1.00427 1.0017 0.984725
1.00499 0.997776 0.987379
1.00442 1.00347 0.982835
1.00472 1.00074 0.985181
1.00508 0.997396 0.987968
1.00512 0.997375 0.98811
1.00517 0.999389 0.986
1.00513 0.998981 0.986425
1.0051 1.00077 0.984838
1.00507 1.0006 0.985021
1.00485 1.0009 0.984967
1.00485 1.00126 0.985077
1.00491 1.00137 0.984669
1.00499 1.00124 0.984571
1.00285 1.00329 0.986502
1.00364 1.00279 0.985655
1.00382 1.00185 0.986053
1.00064 1.00463 0.989
1.00157 1.00435 0.987755
1.00188 1.00401 0.98715
0.99976 1.00036 0.994677
1.00025 1.00381 0.990535
1.00071 1.00485 0.988989
0.999576 0.997936 0.999026
0.999814 0.999623 0.99542
1.00021 1.00253 0.991967
0.999668 0.99765 0.999076
0.999879 0.999165 0.995788
0.999729 0.997499 0.999095
1.00073 1.00365 0.989971
1.00031 1.00414 0.990132
1.00043 1.00371 0.990397
1.00032 1.00212 0.992109
1.00038 1.0034 0.990748
1.00029 1.00397 0.990227
1.00011 0.999144 0.99539
1.00033 1.00174 0.992448
1.00032 1.00319 0.991069
0.999941 0.99731 0.999013
1.00014 0.998804 0.995658
1.00033 1.00136 0.992835
0.999981 0.997048 0.999095
1.00016 0.998501 0.995931
1.00001 0.996827 0.999169
0.995182 0.99603 0.869908
0.994971 0.994832 0.899666
0.994731 0.994799 0.906797
1.00043 1.00338 0.990494
1.00143 1.003 0.990166
1.00059 1.0036 0.990141
1.00035 1.00433 0.990037
1.00078 1.00336 0.99044
1.00012 1.00392 0.990491
0.999955 1.00475 0.989996
1.00062 1.00412 0.989541
1.00042 1.00472 0.989397
0.999972 1.00075 0.993652
1.00014 1.00453 0.990199
0.999485 1.00471 0.991233
0.999792 0.997358 0.894646
0.994959 0.996474 0.864654
0.995189 0.997423 0.882485
0.994708 0.997173 0.847533
0.996611 0.999084 0.909965
0.994853 0.99996 0.943678
0.994892 0.99518 0.969104
0.99492 0.996198 0.970571
0.998437 0.999467 0.903369
0.996033 0.999951 0.942364
0.994892 0.997523 0.971947
0.998558 0.998928 0.940613
1.0019 0.997812 0.994323
0.999135 1.00169 0.994893
0.999057 1.00408 0.992742
0.995031 0.99953 0.990648
0.998267 1.00169 0.998287
0.997587 0.998801 0.993174
0.998965 0.998389 0.990726
0.999875 0.994854 0.907843
0.994762 0.996566 0.879805
0.994805 0.994843 0.904736
0.99537 1.00513 0.987268
0.994952 0.996959 0.963652
0.994701 0.995667 0.88304
0.998734 0.998657 0.939534
0.999835 0.996889 0.910504
0.996288 1.00148 0.98894
0.999864 0.995338 0.905548
1.0015 0.997176 0.939269
0.994936 0.995553 0.968574
0.998377 0.996873 0.991592
1.00003 0.995829 0.950413
0.996297 0.995847 0.970928
1.0002 1.00036 0.992119
1.00295 1.00003 0.988817
1.00485 0.997811 0.989073
1.00253 1.00079 0.988287
1.0043 0.998546 0.987845
1.00489 0.996398 0.989133
1.00423 1.00172 0.984702
1.00494 0.998078 0.987298
1.00509 0.995722 0.98947
1.00467 1.00055 0.985225
1.00508 0.997411 0.987954
1.00511 0.995833 0.989598
1.00511 0.996451 0.989317
1.00514 0.997191 0.988323
1.00513 0.998076 0.98759
1.00516 0.999843 0.985788
1.00517 0.999457 0.986043
1.00513 0.998848 0.986558
1.00513 1.00065 0.985074
1.00511 1.00076 0.984829
1.00506 1.00059 0.985089
1.0041 1.00203 0.98562
1.00473 1.00138 0.985073
1.00474 1.00138 0.98481
1.00157 1.00401 0.988026
1.0029 1.00331 0.986493
1.00358 1.00275 0.985648
0.999937 1.00126 0.993444
1.00078 1.00439 0.989008
1.00172 1.00435 0.987727
0.999625 0.998257 0.998873
0.999787 1.00046 0.994622
1.00042 1.0037 0.990534
0.999618 0.997962 0.998348
0.999805 0.999711 0.9954
0.999682 0.997721 0.999049
1.00104 1.00295 0.990118
1.00046 1.0038 0.990072
1.00036 1.00408 0.990023
1.0004 1.00413 0.990082
1.00035 1.00379 0.990394
1.00029 1.00252 0.991749
1.00005 0.999478 0.995169
1.00031 1.00211 0.992113
1.00029 1.0035 0.990742
0.999891 0.997536 0.998946
1.0001 0.999128 0.995401
1.00032 1.00176 0.992451
0.999942 0.997265 0.999034
1.00015 0.998776 0.995672
0.999983 0.997028 0.999112
0.999825 0.995085 0.906318
0.995079 0.996049 0.872857
0.995019 0.994815 0.899542
1.0003 1.00364 0.990438
1.00055 1.00412 0.989605
1.00108 1.00295 0.990433
1.00249 1.00347 0.987239
1.00052 1.00406 0.989992
1.00011 1.00476 0.989934
1.00054 1.00417 0.989668
1.0002 1.00465 0.98965
1.00086 1.00344 0.988856
1.00131 0.999759 0.992901
1.00417 0.997211 0.990049
1.00021 1.0005 0.993726
0.999921 1.00398 0.990894
0.998713 0.997424 0.94952
0.999774 0.997861 0.899313
0.994893 0.99639 0.866632
0.999018 0.999766 0.891745
0.995608 0.999953 0.948621
0.994871 0.996122 0.971752
0.994874 0.997509 0.973723
0.997418 0.998781 0.950972
0.995886 0.997493 0.973082
1.00235 0.996077 0.994429
1.00119 0.998528 0.994405
0.999155 1.00184 0.994728
0.998346 0.998591 0.992793
0.999551 0.998364 0.990281
0.999988 0.994916 0.945022
0.999862 0.994881 0.911519
0.994797 0.995967 0.879956
0.995885 1.00064 0.986699
0.995041 0.995205 0.965406
0.999851 0.995592 0.906361
1.00043 0.997743 0.948651
0.997517 0.997983 0.991944
1.00125 0.995888 0.948794
0.996687 0.995237 0.967924
1.00139 0.996269 0.990507
0.999124 0.995659 0.976998
1.0028 0.998906 0.988867
1.00479 0.996857 0.989006
1.00499 0.995854 0.990263
1.00404 0.998726 0.98784
1.00473 0.99656 0.989061
1.00515 0.995027 0.990129
1.00482 0.998392 0.987216
1.00509 0.995801 0.989426
1.00507 0.995002 0.990404
1.00507 0.997426 0.98794
1.00511 0.995865 0.989553
1.00514 0.995467 0.990134
1.00511 0.996206 0.989463
1.00511 0.997033 0.988732
1.00515 0.997006 0.988538
1.00513 0.998091 0.987566
1.00517 0.998938 0.986708
1.00518 1.0002 0.985479
1.00516 0.999885 0.985765
1.00516 0.999521 0.986086
1.0048 1.00079 0.985525
1.00509 1.0007 0.985046
1.00511 1.00075 0.98482
1.00262 1.00275 0.987408
1.00405 1.00208 0.98563
1.00461 1.00149 0.98507
1.00034 1.00172 0.992278
1.00162 1.00392 0.988013
1.00285 1.00343 0.986485
0.999743 0.998801 0.998578
1.00001 1.00127 0.993416
1.00096 1.00417 0.989015
0.99969 0.99837 0.998782
0.999829 1.00054 0.994565
0.999683 0.997997 0.998937
1.00254 1.00339 0.987194
1.0011 1.00282 0.990091
1.00052 1.00398 0.989684
1.00023 1.0039 0.990174
1.00031 1.00412 0.989991
1.00031 1.00298 0.991245
1.00028 1.00385 0.990391
1.00027 1.00252 0.991756
0.99997 0.999825 0.994966
0.999821 0.997798 0.998888
1.00005 0.99945 0.99518
1.0003 1.00209 0.992116
0.999893 0.997515 0.998967
1.00009 0.999116 0.995412
0.999947 0.997221 0.999053
1.00003 0.995347 0.953344
0.999841 0.994937 0.905516
0.994839 0.996071 0.869334
1.00052 1.00471 0.98907
1.00079 1.00284 0.9907
1.00075 1.00394 0.989881
1.00235 1.00348 0.987409
1.00403 1.00253 0.98496
1.00115 1.00356 0.98868
0.999956 1.00468 0.989902
1.0016 1.00341 0.988061
1.00099 0.999917 0.992982
1.00297 0.999931 0.989018
1.00475 0.996182 0.990852
1.0041 0.996568 0.990785
1.00371 0.997108 0.990673
0.999955 1.00066 0.993803
0.995992 0.996019 0.972408
1.0001 0.997234 0.946664
0.998062 0.997551 0.909808
0.997755 0.99943 0.940564
0.99487 0.997894 0.974417
0.995831 0.997676 0.977875
0.999685 0.997815 0.992235
1.00267 0.995728 0.99434
1.00077 0.999058 0.994488
1.00097 0.99839 0.989812
0.996437 0.997541 0.973159
1.00026 0.995031 0.954631
0.999847 0.994869 0.90113
0.996711 0.998966 0.992146
0.996861 0.99489 0.9699
1.00005 0.996677 0.946941
1.00086 0.996176 0.990631
0.998488 0.99578 0.976368
1.00366 0.995583 0.990927
1.00273 0.998323 0.987395
1.00473 0.995966 0.988907
1.00486 0.995689 0.990277
1.00516 0.994832 0.990626
1.00461 0.996717 0.988991
1.00516 0.995021 0.990085
1.0051 0.994927 0.990543
1.00509 0.995875 0.989382
1.00506 0.995093 0.990373
1.00515 0.995075 0.990446
1.00511 0.995903 0.989507
1.00513 0.995451 0.990063
1.00512 0.996094 0.98948
1.00511 0.995965 0.989607
1.00511 0.996889 0.988882
1.00516 0.998227 0.987524
1.00514 0.998106 0.987543
1.00517 0.998994 0.986681
1.0052 0.999681 0.986069
1.00501 1.00021 0.985645
1.00517 1.00024 0.985453
1.00516 0.99993 0.985741
1.00356 1.00135 0.987177
1.00479 1.00084 0.985527
1.00506 1.00075 0.985017
1.00075 1.00183 0.991458
1.0026 1.0028 0.987413
1.00402 1.00212 0.98564
0.999944 0.999356 0.998195
1.00044 1.00167 0.992269
1.00169 1.00382 0.988
0.999846 0.998919 0.998435
1.00007 1.0013 0.993389
0.999775 0.998457 0.998668
1.00411 1.00266 0.985155
1.0026 1.00337 0.987211
1.00158 1.00407 0.98785
1.00109 1.00278 0.990064
1.00063 1.00391 0.989565
1.00058 1.00329 0.990529
1.00025 1.00416 0.989959
1.00029 1.003 0.991249
0.999891 1.00025 0.994685
1.00025 1.00252 0.991762
0.999966 0.999784 0.99498
0.999747 0.998067 0.998831
0.999828 0.997757 0.998907
1.00004 0.999423 0.99519
0.999893 0.997463 0.998988
0.996804 0.994897 0.974004
1.00017 0.995579 0.944008
0.999824 0.995278 0.912914
1.00512 1.00085 0.984722
1.00098 1.00379 0.989768
1.00224 1.00351 0.987581
1.00156 1.00347 0.988401
1.00405 1.00264 0.984947
1.00353 1.00077 0.98734
1.00231 1.00344 0.987267
1.00067 1.00004 0.993068
1.00339 0.999699 0.988899
1.00462 0.995898 0.990711
1.00486 0.996448 0.989074
1.00415 0.995643 0.991868
1.00401 0.996205 0.990709
1.00321 0.996941 0.991298
0.999929 0.997068 0.992392
0.995808 0.995791 0.970711
0.999431 0.996525 0.944432
0.995513 0.997284 0.97641
0.999894 0.996898 0.994309
1.00239 0.99544 0.99424
1.00058 0.997558 0.9868
0.996384 0.996223 0.974623
1 0.994897 0.945126
1.00007 0.996583 0.990822
0.998444 0.996203 0.97523
1.00322 0.995511 0.991257
1.00277 0.997736 0.987838
1.00445 0.994834 0.991237
1.00452 0.997565 0.990696
1.00475 0.995504 0.990289
1.00516 0.994841 0.990508
1.00519 0.99485 0.990414
1.00516 0.995024 0.99004
1.0051 0.994922 0.990533
1.00516 0.994933 0.990516
1.00506 0.995178 0.990342
1.00515 0.995047 0.990414
1.00514 0.995643 0.989905
1.00512 0.995428 0.989991
1.00513 0.996107 0.989466
1.00516 0.997345 0.988334
1.00512 0.996745 0.989032
1.00516 0.998089 0.987701
1.00521 0.99928 0.986436
1.00517 0.999048 0.986653
1.0052 0.999696 0.986033
1.00511 1.00002 0.985784
1.004 1.00052 0.987213
1.005 1.00027 0.985665
1.00517 1.00029 0.985426
1.00126 1.00136 0.991092
1.0035 1.00141 0.987185
1.00477 1.00088 0.985529
1.00008 0.999834 0.997877
1.00093 1.00162 0.991448
1.00257 1.00281 0.987421
1.00003 0.999455 0.998069
1.00056 1.00156 0.992262
0.999948 0.999025 0.998292
1.005 1.00122 0.984672
1.00401 1.00262 0.98516
1.00312 1.00317 0.98616
1.00267 1.00334 0.987228
1.00167 1.00411 0.987803
1.00091 1.00392 0.989382
1.00075 1.00384 0.989446
1.00041 1.00349 0.990535
0.99987 1.00077 0.994204
1.00023 1.00305 0.991254
0.999884 1.00019 0.994706
0.999691 0.998377 0.998743
0.999963 0.999748 0.994995
0.999751 0.998021 0.998852
0.999832 0.997731 0.998925
1.00101 0.99491 0.990775
0.996779 0.994898 0.970546
0.999994 0.994912 0.953907
1.0047 0.999819 0.986199
1.00514 0.999406 0.986236
1.00508 1.00072 0.984868
1.00195 1.00335 0.988118
1.00406 1.00275 0.98493
1.00382 1.00059 0.987309
1.00506 0.99734 0.987954
1.00383 0.999454 0.988779
1.00443 0.995671 0.990562
1.00489 0.996495 0.98932
1.00499 0.995702 0.989774
1.00415 0.995449 0.991672
1.00389 0.995819 0.991728
1.00415 0.995944 0.990625
1.00019 0.996918 0.992523
0.995963 0.995722 0.968938
1.00023 0.996609 0.99646
1.00414 0.995653 0.991968
1.00045 0.997741 0.986985
0.996319 0.99583 0.972368
1.0031 0.994871 0.991559
1.00279 0.997673 0.988315
1.00451 0.994991 0.991582
1.00456 0.996778 0.990651
1.00522 0.994933 0.990404
1.00527 0.994972 0.990604
1.00516 0.99485 0.990391
1.0052 0.994873 0.990397
1.0052 0.994928 0.990374
1.00509 0.99492 0.990522
1.00516 0.994938 0.990489
1.00517 0.995287 0.990249
1.00514 0.995027 0.990382
1.00515 0.995664 0.989894
1.00515 0.996749 0.988935
1.00514 0.996121 0.989453
1.00515 0.997364 0.988336
1.00522 0.998838 0.986825
1.00516 0.997949 0.987878
1.00521 0.999221 0.986506
1.00515 0.999912 0.985832
1.0052 0.999713 0.985997
1.0051 1.00002 0.985798
1.0042 1.00017 0.987206
1.00153 1.00078 0.991142
1.00399 1.00055 0.987205
1.00498 1.00034 0.985686
1.00016 1.00018 0.997658
1.00131 1.00128 0.991091
1.00342 1.00151 0.987194
1.00014 0.999934 0.997779
1.00103 1.00152 0.991441
1.0001 0.999572 0.997947
1.00511 1.0003 0.985376
1.00501 1.00113 0.984703
1.00443 1.00141 0.985593
1.0039 1.00257 0.985163
1.00312 1.0032 0.986171
1.00173 1.00378 0.98803
1.00175 1.00415 0.987755
1.00075 1.00404 0.98941
1.00006 1.00141 0.993301
1.00029 1.00365 0.990543
0.999849 1.00073 0.994225
0.99968 0.998782 0.998576
0.999881 1.00014 0.994727
0.999683 0.998315 0.998779
0.999756 0.997979 0.998871
1.00406 0.994889 0.992544
1.00099 0.995034 0.989076
0.996569 0.994897 0.970069
1.0051 0.998502 0.987265
1.00493 0.99946 0.986269
1.00521 0.998166 0.987383
1.00515 0.999386 0.98625
1.00504 1.00058 0.985014
1.00512 0.99653 0.988745
1.00414 1.00041 0.987279
1.00505 0.997574 0.987913
1.00514 0.995214 0.990031
1.00492 0.996517 0.98957
1.00496 0.995797 0.989663
1.00416 0.995551 0.991798
1.00345 0.99592 0.991581
1.00039 0.996846 0.992575
1.00521 0.994894 0.990476
1.00412 0.996311 0.992024
1.00041 0.997553 0.987157
1.00455 0.995153 0.99192
1.00458 0.996002 0.990613
1.00522 0.994915 0.990451
1.00526 0.995024 0.990516
1.00522 0.994943 0.990587
1.0052 0.994891 0.99038
1.0052 0.994926 0.990394
1.00521 0.995032 0.990487
1.00515 0.994941 0.990463
1.00516 0.995292 0.990204
1.00515 0.996293 0.989357
1.00516 0.995682 0.989882
1.00515 0.996774 0.988933
1.00522 0.99842 0.987252
1.00515 0.997382 0.988338
1.00521 0.998841 0.986846
1.00518 0.999811 0.985913
1.0052 0.99916 0.986575
1.00515 0.999913 0.98585
1.0043 1.00007 0.987146
1.00508 1.00001 0.985813
1.00421 1.00018 0.987197
1.00162 1.00039 0.992728
1.00037 1.00006 0.994844
1.00158 1.00074 0.991831
1.00397 1.00058 0.987197
1.00019 1.00023 0.997615
1.00143 1.00111 0.991088
1.00019 1.00004 0.997689
1.00523 0.998064 0.987528
1.0052 0.999407 0.986215
1.00513 1.00031 0.985459
1.00486 1.00049 0.985733
1.00502 1.00104 0.984733
1.00449 1.00132 0.985573
1.0029 1.00231 0.987318
1.00312 1.00324 0.986182
1.00166 1.00385 0.988031
1.00051 1.00187 0.992062
1.0006 1.00421 0.989436
0.999951 1.00144 0.993333
0.99975 0.999363 0.998252
0.99983 1.00067 0.994245
0.999646 0.998686 0.998646
0.99968 0.998256 0.99881
1.00519 0.99489 0.990409
1.00442 0.994882 0.992495
1.00121 0.994912 0.987422
1.00514 0.997111 0.988295
1.00511 0.99845 0.987111
1.00512 0.999121 0.986339
1.0052 0.998285 0.987344
1.00515 0.999368 0.986264
1.0052 0.995533 0.989971
1.0051 0.996529 0.988698
1.00503 0.997821 0.987871
1.00514 0.995191 0.990036
1.00496 0.995901 0.989551
1.00419 0.995704 0.991947
1.0052 0.994905 0.990711
1.00522 0.994894 0.990632
1.0041 0.996971 0.992085
1.00521 0.994897 0.990492
1.00527 0.994963 0.990429
1.00522 0.994944 0.990537
1.00519 0.994936 0.990764
1.0052 0.994925 0.990414
1.00519 0.995013 0.990451
1.00515 0.995996 0.989715
1.00516 0.995301 0.990159
1.00516 0.996313 0.989358
1.00522 0.99809 0.987603
1.00515 0.9968 0.988932
1.00522 0.998423 0.987264
1.0052 0.999684 0.986035
1.00521 0.998843 0.986867
1.00518 0.999804 0.98593
1.00435 1.00007 0.987064
1.00514 0.999914 0.985868
1.00431 1.00006 0.987146
1.00174 1.00009 0.992842
1.00422 1.00018 0.987188
1.00178 1.00031 0.992652
1.00036 0.99999 0.99498
1.00018 1.0003 0.996242
1.00176 1.00066 0.992392
1.00019 1.00032 0.997586
1.00518 0.997433 0.98828
1.00523 0.999048 0.986482
1.00522 0.997876 0.987711
1.00501 1.0001 0.985799
1.00522 0.999476 0.986154
1.00515 1.00033 0.985542
1.0049 1.00043 0.985712
1.00377 1.00091 0.987206
1.00456 1.00124 0.985554
1.00297 1.00224 0.987298
1.00102 1.00174 0.991201
1.00157 1.0039 0.988032
1.00032 1.00203 0.99209
0.999889 1.00011 0.997837
0.999832 1.0015 0.993362
0.999669 0.999247 0.998387
0.999629 0.998595 0.998706
1.0052 0.994936 0.990446
1.00518 0.994909 0.990394
1.00468 0.994901 0.992412
1.00518 0.996228 0.989365
1.00513 0.997175 0.98828
1.00512 0.998401 0.986956
1.00518 0.998407 0.987307
1.00519 0.995543 0.989884
1.00508 0.996532 0.98865
1.00514 0.995197 0.990043
1.00515 0.99493 0.990824
1.00519 0.994911 0.990701
1.0052 0.9949 0.990788
1.00522 0.994952 0.990609
1.00522 0.994947 0.990486
1.00519 0.994977 0.990705
1.00515 0.995771 0.990082
1.00518 0.994995 0.990414
1.00517 0.995964 0.989716
1.00519 0.997884 0.987903
1.00517 0.996337 0.989359
1.00522 0.998093 0.987608
1.0052 0.999515 0.986218
1.00522 0.998427 0.987276
1.0052 0.999672 0.986048
1.00439 1.00006 0.987
1.00518 0.999796 0.985948
1.00436 1.00006 0.987072
1.00182 1.00004 0.992791
1.00433 1.00005 0.987145
1.00187 1.00004 0.992743
1.00041 0.999886 0.995032
1.00193 1.00021 0.992586
1.00008 1.00015 0.995161
0.999756 1.00057 0.997895
1.00518 0.997347 0.988261
1.00522 0.998519 0.987135
1.00518 0.997488 0.988135
1.00518 0.999821 0.986055
1.00524 0.998855 0.986649
1.00522 0.997691 0.987892
1.00419 1.0003 0.987122
1.00506 1.00008 0.985765
1.00524 0.999543 0.986093
1.00495 1.00037 0.985691
1.00379 1.00086 0.987212
1.00139 1.0012 0.991047
1.00303 1.00217 0.987278
1.00092 1.00187 0.991203
0.999951 1.00066 0.997602
1.00017 1.00215 0.992119
0.999779 0.999952 0.997998
0.999613 0.999087 0.998503
1.00517 0.995438 0.990194
1.00521 0.99493 0.990457
1.00519 0.994902 0.990379
1.00518 0.996126 0.989446
1.00511 0.997234 0.988265
1.00518 0.995551 0.989798
1.0052 0.994985 0.990703
1.00515 0.994936 0.990839
1.0052 0.994916 0.990691
1.00523 0.994949 0.990701
1.00522 0.995954 0.98975
1.00518 0.995024 0.990647
1.00517 0.995908 0.989888
1.00515 0.997514 0.988432
1.0052 0.99593 0.989716
1.00518 0.997861 0.987907
1.00519 0.99932 0.986436
1.00522 0.998084 0.987612
1.0052 0.999502 0.986227
1.00442 1.00001 0.986998
1.0052 0.999661 0.986062
1.0044 1.00006 0.987011
1.00187 1.0001 0.992623
1.00437 1.00004 0.987079
1.00194 0.999994 0.992669
1.00048 0.999883 0.99494
1.00199 0.999996 0.992654
1.00016 0.999937 0.995233
0.9998 1.00034 0.995325
1.00518 0.996656 0.989067
1.00521 0.998365 0.987287
1.00518 0.997151 0.988428
1.00521 0.999391 0.986439
1.00522 0.998613 0.987023
1.00518 0.997543 0.98799
1.00437 0.999953 0.987124
1.00519 0.999703 0.98604
1.00525 0.998665 0.986817
1.00158 1.00065 0.991234
1.00417 1.00028 0.987136
1.00512 1.00006 0.985731
1.00381 1.00082 0.98722
1.00132 1.00129 0.991051
0.999976 1.00082 0.997574
1.0008 1.002 0.991211
0.999921 1.00051 0.997671
0.999678 0.999778 0.998157
1.00519 0.995238 0.990373
1.00517 0.995474 0.990143
1.0052 0.994925 0.99047
1.00518 0.996028 0.989527
1.00521 0.996147 0.989635
1.00521 0.995006 0.990723
1.00515 0.994945 0.990854
1.00523 0.994947 0.990792
1.00521 0.995926 0.989792
1.00518 0.997544 0.988343
1.00518 0.996034 0.989693
1.00514 0.997714 0.988166
1.00518 0.998945 0.98687
1.00518 0.997849 0.987911
1.00519 0.999314 0.986444
1.00444 0.999928 0.987044
1.00519 0.999497 0.986236
1.00442 1.00001 0.987007
1.00194 1.00017 0.991129
1.0044 1.00005 0.987021
1.00198 1.00007 0.991837
1.00041 0.999937 0.997575
1.00205 0.999966 0.99255
1.00025 0.999871 0.995155
0.999921 0.999986 0.995418
1.00518 0.996234 0.989535
1.0052 0.998038 0.987717
1.00518 0.996735 0.989031
1.0052 0.999165 0.986513
1.00521 0.99837 0.987284
1.00519 0.996953 0.988594
1.00441 0.999733 0.987057
1.00521 0.999397 0.986446
1.00521 0.998703 0.986912
1.00174 1.00013 0.991444
1.00436 0.999911 0.987048
1.00519 0.999577 0.986026
1.00005 1.00065 0.99763
1.00156 1.00065 0.991246
1.00415 1.00026 0.98715
1.00125 1.00136 0.991057
0.999979 1.00072 0.997572
0.999831 1.00041 0.997772
1.00518 0.996044 0.989718
1.00519 0.995326 0.990337
1.00517 0.995507 0.990091
1.00519 0.997595 0.988218
1.0052 0.996032 0.989711
1.00522 0.995026 0.990743
1.0052 0.995901 0.989834
1.00518 0.997521 0.988354
1.00516 0.998869 0.987134
1.00514 0.997914 0.9879
1.00518 0.999094 0.98677
1.00444 0.999722 0.987099
1.00518 0.999301 0.986451
1.00444 0.999926 0.987049
1.00196 1.00014 0.991122
1.00442 1.00001 0.987016
1.00195 1.00016 0.991129
1.0004 0.99998 0.99754
1.002 1.00006 0.991147
1.00031 0.999932 0.996337
1.00002 0.999836 0.995368
1.00518 0.996438 0.989291
1.0052 0.99787 0.987878
1.00518 0.996219 0.989585
1.0052 0.999205 0.986478
1.00521 0.998094 0.987635
1.00518 0.996818 0.988996
1.00445 0.999649 0.987108
1.0052 0.999284 0.986481
1.0052 0.998376 0.987281
1.00187 0.999893 0.99147
1.0044 0.999733 0.987061
1.00521 0.999406 0.986453
1.00021 1.0003 0.997664
1.00176 1.0001 0.991445
1.00435 0.99987 0.986971
1.00006 1.0006 0.997603
1.00155 1.00064 0.991258
0.999953 1.00067 0.997582
1.0052 0.997433 0.988369
1.00518 0.996126 0.989622
1.0052 0.995415 0.990301
1.00516 0.998762 0.987248
1.00519 0.997501 0.98831
1.0052 0.995917 0.989786
1.00518 0.997497 0.988364
1.00516 0.998873 0.987133
1.00439 0.999625 0.98729
1.00518 0.999245 0.98667
1.00445 0.999777 0.987107
1.00198 1.00005 0.991178
1.00444 0.999921 0.987055
1.00195 1.00014 0.991124
1.00039 1.00001 0.997502
1.00194 1.00015 0.991128
1.0004 0.999993 0.997521
1.00039 0.99989 0.994902
1.00522 0.997757 0.987936
1.00517 0.996252 0.989465
1.00521 0.999087 0.986619
1.00521 0.997878 0.987863
1.00518 0.996201 0.989635
1.00445 0.999694 0.987273
1.0052 0.999214 0.986473
1.00521 0.998148 0.987552
1.00196 0.999868 0.991352
1.00444 0.999691 0.987156
1.0052 0.999406 0.986449
1.00036 1.00005 0.99762
1.00188 0.999885 0.991472
1.0044 0.999725 0.987064
1.00019 1.00032 0.997653
1.00177 1.00009 0.991445
1.00005 1.00058 0.997584
1.00519 0.998739 0.987207
1.0052 0.997511 0.988277
1.00517 0.99621 0.989526
1.00435 0.999577 0.987401
1.00516 0.998768 0.987247
1.00519 0.997406 0.988402
1.00516 0.998881 0.987132
1.00441 0.999616 0.987264
1.00193 1.00001 0.991303
1.00445 0.999831 0.987114
1.00196 1.00006 0.991182
1.00042 1.00001 0.997489
1.00195 1.00014 0.991126
1.0004 1.00002 0.9975
1.00041 1 0.997508
1.00521 0.998976 0.986734
1.00522 0.997539 0.988174
1.00516 0.996068 0.989639
1.00442 0.999677 0.987348
1.0052 0.999096 0.986609
1.00521 0.997885 0.987848
1.00197 0.999952 0.991265
1.00443 0.999698 0.987268
1.00519 0.999223 0.986469
1.00044 0.999948 0.997547
1.00196 0.999884 0.991352
1.00443 0.999727 0.987204
1.00032 1.00008 0.99764
1.00188 0.999893 0.991473
1.00019 1.00031 0.997632
1.00436 0.999655 0.987475
1.00518 0.998689 0.987183
1.0052 0.997589 0.988186
1.00189 0.999953 0.991446
1.00436 0.999559 0.98739
1.00516 0.998771 0.987246
1.00442 0.999602 0.987238
1.00193 0.999992 0.991311
1.00041 1.00001 0.997485
1.00194 1.00007 0.991185
1.00041 1.00002 0.997481
1.00038 1.00003 0.997496
1.00439 0.999658 0.987421
1.0052 0.99885 0.986869
1.00522 0.997323 0.988412
1.00204 1 0.99251
1.00441 0.999675 0.987348
1.00519 0.999105 0.986599
1.00043 0.999956 0.997501
1.00197 0.999972 0.991266
1.00442 0.999703 0.987262
1.00042 0.999978 0.997576
1.00196 0.999909 0.991352
1.0003 1.0001 0.997655
1.00194 0.999953 0.99139
1.00436 0.999598 0.987438
1.00518 0.998636 0.987158
1.00034 0.999995 0.997524
1.00188 0.999952 0.991444
1.00437 0.999544 0.987379
1.00192 0.999978 0.991315
1.00038 1.00001 0.997497
1.0004 1.00003 0.997482
1.00206 0.99998 0.99253
1.00439 0.999656 0.987421
1.00519 0.998722 0.987004
1.00005 0.999994 0.997869
1.00194 1.00001 0.991289
1.0044 0.999671 0.987349
1.00043 0.999967 0.997523
1.00197 0.999994 0.991266
1.0004 0.999998 0.997601
1.00034 0.999982 0.994971
1.00196 0.999951 0.992019
1.00436 0.999543 0.9874
1.00036 0.999995 0.997528
1.00188 0.999953 0.991449
1.0004 1 0.997503
0.999971 1 0.995317
1.00199 0.999974 0.991955
1.00438 0.999656 0.987421
1.00021 0.999991 0.996384
1.00194 1.00001 0.991299
1.00043 0.999978 0.997546
1.00035 0.999988 0.997527
1.00187 0.999948 0.991466
1.00033 0.999994 0.997528
1.00017 0.999986 0.996426
1.00191 0.999973 0.991397
1.00041 0.999982 0.997517
1.00036 0.999985 0.997537
1.00036 0.999985 0.997526

TENSORS stress float
0.0017435 -9.86279e-05 0.000184048
-9.86279e-05 0.000695776 -2.5741e-05
0.000184048 -2.5741e-05 0.000674083
0.00550939 -9.80051e-05 0.000179731
-9.80051e-05 0.00296258 1.8978e-05
0.000179731 1.8978e-05 0.00294345
0.00152227 -2.94362e-05 8.49228e-05
-2.94362e-05 0.000570996 -1.01175e-05
8.49228e-05 -1.01175e-05 0.000540115
0.00187249 -5.8764e-05 0.000184174
-5.8764e-05 0.000747153 -1.61229e-05
0.000184174 -1.61229e-05 0.000729594
0.00181867 -8.88172e-05 0.000181204
-8.88172e-05 0.000730908 -2.32232e-05
0.000181204 -2.32232e-05 0.000710955
0.00168984 -9.53622e-05 0.000188758
-9.53622e-05 0.00066315 -2.55039e-05
0.000188758 -2.55039e-05 0.000643165
0.00148971 -7.43615e-05 2.93081e-05
-7.43615e-05 0.000470916 -9.84644e-06
2.93081e-05 -9.84644e-06 0.000386319
0.00543963 -0.000102512 -6.67098e-06
-0.000102512 0.00291005 3.60695e-07
-6.67098e-06 3.60695e-07 0.00289675
0.00546502 7.34727e-05 8.38859e-05
7.34727e-05 0.00288891 5.23761e-06
8.38859e-05 5.23761e-06 0.00287455
0.00521155 -0.000197909 2.03366e-05
-0.000197909 0.00278008 2.83115e-06
2.03366e-05 2.83115e-06 0.00274677
0.00170819 9.45494e-05 0.000185891
9.45494e-05 0.000670696 1.78542e-05
0.000185891 1.78542e-05 0.000661251
0.00061814 0.000190638 2.30637e-05
0.000190638 -3.09293e-05 1.4254e-05
2.30637e-05 1.4254e-05 -0.000125208
0.00165865 -3.30372e-05 0.000193319
-3.30372e-05 0.000615911 2.54555e-06
0.000193319 2.54555e-06 0.000607979
0.00128398 -1.05186e-05 3.6202e-05
-1.05186e-05 0.000415729 1.07718e-06
3.6202e-05 1.07718e-06 0.000378208
0.00136535 -2.08211e-05 -3.10368e-05
-2.08211e-05 0.000479901 5.58151e-06
-3.10368e-05 5.58151e-06 0.000443192
0.00157667 -6.27326e-05 6.46019e-05
-6.27326e-05 0.000585001 -3.6968e-06
6.46019e-05 -3.6968e-06 0.000556972
0.00152483 -1.14667e-05 9.14046e-05
-1.14667e-05 0.00057988 -9.63312e-06
9.14046e-05 -9.63312e-06 0.000545091
0.00154969 -4.52022e-05 7.57799e-05
-4.52022e-05 0.000574851 -8.78239e-06
7.57799e-05 -8.78239e-06 0.000548172
0.00156227 -0.000115718 -3.15293e-05
-0.000115718 0.000505644 3.23356e-06
-3.15293e-05 3.23356e-06 0.000429554
0.00549693 -0.000111541 0.000231953
-0.000111541 0.00291573 -7.07576e-06
0.000231953 -7.07576e-06 0.00292046
0.00184598 -4.0726e-05 0.000186406
-4.0726e-05 0.000729056 -1.2039e-05
0.000186406 -1.2039e-05 0.000712383
0.00187303 -7.57061e-05 0.000181981
-7.57061e-05 0.000753695 -1.99266e-05
0.000181981 -1.99266e-05 0.00073551
0.00153228 -0.000105267 5.06287e-05
-0.000105267 0.000467426 -7.71138e-06
5.06287e-05 -7.71138e-06 0.000391265
0.0015278 -8.97576e-05 3.86361e-05
-8.97576e-05 0.000474364 -9.01623e-06
3.86361e-05 -9.01623e-06 0.000397058
0.00159128 -6.75008e-05 0.000181425
-6.75008e-05 0.000596513 -2.18783e-05
0.000181425 -2.18783e-05 0.000579684
0.00146585 -6.07296e-05 2.19515e-05
-6.07296e-05 0.000478311 -1.06055e-05
2.19515e-05 -1.06055e-05 0.000385322
0.00203449 -0.000222121 1.3895e-05
-0.000222121 0.000649458 -6.30708e-06
1.3895e-05 -6.30708e-06 0.00050467
0.00537751 -0.000118432 -0.000175456
-0.000118432 0.00286502 -1.0926e-05
-0.000175456 -1.0926e-05 0.00285564
0.00351066 7.3706e-05 -0.000106803
7.3706e-05 0.00173622 -8.94962e-06
-0.000106803 -8.94962e-06 0.00171766
0.00340077 -3.70965e-05 -0.000100067
-3.70965e-05 0.00169518 -5.15548e-06
-0.000100067 -5.15548e-06 0.00167044
0.0051883 -0.000153796 4.25729e-06
-0.000153796 0.0027705 -8.23457e-08
4.25729e-06 -8.23457e-08 0.00275229
0.00058746 0.000179437 -2.35835e-06
0.000179437 -4.93998e-05 -6.51088e-07
-2.35835e-06 -6.51088e-07 -0.000141185
0.00159456 5.4056e-05 0.000187652
5.4056e-05 0.000588529 1.45506e-05
0.000187652 1.45506e-05 0.000572291
0.00175629 0.000127585 0.000190504
0.000127585 0.000707349 2.17694e-05
0.000190504 2.17694e-05 0.000685783
0.00263186 0.000174986 0.000116159
0.000174986 0.00112343 1.47882e-05
0.000116159 1.47882e-05 0.0010574
0.00405865 -0.000264367 -4.6585e-07
-0.000264367 0.00212861 4.52204e-06
-4.6585e-07 4.52204e-06 0.00208555
0.0026835 0.000218162 0.000115305
0.000218162 0.00118137 1.683e-05
0.000115305 1.683e-05 0.00111062
0.000601936 0.000155813 2.71939e-05
0.000155813 -3.49718e-05 1.81947e-05
2.71939e-05 1.81947e-05 -0.000121714
0.000885613 0.000180255 1.04727e-05
0.000180255 3.48943e-05 5.17632e-06
1.04727e-05 5.17632e-06 -0.000127658
0.00323231 -0.000104471 0.000103786
-0.000104471 0.00160054 4.42543e-06
0.000103786 4.42543e-06 0.00160397
0.00552038 6.68614e-05 3.66983e-06
6.68614e-05 0.00292021 -1.35275e-06
3.66983e-06 -1.35275e-06 0.00293004
0.00347281 6.04159e-05 -8.80367e-05
6.04159e-05 0.00170757 -3.22949e-06
-8.80367e-05 -3.22949e-06 0.00169353
0.00543137 5.95768e-05 0.000228112
5.95768e-05 0.00286992 2.60111e-06
0.000228112 2.60111e-06 0.00287969
0.00129305 7.05943e-05 3.95925e-05
7.05943e-05 0.000418531 2.13e-06
3.95925e-05 2.13e-06 0.00038561
0.000671248 8.62069e-06 1.62099e-05
8.62069e-06 -6.99651e-05 1.65009e-06
1.62099e-05 1.65009e-06 -0.000142773
0.00537074 0.000188929 0.000117039
0.000188929 0.00285579 1.01602e-05
0.000117039 1.01602e-05 0.00283359
0.00269063 5.67545e-05 0.000113392
5.67545e-05 0.00112479 6.58906e-06
0.000113392 6.58906e-06 0.00107286
0.00121783 -7.36165e-05 -5.01068e-05
-7.36165e-05 0.000387951 6.25279e-06
-5.01068e-05 6.25279e-06 0.000347798
0.00128527 -6.40575e-05 -4.31008e-05
-6.40575e-05 0.00043017 6.57819e-06
-4.31008e-05 6.57819e-06 0.000392772
0.00143062 3.20453e-05 -1.92906e-05
3.20453e-05 0.000525634 5.61802e-06
-1.92906e-05 5.61802e-06 0.000484345
0.00159803 -0.00012624 -9.98865e-05
-0.00012624 0.000520271 1.60007e-05
-9.98865e-05 1.60007e-05 0.000451035
0.0034562 9.97318e-06 -9.32436e-05
9.97318e-06 0.00170441 -1.83901e-06
-9.32436e-05 -1.83901e-06 0.00168793
0.001569 -4.64667e-05 7.13187e-05
-4.64667e-05 0.000575523 -3.10772e-06
7.13187e-05 -3.10772e-06 0.000549429
0.00147246 1.31239e-05 9.40639e-05
1.31239e-05 0.000551355 -7.61468e-06
9.40639e-05 -7.61468e-06 0.000515245
0.00156994 -5.52702e-05 6.88671e-05
-5.52702e-05 0.000580662 -6.22085e-06
6.88671e-05 -6.22085e-06 0.000554809
0.00158566 -8.72463e-05 -2.54229e-05
-8.72463e-05 0.00049196 1.14924e-06
-2.54229e-05 1.14924e-06 0.000422915
0.00154885 -0.000107206 -3.65489e-05
-0.000107206 0.000512271 3.34639e-06
-3.65489e-05 3.34639e-06 0.000431352
0.00158234 -0.000114009 -2.69465e-05
-0.000114009 0.000504267 2.39429e-06
-2.69465e-05 2.39429e-06 0.000432163
0.00202629 -0.000219962 -7.07917e-06
-0.000219962 0.000642873 1.87869e-06
-7.07917e-06 1.87869e-06 0.000498378
0.00538956 4.03577e-05 0.000221694
4.03577e-05 0.00284516 -1.82731e-07
0.000221694 -1.82731e-07 0.00285555
0.00181566 -2.18275e-05 0.000186206
-2.18275e-05 0.000713435 -8.23883e-06
0.000186206 -8.23883e-06 0.000698361
0.00241393 1.90926e-05 3.51497e-05
1.90926e-05 0.000978066 -9.48484e-07
3.51497e-05 -9.48484e-07 0.000917641
0.00153328 -8.46094e-05 4.41363e-05
-8.46094e-05 0.000459682 -5.23015e-06
4.41363e-05 -5.23015e-06 0.000387478
0.00152736 -9.87655e-05 4.59388e-05
-9.87655e-05 0.000466089 -8.43139e-06
4.59388e-05 -8.43139e-06 0.000390839
0.00191483 -0.000135548 1.1487e-05
-0.000135548 0.000526883 -3.00023e-06
1.1487e-05 -3.00023e-06 0.000401589
0.0016779 -0.000179116 1.55982e-05
-0.000179116 0.000415167 -5.61459e-06
1.55982e-05 -5.61459e-06 0.000277544
0.00116104 -2.57335e-05 0.000142024
-2.57335e-05 0.000345023 -1.54e-05
0.000142024 -1.54e-05 0.000332527
0.00129895 -1.49952e-05 1.3209e-05
-1.49952e-05 0.000402427 -1.08874e-05
1.3209e-05 -1.08874e-05 0.000309602
0.001969 -0.00023731 1.29256e-05
-0.00023731 0.000638675 -6.551e-06
1.29256e-05 -6.551e-06 0.000485059
0.00125777 -0.000215786 7.72046e-06
-0.000215786 8.15729e-05 -2.52001e-06
7.72046e-06 -2.52001e-06 -9.47818e-05
0.00571407 0.000144493 -0.000234753
0.000144493 0.003037 -1.95666e-05
-0.000234753 -1.95666e-05 0.00303966
0.0048288 -0.000189374 -0.000131478
-0.000189374 0.00256781 -9.45039e-06
-0.000131478 -9.45039e-06 0.00254483
0.00546619 -4.0594e-05 -0.000196536
-4.0594e-05 0.00290354 -1.31168e-05
-0.000196536 -1.31168e-05 0.00290366
0.00054638 0.000174955 -2.38634e-05
0.000174955 -7.03935e-05 -1.45946e-05
-2.38634e-05 -1.45946e-05 -0.000162742
0.00572502 0.000163005 -3.00762e-06
0.000163005 0.00304253 -1.86419e-06
-3.00762e-06 -1.86419e-06 0.00304483
0.0057194 7.57923e-05 -8.55344e-06
7.57923e-05 0.00304374 -1.22794e-06
-8.55344e-06 -1.22794e-06 0.00304543
0.000527046 0.000121166 -1.65537e-07
0.000121166 -0.000122866 -2.66162e-07
-1.65537e-07 -2.66162e-07 -0.000210072
0.0026693 -0.000128653 -5.73568e-05
-0.000128653 0.00128118 -1.91024e-06
-5.73568e-05 -1.91024e-06 0.0012536
0.00052712 0.000177699 -6.09626e-07
0.000177699 -8.81949e-05 -2.95185e-07
-6.09626e-07 -2.95185e-07 -0.000181595
0.00154549 0.000131648 3.82978e-05
0.000131648 0.000534318 8.50408e-07
3.82978e-05 8.50408e-07 0.000459836
0.000888719 0.000177822 3.14568e-08
0.000177822 3.30267e-05 7.26897e-08
3.14568e-08 7.26897e-08 -0.000128842
0.0038407 -0.000110327 0.000130014
-0.000110327 0.0019608 7.01988e-06
0.000130014 7.01988e-06 0.00196109
0.000641316 -3.13167e-05 3.90312e-06
-3.13167e-05 4.91723e-05 8.44614e-06
3.90312e-06 8.44614e-06 7.1828e-06
0.000646676 9.08921e-05 1.70859e-05
9.08921e-05 -7.24136e-05 8.61429e-06
1.70859e-05 8.61429e-06 -0.000154937
0.000683184 0.00014558 2.1867e-05
0.00014558 -1.70341e-05 1.48408e-05
2.1867e-05 1.48408e-05 -0.000109463
0.000985082 0.000147096 1.35287e-05
0.000147096 -6.76617e-06 5.30828e-06
1.35287e-05 5.30828e-06 -0.000153388
0.00244442 6.45542e-05 8.32919e-05
6.45542e-05 0.00108727 1.11666e-05
8.32919e-05 1.11666e-05 0.0010342
0.000949572 0.000174354 1.15083e-05
0.000174354 3.78491e-05 6.37597e-06
1.15083e-05 6.37597e-06 -0.000117309
0.000878581 0.000188038 9.89081e-06
0.000188038 0.000101892 5.14213e-06
9.89081e-06 5.14213e-06 -7.01777e-05
0.00112177 0.000230574 5.0189e-06
0.000230574 9.93847e-05 1.2694e-06
5.0189e-06 1.2694e-06 -0.000100077
0.00275296 -0.000119997 5.79139e-05
-0.000119997 0.0013157 2.28034e-06
5.79139e-05 2.28034e-06 0.00131549
0.00305464 -0.000135531 1.14374e-05
-0.000135531 0.00150091 -3.57147e-07
1.14374e-05 -3.57147e-07 0.0014964
0.00567283 2.29196e-05 -0.000228475
2.29196e-05 0.00300398 -9.51747e-06
-0.000228475 -9.51747e-06 0.00301247
0.00556924 5.71894e-05 -0.000232622
5.71894e-05 0.00294665 -5.66631e-06
-0.000232622 -5.66631e-06 0.00295726
0.00549953 8.31567e-05 -1.68665e-07
8.31567e-05 0.00291624 -2.62031e-06
-1.68665e-07 -2.62031e-06 0.00292193
0.00343363 1.26299e-05 -0.000102016
1.26299e-05 0.00168278 -4.01926e-06
-0.000102016 -4.01926e-06 0.00167198
0.00165449 3.21668e-05 4.85239e-05
3.21668e-05 0.000513517 9.46157e-07
4.85239e-05 9.46157e-07 0.000452699
0.00354657 0.000107401 -8.97303e-05
0.000107401 0.00175481 -4.50809e-06
-8.97303e-05 -4.50809e-06 0.00173657
0.00169047 7.57997e-05 4.77147e-05
7.57997e-05 0.000536714 1.84315e-06
4.77147e-05 1.84315e-06 0.00047093
0.00547017 0.000140054 0.000230767
0.000140054 0.00290905 5.67101e-06
0.000230767 5.67101e-06 0.00290854
0.000597734 1.00686e-05 1.84333e-05
1.00686e-05 -0.000110325 4.90007e-07
1.84333e-05 4.90007e-07 -0.000181426
0.00271056 2.44093e-05 0.000113533
2.44093e-05 0.00113553 4.38118e-06
0.000113533 4.38118e-06 0.00108645
0.0010236 3.51441e-05 1.24141e-05
3.51441e-05 -1.87129e-05 1.22674e-06
1.24141e-05 1.22674e-06 -0.000140221
0.00261651 9.91483e-05 0.000115437
9.91483e-05 0.00108905 8.43134e-06
0.000115437 8.43134e-06 0.00103331
0.0010452 8.36302e-05 1.21249e-05
8.36302e-05 -6.18566e-06 2.47821e-06
1.21249e-05 2.47821e-06 -0.000136356
0.00166267 4.14018e-05 -0.00019141
4.14018e-05 0.000619916 1.67322e-06
-0.00019141 1.67322e-06 0.000612334
0.00126452 5.84021e-07 -3.69891e-05
5.84021e-07 0.000406529 1.7294e-06
-3.69891e-05 1.7294e-06 0.000369991
0.00141417 8.40395e-05 -8.75406e-06
8.40395e-05 0.000533223 6.75031e-06
-8.75406e-06 6.75031e-06 0.000482522
0.00122797 -7.60104e-05 -5.07643e-05
-7.60104e-05 0.000395131 7.02224e-06
-5.07643e-05 7.02224e-06 0.000356471
0.00170101 -6.71342e-05 -9.88873e-05
-6.71342e-05 0.000552318 8.49881e-06
-9.88873e-05 8.49881e-06 0.000490949
0.00164407 -0.000107536 -9.84299e-05
-0.000107536 0.000534065 1.3907e-05
-9.84299e-05 1.3907e-05 0.000468962
0.0015635 -0.000131574 -0.000101079
-0.000131574 0.000511349 1.64271e-05
-0.000101079 1.64271e-05 0.000438683
0.00202015 -0.000218183 -2.66513e-05
-0.000218183 0.000638067 9.54887e-06
-2.66513e-05 9.54887e-06 0.000493866
0.00547605 -8.52748e-05 2.02732e-06
-8.52748e-05 0.00290317 -1.46088e-06
2.02732e-06 -1.46088e-06 0.00290851
0.00151257 4.42685e-05 7.97135e-05
4.42685e-05 0.000541274 -2.89634e-06
7.97135e-05 -2.89634e-06 0.000518147
0.00113188 -1.40467e-06 -5.14096e-05
-1.40467e-06 0.000208966 9.51694e-07
-5.14096e-05 9.51694e-07 0.000146785
0.00159325 -5.17014e-05 -2.93971e-05
-5.17014e-05 0.000490374 1.64193e-06
-2.93971e-05 1.64193e-06 0.000423904
0.00302588 4.19751e-05 0.00015096
4.19751e-05 0.00147472 -3.62796e-06
0.00015096 -3.62796e-06 0.00146317
0.00195295 -8.3205e-05 -3.26721e-05
-8.3205e-05 0.000772167 5.32878e-07
-3.26721e-05 5.32878e-07 0.000690766
0.00158693 -0.000102991 -2.47385e-05
-0.000102991 0.000498399 1.59508e-06
-2.47385e-05 1.59508e-06 0.000428451
0.00182327 -0.000129469 -8.7474e-06
-0.000129469 0.00047094 1.5349e-06
-8.7474e-06 1.5349e-06 0.000345245
0.00198921 -0.00023911 -5.79263e-06
-0.00023911 0.000649618 1.87301e-06
-5.79263e-06 1.87301e-06 0.000495734
0.00185302 -0.000186258 -4.47033e-06
-0.000186258 0.000518029 1.08819e-06
-4.47033e-06 1.08819e-06 0.000381045
0.0012669 -0.000216904 2.61271e-07
-0.000216904 8.48785e-05 -1.02738e-07
2.61271e-07 -1.02738e-07 -9.1457e-05
0.000633232 1.29824e-05 1.89598e-05
1.29824e-05 -9.13448e-05 -1.17993e-06
1.89598e-05 -1.17993e-06 -0.000159299
0.00147827 1.52862e-05 3.53031e-05
1.52862e-05 0.000423033 -2.55973e-06
3.53031e-05 -2.55973e-06 0.000356001
0.00164215 -3.23405e-05 1.27459e-05
-3.23405e-05 0.000352362 -1.06476e-06
1.27459e-05 -1.06476e-06 0.000239864
0.00165044 -0.000101085 1.25383e-05
-0.000101085 0.000363012 -2.38339e-06
1.25383e-05 -2.38339e-06 0.000240403
0.00163631 -0.000151266 1.43554e-05
-0.000151266 0.000372456 -4.27874e-06
1.43554e-05 -4.27874e-06 0.000241068
0.0017181 -0.000164965 1.72589e-06
-0.000164965 0.000262091 -7.22331e-07
1.72589e-06 -7.22331e-07 0.000112909
0.00420795 0.000162573 0.000117232
0.000162573 0.00219557 -6.21523e-06
0.000117232 -6.21523e-06 0.00218105
0.00130611 -0.000200924 6.48746e-06
-0.000200924 7.92178e-05 -2.13203e-06
6.48746e-06 -2.13203e-06 -8.88378e-05
0.000339727 -8.54602e-05 1.50784e-05
-8.54602e-05 -0.000167692 -1.36583e-05
1.50784e-05 -1.36583e-05 -0.000237713
0.00086166 -0.000179188 9.89259e-06
-0.000179188 2.50107e-05 -7.05844e-06
9.89259e-06 -7.05844e-06 -0.000137022
0.00131394 -0.00024042 8.8846e-06
-0.00024042 0.000149529 -2.96787e-06
8.8846e-06 -2.96787e-06 -3.8999e-05
0.00153618 -0.00028018 3.76343e-06
-0.00028018 0.000137938 2.49402e-07
3.76343e-06 2.49402e-07 -5.25251e-05
0.000413761 -2.32965e-05 8.0355e-06
-2.32965e-05 -9.66073e-05 -1.1007e-05
8.0355e-06 -1.1007e-05 -0.000151337
0.000688091 -3.74713e-05 1.06333e-06
-3.74713e-05 7.24384e-05 -4.08272e-06
1.06333e-06 -4.08272e-06 -4.28238e-05
0.00574301 0.000178913 -0.000246406
0.000178913 0.00305722 -2.01859e-05
-0.000246406 -2.01859e-05 0.0030575
0.0055705 5.7172e-05 -0.000214049
5.7172e-05 0.00295491 -1.63412e-05
-0.000214049 -1.63412e-05 0.0029596
0.000525124 0.0001144 -1.82086e-05
0.0001144 -0.000125791 -1.02738e-05
-1.82086e-05 -1.02738e-05 -0.000212799
0.0041292 -0.000168583 -0.000113632
-0.000168583 0.00214717 -5.64045e-06
-0.000113632 -5.64045e-06 0.00213329
0.000440271 0.000120214 -1.91449e-05
0.000120214 -0.000122454 -1.41897e-05
-1.91449e-05 -1.41897e-05 -0.000198053
0.000481085 0.000162443 -2.0307e-05
0.000162443 -0.000111117 -1.36676e-05
-2.0307e-05 -1.36676e-05 -0.000206137
0.0009108 0.000178157 -1.19454e-05
0.000178157 4.23607e-05 -5.25802e-06
-1.19454e-05 -5.25802e-06 -0.000119223
0.00364937 -0.000131261 7.84129e-06
-0.000131261 0.00185362 -4.7501e-07
7.84129e-06 -4.7501e-07 0.00184988
0.000529077 -4.24604e-05 3.11369e-07
-4.24604e-05 -1.29709e-05 4.83363e-07
3.11369e-07 4.83363e-07 -5.54569e-05
0.00165483 0.000118513 4.78803e-05
0.000118513 0.00052774 3.16696e-06
4.78803e-05 3.16696e-06 0.000455238
0.00160087 0.000167924 4.62728e-05
0.000167924 0.000530303 2.88311e-06
4.62728e-05 2.88311e-06 0.000448638
0.000978279 0.000148372 1.41994e-07
0.000148372 -7.93269e-06 -2.28463e-07
1.41994e-07 -2.28463e-07 -0.000155216
0.000619723 6.09924e-05 -6.5527e-07
6.09924e-05 7.8796e-06 1.76973e-07
-6.5527e-07 1.76973e-07 -5.52703e-05
0.000937879 0.000174136 4.87069e-07
0.000174136 3.15168e-05 2.88916e-07
4.87069e-07 2.88916e-07 -0.000123676
0.0008568 0.000176424 7.85446e-07
0.000176424 8.51499e-05 -1.47273e-06
7.85446e-07 -1.47273e-06 -8.46673e-05
0.000919169 0.000216064 -7.51826e-07
0.000216064 -2.00375e-05 5.62114e-07
-7.51826e-07 5.62114e-07 -0.000217852
0.000674965 1.8584e-05 1.04246e-05
1.8584e-05 5.63054e-05 1.01706e-05
1.04246e-05 1.01706e-05 4.01628e-06
0.000601944 -6.34896e-05 -7.54243e-09
-6.34896e-05 3.00456e-05 6.82264e-06
-7.54243e-09 6.82264e-06 -5.68691e-06
0.000792352 6.46347e-05 3.32785e-06
6.46347e-05 0.000146751 4.51168e-06
3.32785e-06 4.51168e-06 3.37486e-05
0.00101894 0.000127182 1.3009e-05
0.000127182 -5.35635e-06 4.31875e-06
1.3009e-05 4.31875e-06 -0.000146519
0.00094678 0.000163372 1.30133e-05
0.000163372 2.11575e-06 6.09041e-06
1.30133e-05 6.09041e-06 -0.000149582
0.00135025 0.000216045 5.97544e-06
0.000216045 9.20771e-05 1.6096e-06
5.97544e-06 1.6096e-06 -8.52934e-05
0.000900499 0.000176216 7.02742e-06
0.000176216 0.000174951 7.26386e-06
7.02742e-06 7.26386e-06 1.21782e-05
0.00107292 0.00022016 5.40836e-06
0.00022016 2.89323e-05 2.65213e-06
5.40836e-06 2.65213e-06 -0.000160574
0.00134048 0.000258212 5.76182e-06
0.000258212 0.000296648 6.91672e-07
5.76182e-06 6.91672e-07 7.52766e-05
0.00156458 0.000281929 2.51835e-07
0.000281929 0.000311779 1.53741e-08
2.51835e-07 1.53741e-08 9.90944e-05
0.00250631 -0.000115847 3.33076e-05
-0.000115847 0.00116444 2.91998e-06
3.33076e-05 2.91998e-06 0.00116496
0.00263787 -0.000130099 5.93536e-06
-0.000130099 0.0012501 -5.37732e-07
5.93536e-06 -5.37732e-07 0.00124668
0.00286341 -0.000148844 -4.41964e-05
-0.000148844 0.00139156 -2.48228e-06
-4.41964e-05 -2.48228e-06 0.0013828
0.000412597 -5.89829e-06 5.73778e-06
-5.89829e-06 -9.08846e-05 -9.21998e-06
5.73778e-06 -9.21998e-06 -0.000138954
0.00381171 0.000142972 0.000102981
0.000142972 0.00195438 -5.03882e-06
0.000102981 -5.03882e-06 0.00194555
0.00573686 0.000170272 -0.000248822
0.000170272 0.00305338 -1.786e-05
-0.000248822 -1.786e-05 0.0030547
0.00556913 6.17529e-05 -0.00022966
6.17529e-05 0.00294477 -7.90542e-06
-0.00022966 -7.90542e-06 0.00295482
0.000616936 8.74867e-05 -1.95946e-05
8.74867e-05 -9.79317e-05 -4.61898e-06
-1.95946e-05 -4.61898e-06 -0.000174369
0.000597127 3.90462e-05 -1.9128e-05
3.90462e-05 -0.000108574 -2.24655e-06
-1.9128e-05 -2.24655e-06 -0.000182251
0.00543639 -1.65433e-05 -0.000222973
-1.65433e-05 0.00286986 -1.31582e-06
-0.000222973 -1.31582e-06 0.00288128
0.00541418 1.78039e-05 -6.72017e-07
1.78039e-05 0.00285789 -3.80429e-07
-6.72017e-07 -3.80429e-07 0.00286899
0.000579942 7.01788e-07 -1.40051e-07
7.01788e-07 -0.000122864 -5.87263e-08
-1.40051e-07 -5.87263e-08 -0.00019243
0.00163877 3.06764e-05 4.8357e-05
3.06764e-05 0.000502957 1.65557e-06
4.8357e-05 1.65557e-06 0.000441649
0.00100558 3.89249e-05 2.12608e-08
3.89249e-05 -2.97565e-05 -1.30789e-07
2.12608e-08 -1.30789e-07 -0.000151644
0.000585817 7.32638e-05 -4.20174e-07
7.32638e-05 -0.000111409 -3.00272e-07
-4.20174e-07 -3.00272e-07 -0.00019131
0.00101056 8.51738e-05 -9.74915e-08
8.51738e-05 -2.54431e-05 -1.48741e-07
-9.74915e-08 -1.48741e-07 -0.000156162
0.000572403 -2.68004e-05 1.8913e-05
-2.68004e-05 -0.000129172 -8.41257e-07
1.8913e-05 -8.41257e-07 -0.000196506
0.00100414 1.51456e-05 1.22409e-05
1.51456e-05 -2.69923e-05 5.20865e-07
1.22409e-05 5.20865e-07 -0.000146662
0.00101786 5.94092e-05 1.21479e-05
5.94092e-05 -2.29803e-05 1.90058e-06
1.21479e-05 1.90058e-06 -0.000148158
0.00144573 5.8653e-05 1.73714e-06
5.8653e-05 5.31169e-05 1.70921e-07
1.73714e-06 1.70921e-07 -7.49697e-05
0.00104011 0.00010525 1.24578e-05
0.00010525 -3.68121e-06 3.27709e-06
1.24578e-05 3.27709e-06 -0.000139256
0.00147709 0.000129479 2.65047e-06
0.000129479 8.10276e-05 2.53342e-07
2.65047e-06 2.53342e-07 -6.2651e-05
0.00541237 -4.55198e-05 -0.000229626
-4.55198e-05 0.00285986 5.35965e-07
-0.000229626 5.35965e-07 0.00286919
0.00125246 -0.000129541 -3.91198e-05
-0.000129541 0.000405177 4.06159e-06
-3.91198e-05 4.06159e-06 0.000367752
-0.000260578 -1.68292e-06 -1.29936e-05
-1.68292e-06 -0.000613189 2.14304e-06
-1.29936e-05 2.14304e-06 -0.000694225
0.00168054 -4.61566e-05 -9.92017e-05
-4.61566e-05 0.000537037 6.12623e-06
-9.92017e-05 6.12623e-06 0.000476666
0.00459833 0.000333937 1.17417e-05
0.000333937 0.00248068 6.8554e-06
1.17417e-05 6.8554e-06 0.00241502
0.00262994 -0.00017305 -0.000101573
-0.00017305 0.00115928 1.64894e-05
-0.000101573 1.64894e-05 0.00108617
0.00168606 -8.78648e-05 -9.83456e-05
-8.78648e-05 0.000549129 1.11821e-05
-9.83456e-05 1.11821e-05 0.000486755
0.00170486 -0.000122413 -2.70485e-05
-0.000122413 0.000398847 5.33205e-06
-2.70485e-05 5.33205e-06 0.000272965
0.00201357 -0.00019247 -2.52346e-05
-0.00019247 0.000612311 7.88336e-06
-2.52346e-05 7.88336e-06 0.00047623
0.00202412 -0.000241452 -2.40983e-05
-0.000241452 0.000670453 9.66219e-06
-2.40983e-05 9.66219e-06 0.000516125
0.00127421 -0.000217927 -6.43855e-06
-0.000217927 8.71735e-05 2.1229e-06
-6.43855e-06 2.1229e-06 -8.9144e-05
0.000576219 7.54788e-06 -5.33713e-08
7.54788e-06 -0.000123154 8.0323e-08
-5.33713e-08 8.0323e-08 -0.000192051
0.0015975 -6.45012e-05 -2.88205e-05
-6.45012e-05 0.000492997 3.25558e-07
-2.88205e-05 3.25558e-07 0.000428924
0.00121408 -2.78789e-05 -7.02691e-06
-2.78789e-05 9.98156e-05 3.61823e-07
-7.02691e-06 3.61823e-07 -1.7023e-05
0.00182207 -0.00010279 -5.29795e-06
-0.00010279 0.000462395 7.98452e-07
-5.29795e-06 7.98452e-07 0.000341154
0.0043235 0.000151438 -6.38359e-06
0.000151438 0.00226149 -8.87711e-07
-6.38359e-06 -8.87711e-07 0.00224875
0.00149633 -7.52497e-05 -2.73486e-06
-7.52497e-05 0.000526876 -9.70284e-08
-2.73486e-06 -9.70284e-08 0.000444762
0.0013089 -0.00020379 1.17351e-06
-0.00020379 0.000298135 -1.02606e-06
1.17351e-06 -1.02606e-06 0.000136297
0.00166681 -0.000151261 -5.64691e-06
-0.000151261 0.000390164 1.24919e-06
-5.64691e-06 1.24919e-06 0.000258752
0.00157718 -0.000161445 -2.42092e-06
-0.000161445 0.000177195 4.72458e-07
-2.42092e-06 4.72458e-07 2.8645e-05
0.0012456 -0.00023711 4.00086e-07
-0.00023711 0.000109061 -4.35774e-08
4.00086e-07 -4.35774e-08 -8.00908e-05
0.00149438 -0.000209608 2.82643e-07
-0.000209608 0.000187555 -1.82685e-07
2.82643e-07 -1.82685e-07 2.03083e-05
0.0015482 -0.000279384 6.18859e-07
-0.000279384 0.000149997 -5.00238e-08
6.18859e-07 -5.00238e-08 -3.96661e-05
0.000515408 -2.95252e-05 -8.34239e-07
-2.95252e-05 -3.9653e-05 1.26273e-07
-8.34239e-07 1.26273e-07 -9.49487e-05
0.000669404 -5.8224e-05 -4.46446e-07
-5.8224e-05 6.06047e-05 4.26649e-08
-4.46446e-07 4.26649e-08 -5.69991e-05
0.000993671 -1.32741e-05 1.21913e-05
-1.32741e-05 -2.91121e-05 -8.74955e-07
1.21913e-05 -8.74955e-07 -0.000147909
0.00167441 -6.17011e-05 1.2065e-05
-6.17011e-05 0.000371699 -1.64004e-06
1.2065e-05 -1.64004e-06 0.000255508
0.00167184 -5.13727e-05 7.94122e-07
-5.13727e-05 0.000205455 3.25092e-08
7.94122e-07 3.25092e-08 7.94136e-05
0.00146877 -0.000127221 2.95122e-06
-0.000127221 9.79392e-05 -2.78301e-07
2.95122e-06 -2.78301e-07 -4.15572e-05
0.00167754 -0.00019926 3.64561e-06
-0.00019926 0.000267733 -9.20118e-07
3.64561e-06 -9.20118e-07 0.000110705
0.00173062 -0.000200165 -6.78354e-07
-0.000200165 0.000143776 4.63311e-07
-6.78354e-07 4.63311e-07 2.98416e-06
0.000370628 -5.69129e-05 1.19522e-05
-5.69129e-05 -0.000133184 -1.24553e-05
1.19522e-05 -1.24553e-05 -0.000194866
0.00160647 -0.000260835 1.77494e-06
-0.000260835 0.000143244 5.11962e-07
1.77494e-06 5.11962e-07 -2.89653e-05
0.000708611 -0.000153656 5.43884e-06
-0.000153656 1.98403e-05 -7.49052e-06
5.43884e-06 -7.49052e-06 -0.000141946
0.000960938 -0.00023197 9.841e-06
-0.00023197 -3.56702e-06 -3.53944e-06
9.841e-06 -3.53944e-06 -0.000205524
0.00175938 -0.000320683 3.41992e-06
-0.000320683 0.000318953 -1.04761e-07
3.41992e-06 -1.04761e-07 0.000106516
0.00188279 -0.000317284 -1.71386e-06
-0.000317284 0.000284083 3.19164e-06
-1.71386e-06 3.19164e-06 0.000105475
0.000757575 -0.000100598 2.62419e-06
-0.000100598 0.000109731 -4.73285e-06
2.62419e-06 -4.73285e-06 -2.57949e-05
0.000640684 -2.30749e-05 6.2601e-07
-2.30749e-05 4.76203e-05 -3.58824e-06
6.2601e-07 -3.58824e-06 -5.45181e-05
0.00101732 -0.000156488 1.0637e-07
-0.000156488 0.000281356 2.38027e-07
1.0637e-07 2.38027e-07 0.000106948
0.000556641 9.33767e-05 -1.76454e-05
9.33767e-05 -0.000120876 -7.83483e-06
-1.76454e-05 -7.83483e-06 -0.000203971
0.00344919 -0.000156903 -7.93284e-05
-0.000156903 0.00174054 -2.81275e-06
-7.93284e-05 -2.81275e-06 0.00173034
0.000404852 -5.49087e-05 1.12812e-06
-5.49087e-05 -8.02912e-05 -8.02977e-06
1.12812e-06 -8.02977e-06 -0.000124551
0.000488724 0.000140402 -1.90115e-05
0.000140402 -0.000124533 -1.27416e-05
-1.90115e-05 -1.27416e-05 -0.000216398
0.000962366 0.000149338 -1.3996e-05
0.000149338 -1.42768e-05 -5.7502e-06
-1.3996e-05 -5.7502e-06 -0.000162194
0.000368841 5.33651e-05 -1.31467e-05
5.33651e-05 -0.000137848 -1.204e-05
-1.31467e-05 -1.204e-05 -0.00019869
0.000781756 0.000162581 -7.39363e-06
0.000162581 3.82151e-05 -7.5979e-06
-7.39363e-06 -7.5979e-06 -0.000129092
0.000932539 0.00017419 -1.14814e-05
0.00017419 2.90687e-05 -6.15464e-06
-1.14814e-05 -6.15464e-06 -0.000126203
0.000708614 0.000200617 -7.17945e-06
0.000200617 -0.000144488 -8.85849e-07
-7.17945e-06 -8.85849e-07 -0.000340417
0.000536472 7.63634e-06 1.8865e-06
7.63634e-06 -2.33377e-05 3.93472e-07
1.8865e-06 3.93472e-07 -7.41232e-05
0.000515459 -6.84505e-05 1.62924e-07
-6.84505e-05 -1.93271e-05 2.61888e-07
1.62924e-07 2.61888e-07 -5.56265e-05
0.000641806 2.08225e-05 7.88192e-07
2.08225e-05 5.03665e-05 3.7343e-07
7.88192e-07 3.7343e-07 -5.22376e-05
0.000997174 0.000128039 -1.139e-08
0.000128039 -1.53649e-05 -2.34046e-07
-1.139e-08 -2.34046e-07 -0.000157218
0.000959144 0.000165472 4.54018e-07
0.000165472 1.11085e-05 -2.59173e-07
4.54018e-07 -2.59173e-07 -0.0001412
0.00134869 0.0002152 2.31744e-07
0.0002152 9.39112e-05 1.00272e-08
2.31744e-07 1.00272e-08 -8.35052e-05
0.000801031 0.000157858 -5.67648e-07
0.000157858 0.000118716 3.72532e-07
-5.67648e-07 3.72532e-07 -4.12909e-05
0.00117987 0.000226332 3.79433e-08
0.000226332 9.4896e-05 -7.63147e-09
3.79433e-08 -7.63147e-09 -9.48505e-05
0.001134 0.000240491 8.45076e-07
0.000240491 0.000175658 -1.908e-06
8.45076e-07 -1.908e-06 -4.30962e-05
0.00119084 0.000257588 -7.15664e-07
0.000257588 9.0333e-05 3.50972e-07
-7.15664e-07 3.50972e-07 -0.000119703
0.000554713 -7.02618e-05 -2.04583e-06
-7.02618e-05 -5.55903e-06 5.74459e-06
-2.04583e-06 5.74459e-06 -3.59957e-05
0.000777943 0.000118708 5.24887e-06
0.000118708 0.000120298 4.64866e-06
5.24887e-06 4.64866e-06 -1.45572e-05
0.000707529 -3.59569e-06 9.44634e-07
-3.59569e-06 8.34403e-05 4.22176e-06
9.44634e-07 4.22176e-06 4.73456e-06
0.000837541 0.000109679 1.60277e-06
0.000109679 0.000197142 -2.89725e-07
1.60277e-06 -2.89725e-07 3.52515e-05
0.00141185 0.00019229 4.62275e-06
0.00019229 9.00578e-05 6.80294e-07
4.62275e-06 6.80294e-07 -7.60248e-05
0.0012692 0.000228483 6.81863e-06
0.000228483 9.12412e-05 2.34125e-06
6.81863e-06 2.34125e-06 -9.44698e-05
0.00169376 0.00028736 1.43987e-06
0.00028736 0.000188555 -1.95766e-07
1.43987e-06 -1.95766e-07 2.89597e-06
0.0013555 0.000235969 3.23039e-06
0.000235969 0.000394338 4.28252e-06
3.23039e-06 4.28252e-06 0.000186793
0.00160441 0.000306901 1.27888e-08
0.000306901 0.000273676 -2.77249e-07
1.27888e-08 -2.77249e-07 6.35132e-05
0.00134583 0.000275601 2.41417e-06
0.000275601 0.000246871 -1.32124e-06
2.41417e-06 -1.32124e-06 6.32295e-06
0.00158591 0.000296189 1.02886e-06
0.000296189 0.000250626 1.48973e-07
1.02886e-06 1.48973e-07 3.37494e-05
0.00063034 4.33061e-06 2.22552e-06
4.33061e-06 1.74338e-05 2.30993e-06
2.22552e-06 2.30993e-06 -3.23089e-05
0.000547165 -4.45265e-05 6.62574e-07
-4.45265e-05 -3.60447e-05 4.61742e-06
6.62574e-07 4.61742e-06 -5.55904e-05
0.00239819 -0.000100681 2.83888e-05
-0.000100681 0.00109166 3.31996e-06
2.83888e-05 3.31996e-06 0.00109595
0.00244806 -0.000113367 3.30408e-06
-0.000113367 0.00112944 -3.45338e-07
3.30408e-06 -3.45338e-07 0.00113043
0.00254281 -0.000127771 -3.55764e-05
-0.000127771 0.00119396 -2.69942e-06
-3.55764e-05 -2.69942e-06 0.0011909
0.000440516 2.70608e-06 4.44215e-06
2.70608e-06 -7.58644e-05 -7.63734e-06
4.44215e-06 -7.63734e-06 -0.000115504
0.00340182 0.000129427 8.52859e-05
0.000129427 0.00170617 -4.08428e-06
8.52859e-05 -4.08428e-06 0.00170117
0.000529801 -8.11811e-06 -3.30735e-07
-8.11811e-06 -2.4457e-05 2.0634e-07
-3.30735e-07 2.0634e-07 -7.28821e-05
0.00392351 0.000131933 -4.53777e-06
0.000131933 0.00201718 -6.68365e-07
-4.53777e-06 -6.68365e-07 0.00201091
0.000608722 9.69744e-05 -1.90863e-05
9.69744e-05 -9.6246e-05 -6.23076e-06
-1.90863e-05 -6.23076e-06 -0.000177501
0.000616782 3.26502e-05 -1.83818e-05
3.26502e-05 -0.000100307 -3.17278e-06
-1.83818e-05 -3.17278e-06 -0.000174051
0.000991822 8.64911e-05 -1.19976e-05
8.64911e-05 -3.62279e-05 -2.76198e-06
-1.19976e-05 -2.76198e-06 -0.000167378
0.000986253 4.09337e-05 -1.2345e-05
4.09337e-05 -4.16608e-05 -1.46749e-06
-1.2345e-05 -1.46749e-06 -0.000163795
0.000629261 -6.44371e-06 -1.91482e-05
-6.44371e-06 -9.74589e-05 -7.3732e-07
-1.91482e-05 -7.3732e-07 -0.000164996
0.00548651 -9.49945e-05 -0.000236729
-9.49945e-05 0.00290899 3.5684e-06
-0.000236729 3.5684e-06 0.00291532
0.00061621 -4.88123e-07 1.39829e-07
-4.88123e-07 -0.000104189 -4.78771e-07
1.39829e-07 -4.78771e-07 -0.000171481
0.000997233 1.9891e-05 -3.16547e-08
1.9891e-05 -3.1447e-05 -9.33443e-08
-3.16547e-08 -9.33443e-08 -0.000151303
0.00101365 6.11619e-05 -6.76666e-08
6.11619e-05 -2.61025e-05 -9.50338e-08
-6.76666e-08 -9.50338e-08 -0.000151616
0.0014462 5.78214e-05 -6.01947e-08
5.78214e-05 5.43738e-05 7.41043e-08
-6.01947e-08 7.41043e-08 -7.38259e-05
0.00101114 0.000106995 -9.87837e-08
0.000106995 -1.89346e-05 -2.36502e-07
-9.87837e-08 -2.36502e-07 -0.000155318
0.00146299 0.000130265 -2.7135e-08
0.000130265 7.29135e-05 -3.47666e-08
-2.7135e-08 -3.47666e-08 -7.13047e-05
0.000994039 -4.08095e-07 1.22186e-05
-4.08095e-07 -2.94796e-05 -3.3707e-07
1.22186e-05 -3.3707e-07 -0.000148473
0.00142992 3.09323e-05 1.91137e-06
3.09323e-05 4.93176e-05 1.35072e-07
1.91137e-06 1.35072e-07 -7.54275e-05
0.00146019 9.37955e-05 1.8717e-06
9.37955e-05 6.20552e-05 1.23553e-07
1.8717e-06 1.23553e-07 -7.26146e-05
0.00177273 8.2573e-05 -2.03757e-06
8.2573e-05 9.91577e-05 -5.06719e-07
-2.03757e-06 -5.06719e-07 -4.76622e-06
0.00146474 0.00016398 3.48939e-06
0.00016398 8.99163e-05 5.1328e-07
3.48939e-06 5.1328e-07 -6.46351e-05
0.00178167 0.000173448 -4.25365e-07
0.000173448 0.000127943 -1.23795e-06
-4.25365e-07 -1.23795e-06 -8.25184e-07
0.000599955 1.38291e-06 -1.83177e-05
1.38291e-06 -0.000107441 1.11178e-06
-1.83177e-05 1.11178e-06 -0.000177934
0.00167433 -2.41238e-05 -9.88566e-05
-2.41238e-05 0.000532699 4.00878e-06
-9.88566e-05 4.00878e-06 0.00047466
0.000759865 -2.21294e-05 -1.43768e-05
-2.21294e-05 -0.000167641 1.70844e-06
-1.43768e-05 1.70844e-06 -0.000289022
0.00197927 -0.000103258 -2.39543e-05
-0.000103258 0.000552937 3.81477e-06
-2.39543e-05 3.81477e-06 0.00043324
0.00453329 0.000127527 -0.00014821
0.000127527 0.00237932 9.25702e-06
-0.00014821 9.25702e-06 0.00237093
0.00263597 -0.000118815 -9.38104e-05
-0.000118815 0.00118863 1.28602e-05
-9.38104e-05 1.28602e-05 0.00112366
0.00193495 -0.00024754 -1.93752e-05
-0.00024754 0.000672951 8.26554e-06
-1.93752e-05 8.26554e-06 0.000508399
0.00167867 -0.000150106 -2.51957e-05
-0.000150106 0.000396574 6.47664e-06
-2.51957e-05 6.47664e-06 0.000265422
0.00143134 -0.000157693 -5.68555e-06
-0.000157693 8.92824e-05 1.1519e-06
-5.68555e-06 1.1519e-06 -5.86129e-05
0.00168962 -0.000218802 -6.88694e-06
-0.000218802 0.000300067 2.08025e-06
-6.88694e-06 2.08025e-06 0.000133565
0.00120759 -0.000236242 -7.58069e-06
-0.000236242 8.64126e-05 2.42244e-06
-7.58069e-06 2.42244e-06 -0.000103747
0.00156606 -0.000279229 -2.24752e-06
-0.000279229 0.000164644 -4.45175e-07
-2.24752e-06 -4.45175e-07 -2.43281e-05
0.000621112 -3.92049e-05 -1.05243e-05
-3.92049e-05 2.0889e-05 1.11117e-05
-1.05243e-05 1.11117e-05 -3.58337e-05
0.000653691 -7.83896e-05 -2.02224e-06
-7.83896e-05 5.26525e-05 3.30347e-06
-2.02224e-06 3.30347e-06 -6.90102e-05
0.00087078 -8.63458e-06 -2.86191e-07
-8.63458e-06 -0.000101397 -3.85596e-08
-2.86191e-07 -3.85596e-08 -0.000220822
0.00168194 -6.27553e-05 -5.80443e-06
-6.27553e-05 0.000374993 6.05158e-07
-5.80443e-06 6.05158e-07 0.000258883
0.00169943 -4.76246e-05 -2.00646e-06
-4.76246e-05 0.000218079 2.67286e-07
-2.00646e-06 2.67286e-07 9.4688e-05
0.0015696 -0.000128723 -3.96535e-07
-0.000128723 0.000158218 1.79882e-07
-3.96535e-07 1.79882e-07 1.78463e-05
0.000524989 -6.82612e-05 -2.17984e-07
-6.82612e-05 -4.44414e-05 3.50481e-07
-2.17984e-07 3.50481e-07 -0.000108418
0.000845483 -0.000175009 -8.45278e-07
-0.000175009 9.79505e-05 -4.93025e-07
-8.45278e-07 -4.93025e-07 -6.692e-05
0.00102457 -0.000235932 2.48413e-06
-0.000235932 3.56914e-05 -9.74227e-07
2.48413e-06 -9.74227e-07 -0.000166056
0.00168965 -0.000197496 -2.72319e-06
-0.000197496 0.000274037 7.14616e-07
-2.72319e-06 7.14616e-07 0.000116211
0.00179663 -0.000204288 6.25559e-07
-0.000204288 0.000176664 -1.06127e-07
6.25559e-07 -1.06127e-07 3.92182e-05
0.00174733 -0.000323903 -1.82296e-06
-0.000323903 0.000315021 3.28851e-07
-1.82296e-06 3.28851e-07 0.000101052
0.00161531 -0.000260696 4.93634e-07
-0.000260696 0.000149982 -1.05064e-07
4.93634e-07 -1.05064e-07 -2.17908e-05
0.00182717 -0.000315949 6.95906e-07
-0.000315949 0.000245782 5.56778e-07
6.95906e-07 5.56778e-07 6.71078e-05
0.000716169 -0.000112358 -1.96764e-07
-0.000112358 8.50078e-05 -1.89656e-07
-1.96764e-07 -1.89656e-07 -5.28475e-05
0.000574426 -9.63394e-05 -5.61393e-07
-9.63394e-05 7.20221e-06 -6.29129e-07
-5.61393e-07 -6.29129e-07 -0.0001531
0.000674455 -3.51123e-05 -2.98571e-08
-3.51123e-05 6.62358e-05 1.12445e-07
-2.98571e-08 1.12445e-07 -3.71622e-05
0.00165698 -1.94685e-05 6.68401e-07
-1.94685e-05 0.000191429 8.07632e-09
6.68401e-07 8.07632e-09 6.82687e-05
0.00173329 -8.50932e-05 4.25574e-07
-8.50932e-05 0.000239309 3.72956e-07
4.25574e-07 3.72956e-07 0.000111556
0.00168117 -6.91712e-05 -2.30107e-06
-6.91712e-05 6.37285e-05 1.16301e-06
-2.30107e-06 1.16301e-06 -4.22686e-05
0.00173535 -0.000164044 -2.37502e-06
-0.000164044 0.000112147 1.17781e-06
-2.37502e-06 1.17781e-06 -1.3758e-05
0.00162176 -0.000237414 -7.09915e-09
-0.000237414 0.000117142 1.51486e-06
-7.09915e-09 1.51486e-06 -3.58139e-05
0.00181263 -0.000227008 -1.64917e-06
-0.000227008 0.00012864 1.14765e-06
-1.64917e-06 1.14765e-06 1.28917e-05
0.000693366 -0.000136477 3.93646e-06
-0.000136477 5.88079e-05 -5.49251e-06
3.93646e-06 -5.49251e-06 -9.31557e-05
0.00169933 -0.000290989 -2.03331e-06
-0.000290989 0.000128015 2.00761e-06
-2.03331e-06 2.00761e-06 -2.82514e-05
0.00115304 -0.00024076 3.19017e-06
-0.00024076 0.000211914 -5.34759e-06
3.19017e-06 -5.34759e-06 2.96665e-06
0.00130823 -0.00030998 5.53887e-06
-0.00030998 0.000139031 -1.14253e-06
5.53887e-06 -1.14253e-06 -9.63403e-05
0.00190029 -0.000362988 9.93046e-07
-0.000362988 0.000343934 3.1974e-06
9.93046e-07 3.1974e-06 0.000126053
0.00198184 -0.000340453 -3.41674e-06
-0.000340453 0.000308144 3.77359e-06
-3.41674e-06 3.77359e-06 0.000142616
0.000618383 -2.49853e-05 8.00924e-07
-2.49853e-05 3.38589e-05 -3.3859e-06
8.00924e-07 -3.3859e-06 -5.52772e-05
0.000764658 -0.000151598 7.47979e-07
-0.000151598 9.44672e-05 2.50595e-08
7.47979e-07 2.50595e-08 -7.0364e-05
0.000502823 -8.01153e-05 -4.53355e-07
-8.01153e-05 -9.31768e-06 3.58386e-07
-4.53355e-07 3.58386e-07 -0.000169033
0.0012996 -0.000218307 -2.38554e-06
-0.000218307 0.000417548 1.97612e-06
-2.38554e-06 1.97612e-06 0.000230627
0.000973208 0.000129085 -1.35712e-05
0.000129085 -2.67966e-05 -4.70339e-06
-1.35712e-05 -4.70339e-06 -0.000169357
0.000445487 -6.91638e-05 1.41538e-06
-6.91638e-05 -6.08677e-05 -6.23091e-06
1.41538e-06 -6.23091e-06 -9.66383e-05
0.000399366 -1.0574e-05 -4.34173e-06
-1.0574e-05 -9.97081e-05 -1.00705e-05
-4.34173e-06 -1.00705e-05 -0.000150148
0.000525954 -1.39659e-05 4.97095e-07
-1.39659e-05 -1.51859e-05 -4.91645e-06
4.97095e-07 -4.91645e-06 -0.00011553
0.000970325 0.000167774 -1.29905e-05
0.000167774 1.93303e-05 -6.77273e-06
-1.29905e-05 -6.77273e-06 -0.00013365
0.00134839 0.000214362 -5.78289e-06
0.000214362 9.64459e-05 -1.61361e-06
-5.78289e-06 -1.61361e-06 -8.10048e-05
0.000696327 0.000135969 -4.68797e-06
0.000135969 5.84285e-05 -5.00401e-06
-4.68797e-06 -5.00401e-06 -9.80944e-05
0.00101659 0.000230203 -4.85637e-06
0.000230203 0.000107076 -4.89702e-06
-4.85637e-06 -4.89702e-06 -0.000109788
0.00129692 0.000233249 -6.21534e-06
0.000233249 0.000167277 -2.48402e-06
-6.21534e-06 -2.48402e-06 -2.28461e-05
0.00080734 0.000232147 -3.87934e-06
0.000232147 -0.000135694 1.13302e-06
-3.87934e-06 1.13302e-06 -0.000342995
0.000522024 -6.69341e-05 -1.93348e-07
-6.69341e-05 -2.72978e-05 1.35984e-07
-1.93348e-07 1.35984e-07 -5.64164e-05
0.000750965 0.000105758 2.67617e-07
0.000105758 0.000111454 -3.13727e-07
2.67617e-07 -3.13727e-07 -2.49769e-05
0.000595207 -2.05955e-05 -5.43889e-07
-2.05955e-05 1.95723e-05 7.82949e-07
-5.43889e-07 7.82949e-07 -5.89029e-05
0.000801353 8.06329e-05 1.44394e-06
8.06329e-05 0.000173346 -8.95556e-07
1.44394e-06 -8.95556e-07 1.61725e-05
0.00141184 0.000192054 1.19149e-07
0.000192054 9.14042e-05 -3.19809e-07
1.19149e-07 -3.19809e-07 -7.49195e-05
0.00126756 0.000227012 3.91039e-07
0.000227012 9.64921e-05 3.18633e-08
3.91039e-07 3.18633e-08 -8.90889e-05
0.00167409 0.000286302 2.33049e-07
0.000286302 0.000176073 1.13228e-07
2.33049e-07 1.13228e-07 -9.72681e-06
0.00106807 0.000212674 8.42549e-07
0.000212674 0.000229279 6.04531e-07
8.42549e-07 6.04531e-07 2.53454e-05
0.00167973 0.000308573 -1.21769e-06
0.000308573 0.000321189 -1.81296e-07
-1.21769e-06 -1.81296e-07 0.000111201
0.00124386 0.000270092 6.22205e-07
0.000270092 0.000183883 -2.39183e-06
6.22205e-07 -2.39183e-06 -5.76282e-05
0.00153839 0.000293715 -2.86694e-06
0.000293715 0.000225014 4.23333e-07
-2.86694e-06 4.23333e-07 8.26243e-06
0.000538832 -5.61567e-05 -5.20971e-08
-5.61567e-05 -3.07955e-05 4.90344e-06
-5.20971e-08 4.90344e-06 -5.43234e-05
0.000675918 -1.14225e-05 1.5281e-06
-1.14225e-05 5.46712e-05 3.152e-06
1.5281e-06 3.152e-06 -8.46699e-06
0.00102469 0.000178223 1.3586e-06
0.000178223 0.000261639 1.50083e-06
1.3586e-06 1.50083e-06 8.65642e-05
0.000914377 5.98215e-05 -9.13574e-07
5.98215e-05 0.00024518 2.65348e-06
-9.13574e-07 2.65348e-06 0.000107931
0.00113846 0.000165469 2.41912e-07
0.000165469 0.000356149 -1.91737e-06
2.41912e-07 -1.91737e-06 0.000173348
0.00174534 0.000253253 1.08246e-06
0.000253253 0.000171836 -1.41061e-06
1.08246e-06 -1.41061e-06 6.66095e-06
0.00155985 0.00030473 1.47927e-06
0.00030473 0.000176096 1.44078e-07
1.47927e-06 1.44078e-07 -2.66554e-05
0.00180653 0.00032373 2.74953e-07
0.00032373 0.000213669 -3.63301e-07
2.74953e-07 -3.63301e-07 3.35209e-05
0.00125189 0.000265655 2.20308e-06
0.000265655 0.000301723 5.06724e-06
2.20308e-06 5.06724e-06 6.50521e-05
0.00185953 0.000367418 1.82392e-06
0.000367418 0.000364763 -5.53268e-07
1.82392e-06 -5.53268e-07 0.000144912
0.000702236 0.000235076 3.68126e-06
0.000235076 -0.000198187 -1.65898e-06
3.68126e-06 -1.65898e-06 -0.000433744
0.00062867 -2.06265e-07 2.54919e-06
-2.06265e-07 1.72327e-05 2.33434e-06
2.54919e-06 2.33434e-06 -3.42596e-05
0.000681612 4.47763e-05 1.30494e-07
4.47763e-05 7.72725e-05 1.06998e-06
1.30494e-07 1.06998e-06 -7.35983e-06
0.000645534 1.42825e-05 1.98766e-06
1.42825e-05 2.89315e-05 2.28104e-06
1.98766e-06 2.28104e-06 -2.04131e-05
0.000617228 -1.79253e-05 -5.43273e-07
-1.79253e-05 1.1812e-05 7.35177e-09
-5.43273e-07 7.35177e-09 -3.89963e-05
0.00124867 -5.16992e-05 9.97817e-07
-5.16992e-05 0.000377042 2.67102e-06
9.97817e-07 2.67102e-06 0.000363414
0.000919896 -5.18625e-05 5.69047e-07
-5.18625e-05 0.000186069 -9.31925e-08
5.69047e-07 -9.31925e-08 0.000168398
0.000899335 -5.07684e-05 2.36461e-05
-5.07684e-05 0.000185472 7.40775e-06
2.36461e-05 7.40775e-06 0.000187125
0.00236309 -9.83298e-05 3.45591e-06
-9.83298e-05 0.00106977 -3.06466e-07
3.45591e-06 -3.06466e-07 0.00107457
0.00238935 -0.000110131 -3.25929e-05
-0.000110131 0.00109388 -3.03536e-06
-3.25929e-05 -3.03536e-06 0.00109555
0.000477697 2.51563e-05 8.33291e-07
2.51563e-05 -5.47608e-05 -6.22789e-06
8.33291e-07 -6.22789e-06 -8.7763e-05
0.00305775 0.00013213 5.39661e-05
0.00013213 0.00149695 -3.09073e-06
5.39661e-05 -3.09073e-06 0.00149196
0.00052984 1.98716e-06 -3.54498e-07
1.98716e-06 -2.36918e-05 2.56681e-07
-3.54498e-07 2.56681e-07 -6.39873e-05
0.0035552 0.00012007 -5.34308e-06
0.00012007 0.00179407 -4.98432e-07
-5.34308e-06 -4.98432e-07 0.00179138
0.000628325 -1.0352e-05 -6.53314e-06
-1.0352e-05 3.07272e-05 9.45908e-06
-6.53314e-06 9.45908e-06 -1.82483e-05
0.00402597 0.000119192 -0.000126889
0.000119192 0.00207435 7.135e-06
-0.000126889 7.135e-06 0.00207074
0.000988008 0.000108806 -1.26379e-05
0.000108806 -3.09482e-05 -3.68819e-06
-1.26379e-05 -3.68819e-06 -0.000168058
0.000996697 6.49097e-05 -1.21002e-05
6.49097e-05 -3.5777e-05 -2.08085e-06
-1.21002e-05 -2.08085e-06 -0.000161854
0.00146339 0.00012787 -3.30228e-06
0.00012787 7.3709e-05 -3.71423e-07
-3.30228e-06 -3.71423e-07 -7.05874e-05
0.00144647 5.71827e-05 -2.12241e-06
5.71827e-05 5.57421e-05 4.73453e-09
-2.12241e-06 4.73453e-09 -7.25811e-05
0.000995353 2.35889e-05 -1.23321e-05
2.35889e-05 -3.32945e-05 -7.56863e-07
-1.23321e-05 -7.56863e-07 -0.00015334
0.000582772 2.66731e-05 -1.89024e-05
2.66731e-05 -0.000123606 -1.05899e-07
-1.89024e-05 -1.05899e-07 -0.000190722
0.000992584 2.03828e-06 -7.96085e-10
2.03828e-06 -3.08452e-05 -1.46028e-07
-7.96085e-10 -1.46028e-07 -0.000149871
0.00142974 3.24804e-05 -6.87163e-08
3.24804e-05 4.95772e-05 3.54946e-08
-6.87163e-08 3.54946e-08 -7.52994e-05
0.00146307 9.14157e-05 3.90583e-09
9.14157e-05 6.53268e-05 4.85852e-09
3.90583e-09 4.85852e-09 -6.93284e-05
0.00181315 8.23969e-05 1.51755e-08
8.23969e-05 0.000118469 2.31215e-07
1.51755e-08 2.31215e-07 1.73131e-05
0.00145173 0.000163174 -2.04969e-07
0.000163174 8.44944e-05 -7.15571e-08
-2.04969e-07 -7.15571e-08 -7.02672e-05
0.0017698 0.000170893 -2.80287e-07
0.000170893 0.000125131 5.65681e-09
-2.80287e-07 5.65681e-09 -3.59006e-06
0.00142542 6.0796e-06 2.21823e-06
6.0796e-06 5.04178e-05 2.68048e-08
2.21823e-06 2.68048e-08 -7.33494e-05
0.00180225 4.39396e-05 -3.45266e-06
4.39396e-05 0.000123497 -1.85837e-07
-3.45266e-06 -1.85837e-07 3.02706e-05
0.00178324 0.000132397 -1.50042e-06
0.000132397 0.000105907 -9.7548e-07
-1.50042e-06 -9.7548e-07 -8.69011e-06
0.00176521 8.35247e-05 2.33434e-06
8.35247e-05 2.41951e-05 1.3128e-07
2.33434e-06 1.3128e-07 -5.30116e-05
0.00177182 0.000211253 3.46515e-08
0.000211253 0.000158577 -1.12981e-06
3.46515e-08 -1.12981e-06 1.34025e-05
0.0017328 0.000192285 -8.44529e-07
0.000192285 4.26357e-05 -1.26092e-06
-8.44529e-07 -1.26092e-06 -6.06909e-05
0.000751281 -5.53951e-06 -1.20849e-05
-5.53951e-06 -0.000171639 7.18897e-07
-1.20849e-05 7.18897e-07 -0.000291746
0.00171117 -6.51772e-05 -2.35287e-05
-6.51772e-05 0.00039108 2.81408e-06
-2.35287e-05 2.81408e-06 0.000275008
0.00174854 -4.15941e-05 -5.37859e-06
-4.15941e-05 0.000243256 1.51221e-07
-5.37859e-06 1.51221e-07 0.000122741
0.00167274 -0.000130416 -4.24654e-06
-0.000130416 0.000219865 9.59158e-07
-4.24654e-06 9.59158e-07 7.86063e-05
0.000719262 -8.3716e-05 -1.47003e-05
-8.3716e-05 6.86867e-05 1.33191e-05
-1.47003e-05 1.33191e-05 1.12691e-06
0.000799756 -0.000180394 -8.09094e-06
-0.000180394 7.18202e-05 6.98659e-06
-8.09094e-06 6.98659e-06 -9.38785e-05
0.00101432 -0.000233639 -5.50292e-06
-0.000233639 3.16308e-05 2.2606e-06
-5.50292e-06 2.2606e-06 -0.000168903
0.00170121 -0.00019556 -7.95483e-06
-0.00019556 0.000279937 2.27471e-06
-7.95483e-06 2.27471e-06 0.000121349
0.0018631 -0.000208284 6.14087e-07
-0.000208284 0.000209776 -1.0247e-06
6.14087e-07 -1.0247e-06 7.57105e-05
0.00162156 -0.000260412 -1.28983e-06
-0.000260412 0.00015512 -5.75089e-07
-1.28983e-06 -5.75089e-07 -1.62037e-05
0.00170665 -0.000324652 -4.94164e-06
-0.000324652 0.000294776 -2.60933e-07
-4.94164e-06 -2.60933e-07 7.97396e-05
0.00176589 -0.000313458 3.2402e-06
-0.000313458 0.000204408 -2.65774e-06
3.2402e-06 -2.65774e-06 2.59511e-05
0.000751823 -0.000121023 -4.00627e-06
-0.000121023 0.00010171 4.75767e-06
-4.00627e-06 4.75767e-06 -3.57963e-05
0.000477629 -8.26591e-05 -7.56573e-07
-8.26591e-05 -4.8431e-05 -1.0306e-06
-7.56573e-07 -1.0306e-06 -0.000207659
0.000617259 -4.20373e-05 -1.21923e-06
-4.20373e-05 3.2135e-05 3.27191e-06
-1.21923e-06 3.27191e-06 -7.27744e-05
0.0015545 -1.72229e-05 -2.13317e-06
-1.72229e-05 0.000129885 1.49183e-07
-2.13317e-06 1.49183e-07 6.22469e-06
0.00173357 -9.25834e-05 -2.76023e-06
-9.25834e-05 0.000238814 4.40901e-07
-2.76023e-06 4.40901e-07 0.000110244
0.00172365 -6.59821e-05 1.42647e-06
-6.59821e-05 8.89342e-05 5.71135e-07
1.42647e-06 5.71135e-07 -1.19073e-05
0.00173476 -0.000160733 -1.60832e-06
-0.000160733 0.000110725 4.86921e-07
-1.60832e-06 4.86921e-07 -1.61877e-05
0.000761532 -0.000151636 4.20768e-07
-0.000151636 9.98826e-05 2.88691e-07
4.20768e-07 2.88691e-07 -5.48436e-05
0.00109143 -0.000235937 -1.65572e-06
-0.000235937 0.000169876 -7.67074e-07
-1.65572e-06 -7.67074e-07 -3.76221e-05
0.00139809 -0.000313446 2.21577e-06
-0.000313446 0.000198001 -3.656e-07
2.21577e-06 -3.656e-07 -3.74448e-05
0.00162194 -0.000236304 -7.42794e-07
-0.000236304 0.000119269 5.64167e-07
-7.42794e-07 5.64167e-07 -3.66909e-05
0.00185502 -0.00022845 1.60214e-06
-0.00022845 0.000154525 1.30054e-07
1.60214e-06 1.30054e-07 4.29319e-05
0.00179075 -0.000361597 -8.77749e-07
-0.000361597 0.000276402 4.40852e-07
-8.77749e-07 4.40852e-07 5.61324e-05
0.00173318 -0.000291842 1.05215e-07
-0.000291842 0.000147698 3.40055e-07
1.05215e-07 3.40055e-07 -8.37054e-06
0.0020069 -0.000338056 1.81377e-06
-0.000338056 0.000322527 -3.17645e-07
1.81377e-06 -3.17645e-07 0.000160384
0.000962644 -0.000176382 3.68237e-07
-0.000176382 0.000213816 8.77922e-07
3.68237e-07 8.77922e-07 4.30973e-05
0.00115263 -0.000213877 -3.80415e-07
-0.000213877 0.00033782 1.85456e-07
-3.80415e-07 1.85456e-07 0.000148366
0.00063708 -3.02772e-05 1.14228e-08
-3.02772e-05 4.38923e-05 2.08117e-07
1.14228e-08 2.08117e-07 -4.60575e-05
0.000375219 -4.0871e-05 -7.90193e-08
-4.0871e-05 -9.49552e-05 -5.97754e-07
-7.90193e-08 -5.97754e-07 -0.000244249
0.00175304 -3.62221e-05 -2.50069e-06
-3.62221e-05 0.000105088 2.72048e-07
-2.50069e-06 2.72048e-07 6.57324e-06
0.00184473 -0.00011078 -8.57057e-07
-0.00011078 0.000158533 1.44471e-06
-8.57057e-07 1.44471e-06 4.68918e-05
0.00168992 -7.69395e-05 1.38641e-06
-7.69395e-05 1.52924e-05 -2.28059e-08
1.38641e-06 -2.28059e-08 -6.51109e-05
0.00178378 -0.000186959 -3.51494e-06
-0.000186959 6.9395e-05 8.07056e-07
-3.51494e-06 8.07056e-07 -2.38188e-05
0.00173004 -0.00025965 -3.65997e-06
-0.00025965 0.000112874 2.77169e-06
-3.65997e-06 2.77169e-06 -1.8575e-05
0.00200031 -0.000234565 2.04824e-06
-0.000234565 0.000223088 -6.54752e-07
2.04824e-06 -6.54752e-07 0.000126764
0.000961561 -0.000207208 5.90381e-07
-0.000207208 0.000176128 -3.88938e-06
5.90381e-07 -3.88938e-06 -1.48211e-05
0.00164483 -0.000303817 -4.94234e-06
-0.000303817 7.24342e-05 2.57429e-06
-4.94234e-06 2.57429e-06 -6.14705e-05
0.00114015 -0.000277842 1.58517e-06
-0.000277842 0.000153916 -4.79774e-06
1.58517e-06 -4.79774e-06 -8.29072e-05
0.00165776 -0.00038468 -8.80775e-07
-0.00038468 0.00028969 1.41654e-06
-8.80775e-07 1.41654e-06 3.01674e-05
0.00173885 -0.000371813 9.18082e-07
-0.000371813 0.000199596 4.95634e-06
9.18082e-07 4.95634e-06 -1.67425e-05
0.00198265 -0.000324023 -4.62671e-07
-0.000324023 0.000298098 1.06253e-06
-4.62671e-07 1.06253e-06 0.00014381
0.000542837 -3.16491e-05 1.05975e-06
-3.16491e-05 -1.16561e-05 -3.15859e-06
1.05975e-06 -3.15859e-06 -8.90812e-05
0.000445135 -3.59033e-05 -1.40581e-06
-3.59033e-05 -4.42152e-05 -1.02916e-06
-1.40581e-06 -1.02916e-06 -0.00018247
0.000864402 -0.000206902 -9.66797e-07
-0.000206902 0.000130922 8.12422e-07
-9.66797e-07 8.12422e-07 -5.49027e-05
0.000805622 -0.000148142 4.90166e-07
-0.000148142 0.000176316 2.31263e-06
4.90166e-07 2.31263e-06 -7.43659e-06
0.00143395 -0.00025964 -3.70555e-06
-0.00025964 0.00048777 3.72614e-06
-3.70555e-06 3.72614e-06 0.000295813
0.00049828 -6.07834e-05 -4.8058e-07
-6.07834e-05 -4.43828e-05 -4.97665e-06
-4.8058e-07 -4.97665e-06 -7.17169e-05
0.00140851 0.000191513 -4.51628e-06
0.000191513 9.13453e-05 -1.32137e-06
-4.51628e-06 -1.32137e-06 -7.51849e-05
0.000510668 -3.72499e-05 -2.61991e-07
-3.72499e-05 -2.67493e-05 -3.42099e-06
-2.61991e-07 -3.42099e-06 -0.000105797
0.000716969 7.91992e-05 -1.98783e-06
7.91992e-05 8.82195e-05 -4.59944e-06
-1.98783e-06 -4.59944e-06 -4.19563e-05
0.000649189 5.29966e-05 1.51289e-06
5.29966e-05 7.91615e-05 -1.18431e-06
1.51289e-06 -1.18431e-06 -7.22164e-05
0.00127004 0.000226035 -6.4281e-06
0.000226035 0.000103634 -2.37823e-06
-6.4281e-06 -2.37823e-06 -8.1922e-05
0.00165839 0.000285617 -1.16449e-07
0.000285617 0.000165501 6.61582e-07
-1.16449e-07 6.61582e-07 -2.0501e-05
0.000852995 0.000199311 -1.42356e-06
0.000199311 0.00010662 -3.67092e-06
-1.42356e-06 -3.67092e-06 -9.68258e-05
0.00114494 0.000265573 -1.84423e-06
0.000265573 0.000121813 -2.71555e-06
-1.84423e-06 -2.71555e-06 -0.000121191
0.00174578 0.000310024 -2.74157e-06
0.000310024 0.000362193 -5.30115e-07
-2.74157e-06 -5.30115e-07 0.000152356
0.00149967 0.000292843 -6.36313e-06
0.000292843 0.000203636 2.80599e-06
-6.36313e-06 2.80599e-06 -1.33301e-05
0.000544152 -5.19985e-05 1.94229e-08
-5.19985e-05 -2.97213e-05 3.7417e-09
1.94229e-08 3.7417e-09 -5.22014e-05
0.000633349 -2.04483e-05 -6.21431e-07
-2.04483e-05 3.21358e-05 3.00722e-07
-6.21431e-07 3.00722e-07 -3.12343e-05
0.000942887 0.000170398 -1.99943e-07
0.000170398 0.000213494 9.9084e-07
-1.99943e-07 9.9084e-07 3.94263e-05
0.000690065 1.51741e-05 -5.75887e-07
1.51741e-05 0.000105152 2.89125e-07
-5.75887e-07 2.89125e-07 -2.26725e-05
0.000639326 0.000114312 6.14627e-07
0.000114312 5.4208e-05 -7.80356e-07
6.14627e-07 -7.80356e-07 -0.0001186
0.00172693 0.000253609 -1.57143e-07
0.000253609 0.000158391 -8.35141e-07
-1.57143e-07 -8.35141e-07 -7.19826e-06
0.00156401 0.000305661 4.89323e-07
0.000305661 0.000176798 1.85286e-07
4.89323e-07 1.85286e-07 -2.64136e-05
0.00172996 0.000320501 1.78999e-06
0.000320501 0.000169651 2.0328e-07
1.78999e-06 2.0328e-07 -1.08884e-05
0.0011853 0.000259842 1.1346e-06
0.000259842 0.000269943 1.54809e-06
1.1346e-06 1.54809e-06 3.15635e-05
0.00180667 0.00036241 8.08507e-07
0.00036241 0.000318509 1.52859e-07
8.08507e-07 1.52859e-07 9.81417e-05
0.00127748 0.000284873 -1.45651e-06
0.000284873 0.000136785 2.18684e-07
-1.45651e-06 2.18684e-07 -0.00010504
0.000681663 -6.8123e-06 2.16577e-06
-6.8123e-06 5.10152e-05 2.52941e-06
2.16577e-06 2.52941e-06 -4.22154e-06
0.000855572 5.33278e-05 7.20879e-07
5.33278e-05 0.000192215 2.75101e-06
7.20879e-07 2.75101e-06 8.66127e-05
0.00106498 0.000228227 -2.45705e-06
0.000228227 0.000258772 -7.91029e-07
-2.45705e-06 -7.91029e-07 6.41568e-05
0.00120268 8.7905e-05 1.56403e-07
8.7905e-05 0.000411026 8.27676e-07
1.56403e-07 8.27676e-07 0.000249574
0.00113006 0.000135971 -5.43833e-06
0.000135971 0.000302477 -6.07599e-06
-5.43833e-06 -6.07599e-06 0.000139194
0.00176659 0.000264465 -2.89968e-06
0.000264465 0.00014802 -2.59926e-06
-2.89968e-06 -2.59926e-06 -1.91007e-06
0.00177685 0.0003658 1.76053e-06
0.0003658 0.000245102 2.37713e-07
1.76053e-06 2.37713e-07 3.76564e-05
0.00152661 0.000339988 3.82112e-06
0.000339988 2.54527e-05 -9.23166e-07
3.82112e-06 -9.23166e-07 -0.000152786
0.000831957 0.000241767 -8.13502e-07
0.000241767 4.38423e-05 3.36865e-06
-8.13502e-07 3.36865e-06 -0.000203738
0.00143109 0.000342343 6.11745e-06
0.000342343 0.000140111 -1.1363e-06
6.11745e-06 -1.1363e-06 -9.83187e-05
0.000630484 -8.09402e-06 -1.8007e-07
-8.09402e-06 1.78824e-05 1.95379e-08
-1.8007e-07 1.95379e-08 -3.34163e-05
0.000559048 2.25993e-05 1.48251e-06
2.25993e-05 -5.82428e-06 1.55275e-06
1.48251e-06 1.55275e-06 -8.54866e-05
0.000550241 1.12866e-05 -5.92258e-07
1.12866e-05 -6.6274e-06 -9.66771e-08
-5.92258e-07 -9.66771e-08 -8.62185e-05
0.000924362 8.92487e-05 3.70402e-07
8.92487e-05 0.000227101 -4.52205e-07
3.70402e-07 -4.52205e-07 0.000127631
0.000681312 6.84172e-05 1.85499e-06
6.84172e-05 7.76953e-05 1.38465e-06
1.85499e-06 1.38465e-06 -5.56392e-06
0.000624119 2.65386e-05 2.05414e-06
2.65386e-05 2.10416e-05 2.34748e-06
2.05414e-06 2.34748e-06 -2.91995e-05
0.000621657 -1.01363e-05 -6.39002e-07
-1.01363e-05 1.6092e-05 4.32982e-09
-6.39002e-07 4.32982e-09 -3.37944e-05
0.00124622 -3.922e-05 8.05584e-07
-3.922e-05 0.000371694 2.53762e-06
8.05584e-07 2.53762e-06 0.000360031
0.00062326 -1.9276e-05 -1.15333e-06
-1.9276e-05 1.43092e-05 -2.34661e-06
-1.15333e-06 -2.34661e-06 -3.56021e-05
0.00129527 -4.85047e-05 -5.32112e-06
-4.85047e-05 0.000404435 -1.39435e-06
-5.32112e-06 -1.39435e-06 0.000391303
0.000863917 -4.01676e-05 2.30471e-05
-4.01676e-05 0.00015593 7.53878e-06
2.30471e-05 7.53878e-06 0.000160694
0.00131378 -5.71772e-05 -9.49544e-06
-5.71772e-05 0.000421408 -3.87102e-06
-9.49544e-06 -3.87102e-06 0.00040599
0.00157828 -6.691e-05 2.07872e-05
-6.691e-05 0.000591837 1.91633e-06
2.07872e-05 1.91633e-06 0.000596752
0.00231527 -9.55024e-05 -2.87839e-05
-9.55024e-05 0.00104013 -3.56896e-06
-2.87839e-05 -3.56896e-06 0.00104554
0.00047632 6.26767e-05 -1.99081e-06
6.26767e-05 -5.40747e-05 -5.17873e-06
-1.99081e-06 -5.17873e-06 -8.45266e-05
0.000514744 2.23564e-05 3.54357e-07
2.23564e-05 -3.247e-05 3.14549e-07
3.54357e-07 3.14549e-07 -6.62408e-05
0.00271271 0.00011792 3.49566e-05
0.00011792 0.00128607 -3.41641e-06
3.49566e-05 -3.41641e-06 0.00128473
0.00316711 0.000110484 -6.7863e-06
0.000110484 0.00155892 -4.04838e-07
-6.7863e-06 -4.04838e-07 0.00155912
0.000626764 6.05507e-07 -5.13631e-06
6.05507e-07 3.2912e-05 7.82293e-06
-5.13631e-06 7.82293e-06 -8.06575e-06
0.00365853 0.000106588 -0.000112703
0.000106588 0.00185175 6.06217e-06
-0.000112703 6.06217e-06 0.0018521
0.00144131 0.000162743 -4.05505e-06
0.000162743 8.00394e-05 -6.62979e-07
-4.05505e-06 -6.62979e-07 -7.49861e-05
0.0014514 9.18881e-05 -2.44063e-06
9.18881e-05 5.95966e-05 -1.1367e-07
-2.44063e-06 -1.1367e-07 -7.54655e-05
0.00175377 0.000169491 -2.43655e-07
0.000169491 0.000119566 1.17778e-06
-2.43655e-07 1.17778e-06 -9.28276e-06
0.001851 8.20893e-05 1.24522e-06
8.20893e-05 0.000135789 8.53159e-07
1.24522e-06 8.53159e-07 3.74516e-05
0.00142561 3.5428e-05 -2.05035e-06
3.5428e-05 4.7861e-05 -4.84919e-08
-2.05035e-06 -4.84919e-08 -7.72067e-05
0.000996687 6.61394e-06 -1.2104e-05
6.61394e-06 -2.89054e-05 -6.50086e-08
-1.2104e-05 -6.50086e-08 -0.000147897
0.00141785 9.57135e-06 7.28506e-08
9.57135e-06 4.7218e-05 2.81742e-08
7.28506e-08 2.81742e-08 -7.66519e-05
0.00180981 3.48523e-05 -1.86467e-06
3.48523e-05 0.000129194 -3.33637e-08
-1.86467e-06 -3.33637e-08 3.64208e-05
0.00179109 0.000131199 -2.44592e-07
0.000131199 0.000110711 1.5058e-07
-2.44592e-07 1.5058e-07 -3.79286e-06
0.00180275 8.21053e-05 2.20429e-06
8.21053e-05 4.73762e-05 8.68235e-07
2.20429e-06 8.68235e-07 -2.44989e-05
0.00174669 0.000211771 -2.85663e-07
0.000211771 0.000139456 -7.41438e-08
-2.85663e-07 -7.41438e-08 -6.30066e-06
0.00177294 0.000190084 -4.19319e-07
0.000190084 6.37333e-05 9.41528e-07
-4.19319e-07 9.41528e-07 -3.67299e-05
0.00179547 2.6515e-06 -2.64735e-06
2.6515e-06 0.000129302 2.67005e-07
-2.64735e-06 2.67005e-07 3.66941e-05
0.00173734 4.00462e-05 2.54944e-06
4.00462e-05 2.18174e-05 2.92175e-07
2.54944e-06 2.92175e-07 -4.5472e-05
0.00185515 0.00014026 -7.20028e-07
0.00014026 8.49954e-05 -7.37094e-07
-7.20028e-07 -7.37094e-07 2.6761e-06
0.00178228 8.93269e-05 5.03351e-06
8.93269e-05 1.20435e-05 5.86855e-07
5.03351e-06 5.86855e-07 -4.40387e-05
0.00173144 0.000211925 -6.33456e-07
0.000211925 8.34827e-05 -2.43429e-06
-6.33456e-07 -2.43429e-06 -3.79357e-05
0.00190159 0.000199847 3.64113e-06
0.000199847 0.000101079 7.31642e-07
3.64113e-06 7.31642e-07 1.74237e-05
0.00144054 -1.52463e-05 -4.07808e-06
-1.52463e-05 6.16788e-05 8.98712e-08
-4.07808e-06 8.98712e-08 -6.25028e-05
0.00174375 -9.72476e-05 -6.08919e-06
-9.72476e-05 0.000243953 6.86483e-07
-6.08919e-06 6.86483e-07 0.000114833
0.00174764 -6.39089e-05 3.34117e-06
-6.39089e-05 0.000103192 -1.30337e-06
3.34117e-06 -1.30337e-06 7.37861e-06
0.00172606 -0.000157751 -1.23863e-07
-0.000157751 0.000104676 -1.42536e-07
-1.23863e-07 -1.42536e-07 -2.33221e-05
0.000872232 -0.000176061 -5.33521e-06
-0.000176061 0.000167215 7.38075e-06
-5.33521e-06 7.38075e-06 8.28964e-06
0.0010749 -0.000234866 -5.92938e-06
-0.000234866 0.000154388 3.66157e-06
-5.92938e-06 3.66157e-06 -5.2311e-05
0.00120935 -0.000291815 -1.25808e-06
-0.000291815 9.33514e-05 6.03103e-07
-1.25808e-06 6.03103e-07 -0.000138763
0.00162294 -0.000235275 -1.07937e-06
-0.000235275 0.000121854 1.38139e-07
-1.07937e-06 1.38139e-07 -3.71302e-05
0.00189514 -0.000229514 3.48835e-06
-0.000229514 0.000179472 -1.76337e-06
3.48835e-06 -1.76337e-06 7.20907e-05
0.00176906 -0.000292787 2.51986e-06
-0.000292787 0.000168755 -1.31701e-06
2.51986e-06 -1.31701e-06 1.28809e-05
0.00170428 -0.000363041 -3.16656e-07
-0.000363041 0.000221754 -1.87985e-06
-3.16656e-07 -1.87985e-06 -1.49594e-06
0.00202864 -0.000335421 5.85362e-06
-0.000335421 0.000335587 -6.36154e-06
5.85362e-06 -6.36154e-06 0.00017686
0.000917338 -0.0001772 2.34331e-07
-0.0001772 0.000188677 1.51502e-06
2.34331e-07 1.51502e-06 1.72353e-05
0.000658941 -0.000153098 1.6174e-07
-0.000153098 3.70442e-05 -6.33011e-07
1.6174e-07 -6.33011e-07 -0.000138846
0.000703527 -3.49591e-05 -1.21471e-06
-3.49591e-05 8.09056e-05 3.37602e-06
-1.21471e-06 3.37602e-06 -9.34506e-06
0.000301544 -1.35057e-05 8.52166e-07
-1.35057e-05 -0.000143114 -1.85939e-06
8.52166e-07 -1.85939e-06 -0.000285428
0.00173485 -3.62411e-05 2.26031e-08
-3.62411e-05 9.50899e-05 1.10701e-07
2.26031e-08 1.10701e-07 -3.60315e-06
0.00178049 -0.000109835 4.19762e-07
-0.000109835 0.000123401 -3.11487e-07
4.19762e-07 -3.11487e-07 9.61158e-06
0.00172715 -7.58784e-05 2.08789e-06
-7.58784e-05 3.6522e-05 -5.78522e-07
2.08789e-06 -5.78522e-07 -3.95882e-05
0.00175551 -0.000183529 -1.69604e-06
-0.000183529 5.90703e-05 6.56197e-07
-1.69604e-06 6.56197e-07 -3.61182e-05
0.000995777 -0.000203242 -9.78158e-07
-0.000203242 0.000197142 8.3147e-07
-9.78158e-07 8.3147e-07 6.99395e-06
0.0010193 -0.000263175 9.23362e-07
-0.000263175 8.01233e-05 -1.75766e-06
9.23362e-07 -1.75766e-06 -0.000152369
0.00161845 -0.000385543 -1.63228e-07
-0.000385543 0.000266029 8.19819e-07
-1.63228e-07 8.19819e-07 3.22706e-06
0.00168935 -0.000256625 -1.51463e-06
-0.000256625 9.44255e-05 7.56776e-07
-1.51463e-06 7.56776e-07 -4.0569e-05
0.00184899 -0.000230805 2.04091e-06
-0.000230805 0.000130762 -1.04923e-06
2.04091e-06 -1.04923e-06 3.86374e-05
0.00173978 -0.000373724 -6.41929e-07
-0.000373724 0.000204426 5.82853e-07
-6.41929e-07 5.82853e-07 -1.31635e-05
0.00170549 -0.000307037 -5.70189e-07
-0.000307037 0.000104912 1.08253e-06
-5.70189e-07 1.08253e-06 -2.94187e-05
0.00185311 -0.000316477 3.5914e-06
-0.000316477 0.00020901 -5.36037e-06
3.5914e-06 -5.36037e-06 5.95767e-05
0.00103445 -0.000223449 6.65937e-07
-0.000223449 0.000227643 1.45184e-06
6.65937e-07 1.45184e-06 3.88989e-05
0.00124917 -0.000235817 3.18338e-06
-0.000235817 0.000370955 1.25405e-06
3.18338e-06 1.25405e-06 0.000187955
0.000773588 -0.000114241 -2.52958e-07
-0.000114241 0.000152671 -1.94748e-07
-2.52958e-07 -1.94748e-07 -3.03646e-05
0.000466154 -7.32441e-06 -1.32394e-06
-7.32441e-06 -5.71248e-05 4.12451e-07
-1.32394e-06 4.12451e-07 -0.000136034
0.000386597 -3.92453e-06 -3.62965e-07
-3.92453e-06 -8.12857e-05 -7.305e-07
-3.62965e-07 -7.305e-07 -0.000213157
0.00185937 -4.98157e-05 1.09665e-06
-4.98157e-05 0.000101375 -6.54669e-07
1.09665e-06 -6.54669e-07 3.64879e-05
0.00186517 -0.000109084 2.49381e-06
-0.000109084 9.71659e-05 2.66204e-07
2.49381e-06 2.66204e-07 2.12956e-05
0.00181236 -0.000220464 3.51908e-07
-0.000220464 6.3755e-05 -1.42434e-06
3.51908e-07 -1.42434e-06 -1.21692e-05
0.00164141 -0.000255926 -9.09676e-07
-0.000255926 3.10045e-05 1.05671e-07
-9.09676e-07 1.05671e-07 -7.42343e-05
0.00103282 -0.000239302 -2.13288e-06
-0.000239302 0.000185575 -4.34184e-06
-2.13288e-06 -4.34184e-06 -2.66387e-05
0.00222893 -0.000366084 -3.79819e-06
-0.000366084 0.000348026 6.7085e-07
-3.79819e-06 6.7085e-07 0.000216829
0.00119763 -0.000322163 2.08022e-06
-0.000322163 0.000152502 -3.36927e-06
2.08022e-06 -3.36927e-06 -0.000109922
0.00165583 -0.000426285 -1.65271e-07
-0.000426285 0.00024768 2.07054e-06
-1.65271e-07 2.07054e-06 -2.80809e-05
0.00162564 -0.000359196 1.65211e-06
-0.000359196 0.000109775 3.88202e-06
1.65211e-06 3.88202e-06 -9.83161e-05
0.00025701 1.16142e-05 2.72689e-07
1.16142e-05 -0.000180184 -3.47501e-06
2.72689e-07 -3.47501e-06 -0.000247985
0.000728392 -4.03751e-05 3.72472e-07
-4.03751e-05 0.000133969 -7.45189e-07
3.72472e-07 -7.45189e-07 1.02315e-05
0.000929752 -6.85686e-05 -1.53225e-06
-6.85686e-05 0.000238565 1.15816e-06
-1.53225e-06 1.15816e-06 8.21183e-05
0.00115749 -0.000243074 -6.12548e-06
-0.000243074 0.000284642 1.28453e-07
-6.12548e-06 1.28453e-07 9.00799e-05
0.000496395 -0.000125517 2.70653e-06
-0.000125517 -2.1845e-05 3.98957e-06
2.70653e-06 3.98957e-06 -0.000217096
0.000636857 -0.000199355 -1.16847e-06
-0.000199355 -2.03305e-05 2.36552e-07
-1.16847e-06 2.36552e-07 -0.000197903
0.000548022 -5.0092e-05 -1.04033e-06
-5.0092e-05 -2.84836e-05 -4.60386e-06
-1.04033e-06 -4.60386e-06 -5.04834e-05
0.000575491 -2.3837e-05 -1.79914e-06
-2.3837e-05 -3.45559e-07 -2.62512e-06
-1.79914e-06 -2.62512e-06 -6.35682e-05
0.00170663 0.000253958 -1.29876e-06
0.000253958 0.000143512 -2.13442e-07
-1.29876e-06 -2.13442e-07 -2.25126e-05
0.000472664 -6.07483e-05 1.38148e-06
-6.07483e-05 -2.45776e-05 -2.57883e-06
1.38148e-06 -2.57883e-06 -0.000146232
0.0008042 0.000154061 -1.28626e-06
0.000154061 0.000133505 6.19438e-07
-1.28626e-06 6.19438e-07 -3.69972e-05
0.000170211 6.53265e-05 1.51498e-06
6.53265e-05 -0.000229514 1.64003e-06
1.51498e-06 1.64003e-06 -0.000393305
0.00157124 0.000306379 -4.28993e-07
0.000306379 0.000180748 3.37854e-07
-4.28993e-07 3.37854e-07 -2.28214e-05
0.00165167 0.000316756 2.52802e-07
0.000316756 0.00012592 2.3729e-07
2.52802e-07 2.3729e-07 -5.4888e-05
0.00111769 0.000254014 1.32487e-06
0.000254014 0.000237593 -1.57806e-06
1.32487e-06 -1.57806e-06 -2.65167e-06
0.00178515 0.000327392 -1.12374e-06
0.000327392 0.000432068 -1.14366e-06
-1.12374e-06 -1.14366e-06 0.000186589
0.00174491 0.000356521 -3.11698e-06
0.000356521 0.000268855 -3.07478e-07
-3.11698e-06 -3.07478e-07 4.81117e-05
0.000627123 -7.29897e-06 -3.3906e-07
-7.29897e-06 1.99342e-05 2.02427e-07
-3.3906e-07 2.02427e-07 -3.52369e-05
0.000694077 -3.04999e-06 -9.54176e-07
-3.04999e-06 9.49753e-05 4.31456e-07
-9.54176e-07 4.31456e-07 -5.62642e-06
0.0011013 0.000231931 -8.11381e-07
0.000231931 0.000281593 9.24347e-09
-8.11381e-07 9.24347e-09 8.62549e-05
0.00083885 3.75192e-05 4.71744e-07
3.75192e-05 0.000192159 -1.64881e-07
4.71744e-07 -1.64881e-07 3.84454e-05
0.000816584 0.000147893 1.1682e-06
0.000147893 0.000134012 1.26863e-06
1.1682e-06 1.26863e-06 -3.60035e-05
0.00174228 0.000265876 -1.89454e-06
0.000265876 0.000135569 -1.43285e-06
-1.89454e-06 -1.43285e-06 -1.56076e-05
0.00174095 0.000362742 1.52171e-06
0.000362742 0.000221459 4.20636e-07
1.52171e-06 4.20636e-07 1.4196e-05
0.00166641 0.00034491 4.59417e-07
0.00034491 0.000107602 6.29702e-09
4.59417e-07 6.29702e-09 -6.95343e-05
0.00083954 0.000248921 6.35691e-07
0.000248921 3.96127e-05 3.23642e-06
6.35691e-07 3.23642e-06 -0.000209258
0.00160599 0.000357194 -2.06747e-06
0.000357194 0.000252418 -9.76172e-07
-2.06747e-06 -9.76172e-07 1.06482e-05
0.000776616 3.48057e-05 7.3191e-07
3.48057e-05 0.000134211 1.90637e-06
7.3191e-07 1.90637e-06 4.52656e-05
0.000372256 -6.40432e-06 -1.88663e-06
-6.40432e-06 -8.60394e-05 2.93539e-06
-1.88663e-06 2.93539e-06 -0.000206545
0.00111716 0.000247823 -3.55215e-06
0.000247823 0.000244882 -1.20085e-06
-3.55215e-06 -1.20085e-06 4.23359e-05
0.000679331 0.000114369 -4.99866e-06
0.000114369 0.000120311 -4.28085e-06
-4.99866e-06 -4.28085e-06 -6.10233e-05
0.00075557 0.000209627 -1.15765e-06
0.000209627 6.76327e-05 -2.54647e-06
-1.15765e-06 -2.54647e-06 -0.00010816
0.00162274 0.000282296 -2.52837e-07
0.000282296 -2.95866e-07 -2.20227e-06
-2.52837e-07 -2.20227e-06 -0.000126541
0.00190146 0.00040102 3.66016e-06
0.00040102 0.000297531 -1.95558e-06
3.66016e-06 -1.95558e-06 7.76009e-05
0.00155146 0.000357432 3.03667e-06
0.000357432 2.95193e-05 1.42335e-07
3.03667e-06 1.42335e-07 -0.000149446
0.00145656 0.000315488 2.25399e-06
0.000315488 0.000336554 7.75623e-06
2.25399e-06 7.75623e-06 6.836e-05
0.00153209 0.000377033 -1.06341e-06
0.000377033 0.000216467 -8.08475e-07
-1.06341e-06 -8.08475e-07 -3.01483e-05
0.000608296 -1.88119e-05 -1.4695e-06
-1.88119e-05 5.96316e-06 -2.45629e-06
-1.4695e-06 -2.45629e-06 -4.60323e-05
0.000623212 2.69596e-05 9.86385e-07
2.69596e-05 3.40276e-05 3.30163e-07
9.86385e-07 3.30163e-07 -4.63676e-05
0.000527823 4.98397e-06 -2.72586e-07
4.98397e-06 -2.05029e-05 9.81991e-07
-2.72586e-07 9.81991e-07 -0.00010692
0.000443144 -2.9172e-05 -6.69568e-07
-2.9172e-05 -7.05849e-05 -1.36024e-06
-6.69568e-07 -1.36024e-06 -0.000149257
0.000663302 3.43049e-05 -2.70256e-07
3.43049e-05 6.60371e-05 2.19964e-08
-2.70256e-07 2.19964e-08 -1.57281e-05
0.000687777 4.5948e-05 -2.87828e-07
4.5948e-05 7.66479e-05 -3.54773e-07
-2.87828e-07 -3.54773e-07 -1.35092e-05
0.000816682 7.66947e-05 -1.18873e-06
7.66947e-05 0.000160947 -1.71501e-06
-1.18873e-06 -1.71501e-06 6.14903e-05
0.00051819 -1.30926e-05 6.5419e-07
-1.30926e-05 -9.34175e-06 3.01046e-07
6.5419e-07 3.01046e-07 -0.000109792
0.000688727 5.74597e-05 9.1317e-07
5.74597e-05 7.78119e-05 1.49812e-06
9.1317e-07 1.49812e-06 -6.94673e-07
0.000631695 3.32112e-05 2.13196e-06
3.32112e-05 3.00268e-05 2.36797e-06
2.13196e-06 2.36797e-06 -2.14415e-05
0.000621444 -6.1271e-07 -1.15482e-06
-6.1271e-07 1.93926e-05 7.93943e-09
-1.15482e-06 7.93943e-09 -3.07888e-05
0.00125157 -2.71239e-05 9.1024e-07
-2.71239e-05 0.000373269 2.47633e-06
9.1024e-07 2.47633e-06 0.000362589
0.000589699 -4.4883e-05 -1.05097e-07
-4.4883e-05 4.68246e-07 -2.32764e-06
-1.05097e-07 -2.32764e-06 -5.12361e-05
0.00129533 -3.6141e-05 -4.58475e-06
-3.6141e-05 0.000400641 -1.4471e-06
-4.58475e-06 -1.4471e-06 0.000389268
0.000860754 -3.26131e-05 1.935e-05
-3.26131e-05 0.000148667 7.87223e-06
1.935e-05 7.87223e-06 0.000154968
0.00133416 -4.6213e-05 -8.36714e-06
-4.6213e-05 0.000427193 -5.48011e-06
-8.36714e-06 -5.48011e-06 0.000414299
0.000808923 -4.10931e-05 7.08156e-06
-4.10931e-05 0.000122671 2.95896e-06
7.08156e-06 2.95896e-06 0.000126885
0.00225067 -8.9504e-05 -4.65771e-06
-8.9504e-05 0.0009935 -1.95418e-06
-4.65771e-06 -1.95418e-06 0.0010003
0.000506442 4.51843e-05 -6.24136e-07
4.51843e-05 -4.93433e-05 -3.92192e-06
-6.24136e-07 -3.92192e-06 -7.04014e-05
0.000515288 4.33762e-05 -9.56492e-07
4.33762e-05 -3.50504e-05 8.90437e-09
-9.56492e-07 8.90437e-09 -6.33403e-05
0.00248889 0.000101503 2.59161e-05
0.000101503 0.00114625 -3.64115e-06
2.59161e-05 -3.64115e-06 0.00114924
0.000576763 8.4058e-06 -4.13453e-06
8.4058e-06 1.4694e-06 6.4989e-06
-4.13453e-06 6.4989e-06 -3.1142e-05
0.00284202 0.00011747 -1.06154e-05
0.00011747 0.00136224 -5.97715e-07
-1.06154e-05 -5.97715e-07 0.00136125
0.00328955 9.83629e-05 -9.42772e-05
9.83629e-05 0.00162883 4.88476e-06
-9.42772e-05 4.88476e-06 0.00163186
0.00172068 0.000212112 -1.71008e-06
0.000212112 0.000120255 7.24868e-07
-1.71008e-06 7.24868e-07 -2.60581e-05
0.00179869 0.000128987 1.25061e-06
0.000128987 0.000115699 1.30153e-06
1.25061e-06 1.30153e-06 1.42321e-06
0.00181297 0.000187955 9.66647e-07
0.000187955 8.44933e-05 2.18073e-06
9.66647e-07 2.18073e-06 -1.30989e-05
0.00184968 8.0951e-05 1.34575e-06
8.0951e-05 7.60152e-05 1.20398e-06
1.34575e-06 1.20398e-06 9.63372e-06
0.00182036 2.82502e-05 -3.06429e-07
2.82502e-05 0.000136975 1.75024e-07
-3.06429e-07 1.75024e-07 4.45761e-05
0.00141673 1.23574e-05 -1.92979e-06
1.23574e-05 4.73379e-05 4.70866e-08
-1.92979e-06 4.70866e-08 -7.65485e-05
0.00175126 3.77036e-06 -1.57603e-06
3.77036e-06 0.000101908 2.04245e-08
-1.57603e-06 2.04245e-08 7.01059e-06
0.0017673 3.82919e-05 1.98106e-06
3.82919e-05 4.25485e-05 4.35062e-08
1.98106e-06 4.35062e-08 -2.64715e-05
0.00186047 0.000139076 -1.38831e-06
0.000139076 9.06052e-05 -6.32255e-07
-1.38831e-06 -6.32255e-07 8.01391e-06
0.00181733 9.10843e-05 1.77991e-06
9.10843e-05 3.0587e-05 5.14922e-07
1.77991e-06 5.14922e-07 -2.26673e-05
0.0017556 0.000210904 -8.33056e-07
0.000210904 0.00010546 -2.57183e-07
-8.33056e-07 -2.57183e-07 -1.59311e-05
0.00185842 0.000200919 3.61855e-06
0.000200919 7.63484e-05 1.46368e-06
3.61855e-06 1.46368e-06 -4.23414e-06
0.00179109 -6.7047e-06 3.69605e-07
-6.7047e-06 7.05277e-05 7.2762e-08
3.69605e-07 7.2762e-08 2.81814e-06
0.00187159 4.33541e-05 4.89173e-06
4.33541e-05 4.67812e-05 1.71811e-07
4.89173e-06 1.71811e-07 9.09477e-06
0.00187709 0.000143481 3.83216e-06
0.000143481 6.09336e-05 8.92492e-07
3.83216e-06 8.92492e-07 1.61093e-06
0.00188385 0.000248533 7.07563e-07
0.000248533 0.000106142 -6.65479e-07
7.07563e-07 -6.65479e-07 1.14265e-05
0.00171991 -3.62869e-05 1.63758e-06
-3.62869e-05 8.71938e-05 -1.19183e-08
1.63758e-06 -1.19183e-08 -1.16605e-05
0.00171502 -0.0001105 2.41943e-06
-0.0001105 8.76531e-05 -1.23512e-06
2.41943e-06 -1.23512e-06 -2.84341e-05
0.0017781 -7.50875e-05 3.99717e-06
-7.50875e-05 6.63127e-05 -1.95671e-06
3.99717e-06 -1.95671e-06 -5.55109e-06
0.00174336 -0.000180171 -7.63109e-07
-0.000180171 5.74098e-05 1.32124e-07
-7.63109e-07 1.32124e-07 -3.96125e-05
0.00113066 -0.000215153 -1.36859e-06
-0.000215153 0.000277819 4.96437e-06
-1.36859e-06 4.96437e-06 8.46186e-05
0.00114403 -0.000270773 -5.04033e-07
-0.000270773 0.00014976 1.32714e-06
-5.04033e-07 1.32714e-06 -8.14374e-05
0.00162933 -0.000391151 3.03776e-07
-0.000391151 0.000273513 -4.9144e-07
3.03776e-07 -4.9144e-07 6.43581e-06
0.00164774 -0.000253693 3.2528e-07
-0.000253693 7.57196e-05 -4.38928e-07
3.2528e-07 -4.38928e-07 -6.28363e-05
0.00170679 -0.000227568 3.45092e-06
-0.000227568 4.3803e-05 -1.80438e-06
3.45092e-06 -1.80438e-06 -4.42425e-05
0.00176541 -0.000310301 3.69372e-06
-0.000310301 0.000136585 -3.62218e-07
3.69372e-06 -3.62218e-07 1.8117e-06
0.00173387 -0.000374475 -1.64061e-06
-0.000374475 0.000204279 -2.50216e-06
-1.64061e-06 -2.50216e-06 -1.42388e-05
0.00173927 -0.000309726 2.71056e-06
-0.000309726 0.000130538 -1.15255e-05
2.71056e-06 -1.15255e-05 -1.42147e-05
0.00125098 -0.000244227 2.53976e-06
-0.000244227 0.000353071 2.42519e-06
2.53976e-06 2.42519e-06 0.000160387
0.00101665 -0.00021276 3.76556e-06
-0.00021276 0.000222376 -2.52446e-06
3.76556e-06 -2.52446e-06 4.83194e-05
0.000710242 -9.31815e-05 1.5531e-06
-9.31815e-05 0.000111215 -3.12436e-06
1.5531e-06 -3.12436e-06 -7.21576e-05
0.000366162 8.52434e-06 -1.11321e-06
8.52434e-06 -0.000115695 2.9558e-06
-1.11321e-06 2.9558e-06 -0.000196707
0.000408234 2.38592e-05 1.4626e-06
2.38592e-05 -7.03461e-05 -2.19651e-07
1.4626e-06 -2.19651e-07 -0.00019817
0.001884 -5.50707e-05 -1.49756e-07
-5.50707e-05 0.00011735 -1.36067e-07
-1.49756e-07 -1.36067e-07 5.03196e-05
0.0018076 -0.000111203 1.34236e-06
-0.000111203 6.07292e-05 -7.37151e-07
1.34236e-06 -7.37151e-07 -1.68219e-05
0.00182618 -0.000214672 -2.14812e-06
-0.000214672 7.95388e-05 2.58858e-07
-2.14812e-06 2.58858e-07 1.41883e-06
0.00115323 -0.000248297 -1.0447e-06
-0.000248297 0.000256507 4.60068e-07
-1.0447e-06 4.60068e-07 4.27165e-05
0.0010326 -0.000298815 1.8484e-06
-0.000298815 4.85976e-05 -2.21086e-06
1.8484e-06 -2.21086e-06 -0.000206036
0.00164732 -0.000431907 -1.12505e-07
-0.000431907 0.000243019 2.33745e-07
-1.12505e-07 2.33745e-07 -3.69875e-05
0.00166571 -0.000257038 5.00062e-07
-0.000257038 3.99108e-05 -3.2212e-07
5.00062e-07 -3.2212e-07 -6.56812e-05
0.00171351 -0.000361076 7.86482e-07
-0.000361076 0.000163872 -2.21225e-06
7.86482e-07 -2.21225e-06 -3.78435e-05
0.0019048 -0.000344149 -4.00993e-07
-0.000344149 0.000175145 -1.08494e-06
-4.00993e-07 -1.08494e-06 4.4747e-05
0.000300173 3.40547e-05 -3.22362e-07
3.40547e-05 -0.000159556 -8.88537e-07
-3.22362e-07 -8.88537e-07 -0.000223474
0.00117179 -0.000243112 -1.54737e-07
-0.000243112 0.00028077 1.70041e-06
-1.54737e-07 1.70041e-06 8.76188e-05
0.000652397 -0.000197808 1.74439e-07
-0.000197808 -4.36831e-06 8.74009e-07
1.74439e-07 8.74009e-07 -0.000173338
0.00096746 -0.000165282 -6.59779e-07
-0.000165282 0.000258529 4.03213e-07
-6.59779e-07 4.03213e-07 5.46691e-05
0.00112024 -7.80317e-05 1.47216e-07
-7.80317e-05 0.000352212 -5.92229e-07
1.47216e-07 -5.92229e-07 0.000194968
0.000611709 -6.69531e-07 -4.63608e-07
-6.69531e-07 5.73205e-05 5.48846e-07
-4.63608e-07 5.48846e-07 -6.30658e-05
0.00170254 -6.26334e-05 2.5919e-06
-6.26334e-05 -3.14479e-05 -2.28203e-07
2.5919e-06 -2.28203e-07 -8.37635e-05
0.002033 -0.000153423 2.29884e-06
-0.000153423 0.000121727 -2.54593e-07
2.29884e-06 -2.54593e-07 7.54784e-05
0.00163227 -0.000247972 1.53321e-06
-0.000247972 -5.28231e-05 -1.35838e-06
1.53321e-06 -1.35838e-06 -0.000123347
0.00204792 -0.000322536 -6.42409e-07
-0.000322536 0.000172245 -2.21602e-06
-6.42409e-07 -2.21602e-06 7.16033e-05
0.00150544 -0.000301488 -4.765e-06
-0.000301488 0.000414832 -5.21769e-06
-4.765e-06 -5.21769e-06 0.000183171
0.00187852 -0.00038342 6.59622e-07
-0.00038342 0.000183852 4.00442e-06
6.59622e-07 4.00442e-06 1.66853e-05
0.00141311 -0.000393343 -2.90038e-06
-0.000393343 0.000223195 1.14051e-06
-2.90038e-06 1.14051e-06 -8.21739e-05
0.00168642 -0.000450499 -2.94047e-06
-0.000450499 0.000259746 2.56474e-06
-2.94047e-06 2.56474e-06 -3.16807e-05
0.000300174 5.21406e-05 -1.88589e-06
5.21406e-05 -0.000163858 -2.27244e-06
-1.88589e-06 -2.27244e-06 -0.000217637
0.000714417 -6.13538e-07 -4.84477e-08
-6.13538e-07 0.000115571 -6.46869e-07
-4.84477e-08 -6.46869e-07 1.26953e-05
0.000961495 -0.000105278 -1.70659e-06
-0.000105278 0.000266379 2.10039e-06
-1.70659e-06 2.10039e-06 0.000125154
0.00089563 -3.05776e-05 -2.10841e-06
-3.05776e-05 0.000218304 3.44093e-06
-2.10841e-06 3.44093e-06 3.04165e-05
0.000571698 -0.000209793 -3.74271e-06
-0.000209793 -8.73929e-05 -3.6843e-06
-3.74271e-06 -3.6843e-06 -0.00028398
0.000983156 -0.000226326 -6.72056e-06
-0.000226326 0.000213986 1.37466e-06
-6.72056e-06 1.37466e-06 5.19139e-06
0.000581337 -1.5226e-05 -2.19779e-06
-1.5226e-05 -6.35761e-06 -2.35632e-06
-2.19779e-06 -2.35632e-06 -6.12934e-05
0.000548367 -3.98634e-05 3.70114e-07
-3.98634e-05 3.42325e-06 -1.85477e-06
3.70114e-07 -1.85477e-06 -9.04233e-05
0.00172077 0.000267778 -2.13528e-06
0.000267778 0.000123552 -4.92672e-07
-2.13528e-06 -4.92672e-07 -2.89573e-05
0.000444337 -1.01621e-05 8.70694e-07
-1.01621e-05 -4.53255e-05 -1.23351e-06
8.70694e-07 -1.23351e-06 -0.000189799
0.00112626 0.000234235 1.2249e-06
0.000234235 0.000297593 -1.71276e-07
1.2249e-06 -1.71276e-07 0.000102334
0.00016702 7.48559e-05 3.03594e-06
7.48559e-05 -0.00025925 2.30046e-06
3.03594e-06 2.30046e-06 -0.000410879
0.00170843 0.000360288 -7.6353e-07
0.000360288 0.000197936 2.51749e-07
-7.6353e-07 2.51749e-07 -9.27525e-06
0.00181338 0.000350591 -2.54025e-06
0.000350591 0.000191387 1.19188e-06
-2.54025e-06 1.19188e-06 1.51712e-05
0.00102167 0.000271193 -1.25601e-06
0.000271193 0.000138511 3.0185e-07
-1.25601e-06 3.0185e-07 -0.000113723
0.00177049 0.000370254 -2.13326e-06
0.000370254 0.00035941 1.23379e-06
-2.13326e-06 1.23379e-06 0.000113669
0.000692636 1.19916e-05 -8.67853e-07
1.19916e-05 8.14387e-05 1.98715e-07
-8.67853e-07 1.98715e-07 -3.66336e-06
0.000622706 1.93117e-05 7.13976e-07
1.93117e-05 6.0607e-05 1.36715e-06
7.13976e-07 1.36715e-06 -6.13152e-05
0.00134615 0.000268845 -1.0624e-06
0.000268845 0.000391343 -2.85628e-06
-1.0624e-06 -2.85628e-06 0.000182046
0.000556801 3.43033e-05 -9.36384e-07
3.43033e-05 2.0104e-05 -4.22118e-07
-9.36384e-07 -4.22118e-07 -0.00013695
0.000576121 0.000174543 -1.9256e-06
0.000174543 -4.7827e-05 -8.25484e-07
-1.9256e-06 -8.25484e-07 -0.000202759
0.0018754 0.000293781 -2.87268e-06
0.000293781 0.000143548 -1.32178e-06
-2.87268e-06 -1.32178e-06 1.93138e-05
0.00198025 0.00040245 1.78115e-06
0.00040245 0.00034714 -2.80681e-07
1.78115e-06 -2.80681e-07 0.000129096
0.00171327 0.000375671 1.76542e-06
0.000375671 0.000112016 2.4857e-06
1.76542e-06 2.4857e-06 -7.00465e-05
0.0012997 0.000304606 3.62665e-06
0.000304606 0.000257625 4.43835e-06
3.62665e-06 4.43835e-06 -1.60709e-05
0.00153621 0.000384699 -3.04803e-06
0.000384699 0.000212094 5.41449e-07
-3.04803e-06 5.41449e-07 -3.98599e-05
0.000367617 -1.91923e-05 -1.09214e-06
-1.91923e-05 -9.9239e-05 2.61296e-06
-1.09214e-06 2.61296e-06 -0.000194694
7.64326e-05 7.69611e-05 2.95086e-07
7.69611e-05 -0.000226598 7.81641e-07
2.95086e-07 7.81641e-07 -0.000386284
0.00114161 0.000259046 2.02568e-06
0.000259046 0.000232021 3.60694e-06
2.02568e-06 3.60694e-06 8.97552e-06
-0.00058933 6.93332e-05 3.62009e-06
6.93332e-05 -0.000686909 -3.4944e-07
3.62009e-06 -3.4944e-07 -0.000855231
0.00196435 0.000305599 -1.66694e-06
0.000305599 2.71642e-05 -2.71385e-07
-1.66694e-06 -2.71385e-07 -3.40091e-05
0.00233834 0.000374511 7.56114e-07
0.000374511 0.000400362 -8.47539e-07
7.56114e-07 -8.47539e-07 0.000256859
0.00180154 0.00043083 -2.10325e-06
0.00043083 0.000247708 -3.6119e-06
-2.10325e-06 -3.6119e-06 9.98661e-06
0.000430965 0.000263717 -1.4368e-06
0.000263717 -0.000310981 1.75438e-06
-1.4368e-06 1.75438e-06 -0.000586562
0.000674622 5.63835e-05 -9.23813e-07
5.63835e-05 6.93999e-05 -7.56672e-07
-9.23813e-07 -7.56672e-07 -1.39912e-05
0.000614802 3.4866e-05 -1.12784e-07
3.4866e-05 3.81496e-05 3.32787e-07
-1.12784e-07 3.32787e-07 -5.34238e-05
0.000912254 2.63633e-05 -2.09211e-06
2.63633e-05 0.000211417 -1.47093e-06
-2.09211e-06 -1.47093e-06 0.000124587
0.00065483 5.89957e-06 -1.45721e-06
5.89957e-06 5.10669e-05 -1.34389e-06
-1.45721e-06 -1.34389e-06 -2.33314e-05
0.000452378 -5.04303e-06 -1.93712e-07
-5.04303e-06 -5.9355e-05 -7.31719e-07
-1.93712e-07 -7.31719e-07 -0.000149163
0.00066822 2.50026e-05 2.98134e-09
2.50026e-05 6.77098e-05 5.43987e-09
2.98134e-09 5.43987e-09 -1.18262e-05
0.00067055 7.60147e-05 -6.19412e-07
7.60147e-05 8.47583e-05 -2.99515e-07
-6.19412e-07 -2.99515e-07 -1.8578e-05
0.000609669 2.01531e-05 7.5645e-07
2.01531e-05 4.73303e-05 3.79543e-07
7.5645e-07 3.79543e-07 -5.50266e-05
0.000760893 4.87679e-05 8.32855e-07
4.87679e-05 0.000120375 -1.39373e-06
8.32855e-07 -1.39373e-06 2.96038e-05
0.000689299 -2.161e-05 1.39955e-06
-2.161e-05 9.34354e-05 -1.41652e-06
1.39955e-06 -1.41652e-06 -1.40952e-05
0.000534805 4.46781e-05 5.72075e-07
4.46781e-05 1.51664e-06 1.3178e-06
5.72075e-07 1.3178e-06 -0.000102637
0.000662222 6.91408e-05 1.22578e-06
6.91408e-05 6.76416e-05 1.90739e-06
1.22578e-06 1.90739e-06 -1.45288e-05
0.000577769 4.24993e-05 1.69504e-06
4.24993e-05 4.16341e-06 2.16223e-06
1.69504e-06 2.16223e-06 -4.98664e-05
0.000594426 -2.78439e-06 -1.04429e-06
-2.78439e-06 9.02661e-06 -1.9663e-09
-1.04429e-06 -1.9663e-09 -4.30877e-05
0.00125611 -1.56012e-05 7.36757e-07
-1.56012e-05 0.00037605 2.38532e-06
7.36757e-07 2.38532e-06 0.0003657
0.000592896 -4.16536e-05 5.75278e-08
-4.16536e-05 4.62486e-06 -2.33619e-06
5.75278e-08 -2.33619e-06 -4.68565e-05
0.00130115 -2.42483e-05 -3.85039e-06
-2.42483e-05 0.000402887 -1.52491e-06
-3.85039e-06 -1.52491e-06 0.000392288
0.000858866 -2.45995e-05 1.62652e-05
-2.45995e-05 0.000144157 8.17496e-06
1.62652e-05 8.17496e-06 0.000151395
0.00134055 -3.3991e-05 -7.00262e-06
-3.3991e-05 0.000427587 -5.49106e-06
-7.00262e-06 -5.49106e-06 0.00041624
0.00080845 -3.30568e-05 5.71914e-06
-3.30568e-05 0.00011675 3.05814e-06
5.71914e-06 3.05814e-06 0.000122786
0.000746259 -3.98319e-05 -1.25634e-06
-3.98319e-05 8.4941e-05 -2.14829e-06
-1.25634e-06 -2.14829e-06 8.92104e-05
0.000534686 3.67438e-05 2.84227e-07
3.67438e-05 -4.40244e-05 -3.36881e-06
2.84227e-07 -3.36881e-06 -5.90496e-05
0.000528322 5.22448e-05 1.00283e-08
5.22448e-05 -3.42964e-05 1.4188e-07
1.00283e-08 1.4188e-07 -5.69442e-05
0.00226596 8.39927e-05 2.06447e-05
8.39927e-05 0.00100567 -3.76535e-06
2.06447e-05 -3.76535e-06 0.0010133
0.000545458 3.59422e-05 -2.52021e-06
3.59422e-05 -1.76522e-05 5.50374e-06
-2.52021e-06 5.50374e-06 -4.57312e-05
0.00255 0.000103059 -6.26609e-06
0.000103059 0.00118266 -4.63509e-07
-6.26609e-06 -4.63509e-07 0.00118532
0.00293111 9.25921e-05 -7.2905e-05
9.25921e-05 0.00141194 3.89214e-06
-7.2905e-05 3.89214e-06 0.00141677
0.00177375 0.000209638 -9.48032e-08
0.000209638 0.000124385 2.09144e-06
-9.48032e-08 2.09144e-06 3.02954e-06
0.00187416 0.000137938 -1.7705e-06
0.000137938 0.000101357 5.84221e-07
-1.7705e-06 5.84221e-07 1.85231e-05
0.00181491 0.000201724 2.09117e-06
0.000201724 5.14502e-05 1.01016e-06
2.09117e-06 1.01016e-06 -2.60526e-05
0.00184295 9.26708e-05 -2.81684e-06
9.26708e-05 4.39444e-05 -3.97081e-07
-2.81684e-06 -3.97081e-07 -6.76017e-06
0.00178907 3.68402e-05 1.53745e-06
3.68402e-05 5.85621e-05 -1.87139e-07
1.53745e-06 -1.87139e-07 -1.23673e-05
0.0017118 1.69149e-06 -1.94053e-07
1.69149e-06 7.7052e-05 6.11522e-08
-1.94053e-07 6.11522e-08 -2.00728e-05
0.00179596 -3.86121e-06 -2.2925e-08
-3.86121e-06 7.25546e-05 -5.28623e-08
-2.2925e-08 -5.28623e-08 5.03598e-06
0.0018646 4.26489e-05 9.40365e-07
4.26489e-05 5.30633e-05 1.43197e-07
9.40365e-07 1.43197e-07 1.3146e-05
0.00189114 0.00014882 6.55688e-07
0.00014882 6.71662e-05 -3.1272e-07
6.55688e-07 -3.1272e-07 7.84285e-06
0.00191419 0.000245447 1.78742e-07
0.000245447 0.000110577 1.32328e-07
1.78742e-07 1.32328e-07 1.83758e-05
0.00180938 -9.73936e-06 1.97706e-06
-9.73936e-06 2.92436e-05 -4.07621e-07
1.97706e-06 -4.07621e-07 -1.15569e-05
0.00193086 8.84532e-05 3.03477e-06
8.84532e-05 2.94683e-05 -2.15154e-07
3.03477e-06 -2.15154e-07 8.8517e-06
0.00195905 0.000217273 3.18584e-06
0.000217273 5.36792e-05 4.11011e-07
3.18584e-06 4.11011e-07 -7.08832e-06
0.00191146 -6.02317e-05 3.60977e-07
-6.02317e-05 0.000134877 2.85265e-07
3.60977e-07 2.85265e-07 6.5781e-05
0.00174752 -0.000113238 -1.03813e-07
-0.000113238 2.32568e-05 -7.55885e-07
-1.03813e-07 -7.55885e-07 -5.60353e-05
0.00183719 -0.000208662 -2.00978e-06
-0.000208662 9.45161e-05 7.58385e-07
-2.00978e-06 7.58385e-07 1.42092e-05
0.00133868 -0.000263226 -1.38843e-07
-0.000263226 0.000364976 4.97274e-06
-1.38843e-07 4.97274e-06 0.000148636
0.000862562 -0.000275308 1.45564e-06
-0.000275308 -5.91966e-05 2.39541e-07
1.45564e-06 2.39541e-07 -0.000305632
0.00157366 -0.000432585 7.8117e-07
-0.000432585 0.00020317 -1.51642e-06
7.8117e-07 -1.51642e-06 -7.96188e-05
0.00168538 -0.000258016 4.1281e-07
-0.000258016 4.59592e-05 -5.02032e-08
4.1281e-07 -5.02032e-08 -5.99311e-05
0.00156207 -0.000323388 1.33367e-06
-0.000323388 -1.19934e-05 -2.58756e-06
1.33367e-06 -2.58756e-06 -0.000142054
0.00180382 -0.000364897 -1.89386e-06
-0.000364897 0.000216638 -7.62891e-06
-1.89386e-06 -7.62891e-06 2.07686e-05
0.00125561 -0.000249814 3.88895e-06
-0.000249814 0.000319703 4.79768e-06
3.88895e-06 4.79768e-06 0.000126375
0.000698081 -0.000198049 -7.26119e-06
-0.000198049 3.28489e-05 1.37915e-06
-7.26119e-06 1.37915e-06 -0.000128481
0.00157847 -0.0002118 1.09514e-06
-0.0002118 0.000629895 -3.36274e-07
1.09514e-06 -3.36274e-07 0.000410406
0.000362594 2.44493e-05 4.85469e-07
2.44493e-05 -0.000123443 7.72965e-07
4.85469e-07 7.72965e-07 -0.00018592
0.000950222 -8.15121e-05 1.91133e-06
-8.15121e-05 0.000247349 -1.13549e-06
1.91133e-06 -1.13549e-06 9.73574e-05
0.00047466 3.40836e-05 2.46582e-06
3.40836e-05 -3.11972e-05 1.54382e-06
2.46582e-06 1.54382e-06 -0.000148036
0.00177109 -6.28419e-05 -4.48195e-07
-6.28419e-05 9.77653e-06 1.63809e-07
-4.48195e-07 1.63809e-07 -4.45731e-05
0.00196039 -0.000158357 8.07019e-08
-0.000158357 7.87508e-05 -2.49869e-07
8.07019e-08 -2.49869e-07 2.94318e-05
0.00176635 -0.000250948 -1.50609e-07
-0.000250948 3.00888e-05 4.65818e-07
-1.50609e-07 4.65818e-07 -4.29589e-05
0.0012261 -0.000273515 -2.07633e-06
-0.000273515 0.000253 1.26056e-07
-2.07633e-06 1.26056e-07 2.55449e-05
0.00115666 -0.000364382 -2.80209e-07
-0.000364382 7.64568e-05 -6.75121e-07
-2.80209e-07 -6.75121e-07 -0.000219488
0.00174052 -0.000448625 -3.5832e-06
-0.000448625 0.000293484 2.54296e-07
-3.5832e-06 2.54296e-07 1.01613e-05
0.00197774 -0.000324901 8.33956e-07
-0.000324901 0.00013556 -3.97909e-07
8.33956e-07 -3.97909e-07 3.22636e-05
0.00170531 -0.000376317 1.21121e-06
-0.000376317 7.52465e-05 -2.94022e-06
1.21121e-06 -2.94022e-06 -9.19066e-05
0.000457448 4.39294e-05 -2.884e-07
4.39294e-05 -7.3418e-05 -9.53526e-07
-2.884e-07 -9.53526e-07 -0.000123301
0.000735539 -9.56954e-06 -5.97034e-07
-9.56954e-06 0.000126451 3.09308e-07
-5.97034e-07 3.09308e-07 2.41174e-05
0.000265777 -0.000179548 -3.00062e-06
-0.000179548 -0.000263292 4.8029e-06
-3.00062e-06 4.8029e-06 -0.000449166
0.00138461 -0.000246094 5.68347e-07
-0.000246094 0.000462984 -4.13175e-07
5.68347e-07 -4.13175e-07 0.000253652
0.00100136 -7.171e-05 -1.32225e-08
-7.171e-05 0.000289333 -1.03081e-06
-1.32225e-08 -1.03081e-06 9.99669e-05
0.000854103 -7.84327e-05 -5.0571e-07
-7.84327e-05 0.000203898 1.43301e-06
-5.0571e-07 1.43301e-06 6.19631e-05
0.00189586 -8.00365e-05 2.12479e-06
-8.00365e-05 2.54599e-05 2.31792e-07
2.12479e-06 2.31792e-07 -2.01517e-06
0.00198402 -0.000227551 6.6686e-07
-0.000227551 4.43211e-05 -6.0984e-07
6.6686e-07 -6.0984e-07 2.46024e-05
0.00192497 -0.000272764 6.11066e-07
-0.000272764 8.06288e-05 -1.70617e-06
6.11066e-07 -1.70617e-06 1.62183e-05
0.00185887 -0.000420606 4.45962e-06
-0.000420606 3.70401e-05 -2.52505e-06
4.45962e-06 -2.52505e-06 -8.85792e-05
0.000500335 -0.000246035 -6.01773e-06
-0.000246035 -0.000204677 -6.33256e-06
-6.01773e-06 -6.33256e-06 -0.000460032
0.00179871 -0.000454923 -1.94953e-06
-0.000454923 0.000287924 1.18184e-05
-1.94953e-06 1.18184e-05 1.91989e-05
0.0018992 -0.000476002 -3.09192e-06
-0.000476002 0.000465887 -6.88849e-07
-3.09192e-06 -6.88849e-07 0.000129393
0.000618932 4.45769e-05 2.07293e-07
4.45769e-05 1.41109e-05 -1.26348e-06
2.07293e-07 -1.26348e-06 -2.8211e-05
0.000687414 -0.000104716 2.75299e-06
-0.000104716 9.28575e-05 -1.57987e-06
2.75299e-06 -1.57987e-06 1.19923e-05
0.000458294 4.63809e-05 -2.0587e-06
4.63809e-05 -4.5097e-05 -1.20325e-06
-2.0587e-06 -1.20325e-06 -0.000131641
0.000672194 -4.66318e-05 -7.87872e-07
-4.66318e-05 0.000107551 2.40392e-06
-7.87872e-07 2.40392e-06 -2.31391e-05
0.000614738 -2.98094e-05 1.15868e-06
-2.98094e-05 4.58618e-05 -1.46722e-07
1.15868e-06 -1.46722e-07 -0.000100835
3.32068e-05 -8.66949e-05 -3.36784e-07
-8.66949e-05 -0.000279209 1.64795e-06
-3.36784e-07 1.64795e-06 -0.000461211
-2.03137e-06 -0.000177169 -3.88052e-06
-0.000177169 -0.000435704 -5.61721e-06
-3.88052e-06 -5.61721e-06 -0.000613316
0.002588 -0.000355017 -1.11499e-05
-0.000355017 0.00123381 2.67079e-06
-1.11499e-05 2.67079e-06 0.00093488
0.000634152 -7.53311e-06 -1.11428e-06
-7.53311e-06 4.1428e-05 -9.22234e-07
-1.11428e-06 -9.22234e-07 -3.81536e-05
0.000902353 2.80316e-05 5.11803e-07
2.80316e-05 0.000229104 -1.54625e-06
5.11803e-07 -1.54625e-06 0.000102538
0.00211329 0.000303826 -1.55005e-06
0.000303826 0.000280451 -3.79312e-07
-1.55005e-06 -3.79312e-07 0.00015849
0.000845362 7.18004e-05 -1.19248e-06
7.18004e-05 0.000200457 2.8708e-06
-1.19248e-06 2.8708e-06 3.21224e-05
0.00162076 0.000295514 1.09223e-06
0.000295514 0.0005654 -1.9065e-06
1.09223e-06 -1.9065e-06 0.000346596
0.000406007 0.000140603 -5.88634e-07
0.000140603 -0.0001545 1.31292e-06
-5.88634e-07 1.31292e-06 -0.00029025
0.00203463 0.000400777 -3.41587e-06
0.000400777 0.000385193 1.36992e-07
-3.41587e-06 1.36992e-07 0.00016974
0.00184782 0.000391943 -2.09803e-06
0.000391943 0.000180043 5.16366e-06
-2.09803e-06 5.16366e-06 -4.71063e-06
0.00105795 0.000288133 -3.80607e-07
0.000288133 0.000127558 -6.4374e-07
-3.80607e-07 -6.4374e-07 -0.000151202
0.00149832 0.000389382 1.85698e-07
0.000389382 0.000181228 1.47779e-06
1.85698e-07 1.47779e-06 -7.51248e-05
0.000387456 1.00946e-05 -1.83181e-07
1.00946e-05 -7.94318e-05 1.18404e-06
-1.83181e-07 1.18404e-06 -0.000181853
0.000360855 9.98341e-05 -5.87029e-07
9.98341e-05 -5.58958e-05 -2.18476e-06
-5.87029e-07 -2.18476e-06 -0.000221071
0.0012721 0.000273876 3.37374e-06
0.000273876 0.00031953 -1.80413e-06
3.37374e-06 -1.80413e-06 8.94341e-05
0.000637996 0.000163399 -1.66527e-06
0.000163399 2.78304e-05 -3.24007e-06
-1.66527e-06 -3.24007e-06 -0.00015049
0.00203251 0.000298482 1.07142e-06
0.000298482 6.35394e-05 -8.27388e-07
1.07142e-06 -8.27388e-07 2.95783e-06
0.00209728 0.000367651 3.17132e-06
0.000367651 0.000270125 6.85197e-07
3.17132e-06 6.85197e-07 0.000122616
0.00182102 0.000426392 -1.01928e-06
0.000426392 0.000251042 2.80896e-07
-1.01928e-06 2.80896e-07 1.57698e-05
0.00114635 0.000331325 2.17339e-07
0.000331325 8.01943e-05 1.88436e-07
2.17339e-07 1.88436e-07 -0.000199179
0.000456427 3.45474e-05 -1.27968e-06
3.45474e-05 -4.61438e-05 2.69727e-06
-1.27968e-06 2.69727e-06 -0.000148105
0.00192687 0.000241202 -3.58845e-07
0.000241202 -3.56906e-05 1.96514e-06
-3.58845e-07 1.96514e-06 -5.24505e-05
0.00154251 0.000264003 8.35222e-07
0.000264003 0.000633682 2.88474e-06
8.35222e-07 2.88474e-06 0.000419966
0.00122159 0.000281152 4.07836e-06
0.000281152 0.000252556 3.96345e-06
4.07836e-06 3.96345e-06 1.72419e-05
0.00251765 0.000366369 -1.77329e-05
0.000366369 0.000403358 -4.71069e-06
-1.77329e-05 -4.71069e-06 0.000302716
0.00110958 0.000398442 -3.57535e-06
0.000398442 -0.000239256 -7.25783e-06
-3.57535e-06 -7.25783e-06 -0.000456595
0.00205744 0.000443649 -1.55893e-06
0.000443649 0.000521117 3.22551e-06
-1.55893e-06 3.22551e-06 0.000228314
0.000686848 4.97479e-05 -1.21914e-06
4.97479e-05 8.06103e-05 -5.33951e-07
-1.21914e-06 -5.33951e-07 -1.05426e-05
0.000718227 4.22059e-05 -1.32189e-06
4.22059e-05 0.000103625 -5.06372e-07
-1.32189e-06 -5.06372e-07 1.37064e-05
0.000913471 2.96127e-05 -1.71869e-06
2.96127e-05 0.000224753 1.44386e-07
-1.71869e-06 1.44386e-07 0.000140479
0.000627719 -6.68931e-06 1.58686e-08
-6.68931e-06 4.62162e-05 -1.94874e-06
1.58686e-08 -1.94874e-06 -3.50005e-05
0.000671817 4.45325e-05 8.50837e-07
4.45325e-05 8.5526e-05 5.17161e-08
8.50837e-07 5.17161e-08 -1.76191e-05
0.000385569 1.33578e-05 -9.06411e-07
1.33578e-05 -7.04194e-05 1.11794e-06
-9.06411e-07 1.11794e-06 -0.000175722
0.000636308 2.60534e-06 -6.00702e-07
2.60534e-06 5.88081e-05 -8.09369e-09
-6.00702e-07 -8.09369e-09 -2.76914e-05
0.00049861 -2.24707e-05 -6.50366e-07
-2.24707e-05 -1.18031e-05 3.75434e-07
-6.50366e-07 3.75434e-07 -0.000119855
0.000559992 7.5611e-07 4.18535e-07
7.5611e-07 7.70387e-06 1.3008e-07
4.18535e-07 1.3008e-07 -8.01702e-05
0.000771723 3.8037e-05 4.86428e-07
3.8037e-05 0.000152495 -1.88653e-07
4.86428e-07 -1.88653e-07 3.64409e-05
0.00110113 4.09207e-05 3.9316e-07
4.09207e-05 0.000309404 -1.2356e-06
3.9316e-07 -1.2356e-06 0.000229886
0.000689724 -2.39214e-05 1.86941e-06
-2.39214e-05 8.45483e-05 -2.15144e-06
1.86941e-06 -2.15144e-06 -1.09877e-05
0.000753481 3.45767e-05 8.79567e-09
3.45767e-05 0.000140594 4.81192e-08
8.79567e-09 4.81192e-08 1.91226e-05
0.000634847 3.38118e-05 1.95446e-06
3.38118e-05 7.05505e-05 1.55051e-06
1.95446e-06 1.55051e-06 -4.5913e-05
0.000659631 2.1143e-05 1.48655e-06
2.1143e-05 6.60229e-05 1.89912e-06
1.48655e-06 1.89912e-06 -1.8847e-05
0.000581587 -2.70407e-05 -1.81018e-07
-2.70407e-05 5.87888e-06 1.96572e-06
-1.81018e-07 1.96572e-06 -4.765e-05
0.000595639 -7.67618e-06 -3.30931e-07
-7.67618e-06 1.20957e-05 2.04602e-08
-3.30931e-07 2.04602e-08 -4.01789e-05
0.00127437 -5.16768e-06 7.10154e-07
-5.16768e-06 0.000388124 2.27152e-06
7.10154e-07 2.27152e-06 0.00037723
0.000604392 -2.66849e-05 7.04544e-07
-2.66849e-05 1.33311e-05 -2.44652e-06
7.04544e-07 -2.44652e-06 -3.76569e-05
0.00130617 -1.29758e-05 -2.92519e-06
-1.29758e-05 0.000406376 -1.57355e-06
-2.92519e-06 -1.57355e-06 0.000395895
0.00085165 -1.67155e-05 1.21626e-05
-1.67155e-05 0.000137956 8.3056e-06
1.21626e-05 8.3056e-06 0.000145738
0.00135252 -2.23909e-05 -5.00665e-06
-2.23909e-05 0.000433698 -5.60541e-06
-5.00665e-06 -5.60541e-06 0.000422952
0.000819506 -2.51219e-05 3.80015e-06
-2.51219e-05 0.000119472 3.16705e-06
3.80015e-06 3.16705e-06 0.00012657
0.000766523 -3.19414e-05 -8.37899e-07
-3.19414e-05 9.05175e-05 -2.12581e-06
-8.37899e-07 -2.12581e-06 9.67495e-05
0.000659537 1.08088e-05 1.12073e-06
1.08088e-05 3.40572e-05 -1.43741e-06
1.12073e-06 -1.43741e-06 -4.83794e-06
0.000547412 2.83624e-05 4.27753e-07
2.83624e-05 -4.36942e-05 -3.43722e-06
4.27753e-07 -3.43722e-06 -5.50738e-05
0.000554594 3.77667e-05 1.23678e-07
3.77667e-05 -3.15549e-05 1.15776e-07
1.23678e-07 1.15776e-07 -4.69876e-05
0.00215259 6.80773e-05 1.83225e-05
6.80773e-05 0.000929506 -3.96549e-06
1.83225e-05 -3.96549e-06 0.000941127
0.000558045 5.67232e-05 2.67805e-06
5.67232e-05 -1.51082e-05 4.80284e-06
2.67805e-06 4.80284e-06 -3.92111e-05
0.00237275 8.76963e-05 -4.13445e-06
8.76963e-05 0.00106993 -3.16803e-07
-4.13445e-06 -3.16803e-07 0.00107662
0.00266535 0.00010534 -3.26048e-05
0.00010534 0.00125116 3.63819e-06
-3.26048e-05 3.63819e-06 0.00125334
0.00194496 0.000242613 -6.27431e-07
0.000242613 0.000115145 1.38562e-06
-6.27431e-07 1.38562e-06 2.54032e-05
0.00190346 0.000154211 -2.90741e-06
0.000154211 7.25083e-05 -4.38528e-07
-2.90741e-06 -4.38528e-07 1.30898e-05
0.00185722 4.43375e-05 -2.82297e-06
4.43375e-05 5.88188e-05 -6.60065e-09
-2.82297e-06 -6.60065e-09 1.68797e-05
0.00177822 -8.73015e-07 -1.44183e-07
-8.73015e-07 6.08596e-05 -6.86266e-08
-1.44183e-07 -6.86266e-08 -6.58332e-06
0.00181978 -5.90869e-06 -1.02489e-06
-5.90869e-06 3.3397e-05 -9.90934e-08
-1.02489e-06 -9.90934e-08 -4.74996e-06
0.00191875 8.39337e-05 1.83244e-07
8.39337e-05 2.60364e-05 -5.88188e-08
1.83244e-07 -5.88188e-08 3.80322e-06
0.00194353 0.000220984 -5.71561e-07
0.000220984 4.33655e-05 -1.00678e-07
-5.71561e-07 -1.00678e-07 -1.53682e-05
0.00192445 -4.32963e-07 1.98138e-06
-4.32963e-07 2.07159e-05 -3.84666e-07
1.98138e-06 -3.84666e-07 1.16624e-05
0.00201469 0.000126572 2.34063e-06
0.000126572 1.9347e-05 -7.67144e-07
2.34063e-06 -7.67144e-07 2.70821e-06
0.00220536 7.52524e-05 -3.85053e-06
7.52524e-05 0.000182127 3.26332e-06
-3.85053e-06 3.26332e-06 0.000213871
0.00183769 -6.32917e-05 -3.44098e-06
-6.32917e-05 4.93102e-05 4.90478e-08
-3.44098e-06 4.90478e-08 -7.05179e-06
0.00188853 -0.000164303 -3.59302e-06
-0.000164303 3.45544e-05 9.16779e-07
-3.59302e-06 9.16779e-07 -1.78048e-05
0.0018959 -0.000253595 -2.6423e-06
-0.000253595 0.000109813 1.72546e-06
-2.6423e-06 1.72546e-06 3.46262e-05
0.000898172 -0.000240841 2.77162e-07
-0.000240841 6.19295e-05 5.68082e-06
2.77162e-07 5.68082e-06 -0.000160659
0.00116769 -0.000361106 1.80011e-06
-0.000361106 8.65333e-05 8.76231e-07
1.80011e-06 8.76231e-07 -0.000205199
0.0018531 -0.00044995 -3.08434e-06
-0.00044995 0.000361534 -1.97802e-06
-3.08434e-06 -1.97802e-06 8.62347e-05
0.00192324 -0.00032609 2.84591e-06
-0.00032609 0.000108876 7.84999e-07
2.84591e-06 7.84999e-07 3.59555e-06
0.00150763 -0.000362562 -2.96151e-06
-0.000362562 -3.9875e-05 -5.9104e-06
-2.96151e-06 -5.9104e-06 -0.000205399
0.000104343 -0.000161969 -6.80504e-07
-0.000161969 -0.000353267 1.03943e-05
-6.80504e-07 1.03943e-05 -0.000530846
0.00196064 -0.000284791 1.35915e-05
-0.000284791 0.000816939 -3.34442e-06
1.35915e-05 -3.34442e-06 0.000602773
0.000719429 -2.83185e-05 3.5117e-07
-2.83185e-05 0.000110819 -1.29278e-06
3.5117e-07 -1.29278e-06 -6.2098e-05
0.000562377 1.52867e-05 -6.3123e-08
1.52867e-05 -1.28481e-05 5.6267e-07
-6.3123e-08 5.6267e-07 -5.94156e-05
0.000803873 2.32325e-05 1.20734e-06
2.32325e-05 0.000163071 9.62054e-07
1.20734e-06 9.62054e-07 6.15752e-05
0.000895524 -5.25266e-05 8.10372e-07
-5.25266e-05 0.000231059 1.25093e-06
8.10372e-07 1.25093e-06 8.66957e-05
0.00191586 -8.26533e-05 2.33024e-07
-8.26533e-05 3.06676e-05 -1.13786e-07
2.33024e-07 -1.13786e-07 6.40526e-06
0.000599246 1.78658e-05 9.81422e-07
1.78658e-05 1.90822e-06 1.17522e-07
9.81422e-07 1.17522e-07 -3.9725e-05
0.000543517 -3.59776e-05 -1.72763e-06
-3.59776e-05 -9.22239e-06 -3.96481e-08
-1.72763e-06 -3.96481e-08 -7.91333e-05
0.0019563 -0.000217947 -2.09668e-07
-0.000217947 4.46201e-05 2.23841e-07
-2.09668e-07 2.23841e-07 2.02081e-05
0.00188029 -0.00027229 -1.42939e-06
-0.00027229 5.09925e-05 2.28196e-07
-1.42939e-06 2.28196e-07 -1.25905e-05
0.000698361 -0.000261273 -4.38431e-07
-0.000261273 -8.00715e-05 1.83931e-06
-4.38431e-07 1.83931e-06 -0.000332441
0.00184612 -0.000470382 -1.34726e-07
-0.000470382 0.000445274 3.44898e-07
-1.34726e-07 3.44898e-07 0.000105019
0.0015702 -0.000440729 3.05042e-06
-0.000440729 0.000136541 -1.42064e-06
3.05042e-06 -1.42064e-06 -0.000124925
0.00204116 -0.000428252 2.41747e-06
-0.000428252 0.000151562 -9.49468e-07
2.41747e-06 -9.49468e-07 2.3778e-05
0.00071568 -1.18131e-05 8.68114e-07
-1.18131e-05 0.000112685 -1.11678e-06
8.68114e-07 -1.11678e-06 2.5419e-05
0.000726624 -2.99433e-05 2.24304e-07
-2.99433e-05 0.000139882 1.26376e-06
2.24304e-07 1.26376e-06 6.97656e-06
0.000947515 -0.000238342 -3.63763e-06
-0.000238342 0.000116089 -1.28311e-06
-3.63763e-06 -1.28311e-06 -7.47581e-05
0.00156144 -0.000265074 1.38304e-05
-0.000265074 0.000626325 -3.50229e-06
1.38304e-05 -3.50229e-06 0.000375753
0.000473939 -8.61162e-05 -2.62804e-06
-8.61162e-05 -2.68935e-05 -1.24344e-07
-2.62804e-06 -1.24344e-07 -0.000206884
0.000681967 -2.84236e-05 5.66635e-07
-2.84236e-05 9.58706e-05 -8.27855e-07
5.66635e-07 -8.27855e-07 -5.55791e-05
0.00192767 -9.31901e-05 2.16993e-06
-9.31901e-05 -2.92096e-05 -1.18959e-06
2.16993e-06 -1.18959e-06 -4.59719e-05
0.001885 -0.000251517 -6.48084e-07
-0.000251517 -4.98697e-05 -1.09316e-07
-6.48084e-07 -1.09316e-07 -1.41796e-05
0.00202989 -0.000381949 -3.25563e-06
-0.000381949 5.65368e-05 -2.5481e-06
-3.25563e-06 -2.5481e-06 -2.15397e-05
0.00157985 -0.000482925 1.44314e-06
-0.000482925 6.87667e-06 1.04001e-07
1.44314e-06 1.04001e-07 -0.000153624
0.000873872 -0.000247887 -9.78214e-06
-0.000247887 4.31496e-05 -7.79133e-06
-9.78214e-06 -7.79133e-06 -0.000209743
0.00252584 -0.000567177 -7.89188e-06
-0.000567177 0.000803462 7.22816e-06
-7.89188e-06 7.22816e-06 0.000438746
0.000404168 5.27632e-05 -1.0692e-06
5.27632e-05 -8.32008e-05 -2.13394e-06
-1.0692e-06 -2.13394e-06 -0.000157983
0.000657071 -5.74706e-05 3.06816e-06
-5.74706e-05 5.97729e-05 -7.7239e-07
3.06816e-06 -7.7239e-07 -1.18258e-05
0.000928338 -8.57732e-05 1.5084e-06
-8.57732e-05 0.000231963 1.51127e-06
1.5084e-06 1.51127e-06 0.000135105
0.000433484 1.70746e-05 -1.54607e-06
1.70746e-05 -3.99805e-05 2.30117e-06
-1.54607e-06 2.30117e-06 -0.00016229
0.000950273 -6.79534e-05 -1.51054e-06
-6.79534e-05 0.000255747 2.34589e-06
-1.51054e-06 2.34589e-06 0.000123375
0.00102036 -4.78652e-05 2.11224e-06
-4.78652e-05 0.000250737 1.09059e-06
2.11224e-06 1.09059e-06 8.72653e-05
-0.00048986 -9.68062e-05 6.04614e-06
-9.68062e-05 -0.000430208 8.48099e-07
6.04614e-06 8.48099e-07 -0.000759196
1.62555e-05 -0.000235874 -1.98084e-05
-0.000235874 -0.000413361 2.87114e-06
-1.98084e-05 2.87114e-06 -0.000599235
0.000408919 4.81436e-05 8.43359e-08
4.81436e-05 -6.14964e-05 -9.73183e-07
8.43359e-08 -9.73183e-07 -0.000169412
0.000835645 0.000136615 -3.98907e-06
0.000136615 0.000222283 -2.91264e-06
-3.98907e-06 -2.91264e-06 5.24156e-05
0.00209668 0.000292307 -3.32421e-06
0.000292307 9.88871e-05 -1.29041e-06
-3.32421e-06 -1.29041e-06 3.8217e-05
0.00192819 0.000364755 -5.8798e-07
0.000364755 0.000179508 1.74282e-06
-5.8798e-07 1.74282e-06 2.75038e-05
0.00179498 0.000228661 -7.10845e-06
0.000228661 0.000688801 -2.0941e-06
-7.10845e-06 -2.0941e-06 0.000509588
0.0013509 0.000282725 -3.52226e-06
0.000282725 0.00037509 -8.91422e-06
-3.52226e-06 -8.91422e-06 0.000140577
0.00181776 0.000420765 9.31729e-07
0.000420765 0.000241426 1.73459e-06
9.31729e-07 1.73459e-06 8.17645e-06
0.00180814 0.000391982 -3.22329e-07
0.000391982 0.000445034 -1.14148e-06
-3.22329e-07 -1.14148e-06 0.000161572
0.000579564 6.26824e-05 7.78148e-07
6.26824e-05 3.8302e-05 -9.27052e-07
7.78148e-07 -9.27052e-07 -7.45046e-05
0.00201703 0.000230189 -7.84131e-07
0.000230189 6.48938e-06 -6.02045e-07
-7.84131e-07 -6.02045e-07 -2.91e-06
0.00101174 0.000191334 9.48456e-07
0.000191334 0.000314058 1.53889e-06
9.48456e-07 1.53889e-06 0.000117191
0.00100513 0.00026252 1.21565e-06
0.00026252 0.000135517 1.10268e-07
1.21565e-06 1.10268e-07 -0.000100322
0.00228389 0.000357505 3.12516e-06
0.000357505 0.000276503 6.35102e-07
3.12516e-06 6.35102e-07 0.000178044
0.0015197 0.000424909 -9.74653e-07
0.000424909 -8.86257e-06 -3.50649e-06
-9.74653e-07 -3.50649e-06 -0.000225866
0.00198799 0.000436695 -1.64435e-08
0.000436695 0.000495469 3.34056e-07
-1.64435e-08 3.34056e-07 0.000202478
0.0011696 0.000143386 -3.88035e-06
0.000143386 0.000407591 3.11884e-06
-3.88035e-06 3.11884e-06 0.000254011
0.00245783 0.000261861 -4.40274e-05
0.000261861 0.000315075 -1.11942e-05
-4.40274e-05 -1.11942e-05 0.000330391
0.00231549 0.000382461 -6.00985e-06
0.000382461 0.00100471 4.45934e-07
-6.00985e-06 4.45934e-07 0.000775014
0.00219818 0.000410535 -7.34836e-06
0.000410535 0.000732933 -3.34898e-07
-7.34836e-06 -3.34898e-07 0.000465263
0.00187345 0.000470072 -2.13032e-05
0.000470072 7.81966e-05 -1.26304e-05
-2.13032e-05 -1.26304e-05 -6.80057e-05
0.000971972 0.000379182 -1.54768e-05
0.000379182 -0.000129634 -9.14003e-07
-1.54768e-05 -9.14003e-07 -0.000399344
0.000697968 0.000336484 2.85948e-05
0.000336484 -0.000609404 -1.94675e-05
2.85948e-05 -1.94675e-05 -0.000840093
0.00050089 5.67912e-05 9.52136e-07
5.67912e-05 -1.39993e-05 -4.31935e-07
9.52136e-07 -4.31935e-07 -0.000108048
0.000650111 3.68295e-05 -1.59997e-07
3.68295e-05 8.35775e-05 9.16849e-07
-1.59997e-07 9.16849e-07 -4.08694e-06
0.00137519 6.71101e-05 2.5731e-07
6.71101e-05 0.000495151 -2.44459e-07
2.5731e-07 -2.44459e-07 0.000404524
0.0006052 -5.9762e-05 1.85475e-07
-5.9762e-05 4.69343e-05 -2.41321e-06
1.85475e-07 -2.41321e-06 -4.33838e-05
0.000547678 -4.13287e-05 -1.08906e-06
-4.13287e-05 1.25445e-05 -3.54287e-08
-1.08906e-06 -3.54287e-08 -9.1829e-05
0.000919559 0.000125176 -1.46143e-07
0.000125176 0.000239195 7.69763e-07
-1.46143e-07 7.69763e-07 0.000120606
0.000402313 -1.2905e-05 -1.42913e-06
-1.2905e-05 -7.6457e-05 3.39825e-06
-1.42913e-06 3.39825e-06 -0.000165907
0.000631685 -2.28249e-05 -1.33914e-07
-2.28249e-05 6.12399e-05 -4.08655e-08
-1.33914e-07 -4.08655e-08 -3.08567e-05
0.000629944 4.07041e-05 -9.49409e-08
4.07041e-05 5.37055e-05 -4.02573e-07
-9.49409e-08 -4.02573e-07 -5.29456e-05
0.000885784 3.40858e-05 -1.30283e-06
3.40858e-05 0.000184333 1.73272e-07
-1.30283e-06 1.73272e-07 0.000104193
0.000748586 2.04521e-05 4.47937e-07
2.04521e-05 0.000125554 -6.87458e-08
4.47937e-07 -6.87458e-08 1.30833e-05
0.000764723 -6.81511e-07 -8.31202e-08
-6.81511e-07 0.000125574 -2.98472e-07
-8.31202e-08 -2.98472e-07 2.77647e-05
0.000896565 3.23913e-05 -5.39907e-07
3.23913e-05 0.00019053 -3.04046e-06
-5.39907e-07 -3.04046e-06 0.000106877
0.000802939 3.81743e-05 -1.54532e-06
3.81743e-05 0.000145257 -2.34877e-06
-1.54532e-06 -2.34877e-06 3.1263e-05
0.000808703 7.3045e-05 4.98824e-07
7.3045e-05 0.000152875 2.84446e-07
4.98824e-07 2.84446e-07 4.29712e-05
0.000689615 4.24314e-05 3.17043e-07
4.24314e-05 0.000102575 1.18306e-06
3.17043e-07 1.18306e-06 -2.06384e-05
0.00047693 -2.0611e-05 -1.65545e-07
-2.0611e-05 -4.50332e-05 2.07835e-06
-1.65545e-07 2.07835e-06 -0.000133117
0.000884443 -2.78119e-05 1.22222e-07
-2.78119e-05 0.000236042 -9.88333e-07
1.22222e-07 -9.88333e-07 0.000111927
0.00041694 -1.3067e-05 -8.39149e-07
-1.3067e-05 -7.67955e-05 2.28321e-06
-8.39149e-07 2.28321e-06 -0.000168843
0.000554547 6.32997e-06 -1.18004e-06
6.32997e-06 -7.12249e-06 1.99864e-06
-1.18004e-06 1.99864e-06 -6.28462e-05
0.000571041 2.09718e-05 1.24266e-06
2.09718e-05 1.59519e-06 -1.11302e-08
1.24266e-06 -1.11302e-08 -5.31533e-05
0.000540997 4.10619e-06 3.56005e-07
4.10619e-06 -4.6931e-05 3.73782e-06
3.56005e-07 3.73782e-06 -6.265e-05
0.000580343 -8.83717e-07 -1.60892e-06
-8.83717e-07 4.89551e-06 -2.2579e-06
-1.60892e-06 -2.2579e-06 -4.87832e-05
0.000937146 -2.03639e-06 -1.95614e-06
-2.03639e-06 0.000188117 -1.65052e-06
-1.95614e-06 -1.65052e-06 0.000174933
0.00236773 -1.32293e-05 7.97742e-06
-1.32293e-05 0.00104 5.19364e-06
7.97742e-06 5.19364e-06 0.00105566
0.00135817 -1.13129e-05 -3.05218e-06
-1.13129e-05 0.000437881 -5.51581e-06
-3.05218e-06 -5.51581e-06 0.000427123
0.000817025 -1.67455e-05 2.05912e-06
-1.67455e-05 0.000115776 3.21892e-06
2.05912e-06 3.21892e-06 0.000123644
0.000780821 -2.35886e-05 -2.84803e-07
-2.35886e-05 9.4944e-05 -2.15089e-06
-2.84803e-07 -2.15089e-06 0.000102328
0.000611436 8.43987e-06 -4.89553e-07
8.43987e-06 8.54155e-06 -1.44206e-06
-4.89553e-07 -1.44206e-06 -2.99183e-05
0.0006262 -3.664e-06 1.01337e-06
-3.664e-06 1.57174e-05 -1.11797e-07
1.01337e-06 -1.11797e-07 -2.41342e-05
0.000575514 2.15899e-05 3.65864e-07
2.15899e-05 -3.03465e-05 -3.36241e-06
3.65864e-07 -3.36241e-06 -3.95316e-05
0.000882387 3.44554e-05 -3.70894e-07
3.44554e-05 0.00015696 4.83448e-08
-3.70894e-07 4.83448e-08 0.000147004
0.00211626 5.44195e-05 1.44323e-05
5.44195e-05 0.000901113 -4.18036e-06
1.44323e-05 -4.18036e-06 0.000915432
0.000564039 4.03205e-05 6.42241e-07
4.03205e-05 -2.46787e-05 3.75218e-06
6.42241e-07 3.75218e-06 -4.07759e-05
0.00221068 7.10845e-05 -2.88637e-06
7.10845e-05 0.000965245 -1.87022e-07
-2.88637e-06 -1.87022e-07 0.000976071
0.0024294 9.01718e-05 -2.1483e-05
9.01718e-05 0.0011041 3.96672e-06
-2.1483e-05 3.96672e-06 0.00111014
0.00193328 0.000224825 -4.55632e-06
0.000224825 3.50763e-05 -1.52596e-06
-4.55632e-06 -1.52596e-06 -2.12892e-05
0.00190467 7.98244e-05 -2.12877e-06
7.98244e-05 2.1252e-05 4.9695e-07
-2.12877e-06 4.9695e-07 -2.48859e-06
0.00185313 -4.17155e-06 -3.8142e-06
-4.17155e-06 5.15595e-05 4.85988e-08
-3.8142e-06 4.85988e-08 1.61504e-05
0.00191883 -2.14301e-07 1.17622e-07
-2.14301e-07 2.02806e-05 -1.51799e-07
1.17622e-07 -1.51799e-07 1.10835e-05
0.00199312 0.000126446 2.23605e-07
0.000126446 2.19512e-05 1.2785e-07
2.23605e-07 1.2785e-07 3.96492e-06
0.00190145 6.37148e-05 4.60087e-06
6.37148e-05 -4.57205e-06 1.1304e-08
4.60087e-06 1.1304e-08 2.09364e-05
0.00197607 6.37828e-06 -9.68259e-07
6.37828e-06 -1.9222e-05 -1.316e-06
-9.68259e-07 -1.316e-06 -6.68613e-06
0.00288996 0.000317687 3.37552e-05
0.000317687 -0.000311309 6.20409e-06
3.37552e-05 6.20409e-06 -0.000140105
0.00220647 3.92622e-05 -2.88634e-05
3.92622e-05 0.000325027 1.08052e-05
-2.88634e-05 1.08052e-05 0.000393916
0.000600553 8.05227e-05 -8.64496e-07
8.05227e-05 3.62854e-05 -4.14902e-07
-8.64496e-07 -4.14902e-07 -3.57745e-05
0.00192885 -8.46575e-05 -1.98008e-06
-8.46575e-05 3.27261e-05 -3.3306e-09
-1.98008e-06 -3.3306e-09 1.15668e-05
0.00191703 -0.000208563 -6.33647e-07
-0.000208563 3.91221e-05 6.82589e-07
-6.33647e-07 6.82589e-07 8.45308e-06
0.00184179 -0.000273783 1.60822e-07
-0.000273783 2.56495e-05 2.01257e-06
1.60822e-07 2.01257e-06 -3.8291e-05
0.000603868 -0.000249353 6.18278e-07
-0.000249353 -0.000129061 8.3382e-06
6.18278e-07 8.3382e-06 -0.000373527
0.00186818 -0.000470706 3.35516e-06
-0.000470706 0.000466337 4.57895e-06
3.35516e-06 4.57895e-06 0.0001226
0.00143689 -0.000436373 9.85868e-07
-0.000436373 3.65575e-05 -7.92998e-06
9.85868e-07 -7.92998e-06 -0.000220695
0.00224364 -0.000439565 -2.98066e-06
-0.000439565 0.000276977 -1.30376e-06
-2.98066e-06 -1.30376e-06 0.00014493
0.00177452 -0.00029323 1.54647e-05
-0.00029323 0.000586478 -5.52279e-07
1.54647e-05 -5.52279e-07 0.00038419
0.000418197 -0.0001677 1.09062e-05
-0.0001677 -4.54061e-05 -5.0197e-06
1.09062e-05 -5.0197e-06 -0.000249036
0.0010161 -0.000113658 1.07474e-06
-0.000113658 0.000286508 -2.45081e-06
1.07474e-06 -2.45081e-06 0.000106478
0.000600438 4.56282e-06 -7.90326e-07
4.56282e-06 1.83109e-06 1.48361e-06
-7.90326e-07 1.48361e-06 -3.88195e-05
0.000838951 -1.82337e-05 1.74566e-06
-1.82337e-05 0.000198718 -1.23131e-06
1.74566e-06 -1.23131e-06 4.177e-05
0.000917493 -3.96463e-05 1.95198e-06
-3.96463e-05 0.000239387 -4.12274e-07
1.95198e-06 -4.12274e-07 0.000150582
0.000836032 -2.50463e-05 7.37388e-07
-2.50463e-05 0.0002013 -6.97418e-07
7.37388e-07 -6.97418e-07 6.71466e-05
0.000393003 -2.58905e-05 -1.99744e-06
-2.58905e-05 -0.000104638 7.79302e-07
-1.99744e-06 7.79302e-07 -0.000171209
0.00195502 -0.000107043 -2.58215e-07
-0.000107043 -3.44143e-05 6.47623e-08
-2.58215e-07 6.47623e-08 -3.8341e-05
0.000500203 3.59128e-05 2.7467e-08
3.59128e-05 -2.09827e-05 -1.28109e-06
2.7467e-08 -1.28109e-06 -9.80894e-05
0.000649036 -5.39025e-05 7.98719e-07
-5.39025e-05 6.26979e-05 4.39142e-07
7.98719e-07 4.39142e-07 -1.32678e-05
0.000784165 -5.54383e-05 -1.21824e-07
-5.54383e-05 0.000145497 7.69299e-07
-1.21824e-07 7.69299e-07 4.95727e-05
0.00190956 -0.000254558 1.19063e-06
-0.000254558 -2.56414e-05 -1.63071e-07
1.19063e-06 -1.63071e-07 -2.54835e-06
0.00205349 -0.000381516 -4.48942e-07
-0.000381516 8.04001e-05 -4.15712e-07
-4.48942e-07 -4.15712e-07 5.30541e-07
0.00130338 -0.000302846 6.27445e-06
-0.000302846 0.000271786 -1.28887e-07
6.27445e-06 -1.28887e-07 1.90197e-05
0.00203712 -0.000523322 5.71868e-06
-0.000523322 0.000543855 1.86543e-07
5.71868e-06 1.86543e-07 0.000190687
0.00184587 -0.000497588 -8.00943e-07
-0.000497588 0.000172324 1.46119e-06
-8.00943e-07 1.46119e-06 2.799e-06
0.000489606 -1.08903e-05 -5.11049e-07
-1.08903e-05 -3.14363e-06 -1.42552e-07
-5.11049e-07 -1.42552e-07 -0.000123142
0.00082513 -7.64842e-05 -1.54853e-06
-7.64842e-05 0.000188754 5.30432e-07
-1.54853e-06 5.30432e-07 4.67008e-05
0.000624128 -0.000285876 -6.41337e-06
-0.000285876 -5.03097e-05 -2.18607e-07
-6.41337e-06 -2.18607e-07 -0.000273552
0.000544536 -0.000109532 -1.48581e-07
-0.000109532 9.87801e-05 -1.30052e-06
-1.48581e-07 -1.30052e-06 -0.000178388
0.000720283 -7.13589e-05 -1.10354e-07
-7.13589e-05 7.86079e-05 -9.39779e-08
-1.10354e-07 -9.39779e-08 -8.05485e-05
0.00238756 -0.000220633 -2.90361e-06
-0.000220633 0.000198577 -1.56915e-06
-2.90361e-06 -1.56915e-06 0.000203891
0.0017714 -0.000268829 -1.12377e-05
-0.000268829 -0.000142053 1.4084e-06
-1.12377e-05 1.4084e-06 -9.13337e-05
0.00248675 -0.000536063 -8.21999e-06
-0.000536063 0.000351672 -4.04543e-06
-8.21999e-06 -4.04543e-06 0.000208819
0.00278665 -0.000611481 -2.053e-05
-0.000611481 0.000807004 2.79354e-06
-2.053e-05 2.79354e-06 0.000572072
0.00132754 -0.000334766 -1.62529e-05
-0.000334766 0.000337325 -2.57112e-06
-1.62529e-05 -2.57112e-06 7.09776e-05
0.000443039 4.66702e-06 1.31966e-06
4.66702e-06 -5.259e-05 -4.36299e-07
1.31966e-06 -4.36299e-07 -0.000148542
0.00049314 4.46864e-05 5.41611e-07
4.46864e-05 -3.28156e-05 8.37697e-07
5.41611e-07 8.37697e-07 -0.000132617
0.000424144 -1.35289e-06 1.11255e-07
-1.35289e-06 -6.37858e-05 -7.95929e-07
1.11255e-07 -7.95929e-07 -0.000169618
0.00132647 -0.000154511 -2.29372e-06
-0.000154511 0.00050226 4.84168e-06
-2.29372e-06 4.84168e-06 0.000362243
0.000417204 -5.54189e-05 -7.37926e-07
-5.54189e-05 -7.50529e-05 6.11048e-06
-7.37926e-07 6.11048e-06 -0.000208582
-5.04149e-05 -7.93442e-05 1.93895e-06
-7.93442e-05 -0.000190536 4.16696e-06
1.93895e-06 4.16696e-06 -0.000492138
0.000123501 -0.000329961 4.15466e-06
-0.000329961 -0.000134551 -3.28253e-07
4.15466e-06 -3.28253e-07 -0.000492316
0.000754345 0.000100632 1.28826e-06
0.000100632 0.000155326 -4.36536e-06
1.28826e-06 -4.36536e-06 2.82777e-05
0.000215656 9.03616e-05 -7.68897e-08
9.03616e-05 -0.0001624 -1.44786e-06
-7.68897e-08 -1.44786e-06 -0.000337054
0.00211558 0.000217312 7.40309e-06
0.000217312 5.10724e-05 4.30811e-08
7.40309e-06 4.30811e-08 5.16395e-05
0.00199105 0.000345411 1.32816e-05
0.000345411 0.000117461 3.46459e-06
1.32816e-05 3.46459e-06 2.25974e-05
0.00207671 0.000462247 1.02712e-05
0.000462247 0.000300505 3.58756e-06
1.02712e-05 3.58756e-06 8.27155e-05
0.000844143 0.000249801 6.50944e-07
0.000249801 4.80582e-05 -8.85441e-07
6.50944e-07 -8.85441e-07 -0.000188319
0.00194604 0.000431992 1.68411e-06
0.000431992 0.000482477 1.04825e-06
1.68411e-06 1.04825e-06 0.000190455
0.00136326 0.000123061 -6.26446e-08
0.000123061 0.000503952 3.31842e-07
-6.26446e-08 3.31842e-07 0.000361954
0.00222242 0.000226173 -2.55078e-06
0.000226173 0.000207197 5.23558e-07
-2.55078e-06 5.23558e-07 0.000230241
0.00151362 0.000283693 -1.81201e-06
0.000283693 0.000534212 5.67267e-07
-1.81201e-06 5.67267e-07 0.000326429
0.00152632 0.000348141 -1.49125e-07
0.000348141 0.000377387 1.33521e-06
-1.49125e-07 1.33521e-06 0.000108686
0.00193516 0.00046084 -1.68569e-06
0.00046084 0.000109663 -2.91697e-06
-1.68569e-06 -2.91697e-06 -2.62832e-05
0.00165492 0.000441877 -3.09261e-06
0.000441877 0.000251934 5.05735e-06
-3.09261e-06 5.05735e-06 -3.09499e-05
0.00208607 0.00044634 3.41849e-05
0.00044634 -0.000155265 4.10097e-06
3.41849e-05 4.10097e-06 -0.000465985
0.00114486 0.00019312 -5.30811e-06
0.00019312 0.000402568 -7.36248e-07
-5.30811e-06 -7.36248e-07 0.000234447
0.00231546 0.000370317 -5.17364e-05
0.000370317 0.000353926 -2.58269e-05
-5.17364e-05 -2.58269e-05 0.000335594
0.00122504 0.000278759 -5.24358e-06
0.000278759 0.000299841 -1.00034e-06
-5.24358e-06 -1.00034e-06 9.99241e-05
0.000550789 0.000286672 -1.28096e-06
0.000286672 -0.000203993 -4.17676e-06
-1.28096e-06 -4.17676e-06 -0.000470325
0.000186032 0.000412475 -1.65416e-05
0.000412475 -0.00068466 -5.63771e-06
-1.65416e-05 -5.63771e-06 -0.000876217
0.0105612 0.000372222 -0.000198747
0.000372222 0.00229683 -4.18098e-05
-0.000198747 -4.18098e-05 0.00141527
0.0057912 0.000827968 0.0001287
0.000827968 0.000759655 -2.40683e-05
0.0001287 -2.40683e-05 0.000449658
0.000749051 0.000576102 1.81601e-05
0.000576102 -0.000429795 1.0166e-05
1.81601e-05 1.0166e-05 -0.000658613
-0.00457269 -0.00079374 0.00040152
-0.00079374 -0.000996894 4.01243e-05
0.00040152 4.01243e-05 -0.00238099
0.00882631 -0.00258338 -2.41504e-05
-0.00258338 0.00194603 1.28606e-05
-2.41504e-05 1.28606e-05 0.00327173
0.000461502 4.50946e-05 3.54036e-06
4.50946e-05 -1.68042e-05 8.62152e-07
3.54036e-06 8.62152e-07 -0.000106562
0.00083841 4.12236e-05 1.29479e-06
4.12236e-05 0.000200561 -5.77117e-07
1.29479e-06 -5.77117e-07 0.000110192
0.000989395 9.68828e-05 -2.67393e-06
9.68828e-05 0.000286106 -1.11587e-06
-2.67393e-06 -1.11587e-06 0.000182979
0.000614712 -6.02765e-05 -9.1238e-08
-6.02765e-05 5.90135e-05 -1.82244e-06
-9.1238e-08 -1.82244e-06 -3.78904e-05
0.000612051 5.81949e-05 -1.15601e-06
5.81949e-05 4.67482e-05 -1.47357e-06
-1.15601e-06 -1.47357e-06 -6.38576e-05
0.00075426 -2.95096e-05 3.50137e-07
-2.95096e-05 0.000131077 -2.4665e-07
3.50137e-07 -2.4665e-07 1.801e-05
0.000839667 2.39662e-05 -1.36415e-06
2.39662e-05 0.00016584 2.84546e-06
-1.36415e-06 2.84546e-06 6.62091e-05
0.000575813 2.32069e-05 -1.58508e-06
2.32069e-05 5.6261e-06 2.35835e-06
-1.58508e-06 2.35835e-06 -7.49715e-05
0.00076221 7.86406e-05 -1.53374e-06
7.86406e-05 0.000139371 -5.12647e-07
-1.53374e-06 -5.12647e-07 1.91194e-05
0.000552425 -8.9429e-06 2.30814e-08
-8.9429e-06 5.85645e-06 7.36558e-07
2.30814e-08 7.36558e-07 -8.52094e-05
0.000669065 2.24213e-05 1.03582e-07
2.24213e-05 8.71928e-05 9.91496e-08
1.03582e-07 9.91496e-08 -3.29418e-05
0.0007177 3.25893e-05 8.88452e-07
3.25893e-05 8.53586e-05 -3.65184e-07
8.88452e-07 -3.65184e-07 8.20954e-07
0.000811824 4.4987e-05 -6.1722e-07
4.4987e-05 0.00015011 -8.21807e-08
-6.1722e-07 -8.21807e-08 4.06192e-05
0.00103703 9.0977e-05 -1.31467e-06
9.0977e-05 0.000286786 -1.38559e-06
-1.31467e-06 -1.38559e-06 0.000174021
0.000378715 4.46711e-05 -1.15399e-08
4.46711e-05 -9.28744e-05 -3.01205e-06
-1.15399e-08 -3.01205e-06 -0.000190734
0.000828136 8.11047e-05 1.71921e-06
8.11047e-05 0.000163543 3.9946e-07
1.71921e-06 3.9946e-07 4.85373e-05
0.000578214 -2.0196e-05 1.23716e-06
-2.0196e-05 2.03021e-05 -2.63218e-08
1.23716e-06 -2.63218e-08 -9.26588e-05
0.000466327 -5.30749e-05 -1.2321e-06
-5.30749e-05 -4.59181e-05 1.81913e-06
-1.2321e-06 1.81913e-06 -0.000140467
0.000777104 -5.07204e-06 -8.70951e-07
-5.07204e-06 0.00014826 -6.4958e-09
-8.70951e-07 -6.4958e-09 3.15082e-05
0.000791681 3.37927e-05 -1.42803e-08
3.37927e-05 0.000158526 -2.75237e-06
-1.42803e-08 -2.75237e-06 4.67578e-05
0.00066591 -2.21828e-05 -8.43245e-07
-2.21828e-05 9.20002e-05 -1.31714e-07
-8.43245e-07 -1.31714e-07 -1.78194e-05
0.00079386 -2.31517e-05 1.1485e-06
-2.31517e-05 0.000164439 -5.72929e-07
1.1485e-06 -5.72929e-07 5.12935e-05
0.000675408 -8.42231e-05 -2.37783e-06
-8.42231e-05 7.66961e-05 1.40555e-06
-2.37783e-06 1.40555e-06 -1.29049e-05
0.00046758 -1.07858e-05 1.10413e-07
-1.07858e-05 -4.47604e-05 8.11658e-07
1.10413e-07 8.11658e-07 -0.000138941
0.000592385 -1.86504e-05 -1.40979e-06
-1.86504e-05 8.34797e-06 2.33886e-06
-1.40979e-06 2.33886e-06 -4.49316e-05
0.000583962 -1.76889e-05 1.02078e-06
-1.76889e-05 8.86271e-06 -4.28242e-09
1.02078e-06 -4.28242e-09 -4.62297e-05
0.000580401 6.21769e-06 -1.55115e-07
6.21769e-06 -2.24946e-05 5.45305e-06
-1.55115e-07 5.45305e-06 -3.8814e-05
0.000583886 1.81858e-05 -8.89279e-07
1.81858e-05 7.15275e-06 -2.08892e-06
-8.89279e-07 -2.08892e-06 -4.6167e-05
0.000552296 3.77419e-06 3.74356e-07
3.77419e-06 -3.99394e-05 -6.25994e-09
3.74356e-07 -6.25994e-09 -5.57652e-05
0.00236256 -1.67861e-06 -7.35431e-07
-1.67861e-06 0.00103663 5.26886e-06
-7.35431e-07 5.26886e-06 0.00105229
0.000594044 3.92077e-07 -6.82452e-07
3.92077e-07 -1.60982e-05 -5.61993e-06
-6.82452e-07 -5.61993e-06 -3.16657e-05
0.0015947 -9.88625e-06 3.35654e-10
-9.88625e-06 0.000578427 8.28655e-08
3.35654e-10 8.28655e-08 0.000590067
0.000779033 -1.48859e-05 1.68741e-07
-1.48859e-05 9.15398e-05 -2.10072e-06
1.68741e-07 -2.10072e-06 9.97664e-05
0.0006068 -1.04562e-05 9.17079e-07
-1.04562e-05 8.24648e-06 -1.38559e-06
9.17079e-07 -1.38559e-06 -2.90826e-05
0.000626139 -1.8054e-05 4.1535e-07
-1.8054e-05 1.75208e-05 -4.3493e-08
4.1535e-07 -4.3493e-08 -2.15057e-05
0.000591501 1.41794e-05 4.22824e-07
1.41794e-05 -2.31381e-05 -3.14451e-06
4.22824e-07 -3.14451e-06 -3.05769e-05
0.000604837 -1.36229e-05 -1.41325e-06
-1.36229e-05 2.07065e-06 1.28106e-06
-1.41325e-06 1.28106e-06 -3.72497e-05
0.000864307 2.53473e-05 -6.29594e-08
2.53473e-05 0.00014196 -7.12447e-07
-6.29594e-08 -7.12447e-07 0.000134694
0.00205098 4.04156e-05 1.0946e-05
4.04156e-05 0.000857293 -4.3053e-06
1.0946e-05 -4.3053e-06 0.000873952
0.000561366 3.023e-05 -4.28654e-07
3.023e-05 -3.42896e-05 3.41741e-06
-4.28654e-07 3.41741e-06 -4.62848e-05
0.00217716 5.64975e-05 -7.21045e-06
5.64975e-05 0.000939509 1.11949e-06
-7.21045e-06 1.11949e-06 0.000953156
0.00227719 7.42241e-05 -1.67189e-05
7.42241e-05 0.00100592 4.04768e-06
-1.67189e-05 4.04768e-06 0.00101594
0.00196333 0.000126253 -2.65905e-06
0.000126253 2.0442e-05 8.06733e-11
-2.65905e-06 8.06733e-11 8.89864e-07
0.00191711 -5.32115e-07 -1.70543e-06
-5.32115e-07 2.23321e-05 2.45988e-07
-1.70543e-06 2.45988e-07 1.29963e-05
0.00159833 5.27424e-05 9.97512e-06
5.27424e-05 -0.000190238 -7.4392e-07
9.97512e-06 -7.4392e-07 -0.00017134
0.00232472 0.000231441 3.75294e-05
0.000231441 -0.000436897 8.08268e-06
3.75294e-05 8.08268e-06 -0.000338187
0.00195154 -7.1013e-06 -2.39335e-06
-7.1013e-06 -2.30085e-05 -3.01044e-07
-2.39335e-06 -3.01044e-07 -1.0024e-05
0.00190367 4.92119e-05 3.80733e-06
4.92119e-05 0.000154499 -1.73473e-06
3.80733e-06 -1.73473e-06 0.000208473
0.00278374 -1.51591e-05 -2.67879e-05
-1.51591e-05 0.000680771 3.26059e-06
-2.67879e-05 3.26059e-06 0.00065925
0.00201642 -3.48233e-05 6.11879e-05
-3.48233e-05 -0.00125883 -1.77679e-05
6.11879e-05 -1.77679e-05 -0.00113069
0.00256419 7.88861e-05 2.89599e-05
7.88861e-05 -1.91087e-05 1.6214e-05
2.89599e-05 1.6214e-05 0.000105519
0.000631434 6.91204e-05 7.43572e-08
6.91204e-05 5.78534e-05 -6.52353e-07
7.43572e-08 -6.52353e-07 -1.74755e-05
0.000656391 -8.91742e-06 5.93724e-07
-8.91742e-06 7.41251e-05 -2.0574e-07
5.93724e-07 -2.0574e-07 -2.7015e-06
0.000635032 -9.32771e-05 -5.10272e-07
-9.32771e-05 6.13208e-05 9.85302e-07
-5.10272e-07 9.85302e-07 -3.02547e-05
0.000626262 -3.97312e-05 -9.72905e-07
-3.97312e-05 7.70776e-05 1.15231e-06
-9.72905e-07 1.15231e-06 -2.58776e-05
0.00199483 -0.00011903 -4.04436e-06
-0.00011903 -3.20542e-05 8.41941e-07
-4.04436e-06 8.41941e-07 -2.1932e-05
0.00192083 -0.00025274 9.65709e-07
-0.00025274 -5.72554e-06 1.50446e-07
9.65709e-07 1.50446e-07 7.67462e-06
0.00206028 -0.000377732 -2.85418e-06
-0.000377732 9.44595e-05 2.78339e-06
-2.85418e-06 2.78339e-06 1.44554e-05
0.00223841 -0.000413149 8.28703e-06
-0.000413149 0.000785746 4.19517e-06
8.28703e-06 4.19517e-06 0.000524384
0.00112531 -0.00044417 1.01802e-05
-0.00044417 5.04781e-05 -4.22398e-06
1.01802e-05 -4.22398e-06 -0.00028921
0.00225504 -0.000523475 5.49896e-06
-0.000523475 0.000412047 -3.79224e-06
5.49896e-06 -3.79224e-06 0.000233794
0.00100736 -0.000305119 -4.92463e-06
-0.000305119 0.000186869 2.71971e-06
-4.92463e-06 2.71971e-06 -6.48627e-05
0.00185752 -0.000145277 5.18157e-07
-0.000145277 0.000792001 -7.38329e-07
5.18157e-07 -7.38329e-07 0.000561811
0.000336682 -8.29392e-05 -7.4912e-07
-8.29392e-05 -0.000146663 -1.5441e-06
-7.4912e-07 -1.5441e-06 -0.000298647
0.000683528 -3.76586e-05 -2.57403e-07
-3.76586e-05 8.12112e-05 1.12325e-06
-2.57403e-07 1.12325e-06 7.00583e-06
0.000661471 -8.62499e-05 2.57288e-07
-8.62499e-05 0.000101518 -2.41551e-06
2.57288e-07 -2.41551e-06 -4.98083e-05
0.000788143 -6.50477e-06 6.66082e-07
-6.50477e-06 0.000173851 -6.28908e-07
6.66082e-07 -6.28908e-07 5.43078e-05
0.000650897 8.40593e-06 2.14584e-07
8.40593e-06 7.44228e-05 -2.69886e-08
2.14584e-07 -2.69886e-08 -5.57917e-06
0.000557644 6.16998e-06 -2.87313e-06
6.16998e-06 1.22156e-05 2.2966e-06
-2.87313e-06 2.2966e-06 -8.25633e-05
0.00227041 -0.000200852 1.12713e-06
-0.000200852 0.000141686 5.70003e-07
1.12713e-06 5.70003e-07 0.00015979
0.000659228 -1.19251e-05 1.15382e-06
-1.19251e-05 8.44646e-05 -3.46309e-07
1.15382e-06 -3.46309e-07 -1.71132e-05
0.00069157 7.83488e-06 2.38797e-06
7.83488e-06 9.30055e-05 -1.22687e-07
2.38797e-06 -1.22687e-07 -9.7636e-06
0.000420059 4.12449e-05 1.88476e-07
4.12449e-05 -6.23106e-05 1.46118e-06
1.88476e-07 1.46118e-06 -0.000158837
0.00176397 -0.000272298 -9.14004e-07
-0.000272298 -0.000169662 -1.75208e-06
-9.14004e-07 -1.75208e-06 -0.000124316
0.00200926 -0.000496528 1.33877e-06
-0.000496528 0.000105384 -3.95571e-07
1.33877e-06 -3.95571e-07 -2.65388e-05
0.00155102 -0.000393661 -9.35551e-07
-0.000393661 0.000449917 -3.00436e-07
-9.35551e-07 -3.00436e-07 0.000173212
0.00217248 -0.000564513 -5.39515e-06
-0.000564513 0.000480017 2.14647e-06
-5.39515e-06 2.14647e-06 0.000248032
0.00107208 -7.39483e-05 -9.79765e-07
-7.39483e-05 0.000334328 4.72888e-07
-9.79765e-07 4.72888e-07 0.0002019
0.000512153 -7.55186e-05 -1.05462e-07
-7.55186e-05 -1.88579e-05 9.14221e-07
-1.05462e-07 9.14221e-07 -0.000160992
0.00101344 -0.000384663 3.45789e-06
-0.000384663 0.000368584 -1.37924e-06
3.45789e-06 -1.37924e-06 -1.00091e-06
0.00115356 -0.000184555 3.89451e-07
-0.000184555 0.000438066 -2.92471e-07
3.89451e-07 -2.92471e-07 0.00015726
0.00242276 -0.000236413 -2.22336e-05
-0.000236413 0.000150868 2.70955e-07
-2.22336e-05 2.70955e-07 0.000249596
0.00232633 -0.000407989 -2.45745e-05
-0.000407989 0.000166751 5.06835e-06
-2.45745e-05 5.06835e-06 0.00017873
0.00280555 -0.000651277 -1.17948e-05
-0.000651277 0.000622418 -6.86106e-06
-1.17948e-05 -6.86106e-06 0.000412895
0.00163006 -0.000481377 -5.39078e-06
-0.000481377 0.00038029 3.97331e-06
-5.39078e-06 3.97331e-06 0.000159748
0.000556239 -4.03009e-06 -1.50412e-06
-4.03009e-06 4.04186e-05 -2.02046e-06
-1.50412e-06 -2.02046e-06 -8.15519e-05
0.000547459 -7.519e-05 -5.85316e-07
-7.519e-05 2.4685e-05 -4.22259e-06
-5.85316e-07 -4.22259e-06 -0.000104465
0.000489716 -0.000112903 -2.10326e-06
-0.000112903 7.24116e-05 9.03473e-06
-2.10326e-06 9.03473e-06 -0.000109767
-0.000197746 -0.000172583 -1.00735e-06
-0.000172583 -0.000126365 -6.86562e-06
-1.00735e-06 -6.86562e-06 -0.00057536
0.000878636 -0.000379111 2.91382e-05
-0.000379111 -0.0031209 -4.37485e-06
2.91382e-05 -4.37485e-06 -0.00342268
0.00148045 0.000114729 8.20826e-07
0.000114729 0.000562439 -3.58162e-06
8.20826e-07 -3.58162e-06 0.000428447
0.000553856 0.000176069 3.42461e-06
0.000176069 -1.93797e-05 1.2093e-06
3.42461e-06 1.2093e-06 -0.000207709
0.00201858 0.000199674 4.99917e-05
0.000199674 0.000113035 9.69413e-06
4.99917e-05 9.69413e-06 0.000140107
0.00208155 0.000457855 1.76229e-05
0.000457855 0.00018423 6.88889e-06
1.76229e-05 6.88889e-06 5.62015e-05
0.00192451 0.0004705 6.04431e-06
0.0004705 0.000416172 7.19267e-06
6.04431e-06 7.19267e-06 0.000122094
0.000897562 0.000289542 6.10675e-06
0.000289542 4.56525e-05 3.36119e-06
6.10675e-06 3.36119e-06 -0.00022525
0.00344561 0.000555238 7.7762e-05
0.000555238 0.000343009 2.4564e-05
7.7762e-05 2.4564e-05 -0.000103252
0.00126989 0.000175126 3.17165e-06
0.000175126 0.000475867 4.33115e-07
3.17165e-06 4.33115e-07 0.00031206
0.00241347 0.000372468 -1.34601e-05
0.000372468 0.000387464 -1.2251e-06
-1.34601e-05 -1.2251e-06 0.000384667
0.00109779 0.000267672 1.34557e-06
0.000267672 0.000245895 7.00078e-07
1.34557e-06 7.00078e-07 4.60448e-05
0.00123472 0.00036601 2.21071e-06
0.00036601 0.000179471 -2.30758e-06
2.21071e-06 -2.30758e-06 -9.88837e-05
0.00120763 0.000492776 -5.4233e-06
0.000492776 -0.000160247 -1.54783e-06
-5.4233e-06 -1.54783e-06 -0.000356819
0.00288846 -0.000286978 -0.000116079
-0.000286978 -0.00222939 -3.46209e-05
-0.000116079 -3.46209e-05 -0.00321618
0.00568404 0.00068306 -2.01033e-05
0.00068306 0.000521128 -4.21872e-05
-2.01033e-05 -4.21872e-05 3.50702e-05
0.000435325 0.000463323 -8.74983e-06
0.000463323 -0.000446098 7.52156e-06
-8.74983e-06 7.52156e-06 -0.000733834
-0.00169522 -0.000587782 0.000179269
-0.000587782 0.00106525 7.61966e-05
0.000179269 7.61966e-05 -0.000478391
0.00112265 -0.00257474 -0.000128719
-0.00257474 -0.000634868 -0.000141152
-0.000128719 -0.000141152 0.000880715
0.00103996 0.000190815 -5.53683e-06
0.000190815 0.000325229 -3.09962e-06
-5.53683e-06 -3.09962e-06 0.000177418
0.000527719 0.000419791 0.000200038
0.000419791 0.0018336 -1.1895e-05
0.000200038 -1.1895e-05 0.000653293
0.00117931 -0.000805188 -0.00011649
-0.000805188 0.00256149 -0.000180261
-0.00011649 -0.000180261 0.000667628
0.00247381 0.000552674 -2.90779e-05
0.000552674 0.000413856 -9.41128e-06
-2.90779e-05 -9.41128e-06 0.000453422
0.000806395 0.000170176 -1.28878e-05
0.000170176 7.17538e-05 -3.04914e-06
-1.28878e-05 -3.04914e-06 -0.000121674
2.14779e-06 0.000398731 -2.21676e-05
0.000398731 -0.000487699 -1.64631e-05
-2.21676e-05 -1.64631e-05 -0.000779964
0.000137942 0.000505387 3.25652e-05
0.000505387 -0.000649954 6.82038e-05
3.25652e-05 6.82038e-05 -0.000805559
0.0124666 0.000800031 -1.67044e-05
0.000800031 0.00373203 -3.9155e-05
-1.67044e-05 -3.9155e-05 0.00223156
0.00287929 0.00102401 1.38668e-05
0.00102401 0.000500326 6.7152e-06
1.38668e-05 6.7152e-06 -0.000611145
0.00322826 -0.00228176 0.000318453
-0.00228176 -6.51799e-05 0.000227457
0.000318453 0.000227457 5.05902e-05
0.00601918 -0.00121153 -2.32847e-05
-0.00121153 -0.000391505 0.000253992
-2.32847e-05 0.000253992 0.00059918
0.000546141 2.4577e-05 1.95918e-06
2.4577e-05 4.51281e-05 -1.7293e-06
1.95918e-06 -1.7293e-06 -4.6598e-05
0.000775061 8.73862e-05 2.15881e-06
8.73862e-05 0.000167182 1.03753e-06
2.15881e-06 1.03753e-06 6.32246e-05
0.00157974 0.000158988 -3.41688e-06
0.000158988 0.000648732 -2.82028e-06
-3.41688e-06 -2.82028e-06 0.000544292
0.000627234 4.77802e-06 7.36101e-07
4.77802e-06 6.73886e-05 -4.18505e-07
7.36101e-07 -4.18505e-07 -3.39955e-05
0.000733406 3.6439e-05 -9.84541e-08
3.6439e-05 0.000123442 -1.42659e-06
-9.84541e-08 -1.42659e-06 5.10409e-06
0.000527942 -4.22655e-06 -1.26526e-06
-4.22655e-06 -1.14148e-05 1.07908e-07
-1.26526e-06 1.07908e-07 -0.000119659
0.000795707 5.18733e-05 -7.06218e-07
5.18733e-05 0.000141154 1.52525e-06
-7.06218e-07 1.52525e-06 3.57064e-05
0.000639139 3.32372e-05 -6.19499e-07
3.32372e-05 3.59776e-05 1.6593e-07
-6.19499e-07 1.6593e-07 -4.91273e-05
0.000447203 -3.37757e-06 2.5954e-07
-3.37757e-06 -5.30759e-05 7.81251e-07
2.5954e-07 7.81251e-07 -0.000150048
0.000838733 3.90033e-05 3.68524e-07
3.90033e-05 0.000172273 6.17661e-07
3.68524e-07 6.17661e-07 6.10201e-05
0.000794377 3.24617e-05 2.83021e-07
3.24617e-05 0.000145036 3.74545e-07
2.83021e-07 3.74545e-07 2.97277e-05
0.000699236 2.0265e-05 5.87312e-07
2.0265e-05 0.000107056 -3.37112e-07
5.87312e-07 -3.37112e-07 -1.58073e-05
0.000489671 4.94164e-05 -3.72085e-07
4.94164e-05 -2.61037e-05 -7.48183e-07
-3.72085e-07 -7.48183e-07 -0.000123947
0.00112844 5.91882e-05 -5.98005e-07
5.91882e-05 0.000341913 -2.43823e-06
-5.98005e-07 -2.43823e-06 0.000238655
-6.0498e-05 3.73551e-05 -2.46464e-06
3.73551e-05 -0.000311502 -4.03828e-06
-2.46464e-06 -4.03828e-06 -0.00041496
0.000748196 -7.74329e-05 1.12891e-07
-7.74329e-05 0.000119609 -1.97465e-07
1.12891e-07 -1.97465e-07 -1.42084e-06
0.000782751 -5.78178e-05 -9.39258e-07
-5.78178e-05 0.000160859 -8.65407e-07
-9.39258e-07 -8.65407e-07 3.21758e-05
0.000803681 -2.76763e-05 -5.50307e-07
-2.76763e-05 0.000172586 -3.85227e-07
-5.50307e-07 -3.85227e-07 4.88222e-05
0.000799685 5.86222e-06 -8.96665e-07
5.86222e-06 0.000154618 -1.84614e-07
-8.96665e-07 -1.84614e-07 4.93495e-05
0.000827714 7.59979e-06 -2.55517e-06
7.59979e-06 0.000193396 -2.28004e-06
-2.55517e-06 -2.28004e-06 5.99595e-05
0.000728117 1.12316e-05 1.11252e-06
1.12316e-05 0.000116234 -1.44153e-06
1.11252e-06 -1.44153e-06 1.17674e-05
0.000115325 -1.87239e-05 1.06114e-07
-1.87239e-05 -0.000253358 -1.9115e-06
1.06114e-07 -1.9115e-06 -0.000344359
0.000606036 2.39299e-06 1.08384e-06
2.39299e-06 3.75847e-05 5.15731e-08
1.08384e-06 5.15731e-08 -6.51821e-05
0.000652559 -4.54086e-05 1.24599e-07
-4.54086e-05 6.28757e-05 2.62975e-07
1.24599e-07 2.62975e-07 -3.06378e-05
0.000715446 -4.27848e-05 -2.29316e-07
-4.27848e-05 0.000114881 -2.65756e-08
-2.29316e-07 -2.65756e-08 7.93992e-06
0.000665502 -5.03907e-05 -1.98986e-06
-5.03907e-05 5.96366e-05 1.07828e-06
-1.98986e-06 1.07828e-06 -1.87769e-05
0.000693266 -3.461e-05 1.50454e-06
-3.461e-05 8.60493e-05 -3.29172e-07
1.50454e-06 -3.29172e-07 -1.57572e-05
0.00061373 -7.80332e-05 5.24807e-09
-7.80332e-05 3.79461e-05 2.2343e-07
5.24807e-09 2.2343e-07 -5.14901e-05
0.000627948 -1.70093e-05 -1.91379e-06
-1.70093e-05 2.46012e-05 2.55671e-06
-1.91379e-06 2.55671e-06 -2.83262e-05
0.000494936 -6.37831e-06 1.22213e-06
-6.37831e-06 -1.91395e-05 -6.83016e-07
1.22213e-06 -6.83016e-07 -0.000119881
0.000588681 3.75533e-06 1.2062e-06
3.75533e-06 9.77079e-06 -1.53273e-08
1.2062e-06 -1.53273e-08 -4.55521e-05
0.00138371 1.21249e-05 -2.99882e-06
1.21249e-05 0.000455105 5.39207e-06
-2.99882e-06 5.39207e-06 0.000443045
0.000580668 3.32769e-05 -5.82637e-07
3.32769e-05 7.0224e-06 -2.07979e-06
-5.82637e-07 -2.07979e-06 -4.79206e-05
0.000960062 5.09459e-06 -1.72788e-06
5.09459e-06 0.000203431 8.15791e-07
-1.72788e-06 8.15791e-07 0.000189427
0.000836461 3.29209e-06 -4.07862e-06
3.29209e-06 0.000127337 5.0558e-06
-4.07862e-06 5.0558e-06 0.000134832
0.000561556 8.79359e-07 2.7599e-07
8.79359e-07 -3.4206e-05 -3.74778e-06
2.7599e-07 -3.74778e-06 -5.01167e-05
0.00237359 9.49658e-08 4.4842e-06
9.49658e-08 0.0010433 -7.6447e-09
4.4842e-06 -7.6447e-09 0.00105889
0.00085331 -3.08478e-06 -4.16378e-06
-3.08478e-06 0.000137281 -5.16284e-06
-4.16378e-06 -5.16284e-06 0.000145016
0.000612727 6.50308e-05 1.90527e-06
6.50308e-05 5.34951e-05 1.35348e-07
1.90527e-06 1.35348e-07 -2.9195e-05
0.000588779 2.57408e-05 -1.2069e-06
2.57408e-05 2.61254e-06 -1.7693e-06
-1.2069e-06 -1.7693e-06 -3.62297e-05
0.000598093 -6.52445e-06 9.5511e-07
-6.52445e-06 5.03067e-06 1.19647e-08
9.5511e-07 1.19647e-08 -3.36281e-05
0.000594249 8.23161e-06 3.35578e-07
8.23161e-06 -2.22746e-05 -3.10724e-06
3.35578e-07 -3.10724e-06 -2.90578e-05
0.000622511 -3.23668e-05 -1.75897e-06
-3.23668e-05 1.68583e-05 1.40228e-06
-1.75897e-06 1.40228e-06 -2.34797e-05
0.000562712 1.41109e-05 1.17517e-08
1.41109e-05 -4.08382e-05 -7.57491e-07
1.17517e-08 -7.57491e-07 -4.79813e-05
0.00202313 2.70839e-05 7.30959e-06
2.70839e-05 0.000837064 -4.46239e-06
7.30959e-06 -4.46239e-06 0.000855254
0.00116524 3.17308e-05 -6.85549e-07
3.17308e-05 0.000322326 1.8436e-06
-6.85549e-07 1.8436e-06 0.000316323
0.00148223 3.47628e-05 1.05556e-07
3.47628e-05 0.000518135 1.40894e-06
1.05556e-07 1.40894e-06 0.000530755
0.000893716 3.79865e-05 -1.35173e-05
3.79865e-05 0.000172075 7.1606e-06
-1.35173e-05 7.1606e-06 0.000178907
0.00151509 0.000149032 7.01247e-05
0.000149032 -0.000763296 1.38408e-05
7.01247e-05 1.38408e-05 -0.000670638
0.00193085 -1.99951e-05 2.53621e-06
-1.99951e-05 -2.39739e-05 8.69409e-07
2.53621e-06 8.69409e-07 -1.28533e-05
0.00196096 6.10928e-05 3.44758e-05
6.10928e-05 0.000205588 -9.76017e-06
3.44758e-05 -9.76017e-06 0.000248758
0.00145449 0.000118201 -1.54097e-05
0.000118201 -0.00114852 -9.96448e-06
-1.54097e-05 -9.96448e-06 -0.000874503
0.00183263 5.9892e-05 1.89372e-05
5.9892e-05 -0.000340045 1.5453e-07
1.89372e-05 1.5453e-07 -0.00021636
0.00234389 -1.99511e-05 -4.53433e-08
-1.99511e-05 0.00036996 -2.02518e-06
-4.53433e-08 -2.02518e-06 0.000351078
0.00339471 -7.92334e-05 -6.03842e-05
-7.92334e-05 0.000762703 2.44856e-06
-6.03842e-05 2.44856e-06 0.000737425
0.00300339 -7.00558e-05 8.8879e-05
-7.00558e-05 0.00031006 -5.07036e-07
8.8879e-05 -5.07036e-07 0.000222631
0.010016 -0.000451701 1.42745e-05
-0.000451701 0.00231449 3.50322e-05
1.42745e-05 3.50322e-05 0.000850165
0.00921063 0.00191928 0.000406878
0.00191928 0.00427768 -0.000177048
0.000406878 -0.000177048 0.00409133
0.00559182 0.0020751 -2.49041e-05
0.0020751 0.00408013 2.16821e-05
-2.49041e-05 2.16821e-05 0.00448055
0.000416601 -8.66007e-05 2.15178e-06
-8.66007e-05 -5.77746e-05 1.53671e-08
2.15178e-06 1.53671e-08 -0.000152578
0.000652362 -1.11848e-05 1.33621e-06
-1.11848e-05 7.21254e-05 -1.65255e-07
1.33621e-06 -1.65255e-07 -5.0489e-06
0.000690161 -7.87984e-05 -1.7007e-06
-7.87984e-05 9.98905e-05 1.14223e-06
-1.7007e-06 1.14223e-06 1.7697e-05
0.000628729 -4.08737e-05 -2.23705e-07
-4.08737e-05 5.94882e-05 2.37836e-07
-2.23705e-07 2.37836e-07 -3.3476e-05
0.000641705 6.22477e-05 -9.63941e-07
6.22477e-05 8.88604e-05 1.91816e-06
-9.63941e-07 1.91816e-06 -2.1943e-05
0.000675831 0.000120785 1.50801e-06
0.000120785 9.16664e-05 3.66801e-06
1.50801e-06 3.66801e-06 -1.84842e-05
0.000832061 -1.14929e-05 2.78847e-06
-1.14929e-05 0.000196842 -9.09306e-08
2.78847e-06 -9.09306e-08 9.01924e-05
0.000577308 -2.88411e-05 -9.56543e-07
-2.88411e-05 3.83431e-05 9.30594e-07
-9.56543e-07 9.30594e-07 -5.89808e-05
0.0021216 -0.000185766 4.58531e-06
-0.000185766 6.15743e-05 1.94252e-06
4.58531e-06 1.94252e-06 9.1275e-05
0.00180481 -0.000283797 8.65796e-06
-0.000283797 -0.000179862 -1.17987e-06
8.65796e-06 -1.17987e-06 -0.000140339
0.00163855 -0.000465585 4.94825e-06
-0.000465585 -8.69341e-05 5.08001e-06
4.94825e-06 5.08001e-06 -0.000209367
0.00143308 -0.000408716 1.13433e-05
-0.000408716 0.000371519 7.21174e-07
1.13433e-05 7.21174e-07 8.84669e-05
0.00172816 -0.000533227 4.94765e-06
-0.000533227 0.000248469 -8.6447e-09
4.94765e-06 -8.6447e-09 1.85911e-05
0.00209713 -0.000454389 4.68231e-06
-0.000454389 0.000980252 -1.38721e-06
4.68231e-06 -1.38721e-06 0.000596112
0.00219567 -0.000280575 1.97346e-07
-0.000280575 0.000991307 -2.9692e-06
1.97346e-07 -2.9692e-06 0.000721572
0.000733016 -0.000125793 3.13099e-06
-0.000125793 0.000117283 -3.35919e-06
3.13099e-06 -3.35919e-06 -4.11035e-05
0.000680156 -2.35405e-05 4.21991e-07
-2.35405e-05 8.75457e-05 2.1568e-06
4.21991e-07 2.1568e-06 -1.08301e-05
0.000898992 -3.94332e-05 1.32374e-06
-3.94332e-05 0.000217838 -6.24588e-06
1.32374e-06 -6.24588e-06 9.32214e-05
0.000920114 -2.28788e-05 1.45534e-06
-2.28788e-05 0.000241118 5.43921e-08
1.45534e-06 5.43921e-08 0.00013797
0.000700211 9.95631e-05 2.23858e-06
9.95631e-05 0.00010636 2.25905e-06
2.23858e-06 2.25905e-06 1.54693e-05
0.00199631 -0.000225965 3.13366e-08
-0.000225965 -2.77229e-05 1.73743e-06
3.13366e-08 1.73743e-06 5.68663e-05
0.000674392 1.2938e-05 -1.59143e-06
1.2938e-05 0.000109984 3.01394e-07
-1.59143e-06 3.01394e-07 -1.06892e-05
0.000834356 -8.48648e-05 -2.25738e-06
-8.48648e-05 0.000185919 1.32823e-06
-2.25738e-06 1.32823e-06 6.50706e-05
0.00177818 -0.00039147 1.88099e-06
-0.00039147 -0.000124826 -1.57939e-06
1.88099e-06 -1.57939e-06 -0.000118345
0.00169448 -0.000560816 7.68039e-07
-0.000560816 3.43599e-05 8.80017e-07
7.68039e-07 8.80017e-07 -0.000147714
0.00109143 -0.000433904 -1.27792e-06
-0.000433904 8.96224e-05 -2.23121e-06
-1.27792e-06 -2.23121e-06 -0.000144855
0.00100154 -0.00014964 3.25438e-07
-0.00014964 0.00035829 -4.58155e-06
3.25438e-07 -4.58155e-06 0.000157276
0.00113478 -0.000249118 -1.45484e-06
-0.000249118 0.000574703 1.27784e-06
-1.45484e-06 1.27784e-06 0.000163608
0.00336863 -0.000355539 -3.25767e-05
-0.000355539 0.000701301 6.40088e-06
-3.25767e-05 6.40088e-06 0.000719848
0.00277372 -0.000558797 -3.31112e-05
-0.000558797 0.00052171 4.37771e-06
-3.31112e-05 4.37771e-06 0.000497264
0.00161843 -0.000601476 -1.08427e-05
-0.000601476 9.6157e-05 4.59129e-07
-1.08427e-05 4.59129e-07 -9.08639e-05
0.000638035 -0.000318969 -1.28678e-05
-0.000318969 -2.30914e-05 1.5815e-05
-1.28678e-05 1.5815e-05 -0.000247652
0.000669415 -0.000133871 1.51305e-06
-0.000133871 0.000112029 9.52287e-07
1.51305e-06 9.52287e-07 -3.22811e-05
0.000459326 -0.0001083 2.81876e-06
-0.0001083 2.52669e-05 -1.79076e-06
2.81876e-06 -1.79076e-06 -0.00013808
0.00100751 -0.000106953 3.28652e-07
-0.000106953 0.000509865 -5.49378e-06
3.28652e-07 -5.49378e-06 0.000158685
-0.00494961 -9.10559e-05 0.000269528
-9.10559e-05 -0.00351787 2.00325e-06
0.000269528 2.00325e-06 -0.00249683
0.010231 -0.00014473 6.51689e-06
-0.00014473 0.00279002 -3.64985e-07
6.51689e-06 -3.64985e-07 0.00220378
0.00145094 0.000154004 5.65626e-06
0.000154004 0.000570382 -2.57358e-06
5.65626e-06 -2.57358e-06 0.000417215
0.000845785 0.0002447 3.25008e-06
0.0002447 0.000117049 -1.21533e-06
3.25008e-06 -1.21533e-06 -8.04203e-05
0.00216434 0.000342698 4.59965e-05
0.000342698 0.000237708 2.37876e-05
4.59965e-05 2.37876e-05 0.000253549
0.00242962 0.000589506 1.31378e-05
0.000589506 0.00047297 6.37904e-06
1.31378e-05 6.37904e-06 0.000269833
0.00206477 0.000458174 1.00301e-05
0.000458174 0.0006382 1.80916e-07
1.00301e-05 1.80916e-07 0.000348204
0.0108363 0.000567939 4.60852e-05
0.000567939 0.00277003 1.92158e-05
4.60852e-05 1.92158e-05 0.00164039
0.00753061 0.00099985 -0.000160215
0.00099985 0.000964358 -2.85424e-05
-0.000160215 -2.85424e-05 0.000591475
0.000322417 0.00036908 7.19982e-06
0.00036908 -0.000368491 -1.93002e-05
7.19982e-06 -1.93002e-05 -0.000719835
0.00929731 -0.00155 -0.000102539
-0.00155 0.00432596 2.07722e-05
-0.000102539 2.07722e-05 0.00361709
-0.00747169 -0.00260626 -0.000687572
-0.00260626 -0.00327482 -0.000517974
-0.000687572 -0.000517974 -0.00185627
0.000975264 0.000186288 -6.3888e-07
0.000186288 0.000297294 -1.94907e-06
-6.3888e-07 -1.94907e-06 0.00014958
-0.00236694 -0.000778935 0.000141903
-0.000778935 -0.00216753 1.88983e-05
0.000141903 1.88983e-05 -0.00244924
-0.00284918 -0.000577146 -0.000165188
-0.000577146 0.00152283 -8.4108e-05
-0.000165188 -8.4108e-05 -0.000721886
0.00282961 0.000510113 -1.07377e-05
0.000510113 0.000623049 -9.11278e-07
-1.07377e-05 -9.11278e-07 0.000653491
0.000852243 0.000222619 -3.56674e-06
0.000222619 0.000129617 1.2731e-06
-3.56674e-06 1.2731e-06 -8.39856e-05
0.00107948 0.000462851 4.23935e-06
0.000462851 9.61915e-05 2.08756e-06
4.23935e-06 2.08756e-06 -0.000193485
0.00113196 0.00044381 1.75581e-05
0.00044381 1.24317e-06 1.45703e-05
1.75581e-05 1.45703e-05 -3.77778e-05
0.00912513 0.000632842 -6.09041e-05
0.000632842 0.00137587 -3.02481e-05
-6.09041e-05 -3.02481e-05 -0.000449636
0.00621509 0.00144427 -6.12506e-05
0.00144427 0.00150335 -2.60939e-05
-6.12506e-05 -2.60939e-05 0.000753796
0.0107406 -0.00180681 0.0001415
-0.00180681 0.0048121 -5.07282e-05
0.0001415 -5.07282e-05 0.00454734
0.00527591 -0.00149684 0.000151506
-0.00149684 -0.00114628 0.000326296
0.000151506 0.000326296 -0.000156898
0.00157658 0.000179397 -1.63465e-05
0.000179397 0.000656612 -8.23923e-06
-1.63465e-05 -8.23923e-06 0.00052418
-0.00602675 0.000340758 -9.37699e-05
0.000340758 0.00111733 -5.29841e-05
-9.37699e-05 -5.29841e-05 -0.00179015
0.00328098 0.000331408 -0.000171081
0.000331408 0.00183705 -0.000233842
-0.000171081 -0.000233842 -0.00102515
0.00161771 0.00044903 -1.71422e-05
0.00044903 0.000244388 5.96509e-06
-1.71422e-05 5.96509e-06 0.000238524
0.00117995 0.000419055 -4.75005e-05
0.000419055 0.000390951 -1.69739e-05
-4.75005e-05 -1.69739e-05 0.000140671
0.00227171 0.000391889 -6.07377e-05
0.000391889 0.00122285 -5.94179e-06
-6.07377e-05 -5.94179e-06 0.000817259
0.00197226 0.000998231 -3.95798e-05
0.000998231 0.000129136 -1.63117e-05
-3.95798e-05 -1.63117e-05 -0.000143265
0.00103102 0.000831477 0.000161353
0.000831477 -0.000221599 0.000115227
0.000161353 0.000115227 -0.00293641
0.0102158 -0.00210019 9.09056e-05
-0.00210019 0.00352512 0.000285107
9.09056e-05 0.000285107 0.00289828
0.00462634 -0.00091302 -5.21011e-05
-0.00091302 -0.00201179 -5.24776e-05
-5.21011e-05 -5.24776e-05 -0.000821625
0.000811767 0.000108672 3.87132e-06
0.000108672 0.000198455 2.72141e-06
3.87132e-06 2.72141e-06 8.67721e-05
0.0012703 0.000139044 5.92235e-06
0.000139044 0.000457121 2.64988e-06
5.92235e-06 2.64988e-06 0.000356429
4.73721e-05 4.84428e-05 1.87947e-06
4.84428e-05 -0.000193224 -5.03697e-06
1.87947e-06 -5.03697e-06 -0.000297296
0.000455308 4.49498e-05 1.35485e-06
4.49498e-05 -4.9166e-05 -1.45037e-07
1.35485e-06 -1.45037e-07 -0.000145633
0.000764331 5.28227e-05 -6.72764e-07
5.28227e-05 0.000151684 -1.05273e-06
-6.72764e-07 -1.05273e-06 2.54831e-05
0.00073903 -5.50812e-06 -5.07836e-07
-5.50812e-06 0.000112414 1.34722e-06
-5.07836e-07 1.34722e-06 -2.53465e-06
0.000767633 3.18987e-06 2.41845e-06
3.18987e-06 0.000138345 8.33755e-07
2.41845e-06 8.33755e-07 2.36198e-05
0.000494578 4.11732e-05 9.64868e-07
4.11732e-05 -2.00353e-05 2.46711e-06
9.64868e-07 2.46711e-06 -0.000116506
0.000768783 4.37775e-05 -1.2895e-08
4.37775e-05 0.000153603 -8.23021e-07
-1.2895e-08 -8.23021e-07 2.48891e-05
0.000869023 4.54584e-05 -1.61891e-08
4.54584e-05 0.000187433 2.3929e-07
-1.61891e-08 2.3929e-07 8.37135e-05
0.000786013 -3.49029e-05 -5.51789e-07
-3.49029e-05 0.000143974 6.20824e-07
-5.51789e-07 6.20824e-07 2.11998e-05
-1.93839e-05 3.39938e-05 -1.64888e-07
3.39938e-05 -0.000273001 8.00541e-07
-1.64888e-07 8.00541e-07 -0.000377177
-0.000652604 2.04824e-05 -9.45522e-07
2.04824e-05 -0.000497763 -1.67572e-06
-9.45522e-07 -1.67572e-06 -0.000647108
0.000864701 -1.89539e-06 -2.75872e-06
-1.89539e-06 0.000194147 -4.58736e-06
-2.75872e-06 -4.58736e-06 8.05582e-05
0.000945392 1.04238e-05 -5.45913e-07
1.04238e-05 0.000258511 -1.13169e-06
-5.45913e-07 -1.13169e-06 0.000110523
0.000812434 -5.7752e-05 -1.00221e-07
-5.7752e-05 0.00018163 -8.31792e-07
-1.00221e-07 -8.31792e-07 5.42031e-05
0.000857528 -3.37193e-05 -7.45648e-08
-3.37193e-05 0.000182079 1.44917e-06
-7.45648e-08 1.44917e-06 8.03778e-05
0.00083491 -5.31207e-05 2.101e-07
-5.31207e-05 0.000186444 -6.41814e-07
2.101e-07 -6.41814e-07 5.95638e-05
0.000758721 4.97499e-06 -3.29953e-07
4.97499e-06 0.000130552 -9.73841e-08
-3.29953e-07 -9.73841e-08 2.70416e-05
0.000405171 -4.66291e-05 4.29778e-07
-4.66291e-05 -7.90938e-05 1.24351e-06
4.29778e-07 1.24351e-06 -0.000171056
0.000625064 1.20443e-05 1.04536e-06
1.20443e-05 5.3552e-05 6.59016e-07
1.04536e-06 6.59016e-07 -4.71574e-05
0.000383484 -1.59168e-05 -1.9528e-06
-1.59168e-05 -6.69096e-05 -3.66867e-06
-1.9528e-06 -3.66867e-06 -0.000184006
0.000354533 -3.8647e-05 2.02923e-06
-3.8647e-05 -0.000106797 -9.04606e-07
2.02923e-06 -9.04606e-07 -0.000195516
0.00076263 -3.16031e-05 3.94237e-06
-3.16031e-05 9.57532e-05 -5.38033e-06
3.94237e-06 -5.38033e-06 -5.44827e-07
3.47028e-05 -4.56488e-05 4.69677e-07
-4.56488e-05 -0.000298615 1.28793e-06
4.69677e-07 1.28793e-06 -0.000449739
0.000341882 9.26549e-06 -6.13127e-07
9.26549e-06 -0.000107143 -7.10063e-07
-6.13127e-07 -7.10063e-07 -0.000217284
0.000723765 -4.59037e-06 2.2879e-07
-4.59037e-06 0.000105358 3.29873e-07
2.2879e-07 3.29873e-07 5.55169e-07
0.000643845 -1.03262e-05 1.13985e-07
-1.03262e-05 5.83312e-05 4.97767e-07
1.13985e-07 4.97767e-07 -3.55059e-05
0.000719735 -2.73994e-05 -1.73177e-07
-2.73994e-05 0.000115325 -6.75568e-08
-1.73177e-07 -6.75568e-08 1.251e-05
0.000578672 1.58363e-06 -6.12248e-07
1.58363e-06 1.61338e-05 8.84563e-07
-6.12248e-07 8.84563e-07 -6.41232e-05
0.000764366 -2.40038e-05 1.66163e-07
-2.40038e-05 0.000141561 -2.77973e-08
1.66163e-07 -2.77973e-08 3.60243e-05
0.000671552 -4.49262e-05 -4.54816e-07
-4.49262e-05 7.15111e-05 1.05928e-07
-4.54816e-07 1.05928e-07 -1.22153e-05
0.000572727 3.79095e-05 -8.93173e-07
3.79095e-05 -9.55165e-06 2.37589e-06
-8.93173e-07 2.37589e-06 -6.34115e-05
0.000553031 -6.88435e-05 1.74124e-06
-6.88435e-05 -2.87294e-06 -1.05117e-06
1.74124e-06 -1.05117e-06 -9.03911e-05
0.000603735 -2.8182e-06 -2.54288e-07
-2.8182e-06 9.80057e-06 -7.76991e-09
-2.54288e-07 -7.76991e-09 -4.26139e-05
0.00138041 2.24115e-05 -4.77009e-06
2.24115e-05 0.000452135 5.54088e-06
-4.77009e-06 5.54088e-06 0.000439704
0.00059098 -2.32621e-05 9.69408e-07
-2.32621e-05 9.30974e-06 -2.12945e-06
9.69408e-07 -2.12945e-06 -4.47959e-05
0.000951146 1.10984e-05 -2.71393e-06
1.10984e-05 0.000196831 7.50441e-07
-2.71393e-06 7.50441e-07 0.000182956
0.000766847 1.46627e-05 -1.02678e-07
1.46627e-05 8.44411e-05 2.01706e-06
-1.02678e-07 2.01706e-06 9.20559e-05
0.000549235 2.56895e-06 6.86273e-07
2.56895e-06 -4.2441e-05 -3.77005e-06
6.86273e-07 -3.77005e-06 -5.82542e-05
0.0023765 1.35856e-05 4.23028e-06
1.35856e-05 0.0010453 5.36241e-08
4.23028e-06 5.36241e-08 0.00106071
0.00237175 1.89545e-06 -5.45226e-07
1.89545e-06 0.00104226 -5.25308e-06
-5.45226e-07 -5.25308e-06 0.0010578
0.000996218 7.21009e-05 -1.00094e-06
7.21009e-05 0.000275457 -6.64984e-07
-1.00094e-06 -6.64984e-07 0.000194756
0.000604948 3.56781e-05 -1.12985e-06
3.56781e-05 1.53324e-05 -1.96885e-06
-1.12985e-06 -1.96885e-06 -2.64056e-05
0.000641453 -8.6665e-06 6.22605e-07
-8.6665e-06 6.94506e-05 8.83325e-07
6.22605e-07 8.83325e-07 -1.24235e-05
0.000595391 3.15185e-06 2.50013e-07
3.15185e-06 -2.18721e-05 -3.3047e-06
2.50013e-07 -3.3047e-06 -2.8683e-05
0.000597292 -1.20602e-05 1.96039e-07
-1.20602e-05 7.90518e-06 -2.66177e-08
1.96039e-07 -2.66177e-08 -3.12015e-05
0.000617013 -3.23013e-05 -1.49704e-06
-3.23013e-05 1.72211e-05 1.30072e-06
-1.49704e-06 1.30072e-06 -2.22878e-05
0.000577629 7.9146e-06 -2.14031e-07
7.9146e-06 -3.21658e-05 -2.10631e-08
-2.14031e-07 -2.10631e-08 -3.8887e-05
0.00201419 1.43697e-05 2.86002e-06
1.43697e-05 0.000829319 -4.62624e-06
2.86002e-06 -4.62624e-06 0.000848338
0.00115011 2.08221e-05 -7.00224e-07
2.08221e-05 0.000310299 1.82183e-06
-7.00224e-07 1.82183e-06 0.000306342
0.00139949 2.31043e-05 8.39139e-07
2.31043e-05 0.000463933 9.62509e-09
8.39139e-07 9.62509e-09 0.000478745
0.000863673 2.74647e-05 -1.27578e-05
2.74647e-05 0.000148422 7.02866e-06
-1.27578e-05 7.02866e-06 0.000158191
-0.008419 0.000425408 0.000215826
0.000425408 -0.00366622 4.03408e-06
0.000215826 4.03408e-06 -0.0046388
-0.00199602 3.49169e-05 0.000274218
3.49169e-05 0.0021188 -2.40616e-06
0.000274218 -2.40616e-06 0.000454229
0.0045004 0.000228992 -0.000223679
0.000228992 0.000229984 -2.02997e-05
-0.000223679 -2.02997e-05 0.000628927
0.000464622 4.50393e-05 2.90335e-05
4.50393e-05 -0.00099473 -9.99691e-06
2.90335e-05 -9.99691e-06 -0.000939748
0.00151917 -2.96698e-05 1.851e-05
-2.96698e-05 -0.000177476 -8.09845e-07
1.851e-05 -8.09845e-07 -0.000194513
0.000148677 5.38991e-05 -1.2001e-05
5.38991e-05 -0.000782448 -7.29757e-06
-1.2001e-05 -7.29757e-06 -0.000711286
0.00262147 -0.000121061 -1.52639e-06
-0.000121061 0.000255887 4.18483e-06
-1.52639e-06 4.18483e-06 0.000220442
0.00929333 0.000117943 5.41787e-05
0.000117943 0.00136914 -3.26206e-05
5.41787e-05 -3.26206e-05 0.000339842
-0.00319718 0.00115985 -2.44658e-05
0.00115985 -0.000761719 -1.49798e-05
-2.44658e-05 -1.49798e-05 -0.00206671
-0.000809655 0.0022443 -0.00014023
0.0022443 0.000527396 7.29943e-05
-0.00014023 7.29943e-05 0.00152121
0.00189636 -0.000254817 6.45044e-05
-0.000254817 -0.000674086 -3.73684e-06
6.45044e-05 -3.73684e-06 -0.000715256
0.0125272 -0.000429891 0.000101543
-0.000429891 0.00335324 -3.25891e-05
0.000101543 -3.25891e-05 0.00183794
0.00358834 0.00216629 0.000139939
0.00216629 0.000370681 -0.000272257
0.000139939 -0.000272257 0.000702292
0.0070309 0.00159394 -0.000214334
0.00159394 0.00104211 0.000132592
-0.000214334 0.000132592 0.00097512
0.000705659 8.66353e-05 -1.96841e-06
8.66353e-05 0.000135188 1.44507e-06
-1.96841e-06 1.44507e-06 6.73504e-06
0.000500413 1.58071e-05 -1.58781e-07
1.58071e-05 -1.31674e-05 -7.43085e-07
-1.58781e-07 -7.43085e-07 -0.000103901
0.000673986 -8.76971e-05 -1.03715e-06
-8.76971e-05 8.99387e-05 9.26109e-07
-1.03715e-06 9.26109e-07 8.49358e-06
0.000559268 -6.7911e-06 5.45622e-07
-6.7911e-06 2.53824e-05 -4.26097e-07
5.45622e-07 -4.26097e-07 -7.16623e-05
0.000633586 5.85426e-05 9.39637e-07
5.85426e-05 9.00396e-05 1.40797e-06
9.39637e-07 1.40797e-06 -2.11402e-05
0.000858835 6.60912e-05 1.67632e-07
6.60912e-05 0.000226843 2.25482e-06
1.67632e-07 2.25482e-06 9.60265e-05
0.000750429 8.90473e-05 1.58396e-06
8.90473e-05 0.00014681 1.89159e-06
1.58396e-06 1.89159e-06 3.13544e-05
0.000637383 1.69343e-05 2.90148e-06
1.69343e-05 6.40954e-05 9.96842e-08
2.90148e-06 9.96842e-08 -4.9421e-05
0.000703872 -2.37146e-05 1.22427e-06
-2.37146e-05 0.000122292 -9.25738e-07
1.22427e-06 -9.25738e-07 1.25571e-05
0.000522891 -8.37603e-06 -5.14477e-07
-8.37603e-06 -3.54909e-06 -3.71915e-07
-5.14477e-07 -3.71915e-07 -9.48652e-05
0.00160238 -0.000209965 1.96921e-05
-0.000209965 -0.000183388 -1.23411e-06
1.96921e-05 -1.23411e-06 -0.000113668
0.00141004 -0.000378712 2.38469e-05
-0.000378712 -0.000315505 -3.00006e-06
2.38469e-05 -3.00006e-06 -0.000314876
6.73425e-05 -0.000423407 1.43571e-05
-0.000423407 -0.000827541 3.86656e-06
1.43571e-05 3.86656e-06 -0.000973108
0.000221892 -0.000360096 4.91327e-06
-0.000360096 -0.000369574 -1.98232e-06
4.91327e-06 -1.98232e-06 -0.000606881
0.00235575 -0.000306712 2.06968e-06
-0.000306712 0.00121402 7.16595e-06
2.06968e-06 7.16595e-06 0.000843407
0.00103345 -0.000196339 2.52654e-06
-0.000196339 0.000381057 -1.41831e-06
2.52654e-06 -1.41831e-06 0.000153725
0.000998488 -9.25659e-05 -2.05394e-07
-9.25659e-05 0.000270456 -3.23862e-07
-2.05394e-07 -3.23862e-07 0.000160384
0.000704764 1.72032e-05 -1.58185e-06
1.72032e-05 0.00012793 1.63084e-06
-1.58185e-06 1.63084e-06 1.00444e-05
0.00196011 -0.000272339 6.29907e-06
-0.000272339 -1.35068e-05 -3.16908e-06
6.29907e-06 -3.16908e-06 2.93765e-05
0.000686247 -6.51457e-05 -2.69354e-07
-6.51457e-05 0.000126077 -2.80369e-07
-2.69354e-07 -2.80369e-07 -2.10543e-05
0.00030697 -8.84342e-05 7.3159e-07
-8.84342e-05 -5.8543e-05 -1.76035e-06
7.3159e-07 -1.76035e-06 -0.000225046
0.0021571 -0.000520378 7.18464e-06
-0.000520378 0.000206575 -6.5795e-07
7.18464e-06 -6.5795e-07 0.000173968
0.00133163 -0.000582541 6.66976e-07
-0.000582541 -7.87699e-05 3.93944e-06
6.66976e-07 3.93944e-06 -0.000250505
0.000505709 -0.000343529 8.03852e-06
-0.000343529 -9.17482e-05 -5.37151e-06
8.03852e-06 -5.37151e-06 -0.00033629
0.00149262 -0.000166397 -6.13751e-07
-0.000166397 0.000757584 -4.02865e-06
-6.13751e-07 -4.02865e-06 0.000427385
0.00208813 -0.000431991 -2.98009e-05
-0.000431991 0.000440797 4.887e-06
-2.98009e-05 4.887e-06 0.000164269
0.00152096 -0.000460359 -4.14537e-05
-0.000460359 0.000145063 7.72119e-06
-4.14537e-05 7.72119e-06 6.16627e-05
0.000106377 -0.000226842 -2.49036e-05
-0.000226842 -0.00015238 3.74034e-05
-2.49036e-05 3.74034e-05 -0.00043265
-0.000358741 -1.02954e-05 -2.26667e-07
-1.02954e-05 -0.000475466 2.1268e-06
-2.26667e-07 2.1268e-06 -0.000625403
0.00034566 -0.000114555 2.61518e-06
-0.000114555 -4.20149e-05 2.72659e-08
2.61518e-06 2.72659e-08 -0.000211779
0.00073547 -9.69449e-05 3.90411e-06
-9.69449e-05 0.00026562 -3.07286e-06
3.90411e-06 -3.07286e-06 1.74216e-05
-1.11418e-05 0.00029188 -0.000166897
0.00029188 0.00390773 6.35434e-06
-0.000166897 6.35434e-06 0.0020048
0.00170727 -0.000447279 1.55019e-05
-0.000447279 0.00139818 2.44935e-05
1.55019e-05 2.44935e-05 0.00135138
0.000990131 0.000738254 -6.30708e-05
0.000738254 -0.00315984 7.29759e-06
-6.30708e-05 7.29759e-06 -0.00363413
0.000659607 0.000161012 6.13658e-06
0.000161012 0.000125219 1.7617e-06
6.13658e-06 1.7617e-06 -1.82938e-05
0.000981284 0.00028341 6.46527e-06
0.00028341 0.000229194 9.58773e-06
6.46527e-06 9.58773e-06 -3.96623e-06
0.00292876 0.000446955 2.84997e-05
0.000446955 0.000699884 1.17408e-05
2.84997e-05 1.17408e-05 0.000721764
0.0022351 0.000521745 1.83626e-05
0.000521745 0.000717875 1.34073e-05
1.83626e-05 1.34073e-05 0.000427617
0.00729494 -0.000893926 7.54569e-05
-0.000893926 0.00266535 4.10383e-05
7.54569e-05 4.10383e-05 0.00286486
0.00280181 8.75425e-05 -0.00015859
8.75425e-05 -0.00192293 -9.68049e-06
-0.00015859 -9.68049e-06 -0.00366227
0.00290688 0.00129879 -6.88435e-05
0.00129879 -0.000396229 -1.22812e-05
-6.88435e-05 -1.22812e-05 -0.00106464
0.000443773 0.000279655 2.48745e-05
0.000279655 -0.000159181 -2.37791e-05
2.48745e-05 -2.37791e-05 -0.000149062
-0.00336022 -0.0010319 -0.000115498
-0.0010319 -0.000833956 -0.000141871
-0.000115498 -0.000141871 -0.00137895
-0.000791189 -0.000930869 -0.000103984
-0.000930869 0.00153033 -1.1376e-05
-0.000103984 -1.1376e-05 -0.000742517
0.00982549 -0.00194322 0.000233281
-0.00194322 0.00127283 0.000176558
0.000233281 0.000176558 0.00232035
0.000626056 0.00012813 7.00114e-06
0.00012813 0.000126498 -2.18708e-06
7.00114e-06 -2.18708e-06 -1.18813e-05
-0.00217074 9.30126e-05 -8.70125e-05
9.30126e-05 0.00221278 -2.45203e-05
-8.70125e-05 -2.45203e-05 -0.000244739
0.00362859 0.000378483 -2.04423e-05
0.000378483 0.00182419 -7.97332e-05
-2.04423e-05 -7.97332e-05 -0.00114054
0.00135988 0.000421097 -4.29231e-06
0.000421097 0.000150825 4.87085e-06
-4.29231e-06 4.87085e-06 0.000109093
0.000530585 0.000290935 1.83839e-06
0.000290935 7.41011e-05 2.11747e-06
1.83839e-06 2.11747e-06 -0.000174976
-0.000504228 0.000285007 1.73178e-05
0.000285007 -0.000315712 -3.8818e-05
1.73178e-05 -3.8818e-05 -0.000611116
0.00531733 0.00153371 -8.17538e-06
0.00153371 0.0018351 6.95664e-06
-8.17538e-06 6.95664e-06 0.00122295
0.0118706 0.000946175 6.07826e-05
0.000946175 0.00408651 2.22421e-05
6.07826e-05 2.22421e-05 0.00207114
0.0042241 -0.00137261 2.61735e-05
-0.00137261 -0.000243897 -4.61471e-05
2.61735e-05 -4.61471e-05 -0.000887285
0.00947369 -0.00124118 6.86797e-06
-0.00124118 0.00123458 -3.48648e-05
6.86797e-06 -3.48648e-05 0.0024123
0.000704401 0.000195545 -9.00409e-06
0.000195545 0.000223907 -1.03616e-05
-9.00409e-06 -1.03616e-05 8.61057e-05
0.00283737 7.91291e-05 -0.000120696
7.91291e-05 0.00107179 -3.03592e-05
-0.000120696 -3.03592e-05 -0.000782142
1.2214e-05 0.000100759 -3.39605e-05
0.000100759 8.0597e-05 -9.58653e-05
-3.39605e-05 -9.58653e-05 -0.00148852
-0.000904786 8.316e-05 -1.08425e-05
8.316e-05 -0.000415783 -1.79156e-05
-1.08425e-05 -1.79156e-05 -0.000578947
0.00149219 0.000373546 -4.25947e-05
0.000373546 0.000923394 4.21371e-05
-4.25947e-05 4.21371e-05 0.000210199
0.00967505 0.00135931 4.48187e-05
0.00135931 0.00384134 2.01967e-06
4.48187e-05 2.01967e-06 0.00076758
-0.00680048 -0.00200382 -4.12383e-05
-0.00200382 -0.00359161 0.000125946
-4.12383e-05 0.000125946 -0.00580287
0.00776033 0.000425173 1.94497e-05
0.000425173 -0.000954747 -0.000182512
1.94497e-05 -0.000182512 0.0010319
0.000972998 0.000108923 2.01944e-06
0.000108923 0.000265703 6.48959e-06
2.01944e-06 6.48959e-06 0.000173482
0.00106623 0.000132298 -5.4747e-06
0.000132298 0.000406888 -1.41927e-06
-5.4747e-06 -1.41927e-06 0.000291324
0.000335804 8.32042e-05 -1.95575e-06
8.32042e-05 0.000149318 -4.68578e-06
-1.95575e-06 -4.68578e-06 -3.7294e-05
0.000759185 7.89205e-05 -2.51173e-06
7.89205e-05 0.000137706 -9.28499e-07
-2.51173e-06 -9.28499e-07 1.64921e-05
0.000865676 -2.74226e-05 -9.45454e-07
-2.74226e-05 0.000201018 1.49806e-06
-9.45454e-07 1.49806e-06 7.09883e-05
0.000580766 3.86511e-05 9.80362e-07
3.86511e-05 1.60708e-05 2.351e-06
9.80362e-07 2.351e-06 -8.87472e-05
7.92543e-05 3.40361e-05 2.02213e-06
3.40361e-05 -0.000200155 3.23333e-06
2.02213e-06 3.23333e-06 -0.000304171
0.000822622 -4.6213e-06 1.08789e-06
-4.6213e-06 0.000168348 1.44571e-07
1.08789e-06 1.44571e-07 3.44533e-05
0.000849063 2.61577e-05 1.8839e-07
2.61577e-05 0.000189151 -9.94865e-07
1.8839e-07 -9.94865e-07 7.33232e-05
0.000257833 -9.21852e-06 1.08808e-06
-9.21852e-06 3.50547e-05 1.3686e-06
1.08808e-06 1.3686e-06 -0.000121082
-0.000844473 4.49204e-06 -2.34324e-06
4.49204e-06 -0.000380891 7.96136e-08
-2.34324e-06 7.96136e-08 -0.000613326
0.000947704 -4.25416e-06 -2.65501e-06
-4.25416e-06 0.000381838 -7.08467e-06
-2.65501e-06 -7.08467e-06 0.000242432
0.000958298 4.23514e-05 -1.62411e-06
4.23514e-05 0.000260239 -4.04032e-06
-1.62411e-06 -4.04032e-06 0.000125484
0.000886426 -0.000109007 1.55271e-06
-0.000109007 0.000204438 7.75544e-07
1.55271e-06 7.75544e-07 8.41592e-05
0.000750961 5.96455e-06 -4.71896e-07
5.96455e-06 0.000121959 -4.98308e-08
-4.71896e-07 -4.98308e-08 2.02632e-05
0.000640444 -5.61722e-05 -1.70665e-06
-5.61722e-05 6.21689e-05 3.23265e-06
-1.70665e-06 3.23265e-06 -2.84973e-05
0.000489321 -3.31091e-05 1.83317e-06
-3.31091e-05 -1.59376e-05 1.44651e-06
1.83317e-06 1.44651e-06 -0.000124804
0.000714422 7.47863e-06 3.17197e-07
7.47863e-06 0.000106345 -2.35648e-08
3.17197e-07 -2.35648e-08 3.83651e-06
0.000600958 -2.59314e-05 -7.20105e-07
-2.59314e-05 3.69466e-05 -2.6548e-08
-7.20105e-07 -2.6548e-08 -5.05808e-05
0.00096263 -2.24479e-05 -3.36317e-07
-2.24479e-05 0.000231116 -2.9737e-06
-3.36317e-07 -2.9737e-06 0.000138248
6.34063e-05 -3.89959e-05 3.39301e-06
-3.89959e-05 -0.000216521 -4.36364e-06
3.39301e-06 -4.36364e-06 -0.000296527
0.000283963 -9.53934e-05 1.40696e-06
-9.53934e-05 -0.000236572 -6.75554e-07
1.40696e-06 -6.75554e-07 -0.000331909
0.000820415 -6.02359e-05 -2.70491e-06
-6.02359e-05 0.000135646 -3.90566e-07
-2.70491e-06 -3.90566e-07 3.45838e-05
0.000524706 -0.000101394 5.08894e-06
-0.000101394 -2.45737e-05 3.42496e-06
5.08894e-06 3.42496e-06 -0.000167502
0.00119395 -0.000242589 -1.98358e-06
-0.000242589 0.000327125 7.70457e-06
-1.98358e-06 7.70457e-06 0.000104375
0.00131157 -0.000119061 1.51537e-06
-0.000119061 0.00047223 -1.15725e-06
1.51537e-06 -1.15725e-06 0.000333948
0.00029397 -7.50371e-05 -2.0395e-06
-7.50371e-05 -0.000132023 -4.81945e-06
-2.0395e-06 -4.81945e-06 -0.000283878
0.000648846 -8.22872e-06 -2.62627e-07
-8.22872e-06 6.39474e-05 -6.56362e-08
-2.62627e-07 -6.56362e-08 -4.44663e-05
0.00036325 -6.07251e-07 3.07895e-07
-6.07251e-07 -9.45394e-05 -8.81901e-10
3.07895e-07 -8.81901e-10 -0.000197354
0.000851429 -1.74147e-05 -6.97419e-07
-1.74147e-05 0.000179226 8.87589e-07
-6.97419e-07 8.87589e-07 7.21091e-05
0.000735733 -3.75285e-05 -5.62556e-07
-3.75285e-05 0.000122715 6.42105e-07
-5.62556e-07 6.42105e-07 1.91881e-05
0.000616331 -1.89083e-05 -5.77548e-07
-1.89083e-05 3.40283e-05 9.32855e-07
-5.77548e-07 9.32855e-07 -4.51064e-05
0.000836662 -5.61965e-05 -1.68179e-07
-5.61965e-05 0.000196721 -6.51201e-07
-1.68179e-07 -6.51201e-07 8.28736e-05
0.000678236 -5.13994e-05 -5.87348e-07
-5.13994e-05 7.59713e-05 -3.5881e-08
-5.87348e-07 -3.5881e-08 -6.78724e-06
0.000591771 2.97094e-05 -1.96387e-06
2.97094e-05 5.25639e-07 1.87835e-06
-1.96387e-06 1.87835e-06 -5.3402e-05
0.00071189 -8.25753e-05 1.86439e-06
-8.25753e-05 9.84699e-05 -1.18251e-06
1.86439e-06 -1.18251e-06 1.19018e-05
0.000644198 -1.14597e-05 -2.59561e-07
-1.14597e-05 2.91233e-05 4.01684e-08
-2.59561e-07 4.01684e-08 -2.28176e-05
0.00137275 3.22548e-05 -7.41084e-06
3.22548e-05 0.000447504 5.52738e-06
-7.41084e-06 5.52738e-06 0.000434599
0.000616763 -3.04299e-05 1.96948e-06
-3.04299e-05 1.97003e-05 -2.20547e-06
1.96948e-06 -2.20547e-06 -3.42e-05
0.000956798 1.9628e-05 -3.63276e-06
1.9628e-05 0.000199275 7.11633e-07
-3.63276e-06 7.11633e-07 0.000185012
0.000776352 2.33184e-05 -3.91261e-07
2.33184e-05 9.289e-05 2.11202e-06
-3.91261e-07 2.11202e-06 9.92631e-05
0.000546162 8.13196e-06 4.89962e-07
8.13196e-06 -4.56692e-05 -3.89235e-06
4.89962e-07 -3.89235e-06 -6.13912e-05
0.001561 2.3015e-05 5.73446e-06
2.3015e-05 0.000559224 -1.49059e-06
5.73446e-06 -1.49059e-06 0.000570529
0.00235684 1.60362e-05 4.2657e-06
1.60362e-05 0.00103372 -5.15173e-06
4.2657e-06 -5.15173e-06 0.00104916
0.000698805 9.52446e-06 1.36708e-06
9.52446e-06 8.99065e-05 -1.44838e-06
1.36708e-06 -1.44838e-06 5.92462e-06
0.000648163 3.11709e-05 -6.26472e-07
3.11709e-05 3.82185e-05 -1.85907e-06
-6.26472e-07 -1.85907e-06 -5.37099e-06
0.000696716 -3.15986e-06 1.1691e-06
-3.15986e-06 9.56804e-05 3.18262e-07
1.1691e-06 3.18262e-07 1.53997e-05
0.000583474 -2.43364e-06 3.90081e-07
-2.43364e-06 -2.81538e-05 -3.47679e-06
3.90081e-07 -3.47679e-06 -3.58503e-05
0.000597057 2.42243e-05 7.2654e-08
2.42243e-05 8.99832e-06 -2.73821e-08
7.2654e-08 -2.73821e-08 -3.1733e-05
0.000655259 -8.95648e-05 -3.53148e-06
-8.95648e-05 7.1929e-05 1.41665e-06
-3.53148e-06 1.41665e-06 -5.67959e-06
0.00202897 1.75646e-06 -1.88658e-06
1.75646e-06 0.0008368 -4.7372e-06
-1.88658e-06 -4.7372e-06 0.000856097
0.000578294 2.75118e-06 -1.8237e-07
2.75118e-06 -3.16632e-05 -7.54782e-09
-1.8237e-07 -7.54782e-09 -3.8453e-05
0.000593234 -2.04273e-05 -1.51705e-06
-2.04273e-05 4.29537e-06 1.61791e-06
-1.51705e-06 1.61791e-06 -3.41297e-05
0.000560616 7.6495e-06 -5.49664e-07
7.6495e-06 -4.22796e-05 3.18107e-06
-5.49664e-07 3.18107e-06 -4.89577e-05
0.00203483 1.58402e-05 -3.87314e-06
1.58402e-05 0.000841809 -4.75268e-08
-3.87314e-06 -4.75268e-08 0.000860699
0.00202308 2.78886e-05 -9.50502e-06
2.78886e-05 0.000837072 4.33765e-06
-9.50502e-06 4.33765e-06 0.000855342
-0.00444324 -0.00041704 -5.41856e-05
-0.00041704 0.00167541 2.04381e-05
-5.41856e-05 2.04381e-05 -0.000679072
-0.00061116 0.000529643 -8.55421e-05
0.000529643 -0.000390583 2.08837e-05
-8.55421e-05 2.08837e-05 -0.000998407
0.00363456 -0.000414352 -0.000267589
-0.000414352 0.00115544 0.000173397
-0.000267589 0.000173397 -0.00144288
-0.00300715 9.3308e-05 0.000380318
9.3308e-05 0.0021422 -0.000163442
0.000380318 -0.000163442 0.000466978
0.000291559 0.000274092 -2.12023e-05
0.000274092 -0.00128643 3.58453e-06
-2.12023e-05 3.58453e-06 -0.00124629
0.00247276 -0.000175351 0.000100217
-0.000175351 9.46654e-05 -8.82347e-06
0.000100217 -8.82347e-06 8.81144e-05
0.00100669 -0.000408758 -1.24787e-05
-0.000408758 -0.00228806 -6.56815e-05
-1.24787e-05 -6.56815e-05 -0.00377084
0.0107441 0.00114817 -0.000135685
0.00114817 0.00523058 -1.80446e-05
-0.000135685 -1.80446e-05 0.00450772
-0.00760854 0.00251633 -0.000653992
0.00251633 -0.00336825 0.000505764
-0.000653992 0.000505764 -0.00184473
0.00281351 -0.000123414 -3.29093e-06
-0.000123414 -0.000250988 -4.90398e-06
-3.29093e-06 -4.90398e-06 -0.000323188
0.00502221 -0.000498364 5.426e-05
-0.000498364 -0.000207313 -6.10614e-05
5.426e-05 -6.10614e-05 -0.00235547
0.011328 0.00209213 -8.77409e-05
0.00209213 0.00349727 -8.24112e-05
-8.77409e-05 -8.24112e-05 0.00388097
0.00412087 0.00156029 -7.25094e-05
0.00156029 -0.00100551 0.000184138
-7.25094e-05 0.000184138 -0.000942179
0.0030284 -0.000719611 -7.09642e-05
-0.000719611 -0.000634806 1.90983e-05
-7.09642e-05 1.90983e-05 -0.000581801
0.00297502 -0.00102137 0.00020704
-0.00102137 0.000126034 -0.000132413
0.00020704 -0.000132413 -0.0032292
-0.00422965 0.00118979 -6.94637e-05
0.00118979 -0.00399869 -0.000342561
-6.94637e-05 -0.000342561 -0.00432161
0.00391964 0.000881882 -9.12701e-05
0.000881882 -0.00298377 5.68717e-06
-9.12701e-05 5.68717e-06 -0.00175872
0.00103949 -2.73845e-05 7.74518e-07
-2.73845e-05 0.000344474 3.97947e-06
7.74518e-07 3.97947e-06 0.000194081
0.000681574 7.40882e-05 -1.75186e-06
7.40882e-05 0.000113708 -1.26593e-06
-1.75186e-06 -1.26593e-06 -7.40352e-06
0.000639215 6.56714e-05 -3.84271e-09
6.56714e-05 6.45021e-05 -1.48733e-06
-3.84271e-09 -1.48733e-06 -2.22254e-05
0.000651881 6.24142e-05 3.34859e-06
6.24142e-05 0.00010456 6.22278e-07
3.34859e-06 6.22278e-07 -5.39928e-06
0.000635422 4.79235e-05 9.83937e-07
4.79235e-05 8.0363e-05 1.38919e-06
9.83937e-07 1.38919e-06 -6.5585e-05
0.000722406 6.55913e-05 -1.24672e-07
6.55913e-05 0.000141401 1.3857e-06
-1.24672e-07 1.3857e-06 1.59731e-05
0.000600617 2.84468e-05 5.6265e-08
2.84468e-05 5.93009e-05 -1.10352e-07
5.6265e-08 -1.10352e-07 -5.30765e-05
0.000881174 0.000128665 1.25403e-06
0.000128665 0.000231937 1.78611e-06
1.25403e-06 1.78611e-06 9.59581e-05
0.00083627 8.14918e-05 -8.6818e-08
8.14918e-05 0.000205247 3.63092e-07
-8.6818e-08 3.63092e-07 7.71034e-05
0.000510777 -7.30585e-06 -3.16244e-06
-7.30585e-06 6.9437e-06 -1.64446e-06
-3.16244e-06 -1.64446e-06 -0.000103753
0.000684017 -0.000212275 3.94405e-05
-0.000212275 -0.000671719 -1.86172e-05
3.94405e-05 -1.86172e-05 -0.000611203
0.000972817 -0.00045858 3.16086e-05
-0.00045858 -0.000422569 -4.34371e-06
3.16086e-05 -4.34371e-06 -0.000455534
0.00190182 -0.000641176 1.61644e-05
-0.000641176 0.000204925 2.04443e-06
1.61644e-05 2.04443e-06 2.89271e-05
0.000368984 -0.000378026 6.05174e-06
-0.000378026 -0.000174939 -1.24733e-05
6.05174e-06 -1.24733e-05 -0.000452836
0.00196955 -0.000202393 -2.46656e-06
-0.000202393 0.00097905 1.44803e-05
-2.46656e-06 1.44803e-05 0.000683918
0.000626804 -9.76394e-05 -1.1943e-06
-9.76394e-05 0.000131863 2.60776e-06
-1.1943e-06 2.60776e-06 -4.08771e-05
0.000471273 7.44051e-05 -1.82229e-07
7.44051e-05 4.69948e-06 -3.01401e-06
-1.82229e-07 -3.01401e-06 -0.000144225
0.000682807 -5.83641e-05 -5.60974e-07
-5.83641e-05 0.000137218 3.15927e-06
-5.60974e-07 3.15927e-06 -2.81218e-05
0.00138918 -0.000348356 1.2178e-06
-0.000348356 -5.12657e-06 -1.25874e-06
1.2178e-06 -1.25874e-06 -0.000163257
0.000693365 -2.5409e-05 -4.77115e-09
-2.5409e-05 0.000149252 1.26322e-06
-4.77115e-09 1.26322e-06 -2.07586e-05
0.00148637 -0.000150806 -2.65802e-07
-0.000150806 0.000699842 -3.81453e-07
-2.65802e-07 -3.81453e-07 0.000443079
0.00155752 -0.000475436 2.10007e-06
-0.000475436 0.000123641 1.71063e-06
2.10007e-06 1.71063e-06 5.71821e-05
0.000840497 -0.000316005 -1.68698e-05
-0.000316005 0.000225704 4.68711e-06
-1.68698e-05 4.68711e-06 -5.33794e-05
0.000930294 -0.000568118 -9.87231e-06
-0.000568118 -0.000290949 -2.47684e-05
-9.87231e-06 -2.47684e-05 -0.000283935
0.00120442 -0.000279852 -1.89122e-05
-0.000279852 0.000448297 1.63086e-05
-1.89122e-05 1.63086e-05 0.00032311
-0.000989511 -3.39531e-05 3.14794e-06
-3.39531e-05 -0.000635795 2.07498e-05
3.14794e-06 2.07498e-05 -0.000928094
0.000714229 1.09687e-05 -7.18515e-07
1.09687e-05 0.000130662 -4.32771e-06
-7.18515e-07 -4.32771e-06 -2.02712e-05
0.000641919 4.16084e-05 2.62162e-06
4.16084e-05 0.000204313 -1.82341e-06
2.62162e-06 -1.82341e-06 -2.22162e-05
0.00174421 -5.06282e-05 -1.92865e-05
-5.06282e-05 0.00116785 -5.24738e-06
-1.92865e-05 -5.24738e-06 -0.000598139
-0.0027383 0.000112429 -0.00013417
0.000112429 0.00300671 -5.58826e-06
-0.00013417 -5.58826e-06 0.000692722
-0.0098526 -0.000644927 -0.000311893
-0.000644927 -0.00522095 2.46635e-06
-0.000311893 2.46635e-06 -0.00501379
-0.000236185 9.3977e-05 6.18118e-06
9.3977e-05 -0.000345941 -2.2794e-06
6.18118e-06 -2.2794e-06 -0.000496981
-8.18375e-05 0.000184332 2.18564e-06
0.000184332 -0.000236825 4.52255e-06
2.18564e-06 4.52255e-06 -0.000482328
0.00149373 0.000403485 2.01469e-05
0.000403485 0.000219573 7.92294e-06
2.01469e-05 7.92294e-06 0.000185914
-0.00401944 0.000508799 -1.78149e-05
0.000508799 0.0015162 1.68408e-05
-1.78149e-05 1.68408e-05 -0.00105228
0.00133707 0.000854772 -9.49668e-05
0.000854772 -9.13725e-05 -9.68089e-05
-9.49668e-05 -9.68089e-05 -0.00348135
0.00291494 0.00112924 0.000167297
0.00112924 0.000485699 4.10463e-05
0.000167297 4.10463e-05 4.87359e-05
0.000251597 0.000338932 7.29143e-06
0.000338932 -6.70145e-05 -2.78282e-05
7.29143e-06 -2.78282e-05 -0.000133267
0.0129554 -0.00151436 -3.9643e-06
-0.00151436 0.00375348 -0.000120192
-3.9643e-06 -0.000120192 0.00334377
0.00411438 0.000413705 0.00015168
0.000413705 0.00192346 7.69847e-05
0.00015168 7.69847e-05 -0.00114103
0.00964644 -0.00109654 6.4057e-05
-0.00109654 0.00147373 1.77274e-05
6.4057e-05 1.77274e-05 0.00271911
0.000864967 0.000204122 1.53594e-06
0.000204122 0.000367672 -2.16793e-06
1.53594e-06 -2.16793e-06 0.00022141
0.00340901 9.49069e-05 1.06851e-05
9.49069e-05 0.00157521 -5.02032e-07
1.06851e-05 -5.02032e-07 4.04024e-05
0.000555265 0.000122026 1.66476e-05
0.000122026 0.000114297 1.06158e-05
1.66476e-05 1.06158e-05 -0.00149228
-0.000281063 0.000212923 -7.19246e-06
0.000212923 -0.000153837 -1.70692e-06
-7.19246e-06 -1.70692e-06 -0.00035804
0.00214069 0.000617887 -7.71203e-05
0.000617887 0.00103072 -3.90138e-05
-7.71203e-05 -3.90138e-05 0.000170543
0.00285811 0.00173221 8.22598e-05
0.00173221 0.000988823 5.93548e-05
8.22598e-05 5.93548e-05 -0.00226662
0.00594511 0.000167373 -1.09418e-05
0.000167373 -0.00248093 -0.000116614
-1.09418e-05 -0.000116614 -0.000170921
0.00218166 -0.00125432 -3.43042e-05
-0.00125432 0.000540562 -4.7839e-05
-3.43042e-05 -4.7839e-05 -0.00122836
0.000934302 0.00016195 -5.79663e-06
0.00016195 0.000602371 -1.21109e-05
-5.79663e-06 -1.21109e-05 0.000433159
0.000362406 -5.88189e-05 -3.46833e-06
-5.88189e-05 3.4996e-05 -7.41066e-06
-3.46833e-06 -7.41066e-06 5.27825e-05
0.00274262 1.72828e-05 3.04473e-05
1.72828e-05 0.00027361 -8.53835e-05
3.04473e-05 -8.53835e-05 -0.000867413
0.0040182 0.000917818 9.55427e-05
0.000917818 -0.00281896 -1.09701e-05
9.55427e-05 -1.09701e-05 -0.00175854
-0.000703271 0.000114483 -2.93495e-06
0.000114483 1.57264e-05 -1.82294e-05
-2.93495e-06 -1.82294e-05 -0.000511721
0.0105391 0.00131371 0.000131114
0.00131371 0.00515899 4.91517e-05
0.000131114 4.91517e-05 0.00145486
-0.00880224 -0.000357569 7.19363e-05
-0.000357569 -0.000491327 0.000204044
7.19363e-05 0.000204044 -0.00253434
0.00203845 0.000223431 1.85199e-05
0.000223431 0.000982171 1.05629e-05
1.85199e-05 1.05629e-05 0.000849529
0.000563138 0.000121057 -4.42748e-06
0.000121057 0.000253923 -9.8972e-07
-4.42748e-06 -9.8972e-07 5.76129e-05
8.34158e-05 6.71983e-05 -1.35311e-06
6.71983e-05 0.000190535 -1.77193e-06
-1.35311e-06 -1.77193e-06 -3.32224e-05
0.000746368 0.000135308 5.75655e-07
0.000135308 0.000134551 1.22396e-06
5.75655e-07 1.22396e-06 -5.30297e-06
0.000714967 6.48664e-05 1.04448e-06
6.48664e-05 0.000105735 2.33166e-06
1.04448e-06 2.33166e-06 -5.81467e-06
0.000856081 2.77409e-07 7.28773e-06
2.77409e-07 0.000400874 6.73304e-06
7.28773e-06 6.73304e-06 0.000227636
0.000661316 4.46012e-05 -2.00008e-07
4.46012e-05 7.97259e-05 -2.76056e-07
-2.00008e-07 -2.76056e-07 -4.65519e-05
0.000805317 -2.00082e-05 -1.29689e-06
-2.00082e-05 0.000305002 -1.84295e-06
-1.29689e-06 -1.84295e-06 0.000162608
-0.000241433 2.97348e-05 3.97974e-06
2.97348e-05 -4.49496e-05 4.13648e-06
3.97974e-06 4.13648e-06 -0.000284877
0.000796228 6.89771e-06 -7.94373e-06
6.89771e-06 0.000459903 -7.14702e-06
-7.94373e-06 -7.14702e-06 0.000341297
0.00014691 -3.89669e-05 -3.97415e-06
-3.89669e-05 -8.82838e-05 -8.29937e-06
-3.97415e-06 -8.29937e-06 -0.000214188
0.00057967 -4.77381e-05 2.63072e-06
-4.77381e-05 2.49041e-05 3.82968e-06
2.63072e-06 3.82968e-06 -7.47791e-05
0.00079019 8.10568e-06 -8.80041e-07
8.10568e-06 0.000150931 6.18702e-08
-8.80041e-07 6.18702e-08 4.69258e-05
0.000909774 -2.06641e-05 -6.4108e-06
-2.06641e-05 0.000216417 4.24698e-06
-6.4108e-06 4.24698e-06 0.000129501
0.000680871 -4.68603e-05 3.55896e-06
-4.68603e-05 0.000134366 -2.24229e-07
3.55896e-06 -2.24229e-07 5.27485e-05
0.000601272 -1.26259e-05 -7.2357e-07
-1.26259e-05 2.61724e-05 1.78974e-07
-7.2357e-07 1.78974e-07 -6.8036e-05
0.000763053 -9.04168e-05 3.22843e-06
-9.04168e-05 0.000147698 -3.4901e-07
3.22843e-06 -3.4901e-07 5.10781e-05
0.000391211 -8.4616e-05 -2.46747e-06
-8.4616e-05 -0.000138974 -1.12047e-06
-2.46747e-06 -1.12047e-06 -0.000221106
-0.000175323 -0.000157567 7.8614e-06
-0.000157567 -0.000446901 1.2285e-06
7.8614e-06 1.2285e-06 -0.000626684
0.000891074 -8.55867e-05 -8.854e-07
-8.55867e-05 0.000183758 9.8493e-07
-8.854e-07 9.8493e-07 7.72178e-05
0.00115359 -0.000165726 -5.8977e-07
-0.000165726 0.000330818 2.68476e-06
-5.8977e-07 2.68476e-06 0.000174831
0.000801098 -0.000238048 -3.95219e-06
-0.000238048 5.54614e-05 4.98762e-06
-3.95219e-06 4.98762e-06 -0.000168725
0.000952187 -0.000228703 -4.24306e-06
-0.000228703 0.000145532 4.59522e-07
-4.24306e-06 4.59522e-07 -7.65309e-05
0.00102639 -0.000185732 -2.15447e-06
-0.000185732 0.000319545 4.33714e-06
-2.15447e-06 4.33714e-06 0.000137404
0.000373255 -0.000158854 1.99852e-06
-0.000158854 -0.000149127 -9.11152e-08
1.99852e-06 -9.11152e-08 -0.000355707
0.000912356 -7.37877e-05 1.23203e-06
-7.37877e-05 0.000228377 -1.45114e-07
1.23203e-06 -1.45114e-07 0.000106182
0.0010391 -0.00011118 -1.48154e-06
-0.00011118 0.00032138 -4.02785e-07
-1.48154e-06 -4.02785e-07 0.000179198
0.000461443 -9.66366e-05 3.55068e-06
-9.66366e-05 -2.03332e-05 -1.0324e-05
3.55068e-06 -1.0324e-05 -0.000170849
0.000945951 -2.58196e-05 -5.22876e-07
-2.58196e-05 0.000229476 -3.21422e-07
-5.22876e-07 -3.21422e-07 0.000122873
0.000488927 -9.12786e-06 3.29239e-07
-9.12786e-06 -1.8459e-05 -1.11406e-07
3.29239e-07 -1.11406e-07 -0.000123381
0.000615255 -7.5346e-06 -3.14893e-07
-7.5346e-06 3.42656e-05 6.98829e-07
-3.14893e-07 6.98829e-07 -5.01063e-05
0.000800172 -5.40971e-05 -1.70642e-07
-5.40971e-05 0.000170614 2.46643e-07
-1.70642e-07 2.46643e-07 5.80804e-05
0.000678212 -3.35479e-05 -1.14508e-07
-3.35479e-05 7.83007e-05 5.1895e-08
-1.14508e-07 5.1895e-08 -7.34553e-06
0.000594146 2.96829e-05 -4.84564e-07
2.96829e-05 7.12753e-06 1.93182e-06
-4.84564e-07 1.93182e-06 -5.06681e-05
0.000735804 -6.70108e-05 5.78152e-07
-6.70108e-05 0.00011711 -1.233e-06
5.78152e-07 -1.233e-06 2.8647e-05
0.000617561 2.10339e-05 -9.66223e-07
2.10339e-05 1.6275e-05 -6.16897e-08
-9.66223e-07 -6.16897e-08 -3.83861e-05
0.00133373 4.50298e-05 -8.41552e-06
4.50298e-05 0.000427451 3.67778e-06
-8.41552e-06 3.67778e-06 0.000413602
0.000651324 -2.3262e-05 2.26755e-06
-2.3262e-05 3.44712e-05 -2.20547e-06
2.26755e-06 -2.20547e-06 -1.83369e-05
0.000939063 2.90437e-05 -4.57888e-06
2.90437e-05 0.000189058 6.30473e-07
-4.57888e-06 6.30473e-07 0.000174309
0.000801428 3.20796e-05 -1.00264e-06
3.20796e-05 0.000111153 2.17141e-06
-1.00264e-06 2.17141e-06 0.000116325
0.000530146 1.52505e-05 8.03408e-07
1.52505e-05 -5.64248e-05 -4.11524e-06
8.03408e-07 -4.11524e-06 -7.23506e-05
0.00157072 3.45225e-05 7.80471e-06
3.45225e-05 0.000567701 -1.35202e-06
7.80471e-06 -1.35202e-06 0.000577897
0.00235448 3.07568e-05 7.89055e-06
3.07568e-05 0.00103397 -5.06894e-06
7.89055e-06 -5.06894e-06 0.00104879
0.000445041 5.47471e-06 9.09148e-07
5.47471e-06 -4.96631e-05 -6.09983e-07
9.09148e-07 -6.09983e-07 -0.000152499
0.000316695 4.10973e-06 -1.04838e-08
4.10973e-06 -0.000158338 -3.26844e-06
-1.04838e-08 -3.26844e-06 -0.000209985
0.000741625 1.99013e-05 2.34283e-08
1.99013e-05 0.000121167 1.20606e-07
2.34283e-08 1.20606e-07 3.26628e-05
0.00057837 -7.44162e-06 3.38671e-07
-7.44162e-06 -3.09666e-05 -3.65181e-06
3.38671e-07 -3.65181e-06 -4.04066e-05
0.000448897 3.35234e-06 1.12274e-06
3.35234e-06 -8.0854e-05 -7.5268e-08
1.12274e-06 -7.5268e-08 -0.000125141
0.000435729 -8.04794e-05 -1.42535e-06
-8.04794e-05 -5.79938e-05 8.07125e-07
-1.42535e-06 8.07125e-07 -0.000141073
0.00209205 -1.13428e-05 -6.26325e-06
-1.13428e-05 0.000874518 -4.78854e-06
-6.26325e-06 -4.78854e-06 0.000893247
0.000579155 -2.52011e-06 -1.04826e-07
-2.52011e-06 -3.08906e-05 -4.47028e-08
-1.04826e-07 -4.47028e-08 -3.84896e-05
0.000577669 -1.26417e-05 -1.61719e-06
-1.26417e-05 -3.93966e-06 1.8269e-06
-1.61719e-06 1.8269e-06 -4.36795e-05
0.00204135 3.12822e-06 -3.88284e-06
3.12822e-06 0.000844322 1.11792e-08
-3.88284e-06 1.11792e-08 0.000863559
0.000562467 2.50501e-06 -4.36956e-07
2.50501e-06 -4.07012e-05 3.2871e-06
-4.36956e-07 3.2871e-06 -4.74757e-05
0.00203186 1.72342e-05 -2.47266e-06
1.72342e-05 0.00084017 4.5322e-06
-2.47266e-06 4.5322e-06 0.000859009
0.000407741 -0.000191427 -9.96082e-05
-0.000191427 -0.00017634 2.97089e-05
-9.96082e-05 2.97089e-05 -0.00175681
0.00145525 0.00016919 -3.04695e-05
0.00016919 0.00361053 -7.23762e-06
-3.04695e-05 -7.23762e-06 0.00209738
0.00109164 -0.000340904 -0.000278384
-0.000340904 0.00207103 7.70163e-06
-0.000278384 7.70163e-06 0.00109023
0.000759714 8.17681e-05 1.90273e-06
8.17681e-05 0.000139478 5.41519e-07
1.90273e-06 5.41519e-07 7.73122e-06
0.00361325 -0.000264883 -3.11565e-05
-0.000264883 0.00233512 9.68157e-05
-3.11565e-05 9.68157e-05 0.00101043
0.00361527 -0.000465739 -0.000102248
-0.000465739 0.00124153 7.86789e-06
-0.000102248 7.86789e-06 -0.00159811
0.00249886 0.000728271 0.00019366
0.000728271 0.00340567 -0.000168473
0.00019366 -0.000168473 0.00219927
0.00391989 -0.000244301 2.82839e-05
-0.000244301 0.000175961 -3.38853e-05
2.82839e-05 -3.38853e-05 -0.000105405
0.0116202 -0.000464396 0.000119583
-0.000464396 0.00304687 -6.30854e-05
0.000119583 -6.30854e-05 0.00141192
-0.00190469 0.00170739 -0.000139559
0.00170739 -0.00359457 0.000157767
-0.000139559 0.000157767 -0.00299469
0.00569362 0.00168779 4.00488e-05
0.00168779 0.000249125 5.05383e-05
4.00488e-05 5.05383e-05 8.06328e-05
0.0049314 -0.000849684 -8.88252e-05
-0.000849684 0.00023664 -1.20451e-06
-8.88252e-05 -1.20451e-06 -0.00014258
0.0108387 -0.000891529 5.66028e-05
-0.000891529 0.00389217 -1.46415e-05
5.66028e-05 -1.46415e-05 0.00173964
0.00688651 0.00111508 7.13003e-05
0.00111508 0.000665933 -0.000130034
7.13003e-05 -0.000130034 0.000143709
0.00570256 0.000810327 -3.92651e-06
0.000810327 -0.00159111 1.22428e-05
-3.92651e-06 1.22428e-05 -0.000648565
0.00380263 -0.00130067 2.15922e-05
-0.00130067 0.000339522 2.97262e-06
2.15922e-05 2.97262e-06 -0.000448434
0.0114329 -0.00148158 9.947e-05
-0.00148158 0.0053806 -5.15648e-05
9.947e-05 -5.15648e-05 0.00167486
0.00373993 -0.000126262 7.14315e-05
-0.000126262 0.000533412 -0.000195369
7.14315e-05 -0.000195369 -3.72393e-05
0.00746685 0.000420412 -4.66126e-05
0.000420412 -0.000918955 0.000110293
-4.66126e-05 0.000110293 0.000953673
0.000678255 -2.20507e-05 1.14816e-06
-2.20507e-05 0.000116756 2.05545e-06
1.14816e-06 2.05545e-06 -3.77442e-05
0.000823018 -6.23159e-05 -1.92602e-07
-6.23159e-05 0.00022064 -5.05315e-08
-1.92602e-07 -5.05315e-08 6.57646e-05
0.000804993 9.71296e-05 -5.44641e-07
9.71296e-05 0.000191777 -2.37509e-06
-5.44641e-07 -2.37509e-06 6.82979e-05
0.000732153 4.71864e-05 7.95167e-07
4.71864e-05 0.00011337 2.58896e-06
7.95167e-07 2.58896e-06 -1.5754e-05
0.000814061 9.74994e-05 -5.02988e-07
9.74994e-05 0.000195497 7.30564e-07
-5.02988e-07 7.30564e-07 4.8503e-05
0.00089004 6.25665e-05 -1.6706e-06
6.25665e-05 0.000239729 -8.96446e-08
-1.6706e-06 -8.96446e-08 0.000115588
0.000991285 0.000119992 -9.40498e-07
0.000119992 0.000294702 -1.09642e-07
-9.40498e-07 -1.09642e-07 0.000159271
0.000972864 0.000127219 7.67088e-07
0.000127219 0.000296906 2.48668e-06
7.67088e-07 2.48668e-06 0.000162817
0.000353191 -0.000239195 5.0949e-05
-0.000239195 -0.000627651 -2.16075e-05
5.0949e-05 -2.16075e-05 -0.000639931
0.00182522 -0.000496274 1.06942e-05
-0.000496274 0.000236924 -1.11347e-05
1.06942e-05 -1.11347e-05 0.000180822
0.000890099 -0.000175736 -7.89887e-07
-0.000175736 0.000267512 -3.14323e-06
-7.89887e-07 -3.14323e-06 9.31163e-05
0.0019407 -0.000404636 1.81728e-05
-0.000404636 0.000822172 -2.20986e-05
1.81728e-05 -2.20986e-05 0.000544708
0.00226155 -0.000207179 -4.72435e-06
-0.000207179 0.00113961 5.59054e-06
-4.72435e-06 5.59054e-06 0.000878815
0.0010003 -7.65293e-05 -1.71077e-06
-7.65293e-05 0.000318875 -4.577e-06
-1.71077e-06 -4.577e-06 0.000148604
0.000560343 -5.98093e-06 7.92385e-07
-5.98093e-06 4.92526e-05 2.55914e-06
7.92385e-07 2.55914e-06 -0.000105777
0.000230127 -0.000521571 -6.10956e-06
-0.000521571 -0.000679881 -7.29738e-07
-6.10956e-06 -7.29738e-07 -0.000645333
0.00126845 4.96929e-05 2.55852e-07
4.96929e-05 0.000566624 4.34221e-07
2.55852e-07 4.34221e-07 0.000332929
0.000921052 -0.000172367 -1.51705e-05
-0.000172367 0.000395191 3.24999e-06
-1.51705e-05 3.24999e-06 0.000127181
0.000526578 -0.000192764 1.08269e-05
-0.000192764 3.8538e-05 4.17092e-06
1.08269e-05 4.17092e-06 -3.57737e-05
0.000951947 6.23671e-05 1.90746e-06
6.23671e-05 0.000252368 -2.75758e-06
1.90746e-06 -2.75758e-06 0.000114699
0.00124008 -0.000443048 1.89722e-05
-0.000443048 -1.1798e-05 -3.52818e-05
1.89722e-05 -3.52818e-05 0.0001445
-0.000268767 -0.000109494 1.30797e-05
-0.000109494 -0.000126671 2.27708e-05
1.30797e-05 2.27708e-05 -0.000239514
-0.000239916 4.48796e-05 3.45542e-06
4.48796e-05 -8.5925e-05 7.12305e-06
3.45542e-06 7.12305e-06 -0.000445066
0.00137732 0.00019848 1.93904e-06
0.00019848 0.000576606 -4.91835e-06
1.93904e-06 -4.91835e-06 0.000396894
0.000430967 -1.54702e-05 -2.94555e-06
-1.54702e-05 0.000714084 -9.24667e-06
-2.94555e-06 -9.24667e-06 7.56717e-05
0.00128074 -5.17332e-05 8.21173e-05
-5.17332e-05 0.000967623 -1.01591e-05
8.21173e-05 -1.01591e-05 -0.000821238
-0.00554684 -6.31487e-05 -0.000147318
-6.31487e-05 0.00218397 5.56624e-06
-0.000147318 5.56624e-06 -0.000615054
0.00107056 0.000207565 1.45339e-05
0.000207565 0.00054654 3.71305e-06
1.45339e-05 3.71305e-06 0.000391459
-0.00117271 0.000263421 6.79499e-06
0.000263421 -0.000664532 1.05159e-05
6.79499e-06 1.05159e-05 -0.000933237
0.00385641 8.6219e-05 9.23348e-05
8.6219e-05 0.00200123 2.69895e-06
9.23348e-05 2.69895e-06 0.000767721
0.00777727 0.000870682 0.000149065
0.000870682 0.00348625 8.05262e-05
0.000149065 8.05262e-05 2.72729e-05
0.00328161 0.000876102 -0.000107735
0.000876102 0.00156344 -8.62025e-05
-0.000107735 -8.62025e-05 0.000488742
0.00457282 -0.00081502 -1.52296e-05
-0.00081502 0.00148211 -0.000213638
-1.52296e-05 -0.000213638 -6.58629e-05
0.000963178 0.000145468 5.17048e-05
0.000145468 0.000163404 0.000121587
5.17048e-05 0.000121587 -0.00142551
0.00429623 -4.25849e-05 -1.31893e-05
-4.25849e-05 -0.0040819 -0.000117461
-1.31893e-05 -0.000117461 -0.00135469
0.000691569 0.000179358 4.19136e-07
0.000179358 0.000466485 -1.91808e-06
4.19136e-07 -1.91808e-06 0.000278638
0.000326995 -5.57162e-05 1.11524e-06
-5.57162e-05 4.14243e-05 -1.5158e-06
1.11524e-06 -1.5158e-06 4.20847e-05
0.00281616 4.5053e-05 3.85398e-05
4.5053e-05 0.000429973 1.66176e-05
3.85398e-05 1.66176e-05 -0.000323952
-0.000942425 0.000158077 -7.93614e-06
0.000158077 -0.000335883 -5.39068e-06
-7.93614e-06 -5.39068e-06 -0.000761846
0.00591266 0.000897885 4.24011e-06
0.000897885 -0.00152314 -1.2618e-05
4.24011e-06 -1.2618e-05 -0.000641803
0.00491653 0.001005 0.0001199
0.001005 0.00305449 5.93482e-05
0.0001199 5.93482e-05 -0.000835728
0.00344859 0.000406246 -7.29267e-05
0.000406246 0.00239693 6.18258e-06
-7.29267e-05 6.18258e-06 0.00104498
0.000426437 0.000199926 -1.58628e-05
0.000199926 0.000345181 -1.58914e-05
-1.58628e-05 -1.58914e-05 8.23692e-05
0.00168606 6.79416e-05 1.0065e-05
6.79416e-05 -0.000213141 -1.42611e-05
1.0065e-05 -1.42611e-05 -2.38275e-05
0.00369307 -0.000217233 3.51251e-05
-0.000217233 0.00233616 -9.79067e-05
3.51251e-05 -9.79067e-05 0.00105586
0.00719132 0.0017092 0.000195469
0.0017092 0.000781363 -0.000131797
0.000195469 -0.000131797 0.000879421
0.00657812 -0.000142758 -8.84657e-05
-0.000142758 0.00151059 0.00019029
-8.84657e-05 0.00019029 0.00111681
0.000860064 0.00017578 -8.47966e-06
0.00017578 9.21365e-05 -6.66423e-05
-8.47966e-06 -6.66423e-05 -3.63172e-05
-0.000689236 0.00105182 0.000123817
0.00105182 0.00269175 3.04663e-05
0.000123817 3.04663e-05 -0.00313608
0.00106524 0.000184922 3.94115e-06
0.000184922 0.00050689 1.33763e-05
3.94115e-06 1.33763e-05 0.000309916
0.000148371 9.57417e-05 2.66749e-06
9.57417e-05 0.000218938 1.34029e-06
2.66749e-06 1.34029e-06 -8.4195e-06
0.00106107 9.19332e-06 -1.18236e-05
9.19332e-06 0.000774107 -1.2146e-05
-1.18236e-05 -1.2146e-05 0.000630683
0.000362527 -2.32225e-05 1.1687e-06
-2.32225e-05 -0.000108833 4.27265e-06
1.1687e-06 4.27265e-06 -0.000221833
0.000677864 -2.28933e-05 2.50887e-06
-2.28933e-05 0.000233836 5.42473e-06
2.50887e-06 5.42473e-06 9.18868e-05
0.000473571 -1.4162e-05 2.60609e-06
-1.4162e-05 0.000336403 1.01084e-06
2.60609e-06 1.01084e-06 9.92415e-05
0.000566672 -6.24379e-05 5.34512e-07
-6.24379e-05 0.000131476 -3.15949e-07
5.34512e-07 -3.15949e-07 2.00453e-05
0.000126003 -1.18189e-05 8.65725e-07
-1.18189e-05 6.71625e-05 1.74942e-06
8.65725e-07 1.74942e-06 -5.35164e-05
0.0011193 -0.000208713 9.03737e-06
-0.000208713 0.000592085 -8.90458e-06
9.03737e-06 -8.90458e-06 0.000408712
0.00125784 -6.54777e-05 -1.51656e-06
-6.54777e-05 0.000463087 3.86523e-06
-1.51656e-06 3.86523e-06 0.000378269
0.0001273 2.69106e-06 -1.22384e-06
2.69106e-06 -0.00024322 1.72263e-06
-1.22384e-06 1.72263e-06 -0.000337103
0.00142246 -0.000150396 1.32772e-06
-0.000150396 0.000519714 2.16791e-06
1.32772e-06 2.16791e-06 0.000411301
-0.000614638 -0.000132909 5.14545e-06
-0.000132909 -0.000550589 1.54111e-06
5.14545e-06 1.54111e-06 -0.00077673
0.000401205 -6.69915e-05 -5.65012e-06
-6.69915e-05 -9.95051e-05 7.59157e-07
-5.65012e-06 7.59157e-07 -0.000167432
3.37605e-05 -0.000159696 2.52519e-06
-0.000159696 -0.00033032 -1.1042e-06
2.52519e-06 -1.1042e-06 -0.000496185
0.00107769 -0.000291292 1.0411e-05
-0.000291292 0.000186658 -3.08338e-06
1.0411e-05 -3.08338e-06 -7.1714e-05
0.00132708 -0.000329459 -4.58125e-06
-0.000329459 0.000214277 3.24417e-06
-4.58125e-06 3.24417e-06 -5.02022e-05
0.00179844 -0.000230887 -2.56203e-06
-0.000230887 0.000696197 7.17461e-08
-2.56203e-06 7.17461e-08 0.000526709
0.000936457 -0.000251582 -5.21427e-07
-0.000251582 0.000106451 4.48515e-07
-5.21427e-07 4.48515e-07 -0.000130714
0.00218978 -0.000354004 2.78343e-06
-0.000354004 0.00084229 -1.20301e-06
2.78343e-06 -1.20301e-06 0.000610302
0.000251142 -0.000133206 -1.43753e-06
-0.000133206 -0.000182123 2.30223e-06
-1.43753e-06 2.30223e-06 -0.000379347
0.00096482 -0.000225992 -2.12428e-07
-0.000225992 0.000159203 -4.66453e-07
-2.12428e-07 -4.66453e-07 -5.93426e-05
0.000559356 -6.55701e-05 2.95368e-07
-6.55701e-05 3.26783e-05 -6.75461e-07
2.95368e-07 -6.75461e-07 -0.000113559
0.00105428 -0.000198848 -3.9341e-06
-0.000198848 0.000337557 2.36114e-06
-3.9341e-06 2.36114e-06 0.000152094
-0.000439127 -7.6161e-05 -2.26867e-06
-7.6161e-05 -0.000619279 -4.10135e-06
-2.26867e-06 -4.10135e-06 -0.000810905
0.000565766 1.38393e-05 8.7923e-07
1.38393e-05 1.37543e-05 1.13876e-06
8.7923e-07 1.13876e-06 -8.55225e-05
0.000728374 -5.77385e-05 7.6144e-07
-5.77385e-05 0.000127828 -1.58747e-07
7.6144e-07 -1.58747e-07 4.23569e-06
0.000792994 -0.000103638 3.54796e-06
-0.000103638 0.000184889 -2.81182e-06
3.54796e-06 -2.81182e-06 3.84639e-05
0.00063741 -1.96985e-05 1.84498e-07
-1.96985e-05 7.08144e-05 -2.70386e-07
1.84498e-07 -2.70386e-07 -3.63894e-05
0.000689724 -2.00101e-05 -6.50931e-07
-2.00101e-05 8.72171e-05 -1.39912e-07
-6.50931e-07 -1.39912e-07 -4.70231e-06
0.000583136 3.37469e-05 -4.8443e-07
3.37469e-05 2.57486e-06 2.38153e-06
-4.8443e-07 2.38153e-06 -5.9586e-05
0.000755443 -4.59352e-05 5.07215e-07
-4.59352e-05 0.000130787 -7.73731e-07
5.07215e-07 -7.73731e-07 3.91626e-05
0.000617199 2.59426e-05 -8.34218e-07
2.59426e-05 1.9181e-05 -1.32218e-07
-8.34218e-07 -1.32218e-07 -3.80568e-05
0.000553739 4.19981e-05 -1.03726e-06
4.19981e-05 -3.19968e-05 4.18115e-06
-1.03726e-06 4.18115e-06 -5.19615e-05
0.000680737 -1.44516e-05 2.16388e-06
-1.44516e-05 4.96953e-05 -2.04736e-06
2.16388e-06 -2.04736e-06 -2.9419e-06
0.000558908 3.26571e-05 1.63021e-07
3.26571e-05 -3.58321e-05 3.04715e-09
1.63021e-07 3.04715e-09 -5.33812e-05
0.0022535 7.4838e-05 -3.99181e-06
7.4838e-05 0.000985319 1.91042e-06
-3.99181e-06 1.91042e-06 0.000995291
0.000531063 2.43069e-05 9.45599e-07
2.43069e-05 -5.48192e-05 -4.18717e-06
9.45599e-07 -4.18717e-06 -7.14823e-05
0.00157297 4.58556e-05 9.30817e-06
4.58556e-05 0.00057301 -1.1587e-06
9.30817e-06 -1.1587e-06 0.000581816
0.0023597 4.48939e-05 1.25665e-05
4.48939e-05 0.00104008 -4.87303e-06
1.25665e-05 -4.87303e-06 0.00105378
0.000389359 4.32239e-06 7.57585e-07
4.32239e-06 -9.64553e-05 -1.79013e-06
7.57585e-07 -1.79013e-06 -0.000195262
0.000336642 4.65402e-07 2.48825e-07
4.65402e-07 -0.000148671 -2.82741e-06
2.48825e-07 -2.82741e-06 -0.00020726
0.000569117 1.66681e-05 -4.35299e-07
1.66681e-05 2.25693e-05 -1.05746e-06
-4.35299e-07 -1.05746e-06 -7.71823e-05
0.000580568 -1.31931e-05 5.04123e-07
-1.31931e-05 -2.81362e-05 -3.92009e-06
5.04123e-07 -3.92009e-06 -4.03323e-05
0.000305639 3.08407e-06 -4.35346e-07
3.08407e-06 -0.000165276 -1.23025e-06
-4.35346e-07 -1.23025e-06 -0.000217903
0.000739324 3.05609e-05 -2.91893e-07
3.05609e-05 0.000128812 1.72579e-06
-2.91893e-07 1.72579e-06 3.49114e-05
0.00214442 -2.4397e-05 -1.09459e-05
-2.4397e-05 0.000906583 -4.74645e-06
-1.09459e-05 -4.74645e-06 0.000924347
0.000574015 -7.81414e-06 -2.23087e-07
-7.81414e-06 -3.35249e-05 -4.7849e-08
-2.23087e-07 -4.7849e-08 -4.2827e-05
0.000273144 3.43952e-06 6.16393e-07
3.43952e-06 -0.000183563 1.80441e-06
6.16393e-07 1.80441e-06 -0.000230336
0.00206979 -9.85069e-06 -3.61779e-06
-9.85069e-06 0.000860999 4.23366e-08
-3.61779e-06 4.23366e-08 0.000879971
0.000570556 -2.60705e-06 -3.87758e-07
-2.60705e-06 -3.6122e-05 3.42748e-06
-3.87758e-07 3.42748e-06 -4.35888e-05
0.00205816 4.54276e-06 2.09444e-06
4.54276e-06 0.000854489 4.66926e-06
2.09444e-06 4.66926e-06 0.000873596
0.000791794 -1.82821e-06 1.33779e-05
-1.82821e-06 0.000481938 8.43822e-06
1.33779e-05 8.43822e-06 0.000346941
0.000834142 -0.000136184 5.2831e-07
-0.000136184 0.00013321 -1.14872e-05
5.2831e-07 -1.14872e-05 -0.00152303
0.00160707 8.13154e-05 2.99137e-05
8.13154e-05 0.00365723 -3.18954e-05
2.99137e-05 -3.18954e-05 0.00233057
0.000738276 8.79535e-05 -1.66019e-07
8.79535e-05 0.000119661 3.51577e-07
-1.66019e-07 3.51577e-07 -4.09515e-06
0.000551304 6.18353e-05 1.57551e-06
6.18353e-05 -5.84328e-06 -5.23496e-07
1.57551e-06 -5.23496e-07 -0.000122443
0.000963961 0.000125329 2.61837e-06
0.000125329 0.000253687 2.70026e-06
2.61837e-06 2.70026e-06 0.000120061
0.00271931 -5.37248e-05 1.91264e-06
-5.37248e-05 0.000131512 0.00016108
1.91264e-06 0.00016108 -0.000820405
0.00348439 -0.000233663 9.66714e-06
-0.000233663 0.00231655 -3.2487e-06
9.66714e-06 -3.2487e-06 0.00109801
0.00379028 -0.000517102 6.59533e-05
-0.000517102 0.00143444 -0.000123626
6.59533e-05 -0.000123626 -0.00166159
0.00573021 -0.000988386 -9.26255e-05
-0.000988386 0.000703295 -1.06304e-06
-9.26255e-05 -1.06304e-06 0.000333662
0.00226997 -0.000930258 -0.000131626
-0.000930258 -9.58918e-06 8.17091e-05
-0.000131626 8.17091e-05 -0.00263858
0.0116227 0.00158026 0.000101458
0.00158026 0.00404067 4.74493e-05
0.000101458 4.74493e-05 0.00324377
0.00310586 0.000248525 7.85126e-05
0.000248525 -0.00304794 -9.75407e-05
7.85126e-05 -9.75407e-05 -0.0022159
0.00529887 -0.00144225 -1.63772e-05
-0.00144225 0.0011532 4.05247e-06
-1.63772e-05 4.05247e-06 0.000515464
0.00638841 -0.00123769 -2.46737e-05
-0.00123769 0.00300139 2.06085e-05
-2.46737e-05 2.06085e-05 -0.000417288
-0.00301473 0.00117656 -3.36093e-05
0.00117656 9.08332e-05 -0.000131219
-3.36093e-05 -0.000131219 -0.0019071
0.00582028 0.000118598 -1.71395e-05
0.000118598 -0.00253623 5.23095e-05
-1.71395e-05 5.23095e-05 -0.000187969
0.00168903 -0.000859474 -3.86782e-05
-0.000859474 0.000254252 -1.70511e-05
-3.86782e-05 -1.70511e-05 -0.000296736
0.0111834 -0.0014944 -7.47226e-05
-0.0014944 0.0049661 5.52746e-05
-7.47226e-05 5.52746e-05 0.00112793
-0.00903353 -0.000122641 3.92095e-05
-0.000122641 -0.000307176 -0.000195704
3.92095e-05 -0.000195704 -0.00262307
0.00430346 -0.000926072 4.18569e-05
-0.000926072 -0.0019557 -1.34237e-05
4.18569e-05 -1.34237e-05 -0.000890839
0.000680048 5.40451e-05 7.40988e-07
5.40451e-05 8.6775e-05 7.95992e-06
7.40988e-07 7.95992e-06 -5.24484e-05
0.000666842 -7.28357e-07 8.6823e-07
-7.28357e-07 0.000110573 -7.36085e-07
8.6823e-07 -7.36085e-07 -4.85175e-05
0.000836216 -8.23095e-05 6.06167e-07
-8.23095e-05 0.000221077 -2.35248e-06
6.06167e-07 -2.35248e-06 6.3498e-05
0.000735858 6.65389e-05 -7.98653e-07
6.65389e-05 0.000115211 -6.02499e-07
-7.98653e-07 -6.02499e-07 -1.70202e-05
0.000775542 0.000114957 8.42131e-07
0.000114957 0.000174712 -5.28185e-07
8.42131e-07 -5.28185e-07 3.32828e-05
0.00108377 0.000133165 -2.113e-06
0.000133165 0.000352372 -8.6455e-07
-2.113e-06 -8.6455e-07 0.00021462
-0.000208105 -0.000493656 1.84567e-05
-0.000493656 -0.000930443 9.34193e-06
1.84567e-05 9.34193e-06 -0.000921977
-0.000786995 -0.000109478 1.75348e-05
-0.000109478 -0.000715248 -1.78405e-05
1.75348e-05 -1.78405e-05 -0.000734454
0.000509461 4.41413e-05 -1.74586e-06
4.41413e-05 2.47864e-05 -1.61953e-06
-1.74586e-06 -1.61953e-06 -0.000136737
0.00214091 -0.000296423 4.34813e-05
-0.000296423 0.00104279 -3.15169e-05
4.34813e-05 -3.15169e-05 0.00078539
0.00152432 1.10107e-05 -3.79329e-06
1.10107e-05 0.000705194 -1.04026e-06
-3.79329e-06 -1.04026e-06 0.000474594
0.000590198 4.35974e-05 -1.91471e-07
4.35974e-05 4.77019e-05 2.21352e-06
-1.91471e-07 2.21352e-06 -9.3289e-05
0.000647316 0.000115434 4.56447e-07
0.000115434 0.000150375 -1.29882e-06
4.56447e-07 -1.29882e-06 -1.38228e-05
0.00046218 -0.000470738 -6.43238e-07
-0.000470738 -0.000400707 -4.48166e-06
-6.43238e-07 -4.48166e-06 -0.000407406
0.000803474 -1.9402e-05 -2.0121e-06
-1.9402e-05 0.000462493 3.19916e-07
-2.0121e-06 3.19916e-07 0.00016669
0.000298145 -8.97931e-05 8.24653e-06
-8.97931e-05 0.0002311 -1.39177e-06
8.24653e-06 -1.39177e-06 9.37992e-05
0.000756484 8.24877e-05 3.73782e-06
8.24877e-05 0.000160795 -1.22376e-05
3.73782e-06 -1.22376e-05 3.22159e-05
-0.00230881 9.62135e-05 -7.03578e-05
9.62135e-05 -0.000888601 -1.20195e-05
-7.03578e-05 -1.20195e-05 -0.0013306
-0.000610642 4.45683e-05 2.14444e-05
4.45683e-05 -0.000278617 2.51986e-05
2.14444e-05 2.51986e-05 -0.000422235
0.00145067 1.4504e-05 6.61753e-06
1.4504e-05 0.000769731 1.91214e-06
6.61753e-06 1.91214e-06 0.000542609
0.000864139 -1.73954e-05 -1.00901e-06
-1.73954e-05 -0.000134489 8.51126e-07
-1.00901e-06 8.51126e-07 -0.000638393
0.00024602 -1.23364e-05 -1.55452e-05
-1.23364e-05 0.000507511 -1.21615e-05
-1.55452e-05 -1.21615e-05 -2.75728e-05
0.000719547 -3.86757e-05 0.000179931
-3.86757e-05 0.000749956 -9.89088e-06
0.000179931 -9.89088e-06 -0.00108927
0.000390563 0.000184178 8.50122e-06
0.000184178 0.000285761 1.55243e-05
8.50122e-06 1.55243e-05 8.08079e-05
0.00103492 0.000422802 1.00859e-05
0.000422802 0.000239272 -1.28157e-05
1.00859e-05 -1.28157e-05 -6.65626e-05
0.000340294 -5.74119e-05 1.064e-05
-5.74119e-05 2.22756e-05 2.76648e-06
1.064e-05 2.76648e-06 2.92629e-06
-0.00284148 0.000547793 4.27359e-05
0.000547793 0.000373778 6.85824e-05
4.27359e-05 6.85824e-05 -0.00352006
-0.0100522 0.000561798 -8.52211e-05
0.000561798 -0.00364097 -0.000244078
-8.52211e-05 -0.000244078 -0.0058797
0.00279868 5.33349e-05 3.69648e-05
5.33349e-05 0.000590885 6.34721e-05
3.69648e-05 6.34721e-05 0.000152927
0.0033305 0.000320662 -7.95996e-05
0.000320662 -0.00286828 9.79863e-05
-7.95996e-05 9.79863e-05 -0.00209991
0.000530552 0.000179052 7.15967e-06
0.000179052 0.000402681 -1.18791e-06
7.15967e-06 -1.18791e-06 0.000176597
0.00149119 2.36187e-06 1.43845e-05
2.36187e-06 -0.000331581 -2.51675e-05
1.43845e-05 -2.51675e-05 -0.000110715
0.00351815 -0.000171022 -9.64385e-06
-0.000171022 0.00230605 3.04082e-06
-9.64385e-06 3.04082e-06 0.00109903
0.00112627 0.00022759 -4.6695e-05
0.00022759 0.00054273 -4.66046e-06
-4.6695e-05 -4.66046e-06 -9.19738e-05
0.00416949 0.00161079 6.618e-05
0.00161079 -0.00116915 -0.00018004
6.618e-05 -0.00018004 -0.000918473
-0.002676 0.0010987 3.21873e-05
0.0010987 -0.000545059 0.000127303
3.21873e-05 0.000127303 -0.00208853
0.00702095 8.11798e-05 6.09065e-05
8.11798e-05 0.00558712 -2.62066e-05
6.09065e-05 -2.62066e-05 0.000241563
0.00169043 -7.46669e-05 5.87951e-05
-7.46669e-05 0.00139362 -2.08275e-05
5.87951e-05 -2.08275e-05 0.000917811
0.000885665 2.82885e-05 -1.52009e-05
2.82885e-05 0.000494994 -7.38775e-06
-1.52009e-05 -7.38775e-06 0.000362729
0.00371025 -0.00037222 0.000275587
-0.00037222 0.0010991 -0.000171987
0.000275587 -0.000171987 -0.00144503
0.00558456 0.00214516 2.38896e-06
0.00214516 0.0040911 -1.14282e-05
2.38896e-06 -1.14282e-05 0.00457424
-0.00368924 0.00117788 2.8776e-05
0.00117788 -0.00402432 0.000342031
2.8776e-05 0.000342031 -0.00429635
0.0133465 -0.00143595 0.000127553
-0.00143595 0.00547333 -0.000108595
0.000127553 -0.000108595 0.00162088
0.00321355 -0.000436151 -6.64436e-05
-0.000436151 0.00126621 7.30155e-05
-6.64436e-05 7.30155e-05 0.000946758
0.000654714 0.000154157 7.94518e-06
0.000154157 0.000499853 5.43472e-06
7.94518e-06 5.43472e-06 0.000267005
0.00025207 5.78968e-06 -2.79353e-05
5.78968e-06 0.00028038 1.39661e-06
-2.79353e-05 1.39661e-06 0.000123037
0.001116 -0.000285201 1.93354e-05
-0.000285201 0.00076756 -7.42897e-06
1.93354e-05 -7.42897e-06 0.000462513
0.000952433 -8.35265e-05 1.46373e-06
-8.35265e-05 0.000336376 3.48422e-06
1.46373e-06 3.48422e-06 0.00023787
-6.65371e-05 -3.00011e-05 2.91542e-06
-3.00011e-05 -4.91955e-05 5.78435e-06
2.91542e-06 5.78435e-06 -0.000173289
0.000339309 -0.000193761 -8.82517e-07
-0.000193761 0.000194204 -7.14767e-07
-8.82517e-07 -7.14767e-07 1.6947e-05
0.00155349 -0.000336104 2.49636e-05
-0.000336104 0.000732162 -1.69568e-05
2.49636e-05 -1.69568e-05 0.000457495
0.00224418 -0.000213117 -6.25683e-06
-0.000213117 0.00098634 4.29393e-06
-6.25683e-06 4.29393e-06 0.000865206
0.00187866 -0.000363969 3.82593e-06
-0.000363969 0.000777758 -6.13924e-07
3.82593e-06 -6.13924e-07 0.000532715
0.00134324 -0.000340118 1.12472e-05
-0.000340118 0.000502701 2.2274e-06
1.12472e-05 2.2274e-06 9.63586e-05
0.000291172 -0.000154048 -2.67118e-06
-0.000154048 -0.000188964 -5.82349e-07
-2.67118e-06 -5.82349e-07 -0.000337421
0.00145012 -0.000324638 -1.4039e-06
-0.000324638 0.000365538 1.29478e-06
-1.4039e-06 1.29478e-06 9.64669e-05
0.00176082 -0.000419231 -7.42005e-07
-0.000419231 0.000477547 2.24231e-06
-7.42005e-07 2.24231e-06 0.000123073
0.00171743 -0.000435338 -3.82739e-06
-0.000435338 0.000334427 3.28891e-06
-3.82739e-06 3.28891e-06 3.58247e-05
0.00106616 -0.000287249 -2.08232e-07
-0.000287249 0.000103017 3.89238e-06
-2.08232e-07 3.89238e-06 -0.000136486
0.0012976 -0.000329045 -2.55122e-06
-0.000329045 0.000197688 1.68822e-06
-2.55122e-06 1.68822e-06 -7.11222e-05
0.00110837 -0.000269038 -7.40328e-06
-0.000269038 0.000176305 2.36875e-06
-7.40328e-06 2.36875e-06 -7.4354e-05
0.00172729 -0.000304439 5.17486e-06
-0.000304439 0.000602133 -9.40832e-07
5.17486e-06 -9.40832e-07 0.000380892
0.00150421 -0.000288565 2.88519e-06
-0.000288565 0.000442684 -2.90074e-06
2.88519e-06 -2.90074e-06 0.000225662
4.91567e-06 -6.09599e-05 1.32327e-06
-6.09599e-05 -0.00031262 3.18127e-07
1.32327e-06 3.18127e-07 -0.000486933
0.000817406 -0.000190374 1.89848e-06
-0.000190374 0.000155774 -1.2363e-06
1.89848e-06 -1.2363e-06 -4.91398e-05
0.00105471 -0.000230745 5.75264e-06
-0.000230745 0.000218617 -4.89379e-06
5.75264e-06 -4.89379e-06 2.60802e-06
0.000426552 1.53448e-05 1.27977e-06
1.53448e-05 -6.01916e-05 1.72224e-06
1.27977e-06 1.72224e-06 -0.000181549
0.000893793 -0.00010281 -3.46338e-07
-0.00010281 0.000235461 5.26747e-07
-3.46338e-07 5.26747e-07 7.9989e-05
0.00105131 -0.000208539 -1.0488e-06
-0.000208539 0.000338279 -7.89267e-07
-1.0488e-06 -7.89267e-07 0.000150281
0.000611093 1.86675e-05 -1.07701e-06
1.86675e-05 2.05035e-05 2.58387e-06
-1.07701e-06 2.58387e-06 -4.74581e-05
0.000726786 -2.10565e-05 -5.21109e-07
-2.10565e-05 0.000106832 -2.79008e-07
-5.21109e-07 -2.79008e-07 5.42877e-06
0.000526782 -4.15896e-05 -1.75647e-07
-4.15896e-05 1.7835e-05 1.47049e-08
-1.75647e-07 1.47049e-08 -0.000107611
0.000766448 -3.91238e-05 3.36562e-07
-3.91238e-05 0.000135689 -1.16969e-06
3.36562e-07 -1.16969e-06 3.99707e-05
0.000637539 4.57518e-06 -2.69807e-07
4.57518e-06 3.06888e-05 -1.72642e-07
-2.69807e-07 -1.72642e-07 -2.96036e-05
0.000538601 5.13691e-05 -4.11866e-07
5.13691e-05 -3.163e-05 4.73043e-06
-4.11866e-07 4.73043e-06 -5.55495e-05
0.000650217 -5.02106e-06 1.79835e-06
-5.02106e-06 3.45725e-05 -1.97146e-06
1.79835e-06 -1.97146e-06 -2.05286e-05
0.000562514 4.38624e-05 -1.79257e-07
4.38624e-05 -2.65075e-05 -4.82026e-08
-1.79257e-07 -4.82026e-08 -4.67871e-05
0.00231483 8.24645e-05 -2.47405e-05
8.24645e-05 0.00102953 3.85657e-06
-2.47405e-05 3.85657e-06 0.00103803
0.000551081 3.35869e-05 1.00548e-06
3.35869e-05 -4.03303e-05 -4.1183e-06
1.00548e-06 -4.1183e-06 -5.79801e-05
0.00154985 5.73184e-05 1.1173e-05
5.73184e-05 0.000565035 -9.97378e-07
1.1173e-05 -9.97378e-07 0.000572151
0.00236511 5.92161e-05 1.65255e-05
5.92161e-05 0.00104787 -4.52789e-06
1.65255e-05 -4.52789e-06 0.00106
0.000703529 6.5822e-05 4.75663e-07
6.5822e-05 9.49675e-05 -1.10259e-06
4.75663e-07 -1.10259e-06 -1.05668e-05
0.000625999 2.48936e-05 -2.459e-07
2.48936e-05 2.04902e-05 -2.41091e-06
-2.459e-07 -2.41091e-06 -4.07662e-05
0.000561852 4.0104e-05 -1.1716e-06
4.0104e-05 1.71054e-05 -1.12399e-06
-1.1716e-06 -1.12399e-06 -8.93639e-05
0.000564066 -1.85207e-05 5.80376e-07
-1.85207e-05 -3.61835e-05 -4.3468e-06
5.80376e-07 -4.3468e-06 -5.17465e-05
0.000442428 1.69181e-05 -1.44299e-06
1.69181e-05 -8.56687e-05 -1.21438e-06
-1.44299e-06 -1.21438e-06 -0.000143045
0.000775746 4.22849e-05 -3.49799e-07
4.22849e-05 0.000145028 -7.41529e-07
-3.49799e-07 -7.41529e-07 4.59175e-05
0.00224847 -3.83827e-05 -1.57285e-05
-3.83827e-05 0.000970585 -4.70232e-06
-1.57285e-05 -4.70232e-06 0.000986611
0.000566714 -1.31914e-05 -1.99801e-07
-1.31914e-05 -3.67291e-05 -7.15776e-08
-1.99801e-07 -7.15776e-08 -4.86617e-05
0.000249964 2.31979e-06 -8.82009e-07
2.31979e-06 -0.000198475 9.5123e-07
-8.82009e-07 9.5123e-07 -0.000251846
0.00215209 -2.32388e-05 -4.02666e-06
-2.32388e-05 0.000910908 9.75075e-08
-4.02666e-06 9.75075e-08 0.000928808
0.000568748 -8.345e-06 -5.56415e-07
-8.345e-06 -3.65638e-05 3.51497e-06
-5.56415e-07 3.51497e-06 -4.57628e-05
0.00208105 -8.38582e-06 6.79646e-06
-8.38582e-06 0.000867544 4.7285e-06
6.79646e-06 4.7285e-06 0.000886549
0.00156053 -4.49205e-05 -1.40491e-05
-4.49205e-05 -0.000234622 1.65837e-05
-1.40491e-05 1.65837e-05 -5.04444e-05
0.000833257 -3.0892e-05 8.01651e-06
-3.0892e-05 0.000441746 -2.23888e-06
8.01651e-06 -2.23888e-06 0.000348356
0.00135441 -0.000124361 0.000107187
-0.000124361 0.000369284 -3.07079e-05
0.000107187 -3.07079e-05 -0.00120924
0.000536688 2.13809e-05 6.40431e-07
2.13809e-05 -2.57984e-05 -5.87937e-07
6.40431e-07 -5.87937e-07 -0.000134733
0.000949537 5.52059e-05 -6.93305e-07
5.52059e-05 0.000213249 5.22426e-07
-6.93305e-07 5.22426e-07 9.23373e-05
0.000794825 9.67723e-05 -2.70436e-07
9.67723e-05 0.000151834 4.7134e-08
-2.70436e-07 4.7134e-08 3.17418e-05
0.000579099 4.50431e-05 2.11525e-07
4.50431e-05 3.25241e-06 2.29335e-07
2.11525e-07 2.29335e-07 -0.000107836
0.000700166 6.07483e-05 1.03346e-07
6.07483e-05 9.4625e-05 4.18362e-07
1.03346e-07 4.18362e-07 -3.25729e-05
0.000675168 5.612e-05 1.31383e-06
5.612e-05 7.15807e-05 -1.36683e-06
1.31383e-06 -1.36683e-06 -4.97853e-05
0.000657678 0.000147256 3.71542e-06
0.000147256 9.27788e-05 3.72061e-06
3.71542e-06 3.72061e-06 -5.38007e-05
3.44303e-06 5.62738e-05 5.88629e-05
5.62738e-05 -2.08442e-05 0.000158571
5.88629e-05 0.000158571 -0.00144943
0.00265596 -3.91209e-05 -9.95617e-06
-3.91209e-05 0.000430409 5.00418e-05
-9.95617e-06 5.00418e-05 -0.000340994
0.00305344 -0.000168889 3.37637e-05
-0.000168889 0.00217768 -6.55131e-05
3.37637e-05 -6.55131e-05 0.00103937
0.00416097 -0.000115576 -7.65487e-06
-0.000115576 -0.00420826 5.68632e-05
-7.65487e-06 5.68632e-05 -0.00132545
0.00300827 -0.00117803 -9.29949e-05
-0.00117803 0.000963443 6.47573e-05
-9.29949e-05 6.47573e-05 0.000108464
-0.00187962 -0.0013979 -3.04374e-05
-0.0013979 -0.000212329 8.09891e-05
-3.04374e-05 8.09891e-05 -0.00415493
0.008734 0.0018287 7.47365e-05
0.0018287 0.00466671 -5.40722e-05
7.47365e-05 -5.40722e-05 0.00265416
0.00332352 -0.00105829 -2.80268e-05
-0.00105829 0.000881423 4.74987e-06
-2.80268e-05 4.74987e-06 0.000384245
-0.000355964 -0.000517159 3.31049e-05
-0.000517159 0.00163828 2.66346e-05
3.31049e-05 2.66346e-05 -0.00291681
0.00461109 0.000155462 1.53706e-05
0.000155462 0.00251437 -1.01594e-05
1.53706e-05 -1.01594e-05 0.00114431
0.00916709 -0.00124796 -3.24431e-05
-0.00124796 0.00118445 -3.87266e-05
-3.24431e-05 -3.87266e-05 0.0023664
-0.00177565 6.12246e-06 -0.000172323
6.12246e-06 -0.00153339 7.98778e-05
-0.000172323 7.98778e-05 -0.0013924
0.000744247 0.00128674 -5.40848e-05
0.00128674 0.00197174 -8.29625e-05
-5.40848e-05 -8.29625e-05 -0.00262447
-0.00670461 -0.00199254 4.87337e-05
-0.00199254 -0.00368559 -0.000132166
4.87337e-05 -0.000132166 -0.00584028
0.00563237 -0.00119876 3.95608e-05
-0.00119876 -0.000451617 -0.000258341
3.95608e-05 -0.000258341 0.000617585
0.000880517 2.29922e-05 3.74734e-06
2.29922e-05 0.000218866 -5.24104e-07
3.74734e-06 -5.24104e-07 9.65327e-05
0.000639524 6.53375e-05 1.5644e-07
6.53375e-05 7.08474e-05 -1.17737e-06
1.5644e-07 -1.17737e-06 -6.93262e-05
0.000873544 -7.82932e-06 4.49426e-07
-7.82932e-06 0.000247754 -2.66304e-06
4.49426e-07 -2.66304e-06 7.47296e-05
0.00079129 5.35738e-05 -1.24776e-06
5.35738e-05 0.000157088 -4.40724e-06
-1.24776e-06 -4.40724e-06 1.53204e-05
0.000257035 -0.000414078 -5.70754e-06
-0.000414078 -0.000519003 3.0678e-05
-5.70754e-06 3.0678e-05 -0.000603191
0.00209664 -6.48385e-05 -2.61898e-05
-6.48385e-05 0.00125432 -2.46464e-05
-2.61898e-05 -2.46464e-05 0.00110672
0.00072103 3.83564e-05 -2.87699e-06
3.83564e-05 0.000103854 -3.57464e-06
-2.87699e-06 -3.57464e-06 -1.85186e-05
0.000696345 0.000151977 -1.46082e-06
0.000151977 0.000190552 4.80713e-06
-1.46082e-06 4.80713e-06 2.2227e-05
0.00281767 -3.94297e-05 1.25647e-05
-3.94297e-05 0.00154537 -2.07795e-05
1.25647e-05 -2.07795e-05 0.00132576
0.00090145 6.70428e-05 1.67288e-06
6.70428e-05 0.00023713 3.50342e-06
1.67288e-06 3.50342e-06 0.000116058
0.000631259 0.000111976 -2.58078e-06
0.000111976 0.00033085 -1.3798e-06
-2.58078e-06 -1.3798e-06 7.65217e-05
0.000293188 3.86006e-06 4.66359e-05
3.86006e-06 0.000381109 -1.50965e-05
4.66359e-05 -1.50965e-05 -0.000175245
0.000214228 1.89831e-05 2.44037e-05
1.89831e-05 0.000215047 -9.64149e-07
2.44037e-05 -9.64149e-07 8.38104e-05
0.000656819 0.000135468 -2.51713e-07
0.000135468 0.000288313 -7.61147e-06
-2.51713e-07 -7.61147e-06 0.000111938
-0.000311385 -7.33267e-05 -3.15896e-05
-7.33267e-05 0.000492716 -4.5577e-05
-3.15896e-05 -4.5577e-05 -0.00072489
0.00394138 0.000153887 2.59595e-05
0.000153887 0.0021706 2.27564e-05
2.59595e-05 2.27564e-05 0.00194943
0.000470509 1.77959e-06 -2.63143e-06
1.77959e-06 0.000724565 1.20661e-05
-2.63143e-06 1.20661e-05 8.09962e-05
0.00130665 -3.05927e-05 -1.36791e-07
-3.05927e-05 8.15314e-05 6.85287e-07
-1.36791e-07 6.85287e-07 -0.000142491
8.62828e-05 -1.35604e-05 1.11359e-06
-1.35604e-05 0.000300707 -1.72604e-05
1.11359e-06 -1.72604e-05 -0.000118557
-0.000185005 0.000101016 -1.26056e-06
0.000101016 5.95095e-05 5.57522e-06
-1.26056e-06 5.57522e-06 -0.000129157
-0.000965411 0.000314878 6.15763e-05
0.000314878 -0.000792661 5.01637e-05
6.15763e-05 5.01637e-05 -0.001053
0.0013054 -2.67024e-05 1.80616e-05
-2.67024e-05 -0.000406823 -6.36511e-06
1.80616e-05 -6.36511e-06 -0.000144544
0.00327545 -0.00110116 0.00012562
-0.00110116 0.00365331 -0.000124639
0.00012562 -0.000124639 -0.00175755
0.00908509 0.00185774 -7.38025e-05
0.00185774 0.00426882 5.25542e-05
-7.38025e-05 5.25542e-05 0.00252373
0.00308951 -0.000107037 -3.81926e-05
-0.000107037 0.00214464 6.73678e-05
-3.81926e-05 6.73678e-05 0.00100466
0.00577047 0.00169651 -3.28484e-05
0.00169651 0.000265522 -4.87767e-05
-3.28484e-05 -4.87767e-05 0.000168633
-9.38691e-05 0.000128421 -3.43301e-05
0.000128421 0.000438561 9.78146e-06
-3.43301e-05 9.78146e-06 -0.000106453
0.00092065 7.68743e-06 -9.59828e-06
7.68743e-06 0.000441293 2.33168e-06
-9.59828e-06 2.33168e-06 0.000369717
0.0036277 -0.000425179 0.000100051
-0.000425179 0.0011516 -9.6506e-06
0.000100051 -9.6506e-06 -0.00163497
-7.8937e-05 -0.000195466 8.90987e-06
-0.000195466 -0.000491862 2.49595e-05
8.90987e-06 2.49595e-05 -0.000540611
-0.000778416 0.00230948 0.000145843
0.00230948 0.000561572 -6.82455e-05
0.000145843 -6.82455e-05 0.00157187
0.0070471 0.00110321 -6.66877e-05
0.00110321 0.000501801 0.000129487
-6.66877e-05 0.000129487 0.000152956
-0.00298264 -0.000789486 7.45997e-05
-0.000789486 0.000540374 -7.38933e-05
7.45997e-05 -7.38933e-05 -0.00462824
0.000389773 -0.000143116 3.81012e-05
-0.000143116 0.000381261 -7.39241e-06
3.81012e-05 -7.39241e-06 1.44339e-07
0.000571386 -0.000173795 8.89095e-05
-0.000173795 -0.000192078 -3.10165e-05
8.89095e-05 -3.10165e-05 -0.00174202
-0.00193228 9.17071e-05 -0.000271365
9.17071e-05 0.00210415 9.97621e-06
-0.000271365 9.97621e-06 0.000465497
0.00386732 0.0021453 -0.000207126
0.0021453 0.000414876 0.000284553
-0.000207126 0.000284553 0.000636496
0.00809667 -0.000898157 -5.43407e-06
-0.000898157 0.00365172 6.48174e-07
-5.43407e-06 6.48174e-07 0.0003081
0.00311987 -0.000540985 -5.89745e-05
-0.000540985 0.00108368 4.75054e-05
-5.89745e-05 4.75054e-05 0.00073586
-0.000826399 4.23376e-05 2.63886e-05
4.23376e-05 -0.000335066 8.80999e-06
2.63886e-05 8.80999e-06 -0.000513653
0.000155423 -0.000199197 -1.71808e-06
-0.000199197 0.000259462 3.42798e-07
-1.71808e-06 3.42798e-07 -4.1069e-05
0.000157251 -0.000263373 1.34719e-05
-0.000263373 -2.39821e-05 -4.8329e-06
1.34719e-05 -4.8329e-06 -0.000198777
-0.000485053 -0.000168733 -6.36252e-06
-0.000168733 -0.000232709 6.30421e-06
-6.36252e-06 6.30421e-06 -0.00040187
-0.00057055 -0.000183364 -9.06535e-07
-0.000183364 -0.000392653 -4.27738e-06
-9.06535e-07 -4.27738e-06 -0.000664199
0.00342292 -0.000601718 2.94401e-05
-0.000601718 0.00139463 -1.19771e-06
2.94401e-05 -1.19771e-06 0.00109982
0.00429052 -0.000602175 -8.7432e-06
-0.000602175 0.00205593 3.31112e-06
-8.7432e-06 3.31112e-06 0.00179005
0.00224494 -0.000425419 6.32868e-06
-0.000425419 0.000927836 5.14215e-07
6.32868e-06 5.14215e-07 0.000545707
0.00123402 -0.000399058 8.06202e-06
-0.000399058 0.000219738 -5.79066e-06
8.06202e-06 -5.79066e-06 -0.000187544
0.00178063 -0.000355071 -7.82404e-06
-0.000355071 0.000519384 1.93112e-06
-7.82404e-06 1.93112e-06 0.000240663
0.00216622 -0.000466262 1.05854e-06
-0.000466262 0.000667602 4.55053e-07
1.05854e-06 4.55053e-07 0.000304752
0.00193796 -0.000468479 1.06041e-06
-0.000468479 0.000496245 -5.73825e-06
1.06041e-06 -5.73825e-06 0.00013361
0.0019612 -0.000440961 -1.0896e-06
-0.000440961 0.000396397 -2.76961e-06
-1.0896e-06 -2.76961e-06 0.00013297
0.00179304 -0.000436566 -1.2817e-06
-0.000436566 0.000360894 2.89119e-06
-1.2817e-06 2.89119e-06 8.23829e-05
0.00169132 -0.000437125 -9.02954e-07
-0.000437125 0.000321926 -2.02317e-07
-9.02954e-07 -2.02317e-07 1.79519e-05
0.000654323 -0.000232543 6.0633e-06
-0.000232543 -0.000129016 1.58848e-06
6.0633e-06 1.58848e-06 -0.000340915
0.00116742 -0.000289731 1.82905e-06
-0.000289731 0.00015722 1.34202e-07
1.82905e-06 1.34202e-07 -7.53551e-05
0.00122973 -0.000324416 6.96252e-07
-0.000324416 0.000160917 -2.61475e-06
6.96252e-07 -2.61475e-06 -0.000111761
0.00128544 -0.000248419 3.49098e-06
-0.000248419 0.000376714 1.88472e-06
3.49098e-06 1.88472e-06 0.000157534
0.0012746 -0.000259998 -2.00347e-06
-0.000259998 0.000332446 -1.51988e-06
-2.00347e-06 -1.51988e-06 0.00011842
0.000711839 -0.000213263 5.01665e-06
-0.000213263 -1.88033e-05 -5.035e-06
5.01665e-06 -5.035e-06 -0.000219177
0.000467206 -7.10849e-05 2.29947e-06
-7.10849e-05 -2.82029e-05 1.28618e-06
2.29947e-06 1.28618e-06 -0.000191626
0.000494369 -0.000104299 -6.68556e-07
-0.000104299 -1.20997e-05 1.0273e-06
-6.68556e-07 1.0273e-06 -0.000193555
0.00138586 -0.000247752 2.77895e-06
-0.000247752 0.00049428 -4.32576e-06
2.77895e-06 -4.32576e-06 0.000281746
0.000482076 2.47531e-05 -1.12243e-08
2.47531e-05 -4.71148e-05 3.13988e-06
-1.12243e-08 3.13988e-06 -0.000128595
0.000719321 -2.91855e-05 -4.06974e-07
-2.91855e-05 0.000117895 -4.4298e-07
-4.06974e-07 -4.4298e-07 -1.26027e-05
0.00121189 -0.000140441 7.08268e-07
-0.000140441 0.000427625 -3.649e-07
7.08268e-07 -3.649e-07 0.000263925
0.000505023 5.94176e-05 -7.90803e-07
5.94176e-05 -4.09033e-05 6.83635e-06
-7.90803e-07 6.83635e-06 -6.93056e-05
0.00064072 1.45386e-05 -2.75733e-07
1.45386e-05 3.59458e-05 -2.56669e-07
-2.75733e-07 -2.56669e-07 -3.18683e-05
0.000872114 -4.45533e-05 -1.92948e-07
-4.45533e-05 0.00019568 -1.58895e-06
-1.92948e-07 -1.58895e-06 8.92192e-05
0.000664931 3.14757e-06 1.44616e-06
3.14757e-06 4.57413e-05 -2.38302e-06
1.44616e-06 -2.38302e-06 -1.45225e-05
0.000545002 5.44577e-05 3.28847e-08
5.44577e-05 -2.63555e-05 -1.35867e-08
3.28847e-08 -1.35867e-08 -5.1058e-05
0.00237757 9.8103e-05 -2.67448e-05
9.8103e-05 0.00107545 3.51852e-06
-2.67448e-05 3.51852e-06 0.00108038
0.000565207 4.65299e-05 4.81036e-08
4.65299e-05 -2.45096e-05 -4.44497e-06
4.81036e-08 -4.44497e-06 -4.52464e-05
0.00234589 8.53489e-05 2.66302e-06
8.53489e-05 0.00104893 2.42329e-07
2.66302e-06 2.42329e-07 0.00105684
0.00232814 7.24982e-05 1.99772e-05
7.24982e-05 0.00103167 -4.08011e-06
1.99772e-05 -4.08011e-06 0.00104207
0.000712119 5.81276e-05 -1.7449e-07
5.81276e-05 0.000105784 -7.67535e-07
-1.7449e-07 -7.67535e-07 -2.2998e-05
0.000772576 8.58835e-05 4.92187e-07
8.58835e-05 0.0001463 -1.40966e-06
4.92187e-07 -1.40966e-06 2.6385e-05
0.000641944 1.65052e-05 -1.90152e-07
1.65052e-05 2.99622e-05 -2.75352e-06
-1.90152e-07 -2.75352e-06 -3.70956e-05
0.000706693 7.78241e-05 -6.39634e-08
7.78241e-05 9.57532e-05 -1.63186e-08
-6.39634e-08 -1.63186e-08 -9.65751e-06
0.00055443 -2.22626e-05 -5.13709e-08
-2.22626e-05 -3.82093e-05 -4.95116e-06
-5.13709e-08 -4.95116e-06 -5.76789e-05
0.000626658 2.51228e-05 -2.59512e-08
2.51228e-05 2.15334e-05 -9.20878e-08
-2.59512e-08 -9.20878e-08 -3.97349e-05
0.000638754 4.20342e-05 -2.01944e-06
4.20342e-05 5.18248e-05 3.46805e-07
-2.01944e-06 3.46805e-07 -4.58034e-05
0.0023469 -5.25726e-05 -2.06207e-05
-5.25726e-05 0.00103217 -4.64072e-06
-2.06207e-05 -4.64072e-06 0.00104602
0.000564533 -1.90383e-05 -2.98719e-07
-1.90383e-05 -3.55912e-05 -6.60407e-08
-2.98719e-07 -6.60407e-08 -5.10567e-05
0.000561944 2.82179e-05 -1.31438e-06
2.82179e-05 -1.46614e-05 8.50496e-07
-1.31438e-06 8.50496e-07 -7.08559e-05
0.00222269 -3.69371e-05 -4.03694e-06
-3.69371e-05 0.000954823 1.52441e-07
-4.03694e-06 1.52441e-07 0.000971204
0.000567061 -1.30437e-05 -6.06021e-07
-1.30437e-05 -3.68043e-05 3.72004e-06
-6.06021e-07 3.72004e-06 -4.85115e-05
0.00212668 -2.18765e-05 1.08995e-05
-2.18765e-05 0.000895424 4.68588e-06
1.08995e-05 4.68588e-06 0.000913596
0.000504361 -7.86135e-05 1.82637e-06
-7.86135e-05 2.85776e-05 7.81517e-06
1.82637e-06 7.81517e-06 7.8548e-05
0.00147659 -8.23508e-05 -1.54379e-05
-8.23508e-05 -0.000330938 2.49234e-05
-1.54379e-05 2.49234e-05 -9.84564e-05
0.000883538 -5.29679e-05 7.5688e-06
-5.29679e-05 0.000403699 -1.31386e-05
7.5688e-06 -1.31386e-05 0.000345054
0.000727375 5.86644e-05 -2.19636e-07
5.86644e-05 0.00010575 1.04775e-07
-2.19636e-07 1.04775e-07 -1.72604e-05
0.000717742 4.14126e-05 1.03812e-06
4.14126e-05 7.81735e-05 -2.12524e-07
1.03812e-06 -2.12524e-07 -3.95456e-05
0.000184562 3.03908e-05 -3.40278e-06
3.03908e-05 -0.000235065 -4.17322e-06
-3.40278e-06 -4.17322e-06 -0.00034645
0.000402181 1.03206e-05 1.68807e-07
1.03206e-05 -9.38954e-05 9.40122e-08
1.68807e-07 9.40122e-08 -0.000211672
0.00135426 0.000149791 -7.79477e-07
0.000149791 0.000483214 -1.10506e-06
-7.79477e-07 -1.10506e-06 0.000338163
0.000646464 2.77445e-05 -1.36635e-06
2.77445e-05 3.63412e-05 7.58767e-07
-1.36635e-06 7.58767e-07 -7.09646e-05
0.000665177 5.04512e-05 -2.0269e-06
5.04512e-05 6.53619e-05 -2.61137e-06
-2.0269e-06 -2.61137e-06 -5.52374e-05
0.000769982 6.13704e-05 -1.06761e-07
6.13704e-05 0.000127834 -1.97534e-07
-1.06761e-07 -1.97534e-07 4.24077e-06
0.000975567 9.70587e-05 1.84892e-07
9.70587e-05 0.000259021 6.00149e-08
1.84892e-07 6.00149e-08 0.000125578
0.00106973 7.44971e-05 2.17681e-06
7.44971e-05 0.000329699 -1.58648e-06
2.17681e-06 -1.58648e-06 0.000192399
0.00307311 0.0002324 0.000163366
0.0002324 0.00181879 0.000231137
0.000163366 0.000231137 -0.00104048
0.000501632 8.2243e-05 8.82199e-06
8.2243e-05 7.76911e-05 6.26279e-05
8.82199e-06 6.26279e-05 -0.00148592
0.00261148 -4.44285e-05 -1.07618e-05
-4.44285e-05 0.000689641 -4.12167e-06
-1.07618e-05 -4.12167e-06 0.000112739
0.00946276 -0.00109164 -9.48948e-05
-0.00109164 0.00132583 -0.000103469
-9.48948e-05 -0.000103469 0.00270718
-0.010299 0.000869239 -2.65792e-05
0.000869239 -0.00343798 0.000242391
-2.65792e-05 0.000242391 -0.00589031
0.0053977 -0.00116014 -0.000126205
-0.00116014 0.00208554 4.59572e-05
-0.000126205 4.59572e-05 0.00160575
0.0107756 -0.000975193 -5.27916e-05
-0.000975193 0.00478481 -2.74456e-06
-5.27916e-05 -2.74456e-06 0.00120207
0.00224263 -0.000207805 -1.64639e-05
-0.000207805 0.000545981 5.98265e-05
-1.64639e-05 5.98265e-05 0.000268319
0.01151 -0.000117345 -4.1197e-06
-0.000117345 0.00581821 -1.31531e-05
-4.1197e-06 -1.31531e-05 0.00145407
0.00233666 -0.00123207 5.20507e-05
-0.00123207 0.000581615 6.85289e-05
5.20507e-05 6.85289e-05 -0.00110124
0.00481805 -0.00145108 -0.000137663
-0.00145108 -0.00121446 -0.000313231
-0.000137663 -0.000313231 -0.000228
0.00335194 3.62037e-05 -0.000131498
3.62037e-05 0.000929818 4.70115e-05
-0.000131498 4.70115e-05 0.000375753
0.00982954 0.00100504 -3.98618e-05
0.00100504 0.0045781 1.82478e-05
-3.98618e-05 1.82478e-05 0.001052
0.011104 -0.00214607 -6.89836e-05
-0.00214607 0.00375581 -0.000267414
-6.89836e-05 -0.000267414 0.00340667
0.00790293 -0.00236983 7.14731e-05
-0.00236983 0.00173815 3.30072e-06
7.14731e-05 3.30072e-06 0.00296553
0.000126876 7.01291e-05 2.91212e-06
7.01291e-05 -0.000146831 -4.75102e-06
2.91212e-06 -4.75102e-06 -0.000277652
0.000943155 2.28769e-05 9.71432e-07
2.28769e-05 0.000270623 2.96141e-06
9.71432e-07 2.96141e-06 0.000128737
0.000724541 7.54275e-05 -2.07313e-06
7.54275e-05 0.00012317 -5.83403e-06
-2.07313e-06 -5.83403e-06 -2.07137e-05
0.00168668 -0.000131242 -3.69019e-05
-0.000131242 0.00104928 2.27857e-05
-3.69019e-05 2.27857e-05 0.000343299
0.00107297 -3.80949e-05 -7.1367e-05
-3.80949e-05 0.000715774 -2.32443e-05
-7.1367e-05 -2.32443e-05 0.00060254
0.00073675 9.94434e-06 -3.19398e-06
9.94434e-06 0.000142331 5.85743e-06
-3.19398e-06 5.85743e-06 2.09025e-05
-0.00117167 0.000104107 -7.39983e-06
0.000104107 -0.000648861 -3.60564e-06
-7.39983e-06 -3.60564e-06 -0.000942354
0.00049317 7.53063e-05 4.00093e-07
7.53063e-05 0.000191684 -2.75328e-06
4.00093e-07 -2.75328e-06 5.87024e-06
0.000628461 0.000128162 -1.76447e-06
0.000128162 0.000397594 2.9863e-06
-1.76447e-06 2.9863e-06 0.000133712
-0.000331259 -7.59967e-05 0.000128993
-7.59967e-05 0.00070262 -4.21977e-05
0.000128993 -4.21977e-05 -0.000499918
-0.00229114 7.22326e-06 -2.24742e-05
7.22326e-06 -0.00123328 1.35769e-05
-2.24742e-05 1.35769e-05 -0.00144005
0.00251721 0.000292705 -4.16554e-05
0.000292705 0.00155868 -4.26624e-05
-4.16554e-05 -4.26624e-05 0.000741266
0.00182761 2.45792e-05 8.29851e-05
2.45792e-05 0.00107015 1.24668e-05
8.29851e-05 1.24668e-05 -0.000811055
0.000260569 -3.98855e-07 1.59764e-05
-3.98855e-07 0.000526426 1.33217e-05
1.59764e-05 1.33217e-05 -2.32431e-05
0.00177026 -6.59436e-05 3.89397e-07
-6.59436e-05 0.000296786 -5.4136e-07
3.89397e-07 -5.4136e-07 0.0003454
-0.00190674 0.000255291 9.32581e-05
0.000255291 -0.000519924 8.04394e-06
9.32581e-05 8.04394e-06 -0.00117971
0.00333262 0.000135609 -2.9309e-05
0.000135609 0.00152383 9.99978e-06
-2.9309e-05 9.99978e-06 0.000854458
0.000926372 -2.5866e-05 -6.40772e-06
-2.5866e-05 0.000405265 1.12636e-05
-6.40772e-06 1.12636e-05 0.000356762
0.0161379 -0.00158168 0.00012793
-0.00158168 0.006962 -3.76775e-05
0.00012793 -3.76775e-05 0.00294351
0.0109541 0.00164119 -6.87047e-05
0.00164119 0.00375531 -4.9434e-05
-6.87047e-05 -4.9434e-05 0.0028943
0.00383601 -0.000471015 -7.72312e-05
-0.000471015 0.00134539 0.000124283
-7.72312e-05 0.000124283 -0.00166642
-0.00734636 0.00258471 0.000683048
0.00258471 -0.00328666 -0.000516709
0.000683048 -0.000516709 -0.00181359
0.000896921 -0.000172433 1.02307e-05
-0.000172433 0.000765424 -3.81116e-06
1.02307e-05 -3.81116e-06 0.000307206
0.000929942 -0.00013648 -1.12458e-06
-0.00013648 5.57321e-05 1.12163e-05
-1.12458e-06 1.12163e-05 -0.00156872
-0.0028289 0.000167523 -0.000383051
0.000167523 0.00209935 0.000163504
-0.000383051 0.000163504 0.000486086
0.00157847 -0.00034528 -2.44391e-05
-0.00034528 0.000351064 3.62922e-05
-2.44391e-05 3.62922e-05 2.51154e-05
0.0115179 0.00216654 9.51991e-05
0.00216654 0.00354249 7.75804e-05
9.51991e-05 7.75804e-05 0.00384218
0.00763249 -0.00149685 8.38581e-05
-0.00149685 0.00317535 -5.32228e-05
8.38581e-05 -5.32228e-05 0.000112107
0.00130594 -0.000354315 4.48904e-06
-0.000354315 0.000470242 2.26987e-05
4.48904e-06 2.26987e-05 0.000436054
-0.00419635 -0.000391589 3.82523e-05
-0.000391589 0.001656 -2.30457e-05
3.82523e-05 -2.30457e-05 -0.000573007
0.0101033 0.0020045 -0.000414905
0.0020045 0.00465998 0.000195674
-0.000414905 0.000195674 0.00444295
0.0025167 -0.00090126 -0.000199806
-0.00090126 -0.000255063 0.000135178
-0.000199806 0.000135178 -0.00342925
0.00251572 -0.00091886 9.47765e-05
-0.00091886 0.00051069 -4.39826e-05
9.47765e-05 -4.39826e-05 0.000415426
-9.16304e-05 -0.000185577 -4.59164e-05
-0.000185577 0.000100241 1.24827e-05
-4.59164e-05 1.24827e-05 -0.0001747
0.000600588 -0.000276138 -3.55822e-06
-0.000276138 0.000263747 6.33709e-06
-3.55822e-06 6.33709e-06 2.92404e-05
0.00349054 -0.000575768 3.20715e-05
-0.000575768 0.00137255 1.43539e-06
3.20715e-05 1.43539e-06 0.00123305
-0.00263021 -5.15966e-05 -1.74275e-06
-5.15966e-05 -0.00147482 9.87979e-06
-1.74275e-06 9.87979e-06 -0.00174249
0.000715351 -0.000336796 3.66111e-06
-0.000336796 3.18336e-06 2.13329e-06
3.66111e-06 2.13329e-06 -0.000294293
0.00236186 -0.000570038 5.38407e-06
-0.000570038 0.000577556 8.66762e-07
5.38407e-06 8.66762e-07 0.000313963
0.00297092 -0.000491153 -1.29344e-05
-0.000491153 0.00125684 4.14729e-06
-1.29344e-05 4.14729e-06 0.000902545
0.00131377 -0.000398851 -2.52836e-06
-0.000398851 0.000234281 -3.92325e-06
-2.52836e-06 -3.92325e-06 -0.000148538
0.00193654 -0.000530128 4.60603e-06
-0.000530128 0.000336151 -5.48928e-06
4.60603e-06 -5.48928e-06 3.95885e-05
0.0025864 -0.000513449 -3.77386e-06
-0.000513449 0.000867621 -1.70655e-06
-3.77386e-06 -1.70655e-06 0.000497627
0.00161181 -0.000442649 6.95659e-08
-0.000442649 0.000289893 -3.39287e-06
6.95659e-08 -3.39287e-06 -5.79331e-05
0.00203242 -0.000455151 1.79435e-07
-0.000455151 0.000376799 -6.58727e-06
1.79435e-07 -6.58727e-06 0.000122063
0.00168795 -0.000355518 -2.76058e-06
-0.000355518 0.000132825 -3.24884e-06
-2.76058e-06 -3.24884e-06 -6.94384e-05
0.00161255 -0.000421184 2.00802e-06
-0.000421184 0.000182769 -7.26751e-07
2.00802e-06 -7.26751e-07 -7.6617e-05
0.00176769 -0.000424338 1.94773e-06
-0.000424338 0.000288964 -2.33411e-06
1.94773e-06 -2.33411e-06 2.96757e-05
0.0017051 -0.000369481 -5.01856e-07
-0.000369481 0.000368191 2.44408e-06
-5.01856e-07 2.44408e-06 0.0001169
0.00176736 -0.000434992 -1.87885e-06
-0.000434992 0.000364586 1.14749e-07
-1.87885e-06 1.14749e-07 8.17743e-05
0.00168208 -0.000441411 1.3771e-06
-0.000441411 0.000318244 -3.63874e-06
1.3771e-06 -3.63874e-06 8.78969e-06
0.00140054 -0.000279609 3.75902e-06
-0.000279609 0.000348294 1.14153e-06
3.75902e-06 1.14153e-06 0.000127149
0.000818684 -0.000243851 5.76195e-07
-0.000243851 -2.95893e-05 -4.4086e-07
5.76195e-07 -4.4086e-07 -0.000239654
0.00135846 -0.000301366 4.41235e-06
-0.000301366 0.000262923 -3.65427e-06
4.41235e-06 -3.65427e-06 3.6374e-05
0.000630918 -0.000169737 -2.02222e-07
-0.000169737 2.32973e-05 -2.07054e-07
-2.02222e-07 -2.07054e-07 -0.000164648
0.00090266 -0.000207833 2.28452e-08
-0.000207833 0.000153661 -5.32389e-07
2.28452e-08 -5.32389e-07 -5.69868e-05
0.000876135 -0.000220215 -3.35144e-06
-0.000220215 9.48757e-05 -1.26114e-06
-3.35144e-06 -1.26114e-06 -0.000112892
0.00039126 2.40821e-05 7.64977e-07
2.40821e-05 -9.36738e-05 4.81479e-06
7.64977e-07 4.81479e-06 -0.000201239
0.000778621 -9.39642e-05 1.18098e-06
-9.39642e-05 0.000161845 7.07794e-07
1.18098e-06 7.07794e-07 -1.08244e-05
0.00105519 -0.000151836 -2.42846e-06
-0.000151836 0.000330455 5.82382e-07
-2.42846e-06 5.82382e-07 0.000140968
0.00140988 9.31715e-05 -1.57519e-05
9.31715e-05 0.000511647 4.59772e-06
-1.57519e-05 4.59772e-06 0.000478625
0.000667185 4.32782e-07 -3.48626e-07
4.32782e-07 5.8347e-05 -6.62559e-07
-3.48626e-07 -6.62559e-07 -2.40186e-05
0.000999087 -6.64396e-05 -2.04092e-06
-6.64396e-05 0.000288297 -1.73777e-06
-2.04092e-06 -1.73777e-06 0.000148701
0.000748431 4.94754e-05 -2.83468e-05
4.94754e-05 0.000109473 3.6344e-06
-2.83468e-05 3.6344e-06 0.000107559
0.000981839 7.36701e-05 -8.50535e-06
7.36701e-05 0.000245119 -3.0893e-08
-8.50535e-06 -3.0893e-08 0.000217177
0.000675473 9.12064e-06 1.0042e-06
9.12064e-06 5.41193e-05 -2.98492e-06
1.0042e-06 -2.98492e-06 -1.34812e-05
0.000556826 5.85389e-05 -7.00055e-07
5.85389e-05 -1.74417e-05 -5.07729e-06
-7.00055e-07 -5.07729e-06 -4.32141e-05
0.00241495 0.000100239 3.68927e-06
0.000100239 0.0010985 3.33923e-07
3.68927e-06 3.33923e-07 0.001103
0.00236045 8.74621e-05 2.26702e-05
8.74621e-05 0.0010586 -3.8261e-06
2.26702e-05 -3.8261e-06 0.00106605
0.000701406 5.66888e-05 3.87213e-07
5.66888e-05 8.42785e-05 3.56794e-07
3.87213e-07 3.56794e-07 -3.60452e-05
0.000788337 7.38308e-05 2.37488e-07
7.38308e-05 0.000152682 -1.89986e-06
2.37488e-07 -1.89986e-06 2.99082e-05
0.000627712 4.48688e-05 -2.19958e-07
4.48688e-05 4.10983e-05 2.7043e-07
-2.19958e-07 2.7043e-07 -7.67315e-05
0.000646538 5.73396e-06 -4.19611e-07
5.73396e-06 3.31683e-05 -2.94909e-06
-4.19611e-07 -2.94909e-06 -3.92238e-05
0.000727766 6.12403e-05 5.94935e-07
6.12403e-05 0.000107345 3.57434e-08
5.94935e-07 3.57434e-08 -2.47154e-06
0.000553207 -2.41802e-05 -6.96974e-07
-2.41802e-05 -3.40555e-05 -5.46759e-06
-6.96974e-07 -5.46759e-06 -5.77691e-05
0.000622443 1.9719e-05 -3.19047e-08
1.9719e-05 1.96388e-05 -1.08408e-07
-3.19047e-08 -1.08408e-07 -4.78721e-05
0.000739214 6.68431e-05 -5.39711e-07
6.68431e-05 0.00013079 1.75306e-06
-5.39711e-07 1.75306e-06 1.3752e-05
0.00248302 -6.73813e-05 -2.69164e-05
-6.73813e-05 0.00111747 -4.49681e-06
-2.69164e-05 -4.49681e-06 0.00112867
0.000546706 -2.41556e-05 -4.1989e-07
-2.41556e-05 -4.27134e-05 -4.49859e-08
-4.1989e-07 -4.49859e-08 -6.21288e-05
0.000612986 2.73174e-05 3.21747e-07
2.73174e-05 1.4244e-05 2.5329e-06
3.21747e-07 2.5329e-06 -4.7021e-05
0.00235236 -5.1779e-05 -4.23433e-06
-5.1779e-05 0.0010351 2.22077e-07
-4.23433e-06 2.22077e-07 0.00104915
0.000550934 -1.9426e-05 -8.12704e-07
-1.9426e-05 -4.34384e-05 4.18138e-06
-8.12704e-07 4.18138e-06 -5.87763e-05
0.00222473 -3.56528e-05 1.56773e-05
-3.56528e-05 0.000955628 4.6237e-06
1.56773e-05 4.6237e-06 0.000972213
0.00436216 6.71922e-05 9.82982e-05
6.71922e-05 0.00173364 2.47186e-05
9.82982e-05 2.47186e-05 0.000619225
0.000455292 -7.44729e-05 -1.0411e-06
-7.44729e-05 4.15534e-05 7.03446e-07
-1.0411e-06 7.03446e-07 7.93827e-05
0.0013479 -7.86443e-05 -1.61769e-05
-7.86443e-05 -0.000386237 4.63652e-06
-1.61769e-05 4.63652e-06 -0.000116818
0.000568698 0.000103995 -5.51071e-06
0.000103995 -3.56689e-06 -1.49567e-06
-5.51071e-06 -1.49567e-06 -0.000127485
0.000824379 6.15413e-05 -6.21534e-07
6.15413e-05 0.000158982 4.75449e-07
-6.21534e-07 4.75449e-07 3.98923e-05
0.000525415 3.10532e-05 6.54015e-07
3.10532e-05 -3.50357e-05 -4.40028e-08
6.54015e-07 -4.40028e-08 -0.000149586
0.000801174 3.51348e-05 -2.12608e-08
3.51348e-05 0.00013262 -9.51545e-08
-2.12608e-08 -9.51545e-08 1.5499e-05
0.000775945 7.6314e-05 -6.19395e-07
7.6314e-05 0.000111707 5.05701e-08
-6.19395e-07 5.05701e-08 -6.4702e-06
0.00106363 0.000124208 7.88892e-07
0.000124208 0.000308078 1.47689e-07
7.88892e-07 1.47689e-07 0.000172562
0.000877009 9.91084e-05 -1.31407e-06
9.91084e-05 0.000177103 -6.11901e-06
-1.31407e-06 -6.11901e-06 2.81537e-05
9.73578e-05 2.2155e-05 9.02045e-08
2.2155e-05 -0.000245266 -4.31626e-07
9.02045e-08 -4.31626e-07 -0.000375186
0.000808116 0.000114228 -1.52623e-06
0.000114228 0.000161178 1.11058e-06
-1.52623e-06 1.11058e-06 2.83642e-05
0.000464844 1.7836e-05 -2.42366e-06
1.7836e-05 -5.94742e-05 -2.50708e-06
-2.42366e-06 -2.50708e-06 -0.000171559
0.00058653 5.78678e-05 -1.84225e-07
5.78678e-05 4.35774e-05 8.38474e-07
-1.84225e-07 8.38474e-07 -8.83724e-05
0.00161682 0.000159353 8.1651e-06
0.000159353 0.000688068 5.95811e-06
8.1651e-06 5.95811e-06 0.000545193
0.00113381 -0.000859135 0.000115563
-0.000859135 0.00255404 0.000192036
0.000115563 0.000192036 0.000645358
0.00358109 0.00030594 2.34899e-05
0.00030594 0.00185979 7.94378e-05
2.34899e-05 7.94378e-05 -0.00107724
0.00079167 9.31839e-05 -2.14296e-05
9.31839e-05 0.000253429 -3.83121e-05
-2.14296e-05 -3.83121e-05 -0.00144322
0.00948614 -0.00187291 -0.000249849
-0.00187291 0.00128677 -0.000187147
-0.000249849 -0.000187147 0.00221946
0.00551125 -0.000660592 6.06274e-05
-0.000660592 0.00132282 0.000234114
6.06274e-05 0.000234114 2.31687e-05
0.00069939 -0.000804634 -9.59758e-05
-0.000804634 0.00183366 8.94985e-05
-9.59758e-05 8.94985e-05 -0.00283836
0.000972864 -0.000301132 8.64657e-06
-0.000301132 0.000111527 6.58779e-05
8.64657e-06 6.58779e-05 -0.000461682
0.00250154 -0.000127437 2.68224e-05
-0.000127437 0.000624911 5.18426e-05
2.68224e-05 5.18426e-05 0.000249033
0.000600405 -0.00243018 0.000116505
-0.00243018 -0.000691939 0.000130811
0.000116505 0.000130811 0.000696124
0.00486464 0.000885907 -7.7433e-06
0.000885907 0.00358523 -2.29365e-05
-7.7433e-06 -2.29365e-05 -0.000744702
0.00287095 -0.00125622 -3.92357e-05
-0.00125622 -0.000833993 4.9827e-05
-3.92357e-05 4.9827e-05 -0.00127564
0.000845702 0.000337853 -3.5821e-06
0.000337853 -4.10935e-05 4.63958e-05
-3.5821e-06 4.63958e-05 -0.000142722
0.00824467 0.000946091 -3.99952e-05
0.000946091 0.00389003 -1.50859e-05
-3.99952e-05 -1.50859e-05 0.000749809
0.00342838 -0.00206982 -0.000215574
-0.00206982 -8.21564e-05 -0.000197281
-0.000215574 -0.000197281 5.75411e-05
0.00093762 0.00032047 5.72335e-06
0.00032047 0.00023115 -1.27413e-05
5.72335e-06 -1.27413e-05 9.19558e-05
0.000652322 9.20489e-05 2.92278e-06
9.20489e-05 0.000148003 -5.23436e-07
2.92278e-06 -5.23436e-07 2.18297e-05
0.000491887 4.05786e-05 -2.69114e-06
4.05786e-05 1.61108e-05 -1.98112e-06
-2.69114e-06 -1.98112e-06 -0.000134452
-6.6044e-05 -7.03547e-05 -0.000166924
-7.03547e-05 0.000967394 -4.43879e-05
-0.000166924 -4.43879e-05 -0.000180345
-0.00218253 0.000138033 4.02031e-06
0.000138033 -0.00114785 -1.58693e-05
4.02031e-06 -1.58693e-05 -0.00143558
6.9502e-05 0.000106353 -3.08708e-06
0.000106353 -4.16451e-05 5.09519e-06
-3.08708e-06 5.09519e-06 -0.000247017
0.000555016 0.000302186 1.13186e-05
0.000302186 0.000246725 3.38206e-06
1.13186e-05 3.38206e-06 2.45355e-05
0.000770105 0.000255388 -2.248e-06
0.000255388 0.000565994 -3.32065e-05
-2.248e-06 -3.32065e-05 -0.000134509
-9.59557e-05 0.000489162 2.8615e-05
0.000489162 -0.00046451 7.21016e-06
2.8615e-05 7.21016e-06 -0.000800398
-0.00114136 0.000305967 0.000156356
0.000305967 0.00327769 6.28463e-06
0.000156356 6.28463e-06 0.000741173
0.00202964 -1.76617e-05 -5.93979e-06
-1.76617e-05 0.00120543 2.15073e-05
-5.93979e-06 2.15073e-05 -0.000285047
3.17216e-05 -1.73558e-05 1.58228e-06
-1.73558e-05 0.000313167 1.60925e-05
1.58228e-06 1.60925e-05 -0.000121326
0.000238827 -0.000128498 -4.98938e-05
-0.000128498 0.00051486 4.28871e-06
-4.98938e-05 4.28871e-06 4.89366e-05
3.37763e-06 -8.94326e-05 -5.67987e-05
-8.94326e-05 -0.000948959 1.78331e-05
-5.67987e-05 1.78331e-05 -0.000719557
0.00141833 -0.000112253 -9.23272e-05
-0.000112253 0.000247012 3.15322e-05
-9.23272e-05 3.15322e-05 -0.00130289
-0.0018962 -0.00139029 6.90067e-05
-0.00139029 -1.37177e-05 -9.61436e-05
6.90067e-05 -9.61436e-05 -0.00401541
-0.00130002 0.00173173 0.000184205
0.00173173 -0.00342951 -0.000173172
0.000184205 -0.000173172 -0.00295968
0.0025503 0.000806316 -0.000194641
0.000806316 0.00335479 0.000160073
-0.000194641 0.000160073 0.00222077
0.00166583 -0.000177375 -8.16298e-06
-0.000177375 0.000586485 -8.8661e-07
-8.16298e-06 -8.8661e-07 0.000651001
0.0015406 0.000184129 3.10075e-05
0.000184129 0.00355943 7.32138e-06
3.10075e-05 7.32138e-06 0.00211199
-0.00350544 0.00122969 2.68425e-05
0.00122969 -0.000876593 1.39071e-05
2.68425e-05 1.39071e-05 -0.00230597
0.00363484 -0.00108543 4.10913e-05
-0.00108543 0.00127973 -1.15435e-05
4.10913e-05 -1.15435e-05 0.000670095
0.0111824 -0.00079501 1.61023e-05
-0.00079501 0.00362709 -1.13905e-05
1.61023e-05 -1.13905e-05 0.00171168
0.00315893 -0.000659175 -1.25944e-05
-0.000659175 0.00105648 2.35848e-05
-1.25944e-05 2.35848e-05 0.0010882
-0.00819865 0.000472458 -0.00021052
0.000472458 -0.00371691 6.70217e-06
-0.00021052 6.70217e-06 -0.00462654
0.0122221 -0.000443795 -9.11529e-05
-0.000443795 0.00319812 2.81663e-05
-9.11529e-05 2.81663e-05 0.00165588
0.00353436 -0.00122594 1.96835e-05
-0.00122594 -6.03648e-05 -2.16713e-05
1.96835e-05 -2.16713e-05 -0.000559359
0.000777714 -0.000248776 -1.48613e-05
-0.000248776 0.000411181 1.65132e-05
-1.48613e-05 1.65132e-05 0.000115688
0.0015806 -0.000448361 -3.93379e-06
-0.000448361 0.000261815 1.44103e-06
-3.93379e-06 1.44103e-06 0.000219933
0.00300717 -0.000526532 1.24368e-05
-0.000526532 0.00083071 -5.32219e-06
1.24368e-05 -5.32219e-06 0.000762011
-0.00170368 -9.79769e-05 -3.99435e-06
-9.79769e-05 -0.00122827 8.65708e-07
-3.99435e-06 8.65708e-07 -0.00153201
0.00138422 -0.000471244 -5.12037e-06
-0.000471244 0.000106051 -2.94543e-06
-5.12037e-06 -2.94543e-06 -0.000163339
0.00226772 -0.000575187 3.82042e-06
-0.000575187 0.000378812 -3.24701e-07
3.82042e-06 -3.24701e-07 0.00015851
0.00135646 -0.000397149 -1.43507e-05
-0.000397149 0.000235081 -2.34924e-06
-1.43507e-05 -2.34924e-06 -0.000126852
0.00154712 -0.000487317 1.27438e-07
-0.000487317 0.000140755 4.14307e-07
1.27438e-07 4.14307e-07 -0.00015727
0.00162073 -0.00043649 3.67271e-07
-0.00043649 1.04443e-05 -5.29886e-06
3.67271e-07 -5.29886e-06 -0.00018747
0.00126059 -0.000415602 -3.52702e-06
-0.000415602 7.10498e-05 -2.66017e-07
-3.52702e-06 -2.66017e-07 -0.000263103
0.00162396 -0.000417632 -3.91438e-07
-0.000417632 0.000151155 7.01414e-07
-3.91438e-07 7.01414e-07 -9.67783e-05
0.00174863 -0.000351494 -1.84343e-06
-0.000351494 0.000101321 -5.04309e-06
-1.84343e-06 -5.04309e-06 -6.16439e-05
0.00162771 -0.000280947 -4.03804e-06
-0.000280947 4.52241e-05 -3.05215e-06
-4.03804e-06 -3.05215e-06 -9.90216e-05
0.00154605 -0.000342647 -2.79288e-06
-0.000342647 7.23688e-05 -2.15918e-06
-2.79288e-06 -2.15918e-06 -0.0001353
0.00163266 -0.000343791 9.70666e-07
-0.000343791 0.000107165 1.53152e-06
9.70666e-07 1.53152e-06 -8.99703e-05
0.00147982 -0.000364205 -2.28142e-06
-0.000364205 0.000153978 -6.67337e-07
-2.28142e-06 -6.67337e-07 -8.96537e-05
0.00164558 -0.000418628 1.61733e-06
-0.000418628 0.000211974 -2.60354e-07
1.61733e-06 -2.60354e-07 -4.47262e-05
0.00161386 -0.000410639 1.54582e-06
-0.000410639 0.000203846 2.08695e-07
1.54582e-06 2.08695e-07 -5.15593e-05
0.00144436 -0.000300887 -1.28471e-06
-0.000300887 0.000273856 1.18159e-06
-1.28471e-06 1.18159e-06 5.06805e-05
0.00146162 -0.000349879 1.48678e-06
-0.000349879 0.000230693 -7.85589e-07
1.48678e-06 -7.85589e-07 -1.72428e-05
0.00165748 -0.000425246 -2.24066e-06
-0.000425246 0.00031984 -1.80738e-06
-2.24066e-06 -1.80738e-06 3.35012e-05
0.000948566 -0.000211264 -1.21619e-06
-0.000211264 0.00012872 2.8465e-06
-1.21619e-06 2.8465e-06 -6.7352e-05
0.00118586 -0.000258773 1.23044e-06
-0.000258773 0.000216706 5.65581e-07
1.23044e-06 5.65581e-07 -3.10545e-08
0.000983452 -0.00025484 -1.09486e-06
-0.00025484 7.0154e-05 -3.92114e-06
-1.09486e-06 -3.92114e-06 -0.000138488
0.000705376 -7.96491e-05 -7.09385e-07
-7.96491e-05 7.88064e-05 5.42597e-06
-7.09385e-07 5.42597e-06 -6.16688e-05
0.000959548 -0.0001777 -1.2498e-07
-0.0001777 0.000215223 -1.09159e-07
-1.2498e-07 -1.09159e-07 2.44987e-05
0.000464091 -0.000163568 -4.16392e-06
-0.000163568 -0.000102779 -6.70331e-07
-4.16392e-06 -6.70331e-07 -0.00030418
0.000388861 4.4365e-05 2.56214e-07
4.4365e-05 -9.56213e-05 7.94898e-06
2.56214e-07 7.94898e-06 -0.000140038
0.000697319 -4.57223e-05 -5.9232e-07
-4.57223e-05 8.64993e-05 -4.94561e-07
-5.9232e-07 -4.94561e-07 -2.79112e-05
0.0011874 -0.000123047 9.30547e-07
-0.000123047 0.000407525 -1.41972e-06
9.30547e-07 -1.41972e-06 0.000225865
0.00261882 0.000141508 -6.76243e-06
0.000141508 0.00123716 1.84288e-06
-6.76243e-06 1.84288e-06 0.00123016
0.000526467 5.48235e-05 -3.5887e-07
5.48235e-05 -1.98958e-05 -2.42501e-07
-3.5887e-07 -2.42501e-07 -5.49654e-05
0.000789121 -2.19857e-05 2.07327e-06
-2.19857e-05 0.000128545 -4.19641e-06
2.07327e-06 -4.19641e-06 4.41932e-05
0.00250375 0.000113167 3.82208e-06
0.000113167 0.00115873 3.12725e-07
3.82208e-06 3.12725e-07 0.00116019
0.000561966 5.7443e-05 -2.37052e-07
5.7443e-05 -5.61517e-06 -5.54749e-06
-2.37052e-07 -5.54749e-06 -3.49454e-05
0.0024707 0.000102531 2.84849e-05
0.000102531 0.00113242 -3.31837e-06
2.84849e-05 -3.31837e-06 0.00113643
0.000891029 0.000121009 4.73776e-07
0.000121009 0.000189979 1.7754e-06
4.73776e-07 1.7754e-06 5.52434e-05
0.000779772 6.92907e-05 5.72426e-09
6.92907e-05 0.000132923 -9.74435e-08
5.72426e-09 -9.74435e-08 8.89832e-06
0.000807684 5.88701e-05 1.15044e-09
5.88701e-05 0.000169087 -2.55292e-06
1.15044e-09 -2.55292e-06 3.64871e-05
0.000653698 3.18012e-06 -8.37627e-07
3.18012e-06 4.14045e-05 -3.54626e-06
-8.37627e-07 -3.54626e-06 -3.68889e-05
0.000722032 4.37101e-05 3.29135e-07
4.37101e-05 0.00010644 2.28273e-07
3.29135e-07 2.28273e-07 -1.03024e-05
0.000578262 5.75334e-05 8.9351e-07
5.75334e-05 1.9276e-05 1.22143e-06
8.9351e-07 1.22143e-06 -0.000103714
0.000556616 -2.64133e-05 -1.19954e-06
-2.64133e-05 -2.76578e-05 -5.98607e-06
-1.19954e-06 -5.98607e-06 -5.55568e-05
0.000628842 1.18319e-05 -3.18249e-08
1.18319e-05 2.54711e-05 -7.69029e-08
-3.18249e-08 -7.69029e-08 -4.79322e-05
0.00070126 5.87489e-05 4.38911e-07
5.87489e-05 8.77337e-05 1.50756e-06
4.38911e-07 1.50756e-06 -1.79049e-05
0.00261874 -8.1879e-05 -3.46277e-05
-8.1879e-05 0.00120368 -4.23764e-06
-3.46277e-05 -4.23764e-06 0.001212
0.000533681 -2.3939e-05 -3.8669e-07
-2.3939e-05 -4.60601e-05 -9.11471e-08
-3.8669e-07 -9.11471e-08 -6.94377e-05
0.000622469 2.24257e-05 3.73773e-07
2.24257e-05 2.04799e-05 2.86003e-06
3.73773e-07 2.86003e-06 -4.72874e-05
0.00245814 -6.63834e-05 -4.70067e-06
-6.63834e-05 0.00110218 2.91546e-07
-4.70067e-06 2.91546e-07 0.00111366
0.000540525 -2.41232e-05 -7.64531e-07
-2.41232e-05 -4.64252e-05 4.78896e-06
-7.64531e-07 4.78896e-06 -6.56501e-05
0.00231273 -5.01787e-05 1.98977e-05
-5.01787e-05 0.00101108 4.53054e-06
1.98977e-05 4.53054e-06 0.00102555
-0.00577727 0.000247307 -7.48313e-06
0.000247307 0.00125048 4.31679e-05
-7.48313e-06 4.31679e-05 -0.00151312
0.00419355 6.80047e-06 -2.81438e-06
6.80047e-06 0.00190663 6.24947e-06
-2.81438e-06 6.24947e-06 0.00075823
0.000490125 -7.76423e-05 -7.6156e-06
-7.76423e-05 1.82797e-05 -4.81797e-06
-7.6156e-06 -4.81797e-06 4.26069e-05
0.000505444 7.2588e-05 -1.28464e-06
7.2588e-05 -4.48741e-05 1.14537e-06
-1.28464e-06 1.14537e-06 -0.000162219
0.00209792 0.000306116 -6.07678e-07
0.000306116 0.000908159 3.1062e-06
-6.07678e-07 3.1062e-06 0.000731737
0.000747658 7.53843e-05 -3.5059e-06
7.53843e-05 9.58953e-05 -5.95221e-07
-3.5059e-06 -5.95221e-07 -3.35311e-05
0.00103752 3.81904e-05 -5.34094e-07
3.81904e-05 0.000266335 -1.015e-06
-5.34094e-07 -1.015e-06 0.000151224
0.00131406 0.000128117 2.34629e-06
0.000128117 0.000424628 5.15298e-07
2.34629e-06 5.15298e-07 0.000301379
0.000498852 4.92924e-05 -1.9193e-06
4.92924e-05 -4.00248e-05 2.67679e-06
-1.9193e-06 2.67679e-06 -0.00015379
0.000567613 6.72488e-05 -1.13769e-06
6.72488e-05 3.81632e-05 1.20835e-06
-1.13769e-06 1.20835e-06 -0.000103658
0.000724417 7.78877e-05 -1.42277e-06
7.78877e-05 8.75052e-05 -1.51207e-06
-1.42277e-06 -1.51207e-06 -5.41642e-05
0.000914969 0.000145014 1.10561e-06
0.000145014 0.000236084 -4.20623e-06
1.10561e-06 -4.20623e-06 5.78463e-05
0.000464562 0.000209846 1.98567e-06
0.000209846 -0.000105903 -3.32038e-06
1.98567e-06 -3.32038e-06 -0.000213408
0.00098781 8.624e-05 -2.27121e-06
8.624e-05 0.000286005 1.72512e-07
-2.27121e-06 1.72512e-07 0.000144124
0.00109477 0.000141521 4.5918e-07
0.000141521 0.000387837 3.17601e-06
4.5918e-07 3.17601e-06 0.000243051
-0.00512684 -0.000918965 -0.000407721
-0.000918965 -0.00112625 -8.01553e-06
-0.000407721 -8.01553e-06 -0.00247584
-0.00306485 -0.000640954 0.00016778
-0.000640954 0.00148875 8.50854e-05
0.00016778 8.50854e-05 -0.000765712
0.00429326 0.000346108 -0.000146906
0.000346108 0.0019689 -7.52389e-05
-0.000146906 -7.52389e-05 -0.00104991
-0.00782103 -0.00249097 0.000568891
-0.00249097 -0.00313769 0.000448126
0.000568891 0.000448126 -0.00185676
0.0135464 -0.00149921 -5.5811e-05
-0.00149921 0.00415168 0.000136877
-5.5811e-05 0.000136877 0.00387749
-0.00138883 0.00104479 -5.80442e-07
0.00104479 0.000295716 -7.40522e-05
-5.80442e-07 -7.40522e-05 -0.00386635
0.00243944 -1.23336e-05 -0.000136118
-1.23336e-05 0.000978063 3.36947e-05
-0.000136118 3.36947e-05 6.65279e-05
0.00238476 0.000405271 -1.25659e-06
0.000405271 0.000770023 2.38712e-05
-1.25659e-06 2.38712e-05 0.000502696
0.00967421 -0.00165309 -0.000177347
-0.00165309 0.00458727 5.47998e-05
-0.000177347 5.47998e-05 0.00435944
-0.000148466 0.00106961 -1.20877e-05
0.00106961 0.000496489 -2.8462e-05
-1.20877e-05 -2.8462e-05 -0.00282644
0.00170704 0.000766843 -4.02467e-05
0.000766843 0.000304112 -6.14838e-05
-4.02467e-05 -6.14838e-05 0.000193269
0.00437274 0.00159163 -0.000184329
0.00159163 0.000276332 -0.000104507
-0.000184329 -0.000104507 -0.00203365
0.00223861 0.000632866 1.70006e-05
0.000632866 0.000615373 -2.14469e-05
1.70006e-05 -2.14469e-05 0.000382816
0.000828386 0.000292042 -4.41789e-06
0.000292042 0.000168798 6.53044e-07
-4.41789e-06 6.53044e-07 3.92426e-05
0.00126782 0.000101498 -5.18016e-06
0.000101498 0.000492682 4.0199e-06
-5.18016e-06 4.0199e-06 0.000376558
-0.00106846 0.000193325 -4.65318e-05
0.000193325 -0.000449081 -4.67883e-05
-4.65318e-05 -4.67883e-05 -0.00105409
0.0027717 0.000444274 -2.01511e-05
0.000444274 0.0013979 -1.49096e-05
-2.01511e-05 -1.49096e-05 0.00117284
0.00120927 0.000606444 1.30598e-05
0.000606444 0.000145479 -3.93845e-06
1.30598e-05 -3.93845e-06 -0.000194163
0.00314472 0.000972181 0.000100751
0.000972181 0.000497597 3.23155e-05
0.000100751 3.23155e-05 0.000373552
-0.00468674 -8.56669e-05 -0.000288069
-8.56669e-05 -0.00370388 3.97295e-06
-0.000288069 3.97295e-06 -0.00257036
-0.00320722 0.000178802 0.000134871
0.000178802 0.00259553 2.34849e-06
0.000134871 2.34849e-06 -7.81632e-05
0.00209978 -5.2326e-05 -7.04485e-05
-5.2326e-05 0.00129035 2.92746e-05
-7.04485e-05 2.92746e-05 0.00013196
0.00304923 -0.000322003 -6.14695e-05
-0.000322003 0.00116581 -3.64031e-05
-6.14695e-05 -3.64031e-05 0.00120614
0.0014495 -0.000922774 -2.4637e-05
-0.000922774 -3.62496e-05 1.37426e-05
-2.4637e-05 1.37426e-05 -0.000462017
0.00164316 0.000131053 -2.05813e-05
0.000131053 0.00353701 3.3209e-05
-2.05813e-05 3.3209e-05 0.00222228
0.0027467 -0.000916872 0.000169633
-0.000916872 0.000124185 -0.000128939
0.000169633 -0.000128939 -0.00234226
0.0107494 0.0011979 0.000136323
0.0011979 0.00507344 1.5659e-06
0.000136323 1.5659e-06 0.00423136
0.00275741 -0.000772147 -2.17134e-05
-0.000772147 0.000692425 7.71427e-06
-2.17134e-05 7.71427e-06 0.000571801
-0.000588375 0.000576238 7.98128e-05
0.000576238 -0.000479637 -2.00221e-05
7.98128e-05 -2.00221e-05 -0.00108147
0.00473488 -0.000416775 -5.4157e-05
-0.000416775 -0.000476583 5.67561e-05
-5.4157e-05 5.67561e-05 -0.00261655
0.00578882 -0.00134526 -3.44858e-05
-0.00134526 0.00117229 1.58246e-05
-3.44858e-05 1.58246e-05 0.000636595
0.00122696 -0.000519148 4.46931e-05
-0.000519148 -9.59549e-05 -1.09415e-05
4.46931e-05 -1.09415e-05 -0.000285022
0.0102025 -0.000447456 1.30405e-05
-0.000447456 0.0024136 -2.94103e-05
1.30405e-05 -2.94103e-05 0.000931472
0.0038229 -0.000713549 7.01571e-05
-0.000713549 -0.000491613 -4.08988e-05
7.01571e-05 -4.08988e-05 -0.000383272
-0.000745166 -0.000279141 -2.19792e-05
-0.000279141 -0.00105525 9.36376e-06
-2.19792e-05 9.36376e-06 -0.00100313
0.000522746 -0.000363556 -8.50213e-06
-0.000363556 -0.000517805 -1.278e-06
-8.50213e-06 -1.278e-06 -0.000529516
0.00335087 -0.00055983 2.96254e-05
-0.00055983 0.000816017 -1.73815e-05
2.96254e-05 -1.73815e-05 0.000772526
0.000242091 -0.000357499 -1.29082e-05
-0.000357499 -0.000458332 -6.6349e-06
-1.29082e-05 -6.6349e-06 -0.000726762
0.00175335 -0.000526126 5.5443e-08
-0.000526126 0.000119773 -3.06782e-07
5.5443e-08 -3.06782e-07 -8.87609e-05
0.00218902 -0.000477033 -1.15293e-06
-0.000477033 0.000185216 -6.91487e-07
-1.15293e-06 -6.91487e-07 4.98375e-05
0.00144493 -0.000468466 -2.40106e-06
-0.000468466 9.28366e-05 4.07226e-06
-2.40106e-06 4.07226e-06 -0.000207954
0.00183824 -0.000450717 -2.0756e-06
-0.000450717 0.0001282 6.61103e-07
-2.0756e-06 6.61103e-07 -7.37327e-05
0.00184416 -0.000350512 -4.29406e-07
-0.000350512 4.98004e-05 -1.115e-06
-4.29406e-07 -1.115e-06 -7.22256e-05
0.00127669 -0.000384236 4.11914e-06
-0.000384236 -4.04183e-05 4.42498e-06
4.11914e-06 4.42498e-06 -0.000282009
0.00171768 -0.000342964 -1.05903e-07
-0.000342964 9.14661e-05 8.80839e-07
-1.05903e-07 8.80839e-07 -6.96715e-05
0.00178948 -0.000289442 -3.45341e-06
-0.000289442 8.11448e-05 -1.32523e-06
-3.45341e-06 -1.32523e-06 -3.0657e-05
0.00195238 -0.000272412 -2.54052e-06
-0.000272412 0.000238755 -5.64419e-07
-2.54052e-06 -5.64419e-07 0.000122929
0.00170218 -0.000283039 -2.51257e-06
-0.000283039 8.4477e-05 3.12176e-06
-2.51257e-06 3.12176e-06 -5.52453e-05
0.00174913 -0.000296344 -1.27738e-06
-0.000296344 0.000149936 -5.45095e-06
-1.27738e-06 -5.45095e-06 -9.27832e-06
0.00166519 -0.000340109 -3.95346e-06
-0.000340109 0.00017849 -1.8873e-06
-3.95346e-06 -1.8873e-06 -3.20741e-05
0.00167354 -0.000350851 1.20924e-06
-0.000350851 0.000145746 4.32852e-07
1.20924e-06 4.32852e-07 -6.25324e-05
0.00158123 -0.000332143 3.13947e-06
-0.000332143 8.31503e-05 5.77368e-06
3.13947e-06 5.77368e-06 -0.000108816
0.00143238 -0.000310648 -6.15144e-06
-0.000310648 0.000189558 1.88545e-06
-6.15144e-06 1.88545e-06 -3.19721e-05
0.00146328 -0.000363338 -3.82913e-07
-0.000363338 0.000141084 2.64775e-07
-3.82913e-07 2.64775e-07 -0.000102244
0.00168603 -0.000417268 2.10866e-06
-0.000417268 0.00024459 5.2094e-07
2.10866e-06 5.2094e-07 -9.69446e-06
0.00116752 -0.000241002 -4.13054e-06
-0.000241002 0.000175536 3.38619e-06
-4.13054e-06 3.38619e-06 -2.80171e-05
0.00129597 -0.00028895 1.26075e-07
-0.00028895 0.000184571 2.18362e-07
1.26075e-07 2.18362e-07 -3.7601e-05
0.00125019 -0.000333378 2.27816e-06
-0.000333378 0.000111081 -2.5435e-06
2.27816e-06 -2.5435e-06 -0.000133509
0.000793508 -0.000146982 -5.20213e-06
-0.000146982 9.32794e-05 4.90737e-06
-5.20213e-06 4.90737e-06 -6.59729e-05
0.00108518 -0.000223803 9.75167e-07
-0.000223803 0.000208762 -2.08946e-07
9.75167e-07 -2.08946e-07 1.04492e-05
0.000971005 -0.000238769 1.2081e-06
-0.000238769 8.54902e-05 -1.52811e-06
1.2081e-06 -1.52811e-06 -0.000127355
0.000371752 -9.14954e-06 -4.86643e-06
-9.14954e-06 -0.000123213 1.07313e-05
-4.86643e-06 1.07313e-05 -0.000177079
0.0007176 -0.000105478 4.80952e-07
-0.000105478 8.95848e-05 5.90695e-07
4.80952e-07 5.90695e-07 -5.77522e-05
0.00129427 -0.000197132 2.69065e-07
-0.000197132 0.00041233 -1.36226e-06
2.69065e-07 -1.36226e-06 0.000215773
0.00298535 0.000149772 -4.76135e-05
0.000149772 0.0014584 2.36198e-06
-4.76135e-05 2.36198e-06 0.00145018
0.000530389 3.00666e-05 -2.8574e-07
3.00666e-05 -1.78e-05 -6.40349e-07
-2.8574e-07 -6.40349e-07 -6.12701e-05
0.000971213 -9.29614e-05 2.46042e-06
-9.29614e-05 0.000249445 -4.95026e-06
2.46042e-06 -4.95026e-06 0.000128146
0.00179444 0.000101487 2.26187e-05
0.000101487 0.00074178 3.22665e-07
2.26187e-05 3.22665e-07 0.000735636
0.000608741 4.76913e-05 1.29977e-06
4.76913e-05 2.66071e-05 -6.63366e-06
1.29977e-06 -6.63366e-06 -7.57833e-06
0.002605 0.000115732 3.79848e-05
0.000115732 0.00121905 -2.72382e-06
3.79848e-05 -2.72382e-06 0.00122011
0.000900007 0.00013084 3.02851e-06
0.00013084 0.000174888 9.02241e-07
3.02851e-06 9.02241e-07 4.26177e-05
0.000588797 7.09081e-05 -1.91336e-07
7.09081e-05 6.01357e-06 2.94805e-07
-1.91336e-07 2.94805e-07 -0.000115646
0.000653993 4.62891e-05 -4.83483e-07
4.62891e-05 5.62262e-05 -1.52839e-06
-4.83483e-07 -1.52839e-06 -6.71522e-05
0.000917422 9.19405e-05 6.10936e-07
9.19405e-05 0.000217488 6.85053e-07
6.10936e-07 6.85053e-07 8.80998e-05
0.000710464 3.49956e-05 2.07684e-07
3.49956e-05 9.18426e-05 6.09686e-08
2.07684e-07 6.09686e-08 -2.54088e-05
0.000666194 6.4521e-06 -1.21501e-06
6.4521e-06 5.0946e-05 -4.19657e-06
-1.21501e-06 -4.19657e-06 -3.39404e-05
0.000562831 -2.78181e-05 -1.83325e-06
-2.78181e-05 -1.78742e-05 -6.74141e-06
-1.83325e-06 -6.74141e-06 -4.98788e-05
0.000624021 4.45902e-06 2.29045e-07
4.45902e-06 2.53382e-05 -7.21795e-08
2.29045e-07 -7.21795e-08 -5.35511e-05
0.000641558 1.55926e-05 -2.4659e-07
1.55926e-05 3.97865e-05 1.73751e-06
-2.4659e-07 1.73751e-06 -6.23403e-05
0.00272155 -9.53261e-05 -4.32249e-05
-9.53261e-05 0.00127127 -3.89601e-06
-4.32249e-05 -3.89601e-06 0.00127679
0.000528317 -2.3259e-05 -1.21483e-07
-2.3259e-05 -4.40277e-05 -7.14916e-08
-1.21483e-07 -7.14916e-08 -7.15941e-05
0.000609274 1.68475e-05 8.23962e-07
1.68475e-05 1.69938e-05 3.0893e-06
8.23962e-07 3.0893e-06 -5.76991e-05
0.00258684 -8.12671e-05 -4.99348e-06
-8.12671e-05 0.00118421 3.33814e-07
-4.99348e-06 3.33814e-07 0.0011927
0.00052109 -2.83595e-05 -3.35852e-07
-2.83595e-05 -5.31631e-05 5.39036e-06
-3.35852e-07 5.39036e-06 -7.66655e-05
0.00245956 -6.56695e-05 2.48321e-05
-6.56695e-05 0.00110257 4.44731e-06
2.48321e-05 4.44731e-06 0.00111419
0.000155105 0.000323294 -0.000220347
0.000323294 0.00171027 2.61066e-05
-0.000220347 2.61066e-05 0.000577884
-0.00268365 -4.35185e-06 1.35066e-05
-4.35185e-06 0.0019431 1.42309e-05
1.35066e-05 1.42309e-05 -0.000820425
0.00398612 -4.12502e-05 -7.08361e-05
-4.12502e-05 0.00208413 -6.42918e-06
-7.08361e-05 -6.42918e-06 0.000911354
0.000479572 4.17818e-05 2.49226e-06
4.17818e-05 -6.44129e-05 -1.70333e-06
2.49226e-06 -1.70333e-06 -0.000175788
0.000641524 4.9671e-05 2.41085e-06
4.9671e-05 2.9667e-05 8.68467e-07
2.41085e-06 8.68467e-07 -0.000102605
0.00148983 0.000243343 -1.49033e-06
0.000243343 0.000556298 8.68609e-07
-1.49033e-06 8.68609e-07 0.00039443
0.00143312 0.000285799 3.16724e-06
0.000285799 0.000442212 -2.09919e-06
3.16724e-06 -2.09919e-06 0.000230404
0.0010653 0.000192614 -6.91842e-06
0.000192614 0.000330087 -8.74745e-07
-6.91842e-06 -8.74745e-07 0.000159042
0.00090228 0.000115796 8.57281e-07
0.000115796 0.000236911 3.24541e-06
8.57281e-07 3.24541e-06 8.76433e-05
0.000765335 9.4902e-05 4.35915e-06
9.4902e-05 0.000118399 3.15156e-06
4.35915e-06 3.15156e-06 -2.30907e-05
0.000584827 0.000147234 -4.41181e-06
0.000147234 5.4404e-05 -3.42778e-06
-4.41181e-06 -3.42778e-06 -0.000117473
-0.000531467 0.000119406 -8.72985e-08
0.000119406 -0.0006476 -4.64668e-07
-8.72985e-08 -4.64668e-07 -0.00081921
0.00153032 0.000315735 2.70937e-06
0.000315735 0.000429502 -2.24725e-06
2.70937e-06 -2.24725e-06 0.000303414
0.0020619 0.000538242 3.48884e-06
0.000538242 0.00044566 -9.15209e-06
3.48884e-06 -9.15209e-06 0.000241912
0.000746992 0.000238986 -5.97534e-06
0.000238986 6.98511e-05 -5.92878e-07
-5.97534e-06 -5.92878e-07 -4.83236e-05
0.000672533 9.58341e-05 -6.35646e-07
9.58341e-05 9.65067e-05 -2.08262e-06
-6.35646e-07 -2.08262e-06 -3.56935e-05
0.0111513 0.000868691 -9.35623e-05
0.000868691 0.00271802 3.7348e-05
-9.35623e-05 3.7348e-05 0.00127319
-0.000192951 -0.00073348 -0.000194662
-0.00073348 0.00203076 -6.52408e-05
-0.000194662 -6.52408e-05 0.000584262
-0.00124971 -0.00102573 0.000106257
-0.00102573 0.00154206 -5.79633e-06
0.000106257 -5.79633e-06 -0.000733763
-0.00146955 -0.000906824 2.95115e-05
-0.000906824 -0.000325099 0.000155247
2.95115e-05 0.000155247 -0.000632151
0.0111524 0.00114456 -4.33049e-07
0.00114456 0.00496709 6.36681e-07
-4.33049e-07 6.36681e-07 0.00173317
0.000179115 0.00030866 -3.57957e-05
0.00030866 -0.000323714 -2.50446e-05
-3.57957e-05 -2.50446e-05 -0.000479164
0.00156352 0.00073267 -2.24903e-05
0.00073267 0.000291087 -1.18697e-05
-2.24903e-05 -1.18697e-05 0.000198005
0.010436 0.00102701 2.6627e-05
0.00102701 0.00334633 2.27431e-05
2.6627e-05 2.27431e-05 0.00139042
0.00574875 0.0015054 -4.17889e-05
0.0015054 0.000902136 -4.73832e-05
-4.17889e-05 -4.73832e-05 0.000483382
0.00170647 0.000652432 2.64594e-06
0.000652432 0.000184458 -6.59845e-06
2.64594e-06 -6.59845e-06 1.24491e-05
0.00108293 0.000479954 5.87769e-06
0.000479954 0.00013294 -8.59694e-07
5.87769e-06 -8.59694e-07 -8.45642e-05
0.000857353 0.000265817 -1.69117e-05
0.000265817 0.000198321 1.75808e-05
-1.69117e-05 1.75808e-05 7.84422e-05
0.0027151 0.000776711 -4.52776e-05
0.000776711 0.00079163 -1.96422e-05
-4.52776e-05 -1.96422e-05 0.000466908
0.00216908 0.000889599 -2.75745e-07
0.000889599 -0.000102872 1.93566e-05
-2.75745e-07 1.93566e-05 -0.000235372
0.000918079 -0.000342879 -3.49451e-05
-0.000342879 -0.00316992 1.96298e-05
-3.49451e-05 1.96298e-05 -0.00341131
0.00219633 -0.000479796 -8.23525e-07
-0.000479796 0.00128245 -2.21461e-05
-8.23525e-07 -2.21461e-05 0.00136446
-0.00535833 3.02187e-05 0.000160083
3.02187e-05 0.0020253 -5.11029e-06
0.000160083 -5.11029e-06 -0.000817975
0.00155664 -0.000771825 -2.70472e-05
-0.000771825 -3.70596e-05 7.96324e-06
-2.70472e-05 7.96324e-06 -0.000233454
0.00321609 -0.00119188 3.12979e-05
-0.00119188 0.000488963 -7.00461e-06
3.12979e-05 -7.00461e-06 -0.000351049
0.00123836 -0.00029381 0.000253116
-0.00029381 0.00201163 -1.52305e-05
0.000253116 -1.52305e-05 0.00109188
0.0126235 -0.000513096 -0.000137185
-0.000513096 0.00362466 6.70209e-05
-0.000137185 6.70209e-05 0.00202004
0.000872168 -0.000525244 -2.80285e-05
-0.000525244 -0.000334348 -3.8942e-06
-2.80285e-05 -3.8942e-06 -0.00046072
0.00867712 5.69714e-05 -6.18202e-05
5.69714e-05 0.00110471 2.96624e-05
-6.18202e-05 2.96624e-05 6.2941e-05
0.00465152 -0.000780268 7.57679e-05
-0.000780268 -0.000123152 5.74871e-06
7.57679e-05 5.74871e-06 -0.000400883
0.0035781 -0.000553409 5.14964e-05
-0.000553409 0.00100481 -1.20037e-05
5.14964e-05 -1.20037e-05 0.00069809
0.0033955 -0.000286335 -9.34502e-05
-0.000286335 -2.524e-05 6.22739e-06
-9.34502e-05 6.22739e-06 1.32803e-05
-0.00150097 -0.000240276 -1.40158e-05
-0.000240276 -0.00163287 4.25344e-06
-1.40158e-05 4.25344e-06 -0.00159216
0.00154606 -0.000454354 -3.17824e-07
-0.000454354 -0.000145451 -6.61213e-07
-3.17824e-07 -6.61213e-07 -0.000166139
0.00238389 -0.000393387 1.65906e-05
-0.000393387 0.000169619 -9.23723e-06
1.65906e-05 -9.23723e-06 0.000200423
0.00120542 -0.000477852 -2.76159e-06
-0.000477852 -0.000155217 2.77582e-06
-2.76159e-06 2.77582e-06 -0.00035406
0.00182188 -0.000442155 -2.04552e-06
-0.000442155 1.02887e-05 3.4365e-07
-2.04552e-06 3.4365e-07 -0.000121594
0.0020389 -0.000346665 1.65831e-06
-0.000346665 3.42306e-05 1.25952e-06
1.65831e-06 1.25952e-06 -1.78014e-05
0.00185704 -0.000448817 -3.94958e-06
-0.000448817 0.000142537 6.05954e-06
-3.94958e-06 6.05954e-06 -6.15956e-05
0.00186817 -0.00035102 3.34214e-07
-0.00035102 6.3832e-05 1.63186e-06
3.34214e-07 1.63186e-06 -5.68049e-05
0.00183333 -0.000307609 -3.83686e-07
-0.000307609 4.96518e-05 1.8461e-06
-3.83686e-07 1.8461e-06 -3.51177e-05
0.00168268 -0.000335407 3.89785e-06
-0.000335407 7.78161e-05 5.44659e-06
3.89785e-06 5.44659e-06 -8.17575e-05
0.00176183 -0.000290779 -3.73012e-07
-0.000290779 6.39268e-05 1.32076e-06
-3.73012e-07 1.32076e-06 -4.88661e-05
0.00201526 -0.000293152 -8.59518e-07
-0.000293152 0.000224584 4.82289e-07
-8.59518e-07 4.82289e-07 0.000123364
0.00182389 -0.000267445 -3.99108e-06
-0.000267445 0.000154957 3.48306e-06
-3.99108e-06 3.48306e-06 4.28931e-05
0.00185561 -0.000279248 1.65704e-06
-0.000279248 0.000204137 -3.16064e-06
1.65704e-06 -3.16064e-06 7.38532e-05
0.00177559 -0.000285603 2.51028e-06
-0.000285603 0.000123198 7.71996e-06
2.51028e-06 7.71996e-06 -1.21455e-05
0.00175097 -0.000297903 3.46913e-07
-0.000297903 0.000150284 -8.06235e-07
3.46913e-07 -8.06235e-07 -9.63229e-06
0.00168627 -0.000294169 -1.44246e-06
-0.000294169 0.000149414 -3.24751e-06
-1.44246e-06 -3.24751e-06 -2.66291e-05
0.00154604 -0.000301559 -5.201e-06
-0.000301559 0.000179528 -4.92791e-07
-5.201e-06 -4.92791e-07 -2.65683e-05
0.00170512 -0.000343519 3.22584e-07
-0.000343519 0.000203273 -3.29127e-07
3.22584e-07 -3.29127e-07 -8.50157e-06
0.00179793 -0.000359034 3.77555e-06
-0.000359034 0.000217886 2.73042e-06
3.77555e-06 2.73042e-06 8.96659e-06
0.00113845 -0.000235784 -6.93928e-06
-0.000235784 8.526e-05 2.38107e-06
-6.93928e-06 2.38107e-06 -0.000109243
0.00135018 -0.000302946 -9.26269e-07
-0.000302946 0.000143265 3.57464e-07
-9.26269e-07 3.57464e-07 -7.76035e-05
0.0014395 -0.000361497 2.65306e-06
-0.000361497 0.000124202 3.41423e-07
2.65306e-06 3.41423e-07 -0.000118627
0.000815498 -0.00016316 -7.12339e-06
-0.00016316 4.06652e-05 6.45621e-06
-7.12339e-06 6.45621e-06 -0.000121507
0.0011314 -0.000237675 8.51726e-07
-0.000237675 0.000153527 4.69026e-07
8.51726e-07 4.69026e-07 -4.9474e-05
0.0011331 -0.000274456 2.94804e-06
-0.000274456 8.83669e-05 -1.5262e-06
2.94804e-06 -1.5262e-06 -0.000132058
0.000402491 -7.92489e-05 -1.44166e-05
-7.92489e-05 -0.000130729 1.2572e-05
-1.44166e-05 1.2572e-05 -0.000196235
0.000791086 -0.000160723 -4.70965e-07
-0.000160723 9.11453e-05 2.63307e-07
-4.70965e-07 2.63307e-07 -7.00001e-05
0.00112808 -0.000223334 1.76187e-06
-0.000223334 0.00023389 -1.95639e-06
1.76187e-06 -1.95639e-06 3.63011e-05
0.00365354 0.000169193 -7.55463e-05
0.000169193 0.00185676 2.63715e-06
-7.55463e-05 2.63715e-06 0.00184394
0.000547573 -2.86966e-05 1.08515e-06
-2.86966e-05 -2.38728e-05 -3.61062e-07
1.08515e-06 -3.61062e-07 -7.90112e-05
0.000859622 -0.000152925 4.80423e-06
-0.000152925 0.00017444 -4.61164e-06
4.80423e-06 -4.61164e-06 2.06196e-05
0.00318491 0.00014212 8.96626e-06
0.00014212 0.00157315 3.98614e-07
8.96626e-06 3.98614e-07 0.00156757
0.000677684 1.24641e-05 5.79373e-06
1.24641e-05 6.36228e-05 -8.86066e-06
5.79373e-06 -8.86066e-06 2.05931e-05
0.00284845 0.000123519 5.82524e-05
0.000123519 0.00136766 -2.12525e-06
5.82524e-05 -2.12525e-06 0.00136727
0.00127766 0.000247125 4.276e-06
0.000247125 0.000353945 -4.31862e-06
4.276e-06 -4.31862e-06 0.000155469
0.000833144 0.000155372 1.13038e-06
0.000155372 0.000145453 -2.21819e-07
1.13038e-06 -2.21819e-07 4.97143e-06
0.000438523 5.30519e-05 2.83224e-07
5.30519e-05 -7.99034e-05 -6.39671e-07
2.83224e-07 -6.39671e-07 -0.000208605
0.000280563 3.16662e-05 1.12046e-07
3.16662e-05 -0.000174833 -4.36795e-07
1.12046e-07 -4.36795e-07 -0.000288527
0.000526031 2.01463e-05 -3.12457e-07
2.01463e-05 -2.25408e-05 6.63654e-07
-3.12457e-07 6.63654e-07 -0.000142524
0.000663733 1.29304e-05 -1.52447e-06
1.29304e-05 4.9151e-05 -4.28243e-06
-1.52447e-06 -4.28243e-06 -4.45181e-05
0.000617669 1.41064e-05 2.64085e-07
1.41064e-05 2.76524e-05 2.03511e-06
2.64085e-07 2.03511e-06 -8.14092e-05
0.000614345 -1.76428e-08 3.25621e-07
-1.76428e-08 2.21655e-05 -2.08155e-07
3.25621e-07 -2.08155e-07 -6.282e-05
0.000567484 -3.08012e-05 -2.29295e-06
-3.08012e-05 -8.29628e-06 -7.54826e-06
-2.29295e-06 -7.54826e-06 -4.44487e-05
0.0028431 -0.000109502 -5.16288e-05
-0.000109502 0.0013516 -3.41775e-06
-5.16288e-05 -3.41775e-06 0.00135398
0.000523724 -2.56898e-05 1.25503e-07
-2.56898e-05 -4.08962e-05 -2.31648e-08
1.25503e-07 -2.31648e-08 -7.25166e-05
0.000587152 5.41365e-06 1.20444e-06
5.41365e-06 5.00414e-06 3.62996e-06
1.20444e-06 3.62996e-06 -7.43231e-05
0.00272997 -9.61156e-05 -5.29925e-06
-9.61156e-05 0.00127599 4.058e-07
-5.29925e-06 4.058e-07 0.00128126
0.000501756 -2.21989e-05 1.19135e-06
-2.21989e-05 -5.92935e-05 5.95998e-06
1.19135e-06 5.95998e-06 -8.66603e-05
0.00256387 -8.04762e-05 3.07658e-05
-8.04762e-05 0.00116983 4.28435e-06
3.07658e-05 4.28435e-06 0.00117856
0.011374 0.000529522 0.000205124
0.000529522 0.00260298 5.80466e-05
0.000205124 5.80466e-05 0.00169716
-0.003199 -0.000928938 -0.000138539
-0.000928938 -0.00244408 -1.88825e-05
-0.000138539 -1.88825e-05 -0.00272188
-0.00548945 0.000412225 -7.33149e-05
0.000412225 0.000737448 -3.96967e-05
-7.33149e-05 -3.96967e-05 -0.00258812
0.000651151 2.60092e-05 9.51699e-06
2.60092e-05 2.88369e-05 1.69407e-06
9.51699e-06 1.69407e-06 -0.000105391
0.000952875 0.000194174 -3.21163e-06
0.000194174 0.000245458 1.40373e-06
-3.21163e-06 1.40373e-06 9.67689e-05
0.00133234 0.000213845 -2.09347e-07
0.000213845 0.000474321 -8.2704e-07
-2.09347e-07 -8.2704e-07 0.000300941
0.00131427 0.000272198 -4.15783e-06
0.000272198 0.000382332 1.13075e-06
-4.15783e-06 1.13075e-06 0.00017454
0.00102771 0.000285705 1.33332e-05
0.000285705 6.94996e-05 1.52216e-06
1.33332e-05 1.52216e-06 -0.000165839
0.000161831 0.000175917 -2.50449e-07
0.000175917 -0.000251089 -2.54169e-06
-2.50449e-07 -2.54169e-06 -0.000432854
0.000348904 0.000138688 -2.65171e-06
0.000138688 -6.6858e-05 -2.50046e-06
-2.65171e-06 -2.50046e-06 -0.000234975
0.00026404 0.000202633 1.20421e-06
0.000202633 -0.000213862 1.75916e-06
1.20421e-06 1.75916e-06 -0.000409896
0.00104257 0.000286663 5.16213e-07
0.000286663 0.000173128 7.20331e-07
5.16213e-07 7.20331e-07 4.34802e-05
0.000732091 0.00031398 5.46634e-06
0.00031398 -0.0001118 1.72808e-06
5.46634e-06 1.72808e-06 -0.000296013
0.00333574 0.000607154 -3.4954e-06
0.000607154 0.00112113 -3.50672e-06
-3.4954e-06 -3.50672e-06 0.000934924
0.0020642 0.000566728 -4.94747e-06
0.000566728 0.000362326 4.51487e-06
-4.94747e-06 4.51487e-06 0.000174107
0.00148581 0.000487114 3.75591e-06
0.000487114 0.000150179 -2.91844e-06
3.75591e-06 -2.91844e-06 -3.49669e-05
0.000362495 0.000226853 -2.52934e-06
0.000226853 -0.000134896 2.62851e-06
-2.52934e-06 2.62851e-06 -0.00025765
0.00571035 0.000676706 -1.6733e-05
0.000676706 0.000329704 9.41138e-06
-1.6733e-05 9.41138e-06 0.000588721
0.00966554 0.000715819 9.70044e-05
0.000715819 0.00188649 5.04228e-05
9.70044e-05 5.04228e-05 0.000314442
0.00547577 -0.00145002 0.000103926
-0.00145002 0.00312476 -5.71625e-05
0.000103926 -5.71625e-05 0.00231028
0.00386594 0.00145703 0.000341389
0.00145703 -3.29512e-05 0.000158418
0.000341389 0.000158418 -0.00338124
0.00108993 0.000607934 -4.40704e-05
0.000607934 0.000128508 -1.89194e-06
-4.40704e-05 -1.89194e-06 0.000249665
0.00337543 0.00115441 -8.60118e-05
0.00115441 -7.1829e-05 -2.62411e-05
-8.60118e-05 -2.62411e-05 -0.000230649
0.00390407 0.000948381 4.21376e-05
0.000948381 0.000679409 2.05553e-05
4.21376e-05 2.05553e-05 0.000636548
0.00305985 0.000777345 8.71913e-06
0.000777345 0.000779848 6.4875e-06
8.71913e-06 6.4875e-06 0.000607135
0.000622075 0.000411708 -1.00471e-05
0.000411708 -5.80414e-05 1.88471e-05
-1.00471e-05 1.88471e-05 -0.00025985
0.00402634 0.0010529 -0.000122819
0.0010529 0.000771668 -2.82402e-05
-0.000122819 -2.82402e-05 0.00056699
0.00283646 -0.000227349 -6.02881e-05
-0.000227349 0.000325694 8.92111e-06
-6.02881e-05 8.92111e-06 0.000114575
0.010089 -0.000292554 -1.10083e-05
-0.000292554 0.00259342 4.73169e-06
-1.10083e-05 4.73169e-06 0.0019947
-0.00937799 -0.000696254 0.000322528
-0.000696254 -0.00530631 -7.98045e-06
0.000322528 -7.98045e-06 -0.00493172
0.000309749 -0.000496503 -4.60905e-05
-0.000496503 -0.000708249 9.66924e-06
-4.60905e-05 9.66924e-06 -0.000774221
0.00692492 -0.00101319 0.000116437
-0.00101319 0.000940202 3.04721e-05
0.000116437 3.04721e-05 0.000777765
0.00137168 -0.000379072 -2.13394e-05
-0.000379072 -0.00222247 5.92085e-05
-2.13394e-05 5.92085e-05 -0.00369175
0.00153574 -0.000399007 1.66835e-05
-0.000399007 -0.000142298 1.32486e-06
1.66835e-05 1.32486e-06 -0.000275629
0.00282805 -0.000163549 -7.5e-06
-0.000163549 -0.000381862 5.31518e-06
-7.5e-06 5.31518e-06 -0.000418772
0.00424342 -0.000407705 2.25719e-05
-0.000407705 0.000995379 -9.87593e-06
2.25719e-05 -9.87593e-06 0.00107941
0.00367 -0.000107377 7.0596e-05
-0.000107377 0.000871438 1.54227e-06
7.0596e-05 1.54227e-06 0.000832659
-0.000195762 -0.00036207 -8.76245e-06
-0.00036207 -0.00108022 7.66409e-06
-8.76245e-06 7.66409e-06 -0.00107243
0.00178141 -0.000367496 -2.99566e-07
-0.000367496 -0.000155615 5.78742e-07
-2.99566e-07 5.78742e-07 -0.000115614
0.00182439 -0.000255478 1.39898e-05
-0.000255478 -0.000191886 -2.5155e-06
1.39898e-05 -2.5155e-06 -8.11882e-05
0.00154986 -0.000415677 -4.95246e-07
-0.000415677 -0.000121635 1.61587e-06
-4.95246e-07 1.61587e-06 -0.000250541
0.00197005 -0.000345132 1.80349e-06
-0.000345132 -3.21591e-07 8.40423e-07
1.80349e-06 8.40423e-07 -5.30542e-05
0.00190553 -0.000282068 8.88706e-07
-0.000282068 3.5338e-05 1.17358e-06
8.88706e-07 1.17358e-06 7.98093e-06
0.00188072 -0.000350192 3.96022e-06
-0.000350192 7.116e-05 3.66135e-06
3.96022e-06 3.66135e-06 -4.75761e-05
0.00186046 -0.000305935 8.12029e-07
-0.000305935 7.24429e-05 3.70771e-07
8.12029e-07 3.70771e-07 -1.16836e-05
0.001937 -0.000274887 -2.25767e-06
-0.000274887 0.000137361 1.63667e-06
-2.25767e-06 1.63667e-06 5.82875e-05
0.00174036 -0.000291864 4.15067e-06
-0.000291864 5.07329e-05 3.49275e-06
4.15067e-06 3.49275e-06 -6.28797e-05
0.00183875 -0.000285954 2.68734e-07
-0.000285954 0.000129381 5.28541e-07
2.68734e-07 5.28541e-07 2.80227e-05
0.00169656 -0.000268336 3.24621e-06
-0.000268336 8.15131e-05 -1.51055e-06
3.24621e-06 -1.51055e-06 -3.1234e-05
0.00169958 -0.000262744 -2.27223e-06
-0.000262744 7.36549e-05 7.00751e-06
-2.27223e-06 7.00751e-06 -3.47024e-05
0.00188002 -0.00027695 -2.1928e-06
-0.00027695 0.000215852 8.13342e-08
-2.1928e-06 8.13342e-08 8.92591e-05
0.00179714 -0.000272382 6.1508e-07
-0.000272382 0.000196193 -1.99736e-06
6.1508e-07 -1.99736e-06 4.35417e-05
0.00175297 -0.000298958 2.27817e-06
-0.000298958 0.000150625 3.68238e-06
2.27817e-06 3.68238e-06 -9.84733e-06
0.00172623 -0.000297247 5.44376e-07
-0.000297247 0.000174589 -6.32835e-07
5.44376e-07 -6.32835e-07 -2.55848e-06
0.00172058 -0.000275874 -2.16933e-06
-0.000275874 0.000235001 -1.37157e-06
-2.16933e-06 -1.37157e-06 5.23378e-05
0.00108993 -0.000219567 -8.91354e-06
-0.000219567 4.65682e-06 2.36602e-06
-8.91354e-06 2.36602e-06 -0.000179121
0.00156819 -0.000303585 -9.45938e-07
-0.000303585 0.0001963 -2.8937e-07
-9.45938e-07 -2.8937e-07 -1.07496e-05
0.00174062 -0.000346267 3.90508e-06
-0.000346267 0.000225725 8.76955e-07
3.90508e-06 8.76955e-07 1.28647e-05
0.000936066 -0.00017861 -1.04384e-05
-0.00017861 4.80023e-05 6.30972e-06
-1.04384e-05 6.30972e-06 -0.000111782
0.00118398 -0.000239947 -1.51012e-07
-0.000239947 0.000107762 2.53273e-07
-1.51012e-07 2.53273e-07 -8.74731e-05
0.00128327 -0.000297002 1.82105e-06
-0.000297002 0.000104636 -4.95678e-07
1.82105e-06 -4.95678e-07 -0.00011595
0.000438387 -0.000111795 -1.78528e-05
-0.000111795 -0.000131698 1.35962e-05
-1.78528e-05 1.35962e-05 -0.000207739
0.000849035 -0.000170098 5.71974e-07
-0.000170098 6.24558e-05 4.30524e-07
5.71974e-07 4.30524e-07 -0.000101138
0.00111196 -0.00023606 5.90093e-06
-0.00023606 0.000140602 -2.25134e-06
5.90093e-06 -2.25134e-06 -6.21053e-05
0.00442139 0.000179416 -0.000115228
0.000179416 0.00231275 5.12944e-06
-0.000115228 5.12944e-06 0.00229642
0.000569792 -8.53882e-05 2.81824e-07
-8.53882e-05 -3.32207e-05 -2.94145e-07
2.81824e-07 -2.94145e-07 -0.000102136
0.000807242 -0.000174697 6.57528e-06
-0.000174697 9.81666e-05 -5.87245e-06
6.57528e-06 -5.87245e-06 -6.42255e-05
0.00388223 0.000141898 8.72277e-06
0.000141898 0.00198577 4.19459e-07
8.72277e-06 4.19459e-07 0.00197944
0.000713821 -3.81891e-05 1.10946e-05
-3.81891e-05 7.06576e-05 -1.08194e-05
1.10946e-05 -1.08194e-05 1.42903e-05
0.00336344 0.000111335 0.000100759
0.000111335 0.00167242 -4.07655e-06
0.000100759 -4.07655e-06 0.00167436
0.00151464 0.000295059 -3.97531e-06
0.000295059 0.000379717 -3.99924e-06
-3.97531e-06 -3.99924e-06 0.000152289
0.00142062 0.000259899 8.60801e-07
0.000259899 0.000441487 2.94929e-07
8.60801e-07 2.94929e-07 0.00024068
0.000676098 0.000146794 -1.89839e-07
0.000146794 2.87166e-05 -5.69081e-06
-1.89839e-07 -5.69081e-06 -0.00014112
0.000689222 0.000167319 -1.91376e-06
0.000167319 7.29855e-05 -1.77574e-07
-1.91376e-06 -1.77574e-07 -7.44978e-05
0.000439413 6.55815e-05 2.15963e-07
6.55815e-05 -7.92548e-05 -5.07415e-07
2.15963e-07 -5.07415e-07 -0.000212908
0.00077769 9.05483e-05 -3.05181e-06
9.05483e-05 0.000125035 -4.41292e-06
-3.05181e-06 -4.41292e-06 6.60477e-06
0.000392116 1.20062e-06 4.67124e-07
1.20062e-06 -0.000106097 1.61482e-06
4.67124e-07 1.61482e-06 -0.000221811
0.000635701 1.20707e-05 1.07704e-07
1.20707e-05 3.46757e-05 -2.49466e-07
1.07704e-07 -2.49466e-07 -5.9289e-05
0.000574153 -2.65504e-05 -3.0722e-06
-2.65504e-05 6.11043e-07 -8.38161e-06
-3.0722e-06 -8.38161e-06 -3.99902e-05
0.000573557 -2.37337e-06 1.14521e-06
-2.37337e-06 -1.62911e-06 4.15239e-06
1.14521e-06 4.15239e-06 -8.59124e-05
0.00051794 -2.85929e-05 2.75328e-07
-2.85929e-05 -3.74987e-05 -5.92932e-08
2.75328e-07 -5.92932e-08 -7.31856e-05
0.00296213 -0.000121772 -6.16659e-05
-0.000121772 0.00143079 -2.81526e-06
-6.16659e-05 -2.81526e-06 0.00143035
0.00282691 -0.000109972 -4.18296e-06
-0.000109972 0.00134144 4.11926e-07
-4.18296e-06 4.11926e-07 0.00134354
0.000491033 -1.95538e-05 2.66565e-06
-1.95538e-05 -6.06228e-05 6.70056e-06
2.66565e-06 6.70056e-06 -9.15862e-05
0.0026851 -9.53476e-05 3.77554e-05
-9.53476e-05 0.00124885 4.00648e-06
3.77554e-05 4.00648e-06 0.00125422
0.0034131 2.58284e-05 2.4569e-05
2.58284e-05 -0.000281228 9.12043e-06
2.4569e-05 9.12043e-06 -0.00011849
0.00295448 -0.000576254 6.49128e-05
-0.000576254 -0.00215732 2.87299e-05
6.49128e-05 2.87299e-05 -0.00322932
0.00767638 -0.00097786 -8.77099e-05
-0.00097786 0.00289148 -5.94756e-05
-8.77099e-05 -5.94756e-05 0.0032215
0.00128792 0.000331744 5.9523e-06
0.000331744 9.20391e-05 4.47526e-06
5.9523e-06 4.47526e-06 -0.000145086
0.00153888 0.000238241 1.815e-06
0.000238241 0.000584368 1.61673e-06
1.815e-06 1.61673e-06 0.000407486
0.00130434 0.000269607 -5.77081e-06
0.000269607 0.000386983 6.84096e-06
-5.77081e-06 6.84096e-06 0.000180951
0.000738583 0.000235879 1.42272e-06
0.000235879 7.23206e-05 2.55024e-06
1.42272e-06 2.55024e-06 -0.000123807
0.00123837 0.000306707 -6.11583e-07
0.000306707 0.000201927 -1.4967e-06
-6.11583e-07 -1.4967e-06 -3.99602e-05
0.000943089 0.000330503 6.42609e-06
0.000330503 -8.22927e-06 4.70232e-06
6.42609e-06 4.70232e-06 -0.000217821
0.00105283 0.000285395 -5.46048e-06
0.000285395 0.000219211 -3.28273e-06
-5.46048e-06 -3.28273e-06 -1.57674e-06
0.000498238 0.000255101 3.21385e-06
0.000255101 -0.000115977 3.51363e-06
3.21385e-06 3.51363e-06 -0.000246814
0.00135526 0.000376129 2.63674e-06
0.000376129 0.000226847 -8.46055e-07
2.63674e-06 -8.46055e-07 3.2936e-05
0.00227321 0.000516118 3.48918e-06
0.000516118 0.000542273 6.58479e-06
3.48918e-06 6.58479e-06 0.000375885
0.00171848 0.000505479 1.84398e-06
0.000505479 0.000143834 -1.83947e-07
1.84398e-06 -1.83947e-07 -5.20596e-05
0.0016648 0.000469185 5.35008e-06
0.000469185 0.000135068 9.02032e-06
5.35008e-06 9.02032e-06 1.29298e-06
0.00118427 0.000497248 -2.94071e-06
0.000497248 -0.00010662 -3.00387e-06
-2.94071e-06 -3.00387e-06 -0.000285646
0.000683228 0.000412023 -2.38771e-07
0.000412023 -0.00026393 8.27464e-07
-2.38771e-07 8.27464e-07 -0.000425377
0.00144811 0.000378225 2.82873e-05
0.000378225 -0.000264622 3.15415e-05
2.82873e-05 3.15415e-05 -0.00020662
0.0051438 0.000778987 -5.04128e-05
0.000778987 -0.000165745 -1.43302e-05
-5.04128e-05 -1.43302e-05 2.94678e-05
0.00203353 0.000437777 0.000286332
0.000437777 -0.00212716 3.64197e-05
0.000286332 3.64197e-05 -0.00388248
0.000455669 0.000849307 -1.56203e-05
0.000849307 -0.00126241 -2.37925e-05
-1.56203e-05 -2.37925e-05 -0.00138051
0.00264548 0.000760796 -2.58226e-05
0.000760796 0.000321694 -3.04777e-06
-2.58226e-05 -3.04777e-06 0.000259197
0.00249456 0.000713242 -6.29983e-05
0.000713242 0.000502155 -2.33778e-05
-6.29983e-05 -2.33778e-05 0.000326862
0.00230805 -0.000190418 -1.1453e-05
-0.000190418 1.95071e-05 -7.38948e-06
-1.1453e-05 -7.38948e-06 1.3253e-05
0.000917706 -6.30554e-05 1.09389e-05
-6.30554e-05 -0.000256621 6.23009e-06
1.09389e-05 6.23009e-06 -0.000395629
0.0011552 0.000723331 9.23886e-05
0.000723331 -0.0030924 -2.33246e-05
9.23886e-05 -2.33246e-05 -0.00360328
-0.000458837 -0.000256698 -1.77023e-05
-0.000256698 -0.00122009 2.98282e-05
-1.77023e-05 2.98282e-05 -0.00118601
0.00368116 -0.000140046 -3.85937e-05
-0.000140046 1.28207e-05 3.6356e-05
-3.85937e-05 3.6356e-05 -0.000280858
0.00222851 -0.000294595 -1.56976e-05
-0.000294595 -3.07158e-05 5.65092e-06
-1.56976e-05 5.65092e-06 8.16284e-05
0.00309073 -0.00014084 -2.55217e-06
-0.00014084 0.000512522 -3.32491e-06
-2.55217e-06 -3.32491e-06 0.000468514
0.00152342 -0.000168111 3.05285e-05
-0.000168111 -0.000388398 -1.50594e-06
3.05285e-05 -1.50594e-06 -0.000245495
0.00324042 -4.64251e-05 2.50015e-05
-4.64251e-05 0.000970251 4.04479e-07
2.50015e-05 4.04479e-07 0.000930186
0.00117744 -0.000337813 -1.70255e-05
-0.000337813 -0.00047311 8.14354e-06
-1.70255e-05 8.14354e-06 -0.000426471
0.00179 -0.000265744 5.55742e-07
-0.000265744 -0.000228689 2.17955e-06
5.55742e-07 2.17955e-06 -0.000129064
0.00197604 -0.000260907 1.74741e-06
-0.000260907 -5.3034e-05 -2.10416e-07
1.74741e-06 -2.10416e-07 8.26841e-06
0.00190131 -0.000341866 1.44051e-07
-0.000341866 -3.10074e-05 1.51259e-06
1.44051e-07 1.51259e-06 -8.44877e-05
0.00190935 -0.000288896 3.65263e-07
-0.000288896 3.56289e-05 7.80603e-08
3.65263e-07 7.80603e-08 3.18087e-06
0.00192573 -0.000257991 -1.4931e-06
-0.000257991 7.91731e-05 6.2277e-07
-1.4931e-06 6.2277e-07 2.46824e-05
0.00188802 -0.000304989 8.14719e-07
-0.000304989 9.55754e-05 3.72048e-07
8.14719e-07 3.72048e-07 1.14955e-05
0.00184509 -0.000277508 -6.58385e-07
-0.000277508 8.89337e-05 4.95197e-08
-6.58385e-07 4.95197e-08 6.4336e-06
0.00174373 -0.000244707 3.36721e-07
-0.000244707 7.78596e-05 2.8015e-07
3.36721e-07 2.8015e-07 -2.03067e-05
0.00165396 -0.00027825 -2.87478e-08
-0.00027825 2.96277e-05 8.30807e-07
-2.87478e-08 8.30807e-07 -7.18627e-05
0.00173446 -0.000270247 7.80874e-07
-0.000270247 0.00010312 -6.50868e-07
7.80874e-07 -6.50868e-07 -1.00065e-05
0.00174235 -0.000256751 1.89681e-06
-0.000256751 0.000127961 -2.04795e-06
1.89681e-06 -2.04795e-06 -5.58892e-06
0.00190174 -0.000274285 -4.8853e-06
-0.000274285 0.000226355 4.76251e-06
-4.8853e-06 4.76251e-06 0.0001035
0.00186253 -0.000273931 -1.31533e-06
-0.000273931 0.000231702 3.40825e-07
-1.31533e-06 3.40825e-07 8.24381e-05
0.00167987 -0.000249052 -1.37794e-06
-0.000249052 0.000182371 -1.07809e-06
-1.37794e-06 -1.07809e-06 1.4551e-05
0.00176515 -0.000300657 2.4867e-06
-0.000300657 0.000199114 1.83551e-06
2.4867e-06 1.83551e-06 2.07752e-05
0.00168817 -0.000275908 9.72405e-07
-0.000275908 0.000216766 -6.93127e-07
9.72405e-07 -6.93127e-07 3.29918e-05
0.00130046 -0.000210331 -7.16717e-06
-0.000210331 9.09051e-05 2.16588e-06
-7.16717e-06 2.16588e-06 -8.3021e-05
0.000945637 -0.000170822 -1.16946e-05
-0.000170822 1.53737e-05 6.05802e-06
-1.16946e-05 6.05802e-06 -0.000136251
0.00117516 -0.000225686 -1.88868e-06
-0.000225686 5.47833e-05 4.09356e-07
-1.88868e-06 4.09356e-07 -0.000129734
0.00159276 -0.000306044 3.27689e-06
-0.000306044 0.000214596 -4.35706e-07
3.27689e-06 -4.35706e-07 6.50113e-06
0.000523703 -0.000172643 -2.14009e-05
-0.000172643 -9.03685e-05 1.42419e-05
-2.14009e-05 1.42419e-05 -0.000182493
0.000878988 -0.000175517 4.89318e-07
-0.000175517 1.68445e-05 1.8029e-07
4.89318e-07 1.8029e-07 -0.000142685
0.00121113 -0.000242454 7.10415e-06
-0.000242454 0.000119946 -2.16495e-06
7.10415e-06 -2.16495e-06 -7.57294e-05
0.0049946 0.00019112 -0.000136344
0.00019112 0.00265722 8.6397e-06
-0.000136344 8.6397e-06 0.00263455
0.000575021 -0.000149264 -8.96313e-07
-0.000149264 -4.73196e-05 9.82049e-08
-8.96313e-07 9.82049e-08 -0.000131635
0.000819542 -0.000174529 8.78224e-06
-0.000174529 4.76022e-05 -6.06434e-06
8.78224e-06 -6.06434e-06 -0.000117249
0.00459337 0.000153963 9.21805e-06
0.000153963 0.00240945 1.12614e-06
9.21805e-06 1.12614e-06 0.00239714
0.000734236 -0.000106518 1.72841e-05
-0.000106518 6.1786e-05 -1.30425e-05
1.72841e-05 -1.30425e-05 -1.08186e-05
0.00409222 0.000111161 0.000134345
0.000111161 0.00210283 -7.48062e-06
0.000134345 -7.48062e-06 0.00210186
0.00121652 0.000283479 -4.39298e-06
0.000283479 0.00010456 -1.41951e-07
-4.39298e-06 -1.41951e-07 -0.000119303
0.00118939 0.000263913 -2.03643e-06
0.000263913 0.000192122 -5.38284e-07
-2.03643e-06 -5.38284e-07 -2.97884e-05
0.00098985 0.000213509 -4.05662e-06
0.000213509 0.000134215 -2.22701e-06
-4.05662e-06 -2.22701e-06 -6.33025e-05
0.0015778 0.000273688 -2.56384e-06
0.000273688 0.000537255 3.62163e-06
-2.56384e-06 3.62163e-06 0.000333997
0.000905418 0.000168395 -1.11334e-06
0.000168395 0.000165372 -1.97495e-06
-1.11334e-06 -1.97495e-06 -8.47316e-06
0.000913723 0.000140811 -3.92652e-06
0.000140811 0.00020103 -5.70447e-06
-3.92652e-06 -5.70447e-06 5.82656e-05
0.000467 8.06519e-05 -2.12441e-07
8.06519e-05 -6.51169e-05 2.40465e-07
-2.12441e-07 2.40465e-07 -0.000202765
0.000663137 4.02344e-05 -6.39491e-07
4.02344e-05 5.01908e-05 -1.6776e-07
-6.39491e-07 -1.6776e-07 -5.85124e-05
0.000590589 -9.84006e-06 -5.44207e-06
-9.84006e-06 1.00169e-05 -9.28214e-06
-5.44207e-06 -9.28214e-06 -3.66663e-05
0.000556295 -5.93742e-06 1.13364e-06
-5.93742e-06 -1.06434e-05 4.43516e-06
1.13364e-06 4.43516e-06 -0.000103443
0.000506849 -3.01134e-05 3.96781e-07
-3.01134e-05 -3.76042e-05 -1.60198e-07
3.96781e-07 -1.60198e-07 -7.82379e-05
0.00314191 -0.000129852 -7.69131e-05
-0.000129852 0.00154494 -2.4127e-06
-7.69131e-05 -2.4127e-06 0.00154254
0.000475259 -2.65029e-05 2.76503e-06
-2.65029e-05 -6.271e-05 7.40135e-06
2.76503e-06 7.40135e-06 -9.79094e-05
0.00293549 -0.000124006 -3.31627e-06
-0.000124006 0.00141475 3.79076e-07
-3.31627e-06 3.79076e-07 0.00141348
0.0028272 -0.000110138 4.65053e-05
-0.000110138 0.00134118 3.65185e-06
4.65053e-05 3.65185e-06 0.00134311
0.000259043 5.1657e-05 1.60203e-05
5.1657e-05 -0.00100631 7.95108e-06
1.60203e-05 7.95108e-06 -0.000926327
0.00469556 2.81212e-05 5.48025e-05
2.81212e-05 0.000292255 8.40593e-07
5.48025e-05 8.40593e-07 0.000367548
0.0106046 0.000640614 -7.74154e-05
0.000640614 0.00292083 -1.84529e-05
-7.74154e-05 -1.84529e-05 0.00188513
0.00104109 0.000336951 2.31117e-06
0.000336951 -8.10473e-05 2.53919e-06
2.31117e-06 2.53919e-06 -0.000295963
0.00171486 0.000387451 2.06894e-06
0.000387451 0.000232666 2.55187e-06
2.06894e-06 2.55187e-06 1.73319e-05
0.00125395 0.000336482 1.89309e-07
0.000336482 7.64646e-05 -1.31479e-06
1.89309e-07 -1.31479e-06 -0.000160809
0.00118642 0.000283505 -2.1104e-06
0.000283505 0.000319567 2.15954e-06
-2.1104e-06 2.15954e-06 0.000111641
0.00139957 0.000322272 -1.53862e-06
0.000322272 0.000304879 -1.06351e-06
-1.53862e-06 -1.06351e-06 5.74916e-05
0.00143694 0.0003777 7.54546e-06
0.0003777 0.000253104 9.20038e-07
7.54546e-06 9.20038e-07 3.68394e-05
0.00176384 0.000473148 -3.65886e-06
0.000473148 0.000154113 -1.86405e-06
-3.65886e-06 -1.86405e-06 -4.92299e-05
0.00201139 0.00044143 -5.40695e-06
0.00044143 0.000582397 7.79421e-07
-5.40695e-06 7.79421e-07 0.000378454
0.00114536 0.000421 1.02938e-05
0.000421 -7.32008e-05 1.65573e-05
1.02938e-05 1.65573e-05 -0.000220481
0.0021703 0.00053746 -2.91772e-06
0.00053746 0.000393945 4.09842e-07
-2.91772e-06 4.09842e-07 0.000197041
0.00194704 0.000474176 -1.07717e-05
0.000474176 0.000168117 1.53771e-06
-1.07717e-05 1.53771e-06 3.87104e-06
0.000663478 0.000235852 1.55832e-05
0.000235852 -0.000501936 8.22592e-06
1.55832e-05 8.22592e-06 -0.000538474
0.00103467 0.000421372 1.00711e-05
0.000421372 -0.000186065 -1.77853e-07
1.00711e-05 -1.77853e-07 -0.000316586
0.00113134 0.000485974 -9.27746e-06
0.000485974 -0.000141679 -8.88851e-06
-9.27746e-06 -8.88851e-06 -0.000319061
0.00180511 0.000387202 3.69118e-06
0.000387202 -8.24662e-05 6.69261e-06
3.69118e-06 6.69261e-06 -7.05301e-05
0.00548523 0.000518991 2.9478e-05
0.000518991 4.88819e-05 -1.82891e-05
2.9478e-05 -1.82891e-05 -3.70733e-05
0.00276804 0.000669283 8.75247e-06
0.000669283 0.000643195 -3.00482e-05
8.75247e-06 -3.00482e-05 0.000590897
0.00148951 -4.20728e-05 2.34439e-05
-4.20728e-05 -1.36387e-05 -2.93383e-06
2.34439e-05 -2.93383e-06 -1.51663e-05
0.0021535 -0.000128476 -2.64061e-05
-0.000128476 -1.17662e-05 6.96323e-09
-2.64061e-05 6.96323e-09 -2.10207e-05
0.00149697 0.000173157 2.85875e-05
0.000173157 -0.000576932 -6.5436e-06
2.85875e-05 -6.5436e-06 -0.000762602
0.000221954 -0.000203271 -3.0286e-05
-0.000203271 -0.00106908 2.39502e-05
-3.0286e-05 2.39502e-05 -0.000942977
0.00326979 -0.00021385 -9.33181e-05
-0.00021385 0.000541485 -1.10464e-06
-9.33181e-05 -1.10464e-06 0.000531686
0.00189132 -0.000198754 3.58764e-06
-0.000198754 -0.000135683 -2.82315e-06
3.58764e-06 -2.82315e-06 -6.41547e-06
0.00232978 -6.37045e-05 -8.8512e-06
-6.37045e-05 0.00039365 3.45967e-07
-8.8512e-06 3.45967e-07 0.000358453
0.00204044 -0.000183974 3.54711e-06
-0.000183974 2.6261e-06 1.29222e-06
3.54711e-06 1.29222e-06 2.30157e-05
0.00205617 -2.45489e-05 4.79589e-06
-2.45489e-05 5.95728e-05 4.15909e-08
4.79589e-06 4.15909e-08 4.28199e-05
0.00177646 -0.000279671 -7.6255e-06
-0.000279671 -0.000262077 2.67991e-06
-7.6255e-06 2.67991e-06 -0.000171167
0.00199965 -0.000258512 -1.85096e-06
-0.000258512 -2.91187e-05 5.51008e-08
-1.85096e-06 5.51008e-08 2.07735e-05
0.00198497 -0.000203734 -2.03257e-06
-0.000203734 1.70998e-05 -2.85981e-07
-2.03257e-06 -2.85981e-07 -6.17424e-07
0.00191841 -0.000295445 -1.68194e-06
-0.000295445 3.83951e-05 -7.5401e-07
-1.68194e-06 -7.5401e-07 1.2102e-06
0.00187526 -0.000253153 2.06627e-07
-0.000253153 5.95614e-05 -6.2406e-08
2.06627e-07 -6.2406e-08 9.93294e-09
0.00191521 -0.000224667 -1.1975e-06
-0.000224667 0.000111637 4.25503e-07
-1.1975e-06 4.25503e-07 3.04691e-05
0.00176074 -0.000280161 -1.41209e-06
-0.000280161 4.52118e-05 -1.0652e-06
-1.41209e-06 -1.0652e-06 -4.06082e-05
0.00177541 -0.000245396 4.07179e-07
-0.000245396 9.28855e-05 -1.777e-07
4.07179e-07 -1.777e-07 -5.4548e-06
0.00176767 -0.000230898 1.36822e-06
-0.000230898 0.00010402 -1.02597e-06
1.36822e-06 -1.02597e-06 -1.21415e-05
0.00177127 -0.000272159 -1.30002e-06
-0.000272159 0.000124112 1.8865e-07
-1.30002e-06 1.8865e-07 1.06033e-05
0.00176718 -0.000257273 -2.62168e-08
-0.000257273 0.000143295 -2.99154e-07
-2.62168e-08 -2.99154e-07 9.74182e-06
0.0016455 -0.000229023 -2.05003e-07
-0.000229023 0.000131909 -9.84692e-07
-2.05003e-07 -9.84692e-07 -2.3839e-05
0.00192872 -0.000275597 -1.83154e-06
-0.000275597 0.000267609 3.44972e-06
-1.83154e-06 3.44972e-06 0.000121719
0.00169473 -0.000250318 -6.58205e-07
-0.000250318 0.000191764 -9.58865e-08
-6.58205e-07 -9.58865e-08 2.49497e-05
0.00132101 -0.000191478 -6.43614e-06
-0.000191478 8.19842e-05 1.86294e-06
-6.43614e-06 1.86294e-06 -8.48922e-05
0.00165882 -0.000276021 4.3106e-06
-0.000276021 0.000200187 1.3696e-07
4.3106e-06 1.3696e-07 1.52973e-05
0.00127999 -0.000210492 -9.10395e-08
-0.000210492 7.87665e-05 -4.66509e-08
-9.10395e-08 -4.66509e-08 -9.53662e-05
0.000954907 -0.00015399 -1.26889e-05
-0.00015399 -2.10453e-06 6.06271e-06
-1.26889e-05 6.06271e-06 -0.000146296
0.000447697 -0.00016424 -1.99098e-05
-0.00016424 -0.000144393 1.35224e-05
-1.99098e-05 1.35224e-05 -0.000238397
0.000935597 -0.000169446 2.0428e-07
-0.000169446 9.72588e-06 -1.03601e-08
2.0428e-07 -1.03601e-08 -0.000141762
0.00126448 -0.000232119 5.54605e-06
-0.000232119 0.000107185 -1.83496e-06
5.54605e-06 -1.83496e-06 -7.8123e-05
0.00542192 0.000125009 -0.000169573
0.000125009 0.00288513 9.10603e-06
-0.000169573 9.10603e-06 0.00287557
0.000554676 -0.000166873 -1.96644e-06
-0.000166873 -7.75757e-05 6.26937e-07
-1.96644e-06 6.26937e-07 -0.000167565
0.000840251 -0.000174623 1.02952e-05
-0.000174623 -2.54444e-06 -5.72606e-06
1.02952e-05 -5.72606e-06 -0.000162178
0.00516418 0.000150037 5.92826e-06
0.000150037 0.00274517 5.6681e-07
5.92826e-06 5.6681e-07 0.00273026
0.0006827 -0.000152169 2.08076e-05
-0.000152169 1.23781e-05 -1.40792e-05
2.08076e-05 -1.40792e-05 -7.3361e-05
0.00478554 0.000125915 0.000156302
0.000125915 0.00251538 -9.97189e-06
0.000156302 -9.97189e-06 0.00250748
0.00133018 0.000306354 -3.14789e-06
0.000306354 0.000117347 1.25161e-06
-3.14789e-06 1.25161e-06 -9.7269e-05
0.00114499 0.000277497 4.38077e-07
0.000277497 6.03507e-05 4.10239e-07
4.38077e-07 4.10239e-07 -0.000161853
0.00112047 0.000232998 -7.20082e-06
0.000232998 0.00010839 -1.54294e-06
-7.20082e-06 -1.54294e-06 -8.82534e-05
0.000837972 0.000230687 -5.45535e-07
0.000230687 -1.09144e-05 2.99623e-06
-5.45535e-07 2.99623e-06 -0.00022691
0.00105026 0.000217749 -1.72053e-06
0.000217749 0.000172193 9.77519e-07
-1.72053e-06 9.77519e-07 -2.61244e-05
0.000891778 0.000174366 -6.54087e-06
0.000174366 0.000147007 -5.40443e-06
-6.54087e-06 -5.40443e-06 -1.60331e-05
0.0010826 0.000184829 -6.62347e-07
0.000184829 0.000271197 9.93668e-07
-6.62347e-07 9.93668e-07 9.42029e-05
0.000718807 0.000112087 -5.78307e-08
0.000112087 8.85408e-05 -4.23446e-07
-5.78307e-08 -4.23446e-07 -5.02712e-05
0.000717328 4.18359e-05 -1.10252e-05
4.18359e-05 7.62124e-05 -1.16004e-05
-1.10252e-05 -1.16004e-05 1.65557e-05
0.000592149 6.31969e-06 1.33119e-06
6.31969e-06 7.72353e-06 4.29339e-06
1.33119e-06 4.29339e-06 -9.65757e-05
0.000503852 -1.81777e-05 -1.4579e-07
-1.81777e-05 -3.85299e-05 -2.72688e-07
-1.4579e-07 -2.72688e-07 -8.51138e-05
0.00346416 -0.000131078 -0.000100244
-0.000131078 0.00174143 -3.05678e-06
-0.000100244 -3.05678e-06 0.00173801
0.000453452 -3.10299e-05 2.70654e-06
-3.10299e-05 -6.83742e-05 8.11831e-06
2.70654e-06 8.11831e-06 -0.000108733
0.00308255 -0.000137149 -3.24617e-06
-0.000137149 0.00151069 3.66363e-07
-3.24617e-06 3.66363e-07 0.00150609
0.0029135 -0.00012415 5.37354e-05
-0.00012415 0.00140125 3.1892e-06
5.37354e-05 3.1892e-06 0.00139974
0.000555926 6.08054e-05 1.92038e-05
6.08054e-05 -0.000575192 -9.96632e-07
1.92038e-05 -9.96632e-07 -0.000532153
0.00205637 2.93871e-05 -7.30695e-06
2.93871e-05 -0.00023695 -1.3562e-06
-7.30695e-06 -1.3562e-06 -0.000137306
0.00425098 4.26515e-05 0.000142242
4.26515e-05 -0.000330167 4.20809e-05
0.000142242 4.20809e-05 0.000131965
0.00215253 0.000449048 -2.02569e-06
0.000449048 0.000397446 7.48475e-07
-2.02569e-06 7.48475e-07 0.000191397
0.00131556 0.00037996 -2.44003e-07
0.00037996 6.41805e-05 -2.46541e-06
-2.44003e-07 -2.46541e-06 -0.000155838
0.00195719 0.0003666 -2.55684e-07
0.0003666 0.000242867 3.29446e-06
-2.55684e-07 3.29446e-06 6.02736e-05
0.00173041 0.000386639 8.23538e-07
0.000386639 0.000240712 2.53084e-07
8.23538e-07 2.53084e-07 2.59251e-05
0.00120456 0.000340821 1.3497e-06
0.000340821 4.99142e-05 -5.43155e-06
1.3497e-06 -5.43155e-06 -0.000187547
0.00184354 0.000391567 -1.84044e-06
0.000391567 8.74098e-05 1.52107e-06
-1.84044e-06 1.52107e-06 -7.45334e-05
0.00201331 0.00043311 -3.62821e-06
0.00043311 0.000562785 -1.48009e-06
-3.62821e-06 -1.48009e-06 0.000338212
0.0019694 0.000481644 -2.83531e-08
0.000481644 0.000281881 -5.1252e-07
-2.83531e-08 -5.1252e-07 7.63682e-05
0.0017986 0.000279263 -4.14729e-06
0.000279263 -1.64599e-05 1.34445e-07
-4.14729e-06 1.34445e-07 -0.000115664
0.00261293 0.000569322 4.23229e-06
0.000569322 0.000637984 2.65018e-06
4.23229e-06 2.65018e-06 0.00044013
0.00192871 0.000475273 -1.61761e-06
0.000475273 0.000149124 1.53785e-07
-1.61761e-06 1.53785e-07 -1.77882e-05
0.000879453 0.0002506 4.1394e-06
0.0002506 -0.000348996 3.00173e-06
4.1394e-06 3.00173e-06 -0.000395916
-0.00028474 0.000328572 -2.20094e-06
0.000328572 -0.000863025 -4.41694e-06
-2.20094e-06 -4.41694e-06 -0.000985714
0.00202032 0.000399122 -5.31417e-05
0.000399122 1.97711e-05 -2.57049e-05
-5.31417e-05 -2.57049e-05 -1.93854e-06
0.00184845 4.14671e-05 5.63197e-07
4.14671e-05 -6.54583e-05 -1.94524e-06
5.63197e-07 -1.94524e-06 -7.04963e-05
0.00217051 -3.53776e-05 1.06368e-06
-3.53776e-05 0.00040347 2.13554e-06
1.06368e-06 2.13554e-06 0.00040438
0.00165968 -5.26945e-05 -5.66861e-05
-5.26945e-05 -0.000184918 -2.44022e-06
-5.66861e-05 -2.44022e-06 -0.000275645
0.00226412 -0.000227838 -3.31729e-05
-0.000227838 0.000118069 2.19477e-06
-3.31729e-05 2.19477e-06 0.00022849
0.00137437 -7.45709e-05 -8.00271e-06
-7.45709e-05 -0.000202873 9.43992e-07
-8.00271e-06 9.43992e-07 -0.000232383
0.00198382 -0.000177519 7.03965e-08
-0.000177519 -3.23399e-05 -6.82842e-07
7.03965e-08 -6.82842e-07 -1.33855e-06
0.00209687 -2.56553e-05 -2.89489e-06
-2.56553e-05 6.30123e-05 1.24771e-06
-2.89489e-06 1.24771e-06 5.22941e-05
0.00206674 -6.57865e-05 -3.44042e-06
-6.57865e-05 3.55641e-05 -2.21212e-07
-3.44042e-06 -2.21212e-07 3.19646e-05
0.00201179 -0.00025456 -3.75486e-06
-0.00025456 -8.84091e-06 -1.94502e-08
-3.75486e-06 -1.94502e-08 2.97165e-05
0.00196616 -0.000195456 4.61421e-07
-0.000195456 1.73969e-05 -2.12981e-07
4.61421e-07 -2.12981e-07 -1.92952e-06
0.00205391 -0.000161874 -1.39361e-06
-0.000161874 0.000107592 -2.57439e-07
-1.39361e-06 -2.57439e-07 6.41861e-05
0.00182603 -0.000248992 9.61011e-07
-0.000248992 4.0011e-05 -1.1201e-06
9.61011e-07 -1.1201e-06 -2.45687e-05
0.00183223 -0.000220273 1.21524e-07
-0.000220273 6.84223e-05 -6.08038e-08
1.21524e-07 -6.08038e-08 -1.44814e-05
0.00176276 -0.000184618 6.36788e-07
-0.000184618 6.2218e-05 -3.68593e-07
6.36788e-07 -3.68593e-07 -3.69382e-05
0.00181207 -0.000246402 3.91355e-07
-0.000246402 0.000109853 -4.93148e-07
3.91355e-07 -4.93148e-07 1.13524e-05
0.00179296 -0.000231019 1.62485e-08
-0.000231019 0.000120313 -2.54959e-07
1.62485e-08 -2.54959e-07 4.14379e-06
0.00169408 -0.000204864 7.49622e-07
-0.000204864 0.000122121 -8.27151e-07
7.49622e-07 -8.27151e-07 -2.01195e-05
0.00179263 -0.000257877 -1.2421e-06
-0.000257877 0.000158784 1.28164e-06
-1.2421e-06 1.28164e-06 2.52156e-05
0.00166955 -0.000229732 -2.9284e-07
-0.000229732 0.000146268 -5.40223e-08
-2.9284e-07 -5.40223e-08 -9.17524e-06
0.00136336 -0.000174547 -4.93807e-06
-0.000174547 8.48182e-05 1.42451e-06
-4.93807e-06 1.42451e-06 -7.61617e-05
0.00170729 -0.000251389 9.9446e-07
-0.000251389 0.000199681 1.01379e-06
9.9446e-07 1.01379e-06 3.39141e-05
0.00133674 -0.000192272 -1.72565e-07
-0.000192272 8.98456e-05 7.6359e-08
-1.72565e-07 7.6359e-08 -7.6794e-05
0.000968497 -0.00013641 -1.33615e-05
-0.00013641 -8.42268e-06 5.5588e-06
-1.33615e-05 5.5588e-06 -0.000147925
0.00126237 -0.000210869 6.33109e-06
-0.000210869 6.83395e-05 -1.71184e-06
6.33109e-06 -1.71184e-06 -0.000106029
0.000971754 -0.000153533 2.09693e-07
-0.000153533 6.72887e-06 8.3763e-08
2.09693e-07 8.3763e-08 -0.00013721
0.00242493 -0.000111957 -2.92395e-05
-0.000111957 0.00101687 8.45993e-06
-2.92395e-05 8.45993e-06 0.000939171
0.00169189 -4.75202e-05 -0.000179512
-4.75202e-05 0.000649151 1.95933e-05
-0.000179512 1.95933e-05 0.000631244
0.00153245 -0.000147159 -5.27598e-06
-0.000147159 0.000493944 -3.39642e-07
-5.27598e-06 -3.39642e-07 0.000405803
0.0009296 -0.000168388 1.15614e-05
-0.000168388 6.58964e-06 -5.85404e-06
1.15614e-05 -5.85404e-06 -0.00014484
0.0055177 0.000107918 -5.89928e-06
0.000107918 0.00294765 -6.99465e-07
-5.89928e-06 -6.99465e-07 0.00293516
0.000620324 -0.000187701 2.25529e-05
-0.000187701 -3.8557e-05 -1.39915e-05
2.25529e-05 -1.39915e-05 -0.000132193
0.00531183 0.000134399 0.000169631
0.000134399 0.00283803 -1.43693e-05
0.000169631 -1.43693e-05 0.00282004
0.00193157 0.000292414 8.42178e-07
0.000292414 0.000195276 5.0646e-07
8.42178e-07 5.0646e-07 3.84e-05
0.00164427 0.000322545 1.02429e-06
0.000322545 0.000187543 2.85327e-06
1.02429e-06 2.85327e-06 -9.60164e-06
0.00154527 0.000328156 -7.00719e-08
0.000328156 0.000236289 -2.39181e-08
-7.00719e-08 -2.39181e-08 1.88065e-05
0.0012014 0.000240535 -6.31937e-06
0.000240535 8.82574e-05 -2.1355e-06
-6.31937e-06 -2.1355e-06 -0.000101707
0.00109898 0.000273736 5.36337e-06
0.000273736 3.22309e-05 5.20029e-07
5.36337e-06 5.20029e-07 -0.000188744
0.00111597 0.000231756 -4.31094e-07
0.000231756 0.000106279 2.97902e-07
-4.31094e-07 2.97902e-07 -8.98006e-05
0.000808837 0.000173304 -9.44934e-06
0.000173304 1.71894e-05 -4.59228e-06
-9.44934e-06 -4.59228e-06 -0.000145472
0.00111855 0.000222698 2.02011e-06
0.000222698 0.000214861 4.48246e-06
2.02011e-06 4.48246e-06 1.55811e-05
0.000811758 0.000159362 -4.84265e-07
0.000159362 0.000100974 5.29988e-07
-4.84265e-07 5.29988e-07 -5.9937e-05
0.000762526 0.000124312 -1.81652e-05
0.000124312 8.56074e-05 -1.36656e-05
-1.81652e-05 -1.36656e-05 6.89607e-06
0.000608759 8.12615e-05 2.01538e-06
8.12615e-05 2.09718e-05 4.22076e-06
2.01538e-06 4.22076e-06 -0.000110899
0.000519865 2.88974e-05 -1.02891e-06
2.88974e-05 -3.67919e-05 -5.87938e-07
-1.02891e-06 -5.87938e-07 -9.35895e-05
0.00401934 -0.000125193 -0.000132471
-0.000125193 0.00207397 -6.12454e-06
-0.000132471 -6.12454e-06 0.00206831
0.000400427 -2.59334e-05 2.91323e-06
-2.59334e-05 -9.60158e-05 9.10368e-06
2.91323e-06 9.10368e-06 -0.000142951
0.00333785 -0.000148551 -4.37704e-06
-0.000148551 0.00166972 3.77916e-07
-4.37704e-06 3.77916e-07 0.00166191
0.0030348 -0.000139021 6.10822e-05
-0.000139021 0.00148241 2.5745e-06
6.10822e-05 2.5745e-06 0.00147709
0.0018785 0.000150668 8.69557e-07
0.000150668 -3.93847e-05 -8.20595e-07
8.69557e-07 -8.20595e-07 -7.56014e-05
0.00191387 4.77288e-05 1.59022e-05
4.77288e-05 0.000139563 7.15085e-07
1.59022e-05 7.15085e-07 0.000171496
0.00423566 2.29838e-05 -9.55878e-05
2.29838e-05 0.000700417 -1.2777e-05
-9.55878e-05 -1.2777e-05 0.000839344
0.00176318 0.000337529 -2.53383e-06
0.000337529 6.02408e-05 1.37783e-06
-2.53383e-06 1.37783e-06 -9.59497e-05
0.00182765 0.000421466 -1.7593e-06
0.000421466 0.000225866 -1.07785e-07
-1.7593e-06 -1.07785e-07 2.22386e-05
0.00150189 0.000413832 -1.34496e-05
0.000413832 0.000160851 -7.12497e-06
-1.34496e-05 -7.12497e-06 -6.22956e-05
0.00199819 0.000357663 2.64254e-06
0.000357663 0.000276263 9.49471e-07
2.64254e-06 9.49471e-07 9.59345e-05
0.0017419 0.000385482 -1.33325e-06
0.000385482 0.000247572 -2.50534e-06
-1.33325e-06 -2.50534e-06 3.32929e-05
0.00217755 0.000277757 1.23087e-06
0.000277757 0.000207619 1.02476e-06
1.23087e-06 1.02476e-06 0.000105282
0.00171978 0.000385064 -1.08909e-06
0.000385064 3.28439e-05 7.92984e-07
-1.08909e-06 7.92984e-07 -0.000129683
0.0022017 0.000492519 -5.5331e-07
0.000492519 0.000423856 -6.49163e-07
-5.5331e-07 -6.49163e-07 0.000215704
0.00179584 0.000284418 -9.82846e-07
0.000284418 -1.12838e-05 -6.68636e-08
-9.82846e-07 -6.68636e-08 -0.000112401
0.00205023 0.000485945 1.73215e-05
0.000485945 0.000197036 1.66053e-06
1.73215e-05 1.66053e-06 2.66364e-05
0.00126498 0.000261669 -2.55663e-05
0.000261669 -0.000116964 -6.00868e-06
-2.55663e-05 -6.00868e-06 -0.000172402
0.0020198 5.05303e-05 -3.76637e-06
5.05303e-05 3.15726e-05 -1.05182e-07
-3.76637e-06 -1.05182e-07 1.56831e-05
0.00194776 5.19952e-05 -2.27015e-06
5.19952e-05 -1.23346e-06 3.13128e-07
-2.27015e-06 3.13128e-07 -9.97389e-06
0.00286933 -2.41201e-05 -3.86669e-05
-2.41201e-05 0.000837387 1.88623e-06
-3.86669e-05 1.88623e-06 0.000833054
0.00190225 -0.000169516 -8.33411e-06
-0.000169516 -8.65965e-05 -1.24022e-06
-8.33411e-06 -1.24022e-06 -4.50585e-05
0.00199425 -2.52614e-05 1.76331e-06
-2.52614e-05 -2.16635e-05 -7.55484e-07
1.76331e-06 -7.55484e-07 -2.80665e-05
0.00203677 -7.00287e-05 -3.8813e-07
-7.00287e-05 2.82158e-06 7.25309e-08
-3.8813e-07 7.25309e-08 4.24514e-06
0.00193415 -5.26692e-05 -2.11451e-06
-5.26692e-05 4.64409e-05 -1.89721e-09
-2.11451e-06 -1.89721e-09 1.87224e-05
0.00194583 -0.000186097 2.4278e-06
-0.000186097 1.79361e-05 -1.32586e-07
2.4278e-06 -1.32586e-07 -2.57602e-06
0.00191462 -0.000160811 3.10015e-07
-0.000160811 3.71643e-05 -2.23777e-08
3.10015e-07 -2.23777e-08 -1.11263e-05
0.00182263 -0.000124313 2.704e-06
-0.000124313 7.13766e-05 -1.53336e-06
2.704e-06 -1.53336e-06 -1.27406e-05
0.00175028 -0.00021575 1.40126e-06
-0.00021575 2.6336e-05 -3.26978e-07
1.40126e-06 -3.26978e-07 -5.83134e-05
0.00182085 -0.000186932 -6.28699e-09
-0.000186932 9.25497e-05 8.67497e-09
-6.28699e-09 8.67497e-09 -6.75274e-06
0.00177391 -0.000170075 9.72763e-07
-0.000170075 0.00012714 -6.30321e-07
9.72763e-07 -6.30321e-07 -1.69086e-06
0.0018163 -0.000230913 -6.97908e-07
-0.000230913 0.000135787 4.23976e-07
-6.97908e-07 4.23976e-07 1.96395e-05
0.00172064 -0.000205462 -2.43249e-07
-0.000205462 0.000137588 -5.15466e-08
-2.43249e-07 -5.15466e-08 -4.4325e-06
0.001409 -0.000153212 -3.85734e-06
-0.000153212 8.73284e-05 1.00116e-06
-3.85734e-06 1.00116e-06 -6.69318e-05
0.00169337 -0.000230448 -2.43121e-07
-0.000230448 0.000160558 8.28031e-07
-2.43121e-07 8.28031e-07 5.41735e-06
0.00137412 -0.000174856 -1.46636e-07
-0.000174856 8.92038e-05 7.19978e-08
-1.46636e-07 7.19978e-08 -7.1431e-05
0.00097997 -0.000120649 -1.31906e-05
-0.000120649 -1.20169e-05 4.84346e-06
-1.31906e-05 4.84346e-06 -0.000149151
0.00135188 -0.000193081 5.60895e-06
-0.000193081 9.73277e-05 -1.54799e-06
5.60895e-06 -1.54799e-06 -6.9084e-05
0.000985617 -0.000135535 1.2025e-07
-0.000135535 -1.59572e-07 1.0704e-07
1.2025e-07 1.0704e-07 -0.000139162
0.00247388 -0.000118955 -3.69686e-05
-0.000118955 0.00103224 7.70276e-06
-3.69686e-05 7.70276e-06 0.000961893
0.000980909 -0.000152895 1.2899e-05
-0.000152895 1.12093e-05 -5.8342e-06
1.2899e-05 -5.8342e-06 -0.000132497
0.00258844 -0.000157279 3.74795e-05
-0.000157279 0.00110857 -4.71391e-06
3.74795e-05 -4.71391e-06 0.00103712
0.00176876 -8.77959e-05 -0.000184184
-8.77959e-05 0.00070073 2.38855e-05
-0.000184184 2.38855e-05 0.000681329
0.00357637 -1.90189e-05 -0.000180776
-1.90189e-05 0.00178667 1.14868e-05
-0.000180776 1.14868e-05 0.0017733
0.0026795 -0.000209441 0.000114807
-0.000209441 0.0011682 -1.56943e-05
0.000114807 -1.56943e-05 0.00109901
0.00560212 9.40085e-05 0.000182686
9.40085e-05 0.003007 -1.77696e-05
0.000182686 -1.77696e-05 0.00298992
0.00206357 0.000289556 -1.78526e-06
0.000289556 0.000247382 -7.08898e-07
-1.78526e-06 -7.08898e-07 0.000105754
0.00155944 0.000263763 2.69963e-06
0.000263763 8.17647e-05 1.02848e-06
2.69963e-06 1.02848e-06 -9.03746e-05
0.00191871 0.000291066 4.04358e-07
0.000291066 0.00018506 -1.16896e-06
4.04358e-07 -1.16896e-06 3.25777e-05
0.00120934 0.00022939 -6.23857e-06
0.00022939 4.28274e-05 -1.18571e-06
-6.23857e-06 -1.18571e-06 -0.000139572
0.00170628 0.000324592 6.11107e-07
0.000324592 0.000215204 5.33773e-07
6.11107e-07 5.33773e-07 1.73672e-05
0.00177589 0.000351632 2.57701e-06
0.000351632 0.00036332 -7.9141e-07
2.57701e-06 -7.9141e-07 0.000142736
0.00119986 0.0002374 5.83681e-08
0.0002374 9.18755e-05 -2.4191e-07
5.83681e-08 -2.4191e-07 -9.70407e-05
0.000907384 0.000174566 -1.09834e-05
0.000174566 1.01467e-05 -5.90335e-06
-1.09834e-05 -5.90335e-06 -0.000145283
0.00113167 0.000232495 6.85404e-06
0.000232495 0.000115681 2.28621e-06
6.85404e-06 2.28621e-06 -8.01846e-05
0.000844301 0.000170595 -6.26515e-07
0.000170595 3.46775e-05 6.3143e-07
-6.26515e-07 6.3143e-07 -0.000127282
0.00064527 0.000176442 -2.21463e-05
0.000176442 -4.86185e-06 -1.39471e-05
-2.21463e-05 -1.39471e-05 -9.65669e-05
0.000668748 0.00014283 3.80398e-06
0.00014283 1.8678e-05 5.93373e-06
3.80398e-06 5.93373e-06 -0.000140083
0.000547768 9.71463e-05 -6.06073e-07
9.71463e-05 -3.72854e-05 -1.03919e-08
-6.06073e-07 -1.03919e-08 -0.000111192
0.00486463 -0.000121154 -0.000164844
-0.000121154 0.00258267 -1.2082e-05
-0.000164844 -1.2082e-05 0.00256842
0.000335064 2.72481e-06 5.39499e-06
2.72481e-06 -0.000138643 1.05739e-05
5.39499e-06 1.05739e-05 -0.000194689
0.00383944 -0.000161801 -7.86713e-06
-0.000161801 0.00197528 5.23795e-07
-7.86713e-06 5.23795e-07 0.00196253
0.0032457 -0.000155482 7.04781e-05
-0.000155482 0.00161625 2.08543e-06
7.04781e-05 2.08543e-06 0.00160648
0.00191752 0.000162883 -8.63913e-07
0.000162883 -1.93736e-06 5.20137e-07
-8.63913e-07 5.20137e-07 -5.88305e-05
0.00185027 0.000150695 7.40271e-07
0.000150695 -5.37211e-05 -2.35536e-07
7.40271e-07 -2.35536e-07 -9.0334e-05
0.00299156 3.67647e-05 -6.6054e-05
3.67647e-05 0.000712516 -5.74377e-06
-6.6054e-05 -5.74377e-06 0.000741534
0.00202393 0.000247149 1.17666e-06
0.000247149 0.000154991 9.31693e-07
1.17666e-06 9.31693e-07 4.40208e-05
0.00177412 0.000333458 -5.77933e-07
0.000333458 8.26924e-05 3.14965e-07
-5.77933e-07 3.14965e-07 -7.30036e-05
0.00151217 0.000394719 -3.11121e-07
0.000394719 5.80915e-05 -2.26858e-06
-3.11121e-07 -2.26858e-06 -0.000143256
0.00204148 0.000348501 -6.89125e-07
0.000348501 0.00031159 -2.3786e-06
-6.89125e-07 -2.3786e-06 0.000133616
0.00202779 0.000268308 -1.04971e-06
0.000268308 0.000122273 -2.17163e-07
-1.04971e-06 -2.17163e-07 1.97453e-05
0.00160121 0.000378522 -1.07727e-06
0.000378522 -1.94373e-05 -2.35585e-07
-1.07727e-06 -2.35585e-07 -0.000182488
0.00179475 0.000286703 6.53839e-06
0.000286703 7.95491e-06 -5.45277e-07
6.53839e-06 -5.45277e-07 -9.44808e-05
0.00190454 4.70699e-05 -1.18737e-06
4.70699e-05 2.4008e-05 3.25866e-07
-1.18737e-06 3.25866e-07 -9.36304e-06
0.0019769 5.02951e-05 5.04433e-07
5.02951e-05 1.58532e-05 -3.61412e-08
5.04433e-07 -3.61412e-08 -2.95207e-06
0.00199614 6.18028e-05 -6.62783e-06
6.18028e-05 3.10137e-05 6.328e-07
-6.62783e-06 6.328e-07 2.04437e-05
0.00163409 -1.20341e-05 -2.85076e-06
-1.20341e-05 -8.51012e-05 7.97591e-08
-2.85076e-06 7.97591e-08 -0.00013021
0.00200378 -7.84849e-05 3.71329e-06
-7.84849e-05 -3.12015e-05 -4.33601e-07
3.71329e-06 -4.33601e-07 -2.52381e-05
0.00191464 -5.51919e-05 -8.87158e-07
-5.51919e-05 3.43701e-05 3.54353e-07
-8.87158e-07 3.54353e-07 5.86754e-06
0.00189459 -6.91078e-05 -9.87353e-07
-6.91078e-05 0.000110147 -5.29099e-07
-9.87353e-07 -5.29099e-07 3.94353e-05
0.00177875 -0.000159771 2.70362e-06
-0.000159771 -3.14667e-05 -3.05915e-07
2.70362e-06 -3.05915e-07 -8.48837e-05
0.00184907 -0.000125513 2.16161e-06
-0.000125513 7.78451e-05 -7.66904e-07
2.16161e-06 -7.66904e-07 -6.04768e-06
0.00182389 -0.000119399 2.66271e-06
-0.000119399 0.000134646 -1.39878e-06
2.66271e-06 -1.39878e-06 1.81948e-05
0.00188485 -0.000188907 -3.45645e-07
-0.000188907 0.000126428 3.66526e-07
-3.45645e-07 3.66526e-07 2.70588e-05
0.00177885 -0.000168597 -1.14205e-07
-0.000168597 0.000132327 -3.40783e-08
-1.14205e-07 -3.40783e-08 3.82113e-06
0.00144866 -0.000124448 -3.04788e-06
-0.000124448 8.54626e-05 5.074e-07
-3.04788e-06 5.074e-07 -6.06563e-05
0.00174557 -0.000205886 -8.06478e-07
-0.000205886 0.000152353 6.4514e-07
-8.06478e-07 6.4514e-07 1.05748e-05
0.00140811 -0.000152698 -1.4975e-07
-0.000152698 8.45534e-05 1.38961e-07
-1.4975e-07 1.38961e-07 -6.93313e-05
0.00098712 -0.000102935 -1.27528e-05
-0.000102935 -1.83436e-05 3.92622e-06
-1.27528e-05 3.92622e-06 -0.000153116
0.00138305 -0.000174998 4.39432e-06
-0.000174998 9.25915e-05 -1.22786e-06
4.39432e-06 -1.22786e-06 -6.76734e-05
0.000996374 -0.000119049 2.84016e-08
-0.000119049 -4.35264e-06 1.92761e-07
2.84016e-08 1.92761e-07 -0.000140783
0.00250178 -0.000127459 -4.46928e-05
-0.000127459 0.00104274 7.46364e-06
-4.46928e-05 7.46364e-06 0.000974727
0.00100106 -0.000134603 1.33383e-05
-0.000134603 6.97305e-06 -5.40696e-06
1.33383e-05 -5.40696e-06 -0.000131489
0.00257593 -0.000149761 3.40906e-05
-0.000149761 0.00109092 -3.96432e-06
3.40906e-05 -3.96432e-06 0.00102487
0.00182168 -7.63764e-05 -0.000180186
-7.63764e-05 0.000727183 2.13818e-05
-0.000180186 2.13818e-05 0.000708888
0.00272839 -0.00017429 0.000114082
-0.00017429 0.00118726 -1.76895e-05
0.000114082 -1.76895e-05 0.00112099
0.00154092 -2.47369e-05 -8.23383e-05
-2.47369e-05 0.000572618 9.31308e-06
-8.23383e-05 9.31308e-06 0.000543565
0.00533047 0.000175119 2.96628e-05
0.000175119 0.00283722 -2.31113e-06
2.96628e-05 -2.31113e-06 0.00280828
0.00187125 0.000235612 6.76217e-07
0.000235612 0.000118659 3.50173e-07
6.76217e-07 3.50173e-07 -1.16889e-05
0.00183839 0.000259173 1.77379e-08
0.000259173 0.000200228 -6.65375e-07
1.77379e-08 -6.65375e-07 4.36324e-05
0.00192941 0.000284033 -3.37792e-06
0.000284033 0.00016603 6.99608e-08
-3.37792e-06 6.99608e-08 2.25043e-05
0.00165794 0.000230351 -3.64072e-06
0.000230351 0.000270953 -6.64913e-07
-3.64072e-06 -6.64913e-07 9.99554e-05
0.00159746 0.000270981 4.63002e-07
0.000270981 9.62585e-05 -1.37089e-06
4.63002e-07 -1.37089e-06 -7.41949e-05
0.00190713 0.00028993 -2.73227e-06
0.00028993 0.000175577 -3.40925e-06
-2.73227e-06 -3.40925e-06 2.74861e-05
0.00101265 0.000171144 -1.31239e-05
0.000171144 3.35438e-05 -5.50358e-06
-1.31239e-05 -5.50358e-06 -0.000116824
0.00126417 0.000232658 -2.38278e-07
0.000232658 7.57737e-05 3.93842e-07
-2.38278e-07 3.93842e-07 -0.000107145
0.00176696 0.000326524 2.89064e-06
0.000326524 0.000241117 -1.59527e-06
2.89064e-06 -1.59527e-06 4.25868e-05
0.00118804 0.000233362 7.61647e-06
0.000233362 9.03929e-05 2.11155e-06
7.61647e-06 2.11155e-06 -9.73444e-05
0.000891358 0.000173238 -2.44223e-07
0.000173238 4.69601e-07 -4.05652e-07
-2.44223e-07 -4.05652e-07 -0.000154573
0.000585279 0.000206381 -2.4696e-05
0.000206381 -5.51611e-05 -1.38814e-05
-2.4696e-05 -1.38814e-05 -0.000150673
0.000852847 0.00016807 8.5157e-06
0.00016807 3.6614e-05 5.72502e-06
8.5157e-06 5.72502e-06 -0.000124664
0.000559453 0.000169382 1.51974e-06
0.000169382 -5.27513e-05 4.99781e-07
1.51974e-06 4.99781e-07 -0.00014273
0.00548486 -0.000120455 -0.000173024
-0.000120455 0.00296734 -1.90088e-05
-0.000173024 -1.90088e-05 0.00293781
0.000361587 8.18405e-05 1.29705e-05
8.18405e-05 -0.000145633 1.29421e-05
1.29705e-05 1.29421e-05 -0.000214526
0.00458369 -0.000172926 -1.22711e-05
-0.000172926 0.00242464 1.08388e-06
-1.22711e-05 1.08388e-06 0.00240434
0.00363113 -0.000175976 8.47635e-05
-0.000175976 0.00185446 2.28488e-06
8.47635e-05 2.28488e-06 0.00183853
0.00189405 0.000132602 -8.48659e-07
0.000132602 4.48425e-05 1.53555e-06
-8.48659e-07 1.53555e-06 -2.64096e-05
0.00195022 0.000166644 8.15642e-07
0.000166644 1.17152e-05 3.07732e-07
8.15642e-07 3.07732e-07 -4.27268e-05
0.00184213 0.000155757 -4.80223e-08
0.000155757 -6.34405e-05 7.03903e-07
-4.80223e-08 7.03903e-07 -0.000101647
0.00199113 0.000242513 2.31904e-07
0.000242513 0.00013917 -7.28601e-08
2.31904e-07 -7.28601e-08 3.07451e-05
0.00177285 0.000328702 -9.39536e-07
0.000328702 9.88334e-05 -1.04596e-06
-9.39536e-07 -1.04596e-06 -5.63079e-05
0.00188224 0.000258684 -3.21597e-07
0.000258684 4.10752e-05 -1.03874e-06
-3.21597e-07 -1.03874e-06 -6.15573e-05
0.00182665 5.09827e-05 -8.53087e-07
5.09827e-05 3.6721e-05 -1.15795e-07
-8.53087e-07 -1.15795e-07 -1.71627e-05
0.0019178 4.50595e-05 4.62168e-07
4.50595e-05 3.44236e-05 -1.23173e-07
4.62168e-07 -1.23173e-07 8.39972e-07
0.00197744 5.09482e-05 2.91932e-06
5.09482e-05 2.73229e-05 3.07113e-07
2.91932e-06 3.07113e-07 5.48974e-06
0.00177915 -1.70127e-05 -2.31061e-06
-1.70127e-05 -8.9392e-07 3.57998e-08
-2.31061e-06 3.57998e-08 -4.53121e-05
0.00174395 -3.66875e-05 -7.82425e-07
-3.66875e-05 3.35925e-05 -2.94915e-07
-7.82425e-07 -2.94915e-07 -4.17034e-05
0.00190373 -5.76804e-05 1.15952e-06
-5.76804e-05 2.72819e-05 3.63185e-07
1.15952e-06 3.63185e-07 -1.82131e-06
0.00184965 -6.87436e-05 -1.51815e-06
-6.87436e-05 8.28087e-05 5.9512e-07
-1.51815e-06 5.9512e-07 7.98274e-06
0.00186621 -6.98565e-05 4.02622e-07
-6.98565e-05 0.000163317 -4.30055e-07
4.02622e-07 -4.30055e-07 6.03591e-05
0.00186796 -0.000126961 2.03835e-06
-0.000126961 8.03427e-05 -3.31381e-08
2.03835e-06 -3.31381e-08 -3.3955e-06
0.00177521 -0.000119774 1.88969e-06
-0.000119774 0.000109084 -7.16581e-07
1.88969e-06 -7.16581e-07 -7.52687e-06
0.00147059 -8.72721e-05 -2.10531e-06
-8.72721e-05 7.58971e-05 -4.34641e-08
-2.10531e-06 -4.34641e-08 -6.19406e-05
0.00177219 -0.000168557 -1.05561e-06
-0.000168557 0.000130064 5.27142e-07
-1.05561e-06 5.27142e-07 1.62755e-06
0.00143921 -0.000123954 -9.56373e-08
-0.000123954 7.66236e-05 7.04792e-08
-9.56373e-08 7.04792e-08 -6.9264e-05
0.000992218 -8.11835e-05 -1.24103e-05
-8.11835e-05 -2.587e-05 2.98977e-06
-1.24103e-05 2.98977e-06 -0.00015722
0.00141211 -0.000152386 3.43405e-06
-0.000152386 8.41527e-05 -7.36177e-07
3.43405e-06 -7.36177e-07 -6.93586e-05
0.00100328 -0.000101033 -9.52861e-08
-0.000101033 -1.05118e-05 2.36361e-07
-9.52861e-08 2.36361e-07 -0.000144628
0.00248648 -0.000140706 -4.84415e-05
-0.000140706 0.0010302 6.74205e-06
-4.84415e-05 6.74205e-06 0.000961561
0.00101292 -0.000117525 1.31379e-05
-0.000117525 3.2062e-06 -4.55169e-06
1.31379e-05 -4.55169e-06 -0.000132502
0.00256814 -0.000135201 3.27615e-05
-0.000135201 0.00107861 -3.00224e-06
3.27615e-05 -3.00224e-06 0.00101494
0.00185486 -6.51919e-05 -0.000180023
-6.51919e-05 0.000740535 1.83653e-05
-0.000180023 1.83653e-05 0.000722698
0.00267651 -0.000149769 0.000112473
-0.000149769 0.00114546 -1.5365e-05
0.000112473 -1.5365e-05 0.00108508
0.00154858 -3.68763e-05 -7.46333e-05
-3.68763e-05 0.00057016 8.1059e-06
-7.46333e-05 8.1059e-06 0.00054434
0.00136717 -1.63686e-05 3.33504e-05
-1.63686e-05 0.000473739 -5.22933e-06
3.33504e-05 -5.22933e-06 0.000437747
0.00192421 0.000139404 -5.90742e-07
0.000139404 0.00012764 1.76096e-06
-5.90742e-07 1.76096e-06 3.02387e-05
0.00180153 0.000216751 -1.09735e-06
0.000216751 0.000146841 2.67693e-07
-1.09735e-06 2.67693e-07 2.50015e-06
0.00185903 0.000235555 -7.55291e-07
0.000235555 0.000104331 -1.10472e-07
-7.55291e-07 -1.10472e-07 -2.29582e-05
0.00172555 0.000213639 -2.95335e-06
0.000213639 0.000267065 -5.19589e-07
-2.95335e-06 -5.19589e-07 0.000108077
0.00178272 0.000254489 4.24443e-07
0.000254489 0.00017295 -2.07972e-08
4.24443e-07 -2.07972e-08 1.52048e-05
0.00179752 0.000278777 4.38924e-07
0.000278777 8.64552e-05 1.54785e-07
4.38924e-07 1.54785e-07 -5.90434e-05
0.00100841 0.000154201 -1.37569e-05
0.000154201 6.63616e-06 -5.099e-06
-1.37569e-05 -5.099e-06 -0.000137046
0.00149671 0.000226292 3.22394e-06
0.000226292 0.000172479 6.69931e-07
3.22394e-06 6.69931e-07 1.03546e-06
0.00164201 0.000278551 3.53923e-07
0.000278551 0.000115067 -2.1494e-06
3.53923e-07 -2.1494e-06 -5.37199e-05
0.000521873 0.000175441 -2.25356e-05
0.000175441 -0.000101624 -1.22817e-05
-2.25356e-05 -1.22817e-05 -0.000195207
0.000955848 0.000167505 -6.45862e-07
0.000167505 1.89635e-06 3.31907e-07
-6.45862e-07 3.31907e-07 -0.00014799
0.00133727 0.000237184 7.71612e-06
0.000237184 0.000119205 2.70472e-06
7.71612e-06 2.70472e-06 -6.43812e-05
0.000882943 0.000172687 1.12922e-05
0.000172687 -4.58638e-06 5.23603e-06
1.12922e-05 5.23603e-06 -0.000159415
0.000545751 0.000188094 1.63243e-06
0.000188094 -7.36315e-05 4.59528e-07
1.63243e-06 4.59528e-07 -0.000170583
0.00575819 -2.83591e-05 -0.000190738
-2.83591e-05 0.00310617 -2.1406e-05
-0.000190738 -2.1406e-05 0.00308694
0.000460354 0.000158558 2.02492e-05
0.000158558 -0.000111394 1.40389e-05
2.02492e-05 1.40389e-05 -0.000197661
0.00529232 -0.00012716 -8.33987e-07
-0.00012716 0.00283419 -4.61102e-07
-8.33987e-07 -4.61102e-07 0.00281672
0.00429851 -0.000206323 0.0001044
-0.000206323 0.00226379 4.70148e-06
0.0001044 4.70148e-06 0.0022373
0.00175685 9.17565e-05 -2.39515e-06
9.17565e-05 8.31371e-06 1.17535e-06
-2.39515e-06 1.17535e-06 -5.78022e-05
0.00187634 0.000131938 1.17254e-06
0.000131938 3.77391e-05 7.63349e-07
1.17254e-06 7.63349e-07 -3.24295e-05
0.00195412 0.000170086 -4.87422e-07
0.000170086 7.50246e-06 -1.19596e-07
-4.87422e-07 -1.19596e-07 -4.44199e-05
0.00196156 0.000237585 1.81862e-06
0.000237585 0.000125113 -5.68686e-07
1.81862e-06 -5.68686e-07 1.93218e-05
0.0018124 -3.66699e-07 1.78272e-06
-3.66699e-07 8.16881e-05 -2.87396e-07
1.78272e-06 -2.87396e-07 3.3397e-06
0.00190492 4.48059e-05 6.21224e-07
4.48059e-05 7.53418e-05 -1.0926e-07
6.21224e-07 -1.0926e-07 2.43769e-05
0.00193357 4.31518e-05 2.31762e-06
4.31518e-05 4.71928e-05 5.58095e-08
2.31762e-06 5.58095e-08 1.33719e-05
0.00193023 -1.97799e-05 -1.46734e-06
-1.97799e-05 8.66366e-05 1.60172e-07
-1.46734e-06 1.60172e-07 4.29193e-05
0.00174239 -2.89348e-05 -2.09023e-06
-2.89348e-05 3.46787e-05 -2.1366e-07
-2.09023e-06 -2.1366e-07 -3.78573e-05
0.00179736 -3.05137e-05 2.20206e-06
-3.05137e-05 0.000131583 -5.73517e-07
2.20206e-06 -5.73517e-07 2.98066e-05
0.00179221 -6.82686e-05 -1.71965e-06
-6.82686e-05 4.70721e-05 1.30017e-06
-1.71965e-06 1.30017e-06 -3.19202e-05
0.00175866 -6.96645e-05 -2.85895e-07
-6.96645e-05 0.000103212 3.68226e-07
-2.85895e-07 3.68226e-07 -4.37842e-06
0.00154501 -5.07486e-05 -2.72144e-06
-5.07486e-05 0.000105369 -3.15321e-08
-2.72144e-06 -3.15321e-08 -2.179e-05
0.00174186 -0.000118905 1.10448e-06
-0.000118905 9.24755e-05 -3.79343e-08
1.10448e-06 -3.79343e-08 -2.40502e-05
0.00146053 -8.51808e-05 5.57178e-07
-8.51808e-05 6.80324e-05 -2.21367e-07
5.57178e-07 -2.21367e-07 -6.93859e-05
0.000988742 -5.57979e-05 -1.22407e-05
-5.57979e-05 -3.62395e-05 2.22893e-06
-1.22407e-05 2.22893e-06 -0.00016409
0.00143327 -0.000121417 2.77779e-06
-0.000121417 7.03917e-05 -4.15106e-07
2.77779e-06 -4.15106e-07 -7.49854e-05
0.000997869 -8.03459e-05 -5.10767e-08
-8.03459e-05 -2.31072e-05 1.66701e-07
-5.10767e-08 1.66701e-07 -0.00015415
0.000593714 -7.99765e-05 -1.95663e-05
-7.99765e-05 -0.000109507 4.78433e-06
-1.95663e-05 4.78433e-06 -0.000184315
0.00101987 -9.91506e-05 1.26629e-05
-9.91506e-05 -2.36964e-06 -3.5099e-06
1.26629e-05 -3.5099e-06 -0.000135806
0.00158309 -8.97053e-05 4.5896e-05
-8.97053e-05 0.000484642 -2.98919e-06
4.5896e-05 -2.98919e-06 0.000417567
0.00557822 -0.000119116 -0.000230396
-0.000119116 0.00295349 1.43955e-05
-0.000230396 1.43955e-05 0.00295944
0.0026527 -0.000122147 0.000111599
-0.000122147 0.00112067 -1.2462e-05
0.000111599 -1.2462e-05 0.0010637
0.00156157 -4.79267e-05 -6.72196e-05
-4.79267e-05 0.000574193 5.63338e-06
-6.72196e-05 5.63338e-06 0.00054842
0.00128231 -5.83173e-05 4.44167e-05
-5.83173e-05 0.000423617 -6.15589e-06
4.44167e-05 -6.15589e-06 0.000387546
0.00188996 9.69284e-05 -4.45565e-07
9.69284e-05 0.00012479 1.85538e-06
-4.45565e-07 1.85538e-06 4.1251e-05
0.00185619 0.000150574 4.23036e-07
0.000150574 0.000164233 1.41706e-06
4.23036e-07 1.41706e-06 4.02313e-05
0.00196605 0.000136647 4.40372e-07
0.000136647 0.000159284 3.09941e-08
4.40372e-07 3.09941e-08 6.12269e-05
0.00151193 0.000170928 -3.49564e-06
0.000170928 0.000104328 -3.68504e-07
-3.49564e-06 -3.68504e-07 -4.54378e-05
0.00178875 0.000213643 3.61478e-07
0.000213643 0.000139511 1.557e-09
3.61478e-07 1.557e-09 -4.12763e-06
0.00184205 0.000235616 2.13644e-07
0.000235616 8.64704e-05 -2.83169e-07
2.13644e-07 -2.83169e-07 -3.78355e-05
0.000707581 0.000120055 -1.54386e-05
0.000120055 -0.000188501 -4.56744e-06
-1.54386e-05 -4.56744e-06 -0.000327089
0.00174797 0.000215012 2.45735e-06
0.000215012 0.000280149 6.55699e-07
2.45735e-06 6.55699e-07 0.000121162
0.00172004 0.000249344 2.77521e-07
0.000249344 0.000141393 -3.79977e-07
2.77521e-07 -3.79977e-07 -1.74701e-05
0.000500817 0.0001298 -1.96055e-05
0.0001298 -0.000131908 -9.73542e-06
-1.96055e-05 -9.73542e-06 -0.000217777
0.000807677 0.000144272 5.42506e-07
0.000144272 -0.000110882 2.75071e-07
5.42506e-07 2.75071e-07 -0.000255116
0.00132394 0.000221514 9.22528e-06
0.000221514 6.68635e-05 1.75142e-06
9.22528e-06 1.75142e-06 -0.000104916
0.0058031 5.6187e-05 -0.000203145
5.6187e-05 0.00310734 -2.0669e-05
-0.000203145 -2.0669e-05 0.00310011
0.00051278 0.000162914 1.09436e-06
0.000162914 -0.000106062 7.17372e-07
1.09436e-06 7.17372e-07 -0.000200469
0.000894862 0.000163805 1.24048e-05
0.000163805 -3.20713e-05 6.32198e-06
1.24048e-05 6.32198e-06 -0.000181511
0.000467154 0.000171901 2.07259e-05
0.000171901 -0.000115021 1.36394e-05
2.07259e-05 1.36394e-05 -0.000213207
0.00562613 -4.00718e-05 8.66908e-06
-4.00718e-05 0.00301833 -7.65435e-07
8.66908e-06 -7.65435e-07 0.00300617
0.00506401 -0.000177448 0.000141588
-0.000177448 0.00270457 7.37545e-06
0.000141588 7.37545e-06 0.00268258
0.00184144 6.29322e-05 -1.59782e-06
6.29322e-05 9.584e-05 -7.31509e-07
-1.59782e-06 -7.31509e-07 1.71416e-05
0.00184726 9.29181e-05 3.56898e-07
9.29181e-05 5.99473e-05 5.87852e-07
3.56898e-07 5.87852e-07 -7.06496e-06
0.00185543 0.000131083 1.78049e-06
0.000131083 2.88456e-05 4.15822e-08
1.78049e-06 4.15822e-08 -4.02201e-05
0.00169607 3.98769e-06 2.39694e-06
3.98769e-06 6.25232e-05 -5.34108e-07
2.39694e-06 -5.34108e-07 -4.13802e-05
0.00174778 1.91956e-06 6.85356e-07
1.91956e-06 4.8223e-05 8.09627e-08
6.85356e-07 8.09627e-08 -2.85867e-05
0.00197359 3.7304e-05 1.18206e-06
3.7304e-05 0.000108396 6.79632e-08
1.18206e-06 6.79632e-08 6.03497e-05
0.00174203 -2.23947e-05 -2.56019e-06
-2.23947e-05 3.65539e-05 7.35001e-07
-2.56019e-06 7.35001e-07 -3.32422e-05
0.00177307 -2.62492e-05 9.84241e-07
-2.62492e-05 0.000116727 -7.07061e-08
9.84241e-07 -7.07061e-08 1.52692e-05
0.00173136 -1.92185e-05 -7.60036e-07
-1.92185e-05 0.000216812 -4.94353e-07
-7.60036e-07 -4.94353e-07 9.57131e-05
0.00164976 -6.94658e-05 -1.87653e-06
-6.94658e-05 4.28679e-05 1.14619e-06
-1.87653e-06 1.14619e-06 -6.93593e-05
0.0016002 -5.07042e-05 6.17107e-08
-5.07042e-05 0.000139326 6.57366e-08
6.17107e-08 6.57366e-08 1.06954e-05
0.000783203 -2.71258e-05 -1.37921e-05
-2.71258e-05 -0.000164218 1.38454e-06
-1.37921e-05 1.38454e-06 -0.000289865
0.0014434 -8.51236e-05 3.00093e-06
-8.51236e-05 5.59141e-05 -4.37553e-07
3.00093e-06 -4.37553e-07 -8.13679e-05
0.000993381 -5.27574e-05 -3.51132e-08
-5.27574e-05 -3.44978e-05 1.22644e-07
-3.51132e-08 1.22644e-07 -0.000161908
0.000596143 -2.05439e-05 -1.83649e-05
-2.05439e-05 -0.000111743 3.12726e-06
-1.83649e-05 3.12726e-06 -0.000185691
0.00101607 -7.8854e-05 1.23003e-05
-7.8854e-05 -1.36187e-05 -2.64896e-06
1.23003e-05 -2.64896e-06 -0.000144204
0.000599819 -6.28434e-05 -2.17615e-07
-6.28434e-05 -0.000103664 3.33832e-07
-2.17615e-07 3.33832e-07 -0.000180078
0.00558981 -1.37529e-05 -0.000221671
-1.37529e-05 0.00295695 8.74852e-06
-0.000221671 8.74852e-06 0.00296514
0.000629342 -6.65213e-05 1.6034e-05
-6.65213e-05 -8.42862e-05 -6.69455e-06
1.6034e-05 -6.69455e-06 -0.00016272
0.00351835 -7.83742e-05 0.000103501
-7.83742e-05 0.00173507 -3.7814e-06
0.000103501 -3.7814e-06 0.00171893
0.00123399 -7.21875e-05 5.0552e-05
-7.21875e-05 0.000396923 -6.70774e-06
5.0552e-05 -6.70774e-06 0.000358385
0.00180349 9.0307e-05 -8.63975e-07
9.0307e-05 9.49305e-05 1.47712e-07
-8.63975e-07 1.47712e-07 7.53614e-06
0.00173142 9.10367e-05 2.41048e-06
9.10367e-05 9.24678e-05 2.29632e-06
2.41048e-06 2.29632e-06 -2.0669e-05
0.00193872 9.45599e-05 2.01573e-08
9.45599e-05 0.000155611 -3.80753e-07
2.01573e-08 -3.80753e-07 7.30982e-05
0.0014729 0.000121854 -2.23999e-06
0.000121854 6.70583e-05 -1.61008e-07
-2.23999e-06 -1.61008e-07 -7.42676e-05
0.00182712 0.000149637 5.51533e-07
0.000149637 0.000143069 1.60084e-07
5.51533e-07 1.60084e-07 1.77956e-05
0.00201349 0.000133762 1.1902e-07
0.000133762 0.000194277 -1.83858e-06
1.1902e-07 -1.83858e-06 9.55974e-05
0.000769719 9.98981e-05 -1.46043e-05
9.98981e-05 -0.000167744 -3.49974e-06
-1.46043e-05 -3.49974e-06 -0.000301151
0.00162109 0.00017299 -1.227e-07
0.00017299 0.000171715 2.11801e-07
-1.227e-07 2.11801e-07 2.16668e-05
0.00177924 0.000210625 7.87966e-07
0.000210625 0.000134505 -4.73173e-07
7.87966e-07 -4.73173e-07 -8.42085e-06
0.000522836 9.21e-05 -1.79598e-05
9.21e-05 -0.0001365 -7.17729e-06
-1.79598e-05 -7.17729e-06 -0.00021591
0.000694488 0.000119759 -2.85565e-06
0.000119759 -0.000195494 -3.85849e-07
-2.85565e-06 -3.85849e-07 -0.000334272
0.00177458 0.000216844 8.07772e-06
0.000216844 0.000295743 1.90938e-06
8.07772e-06 1.90938e-06 0.000136679
0.00573865 0.000133716 -0.000221072
0.000133716 0.00305382 -1.96848e-05
-0.000221072 -1.96848e-05 0.0030543
0.000511183 0.000124069 3.93791e-07
0.000124069 -0.000126739 3.40139e-07
3.93791e-07 3.40139e-07 -0.000213074
0.000612893 0.000134889 1.35112e-05
0.000134889 -0.000225058 4.92661e-06
1.35112e-05 4.92661e-06 -0.000369906
0.00570843 7.06889e-05 1.25873e-05
7.06889e-05 0.00305251 1.14575e-06
1.25873e-05 1.14575e-06 0.00304636
0.000486992 0.000149617 1.90975e-05
0.000149617 -0.000120272 1.22724e-05
1.90975e-05 1.22724e-05 -0.000215344
0.00550798 -7.11906e-05 0.000183659
-7.11906e-05 0.0029389 1.11227e-05
0.000183659 1.11227e-05 0.00293299
0.00180017 4.42908e-05 1.00318e-06
4.42908e-05 0.00011278 -6.16296e-07
1.00318e-06 -6.16296e-07 1.09247e-05
0.00178379 6.03667e-05 -1.69225e-06
6.03667e-05 6.80122e-05 4.69561e-07
-1.69225e-06 4.69561e-07 -1.23241e-05
0.00194361 9.37985e-05 1.87117e-06
9.37985e-05 0.00011482 1.4768e-07
1.87117e-06 1.4768e-07 4.69098e-05
0.00173822 -1.88064e-06 3.26993e-07
-1.88064e-06 0.000226136 -3.33501e-07
3.26993e-07 -3.33501e-07 0.000107138
0.0017 2.13969e-06 1.46722e-07
2.13969e-06 6.34736e-05 4.98015e-08
1.46722e-07 4.98015e-08 -3.87628e-05
0.0016877 5.51616e-06 1.13574e-06
5.51616e-06 1.69525e-05 1.90133e-07
1.13574e-06 1.90133e-07 -5.82989e-05
0.00174504 -2.2251e-05 -3.84425e-07
-2.2251e-05 9.97724e-05 5.53584e-07
-3.84425e-07 5.53584e-07 -1.39314e-06
0.00174001 -1.926e-05 2.69059e-06
-1.926e-05 0.000221413 -2.03966e-07
2.69059e-06 -2.03966e-07 0.000100325
0.000796653 -9.13259e-06 -1.33017e-05
-9.13259e-06 -0.000154833 5.09597e-07
-1.33017e-05 5.09597e-07 -0.000277463
0.0016585 -5.08226e-05 3.08495e-06
-5.08226e-05 0.000175056 6.9926e-08
3.08495e-06 6.9926e-08 4.49501e-05
0.000890916 -2.65834e-05 -2.27106e-06
-2.65834e-05 -0.000100821 2.27269e-07
-2.27106e-06 2.27269e-07 -0.000225917
0.000600952 -6.32986e-06 -1.86112e-05
-6.32986e-06 -0.000113015 2.02816e-06
-1.86112e-05 2.02816e-06 -0.000185586
0.00100243 -5.08976e-05 1.18585e-05
-5.08976e-05 -2.98432e-05 -1.95012e-06
1.18585e-05 -1.95012e-06 -0.00015692
0.000580653 -3.09155e-05 7.92882e-07
-3.09155e-05 -0.000122653 -4.69128e-08
7.92882e-07 -4.69128e-08 -0.000195261
0.00554619 -0.000111182 -0.000230438
-0.000111182 0.0029392 9.10806e-06
-0.000230438 9.10806e-06 0.00294422
0.000577554 -4.64507e-05 1.77493e-05
-4.64507e-05 -0.000116968 -3.76182e-06
1.77493e-05 -3.76182e-06 -0.000193139
0.00556879 -4.96986e-05 7.79964e-06
-4.96986e-05 0.00294547 -4.52224e-08
7.79964e-06 -4.52224e-08 0.0029538
0.00156449 -1.93544e-05 0.000185878
-1.93544e-05 0.000568068 -1.01357e-05
0.000185878 -1.01357e-05 0.000554706
0.00166415 6.67341e-05 2.51534e-06
6.67341e-05 4.85664e-05 4.39414e-07
2.51534e-06 4.39414e-07 -6.11287e-05
0.001787 9.44559e-05 -3.18848e-06
9.44559e-05 7.91626e-05 -7.06648e-07
-3.18848e-06 -7.06648e-07 -5.48401e-06
0.00147515 7.44303e-05 -1.34445e-06
7.44303e-05 6.73843e-05 1.24155e-07
-1.34445e-06 1.24155e-07 -6.50635e-05
0.0017374 8.99444e-05 6.10584e-07
8.99444e-05 9.52976e-05 1.76415e-07
6.10584e-07 1.76415e-07 -1.7935e-05
0.00198148 9.23587e-05 -6.94973e-07
9.23587e-05 0.000182725 -3.0426e-06
-6.94973e-07 -3.0426e-06 0.000101227
0.00104332 7.8118e-05 -1.23926e-05
7.8118e-05 -1.16172e-05 -2.39239e-06
-1.23926e-05 -2.39239e-06 -0.000137916
0.0014713 0.000121637 8.47714e-08
0.000121637 6.7426e-05 6.20873e-08
8.47714e-08 6.20873e-08 -7.40673e-05
0.00179345 0.000148544 1.40018e-07
0.000148544 0.000119289 -8.75123e-07
1.40018e-07 -8.75123e-07 -7.25665e-06
0.000545169 6.51755e-05 -1.74915e-05
6.51755e-05 -0.000136444 -5.18452e-06
-1.74915e-05 -5.18452e-06 -0.00021234
0.000870568 0.000104021 -3.0613e-06
0.000104021 -0.000106948 -3.01104e-07
-3.0613e-06 -3.01104e-07 -0.000239914
0.00173365 0.000174944 4.39965e-06
0.000174944 0.000241283 1.1195e-06
4.39965e-06 1.1195e-06 9.09848e-05
0.0056899 0.000179013 -0.000239623
0.000179013 0.00302565 -1.89575e-05
-0.000239623 -1.89575e-05 0.0030258
0.000539676 9.11372e-05 5.74402e-08
9.11372e-05 -0.00012745 1.78077e-07
5.74402e-08 1.78077e-07 -0.000207008
0.000680288 0.00011951 9.50337e-06
0.00011951 -0.000203366 3.62451e-06
9.50337e-06 3.62451e-06 -0.00034229
0.00569068 0.000153789 1.06532e-05
0.000153789 0.00303445 2.76192e-06
1.06532e-05 2.76192e-06 0.00303089
0.000525727 0.00011705 1.83914e-05
0.00011705 -0.000119674 9.6506e-06
1.83914e-05 9.6506e-06 -0.000206028
0.0056385 6.49547e-05 0.000209426
6.49547e-05 0.00300041 1.66039e-05
0.000209426 1.66039e-05 0.0030018
0.00172659 3.00419e-05 1.01228e-06
3.00419e-05 0.000220345 -6.34753e-08
1.01228e-06 -6.34753e-08 0.000100893
0.00176196 3.97348e-05 -1.26933e-06
3.97348e-05 9.33617e-05 8.45121e-08
-1.26933e-06 8.45121e-08 -9.87014e-06
0.00172586 5.75255e-05 -1.5018e-06
5.75255e-05 4.0773e-05 5.00093e-07
-1.5018e-06 5.00093e-07 -4.11622e-05
0.000790846 -7.72889e-06 -1.37839e-05
-7.72889e-06 -0.000152052 -1.3775e-07
-1.37839e-05 -1.3775e-07 -0.000273182
0.00174355 3.95285e-06 3.08887e-06
3.95285e-06 0.000229214 -1.80488e-07
3.08887e-06 -1.80488e-07 0.000110172
0.00170371 1.41045e-07 -1.36341e-06
1.41045e-07 6.43675e-05 4.75779e-07
-1.36341e-06 4.75779e-07 -3.61867e-05
0.00175356 -1.96701e-05 5.96904e-06
-1.96701e-05 0.000228925 6.16596e-08
5.96904e-06 6.16596e-08 0.000107846
0.000789044 -9.25306e-06 -1.72825e-06
-9.25306e-06 -0.000160268 7.74708e-08
-1.72825e-06 7.74708e-08 -0.000283139
0.000602921 -2.82486e-05 -1.89775e-05
-2.82486e-05 -0.000112642 7.47191e-07
-1.89775e-05 7.47191e-07 -0.000183094
0.000982646 -2.52266e-05 1.01291e-05
-2.52266e-05 -4.67334e-05 -1.15191e-06
1.01291e-05 -1.15191e-06 -0.000171296
0.000581072 4.46841e-06 3.24545e-07
4.46841e-06 -0.000125038 9.43465e-08
3.24545e-07 9.43465e-08 -0.000196994
0.00558234 -8.84613e-05 -0.000237362
-8.84613e-05 0.00295817 6.42454e-06
-0.000237362 6.42454e-06 0.00296535
0.000592217 -3.34538e-05 1.85286e-05
-3.34538e-05 -0.000114248 -2.55069e-06
1.85286e-05 -2.55069e-06 -0.000187997
0.0055808 -4.84147e-06 -3.03067e-06
-4.84147e-06 0.00295087 1.55546e-06
-3.03067e-06 1.55546e-06 0.00296103
0.00557641 -6.81902e-05 0.000230584
-6.81902e-05 0.00294851 -8.11429e-06
0.000230584 -8.11429e-06 0.00295806
0.00145026 4.5243e-05 -1.22159e-06
4.5243e-05 5.79404e-05 -1.88838e-09
-1.22159e-06 -1.88838e-09 -7.01326e-05
0.00172457 7.00405e-05 -1.37569e-06
7.00405e-05 8.26036e-05 -1.2774e-06
-1.37569e-06 -1.2774e-06 -2.30098e-05
0.00177613 9.90103e-05 -4.27676e-06
9.90103e-05 6.669e-05 -1.36104e-06
-4.27676e-06 -1.36104e-06 -1.52426e-05
0.00104638 4.49548e-05 -1.21718e-05
4.49548e-05 -9.1386e-06 -1.84473e-06
-1.21718e-05 -1.84473e-06 -0.000130907
0.0014612 7.42778e-05 1.78856e-07
7.42778e-05 5.90901e-05 2.59131e-08
1.78856e-07 2.59131e-08 -7.37494e-05
0.00174323 8.87559e-05 -1.03997e-06
8.87559e-05 9.84266e-05 -1.72939e-06
-1.03997e-06 -1.72939e-06 -1.48927e-05
0.000572429 4.06516e-05 -1.7079e-05
4.06516e-05 -0.000126127 -3.75774e-06
-1.7079e-05 -3.75774e-06 -0.000199922
0.00101296 7.93002e-05 2.15546e-07
7.93002e-05 -2.89371e-05 2.22289e-07
2.15546e-07 2.22289e-07 -0.000155744
0.00147065 0.000121471 2.85306e-06
0.000121471 6.80195e-05 3.48012e-07
2.85306e-06 3.48012e-07 -7.36545e-05
0.0056265 0.000171961 -0.000251533
0.000171961 0.00299045 -1.64378e-05
-0.000251533 -1.64378e-05 0.00299135
0.000569481 6.79668e-05 3.23517e-07
6.79668e-05 -0.000122098 1.53594e-07
3.23517e-07 1.53594e-07 -0.000198473
0.000969193 0.00010812 9.52884e-06
0.00010812 -4.76424e-05 3.0287e-06
9.52884e-06 3.0287e-06 -0.000180129
0.0056714 0.00019259 6.12494e-06
0.00019259 0.00302145 2.6287e-06
6.12494e-06 2.6287e-06 0.00301887
0.000559632 9.13097e-05 1.75148e-05
9.13097e-05 -0.00011602 7.56627e-06
1.75148e-05 7.56627e-06 -0.00019586
0.00567565 0.000176528 0.000229107
0.000176528 0.00302533 2.15494e-05
0.000229107 2.15494e-05 0.00302247
0.00101476 1.3807e-05 -1.28534e-05
1.3807e-05 -1.77758e-05 -7.40696e-07
-1.28534e-05 -7.40696e-07 -0.000137137
0.00161138 2.56644e-05 3.54224e-06
2.56644e-05 0.000153157 1.05284e-07
3.54224e-06 1.05284e-07 3.31464e-05
0.00172369 3.4508e-05 -3.82869e-06
3.4508e-05 7.36167e-05 1.80054e-07
-3.82869e-06 1.80054e-07 -3.10117e-05
0.000629333 2.96372e-05 -1.94397e-05
2.96372e-05 -0.000103914 -4.5663e-07
-1.94397e-05 -4.5663e-07 -0.000167456
0.000768963 -2.22807e-06 -1.93554e-06
-2.22807e-06 -0.000165675 6.52241e-08
-1.93554e-06 6.52241e-08 -0.000286948
0.00174567 1.01427e-05 5.93435e-06
1.01427e-05 0.000230354 1.23636e-07
5.93435e-06 1.23636e-07 0.000111251
0.000778087 -9.00753e-06 9.92447e-06
-9.00753e-06 -0.000167763 -3.78141e-07
9.92447e-06 -3.78141e-07 -0.000290856
0.00059553 -4.24546e-06 2.70338e-07
-4.24546e-06 -0.000116727 3.00254e-07
2.70338e-07 3.00254e-07 -0.000187347
0.00555224 4.05498e-05 -0.000243015
4.05498e-05 0.00293649 -5.47504e-07
-0.000243015 -5.47504e-07 0.00294732
0.000557258 1.56236e-05 1.80409e-05
1.56236e-05 -0.000139912 -1.16551e-06
1.80409e-05 -1.16551e-06 -0.000210944
0.00556349 -8.72256e-05 -7.84509e-06
-8.72256e-05 0.00294776 1.52778e-06
-7.84509e-06 1.52778e-06 0.00295464
0.00555051 1.51159e-05 0.000222346
1.51159e-05 0.00293331 -3.62005e-06
0.000222346 -3.62005e-06 0.00294315
0.00102565 2.39764e-05 -1.26375e-05
2.39764e-05 -1.56415e-05 -1.38067e-06
-1.26375e-05 -1.38067e-06 -0.000135332
0.00145477 4.47299e-05 -1.40202e-07
4.47299e-05 6.01398e-05 -7.49237e-08
-1.40202e-07 -7.49237e-08 -6.57384e-05
0.00178656 7.31002e-05 -4.37771e-06
7.31002e-05 0.00011732 -1.981e-06
-4.37771e-06 -1.981e-06 1.58039e-05
0.00262106 4.91813e-05 -0.000116963
4.91813e-05 0.00108512 -3.71202e-06
-0.000116963 -3.71202e-06 0.00103687
0.00101567 4.68428e-05 2.48244e-07
4.68428e-05 -2.75781e-05 1.25493e-07
2.48244e-07 1.25493e-07 -0.000149704
0.00144816 7.40624e-05 2.4769e-06
7.40624e-05 5.12692e-05 6.12879e-08
2.4769e-06 6.12879e-08 -8.19708e-05
0.00556594 0.000136736 -0.000253892
0.000136736 0.00295295 -1.22662e-05
-0.000253892 -1.22662e-05 0.00295726
0.000604372 5.71724e-05 8.23456e-07
5.71724e-05 -0.000105417 3.33154e-07
8.23456e-07 3.33154e-07 -0.000180685
0.000986674 8.0633e-05 1.23037e-05
8.0633e-05 -4.3812e-05 2.79777e-06
1.23037e-05 2.79777e-06 -0.000171105
0.00566416 0.000183885 1.73125e-06
0.000183885 0.0030148 1.65556e-06
1.73125e-06 1.65556e-06 0.00301463
0.000604075 7.33083e-05 1.78937e-05
7.33083e-05 -0.000100668 5.94954e-06
1.78937e-05 5.94954e-06 -0.000178085
0.0056551 0.000218979 0.000240177
0.000218979 0.00301984 2.29977e-05
0.000240177 2.29977e-05 0.0030131
0.000674459 9.216e-06 -1.63443e-05
9.216e-06 -6.7006e-05 -1.77031e-06
-1.63443e-05 -1.77031e-06 -0.000138449
0.000883973 1.19759e-05 6.74367e-07
1.19759e-05 -9.53503e-05 2.49103e-07
6.74367e-07 2.49103e-07 -0.000215494
0.00149324 2.08571e-05 5.21702e-06
2.08571e-05 8.41269e-05 1.23968e-07
5.21702e-06 1.23968e-07 -3.64075e-05
0.00542163 -9.31855e-05 -0.000226472
-9.31855e-05 0.00287577 9.33333e-07
-0.000226472 9.33333e-07 0.00287693
0.000591714 7.80258e-06 -5.07791e-07
7.80258e-06 -0.000121295 1.47005e-07
-5.07791e-07 1.47005e-07 -0.000187518
0.000759566 2.7427e-06 9.76789e-06
2.7427e-06 -0.000172151 1.27555e-07
9.76789e-06 1.27555e-07 -0.000293528
0.000556068 2.07041e-05 1.82778e-05
2.07041e-05 -0.00014032 1.5976e-07
1.82778e-05 1.5976e-07 -0.000210362
0.00550496 4.72626e-06 2.52387e-06
4.72626e-06 0.00291304 -8.54378e-07
2.52387e-06 -8.54378e-07 0.00292055
0.00557356 -1.48064e-06 0.000231473
-1.48064e-06 0.00294463 -1.75489e-06
0.000231473 -1.75489e-06 0.002956
0.00268754 7.16947e-06 -0.000113782
7.16947e-06 0.0011212 -2.32116e-06
-0.000113782 -2.32116e-06 0.00107427
0.001022 2.68332e-05 4.41277e-08
2.68332e-05 -1.91674e-05 1.06243e-07
4.41277e-08 1.06243e-07 -0.000139093
0.00145474 4.43665e-05 2.20119e-06
4.43665e-05 5.98927e-05 -1.38719e-07
2.20119e-06 -1.38719e-07 -6.37879e-05
0.00517555 -5.77907e-05 -7.78088e-05
-5.77907e-05 0.00273305 4.56683e-07
-7.78088e-05 4.56683e-07 0.00271898
0.000619684 4.95313e-05 6.14333e-08
4.95313e-05 -9.84189e-05 2.16039e-07
6.14333e-08 2.16039e-07 -0.000171031
0.00100145 4.92514e-05 1.20961e-05
4.92514e-05 -3.68701e-05 2.13775e-06
1.20961e-05 2.13775e-06 -0.000159297
0.00561349 0.00010666 -1.08737e-05
0.00010666 0.00297652 -1.13572e-06
-1.08737e-05 -1.13572e-06 0.00298258
0.000633433 7.89905e-05 1.93279e-05
7.89905e-05 -8.76637e-05 4.98204e-06
1.93279e-05 4.98204e-06 -0.000163553
0.00567433 0.000208019 0.000250946
0.000208019 0.0030281 2.12425e-05
0.000250946 2.12425e-05 0.00302441
0.00166617 -4.95766e-05 -0.000192074
-4.95766e-05 0.000622969 6.94034e-07
-0.000192074 6.94034e-07 0.000614178
0.00165028 2.53563e-05 -4.7403e-05
2.53563e-05 0.000504533 2.09035e-07
-4.7403e-05 2.09035e-07 0.000449729
0.000751703 1.25624e-05 1.24077e-05
1.25624e-05 -0.000173558 9.37246e-07
1.24077e-05 9.37246e-07 -0.000294544
0.00547917 -3.99809e-05 7.8154e-06
-3.99809e-05 0.00290444 1.26412e-06
7.8154e-06 1.26412e-06 0.00290972
0.000607804 -1.22916e-05 1.87932e-05
-1.22916e-05 -0.000106786 8.25063e-07
1.87932e-05 8.25063e-07 -0.000176086
0.00553551 -6.3088e-05 0.000245733
-6.3088e-05 0.0029321 -2.01534e-06
0.000245733 -2.01534e-06 0.00294023
0.00126713 8.89918e-06 -3.80487e-05
8.89918e-06 0.000409893 -6.67767e-07
-3.80487e-05 -6.67767e-07 0.000375895
0.00164109 1.24036e-05 -4.77939e-05
1.24036e-05 0.000502671 -6.14123e-07
-4.77939e-05 -6.14123e-07 0.00044474
0.00100719 2.8299e-05 1.23556e-05
2.8299e-05 -2.8935e-05 1.64208e-06
1.23556e-05 1.64208e-06 -0.000149124
0.00342373 4.933e-05 9.03571e-05
4.933e-05 0.00167846 2.12351e-06
9.03571e-05 2.12351e-06 0.00166699
0.000626336 5.93896e-05 1.95628e-05
5.93896e-05 -9.42763e-05 3.87239e-06
1.95628e-05 3.87239e-06 -0.000167004
0.00566081 9.67435e-05 0.000239927
9.67435e-05 0.00299927 1.29267e-05
0.000239927 1.29267e-05 0.00300812
0.00543014 -2.19897e-05 -8.87138e-06
-2.19897e-05 0.00287787 -1.88924e-06
-8.87138e-06 -1.88924e-06 0.00288237
0.000609739 4.28654e-05 2.01628e-05
4.28654e-05 -0.000113691 1.94644e-06
2.01628e-05 1.94644e-06 -0.000177158
0.00539885 5.0454e-05 0.000232436
5.0454e-05 0.00285397 2.55515e-09
0.000232436 2.55515e-09 0.00286204
0.00337074 2.63776e-05 0.000104099
2.63776e-05 0.00165111 3.15975e-06
0.000104099 3.15975e-06 0.00163985
0.000638684 4.88194e-06 1.87794e-05
4.88194e-06 -8.88857e-05 2.64999e-06
1.87794e-05 2.64999e-06 -0.000158587
0.00555693 -2.61713e-05 0.000231386
-2.61713e-05 0.00294055 5.73228e-06
0.000231386 5.73228e-06 0.00294872
0.0054644 -0.000127424 0.000228616
-0.000127424 0.00290373 -2.88626e-06
0.000228616 -2.88626e-06 0.00290334
0.00545264 -1.11628e-05 0.000227958
-1.11628e-05 0.00287671 2.97538e-06
0.000227958 2.97538e-06 0.00288816
