# vtk DataFile Version 2.0
Wound Healing Simulation
ASCII
DATASET UNSTRUCTURED_GRID
POINTS 3012 float
69.9759 18.75 4
67.2507 60.3285 4
69.976 18.75 2
73.0099 25.446 4
71.1327 20.9142 4
68.6801 16.6661 4
67.8234 19.9265 3.97727
67.2507 60.3286 2
71.1327 54.0858 4
68.6801 58.3339 4
65.6939 62.2254 4
65.3101 59.0002 3.97669
74.6784 42.3946 4
73.7221 47.2057 4
69.9759 18.75 0
73.0099 25.446 2
68.6801 16.6661 2
71.1327 20.9142 2
67.8239 19.9301 2
74.6792 32.6053 4
73.7222 27.7943 4
72.1454 23.1494 4
70.6125 26.2215 3.97717
68.8836 21.9582 3.97776
67.2507 14.6715 4
66.6347 17.9729 3.97622
65.7909 21.0286 3.96619
67.2507 60.3285 0
71.1327 54.0858 2
68.6801 58.3339 2
65.694 62.2255 2
65.3114 58.9955 2
72.1454 51.8506 4
69.9759 56.25 4
68.8342 53.113 3.97694
64.0165 64.0165 4
66.6086 57.133 3.97696
63.8832 60.7639 3.97664
63.495 57.7656 3.96743
60.3285 67.2507 4
74.6792 42.3947 2
73.7222 47.2057 2
74.9194 39.9526 4
74.2788 44.8158 4
72.1669 42.0858 3.97775
73.0099 49.554 4
71.2476 46.598 3.97673
73.0099 25.446 0
71.1327 20.9142 0
68.6801 16.6661 0
67.8234 19.9265 0.0227263
74.6792 32.6053 2
73.7222 27.7943 2
67.2508 14.6715 2
72.1455 23.1494 2
70.6122 26.222 2
66.6357 17.9776 2
68.8839 21.9605 2
65.79 21.0297 2
74.9197 35.0474 4
74.2794 30.1841 4
72.1837 32.9441 3.97805
71.2767 28.4321 3.97708
69.8137 24.0599 3.97757
68.3419 26.9538 3.96617
66.7567 22.9358 3.96597
65.694 12.7746 4
65.321 16.1052 3.97545
64.7072 19.2001 3.96662
63.832 22.0571 3.96476
71.1327 54.0858 0
65.6939 62.2254 0
68.6801 58.3339 0
65.3101 59.0002 0.0233109
72.1455 51.8506 2
69.9759 56.25 2
68.8343 53.111 2
64.0165 64.0165 2
66.6093 57.1288 2
63.885 60.7595 2
63.4936 57.7652 2
62.2254 65.694 4
58.8928 65.4132 3.98593
69.7668 50.9889 3.9767
67.7815 55.167 3.97713
66.6433 52.2074 3.96578
62.3334 62.4248 3.97888
64.6546 56.0277 3.96698
62.197 59.3939 3.96715
61.7993 56.6647 3.96296
58.3339 68.6801 4
60.3285 67.2508 2
73.7221 47.2057 0
74.6784 42.3946 0
74.9197 39.9526 2
74.2794 44.8159 2
72.1663 42.0855 2
73.0099 49.554 2
71.2473 46.5976 2
75 37.5 4
72.4043 39.8026 3.97861
71.7811 44.3529 3.97749
69.7999 41.7901 3.96752
70.5732 48.8135 3.97649
68.9071 46.0143 3.96653
74.6792 32.6053 0
73.7222 27.7943 0
67.2507 14.6715 0
72.1454 23.1494 0
70.6125 26.2215 0.0228257
68.8836 21.9582 0.0222426
66.6347 17.9729 0.0237793
65.7909 21.0286 0.0338054
74.9197 35.0474 2
74.2794 30.1841 2
72.183 32.9444 2
71.2764 28.4325 2
65.694 12.7745 2
65.3226 16.1106 2
69.8136 24.0611 2
68.3415 26.9546 2
64.7061 19.201 2
66.7561 22.9369 2
63.8322 22.0576 2
72.4121 35.2248 3.97861
71.8026 30.6771 3.97773
69.8362 33.2705 3.9676
68.9615 29.0406 3.96659
67.6059 24.9144 3.96592
66.1262 27.6521 3.96746
64.0165 10.9835 4
64.6943 23.8507 3.9658
63.8869 14.3299 3.97617
63.5066 17.4557 3.96714
62.8581 20.3438 3.9635
61.9673 22.9899 3.96764
60.6818 11.1008 3.98034
57.6077 11.4638 3.97127
72.1454 51.8506 0
69.9759 56.25 0
68.8342 53.113 0.0230568
64.0165 64.0165 0
63.8832 60.7639 0.0233574
66.6086 57.133 0.0230449
63.495 57.7656 0.0325709
62.2255 65.694 2
58.8951 65.4104 2
69.7667 50.9878 2
67.7819 55.1638 2
66.6426 52.2066 2
62.3355 62.4209 2
64.6535 56.0271 2
62.1957 59.3942 2
61.8013 56.6652 2
60.6666 63.9744 3.98215
57.0237 66.7344 3.98823
57.5551 63.6833 3.97355
67.5015 50.1754 3.96565
65.6957 54.1708 3.96627
64.4655 51.365 3.96548
60.7683 60.9224 3.96998
62.7802 55.0505 3.96402
60.6443 58.1407 3.96237
60.2688 55.7531 3.96447
56.25 69.9759 4
58.3339 68.6801 2
60.3285 67.2507 0
58.919 9.65846 3.98239
62.2254 9.30607 4
73.0099 49.554 0
74.2788 44.8158 0
71.2476 46.598 0.0232731
72.1669 42.0858 0.0222506
74.9194 39.9526 0
75 37.5 2
72.4041 39.8025 2
71.7809 44.3524 2
69.7992 41.7898 2
70.5729 48.813 2
68.9069 46.0137 2
72.4877 37.5126 3.97817
70.0374 39.6583 3.96781
69.4258 43.9074 3.96711
67.53 41.4921 3.96985
68.2602 48.1062 3.96594
66.6299 45.4264 3.96895
74.9197 35.0474 0
74.2794 30.1841 0
72.1837 32.9441 0.0219487
71.2767 28.4321 0.0229214
65.694 12.7746 0
65.321 16.1052 0.0245528
69.8137 24.0599 0.0224263
68.3419 26.9538 0.0338344
66.7567 22.9358 0.034028
64.7072 19.2001 0.0333797
63.832 22.0571 0.0352369
72.412 35.2248 2
71.8025 30.6776 2
69.8354 33.271 2
68.9613 29.0412 2
64.0165 10.9835 2
63.8892 14.3353 2
63.5053 17.4567 2
67.6054 24.9153 2
66.1261 27.6526 2
62.8586 20.3441 2
64.694 23.8513 2
61.9662 22.9906 2
60.6845 11.1052 2
57.6094 11.4584 2
70.0542 35.3938 3.96779
69.4629 31.1518 3.9669
67.5966 33.5992 3.96958
66.7044 29.6377 3.96831
65.4569 25.7186 3.9666
63.9817 28.2932 3.97304
62.3387 12.6586 3.97822
62.7162 24.6819 3.96946
62.1929 15.7992 3.96857
61.7792 18.7094 3.96268
61.1033 21.391 3.96528
60.229 23.7978 3.97114
59.2409 12.8061 3.96934
55.8708 10.244 3.97392
56.3968 13.1605 3.96843
69.7668 50.9889 0.0232965
62.2254 65.694 0
58.8928 65.4132 0.0140666
67.7815 55.167 0.0228714
66.6433 52.2074 0.0342236
62.3334 62.4248 0.0211228
62.197 59.3939 0.0328501
64.6546 56.0277 0.033021
61.7993 56.6647 0.0370353
60.6687 63.9716 2
57.0257 66.733 2
57.5558 63.6844 2
67.501 50.1746 2
65.6948 54.17 2
64.4656 51.3647 2
60.7671 60.9234 2
62.7806 55.0506 2
60.645 58.1411 2
60.2691 55.7531 2
55.0696 67.9315 3.98994
59.2145 62.3448 3.97098
55.8023 64.9032 3.97832
56.3193 62.0581 3.97103
65.2504 49.3887 3.96658
63.6468 53.2728 3.96456
62.2799 50.6084 3.96836
59.3226 59.534 3.96582
60.9806 54.2718 3.96623
59.2406 56.9768 3.96267
59.1494 55.1385 3.96702
48.1004 68.576 3.98575
50.9473 69.9314 3.99081
54.0858 71.1327 4
56.25 69.976 2
58.3339 68.6801 0
57.0566 8.33812 3.98464
60.3285 7.74928 4
58.9222 9.66208 2
62.2255 9.30602 2
70.5732 48.8135 0.0235127
71.7811 44.3529 0.0225058
68.9071 46.0143 0.0334724
69.7999 41.7901 0.0324796
72.4043 39.8026 0.0213906
75 37.5 0
72.487 37.5125 2
70.0373 39.6582 2
69.4255 43.907 2
67.5294 41.4919 2
68.2599 48.1054 2
66.6286 45.4259 2
70.1255 37.5229 3.9678
67.773 39.5106 3.97013
67.1497 43.4606 3.96958
65.3883 41.1954 3.97677
65.9842 47.4008 3.9678
64.4622 44.8179 3.97387
72.4121 35.2248 0.0213891
71.8026 30.6771 0.0222678
69.8362 33.2705 0.0324008
68.9615 29.0406 0.0334148
64.0165 10.9835 0
63.8869 14.3299 0.0238302
63.5066 17.4557 0.0328563
67.6059 24.9144 0.0340768
66.1262 27.6521 0.0325371
64.6943 23.8507 0.0341957
62.8581 20.3438 0.0365029
61.9673 22.9899 0.0323566
60.6818 11.1008 0.0196551
57.6077 11.4638 0.0287264
70.0541 35.394 2
69.4626 31.1524 2
67.5961 33.5995 2
66.7038 29.6383 2
62.3415 12.6635 2
62.1914 15.7998 2
61.7803 18.7093 2
65.4567 25.7192 2
63.9794 28.294 2
61.1017 21.3918 2
62.7148 24.6828 2
60.2284 23.7988 2
59.242 12.8065 2
56.3978 13.1578 2
55.8727 10.2445 2
67.8136 35.5526 3.96995
67.2043 31.634 3.96916
65.5433 33.9434 3.97643
64.4972 30.2235 3.97449
63.3865 26.4558 3.97144
62.0048 28.836 3.97638
60.7695 14.2446 3.96852
60.8278 25.4055 3.97358
60.5945 17.1543 3.96263
60.1214 19.8685 3.96261
59.4739 22.3332 3.96731
58.723 24.4114 3.97401
54.035 9.14497 3.97661
57.8994 14.3713 3.96775
54.7793 12.0462 3.97148
55.297 14.7047 3.9654
67.5015 50.1754 0.034349
57.0237 66.7344 0.0117681
60.6666 63.9744 0.0178461
57.5551 63.6833 0.0264549
65.6957 54.1708 0.0337301
64.4655 51.365 0.0345219
60.7683 60.9224 0.0300217
60.6443 58.1407 0.0376295
62.7802 55.0505 0.0359778
60.2688 55.7531 0.0355279
55.0712 67.9306 2
59.2148 62.3463 2
55.8027 64.9038 2
56.3181 62.0602 2
65.2502 49.3882 2
63.6471 53.2727 2
62.2791 50.6079 2
59.3211 59.5349 2
60.9804 54.2716 2
59.2443 56.9775 2
59.1513 55.1386 2
53.0416 68.9995 3.99056
53.9649 66.0083 3.98141
57.8707 60.8402 3.96891
54.6786 63.194 3.97319
55.1975 60.5746 3.96815
63.0172 48.6196 3.97024
61.6086 52.5333 3.96722
60.025 49.9531 3.97061
57.9937 58.2309 3.96372
59.1848 53.8937 3.96813
58.0123 55.7587 3.96281
50.1072 67.854 3.98495
47.4617 66.5743 3.98127
46.0543 69.1551 3.98636
48.1007 68.5765 2
48.8012 70.7226 3.99111
50.9485 69.9309 2
51.8506 72.1454 4
54.0858 71.1327 2
56.25 69.9759 0
55.1015 7.14203 3.98758
58.3339 6.31992 4
57.0594 8.33987 2
60.3286 7.74926 2
58.919 9.65846 0.0176094
62.2254 9.30607 0
68.2602 48.1062 0.034057
69.4258 43.9074 0.0328864
66.6299 45.4264 0.0310494
67.53 41.4921 0.0301451
70.0374 39.6583 0.0321864
72.4877 37.5126 0.0218285
70.1249 37.523 2
67.7719 39.5104 2
67.1498 43.4602 2
65.3854 41.1949 2
65.9842 47.4004 2
64.46 44.8172 2
67.8742 37.5238 3.97017
65.6255 39.3639 3.97703
65.0024 43.0029 3.97601
63.4944 40.9065 3.97708
63.774 46.6792 3.97192
62.5253 44.1688 3.97641
70.0542 35.3938 0.0322119
69.4629 31.1518 0.0330956
67.5966 33.5992 0.0304177
66.7044 29.6377 0.0316904
62.3387 12.6586 0.0217801
62.1929 15.7992 0.0314348
61.7792 18.7094 0.0373208
65.4569 25.7186 0.0333968
63.9817 28.2932 0.0269569
62.7162 24.6819 0.0305389
61.1033 21.391 0.0347217
60.229 23.7978 0.0288583
59.2409 12.8061 0.0306607
56.3968 13.1605 0.0315722
55.8708 10.244 0.0260755
67.8123 35.5528 2
67.2045 31.6343 2
65.54 33.9439 2
64.4949 30.2242 2
60.7695 14.2453 2
60.594 17.1544 2
60.1204 19.8691 2
63.3848 26.4566 2
62.0024 28.8372 2
59.4753 22.3339 2
60.8263 25.4065 2
58.722 24.4129 2
57.8987 14.3711 2
55.2975 14.7036 2
54.0368 9.14399 2
54.7801 12.0445 2
65.7234 35.676 3.97681
65.0213 32.1784 3.97569
64.0553 34.2726 3.97679
62.3257 30.6868 3.97635
61.4117 27.1363 3.9748
60.5404 29.2153 3.97651
59.2978 15.7004 3.96535
59.0423 25.888 3.9762
59.0645 18.4046 3.96179
58.5784 20.9307 3.96354
58.0385 23.189 3.96886
57.6859 24.7702 3.97502
52.1105 8.16018 3.97977
53.0523 11.0403 3.97275
56.6582 15.7927 3.9658
53.7965 13.7339 3.96868
54.3484 16.0652 3.9632
55.0696 67.9315 0.0100627
65.2504 49.3887 0.0334189
55.8023 64.9032 0.0216807
59.2145 62.3448 0.0290216
56.3193 62.0581 0.0289744
63.6468 53.2728 0.0354382
62.2799 50.6084 0.0316448
59.3226 59.534 0.0341797
59.2406 56.9768 0.037332
60.9806 54.2718 0.0337685
59.1494 55.1385 0.0329778
53.0429 68.999 2
53.9652 66.0089 2
57.8691 60.8412 2
54.678 63.1949 2
55.1964 60.5758 2
63.0159 48.619 2
61.6085 52.5331 2
60.0253 49.9526 2
57.9929 58.232 2
59.1872 53.8936 2
58.0092 55.7574 2
52.0684 66.9965 3.98401
52.9504 64.2083 3.97846
56.6304 59.4542 3.96904
53.67 61.5917 3.97352
54.2364 59.2779 3.97395
60.7055 47.8152 3.97217
59.5034 52.0421 3.96885
57.7074 49.5304 3.97262
56.7223 56.9424 3.96436
56.9424 54.0522 3.9662
50.1073 67.8542 2
49.3355 65.9145 3.9813
47.4618 66.5747 2
46.8904 64.7257 3.98
45.5569 67.0915 3.98156
43.9717 69.5871 3.98699
46.0545 69.1555 2
46.6076 71.3671 3.99132
48.1004 68.576 0.0142529
48.8023 70.7225 2
49.554 73.0099 4
50.9473 69.9314 0.00918925
51.8506 72.1455 2
54.0858 71.1327 0
53.0637 6.07295 3.99008
55.1039 7.14286 2
56.25 5.02411 4
58.3339 6.3199 2
57.0566 8.33812 0.0153645
60.3285 7.74928 0
65.9842 47.4008 0.0321976
67.1497 43.4606 0.0304218
64.4622 44.8179 0.0261283
65.3883 41.1954 0.0232337
67.773 39.5106 0.029874
70.1255 37.5229 0.0321986
67.8736 37.5238 2
65.6222 39.3636 2
64.9994 43.0022 2
63.4922 40.9062 2
63.772 46.6785 2
62.5231 44.1679 2
65.7336 37.5034 3.97697
63.6441 39.2569 3.97701
63.0532 42.5146 3.97647
62.1037 40.6693 3.97671
61.6732 45.862 3.97448
61.094 43.6247 3.97625
67.8136 35.5526 0.0300483
67.2043 31.634 0.03084
65.5433 33.9434 0.0235731
64.4972 30.2235 0.0255079
60.7695 14.2446 0.0314818
60.5945 17.1543 0.0373698
60.1214 19.8685 0.0373868
63.3865 26.4558 0.0285631
62.0048 28.836 0.0236239
60.8278 25.4055 0.026415
59.4739 22.3332 0.0326897
58.723 24.4114 0.0259887
57.8994 14.3713 0.0322545
55.297 14.7047 0.0345991
54.035 9.14497 0.0233925
54.7793 12.0462 0.028517
65.7201 35.6762 2
65.0187 32.1791 2
64.0528 34.2731 2
62.3235 30.6875 2
59.2965 15.7008 2
59.066 18.4041 2
58.5815 20.9313 2
61.41 27.1374 2
60.5393 29.2159 2
58.0341 23.1912 2
59.0416 25.8894 2
57.6878 24.7725 2
56.6567 15.7923 2
54.35 16.0661 2
53.7957 13.7271 2
52.112 8.1593 2
53.0536 11.0378 2
63.8509 35.6459 3.97682
62.6487 33.0839 3.97638
60.2633 30.6841 3.97616
59.2461 28.0015 3.97649
57.9121 17.0302 3.96153
57.4124 25.8405 3.97618
57.5998 19.5493 3.96117
57.1459 21.9419 3.96377
56.879 24.0651 3.96971
50.1114 7.28951 3.98416
51.2289 10.1383 3.97508
52.1605 12.8342 3.97381
55.5043 17.0351 3.96246
52.956 15.3291 3.9668
53.7212 17.0579 3.96385
53.0416 68.9995 0.00943947
53.9649 66.0083 0.0185889
63.0172 48.6196 0.0297581
54.6786 63.194 0.0268069
57.8707 60.8402 0.0310901
55.1975 60.5746 0.0318487
61.6086 52.5333 0.0327848
60.025 49.9531 0.0293913
57.9937 58.2309 0.03628
58.0123 55.7587 0.0371912
59.1848 53.8937 0.0318714
52.0687 66.997 2
52.9502 64.2088 2
56.6291 59.455 2
53.6685 61.5917 2
54.2352 59.2795 2
60.7049 47.8145 2
59.5042 52.0417 2
57.7043 49.529 2
56.7203 56.9463 2
56.9392 54.0505 2
51.1662 65.1204 3.98023
52.0386 62.5241 3.97524
55.4476 58.2105 3.9666
52.8143 60.0858 3.9745
53.6059 58.4278 3.96941
57.905 46.7556 3.97547
57.3053 51.706 3.96917
55.868 49.4523 3.97146
55.3784 55.7337 3.9651
55.1402 53.3038 3.96335
50.1072 67.854 0.0150461
49.3356 65.9146 2
48.6155 64.1127 3.9801
47.4617 66.5743 0.0187314
45.557 67.092 2
46.8907 64.7258 2
46.3781 63.0401 3.98242
45.1312 65.1864 3.97946
43.6302 67.4627 3.98263
41.8594 69.8741 3.98659
43.9718 69.5876 2
44.3749 71.8617 3.99145
46.0543 69.1551 0.0136375
46.6086 71.367 2
47.2057 73.7222 4
48.8012 70.7226 0.00889196
49.554 73.0099 2
51.8506 72.1454 0
50.9544 5.13334 3.99128
53.0654 6.07328 2
54.0858 3.86728 4
55.1015 7.14203 0.0124154
56.25 5.02406 2
58.3339 6.31992 0
63.774 46.6792 0.0280824
65.0024 43.0029 0.0239856
62.5253 44.1688 0.0235882
63.4944 40.9065 0.02292
65.6255 39.3639 0.0229667
67.8742 37.5238 0.0298293
65.7302 37.5034 2
63.6421 39.2568 2
63.0512 42.5141 2
62.1032 40.6689 2
61.6714 45.8611 2
61.0926 43.6242 2
63.7073 37.4582 3.97688
61.8164 39.3387 3.97692
60.8386 41.9118 3.97669
59.868 44.6947 3.97665
65.7234 35.676 0.0231935
65.0213 32.1784 0.0243087
64.0553 34.2726 0.0232111
62.3257 30.6868 0.0236473
59.2978 15.7004 0.0346518
59.0645 18.4046 0.0382096
58.5784 20.9307 0.0364595
61.4117 27.1363 0.0252024
60.5404 29.2153 0.0234925
59.0423 25.888 0.0238001
58.0385 23.189 0.0311355
57.6859 24.7702 0.0249807
56.6582 15.7927 0.0341988
54.3484 16.0652 0.0367965
53.7965 13.7339 0.0313249
52.1105 8.16018 0.0202339
53.0523 11.0403 0.0272465
63.8488 35.6458 2
62.6475 33.0843 2
60.263 30.6842 2
57.9105 17.0299 2
57.607 19.5475 2
57.1429 21.9442 2
59.2448 28.0026 2
56.8874 24.0672 2
57.4126 25.8434 2
50.1126 7.28773 2
55.5047 17.0353 2
53.7219 17.0538 2
52.9559 15.3258 2
52.1617 12.8379 2
51.2306 10.1365 2
61.8573 35.3793 3.97657
59.889 32.8022 3.97636
58.2038 30.1691 3.97621
56.9039 27.5069 3.97682
56.5775 18.2215 3.96155
55.9448 25.2375 3.97527
56.1998 20.6171 3.96103
55.8277 22.9941 3.96315
48.0564 6.52984 3.98799
49.3229 9.34138 3.97873
50.4252 12.0213 3.97504
51.3583 14.5483 3.96777
54.3615 17.9989 3.96039
52.3277 17.1282 3.95814
52.0684 66.9965 0.015994
52.9504 64.2083 0.0215402
60.7055 47.8152 0.0278264
53.67 61.5917 0.0264774
56.6304 59.4542 0.0309569
54.2364 59.2779 0.0260456
59.5034 52.0421 0.0311465
57.7074 49.5304 0.0273758
56.7223 56.9424 0.0356429
56.9424 54.0522 0.0338017
51.1661 65.1209 2
52.0376 62.5252 2
55.4467 58.2117 2
52.813 60.0893 2
53.605 58.4297 2
57.9043 46.7546 2
57.3038 51.7048 2
55.8626 49.4506 2
55.3771 55.7336 2
55.1427 53.3041 2
50.3423 63.3698 3.98051
51.2299 60.9041 3.97511
54.1676 57.2219 3.96871
52.2765 58.5822 3.97158
56.1607 44.0654 3.97696
55.0394 47.7808 3.97427
54.7473 51.2923 3.96564
53.8605 54.4759 3.96559
49.3355 65.9145 0.0187002
48.6155 64.1124 2
47.956 62.4616 3.98041
45.5569 67.0915 0.0184399
46.8904 64.7257 0.0200022
43.6302 67.4633 2
46.3782 63.0401 2
45.1315 65.1868 2
45.9818 61.5706 3.98786
44.7645 63.4385 3.97861
43.356 65.4968 3.97968
41.6625 67.6809 3.98214
39.7017 70.0198 3.98624
41.8594 69.8746 2
42.1093 72.2063 3.99182
43.9717 69.5871 0.0130126
44.3757 71.8617 2
44.8159 74.2794 4
46.6076 71.3671 0.00867887
47.2057 73.7222 2
49.554 73.0099 0
48.7855 4.32372 3.99224
50.9555 5.13295 2
51.8506 2.85458 4
53.0637 6.07295 0.00991814
54.0858 3.86728 2
56.25 5.02411 0
61.6732 45.862 0.0255186
63.0532 42.5146 0.0235271
61.094 43.6247 0.0237454
62.1037 40.6693 0.0232895
63.6441 39.2569 0.022991
65.7336 37.5034 0.0230347
63.7054 37.4581 2
61.8165 39.3388 2
60.839 41.9115 2
59.8677 44.6939 2
61.6474 37.4441 3.97696
59.808 39.8157 3.97689
58.5062 42.8434 3.97641
63.8509 35.6459 0.0231797
62.6487 33.0839 0.0236197
60.2633 30.6841 0.0238415
57.9121 17.0302 0.0384699
57.5998 19.5493 0.0388284
57.1459 21.9419 0.0362277
59.2461 28.0015 0.0235078
57.4124 25.8405 0.02382
56.879 24.0651 0.0302856
55.5043 17.0351 0.0375391
53.7212 17.0579 0.0361493
52.956 15.3291 0.033205
50.1114 7.28951 0.0158403
52.1605 12.8342 0.0261917
51.2289 10.1383 0.024921
61.8575 35.3794 2
59.8888 32.8021 2
58.2046 30.1686 2
56.5814 18.2206 2
56.2076 20.6136 2
55.833 22.9981 2
56.9034 27.5081 2
55.9435 25.2416 2
48.0571 6.52797 2
49.3241 9.33902 2
54.3643 17.9991 2
52.325 17.1213 2
51.3566 14.5462 2
50.427 12.0193 2
59.4477 35.1478 3.97666
57.4886 32.3464 3.97585
56.083 29.4649 3.97666
55.0108 26.7632 3.97595
55.2517 19.2727 3.96175
54.6057 24.2092 3.96776
54.7976 21.6809 3.96011
45.9629 5.88371 3.98899
43.3746 7.4763 3.98505
47.3552 8.62906 3.9831
48.5952 11.3099 3.97471
49.6969 13.7759 3.97236
50.6016 16.1949 3.96976
53.0554 18.7604 3.95915
51.2544 18.1738 3.97068
51.1662 65.1204 0.0197678
52.0386 62.5241 0.0247627
57.905 46.7556 0.0245298
52.8143 60.0858 0.0255009
55.4476 58.2105 0.0333975
53.6059 58.4278 0.0305856
57.3053 51.706 0.0308326
55.868 49.4523 0.0285427
55.3784 55.7337 0.0349033
55.1402 53.3038 0.0366529
50.3418 63.3695 2
51.2281 60.9019 2
54.1678 57.2236 2
52.275 58.5838 2
56.1612 44.0652 2
55.0375 47.7794 2
54.7498 51.2921 2
53.8601 54.4775 2
49.5831 61.7324 3.97772
54.9362 41.6486 3.97431
50.5382 59.2905 3.97004
52.1106 56.4394 3.96811
53.5911 45.4231 3.97435
52.9037 49.2105 3.96941
52.4314 52.7684 3.96135
48.6155 64.1127 0.019903
47.9555 62.4606 2
47.3184 60.993 3.98672
43.6302 67.4627 0.0173747
45.1312 65.1864 0.0205399
46.3781 63.0401 0.0175776
41.6628 67.6807 2
43.3563 65.4976 2
45.9808 61.5711 2
44.7649 63.4387 2
45.7545 60.6159 3.98471
44.4798 61.8152 3.97993
43.145 63.7116 3.97877
41.5457 65.6341 3.97819
39.632 67.7584 3.98171
37.5259 70.0441 3.98496
39.7017 70.0202 2
39.8164 72.4027 3.99158
41.8594 69.8741 0.0134079
42.11 72.2065 2
42.3947 74.6792 4
44.3749 71.8617 0.00855017
44.8159 74.2794 2
47.2057 73.7222 0
43.852 5.36096 3.98837
46.5715 3.64791 3.99252
48.786 4.32302 2
49.554 1.99015 4
50.9544 5.13334 0.00872472
51.8506 2.85453 2
54.0858 3.86728 0
59.868 44.6947 0.0233465
60.8386 41.9118 0.0233087
61.8164 39.3387 0.0230835
63.7073 37.4582 0.0231221
61.6475 37.444 2
59.8087 39.8154 2
58.5067 42.843 2
59.3017 37.5662 3.9772
57.4425 40.606 3.97707
54.3419 39.6627 3.97512
61.8573 35.3793 0.0234267
59.889 32.8022 0.0236368
58.2038 30.1691 0.023787
56.5775 18.2215 0.0384456
56.1998 20.6171 0.0389684
55.8277 22.9941 0.036845
56.9039 27.5069 0.0231783
55.9448 25.2375 0.0247281
54.3615 17.9989 0.0396093
52.3277 17.1282 0.0418625
51.3583 14.5483 0.0322265
48.0564 6.52984 0.0120106
49.3229 9.34138 0.0212742
50.4252 12.0213 0.0249597
59.4486 35.1475 2
45.9629 5.88299 2
43.3745 7.47525 2
57.4896 32.3467 2
56.083 29.4643 2
55.2443 19.275 2
54.813 21.6829 2
54.6014 24.2123 2
55.0084 26.7653 2
47.3559 8.62516 2
48.597 11.3069 2
53.0583 18.7487 2
51.2575 18.1695 2
50.601 16.1943 2
49.6964 13.7776 2
56.8262 34.7989 3.97711
55.1644 31.619 3.97593
54.0034 28.5679 3.97738
53.3895 25.6817 3.97563
53.8478 20.2405 3.96097
53.3394 22.867 3.95535
41.3998 7.08193 3.98462
45.3609 7.99595 3.98738
42.8667 9.42042 3.98086
46.6655 10.6626 3.98083
47.7319 13.1237 3.97593
48.9048 15.4447 3.96971
49.9568 17.759 3.96366
51.5672 19.454 3.96743
50.3423 63.3698 0.0194877
51.2299 60.9041 0.0248919
56.1607 44.0654 0.0230445
55.0394 47.7808 0.0257303
52.2765 58.5822 0.0284173
54.1676 57.2219 0.0312878
54.7473 51.2923 0.0343645
53.8605 54.4759 0.0344054
49.5817 61.7316 2
54.9288 41.6451 2
50.5362 59.2901 2
52.1135 56.4425 2
53.5876 45.4212 2
52.9123 49.2099 2
52.4331 52.769 2
48.8293 60.1858 3.97584
51.7251 42.5194 3.98312
49.7364 57.5874 3.96724
50.4448 54.3696 3.96318
51.2594 47.1305 3.97464
50.8876 50.8476 3.95481
47.4035 43.6139 3.9773
47.956 62.4616 0.0195882
47.317 60.9923 2
46.6003 59.7812 3.99204
41.6625 67.6809 0.0178572
43.356 65.4968 0.020322
44.7645 63.4385 0.0213915
45.9818 61.5706 0.0121442
39.6324 67.7591 2
41.5459 65.6328 2
45.7534 60.616 2
43.1455 63.7121 2
44.4786 61.8158 2
44.6108 60.2735 3.99307
42.9475 62.0638 3.97473
41.5998 63.8043 3.97805
39.6471 65.5988 3.97735
37.5631 67.7386 3.97965
31.6978 65.1148 3.97755
33.3924 67.4764 3.97955
35.3338 69.9543 3.98503
37.5257 70.0453 2
37.5089 72.4571 3.99201
39.7017 70.0198 0.0137555
39.8169 72.4029 2
39.9526 74.9197 4
42.1093 72.2063 0.00817663
42.3947 74.6792 2
44.8159 74.2794 0
41.7366 4.9697 3.98873
43.8521 5.35987 2
44.3268 3.11112 3.99283
46.5717 3.6476 2
47.2057 1.27793 4
48.7855 4.32372 0.00775794
49.554 1.99013 2
51.8506 2.85458 0
58.5062 42.8434 0.0235929
59.808 39.8157 0.023107
61.6474 37.4441 0.0230441
59.3027 37.567 2
57.4424 40.6069 2
54.3347 39.6676 2
56.1906 37.8809 3.97686
48.7532 41.2307 3.97665
52.3193 39.3021 3.98379
39.4435 6.80548 3.98541
59.4477 35.1478 0.0233395
57.4886 32.3464 0.024149
56.083 29.4649 0.0233396
55.2517 19.2727 0.0382467
54.7976 21.6809 0.0398858
54.6057 24.2092 0.0322425
55.0108 26.7632 0.0240457
53.0554 18.7604 0.0408494
51.2544 18.1738 0.0293168
50.6016 16.1949 0.0302369
45.9629 5.88371 0.0110096
49.6969 13.7759 0.0276375
47.3552 8.62906 0.0169014
48.5952 11.3099 0.0252913
43.3746 7.4763 0.0149488
56.8259 34.7997 2
41.3999 7.08123 2
45.3605 7.99536 2
42.8665 9.41993 2
55.1673 31.6175 2
54.0035 28.5671 2
53.8505 20.2504 2
53.3347 22.8645 2
53.3859 25.682 2
46.6664 10.6557 2
47.733 13.1186 2
51.5762 19.4527 2
49.9562 17.7561 2
48.9014 15.4497 2
54.1653 33.9951 3.97525
52.8864 30.6617 3.97634
52.1032 27.4075 3.97485
51.8543 24.2981 3.97843
52.2433 21.1953 3.97134
41.0138 9.05524 3.97949
44.7269 9.99533 3.98594
42.465 10.905 3.99485
45.9945 12.7402 3.97393
47.658 14.6156 3.96997
48.0637 17.023 3.96702
49.7609 19.8305 3.97173
49.5831 61.7324 0.0222812
50.5382 59.2905 0.029959
54.9362 41.6486 0.0256935
53.5911 45.4231 0.0256524
52.9037 49.2105 0.0305927
52.1106 56.4394 0.0318885
52.4314 52.7684 0.0386478
48.8267 60.1837 2
51.7435 42.5287 2
49.734 57.5876 2
50.4457 54.3727 2
51.2655 47.1308 2
50.8904 50.8466 2
47.4183 43.6431 2
47.9514 58.7126 3.97879
49.381 45.1442 3.98084
48.505 55.8772 3.96253
48.9135 52.5266 3.97631
49.2592 48.9301 3.97226
45.1525 39.807 3.86254
45.6361 42.5082 3.89822
45.8746 45.6168 3.98281
42.9753 41.0307 3.70074
41.6364 41.857 3.50857
47.3184 60.993 0.0132754
46.598 59.78 2
45.4416 58.7848 3.99376
39.632 67.7584 0.0182867
41.5457 65.6341 0.0218092
43.145 63.7116 0.0212305
44.4798 61.8152 0.0200692
45.7545 60.6159 0.0152922
41.6001 63.8033 2
37.5633 67.7396 2
39.6474 65.5998 2
44.6106 60.2737 2
42.9463 62.0643 2
41.7507 62.4721 3.97705
42.4725 59.9555 3.97933
39.8943 63.5355 3.97637
37.6421 65.4943 3.97641
35.4634 67.6481 3.97949
33.5756 65.3274 3.97611
31.9605 63.2802 3.97595
29.8849 64.7065 3.98054
31.6977 65.1157 2
31.3774 67.1864 3.97997
33.3926 67.4775 2
33.1572 69.7479 3.98514
35.3336 69.9553 2
35.1954 72.3715 3.99198
37.5259 70.0441 0.0150411
37.5091 72.4576 2
37.5 75 4
39.8164 72.4027 0.00842481
39.9526 74.9197 2
42.3947 74.6792 0
39.6245 4.71753 3.98947
41.7368 4.96908 2
42.0632 2.71833 3.99319
43.852 5.36096 0.0116332
44.3269 3.11041 2
44.8158 0.721173 4
46.5715 3.64791 0.00748158
47.2057 1.27779 2
49.554 1.99015 0
57.4425 40.606 0.0229317
59.3017 37.5662 0.0228013
54.3419 39.6627 0.0248762
48.7811 41.2483 2
56.19 37.8782 2
52.3167 39.2684 2
53.1775 36.6217 3.97807
46.6808 40.3214 3.90065
49.6997 38.51 3.98472
37.5175 6.67629 3.98557
39.4438 6.80396 2
39.2115 8.69666 3.98272
35.9437 8.49602 3.98425
56.8262 34.7989 0.0228947
55.1644 31.619 0.0240684
54.0034 28.5679 0.0226246
53.8478 20.2405 0.0390256
53.3394 22.867 0.0446526
53.3895 25.6817 0.0243658
51.5672 19.454 0.032571
49.9568 17.759 0.0363377
48.9048 15.4447 0.0302881
45.3609 7.99595 0.0126194
47.7319 13.1237 0.0240704
46.6655 10.6626 0.0191659
41.3998 7.08193 0.0153838
42.8667 9.42042 0.0191406
54.163 33.9954 2
41.0143 9.05525 2
44.7254 9.99543 2
42.4656 10.9063 2
52.8835 30.6603 2
52.1105 27.4085 2
52.247 21.1985 2
51.8519 24.3042 2
45.9957 12.7301 2
47.6551 14.6056 2
49.7714 19.8281 2
48.0598 17.0226 2
51.6814 32.9044 3.98232
50.7051 29.3654 3.97754
50.3949 25.9133 3.97061
49.8013 22.4268 3.98519
40.5663 11.6167 3.982
43.8511 11.9104 3.97971
45.7755 15.4521 3.98698
47.4607 19.4353 3.97891
45.6059 37.4786 3.85772
48.8293 60.1858 0.0241648
49.7364 57.5874 0.0327634
51.7251 42.5194 0.0168829
51.2594 47.1305 0.0253645
50.8876 50.8476 0.0451889
50.4448 54.3696 0.0368232
47.4035 43.6139 0.0227023
47.9487 58.7152 2
49.3973 45.1584 2
48.5001 55.8794 2
48.9145 52.5318 2
49.2639 48.9313 2
45.2293 39.8215 2
45.6668 42.5483 2
45.8843 45.631 2
43.0102 41.0681 2
41.6682 41.8812 2
46.7842 57.3174 3.97687
43.7083 39.3498 3.70244
42.0002 40.7675 3.53586
47.5367 47.1705 3.98211
47.0314 54.1892 3.96234
47.3052 50.6719 3.97915
44.3684 47.2479 3.97595
44.2866 41.8501 3.85379
44.365 44.3631 3.90158
41.962 42.4735 3.73767
40.6294 42.1575 3.5111
46.6003 59.7812 0.00796077
45.4409 58.782 2
43.8494 57.6769 3.98055
37.5631 67.7386 0.0203541
39.6471 65.5988 0.0226474
41.5998 63.8043 0.0219527
42.9475 62.0638 0.0252689
44.6108 60.2735 0.00692743
35.4637 67.6489 2
41.7498 62.4747 2
39.8941 63.5362 2
37.6422 65.4951 2
42.4733 59.9543 2
40.6216 61.6162 3.97981
40.436 58.1402 3.9799
37.8378 63.1914 3.97407
35.5729 65.4167 3.97675
33.5759 65.3283 2
31.9607 63.2817 2
33.6298 63.3189 3.97483
30.3796 62.8413 3.97978
32.1273 61.983 3.9853
26.8778 61.4707 3.97743
28.0652 64.1353 3.97824
29.8845 64.7076 2
29.4074 66.7504 3.98093
31.6978 65.1148 0.0224544
31.3775 67.1873 2
31.015 69.4131 3.98488
33.3924 67.4764 0.0204511
33.157 69.7489 2
32.8933 72.1459 3.99157
35.3338 69.9543 0.0149696
35.1952 72.3722 2
35.0474 74.9194 4
37.5089 72.4571 0.00799112
37.5 75 2
39.9526 74.9197 0
35.6221 6.72739 3.98523
37.5242 4.61689 3.98962
39.6246 4.71618 2
39.7897 2.47502 3.99315
41.7366 4.9697 0.0112707
42.0631 2.71788 2
42.3946 0.32156 4
44.3268 3.11112 0.00716881
44.8159 0.72056 2
47.2057 1.27793 0
48.7532 41.2307 0.0233481
56.1906 37.8809 0.0231416
52.3193 39.3021 0.0162073
46.7069 40.3189 2
49.701 38.5057 2
53.1764 36.6415 2
50.5028 35.5685 3.97468
47.3506 37.7689 3.91453
45.1717 35.1684 3.86107
43.0045 33.9298 3.69767
41.6636 33.1084 3.50684
37.459 8.53738 3.98464
37.5177 6.67518 2
39.4435 6.80548 0.0145898
39.2124 8.69488 2
38.9764 10.1323 3.98363
35.8998 9.77837 3.97999
34.1534 8.82788 3.98218
35.9437 8.4937 2
54.1653 33.9951 0.0247499
52.8864 30.6617 0.0236637
52.1032 27.4075 0.0251465
52.2433 21.1953 0.0286561
51.8543 24.2981 0.0215681
49.7609 19.8305 0.028269
48.0637 17.023 0.0329841
47.658 14.6156 0.0300309
44.7269 9.99533 0.0140638
45.9945 12.7402 0.0260668
41.0138 9.05524 0.0205088
42.465 10.905 0.00515297
51.6887 32.9022 2
40.5683 11.6185 2
43.8497 11.9133 2
50.7271 29.3638 2
50.3947 25.9163 2
49.8013 22.4257 2
45.7684 15.4171 2
47.4645 19.4589 2
49.2557 31.5328 3.9874
48.7841 27.6814 3.97824
49.1159 24.5697 3.97594
47.1026 22.1956 3.98829
38.3006 12.7457 3.97695
42.09 14.3089 3.97983
44.7703 18.5763 3.97557
44.1217 37.4853 3.71224
45.6973 37.4825 2
47.9514 58.7126 0.0212137
48.505 55.8772 0.0374701
49.381 45.1442 0.0191555
49.2592 48.9301 0.0277424
48.9135 52.5266 0.0236946
45.1525 39.807 0.137464
45.6361 42.5082 0.101776
45.8746 45.6168 0.0171901
42.9753 41.0307 0.299257
41.6364 41.857 0.491428
46.7806 57.3199 2
43.7655 39.3747 2
42.0027 40.7819 2
47.5443 47.1716 2
47.026 54.1938 2
47.3063 50.6829 2
44.3958 47.2306 2
44.3241 41.8808 2
44.4088 44.3868 2
42.0136 42.5203 2
40.6572 42.1674 2
45.3226 55.9002 3.99494
42.3424 39.2244 3.54582
40.5157 40.6466 3.65178
45.725 48.8194 4.00213
45.336 52.4592 3.98073
43.1045 48.2381 3.99378
43.016 45.8829 3.89397
43.1172 43.616 3.83774
40.7346 43.513 3.71574
39.1905 42.4195 3.54357
45.4416 58.7848 0.00624497
43.8468 57.6823 2
42.0757 56.2631 3.98527
35.4634 67.6481 0.0205109
37.6421 65.4943 0.0235863
39.8943 63.5355 0.0236287
41.7507 62.4721 0.0229466
42.4725 59.9555 0.0206718
35.5733 65.4174 2
40.6218 61.6145 2
37.8381 63.1916 2
40.4364 58.1391 2
38.9108 56.4258 3.99451
38.2498 60.302 3.97997
35.6076 63.1856 3.97467
33.5756 65.3274 0.0238947
31.9605 63.2802 0.0240485
33.6301 63.3199 2
30.3798 62.8422 2
32.1281 61.9844 2
28.6866 62.1781 3.97991
33.3478 61.49 3.97706
31.0749 61.2055 3.98044
27.5861 59.5619 3.97959
23.8177 59.0494 3.98878
25.0456 60.844 3.9772
26.8783 61.4706 2
26.2338 63.4643 3.97722
28.0651 64.1337 2
27.4643 66.175 3.98041
29.8849 64.7065 0.0194606
29.4073 66.7507 2
28.9076 68.9388 3.98449
31.3774 67.1864 0.0200274
31.0147 69.4136 2
30.6162 71.7773 3.99102
33.1572 69.7479 0.0148553
32.8927 72.1464 2
32.6054 74.6784 4
35.1954 72.3715 0.00802151
35.0474 74.9197 2
37.5 75 0
33.7252 6.98341 3.98403
35.4363 4.68703 3.98944
35.6222 6.72604 2
37.5154 2.38746 3.99323
37.5243 4.61601 2
39.6245 4.71753 0.0105319
39.7895 2.47428 2
39.9526 0.0806499 4
42.0632 2.71833 0.00680718
42.3947 0.320817 2
44.8158 0.721173 0
43.72 35.6216 3.70487
42.017 34.1934 3.52683
46.6808 40.3214 0.0993535
49.6997 38.51 0.0152829
53.1775 36.6217 0.02193
47.347 37.7341 2
50.5099 35.5613 2
45.2406 35.1451 2
43.0435 33.8903 2
41.6907 33.0841 2
47.5414 34.3224 3.9476
44.3241 33.1068 3.83895
42.0006 32.4945 3.73493
40.6532 32.8187 3.5098
37.3115 10.6347 3.98124
37.4597 8.53605 2
37.5175 6.67629 0.0144301
39.2115 8.69666 0.0172818
38.9787 10.1309 2
34.756 10.3877 3.98098
35.9008 9.77393 2
32.3804 9.37501 3.97849
34.1522 8.82422 2
35.9437 8.49602 0.0157546
51.6814 32.9044 0.0176801
50.7051 29.3654 0.022464
50.3949 25.9133 0.0293896
49.8013 22.4268 0.0148083
47.4607 19.4353 0.0210915
45.7755 15.4521 0.013025
43.8511 11.9104 0.0202873
40.5663 11.6167 0.0179982
49.2746 31.5274 2
38.301 12.7427 2
42.0935 14.3174 2
48.7931 27.685 2
49.1161 24.5688 2
47.0913 22.183 2
44.7722 18.6306 2
47.1447 29.6713 3.98599
46.8014 25.3041 3.96916
44.2295 21.5682 3.97915
36.585 12.9542 3.97439
38.6817 14.8479 3.97493
41.7365 17.9168 3.97796
42.4929 37.4701 3.58047
44.1733 37.4845 2
45.6059 37.4786 0.142284
46.7842 57.3174 0.0231263
47.0314 54.1892 0.0376572
47.5367 47.1705 0.017894
47.3052 50.6719 0.0208485
43.7083 39.3498 0.297562
44.2866 41.8501 0.146206
44.365 44.3631 0.0984239
44.3684 47.2479 0.0240541
41.962 42.4735 0.262327
42.0002 40.7675 0.46414
40.6294 42.1575 0.488898
45.3175 55.9027 2
42.3412 39.2292 2
40.5383 40.6307 2
45.7272 48.838 2
45.3315 52.4606 2
43.127 48.2575 2
43.0678 45.9251 2
43.1638 43.6479 2
40.7688 43.5717 2
39.1882 42.4318 2
43.6476 54.3715 3.99689
40.6215 39.0777 3.66795
39.08 40.7184 3.62413
43.4316 50.3193 4.00451
41.7333 47.4046 3.93061
41.6453 44.9824 3.84976
39.3386 44.1689 3.68637
37.5014 42.5226 3.57931
43.8494 57.6769 0.0194459
42.0766 56.2595 2
40.3847 54.8373 3.9934
35.5729 65.4167 0.0232487
37.8378 63.1914 0.025925
40.6216 61.6162 0.0201939
40.436 58.1402 0.0200956
35.6079 63.1856 2
38.2497 60.3026 2
38.9125 56.4174 2
37.9871 55.1158 3.99455
36.934 57.5998 3.99161
35.3655 60.8906 3.97884
33.6298 63.3189 0.0251702
30.3796 62.8413 0.0202243
32.1273 61.983 0.0147012
33.3486 61.4907 2
28.6869 62.1801 2
31.0759 61.2075 2
29.4168 60.2594 3.976
32.3661 59.711 3.98922
28.0535 58.345 4.00398
27.5885 59.5618 2
25.4057 58.5662 3.97987
22.798 58.2032 3.96853
23.4147 60.3156 3.97929
23.8199 59.0494 2
25.0466 60.8432 2
24.4388 62.7524 3.97724
26.8778 61.4707 0.0225656
26.2344 63.4651 2
25.5493 65.4828 3.97883
28.0652 64.1353 0.0217567
27.4645 66.1748 2
26.8373 68.3275 3.98459
29.4074 66.7504 0.0190725
28.9072 68.9388 2
28.3714 71.2626 3.99047
31.015 69.4131 0.0151158
30.6153 71.7774 2
30.1842 74.2788 4
32.8933 72.1459 0.0084261
32.6053 74.6792 2
35.0474 74.9194 0
31.7898 7.4231 3.98251
33.349 4.92679 3.98853
33.7248 6.98102 2
35.2458 2.46341 3.99321
35.4362 4.68632 2
35.6221 6.72739 0.0147665
37.5 0 4
37.5149 2.387 2
37.5242 4.61689 0.0103794
39.7897 2.47502 0.00684733
39.9526 0.0802889 2
42.3946 0.32156 0
42.3353 35.7152 3.53797
43.7896 35.5909 2
40.5444 34.323 3.65153
42.0142 34.177 2
47.3506 37.7689 0.0854706
50.5028 35.5685 0.0253237
45.1717 35.1684 0.138927
43.0045 33.9298 0.302332
41.6636 33.1084 0.493158
47.56 34.3457 2
44.3603 33.0838 2
42.0538 32.4454 2
40.6795 32.8081 2
45.6269 31.725 3.91065
43.1531 31.3502 3.83247
40.7649 31.4611 3.71524
39.2086 32.5727 3.54004
35.695 11.7845 3.97773
37.3142 10.632 2
37.459 8.53738 0.0153571
38.9764 10.1323 0.0163675
33.1013 11.2272 3.97389
34.7549 10.3815 2
35.8998 9.77837 0.0200125
30.4855 10.0252 3.97834
32.3792 9.3736 2
34.1534 8.82788 0.0178233
49.2557 31.5328 0.0126032
48.7841 27.6814 0.0217568
49.1159 24.5697 0.0240582
47.1026 22.1956 0.0117066
44.7703 18.5763 0.0244307
42.09 14.3089 0.0201663
38.3006 12.7457 0.0230463
36.5819 12.9365 2
47.1597 29.6198 2
38.6792 14.8277 2
41.7284 17.9147 2
46.8065 25.301 2
44.2168 21.5445 2
45.089 27.8111 4.00612
43.6193 24.2327 4.02725
41.2996 20.9293 3.98423
35.7732 14.7949 3.97646
38.6749 17.6494 3.98082
40.6772 37.4594 3.68205
42.5015 37.4741 2
44.1217 37.4853 0.28776
45.3226 55.9002 0.00505888
45.336 52.4592 0.0192723
45.725 48.8194 -0.00212858
42.3424 39.2244 0.454185
43.1172 43.616 0.162261
43.016 45.8829 0.10603
43.1045 48.2381 0.00622099
40.7346 43.513 0.28426
40.5157 40.6466 0.348219
39.1905 42.4195 0.456429
43.6444 54.367 2
40.6224 39.0764 2
39.0819 40.7096 2
43.4245 50.3368 2
41.7303 47.4371 2
41.6711 45.0254 2
37.4985 42.5396 2
39.3536 44.2271 2
41.804 52.8579 3.99794
39.0915 39.1055 3.63865
37.5048 40.7724 3.64956
35.8162 42.4281 3.54391
40.8336 49.4756 3.99506
39.7473 45.7511 3.82558
37.5008 44.4225 3.71393
42.0757 56.2631 0.0147283
40.3826 54.8452 2
38.7227 53.6701 3.99545
35.6076 63.1856 0.0253274
38.2498 60.302 0.0200293
38.9108 56.4258 0.00549252
35.3659 60.8897 2
36.9349 57.5983 2
37.9882 55.1189 2
36.3224 55.1779 3.99468
34.495 58.4968 3.99276
33.3478 61.49 0.0229431
28.6866 62.1781 0.0200904
31.0749 61.2055 0.0195556
32.3673 59.7144 2
29.4182 60.2585 2
30.3272 57.7834 3.98481
28.0566 58.3443 2
27.009 56.7981 3.9665
27.5861 59.5619 0.0204067
25.4088 58.5663 2
23.9127 56.763 3.96
21.398 57.351 3.96044
22.014 59.5841 3.9736
22.8001 58.2043 2
22.7445 62.0042 3.97411
23.4157 60.3149 2
23.8177 59.0494 0.0112182
25.0456 60.844 0.0227982
24.4395 62.7545 2
23.6845 64.6987 3.97663
26.2338 63.4643 0.0227765
25.5493 65.4843 2
24.8098 67.5881 3.98357
27.4643 66.175 0.0195936
26.837 68.3282 2
26.1665 70.6036 3.99048
28.9076 68.9388 0.0155116
28.3705 71.2624 2
27.7943 73.7221 4
30.6162 71.7773 0.00897873
30.1841 74.2794 2
32.6054 74.6784 0
29.8125 7.99818 3.98097
31.2545 5.33355 3.98756
31.7891 7.42146 2
32.9818 2.70167 3.99283
33.3484 4.92533 2
33.7252 6.98341 0.0159669
35.0474 0.080333 4
35.2452 2.46316 2
35.4363 4.68703 0.0105632
37.5 0 2
37.5154 2.38746 0.00677156
39.9526 0.0806499 0
40.6523 35.8609 3.66813
42.3362 35.717 2
43.72 35.6216 0.295134
28.5458 10.7005 3.97778
39.0879 34.2732 3.62302
40.5506 34.3352 2
42.017 34.1934 0.473171
47.5414 34.3224 0.0523999
44.3241 33.1068 0.161049
42.0006 32.4945 0.265073
40.6532 32.8187 0.490198
45.6599 31.7056 2
43.196 31.3169 2
40.8033 31.4013 2
39.2121 32.5624 2
43.9645 29.9251 3.90575
41.6565 29.9817 3.85197
39.3626 30.8148 3.68456
37.5275 32.481 3.57855
34.0973 12.9522 3.97374
35.6941 11.7737 2
37.3115 10.6347 0.0187648
31.1902 11.9965 3.97775
33.1011 11.2258 2
34.756 10.3877 0.0190241
30.4839 10.0225 2
32.3804 9.37501 0.0215093
47.1447 29.6713 0.0140104
46.8014 25.3041 0.0308356
36.585 12.9542 0.0256096
44.2295 21.5682 0.0208532
41.7365 17.9168 0.0220419
38.6817 14.8479 0.0250723
35.7757 14.8019 2
45.0906 27.8101 2
38.6714 17.6555 2
41.2862 20.9219 2
43.6151 24.2146 2
33.6128 15.9027 3.98056
42.7738 26.6495 3.98683
40.8005 23.5181 3.99907
38.403 20.4168 3.99338
35.8474 17.5508 3.97978
39.1069 37.4861 3.65559
40.6717 37.4617 2
42.4929 37.4701 0.419534
43.6476 54.3715 0.00310518
43.4316 50.3193 -0.00451227
40.6215 39.0777 0.33205
41.6453 44.9824 0.150236
41.7333 47.4046 0.0693904
39.3386 44.1689 0.313628
39.08 40.7184 0.375868
37.5014 42.5226 0.420688
41.7929 52.8614 2
39.0851 39.0919 2
37.5028 40.7587 2
40.8253 49.497 2
35.8138 42.4388 2
39.7647 45.8065 2
37.4917 44.4758 2
39.7419 51.6723 4.0025
37.5075 39.1114 3.67219
35.9355 40.7325 3.62455
34.3744 42.1749 3.51203
35.667 44.1854 3.67714
38.6658 48.3971 3.94401
37.5222 46.0398 3.85271
40.3847 54.8373 0.00659869
38.7241 53.6574 2
36.7488 52.9703 3.99698
35.3655 60.8906 0.0211602
36.934 57.5998 0.00839404
37.9871 55.1158 0.00545039
34.4961 58.4954 2
36.3248 55.172 2
33.2536 55.3678 3.99169
32.3661 59.711 0.0107806
29.4168 60.2594 0.0239983
30.3303 57.7807 2
28.7904 55.2816 3.98399
28.0535 58.345 -0.00398275
27.0118 56.7977 2
25.4269 55.0935 3.961
21.9283 55.2895 3.96011
25.4057 58.5662 0.0201314
23.9149 56.765 2
20.2712 56.9823 3.96316
20.6722 58.7373 3.96992
21.3999 57.3524 2
21.1782 61.1385 3.97436
22.0153 59.5844 2
22.798 58.2032 0.0314734
21.8994 63.8248 3.97659
22.7455 62.0053 2
23.4147 60.3156 0.0207118
24.4388 62.7524 0.0227646
23.6846 64.6993 2
22.8384 66.7306 3.98138
25.5493 65.4828 0.0211651
24.8095 67.5892 2
24.0108 69.8048 3.99031
26.8373 68.3275 0.0154055
26.1654 70.6036 2
25.446 73.0099 4
28.3714 71.2626 0.00953422
27.7943 73.7222 2
30.1842 74.2788 0
27.8223 8.65798 3.98095
29.1567 5.87997 3.98595
29.8114 7.99578 2
30.7273 3.09853 3.99258
31.2537 5.33214 2
31.7898 7.4231 0.0174946
32.6053 0.320823 4
32.981 2.70111 2
33.349 4.92679 0.0114718
35.0474 0.0802903 2
35.2458 2.46341 0.00679005
37.5 0 0
39.0856 35.8782 3.64477
40.636 35.862 2
42.3353 35.7152 0.462026
28.5444 10.6985 2
26.6243 11.3968 3.97811
29.2303 12.6505 3.98074
37.5176 34.234 3.64803
39.0986 34.2894 2
40.5444 34.323 0.348474
45.6269 31.725 0.0893474
43.1531 31.3502 0.167529
40.7649 31.4611 0.284758
39.2086 32.5727 0.459964
43.9951 29.8952 2
41.6857 29.9432 2
39.3696 30.7567 2
37.5274 32.464 2
42.086 28.6188 3.8785
39.7384 29.2224 3.84581
37.522 30.5828 3.71128
35.8353 32.5785 3.5447
31.9229 14.4957 3.97968
34.098 12.9541 2
35.695 11.7845 0.0222666
31.1893 11.9924 2
33.1013 11.2272 0.0261082
30.4855 10.0252 0.0216643
45.089 27.8111 -0.00612123
43.6193 24.2327 -0.027246
35.7732 14.7949 0.0235449
41.2996 20.9293 0.0157732
38.6749 17.6494 0.0191818
33.6098 15.8958 2
35.8429 17.5527 2
42.789 26.6413 2
38.387 20.4667 2
40.7857 23.4929 2
33.5525 17.4263 3.98118
40.2201 25.8999 3.95568
38.0412 23.2409 3.99994
35.5789 20.1442 3.99239
37.5112 37.4923 3.68846
39.0987 37.4809 2
40.6772 37.4594 0.317948
41.804 52.8579 0.00206064
40.8336 49.4756 0.00493888
39.0915 39.1055 0.361345
39.7473 45.7511 0.174424
37.5008 44.4225 0.286074
37.5048 40.7724 0.350439
35.8162 42.4281 0.456093
39.7321 51.681 2
37.5089 39.1051 2
35.9329 40.7214 2
38.6784 48.4514 2
34.3485 42.1851 2
35.6449 44.244 2
37.5193 46.0922 2
37.6758 50.696 3.99714
35.9345 39.1202 3.64379
34.498 40.6718 3.65394
33.362 41.8777 3.51073
34.2668 43.5241 3.71239
35.2228 45.7643 3.84259
36.9249 48.005 3.91007
38.7227 53.6701 0.00455287
36.7578 52.9657 2
34.4341 52.301 3.99893
34.495 58.4968 0.00724372
36.3224 55.1779 0.00532334
33.2584 55.3736 2
30.6282 53.2741 3.99861
30.3272 57.7834 0.0151855
28.7927 55.2808 2
27.0502 53.3809 3.96008
27.009 56.7981 0.0334954
25.429 55.0962 2
23.7664 53.4088 3.95737
20.7034 53.1377 3.95915
20.0245 55.7764 3.96238
21.9258 55.2921 2
23.9127 56.763 0.0400042
19.4713 57.848 3.96659
20.2699 56.984 2
19.7205 60.1607 3.97145
20.6716 58.7386 2
21.398 57.351 0.0395637
20.2132 62.8452 3.97306
21.1791 61.1398 2
22.014 59.5841 0.0263984
20.9402 65.7579 3.97948
21.8994 63.8261 2
22.7445 62.0042 0.025887
23.6845 64.6987 0.0233662
22.8381 66.731 2
21.9134 68.8719 3.98964
24.8098 67.5881 0.0164335
24.0093 69.8046 2
23.1494 72.1454 4
26.1665 70.6036 0.00952119
25.446 73.0099 2
27.7943 73.7221 0
25.8614 9.38704 3.98007
27.0714 6.54421 3.98472
27.8208 8.65644 2
28.4897 3.64442 3.99178
29.1556 5.87846 2
29.8125 7.99818 0.0190332
30.1841 0.720592 4
30.726 3.0981 2
31.2545 5.33355 0.0124423
32.6053 0.320817 2
32.9818 2.70167 0.00716717
35.0474 0.080333 0
37.5103 35.879 3.66942
39.0715 35.8796 2
40.6523 35.8609 0.331866
24.7806 12.0849 3.97669
23.7606 14.3793 3.97509
28.5458 10.7005 0.0222224
26.6227 11.3948 2
29.2291 12.6487 2
27.2978 13.3836 3.97904
29.79 14.2113 3.98109
35.9402 34.2775 3.6239
37.5243 34.2486 2
39.0879 34.2732 0.376983
37.5275 32.481 0.42145
43.9645 29.9251 0.094251
41.6565 29.9817 0.14803
39.3626 30.8148 0.315436
42.1144 28.5697 2
39.7555 29.1699 2
37.5247 30.5282 2
35.8349 32.5666 2
39.9039 27.8574 3.88399
37.4923 28.9576 3.84868
35.6872 30.8346 3.68917
34.3938 32.8325 3.51303
30.9375 16.8552 3.98469
31.9213 14.4883 2
34.0973 12.9522 0.0262563
31.1902 11.9965 0.0222494
42.7738 26.6495 0.0131671
40.8005 23.5181 0.000933225
33.6128 15.9027 0.019439
35.8474 17.5508 0.0202211
38.403 20.4168 0.00661816
33.5477 17.4381 2
35.5871 20.1404 2
40.2848 25.8924 2
38.0199 23.2004 2
32.877 19.8282 3.99389
37.6551 25.5491 3.97092
35.2167 22.9018 3.99952
35.9161 37.4933 3.65759
37.5068 37.4925 2
39.1069 37.4861 0.344414
39.7419 51.6723 -0.00249646
38.6658 48.3971 0.0559873
37.5075 39.1114 0.327814
37.5222 46.0398 0.147292
35.667 44.1854 0.322862
35.9355 40.7325 0.375446
34.3744 42.1749 0.487969
37.6646 50.7269 2
35.9475 39.1074 2
34.4753 40.6598 2
36.9059 48.0607 2
33.3297 41.9019 2
34.2365 43.5803 2
35.2024 45.8136 2
35.5482 49.8791 3.9857
34.3917 39.1172 3.66803
33.0063 40.793 3.53143
33.0335 42.4899 3.73987
33.3829 44.9902 3.84378
34.4278 47.1419 3.88212
36.7488 52.9703 0.00302279
34.4309 52.3086 2
32.1799 51.0834 4.01766
33.2536 55.3678 0.00830574
30.6311 53.2784 2
28.6374 51.5023 3.99105
28.7904 55.2816 0.0160102
27.0522 53.3831 2
25.3307 51.6542 3.95483
25.4269 55.0935 0.039003
23.7653 53.4135 2
22.2596 51.7047 3.9517
19.5338 51.5331 3.96096
19.0996 54.2357 3.9618
20.7027 53.137 2
18.5077 56.6755 3.96338
20.0219 55.7782 2
21.9283 55.2895 0.039889
18.3872 59.072 3.96845
19.4705 57.849 2
20.2712 56.9823 0.0368384
18.6277 61.7336 3.97175
19.7211 60.1627 2
20.6722 58.7373 0.0300828
19.1294 64.6674 3.97847
20.2135 62.8462 2
21.1782 61.1385 0.025639
19.8877 67.8083 3.98864
20.9396 65.7586 2
21.8994 63.8248 0.023406
22.8384 66.7306 0.0186197
21.9117 68.8711 2
20.9142 71.1327 4
24.0108 69.8048 0.00968565
23.1494 72.1455 2
25.446 73.0099 0
23.1019 12.8015 3.97698
23.9743 10.1764 3.97794
25.025 7.31506 3.98349
25.8597 9.38565 2
26.2815 4.32854 3.99104
27.0701 6.54328 2
27.8223 8.65798 0.019046
27.7943 1.27781 4
28.488 3.64426 2
29.1567 5.87997 0.0140512
30.1841 0.720551 2
30.7273 3.09853 0.00741777
32.6053 0.320823 0
35.924 35.873 3.63662
37.5207 35.889 2
39.0856 35.8782 0.355234
24.7776 12.0807 2
23.7606 14.3832 2
22.4923 15.0615 3.98031
25.3654 13.9249 3.97312
24.0447 15.6411 3.98376
26.6243 11.3968 0.0218946
29.2303 12.6505 0.0192638
27.2977 13.3813 2
29.7866 14.2086 2
28.3724 15.9826 3.98252
34.5104 34.3415 3.65101
35.9368 34.2854 2
37.5176 34.234 0.35197
35.8353 32.5785 0.455299
37.522 30.5828 0.288723
42.086 28.6188 0.121498
39.7384 29.2224 0.154191
39.9344 27.8177 2
37.4898 28.9021 2
35.6704 30.7694 2
34.3645 32.8252 2
37.6003 27.5933 3.88823
35.2574 29.2435 3.84584
34.2787 31.4821 3.71181
33.3798 33.1265 3.50876
30.2238 19.4075 3.98283
30.9333 16.8449 2
31.9229 14.4957 0.0203152
40.2201 25.8999 0.0443212
38.0412 23.2409 6.26958e-05
33.5525 17.4263 0.0188243
35.5789 20.1442 0.00761263
32.8745 19.844 2
35.2135 22.8879 2
37.7163 25.5268 2
32.3789 22.5582 3.99603
35.0786 25.468 3.99489
34.3429 37.5087 3.68399
35.9192 37.4983 2
37.5112 37.4923 0.311536
37.6758 50.696 0.00286248
36.9249 48.005 0.0899296
35.9345 39.1202 0.35621
35.2228 45.7643 0.157408
34.2668 43.5241 0.287611
34.498 40.6718 0.34606
33.362 41.8777 0.489272
35.5367 49.8889 2
34.3954 39.1136 2
33.0042 40.8061 2
34.4231 47.1878 2
32.9916 42.5366 2
33.3571 45.0315 2
33.3786 48.9431 3.97658
32.678 39.2634 3.54091
32.0175 41.0532 3.69993
31.8742 43.633 3.83729
32.5713 46.1177 3.88553
34.4341 52.301 0.00107371
32.1835 51.0957 2
30.1551 49.6635 4.00236
30.6282 53.2741 0.00138561
28.6376 51.4974 2
26.827 49.8742 3.96918
27.0502 53.3809 0.0399153
25.3286 51.6536 2
23.6973 50.066 3.96159
23.7664 53.4088 0.0426267
22.2588 51.7032 2
20.8496 50.1966 3.96488
18.333 50.2306 3.96897
18.1035 52.7053 3.96364
19.5323 51.5323 2
17.5722 55.2788 3.96257
19.0957 54.2359 2
20.7034 53.1377 0.0408484
17.1644 57.836 3.96247
18.5055 56.6763 2
20.0245 55.7764 0.0376184
17.1464 60.5128 3.967
18.3873 59.0728 2
19.4713 57.848 0.0334057
17.411 63.4576 3.97197
18.6283 61.7344 2
19.7205 60.1607 0.0285472
17.944 66.6165 3.98697
19.1289 64.6673 2
20.2132 62.8452 0.026941
18.75 69.9759 4
19.8857 67.8071 2
20.9402 65.7579 0.0205182
21.9134 68.8719 0.0103611
20.9142 71.1327 2
23.1494 72.1454 0
21.5958 13.6285 3.97631
22.193 11.039 3.97506
23.1001 12.8054 2
23.0427 8.18172 3.98165
23.9718 10.1745 2
24.1191 5.14334 3.99042
25.0233 7.31433 2
25.8614 9.38704 0.0199294
25.446 1.99014 4
26.2794 4.32887 2
27.0714 6.54421 0.0152805
27.7943 1.27778 2
28.4897 3.64442 0.00822226
30.1841 0.720592 0
34.4038 35.8966 3.66667
35.9333 35.8876 2
37.5103 35.879 0.330583
21.3256 15.8676 3.98311
24.7806 12.0849 0.0233127
23.7606 14.3793 0.0249076
25.3644 13.9167 2
22.4932 15.0608 2
24.0467 15.6463 2
23.2908 16.2709 3.97246
25.4009 16.1116 3.98292
27.2978 13.3836 0.0209599
29.79 14.2113 0.0189084
28.3678 15.9874 2
27.463 18.8387 3.9807
33.0161 34.2186 3.5368
34.4882 34.3567 2
35.9402 34.2775 0.376104
34.3938 32.8325 0.486966
35.6872 30.8346 0.310833
37.4923 28.9576 0.151319
39.9039 27.8574 0.116009
37.5754 27.5555 2
33.3518 33.1047 2
35.2584 29.1825 2
34.2397 31.4208 2
35.1554 27.6894 3.89563
33.3803 30.009 3.84524
33.0577 32.5116 3.73125
29.6865 22.0084 4.00097
30.2249 19.4115 2
30.9375 16.8552 0.0153081
37.6551 25.5491 0.0290819
35.2167 22.9018 0.000479388
32.877 19.8282 0.00610933
32.3834 22.5503 2
35.1105 25.4591 2
31.9335 25.812 4.00553
32.5159 37.5079 3.58101
34.357 37.5047 2
35.9161 37.4933 0.342412
35.5482 49.8791 0.0143038
34.4278 47.1419 0.117878
34.3917 39.1172 0.33197
33.3829 44.9902 0.156221
33.0335 42.4899 0.260125
33.0063 40.793 0.46857
33.3684 48.9422 2
32.6884 39.2673 2
31.9796 41.0892 2
32.5319 46.1628 2
31.832 43.6643 2
31.4974 47.7899 3.97951
31.3 39.3691 3.705
30.7025 41.883 3.84378
30.9233 44.7502 3.90047
32.1799 51.0834 -0.017658
30.1585 49.6882 2
28.287 48.0491 3.96031
28.6374 51.5023 0.00894658
26.8258 49.8752 2
25.0865 48.3242 3.96687
25.3307 51.6542 0.0451674
23.6966 50.0642 2
22.123 48.6499 3.97119
22.2596 51.7047 0.0483023
20.8476 50.1954 2
19.4354 48.979 3.97326
17.2146 49.2419 3.97435
17.0553 51.3229 3.96798
18.3351 50.2291 2
16.5727 53.8032 3.96488
18.1023 52.7048 2
19.5338 51.5331 0.0390392
16.0464 56.4325 3.96273
17.5687 55.2794 2
19.0996 54.2357 0.0381976
15.7616 59.1821 3.96703
17.1645 57.8368 2
18.5077 56.6755 0.0366172
15.793 62.1117 3.96977
17.147 60.5145 2
18.3872 59.072 0.0315476
16.0908 65.2986 3.98546
17.41 63.4593 2
18.6277 61.7336 0.0282548
16.6661 68.6801 4
17.9418 66.6148 2
19.1294 64.6674 0.0215349
18.75 69.9759 2
19.8877 67.8083 0.0113626
20.9142 71.1327 0
20.2307 14.6331 3.97183
21.5948 13.6335 2
20.5341 12.0153 3.97552
21.1457 9.15349 3.97973
22.1908 11.0384 2
23.1019 12.8015 0.0230175
22.0183 6.08223 3.99004
23.0403 8.18066 2
23.9743 10.1764 0.0220601
23.1494 2.85457 4
24.1166 5.14404 2
25.025 7.31506 0.016507
25.446 1.99012 2
26.2815 4.32854 0.00895778
27.7943 1.27781 0
32.6696 35.756 3.545
34.4029 35.8979 2
35.924 35.873 0.363383
21.3273 15.8633 2
20.334 16.9978 3.9742
22.1229 16.6667 3.96845
25.3654 13.9249 0.0268838
22.4923 15.0615 0.0196876
24.0447 15.6411 0.0162378
25.4022 16.1044 2
23.2934 16.271 2
24.2352 18.5292 3.96853
27.1207 21.5958 3.99437
28.3724 15.9826 0.017476
27.4604 18.8735 2
32.0498 33.9625 3.69581
33.0184 34.2011 2
34.5104 34.3415 0.348988
33.3798 33.1265 0.491244
34.2787 31.4821 0.288194
35.2574 29.2435 0.154162
37.6003 27.5933 0.11177
35.1615 27.6438 2
32.9843 32.4663 2
33.3547 29.971 2
32.8178 28.3551 3.90671
31.882 31.3764 3.82991
29.0562 24.5029 3.99571
29.6831 22.0198 2
30.2238 19.4075 0.0171661
35.0786 25.468 0.00511083
32.3789 22.5582 0.00396528
31.927 25.7866 2
30.0193 27.4602 3.97757
30.8891 37.5038 3.7099
32.5233 37.5065 2
34.3429 37.5087 0.31601
33.3786 48.9431 0.0234249
32.5713 46.1177 0.114473
32.678 39.2634 0.459091
31.8742 43.633 0.162714
32.0175 41.0532 0.300067
31.4586 47.8095 2
31.232 39.3937 2
30.6673 41.9049 2
30.8798 44.7886 2
29.6957 46.3992 3.9951
29.8439 39.8294 3.86387
29.39 42.9978 3.90458
30.1551 49.6635 -0.00235701
28.2803 48.0424 2
26.4828 46.4967 3.9829
26.827 49.8742 0.0308245
25.0867 48.3223 2
23.3573 46.9159 3.97436
23.6973 50.066 0.0384064
22.1209 48.6483 2
20.4287 47.4916 3.97656
20.8496 50.1966 0.0351163
19.4366 48.9774 2
18.0369 48.0784 3.97687
16.4491 48.6007 3.97647
17.2163 49.2406 2
16.1284 50.0919 3.97223
15.5876 52.3486 3.96773
17.0568 51.3219 2
18.333 50.2306 0.0310258
14.9885 54.9279 3.96363
16.5744 53.8026 2
18.1035 52.7053 0.0363611
14.4794 57.7147 3.96275
16.0462 56.4327 2
17.5722 55.2788 0.037433
14.2718 60.6725 3.96817
15.7632 59.1827 2
17.1644 57.836 0.037526
14.3357 63.8562 3.9812
15.7929 62.1136 2
17.1464 60.5128 0.0329961
14.6715 67.2507 4
16.088 65.296 2
17.411 63.4576 0.0280304
16.6661 68.6801 2
17.944 66.6165 0.0130288
18.75 69.9759 0
18.9498 15.819 3.97339
20.2314 14.6309 2
18.9868 13.1352 3.97482
21.5958 13.6285 0.0236869
20.5328 12.0169 2
19.3458 10.2441 3.97755
19.9931 7.14716 3.98874
21.1429 9.15372 2
22.193 11.039 0.024936
20.9142 3.86727 4
22.0151 6.08334 2
23.0427 8.18172 0.0183534
23.1494 2.85451 2
24.1191 5.14334 0.00958361
25.446 1.99014 0
31.3213 35.6409 3.70139
32.6767 35.7495 2
34.4038 35.8966 0.333328
21.3256 15.8676 0.0168856
22.1248 16.664 2
20.3358 16.9928 2
19.3067 18.4553 3.95754
21.8129 17.9108 3.98105
25.4009 16.1116 0.0170841
23.2908 16.2709 0.0275364
24.2299 18.5478 2
22.3793 19.9735 3.96308
24.703 21.4782 3.9863
26.6691 23.7975 3.97848
27.126 21.5443 2
27.463 18.8387 0.0193012
30.7549 33.1372 3.8543
32.0155 33.9136 2
33.0161 34.2186 0.463203
33.0577 32.5116 0.268746
33.3803 30.009 0.15476
35.1554 27.6894 0.10437
32.7847 28.3264 2
31.8268 31.3383 2
30.6143 29.746 3.93297
28.2784 26.6545 3.9952
29.0438 24.5104 2
29.6865 22.0084 -0.000968999
31.9335 25.812 -0.00552624
30.0097 27.4368 2
29.3968 37.5042 3.85853
30.836 37.5032 2
32.5159 37.5079 0.418988
31.4974 47.7899 0.0204853
30.9233 44.7502 0.0995267
31.3 39.3691 0.295002
30.7025 41.883 0.156218
29.6982 46.3968 2
29.7764 39.8446 2
29.3602 43.0388 2
27.944 44.7238 3.97289
27.606 40.5625 3.93728
28.287 48.0491 0.0396884
26.4789 46.4943 2
24.6525 45.034 3.97859
25.0865 48.3242 0.03313
23.3558 46.9159 2
21.4399 45.7632 3.97797
22.123 48.6499 0.0288067
20.4284 47.4902 2
18.7551 46.6273 3.9769
19.4354 48.979 0.0267379
18.0375 48.0772 2
16.6786 47.6249 3.97662
16.4508 48.5996 2
15.4724 48.9425 3.9757
17.2146 49.2419 0.0256499
16.1307 50.0908 2
14.7046 50.9224 3.97083
13.9635 53.3869 3.96587
15.5889 52.3479 2
17.0553 51.3229 0.0320165
13.2994 56.142 3.96302
14.9887 54.9277 2
16.5727 53.8032 0.0351197
12.8562 59.1114 3.96803
14.4822 57.7145 2
16.0464 56.4325 0.037266
12.6818 62.2974 3.97743
14.2726 60.6723 2
15.7616 59.1821 0.032974
12.7746 65.6939 4
14.3335 63.8527 2
15.793 62.1117 0.0302328
14.6714 67.2507 2
16.0908 65.2986 0.0145358
16.6661 68.6801 0
17.6991 17.1948 3.96752
18.9498 15.817 2
17.522 14.4033 3.97167
20.2307 14.6331 0.028166
18.9861 13.1374 2
17.6418 11.4638 3.97498
20.5341 12.0153 0.0244808
19.343 10.2454 2
18.0533 8.34035 3.98684
18.75 5.0241 4
19.9895 7.14921 2
21.1457 9.15349 0.0202685
20.9142 3.86727 2
22.0183 6.08223 0.00996134
23.1494 2.85457 0
29.8691 35.1937 3.86302
31.2575 35.6186 2
32.6696 35.756 0.454996
22.1229 16.6667 0.0315517
20.334 16.9978 0.0258003
21.8127 17.9101 2
19.3063 18.4513 2
18.1212 20.0077 3.96117
20.9659 19.4455 3.96254
24.2352 18.5292 0.0314712
22.3749 19.9791 2
24.7075 21.4667 2
22.529 21.8158 3.982
24.9402 23.2384 3.97435
25.8761 26.038 3.97912
26.6678 23.7914 2
27.1207 21.5958 0.00562858
29.1428 32.4855 3.90681
30.6962 33.1019 2
32.0498 33.9625 0.304186
31.882 31.3764 0.170091
32.8178 28.3551 0.0932852
30.5914 29.7393 2
27.6032 29.2407 4.01349
28.264 26.6635 2
29.0562 24.5029 0.00429069
30.0193 27.4602 0.0224334
27.731 37.3552 3.9111
29.3282 37.496 2
30.8891 37.5038 0.290096
29.6957 46.3992 0.00489869
29.39 42.9978 0.0954181
29.8439 39.8294 0.136129
27.9359 44.7722 2
27.5789 40.5511 2
26.0107 43.0525 3.98918
24.8671 39.4483 3.97321
26.4828 46.4967 0.0171004
24.6419 45.0349 2
22.5556 43.8023 3.97712
23.3573 46.9159 0.0256405
21.4367 45.7641 2
19.5046 44.8646 3.97665
20.4287 47.4916 0.0234358
18.7552 46.6275 2
17.0258 46.1207 3.97654
18.0369 48.0784 0.0231317
16.68 47.6239 2
15.2324 47.5969 3.97621
16.4491 48.6007 0.0235272
15.4745 48.9415 2
14.0121 49.4876 3.97333
16.1284 50.0919 0.0277691
14.7059 50.9217 2
13.0352 51.8303 3.96795
12.2036 54.5019 3.96401
13.9638 53.3865 2
15.5876 52.3486 0.0322665
11.5427 57.4483 3.96684
13.3 56.1419 2
14.9885 54.9279 0.0363659
11.1367 60.6237 3.97618
12.8575 59.1107 2
14.4794 57.7147 0.0372534
10.9835 64.0165 4
12.6799 62.2935 2
14.2718 60.6725 0.0318256
12.7745 65.694 2
14.3357 63.8562 0.0187957
14.6715 67.2507 0
16.4745 18.697 3.96161
17.6986 17.1933 2
16.1176 15.8136 3.96616
18.9498 15.819 0.026607
17.5212 14.401 2
16.0253 12.8261 3.97223
18.9868 13.1352 0.0251812
17.6402 11.4679 2
16.2043 9.66433 3.98534
19.3458 10.2441 0.0224471
18.0495 8.34386 2
16.6661 6.31991 4
18.75 5.02404 2
19.9931 7.14716 0.0112647
20.9142 3.86727 0
28.2627 34.8359 3.90377
29.7969 35.165 2
31.3213 35.6409 0.298608
16.848 21.4434 3.96668
21.8129 17.9108 0.0189454
19.3067 18.4553 0.0424613
20.9642 19.4432 2
18.1183 20.0055 2
19.9197 21.6574 3.97127
22.3793 19.9735 0.0369197
24.703 21.4782 0.0136975
22.5252 21.8215 2
24.9361 23.2387 2
23.1976 24.701 3.97328
25.1506 28.6311 3.98202
25.867 26.0411 2
26.6691 23.7975 0.0215161
26.9948 31.8359 3.98012
29.1111 32.4668 2
30.7549 33.1372 0.145705
30.6143 29.746 0.0670265
27.6143 29.2206 2
28.2784 26.6545 0.00479725
25.5585 36.8546 3.97106
27.716 37.3648 2
29.3968 37.5042 0.141465
27.944 44.7238 0.0271113
27.606 40.5625 0.0627185
25.9903 43.0735 2
24.8469 39.4535 2
23.756 41.8039 3.98248
22.5869 38.5216 3.97866
24.6525 45.034 0.0214095
22.5551 43.8024 2
20.3683 42.8108 3.97588
21.4399 45.7632 0.0220305
19.5053 44.8651 2
17.4241 44.2975 3.97603
18.7551 46.6273 0.0231015
17.0271 46.1205 2
15.1886 46.0171 3.97617
16.6786 47.6249 0.0233816
15.2343 47.5959 2
13.54 47.9528 3.97516
15.4724 48.9425 0.0243023
14.0137 49.4868 2
12.2643 50.212 3.96969
14.7046 50.9224 0.0291685
13.036 51.8297 2
11.2021 52.8143 3.96514
10.3337 55.7045 3.96648
12.2038 54.5016 2
13.9635 53.3869 0.0341336
9.7033 58.8467 3.9755
11.5433 57.4476 2
13.2994 56.142 0.0369847
9.30605 62.2254 4
11.135 60.6196 2
12.8562 59.1114 0.03197
10.9835 64.0165 2
12.6818 62.2974 0.0225653
12.7746 65.6939 0
15.259 20.2363 3.96336
16.4754 18.6967 2
14.7673 17.333 3.96406
17.6991 17.1948 0.0324767
16.118 15.812 2
14.4891 14.3173 3.96883
17.522 14.4033 0.0283317
16.0243 12.8226 2
14.4472 11.1162 3.98268
17.6418 11.4638 0.0250174
16.2007 9.66848 2
14.6715 7.74927 4
18.0533 8.34035 0.0131648
16.6661 6.31988 2
18.75 5.0241 0
26.2237 34.338 3.97929
28.2435 34.8427 2
29.8691 35.1937 0.136981
18.0858 22.4032 3.97319
15.7435 22.9878 3.96976
16.8481 21.4431 2
20.9659 19.4455 0.0374606
18.1212 20.0077 0.0388254
19.917 21.6544 2
20.0219 24.4901 3.972
22.529 21.8158 0.0180016
24.9402 23.2384 0.0256471
23.1928 24.6998 2
22.5123 27.9559 3.97204
24.5571 31.3189 3.9792
25.1549 28.6251 2
25.8761 26.038 0.0208846
26.9733 31.8012 2
29.1428 32.4855 0.0931931
27.6032 29.2407 -0.0134882
23.312 36.2881 3.98313
25.5425 36.8543 2
27.731 37.3552 0.0889034
26.0107 43.0525 0.0108247
24.8671 39.4483 0.0267865
23.7399 41.8047 2
22.5772 38.5194 2
21.449 40.6188 3.97518
20.8131 37.8035 3.97715
22.5556 43.8023 0.0228795
20.3672 42.8122 2
17.8979 42.0394 3.9759
19.5046 44.8646 0.0233545
17.4245 44.2981 2
15.2339 44.1327 3.97583
17.0258 46.1207 0.0234611
15.1897 46.0167 2
13.2375 46.2423 3.97589
15.2324 47.5969 0.0237887
13.5416 47.9521 2
11.6514 48.5115 3.97151
14.0121 49.4876 0.0266688
12.2656 50.2112 2
10.3321 51.0604 3.96611
13.0352 51.8303 0.0320518
11.2027 52.8137 2
9.24249 53.8856 3.96625
8.38684 56.9805 3.97621
10.3344 55.7036 2
12.2036 54.5019 0.0359867
7.74927 60.3285 4
9.70203 58.8424 2
11.5427 57.4483 0.0331556
9.306 62.2255 2
11.1367 60.6237 0.023819
10.9835 64.0165 0
14.0892 21.8007 3.96611
15.2578 20.2356 2
13.4849 18.9289 3.96382
16.4745 18.697 0.0383875
14.7682 17.3318 2
13.0343 15.905 3.97036
16.1176 15.8136 0.0338441
14.4895 14.3149 2
12.7846 12.6912 3.98
16.0253 12.8261 0.0277682
14.4441 11.122 2
12.7746 9.30605 4
16.2043 9.66433 0.0146637
14.6715 7.74924 2
16.6661 6.31991 0
23.8995 33.8741 3.98234
26.2021 34.3303 2
28.2627 34.8359 0.0962323
17.9514 24.1347 3.97157
18.093 22.4037 2
14.585 24.5206 3.97149
15.7458 22.9881 2
16.848 21.4434 0.0333202
19.5232 27.3239 3.97409
19.9197 21.6574 0.0287267
20.0189 24.4899 2
21.8729 30.7906 3.97506
23.1976 24.701 0.0267159
22.5129 27.9573 2
24.5297 31.3145 2
25.1506 28.6311 0.0179775
26.9948 31.8359 0.0198794
20.9369 35.9624 3.97657
23.313 36.2889 2
25.5585 36.8546 0.0289403
23.756 41.8039 0.017521
22.5869 38.5216 0.0213358
21.4537 40.6198 2
20.8136 37.8017 2
18.651 38.9941 3.97705
20.3683 42.8108 0.0241192
17.8972 42.0398 2
15.2195 41.8747 3.97625
17.4241 44.2975 0.0239665
15.234 44.1328 2
12.9998 44.3431 3.97611
15.1886 46.0171 0.0238332
13.2391 46.2415 2
11.1679 46.6988 3.97308
13.54 47.9528 0.0248403
11.6531 48.5107 2
9.60136 49.222 3.96689
12.2643 50.212 0.0303078
10.3325 51.0597 2
8.27516 52 3.96607
11.2021 52.8143 0.0348586
9.2431 53.8844 2
7.19585 55.0318 3.97717
6.31991 58.3339 4
8.38591 56.9764 2
10.3337 55.7045 0.0335213
7.74924 60.3285 2
9.7033 58.8467 0.0244962
9.30605 62.2254 0
13.4553 25.4198 3.97497
12.9915 23.3294 3.96895
14.0886 21.8004 2
12.2916 20.5768 3.96432
15.259 20.2363 0.0366395
13.4848 18.928 2
11.6659 17.5794 3.96879
14.7673 17.333 0.0359442
13.0368 15.9044 2
11.2229 14.3777 3.97587
14.4891 14.3173 0.0311676
12.7823 12.6964 2
10.9835 10.9835 4
14.4472 11.1162 0.0173159
12.7745 9.306 2
14.6715 7.74927 0
21.2967 33.4783 3.97586
23.9022 33.8618 2
26.2237 34.338 0.0207117
16.2852 26.4914 3.97327
17.9564 24.1352 2
18.0858 22.4032 0.0268099
14.5845 24.5208 2
15.7435 22.9878 0.0302356
18.9214 30.2913 3.97511
19.5233 27.3242 2
20.0219 24.4901 0.0279992
21.8864 30.7913 2
22.5123 27.9559 0.0279556
24.5571 31.3189 0.0207992
18.2607 35.9924 3.97761
20.9392 35.9628 2
23.312 36.2881 0.0168666
21.449 40.6188 0.0248174
20.8131 37.8035 0.0228498
18.649 38.9931 2
14.7198 39.1643 3.97711
17.8979 42.0394 0.0240972
15.2191 41.8745 2
12.6964 42.2422 3.97635
15.2339 44.1327 0.024167
13.0011 44.3426 2
10.7526 44.7735 3.97469
13.2375 46.2423 0.02411
11.17 46.6981 2
8.98759 47.3031 3.96759
11.6514 48.5115 0.0284923
9.6017 49.2214 2
7.44176 50.0339 3.96589
10.3321 51.0604 0.0338929
8.2756 51.9989 2
6.13647 53.0073 3.97759
9.24249 53.8856 0.0337545
7.19529 55.0286 2
5.0241 56.25 4
6.31988 58.3339 2
8.38684 56.9805 0.0237851
7.74927 60.3285 0
13.7288 26.8747 3.97543
12.102 24.8309 3.97125
13.4543 25.4199 2
11.2174 22.2606 3.96546
12.992 23.3296 2
14.0892 21.8007 0.0338941
12.2922 20.5763 2
10.3984 19.3289 3.96743
13.4849 18.9289 0.0361819
11.6682 17.5792 2
9.76344 16.1608 3.97585
13.0343 15.905 0.0296393
11.2212 14.3831 2
9.30607 12.7746 4
12.7846 12.6912 0.0199958
10.9835 10.9835 2
12.7746 9.30605 0
18.424 33.1794 3.97644
21.2967 33.4811 2
23.8995 33.8741 0.0176563
15.9089 29.7241 3.97548
16.2857 26.4917 2
17.9514 24.1347 0.0284323
14.585 24.5206 0.0285053
18.9199 30.2916 2
19.5232 27.3239 0.0259088
21.8729 30.7906 0.0249446
15.3476 36.0351 3.97724
18.2601 35.9928 2
20.9369 35.9624 0.0234308
12.928 37.8298 3.97721
18.651 38.9941 0.0229521
14.7193 39.1642 2
12.2001 40.1235 3.97688
15.2195 41.8747 0.0237539
12.6975 42.2418 2
10.3507 42.7563 3.97565
12.9998 44.3431 0.0238905
10.7545 44.7728 2
8.46488 45.3078 3.96844
11.1679 46.6988 0.02692
8.98758 47.3026 2
6.7325 47.9993 3.96601
9.60136 49.222 0.0331122
7.44209 50.0329 2
5.21318 50.9109 3.97733
8.27516 52 0.0339296
6.13621 53.0051 2
3.86727 54.0858 4
7.19585 55.0318 0.0228267
5.02404 56.25 2
6.31991 58.3339 0
13.2142 29.0884 3.97543
11.5476 26.5278 3.97184
13.728 26.8749 2
10.2753 23.9897 3.9669
12.1038 24.8313 2
13.4553 25.4198 0.0250261
9.25107 21.1435 3.96668
11.2172 22.2604 2
12.9915 23.3294 0.031047
12.2916 20.5768 0.0356822
10.4003 19.3291 2
8.41937 18.0314 3.9758
11.6659 17.5794 0.0312124
9.76228 16.1659 2
7.74928 14.6715 4
11.2229 14.3777 0.0241298
9.30602 12.7745 2
10.9835 10.9835 0
14.8964 32.9159 3.97676
18.4226 33.1785 2
21.2967 33.4783 0.0241395
15.9099 29.7245 2
16.2852 26.4914 0.0267306
18.9214 30.2913 0.0248891
13.2246 36.2215 3.97687
15.3467 36.0349 2
18.2607 35.9924 0.0223948
12.9286 37.8296 2
11.5338 38.3074 3.97719
14.7198 39.1643 0.0228913
12.2019 40.1233 2
9.92895 40.7415 3.97628
12.6964 42.2422 0.023654
10.3537 42.7557 2
8.01178 43.2601 3.96893
10.7526 44.7735 0.0253127
8.46618 45.3073 2
6.13827 45.9045 3.96619
8.98759 47.3031 0.0324062
6.73286 47.9984 2
4.42449 48.7515 3.97694
7.44176 50.0339 0.0341149
5.21314 50.9095 2
2.85457 51.8506 4
6.13647 53.0073 0.0224114
3.86727 54.0858 2
5.0241 56.25 0
12.3455 31.2994 3.97626
10.9647 28.4504 3.97233
13.2146 29.0888 2
9.49269 25.8172 3.96764
11.549 26.5282 2
13.7288 26.8747 0.024569
8.23771 23.0259 3.96643
10.2757 23.9898 2
12.102 24.8309 0.0287509
7.20161 19.9804 3.97678
9.25254 21.1439 2
11.2174 22.2606 0.034543
10.3984 19.3289 0.0325739
8.41881 18.0359 2
6.31992 16.6661 4
9.76344 16.1608 0.0241467
7.74926 14.6714 2
9.30607 12.7746 0
12.3831 34.3219 3.97672
14.8962 32.9166 2
18.424 33.1794 0.0235647
15.9089 29.7241 0.024521
11.0731 36.6196 3.97693
13.2248 36.2214 2
15.3476 36.0351 0.0227577
12.928 37.8298 0.0227889
11.536 38.307 2
9.51225 38.8192 3.9765
12.2001 40.1235 0.0231217
9.93172 40.741 2
7.61989 41.205 3.96919
10.3507 42.7563 0.0243464
8.01166 43.2597 2
5.64983 43.7674 3.96649
8.46488 45.3078 0.0315594
6.13855 45.9038 2
3.7699 46.537 3.9768
6.7325 47.9993 0.0339941
4.4247 48.7507 2
1.99014 49.554 4
5.21318 50.9109 0.0226733
2.85451 51.8506 2
3.86727 54.0858 0
11.1631 32.9486 3.9769
10.2728 30.4105 3.97329
12.3466 31.2999 2
8.80243 27.7484 3.96804
10.9663 28.4509 2
13.2142 29.0884 0.0245718
7.36277 24.9838 3.9662
9.4928 25.8174 2
11.5476 26.5278 0.0281586
6.11859 22.0029 3.97767
8.23863 23.0263 2
10.2753 23.9897 0.0330967
5.02411 18.75 4
7.20147 19.9836 2
9.25107 21.1435 0.0333175
8.41937 18.0314 0.0241994
6.3199 16.6661 2
7.74928 14.6715 0
10.6643 35.0152 3.97666
12.3839 34.3222 2
14.8964 32.9159 0.023243
9.17354 36.9878 3.97636
11.0756 36.6195 2
13.2246 36.2215 0.0231343
11.5338 38.3074 0.0228065
9.51501 38.8189 2
7.2955 39.1793 3.96962
9.92895 40.7415 0.0237248
7.62066 41.2047 2
5.26454 41.6134 3.96692
8.01178 43.2601 0.0310735
5.65008 43.7669 2
3.24747 44.2817 3.97712
6.13827 45.9045 0.0338112
3.77021 46.5364 2
1.27781 47.2057 4
4.42449 48.7515 0.0230613
1.99012 49.554 2
2.85457 51.8506 0
10.3015 33.9011 3.97611
9.55117 32.1748 3.97432
11.1654 32.9491 2
8.14543 29.7085 3.96851
10.2749 30.411 2
12.3455 31.2994 0.0237392
6.60578 27.0094 3.96632
8.80256 27.7486 2
10.9647 28.4504 0.0276707
5.17392 24.0951 3.97761
7.36331 24.9843 2
9.49269 25.8172 0.0323577
3.86728 20.9142 4
6.11866 22.0047 2
8.23771 23.0259 0.0335739
5.02406 18.75 2
7.20161 19.9804 0.0232178
6.31992 16.6661 0
8.99148 35.288 3.97626
10.6669 35.0153 2
12.3831 34.3219 0.0232777
7.07179 37.2063 3.96978
9.17622 36.9877 2
11.0731 36.6196 0.0230651
9.51225 38.8192 0.0234987
7.2968 39.1791 2
4.99191 39.4672 3.9673
7.61989 41.205 0.0308098
5.26517 41.613 2
2.85773 42.002 3.97749
5.64983 43.7674 0.0335074
3.24765 44.2812 2
0.720592 44.8159 4
3.7699 46.537 0.0232019
1.27778 47.2057 2
1.99014 49.554 0
9.03484 33.7115 3.97593
10.3046 33.9014 2
7.57614 31.6186 3.96906
9.55376 32.1752 2
11.1631 32.9486 0.0230964
5.95033 29.0704 3.96665
8.14549 29.7087 2
10.2728 30.4105 0.0267056
4.36138 26.2474 3.97732
6.60613 27.0098 2
8.80243 27.7484 0.0319624
2.85458 23.1494 4
5.17412 24.0959 2
7.36277 24.9838 0.0338001
3.86728 20.9142 2
6.11859 22.0029 0.0223256
5.02411 18.75 0
7.01952 35.3093 3.96979
8.99411 35.2881 2
10.6643 35.0152 0.0233379
4.84203 37.3399 3.96763
7.07336 37.2062 2
9.17354 36.9878 0.0236383
7.2955 39.1793 0.030383
4.99255 39.4669 2
2.60567 39.7136 3.97769
5.26454 41.6134 0.0330837
2.85822 42.0017 2
0.320823 42.3947 4
3.24747 44.2817 0.022884
0.720551 44.8159 2
1.27781 47.2057 0
7.18419 33.4671 3.96964
9.03731 33.7118 2
10.3015 33.9011 0.0238855
5.42073 31.1342 3.96713
7.57669 31.6188 2
9.55117 32.1748 0.0256757
3.68284 28.4434 3.97721
5.95068 29.0708 2
8.14543 29.7085 0.0314883
1.99015 25.446 4
4.36166 26.2477 2
6.60578 27.0094 0.0336845
2.85453 23.1494 2
5.17392 24.0951 0.0223883
3.86728 20.9142 0
4.85635 35.2519 3.96755
7.02032 35.3093 2
8.99148 35.288 0.023745
2.49711 37.4282 3.97847
4.84215 37.34 2
7.07179 37.2063 0.0302152
4.99191 39.4672 0.0326975
2.60627 39.7138 2
0.080333 39.9526 4
2.85773 42.002 0.0225115
0.320817 42.3947 2
0.720592 44.8159 0
5.04974 33.1908 3.96752
7.18499 33.4672 2
9.03484 33.7115 0.0240725
3.14694 30.6662 3.9775
5.42106 31.1346 2
7.57614 31.6186 0.030941
1.27793 27.7943 4
3.68323 28.4437 2
5.95033 29.0704 0.0333516
1.99013 25.446 2
4.36138 26.2474 0.0226818
2.85458 23.1494 0
2.54921 35.1589 3.97818
4.85709 35.2522 2
7.01952 35.3093 0.0302143
0 37.5 4
2.49723 37.4286 2
4.84203 37.3399 0.0323681
2.60567 39.7136 0.0223062
0.0802903 39.9526 2
0.320823 42.3947 0
2.76686 32.9057 3.97831
5.05004 33.1911 2
7.18419 33.4671 0.0303591
0.721173 30.1842 4
3.14735 30.6666 2
5.42073 31.1342 0.0328722
1.27779 27.7943 2
3.68284 28.4434 0.0227862
1.99015 25.446 0
0.0806499 35.0474 4
2.54991 35.1593 2
4.85635 35.2519 0.0324521
0 37.5 2
2.49711 37.4282 0.0215282
0.080333 39.9526 0
0.32156 32.6054 4
2.76708 32.9063 2
5.04974 33.1908 0.032482
0.72056 30.1841 2
3.14694 30.6662 0.022499
1.27793 27.7943 0
0.0802889 35.0474 2
2.54921 35.1589 0.0218151
0 37.5 0
0.320817 32.6053 2
2.76686 32.9057 0.0216863
0.721173 30.1842 0
0.0806499 35.0474 0
0.32156 32.6054 0
CELLS 1910 17190
8 18 6 25 56 2 0 5 16
8 57 23 6 18 17 4 0 2
8 78 36 9 29 31 11 1 7
8 31 11 1 7 79 37 10 30
8 110 57 18 50 48 17 2 14
8 50 18 56 111 14 2 16 49
8 116 62 22 55 52 20 3 15
8 56 25 67 118 16 5 24 53
8 119 63 23 57 54 21 4 17
8 55 22 63 119 15 3 21 54
8 58 26 68 121 18 6 25 56
8 122 65 26 58 57 23 6 18
8 73 31 7 27 142 79 30 71
8 143 78 29 72 73 31 7 27
8 83 147 76 34 32 74 28 8
8 84 148 78 36 33 75 29 9
8 76 34 8 28 148 84 33 75
8 37 79 150 86 10 30 77 35
8 151 87 36 78 80 38 11 31
8 80 38 11 31 152 88 37 79
8 175 100 42 94 96 44 12 40
8 44 96 176 101 12 40 95 43
8 101 176 98 46 43 95 41 13
8 46 98 178 103 13 41 97 45
8 178 103 45 97 147 83 32 74
8 189 116 55 109 106 52 15 47
8 111 56 118 191 49 16 53 107
8 192 119 57 110 108 54 17 48
8 109 55 119 192 47 15 54 108
8 194 122 58 112 110 57 18 50
8 112 58 121 195 50 18 56 111
8 115 61 19 51 197 124 59 113
8 115 61 125 198 51 19 60 114
8 198 125 62 116 114 60 20 52
8 200 127 64 120 116 62 22 55
8 118 67 132 202 53 24 66 117
8 121 68 133 203 56 25 67 118
8 120 64 128 204 55 22 63 119
8 204 128 65 122 119 63 23 57
8 206 134 68 121 123 69 26 58
8 123 69 26 58 207 131 65 122
8 226 147 74 138 140 76 28 70
8 229 148 75 139 143 78 29 72
8 140 76 28 70 229 148 75 139
8 142 79 30 71 231 150 77 141
8 144 80 31 73 232 152 79 142
8 233 151 78 143 144 80 31 73
8 150 86 35 77 235 154 81 145
8 235 154 81 145 146 82 39 91
8 146 82 39 91 236 155 90 165
8 238 157 83 147 149 85 34 76
8 239 158 84 148 151 87 36 78
8 149 85 34 76 239 158 84 148
8 152 88 37 79 241 160 86 150
8 242 161 87 151 153 89 38 80
8 153 89 38 80 243 162 88 152
8 171 98 41 92 265 178 97 169
8 265 178 97 169 226 147 74 138
8 172 96 40 93 266 176 95 170
8 266 176 95 170 171 98 41 92
8 269 175 94 173 172 96 40 93
8 271 180 99 174 175 100 42 94
8 197 124 59 113 271 180 99 174
8 272 181 100 175 177 102 44 96
8 273 182 101 176 179 104 46 98
8 177 102 44 96 273 182 101 176
8 179 104 46 98 275 184 103 178
8 275 184 103 178 238 157 83 147
8 188 115 51 105 283 197 113 186
8 188 115 198 284 105 51 114 187
8 284 198 116 189 187 114 52 106
8 286 200 120 193 189 116 55 109
8 191 118 202 288 107 53 117 190
8 195 121 203 289 111 56 118 191
8 193 120 204 290 109 55 119 192
8 290 204 122 194 192 119 57 110
8 196 123 58 112 292 207 122 194
8 293 206 121 195 196 123 58 112
8 199 126 61 115 297 211 124 197
8 298 212 127 200 198 125 62 116
8 199 126 212 298 115 61 125 198
8 205 129 64 120 300 214 127 200
8 301 217 130 201 202 132 66 117
8 209 136 168 264 301 217 130 201
8 302 219 132 202 203 133 67 118
8 303 220 133 203 206 134 68 121
8 205 129 215 304 120 64 128 204
8 304 215 131 207 204 128 65 122
8 306 221 134 206 208 135 69 123
8 208 135 69 123 307 218 131 207
8 210 137 167 263 309 223 136 209
8 328 238 147 226 230 149 76 140
8 228 146 91 166 329 236 165 260
8 231 150 77 141 330 235 145 227
8 330 235 145 227 228 146 91 166
8 332 239 148 229 233 151 78 143
8 230 149 76 140 332 239 148 229
8 232 152 79 142 334 241 150 231
8 234 153 80 144 335 243 152 232
8 336 242 151 233 234 153 80 144
8 236 155 90 165 338 245 164 259
8 241 160 86 150 339 246 154 235
8 339 246 154 235 237 156 82 146
8 237 156 82 146 340 247 155 236
8 342 249 157 238 240 159 85 149
8 343 250 158 239 242 161 87 151
8 240 159 85 149 343 250 158 239
8 243 162 88 152 345 252 160 241
8 244 163 253 346 153 89 161 242
8 244 163 89 153 347 254 162 243
8 311 224 261 371 210 137 167 263
8 263 167 262 372 209 136 168 264
8 267 179 98 171 375 275 178 265
8 375 275 178 265 328 238 147 226
8 376 273 176 266 267 179 98 171
8 268 177 96 172 376 273 176 266
8 379 272 175 269 268 177 96 172
8 380 271 174 270 269 175 94 173
8 283 197 113 186 380 271 174 270
8 381 277 180 271 272 181 100 175
8 297 211 124 197 381 277 180 271
8 382 278 181 272 274 183 102 177
8 274 183 102 177 383 279 182 273
8 383 279 182 273 276 185 104 179
8 385 281 184 275 342 249 157 238
8 276 185 104 179 385 281 184 275
8 285 199 115 188 393 297 197 283
8 394 298 200 286 284 198 116 189
8 285 199 298 394 188 115 198 284
8 291 205 120 193 396 300 200 286
8 397 301 201 287 288 202 117 190
8 295 209 264 374 397 301 201 287
8 398 302 202 288 289 203 118 191
8 399 303 203 289 293 206 121 195
8 291 205 304 400 193 120 204 290
8 400 304 207 292 290 204 122 194
8 294 208 123 196 402 307 207 292
8 403 306 206 293 294 208 123 196
8 296 210 263 373 405 309 209 295
8 408 312 213 299 297 211 126 199
8 299 213 313 409 199 126 212 298
8 409 313 214 300 298 212 127 200
8 305 216 129 205 411 315 214 300
8 412 318 217 301 302 219 132 202
8 309 223 136 209 412 318 217 301
8 413 320 219 302 303 220 133 203
8 306 221 321 414 206 134 220 303
8 307 218 131 207 415 316 215 304
8 305 216 316 415 205 129 215 304
8 417 322 221 306 308 222 135 208
8 308 222 135 208 418 319 218 307
8 310 225 137 210 420 325 223 309
8 423 326 224 311 310 225 137 210
8 329 236 165 260 441 338 259 368
8 442 342 238 328 333 240 149 230
8 331 237 146 228 443 340 236 329
8 334 241 150 231 444 339 235 330
8 444 339 235 330 331 237 146 228
8 446 343 239 332 336 242 151 233
8 333 240 149 230 446 343 239 332
8 335 243 152 232 448 345 241 334
8 337 244 153 234 449 347 243 335
8 337 244 346 450 234 153 242 336
8 338 245 164 259 452 349 258 367
8 340 247 155 236 453 350 245 338
8 345 252 160 241 454 351 246 339
8 454 351 246 339 341 248 156 237
8 341 248 156 237 455 352 247 340
8 240 159 251 344 342 249 354 457
8 242 161 253 346 343 250 355 458
8 343 250 355 458 240 159 251 344
8 347 254 162 243 460 357 252 345
8 348 255 358 461 244 163 253 346
8 348 255 163 244 462 359 254 347
8 473 360 257 365 363 256 364 482
8 452 349 258 367 365 257 366 485
8 422 324 369 488 311 224 261 371
8 371 261 370 490 263 167 262 372
8 407 311 371 491 296 210 263 373
8 373 263 372 492 295 209 264 374
8 493 385 275 375 442 342 238 328
8 377 276 179 267 493 385 275 375
8 378 274 177 268 494 383 273 376
8 494 383 273 376 377 276 179 267
8 497 382 272 379 378 274 177 268
8 498 381 271 380 379 272 175 269
8 393 297 197 283 498 381 271 380
8 499 387 277 381 382 278 181 272
8 408 312 211 297 499 387 277 381
8 500 388 278 382 384 280 183 274
8 501 389 279 383 386 282 185 276
8 384 280 183 274 501 389 279 383
8 386 282 185 276 503 391 281 385
8 503 391 281 385 457 354 249 342
8 511 408 299 395 393 297 199 285
8 395 299 409 512 285 199 298 394
8 512 409 300 396 394 298 200 286
8 401 305 205 291 514 411 300 396
8 515 412 301 397 398 302 202 288
8 405 309 209 295 515 412 301 397
8 516 413 302 398 399 303 203 289
8 403 306 414 517 293 206 303 399
8 402 307 207 292 518 415 304 400
8 401 305 415 518 291 205 304 400
8 404 308 208 294 520 418 307 402
8 521 417 306 403 404 308 208 294
8 406 310 210 296 523 420 309 405
8 526 423 311 407 406 310 210 296
8 410 314 213 299 527 424 312 408
8 528 425 315 411 409 313 214 300
8 410 314 425 528 299 213 313 409
8 416 317 216 305 530 427 315 411
8 531 430 318 412 413 320 219 302
8 420 325 223 309 531 430 318 412
8 532 432 320 413 414 321 220 303
8 417 322 433 533 306 221 321 414
8 418 319 218 307 534 428 316 415
8 416 317 428 534 305 216 316 415
8 419 323 434 536 308 222 322 417
8 419 323 222 308 537 431 319 418
8 421 327 225 310 539 438 325 420
8 421 327 439 541 310 225 326 423
8 543 437 324 422 423 326 224 311
8 441 338 259 368 559 452 367 486
8 443 340 236 329 560 453 338 441
8 333 240 344 447 442 342 457 561
8 445 341 237 331 562 455 340 443
8 448 345 241 334 563 454 339 444
8 563 454 339 444 445 341 237 331
8 336 242 346 450 446 343 458 565
8 446 343 458 565 333 240 344 447
8 449 347 243 335 567 460 345 448
8 451 348 244 337 568 462 347 449
8 451 348 461 569 337 244 346 450
8 570 463 349 452 473 360 257 365
8 453 350 245 338 570 463 349 452
8 455 352 247 340 571 464 350 453
8 460 357 252 345 572 465 351 454
8 572 465 351 454 456 353 248 341
8 456 353 248 341 573 466 352 455
8 344 251 356 459 457 354 468 575
8 458 355 469 576 344 251 356 459
8 346 253 358 461 458 355 469 576
8 462 359 254 347 578 471 357 460
8 348 255 359 462 461 358 472 579
8 591 474 360 473 475 361 256 363
8 475 361 256 363 594 477 362 479
8 363 256 364 482 479 362 480 603
8 590 473 365 484 481 363 482 605
8 482 364 257 365 606 483 366 485
8 559 452 367 486 484 365 485 607
8 542 436 487 609 422 324 369 488
8 525 422 488 611 407 311 371 491
8 488 369 489 612 371 261 370 490
8 491 371 490 613 373 263 372 492
8 495 386 276 377 614 503 385 493
8 614 503 385 493 561 457 342 442
8 615 501 383 494 495 386 276 377
8 496 384 274 378 615 501 383 494
8 618 500 382 497 496 384 274 378
8 619 499 381 498 497 382 272 379
8 511 408 297 393 619 499 381 498
8 620 505 387 499 500 388 278 382
8 527 424 312 408 620 505 387 499
8 502 390 506 621 384 280 388 500
8 622 507 389 501 504 392 282 386
8 502 390 280 384 622 507 389 501
8 504 392 282 386 624 509 391 503
8 624 509 391 503 575 468 354 457
8 513 410 299 395 630 527 408 511
8 631 528 411 514 512 409 300 396
8 513 410 528 631 395 299 409 512
8 519 416 305 401 633 530 411 514
8 634 531 412 515 516 413 302 398
8 523 420 309 405 634 531 412 515
8 635 532 413 516 517 414 303 399
8 521 417 533 636 403 306 414 517
8 520 418 307 402 637 534 415 518
8 519 416 534 637 401 305 415 518
8 522 419 308 404 639 537 418 520
8 522 419 536 640 404 308 417 521
8 524 421 310 406 642 539 420 523
8 524 421 541 644 406 310 423 526
8 646 543 422 525 526 423 311 407
8 529 426 314 410 647 544 424 527
8 528 425 545 648 411 315 427 530
8 529 426 545 648 410 314 425 528
8 535 429 317 416 649 546 427 530
8 650 548 430 531 532 432 320 413
8 539 438 325 420 650 548 430 531
8 533 433 550 651 414 321 432 532
8 536 434 551 652 417 322 433 533
8 537 431 319 418 653 547 428 534
8 535 429 547 653 416 317 428 534
8 538 435 552 654 419 323 434 536
8 538 435 323 419 655 549 431 537
8 540 440 327 421 657 556 438 539
8 540 440 557 659 421 327 439 541
8 541 439 555 660 423 326 437 543
8 661 554 436 542 543 437 324 422
8 676 570 452 559 590 473 365 484
8 560 453 338 441 676 570 452 559
8 562 455 340 443 677 571 453 560
8 447 344 459 566 561 457 575 678
8 564 456 341 445 679 573 455 562
8 567 460 345 448 680 572 454 563
8 680 572 454 563 564 456 341 445
8 565 458 576 682 447 344 459 566
8 450 346 461 569 565 458 576 682
8 568 462 347 449 684 578 460 567
8 451 348 462 568 569 461 579 685
8 686 580 463 570 591 474 360 473
8 571 464 350 453 686 580 463 570
8 573 466 352 455 687 581 464 571
8 572 465 582 688 460 357 471 578
8 574 467 582 688 456 353 465 572
8 574 467 353 456 689 583 466 573
8 459 356 470 577 575 468 585 691
8 576 469 586 692 459 356 470 577
8 461 358 472 579 576 469 586 692
8 462 359 471 578 579 472 588 694
8 704 591 473 590 593 475 363 481
8 595 476 592 705 475 361 474 591
8 593 475 363 481 707 594 479 602
8 594 477 362 479 709 598 478 600
8 595 476 361 475 711 597 477 594
8 479 362 480 603 600 478 601 720
8 481 363 482 605 602 479 603 722
8 603 480 364 482 723 604 483 606
8 605 482 365 484 724 606 485 607
8 656 553 608 726 542 436 487 609
8 645 542 609 728 525 422 488 611
8 609 487 610 729 488 369 489 612
8 611 488 612 730 491 371 490 613
8 616 504 386 495 731 624 503 614
8 731 624 503 614 678 575 457 561
8 732 622 501 615 616 504 386 495
8 617 502 384 496 732 622 501 615
8 617 502 621 735 496 384 500 618
8 736 620 499 619 618 500 382 497
8 630 527 408 511 736 620 499 619
8 621 506 626 737 500 388 505 620
8 647 544 424 527 737 626 505 620
8 623 508 627 738 502 390 506 621
8 623 508 390 502 739 628 507 622
8 625 510 628 739 504 392 507 622
8 740 629 509 624 691 585 468 575
8 625 510 392 504 740 629 509 624
8 632 529 410 513 744 647 527 630
8 631 528 648 745 514 411 530 633
8 632 529 648 745 513 410 528 631
8 638 535 416 519 746 649 530 633
8 747 650 531 634 635 532 413 516
8 642 539 420 523 747 650 531 634
8 636 533 651 748 517 414 532 635
8 640 536 652 749 521 417 533 636
8 639 537 418 520 750 653 534 637
8 638 535 653 750 519 416 534 637
8 641 538 419 522 751 655 537 639
8 641 538 654 752 522 419 536 640
8 643 540 421 524 753 657 539 642
8 643 540 659 755 524 421 541 644
8 644 541 660 757 526 423 543 646
8 758 661 542 645 646 543 422 525
8 529 426 544 647 648 545 662 759
8 530 427 545 648 649 546 663 760
8 535 429 546 649 653 547 664 761
8 762 666 548 650 651 550 432 532
8 657 556 438 539 762 666 548 650
8 652 551 668 763 533 433 550 651
8 654 552 669 764 536 434 551 652
8 655 549 431 537 765 665 547 653
8 538 435 549 655 654 552 667 766
8 661 554 671 768 542 436 553 656
8 658 558 440 540 769 674 556 657
8 658 558 675 770 540 440 557 659
8 659 557 673 771 541 439 555 660
8 660 555 672 772 543 437 554 661
8 788 686 570 676 704 591 473 590
8 677 571 453 560 788 686 570 676
8 679 573 455 562 789 687 571 677
8 566 459 577 683 678 575 691 790
8 681 574 456 564 791 689 573 679
8 680 572 688 792 567 460 578 684
8 681 574 688 792 564 456 572 680
8 682 576 692 794 566 459 577 683
8 569 461 579 685 682 576 692 794
8 568 462 578 684 685 579 694 796
8 687 581 464 571 798 696 580 686
8 798 696 580 686 705 592 474 591
8 689 583 466 573 799 697 581 687
8 688 582 698 800 578 471 588 694
8 690 584 698 800 574 467 582 688
8 690 584 467 574 801 699 583 689
8 693 587 701 803 577 470 585 691
8 693 587 470 577 804 702 586 692
8 695 589 702 804 579 472 586 692
8 695 589 472 579 805 703 588 694
8 708 595 705 813 593 475 591 704
8 710 596 706 814 595 476 592 705
8 707 594 479 602 816 709 600 719
8 708 595 475 593 817 711 594 707
8 709 598 478 600 819 715 599 717
8 711 597 477 594 820 714 598 709
8 710 596 476 595 822 713 597 711
8 600 478 601 720 717 599 718 832
8 602 479 603 722 719 600 720 834
8 720 601 480 603 835 721 604 723
8 722 603 482 605 836 723 606 724
8 767 670 725 839 656 553 608 726
8 756 656 726 841 645 542 609 728
8 726 608 727 842 609 487 610 729
8 728 609 729 843 611 488 612 730
8 844 740 624 731 790 691 575 678
8 733 625 504 616 844 740 624 731
8 734 623 502 617 845 739 622 732
8 733 625 739 845 616 504 622 732
8 734 623 738 846 617 502 621 735
8 735 621 737 847 618 500 620 736
8 744 647 527 630 847 737 620 736
8 621 506 627 738 737 626 741 848
8 647 544 626 737 759 662 741 848
8 623 508 628 739 738 627 742 849
8 740 629 585 691 850 743 700 802
8 625 510 629 740 739 628 743 850
8 632 529 647 744 745 648 759 854
8 633 530 648 745 746 649 760 855
8 638 535 649 746 750 653 761 856
8 857 762 650 747 748 651 532 635
8 753 657 539 642 857 762 650 747
8 749 652 763 858 636 533 651 748
8 752 654 764 859 640 536 652 749
8 751 655 537 639 860 765 653 750
8 641 538 655 751 752 654 766 861
8 754 658 540 643 862 769 657 753
8 754 658 770 863 643 540 659 755
8 755 659 771 864 644 541 660 757
8 758 661 768 866 645 542 656 756
8 757 660 772 867 646 543 661 758
8 759 662 773 868 648 545 663 760
8 649 546 663 760 761 664 774 871
8 765 665 547 653 872 775 664 761
8 873 777 666 762 763 668 550 651
8 769 674 556 657 873 777 666 762
8 764 669 779 874 652 551 668 763
8 654 552 667 766 764 669 778 875
8 655 549 665 765 766 667 776 876
8 768 671 782 877 656 553 670 767
8 772 672 783 878 661 554 671 768
8 658 558 674 769 770 675 786 879
8 659 557 675 770 771 673 785 881
8 882 784 672 772 771 673 555 660
8 789 687 571 677 897 798 686 788
8 897 798 686 788 813 705 591 704
8 791 689 573 679 898 799 687 789
8 795 693 803 900 683 577 691 790
8 793 690 574 681 901 801 689 791
8 792 688 800 902 684 578 694 796
8 793 690 800 902 681 574 688 792
8 795 693 577 683 903 804 692 794
8 797 695 804 903 685 579 692 794
8 797 695 579 685 904 805 694 796
8 905 806 697 799 798 696 581 687
8 814 706 806 905 705 592 696 798
8 689 583 697 799 801 699 808 907
8 800 698 809 908 694 588 703 805
8 690 584 699 801 800 698 809 908
8 803 701 810 909 691 585 700 802
8 693 587 702 804 803 701 811 910
8 695 589 703 805 804 702 812 911
8 818 710 814 919 708 595 705 813
8 821 712 815 920 710 596 706 814
8 816 709 600 719 922 819 717 831
8 817 711 594 707 923 820 709 816
8 818 710 595 708 924 822 711 817
8 819 715 599 717 926 827 716 829
8 820 714 598 709 927 826 715 819
8 929 825 713 822 820 714 597 711
8 821 712 596 710 930 824 713 822
8 717 599 718 832 829 716 830 942
8 719 600 720 834 831 717 832 944
8 832 718 601 720 945 833 721 835
8 834 720 603 722 946 835 723 836
8 869 780 838 950 767 670 725 839
8 865 767 839 952 756 656 726 841
8 839 725 840 953 726 608 727 842
8 841 726 842 954 728 609 729 843
8 844 740 691 790 955 850 802 899
8 733 625 740 844 845 739 850 955
8 734 623 739 845 846 738 849 956
8 735 621 738 846 847 737 848 957
8 744 647 737 847 854 759 848 957
8 738 627 742 849 848 741 851 958
8 848 741 851 958 759 662 773 868
8 850 743 700 802 959 852 807 906
8 849 742 628 739 959 852 743 850
8 854 759 868 965 745 648 760 855
8 746 649 760 855 856 761 871 966
8 860 765 653 750 967 872 761 856
8 968 873 762 857 858 763 651 748
8 862 769 657 753 968 873 762 857
8 859 764 874 969 749 652 763 858
8 752 654 766 861 859 764 875 970
8 751 655 765 860 861 766 876 971
8 754 658 769 862 863 770 879 972
8 755 659 770 863 864 771 881 974
8 976 882 772 867 864 771 660 757
8 866 768 877 977 756 656 767 865
8 867 772 878 978 758 661 768 866
8 760 663 773 868 871 774 883 980
8 870 781 837 948 982 890 780 869
8 982 890 780 869 877 782 670 767
8 761 664 774 871 872 775 884 984
8 876 776 665 765 985 885 775 872
8 873 777 668 763 986 887 779 874
8 769 674 777 873 879 786 887 986
8 764 669 778 875 874 779 888 987
8 766 667 776 876 875 778 886 988
8 878 783 892 989 768 671 782 877
8 878 783 672 772 990 893 784 882
8 880 787 675 770 991 896 786 879
8 880 787 895 992 770 675 785 881
8 881 785 894 993 771 673 784 882
8 1006 905 799 898 897 798 687 789
8 919 814 905 1006 813 705 798 897
8 791 689 799 898 901 801 907 1007
8 900 803 909 1009 790 691 802 899
8 795 693 804 903 900 803 910 1010
8 902 800 908 1011 796 694 805 904
8 793 690 801 901 902 800 908 1011
8 797 695 805 904 903 804 911 1012
8 799 697 806 905 907 808 912 1013
8 920 815 912 1013 814 706 806 905
8 802 700 810 909 906 807 913 1014
8 801 699 808 907 908 809 914 1015
8 805 703 809 908 911 812 915 1016
8 803 701 811 910 909 810 916 1017
8 911 812 917 1018 804 702 811 910
8 925 821 920 1030 818 710 814 919
8 928 823 921 1031 821 712 815 920
8 922 819 717 831 1033 926 829 941
8 923 820 709 816 1034 927 819 922
8 1035 929 822 924 923 820 711 817
8 925 821 710 818 1036 930 822 924
8 1038 933 825 929 927 826 714 820
8 926 827 716 829 1039 935 828 939
8 927 826 715 819 1040 934 827 926
8 928 823 712 821 1041 931 824 930
8 1042 932 824 930 929 825 713 822
8 829 716 830 942 939 828 940 1058
8 831 717 832 944 941 829 942 1060
8 942 830 718 832 1061 943 833 945
8 944 832 720 834 1062 945 835 946
8 981 889 947 1064 870 781 837 948
8 948 837 949 1067 869 780 838 950
8 975 869 950 1069 865 767 839 952
8 950 838 951 1070 839 725 840 953
8 952 839 953 1071 841 726 842 954
8 955 850 802 899 1072 959 906 1008
8 956 849 739 845 1072 959 850 955
8 846 738 849 956 957 848 958 1073
8 957 848 958 1073 854 759 868 965
8 849 742 852 959 958 851 961 1076
8 960 853 961 1076 906 807 852 959
8 958 851 961 1076 868 773 883 980
8 960 853 807 906 1077 963 913 1014
8 855 760 868 965 966 871 980 1085
8 856 761 871 966 967 872 984 1086
8 971 876 765 860 1087 985 872 967
8 968 873 763 858 1088 986 874 969
8 862 769 873 968 972 879 986 1088
8 859 764 875 970 969 874 987 1089
8 861 766 876 971 970 875 988 1090
8 973 880 770 863 1091 991 879 972
8 973 880 992 1092 863 770 881 974
8 974 881 993 1093 864 771 882 976
8 979 870 948 1066 1094 982 869 975
8 1094 982 869 975 977 877 767 865
8 978 878 772 867 1095 990 882 976
8 978 878 989 1096 866 768 877 977
8 871 774 883 980 984 884 994 1099
8 983 891 999 1100 870 781 889 981
8 1101 1000 890 982 989 892 782 877
8 983 891 781 870 1101 1000 890 982
8 872 775 884 984 985 885 995 1103
8 876 776 885 985 988 886 996 1104
8 986 887 779 874 1105 998 888 987
8 879 786 887 986 991 896 998 1105
8 875 778 886 988 987 888 997 1106
8 990 893 1002 1107 878 783 892 989
8 1108 1003 893 990 993 894 784 882
8 880 787 896 991 992 895 1005 1109
8 993 894 785 881 1110 1004 895 992
8 898 799 905 1006 1007 907 1013 1120
8 1030 920 1013 1120 919 814 905 1006
8 901 801 907 1007 1011 908 1015 1121
8 899 802 909 1009 1008 906 1014 1122
8 900 803 910 1010 1009 909 1017 1123
8 1012 911 1018 1124 903 804 910 1010
8 904 805 908 1011 1012 911 1016 1125
8 1013 912 1020 1127 907 808 914 1015
8 1031 921 1020 1127 920 815 912 1013
8 1019 918 962 1075 1128 1021 913 1014
8 1128 1021 913 1014 1017 916 810 909
8 1015 914 1022 1129 908 809 915 1016
8 1016 915 1023 1130 911 812 917 1018
8 1018 917 1024 1131 910 811 916 1017
8 1037 928 1031 1148 925 821 920 1030
8 928 823 931 1041 1031 921 1032 1149
8 1033 926 829 941 1151 1039 939 1057
8 1034 927 819 922 1152 1040 926 1033
8 1153 1038 929 1035 1034 927 820 923
8 1154 1042 930 1036 1035 929 822 924
8 1037 928 821 925 1155 1041 930 1036
8 1039 935 828 939 1156 1047 938 1055
8 1157 1043 932 1042 1038 933 825 929
8 1038 933 826 927 1158 1045 934 1040
8 1040 934 827 926 1159 1046 935 1039
8 930 824 932 1042 1041 931 1044 1160
8 1051 936 1048 1165 1175 1052 937 1053
8 1156 1047 938 1055 1053 937 1054 1178
8 939 828 940 1058 1055 938 1056 1181
8 941 829 942 1060 1057 939 1058 1183
8 942 830 943 1061 1058 940 1059 1184
8 1060 942 832 944 1185 1061 945 1062
8 1082 964 1063 1188 981 889 947 1064
8 1097 981 1064 1190 979 870 948 1066
8 1064 947 1065 1191 948 837 949 1067
8 1066 948 1067 1193 975 869 950 1069
8 1067 949 1068 1194 950 838 951 1070
8 1069 950 1070 1195 952 839 953 1071
8 956 849 959 1072 1073 958 1076 1197
8 1074 960 1076 1197 1008 906 959 1072
8 1073 958 1076 1197 965 868 980 1085
8 1074 960 906 1008 1198 1077 1014 1122
8 1133 1026 1079 1199 1019 918 962 1075
8 1077 963 913 1014 1200 1080 962 1075
8 960 853 963 1077 1076 961 1078 1201
8 980 883 961 1076 1099 994 1078 1201
8 1210 1083 964 1082 1100 999 889 981
8 966 871 980 1085 1086 984 1099 1215
8 967 872 984 1086 1087 985 1103 1216
8 971 876 985 1087 1090 988 1104 1217
8 1088 986 874 969 1218 1105 987 1089
8 972 879 986 1088 1091 991 1105 1218
8 970 875 988 1090 1089 987 1106 1219
8 973 880 991 1091 1092 992 1109 1220
8 1093 993 881 974 1221 1110 992 1092
8 1222 1108 990 1095 1093 993 882 976
8 1223 1101 982 1094 1096 989 877 977
8 1098 983 870 979 1223 1101 982 1094
8 1095 990 1107 1224 978 878 989 1096
8 1098 983 1100 1225 979 870 981 1097
8 984 884 994 1099 1103 995 1111 1227
8 1102 1001 1115 1228 983 891 999 1100
8 1101 1000 892 989 1229 1116 1002 1107
8 1102 1001 891 983 1229 1116 1000 1101
8 985 885 995 1103 1104 996 1112 1230
8 988 886 996 1104 1106 997 1113 1231
8 1105 998 888 987 1232 1114 997 1106
8 991 896 998 1105 1109 1005 1114 1232
8 1108 1003 1117 1233 990 893 1002 1107
8 1108 1003 894 993 1233 1117 1004 1110
8 992 895 1005 1109 1110 1004 1118 1234
8 1120 1013 1127 1244 1007 907 1015 1121
8 1148 1031 1127 1244 1030 920 1013 1120
8 1121 1015 1129 1245 1011 908 1016 1125
8 1126 1019 1075 1196 1246 1128 1014 1122
8 1246 1128 1014 1122 1123 1017 909 1009
8 1124 1018 1131 1247 1010 910 1017 1123
8 1125 1016 1130 1248 1012 911 1018 1124
8 1127 1020 1137 1254 1015 914 1022 1129
8 1031 921 1032 1149 1127 1020 1137 1254
8 1134 1027 918 1019 1257 1140 1021 1128
8 1257 1140 1021 1128 1131 1024 916 1017
8 1129 1022 1141 1258 1016 915 1023 1130
8 1130 1023 1142 1259 1018 917 1024 1131
8 1261 1144 1025 1132 1133 1026 1079 1199
8 1255 1138 1025 1132 1135 1028 1144 1261
8 1133 1026 918 1019 1262 1145 1027 1134
8 1136 1029 1139 1256 1263 1146 1028 1135
8 1037 928 1041 1155 1148 1031 1149 1275
8 1041 931 1044 1160 1149 1032 1150 1276
8 1151 1039 939 1057 1278 1156 1055 1180
8 1152 1040 926 1033 1279 1159 1039 1151
8 1153 1038 927 1034 1280 1158 1040 1152
8 1281 1157 1042 1154 1153 1038 929 1035
8 1036 930 1042 1154 1155 1041 1160 1282
8 1283 1164 1046 1159 1156 1047 935 1039
8 1165 1048 1164 1283 1053 937 1047 1156
8 1157 1043 933 1038 1284 1161 1045 1158
8 1157 1043 1161 1284 1042 932 1044 1160
8 1040 934 1046 1159 1158 1045 1163 1285
8 1166 1049 1167 1292 1051 936 1048 1165
8 1166 1049 936 1051 1293 1168 1050 1172
8 1051 936 1052 1175 1172 1050 1173 1306
8 1174 1051 1165 1290 1308 1175 1053 1177
8 1053 937 1054 1178 1175 1052 1176 1309
8 1278 1156 1055 1180 1177 1053 1178 1311
8 1055 938 1056 1181 1178 1054 1179 1312
8 1057 939 1058 1183 1180 1055 1181 1314
8 1058 940 1059 1184 1181 1056 1182 1315
8 1060 942 1061 1185 1183 1058 1184 1316
8 1208 1081 1187 1321 1082 964 1063 1188
8 1209 1082 1188 1322 1097 981 1064 1190
8 1188 1063 1189 1323 1064 947 1065 1191
8 1190 1064 1191 1325 1066 948 1067 1193
8 1191 1065 1192 1326 1067 949 1068 1194
8 1067 1193 1069 950 1194 1327 1195 1070
8 1250 1133 1199 1330 1126 1019 1075 1196
8 1198 1077 1014 1122 1331 1200 1075 1196
8 1074 960 1077 1198 1197 1076 1201 1332
8 1085 980 1076 1197 1215 1099 1201 1332
8 1199 1079 1203 1333 1075 962 1080 1200
8 1132 1025 1119 1243 1199 1079 1203 1333
8 1201 1078 963 1077 1334 1202 1080 1200
8 1099 994 1078 1201 1227 1111 1202 1334
8 1343 1207 1081 1208 1210 1083 964 1082
8 1214 1084 1186 1319 1343 1207 1081 1208
8 1345 1210 1082 1209 1225 1100 981 1097
8 1346 1211 1083 1210 1228 1115 999 1100
8 1086 984 1099 1215 1216 1103 1227 1352
8 1087 985 1103 1216 1217 1104 1230 1353
8 1090 988 1104 1217 1219 1106 1231 1354
8 1218 1105 987 1089 1355 1232 1106 1219
8 1091 991 1105 1218 1220 1109 1232 1355
8 1092 992 1109 1220 1221 1110 1234 1356
8 1222 1108 1233 1357 1095 990 1107 1224
8 1222 1108 993 1093 1357 1233 1110 1221
8 1223 1101 989 1096 1358 1229 1107 1224
8 1226 1102 983 1098 1358 1229 1101 1223
8 1226 1102 1228 1359 1098 983 1100 1225
8 1103 995 1111 1227 1230 1112 1235 1360
8 1107 1002 1117 1233 1229 1116 1240 1362
8 1102 1001 1116 1229 1228 1115 1240 1362
8 1104 996 1112 1230 1231 1113 1236 1363
8 1364 1237 1114 1232 1231 1113 997 1106
8 1109 1005 1114 1232 1234 1118 1238 1365
8 1110 1004 1118 1234 1233 1117 1241 1366
8 1242 1374 1255 1138 1119 1243 1132 1025
8 1244 1127 1254 1376 1121 1015 1129 1245
8 1148 1031 1149 1275 1244 1127 1254 1376
8 1245 1129 1258 1377 1125 1016 1130 1248
8 1251 1134 1019 1126 1378 1257 1128 1246
8 1378 1257 1128 1246 1247 1131 1017 1123
8 1248 1130 1259 1379 1124 1018 1131 1247
8 1261 1381 1250 1133 1132 1249 1330 1199
8 1255 1380 1252 1135 1132 1249 1381 1261
8 1250 1133 1019 1126 1382 1262 1134 1251
8 1253 1136 1256 1385 1384 1263 1135 1252
8 1254 1137 1265 1387 1129 1022 1141 1258
8 1149 1032 1150 1276 1254 1137 1265 1387
8 1028 1135 1255 1138 1139 1256 1388 1266
8 1136 1029 1147 1264 1256 1139 1267 1389
8 1390 1268 1140 1257 1259 1142 1024 1131
8 1260 1143 1027 1134 1390 1268 1140 1257
8 1258 1141 1269 1391 1130 1023 1142 1259
8 1262 1145 1027 1134 1393 1271 1143 1260
8 1261 1144 1026 1133 1394 1272 1145 1262
8 1135 1028 1144 1261 1263 1146 1272 1394
8 1136 1029 1146 1263 1264 1147 1273 1395
8 1155 1041 1160 1282 1275 1149 1276 1405
8 1276 1150 1044 1160 1406 1277 1162 1286
8 1408 1283 1159 1279 1278 1156 1039 1151
8 1290 1165 1283 1408 1177 1053 1156 1278
8 1152 1040 1159 1279 1280 1158 1285 1409
8 1281 1157 1038 1153 1410 1284 1158 1280
8 1281 1157 1284 1410 1154 1042 1160 1282
8 1159 1046 1164 1283 1285 1163 1289 1412
8 1292 1167 1289 1412 1165 1048 1164 1283
8 1158 1045 1163 1285 1284 1161 1288 1413
8 1284 1161 1288 1413 1160 1044 1162 1286
8 1291 1166 1292 1418 1174 1051 1165 1290
8 1291 1166 1051 1174 1419 1293 1172 1305
8 1294 1169 1296 1421 1166 1049 1167 1292
8 1293 1168 1050 1172 1422 1295 1171 1303
8 1294 1169 1049 1166 1423 1297 1168 1293
8 1422 1295 1171 1303 1301 1170 1302 1435
8 1172 1050 1173 1306 1303 1171 1304 1438
8 1174 1051 1175 1308 1305 1172 1306 1440
8 1175 1052 1176 1309 1306 1173 1307 1441
8 1177 1053 1178 1311 1308 1175 1309 1443
8 1178 1054 1179 1312 1309 1176 1310 1444
8 1180 1055 1181 1314 1311 1178 1312 1446
8 1056 1181 1312 1179 1182 1315 1447 1313
8 1183 1058 1184 1316 1314 1181 1315 1448
8 1319 1186 1084 1214 1451 1317 1213 1350
8 1319 1186 1318 1453 1208 1081 1187 1321
8 1321 1187 1320 1456 1188 1063 1189 1323
8 1344 1208 1321 1457 1209 1082 1188 1322
8 1322 1188 1323 1458 1190 1064 1191 1325
8 1323 1189 1324 1459 1191 1065 1192 1326
8 1191 1325 1193 1067 1326 1460 1327 1194
8 1242 1374 1243 1119 1328 1462 1335 1204
8 1330 1199 1333 1465 1196 1075 1200 1331
8 1132 1249 1330 1199 1243 1375 1465 1333
8 1332 1201 1077 1198 1466 1334 1200 1331
8 1215 1099 1201 1332 1352 1227 1334 1466
8 1119 1243 1333 1203 1204 1335 1470 1338
8 1333 1203 1338 1470 1200 1080 1202 1334
8 1227 1111 1202 1334 1360 1235 1338 1470
8 1328 1462 1335 1204 1205 1336 1471 1339
8 1337 1206 1340 1472 1464 1329 1205 1336
8 1346 1211 1342 1479 1210 1083 1207 1343
8 1346 1211 1115 1228 1479 1342 1239 1361
8 1348 1212 1084 1214 1479 1342 1207 1343
8 1480 1343 1208 1344 1345 1210 1082 1209
8 1351 1214 1319 1454 1480 1343 1208 1344
8 1481 1346 1210 1345 1359 1228 1100 1225
8 1348 1212 1347 1483 1214 1084 1213 1350
8 1216 1103 1227 1352 1353 1230 1360 1488
8 1217 1104 1230 1353 1354 1231 1363 1489
8 1490 1364 1232 1355 1354 1231 1106 1219
8 1220 1109 1232 1355 1356 1234 1365 1491
8 1221 1110 1234 1356 1357 1233 1366 1492
8 1224 1107 1233 1357 1358 1229 1362 1493
8 1226 1102 1229 1358 1359 1228 1362 1493
8 1230 1112 1235 1360 1363 1236 1367 1496
8 1361 1239 1115 1228 1497 1371 1240 1362
8 1366 1241 1372 1498 1233 1117 1240 1362
8 1364 1237 1113 1231 1499 1368 1236 1363
8 1364 1237 1368 1499 1232 1114 1238 1365
8 1234 1118 1238 1365 1366 1241 1369 1500
8 1507 1373 1242 1374 1388 1266 1138 1255
8 1508 1374 1243 1375 1380 1255 1132 1249
8 1376 1254 1387 1509 1245 1129 1258 1377
8 1275 1149 1276 1405 1376 1254 1387 1509
8 1377 1258 1391 1510 1248 1130 1259 1379
8 1511 1390 1257 1378 1379 1259 1131 1247
8 1383 1260 1134 1251 1511 1390 1257 1378
8 1252 1135 1256 1385 1380 1255 1388 1512
8 1261 1381 1513 1394 1133 1250 1382 1262
8 1135 1252 1384 1263 1261 1381 1513 1394
8 1382 1262 1134 1251 1514 1393 1260 1383
8 1253 1136 1263 1384 1386 1264 1395 1516
8 1253 1136 1264 1386 1385 1256 1389 1517
8 1387 1265 1397 1519 1258 1141 1269 1391
8 1276 1150 1277 1406 1387 1265 1397 1519
8 1256 1139 1267 1389 1388 1266 1398 1520
8 1264 1147 1274 1396 1389 1267 1399 1521
8 1392 1270 1143 1260 1522 1400 1268 1390
8 1390 1268 1142 1259 1522 1400 1269 1391
8 1392 1270 1401 1523 1260 1143 1271 1393
8 1272 1394 1524 1402 1145 1262 1393 1271
8 1395 1273 1146 1263 1524 1402 1272 1394
8 1273 1395 1264 1147 1403 1526 1396 1274
8 1405 1276 1160 1282 1534 1406 1286 1411
8 1414 1287 1407 1535 1286 1162 1277 1406
8 1279 1159 1283 1408 1409 1285 1412 1537
8 1418 1292 1412 1537 1290 1165 1283 1408
8 1280 1158 1285 1409 1410 1284 1413 1538
8 1410 1284 1413 1538 1282 1160 1286 1411
8 1285 1163 1289 1412 1413 1288 1417 1540
8 1421 1296 1417 1540 1292 1167 1289 1412
8 1414 1287 1162 1286 1541 1416 1288 1413
8 1420 1294 1421 1545 1291 1166 1292 1418
8 1419 1293 1172 1305 1546 1422 1303 1437
8 1420 1294 1166 1291 1547 1423 1293 1419
8 1294 1169 1297 1423 1421 1296 1425 1548
8 1423 1297 1168 1293 1549 1424 1295 1422
8 1301 1170 1298 1427 1422 1295 1424 1549
8 1432 1300 1428 1554 1301 1170 1298 1427
8 1431 1299 1428 1554 1560 1430 1300 1432
8 1563 1433 1300 1432 1435 1302 1170 1301
8 1546 1422 1303 1437 1434 1301 1435 1565
8 1303 1171 1304 1438 1435 1302 1436 1566
8 1305 1172 1306 1440 1437 1303 1438 1568
8 1306 1173 1307 1441 1438 1304 1439 1569
8 1308 1175 1309 1443 1440 1306 1441 1571
8 1309 1176 1310 1444 1441 1307 1442 1572
8 1311 1178 1312 1446 1443 1309 1444 1574
8 1179 1312 1444 1310 1313 1447 1575 1445
8 1314 1181 1315 1448 1446 1312 1447 1576
8 1350 1213 1349 1486 1451 1317 1449 1579
8 1451 1317 1450 1581 1319 1186 1318 1453
8 1454 1319 1214 1351 1582 1451 1350 1487
8 1453 1318 1452 1584 1321 1187 1320 1456
8 1454 1319 1453 1585 1344 1208 1321 1457
8 1456 1320 1455 1586 1323 1189 1324 1459
8 1457 1321 1456 1587 1322 1188 1323 1458
8 1458 1323 1459 1588 1325 1191 1326 1460
8 1205 1336 1464 1329 1328 1462 1590 1461
8 1507 1373 1461 1590 1374 1242 1328 1462
8 1508 1374 1462 1591 1375 1243 1335 1467
8 1337 1206 1329 1464 1473 1341 1463 1594
8 1375 1243 1335 1467 1465 1333 1470 1596
8 1465 1333 1470 1596 1331 1200 1334 1466
8 1352 1227 1334 1466 1488 1360 1470 1596
8 1591 1462 1336 1468 1467 1335 1471 1597
8 1469 1337 1472 1598 1595 1464 1336 1468
8 1471 1339 1474 1600 1335 1204 1338 1470
8 1600 1474 1367 1496 1470 1338 1235 1360
8 1336 1205 1340 1472 1471 1339 1475 1601
8 1337 1206 1341 1473 1472 1340 1476 1602
8 1495 1370 1478 1609 1361 1239 1342 1479
8 1348 1212 1342 1479 1483 1347 1478 1609
8 1481 1346 1479 1610 1345 1210 1343 1480
8 1481 1346 1228 1359 1610 1479 1361 1494
8 1484 1348 1214 1351 1610 1479 1343 1480
8 1483 1347 1482 1612 1350 1213 1349 1486
8 1484 1348 1483 1613 1351 1214 1350 1487
8 1353 1230 1360 1488 1489 1363 1496 1616
8 1490 1364 1231 1354 1617 1499 1363 1489
8 1490 1364 1499 1617 1355 1232 1365 1491
8 1356 1234 1365 1491 1492 1366 1500 1619
8 1492 1366 1498 1620 1357 1233 1362 1493
8 1494 1361 1228 1359 1621 1497 1362 1493
8 1495 1370 1239 1361 1622 1504 1371 1497
8 1363 1236 1367 1496 1499 1368 1501 1623
8 1497 1371 1240 1362 1624 1505 1372 1498
8 1625 1503 1372 1498 1500 1369 1241 1366
8 1365 1238 1368 1499 1500 1369 1502 1626
8 1520 1398 1506 1633 1388 1266 1373 1507
8 1634 1507 1374 1508 1512 1388 1255 1380
8 1509 1387 1519 1635 1377 1258 1391 1510
8 1405 1276 1406 1534 1509 1387 1519 1635
8 1515 1392 1260 1383 1636 1522 1390 1511
8 1511 1390 1259 1379 1636 1522 1391 1510
8 1385 1256 1389 1517 1512 1388 1520 1637
8 1513 1394 1262 1382 1638 1524 1393 1514
8 1395 1516 1638 1524 1263 1384 1513 1394
8 1515 1392 1523 1639 1383 1260 1393 1514
8 1516 1395 1526 1640 1386 1264 1396 1518
8 1386 1264 1396 1518 1517 1389 1521 1641
8 1519 1397 1527 1643 1391 1269 1400 1522
8 1535 1407 1527 1643 1406 1277 1397 1519
8 1389 1267 1399 1521 1520 1398 1528 1644
8 1645 1529 1399 1521 1525 1404 1274 1396
8 1392 1270 1400 1522 1523 1401 1531 1646
8 1524 1402 1271 1393 1648 1532 1401 1523
8 1403 1526 1648 1532 1273 1395 1524 1402
8 1525 1404 1274 1396 1649 1533 1403 1526
8 1539 1414 1535 1657 1411 1286 1406 1534
8 1542 1415 1536 1658 1414 1287 1407 1535
8 1409 1285 1412 1537 1538 1413 1540 1660
8 1545 1421 1540 1660 1418 1292 1412 1537
8 1539 1414 1286 1411 1661 1541 1413 1538
8 1540 1417 1544 1663 1413 1288 1416 1541
8 1421 1296 1425 1548 1540 1417 1544 1663
8 1542 1415 1287 1414 1664 1543 1416 1541
8 1420 1294 1423 1547 1545 1421 1548 1666
8 1547 1423 1293 1419 1667 1549 1422 1546
8 1434 1301 1427 1553 1546 1422 1549 1667
8 1423 1297 1424 1549 1548 1425 1550 1668
8 1551 1426 1550 1668 1427 1298 1424 1549
8 1551 1426 1298 1427 1671 1552 1428 1554
8 1562 1432 1554 1674 1434 1301 1427 1553
8 1431 1299 1429 1558 1554 1428 1555 1675
8 1431 1299 1430 1560 1558 1429 1557 1680
8 1560 1430 1300 1432 1683 1559 1433 1563
8 1561 1431 1554 1674 1684 1560 1432 1562
8 1685 1563 1432 1562 1565 1435 1301 1434
8 1435 1302 1436 1566 1563 1433 1564 1686
8 1437 1303 1438 1568 1565 1435 1566 1688
8 1438 1304 1439 1569 1566 1436 1567 1689
8 1440 1306 1441 1571 1568 1438 1569 1691
8 1441 1307 1442 1572 1569 1439 1570 1692
8 1443 1309 1444 1574 1571 1441 1572 1694
8 1310 1444 1572 1442 1445 1575 1695 1573
8 1446 1312 1447 1576 1574 1444 1575 1696
8 1486 1349 1485 1614 1579 1449 1577 1699
8 1451 1317 1449 1579 1581 1450 1578 1701
8 1487 1350 1486 1615 1582 1451 1579 1702
8 1581 1450 1580 1704 1453 1318 1452 1584
8 1582 1451 1581 1705 1454 1319 1453 1585
8 1584 1452 1583 1706 1456 1320 1455 1586
8 1585 1453 1584 1707 1457 1321 1456 1587
8 1587 1456 1586 1708 1458 1323 1459 1588
8 1633 1506 1589 1710 1507 1373 1461 1590
8 1464 1329 1461 1590 1594 1463 1589 1710
8 1468 1336 1462 1591 1595 1464 1590 1711
8 1634 1507 1590 1711 1508 1374 1462 1591
8 1473 1341 1463 1594 1603 1477 1593 1716
8 1469 1337 1464 1595 1599 1473 1594 1717
8 1471 1597 1467 1335 1600 1718 1596 1470
8 1718 1600 1496 1616 1596 1470 1360 1488
8 1336 1468 1597 1471 1472 1598 1719 1601
8 1469 1337 1473 1599 1598 1472 1602 1720
8 1722 1604 1501 1623 1600 1474 1367 1496
8 1475 1601 1471 1339 1604 1722 1600 1474
8 1602 1476 1605 1723 1472 1340 1475 1601
8 1476 1602 1724 1606 1341 1473 1603 1477
8 1483 1347 1478 1609 1612 1482 1608 1731
8 1495 1370 1504 1622 1609 1478 1608 1731
8 1618 1495 1609 1732 1494 1361 1479 1610
8 1484 1348 1479 1610 1613 1483 1609 1732
8 1486 1349 1482 1612 1614 1485 1611 1733
8 1613 1483 1612 1734 1487 1350 1486 1615
8 1489 1363 1496 1616 1617 1499 1623 1736
8 1491 1365 1499 1617 1619 1500 1626 1737
8 1618 1495 1361 1494 1738 1622 1497 1621
8 1739 1625 1498 1620 1619 1500 1366 1492
8 1621 1497 1362 1493 1740 1624 1498 1620
8 1742 1631 1504 1622 1624 1505 1371 1497
8 1743 1628 1502 1626 1623 1501 1368 1499
8 1744 1630 1505 1624 1625 1503 1372 1498
8 1745 1629 1503 1625 1626 1502 1369 1500
8 1520 1398 1528 1644 1633 1506 1632 1751
8 1637 1520 1633 1752 1512 1388 1507 1634
8 1635 1519 1643 1753 1510 1391 1522 1636
8 1657 1535 1643 1753 1534 1406 1519 1635
8 1515 1392 1522 1636 1639 1523 1646 1754
8 1517 1389 1521 1641 1637 1520 1644 1755
8 1524 1638 1756 1648 1393 1514 1639 1523
8 1640 1526 1395 1516 1756 1648 1524 1638
8 1642 1525 1396 1518 1757 1649 1526 1640
8 1758 1645 1521 1641 1642 1525 1396 1518
8 1646 1531 1400 1522 1760 1650 1527 1643
8 1535 1407 1536 1658 1643 1527 1650 1760
8 1521 1399 1529 1645 1644 1528 1651 1761
8 1647 1530 1652 1762 1525 1404 1529 1645
8 1401 1523 1648 1532 1531 1646 1763 1655
8 1525 1404 1533 1649 1647 1530 1654 1765
8 1533 1649 1766 1656 1403 1526 1648 1532
8 1662 1542 1658 1774 1539 1414 1535 1657
8 1542 1415 1543 1664 1658 1536 1659 1775
8 1660 1540 1663 1777 1538 1413 1541 1661
8 1545 1421 1548 1666 1660 1540 1663 1777
8 1662 1542 1414 1539 1778 1664 1541 1661
8 1664 1543 1416 1541 1779 1665 1544 1663
8 1548 1425 1550 1668 1663 1544 1665 1779
8 1547 1423 1549 1667 1666 1548 1668 1781
8 1670 1551 1668 1781 1553 1427 1549 1667
8 1551 1426 1552 1671 1668 1550 1669 1782
8 1670 1551 1427 1553 1784 1671 1554 1674
8 1675 1555 1672 1785 1554 1428 1552 1671
8 1678 1556 1673 1789 1558 1429 1555 1675
8 1561 1431 1558 1681 1674 1554 1675 1790
8 1794 1677 1556 1678 1680 1557 1429 1558
8 1560 1430 1559 1683 1680 1557 1679 1797
8 1561 1431 1560 1684 1681 1558 1680 1798
8 1563 1433 1564 1686 1683 1559 1682 1800
8 1684 1560 1432 1562 1801 1683 1563 1685
8 1565 1435 1566 1688 1685 1563 1686 1802
8 1566 1436 1567 1689 1686 1564 1687 1803
8 1568 1438 1569 1691 1688 1566 1689 1805
8 1569 1439 1570 1692 1689 1567 1690 1806
8 1571 1441 1572 1694 1691 1569 1692 1808
8 1442 1572 1692 1570 1573 1695 1809 1693
8 1574 1444 1575 1696 1694 1572 1695 1810
8 1614 1485 1592 1712 1699 1577 1697 1813
8 1579 1449 1577 1699 1701 1578 1698 1815
8 1615 1486 1614 1735 1702 1579 1699 1816
8 1701 1578 1700 1818 1581 1450 1580 1704
8 1582 1451 1579 1702 1705 1581 1701 1819
8 1704 1580 1703 1820 1584 1452 1583 1706
8 1705 1581 1704 1821 1585 1453 1584 1707
8 1707 1584 1706 1822 1587 1456 1586 1708
8 1710 1589 1506 1633 1824 1709 1632 1751
8 1594 1463 1589 1710 1716 1593 1709 1824
8 1752 1633 1710 1825 1634 1507 1590 1711
8 1595 1464 1590 1711 1717 1594 1710 1825
8 1830 1714 1592 1712 1733 1611 1485 1614
8 1603 1477 1593 1716 1725 1607 1715 1834
8 1599 1473 1594 1717 1721 1603 1716 1835
8 1837 1722 1623 1736 1718 1600 1496 1616
8 1719 1601 1722 1837 1597 1471 1600 1718
8 1602 1720 1598 1472 1723 1838 1719 1601
8 1720 1602 1473 1599 1839 1724 1603 1721
8 1723 1605 1726 1840 1601 1475 1604 1722
8 1840 1726 1628 1743 1722 1604 1501 1623
8 1724 1606 1727 1841 1602 1476 1605 1723
8 1725 1607 1728 1842 1603 1477 1606 1724
8 1612 1482 1608 1731 1733 1611 1730 1849
8 1741 1627 1730 1849 1622 1504 1608 1731
8 1613 1483 1609 1732 1734 1612 1731 1850
8 1618 1495 1622 1738 1732 1609 1731 1850
8 1615 1486 1612 1734 1735 1614 1733 1851
8 1852 1743 1626 1737 1736 1623 1499 1617
8 1853 1745 1625 1739 1737 1626 1500 1619
8 1855 1742 1622 1738 1740 1624 1497 1621
8 1856 1744 1624 1740 1739 1625 1498 1620
8 1741 1627 1504 1622 1857 1746 1631 1742
8 1742 1631 1505 1624 1858 1749 1630 1744
8 1859 1747 1629 1745 1743 1628 1502 1626
8 1860 1748 1630 1744 1745 1629 1503 1625
8 1644 1528 1651 1761 1751 1632 1750 1865
8 1637 1520 1644 1755 1752 1633 1751 1866
8 1754 1646 1522 1636 1867 1760 1643 1753
8 1657 1535 1658 1774 1753 1643 1760 1867
8 1639 1523 1646 1754 1756 1648 1763 1868
8 1641 1521 1645 1758 1755 1644 1761 1869
8 1757 1649 1526 1640 1870 1766 1648 1756
8 1642 1525 1649 1757 1759 1647 1765 1871
8 1759 1647 1762 1872 1642 1525 1645 1758
8 1760 1650 1767 1874 1646 1531 1655 1763
8 1658 1536 1659 1775 1760 1650 1767 1874
8 1762 1652 1768 1875 1645 1529 1651 1761
8 1764 1653 1769 1876 1647 1530 1652 1762
8 1656 1766 1877 1773 1532 1648 1763 1655
8 1771 1879 1765 1654 1653 1764 1647 1530
8 1533 1649 1765 1654 1656 1766 1880 1772
8 1662 1542 1664 1778 1774 1658 1775 1887
8 1664 1543 1665 1779 1775 1659 1776 1888
8 1778 1664 1541 1661 1890 1779 1663 1777
8 1666 1548 1668 1781 1777 1663 1779 1890
8 1782 1669 1780 1891 1668 1550 1665 1779
8 1670 1551 1671 1784 1781 1668 1782 1893
8 1671 1552 1672 1785 1782 1669 1783 1894
8 1790 1675 1785 1896 1674 1554 1671 1784
8 1675 1555 1673 1789 1785 1672 1786 1897
8 1792 1676 1788 1903 1678 1556 1673 1789
8 1795 1678 1789 1904 1681 1558 1675 1790
8 1792 1676 1556 1678 1906 1791 1677 1794
8 1680 1557 1679 1797 1794 1677 1793 1909
8 1910 1794 1678 1795 1798 1680 1558 1681
8 1683 1559 1682 1800 1797 1679 1796 1912
8 1684 1560 1683 1801 1798 1680 1797 1913
8 1686 1564 1687 1803 1800 1682 1799 1915
8 1685 1563 1686 1802 1801 1683 1800 1916
8 1688 1566 1689 1805 1802 1686 1803 1917
8 1689 1567 1690 1806 1803 1687 1804 1918
8 1691 1569 1692 1808 1805 1689 1806 1920
8 1692 1570 1693 1809 1806 1690 1807 1921
8 1694 1572 1695 1810 1808 1692 1809 1922
8 1829 1713 1811 1926 1712 1592 1697 1813
8 1813 1697 1812 1928 1699 1577 1698 1815
8 1735 1614 1712 1828 1816 1699 1813 1929
8 1815 1698 1814 1931 1701 1578 1700 1818
8 1702 1579 1699 1816 1819 1701 1815 1932
8 1818 1700 1817 1933 1704 1580 1703 1820
8 1819 1701 1818 1934 1705 1581 1704 1821
8 1821 1704 1820 1935 1707 1584 1706 1822
8 1824 1709 1632 1751 1937 1823 1750 1865
8 1716 1593 1709 1824 1834 1715 1823 1937
8 1825 1710 1633 1752 1938 1824 1751 1866
8 1717 1594 1710 1825 1835 1716 1824 1938
8 1945 1830 1712 1828 1851 1733 1614 1735
8 1830 1714 1831 1946 1712 1592 1713 1829
8 1947 1832 1714 1830 1849 1730 1611 1733
8 1843 1729 1607 1725 1950 1833 1715 1834
8 1721 1603 1716 1835 1836 1725 1834 1951
8 1836 1725 1842 1953 1721 1603 1724 1839
8 1723 1838 1719 1601 1840 1954 1837 1722
8 1954 1840 1743 1852 1837 1722 1623 1736
8 1724 1839 1720 1602 1841 1955 1838 1723
8 1841 1727 1844 1956 1723 1605 1726 1840
8 1956 1844 1747 1859 1840 1726 1628 1743
8 1728 1842 1724 1606 1845 1957 1841 1727
8 1725 1607 1729 1843 1842 1728 1846 1958
8 1741 1627 1746 1857 1849 1730 1848 1965
8 1734 1612 1731 1850 1851 1733 1849 1966
8 1854 1741 1849 1966 1738 1622 1731 1850
8 1967 1859 1745 1853 1852 1743 1626 1737
8 1968 1860 1744 1856 1853 1745 1625 1739
8 1854 1741 1622 1738 1969 1857 1742 1855
8 1855 1742 1624 1740 1970 1858 1744 1856
8 1857 1746 1631 1742 1971 1861 1749 1858
8 1858 1749 1630 1744 1972 1863 1748 1860
8 1859 1747 1862 1973 1745 1629 1748 1860
8 1875 1768 1864 1977 1761 1651 1750 1865
8 1755 1644 1761 1869 1866 1751 1865 1978
8 1867 1760 1874 1979 1754 1646 1763 1868
8 1774 1658 1775 1887 1867 1760 1874 1979
8 1870 1766 1648 1756 1980 1877 1763 1868
8 1872 1762 1875 1981 1758 1645 1761 1869
8 1757 1649 1766 1870 1871 1765 1880 1982
8 1983 1879 1764 1873 1871 1765 1647 1759
8 1873 1764 1876 1984 1759 1647 1762 1872
8 1877 1773 1655 1763 1986 1881 1767 1874
8 1775 1659 1776 1888 1874 1767 1881 1986
8 1876 1769 1882 1987 1762 1652 1768 1875
8 1878 1770 1883 1988 1764 1653 1769 1876
8 1880 1772 1656 1766 1989 1886 1773 1877
8 1878 1770 1653 1764 1990 1884 1771 1879
8 1765 1654 1772 1880 1879 1771 1885 1991
8 1778 1664 1779 1890 1887 1775 1888 1997
8 1998 1889 1776 1888 1891 1780 1665 1779
8 1893 1782 1891 2000 1781 1668 1779 1890
8 1894 1783 1892 2001 1782 1669 1780 1891
8 1784 1671 1785 1896 1893 1782 1894 2003
8 1897 1786 1895 2004 1785 1672 1783 1894
8 1790 1675 1789 1904 1896 1785 1897 2006
8 1901 1787 1898 2007 1789 1673 1786 1897
8 1903 1788 1900 2013 1789 1673 1787 1901
8 1792 1676 1791 1906 1903 1788 1902 2016
8 1907 1792 1903 2017 1795 1678 1789 1904
8 1906 1791 1677 1794 2019 1905 1793 1909
8 1907 1792 1678 1795 2020 1906 1794 1910
8 1797 1679 1796 1912 1909 1793 1908 2022
8 1798 1680 1797 1913 1910 1794 1909 2023
8 1800 1682 1799 1915 1912 1796 1911 2025
8 1801 1683 1800 1916 1913 1797 1912 2026
8 1803 1687 1804 1918 1915 1799 1914 2028
8 1802 1686 1803 1917 1916 1800 1915 2029
8 1805 1689 1806 1920 1917 1803 1918 2030
8 1806 1690 1807 1921 1918 1804 1919 2031
8 1808 1692 1809 1922 1920 1806 1921 2032
8 1939 1826 1924 2037 1829 1713 1811 1926
8 1926 1811 1925 2039 1813 1697 1812 1928
8 1944 1829 1926 2040 1828 1712 1813 1929
8 1928 1812 1927 2042 1815 1698 1814 1931
8 1929 1813 1928 2043 1816 1699 1815 1932
8 1931 1814 1930 2044 1818 1700 1817 1933
8 1932 1815 1931 2045 1819 1701 1818 1934
8 1934 1818 1933 2046 1821 1704 1820 1935
8 2048 1936 1823 1937 1977 1864 1750 1865
8 1950 1833 1715 1834 2048 1936 1823 1937
8 1938 1824 1751 1866 2049 1937 1865 1978
8 1835 1716 1824 1938 1951 1834 1937 2049
8 1939 1826 1713 1829 2053 1942 1831 1946
8 1940 1827 1923 2035 2053 1942 1826 1939
8 1945 1830 1946 2058 1828 1712 1829 1944
8 2059 1947 1830 1945 1966 1849 1733 1851
8 1947 1832 1730 1849 2060 1948 1848 1965
8 1947 1832 1948 2060 1830 1714 1831 1946
8 1959 1847 1729 1843 2063 1949 1833 1950
8 1952 1843 1725 1836 2064 1950 1834 1951
8 1836 1725 1843 1952 1953 1842 1958 2066
8 1953 1842 1957 2067 1839 1724 1841 1955
8 1841 1955 1838 1723 1956 2068 1954 1840
8 2068 1956 1859 1967 1954 1840 1743 1852
8 1956 1844 1960 2069 1859 1747 1862 1973
8 1845 1957 1841 1727 1960 2069 1956 1844
8 1728 1842 1957 1845 1846 1958 2071 1961
8 1962 2072 1959 1847 1846 1958 1843 1729
8 1971 1861 1964 2077 1857 1746 1848 1965
8 1854 1741 1857 1969 1966 1849 1965 2078
8 1967 1859 1973 2079 1853 1745 1860 1968
8 1970 1858 1744 1856 2080 1972 1860 1968
8 1969 1857 1742 1855 2081 1971 1858 1970
8 1971 1861 1749 1858 2082 1974 1863 1972
8 1973 1862 1975 2083 1860 1748 1863 1972
8 1987 1882 1976 2086 1875 1768 1864 1977
8 1981 1875 1977 2087 1869 1761 1865 1978
8 1980 1877 1763 1868 2088 1986 1874 1979
8 1887 1775 1888 1997 1979 1874 1986 2088
8 1880 1982 2089 1989 1766 1870 1980 1877
8 1984 1876 1987 2090 1872 1762 1875 1981
8 1765 1871 1983 1879 1880 1982 2091 1991
8 1985 1878 1764 1873 2092 1990 1879 1983
8 1985 1878 1988 2093 1873 1764 1876 1984
8 2094 1992 1881 1986 1998 1889 1776 1888
8 1986 1881 1992 2094 1877 1773 1886 1989
8 1988 1883 1993 2095 1876 1769 1882 1987
8 1878 1770 1884 1990 1988 1883 1994 2096
8 1991 1885 1772 1880 2097 1996 1886 1989
8 1879 1771 1885 1991 1990 1884 1995 2098
8 2103 1998 1888 1997 2000 1891 1779 1890
8 2104 1999 1889 1998 2001 1892 1780 1891
8 2003 1894 2001 2106 1893 1782 1891 2000
8 2004 1895 2002 2107 1894 1783 1892 2001
8 2006 1897 2004 2109 1896 1785 1894 2003
8 2007 1898 2005 2110 1897 1786 1895 2004
8 2014 1901 2007 2112 1904 1789 1897 2006
8 2011 1899 2008 2113 1901 1787 1898 2007
8 2119 2010 1899 2011 2013 1900 1787 1901
8 2016 1902 2012 2122 1903 1788 1900 2013
8 2017 1903 2013 2123 1904 1789 1901 2014
8 1906 1791 1905 2019 2016 1902 2015 2125
8 1907 1792 1906 2020 2017 1903 2016 2126
8 1909 1793 1908 2022 2019 1905 2018 2128
8 2020 1906 1794 1910 2129 2019 1909 2023
8 1912 1796 1911 2025 2022 1908 2021 2131
8 1913 1797 1912 2026 2023 1909 2022 2132
8 1915 1799 1914 2028 2025 1911 2024 2134
8 1916 1800 1915 2029 2026 1912 2025 2135
8 1918 1804 1919 2031 2028 1914 2027 2136
8 1917 1803 1918 2030 2029 1915 2028 2137
8 1920 1806 1921 2032 2030 1918 2031 2138
8 1940 1827 1941 2054 2035 1923 2033 2140
8 2035 1923 2034 2143 1939 1826 1924 2037
8 2037 1924 2036 2146 1926 1811 1925 2039
8 2051 1939 2037 2147 1944 1829 1926 2040
8 2039 1925 2038 2149 1928 1812 1927 2042
8 2040 1926 2039 2150 1929 1813 1928 2043
8 2042 1927 2041 2151 1931 1814 1930 2044
8 2043 1928 2042 2152 1932 1815 1931 2045
8 2045 1931 2044 2153 1934 1818 1933 2046
8 2155 2047 1936 2048 2086 1976 1864 1977
8 2063 1949 1833 1950 2155 2047 1936 2048
8 2156 2048 1937 2049 2087 1977 1865 1978
8 2064 1950 1834 1951 2156 2048 1937 2049
8 2051 1939 1829 1944 2160 2053 1946 2058
8 2052 1940 2035 2144 2160 2053 1939 2051
8 2053 1942 1831 1946 2163 2057 1948 2060
8 2055 1943 1827 1940 2163 2057 1942 2053
8 2055 1943 2056 2164 1940 1827 1941 2054
8 2059 1947 1849 1966 2167 2060 1965 2078
8 2059 1947 2060 2167 1945 1830 1946 2058
8 2077 1964 2061 2168 1965 1848 1948 2060
8 2070 1963 1847 1959 2170 2062 1949 2063
8 2065 1959 1843 1952 2171 2063 1950 2064
8 2173 2072 1958 2066 2065 1959 1843 1952
8 1953 1842 1958 2066 2067 1957 2071 2174
8 2068 1956 2069 2175 1967 1859 1973 2079
8 2067 1957 2069 2175 1955 1841 1956 2068
8 1845 1957 2069 1960 1961 2071 2176 2073
8 2069 1960 2073 2176 1973 1862 1975 2083
8 2070 1963 2075 2177 1959 1847 1962 2072
8 1846 1958 2071 1961 1962 2072 2178 2074
8 2077 1964 1861 1971 2182 2076 1974 2082
8 2081 1971 2077 2183 1969 1857 1965 2078
8 2079 1973 2083 2184 1968 1860 1972 2080
8 2081 1971 1858 1970 2185 2082 1972 2080
8 2083 1975 2084 2186 1972 1863 1974 2082
8 2086 1976 1882 1987 2189 2085 1993 2095
8 2090 1987 2086 2190 1981 1875 1977 2087
8 2191 2094 1986 2088 2103 1998 1888 1997
8 2088 1986 2094 2191 1980 1877 1989 2089
8 1991 2091 2192 2097 1880 1982 2089 1989
8 2093 1988 2095 2193 1984 1876 1987 2090
8 1879 1983 2092 1990 1991 2091 2194 2098
8 1985 1878 1990 2092 2093 1988 2096 2195
8 2097 1996 1886 1989 2196 2099 1992 2094
8 2196 2099 1992 2094 2104 1999 1889 1998
8 1994 2096 1988 1883 2100 2197 2095 1993
8 2096 1994 1884 1990 2198 2101 1995 2098
8 1995 2098 2199 2102 1885 1991 2097 1996
8 2203 2104 1998 2103 2106 2001 1891 2000
8 2107 2002 2105 2204 2001 1892 1999 2104
8 2109 2004 2107 2206 2003 1894 2001 2106
8 2110 2005 2108 2207 2004 1895 2002 2107
8 2112 2007 2110 2209 2006 1897 2004 2109
8 2113 2008 2111 2210 2007 1898 2005 2110
8 2120 2011 2113 2212 2014 1901 2007 2112
8 2117 2009 2114 2213 2011 1899 2008 2113
8 2219 2116 2009 2117 2119 2010 1899 2011
8 2222 2118 2010 2119 2122 2012 1900 2013
8 2223 2119 2011 2120 2123 2013 1901 2014
8 2016 1902 2015 2125 2122 2012 2121 2225
8 2126 2016 2122 2226 2017 1903 2013 2123
8 2019 1905 2018 2128 2125 2015 2124 2228
8 2020 1906 2019 2129 2126 2016 2125 2229
8 2022 1908 2021 2131 2128 2018 2127 2231
8 2023 1909 2022 2132 2129 2019 2128 2232
8 2025 1911 2024 2134 2131 2021 2130 2234
8 2026 1912 2025 2135 2132 2022 2131 2235
8 1914 2028 2134 2024 2027 2136 2236 2133
8 2029 1915 2028 2137 2135 2025 2134 2237
8 2030 1918 2031 2138 2137 2028 2136 2238
8 2157 2050 2139 2240 2054 1941 2033 2140
8 2052 1940 2054 2161 2144 2035 2140 2242
8 2140 2033 2141 2243 2035 1923 2034 2143
8 2143 2034 2142 2246 2037 1924 2036 2146
8 2144 2035 2143 2247 2051 1939 2037 2147
8 2146 2036 2145 2249 2039 1925 2038 2149
8 2147 2037 2146 2250 2040 1926 2039 2150
8 2149 2038 2148 2251 2042 1927 2041 2151
8 2150 2039 2149 2252 2043 1928 2042 2152
8 2152 2042 2151 2253 2045 1931 2044 2153
8 2255 2154 2047 2155 2189 2085 1976 2086
8 2170 2062 1949 2063 2255 2154 2047 2155
8 2256 2155 2048 2156 2190 2086 1977 2087
8 2171 2063 1950 2064 2256 2155 2048 2156
8 2258 2159 2050 2157 2164 2056 1941 2054
8 2160 2053 1946 2058 2262 2163 2060 2167
8 2162 2055 1940 2052 2262 2163 2053 2160
8 2162 2055 2164 2263 2052 1940 2054 2161
8 2163 2057 1948 2060 2264 2165 2061 2168
8 2055 1943 2057 2163 2164 2056 2165 2264
8 2182 2076 2166 2268 2077 1964 2061 2168
8 2183 2077 2168 2269 2078 1965 2060 2167
8 2070 1963 2062 2170 2177 2075 2169 2271
8 2172 2070 1959 2065 2272 2170 2063 2171
8 2172 2070 2177 2273 2065 1959 2072 2173
8 2066 1958 2072 2173 2174 2071 2178 2274
8 2067 1957 2071 2174 2175 2069 2176 2275
8 2175 2069 2176 2275 2079 1973 2083 2184
8 2071 1961 2074 2178 2176 2073 2179 2276
8 2176 2073 2179 2276 2083 1975 2084 2186
8 2072 1962 2075 2177 2178 2074 2180 2277
8 2182 2076 1974 2082 2280 2181 2084 2186
8 2183 2077 1971 2081 2281 2182 2082 2185
8 2184 2083 2186 2282 2080 1972 2082 2185
8 2189 2085 1993 2095 2285 2188 2100 2197
8 2190 2086 1987 2090 2286 2189 2095 2193
8 2192 2097 1989 2089 2287 2196 2094 2191
8 2287 2196 2094 2191 2203 2104 1998 2103
8 2194 2098 1991 2091 2288 2199 2097 2192
8 2195 2096 2197 2289 2093 1988 2095 2193
8 2096 2195 2290 2198 1990 2092 2194 2098
8 2097 1996 2099 2196 2199 2102 2200 2291
8 2196 2099 1999 2104 2291 2200 2105 2204
8 2100 2197 2292 2201 1994 2096 2198 2101
8 1995 2098 2198 2101 2102 2199 2293 2202
8 2206 2107 2204 2296 2106 2001 2104 2203
8 2207 2108 2205 2297 2107 2002 2105 2204
8 2209 2110 2207 2299 2109 2004 2107 2206
8 2210 2111 2208 2300 2110 2005 2108 2207
8 2212 2113 2210 2302 2112 2007 2110 2209
8 2213 2114 2211 2303 2113 2008 2111 2210
8 2220 2117 2213 2305 2120 2011 2113 2212
8 2216 2115 2214 2306 2117 2009 2114 2213
8 2216 2115 2009 2117 2311 2217 2116 2219
8 2219 2116 2010 2119 2314 2218 2118 2222
8 2315 2219 2117 2220 2223 2119 2011 2120
8 2122 2012 2121 2225 2222 2118 2221 2317
8 2318 2222 2119 2223 2226 2122 2013 2123
8 2125 2015 2124 2228 2225 2121 2224 2320
8 2126 2016 2125 2229 2226 2122 2225 2321
8 2128 2018 2127 2231 2228 2124 2227 2323
8 2129 2019 2128 2232 2229 2125 2228 2324
8 2131 2021 2130 2234 2231 2127 2230 2326
8 2132 2022 2131 2235 2232 2128 2231 2327
8 2134 2024 2133 2236 2234 2130 2233 2328
8 2135 2025 2134 2237 2235 2131 2234 2329
8 2137 2028 2136 2238 2237 2134 2236 2330
8 2157 2050 2158 2259 2240 2139 2239 2332
8 2257 2157 2240 2334 2161 2054 2140 2242
8 2240 2139 2241 2335 2140 2033 2141 2243
8 2242 2140 2243 2337 2144 2035 2143 2247
8 2243 2141 2244 2338 2143 2034 2142 2246
8 2246 2142 2245 2341 2146 2036 2145 2249
8 2247 2143 2246 2342 2147 2037 2146 2250
8 2249 2145 2248 2343 2149 2038 2148 2251
8 2250 2146 2249 2344 2150 2039 2149 2252
8 2252 2149 2251 2345 2152 2042 2151 2253
8 2169 2271 2347 2254 2062 2170 2255 2154
8 2189 2085 2188 2285 2255 2154 2254 2347
8 2348 2255 2155 2256 2286 2189 2086 2190
8 2272 2170 2063 2171 2348 2255 2155 2256
8 2349 2258 2157 2257 2263 2164 2054 2161
8 2258 2159 2261 2351 2157 2050 2158 2259
8 2258 2159 2056 2164 2351 2261 2165 2264
8 2262 2163 2060 2167 2355 2264 2168 2269
8 2162 2055 2163 2262 2263 2164 2264 2355
8 2357 2266 2165 2264 2268 2166 2061 2168
8 2268 2166 2076 2182 2361 2267 2181 2280
8 2281 2182 2268 2362 2183 2077 2168 2269
8 2271 2169 2270 2364 2177 2075 2180 2277
8 2172 2070 2170 2272 2273 2177 2271 2365
8 2072 2173 2274 2178 2177 2273 2366 2277
8 2071 2174 2275 2176 2178 2274 2367 2276
8 2275 2176 2276 2367 2184 2083 2186 2282
8 2283 2187 2084 2186 2368 2278 2179 2276
8 2178 2074 2180 2277 2276 2179 2278 2368
8 2283 2187 2279 2370 2186 2084 2181 2280
8 2281 2182 2082 2185 2371 2280 2186 2282
8 2188 2285 2374 2284 2100 2197 2292 2201
8 2286 2189 2095 2193 2375 2285 2197 2289
8 2192 2097 2196 2287 2288 2199 2291 2376
8 2287 2196 2104 2203 2376 2291 2204 2296
8 2194 2098 2199 2288 2290 2198 2293 2377
8 2289 2197 2096 2195 2378 2292 2198 2290
8 2291 2200 2105 2204 2379 2294 2205 2297
8 2199 2102 2200 2291 2293 2202 2294 2379
8 2198 2101 2202 2293 2292 2201 2295 2380
8 2299 2207 2297 2383 2206 2107 2204 2296
8 2300 2208 2298 2384 2207 2108 2205 2297
8 2302 2210 2300 2386 2209 2110 2207 2299
8 2303 2211 2301 2387 2210 2111 2208 2300
8 2305 2213 2303 2389 2212 2113 2210 2302
8 2306 2214 2304 2390 2213 2114 2211 2303
8 2310 2216 2306 2392 2220 2117 2213 2305
8 2308 2215 2307 2393 2216 2115 2214 2306
8 2308 2215 2115 2216 2396 2309 2217 2311
8 2310 2216 2117 2220 2398 2311 2219 2315
8 2311 2217 2116 2219 2399 2312 2218 2314
8 2314 2218 2118 2222 2402 2313 2221 2317
8 2315 2219 2119 2223 2403 2314 2222 2318
8 2225 2121 2224 2320 2317 2221 2316 2405
8 2226 2122 2225 2321 2318 2222 2317 2406
8 2228 2124 2227 2323 2320 2224 2319 2408
8 2229 2125 2228 2324 2321 2225 2320 2409
8 2231 2127 2230 2326 2323 2227 2322 2411
8 2232 2128 2231 2327 2324 2228 2323 2412
8 2234 2130 2233 2328 2326 2230 2325 2413
8 2235 2131 2234 2329 2327 2231 2326 2414
8 2237 2134 2236 2330 2329 2234 2328 2415
8 2259 2158 2260 2352 2332 2239 2331 2417
8 2257 2157 2259 2350 2334 2240 2332 2419
8 2240 2139 2239 2332 2335 2241 2333 2420
8 2334 2240 2335 2422 2242 2140 2243 2337
8 2335 2241 2336 2423 2243 2141 2244 2338
8 2337 2243 2338 2425 2247 2143 2246 2342
8 2338 2244 2339 2426 2246 2142 2245 2341
8 2341 2245 2340 2428 2249 2145 2248 2343
8 2342 2246 2341 2429 2250 2146 2249 2344
8 2344 2249 2343 2430 2252 2149 2251 2345
8 2188 2285 2347 2254 2284 2374 2432 2346
8 2347 2254 2346 2432 2271 2169 2270 2364
8 2365 2271 2170 2272 2433 2347 2255 2348
8 2286 2189 2285 2375 2348 2255 2347 2433
8 2349 2258 2351 2435 2257 2157 2259 2350
8 2349 2258 2164 2263 2435 2351 2264 2355
8 2259 2158 2261 2351 2352 2260 2354 2437
8 2356 2265 2354 2437 2264 2165 2261 2351
8 2441 2357 2264 2355 2362 2268 2168 2269
8 2356 2265 2165 2264 2442 2358 2266 2357
8 2443 2359 2266 2357 2361 2267 2166 2268
8 2370 2279 2360 2446 2280 2181 2267 2361
8 2362 2268 2182 2281 2447 2361 2280 2371
8 2180 2277 2368 2278 2270 2364 2449 2363
8 2271 2365 2273 2177 2364 2450 2366 2277
8 2372 2283 2186 2282 2451 2368 2276 2367
8 2178 2274 2367 2276 2277 2366 2451 2368
8 2283 2187 2278 2368 2370 2279 2369 2452
8 2372 2283 2370 2453 2282 2186 2280 2371
8 2284 2374 2455 2373 2201 2292 2380 2295
8 2375 2285 2197 2289 2456 2374 2292 2378
8 2376 2291 2204 2296 2457 2379 2297 2383
8 2288 2199 2291 2376 2377 2293 2379 2457
8 2198 2290 2378 2292 2293 2377 2458 2380
8 2293 2202 2294 2379 2380 2295 2381 2459
8 2384 2298 2381 2459 2297 2205 2294 2379
8 2386 2300 2384 2463 2299 2207 2297 2383
8 2387 2301 2385 2464 2300 2208 2298 2384
8 2389 2303 2387 2466 2302 2210 2300 2386
8 2390 2304 2388 2467 2303 2211 2301 2387
8 2392 2306 2390 2469 2305 2213 2303 2389
8 2393 2307 2391 2470 2306 2214 2304 2390
8 2395 2308 2393 2472 2310 2216 2306 2392
8 2308 2215 2309 2396 2393 2307 2394 2473
8 2395 2308 2216 2310 2475 2396 2311 2398
8 2396 2309 2217 2311 2476 2397 2312 2399
8 2398 2311 2219 2315 2478 2399 2314 2403
8 2399 2312 2218 2314 2479 2400 2313 2402
8 2317 2221 2316 2405 2402 2313 2401 2482
8 2403 2314 2222 2318 2483 2402 2317 2406
8 2320 2224 2319 2408 2405 2316 2404 2485
8 2321 2225 2320 2409 2406 2317 2405 2486
8 2323 2227 2322 2411 2408 2319 2407 2488
8 2324 2228 2323 2412 2409 2320 2408 2489
8 2326 2230 2325 2413 2411 2322 2410 2490
8 2327 2231 2326 2414 2412 2323 2411 2491
8 2329 2234 2328 2415 2414 2326 2413 2492
8 2417 2331 2260 2352 2494 2416 2353 2438
8 2350 2259 2352 2436 2419 2332 2417 2496
8 2332 2239 2331 2417 2420 2333 2418 2497
8 2334 2240 2332 2419 2422 2335 2420 2499
8 2420 2333 2421 2500 2335 2241 2336 2423
8 2422 2335 2423 2502 2337 2243 2338 2425
8 2423 2336 2424 2503 2338 2244 2339 2426
8 2425 2338 2426 2505 2342 2246 2341 2429
8 2426 2339 2427 2506 2341 2245 2340 2428
8 2429 2341 2428 2507 2344 2249 2343 2430
8 2432 2346 2284 2374 2509 2431 2373 2455
8 2432 2346 2431 2509 2364 2270 2363 2449
8 2375 2285 2374 2456 2433 2347 2432 2510
8 2347 2433 2365 2271 2432 2510 2450 2364
8 2350 2259 2351 2435 2436 2352 2437 2514
8 2440 2356 2437 2514 2355 2264 2351 2435
8 2352 2260 2354 2437 2438 2353 2439 2516
8 2356 2265 2358 2442 2437 2354 2439 2516
8 2440 2356 2264 2355 2518 2442 2357 2441
8 2519 2443 2357 2441 2447 2361 2268 2362
8 2443 2359 2444 2520 2357 2266 2358 2442
8 2443 2359 2267 2361 2520 2444 2360 2446
8 2446 2360 2279 2370 2523 2445 2369 2452
8 2453 2370 2446 2524 2371 2280 2361 2447
8 2449 2363 2448 2525 2368 2278 2369 2452
8 2366 2277 2364 2450 2451 2368 2449 2526
8 2372 2283 2368 2451 2453 2370 2452 2527
8 2455 2373 2295 2380 2529 2454 2382 2460
8 2456 2374 2292 2378 2530 2455 2380 2458
8 2377 2293 2379 2457 2458 2380 2459 2531
8 2463 2384 2459 2531 2383 2297 2379 2457
8 2533 2461 2382 2460 2459 2381 2295 2380
8 2464 2385 2461 2533 2384 2298 2381 2459
8 2466 2387 2464 2537 2386 2300 2384 2463
8 2467 2388 2465 2538 2387 2301 2385 2464
8 2469 2390 2467 2540 2389 2303 2387 2466
8 2470 2391 2468 2541 2390 2304 2388 2467
8 2472 2393 2470 2543 2392 2306 2390 2469
8 2393 2307 2394 2473 2470 2391 2471 2544
8 2395 2308 2396 2475 2472 2393 2473 2546
8 2396 2309 2397 2476 2473 2394 2474 2547
8 2475 2396 2311 2398 2549 2476 2399 2478
8 2476 2397 2312 2399 2550 2477 2400 2479
8 2478 2399 2314 2403 2552 2479 2402 2483
8 2479 2400 2313 2402 2553 2480 2401 2482
8 2405 2316 2404 2485 2482 2401 2481 2556
8 2406 2317 2405 2486 2483 2402 2482 2557
8 2408 2319 2407 2488 2485 2404 2484 2559
8 2409 2320 2408 2489 2486 2405 2485 2560
8 2411 2322 2410 2490 2488 2407 2487 2561
8 2412 2323 2411 2491 2489 2408 2488 2562
8 2414 2326 2413 2492 2491 2411 2490 2563
8 2513 2434 2493 2565 2438 2353 2416 2494
8 2496 2417 2352 2436 2567 2494 2438 2515
8 2494 2416 2495 2568 2417 2331 2418 2497
8 2419 2332 2417 2496 2499 2420 2497 2570
8 2497 2418 2498 2571 2420 2333 2421 2500
8 2499 2420 2500 2573 2422 2335 2423 2502
8 2500 2421 2501 2574 2423 2336 2424 2503
8 2502 2423 2503 2576 2425 2338 2426 2505
8 2503 2424 2504 2577 2426 2339 2427 2506
8 2505 2426 2506 2578 2429 2341 2428 2507
8 2509 2431 2373 2455 2580 2508 2454 2529
8 2509 2431 2508 2580 2449 2363 2448 2525
8 2432 2510 2581 2509 2374 2456 2530 2455
8 2432 2510 2450 2364 2509 2581 2526 2449
8 2583 2511 2434 2513 2516 2439 2353 2438
8 2436 2352 2437 2514 2515 2438 2516 2588
8 2440 2356 2442 2518 2514 2437 2516 2588
8 2442 2358 2444 2520 2516 2439 2517 2589
8 2519 2443 2520 2591 2441 2357 2442 2518
8 2519 2443 2361 2447 2591 2520 2446 2524
8 2446 2360 2445 2523 2520 2444 2521 2592
8 2525 2448 2522 2593 2452 2369 2445 2523
8 2524 2446 2370 2453 2594 2523 2452 2527
8 2526 2449 2525 2595 2451 2368 2452 2527
8 2534 2462 2528 2597 2460 2382 2454 2529
8 2530 2455 2380 2458 2598 2529 2460 2532
8 2599 2533 2460 2532 2531 2459 2380 2458
8 2537 2464 2533 2599 2463 2384 2459 2531
8 2534 2462 2382 2460 2601 2535 2461 2533
8 2538 2465 2535 2601 2464 2385 2461 2533
8 2540 2467 2538 2604 2466 2387 2464 2537
8 2541 2468 2539 2605 2467 2388 2465 2538
8 2543 2470 2541 2607 2469 2390 2467 2540
8 2470 2391 2471 2544 2541 2468 2542 2608
8 2472 2393 2473 2546 2543 2470 2544 2610
8 2473 2394 2474 2547 2544 2471 2545 2611
8 2475 2396 2476 2549 2546 2473 2547 2613
8 2476 2397 2477 2550 2547 2474 2548 2614
8 2549 2476 2399 2478 2616 2550 2479 2552
8 2479 2400 2480 2553 2550 2477 2551 2617
8 2552 2479 2402 2483 2619 2553 2482 2557
8 2482 2401 2481 2556 2553 2480 2554 2620
8 2485 2404 2484 2559 2556 2481 2555 2623
8 2486 2405 2485 2560 2557 2482 2556 2624
8 2488 2407 2487 2561 2559 2484 2558 2625
8 2489 2408 2488 2562 2560 2485 2559 2626
8 2491 2411 2490 2563 2562 2488 2561 2627
8 2513 2434 2512 2585 2565 2493 2564 2630
8 2586 2513 2565 2632 2515 2438 2494 2567
8 2565 2493 2566 2633 2494 2416 2495 2568
8 2567 2494 2568 2635 2496 2417 2497 2570
8 2568 2495 2569 2636 2497 2418 2498 2571
8 2570 2497 2571 2638 2499 2420 2500 2573
8 2571 2498 2572 2639 2500 2421 2501 2574
8 2573 2500 2574 2641 2502 2423 2503 2576
8 2574 2501 2575 2642 2503 2424 2504 2577
8 2576 2503 2577 2643 2505 2426 2506 2578
8 2597 2528 2579 2645 2529 2454 2508 2580
8 2580 2508 2579 2645 2525 2448 2522 2593
8 2581 2509 2455 2530 2646 2580 2529 2598
8 2581 2509 2580 2646 2526 2449 2525 2595
8 2583 2511 2582 2648 2513 2434 2512 2585
8 2583 2511 2439 2516 2648 2582 2517 2589
8 2649 2583 2513 2586 2588 2516 2438 2515
8 2589 2517 2444 2520 2653 2587 2521 2592
8 2518 2442 2520 2591 2588 2516 2589 2654
8 2593 2522 2590 2655 2523 2445 2521 2592
8 2524 2446 2523 2594 2591 2520 2592 2656
8 2595 2525 2593 2657 2527 2452 2523 2594
8 2602 2536 2596 2659 2534 2462 2528 2597
8 2600 2534 2597 2660 2532 2460 2529 2598
8 2600 2534 2460 2532 2661 2601 2533 2599
8 2604 2538 2601 2661 2537 2464 2533 2599
8 2602 2536 2462 2534 2663 2603 2535 2601
8 2601 2535 2465 2538 2663 2603 2539 2605
8 2607 2541 2605 2665 2540 2467 2538 2604
8 2608 2542 2606 2666 2541 2468 2539 2605
8 2543 2470 2544 2610 2607 2541 2608 2668
8 2544 2471 2545 2611 2608 2542 2609 2669
8 2546 2473 2547 2613 2610 2544 2611 2671
8 2547 2474 2548 2614 2611 2545 2612 2672
8 2549 2476 2550 2616 2613 2547 2614 2674
8 2550 2477 2551 2617 2614 2548 2615 2675
8 2552 2479 2553 2619 2616 2550 2617 2677
8 2553 2480 2554 2620 2617 2551 2618 2678
8 2557 2482 2556 2624 2619 2553 2620 2680
8 2556 2481 2555 2623 2620 2554 2621 2681
8 2559 2484 2558 2625 2623 2555 2622 2683
8 2560 2485 2559 2626 2624 2556 2623 2684
8 2562 2488 2561 2627 2626 2559 2625 2685
8 2690 2629 2564 2630 2650 2584 2512 2585
8 2586 2513 2585 2651 2632 2565 2630 2691
8 2630 2564 2631 2692 2565 2493 2566 2633
8 2632 2565 2633 2694 2567 2494 2568 2635
8 2633 2566 2634 2695 2568 2495 2569 2636
8 2635 2568 2636 2697 2570 2497 2571 2638
8 2636 2569 2637 2698 2571 2498 2572 2639
8 2638 2571 2639 2700 2573 2500 2574 2641
8 2639 2572 2640 2701 2574 2501 2575 2642
8 2641 2574 2642 2702 2576 2503 2577 2643
8 2597 2528 2596 2659 2645 2579 2644 2704
8 2645 2579 2644 2704 2593 2522 2590 2655
8 2660 2597 2645 2705 2598 2529 2580 2646
8 2646 2580 2645 2705 2595 2525 2593 2657
8 2650 2584 2512 2585 2707 2647 2582 2648
8 2648 2582 2517 2589 2707 2647 2587 2653
8 2649 2583 2648 2708 2586 2513 2585 2651
8 2649 2583 2516 2588 2708 2648 2589 2654
8 2655 2590 2652 2710 2592 2521 2587 2653
8 2654 2589 2520 2591 2711 2653 2592 2656
8 2657 2593 2655 2712 2594 2523 2592 2656
8 2602 2536 2603 2663 2659 2596 2658 2714
8 2662 2602 2659 2715 2600 2534 2597 2660
8 2662 2602 2534 2600 2717 2663 2601 2661
8 2661 2601 2538 2604 2717 2663 2605 2665
8 2666 2606 2664 2718 2605 2539 2603 2663
8 2668 2608 2666 2720 2607 2541 2605 2665
8 2608 2542 2609 2669 2666 2606 2667 2721
8 2610 2544 2611 2671 2668 2608 2669 2723
8 2611 2545 2612 2672 2669 2609 2670 2724
8 2613 2547 2614 2674 2671 2611 2672 2726
8 2614 2548 2615 2675 2672 2612 2673 2727
8 2616 2550 2617 2677 2674 2614 2675 2729
8 2617 2551 2618 2678 2675 2615 2676 2730
8 2619 2553 2620 2680 2677 2617 2678 2732
8 2620 2554 2621 2681 2678 2618 2679 2733
8 2624 2556 2623 2684 2680 2620 2681 2735
8 2681 2621 2555 2623 2736 2682 2622 2683
8 2626 2559 2625 2685 2684 2623 2683 2737
8 2688 2628 2584 2650 2740 2686 2647 2707
8 2688 2628 2687 2742 2650 2584 2629 2690
8 2690 2629 2689 2745 2630 2564 2631 2692
8 2746 2690 2630 2691 2709 2650 2585 2651
8 2691 2630 2692 2747 2632 2565 2633 2694
8 2692 2631 2693 2748 2633 2566 2634 2695
8 2694 2633 2695 2750 2635 2568 2636 2697
8 2695 2634 2696 2751 2636 2569 2637 2698
8 2697 2636 2698 2753 2638 2571 2639 2700
8 2698 2637 2699 2754 2639 2572 2640 2701
8 2700 2639 2701 2755 2641 2574 2642 2702
8 2659 2596 2658 2714 2704 2644 2703 2757
8 2704 2644 2703 2757 2655 2590 2652 2710
8 2660 2597 2659 2715 2705 2645 2704 2758
8 2705 2645 2704 2758 2657 2593 2655 2712
8 2759 2706 2647 2707 2710 2652 2587 2653
8 2709 2650 2585 2651 2760 2707 2648 2708
8 2708 2648 2589 2654 2760 2707 2653 2711
8 2712 2655 2710 2761 2656 2592 2653 2711
8 2763 2713 2658 2714 2718 2664 2603 2663
8 2662 2602 2663 2717 2715 2659 2714 2764
8 2720 2666 2718 2767 2665 2605 2663 2717
8 2768 2719 2664 2718 2721 2667 2606 2666
8 2668 2608 2669 2723 2720 2666 2721 2770
8 2669 2609 2670 2724 2721 2667 2722 2771
8 2671 2611 2672 2726 2723 2669 2724 2773
8 2672 2612 2673 2727 2724 2670 2725 2774
8 2674 2614 2675 2729 2726 2672 2727 2776
8 2675 2615 2676 2730 2727 2673 2728 2777
8 2677 2617 2678 2732 2729 2675 2730 2779
8 2678 2618 2679 2733 2730 2676 2731 2780
8 2680 2620 2681 2735 2732 2678 2733 2782
8 2733 2679 2621 2681 2783 2734 2682 2736
8 2735 2681 2623 2684 2784 2736 2683 2737
8 2740 2686 2647 2707 2787 2738 2706 2759
8 2688 2628 2686 2740 2742 2687 2739 2789
8 2743 2688 2650 2709 2790 2740 2707 2760
8 2742 2687 2741 2792 2690 2629 2689 2745
8 2743 2688 2742 2793 2709 2650 2690 2746
8 2745 2689 2744 2795 2692 2631 2693 2748
8 2746 2690 2745 2796 2691 2630 2692 2747
8 2747 2692 2748 2797 2694 2633 2695 2750
8 2748 2693 2749 2798 2695 2634 2696 2751
8 2750 2695 2751 2800 2697 2636 2698 2753
8 2751 2696 2752 2801 2698 2637 2699 2754
8 2753 2698 2754 2802 2700 2639 2701 2755
8 2763 2713 2756 2804 2714 2658 2703 2757
8 2759 2706 2652 2710 2804 2756 2703 2757
8 2715 2659 2714 2764 2758 2704 2757 2805
8 2758 2704 2757 2805 2712 2655 2710 2761
8 2806 2759 2707 2760 2761 2710 2653 2711
8 2765 2716 2762 2808 2718 2664 2713 2763
8 2809 2763 2714 2764 2767 2718 2663 2717
8 2765 2716 2664 2718 2811 2766 2719 2768
8 2813 2768 2718 2767 2770 2721 2666 2720
8 2814 2769 2719 2768 2771 2722 2667 2721
8 2723 2669 2724 2773 2770 2721 2771 2816
8 2724 2670 2725 2774 2771 2722 2772 2817
8 2726 2672 2727 2776 2773 2724 2774 2819
8 2727 2673 2728 2777 2774 2725 2775 2820
8 2729 2675 2730 2779 2776 2727 2777 2822
8 2730 2676 2731 2780 2777 2728 2778 2823
8 2732 2678 2733 2782 2779 2730 2780 2825
8 2780 2731 2679 2733 2826 2781 2734 2783
8 2782 2733 2681 2735 2827 2783 2736 2784
8 2830 2785 2738 2787 2804 2756 2706 2759
8 2789 2739 2686 2740 2832 2786 2738 2787
8 2790 2740 2707 2760 2833 2787 2759 2806
8 2742 2687 2739 2789 2792 2741 2788 2835
8 2743 2688 2740 2790 2793 2742 2789 2836
8 2792 2741 2791 2838 2745 2689 2744 2795
8 2793 2742 2792 2839 2746 2690 2745 2796
8 2795 2744 2794 2841 2748 2693 2749 2798
8 2796 2745 2795 2842 2747 2692 2748 2797
8 2797 2748 2798 2843 2750 2695 2751 2800
8 2798 2749 2799 2844 2751 2696 2752 2801
8 2800 2751 2801 2845 2753 2698 2754 2802
8 2808 2762 2803 2847 2763 2713 2756 2804
8 2809 2763 2804 2848 2764 2714 2757 2805
8 2806 2759 2710 2761 2848 2804 2757 2805
8 2765 2716 2766 2811 2808 2762 2807 2850
8 2810 2765 2808 2851 2767 2718 2763 2809
8 2810 2765 2718 2767 2852 2811 2768 2813
8 2811 2766 2719 2768 2853 2812 2769 2814
8 2855 2814 2768 2813 2816 2771 2721 2770
8 2856 2815 2769 2814 2817 2772 2722 2771
8 2773 2724 2774 2819 2816 2771 2817 2858
8 2774 2725 2775 2820 2817 2772 2818 2859
8 2776 2727 2777 2822 2819 2774 2820 2861
8 2777 2728 2778 2823 2820 2775 2821 2862
8 2779 2730 2780 2825 2822 2777 2823 2864
8 2823 2778 2731 2780 2865 2824 2781 2826
8 2825 2780 2733 2782 2866 2826 2783 2827
8 2869 2828 2785 2830 2847 2803 2756 2804
8 2871 2829 2786 2832 2830 2785 2738 2787
8 2872 2830 2787 2833 2848 2804 2759 2806
8 2789 2739 2786 2832 2835 2788 2831 2874
8 2836 2789 2740 2790 2875 2832 2787 2833
8 2792 2741 2788 2835 2838 2791 2834 2877
8 2793 2742 2789 2836 2839 2792 2835 2878
8 2838 2791 2837 2880 2795 2744 2794 2841
8 2839 2792 2838 2881 2796 2745 2795 2842
8 2841 2794 2840 2882 2798 2749 2799 2844
8 2842 2795 2841 2883 2797 2748 2798 2843
8 2843 2798 2844 2884 2800 2751 2801 2845
8 2886 2846 2803 2847 2850 2807 2762 2808
8 2851 2808 2847 2887 2809 2763 2804 2848
8 2850 2807 2766 2811 2889 2849 2812 2853
8 2810 2765 2811 2852 2851 2808 2850 2890
8 2852 2811 2768 2813 2891 2853 2814 2855
8 2853 2812 2769 2814 2892 2854 2815 2856
8 2894 2856 2814 2855 2858 2817 2771 2816
8 2817 2772 2818 2859 2856 2815 2857 2895
8 2819 2774 2820 2861 2858 2817 2859 2897
8 2820 2775 2821 2862 2859 2818 2860 2898
8 2822 2777 2823 2864 2861 2820 2862 2900
8 2823 2778 2824 2865 2862 2821 2863 2901
8 2864 2823 2780 2825 2902 2865 2826 2866
8 2904 2867 2828 2869 2886 2846 2803 2847
8 2869 2828 2868 2906 2830 2785 2829 2871
8 2907 2869 2830 2872 2887 2847 2804 2848
8 2871 2829 2870 2909 2832 2786 2831 2874
8 2910 2871 2832 2875 2872 2830 2787 2833
8 2835 2788 2831 2874 2877 2834 2873 2912
8 2836 2789 2832 2875 2878 2835 2874 2913
8 2877 2834 2876 2915 2838 2791 2837 2880
8 2839 2792 2835 2878 2881 2838 2877 2916
8 2880 2837 2879 2917 2841 2794 2840 2882
8 2881 2838 2880 2918 2842 2795 2841 2883
8 2883 2841 2882 2919 2843 2798 2844 2884
8 2921 2885 2846 2886 2889 2849 2807 2850
8 2922 2886 2847 2887 2890 2850 2808 2851
8 2889 2849 2812 2853 2924 2888 2854 2892
8 2890 2850 2811 2852 2925 2889 2853 2891
8 2891 2853 2814 2855 2926 2892 2856 2894
8 2892 2854 2815 2856 2927 2893 2857 2895
8 2858 2817 2859 2897 2894 2856 2895 2929
8 2859 2818 2860 2898 2895 2857 2896 2930
8 2861 2820 2862 2900 2897 2859 2898 2932
8 2862 2821 2863 2901 2898 2860 2899 2933
8 2864 2823 2865 2902 2900 2862 2901 2934
8 2904 2867 2846 2886 2936 2903 2885 2921
8 2904 2867 2903 2936 2869 2828 2868 2906
8 2937 2904 2869 2907 2922 2886 2847 2887
8 2906 2868 2905 2939 2871 2829 2870 2909
8 2907 2869 2906 2940 2872 2830 2871 2910
8 2909 2870 2908 2942 2874 2831 2873 2912
8 2910 2871 2909 2943 2875 2832 2874 2913
8 2912 2873 2911 2945 2877 2834 2876 2915
8 2878 2835 2874 2913 2916 2877 2912 2946
8 2915 2876 2914 2947 2880 2837 2879 2917
8 2916 2877 2915 2948 2881 2838 2880 2918
8 2918 2880 2917 2949 2883 2841 2882 2919
8 2921 2885 2849 2889 2951 2920 2888 2924
8 2952 2921 2886 2922 2925 2889 2850 2890
8 2924 2888 2854 2892 2954 2923 2893 2927
8 2925 2889 2853 2891 2955 2924 2892 2926
8 2926 2892 2856 2894 2956 2927 2895 2929
8 2895 2857 2896 2930 2927 2893 2928 2957
8 2897 2859 2898 2932 2929 2895 2930 2959
8 2898 2860 2899 2933 2930 2896 2931 2960
8 2900 2862 2901 2934 2932 2898 2933 2961
8 2936 2903 2885 2921 2963 2935 2920 2951
8 2936 2903 2935 2963 2906 2868 2905 2939
8 2937 2904 2886 2922 2964 2936 2921 2952
8 2937 2904 2936 2964 2907 2869 2906 2940
8 2939 2905 2938 2966 2909 2870 2908 2942
8 2940 2906 2939 2967 2910 2871 2909 2943
8 2942 2908 2941 2969 2912 2873 2911 2945
8 2943 2909 2942 2970 2913 2874 2912 2946
8 2945 2911 2944 2971 2915 2876 2914 2947
8 2946 2912 2945 2972 2916 2877 2915 2948
8 2948 2915 2947 2973 2918 2880 2917 2949
8 2951 2920 2888 2924 2975 2950 2923 2954
8 2952 2921 2889 2925 2976 2951 2924 2955
8 2927 2893 2928 2957 2954 2923 2953 2978
8 2955 2924 2892 2926 2979 2954 2927 2956
8 2929 2895 2930 2959 2956 2927 2957 2980
8 2930 2896 2931 2960 2957 2928 2958 2981
8 2932 2898 2933 2961 2959 2930 2960 2982
8 2951 2920 2950 2975 2963 2935 2962 2984
8 2963 2935 2962 2984 2939 2905 2938 2966
8 2964 2936 2921 2952 2985 2963 2951 2976
8 2964 2936 2963 2985 2940 2906 2939 2967
8 2966 2938 2965 2987 2942 2908 2941 2969
8 2967 2939 2966 2988 2943 2909 2942 2970
8 2969 2941 2968 2989 2945 2911 2944 2971
8 2970 2942 2969 2990 2946 2912 2945 2972
8 2972 2945 2971 2991 2948 2915 2947 2973
8 2954 2923 2953 2978 2975 2950 2974 2993
8 2976 2951 2924 2955 2994 2975 2954 2979
8 2957 2928 2958 2981 2978 2953 2977 2995
8 2956 2927 2957 2980 2979 2954 2978 2996
8 2959 2930 2960 2982 2980 2957 2981 2997
8 2984 2962 2983 2999 2966 2938 2965 2987
8 2975 2950 2974 2993 2984 2962 2983 2999
8 2976 2951 2975 2994 2985 2963 2984 3000
8 2985 2963 2984 3000 2967 2939 2966 2988
8 2987 2965 2986 3001 2969 2941 2968 2989
8 2988 2966 2987 3002 2970 2942 2969 2990
8 2990 2969 2989 3003 2972 2945 2971 2991
8 2978 2953 2977 2995 2993 2974 2992 3004
8 2979 2954 2978 2996 2994 2975 2993 3005
8 2980 2957 2981 2997 2996 2978 2995 3006
8 2974 2993 2999 2983 2992 3004 3007 2998
8 2983 2999 2987 2965 2998 3007 3001 2986
8 3000 2984 2999 3008 2988 2966 2987 3002
8 2994 2975 2993 3005 3000 2984 2999 3008
8 3002 2987 3001 3009 2990 2969 2989 3003
8 2996 2978 2995 3006 3005 2993 3004 3010
8 3005 2993 3004 3010 3008 2999 3007 3011
8 3008 2999 3007 3011 3002 2987 3001 3009

CELL_TYPES 1910
12
12
12
12
12
12
12
12
12
12
12
12
12
12
12
12
12
12
12
12
12
12
12
12
12
12
12
12
12
12
12
12
12
12
12
12
12
12
12
12
12
12
12
12
12
12
12
12
12
12
12
12
12
12
12
12
12
12
12
12
12
12
12
12
12
12
12
12
12
12
12
12
12
12
12
12
12
12
12
12
12
12
12
12
12
12
12
12
12
12
12
12
12
12
12
12
12
12
12
12
12
12
12
12
12
12
12
12
12
12
12
12
12
12
12
12
12
12
12
12
12
12
12
12
12
12
12
12
12
12
12
12
12
12
12
12
12
12
12
12
12
12
12
12
12
12
12
12
12
12
12
12
12
12
12
12
12
12
12
12
12
12
12
12
12
12
12
12
12
12
12
12
12
12
12
12
12
12
12
12
12
12
12
12
12
12
12
12
12
12
12
12
12
12
12
12
12
12
12
12
12
12
12
12
12
12
12
12
12
12
12
12
12
12
12
12
12
12
12
12
12
12
12
12
12
12
12
12
12
12
12
12
12
12
12
12
12
12
12
12
12
12
12
12
12
12
12
12
12
12
12
12
12
12
12
12
12
12
12
12
12
12
12
12
12
12
12
12
12
12
12
12
12
12
12
12
12
12
12
12
12
12
12
12
12
12
12
12
12
12
12
12
12
12
12
12
12
12
12
12
12
12
12
12
12
12
12
12
12
12
12
12
12
12
12
12
12
12
12
12
12
12
12
12
12
12
12
12
12
12
12
12
12
12
12
12
12
12
12
12
12
12
12
12
12
12
12
12
12
12
12
12
12
12
12
12
12
12
12
12
12
12
12
12
12
12
12
12
12
12
12
12
12
12
12
12
12
12
12
12
12
12
12
12
12
12
12
12
12
12
12
12
12
12
12
12
12
12
12
12
12
12
12
12
12
12
12
12
12
12
12
12
12
12
12
12
12
12
12
12
12
12
12
12
12
12
12
12
12
12
12
12
12
12
12
12
12
12
12
12
12
12
12
12
12
12
12
12
12
12
12
12
12
12
12
12
12
12
12
12
12
12
12
12
12
12
12
12
12
12
12
12
12
12
12
12
12
12
12
12
12
12
12
12
12
12
12
12
12
12
12
12
12
12
12
12
12
12
12
12
12
12
12
12
12
12
12
12
12
12
12
12
12
12
12
12
12
12
12
12
12
12
12
12
12
12
12
12
12
12
12
12
12
12
12
12
12
12
12
12
12
12
12
12
12
12
12
12
12
12
12
12
12
12
12
12
12
12
12
12
12
12
12
12
12
12
12
12
12
12
12
12
12
12
12
12
12
12
12
12
12
12
12
12
12
12
12
12
12
12
12
12
12
12
12
12
12
12
12
12
12
12
12
12
12
12
12
12
12
12
12
12
12
12
12
12
12
12
12
12
12
12
12
12
12
12
12
12
12
12
12
12
12
12
12
12
12
12
12
12
12
12
12
12
12
12
12
12
12
12
12
12
12
12
12
12
12
12
12
12
12
12
12
12
12
12
12
12
12
12
12
12
12
12
12
12
12
12
12
12
12
12
12
12
12
12
12
12
12
12
12
12
12
12
12
12
12
12
12
12
12
12
12
12
12
12
12
12
12
12
12
12
12
12
12
12
12
12
12
12
12
12
12
12
12
12
12
12
12
12
12
12
12
12
12
12
12
12
12
12
12
12
12
12
12
12
12
12
12
12
12
12
12
12
12
12
12
12
12
12
12
12
12
12
12
12
12
12
12
12
12
12
12
12
12
12
12
12
12
12
12
12
12
12
12
12
12
12
12
12
12
12
12
12
12
12
12
12
12
12
12
12
12
12
12
12
12
12
12
12
12
12
12
12
12
12
12
12
12
12
12
12
12
12
12
12
12
12
12
12
12
12
12
12
12
12
12
12
12
12
12
12
12
12
12
12
12
12
12
12
12
12
12
12
12
12
12
12
12
12
12
12
12
12
12
12
12
12
12
12
12
12
12
12
12
12
12
12
12
12
12
12
12
12
12
12
12
12
12
12
12
12
12
12
12
12
12
12
12
12
12
12
12
12
12
12
12
12
12
12
12
12
12
12
12
12
12
12
12
12
12
12
12
12
12
12
12
12
12
12
12
12
12
12
12
12
12
12
12
12
12
12
12
12
12
12
12
12
12
12
12
12
12
12
12
12
12
12
12
12
12
12
12
12
12
12
12
12
12
12
12
12
12
12
12
12
12
12
12
12
12
12
12
12
12
12
12
12
12
12
12
12
12
12
12
12
12
12
12
12
12
12
12
12
12
12
12
12
12
12
12
12
12
12
12
12
12
12
12
12
12
12
12
12
12
12
12
12
12
12
12
12
12
12
12
12
12
12
12
12
12
12
12
12
12
12
12
12
12
12
12
12
12
12
12
12
12
12
12
12
12
12
12
12
12
12
12
12
12
12
12
12
12
12
12
12
12
12
12
12
12
12
12
12
12
12
12
12
12
12
12
12
12
12
12
12
12
12
12
12
12
12
12
12
12
12
12
12
12
12
12
12
12
12
12
12
12
12
12
12
12
12
12
12
12
12
12
12
12
12
12
12
12
12
12
12
12
12
12
12
12
12
12
12
12
12
12
12
12
12
12
12
12
12
12
12
12
12
12
12
12
12
12
12
12
12
12
12
12
12
12
12
12
12
12
12
12
12
12
12
12
12
12
12
12
12
12
12
12
12
12
12
12
12
12
12
12
12
12
12
12
12
12
12
12
12
12
12
12
12
12
12
12
12
12
12
12
12
12
12
12
12
12
12
12
12
12
12
12
12
12
12
12
12
12
12
12
12
12
12
12
12
12
12
12
12
12
12
12
12
12
12
12
12
12
12
12
12
12
12
12
12
12
12
12
12
12
12
12
12
12
12
12
12
12
12
12
12
12
12
12
12
12
12
12
12
12
12
12
12
12
12
12
12
12
12
12
12
12
12
12
12
12
12
12
12
12
12
12
12
12
12
12
12
12
12
12
12
12
12
12
12
12
12
12
12
12
12
12
12
12
12
12
12
12
12
12
12
12
12
12
12
12
12
12
12
12
12
12
12
12
12
12
12
12
12
12
12
12
12
12
12
12
12
12
12
12
12
12
12
12
12
12
12
12
12
12
12
12
12
12
12
12
12
12
12
12
12
12
12
12
12
12
12
12
12
12
12
12
12
12
12
12
12
12
12
12
12
12
12
12
12
12
12
12
12
12
12
12
12
12
12
12
12
12
12
12
12
12
12
12
12
12
12
12
12
12
12
12
12
12
12
12
12
12
12
12
12
12
12
12
12
12
12
12
12
12
12
12
12
12
12
12
12
12
12
12
12
12
12
12
12
12
12
12
12
12
12
12
12
12
12
12
12
12
12
12
12
12
12
12
12
12
12
12
12
12
12
12
12
12
12
12
12
12
12
12
12
12
12
12
12
12
12
12
12
12
12
12
12
12
12
12
12
12
12
12
12
12
12
12
12
12
12
12
12
12
12
12
12
12
12
12
12
12
12
12
12
12
12
12
12
12
12
12
12
12
12
12
12
12
12
12
12
12
12
12
12
12
12
12
12
12
12
12
12
12
12
12
12
12
12
12
12
12
12
12
12
12
12
12
12
12
12
12
12
12
12
12
12
12
12
12
12
12
12
12
12
12
12
12
12
12
12
12
12
12
12
12
12
12
12
12
12
12
12
12
12
12
12
12
12
12
12
12
12
12
12
12
12
12
12
12
12
12
12
12
12
12
12
12
12
12
12
12
12
12
12
12
12
12
12
12
12
12
12
12
12
12
12
12
12
12
12
12
12
12
12
12
12
12
12
12
12
12
12
12
12
12
12
12
12
12
12
12
12
12
12
12
12
12
12
12
12
12
12
12
12
12
12
12
12
12
12
12
12
12
12
12
12
12
12
12
12
12
12
12
12
12
12
12
12
12
12
12
12
12
12
12
12
12
12
12
12
12
12
12
12
12
12
12
12
12
12
12
12
12
12
12
12
12
12
12
12
12
12
12
12
12
12
12
12
12
12
12
12
12
12
12
12
12
12
12
12
12
12
12
12
12
12
12
12
12
12
12
12
12
12
12
12
12
12
12
12
12
12
12
12
12
12
12
12
12
12
12
12
12
12
12
12
12
12
12
12
12
12
12
12
12
12
12
12
12
12
12
12
12
12
12
12
12
12
12
12
12
12
12
12
12
12
12
12
12
12
12
12
12
12
12
12
12
12
12
12
12
12
12
12
12
12
12
12
12
12
12
12
12
12
12
12
12
12
12
12
12
12
12
12
12
12
12
12
12
12
12
12
12
12
12
12
12
12
12
12
12
12
12
12
12
12

POINT_DATA 3012
SCALARS Jp_lamdaP float 4
LOOKUP_TABLE default
0.999733 1 1 0.999733
1 1 1 1
0.999741 1 1 0.999741
0.999681 1 1 0.999681
0.999734 1 1 0.999734
0.999719 1 1 0.999719
0.998995 1 1 0.998995
1 1 1 1
1 1 1 1
1 1 1 1
0.999807 1 1 0.999807
0.999122 1 1 0.999122
0.999664 1 1 0.999664
0.99968 1 1 0.99968
0.999742 1 1 0.999742
0.999704 1 1 0.999704
0.999725 1 1 0.999725
0.999748 1 1 0.999748
0.998997 1 1 0.998997
1 1 1 1
0.999661 1 1 0.999661
0.999712 1 1 0.999712
0.998866 1 1 0.998866
0.99897 1 1 0.99897
0.999729 1 1 0.999729
0.999015 1 1 0.999015
1.00764 1.00981 1 0.997855
1 1 1 1
0.999857 1 1 0.999857
0.99987 1 1 0.99987
1 1 1 1
0.999131 1 1 0.999131
0.999706 1 1 0.999706
0.999732 1 1 0.999732
0.999123 1 1 0.999123
1 1 1 1
0.999208 1 1 0.999208
0.999223 1 1 0.999223
1.00171 1.00387 1 0.997849
1 1 1 1
1 1 1 1
0.999839 1 1 0.999839
1 1 1 1
0.99968 1 1 0.99968
0.998793 1 1 0.998793
1 1 1 1
0.999024 1 1 0.999024
0.999724 1 1 0.999724
0.999758 1 1 0.999758
0.999726 1 1 0.999726
0.999002 1 1 0.999002
0.999823 1 1 0.999823
0.999682 1 1 0.999682
0.999742 1 1 0.999742
0.999733 1 1 0.999733
0.998864 1 1 0.998864
0.999019 1 1 0.999019
0.998971 1 1 0.998971
1.00806 1.01025 1 0.997841
1 1 1 1
0.999657 1 1 0.999657
0.999032 1 1 0.999032
0.998832 1 1 0.998832
0.99892 1 1 0.99892
1.01097 1.01343 1 0.997573
1.00912 1.01145 1 0.997694
0.999792 1 1 0.999792
0.999123 1 1 0.999123
1.00513 1.00719 1 0.997952
1.02357 1.02666 1 0.99699
1 1 1 1
1 1 1 1
1 1 1 1
0.999139 1 1 0.999139
1 1 1 1
1 1 1 1
0.998978 1 1 0.998978
0.999934 1 1 0.999934
0.999083 1 1 0.999083
0.999318 1 1 0.999318
1.00087 1.00303 1 0.997846
1 1 1 1
1.00072 1 1.00088 0.999838
0.998906 1 1 0.998906
0.999013 1 1 0.999013
1.01151 1.01412 1 0.997424
0.999704 1 1.00016 0.999539
1.00553 1.0078 1 0.997749
0.999194 1.0012 1 0.997995
1.00663 1.00948 1 0.997171
1 1 1 1
1 1 1 1
1 1 1 1
1 1 1 1
1 1 1 1
0.999838 1 1 0.999838
0.998906 1 1 0.998906
0.999842 1 1 0.999842
0.998946 1 1 0.998946
1 1 1 1
0.998798 1 1 0.998798
0.999008 1 1 0.999008
1.01051 1.01336 1 0.997195
0.99906 1 1 0.99906
1.01281 1.0156 1 0.997249
0.999684 1 1 0.999684
0.999702 1 1 0.999702
0.999751 1 1 0.999751
0.99975 1 1 0.99975
0.998864 1 1 0.998864
0.998975 1 1 0.998975
0.999025 1 1 0.999025
1.00848 1.01067 1 0.997826
1 1 1 1
0.999677 1 1 0.999677
0.998825 1 1 0.998825
0.998828 1 1 0.998828
0.999896 1 1 0.999896
0.999193 1 1 0.999193
0.998921 1 1 0.998921
1.01091 1.01341 1 0.997533
1.00582 1.0079 1 0.997934
1.00937 1.01168 1 0.997724
1.02349 1.02657 1 0.996996
0.998821 1 1 0.998821
0.998822 1 1 0.998822
1.00932 1.01193 1 0.997413
1.01086 1.01342 1 0.997468
1.01063 1.01308 1 0.997585
1.03233 1.03557 1 0.996875
1 1 1 1
1.02647 1.02962 1 0.996948
0.999559 1 1.00022 0.999342
1.00139 1.00345 1 0.997946
1.02006 1.02309 1 0.997032
1.03163 1.03492 1 0.996817
1.00104 1 1.00141 0.99963
1.00558 1 1.00693 0.998659
1 1 1 1
1 1 1 1
0.998984 1 1 0.998984
1 1 1 1
0.999314 1 1.00003 0.999288
0.999089 1 1 0.999089
0.999893 1.00205 1 0.997843
1 1 1 1
1.00032 1 1.00046 0.99986
0.999 1 1 0.999
0.999101 1 1 0.999101
1.0109 1.01351 1 0.997425
0.999861 1 1.00035 0.999509
1.00437 1.00664 1 0.997752
0.998759 1.00077 1 0.997993
1.0069 1.00977 1 0.997157
1.00064 1 1.00096 0.999683
0.999932 1 1 0.999932
1.00205 1 1.00313 0.998923
1.01299 1.01571 1 0.997318
1.00909 1.01153 1 0.997587
1.02886 1.03216 1 0.99681
0.9987 1.0001 1.00034 0.998261
1.01488 1.01784 1 0.997092
1.00417 1.00635 1.00057 0.997263
1.01501 1.01807 1 0.996986
1 1 1 1
1 1 1 1
1 1 1 1
1.00007 1 1.00032 0.99975
1 1 1 1
1 1 1 1
1 1 1 1
0.998868 1 1 0.998868
0.998824 1 1 0.998824
1 1 1 1
1 1 1 1
0.998799 1 1 0.998799
0.998931 1 1 0.998931
1.01089 1.01374 1 0.997195
0.998889 1 1 0.998889
1.01304 1.01583 1 0.997249
0.998794 1 1 0.998794
1.00945 1.01233 1 0.997156
1.01169 1.0145 1 0.997233
1.03526 1.03863 1 0.996758
1.01335 1.01613 1 0.997267
1.03765 1.041 1 0.996781
1 1 1 1
0.999698 1 1 0.999698
0.998597 1 1 0.998597
0.998825 1 1 0.998825
1 1 1 1
0.999266 1 1 0.999266
0.998923 1 1 0.998923
1.01082 1.01336 1 0.997492
1.00966 1.01193 1 0.997753
1.00653 1.00863 1 0.997916
1.02339 1.02647 1 0.997003
0.998818 1 1 0.998818
0.998817 1 1 0.998817
1.00918 1.01191 1 0.997297
1.01083 1.01337 1 0.997494
1 1 1 1
0.999458 1 1.00009 0.99937
1.00256 1.00456 1 0.998017
1.01058 1.01303 1 0.997582
1.03222 1.03548 1 0.99685
1.0194 1.02245 1 0.997023
1.02667 1.02978 1 0.996983
1.03125 1.03454 1 0.996825
1.0011 1 1.00148 0.999618
1.00419 1 1.00553 0.998661
1.0089 1.01176 1 0.997178
1.00963 1.01222 1 0.997448
1.03286 1.03613 1 0.996838
1.03266 1.03597 1 0.996807
1.02925 1.03239 1 0.996958
1.04144 1.0447 1 0.996881
1.00054 1 1.00105 0.999489
1.03402 1.03727 1 0.996866
0.999058 1.00083 1.00011 0.998126
1.01264 1.01556 1 0.997129
1.0292 1.03251 1 0.996794
1.03291 1.03607 1 0.996949
1.00309 1 1.00464 0.998451
1.00152 1 1.0026 0.998921
1.00342 1 1.00542 0.99801
0.998932 1 1 0.998932
1 1 1 1
0.999897 1 1.00002 0.999882
0.999045 1 1 0.999045
1.01029 1.0129 1 0.997426
0.999989 1 1.00047 0.999514
0.998346 1.00031 1.00004 0.997992
1.00328 1.00554 1 0.997755
1.00755 1.01044 1 0.997141
1.00047 1 1.00077 0.999705
0.999947 1 1 0.999947
1.00244 1 1.00352 0.998925
1.01263 1.01535 1 0.997316
1.00813 1.01057 1 0.997591
1.02898 1.03228 1 0.996806
0.998596 1.00001 1.00032 0.998264
1.01593 1.01888 1 0.997099
1.00347 1.00576 1.00047 0.997258
1.0158 1.01888 1 0.996975
0.999976 1 1 0.999976
1.00063 1 1.00206 0.998569
1.00081 1 1.00153 0.999275
1.00267 1 1.0044 0.998273
1.03306 1.03642 1 0.996758
1.02313 1.02627 1 0.996949
1.03497 1.0384 1 0.996699
1.00106 1.00301 1.00049 0.997572
1.02288 1.026 1 0.996955
1.01262 1.01414 1.00158 0.996931
1.02433 1.02755 1 0.996868
0.999741 1 1 0.999741
0.999998 1 1 0.999998
1 1 1 1
1 1 1 1
1 1 1 1
0.999853 1 1 0.999853
1 1 1 1
1.00071 1 1.00097 0.999737
1 1 1 1
0.99889 1 1 0.99889
0.998849 1 1 0.998849
1.01337 1.01617 1 0.997248
1.01124 1.01409 1 0.997196
0.998801 1 1 0.998801
1 1 1 1
0.998793 1 1 0.998793
1.00974 1.01262 1 0.997156
1.01207 1.01488 1 0.997233
1.03489 1.03826 1 0.996756
1.01339 1.01617 1 0.997265
1.0376 1.04096 1 0.996779
1.00883 1.01171 1 0.997152
1.03424 1.03764 1 0.996724
1.03651 1.03985 1 0.996781
1.04661 1.05036 0.999457 0.996963
1.03693 1.0403 1 0.996764
1.04678 1.05005 0.999994 0.996895
0.998815 1 1 0.998815
0.998813 1 1 0.998813
1.00905 1.0119 1 0.99718
1.01082 1.01333 1 0.99752
1 1 1 1
0.999398 1 1 0.999398
1.00365 1.00558 1 0.998087
1.01052 1.01298 1 0.997578
1.03214 1.03543 1 0.996825
1.02683 1.0299 1 0.997019
1.01877 1.02182 1 0.997014
1.031 1.03427 1 0.996833
1.0013 1 1.0017 0.999607
1.00349 1 1.00484 0.998663
1.00883 1.0117 1 0.997155
1.00964 1.01222 1 0.997443
1.03283 1.0361 1 0.996851
1.03281 1.0361 1 0.996828
1.00028 1 1.00081 0.999478
0.999744 1.00156 1.00007 0.998123
1.01263 1.01551 1 0.997164
1.02954 1.0327 1 0.996946
1.04157 1.04479 1 0.996913
1.02866 1.03199 1 0.996769
1.03406 1.0373 1 0.996871
1.03313 1.03629 1 0.996948
1.00258 1 1.00413 0.998454
1.00377 1 1.00577 0.998013
1.00244 1 1.00352 0.998918
1.03264 1.03596 1 0.996797
1.03294 1.03619 1 0.99687
1.0461 1.04971 0.99965 0.996916
1.04308 1.04633 1 0.996888
1.03701 1.04022 1 0.996916
1.03884 1.04262 0.999208 0.997173
0.998983 1.00008 1.0006 0.998303
1.03521 1.03827 1 0.997052
1.0038 1.00637 1 0.997449
1.02027 1.02364 1 0.996714
1.02949 1.0329 1 0.996706
1.02858 1.0315 1 0.997176
1.00013 1 1.00096 0.999163
0.998754 1.00015 1.00067 0.997931
1.00689 1 1.00875 0.998158
1.00078 1.00035 1.00266 0.997786
1.01229 1.01501 1 0.997315
0.999961 1 1 0.999961
1.00036 1 1.00063 0.999726
1.00276 1 1.00384 0.998926
1.00717 1.0096 1 0.997595
1.02909 1.03239 1 0.996802
0.998531 1 1.00026 0.998269
1.00235 1.00478 1.00033 0.997253
1.01688 1.01983 1 0.997106
1.016 1.0191 1 0.996964
0.999982 1 1 0.999982
1.00131 1 1.00274 0.99857
1.00033 1 1.00105 0.999284
1.00326 1 1.005 0.998267
1.03298 1.03634 1 0.996753
1.02327 1.0264 1 0.996949
1.03467 1.0381 1 0.996697
0.999933 1.00191 1.00045 0.997578
1.02272 1.02584 1 0.996961
1.01251 1.01389 1.00173 0.996919
1.02425 1.02739 1 0.996943
0.999993 1 1 0.999993
0.999516 1 1 0.999516
1 1.00048 1.00157 0.997954
1.00267 1 1.00407 0.998601
1.00083 1 1.00287 0.997966
1.03924 1.04265 1 0.996726
1.02898 1.03228 1 0.996801
1.03129 1.03461 1 0.99679
1.00546 1.00628 1.00199 0.99719
1.02231 1.02546 1 0.996928
1.0139 1.01642 1.00086 0.996668
0.999708 1 1 0.999708
0.999233 1 1 0.999233
0.999765 1 1 0.999765
0.999742 1 1 0.999742
1 1 1 1
0.999999 1 1 0.999999
1 1 1 1
1 1 1 1
1 1 1 1
0.999934 1 1 0.999934
1 1 1 1
0.999837 1 1 0.999837
1 1 1 1
1.00095 1 1.00123 0.999723
1 1 1 1
1.01338 1.01616 1 0.997262
1.01239 1.0152 1 0.997232
1.03731 1.04067 1 0.996776
1.03452 1.03788 1 0.996755
1.0101 1.01298 1 0.997157
0.998792 1 1 0.998792
1.00901 1.01189 1 0.997151
1.03395 1.03735 1 0.996724
1.03625 1.0396 1 0.996779
1.04652 1.05056 0.999175 0.996982
1.03627 1.03963 1 0.99676
1.04631 1.04958 0.999993 0.996892
1.03314 1.03655 1 0.996715
1.04525 1.04969 0.998782 0.996984
1.04784 1.05129 0.999779 0.996943
1.0448 1.0513 0.996611 0.997196
1.04236 1.04569 1 0.996816
1.04476 1.04947 0.998279 0.997222
1.00879 1.01169 1 0.997133
1.00965 1.01225 1 0.997439
1.03282 1.03607 1 0.996865
1.03293 1.0362 1 0.99685
1.00001 1 1.00054 0.999467
1.00038 1.00226 1 0.998121
1.01286 1.0157 1 0.997199
1.02986 1.03303 1 0.996935
1.04169 1.04488 1 0.996946
1.03413 1.03737 1 0.996875
1.02795 1.03131 1 0.996743
1.03336 1.03653 1 0.996946
1.00182 1 1.00337 0.998456
1.00398 1 1.00598 0.998016
1.00293 1 1.00401 0.998916
1.03272 1.03607 1 0.996767
1.03316 1.03641 1 0.996867
1.04552 1.04928 0.999458 0.996952
1.04333 1.04661 0.999991 0.996879
0.999235 1.00022 1.00072 0.998301
1.00521 1.00779 1 0.997443
1.01901 1.02229 1.00003 0.996761
1.03728 1.04051 1 0.996894
1.03882 1.04265 0.999099 0.997221
1.02989 1.03334 1 0.99667
1.03491 1.03797 1 0.997055
1.02918 1.03206 1 0.997209
0.999491 1.00039 1.00117 0.997932
1.00104 1.00051 1.00277 0.997761
1.00058 1 1.00142 0.999159
1.00641 1 1.00823 0.998194
1.04562 1.04941 0.99946 0.996932
1.04532 1.04884 0.999718 0.996923
1.04208 1.04853 0.996728 0.997109
1.03949 1.04558 0.996926 0.99724
1.03704 1.04017 0.999824 0.997165
1.03544 1.04124 0.99702 0.997403
0.999153 1.00141 1 0.997746
1.03011 1.03312 0.999691 0.997394
1.00948 1.01251 1 0.997013
1.01945 1.02285 1.00018 0.996498
1.03091 1.03435 1 0.996672
1.02943 1.03228 1 0.997246
0.999413 1 1.00006 0.999354
1.00443 1 1.00603 0.998414
0.999041 1.00136 1 0.997687
1.00404 1 1.00615 0.997906
1.00069 1.00081 1.00217 0.997714
0.999988 1 1 0.999988
1.03283 1.0362 1 0.996748
0.999837 1 1.00054 0.999293
1.00206 1 1.0035 0.998571
1.00395 1 1.0057 0.998261
1.02343 1.02657 1 0.996948
1.03439 1.03782 1 0.996694
0.99898 1.00089 1.00051 0.997584
1.01337 1.01456 1.00193 0.996908
1.02267 1.02578 1 0.996967
1.02453 1.02759 1 0.997018
0.999995 1 1 0.999995
0.999525 1 1 0.999525
0.999425 1.00024 1.00123 0.997956
1.00325 1 1.00465 0.998601
1.00118 1 1.00324 0.997946
1.03921 1.04263 1 0.996721
1.02899 1.0323 1 0.996799
1.03124 1.03457 1 0.996779
1.00474 1.00543 1.00213 0.997195
1.0248 1.02796 1 0.996927
1.014 1.01639 1.00096 0.996687
0.999645 1 1 0.999645
1.00001 1 1.00109 0.998915
1 1.00191 1.00048 0.997623
1.00462 1 1.00639 0.998236
0.999847 1.00015 1.00182 0.997879
1.03642 1.03965 1 0.996891
1.02591 1.02917 1 0.99683
1.0302 1.03332 1 0.996989
1.00264 1.00185 1.00379 0.997005
1.01229 1.01574 1 0.996596
0.999711 1 1 0.999711
0.999161 1 1 0.999161
0.999209 1 1 0.999209
0.998967 1 1 0.998967
0.999248 1 1 0.999248
0.999776 1 1 0.999776
0.999766 1 1 0.999766
1 1 1 1
0.999744 1 1 0.999744
1 1 1 1
1 1 1 1
0.999999 1 1 0.999999
1 1 1 1
1 1 1 1
0.999983 1 1 0.999983
0.999917 1 1 0.999917
1 1 1 1
1 1 1 1
1.00005 1 1.00023 0.999821
1 1 1 1
1.03572 1.03909 1 0.996757
1.0362 1.03955 1 0.996777
1.046 1.04926 1 0.99689
1.04649 1.0508 0.998893 0.997
1.03356 1.03696 1 0.996724
1.0091 1.01198 1 0.997151
1.03302 1.03643 1 0.996716
1.04528 1.0496 0.998896 0.996979
1.04752 1.05094 0.999805 0.996942
1.04413 1.05114 0.996097 0.997228
1.04309 1.04643 1 0.996809
1.04444 1.04941 0.998013 0.997244
1.04525 1.04938 0.999102 0.996953
1.04292 1.04991 0.996165 0.997169
1.044 1.05075 0.996287 0.997276
1.04148 1.05079 0.993766 0.997356
1.04197 1.0453 0.999736 0.997081
1.04197 1.04944 0.995422 0.997452
1.03269 1.03607 1 0.996737
1.03335 1.0366 1 0.996865
1.04491 1.04884 0.999266 0.996988
1.04354 1.04685 0.999968 0.99687
0.999569 1.00044 1.00083 0.998299
1.00638 1.00897 1 0.997437
1.01768 1.02076 1.00018 0.996807
1.03752 1.04077 1 0.996873
1.03874 1.04269 0.998942 0.99727
1.03452 1.03757 1 0.997059
1.03034 1.03382 1 0.996633
1.02933 1.03218 1 0.997242
1.00036 1.00065 1.00178 0.997934
1.00136 1.00073 1.0029 0.997736
1.00103 1 1.00188 0.999155
1.00546 1 1.00725 0.99823
1.04539 1.04917 0.999459 0.996932
1.04512 1.04854 0.999833 0.996901
1.04213 1.04866 0.996626 0.997142
1.03993 1.0456 0.99735 0.997223
1.00022 1.00249 1 0.997738
1.00813 1.01107 1.00003 0.997057
1.02004 1.02324 1.00039 0.996488
1.03653 1.03963 0.999895 0.997119
1.03459 1.04054 0.996813 0.997461
1.02856 1.03201 1 0.996657
1.0312 1.03415 0.999751 0.997396
1.03019 1.03298 1 0.997301
0.999519 1.00184 1 0.997685
1.00039 1.00123 1.00146 0.997717
1.00451 1 1.00663 0.997899
0.999616 1 1.0003 0.999317
1.00399 1 1.00555 0.998448
1.0416 1.04916 0.995621 0.997157
1.04079 1.04818 0.995743 0.997193
1.03547 1.04505 0.993367 0.997448
1.03184 1.03759 0.996987 0.99747
1.00168 1.00425 1 0.997444
1.03492 1.03804 0.999423 0.997573
1.00575 1.00873 1.00029 0.996755
1.01773 1.02101 1.00051 0.996281
1.0262 1.02965 1 0.996651
0.999477 1 1 0.999477
1.00143 1 1.0027 0.998732
1.00419 1 1.00603 0.998169
1.00061 1.00301 1 0.997609
1.00404 1 1.0064 0.997657
1.0001 1.00152 1.001 0.997591
0.999997 1 1 0.999997
0.999534 1 1 0.999534
1.03919 1.04262 1 0.996715
1.00396 1 1.00537 0.9986
0.998709 1.00001 1.00074 0.997959
1.00162 1 1.0037 0.997927
1.02889 1.0322 1 0.996798
1.03102 1.03436 1 0.996768
1.00372 1.00424 1.00229 0.997201
1.01323 1.01579 1.00077 0.996707
1.02719 1.03036 1 0.996927
0.999651 1 1 0.999651
0.999787 1 1.00087 0.998919
0.99951 1.00148 1.00041 0.997619
1.00569 1 1.00748 0.998231
0.999787 1.00021 1.0017 0.997881
1.03642 1.03966 1 0.996884
1.02621 1.02949 1 0.996818
1.02995 1.03304 1 0.997016
1.00328 1.00308 1.00324 0.996966
1.01118 1.01461 1.00006 0.996567
0.999114 1 1 0.999114
1.00416 1 1.00568 0.99849
1.00179 1.00231 1.002 0.997498
1.0038 1.00029 1.00553 0.99799
1.00014 1.00138 1.001 0.997772
1.03656 1.03988 0.99944 0.997363
1.02482 1.02818 1 0.996732
1.02624 1.0293 1 0.997024
1.00483 1.00369 1.00433 0.996817
1.00343 1.00708 1 0.996379
0.999714 1 1 0.999714
0.999179 1 1 0.999179
0.998888 1 1 0.998888
0.999185 1 1 0.999185
0.999247 1 1 0.999247
0.998936 1 1 0.998936
0.998816 1 1 0.998816
0.998885 1 1 0.998885
0.999257 1 1 0.999257
0.999771 1 1 0.999771
0.999776 1 1 0.999776
1 1 1 1
0.999768 1 1 0.999768
1 1 1 1
1 1 1 1
1 1 1 1
1 1 1 1
1 1 1 1
0.999999 1 1 0.999999
0.999972 1 1 0.999972
1 1 1 1
0.9999 1 1 0.9999
1 1 1 1
1 1 1 1
1.04377 1.04712 1 0.996802
1.04702 1.05042 0.999823 0.996942
1.04413 1.04934 0.997755 0.997266
1.04342 1.05095 0.995566 0.99726
1.04535 1.04955 0.999022 0.996973
1.03304 1.03645 1 0.996717
1.04533 1.04931 0.999269 0.996933
1.04334 1.05 0.996489 0.997162
1.04409 1.05064 0.996498 0.99726
1.0407 1.05042 0.99336 0.997368
1.0414 1.04462 0.999834 0.997081
1.04043 1.04855 0.994752 0.997493
1.04325 1.04973 0.996675 0.997144
1.04191 1.05183 0.993202 0.997351
1.04161 1.052 0.992641 0.997461
1.03824 1.04582 0.995219 0.997525
1.04522 1.049 0.999458 0.996932
1.04499 1.0483 0.999964 0.996879
1.0422 1.04877 0.996547 0.997175
1.04043 1.04567 0.997781 0.997205
1.00131 1.00358 1 0.99773
1.00696 1.00989 1 0.997102
1.02051 1.02352 1.00058 0.996478
1.03605 1.0391 1 0.997074
1.03372 1.03979 0.996638 0.997519
1.03251 1.03541 0.999803 0.997397
1.02666 1.03011 1 0.996643
1.03197 1.0347 1 0.997357
1.0001 1.00242 1 0.997683
1.00005 1.00165 1.00069 0.99772
1.00591 1 1.00803 0.997892
0.99982 1 1.00054 0.999281
1.00387 1 1.0054 0.998483
1.04217 1.04965 0.995701 0.997159
1.04101 1.04838 0.995765 0.997188
1.03527 1.04433 0.993872 0.997439
1.00224 1.00481 1 0.997437
1.00613 1.0091 1.00026 0.9968
1.01651 1.01954 1.00076 0.99627
1.03238 1.038 0.997122 0.997456
1.02774 1.03109 1 0.99675
1.03172 1.03504 0.999251 0.997543
0.999504 1 1 0.999504
1.00112 1.00353 1 0.997597
0.999247 1.00102 1.00051 0.997719
1.00489 1 1.00726 0.997644
1.00443 1 1.00625 0.99819
1.0014 1 1.0027 0.998699
1.0401 1.05016 0.993165 0.997241
1.03847 1.05124 0.990461 0.997369
1.02953 1.04274 0.989774 0.997533
1.0323 1.04134 0.993628 0.997675
1.00323 1.006 1 0.99725
1.0265 1.02943 1 0.997162
1.00354 1.00558 1.00165 0.996332
1.00904 1.01192 1.00104 0.996116
0.999689 1 1 0.999689
0.999328 1 1.00035 0.998982
1.00238 1 1.00398 0.998403
1.00511 1 1.00733 0.997796
1.0014 1.00345 1.00053 0.99743
1.00627 1.00053 1.00835 0.997407
0.999656 1 1 0.999656
0.999452 1 1.00053 0.998923
1.03664 1.03989 1 0.996877
1.0063 1 1.00809 0.998226
0.998934 1.00105 1.00027 0.997615
0.999404 1 1.00152 0.997883
1.02677 1.03006 1 0.996807
1.03007 1.03312 1 0.997042
1.00422 1.00457 1.00273 0.996926
1.01007 1.01331 1.00027 0.996538
0.999117 1 1 0.999117
1.00418 1 1.00571 0.998487
1.00183 1.00234 1.00198 0.997507
1.00332 1 1.00533 0.997999
0.999753 1.00142 1.00048 0.997859
1.03727 1.0408 0.999198 0.997407
1.02426 1.0276 1 0.996748
1.0279 1.0309 1 0.997096
1.00444 1.00309 1.00458 0.99678
1.00394 1.00763 1.00003 0.996316
0.999046 1 1.00026 0.998788
1.00513 1 1.00703 0.998117
1.00431 1.00316 1.00378 0.997369
1.0002 1.00094 1.00161 0.997655
1.03544 1.05254 0.986069 0.997658
1.03047 1.03339 0.999713 0.997455
1.01448 1.01806 1 0.996476
1.00529 1.00465 1.00426 0.996398
0.999198 1 1 0.999198
0.998901 1 1 0.998901
0.998802 1 1 0.998802
0.999246 1 1 0.999246
0.998906 1 1 0.998906
0.999256 1 1 0.999256
0.998811 1 1 0.998811
0.998898 1 1 0.998898
0.99879 1 1 0.99879
0.998718 1 1 0.998718
0.99885 1 1 0.99885
0.999238 1 1 0.999238
0.999751 1 1 0.999751
0.99977 1 1 0.99977
1 1 1 1
0.999776 1 1 0.999776
1 1 1 1
1 1 1 1
1 1 1 1
1 1 1 1
1 1 1 1
1 1 1 1
0.999996 1 1 0.999996
1 1 1 1
0.999961 1 1 0.999961
1 1 1 1
1 1 1 1
1.04073 1.04384 0.999942 0.997081
1.04421 1.05058 0.996689 0.997243
1.03895 1.04772 0.994087 0.997535
1.03999 1.05012 0.992952 0.997381
1.04378 1.0501 0.996819 0.997154
1.04533 1.04917 0.999423 0.996913
1.04308 1.04967 0.99657 0.997143
1.04168 1.05144 0.993355 0.997342
1.04075 1.05126 0.992522 0.99746
1.0398 1.04708 0.995506 0.997534
1.04253 1.05179 0.993885 0.997295
1.04321 1.05738 0.989065 0.997508
1.04295 1.05609 0.989947 0.997587
1.04273 1.05015 0.995762 0.997162
1.04118 1.04856 0.99577 0.997183
1.03514 1.04361 0.994441 0.997429
1.00259 1.00518 1 0.99743
1.006 1.009 1.00018 0.996843
1.01517 1.01812 1.00085 0.996258
1.03289 1.0384 0.997249 0.997443
1.02807 1.03158 0.999082 0.997512
1.02841 1.03166 1 0.996849
1.00079 1.00321 1 0.997586
0.998153 1.00031 1 0.997847
1.00537 1 1.00776 0.997631
0.999531 1 1 0.999531
1.00374 1 1.00554 0.99821
1.0013 1 1.00264 0.998665
1.0408 1.05061 0.993392 0.997249
1.03802 1.05109 0.990162 0.997377
1.02967 1.04231 0.990323 0.997526
1.00185 1.00462 1 0.997241
1.0035 1.00571 1.0014 0.996413
1.0093 1.01226 1.0009 0.996183
1.03245 1.0411 0.993999 0.99768
1.0254 1.02871 0.999639 0.997143
0.999743 1 1 0.999743
0.999261 1 1.00028 0.998981
0.99959 1.00212 1 0.99748
1.00848 1.00058 1.01038 0.997541
1.00492 1 1.0071 0.997835
1.00221 1 1.00384 0.998374
1.04072 1.05467 0.98931 0.997429
1.03053 1.05054 0.983423 0.997491
1.02721 1.04233 0.987741 0.997723
1.02237 1.03108 0.99384 0.997694
1.00163 1.00378 1.00094 0.99692
1.00779 1.01004 1.0014 0.996373
1.00301 1.00426 1.00264 0.996122
0.99987 1 1 0.99987
0.999419 1 1 0.999419
0.999173 1 1 0.999173
0.999617 1 1.00107 0.998552
1.00283 1 1.00477 0.998068
1.00832 1 1.01068 0.997663
0.99906 1.00154 1 0.997527
1.03082 1.00046 1.03268 0.997749
0.99912 1 1 0.99912
1.00448 1 1.00601 0.998485
1.03793 1.04165 0.998978 0.997451
1.00359 1 1.0056 0.998007
1.00211 1.00244 1.00215 0.997517
0.999279 1.0013 1.00004 0.997946
1.02328 1.0266 1 0.996764
1.02932 1.03224 1 0.997168
1.00415 1.0026 1.00482 0.996744
1.00455 1.00833 1 0.996253
0.999223 1 1.00046 0.998759
1.00489 1 1.00677 0.998132
1.00491 1.00336 1.00415 0.997398
1.00007 1.00097 1.00142 0.997691
1.03763 1.0543 0.98648 0.997677
1.03046 1.03326 0.999877 0.997406
1.01542 1.01897 1 0.99652
1.00634 1.00623 1.00377 0.996347
1.00015 1 1.00161 0.99855
1.03573 1.05766 0.981535 0.997683
1.00158 1 1.00379 0.997801
1.00351 1.00372 1.00268 0.997117
1.03322 1.04351 0.992352 0.997771
1.0137 1.01714 1 0.996617
1.00593 1.00654 1.00323 0.996167
0.998913 1 1 0.998913
0.998793 1 1 0.998793
0.998791 1 1 0.998791
0.999254 1 1 0.999254
0.998911 1 1 0.998911
0.998805 1 1 0.998805
0.999236 1 1 0.999236
0.998854 1 1 0.998854
0.998789 1 1 0.998789
0.998739 1 1 0.998739
0.998815 1 1 0.998815
0.998707 1 1 0.998707
0.998816 1 1.00018 0.998635
0.998809 1 1 0.998809
0.999188 1 1 0.999188
0.999724 1 1 0.999724
0.999749 1 1 0.999749
1 1 1 1
0.999768 1 1 0.999768
1 1 1 1
1 1 1 1
1 1 1 1
1 1 1 1
1 1 1 1
0.999897 1 1 0.999897
1 1 1 1
1 1 1 1
1 1 1 1
0.999993 1 1 0.999993
1 1 1 1
1 1 1 1
1.04137 1.04836 0.995771 0.997543
1.03987 1.05044 0.992464 0.997459
1.04139 1.05101 0.993505 0.997333
1.04293 1.04961 0.996484 0.997143
1.04219 1.05173 0.993595 0.997313
1.0432 1.05693 0.989489 0.997498
1.04138 1.0548 0.989658 0.997596
1.04278 1.05719 0.988854 0.997487
1.05019 1.06594 0.98759 0.997608
1.03768 1.05813 0.982777 0.997859
1.0415 1.05105 0.993637 0.997256
1.03757 1.05097 0.989836 0.997384
1.02969 1.04188 0.990757 0.997518
1.00191 1.00463 1.00006 0.997232
1.00399 1.00626 1.00126 0.996494
1.01032 1.01333 1.00078 0.996249
1.0327 1.04096 0.994366 0.997686
1.02458 1.02824 0.999304 0.997126
0.999187 1.00166 1 0.997531
1.01104 1.00098 1.01241 0.997674
1.0057 1 1.00784 0.997873
0.999797 1 1 0.999797
0.999207 1 1.00023 0.99898
1.00237 1 1.00403 0.998344
1.04067 1.05497 0.988979 0.997441
0.999866 1 1 0.999866
0.99939 1 1 0.99939
1.03066 1.04972 0.984309 0.997492
1.02629 1.04199 0.987212 0.997692
1.0016 1.00334 1.00126 0.997009
1.0036 1.00421 1.0033 0.996107
1.00847 1.0113 1.00084 0.996368
1.02124 1.03023 0.993581 0.997671
0.999248 1 1 0.999248
0.999648 1 1.0011 0.998546
1.00001 1.00151 1.00108 0.997431
1.02572 1.00056 1.02729 0.997911
1.00652 1 1.00887 0.997678
1.00325 1 1.00518 0.998086
1.04834 1.06429 0.987414 0.997566
1.01351 1.04784 0.969529 0.997631
1.01885 1.03638 0.985172 0.997881
1.00368 1.01316 0.993241 0.997388
1.00218 1.00114 1.00401 0.997052
1.00353 1.00204 1.00547 0.99604
0.999378 1 1 0.999378
0.999373 1 1 0.999373
0.999097 1 1 0.999097
0.998681 1 1 0.998681
1.00085 1 1.00255 0.998312
1.00178 1.00004 1.00398 0.997771
1.04168 1 1.04411 0.997676
1.00241 1.00049 1.00399 0.997935
0.999481 1 1.00075 0.998731
1.0042 1 1.00606 0.998147
1.0391 1.05512 0.987087 0.997695
1.03028 1.03303 0.999982 0.997359
0.999935 1.00106 1.00115 0.997728
1.00558 1.00374 1.00441 0.997426
1.01677 1.02024 1.00004 0.996565
1.00739 1.00776 1.00335 0.996296
1.00034 1 1.00181 0.998536
1.03777 1.06027 0.981008 0.997729
1.00185 1 1.00404 0.997822
1.00307 1.00333 1.00269 0.997066
1.03187 1.04267 0.991882 0.997745
1.01372 1.01709 1 0.996689
1.00633 1.00668 1.00348 0.996184
1.00178 1 1.00357 0.998219
1.01676 1.03965 0.979798 0.998145
1.00245 1.00252 1.0024 0.997539
1.00359 1.00312 1.00379 0.996693
1.01611 1.02386 0.99506 0.99735
1.00189 1.00333 1.00221 0.99636
0.988684 1.00468 0.986219 0.99783
0.998785 1 1 0.998785
0.99914 1 1.00035 0.998789
0.998792 1 1.0001 0.998688
0.999233 1 1 0.999233
0.998859 1 1 0.998859
0.998759 1 1 0.998759
0.998789 1 1 0.998789
0.999187 1 1 0.999187
0.9988 1 1 0.9988
0.998783 1 1 0.998783
0.998696 1 1.00006 0.998636
0.998703 1 1 0.998703
0.99877 1 1 0.99877
0.99885 1 1.00039 0.998465
0.999235 1 1.00062 0.998619
0.998706 1 1 0.998706
0.999076 1 1 0.999076
0.998892 1 1.00002 0.998868
0.999057 1 1 0.999057
0.999709 1 1 0.999709
0.999722 1 1 0.999722
1 1 1 1
0.999747 1 1 0.999747
1 1 1 1
1 1 1 1
1 1 1 1
1 1 1 1
1 1 1 1
0.999918 1 1 0.999918
0.999896 1 1 0.999896
1 1 1 1
1 1 1 1
1 1 1 1
1 1 1 1
1 1 1 1
1 1 1 1
1.03998 1.05378 0.989267 0.997606
1.04314 1.05653 0.98981 0.997489
1.04186 1.05169 0.993302 0.997332
1.0428 1.05715 0.988913 0.997485
1.04801 1.06382 0.987508 0.997605
1.03765 1.05709 0.983781 0.997798
1.05055 1.069 0.985036 0.997672
0.981477 1.01605 0.969399 0.996461
1.01035 1.0366 0.976139 0.998501
0.999486 1 1 0.999486
1.04062 1.05526 0.988653 0.997452
1.03099 1.04898 0.985329 0.997493
1.02547 1.0417 0.986734 0.99766
0.999866 1.00195 1.00082 0.997097
1.00385 1.00376 1.00402 0.996092
1.00897 1.01219 1.00045 0.996363
1.01994 1.02919 0.993348 0.997648
0.998919 1.00158 1 0.997336
1.01944 1 1.02141 0.998074
1.00457 1 1.00689 0.997693
0.999861 1 1 0.999861
1.0036 1 1.0055 0.998105
0.999322 1 1 0.999322
0.999558 1 1.00102 0.99854
0.999362 1 1 0.999362
1.0457 1.06457 0.98466 0.997574
0.999416 1 1 0.999416
0.999371 1 1 0.999371
0.999061 1 1 0.999061
1.01701 1.0478 0.972924 0.997631
1.01963 1.03705 0.985336 0.997835
1.00046 1.0012 1.00219 0.997077
1.00422 1.00254 1.00556 0.996138
1.00314 1.01129 0.994554 0.997375
0.998728 1 1 0.998728
1.00094 1 1.00267 0.998272
1.00751 1.00031 1.00937 0.997846
1.03353 1 1.0359 0.997711
1.00149 1 1.00368 0.997811
1.03162 1.05501 0.980109 0.99767
1.00406 1.04306 0.964764 0.997769
1.01141 1.02258 0.991498 0.997558
0.99396 1.00432 0.992525 0.99714
1.00338 1 1.00589 0.997508
0.998975 1 1 0.998975
0.998893 1 1 0.998893
0.999043 1 1.00026 0.998781
0.999852 1 1.00139 0.998461
1.00188 1 1.00377 0.998121
1.02951 1 1.03179 0.997787
1.02684 1.00003 1.02913 0.997745
1.00035 1 1.00183 0.998522
1.0021 1 1.00426 0.997842
1.03912 1.06365 0.979123 0.997773
1.03078 1.04228 0.991228 0.997718
1.0135 1.01679 1 0.996761
1.00251 1.00282 1.00268 0.997015
1.00637 1.00658 1.0036 0.996201
1.00176 1 1.0035 0.99826
1.01496 1.03967 0.978022 0.998173
1.00082 1.00165 1.00162 0.997556
1.00292 1.00215 1.00408 0.9967
1.01582 1.02398 0.994566 0.997455
1.00184 1.00277 1.00273 0.996349
0.987978 1.00452 0.986467 0.997024
1.00165 1.00044 1.00314 0.998075
1.0069 1.02143 0.98762 0.998122
1.00079 1.00135 1.00194 0.997505
1.00445 1.00118 1.00644 0.99685
0.99475 1.00586 0.991757 0.997172
0.934974 0.981444 0.972389 0.979702
0.939103 0.977134 0.9711 0.989681
0.978902 0.989715 0.991178 0.997878
0.782529 0.863367 0.939295 0.964946
0.713784 0.840587 0.888697 0.955499
0.999311 1 1.00052 0.998787
0.999348 1 1.00062 0.998731
0.99904 1 1.00032 0.99872
0.999186 1 1 0.999186
0.99879 1 1 0.99879
0.998637 1 1 0.998637
0.998699 1 1 0.998699
0.99875 1 1 0.99875
0.99991 1 1.00132 0.998594
0.999106 1 1 0.999106
0.998724 1 1 0.998724
0.998745 1 1 0.998745
0.999174 1 1.00068 0.998491
1.00109 1 1.00259 0.998502
1.00135 1 1.00282 0.99854
1.00012 1 1.00159 0.998523
0.998715 1 1.00006 0.998658
0.99905 1 1 0.99905
0.998737 1 1 0.998737
0.998692 1 1 0.998692
0.998877 1 1.00001 0.998866
0.998851 1 1.00002 0.998831
0.999155 1 1 0.999155
0.999054 1 1 0.999054
0.999704 1 1 0.999704
0.999709 1 1 0.999709
1 1 1 1
0.99972 1 1 0.99972
1 1 1 1
1 1 1 1
1 1 1 1
1 1 1 1
1 1 1 1
0.999935 1 1 0.999935
0.999915 1 1 0.999915
1 1 1 1
0.999894 1 1 0.999894
1 1 1 1
1 1 1 1
1 1 1 1
1 1 1 1
1 1 1 1
1.04559 1.06146 0.987416 0.997602
1.04283 1.05709 0.989003 0.997483
1.03818 1.05637 0.985015 0.997738
0.984991 1.01587 0.972986 0.996526
1.04761 1.06637 0.984703 0.997671
1.02027 1.03961 0.982984 0.998384
1.03736 1.04869 0.99139 0.997781
0.941211 0.982071 0.969228 0.988822
0.996895 1.01935 0.980726 0.997189
0.999496 1 1 0.999496
0.999484 1 1 0.999484
0.999082 1 1 0.999082
0.999138 1 1 0.999138
1.04359 1.0648 0.982455 0.997581
1.01992 1.04731 0.976158 0.997631
1.01999 1.03743 0.985366 0.99779
0.99945 1.00073 1.00162 0.997102
1.00485 1.00327 1.00536 0.996234
1.00245 1.00988 0.995268 0.997361
1.01421 1 1.01649 0.997755
1.02629 1 1.0286 0.997746
1.001 1 1.00316 0.99785
0.99937 1 1 0.99937
1.00075 1 1.00252 0.998231
0.998774 1 1 0.998774
0.999454 1 1 0.999454
0.999024 1 1 0.999024
1.02906 1.05473 0.97792 0.997685
0.99902 1 1 0.99902
0.998943 1 1 0.998943
0.998892 1 1 0.998892
1.00773 1.04534 0.966182 0.997764
1.01039 1.02228 0.990787 0.997557
1.00306 1.00005 1.00553 0.997491
0.995597 1.00474 0.993683 0.997196
0.999563 1 1.00113 0.998432
1.00152 1 1.00348 0.998047
1.0312 1.00041 1.03312 0.99773
1.0301 1.00002 1.03242 0.997736
0.999196 1.03864 0.96411 0.997839
0.997435 1.0291 0.971431 0.997739
1.00358 1.00888 0.997495 0.997242
0.988494 1.00055 0.989949 0.997982
0.998646 1 1 0.998646
0.99983 1 1.00125 0.998579
1.01034 1 1.01202 0.998339
1.04799 1 1.0504 0.997707
0.910364 0.970227 0.959736 0.977665
1.00215 1 1.00386 0.998301
0.999376 1.00071 1.00109 0.997572
1.01441 1.03948 0.977645 0.998201
1.016 1.02431 0.994316 0.997559
1.00214 1.00252 1.0033 0.996337
1.00269 1.00153 1.00447 0.996706
0.988641 1.00498 0.987495 0.996199
1.00092 1.00019 1.00261 0.998128
1.00704 1.02244 0.986803 0.998111
1.00026 1.0013 1.00144 0.997519
1.00449 1.00154 1.00611 0.99685
0.997672 1.00683 0.993709 0.99718
0.934002 0.986962 0.967911 0.977715
0.934218 0.974609 0.970938 0.987249
0.9801 0.988787 0.993304 0.997897
0.781762 0.8605 0.940949 0.965512
0.698897 0.829687 0.8849 0.95193
1.00021 1.00013 1.00175 0.998328
0.811167 0.88325 0.949543 0.96719
0.755048 0.845777 0.932887 0.956952
0.990408 1.00696 0.985499 0.998033
1.00649 1.00131 1.00735 0.997842
1.01217 1.00453 1.01019 0.997442
0.972611 0.984055 0.990249 0.998103
0.926974 0.968404 0.978642 0.978109
0.911585 0.949227 0.973978 0.986002
0.766315 0.86216 0.919177 0.966987
0.775144 0.890365 0.910617 0.956045
0.999967 1 1.0012 0.998773
1.00012 1 1.00142 0.9987
1.00109 1 1.00221 0.998879
0.999137 1 1 0.999137
0.998742 1 1 0.998742
1.00013 1 1.00157 0.99857
0.999701 1 1.00119 0.998517
0.99872 1 1 0.99872
0.999051 1 1 0.999051
1.00088 1 1.00239 0.998494
1.00048 1 1.00194 0.998539
0.9987 1 1.00001 0.998691
1.00108 1 1.00253 0.998554
1.00302 1 1.00451 0.998515
1.00544 1 1.00682 0.998627
0.998746 1 1.00026 0.99849
0.9987 1 1 0.9987
0.998733 1 1 0.998733
0.998701 1 1.00001 0.998689
0.998635 1 1.00008 0.998555
0.999228 1 1.00053 0.9987
0.999424 1 1.00076 0.998665
1.00126 1 1.00276 0.998506
0.999429 1 1.0006 0.99883
0.998988 1 1.00012 0.998866
0.999184 1 1 0.999184
0.998794 1 1 0.998794
0.999129 1 1 0.999129
0.999696 1 1 0.999696
0.999051 1 1 0.999051
0.999705 1 1 0.999705
1 1 1 1
0.999709 1 1 0.999709
1 1 1 1
1 1 1 1
1 1 1 1
1 1 1 1
1 1 1 1
0.999459 1 1 0.999459
0.999936 1 1 0.999936
0.999932 1 1 0.999932
1 1 1 1
0.999911 1 1 0.999911
1 1 1 1
1 1 1 1
1 1 1 1
1 1 1 1
1 1 1 1
0.987772 1.01579 0.97574 0.996596
1.04536 1.06354 0.985202 0.99767
1.02615 1.04249 0.986042 0.998265
0.935008 0.975615 0.968179 0.989878
0.997441 1.01907 0.981395 0.997332
1.03815 1.05209 0.988994 0.997737
1.01126 1.02625 0.988103 0.997254
0.949706 0.976587 0.981299 0.991007
0.932959 0.979251 0.974396 0.977762
0.774389 0.859526 0.93209 0.96659
0.687465 0.806606 0.892661 0.954778
0.999086 1 1 0.999086
0.999495 1 1 0.999495
0.999481 1 1 0.999481
0.99907 1 1 0.99907
0.998834 1 1 0.998834
0.998864 1 1 0.998864
0.999043 1 1 0.999043
0.999104 1 1 0.999104
1.0256 1.05475 0.974607 0.997699
1.01233 1.04865 0.967534 0.997759
1.00988 1.02211 0.990457 0.997556
1.00277 1.00038 1.00493 0.997475
0.997529 1.00479 0.995509 0.997253
1.03374 1 1.0361 0.997715
1.03102 1 1.03341 0.997685
1.00159 1 1.00362 0.997975
0.998993 1 1 0.998993
0.999448 1 1.00105 0.998401
0.999066 1 1 0.999066
0.999002 1 1 0.999002
0.999395 1.03935 0.963642 0.997841
0.998754 1 1.00008 0.998675
0.99938 1 1.00076 0.99862
0.997138 1.02817 0.972041 0.997715
1.00057 1.00855 0.99471 0.997368
0.990977 1.00093 0.992165 0.997878
1.01547 1 1.01729 0.998206
1.04334 1.00002 1.0457 0.997729
0.989943 1.02682 0.96619 0.997822
0.985142 1.00881 0.978729 0.997764
0.983425 1.0013 0.984328 0.997789
0.994023 1.00071 0.995204 0.998106
1.00151 1 1.00317 0.998344
1.00612 1 1.00778 0.998353
1.04359 1 1.04568 0.998007
0.805478 0.891806 0.932655 0.968416
0.927853 0.976418 0.96907 0.980592
0.999976 1 1.0018 0.998181
0.999582 1.00099 1.00107 0.997533
1.00697 1.02345 0.985776 0.998101
1.00005 1.00776 0.995146 0.99719
1.00462 1.00207 1.00571 0.996852
0.928073 0.976063 0.972129 0.978094
0.940697 0.981368 0.970327 0.987871
0.980385 0.987236 0.995141 0.997909
0.781935 0.862195 0.937282 0.967598
0.68639 0.819085 0.883713 0.948266
1.00024 1.00008 1.00184 0.998326
0.807181 0.888245 0.938983 0.967788
0.745208 0.836341 0.932901 0.955122
0.990514 1.0077 0.984882 0.99803
1.00655 1.0016 1.00708 0.997869
1.01056 1.00284 1.01013 0.997595
0.964931 0.978033 0.988341 0.998242
0.933261 0.978143 0.977541 0.976035
0.911491 0.952521 0.968258 0.988294
0.76947 0.858255 0.928795 0.965285
0.773087 0.894471 0.904859 0.955171
1.00196 1 1.00325 0.998714
0.787094 0.857305 0.957885 0.958469
0.860135 0.925676 0.962601 0.965298
0.989734 0.998436 0.992586 0.998689
1.01412 1.00265 1.01281 0.998647
0.974537 0.968896 1.00772 0.998119
0.906333 0.936435 0.978223 0.989401
0.902624 0.941389 0.983265 0.97514
0.775816 0.858631 0.93536 0.965992
0.813117 0.92685 0.914812 0.958984
1.00123 1 1.00255 0.99868
1.00089 1 1.00204 0.998846
1.00437 1 1.00528 0.999094
0.999052 1 1 0.999052
0.998724 1 1 0.998724
1.00111 1 1.00256 0.998554
1.00115 1 1.00267 0.998485
1.00078 1 1.00222 0.998568
0.998699 1 1 0.998699
1.00172 1 1.00321 0.998507
0.998751 1 1.00026 0.998491
1.00628 1 1.00762 0.998677
1.02127 0.999327 1.02287 0.999106
1.00228 1 1.00377 0.998518
0.998453 1 1 0.998453
0.99873 1 1 0.99873
0.998742 1 1.00006 0.998686
0.998815 1 1.00027 0.998549
0.999342 1 1.00065 0.998692
0.999195 1 1.00048 0.99872
1.00103 1 1.00241 0.998627
0.999436 1 1.00086 0.998578
1.00096 1 1.00224 0.99872
0.998867 1 1.00038 0.998483
0.998875 1 1.00093 0.997948
1.00103 1 1.00264 0.998394
1.00115 1 1.00265 0.998505
1.00093 1 1.00219 0.998742
0.999904 1 1.00108 0.998827
0.999169 1 1 0.999169
0.999276 1 1.00041 0.998866
0.999185 1 1 0.999185
0.999692 1 1 0.999692
0.999103 1 1 0.999103
0.999698 1 1 0.999698
0.999999 1 1 0.999999
0.999705 1 1 0.999705
1 1 1 1
1 1 1 1
1 1 1 1
1 1 1 1
1 1 1 1
0.999473 1 1 0.999473
0.99992 1 1 0.99992
0.99946 1 1 0.99946
1 1 1 1
0.999937 1 1 0.999937
0.999929 1 1 0.999929
1 1 1 1
1 1 1 1
1 1 1 1
1 1 1 1
1 1 1 1
0.803445 0.879183 0.946228 0.965786
0.752334 0.843923 0.93157 0.956956
0.936913 0.980004 0.965323 0.990373
0.998593 1.01871 0.982729 0.997478
1.04135 1.05569 0.988695 0.997692
0.9317 0.961855 0.976075 0.992392
1.01053 1.02569 0.987822 0.997366
0.942822 0.989658 0.973127 0.978983
0.778703 0.863151 0.934591 0.965303
0.684233 0.811774 0.886163 0.951164
0.963668 0.996243 0.972833 0.994314
0.932017 0.972651 0.979151 0.978627
0.762021 0.859593 0.917391 0.966318
0.75966 0.879962 0.904245 0.954705
0.999377 1 1.00067 0.998707
0.999116 1 1 0.999116
0.999493 1 1 0.999493
0.999059 1 1 0.999059
0.99888 1 1 0.99888
0.999413 1 1.00072 0.998697
0.99885 1 1 0.99885
0.998795 1 1 0.998795
0.999007 1 1 0.999007
0.99907 1 1 0.99907
1.00058 1.03956 0.964578 0.997845
0.994688 1.02594 0.971776 0.997694
0.997595 1.00847 0.991703 0.997494
0.992899 1.00109 0.99403 0.997773
1.03813 1.00082 1.03962 0.997751
1.02137 1 1.02334 0.998073
0.998662 1 1 0.998662
0.998838 1 1.00013 0.998704
0.990473 1.02711 0.966393 0.997868
1.00233 1 1.00402 0.998316
1.00618 1 1.00788 0.998314
0.983581 1.00709 0.978919 0.997691
0.981089 1.00073 0.982457 0.997883
0.996552 1.00154 0.996997 0.998021
1.03813 1 1.04024 0.99797
0.987618 1.00418 0.985321 0.99816
0.977301 1.00011 0.978612 0.998555
1.01456 1.00075 1.01561 0.99822
1.00582 1 1.00755 0.998283
1.00528 1 1.00714 0.998151
1.02356 1 1.02551 0.998101
0.807083 0.870914 0.961007 0.964309
0.815072 0.890771 0.944862 0.968415
0.916723 0.97323 0.963378 0.977746
1.00008 1 1.00176 0.998323
1.00654 1.00168 1.00697 0.997894
0.992688 1.00862 0.986148 0.998028
1.0092 1.00147 1.01 0.997745
0.800692 0.883165 0.936108 0.968495
0.929618 0.974395 0.975692 0.977815
0.903738 0.948619 0.966115 0.986103
0.96177 0.973668 0.989384 0.998379
0.767113 0.857486 0.928272 0.963733
0.746554 0.839359 0.930831 0.955525
0.761131 0.883862 0.900211 0.9566
1.00251 1 1.0038 0.998715
0.788585 0.860509 0.954204 0.960399
0.8696 0.933885 0.964822 0.965115
0.991422 0.997839 0.994785 0.998778
1.01375 1.00144 1.0137 0.99861
0.971868 0.967835 1.00579 0.998388
0.903823 0.940081 0.97385 0.987247
0.909092 0.946806 0.982425 0.977344
0.797197 0.881153 0.937808 0.964719
0.800055 0.914703 0.91083 0.960291
1.0065 0.999398 1.00768 0.999436
0.878557 0.937058 0.966292 0.970276
0.851705 0.926036 0.948736 0.969428
0.992513 0.978547 1.01456 0.999715
0.928508 0.936842 0.998183 0.992909
0.915639 0.939216 0.998565 0.976299
0.834059 0.902168 0.959422 0.963607
0.830277 0.947181 0.913635 0.959438
1.00077 1 1.00197 0.998812
1.00432 0.999997 1.00524 0.999092
1.02109 0.999601 1.02215 0.999354
0.998698 1 1 0.998698
0.998656 1 1.00016 0.998493
1.0001 1 1.00161 0.998499
1.00706 1 1.00834 0.998727
0.998452 1 1 0.998452
1.0026 1 1.00409 0.998509
1.02622 0.999803 1.02727 0.999179
1.03907 0.996732 1.04305 0.999446
1.02845 0.999904 1.02951 0.999068
0.998475 1 1 0.998475
0.998955 1 1.00041 0.998543
0.999167 1 1.00048 0.998684
0.998773 1 1 0.998773
0.999124 1 1.00053 0.998594
1.00061 1 1.00198 0.998628
1.00136 1 1.00263 0.998733
1.00044 1 1.00184 0.998608
1.00609 1 1.00711 0.998987
0.998537 1 0.999969 0.998568
0.999287 1.00029 1.00049 0.99851
0.998831 1 1.00069 0.998137
0.999556 1.00075 1.00153 0.99729
1.00141 1 1.00311 0.9983
0.998897 1 1.00079 0.998106
1.00078 1 1.00236 0.998419
1.00136 1 1.00277 0.998596
1.00087 1 1.00237 0.998503
1.00061 1 1.00188 0.998741
0.999129 1 1.00003 0.999096
0.999962 1 1.00114 0.998825
0.999167 1 1 0.999167
0.999682 1 1 0.999682
0.999185 1 1 0.999185
0.999692 1 1 0.999692
0.999997 1 1 0.999997
0.9997 1 1 0.9997
0.999998 1 1 0.999998
1 1 1 1
1 1 1 1
1 1 1 1
1 1 1 1
0.999275 1 1 0.999275
0.99989 1 1 0.99989
0.999407 1 1 0.999407
1 1 1 1
0.999924 1 1 0.999924
0.999461 1 1 0.999461
1 1 1 1
1 1 1 1
0.999938 1 1 0.999938
1 1 1 1
1 1 1 1
1 1 1 1
0.785189 0.858266 0.951966 0.961017
0.808632 0.886485 0.943548 0.966753
0.86608 0.933884 0.961238 0.964793
0.746595 0.839438 0.930571 0.955756
0.932183 0.970165 0.97044 0.990117
1.00826 1.02516 0.985994 0.997486
0.94953 0.988274 0.980351 0.980054
0.786046 0.86685 0.937894 0.96683
0.685617 0.820575 0.881838 0.94749
0.962216 0.992023 0.976288 0.99351
0.927816 0.973081 0.977642 0.975288
0.774494 0.868193 0.924628 0.964794
0.762474 0.885516 0.903517 0.952999
0.942936 0.979655 0.970657 0.991616
0.915761 0.945714 0.993464 0.974698
0.797599 0.886256 0.934223 0.963329
0.807063 0.925773 0.911384 0.956536
1.00051 1 1.00203 0.998479
0.998902 1 1.00015 0.998749
0.999145 1 1 0.999145
0.998926 1 1 0.998926
0.998736 1 1.00032 0.998412
0.998941 1 1.00021 0.998733
0.998836 1 1 0.998836
0.998762 1 1 0.998762
0.998829 1 1 0.998829
0.998972 1 1 0.998972
0.991803 1.02835 0.966476 0.997914
0.985105 1.00634 0.981232 0.99762
0.979206 1.00059 0.980617 0.997976
1.00058 1.00268 0.999976 0.997938
1.03147 1 1.03361 0.997933
1.00523 1 1.00696 0.998276
1.00281 1 1.00453 0.998289
1.00514 1 1.0069 0.998254
0.984793 1.0046 0.982086 0.998165
1.00414 1 1.006 0.998149
1.02409 1 1.02605 0.99809
0.976319 1.00057 0.977225 0.998507
1.01262 1.00168 1.01276 0.998182
0.957997 0.986636 0.972317 0.998618
0.994637 0.996469 0.998928 0.999233
1.03647 0.999766 1.03834 0.998432
1.00236 1 1.00421 0.998161
1.01274 1 1.01463 0.998133
0.886282 0.940079 0.96895 0.972985
0.810271 0.870809 0.965251 0.963978
0.804004 0.884906 0.939517 0.967066
1.00294 1 1.00423 0.998716
1.01358 1.00017 1.01486 0.998574
0.990159 0.996792 0.994474 0.998866
0.794323 0.864304 0.95608 0.961251
0.915178 0.945563 0.992794 0.97489
0.90534 0.938179 0.976047 0.988679
0.962217 0.963884 0.999633 0.998637
0.796182 0.88028 0.936087 0.966219
0.876164 0.938798 0.967161 0.964971
0.804327 0.918177 0.912112 0.960413
1.00484 0.999124 1.00633 0.999399
0.87521 0.935484 0.962979 0.971536
0.852433 0.926725 0.948817 0.969453
0.995307 0.98247 1.01351 0.999558
0.938699 0.945265 1.00045 0.992611
0.894799 0.932272 0.985573 0.973855
0.832162 0.947643 0.91448 0.960261
0.845662 0.909163 0.964552 0.964337
1.00533 0.986388 1.0195 0.999711
0.857646 0.921291 0.95205 0.977803
0.869338 0.944224 0.948515 0.970666
0.807622 0.925346 0.912278 0.956702
0.973892 0.961792 1.01447 0.998133
0.93971 0.952244 1.0097 0.977355
0.878307 0.931821 0.976393 0.96536
1.00429 0.999854 1.00535 0.999089
1.02116 0.999429 1.02249 0.999272
1.02212 0.989041 1.0339 0.999566
0.998451 1 1 0.998451
1.00281 1 1.00432 0.9985
1.03174 1 1.03251 0.999251
0.998508 1 1.00003 0.998482
1.02769 0.999977 1.02867 0.999079
1.04001 0.996873 1.04387 0.999421
1.02896 0.99505 1.03461 0.999489
1.02038 0.999954 1.02139 0.999058
0.999048 1 1.00044 0.99861
1.00057 1 1.00195 0.998629
1.00191 1 1.00316 0.998746
1.00502 1 1.00607 0.998962
0.999987 1 1.00138 0.998611
1.00283 1 1.00394 0.998893
0.998797 1 0.999998 0.998799
1.00126 1 1.00346 0.997809
0.999663 1.00058 1.00055 0.998538
0.999002 1.00037 1.00057 0.998069
0.998296 1.00021 1.00101 0.997076
1.00739 1.00902 1.00129 0.997094
1.00122 1.00047 1.00276 0.997999
0.999331 1.00063 1.00138 0.997328
1.00435 1 1.00594 0.998427
1.00202 1 1.00374 0.99828
0.998909 1 1.00065 0.998265
1.0006 1 1.00216 0.998444
1.00111 1 1.00249 0.998629
0.999034 1 1.00004 0.998993
1.0005 1 1.00177 0.998739
0.999117 1 1.00002 0.999096
0.999643 1 1 0.999643
0.999165 1 1 0.999165
0.99968 1 1 0.99968
0.999995 1 1 0.999995
0.999692 1 1 0.999692
0.999996 1 1 0.999996
1 1 1 1
0.999998 1 1 0.999998
1 1 1 1
1 1 1 1
0.999066 1 1 0.999066
0.99973 1 1 0.99973
0.999273 1 1 0.999273
1 1 1 1
0.999846 1 1 0.999846
0.999342 1 1 0.999342
1 1 1 1
1 1 1 1
0.999928 1 1 0.999928
1 1 1 1
1 1 1 1
1 1 1 1
0.873082 0.937155 0.95947 0.970985
0.779611 0.85733 0.945116 0.962155
0.806487 0.882822 0.945236 0.96646
0.998643 1 1 0.998643
0.856616 0.923565 0.954924 0.971292
0.864789 0.933462 0.960356 0.964675
0.747167 0.844278 0.924816 0.956923
0.968909 0.994412 0.981725 0.992491
0.92802 0.968709 0.979442 0.978105
0.780625 0.879915 0.92107 0.963185
0.757542 0.875806 0.906943 0.953716
0.94182 0.977735 0.974058 0.988923
0.90721 0.942928 0.984591 0.977178
0.808947 0.891515 0.941649 0.963612
0.803521 0.919844 0.912947 0.956836
0.908862 0.946307 0.973697 0.986375
0.909126 0.932661 0.999924 0.974839
0.857838 0.920194 0.966586 0.964463
0.830434 0.946193 0.914804 0.959395
1.0004 1 1.00215 0.998257
1.00148 1 1.00305 0.998439
0.99879 1 1 0.99879
0.998445 1 1 0.998445
0.998827 1 1.00036 0.998469
0.998769 1 1 0.998769
0.998769 1 1 0.998769
0.998863 1 1 0.998863
0.980431 1.00531 0.977041 0.998168
0.973634 1.0004 0.974744 0.998463
1.00467 1 1.00646 0.998225
1.01143 1.00265 1.01063 0.998142
1.02596 1 1.02793 0.998079
1.0036 1 1.00546 0.998147
1.00273 1 1.00457 0.998168
0.96439 0.988824 0.976568 0.998692
1.01249 1 1.01435 0.99817
1.02721 1.00032 1.02846 0.998456
0.989873 0.996284 0.994278 0.999283
1.0024 1 1.00416 0.99825
0.958233 0.976598 0.982555 0.998615
1.00544 0.992441 1.01364 0.999459
1.04635 0.998011 1.04996 0.998548
1.00248 1 1.00416 0.998323
0.869184 0.924665 0.959364 0.979814
0.885333 0.939622 0.96834 0.973029
0.81494 0.870787 0.971174 0.963645
1.00286 0.998648 1.00486 0.999365
0.999354 0.986141 1.014 0.999405
0.873453 0.935345 0.959964 0.972775
0.921288 0.937004 1.00643 0.976947
0.929547 0.94257 0.996479 0.989668
0.847769 0.912125 0.964947 0.963208
0.853143 0.927638 0.948658 0.969468
0.83518 0.949089 0.915613 0.961083
1.00819 0.991101 1.01758 0.999669
0.8591 0.922282 0.952663 0.97778
0.867929 0.942262 0.947181 0.972477
0.983233 0.968101 1.01606 0.999574
0.803411 0.919115 0.913454 0.956933
0.92058 0.937644 1.0062 0.975751
0.886809 0.941405 0.976299 0.964874
1.00722 0.98408 1.02376 0.999764
0.877703 0.939392 0.953879 0.979507
0.85498 0.922013 0.954553 0.971446
0.757767 0.878959 0.902864 0.954871
0.857875 0.921332 0.965849 0.964049
0.959535 0.957843 1.00568 0.996114
0.943805 0.947993 1.02346 0.972758
1.01906 0.999759 1.02013 0.999191
1.02403 0.990335 1.0345 0.999534
1.00833 0.979074 1.03031 0.999582
0.99849 1 1 0.99849
1.02806 1 1.02899 0.999091
1.04041 0.998282 1.04282 0.999396
1.01528 0.999952 1.0163 0.999045
1.02814 0.996292 1.03249 0.999488
1.01258 0.993141 1.02035 0.999238
1.00365 1 1.00472 0.998937
0.999511 1 1.0009 0.998614
1.00441 1 1.00555 0.998871
1.00768 1 1.00945 0.998249
0.999028 1 1 0.999028
1.00039 1 1.00242 0.99797
1.00164 1.00064 1.00413 0.996884
1.00469 1.00637 1.00188 0.996461
0.999165 1.00076 1.0004 0.997999
0.998686 1.00068 1.00109 0.99692
1.00877 1.01109 1.00053 0.997188
1.00448 1.00426 1.00261 0.997609
1.00701 1.0086 1.00125 0.99717
1.00599 1 1.00777 0.998234
1.00239 1.00118 1.00323 0.997983
0.998894 1.00025 1.00128 0.997367
0.999401 1 1.00057 0.998829
1.00399 1 1.00556 0.998433
1.00267 1 1.00442 0.99826
1.00094 1 1.00228 0.998663
0.999059 1 1.00007 0.998991
0.999569 1 1 0.999569
0.999138 1 1.00004 0.999096
0.99964 1 1 0.99964
0.999992 1 1 0.999992
0.999677 1 1 0.999677
0.999994 1 1 0.999994
1 1 1 1
0.999995 1 1 0.999995
1 1 1 1
1 1 1 1
0.998983 1 1 0.998983
0.999611 1 1 0.999611
0.999105 1 1 0.999105
1 1 1 1
0.999718 1 1 0.999718
0.999271 1 1 0.999271
1 1 1 1
1 1 1 1
0.999803 1 1 0.999803
1 1 1 1
1 1 1 1
1 1 1 1
0.862547 0.92347 0.954769 0.978277
0.875965 0.936931 0.962887 0.970966
0.779686 0.857851 0.944484 0.962306
0.998671 1 1 0.998671
0.998603 1 1 0.998603
0.998518 1 1 0.998518
0.867953 0.945205 0.946173 0.97051
0.853576 0.923108 0.951976 0.971323
0.864799 0.933045 0.960911 0.964561
0.945606 0.980726 0.973124 0.990818
0.901516 0.940949 0.983054 0.974607
0.797301 0.874137 0.944162 0.966043
0.816617 0.92913 0.91944 0.955913
0.912714 0.949391 0.972224 0.988833
0.910559 0.934495 0.998954 0.975407
0.83675 0.897167 0.966001 0.965484
0.83111 0.947451 0.91359 0.960175
0.9035 0.938102 0.975873 0.986927
0.925461 0.940844 1.00754 0.976286
0.878047 0.929958 0.977848 0.965568
0.816263 0.928806 0.916498 0.9589
0.998535 1 1.00025 0.998281
1.00095 1 1.00272 0.998236
1.00145 1 1.00305 0.9984
0.998437 1 1 0.998437
0.998617 1 1.00009 0.998526
0.998776 1 1 0.998776
0.970358 0.989255 0.982127 0.998748
0.985538 0.996396 0.989773 0.999322
1.00297 1 1.0048 0.998176
1.01965 1.00056 1.02063 0.99848
1.0136 1 1.01542 0.998207
1.00313 1 1.00491 0.998225
1.00205 1 1.00371 0.998346
0.965393 0.977395 0.989006 0.998699
1.04375 0.998076 1.04714 0.998685
1.00825 0.988305 1.02078 0.999418
1.00294 1 1.00446 0.998486
0.98019 0.966648 1.01544 0.998588
1.00781 0.981942 1.02691 0.999455
1.03273 0.996068 1.03805 0.998806
0.890538 0.943735 0.961303 0.981617
0.869769 0.924901 0.95929 0.980299
0.884733 0.939141 0.968138 0.97307
1.01216 0.996143 1.01646 0.999627
0.97301 0.965699 1.00896 0.998621
0.860797 0.923368 0.953443 0.977756
0.915426 0.92626 1.00881 0.97967
0.88165 0.938111 0.974773 0.964136
0.867663 0.940636 0.946765 0.974288
0.817916 0.928885 0.920979 0.956087
1.00272 0.981241 1.02211 0.999786
0.878951 0.93954 0.954455 0.980153
0.85445 0.923211 0.952693 0.971478
0.956789 0.953975 1.01031 0.992712
0.760863 0.884308 0.902605 0.953246
0.83314 0.897429 0.962092 0.964943
0.952973 0.952148 1.02514 0.97632
1.00118 0.965649 1.03766 0.999166
0.863224 0.923323 0.955552 0.978398
0.870719 0.937282 0.96261 0.965066
0.685783 0.804173 0.892762 0.955217
0.794206 0.883284 0.933393 0.963315
0.922722 0.937935 1.0083 0.975685
0.935834 0.949567 0.99511 0.990381
1.02818 0.991735 1.03726 0.999501
1.01193 0.985062 1.02771 0.999586
1.01304 0.989991 1.02377 0.999525
1.01024 1 1.01122 0.999032
1.027 0.997333 1.03027 0.999487
1.0154 0.991644 1.02465 0.99932
1.00883 1 1.01002 0.99882
1.0062 1 1.00736 0.99885
1.00705 1.00001 1.00896 0.998103
1.01562 1.00074 1.01797 0.996958
0.999562 1.00001 1.00142 0.998133
1.00306 1.00111 1.00511 0.99686
1.00443 1.00244 1.00596 0.996038
1.00427 1.00635 1.00191 0.996036
1.00548 1.00763 1.00108 0.996798
1.00445 1.00616 1.00189 0.996413
0.99897 1.00097 1.00124 0.996765
1.00307 1.00453 1.0011 0.997455
1.00879 1.01107 1.00048 0.997274
1.0025 1 1.00464 0.997873
1.00512 1.00472 1.00274 0.997665
1.00706 1.00866 1.00117 0.997247
1.00403 1 1.00549 0.998554
1.00504 1 1.00682 0.998234
1.00357 1.00196 1.00365 0.997967
0.999459 1 1 0.999459
0.99971 1 1.00088 0.998827
1.00345 1 1.00501 0.99844
0.998992 1 1 0.99899
0.999564 1 1 0.999564
0.999984 1 1 0.999984
0.999636 1 1 0.999636
0.99999 1 1 0.99999
1 1 1 1
0.999994 1 1 0.999994
1 1 1 1
1 1 1 1
0.998957 1 1 0.998957
0.999602 1 1 0.999602
0.999008 1 1 0.999008
1 1 1 1
0.99965 1 1 0.99965
0.999144 1 1 0.999144
1 1 1 1
1 1 1 1
0.999706 1 1 0.999706
1 1 1 1
1 1 1 1
1 1 1 1
0.877458 0.939299 0.953819 0.979392
0.863794 0.924073 0.955543 0.978259
0.877014 0.9363 0.964684 0.970971
0.99884 1 1.00031 0.998527
0.998756 1 1.00037 0.998387
0.998699 1 1 0.998699
0.998595 1 1 0.998595
0.998504 1 1 0.998504
0.998498 1 1 0.998498
0.998433 1 1 0.998433
0.850658 0.927513 0.94626 0.969225
0.868703 0.942903 0.947515 0.972339
0.850926 0.922045 0.950081 0.971356
0.832208 0.94883 0.912718 0.960964
0.903656 0.941646 0.972628 0.986663
0.910161 0.93174 1.00082 0.97604
0.845566 0.906842 0.965426 0.965821
0.895398 0.937397 0.968699 0.986061
0.921299 0.933875 1.01303 0.973845
0.886875 0.941591 0.975578 0.965468
0.801089 0.91593 0.91085 0.960222
0.914361 0.941483 0.982568 0.988422
0.932501 0.942848 1.01597 0.973478
0.838669 0.906057 0.960269 0.963923
0.77526 0.891976 0.909393 0.955747
1.00671 1 1.00825 0.998475
0.999141 1 1.00085 0.998289
1.00183 1 1.00362 0.998214
0.998429 1 1 0.998429
0.971193 0.977021 0.995226 0.998804
1.00878 0.98499 1.0248 0.999373
1.00221 1 1.00401 0.998201
1.00185 1 1.00348 0.99837
1.03667 0.997233 1.04077 0.998821
1.00219 1 1.00371 0.998479
1.03381 0.995567 1.03967 0.998792
0.977644 0.965252 1.01534 0.997532
1.00669 0.974688 1.03326 0.999588
1.01346 0.994716 1.01995 0.998919
0.962927 0.942843 1.02409 0.997275
1.02156 0.978165 1.0451 0.999296
0.869791 0.92444 0.960205 0.979878
0.888104 0.942932 0.958667 0.982462
0.869785 0.924813 0.958927 0.980781
0.99674 0.97662 1.0208 0.999805
0.963357 0.959084 1.0081 0.996387
0.878511 0.938782 0.954113 0.980805
0.950524 0.955394 1.0222 0.973298
0.837332 0.902486 0.96118 0.965279
0.852771 0.924098 0.949878 0.971509
0.756886 0.874527 0.907257 0.953953
1.00356 0.968367 1.03706 0.999313
0.863227 0.924599 0.954252 0.978383
0.866618 0.934542 0.961003 0.964948
0.938095 0.94911 0.995571 0.992791
0.683596 0.810354 0.886435 0.951651
0.802774 0.88651 0.939945 0.963401
0.921524 0.933785 1.01301 0.974191
0.997952 0.973049 1.02768 0.997967
0.873696 0.937884 0.959148 0.971238
0.752465 0.843366 0.931898 0.957419
0.763437 0.860615 0.917604 0.966738
0.902217 0.92516 0.998993 0.976185
0.907666 0.935175 0.983113 0.987256
1.01393 0.98855 1.02609 0.99959
1.01306 0.987403 1.02648 0.99952
0.991085 0.986327 1.00548 0.999343
1.01817 0.990154 1.02891 0.999402
1.00714 0.994657 1.01366 0.9989
1.00221 1.0008 1.00355 0.997864
1.00675 1 1.00881 0.997956
1.01443 1.00069 1.0169 0.996881
1.00871 1.00043 1.01222 0.996105
1.00467 1.00181 1.00604 0.996836
1.00482 1.00225 1.00664 0.99595
1.00231 1.00216 1.00445 0.995715
1.01351 1.01743 1 0.996144
1.00923 1.01221 1.00077 0.996286
1.00473 1.00659 1.00218 0.995981
1.00218 1.00499 1.00013 0.997082
1.00445 1.00686 1.00074 0.996862
1.00423 1.00598 1.0019 0.996364
1.00005 1.00145 1.00112 0.997489
1.00334 1.00483 1.00108 0.997437
1.00852 1.01076 1.00043 0.99736
1.005 1 1.00682 0.998191
1.00259 1.00008 1.00459 0.997929
1.00563 1.00503 1.00288 0.997721
0.999723 1 1.00048 0.999241
1.00336 1 1.00481 0.998557
1.00421 1 1.00598 0.998234
0.999971 1 1 0.999971
0.999451 1 1 0.999451
1.00006 1 1.00124 0.998825
0.99956 1 1 0.99956
0.999981 1 1 0.999981
1 1 1 1
0.999988 1 1 0.999988
1 1 1 1
1 1 1 1
0.999675 1 1.00116 0.998512
0.99885 1 1 0.99885
0.999508 1 1 0.999508
0.998954 1 1 0.998954
0.999995 1 1 0.999995
0.999605 1 1 0.999605
0.999032 1 1 0.999032
1 1 1 1
1 1 1 1
0.999689 1 1 0.999689
1 1 1 1
1 1 1 1
1 1 1 1
0.85649 0.921263 0.950901 0.977696
0.876868 0.938449 0.9534 0.98005
0.864748 0.925517 0.955127 0.978237
0.998753 1 1.00021 0.998539
0.999273 1 1.00089 0.998382
0.999247 1 1.00085 0.998401
0.99856 1 1.00017 0.998391
1.00294 1 1.00462 0.998329
0.998587 1 1 0.998587
0.99849 1 1 0.99849
0.9985 1 1 0.9985
0.998437 1 1 0.998437
1.00444 1 1.00596 0.998484
0.860319 0.926745 0.961976 0.965018
0.852536 0.92804 0.947764 0.969273
0.870126 0.941884 0.948316 0.974162
0.803079 0.918694 0.910236 0.960359
0.882456 0.93704 0.976504 0.964409
0.887903 0.932353 0.966998 0.984826
0.928421 0.941 1.01091 0.975984
0.91215 0.943839 0.98041 0.985736
0.942908 0.951956 1.01486 0.975993
0.848511 0.91002 0.966159 0.965067
0.774099 0.896517 0.904339 0.954787
0.925191 0.939241 0.99723 0.987777
0.928258 0.938987 1.01231 0.976553
0.777237 0.860529 0.935342 0.965646
0.713807 0.840796 0.889295 0.95465
1.00763 1 1.00863 0.999004
1.008 1 1.00954 0.998477
1.0005 1 1.00221 0.998298
0.978818 0.968048 1.01474 0.996441
1.00988 0.969867 1.04154 0.999728
1.00213 1 1.00366 0.998473
1.03588 0.995102 1.04225 0.998779
1.01467 0.997102 1.01872 0.998926
1.02582 0.983385 1.0439 0.999285
0.967723 0.950968 1.02042 0.997256
1.01907 0.995223 1.02463 0.999345
0.977495 0.963997 1.01662 0.997429
0.884816 0.939727 0.967972 0.972721
0.870861 0.925034 0.960303 0.980354
0.885806 0.942089 0.956218 0.983308
1.00694 0.973557 1.03486 0.999442
0.936648 0.94942 0.997571 0.98895
0.86542 0.925938 0.955313 0.978361
0.9256 0.942855 1.00842 0.973504
0.790324 0.868018 0.942713 0.965821
0.863576 0.931805 0.960548 0.964842
0.685342 0.819644 0.881989 0.948023
0.99747 0.971988 1.02812 0.998145
0.875638 0.936828 0.962385 0.971216
0.746764 0.839536 0.930206 0.956235
0.912691 0.940939 0.981188 0.988576
0.775255 0.868442 0.924918 0.965164
0.892488 0.926667 0.988473 0.974347
0.963871 0.963978 1.00315 0.996745
0.785338 0.859096 0.950825 0.961424
0.77417 0.859338 0.931589 0.967047
0.912897 0.945772 0.990213 0.97478
0.888231 0.93127 0.964114 0.989286
1.01227 0.985336 1.02783 0.999515
0.995588 0.985704 1.01072 0.999316
0.997884 0.996666 1.00271 0.998516
1.00542 0.98889 1.01776 0.998978
1.00169 1.00093 1.00282 0.99795
0.998599 1.00199 0.999533 0.997086
1.01277 1.00062 1.01539 0.996802
1.00704 1.00059 1.01037 0.996114
0.999234 1.0016 1.00137 0.996272
1.0048 1.00195 1.00701 0.995862
1.00248 1.00305 1.0037 0.995745
1.0128 1.01652 1 0.996343
1.03122 1.03469 1 0.996643
1.02174 1.02561 1.00002 0.996212
1.01334 1.01723 1 0.99617
1.00922 1.0127 1 0.996564
1.00767 1.01039 1.00107 0.996236
1.00528 1.00694 1.00244 0.995926
1.00191 1.00468 1 0.997243
1.00088 1.00371 1.00002 0.997156
1.00335 1.00613 1.00032 0.996926
1.00007 1.00016 1.00208 0.997839
1.00061 1.00179 1.0013 0.997522
1.00368 1.00518 1.0011 0.997418
1.00326 1 1.00441 0.998861
1.00454 1 1.00635 0.998194
1.00264 1.0001 1.00457 0.997984
0.999941 1 1 0.999941
1.00016 1 1.00093 0.999233
1.00284 1 1.00428 0.99856
1 1 1 1
0.999964 1 1 0.999964
0.999444 1 1 0.999444
0.999978 1 1 0.999978
1 1 1 1
1 1 1 1
1.00116 1 1.00273 0.998432
0.999083 1 1.00035 0.998733
0.99978 1 1.00129 0.998496
0.999417 1 1 0.999417
0.998885 1 1.00004 0.998849
0.999979 1 1 0.999979
0.999511 1 1 0.999511
0.998951 1 1 0.998951
1 1 1 1
0.999997 1 1 0.999997
0.999608 1 1 0.999608
1 1 1 1
1 1 1 1
1 1 1 1
0.874488 0.937396 0.958732 0.973047
0.85886 0.922796 0.951965 0.977677
0.876789 0.93706 0.954084 0.980711
0.998659 1 1.00024 0.998415
0.999007 1 1.00046 0.998551
0.999389 1 1.00101 0.998378
0.998664 1 1.00027 0.998395
0.999066 1 1.00065 0.998421
1.00144 1 1.00306 0.998383
1.00796 1 1.00984 0.99814
1.00923 1 1.01091 0.99834
0.998501 1 1 0.998501
0.998441 1 1 0.998441
1.00412 1 1.00565 0.998472
1.01462 1 1.01596 0.998682
0.755837 0.845702 0.934403 0.956482
0.869373 0.935005 0.963691 0.964838
0.853661 0.92792 0.949101 0.969309
0.763779 0.887406 0.900102 0.956212
0.853222 0.91681 0.965078 0.964319
0.934405 0.943869 1.01688 0.973538
0.915113 0.939462 0.987468 0.986444
0.924125 0.937977 0.995463 0.989723
0.700065 0.831301 0.885342 0.951194
0.922255 0.935373 1.01217 0.97412
0.795851 0.880702 0.937149 0.96426
0.921723 0.943208 0.986571 0.990523
0.914087 0.934983 1.00016 0.977494
0.765773 0.863664 0.918387 0.965449
0.999759 1 1.00021 0.999546
1.00732 1 1.00832 0.99901
1.00836 1 1.0099 0.998478
0.964525 0.949145 1.01897 0.997287
1.03003 0.988599 1.04267 0.999273
1.01528 0.998618 1.01777 0.998934
1.01902 0.996667 1.02309 0.999344
0.97496 0.963366 1.0146 0.997475
0.9953 0.988246 1.0089 0.998254
0.809013 0.871447 0.965364 0.961664
0.882379 0.938958 0.964454 0.974378
0.870114 0.925065 0.958985 0.980826
0.998132 0.970514 1.03023 0.998277
0.903331 0.936424 0.974981 0.989415
0.874997 0.935746 0.962791 0.971217
0.897334 0.920119 0.999535 0.975691
0.783735 0.882297 0.921816 0.96363
0.747244 0.84426 0.924482 0.957388
0.964814 0.962312 1.0058 0.996815
0.779653 0.857814 0.944255 0.96254
0.779394 0.863333 0.934751 0.965791
0.891081 0.932181 0.969072 0.986418
0.906726 0.94579 0.981055 0.97721
0.954306 0.971134 0.98425 0.998396
0.800222 0.876846 0.944626 0.966111
0.933241 0.975005 0.978226 0.97847
0.903652 0.946424 0.968175 0.986193
0.999727 0.984688 1.01599 0.999293
0.989835 0.996119 0.995068 0.998617
0.993716 1.00205 0.99391 0.99776
1.00175 1.0011 1.00262 0.998035
1.00158 1.00242 1.0021 0.99707
1.00023 1.00368 0.999428 0.997129
1.00576 1.00079 1.00888 0.996124
0.99916 1.00122 1.00167 0.996284
1.01847 1.02173 0.999737 0.997069
1.00291 1.00396 1.00319 0.995774
1.0119 1.0156 1 0.996354
1.03163 1.03455 0.999998 0.997185
1.03498 1.03788 1 0.997211
1.03381 1.03737 1 0.996562
1.03097 1.03441 1 0.996683
1.02224 1.02591 1 0.996427
1.02048 1.02431 1 0.996264
1.01293 1.0168 1 0.996195
1.0112 1.01431 1 0.996928
1.00926 1.01258 1.00014 0.996591
1.00618 1.00854 1.00148 0.996185
0.999251 1.00171 1 0.99755
1.00257 1.00535 1 0.997237
0.99968 1.00246 1 0.997229
1.00264 1 1.00419 0.998456
1.00062 1.00054 1.00225 0.997839
1.0011 1.0021 1.00145 0.997555
1.00001 1 1.00016 0.999852
1.00275 1 1.0039 0.998857
1.00374 1 1.00556 0.998196
1 1 1 1
0.999927 1 1 0.999927
1.00054 1 1.00132 0.999225
1 1 1 1
0.999958 1 1 0.999958
1 1 1 1
0.999255 1 1.0009 0.998356
1.00068 1 1.00226 0.998424
1.00087 1 1.00226 0.998607
0.999557 1 1.00023 0.999323
0.999306 1 1.00057 0.998732
0.999385 1 1.00091 0.99848
0.999957 1 1 0.999957
0.999421 1 1 0.999421
0.998847 1 1 0.998847
1 1 1 1
0.999984 1 1 0.999984
0.999515 1 1 0.999515
1 1 1 1
0.999999 1 1 0.999999
1 1 1 1
0.786622 0.857214 0.957067 0.958814
0.874064 0.93686 0.958811 0.973051
0.861739 0.9248 0.953104 0.977659
1.00039 1 1.00199 0.998397
1.00257 1.00076 1.00362 0.998194
1.00641 1 1.00815 0.998271
0.99925 1 1.00085 0.998398
0.998903 1 1.00046 0.998441
1.00135 1 1.00292 0.998435
1.00807 1 1.00976 0.998319
1.00747 1 1.00932 0.998166
1.00912 1 1.0111 0.998049
0.992339 1.00044 0.99291 0.998984
1.00303 1 1.00458 0.99846
1.01155 0.999993 1.01292 0.998651
0.778623 0.859515 0.939549 0.964171
0.744426 0.835373 0.933481 0.954631
0.87596 0.940263 0.965697 0.964704
0.687696 0.820526 0.884406 0.947661
0.796206 0.879466 0.937431 0.965755
0.91343 0.932164 1.00374 0.976247
0.931827 0.944637 0.999133 0.987296
0.914629 0.938632 0.985779 0.988485
0.766862 0.856597 0.928304 0.964385
0.898703 0.92603 0.994754 0.975608
0.906798 0.943818 0.970986 0.989486
0.899756 0.946328 0.974932 0.975234
1.00497 1 1.00596 0.999021
0.999386 1 0.999899 0.999487
1.00705 1 1.00805 0.999016
0.973622 0.963914 1.01258 0.997519
1.01893 0.998088 1.02155 0.999344
0.995713 0.989029 1.00859 0.998179
0.985872 0.993493 0.995 0.997316
0.806403 0.893776 0.931662 0.968423
0.810692 0.870712 0.967361 0.962483
0.882676 0.939638 0.962465 0.976013
0.966749 0.967972 1.00179 0.99695
0.89274 0.932706 0.969753 0.987005
0.780039 0.858707 0.943611 0.962671
0.898648 0.94043 0.980232 0.974843
0.7881 0.869448 0.93707 0.967311
0.958559 0.973343 0.987233 0.997547
0.808072 0.886127 0.94296 0.967076
0.930851 0.976009 0.977768 0.975418
0.909533 0.948635 0.969893 0.988542
0.963657 0.987421 0.977613 0.998282
0.936379 0.981366 0.975834 0.977788
0.941368 0.9799 0.969991 0.990399
0.980706 0.994618 0.987289 0.998707
0.990681 1.00238 0.990572 0.997734
0.981737 1.0074 0.976842 0.997625
1.00339 1.00278 1.00356 0.997054
0.999468 1.00371 0.998648 0.997125
1.02066 1.02942 0.993757 0.99772
0.99886 1.00071 1.00186 0.996296
1.01785 1.02167 0.999212 0.997052
1.03175 1.03765 0.996584 0.997726
1.01094 1.01463 1 0.996364
1.03096 1.03413 0.999749 0.99718
1.03585 1.03903 0.999262 0.997674
1.03253 1.03506 1 0.997551
1.03588 1.03871 1 0.997275
1.035 1.03805 1 0.997068
1.03454 1.03804 1 0.996629
1.03403 1.03758 1 0.996575
1.03083 1.03422 1 0.996722
1.02211 1.02551 1 0.996684
1.02379 1.02742 1 0.996459
1.01926 1.02303 1 0.996317
1.00502 1.00776 1 0.997277
1.01042 1.01353 1 0.996923
1.00935 1.0126 1.00017 0.996619
0.99848 1.00004 1.00026 0.998175
1.0006 1.00306 1 0.997547
1.00323 1.00601 1 0.99723
1.00057 1 1.00091 0.999662
1.0019 1 1.00345 0.998457
1.00142 1.00096 1.00263 0.997838
1 1 1 1
1.00044 1 1.00061 0.999829
1.00241 1 1.00356 0.998853
1 1 1 1
0.999914 1 1 0.999914
1 1 1 1
0.998296 1.00003 1 0.99827
1 1 1.00164 0.998366
1.00158 1 1.0031 0.998482
1.00004 1 1.00163 0.998415
1.00111 1 1.0025 0.998606
1.00031 1 1.00112 0.999197
0.999931 1 1 0.999931
0.999465 1 1.00014 0.999325
0.999784 1 1.00105 0.998731
1 1 1 1
0.999964 1 1 0.999964
0.999424 1 1 0.999424
1 1 1 1
0.999989 1 1 0.999989
1 1 1 1
0.809398 0.882426 0.948489 0.967056
0.789464 0.860559 0.956569 0.959037
0.873201 0.936251 0.95849 0.973049
1.00225 1 1.00388 0.998378
1.00812 1 1.00999 0.998151
1.00106 1.00041 1.00238 0.998263
0.999446 1.00143 1.00047 0.997552
1.00764 1.00032 1.00919 0.99814
1.00737 1 1.00909 0.998299
1.00599 1 1.00782 0.998192
1.01152 1.00009 1.01334 0.998107
0.997917 1.00007 1 0.997845
0.983538 1.0007 0.984163 0.998662
0.985308 1.00035 0.987161 0.997772
0.992894 1.00025 0.993607 0.99903
1.00698 1 1.00837 0.99862
0.921578 0.968877 0.973755 0.976818
0.777795 0.856423 0.941126 0.965005
0.744822 0.837808 0.930889 0.955016
0.765068 0.858356 0.925888 0.962662
0.910519 0.936186 0.997612 0.974912
0.916924 0.934242 0.99075 0.990627
0.908686 0.943146 0.972227 0.990985
0.911018 0.947949 0.982558 0.978101
0.935559 0.97441 0.969748 0.99008
0.997 1.00132 0.997465 0.998218
1.00457 1 1.00558 0.998999
0.99919 1 0.999762 0.999428
0.996993 0.991019 1.00791 0.998135
0.990664 0.996973 0.996251 0.997411
0.912442 0.968688 0.963433 0.977687
0.815738 0.892215 0.944003 0.968519
0.812182 0.868972 0.97023 0.963326
0.965359 0.978001 0.990388 0.996653
0.91025 0.949287 0.972149 0.986348
0.807867 0.883182 0.94617 0.966765
0.928173 0.969297 0.979117 0.977997
0.971168 0.987287 0.9853 0.998349
0.944177 0.989549 0.974791 0.978825
0.937878 0.977031 0.971479 0.988108
0.986614 1.00426 0.984659 0.997735
0.960532 0.993992 0.972809 0.993348
0.991544 1.00465 0.989209 0.997725
0.982041 1.00698 0.977606 0.997575
1.00074 1.03212 0.971653 0.997879
0.998976 1.00375 0.998123 0.997121
1.02116 1.02957 0.994117 0.997698
1.03074 1.04562 0.987758 0.997991
1.01726 1.02163 0.998679 0.997035
1.03122 1.03781 0.995932 0.997705
1.02857 1.03797 0.993024 0.997912
1.03028 1.03378 0.999441 0.997176
1.03591 1.03952 0.998869 0.997654
1.03363 1.03753 0.998502 0.997742
1.03314 1.03563 0.999997 0.997603
1.03187 1.03463 0.999974 0.997364
1.03678 1.03954 1 0.997339
1.03493 1.03798 1 0.997059
1.03672 1.03996 1 0.996889
1.03113 1.03455 1 0.996695
1.03436 1.03787 1 0.996618
1.03422 1.03776 1 0.996587
1.01525 1.01824 1 0.997059
1.02141 1.0248 1 0.996699
1.02532 1.02893 1 0.996491
0.999111 1.00115 1 0.997965
1.00624 1.00899 1 0.997273
1.00957 1.0127 1 0.996918
1.00011 1 1.00068 0.999431
0.998872 1.00028 1.00042 0.998176
1.002 1.00446 1 0.997544
1 1 1 1
1.00073 1 1.00109 0.999638
1.0011 1 1.00265 0.998458
1 1 1 1
1.00086 1 1.00106 0.999805
1 1 1 1
1.0014 1.00377 1 0.997637
0.9983 1.00004 1 0.998261
0.999921 1 1.00162 0.998302
1.00092 1 1.00255 0.998376
1.00137 1 1.00292 0.998456
1.00099 1 1.00199 0.999004
1.00129 1 1.00269 0.998605
0.999944 1 1.00075 0.999199
0.999898 1 1 0.999898
1 1 1 1
0.999939 1 1 0.999939
0.999329 1 1 0.999328
1 1 1 1
0.99997 1 1 0.99997
1 1 1 1
0.936775 0.982634 0.973137 0.979647
0.806363 0.88747 0.938922 0.967715
0.79693 0.865261 0.961235 0.958172
1.00953 1 1.01152 0.998032
0.999344 1 1.00101 0.998333
1.00616 1.00025 1.00781 0.998117
1.00067 1.00237 1.0007 0.997611
1.00787 1.01063 1.00016 0.997116
0.998169 1.00038 1 0.997791
1.01438 1.00018 1.01606 0.998164
0.997932 1.00027 1 0.997663
0.988185 1.00077 0.988768 0.99864
0.996221 1.00082 0.9976 0.997797
0.981582 1.00303 0.98066 0.997918
0.995866 1.00129 0.997192 0.997384
0.985806 1.00082 0.987064 0.997908
0.996273 1.00008 0.997108 0.999077
0.937869 0.978777 0.967718 0.99017
0.924999 0.972004 0.973823 0.977221
0.77829 0.857872 0.938171 0.967023
0.919319 0.953123 0.989461 0.974806
0.911846 0.942081 0.975785 0.991925
0.939789 0.973399 0.972223 0.993055
0.989836 1.00377 0.988395 0.997699
0.994899 1.00067 0.996011 0.998215
1.00425 1 1.00527 0.998978
0.991904 0.999461 0.99494 0.997487
0.947281 0.975064 0.980945 0.990378
0.927708 0.975048 0.970314 0.980557
0.804088 0.886139 0.938253 0.967122
0.972368 0.984318 0.989436 0.998407
0.939865 0.98006 0.968965 0.989702
0.950316 0.988739 0.980928 0.979827
0.979236 1.00272 0.978762 0.997767
0.959188 0.990419 0.975665 0.992622
0.980922 1.02425 0.959953 0.997656
1.00099 1.01633 0.98805 0.996816
0.981584 1.00654 0.977633 0.997519
0.999064 1.03088 0.971205 0.997873
1.00593 1.04837 0.96153 0.99791
1.022 1.03017 0.994385 0.997676
1.03055 1.04545 0.987754 0.997973
1.02441 1.04103 0.986144 0.997862
1.03095 1.03811 0.995411 0.997683
1.02807 1.03729 0.993208 0.997894
1.03333 1.04218 0.993774 0.997713
1.03604 1.03998 0.998568 0.997634
1.03193 1.03589 0.998447 0.997734
1.03325 1.03657 0.999329 0.997462
1.03374 1.03617 1 0.997655
1.03214 1.03483 0.999989 0.997408
1.03544 1.03849 1 0.997062
1.03491 1.03797 1 0.997051
1.03667 1.03992 1 0.996879
1.03412 1.03739 1 0.996846
1.02275 1.02589 1 0.996937
1.03113 1.03453 1 0.996705
1.03413 1.03765 1 0.996607
1.00244 1.00467 1 0.997777
1.01481 1.0178 1 0.997061
1.02082 1.02419 1 0.996713
0.999232 1 1 0.999232
1.00001 1.00205 1 0.997963
1.00722 1.00998 1 0.99727
1 1 1 1
0.999892 1 1.00048 0.999414
0.999181 1.00048 1.00053 0.998176
1 1 1 1
1.00088 1 1.00126 0.999613
1 1 1 1
1.00855 1.01137 1 0.997213
1.00192 1.00427 1 0.997658
1.00205 1.00349 1.00066 0.997899
0.998355 1.0001 1 0.998253
0.999837 1 1.00157 0.998266
1.00076 1 1.00202 0.998742
1.00129 1 1.00286 0.998431
1.00081 1 1.00181 0.999005
1.0001 1 1.00025 0.999846
0.999685 1 1.00048 0.999201
0.999907 1 1 0.999907
1 1 1 1
1 1 1 1
0.999947 1 1 0.999947
1 1 1 1
0.938897 0.97891 0.968078 0.990752
0.929868 0.982179 0.968805 0.977225
0.798809 0.880751 0.93658 0.968379
1.02029 1.02343 1.00007 0.996866
1.00482 1.00021 1.00653 0.998095
1.00215 1.00353 1.00095 0.997671
0.998106 1.00034 1 0.997765
1.00771 1.01021 1.00042 0.9971
1.00191 1.00426 1 0.997663
0.997984 1.00051 1 0.997481
0.990606 1.00068 0.991297 0.998618
0.994573 1.00108 0.995679 0.997816
0.976754 1.0021 0.976814 0.99784
1.00096 1.00677 0.997068 0.997161
1.00123 1.00681 0.997063 0.997379
0.996637 1.00195 0.997345 0.997341
0.985736 1.00134 0.986349 0.998045
0.988387 1.00613 0.984141 0.998199
0.934117 0.978001 0.965741 0.989011
0.928013 0.973735 0.974445 0.978039
0.932806 0.968265 0.972078 0.991051
0.992961 1.00558 0.989147 0.998286
0.994981 1.0002 0.996568 0.998207
0.98882 1.00668 0.985575 0.996633
0.934243 0.962396 0.978789 0.991785
0.91495 0.971912 0.962764 0.977801
0.974294 1.00088 0.975585 0.997798
0.965745 0.992247 0.981468 0.991669
0.984081 1.02529 0.961985 0.997738
1.00114 1.01579 0.988503 0.997032
0.995678 1.03711 0.96223 0.99774
1.03937 1.04825 0.993918 0.997603
0.996641 1.02903 0.970599 0.997867
1.0093 1.04975 0.963492 0.997899
1.01374 1.05031 0.967382 0.997721
1.02965 1.04471 0.987602 0.997955
1.0233 1.04029 0.985778 0.997858
1.0319 1.04698 0.987968 0.997599
1.0273 1.03651 0.993231 0.997876
1.03234 1.04125 0.993701 0.997726
1.03598 1.04142 0.99736 0.997409
1.03024 1.03429 0.99836 0.997727
1.03381 1.03706 0.9994 0.99746
1.03751 1.04049 0.999991 0.99714
1.03238 1.03501 1 0.997453
1.03568 1.03869 1 0.9971
1.0361 1.03934 1 0.996877
1.0366 1.03986 1 0.996868
1.03389 1.03718 1 0.996826
1.02595 1.02909 1 0.996948
1.00667 1.00903 1 0.997655
1.02208 1.0252 1 0.996958
1.03111 1.0345 1 0.996715
0.999088 1 1 0.999088
1.00375 1.00598 1 0.997776
1.01451 1.01749 1 0.997063
1 1 1 1
0.999219 1 1 0.999219
1.00101 1.00305 1 0.997962
1 1 1 1
0.999685 1 1.00029 0.999398
1 1 1 1
1.01749 1.02066 1 0.996893
1.00945 1.01226 1 0.997215
1.00726 1.00976 1 0.997522
1.00228 1.00461 1.00001 0.997678
1.00084 1.0024 1.00056 0.997895
1.00044 1.00035 1.00164 0.99845
0.999607 1 1.00138 0.998229
1.00148 1 1.00274 0.998743
1.00067 1 1.00092 0.999748
1.00024 1 1.00123 0.999007
0.999856 1 1 0.999856
1 1 1 1
0.999915 1 1 0.999915
1 1 1 1
1 1 1 1
0.985067 1.01057 0.976672 0.99805
0.933317 0.975858 0.967491 0.988542
0.9258 0.972135 0.971776 0.979996
1.01444 1.01725 1.00001 0.997221
1.02858 1.03182 1 0.996861
1.01808 1.02108 1.00013 0.996925
0.998001 1.00026 1 0.997737
1.00726 1.00947 1.00073 0.997082
1.00281 1.00576 0.999435 0.997627
1.01599 1.01978 0.999162 0.997125
0.993553 1.00138 0.994333 0.997835
0.973416 1.00124 0.974388 0.99776
1.00223 1.00846 0.996582 0.997237
1.01913 1.02534 0.996988 0.996946
1.0094 1.02359 0.988464 0.997642
1.00318 1.0084 0.997474 0.997348
0.997815 1.00262 0.9979 0.997297
0.992499 1.00811 0.986095 0.998398
0.937636 0.97958 0.969069 0.987733
0.993266 1.0063 0.988142 0.998893
1.02047 1.03683 0.985976 0.998219
0.988016 1.00539 0.985926 0.996746
0.938222 0.972149 0.975118 0.989728
0.98743 1.02669 0.963867 0.997816
1.00124 1.01564 0.988527 0.99726
0.995019 1.03771 0.960928 0.997851
1.03942 1.04963 0.992644 0.997615
1.0342 1.05715 0.980633 0.997606
1.06076 1.07247 0.99133 0.997733
1.01303 1.05197 0.965021 0.997888
1.01828 1.0508 0.971256 0.997722
1.03515 1.05533 0.983336 0.997502
1.02257 1.03974 0.985599 0.997854
1.03176 1.04625 0.98853 0.997598
1.03697 1.04703 0.992997 0.997375
1.03139 1.04032 0.993663 0.997738
1.03646 1.04185 0.997412 0.997406
1.0406 1.04393 0.999674 0.997133
1.0343 1.03748 0.999474 0.997459
1.03763 1.04061 0.999999 0.99714
1.03916 1.04241 1 0.996878
1.03592 1.0389 1 0.997137
1.03573 1.03896 1 0.996889
1.02824 1.03142 1 0.996916
1.03369 1.037 1 0.996806
1.02585 1.029 1 0.996942
1.00886 1.0113 1 0.997586
0.999021 1 1 0.999021
1.00731 1.00967 1 0.997654
1.02146 1.02456 1 0.996978
1 1 1 1
0.999076 1 1 0.999076
1.00501 1.00725 1 0.997775
1 1 1 1
0.999206 1 1 0.999206
1 1 1 1
1.02573 1.02905 1 0.996772
1.01779 1.02098 1 0.996876
1.01198 1.01481 1 0.997215
1.01027 1.01309 1 0.997217
1.00571 1.0082 1 0.997529
1.0003 1.00179 1.00034 0.998167
0.999451 1.0011 1.00046 0.997891
1.00086 1.00015 1.00227 0.998452
1.00044 1 1.00087 0.999572
1.00268 1 1.00395 0.998744
1.00046 1 1.0007 0.999764
1 1 1 1
0.999866 1 1 0.999866
1 1 1 1
1 1 1 1
1.00801 1.03401 0.976682 0.998131
0.982578 1.00952 0.975833 0.997416
0.932733 0.977582 0.964471 0.98927
1.02621 1.02929 1 0.997014
1.01548 1.01812 1 0.997406
1.04375 1.04701 1 0.996884
1.02927 1.03253 1 0.996846
1.01619 1.01907 1.00018 0.996986
1.037 1.04077 0.999504 0.996865
1.00353 1.00737 0.998586 0.997591
1.01489 1.01844 0.999448 0.997062
1.03792 1.05155 0.989884 0.997125
1.0027 1.01007 0.995376 0.997314
1.01962 1.02592 0.996947 0.996899
1.01032 1.0247 0.988267 0.997672
1.00363 1.00873 0.997626 0.997313
0.996897 1.00998 0.988438 0.998588
1.04778 1.06517 0.985853 0.997788
1.02078 1.0366 0.986473 0.998235
0.986836 1.00409 0.985918 0.996853
0.995107 1.0377 0.960917 0.997962
1.03861 1.05009 0.991417 0.997628
1.03037 1.05652 0.977574 0.997627
1.06129 1.07414 0.99029 0.997729
1.05136 1.06745 0.98727 0.997624
1.02231 1.05093 0.974993 0.997724
1.03568 1.05474 0.984383 0.997512
1.03832 1.05249 0.989113 0.997395
1.03155 1.04549 0.98904 0.997596
1.03665 1.04662 0.993104 0.997355
1.04198 1.04737 0.997732 0.997113
1.037 1.04234 0.997466 0.997403
1.0407 1.04401 0.999694 0.997131
1.04254 1.04582 1 0.996864
1.03777 1.04074 1 0.99714
1.03893 1.04218 1 0.996882
1.03132 1.03458 1 0.996856
1.03536 1.03858 1 0.996901
1.0284 1.03157 1 0.996921
1.00981 1.01233 1 0.997512
1.0257 1.02886 1 0.996935
1.00906 1.0115 1 0.997584
0.999174 1 1 0.999174
0.999701 1 1 0.999701
0.999089 1 1 0.999089
1.00791 1.01028 1 0.997653
1 1 1 1
0.999065 1 1 0.999065
1 1 1 1
1.05064 1.05384 1 0.996959
1.03554 1.03883 1 0.996836
1.02656 1.02989 1 0.99677
1.018 1.02101 1 0.997054
1.01831 1.02152 1 0.99686
1.01224 1.01507 1 0.997216
1.00297 1.00505 1 0.997932
1.00432 1.0068 1 0.997536
0.999849 1.00122 1.00047 0.99817
0.99946 1 1.00012 0.999339
1.00127 1.00001 1.00281 0.998454
1.00047 1 1.00088 0.999592
1 1 1 1
0.999933 1 1.00015 0.99978
1 1 1 1
1 1 1 1
1.04306 1.06366 0.98305 0.997537
1.01223 1.03873 0.976252 0.998196
0.980487 1.00962 0.974273 0.996791
1.04115 1.04439 1 0.996889
1.02458 1.02759 1 0.99707
1.01614 1.0186 1 0.997587
1.04252 1.04576 1 0.996902
1.02991 1.03318 1 0.996831
1.04613 1.05755 0.992072 0.997105
1.03353 1.03735 0.999494 0.996824
1.01396 1.01704 0.999975 0.997
1.03697 1.05053 0.989941 0.997119
1.02236 1.02836 0.997304 0.996852
1.01425 1.02932 0.987625 0.997708
1.05105 1.06626 0.987983 0.997721
1.05019 1.06674 0.986637 0.997816
1.02102 1.03655 0.986738 0.998252
1.02779 1.05692 0.974735 0.997646
1.06264 1.07654 0.989343 0.997726
1.05133 1.06845 0.986316 0.997632
1.04346 1.05442 0.992102 0.997481
1.03613 1.05405 0.985439 0.997521
1.03843 1.05209 0.989602 0.997383
1.04348 1.05091 0.995777 0.997143
1.03634 1.04622 0.993205 0.997336
1.04245 1.04783 0.997744 0.997112
1.04523 1.04858 0.999954 0.996849
1.0408 1.04409 0.999721 0.997128
1.04268 1.04596 1 0.996865
1.034 1.03733 1 0.996788
1.03872 1.04196 1 0.996885
1.03162 1.03487 1 0.996859
1.01088 1.0135 1 0.997414
1.02856 1.03174 1 0.996925
1.01009 1.01261 1 0.997511
0.999182 1 1 0.999182
1.00928 1.01172 1 0.997582
0.999169 1 1 0.999169
0.999719 1 1 0.999719
0.999856 1 1 0.999856
0.999162 1 1 0.999162
1 1 1 1
1.04613 1.04935 1 0.996927
1.04118 1.04442 1 0.99689
1.04968 1.05275 1 0.997077
1.02731 1.03044 1 0.996963
1.03752 1.04083 1 0.996824
1.02742 1.03076 1 0.996768
1.01889 1.02191 1 0.997048
1.00749 1.00977 1 0.997746
1.01254 1.01537 1 0.997217
1.0019 1.00397 1 0.997933
0.999145 1 1 0.999145
0.999301 1.00061 1.00052 0.998174
0.999707 1 1.00035 0.999357
1 1 1 1
1.00058 1 1.00097 0.999612
1 1 1 1
1 1 1 1
1.04402 1.06113 0.986409 0.997427
1.04162 1.06206 0.983181 0.997533
1.01485 1.04116 0.976432 0.998254
1.04721 1.05325 0.997241 0.997016
1.03926 1.04251 0.999996 0.996891
1.02316 1.02611 1 0.997127
1.0411 1.04432 1 0.99692
1.04475 1.0562 0.992053 0.99708
1.02991 1.03375 0.999504 0.996783
1.03262 1.04596 0.990109 0.997114
1.04582 1.05757 0.991325 0.997543
1.04995 1.06496 0.988194 0.997682
1.05242 1.06806 0.987493 0.997844
1.0423 1.05075 0.994571 0.997376
1.05098 1.06915 0.985328 0.997641
1.04329 1.05449 0.991884 0.997468
1.04499 1.05246 0.995643 0.997242
1.03862 1.05172 0.990142 0.997372
1.04351 1.05096 0.995753 0.997145
1.04628 1.04981 0.999788 0.996853
1.04286 1.04823 0.997758 0.997111
1.0454 1.04876 0.999945 0.99685
1.03515 1.03854 1 0.99674
1.04272 1.046 1 0.996866
1.03427 1.0376 1 0.996791
1.01168 1.0144 1 0.997317
1.03189 1.03513 1 0.996862
1.01112 1.01374 1 0.997413
0.999156 1 1 0.999156
1.01036 1.01289 1 0.997509
0.999172 1 1 0.999172
0.999724 1 1 0.999724
0.999166 1 1 0.999166
0.999726 1 1 0.999726
1 1 1 1
1.04632 1.05008 0.999581 0.996829
1.0426 1.04593 1 0.996812
1.04772 1.05096 0.999987 0.99693
1.033 1.03613 1 0.996978
1.04219 1.04542 1 0.996915
1.04888 1.05183 1 0.997195
1.01096 1.0134 1 0.99759
1.02734 1.03048 1 0.996955
1.03964 1.04297 1 0.996813
1.01965 1.02267 1 0.997043
1.00609 1.00837 1 0.997747
0.999038 1 1 0.999038
1.00076 1.00283 1 0.997935
0.999159 1 1 0.999159
1 1 1 1
0.999931 1 1.00056 0.999376
1 1 1 1
1 1 1 1
1.04353 1.05402 0.992736 0.997291
1.04407 1.06151 0.986125 0.997411
1.0419 1.06237 0.983162 0.997528
1.04611 1.05244 0.996948 0.997032
1.03716 1.0404 0.999987 0.996892
1.04412 1.05563 0.992018 0.997056
1.04319 1.05248 0.993784 0.997378
1.04623 1.05768 0.991612 0.997537
1.04888 1.06377 0.988336 0.997643
1.04281 1.05114 0.994663 0.997397
1.04569 1.052 0.99681 0.997184
1.04309 1.05458 0.991628 0.997454
1.04518 1.05239 0.995943 0.997201
1.04616 1.05036 0.999067 0.996936
1.04352 1.05099 0.995727 0.997147
1.04658 1.05017 0.999724 0.996856
1.03495 1.03837 1 0.996707
1.04577 1.04914 0.999935 0.996852
1.0355 1.03888 1 0.996741
1.01182 1.01461 1 0.997248
1.03468 1.03801 1 0.996793
1.01175 1.01447 1 0.997317
0.999102 1 1 0.999102
1.01137 1.01399 1 0.997413
0.999141 1 1 0.999141
0.999704 1 1 0.999704
0.999165 1 1 0.999165
0.999738 1 1 0.999738
0.999727 1 1 0.999727
1.04638 1.05156 0.997992 0.997077
1.045 1.04845 1 0.996704
1.04711 1.05131 0.999142 0.996856
1.03503 1.03827 1 0.996878
1.04183 1.04517 1 0.996803
1.04923 1.05248 0.999978 0.996933
1.01203 1.01458 1 0.997481
1.03292 1.03609 1 0.99694
1.04305 1.04625 1 0.99694
0.999001 1 1 0.999001
1.01022 1.01266 1 0.997592
1.02747 1.03061 1 0.996947
1.00475 1.00702 1 0.997749
0.999049 1 1 0.999049
1 1 1 1
0.999173 1 1 0.999173
1 1 1 1
1 1 1 1
1.04118 1.04971 0.994584 0.997273
1.04331 1.0538 0.992742 0.997284
1.04378 1.06147 0.985904 0.997395
1.04502 1.05163 0.996664 0.997047
1.0453 1.05059 0.997815 0.997143
1.04365 1.05267 0.994024 0.997388
1.04668 1.05776 0.991976 0.99753
1.04335 1.05155 0.994775 0.997417
1.0455 1.05191 0.996709 0.997195
1.04639 1.0506 0.999054 0.996934
1.04545 1.05236 0.996265 0.997159
1.04641 1.0504 0.999298 0.996893
1.03458 1.03797 1 0.996734
1.0468 1.05046 0.999662 0.996859
1.03509 1.03851 1 0.99671
1.0113 1.01415 1 0.997193
1.03559 1.03897 1 0.996743
1.01164 1.01443 1 0.997249
0.998892 1 1 0.998892
1.01175 1.01447 1 0.997318
0.999016 1 1 0.999016
1 1 1 1
0.999128 1 1 0.999128
0.999724 1 1 0.999724
0.999747 1 1 0.999747
1.04384 1.04915 0.99777 0.997165
1.04549 1.04889 0.999938 0.99682
1.04648 1.05138 0.998263 0.997068
1.03598 1.03938 1 0.996722
1.04443 1.04787 0.999993 0.996724
1.04797 1.05262 0.998692 0.996883
1.01248 1.01522 1 0.997298
1.03521 1.03845 1 0.996878
1.04111 1.04445 1 0.996795
0.998995 1 1 0.998995
1.01194 1.01454 1 0.997437
1.03283 1.03604 1 0.996903
1 1 1 1
0.999012 1 1 0.999012
1.00944 1.01187 1 0.997595
0.999061 1 1 0.999061
1 1 1 1
1 1 1 1
1.04391 1.04909 0.9979 0.997158
1.0416 1.05005 0.99466 0.99728
1.043 1.05355 0.992688 0.997277
1.04647 1.05013 0.999644 0.996871
1.0446 1.05022 0.997486 0.997157
1.04407 1.05285 0.994249 0.997399
1.04528 1.05181 0.996575 0.997205
1.04613 1.05042 0.998975 0.996934
1.03351 1.03683 1 0.996798
1.04657 1.05039 0.999514 0.996851
1.03447 1.03785 1 0.996743
1.01079 1.01374 1 0.997087
1.03537 1.03879 1 0.996712
1.0112 1.01404 1 0.997194
0.998847 1 1 0.998847
1.01155 1.01434 1 0.997249
0.998889 1 1 0.998889
1 1 1 1
0.998915 1 1 0.998915
0.999844 1 1 0.999844
0.99974 1 1 0.99974
1.04418 1.04871 0.99856 0.997116
1.04628 1.04955 0.999996 0.996881
1.0442 1.04942 0.99785 0.997172
1.03617 1.03958 1 0.99672
1.04592 1.0493 0.999967 0.996804
1.0466 1.05122 0.998545 0.997059
1.01244 1.01528 1 0.997201
1.03587 1.03924 1 0.996753
1.04384 1.04727 0.999984 0.996744
0.998971 1 1 0.998971
1.01244 1.0152 1 0.997285
1.0354 1.03864 1 0.996878
1 1 1 1
0.999005 1 1 0.999005
1.01189 1.01453 1 0.997394
1 1 1 1
0.999023 1 1 0.999023
1 1 1 1
1.04671 1.05041 0.999559 0.99692
1.04331 1.04842 0.99797 0.997143
1.04201 1.05036 0.994751 0.997286
1.03315 1.03648 1 0.996792
1.04613 1.05004 0.999391 0.996893
1.04391 1.04986 0.997161 0.99717
1.04589 1.05024 0.998921 0.996935
1.03357 1.03689 1 0.996797
1.01009 1.01307 1 0.997066
1.03437 1.03774 1 0.996752
1.01074 1.01366 1 0.997117
0.998793 1 1 0.998793
1.01102 1.01386 1 0.997195
0.998844 1 1 0.998844
1 1 1 1
0.998887 1 1 0.998887
1 1 1 1
0.999717 1 1 0.999717
1.0478 1.05112 0.999935 0.996903
1.04357 1.04851 0.998148 0.997139
1.03561 1.03899 1 0.99675
1.04638 1.04967 0.999992 0.996879
1.04463 1.04978 0.997915 0.997179
1.01164 1.01445 1 0.99723
1.03575 1.03916 1 0.996717
1.04631 1.04968 1 0.996789
0.998919 1 1 0.998919
1.01262 1.01543 1 0.997228
1.03573 1.03907 1 0.996784
1 1 1 1
0.998977 1 1 0.998977
1.01241 1.01518 1 0.997271
1 1 1 1
0.999013 1 1 0.999013
1 1 1 1
1.03358 1.03688 1 0.996822
1.0467 1.05027 0.999697 0.996906
1.04272 1.04778 0.99804 0.997127
1.00904 1.012 1 0.997077
1.03316 1.03648 1 0.996792
1.04579 1.04994 0.99913 0.996915
1.03364 1.03696 1 0.996797
1.01013 1.0131 1 0.997066
0.998759 1 1 0.998759
1.01071 1.01361 1 0.997146
0.998791 1 1 0.998791
1 1 1 1
0.998842 1 1 0.998842
1 1 1 1
1 1 1 1
1.03503 1.03839 1 0.996763
1.04726 1.05074 0.999744 0.996939
1.04288 1.0482 0.997751 0.997163
1.0107 1.01352 1 0.99722
1.03528 1.03866 1 0.996747
1.04644 1.04972 1 0.996878
0.998868 1 1 0.998868
1.01198 1.01479 1 0.997228
1.03536 1.03878 1 0.996713
1 1 1 1
0.998923 1 1 0.998923
1.01281 1.01559 1 0.997256
1 1 1 1
0.998983 1 1 0.998983
1 1 1 1
1.00892 1.0118 1 0.997159
1.03345 1.03677 1 0.996791
1.0467 1.05013 0.999839 0.996893
0.99877 1 1 0.99877
1.00914 1.0121 1 0.997075
1.03317 1.0365 1 0.996792
1.01016 1.01313 1 0.997067
0.998759 1 1 0.998759
1 1 1 1
0.998788 1 1 0.998788
1 1 1 1
1 1 1 1
1.00967 1.0125 1 0.997197
1.03467 1.03802 1 0.996776
1.04676 1.05042 0.999535 0.996976
0.999023 1 1 0.999023
1.01102 1.01384 1 0.997218
1.03496 1.03834 1 0.996743
1 1 1 1
0.99887 1 1 0.99887
1.01229 1.01511 1 0.997225
1 1 1 1
0.998926 1 1 0.998926
1 1 1 1
0.998764 1 1 0.998764
1.0091 1.012 1 0.997131
1.03332 1.03668 1 0.996759
1 1 1 1
0.998769 1 1 0.998769
1.00922 1.01219 1 0.997072
0.998758 1 1 0.998758
1 1 1 1
1 1 1 1
0.99898 1 1 0.99898
1.01 1.01283 1 0.997197
1.03427 1.0376 1 0.996789
1 1 1 1
0.998837 1 1 0.998837
1.01133 1.01416 1 0.997217
1 1 1 1
0.998871 1 1 0.998871
1 1 1 1
0.999652 1 1 0.999652
0.998879 1 1 0.998879
1.00926 1.01219 1 0.997104
1 1 1 1
0.99877 1 1 0.99877
1 1 1 1
0.999668 1 1 0.999668
0.9989 1 1 0.9989
1.01035 1.01319 1 0.997197
0.999834 1 1 0.999834
0.998837 1 1 0.998837
1 1 1 1
1 1 1 1
0.998793 1 1 0.998793
1 1 1 1
0.999832 1 1 0.999832
0.998816 1 1 0.998816
1 1 1 1
1 1 1 1
1 1 1 1

VECTORS lamdaE float
1.00108 1.00015 0.993978
1.00069 1.00067 0.997091
1.00066 1.00035 0.994254
1.00122 1.00003 0.993893
1.00116 0.999977 0.994044
1.00102 1.00038 0.993805
1.00243 1.00046 0.991008
1.0007 1.00059 0.997097
1.00067 1.00017 0.997489
1.00017 1.00088 0.997531
1.00062 1.00067 0.994024
1.00211 1.0013 0.989901
1.00087 0.999976 0.994284
1.00063 1 0.994449
1.00028 1.00056 0.994501
1.00091 1.00001 0.994204
1.00055 1.00074 0.994055
1.00081 1.00003 0.994332
1.00264 1.00027 0.990885
1.00088 1.00002 0.997136
1.00117 1.00007 0.993889
1.00122 0.999955 0.993984
1.00257 1.00011 0.991122
1.00256 1.00015 0.991112
1.00099 1.00049 0.993685
1.00221 1.00101 0.990814
1.00499 1.00056 0.986501
1.00071 1.00055 0.997117
1.00087 1.00006 0.995761
1.00047 1.00063 0.995785
1.00065 1.00056 0.997165
1.002 1.00143 0.989909
1.00117 0.999822 0.993963
1.00089 1.00026 0.994064
1.00288 1.00007 0.991361
0.999896 1.00071 0.997781
1.00253 1.00079 0.991336
1.00182 1.00174 0.989899
1.00427 1.0015 0.986016
1 0.999292 0.998179
1.00091 0.999988 0.997122
1.00084 1.00001 0.995757
1.00083 0.999976 0.997166
1.00049 1.00003 0.994617
1.00257 0.999939 0.990509
1.00078 0.999963 0.99742
1.0029 1.00005 0.991368
1.0006 0.999939 0.994516
1.00048 1.00007 0.994606
1.00008 1.00113 0.994287
1.00284 1.00009 0.990776
1.00071 1.00004 0.995864
1.00084 1.00009 0.994206
1.00048 1.00095 0.993911
1.0009 0.999931 0.994284
1.00271 1.00008 0.990976
1.00247 1.00073 0.990696
1.00272 1.00004 0.990985
1.00496 1.00058 0.986513
1.0008 1.00001 0.99717
1.00107 1.00007 0.994034
1.00232 1.00001 0.992169
1.0025 1.00014 0.991201
1.0026 1.00007 0.99112
1.00489 1.00019 0.986938
1.00498 1.0002 0.986709
1.00082 1.0004 0.993955
1.00168 1.00193 0.990698
1.0049 1.00088 0.986363
1.00527 1.0003 0.985512
1.00112 1.00009 0.997064
1.00057 1.00047 0.997287
1.00077 1.00049 0.997092
1.00195 1.0015 0.989912
1.00121 0.999953 0.99701
1.00099 1.00028 0.997088
1.00275 1.00003 0.989993
1.00012 1.00051 0.99616
1.00228 1.00084 0.989981
1.00171 1.00198 0.990705
1.00436 1.00135 0.986008
1.00028 0.999928 0.997733
1.00008 1.00161 0.993045
1.00293 0.999941 0.989836
1.0027 1.00023 0.98997
1.00504 1.00022 0.986037
1.00119 1.00242 0.991974
1.00468 1.00079 0.986033
1.00357 1.00264 0.986168
1.00519 1.00131 0.984558
0.999866 0.998468 0.998571
0.999869 0.999082 0.998345
1.00112 0.999988 0.997004
1.00095 0.999986 0.997104
1.00087 0.999981 0.997165
1.00074 0.999994 0.995866
1.00261 0.99993 0.991181
1.00096 0.999971 0.995694
1.00283 1.00007 0.990698
1.00084 0.99999 0.997176
1.00243 0.999862 0.990773
1.00279 1.00003 0.991592
1.00489 0.999441 0.987164
1.00293 0.999988 0.991325
1.00501 0.999765 0.986632
1.00084 1 0.994324
1.00051 1.0001 0.994527
0.999978 1.00145 0.994138
1.00059 0.999882 0.994582
1.00284 1.00008 0.990829
1.00288 0.999962 0.990865
1.00273 1.00042 0.990587
1.00493 1.00059 0.986524
1.00085 0.999991 0.997172
1.00074 1.00007 0.994349
1.00249 0.999972 0.991032
1.00263 1.00012 0.991047
1.00056 1.00083 0.995532
1.00205 1.00169 0.990794
1.00274 1.00001 0.990985
1.0049 1.00009 0.987008
1.00485 1.00091 0.986377
1.00497 1.00033 0.986663
1.00527 1.00029 0.985543
1.00241 0.999916 0.990775
1.0024 1.00006 0.991397
1.00476 0.999378 0.987915
1.00484 0.999847 0.987297
1.00494 1.00005 0.986905
1.00528 0.999069 0.987013
1.00022 1.00061 0.997501
1.00527 0.999794 0.986019
1.00125 1.00273 0.989745
1.00445 1.0013 0.985912
1.00527 1.00086 0.985013
1.00521 0.998902 0.98689
1.00049 1.00288 0.99103
1.0012 1.00511 0.9875
1.00121 0.99998 0.997026
1.00095 1.0003 0.997083
1.00276 1.00002 0.989987
1.00027 1.00024 0.99763
1.00136 1.00236 0.990034
1.00226 1.00085 0.989995
1.00445 1.0012 0.986
1.00009 0.999829 0.997902
0.999963 1.00178 0.99308
1.00295 0.999979 0.990578
1.00272 1.00027 0.990666
1.00503 1.00023 0.986017
1.00084 1.00261 0.990709
1.00472 1.00075 0.986021
1.00364 1.00242 0.986178
1.00523 1.00123 0.984648
1.0003 1.00243 0.991781
1.00001 1.00072 0.99414
1.00122 1.00461 0.988577
1.00508 1.00008 0.986146
1.00493 1.00041 0.986008
1.00532 0.999674 0.986115
1.00271 1.00345 0.986768
1.00529 1.00057 0.985262
1.00492 1.00175 0.984649
1.00525 1.00075 0.985011
0.999855 0.997966 0.99882
0.999818 0.998392 0.998674
0.999773 0.998915 0.998487
1.00019 1.00255 0.991854
1.00003 1.00023 0.997785
1.00121 0.999965 0.996993
1.00102 0.99999 0.997049
1.0027 1.00009 0.990072
1.0025 0.99993 0.990574
1.00085 0.99998 0.997157
1.00081 0.999984 0.997174
1.00241 0.999874 0.990767
1.0027 1.00002 0.990931
1.00487 0.999442 0.987169
1.00281 1.00002 0.989922
1.00498 0.999773 0.986626
1.00238 0.999879 0.990817
1.00483 0.999352 0.987335
1.00495 0.999583 0.986916
1.00535 0.997599 0.988368
1.00506 0.999937 0.986355
1.0053 0.998226 0.987761
1.00082 0.99999 0.997168
1.0004 1.00012 0.994663
1.00251 0.99997 0.990025
1.00277 1.00012 0.99089
0.999916 1.00135 0.997491
1.00252 1.00128 0.990893
1.00288 0.999989 0.990852
1.00492 0.999979 0.987079
1.00496 1.00044 0.986617
1.00479 1.00096 0.986391
1.00527 1.00028 0.985574
1.00239 0.999908 0.990777
1.00254 1.00008 0.991239
1.00479 0.999365 0.987619
1.00486 0.999963 0.987201
1.00036 1.00066 0.997398
1.00147 1.00249 0.990548
1.00429 1.00164 0.986151
1.00495 1.00009 0.986868
1.00527 0.998773 0.987285
1.00527 1.00079 0.985074
1.00528 0.999881 0.986037
1.00522 0.998913 0.986913
1.00057 1.00278 0.991012
1.00137 1.00502 0.987502
1.00479 0.999433 0.987325
1.00481 0.999642 0.987609
1.0053 0.998059 0.988017
1.00526 0.998158 0.987926
1.00528 0.999176 0.986774
1.00522 0.996824 0.989177
1.00084 1.00301 0.990272
1.00522 0.997992 0.987833
1.00371 1.00223 0.986117
1.00525 1.00129 0.984488
1.00521 1.00008 0.985856
1.00519 0.997302 0.988643
1.00227 1.00418 0.986773
1.00079 1.00503 0.988449
1.00271 1.00422 0.986223
1.00284 0.999966 0.989923
0.999922 0.999672 0.998085
0.999875 1.00185 0.993113
1.00256 1.0003 0.990025
1.00503 1.00023 0.985996
1.00078 1.00277 0.990668
1.0037 1.00217 0.986188
1.00475 1.00071 0.986009
1.00525 1.00115 0.984738
1.00027 1.00255 0.99179
0.99997 1.00062 0.994186
1.00089 1.00473 0.98856
1.00506 1.0001 0.986126
1.00494 1.0004 0.985992
1.00532 0.999683 0.986091
1.00281 1.00328 0.986773
1.0053 1.00063 0.985195
1.00496 1.00169 0.98463
1.00524 1.00057 0.985142
1.00001 0.9999 0.994917
1.00191 1.00424 0.987541
1.00067 1.00388 0.989972
1.00187 1.00447 0.987339
1.00532 0.999161 0.986676
1.00532 1.00018 0.985586
1.00526 0.99826 0.987488
1.00434 1.00195 0.985389
1.00525 0.999621 0.986279
1.00514 1.00133 0.984802
1.0052 1.00001 0.985805
1.00022 1.00131 0.993165
1.00024 0.998854 0.995555
0.999901 0.997594 0.998951
0.999837 0.997884 0.998873
0.999786 0.998257 0.99876
1.00006 1.00181 0.992822
0.999906 0.999738 0.998065
1.0003 1.00244 0.991832
1.00013 1.00032 0.997678
1.00281 1.00006 0.989924
1.00262 1 0.990316
1.00496 0.999782 0.986621
1.00485 0.999447 0.987173
1.00243 0.999891 0.990767
1.00086 0.999973 0.997172
1.0024 0.999874 0.99082
1.00482 0.999362 0.987335
1.00493 0.999594 0.986918
1.00534 0.997611 0.988367
1.00504 0.999954 0.986339
1.00531 0.998223 0.987741
1.00479 0.999364 0.987371
1.00536 0.997432 0.988513
1.00531 0.997871 0.988139
1.00519 0.99518 0.990973
1.00533 0.998662 0.987237
1.00528 0.996069 0.989873
1.0024 0.999905 0.990784
1.00269 1.00005 0.991081
1.00481 0.999333 0.987325
1.00489 1.00007 0.987104
1.00046 1.00072 0.997288
1.00177 1.0023 0.991168
1.00427 1.00191 0.986387
1.00496 1.00013 0.986831
1.00527 0.998471 0.987557
1.00528 0.99997 0.986055
1.00527 1.00071 0.985136
1.00522 0.998921 0.986935
1.00061 1.00269 0.990996
1.00148 1.00489 0.987503
1.00479 0.999292 0.987419
1.00483 0.999619 0.987589
1.00531 0.997853 0.988265
1.00525 0.998465 0.987619
1.00091 1.00289 0.990274
1.00367 1.00243 0.986117
1.00523 1.00137 0.984441
1.00528 0.999349 0.986632
1.00523 0.996539 0.989455
1.00522 0.999926 0.986018
1.00522 0.998003 0.987843
1.00519 0.99723 0.988614
1.00224 1.00422 0.986777
1.00251 1.00403 0.986237
1.00087 1.00493 0.988458
1.00534 0.997828 0.988212
1.00525 0.998021 0.988202
1.00523 0.995631 0.990447
1.00523 0.995931 0.990007
1.00522 0.996988 0.988788
1.00524 0.995302 0.990531
1.00309 1.0031 0.986364
1.0052 0.996179 0.989495
1.00515 1.00183 0.984333
1.00522 1.00096 0.984769
1.00518 0.998741 0.98714
1.00515 0.996393 0.989525
1.00038 1.00464 0.989549
1.00397 1.0025 0.985686
1.00144 1.00503 0.987058
1.0043 1.00285 0.985335
1.00505 1.00012 0.986106
0.99996 1.00058 0.994232
1.00013 1.00269 0.991805
1.00056 1.00494 0.988542
1.00495 1.00038 0.985976
1.00533 0.999693 0.986067
1.00283 1.00314 0.98678
1.00512 1.00167 0.984609
1.00531 1.0007 0.985127
1.00524 1.00038 0.985273
1.00002 0.99979 0.994954
1.00178 1.00427 0.987532
1.00049 1.00402 0.98999
1.00173 1.00461 0.987323
1.00532 0.999168 0.986655
1.00532 1.00018 0.985561
1.00526 0.998253 0.987481
1.00452 1.00181 0.985401
1.00524 0.999737 0.986124
1.00513 1.00121 0.984772
1.00519 0.999927 0.985948
1.00015 0.999217 0.995353
1.0004 1.00293 0.991335
1.00313 1.00298 0.986425
1.00114 1.00498 0.988509
1.00307 1.0029 0.987103
1.00527 0.997527 0.988268
1.00525 0.998959 0.986754
1.00522 0.997138 0.988473
1.00471 1.00131 0.985223
1.00519 0.998867 0.986958
1.00491 1.00089 0.985429
1.0003 1.00151 0.99285
1.00031 1.00277 0.9916
1.00013 1.00122 0.993425
1.00021 1.00132 0.993161
1.00022 0.998625 0.996353
1.00022 0.998816 0.995906
1.00008 0.997292 0.997685
0.999905 0.997541 0.998967
0.999831 0.997803 0.998912
0.999874 1.00097 0.99394
0.999833 0.999125 0.998394
1.0001 1.00181 0.992798
1.00002 0.999799 0.997961
1.00043 1.00228 0.991811
1.00025 1.00042 0.997574
1.00502 0.999968 0.986323
1.0049 0.9996 0.986919
1.00532 0.998241 0.987721
1.00533 0.997621 0.988366
1.0048 0.999373 0.987336
1.00239 0.999863 0.990819
1.00479 0.999365 0.987373
1.00536 0.997436 0.988514
1.00531 0.997886 0.988127
1.00522 0.995144 0.990971
1.00533 0.998667 0.98722
1.00527 0.996077 0.989874
1.00535 0.997418 0.988538
1.00522 0.995058 0.991109
1.00522 0.995471 0.990584
1.00517 0.99495 0.991188
1.00527 0.996828 0.989063
1.00528 0.995058 0.990604
1.0048 0.999154 0.987514
1.00486 0.99961 0.987569
1.00531 0.997667 0.988512
1.00525 0.998776 0.987313
1.00099 1.00281 0.990279
1.00347 1.00277 0.986121
1.00522 1.00145 0.984393
1.00528 0.999525 0.98649
1.00524 0.996264 0.989734
1.00522 0.998013 0.987852
1.00522 0.99977 0.986178
1.00518 0.997156 0.988584
1.00227 1.00425 0.986781
1.00244 1.00389 0.986251
1.00098 1.0048 0.988468
1.00534 0.997692 0.988334
1.00525 0.997998 0.988199
1.00523 0.995456 0.990669
1.00524 0.996114 0.989817
1.00308 1.00323 0.986356
1.00508 1.00183 0.984359
1.00522 1.00107 0.984666
1.00522 0.997293 0.988511
1.00524 0.995166 0.990606
1.00519 0.998678 0.987092
1.0052 0.996218 0.989482
1.00516 0.996254 0.98961
1.00391 1.00266 0.985676
1.00411 1.00286 0.985176
1.00052 1.00442 0.989567
1.00129 1.00502 0.987216
1.00523 0.995112 0.991063
1.00524 0.995886 0.990074
1.00516 0.994959 0.991141
1.00527 0.994898 0.990823
1.00521 0.995482 0.990155
1.00527 0.994907 0.990711
1.00498 1.00167 0.984923
1.0052 0.99517 0.990346
1.00516 1.00197 0.983922
1.00517 1.00042 0.98526
1.00517 0.997988 0.98765
1.00518 0.996313 0.989533
1.00024 1.00376 0.990655
1.00079 1.00514 0.988132
1.00501 1.00186 0.984609
1.00228 1.00465 0.98651
1.00478 1.00327 0.984206
1.00002 0.999689 0.99499
1.00532 0.999174 0.986633
1.00034 1.00408 0.990007
1.00172 1.00428 0.987523
1.00161 1.00471 0.987308
1.00532 1.00019 0.985537
1.00525 0.998245 0.987473
1.00479 1.00145 0.985414
1.00517 1.00113 0.984743
1.00524 0.999849 0.98597
1.00519 0.999851 0.986091
1.00015 0.999165 0.995379
1.00031 1.00298 0.991362
1.00334 1.00286 0.98643
1.00078 1.00503 0.988503
1.00273 1.00293 0.987266
1.00526 0.997513 0.988261
1.00525 0.998946 0.986748
1.00523 0.997098 0.988459
1.00494 1.00126 0.985196
1.00519 0.998936 0.986813
1.00497 1.00088 0.985494
1.00036 1.00199 0.992311
1.00063 1.00426 0.989974
1.00439 1.00124 0.986089
1.00132 1.00488 0.988268
1.00359 1.00103 0.988109
1.00524 0.996393 0.989287
1.00521 0.997929 0.987632
1.00524 0.996358 0.988856
1.00463 1.00104 0.985426
1.00499 0.999577 0.986206
1.0003 1.0015 0.992851
1.00031 1.0028 0.991435
1.00016 1.00292 0.991564
1.00044 1.00311 0.991234
1.00021 1.00279 0.991767
1.00005 1.00115 0.993603
1.00012 1.0012 0.993432
1.00021 0.998527 0.996462
1.0002 1.00134 0.993158
1.00023 0.99862 0.996371
1.00015 0.997063 0.997766
1.00021 0.998796 0.996249
1.00001 0.997303 0.998348
0.999915 0.997468 0.998982
0.999796 1.00006 0.994978
0.999907 1.00103 0.993913
0.99974 0.998476 0.998747
0.999918 0.99925 0.998267
1.00016 1.00185 0.992773
1.0001 0.999917 0.997853
1.00532 0.998671 0.987203
1.0053 0.997882 0.988115
1.00526 0.996075 0.989874
1.00524 0.995108 0.990969
1.00536 0.997442 0.988514
1.00479 0.999366 0.987375
1.00536 0.997421 0.988539
1.00522 0.995037 0.991118
1.00523 0.995467 0.990586
1.00517 0.994947 0.991161
1.00527 0.996795 0.989055
1.00528 0.995055 0.990616
1.00522 0.995054 0.991123
1.00513 0.994963 0.991285
1.00524 0.994931 0.990945
1.00523 0.994944 0.991044
1.00527 0.995646 0.990036
1.00529 0.994908 0.990723
1.00534 0.997553 0.988456
1.00525 0.997989 0.988196
1.00522 0.995274 0.990892
1.00525 0.996302 0.989626
1.00305 1.00335 0.986347
1.00505 1.00183 0.984382
1.00521 1.00112 0.984564
1.00522 0.997592 0.988233
1.00524 0.995039 0.990682
1.00521 0.99626 0.989469
1.00519 0.99862 0.987046
1.00517 0.996099 0.989697
1.00362 1.00298 0.985666
1.00367 1.00289 0.985015
1.00067 1.00424 0.989586
1.00123 1.00503 0.987375
1.00522 0.99512 0.991059
1.00523 0.995897 0.990103
1.00518 0.994956 0.991143
1.00526 0.994898 0.990821
1.00468 1.00203 0.984905
1.00514 1.00203 0.983879
1.00516 1.00039 0.985237
1.00522 0.99565 0.990017
1.00527 0.994903 0.99069
1.00515 0.99803 0.987633
1.00519 0.995179 0.99033
1.00518 0.9961 0.989669
1.00488 1.002 0.984621
1.00455 1.00341 0.984051
1.00221 1.00469 0.986518
1.00024 1.00363 0.990648
1.00065 1.00513 0.988265
1.00514 0.994969 0.991207
1.00525 0.994937 0.990961
1.00527 0.994886 0.990638
1.00524 0.994913 0.990652
1.00509 1.0025 0.983903
1.0052 0.99514 0.990364
1.00507 1.00169 0.983981
1.00512 0.999979 0.9856
1.00514 0.997722 0.987799
0.999919 1.00259 0.992016
1.00042 1.00492 0.989278
1.00123 1.00509 0.98791
1.00512 1.00285 0.98362
1.00284 1.00454 0.985298
1.00491 1.0035 0.983116
1.00015 0.999128 0.995404
1.00023 1.00304 0.991389
1.00526 0.997499 0.988255
1.00038 1.0051 0.988493
1.00336 1.00297 0.986434
1.00243 1.00297 0.987429
1.00524 0.998935 0.986741
1.00523 0.99706 0.988445
1.0051 1.00117 0.985168
1.00505 1.00089 0.985559
1.00518 0.998998 0.986667
1.00031 1.00201 0.99232
1.00029 1.00445 0.98998
1.00454 1.00109 0.986121
1.00103 1.00501 0.988225
1.00343 1.00078 0.988119
1.00524 0.996351 0.98929
1.00521 0.997943 0.987609
1.00524 0.99641 0.988849
1.00473 1.00106 0.985447
1.00501 0.999692 0.986212
1.00042 1.00332 0.991032
0.999866 1.00501 0.989587
1.00486 1.00052 0.986039
1.00138 1.00313 0.988752
1.00469 0.999693 0.987603
1.00526 0.995396 0.989928
1.00522 0.99787 0.987515
1.00524 0.996598 0.988456
1.00474 1.00021 0.986054
1.00508 0.999536 0.98622
1.00029 1.00149 0.992852
1.00032 1.00285 0.991445
1.00005 1.00329 0.991289
1.00005 1.00301 0.991529
1.00013 1.00289 0.991756
1.00016 1.00332 0.991259
1.00001 1.00305 0.991878
1.00004 1.00357 0.991014
1.00011 1.00278 0.991947
1.00002 1.00125 0.993569
1.00005 1.00114 0.993603
1.00015 0.99853 0.996548
1.00011 1.00115 0.993438
1.00022 0.998528 0.996475
1.00017 0.996948 0.997822
1.00024 0.998604 0.996391
1.00012 0.997067 0.99777
0.999937 0.997299 0.999029
0.999856 0.999212 0.995755
0.999805 1.00015 0.994934
0.999693 0.998011 0.998963
0.999944 1.00106 0.993887
0.999805 0.998635 0.998621
1.00001 0.999307 0.998149
1.00527 0.996762 0.989047
1.00525 0.995472 0.990588
1.00528 0.995054 0.990627
1.00516 0.994943 0.991133
1.00521 0.995016 0.991128
1.00536 0.997425 0.988539
1.00522 0.995042 0.991142
1.00513 0.994967 0.9913
1.00523 0.994927 0.99098
1.00522 0.994941 0.991014
1.00526 0.995632 0.990057
1.00529 0.994903 0.990669
1.00514 0.994982 0.991278
1.00522 0.994938 0.991088
1.00526 0.994928 0.990841
1.00526 0.995006 0.990494
1.00521 0.995129 0.991055
1.00523 0.995884 0.990131
1.00519 0.994949 0.991145
1.00526 0.994898 0.990819
1.00454 1.00218 0.984888
1.00513 1.00208 0.983839
1.00516 1.00043 0.985214
1.00523 0.995812 0.989878
1.00526 0.994883 0.99067
1.00519 0.995188 0.990314
1.00513 0.99805 0.987614
1.00518 0.99588 0.989804
1.00472 1.00214 0.984635
1.00454 1.00314 0.983893
1.00207 1.00471 0.986526
1.00026 1.00344 0.990649
1.00055 1.00513 0.9884
1.00515 0.99497 0.991195
1.00525 0.994936 0.990956
1.00527 0.994886 0.990668
1.00497 1.00247 0.98394
1.00506 1.00185 0.983939
1.0051 1.00002 0.985586
1.00523 0.994937 0.990615
1.00517 0.997504 0.988093
1.00519 0.995186 0.990289
0.999983 1.00235 0.992236
1.00504 1.00263 0.983647
1.00466 1.0037 0.98329
1.00311 1.00442 0.985407
1.00125 1.00509 0.988028
1.00035 1.00496 0.989187
1.00522 0.994958 0.991052
1.00526 0.994914 0.990777
1.00526 0.994878 0.99061
1.0052 0.994884 0.990605
1.00509 1.00269 0.98354
1.00518 0.995773 0.98961
1.00499 1.0016 0.984217
1.00504 1.00032 0.985502
1.00003 1.00081 0.993673
0.999974 1.00427 0.990668
1.00074 1.0051 0.98896
1.00197 1.00503 0.986547
1.00501 1.0035 0.982952
1.00462 1.00414 0.983058
1.00026 1.00201 0.992329
1.00001 1.00456 0.989988
1.00524 0.99631 0.989293
1.0007 1.00514 0.988182
1.00472 1.00094 0.986152
1.00309 1.00081 0.98812
1.00521 0.997957 0.987588
1.00525 0.996472 0.988841
1.00482 1.00113 0.985466
1.00505 0.999816 0.986219
1.00028 1.0034 0.991039
1.00014 1.00498 0.989414
1.00498 1.00045 0.986016
1.00137 1.00335 0.988806
1.0046 0.999696 0.987342
1.00527 0.995398 0.990024
1.00523 0.997795 0.98768
1.00525 0.996744 0.988441
1.0047 1.00029 0.986125
1.00503 0.999707 0.986018
0.999669 1.00386 0.990891
1.00018 1.00502 0.988983
1.00485 0.999938 0.986479
1.00333 1.00058 0.987682
1.00531 0.994854 0.990249
1.00524 0.996145 0.989539
1.0051 0.998863 0.986537
1.00512 0.999493 0.986056
1.00037 1.00283 0.991454
1.00017 1.00327 0.991285
0.999613 1.00367 0.992092
1.00005 1.00302 0.991746
0.999859 1.00353 0.991284
1.00007 1.00282 0.991937
0.999798 1.00306 0.992104
1.00009 1.00365 0.990987
0.999657 1.00197 0.993439
0.999855 1.00394 0.99123
1 1.0038 0.990856
1.00015 1.00278 0.991878
0.999985 1.00149 0.993326
0.999996 1.00124 0.993563
1.00005 0.998601 0.996623
1.00005 1.00112 0.993604
1.00015 0.998551 0.996558
1.00014 0.996956 0.997869
1.00022 0.998535 0.996492
1.00016 0.996946 0.997825
1.00009 0.99708 0.997767
0.999988 0.998544 0.996237
0.999857 0.99932 0.995695
0.999712 0.99759 0.999097
0.999803 1.00027 0.994889
0.99973 0.998087 0.998909
0.999896 0.99875 0.998483
1.00526 0.995615 0.990077
1.00522 0.994922 0.991014
1.00529 0.994897 0.990616
1.00522 0.994937 0.990983
1.00513 0.994972 0.991314
1.00521 0.99503 0.991161
1.00514 0.994979 0.991283
1.00523 0.994939 0.991091
1.00526 0.994925 0.990834
1.00526 0.994994 0.990532
1.00523 0.994953 0.991115
1.00527 0.994923 0.99093
1.00529 0.994887 0.99067
1.00515 0.994972 0.991182
1.00525 0.994939 0.990951
1.00527 0.994887 0.990696
1.00488 1.00245 0.983975
1.00506 1.00197 0.983894
1.00506 0.999991 0.98557
1.00523 0.994969 0.990578
1.00518 0.995243 0.990215
1.0052 0.997246 0.988385
1.00498 1.00264 0.983672
1.00433 1.00372 0.983465
1.00343 1.00437 0.985515
1.00005 1.00215 0.99246
1.00112 1.00508 0.988144
1.0002 1.00503 0.98909
1.00522 0.994961 0.991064
1.00526 0.994913 0.990755
1.00526 0.994877 0.990598
1.005 1.0027 0.983589
1.00495 1.00157 0.984156
1.00506 0.999978 0.985851
1.0052 0.994883 0.99056
1.00515 0.995839 0.989547
1.00005 1.00074 0.993887
0.999952 1.00431 0.990646
1.00496 1.00294 0.982937
1.00416 1.00429 0.983781
1.00205 1.00499 0.986757
1.00062 1.0051 0.988815
1.00527 0.994926 0.990936
1.00529 0.994877 0.990515
1.00525 0.994855 0.990597
1.00514 0.995094 0.990352
1.00444 1.00273 0.983652
1.00509 0.998328 0.987337
1.0049 1.00215 0.98409
1.00023 0.999986 0.994489
1.00034 1.00108 0.993301
0.999811 1.00235 0.992613
1.00017 1.00505 0.989599
1.00088 1.00509 0.987984
1.00227 1.00443 0.985447
1.00459 1.00357 0.983355
1.00409 1.00429 0.984691
1.00013 1.00358 0.991046
1.00033 1.00512 0.989241
1.00528 0.995392 0.990119
1.00151 1.00328 0.988864
1.00507 1.00036 0.985996
1.00453 0.999738 0.987088
1.00523 0.997691 0.987847
1.00526 0.996848 0.98843
1.00479 1.00032 0.986193
1.005 0.999824 0.985818
0.999879 1.00391 0.990756
1.00033 1.00505 0.988953
1.00505 0.999803 0.986475
1.00364 1.00076 0.98772
1.00532 0.994852 0.99029
1.00524 0.996061 0.989424
1.00507 0.998813 0.986636
1.00512 0.999611 0.986003
0.999845 1.00412 0.990497
1.00534 0.994893 0.990292
1.00208 1.00415 0.988029
1.0048 0.999555 0.986874
1.00523 0.995246 0.990457
1.00506 0.997967 0.986548
1.00489 1.00076 0.985463
1.00022 1.00331 0.991279
0.99962 1.00349 0.992006
0.999001 1.00321 0.993912
1.00007 1.00278 0.991927
1.00012 1.00375 0.990959
0.999239 1.00343 0.992328
1.00013 1.00276 0.99187
0.99992 1.00392 0.990877
0.999131 1.00233 0.993685
0.999986 1.0038 0.991174
0.999442 1.00061 0.995802
0.999305 1.00291 0.99303
0.999796 1.00461 0.990385
1.00037 1.00379 0.990442
1.00015 1.0031 0.991497
0.999912 1.00192 0.993018
0.999926 1.00162 0.993309
0.999944 0.998831 0.996623
0.999965 1.00131 0.993557
1.00006 0.99865 0.996618
1.00006 0.997004 0.997938
1.00016 0.998566 0.996571
1.00014 0.996942 0.997867
1.00015 0.996946 0.997823
1.00019 1.00014 0.994443
1.00009 0.998177 0.996453
0.999989 0.998612 0.9962
0.999799 0.997206 0.999174
0.999853 0.999427 0.995636
0.999735 0.997681 0.999065
0.999776 0.998198 0.998832
1.00525 0.994985 0.990569
1.00525 0.994922 0.990826
1.00523 0.99494 0.991095
1.00514 0.994975 0.991287
1.00523 0.994952 0.991108
1.00527 0.994921 0.990946
1.00527 0.994892 0.990647
1.00527 0.99492 0.990979
1.00533 0.994924 0.990732
1.00537 0.994986 0.99112
1.00522 0.994964 0.991075
1.00526 0.994911 0.990733
1.00526 0.994877 0.990587
1.00487 1.0027 0.983638
1.00493 1.00185 0.98411
1.00494 0.999714 0.9862
1.00519 0.994886 0.990516
1.00511 0.996 0.989484
1.00483 1.00308 0.982924
1.00374 1.00464 0.984497
1.00191 1.00489 0.986966
1.00005 1.00059 0.994101
1.00007 1.00422 0.990626
1.00061 1.0051 0.988666
1.00527 0.994926 0.990918
1.00019 1.00002 0.994482
1.00025 1.00115 0.993195
1.00529 0.994888 0.990529
1.00523 0.994855 0.990604
1.00492 1.00274 0.983557
1.0047 1.00208 0.984231
1.00506 0.998131 0.987241
1.00515 0.995014 0.990266
0.999869 1.00235 0.992788
1.00021 1.00497 0.989556
1.00468 1.00378 0.9831
1.00335 1.00397 0.98524
1.00257 1.00464 0.985687
1.00097 1.00508 0.987994
1.00533 0.994902 0.99069
1.00528 0.994832 0.990499
1.00517 0.994848 0.990403
1.0051 0.995007 0.990268
1.00417 1.0029 0.984327
1.00437 1.00201 0.985146
1.00006 1.00181 0.99271
1.00022 1.00102 0.993507
1.00096 1.00062 0.992936
1.0003 1.00318 0.991106
1.00039 1.00508 0.98919
1.0024 1.00435 0.986905
1.0015 1.00502 0.985942
1.00386 1.00062 0.986241
1.0002 1.00377 0.990623
1.00065 1.00505 0.988924
1.00533 0.994851 0.990331
1.00525 0.996054 0.98931
1.00401 1.00093 0.987755
1.00516 0.999675 0.98647
1.00504 0.9988 0.986731
1.00513 0.999744 0.985953
1.00018 1.00399 0.990418
1.00535 0.994892 0.990517
1.00176 1.00411 0.988148
1.00496 0.999645 0.986695
1.00523 0.995224 0.990461
1.00504 0.998171 0.986769
1.00486 1.00063 0.98548
1.00011 1.00486 0.990086
1.00482 0.994828 0.991107
1.003 1.00252 0.987605
1.00464 1.0011 0.985344
1.00485 0.996128 0.989664
1.00372 1.00132 0.985947
0.998761 0.996076 0.987192
0.999512 1.00346 0.991923
0.998554 1.00336 0.993898
0.999205 1.0023 0.994766
1.00005 1.00284 0.99186
0.999873 1.00406 0.990898
1.00029 1.00347 0.991122
0.998813 1.00244 0.993939
1.0001 1.00316 0.991496
1.00025 1.00388 0.990478
0.999454 1.00075 0.995242
0.999888 1.0046 0.990397
0.999603 1.00282 0.992717
0.998874 1.00124 0.996173
1.00025 1.00463 0.989937
1.00011 1.00463 0.990226
1.00061 1.00396 0.990016
1.00014 1.00359 0.99084
1.00029 1.00422 0.990397
1.00012 1.00378 0.990635
0.999923 1.00204 0.992878
0.99994 1.0019 0.992999
0.999832 0.998993 0.996036
0.999935 1.0016 0.993289
0.999936 0.998893 0.996301
1.00001 0.997179 0.999115
1.00007 0.998699 0.996616
1.00007 0.99698 0.997939
1.00015 0.996929 0.997861
1.00008 1.00017 0.994512
1.0002 1.00004 0.994471
1.0001 0.998074 0.996574
1.00007 0.998197 0.996718
0.999879 0.996997 0.999216
0.999983 0.998681 0.996163
0.999797 0.997316 0.999156
0.99976 0.997746 0.999033
1.00525 0.994896 0.990624
1.00526 0.994919 0.990962
1.00523 0.994953 0.991102
1.00527 0.994921 0.990978
1.00533 0.994919 0.99073
1.00535 0.994968 0.990772
1.00537 0.994911 0.990762
1.0013 0.994949 0.983064
1.00454 0.994963 0.992587
1.00002 1.00154 0.993232
1.00527 0.994926 0.990901
1.00529 0.994897 0.990542
1.00521 0.994852 0.990611
1.00496 1.00238 0.98345
1.00488 1.00183 0.984365
1.00508 0.998048 0.987155
1.00516 0.995026 0.99018
1.00495 1.00358 0.982853
1.00298 1.00369 0.985797
1.0026 1.00481 0.985932
1.00014 1.00011 0.994477
1.00116 1.00509 0.988005
0.999855 1.00234 0.992953
1.00025 1.00498 0.989511
1.00026 1.00111 0.993089
1.00533 0.99489 0.990686
1.00006 1.00181 0.992821
1.00013 1.00115 0.993513
1.00078 1.00061 0.993104
1.00529 0.994839 0.990468
1.00517 0.994852 0.990374
1.0036 1.00351 0.984396
1.00463 1.00096 0.985705
1.00506 0.99525 0.990176
0.999952 1.00337 0.991277
1.00052 1.00508 0.989024
1.00378 1.00214 0.985991
1.00221 1.00483 0.98581
1.0022 1.00408 0.987142
1.00528 0.994837 0.99092
1.00518 0.994735 0.990841
1.00513 0.995062 0.989886
1.00494 0.997069 0.989741
1.00215 1.00288 0.987781
0.999701 1.00305 0.992018
1.00085 1.00083 0.992532
0.999984 1.00113 0.992881
1.00004 1.00461 0.991092
1.00025 1.0051 0.989491
1.00069 1.00451 0.988087
1.0025 1.00066 0.988839
1.00069 1.00378 0.990338
1.00121 1.00406 0.988267
1.00537 0.994887 0.99073
1.00524 0.995142 0.990458
1.00503 0.998304 0.986991
1.005 0.999683 0.986516
1.00481 1.00045 0.985503
1.00048 1.00466 0.99009
1.00464 0.994841 0.991293
1.00304 1.00222 0.987522
1.00485 1.00099 0.985282
1.00499 0.995823 0.989888
1.00388 1.00135 0.986029
0.998706 0.996936 0.985292
1.00023 1.00432 0.990281
1.00305 0.99661 0.991135
1.00366 1.00183 0.986162
1.00303 1.00111 0.987064
1.0031 0.99766 0.99082
0.999964 0.994921 0.946921
0.995862 0.994811 0.967155
0.995583 1.00045 0.988239
0.999477 0.994797 0.870185
0.994702 0.994802 0.835341
0.998229 1.00349 0.993888
0.998405 1.00282 0.99506
0.99848 1.00272 0.995688
1.00008 1.00319 0.991496
1.00032 1.00366 0.990513
1 1.00451 0.99041
0.999837 1.00274 0.992394
0.999447 1.00096 0.994677
1.00015 1.00442 0.990207
1.00013 1.00358 0.990931
1.00053 1.00393 0.990076
0.999078 1.00067 0.995652
1.00001 1.00461 0.990233
1.00032 1.00459 0.99026
0.999176 1.00481 0.991262
1.00011 1.00462 0.990178
1.00052 1.0044 0.989497
1.00023 1.00366 0.990634
1.0004 1.0046 0.989652
1.00048 1.00407 0.990275
0.999766 1.00446 0.990757
1.0002 1.00431 0.990305
1.00021 1.00351 0.991032
1.00015 1.00378 0.990622
0.999949 1.00203 0.992865
0.999936 1.00203 0.99288
0.999803 0.999094 0.996031
0.999919 1.00197 0.992982
0.999825 0.999033 0.996026
0.999963 0.997192 0.999137
0.999923 0.998964 0.995979
0.999999 0.997177 0.99852
1.00009 0.996958 0.997937
0.999974 1.00012 0.994721
1.00009 1.00018 0.994516
1.0001 0.997967 0.996694
1.00022 0.999942 0.994497
1.0001 0.998012 0.996841
0.999929 0.996788 0.999252
1.00007 0.998256 0.996429
0.999868 0.997075 0.9992
0.999802 0.997383 0.999139
1.00532 0.994914 0.990728
1.00527 0.994922 0.990977
1.00534 0.994979 0.990434
1.00081 0.994889 0.983187
1.00536 0.994905 0.990777
1.00443 0.995192 0.992268
1.00503 0.996374 0.99129
0.996372 0.994949 0.966248
1.00099 0.996212 0.985301
1.00008 1.00137 0.993379
1.00006 1.00158 0.993203
0.999706 1.00307 0.992185
0.999842 1.00228 0.992772
1.00533 0.994885 0.990681
1.0053 0.994853 0.990437
1.00517 0.994865 0.990346
1.0045 1.00366 0.984464
1.00452 0.99931 0.986263
1.00492 0.995528 0.990078
1.00337 1.00321 0.985749
1.00343 1.00469 0.985674
1.00204 1.00339 0.987372
1.00001 1.00139 0.993521
1.0005 1.00506 0.988861
0.999995 1.00345 0.991449
1.00003 1.00192 0.992932
1.00052 1.00069 0.993259
1.00528 0.994841 0.990925
0.999959 1.00295 0.991958
1.00093 1.0007 0.992754
0.999194 1.00136 0.99434
1.00517 0.994769 0.990741
1.00514 0.995092 0.989892
1.00324 1.00161 0.987752
1.00455 0.99649 0.99016
1.00027 1.00425 0.990636
1.00041 1.00496 0.988873
1.00208 1.00254 0.98869
1.00206 1.00395 0.987614
1.00439 0.994877 0.99181
1.00499 0.994823 0.991255
1.00496 0.996144 0.989414
1.00295 0.997979 0.992199
0.998947 1.00394 0.992454
1.00068 1.00148 0.99199
0.998373 1.00466 0.992653
0.999139 1.00492 0.990424
0.999976 0.994893 0.935107
1.00063 1.00455 0.99009
1.00306 1.00216 0.987436
1.00437 0.994864 0.991505
1.00508 0.995713 0.990108
1.00401 1.00137 0.986093
1.00477 1.00095 0.985215
0.998587 0.997356 0.983272
1.0003 1.00415 0.990678
1.0029 0.996813 0.991093
1.00349 1.00215 0.986206
1.00364 1.0009 0.987111
1.00354 0.997754 0.990507
1.00037 0.994897 0.93495
0.99617 0.994809 0.96329
0.9957 1.00128 0.988294
0.998865 0.994804 0.874688
0.994701 0.994811 0.82482
1.0001 1.00402 0.990843
0.999786 0.994851 0.881272
0.994705 0.994784 0.829316
1.00039 1 0.992226
1.00199 1.00168 0.989224
1.0014 0.999459 0.992498
0.994998 1.00127 0.989875
0.998564 0.994855 0.9447
0.994888 0.99479 0.959941
0.996903 0.994852 0.889632
0.994723 0.994801 0.821025
0.997769 1.0032 0.995361
0.998188 1.00224 0.995546
0.998456 1.00437 0.994021
1.00018 1.00353 0.99102
1.00046 1.00396 0.990137
0.999756 1.00476 0.99019
0.999793 1.00463 0.99053
0.999397 0.999884 0.995133
1.00022 1.00369 0.990636
1.00007 1.00488 0.990193
1.00002 1.00472 0.990095
1.00064 1.00422 0.989628
0.999109 1.00477 0.991492
0.999583 1.00498 0.991006
0.998376 1.00487 0.992159
1.00025 1.0048 0.989635
1.00048 1.00444 0.989722
1.00046 1.00452 0.98965
1.00036 1.00387 0.990448
1.00046 1.00483 0.989514
0.999939 1.00413 0.990898
0.999614 1.00329 0.991146
0.999638 1.00497 0.990454
0.999653 1.00471 0.990563
0.999903 1.00427 0.990784
1.00009 1.00342 0.991223
1.00012 1.0043 0.990213
1.0002 1.00349 0.990978
1.00001 1.00203 0.992783
1.00022 1.00375 0.990609
0.999945 1.00202 0.992875
0.999942 0.999064 0.996507
0.999918 1.00206 0.992884
0.999835 0.999061 0.996302
0.999923 0.997197 0.997979
0.999818 0.999053 0.996017
0.999961 0.997208 0.999143
1 0.997195 0.997922
1.00016 1.00137 0.993196
0.999935 1.0001 0.994808
0.999982 1.00013 0.994717
1.00007 0.997941 0.996754
1.00009 1.00018 0.994519
1.00011 0.997923 0.996696
0.999971 0.996689 0.999274
1.00009 0.998 0.99708
0.999944 0.996912 0.998716
0.99991 0.99715 0.998127
1.00034 0.994861 0.983307
1.00535 0.994903 0.990791
1.00414 0.996022 0.991941
0.996527 0.994935 0.967024
1.00094 0.995807 0.985651
1.00505 0.995741 0.991252
1.00334 0.996536 0.987105
0.99693 0.995562 0.969822
0.999976 0.994882 0.944558
0.999086 0.994845 0.891129
0.994653 0.994777 0.834151
0.999769 1.00236 0.99267
1.00009 1.00134 0.993368
1.00014 1.00152 0.993173
0.999846 1.00284 0.992246
0.999445 1.00371 0.992153
1.00036 1.00212 0.991971
1.00009 1.00285 0.992131
1.00001 1.00217 0.992614
1.00529 0.994828 0.990926
1.00519 0.994782 0.990644
1.00514 0.995066 0.989896
1.0033 1.00144 0.987728
1.00434 0.996136 0.990587
1.00233 1.00362 0.988525
1.00329 1.00379 0.987146
1.00086 1.00511 0.98826
1.00072 1.00063 0.992979
1.00022 1.00429 0.990165
1.00028 1.00275 0.991907
0.99867 1.0013 0.99578
1.0043 0.994797 0.992055
0.999167 1.00375 0.992445
1.0005 1.00189 0.992351
1.00484 0.994842 0.991206
1.00487 0.995725 0.989676
1.00258 0.997828 0.991787
0.999449 1.00512 0.991307
1.00065 1.00376 0.990621
1.00314 0.994792 0.991955
1.00415 0.997899 0.990538
1.0048 0.995619 0.990319
1.00099 0.998784 0.993181
0.99959 1.00479 0.990551
0.999229 1.00408 0.991977
0.999337 1.00521 0.991541
0.999808 0.994909 0.883944
1.0003 0.994878 0.947738
1.00047 1.00379 0.991072
1.00367 1.00228 0.986256
1.00282 0.997301 0.991046
1.00402 0.997922 0.990204
1.00408 1.00093 0.987177
0.999982 0.994888 0.945434
0.996151 0.994799 0.962919
0.995974 1.00221 0.988363
0.998443 0.994831 0.890371
0.994705 0.994803 0.813742
1.00009 1.00392 0.990802
0.999803 0.994856 0.880947
0.994673 0.994782 0.822754
1.00064 0.999973 0.992272
1.002 1.00181 0.989243
1.00142 0.999623 0.992841
0.995318 1.00159 0.990511
0.99959 0.995698 0.938382
0.994857 0.994795 0.962277
0.996695 0.997444 0.888584
0.994744 0.994784 0.819757
0.999385 1.00402 0.993172
0.994705 0.994821 0.82211
0.994744 0.994791 0.833676
0.997874 1.00173 0.996214
0.999888 1.00194 0.994034
0.995079 1.00141 0.988549
0.995055 0.995593 0.963349
0.996387 0.994933 0.933696
0.994733 0.998844 0.893273
0.994826 0.994825 0.823703
0.99797 1.00195 0.995406
0.998841 1.00368 0.993754
0.997836 1.0033 0.994762
1.00019 1.00373 0.990638
1.00075 1.00404 0.989759
1.00002 1.00479 0.990009
0.999851 1.00488 0.990128
0.99879 1.00465 0.991723
1.00045 1.00447 0.989716
0.999618 1.00476 0.990787
1.00037 1.00472 0.989635
0.997973 1.00484 0.992618
0.995994 1.00512 0.996123
0.999223 1.00482 0.991395
1.00046 1.00468 0.989595
1.00052 1.00446 0.989648
1.00035 1.00359 0.990616
1.00041 1.00481 0.989476
1.00001 1.00406 0.990831
0.999497 1.00328 0.991845
0.999266 1.00502 0.990868
0.999411 1.00471 0.990832
0.999049 1.00387 0.992205
1.00064 1.00194 0.992054
1.00133 1.00111 0.990583
0.999315 1.0048 0.99077
0.999752 1.00479 0.990492
0.999716 1.005 0.990069
0.999697 1.00484 0.990563
1.00001 1.00369 0.991049
0.999915 1.00434 0.99081
1.00013 1.00343 0.99123
1.00005 1.00197 0.992708
1.0002 1.00351 0.990924
1 1.00201 0.9928
1.00004 0.999054 0.996335
0.999938 1.00202 0.992886
0.999924 0.999047 0.996169
1.00001 0.997143 0.997875
0.999829 0.999052 0.996011
0.999962 0.997197 0.999148
0.999959 0.99721 0.99915
1.00021 1.00173 0.993074
0.99994 1.00025 0.99468
1.0001 1.0015 0.993207
1.00007 0.997934 0.996767
0.999934 1.00011 0.994809
0.999989 1.00015 0.994713
1.00008 0.997928 0.996747
0.999998 0.996632 0.99928
1.00009 0.997911 0.997174
0.999987 0.996693 0.998773
0.999963 0.996926 0.998216
0.999813 0.99485 0.86995
0.994675 0.994764 0.822708
0.997031 0.994901 0.967247
1.00088 0.995328 0.986068
1.0051 0.994987 0.991214
0.996602 0.995519 0.970033
1.00349 0.995755 0.98759
1.00107 0.994891 0.941891
0.999314 0.994794 0.874657
0.994691 0.994789 0.823814
0.998375 0.994869 0.97504
0.999539 0.994898 0.944013
0.996891 0.99541 0.889184
0.994724 0.994781 0.825722
1.00011 1.00324 0.991595
0.999857 1.00216 0.992795
1.0001 1.00135 0.993358
0.999917 1.0027 0.992306
0.99939 1.0036 0.992341
1.00008 1.00369 0.990998
1.00025 1.00274 0.991758
1.00036 1.00351 0.99065
1.00008 1.00282 0.992009
1.00001 1.00231 0.992456
1.00418 0.994773 0.992288
1.00468 0.994793 0.991164
1.00466 0.995319 0.989935
1.00222 0.998283 0.991374
1.001 1.00383 0.99082
0.999524 1.00521 0.989972
1.00047 1.00189 0.992743
0.999293 1.00377 0.992429
1.00258 0.994849 0.992353
0.999679 1.00494 0.990352
0.998936 1.00426 0.991839
1.00403 0.996745 0.990841
1.00473 0.995686 0.990131
1.001 0.998923 0.993538
0.999342 1.00516 0.991362
1.00046 0.994843 0.992403
1.00212 0.997774 0.992945
0.999781 1.00114 0.994339
0.998719 1.00514 0.98997
0.999129 1.00511 0.990443
0.998836 1.00512 0.991675
0.99473 0.994853 0.844254
0.999804 0.994897 0.888664
0.999985 0.994895 0.935403
0.999869 1.004 0.99075
1.00204 1.00176 0.989247
1.00068 0.999961 0.992321
1.00134 0.999643 0.993193
0.999812 0.994882 0.891758
0.998943 0.99486 0.934772
0.994864 0.994861 0.960085
0.995288 1.00204 0.991107
0.996992 0.994956 0.875092
0.994649 0.994786 0.827451
0.994745 0.994797 0.832012
0.999033 1.00342 0.992929
0.9947 0.994821 0.831502
0.994775 0.994796 0.833188
0.997336 1.00122 0.996837
0.999472 1.00193 0.993946
0.995059 0.999286 0.99099
0.99532 0.994964 0.961706
0.996839 0.998549 0.944319
0.994799 0.998733 0.87826
0.99489 0.994811 0.833591
0.997275 1.00378 0.996074
0.994791 0.994839 0.841976
0.994814 0.99479 0.830801
0.9949 1.00241 1.00009
0.9953 0.997467 0.96991
0.99491 0.999916 0.944075
0.99534 0.996798 0.870403
0.995026 0.994858 0.837998
0.999166 1.003 0.993459
0.997996 1.00357 0.994974
0.996067 1.00402 0.997342
1.0004 1.00453 0.989712
1.0005 1.00466 0.989637
0.999734 1.00461 0.990568
0.997624 1.00473 0.993082
1.00033 1.00475 0.989616
0.99919 1.00485 0.991364
0.995953 1.0048 0.996539
0.995269 1.00495 0.997894
0.995871 1.00496 0.99664
0.999681 1.00437 0.991114
1.00035 1.00484 0.989437
1.00004 1.00393 0.990762
0.999261 1.00347 0.992529
0.999402 1.00477 0.99086
0.999362 1.00501 0.990885
0.999051 1.00408 0.992287
0.999189 1.00455 0.991564
0.997226 1.00494 0.994491
1.00255 0.997589 0.992405
1.0004 1.00174 0.992429
1.00101 1.00156 0.991238
1.0043 1.0011 0.986891
1.00094 1.00337 0.990475
1.00049 1.00127 0.992074
0.999765 1.00457 0.990559
0.999743 1.00505 0.989771
0.999908 1.00456 0.990531
0.99991 1.00499 0.990078
1.00002 1.00437 0.990397
1 1.0047 0.990563
1.00018 1.00356 0.991034
1.00011 1.00202 0.992588
1.00028 1.00324 0.991238
1.00012 1.00194 0.992715
1.00014 0.99907 0.996165
1.00003 1.00196 0.992818
1.00004 0.999057 0.995971
1.00007 0.997186 0.997738
0.999926 0.99903 0.995872
0.999991 0.997163 0.998511
0.99997 0.997183 0.999135
1.00021 1.00235 0.992147
1.00005 1.00038 0.994418
1.00013 1.00177 0.992895
1.00006 0.997993 0.996711
0.999954 1.00021 0.994684
1.00006 1.00154 0.993216
1.00002 0.996602 0.999283
1.00006 0.997933 0.996768
0.99994 1.00011 0.99481
1.00009 0.997912 0.99674
0.999998 0.996654 0.999279
0.999969 0.996677 0.999275
0.994683 0.994797 0.826755
0.999807 0.994859 0.880718
0.994761 0.994779 0.831192
0.994695 0.994772 0.821268
0.996525 0.994905 0.967785
1.00351 0.994897 0.988089
0.999981 0.994893 0.938618
0.999376 0.994833 0.891153
0.994718 0.994804 0.81312
0.998521 0.994884 0.974319
1.00083 0.996137 0.930826
0.996827 0.998176 0.887194
0.994732 0.994775 0.819057
0.995423 0.99489 0.96733
0.996792 0.997362 0.932453
0.994786 0.99764 0.871451
0.994817 0.994838 0.821106
1.00041 1.00457 0.990517
0.999914 1.00324 0.991702
0.999931 1.00202 0.992918
0.999264 1.00343 0.992532
1.00057 1.00413 0.989596
0.999972 1.00364 0.991194
1.00001 1.00317 0.99155
1.00082 1.00299 0.990702
1.00046 1.00353 0.990731
1.00007 1.00271 0.991889
1.00224 0.994787 0.992752
1.00403 0.995584 0.991168
1.00464 0.995897 0.989946
1.00092 0.997975 0.993918
1.00026 1.00482 0.991178
0.999199 1.00469 0.99171
0.999716 1.00496 0.99015
0.99997 1.00512 0.989716
1.00003 0.99482 0.992749
0.999726 1.00501 0.990286
0.999413 1.00516 0.991567
1.00205 0.997244 0.993738
1.00043 1.00004 0.994115
0.997023 0.998055 0.992847
0.997286 0.997346 1.00088
0.997961 1.00299 0.994792
0.999871 1.00491 0.990149
0.998525 1.00516 0.992437
0.994824 0.994823 0.847527
0.994724 0.994839 0.840684
0.999806 0.994894 0.873473
0.999025 1.00279 0.992723
0.999303 1.0018 0.993834
0.997338 1.00041 0.997455
0.994679 0.994814 0.830597
0.996979 0.997298 0.933713
0.995348 0.994905 0.962187
0.995294 0.997382 0.993637
0.994785 0.997359 0.895133
0.994786 0.9948 0.833118
0.994931 0.994825 0.834303
0.997503 1.00371 0.996137
0.994796 0.994833 0.844864
0.994802 0.994788 0.831379
0.995325 1.00179 0.999101
0.995208 0.996948 0.971757
0.994988 0.998155 0.932847
0.99492 0.994857 0.835024
0.994896 0.999255 0.878085
0.99499 1.00485 0.999621
0.994791 0.994826 0.841531
0.994855 0.994819 0.836634
0.994805 0.994833 0.821929
0.994828 0.999292 0.990841
0.994877 0.998924 0.94767
0.996112 0.997567 0.884857
0.998383 1.00391 0.995204
0.996452 1.0043 0.997068
0.99501 1.0052 0.998844
1.00025 1.00482 0.989636
0.999086 1.00489 0.991331
0.996033 1.00472 0.996948
0.999467 1.00458 0.99103
0.996132 1.00499 0.996611
0.995362 1.00516 0.997911
0.99516 1.00525 0.997791
0.996371 1.00481 0.996065
0.999344 1.00479 0.990897
0.999416 1.00503 0.990903
0.999097 1.00434 0.992387
0.99752 1.00484 0.994359
0.999207 1.00469 0.991467
0.999086 1.00255 0.993647
1.00051 0.998376 0.995152
1.00248 1.00091 0.988504
1.00016 1.00156 0.992786
1.00156 1.00166 0.990761
1.00419 1.00204 0.986041
1.00521 1.00156 0.984484
1.00248 1.00172 0.989059
1.00347 1.00109 0.987177
1.00061 1.00506 0.989054
1.00062 1.00342 0.990777
0.999642 1.00148 0.993549
1.00021 1.00438 0.990349
0.99983 1.00505 0.989803
1.0002 1.00472 0.989765
1.00004 1.00503 0.990088
1.00015 1.00421 0.990414
1.00011 1.00247 0.992137
1.00025 1.00354 0.991018
1.00014 1.002 0.992576
1.00016 0.999079 0.996093
1.00015 1.0019 0.992721
1.00013 0.999059 0.995812
1.00013 0.997232 0.997623
1.00005 0.999048 0.995656
1.00005 0.997186 0.998416
1.00001 0.997168 0.999089
1.00047 1.00251 0.991387
1.0001 1.00072 0.993719
1.00028 1.00229 0.992143
1.00011 0.998062 0.996565
1.00003 1.00039 0.994271
1.00011 1.00178 0.992719
1.00004 0.996639 0.999266
1.00007 0.997969 0.996719
0.999962 1.00016 0.994689
1.00002 0.996623 0.999282
1.00005 0.997939 0.996768
0.999998 0.996637 0.999279
0.994824 0.994828 0.838807
0.994694 0.994823 0.837941
0.999804 0.994841 0.880248
1.00097 1.00272 0.990562
0.994819 0.994802 0.837813
0.99476 0.994779 0.831142
0.99472 0.994783 0.831939
0.999031 0.995062 0.973378
0.999199 0.994879 0.942595
0.99672 0.995111 0.872714
0.994721 0.994792 0.826045
0.99658 0.994901 0.964539
0.996907 0.999513 0.942689
0.994772 0.998914 0.874502
0.994813 0.994826 0.825531
0.994869 0.994888 0.959804
0.994873 0.998567 0.941527
0.995215 0.999969 0.880831
0.995031 0.994856 0.837534
0.999974 1.00484 0.990075
1.00019 1.00432 0.990341
1.00004 1.00307 0.99181
1.0006 1.00334 0.990462
1.00043 1.00435 0.989864
0.999955 1.0038 0.991386
1.00082 1.00311 0.990668
1.00048 1.00357 0.990807
0.998933 0.995944 0.992929
1.00227 0.996777 0.994446
1.00031 1.00511 0.989459
1.00094 0.999829 0.993895
0.999652 1.00516 0.991457
1.00008 1.00508 0.990137
0.999622 1.00486 0.990251
0.996199 0.997039 0.993584
0.998753 1.00489 0.992553
0.998255 1.00309 0.99502
0.99746 0.998308 1.00107
0.999373 1.00486 0.99144
0.995193 1.0005 0.989069
0.995743 1.00117 1.00015
0.996499 1.00472 0.995988
0.998708 1.00465 0.992924
0.994785 0.994805 0.847215
0.994829 0.994822 0.845795
0.994717 0.994831 0.83706
0.997647 1.00381 0.9962
0.995474 1.00084 0.998126
0.994807 0.994829 0.847598
0.994868 0.999875 0.944271
0.995302 0.996423 0.969153
0.994961 0.999351 0.876821
0.994801 0.994785 0.831815
0.99486 0.994853 0.832094
0.995273 1.00467 0.999318
0.994796 0.994825 0.841463
0.994852 0.99482 0.838612
0.994795 0.999801 0.994511
0.994799 0.994821 0.826062
0.994855 0.996932 0.940498
0.995497 0.998049 0.887103
0.994855 1.00358 0.99847
0.994824 0.994849 0.846351
0.994801 0.994805 0.838544
0.99471 0.994769 0.826234
0.994941 0.999986 0.880632
0.994899 1.00043 0.977005
0.995372 0.99824 0.933597
0.996749 1.00456 0.996807
0.995206 1.00521 0.998792
0.994913 1.00519 0.998329
0.999312 1.0047 0.990947
0.996272 1.00517 0.996586
0.995212 1.00517 0.997914
0.99655 1.00465 0.996022
0.995231 1.00523 0.997871
0.997829 1.00164 0.997582
0.99774 1.00463 0.994218
0.999197 1.00483 0.991381
0.999073 1.00282 0.994122
0.999014 1.00326 0.991944
0.998519 0.999174 0.997807
1.00237 1.00045 0.989513
1.00415 1.00352 0.983759
1.00495 1.00242 0.983661
1.00208 1.00171 0.990257
1.00418 1.00226 0.985313
1.00521 1.00162 0.98445
1.00429 1.00049 0.986712
1.00489 1.00142 0.984829
1.00087 1.0046 0.988597
1.00244 1.00199 0.988886
1.00271 1.00104 0.987468
1.00025 1.00505 0.989189
1.00023 1.00507 0.989269
1.00032 1.0034 0.991086
0.999888 1.00507 0.989835
1.00024 1.00472 0.989774
1.00019 1.00313 0.99136
1.00026 1.00415 0.990431
1.00013 1.00251 0.992118
1.00012 0.999277 0.995278
1.00019 1.00204 0.992564
1.00018 0.999078 0.995405
1.00004 0.997212 0.998992
1.00014 0.999074 0.995485
1.0001 0.997233 0.998321
1.00006 0.997193 0.999028
1.00047 1.00263 0.99124
1.00024 1.00111 0.993103
1.00042 1.00256 0.991524
1.00017 0.998202 0.996335
1.00015 1.00071 0.993645
1.0003 1.00228 0.992134
1.00006 0.996653 0.999234
1.00011 0.998038 0.996579
1.00004 1.00038 0.994125
1.00004 0.996615 0.999273
1.00007 0.997944 0.996727
1.00002 0.996648 0.999282
0.994801 0.994832 0.846473
0.994823 0.99483 0.838971
0.994687 0.994832 0.837994
1.00087 1.00276 0.990731
1.00072 1.00295 0.990579
1.00095 1.00236 0.991163
0.994866 0.994824 0.835931
0.994818 0.994793 0.838275
0.994757 0.994771 0.831139
0.996865 0.994883 0.965786
0.99696 0.995409 0.93143
0.994767 0.999816 0.893571
0.994822 0.994823 0.820391
0.994992 0.994848 0.962951
0.99491 0.99946 0.938239
0.995122 0.998998 0.877372
0.994947 0.994851 0.834411
0.995044 0.995328 0.95959
0.99486 0.998011 0.94279
0.996281 0.997912 0.884156
0.994843 0.994824 0.824237
0.99997 1.00353 0.991194
1.00029 1.00456 0.989875
1.0004 1.00406 0.990164
1.00074 1.00323 0.990405
1.00021 1.00448 0.990136
1.00082 1.00322 0.990636
0.996081 0.995598 0.99438
0.996884 0.999139 1.00136
0.999721 1.00451 0.990347
0.998849 1.0024 0.995209
0.998867 1.00477 0.992661
0.999086 1.00466 0.991616
0.998269 1.00503 0.992983
0.99524 1.0005 0.989038
0.996178 1.00499 0.996553
0.996309 1.00158 0.999197
0.99825 1.00459 0.993649
0.995015 1.0025 0.985536
0.995463 1.00405 0.996172
0.996077 1.00515 0.996774
0.994825 0.994828 0.847534
0.994786 0.994813 0.846961
0.994832 0.994819 0.844075
0.995457 1.00429 0.998966
0.994757 1.0002 0.990716
0.994795 0.994825 0.841406
0.99482 0.998782 0.940426
0.995914 0.997568 0.87282
0.994851 0.99482 0.840568
0.994814 0.99483 0.821301
0.994838 1.00344 0.998937
0.994819 0.994849 0.847105
0.994814 0.994801 0.839023
0.994891 0.999593 0.974351
0.994723 0.994772 0.819866
0.995508 0.999816 0.875759
0.995152 0.99629 0.946336
0.994913 1.00511 0.991771
0.994791 0.994842 0.846603
0.994779 0.994793 0.832171
0.994657 0.994781 0.835506
0.994761 0.997389 0.871137
0.994866 0.999419 0.941871
0.994888 1.00084 0.968373
0.995461 1.00514 0.998738
0.995021 1.00508 0.99836
0.997308 1.00232 0.997752
0.996801 1.00446 0.99598
0.995254 1.00522 0.997896
0.996491 1.00351 0.997499
0.998986 0.9969 1.00017
0.999037 1.00315 0.994586
1.00125 1.00239 0.99124
1.00237 1.00442 0.986322
1.00213 1.00003 0.990649
1.00416 1.00334 0.984047
1.00441 1.00432 0.982656
1.00497 1.00181 0.983914
1.00513 1.00177 0.984129
1.00487 1.00249 0.983641
1.00442 1.00239 0.984598
1.0051 1.00103 0.985545
1.00518 1.00171 0.984326
1.00263 1.00243 0.987603
1.00421 1.0006 0.986973
1.00447 1.00131 0.985178
1.00048 1.00507 0.988381
1.00113 1.00459 0.988562
1.00234 1.00235 0.988704
1.00031 1.00373 0.990648
1.00052 1.00488 0.989191
0.999967 1.00507 0.989483
1.00034 1.00459 0.989783
1.00026 1.00307 0.991361
1.00007 0.999702 0.994949
1.0002 1.00245 0.9921
1.00014 0.999315 0.995256
1.00004 0.99735 0.998958
1.00018 0.999109 0.995398
1.0001 0.997247 0.998293
1.00008 0.997226 0.998988
1.00054 1.00302 0.99101
1.00035 1.00135 0.992885
1.00056 1.00253 0.991303
1.00022 0.998428 0.996006
1.00024 1.00111 0.993188
1.0004 1.00259 0.991664
1.00008 0.996722 0.999181
1.00016 0.998171 0.996354
1.00018 1.0007 0.993572
1.00006 0.996661 0.999244
1.00011 0.998015 0.996593
1.00004 0.996628 0.999279
0.994827 0.994845 0.845786
0.994801 0.994846 0.846405
0.994819 0.994843 0.839211
1.00036 1.0042 0.989762
1.00114 1.00397 0.989693
1.00071 1.00284 0.990904
1.00065 1.00316 0.990484
1.00055 1.00255 0.991292
1.00036 1.00301 0.991158
1.00039 1.00216 0.992011
0.994833 0.994798 0.830654
0.994866 0.994828 0.838011
0.994814 0.994806 0.838751
0.99487 0.994849 0.831395
0.994951 0.994844 0.960053
0.994881 0.999919 0.933942
0.995323 0.996975 0.890467
0.994936 0.995934 0.958574
0.994888 0.999434 0.931146
0.995328 0.99797 0.887086
0.994875 0.994817 0.834042
0.995738 0.996939 0.961483
0.995078 0.999394 0.932928
0.995382 0.997263 0.87048
0.994739 0.994805 0.821597
0.998419 1.00484 0.992914
0.999821 1.00383 0.991351
1.0003 1.00473 0.989674
1.0008 1.00336 0.990351
0.995103 1.00023 0.989283
0.996866 1.00228 0.998123
0.998945 1.00485 0.991795
0.998049 1.00502 0.993046
0.996114 1.00518 0.997112
0.99816 1.00426 0.993595
0.996111 1.00502 0.996754
0.996584 1.00196 0.982102
0.994904 1.00503 0.996579
0.996291 1.00429 0.996541
0.99471 1.00427 0.982393
0.995479 1.00366 0.998533
0.994781 0.994812 0.847427
0.994828 0.994829 0.8504
0.994788 0.994824 0.846694
0.994825 1.00333 0.999367
0.994898 0.999044 0.977778
0.994812 0.994848 0.847908
0.995474 0.997477 0.934496
0.99545 0.997639 0.889693
0.994823 0.994809 0.839471
0.99471 0.994792 0.826748
0.994898 1.00442 0.992576
0.994803 0.994841 0.846557
0.994761 0.994788 0.832162
0.994893 1.00015 0.968492
0.994692 0.994794 0.825285
0.994777 0.998835 0.8735
0.995361 0.998946 0.930725
0.995347 1.00447 0.986425
0.99483 0.994824 0.839082
0.994669 0.994763 0.824046
0.996655 0.995327 0.890661
0.994832 0.999427 0.94144
0.994865 0.99999 0.961534
0.995209 1.00512 0.998686
0.996183 1.0032 0.997904
0.996541 0.999232 1.00105
0.995358 1.00519 0.9974
0.99747 0.998617 1.00032
1.00186 0.998094 0.994597
1.00351 1.0014 0.990542
1.00324 1.0041 0.985632
1.00349 1.00442 0.983662
1.00397 1.00333 0.984332
1.00451 1.00429 0.982585
1.00432 1.00428 0.982793
1.00512 1.00044 0.985092
1.0051 1.00109 0.984796
1.00495 1.002 0.983892
1.00507 1.00167 0.984682
1.00511 1.00165 0.984145
1.00469 1.00265 0.983618
1.00475 1.00099 0.986093
1.00492 1.00119 0.985369
1.00516 1.0018 0.984206
1.00162 1.00473 0.987351
1.00263 1.00254 0.987711
1.00411 1.00065 0.987232
1.0004 1.00425 0.989653
1.00082 1.00506 0.988415
1.00129 1.00456 0.988528
1.00007 1.00012 0.994528
1.00038 1.00359 0.990649
1.00072 1.00481 0.989192
1.00028 1.00305 0.991361
1.00007 0.999754 0.994921
0.999985 0.997587 0.9989
1.00016 0.999342 0.995234
1.00004 0.997381 0.998945
1.00007 0.997244 0.998972
1.00008 1.005 0.989789
1.00071 1.00358 0.990207
1.00045 1.00178 0.992331
1.00055 1.00296 0.990998
1.00025 0.998722 0.995658
1.00035 1.00137 0.992878
1.00057 1.00253 0.991366
1.0001 0.996882 0.999101
1.00022 0.998416 0.996026
1.00024 1.00113 0.99327
1.00008 0.996722 0.999198
1.00016 0.998155 0.996373
1.00006 0.996639 0.999254
0.994793 0.99483 0.841268
0.99481 0.994842 0.846579
0.994809 0.994839 0.846328
1.00046 1.00443 0.989752
1.00076 1.00356 0.989854
1.00002 1.0025 0.990791
0.999987 1.0045 0.989937
1.00134 1.00353 0.990411
1.00072 1.0033 0.990388
1.00039 1.0027 0.99142
1.00043 1.00299 0.991178
1.00036 1.00244 0.992036
0.999264 1.00405 0.992137
0.994754 0.994783 0.833816
0.994816 0.994792 0.831283
0.994865 0.994819 0.840026
0.994936 0.994831 0.834697
0.996011 0.997919 0.872715
0.994887 0.99641 0.957061
0.99489 0.998844 0.942689
0.994963 0.997397 0.958182
0.994886 0.996285 0.94436
0.994896 0.999473 0.878998
0.994758 0.994788 0.820293
0.994785 0.998443 0.962522
0.994835 1.0002 0.944091
0.994729 0.999238 0.892724
0.994693 0.994796 0.835506
0.998166 1.00317 0.994939
0.998184 1.0047 0.993052
0.999829 1.00383 0.991513
0.997299 1.0019 0.978356
0.99475 1.00507 0.997089
0.998002 1.00437 0.993537
0.995937 1.00511 0.996739
0.996618 1.00418 0.996508
0.995265 1.00339 0.998821
0.994935 1.00202 0.981643
0.99576 1.0018 0.999311
0.995776 1.00015 0.987294
0.99482 0.994821 0.846506
0.994788 0.994821 0.847183
0.994828 0.994827 0.853285
0.994899 1.00365 0.993001
0.994866 0.99978 0.96576
0.994815 0.994844 0.846488
0.994886 0.999638 0.94177
0.994749 0.999783 0.892194
0.994743 0.994772 0.832244
0.994717 0.9948 0.814677
0.995601 1.00424 0.98712
0.994815 0.99483 0.839176
0.994694 0.994769 0.822718
0.995038 0.999554 0.962488
0.996713 0.997663 0.888243
0.994957 0.999286 0.936436
0.995125 1.0033 0.984854
0.994683 0.994793 0.827445
0.999053 0.994834 0.892254
0.996645 0.997291 0.932822
0.994862 0.996811 0.964339
0.995619 1.00407 0.998042
0.996237 0.99952 1.00104
0.998777 1.00244 0.996071
0.995933 1.00026 1.00045
1.00069 0.998654 0.995114
1.00332 0.999769 0.989342
1.00412 1.0037 0.984927
1.00351 1.0044 0.983537
1.00419 1.00177 0.984901
1.00471 1.00424 0.982518
1.00436 1.0039 0.98288
1.00486 1.00042 0.985686
1.00524 0.997907 0.987255
1.00521 0.999802 0.985487
1.0051 1.00033 0.985184
1.00512 1.0011 0.984933
1.0051 1.00112 0.984718
1.00496 1.00216 0.983868
1.00509 1.00167 0.984828
1.0049 1.00158 0.984709
1.00507 1.00156 0.984162
1.00361 1.00258 0.986335
1.00433 1.00137 0.98609
1.00477 1.00138 0.985192
1.00064 1.00502 0.988155
1.00169 1.00464 0.987371
1.00276 1.00266 0.987817
1.00007 1.00087 0.994668
1.00059 1.00424 0.989647
1.00114 1.00504 0.98845
0.999982 0.997965 0.997097
1.00007 1.00027 0.994827
1.00045 1.00348 0.990649
1.00008 0.999823 0.994893
0.999988 0.99764 0.99887
1.00003 0.997393 0.99893
1.00018 1.0051 0.989714
1.00059 1.00478 0.989474
0.99991 1.00499 0.989728
1.00049 1.00245 0.991594
1.0005 1.00395 0.990191
1.00022 0.999068 0.995363
1.00044 1.00176 0.992342
1.00065 1.00286 0.990983
1.00009 0.997107 0.999021
1.00025 0.998702 0.995674
1.00035 1.0014 0.992871
1.00009 0.996867 0.999126
1.00021 0.998393 0.996047
1.00008 0.996712 0.999214
0.99479 0.994822 0.848265
0.994805 0.994834 0.841204
0.994798 0.994854 0.847403
1.00065 1.00243 0.990631
1.00016 1.0048 0.989741
1.00064 1.00336 0.990022
1.00049 1.00455 0.989716
1.00073 1.00244 0.990841
1.00073 1.00318 0.991242
1.00238 1.00231 0.988723
0.99882 1.0049 0.991139
1.00053 1.0029 0.991199
0.99999 1.00247 0.992059
0.999149 1.00391 0.992066
0.998287 1.00524 0.992663
0.994698 0.994795 0.829302
0.994782 0.99479 0.833356
0.994812 0.994786 0.83179
0.994757 0.994794 0.832204
0.994894 0.999446 0.878174
0.995475 0.998254 0.932902
0.994868 0.997451 0.957476
0.994973 0.997995 0.962314
0.9947 0.994801 0.825068
0.994853 0.997427 0.936905
0.994772 0.99981 0.877539
0.99491 0.996317 0.966592
0.994883 0.999918 0.944695
0.996675 0.996084 0.888474
0.999333 0.998003 0.997849
0.998166 1.00301 0.994902
0.998112 1.00449 0.993184
0.995122 1.00114 0.98145
0.994897 1.00302 0.999087
0.997023 1.00391 0.996478
0.996882 1.00164 0.999378
0.995232 0.999178 0.987451
0.996632 0.998248 0.992254
0.994722 0.994856 0.838853
0.99482 0.994812 0.848373
0.994793 0.994823 0.846892
0.995191 1.00414 0.987498
0.994869 0.999976 0.962348
0.994802 0.994837 0.839427
0.994839 0.999857 0.932706
0.996608 0.994859 0.8741
0.994725 0.994785 0.833152
0.994821 1.00406 0.984874
0.994695 0.994821 0.838485
0.99901 0.994801 0.875717
0.994856 0.995943 0.96005
0.996715 0.999054 0.943192
0.99481 1.00325 0.990133
0.9998 0.994846 0.87017
0.999397 0.994904 0.944876
0.994858 0.994836 0.959277
0.995918 0.999683 1.0011
0.998109 1.00149 0.995712
1.00155 1.00365 0.990627
0.999516 0.999365 0.995635
1.00271 1.00057 0.989186
1.00417 0.999874 0.987472
1.0035 1.00446 0.983413
1.00409 1.00199 0.984868
1.00499 0.997194 0.987875
1.00437 1.00345 0.982968
1.00473 1.00022 0.985714
1.00526 0.996207 0.988851
1.00523 0.996206 0.989297
1.00524 0.998131 0.987131
1.00526 0.997808 0.987383
1.00522 0.999696 0.985647
1.0052 0.99978 0.98565
1.00511 1.00022 0.985276
1.0052 1.00134 0.984505
1.00513 1.00101 0.984903
1.00511 1.00111 0.984639
1.00495 1.00111 0.985455
1.00493 1.00163 0.984836
1.0047 1.00146 0.984733
1.00196 1.00438 0.986979
1.00352 1.00272 0.986294
1.00387 1.00173 0.986089
0.999987 1.00196 0.992787
1.00114 1.00479 0.988162
1.0018 1.00461 0.987388
0.999805 0.998536 0.998625
1.00009 1.0009 0.993693
1.00079 1.0041 0.989642
0.99997 0.99795 0.998765
1.00006 1.00034 0.994401
0.999996 0.997707 0.998838
1.00169 1.00374 0.988871
1.00021 1.00502 0.989583
1.0006 1.00507 0.989112
1.00038 1.00343 0.990781
1.00044 1.0047 0.989448
1.00008 1.00489 0.989669
1.00016 0.999523 0.995026
1.00045 1.00248 0.991617
1.0003 1.00406 0.990174
1.00007 0.997317 0.998955
1.00023 0.999012 0.995379
1.00044 1.00173 0.992354
1.00009 0.997071 0.999044
1.00024 0.998689 0.995689
1.00009 0.996839 0.999151
0.99471 0.99482 0.82416
0.994807 0.994824 0.848465
0.994811 0.994837 0.841154
1.00058 1.00282 0.990604
1.00393 1.00202 0.987708
1.00117 1.00353 0.989902
1.00049 1.0045 0.989494
1.00157 1.00227 0.990885
0.999789 1.00252 0.99206
0.999426 1.00476 0.990813
1.00163 1.00275 0.989173
1.00152 1.00421 0.988646
0.999623 0.999818 0.995144
0.999713 1.00384 0.991993
0.998566 1.0052 0.992474
0.99939 0.994824 0.869315
0.99467 0.994785 0.822961
0.994792 0.994795 0.83332
0.994714 0.994797 0.814118
0.994789 0.998618 0.894197
0.994797 0.999265 0.932598
0.995163 0.995931 0.960039
0.994861 0.996276 0.964919
0.996889 0.998455 0.887278
0.994886 0.99898 0.933329
0.99488 0.997138 0.967467
0.996476 0.996468 0.932732
1.00102 0.996076 0.998649
0.999254 0.99894 0.997803
0.9982 1.00294 0.994878
0.994833 0.998825 0.987709
0.997691 1.00122 0.999435
0.997118 0.998394 0.991971
0.997361 0.995837 0.990943
0.999806 0.994896 0.883115
0.994713 0.994842 0.836927
0.994828 0.99481 0.850117
0.994857 1.00414 0.98517
0.994847 0.99517 0.958571
0.99469 0.994831 0.838415
0.996794 0.995294 0.9327
0.999133 0.994836 0.892496
0.99485 1.0013 0.987043
0.999804 0.994861 0.881014
1.00025 0.995765 0.932103
0.994879 0.994812 0.961834
0.997109 0.998038 0.988872
0.999974 0.994888 0.945321
0.995464 0.994865 0.965587
0.99785 1.00059 0.995302
1.00073 1.00155 0.99074
1.00392 0.999283 0.990458
1.00217 1.00124 0.989043
1.0041 0.999652 0.987491
1.00512 0.996197 0.98925
1.00409 1.00212 0.984839
1.00495 0.997599 0.987811
1.00522 0.995201 0.989882
1.00462 1.00002 0.98574
1.00526 0.996309 0.988796
1.00524 0.995115 0.990231
1.00522 0.99551 0.990241
1.00522 0.996111 0.989476
1.00521 0.99669 0.989051
1.00527 0.998503 0.987027
1.00523 0.998196 0.987239
1.00527 0.997707 0.987512
1.00526 1.00035 0.985335
1.00522 0.999744 0.985607
1.00519 0.999739 0.985813
1.00518 1.00142 0.984753
1.00517 1.00137 0.984552
1.00512 1.00097 0.984877
1.00323 1.00291 0.986424
1.0048 1.00127 0.985425
1.00475 1.00162 0.984844
1.00032 1.00275 0.991419
1.00207 1.00427 0.986996
1.00352 1.00264 0.986254
0.999895 0.998913 0.998395
1.00012 1.00183 0.992745
1.00153 1.00468 0.988167
0.999903 0.998524 0.997669
1.00013 1.00098 0.993696
0.999986 0.998084 0.998681
1.00314 1.00171 0.988087
1.00109 1.00376 0.989089
1.00054 1.00508 0.98877
1.00023 1.00495 0.989451
1.00038 1.00506 0.989119
1.00051 1.00417 0.989928
1.0001 1.00023 0.994466
1.00032 1.00354 0.990773
1.0002 1.00482 0.989422
1.00003 0.997566 0.998861
1.00015 0.999484 0.995047
1.00039 1.00253 0.991638
1.00006 0.997287 0.998974
1.00024 0.998969 0.995398
1.00009 0.997044 0.999068
0.999797 0.99484 0.880656
0.9947 0.994831 0.829316
0.994818 0.994823 0.848651
1.00048 1.0032 0.990578
1.0011 1.00414 0.988961
1.00313 1.00262 0.988011
1.00486 1.00365 0.983311
1.00118 1.0036 0.988865
0.999631 1.00483 0.990506
1.00113 1.00324 0.989624
1.00081 1.00416 0.989044
1.00347 0.999965 0.987691
1.00181 0.999733 0.992488
1.00354 0.995207 0.992962
1.00035 0.999482 0.995013
0.999329 1.00451 0.992291
0.998518 0.994875 0.943158
0.999586 0.994784 0.874115
0.994652 0.994786 0.827454
0.996899 0.996482 0.874068
0.994887 0.999888 0.941702
0.994859 0.995503 0.965835
0.994898 0.996826 0.969118
0.997106 0.999315 0.944427
0.995748 0.995172 0.968811
1.00044 0.995836 0.998347
1.00036 0.996494 0.99868
0.999059 0.99989 0.997745
0.997801 0.997928 0.991789
0.998018 0.996797 0.991079
0.999971 0.994893 0.93503
0.999804 0.994883 0.888194
0.994697 0.994828 0.835102
0.994904 0.999659 0.983724
0.994943 0.99482 0.95937
0.999805 0.994841 0.880666
0.999153 0.994873 0.94349
0.996763 0.99798 0.989156
1.00074 0.994894 0.942126
0.996442 0.994884 0.963192
1.00068 0.995189 0.989121
0.998664 0.99487 0.973111
0.999626 0.999477 0.990943
1.00347 0.997579 0.99045
1.00482 0.995151 0.991641
1.00392 0.999396 0.987504
1.005 0.996159 0.989114
1.00521 0.99488 0.99037
1.00482 0.998054 0.987748
1.00522 0.995258 0.98983
1.00523 0.994897 0.990433
1.00526 0.99642 0.988741
1.00524 0.995185 0.990194
1.00523 0.995004 0.990526
1.00521 0.995381 0.990311
1.0052 0.99571 0.990141
1.00522 0.996011 0.989656
1.00521 0.996688 0.989044
1.00523 0.997368 0.988304
1.00529 0.999376 0.98634
1.00526 0.998567 0.987006
1.00523 0.998261 0.987347
1.00528 1.00107 0.984698
1.00527 1.00041 0.985215
1.00523 0.999788 0.985565
1.00395 1.00189 0.986143
1.00503 1.00146 0.984776
1.00514 1.0014 0.984599
1.00098 1.00284 0.99026
1.0031 1.00307 0.986427
1.0045 1.00157 0.9854
1.00001 0.999707 0.998014
1.00046 1.00262 0.991404
1.00229 1.00419 0.987015
0.999983 0.999093 0.998272
1.00031 1.00164 0.992701
0.999996 0.99853 0.998476
1.00448 1.00237 0.984785
1.00319 1.00154 0.98797
1.00137 1.00428 0.987764
1.00051 1.0037 0.989315
1.00058 1.005 0.988628
1.00073 1.00476 0.988953
1.00025 1.00507 0.989124
1.00034 1.00432 0.989903
1.00013 1.0009 0.993724
0.999996 0.997988 0.998681
1.00007 1.00017 0.994487
1.00026 1.00363 0.990765
1.00002 0.997548 0.998895
1.00014 0.999426 0.995063
1.00006 0.997259 0.998993
0.999975 0.994891 0.946888
0.999816 0.994859 0.880373
0.994681 0.994823 0.824059
1.00098 1.00478 0.988014
1.00251 1.00293 0.98832
1.0021 1.00346 0.988382
1.0044 1.00352 0.984033
1.00491 1.00177 0.984284
1.00336 1.00175 0.985911
1.00024 1.00437 0.989427
1.00412 1.00013 0.986685
1.00173 0.99968 0.992702
1.00346 0.997282 0.990149
1.00433 0.995808 0.991817
1.00313 0.99617 0.992838
1.00314 0.995432 0.99315
0.999924 0.999822 0.994879
0.996035 0.994862 0.967004
0.999487 0.996121 0.939213
0.998383 0.994843 0.889358
0.996761 0.997353 0.93243
0.994892 0.9969 0.969632
0.99543 0.995783 0.974585
0.999273 0.995702 0.992758
1.00095 0.995337 0.997977
0.999726 0.996717 0.998729
0.998996 0.99838 0.991247
0.997047 0.996213 0.968057
1.00009 0.994881 0.947586
0.999806 0.994877 0.872904
0.996159 0.997739 0.989434
0.996906 0.994864 0.964153
0.999982 0.99488 0.938682
1.0001 0.994943 0.989331
0.998556 0.994942 0.972503
1.00299 0.994843 0.990841
1.003 0.997322 0.985598
1.00281 0.995982 0.990416
1.00448 0.995127 0.991644
1.0051 0.99477 0.991012
1.00497 0.996205 0.988979
1.00521 0.994883 0.990324
1.00525 0.994886 0.990501
1.00522 0.995312 0.989776
1.00523 0.994901 0.990411
1.00526 0.994907 0.990509
1.00524 0.995244 0.990156
1.00522 0.994995 0.990509
1.00524 0.995026 0.990534
1.00521 0.99526 0.990379
1.0052 0.995586 0.9902
1.00522 0.996522 0.989342
1.00521 0.996691 0.989037
1.00523 0.997423 0.988285
1.00527 0.99861 0.987219
1.00531 1.00036 0.985374
1.00529 0.999501 0.986172
1.00526 0.998633 0.986984
1.00458 1.00101 0.985952
1.00526 1.00109 0.984732
1.00528 1.00047 0.985096
1.00148 1.00247 0.989706
1.00384 1.00211 0.986125
1.00489 1.00149 0.984796
1.00035 1.00033 0.997518
1.00105 1.00269 0.990254
1.00298 1.0032 0.986428
1.00017 0.999867 0.997814
1.0005 1.00247 0.991397
1.0001 0.999227 0.998116
1.00475 1.0019 0.984547
1.00476 1.00221 0.984946
1.0038 1.00235 0.985794
1.00303 1.00179 0.987851
1.00157 1.00407 0.987538
1.00153 1.00484 0.987762
1.00053 1.00496 0.988486
1.00066 1.00482 0.98895
1.00016 1.00175 0.992894
1.00024 1.00453 0.989878
1.00007 1.00094 0.993753
0.999949 0.998589 0.998466
0.999977 0.99794 0.99875
1.00003 1.00015 0.994512
1.00001 0.997495 0.998924
0.996971 0.994887 0.968295
0.999974 0.994872 0.93442
0.99981 0.994853 0.891149
1.00517 0.999541 0.985898
1.0031 1.00344 0.98791
1.0039 1.0034 0.984755
1.00403 1.00154 0.986219
1.00494 1.00196 0.984191
1.00451 0.998971 0.987696
1.00476 1.00119 0.985679
1.00142 0.999091 0.992918
1.00394 0.997831 0.989804
1.00418 0.995924 0.991152
1.00478 0.995692 0.990006
1.00349 0.995275 0.99348
1.00316 0.995787 0.992875
1.00295 0.995667 0.993331
0.999118 0.995715 0.991056
0.995884 0.994869 0.96534
0.99905 0.994864 0.935011
0.995016 0.996391 0.973056
0.998986 0.995571 0.995283
1.00091 0.994945 0.997557
1.00151 0.996528 0.982959
0.997077 0.995479 0.968632
0.999976 0.994896 0.935039
0.999345 0.994844 0.989585
0.998861 0.995035 0.971681
1.0021 0.995028 0.991324
1.00295 0.996677 0.986352
1.00399 0.994931 0.991383
1.00456 0.997407 0.990832
1.00421 0.994974 0.991635
1.00508 0.994793 0.990903
1.00529 0.994827 0.990482
1.00521 0.994885 0.990278
1.00524 0.994881 0.990495
1.00529 0.994883 0.990468
1.00523 0.994908 0.990388
1.00526 0.994905 0.990513
1.00526 0.994917 0.990626
1.00521 0.994995 0.990492
1.00524 0.995017 0.990516
1.00522 0.995551 0.990178
1.00521 0.995463 0.99026
1.00522 0.996375 0.989499
1.00526 0.997863 0.988049
1.00524 0.997475 0.988265
1.00527 0.998565 0.987263
1.0053 1.00002 0.985829
1.00488 1.00052 0.985931
1.00531 1.00047 0.985269
1.00529 0.999623 0.986004
1.00211 1.0015 0.989613
1.00449 1.00114 0.985962
1.00524 1.00109 0.984767
1.00065 1.00059 0.997191
1.0017 1.00214 0.989706
1.00373 1.00229 0.986112
1.0005 1.00041 0.997374
1.00119 1.0025 0.990249
1.00034 1.00005 0.997622
1.00526 1.00075 0.984877
1.005 1.0019 0.984459
1.00503 1.00133 0.984881
1.00511 1.00203 0.985107
1.00405 1.00233 0.985618
1.00249 1.00403 0.986892
1.00186 1.00371 0.987313
1.00123 1.00501 0.987787
1.00037 1.00233 0.991899
1.0005 1.00485 0.988945
1.00008 1.00168 0.992925
0.999929 0.999197 0.998205
1.00001 1.00088 0.993782
0.999936 0.998454 0.998544
0.999961 0.997862 0.99881
1.0008 0.994877 0.987539
0.996756 0.994896 0.96501
0.999973 0.994884 0.946759
1.00503 0.998157 0.987761
1.00524 0.997729 0.987805
1.00517 0.999333 0.986161
1.00467 1.00106 0.986521
1.00499 1.0022 0.984097
1.00455 0.998769 0.988053
1.0051 0.995776 0.989331
1.00454 0.99784 0.989472
1.00413 0.996394 0.990487
1.00469 0.996223 0.990308
1.00511 0.995097 0.990649
1.00381 0.995409 0.9924
1.00316 0.995576 0.993282
1.00345 0.995335 0.992924
0.999767 0.9956 0.991174
0.99572 0.994863 0.963801
0.998986 0.995511 0.997916
1.00444 0.99514 0.990957
1.00134 0.996627 0.983115
0.997115 0.994872 0.966707
1.00171 0.994804 0.991775
1.00286 0.996005 0.98713
1.00403 0.994842 0.992015
1.00459 0.996603 0.990911
1.00527 0.994838 0.990836
1.00537 0.994927 0.991031
1.00506 0.994807 0.990797
1.0053 0.994835 0.990453
1.00531 0.994872 0.990485
1.00523 0.994876 0.990488
1.00529 0.994885 0.990486
1.00526 0.994889 0.990636
1.00525 0.994903 0.990518
1.00526 0.994916 0.990618
1.00525 0.995105 0.990625
1.00524 0.995005 0.990498
1.00523 0.995573 0.990156
1.00526 0.997121 0.988742
1.00523 0.996225 0.989656
1.00526 0.997789 0.988114
1.00531 0.999593 0.986236
1.00527 0.998523 0.987306
1.0053 0.999944 0.985914
1.00497 1.00034 0.985991
1.00247 1.00074 0.98973
1.00486 1.00057 0.985935
1.0053 1.00058 0.985164
1.0008 1.00062 0.997052
1.00215 1.00144 0.989604
1.00437 1.00134 0.985973
1.00071 1.00062 0.997125
1.00182 1.00195 0.989705
1.00059 1.00052 0.997252
1.00529 0.999082 0.986432
1.00524 1.00063 0.985054
1.00519 1.00096 0.985033
1.00516 1.00185 0.98437
1.00511 1.00128 0.984907
1.0033 1.00257 0.986722
1.00437 1.00228 0.985443
1.00238 1.00384 0.986902
1.00067 1.00282 0.99081
1.00095 1.00509 0.987811
1.00024 1.00245 0.991932
1 0.999983 0.997865
1.00003 1.00172 0.992956
0.999886 0.999114 0.998306
0.999912 0.998365 0.998619
1.00431 0.994847 0.992164
1.00091 0.994874 0.985427
0.996598 0.994915 0.964182
1.00513 0.997085 0.988801
1.00502 0.997733 0.988025
1.00528 0.996517 0.988989
1.00524 0.997752 0.987778
1.00518 0.999124 0.98642
1.00523 0.995178 0.989898
1.00462 0.998713 0.988401
1.00511 0.996138 0.989303
1.00525 0.994879 0.990442
1.00456 0.996569 0.990609
1.00506 0.995214 0.990374
1.00362 0.995425 0.992633
1.00259 0.995884 0.993085
1.00021 0.995419 0.991144
1.00533 0.994906 0.990776
1.0044 0.996143 0.991165
1.00121 0.996919 0.98331
1.00396 0.994786 0.992632
1.00458 0.99581 0.990995
1.00526 0.994825 0.990905
1.00538 0.994925 0.990967
1.00534 0.994898 0.990834
1.00532 0.994848 0.990425
1.00531 0.994879 0.990497
1.00525 0.994908 0.990756
1.00529 0.994888 0.990505
1.00526 0.994892 0.990633
1.00526 0.994918 0.990848
1.00526 0.994915 0.990609
1.00524 0.995113 0.9906
1.00525 0.996389 0.989505
1.00524 0.995602 0.990133
1.00525 0.997145 0.988747
1.00532 0.999157 0.986706
1.00526 0.997715 0.988178
1.00531 0.999596 0.986261
1.00499 1.00028 0.986051
1.00531 0.99987 0.985999
1.00498 1.00034 0.985999
1.00255 1.00033 0.991585
1.00114 1.00019 0.993805
1.00251 1.00072 0.990524
1.00484 1.00063 0.98594
1.00083 1.00064 0.997022
1.00229 1.00125 0.989591
1.00075 1.00067 0.997062
1.00526 0.996324 0.989445
1.00528 0.99796 0.987745
1.00529 0.999086 0.9866
1.00527 1.00038 0.985451
1.00523 1.00053 0.98523
1.00522 1.00097 0.984975
1.004 1.00142 0.986561
1.00516 1.00125 0.984932
1.00347 1.00216 0.986705
1.00129 1.00268 0.989926
1.00235 1.00369 0.98691
1.00063 1.00293 0.990797
1.00022 1.00065 0.997431
1.00012 1.0025 0.991963
0.99992 0.999746 0.998001
0.99986 0.998958 0.998396
1.00533 0.994866 0.990706
1.0045 0.994831 0.991913
1.00129 0.994867 0.983373
1.00526 0.995705 0.989688
1.00508 0.997035 0.988683
1.00505 0.997277 0.988297
1.00528 0.996666 0.988977
1.00524 0.997761 0.987751
1.00532 0.994862 0.990523
1.00524 0.995144 0.98993
1.00511 0.996522 0.989276
1.00524 0.994883 0.990465
1.00503 0.995299 0.990099
1.00355 0.995467 0.99287
1.00531 0.994933 0.990888
1.00534 0.994912 0.99096
1.00438 0.996815 0.991375
1.00526 0.994808 0.990961
1.00539 0.994922 0.990908
1.00534 0.994898 0.990798
1.00524 0.994944 0.991013
1.00531 0.994886 0.990509
1.00525 0.994908 0.990727
1.00523 0.994918 0.990996
1.00527 0.994894 0.990629
1.00526 0.994917 0.99083
1.00525 0.995784 0.990148
1.00524 0.995115 0.990575
1.00526 0.996416 0.9895
1.00532 0.998753 0.987168
1.00525 0.997167 0.988752
1.00532 0.999157 0.986729
1.00498 1.00022 0.986139
1.0053 0.999597 0.986287
1.00501 1.00026 0.986066
1.00264 1.00007 0.991706
1.005 1.00034 0.986006
1.00274 1.00022 0.991469
1.00119 0.999976 0.993978
1.00088 1.00047 0.995466
1.0027 1.00067 0.991156
1.00084 1.00069 0.997004
1.00523 0.99539 0.990471
1.00526 0.997627 0.988108
1.00525 0.996148 0.989625
1.00532 0.999702 0.986049
1.00528 0.99802 0.98773
1.00529 0.999091 0.986768
1.00528 1.00039 0.985397
1.00465 1.00057 0.986284
1.00525 1.00099 0.984916
1.00412 1.00117 0.986557
1.00187 1.00191 0.989616
1.00356 1.00179 0.986693
1.00111 1.00284 0.98992
1.00041 1.00113 0.997105
1.00046 1.00307 0.9908
1.00006 1.0005 0.997606
0.999846 0.999625 0.998126
1.00529 0.994872 0.990738
1.00531 0.994866 0.990702
1.00457 0.994823 0.991649
1.00526 0.99493 0.990589
1.00525 0.995742 0.989694
1.00499 0.997003 0.98857
1.00527 0.996818 0.988965
1.0053 0.994891 0.990503
1.00525 0.995106 0.98996
1.0052 0.994888 0.990489
1.00526 0.994961 0.991001
1.0053 0.994931 0.990875
1.00536 0.994919 0.991142
1.0052 0.99497 0.991138
1.00533 0.994898 0.990762
1.00524 0.994947 0.991001
1.00519 0.994958 0.991107
1.00525 0.994908 0.990698
1.00523 0.994919 0.990991
1.00525 0.99543 0.990594
1.00525 0.994916 0.990811
1.00525 0.995808 0.99014
1.00531 0.998402 0.987594
1.00527 0.996445 0.989494
1.00532 0.998749 0.987187
1.00496 1.00014 0.986285
1.00532 0.999157 0.986752
1.005 1.0002 0.986156
1.00267 1.00005 0.991681
1.00504 1.00023 0.986079
1.0028 1.00001 0.991566
1.00125 0.999863 0.994019
1.00292 1.00011 0.991363
1.0008 1.00015 0.994243
1.00032 1.00082 0.997452
1.00523 0.995274 0.990497
1.00527 0.996836 0.989018
1.00524 0.99548 0.990298
1.00534 0.999372 0.986471
1.00527 0.997315 0.988357
1.00525 0.995975 0.989805
1.00501 1.00005 0.986221
1.00532 0.999708 0.986009
1.00528 0.998075 0.987716
1.00529 1.0004 0.985343
1.0047 1.00047 0.986277
1.00223 1.00117 0.989716
1.00424 1.00092 0.986554
1.00173 1.00211 0.989636
1.00051 1.00123 0.997011
1.00107 1.00297 0.989905
1.00034 1.00097 0.997217
0.999956 1.00028 0.997767
1.00522 0.994898 0.990973
1.00528 0.994874 0.990712
1.0053 0.994865 0.990699
1.00527 0.994962 0.9906
1.00523 0.995779 0.989701
1.00529 0.994919 0.990482
1.00522 0.99497 0.991069
1.00526 0.994957 0.991006
1.00529 0.994929 0.990862
1.0052 0.99497 0.991137
1.00514 0.994964 0.991274
1.00524 0.994949 0.990989
1.00519 0.994959 0.991121
1.00525 0.995285 0.990816
1.00523 0.994921 0.990986
1.00523 0.995441 0.99059
1.00529 0.99811 0.987913
1.00527 0.995824 0.990132
1.0053 0.998393 0.987608
1.00493 1.00001 0.986473
1.00532 0.998746 0.987207
1.00497 1.00012 0.986301
1.00262 1.00015 0.991625
1.00503 1.00017 0.986173
1.00281 1.00001 0.99153
1.00129 0.999884 0.993944
1.00295 0.99995 0.991436
1.0009 0.999917 0.994307
1.00042 1.00033 0.994492
1.00524 0.994975 0.990911
1.00527 0.996465 0.989388
1.00524 0.995127 0.990574
1.00534 0.998654 0.987233
1.00526 0.996946 0.988881
1.00526 0.995563 0.990124
1.0051 0.999887 0.986286
1.00534 0.999103 0.98667
1.00528 0.997008 0.988608
1.00251 1.00041 0.989959
1.00501 1.00003 0.986213
1.00532 0.999715 0.98597
1.00476 1.00037 0.98627
1.00218 1.00125 0.989731
1.00063 1.0011 0.997025
1.00158 1.00231 0.989656
1.00049 1.00115 0.997038
1.0002 1.00088 0.997356
1.00521 0.99493 0.991076
1.00523 0.994904 0.99094
1.00527 0.994876 0.990686
1.00527 0.994998 0.99061
1.00517 0.994966 0.991226
1.00521 0.994968 0.991076
1.00526 0.994953 0.991012
1.00519 0.994969 0.991135
1.00515 0.994963 0.991257
1.00523 0.99566 0.99049
1.0052 0.99496 0.991135
1.00523 0.995526 0.990583
1.00531 0.997499 0.988567
1.00522 0.995459 0.990587
1.0053 0.998106 0.987917
1.00491 0.999836 0.986695
1.00529 0.998397 0.987623
1.00494 0.999997 0.986482
1.00263 1.00022 0.990061
1.00499 1.0001 0.986317
1.00276 1.00011 0.990719
1.0011 0.999955 0.997051
1.00295 0.99997 0.99138
1.00097 0.999874 0.99424
1.00057 0.999955 0.994577
1.00524 0.994983 0.991004
1.00527 0.996004 0.989924
1.00524 0.995052 0.990836
1.00531 0.998159 0.987751
1.00527 0.996471 0.989342
1.00525 0.994984 0.99065
1.00508 0.999621 0.986537
1.00534 0.998646 0.987244
1.00526 0.997053 0.988744
1.00267 0.999906 0.990187
1.00507 0.999783 0.986343
1.00533 0.998825 0.98687
1.0008 1.00068 0.997104
1.00253 1.00039 0.989968
1.00501 1 0.986204
1.00212 1.0013 0.989749
1.00063 1.00103 0.997013
1.00046 1.00109 0.997074
1.0052 0.994954 0.991135
1.0052 0.994933 0.99108
1.00524 0.994909 0.990906
1.00524 0.995661 0.990486
1.00517 0.994966 0.991223
1.00521 0.994967 0.991082
1.00516 0.994962 0.99124
1.00523 0.995654 0.990492
1.00534 0.997593 0.988527
1.00521 0.995764 0.990349
1.00532 0.99783 0.988222
1.00486 0.999411 0.987153
1.00531 0.998088 0.987922
1.00492 0.999825 0.986695
1.00259 1.00015 0.990202
1.00496 0.999983 0.98649
1.00264 1.0002 0.990066
1.00105 1.00001 0.997037
1.00279 1.0001 0.989942
1.00096 0.999956 0.995667
1.00065 0.999845 0.994534
1.00525 0.994948 0.991014
1.00528 0.995863 0.990138
1.00524 0.994962 0.991013
1.0053 0.998286 0.987669
1.00527 0.996067 0.989862
1.00524 0.995134 0.990761
1.00502 0.999544 0.986726
1.00531 0.998428 0.987501
1.00526 0.996475 0.989296
1.00273 0.999774 0.990238
1.00504 0.999611 0.986553
1.00534 0.99864 0.987254
1.00098 1.00024 0.997137
1.0027 0.99988 0.990191
1.00505 0.999675 0.986398
1.00081 1.00067 0.997068
1.00254 1.00037 0.989976
1.00058 1.00101 0.997025
1.00523 0.995698 0.990415
1.00521 0.994954 0.991123
1.00519 0.994936 0.991084
1.00532 0.997539 0.988603
1.00523 0.995654 0.990482
1.00517 0.994966 0.991221
1.00523 0.995646 0.990494
1.00533 0.997567 0.988534
1.00481 0.999263 0.987394
1.00533 0.998166 0.987877
1.00488 0.999532 0.987027
1.00255 1.00003 0.990396
1.00493 0.999812 0.986694
1.00257 1.00016 0.99021
1.001 1.00002 0.997036
1.00263 1.00019 0.990069
1.00103 1.00002 0.99703
1.00106 0.999918 0.994022
1.00527 0.995875 0.990104
1.00527 0.994941 0.99097
1.00528 0.998077 0.98794
1.00527 0.995874 0.990149
1.00523 0.994936 0.991022
1.00494 0.999752 0.98672
1.0053 0.998295 0.987664
1.00527 0.996129 0.989799
1.00272 0.999854 0.990213
1.00499 0.999681 0.986634
1.00531 0.998702 0.987251
1.0011 0.999993 0.997099
1.00276 0.99977 0.990237
1.00502 0.999595 0.986569
1.00097 1.00028 0.997127
1.00272 0.99987 0.990194
1.00082 1.00067 0.997035
1.00529 0.997609 0.988544
1.00523 0.995709 0.990411
1.00521 0.994954 0.991112
1.00479 0.999201 0.987492
1.00532 0.997519 0.988608
1.00523 0.995647 0.990478
1.00533 0.997546 0.98854
1.00483 0.999253 0.987365
1.00245 0.999986 0.990602
1.00489 0.999653 0.9869
1.00252 1.00004 0.990404
1.00096 1.00002 0.997065
1.00257 1.00017 0.990219
1.00098 1.00004 0.99705
1.00102 1.00003 0.99703
1.00527 0.99789 0.988173
1.00527 0.995707 0.990315
1.00528 0.994932 0.990928
1.00488 0.999671 0.986935
1.00529 0.998085 0.98793
1.00527 0.995876 0.99016
1.00265 0.999975 0.990254
1.00492 0.999773 0.986716
1.0053 0.998303 0.987659
1.0011 0.999934 0.997049
1.00273 0.999869 0.990209
1.00496 0.999813 0.986542
1.00108 1.00004 0.997116
1.00277 0.999782 0.990236
1.00099 1.00029 0.997107
1.0048 0.99949 0.98724
1.0053 0.997455 0.988665
1.00523 0.995717 0.990407
1.00242 0.999913 0.990758
1.0048 0.999184 0.987482
1.00532 0.997494 0.988613
1.00485 0.999239 0.987337
1.00246 0.999961 0.990609
1.00091 1.00002 0.997091
1.0025 1.00005 0.990412
1.00094 1.00003 0.99707
1.00094 1.00006 0.997062
1.00482 0.999567 0.987133
1.00528 0.997696 0.988384
1.00525 0.995554 0.990526
1.00267 1.00001 0.991734
1.00485 0.99968 0.986936
1.00529 0.998093 0.98792
1.00104 0.99996 0.997036
1.00265 0.999993 0.990252
1.00489 0.999795 0.986712
1.00111 0.99996 0.997069
1.00274 0.999891 0.990205
1.00107 1.00006 0.997128
1.00251 0.999911 0.99066
1.00479 0.999352 0.987351
1.0053 0.997303 0.988785
1.00084 0.999986 0.997143
1.0024 0.999911 0.990753
1.00481 0.999172 0.987474
1.00246 0.999938 0.990612
1.00088 1.00001 0.997108
1.00091 1.00004 0.99708
1.00266 0.999963 0.991849
1.00481 0.999571 0.987133
1.00528 0.997496 0.988595
1.00052 1 0.997546
1.00256 1.00001 0.990408
1.00483 0.999686 0.986938
1.00106 0.999969 0.997046
1.00265 1.00001 0.990248
1.00111 0.999979 0.997086
1.00083 0.999956 0.994388
1.00253 0.999914 0.991339
1.00479 0.999213 0.98746
1.00087 0.999988 0.997149
1.00241 0.999912 0.990756
1.0009 0.999999 0.997121
1.00038 0.999991 0.994825
1.00256 0.99995 0.991229
1.00479 0.99958 0.987132
1.00072 0.999991 0.995885
1.00255 1.00001 0.990425
1.00108 0.999976 0.997058
1.00086 0.999975 0.997142
1.00241 0.999906 0.990759
1.00083 0.99999 0.997146
1.00063 0.999971 0.995989
1.00247 0.999943 0.990643
1.00099 0.999985 0.997066
1.00087 0.999975 0.997152
1.00089 0.999979 0.997116

TENSORS stress float
0.00205377 -0.000136891 0.00023618
-0.000136891 0.000937904 -3.81456e-05
0.00023618 -3.81456e-05 0.000912964
0.00638902 1.34993e-05 0.000259934
1.34993e-05 0.00363451 2.83615e-05
0.000259934 2.83615e-05 0.00363433
0.00175383 -6.86677e-05 0.000101199
-6.86677e-05 0.000752006 -1.523e-05
0.000101199 -1.523e-05 0.000716631
0.00210483 -7.85458e-05 0.00023033
-7.85458e-05 0.000945137 -2.23108e-05
0.00023033 -2.23108e-05 0.000928539
0.0021067 -0.000121062 0.000231193
-0.000121062 0.00096076 -3.36254e-05
0.000231193 -3.36254e-05 0.000939033
0.00199861 -0.000137652 0.000243188
-0.000137652 0.000905172 -3.93336e-05
0.000243188 -3.93336e-05 0.000880789
0.00174755 -0.000122794 4.44608e-05
-0.000122794 0.000662119 -1.23903e-05
4.44608e-05 -1.23903e-05 0.000558225
0.0063173 3.99079e-06 -7.02939e-06
3.99079e-06 0.00358077 -9.19214e-07
-7.02939e-06 -9.19214e-07 0.00358527
0.0062251 0.000178731 0.000130526
0.000178731 0.00351169 1.1541e-05
0.000130526 1.1541e-05 0.00348926
0.00611473 -7.49127e-05 6.45464e-05
-7.49127e-05 0.00344312 3.08868e-06
6.45464e-05 3.08868e-06 0.00342175
0.00179868 0.00017549 0.000245264
0.00017549 0.000775003 2.87473e-05
0.000245264 2.87473e-05 0.000770204
0.000531081 0.0002416 2.63097e-05
0.0002416 -6.04814e-05 1.85308e-05
2.63097e-05 1.85308e-05 -0.000182598
0.00174816 -3.44759e-05 0.000230957
-3.44759e-05 0.000720593 3.66769e-06
0.000230957 3.66769e-06 0.000719528
0.00142034 -8.26799e-07 5.63421e-05
-8.26799e-07 0.00054055 1.57767e-06
5.63421e-05 1.57767e-06 0.000497047
0.00150385 -6.7678e-05 -5.02093e-05
-6.7678e-05 0.000604433 8.7885e-06
-5.02093e-05 8.7885e-06 0.000555821
0.00175826 -7.94245e-05 7.63627e-05
-7.94245e-05 0.000747079 -4.55788e-06
7.63627e-05 -4.55788e-06 0.000714919
0.00175989 -5.49897e-05 0.000109653
-5.49897e-05 0.000763034 -1.60198e-05
0.000109653 -1.60198e-05 0.000723935
0.00176483 -7.86301e-05 9.0132e-05
-7.86301e-05 0.000751045 -1.19472e-05
9.0132e-05 -1.19472e-05 0.000719079
0.00179955 -0.000159262 -3.81734e-05
-0.000159262 0.000690901 5.15995e-06
-3.81734e-05 5.15995e-06 0.000596019
0.00595936 -0.000134326 0.000294985
-0.000134326 0.00335775 -1.16343e-05
0.000294985 -1.16343e-05 0.00337198
0.00204563 -5.70413e-05 0.000229416
-5.70413e-05 0.000907679 -1.66407e-05
0.000229416 -1.66407e-05 0.000893291
0.00213284 -0.000101142 0.000230548
-0.000101142 0.000967583 -2.81877e-05
0.000230548 -2.81877e-05 0.000948924
0.00170973 -0.00012902 6.53044e-05
-0.00012902 0.000626113 -9.86024e-06
6.53044e-05 -9.86024e-06 0.000534499
0.0017425 -0.000130967 5.39798e-05
-0.000130967 0.000647482 -1.18064e-05
5.39798e-05 -1.18064e-05 0.000551126
0.00192753 -0.000113688 0.000240867
-0.000113688 0.000853692 -3.59139e-05
0.000240867 -3.59139e-05 0.000833073
0.00173048 -0.000116181 3.6573e-05
-0.000116181 0.000670596 -1.31916e-05
3.6573e-05 -1.31916e-05 0.000556175
0.00206994 -0.00029178 1.63031e-05
-0.00029178 0.000668345 -6.99e-06
1.63031e-05 -6.99e-06 0.000478097
0.00630539 -1.04121e-05 -0.000258031
-1.04121e-05 0.00356401 -1.90498e-05
-0.000258031 -1.90498e-05 0.00357329
0.00402812 0.000135795 -0.000135412
0.000135795 0.00215173 -1.44656e-05
-0.000135412 -1.44656e-05 0.00213056
0.00391641 4.12655e-05 -0.000131413
4.12655e-05 0.00209595 -1.12917e-05
-0.000131413 -1.12917e-05 0.00207472
0.00623304 -6.54222e-05 -4.00602e-06
-6.54222e-05 0.0035409 -1.11858e-07
-4.00602e-06 -1.11858e-07 0.00354022
0.000488855 0.00022247 -1.5272e-06
0.00022247 -8.39391e-05 -1.00068e-06
-1.5272e-06 -1.00068e-06 -0.000205699
0.00178363 6.47473e-05 0.000236434
6.47473e-05 0.000746416 2.08186e-05
0.000236434 2.08186e-05 0.000732982
0.00191709 0.000151316 0.000241599
0.000151316 0.00086048 3.22252e-05
0.000241599 3.22252e-05 0.000836615
0.00277127 0.0002007 0.000145634
0.0002007 0.00127538 2.02067e-05
0.000145634 2.02067e-05 0.00119775
0.00549047 -0.000333882 -3.87994e-06
-0.000333882 0.00315468 6.55229e-06
-3.87994e-06 6.55229e-06 0.00308986
0.00289119 0.000270452 0.000148542
0.000270452 0.00138857 2.48378e-05
0.000148542 2.48378e-05 0.00129786
0.000471539 0.000203368 2.71532e-05
0.000203368 -9.40189e-05 2.38068e-05
2.71532e-05 2.38068e-05 -0.000213149
0.000863897 0.000224233 1.21989e-05
0.000224233 2.44556e-05 6.03048e-06
1.21989e-05 6.03048e-06 -0.000174854
0.00424741 -0.000106043 0.000158718
-0.000106043 0.00234554 1.19154e-05
0.000158718 1.19154e-05 0.00234625
0.00595923 7.89531e-05 3.51456e-06
7.89531e-05 0.00334518 -1.72719e-06
3.51456e-06 -1.72719e-06 0.00336609
0.00384804 8.36119e-05 -0.000112986
8.36119e-05 0.00203719 -4.81452e-06
-0.000112986 -4.81452e-06 0.00202522
0.00582105 5.85185e-05 0.000287818
5.85185e-05 0.0032627 3.96784e-06
0.000287818 3.96784e-06 0.00328408
0.00138678 8.53669e-05 5.91415e-05
8.53669e-05 0.000520951 3.82055e-06
5.91415e-05 3.82055e-06 0.000482243
0.00056155 1.08812e-05 1.56122e-05
1.08812e-05 -0.000114132 1.88321e-06
1.56122e-05 1.88321e-06 -0.000196263
0.00605123 0.000222089 0.000161928
0.000222089 0.00342931 1.52393e-05
0.000161928 1.52393e-05 0.00340462
0.00279045 7.21263e-05 0.000137872
7.21263e-05 0.00125638 8.68566e-06
0.000137872 8.68566e-06 0.00119973
0.00136317 -8.19309e-05 -7.0248e-05
-8.19309e-05 0.00051993 8.74003e-06
-7.0248e-05 8.74003e-06 0.000471442
0.00140965 -9.94037e-05 -6.28435e-05
-9.94037e-05 0.00055124 1.04881e-05
-6.28435e-05 1.04881e-05 0.000500478
0.00157596 -2.32926e-05 -3.83615e-05
-2.32926e-05 0.000650143 7.91611e-06
-3.83615e-05 7.91611e-06 0.000600484
0.00183279 -0.00016285 -0.000127435
-0.00016285 0.000704118 2.26093e-05
-0.000127435 2.26093e-05 0.000619331
0.00373285 -1.18607e-05 -0.00011569
-1.18607e-05 0.00197543 -1.84432e-06
-0.00011569 -1.84432e-06 0.00196252
0.00173129 -6.16806e-05 8.19497e-05
-6.16806e-05 0.000726312 -3.73666e-06
8.19497e-05 -3.73666e-06 0.000697702
0.00170691 -3.20731e-05 0.000113209
-3.20731e-05 0.00073345 -1.42995e-05
0.000113209 -1.42995e-05 0.000693454
0.00176916 -8.02578e-05 8.18159e-05
-8.02578e-05 0.000751562 -7.8904e-06
8.18159e-05 -7.8904e-06 0.000720229
0.0017786 -0.000107578 -3.05777e-05
-0.000107578 0.000658766 1.93742e-06
-3.05777e-05 1.93742e-06 0.000577526
0.00178247 -0.000158911 -4.40896e-05
-0.000158911 0.000693117 5.75865e-06
-4.40896e-05 5.75865e-06 0.000591471
0.00179731 -0.000149227 -3.27937e-05
-0.000149227 0.000680494 3.65388e-06
-3.27937e-05 3.65388e-06 0.00059124
0.00204787 -0.00029084 -9.02002e-06
-0.00029084 0.000650504 2.41497e-06
-9.02002e-06 2.41497e-06 0.000460521
0.00579584 1.50039e-05 0.000282643
1.50039e-05 0.00324585 -1.47646e-06
0.000282643 -1.47646e-06 0.00326828
0.00199878 -3.42034e-05 0.00022715
-3.42034e-05 0.000881207 -1.13971e-05
0.00022715 -1.13971e-05 0.000869939
0.00244025 -2.0579e-06 4.81334e-05
-2.0579e-06 0.00106457 -8.40844e-07
4.81334e-05 -8.40844e-07 0.000998435
0.00168672 -0.000105033 5.81668e-05
-0.000105033 0.000605349 -6.61998e-06
5.81668e-05 -6.61998e-06 0.000520793
0.00172775 -0.000131973 6.13275e-05
-0.000131973 0.000635732 -1.12016e-05
6.13275e-05 -1.12016e-05 0.000542235
0.00189016 -0.000186387 1.13437e-05
-0.000186387 0.000488599 -2.7838e-06
1.13437e-05 -2.7838e-06 0.000334715
0.00183607 -0.000251323 1.64635e-05
-0.000251323 0.000486224 -5.4357e-06
1.64635e-05 -5.4357e-06 0.000310387
0.00178073 -7.10363e-05 0.000220202
-7.10363e-05 0.000762436 -2.81375e-05
0.000220202 -2.81375e-05 0.000746453
0.00162204 -7.97401e-05 2.72379e-05
-7.97401e-05 0.000623778 -1.28763e-05
2.72379e-05 -1.28763e-05 0.000508286
0.00207186 -0.000313943 1.62278e-05
-0.000313943 0.000712436 -8.0367e-06
1.62278e-05 -8.0367e-06 0.000509772
0.00154578 -0.000361334 6.02501e-06
-0.000361334 0.000149238 -9.79005e-07
6.02501e-06 -9.79005e-07 -8.68141e-05
0.00654929 0.000236224 -0.000314091
0.000236224 0.0037131 -3.29355e-05
-0.000314091 -3.29355e-05 0.00371755
0.00609802 -9.06154e-05 -0.000228688
-9.06154e-05 0.00345898 -1.51752e-05
-0.000228688 -1.51752e-05 0.00345952
0.00634751 6.63947e-05 -0.00027372
6.63947e-05 0.00358113 -2.32806e-05
-0.00027372 -2.32806e-05 0.00359382
0.000452016 0.000215912 -2.50202e-05
0.000215912 -0.000102002 -1.8955e-05
-2.50202e-05 -1.8955e-05 -0.000225972
0.00650081 0.000222061 -2.51569e-06
0.000222061 0.00367965 -2.25673e-06
-2.51569e-06 -2.25673e-06 0.00368736
0.0065529 0.000180281 -8.96277e-06
0.000180281 0.00370988 -2.52566e-06
-8.96277e-06 -2.52566e-06 0.003717
0.000403313 0.000128837 1.7616e-07
0.000128837 -0.00019064 -2.9844e-07
1.7616e-07 -2.9844e-07 -0.000297043
0.00342715 -0.000112664 -0.000104123
-0.000112664 0.00183626 -3.53635e-06
-0.000104123 -3.53635e-06 0.00180259
0.00041107 0.000202547 5.10564e-08
0.000202547 -0.000140166 -4.60088e-07
5.10564e-08 -4.60088e-07 -0.00026171
0.00170682 0.000208212 5.20154e-05
0.000208212 0.000672865 2.79242e-06
5.20154e-05 2.79242e-06 0.000573551
0.000843951 0.000220359 2.33912e-07
0.000220359 1.3287e-05 1.18378e-08
2.33912e-07 1.18378e-08 -0.00018426
0.00519132 -0.000125973 0.000192004
-0.000125973 0.00293523 1.77071e-05
0.000192004 1.77071e-05 0.00292705
0.000507887 3.14281e-05 1.15023e-05
3.14281e-05 -8.43199e-06 1.25202e-05
1.15023e-05 1.25202e-05 -7.27116e-05
0.000498678 9.85003e-05 1.5683e-05
9.85003e-05 -0.000151908 9.66307e-06
1.5683e-05 9.66307e-06 -0.000252473
0.000538899 0.000157018 2.05097e-05
0.000157018 -9.29435e-05 1.70813e-05
2.05097e-05 1.70813e-05 -0.00020629
0.0010883 0.000214028 1.48645e-05
0.000214028 1.44671e-06 5.29844e-06
1.48645e-05 5.29844e-06 -0.000180898
0.00290003 0.000168655 0.00012951
0.000168655 0.00142891 1.74161e-05
0.00012951 1.74161e-05 0.00135632
0.000921176 0.000232146 1.3992e-05
0.000232146 -2.0259e-06 6.56041e-06
1.3992e-05 6.56041e-06 -0.00019773
0.000936904 0.000233341 1.19348e-05
0.000233341 0.000139076 5.87835e-06
1.19348e-05 5.87835e-06 -6.66159e-05
0.00109454 0.000333245 1.65355e-06
0.000333245 7.94712e-05 -4.02677e-07
1.65355e-06 -4.02677e-07 -0.000180496
0.00328247 -0.000120105 9.69948e-05
-0.000120105 0.00173927 5.08498e-06
9.69948e-05 5.08498e-06 0.00173899
0.00385309 -0.000155261 1.84345e-05
-0.000155261 0.002109 -3.23484e-07
1.84345e-05 -3.23484e-07 0.00209812
0.00632988 5.21572e-05 -0.000300954
5.21572e-05 0.00356121 -1.43646e-05
-0.000300954 -1.43646e-05 0.00358074
0.00605168 6.97929e-05 -0.000297263
6.97929e-05 0.00339843 -8.8505e-06
-0.000297263 -8.8505e-06 0.00342045
0.00591035 8.4003e-05 5.06868e-09
8.4003e-05 0.00332311 -3.55157e-06
5.06868e-09 -3.55157e-06 0.003341
0.00374692 2.78892e-05 -0.000125008
2.78892e-05 0.0019738 -6.20777e-06
-0.000125008 -6.20777e-06 0.00196663
0.00162119 3.74779e-05 5.94672e-05
3.74779e-05 0.000541642 1.51888e-06
5.94672e-05 1.51888e-06 0.00047537
0.00399757 0.000139668 -0.000115514
0.000139668 0.00213426 -6.57149e-06
-0.000115514 -6.57149e-06 0.00211514
0.0016714 8.94668e-05 6.02227e-05
8.94668e-05 0.000569064 2.85133e-06
6.02227e-05 2.85133e-06 0.000493688
0.00586995 0.000126856 0.000290698
0.000126856 0.00330754 7.11047e-06
0.000290698 7.11047e-06 0.00332009
0.000472786 1.06494e-05 1.87359e-05
1.06494e-05 -0.000163827 9.09857e-07
1.87359e-05 9.09857e-07 -0.000243192
0.00278938 3.6527e-05 0.000136524
3.6527e-05 0.0012571 5.89315e-06
0.000136524 5.89315e-06 0.0012055
0.00109449 5.57081e-05 1.22508e-05
5.57081e-05 -2.27832e-05 9.68686e-07
1.22508e-05 9.68686e-07 -0.000153985
0.00272156 0.000115751 0.000142447
0.000115751 0.00121913 1.13415e-05
0.000142447 1.13415e-05 0.00115653
0.00114881 0.000126493 1.21966e-05
0.000126493 -1.38313e-06 2.10538e-06
1.21966e-05 2.10538e-06 -0.000150422
0.00177913 4.28511e-05 -0.000230179
4.28511e-05 0.000739295 2.56118e-06
-0.000230179 2.56118e-06 0.000739619
0.00137941 -1.23601e-05 -5.70647e-05
-1.23601e-05 0.000521655 2.43884e-06
-5.70647e-05 2.43884e-06 0.00047828
0.00155392 1.31428e-05 -3.00403e-05
1.31428e-05 0.000641858 7.76535e-06
-3.00403e-05 7.76535e-06 0.00059053
0.00136667 -9.60955e-05 -7.12653e-05
-9.60955e-05 0.000524465 1.05669e-05
-7.12653e-05 1.05669e-05 0.000474728
0.00189937 -8.6945e-05 -0.000122453
-8.6945e-05 0.000723587 1.11461e-05
-0.000122453 1.11461e-05 0.000652793
0.0018807 -0.000137479 -0.000124535
-0.000137479 0.000722246 1.90267e-05
-0.000124535 1.90267e-05 0.000643944
0.00179007 -0.000175479 -0.000130305
-0.000175479 0.000689575 2.42882e-05
-0.000130305 2.42882e-05 0.000598675
0.00201563 -0.000288825 -3.15129e-05
-0.000288825 0.000626742 1.07595e-05
-3.15129e-05 1.07595e-05 0.000437406
0.00590205 -0.000100035 2.28171e-06
-0.000100035 0.00332175 -1.79959e-06
2.28171e-06 -1.79959e-06 0.00333735
0.00165478 3.40135e-05 8.95914e-05
3.40135e-05 0.000673308 -4.19558e-06
8.95914e-05 -4.19558e-06 0.000651712
0.00114893 -8.21198e-06 -6.24864e-05
-8.21198e-06 0.000256721 1.72401e-06
-6.24864e-05 1.72401e-06 0.000189062
0.00175657 -6.93212e-05 -3.38689e-05
-6.93212e-05 0.00064172 2.54627e-06
-3.38689e-05 2.54627e-06 0.000565661
0.00406408 -1.04302e-05 0.000225559
-1.04302e-05 0.00219725 -1.20939e-05
0.000225559 -1.20939e-05 0.00218773
0.0023042 -0.00015945 -3.93636e-05
-0.00015945 0.00102956 2.78443e-06
-3.93636e-05 2.78443e-06 0.00092642
0.00179475 -0.000130334 -3.02165e-05
-0.000130334 0.000672375 2.53267e-06
-3.02165e-05 2.53267e-06 0.000587482
0.00190838 -0.000184637 -9.80979e-06
-0.000184637 0.000495886 1.75829e-06
-9.80979e-06 1.75829e-06 0.000343962
0.00203022 -0.000314334 -7.74846e-06
-0.000314334 0.000681869 2.29965e-06
-7.74846e-06 2.29965e-06 0.000478457
0.001938 -0.000255857 -7.14262e-06
-0.000255857 0.00055035 1.88257e-06
-7.14262e-06 1.88257e-06 0.000373823
0.00157974 -0.000363054 5.91113e-07
-0.000363054 0.000171317 -1.89621e-07
5.91113e-07 -1.89621e-07 -6.42416e-05
0.000507418 1.08292e-05 1.94208e-05
1.08292e-05 -0.000145539 -7.80659e-07
1.94208e-05 -7.80659e-07 -0.00022163
0.00161449 1.97972e-06 4.91318e-05
1.97972e-06 0.000551337 -2.59176e-06
4.91318e-05 -2.59176e-06 0.00047721
0.00175337 -5.72228e-05 1.13293e-05
-5.72228e-05 0.0003928 -6.04065e-07
1.13293e-05 -6.04065e-07 0.000273677
0.00177019 -0.000144801 1.13593e-05
-0.000144801 0.000404125 -1.771e-06
1.13593e-05 -1.771e-06 0.00026348
0.0018156 -0.000217499 1.41751e-05
-0.000217499 0.000447818 -3.79282e-06
1.41751e-05 -3.79282e-06 0.000284992
0.00185212 -0.000256419 3.078e-07
-0.000256419 0.000220753 -5.77815e-08
3.078e-07 -5.77815e-08 5.21687e-05
0.00573096 0.00014054 0.000188487
0.00014054 0.00326028 -1.4102e-05
0.000188487 -1.4102e-05 0.00324765
0.00156532 -0.000332419 4.82007e-06
-0.000332419 0.000115361 -7.4159e-07
4.82007e-06 -7.4159e-07 -9.85514e-05
0.000319084 -0.000163058 2.07937e-05
-0.000163058 -0.000190729 -1.92128e-05
2.07937e-05 -1.92128e-05 -0.000295134
0.000883473 -0.000236194 1.28019e-05
-0.000236194 3.31684e-05 -8.53506e-06
1.28019e-05 -8.53506e-06 -0.000170089
0.00159096 -0.000399592 7.17159e-06
-0.000399592 0.000237618 -1.76178e-06
7.17159e-06 -1.76178e-06 -2.5748e-05
0.00180747 -0.000436228 3.00627e-06
-0.000436228 0.000196466 1.66263e-06
3.00627e-06 1.66263e-06 -3.68777e-05
0.000483911 -0.000120567 2.0327e-05
-0.000120567 -4.93882e-05 -1.57387e-05
2.0327e-05 -1.57387e-05 -0.000137703
0.000420716 -9.53769e-05 -7.93334e-07
-9.53769e-05 -2.69047e-05 -2.62887e-06
-7.93334e-07 -2.62887e-06 -0.000246372
0.00655283 0.000243917 -0.000324902
0.000243917 0.00371739 -3.19588e-05
-0.000324902 -3.19588e-05 0.00372197
0.00647352 0.00016462 -0.000295895
0.00016462 0.00365912 -2.91087e-05
-0.000295895 -2.91087e-05 0.00366972
0.000406106 0.000125762 -1.855e-05
0.000125762 -0.000190685 -1.19147e-05
-1.855e-05 -1.19147e-05 -0.000297284
0.00548148 -0.000162137 -0.000177403
-0.000162137 0.00311198 -1.2494e-05
-0.000177403 -1.2494e-05 0.00309843
0.000437441 0.000182721 -2.36344e-05
0.000182721 -0.000114038 -1.78961e-05
-2.36344e-05 -1.78961e-05 -0.000219084
0.000394249 0.000188383 -2.09187e-05
0.000188383 -0.000148362 -1.75049e-05
-2.09187e-05 -1.75049e-05 -0.000271083
0.000812008 0.000214779 -1.3299e-05
0.000214779 -4.06928e-06 -6.50599e-06
-1.3299e-05 -6.50599e-06 -0.000199528
0.00485077 -0.000138054 7.68465e-06
-0.000138054 0.00272511 -2.0315e-07
7.68465e-06 -2.0315e-07 0.0027169
0.000514702 1.83126e-05 1.32205e-06
1.83126e-05 5.89145e-07 4.93253e-07
1.32205e-06 4.93253e-07 -6.04711e-05
0.00167341 0.000137257 6.19848e-05
0.000137257 0.000578073 5.094e-06
6.19848e-05 5.094e-06 0.000491278
0.00164153 0.000196096 6.15536e-05
0.000196096 0.000594506 5.46352e-06
6.15536e-05 5.46352e-06 0.000494004
0.00105234 0.000212348 6.37917e-08
0.000212348 -1.45116e-05 -2.78956e-07
6.37917e-08 -2.78956e-07 -0.000197399
0.000479666 0.00015178 -9.76873e-08
0.00015178 -6.98648e-05 -2.73856e-07
-9.76873e-08 -2.73856e-07 -0.000161682
0.000920053 0.000228938 7.61664e-07
0.000228938 4.60769e-06 6.3613e-08
7.61664e-07 6.3613e-08 -0.000190081
0.000792432 0.000215769 2.09587e-07
0.000215769 4.72205e-05 -8.65573e-07
2.09587e-07 -8.65573e-07 -0.000153802
0.00123428 0.000352597 3.2345e-07
0.000352597 0.000159674 -2.42295e-07
3.2345e-07 -2.42295e-07 -0.000103575
0.000439093 0.000102622 1.76769e-05
0.000102622 -6.15851e-05 1.49609e-05
1.76769e-05 1.49609e-05 -0.000144837
0.000607357 -1.63021e-05 5.11297e-06
-1.63021e-05 5.70047e-05 1.04129e-05
5.11297e-06 1.04129e-05 1.03361e-05
0.00126085 0.000146308 4.16452e-06
0.000146308 0.000484816 6.18944e-06
4.16452e-06 6.18944e-06 0.000298981
0.00113645 0.000189989 1.39436e-05
0.000189989 3.53622e-06 4.07519e-06
1.39436e-05 4.07519e-06 -0.000168613
0.0010232 0.00023079 1.49287e-05
0.00023079 3.70779e-06 6.21469e-06
1.49287e-05 6.21469e-06 -0.00018713
0.00172309 0.000356736 4.32302e-06
0.000356736 0.000191034 3.03784e-07
4.32302e-06 3.03784e-07 -2.84538e-05
0.000770352 0.000219488 9.25067e-06
0.000219488 0.000101687 6.52574e-06
9.25067e-06 6.52574e-06 -0.000101014
0.00153927 0.000395797 3.65864e-06
0.000395797 0.000245357 -3.94844e-08
3.65864e-06 -3.94844e-08 -1.26482e-05
0.001076 0.000318174 2.86608e-06
0.000318174 0.000132642 6.23637e-07
2.86608e-06 6.23637e-07 -0.000132638
0.00145489 0.00044266 -5.84043e-06
0.00044266 0.000208458 -3.24914e-06
-5.84043e-06 -3.24914e-06 -8.02642e-05
0.00288585 -0.00012807 5.62865e-05
-0.00012807 0.0014876 3.42418e-06
5.62865e-05 3.42418e-06 0.0014854
0.00320328 -0.000151674 1.25076e-05
-0.000151674 0.00169559 -8.45648e-07
1.25076e-05 -8.45648e-07 0.00168669
0.00358135 -0.000182134 -7.22923e-05
-0.000182134 0.0019449 -4.43044e-06
-7.22923e-05 -4.43044e-06 0.00192653
0.00043916 -9.20484e-05 1.65407e-05
-9.20484e-05 -5.91596e-05 -1.39004e-05
1.65407e-05 -1.39004e-05 -0.000132303
0.00510941 0.000181842 0.000148565
0.000181842 0.00290654 -1.51532e-05
0.000148565 -1.51532e-05 0.00288146
0.00649302 0.000208825 -0.000324921
0.000208825 0.00367588 -2.68002e-05
-0.000324921 -2.68002e-05 0.00368576
0.00613144 8.82922e-05 -0.00029803
8.82922e-05 0.00344459 -1.23784e-05
-0.00029803 -1.23784e-05 0.00346518
0.000479537 9.6641e-05 -1.96648e-05
9.6641e-05 -0.000165774 -5.4786e-06
-1.96648e-05 -5.4786e-06 -0.000256202
0.000469781 4.31566e-05 -1.92783e-05
4.31566e-05 -0.000166026 -2.7328e-06
-1.92783e-05 -2.7328e-06 -0.000248949
0.00585444 -7.77301e-06 -0.000284781
-7.77301e-06 0.00327946 -2.31491e-06
-0.000284781 -2.31491e-06 0.00330238
0.00580702 9.24893e-06 -2.02967e-07
9.24893e-06 0.00325159 -8.85515e-07
-2.02967e-07 -8.85515e-07 0.0032745
0.000454397 7.97411e-07 -1.15284e-07
7.97411e-07 -0.000177888 1.07014e-07
-1.15284e-07 1.07014e-07 -0.000255416
0.00161067 3.82015e-05 6.00161e-05
3.82015e-05 0.000530376 2.54268e-06
6.00161e-05 2.54268e-06 0.000462277
0.001053 5.90147e-05 -9.46671e-08
5.90147e-05 -5.00189e-05 -1.19584e-07
-9.46671e-08 -1.19584e-07 -0.000181957
0.000442435 8.2197e-05 -4.18578e-07
8.2197e-05 -0.000187127 -3.82747e-07
-4.18578e-07 -3.82747e-07 -0.000283344
0.00108407 0.000127211 -2.24455e-07
0.000127211 -4.14095e-05 -1.33557e-07
-2.24455e-07 -1.33557e-07 -0.000191515
0.000447179 -3.10682e-05 1.92987e-05
-3.10682e-05 -0.000183848 -7.18543e-07
1.92987e-05 -7.18543e-07 -0.00025892
0.0010544 2.36887e-05 1.19445e-05
2.36887e-05 -3.93093e-05 5.09028e-07
1.19445e-05 5.09028e-07 -0.000166459
0.00110019 9.07566e-05 1.19888e-05
9.07566e-05 -2.57087e-05 1.60811e-06
1.19888e-05 1.60811e-06 -0.00016457
0.00173144 9.52346e-05 -8.60892e-07
9.52346e-05 8.3561e-05 -3.06522e-07
-8.60892e-07 -3.06522e-07 -3.1143e-05
0.00115694 0.000159397 1.29183e-05
0.000159397 4.18266e-06 2.9074e-06
1.29183e-05 2.9074e-06 -0.000156316
0.00178127 0.000209475 6.32055e-07
0.000209475 0.00011139 -6.64544e-07
6.32055e-07 -6.64544e-07 -3.3277e-05
0.00582456 -6.10163e-05 -0.000289825
-6.10163e-05 0.00326814 2.32559e-06
-0.000289825 2.32559e-06 0.00328777
0.00132981 -0.000152067 -5.86353e-05
-0.000152067 0.00050357 6.80117e-06
-5.86353e-05 6.80117e-06 0.000456822
-0.000259446 -5.09691e-06 -1.23524e-05
-5.09691e-06 -0.000609432 1.80824e-06
-1.23524e-05 1.80824e-06 -0.000701088
0.0018658 -6.16456e-05 -0.00012136
-6.16456e-05 0.000702675 7.90618e-06
-0.00012136 7.90618e-06 0.000635233
0.0060922 0.00029994 -1.46999e-05
0.00029994 0.00349754 4.72981e-06
-1.46999e-05 4.72981e-06 0.00343996
0.00295466 -0.000245411 -0.000133215
-0.000245411 0.00142518 2.52182e-05
-0.000133215 2.52182e-05 0.00132747
0.00190405 -0.000112048 -0.000123364
-0.000112048 0.000729114 1.49977e-05
-0.000123364 1.49977e-05 0.00065529
0.00190146 -0.000181496 -2.96272e-05
-0.000181496 0.000487471 5.39055e-06
-2.96272e-05 5.39055e-06 0.00033778
0.00201609 -0.000258665 -3.04257e-05
-0.000258665 0.000599181 9.15976e-06
-3.04257e-05 9.15976e-06 0.000422414
0.00200943 -0.00031582 -2.92215e-05
-0.00031582 0.000665062 1.15865e-05
-2.92215e-05 1.15865e-05 0.000460744
0.00161525 -0.000364877 -4.54476e-06
-0.000364877 0.000194527 6.58637e-07
-4.54476e-06 6.58637e-07 -4.0563e-05
0.000449858 5.36679e-06 -1.85199e-08
5.36679e-06 -0.000179059 2.34959e-07
-1.85199e-08 2.34959e-07 -0.000256144
0.00174643 -8.13866e-05 -3.2914e-05
-8.13866e-05 0.000637454 3.78945e-07
-3.2914e-05 3.78945e-07 0.000565173
0.00138262 -5.27571e-05 -9.65384e-06
-5.27571e-05 0.00016474 5.43586e-07
-9.65384e-06 5.43586e-07 4.12384e-05
0.00186648 -0.000145539 -7.97109e-06
-0.000145539 0.000463651 1.2665e-06
-7.97109e-06 1.2665e-06 0.000322526
0.00599115 0.000139553 5.53142e-06
0.000139553 0.00342434 9.0938e-07
5.53142e-06 9.0938e-07 0.00340953
0.00166294 -0.000159432 2.55146e-06
-0.000159432 0.00065339 5.67928e-07
2.55146e-06 5.67928e-07 0.000538764
0.00134741 -0.000269444 1.26786e-06
-0.000269444 0.00032239 -1.0882e-06
1.26786e-06 -1.0882e-06 0.000116274
0.00185584 -0.000219576 -8.05939e-06
-0.000219576 0.00047236 1.98362e-06
-8.05939e-06 1.98362e-06 0.000309068
0.00183012 -0.000258478 -1.13395e-06
-0.000258478 0.000202556 8.46474e-08
-1.13395e-06 8.46474e-08 3.7941e-05
0.00158271 -0.000397946 1.02707e-06
-0.000397946 0.000236832 -2.79261e-07
1.02707e-06 -2.79261e-07 -2.51716e-05
0.00170882 -0.000338578 5.63244e-07
-0.000338578 0.000206305 -1.62254e-07
5.63244e-07 -1.62254e-07 -7.4344e-06
0.00184847 -0.000437636 7.14137e-07
-0.000437636 0.000225897 8.20755e-08
7.14137e-07 8.20755e-08 -7.1228e-06
0.000509008 -0.000125106 1.23332e-06
-0.000125106 -3.50201e-05 6.03599e-07
1.23332e-06 6.03599e-07 -0.000126702
0.000712542 -0.000128186 1.83113e-07
-0.000128186 0.000135469 -2.75373e-09
1.83113e-07 -2.75373e-09 -7.34616e-05
0.0010403 -2.61861e-05 1.2019e-05
-2.61861e-05 -4.01907e-05 -6.5704e-07
1.2019e-05 -6.5704e-07 -0.000167648
0.00183068 -9.73008e-05 1.02654e-05
-9.73008e-05 0.000441965 -1.1153e-06
1.02654e-05 -1.1153e-06 0.000314483
0.00174848 -9.49384e-05 -7.47737e-07
-9.49384e-05 0.000120376 2.71963e-07
-7.47737e-07 2.71963e-07 3.85501e-07
0.00178378 -0.000206603 1.63081e-07
-0.000206603 0.000154698 1.03811e-06
1.63081e-07 1.03811e-06 1.3322e-05
0.00176159 -0.000305952 1.50387e-06
-0.000305952 0.000197502 2.43281e-07
1.50387e-06 2.43281e-07 9.80605e-06
0.00196841 -0.000301627 1.13025e-06
-0.000301627 0.00016539 3.24987e-07
1.13025e-06 3.24987e-07 2.53683e-05
0.000446357 -0.000148356 1.99343e-05
-0.000148356 -8.92531e-05 -1.85163e-05
1.99343e-05 -1.85163e-05 -0.00019034
0.00187282 -0.000400782 1.28523e-06
-0.000400782 0.000190652 1.43253e-06
1.28523e-06 1.43253e-06 -8.09371e-06
0.000599375 -0.000211852 9.00954e-06
-0.000211852 -7.1066e-05 -7.34076e-06
9.00954e-06 -7.34076e-06 -0.000272848
0.00128704 -0.000395216 9.72637e-06
-0.000395216 0.000145833 -2.70336e-06
9.72637e-06 -2.70336e-06 -0.000137097
0.00198703 -0.000493757 2.92861e-06
-0.000493757 0.000369718 8.97164e-07
2.92861e-06 8.97164e-07 9.16382e-05
0.00215883 -0.000475311 -2.08055e-06
-0.000475311 0.00036464 3.97094e-06
-2.08055e-06 3.97094e-06 0.000157097
0.000688837 -0.000199835 1.71872e-06
-0.000199835 0.00010608 -4.81309e-06
1.71872e-06 -4.81309e-06 -0.000130076
0.000621148 -9.18574e-05 -3.52332e-07
-9.18574e-05 7.76513e-05 -4.39181e-06
-3.52332e-07 -4.39181e-06 -8.41451e-05
0.00107116 -0.000257315 -1.9166e-06
-0.000257315 0.000368979 3.31305e-07
-1.9166e-06 3.31305e-07 8.39548e-05
0.000434463 0.000104695 -1.79715e-05
0.000104695 -0.000186485 -9.10618e-06
-1.79715e-05 -9.10618e-06 -0.000288127
0.00445747 -0.000198752 -0.000114363
-0.000198752 0.0025021 -9.36696e-06
-0.000114363 -9.36696e-06 0.00247783
0.000443295 4.55193e-06 -6.32584e-06
4.55193e-06 -3.81928e-05 -1.19606e-05
-6.32584e-06 -1.19606e-05 -9.67272e-05
0.000392054 0.000156855 -1.98666e-05
0.000156855 -0.000176014 -1.49743e-05
-1.98666e-05 -1.49743e-05 -0.000290453
0.00101769 0.000210975 -1.54714e-05
0.000210975 -2.98137e-05 -5.86374e-06
-1.54714e-05 -5.86374e-06 -0.00021326
0.000500912 0.000142093 -2.25895e-05
0.000142093 -5.85e-05 -1.66398e-05
-2.25895e-05 -1.66398e-05 -0.000147826
0.000573151 0.00019692 -9.66063e-06
0.00019692 -8.81939e-05 -7.25669e-06
-9.66063e-06 -7.25669e-06 -0.000285379
0.000931173 0.000226977 -1.40984e-05
0.000226977 1.83345e-05 -6.89669e-06
-1.40984e-05 -6.89669e-06 -0.000175573
0.00134315 0.000370181 -3.76449e-06
0.000370181 0.000218397 -6.5474e-07
-3.76449e-06 -6.5474e-07 -4.80828e-05
0.000541625 9.11011e-05 1.04782e-06
9.11011e-05 -1.91309e-06 1.07184e-06
1.04782e-06 1.07184e-06 -8.04779e-05
0.000424695 -3.5962e-05 1.35974e-07
-3.5962e-05 -4.65841e-05 4.74205e-07
1.35974e-07 4.74205e-07 -9.60449e-05
0.000628062 8.83872e-05 1.79021e-06
8.83872e-05 8.17076e-05 -2.8038e-07
1.79021e-06 -2.8038e-07 -8.70744e-05
0.00109156 0.000189216 -1.37171e-07
0.000189216 -1.9591e-05 -3.02192e-07
-1.37171e-07 -3.02192e-07 -0.00019266
0.000995788 0.000227436 3.04702e-07
0.000227436 -5.49187e-06 -1.89294e-07
3.04702e-07 -1.89294e-07 -0.000196002
0.00170205 0.00035557 -8.70249e-08
0.00035557 0.000176648 -1.01913e-07
-8.70249e-08 -1.01913e-07 -4.31853e-05
0.000755 0.00021556 -7.31769e-07
0.00021556 9.00036e-05 -1.08702e-08
-7.31769e-07 -1.08702e-08 -0.000111538
0.00154713 0.000394905 -1.03336e-07
0.000394905 0.000244644 -2.26546e-07
-1.03336e-07 -2.26546e-07 -1.39988e-05
0.00107648 0.000317184 8.95089e-07
0.000317184 0.000135565 -9.4831e-07
8.95089e-07 -9.4831e-07 -0.000128521
0.00142076 0.000452497 -3.95977e-07
0.000452497 0.000172069 1.12432e-06
-3.95977e-07 1.12432e-06 -0.0001183
0.00053863 -4.00876e-05 4.02255e-07
-4.00876e-05 1.66945e-05 8.35897e-06
4.02255e-07 8.35897e-06 -2.16284e-05
0.000987854 0.000161041 5.49082e-06
0.000161041 0.000287202 5.06361e-06
5.49082e-06 5.06361e-06 8.67928e-05
0.000834663 5.34813e-05 1.85615e-06
5.34813e-05 0.000195143 5.79243e-06
1.85615e-06 5.79243e-06 7.18787e-05
0.000911432 0.000139409 1.81806e-06
0.000139409 0.000297298 -6.02276e-08
1.81806e-06 -6.02276e-08 4.49034e-05
0.00178007 0.00031782 2.25401e-06
0.00031782 0.000169371 -9.37987e-07
2.25401e-06 -9.37987e-07 -2.43003e-05
0.0016277 0.000384092 4.78449e-06
0.000384092 0.000206639 5.94476e-07
4.78449e-06 5.94476e-07 -3.63259e-05
0.00197351 0.000429328 1.10338e-06
0.000429328 0.00024101 -7.09271e-07
1.10338e-06 -7.09271e-07 2.55531e-05
0.000824884 0.00025262 4.0698e-06
0.00025262 2.9799e-05 3.08832e-06
4.0698e-06 3.08832e-06 -0.000205522
0.00207374 0.000529733 -2.18102e-06
0.000529733 0.000452922 -1.24328e-06
-2.18102e-06 -1.24328e-06 0.000172206
0.00159475 0.000454779 -3.26221e-06
0.000454779 0.000383648 -3.67038e-06
-3.26221e-06 -3.67038e-06 6.31919e-05
0.00170121 0.000502326 -2.49362e-07
0.000502326 0.00024528 -9.03338e-07
-2.49362e-07 -9.03338e-07 -4.45941e-05
0.000569663 3.3494e-05 2.53361e-06
3.3494e-05 3.72364e-05 3.36768e-06
2.53361e-06 3.36768e-06 -2.74077e-05
0.000489311 -3.07078e-05 1.07494e-06
-3.07078e-05 -3.3363e-05 6.19951e-06
1.07494e-06 6.19951e-06 -5.8601e-05
0.00264892 -0.000119366 3.59165e-05
-0.000119366 0.00133296 3.69596e-06
3.59165e-05 3.69596e-06 0.00133311
0.00279934 -0.00013834 6.65559e-06
-0.00013834 0.00143614 -6.90974e-07
6.65559e-06 -6.90974e-07 0.00143091
0.00305237 -0.000163356 -4.57777e-05
-0.000163356 0.00160448 -3.47614e-06
-4.57777e-05 -3.47614e-06 0.0015918
0.000404114 -6.37435e-05 1.11899e-05
-6.37435e-05 -6.92086e-05 -1.22228e-05
1.11899e-05 -1.22228e-05 -0.000131082
0.00449195 0.000162317 0.000125606
0.000162317 0.00251568 -1.17079e-05
0.000125606 -1.17079e-05 0.00249813
0.000494472 -9.09754e-05 -4.88289e-07
-9.09754e-05 -2.63029e-05 3.50291e-07
-4.88289e-07 3.50291e-07 -0.000104884
0.00532918 0.000145024 -2.50694e-06
0.000145024 0.0030253 -2.8217e-07
-2.50694e-06 -2.8217e-07 0.00301001
0.000475928 0.000107895 -1.93138e-05
0.000107895 -0.000164278 -7.274e-06
-1.93138e-05 -7.274e-06 -0.0002624
0.000485515 3.44151e-05 -1.83009e-05
3.44151e-05 -0.000162754 -3.54256e-06
-1.83009e-05 -3.54256e-06 -0.000247288
0.00104433 0.000127975 -1.21196e-05
0.000127975 -6.76512e-05 -2.34097e-06
-1.21196e-05 -2.34097e-06 -0.000218666
0.00101455 6.10338e-05 -1.19904e-05
6.10338e-05 -7.52335e-05 -1.11984e-06
-1.19904e-05 -1.11984e-06 -0.000207733
0.000508086 -7.74918e-06 -1.94043e-05
-7.74918e-06 -0.000148136 -8.99493e-07
-1.94043e-05 -8.99493e-07 -0.000223791
0.00589911 -9.85788e-05 -0.00029651
-9.85788e-05 0.00331908 4.96461e-06
-0.00029651 4.96461e-06 0.00333627
0.000495042 -1.93162e-06 7.72505e-08
-1.93162e-06 -0.000155212 -6.47446e-07
7.72505e-08 -6.47446e-07 -0.000230265
0.00103581 2.89061e-05 -8.67132e-08
2.89061e-05 -5.19022e-05 1.43983e-08
-8.67132e-08 1.43983e-08 -0.000179469
0.0010753 9.2531e-05 -1.86869e-07
9.2531e-05 -4.31894e-05 -6.54575e-08
-1.86869e-07 -6.54575e-08 -0.000182792
0.00171224 9.35216e-05 -4.86577e-08
9.35216e-05 7.46232e-05 9.4877e-08
-4.86577e-08 9.4877e-08 -4.01773e-05
0.00110426 0.000160336 -3.08049e-07
0.000160336 -2.68388e-05 -2.56916e-07
-3.08049e-07 -2.56916e-07 -0.000188645
0.00176574 0.000208649 -1.81667e-07
0.000208649 0.000101819 9.33172e-08
-1.81667e-07 9.33172e-08 -4.32136e-05
0.00102527 -3.05492e-06 1.19113e-05
-3.05492e-06 -5.06682e-05 -2.1193e-07
1.19113e-05 -2.1193e-07 -0.000177158
0.001693 4.46416e-05 -2.99852e-07
4.46416e-05 6.28774e-05 -7.89275e-08
-2.99852e-07 -7.89275e-08 -4.53427e-05
0.00173764 0.000149144 -8.3474e-07
0.000149144 8.64293e-05 -4.02861e-07
-8.3474e-07 -4.02861e-07 -4.00494e-05
0.00189418 0.000122187 1.94022e-06
0.000122187 4.37981e-05 1.00409e-07
1.94022e-06 1.00409e-07 -2.37118e-05
0.0018158 0.000270069 1.7436e-06
0.000270069 0.000146754 -6.63774e-07
1.7436e-06 -6.63774e-07 -2.15917e-05
0.00198904 0.000247851 2.14731e-06
0.000247851 0.000117855 -1.37311e-06
2.14731e-06 -1.37311e-06 4.84677e-06
0.000481016 -1.94599e-06 -1.85645e-05
-1.94599e-06 -0.000156918 8.777e-07
-1.85645e-05 8.777e-07 -0.000236163
0.00183999 -3.75346e-05 -0.000120015
-3.75346e-05 0.000686825 5.26844e-06
-0.000120015 5.26844e-06 0.000623736
0.000975107 -4.72796e-05 -1.68176e-05
-4.72796e-05 -8.54688e-05 1.59257e-06
-1.68176e-05 1.59257e-06 -0.000213702
0.00194112 -0.000145224 -2.72204e-05
-0.000145224 0.000509279 4.07187e-06
-2.72204e-05 4.07187e-06 0.000367826
0.00617921 0.000121648 -0.00021946
0.000121648 0.00353539 2.09662e-05
-0.00021946 2.09662e-05 0.00352224
0.00301899 -0.000229606 -0.000139776
-0.000229606 0.00148151 2.05846e-05
-0.000139776 2.05846e-05 0.00139406
0.00203347 -0.000322732 -2.46103e-05
-0.000322732 0.000744518 1.06164e-05
-2.46103e-05 1.06164e-05 0.000532001
0.00187358 -0.000219992 -2.96756e-05
-0.000219992 0.00048261 7.30979e-06
-2.96756e-05 7.30979e-06 0.000319235
0.0018035 -0.000260452 -3.35091e-06
-0.000260452 0.000180777 -2.20623e-07
-3.35091e-06 -2.20623e-07 2.01353e-05
0.00185265 -0.000344755 -4.44455e-06
-0.000344755 0.000298091 9.50909e-07
-4.44455e-06 9.50909e-07 8.45139e-05
0.0015714 -0.000396187 -6.16962e-06
-0.000396187 0.000233276 9.34966e-07
-6.16962e-06 9.34966e-07 -2.73153e-05
0.00189033 -0.000439529 -1.15297e-06
-0.000439529 0.000254581 -1.6404e-06
-1.15297e-06 -1.6404e-06 2.17591e-05
0.000454919 -0.000134469 -1.83819e-05
-0.000134469 -6.34992e-05 1.71105e-05
-1.83819e-05 1.71105e-05 -0.00016114
0.000797147 -0.000162564 -7.0335e-07
-0.000162564 0.000184294 2.4438e-06
-7.0335e-07 2.4438e-06 -2.37642e-05
0.000990322 -2.10054e-05 6.36275e-08
-2.10054e-05 -7.32196e-05 -1.85456e-08
6.36275e-08 -1.85456e-08 -0.000199013
0.001827 -9.77761e-05 -8.29409e-06
-9.77761e-05 0.000438012 9.84352e-07
-8.29409e-06 9.84352e-07 0.000310729
0.00181387 -9.18316e-05 -3.79787e-07
-9.18316e-05 0.00015939 5.65188e-08
-3.79787e-07 5.65188e-08 4.43057e-05
0.00175681 -0.000205429 -1.97075e-06
-0.000205429 0.000141727 6.68108e-07
-1.97075e-06 6.68108e-07 -4.68107e-06
0.000458472 -0.000167778 1.77192e-07
-0.000167778 -8.4037e-05 8.66477e-08
1.77192e-07 8.66477e-08 -0.000185896
0.000795933 -0.000222804 -1.93205e-07
-0.000222804 4.48686e-05 6.65291e-08
-1.93205e-07 6.65291e-08 -0.000158811
0.00127971 -0.000393533 1.68762e-06
-0.000393533 0.000144514 -5.43491e-07
1.68762e-06 -5.43491e-07 -0.000138585
0.0017939 -0.000305616 -3.1807e-06
-0.000305616 0.000218315 8.82105e-07
-3.1807e-06 8.82105e-07 2.83411e-05
0.00201794 -0.000306493 1.96026e-06
-0.000306493 0.000188256 -7.29242e-07
1.96026e-06 -7.29242e-07 5.2963e-05
0.00203615 -0.000502428 -8.46856e-07
-0.000502428 0.000397825 -3.79715e-07
-8.46856e-07 -3.79715e-07 0.000119877
0.00189527 -0.000402412 5.40073e-07
-0.000402412 0.00020461 -6.08818e-08
5.40073e-07 -6.08818e-08 5.70078e-06
0.00202805 -0.000468918 8.76294e-07
-0.000468918 0.000277721 7.36259e-07
8.76294e-07 7.36259e-07 7.03906e-05
0.00067792 -0.000191851 2.70458e-07
-0.000191851 9.89218e-05 -2.79427e-07
2.70458e-07 -2.79427e-07 -0.000132859
0.000317777 -0.000159367 -8.30987e-07
-0.000159367 -0.000116603 -5.29308e-07
-8.30987e-07 -5.29308e-07 -0.000379608
0.000689089 -0.000113299 7.57656e-07
-0.000113299 0.000123222 5.19788e-08
7.57656e-07 5.19788e-08 -4.79826e-05
0.00175184 -4.21457e-05 -8.31872e-07
-4.21457e-05 0.000118426 1.47661e-07
-8.31872e-07 1.47661e-07 5.77721e-06
0.00187075 -0.000145115 -2.47409e-06
-0.000145115 0.000201556 1.02312e-06
-2.47409e-06 1.02312e-06 7.79404e-05
0.00185727 -0.000114238 3.59366e-06
-0.000114238 2.96987e-05 -9.27881e-08
3.59366e-06 -9.27881e-08 -4.73348e-05
0.00187061 -0.000243781 -4.46539e-07
-0.000243781 6.98389e-05 1.2389e-06
-4.46539e-07 1.2389e-06 -4.04e-05
0.00179014 -0.000358468 -4.94967e-07
-0.000358468 9.07621e-05 2.23577e-06
-4.94967e-07 2.23577e-06 -7.43918e-05
0.00211061 -0.000332264 3.0985e-06
-0.000332264 0.000201606 -7.23691e-07
3.0985e-06 -7.23691e-07 9.19088e-05
0.000612638 -0.000220997 5.22974e-06
-0.000220997 -4.49858e-06 -7.04868e-06
5.22974e-06 -7.04868e-06 -0.000215219
0.00188188 -0.000431082 -1.3868e-06
-0.000431082 0.000134859 1.74371e-06
-1.3868e-06 1.74371e-06 -3.91309e-05
0.00130711 -0.000365246 6.94171e-06
-0.000365246 0.000275791 -5.34089e-06
6.94171e-06 -5.34089e-06 -2.69165e-06
0.0017015 -0.00054376 5.71694e-06
-0.00054376 0.000293061 6.3587e-07
5.71694e-06 6.3587e-07 -4.02535e-05
0.00211584 -0.000534324 2.67771e-06
-0.000534324 0.000392484 3.83505e-06
2.67771e-06 3.83505e-06 0.000126003
0.00221434 -0.000495019 -2.66397e-06
-0.000495019 0.000395313 2.48016e-06
-2.66397e-06 2.48016e-06 0.000201266
0.000625576 -7.82356e-05 -7.81587e-07
-7.82356e-05 9.5926e-05 -5.86638e-06
-7.81587e-07 -5.86638e-06 -4.15345e-05
0.000991734 -0.000264552 1.30367e-06
-0.000264552 0.000199341 -1.29242e-06
1.30367e-06 -1.29242e-06 -3.70727e-05
0.00023818 -0.000144057 -1.24469e-06
-0.000144057 -7.94718e-05 1.07375e-06
-1.24469e-06 1.07375e-06 -0.000363242
0.00186027 -0.000361283 -3.67117e-06
-0.000361283 0.000763418 1.01256e-06
-3.67117e-06 1.01256e-06 0.000479734
0.00104379 0.000188568 -1.45565e-05
0.000188568 -4.46938e-05 -4.62589e-06
-1.45565e-05 -4.62589e-06 -0.000218696
0.000399406 -5.36898e-05 3.49957e-06
-5.36898e-05 -5.19486e-05 -1.08259e-05
3.49957e-06 -1.08259e-05 -0.000106016
0.000424434 7.16807e-05 -1.62497e-05
7.16807e-05 -7.28313e-05 -1.37509e-05
-1.62497e-05 -1.37509e-05 -0.00014591
8.03781e-05 5.50828e-05 -1.26026e-06
5.50828e-05 -0.000245745 -5.98281e-06
-1.26026e-06 -5.98281e-06 -0.000411932
0.000964617 0.000224131 -1.52043e-05
0.000224131 -1.69155e-05 -6.70871e-06
-1.52043e-05 -6.70871e-06 -0.000207141
0.00168496 0.000354585 -4.29454e-06
0.000354585 0.000164699 -3.00517e-07
-4.29454e-06 -3.00517e-07 -5.54759e-05
0.000603418 0.000199664 -6.40617e-06
0.000199664 -6.55691e-06 -4.9844e-06
-6.40617e-06 -4.9844e-06 -0.000203932
0.0014004 0.000346177 -5.24959e-06
0.000346177 0.000340071 -4.14198e-06
-5.24959e-06 -4.14198e-06 7.21621e-05
0.00155731 0.00039405 -3.87829e-06
0.00039405 0.000246398 -3.78738e-07
-3.87829e-06 -3.78738e-07 -1.28806e-05
0.00137056 0.000458367 2.12117e-06
0.000458367 0.00013061 3.68934e-06
2.12117e-06 3.68934e-06 -0.000160214
0.000455861 -5.0136e-05 -3.05708e-06
-5.0136e-05 -2.91076e-05 8.76798e-07
-3.05708e-06 8.76798e-07 -6.98591e-05
0.000669882 0.000177364 -4.04067e-07
0.000177364 0.000105317 -8.02247e-07
-4.04067e-07 -8.02247e-07 -0.000102448
0.000632969 3.11062e-05 3.36596e-07
3.11062e-05 7.42818e-05 4.84914e-07
3.36596e-07 4.84914e-07 -4.35712e-05
0.000762635 0.000132216 1.77251e-06
0.000132216 0.000204287 -6.57522e-07
1.77251e-06 -6.57522e-07 -4.6607e-05
0.00175879 0.000316263 -8.13403e-07
0.000316263 0.000156397 -8.04479e-07
-8.13403e-07 -8.04479e-07 -3.74959e-05
0.00160877 0.000383701 -9.02863e-08
0.000383701 0.000194113 -1.52767e-07
-9.02863e-08 -1.52767e-07 -4.95298e-05
0.00194232 0.000426054 3.01547e-07
0.000426054 0.000224546 2.35648e-07
3.01547e-07 2.35648e-07 9.58463e-06
0.00107499 0.000279335 1.80111e-06
0.000279335 0.000192908 6.77134e-07
1.80111e-06 6.77134e-07 -4.64338e-05
0.0019625 0.000511342 -6.31702e-07
0.000511342 0.000392331 1.35629e-07
-6.31702e-07 1.35629e-07 0.000113882
0.00137319 0.000435391 -7.6991e-07
0.000435391 0.000244698 -1.75697e-06
-7.6991e-07 -1.75697e-06 -7.43982e-05
0.00174416 0.000498893 -3.52896e-06
0.000498893 0.000275046 1.47976e-06
-3.52896e-06 1.47976e-06 -9.31146e-06
0.000507465 -3.88461e-05 7.32462e-07
-3.88461e-05 -1.32823e-05 6.99521e-06
7.32462e-07 6.99521e-06 -4.35398e-05
0.000728213 2.68553e-05 1.21969e-06
2.68553e-05 0.000135728 5.32889e-06
1.21969e-06 5.32889e-06 4.27319e-05
0.000633881 0.00021495 3.09507e-06
0.00021495 1.13189e-05 1.27556e-06
3.09507e-06 1.27556e-06 -0.000214098
0.00151074 0.000129296 -1.26974e-06
0.000129296 0.000685767 3.05948e-06
-1.26974e-06 3.05948e-06 0.000462409
0.00136882 0.000297181 -1.28341e-06
0.000297181 0.000516953 -3.04062e-06
-1.28341e-06 -3.04062e-06 0.000259134
0.00202322 0.000382484 3.93855e-07
0.000382484 0.000211476 -2.60407e-06
3.93855e-07 -2.60407e-06 3.09521e-05
0.00193323 0.000479524 5.15323e-07
0.000479524 0.000286183 -6.99914e-07
5.15323e-07 -6.99914e-07 3.47667e-05
0.00199308 0.000467338 -1.10305e-06
0.000467338 0.000229374 -8.82737e-07
-1.10305e-06 -8.82737e-07 2.16663e-05
0.00093411 0.000356314 2.83093e-06
0.000356314 6.71826e-05 2.37812e-06
2.83093e-06 2.37812e-06 -0.000228982
0.00217479 0.000579973 -4.87457e-07
0.000579973 0.000464057 -6.40578e-07
-4.87457e-07 -6.40578e-07 0.000180476
0.00156371 0.000508499 5.32065e-06
0.000508499 0.000295327 -2.76872e-06
5.32065e-06 -2.76872e-06 -3.23759e-05
0.000595058 2.87034e-05 2.5924e-06
2.87034e-05 5.16395e-05 3.66534e-06
2.5924e-06 3.66534e-06 -1.75896e-05
0.000631311 7.38601e-05 -1.18582e-07
7.38601e-05 0.000110147 1.81329e-06
-1.18582e-07 1.81329e-06 -1.18688e-06
0.00058932 4.29831e-05 2.45944e-06
4.29831e-05 5.44753e-05 3.3296e-06
2.45944e-06 3.3296e-06 -8.38675e-06
0.000545076 1.36986e-06 -5.90965e-07
1.36986e-06 2.29866e-05 4.66951e-09
-5.90965e-07 4.66951e-09 -4.19399e-05
0.00126928 -4.39106e-05 9.21468e-07
-4.39106e-05 0.000448923 3.53104e-06
9.21468e-07 3.53104e-06 0.000430178
0.000888319 -4.17029e-05 4.65221e-07
-4.17029e-05 0.000215497 -1.56481e-07
4.65221e-07 -1.56481e-07 0.000192123
0.000849982 -5.24819e-05 2.81593e-05
-5.24819e-05 0.00019837 8.63586e-06
2.81593e-05 8.63586e-06 0.0001977
0.00260513 -0.000117741 5.98893e-06
-0.000117741 0.00130482 -5.76344e-07
5.98893e-06 -5.76344e-07 0.00130532
0.00272389 -0.000136344 -3.89998e-05
-0.000136344 0.00138874 -3.52427e-06
-3.89998e-05 -3.52427e-06 0.00138406
0.000346025 -3.37834e-05 5.68832e-06
-3.37834e-05 -9.66536e-05 -9.53682e-06
5.68832e-06 -9.53682e-06 -0.000144812
0.0039064 0.000151318 9.16369e-05
0.000151318 0.00213875 -6.7406e-06
9.16369e-05 -6.7406e-06 0.00212634
0.000480027 -6.72621e-05 -1.83672e-06
-6.72621e-05 -2.55549e-05 4.51033e-07
-1.83672e-06 4.51033e-07 -8.79118e-05
0.00470036 0.000142221 -1.20843e-05
0.000142221 0.00263828 -1.39569e-06
-1.20843e-05 -1.39569e-06 0.00262498
0.00056583 -9.40725e-05 -1.65097e-05
-9.40725e-05 1.09662e-05 1.40699e-05
-1.65097e-05 1.40699e-05 -6.95009e-05
0.00561615 0.000145141 -0.000191239
0.000145141 0.00320697 1.97403e-05
-0.000191239 1.97403e-05 0.0031897
0.00105231 0.000161049 -1.31768e-05
0.000161049 -5.72172e-05 -3.36651e-06
-1.31768e-05 -3.36651e-06 -0.000220212
0.00102844 9.572e-05 -1.19208e-05
9.572e-05 -7.29506e-05 -1.6632e-06
-1.19208e-05 -1.6632e-06 -0.000213602
0.0017774 0.000204957 -1.92469e-06
0.000204957 0.000110273 7.3162e-07
-1.92469e-06 7.3162e-07 -3.44369e-05
0.00169504 9.20764e-05 3.11658e-07
9.20764e-05 6.70374e-05 4.85449e-07
3.11658e-07 4.85449e-07 -4.78719e-05
0.00102282 3.35011e-05 -1.19871e-05
3.35011e-05 -6.17606e-05 -5.14817e-07
-1.19871e-05 -5.14817e-07 -0.000189752
0.000458427 2.9047e-05 -1.92924e-05
2.9047e-05 -0.000179218 -6.17941e-07
-1.92924e-05 -6.17941e-07 -0.000253148
0.00102245 3.89091e-07 -4.42159e-08
3.89091e-07 -5.33931e-05 -1.0512e-07
-4.42159e-08 -1.0512e-07 -0.000179933
0.00169656 4.5368e-05 -9.22634e-08
4.5368e-05 6.78701e-05 1.59053e-07
-9.22634e-08 1.59053e-07 -4.04178e-05
0.00173783 0.000146667 -3.91226e-08
0.000146667 8.69899e-05 1.84303e-07
-3.91226e-08 1.84303e-07 -3.94212e-05
0.00192089 0.000120983 -1.75333e-07
0.000120983 5.30813e-05 2.27861e-07
-1.75333e-07 2.27861e-07 -1.11865e-05
0.00179152 0.000267458 -3.86103e-07
0.000267458 0.000136091 -1.02095e-07
-3.86103e-07 -1.02095e-07 -3.21899e-05
0.0019675 0.000244857 -5.5275e-07
0.000244857 0.000109309 -2.60595e-08
-5.5275e-07 -2.60595e-08 -3.35307e-06
0.00167508 -5.59433e-07 -9.65505e-08
-5.59433e-07 5.9648e-05 1.32415e-07
-9.65505e-08 1.32415e-07 -4.69957e-05
0.00191964 5.86779e-05 1.54994e-06
5.86779e-05 5.80009e-05 1.95607e-07
1.54994e-06 1.95607e-07 5.34701e-06
0.00190262 0.000181106 2.19673e-06
0.000181106 4.77098e-05 -4.61052e-07
2.19673e-06 -4.61052e-07 -3.80904e-05
0.00198679 0.000118179 7.13219e-06
0.000118179 4.85221e-05 7.56022e-07
7.13219e-06 7.56022e-07 1.3721e-05
0.00206096 0.000324691 9.85571e-07
0.000324691 0.000198199 -1.51234e-06
9.85571e-07 -1.51234e-06 5.18219e-05
0.00195783 0.000265827 2.61456e-06
0.000265827 2.92826e-05 5.22808e-07
2.61456e-06 5.22808e-07 -5.32329e-05
0.00094042 -1.72024e-05 -1.21547e-05
-1.72024e-05 -0.000106219 6.02177e-07
-1.21547e-05 6.02177e-07 -0.000230442
0.00184578 -9.90974e-05 -2.66624e-05
-9.90974e-05 0.000448004 2.90968e-06
-2.66624e-05 2.90968e-06 0.000320845
0.00191047 -8.72518e-05 -2.26979e-06
-8.72518e-05 0.000217278 -3.035e-07
-2.26979e-06 -3.035e-07 0.000107438
0.00173432 -0.000204024 -2.67397e-06
-0.000204024 0.000131999 5.8618e-07
-2.67397e-06 5.8618e-07 -1.93983e-05
0.000536969 -0.000187153 -2.38998e-05
-0.000187153 -3.45106e-05 1.85216e-05
-2.38998e-05 1.85216e-05 -0.000139616
0.0008222 -0.000223765 -1.08508e-05
-0.000223765 6.40348e-05 7.91092e-06
-1.08508e-05 7.91092e-06 -0.000140806
0.00129063 -0.000394346 -4.76608e-06
-0.000394346 0.000153593 2.02896e-06
-4.76608e-06 2.02896e-06 -0.00013039
0.00182916 -0.000305238 -5.94468e-06
-0.000305238 0.000240991 1.31255e-06
-5.94468e-06 1.31255e-06 4.87717e-05
0.00207608 -0.00031161 3.06917e-07
-0.00031161 0.000216834 -1.54516e-06
3.06917e-07 -1.54516e-06 8.62197e-05
0.00192125 -0.000404334 -9.01519e-07
-0.000404334 0.000220357 -1.31955e-06
-9.01519e-07 -1.31955e-06 2.12526e-05
0.00207174 -0.000509405 -3.44909e-06
-0.000509405 0.000419548 -2.61686e-06
-3.44909e-06 -2.61686e-06 0.000142108
0.00188953 -0.000460081 3.05114e-06
-0.000460081 0.00018635 -2.74355e-06
3.05114e-06 -2.74355e-06 -2.00115e-05
0.0008044 -0.000186418 -3.86191e-06
-0.000186418 0.000165243 5.10678e-06
-3.86191e-06 5.10678e-06 -5.64718e-05
-5.16081e-05 -0.000123683 1.64486e-07
-0.000123683 -0.000345006 -9.58058e-07
1.64486e-07 -9.58058e-07 -0.00060536
0.000804433 -0.000132167 -1.93941e-07
-0.000132167 0.000191211 4.05188e-06
-1.93941e-07 4.05188e-06 1.60803e-05
0.00174345 -3.94415e-05 -6.57809e-07
-3.94415e-05 0.00011091 8.57543e-08
-6.57809e-07 8.57543e-08 2.81582e-07
0.00184532 -0.000152363 -3.0207e-06
-0.000152363 0.00018393 5.34938e-07
-3.0207e-06 5.34938e-07 5.90168e-05
0.00192427 -0.000113006 2.95243e-06
-0.000113006 7.01255e-05 -3.71038e-07
2.95243e-06 -3.71038e-07 -5.53644e-07
0.00187796 -0.000239492 -1.48063e-06
-0.000239492 7.35862e-05 5.56448e-07
-1.48063e-06 5.56448e-07 -3.89908e-05
0.000748647 -0.000227972 6.3962e-07
-0.000227972 7.96784e-05 -5.47011e-07
6.3962e-07 -5.47011e-07 -0.000133449
0.00119079 -0.000358391 -1.53368e-06
-0.000358391 0.000192754 -2.51079e-07
-1.53368e-06 -2.51079e-07 -8.45907e-05
0.00166717 -0.000534556 1.39823e-06
-0.000534556 0.000287313 2.9904e-07
1.39823e-06 2.9904e-07 -4.55056e-05
0.00180081 -0.000357225 -1.32338e-06
-0.000357225 0.000101461 9.85491e-07
-1.32338e-06 9.85491e-07 -6.88102e-05
0.00202831 -0.000329255 1.31517e-06
-0.000329255 0.000144534 -4.79513e-07
1.31517e-06 -4.79513e-07 3.8371e-05
0.00200774 -0.000533676 -4.29689e-07
-0.000533676 0.000317449 5.21915e-07
-4.29689e-07 5.21915e-07 4.85387e-05
0.00192583 -0.00043272 -8.42725e-08
-0.00043272 0.000163738 5.60074e-07
-8.42725e-08 5.60074e-07 -1.05492e-05
0.00215153 -0.000482213 1.64411e-06
-0.000482213 0.000347974 -6.05422e-07
1.64411e-06 -6.05422e-07 0.000159819
0.00106709 -0.000271466 -5.30369e-09
-0.000271466 0.000253248 6.2969e-07
-5.30369e-09 6.2969e-07 8.89733e-06
0.00117926 -0.00030608 -1.08735e-06
-0.00030608 0.000347877 2.32288e-07
-1.08735e-06 2.32288e-07 6.5432e-05
0.000666955 -9.87682e-05 -2.57998e-07
-9.87682e-05 0.000117643 -2.54962e-08
-2.57998e-07 -2.54962e-08 -2.28806e-05
7.12179e-05 -8.50705e-05 2.61718e-07
-8.50705e-05 -0.000204734 -1.69786e-06
2.61718e-07 -1.69786e-06 -0.000463743
0.00194302 -5.97124e-05 2.50652e-06
-5.97124e-05 8.21371e-05 1.69983e-07
2.50652e-06 1.69983e-07 2.18792e-05
0.00180638 -0.000178219 2.14525e-06
-0.000178219 3.1949e-06 -1.15947e-07
2.14525e-06 -1.15947e-07 -8.9585e-05
0.00186283 -0.00011144 6.86739e-06
-0.00011144 -5.39016e-06 -6.36112e-07
6.86739e-06 -6.36112e-07 -4.15311e-05
0.00204636 -0.000273062 6.46935e-07
-0.000273062 9.72596e-05 -6.45675e-07
6.46935e-07 -6.45675e-07 2.98901e-05
0.00181057 -0.000381586 -1.90219e-06
-0.000381586 5.13298e-05 7.92857e-07
-1.90219e-06 7.92857e-07 -8.9167e-05
0.00201992 -0.00034047 4.47244e-06
-0.00034047 0.000106393 -1.50265e-06
4.47244e-06 -1.50265e-06 2.22582e-05
0.00129018 -0.000325122 4.40499e-06
-0.000325122 0.000328159 -4.74244e-06
4.40499e-06 -4.74244e-06 7.38985e-05
0.00185323 -0.000447557 -3.39923e-06
-0.000447557 0.000109321 4.03747e-07
-3.39923e-06 4.03747e-07 -4.6311e-05
0.00145765 -0.000511865 2.28268e-06
-0.000511865 0.000297526 3.54111e-08
2.28268e-06 3.54111e-08 -5.2469e-05
0.00187823 -0.000605823 2.42068e-06
-0.000605823 0.00035241 1.88095e-06
2.42068e-06 1.88095e-06 5.78484e-06
0.00196084 -0.000542788 1.49438e-06
-0.000542788 0.000242668 4.1921e-06
1.49438e-06 4.1921e-06 -1.7671e-05
0.00223772 -0.000500874 -4.08115e-06
-0.000500874 0.000378422 -1.75305e-06
-4.08115e-06 -1.75305e-06 0.000186357
0.000558492 -7.70467e-05 -1.01181e-06
-7.70467e-05 5.58233e-05 -5.44734e-06
-1.01181e-06 -5.44734e-06 -5.95381e-05
0.00030505 -0.000106489 -3.87056e-06
-0.000106489 -3.46532e-05 -1.25118e-06
-3.87056e-06 -1.25118e-06 -0.000273125
0.00125676 -0.000344508 1.13532e-06
-0.000344508 0.000316475 -1.35147e-06
1.13532e-06 -1.35147e-06 4.47921e-05
0.0010538 -0.00022984 -3.35345e-06
-0.00022984 0.000375688 3.18805e-06
-3.35345e-06 3.18805e-06 9.52805e-05
0.00215446 -0.000437116 -9.07048e-06
-0.000437116 0.000932696 1.24137e-06
-9.07048e-06 1.24137e-06 0.000611885
0.000353263 -5.31904e-05 -5.68508e-07
-5.31904e-05 -9.08044e-05 -7.67422e-06
-5.68508e-07 -7.67422e-06 -0.000131268
0.00173412 0.000314306 -3.73506e-06
0.000314306 0.000141786 -5.47478e-07
-3.73506e-06 -5.47478e-07 -5.22689e-05
0.000365005 8.32847e-06 2.88852e-07
8.32847e-06 -8.4883e-05 -5.79611e-06
2.88852e-07 -5.79611e-06 -0.000199413
0.000522124 0.000176079 -4.99905e-06
0.000176079 7.72125e-07 -3.73221e-06
-4.99905e-06 -3.73221e-06 -0.000199765
0.000566951 0.00013306 1.1743e-06
0.00013306 8.34189e-05 1.49356e-07
1.1743e-06 1.49356e-07 -0.000167123
0.00158927 0.000383447 -4.75123e-06
0.000383447 0.000180887 -6.61617e-07
-4.75123e-06 -6.61617e-07 -6.34968e-05
0.00191123 0.000422862 1.06342e-07
0.000422862 0.000207968 1.3165e-06
1.06342e-07 1.3165e-06 -6.52824e-06
0.00122256 0.000302272 -4.75443e-06
0.000302272 0.00029312 -3.14865e-06
-4.75443e-06 -3.14865e-06 4.7753e-05
0.00136602 0.000443879 4.30909e-07
0.000443879 0.000230146 3.60233e-07
4.30909e-07 3.60233e-07 -9.42602e-05
0.00184989 0.000493046 3.69097e-07
0.000493046 0.00032972 1.96321e-06
3.69097e-07 1.96321e-06 5.35179e-05
0.00182189 0.000502664 7.98004e-07
0.000502664 0.000324921 6.97895e-06
7.98004e-07 6.97895e-06 4.38342e-05
0.00048008 -3.34208e-05 -1.84262e-07
-3.34208e-05 -3.14355e-05 1.24187e-07
-1.84262e-07 1.24187e-07 -6.0542e-05
0.000606947 1.41645e-05 -5.59834e-07
1.41645e-05 6.50235e-05 4.91669e-07
-5.59834e-07 4.91669e-07 -2.75361e-05
0.000994642 0.000253365 6.64843e-07
0.000253365 0.000235565 6.47782e-07
6.64843e-07 6.47782e-07 4.14943e-06
0.0006911 7.43108e-05 -7.63522e-07
7.43108e-05 0.00017374 -4.10795e-07
-7.63522e-07 -4.10795e-07 -3.54732e-05
0.000809532 0.000219886 2.85065e-07
0.000219886 0.000150854 3.17682e-07
2.85065e-07 3.17682e-07 -7.95099e-05
0.00199884 0.000381735 -1.21463e-06
0.000381735 0.000195994 -1.54494e-06
-1.21463e-06 -1.54494e-06 1.53513e-05
0.00189219 0.00047608 5.59175e-07
0.00047608 0.000261882 1.80948e-07
5.59175e-07 1.80948e-07 1.09555e-05
0.0019305 0.000464183 1.63692e-06
0.000464183 0.000193463 2.56715e-07
1.63692e-06 2.56715e-07 -1.43638e-05
0.00136019 0.000398381 1.8162e-06
0.000398381 0.000338719 1.02947e-06
1.8162e-06 1.02947e-06 3.30022e-05
0.0020311 0.000564366 1.89088e-06
0.000564366 0.000362892 1.89138e-07
1.89088e-06 1.89138e-07 8.05202e-05
0.00180375 0.000529356 -2.75384e-06
0.000529356 0.00044457 -1.96444e-07
-2.75384e-06 -1.96444e-07 0.000114341
0.000665656 2.46572e-05 1.45517e-06
2.46572e-05 9.58797e-05 4.08576e-06
1.45517e-06 4.08576e-06 1.81262e-05
0.00128802 0.000146384 6.94194e-07
0.000146384 0.00052662 3.22312e-06
6.94194e-07 3.22312e-06 0.000366434
0.000992805 0.000306903 -2.73762e-06
0.000306903 0.000159932 1.22523e-06
-2.73762e-06 1.22523e-06 -8.7322e-05
0.00150332 0.000162855 -1.43926e-06
0.000162855 0.000685476 -4.71387e-07
-1.43926e-06 -4.71387e-07 0.000431649
0.00151189 0.000265316 -6.44969e-06
0.000265316 0.000501111 -1.54371e-06
-6.44969e-06 -1.54371e-06 0.000298079
0.00199857 0.000398701 -3.58794e-06
0.000398701 0.000173172 -2.80325e-06
-3.58794e-06 -2.80325e-06 9.29926e-06
0.00198888 0.000530026 -3.02278e-07
0.000530026 0.000280901 -1.02456e-07
-3.02278e-07 -1.02456e-07 3.00382e-05
0.00177347 0.000500958 5.596e-06
0.000500958 5.97209e-05 -1.06712e-07
5.596e-06 -1.06712e-07 -0.00015074
0.000892518 0.000416236 4.42951e-06
0.000416236 7.01976e-05 -1.60177e-06
4.42951e-06 -1.60177e-06 -0.000270898
0.00149025 0.000533115 9.48809e-06
0.000533115 0.000153543 -4.1095e-07
9.48809e-06 -4.1095e-07 -0.00015069
0.000579459 2.19341e-05 -3.03995e-07
2.19341e-05 4.01898e-05 1.32879e-07
-3.03995e-07 1.32879e-07 -2.77446e-05
0.000439574 4.97293e-05 6.98731e-07
4.97293e-05 -2.19935e-05 2.23675e-06
6.98731e-07 2.23675e-06 -0.000127177
0.000436754 4.48975e-05 -5.89954e-07
4.48975e-05 -2.43176e-05 -2.42526e-07
-5.89954e-07 -2.42526e-07 -0.00012363
0.000950691 0.000133486 -9.29848e-07
0.000133486 0.000309443 -1.0034e-06
-9.29848e-07 -1.0034e-06 0.000182515
0.000667479 0.000101806 1.88187e-06
0.000101806 0.000133655 2.20783e-06
1.88187e-06 2.20783e-06 2.54207e-05
0.000546662 5.36548e-05 2.73481e-06
5.36548e-05 3.41545e-05 3.2347e-06
2.73481e-06 3.2347e-06 -2.86673e-05
0.000543519 7.99226e-06 -6.46428e-07
7.99226e-06 2.63355e-05 -2.17977e-08
-6.46428e-07 -2.17977e-08 -3.6241e-05
0.00124804 -2.94864e-05 7.99785e-07
-2.94864e-05 0.000433622 3.17328e-06
7.99785e-07 3.17328e-06 0.000417609
0.00055851 1.29345e-05 -1.71444e-06
1.29345e-05 2.70156e-05 -3.49284e-06
-1.71444e-06 -3.49284e-06 -3.51404e-05
0.00130669 -3.98788e-05 -7.08227e-06
-3.98788e-05 0.000471674 -1.49835e-06
-7.08227e-06 -1.49835e-06 0.000453985
0.000816953 -3.89984e-05 2.90723e-05
-3.89984e-05 0.000169815 8.4965e-06
2.90723e-05 8.4965e-06 0.00017334
0.00132411 -4.85473e-05 -1.19027e-05
-4.85473e-05 0.000487747 -4.88184e-06
-1.19027e-05 -4.88184e-06 0.000467138
0.00165779 -7.47703e-05 2.75561e-05
-7.47703e-05 0.000703946 1.59951e-06
2.75561e-05 1.59951e-06 0.000706127
0.00254361 -0.000113785 -3.4442e-05
-0.000113785 0.00126509 -3.95052e-06
-3.4442e-05 -3.95052e-06 0.00126651
0.000312012 8.14215e-05 -5.73806e-06
8.14215e-05 -9.09843e-05 -7.88481e-06
-5.73806e-06 -7.88481e-06 -0.000141396
0.000475906 -1.64433e-05 5.66732e-07
-1.64433e-05 -1.11478e-05 5.96412e-07
5.66732e-07 5.96412e-07 -6.50234e-05
0.00324727 0.000171017 1.1742e-05
0.000171017 0.00172695 -6.13056e-06
1.1742e-05 -6.13056e-06 0.00170986
0.00410814 0.000122854 -1.1824e-05
0.000122854 0.00226111 -9.95492e-07
-1.1824e-05 -9.95492e-07 0.00225523
0.000646199 -7.0196e-05 -1.22081e-05
-7.0196e-05 7.46433e-05 1.19844e-05
-1.22081e-05 1.19844e-05 9.73866e-06
0.00493234 0.000120063 -0.000167097
0.000120063 0.00277493 1.63439e-05
-0.000167097 1.63439e-05 0.00276625
0.00176794 0.000265311 -2.62791e-06
0.000265311 0.000124919 4.97747e-07
-2.62791e-06 4.97747e-07 -4.34071e-05
0.00170883 0.000146622 -3.72557e-07
0.000146622 6.85676e-05 6.57225e-07
-3.72557e-07 6.57225e-07 -5.83989e-05
0.00193935 0.000243048 -1.96611e-06
0.000243048 9.56823e-05 1.65385e-06
-1.96611e-06 1.65385e-06 -1.69248e-05
0.001944 0.00011959 -2.08803e-06
0.00011959 5.96797e-05 5.05147e-07
-2.08803e-06 5.05147e-07 -1.31107e-06
0.00169949 4.73752e-05 2.23489e-07
4.73752e-05 7.34261e-05 4.24467e-07
2.23489e-07 4.24467e-07 -3.49468e-05
0.00102863 5.22504e-06 -1.16999e-05
5.22504e-06 -5.02477e-05 -1.05828e-07
-1.16999e-05 -1.05828e-07 -0.000176737
0.00168474 2.97622e-06 5.82253e-08
2.97622e-06 6.75807e-05 1.58269e-07
5.82253e-08 1.58269e-07 -3.90827e-05
0.00189005 5.03503e-05 -8.27508e-07
5.03503e-05 4.04439e-05 2.06079e-08
-8.27508e-07 2.06079e-08 -1.27543e-05
0.00193887 0.000180383 -6.51433e-07
0.000180383 7.30743e-05 3.39746e-07
-6.51433e-07 3.39746e-07 -1.24365e-05
0.00194913 0.000115664 7.63284e-07
0.000115664 1.85283e-05 2.2515e-07
7.63284e-07 2.2515e-07 -1.10303e-05
0.00201376 0.000324507 -4.0646e-07
0.000324507 0.000162313 -1.56162e-07
-4.0646e-07 -1.56162e-07 1.55641e-05
0.00196823 0.000261198 6.19636e-08
0.000261198 3.48397e-05 4.28929e-07
6.19636e-08 4.28929e-07 -4.35914e-05
0.00191313 -5.03973e-06 2.24421e-06
-5.03973e-06 6.05287e-05 1.78222e-07
2.24421e-06 1.78222e-07 6.59692e-06
0.00192996 4.99091e-05 6.54097e-06
4.99091e-05 2.80699e-05 1.876e-07
6.54097e-06 1.876e-07 4.03029e-06
0.001986 0.000185638 3.41395e-06
0.000185638 3.12657e-05 2.0255e-07
3.41395e-06 2.0255e-07 -1.23853e-05
0.00204317 0.000114533 4.53424e-06
0.000114533 4.46006e-05 5.5786e-07
4.53424e-06 5.5786e-07 3.63188e-05
0.00194947 0.000319978 1.2154e-06
0.000319978 8.27896e-05 -9.51088e-07
1.2154e-06 -9.51088e-07 -3.80196e-05
0.00213557 0.000269936 3.73865e-06
0.000269936 8.84295e-05 1.2087e-06
3.73865e-06 1.2087e-06 3.67382e-05
0.00172907 -3.67348e-05 -9.91943e-07
-3.67348e-05 0.000100567 -2.01997e-07
-9.91943e-07 -2.01997e-07 -8.01545e-06
0.00184307 -0.000157764 -3.54524e-06
-0.000157764 0.000180207 2.41758e-09
-3.54524e-06 2.41758e-09 5.43563e-05
0.00198099 -0.000112706 3.37948e-07
-0.000112706 0.00010441 -8.6906e-07
3.37948e-07 -8.6906e-07 3.98971e-05
0.0018854 -0.000235837 -1.77838e-06
-0.000235837 7.80972e-05 -5.08482e-08
-1.77838e-06 -5.08482e-08 -3.68715e-05
0.000858541 -0.000233888 -8.49044e-06
-0.000233888 0.0001468 7.67892e-06
-8.49044e-06 7.67892e-06 -6.8444e-05
0.0011632 -0.000359687 -7.22706e-06
-0.000359687 0.000166102 3.60499e-06
-7.22706e-06 3.60499e-06 -0.000111671
0.00153641 -0.000515219 4.15137e-07
-0.000515219 0.000223698 -4.94404e-07
4.15137e-07 -4.94404e-07 -0.000107183
0.00179817 -0.000355358 -1.34578e-06
-0.000355358 0.00010379 -9.89304e-08
-1.34578e-06 -9.89304e-08 -7.15348e-05
0.00196463 -0.000326573 -6.96701e-08
-0.000326573 9.86626e-05 4.59786e-08
-6.96701e-08 4.59786e-08 -3.5326e-06
0.00196879 -0.000434209 1.2772e-06
-0.000434209 0.000192872 -6.23884e-07
1.2772e-06 -6.23884e-07 1.82788e-05
0.00191025 -0.000535784 -1.7193e-06
-0.000535784 0.000247996 -2.81454e-06
-1.7193e-06 -2.81454e-06 -2.41583e-05
0.00205341 -0.000470424 6.86825e-06
-0.000470424 0.000283176 -4.71284e-06
6.86825e-06 -4.71284e-06 0.00010011
0.000812003 -0.000245088 -1.43046e-06
-0.000245088 0.00010578 1.99137e-06
-1.43046e-06 1.99137e-06 -0.000140061
-0.000108129 -0.000168462 -1.01293e-07
-0.000168462 -0.000457661 1.91073e-06
-1.01293e-07 1.91073e-06 -0.000718824
0.00079593 -0.00011283 -3.95651e-07
-0.00011283 0.000192636 5.17416e-06
-3.95651e-07 5.17416e-06 4.88985e-05
0.000167788 -5.71699e-05 3.23198e-06
-5.71699e-05 -0.000163363 -2.62071e-06
3.23198e-06 -2.62071e-06 -0.00040132
0.00192324 -5.90976e-05 -7.93281e-09
-5.90976e-05 7.19643e-05 1.91049e-07
-7.93281e-09 1.91049e-07 1.15504e-05
0.00185082 -0.000179037 2.3456e-06
-0.000179037 3.49863e-05 -8.15582e-07
2.3456e-06 -8.15582e-07 -5.86622e-05
0.00191119 -0.000112582 1.34473e-06
-0.000112582 2.12177e-05 -3.86981e-07
1.34473e-06 -3.86981e-07 -1.35102e-05
0.00199612 -0.000268699 -1.46763e-06
-0.000268699 7.3304e-05 1.81921e-07
-1.46763e-06 1.81921e-07 2.44191e-06
0.00107274 -0.000296716 -1.76184e-06
-0.000296716 0.000186859 5.75774e-07
-1.76184e-06 5.75774e-07 -6.11093e-05
0.00138016 -0.000493557 2.69075e-06
-0.000493557 0.000264233 -9.27729e-07
2.69075e-06 -9.27729e-07 -8.0427e-05
0.00179666 -0.000606218 -1.49626e-07
-0.000606218 0.000297579 4.45141e-07
-1.49626e-07 4.45141e-07 -5.32348e-05
0.00185034 -0.000381357 -1.43755e-06
-0.000381357 8.45495e-05 7.48011e-07
-1.43755e-06 7.48011e-07 -5.9455e-05
0.00198641 -0.000341242 1.25747e-06
-0.000341242 8.8223e-05 -3.9756e-07
1.25747e-06 -3.9756e-07 6.03001e-06
0.00193368 -0.000544375 -1.28644e-07
-0.000544375 0.000243972 4.69304e-07
-1.28644e-07 4.69304e-07 -1.83148e-05
0.00184048 -0.000448197 -9.40611e-07
-0.000448197 9.29263e-05 1.06095e-06
-9.40611e-07 1.06095e-06 -6.37638e-05
0.00209908 -0.000486595 3.94144e-06
-0.000486595 0.000288973 -5.23949e-06
3.94144e-06 -5.23949e-06 0.000103809
0.00114795 -0.000333542 1.82085e-07
-0.000333542 0.000249741 1.18343e-06
1.82085e-07 1.18343e-06 -2.04362e-05
0.00156726 -0.000370231 2.66789e-06
-0.000370231 0.00055608 1.26431e-06
2.66789e-06 1.26431e-06 0.000251173
0.000957981 -0.000210928 -1.98651e-07
-0.000210928 0.000315239 9.25304e-08
-1.98651e-07 9.25304e-08 3.43442e-05
0.000356742 -4.561e-05 -2.14614e-06
-4.561e-05 -7.04287e-05 6.76799e-07
-2.14614e-06 6.76799e-07 -0.000185913
0.000137701 -5.62066e-05 -4.83759e-07
-5.62066e-05 -0.000150579 -6.26254e-07
-4.83759e-07 -6.26254e-07 -0.000372661
0.00188592 -6.11211e-05 5.74766e-06
-6.11211e-05 -2.58638e-06 -5.66901e-08
5.74766e-06 -5.66901e-08 -2.31281e-05
0.00197115 -0.00016881 4.92346e-06
-0.00016881 3.71621e-05 -7.33518e-07
4.92346e-06 -7.33518e-07 2.05157e-06
0.00202934 -0.0003154 1.76365e-06
-0.0003154 3.02612e-05 -4.3998e-07
1.76365e-06 -4.3998e-07 -1.32822e-05
0.00195929 -0.000390461 1.46651e-06
-0.000390461 9.73365e-05 -1.86245e-06
1.46651e-06 -1.86245e-06 -3.22663e-06
0.00156696 -0.000429225 1.06816e-06
-0.000429225 0.000483219 -3.94175e-06
1.06816e-06 -3.94175e-06 0.000167629
0.00215615 -0.000539897 -1.37221e-06
-0.000539897 0.000202297 -3.86725e-06
-1.37221e-06 -3.86725e-06 2.99347e-05
0.00125302 -0.000564197 -4.47295e-06
-0.000564197 0.000159731 2.48476e-06
-4.47295e-06 2.48476e-06 -0.000220571
0.00193015 -0.000669988 2.83845e-06
-0.000669988 0.000335109 1.86907e-07
2.83845e-06 1.86907e-07 -3.08204e-05
0.00184911 -0.000522913 -5.80535e-06
-0.000522913 0.000179523 1.41128e-06
-5.80535e-06 1.41128e-06 -7.05816e-05
3.09337e-05 -8.3882e-06 -2.13265e-06
-8.3882e-06 -0.000265769 -4.86883e-06
-2.13265e-06 -4.86883e-06 -0.000357723
0.000713914 -0.000115595 -2.27319e-06
-0.000115595 0.000211016 5.23266e-07
-2.27319e-06 5.23266e-07 1.75634e-05
0.00105041 -0.000160504 -2.46639e-06
-0.000160504 0.000413354 -2.48036e-06
-2.46639e-06 -2.48036e-06 0.000160909
0.00171875 -0.000430266 -7.44202e-06
-0.000430266 0.00058694 -5.76367e-07
-7.44202e-06 -5.76367e-07 0.000271054
0.000677315 -0.00018846 2.89015e-07
-0.00018846 9.34055e-05 4.72327e-06
2.89015e-07 4.72327e-06 -0.000195681
0.00145798 -0.000394196 -4.45783e-06
-0.000394196 0.00045486 5.63576e-06
-4.45783e-06 5.63576e-06 0.000130156
0.000460062 -3.54739e-05 -1.25727e-06
-3.54739e-05 -4.34964e-05 -6.44397e-06
-1.25727e-06 -6.44397e-06 -7.25637e-05
0.000537794 7.48619e-06 -1.01009e-06
7.48619e-06 2.66706e-05 -4.87139e-06
-1.01009e-06 -4.87139e-06 -6.5975e-05
0.00197386 0.000380931 -2.50233e-06
0.000380931 0.000180237 -3.8102e-07
-2.50233e-06 -3.8102e-07 -5.1706e-07
-0.000239276 -2.09705e-05 9.97524e-07
-2.09705e-05 -0.000395991 -2.70541e-06
9.97524e-07 -2.70541e-06 -0.000596468
0.00119466 0.000269398 -3.10593e-06
0.000269398 0.000360003 -7.54333e-07
-3.10593e-06 -7.54333e-07 0.000129896
0.000375326 0.000154682 2.85165e-06
0.000154682 -0.000136305 4.21162e-07
2.85165e-06 4.21162e-07 -0.00034255
0.00185227 0.000472367 4.16563e-07
0.000472367 0.000239236 1.013e-06
4.16563e-07 1.013e-06 -1.10925e-05
0.00186975 0.000460754 1.53562e-06
0.000460754 0.000159907 8.34505e-07
1.53562e-06 8.34505e-07 -4.79324e-05
0.00156165 0.000414517 4.02397e-07
0.000414517 0.0004755 -8.24986e-07
4.02397e-07 -8.24986e-07 0.000164903
0.00212621 0.000555756 -3.90177e-06
0.000555756 0.000644627 1.54621e-06
-3.90177e-06 1.54621e-06 0.000313888
0.00187141 0.0005474 -7.86205e-07
0.0005474 0.000252101 1.28477e-06
-7.86205e-07 1.28477e-06 -2.8869e-05
0.000586716 2.39804e-05 -3.96292e-07
2.39804e-05 4.91197e-05 4.62441e-07
-3.96292e-07 4.62441e-07 -2.84019e-05
0.000734935 6.3336e-05 -9.44341e-07
6.3336e-05 0.000179918 3.90189e-07
-9.44341e-07 3.90189e-07 3.50166e-05
0.00118288 0.000325021 2.85371e-07
0.000325021 0.000277397 2.24212e-07
2.85371e-07 2.24212e-07 2.86055e-05
0.000927286 0.000113277 8.09106e-07
0.000113277 0.000321742 6.01779e-07
8.09106e-07 6.01779e-07 7.96622e-05
0.000763371 0.000231189 3.28666e-06
0.000231189 5.59619e-05 6.12816e-07
3.28666e-06 6.12816e-07 -0.000145851
0.00194541 0.000398608 -2.33483e-06
0.000398608 0.000142827 -1.71618e-06
-2.33483e-06 -1.71618e-06 -2.18136e-05
0.00197951 0.000528024 1.80788e-06
0.000528024 0.00027506 6.24579e-07
1.80788e-06 6.24579e-07 2.44921e-05
0.00185901 0.000501691 4.1082e-07
0.000501691 0.000111816 -1.28233e-07
4.1082e-07 -1.28233e-07 -9.75099e-05
0.00124008 0.000464211 2.71158e-06
0.000464211 0.000265013 2.57799e-06
2.71158e-06 2.57799e-06 -8.17398e-05
0.00171291 0.000558308 -2.60807e-06
0.000558308 0.000300134 -1.94271e-06
-2.60807e-06 -1.94271e-06 -1.17042e-05
0.000900062 8.21817e-05 6.91507e-07
8.21817e-05 0.000275645 2.73477e-06
6.91507e-07 2.73477e-06 0.000151811
-2.69316e-05 -2.17025e-06 -2.0096e-06
-2.17025e-06 -0.000242844 2.42996e-06
-2.0096e-06 2.42996e-06 -0.000436258
0.00126967 0.000370577 -3.17691e-06
0.000370577 0.000302219 -2.7069e-06
-3.17691e-06 -2.7069e-06 2.35154e-05
-0.000129155 0.000149533 -1.49978e-06
0.000149533 -0.000356299 -8.63409e-07
-1.49978e-06 -8.63409e-07 -0.000584543
0.00175342 0.000345455 -3.21161e-06
0.000345455 0.000583371 -2.5606e-06
-3.21161e-06 -2.5606e-06 0.000362937
0.00191096 0.00043293 2.41471e-07
0.00043293 4.53221e-05 -1.12343e-06
2.41471e-07 -1.12343e-06 -0.00010183
0.00206566 0.000585297 5.58976e-06
0.000585297 0.00030173 -1.53252e-06
5.58976e-06 -1.53252e-06 2.96095e-05
0.00178845 0.000525087 4.61457e-06
0.000525087 5.45447e-05 9.68329e-07
4.61457e-06 9.68329e-07 -0.000167975
0.00109146 0.000469742 7.21678e-06
0.000469742 0.000137423 2.04262e-06
7.21678e-06 2.04262e-06 -0.000212191
0.00194841 0.00062859 -6.23409e-07
0.00062859 0.000444434 -5.58139e-07
-6.23409e-07 -5.58139e-07 0.000110335
0.000543142 1.31108e-05 -1.9248e-06
1.31108e-05 1.68602e-05 -3.69121e-06
-1.9248e-06 -3.69121e-06 -5.02099e-05
0.000547494 5.73592e-05 1.24757e-06
5.73592e-05 4.71233e-05 4.31767e-07
1.24757e-06 4.31767e-07 -5.96116e-05
0.000354771 4.37971e-05 -3.28779e-07
4.37971e-05 -7.98429e-05 1.14747e-06
-3.28779e-07 1.14747e-06 -0.000183482
0.00026064 -2.08773e-05 -3.60505e-07
-2.08773e-05 -0.00012813 -2.38616e-06
-3.60505e-07 -2.38616e-06 -0.000228578
0.00060902 5.64366e-05 -3.48755e-07
5.64366e-05 9.70292e-05 2.8081e-08
-3.48755e-07 2.8081e-08 -9.09067e-06
0.000608194 8.17363e-05 -7.46999e-07
8.17363e-05 8.5817e-05 -1.03102e-07
-7.46999e-07 -1.03102e-07 -2.59632e-05
0.000746654 0.000118843 -3.0949e-06
0.000118843 0.000187505 -3.53446e-06
-3.0949e-06 -3.53446e-06 7.07421e-05
0.000335595 6.66977e-06 -2.96828e-08
6.66977e-06 -6.45854e-05 -2.36888e-07
-2.96828e-08 -2.36888e-07 -0.000187618
0.000673681 8.9014e-05 9.95622e-07
8.9014e-05 0.000129935 2.4859e-06
9.95622e-07 2.4859e-06 3.05774e-05
0.000577065 6.24155e-05 3.32849e-06
6.24155e-05 5.67219e-05 3.30029e-06
3.32849e-06 3.30029e-06 -8.44409e-06
0.000541568 1.70507e-05 -2.15285e-06
1.70507e-05 2.93915e-05 -3.62884e-10
-2.15285e-06 -3.62884e-10 -3.2478e-05
0.00122759 -1.49646e-05 1.1487e-06
-1.49646e-05 0.000422757 2.90238e-06
1.1487e-06 2.90238e-06 0.000408132
0.000468175 -5.93048e-05 1.36535e-06
-5.93048e-05 -1.40876e-05 -3.33061e-06
1.36535e-06 -3.33061e-06 -8.00505e-05
0.00129065 -2.51125e-05 -6.23206e-06
-2.51125e-05 0.00045962 -1.56316e-06
-6.23206e-06 -1.56316e-06 0.000444386
0.000785939 -2.93101e-05 2.52405e-05
-2.93101e-05 0.000147064 8.74286e-06
2.52405e-05 8.74286e-06 0.000152543
0.00133668 -3.69742e-05 -1.06568e-05
-3.69742e-05 0.000489775 -6.48671e-06
-1.06568e-05 -6.48671e-06 0.000472683
0.000770985 -4.19434e-05 9.71035e-06
-4.19434e-05 0.000141055 3.24379e-06
9.71035e-06 3.24379e-06 0.000143078
0.00242874 -0.00010701 -2.66736e-06
-0.00010701 0.00118576 -2.52845e-06
-2.66736e-06 -2.52845e-06 0.00118831
0.00036315 5.69494e-05 -2.9945e-06
5.69494e-05 -8.16027e-05 -4.85045e-06
-2.9945e-06 -4.85045e-06 -0.000112963
0.000421754 2.3995e-05 -3.3085e-06
2.3995e-05 -4.05977e-05 1.85624e-09
-3.3085e-06 1.85624e-09 -8.23221e-05
0.00277073 0.000134404 1.43316e-05
0.000134404 0.0014224 -4.8299e-06
1.43316e-05 -4.8299e-06 0.00141571
0.000577727 -4.53304e-05 -8.29402e-06
-4.53304e-05 4.27556e-05 1.01107e-05
-8.29402e-06 1.01107e-05 -8.10632e-06
0.00345561 0.000132167 -3.12006e-05
0.000132167 0.00184865 -5.24991e-07
-3.12006e-05 -5.24991e-07 0.00184154
0.00423999 9.73828e-05 -0.000144619
9.73828e-05 0.00233634 1.26456e-05
-0.000144619 1.26456e-05 0.00233585
0.00196566 0.00032411 -2.52605e-06
0.00032411 0.000126245 1.15268e-06
-2.52605e-06 1.15268e-06 -2.08302e-05
0.00198456 0.000178765 -1.52633e-06
0.000178765 0.000105409 1.50369e-06
-1.52633e-06 1.50369e-06 2.04414e-05
0.00197158 0.000255823 -1.46817e-06
0.000255823 3.60855e-05 1.05158e-06
-1.46817e-06 1.05158e-06 -3.82463e-05
0.00191317 0.000113379 -3.80159e-06
0.000113379 -1.03678e-05 -8.98462e-08
-3.80159e-06 -8.98462e-08 -3.4582e-05
0.00186071 4.38679e-05 -3.41145e-06
4.38679e-05 2.31307e-05 1.95796e-07
-3.41145e-06 1.95796e-07 -3.0797e-05
0.00169456 5.81725e-06 3.42888e-07
5.81725e-06 7.42641e-05 1.9901e-07
3.42888e-07 1.9901e-07 -3.23745e-05
0.00189478 -4.82593e-06 -4.93447e-07
-4.82593e-06 5.2086e-05 8.37154e-08
-4.93447e-07 8.37154e-08 -3.37365e-06
0.00194933 5.01234e-05 1.37552e-06
5.01234e-05 4.43423e-05 8.8783e-09
1.37552e-06 8.8783e-09 1.72595e-05
0.00200497 0.000184843 -4.54621e-08
0.000184843 4.56202e-05 -7.49126e-08
-4.54621e-08 -7.49126e-08 5.84346e-07
0.00200021 0.000115039 7.71772e-07
0.000115039 1.38719e-05 2.72341e-07
7.71772e-07 2.72341e-07 9.32656e-06
0.00193268 0.000317277 -6.67691e-07
0.000317277 8.15294e-05 -6.13064e-08
-6.67691e-07 -6.13064e-08 -3.93056e-05
0.00208122 0.000271912 3.20089e-06
0.000271912 5.12025e-05 5.98881e-07
3.20089e-06 5.98881e-07 5.03024e-06
0.00191792 -9.99677e-06 5.98218e-06
-9.99677e-06 3.07406e-05 2.2088e-07
5.98218e-06 2.2088e-07 2.56214e-06
0.00197711 5.42007e-05 2.88087e-06
5.42007e-05 -2.0868e-06 -8.42995e-08
2.88087e-06 -8.42995e-08 2.26784e-07
0.00205891 0.000183049 1.82767e-06
0.000183049 1.22714e-05 5.25816e-07
1.82767e-06 5.25816e-07 3.91956e-06
0.00208452 0.000355505 -2.9138e-07
0.000355505 6.78846e-05 6.6206e-07
-2.9138e-07 6.6206e-07 -4.76075e-06
0.00190309 -5.8414e-05 -3.04251e-06
-5.8414e-05 6.1039e-05 2.10241e-07
-3.04251e-06 2.10241e-07 4.65655e-07
0.00186954 -0.000180468 1.39752e-06
-0.000180468 5.0176e-05 -1.21918e-06
1.39752e-06 -1.21918e-06 -4.45722e-05
0.00195568 -0.000113591 -4.53404e-06
-0.000113591 4.60191e-05 1.26351e-07
-4.53404e-06 1.26351e-07 1.24819e-05
0.00194926 -0.000264272 -4.92009e-06
-0.000264272 5.0705e-05 1.42371e-06
-4.92009e-06 1.42371e-06 -2.36532e-05
0.000927325 -0.000282308 -4.58594e-06
-0.000282308 9.04302e-05 4.50342e-06
-4.58594e-06 4.50342e-06 -0.00015576
0.00133138 -0.000478577 1.7244e-07
-0.000478577 0.000245412 -3.52983e-07
1.7244e-07 -3.52983e-07 -9.38994e-05
0.00180513 -0.000617076 -1.1514e-06
-0.000617076 0.000298009 -1.25744e-06
-1.1514e-06 -1.25744e-06 -5.95867e-05
0.0018895 -0.000381464 -2.00735e-06
-0.000381464 0.000117368 3.77528e-07
-2.00735e-06 3.77528e-07 -3.04771e-05
0.00192073 -0.000340936 -1.05276e-06
-0.000340936 5.08782e-05 1.11797e-06
-1.05276e-06 1.11797e-06 -2.95242e-05
0.00183863 -0.000450282 1.61861e-06
-0.000450282 8.05437e-05 1.53326e-06
1.61861e-06 1.53326e-06 -7.7374e-05
0.00189874 -0.000540008 -1.48827e-06
-0.000540008 0.000237804 -2.51996e-06
-1.48827e-06 -2.51996e-06 -2.43559e-05
0.00198058 -0.000473307 7.14727e-06
-0.000473307 0.000202994 -6.70104e-06
7.14727e-06 -6.70104e-06 2.47461e-05
0.000990011 -0.000318235 7.56387e-07
-0.000318235 0.00015175 2.44484e-06
7.56387e-07 2.44484e-06 -0.000116263
0.000954504 -0.000303564 5.08569e-06
-0.000303564 0.000145275 1.20101e-06
5.08569e-06 1.20101e-06 -0.000137429
0.000627209 -0.000175578 3.8418e-06
-0.000175578 0.000115873 -4.09128e-06
3.8418e-06 -4.09128e-06 -0.000168014
0.000147211 -2.73719e-05 3.15758e-07
-2.73719e-05 -0.000200528 4.41097e-06
3.15758e-07 4.41097e-06 -0.00031753
0.000104109 -1.29644e-05 3.70379e-06
-1.29644e-05 -0.000178982 2.1577e-08
3.70379e-06 2.1577e-08 -0.000390843
0.00189616 -6.89767e-05 -1.39736e-07
-6.89767e-05 -1.24107e-08 -1.46408e-07
-1.39736e-07 -1.46408e-07 -2.20222e-05
0.00197598 -0.000168941 1.06004e-06
-0.000168941 3.91196e-05 -1.10155e-07
1.06004e-06 -1.10155e-07 3.16913e-06
0.00202008 -0.000309867 -7.4558e-07
-0.000309867 3.95076e-05 1.9865e-08
-7.4558e-07 1.9865e-08 -7.59494e-06
0.00130052 -0.000403393 -1.78433e-06
-0.000403393 0.000310441 -7.29043e-07
-1.78433e-06 -7.29043e-07 9.84063e-07
0.0013576 -0.000563018 2.93712e-06
-0.000563018 0.000222941 -9.29613e-07
2.93712e-06 -9.29613e-07 -0.00015445
0.00190456 -0.000670328 2.77692e-08
-0.000670328 0.000329823 -1.39964e-07
2.77692e-08 -1.39964e-07 -4.02637e-05
0.00192565 -0.000387354 2.11529e-07
-0.000387354 7.54828e-05 2.51256e-07
2.11529e-07 2.51256e-07 -2.63463e-05
0.00202423 -0.000548712 1.13602e-06
-0.000548712 0.000268538 -3.44515e-06
1.13602e-06 -3.44515e-06 1.96027e-05
0.00204046 -0.000521725 -9.95767e-07
-0.000521725 0.000163128 -5.08633e-07
-9.95767e-07 -5.08633e-07 -5.93682e-06
0.000161427 4.55454e-05 -1.56265e-06
4.55454e-05 -0.000194263 -7.7374e-07
-1.56265e-06 -7.7374e-07 -0.000279667
0.00124083 -0.000380007 -3.24034e-07
-0.000380007 0.000280396 -3.40361e-07
-3.24034e-07 -3.40361e-07 -2.24517e-05
0.00138129 -0.000387512 1.90146e-07
-0.000387512 0.000409001 2.44901e-06
1.90146e-07 2.44901e-06 9.14797e-05
0.00128556 -0.000278167 -4.14497e-07
-0.000278167 0.00048357 4.12146e-07
-4.14497e-07 4.12146e-07 0.000169215
0.0012658 -0.00016279 1.1235e-06
-0.00016279 0.000542909 -2.9127e-06
1.1235e-06 -2.9127e-06 0.000292432
0.000465265 -3.75437e-05 -7.66652e-07
-3.75437e-05 4.78738e-05 1.45044e-06
-7.66652e-07 1.45044e-06 -0.000138322
0.00196849 -8.60217e-05 3.47905e-06
-8.60217e-05 4.86491e-06 4.00003e-08
3.47905e-06 4.00003e-08 3.87103e-06
0.00208523 -0.000216377 1.229e-06
-0.000216377 8.36262e-07 -1.89103e-07
1.229e-06 -1.89103e-07 5.77029e-06
0.00209773 -0.000376546 1.31682e-06
-0.000376546 4.60975e-05 -6.10873e-07
1.31682e-06 -6.10873e-07 2.03501e-05
0.00214814 -0.000467135 2.05034e-06
-0.000467135 0.000115171 -2.08651e-06
2.05034e-06 -2.08651e-06 2.66596e-05
0.0016244 -0.000512536 -6.24267e-06
-0.000512536 0.000476438 -2.34402e-07
-6.24267e-06 -2.34402e-07 0.000119605
0.00202386 -0.000592638 3.09323e-06
-0.000592638 0.000193426 -2.31152e-06
3.09323e-06 -2.31152e-06 -2.67754e-05
0.00167987 -0.000666058 -1.29198e-05
-0.000666058 0.000378866 2.36762e-06
-1.29198e-05 2.36762e-06 -4.24585e-05
0.00225892 -0.000734193 -9.98586e-06
-0.000734193 0.000548819 3.74952e-07
-9.98586e-06 3.74952e-07 0.000156891
0.000106081 5.73551e-05 -4.26264e-06
5.73551e-05 -0.000232881 -1.82558e-06
-4.26264e-06 -1.82558e-06 -0.000298036
0.00068914 3.16356e-06 -2.09137e-06
3.16356e-06 0.000175676 6.69899e-08
-2.09137e-06 6.69899e-08 3.53009e-05
0.00134217 -0.000187532 -5.04457e-06
-0.000187532 0.000610315 2.16e-06
-5.04457e-06 2.16e-06 0.000384154
0.000895385 -7.19355e-05 -2.13777e-06
-7.19355e-05 0.000272642 -1.09709e-06
-2.13777e-06 -1.09709e-06 1.20662e-06
0.00175016 -0.000489015 -3.26012e-06
-0.000489015 0.000567365 1.89304e-06
-3.26012e-06 1.89304e-06 0.000211561
0.00158411 -0.000399414 -1.09739e-05
-0.000399414 0.000588278 1.50452e-05
-1.09739e-05 1.50452e-05 0.000203577
0.000480431 1.51504e-05 -1.88664e-06
1.51504e-05 -1.59471e-05 -3.91274e-06
-1.88664e-06 -3.91274e-06 -9.2222e-05
0.000229263 8.41351e-06 1.42139e-06
8.41351e-06 -0.000148036 -2.1134e-06
1.42139e-06 -2.1134e-06 -0.000272415
0.00189846 0.000399561 -2.28479e-06
0.000399561 0.000114288 -7.36493e-07
-2.28479e-06 -7.36493e-07 -5.13325e-05
0.00022621 5.46285e-05 6.69948e-07
5.46285e-05 -0.000121096 -2.30077e-07
6.69948e-07 -2.30077e-07 -0.000346559
0.00143578 0.000349345 -1.37185e-06
0.000349345 0.000433959 -7.15836e-07
-1.37185e-06 -7.15836e-07 0.000183351
-2.37749e-05 0.000133349 3.70033e-06
0.000133349 -0.000446146 3.30012e-06
3.70033e-06 3.30012e-06 -0.000618635
0.001969 0.000526366 1.29785e-06
0.000526366 0.000266695 7.87294e-07
1.29785e-06 7.87294e-07 1.63012e-05
0.00196026 0.000503762 -5.07288e-06
0.000503762 0.000170173 3.36951e-07
-5.07288e-06 3.36951e-07 -3.83285e-05
0.0015858 0.000510938 -1.67345e-06
0.000510938 0.000463259 2.80584e-06
-1.67345e-06 2.80584e-06 0.000109365
0.00200909 0.000590145 -4.32479e-06
0.000590145 0.000492183 5.46978e-08
-4.32479e-06 5.46978e-08 0.000170399
0.000688849 4.52498e-05 -8.7546e-07
4.52498e-05 0.000139719 1.05602e-07
-8.7546e-07 1.05602e-07 2.36595e-05
0.000362342 5.51201e-05 9.58423e-07
5.51201e-05 -2.08843e-06 4.98171e-07
9.58423e-07 4.98171e-07 -0.000206776
0.0013925 0.000382108 -1.498e-06
0.000382108 0.000379844 -1.30051e-06
-1.498e-06 -1.30051e-06 9.91202e-05
0.000269549 9.93039e-05 -8.66776e-07
9.93039e-05 -0.000156216 -1.46411e-06
-8.66776e-07 -1.46411e-06 -0.000353502
0.00116583 0.000296492 1.51671e-06
0.000296492 0.000214979 -2.95849e-06
1.51671e-06 -2.95849e-06 6.47477e-06
0.00208018 0.000445302 -2.87883e-06
0.000445302 0.000137964 -1.20728e-06
-2.87883e-06 -1.20728e-06 -7.15883e-06
0.00219541 0.000586179 2.51194e-06
0.000586179 0.000382869 -3.35576e-07
2.51194e-06 -3.35576e-07 0.000115799
0.00201532 0.000550681 3.05903e-06
0.000550681 0.00017668 2.82664e-06
3.05903e-06 2.82664e-06 -5.13702e-05
0.00124148 0.000487735 3.69428e-06
0.000487735 0.000235237 1.85873e-06
3.69428e-06 1.85873e-06 -0.000119919
0.00177484 0.000627898 -4.44365e-06
0.000627898 0.000343136 -3.89157e-08
-4.44365e-06 -3.89157e-08 9.77468e-07
-0.000318508 9.67413e-06 -1.39855e-06
9.67413e-06 -0.000472695 4.18321e-06
-1.39855e-06 4.18321e-06 -0.000587129
-0.000115682 0.000143328 2.2067e-06
0.000143328 -0.000242 3.04312e-06
2.2067e-06 3.04312e-06 -0.000501644
0.0011404 0.000374144 1.22484e-06
0.000374144 0.000218885 -1.0879e-06
1.22484e-06 -1.0879e-06 -7.64333e-05
-0.000280585 0.000140861 1.54126e-06
0.000140861 -0.00061697 1.10985e-07
1.54126e-06 1.10985e-07 -0.000809047
0.00213327 0.000447182 2.56987e-06
0.000447182 -8.96039e-05 1.5375e-06
2.56987e-06 1.5375e-06 -0.000101634
0.0027522 0.00056516 4.33505e-06
0.00056516 0.00054723 3.61286e-07
4.33505e-06 3.61286e-07 0.000357854
0.00202701 0.000652534 -3.99017e-06
0.000652534 0.000313384 -4.10345e-06
-3.99017e-06 -4.10345e-06 -5.76723e-06
0.00151014 0.000586981 9.14384e-07
0.000586981 0.00029228 -9.06096e-08
9.14384e-07 -9.06096e-08 -8.69164e-05
0.000650549 9.49338e-05 -8.02154e-07
9.49338e-05 0.000117508 -1.51156e-06
-8.02154e-07 -1.51156e-06 5.84489e-06
0.000592044 7.86638e-05 -4.81472e-07
7.86638e-05 7.90277e-05 -1.54076e-07
-4.81472e-07 -1.54076e-07 -3.51967e-05
0.00102835 7.7124e-05 -5.49164e-06
7.7124e-05 0.000348795 -2.25809e-06
-5.49164e-06 -2.25809e-06 0.000247993
0.000587231 3.66887e-05 -1.31538e-06
3.66887e-05 6.40657e-05 -2.4748e-06
-1.31538e-06 -2.4748e-06 -2.8108e-05
0.000229783 3.07861e-05 -2.28971e-07
3.07861e-05 -0.000146749 -5.63937e-07
-2.28971e-07 -5.63937e-07 -0.000251282
0.000616973 4.60516e-05 -4.30621e-07
4.60516e-05 9.75683e-05 1.13832e-07
-4.30621e-07 1.13832e-07 -2.59356e-06
0.000573226 0.000113761 -1.00885e-06
0.000113761 9.60367e-05 5.54466e-07
-1.00885e-06 5.54466e-07 -2.24257e-05
0.000516301 4.37115e-05 1.04045e-06
4.37115e-05 5.26778e-05 1.05618e-07
1.04045e-06 1.05618e-07 -7.57532e-05
0.00061299 8.58296e-05 2.87656e-06
8.58296e-05 8.98653e-05 -1.00652e-06
2.87656e-06 -1.00652e-06 3.26414e-06
0.00075506 4.61418e-06 3.26532e-06
4.61418e-06 0.000196902 -3.7337e-06
3.26532e-06 -3.7337e-06 7.31201e-05
0.000341696 6.44669e-05 4.13881e-07
6.44669e-05 -5.52886e-05 1.8132e-06
4.13881e-07 1.8132e-06 -0.000183193
0.000668816 0.00010196 2.26703e-06
0.00010196 0.000131657 3.22362e-06
2.26703e-06 3.22362e-06 2.7253e-05
0.000487002 6.97697e-05 3.12064e-06
6.97697e-05 8.1267e-06 3.25981e-06
3.12064e-06 3.25981e-06 -6.3268e-05
0.000491333 1.0225e-05 -1.51026e-06
1.0225e-05 3.54132e-06 -2.2807e-07
-1.51026e-06 -2.2807e-07 -6.08604e-05
0.00120637 2.80289e-06 1.50054e-06
2.80289e-06 0.000414717 2.71345e-06
1.50054e-06 2.71345e-06 0.000400223
0.000490608 -4.52356e-05 -3.70773e-08
-4.52356e-05 -1.92308e-06 -2.91469e-06
-3.70773e-08 -2.91469e-06 -6.36913e-05
0.00128885 -9.50925e-06 -5.66286e-06
-9.50925e-06 0.000460759 -1.63294e-06
-5.66286e-06 -1.63294e-06 0.000446531
0.000777081 -1.96085e-05 2.26634e-05
-1.96085e-05 0.000142288 8.8518e-06
2.26634e-05 8.8518e-06 0.000148597
0.00133197 -2.15769e-05 -9.68547e-06
-2.15769e-05 0.000485352 -6.26669e-06
-9.68547e-06 -6.26669e-06 0.000470447
0.000759911 -3.17691e-05 8.39903e-06
-3.17691e-05 0.000129886 3.32172e-06
8.39903e-06 3.32172e-06 0.000134314
0.000720029 -4.18517e-05 -1.25143e-07
-4.18517e-05 0.000109128 -2.79883e-06
-1.25143e-07 -2.79883e-06 0.00011069
0.000425961 4.06988e-05 -6.18574e-07
4.06988e-05 -6.23989e-05 -3.38058e-06
-6.18574e-07 -3.38058e-06 -8.20908e-05
0.000434185 7.01851e-05 -2.5239e-07
7.01851e-05 -3.21505e-05 2.40576e-07
-2.5239e-07 2.40576e-07 -6.78123e-05
0.00239687 0.000106418 1.31923e-05
0.000106418 0.00118115 -4.27394e-06
1.31923e-05 -4.27394e-06 0.00118225
0.000530892 2.47427e-05 -4.52015e-06
2.47427e-05 3.00768e-05 8.2902e-06
-4.52015e-06 8.2902e-06 -1.49409e-05
0.00289172 0.000141705 -4.89585e-06
0.000141705 0.00149815 -5.80152e-07
-4.89585e-06 -5.80152e-07 0.00148952
0.00364067 8.45864e-05 -0.000118289
8.45864e-05 0.00195908 9.19051e-06
-0.000118289 9.19051e-06 0.00196342
0.00191375 0.00031428 -9.28017e-07
0.00031428 7.9939e-05 1.35893e-06
-9.28017e-07 1.35893e-06 -4.09532e-05
0.00202922 0.000184543 -5.27006e-06
0.000184543 6.26766e-05 -5.9044e-07
-5.27006e-06 -5.9044e-07 1.63843e-05
0.00203077 0.000274189 -4.32538e-07
0.000274189 1.59775e-05 -2.91782e-07
-4.32538e-07 -2.91782e-07 -2.47546e-05
0.00195887 0.000115771 -3.02106e-06
0.000115771 -1.6363e-05 -5.26349e-07
-3.02106e-06 -5.26349e-07 -1.72038e-05
0.00196807 5.06808e-05 -5.30113e-06
5.06808e-05 6.01142e-05 -2.59696e-07
-5.30113e-06 -2.59696e-07 2.99404e-05
0.00187841 -7.05659e-06 -3.90271e-06
-7.05659e-06 4.5102e-05 1.98391e-07
-3.90271e-06 1.98391e-07 -1.17253e-05
0.00191933 -7.9192e-06 -3.06876e-07
-7.9192e-06 3.16864e-05 -3.89565e-08
-3.06876e-07 -3.89565e-08 4.46701e-06
0.00198555 5.66789e-05 1.11804e-06
5.66789e-05 8.50803e-06 1.57423e-07
1.11804e-06 1.57423e-07 9.1107e-06
0.00205752 0.000188089 9.30895e-07
0.000188089 1.36809e-05 2.06545e-07
9.30895e-07 2.06545e-07 5.32632e-06
0.00210456 0.000349916 7.18644e-07
0.000349916 7.12588e-05 3.16371e-07
7.18644e-07 3.16371e-07 -1.26948e-06
0.00196914 -1.38648e-05 1.96492e-06
-1.38648e-05 7.72691e-06 -2.63631e-08
1.96492e-06 -2.63631e-08 5.07932e-06
0.00210591 0.000106977 5.14166e-07
0.000106977 -2.49955e-05 -2.28804e-07
5.14166e-07 -2.28804e-07 1.02137e-05
0.00226279 0.000288326 2.10858e-06
0.000288326 4.41398e-05 8.36231e-07
2.10858e-06 8.36231e-07 3.8561e-05
0.00190584 -7.69146e-05 -5.34923e-06
-7.69146e-05 1.91227e-06 1.2471e-07
-5.34923e-06 1.2471e-07 -2.13807e-05
0.00197833 -0.000168767 -3.16822e-06
-0.000168767 3.97731e-05 2.05231e-07
-3.16822e-06 2.05231e-07 3.16857e-06
0.00201427 -0.000304291 -3.03035e-06
-0.000304291 5.13578e-05 7.6735e-07
-3.03035e-06 7.6735e-07 1.59723e-07
0.0011138 -0.000384843 -3.5609e-06
-0.000384843 0.00018925 1.80731e-06
-3.5609e-06 1.80731e-06 -0.000115547
0.00143185 -0.00055478 8.9478e-06
-0.00055478 0.000272204 -2.97914e-06
8.9478e-06 -2.97914e-06 -9.93932e-05
0.00176108 -0.000658187 -1.66161e-06
-0.000658187 0.000257601 7.96833e-07
-1.66161e-06 7.96833e-07 -0.000113024
0.00190352 -0.000384594 -1.42433e-06
-0.000384594 6.06626e-05 1.13046e-06
-1.42433e-06 1.13046e-06 -4.23556e-05
0.00194388 -0.000503128 1.62808e-06
-0.000503128 0.00013813 1.69771e-06
1.62808e-06 1.69771e-06 -2.75409e-05
0.00211754 -0.000567515 5.25722e-06
-0.000567515 0.00031608 -6.78863e-06
5.25722e-06 -6.78863e-06 6.93244e-05
0.00114494 -0.000367385 2.18405e-06
-0.000367385 0.00022385 2.28409e-06
2.18405e-06 2.28409e-06 -7.5419e-05
0.000825099 -0.000328841 -8.68552e-06
-0.000328841 7.35306e-05 8.94384e-08
-8.68552e-06 8.94384e-08 -0.000225043
0.00215779 -0.000394533 1.57137e-06
-0.000394533 0.00104903 -1.43506e-06
1.57137e-06 -1.43506e-06 0.000700879
0.000345721 4.61025e-05 2.63818e-06
4.61025e-05 -8.38243e-05 1.07768e-06
2.63818e-06 1.07768e-06 -0.00016631
0.0011157 -0.00016818 3.6592e-06
-0.00016818 0.000432624 2.39611e-06
3.6592e-06 2.39611e-06 0.000201443
8.31771e-05 3.42433e-05 5.55276e-06
3.42433e-05 -0.00019733 6.84276e-07
5.55276e-06 6.84276e-07 -0.000374125
0.0019892 -8.53255e-05 -4.93073e-07
-8.53255e-05 1.74762e-05 1.21629e-07
-4.93073e-07 1.21629e-07 1.45373e-05
0.00206058 -0.000222877 1.06514e-07
-0.000222877 -1.72175e-05 -4.47909e-08
1.06514e-07 -4.47909e-08 -1.08359e-05
0.00207446 -0.000370631 -6.08311e-07
-0.000370631 3.88457e-05 2.81054e-07
-6.08311e-07 2.81054e-07 9.63371e-06
0.00148103 -0.000492261 -1.4465e-06
-0.000492261 0.000395709 1.85472e-08
-1.4465e-06 1.85472e-08 4.47259e-05
0.00140713 -0.000630409 2.30979e-06
-0.000630409 0.000222372 -1.2384e-06
2.30979e-06 -1.2384e-06 -0.000189487
0.00229736 -0.000729692 -5.00463e-06
-0.000729692 0.000563619 4.41589e-07
-5.00463e-06 4.41589e-07 0.000183335
0.00208708 -0.000472261 5.31614e-07
-0.000472261 8.08874e-05 -5.05153e-07
5.31614e-07 -5.05153e-07 -1.32821e-05
0.00193732 -0.000578673 1.49217e-06
-0.000578673 0.000147789 -2.61541e-06
1.49217e-06 -2.61541e-06 -6.7481e-05
0.000346135 5.95657e-05 -1.18789e-06
5.95657e-05 -8.81395e-05 -1.09423e-06
-1.18789e-06 -1.09423e-06 -0.000148895
0.000657684 -1.61975e-05 -8.40548e-07
-1.61975e-05 0.000151125 3.95072e-07
-8.40548e-07 3.95072e-07 1.47384e-05
0.00079936 -0.000387451 -4.72485e-06
-0.000387451 -7.60465e-06 2.18666e-06
-4.72485e-06 2.18666e-06 -0.000335542
0.00164582 -0.000376734 3.35209e-06
-0.000376734 0.000656721 -3.20566e-07
3.35209e-06 -3.20566e-07 0.000271305
0.00133114 -0.000141573 -1.64733e-07
-0.000141573 0.0005479 -2.03174e-06
-1.64733e-07 -2.03174e-06 0.000271379
0.000837808 -0.000135569 -5.29896e-07
-0.000135569 0.000292906 8.67938e-07
-5.29896e-07 8.67938e-07 7.33791e-05
0.00205815 -0.0001162 -8.33894e-07
-0.0001162 -2.78941e-05 1.13352e-07
-8.33894e-07 1.13352e-07 4.35389e-06
0.00217967 -0.00031899 -1.57303e-06
-0.00031899 -4.36698e-05 7.26483e-07
-1.57303e-06 7.26483e-07 4.07355e-06
0.00216699 -0.000435498 1.62929e-06
-0.000435498 5.44661e-05 -1.18129e-07
1.62929e-06 -1.18129e-07 3.52884e-05
0.00238207 -0.000634258 7.40804e-06
-0.000634258 0.000246382 -2.32546e-06
7.40804e-06 -2.32546e-06 9.85837e-05
0.000565666 -0.000446568 -2.02338e-07
-0.000446568 -0.000156343 -4.85944e-06
-2.02338e-07 -4.85944e-06 -0.000523154
0.00234839 -0.000770604 -1.69688e-07
-0.000770604 0.000518414 9.77308e-06
-1.69688e-07 9.77308e-06 0.000160474
0.00232933 -0.000790815 -1.448e-05
-0.000790815 0.000708706 -3.52295e-06
-1.448e-05 -3.52295e-06 0.000241556
0.000579701 4.86763e-05 5.42648e-07
4.86763e-05 3.90821e-05 -6.16332e-07
5.42648e-07 -6.16332e-07 -7.04752e-06
0.000667913 -0.000133044 4.50312e-06
-0.000133044 0.000144075 -2.1464e-06
4.50312e-06 -2.1464e-06 4.66983e-05
0.000283386 7.27616e-05 -5.80444e-06
7.27616e-05 -9.11612e-05 9.61154e-07
-5.80444e-06 9.61154e-07 -0.000190285
0.000791024 -5.14582e-05 -4.03716e-06
-5.14582e-05 0.000260065 4.93795e-06
-4.03716e-06 4.93795e-06 7.70051e-05
0.000327726 -8.40282e-05 2.00192e-06
-8.40282e-05 -6.62015e-05 -3.45447e-06
2.00192e-06 -3.45447e-06 -0.000282703
-0.000824302 -1.65632e-05 2.3029e-06
-1.65632e-05 -0.000740867 -1.73557e-07
2.3029e-06 -1.73557e-07 -0.00107832
0.0014637 -0.00048314 -1.84503e-05
-0.00048314 0.000393755 1.21789e-05
-1.84503e-05 1.21789e-05 5.01342e-05
0.00298425 -0.000524587 -2.10985e-05
-0.000524587 0.00158859 1.26545e-05
-2.10985e-05 1.26545e-05 0.00102259
0.000602699 1.47867e-05 -5.10596e-07
1.47867e-05 7.97956e-05 -1.62721e-06
-5.10596e-07 -1.62721e-06 -2.78632e-05
0.000763772 0.000131566 -5.9251e-08
0.000131566 0.000247865 -1.25554e-06
-5.9251e-08 -1.25554e-06 3.1502e-05
0.00223739 0.000457093 -2.41055e-06
0.000457093 0.000224228 -1.31495e-06
-2.41055e-06 -1.31495e-06 8.11032e-05
0.000570251 0.00015115 -2.906e-06
0.00015115 4.41591e-05 2.55929e-06
-2.906e-06 2.55929e-06 -0.00016856
0.00143514 0.000386219 -1.54422e-06
0.000386219 0.000406836 7.07581e-07
-1.54422e-06 7.07581e-07 0.00012429
0.000702355 0.000251054 -3.83233e-06
0.000251054 -7.88946e-05 -5.42436e-06
-3.83233e-06 -5.42436e-06 -0.000275953
0.00228106 0.000581222 -4.19349e-06
0.000581222 0.000441686 -4.51311e-07
-4.19349e-06 -4.51311e-07 0.000181166
0.00219028 0.000571838 -7.79546e-06
0.000571838 0.00027014 4.90773e-06
-7.79546e-06 4.90773e-06 3.76677e-05
0.00165056 0.000539854 -1.43219e-06
0.000539854 0.000482319 1.07195e-06
-1.43219e-06 1.07195e-06 0.000116521
0.00158357 0.000627503 -6.93439e-07
0.000627503 0.00022663 -3.54009e-09
-6.93439e-07 -3.54009e-09 -0.000122926
6.83049e-05 4.12514e-05 3.4081e-08
4.12514e-05 -0.000228306 1.4604e-06
3.4081e-08 1.4604e-06 -0.000355283
0.000262641 0.000177077 -8.71562e-07
0.000177077 -1.56771e-05 -3.35176e-06
-8.71562e-07 -3.35176e-06 -0.000273742
0.0015012 0.000422668 1.69344e-06
0.000422668 0.000426483 -3.9073e-07
1.69344e-06 -3.9073e-07 0.000120692
0.000823762 0.000242443 -1.93936e-06
0.000242443 6.28385e-05 7.22371e-07
-1.93936e-06 7.22371e-07 -0.00014522
0.00221803 0.000435177 8.1424e-07
0.000435177 -4.92265e-05 -1.04859e-06
8.1424e-07 -1.04859e-06 -5.88333e-05
0.00249889 0.000557823 3.19788e-06
0.000557823 0.000402619 5.10005e-07
3.19788e-06 5.10005e-07 0.000208916
0.00199792 0.000638513 -2.37618e-07
0.000638513 0.000298839 5.65007e-07
-2.37618e-07 5.65007e-07 -1.39913e-05
0.00163329 0.000599347 7.93706e-07
0.000599347 0.000347171 4.20821e-07
7.93706e-07 4.20821e-07 -2.94451e-05
-4.28603e-05 4.76218e-05 -1.05024e-06
4.76218e-05 -0.000301768 4.61777e-06
-1.05024e-06 4.61777e-06 -0.000436929
0.00215843 0.000343257 6.58373e-06
0.000343257 -0.000143908 3.56565e-06
6.58373e-06 3.56565e-06 -8.71525e-05
0.00210136 0.000409381 6.78362e-06
0.000409381 0.00105369 8.70823e-06
6.78362e-06 8.70823e-06 0.000756856
0.00131615 0.00042368 1.59369e-06
0.00042368 0.000271501 -9.10634e-07
1.59369e-06 -9.10634e-07 -2.05754e-05
0.00258099 0.000544278 -1.68428e-05
0.000544278 0.000302536 -6.98293e-06
-1.68428e-05 -6.98293e-06 0.000203757
0.00108048 0.000590017 -9.16363e-06
0.000590017 -0.000322296 -8.6278e-06
-9.16363e-06 -8.6278e-06 -0.000617752
0.00222827 0.000691841 -2.50736e-06
0.000691841 0.00063413 2.66301e-06
-2.50736e-06 2.66301e-06 0.000232404
0.000781154 9.62164e-05 -1.304e-06
9.62164e-05 0.000194786 -1.27732e-06
-1.304e-06 -1.27732e-06 7.99856e-05
0.000649841 9.04666e-05 -2.80547e-06
9.04666e-05 0.00012653 -8.93398e-07
-2.80547e-06 -8.93398e-07 2.01757e-05
0.00149415 9.52861e-05 -3.13997e-06
9.52861e-05 0.000651664 -2.08934e-06
-3.13997e-06 -2.08934e-06 0.000566713
0.000536442 4.5544e-06 2.26317e-07
4.5544e-06 5.06594e-05 -3.20619e-06
2.26317e-07 -3.20619e-06 -5.10078e-05
0.000693265 7.64473e-05 1.63481e-06
7.64473e-05 0.000165788 -3.40801e-07
1.63481e-06 -3.40801e-07 3.35012e-05
6.50641e-05 5.84373e-05 -1.41494e-06
5.84373e-05 -0.00020093 3.62729e-06
-1.41494e-06 3.62729e-06 -0.000311426
0.000574355 1.77064e-05 -1.14645e-06
1.77064e-05 8.05019e-05 1.57847e-08
-1.14645e-06 1.57847e-08 -2.78051e-05
0.000340533 -1.57739e-05 -9.06757e-07
-1.57739e-05 -4.35906e-05 5.56137e-08
-9.06757e-07 5.56137e-08 -0.000176873
0.000188161 3.6999e-05 8.11925e-07
3.6999e-05 -0.000156456 5.76527e-07
8.11925e-07 5.76527e-07 -0.000234291
0.000773098 7.70651e-05 8.72717e-07
7.70651e-05 0.000222422 -9.39205e-07
8.72717e-07 -9.39205e-07 8.60819e-05
0.00154374 0.00010635 -9.12838e-08
0.00010635 0.000646003 -2.37935e-06
-9.12838e-08 -2.37935e-06 0.000591869
0.000524551 1.17774e-05 8.29486e-06
1.17774e-05 4.55262e-05 -4.11113e-06
8.29486e-06 -4.11113e-06 -4.31761e-05
0.000357547 8.82288e-05 3.7644e-07
8.82288e-05 -2.51798e-05 1.93071e-06
3.7644e-07 1.93071e-06 -0.000171291
0.000605907 4.39431e-05 2.30229e-06
4.39431e-05 0.000119182 2.97158e-06
2.30229e-06 2.97158e-06 -2.99711e-05
0.000597382 3.50214e-05 2.46662e-06
3.50214e-05 8.7876e-05 3.01712e-06
2.46662e-06 3.01712e-06 -2.1578e-05
0.000486764 -4.966e-05 -2.16908e-07
-4.966e-05 7.06123e-06 3.04463e-06
-2.16908e-07 3.04463e-06 -6.59161e-05
0.000510407 5.66477e-06 -6.15161e-08
5.66477e-06 1.65747e-05 -2.62725e-07
-6.15161e-08 -2.62725e-07 -5.02203e-05
0.00127891 1.91197e-05 2.4492e-06
1.91197e-05 0.000466984 2.78666e-06
2.4492e-06 2.78666e-06 0.000450284
0.000513757 -7.03565e-06 2.0262e-07
-7.03565e-06 1.07647e-05 -3.10913e-06
2.0262e-07 -3.10913e-06 -4.90707e-05
0.00129236 5.92129e-06 -4.73817e-06
5.92129e-06 0.000468156 -1.64147e-06
-4.73817e-06 -1.64147e-06 0.000453499
0.000749408 -1.13601e-05 1.77582e-05
-1.13601e-05 0.000128612 8.67265e-06
1.77582e-05 8.67265e-06 0.000135137
0.00134581 -9.67792e-06 -7.56719e-06
-9.67792e-06 0.000496056 -6.28324e-06
-7.56719e-06 -6.28324e-06 0.000481925
0.000780939 -2.25224e-05 6.20924e-06
-2.25224e-05 0.000142184 3.39428e-06
6.20924e-06 3.39428e-06 0.000147667
0.00074836 -3.22883e-05 -5.49494e-08
-3.22883e-05 0.000120893 -2.65177e-06
-5.49494e-08 -2.65177e-06 0.000125055
0.000642762 -3.12627e-06 1.819e-06
-3.12627e-06 7.53478e-05 -1.76115e-06
1.819e-06 -1.76115e-06 3.13013e-05
0.000463354 2.85875e-05 4.28556e-07
2.85875e-05 -5.0647e-05 -3.38502e-06
4.28556e-07 -3.38502e-06 -6.44231e-05
0.000471795 4.40697e-05 3.92395e-07
4.40697e-05 -3.20565e-05 2.41642e-07
3.92395e-07 2.41642e-07 -5.29526e-05
0.00216191 8.26884e-05 1.45572e-05
8.26884e-05 0.00102462 -4.07824e-06
1.45572e-05 -4.07824e-06 0.00103223
0.000498589 6.8342e-05 5.71793e-06
6.8342e-05 6.11238e-06 6.66974e-06
5.71793e-06 6.66974e-06 -2.96185e-05
0.00254049 0.000113201 -5.51302e-06
0.000113201 0.00127121 -5.5494e-07
-5.51302e-06 -5.5494e-07 0.00127068
0.00305737 0.000120036 -3.71688e-05
0.000120036 0.00159428 5.00829e-06
-3.71688e-05 5.00829e-06 0.00159019
0.00212305 0.000344681 -2.29248e-08
0.000344681 7.33169e-05 -1.15726e-07
-2.29248e-08 -1.15726e-07 1.01823e-06
0.00205502 0.000192868 -2.37858e-06
0.000192868 1.56534e-05 -5.59112e-07
-2.37858e-06 -5.59112e-07 6.76271e-06
0.00199139 6.03581e-05 -2.88012e-06
6.03581e-05 1.80325e-05 -2.32538e-07
-2.88012e-06 -2.32538e-07 1.69674e-05
0.00191961 -5.7224e-06 -5.35156e-06
-5.7224e-06 3.21043e-05 -2.26686e-07
-5.35156e-06 -2.26686e-07 5.71332e-06
0.00196135 -8.87375e-06 -9.14867e-07
-8.87375e-06 2.8104e-07 2.88648e-09
-9.14867e-07 2.88648e-09 4.1295e-07
0.00208692 9.99828e-05 -8.03378e-08
9.99828e-05 -2.74319e-05 1.36847e-07
-8.03378e-08 1.36847e-07 4.79658e-06
0.00219397 0.000293343 -1.10196e-06
0.000293343 8.61488e-06 -5.12052e-08
-1.10196e-06 -5.12052e-08 4.72649e-06
0.00206496 -1.05295e-05 -6.07144e-07
-1.05295e-05 -4.27573e-05 -3.9907e-07
-6.07144e-07 -3.9907e-07 -2.72568e-07
0.00226757 0.000152976 4.70346e-06
0.000152976 -3.20134e-05 -4.19145e-07
4.70346e-06 -4.19145e-07 1.13944e-05
0.00243721 0.000103739 5.98665e-06
0.000103739 0.000148355 1.24758e-05
5.98665e-06 1.24758e-05 0.000216608
0.00200504 -8.48352e-05 -3.2891e-06
-8.48352e-05 2.7206e-05 1.08909e-07
-3.2891e-06 1.08909e-07 2.22079e-05
0.00204097 -0.000230714 -1.64439e-06
-0.000230714 -3.30395e-05 1.97291e-08
-1.64439e-06 1.97291e-08 -2.52773e-05
0.00205322 -0.0003644 -1.20992e-06
-0.0003644 3.25663e-05 8.04174e-08
-1.20992e-06 8.04174e-08 8.42911e-07
0.00123803 -0.000467043 2.80707e-06
-0.000467043 0.000243989 1.10438e-07
2.80707e-06 1.10438e-07 -0.000101646
0.00165985 -0.000653113 8.33379e-06
-0.000653113 0.00036973 4.24386e-07
8.33379e-06 4.24386e-07 -4.59363e-05
0.0020208 -0.000686698 1.61534e-06
-0.000686698 0.000412077 -1.19125e-07
1.61534e-06 -1.19125e-07 4.94059e-05
0.00200224 -0.000475257 -2.33163e-08
-0.000475257 3.31147e-05 2.32698e-06
-2.33163e-08 2.32698e-06 -6.6155e-05
0.00193613 -0.000572685 -4.18144e-06
-0.000572685 0.000153559 -1.1577e-06
-4.18144e-06 -1.1577e-06 -5.87217e-05
0.000626416 -0.000364512 -5.3902e-06
-0.000364512 -0.00010677 -4.16466e-06
-5.3902e-06 -4.16466e-06 -0.000429414
0.00205673 -0.000394507 1.57428e-05
-0.000394507 0.000954086 -9.44231e-06
1.57428e-05 -9.44231e-06 0.000552146
0.00113827 -8.30258e-05 -3.11307e-07
-8.30258e-05 0.000407852 2.41081e-06
-3.11307e-07 2.41081e-06 0.000152198
0.000451002 1.68081e-05 1.81909e-06
1.68081e-05 -2.59438e-05 -7.8939e-08
1.81909e-06 -7.8939e-08 -8.22802e-05
0.000787547 3.94189e-05 5.63063e-06
3.94189e-05 0.000226571 3.43695e-07
5.63063e-06 3.43695e-07 8.98118e-05
0.000593071 -9.3569e-05 1.30761e-06
-9.3569e-05 0.000135181 3.39784e-06
1.30761e-06 3.39784e-06 -8.23148e-05
0.00206742 -0.000119048 5.78232e-07
-0.000119048 -3.05075e-05 -4.03999e-08
5.78232e-07 -4.03999e-08 3.86898e-06
0.000511071 1.33218e-05 1.45105e-06
1.33218e-05 -2.37387e-06 2.70183e-07
1.45105e-06 2.70183e-07 -4.83437e-05
0.000439208 -6.72798e-05 -1.94494e-06
-6.72798e-05 -2.45414e-05 -3.47535e-07
-1.94494e-06 -3.47535e-07 -0.000104298
0.00216408 -0.000308691 -2.40355e-07
-0.000308691 -3.28731e-05 1.85083e-07
-2.40355e-07 1.85083e-07 8.29874e-06
0.0021047 -0.000426013 -1.49337e-06
-0.000426013 2.01981e-05 1.41193e-07
-1.49337e-06 1.41193e-07 7.99076e-06
0.00168756 -0.000577539 -1.77947e-06
-0.000577539 0.000489758 1.13955e-06
-1.77947e-06 1.13955e-06 9.419e-05
0.00184378 -0.000732921 2.77307e-06
-0.000732921 0.000452058 1.26365e-06
2.77307e-06 1.26365e-06 -1.07201e-05
0.00184524 -0.000715307 4.47253e-06
-0.000715307 0.000230171 -3.84931e-06
4.47253e-06 -3.84931e-06 -0.000113635
0.00217286 -0.000614847 2.88876e-06
-0.000614847 0.000135019 -9.8436e-07
2.88876e-06 -9.8436e-07 -7.29939e-06
0.00066956 6.81995e-07 -1.89436e-07
6.81995e-07 0.000156416 -1.37962e-06
-1.89436e-07 -1.37962e-06 5.2592e-05
0.000696918 -3.9289e-05 4.50278e-07
-3.9289e-05 0.000200125 1.83138e-06
4.50278e-07 1.83138e-06 1.74046e-05
0.00161314 -0.000484295 3.66721e-06
-0.000484295 0.000487769 8.36429e-07
3.66721e-06 8.36429e-07 0.000133301
0.00134665 -0.000351021 1.46565e-05
-0.000351021 0.000592553 -4.36752e-06
1.46565e-05 -4.36752e-06 0.000108278
0.000591218 -7.75514e-05 -3.34251e-06
-7.75514e-05 7.35823e-05 -1.05576e-06
-3.34251e-06 -1.05576e-06 -0.000226851
0.000535868 -5.95821e-05 9.9515e-07
-5.95821e-05 7.51305e-05 -2.04353e-06
9.9515e-07 -2.04353e-06 -0.000153614
0.00209514 -0.000138065 2.07551e-06
-0.000138065 -0.000127919 -1.17112e-06
2.07551e-06 -1.17112e-06 -8.08475e-05
0.00214819 -0.000393805 -1.78426e-06
-0.000393805 -0.000175544 2.06342e-06
-1.78426e-06 2.06342e-06 -1.03469e-05
0.00227602 -0.000578259 -5.34963e-06
-0.000578259 6.05657e-05 8.67176e-07
-5.34963e-06 8.67176e-07 1.86105e-05
0.00215062 -0.000778363 6.93057e-06
-0.000778363 0.000210936 -3.39784e-06
6.93057e-06 -3.39784e-06 3.0735e-06
0.00112233 -0.000543457 -1.10942e-06
-0.000543457 0.000198872 -1.08293e-05
-1.10942e-06 -1.08293e-05 -0.000206653
0.0025512 -0.000887739 -1.1651e-05
-0.000887739 0.000769184 1.14302e-05
-1.1651e-05 1.14302e-05 0.000270745
0.000207933 4.76416e-05 -1.46523e-06
4.76416e-05 -0.000156048 -3.58216e-06
-1.46523e-06 -3.58216e-06 -0.000243754
0.000595971 -5.50273e-05 5.16148e-06
-5.50273e-05 7.18529e-05 -1.21712e-08
5.16148e-06 -1.21712e-08 -3.67921e-06
0.00103783 -0.000136823 8.69945e-07
-0.000136823 0.0003393 6.5384e-06
8.69945e-07 6.5384e-06 0.000234844
0.000535709 2.69892e-05 -4.04959e-06
2.69892e-05 8.1842e-05 7.88623e-06
-4.04959e-06 7.88623e-06 -6.65959e-05
0.000803047 -9.28587e-05 -5.00122e-06
-9.28587e-05 0.00024163 7.84123e-06
-5.00122e-06 7.84123e-06 5.3565e-05
0.00145447 -4.45155e-05 6.84506e-06
-4.45155e-05 0.000544579 -4.46698e-06
6.84506e-06 -4.46698e-06 0.000325309
-0.00111195 -0.000195057 5.65245e-06
-0.000195057 -0.000590057 1.25622e-06
5.65245e-06 1.25622e-06 -0.00127808
-0.000190399 -0.000439503 -3.90579e-05
-0.000439503 -0.00062197 1.14087e-05
-3.90579e-05 1.14087e-05 -0.000949699
0.000444812 5.77493e-05 -6.75274e-07
5.77493e-05 1.36857e-05 -1.32702e-06
-6.75274e-07 -1.32702e-06 -0.000131289
0.00101959 0.000215834 -9.42571e-06
0.000215834 0.000430586 -6.61608e-06
-9.42571e-06 -6.61608e-06 0.000177861
0.00228593 0.000422395 -6.84333e-06
0.000422395 -1.14891e-05 -2.57127e-06
-6.84333e-06 -2.57127e-06 -2.03381e-05
0.0023417 0.000555754 -4.61596e-06
0.000555754 0.000316062 6.51395e-08
-4.61596e-06 6.51395e-08 0.000117299
0.0020556 0.000339673 -6.76302e-06
0.000339673 0.000804842 -1.22976e-06
-6.76302e-06 -1.22976e-06 0.000587009
0.00158521 0.000437315 -4.05618e-06
0.000437315 0.000469776 -3.36472e-06
-4.05618e-06 -3.36472e-06 0.000159872
0.00200844 0.000629215 1.24383e-06
0.000629215 0.000304689 2.0662e-06
1.24383e-06 2.0662e-06 -3.32445e-06
0.00179265 0.00061265 -1.58591e-06
0.00061265 0.000426258 -5.37882e-07
-1.58591e-06 -5.37882e-07 5.17479e-05
0.000466021 8.95054e-05 8.19975e-07
8.95054e-05 2.82954e-05 -1.17474e-06
8.19975e-07 -1.17474e-06 -0.000130607
0.00230356 0.000326618 -2.02809e-06
0.000326618 -5.37454e-05 -1.33645e-06
-2.02809e-06 -1.33645e-06 6.88435e-06
0.00142501 0.000294762 1.32303e-06
0.000294762 0.000615666 1.72085e-06
1.32303e-06 1.72085e-06 0.000351572
0.00154277 0.00044593 2.16878e-06
0.00044593 0.000425955 1.05879e-06
2.16878e-06 1.05879e-06 0.000124409
0.0025362 0.000541199 1.5627e-06
0.000541199 0.000285949 3.55206e-07
1.5627e-06 3.55206e-07 0.000188132
0.0016482 0.000634701 -1.87061e-06
0.000634701 3.87558e-06 -4.65581e-06
-1.87061e-06 -4.65581e-06 -0.000295429
0.00199053 0.000660561 4.55491e-07
0.000660561 0.000507212 3.68585e-07
4.55491e-07 3.68585e-07 0.000110568
0.00114026 0.000228773 -3.50475e-06
0.000228773 0.000486832 4.74582e-06
-3.50475e-06 4.74582e-06 0.000270222
0.00313913 0.000439499 -7.28885e-05
0.000439499 0.000475936 -1.95761e-05
-7.28885e-05 -1.95761e-05 0.000564426
0.00168022 0.000446777 -4.21259e-06
0.000446777 0.000677717 3.01895e-06
-4.21259e-06 3.01895e-06 0.000382099
0.00143505 0.000511023 -3.0382e-06
0.000511023 0.000281178 -5.83588e-06
-3.0382e-06 -5.83588e-06 -7.53051e-05
0.0019019 0.000671922 -3.48858e-05
0.000671922 1.82187e-05 -1.93435e-05
-3.48858e-05 -1.93435e-05 -0.000184306
0.00110016 0.000593377 -2.64778e-05
0.000593377 -5.39028e-05 -3.21258e-06
-2.64778e-05 -3.21258e-06 -0.00042545
0.000348498 0.00063817 2.79181e-05
0.00063817 -0.00144458 -3.54789e-05
2.79181e-05 -3.54789e-05 -0.00133218
0.000199131 0.000103128 2.06242e-06
0.000103128 -0.000131443 -6.63111e-07
2.06242e-06 -6.63111e-07 -0.000244591
0.00055746 9.88681e-05 -5.8136e-07
9.88681e-05 0.000114742 9.6169e-07
-5.8136e-07 9.6169e-07 2.28277e-05
0.00192728 0.000147443 1.75252e-06
0.000147443 0.000906376 -2.80696e-06
1.75252e-06 -2.80696e-06 0.000822698
0.000470191 -6.40077e-05 5.06791e-07
-6.40077e-05 2.53198e-05 -3.80249e-06
5.06791e-07 -3.80249e-06 -8.67916e-05
0.000466304 -4.23211e-05 -1.04259e-06
-4.23211e-05 3.12004e-05 -6.28553e-07
-1.04259e-06 -6.28553e-07 -9.90117e-05
0.000952893 0.000167504 1.28443e-08
0.000167504 0.000337393 9.3848e-07
1.28443e-08 9.3848e-07 0.000190179
-8.11321e-05 1.45161e-05 -4.38929e-06
1.45161e-05 -0.000304166 1.02667e-05
-4.38929e-06 1.02667e-05 -0.000380929
0.000553907 -1.52479e-05 -4.57827e-07
-1.52479e-05 7.66738e-05 -6.23834e-08
-4.57827e-07 -6.23834e-08 -4.13172e-05
0.000512712 6.12155e-05 1.42922e-07
6.12155e-05 4.35366e-05 -6.53641e-07
1.42922e-07 -6.53641e-07 -9.061e-05
0.00095437 8.62823e-05 2.15248e-06
8.62823e-05 0.000285068 3.92045e-06
2.15248e-06 3.92045e-06 0.000226552
0.00059244 5.57191e-05 1.4738e-06
5.57191e-05 0.000103272 7.64119e-07
1.4738e-06 7.64119e-07 -3.52252e-05
0.000662159 3.76137e-05 -1.64277e-06
3.76137e-05 0.000122775 -1.80786e-06
-1.64277e-06 -1.80786e-06 2.76941e-05
0.00158701 0.000111028 -6.06625e-07
0.000111028 0.00068953 -9.47112e-06
-6.06625e-07 -9.47112e-06 0.00063512
0.000898969 0.000114214 -2.12387e-06
0.000114214 0.000265533 -2.28667e-06
-2.12387e-06 -2.28667e-06 0.000121999
0.000938845 0.000118632 1.20401e-06
0.000118632 0.000307818 1.35229e-06
1.20401e-06 1.35229e-06 0.000163886
0.000825255 7.63042e-05 3.66222e-07
7.63042e-05 0.00025575 1.79017e-06
3.66222e-07 1.79017e-06 9.40772e-05
0.000328735 -2.35577e-05 5.87771e-08
-2.35577e-05 -7.98432e-05 3.21256e-06
5.87771e-08 3.21256e-06 -0.000195853
0.000983253 -4.62928e-05 -1.99091e-07
-4.62928e-05 0.000385153 -1.13526e-06
-1.99091e-07 -1.13526e-06 0.000216382
0.00025411 -3.5885e-05 -1.91825e-06
-3.5885e-05 -0.000122115 2.87173e-06
-1.91825e-06 2.87173e-06 -0.000242706
0.000480705 3.53754e-06 -2.03705e-06
3.53754e-06 8.16138e-06 3.14765e-06
-2.03705e-06 3.14765e-06 -6.9821e-05
0.000499534 3.48011e-05 2.33491e-06
3.48011e-05 1.72312e-05 -1.48383e-07
2.33491e-06 -1.48383e-07 -5.80699e-05
0.00040991 2.15549e-05 6.72989e-07
2.15549e-05 -6.49092e-05 4.26945e-06
6.72989e-07 4.26945e-06 -8.64949e-05
0.000472304 6.91075e-06 -2.96941e-06
6.91075e-06 -8.68278e-07 -3.32983e-06
-2.96941e-06 -3.32983e-06 -7.18454e-05
0.000892516 1.57143e-05 -3.1166e-06
1.57143e-05 0.000228047 -1.59256e-06
-3.1166e-06 -1.59256e-06 0.000209531
0.00256086 -8.16507e-06 1.52176e-05
-8.16507e-06 0.00125297 5.38685e-06
1.52176e-05 5.38685e-06 0.0012664
0.00137749 1.16166e-05 -7.43392e-06
1.16166e-05 0.000521481 -6.25426e-06
-7.43392e-06 -6.25426e-06 0.000506366
0.000771547 -1.28634e-05 4.94193e-06
-1.28634e-05 0.000139112 3.33839e-06
4.94193e-06 3.33839e-06 0.00014532
0.000779546 -2.25699e-05 4.54703e-07
-2.25699e-05 0.000138515 -2.52615e-06
4.54703e-07 -2.52615e-06 0.00014396
0.000518466 1.55706e-05 -1.57449e-06
1.55706e-05 5.03235e-06 -1.98978e-06
-1.57449e-06 -1.98978e-06 -3.95615e-05
0.000565032 -1.63618e-05 9.28103e-07
-1.63618e-05 2.92034e-05 -3.0587e-07
9.28103e-07 -3.0587e-07 -1.58737e-05
0.000522442 2.28595e-05 4.22652e-07
2.28595e-05 -1.72887e-05 -3.42665e-06
4.22652e-07 -3.42665e-06 -2.88098e-05
0.000804386 3.7111e-05 -1.65747e-07
3.7111e-05 0.000163254 9.61612e-08
-1.65747e-07 9.61612e-08 0.000150603
0.0021123 6.58797e-05 1.13998e-05
6.58797e-05 0.000985806 -4.26024e-06
1.13998e-05 -4.26024e-06 0.000997194
0.000501109 5.1231e-05 3.39688e-06
5.1231e-05 -1.03262e-05 4.51192e-06
3.39688e-06 4.51192e-06 -3.35501e-05
0.00229222 8.90284e-05 -2.94017e-06
8.90284e-05 0.00110708 -2.51307e-07
-2.94017e-06 -2.51307e-07 0.00111306
0.00265049 0.00011957 -6.6121e-06
0.00011957 0.0013404 5.481e-06
-6.6121e-06 5.481e-06 0.0013383
0.00213391 0.000298862 -2.3633e-06
0.000298862 -2.41808e-05 -1.03572e-06
-2.3633e-06 -1.03572e-06 -2.55352e-05
0.00206716 9.45317e-05 7.42869e-07
9.45317e-05 -3.1591e-05 3.03573e-07
7.42869e-07 3.03573e-07 -1.44385e-06
0.00195859 -4.88116e-06 -2.17695e-06
-4.88116e-06 -4.21261e-06 -1.45322e-07
-2.17695e-06 -1.45322e-07 -1.258e-06
0.00205691 -7.40766e-06 1.42475e-07
-7.40766e-06 -4.63862e-05 -1.75878e-07
1.42475e-07 -1.75878e-07 -4.16556e-06
0.00224596 0.000157081 -2.6695e-07
0.000157081 -2.91076e-05 3.11856e-07
-2.6695e-07 3.11856e-07 1.32229e-05
0.00213309 8.17936e-05 7.73912e-06
8.17936e-05 -5.48242e-05 -4.60788e-06
7.73912e-06 -4.60788e-06 9.09514e-06
0.0022619 -6.22229e-06 1.81707e-06
-6.22229e-06 -7.3515e-05 -7.75663e-07
1.81707e-06 -7.75663e-07 2.55747e-06
0.00420654 0.000646249 4.37425e-05
0.000646249 -0.000349594 6.99944e-06
4.37425e-05 6.99944e-06 0.0001787
0.00247256 6.05571e-05 -2.74734e-05
6.05571e-05 0.000316335 2.93683e-05
-2.74734e-05 2.93683e-05 0.000486277
0.000497707 0.000101567 -1.5625e-06
0.000101567 3.31542e-05 -5.05056e-07
-1.5625e-06 -5.05056e-07 -5.36271e-05
0.0020766 -0.0001203 7.34401e-08
-0.0001203 -3.28036e-05 -1.6532e-07
7.34401e-08 -1.6532e-07 3.79305e-06
0.00213953 -0.000298075 1.73836e-06
-0.000298075 -2.76436e-05 -5.0512e-07
1.73836e-06 -5.0512e-07 6.13937e-06
0.00204629 -0.000418822 -3.133e-09
-0.000418822 -1.30684e-05 2.0108e-07
-3.133e-09 2.0108e-07 -1.91733e-05
0.00109923 -0.000516968 -8.15966e-06
-0.000516968 0.000144088 6.41627e-06
-8.15966e-06 6.41627e-06 -0.000236729
0.00219714 -0.000769634 9.49787e-06
-0.000769634 0.000646262 7.38116e-06
9.49787e-06 7.38116e-06 0.000177876
0.00169789 -0.00070303 -5.79872e-06
-0.00070303 0.000132775 -8.305e-06
-5.79872e-06 -8.305e-06 -0.000205782
0.00213064 -0.000608724 -5.22226e-06
-0.000608724 0.000119533 -6.57075e-07
-5.22226e-06 -6.57075e-07 -2.12958e-05
0.00164653 -0.000469538 2.21573e-05
-0.000469538 0.00047355 -1.89237e-05
2.21573e-05 -1.89237e-05 0.000134013
0.000754572 -0.000278664 2.13637e-05
-0.000278664 0.000218896 -1.77198e-05
2.13637e-05 -1.77198e-05 -0.000201486
0.00127684 -8.05084e-05 1.67411e-06
-8.05084e-05 0.000460057 4.14236e-07
1.67411e-06 4.14236e-07 0.000190736
0.000519439 8.77197e-06 5.73642e-07
8.77197e-06 4.53656e-06 1.08858e-06
5.73642e-07 1.08858e-06 -4.15942e-05
0.00103829 -4.27835e-05 1.84616e-06
-4.27835e-05 0.000391746 4.00741e-06
1.84616e-06 4.00741e-06 0.000150733
0.000846967 -2.04093e-05 5.35255e-06
-2.04093e-05 0.000276269 -2.36437e-06
5.35255e-06 -2.36437e-06 0.000169966
0.000758412 -3.79897e-05 3.08593e-06
-3.79897e-05 0.00023208 -3.57778e-06
3.08593e-06 -3.57778e-06 5.10886e-05
0.00022306 -4.1293e-05 -4.19316e-06
-4.1293e-05 -0.000165787 8.45212e-07
-4.19316e-06 8.45212e-07 -0.000241909
0.00215217 -0.000154797 -5.57711e-07
-0.000154797 -0.000123175 -1.08175e-07
-5.57711e-07 -1.08175e-07 -5.33879e-05
0.000381779 2.86243e-05 4.54912e-08
2.86243e-05 -3.74479e-05 -1.96136e-06
4.54912e-08 -1.96136e-06 -0.000130782
0.000587057 -5.49519e-05 2.11954e-06
-5.49519e-05 8.43631e-05 8.92282e-07
2.11954e-06 8.92282e-07 -5.54328e-07
0.000838109 -0.000110102 2.13867e-06
-0.000110102 0.000212803 3.29753e-07
2.13867e-06 3.29753e-07 0.000115578
0.00216737 -0.000402854 1.76623e-06
-0.000402854 -0.000143111 -5.87065e-07
1.76623e-06 -5.87065e-07 -1.15656e-05
0.00221069 -0.000576873 6.97372e-07
-0.000576873 2.41521e-05 -1.13089e-06
6.97372e-07 -1.13089e-06 -1.92687e-05
0.000541125 -0.000426432 6.92138e-06
-0.000426432 -0.000133684 2.00693e-08
6.92138e-06 2.00693e-08 -0.000494468
0.00247735 -0.000885594 1.24058e-05
-0.000885594 0.000723308 -2.06607e-07
1.24058e-05 -2.06607e-07 0.000237792
0.00227343 -0.000786719 -1.83074e-06
-0.000786719 0.000301244 2.20202e-06
-1.83074e-06 2.20202e-06 7.77415e-05
0.000199279 -3.30239e-05 -8.518e-07
-3.30239e-05 -0.000127167 -8.11224e-07
-8.518e-07 -8.11224e-07 -0.000262637
0.000903206 -9.75052e-05 -1.13839e-06
-9.75052e-05 0.00031774 1.5208e-06
-1.13839e-06 1.5208e-06 0.000113395
0.00146653 -0.000624384 -5.03808e-06
-0.000624384 0.000344647 1.854e-06
-5.03808e-06 1.854e-06 -5.18337e-05
0.000333504 -0.000163159 2.07829e-07
-0.000163159 7.93915e-05 -1.88478e-06
2.07829e-07 -1.88478e-06 -0.000454163
0.000910848 -7.33113e-05 9.90788e-07
-7.33113e-05 0.000222315 2.76586e-06
9.90788e-07 2.76586e-06 7.00256e-06
0.0025709 -0.000291623 -3.9293e-06
-0.000291623 0.000120122 -4.3417e-07
-3.9293e-06 -4.3417e-07 0.000197179
0.00195565 -0.000438819 -1.81083e-05
-0.000438819 -0.000253736 5.6242e-06
-1.81083e-05 5.6242e-06 -6.43229e-05
0.00210773 -0.000716036 -1.00848e-05
-0.000716036 6.19306e-05 2.28366e-07
-1.00848e-05 2.28366e-07 -0.000100764
0.00377424 -0.000995891 -1.94376e-05
-0.000995891 0.00125766 -2.00505e-06
-1.94376e-05 -2.00505e-06 0.000951776
0.000623793 -0.000555253 -2.44946e-05
-0.000555253 -0.000106873 -3.34408e-06
-2.44946e-05 -3.34408e-06 -0.000505914
0.000184965 -2.32579e-05 1.41518e-06
-2.32579e-05 -0.00015504 4.32738e-07
1.41518e-06 4.32738e-07 -0.000258898
0.000514689 6.9237e-06 -1.50972e-07
6.9237e-06 -4.0043e-06 5.56032e-06
-1.50972e-07 5.56032e-06 -9.89323e-05
-0.000662502 -6.22269e-05 -2.37705e-06
-6.22269e-05 -0.000703496 -2.81573e-06
-2.37705e-06 -2.81573e-06 -0.000789801
0.00198801 -0.000257343 -1.42322e-05
-0.000257343 0.00100134 1.75959e-05
-1.42322e-05 1.75959e-05 0.000818016
0.000949864 -9.47041e-05 -5.98402e-06
-9.47041e-05 0.000312911 1.7516e-05
-5.98402e-06 1.7516e-05 0.000130569
-0.00125849 -0.000100099 2.70786e-06
-0.000100099 -0.000538805 3.51069e-06
2.70786e-06 3.51069e-06 -0.001189
3.82452e-06 -0.000760016 -1.15797e-05
-0.000760016 -0.000127883 -7.70069e-07
-1.15797e-05 -7.70069e-07 -0.00078562
0.001299 0.000163169 -1.78554e-06
0.000163169 0.000550268 -6.64512e-06
-1.78554e-06 -6.64512e-06 0.000366186
0.00015926 0.00011375 -4.52989e-06
0.00011375 -0.000187101 -3.20197e-06
-4.52989e-06 -3.20197e-06 -0.0004024
0.00243372 0.000302865 5.73014e-06
0.000302865 1.82948e-05 3.34384e-07
5.73014e-06 3.34384e-07 9.19189e-05
0.00242021 0.000534568 1.57407e-05
0.000534568 0.000224645 5.35947e-06
1.57407e-05 5.35947e-06 0.000131223
0.00213121 0.000670821 1.74266e-05
0.000670821 0.000284175 4.38087e-06
1.74266e-05 4.38087e-06 -1.6897e-05
0.00140643 0.000429314 -9.45482e-07
0.000429314 0.000355546 1.17968e-06
-9.45482e-07 1.17968e-06 5.35441e-05
0.00164529 0.000617943 2.83364e-06
0.000617943 0.00032064 3.28557e-06
2.83364e-06 3.28557e-06 -6.81176e-05
0.0017915 0.000233983 1.13077e-07
0.000233983 0.000841738 -1.33845e-07
1.13077e-07 -1.33845e-07 0.000641563
0.00260121 0.00036345 2.15398e-06
0.00036345 0.000201266 2.1163e-06
2.15398e-06 2.1163e-06 0.000311979
0.00122914 0.000357395 -2.34452e-06
0.000357395 0.000378536 2.08536e-06
-2.34452e-06 2.08536e-06 0.000113611
0.00172159 0.00054854 2.82683e-06
0.00054854 0.000480914 -4.96391e-07
2.82683e-06 -4.96391e-07 0.000105701
0.00210407 0.000678317 -3.88683e-06
0.000678317 0.000131487 -3.36807e-06
-3.88683e-06 -3.36807e-06 -5.71882e-05
0.0016904 0.000660431 -4.48901e-06
0.000660431 0.000289283 4.83425e-06
-4.48901e-06 4.83425e-06 -9.82892e-05
0.00312405 0.000909532 4.91069e-05
0.000909532 -0.000254678 4.64038e-06
4.91069e-05 4.64038e-06 -0.000285718
0.000943758 0.000267523 -4.08557e-06
0.000267523 0.000365423 2.62433e-06
-4.08557e-06 2.62433e-06 0.000141021
0.00287206 0.000654261 -8.2996e-05
0.000654261 0.000461756 -3.51618e-05
-8.2996e-05 -3.51618e-05 0.000416305
0.000872598 0.000377738 -3.96774e-06
0.000377738 1.72805e-05 7.29081e-07
-3.96774e-06 7.29081e-07 -0.000270761
7.94196e-05 0.00040455 -1.18018e-06
0.00040455 -0.000484245 -1.54663e-05
-1.18018e-06 -1.54663e-05 -0.000837447
0.000785091 0.000669682 -3.5454e-05
0.000669682 -0.000382854 -1.30873e-05
-3.5454e-05 -1.30873e-05 -0.000607885
0.01374 0.000348846 -0.00040434
0.000348846 0.00237928 -4.3654e-05
-0.00040434 -4.3654e-05 0.00167139
0.00467165 0.00143271 1.32338e-07
0.00143271 -0.000920291 -8.39371e-05
1.32338e-07 -8.39371e-05 -0.000200404
-0.000485381 0.000955703 -7.78486e-07
0.000955703 -0.0011942 9.69803e-08
-7.78486e-07 9.69803e-08 -0.00146231
-0.000752801 -0.00169732 0.00114561
-0.00169732 0.000928297 0.000255089
0.00114561 0.000255089 -0.00182365
0.0178698 -0.00663568 -1.0527e-05
-0.00663568 0.0060792 7.27471e-05
-1.0527e-05 7.27471e-05 0.00515384
-9.8004e-05 9.47942e-05 6.7785e-06
9.47942e-05 -0.000256789 1.84027e-06
6.7785e-06 1.84027e-06 -0.000354603
0.00108356 0.000104995 -2.61029e-08
0.000104995 0.000433743 -2.56482e-06
-2.61029e-08 -2.56482e-06 0.00035201
0.00202565 0.00023264 5.11317e-07
0.00023264 0.0010263 -4.0284e-07
5.11317e-07 -4.0284e-07 0.000916049
0.00051915 -5.67189e-05 -8.9478e-07
-5.67189e-05 6.44423e-05 -2.83118e-06
-8.9478e-07 -2.83118e-06 -5.85859e-05
0.000413978 6.14219e-05 -1.12045e-06
6.14219e-05 -1.68758e-05 -2.66095e-06
-1.12045e-06 -2.66095e-06 -0.000152567
0.000757743 -1.69464e-05 2.85872e-08
-1.69464e-05 0.000204909 -7.28481e-07
2.85872e-08 -7.28481e-07 6.35646e-05
0.000664764 6.1274e-05 -4.4019e-06
6.1274e-05 0.000118426 7.93588e-06
-4.4019e-06 7.93588e-06 1.84115e-05
0.000424671 6.47496e-05 2.77487e-06
6.47496e-05 -3.95527e-05 7.84708e-06
2.77487e-06 7.84708e-06 -0.000102146
0.000691126 0.00012246 -1.73645e-06
0.00012246 0.00017812 -4.69737e-07
-1.73645e-06 -4.69737e-07 1.6833e-05
0.000431046 -6.33963e-06 4.3036e-07
-6.33963e-06 -7.87178e-06 9.4892e-07
4.3036e-07 9.4892e-07 -0.000128087
0.000684162 4.00212e-05 -5.27647e-07
4.00212e-05 0.000162276 -3.76349e-08
-5.27647e-07 -3.76349e-08 7.66546e-06
0.000484122 7.68853e-05 -8.82024e-07
7.68853e-05 1.04049e-05 -2.53933e-07
-8.82024e-07 -2.53933e-07 -4.40634e-05
0.000685661 0.000102757 -1.3364e-06
0.000102757 0.000145017 -2.70159e-07
-1.3364e-06 -2.70159e-07 4.28163e-06
0.00144338 0.000172951 -1.63654e-06
0.000172951 0.000633857 -5.95952e-07
-1.63654e-06 -5.95952e-07 0.000461651
0.000380839 9.7374e-05 1.20907e-06
9.7374e-05 1.24187e-05 -2.11276e-06
1.20907e-06 -2.11276e-06 -0.000141206
0.000842346 0.000101104 2.59055e-06
0.000101104 0.000259391 8.0207e-07
2.59055e-06 8.0207e-07 0.000104925
0.000508194 -2.75415e-05 1.62823e-06
-2.75415e-05 3.81802e-05 7.49412e-07
1.62823e-06 7.49412e-07 -0.000113343
0.000356122 -6.7579e-05 -1.38623e-06
-6.7579e-05 -5.66932e-05 2.83172e-06
-1.38623e-06 2.83172e-06 -0.000181491
0.000741568 -2.54812e-05 -8.06165e-07
-2.54812e-05 0.000196821 -5.05836e-10
-8.06165e-07 -5.05836e-10 4.08851e-05
0.00109465 1.60999e-05 8.66374e-08
1.60999e-05 0.000406566 -7.78809e-06
8.66374e-08 -7.78809e-06 0.000255508
0.000570222 -3.34011e-05 -1.438e-06
-3.34011e-05 0.000119929 4.38918e-08
-1.438e-06 4.38918e-08 -2.57121e-05
0.000771208 -4.60166e-05 1.86897e-06
-4.60166e-05 0.00022794 -5.82285e-07
1.86897e-06 -5.82285e-07 7.66727e-05
0.00065923 -0.000114638 -2.67159e-06
-0.000114638 0.000137299 1.98394e-06
-2.67159e-06 1.98394e-06 1.38736e-05
0.00033219 -2.28349e-05 1.21059e-07
-2.28349e-05 -6.98409e-05 1.1465e-06
1.21059e-07 1.1465e-06 -0.000194085
0.000514779 -4.76424e-05 -2.32958e-06
-4.76424e-05 2.02237e-05 3.37541e-06
-2.32958e-06 3.37541e-06 -5.30543e-05
0.000516475 -3.35953e-05 1.79121e-06
-3.35953e-05 2.77106e-05 6.86306e-08
1.79121e-06 6.86306e-08 -4.90682e-05
0.000475517 3.98205e-06 1.94121e-06
3.98205e-06 -2.18499e-05 6.19395e-06
1.94121e-06 6.19395e-06 -4.45618e-05
0.000535517 4.41152e-05 -1.64765e-06
4.41152e-05 3.41439e-05 -3.3259e-06
-1.64765e-06 -3.3259e-06 -3.77798e-05
0.000436354 2.70186e-05 4.3918e-07
2.70186e-05 -4.73876e-05 6.67966e-08
4.3918e-07 6.67966e-08 -6.96785e-05
0.00249805 2.15763e-06 2.26155e-06
2.15763e-06 0.00121609 5.33649e-06
2.26155e-06 5.33649e-06 0.00122922
0.000502416 2.96809e-05 -2.76403e-06
2.96809e-05 -1.17351e-05 -6.76652e-06
-2.76403e-06 -6.76652e-06 -3.39988e-05
0.00169157 -7.1045e-06 -1.75917e-06
-7.1045e-06 0.000713214 1.41002e-07
-1.75917e-06 1.41002e-07 0.000722134
0.000797197 -1.2677e-05 5.97701e-07
-1.2677e-05 0.000151213 -2.3026e-06
5.97701e-07 -2.3026e-06 0.000157563
0.000488799 -2.96963e-06 3.03576e-07
-2.96963e-06 -1.43583e-05 -1.43745e-06
3.03576e-07 -1.43745e-06 -5.37508e-05
0.000559887 -3.43828e-05 1.77052e-07
-3.43828e-05 3.29069e-05 -3.23176e-08
1.77052e-07 -3.23176e-08 -1.3486e-05
0.000537972 1.31261e-05 9.68065e-07
1.31261e-05 -9.6918e-06 -3.12431e-06
9.68065e-07 -3.12431e-06 -1.88875e-05
0.00050605 -3.04176e-05 -1.91681e-06
-3.04176e-05 -7.51126e-06 9.78841e-07
-1.91681e-06 9.78841e-07 -5.25288e-05
0.000796442 2.70925e-05 -9.15874e-08
2.70925e-05 0.000153318 -7.29482e-07
-9.15874e-08 -7.29482e-07 0.000143909
0.00198499 4.89208e-05 7.79339e-06
4.89208e-05 0.000900996 -4.37187e-06
7.79339e-06 -4.37187e-06 0.0009157
0.00049268 3.29638e-05 -4.08727e-08
3.29638e-05 -2.97514e-05 3.38727e-06
-4.08727e-08 3.38727e-06 -4.46696e-05
0.00217551 6.95934e-05 -6.20131e-06
6.95934e-05 0.00102785 1.12329e-06
-6.20131e-06 1.12329e-06 0.00103828
0.00237533 9.46843e-05 -7.32947e-06
9.46843e-05 0.00116025 4.76964e-06
-7.32947e-06 4.76964e-06 0.00116487
0.00221879 0.000162397 -2.92797e-06
0.000162397 -2.79818e-05 -1.1149e-06
-2.92797e-06 -1.1149e-06 1.34096e-05
0.002048 -6.60706e-06 8.12876e-07
-6.60706e-06 -5.02155e-05 1.02959e-08
8.12876e-07 1.02959e-08 -8.516e-06
0.00190942 5.91851e-05 -6.03107e-07
5.91851e-05 -0.00021651 8.73819e-07
-6.03107e-07 8.73819e-07 -0.000155661
0.00245127 0.000473061 7.54961e-05
0.000473061 -0.0011438 1.72426e-05
7.54961e-05 1.72426e-05 -0.000648348
0.00224055 -2.95408e-05 -1.25152e-06
-2.95408e-05 -6.68157e-05 -2.26994e-06
-1.25152e-06 -2.26994e-06 9.64212e-06
0.00214628 6.19849e-05 1.09229e-06
6.19849e-05 0.000133944 -8.44217e-06
1.09229e-06 -8.44217e-06 0.000252544
0.00329775 -3.41124e-05 -2.55786e-05
-3.41124e-05 0.000923838 3.41464e-06
-2.55786e-05 3.41464e-06 0.000928847
0.00293895 -2.3994e-07 -7.61733e-06
-2.3994e-07 -0.0017092 -2.70764e-05
-7.61733e-06 -2.70764e-05 -0.000889197
0.0027335 0.000172506 9.96753e-05
0.000172506 -0.000542155 5.55141e-05
9.96753e-05 5.55141e-05 -9.26765e-05
0.000584006 8.26307e-05 2.28022e-07
8.26307e-05 8.86139e-05 -2.93199e-07
2.28022e-07 -2.93199e-07 9.18421e-07
0.000582392 -4.84007e-06 4.69813e-07
-4.84007e-06 9.46441e-05 -1.0953e-07
4.69813e-07 -1.0953e-07 9.47754e-07
0.000464465 -9.99776e-05 -3.63751e-06
-9.99776e-05 2.78085e-05 9.94604e-07
-3.63751e-06 9.94604e-07 -8.06234e-05
0.000468909 -5.24052e-05 -2.21397e-06
-5.24052e-05 4.59428e-05 1.65989e-06
-2.21397e-06 1.65989e-06 -6.68967e-05
0.00222556 -0.000172657 -3.76958e-06
-0.000172657 -0.000102559 7.52421e-07
-3.76958e-06 7.52421e-07 -1.57657e-05
0.00218302 -0.000407168 2.14043e-06
-0.000407168 -0.000107029 -1.52066e-06
2.14043e-06 -1.52066e-06 -7.12025e-06
0.00216655 -0.000572912 -2.3946e-06
-0.000572912 1.69194e-06 1.90239e-07
-2.3946e-06 1.90239e-07 -4.16097e-05
0.00330383 -0.000732177 1.13403e-05
-0.000732177 0.00144474 6.44435e-06
1.13403e-05 6.44435e-06 0.00103523
0.000497039 -0.000676813 6.74435e-06
-0.000676813 -0.000370776 -3.10726e-06
6.74435e-06 -3.10726e-06 -0.000816111
0.00213885 -0.000768205 4.12229e-06
-0.000768205 0.000250541 -3.14243e-06
4.12229e-06 -3.14243e-06 2.14622e-05
0.0016565 -0.000671691 6.65782e-06
-0.000671691 0.000436239 -9.94786e-06
6.65782e-06 -9.94786e-06 5.45862e-06
0.00319366 -0.000235207 5.98644e-06
-0.000235207 0.00156365 -3.89255e-06
5.98644e-06 -3.89255e-06 0.00119535
-0.000143776 -2.17953e-05 -2.6366e-06
-2.17953e-05 -0.00045009 2.61723e-06
-2.6366e-06 2.61723e-06 -0.000635923
0.000666964 -5.57144e-05 1.24015e-06
-5.57144e-05 0.000137655 1.96596e-07
1.24015e-06 1.96596e-07 5.21262e-05
0.00056153 -0.000111833 -2.04215e-08
-0.000111833 0.000122654 -7.82289e-06
-2.04215e-08 -7.82289e-06 -9.09317e-05
0.000676718 -8.41813e-06 3.81807e-06
-8.41813e-06 0.000176005 -3.68891e-06
3.81807e-06 -3.68891e-06 3.47874e-05
0.000618705 6.50425e-07 7.88715e-09
6.50425e-07 0.000126383 8.40708e-07
7.88715e-09 8.40708e-07 2.41021e-05
0.000545463 -4.86133e-05 -7.99934e-06
-4.86133e-05 2.58307e-05 2.33803e-06
-7.99934e-06 2.33803e-06 -5.97859e-05
0.00253457 -0.000274912 1.69611e-06
-0.000274912 0.000107152 1.16411e-06
1.69611e-06 1.16411e-06 0.000201044
0.000565529 -2.7529e-05 5.87844e-08
-2.7529e-05 9.53937e-05 9.21188e-07
5.87844e-08 9.21188e-07 -2.49642e-05
0.000828544 -2.51129e-05 5.4688e-06
-2.51129e-05 0.000208756 -5.34279e-07
5.4688e-06 -5.34279e-07 0.000100857
-0.000148528 -1.55448e-05 1.9924e-06
-1.55448e-05 -0.000364354 7.6286e-07
1.9924e-06 7.6286e-07 -0.000432578
0.00191879 -0.000445965 3.12741e-07
-0.000445965 -0.00030342 -1.22839e-06
3.12741e-07 -1.22839e-06 -0.000120233
0.00217223 -0.000717932 2.11177e-06
-0.000717932 9.48618e-05 -1.33996e-06
2.11177e-06 -1.33996e-06 -5.99229e-05
0.00180798 -0.00072671 -1.7706e-06
-0.00072671 0.000543882 -3.81392e-07
-1.7706e-06 -3.81392e-07 0.000119669
0.00242881 -0.000875902 -6.14291e-06
-0.000875902 0.000526609 1.22701e-06
-6.14291e-06 1.22701e-06 0.000232548
0.00137791 -0.000121388 5.76315e-08
-0.000121388 0.000594712 3.35445e-07
5.76315e-08 3.35445e-07 0.000427648
0.000252828 -4.01053e-05 5.02481e-06
-4.01053e-05 -0.000129442 1.91205e-06
5.02481e-06 1.91205e-06 -0.000308572
0.00141949 -0.000870513 4.20167e-06
-0.000870513 0.00069446 -1.93178e-06
4.20167e-06 -1.93178e-06 1.38085e-05
0.00118961 -0.00032591 -4.2924e-06
-0.00032591 0.000539134 -7.37294e-08
-4.2924e-06 -7.37294e-08 7.73238e-05
0.00311351 -0.000390701 -3.45718e-05
-0.000390701 0.000331311 -5.43825e-07
-3.45718e-05 -5.43825e-07 0.000565991
0.00229002 -0.000572202 -4.35794e-05
-0.000572202 8.2277e-05 1.12299e-05
-4.35794e-05 1.12299e-05 0.000144007
0.00239095 -0.000839894 -5.96221e-06
-0.000839894 0.000377569 -6.10579e-06
-5.96221e-06 -6.10579e-06 9.5075e-05
0.00268524 -0.000842741 -1.17754e-05
-0.000842741 0.000864148 1.91513e-06
-1.17754e-05 1.91513e-06 0.000565684
0.000283045 -4.33951e-05 -1.36562e-06
-4.33951e-05 -4.28758e-05 -4.37416e-06
-1.36562e-06 -4.37416e-06 -0.000163939
0.000301128 -9.71174e-05 -6.70541e-06
-9.71174e-05 -7.32566e-05 -9.51635e-06
-6.70541e-06 -9.51635e-06 -0.000227038
3.57342e-05 -0.000160562 -4.88247e-06
-0.000160562 1.33292e-05 3.20846e-05
-4.88247e-06 3.20846e-05 -0.000278849
-0.00107518 -0.000583419 -7.1637e-06
-0.000583419 -0.000172386 -2.5139e-05
-7.1637e-06 -2.5139e-05 -0.00110006
0.00194469 -0.00048636 4.0952e-05
-0.00048636 -0.00471703 -1.75093e-06
4.0952e-05 -1.75093e-06 -0.00476166
0.00199589 0.000222538 -1.47165e-06
0.000222538 0.000948402 -4.85347e-06
-1.47165e-06 -4.85347e-06 0.000754131
0.00105213 0.000311079 -1.17778e-06
0.000311079 0.000267304 -3.33987e-07
-1.17778e-06 -3.33987e-07 1.5813e-05
0.00195334 0.000306409 6.49383e-05
0.000306409 -0.000155827 1.71485e-05
6.49383e-05 1.71485e-05 -2.70455e-05
0.00245432 0.000692956 2.92858e-05
0.000692956 0.000329741 1.10544e-05
2.92858e-05 1.10544e-05 0.000149275
0.00216839 0.000715921 1.37539e-05
0.000715921 0.000570317 1.18032e-05
1.37539e-05 1.18032e-05 0.000167304
0.00134585 0.000511004 6.88487e-06
0.000511004 0.000282227 8.11322e-06
6.88487e-06 8.11322e-06 -9.54084e-05
0.00494552 0.00112875 0.000118568
0.00112875 0.000414957 4.40045e-05
0.000118568 4.40045e-05 0.000198574
0.00148664 0.000276458 4.6405e-06
0.000276458 0.000680492 4.72611e-08
4.6405e-06 4.72611e-08 0.000466532
0.00253156 0.000613496 -2.01558e-05
0.000613496 0.000271584 2.97153e-07
-2.01558e-05 2.97153e-07 0.000247763
0.000905268 0.000382862 -3.31835e-06
0.000382862 7.23683e-05 2.59188e-06
-3.31835e-06 2.59188e-06 -0.000221169
0.00145392 0.000579407 2.01686e-06
0.000579407 0.000303057 -5.20693e-06
2.01686e-06 -5.20693e-06 -8.36844e-05
0.00178886 0.000756137 -1.05369e-05
0.000756137 0.000147448 1.17666e-08
-1.05369e-05 1.17666e-08 -0.00010285
0.00418608 -0.000612172 -0.00015964
-0.000612172 -0.00407776 -6.48183e-05
-0.00015964 -6.48183e-05 -0.00507613
0.00711333 0.00138837 -0.000100269
0.00138837 0.000206629 -6.45248e-05
-0.000100269 -6.45248e-05 0.000652997
0.000992438 0.000988735 -7.59795e-06
0.000988735 -0.000370353 8.35644e-06
-7.59795e-06 8.35644e-06 -0.000717698
-0.000542235 -0.0014689 0.000418632
-0.0014689 0.0023362 0.000176551
0.000418632 0.000176551 -0.000255171
0.00942758 -0.00661667 -0.000387636
-0.00661667 0.00393966 -0.000364402
-0.000387636 -0.000364402 0.00294423
0.00125775 0.00026916 -1.2548e-05
0.00026916 0.000475326 1.15203e-06
-1.2548e-05 1.15203e-06 0.000276199
0.000671797 0.000528051 0.000585771
0.000528051 0.00350494 6.81978e-05
0.000585771 6.81978e-05 0.00169095
0.0023318 -0.00218235 -0.000165643
-0.00218235 0.00463424 -0.000220386
-0.000165643 -0.000220386 0.000492884
0.0024635 0.000924938 -4.62737e-05
0.000924938 0.000341307 -1.49313e-05
-4.62737e-05 -1.49313e-05 0.000216461
0.000913784 0.000304488 -2.28782e-05
0.000304488 8.33043e-05 -7.05834e-06
-2.28782e-05 -7.05834e-06 -0.000175605
0.000623499 0.00059318 -2.81251e-05
0.00059318 -9.23505e-05 -3.04313e-05
-2.81251e-05 -3.04313e-05 -0.000421113
0.000122276 0.000962007 4.07796e-05
0.000962007 -0.000672129 9.09955e-05
4.07796e-05 9.09955e-05 -0.00101989
0.0121369 0.00195763 3.90952e-05
0.00195763 0.00172207 -4.29477e-05
3.90952e-05 -4.29477e-05 0.00037231
0.0036385 0.00200717 -1.75963e-05
0.00200717 2.67339e-05 -4.38231e-05
-1.75963e-05 -4.38231e-05 -8.53808e-05
0.0109411 -0.00552541 0.000867874
-0.00552541 0.00300623 0.000486499
0.000867874 0.000486499 0.00073055
0.0110893 -0.00257667 -5.38665e-05
-0.00257667 0.00223929 0.000521334
-5.38665e-05 0.000521334 0.00138888
0.000481606 9.52147e-05 6.29713e-06
9.52147e-05 9.94665e-05 -1.57212e-06
6.29713e-06 -1.57212e-06 1.72433e-05
0.000351593 0.000123929 8.06586e-06
0.000123929 2.0929e-05 3.36247e-07
8.06586e-06 3.36247e-07 -7.99095e-05
0.00188948 0.000272582 3.54465e-06
0.000272582 0.000963184 -1.88939e-06
3.54465e-06 -1.88939e-06 0.000799733
0.000584164 1.10779e-05 8.40656e-07
1.10779e-05 0.000109819 -8.74551e-07
8.40656e-07 -8.74551e-07 -2.48549e-05
0.000644071 6.24252e-05 -1.22562e-06
6.24252e-05 0.000133089 -2.07178e-06
-1.22562e-06 -2.07178e-06 -1.60724e-05
0.000201879 2.3492e-05 -1.48018e-06
2.3492e-05 -0.00013763 4.65667e-07
-1.48018e-06 4.65667e-07 -0.000280025
0.000613123 9.61838e-05 -7.30872e-06
9.61838e-05 0.000115201 1.40102e-06
-7.30872e-06 1.40102e-06 -2.73932e-05
-0.000629099 4.38037e-05 -4.20413e-06
4.38037e-05 -0.000679973 1.65729e-07
-4.20413e-06 1.65729e-07 -0.000733512
0.000371397 -1.22084e-05 2.30896e-07
-1.22084e-05 -4.05916e-05 9.77068e-07
2.30896e-07 9.77068e-07 -0.000169203
0.00117912 0.000112297 1.38786e-06
0.000112297 0.000463624 -3.68331e-07
1.38786e-06 -3.68331e-07 0.00030252
0.000641171 4.95057e-05 4.86703e-07
4.95057e-05 0.000143563 2.16255e-07
4.86703e-07 2.16255e-07 -1.53558e-05
0.000735771 2.98968e-05 1.2399e-06
2.98968e-05 0.000199432 -4.57888e-07
1.2399e-06 -4.57888e-07 3.34941e-05
0.000490603 0.000102437 -3.50696e-07
0.000102437 7.92307e-05 -1.8529e-06
-3.50696e-07 -1.8529e-06 -7.11516e-05
0.00129977 0.000114307 -1.86743e-06
0.000114307 0.000560577 -1.13019e-06
-1.86743e-06 -1.13019e-06 0.00039747
-0.000246421 4.28611e-05 -5.70324e-06
4.28611e-05 -0.000291396 -3.22575e-06
-5.70324e-06 -3.22575e-06 -0.00047527
0.000665206 -9.75958e-05 -2.34834e-07
-9.75958e-05 0.000151635 -5.55781e-08
-2.34834e-07 -5.55781e-08 -6.99272e-06
0.00077657 -7.54699e-05 -6.94951e-07
-7.54699e-05 0.00023454 -3.76606e-08
-6.94951e-07 -3.76606e-08 6.755e-05
0.000753189 -4.47836e-05 -1.08573e-07
-4.47836e-05 0.000216688 -4.1158e-07
-1.08573e-07 -4.1158e-07 5.15667e-05
0.000752735 -1.60362e-05 -2.81037e-06
-1.60362e-05 0.000180914 3.85023e-09
-2.81037e-06 3.85023e-09 4.47556e-05
0.00101647 7.04803e-06 -4.82135e-06
7.04803e-06 0.000400189 -3.897e-06
-4.82135e-06 -3.897e-06 0.000214954
0.000759818 -3.15464e-05 1.66118e-06
-3.15464e-05 0.000206386 -6.57417e-06
1.66118e-06 -6.57417e-06 6.9724e-05
-0.000915224 -1.35862e-05 -2.22453e-06
-1.35862e-05 -0.000833175 -4.84925e-06
-2.22453e-06 -4.84925e-06 -0.000948963
0.000640384 -4.23044e-05 1.2403e-06
-4.23044e-05 0.000127986 -8.93421e-07
1.2403e-06 -8.93421e-07 -1.94058e-05
0.000407751 -7.4982e-05 1.33721e-06
-7.4982e-05 -9.69661e-06 1.17907e-06
1.33721e-06 1.17907e-06 -0.000140372
0.000675416 -8.09232e-05 -1.04563e-06
-8.09232e-05 0.000174907 -2.58039e-07
-1.04563e-06 -2.58039e-07 3.10251e-05
0.000528296 -7.72959e-05 -2.28555e-06
-7.72959e-05 3.99062e-05 1.71213e-06
-2.28555e-06 1.71213e-06 -6.80268e-05
0.000450832 -6.31152e-05 3.11545e-06
-6.31152e-05 1.36439e-06 1.77188e-07
3.11545e-06 1.77188e-07 -0.000130684
0.0005329 -0.000104081 9.4644e-08
-0.000104081 5.60699e-05 2.59529e-07
9.4644e-08 2.59529e-07 -6.59599e-05
0.000550355 -4.6736e-05 -2.4372e-06
-4.6736e-05 3.99373e-05 3.80124e-06
-2.4372e-06 3.80124e-06 -3.41816e-05
0.000424601 -9.51548e-06 1.53523e-06
-9.51548e-06 9.0707e-07 -8.99343e-07
1.53523e-06 -8.99343e-07 -0.000133865
0.000511238 1.52028e-06 1.90785e-06
1.52028e-06 2.52972e-05 7.04727e-08
1.90785e-06 7.04727e-08 -5.22535e-05
0.00143904 -1.80907e-05 -7.1589e-06
-1.80907e-05 0.000568617 6.39429e-06
-7.1589e-06 6.39429e-06 0.000549908
0.000511203 5.98331e-05 -1.26581e-06
5.98331e-05 2.48748e-05 -3.23187e-06
-1.26581e-06 -3.23187e-06 -5.17088e-05
0.00088788 -1.08485e-05 -3.22081e-06
-1.08485e-05 0.000232886 7.42548e-07
-3.22081e-06 7.42548e-07 0.000212308
0.000776454 3.19021e-06 -3.47104e-06
3.19021e-06 0.000152155 4.84298e-06
-3.47104e-06 4.84298e-06 0.000157312
0.000434474 -8.50555e-06 2.55232e-06
-8.50555e-06 -4.87323e-05 -4.65857e-06
2.55232e-06 -4.65857e-06 -7.07373e-05
0.00252266 2.33065e-06 5.92854e-06
2.33065e-06 0.00123156 -1.63195e-08
5.92854e-06 -1.63195e-08 0.00124463
0.000889649 6.62273e-07 -6.56155e-06
6.62273e-07 0.000217632 -5.26759e-06
-6.56155e-06 -5.26759e-06 0.000222466
0.000512096 6.32752e-05 2.52036e-06
6.32752e-05 4.78474e-05 9.36877e-07
2.52036e-06 9.36877e-07 -4.63599e-05
0.000486552 4.65568e-05 -2.11142e-06
4.65568e-05 -5.5886e-06 -1.89104e-06
-2.11142e-06 -1.89104e-06 -4.96675e-05
0.000505767 -6.08118e-06 1.46067e-06
-6.08118e-06 5.43899e-06 5.09852e-08
1.46067e-06 5.09852e-08 -4.00044e-05
0.000515715 8.57703e-06 8.97653e-07
8.57703e-06 -2.27083e-05 -2.99967e-06
8.97653e-07 -2.99967e-06 -3.10299e-05
0.000562247 -5.38951e-05 -1.80768e-06
-5.38951e-05 3.95587e-05 1.87892e-06
-1.80768e-06 1.87892e-06 -1.01613e-05
0.000498029 1.35699e-05 7.72607e-08
1.35699e-05 -3.49866e-05 -7.36726e-07
7.72607e-08 -7.36726e-07 -4.3873e-05
0.00197497 3.36555e-05 5.3913e-06
3.36555e-05 0.000890744 -4.50208e-06
5.3913e-06 -4.50208e-06 0.000907423
0.00108505 3.45556e-05 -5.97776e-07
3.45556e-05 0.000333871 1.69485e-06
-5.97776e-07 1.69485e-06 0.000325697
0.00144765 4.24643e-05 -1.57522e-07
4.24643e-05 0.00056705 1.39134e-06
-1.57522e-07 1.39134e-06 0.000577318
0.000878161 4.63239e-05 -9.40901e-06
4.63239e-05 0.000218447 7.44212e-06
-9.40901e-06 7.44212e-06 0.000222046
0.000868362 0.000321706 8.79924e-05
0.000321706 -0.00188228 1.62243e-05
8.79924e-05 1.62243e-05 -0.00139281
0.00219668 -4.66157e-05 -3.12993e-06
-4.66157e-05 -6.41491e-05 3.90945e-06
-3.12993e-06 3.90945e-06 5.50855e-06
0.00218536 7.23193e-05 3.45642e-05
7.23193e-05 0.000184939 -1.54891e-05
3.45642e-05 -1.54891e-05 0.000287036
0.00232239 0.000286592 -4.39571e-05
0.000286592 -0.00157741 -3.04524e-05
-4.39571e-05 -3.04524e-05 -0.000550493
0.00202894 9.76315e-05 3.38851e-05
9.76315e-05 -0.000707981 -2.11814e-06
3.38851e-05 -2.11814e-06 -0.000400771
0.00249807 -4.34057e-05 3.46552e-06
-4.34057e-05 0.000365757 -7.64426e-06
3.46552e-06 -7.64426e-06 0.00039201
0.00430837 -0.000258901 -4.93216e-05
-0.000258901 0.00103369 -1.41021e-05
-4.93216e-05 -1.41021e-05 0.001051
0.00267459 -0.000133979 2.16495e-05
-0.000133979 -0.000144181 2.4782e-05
2.16495e-05 2.4782e-05 9.72534e-05
0.0139806 -0.000749128 1.92203e-05
-0.000749128 0.00257797 1.48426e-05
1.92203e-05 1.48426e-05 0.00126767
0.0142731 0.00430422 0.00110503
0.00430422 0.00567447 -0.000417215
0.00110503 -0.000417215 0.00362884
0.0145241 0.00500066 7.20518e-06
0.00500066 0.00955467 3.79542e-06
7.20518e-06 3.79542e-06 0.00782438
0.000274077 -9.79325e-05 8.97014e-07
-9.79325e-05 -8.70111e-05 -3.77416e-07
8.97014e-07 -3.77416e-07 -0.000192147
0.000568042 -9.75978e-06 1.3238e-06
-9.75978e-06 7.97871e-05 -1.37001e-07
1.3238e-06 -1.37001e-07 -9.02279e-06
0.000655437 -8.80417e-05 -8.79003e-07
-8.80417e-05 0.000147682 2.20337e-06
-8.79003e-07 2.20337e-06 4.67321e-05
0.000560691 -4.11487e-05 2.46363e-07
-4.11487e-05 8.32419e-05 5.20266e-07
2.46363e-07 5.20266e-07 -2.54174e-05
0.000735623 8.23375e-05 -3.11682e-06
8.23375e-05 0.000222007 1.66234e-06
-3.11682e-06 1.66234e-06 9.59828e-05
0.000381259 0.000114993 1.74746e-06
0.000114993 -4.59247e-05 6.72289e-06
1.74746e-06 6.72289e-06 -0.000160435
0.000981915 -1.99087e-05 3.5899e-06
-1.99087e-05 0.000365416 2.81149e-06
3.5899e-06 2.81149e-06 0.000234447
0.000499292 -2.79071e-05 -1.55884e-06
-2.79071e-05 4.66514e-05 1.23373e-06
-1.55884e-06 1.23373e-06 -6.16309e-05
0.0024766 -0.000259956 8.00609e-06
-0.000259956 6.68927e-05 6.6089e-07
8.00609e-06 6.6089e-07 0.000188347
0.00195915 -0.000465082 1.65184e-05
-0.000465082 -0.00031541 -5.75114e-06
1.65184e-05 -5.75114e-06 -0.000144981
0.00212632 -0.000713452 4.47274e-06
-0.000713452 6.77811e-05 1.95495e-06
4.47274e-06 1.95495e-06 -8.08936e-05
0.0017651 -0.000704974 2.18977e-05
-0.000704974 0.000497997 2.4351e-06
2.18977e-05 2.4351e-06 9.32376e-05
0.0019259 -0.000849324 -8.52507e-07
-0.000849324 0.00024761 5.67553e-06
-8.52507e-07 5.67553e-06 -4.8926e-05
0.00342627 -0.0010458 2.76065e-05
-0.0010458 0.00183977 -4.40503e-06
2.76065e-05 -4.40503e-06 0.00111396
0.00376417 -0.000573536 3.94999e-06
-0.000573536 0.00181885 -2.36896e-06
3.94999e-06 -2.36896e-06 0.00145957
0.000682375 -0.000160164 8.53395e-06
-0.000160164 0.000169118 -1.89103e-05
8.53395e-06 -1.89103e-05 -5.27398e-05
0.000548414 -5.90859e-05 3.70717e-07
-5.90859e-05 3.08104e-05 3.43619e-06
3.70717e-07 3.43619e-06 -6.58975e-05
0.000655624 -9.11051e-05 8.84566e-06
-9.11051e-05 0.000119233 -1.83249e-05
8.84566e-06 -1.83249e-05 -2.74394e-05
0.000989135 -4.02198e-05 2.35904e-06
-4.02198e-05 0.000352651 5.58428e-07
2.35904e-06 5.58428e-07 0.000225822
0.000578311 3.27377e-05 3.58445e-06
3.27377e-05 9.04734e-05 -1.23649e-07
3.58445e-06 -1.23649e-07 4.21974e-05
0.00228683 -0.000352064 -9.24464e-07
-0.000352064 -7.2951e-05 3.46488e-06
-9.24464e-07 3.46488e-06 0.000163133
0.000528175 -4.60862e-05 -2.37532e-06
-4.60862e-05 0.000102272 -7.81597e-07
-2.37532e-06 -7.81597e-07 -2.24955e-05
0.000989733 -0.000153005 -6.39347e-06
-0.000153005 0.000338286 5.90267e-06
-6.39347e-06 5.90267e-06 0.000199475
0.00177606 -0.000554904 5.58675e-06
-0.000554904 -0.000213686 -2.89946e-06
5.58675e-06 -2.89946e-06 -0.000133765
0.00171905 -0.000751102 1.03195e-06
-0.000751102 -1.02559e-06 -7.66518e-07
1.03195e-06 -7.66518e-07 -0.00022333
0.000880717 -0.000649617 -1.56945e-07
-0.000649617 -0.000157709 -1.55958e-06
-1.56945e-07 -1.55958e-06 -0.000422735
0.00163034 -0.000295999 1.01289e-06
-0.000295999 0.00087196 -1.77296e-05
1.01289e-06 -1.77296e-05 0.000553637
0.00168925 -0.000623493 -1.14386e-06
-0.000623493 0.00122976 2.69244e-06
-1.14386e-06 2.69244e-06 0.000454857
0.00434152 -0.0006475 -4.58132e-05
-0.0006475 0.000933882 1.33645e-05
-4.58132e-05 1.33645e-05 0.00109274
0.00380905 -0.000842315 -5.31158e-05
-0.000842315 0.00114409 1.45399e-05
-5.31158e-05 1.45399e-05 0.0010034
0.00190283 -0.000836154 -5.72317e-06
-0.000836154 0.000204045 -4.86916e-07
-5.72317e-06 -4.86916e-07 -3.3056e-05
-0.000595865 -0.000407716 -1.25937e-05
-0.000407716 -0.000723041 2.00392e-05
-1.25937e-05 2.00392e-05 -0.000879935
0.000348066 -0.000130725 1.71064e-06
-0.000130725 1.99671e-05 7.51989e-06
1.71064e-06 7.51989e-06 -0.000170649
0.000454122 -0.000162992 4.27212e-06
-0.000162992 0.000134435 -5.22427e-07
4.27212e-06 -5.22427e-07 -8.61062e-05
0.00166149 -0.000226136 -2.9897e-06
-0.000226136 0.00118982 -1.94693e-05
-2.9897e-06 -1.94693e-05 0.000579748
-0.00634135 -0.000279676 0.000446755
-0.000279676 -0.0045149 -1.00558e-05
0.000446755 -1.00558e-05 -0.00356536
0.0111864 -0.000279023 5.36409e-05
-0.000279023 0.00177781 8.48643e-06
5.36409e-05 8.48643e-06 0.00152232
0.00198467 0.000266244 6.66993e-06
0.000266244 0.000943773 -6.91694e-06
6.66993e-06 -6.91694e-06 0.000755989
0.00156631 0.000459742 -3.94949e-06
0.000459742 0.000496685 4.58354e-06
-3.94949e-06 4.58354e-06 0.000182761
0.0027421 0.000573048 9.01865e-05
0.000573048 0.000423715 3.83593e-05
9.01865e-05 3.83593e-05 0.000411374
0.00305067 0.000872093 2.64226e-05
0.000872093 0.000814094 1.18254e-05
2.64226e-05 1.18254e-05 0.000534174
0.00273511 0.0007375 1.71443e-05
0.0007375 0.00103661 6.18884e-06
1.71443e-05 6.18884e-06 0.000622606
0.0144139 0.000683129 7.4773e-05
0.000683129 0.00309545 -3.03035e-05
7.4773e-05 -3.03035e-05 0.00219004
0.00832966 0.00187542 -0.000196389
0.00187542 -2.95195e-06 2.6068e-05
-0.000196389 2.6068e-05 0.000499795
0.00297077 0.00111205 1.89491e-06
0.00111205 0.000731007 -2.91432e-05
1.89491e-06 -2.91432e-05 0.000263302
0.0120958 -0.00331771 -0.000400278
-0.00331771 0.00515218 -2.61884e-05
-0.000400278 -2.61884e-05 0.00312796
-0.000546516 -0.00677821 -0.00195007
-0.00677821 0.00160422 -0.00129205
-0.00195007 -0.00129205 0.000171045
0.000929271 0.000281935 9.1059e-07
0.000281935 0.000334081 3.26589e-07
9.1059e-07 3.26589e-07 0.000110191
-0.00213584 -0.00194597 0.000359092
-0.00194597 -0.00270999 6.22859e-05
0.000359092 6.22859e-05 -0.00400319
-0.00315228 -0.0016163 -0.000382396
-0.0016163 0.00417373 -0.000173926
-0.000382396 -0.000173926 -0.000286852
0.00329681 0.000913747 -1.77709e-05
0.000913747 0.000757683 1.09871e-07
-1.77709e-05 1.09871e-07 0.00065463
0.00108671 0.000387719 -6.99712e-06
0.000387719 0.000228025 6.70831e-06
-6.99712e-06 6.70831e-06 -7.19058e-05
0.00131652 0.000689663 4.46001e-06
0.000689663 0.000278857 2.75338e-06
4.46001e-06 2.75338e-06 -7.68709e-05
0.00155412 0.000964906 4.54587e-05
0.000964906 0.000253691 2.5998e-05
4.54587e-05 2.5998e-05 7.66226e-06
0.0132742 0.00192993 -0.00013043
0.00192993 0.00132491 -7.85175e-05
-0.00013043 -7.85175e-05 -0.000584063
0.00503846 0.00256577 -6.03624e-05
0.00256577 3.87106e-05 -4.84875e-05
-6.03624e-05 -4.84875e-05 0.000272933
0.0163969 -0.00407322 0.000414014
-0.00407322 0.00657545 -1.12106e-05
0.000414014 -1.12106e-05 0.00418675
0.0125539 -0.00346841 0.000195694
-0.00346841 0.0014149 0.000622489
0.000195694 0.000622489 0.000476711
0.00262028 0.000386513 -1.95149e-05
0.000386513 0.00131834 -1.3063e-05
-1.95149e-05 -1.3063e-05 0.00111874
-0.0101293 0.00101037 -0.000133713
0.00101037 0.00283634 -0.000121979
-0.000133713 -0.000121979 -0.00271063
0.00444589 0.000682567 -0.00031465
0.000682567 0.00336123 -0.00042083
-0.00031465 -0.00042083 -0.00103787
0.00302124 0.00072546 -2.60057e-05
0.00072546 0.000880857 3.30797e-06
-2.60057e-05 3.30797e-06 0.000848758
0.00202238 0.000674684 -6.52397e-05
0.000674684 0.000804188 -2.55944e-05
-6.52397e-05 -2.55944e-05 0.000474413
0.00181538 0.000752524 -7.97752e-05
0.000752524 0.00122285 -1.788e-05
-7.97752e-05 -1.788e-05 0.000550979
-0.000508271 0.00157555 -4.63488e-05
0.00157555 -0.000391954 -3.37202e-05
-4.63488e-05 -3.37202e-05 -0.000580796
-0.000612059 0.00224791 0.000328245
0.00224791 -0.00186706 0.000123931
0.000328245 0.000123931 -0.00474506
0.0173101 -0.00486913 0.000262623
-0.00486913 0.00807802 0.000598301
0.000262623 0.000598301 0.00510712
0.00804396 -0.00124325 -0.000134873
-0.00124325 -0.0020257 -0.000127285
-0.000134873 -0.000127285 -0.000908057
-0.000868617 9.10629e-05 2.36435e-06
9.10629e-05 -0.000669653 -8.44285e-06
2.36435e-06 -8.44285e-06 -0.00079436
0.00146958 0.000251499 1.13245e-05
0.000251499 0.000693113 3.04083e-06
1.13245e-05 3.04083e-06 0.000533361
-0.000285159 8.77397e-05 -1.20938e-06
8.77397e-05 -0.00030545 -6.62237e-06
-1.20938e-06 -6.62237e-06 -0.000450468
0.000352377 5.29056e-05 1.95723e-06
5.29056e-05 -5.16356e-05 -9.20604e-07
1.95723e-06 -9.20604e-07 -0.000179846
0.000903579 7.56259e-05 -9.76017e-07
7.56259e-05 0.000310369 -1.93632e-06
-9.76017e-07 -1.93632e-06 0.000138867
0.00062365 3.872e-06 -1.47539e-06
3.872e-06 0.000139776 1.47608e-06
-1.47539e-06 1.47608e-06 -2.64088e-05
0.000536724 6.51741e-05 4.54713e-06
6.51741e-05 7.75886e-05 2.74363e-06
4.54713e-06 2.74363e-06 -8.36967e-05
-0.000150425 6.22763e-05 -4.71416e-06
6.22763e-05 -0.000301822 -2.81471e-07
-4.71416e-06 -2.81471e-07 -0.000443694
0.000751012 4.76756e-05 1.03244e-07
4.76756e-05 0.00021939 -9.63437e-07
1.03244e-07 -9.63437e-07 5.26015e-05
0.000741928 7.39798e-05 7.87642e-07
7.39798e-05 0.000209792 -5.72028e-07
7.87642e-07 -5.72028e-07 5.54664e-05
0.00081566 -5.34024e-05 -8.8995e-07
-5.34024e-05 0.000243079 1.76602e-06
-8.8995e-07 1.76602e-06 8.22479e-05
-0.000648487 2.27362e-05 3.02289e-06
2.27362e-05 -0.000509992 5.54073e-07
3.02289e-06 5.54073e-07 -0.000695885
-0.000253505 4.55644e-05 -2.81928e-06
4.55644e-05 -3.94611e-05 3.8495e-06
-2.81928e-06 3.8495e-06 -0.000333852
0.000700378 -2.57514e-05 -4.27745e-06
-2.57514e-05 0.000225914 -6.55609e-06
-4.27745e-06 -6.55609e-06 6.40368e-05
0.000914955 -1.95512e-05 2.74442e-07
-1.95512e-05 0.000330165 -1.13042e-06
2.74442e-07 -1.13042e-06 0.000150812
0.000793819 -7.32894e-05 -1.71703e-07
-7.32894e-05 0.000249034 -1.16271e-06
-1.71703e-07 -1.16271e-06 7.78759e-05
0.000583068 -6.23518e-05 2.84917e-06
-6.23518e-05 6.58009e-05 4.27626e-06
2.84917e-06 4.27626e-06 -6.19323e-05
0.000821127 -7.29968e-05 9.32315e-07
-7.29968e-05 0.000263679 -1.32298e-06
9.32315e-07 -1.32298e-06 8.91492e-05
0.000737486 -2.91938e-05 -1.45249e-06
-2.91938e-05 0.000186074 2.64484e-07
-1.45249e-06 2.64484e-07 5.03322e-05
-0.000209705 -6.02545e-05 1.80321e-06
-6.02545e-05 -0.000390609 3.14552e-06
1.80321e-06 3.14552e-06 -0.000503778
0.000370589 -3.05373e-05 4.67337e-07
-3.05373e-05 -8.7573e-06 -8.66259e-07
4.67337e-07 -8.66259e-07 -0.000153143
0.000170278 -1.93868e-05 -6.29564e-06
-1.93868e-05 -0.000103185 -4.63665e-06
-6.29564e-06 -4.63665e-06 -0.000261327
6.19542e-05 -7.12051e-05 2.71083e-06
-7.12051e-05 -0.000188368 -3.42669e-06
2.71083e-06 -3.42669e-06 -0.000318174
0.00107912 -0.000102422 6.26035e-06
-0.000102422 0.000308855 -1.30554e-05
6.26035e-06 -1.30554e-05 0.000207962
-0.000411361 -3.38663e-05 1.94363e-07
-3.38663e-05 -0.000612269 3.40517e-06
1.94363e-07 3.40517e-06 -0.000741845
4.70911e-05 -4.40331e-05 -5.49321e-06
-4.40331e-05 -0.000219924 -2.02124e-06
-5.49321e-06 -2.02124e-06 -0.000365518
0.000720724 -6.20347e-05 7.26733e-07
-6.20347e-05 0.000173468 -8.64275e-07
7.26733e-07 -8.64275e-07 2.45219e-05
0.000287263 -3.99291e-05 3.09716e-07
-3.99291e-05 -8.505e-05 -8.05369e-07
3.09716e-07 -8.05369e-07 -0.000229479
0.000701966 -9.075e-05 2.73113e-07
-9.075e-05 0.000193082 -7.04833e-09
2.73113e-07 -7.04833e-09 4.47397e-05
0.000485639 -1.89071e-05 1.53133e-07
-1.89071e-05 2.02001e-05 1.73393e-06
1.53133e-07 1.73393e-06 -9.27782e-05
0.000858908 -8.232e-05 -1.09961e-06
-8.232e-05 0.000283701 4.87557e-07
-1.09961e-06 4.87557e-07 0.000140661
0.000630518 -7.36883e-05 -9.30663e-07
-7.36883e-05 0.000115817 6.8781e-08
-9.30663e-07 6.8781e-08 -1.05647e-06
0.000450766 3.28574e-05 -9.10292e-07
3.28574e-05 -2.27161e-05 3.48514e-06
-9.10292e-07 3.48514e-06 -9.75569e-05
0.000488854 -9.57649e-05 2.16129e-06
-9.57649e-05 2.32438e-05 -9.90922e-07
2.16129e-06 -9.90922e-07 -9.6099e-05
0.000534139 -3.01212e-05 -3.11656e-07
-3.01212e-05 2.7115e-05 1.061e-07
-3.11656e-07 1.061e-07 -4.48163e-05
0.00142578 8.41817e-06 -6.8049e-06
8.41817e-06 0.000554717 6.71444e-06
-6.8049e-06 6.71444e-06 0.00053551
0.00051464 -5.18562e-05 1.54867e-06
-5.18562e-05 2.32216e-05 -3.05938e-06
1.54867e-06 -3.05938e-06 -5.14725e-05
0.000892995 -1.10916e-05 -5.27503e-06
-1.10916e-05 0.000230741 7.5921e-07
-5.27503e-06 7.5921e-07 0.000210092
0.000757968 1.31897e-05 7.17173e-07
1.31897e-05 0.000133144 2.11496e-06
7.17173e-07 2.11496e-06 0.000137637
0.000454136 -7.53613e-06 2.13393e-06
-7.53613e-06 -3.78132e-05 -4.42073e-06
2.13393e-06 -4.42073e-06 -5.95547e-05
0.00251778 1.37515e-05 6.43194e-06
1.37515e-05 0.0012286 4.4079e-08
6.43194e-06 4.4079e-08 0.00124174
0.00253189 2.32986e-06 -1.00477e-07
2.32986e-06 0.00123733 -5.10447e-06
-1.00477e-07 -5.10447e-06 0.00125037
0.00100239 7.59144e-05 -4.62243e-07
7.59144e-05 0.00034836 5.13071e-07
-4.62243e-07 5.13071e-07 0.000252044
0.000524651 5.5416e-05 -1.51766e-06
5.5416e-05 2.19413e-05 -2.10547e-06
-1.51766e-06 -2.10547e-06 -2.65454e-05
0.000561978 -1.40341e-05 1.67911e-07
-1.40341e-05 8.09011e-05 8.30099e-07
1.67911e-07 8.30099e-07 -1.33739e-05
0.000510737 5.77634e-06 9.03678e-07
5.77634e-06 -2.56266e-05 -3.22986e-06
9.03678e-07 -3.22986e-06 -3.36808e-05
0.000493566 -1.41068e-05 6.15596e-07
-1.41068e-05 -1.78764e-06 -1.24684e-07
6.15596e-07 -1.24684e-07 -4.55371e-05
0.000553967 -5.34071e-05 -1.43914e-06
-5.34071e-05 3.73506e-05 1.69548e-06
-1.43914e-06 1.69548e-06 -9.80267e-06
0.000504673 7.3364e-06 -4.05729e-07
7.3364e-06 -2.98927e-05 -2.35371e-08
-4.05729e-07 -2.35371e-08 -3.81326e-05
0.00196576 2.002e-05 3.78533e-07
2.002e-05 0.000882494 -4.62892e-06
3.78533e-07 -4.62892e-06 0.000900287
0.00109719 2.25409e-05 -7.74987e-07
2.25409e-05 0.000338787 1.88133e-06
-7.74987e-07 1.88133e-06 0.000332873
0.0013193 2.78046e-05 -6.80349e-07
2.78046e-05 0.000481495 -4.23978e-09
-6.80349e-07 -4.23978e-09 0.000494884
0.000811891 3.31582e-05 -1.00565e-05
3.31582e-05 0.000170901 7.0953e-06
-1.00565e-05 7.0953e-06 0.000178291
-0.00921391 0.000939947 0.000398956
0.000939947 -0.00343191 -1.59767e-05
0.000398956 -1.59767e-05 -0.00569531
-0.00187057 -3.86412e-05 0.000804499
-3.86412e-05 0.00504128 -0.000202688
0.000804499 -0.000202688 0.00191335
0.00294113 0.000280851 -0.000173458
0.000280851 -0.00156458 -2.45158e-05
-0.000173458 -2.45158e-05 -0.000268745
0.00129604 3.76543e-05 2.05495e-05
3.76543e-05 -0.00105492 -3.80507e-05
2.05495e-05 -3.80507e-05 -0.000718655
0.00162755 -6.36182e-05 6.79089e-06
-6.36182e-05 -0.000235473 1.12002e-05
6.79089e-06 1.12002e-05 -0.000208423
-0.00089835 4.9357e-05 -7.54121e-05
4.9357e-05 -0.00119202 -2.13626e-05
-7.54121e-05 -2.13626e-05 -0.000429673
0.00370479 -0.000308171 2.95453e-06
-0.000308171 0.000505897 4.88674e-06
2.95453e-06 4.88674e-06 0.0005805
0.011452 -2.27147e-05 0.000149802
-2.27147e-05 -4.5351e-05 -5.66652e-05
0.000149802 -5.66652e-05 -0.000926487
1.65181e-05 0.00283269 -5.48079e-06
0.00283269 0.000452276 -5.2242e-05
-5.48079e-06 -5.2242e-05 -0.00235998
0.00802149 0.00560499 -0.00039517
0.00560499 0.00588426 0.000210571
-0.00039517 0.000210571 0.00450172
0.00218983 -0.00059807 5.91734e-05
-0.00059807 -0.00158936 -4.18333e-05
5.91734e-05 -4.18333e-05 -0.0007567
0.0148248 -0.00168239 0.000188484
-0.00168239 0.00220289 -7.10051e-05
0.000188484 -7.10051e-05 0.000616639
0.011744 0.00527015 0.000342429
0.00527015 0.00325061 -0.000495824
0.000342429 -0.000495824 0.00110572
0.0156791 0.00345335 -0.000304326
0.00345335 0.00420227 0.000234634
-0.000304326 0.000234634 0.00282846
0.000858829 0.000142426 -2.07745e-06
0.000142426 0.000304608 3.61569e-06
-2.07745e-06 3.61569e-06 0.000146737
0.000390966 3.09425e-05 1.84279e-07
3.09425e-05 -2.58022e-05 -8.83368e-07
1.84279e-07 -8.83368e-07 -0.000124786
0.000580426 -9.43647e-05 3.77529e-07
-9.43647e-05 9.52779e-05 8.73845e-07
3.77529e-07 8.73845e-07 1.32046e-06
0.000609337 2.95808e-06 4.09696e-06
2.95808e-06 0.000119201 -7.38735e-07
4.09696e-06 -7.38735e-07 5.92075e-06
0.000692365 6.63057e-05 1.86832e-06
6.63057e-05 0.000204661 1.20906e-06
1.86832e-06 1.20906e-06 7.69705e-05
0.00057033 1.19236e-05 4.93227e-07
1.19236e-05 0.000117653 6.73768e-06
4.93227e-07 6.73768e-06 -3.74437e-05
0.000707895 9.04036e-05 1.1938e-06
9.04036e-05 0.000176725 2.82235e-06
1.1938e-06 2.82235e-06 4.80115e-05
0.000507221 5.05932e-05 5.18801e-06
5.05932e-05 3.82906e-05 1.05167e-06
5.18801e-06 1.05167e-06 -9.59781e-05
0.000739062 -3.81897e-05 2.58033e-06
-3.81897e-05 0.000214799 -1.17694e-06
2.58033e-06 -1.17694e-06 8.39849e-05
0.000477323 -1.01216e-05 5.60009e-07
-1.01216e-05 1.96895e-05 -2.16537e-06
5.60009e-07 -2.16537e-06 -8.22564e-05
0.0014732 -0.00030686 2.74672e-05
-0.00030686 -0.000454501 -1.63366e-06
2.74672e-05 -1.63366e-06 -0.000233092
0.00114805 -0.000514662 3.76122e-05
-0.000514662 -0.000565873 -8.47656e-06
3.76122e-05 -8.47656e-06 -0.000453377
0.000737599 -0.000630124 1.12835e-05
-0.000630124 -0.000558859 1.4114e-06
1.12835e-05 1.4114e-06 -0.000703976
-2.94766e-05 -0.000561733 2.3599e-06
-0.000561733 -0.00064768 1.04895e-06
2.3599e-06 1.04895e-06 -0.000894956
0.00312182 -0.000543749 7.74906e-06
-0.000543749 0.00191852 2.99716e-05
7.74906e-06 2.99716e-05 0.00128885
0.000124001 -0.000408911 3.72007e-06
-0.000408911 -4.17306e-05 -2.25565e-06
3.72007e-06 -2.25565e-06 -0.000435057
0.00149567 -0.000200002 3.44632e-06
-0.000200002 0.000633227 -1.23425e-06
3.44632e-06 -1.23425e-06 0.000511839
0.000844024 -4.10076e-05 -1.97494e-06
-4.10076e-05 0.000294994 2.78882e-06
-1.97494e-06 2.78882e-06 0.00016545
0.00221348 -0.000480814 1.19077e-05
-0.000480814 -0.000166644 -7.82195e-06
1.19077e-05 -7.82195e-06 3.03497e-05
0.000508603 -6.08804e-05 2.3718e-07
-6.08804e-05 0.000126672 8.01337e-07
2.3718e-07 8.01337e-07 -7.85245e-05
-0.000218143 -0.000143949 -3.36801e-07
-0.000143949 -0.00026285 -3.86305e-06
-3.36801e-07 -3.86305e-06 -0.000482974
0.00195239 -0.00069135 1.64161e-05
-0.00069135 0.000101287 -2.72954e-06
1.64161e-05 -2.72954e-06 4.97807e-05
0.00174495 -0.000844872 -1.05571e-06
-0.000844872 2.09916e-05 3.42551e-06
-1.05571e-06 3.42551e-06 -0.000149554
0.000230238 -0.000578853 1.71021e-05
-0.000578853 -0.000229901 -1.03854e-05
1.71021e-05 -1.03854e-05 -0.000479234
0.00137134 -0.000306386 2.07392e-06
-0.000306386 0.00101463 -1.44274e-05
2.07392e-06 -1.44274e-05 0.000410194
0.00293127 -0.000817265 -6.27355e-05
-0.000817265 0.000637561 2.8018e-05
-6.27355e-05 2.8018e-05 0.000351141
0.000847847 -0.000596008 -4.32208e-05
-0.000596008 -0.000280086 1.36164e-05
-4.32208e-05 1.36164e-05 -0.000325068
0.000953399 -0.000580716 -7.19195e-05
-0.000580716 0.000497311 5.14461e-05
-7.19195e-05 5.14461e-05 0.000106419
-0.00217314 -0.000195508 -3.6496e-06
-0.000195508 -0.00148964 9.19202e-06
-3.6496e-06 9.19202e-06 -0.00170012
-0.000510027 -9.53378e-05 4.24753e-06
-9.53378e-05 -0.000423389 7.85283e-06
4.24753e-06 7.85283e-06 -0.000672956
0.000586436 -5.40467e-05 8.69104e-06
-5.40467e-05 0.000327152 -9.1774e-06
8.69104e-06 -9.1774e-06 -2.2146e-05
-0.00187835 0.000991238 -0.00032743
0.000991238 0.0063468 1.67999e-05
-0.00032743 1.67999e-05 0.00234582
0.000730983 -0.00117023 -4.21857e-06
-0.00117023 0.00195193 2.11228e-05
-4.21857e-06 2.11228e-05 0.00145925
0.00183827 0.00101721 -9.57557e-05
0.00101721 -0.00467048 -4.09302e-05
-9.57557e-05 -4.09302e-05 -0.00497173
0.00030005 0.000226617 7.92821e-06
0.000226617 -1.92779e-05 -3.46758e-06
7.92821e-06 -3.46758e-06 -0.000238289
0.00108708 0.0004657 7.62579e-06
0.0004657 0.000273282 1.88895e-05
7.62579e-06 1.88895e-05 -7.39514e-05
0.0035705 0.000824583 6.08104e-05
0.000824583 0.000906948 2.08742e-05
6.08104e-05 2.08742e-05 0.000824426
0.00147779 0.000737745 1.57322e-05
0.000737745 0.000386853 2.5488e-05
1.57322e-05 2.5488e-05 4.1796e-06
0.0112707 -0.0022351 0.000161778
-0.0022351 0.0039291 4.62306e-05
0.000161778 4.62306e-05 0.00352403
0.00396921 0.000918698 -0.000335293
0.000918698 -0.0034972 -4.94024e-05
-0.000335293 -4.94024e-05 -0.00536022
0.00493868 0.00241188 -1.79955e-05
0.00241188 8.32861e-05 1.53965e-05
-1.79955e-05 1.53965e-05 0.000319323
0.00219771 0.000847045 4.1343e-05
0.000847045 0.000839229 -2.37372e-05
4.1343e-05 -2.37372e-05 0.000646432
0.00248857 -0.00270826 -0.000353057
-0.00270826 0.00185888 -0.000320199
-0.000353057 -0.000320199 -0.000614568
-0.000684876 -0.00248372 -0.000486737
-0.00248372 0.00451396 -0.000168218
-0.000486737 -0.000168218 -4.79469e-05
0.019398 -0.00434748 0.00053494
-0.00434748 0.004929 0.000313312
0.00053494 0.000313312 0.0039083
0.000444753 0.00020769 1.50209e-05
0.00020769 5.2016e-05 -3.99922e-06
1.50209e-05 -3.99922e-06 -0.000138182
-0.00398094 0.000378253 -0.00016051
0.000378253 0.00459898 -3.50059e-05
-0.00016051 -3.50059e-05 -6.14205e-05
0.00500305 0.000890309 -8.39354e-05
0.000890309 0.00290788 -0.000149245
-8.39354e-05 -0.000149245 -0.00184904
0.00160554 0.000698165 8.0746e-06
0.000698165 0.000228508 4.50398e-06
8.0746e-06 4.50398e-06 0.000148231
0.000536015 0.000509953 9.77415e-06
0.000509953 9.08938e-05 4.18586e-06
9.77415e-06 4.18586e-06 -0.000253083
0.000168424 0.000737945 -3.95213e-05
0.000737945 0.000182964 -5.76513e-05
-3.95213e-05 -5.76513e-05 -0.000335185
0.00354936 0.00247955 1.7326e-05
0.00247955 0.00103323 1.75784e-05
1.7326e-05 1.75784e-05 0.000760279
0.0164669 0.00307807 7.08412e-05
0.00307807 0.00433216 2.0382e-05
7.08412e-05 2.0382e-05 0.0022379
0.00626652 -0.00305879 7.56224e-05
-0.00305879 0.00178724 -7.01682e-05
7.56224e-05 -7.01682e-05 -0.0017497
0.0137722 -0.0021059 -2.69782e-06
-0.0021059 0.00194404 -6.34698e-05
-2.69782e-06 -6.34698e-05 0.00322511
0.000551436 0.000356268 -9.80804e-06
0.000356268 0.000155549 -9.30637e-06
-9.80804e-06 -9.30637e-06 -7.66712e-05
0.00219384 0.000181788 -0.000274044
0.000181788 0.00181888 -5.92304e-05
-0.000274044 -5.92304e-05 -0.00204427
0.000509438 0.000502058 -8.89802e-05
0.000502058 -0.000162284 -0.000157694
-8.89802e-05 -0.000157694 -0.0017184
-0.00103281 0.000215571 6.04836e-06
0.000215571 -0.000387208 -2.33443e-05
6.04836e-06 -2.33443e-05 -0.000610518
-0.000328087 0.000472359 -0.000130096
0.000472359 0.00110885 3.78897e-06
-0.000130096 3.78897e-06 0.00025838
0.0139885 0.00376897 9.26411e-05
0.00376897 0.0046586 -2.82437e-05
9.26411e-05 -2.82437e-05 0.000741565
-0.00364232 -0.00432021 -1.07532e-06
-0.00432021 -0.000923158 0.000220321
-1.07532e-06 0.000220321 -0.00499533
0.0109456 0.000543655 4.73682e-05
0.000543655 -0.00145335 -0.0002972
4.73682e-05 -0.0002972 0.00112954
0.000893683 0.000176823 -4.06865e-06
0.000176823 0.000312402 1.41645e-05
-4.06865e-06 1.41645e-05 0.000175024
0.000828136 0.000195468 -9.75296e-06
0.000195468 0.000380324 -4.00273e-06
-9.75296e-06 -4.00273e-06 0.000211039
-0.000351995 9.02913e-05 2.68253e-06
9.02913e-05 -0.000117888 -2.05209e-06
2.68253e-06 -2.05209e-06 -0.000392264
0.000711912 8.57494e-05 -1.63673e-06
8.57494e-05 0.000180642 -2.06361e-06
-1.63673e-06 -2.06361e-06 2.41904e-05
0.00105739 -3.94062e-05 -9.89178e-07
-3.94062e-05 0.000398348 3.27739e-06
-9.89178e-07 3.27739e-06 0.000230127
0.000483076 7.00533e-05 2.65054e-06
7.00533e-05 4.04794e-05 1.34609e-06
2.65054e-06 1.34609e-06 -0.000106237
-0.00102482 1.16624e-05 2.32846e-06
1.16624e-05 -0.000713878 3.15167e-07
2.32846e-06 3.15167e-07 -0.000900761
0.000765754 -2.69644e-05 1.21516e-06
-2.69644e-05 0.000215042 1.89147e-07
1.21516e-06 1.89147e-07 5.35227e-05
0.000627737 8.50998e-06 -2.17252e-07
8.50998e-06 0.000184741 -2.44959e-06
-2.17252e-07 -2.44959e-06 2.03817e-05
-0.000253348 1.07501e-05 1.11154e-06
1.07501e-05 -1.03132e-05 2.58269e-06
1.11154e-06 2.58269e-06 -0.000330112
-0.000305992 5.67749e-05 -5.45926e-06
5.67749e-05 0.000139099 8.08409e-06
-5.45926e-06 8.08409e-06 -0.000306933
-1.00188e-05 -6.00088e-07 -2.77235e-06
-6.00088e-07 0.000171363 -2.12675e-06
-2.77235e-06 -2.12675e-06 -0.000179386
0.000760377 8.42963e-06 -1.47196e-06
8.42963e-06 0.000236715 -6.3548e-06
-1.47196e-06 -6.3548e-06 9.08678e-05
0.000684398 -0.00013127 1.40881e-06
-0.00013127 0.000162216 1.09898e-06
1.40881e-06 1.09898e-06 -6.48479e-07
0.000523295 -1.18273e-05 9.90218e-07
-1.18273e-05 4.46236e-05 1.42007e-06
9.90218e-07 1.42007e-06 -8.5461e-05
0.000491394 -8.99464e-05 8.64811e-07
-8.99464e-05 4.55126e-05 9.68871e-06
8.64811e-07 9.68871e-06 -5.88417e-05
0.000290116 -3.646e-05 2.1247e-06
-3.646e-05 -5.09798e-05 3.24614e-06
2.1247e-06 3.24614e-06 -0.00019418
0.000625319 -3.81925e-05 1.85165e-07
-3.81925e-05 0.000141561 3.80689e-07
1.85165e-07 3.80689e-07 -7.78298e-07
0.000504118 -4.51206e-05 1.53486e-07
-4.51206e-05 7.71892e-05 -1.79532e-06
1.53486e-07 -1.79532e-06 -5.08055e-05
0.000493111 -4.88972e-05 -6.67546e-06
-4.88972e-05 5.34539e-05 -4.52198e-06
-6.67546e-06 -4.52198e-06 -7.34556e-05
0.000364854 -5.72438e-05 6.25942e-06
-5.72438e-05 0.000134289 -6.61301e-06
6.25942e-06 -6.61301e-06 -2.83169e-05
0.000170249 -0.000145916 -2.84852e-07
-0.000145916 -0.000331841 2.86688e-06
-2.84852e-07 2.86688e-06 -0.00042818
0.000758387 -0.000130354 -8.72666e-06
-0.000130354 0.000134067 -7.53201e-07
-8.72666e-06 -7.53201e-07 2.47465e-05
0.000363687 -0.000153452 6.07432e-06
-0.000153452 -0.000108138 6.45448e-06
6.07432e-06 6.45448e-06 -0.000255715
0.0019858 -0.000453453 1.73478e-06
-0.000453453 0.000774115 1.67306e-05
1.73478e-06 1.67306e-05 0.000482652
0.00162277 -0.000199553 2.25445e-06
-0.000199553 0.000704188 -4.99039e-06
2.25445e-06 -4.99039e-06 0.000522417
-0.000180187 -6.87709e-05 -9.59274e-06
-6.87709e-05 -0.000426559 -4.61691e-06
-9.59274e-06 -4.61691e-06 -0.000549746
0.000536291 -6.45541e-05 1.2729e-07
-6.45541e-05 5.39861e-05 -2.62741e-07
1.2729e-07 -2.62741e-07 -9.06085e-05
2.14923e-06 -4.60797e-05 -1.0065e-06
-4.60797e-05 -0.000254768 -1.90157e-06
-1.0065e-06 -1.90157e-06 -0.000410755
0.000839636 -8.5568e-05 -7.58136e-07
-8.5568e-05 0.00024067 8.81656e-07
-7.58136e-07 8.81656e-07 9.11788e-05
0.000760005 -0.000106621 -7.95552e-07
-0.000106621 0.000216664 7.14156e-07
-7.95552e-07 7.14156e-07 5.93522e-05
0.000557242 -5.38075e-05 -3.03142e-07
-5.38075e-05 5.25436e-05 1.56573e-06
-3.03142e-07 1.56573e-06 -6.24633e-05
0.00123452 -0.00015235 -6.40258e-07
-0.00015235 0.000539909 -1.08713e-06
-6.40258e-07 -1.08713e-06 0.000369913
0.000662914 -9.13316e-05 -5.06242e-07
-9.13316e-05 0.000130494 -2.94396e-08
-5.06242e-07 -2.94396e-08 1.24158e-05
0.000513308 1.53115e-05 -2.32407e-06
1.53115e-05 1.33942e-05 2.91062e-06
-2.32407e-06 2.91062e-06 -6.27486e-05
0.000726246 -0.000121207 1.84686e-06
-0.000121207 0.000175863 -2.0845e-06
1.84686e-06 -2.0845e-06 5.46602e-05
0.000599135 -4.59683e-05 -2.18415e-07
-4.59683e-05 6.43634e-05 1.65242e-07
-2.18415e-07 1.65242e-07 -9.47271e-06
0.00144136 1.37812e-05 -1.14047e-05
1.37812e-05 0.000560202 6.95426e-06
-1.14047e-05 6.95426e-06 0.000539686
0.000555144 -6.04661e-05 2.48669e-06
-6.04661e-05 4.65287e-05 -3.33635e-06
2.48669e-06 -3.33635e-06 -2.99015e-05
0.000894296 -5.06818e-06 -6.42405e-06
-5.06818e-06 0.000226022 6.88251e-07
-6.42405e-06 6.88251e-07 0.000204271
0.000786114 2.24052e-05 7.46533e-07
2.24052e-05 0.000148568 2.59595e-06
7.46533e-07 2.59595e-06 0.000151227
0.000457319 -1.98616e-05 1.91924e-06
-1.98616e-05 -4.05433e-05 -4.66703e-06
1.91924e-06 -4.66703e-06 -6.32305e-05
0.00164161 2.26826e-05 8.91092e-06
2.26826e-05 0.000683911 -1.48985e-06
8.91092e-06 -1.48985e-06 0.000692608
0.00249751 1.4401e-05 8.40304e-06
1.4401e-05 0.00121559 -5.1285e-06
8.40304e-06 -5.1285e-06 0.00122875
0.000567063 4.12728e-05 2.05519e-06
4.12728e-05 6.18964e-05 -9.73644e-07
2.05519e-06 -9.73644e-07 -3.54827e-05
0.000603445 5.46808e-05 -8.57357e-07
5.46808e-05 6.56942e-05 -1.71833e-06
-8.57357e-07 -1.71833e-06 1.46182e-05
0.000616166 -6.66398e-07 1.16154e-06
-6.66398e-07 0.000104819 6.21456e-07
1.16154e-06 6.21456e-07 1.1294e-05
0.000496832 1.84057e-06 1.41887e-06
1.84057e-06 -3.31111e-05 -3.51629e-06
1.41887e-06 -3.51629e-06 -4.19268e-05
0.000514539 4.55961e-05 1.20038e-07
4.55961e-05 1.16814e-05 -1.09559e-07
1.20038e-07 -1.09559e-07 -3.4431e-05
0.000556166 -0.000107805 -3.30716e-06
-0.000107805 7.0032e-05 5.31077e-07
-3.30716e-06 5.31077e-07 -1.88903e-05
0.00198538 6.52679e-06 -4.70145e-06
6.52679e-06 0.000892894 -4.71179e-06
-4.70145e-06 -4.71179e-06 0.000911314
0.000490751 4.42669e-06 -2.42649e-07
4.42669e-06 -3.75459e-05 1.48462e-08
-2.42649e-07 1.48462e-08 -4.55864e-05
0.000519203 -1.71474e-05 -1.93115e-06
-1.71474e-05 1.21038e-05 1.78399e-06
-1.93115e-06 1.78399e-06 -3.05446e-05
0.00048715 6.29523e-06 -1.29481e-06
6.29523e-06 -4.11937e-05 3.17791e-06
-1.29481e-06 3.17791e-06 -4.93651e-05
0.00199747 2.15095e-05 -4.94773e-06
2.15095e-05 0.000902373 -8.77877e-08
-4.94773e-06 -8.77877e-08 0.000919968
0.00195355 3.46843e-05 -6.66549e-06
3.46843e-05 0.000877494 4.41993e-06
-6.66549e-06 4.41993e-06 0.000894285
-0.00650834 -0.00134621 -0.000142186
-0.00134621 0.00444733 4.78944e-05
-0.000142186 4.78944e-05 0.000723999
0.00111511 0.00106931 -0.000206397
0.00106931 0.000213105 6.03622e-05
-0.000206397 6.03622e-05 -0.00135733
0.00294448 -0.00086095 -0.000532879
-0.00086095 0.00120693 0.000239619
-0.000532879 0.000239619 -0.00316631
-0.00178004 0.000286578 0.000896272
0.000286578 0.00501149 -0.000309695
0.000896272 -0.000309695 0.00156414
0.00133611 0.000452371 -2.14425e-05
0.000452371 -0.00133639 -2.38164e-05
-2.14425e-05 -2.38164e-05 -0.000673127
0.00250533 -0.000374019 8.6782e-05
-0.000374019 -0.00027377 5.01246e-06
8.6782e-05 5.01246e-06 -0.000201599
0.000630612 -0.000360483 0.000216598
-0.000360483 -0.00409547 -6.6694e-05
0.000216598 -6.6694e-05 -0.00599371
0.0176534 0.0025767 -0.000570875
0.0025767 0.0080001 5.1362e-05
-0.000570875 5.1362e-05 0.00577317
0.000259877 0.00644038 -0.00185801
0.00644038 0.00151476 0.0012766
-0.00185801 0.0012766 0.000145087
0.00412871 -0.000470127 1.70134e-05
-0.000470127 -0.00036305 9.1615e-06
1.70134e-05 9.1615e-06 0.000128191
0.00882356 -0.00161215 0.00012604
-0.00161215 -0.000725502 -0.000112612
0.00012604 -0.000112612 -0.00307458
0.0187508 0.00452031 -0.00025344
0.00452031 0.0056195 -9.90982e-05
-0.00025344 -9.90982e-05 0.00364922
0.0116268 0.0035926 -6.00699e-05
0.0035926 0.00144199 0.000340746
-6.00699e-05 0.000340746 -0.000160852
0.00173185 -0.00136688 -0.000101061
-0.00136688 -0.00257096 1.64738e-05
-0.000101061 1.64738e-05 -0.00179897
0.00489582 -0.00269007 0.000325648
-0.00269007 -0.000187352 -0.000202695
0.000325648 -0.000202695 -0.0040643
0.00215676 0.00287734 8.29065e-05
0.00287734 -0.000592326 -0.000667795
8.29065e-05 -0.000667795 -0.00335402
0.00778257 0.00112497 -0.000216897
0.00112497 -0.00263924 4.16251e-06
-0.000216897 4.16251e-06 -0.00148499
0.00199752 -8.15788e-05 1.98512e-06
-8.15788e-05 0.00106478 1.29084e-05
1.98512e-06 1.29084e-05 0.000831578
0.000526245 0.000115051 -1.7672e-06
0.000115051 8.27729e-05 -2.30888e-06
-1.7672e-06 -2.30888e-06 -5.45201e-05
0.000536 9.24742e-05 9.90043e-07
9.24742e-05 5.47155e-05 -1.87102e-06
9.90043e-07 -1.87102e-06 -3.90565e-05
0.000410806 3.25009e-05 5.78752e-06
3.25009e-05 2.89851e-05 -2.65247e-07
5.78752e-06 -2.65247e-07 -9.00731e-05
0.000427071 8.10163e-05 3.53316e-06
8.10163e-05 9.56518e-06 3.02914e-06
3.53316e-06 3.02914e-06 -0.000164435
0.000522044 3.96631e-05 -1.24494e-07
3.96631e-05 8.03888e-05 2.15001e-06
-1.24494e-07 2.15001e-06 -6.32584e-05
0.000427883 3.84923e-05 3.7147e-07
3.84923e-05 7.16279e-06 -2.42559e-06
3.7147e-07 -2.42559e-06 -0.000120321
0.000910209 0.000164469 2.92054e-06
0.000164469 0.000315959 4.69148e-06
2.92054e-06 4.69148e-06 0.00015178
0.000860098 0.000118823 2.60063e-08
0.000118823 0.000290675 2.02609e-07
2.60063e-08 2.02609e-07 0.0001321
0.000393696 -1.57799e-05 -4.72694e-06
-1.57799e-05 -9.09348e-06 -4.94668e-06
-4.72694e-06 -4.94668e-06 -0.000134131
0.000534384 -0.00038063 7.0947e-05
-0.00038063 -0.00104436 -3.10573e-05
7.0947e-05 -3.10573e-05 -0.000817477
0.000452913 -0.000586622 3.00067e-05
-0.000586622 -0.00073841 -9.60926e-06
3.00067e-05 -9.60926e-06 -0.000741902
0.00171241 -0.000850493 2.40213e-06
-0.000850493 -4.99631e-05 1.10162e-05
2.40213e-06 1.10162e-05 -0.000172444
-0.000745836 -0.000564841 7.52539e-06
-0.000564841 -0.000748931 -1.78511e-05
7.52539e-06 -1.78511e-05 -0.00107753
0.00308186 -0.00038238 -1.5172e-05
-0.00038238 0.00184825 5.36788e-05
-1.5172e-05 5.36788e-05 0.00138051
0.000892119 -0.000158314 -2.67448e-06
-0.000158314 0.000420684 4.439e-06
-2.67448e-06 4.439e-06 0.000185761
0.000332826 0.000113987 -2.82607e-06
0.000113987 1.07448e-05 -1.29083e-05
-2.82607e-06 -1.29083e-05 -0.000192929
0.00057642 -9.69922e-05 -1.9511e-06
-9.69922e-05 0.000179935 8.20359e-06
-1.9511e-06 8.20359e-06 -6.25141e-05
0.00164214 -0.000664273 1.0841e-07
-0.000664273 -0.000161292 -4.84795e-06
1.0841e-07 -4.84795e-06 -0.000236192
0.000638262 -4.74942e-05 8.406e-07
-4.74942e-05 0.000219991 4.4655e-06
8.406e-07 4.4655e-06 -8.7644e-06
0.00195761 -0.000244252 8.89664e-07
-0.000244252 0.00114325 -1.38845e-06
8.89664e-07 -1.38845e-06 0.000776337
0.00117878 -0.000636626 1.60259e-06
-0.000636626 -0.000115453 5.79304e-06
1.60259e-06 5.79304e-06 -0.000156389
0.000757847 -0.000602173 -2.10764e-05
-0.000602173 0.000316525 6.68906e-06
-2.10764e-05 6.68906e-06 -4.76572e-05
0.0030337 -0.00122585 2.99243e-05
-0.00122585 0.000542652 -1.75946e-05
2.99243e-05 -1.75946e-05 0.000545242
-0.00135903 -0.000366189 -7.05418e-06
-0.000366189 -0.00107399 2.30571e-05
-7.05418e-06 2.30571e-05 -0.00110781
-0.000715315 -8.97955e-05 9.27873e-06
-8.97955e-05 -0.000270384 3.85924e-06
9.27873e-06 3.85924e-06 -0.000733893
0.000659299 1.31784e-05 -2.82718e-06
1.31784e-05 0.000191306 -1.05524e-06
-2.82718e-06 -1.05524e-06 -9.02762e-06
0.000994271 1.28377e-05 8.08455e-06
1.28377e-05 0.000549586 -7.45819e-06
8.08455e-06 -7.45819e-06 0.00026816
0.00134912 6.72665e-05 -2.9255e-05
6.72665e-05 0.0017298 -1.27002e-05
-2.9255e-05 -1.27002e-05 -0.00174244
-0.00564656 0.000348902 -0.000282323
0.000348902 0.00564315 -1.47762e-05
-0.000282323 -1.47762e-05 0.00120921
-0.0125265 -0.00186991 -0.000564034
-0.00186991 -0.00565568 -1.63809e-05
-0.000564034 -1.63809e-05 -0.0059052
-0.000829005 0.000135541 6.67333e-06
0.000135541 -0.000672149 -2.88456e-06
6.67333e-06 -2.88456e-06 -0.000875666
-0.000394903 0.000405743 -3.03582e-06
0.000405743 -0.000362706 1.0466e-05
-3.03582e-06 1.0466e-05 -0.000712274
0.00134235 0.000782498 2.7417e-05
0.000782498 9.57787e-05 2.24991e-05
2.7417e-05 2.24991e-05 -9.82853e-06
-0.00544983 0.00150236 3.92267e-05
0.00150236 0.00482185 4.72729e-05
3.92267e-05 4.72729e-05 0.000726856
0.00548359 0.00261806 -0.000218082
0.00261806 0.000209029 -0.000138618
-0.000218082 -0.000138618 -0.00344451
0.00193075 0.00174623 0.000316023
0.00174623 0.000401898 0.000103666
0.000316023 0.000103666 0.000212818
-0.000174474 0.000710556 2.48082e-05
0.000710556 -0.0001958 -3.77724e-05
2.48082e-05 -3.77724e-05 -0.000391944
0.0216104 -0.0031583 -0.00015692
-0.0031583 0.00686871 -0.000283619
-0.00015692 -0.000283619 0.00451229
0.00551166 0.00111559 0.000402801
0.00111559 0.00281486 0.000148966
0.000402801 0.000148966 -0.00230284
0.0132706 -0.00182193 0.000135884
-0.00182193 0.00210393 3.29864e-05
0.000135884 3.29864e-05 0.00348286
0.00109317 0.000408301 4.48629e-06
0.000408301 0.000532717 -1.63171e-06
4.48629e-06 -1.63171e-06 0.000289246
0.00376923 0.000388225 9.31444e-07
0.000388225 0.00265572 1.43217e-05
9.31444e-07 1.43217e-05 -0.000239269
0.00123974 0.000479186 5.03697e-05
0.000479186 4.01259e-05 6.41995e-06
5.03697e-05 6.41995e-06 -0.00155411
-0.000317497 0.000402709 -3.14245e-06
0.000402709 -0.00013074 -4.68928e-06
-3.14245e-06 -4.68928e-06 -0.00041198
0.000590426 0.000961572 -9.97729e-05
0.000961572 0.000973927 -4.53867e-05
-9.97729e-05 -4.53867e-05 -0.000231027
0.00126306 0.00348389 0.000156408
0.00348389 0.000547709 9.17924e-05
0.000156408 9.17924e-05 -0.00352535
0.00859659 0.000159001 -1.14782e-05
0.000159001 -0.00329972 -0.000193657
-1.14782e-05 -0.000193657 -0.000438192
0.00429458 -0.00231935 -6.08573e-05
-0.00231935 0.00253705 -0.000138329
-6.08573e-05 -0.000138329 -0.00141004
0.000997561 0.00032018 -3.90808e-06
0.00032018 0.000764879 -1.74315e-05
-3.90808e-06 -1.74315e-05 0.000476414
-0.00214464 9.7016e-05 7.82952e-06
9.7016e-05 -0.000122065 9.36534e-06
7.82952e-06 9.36534e-06 -0.000241206
0.00410083 -4.57204e-05 7.97341e-05
-4.57204e-05 -0.000243865 -0.00014787
7.97341e-05 -0.00014787 -0.00127742
0.00779807 0.00124026 0.000223809
0.00124026 -0.0023462 -2.00851e-05
0.000223809 -2.00851e-05 -0.00134312
-0.00201904 0.000114216 2.09081e-05
0.000114216 -8.20409e-05 -3.35602e-05
2.09081e-05 -3.35602e-05 -0.000819843
0.0126596 0.00278357 0.000240054
0.00278357 0.00580375 5.67001e-05
0.000240054 5.67001e-05 0.000994728
-0.0019568 -0.000433093 7.29311e-05
-0.000433093 0.00177344 0.000352902
7.29311e-05 0.000352902 -0.00135758
0.00264412 0.000373451 2.16878e-05
0.000373451 0.00149866 1.20156e-05
2.16878e-05 1.20156e-05 0.00128725
0.000602435 0.000199633 -5.21397e-06
0.000199633 0.000462595 -5.61318e-07
-5.21397e-06 -5.61318e-07 0.00015451
7.17565e-05 0.000106934 1.62617e-07
0.000106934 0.000365785 1.17568e-06
1.62617e-07 1.17568e-06 -2.54435e-05
0.000680907 0.000155548 1.30061e-06
0.000155548 0.000179664 1.22302e-06
1.30061e-06 1.22302e-06 1.027e-05
0.000383427 4.73029e-05 1.81716e-06
4.73029e-05 2.54529e-05 1.3774e-06
1.81716e-06 1.3774e-06 -0.000131414
0.0004576 -3.01958e-05 7.89966e-06
-3.01958e-05 0.000425412 3.68692e-07
7.89966e-06 3.68692e-07 9.1625e-05
0.000436836 2.45907e-05 2.93859e-07
2.45907e-05 3.06001e-05 -7.47e-07
2.93859e-07 -7.47e-07 -0.000105644
0.00064089 -2.45629e-05 -2.1421e-06
-2.45629e-05 0.000543836 -2.44491e-06
-2.1421e-06 -2.44491e-06 0.000204142
0.000460461 5.07761e-05 6.21839e-07
5.07761e-05 0.000572968 -1.93485e-06
6.21839e-07 -1.93485e-06 0.000144782
-0.000259153 2.06966e-05 -1.14784e-05
2.06966e-05 0.00010176 1.80025e-06
-1.14784e-05 1.80025e-06 -0.000261253
0.000257073 -2.1286e-05 -1.3768e-07
-2.1286e-05 0.000251199 -5.11209e-06
-1.3768e-07 -5.11209e-06 -3.85206e-05
0.000257298 -6.2635e-05 1.05727e-06
-6.2635e-05 -9.35063e-05 7.93914e-06
1.05727e-06 7.93914e-06 -0.000220821
0.000819545 -4.89851e-05 -8.3241e-07
-4.89851e-05 0.000257479 1.62489e-06
-8.3241e-07 1.62489e-06 0.000115025
0.00114792 -4.61583e-05 -1.06248e-05
-4.61583e-05 0.000469739 8.59398e-06
-1.06248e-05 8.59398e-06 0.000339424
0.000772015 -7.57211e-05 2.62783e-06
-7.57211e-05 0.000354665 -4.36874e-07
2.62783e-06 -4.36874e-07 0.000203945
0.000602061 -4.82715e-05 -8.10102e-07
-4.82715e-05 0.000116985 -6.16562e-07
-8.10102e-07 -6.16562e-07 -8.26371e-06
0.000279691 -0.000139258 -5.59962e-09
-0.000139258 -4.58106e-05 1.44898e-06
-5.59962e-09 1.44898e-06 -0.000189851
6.90344e-05 -0.000127596 -9.9966e-06
-0.000127596 -0.000301073 -1.84773e-06
-9.9966e-06 -1.84773e-06 -0.000369632
-0.00076857 -0.000260383 8.58856e-06
-0.000260383 -0.00075773 1.36251e-05
8.58856e-06 1.36251e-05 -0.00102262
0.00041303 -0.000168401 5.43594e-06
-0.000168401 -5.56229e-05 -1.10024e-06
5.43594e-06 -1.10024e-06 -0.000171914
0.00122075 -0.000258893 -2.64659e-06
-0.000258893 0.000402217 9.09022e-06
-2.64659e-06 9.09022e-06 0.000225964
0.00201807 -0.000494403 -9.24057e-06
-0.000494403 0.000814579 1.17999e-05
-9.24057e-06 1.17999e-05 0.000490218
0.00155326 -0.000439304 -5.99447e-06
-0.000439304 0.00040305 7.23938e-07
-5.99447e-06 7.23938e-07 8.17562e-05
0.00107114 -0.000282183 -5.85403e-07
-0.000282183 0.00033742 4.24677e-06
-5.85403e-07 4.24677e-06 0.000104639
0.000251918 -0.000248654 1.04607e-05
-0.000248654 -0.000275577 -3.95834e-06
1.04607e-05 -3.95834e-06 -0.000517481
0.00117016 -0.000141822 1.99138e-06
-0.000141822 0.000460185 -2.62117e-06
1.99138e-06 -2.62117e-06 0.000252513
0.00134317 -0.00020788 -6.82666e-06
-0.00020788 0.000568886 -4.37376e-07
-6.82666e-06 -4.37376e-07 0.000370948
8.24905e-05 -0.000107693 8.52259e-06
-0.000107693 -0.000224964 -1.50056e-05
8.52259e-06 -1.50056e-05 -0.000341719
0.00107939 -8.7794e-05 5.88456e-08
-8.7794e-05 0.000360863 1.49413e-06
5.88456e-08 1.49413e-06 0.000216592
0.000261822 -7.35211e-05 7.18286e-07
-7.35211e-05 -9.54801e-05 -6.94376e-07
7.18286e-07 -6.94376e-07 -0.000253248
0.000618955 -4.84059e-05 5.23853e-07
-4.84059e-05 7.99916e-05 6.70444e-07
5.23853e-07 6.70444e-07 -4.24075e-05
0.0011448 -0.000171101 -5.762e-07
-0.000171101 0.000467354 4.89094e-07
-5.762e-07 4.89094e-07 0.000296185
0.000656867 -7.9044e-05 -2.95051e-07
-7.9044e-05 0.000125852 -1.27516e-07
-2.95051e-07 -1.27516e-07 3.34246e-08
0.000488361 1.781e-05 1.15693e-06
1.781e-05 7.05987e-06 3.48584e-06
1.15693e-06 3.48584e-06 -8.00619e-05
0.000775952 -0.000116333 5.03398e-07
-0.000116333 0.000212295 -2.34536e-06
5.03398e-07 -2.34536e-06 8.43791e-05
0.000519888 9.39996e-06 -1.88769e-06
9.39996e-06 2.22293e-05 -1.6672e-07
-1.88769e-06 -1.6672e-07 -5.75768e-05
0.00139361 2.08041e-05 -1.38867e-05
2.08041e-05 0.000531289 4.7182e-06
-1.38867e-05 4.7182e-06 0.000509773
0.000597767 -5.56978e-05 2.91077e-06
-5.56978e-05 6.64676e-05 -3.56934e-06
2.91077e-06 -3.56934e-06 -9.51254e-06
0.000902385 2.20459e-06 -7.01198e-06
2.20459e-06 0.000226607 6.19924e-07
-7.01198e-06 6.19924e-07 0.00020376
0.000829113 3.23509e-05 -1.99899e-08
3.23509e-05 0.000173977 2.82233e-06
-1.99899e-08 2.82233e-06 0.000174643
0.000468482 -1.15446e-05 1.96423e-06
-1.15446e-05 -3.99555e-05 -5.25622e-06
1.96423e-06 -5.25622e-06 -6.39528e-05
0.00169085 3.48329e-05 1.19494e-05
3.48329e-05 0.000712797 -1.30414e-06
1.19494e-05 -1.30414e-06 0.000720139
0.002516 2.93705e-05 1.26392e-05
2.93705e-05 0.00122583 -5.33386e-06
1.26392e-05 -5.33386e-06 0.00123841
0.000324288 1.35946e-05 1.21716e-06
1.35946e-05 -7.50632e-05 -2.29244e-07
1.21716e-06 -2.29244e-07 -0.000197166
0.00020902 1.68512e-05 3.39937e-07
1.68512e-05 -0.000180879 -3.31112e-06
3.39937e-07 -3.31112e-06 -0.000240077
0.000645234 4.38962e-05 5.71707e-09
4.38962e-05 0.000119609 9.13709e-08
5.71707e-09 9.13709e-08 1.43502e-05
0.000495204 4.17433e-07 1.27677e-06
4.17433e-07 -3.52585e-05 -3.64642e-06
1.27677e-06 -3.64642e-06 -4.56398e-05
0.00035569 4.29115e-06 1.53003e-06
4.29115e-06 -9.18481e-05 2.67809e-09
1.53003e-06 2.67809e-09 -0.000141312
0.000317679 -9.34365e-05 -1.89057e-06
-9.34365e-05 -8.02042e-05 -4.54356e-07
-1.89057e-06 -4.54356e-07 -0.000175065
0.00205369 -7.31481e-06 -9.40799e-06
-7.31481e-06 0.000934808 -4.74822e-06
-9.40799e-06 -4.74822e-06 0.000952945
0.000491657 1.26959e-06 -3.16739e-08
1.26959e-06 -3.69269e-05 -5.86664e-08
-3.16739e-08 -5.86664e-08 -4.55383e-05
0.000470537 -1.74608e-05 -2.44618e-06
-1.74608e-05 -1.93753e-05 1.94016e-06
-2.44618e-06 1.94016e-06 -6.29565e-05
0.00200571 7.91529e-06 -4.45751e-06
7.91529e-06 0.000905832 1.09802e-08
-4.45751e-06 1.09802e-08 0.000924066
0.000478691 3.6362e-06 -1.1938e-06
3.6362e-06 -4.45296e-05 3.17901e-06
-1.1938e-06 3.17901e-06 -5.2596e-05
0.00197109 2.26756e-05 -1.59734e-07
2.26756e-05 0.000885971 4.61235e-06
-1.59734e-07 4.61235e-06 0.000903596
-1.2646e-05 -0.000563205 -0.000200396
-0.000563205 -0.000175869 6.54364e-05
-0.000200396 6.54364e-05 -0.00280609
0.00141261 0.000404457 -8.08233e-05
0.000404457 0.00628026 9.26356e-06
-8.08233e-05 9.26356e-06 0.00303283
0.00155635 -0.000193986 -0.000631093
-0.000193986 0.00331507 0.00010688
-0.000631093 0.00010688 0.00165729
0.000695035 0.000114745 3.64715e-06
0.000114745 0.000150044 4.0551e-06
3.64715e-06 4.0551e-06 1.21381e-06
0.00436172 -0.000677202 -4.75308e-05
-0.000677202 0.00295605 0.000190678
-4.75308e-05 0.000190678 0.00110292
0.00392895 -0.00104221 -0.000230471
-0.00104221 0.00158866 1.87792e-05
-0.000230471 1.87792e-05 -0.00271924
0.00774789 0.00217698 0.000326877
0.00217698 0.00635378 -0.000273649
0.000326877 -0.000273649 0.00324469
0.00646829 -0.0007483 8.78989e-05
-0.0007483 0.000850231 -2.14078e-05
8.78989e-05 -2.14078e-05 0.000917932
0.0124456 -0.00170077 0.000222903
-0.00170077 0.00125625 -9.5876e-05
0.000222903 -9.5876e-05 -0.000242347
0.00390602 0.00392781 -0.000465693
0.00392781 -0.00142727 0.000362432
-0.000465693 0.000362432 -0.00329938
0.0117405 0.00360147 4.98498e-05
0.00360147 0.00324633 0.000173681
4.98498e-05 0.000173681 0.00118627
0.00649773 -0.0016778 -0.000122709
-0.0016778 0.000180739 -7.64445e-06
-0.000122709 -7.64445e-06 0.000340806
0.0167017 -0.00286029 4.39613e-05
-0.00286029 0.00460611 -2.7628e-05
4.39613e-05 -2.7628e-05 0.0022558
0.00786832 0.00236651 0.000150232
0.00236651 0.00173951 -0.000282974
0.000150232 -0.000282974 -0.00116123
0.0101719 0.00118525 1.45153e-05
0.00118525 -0.000930715 3.08946e-05
1.45153e-05 3.08946e-05 -0.00028994
0.00312316 -0.00209312 -3.16073e-05
-0.00209312 -6.50141e-05 4.15625e-05
-3.16073e-05 4.15625e-05 -0.00034531
0.0116529 -0.00340244 0.000144922
-0.00340244 0.00487799 -9.47999e-05
0.000144922 -9.47999e-05 0.00066464
0.00782438 -0.000108529 0.000125331
-0.000108529 0.00330505 -0.000376449
0.000125331 -0.000376449 0.00116041
0.0107773 0.000680674 -0.000100296
0.000680674 -0.00137837 0.000206416
-0.000100296 0.000206416 0.000993321
0.000676624 5.96763e-06 2.79675e-06
5.96763e-06 0.000224268 6.09167e-06
2.79675e-06 6.09167e-06 1.76403e-05
0.000819032 -0.000122382 -9.31349e-08
-0.000122382 0.000327373 2.12773e-07
-9.31349e-08 2.12773e-07 0.000107567
0.000736552 0.000137959 1.70118e-07
0.000137959 0.000217778 -4.62202e-06
1.70118e-07 -4.62202e-06 7.64801e-05
0.00059791 0.00010697 3.96371e-07
0.00010697 7.94421e-05 6.75526e-06
3.96371e-07 6.75526e-06 -6.15864e-05
0.000778717 0.000153322 2.92173e-07
0.000153322 0.000246744 6.14398e-07
2.92173e-07 6.14398e-07 6.55744e-05
0.000989934 8.00208e-05 -5.35863e-06
8.00208e-05 0.000376639 -3.33099e-06
-5.35863e-06 -3.33099e-06 0.000230957
0.00102291 0.000159194 -1.2982e-06
0.000159194 0.000386347 -2.6634e-08
-1.2982e-06 -2.6634e-08 0.000221141
0.00108157 0.000175328 7.39123e-07
0.000175328 0.00044532 2.10453e-06
7.39123e-07 2.10453e-06 0.000275384
-0.000249281 -0.000423833 8.9147e-05
-0.000423833 -0.00123294 -5.16795e-05
8.9147e-05 -5.16795e-05 -0.00111554
0.00226803 -0.000758453 8.80497e-06
-0.000758453 0.000443338 -1.565e-05
8.80497e-06 -1.565e-05 0.000394118
0.00103523 -0.000227091 9.48703e-08
-0.000227091 0.000474602 -2.04808e-05
9.48703e-08 -2.04808e-05 0.00021234
0.00153495 -0.000656783 2.01921e-05
-0.000656783 0.000726084 -2.88795e-05
2.01921e-05 -2.88795e-05 0.000378756
0.00248362 -0.000391425 -1.56999e-05
-0.000391425 0.00140489 1.46761e-05
-1.56999e-05 1.46761e-05 0.0010503
0.00141584 -0.000129441 -6.98569e-10
-0.000129441 0.000680777 -1.9149e-05
-6.98569e-10 -1.9149e-05 0.000444571
0.000117227 -6.05438e-05 1.86246e-06
-6.05438e-05 -0.000139177 5.61044e-06
1.86246e-06 5.61044e-06 -0.000333239
6.10672e-05 -0.000900428 -2.08918e-07
-0.000900428 -0.000971058 -1.8958e-06
-2.08918e-07 -1.8958e-06 -0.000906147
0.00130085 4.91413e-05 -7.94682e-07
4.91413e-05 0.000735088 -5.90298e-07
-7.94682e-07 -5.90298e-07 0.000445394
0.000672978 -0.000220698 6.19699e-06
-0.000220698 0.000454076 1.92002e-06
6.19699e-06 1.92002e-06 4.82469e-05
0.000762687 -0.000411737 6.97674e-06
-0.000411737 0.000109093 4.58007e-06
6.97674e-06 4.58007e-06 8.52369e-05
0.0012319 0.000122744 -5.46786e-07
0.000122744 0.000527848 -1.1921e-06
-5.46786e-07 -1.1921e-06 0.000365617
0.000359212 -0.000798303 -1.70572e-05
-0.000798303 -0.00033599 -3.82162e-05
-1.70572e-05 -3.82162e-05 -0.000403832
-0.000826558 -0.000376623 -1.2498e-05
-0.000376623 -0.000513116 3.18065e-05
-1.2498e-05 3.18065e-05 -0.000714928
-0.000180847 9.7847e-05 2.02339e-05
9.7847e-05 0.00023642 -2.01318e-05
2.02339e-05 -2.01318e-05 -0.000306412
0.00138432 0.000242216 -1.19115e-06
0.000242216 0.000718327 -3.96202e-06
-1.19115e-06 -3.96202e-06 0.000516158
-0.000899152 6.17448e-05 6.46227e-05
6.17448e-05 0.0010861 6.96357e-06
6.46227e-05 6.96357e-06 0.000375358
0.000693144 -3.08641e-05 0.000129343
-3.08641e-05 0.00125725 -2.85753e-05
0.000129343 -2.85753e-05 -0.00218122
-0.00975434 -0.000258062 -0.000219695
-0.000258062 0.00508149 2.13305e-05
-0.000219695 2.13305e-05 9.7474e-05
0.00159824 0.000441564 1.8132e-05
0.000441564 0.000917957 5.74783e-07
1.8132e-05 5.74783e-07 0.000661934
-0.000934828 0.000534623 7.51261e-06
0.000534623 -0.000507678 1.60469e-05
7.51261e-06 1.60469e-05 -0.000888399
0.00516469 0.000486825 0.000228551
0.000486825 0.00326915 3.74469e-05
0.000228551 3.74469e-05 0.00130388
0.0105661 0.00287931 0.000256641
0.00287931 0.00377909 0.000166201
0.000256641 0.000166201 -0.000279372
0.00293243 0.001643 -7.61087e-05
0.001643 0.00188699 -8.04231e-05
-7.61087e-05 -8.04231e-05 0.000560325
0.00522015 -0.00191714 -0.000148141
-0.00191714 0.00342963 -0.000392659
-0.000148141 -0.000392659 0.000326016
0.00212471 0.000429918 0.000107716
0.000429918 0.000232821 0.000179127
0.000107716 0.000179127 -0.00132519
0.00648514 -0.000138831 -3.66113e-05
-0.000138831 -0.00520169 -0.000213692
-3.66113e-05 -0.000213692 -0.00192855
0.000740635 0.000352261 6.29524e-06
0.000352261 0.000598211 1.99268e-06
6.29524e-06 1.99268e-06 0.000286943
-0.00187476 2.98954e-05 -1.79083e-06
2.98954e-05 -7.7967e-05 5.42396e-08
-1.79083e-06 5.42396e-08 -0.000306654
0.00382241 2.58662e-05 8.68744e-05
2.58662e-05 -0.000219088 2.3875e-05
8.68744e-05 2.3875e-05 -0.000640061
-0.0014792 0.000339774 -1.10377e-05
0.000339774 -0.000337426 -8.54495e-06
-1.10377e-05 -8.54495e-06 -0.000976681
0.00998296 0.00130926 -7.468e-06
0.00130926 -0.000815308 -2.77628e-05
-7.468e-06 -2.77628e-05 -0.000290193
0.00296259 0.00155797 0.000177822
0.00155797 0.00339768 0.000114941
0.000177822 0.000114941 -0.00184458
0.00573395 0.000622972 -0.000145747
0.000622972 0.00295798 1.23237e-06
-0.000145747 1.23237e-06 -2.21822e-05
0.000496733 0.000354795 -7.53398e-06
0.000354795 0.000495808 -2.44417e-05
-7.53398e-06 -2.44417e-05 4.91886e-05
0.00126562 2.14181e-05 1.36996e-05
2.14181e-05 -0.000146569 -2.21536e-05
1.36996e-05 -2.21536e-05 -0.000129312
0.0037223 -0.000747243 3.68362e-05
-0.000747243 0.00289664 -0.000195358
3.68362e-05 -0.000195358 0.00122074
0.0155121 0.00373747 0.000284482
0.00373747 0.00403712 -0.00023382
0.000284482 -0.00023382 0.00274221
0.00725846 -4.32182e-05 -0.000103469
-4.32182e-05 0.00325355 0.000383521
-0.000103469 0.000383521 0.000914041
0.000652494 0.000365259 -8.82926e-06
0.000365259 0.000569122 -0.000118281
-8.82926e-06 -0.000118281 7.85587e-05
0.0029267 0.00151112 0.000231625
0.00151112 0.00502351 3.93601e-05
0.000231625 3.93601e-05 -0.0024622
0.00136045 0.000291501 3.1981e-06
0.000291501 0.000882165 1.10685e-05
3.1981e-06 1.10685e-05 0.00057539
0.000715997 0.000212114 2.68056e-06
0.000212114 0.000711586 -4.07578e-07
2.68056e-06 -4.07578e-07 0.000334952
-6.12215e-06 -2.51831e-05 -1.20533e-05
-2.51831e-05 0.000380765 -7.56197e-06
-1.20533e-05 -7.56197e-06 7.59136e-05
0.000109044 -4.8273e-05 9.62803e-07
-4.8273e-05 -0.000186271 6.21431e-06
9.62803e-07 6.21431e-06 -0.000309221
0.00123572 -9.70985e-06 5.05884e-06
-9.70985e-06 0.000875672 -2.48031e-06
5.05884e-06 -2.48031e-06 0.00055063
0.000134432 6.95569e-05 3.59776e-06
6.95569e-05 0.000384259 -3.7092e-07
3.59776e-06 -3.7092e-07 -4.93479e-05
0.000432878 -3.62939e-05 1.14932e-06
-3.62939e-05 0.00029741 -1.51567e-07
1.14932e-06 -1.51567e-07 6.01613e-05
1.32828e-05 -9.53852e-06 5.47497e-06
-9.53852e-06 0.000251441 7.25445e-07
5.47497e-06 7.25445e-07 -0.000109245
0.00104167 -0.000239767 -1.24551e-06
-0.000239767 0.00066837 -1.2391e-05
-1.24551e-06 -1.2391e-05 0.000377491
0.000825305 -8.24762e-05 -4.95973e-06
-8.24762e-05 0.000362675 7.80237e-06
-4.95973e-06 7.80237e-06 0.000225025
0.000664364 -1.71107e-05 -9.18393e-07
-1.71107e-05 0.000151798 1.9194e-06
-9.18393e-07 1.9194e-06 2.9549e-05
0.00139629 -0.00023566 2.35423e-06
-0.00023566 0.000613804 4.1526e-06
2.35423e-06 4.1526e-06 0.00044856
-0.00157346 -0.000214608 1.68594e-05
-0.000214608 -0.00103188 9.56117e-06
1.68594e-05 9.56117e-06 -0.00133845
-3.65753e-07 -0.000115126 5.68838e-06
-0.000115126 -0.000260396 -2.8449e-06
5.68838e-06 -2.8449e-06 -0.000302888
-0.000157802 -0.000294627 -5.65312e-07
-0.000294627 -0.000426583 -3.34756e-06
-5.65312e-07 -3.34756e-06 -0.000666979
0.00124236 -0.000467368 2.53315e-06
-0.000467368 0.000291995 -3.14758e-06
2.53315e-06 -3.14758e-06 -9.64585e-05
0.00161408 -0.000542561 -3.56103e-06
-0.000542561 0.000393358 -1.09574e-06
-3.56103e-06 -1.09574e-06 9.55777e-06
0.00193876 -0.000353302 4.24835e-06
-0.000353302 0.000828123 -2.0474e-06
4.24835e-06 -2.0474e-06 0.000624899
0.0012873 -0.000412908 2.1852e-06
-0.000412908 0.000350041 4.25576e-07
2.1852e-06 4.25576e-07 3.29186e-05
0.00160655 -0.000448517 2.85323e-06
-0.000448517 0.000420715 -2.17559e-06
2.85323e-06 -2.17559e-06 0.000106066
0.000609958 -0.000270388 -3.38569e-06
-0.000270388 -8.56771e-05 4.71712e-06
-3.38569e-06 4.71712e-06 -0.000337905
0.00100329 -0.000371861 1.78147e-06
-0.000371861 7.90227e-05 -5.15316e-06
1.78147e-06 -5.15316e-06 -0.000221846
0.000474488 -0.000126283 7.37279e-07
-0.000126283 4.91541e-05 -3.14597e-06
7.37279e-07 -3.14597e-06 -0.000189835
0.00112262 -0.000309495 -6.14599e-06
-0.000309495 0.00038197 4.48069e-06
-6.14599e-06 4.48069e-06 0.000131013
-0.0013567 -5.78827e-05 -2.47364e-06
-5.78827e-05 -0.00124679 -7.97867e-06
-2.47364e-06 -7.97867e-06 -0.00144251
0.000391989 -4.52877e-05 5.0302e-07
-4.52877e-05 -5.80873e-05 1.46827e-07
5.0302e-07 1.46827e-07 -0.000194664
0.000531065 -0.000117332 4.66787e-08
-0.000117332 8.68602e-05 1.37978e-07
4.66787e-08 1.37978e-07 -0.000116912
0.00100679 -0.000212797 6.69729e-06
-0.000212797 0.000396615 -1.97985e-06
6.69729e-06 -1.97985e-06 0.000183827
0.000477983 -0.000101568 6.70797e-07
-0.000101568 3.73424e-05 1.93436e-06
6.70797e-07 1.93436e-06 -0.000121769
0.000720209 -7.55377e-05 -2.21053e-07
-7.55377e-05 0.000158014 3.29881e-07
-2.21053e-07 3.29881e-07 2.3907e-05
0.00052135 4.16114e-06 5.66974e-07
4.16114e-06 1.81756e-05 4.37379e-06
5.66974e-07 4.37379e-06 -7.46468e-05
0.000871625 -0.00010499 -4.83842e-07
-0.00010499 0.000270077 -9.14764e-07
-4.83842e-07 -9.14764e-07 0.000133288
0.000565768 5.14598e-06 -1.21233e-06
5.14598e-06 4.85816e-05 -3.00611e-07
-1.21233e-06 -3.00611e-07 -3.54468e-05
0.000433765 3.75737e-05 1.61705e-07
3.75737e-05 -5.76397e-05 5.95273e-06
1.61705e-07 5.95273e-06 -8.88272e-05
0.000684364 -5.20556e-05 2.21749e-06
-5.20556e-05 0.000117152 -3.34635e-06
2.21749e-06 -3.34635e-06 3.98674e-05
0.000474589 1.10262e-05 -5.71219e-07
1.10262e-05 -4.0975e-05 -5.04774e-08
-5.71219e-07 -5.04774e-08 -6.74114e-05
0.00251573 8.80897e-05 -2.80897e-06
8.80897e-05 0.00122907 2.4092e-06
-2.80897e-06 2.4092e-06 0.00123509
0.000483562 -2.12756e-06 2.23791e-06
-2.12756e-06 -3.47887e-05 -5.45719e-06
2.23791e-06 -5.45719e-06 -6.00791e-05
0.00172466 4.8176e-05 1.44324e-05
4.8176e-05 0.000733853 -1.07897e-06
1.44324e-05 -1.07897e-06 0.000739262
0.00257309 4.52903e-05 1.91949e-05
4.52903e-05 0.0012608 -5.43843e-06
1.91949e-05 -5.43843e-06 0.00127223
0.000307061 1.46996e-05 1.07141e-06
1.46996e-05 -0.000102056 -5.29843e-07
1.07141e-06 -5.29843e-07 -0.000216413
0.000228615 9.86672e-06 1.06098e-06
9.86672e-06 -0.000171295 -3.10791e-06
1.06098e-06 -3.10791e-06 -0.000239876
0.000498996 3.04529e-05 -5.1134e-07
3.04529e-05 3.13984e-05 -1.14156e-06
-5.1134e-07 -1.14156e-06 -8.69206e-05
0.000512558 -2.76138e-06 1.85809e-06
-2.76138e-06 -2.52731e-05 -4.10486e-06
1.85809e-06 -4.10486e-06 -3.83398e-05
0.000207596 1.3427e-05 -6.17369e-07
1.3427e-05 -0.000182153 -1.6716e-06
-6.17369e-07 -1.6716e-06 -0.000242928
0.000669216 5.18964e-05 -6.37188e-07
5.18964e-05 0.00014563 1.27607e-06
-6.37188e-07 1.27607e-06 3.28277e-05
0.00208582 -2.06965e-05 -1.47337e-05
-2.06965e-05 0.000954146 -4.6409e-06
-1.47337e-05 -4.6409e-06 0.000971853
0.000495266 -1.20369e-06 -4.95297e-07
-1.20369e-06 -3.5674e-05 -6.21839e-08
-4.95297e-07 -6.21839e-08 -4.57685e-05
0.000145989 1.21072e-05 9.24658e-07
1.21072e-05 -0.000218751 1.49614e-06
9.24658e-07 1.49614e-06 -0.00027172
0.00202902 -5.96062e-06 -3.96454e-06
-5.96062e-06 0.000919303 4.94318e-08
-3.96454e-06 4.94318e-08 0.00093764
0.000482368 8.96595e-07 -1.35721e-06
8.96595e-07 -4.30972e-05 3.39362e-06
-1.35721e-06 3.39362e-06 -5.14459e-05
0.00203437 9.42197e-06 5.0754e-06
9.42197e-06 0.000923963 4.7436e-06
5.0754e-06 4.7436e-06 0.000941911
0.000389895 -3.29282e-05 8.74675e-05
-3.29282e-05 0.00145128 2.5266e-05
8.74675e-05 2.5266e-05 0.0011207
-6.1526e-05 -0.000307064 -3.44398e-05
-0.000307064 0.000266319 -1.38352e-05
-3.44398e-05 -1.38352e-05 -0.00291472
0.00034816 0.000374093 1.32098e-05
0.000374093 0.00597082 -3.54679e-05
1.32098e-05 -3.54679e-05 0.00273954
0.000767071 0.00012294 2.07013e-07
0.00012294 0.000187459 2.11668e-07
2.07013e-07 2.11668e-07 4.73076e-05
0.000468238 8.46429e-05 4.56047e-06
8.46429e-05 -1.40979e-05 3.59214e-06
4.56047e-06 3.59214e-06 -0.000141787
0.00100996 0.000175132 5.32228e-06
0.000175132 0.000337883 5.59989e-06
5.32228e-06 5.59989e-06 0.000194715
0.00478536 -0.000141611 -3.9526e-05
-0.000141611 -0.000431011 0.000223753
-3.9526e-05 0.000223753 -0.001211
0.00429731 -0.000698468 6.6532e-05
-0.000698468 0.00272493 -2.53525e-06
6.6532e-05 -2.53525e-06 0.00134954
0.0045104 -0.00128136 0.000138787
-0.00128136 0.0019228 -0.000211058
0.000138787 -0.000211058 -0.00250857
0.00812315 -0.00206337 -5.26128e-05
-0.00206337 0.000621369 -2.12198e-05
-5.26128e-05 -2.12198e-05 0.00100638
0.000496872 -0.00232683 -0.000302219
-0.00232683 -0.00169743 9.92395e-05
-0.000302219 9.92395e-05 -0.00472687
0.0223066 0.00332119 0.000147071
0.00332119 0.00880119 0.000126155
0.000147071 0.000126155 0.00554422
0.00619555 5.39235e-05 0.000214347
5.39235e-05 -0.00303412 -0.000193956
0.000214347 -0.000193956 -0.00287393
0.00484237 -0.00235356 -3.54953e-05
-0.00235356 0.000419835 1.52422e-05
-3.54953e-05 1.52422e-05 0.000400403
0.00710843 -0.0029932 -8.66972e-05
-0.0029932 0.00275312 2.26366e-05
-8.66972e-05 2.26366e-05 -0.00154877
-0.00339007 0.00308341 -8.08377e-05
0.00308341 0.00265439 -0.000262144
-8.08377e-05 -0.000262144 -0.00138929
0.00864861 0.000256056 -5.23514e-05
0.000256056 -0.00352036 0.000117684
-5.23514e-05 0.000117684 -0.000516756
0.000735937 -0.00138819 -0.000120813
-0.00138819 0.000210874 3.89563e-05
-0.000120813 3.89563e-05 -8.35961e-05
0.010378 -0.00248883 -0.000230942
-0.00248883 0.00522778 0.00014442
-0.000230942 0.00014442 0.000509052
-0.00258328 -3.92106e-05 3.51254e-05
-3.92106e-05 0.0018041 -0.000323642
3.51254e-05 -0.000323642 -0.00147783
0.00799851 -0.00122941 9.7229e-05
-0.00122941 -0.00200083 4.49353e-05
9.7229e-05 4.49353e-05 -0.00108617
0.000378066 8.85576e-05 2.49079e-06
8.85576e-05 -2.01768e-05 1.25372e-05
2.49079e-06 1.25372e-05 -0.000164841
0.000777022 -1.93162e-05 2.67632e-06
-1.93162e-05 0.000272454 -2.23865e-06
2.67632e-06 -2.23865e-06 5.97405e-05
0.000737223 -0.000124123 -1.78182e-07
-0.000124123 0.000227726 -8.85641e-06
-1.78182e-07 -8.85641e-06 2.62811e-05
0.000689442 0.000120339 -1.78085e-06
0.000120339 0.000139268 8.7672e-07
-1.78085e-06 8.7672e-07 -8.14542e-06
0.000808638 0.000146781 1.10044e-06
0.000146781 0.000269559 -3.48457e-06
1.10044e-06 -3.48457e-06 9.63022e-05
0.00115853 0.000178529 -3.54923e-06
0.000178529 0.000474129 -2.18075e-06
-3.54923e-06 -2.18075e-06 0.000305463
-0.00125514 -0.000759248 2.28376e-05
-0.000759248 -0.00165314 -4.11288e-06
2.28376e-05 -4.11288e-06 -0.00159923
0.000837208 -0.000334107 3.34835e-05
-0.000334107 0.00014789 -2.82734e-05
3.34835e-05 -2.82734e-05 0.000173671
-7.72931e-06 6.7342e-06 -1.63084e-06
6.7342e-06 -0.000207372 -1.03259e-05
-1.63084e-06 -1.03259e-05 -0.000406033
0.0016082 -0.000395064 4.89521e-05
-0.000395064 0.000932179 -2.53233e-05
4.89521e-05 -2.53233e-05 0.000554454
0.00155782 -5.4325e-05 -6.08396e-06
-5.4325e-05 0.000867159 3.94982e-06
-6.08396e-06 3.94982e-06 0.000590477
0.000463616 0.000100199 2.94654e-06
0.000100199 9.35317e-05 2.39646e-06
2.94654e-06 2.39646e-06 -8.14632e-05
0.000971012 0.000160887 -5.82973e-07
0.000160887 0.000457709 -2.06517e-06
-5.82973e-07 -2.06517e-06 0.00028175
0.00039051 -0.000931469 -4.48458e-08
-0.000931469 -0.00034825 -5.41527e-06
-4.48458e-08 -5.41527e-06 -0.00055773
8.53757e-05 9.9694e-06 -6.55512e-06
9.9694e-06 0.000373821 4.93838e-06
-6.55512e-06 4.93838e-06 -0.000127573
0.00159015 -0.00029459 9.89987e-06
-0.00029459 0.000757772 -9.43234e-06
9.89987e-06 -9.43234e-06 0.000527955
0.00126482 0.000168772 4.41049e-07
0.000168772 0.000629016 -9.77885e-06
4.41049e-07 -9.77885e-06 0.000464594
-0.00297335 -8.51831e-05 -0.00012121
-8.51831e-05 -0.000857931 -1.16965e-05
-0.00012121 -1.16965e-05 -0.00162544
-0.000233656 -0.000135942 -1.77885e-05
-0.000135942 0.000192865 9.38049e-06
-1.77885e-05 9.38049e-06 -0.000144713
0.000305579 0.000141602 -9.0083e-08
0.000141602 0.000454777 9.06898e-06
-9.0083e-08 9.06898e-06 5.87657e-05
-5.46911e-05 9.14034e-05 -4.74803e-06
9.14034e-05 -0.000600359 8.63411e-07
-4.74803e-06 8.63411e-07 -0.0012823
-0.00133981 8.68426e-05 2.38808e-05
8.68426e-05 0.000791371 -1.5485e-05
2.38808e-05 -1.5485e-05 0.000154111
-8.20085e-05 -0.000134571 0.000280501
-0.000134571 0.00077381 1.41832e-05
0.000280501 1.41832e-05 -0.00267615
-0.000180377 0.000311996 -3.61782e-06
0.000311996 4.33079e-05 1.76703e-05
-3.61782e-06 1.76703e-05 -0.000286738
0.000773822 0.00069852 -1.00976e-05
0.00069852 0.000399787 -2.91076e-06
-1.00976e-05 -2.91076e-06 -0.000132313
-0.0017157 9.58031e-07 -1.09803e-05
9.58031e-07 -6.47077e-05 -8.97519e-06
-1.09803e-05 -8.97519e-06 -0.000412671
-0.00407612 0.000667233 4.67893e-05
0.000667233 0.00194129 0.000153915
4.67893e-05 0.000153915 -0.0030425
-0.00415915 0.00125886 -0.000180521
0.00125886 -0.00246058 -0.00041216
-0.000180521 -0.00041216 -0.00617466
0.00324255 7.86058e-05 6.89232e-05
7.86058e-05 -0.000238292 0.000101305
6.89232e-05 0.000101305 -0.000189259
0.00596876 0.000159447 -0.000218406
0.000159447 -0.0027662 0.000197461
-0.000218406 0.000197461 -0.0028282
0.000339164 0.000283851 2.41276e-06
0.000283851 0.000460367 -1.21661e-06
2.41276e-06 -1.21661e-06 7.68121e-05
0.000984448 -6.61152e-06 2.57696e-05
-6.61152e-06 -0.000242099 -2.52195e-05
2.57696e-05 -2.52195e-05 -0.000199076
0.00373309 -0.000559834 -6.78263e-05
-0.000559834 0.00264296 5.75599e-06
-6.78263e-05 5.75599e-06 0.0012781
0.000301671 0.000525635 -9.66997e-05
0.000525635 0.00103074 -6.23899e-06
-9.66997e-05 -6.23899e-06 -0.000120857
0.0111715 0.00382798 6.12812e-05
0.00382798 0.00135882 -0.000336079
6.12812e-05 -0.000336079 -0.000138993
-0.000914517 0.00235694 6.37982e-05
0.00235694 0.00282679 0.000265771
6.37982e-05 0.000265771 -0.00100602
0.00573544 0.00039563 4.97913e-05
0.00039563 0.0059372 -2.27002e-05
4.97913e-05 -2.27002e-05 -0.000841072
0.000901546 -6.75337e-06 2.92939e-05
-6.75337e-06 0.00136467 -2.7611e-05
2.92939e-05 -2.7611e-05 0.000518532
0.000150469 -8.7704e-05 -7.35827e-05
-8.7704e-05 0.00141724 3.70777e-06
-7.35827e-05 3.70777e-06 0.00103094
0.00237542 -0.000791855 0.000581726
-0.000791855 0.000841914 -0.000231138
0.000581726 -0.000231138 -0.00361134
0.0140844 0.00536364 -3.42255e-05
0.00536364 0.0096291 1.1661e-05
-3.42255e-05 1.1661e-05 0.00784372
0.00138981 0.00301552 -0.000146502
0.00301552 -0.000643972 0.000650865
-0.000146502 0.000650865 -0.00332057
0.0119199 -0.00270217 0.000215501
-0.00270217 0.00547185 -0.000187712
0.000215501 -0.000187712 0.000457178
0.00342206 -0.000691426 -6.81225e-05
-0.000691426 0.00254412 4.57989e-05
-6.81225e-05 4.57989e-05 0.0018155
0.00139709 0.000280486 6.23018e-06
0.000280486 0.00110352 5.50572e-06
6.23018e-06 5.50572e-06 0.000724654
-0.000145561 -2.79175e-05 -3.51456e-06
-2.79175e-05 0.000233442 -2.84046e-06
-3.51456e-06 -2.84046e-06 -8.03259e-05
0.00202887 -0.000446192 3.07507e-05
-0.000446192 0.00122319 -1.26061e-05
3.07507e-05 -1.26061e-05 0.000819969
0.000718577 -8.28748e-05 4.75375e-07
-8.28748e-05 0.000424827 3.62121e-06
4.75375e-07 3.62121e-06 0.000228229
0.000135327 -2.33601e-05 -1.25732e-06
-2.33601e-05 0.000306023 -1.82883e-06
-1.25732e-06 -1.82883e-06 -4.15256e-05
0.000196915 -0.000214947 -3.44707e-06
-0.000214947 0.000288718 2.97119e-07
-3.44707e-06 2.97119e-07 -1.8339e-05
0.000507796 -0.000423429 2.29918e-05
-0.000423429 0.000120359 -2.30219e-05
2.29918e-05 -2.30219e-05 -7.97756e-05
0.00249596 -0.000332847 -2.20626e-06
-0.000332847 0.00127748 2.71635e-06
-2.20626e-06 2.71635e-06 0.00108026
0.00231913 -0.000621343 1.33495e-05
-0.000621343 0.00108097 -3.73441e-06
1.33495e-05 -3.73441e-06 0.000729294
0.00162621 -0.000555054 1.06266e-05
-0.000555054 0.000655804 -2.8608e-06
1.06266e-05 -2.8608e-06 0.000132119
0.000329786 -0.000290461 -3.77098e-06
-0.000290461 -0.00017459 -2.18389e-06
-3.77098e-06 -2.18389e-06 -0.00037448
0.00150211 -0.000495214 -2.19287e-06
-0.000495214 0.000395882 4.92093e-07
-2.19287e-06 4.92093e-07 6.78582e-06
0.00215929 -0.000674021 -3.74198e-07
-0.000674021 0.00070912 6.21591e-07
-3.74198e-07 6.21591e-07 0.000221165
0.00179703 -0.000689008 -6.01458e-06
-0.000689008 0.000374656 1.72654e-06
-6.01458e-06 1.72654e-06 -5.30295e-05
0.00162495 -0.000558791 -1.14151e-06
-0.000558791 0.000399542 -3.52788e-07
-1.14151e-06 -3.52788e-07 2.7656e-05
0.00152222 -0.000536349 -4.59837e-06
-0.000536349 0.000332277 1.50051e-06
-4.59837e-06 1.50051e-06 -5.15005e-05
0.00110949 -0.000395975 -3.23256e-06
-0.000395975 0.000209297 -2.72076e-06
-3.23256e-06 -2.72076e-06 -0.000113177
0.00190583 -0.000446766 4.95406e-06
-0.000446766 0.000673399 1.67634e-06
4.95406e-06 1.67634e-06 0.000377869
0.0014837 -0.000439688 4.80062e-06
-0.000439688 0.0003496 -3.05824e-06
4.80062e-06 -3.05824e-06 3.48349e-05
0.000360631 -0.000170294 1.80209e-06
-0.000170294 -0.000124436 8.33217e-07
1.80209e-06 8.33217e-07 -0.000355885
0.000912085 -0.000314056 2.8791e-06
-0.000314056 0.000116432 -5.79182e-07
2.8791e-06 -5.79182e-07 -0.000145054
0.000247867 -0.000281631 -8.43601e-07
-0.000281631 -0.000371692 -7.80269e-06
-8.43601e-07 -7.80269e-06 -0.000647797
-0.000177447 -1.98853e-05 5.04329e-08
-1.98853e-05 -0.000366569 1.21497e-06
5.04329e-08 1.21497e-06 -0.000567774
0.00105556 -0.000187255 -4.69456e-07
-0.000187255 0.000410116 -2.08677e-07
-4.69456e-07 -2.08677e-07 0.000162002
0.00114453 -0.000337394 7.18637e-09
-0.000337394 0.000413961 -2.31251e-06
7.18637e-09 -2.31251e-06 0.000142832
0.000677499 -1.9747e-05 -1.20014e-06
-1.9747e-05 0.00011168 4.78643e-06
-1.20014e-06 4.78643e-06 7.65313e-06
0.000806619 -0.000104614 -4.26175e-07
-0.000104614 0.000196397 -2.63804e-07
-4.26175e-07 -2.63804e-07 5.03441e-05
0.000169747 -9.31389e-05 1.03081e-06
-9.31389e-05 -0.000125487 1.24625e-06
1.03081e-06 1.24625e-06 -0.000321953
0.000778429 -0.00010299 1.21725e-06
-0.00010299 0.000200178 -7.69806e-07
1.21725e-06 -7.69806e-07 5.95045e-05
0.000617482 -3.79632e-05 -5.92753e-09
-3.79632e-05 7.46896e-05 -2.12403e-07
-5.92753e-09 -2.12403e-07 -1.83449e-05
0.000439049 3.22858e-05 7.10479e-07
3.22858e-05 -4.82897e-05 7.34306e-06
7.10479e-07 7.34306e-06 -8.47865e-05
0.000642616 -4.39825e-05 1.37074e-06
-4.39825e-05 9.10932e-05 -3.64117e-06
1.37074e-06 -3.64117e-06 8.01843e-06
0.000499969 2.3375e-05 -1.75305e-06
2.3375e-05 -1.94185e-05 -2.01778e-07
-1.75305e-06 -2.01778e-07 -4.97595e-05
0.00264354 9.58105e-05 -3.32211e-05
9.58105e-05 0.00131538 4.40897e-06
-3.32211e-05 4.40897e-06 0.00132045
0.000518618 7.33189e-06 2.16558e-06
7.33189e-06 -1.4675e-05 -5.53472e-06
2.16558e-06 -5.53472e-06 -4.09703e-05
0.0017023 6.30017e-05 1.66731e-05
6.30017e-05 0.000722794 -8.2681e-07
1.66731e-05 -8.2681e-07 0.000726297
0.00261475 6.32393e-05 2.40215e-05
6.32393e-05 0.00128813 -5.09732e-06
2.40215e-05 -5.09732e-06 0.00129789
0.000712636 8.54081e-05 3.21522e-06
8.54081e-05 0.000158282 3.96269e-07
3.21522e-06 3.96269e-07 3.20333e-05
0.000530193 4.1778e-05 1.41142e-06
4.1778e-05 1.47469e-05 -2.53604e-06
1.41142e-06 -2.53604e-06 -5.85784e-05
0.000468476 4.79327e-05 -1.11946e-06
4.79327e-05 1.05256e-05 -1.20709e-06
-1.11946e-06 -1.20709e-06 -0.000113366
0.000503539 -1.94232e-06 9.33821e-07
-1.94232e-06 -3.04145e-05 -4.98054e-06
9.33821e-07 -4.98054e-06 -4.76443e-05
0.000355544 3.33422e-05 -2.05828e-06
3.33422e-05 -9.15096e-05 -1.68831e-06
-2.05828e-06 -1.68831e-06 -0.000159553
0.000684874 6.77709e-05 -9.07366e-07
6.77709e-05 0.000149533 -1.27404e-06
-9.07366e-07 -1.27404e-06 3.13541e-05
0.0021659 -3.55894e-05 -1.89426e-05
-3.55894e-05 0.00100422 -4.7212e-06
-1.89426e-05 -4.7212e-06 0.00102058
0.000492479 -5.3426e-06 -1.03689e-07
-5.3426e-06 -3.78825e-05 -1.11298e-07
-1.03689e-07 -1.11298e-07 -5.06501e-05
0.000155414 1.18168e-05 -1.73143e-06
1.18168e-05 -0.000214777 3.74995e-07
-1.73143e-06 3.74995e-07 -0.000276719
0.00210932 -1.99014e-05 -5.04619e-06
-1.99014e-05 0.000968786 1.16828e-07
-5.04619e-06 1.16828e-07 0.000986465
0.000487803 -3.477e-06 -2.02423e-06
-3.477e-06 -4.06309e-05 3.4597e-06
-2.02423e-06 3.4597e-06 -5.04857e-05
0.0020607 -4.50421e-06 9.95824e-06
-4.50421e-06 0.000938952 4.75828e-06
9.95824e-06 4.75828e-06 0.000957166
0.00119782 -0.000160265 -3.76054e-05
-0.000160265 -0.000200932 2.91278e-05
-3.76054e-05 2.91278e-05 -0.000226156
-0.000185418 -0.000185849 4.46786e-05
-0.000185849 0.00122731 -2.75327e-06
4.46786e-05 -2.75327e-06 0.000841487
-0.000418221 -0.000332668 0.000145669
-0.000332668 0.000434442 -0.000102142
0.000145669 -0.000102142 -0.00302201
0.000259967 4.57498e-05 3.22829e-06
4.57498e-05 -0.000147433 2.59281e-06
3.22829e-06 2.59281e-06 -0.000275836
0.0017836 0.000100014 9.23649e-07
0.000100014 0.000775769 2.2044e-06
9.23649e-07 2.2044e-06 0.000624373
0.000724501 0.000131649 -1.7551e-06
0.000131649 0.000161355 -2.79507e-06
-1.7551e-06 -2.79507e-06 2.7238e-05
0.000473868 7.2293e-05 6.8426e-07
7.2293e-05 -2.28353e-05 7.85415e-07
6.8426e-07 7.85415e-07 -0.000142374
0.000520753 9.09377e-05 2.88743e-07
9.09377e-05 2.75036e-05 -3.39684e-07
2.88743e-07 -3.39684e-07 -9.82085e-05
0.000536433 8.25538e-05 4.57719e-06
8.25538e-05 2.85763e-05 2.99197e-06
4.57719e-06 2.99197e-06 -8.90923e-05
0.000562304 0.000163846 7.99728e-06
0.000163846 9.12674e-05 5.84077e-06
7.99728e-06 5.84077e-06 -4.83912e-05
0.000971232 0.000528605 0.000143141
0.000528605 -0.000432127 0.00023587
0.000143141 0.00023587 -0.00168159
0.00400419 -0.00010796 -3.30102e-05
-0.00010796 -0.000209746 5.73748e-05
-3.30102e-05 5.73748e-05 -0.000769306
0.00372166 -0.000522699 0.000129077
-0.000522699 0.00249797 -9.70917e-05
0.000129077 -9.70917e-05 0.00145756
0.00658963 -0.000107242 -6.2713e-06
-0.000107242 -0.00563621 0.000141535
-6.2713e-06 0.000141535 -0.00192661
0.00295187 -0.00201496 -9.4645e-05
-0.00201496 0.000345229 5.78476e-05
-9.4645e-05 5.78476e-05 0.000176626
0.000956777 -0.00306588 -0.000170223
-0.00306588 0.00128241 7.54609e-05
-0.000170223 7.54609e-05 -0.00379182
0.0133308 0.0034974 9.03832e-05
0.0034974 0.0065073 -0.000122399
9.03832e-05 -0.000122399 0.00284524
0.0028595 -0.00182674 -4.67639e-05
-0.00182674 0.000518226 2.12939e-05
-4.67639e-05 2.12939e-05 0.00062371
-0.00123085 -0.000623411 -3.70994e-05
-0.000623411 0.00312937 4.61843e-05
-3.70994e-05 4.61843e-05 -0.00313391
0.00615082 0.000514384 0.000142455
0.000514384 0.00271225 -1.9072e-05
0.000142455 -1.9072e-05 -0.000154239
0.0136068 -0.00206139 -6.34501e-05
-0.00206139 0.00181569 -2.50497e-05
-6.34501e-05 -2.50497e-05 0.00314818
-0.00181703 -0.000300693 -0.000152837
-0.000300693 -0.000541254 0.000115773
-0.000152837 0.000115773 -0.000462081
0.00334013 0.00195997 -0.000153477
0.00195997 0.00448923 -8.33134e-05
-0.000153477 -8.33134e-05 -0.00181499
-0.00357354 -0.00413594 3.21335e-05
-0.00413594 -0.00119864 -0.000221027
3.21335e-05 -0.000221027 -0.00524479
0.0112453 -0.00248696 8.7606e-05
-0.00248696 0.002061 -0.000516086
8.7606e-05 -0.000516086 0.00141854
0.000971149 2.80828e-05 9.41679e-06
2.80828e-05 0.000428488 3.16764e-06
9.41679e-06 3.16764e-06 0.000258749
0.000689811 0.000151879 -1.05228e-06
0.000151879 0.000182531 -1.54888e-06
-1.05228e-06 -1.54888e-06 3.19068e-05
0.000746029 -1.20244e-05 7.60208e-07
-1.20244e-05 0.000263081 -3.96375e-06
7.60208e-07 -3.96375e-06 3.67888e-05
0.000945878 0.000128852 -2.84982e-06
0.000128852 0.000320676 -6.80577e-06
-2.84982e-06 -6.80577e-06 0.000155193
-0.000183983 -0.000720526 -8.2988e-07
-0.000720526 -0.000594372 4.30129e-05
-8.2988e-07 4.30129e-05 -0.000803809
0.00403532 -0.000330932 -3.87137e-06
-0.000330932 0.00223531 -2.76981e-05
-3.87137e-06 -2.76981e-05 0.00193173
0.000664259 7.76069e-05 -4.34586e-06
7.76069e-05 0.000195595 -8.9671e-06
-4.34586e-06 -8.9671e-06 4.15097e-05
0.000502557 0.000196814 -1.91317e-06
0.000196814 0.00018118 -2.23557e-06
-1.91317e-06 -2.23557e-06 4.05186e-06
0.000909252 9.96935e-05 -1.24408e-05
9.96935e-05 0.000793094 9.20604e-06
-1.24408e-05 9.20604e-06 0.00039579
0.000496433 5.7743e-05 3.75975e-06
5.7743e-05 0.000121755 3.64659e-06
3.75975e-06 3.64659e-06 -1.04138e-05
0.000168275 0.000166494 -1.39016e-07
0.000166494 0.000382724 1.00342e-06
-1.39016e-07 1.00342e-06 -2.86816e-05
0.00146126 -0.00034251 2.49453e-06
-0.00034251 0.00131061 3.86029e-06
2.49453e-06 3.86029e-06 0.000340747
3.94136e-05 -0.00012527 2.18245e-05
-0.00012527 0.00051067 1.642e-06
2.18245e-05 1.642e-06 0.000147851
-0.00037368 0.000109943 2.04614e-06
0.000109943 -0.000136475 -6.37873e-06
2.04614e-06 -6.37873e-06 -0.000369044
0.00213363 -0.000116112 -2.79885e-05
-0.000116112 0.00303302 -4.00363e-05
-2.79885e-05 -4.00363e-05 0.00149542
0.00125691 0.000309643 -9.94215e-06
0.000309643 0.00113608 1.95565e-05
-9.94215e-06 1.95565e-05 0.000652031
-0.00115067 5.47623e-05 -5.23891e-05
5.47623e-05 0.00112338 5.49239e-06
-5.23891e-05 5.49239e-06 0.000346525
0.000889031 1.47661e-05 6.63529e-06
1.47661e-05 -0.000210493 2.18972e-06
6.63529e-06 2.18972e-06 -0.000361398
-0.00179282 0.000103468 -2.27345e-06
0.000103468 0.000476044 -4.23502e-05
-2.27345e-06 -4.23502e-05 -4.64578e-05
0.000208206 0.000194163 -1.19188e-05
0.000194163 0.000483341 9.7826e-06
-1.19188e-05 9.7826e-06 0.000178908
-0.00128022 0.000654972 0.000107452
0.000654972 -0.000452398 9.32974e-05
0.000107452 9.32974e-05 -0.00104768
0.000738026 3.41988e-06 4.14263e-05
3.41988e-06 -0.000326855 -4.98197e-06
4.14263e-05 -4.98197e-06 -0.000132398
0.00439801 -0.00174619 0.000165624
-0.00174619 0.00481404 -0.000170137
0.000165624 -0.000170137 -0.00259793
0.0148456 0.00311148 -0.000137632
0.00311148 0.00666888 0.000118724
-0.000137632 0.000118724 0.00330122
0.0034268 -0.000420292 -0.000124682
-0.000420292 0.00222493 0.000106079
-0.000124682 0.000106079 0.00130511
0.0110967 0.0037268 -2.29703e-05
0.0037268 0.00327747 -0.000163961
-2.29703e-05 -0.000163961 0.00114712
0.000403108 0.000150826 -5.1064e-05
0.000150826 0.000977549 1.10192e-05
-5.1064e-05 1.10192e-05 0.000144731
0.000217071 -0.00011612 -5.25168e-05
-0.00011612 0.00118209 1.3885e-06
-5.25168e-05 1.3885e-06 0.000975729
0.00345393 -0.00106759 0.000228007
-0.00106759 0.00145099 -2.42009e-05
0.000228007 -2.42009e-05 -0.00284186
-0.00174005 -0.000154588 3.34512e-05
-0.000154588 -0.000438911 2.96956e-05
3.34512e-05 2.96956e-05 -0.000783649
0.00745258 0.00590935 0.000428393
0.00590935 0.00589223 -0.000209876
0.000428393 -0.000209876 0.00449323
0.00678255 0.00243077 -0.000152883
0.00243077 0.00149521 0.000288784
-0.000152883 0.000288784 -0.00132424
-0.00258836 -0.00108407 0.000130591
-0.00108407 0.0022838 -0.000119162
0.000130591 -0.000119162 -0.00436209
-0.000170337 -0.000358501 1.66089e-05
-0.000358501 0.000561057 -2.17625e-05
1.66089e-05 -2.17625e-05 -0.000260563
0.000144262 -0.00052732 0.000213981
-0.00052732 -0.000280501 -4.94251e-05
0.000213981 -4.94251e-05 -0.00285295
-0.0019168 8.7617e-05 -0.000772511
8.7617e-05 0.00513314 0.000215121
-0.000772511 0.000215121 0.00202582
0.0117987 0.00549644 -0.000490695
0.00549644 0.00317524 0.000510228
-0.000490695 0.000510228 0.00105662
0.00907332 -0.00260305 -9.02503e-05
-0.00260305 0.00363558 3.64256e-05
-9.02503e-05 3.64256e-05 1.20761e-05
0.00288106 -0.00113224 -2.28368e-05
-0.00113224 0.00198546 1.86491e-05
-2.28368e-05 1.86491e-05 0.00139081
0.000639984 -6.09632e-05 7.41125e-06
-6.09632e-05 0.00061834 9.68357e-06
7.41125e-06 9.68357e-06 0.0003153
0.000294454 -0.000290637 2.42608e-07
-0.000290637 0.000369514 -2.87266e-07
2.42608e-07 -2.87266e-07 -4.50881e-05
0.00101565 -0.000587624 6.83841e-06
-0.000587624 0.000502201 -1.64748e-06
6.83841e-06 -1.64748e-06 0.000323754
-0.000413752 -0.00019014 2.38134e-06
-0.00019014 3.16379e-05 7.11913e-06
2.38134e-06 7.11913e-06 -0.00028291
-0.000786157 -0.00029415 1.58219e-06
-0.00029415 -0.000472818 -1.06884e-06
1.58219e-06 -1.06884e-06 -0.000682193
0.0027139 -0.000715104 4.23483e-05
-0.000715104 0.00109132 -4.08407e-06
4.23483e-05 -4.08407e-06 0.000794953
0.00608979 -0.0010402 -1.45501e-05
-0.0010402 0.00312915 5.27309e-06
-1.45501e-05 5.27309e-06 0.00272221
0.00267714 -0.000687643 7.04149e-06
-0.000687643 0.00114808 -2.25285e-07
7.04149e-06 -2.25285e-07 0.000629539
0.00163711 -0.000667953 1.10613e-05
-0.000667953 0.000410775 -9.29157e-06
1.10613e-05 -9.29157e-06 -0.0001311
0.0014869 -0.000489282 -7.99892e-06
-0.000489282 0.000351051 -3.26091e-06
-7.99892e-06 -3.26091e-06 -3.3371e-05
0.00233733 -0.000704185 2.94123e-06
-0.000704185 0.000783829 -7.39657e-07
2.94123e-06 -7.39657e-07 0.000287709
0.00233617 -0.000750145 2.41458e-06
-0.000750145 0.000715364 -9.56469e-06
2.41458e-06 -9.56469e-06 0.000221015
0.00208436 -0.000648475 -2.91583e-06
-0.000648475 0.000401471 -4.84785e-06
-2.91583e-06 -4.84785e-06 4.76387e-05
0.00218596 -0.000732599 -3.54518e-06
-0.000732599 0.000573227 1.55261e-06
-3.54518e-06 1.55261e-06 0.000164772
0.00204203 -0.000717321 -2.25814e-06
-0.000717321 0.000508701 1.46426e-08
-2.25814e-06 1.46426e-08 7.20176e-05
0.00189309 -0.000554203 7.31632e-06
-0.000554203 0.000604148 1.2916e-06
7.31632e-06 1.2916e-06 0.000257529
0.00134498 -0.000520576 1.56432e-06
-0.000520576 0.000237773 -1.55894e-07
1.56432e-06 -1.55894e-07 -0.000119809
0.00125121 -0.00050806 2.80032e-07
-0.00050806 0.000168665 2.42645e-07
2.80032e-07 2.42645e-07 -0.000210681
0.00160027 -0.00037321 3.32956e-06
-0.00037321 0.000525093 1.36246e-06
3.32956e-06 1.36246e-06 0.000258594
0.00144047 -0.000396661 -7.5084e-07
-0.000396661 0.0003867 -1.41571e-06
-7.5084e-07 -1.41571e-06 9.90912e-05
0.00139042 -0.00043331 9.58368e-06
-0.00043331 0.000297821 -3.4984e-06
9.58368e-06 -3.4984e-06 -1.72074e-05
0.000701514 -0.000168728 2.91746e-06
-0.000168728 0.000185247 -7.60318e-07
2.91746e-06 -7.60318e-07 -8.55741e-05
0.000679888 -0.000205117 -1.78712e-06
-0.000205117 8.61981e-05 1.17607e-06
-1.78712e-06 1.17607e-06 -0.000153494
0.00110172 -0.000340357 6.7364e-06
-0.000340357 0.000245472 -7.02714e-06
6.7364e-06 -7.02714e-06 -2.02501e-05
0.000251673 -2.76821e-05 1.01294e-07
-2.76821e-05 -0.000158168 5.06881e-06
1.01294e-07 5.06881e-06 -0.000277046
0.000705446 -7.15538e-05 -8.82715e-07
-7.15538e-05 0.000177007 3.12538e-07
-8.82715e-07 3.12538e-07 -3.33351e-05
0.00135083 -0.000255717 1.24494e-06
-0.000255717 0.000602439 1.90076e-07
1.24494e-06 1.90076e-07 0.000343239
0.000431941 1.42103e-05 -4.0321e-06
1.42103e-05 -5.45536e-05 1.07497e-05
-4.0321e-06 1.07497e-05 -9.41985e-05
0.000642083 -3.17886e-05 -2.60355e-07
-3.17886e-05 8.39167e-05 -6.22869e-08
-2.60355e-07 -6.22869e-08 -1.83507e-05
0.00122692 -0.000151895 6.611e-08
-0.000151895 0.000461446 -7.39997e-07
6.611e-08 -7.39997e-07 0.000302498
0.000659472 -4.09592e-05 1.28842e-06
-4.09592e-05 9.92935e-05 -3.93165e-06
1.28842e-06 -3.93165e-06 6.21604e-06
0.000483893 2.51966e-05 -2.40232e-08
2.51966e-05 -2.31099e-05 -1.85551e-07
-2.40232e-08 -1.85551e-07 -5.86697e-05
0.00277212 0.000118666 -3.4602e-05
0.000118666 0.00140406 4.19585e-06
-3.4602e-05 4.19585e-06 0.00140385
0.0005486 2.04742e-05 1.12096e-06
2.04742e-05 8.22187e-06 -6.37035e-06
1.12096e-06 -6.37035e-06 -2.15816e-05
0.00266124 9.91629e-05 4.05025e-06
9.91629e-05 0.00132711 4.42476e-07
4.05025e-06 4.42476e-07 0.00133147
0.00258858 8.07488e-05 2.75198e-05
8.07488e-05 0.00127574 -4.63067e-06
2.75198e-05 -4.63067e-06 0.00128355
0.000746024 8.39197e-05 2.42604e-06
8.39197e-05 0.00022376 -3.10699e-06
2.42604e-06 -3.10699e-06 5.17856e-05
0.000785804 0.000109369 5.3035e-06
0.000109369 0.000217981 -8.80026e-08
5.3035e-06 -8.80026e-08 6.74088e-05
0.000581271 3.37507e-05 2.47245e-06
3.37507e-05 4.42022e-05 -3.27644e-06
2.47245e-06 -3.27644e-06 -3.70969e-05
0.000633423 9.7619e-05 2.21992e-07
9.7619e-05 0.000106153 -2.28687e-07
2.21992e-07 -2.28687e-07 -1.81847e-05
0.000487943 -5.71051e-06 4.38889e-07
-5.71051e-06 -3.76022e-05 -5.98783e-06
4.38889e-07 -5.98783e-06 -5.96346e-05
0.000551573 4.50471e-05 2.2002e-07
4.50471e-05 2.81584e-05 -1.45184e-07
2.2002e-07 -1.45184e-07 -4.52071e-05
0.000588705 5.23249e-05 -3.53229e-06
5.23249e-05 7.16161e-05 -9.03709e-07
-3.53229e-06 -9.03709e-07 -4.3592e-05
0.00231245 -5.14834e-05 -2.47583e-05
-5.14834e-05 0.00109713 -4.81882e-06
-2.47583e-05 -4.81882e-06 0.00111111
0.000494188 -7.42775e-06 -6.91383e-07
-7.42775e-06 -3.57286e-05 -1.11823e-07
-6.91383e-07 -1.11823e-07 -5.27197e-05
0.000496529 5.11962e-05 -2.97878e-06
5.11962e-05 -3.04699e-06 8.05017e-07
-2.97878e-06 8.05017e-07 -7.04522e-05
0.00218074 -3.48921e-05 -4.60852e-06
-3.48921e-05 0.00101343 2.16039e-07
-4.60852e-06 2.16039e-07 0.00102984
0.00049219 -5.5305e-06 -2.14024e-06
-5.5305e-06 -3.81732e-05 3.80418e-06
-2.14024e-06 3.80418e-06 -5.06995e-05
0.00209484 -1.90332e-05 1.41439e-05
-1.90332e-05 0.000959556 4.65581e-06
1.41439e-05 4.65581e-06 0.000977347
-0.00166648 5.76926e-05 -1.29895e-05
5.76926e-05 -5.17832e-05 -1.26227e-05
-1.29895e-05 -1.26227e-05 -5.87681e-05
0.00120703 -0.00016137 -1.63513e-05
-0.00016137 -0.000166033 2.2005e-05
-1.63513e-05 2.2005e-05 -5.32681e-05
0.000162936 -0.000175717 7.26979e-06
-0.000175717 0.00117684 -2.92385e-05
7.26979e-06 -2.92385e-05 0.000832719
0.00080431 9.09203e-05 -3.75213e-07
9.09203e-05 0.000222269 6.8236e-07
-3.75213e-07 6.8236e-07 6.90683e-05
0.000499615 8.56276e-05 3.70654e-06
8.56276e-05 -1.15439e-05 -1.12247e-06
3.70654e-06 -1.12247e-06 -0.000152371
-0.00154 -1.03779e-05 -3.63714e-06
-1.03779e-05 -0.00123679 -8.41014e-06
-3.63714e-06 -8.41014e-06 -0.00135513
3.61876e-05 3.742e-05 2.57944e-06
3.742e-05 -0.000266776 9.61123e-06
2.57944e-06 9.61123e-06 -0.000398333
0.00275009 0.000357503 -2.10157e-06
0.000357503 0.00141842 -1.21102e-06
-2.10157e-06 -1.21102e-06 0.00119417
0.00070262 4.43305e-05 -4.95514e-06
4.43305e-05 0.000108518 -3.62992e-06
-4.95514e-06 -3.62992e-06 -8.38346e-06
0.000532957 8.55858e-05 -4.73219e-06
8.55858e-05 2.90894e-05 -7.2966e-06
-4.73219e-06 -7.2966e-06 -8.79941e-05
0.000702925 6.95563e-05 1.8033e-07
6.95563e-05 0.000132453 -3.69517e-07
1.8033e-07 -3.69517e-07 1.28907e-05
0.000957665 0.000143813 -2.36674e-07
0.000143813 0.00031347 -1.24799e-06
-2.36674e-07 -1.24799e-06 0.000185736
0.000734257 0.000107061 6.17685e-06
0.000107061 0.000277882 -1.01638e-05
6.17685e-06 -1.01638e-05 9.11299e-05
0.00465521 0.000672247 0.000314878
0.000672247 0.00327689 0.000410855
0.000314878 0.000410855 -0.00109405
0.00160986 0.000465705 1.65163e-05
0.000465705 -6.16427e-05 8.46706e-05
1.65163e-05 8.46706e-05 -0.00154472
0.00349546 -9.22641e-05 1.22615e-05
-9.22641e-05 -0.000104975 -1.48389e-05
1.22615e-05 -1.48389e-05 -0.000350715
0.0133604 -0.00174587 -0.000210805
-0.00174587 0.00186793 -0.000139477
-0.000210805 -0.000139477 0.00355042
-0.00463384 0.00159104 5.49752e-05
0.00159104 -0.00226581 0.000398892
5.49752e-05 0.000398892 -0.00614895
0.00357537 -0.00190796 -7.38963e-05
-0.00190796 0.00123631 6.25358e-06
-7.38963e-05 6.25358e-06 0.00129912
0.00987189 -0.00178086 -0.000121697
-0.00178086 0.00532287 1.40461e-05
-0.000121697 1.40461e-05 0.000741315
0.00085546 -0.000488101 -3.21447e-05
-0.000488101 0.000521452 8.4389e-05
-3.21447e-05 8.4389e-05 0.000292324
0.00963619 -0.000189506 -0.000108503
-0.000189506 0.00600623 -4.5308e-06
-0.000108503 -4.5308e-06 9.41679e-05
0.00426255 -0.00228136 9.2462e-05
-0.00228136 0.00261064 0.000154898
9.2462e-05 0.000154898 -0.00123179
0.0125733 -0.00334348 -0.000184075
-0.00334348 0.00122939 -0.000609116
-0.000184075 -0.000609116 0.000408659
0.0038563 2.54827e-05 -8.99522e-05
2.54827e-05 0.00285861 8.70595e-05
-8.99522e-05 8.70595e-05 0.00205765
0.0124446 0.00220435 -0.000138253
0.00220435 0.00631686 2.88929e-05
-0.000138253 2.88929e-05 0.00173976
0.0170132 -0.00494916 -0.000205478
-0.00494916 0.00773195 -0.00057351
-0.000205478 -0.00057351 0.0048978
0.0176653 -0.00626981 7.29171e-05
-0.00626981 0.00608322 -5.42997e-05
7.29171e-05 -5.42997e-05 0.00513421
0.000628564 0.000190655 1.17024e-05
0.000190655 0.000294119 9.94196e-07
1.17024e-05 9.94196e-07 7.45861e-05
0.000340689 4.42339e-05 2.27681e-06
4.42339e-05 9.80085e-05 2.499e-06
2.27681e-06 2.499e-06 -0.000104077
0.000941871 0.000170202 -6.45317e-06
0.000170202 0.000348936 -1.0151e-05
-6.45317e-06 -1.0151e-05 0.000187453
0.00410317 -0.000444139 -4.83785e-05
-0.000444139 0.00216541 3.73843e-05
-4.83785e-05 3.73843e-05 0.00107326
0.00019871 -8.45927e-05 -7.85939e-06
-8.45927e-05 0.000709851 -4.07766e-05
-7.85939e-06 -4.07766e-05 0.000315004
0.000194569 -4.18751e-06 -7.3808e-06
-4.18751e-06 -6.73256e-05 9.89116e-07
-7.3808e-06 9.89116e-07 -0.000192445
-7.06758e-05 6.3269e-05 2.50635e-06
6.3269e-05 0.000242734 -4.97614e-06
2.50635e-06 -4.97614e-06 -0.000164756
0.000261169 0.000108108 2.09827e-06
0.000108108 0.000216784 -1.07982e-06
2.09827e-06 -1.07982e-06 -2.83585e-05
0.000492746 0.000286806 8.91029e-06
0.000286806 0.000634088 9.49309e-08
8.91029e-06 9.49309e-08 0.000150055
-0.00170694 -0.00011107 0.000234912
-0.00011107 0.000712354 -1.34982e-05
0.000234912 -1.34982e-05 -0.000949756
-0.00187012 0.000190803 -1.66556e-05
0.000190803 -0.000957216 1.3622e-05
-1.66556e-05 1.3622e-05 -0.00129617
0.00282611 0.000712371 -0.000129203
0.000712371 0.00210699 -7.15837e-05
-0.000129203 -7.15837e-05 0.000903657
0.00151248 0.000185441 0.000144967
0.000185441 0.00160489 4.5832e-05
0.000144967 4.5832e-05 -0.00184719
-0.00149081 9.37399e-05 -2.46805e-05
9.37399e-05 0.000837488 1.75355e-05
-2.46805e-05 1.75355e-05 9.94542e-05
0.00188889 -0.000167419 -1.21517e-05
-0.000167419 0.000243392 2.74534e-07
-1.21517e-05 2.74534e-07 0.000565786
-0.000738544 0.000415401 0.000112988
0.000415401 0.000245882 1.57693e-05
0.000112988 1.57693e-05 -0.000667915
0.00150439 0.000294138 -6.79085e-05
0.000294138 0.00170454 6.94035e-05
-6.79085e-05 6.94035e-05 0.000526041
9.98217e-05 -0.000183329 -1.44045e-05
-0.000183329 0.00111929 4.92036e-06
-1.44045e-05 4.92036e-06 0.000779228
0.0161843 -0.00325109 0.00018476
-0.00325109 0.00764895 -8.42749e-05
0.00018476 -8.42749e-05 0.00228524
0.0203109 0.00361818 -5.50804e-05
0.00361818 0.00853203 -0.000116708
-5.50804e-05 -0.000116708 0.00531635
0.00461295 -0.00117636 -0.000177072
-0.00117636 0.00217705 0.000202452
-0.000177072 0.000202452 -0.00208977
-4.84592e-05 0.00672364 0.00193261
0.00672364 0.00151465 -0.00131268
0.00193261 -0.00131268 0.000210318
0.00095323 -0.000398333 2.43602e-05
-0.000398333 0.00116333 -7.54241e-06
2.43602e-05 -7.54241e-06 0.000258347
-5.92294e-05 -0.00038059 2.93327e-05
-0.00038059 0.000192047 1.50374e-05
2.93327e-05 1.50374e-05 -0.00287052
-0.00175538 0.000422069 -0.000912352
0.000422069 0.00497579 0.000312465
-0.000912352 0.000312465 0.00165004
0.000960321 -0.000664356 -2.94637e-06
-0.000664356 0.000954014 3.22565e-05
-2.94637e-06 3.22565e-05 0.000432309
0.0182656 0.00484023 0.000259849
0.00484023 0.00535153 8.30842e-05
0.000259849 8.30842e-05 0.00338578
0.00757896 -0.00356434 0.000154262
-0.00356434 0.00258894 -6.65593e-05
0.000154262 -6.65593e-05 -0.00100241
0.00210055 -0.00103349 -1.80327e-05
-0.00103349 0.00111691 3.02072e-05
-1.80327e-05 3.02072e-05 0.000556366
-0.00640767 -0.00132248 0.000107495
-0.00132248 0.00424163 -5.8028e-05
0.000107495 -5.8028e-05 0.000742061
0.014463 0.00446724 -0.00115359
0.00446724 0.00572566 0.000470147
-0.00115359 0.000470147 0.00379816
0.00487179 -0.0025452 -0.000338009
-0.0025452 -0.000440517 0.000175272
-0.000338009 0.000175272 -0.00394953
0.00203974 -0.00169944 0.000179659
-0.00169944 0.000299173 -9.73616e-05
0.000179659 -9.73616e-05 0.00107003
0.000106743 -0.00033794 -7.04667e-05
-0.00033794 0.000231788 2.54456e-05
-7.04667e-05 2.54456e-05 -0.000150612
0.000685534 -0.00051838 -7.60127e-06
-0.00051838 0.000371062 1.21902e-05
-7.60127e-06 1.21902e-05 0.000116208
0.00345018 -0.000791091 2.80692e-05
-0.000791091 0.00159575 -2.92341e-06
2.80692e-05 -2.92341e-06 0.00128872
-0.00228071 -0.000161644 4.49253e-06
-0.000161644 -0.00116183 1.31765e-05
4.49253e-06 1.31765e-05 -0.00138203
0.00086711 -0.000499307 5.46415e-06
-0.000499307 0.000124266 1.29026e-07
5.46415e-06 1.29026e-07 -0.000151441
0.00234159 -0.000773551 9.15863e-06
-0.000773551 0.000610708 -3.81438e-07
9.15863e-06 -3.81438e-07 0.000276901
0.00362524 -0.00080594 -2.68756e-05
-0.00080594 0.0015874 6.90794e-06
-2.68756e-05 6.90794e-06 0.00107799
0.00146308 -0.000630911 -4.48431e-07
-0.000630911 0.000297899 -9.76163e-07
-4.48431e-07 -9.76163e-07 -0.000219777
0.0018151 -0.000771987 4.67045e-06
-0.000771987 0.00026466 -9.32448e-06
4.67045e-06 -9.32448e-06 -0.000156136
0.00279092 -0.000766222 -3.30017e-06
-0.000766222 0.00100866 3.4543e-06
-3.30017e-06 3.4543e-06 0.000503019
0.00200005 -0.000718812 2.31421e-07
-0.000718812 0.00050668 -4.92832e-06
2.31421e-07 -4.92832e-06 3.07517e-05
0.00249947 -0.000697471 1.49003e-06
-0.000697471 0.000580041 -8.75957e-06
1.49003e-06 -8.75957e-06 0.000234209
0.00169628 -0.000470286 -4.43405e-06
-0.000470286 2.84621e-05 -3.23368e-06
-4.43405e-06 -3.23368e-06 -0.000208949
0.00179001 -0.000640315 -4.26868e-07
-0.000640315 0.000188105 -9.06507e-07
-4.26868e-07 -9.06507e-07 -0.000161175
0.00200447 -0.000640231 2.60806e-06
-0.000640231 0.000351396 -2.99369e-06
2.60806e-06 -2.99369e-06 1.47761e-06
0.00204674 -0.000639967 -6.10498e-07
-0.000639967 0.000559611 -2.17013e-07
-6.10498e-07 -2.17013e-07 0.000192145
0.00214735 -0.000727379 -2.40033e-06
-0.000727379 0.000562771 8.3489e-08
-2.40033e-06 8.3489e-08 0.000150306
0.00229151 -0.00074759 2.35035e-06
-0.00074759 0.000643984 -3.15098e-06
2.35035e-06 -3.15098e-06 0.000198196
0.00182567 -0.000462631 3.68581e-06
-0.000462631 0.000610845 2.99969e-06
3.68581e-06 2.99969e-06 0.000303824
0.00131535 -0.000486049 1.91613e-06
-0.000486049 0.000268745 6.94523e-07
1.91613e-06 6.94523e-07 -6.04845e-05
0.0010944 -0.000487227 3.31833e-06
-0.000487227 9.16879e-05 6.29282e-07
3.31833e-06 6.29282e-07 -0.000252233
0.00118789 -0.000312538 -1.21383e-06
-0.000312538 0.000356559 8.38391e-07
-1.21383e-06 8.38391e-07 0.000102567
0.00108959 -0.000313822 -9.15074e-08
-0.000313822 0.000218515 -8.80322e-07
-9.15074e-08 -8.80322e-07 -3.70091e-05
0.00109672 -0.000358912 -4.53237e-06
-0.000358912 0.00017516 -3.36989e-06
-4.53237e-06 -3.36989e-06 -0.000107399
-0.000176218 -5.1164e-05 -1.32902e-06
-5.1164e-05 -0.000407067 5.63284e-06
-1.32902e-06 5.63284e-06 -0.000580434
0.00077469 -0.000185892 1.91798e-06
-0.000185892 0.000227681 -1.91389e-08
1.91798e-06 -1.91389e-08 -4.17542e-05
0.0013181 -0.000261912 -2.14242e-06
-0.000261912 0.000493931 1.78941e-06
-2.14242e-06 1.78941e-06 0.000239131
0.0017173 5.15168e-05 -3.43662e-05
5.15168e-05 0.00075084 6.93835e-06
-3.43662e-05 6.93835e-06 0.000707235
0.00071361 -6.99299e-05 2.33688e-07
-6.99299e-05 0.000119429 -7.52311e-07
2.33688e-07 -7.52311e-07 -3.70106e-06
0.00152479 -0.000124029 -2.43859e-06
-0.000124029 0.000683775 -1.44823e-06
-2.43859e-06 -1.44823e-06 0.000463103
0.000746482 4.31182e-05 -4.28685e-05
4.31182e-05 0.000145231 4.87538e-06
-4.28685e-05 4.87538e-06 0.000137648
0.00107595 3.25935e-05 -1.39291e-05
3.25935e-05 0.000347811 -5.15375e-07
-1.39291e-05 -5.15375e-07 0.000309017
0.000669808 -4.18176e-05 1.97645e-06
-4.18176e-05 9.5809e-05 -4.7381e-06
1.97645e-06 -4.7381e-06 -5.39049e-06
0.000553887 2.21381e-05 1.95781e-06
2.21381e-05 1.89238e-05 -7.59041e-06
1.95781e-06 -7.59041e-06 -1.66036e-05
0.00281264 0.000119659 6.93599e-06
0.000119659 0.00142971 6.30212e-07
6.93599e-06 6.30212e-07 0.00142936
0.00264954 0.000100167 3.05925e-05
0.000100167 0.00132045 -4.46541e-06
3.05925e-05 -4.46541e-06 0.00132462
0.00107312 0.000127586 7.09712e-06
0.000127586 0.00040755 1.34162e-06
7.09712e-06 1.34162e-06 0.000232989
0.00120188 0.000140553 3.3732e-06
0.000140553 0.000496981 -1.95785e-06
3.3732e-06 -1.95785e-06 0.000320913
0.000253589 6.73739e-05 -4.50534e-07
6.73739e-05 -0.000104735 1.09743e-06
-4.50534e-07 1.09743e-06 -0.000257011
0.000618201 2.67323e-05 2.83296e-06
2.67323e-05 6.73531e-05 -4.49328e-06
2.83296e-06 -4.49328e-06 -2.46329e-05
0.000807577 9.95413e-05 6.35942e-07
9.95413e-05 0.000224215 5.47812e-08
6.35942e-07 5.47812e-08 8.22848e-05
0.000478283 1.70002e-06 -1.21869e-06
1.70002e-06 -3.85784e-05 -7.11159e-06
-1.21869e-06 -7.11159e-06 -6.53872e-05
0.000558324 3.65586e-05 -1.11187e-07
3.65586e-05 3.22377e-05 -3.50632e-07
-1.11187e-07 -3.50632e-07 -4.98404e-05
0.000711331 6.63721e-05 -2.78557e-06
6.63721e-05 0.000175526 2.94626e-07
-2.78557e-06 2.94626e-07 3.54672e-05
0.00250829 -6.89435e-05 -3.24187e-05
-6.89435e-05 0.00122264 -4.71974e-06
-3.24187e-05 -4.71974e-06 0.00123357
0.000472489 -3.55955e-06 -7.51294e-07
-3.55955e-06 -4.66906e-05 -1.10298e-07
-7.51294e-07 -1.10298e-07 -6.84935e-05
0.000565518 4.93628e-05 -6.50476e-07
4.93628e-05 3.76568e-05 2.88194e-06
-6.50476e-07 2.88194e-06 -3.60108e-05
0.00231734 -5.13149e-05 -5.53027e-06
-5.13149e-05 0.00110011 3.28957e-07
-5.53027e-06 3.28957e-07 0.00111415
0.000470914 -1.20244e-05 -3.16745e-06
-1.20244e-05 -4.97279e-05 4.74818e-06
-3.16745e-06 4.74818e-06 -6.65602e-05
0.00218743 -3.3545e-05 1.95973e-05
-3.3545e-05 0.00101754 4.58411e-06
1.95973e-05 4.58411e-06 0.00103411
0.00619368 0.000434192 0.0002463
0.000434192 0.00319638 4.93974e-05
0.0002463 4.93974e-05 0.00134884
-0.00146486 1.84179e-05 -1.29006e-06
1.84179e-05 -5.48516e-05 -4.82743e-06
-1.29006e-06 -4.82743e-06 -0.000224247
0.000824227 -2.7924e-05 -2.00875e-05
-2.7924e-05 -0.000129446 -1.30739e-06
-2.00875e-05 -1.30739e-06 1.4697e-05
-0.000324317 9.06757e-05 -7.06143e-06
9.06757e-05 -0.000498392 -1.03498e-06
-7.06143e-06 -1.03498e-06 -0.000634774
0.000604344 8.01125e-05 -5.38391e-06
8.01125e-05 9.52554e-05 -2.34089e-06
-5.38391e-06 -2.34089e-06 -4.8462e-05
0.000155032 6.39317e-05 -9.02923e-08
6.39317e-05 -0.000225695 -2.13632e-06
-9.02923e-08 -2.13632e-06 -0.000360063
0.0010304 6.52641e-05 8.51046e-07
6.52641e-05 0.000327825 -4.14528e-07
8.51046e-07 -4.14528e-07 0.000187693
0.000207326 8.67933e-05 -2.04582e-06
8.67933e-05 -0.000187192 -8.59484e-07
-2.04582e-06 -8.59484e-07 -0.000313059
0.00188348 0.000262659 -3.07169e-07
0.000262659 0.000885634 -2.88854e-06
-3.07169e-07 -2.88854e-06 0.00070455
0.00110165 0.000215902 -6.21114e-06
0.000215902 0.000378225 -1.57414e-05
-6.21114e-06 -1.57414e-05 0.000122925
-0.000600119 5.98396e-05 2.28933e-06
5.98396e-05 -0.000468518 1.01087e-06
2.28933e-06 1.01087e-06 -0.00072554
0.000818675 0.000142979 -4.4067e-06
0.000142979 0.000225148 -4.24982e-06
-4.4067e-06 -4.24982e-06 8.94167e-05
0.000153143 4.60758e-05 -5.5657e-06
4.60758e-05 -0.00021288 -6.37536e-06
-5.5657e-06 -6.37536e-06 -0.000309034
0.00015282 5.09979e-05 1.86193e-07
5.09979e-05 -9.19036e-05 8.6115e-07
1.86193e-07 8.6115e-07 -0.000265782
0.000819865 0.000216137 1.35907e-05
0.000216137 0.000450747 -1.34479e-06
1.35907e-05 -1.34479e-06 0.000149011
0.00192846 -0.00211505 0.000142027
-0.00211505 0.00462607 0.000251806
0.000142027 0.000251806 0.000230249
0.00536008 0.000916318 8.68235e-05
0.000916318 0.00282393 0.000148696
8.68235e-05 0.000148696 -0.00183272
0.00223134 0.000326214 -2.89649e-05
0.000326214 0.000369564 -7.78198e-05
-2.89649e-05 -7.78198e-05 -0.0013291
0.0193149 -0.00413867 -0.000549694
-0.00413867 0.00467314 -0.000315242
-0.000549694 -0.000315242 0.00372738
0.00621752 -0.00151624 0.000215243
-0.00151624 0.00305725 0.000414367
0.000215243 0.000414367 0.000212235
0.00304313 -0.00127434 -0.000184164
-0.00127434 0.00430467 8.7379e-05
-0.000184164 8.7379e-05 -0.00214462
0.000144534 -0.000546906 9.53381e-05
-0.000546906 0.00105947 1.95364e-05
9.53381e-05 1.95364e-05 0.000176282
0.000517667 -0.00014247 4.77104e-05
-0.00014247 0.000920784 5.68344e-05
4.77104e-05 5.68344e-05 0.000451921
0.00944195 -0.00645872 0.000360005
-0.00645872 0.00382758 0.000344787
0.000360005 0.000344787 0.00273316
0.00265792 0.00137374 -7.08325e-05
0.00137374 0.00392638 -6.79424e-05
-7.08325e-05 -6.79424e-05 -0.00195163
0.00617665 -0.00299683 -0.000103663
-0.00299683 0.0018817 8.55659e-05
-0.000103663 8.55659e-05 -0.00150364
0.00044215 0.000543253 -2.70525e-05
0.000543253 0.000825706 6.37033e-05
-2.70525e-05 6.37033e-05 0.000608608
0.0112322 0.0029273 -9.91984e-05
0.0029273 0.00414946 9.65249e-06
-9.91984e-05 9.65249e-06 0.000563672
0.0108975 -0.00532395 -0.000666455
-0.00532395 0.00269808 -0.000460263
-0.000666455 -0.000460263 0.000347454
-7.54941e-05 0.000391541 6.79222e-07
0.000391541 -0.000414999 -5.03876e-06
6.79222e-07 -5.03876e-06 -0.000563131
0.000405043 0.000110582 7.30467e-06
0.000110582 0.000134644 2.65689e-06
7.30467e-06 2.65689e-06 -4.92875e-05
3.40652e-05 4.78518e-05 -6.59403e-06
4.78518e-05 -9.29624e-05 -4.82383e-06
-6.59403e-06 -4.82383e-06 -0.00029207
-0.00336417 -0.000311848 -0.000128688
-0.000311848 -0.000161583 -6.12226e-05
-0.000128688 -6.12226e-05 -0.00177751
-0.000961115 0.000206364 1.27235e-05
0.000206364 -0.000262126 -1.87438e-05
1.27235e-05 -1.87438e-05 -0.000743266
0.000837301 0.000142795 -7.19036e-06
0.000142795 0.000524915 5.59702e-06
-7.19036e-06 5.59702e-06 0.000274523
0.000944547 0.000542255 1.60996e-05
0.000542255 0.000511908 3.88045e-06
1.60996e-05 3.88045e-06 0.000144991
-0.000415481 0.000374085 4.92135e-05
0.000374085 0.000532929 -2.71942e-05
4.92135e-05 -2.71942e-05 -0.000509638
0.000221494 0.000968903 4.42374e-05
0.000968903 -0.000264388 5.0604e-06
4.42374e-05 5.0604e-06 -0.000921595
-0.0048681 0.000899316 0.000280495
0.000899316 0.0048394 1.14053e-05
0.000280495 1.14053e-05 -0.000701608
0.00226466 -6.16085e-05 -6.36975e-06
-6.16085e-05 0.00181415 5.24771e-05
-6.36975e-06 5.24771e-05 -0.000633896
-0.00185868 -4.83623e-05 -8.12003e-06
-4.83623e-05 0.000433873 3.59685e-05
-8.12003e-06 3.59685e-05 -7.38139e-05
-0.00045615 -0.000195292 -5.08615e-05
-0.000195292 0.000548873 1.16215e-05
-5.08615e-05 1.16215e-05 -0.000397287
-0.00125152 -0.000307184 -4.92812e-05
-0.000307184 -0.000619017 3.66493e-05
-4.92812e-05 3.66493e-05 -0.000315038
0.000121586 -0.000302267 -0.000152
-0.000302267 0.000448413 8.71827e-05
-0.000152 8.71827e-05 -0.0027616
-0.00019235 -0.00294693 0.000210846
-0.00294693 0.00176704 -8.62848e-05
0.000210846 -8.62848e-05 -0.00335228
0.00449863 0.00417556 0.000516782
0.00417556 -0.00142013 -0.000389278
0.000516782 -0.000389278 -0.00330015
0.00720088 0.00224846 -0.000353224
0.00224846 0.00618246 0.000251521
-0.000353224 0.000251521 0.00314156
0.00133007 -0.000614951 -7.78901e-06
-0.000614951 0.001038 -3.19553e-06
-7.78901e-06 -3.19553e-06 0.000516583
0.00144835 0.000373723 8.74105e-05
0.000373723 0.00606184 -9.40535e-06
8.74105e-05 -9.40535e-06 0.00296409
-0.000679707 0.00301042 1.35965e-05
0.00301042 0.000218696 5.34397e-05
1.35965e-05 5.34397e-05 -0.00259604
0.00237918 -0.00197294 8.10388e-05
-0.00197294 0.00065668 -3.04888e-05
8.10388e-05 -3.04888e-05 0.000711013
0.0165662 -0.00274066 2.47316e-05
-0.00274066 0.00399485 -1.00643e-05
2.47316e-05 -1.00643e-05 0.0020999
0.00326522 -0.0012738 7.94606e-06
-0.0012738 0.00128652 2.15028e-05
7.94606e-06 2.15028e-05 0.00107722
-0.00900499 0.000926393 -0.00042351
0.000926393 -0.00321903 5.12567e-05
-0.00042351 5.12567e-05 -0.00530355
0.0153055 -0.0017518 -0.000188942
-0.0017518 0.00249146 6.6754e-05
-0.000188942 6.6754e-05 0.000996195
0.00372919 -0.00225357 8.59192e-05
-0.00225357 -0.000162724 -6.2379e-05
8.59192e-05 -6.2379e-05 1.6622e-06
0.000202013 -0.000406156 -1.25285e-05
-0.000406156 0.000187796 1.68278e-05
-1.25285e-05 1.68278e-05 -0.000138666
0.00078192 -0.000622636 -3.68849e-06
-0.000622636 3.62459e-05 4.98522e-07
-3.68849e-06 4.98522e-07 -0.000132611
0.00554688 -0.000921845 2.58311e-05
-0.000921845 0.00239182 -5.56835e-06
2.58311e-05 -5.56835e-06 0.00205246
-0.00081809 -0.000309556 -9.85988e-06
-0.000309556 -0.000743043 7.11191e-06
-9.85988e-06 7.11191e-06 -0.00100747
0.0014171 -0.000671076 -5.90463e-06
-0.000671076 0.000159455 -3.04484e-06
-5.90463e-06 -3.04484e-06 -0.000189874
0.0025692 -0.000854195 5.6721e-06
-0.000854195 0.000550229 -7.02812e-06
5.6721e-06 -7.02812e-06 0.000203805
0.00131387 -0.000597529 -1.44581e-05
-0.000597529 0.000195479 3.8413e-06
-1.44581e-05 3.8413e-06 -0.000301623
0.00180391 -0.000755606 -1.51622e-06
-0.000755606 0.00027014 -4.67695e-07
-1.51622e-06 -4.67695e-07 -0.00015478
0.00160788 -0.000622883 2.18738e-06
-0.000622883 -6.54336e-05 -4.66065e-06
2.18738e-06 -4.66065e-06 -0.000332445
0.00146886 -0.00066695 -6.59254e-06
-0.00066695 0.000191915 1.64419e-06
-6.59254e-06 1.64419e-06 -0.000264997
0.00184387 -0.000619915 -6.98034e-07
-0.000619915 0.000226593 1.33798e-06
-6.98034e-07 1.33798e-06 -0.000103279
0.00184713 -0.000477355 -1.02553e-06
-0.000477355 4.87811e-05 -3.9653e-06
-1.02553e-06 -3.9653e-06 -0.000147415
0.00178629 -0.000390284 -5.54556e-06
-0.000390284 6.17415e-05 -1.25004e-06
-5.54556e-06 -1.25004e-06 -0.000101339
0.0016297 -0.00047625 -5.42585e-06
-0.00047625 7.31571e-06 -1.84408e-06
-5.42585e-06 -1.84408e-06 -0.000239338
0.00173286 -0.000466087 1.20891e-06
-0.000466087 5.51313e-05 2.6397e-06
1.20891e-06 2.6397e-06 -0.000177767
0.00159326 -0.000553045 -4.36204e-06
-0.000553045 0.000128522 -1.7117e-06
-4.36204e-06 -1.7117e-06 -0.000187847
0.00195451 -0.000646813 2.47774e-06
-0.000646813 0.000300317 -4.72317e-07
2.47774e-06 -4.72317e-07 -4.54405e-05
0.00201262 -0.000640059 2.89756e-06
-0.000640059 0.000351437 1.06185e-06
2.89756e-06 1.06185e-06 4.3053e-06
0.00151303 -0.000517112 -2.27624e-06
-0.000517112 0.000292716 1.8589e-07
-2.27624e-06 1.8589e-07 -4.22757e-05
0.00190701 -0.000629727 9.48343e-07
-0.000629727 0.000474801 -3.18055e-07
9.48343e-07 -3.18055e-07 0.000107114
0.00206578 -0.000716534 -1.92269e-06
-0.000716534 0.000527262 -1.26938e-06
-1.92269e-06 -1.26938e-06 0.000111463
0.00128394 -0.000318353 -4.86361e-06
-0.000318353 0.000298401 1.08473e-06
-4.86361e-06 1.08473e-06 5.69053e-05
0.00137602 -0.000416638 2.15942e-06
-0.000416638 0.000325778 8.00434e-07
2.15942e-06 8.00434e-07 2.92263e-05
0.000644279 -0.000407215 -1.46599e-06
-0.000407215 -0.000123563 -5.19098e-07
-1.46599e-06 -5.19098e-07 -0.000433437
0.000521311 -0.00017128 -3.72385e-06
-0.00017128 -9.32554e-06 3.26085e-06
-3.72385e-06 3.26085e-06 -0.000224195
0.00110366 -0.000314037 -8.00291e-08
-0.000314037 0.000293517 4.06967e-07
-8.00291e-08 4.06967e-07 4.55476e-05
0.000449605 -0.000246087 -5.85615e-06
-0.000246087 -0.000166263 -1.34166e-06
-5.85615e-06 -1.34166e-06 -0.000409439
0.000409992 -1.76444e-05 -6.85998e-06
-1.76444e-05 -6.59235e-05 1.1727e-05
-6.85998e-06 1.1727e-05 -0.000127596
0.000755252 -0.000126926 4.55934e-07
-0.000126926 0.000165187 4.33146e-07
4.55934e-07 4.33146e-07 -2.23313e-05
0.00104439 -0.000210001 1.18042e-06
-0.000210001 0.00038601 -4.1835e-07
1.18042e-06 -4.1835e-07 0.000120896
0.0033221 0.000196503 -2.90857e-07
0.000196503 0.00177396 3.84405e-06
-2.90857e-07 3.84405e-06 0.00174998
0.000417655 1.93924e-06 -6.65702e-08
1.93924e-06 -6.35251e-05 -1.1516e-07
-6.65702e-08 -1.1516e-07 -0.000113512
0.000995665 -0.000101297 2.56843e-06
-0.000101297 0.000292742 -5.88837e-06
2.56843e-06 -5.88837e-06 0.000161641
0.00306699 0.000137884 6.97681e-06
0.000137884 0.00159506 5.48851e-07
6.97681e-06 5.48851e-07 0.00159052
0.000550876 1.24585e-05 3.11267e-06
1.24585e-05 1.92283e-05 -8.60736e-06
3.11267e-06 -8.60736e-06 -2.25811e-05
0.00288333 0.000119266 4.32627e-05
0.000119266 0.00147364 -3.99749e-06
4.32627e-05 -3.99749e-06 0.00147357
0.0016229 0.000241985 6.78708e-06
0.000241985 0.000701045 3.79472e-06
6.78708e-06 3.79472e-06 0.000506886
0.000818437 0.000130387 5.9348e-07
0.000130387 0.000260692 -1.34411e-06
5.9348e-07 -1.34411e-06 7.9958e-05
0.00114063 0.000127066 1.57552e-06
0.000127066 0.00047338 -4.79674e-06
1.57552e-06 -4.79674e-06 0.00027294
0.000611128 3.74888e-05 2.28644e-06
3.74888e-05 7.11526e-05 -5.81879e-06
2.28644e-06 -5.81879e-06 -3.57475e-05
0.00069138 7.92182e-05 -7.73388e-08
7.92182e-05 0.000165369 1.02258e-06
-7.73388e-08 1.02258e-06 3.64933e-06
0.000429636 9.69922e-05 -8.78702e-07
9.69922e-05 9.50291e-06 3.29672e-06
-8.78702e-07 3.29672e-06 -0.000149996
0.000507448 -5.09651e-06 -1.52324e-06
-5.09651e-06 -1.50744e-05 -8.44508e-06
-1.52324e-06 -8.44508e-06 -4.76925e-05
0.000588475 3.27803e-05 -4.6734e-08
3.27803e-05 5.37753e-05 -2.84742e-07
-4.6734e-08 -2.84742e-07 -3.99099e-05
0.00046776 7.98969e-05 -3.6226e-06
7.98969e-05 3.84716e-06 4.01744e-07
-3.6226e-06 4.01744e-07 -0.000125857
0.00265824 -8.53874e-05 -4.09534e-05
-8.53874e-05 0.00132111 -4.40163e-06
-4.09534e-05 -4.40163e-06 0.00132919
0.000448126 -2.01156e-05 2.07845e-06
-2.01156e-05 -5.61951e-05 -1.20566e-07
2.07845e-06 -1.20566e-07 -8.34957e-05
0.000530062 4.07942e-05 -1.82586e-06
4.07942e-05 1.60431e-05 3.31272e-06
-1.82586e-06 3.31272e-06 -6.64529e-05
0.00248526 -6.87312e-05 -5.96409e-06
-6.87312e-05 0.00120806 4.2307e-07
-5.96409e-06 4.2307e-07 0.001219
0.000466857 -1.08708e-05 -2.25083e-06
-1.08708e-05 -4.9906e-05 5.779e-06
-2.25083e-06 5.779e-06 -7.15819e-05
0.00230336 -5.05485e-05 2.27047e-05
-5.05485e-05 0.00109129 4.58435e-06
2.27047e-05 4.58435e-06 0.00110553
-0.00931142 0.000880273 -6.57122e-05
0.000880273 0.00303931 7.90981e-05
-6.57122e-05 7.90981e-05 -0.0022604
0.00584323 0.000272238 -4.34093e-06
0.000272238 0.003204 -2.56294e-06
-4.34093e-06 -2.56294e-06 0.00143839
-0.00120737 -1.63668e-05 1.83617e-05
-1.63668e-05 -6.18138e-05 2.34064e-06
1.83617e-05 2.34064e-06 -0.000401172
3.87857e-05 9.00065e-05 -2.49094e-06
9.00065e-05 -0.000263163 2.29404e-06
-2.49094e-06 2.29404e-06 -0.000416139
0.00326508 0.000563445 7.61111e-06
0.000563445 0.00165007 9.22696e-06
7.61111e-06 9.22696e-06 0.00134643
0.00149404 0.000154364 -7.24949e-06
0.000154364 0.000673741 -1.05378e-06
-7.24949e-06 -1.05378e-06 0.00044152
0.00065307 6.70175e-05 -6.15147e-06
6.70175e-05 9.46045e-05 -9.90176e-06
-6.15147e-06 -9.90176e-06 -4.74213e-05
0.00210446 0.000224007 2.83862e-06
0.000224007 0.000952589 -3.41801e-07
2.83862e-06 -3.41801e-07 0.000811991
-0.000257876 5.71075e-05 -7.68203e-06
5.71075e-05 -0.00042789 5.97618e-06
-7.68203e-06 5.97618e-06 -0.000557089
0.000279106 7.25366e-05 -1.48977e-06
7.25366e-05 1.27557e-05 4.67638e-06
-1.48977e-06 4.67638e-06 -0.000219927
0.000467872 0.000139274 -3.15213e-06
0.000139274 2.88989e-05 -4.86932e-06
-3.15213e-06 -4.86932e-06 -0.000223905
0.00181093 0.000371139 7.03547e-06
0.000371139 0.000878133 -2.51427e-05
7.03547e-06 -2.51427e-05 0.000517222
0.000317363 0.000401921 -1.03384e-05
0.000401921 -0.000164474 3.13042e-05
-1.03384e-05 3.13042e-05 -0.000311842
0.00135631 5.0341e-05 -8.47031e-06
5.0341e-05 0.000621059 9.91774e-06
-8.47031e-06 9.91774e-06 0.000447754
0.00110639 0.000197693 2.90838e-06
0.000197693 0.000633547 -6.29843e-06
2.90838e-06 -6.29843e-06 0.000336818
-0.00241348 -0.00179144 -0.00112381
-0.00179144 0.000619993 -0.00019395
-0.00112381 -0.00019395 -0.00236647
-0.00333826 -0.00157704 0.000393057
-0.00157704 0.00421128 0.000174806
0.000393057 0.000174806 -0.000421605
0.00602578 0.00112931 -0.000398004
0.00112931 0.00270101 -0.000143071
-0.000398004 -0.000143071 -0.00226142
-0.000779165 -0.00672796 0.0018677
-0.00672796 0.00143752 0.00125594
0.0018677 0.00125594 -0.000195922
0.0213889 -0.00313657 4.39419e-05
-0.00313657 0.00701459 0.000284026
4.39419e-05 0.000284026 0.00478868
-0.00251089 0.00145006 -2.61881e-07
0.00145006 0.00169814 -0.000166798
-2.61881e-07 -0.000166798 -0.00351689
-0.00215755 0.000201489 -0.000364304
0.000201489 2.79334e-05 -5.83562e-05
-0.000364304 -5.83562e-05 -0.00136155
0.00120864 0.000631736 6.52783e-05
0.000631736 0.00126072 4.68962e-05
6.52783e-05 4.68962e-05 0.00103619
0.0168077 -0.00388346 -0.000483235
-0.00388346 0.00693611 1.58655e-05
-0.000483235 1.58655e-05 0.00455077
-0.00205578 0.00225188 -7.8765e-05
0.00225188 0.0004143 -4.46601e-05
-7.8765e-05 -4.46601e-05 -0.00398079
0.00263915 0.00165165 -1.80767e-05
0.00165165 0.000744376 -6.76487e-05
-1.80767e-05 -6.76487e-05 0.00125172
0.00222174 0.00344074 -0.00029869
0.00344074 -0.00183326 -0.00010606
-0.00029869 -0.00010606 -0.00450454
0.00315983 0.00102514 1.9578e-05
0.00102514 0.00112213 -1.17699e-05
1.9578e-05 -1.17699e-05 0.000804788
0.000976598 0.000478484 -5.93816e-06
0.000478484 0.000265318 -8.29356e-07
-5.93816e-06 -8.29356e-07 0.000100649
0.000404489 0.000146326 -5.05286e-06
0.000146326 0.000134084 -5.21362e-07
-5.05286e-06 -5.21362e-07 -5.55633e-05
-0.00203115 0.00022045 -6.79736e-05
0.00022045 -0.000341585 -6.67919e-05
-6.79736e-05 -6.67919e-05 -0.00124676
0.00242176 0.000728943 -2.97968e-05
0.000728943 0.00124889 -2.08813e-05
-2.97968e-05 -2.08813e-05 0.000864464
0.00150413 0.00112468 1.44782e-05
0.00112468 0.000305863 -6.57103e-06
1.44782e-05 -6.57103e-06 -0.000344006
-0.00015979 0.00130941 9.7444e-05
0.00130941 -0.00133119 3.90644e-05
9.7444e-05 3.90644e-05 -0.00161255
-0.00576246 -0.000326769 -0.000465089
-0.000326769 -0.00462266 2.76573e-05
-0.000465089 2.76573e-05 -0.00367783
-0.00712112 0.000419252 0.00029322
0.000419252 0.004816 1.23137e-05
0.00029322 1.23137e-05 -0.00049148
0.00290179 -0.000114763 -0.000102745
-0.000114763 0.00196762 3.37361e-05
-0.000102745 3.37361e-05 0.000335796
0.00213577 -0.000740883 -3.46765e-05
-0.000740883 0.00110069 -5.08009e-05
-3.46765e-05 -5.08009e-05 0.00059185
1.39997e-05 -0.00163161 -1.67629e-05
-0.00163161 -0.000585368 4.39394e-05
-1.67629e-05 4.39394e-05 -0.000423814
0.000674322 0.000417174 1.02525e-05
0.000417174 0.00579005 3.32845e-05
1.02525e-05 3.32845e-05 0.00268931
0.00149762 -0.00239187 0.00035853
-0.00239187 -0.0014518 -0.000130404
0.00035853 -0.000130404 -0.0040832
0.0177893 0.00268385 0.000573116
0.00268385 0.00786864 -8.32882e-05
0.000573116 -8.32882e-05 0.00572516
0.00178283 -0.00132041 -1.66635e-05
-0.00132041 0.000398297 6.07116e-06
-1.66635e-05 6.07116e-06 -4.6815e-05
0.00111782 0.00109125 0.000197976
0.00109125 0.000132899 -5.75846e-05
0.000197976 -5.75846e-05 -0.00135669
0.00783582 -0.00154633 -0.000123699
-0.00154633 -0.00130209 0.000116144
-0.000123699 0.000116144 -0.00358418
0.00470831 -0.0023243 -1.65279e-05
-0.0023243 0.000188488 2.56505e-05
-1.65279e-05 2.56505e-05 0.000404762
0.0025293 -0.00111324 7.03458e-05
-0.00111324 0.000307066 -1.34782e-05
7.03458e-05 -1.34782e-05 0.00020423
0.0144899 -0.000720749 -2.47026e-05
-0.000720749 0.0030039 1.74243e-05
-2.47026e-05 1.74243e-05 0.001606
0.002222 -0.00137612 0.000105126
-0.00137612 -0.0026093 -8.6644e-05
0.000105126 -8.6644e-05 -0.00178532
-0.000674665 -0.000502063 -3.38322e-05
-0.000502063 -0.000850219 2.16432e-05
-3.38322e-05 2.16432e-05 -0.000898598
0.00025336 -0.00047696 -3.22822e-05
-0.00047696 -0.000520706 2.1302e-06
-3.22822e-05 2.1302e-06 -0.000639375
0.0055573 -0.000960302 6.17126e-05
-0.000960302 0.00203719 -1.92283e-05
6.17126e-05 -1.92283e-05 0.00186407
0.000560822 -0.000569766 -2.08527e-05
-0.000569766 -0.000265656 -5.16413e-06
-2.08527e-05 -5.16413e-06 -0.000620668
0.00206204 -0.000793097 -9.11257e-07
-0.000793097 0.000281791 -2.63719e-06
-9.11257e-07 -2.63719e-06 -4.5786e-05
0.0026701 -0.000733491 1.51855e-06
-0.000733491 0.000334574 -4.05531e-06
1.51855e-06 -4.05531e-06 0.000145876
0.00196737 -0.000758781 -5.77695e-06
-0.000758781 0.000362521 5.18516e-06
-5.77695e-06 5.18516e-06 -6.74642e-05
0.00201946 -0.000659633 -4.49507e-07
-0.000659633 0.000154987 1.49361e-06
-4.49507e-07 1.49361e-06 -0.000116465
0.0020539 -0.000499038 1.00907e-06
-0.000499038 5.85473e-05 -2.17592e-07
1.00907e-06 -2.17592e-07 -7.81172e-05
0.00125654 -0.000549587 4.47281e-06
-0.000549587 -9.15082e-05 6.95588e-06
4.47281e-06 6.95588e-06 -0.00040656
0.00189155 -0.000472973 -3.54318e-07
-0.000472973 8.01884e-05 1.87431e-06
-3.54318e-07 1.87431e-06 -0.000112803
0.00190421 -0.000424133 -2.95441e-06
-0.000424133 4.9495e-05 1.00257e-06
-2.95441e-06 1.00257e-06 -8.73129e-05
0.00207666 -0.000407353 -5.0085e-06
-0.000407353 0.000239913 9.76264e-07
-5.0085e-06 9.76264e-07 9.78946e-05
0.00189132 -0.000396003 -2.95125e-06
-0.000396003 0.000119132 3.40446e-06
-2.95125e-06 3.40446e-06 -4.04867e-05
0.00195344 -0.000413596 -3.17208e-06
-0.000413596 0.000194674 -4.27766e-06
-3.17208e-06 -4.27766e-06 1.6912e-05
0.00189443 -0.000496718 -5.99307e-06
-0.000496718 0.000195251 -2.24197e-06
-5.99307e-06 -2.24197e-06 -5.79709e-05
0.00183608 -0.000492305 1.67086e-06
-0.000492305 0.000136263 7.26817e-07
1.67086e-06 7.26817e-07 -0.00011152
0.00176562 -0.000461624 6.08576e-06
-0.000461624 7.8369e-05 7.27281e-06
6.08576e-06 7.27281e-06 -0.000149979
0.0017703 -0.000534994 -6.79666e-06
-0.000534994 0.000301332 -9.12738e-07
-6.79666e-06 -9.12738e-07 -1.21688e-05
0.00160867 -0.000559912 -5.12654e-07
-0.000559912 0.000125746 1.48118e-07
-5.12654e-07 1.48118e-07 -0.000193316
0.00207603 -0.000650233 5.96422e-06
-0.000650233 0.000386555 2.43296e-07
5.96422e-06 2.43296e-07 4.46526e-05
0.0014554 -0.000381432 -8.5681e-06
-0.000381432 0.000338683 5.31998e-06
-8.5681e-06 5.31998e-06 6.52954e-05
0.00156871 -0.000518367 -3.00449e-07
-0.000518367 0.000330658 8.41781e-07
-3.00449e-07 8.41781e-07 -3.10961e-06
0.00180281 -0.000624104 1.74688e-06
-0.000624104 0.000408995 -3.60644e-08
1.74688e-06 -3.60644e-08 4.05687e-05
0.000798271 -0.000216333 -6.75067e-06
-0.000216333 8.72986e-05 5.59706e-06
-6.75067e-06 5.59706e-06 -0.000115409
0.00109271 -0.000306219 4.1015e-07
-0.000306219 0.000176523 -9.16573e-07
4.1015e-07 -9.16573e-07 -6.56421e-05
0.000930187 -0.000370663 1.59294e-06
-0.000370663 4.36143e-05 -1.09195e-06
1.59294e-06 -1.09195e-06 -0.000242617
0.000412255 -9.68493e-05 -1.77368e-05
-9.68493e-05 -9.12829e-05 1.43996e-05
-1.77368e-05 1.43996e-05 -0.000170292
0.000664732 -0.00017074 -1.42095e-07
-0.00017074 8.9412e-05 9.40489e-07
-1.42095e-07 9.40489e-07 -0.000132247
0.0009512 -0.000328983 2.40446e-06
-0.000328983 0.000193229 -3.50119e-07
2.40446e-06 -3.50119e-07 -5.6067e-05
0.00374624 0.00018505 -7.58743e-05
0.00018505 0.00204082 4.46645e-06
-7.58743e-05 4.46645e-06 0.00202224
0.000500526 -3.54794e-05 8.26287e-07
-3.54794e-05 -1.68367e-05 -4.84604e-07
8.26287e-07 -4.84604e-07 -8.15489e-05
0.00156833 -0.000181738 3.06155e-06
-0.000181738 0.000664675 -6.1342e-06
3.06155e-06 -6.1342e-06 0.000465735
0.00217621 0.000119133 4.17192e-05
0.000119133 0.00105072 1.16935e-06
4.17192e-05 1.16935e-06 0.00103444
0.00063305 -3.96355e-06 6.80534e-06
-3.96355e-06 6.55421e-05 -1.07111e-05
6.80534e-06 -1.07111e-05 1.54537e-05
0.00317911 0.00013099 6.48867e-05
0.00013099 0.00166379 -3.77748e-06
6.48867e-05 -3.77748e-06 0.0016611
0.00120843 0.000257561 6.09392e-06
0.000257561 0.000357064 7.39773e-07
6.09392e-06 7.39773e-07 0.000166212
0.000484501 0.000115512 -1.48663e-06
0.000115512 -1.38443e-05 -1.64019e-07
-1.48663e-06 -1.64019e-07 -0.000178308
0.000551316 0.000132443 1.95499e-06
0.000132443 7.5875e-05 -4.77528e-06
1.95499e-06 -4.77528e-06 -0.000113011
0.000576843 0.000120874 -2.00271e-06
0.000120874 0.000107597 4.19642e-06
-2.00271e-06 4.19642e-06 -6.91367e-05
0.000619576 8.11333e-05 5.9853e-07
8.11333e-05 0.000123773 2.61107e-07
5.9853e-07 2.61107e-07 -5.30879e-05
0.000807602 7.39213e-05 9.27817e-07
7.39213e-05 0.000187102 -8.05238e-06
9.27817e-07 -8.05238e-06 6.29529e-05
0.000585132 1.30109e-05 -3.61774e-06
1.30109e-05 3.74877e-05 -1.04997e-05
-3.61774e-06 -1.04997e-05 -3.39988e-06
0.000617558 3.50312e-05 3.39798e-07
3.50312e-05 8.04435e-05 -3.95223e-08
3.39798e-07 -3.95223e-08 -2.79557e-05
0.000246719 3.98882e-05 -4.31669e-06
3.98882e-05 -0.000135117 2.08571e-06
-4.31669e-06 2.08571e-06 -0.000275639
0.00280126 -9.91798e-05 -5.44505e-05
-9.91798e-05 0.00141659 -4.34394e-06
-5.44505e-05 -4.34394e-06 0.00142217
0.000449858 1.6281e-06 8.13333e-07
1.6281e-06 -4.82993e-05 -2.42164e-07
8.13333e-07 -2.42164e-07 -8.12246e-05
0.00055603 3.41053e-05 -2.70174e-06
3.41053e-05 4.01802e-05 4.36322e-06
-2.70174e-06 4.36322e-06 -5.57517e-05
0.00263232 -8.57462e-05 -6.50786e-06
-8.57462e-05 0.00130498 5.05995e-07
-6.50786e-06 5.05995e-07 0.00131275
0.00043555 -1.87731e-05 -6.3706e-08
-1.87731e-05 -6.24557e-05 6.81221e-06
-6.3706e-08 6.81221e-06 -9.0203e-05
0.00247681 -6.81671e-05 2.84809e-05
-6.81671e-05 0.00120248 4.69227e-06
2.84809e-05 4.69227e-06 0.00121348
0.000489999 0.000198582 -0.000617972
0.000198582 0.00314044 -3.63065e-05
-0.000617972 -3.63065e-05 0.00126086
-0.00531879 0.000166796 3.64358e-05
0.000166796 0.00390734 3.65227e-06
3.64358e-05 3.65227e-06 -0.00153915
0.00548163 0.000116627 -0.00017433
0.000116627 0.00316724 -4.52657e-05
-0.00017433 -4.52657e-05 0.00152133
0.000316275 4.98787e-05 1.11332e-06
4.98787e-05 -9.56955e-05 -5.80882e-06
1.11332e-06 -5.80882e-06 -0.000251312
0.000874684 7.66648e-05 5.6714e-06
7.66648e-05 0.000281371 5.07732e-06
5.6714e-06 5.07732e-06 4.42617e-05
0.00249914 0.00047348 -2.62544e-06
0.00047348 0.00121517 3.29112e-06
-2.62544e-06 3.29112e-06 0.000933538
0.00204312 0.000543079 7.27546e-06
0.000543079 0.000797367 2.65126e-07
7.27546e-06 2.65126e-07 0.000423543
0.000336051 0.000254864 3.59213e-08
0.000254864 8.55084e-08 -3.54447e-06
3.59213e-08 -3.54447e-06 -0.000297165
0.000444975 0.000104836 -5.05854e-06
0.000104836 0.000113979 8.30875e-06
-5.05854e-06 8.30875e-06 -0.000126316
0.000562437 0.000142751 9.90107e-06
0.000142751 0.000114293 1.10997e-05
9.90107e-06 1.10997e-05 -0.000130541
0.000445947 0.00029951 -6.54158e-06
0.00029951 0.000110679 -3.14022e-06
-6.54158e-06 -3.14022e-06 -0.000258349
-0.000470861 0.000376781 6.09248e-06
0.000376781 -0.000713462 -9.69045e-06
6.09248e-06 -9.69045e-06 -0.000999477
0.0021748 0.000667705 -2.50424e-06
0.000667705 0.000760469 1.64533e-05
-2.50424e-06 1.64533e-05 0.000581732
0.00129753 0.000740684 2.1095e-05
0.000740684 -3.91993e-05 5.38055e-06
2.1095e-05 5.38055e-06 -0.000189077
0.0014638 0.000537902 -7.90987e-06
0.000537902 0.000531428 -2.9417e-06
-7.90987e-06 -2.9417e-06 0.000324123
0.00183803 0.000261442 -8.18314e-06
0.000261442 0.000967463 2.52879e-05
-8.18314e-06 2.52879e-05 0.000712224
0.0133962 0.00196183 -9.7661e-05
0.00196183 0.00205845 6.63214e-05
-9.7661e-05 6.63214e-05 0.000685538
0.000996214 -0.00148239 -0.000438092
-0.00148239 0.00324648 -0.000167198
-0.000438092 -0.000167198 0.000605582
-0.000830368 -0.00252407 0.000516601
-0.00252407 0.00455518 0.000144595
0.000516601 0.000144595 -0.000129028
0.00353405 -0.002354 0.000215098
-0.002354 0.00182233 0.000298183
0.000215098 0.000298183 -0.000487132
0.0130562 0.00345092 -7.76228e-05
0.00345092 0.00464911 -4.5128e-05
-7.76228e-05 -4.5128e-05 0.000787658
-0.00280282 0.00018715 -5.83562e-05
0.00018715 -0.000441281 -5.11401e-05
-5.83562e-05 -5.11401e-05 -0.000706262
0.00197225 0.00146565 -3.63522e-05
0.00146565 0.00051042 -1.35325e-05
-3.63522e-05 -1.35325e-05 0.00102458
0.0166376 0.0032564 1.96597e-05
0.0032564 0.00439335 3.52053e-05
1.96597e-05 3.52053e-05 0.00213642
0.00623319 0.00283543 -3.80516e-05
0.00283543 0.00028392 -9.04588e-05
-3.80516e-05 -9.04588e-05 0.000352143
0.00182398 0.00102573 1.16027e-05
0.00102573 0.000240958 -2.70322e-06
1.16027e-05 -2.70322e-06 1.1555e-05
0.00152681 0.000794867 7.89078e-06
0.000794867 0.000376035 -2.17749e-06
7.89078e-06 -2.17749e-06 9.26087e-05
0.00174582 0.000511835 -2.19971e-05
0.000511835 0.000765145 3.11215e-06
-2.19971e-05 3.11215e-06 0.000595379
0.00275527 0.00132825 -5.75067e-05
0.00132825 0.000840745 -2.24366e-05
-5.75067e-05 -2.24366e-05 0.000204719
0.00171049 0.00151268 5.03611e-05
0.00151268 -0.000561114 2.9166e-05
5.03611e-05 2.9166e-05 -0.000882714
0.00161397 -0.000352852 -9.39219e-05
-0.000352852 -0.00437089 4.30614e-05
-9.39219e-05 4.30614e-05 -0.00463793
0.00118005 -0.00126758 7.28563e-06
-0.00126758 0.00172104 -1.19793e-05
7.28563e-06 -1.19793e-05 0.00126648
-0.00989804 -0.000167044 0.000255705
-0.000167044 0.0049635 -2.23464e-05
0.000255705 -2.23464e-05 -7.79332e-05
4.02021e-05 -0.00133593 -3.97012e-05
-0.00133593 -0.000729282 5.05098e-06
-3.97012e-05 5.05098e-06 -0.00137504
0.00413954 -0.00236929 2.42955e-05
-0.00236929 0.000220685 3.56849e-05
2.42955e-05 3.56849e-05 5.85145e-05
0.00165923 -0.000171532 0.000660423
-0.000171532 0.003402 -0.000143464
0.000660423 -0.000143464 0.00173569
0.0130904 -0.00180831 -0.000231926
-0.00180831 0.00167289 0.000110301
-0.000231926 0.000110301 0.000264107
0.00167147 -0.00111564 -3.23019e-05
-0.00111564 -7.51625e-05 -1.14989e-06
-3.23019e-05 -1.14989e-06 -0.000309152
0.0106582 -4.63368e-05 -0.000160793
-4.63368e-05 -0.000293664 4.72562e-05
-0.000160793 4.72562e-05 -0.00126907
0.00653036 -0.00160238 9.93904e-05
-0.00160238 -0.00012586 1.47619e-05
9.93904e-05 1.47619e-05 0.000257226
0.00438542 -0.00103075 6.81958e-05
-0.00103075 0.0010275 -3.2139e-05
6.81958e-05 -3.2139e-05 0.000754802
0.00302918 -0.00062596 -4.53235e-05
-0.00062596 -0.00121885 1.77154e-05
-4.53235e-05 1.77154e-05 -0.000424981
-0.0057473 1.29605e-05 2.43654e-06
1.29605e-05 -0.00378373 3.08822e-06
2.43654e-06 3.08822e-06 -0.00373292
0.00157813 -0.000641574 -1.20822e-05
-0.000641574 -0.00014659 1.1895e-06
-1.20822e-05 1.1895e-06 -0.000176293
0.00311573 -0.000639178 3.04921e-05
-0.000639178 0.000469598 -1.10308e-05
3.04921e-05 -1.10308e-05 0.000523798
0.00114838 -0.000696842 -7.6443e-06
-0.000696842 -0.000193017 7.02669e-06
-7.6443e-06 7.02669e-06 -0.000497561
0.0019942 -0.000670265 -3.03046e-06
-0.000670265 -1.34466e-05 2.88625e-06
-3.03046e-06 2.88625e-06 -0.000196145
0.00228116 -0.000545227 4.57395e-06
-0.000545227 1.19064e-05 -9.49323e-07
4.57395e-06 -9.49323e-07 -3.13417e-05
0.00224633 -0.000675161 -5.069e-06
-0.000675161 0.000281602 8.71303e-06
-5.069e-06 8.71303e-06 8.9131e-06
0.00204033 -0.000495904 2.27187e-07
-0.000495904 4.88511e-05 1.4124e-06
2.27187e-07 1.4124e-06 -8.27668e-05
0.00215931 -0.000479798 -8.96941e-07
-0.000479798 0.00010336 8.12091e-07
-8.96941e-07 8.12091e-07 2.03663e-05
0.00193649 -0.000469056 3.31066e-06
-0.000469056 0.000111849 6.08449e-06
3.31066e-06 6.08449e-06 -7.76739e-05
0.00194879 -0.000429115 -1.64868e-07
-0.000429115 7.30935e-05 1.26081e-06
-1.64868e-07 1.26081e-06 -6.25515e-05
0.00210235 -0.000456639 -2.60994e-06
-0.000456639 0.000168475 1.61927e-06
-2.60994e-06 1.61927e-06 3.86157e-05
0.00199172 -0.000408039 -4.10408e-06
-0.000408039 0.000180826 2.90383e-06
-4.10408e-06 2.90383e-06 4.00002e-05
0.00211114 -0.00041387 -1.33606e-06
-0.00041387 0.000286187 -1.51304e-06
-1.33606e-06 -1.51304e-06 0.000136724
0.00198701 -0.000402014 4.42805e-06
-0.000402014 0.000171132 6.59033e-06
4.42805e-06 6.59033e-06 1.47744e-05
0.00195586 -0.000413804 4.53731e-07
-0.000413804 0.000194826 -7.1245e-07
4.53731e-07 -7.1245e-07 1.69864e-05
0.00185226 -0.000426339 -2.97798e-06
-0.000426339 0.000139189 -3.23087e-06
-2.97798e-06 -3.23087e-06 -5.94902e-05
0.001912 -0.000471553 -4.61438e-06
-0.000471553 0.000280279 -2.76464e-06
-4.61438e-06 -2.76464e-06 2.1508e-05
0.00195616 -0.000503722 -2.29409e-07
-0.000503722 0.000234928 -1.10862e-07
-2.29409e-07 -1.10862e-07 -2.07004e-05
0.0020498 -0.000508527 7.48806e-06
-0.000508527 0.000270618 3.56838e-06
7.48806e-06 3.56838e-06 2.17479e-05
0.00138242 -0.000406275 -9.07058e-06
-0.000406275 0.000172263 2.41908e-06
-9.07058e-06 2.41908e-06 -0.000107208
0.0016914 -0.000523738 -1.48931e-06
-0.000523738 0.00025883 -1.23975e-07
-1.48931e-06 -1.23975e-07 -5.38768e-05
0.00162893 -0.00056611 4.60132e-06
-0.00056611 0.000126677 1.1402e-06
4.60132e-06 1.1402e-06 -0.000194825
0.000750631 -0.000214292 -9.50001e-06
-0.000214292 -1.64107e-06 6.50115e-06
-9.50001e-06 6.50115e-06 -0.000199797
0.00120194 -0.000363038 1.93685e-06
-0.000363038 0.000175843 4.50665e-07
1.93685e-06 4.50665e-07 -9.5247e-05
0.00157982 -0.000514342 3.96863e-06
-0.000514342 0.000342415 3.3733e-07
3.96863e-06 3.3733e-07 1.10902e-05
0.000520172 -0.000163321 -2.17009e-05
-0.000163321 -4.7982e-05 1.74557e-05
-2.17009e-05 1.74557e-05 -0.000150098
0.000723325 -0.000218147 -3.74311e-07
-0.000218147 4.80003e-05 6.666e-07
-3.74311e-07 6.666e-07 -0.000157539
0.000763056 -0.000273156 3.4351e-06
-0.000273156 -3.25542e-05 -2.36442e-06
3.4351e-06 -2.36442e-06 -0.000269486
0.00463804 0.000204121 -0.000111497
0.000204121 0.00260595 8.28295e-06
-0.000111497 8.28295e-06 0.00258084
0.000557162 -0.000111593 -7.1084e-07
-0.000111593 4.7948e-07 -8.95664e-07
-7.1084e-07 -8.95664e-07 -8.64509e-05
0.00112102 -0.000202584 4.15717e-06
-0.000202584 0.000374056 -4.27836e-06
4.15717e-06 -4.27836e-06 0.000145988
0.00404318 0.000165937 1.66383e-05
0.000165937 0.00222149 4.7505e-07
1.66383e-05 4.7505e-07 0.00220835
0.000609257 -5.39398e-05 1.40153e-05
-5.39398e-05 4.35112e-05 -1.30125e-05
1.40153e-05 -1.30125e-05 -2.55033e-05
0.00355259 0.000132001 9.73381e-05
0.000132001 0.00190136 -4.54169e-06
9.73381e-05 -4.54169e-06 0.00189877
0.00103371 0.00035806 3.64013e-06
0.00035806 0.000178446 -5.48693e-06
3.64013e-06 -5.48693e-06 -0.000106837
0.000907217 0.000236083 2.30611e-06
0.000236083 0.000173696 -1.34711e-06
2.30611e-06 -1.34711e-06 -1.6992e-05
2.5503e-05 0.000115898 4.42662e-06
0.000115898 -0.000298694 -1.7287e-07
4.42662e-06 -1.7287e-07 -0.000486197
-0.000721103 2.29784e-05 -3.26738e-06
2.29784e-05 -0.000737334 -9.26208e-07
-3.26738e-06 -9.26208e-07 -0.00089433
0.000337283 7.70578e-05 1.75768e-08
7.70578e-05 -7.27923e-05 1.3995e-06
1.75768e-08 1.3995e-06 -0.000251642
0.00083483 8.1581e-05 7.10629e-07
8.1581e-05 0.000200991 -8.14944e-06
7.10629e-07 -8.14944e-06 5.33942e-05
0.000346901 4.7474e-05 -2.17454e-06
4.7474e-05 -6.15968e-05 3.36122e-06
-2.17454e-06 3.36122e-06 -0.000224115
0.000563577 5.89698e-05 -1.54709e-07
5.89698e-05 4.32436e-05 -6.23856e-08
-1.54709e-07 -6.23856e-08 -7.87823e-05
0.000578416 1.55357e-05 -5.13068e-06
1.55357e-05 3.30761e-05 -1.29327e-05
-5.13068e-06 -1.29327e-05 -1.73853e-05
0.00306269 -0.000110658 -7.42339e-05
-0.000110658 0.00158742 -5.07631e-06
-7.42339e-05 -5.07631e-06 0.00159013
0.000449903 1.4557e-06 1.079e-06
1.4557e-06 -4.23947e-05 -3.31544e-07
1.079e-06 -3.31544e-07 -8.36317e-05
0.000576587 3.24017e-05 -2.76715e-06
3.24017e-05 5.96362e-05 6.335e-06
-2.76715e-06 6.335e-06 -4.91687e-05
0.00279404 -0.000103641 -7.27898e-06
-0.000103641 0.00141285 6.19837e-07
-7.27898e-06 6.19837e-07 0.00141688
0.00037009 -4.37515e-05 -4.45109e-06
-4.37515e-05 -9.24675e-05 8.01475e-06
-4.45109e-06 8.01475e-06 -0.000127652
0.00262625 -8.61767e-05 3.53025e-05
-8.61767e-05 0.00130071 4.6132e-06
3.53025e-05 4.6132e-06 0.00130822
0.0139343 0.000527181 0.000399382
0.000527181 0.00227058 9.90357e-05
0.000399382 9.90357e-05 0.00165757
-0.00195626 -0.00218449 -0.000368496
-0.00218449 -0.00268625 -6.53197e-05
-0.000368496 -6.53197e-05 -0.00413003
-0.00873089 0.00115958 -0.000158368
0.00115958 0.00313593 -0.000110237
-0.000158368 -0.000110237 -0.00277747
0.000138035 1.85204e-05 1.83061e-05
1.85204e-05 -0.000160007 5.73878e-07
1.83061e-05 5.73878e-07 -0.000419466
0.00177669 0.000374985 -1.31714e-05
0.000374985 0.000789819 1.58776e-06
-1.31714e-05 1.58776e-06 0.000537739
0.00181462 0.00042327 -7.601e-06
0.00042327 0.000859503 -2.48984e-06
-7.601e-06 -2.48984e-06 0.000523839
0.00166911 0.000499765 1.1823e-06
0.000499765 0.000585927 4.5081e-08
1.1823e-06 4.5081e-08 0.000227069
0.00119176 0.00050249 8.71462e-06
0.00050249 0.000138881 1.42417e-05
8.71462e-06 1.42417e-05 -0.000210715
-0.000645823 0.000310801 1.46914e-05
0.000310801 -0.000826727 1.13978e-06
1.46914e-05 1.13978e-06 -0.00112053
-0.000236145 0.00023677 -8.35589e-06
0.00023677 -0.000223385 9.34848e-06
-8.35589e-06 9.34848e-06 -0.000626817
0.000107309 0.000443957 8.52252e-06
0.000443957 -0.000401896 -4.88307e-07
8.52252e-06 -4.88307e-07 -0.000716051
0.00219637 0.000662231 2.42205e-06
0.000662231 0.000829773 5.32858e-06
2.42205e-06 5.32858e-06 0.000602078
-0.000256015 0.000455812 6.54914e-06
0.000455812 -0.000732138 1.599e-06
6.54914e-06 1.599e-06 -0.000954778
0.00286217 0.000835323 2.295e-06
0.000835323 0.000778381 1.04867e-05
2.295e-06 1.04867e-05 0.00063851
0.00139408 0.000764895 1.58737e-05
0.000764895 2.39119e-05 7.16796e-06
1.58737e-05 7.16796e-06 -0.000220501
0.000767374 0.000674092 3.33566e-06
0.000674092 -0.000346033 -6.83154e-07
3.33566e-06 -6.83154e-07 -0.000449317
0.000614255 0.000439469 2.98417e-06
0.000439469 5.51056e-05 -3.08096e-05
2.98417e-06 -3.08096e-05 -0.000144511
0.00547848 0.00136099 1.4303e-05
0.00136099 -0.000736894 1.48796e-05
1.4303e-05 1.48796e-05 0.000297915
0.0129925 0.00210505 0.000225983
0.00210505 0.00150194 0.00011535
0.000225983 0.00011535 -0.000138937
0.010156 -0.00319281 0.000359595
-0.00319281 0.00483352 -4.57743e-05
0.000359595 -4.57743e-05 0.00253498
0.00495217 0.00351868 0.000444512
0.00351868 -0.0007584 0.00026152
0.000444512 0.00026152 -0.0048545
0.000235598 0.000995429 -4.97212e-05
0.000995429 9.67575e-05 -5.10654e-06
-4.97212e-05 -5.10654e-06 0.000593906
0.00365105 0.00208061 -0.000111162
0.00208061 -0.000423846 -4.70279e-05
-0.000111162 -4.70279e-05 -8.06032e-05
0.00558453 0.00178703 7.36586e-05
0.00178703 0.00113042 2.45936e-05
7.36586e-05 2.45936e-05 0.000908799
0.00383655 0.00128775 1.62581e-05
0.00128775 0.00112003 6.27705e-06
1.62581e-05 6.27705e-06 0.000851903
-0.000137244 0.000582557 -2.28138e-05
0.000582557 -0.000464219 1.00589e-05
-2.28138e-05 1.00589e-05 -0.000701443
0.00580165 0.00196788 -0.000166194
0.00196788 0.00131522 -2.03485e-05
-0.000166194 -2.03485e-05 0.000907524
0.00292651 -0.000397989 1.25652e-05
-0.000397989 8.19919e-06 4.14238e-06
1.25652e-05 4.14238e-06 0.000255256
0.0109591 -0.000477285 -3.11664e-05
-0.000477285 0.00177426 7.35807e-07
-3.11664e-05 7.35807e-07 0.00142119
-0.0118559 -0.0019757 0.000593048
-0.0019757 -0.00566608 5.94266e-06
0.000593048 5.94266e-06 -0.00591885
-0.000172479 -0.000895371 -8.65853e-05
-0.000895371 -0.000952191 1.95423e-05
-8.65853e-05 1.95423e-05 -0.00116127
0.00871528 -0.00205582 4.52185e-05
-0.00205582 0.000495804 8.82437e-05
4.52185e-05 8.82437e-05 0.00118488
0.00102192 -0.000285464 -0.000221923
-0.000285464 -0.0038452 3.70215e-05
-0.000221923 3.70215e-05 -0.00581004
0.00210751 -0.000784251 2.14157e-05
-0.000784251 -0.000256509 1.63743e-06
2.14157e-05 1.63743e-06 -0.000247761
0.00453559 -0.000517429 -3.5513e-05
-0.000517429 -0.000311086 -5.78779e-06
-3.5513e-05 -5.78779e-06 0.000193398
0.00522971 -0.000715431 3.3039e-05
-0.000715431 0.00117092 -2.60679e-05
3.3039e-05 -2.60679e-05 0.00142438
0.00493028 -0.000319286 8.79598e-05
-0.000319286 0.00125203 5.27662e-06
8.79598e-05 5.27662e-06 0.00126041
-0.00281415 -0.0003284 2.31114e-07
-0.0003284 -0.00262858 7.4664e-06
2.31114e-07 7.4664e-06 -0.00244367
0.00198571 -0.000566751 -3.84079e-06
-0.000566751 -0.000178618 6.42046e-07
-3.84079e-06 6.42046e-07 -5.73112e-05
0.0021321 -0.000423569 2.03028e-05
-0.000423569 -0.000239463 -5.17736e-06
2.03028e-05 -5.17736e-06 -1.21992e-05
0.00176335 -0.000651846 -8.82558e-07
-0.000651846 -0.000137755 6.57738e-06
-8.82558e-07 6.57738e-06 -0.00032204
0.00222248 -0.000542892 1.52523e-06
-0.000542892 -1.64866e-05 1.21307e-06
1.52523e-06 1.21307e-06 -6.15225e-05
0.00222482 -0.000468861 1.30661e-06
-0.000468861 2.32767e-05 -4.53981e-07
1.30661e-06 -4.53981e-07 1.96477e-05
0.00203606 -0.000494529 1.2181e-06
-0.000494529 4.32373e-05 3.71318e-06
1.2181e-06 3.71318e-06 -8.44835e-05
0.0020915 -0.000469491 3.95241e-07
-0.000469491 7.56171e-05 4.1122e-07
3.95241e-07 4.1122e-07 -7.21785e-06
0.00208387 -0.000420404 -3.04544e-06
-0.000420404 6.343e-05 4.46268e-07
-3.04544e-06 4.46268e-07 -9.33364e-06
0.00198723 -0.000433535 3.8286e-06
-0.000433535 9.2965e-05 1.97837e-06
3.8286e-06 1.97837e-06 -4.20448e-05
0.00200904 -0.00044804 -1.32358e-07
-0.00044804 0.000130192 1.76434e-07
-1.32358e-07 1.76434e-07 1.3651e-06
0.00194002 -0.00040924 -1.36574e-07
-0.00040924 0.000122205 4.47646e-07
-1.36574e-07 4.47646e-07 -8.80143e-06
0.00191895 -0.000409226 6.33521e-07
-0.000409226 0.000129647 2.92429e-06
6.33521e-07 2.92429e-06 -1.01012e-05
0.00202315 -0.000403983 -2.05028e-06
-0.000403983 0.000227314 3.2536e-07
-2.05028e-06 3.2536e-07 8.17715e-05
0.00203755 -0.000407938 -8.00792e-07
-0.000407938 0.000245111 -1.48549e-06
-8.00792e-07 -1.48549e-06 7.77139e-05
0.00195791 -0.000413053 4.84377e-06
-0.000413053 0.000195128 3.17216e-06
4.84377e-06 3.17216e-06 1.74939e-05
0.00191114 -0.000431627 1.94312e-08
-0.000431627 0.000176086 -3.4656e-07
1.94312e-08 -3.4656e-07 -2.41716e-05
0.00193812 -0.000418871 -1.48377e-06
-0.000418871 0.000252375 -2.32062e-06
-1.48377e-06 -2.32062e-06 3.53594e-05
0.00153304 -0.00039049 -8.64907e-06
-0.00039049 0.000163078 7.28105e-07
-8.64907e-06 7.28105e-07 -8.95091e-05
0.0018566 -0.000471515 -8.46961e-07
-0.000471515 0.000246627 -8.11375e-07
-8.46961e-07 -8.11375e-07 -1.61687e-05
0.0020147 -0.000510753 4.90326e-06
-0.000510753 0.000273175 1.83528e-06
4.90326e-06 1.83528e-06 1.50786e-05
0.00084213 -0.000229574 -1.24442e-05
-0.000229574 -1.49756e-05 7.80577e-06
-1.24442e-05 7.80577e-06 -0.000214683
0.00140268 -0.000404939 -1.75265e-07
-0.000404939 0.000188195 5.08856e-07
-1.75265e-07 5.08856e-07 -8.97579e-05
0.00160182 -0.000511885 2.95498e-06
-0.000511885 0.000209139 7.78375e-07
2.95498e-06 7.78375e-07 -0.000102729
0.000435742 -0.000176129 -2.12015e-05
-0.000176129 -0.000119278 1.76639e-05
-2.12015e-05 1.76639e-05 -0.000229785
0.000793387 -0.000219997 3.29097e-07
-0.000219997 2.37546e-05 3.29022e-08
3.29097e-07 3.29022e-08 -0.0001771
0.000946924 -0.000343311 9.02249e-06
-0.000343311 1.40031e-05 -2.66234e-06
9.02249e-06 -2.66234e-06 -0.000254337
0.00567597 0.000139138 -0.000184463
0.000139138 0.00321453 1.05473e-05
-0.000184463 1.05473e-05 0.00320529
0.000473721 -0.000170827 -2.13009e-07
-0.000170827 -7.65833e-05 8.87915e-08
-2.13009e-07 8.87915e-08 -0.000180199
0.000625479 -0.000219291 8.67075e-06
-0.000219291 -7.13975e-06 -5.8065e-06
8.67075e-06 -5.8065e-06 -0.000214143
0.00497752 0.000135764 5.50929e-06
0.000135764 0.00279351 -4.44111e-07
5.50929e-06 -4.44111e-07 0.00278477
0.000444403 -0.000119665 1.77329e-05
-0.000119665 -6.59125e-05 -1.57079e-05
1.77329e-05 -1.57079e-05 -0.00015713
0.00429231 0.000111338 0.000150884
0.000111338 0.00236539 -1.09729e-05
0.000150884 -1.09729e-05 0.00236416
0.00100577 0.000417347 -4.19995e-06
0.000417347 5.68269e-05 -4.8011e-08
-4.19995e-06 -4.8011e-08 -0.000253809
0.0017013 0.000424197 -7.84586e-07
0.000424197 0.000589804 -1.45988e-06
-7.84586e-07 -1.45988e-06 0.000294281
0.000564404 0.000232293 -1.48945e-06
0.000232293 -9.75251e-05 -1.74369e-06
-1.48945e-06 -1.74369e-06 -0.000326598
0.000691082 0.000230905 -5.48529e-06
0.000230905 6.18375e-05 -2.6692e-06
-5.48529e-06 -2.6692e-06 -0.000136845
-0.000111012 0.000118006 9.18607e-07
0.000118006 -0.000385992 -8.14345e-07
9.18607e-07 -8.14345e-07 -0.000578515
0.0011988 0.000226556 -2.86609e-06
0.000226556 0.000441683 -5.27906e-06
-2.86609e-06 -5.27906e-06 0.00024163
-3.84725e-05 4.2032e-05 -1.84904e-06
4.2032e-05 -0.000314156 1.74801e-06
-1.84904e-06 1.74801e-06 -0.00048586
0.000724663 9.22099e-05 3.3448e-07
9.22099e-05 0.000138327 -2.9482e-07
3.3448e-07 -2.9482e-07 -9.76416e-06
0.000677967 3.72293e-05 -9.31372e-06
3.72293e-05 9.16928e-05 -1.47537e-05
-9.31372e-06 -1.47537e-05 3.0443e-05
0.000597048 3.73334e-05 -2.02808e-06
3.73334e-05 7.16442e-05 9.012e-06
-2.02808e-06 9.012e-06 -5.1675e-05
0.000529413 2.03967e-05 2.21824e-07
2.03967e-05 6.17875e-06 -1.59365e-07
2.21824e-07 -1.59365e-07 -4.37479e-05
0.0035113 -0.000126918 -9.61582e-05
-0.000126918 0.00187698 -5.89717e-06
-9.61582e-05 -5.89717e-06 0.00187505
0.00304822 -0.000122306 -8.09188e-06
-0.000122306 0.00158016 7.4684e-07
-8.09188e-06 7.4684e-07 0.00157961
0.000364184 2.27755e-05 4.27502e-06
2.27755e-05 -9.43043e-05 1.03049e-05
4.27502e-06 1.03049e-05 -0.000134262
0.00273545 -0.000103077 4.31507e-05
-0.000103077 0.00137646 4.40503e-06
4.31507e-05 4.40503e-06 0.00138031
0.00402472 0.000130732 8.2189e-05
0.000130732 -0.000953077 2.33022e-05
8.2189e-05 2.33022e-05 0.000181197
0.00430901 -0.000864088 0.000134268
-0.000864088 -0.00371489 6.49023e-05
0.000134268 6.49023e-05 -0.00481261
0.0109769 -0.00233378 -0.000177207
-0.00233378 0.00412422 -8.07535e-05
-0.000177207 -8.07535e-05 0.00361758
0.00125442 0.000515451 9.29535e-06
0.000515451 -2.76616e-06 7.5448e-06
9.29535e-06 7.5448e-06 -0.000310366
0.00369752 0.000626381 -6.33156e-06
0.000626381 0.00196113 6.70921e-06
-6.33156e-06 6.70921e-06 0.0015866
0.00123277 0.000449919 -8.26744e-07
0.000449919 0.00033674 -2.66671e-06
-8.26744e-07 -2.66671e-06 -6.55581e-06
0.00123461 0.00052415 3.01816e-06
0.00052415 0.000297546 1.01888e-06
3.01816e-06 1.01888e-06 -4.07952e-05
0.00141988 0.00052666 -2.09502e-06
0.00052666 0.000290839 3.12548e-06
-2.09502e-06 3.12548e-06 -6.97915e-05
0.00147732 0.000617942 1.75317e-05
0.000617942 0.000264142 1.52601e-05
1.75317e-05 1.52601e-05 -5.33501e-05
0.00194378 0.000638053 -2.69978e-05
0.000638053 0.000676512 -2.74873e-06
-2.69978e-05 -2.74873e-06 0.000302258
0.000823223 0.000536789 1.67888e-05
0.000536789 7.68318e-05 -2.06886e-05
1.67888e-05 -2.06886e-05 -0.000156798
0.0013017 0.000636391 2.76882e-06
0.000636391 0.000143152 -2.60993e-06
2.76882e-06 -2.60993e-06 -0.000111041
0.00164715 0.000719248 5.42945e-06
0.000719248 4.91609e-05 1.82213e-06
5.42945e-06 1.82213e-06 2.97564e-06
0.00176738 0.000752648 1.36357e-05
0.000752648 0.000116456 7.535e-07
1.36357e-05 7.535e-07 -0.000138401
0.00160448 0.000678411 2.34069e-05
0.000678411 9.31582e-05 1.5732e-05
2.34069e-05 1.5732e-05 -8.27007e-05
0.000951428 0.000722462 -4.6868e-06
0.000722462 -0.000216738 -5.03195e-06
-4.6868e-06 -5.03195e-06 -0.000446746
0.000783196 0.000666496 -9.99628e-06
0.000666496 -0.000330572 -1.76984e-05
-9.99628e-06 -1.76984e-05 -0.000415373
0.00123339 0.00065618 4.51348e-05
0.00065618 -0.000879881 3.65247e-05
4.51348e-05 3.65247e-05 -0.000662516
0.00592637 0.00141811 -8.45123e-05
0.00141811 -0.000865215 -2.47689e-05
-8.45123e-05 -2.47689e-05 0.00021039
0.00375733 0.00135683 0.000463898
0.00135683 -0.00356099 7.33461e-05
0.000463898 7.33461e-05 -0.00543063
0.000893433 0.00156765 -0.000114816
0.00156765 -0.00127324 -4.25955e-05
-0.000114816 -4.25955e-05 -0.000842081
0.00412329 0.00145061 -3.18158e-05
0.00145061 0.000746763 -8.52658e-06
-3.18158e-05 -8.52658e-06 0.000581887
0.00414513 0.00132676 -0.000123841
0.00132676 0.00121614 -3.38762e-05
-0.000123841 -3.38762e-05 0.000937938
0.00275026 -0.000270161 -5.27034e-05
-0.000270161 -0.000271637 -2.20815e-05
-5.27034e-05 -2.20815e-05 -1.48754e-05
0.000102568 -0.00022009 5.90183e-05
-0.00022009 -0.00056591 1.32222e-05
5.90183e-05 1.32222e-05 -8.75828e-05
0.00214964 0.000851085 0.000164782
0.000851085 -0.00457087 -5.80982e-06
0.000164782 -5.80982e-06 -0.00477101
-0.000471799 -0.000565649 -3.48968e-05
-0.000565649 -0.00161277 5.65292e-05
-3.48968e-05 5.65292e-05 -0.00140286
0.00607222 -0.000555114 -0.00012697
-0.000555114 0.000591324 3.80747e-05
-0.00012697 3.80747e-05 0.000669048
0.00247829 -0.000525957 -2.10569e-05
-0.000525957 -0.00028384 1.08985e-05
-2.10569e-05 1.08985e-05 2.43356e-05
0.00407733 -0.000345062 -3.49938e-06
-0.000345062 0.000684775 -3.1263e-06
-3.49938e-06 -3.1263e-06 0.00072615
0.00241291 -0.00031003 4.97444e-05
-0.00031003 -0.000176017 -7.16264e-06
4.97444e-05 -7.16264e-06 0.000130441
0.00355389 -9.26685e-05 3.64143e-05
-9.26685e-05 0.00107129 -1.25447e-06
3.64143e-05 -1.25447e-06 0.00104823
0.000829249 -0.000480077 -2.54634e-05
-0.000480077 -0.000816396 1.0377e-05
-2.54634e-05 1.0377e-05 -0.00063406
0.00202666 -0.000437679 -1.24259e-06
-0.000437679 -0.00032707 1.93723e-06
-1.24259e-06 1.93723e-06 -0.000105542
0.00229825 -0.000387581 3.80581e-06
-0.000387581 -0.000144343 -1.83401e-06
3.80581e-06 -1.83401e-06 3.51345e-05
0.00215307 -0.000535096 -2.03237e-06
-0.000535096 -4.46365e-05 3.30505e-06
-2.03237e-06 3.30505e-06 -8.95663e-05
0.00221818 -0.000463607 1.80721e-07
-0.000463607 2.9962e-05 -1.97116e-07
1.80721e-07 -1.97116e-07 2.76534e-05
0.00216751 -0.000374716 -1.12939e-06
-0.000374716 1.3133e-05 -5.39725e-07
-1.12939e-06 -5.39725e-07 6.01044e-06
0.00202233 -0.000458182 4.65579e-07
-0.000458182 4.75891e-05 6.52668e-07
4.65579e-07 6.52668e-07 -3.36966e-05
0.00207625 -0.00042687 -8.27589e-07
-0.00042687 6.74309e-05 1.65347e-07
-8.27589e-07 1.65347e-07 -7.13916e-06
0.00198635 -0.000367472 -2.03761e-06
-0.000367472 8.20315e-05 9.18808e-07
-2.03761e-06 9.18808e-07 -1.47963e-05
0.0019219 -0.000439672 1.2101e-06
-0.000439672 9.55971e-05 -8.14239e-07
1.2101e-06 -8.14239e-07 -3.20174e-05
0.00190329 -0.000407601 1.12682e-06
-0.000407601 9.60183e-05 -5.24723e-07
1.12682e-06 -5.24723e-07 -3.56533e-05
0.00191163 -0.00038125 3.30664e-07
-0.00038125 0.000123987 -1.34831e-06
3.30664e-07 -1.34831e-06 -1.77369e-05
0.00193598 -0.00039419 -2.00211e-06
-0.00039419 0.000169264 2.6524e-06
-2.00211e-06 2.6524e-06 2.76357e-05
0.00207583 -0.000407737 -1.89614e-06
-0.000407737 0.000262912 6.45656e-07
-1.89614e-06 6.45656e-07 9.9441e-05
0.0020223 -0.000394581 -1.09773e-06
-0.000394581 0.000268979 -1.78787e-06
-1.09773e-06 -1.78787e-06 7.94563e-05
0.00196868 -0.000437295 3.10418e-06
-0.000437295 0.000211891 2.42815e-06
3.10418e-06 2.42815e-06 9.9367e-06
0.00194896 -0.000421732 6.13141e-07
-0.000421732 0.000259427 -5.38803e-07
6.13141e-07 -5.38803e-07 4.20826e-05
0.00164923 -0.00035239 -6.61898e-06
-0.00035239 0.000187449 9.13471e-07
-6.61898e-06 9.13471e-07 -3.71247e-05
0.00091849 -0.000231941 -1.35942e-05
-0.000231941 -2.94882e-05 7.2178e-06
-1.35942e-05 7.2178e-06 -0.000224753
0.00151069 -0.000386257 -1.10342e-06
-0.000386257 0.000157147 -1.77999e-07
-1.10342e-06 -1.77999e-07 -9.6123e-05
0.00180154 -0.000471686 2.89223e-06
-0.000471686 0.000212777 6.36227e-07
2.89223e-06 6.36227e-07 -5.41066e-05
0.000428757 -0.000215061 -2.21334e-05
-0.000215061 -0.000126367 1.82603e-05
-2.21334e-05 1.82603e-05 -0.000252962
0.000851716 -0.000234097 7.50932e-07
-0.000234097 -1.42275e-05 1.14622e-07
7.50932e-07 1.14622e-07 -0.000215862
0.00142492 -0.000404364 8.38085e-06
-0.000404364 0.000204172 -1.47506e-06
8.38085e-06 -1.47506e-06 -7.24629e-05
0.00631156 9.52816e-05 -0.000229446
9.52816e-05 0.00358526 1.42201e-05
-0.000229446 1.42201e-05 0.00358339
0.000472707 -0.000218468 -1.10587e-06
-0.000218468 -9.0592e-05 4.09496e-07
-1.10587e-06 4.09496e-07 -0.000209906
0.000769137 -0.000224374 1.1169e-05
-0.000224374 8.50726e-06 -7.18952e-06
1.1169e-05 -7.18952e-06 -0.000195361
0.00592959 0.000122308 -5.46976e-06
0.000122308 0.00337367 -6.4284e-07
-5.46976e-06 -6.4284e-07 0.0033638
0.000528306 -0.000193687 2.31119e-05
-0.000193687 -4.10565e-05 -1.75359e-05
2.31119e-05 -1.75359e-05 -0.000149506
0.0053792 0.00012391 0.000192261
0.00012391 0.00304758 -1.84765e-05
0.000192261 -1.84765e-05 0.0030366
0.00143106 0.000475445 -1.30521e-06
0.000475445 0.000173688 3.88684e-06
-1.30521e-06 3.88684e-06 -0.000134849
0.00151829 0.000475087 -3.70581e-06
0.000475087 0.000365232 -8.46128e-07
-3.70581e-06 -8.46128e-07 4.05505e-05
0.00104219 0.000331927 -6.21095e-06
0.000331927 8.57946e-05 -5.57523e-07
-6.21095e-06 -5.57523e-07 -0.000173011
0.00252588 0.000506747 5.44885e-07
0.000506747 0.00109746 3.36568e-06
5.44885e-07 3.36568e-06 0.000788414
0.000894032 0.000265846 -2.63419e-06
0.000265846 0.000113703 -1.50472e-06
-2.63419e-06 -1.50472e-06 -0.000122867
0.00117688 0.000225127 -7.37855e-06
0.000225127 0.000378517 -2.38926e-06
-7.37855e-06 -2.38926e-06 0.000167832
-0.000227108 0.000104572 -3.17467e-06
0.000104572 -0.000471238 -1.6951e-06
-3.17467e-06 -1.6951e-06 -0.000663766
0.000754566 0.000126098 -1.06237e-06
0.000126098 0.000156376 -4.60459e-07
-1.06237e-06 -4.60459e-07 -2.8925e-05
0.000627015 7.16363e-05 -1.55346e-05
7.16363e-05 4.75593e-05 -1.60448e-05
-1.55346e-05 -1.60448e-05 -2.86455e-05
0.000384824 6.27034e-05 1.66817e-07
6.27034e-05 -7.70907e-05 8.36462e-06
1.66817e-07 8.36462e-06 -0.000213878
0.000433128 3.1645e-05 -3.24128e-07
3.1645e-05 -5.53657e-05 -4.85661e-07
-3.24128e-07 -4.85661e-07 -0.000114553
0.00396827 -0.000139762 -0.000119113
-0.000139762 0.00217121 -7.8812e-06
-0.000119113 -7.8812e-06 0.00216427
0.000305301 2.53302e-05 5.39238e-06
2.53302e-05 -0.000128548 1.27034e-05
5.39238e-06 1.27034e-05 -0.000177544
0.00339527 -0.000139208 -7.90282e-06
-0.000139208 0.00180661 7.81454e-07
-7.90282e-06 7.81454e-07 0.00180126
0.0029829 -0.000125113 5.21422e-05
-0.000125113 0.00153991 4.38409e-06
5.21422e-05 4.38409e-06 0.00153829
0.000465135 0.000109109 5.70565e-06
0.000109109 -0.00156346 1.43976e-05
5.70565e-06 1.43976e-05 -0.00107681
0.0052286 1.41599e-05 6.36873e-05
1.41599e-05 -0.000218474 1.30561e-05
6.36873e-05 1.30561e-05 0.000751759
0.0129548 0.000784148 -4.88838e-05
0.000784148 0.00256836 2.57748e-06
-4.88838e-05 2.57748e-06 0.00202272
0.0018874 0.000646755 2.00699e-06
0.000646755 0.000343329 4.70822e-06
2.00699e-06 4.70822e-06 3.71953e-05
0.0020374 0.000630043 -4.19896e-07
0.000630043 0.000290117 2.81378e-06
-4.19896e-07 2.81378e-06 6.57104e-06
0.00138605 0.000532905 -5.09695e-08
0.000532905 8.95053e-05 -3.209e-06
-5.09695e-08 -3.209e-06 -0.000218176
0.00264903 0.000687596 -4.26697e-06
0.000687596 0.00113572 6.06159e-06
-4.26697e-06 6.06159e-06 0.000766012
0.00176492 0.000560962 -4.6527e-06
0.000560962 0.000518625 -7.4437e-06
-4.6527e-06 -7.4437e-06 0.000144245
0.00181377 0.00066151 6.42757e-06
0.00066151 0.000429541 3.2375e-06
6.42757e-06 3.2375e-06 0.000113762
0.00171711 0.000693839 -1.61281e-06
0.000693839 4.58695e-05 -2.5104e-06
-1.61281e-06 -2.5104e-06 -0.000218607
0.00245226 0.000771766 -1.55957e-05
0.000771766 0.00076056 2.14074e-06
-1.55957e-05 2.14074e-06 0.000477496
0.00123678 0.000672022 -8.23965e-07
0.000672022 -0.000218414 9.9509e-06
-8.23965e-07 9.9509e-06 -0.000204652
0.00262455 0.000839766 -1.57615e-06
0.000839766 0.000600192 1.55909e-06
-1.57615e-06 1.55909e-06 0.000326923
0.00261098 0.000733784 -4.91816e-06
0.000733784 0.000421357 3.07684e-06
-4.91816e-06 3.07684e-06 0.000205844
0.00105574 0.000362236 2.85598e-05
0.000362236 -0.00037478 1.79907e-05
2.85598e-05 1.79907e-05 -0.000367108
0.000772591 0.000601334 1.0314e-05
0.000601334 -0.000328865 -2.38094e-06
1.0314e-05 -2.38094e-06 -0.000497796
0.00116931 0.000741827 -3.09104e-05
0.000741827 -0.000106734 -7.07728e-06
-3.09104e-05 -7.07728e-06 -0.000341034
0.00281177 0.000761381 2.55976e-06
0.000761381 -4.99639e-05 8.50574e-06
2.55976e-06 8.50574e-06 7.44314e-05
0.0060538 0.000998771 -1.15662e-05
0.000998771 -0.000729591 -3.29403e-05
-1.15662e-05 -3.29403e-05 -4.12513e-05
0.00375477 0.00120773 -2.87674e-05
0.00120773 0.000907784 -4.4101e-05
-2.87674e-05 -4.4101e-05 0.000805835
0.00128803 -5.97658e-05 2.72905e-05
-5.97658e-05 -0.000370825 1.91027e-06
2.72905e-05 1.91027e-06 -0.000277837
0.00231481 -0.000206458 -4.62704e-05
-0.000206458 -0.000401739 2.82254e-06
-4.62704e-05 2.82254e-06 -0.000221766
0.00239794 0.000285375 1.73957e-05
0.000285375 -0.000611003 -4.22571e-06
1.73957e-05 -4.22571e-06 -0.000327844
0.000441407 -0.000403999 -4.99982e-05
-0.000403999 -0.00133615 4.21068e-05
-4.99982e-05 4.21068e-05 -0.00101879
0.00300983 -0.000408426 -9.60353e-05
-0.000408426 3.12365e-05 -5.57671e-06
-9.60353e-05 -5.57671e-06 8.22285e-05
0.00241929 -0.000321798 7.52497e-06
-0.000321798 -8.32897e-05 -3.93683e-06
7.52497e-06 -3.93683e-06 0.000202274
0.00248902 -9.04942e-05 -1.20539e-05
-9.04942e-05 0.000382175 4.31879e-07
-1.20539e-05 4.31879e-07 0.000373168
0.00228994 -0.000225093 9.90287e-06
-0.000225093 -2.83675e-05 -3.1534e-07
9.90287e-06 -3.1534e-07 5.8638e-05
0.00225215 -6.33654e-06 7.94668e-06
-6.33654e-06 -7.38908e-06 1.30674e-06
7.94668e-06 1.30674e-06 1.65979e-05
0.00191484 -0.000457419 -1.39358e-05
-0.000457419 -0.000432263 4.68478e-06
-1.39358e-05 4.68478e-06 -0.000213148
0.00230641 -0.000396856 -2.46697e-06
-0.000396856 -0.000127839 5.84004e-07
-2.46697e-06 5.84004e-07 1.87042e-05
0.00224048 -0.000280149 4.72189e-07
-0.000280149 -5.21714e-05 -1.24458e-06
4.72189e-07 -1.24458e-06 4.77918e-06
0.00220515 -0.000459488 -3.12634e-06
-0.000459488 3.06595e-05 9.18064e-07
-3.12634e-06 9.18064e-07 2.84873e-05
0.00216385 -0.000371776 -1.50889e-07
-0.000371776 2.29004e-05 6.70277e-09
-1.50889e-07 6.70277e-09 1.13225e-05
0.00207881 -0.000314237 -1.3781e-06
-0.000314237 3.41842e-05 3.50299e-07
-1.3781e-06 3.50299e-07 -6.77269e-06
0.00207077 -0.000433711 3.34992e-07
-0.000433711 7.2435e-05 -9.28515e-07
3.34992e-07 -9.28515e-07 -4.21641e-06
0.00198639 -0.000365952 5.57358e-07
-0.000365952 7.84737e-05 -2.25633e-07
5.57358e-07 -2.25633e-07 -1.84086e-05
0.00197679 -0.000337735 -1.16624e-06
-0.000337735 0.000115246 2.66383e-07
-1.16624e-06 2.66383e-07 -3.58435e-07
0.00186817 -0.000405991 2.07441e-06
-0.000405991 7.10987e-05 -1.32601e-06
2.07441e-06 -1.32601e-06 -6.12246e-05
0.00193401 -0.000382722 3.25229e-07
-0.000382722 0.000135414 -5.69464e-07
3.25229e-07 -5.69464e-07 -6.85629e-06
0.00191766 -0.000358154 -5.62632e-07
-0.000358154 0.000164823 -1.57302e-06
-5.62632e-07 -1.57302e-06 -3.79376e-07
0.00211053 -0.000407336 -1.2403e-06
-0.000407336 0.00027827 3.38208e-06
-1.2403e-06 3.38208e-06 0.00011875
0.00200437 -0.000394053 -5.84639e-07
-0.000394053 0.000258964 -1.02158e-07
-5.84639e-07 -1.02158e-07 7.05866e-05
0.0016252 -0.00032225 -5.25602e-06
-0.00032225 0.000135653 6.87802e-07
-5.25602e-06 6.87802e-07 -6.95652e-05
0.00196343 -0.000424785 3.34277e-06
-0.000424785 0.000268737 1.45752e-06
3.34277e-06 1.45752e-06 5.10379e-05
0.00167913 -0.000356082 -5.21219e-07
-0.000356082 0.000205852 2.7511e-08
-5.21219e-07 2.7511e-08 -1.81762e-05
0.000972588 -0.000217052 -1.44132e-05
-0.000217052 -3.13166e-05 6.80873e-06
-1.44132e-05 6.80873e-06 -0.000217348
0.000368289 -0.000190794 -1.98617e-05
-0.000190794 -0.000180165 1.69514e-05
-1.98617e-05 1.69514e-05 -0.000303175
0.000960066 -0.00023617 2.11667e-07
-0.00023617 -7.99537e-06 6.82735e-08
2.11667e-07 6.82735e-08 -0.000204208
0.00149139 -0.000382305 5.68794e-06
-0.000382305 0.000152939 -1.28465e-06
5.68794e-06 -1.28465e-06 -0.000101075
0.00655677 1.68893e-05 -0.000258794
1.68893e-05 0.00371343 1.70956e-05
-0.000258794 1.70956e-05 0.00372132
0.000434035 -0.000209983 -1.37967e-06
-0.000209983 -0.000130918 1.04834e-06
-1.37967e-06 1.04834e-06 -0.000253001
0.000890296 -0.000239508 1.23875e-05
-0.000239508 5.33242e-06 -6.8193e-06
1.23875e-05 -6.8193e-06 -0.000198307
0.00642096 6.93522e-05 -1.33243e-06
6.93522e-05 0.00365097 2.66147e-07
-1.33243e-06 2.66147e-07 0.00365002
0.000500751 -0.000222903 2.47084e-05
-0.000222903 -7.84656e-05 -1.82882e-05
2.47084e-05 -1.82882e-05 -0.00019772
0.00616679 9.38309e-05 0.000227687
9.38309e-05 0.0035118 -1.93773e-05
0.000227687 -1.93773e-05 0.00350565
0.00166975 0.000536735 -1.08537e-06
0.000536735 0.000178719 4.44873e-06
-1.08537e-06 4.44873e-06 -0.000110926
0.00147681 0.000487453 3.97242e-07
0.000487453 0.000200973 6.28718e-07
3.97242e-07 6.28718e-07 -0.000108913
0.00130256 0.000380784 -6.69231e-06
0.000380784 0.00017407 9.31462e-08
-6.69231e-06 9.31462e-08 -9.34787e-05
0.00171073 0.000498994 8.36581e-07
0.000498994 0.000476824 8.76516e-07
8.36581e-07 8.76516e-07 0.000145527
0.0011725 0.000336827 -1.36522e-06
0.000336827 0.000175481 1.13331e-07
-1.36522e-06 1.13331e-07 -8.19422e-05
0.000935403 0.000222658 -1.05933e-05
0.000222658 0.000151849 -4.10897e-06
-1.05933e-05 -4.10897e-06 -4.61356e-05
0.00133745 0.000309977 -2.02973e-06
0.000309977 0.000395031 -6.72679e-07
-2.02973e-06 -6.72679e-07 0.00014889
0.000655405 0.000195652 4.38043e-07
0.000195652 6.27614e-05 1.3437e-06
4.38043e-07 1.3437e-06 -0.000148062
0.000531365 0.000151009 -2.43145e-05
0.000151009 -2.73184e-05 -1.69613e-05
-2.43145e-05 -1.69613e-05 -0.000120258
0.000196025 7.72539e-05 3.08118e-07
7.72539e-05 -0.000181355 4.11352e-06
3.08118e-07 4.11352e-06 -0.000365882
0.000524884 6.22167e-05 -9.99411e-07
6.22167e-05 -9.8615e-06 -3.90835e-07
-9.99411e-07 -3.90835e-07 -8.32218e-05
0.00479582 -0.000155273 -0.000153787
-0.000155273 0.00269581 -1.14485e-05
-0.000153787 -1.14485e-05 0.00268196
0.00041382 2.74574e-05 7.67254e-06
2.74574e-05 -6.30596e-05 1.47112e-05
7.67254e-06 1.47112e-05 -0.000122518
0.00388871 -0.000162053 -7.36295e-06
-0.000162053 0.00212717 7.81919e-07
-7.36295e-06 7.81919e-07 0.00211466
0.00331655 -0.000147847 6.72968e-05
-0.000147847 0.00175919 4.73068e-06
6.72968e-05 4.73068e-06 0.00175113
0.000994988 0.000116739 2.39278e-05
0.000116739 -0.0005207 1.85186e-05
2.39278e-05 1.85186e-05 -0.000351678
0.0025635 0.000129962 -1.0637e-05
0.000129962 -0.000701341 -3.68396e-06
-1.0637e-05 -3.68396e-06 -0.000173966
0.00387802 0.000197983 0.000188473
0.000197983 -0.00146114 5.43872e-05
0.000188473 5.43872e-05 8.55662e-06
0.00256837 0.000694288 -8.394e-06
0.000694288 0.000549587 -5.23796e-07
-8.394e-06 -5.23796e-07 0.000276415
0.00170893 0.00064813 -6.62455e-06
0.00064813 0.000221584 -4.3612e-06
-6.62455e-06 -4.3612e-06 -7.99583e-05
0.00208394 0.000520962 -2.41144e-07
0.000520962 0.00017341 4.13504e-06
-2.41144e-07 4.13504e-06 -4.18716e-05
0.00202258 0.000619538 1.11275e-06
0.000619538 0.000281336 3.41056e-07
1.11275e-06 3.41056e-07 6.38411e-07
0.00151977 0.00055005 -5.39782e-07
0.00055005 0.000181055 -1.01521e-05
-5.39782e-07 -1.01521e-05 -0.000126749
0.00190626 0.00054331 -3.19637e-06
0.00054331 6.2627e-06 8.51671e-07
-3.19637e-06 8.51671e-07 -0.000189288
0.00243096 0.000735501 -7.09143e-06
0.000735501 0.000758989 -3.78057e-06
-7.09143e-06 -3.78057e-06 0.0004395
0.00220551 0.000725907 -3.68212e-07
0.000725907 0.000342179 -5.871e-07
-3.68212e-07 -5.871e-07 6.8606e-05
0.00199148 0.000393567 -1.02985e-05
0.000393567 -0.000103146 2.68274e-07
-1.02985e-05 2.68274e-07 -0.000146931
0.00310363 0.000897492 -3.74622e-06
0.000897492 0.000859388 4.70356e-06
-3.74622e-06 4.70356e-06 0.000583723
0.00236698 0.000714356 -4.17883e-07
0.000714356 0.000284348 -5.15223e-07
-4.17883e-07 -5.15223e-07 6.83753e-05
0.00067095 0.000352944 2.93951e-06
0.000352944 -0.000554554 2.5747e-06
2.93951e-06 2.5747e-06 -0.000550633
-0.000733557 0.000475084 -2.22314e-05
0.000475084 -0.00111131 -8.01094e-06
-2.22314e-05 -8.01094e-06 -0.00125966
0.00353857 0.000841625 -0.000100792
0.000841625 0.000301251 -3.33101e-05
-0.000100792 -3.33101e-05 0.000348694
0.00204098 7.08543e-05 -1.43086e-06
7.08543e-05 -0.000165219 -7.98097e-07
-1.43086e-06 -7.98097e-07 -9.99125e-05
0.002517 -6.83321e-05 7.49126e-06
-6.83321e-05 0.000428848 -6.35406e-08
7.49126e-06 -6.35406e-08 0.000499369
0.00236187 -0.000191194 -7.65466e-05
-0.000191194 -0.000305634 9.40004e-06
-7.65466e-05 9.40004e-06 -0.000152912
0.00219873 -0.000328471 -5.74133e-05
-0.000328471 -0.000125349 7.87747e-06
-5.74133e-05 7.87747e-06 0.000132341
0.00136254 -0.000100208 -1.0502e-05
-0.000100208 -0.000340921 2.3887e-06
-1.0502e-05 2.3887e-06 -0.000336131
0.00228626 -0.000224727 5.06672e-07
-0.000224727 -4.08284e-05 -1.59435e-06
5.06672e-07 -1.59435e-06 6.57903e-05
0.00229085 -6.60387e-06 -2.65529e-06
-6.60387e-06 -1.38414e-05 1.53041e-06
-2.65529e-06 1.53041e-06 1.7691e-05
0.00228706 -7.37689e-05 2.61849e-07
-7.37689e-05 -2.68052e-05 -5.72301e-08
2.61849e-07 -5.72301e-08 2.70149e-05
0.00231718 -0.000402826 -5.60432e-06
-0.000402826 -0.000104437 1.29191e-06
-5.60432e-06 1.29191e-06 1.00996e-05
0.00220333 -0.000270033 3.99868e-07
-0.000270033 -5.66416e-05 -2.27232e-07
3.99868e-07 -2.27232e-07 -7.32756e-06
0.00214079 -0.00021121 -5.71042e-08
-0.00021121 -2.02792e-06 -2.12988e-07
-5.71042e-08 -2.12988e-07 1.55482e-05
0.00216366 -0.000369031 4.76322e-07
-0.000369031 3.49296e-05 2.19982e-07
4.76322e-07 2.19982e-07 1.91312e-05
0.00207446 -0.000311363 7.05867e-08
-0.000311363 3.66568e-05 1.24826e-07
7.05867e-08 1.24826e-07 -4.81857e-06
0.00204203 -0.000268794 -2.28197e-06
-0.000268794 9.50491e-05 6.79389e-07
-2.28197e-06 6.79389e-07 1.98177e-05
0.00198032 -0.000364091 2.54417e-06
-0.000364091 7.08223e-05 -1.13788e-06
2.54417e-06 -1.13788e-06 -2.60785e-05
0.0019446 -0.000335164 4.95696e-07
-0.000335164 9.34814e-05 -3.06835e-07
4.95696e-07 -3.06835e-07 -2.22381e-05
0.00190425 -0.000305848 -3.52188e-07
-0.000305848 0.000112842 -1.07518e-06
-3.52188e-07 -1.07518e-06 -2.30127e-05
0.00196684 -0.000384891 7.90113e-07
-0.000384891 0.000153171 1.42649e-07
7.90113e-07 1.42649e-07 1.0287e-05
0.0019454 -0.000359294 -3.93888e-07
-0.000359294 0.000183928 -1.34186e-07
-3.93888e-07 -1.34186e-07 1.86387e-05
0.00167084 -0.000292788 -3.26213e-06
-0.000292788 0.000125347 3.52573e-07
-3.26213e-06 3.52573e-07 -6.10173e-05
0.00198647 -0.000393409 6.61338e-07
-0.000393409 0.000248776 1.70173e-06
6.61338e-07 1.70173e-06 6.15995e-05
0.00165768 -0.000324382 -4.4353e-07
-0.000324382 0.000155454 8.83523e-08
-4.4353e-07 8.83523e-08 -4.9578e-05
0.000995703 -0.000195926 -1.45131e-05
-0.000195926 -3.69086e-05 6.04291e-06
-1.45131e-05 6.04291e-06 -0.000214138
0.00170718 -0.0003596 5.56132e-06
-0.0003596 0.000223189 -6.06311e-07
5.56132e-06 -6.06311e-07 -2.51796e-07
0.00101892 -0.000218989 7.69846e-08
-0.000218989 -6.06288e-06 1.06986e-07
7.69846e-08 1.06986e-07 -0.000191789
0.00267557 -0.000164744 -4.42178e-05
-0.000164744 0.00122693 1.10782e-05
-4.42178e-05 1.10782e-05 0.00113066
0.00202808 -8.58157e-05 -0.000234838
-8.58157e-05 0.000904957 3.05814e-05
-0.000234838 3.05814e-05 0.000886123
0.00158621 -0.000191549 -1.12661e-05
-0.000191549 0.000566413 -2.53978e-07
-1.12661e-05 -2.53978e-07 0.000453089
0.000997899 -0.000240162 1.3501e-05
-0.000240162 1.16642e-05 -6.64273e-06
1.3501e-05 -6.64273e-06 -0.000185494
0.00660499 -3.48295e-08 -7.09461e-06
-3.48295e-08 0.00374996 6.95279e-07
-7.09461e-06 6.95279e-07 0.00375423
0.000469055 -0.000235488 2.45339e-05
-0.000235488 -0.000109717 -1.78869e-05
2.45339e-05 -1.78869e-05 -0.000234358
0.00649562 4.82678e-05 0.000250755
4.82678e-05 0.00370174 -2.29689e-05
0.000250755 -2.29689e-05 0.00369821
0.00210433 0.000398939 5.3979e-07
0.000398939 0.000169696 9.24968e-07
5.3979e-07 9.24968e-07 6.79748e-06
0.00199693 0.000516012 2.91899e-06
0.000516012 0.000262701 4.80643e-06
2.91899e-06 4.80643e-06 1.75242e-05
0.00196357 0.000562162 1.81453e-07
0.000562162 0.000350952 2.06477e-07
1.81453e-07 2.06477e-07 5.97382e-05
0.00152364 0.000417285 -5.933e-06
0.000417285 0.000214361 9.73613e-07
-5.933e-06 9.73613e-07 -5.00553e-05
0.00156063 0.000504853 3.54309e-06
0.000504853 0.000249857 -2.46176e-06
3.54309e-06 -2.46176e-06 -6.28776e-05
0.00132287 0.00038409 -1.16133e-07
0.00038409 0.0001827 4.09461e-07
-1.16133e-07 4.09461e-07 -8.64107e-05
0.000866504 0.000225142 -1.22803e-05
0.000225142 2.87734e-05 -5.32433e-06
-1.22803e-05 -5.32433e-06 -0.000164353
0.00125238 0.000337006 5.60647e-06
0.000337006 0.000234176 1.38972e-06
5.60647e-06 1.38972e-06 -2.11277e-05
0.000710972 0.000204463 1.16614e-06
0.000204463 7.67268e-06 1.77713e-07
1.16614e-06 1.77713e-07 -0.000186253
0.0005856 0.000223436 -2.68025e-05
0.000223436 -8.57721e-06 -1.81407e-05
-2.68025e-05 -1.81407e-05 -0.000121936
0.000366696 0.000168444 3.29482e-06
0.000168444 -0.000121264 2.47809e-06
3.29482e-06 2.47809e-06 -0.000328078
0.000577469 0.000131632 -5.57246e-07
0.000131632 -9.09177e-08 -6.7937e-07
-5.57246e-07 -6.7937e-07 -9.01564e-05
0.00566662 -0.00015322 -0.000195593
-0.00015322 0.00324176 -1.86493e-05
-0.000195593 -1.86493e-05 0.0032197
0.000352123 5.5222e-05 1.23602e-05
5.5222e-05 -0.000113214 1.60335e-05
1.23602e-05 1.60335e-05 -0.000181582
0.00444832 -0.000183347 -1.08832e-05
-0.000183347 0.00248658 1.00256e-06
-1.08832e-05 1.00256e-06 0.00246619
0.00372863 -0.000170956 8.59754e-05
-0.000170956 0.00202925 5.57508e-06
8.59754e-05 5.57508e-06 0.00201423
0.00216521 0.00020225 -4.38337e-06
0.00020225 -0.000116831 -4.44698e-07
-4.38337e-06 -4.44698e-07 -4.26439e-05
0.00210426 7.9257e-05 2.4392e-05
7.9257e-05 3.28604e-05 -2.90991e-06
2.4392e-05 -2.90991e-06 0.000202958
0.00539772 0.000200363 -0.000109509
0.000200363 0.00059365 -9.02803e-06
-0.000109509 -9.02803e-06 0.00113194
0.002045 0.000471446 -4.68082e-06
0.000471446 0.000109622 1.44803e-06
-4.68082e-06 1.44803e-06 -7.01854e-05
0.00210322 0.000644128 -3.10433e-06
0.000644128 0.000305267 -1.79889e-07
-3.10433e-06 -1.79889e-07 3.96763e-05
0.00159753 0.000655679 -5.75162e-06
0.000655679 0.000136659 -8.93971e-06
-5.75162e-06 -8.93971e-06 -0.000160391
0.0022175 0.000515754 3.08227e-06
0.000515754 0.000272509 1.4e-06
3.08227e-06 1.4e-06 6.0211e-05
0.00198384 0.000608246 1.1187e-06
0.000608246 0.000258901 -3.76684e-06
1.1187e-06 -3.76684e-06 -1.90146e-05
0.00232226 0.000383577 -3.1638e-07
0.000383577 8.29969e-05 3.16707e-07
-3.1638e-07 3.16707e-07 2.84967e-05
0.00194145 0.000549362 -3.69145e-07
0.000549362 4.93835e-05 5.27638e-07
-3.69145e-07 5.27638e-07 -0.000147432
0.00271834 0.000760766 -3.2452e-06
0.000760766 0.00065464 -1.3845e-06
-3.2452e-06 -1.3845e-06 0.000368851
0.00202133 0.000389443 -2.57364e-07
0.000389443 -7.4592e-05 -5.1778e-07
-2.57364e-07 -5.1778e-07 -0.000117462
0.00215616 0.000694616 1.20597e-05
0.000694616 0.000157653 1.59862e-06
1.20597e-05 1.59862e-06 -5.95528e-05
0.000632824 0.000346872 -3.87651e-05
0.000346872 -0.000555335 -1.73746e-05
-3.87651e-05 -1.73746e-05 -0.000555872
0.00226796 7.65868e-05 4.58554e-07
7.65868e-05 -1.26588e-05 4.02974e-07
4.58554e-07 4.02974e-07 3.54963e-05
0.00221188 8.21694e-05 -2.01337e-06
8.21694e-05 -4.21363e-05 2.72657e-07
-2.01337e-06 2.72657e-07 1.68793e-05
0.0033319 -6.52386e-05 -4.18239e-05
-6.52386e-05 0.000985686 2.09086e-06
-4.18239e-05 2.09086e-06 0.00103337
0.00226061 -0.000221297 -1.64052e-05
-0.000221297 -6.99743e-05 2.32581e-06
-1.64052e-05 2.32581e-06 5.53192e-05
0.00233318 -3.33079e-06 -4.32126e-06
-3.33079e-06 -2.26973e-05 -3.1727e-06
-4.32126e-06 -3.1727e-06 1.61116e-05
0.00224696 -8.01037e-05 -5.2361e-07
-8.01037e-05 -6.93886e-05 -7.58319e-08
-5.2361e-07 -7.58319e-08 -7.69332e-06
0.00202573 -6.60357e-05 -2.57921e-07
-6.60357e-05 -1.42679e-05 3.22596e-07
-2.57921e-07 3.22596e-07 -2.88624e-06
0.00216352 -0.000258934 -3.18133e-07
-0.000258934 -6.14603e-05 6.59963e-07
-3.18133e-07 6.59963e-07 -1.97184e-05
0.00209572 -0.000215029 -1.64871e-07
-0.000215029 -2.14631e-05 -2.19456e-08
-1.64871e-07 -2.19456e-08 -9.35173e-06
0.00204056 -0.000183398 -1.71769e-06
-0.000183398 5.47117e-05 -7.77278e-09
-1.71769e-06 -7.77278e-09 1.63375e-05
0.00207333 -0.000308724 1.61158e-06
-0.000308724 4.10767e-05 2.40943e-08
1.61158e-06 2.40943e-08 -9.0339e-07
0.00200471 -0.000266272 3.33826e-07
-0.000266272 6.83459e-05 -6.05452e-08
3.33826e-07 -6.05452e-08 -6.9004e-06
0.00192453 -0.000242831 -9.53777e-07
-0.000242831 8.28799e-05 -7.57047e-07
-9.53777e-07 -7.57047e-07 -2.46066e-05
0.00190551 -0.000332105 1.9986e-06
-0.000332105 6.73073e-05 -7.34792e-07
1.9986e-06 -7.34792e-07 -4.8475e-05
0.00196279 -0.000309159 -2.96956e-07
-0.000309159 0.00014781 -2.81917e-08
-2.96956e-07 -2.81917e-08 1.15023e-05
0.00172152 -0.000252334 -2.10895e-06
-0.000252334 0.000121699 4.16392e-08
-2.10895e-06 4.16392e-08 -4.46319e-05
0.00197017 -0.000360303 4.57948e-07
-0.000360303 0.000201149 1.07386e-06
4.57948e-07 1.07386e-06 3.57733e-05
0.00170573 -0.000295008 -3.47396e-07
-0.000295008 0.000145621 4.48395e-08
-3.47396e-07 4.48395e-08 -4.05414e-05
0.00101651 -0.000175033 -1.39032e-05
-0.000175033 -4.16818e-05 5.00404e-06
-1.39032e-05 5.00404e-06 -0.000211411
0.00169003 -0.000326563 4.15481e-06
-0.000326563 0.000175092 -5.42527e-07
4.15481e-06 -5.42527e-07 -2.97666e-05
0.00104782 -0.000197438 -6.77404e-08
-0.000197438 -9.42355e-06 1.64614e-07
-6.77404e-08 1.64614e-07 -0.000185939
0.00268554 -0.000162546 -5.2391e-05
-0.000162546 0.00122304 1.05737e-05
-5.2391e-05 1.05737e-05 0.00113498
0.00106214 -0.000221088 1.44903e-05
-0.000221088 1.72308e-05 -6.43505e-06
1.44903e-05 -6.43505e-06 -0.000168253
0.00280626 -0.000204337 4.58328e-05
-0.000204337 0.00130726 -6.87278e-06
4.58328e-05 -6.87278e-06 0.00121823
0.00208978 -0.000123797 -0.000237017
-0.000123797 0.000949217 3.53366e-05
-0.000237017 3.53366e-05 0.000928353
0.00422277 -8.95651e-05 -0.000232469
-8.95651e-05 0.00227893 2.17857e-05
-0.000232469 2.17857e-05 0.00227137
0.0028859 -0.000260925 0.000148727
-0.000260925 0.00137122 -2.33258e-05
0.000148727 -2.33258e-05 0.00128202
0.00665118 -1.56778e-05 0.000266491
-1.56778e-05 0.00378724 -2.72022e-05
0.000266491 -2.72022e-05 0.00378746
0.00229031 0.000398015 -1.79243e-06
0.000398015 0.000278761 -1.96074e-08
-1.79243e-06 -1.96074e-08 0.00013875
0.00181319 0.000396554 3.03282e-06
0.000396554 0.00010371 1.82657e-06
3.03282e-06 1.82657e-06 -8.95736e-05
0.00208502 0.000389693 5.43165e-07
0.000389693 0.000163339 -1.77732e-06
5.43165e-07 -1.77732e-06 7.42151e-06
0.00166723 0.000405799 -4.49674e-06
0.000405799 0.000192769 1.5024e-06
-4.49674e-06 1.5024e-06 -4.92192e-05
0.00207377 0.000521963 6.7583e-07
0.000521963 0.000296145 3.55726e-07
6.7583e-07 3.55726e-07 5.02493e-05
0.00225458 0.000587921 1.33634e-06
0.000587921 0.000521524 -3.71091e-06
1.33634e-06 -3.71091e-06 0.000228626
0.00148923 0.00041749 1.96256e-07
0.00041749 0.000186205 4.49699e-07
1.96256e-07 4.49699e-07 -7.98012e-05
0.000947958 0.000248612 -1.40101e-05
0.000248612 -1.58416e-06 -5.43806e-06
-1.40101e-05 -5.43806e-06 -0.00019886
0.00132151 0.000385425 7.87926e-06
0.000385425 0.000177866 1.23026e-06
7.87926e-06 1.23026e-06 -9.247e-05
0.00077728 0.000218059 -5.54941e-07
0.000218059 -2.40959e-05 -1.07875e-07
-5.54941e-07 -1.07875e-07 -0.000214381
0.000453145 0.000239033 -2.56952e-05
0.000239033 -0.000103322 -1.85883e-05
-2.56952e-05 -1.85883e-05 -0.000226951
0.000360028 0.000182429 8.37553e-06
0.000182429 -0.000209903 2.67331e-06
8.37553e-06 2.67331e-06 -0.000399443
0.000374874 0.000188579 2.63611e-06
0.000188579 -0.000141262 4.13805e-07
2.63611e-06 4.13805e-07 -0.000247411
0.00637766 -9.47035e-05 -0.000230932
-9.47035e-05 0.00366059 -2.32984e-05
-0.000230932 -2.32984e-05 0.00364361
0.000348627 9.83948e-05 1.87174e-05
9.83948e-05 -0.000139004 1.60624e-05
1.87174e-05 1.60624e-05 -0.000223176
0.00533253 -0.000173615 -2.72029e-06
-0.000173615 0.00302847 -8.92506e-07
-2.72029e-06 -8.92506e-07 0.0030084
0.00427152 -0.000202256 0.000102254
-0.000202256 0.00238244 7.33137e-06
0.000102254 7.33137e-06 0.0023573
0.0023063 0.000233081 -2.31588e-07
0.000233081 3.72454e-06 4.25337e-07
-2.31588e-07 4.25337e-07 4.20019e-05
0.00210742 0.000208131 1.39691e-06
0.000208131 -0.000139734 8.66584e-08
1.39691e-06 8.66584e-08 -6.70425e-05
0.0028934 4.87603e-05 -8.1034e-05
4.87603e-05 0.000413135 -1.17882e-05
-8.1034e-05 -1.17882e-05 0.000590778
0.00204012 0.000336266 -2.61434e-07
0.000336266 2.06326e-05 1.82145e-07
-2.61434e-07 1.82145e-07 -7.24462e-05
0.00204321 0.000468809 -5.45633e-07
0.000468809 0.000131027 4.35826e-07
-5.45633e-07 4.35826e-07 -4.83294e-05
0.00160054 0.000588425 6.36752e-06
0.000588425 4.02498e-05 -1.9435e-06
6.36752e-06 -1.9435e-06 -0.000216638
0.00235389 0.000510491 -1.20173e-07
0.000510491 0.000373684 -3.09648e-06
-1.20173e-07 -3.09648e-06 0.000164462
0.00226235 0.000370517 -9.22761e-07
0.000370517 5.91447e-05 2.05961e-08
-9.22761e-07 2.05961e-08 7.14416e-06
0.00196374 0.000554329 -1.21392e-06
0.000554329 8.56482e-05 -1.22008e-08
-1.21392e-06 -1.22008e-08 -0.000112334
0.00194896 0.000379227 1.09199e-05
0.000379227 -7.87516e-05 -4.24636e-07
1.09199e-05 -4.24636e-07 -0.000120357
0.00209553 6.15839e-05 1.39624e-06
6.15839e-05 -1.11781e-06 4.71887e-07
1.39624e-06 4.71887e-07 1.77668e-05
0.00220277 7.26964e-05 9.42667e-08
7.26964e-05 -4.12503e-05 1.80726e-09
9.42667e-08 1.80726e-09 5.06599e-06
0.0023672 9.81504e-05 -8.14884e-06
9.81504e-05 7.4302e-05 -5.72556e-07
-8.14884e-06 -5.72556e-07 0.000126604
0.00196383 -1.25018e-05 -3.8076e-06
-1.25018e-05 1.73323e-05 4.95673e-07
-3.8076e-06 4.95673e-07 9.07224e-06
0.00221133 -9.2098e-05 4.9645e-07
-9.2098e-05 -0.000107979 -7.45737e-07
4.9645e-07 -7.45737e-07 -3.84879e-05
0.00205173 -6.88804e-05 -7.84078e-07
-6.88804e-05 -3.17508e-06 3.0248e-07
-7.84078e-07 3.0248e-07 9.0546e-06
0.00195208 -0.000104514 -3.88959e-06
-0.000104514 1.79262e-06 3.82258e-07
-3.88959e-06 3.82258e-07 -2.28965e-05
0.00204963 -0.000218659 7.12894e-07
-0.000218659 -4.14609e-05 2.00914e-07
7.12894e-07 2.00914e-07 -3.52364e-05
0.00203258 -0.000181928 1.46281e-06
-0.000181928 4.9667e-05 -3.76824e-07
1.46281e-06 -3.76824e-07 1.16312e-05
0.00198108 -0.0001738 1.04622e-06
-0.0001738 9.80101e-05 -1.0584e-06
1.04622e-06 -1.0584e-06 1.39141e-05
0.00196506 -0.000263021 2.48953e-06
-0.000263021 4.04047e-05 -7.55641e-07
2.48953e-06 -7.55641e-07 -3.47266e-05
0.00197317 -0.000243706 -2.25594e-07
-0.000243706 0.00011142 -1.8042e-07
-2.25594e-07 -1.8042e-07 3.94999e-06
0.00173826 -0.000199484 -1.31308e-06
-0.000199484 0.000110246 -2.0592e-07
-1.31308e-06 -2.0592e-07 -3.60672e-05
0.00202424 -0.000312399 8.46034e-07
-0.000312399 0.000185428 7.59598e-07
8.46034e-07 7.59598e-07 4.87095e-05
0.00173758 -0.00025263 -2.90614e-07
-0.00025263 0.000130529 7.33885e-08
-2.90614e-07 7.33885e-08 -3.53574e-05
0.00103918 -0.000151033 -1.31785e-05
-0.000151033 -4.2436e-05 3.83564e-06
-1.31785e-05 3.83564e-06 -0.000203981
0.00174127 -0.000297148 2.37611e-06
-0.000297148 0.000166485 -2.73272e-07
2.37611e-06 -2.73272e-07 -1.9444e-05
0.00106722 -0.000175349 -1.88401e-07
-0.000175349 -1.48079e-05 2.66804e-07
-1.88401e-07 2.66804e-07 -0.000183492
0.00266709 -0.000159654 -5.9902e-05
-0.000159654 0.00120939 1.03193e-05
-5.9902e-05 1.03193e-05 0.00112474
0.00110078 -0.000198999 1.45259e-05
-0.000198999 1.83771e-05 -5.74975e-06
1.45259e-05 -5.74975e-06 -0.000157369
0.00276382 -0.000186165 4.19306e-05
-0.000186165 0.00127138 -5.46236e-06
4.19306e-05 -5.46236e-06 0.00118977
0.00212352 -0.000106018 -0.000231501
-0.000106018 0.000962571 3.10381e-05
-0.000231501 3.10381e-05 0.000944115
0.0029183 -0.000213057 0.000144414
-0.000213057 0.00137198 -2.44807e-05
0.000144414 -2.44807e-05 0.00129168
0.00177647 -6.20301e-05 -9.825e-05
-6.20301e-05 0.000758001 1.36884e-05
-9.825e-05 1.36884e-05 0.000725373
0.00628123 5.19751e-05 7.54735e-05
5.19751e-05 0.0035406 -3.33791e-06
7.54735e-05 -3.33791e-06 0.00352076
0.00208532 0.000337282 1.01766e-06
0.000337282 0.00012961 5.56028e-07
1.01766e-06 5.56028e-07 1.0287e-05
0.00212276 0.000372644 3.38315e-07
0.000372644 0.00024268 -7.46343e-08
3.38315e-07 -7.46343e-08 7.95678e-05
0.00219143 0.000395303 -3.89403e-06
0.000395303 0.000207535 -1.37845e-07
-3.89403e-06 -1.37845e-07 6.47247e-05
0.00182295 0.000362292 -1.81885e-06
0.000362292 0.000225814 7.27883e-07
-1.81885e-06 7.27883e-07 1.3324e-05
0.00181089 0.000402435 -6.38934e-07
0.000402435 8.50872e-05 -1.93541e-06
-6.38934e-07 -1.93541e-06 -0.000104801
0.00206656 0.00038061 -4.59009e-06
0.00038061 0.000157417 -5.58612e-06
-4.59009e-06 -5.58612e-06 8.46203e-06
0.00107427 0.000247991 -1.51366e-05
0.000247991 1.30739e-05 -5.09585e-06
-1.51366e-05 -5.09585e-06 -0.000178276
0.00162 0.000403162 6.66828e-07
0.000403162 0.000162847 3.87854e-07
6.66828e-07 3.87854e-07 -7.96602e-05
0.00215127 0.000527557 2.11987e-06
0.000527557 0.000329089 -3.64849e-06
2.11987e-06 -3.64849e-06 8.25964e-05
0.00145479 0.000417324 6.96733e-06
0.000417324 0.000158992 1.36715e-07
6.96733e-06 1.36715e-07 -0.000108484
0.000898133 0.00024023 -8.75881e-07
0.00024023 -2.4114e-05 2.4283e-08
-8.75881e-07 2.4283e-08 -0.000218859
0.000394708 0.000235026 -2.50266e-05
0.000235026 -0.000146342 -1.74131e-05
-2.50266e-05 -1.74131e-05 -0.000272845
0.000682823 0.000208413 1.19141e-05
0.000208413 -7.99658e-05 5.79691e-06
1.19141e-05 5.79691e-06 -0.000266923
0.000414762 0.0002265 2.14107e-06
0.0002265 -0.000120865 6.79566e-07
2.14107e-06 6.79566e-07 -0.000244864
0.0066464 -7.28106e-06 -0.000253666
-7.28106e-06 0.00381014 -2.93201e-05
-0.000253666 -2.93201e-05 0.0037976
0.000447516 0.000171474 2.37287e-05
0.000171474 -0.000100332 1.82344e-05
2.37287e-05 1.82344e-05 -0.000203943
0.00614205 -0.00013063 3.63499e-06
-0.00013063 0.00351223 -1.10422e-06
3.63499e-06 -1.10422e-06 0.00349656
0.00497609 -0.000218294 0.000130698
-0.000218294 0.00282296 9.07295e-06
0.000130698 9.07295e-06 0.00279212
0.00207767 0.000182903 -8.95936e-07
0.000182903 1.40955e-05 -1.47666e-07
-8.95936e-07 -1.47666e-07 4.17788e-06
0.00226653 0.000234539 7.87835e-08
0.000234539 -2.80806e-05 5.76332e-07
7.87835e-08 5.76332e-07 1.2914e-05
0.00211562 0.000213749 3.74521e-06
0.000213749 -0.000139576 -2.25809e-08
3.74521e-06 -2.25809e-08 -6.76759e-05
0.00209053 0.000334671 -2.99348e-07
0.000334671 5.69612e-05 1.06137e-07
-2.99348e-07 1.06137e-07 -3.17883e-05
0.00203194 0.000464928 1.59439e-06
0.000464928 0.000149143 -6.52299e-07
1.59439e-06 -6.52299e-07 -2.95475e-05
0.00222937 0.000359458 1.68986e-06
0.000359458 4.58658e-05 -4.00733e-07
1.68986e-06 -4.00733e-07 -3.84704e-06
0.00198853 5.98973e-05 -1.74989e-06
5.98973e-05 4.75262e-06 3.35032e-07
-1.74989e-06 3.35032e-07 1.36007e-06
0.00207879 5.671e-05 3.48373e-07
5.671e-05 -7.84597e-06 -9.84462e-08
3.48373e-07 -9.84462e-08 8.98235e-06
0.00213885 6.89458e-05 -4.65944e-07
6.89458e-05 -7.05412e-05 -4.11513e-07
-4.65944e-07 -4.11513e-07 -2.53303e-05
0.00195649 -1.23752e-05 -1.10183e-06
-1.23752e-05 9.67976e-06 2.95824e-08
-1.10183e-06 2.95824e-08 9.74633e-07
0.00194271 -3.94739e-05 -6.19414e-06
-3.94739e-05 2.5411e-05 6.24623e-07
-6.19414e-06 6.24623e-07 -4.16354e-06
0.00207957 -7.14569e-05 4.43967e-07
-7.14569e-05 8.58026e-06 -6.10904e-08
4.43967e-07 -6.10904e-08 2.19718e-05
0.00196984 -0.000104244 -1.5244e-06
-0.000104244 1.85199e-05 2.85138e-07
-1.5244e-06 2.85138e-07 -9.22466e-06
0.00197045 -0.000111849 -4.05174e-06
-0.000111849 8.34148e-05 3.41019e-07
-4.05174e-06 3.41019e-07 1.8871e-05
0.0020274 -0.000181021 4.46396e-06
-0.000181021 4.69179e-05 -7.75434e-07
4.46396e-06 -7.75434e-07 9.09562e-06
0.00194872 -0.000174166 2.7513e-06
-0.000174166 7.5737e-05 -8.60418e-07
2.7513e-06 -8.60418e-07 -8.30581e-06
0.00171212 -0.000144083 1.61684e-06
-0.000144083 8.19058e-05 -5.76163e-07
1.61684e-06 -5.76163e-07 -4.85762e-05
0.00201116 -0.000245905 1.37541e-06
-0.000245905 0.000132246 2.36265e-07
1.37541e-06 2.36265e-07 2.44835e-05
0.00173031 -0.000199832 -2.20301e-07
-0.000199832 0.00010261 -7.67233e-08
-2.20301e-07 -7.67233e-08 -4.35407e-05
0.0010511 -0.000121135 -1.25501e-05
-0.000121135 -4.51635e-05 2.90862e-06
-1.25501e-05 2.90862e-06 -0.000197449
0.00175499 -0.000253187 1.28438e-06
-0.000253187 0.000138957 8.70341e-08
1.28438e-06 8.70341e-08 -2.65331e-05
0.00107636 -0.000149787 -3.25914e-07
-0.000149787 -2.19408e-05 2.19156e-07
-3.25914e-07 2.19156e-07 -0.000182352
0.00260157 -0.000163116 -6.24227e-05
-0.000163116 0.00116919 9.05904e-06
-6.24227e-05 9.05904e-06 0.0010864
0.00111737 -0.000175655 1.39473e-05
-0.000175655 1.15011e-05 -4.5999e-06
1.39473e-05 -4.5999e-06 -0.000156107
0.00272538 -0.000161344 4.02229e-05
-0.000161344 0.00124089 -4.14514e-06
4.02229e-05 -4.14514e-06 0.00116403
0.0021421 -8.88655e-05 -0.000230018
-8.88655e-05 0.000967239 2.61808e-05
-0.000230018 2.61808e-05 0.000950204
0.00284168 -0.000179632 0.000141359
-0.000179632 0.00131251 -2.08904e-05
0.000141359 -2.08904e-05 0.0012405
0.00177188 -6.74254e-05 -8.90515e-05
-6.74254e-05 0.000749929 1.10543e-05
-8.90515e-05 1.10543e-05 0.000720027
0.00150272 -5.95789e-05 5.38726e-05
-5.95789e-05 0.000598271 -8.31026e-06
5.38726e-05 -8.31026e-06 0.000551582
0.00202113 0.000213555 -4.71635e-07
0.000213555 5.92306e-05 5.83368e-07
-4.71635e-07 5.83368e-07 -6.46494e-06
0.00205664 0.000309532 -8.53103e-07
0.000309532 0.000168475 7.4363e-07
-8.53103e-07 7.4363e-07 3.04282e-05
0.00204667 0.000337917 -3.15241e-08
0.000337917 8.65263e-05 1.76143e-07
-3.15241e-08 1.76143e-07 -2.70432e-05
0.00193012 0.000330631 -6.69991e-07
0.000330631 0.000242656 6.85177e-07
-6.69991e-07 6.85177e-07 5.73739e-05
0.00204641 0.000366172 -7.71345e-07
0.000366172 0.000204335 -3.78758e-07
-7.71345e-07 -3.78758e-07 3.98598e-05
0.00208461 0.000392594 -2.94681e-08
0.000392594 0.000131357 -4.0558e-07
-2.94681e-08 -4.0558e-07 -1.43555e-05
0.00114359 0.00022656 -1.55682e-05
0.00022656 2.78039e-05 -4.73706e-06
-1.55682e-05 -4.73706e-06 -0.000152682
0.00174812 0.000361971 2.55244e-06
0.000361971 0.00017213 8.18162e-08
2.55244e-06 8.18162e-08 -3.77267e-05
0.00182077 0.000409212 -1.69879e-06
0.000409212 7.44093e-05 -3.88742e-06
-1.69879e-06 -3.88742e-06 -0.000112212
0.000326713 0.000185193 -2.23312e-05
0.000185193 -0.000210188 -1.43679e-05
-2.23312e-05 -1.43679e-05 -0.00032705
0.00101106 0.000241434 -5.31795e-07
0.000241434 -1.98082e-05 1.21327e-07
-5.31795e-07 1.21327e-07 -0.000210023
0.00157524 0.000401061 6.34418e-06
0.000401061 0.000133652 -6.53988e-07
6.34418e-06 -6.53988e-07 -0.000109522
0.000868785 0.000233783 1.40321e-05
0.000233783 -3.45937e-05 6.20784e-06
1.40321e-05 6.20784e-06 -0.000227193
0.000404127 0.000220207 7.75046e-07
0.000220207 -0.000137917 9.1214e-07
7.75046e-07 9.1214e-07 -0.000265702
0.00679419 9.34279e-05 -0.00026857
9.34279e-05 0.00388234 -3.35142e-05
-0.00026857 -3.35142e-05 0.0038743
0.000374001 0.000208847 2.24081e-05
0.000208847 -0.000143022 1.74203e-05
2.24081e-05 1.74203e-05 -0.000265299
0.00653973 -3.66067e-05 7.22467e-06
-3.66067e-05 0.00373219 -2.75215e-07
7.22467e-06 -2.75215e-07 0.00372669
0.00587572 -0.000162278 0.000183118
-0.000162278 0.00334611 1.02462e-05
0.000183118 1.02462e-05 0.00332942
0.00201494 0.000120846 -4.10099e-06
0.000120846 4.31442e-05 -9.66176e-07
-4.10099e-06 -9.66176e-07 2.65801e-05
0.00207632 0.000186321 9.23115e-07
0.000186321 1.26848e-05 3.5887e-07
9.23115e-07 3.5887e-07 1.93059e-06
0.00221489 0.000236224 -2.8449e-07
0.000236224 -6.39782e-05 -7.37144e-07
-2.8449e-07 -7.37144e-07 -2.0786e-05
0.00214569 0.000332315 2.65642e-06
0.000332315 9.64496e-05 -1.08522e-07
2.65642e-06 -1.08522e-07 1.21461e-05
0.00191772 1.14707e-05 -5.36869e-06
1.14707e-05 3.05055e-05 5.84399e-07
-5.36869e-06 5.84399e-07 -8.46301e-06
0.0019669 5.02816e-05 6.54989e-08
5.02816e-05 -7.18076e-06 7.34446e-08
6.54989e-08 7.34446e-08 -1.20289e-05
0.00206148 5.17422e-05 -6.89936e-07
5.17422e-05 -1.39774e-05 -3.16452e-07
-6.89936e-07 -3.16452e-07 6.61373e-08
0.00194706 -1.09168e-05 1.22729e-06
-1.09168e-05 1.04716e-06 -7.23825e-07
1.22729e-06 -7.23825e-07 -8.34666e-06
0.00194233 -3.4139e-05 -9.30908e-07
-3.4139e-05 2.39824e-05 -1.17313e-07
-9.30908e-07 -1.17313e-07 -4.59308e-06
0.00190103 -4.76741e-05 -2.47081e-06
-4.76741e-05 4.84334e-05 2.27044e-07
-2.47081e-06 2.27044e-07 -1.71973e-05
0.00198573 -0.000104145 3.24907e-06
-0.000104145 3.37743e-05 1.07083e-09
3.24907e-06 1.07083e-09 2.8013e-06
0.0019254 -0.000111379 -1.92446e-06
-0.000111379 6.0921e-05 5.86522e-07
-1.92446e-06 5.86522e-07 -1.04496e-05
0.00180308 -9.23609e-05 -6.66281e-07
-9.23609e-05 0.000129832 -2.00685e-07
-6.66281e-07 -2.00685e-07 1.85815e-05
0.00192502 -0.000173347 5.12994e-06
-0.000173347 5.87281e-05 -7.4546e-07
5.12994e-06 -7.4546e-07 -2.49929e-05
0.00172708 -0.00014231 1.97213e-06
-0.00014231 8.92933e-05 -5.11312e-07
1.97213e-06 -5.11312e-07 -4.05299e-05
0.00104339 -8.81983e-05 -1.21902e-05
-8.81983e-05 -5.45365e-05 2.06523e-06
-1.21902e-05 2.06523e-06 -0.000197902
0.00173606 -0.000198258 7.60905e-07
-0.000198258 0.00010513 3.34344e-08
7.60905e-07 3.34344e-08 -4.04085e-05
0.00106161 -0.000120082 -1.30489e-07
-0.000120082 -3.79233e-05 1.55838e-07
-1.30489e-07 1.55838e-07 -0.000189521
0.000456351 -8.82171e-05 -1.99419e-05
-8.82171e-05 -0.000174926 5.81255e-06
-1.99419e-05 5.81255e-06 -0.000265192
0.00111005 -0.000148274 1.30349e-05
-0.000148274 -3.14608e-06 -3.50088e-06
1.30349e-05 -3.50088e-06 -0.000162372
0.00157964 -0.000106232 5.86001e-05
-0.000106232 0.000523986 -4.33333e-06
5.86001e-05 -4.33333e-06 0.000444428
0.00628633 -0.000151471 -0.000303231
-0.000151471 0.00354283 2.16618e-05
-0.000303231 2.16618e-05 0.00355768
0.00279978 -0.000145131 0.000139042
-0.000145131 0.00127713 -1.66057e-05
0.000139042 -1.66057e-05 0.00121046
0.00177791 -6.88711e-05 -8.04814e-05
-6.88711e-05 0.000752014 7.23894e-06
-8.04814e-05 7.23894e-06 0.000722177
0.00141982 -8.85574e-05 6.54842e-05
-8.85574e-05 0.000551095 -9.87338e-06
6.54842e-05 -9.87338e-06 0.00050332
0.0020132 0.000158262 -2.89815e-06
0.000158262 8.0474e-05 -3.13803e-07
-2.89815e-06 -3.13803e-07 2.86572e-05
0.00200367 0.000229747 -1.80977e-07
0.000229747 0.000120102 1.44626e-06
-1.80977e-07 1.44626e-06 1.28513e-05
0.00200833 0.000209259 7.77252e-07
0.000209259 5.69115e-05 4.34742e-07
7.77252e-07 4.34742e-07 -1.21955e-05
0.00184463 0.000266431 -6.2553e-07
0.000266431 0.000161572 9.50965e-07
-6.2553e-07 9.50965e-07 2.70488e-06
0.00197441 0.000303174 8.21329e-07
0.000303174 0.000120739 9.30172e-08
8.21329e-07 9.30172e-08 -1.67722e-05
0.0020114 0.00033933 4.88541e-07
0.00033933 4.50847e-05 1.85931e-07
4.88541e-07 1.85931e-07 -6.28155e-05
0.00108022 0.00019588 -1.60201e-05
0.00019588 -3.52669e-05 -3.58709e-06
-1.60201e-05 -3.58709e-06 -0.000203064
0.00192591 0.000329214 2.44653e-06
0.000329214 0.000239455 5.82373e-07
2.44653e-06 5.82373e-07 5.47357e-05
0.00195916 0.000358759 -1.50865e-06
0.000358759 0.000159826 -1.42805e-06
-1.50865e-06 -1.42805e-06 -5.89248e-06
0.000336077 0.000131832 -1.95046e-05
0.000131832 -0.000228755 -1.06672e-05
-1.95046e-05 -1.06672e-05 -0.000332787
0.00101331 0.000220065 4.13842e-07
0.000220065 -5.36287e-05 3.59387e-07
4.13842e-07 3.59387e-07 -0.000233169
0.00166222 0.000360797 6.80645e-06
0.000360797 0.000111301 -8.77473e-07
6.80645e-06 -8.77473e-07 -9.57339e-05
0.00672795 0.00017356 -0.000278757
0.00017356 0.00382347 -3.3231e-05
-0.000278757 -3.3231e-05 0.00382198
0.000363009 0.00017797 3.28895e-07
0.00017797 -0.000188983 8.08303e-07
3.28895e-07 8.08303e-07 -0.000306786
0.000942889 0.000234655 1.51902e-05
0.000234655 -5.52057e-05 5.72086e-06
1.51902e-05 5.72086e-06 -0.000244253
0.000366571 0.000205177 2.12499e-05
0.000205177 -0.000157779 1.72102e-05
2.12499e-05 1.72102e-05 -0.000286612
0.0066675 8.29216e-05 9.9769e-06
8.29216e-05 0.00379694 6.6401e-07
9.9769e-06 6.6401e-07 0.00379579
0.00642723 -6.82504e-05 0.00023743
-6.82504e-05 0.00365402 1.45714e-05
0.00023743 1.45714e-05 0.00365305
0.00194335 6.58666e-05 -7.69384e-06
6.58666e-05 4.49881e-05 1.37889e-07
-7.69384e-06 1.37889e-07 2.2816e-06
0.0020008 0.000117826 2.40588e-07
0.000117826 3.30821e-05 4.34748e-08
2.40588e-07 4.34748e-08 1.61701e-05
0.00207523 0.00018983 1.2583e-06
0.00018983 1.11911e-05 3.74155e-07
1.2583e-06 3.74155e-07 1.10367e-07
0.00186754 4.10049e-06 -2.45154e-06
4.10049e-06 3.87371e-05 1.12045e-07
-2.45154e-06 1.12045e-07 -3.1868e-05
0.00192819 1.65075e-05 1.23665e-07
1.65075e-05 3.57342e-05 6.43315e-08
1.23665e-07 6.43315e-08 -2.30611e-07
0.00194826 3.95656e-05 1.14003e-06
3.95656e-05 -1.74773e-05 -3.57917e-07
1.14003e-06 -3.57917e-07 -2.36276e-05
0.00194292 -2.96591e-05 3.35753e-06
-2.96591e-05 2.28137e-05 -4.76057e-07
3.35753e-06 -4.76057e-07 -4.43032e-06
0.00188542 -4.59181e-05 -1.24953e-06
-4.59181e-05 3.9032e-05 2.79404e-07
-1.24953e-06 2.79404e-07 -2.57218e-05
0.00187943 -4.11894e-05 1.83302e-06
-4.11894e-05 0.000189685 -5.89534e-07
1.83302e-06 -5.89534e-07 8.26105e-05
0.00187518 -0.000110598 -7.05089e-07
-0.000110598 3.56088e-05 6.88397e-07
-7.05089e-07 6.88397e-07 -4.24279e-05
0.00179726 -9.33752e-05 5.16367e-07
-9.33752e-05 0.000130324 2.27078e-08
5.16367e-07 2.27078e-08 1.33499e-05
0.000985337 -5.07775e-05 -1.30099e-05
-5.07775e-05 -9.61664e-05 1.01129e-06
-1.30099e-05 1.01129e-06 -0.000228594
0.00172604 -0.000142382 2.08377e-06
-0.000142382 8.62971e-05 -4.31268e-07
2.08377e-06 -4.31268e-07 -4.32918e-05
0.00105209 -8.45556e-05 -6.65291e-08
-8.45556e-05 -4.9134e-05 1.5893e-07
-6.65291e-08 1.5893e-07 -0.000191715
0.000465493 -2.28047e-05 -1.85369e-05
-2.28047e-05 -0.000173658 3.52244e-06
-1.85369e-05 3.52244e-06 -0.000259127
0.00109333 -0.000118595 1.23481e-05
-0.000118595 -1.90848e-05 -2.61619e-06
1.23481e-05 -2.61619e-06 -0.000169792
0.000463873 -7.24899e-05 -2.32348e-07
-7.24899e-05 -0.000168937 4.20365e-07
-2.32348e-07 4.20365e-07 -0.00026003
0.00624045 -4.42229e-05 -0.000293368
-4.42229e-05 0.00350935 1.33034e-05
-0.000293368 1.33034e-05 0.00352837
0.00050379 -7.42727e-05 1.50497e-05
-7.42727e-05 -0.000145492 -7.67157e-06
1.50497e-05 -7.67157e-06 -0.000240548
0.0039505 -9.89415e-05 0.000130838
-9.89415e-05 0.00210048 -6.39814e-06
0.000130838 -6.39814e-06 0.00208471
0.00138472 -8.51697e-05 7.14196e-05
-8.51697e-05 0.000529588 -9.86696e-06
7.14196e-05 -9.86696e-06 0.0004819
0.0019562 0.000121789 -6.49056e-06
0.000121789 5.64685e-05 -3.44083e-07
-6.49056e-06 -3.44083e-07 1.26593e-06
0.00197312 0.000166512 -5.35233e-07
0.000166512 0.000100608 1.90942e-06
-5.35233e-07 1.90942e-06 9.24504e-06
0.00198469 0.000153151 -7.03217e-07
0.000153151 6.04377e-05 -1.72556e-07
-7.03217e-07 -1.72556e-07 8.91925e-06
0.00177556 0.000200354 -9.93497e-08
0.000200354 0.000109458 9.28047e-07
-9.93497e-08 9.28047e-07 -3.49167e-05
0.00200579 0.000229529 3.81359e-07
0.000229529 0.000119047 2.0441e-07
3.81359e-07 2.0441e-07 1.046e-05
0.00200079 0.000204822 2.35645e-06
0.000204822 5.79578e-05 2.56192e-07
2.35645e-06 2.56192e-07 -1.46008e-05
0.0010678 0.000159561 -1.45587e-05
0.000159561 -5.27204e-05 -2.60506e-06
-1.45587e-05 -2.60506e-06 -0.000208454
0.00184154 0.000264323 1.12349e-06
0.000264323 0.000165779 5.44056e-07
1.12349e-06 5.44056e-07 3.16933e-06
0.00189134 0.000296696 -2.52169e-07
0.000296696 7.24189e-05 -9.13826e-07
-2.52169e-07 -9.13826e-07 -6.44923e-05
0.000366337 9.38286e-05 -1.81985e-05
9.38286e-05 -0.000226909 -7.56893e-06
-1.81985e-05 -7.56893e-06 -0.000322205
0.00100849 0.000191397 -1.47747e-06
0.000191397 -7.76515e-05 9.59368e-08
-1.47747e-06 9.59368e-08 -0.000245012
0.00192726 0.000328258 5.62662e-06
0.000328258 0.000239711 5.93832e-07
5.62662e-06 5.93832e-07 5.54659e-05
0.00656689 0.000235951 -0.00029533
0.000235951 0.0037214 -3.20556e-05
-0.00029533 -3.20556e-05 0.00372274
0.000374849 0.000130718 -5.86299e-08
0.000130718 -0.000206781 4.18342e-07
-5.86299e-08 4.18342e-07 -0.00031137
0.000890521 0.000214378 1.4834e-05
0.000214378 -0.0001308 4.69151e-06
1.4834e-05 4.69151e-06 -0.000309484
0.006672 0.00019 1.37384e-05
0.00019 0.00379552 3.10761e-06
1.37384e-05 3.10761e-06 0.00379259
0.000386371 0.000169256 1.99445e-05
0.000169256 -0.00017577 1.42481e-05
1.99445e-05 1.42481e-05 -0.000294321
0.00654115 4.65712e-05 0.000261922
4.65712e-05 0.00370694 2.14255e-05
0.000261922 2.14255e-05 0.00371338
0.00186586 4.73703e-05 -3.3464e-06
4.73703e-05 2.69862e-05 2.78005e-07
-3.3464e-06 2.78005e-07 -4.46388e-05
0.00192944 6.89974e-05 -7.57663e-07
6.89974e-05 4.41454e-05 -2.73471e-07
-7.57663e-07 -2.73471e-07 1.8701e-07
0.00198148 0.00011484 3.70243e-06
0.00011484 2.03178e-05 5.40995e-07
3.70243e-06 5.40995e-07 2.94376e-06
0.0018662 -3.60721e-06 2.37436e-06
-3.60721e-06 0.000184272 -4.5179e-07
2.37436e-06 -4.5179e-07 7.93249e-05
0.00185227 4.84513e-06 -1.7562e-06
4.84513e-06 2.62559e-05 2.41358e-07
-1.7562e-06 2.41358e-07 -4.18675e-05
0.00193922 2.28765e-05 6.87967e-06
2.28765e-05 4.13664e-05 -2.58955e-07
6.87967e-06 -2.58955e-07 8.31895e-06
0.00186777 -4.44647e-05 -2.69021e-07
-4.44647e-05 2.86441e-05 4.29577e-07
-2.69021e-07 4.29577e-07 -3.54696e-05
0.00185124 -4.02662e-05 3.19187e-06
-4.02662e-05 0.000170543 -2.50138e-07
3.19187e-06 -2.50138e-07 6.36915e-05
0.000983694 -2.00156e-05 -1.27016e-05
-2.00156e-05 -9.1717e-05 3.16347e-07
-1.27016e-05 3.16347e-07 -0.00021868
0.00179827 -9.47266e-05 9.90211e-08
-9.47266e-05 0.000135077 2.21761e-07
9.90211e-08 2.21761e-07 1.23447e-05
0.00101436 -5.08568e-05 -9.17161e-07
-5.08568e-05 -7.66114e-05 1.45694e-08
-9.17161e-07 1.45694e-08 -0.000210569
0.00047243 -7.92832e-06 -1.88669e-05
-7.92832e-06 -0.00017021 2.15051e-06
-1.88669e-05 2.15051e-06 -0.000252751
0.00106195 -8.21842e-05 1.17927e-05
-8.21842e-05 -4.23266e-05 -1.7758e-06
1.17927e-05 -1.7758e-06 -0.000184275
0.000444565 -3.51119e-05 8.67597e-07
-3.51119e-05 -0.000186836 -1.69367e-07
8.67597e-07 -1.69367e-07 -0.000271486
0.00611314 -0.000140991 -0.000298146
-0.000140991 0.00344455 1.45538e-05
-0.000298146 1.45538e-05 0.00345834
0.000434758 -5.58035e-05 1.79628e-05
-5.58035e-05 -0.000186888 -4.48772e-06
1.79628e-05 -4.48772e-06 -0.000277539
0.00619774 -8.05738e-05 7.57851e-06
-8.05738e-05 0.00348536 -5.00971e-08
7.57851e-06 -5.00971e-08 0.00350405
0.00173014 -3.1473e-05 0.000231841
-3.1473e-05 0.000713584 -1.47802e-05
0.000231841 -1.47802e-05 0.000703237
0.00184276 0.000109771 -2.35345e-06
0.000109771 7.8767e-06 3.49168e-07
-2.35345e-06 3.49168e-07 -7.69155e-05
0.00195808 0.00012494 -2.94377e-06
0.00012494 5.01345e-05 -5.94295e-07
-2.94377e-06 -5.94295e-07 -1.68918e-06
0.0017404 0.000137817 8.69959e-07
0.000137817 8.45293e-05 1.18342e-06
8.69959e-07 1.18342e-06 -4.3352e-05
0.00198217 0.000165615 9.33184e-07
0.000165615 0.000105782 2.48133e-07
9.33184e-07 2.48133e-07 1.4644e-05
0.0019485 0.000147949 3.68283e-06
0.000147949 3.45078e-05 -1.63115e-07
3.68283e-06 -1.63115e-07 -1.65955e-05
0.00112013 0.000119674 -1.26713e-05
0.000119674 -1.31447e-05 -1.89882e-06
-1.26713e-05 -1.89882e-06 -0.000160268
0.00177355 0.000199134 1.69781e-07
0.000199134 0.00011164 6.98553e-08
1.69781e-07 6.98553e-08 -3.27323e-05
0.00200451 0.000229126 1.0715e-06
0.000229126 0.000116181 -1.2531e-06
1.0715e-06 -1.2531e-06 6.23716e-06
0.000410961 6.86732e-05 -1.78781e-05
6.86732e-05 -0.00020746 -5.42858e-06
-1.78781e-05 -5.42858e-06 -0.000298079
0.00105546 0.000159257 -1.4018e-06
0.000159257 -5.64898e-05 1.48943e-07
-1.4018e-06 1.48943e-07 -0.000213973
0.00184364 0.000262272 2.60556e-06
0.000262272 0.000173688 2.44364e-07
2.60556e-06 2.44364e-07 7.35452e-06
0.0064178 0.000257101 -0.000311588
0.000257101 0.0036385 -3.00658e-05
-0.000311588 -3.00658e-05 0.00363884
0.000413745 9.65732e-05 -1.05457e-07
9.65732e-05 -0.000199479 1.90599e-07
-1.05457e-07 1.90599e-07 -0.000295281
0.000938699 0.000186964 1.12719e-05
0.000186964 -0.000119222 3.53815e-06
1.12719e-05 3.53815e-06 -0.000286054
0.00656525 0.000258748 1.09978e-05
0.000258748 0.00373242 4.42695e-06
1.09978e-05 4.42695e-06 0.00372813
0.000422256 0.000128225 1.88283e-05
0.000128225 -0.000180012 1.08356e-05
1.88283e-05 1.08356e-05 -0.000284814
0.00665254 0.000188917 0.000290823
0.000188917 0.00377384 3.06097e-05
0.000290823 3.06097e-05 0.0037775
0.00182098 4.09069e-05 3.57504e-06
4.09069e-05 0.000153636 1.10854e-09
3.57504e-06 1.10854e-09 4.66608e-05
0.0018578 4.61493e-05 -2.80278e-06
4.61493e-05 2.69774e-05 -4.3604e-08
-2.80278e-06 -4.3604e-08 -4.60398e-05
0.00191668 7.16094e-05 5.54932e-06
7.16094e-05 4.38892e-05 -1.47391e-07
5.54932e-06 -1.47391e-07 -1.24899e-06
0.000975728 -8.82617e-06 -1.29996e-05
-8.82617e-06 -8.7332e-05 -1.17575e-07
-1.29996e-05 -1.17575e-07 -0.000212343
0.001843 1.32038e-06 3.43859e-06
1.32038e-06 0.000169111 -1.21312e-07
3.43859e-06 -1.21312e-07 6.42381e-05
0.00183703 5.06324e-06 -4.9715e-07
5.06324e-06 1.37841e-05 3.06038e-07
-4.9715e-07 3.06038e-07 -5.17739e-05
0.00182758 -3.96449e-05 4.36772e-06
-3.96449e-05 0.000154344 1.62423e-07
4.36772e-06 1.62423e-07 4.77189e-05
0.000976741 -2.10491e-05 -5.81256e-07
-2.10491e-05 -9.7665e-05 2.5743e-09
-5.81256e-07 2.5743e-09 -0.000224906
0.000475575 -3.1991e-05 -1.93362e-05
-3.1991e-05 -0.000167104 1.03216e-06
-1.93362e-05 1.03216e-06 -0.000246612
0.00102379 -4.99744e-05 1.13648e-05
-4.99744e-05 -6.89509e-05 -1.28522e-06
1.13648e-05 -1.28522e-06 -0.000204465
0.000450717 3.46061e-06 3.60042e-07
3.46061e-06 -0.000184325 3.92962e-08
3.60042e-07 3.92962e-08 -0.000265815
0.00605953 -0.000113057 -0.000301002
-0.000113057 0.00340998 1.0725e-05
-0.000301002 1.0725e-05 0.00342679
0.0004583 -4.20298e-05 1.8812e-05
-4.20298e-05 -0.000176102 -3.04142e-06
1.8812e-05 -3.04142e-06 -0.000261913
0.0061178 -3.52791e-05 -3.00759e-06
-3.52791e-05 0.00343573 2.51168e-06
-3.00759e-06 2.51168e-06 0.00345673
0.00617995 -9.57601e-05 0.000297717
-9.57601e-05 0.00347468 -1.29041e-05
0.000297717 -1.29041e-05 0.00349392
0.00168099 8.30044e-05 1.06258e-06
8.30044e-05 5.42086e-05 4.27101e-07
1.06258e-06 4.27101e-07 -6.33198e-05
0.00191454 0.0001096 -3.04967e-06
0.0001096 5.03446e-05 -7.87728e-07
-3.04967e-06 -7.87728e-07 -2.85198e-05
0.00196459 0.000128562 2.97532e-06
0.000128562 4.76849e-05 -1.14303e-07
2.97532e-06 -1.14303e-07 -9.59473e-07
0.00111054 7.66905e-05 -1.21987e-05
7.66905e-05 -1.39397e-05 -1.28395e-06
-1.21987e-05 -1.28395e-06 -0.000151225
0.0017504 0.00013682 2.4656e-07
0.00013682 9.35597e-05 8.2551e-09
2.4656e-07 8.2551e-09 -3.44692e-05
0.00198631 0.000164544 6.00157e-07
0.000164544 0.000108243 -1.90317e-06
6.00157e-07 -1.90317e-06 1.72734e-05
0.000444495 4.59557e-05 -1.74675e-05
4.59557e-05 -0.000187747 -3.91106e-06
-1.74675e-05 -3.91106e-06 -0.000274992
0.00108718 0.000121149 3.63271e-07
0.000121149 -3.39427e-05 2.53097e-07
3.63271e-07 2.53097e-07 -0.000182087
0.00177265 0.000197952 8.41186e-07
0.000197952 0.000114163 -6.98238e-07
8.41186e-07 -6.98238e-07 -3.02201e-05
0.00625917 0.000220532 -0.000320408
0.000220532 0.0035415 -2.49489e-05
-0.000320408 -2.49489e-05 0.00354744
0.000445543 7.43286e-05 3.80994e-07
7.43286e-05 -0.000186255 1.58751e-07
3.80994e-07 1.58751e-07 -0.000277952
0.00104184 0.000158793 1.12714e-05
0.000158793 -6.13896e-05 2.90894e-06
1.12714e-05 2.90894e-06 -0.000220555
0.00645513 0.000272418 6.08451e-06
0.000272418 0.00366715 3.32312e-06
6.08451e-06 3.32312e-06 0.00366514
0.000465328 0.000101315 1.82223e-05
0.000101315 -0.000168352 8.25652e-06
1.82223e-05 8.25652e-06 -0.000265176
0.00658623 0.000289506 0.000308103
0.000289506 0.00375124 3.70798e-05
0.000308103 3.70798e-05 0.00374394
0.00103047 2.18744e-05 -1.25774e-05
2.18744e-05 -4.70861e-05 -5.34801e-07
-1.25774e-05 -5.34801e-07 -0.00017606
0.00178594 3.75374e-05 3.6362e-06
3.75374e-05 0.000129923 7.76768e-08
3.6362e-06 7.76768e-08 2.49085e-05
0.00184929 4.48469e-05 -2.66926e-06
4.48469e-05 2.65019e-05 -7.88176e-08
-2.66926e-06 -7.88176e-08 -4.79767e-05
0.00051183 3.17594e-05 -1.99268e-05
3.17594e-05 -0.00015292 -6.11758e-07
-1.99268e-05 -6.11758e-07 -0.000224585
0.000956227 -2.95816e-06 -7.19345e-07
-2.95816e-06 -0.000100974 -2.53514e-09
-7.19345e-07 -2.53514e-09 -0.000226128
0.00181404 7.48294e-06 4.52521e-06
7.48294e-06 0.000150087 1.50997e-07
4.52521e-06 1.50997e-07 4.52752e-05
0.000967271 -2.16648e-05 1.15988e-05
-2.16648e-05 -0.000105399 -5.51419e-07
1.15988e-05 -5.51419e-07 -0.000232896
0.000472166 -5.50312e-06 3.7565e-07
-5.50312e-06 -0.000169221 3.81455e-07
3.7565e-07 3.81455e-07 -0.000248828
0.00596976 2.11234e-05 -0.000303374
2.11234e-05 0.00334846 9.28541e-07
-0.000303374 9.28541e-07 0.00337139
0.000429222 1.51745e-05 1.83744e-05
1.51745e-05 -0.000199036 -1.24796e-06
1.83744e-05 -1.24796e-06 -0.000279175
0.00602012 -0.000111186 -7.73902e-06
-0.000111186 0.0033873 1.86434e-06
-7.73902e-06 1.86434e-06 0.00340354
0.00605761 -1.67646e-05 0.000285736
-1.67646e-05 0.00339891 -6.51953e-06
0.000285736 -6.51953e-06 0.00341984
0.00107346 4.38569e-05 -1.23972e-05
4.38569e-05 -2.73267e-05 -1.15083e-06
-1.23972e-05 -1.15083e-06 -0.000158537
0.00173514 8.05486e-05 -2.50542e-07
8.05486e-05 8.82766e-05 -3.61313e-07
-2.50542e-07 -3.61313e-07 -2.52208e-05
0.00200099 0.000109339 -3.1679e-06
0.000109339 0.000101832 -2.32349e-06
-3.1679e-06 -2.32349e-06 2.9016e-05
0.00267448 6.08641e-05 -0.000140945
6.08641e-05 0.00119123 -4.81571e-06
-0.000140945 -4.81571e-06 0.00113978
0.00106379 7.83086e-05 3.21487e-07
7.83086e-05 -4.35354e-05 1.53205e-07
3.21487e-07 1.53205e-07 -0.000181638
0.00175874 0.000135705 6.92442e-07
0.000135705 0.000101428 -1.00776e-06
6.92442e-07 -1.00776e-06 -2.67655e-05
0.00612476 0.00016219 -0.000319695
0.00016219 0.00345327 -1.79455e-05
-0.000319695 -1.79455e-05 0.00346717
0.000476615 6.49622e-05 8.92115e-07
6.49622e-05 -0.000165756 4.13534e-07
8.92115e-07 4.13534e-07 -0.000255005
0.00105588 0.000122539 1.26093e-05
0.000122539 -5.36289e-05 2.28572e-06
1.26093e-05 2.28572e-06 -0.000202763
0.00634404 0.000235334 1.41575e-06
0.000235334 0.00359509 1.60566e-06
1.41575e-06 1.60566e-06 0.00359979
0.000490277 8.28681e-05 1.842e-05
8.28681e-05 -0.000157643 6.45181e-06
1.842e-05 6.45181e-06 -0.000251083
0.00648271 0.000305791 0.000318174
0.000305791 0.00369671 3.73802e-05
0.000318174 3.73802e-05 0.00368798
0.000576208 1.14181e-05 -1.59632e-05
1.14181e-05 -0.000102516 -1.8303e-06
-1.59632e-05 -1.8303e-06 -0.000183319
0.00098643 2.11008e-05 3.41058e-07
2.11008e-05 -7.82201e-05 2.19397e-07
3.41058e-07 2.19397e-07 -0.000205712
0.00175146 3.31543e-05 3.74425e-06
3.31543e-05 0.00010644 -1.31074e-08
3.74425e-06 -1.31074e-08 3.43139e-06
0.00582192 -0.000100069 -0.000286574
-0.000100069 0.00327524 3.26007e-06
-0.000286574 3.26007e-06 0.00328737
0.000467187 9.17096e-06 -5.86906e-07
9.17096e-06 -0.000175906 -3.6029e-08
-5.86906e-07 -3.6029e-08 -0.000250209
0.000955404 1.77166e-06 1.15095e-05
1.77166e-06 -0.000103295 -3.91585e-08
1.15095e-05 -3.91585e-08 -0.00022853
0.000428195 2.09313e-05 1.86013e-05
2.09313e-05 -0.000197559 1.73518e-07
1.86013e-05 1.73518e-07 -0.000276125
0.0059146 -1.45894e-05 2.12763e-06
-1.45894e-05 0.00332022 -1.47118e-06
2.12763e-06 -1.47118e-06 0.00333883
0.00600874 -3.18063e-05 0.000292206
-3.18063e-05 0.00336889 -4.38315e-06
0.000292206 -4.38315e-06 0.00339095
0.00275558 1.46638e-05 -0.00013582
1.46638e-05 0.00123953 -2.76821e-06
-0.00013582 -2.76821e-06 0.00119092
0.00105101 4.70868e-05 9.78023e-08
4.70868e-05 -4.307e-05 -3.33695e-08
9.78023e-08 -3.33695e-08 -0.000174904
0.00178119 7.82269e-05 7.86134e-07
7.82269e-05 0.000117475 -9.85143e-07
7.86134e-07 -9.85143e-07 8.02515e-06
0.00565005 -3.90479e-05 -0.000121192
-3.90479e-05 0.00317199 4.64385e-07
-0.000121192 4.64385e-07 0.00316009
0.000486826 5.71936e-05 1.25944e-07
5.71936e-05 -0.000158929 2.50273e-07
1.25944e-07 2.50273e-07 -0.000243338
0.00103362 8.05804e-05 1.21522e-05
8.05804e-05 -6.35405e-05 1.57564e-06
1.21522e-05 1.57564e-06 -0.000202408
0.0061977 0.000137258 -1.05934e-05
0.000137258 0.00349301 -1.69964e-06
-1.05934e-05 -1.69964e-06 0.00350821
0.000504294 8.80523e-05 1.96773e-05
8.80523e-05 -0.000148051 5.49654e-06
1.96773e-05 5.49654e-06 -0.000238297
0.00639975 0.000259434 0.000326202
0.000259434 0.00363602 3.2234e-05
0.000326202 3.2234e-05 0.00363782
0.00176575 -5.31806e-05 -0.000230262
-5.31806e-05 0.000735355 1.26564e-06
-0.000230262 1.26564e-06 0.000733033
0.00161648 3.03421e-05 -5.80204e-05
3.03421e-05 0.000533369 1.36934e-07
-5.80204e-05 1.36934e-07 0.000473771
0.00093719 2.29524e-05 1.24823e-05
2.29524e-05 -0.000112188 7.62354e-07
1.24823e-05 7.62354e-07 -0.000238272
0.00589875 -4.6674e-05 7.06128e-06
-4.6674e-05 0.0033161 2.37796e-06
7.06128e-06 2.37796e-06 0.00333351
0.000483047 -1.20852e-05 1.92113e-05
-1.20852e-05 -0.00015973 6.97863e-07
1.92113e-05 6.97863e-07 -0.000237916
0.00595561 -7.87113e-05 0.000305322
-7.87113e-05 0.00334859 -4.27216e-06
0.000305322 -4.27216e-06 0.00336709
0.00133406 2.04968e-05 -5.7508e-05
2.04968e-05 0.000495352 -8.98865e-07
-5.7508e-05 -8.98865e-07 0.000458021
0.00160383 1.76189e-05 -5.86372e-05
1.76189e-05 0.000528772 -1.25042e-06
-5.86372e-05 -1.25042e-06 0.000465143
0.00101876 4.88927e-05 1.22601e-05
4.88927e-05 -6.46013e-05 1.1071e-06
1.22601e-05 1.1071e-06 -0.000197083
0.00372737 6.47831e-05 0.000113174
6.47831e-05 0.00196476 3.25751e-06
0.000113174 3.25751e-06 0.00195646
0.000497553 6.77e-05 1.99401e-05
6.77e-05 -0.000152358 4.2069e-06
1.99401e-05 4.2069e-06 -0.00023673
0.0062766 0.000125165 0.000310948
0.000125165 0.00353415 1.92846e-05
0.000310948 1.92846e-05 0.00355302
0.00585182 -2.03206e-05 -8.92913e-06
-2.03206e-05 0.00329029 -2.96409e-06
-8.92913e-06 -2.96409e-06 0.00330648
0.000477628 4.93849e-05 2.07633e-05
4.93849e-05 -0.000173709 2.30753e-06
2.07633e-05 2.30753e-06 -0.000244902
0.00581051 3.97552e-05 0.00029327
3.97552e-05 0.00325756 2.11421e-07
0.00029327 2.11421e-07 0.00327851
0.00362405 3.09708e-05 0.00012548
3.09708e-05 0.00190568 4.76589e-06
0.00012548 4.76589e-06 0.00189902
0.000509028 8.18161e-06 1.9156e-05
8.18161e-06 -0.000145402 2.55364e-06
1.9156e-05 2.55364e-06 -0.000224783
0.00608233 -4.16366e-06 0.000298812
-4.16366e-06 0.00341601 8.46932e-06
0.000298812 8.46932e-06 0.00343617
0.0058966 -0.000120351 0.000290528
-0.000120351 0.00332245 -4.08615e-06
0.000290528 -4.08615e-06 0.00333409
0.0059052 5.44129e-06 0.000292297
5.44129e-06 0.00330682 4.81072e-06
0.000292297 4.81072e-06 0.00333008
