# vtk DataFile Version 2.0
Wound Healing Simulation
ASCII
DATASET UNSTRUCTURED_GRID
POINTS 3012 float
69.9759 18.75 4
67.2507 60.3285 4
69.976 18.75 2
73.0099 25.446 4
71.1327 20.9142 4
68.6801 16.6661 4
67.8235 19.9265 3.97758
67.2507 60.3286 2
71.1327 54.0858 4
68.6801 58.3339 4
65.6939 62.2254 4
65.3102 59.0003 3.97695
74.6784 42.3946 4
73.7221 47.2057 4
69.9759 18.75 0
73.0099 25.446 2
68.6801 16.6661 2
71.1327 20.9142 2
67.824 19.9301 2
74.6792 32.6053 4
73.7222 27.7943 4
72.1454 23.1494 4
70.6126 26.2214 3.97742
68.8837 21.9582 3.97805
67.2507 14.6715 4
66.6349 17.9729 3.97655
65.7912 21.0285 3.96653
67.2507 60.3285 0
71.1327 54.0858 2
68.6801 58.3339 2
65.694 62.2255 2
65.3115 58.9955 2
72.1454 51.8506 4
69.9759 56.25 4
68.8343 53.1131 3.97725
64.0165 64.0165 4
66.6087 57.1331 3.97729
63.8832 60.764 3.97697
63.4952 57.7659 3.9677
60.3285 67.2507 4
74.6792 42.3947 2
73.7222 47.2057 2
74.9194 39.9526 4
74.2788 44.8158 4
72.167 42.0857 3.9779
73.0099 49.554 4
71.2477 46.598 3.97699
73.0099 25.446 0
71.1327 20.9142 0
68.6801 16.6661 0
67.8235 19.9265 0.0224192
74.6792 32.6053 2
73.7222 27.7943 2
67.2508 14.6715 2
72.1455 23.1494 2
70.6123 26.222 2
66.6359 17.9776 2
68.884 21.9605 2
65.7903 21.0296 2
74.9197 35.0474 4
74.2794 30.1841 4
72.1837 32.9441 3.97822
71.2768 28.432 3.97732
69.8137 24.0598 3.97785
68.342 26.9537 3.96639
66.7569 22.9357 3.96628
65.694 12.7746 4
65.3211 16.1051 3.97583
64.7075 19.1999 3.96697
63.8364 22.0553 3.96484
71.1327 54.0858 0
65.6939 62.2254 0
68.6801 58.3339 0
65.3102 59.0003 0.0230455
72.1455 51.8506 2
69.9759 56.25 2
68.8344 53.111 2
64.0165 64.0165 2
66.6095 57.1288 2
63.8851 60.7598 2
63.4939 57.7655 2
62.2254 65.694 4
58.8929 65.4132 3.98624
69.7669 50.9889 3.977
67.7817 55.167 3.97742
66.6436 52.2075 3.96607
62.3335 62.425 3.97918
64.655 56.0279 3.9673
62.1971 59.3943 3.96723
61.8028 56.6661 3.96324
58.3339 68.6801 4
60.3285 67.2508 2
73.7221 47.2057 0
74.6784 42.3946 0
74.9197 39.9526 2
74.2794 44.8159 2
72.1663 42.0855 2
73.0099 49.554 2
71.2474 46.5976 2
75 37.5 4
72.4044 39.8025 3.97877
71.7812 44.3529 3.97772
69.8 41.7901 3.9676
70.5733 48.8135 3.97675
68.9073 46.0144 3.96676
74.6792 32.6053 0
73.7222 27.7943 0
67.2507 14.6715 0
72.1454 23.1494 0
70.6126 26.2214 0.0225819
68.8837 21.9582 0.0219501
66.6349 17.9729 0.0234459
65.7912 21.0285 0.0334729
74.9197 35.0474 2
74.2794 30.1841 2
72.1831 32.9444 2
71.2765 28.4325 2
65.694 12.7745 2
65.3227 16.1105 2
69.8137 24.0611 2
68.3417 26.9545 2
64.7065 19.2009 2
66.7564 22.9368 2
63.8366 22.0558 2
72.4122 35.2248 3.97874
71.8027 30.677 3.97797
69.8363 33.2704 3.96773
68.9617 29.0404 3.96679
67.6061 24.9143 3.96621
66.1307 27.6509 3.96731
64.0165 10.9835 4
64.6989 23.8491 3.96578
63.887 14.3299 3.97648
63.5069 17.4555 3.9675
62.8626 20.3419 3.96369
61.9745 22.9869 3.96756
60.6819 11.1008 3.98071
57.608 11.4613 3.97171
72.1454 51.8506 0
69.9759 56.25 0
68.8343 53.1131 0.0227454
64.0165 64.0165 0
63.8832 60.764 0.0230325
66.6087 57.1331 0.0227077
63.4952 57.7659 0.0323005
62.2255 65.694 2
58.8951 65.4107 2
69.7668 50.9878 2
67.7821 55.1638 2
66.6429 52.2067 2
62.3356 62.4211 2
64.6538 56.0272 2
62.196 59.3946 2
61.8048 56.6667 2
60.6667 63.9746 3.98243
57.0238 66.7345 3.98848
57.5553 63.6838 3.97403
67.5018 50.1754 3.96593
65.6961 54.1709 3.96656
64.4709 51.3666 3.96546
60.7685 60.9232 3.97039
62.7847 55.0522 3.96417
60.6456 58.1416 3.96295
60.2754 55.7556 3.96445
56.25 69.9759 4
58.3339 68.6801 2
60.3285 67.2507 0
58.9191 9.65843 3.98274
62.2254 9.30607 4
73.0099 49.554 0
74.2788 44.8158 0
71.2477 46.598 0.0230076
72.167 42.0857 0.0221018
74.9194 39.9526 0
75 37.5 2
72.4042 39.8025 2
71.781 44.3524 2
69.7993 41.7898 2
70.573 48.813 2
68.9071 46.0138 2
72.4877 37.5125 3.97832
70.0376 39.6583 3.96791
69.426 43.9075 3.96731
67.5354 41.4926 3.9697
68.2605 48.1062 3.96616
66.6351 45.4274 3.96879
74.9197 35.0474 0
74.2794 30.1841 0
72.1837 32.9441 0.0217778
71.2768 28.432 0.0226815
65.694 12.7746 0
65.3211 16.1051 0.0241736
69.8137 24.0598 0.0221476
68.342 26.9537 0.0336138
66.7569 22.9357 0.0337185
64.7075 19.1999 0.0330329
63.8364 22.0553 0.0351646
72.4121 35.2248 2
71.8026 30.6776 2
69.8356 33.2709 2
68.9615 29.0411 2
64.0165 10.9835 2
63.8893 14.3352 2
63.5056 17.4564 2
67.6057 24.9152 2
66.1307 27.6514 2
62.8631 20.3423 2
64.6986 23.8498 2
61.9735 22.9877 2
60.6847 11.1049 2
57.6099 11.458 2
70.0543 35.3937 3.96785
69.4631 31.1516 3.96712
67.6011 33.5986 3.96941
66.7088 29.6368 3.96812
65.4617 25.7172 3.96657
63.9897 28.2913 3.97253
62.3389 12.6585 3.97855
62.7239 24.6792 3.96926
62.1931 15.7989 3.96893
61.7832 18.7075 3.96298
61.1104 21.3878 3.96527
60.2383 23.7938 3.97097
59.2411 12.8049 3.96973
55.8712 10.2437 3.9744
56.3975 13.1579 3.9688
69.7669 50.9889 0.0229952
62.2254 65.694 0
58.8929 65.4132 0.0137597
67.7817 55.167 0.0225754
66.6436 52.2075 0.0339291
62.3335 62.425 0.0208211
62.1971 59.3943 0.0327673
64.655 56.0279 0.0327047
61.8028 56.6661 0.0367578
60.6688 63.9717 2
57.0257 66.7332 2
57.556 63.6849 2
67.5013 50.1746 2
65.6951 54.1701 2
64.471 51.3663 2
60.7673 60.9242 2
62.7852 55.0522 2
60.6456 58.1418 2
60.276 55.7557 2
55.0696 67.9315 3.99015
59.2147 62.346 3.97121
55.8025 64.9037 3.97876
56.3196 62.0601 3.97133
65.256 49.3902 3.96652
63.6521 53.2745 3.96462
62.2893 50.6111 3.96823
59.3229 59.5351 3.96584
60.9887 54.2745 3.96624
59.2456 56.9792 3.9627
59.158 55.1417 3.96699
48.1004 68.5761 3.98593
50.9474 69.9314 3.99093
54.0858 71.1327 4
56.25 69.976 2
58.3339 68.6801 0
57.0567 8.33792 3.98508
60.3285 7.74928 4
58.9224 9.66173 2
62.2255 9.30602 2
70.5733 48.8135 0.0232508
71.7812 44.3529 0.0222819
68.9073 46.0144 0.033237
69.8 41.7901 0.0323996
72.4044 39.8025 0.0212295
75 37.5 0
72.4871 37.5125 2
70.0374 39.6582 2
69.4257 43.9071 2
67.5348 41.4924 2
68.2602 48.1055 2
66.634 45.4269 2
70.1256 37.5229 3.96788
67.7782 39.5108 3.96989
67.155 43.4613 3.96945
65.398 41.1963 3.97652
65.9898 47.402 3.96769
64.4712 44.8195 3.97357
72.4122 35.2248 0.0212581
71.8027 30.677 0.0220325
69.8363 33.2704 0.0322661
68.9617 29.0404 0.0332057
64.0165 10.9835 0
63.887 14.3299 0.0235208
63.5069 17.4555 0.0324997
67.6061 24.9143 0.0337948
66.1307 27.6509 0.0326864
64.6989 23.8491 0.0342196
62.8626 20.3419 0.0363137
61.9745 22.9869 0.0324441
60.6819 11.1008 0.0192859
57.608 11.4613 0.0282907
70.0542 35.3939 2
69.4629 31.1522 2
67.6007 33.5989 2
66.7082 29.6373 2
62.3417 12.6633 2
62.1917 15.7995 2
61.7844 18.7076 2
65.4616 25.7178 2
63.9875 28.292 2
61.1089 21.3886 2
62.7225 24.68 2
60.2378 23.7948 2
59.2424 12.805 2
56.3983 13.1554 2
55.8728 10.2437 2
67.8187 35.5523 3.96971
67.2088 31.6332 3.96904
65.5515 33.9427 3.97623
64.5044 30.2221 3.97383
63.3943 26.4534 3.97109
62.0151 28.8325 3.97633
60.7698 14.2441 3.96873
60.838 25.4016 3.97336
60.5965 17.1529 3.96298
60.1286 19.8652 3.96276
59.4829 22.3289 3.96723
58.7341 24.4063 3.9739
54.0352 9.14461 3.97707
57.8999 14.37 3.96777
54.7798 12.0431 3.97196
55.2981 14.7022 3.96576
67.5018 50.1754 0.0340717
57.0238 66.7345 0.0115221
60.6667 63.9746 0.0175695
57.5553 63.6838 0.0259749
65.6961 54.1709 0.0334372
64.4709 51.3666 0.0345415
60.7685 60.9232 0.0296081
60.6456 58.1416 0.0370488
62.7847 55.0522 0.0358302
60.2754 55.7556 0.0355456
55.0712 67.9307 2
59.2151 62.348 2
55.8028 64.9042 2
56.3186 62.0627 2
65.2558 49.3897 2
63.6525 53.2744 2
62.2886 50.6106 2
59.3215 59.5359 2
60.9886 54.2743 2
59.2492 56.9799 2
59.1601 55.1419 2
53.0416 68.9996 3.99069
53.9649 66.0087 3.98168
57.871 60.8415 3.96908
54.6789 63.1954 3.97341
55.198 60.5767 3.96861
63.0265 48.622 3.97004
61.6174 52.5361 3.96716
60.0375 49.9569 3.97046
57.9953 58.2327 3.96413
59.1945 53.8971 3.96806
58.0203 55.7621 3.96272
50.1071 67.8543 3.98517
47.4617 66.5747 3.98152
46.0543 69.1553 3.9865
48.1007 68.5767 2
48.8013 70.7226 3.99119
50.9485 69.931 2
51.8506 72.1454 4
54.0858 71.1327 2
56.25 69.9759 0
55.1016 7.14203 3.98784
58.3339 6.31992 4
57.0595 8.33956 2
60.3286 7.74926 2
58.9191 9.65843 0.0172643
62.2254 9.30607 0
68.2605 48.1062 0.0338441
69.426 43.9075 0.0326948
66.6351 45.4274 0.0312127
67.5354 41.4926 0.0303011
70.0376 39.6583 0.0320854
72.4877 37.5125 0.0216821
70.125 37.5229 2
67.7772 39.5107 2
67.1553 43.461 2
65.3953 41.1958 2
65.9898 47.4016 2
64.469 44.8189 2
67.8794 37.5237 3.96994
65.6354 39.3643 3.97679
65.0102 43.0042 3.97566
63.5056 40.9073 3.977
63.7837 46.6814 3.97166
62.5371 44.1715 3.97642
70.0543 35.3937 0.0321495
69.4631 31.1516 0.0328776
67.6011 33.5986 0.0305864
66.7088 29.6368 0.031881
62.3389 12.6585 0.0214496
62.1931 15.7989 0.0310669
61.7832 18.7075 0.0370216
65.4617 25.7172 0.0334324
63.9897 28.2913 0.0274651
62.7239 24.6792 0.0307448
61.1104 21.3878 0.0347273
60.2383 23.7938 0.0290331
59.2411 12.8049 0.0302684
56.3975 13.1579 0.0311996
55.8712 10.2437 0.025599
67.8174 35.5524 2
67.2091 31.6335 2
65.5484 33.9433 2
64.5021 30.2228 2
60.7698 14.2449 2
60.5959 17.1531 2
60.128 19.8657 2
63.3927 26.4542 2
62.0127 28.8337 2
59.4845 22.3297 2
60.8367 25.4027 2
58.7331 24.4078 2
57.8995 14.3697 2
55.2987 14.7012 2
54.0369 9.14332 2
54.7807 12.0413 2
65.7326 35.6756 3.97657
65.0282 32.1775 3.97508
64.0654 34.2724 3.97671
62.3365 30.6846 3.97662
61.4218 27.1327 3.97459
60.5528 29.2116 3.97679
59.2983 15.6994 3.96591
59.0544 25.8828 3.97621
59.0703 18.4015 3.9619
58.5875 20.9262 3.96362
58.0489 23.1838 3.96872
57.6979 24.7646 3.97493
52.1108 8.15981 3.98015
53.0529 11.0385 3.97326
56.6587 15.7911 3.96625
53.7976 13.73 3.96925
54.351 16.0624 3.96373
55.0696 67.9315 0.00984984
65.256 49.3902 0.033476
55.8025 64.9037 0.0212377
59.2147 62.346 0.0287851
56.3196 62.0601 0.028671
63.6521 53.2745 0.0353806
62.2893 50.6111 0.0317746
59.3229 59.5351 0.0341608
59.2456 56.9792 0.037304
60.9887 54.2745 0.0337585
59.158 55.1417 0.0330131
53.043 68.9991 2
53.9653 66.0093 2
57.8697 60.8428 2
54.6783 63.196 2
55.1974 60.5785 2
63.0253 48.6214 2
61.6174 52.5358 2
60.0378 49.9564 2
57.9943 58.2338 2
59.197 53.8972 2
58.0174 55.761 2
52.0684 66.9968 3.9843
52.9505 64.2091 3.97888
56.6307 59.4557 3.9687
53.6706 61.5945 3.9739
54.2369 59.2796 3.97203
60.7183 47.8189 3.97201
59.5145 52.0459 3.96879
57.7226 49.5357 3.97246
56.7262 56.945 3.96493
56.9536 54.0568 3.96617
50.1073 67.8545 2
49.3355 65.915 3.98157
47.4619 66.5751 2
46.8904 64.7263 3.98028
45.5568 67.0918 3.98175
43.9717 69.5872 3.98709
46.0545 69.1557 2
46.6078 71.3671 3.99139
48.1004 68.5761 0.0140717
48.8024 70.7226 2
49.554 73.0099 4
50.9474 69.9314 0.00907349
51.8506 72.1455 2
54.0858 71.1327 0
53.0638 6.07288 3.99026
55.1039 7.14263 2
56.25 5.02411 4
58.3339 6.3199 2
57.0567 8.33792 0.0149217
60.3285 7.74928 0
65.9898 47.402 0.0323061
67.155 43.4613 0.0305511
64.4712 44.8195 0.0264309
65.398 41.1963 0.02348
67.7782 39.5108 0.0301103
70.1256 37.5229 0.0321223
67.8789 37.5237 2
65.6323 39.3641 2
65.0074 43.0036 2
63.5032 40.907 2
63.7818 46.6807 2
62.535 44.1707 2
65.7432 37.5035 3.97674
63.655 39.2572 3.97699
63.0646 42.5162 3.97646
62.1163 40.6706 3.97672
61.6864 45.8653 3.97433
61.1085 43.6274 3.97621
67.8187 35.5523 0.0302883
67.2088 31.6332 0.0309606
65.5515 33.9427 0.0237677
64.5044 30.2221 0.0261737
60.7698 14.2441 0.0312739
60.5965 17.1529 0.0370163
60.1286 19.8652 0.0372378
63.3943 26.4534 0.0289132
62.0151 28.8325 0.0236692
60.838 25.4016 0.0266384
59.4829 22.3289 0.0327719
58.7341 24.4063 0.0261042
57.8999 14.37 0.0322334
55.2981 14.7022 0.0342412
54.0352 9.14461 0.0229311
54.7798 12.0431 0.028035
65.7296 35.6759 2
65.0257 32.1781 2
64.0627 34.2728 2
62.3345 30.6853 2
59.297 15.6999 2
59.0715 18.4012 2
58.5913 20.9268 2
61.4202 27.1337 2
60.5518 29.2123 2
58.045 23.1859 2
59.0537 25.8842 2
57.6993 24.7668 2
56.6577 15.7904 2
54.3521 16.0634 2
53.7969 13.7234 2
52.112 8.15878 2
53.0542 11.0362 2
63.8615 35.646 3.97685
62.6606 33.0831 3.97647
60.2772 30.6812 3.97625
59.2593 27.9963 3.97657
57.9138 17.028 3.96199
57.4263 25.8343 3.97631
57.6079 19.5449 3.9613
57.1566 21.9364 3.96394
56.8911 24.0591 3.96944
50.1116 7.28914 3.98447
51.2294 10.1376 3.97546
52.1615 12.8309 3.97425
55.5057 17.0323 3.96337
52.958 15.3255 3.96684
53.7238 17.0545 3.96451
53.0416 68.9996 0.00930515
53.9649 66.0087 0.0183204
63.0265 48.622 0.029961
54.6789 63.1954 0.0265875
57.871 60.8415 0.0309153
55.198 60.5767 0.031387
61.6174 52.5361 0.0328368
60.0375 49.9569 0.0295411
57.9953 58.2327 0.0358727
58.0203 55.7621 0.0372803
59.1945 53.8971 0.0319449
52.0687 66.9973 2
52.9503 64.2095 2
56.6297 59.4567 2
53.6693 61.5938 2
54.2363 59.2817 2
60.7178 47.8181 2
59.5155 52.0455 2
57.7196 49.5342 2
56.7245 56.9491 2
56.9506 54.0552 2
51.1662 65.121 3.98067
52.039 62.525 3.97562
55.4493 58.2124 3.96734
52.8153 60.0907 3.97533
53.6073 58.4295 3.97094
57.9218 46.7611 3.9754
57.3187 51.711 3.96905
55.8853 49.4583 3.97119
55.3843 55.7374 3.96529
55.1527 53.3089 3.96328
50.1071 67.8543 0.0148292
49.3356 65.9151 2
48.6155 64.1134 3.98043
47.4617 66.5747 0.0184803
45.557 67.0924 2
46.8907 64.7266 2
46.3783 63.0408 3.98245
45.1311 65.1868 3.97968
43.6301 67.4629 3.98275
41.8594 69.8743 3.98669
43.9718 69.5877 2
44.375 71.8617 3.99149
46.0543 69.1553 0.0135015
46.6086 71.3671 2
47.2057 73.7222 4
48.8013 70.7226 0.00880526
49.554 73.0099 2
51.8506 72.1454 0
50.9544 5.13327 3.99141
53.0654 6.0731 2
54.0858 3.86728 4
55.1016 7.14203 0.012161
56.25 5.02406 2
58.3339 6.31992 0
63.7837 46.6814 0.0283354
65.0102 43.0042 0.0243381
62.5371 44.1715 0.0235811
63.5056 40.9073 0.0229991
65.6354 39.3643 0.02321
67.8794 37.5237 0.030063
65.74 37.5035 2
63.6529 39.2572 2
63.0625 42.5156 2
62.1157 40.6701 2
61.6846 45.8644 2
61.107 43.6269 2
63.7182 37.4585 3.97685
61.8295 39.3395 3.97693
60.8534 41.914 3.97669
59.8847 44.6992 3.97665
65.7326 35.6756 0.0234339
65.0282 32.1775 0.0249245
64.0654 34.2724 0.0232865
62.3365 30.6846 0.0233834
59.2983 15.6994 0.0340869
59.0703 18.4015 0.0380981
58.5875 20.9262 0.0363751
61.4218 27.1327 0.0254069
60.5528 29.2116 0.0232067
59.0544 25.8828 0.0237939
58.0489 23.1838 0.0312805
57.6979 24.7646 0.0250714
56.6587 15.7911 0.0337474
54.351 16.0624 0.0362712
53.7976 13.73 0.0307533
52.1108 8.15981 0.0198504
53.0529 11.0385 0.0267367
63.8593 35.6459 2
62.6592 33.0835 2
60.2768 30.6814 2
57.9127 17.0277 2
57.6146 19.5435 2
57.1545 21.9385 2
59.2582 27.9976 2
56.8985 24.0612 2
57.4264 25.8371 2
50.1125 7.28729 2
55.507 17.0322 2
53.7243 17.051 2
52.9579 15.3223 2
52.1626 12.8343 2
51.231 10.1356 2
61.8702 35.3789 3.97661
59.9045 32.8004 3.9764
58.2206 30.1653 3.97631
56.9187 27.5008 3.97687
56.5825 18.2178 3.96144
55.9594 25.231 3.97531
56.2089 20.612 3.96125
55.8398 22.9878 3.96294
48.0565 6.52972 3.98813
49.3232 9.3407 3.97898
50.4259 12.0191 3.97534
51.3601 14.5447 3.96803
54.3659 17.9952 3.96091
52.3302 17.1244 3.95828
52.0684 66.9968 0.015703
52.9505 64.2091 0.0211186
60.7183 47.8189 0.0279878
53.6706 61.5945 0.0260974
56.6307 59.4557 0.031297
54.2369 59.2796 0.0279719
59.5145 52.0459 0.0312138
57.7226 49.5357 0.027537
56.7262 56.945 0.0350706
56.9536 54.0568 0.0338271
51.1663 65.1215 2
52.0382 62.5261 2
55.4485 58.2136 2
52.8141 60.0943 2
53.6066 58.4312 2
57.9212 46.7601 2
57.3177 51.7098 2
55.8804 49.4567 2
55.3833 55.7374 2
55.1556 53.3095 2
50.3425 63.3707 3.98065
51.2307 60.9071 3.97562
54.1701 57.2246 3.96969
52.2795 58.5859 3.97199
56.1824 44.0708 3.97701
55.0604 47.7874 3.97408
54.7641 51.2984 3.96556
53.8685 54.4803 3.96547
49.3355 65.915 0.0184339
48.6157 64.1133 2
47.9564 62.4625 3.98066
45.5568 67.0918 0.0182469
46.8904 64.7263 0.0197218
43.6302 67.4635 2
46.3786 63.0411 2
45.1314 65.1874 2
45.9821 61.5715 3.98754
44.7646 63.4391 3.97876
43.356 65.4971 3.97988
41.6624 67.6811 3.98225
39.7017 70.02 3.98641
41.8594 69.8748 2
42.1094 72.2063 3.99186
43.9717 69.5872 0.0129097
44.3757 71.8618 2
44.8159 74.2794 4
46.6078 71.3671 0.00860829
47.2057 73.7222 2
49.554 73.0099 0
48.7855 4.3237 3.99231
50.9554 5.13281 2
51.8506 2.85458 4
53.0638 6.07288 0.00974298
54.0858 3.86728 2
56.25 5.02411 0
61.6864 45.8653 0.0256724
63.0646 42.5162 0.0235416
61.1085 43.6274 0.0237912
62.1163 40.6706 0.0232767
63.655 39.2572 0.0230116
65.7432 37.5035 0.0232644
63.7161 37.4584 2
61.8294 39.3396 2
60.8536 41.9137 2
59.8843 44.6984 2
61.6608 37.4441 3.97695
59.8242 39.8171 3.97689
58.5248 42.8465 3.97646
63.8615 35.646 0.023149
62.6606 33.0831 0.0235324
60.2772 30.6812 0.0237495
57.9138 17.028 0.0380085
57.6079 19.5449 0.0386986
57.1566 21.9364 0.0360648
59.2593 27.9963 0.0234258
57.4263 25.8343 0.0236887
56.8911 24.0591 0.0305644
55.5057 17.0323 0.0366305
53.7238 17.0545 0.0354864
52.958 15.3255 0.0331582
50.1116 7.28914 0.0155295
52.1615 12.8309 0.0257477
51.2294 10.1376 0.0245443
61.8701 35.379 2
59.9042 32.8003 2
58.2213 30.1648 2
56.5858 18.2172 2
56.2157 20.609 2
55.8451 22.9913 2
56.9183 27.5021 2
55.9575 25.2349 2
48.057 6.52763 2
49.3244 9.33826 2
54.3682 17.9952 2
52.3278 17.1182 2
51.3585 14.5422 2
50.4278 12.0171 2
59.4644 35.1469 3.9767
57.5077 32.3438 3.97591
56.1018 29.4601 3.97677
55.0267 26.7555 3.97614
55.2575 19.2686 3.9617
54.618 24.2025 3.96671
54.8077 21.6752 3.96041
45.963 5.8835 3.98903
43.3746 7.47589 3.98519
47.3554 8.62875 3.98329
48.5957 11.3089 3.97501
49.6984 13.7731 3.97278
50.6039 16.1907 3.97073
53.0616 18.7553 3.95907
51.2581 18.1683 3.97204
51.1662 65.121 0.019331
52.039 62.525 0.0243793
57.9218 46.7611 0.0245968
52.8153 60.0907 0.0246701
55.4493 58.2124 0.0326625
53.6073 58.4295 0.0290649
57.3187 51.711 0.0309521
55.8853 49.4583 0.0288074
55.3843 55.7374 0.0347118
55.1527 53.3089 0.0367209
50.3422 63.3705 2
51.2292 60.9052 2
54.1707 57.2264 2
52.2781 58.5877 2
56.1828 44.0705 2
55.0586 47.786 2
54.7671 51.2985 2
53.8686 54.4822 2
49.5838 61.7333 3.97816
54.9625 41.6509 3.97441
50.5403 59.2934 3.97035
52.1167 56.4437 3.96796
53.6157 45.4307 3.97444
52.9235 49.2172 3.9692
52.4443 52.7742 3.96157
48.6155 64.1134 0.0195743
47.9562 62.4616 2
47.3191 60.9943 3.98668
43.6301 67.4629 0.0172525
45.1311 65.1868 0.020318
46.3783 63.0408 0.0175523
41.6627 67.6809 2
43.3562 65.498 2
45.9814 61.5723 2
44.7651 63.4395 2
45.7552 60.6166 3.98481
44.4799 61.816 3.98013
43.145 63.7121 3.97873
41.5456 65.6343 3.97835
39.6319 67.7588 3.98192
37.5259 70.0444 3.98512
39.7017 70.0204 2
39.8165 72.4027 3.99161
41.8594 69.8743 0.0133099
42.1101 72.2065 2
42.3947 74.6792 4
44.375 71.8617 0.00851331
44.8159 74.2794 2
47.2057 73.7222 0
43.852 5.36077 3.98848
46.5716 3.64784 3.99256
48.7859 4.32288 2
49.554 1.99015 4
50.9544 5.13327 0.00859163
51.8506 2.85453 2
54.0858 3.86728 0
59.8847 44.6992 0.0233528
60.8534 41.914 0.0233096
61.8295 39.3395 0.0230675
63.7182 37.4585 0.0231547
61.6607 37.444 2
59.8249 39.8168 2
58.5253 42.8461 2
59.3188 37.5665 3.97722
57.4624 40.6085 3.97704
54.3693 39.6652 3.97517
61.8702 35.3789 0.0233909
59.9045 32.8004 0.0235994
58.2206 30.1653 0.0236892
56.5825 18.2178 0.0385622
56.2089 20.612 0.0387452
55.8398 22.9878 0.0370554
56.9187 27.5008 0.0231253
55.9594 25.231 0.0246938
54.3659 17.9952 0.039091
52.3302 17.1244 0.041718
51.3601 14.5447 0.0319655
48.0565 6.52972 0.0118677
49.3232 9.3407 0.0210238
50.4259 12.0191 0.0246624
59.4653 35.1467 2
45.9628 5.88292 2
43.3744 7.47501 2
57.5086 32.3443 2
56.1018 29.4597 2
55.251 19.2706 2
54.8215 21.6771 2
54.6145 24.2056 2
55.0244 26.758 2
47.356 8.62459 2
48.5976 11.3055 2
53.0626 18.7454 2
51.2602 18.1643 2
50.6035 16.1903 2
49.698 13.7745 2
56.8468 34.7975 3.97711
55.1869 31.6151 3.97602
54.0221 28.5615 3.9774
53.4049 25.6747 3.97645
53.8542 20.2365 3.96079
53.3498 22.8601 3.95514
41.3998 7.08168 3.98483
45.361 7.99564 3.98732
42.8668 9.41981 3.98112
46.6657 10.6621 3.98097
47.7331 13.1221 3.9761
48.907 15.441 3.97015
49.9604 17.7552 3.96471
51.5729 19.4477 3.96717
50.3425 63.3707 0.0193451
51.2307 60.9071 0.0243841
56.1824 44.0708 0.0229867
55.0604 47.7874 0.0259234
52.2795 58.5859 0.0280126
54.1701 57.2246 0.0303068
54.7641 51.2984 0.0344437
53.8685 54.4803 0.0345261
49.5826 61.7326 2
54.9556 41.6471 2
50.5387 59.2928 2
52.1192 56.447 2
53.6126 45.429 2
52.9328 49.2168 2
52.4462 52.7746 2
48.8307 60.187 3.97587
51.7566 42.5223 3.98309
49.7399 57.5903 3.96739
50.4534 54.3739 3.96338
51.2822 47.1379 3.97465
50.9033 50.8539 3.95483
47.4346 43.6223 3.97795
47.9564 62.4625 0.0193367
47.3181 60.9937 2
46.6015 59.7825 3.99144
41.6624 67.6811 0.0177519
43.356 65.4971 0.0201155
44.7646 63.4391 0.0212398
45.9821 61.5715 0.0124604
39.6324 67.7596 2
41.5457 65.6332 2
45.7545 60.6171 2
43.1455 63.7127 2
44.479 61.8169 2
44.6116 60.2742 3.99239
42.9476 62.0642 3.97466
41.5997 63.8046 3.9782
39.6471 65.5994 3.97762
37.563 67.739 3.97985
31.6977 65.1154 3.9778
33.3924 67.4768 3.97974
35.3338 69.9545 3.98518
37.5257 70.0455 2
37.509 72.4571 3.99203
39.7017 70.02 0.0135884
39.817 72.403 2
39.9526 74.9197 4
42.1094 72.2063 0.00814266
42.3947 74.6792 2
44.8159 74.2794 0
41.7366 4.96962 3.98883
43.8521 5.35975 2
44.3268 3.11106 3.99288
46.5717 3.64755 2
47.2057 1.27793 4
48.7855 4.3237 0.0076901
49.554 1.99013 2
51.8506 2.85458 0
58.5248 42.8465 0.0235354
59.8242 39.8171 0.0231087
61.6608 37.4441 0.023047
59.3195 37.5674 2
57.4623 40.6093 2
54.3623 39.6699 2
56.2135 37.8818 3.97689
48.7845 41.2319 3.97752
52.3501 39.3042 3.98377
39.4434 6.80535 3.9855
59.4644 35.1469 0.0233019
57.5077 32.3438 0.024094
56.1018 29.4601 0.0232342
55.2575 19.2686 0.0383038
54.8077 21.6752 0.0395859
54.618 24.2025 0.0332894
55.0267 26.7555 0.0238605
53.0616 18.7553 0.0409288
51.2581 18.1683 0.0279614
50.6039 16.1907 0.0292729
45.963 5.8835 0.0109696
49.6984 13.7731 0.0272246
47.3554 8.62875 0.0167104
48.5957 11.3089 0.0249885
43.3746 7.47589 0.0148148
56.8466 34.7984 2
41.3998 7.0808 2
45.3604 7.99537 2
42.8664 9.41955 2
55.1898 31.6136 2
54.0223 28.5606 2
53.857 20.2447 2
53.346 22.8578 2
53.4015 25.6758 2
46.6666 10.6547 2
47.7343 13.1168 2
51.5799 19.4468 2
49.9594 17.7519 2
48.9039 15.4457 2
54.1919 33.9938 3.97531
52.9112 30.6557 3.97651
52.1203 27.3986 3.97491
51.8657 24.2891 3.97821
52.2495 21.1895 3.97095
41.0139 9.05483 3.97988
44.727 9.99495 3.98584
42.4657 10.9047 3.9939
45.9956 12.74 3.97469
47.6597 14.6122 3.97024
48.0672 17.0197 3.96759
49.7651 19.8217 3.97169
49.5838 61.7333 0.0218361
50.5403 59.2934 0.029653
54.9625 41.6509 0.0255916
53.6157 45.4307 0.0255638
52.9235 49.2172 0.0307965
52.1167 56.4437 0.0320379
52.4443 52.7742 0.0384301
48.8285 60.185 2
51.7751 42.5314 2
49.7376 57.5906 2
50.4549 54.3774 2
51.2889 47.1384 2
50.9064 50.8528 2
47.4492 43.6509 2
47.9537 58.7151 3.97855
49.4095 45.1511 3.98053
48.5107 55.8803 3.96297
48.9245 52.5315 3.97631
49.2774 48.9373 3.97249
45.1834 39.8101 3.86429
45.6669 42.5116 3.89927
45.8988 45.6262 3.98308
43.005 41.0359 3.70606
41.6523 41.8688 3.51566
47.3191 60.9943 0.0133248
46.5996 59.7814 2
45.4434 58.7849 3.99288
39.6319 67.7588 0.0180774
41.5456 65.6343 0.0216479
43.145 63.7121 0.021274
44.4799 61.816 0.0198718
45.7552 60.6166 0.015193
41.5999 63.8039 2
37.5633 67.74 2
39.6472 65.6004 2
44.6117 60.275 2
42.9466 62.0649 2
41.7508 62.473 3.97699
42.4731 59.9556 3.97909
39.8942 63.5361 3.97652
37.6421 65.4948 3.9766
35.4634 67.6484 3.97972
33.5756 65.328 3.97635
31.9604 63.2812 3.97626
29.8847 64.7071 3.98061
31.6977 65.1163 2
31.3773 67.1868 3.9802
33.3926 67.4779 2
33.1572 69.7482 3.9853
35.3336 69.9555 2
35.1954 72.3716 3.99199
37.5259 70.0444 0.0148778
37.5091 72.4577 2
37.5 75 4
39.8165 72.4027 0.00839478
39.9526 74.9197 2
42.3947 74.6792 0
39.6244 4.71745 3.98949
41.7367 4.96889 2
42.0632 2.71831 3.99323
43.852 5.36077 0.0115217
44.3269 3.11036 2
44.8158 0.721173 4
46.5716 3.64784 0.00743701
47.2057 1.27779 2
49.554 1.99015 0
57.4624 40.6085 0.022956
59.3188 37.5665 0.02278
54.3693 39.6652 0.0248336
48.8126 41.2498 2
56.2126 37.8793 2
52.3476 39.2713 2
53.2074 36.6239 3.97808
46.7113 40.3258 3.90158
49.7303 38.5115 3.98503
37.5175 6.67625 3.98561
39.4436 6.80377 2
39.2116 8.69649 3.98287
35.9437 8.49586 3.98426
56.8468 34.7975 0.0228921
55.1869 31.6151 0.0239782
54.0221 28.5615 0.0226041
53.8542 20.2365 0.0392111
53.3498 22.8601 0.0448592
53.4049 25.6747 0.023548
51.5729 19.4477 0.032826
49.9604 17.7552 0.03529
48.907 15.441 0.0298541
45.361 7.99564 0.0126815
47.7331 13.1221 0.0238978
46.6657 10.6621 0.0190348
41.3998 7.08168 0.0151685
42.8668 9.41981 0.0188753
54.1894 33.9943 2
41.0141 9.05438 2
44.7251 9.99544 2
42.4659 10.906 2
52.9083 30.6546 2
52.1272 27.3998 2
52.2539 21.1922 2
51.8641 24.2951 2
45.9969 12.729 2
47.6574 14.6042 2
49.7739 19.8208 2
48.0633 17.0188 2
51.71 32.9028 3.98229
50.7271 29.3566 3.97736
50.4104 25.9055 3.97082
49.8065 22.4177 3.98539
40.5669 11.6162 3.98185
43.8521 11.9104 3.97972
45.7775 15.4486 3.98689
47.4644 19.4268 3.97851
45.6334 37.4788 3.8592
48.8307 60.187 0.0241255
49.7399 57.5903 0.0326065
51.7566 42.5223 0.0169141
51.2822 47.1379 0.0253513
50.9033 50.8539 0.0451684
50.4534 54.3739 0.036617
47.4346 43.6223 0.02205
47.9513 58.7176 2
49.4256 45.1641 2
48.5059 55.8824 2
48.9261 52.5374 2
49.2829 48.9375 2
45.2577 39.8254 2
45.697 42.5543 2
45.9087 45.6399 2
43.0381 41.0718 2
41.6831 41.8926 2
46.7875 57.3195 3.97661
43.7395 39.351 3.7081
42.0142 40.7754 3.54527
47.5583 47.1767 3.98166
47.039 54.1929 3.96305
47.3186 50.6773 3.97893
44.3838 47.2573 3.97573
44.3167 41.8552 3.85342
44.3881 44.3736 3.90389
41.9844 42.4836 3.74115
40.6394 42.1705 3.52168
46.6015 59.7825 0.00856243
45.4427 58.7829 2
43.8509 57.6792 3.98019
37.563 67.739 0.0201543
39.6471 65.5994 0.0223833
41.5997 63.8046 0.0218016
42.9476 62.0642 0.0253404
44.6116 60.2742 0.00761234
35.4637 67.6493 2
41.75 62.4757 2
39.894 63.5369 2
37.6421 65.4956 2
42.474 59.9549 2
40.6217 61.6175 3.97955
40.4362 58.1432 3.97945
37.8378 63.1922 3.97447
35.5729 65.4173 3.97698
33.5758 65.3289 2
31.9605 63.2826 2
33.6297 63.3195 3.97494
30.3795 62.842 3.97983
32.127 61.984 3.98525
26.8772 61.4725 3.97729
28.065 64.1357 3.97823
29.8844 64.7081 2
29.4073 66.7508 3.98114
31.6977 65.1154 0.0222048
31.3775 67.1877 2
31.015 69.4133 3.98503
33.3924 67.4768 0.0202578
33.157 69.7491 2
32.8932 72.146 3.99163
35.3338 69.9545 0.014818
35.1951 72.3722 2
35.0474 74.9194 4
37.509 72.4571 0.00796623
37.5 75 2
39.9526 74.9197 0
35.6221 6.72729 3.98528
37.5242 4.61685 3.98962
39.6245 4.71609 2
39.7897 2.47499 3.99317
41.7366 4.96962 0.011173
42.0631 2.71782 2
42.3946 0.32156 4
44.3268 3.11106 0.00712013
44.8159 0.72056 2
47.2057 1.27793 0
48.7845 41.2319 0.0224843
56.2135 37.8818 0.023109
52.3501 39.3042 0.0162343
46.7378 40.3215 2
49.7318 38.5075 2
53.2067 36.6425 2
50.5325 35.5703 3.97474
47.3814 37.7702 3.91635
45.2014 35.1663 3.86268
43.0312 33.9275 3.70304
41.6775 33.0993 3.5139
37.4591 8.53738 3.98464
37.5175 6.67508 2
39.4434 6.80535 0.0144978
39.2122 8.69462 2
38.9766 10.132 3.9836
35.8999 9.77811 3.98013
34.1533 8.82757 3.98219
35.9436 8.49372 2
54.1919 33.9938 0.0246881
52.9112 30.6557 0.0234859
52.1203 27.3986 0.0250871
52.2495 21.1895 0.0290524
51.8657 24.2891 0.0217924
49.7651 19.8217 0.0283115
48.0672 17.0197 0.0324077
47.6597 14.6122 0.0297583
44.727 9.99495 0.0141633
45.9956 12.74 0.0253067
41.0139 9.05483 0.0201163
42.4657 10.9047 0.0061015
51.7166 32.9002 2
40.5686 11.6173 2
43.8506 11.9141 2
50.7494 29.3546 2
50.4106 25.9079 2
49.8077 22.4169 2
45.771 15.4162 2
47.4674 19.4496 2
49.2822 31.5313 3.98759
48.802 27.6739 3.97838
49.127 24.5644 3.97633
47.1067 22.1872 3.98749
38.3009 12.745 3.97706
42.0914 14.3084 3.97988
44.7732 18.5702 3.97519
44.1493 37.4859 3.71726
45.7236 37.4828 2
47.9537 58.7151 0.0214531
48.5107 55.8803 0.0370325
49.4095 45.1511 0.0194717
49.2774 48.9373 0.0275059
48.9245 52.5315 0.0236865
45.1834 39.8101 0.135705
45.6669 42.5116 0.100726
45.8988 45.6262 0.0169185
43.005 41.0359 0.293944
41.6523 41.8688 0.48434
46.7841 57.3217 2
43.7945 39.375 2
42.0158 40.7897 2
47.5659 47.1784 2
47.0336 54.1973 2
47.3209 50.6884 2
44.4097 47.2377 2
44.3523 41.884 2
44.4315 44.3969 2
42.0357 42.5284 2
40.6663 42.1794 2
45.3268 55.9022 3.99378
42.3555 39.2287 3.55515
40.5255 40.6547 3.66092
45.7404 48.8257 4.00155
45.3462 52.4647 3.98072
43.1186 48.2471 3.99354
43.0311 45.8925 3.89541
43.1379 43.622 3.8388
40.7467 43.5296 3.71853
39.1954 42.4332 3.5514
45.4434 58.7849 0.00712347
43.8486 57.6841 2
42.0778 56.2655 3.985
35.4634 67.6484 0.0202838
37.6421 65.4948 0.0234018
39.8942 63.5361 0.0234779
41.7508 62.473 0.0230093
42.4731 59.9556 0.0209149
35.5732 65.418 2
40.6219 61.6162 2
37.838 63.1924 2
40.4369 58.1422 2
38.9107 56.4319 3.99462
38.2498 60.3033 3.97994
35.6076 63.1864 3.97475
33.5756 65.328 0.0236526
31.9604 63.2812 0.023745
33.63 63.3207 2
30.3796 62.8429 2
32.1277 61.9854 2
28.6863 62.1794 3.97974
33.3476 61.491 3.97703
31.0744 61.2061 3.98043
27.5851 59.564 3.97967
23.816 59.0517 3.98778
25.0448 60.8461 3.97724
26.8776 61.4725 2
26.2334 63.4647 3.97737
28.0649 64.1343 2
27.4642 66.1753 3.98058
29.8847 64.7071 0.0193876
29.4072 66.751 2
28.9076 68.939 3.98465
31.3773 67.1868 0.0197974
31.0147 69.4139 2
30.6161 71.7773 3.99107
33.1572 69.7482 0.0147023
32.8926 72.1464 2
32.6054 74.6784 4
35.1954 72.3716 0.00801253
35.0474 74.9197 2
37.5 75 0
33.7251 6.98322 3.98411
35.4363 4.68697 3.98945
35.6221 6.72601 2
37.5154 2.38744 3.99323
37.5242 4.61593 2
39.6244 4.71745 0.0105134
39.7894 2.47425 2
39.9526 0.0806499 4
42.0632 2.71831 0.00677108
42.3947 0.320817 2
44.8158 0.721173 0
43.7503 35.6217 3.71013
42.0299 34.1882 3.53661
46.7113 40.3258 0.0984218
49.7303 38.5115 0.0149693
53.2074 36.6239 0.0219201
47.3781 37.7344 2
50.5399 35.5631 2
45.2687 35.1428 2
43.0699 33.8891 2
41.7044 33.0754 2
47.5708 34.3192 3.94857
44.3504 33.1024 3.84001
42.02 32.4874 3.73772
40.6616 32.8082 3.52019
37.3116 10.6346 3.98126
37.4595 8.53595 2
37.5175 6.67625 0.014389
39.2116 8.69649 0.0171267
38.9786 10.1305 2
34.756 10.3873 3.981
35.9007 9.77404 2
32.3804 9.37493 3.97867
34.1521 8.82428 2
35.9437 8.49586 0.015745
51.71 32.9028 0.0177124
50.7271 29.3566 0.0226437
50.4104 25.9055 0.0291788
49.8065 22.4177 0.014613
47.4644 19.4268 0.0214945
45.7775 15.4486 0.0131123
43.8521 11.9104 0.0202779
40.5669 11.6162 0.0181543
49.3006 31.5269 2
38.3013 12.7424 2
42.0945 14.3162 2
48.8115 27.6759 2
49.1279 24.5622 2
47.0966 22.1758 2
44.7747 18.6207 2
47.1664 29.6652 3.98655
46.8144 25.2998 3.97159
44.2335 21.5563 3.97909
36.585 12.9524 3.97458
38.682 14.8442 3.97503
41.7382 17.9119 3.97768
42.5035 37.4714 3.58915
44.1998 37.4849 2
45.6334 37.4788 0.140796
46.7875 57.3195 0.0233938
47.039 54.1929 0.0369515
47.5583 47.1767 0.0183429
47.3186 50.6773 0.0210676
43.7395 39.351 0.291902
44.3167 41.8552 0.146579
44.3881 44.3736 0.0961055
44.3838 47.2573 0.0242742
41.9844 42.4836 0.258851
42.0142 40.7754 0.454732
40.6394 42.1705 0.478325
45.3219 55.9041 2
42.3536 39.2332 2
40.5459 40.6387 2
45.7443 48.843 2
45.3422 52.466 2
43.1377 48.2667 2
43.0831 45.9335 2
43.1844 43.6533 2
40.7805 43.5871 2
39.1929 42.4451 2
43.6523 54.3751 3.99786
40.6312 39.0834 3.67661
39.083 40.7258 3.63434
43.4444 50.3264 4.00448
41.7453 47.4169 3.93148
41.6571 44.9934 3.85146
39.3381 44.1862 3.69244
37.5023 42.5352 3.58631
43.8509 57.6792 0.0198107
42.0783 56.2633 2
40.3865 54.8424 3.99255
35.5729 65.4173 0.0230165
37.8378 63.1922 0.0255284
40.6217 61.6175 0.02045
40.4362 58.1432 0.0205533
35.6078 63.1863 2
38.2499 60.304 2
38.9123 56.4233 2
37.9871 55.1231 3.99421
36.9339 57.601 3.99155
35.3653 60.8913 3.97851
33.6297 63.3195 0.0250623
30.3795 62.842 0.0201745
32.127 61.984 0.014746
33.3484 61.4922 2
28.6865 62.181 2
31.0753 61.2079 2
29.416 60.261 3.97603
32.3654 59.7132 3.98895
28.0519 58.3468 4.00295
27.5873 59.564 2
25.4041 58.5683 3.97951
22.7953 58.2053 3.96843
23.4136 60.3182 3.97913
23.8179 59.0519 2
25.0455 60.8454 2
24.4382 62.7538 3.97712
26.8772 61.4725 0.0227142
26.2339 63.4656 2
25.5491 65.4831 3.97895
28.065 64.1357 0.0217708
27.4644 66.1752 2
26.8372 68.3277 3.98475
29.4073 66.7508 0.0188627
28.9072 68.939 2
28.3713 71.2626 3.99054
31.015 69.4133 0.0149714
30.6152 71.7774 2
30.1842 74.2788 4
32.8932 72.146 0.00837036
32.6053 74.6792 2
35.0474 74.9194 0
31.7898 7.42307 3.98258
33.3489 4.92668 3.98857
33.7247 6.98102 2
35.2457 2.46339 3.99321
35.4361 4.68629 2
35.6221 6.72729 0.0147215
37.5 0 4
37.5149 2.38697 2
37.5242 4.61685 0.0103818
39.7897 2.47499 0.00682935
39.9526 0.0802889 2
42.3946 0.32156 0
42.348 35.7139 3.54813
43.818 35.5914 2
40.5518 34.3179 3.66063
42.0268 34.1722 2
47.3814 37.7702 0.0836476
50.5325 35.5703 0.0252552
45.2014 35.1663 0.137318
43.0312 33.9275 0.296964
41.6775 33.0993 0.486105
47.5879 34.3427 2
44.3859 33.0802 2
42.0732 32.4396 2
40.6874 32.7985 2
45.6511 31.7188 3.912
43.1717 31.3475 3.83399
40.7746 31.4471 3.71863
39.2125 32.5609 3.54816
35.6951 11.7841 3.97814
37.3141 10.6321 2
37.4591 8.53738 0.015357
38.9766 10.132 0.016403
33.1014 11.2269 3.97439
34.755 10.3816 2
35.8999 9.77811 0.0198659
30.4854 10.0248 3.97866
32.3791 9.37351 2
34.1533 8.82757 0.0178106
49.2822 31.5313 0.0124068
48.802 27.6739 0.0216226
49.127 24.5644 0.0236746
47.1067 22.1872 0.0125136
44.7732 18.5702 0.0248094
42.0914 14.3084 0.0201163
38.3009 12.745 0.0229396
36.582 12.9359 2
47.1825 29.6168 2
38.6797 14.8254 2
41.7302 17.9085 2
46.8186 25.296 2
44.2225 21.5345 2
45.1053 27.8024 4.00497
43.6286 24.2319 4.02582
41.3027 20.9208 3.98333
35.7735 14.7925 3.97671
38.6762 17.645 3.9803
40.6865 37.4615 3.69049
42.5114 37.4753 2
44.1493 37.4859 0.282736
45.3268 55.9022 0.00622009
45.3462 52.4647 0.0192843
45.7404 48.8257 -0.00154791
42.3555 39.2287 0.444852
43.1379 43.622 0.1612
43.0311 45.8925 0.104594
43.1186 48.2471 0.00646229
40.7467 43.5296 0.281473
40.5255 40.6547 0.339084
39.1954 42.4332 0.448599
43.6486 54.3714 2
40.6308 39.0819 2
39.085 40.7163 2
43.4381 50.3456 2
41.7414 47.4491 2
41.6819 45.035 2
37.4993 42.5508 2
39.3529 44.2428 2
41.809 52.8654 3.99731
39.0949 39.1095 3.64969
37.5054 40.7792 3.65873
35.8125 42.4416 3.55191
40.8362 49.4863 3.99499
39.7512 45.7669 3.82753
37.5014 44.4372 3.71793
42.0778 56.2655 0.0150022
40.383 54.8508 2
38.7224 53.6787 3.99561
35.6076 63.1864 0.0252501
38.2498 60.3033 0.0200587
38.9107 56.4319 0.00537808
35.3657 60.8904 2
36.935 57.6004 2
37.9875 55.1254 2
36.3217 55.186 3.99456
34.4944 58.4973 3.99171
33.3476 61.491 0.0229701
28.6863 62.1794 0.0202646
31.0744 61.2061 0.0195732
32.3666 59.7167 2
29.4173 60.2603 2
30.3257 57.7852 3.98479
28.0546 58.3463 2
27.0052 56.8004 3.96758
27.5851 59.564 0.0203337
25.4069 58.5686 2
23.9078 56.7654 3.96039
21.3928 57.354 3.96081
22.0125 59.5861 3.97371
22.7972 58.2066 2
22.7437 62.0053 3.97452
23.4144 60.3177 2
23.816 59.0517 0.0122157
25.0448 60.8461 0.0227604
24.4388 62.7556 2
23.6842 64.6991 3.97717
26.2334 63.4647 0.0226331
25.5492 65.4846 2
24.8097 67.5884 3.98375
27.4642 66.1753 0.0194224
26.8369 68.3283 2
26.1664 70.6036 3.99056
28.9076 68.939 0.0153489
28.3704 71.2625 2
27.7943 73.7221 4
30.6161 71.7773 0.00893181
30.1841 74.2794 2
32.6054 74.6784 0
29.8125 7.99792 3.98118
31.2544 5.33354 3.98758
31.789 7.42143 2
32.9817 2.70164 3.99284
33.3483 4.92532 2
33.7251 6.98322 0.015892
35.0474 0.080333 4
35.2452 2.46314 2
35.4363 4.68697 0.0105508
37.5 0 2
37.5154 2.38744 0.00676567
39.9526 0.0806499 0
40.6593 35.8587 3.67637
42.3482 35.7158 2
43.7503 35.6217 0.289867
28.5457 10.6998 3.978
39.09 34.2678 3.63334
40.5572 34.3306 2
42.0299 34.1882 0.463392
47.5708 34.3192 0.0514265
44.3504 33.1024 0.159987
42.02 32.4874 0.262278
40.6616 32.8082 0.479813
45.6839 31.6992 2
43.2137 31.3145 2
40.812 31.3889 2
39.216 32.5517 2
43.9831 29.9179 3.9077
41.666 29.9739 3.85334
39.3604 30.8003 3.69087
37.5264 32.4704 3.58563
34.0973 12.9514 3.97392
35.6941 11.774 2
37.3116 10.6346 0.0187421
31.1901 11.9957 3.97786
33.101 11.2253 2
34.756 10.3873 0.0189972
30.4837 10.0222 2
32.3804 9.37493 0.0213287
47.1664 29.6652 0.0134457
46.8144 25.2998 0.0284106
36.585 12.9524 0.025422
44.2335 21.5563 0.0209119
41.7382 17.9119 0.0223211
38.682 14.8442 0.0249699
35.7756 14.7984 2
45.1081 27.8007 2
38.6723 17.6519 2
41.2907 20.9149 2
43.6247 24.2154 2
33.6125 15.9009 3.97993
42.7822 26.6448 3.99013
40.8066 23.5086 3.99794
38.4048 20.4134 3.99306
35.8476 17.5478 3.97923
39.1095 37.4865 3.66728
40.6799 37.4636 2
42.5035 37.4714 0.410854
43.6523 54.3751 0.00214368
43.4444 50.3264 -0.00447808
40.6312 39.0834 0.323385
41.6571 44.9934 0.148544
41.7453 47.4169 0.068522
39.3381 44.1862 0.307555
39.083 40.7258 0.365665
37.5023 42.5352 0.41369
41.7976 52.8697 2
39.0885 39.0958 2
37.5036 40.7649 2
40.8288 49.5076 2
35.8099 42.4511 2
39.7702 45.8217 2
37.492 44.488 2
39.7461 51.6846 4.00227
37.5077 39.1155 3.68256
35.9334 40.7395 3.63474
34.3656 42.1873 3.52256
35.669 44.2016 3.68389
38.6656 48.4127 3.94519
37.5214 46.0555 3.85394
40.3865 54.8424 0.00744501
38.7225 53.6649 2
36.7486 52.9809 3.99697
35.3653 60.8913 0.0214914
36.9339 57.601 0.00845435
37.9871 55.1231 0.00578802
34.4952 58.4959 2
36.3234 55.1825 2
33.2525 55.376 3.99194
32.3654 59.7132 0.0110468
29.416 60.261 0.0239725
30.3286 57.783 2
28.7845 55.2834 3.98332
28.0519 58.3468 -0.00295231
27.0077 56.8002 2
25.4198 55.097 3.96172
21.9193 55.2938 3.9603
25.4041 58.5683 0.0204875
23.9097 56.7676 2
20.2674 56.985 3.96348
20.6708 58.739 3.97031
21.3946 57.3554 2
21.1772 61.1409 3.9743
22.0136 59.5866 2
22.7953 58.2053 0.0315692
21.8989 63.8257 3.977
22.7445 62.0066 2
23.4136 60.3182 0.0208714
24.4382 62.7538 0.022881
23.6843 64.7001 2
22.8384 66.7309 3.9817
25.5491 65.4831 0.0210486
24.8094 67.5894 2
24.0106 69.8048 3.9904
26.8372 68.3277 0.0152484
26.1653 70.6037 2
25.446 73.0099 4
28.3713 71.2626 0.00946105
27.7943 73.7222 2
30.1842 74.2788 0
27.8222 8.65758 3.98119
29.1566 5.87986 3.98605
29.8113 7.99565 2
30.7272 3.09854 3.99258
31.2536 5.33214 2
31.7898 7.42307 0.0174182
32.6053 0.320823 4
32.9809 2.70111 2
33.3489 4.92668 0.0114307
35.0474 0.0802903 2
35.2457 2.46339 0.0067896
37.5 0 0
39.0901 35.8753 3.65519
40.6432 35.86 2
42.348 35.7139 0.451867
28.5442 10.6981 2
26.6241 11.3962 3.97823
29.2299 12.6498 3.98058
37.5168 34.2289 3.65716
39.0997 34.2841 2
40.5518 34.3179 0.339366
45.6511 31.7188 0.0879978
43.1717 31.3475 0.166013
40.7746 31.4471 0.281368
39.2125 32.5609 0.451842
44.0119 29.8899 2
41.6944 29.9356 2
39.3669 30.7431 2
37.5267 32.4545 2
42.0961 28.6104 3.88017
39.7431 29.2092 3.84786
37.5219 30.5696 3.71571
35.8308 32.5664 3.55234
31.9223 14.4946 3.97958
34.0976 12.9526 2
35.6951 11.7841 0.0218561
31.1891 11.9919 2
33.1014 11.2269 0.0256076
30.4854 10.0248 0.0213412
45.1053 27.8024 -0.00497049
43.6286 24.2319 -0.0258243
35.7735 14.7925 0.0232931
41.3027 20.9208 0.0166694
38.6762 17.645 0.019697
33.6097 15.8947 2
35.8438 17.5488 2
42.7936 26.637 2
38.3893 20.4549 2
40.7931 23.4843 2
33.5525 17.4227 3.98092
40.2275 25.8878 3.95677
38.044 23.229 3.99987
35.5805 20.1385 3.99211
37.5109 37.4931 3.69905
39.1016 37.4817 2
40.6865 37.4615 0.309514
41.809 52.8654 0.00268851
40.8362 49.4863 0.00500576
39.0949 39.1095 0.350311
39.7512 45.7669 0.172466
37.5014 44.4372 0.282071
37.5054 40.7792 0.341269
35.8125 42.4416 0.448088
39.7371 51.693 2
37.509 39.1088 2
35.9309 40.7281 2
38.6776 48.466 2
34.3403 42.1967 2
35.6471 44.2592 2
37.5175 46.1064 2
37.675 50.7113 3.99743
35.9306 39.1243 3.65426
34.4896 40.6794 3.66299
33.3474 41.889 3.51771
34.2554 43.5398 3.71549
35.2196 45.7787 3.84433
36.9249 48.0204 3.91152
38.7224 53.6787 0.00439316
36.7569 52.9778 2
34.4315 52.3103 3.9992
34.4944 58.4973 0.00828937
36.3217 55.186 0.00543794
33.2563 55.3809 2
30.6219 53.2797 3.99841
30.3257 57.7852 0.0152132
28.7865 55.2827 2
27.0407 53.3854 3.96152
27.0052 56.8004 0.0324246
25.4217 55.1 2
23.7552 53.4138 3.95751
20.6899 53.1429 3.95936
20.0173 55.78 3.96244
21.9166 55.2962 2
23.9078 56.7654 0.0396113
19.469 57.8502 3.96719
20.2664 56.9866 2
19.7195 60.1623 3.97142
20.6703 58.7402 2
21.3928 57.354 0.0391914
20.2127 62.8466 3.97353
21.178 61.1425 2
22.0125 59.5861 0.0262902
20.94 65.7586 3.97988
21.8989 63.827 2
22.7437 62.0053 0.0254801
23.6842 64.6991 0.0228309
22.838 66.7314 2
21.9133 68.8719 3.98974
24.8097 67.5884 0.0162532
24.0092 69.8046 2
23.1494 72.1454 4
26.1664 70.6036 0.00943803
25.446 73.0099 2
27.7943 73.7221 0
25.8613 9.38664 3.98026
27.0713 6.54403 3.98489
27.8208 8.65618 2
28.4896 3.64442 3.99181
29.1556 5.87842 2
29.8125 7.99792 0.0188218
30.1841 0.720592 4
30.726 3.0981 2
31.2544 5.33354 0.0124225
32.6053 0.320817 2
32.9817 2.70164 0.00715822
35.0474 0.080333 0
37.5103 35.8765 3.68003
39.0761 35.8777 2
40.6593 35.8587 0.323631
24.7802 12.0841 3.97688
23.7596 14.3783 3.97521
28.5457 10.6998 0.0220021
26.6226 11.3945 2
29.2287 12.6483 2
27.2971 13.3831 3.97895
29.7892 14.2106 3.98094
35.9375 34.2717 3.6339
37.5231 34.2441 2
39.09 34.2678 0.366662
37.5264 32.4704 0.414366
43.9831 29.9179 0.0923025
41.666 29.9739 0.146658
39.3604 30.8003 0.309131
42.1248 28.5612 2
39.76 29.1578 2
37.5244 30.5159 2
35.8305 32.5549 2
39.9103 27.8449 3.88539
37.494 28.9432 3.85088
35.6884 30.8192 3.69541
34.3848 32.8211 3.52323
30.9367 16.8542 3.98425
31.9207 14.4879 2
34.0973 12.9514 0.0260839
31.1901 11.9957 0.02214
42.7822 26.6448 0.00987278
40.8066 23.5086 0.00206101
33.6125 15.9009 0.0200669
35.8476 17.5478 0.0207658
38.4048 20.4134 0.00694486
33.5479 17.4333 2
35.5857 20.1364 2
40.2904 25.8834 2
38.0243 23.1891 2
32.8766 19.8249 3.99361
37.6611 25.5382 3.97039
35.2136 22.8926 3.99956
35.9126 37.4944 3.66925
37.507 37.4933 2
39.1095 37.4865 0.332724
39.7461 51.6846 -0.00227495
38.6656 48.4127 0.0548061
37.5077 39.1155 0.317441
37.5214 46.0555 0.146065
35.669 44.2016 0.316108
35.9334 40.7395 0.365256
34.3656 42.1873 0.477444
37.664 50.7409 2
35.943 39.1113 2
34.469 40.6666 2
36.9049 48.0757 2
33.3158 41.9127 2
34.2255 43.595 2
35.1994 45.827 2
35.5447 49.893 3.98553
34.3835 39.1218 3.67652
32.9931 40.8001 3.54112
33.0129 42.4992 3.7429
33.3715 45.0005 3.8458
34.4202 47.1556 3.88374
36.7486 52.9809 0.00302656
34.428 52.3175 2
32.1705 51.0904 4.01811
33.2525 55.376 0.00806237
30.6245 53.2837 2
28.6261 51.5082 3.9907
28.7845 55.2834 0.0166824
27.0424 53.3878 2
25.3175 51.6601 3.95474
25.4198 55.097 0.0382832
23.7539 53.4185 2
22.2444 51.7106 3.95185
19.5165 51.5392 3.96105
19.088 54.2403 3.96195
20.6889 53.1424 2
18.5024 56.6785 3.96355
20.0148 55.7817 2
21.9193 55.2938 0.0396996
18.3863 59.0734 3.96892
19.4685 57.8512 2
20.2674 56.985 0.0365179
18.627 61.7357 3.97176
19.7201 60.1643 2
20.6708 58.739 0.0296911
19.1291 64.6679 3.97887
20.2129 62.8474 2
21.1772 61.1409 0.0256967
19.8875 67.8084 3.98894
20.9394 65.7592 2
21.8989 63.8257 0.0230011
22.8384 66.7309 0.0183019
21.9116 68.8712 2
20.9142 71.1327 4
24.0106 69.8048 0.00959601
23.1494 72.1455 2
25.446 73.0099 0
23.1013 12.8008 3.97697
23.9741 10.176 3.97817
25.0249 7.31487 3.98367
25.8597 9.3854 2
26.2814 4.32852 3.99112
27.07 6.54316 2
27.8222 8.65758 0.0188147
27.7943 1.27781 4
28.4879 3.64427 2
29.1566 5.87986 0.0139534
30.1841 0.720551 2
30.7272 3.09854 0.00742088
32.6053 0.320823 0
35.9204 35.8707 3.64749
37.5194 35.8867 2
39.0901 35.8753 0.344813
24.7774 12.0804 2
23.7597 14.3817 2
22.4912 15.0594 3.9805
25.3645 13.924 3.97332
24.0434 15.6402 3.98368
26.6241 11.3962 0.0217706
29.2299 12.6498 0.0194216
27.2972 13.3811 2
29.786 14.2083 2
28.3713 15.9822 3.98225
34.5011 34.3352 3.66027
35.9339 34.2804 2
37.5168 34.2289 0.342837
35.8308 32.5664 0.44766
37.5219 30.5696 0.284294
42.0961 28.6104 0.11983
39.7431 29.2092 0.152139
39.9369 27.8062 2
37.4917 28.8885 2
35.6714 30.7553 2
34.3563 32.8148 2
37.5972 27.5798 3.89122
35.2521 29.2298 3.84775
34.2675 31.4673 3.71516
33.3651 33.1165 3.51599
30.2232 19.4029 3.98271
30.9326 16.8445 2
31.9223 14.4946 0.0204209
40.2275 25.8878 0.043227
38.044 23.229 0.000128393
33.5525 17.4227 0.0190825
35.5805 20.1385 0.00788512
32.8729 19.8381 2
35.2095 22.8803 2
37.7224 25.5148 2
32.3735 22.5523 3.9958
35.0738 25.4566 3.99608
34.3339 37.509 3.69226
35.9161 37.4988 2
37.5109 37.4931 0.300948
37.675 50.7113 0.00256739
36.9249 48.0204 0.0884796
35.9306 39.1243 0.34574
35.2196 45.7787 0.155674
34.2554 43.5398 0.284511
34.4896 40.6794 0.337009
33.3474 41.889 0.482291
35.5334 49.9029 2
34.3883 39.118 2
32.9916 40.813 2
34.4164 47.2009 2
32.9711 42.5442 2
33.3465 45.0409 2
33.3731 48.9529 3.97699
32.6652 39.2666 3.55089
31.9901 41.0574 3.70532
31.8545 43.6381 3.83847
32.5593 46.1289 3.88673
34.4315 52.3103 0.000797988
32.1735 51.102 2
30.1411 49.6702 4.00242
30.6219 53.2797 0.00159385
28.626 51.5035 2
26.8113 49.8804 3.96894
27.0407 53.3854 0.0384773
25.3153 51.6594 2
23.6801 50.0727 3.96181
23.7552 53.4138 0.0424871
22.2433 51.7092 2
20.8306 50.2034 3.96491
18.3176 50.2362 3.96888
18.0891 52.7106 3.96363
19.5147 51.5384 2
17.5624 55.2827 3.96259
19.0833 54.2406 2
20.6899 53.1429 0.0406401
17.162 57.8381 3.96295
18.501 56.6791 2
20.0173 55.78 0.0375614
17.1459 60.5139 3.96728
18.3864 59.0742 2
19.469 57.8502 0.0328133
17.4106 63.4582 3.97271
18.6275 61.7364 2
19.7195 60.1623 0.0285797
17.9438 66.6166 3.98726
19.1286 64.6679 2
20.2127 62.8466 0.0264733
18.75 69.9759 4
19.8856 67.8072 2
20.94 65.7586 0.0201224
21.9133 68.8719 0.0102625
20.9142 71.1327 2
23.1494 72.1454 0
21.595 13.6276 3.97666
22.1926 11.0384 3.97534
23.0997 12.8043 2
23.0426 8.18154 3.98193
23.9719 10.1741 2
24.119 5.14333 3.99051
25.0233 7.31416 2
25.8613 9.38664 0.0197444
25.446 1.99014 4
26.2793 4.32884 2
27.0713 6.54403 0.0151137
27.7943 1.27778 2
28.4896 3.64442 0.00819055
30.1841 0.720592 0
34.394 35.8929 3.67538
35.9295 35.8852 2
37.5103 35.8765 0.319965
21.3241 15.8646 3.98331
24.7802 12.0841 0.0231248
23.7596 14.3783 0.0247852
25.3637 13.9165 2
22.492 15.0591 2
24.0451 15.645 2
23.2892 16.2692 3.97311
25.3995 16.1106 3.98275
27.2971 13.3831 0.0210538
29.7892 14.2106 0.0190616
28.3669 15.9872 2
27.4615 18.8371 3.98063
33.0022 34.2125 3.54606
34.481 34.3505 2
35.9375 34.2717 0.366097
34.3848 32.8211 0.476768
35.6884 30.8192 0.304592
37.494 28.9432 0.149125
39.9103 27.8449 0.114608
37.5731 27.5429 2
33.338 33.0953 2
35.2521 29.1696 2
34.2288 31.4073 2
35.1487 27.6756 3.89677
33.3689 30.0006 3.84718
33.0365 32.5029 3.73259
29.6794 22.0041 4.00006
30.2234 19.407 2
30.9367 16.8542 0.0157548
37.6611 25.5382 0.0296062
35.2136 22.8926 0.000436298
32.8766 19.8249 0.00638601
32.3771 22.5448 2
35.1051 25.4482 2
31.9236 25.805 4.00511
32.5049 37.5083 3.58986
34.3485 37.5052 2
35.9126 37.4944 0.330751
35.5447 49.893 0.0144696
34.4202 47.1556 0.116258
34.3835 39.1218 0.323481
33.3715 45.0005 0.154195
33.0129 42.4992 0.257096
32.9931 40.8001 0.458884
33.3631 48.9518 2
32.676 39.2701 2
31.9527 41.0924 2
32.5197 46.1735 2
31.8131 43.6692 2
31.4818 47.7991 3.9798
31.2694 39.3704 3.71031
30.6751 41.8891 3.84449
30.9013 44.7596 3.90265
32.1705 51.0904 -0.0181094
30.1439 49.6935 2
28.269 48.0562 3.96027
28.6261 51.5082 0.009296
26.81 49.8812 2
25.0667 48.3317 3.96732
25.3175 51.6601 0.0452573
23.6791 50.0711 2
22.102 48.6575 3.97123
22.2444 51.7106 0.0481463
20.8284 50.2021 2
19.4174 48.9853 3.97312
17.2 49.247 3.97429
17.0413 51.3279 3.9679
18.3198 50.2347 2
16.5612 53.8075 3.96487
18.0878 52.71 2
19.5165 51.5392 0.0389458
16.0394 56.4356 3.96273
17.5584 55.2834 2
19.088 54.2403 0.0380537
15.7612 59.1832 3.96749
17.1624 57.8388 2
18.5024 56.6785 0.0364541
15.7927 62.113 3.97016
17.1463 60.5156 2
18.3863 59.0734 0.0310773
16.0906 65.2986 3.98576
17.4096 63.4599 2
18.627 61.7357 0.0282391
16.6661 68.6801 4
17.9417 66.615 2
19.1291 64.6679 0.0211305
18.75 69.9759 2
19.8875 67.8084 0.0110603
20.9142 71.1327 0
20.2299 14.6302 3.97236
21.5941 13.6313 2
20.5336 12.0138 3.97553
21.1455 9.15306 3.98014
22.1908 11.038 2
23.1013 12.8008 0.0230266
22.0182 6.08226 3.9901
23.0404 8.18046 2
23.9741 10.176 0.0218257
23.1494 2.85457 4
24.1166 5.14398 2
25.0249 7.31487 0.0163305
25.446 1.99012 2
26.2814 4.32852 0.00888298
27.7943 1.27781 0
32.6568 35.7534 3.55422
34.3948 35.8944 2
35.9204 35.8707 0.352506
21.3259 15.8607 2
20.3323 16.9954 3.97526
22.1213 16.6642 3.96855
25.3645 13.924 0.0266827
22.4912 15.0594 0.0194973
24.0434 15.6402 0.0163192
25.4004 16.1039 2
23.2914 16.2697 2
24.2331 18.5246 3.96912
27.1142 21.5835 3.99393
28.3713 15.9822 0.0177466
27.4592 18.866 2
32.0206 33.9603 3.70145
33.0053 34.1952 2
34.5011 34.3352 0.339726
33.3651 33.1165 0.484013
34.2675 31.4673 0.284843
35.2521 29.2298 0.15225
37.5972 27.5798 0.10878
35.1557 27.6307 2
32.9633 32.459 2
33.3444 29.9632 2
32.8056 28.3448 3.90789
31.862 31.3729 3.8319
29.0448 24.4985 3.99421
29.676 22.015 2
30.2232 19.4029 0.0172893
35.0738 25.4566 0.00392015
32.3735 22.5523 0.00420477
31.9176 25.78 2
30.0022 27.4529 3.97751
30.8606 37.5051 3.71522
32.5128 37.5068 2
34.3339 37.509 0.307743
33.3731 48.9529 0.0230096
32.5593 46.1289 0.11327
32.6652 39.2666 0.449106
31.8545 43.6381 0.161529
31.9901 41.0574 0.294678
31.4479 47.8174 2
31.2029 39.3949 2
30.6409 41.9095 2
30.8591 44.7977 2
29.6751 46.4098 3.99557
29.814 39.8331 3.86549
29.3637 43.0049 3.90591
30.1411 49.6702 -0.00242436
28.2625 48.0495 2
26.4601 46.5048 3.98243
26.8113 49.8804 0.0310569
25.0663 48.33 2
23.3341 46.9245 3.97455
23.6801 50.0727 0.0381863
22.0996 48.6558 2
20.4089 47.4987 3.97661
20.8306 50.2034 0.0350873
19.4185 48.9838 2
18.0206 48.0841 3.97686
16.4348 48.6056 3.97641
17.2017 49.2458 2
16.1154 50.0964 3.97211
15.5761 52.3527 3.96761
17.0427 51.3268 2
18.3176 50.2362 0.0311164
14.9799 54.9313 3.96365
16.5628 53.8069 2
18.0891 52.7106 0.0363673
14.4776 57.7163 3.963
16.0392 56.4358 2
17.5624 55.2827 0.0374087
14.2717 60.6734 3.96867
15.7625 59.1839 2
17.162 57.8381 0.0370535
14.3356 63.8563 3.98163
15.7925 62.1151 2
17.1459 60.5139 0.032723
14.6715 67.2507 4
16.0879 65.2961 2
17.4106 63.4582 0.0272942
16.6661 68.6801 2
17.9438 66.6166 0.0127382
18.75 69.9759 0
18.9487 15.8166 3.97312
20.2305 14.6284 2
18.9862 13.1335 3.97498
21.595 13.6276 0.0233447
20.5326 12.0156 2
19.3455 10.2438 3.97786
19.9929 7.14714 3.9889
21.1431 9.15336 2
22.1926 11.0384 0.0246562
20.9142 3.86727 4
22.0151 6.08328 2
23.0426 8.18154 0.0180749
23.1494 2.85451 2
24.119 5.14333 0.00949267
25.446 1.99014 0
31.2901 35.6406 3.70678
32.6646 35.7472 2
34.394 35.8929 0.324625
21.3241 15.8646 0.0166854
22.1229 16.6623 2
20.3338 16.9904 2
19.3025 18.451 3.95842
21.8113 17.9055 3.98198
25.3995 16.1106 0.0172535
23.2892 16.2692 0.0268893
24.2282 18.5405 2
22.3729 19.9677 3.96249
24.6965 21.4686 3.98637
26.6565 23.7949 3.97805
27.1187 21.5372 2
27.4615 18.8371 0.0193704
30.7263 33.1329 3.85556
31.9873 33.9122 2
33.0022 34.2125 0.453936
33.0365 32.5029 0.267406
33.3689 30.0006 0.152824
35.1487 27.6756 0.103228
32.7719 28.3164 2
31.8073 31.3357 2
30.5931 29.7374 3.93388
28.2603 26.6492 3.99468
29.033 24.5071 2
29.6794 22.0041 -6.416e-05
31.9236 25.805 -0.00511141
29.9925 27.43 2
29.3686 37.506 3.85995
30.8094 37.5048 2
32.5049 37.5083 0.41014
31.4818 47.7991 0.0202048
30.9013 44.7596 0.0973491
31.2694 39.3704 0.289687
30.6751 41.8891 0.155506
29.6768 46.4072 2
29.7476 39.8492 2
29.3339 43.0467 2
27.9192 44.7332 3.97347
27.5764 40.5683 3.93843
28.269 48.0562 0.0397263
26.4559 46.5038 2
24.6268 45.0425 3.97817
25.0667 48.3317 0.0326755
23.3324 46.9244 2
21.4179 45.7698 3.97794
22.102 48.6575 0.0287658
20.4084 47.4971 2
18.7363 46.6329 3.97692
19.4174 48.9853 0.026876
18.0212 48.0829 2
16.663 47.6301 3.97668
16.4366 48.6045 2
15.4593 48.9468 3.97567
17.2 49.247 0.0257089
16.1178 50.0953 2
14.6935 50.9262 3.97061
13.9552 53.3901 3.96576
15.5772 52.352 2
17.0413 51.3279 0.0321015
13.295 56.144 3.96315
14.9801 54.9311 2
16.5612 53.8075 0.0351275
12.8561 59.1119 3.96816
14.4801 57.7161 2
16.0394 56.4356 0.0372658
12.6817 62.2976 3.97781
14.2724 60.6733 2
15.7612 59.1832 0.0325054
12.7746 65.6939 4
14.3334 63.8528 2
15.7927 62.113 0.0298414
14.6714 67.2507 2
16.0906 65.2986 0.0142368
16.6661 68.6801 0
17.6967 17.1925 3.96857
18.9488 15.8149 2
17.5212 14.401 3.97216
20.2299 14.6302 0.0276396
18.9855 13.135 2
17.6415 11.4637 3.97541
20.5336 12.0138 0.0244696
19.3431 10.2448 2
18.0531 8.34043 3.9871
18.75 5.0241 4
19.9895 7.14912 2
21.1455 9.15306 0.0198639
20.9142 3.86727 2
22.0182 6.08226 0.00989877
23.1494 2.85457 0
29.8381 35.1923 3.86474
31.2279 35.6185 2
32.6568 35.7534 0.44578
22.1213 16.6642 0.0314458
20.3323 16.9954 0.024744
21.811 17.9044 2
19.3023 18.4474 2
18.1124 20.003 3.96066
20.9605 19.4397 3.96204
24.2331 18.5246 0.0308804
22.3689 19.9724 2
24.7003 21.4577 2
22.519 21.8092 3.98206
24.9271 23.2359 3.97452
25.8571 26.0339 3.97925
26.6552 23.7905 2
27.1142 21.5835 0.00607275
29.1136 32.4815 3.90861
30.6688 33.0978 2
32.0206 33.9603 0.298547
31.862 31.3729 0.168096
32.8056 28.3448 0.0921079
30.5708 29.731 2
27.578 29.2364 4.01291
28.246 26.659 2
29.0448 24.4985 0.0057934
30.0022 27.4529 0.022485
27.6998 37.3541 3.91292
29.3007 37.4975 2
30.8606 37.5051 0.284776
29.6751 46.4098 0.00442851
29.3637 43.0049 0.0940875
29.814 39.8331 0.134508
27.91 44.7772 2
27.5505 40.5557 2
25.9823 43.0551 3.98935
24.837 39.4486 3.97307
26.4601 46.5048 0.0175691
24.616 45.0436 2
22.5278 43.809 3.97717
23.3341 46.9245 0.0254513
21.4146 45.7704 2
19.4823 44.87 3.9767
20.4089 47.4987 0.0233894
18.7364 46.6331 2
17.0084 46.1255 3.9766
18.0206 48.0841 0.0231353
16.6643 47.6291 2
15.2186 47.6013 3.97624
16.4348 48.6056 0.0235871
15.4614 48.9458 2
14.0007 49.4911 3.97311
16.1154 50.0964 0.0278935
14.6948 50.9254 2
13.027 51.8331 3.96779
12.1988 54.5039 3.96409
13.9553 53.3897 2
15.5761 52.3527 0.0323888
11.5424 57.4486 3.96709
13.2955 56.1439 2
14.9799 54.9313 0.0363499
11.1366 60.6238 3.97648
12.8573 59.1112 2
14.4776 57.7163 0.0370045
10.9835 64.0165 4
12.6799 62.2938 2
14.2717 60.6734 0.0313279
12.7745 65.694 2
14.3356 63.8563 0.0183703
14.6715 67.2507 0
16.4673 18.6935 3.96165
17.6967 17.1912 2
16.1169 15.8119 3.96656
18.9487 15.8166 0.0268793
17.5206 14.3989 2
16.0249 12.8236 3.97244
18.9862 13.1335 0.0250167
17.6402 11.467 2
16.2041 9.66422 3.98571
19.3455 10.2438 0.0221376
18.0495 8.34363 2
16.6661 6.31991 4
18.75 5.02404 2
19.9929 7.14714 0.0111013
20.9142 3.86727 0
28.2317 34.834 3.90476
29.7681 35.1645 2
31.2901 35.6406 0.293216
16.8372 21.4389 3.96632
21.8113 17.9055 0.0180182
19.3025 18.451 0.0415797
20.9589 19.4374 2
18.1097 20.0012 2
19.9083 21.6521 3.97062
22.3729 19.9677 0.037515
24.6965 21.4686 0.0136278
22.5154 21.8144 2
24.9231 23.2372 2
23.1802 24.6966 3.97365
25.1249 28.6257 3.98148
25.848 26.038 2
26.6565 23.7949 0.0219515
26.9654 31.8307 3.97963
29.0824 32.4637 2
30.7263 33.1329 0.14444
30.5931 29.7374 0.0661168
27.5899 29.2159 2
28.2603 26.6492 0.00532005
25.5274 36.8554 3.97152
27.6851 37.3645 2
29.3686 37.506 0.140046
27.9192 44.7332 0.02653
27.5764 40.5683 0.0615657
25.9625 43.0761 2
24.8174 39.454 2
23.7261 41.8062 3.98246
22.5562 38.5207 3.97849
24.6268 45.0425 0.0218289
22.5276 43.8088 2
20.3432 42.8151 3.97597
21.4179 45.7698 0.0220648
19.483 44.8704 2
17.4046 44.3016 3.97605
18.7363 46.6329 0.0230805
17.0098 46.1253 2
15.1737 46.0212 3.97628
16.663 47.6301 0.023323
15.2205 47.6004 2
13.5285 47.9561 3.97495
15.4593 48.9468 0.0243263
14.0022 49.4904 2
12.2558 50.2146 3.96949
14.6935 50.9262 0.0293866
13.0277 51.8325 2
11.1973 52.816 3.96515
10.3334 55.7048 3.96676
12.1989 54.5036 2
13.9552 53.3901 0.0342398
9.70318 58.8468 3.97587
11.543 57.448 2
13.295 56.144 0.0368524
9.30605 62.2254 4
11.1349 60.6198 2
12.8561 59.1119 0.0318414
10.9835 64.0165 2
12.6817 62.2976 0.0221889
12.7746 65.6939 0
15.2514 20.2328 3.96328
16.4688 18.6933 2
14.766 17.3313 3.96407
17.6967 17.1925 0.0314313
16.1172 15.8104 2
14.4889 14.3161 3.96926
17.5212 14.401 0.0278363
16.024 12.8219 2
14.4471 11.1162 3.98305
17.6415 11.4637 0.0245934
16.2007 9.66807 2
14.6715 7.74927 4
18.0531 8.34043 0.0129018
16.6661 6.31988 2
18.75 5.0241 0
26.1926 34.3351 3.98007
28.2121 34.8407 2
29.8381 35.1923 0.135256
18.0725 22.398 3.97296
15.7303 22.9833 3.96958
16.8373 21.4388 2
20.9605 19.4397 0.0379595
18.1124 20.003 0.0393401
19.9058 21.6495 2
20.0075 24.4838 3.97175
22.519 21.8092 0.0179434
24.9271 23.2359 0.0254818
23.1753 24.6953 2
22.4866 27.9492 3.97225
24.527 31.3128 3.97862
25.1298 28.6201 2
25.8571 26.0339 0.0207477
26.9448 31.7958 2
29.1136 32.4815 0.0913901
27.578 29.2364 -0.01291
23.2808 36.2873 3.98301
25.5116 36.8552 2
27.6998 37.3541 0.087076
25.9823 43.0551 0.0106544
24.837 39.4486 0.026934
23.7109 41.8076 2
22.5469 38.5186 2
21.4208 40.6208 3.97514
20.7869 37.8031 3.97713
22.5278 43.809 0.0228349
20.3421 42.8165 2
17.8774 42.0419 3.97592
19.4823 44.87 0.0233044
17.4051 44.3022 2
15.2181 44.1357 3.97584
17.0084 46.1255 0.0233958
15.1749 46.0208 2
13.2254 46.2456 3.97583
15.2186 47.6013 0.0237642
13.5301 47.9554 2
11.6424 48.5139 3.97124
14.0007 49.4911 0.0268888
12.2571 50.2139 2
10.3271 51.0619 3.96606
13.027 51.8331 0.0322077
11.1979 52.8154 2
9.24216 53.8857 3.96656
8.38671 56.9805 3.97653
10.3341 55.7038 2
12.1988 54.5039 0.0359095
7.74927 60.3285 4
9.70191 58.8426 2
11.5424 57.4486 0.0329066
9.306 62.2255 2
11.1366 60.6238 0.0235185
10.9835 64.0165 0
14.0805 21.7974 3.96589
15.2503 20.2322 2
13.4813 18.9271 3.96387
16.4673 18.6935 0.038348
14.7675 17.3303 2
13.0344 15.9044 3.97024
16.1169 15.8119 0.0334365
14.4891 14.3131 2
12.7845 12.691 3.98036
16.0249 12.8236 0.0275642
14.444 11.1216 2
12.7746 9.30605 4
16.2041 9.66422 0.0142905
14.6715 7.74924 2
16.6661 6.31991 0
23.8687 33.8716 3.9825
26.1708 34.3262 2
28.2317 34.834 0.0952423
17.9363 24.1292 3.97134
18.0797 22.3987 2
14.5726 24.5166 3.97128
15.7327 22.9837 2
16.8372 21.4389 0.0336837
19.5023 27.3169 3.97377
19.9083 21.6521 0.029381
20.0041 24.4837 2
21.8453 30.7848 3.97514
23.1802 24.6966 0.0263497
22.4877 27.9506 2
24.5006 31.3088 2
25.1249 28.6257 0.018516
26.9654 31.8307 0.0203745
20.9106 35.9609 3.97657
23.2818 36.2884 2
25.5274 36.8554 0.028482
23.7261 41.8062 0.0175404
22.5562 38.5207 0.0215147
21.426 40.6217 2
20.7873 37.8014 2
18.6299 38.9948 3.97706
20.3432 42.8151 0.0240267
17.8768 42.0422 2
15.2036 41.8764 3.97623
17.4046 44.3016 0.0239486
15.2184 44.1358 2
12.9875 44.3461 3.97608
15.1737 46.0212 0.0237192
13.227 46.2449 2
11.1584 46.701 3.97275
13.5285 47.9561 0.0250534
11.644 48.5132 2
9.59592 49.2234 3.96681
12.2558 50.2146 0.0305116
10.3275 51.0613 2
8.27485 52.0001 3.96637
11.1973 52.816 0.0348455
9.24276 53.8846 2
7.19572 55.0318 3.97747
6.31991 58.3339 4
8.38578 56.9766 2
10.3334 55.7048 0.0332372
7.74924 60.3285 2
9.70318 58.8468 0.0241328
9.30605 62.2254 0
13.4444 25.4164 3.97484
12.9825 23.3264 3.9687
14.08 21.7971 2
12.2866 20.5749 3.96442
15.2514 20.2328 0.0367248
13.481 18.9262 2
11.6656 17.5789 3.96899
14.766 17.3313 0.0359285
13.0367 15.9037 2
11.2228 14.3776 3.97613
14.4889 14.3161 0.0307382
12.7822 12.696 2
10.9835 10.9835 4
14.4471 11.1162 0.0169453
12.7745 9.306 2
14.6715 7.74927 0
21.272 33.4751 3.97575
23.8713 33.8596 2
26.1926 34.3351 0.0199252
16.2693 26.4862 3.97313
17.9408 24.1297 2
18.0725 22.398 0.0270404
14.5724 24.5169 2
15.7303 22.9833 0.0304189
18.8993 30.2849 3.97516
19.5021 27.3173 2
20.0075 24.4838 0.0282461
21.8583 30.7855 2
22.4866 27.9492 0.0277455
24.527 31.3128 0.0213838
18.2396 35.9911 3.97763
20.9129 35.9614 2
23.2808 36.2873 0.0169871
21.4208 40.6208 0.0248624
20.7869 37.8031 0.0228715
18.6279 38.9938 2
14.7048 39.1647 3.97714
17.8774 42.0419 0.0240807
15.2032 41.8761 2
12.684 42.2435 3.9763
15.2181 44.1357 0.0241598
12.9888 44.3455 2
10.7443 44.7752 3.97435
13.2254 46.2456 0.0241713
11.1605 46.7003 2
8.98227 47.3044 3.96743
11.6424 48.5139 0.0287622
9.5962 49.2228 2
7.44149 50.0339 3.96615
10.3271 51.0619 0.0339374
8.27529 51.999 2
6.13634 53.0074 3.97788
9.24216 53.8857 0.033444
7.19516 55.0286 2
5.0241 56.25 4
6.31988 58.3339 2
8.38671 56.9805 0.0234708
7.74927 60.3285 0
13.7172 26.871 3.97532
12.093 24.8283 3.97099
13.4435 25.4166 2
11.2117 22.2588 3.96546
12.9832 23.3266 2
14.0805 21.7974 0.034106
12.2872 20.5745 2
10.3981 19.3288 3.96767
13.4813 18.9271 0.036132
11.6678 17.5789 2
9.76335 16.1606 3.97624
13.0344 15.9044 0.0297596
11.2211 14.3829 2
9.30607 12.7746 4
12.7845 12.691 0.0196352
10.9835 10.9835 2
12.7746 9.30605 0
18.4044 33.1777 3.97651
21.2723 33.4779 2
23.8687 33.8716 0.0174986
15.8931 29.719 3.97545
16.27 26.4866 2
17.9363 24.1292 0.0286623
14.5726 24.5166 0.028721
18.8979 30.2853 2
19.5023 27.3169 0.0262267
21.8453 30.7848 0.0248646
15.3315 36.0347 3.97726
18.239 35.9915 2
20.9106 35.9609 0.023428
12.9156 37.8297 3.97724
18.6299 38.9948 0.0229441
14.7044 39.1646 2
12.1879 40.1242 3.97689
15.2036 41.8764 0.0237658
12.6852 42.2431 2
10.3424 42.7577 3.97546
12.9875 44.3461 0.0239196
10.7461 44.7746 2
8.45969 45.3088 3.96832
11.1584 46.701 0.0272544
8.98218 47.3039 2
6.73227 47.9994 3.96622
9.59592 49.2234 0.0331882
7.44181 50.033 2
5.21306 50.9109 3.97761
8.27485 52.0001 0.0336298
6.13608 53.0052 2
3.86727 54.0858 4
7.19572 55.0318 0.0225265
5.02404 56.25 2
6.31991 58.3339 0
13.2018 29.085 3.97514
11.5383 26.5254 3.97156
13.7164 26.8713 2
10.2701 23.9882 3.96685
12.0948 24.8287 2
13.4444 25.4164 0.0251587
9.25068 21.1434 3.96699
11.2116 22.2586 2
12.9825 23.3264 0.0313011
12.2866 20.5749 0.0355842
10.3999 19.329 2
8.41925 18.0313 3.97611
11.6656 17.5789 0.0310097
9.76213 16.1657 2
7.74928 14.6715 4
11.2228 14.3776 0.023866
9.30602 12.7745 2
10.9835 10.9835 0
14.8811 32.9144 3.97682
18.4029 33.1768 2
21.272 33.4751 0.0242453
15.8941 29.7194 2
16.2693 26.4862 0.0268656
18.8993 30.2849 0.024843
13.2115 36.2214 3.97692
15.3306 36.0345 2
18.2396 35.9911 0.0223679
12.9163 37.8295 2
11.5226 38.3077 3.97719
14.7048 39.1647 0.0228649
12.1899 40.124 2
9.9194 40.7425 3.9761
12.684 42.2435 0.0237047
10.3452 42.757 2
8.00615 43.2609 3.96886
10.7443 44.7752 0.0256526
8.46084 45.3083 2
6.13801 45.9046 3.96644
8.98227 47.3044 0.0325704
6.73261 47.9985 2
4.42439 48.7515 3.97719
7.44149 50.0339 0.0338451
5.21301 50.9095 2
2.85457 51.8506 4
6.13634 53.0074 0.0221187
3.86727 54.0858 2
5.0241 56.25 0
12.3336 31.297 3.97628
10.956 28.4486 3.97203
13.2022 29.0854 2
9.4874 25.8159 3.96756
11.5397 26.5259 2
13.7172 26.871 0.0246818
8.23738 23.0259 3.96673
10.2705 23.9883 2
12.093 24.8283 0.0290112
7.20148 19.9803 3.97709
9.25208 21.1439 2
11.2117 22.2588 0.0345364
10.3981 19.3288 0.0323252
8.41866 18.0358 2
6.31992 16.6661 4
9.76335 16.1606 0.0237563
7.74926 14.6714 2
9.30607 12.7746 0
12.3713 34.3212 3.97677
14.8811 32.9151 2
18.4044 33.1777 0.0234877
15.8931 29.719 0.0245492
11.0624 36.6195 3.9769
13.2118 36.2213 2
15.3315 36.0347 0.0227382
12.9156 37.8297 0.0227553
11.5249 38.3073 2
9.50283 38.8197 3.97631
12.1879 40.1242 0.0231072
9.92198 40.742 2
7.61459 41.2055 3.96902
10.3424 42.7577 0.0245369
8.00592 43.2605 2
5.64962 43.7675 3.96668
8.45969 45.3088 0.0316795
6.13827 45.9039 2
3.7698 46.537 3.97707
6.73227 47.9994 0.0337787
4.42459 48.7507 2
1.99014 49.554 4
5.21306 50.9109 0.0223918
2.85451 51.8506 2
3.86727 54.0858 0
11.1523 32.9469 3.97698
10.2645 30.4091 3.97292
12.3348 31.2976 2
8.79741 27.7473 3.9679
10.9575 28.449 2
13.2018 29.085 0.0248646
7.36249 24.9839 3.96648
9.48743 25.8161 2
11.5383 26.5254 0.0284399
6.11847 22.0029 3.97796
8.23825 23.0264 2
10.2701 23.9882 0.0331542
5.02411 18.75 4
7.2013 19.9836 2
9.25068 21.1434 0.0330102
8.41925 18.0313 0.0238925
6.3199 16.6661 2
7.74928 14.6715 0
10.6545 35.0148 3.97657
12.3721 34.3215 2
14.8811 32.9144 0.0231811
9.16501 36.9879 3.97614
11.065 36.6194 2
13.2115 36.2214 0.0230809
11.5226 38.3077 0.0228113
9.50542 38.8195 2
7.29037 39.1795 3.96943
9.9194 40.7425 0.0239006
7.61527 41.2052 2
5.26438 41.6135 3.96703
8.00615 43.2609 0.0311434
5.64986 43.767 2
3.24739 44.2817 3.97733
6.13801 45.9046 0.0335636
3.7701 46.5364 2
1.27781 47.2057 4
4.42439 48.7515 0.0228069
1.99012 49.554 2
2.85457 51.8506 0
10.2923 33.9003 3.97611
9.54316 32.1739 3.97394
11.1546 32.9474 2
8.14076 29.7077 3.96836
10.2665 30.4096 2
12.3336 31.297 0.0237199
6.60557 27.0094 3.96654
8.79744 27.7475 2
10.956 28.4486 0.0279685
5.17381 24.0951 3.97789
7.363 24.9843 2
9.4874 25.8159 0.0324406
3.86728 20.9142 4
6.1185 22.0047 2
8.23738 23.0259 0.0332666
5.02406 18.75 2
7.20148 19.9803 0.0229094
6.31992 16.6661 0
8.98398 35.2877 3.97598
10.6572 35.0148 2
12.3713 34.3212 0.0232337
7.06685 37.2063 3.96964
9.16746 36.9879 2
11.0624 36.6195 0.0231009
9.50283 38.8197 0.0236931
7.29158 39.1793 2
4.99175 39.4672 3.96742
7.61459 41.2055 0.0309828
5.265 41.6131 2
2.85767 42.002 3.97766
5.64962 43.7675 0.0333219
3.24756 44.2812 2
0.720592 44.8159 4
3.7698 46.537 0.0229317
1.27778 47.2057 2
1.99014 49.554 0
9.0283 33.7109 3.97555
10.2954 33.9006 2
7.5716 31.618 3.96891
9.5457 32.1743 2
11.1523 32.9469 0.0230157
5.95016 29.0703 3.96685
8.14075 29.7079 2
10.2645 30.4091 0.0270838
4.3613 26.2475 3.97756
6.6059 27.0098 2
8.79741 27.7473 0.0320957
2.85458 23.1494 4
5.17397 24.0959 2
7.36249 24.9839 0.0335206
3.86728 20.9142 2
6.11847 22.0029 0.0220447
5.02411 18.75 0
7.01473 35.3091 3.96971
8.98632 35.2878 2
10.6545 35.0148 0.0234287
4.84187 37.3399 3.96775
7.06833 37.2061 2
9.16501 36.9879 0.0238615
7.29037 39.1795 0.0305738
4.99237 39.4669 2
2.60561 39.7136 3.97786
5.26438 41.6135 0.03297
2.85814 42.0017 2
0.320823 42.3947 4
3.24739 44.2817 0.0226679
0.720551 44.8159 2
1.27781 47.2057 0
7.17993 33.4667 3.96951
9.03058 33.7112 2
10.2923 33.9003 0.0238926
5.42056 31.1342 3.96731
7.57203 31.6182 2
9.54316 32.1739 0.0260597
3.68276 28.4434 3.97744
5.95048 29.0707 2
8.14076 29.7077 0.031643
1.99015 25.446 4
4.36155 26.2478 2
6.60557 27.0094 0.0334559
2.85453 23.1494 2
5.17381 24.0951 0.0221124
3.86728 20.9142 0
4.85618 35.2519 3.9677
7.01541 35.3091 2
8.98398 35.2877 0.0240202
2.49705 37.4282 3.97863
4.84198 37.3399 2
7.06685 37.2063 0.0303625
4.99175 39.4672 0.0325843
2.6062 39.7139 2
0.080333 39.9526 4
2.85767 42.002 0.0223353
0.320817 42.3947 2
0.720592 44.8159 0
5.04955 33.1907 3.96772
7.18058 33.4668 2
9.0283 33.7109 0.0244451
3.14688 30.6662 3.97771
5.42087 31.1346 2
7.5716 31.618 0.0310944
1.27793 27.7943 4
3.68314 28.4437 2
5.95016 29.0703 0.0331545
1.99013 25.446 2
4.3613 26.2475 0.0224369
2.85458 23.1494 0
2.54914 35.1589 3.97836
4.85691 35.2521 2
7.01473 35.3091 0.030292
0 37.5 4
2.49716 37.4286 2
4.84187 37.3399 0.0322489
2.60561 39.7136 0.0221376
0.0802903 39.9526 2
0.320823 42.3947 0
2.76678 32.9057 3.97851
5.04983 33.191 2
7.17993 33.4667 0.0304881
0.721173 30.1842 4
3.14727 30.6666 2
5.42056 31.1342 0.0326886
1.27779 27.7943 2
3.68276 28.4434 0.0225623
1.99015 25.446 0
0.0806499 35.0474 4
2.54983 35.1593 2
4.85618 35.2519 0.0322994
0 37.5 2
2.49705 37.4282 0.0213665
0.080333 39.9526 0
0.32156 32.6054 4
2.76699 32.9063 2
5.04955 33.1907 0.0322823
0.72056 30.1841 2
3.14688 30.6662 0.0222933
1.27793 27.7943 0
0.0802889 35.0474 2
2.54914 35.1589 0.0216391
0 37.5 0
0.320817 32.6053 2
2.76678 32.9057 0.0214857
0.721173 30.1842 0
0.0806499 35.0474 0
0.32156 32.6054 0
CELLS 1910 17190
8 18 6 25 56 2 0 5 16
8 57 23 6 18 17 4 0 2
8 78 36 9 29 31 11 1 7
8 31 11 1 7 79 37 10 30
8 110 57 18 50 48 17 2 14
8 50 18 56 111 14 2 16 49
8 116 62 22 55 52 20 3 15
8 56 25 67 118 16 5 24 53
8 119 63 23 57 54 21 4 17
8 55 22 63 119 15 3 21 54
8 58 26 68 121 18 6 25 56
8 122 65 26 58 57 23 6 18
8 73 31 7 27 142 79 30 71
8 143 78 29 72 73 31 7 27
8 83 147 76 34 32 74 28 8
8 84 148 78 36 33 75 29 9
8 76 34 8 28 148 84 33 75
8 37 79 150 86 10 30 77 35
8 151 87 36 78 80 38 11 31
8 80 38 11 31 152 88 37 79
8 175 100 42 94 96 44 12 40
8 44 96 176 101 12 40 95 43
8 101 176 98 46 43 95 41 13
8 46 98 178 103 13 41 97 45
8 178 103 45 97 147 83 32 74
8 189 116 55 109 106 52 15 47
8 111 56 118 191 49 16 53 107
8 192 119 57 110 108 54 17 48
8 109 55 119 192 47 15 54 108
8 194 122 58 112 110 57 18 50
8 112 58 121 195 50 18 56 111
8 115 61 19 51 197 124 59 113
8 115 61 125 198 51 19 60 114
8 198 125 62 116 114 60 20 52
8 200 127 64 120 116 62 22 55
8 118 67 132 202 53 24 66 117
8 121 68 133 203 56 25 67 118
8 120 64 128 204 55 22 63 119
8 204 128 65 122 119 63 23 57
8 206 134 68 121 123 69 26 58
8 123 69 26 58 207 131 65 122
8 226 147 74 138 140 76 28 70
8 229 148 75 139 143 78 29 72
8 140 76 28 70 229 148 75 139
8 142 79 30 71 231 150 77 141
8 144 80 31 73 232 152 79 142
8 233 151 78 143 144 80 31 73
8 150 86 35 77 235 154 81 145
8 235 154 81 145 146 82 39 91
8 146 82 39 91 236 155 90 165
8 238 157 83 147 149 85 34 76
8 239 158 84 148 151 87 36 78
8 149 85 34 76 239 158 84 148
8 152 88 37 79 241 160 86 150
8 242 161 87 151 153 89 38 80
8 153 89 38 80 243 162 88 152
8 171 98 41 92 265 178 97 169
8 265 178 97 169 226 147 74 138
8 172 96 40 93 266 176 95 170
8 266 176 95 170 171 98 41 92
8 269 175 94 173 172 96 40 93
8 271 180 99 174 175 100 42 94
8 197 124 59 113 271 180 99 174
8 272 181 100 175 177 102 44 96
8 273 182 101 176 179 104 46 98
8 177 102 44 96 273 182 101 176
8 179 104 46 98 275 184 103 178
8 275 184 103 178 238 157 83 147
8 188 115 51 105 283 197 113 186
8 188 115 198 284 105 51 114 187
8 284 198 116 189 187 114 52 106
8 286 200 120 193 189 116 55 109
8 191 118 202 288 107 53 117 190
8 195 121 203 289 111 56 118 191
8 193 120 204 290 109 55 119 192
8 290 204 122 194 192 119 57 110
8 196 123 58 112 292 207 122 194
8 293 206 121 195 196 123 58 112
8 199 126 61 115 297 211 124 197
8 298 212 127 200 198 125 62 116
8 199 126 212 298 115 61 125 198
8 205 129 64 120 300 214 127 200
8 301 217 130 201 202 132 66 117
8 209 136 168 264 301 217 130 201
8 302 219 132 202 203 133 67 118
8 303 220 133 203 206 134 68 121
8 205 129 215 304 120 64 128 204
8 304 215 131 207 204 128 65 122
8 306 221 134 206 208 135 69 123
8 208 135 69 123 307 218 131 207
8 210 137 167 263 309 223 136 209
8 328 238 147 226 230 149 76 140
8 228 146 91 166 329 236 165 260
8 231 150 77 141 330 235 145 227
8 330 235 145 227 228 146 91 166
8 332 239 148 229 233 151 78 143
8 230 149 76 140 332 239 148 229
8 232 152 79 142 334 241 150 231
8 234 153 80 144 335 243 152 232
8 336 242 151 233 234 153 80 144
8 236 155 90 165 338 245 164 259
8 241 160 86 150 339 246 154 235
8 339 246 154 235 237 156 82 146
8 237 156 82 146 340 247 155 236
8 342 249 157 238 240 159 85 149
8 343 250 158 239 242 161 87 151
8 240 159 85 149 343 250 158 239
8 243 162 88 152 345 252 160 241
8 244 163 253 346 153 89 161 242
8 244 163 89 153 347 254 162 243
8 311 224 261 371 210 137 167 263
8 263 167 262 372 209 136 168 264
8 267 179 98 171 375 275 178 265
8 375 275 178 265 328 238 147 226
8 376 273 176 266 267 179 98 171
8 268 177 96 172 376 273 176 266
8 379 272 175 269 268 177 96 172
8 380 271 174 270 269 175 94 173
8 283 197 113 186 380 271 174 270
8 381 277 180 271 272 181 100 175
8 297 211 124 197 381 277 180 271
8 382 278 181 272 274 183 102 177
8 274 183 102 177 383 279 182 273
8 383 279 182 273 276 185 104 179
8 385 281 184 275 342 249 157 238
8 276 185 104 179 385 281 184 275
8 285 199 115 188 393 297 197 283
8 394 298 200 286 284 198 116 189
8 285 199 298 394 188 115 198 284
8 291 205 120 193 396 300 200 286
8 397 301 201 287 288 202 117 190
8 295 209 264 374 397 301 201 287
8 398 302 202 288 289 203 118 191
8 399 303 203 289 293 206 121 195
8 291 205 304 400 193 120 204 290
8 400 304 207 292 290 204 122 194
8 294 208 123 196 402 307 207 292
8 403 306 206 293 294 208 123 196
8 296 210 263 373 405 309 209 295
8 408 312 213 299 297 211 126 199
8 299 213 313 409 199 126 212 298
8 409 313 214 300 298 212 127 200
8 305 216 129 205 411 315 214 300
8 412 318 217 301 302 219 132 202
8 309 223 136 209 412 318 217 301
8 413 320 219 302 303 220 133 203
8 306 221 321 414 206 134 220 303
8 307 218 131 207 415 316 215 304
8 305 216 316 415 205 129 215 304
8 417 322 221 306 308 222 135 208
8 308 222 135 208 418 319 218 307
8 310 225 137 210 420 325 223 309
8 423 326 224 311 310 225 137 210
8 329 236 165 260 441 338 259 368
8 442 342 238 328 333 240 149 230
8 331 237 146 228 443 340 236 329
8 334 241 150 231 444 339 235 330
8 444 339 235 330 331 237 146 228
8 446 343 239 332 336 242 151 233
8 333 240 149 230 446 343 239 332
8 335 243 152 232 448 345 241 334
8 337 244 153 234 449 347 243 335
8 337 244 346 450 234 153 242 336
8 338 245 164 259 452 349 258 367
8 340 247 155 236 453 350 245 338
8 345 252 160 241 454 351 246 339
8 454 351 246 339 341 248 156 237
8 341 248 156 237 455 352 247 340
8 240 159 251 344 342 249 354 457
8 242 161 253 346 343 250 355 458
8 343 250 355 458 240 159 251 344
8 347 254 162 243 460 357 252 345
8 348 255 358 461 244 163 253 346
8 348 255 163 244 462 359 254 347
8 473 360 257 365 363 256 364 482
8 452 349 258 367 365 257 366 485
8 422 324 369 488 311 224 261 371
8 371 261 370 490 263 167 262 372
8 407 311 371 491 296 210 263 373
8 373 263 372 492 295 209 264 374
8 493 385 275 375 442 342 238 328
8 377 276 179 267 493 385 275 375
8 378 274 177 268 494 383 273 376
8 494 383 273 376 377 276 179 267
8 497 382 272 379 378 274 177 268
8 498 381 271 380 379 272 175 269
8 393 297 197 283 498 381 271 380
8 499 387 277 381 382 278 181 272
8 408 312 211 297 499 387 277 381
8 500 388 278 382 384 280 183 274
8 501 389 279 383 386 282 185 276
8 384 280 183 274 501 389 279 383
8 386 282 185 276 503 391 281 385
8 503 391 281 385 457 354 249 342
8 511 408 299 395 393 297 199 285
8 395 299 409 512 285 199 298 394
8 512 409 300 396 394 298 200 286
8 401 305 205 291 514 411 300 396
8 515 412 301 397 398 302 202 288
8 405 309 209 295 515 412 301 397
8 516 413 302 398 399 303 203 289
8 403 306 414 517 293 206 303 399
8 402 307 207 292 518 415 304 400
8 401 305 415 518 291 205 304 400
8 404 308 208 294 520 418 307 402
8 521 417 306 403 404 308 208 294
8 406 310 210 296 523 420 309 405
8 526 423 311 407 406 310 210 296
8 410 314 213 299 527 424 312 408
8 528 425 315 411 409 313 214 300
8 410 314 425 528 299 213 313 409
8 416 317 216 305 530 427 315 411
8 531 430 318 412 413 320 219 302
8 420 325 223 309 531 430 318 412
8 532 432 320 413 414 321 220 303
8 417 322 433 533 306 221 321 414
8 418 319 218 307 534 428 316 415
8 416 317 428 534 305 216 316 415
8 419 323 434 536 308 222 322 417
8 419 323 222 308 537 431 319 418
8 421 327 225 310 539 438 325 420
8 421 327 439 541 310 225 326 423
8 543 437 324 422 423 326 224 311
8 441 338 259 368 559 452 367 486
8 443 340 236 329 560 453 338 441
8 333 240 344 447 442 342 457 561
8 445 341 237 331 562 455 340 443
8 448 345 241 334 563 454 339 444
8 563 454 339 444 445 341 237 331
8 336 242 346 450 446 343 458 565
8 446 343 458 565 333 240 344 447
8 449 347 243 335 567 460 345 448
8 451 348 244 337 568 462 347 449
8 451 348 461 569 337 244 346 450
8 570 463 349 452 473 360 257 365
8 453 350 245 338 570 463 349 452
8 455 352 247 340 571 464 350 453
8 460 357 252 345 572 465 351 454
8 572 465 351 454 456 353 248 341
8 456 353 248 341 573 466 352 455
8 344 251 356 459 457 354 468 575
8 458 355 469 576 344 251 356 459
8 346 253 358 461 458 355 469 576
8 462 359 254 347 578 471 357 460
8 348 255 359 462 461 358 472 579
8 591 474 360 473 475 361 256 363
8 475 361 256 363 594 477 362 479
8 363 256 364 482 479 362 480 603
8 590 473 365 484 481 363 482 605
8 482 364 257 365 606 483 366 485
8 559 452 367 486 484 365 485 607
8 542 436 487 609 422 324 369 488
8 525 422 488 611 407 311 371 491
8 488 369 489 612 371 261 370 490
8 491 371 490 613 373 263 372 492
8 495 386 276 377 614 503 385 493
8 614 503 385 493 561 457 342 442
8 615 501 383 494 495 386 276 377
8 496 384 274 378 615 501 383 494
8 618 500 382 497 496 384 274 378
8 619 499 381 498 497 382 272 379
8 511 408 297 393 619 499 381 498
8 620 505 387 499 500 388 278 382
8 527 424 312 408 620 505 387 499
8 502 390 506 621 384 280 388 500
8 622 507 389 501 504 392 282 386
8 502 390 280 384 622 507 389 501
8 504 392 282 386 624 509 391 503
8 624 509 391 503 575 468 354 457
8 513 410 299 395 630 527 408 511
8 631 528 411 514 512 409 300 396
8 513 410 528 631 395 299 409 512
8 519 416 305 401 633 530 411 514
8 634 531 412 515 516 413 302 398
8 523 420 309 405 634 531 412 515
8 635 532 413 516 517 414 303 399
8 521 417 533 636 403 306 414 517
8 520 418 307 402 637 534 415 518
8 519 416 534 637 401 305 415 518
8 522 419 308 404 639 537 418 520
8 522 419 536 640 404 308 417 521
8 524 421 310 406 642 539 420 523
8 524 421 541 644 406 310 423 526
8 646 543 422 525 526 423 311 407
8 529 426 314 410 647 544 424 527
8 528 425 545 648 411 315 427 530
8 529 426 545 648 410 314 425 528
8 535 429 317 416 649 546 427 530
8 650 548 430 531 532 432 320 413
8 539 438 325 420 650 548 430 531
8 533 433 550 651 414 321 432 532
8 536 434 551 652 417 322 433 533
8 537 431 319 418 653 547 428 534
8 535 429 547 653 416 317 428 534
8 538 435 552 654 419 323 434 536
8 538 435 323 419 655 549 431 537
8 540 440 327 421 657 556 438 539
8 540 440 557 659 421 327 439 541
8 541 439 555 660 423 326 437 543
8 661 554 436 542 543 437 324 422
8 676 570 452 559 590 473 365 484
8 560 453 338 441 676 570 452 559
8 562 455 340 443 677 571 453 560
8 447 344 459 566 561 457 575 678
8 564 456 341 445 679 573 455 562
8 567 460 345 448 680 572 454 563
8 680 572 454 563 564 456 341 445
8 565 458 576 682 447 344 459 566
8 450 346 461 569 565 458 576 682
8 568 462 347 449 684 578 460 567
8 451 348 462 568 569 461 579 685
8 686 580 463 570 591 474 360 473
8 571 464 350 453 686 580 463 570
8 573 466 352 455 687 581 464 571
8 572 465 582 688 460 357 471 578
8 574 467 582 688 456 353 465 572
8 574 467 353 456 689 583 466 573
8 459 356 470 577 575 468 585 691
8 576 469 586 692 459 356 470 577
8 461 358 472 579 576 469 586 692
8 462 359 471 578 579 472 588 694
8 704 591 473 590 593 475 363 481
8 595 476 592 705 475 361 474 591
8 593 475 363 481 707 594 479 602
8 594 477 362 479 709 598 478 600
8 595 476 361 475 711 597 477 594
8 479 362 480 603 600 478 601 720
8 481 363 482 605 602 479 603 722
8 603 480 364 482 723 604 483 606
8 605 482 365 484 724 606 485 607
8 656 553 608 726 542 436 487 609
8 645 542 609 728 525 422 488 611
8 609 487 610 729 488 369 489 612
8 611 488 612 730 491 371 490 613
8 616 504 386 495 731 624 503 614
8 731 624 503 614 678 575 457 561
8 732 622 501 615 616 504 386 495
8 617 502 384 496 732 622 501 615
8 617 502 621 735 496 384 500 618
8 736 620 499 619 618 500 382 497
8 630 527 408 511 736 620 499 619
8 621 506 626 737 500 388 505 620
8 647 544 424 527 737 626 505 620
8 623 508 627 738 502 390 506 621
8 623 508 390 502 739 628 507 622
8 625 510 628 739 504 392 507 622
8 740 629 509 624 691 585 468 575
8 625 510 392 504 740 629 509 624
8 632 529 410 513 744 647 527 630
8 631 528 648 745 514 411 530 633
8 632 529 648 745 513 410 528 631
8 638 535 416 519 746 649 530 633
8 747 650 531 634 635 532 413 516
8 642 539 420 523 747 650 531 634
8 636 533 651 748 517 414 532 635
8 640 536 652 749 521 417 533 636
8 639 537 418 520 750 653 534 637
8 638 535 653 750 519 416 534 637
8 641 538 419 522 751 655 537 639
8 641 538 654 752 522 419 536 640
8 643 540 421 524 753 657 539 642
8 643 540 659 755 524 421 541 644
8 644 541 660 757 526 423 543 646
8 758 661 542 645 646 543 422 525
8 529 426 544 647 648 545 662 759
8 530 427 545 648 649 546 663 760
8 535 429 546 649 653 547 664 761
8 762 666 548 650 651 550 432 532
8 657 556 438 539 762 666 548 650
8 652 551 668 763 533 433 550 651
8 654 552 669 764 536 434 551 652
8 655 549 431 537 765 665 547 653
8 538 435 549 655 654 552 667 766
8 661 554 671 768 542 436 553 656
8 658 558 440 540 769 674 556 657
8 658 558 675 770 540 440 557 659
8 659 557 673 771 541 439 555 660
8 660 555 672 772 543 437 554 661
8 788 686 570 676 704 591 473 590
8 677 571 453 560 788 686 570 676
8 679 573 455 562 789 687 571 677
8 566 459 577 683 678 575 691 790
8 681 574 456 564 791 689 573 679
8 680 572 688 792 567 460 578 684
8 681 574 688 792 564 456 572 680
8 682 576 692 794 566 459 577 683
8 569 461 579 685 682 576 692 794
8 568 462 578 684 685 579 694 796
8 687 581 464 571 798 696 580 686
8 798 696 580 686 705 592 474 591
8 689 583 466 573 799 697 581 687
8 688 582 698 800 578 471 588 694
8 690 584 698 800 574 467 582 688
8 690 584 467 574 801 699 583 689
8 693 587 701 803 577 470 585 691
8 693 587 470 577 804 702 586 692
8 695 589 702 804 579 472 586 692
8 695 589 472 579 805 703 588 694
8 708 595 705 813 593 475 591 704
8 710 596 706 814 595 476 592 705
8 707 594 479 602 816 709 600 719
8 708 595 475 593 817 711 594 707
8 709 598 478 600 819 715 599 717
8 711 597 477 594 820 714 598 709
8 710 596 476 595 822 713 597 711
8 600 478 601 720 717 599 718 832
8 602 479 603 722 719 600 720 834
8 720 601 480 603 835 721 604 723
8 722 603 482 605 836 723 606 724
8 767 670 725 839 656 553 608 726
8 756 656 726 841 645 542 609 728
8 726 608 727 842 609 487 610 729
8 728 609 729 843 611 488 612 730
8 844 740 624 731 790 691 575 678
8 733 625 504 616 844 740 624 731
8 734 623 502 617 845 739 622 732
8 733 625 739 845 616 504 622 732
8 734 623 738 846 617 502 621 735
8 735 621 737 847 618 500 620 736
8 744 647 527 630 847 737 620 736
8 621 506 627 738 737 626 741 848
8 647 544 626 737 759 662 741 848
8 623 508 628 739 738 627 742 849
8 740 629 585 691 850 743 700 802
8 625 510 629 740 739 628 743 850
8 632 529 647 744 745 648 759 854
8 633 530 648 745 746 649 760 855
8 638 535 649 746 750 653 761 856
8 857 762 650 747 748 651 532 635
8 753 657 539 642 857 762 650 747
8 749 652 763 858 636 533 651 748
8 752 654 764 859 640 536 652 749
8 751 655 537 639 860 765 653 750
8 641 538 655 751 752 654 766 861
8 754 658 540 643 862 769 657 753
8 754 658 770 863 643 540 659 755
8 755 659 771 864 644 541 660 757
8 758 661 768 866 645 542 656 756
8 757 660 772 867 646 543 661 758
8 759 662 773 868 648 545 663 760
8 649 546 663 760 761 664 774 871
8 765 665 547 653 872 775 664 761
8 873 777 666 762 763 668 550 651
8 769 674 556 657 873 777 666 762
8 764 669 779 874 652 551 668 763
8 654 552 667 766 764 669 778 875
8 655 549 665 765 766 667 776 876
8 768 671 782 877 656 553 670 767
8 772 672 783 878 661 554 671 768
8 658 558 674 769 770 675 786 879
8 659 557 675 770 771 673 785 881
8 882 784 672 772 771 673 555 660
8 789 687 571 677 897 798 686 788
8 897 798 686 788 813 705 591 704
8 791 689 573 679 898 799 687 789
8 795 693 803 900 683 577 691 790
8 793 690 574 681 901 801 689 791
8 792 688 800 902 684 578 694 796
8 793 690 800 902 681 574 688 792
8 795 693 577 683 903 804 692 794
8 797 695 804 903 685 579 692 794
8 797 695 579 685 904 805 694 796
8 905 806 697 799 798 696 581 687
8 814 706 806 905 705 592 696 798
8 689 583 697 799 801 699 808 907
8 800 698 809 908 694 588 703 805
8 690 584 699 801 800 698 809 908
8 803 701 810 909 691 585 700 802
8 693 587 702 804 803 701 811 910
8 695 589 703 805 804 702 812 911
8 818 710 814 919 708 595 705 813
8 821 712 815 920 710 596 706 814
8 816 709 600 719 922 819 717 831
8 817 711 594 707 923 820 709 816
8 818 710 595 708 924 822 711 817
8 819 715 599 717 926 827 716 829
8 820 714 598 709 927 826 715 819
8 929 825 713 822 820 714 597 711
8 821 712 596 710 930 824 713 822
8 717 599 718 832 829 716 830 942
8 719 600 720 834 831 717 832 944
8 832 718 601 720 945 833 721 835
8 834 720 603 722 946 835 723 836
8 869 780 838 950 767 670 725 839
8 865 767 839 952 756 656 726 841
8 839 725 840 953 726 608 727 842
8 841 726 842 954 728 609 729 843
8 844 740 691 790 955 850 802 899
8 733 625 740 844 845 739 850 955
8 734 623 739 845 846 738 849 956
8 735 621 738 846 847 737 848 957
8 744 647 737 847 854 759 848 957
8 738 627 742 849 848 741 851 958
8 848 741 851 958 759 662 773 868
8 850 743 700 802 959 852 807 906
8 849 742 628 739 959 852 743 850
8 854 759 868 965 745 648 760 855
8 746 649 760 855 856 761 871 966
8 860 765 653 750 967 872 761 856
8 968 873 762 857 858 763 651 748
8 862 769 657 753 968 873 762 857
8 859 764 874 969 749 652 763 858
8 752 654 766 861 859 764 875 970
8 751 655 765 860 861 766 876 971
8 754 658 769 862 863 770 879 972
8 755 659 770 863 864 771 881 974
8 976 882 772 867 864 771 660 757
8 866 768 877 977 756 656 767 865
8 867 772 878 978 758 661 768 866
8 760 663 773 868 871 774 883 980
8 870 781 837 948 982 890 780 869
8 982 890 780 869 877 782 670 767
8 761 664 774 871 872 775 884 984
8 876 776 665 765 985 885 775 872
8 873 777 668 763 986 887 779 874
8 769 674 777 873 879 786 887 986
8 764 669 778 875 874 779 888 987
8 766 667 776 876 875 778 886 988
8 878 783 892 989 768 671 782 877
8 878 783 672 772 990 893 784 882
8 880 787 675 770 991 896 786 879
8 880 787 895 992 770 675 785 881
8 881 785 894 993 771 673 784 882
8 1006 905 799 898 897 798 687 789
8 919 814 905 1006 813 705 798 897
8 791 689 799 898 901 801 907 1007
8 900 803 909 1009 790 691 802 899
8 795 693 804 903 900 803 910 1010
8 902 800 908 1011 796 694 805 904
8 793 690 801 901 902 800 908 1011
8 797 695 805 904 903 804 911 1012
8 799 697 806 905 907 808 912 1013
8 920 815 912 1013 814 706 806 905
8 802 700 810 909 906 807 913 1014
8 801 699 808 907 908 809 914 1015
8 805 703 809 908 911 812 915 1016
8 803 701 811 910 909 810 916 1017
8 911 812 917 1018 804 702 811 910
8 925 821 920 1030 818 710 814 919
8 928 823 921 1031 821 712 815 920
8 922 819 717 831 1033 926 829 941
8 923 820 709 816 1034 927 819 922
8 1035 929 822 924 923 820 711 817
8 925 821 710 818 1036 930 822 924
8 1038 933 825 929 927 826 714 820
8 926 827 716 829 1039 935 828 939
8 927 826 715 819 1040 934 827 926
8 928 823 712 821 1041 931 824 930
8 1042 932 824 930 929 825 713 822
8 829 716 830 942 939 828 940 1058
8 831 717 832 944 941 829 942 1060
8 942 830 718 832 1061 943 833 945
8 944 832 720 834 1062 945 835 946
8 981 889 947 1064 870 781 837 948
8 948 837 949 1067 869 780 838 950
8 975 869 950 1069 865 767 839 952
8 950 838 951 1070 839 725 840 953
8 952 839 953 1071 841 726 842 954
8 955 850 802 899 1072 959 906 1008
8 956 849 739 845 1072 959 850 955
8 846 738 849 956 957 848 958 1073
8 957 848 958 1073 854 759 868 965
8 849 742 852 959 958 851 961 1076
8 960 853 961 1076 906 807 852 959
8 958 851 961 1076 868 773 883 980
8 960 853 807 906 1077 963 913 1014
8 855 760 868 965 966 871 980 1085
8 856 761 871 966 967 872 984 1086
8 971 876 765 860 1087 985 872 967
8 968 873 763 858 1088 986 874 969
8 862 769 873 968 972 879 986 1088
8 859 764 875 970 969 874 987 1089
8 861 766 876 971 970 875 988 1090
8 973 880 770 863 1091 991 879 972
8 973 880 992 1092 863 770 881 974
8 974 881 993 1093 864 771 882 976
8 979 870 948 1066 1094 982 869 975
8 1094 982 869 975 977 877 767 865
8 978 878 772 867 1095 990 882 976
8 978 878 989 1096 866 768 877 977
8 871 774 883 980 984 884 994 1099
8 983 891 999 1100 870 781 889 981
8 1101 1000 890 982 989 892 782 877
8 983 891 781 870 1101 1000 890 982
8 872 775 884 984 985 885 995 1103
8 876 776 885 985 988 886 996 1104
8 986 887 779 874 1105 998 888 987
8 879 786 887 986 991 896 998 1105
8 875 778 886 988 987 888 997 1106
8 990 893 1002 1107 878 783 892 989
8 1108 1003 893 990 993 894 784 882
8 880 787 896 991 992 895 1005 1109
8 993 894 785 881 1110 1004 895 992
8 898 799 905 1006 1007 907 1013 1120
8 1030 920 1013 1120 919 814 905 1006
8 901 801 907 1007 1011 908 1015 1121
8 899 802 909 1009 1008 906 1014 1122
8 900 803 910 1010 1009 909 1017 1123
8 1012 911 1018 1124 903 804 910 1010
8 904 805 908 1011 1012 911 1016 1125
8 1013 912 1020 1127 907 808 914 1015
8 1031 921 1020 1127 920 815 912 1013
8 1019 918 962 1075 1128 1021 913 1014
8 1128 1021 913 1014 1017 916 810 909
8 1015 914 1022 1129 908 809 915 1016
8 1016 915 1023 1130 911 812 917 1018
8 1018 917 1024 1131 910 811 916 1017
8 1037 928 1031 1148 925 821 920 1030
8 928 823 931 1041 1031 921 1032 1149
8 1033 926 829 941 1151 1039 939 1057
8 1034 927 819 922 1152 1040 926 1033
8 1153 1038 929 1035 1034 927 820 923
8 1154 1042 930 1036 1035 929 822 924
8 1037 928 821 925 1155 1041 930 1036
8 1039 935 828 939 1156 1047 938 1055
8 1157 1043 932 1042 1038 933 825 929
8 1038 933 826 927 1158 1045 934 1040
8 1040 934 827 926 1159 1046 935 1039
8 930 824 932 1042 1041 931 1044 1160
8 1051 936 1048 1165 1175 1052 937 1053
8 1156 1047 938 1055 1053 937 1054 1178
8 939 828 940 1058 1055 938 1056 1181
8 941 829 942 1060 1057 939 1058 1183
8 942 830 943 1061 1058 940 1059 1184
8 1060 942 832 944 1185 1061 945 1062
8 1082 964 1063 1188 981 889 947 1064
8 1097 981 1064 1190 979 870 948 1066
8 1064 947 1065 1191 948 837 949 1067
8 1066 948 1067 1193 975 869 950 1069
8 1067 949 1068 1194 950 838 951 1070
8 1069 950 1070 1195 952 839 953 1071
8 956 849 959 1072 1073 958 1076 1197
8 1074 960 1076 1197 1008 906 959 1072
8 1073 958 1076 1197 965 868 980 1085
8 1074 960 906 1008 1198 1077 1014 1122
8 1133 1026 1079 1199 1019 918 962 1075
8 1077 963 913 1014 1200 1080 962 1075
8 960 853 963 1077 1076 961 1078 1201
8 980 883 961 1076 1099 994 1078 1201
8 1210 1083 964 1082 1100 999 889 981
8 966 871 980 1085 1086 984 1099 1215
8 967 872 984 1086 1087 985 1103 1216
8 971 876 985 1087 1090 988 1104 1217
8 1088 986 874 969 1218 1105 987 1089
8 972 879 986 1088 1091 991 1105 1218
8 970 875 988 1090 1089 987 1106 1219
8 973 880 991 1091 1092 992 1109 1220
8 1093 993 881 974 1221 1110 992 1092
8 1222 1108 990 1095 1093 993 882 976
8 1223 1101 982 1094 1096 989 877 977
8 1098 983 870 979 1223 1101 982 1094
8 1095 990 1107 1224 978 878 989 1096
8 1098 983 1100 1225 979 870 981 1097
8 984 884 994 1099 1103 995 1111 1227
8 1102 1001 1115 1228 983 891 999 1100
8 1101 1000 892 989 1229 1116 1002 1107
8 1102 1001 891 983 1229 1116 1000 1101
8 985 885 995 1103 1104 996 1112 1230
8 988 886 996 1104 1106 997 1113 1231
8 1105 998 888 987 1232 1114 997 1106
8 991 896 998 1105 1109 1005 1114 1232
8 1108 1003 1117 1233 990 893 1002 1107
8 1108 1003 894 993 1233 1117 1004 1110
8 992 895 1005 1109 1110 1004 1118 1234
8 1120 1013 1127 1244 1007 907 1015 1121
8 1148 1031 1127 1244 1030 920 1013 1120
8 1121 1015 1129 1245 1011 908 1016 1125
8 1126 1019 1075 1196 1246 1128 1014 1122
8 1246 1128 1014 1122 1123 1017 909 1009
8 1124 1018 1131 1247 1010 910 1017 1123
8 1125 1016 1130 1248 1012 911 1018 1124
8 1127 1020 1137 1254 1015 914 1022 1129
8 1031 921 1032 1149 1127 1020 1137 1254
8 1134 1027 918 1019 1257 1140 1021 1128
8 1257 1140 1021 1128 1131 1024 916 1017
8 1129 1022 1141 1258 1016 915 1023 1130
8 1130 1023 1142 1259 1018 917 1024 1131
8 1261 1144 1025 1132 1133 1026 1079 1199
8 1255 1138 1025 1132 1135 1028 1144 1261
8 1133 1026 918 1019 1262 1145 1027 1134
8 1136 1029 1139 1256 1263 1146 1028 1135
8 1037 928 1041 1155 1148 1031 1149 1275
8 1041 931 1044 1160 1149 1032 1150 1276
8 1151 1039 939 1057 1278 1156 1055 1180
8 1152 1040 926 1033 1279 1159 1039 1151
8 1153 1038 927 1034 1280 1158 1040 1152
8 1281 1157 1042 1154 1153 1038 929 1035
8 1036 930 1042 1154 1155 1041 1160 1282
8 1283 1164 1046 1159 1156 1047 935 1039
8 1165 1048 1164 1283 1053 937 1047 1156
8 1157 1043 933 1038 1284 1161 1045 1158
8 1157 1043 1161 1284 1042 932 1044 1160
8 1040 934 1046 1159 1158 1045 1163 1285
8 1166 1049 1167 1292 1051 936 1048 1165
8 1166 1049 936 1051 1293 1168 1050 1172
8 1051 936 1052 1175 1172 1050 1173 1306
8 1174 1051 1165 1290 1308 1175 1053 1177
8 1053 937 1054 1178 1175 1052 1176 1309
8 1278 1156 1055 1180 1177 1053 1178 1311
8 1055 938 1056 1181 1178 1054 1179 1312
8 1057 939 1058 1183 1180 1055 1181 1314
8 1058 940 1059 1184 1181 1056 1182 1315
8 1060 942 1061 1185 1183 1058 1184 1316
8 1208 1081 1187 1321 1082 964 1063 1188
8 1209 1082 1188 1322 1097 981 1064 1190
8 1188 1063 1189 1323 1064 947 1065 1191
8 1190 1064 1191 1325 1066 948 1067 1193
8 1191 1065 1192 1326 1067 949 1068 1194
8 1067 1193 1069 950 1194 1327 1195 1070
8 1250 1133 1199 1330 1126 1019 1075 1196
8 1198 1077 1014 1122 1331 1200 1075 1196
8 1074 960 1077 1198 1197 1076 1201 1332
8 1085 980 1076 1197 1215 1099 1201 1332
8 1199 1079 1203 1333 1075 962 1080 1200
8 1132 1025 1119 1243 1199 1079 1203 1333
8 1201 1078 963 1077 1334 1202 1080 1200
8 1099 994 1078 1201 1227 1111 1202 1334
8 1343 1207 1081 1208 1210 1083 964 1082
8 1214 1084 1186 1319 1343 1207 1081 1208
8 1345 1210 1082 1209 1225 1100 981 1097
8 1346 1211 1083 1210 1228 1115 999 1100
8 1086 984 1099 1215 1216 1103 1227 1352
8 1087 985 1103 1216 1217 1104 1230 1353
8 1090 988 1104 1217 1219 1106 1231 1354
8 1218 1105 987 1089 1355 1232 1106 1219
8 1091 991 1105 1218 1220 1109 1232 1355
8 1092 992 1109 1220 1221 1110 1234 1356
8 1222 1108 1233 1357 1095 990 1107 1224
8 1222 1108 993 1093 1357 1233 1110 1221
8 1223 1101 989 1096 1358 1229 1107 1224
8 1226 1102 983 1098 1358 1229 1101 1223
8 1226 1102 1228 1359 1098 983 1100 1225
8 1103 995 1111 1227 1230 1112 1235 1360
8 1107 1002 1117 1233 1229 1116 1240 1362
8 1102 1001 1116 1229 1228 1115 1240 1362
8 1104 996 1112 1230 1231 1113 1236 1363
8 1364 1237 1114 1232 1231 1113 997 1106
8 1109 1005 1114 1232 1234 1118 1238 1365
8 1110 1004 1118 1234 1233 1117 1241 1366
8 1242 1374 1255 1138 1119 1243 1132 1025
8 1244 1127 1254 1376 1121 1015 1129 1245
8 1148 1031 1149 1275 1244 1127 1254 1376
8 1245 1129 1258 1377 1125 1016 1130 1248
8 1251 1134 1019 1126 1378 1257 1128 1246
8 1378 1257 1128 1246 1247 1131 1017 1123
8 1248 1130 1259 1379 1124 1018 1131 1247
8 1261 1381 1250 1133 1132 1249 1330 1199
8 1255 1380 1252 1135 1132 1249 1381 1261
8 1250 1133 1019 1126 1382 1262 1134 1251
8 1253 1136 1256 1385 1384 1263 1135 1252
8 1254 1137 1265 1387 1129 1022 1141 1258
8 1149 1032 1150 1276 1254 1137 1265 1387
8 1028 1135 1255 1138 1139 1256 1388 1266
8 1136 1029 1147 1264 1256 1139 1267 1389
8 1390 1268 1140 1257 1259 1142 1024 1131
8 1260 1143 1027 1134 1390 1268 1140 1257
8 1258 1141 1269 1391 1130 1023 1142 1259
8 1262 1145 1027 1134 1393 1271 1143 1260
8 1261 1144 1026 1133 1394 1272 1145 1262
8 1135 1028 1144 1261 1263 1146 1272 1394
8 1136 1029 1146 1263 1264 1147 1273 1395
8 1155 1041 1160 1282 1275 1149 1276 1405
8 1276 1150 1044 1160 1406 1277 1162 1286
8 1408 1283 1159 1279 1278 1156 1039 1151
8 1290 1165 1283 1408 1177 1053 1156 1278
8 1152 1040 1159 1279 1280 1158 1285 1409
8 1281 1157 1038 1153 1410 1284 1158 1280
8 1281 1157 1284 1410 1154 1042 1160 1282
8 1159 1046 1164 1283 1285 1163 1289 1412
8 1292 1167 1289 1412 1165 1048 1164 1283
8 1158 1045 1163 1285 1284 1161 1288 1413
8 1284 1161 1288 1413 1160 1044 1162 1286
8 1291 1166 1292 1418 1174 1051 1165 1290
8 1291 1166 1051 1174 1419 1293 1172 1305
8 1294 1169 1296 1421 1166 1049 1167 1292
8 1293 1168 1050 1172 1422 1295 1171 1303
8 1294 1169 1049 1166 1423 1297 1168 1293
8 1422 1295 1171 1303 1301 1170 1302 1435
8 1172 1050 1173 1306 1303 1171 1304 1438
8 1174 1051 1175 1308 1305 1172 1306 1440
8 1175 1052 1176 1309 1306 1173 1307 1441
8 1177 1053 1178 1311 1308 1175 1309 1443
8 1178 1054 1179 1312 1309 1176 1310 1444
8 1180 1055 1181 1314 1311 1178 1312 1446
8 1056 1181 1312 1179 1182 1315 1447 1313
8 1183 1058 1184 1316 1314 1181 1315 1448
8 1319 1186 1084 1214 1451 1317 1213 1350
8 1319 1186 1318 1453 1208 1081 1187 1321
8 1321 1187 1320 1456 1188 1063 1189 1323
8 1344 1208 1321 1457 1209 1082 1188 1322
8 1322 1188 1323 1458 1190 1064 1191 1325
8 1323 1189 1324 1459 1191 1065 1192 1326
8 1191 1325 1193 1067 1326 1460 1327 1194
8 1242 1374 1243 1119 1328 1462 1335 1204
8 1330 1199 1333 1465 1196 1075 1200 1331
8 1132 1249 1330 1199 1243 1375 1465 1333
8 1332 1201 1077 1198 1466 1334 1200 1331
8 1215 1099 1201 1332 1352 1227 1334 1466
8 1119 1243 1333 1203 1204 1335 1470 1338
8 1333 1203 1338 1470 1200 1080 1202 1334
8 1227 1111 1202 1334 1360 1235 1338 1470
8 1328 1462 1335 1204 1205 1336 1471 1339
8 1337 1206 1340 1472 1464 1329 1205 1336
8 1346 1211 1342 1479 1210 1083 1207 1343
8 1346 1211 1115 1228 1479 1342 1239 1361
8 1348 1212 1084 1214 1479 1342 1207 1343
8 1480 1343 1208 1344 1345 1210 1082 1209
8 1351 1214 1319 1454 1480 1343 1208 1344
8 1481 1346 1210 1345 1359 1228 1100 1225
8 1348 1212 1347 1483 1214 1084 1213 1350
8 1216 1103 1227 1352 1353 1230 1360 1488
8 1217 1104 1230 1353 1354 1231 1363 1489
8 1490 1364 1232 1355 1354 1231 1106 1219
8 1220 1109 1232 1355 1356 1234 1365 1491
8 1221 1110 1234 1356 1357 1233 1366 1492
8 1224 1107 1233 1357 1358 1229 1362 1493
8 1226 1102 1229 1358 1359 1228 1362 1493
8 1230 1112 1235 1360 1363 1236 1367 1496
8 1361 1239 1115 1228 1497 1371 1240 1362
8 1366 1241 1372 1498 1233 1117 1240 1362
8 1364 1237 1113 1231 1499 1368 1236 1363
8 1364 1237 1368 1499 1232 1114 1238 1365
8 1234 1118 1238 1365 1366 1241 1369 1500
8 1507 1373 1242 1374 1388 1266 1138 1255
8 1508 1374 1243 1375 1380 1255 1132 1249
8 1376 1254 1387 1509 1245 1129 1258 1377
8 1275 1149 1276 1405 1376 1254 1387 1509
8 1377 1258 1391 1510 1248 1130 1259 1379
8 1511 1390 1257 1378 1379 1259 1131 1247
8 1383 1260 1134 1251 1511 1390 1257 1378
8 1252 1135 1256 1385 1380 1255 1388 1512
8 1261 1381 1513 1394 1133 1250 1382 1262
8 1135 1252 1384 1263 1261 1381 1513 1394
8 1382 1262 1134 1251 1514 1393 1260 1383
8 1253 1136 1263 1384 1386 1264 1395 1516
8 1253 1136 1264 1386 1385 1256 1389 1517
8 1387 1265 1397 1519 1258 1141 1269 1391
8 1276 1150 1277 1406 1387 1265 1397 1519
8 1256 1139 1267 1389 1388 1266 1398 1520
8 1264 1147 1274 1396 1389 1267 1399 1521
8 1392 1270 1143 1260 1522 1400 1268 1390
8 1390 1268 1142 1259 1522 1400 1269 1391
8 1392 1270 1401 1523 1260 1143 1271 1393
8 1272 1394 1524 1402 1145 1262 1393 1271
8 1395 1273 1146 1263 1524 1402 1272 1394
8 1273 1395 1264 1147 1403 1526 1396 1274
8 1405 1276 1160 1282 1534 1406 1286 1411
8 1414 1287 1407 1535 1286 1162 1277 1406
8 1279 1159 1283 1408 1409 1285 1412 1537
8 1418 1292 1412 1537 1290 1165 1283 1408
8 1280 1158 1285 1409 1410 1284 1413 1538
8 1410 1284 1413 1538 1282 1160 1286 1411
8 1285 1163 1289 1412 1413 1288 1417 1540
8 1421 1296 1417 1540 1292 1167 1289 1412
8 1414 1287 1162 1286 1541 1416 1288 1413
8 1420 1294 1421 1545 1291 1166 1292 1418
8 1419 1293 1172 1305 1546 1422 1303 1437
8 1420 1294 1166 1291 1547 1423 1293 1419
8 1294 1169 1297 1423 1421 1296 1425 1548
8 1423 1297 1168 1293 1549 1424 1295 1422
8 1301 1170 1298 1427 1422 1295 1424 1549
8 1432 1300 1428 1554 1301 1170 1298 1427
8 1431 1299 1428 1554 1560 1430 1300 1432
8 1563 1433 1300 1432 1435 1302 1170 1301
8 1546 1422 1303 1437 1434 1301 1435 1565
8 1303 1171 1304 1438 1435 1302 1436 1566
8 1305 1172 1306 1440 1437 1303 1438 1568
8 1306 1173 1307 1441 1438 1304 1439 1569
8 1308 1175 1309 1443 1440 1306 1441 1571
8 1309 1176 1310 1444 1441 1307 1442 1572
8 1311 1178 1312 1446 1443 1309 1444 1574
8 1179 1312 1444 1310 1313 1447 1575 1445
8 1314 1181 1315 1448 1446 1312 1447 1576
8 1350 1213 1349 1486 1451 1317 1449 1579
8 1451 1317 1450 1581 1319 1186 1318 1453
8 1454 1319 1214 1351 1582 1451 1350 1487
8 1453 1318 1452 1584 1321 1187 1320 1456
8 1454 1319 1453 1585 1344 1208 1321 1457
8 1456 1320 1455 1586 1323 1189 1324 1459
8 1457 1321 1456 1587 1322 1188 1323 1458
8 1458 1323 1459 1588 1325 1191 1326 1460
8 1205 1336 1464 1329 1328 1462 1590 1461
8 1507 1373 1461 1590 1374 1242 1328 1462
8 1508 1374 1462 1591 1375 1243 1335 1467
8 1337 1206 1329 1464 1473 1341 1463 1594
8 1375 1243 1335 1467 1465 1333 1470 1596
8 1465 1333 1470 1596 1331 1200 1334 1466
8 1352 1227 1334 1466 1488 1360 1470 1596
8 1591 1462 1336 1468 1467 1335 1471 1597
8 1469 1337 1472 1598 1595 1464 1336 1468
8 1471 1339 1474 1600 1335 1204 1338 1470
8 1600 1474 1367 1496 1470 1338 1235 1360
8 1336 1205 1340 1472 1471 1339 1475 1601
8 1337 1206 1341 1473 1472 1340 1476 1602
8 1495 1370 1478 1609 1361 1239 1342 1479
8 1348 1212 1342 1479 1483 1347 1478 1609
8 1481 1346 1479 1610 1345 1210 1343 1480
8 1481 1346 1228 1359 1610 1479 1361 1494
8 1484 1348 1214 1351 1610 1479 1343 1480
8 1483 1347 1482 1612 1350 1213 1349 1486
8 1484 1348 1483 1613 1351 1214 1350 1487
8 1353 1230 1360 1488 1489 1363 1496 1616
8 1490 1364 1231 1354 1617 1499 1363 1489
8 1490 1364 1499 1617 1355 1232 1365 1491
8 1356 1234 1365 1491 1492 1366 1500 1619
8 1492 1366 1498 1620 1357 1233 1362 1493
8 1494 1361 1228 1359 1621 1497 1362 1493
8 1495 1370 1239 1361 1622 1504 1371 1497
8 1363 1236 1367 1496 1499 1368 1501 1623
8 1497 1371 1240 1362 1624 1505 1372 1498
8 1625 1503 1372 1498 1500 1369 1241 1366
8 1365 1238 1368 1499 1500 1369 1502 1626
8 1520 1398 1506 1633 1388 1266 1373 1507
8 1634 1507 1374 1508 1512 1388 1255 1380
8 1509 1387 1519 1635 1377 1258 1391 1510
8 1405 1276 1406 1534 1509 1387 1519 1635
8 1515 1392 1260 1383 1636 1522 1390 1511
8 1511 1390 1259 1379 1636 1522 1391 1510
8 1385 1256 1389 1517 1512 1388 1520 1637
8 1513 1394 1262 1382 1638 1524 1393 1514
8 1395 1516 1638 1524 1263 1384 1513 1394
8 1515 1392 1523 1639 1383 1260 1393 1514
8 1516 1395 1526 1640 1386 1264 1396 1518
8 1386 1264 1396 1518 1517 1389 1521 1641
8 1519 1397 1527 1643 1391 1269 1400 1522
8 1535 1407 1527 1643 1406 1277 1397 1519
8 1389 1267 1399 1521 1520 1398 1528 1644
8 1645 1529 1399 1521 1525 1404 1274 1396
8 1392 1270 1400 1522 1523 1401 1531 1646
8 1524 1402 1271 1393 1648 1532 1401 1523
8 1403 1526 1648 1532 1273 1395 1524 1402
8 1525 1404 1274 1396 1649 1533 1403 1526
8 1539 1414 1535 1657 1411 1286 1406 1534
8 1542 1415 1536 1658 1414 1287 1407 1535
8 1409 1285 1412 1537 1538 1413 1540 1660
8 1545 1421 1540 1660 1418 1292 1412 1537
8 1539 1414 1286 1411 1661 1541 1413 1538
8 1540 1417 1544 1663 1413 1288 1416 1541
8 1421 1296 1425 1548 1540 1417 1544 1663
8 1542 1415 1287 1414 1664 1543 1416 1541
8 1420 1294 1423 1547 1545 1421 1548 1666
8 1547 1423 1293 1419 1667 1549 1422 1546
8 1434 1301 1427 1553 1546 1422 1549 1667
8 1423 1297 1424 1549 1548 1425 1550 1668
8 1551 1426 1550 1668 1427 1298 1424 1549
8 1551 1426 1298 1427 1671 1552 1428 1554
8 1562 1432 1554 1674 1434 1301 1427 1553
8 1431 1299 1429 1558 1554 1428 1555 1675
8 1431 1299 1430 1560 1558 1429 1557 1680
8 1560 1430 1300 1432 1683 1559 1433 1563
8 1561 1431 1554 1674 1684 1560 1432 1562
8 1685 1563 1432 1562 1565 1435 1301 1434
8 1435 1302 1436 1566 1563 1433 1564 1686
8 1437 1303 1438 1568 1565 1435 1566 1688
8 1438 1304 1439 1569 1566 1436 1567 1689
8 1440 1306 1441 1571 1568 1438 1569 1691
8 1441 1307 1442 1572 1569 1439 1570 1692
8 1443 1309 1444 1574 1571 1441 1572 1694
8 1310 1444 1572 1442 1445 1575 1695 1573
8 1446 1312 1447 1576 1574 1444 1575 1696
8 1486 1349 1485 1614 1579 1449 1577 1699
8 1451 1317 1449 1579 1581 1450 1578 1701
8 1487 1350 1486 1615 1582 1451 1579 1702
8 1581 1450 1580 1704 1453 1318 1452 1584
8 1582 1451 1581 1705 1454 1319 1453 1585
8 1584 1452 1583 1706 1456 1320 1455 1586
8 1585 1453 1584 1707 1457 1321 1456 1587
8 1587 1456 1586 1708 1458 1323 1459 1588
8 1633 1506 1589 1710 1507 1373 1461 1590
8 1464 1329 1461 1590 1594 1463 1589 1710
8 1468 1336 1462 1591 1595 1464 1590 1711
8 1634 1507 1590 1711 1508 1374 1462 1591
8 1473 1341 1463 1594 1603 1477 1593 1716
8 1469 1337 1464 1595 1599 1473 1594 1717
8 1471 1597 1467 1335 1600 1718 1596 1470
8 1718 1600 1496 1616 1596 1470 1360 1488
8 1336 1468 1597 1471 1472 1598 1719 1601
8 1469 1337 1473 1599 1598 1472 1602 1720
8 1722 1604 1501 1623 1600 1474 1367 1496
8 1475 1601 1471 1339 1604 1722 1600 1474
8 1602 1476 1605 1723 1472 1340 1475 1601
8 1476 1602 1724 1606 1341 1473 1603 1477
8 1483 1347 1478 1609 1612 1482 1608 1731
8 1495 1370 1504 1622 1609 1478 1608 1731
8 1618 1495 1609 1732 1494 1361 1479 1610
8 1484 1348 1479 1610 1613 1483 1609 1732
8 1486 1349 1482 1612 1614 1485 1611 1733
8 1613 1483 1612 1734 1487 1350 1486 1615
8 1489 1363 1496 1616 1617 1499 1623 1736
8 1491 1365 1499 1617 1619 1500 1626 1737
8 1618 1495 1361 1494 1738 1622 1497 1621
8 1739 1625 1498 1620 1619 1500 1366 1492
8 1621 1497 1362 1493 1740 1624 1498 1620
8 1742 1631 1504 1622 1624 1505 1371 1497
8 1743 1628 1502 1626 1623 1501 1368 1499
8 1744 1630 1505 1624 1625 1503 1372 1498
8 1745 1629 1503 1625 1626 1502 1369 1500
8 1520 1398 1528 1644 1633 1506 1632 1751
8 1637 1520 1633 1752 1512 1388 1507 1634
8 1635 1519 1643 1753 1510 1391 1522 1636
8 1657 1535 1643 1753 1534 1406 1519 1635
8 1515 1392 1522 1636 1639 1523 1646 1754
8 1517 1389 1521 1641 1637 1520 1644 1755
8 1524 1638 1756 1648 1393 1514 1639 1523
8 1640 1526 1395 1516 1756 1648 1524 1638
8 1642 1525 1396 1518 1757 1649 1526 1640
8 1758 1645 1521 1641 1642 1525 1396 1518
8 1646 1531 1400 1522 1760 1650 1527 1643
8 1535 1407 1536 1658 1643 1527 1650 1760
8 1521 1399 1529 1645 1644 1528 1651 1761
8 1647 1530 1652 1762 1525 1404 1529 1645
8 1401 1523 1648 1532 1531 1646 1763 1655
8 1525 1404 1533 1649 1647 1530 1654 1765
8 1533 1649 1766 1656 1403 1526 1648 1532
8 1662 1542 1658 1774 1539 1414 1535 1657
8 1542 1415 1543 1664 1658 1536 1659 1775
8 1660 1540 1663 1777 1538 1413 1541 1661
8 1545 1421 1548 1666 1660 1540 1663 1777
8 1662 1542 1414 1539 1778 1664 1541 1661
8 1664 1543 1416 1541 1779 1665 1544 1663
8 1548 1425 1550 1668 1663 1544 1665 1779
8 1547 1423 1549 1667 1666 1548 1668 1781
8 1670 1551 1668 1781 1553 1427 1549 1667
8 1551 1426 1552 1671 1668 1550 1669 1782
8 1670 1551 1427 1553 1784 1671 1554 1674
8 1675 1555 1672 1785 1554 1428 1552 1671
8 1678 1556 1673 1789 1558 1429 1555 1675
8 1561 1431 1558 1681 1674 1554 1675 1790
8 1794 1677 1556 1678 1680 1557 1429 1558
8 1560 1430 1559 1683 1680 1557 1679 1797
8 1561 1431 1560 1684 1681 1558 1680 1798
8 1563 1433 1564 1686 1683 1559 1682 1800
8 1684 1560 1432 1562 1801 1683 1563 1685
8 1565 1435 1566 1688 1685 1563 1686 1802
8 1566 1436 1567 1689 1686 1564 1687 1803
8 1568 1438 1569 1691 1688 1566 1689 1805
8 1569 1439 1570 1692 1689 1567 1690 1806
8 1571 1441 1572 1694 1691 1569 1692 1808
8 1442 1572 1692 1570 1573 1695 1809 1693
8 1574 1444 1575 1696 1694 1572 1695 1810
8 1614 1485 1592 1712 1699 1577 1697 1813
8 1579 1449 1577 1699 1701 1578 1698 1815
8 1615 1486 1614 1735 1702 1579 1699 1816
8 1701 1578 1700 1818 1581 1450 1580 1704
8 1582 1451 1579 1702 1705 1581 1701 1819
8 1704 1580 1703 1820 1584 1452 1583 1706
8 1705 1581 1704 1821 1585 1453 1584 1707
8 1707 1584 1706 1822 1587 1456 1586 1708
8 1710 1589 1506 1633 1824 1709 1632 1751
8 1594 1463 1589 1710 1716 1593 1709 1824
8 1752 1633 1710 1825 1634 1507 1590 1711
8 1595 1464 1590 1711 1717 1594 1710 1825
8 1830 1714 1592 1712 1733 1611 1485 1614
8 1603 1477 1593 1716 1725 1607 1715 1834
8 1599 1473 1594 1717 1721 1603 1716 1835
8 1837 1722 1623 1736 1718 1600 1496 1616
8 1719 1601 1722 1837 1597 1471 1600 1718
8 1602 1720 1598 1472 1723 1838 1719 1601
8 1720 1602 1473 1599 1839 1724 1603 1721
8 1723 1605 1726 1840 1601 1475 1604 1722
8 1840 1726 1628 1743 1722 1604 1501 1623
8 1724 1606 1727 1841 1602 1476 1605 1723
8 1725 1607 1728 1842 1603 1477 1606 1724
8 1612 1482 1608 1731 1733 1611 1730 1849
8 1741 1627 1730 1849 1622 1504 1608 1731
8 1613 1483 1609 1732 1734 1612 1731 1850
8 1618 1495 1622 1738 1732 1609 1731 1850
8 1615 1486 1612 1734 1735 1614 1733 1851
8 1852 1743 1626 1737 1736 1623 1499 1617
8 1853 1745 1625 1739 1737 1626 1500 1619
8 1855 1742 1622 1738 1740 1624 1497 1621
8 1856 1744 1624 1740 1739 1625 1498 1620
8 1741 1627 1504 1622 1857 1746 1631 1742
8 1742 1631 1505 1624 1858 1749 1630 1744
8 1859 1747 1629 1745 1743 1628 1502 1626
8 1860 1748 1630 1744 1745 1629 1503 1625
8 1644 1528 1651 1761 1751 1632 1750 1865
8 1637 1520 1644 1755 1752 1633 1751 1866
8 1754 1646 1522 1636 1867 1760 1643 1753
8 1657 1535 1658 1774 1753 1643 1760 1867
8 1639 1523 1646 1754 1756 1648 1763 1868
8 1641 1521 1645 1758 1755 1644 1761 1869
8 1757 1649 1526 1640 1870 1766 1648 1756
8 1642 1525 1649 1757 1759 1647 1765 1871
8 1759 1647 1762 1872 1642 1525 1645 1758
8 1760 1650 1767 1874 1646 1531 1655 1763
8 1658 1536 1659 1775 1760 1650 1767 1874
8 1762 1652 1768 1875 1645 1529 1651 1761
8 1764 1653 1769 1876 1647 1530 1652 1762
8 1656 1766 1877 1773 1532 1648 1763 1655
8 1771 1879 1765 1654 1653 1764 1647 1530
8 1533 1649 1765 1654 1656 1766 1880 1772
8 1662 1542 1664 1778 1774 1658 1775 1887
8 1664 1543 1665 1779 1775 1659 1776 1888
8 1778 1664 1541 1661 1890 1779 1663 1777
8 1666 1548 1668 1781 1777 1663 1779 1890
8 1782 1669 1780 1891 1668 1550 1665 1779
8 1670 1551 1671 1784 1781 1668 1782 1893
8 1671 1552 1672 1785 1782 1669 1783 1894
8 1790 1675 1785 1896 1674 1554 1671 1784
8 1675 1555 1673 1789 1785 1672 1786 1897
8 1792 1676 1788 1903 1678 1556 1673 1789
8 1795 1678 1789 1904 1681 1558 1675 1790
8 1792 1676 1556 1678 1906 1791 1677 1794
8 1680 1557 1679 1797 1794 1677 1793 1909
8 1910 1794 1678 1795 1798 1680 1558 1681
8 1683 1559 1682 1800 1797 1679 1796 1912
8 1684 1560 1683 1801 1798 1680 1797 1913
8 1686 1564 1687 1803 1800 1682 1799 1915
8 1685 1563 1686 1802 1801 1683 1800 1916
8 1688 1566 1689 1805 1802 1686 1803 1917
8 1689 1567 1690 1806 1803 1687 1804 1918
8 1691 1569 1692 1808 1805 1689 1806 1920
8 1692 1570 1693 1809 1806 1690 1807 1921
8 1694 1572 1695 1810 1808 1692 1809 1922
8 1829 1713 1811 1926 1712 1592 1697 1813
8 1813 1697 1812 1928 1699 1577 1698 1815
8 1735 1614 1712 1828 1816 1699 1813 1929
8 1815 1698 1814 1931 1701 1578 1700 1818
8 1702 1579 1699 1816 1819 1701 1815 1932
8 1818 1700 1817 1933 1704 1580 1703 1820
8 1819 1701 1818 1934 1705 1581 1704 1821
8 1821 1704 1820 1935 1707 1584 1706 1822
8 1824 1709 1632 1751 1937 1823 1750 1865
8 1716 1593 1709 1824 1834 1715 1823 1937
8 1825 1710 1633 1752 1938 1824 1751 1866
8 1717 1594 1710 1825 1835 1716 1824 1938
8 1945 1830 1712 1828 1851 1733 1614 1735
8 1830 1714 1831 1946 1712 1592 1713 1829
8 1947 1832 1714 1830 1849 1730 1611 1733
8 1843 1729 1607 1725 1950 1833 1715 1834
8 1721 1603 1716 1835 1836 1725 1834 1951
8 1836 1725 1842 1953 1721 1603 1724 1839
8 1723 1838 1719 1601 1840 1954 1837 1722
8 1954 1840 1743 1852 1837 1722 1623 1736
8 1724 1839 1720 1602 1841 1955 1838 1723
8 1841 1727 1844 1956 1723 1605 1726 1840
8 1956 1844 1747 1859 1840 1726 1628 1743
8 1728 1842 1724 1606 1845 1957 1841 1727
8 1725 1607 1729 1843 1842 1728 1846 1958
8 1741 1627 1746 1857 1849 1730 1848 1965
8 1734 1612 1731 1850 1851 1733 1849 1966
8 1854 1741 1849 1966 1738 1622 1731 1850
8 1967 1859 1745 1853 1852 1743 1626 1737
8 1968 1860 1744 1856 1853 1745 1625 1739
8 1854 1741 1622 1738 1969 1857 1742 1855
8 1855 1742 1624 1740 1970 1858 1744 1856
8 1857 1746 1631 1742 1971 1861 1749 1858
8 1858 1749 1630 1744 1972 1863 1748 1860
8 1859 1747 1862 1973 1745 1629 1748 1860
8 1875 1768 1864 1977 1761 1651 1750 1865
8 1755 1644 1761 1869 1866 1751 1865 1978
8 1867 1760 1874 1979 1754 1646 1763 1868
8 1774 1658 1775 1887 1867 1760 1874 1979
8 1870 1766 1648 1756 1980 1877 1763 1868
8 1872 1762 1875 1981 1758 1645 1761 1869
8 1757 1649 1766 1870 1871 1765 1880 1982
8 1983 1879 1764 1873 1871 1765 1647 1759
8 1873 1764 1876 1984 1759 1647 1762 1872
8 1877 1773 1655 1763 1986 1881 1767 1874
8 1775 1659 1776 1888 1874 1767 1881 1986
8 1876 1769 1882 1987 1762 1652 1768 1875
8 1878 1770 1883 1988 1764 1653 1769 1876
8 1880 1772 1656 1766 1989 1886 1773 1877
8 1878 1770 1653 1764 1990 1884 1771 1879
8 1765 1654 1772 1880 1879 1771 1885 1991
8 1778 1664 1779 1890 1887 1775 1888 1997
8 1998 1889 1776 1888 1891 1780 1665 1779
8 1893 1782 1891 2000 1781 1668 1779 1890
8 1894 1783 1892 2001 1782 1669 1780 1891
8 1784 1671 1785 1896 1893 1782 1894 2003
8 1897 1786 1895 2004 1785 1672 1783 1894
8 1790 1675 1789 1904 1896 1785 1897 2006
8 1901 1787 1898 2007 1789 1673 1786 1897
8 1903 1788 1900 2013 1789 1673 1787 1901
8 1792 1676 1791 1906 1903 1788 1902 2016
8 1907 1792 1903 2017 1795 1678 1789 1904
8 1906 1791 1677 1794 2019 1905 1793 1909
8 1907 1792 1678 1795 2020 1906 1794 1910
8 1797 1679 1796 1912 1909 1793 1908 2022
8 1798 1680 1797 1913 1910 1794 1909 2023
8 1800 1682 1799 1915 1912 1796 1911 2025
8 1801 1683 1800 1916 1913 1797 1912 2026
8 1803 1687 1804 1918 1915 1799 1914 2028
8 1802 1686 1803 1917 1916 1800 1915 2029
8 1805 1689 1806 1920 1917 1803 1918 2030
8 1806 1690 1807 1921 1918 1804 1919 2031
8 1808 1692 1809 1922 1920 1806 1921 2032
8 1939 1826 1924 2037 1829 1713 1811 1926
8 1926 1811 1925 2039 1813 1697 1812 1928
8 1944 1829 1926 2040 1828 1712 1813 1929
8 1928 1812 1927 2042 1815 1698 1814 1931
8 1929 1813 1928 2043 1816 1699 1815 1932
8 1931 1814 1930 2044 1818 1700 1817 1933
8 1932 1815 1931 2045 1819 1701 1818 1934
8 1934 1818 1933 2046 1821 1704 1820 1935
8 2048 1936 1823 1937 1977 1864 1750 1865
8 1950 1833 1715 1834 2048 1936 1823 1937
8 1938 1824 1751 1866 2049 1937 1865 1978
8 1835 1716 1824 1938 1951 1834 1937 2049
8 1939 1826 1713 1829 2053 1942 1831 1946
8 1940 1827 1923 2035 2053 1942 1826 1939
8 1945 1830 1946 2058 1828 1712 1829 1944
8 2059 1947 1830 1945 1966 1849 1733 1851
8 1947 1832 1730 1849 2060 1948 1848 1965
8 1947 1832 1948 2060 1830 1714 1831 1946
8 1959 1847 1729 1843 2063 1949 1833 1950
8 1952 1843 1725 1836 2064 1950 1834 1951
8 1836 1725 1843 1952 1953 1842 1958 2066
8 1953 1842 1957 2067 1839 1724 1841 1955
8 1841 1955 1838 1723 1956 2068 1954 1840
8 2068 1956 1859 1967 1954 1840 1743 1852
8 1956 1844 1960 2069 1859 1747 1862 1973
8 1845 1957 1841 1727 1960 2069 1956 1844
8 1728 1842 1957 1845 1846 1958 2071 1961
8 1962 2072 1959 1847 1846 1958 1843 1729
8 1971 1861 1964 2077 1857 1746 1848 1965
8 1854 1741 1857 1969 1966 1849 1965 2078
8 1967 1859 1973 2079 1853 1745 1860 1968
8 1970 1858 1744 1856 2080 1972 1860 1968
8 1969 1857 1742 1855 2081 1971 1858 1970
8 1971 1861 1749 1858 2082 1974 1863 1972
8 1973 1862 1975 2083 1860 1748 1863 1972
8 1987 1882 1976 2086 1875 1768 1864 1977
8 1981 1875 1977 2087 1869 1761 1865 1978
8 1980 1877 1763 1868 2088 1986 1874 1979
8 1887 1775 1888 1997 1979 1874 1986 2088
8 1880 1982 2089 1989 1766 1870 1980 1877
8 1984 1876 1987 2090 1872 1762 1875 1981
8 1765 1871 1983 1879 1880 1982 2091 1991
8 1985 1878 1764 1873 2092 1990 1879 1983
8 1985 1878 1988 2093 1873 1764 1876 1984
8 2094 1992 1881 1986 1998 1889 1776 1888
8 1986 1881 1992 2094 1877 1773 1886 1989
8 1988 1883 1993 2095 1876 1769 1882 1987
8 1878 1770 1884 1990 1988 1883 1994 2096
8 1991 1885 1772 1880 2097 1996 1886 1989
8 1879 1771 1885 1991 1990 1884 1995 2098
8 2103 1998 1888 1997 2000 1891 1779 1890
8 2104 1999 1889 1998 2001 1892 1780 1891
8 2003 1894 2001 2106 1893 1782 1891 2000
8 2004 1895 2002 2107 1894 1783 1892 2001
8 2006 1897 2004 2109 1896 1785 1894 2003
8 2007 1898 2005 2110 1897 1786 1895 2004
8 2014 1901 2007 2112 1904 1789 1897 2006
8 2011 1899 2008 2113 1901 1787 1898 2007
8 2119 2010 1899 2011 2013 1900 1787 1901
8 2016 1902 2012 2122 1903 1788 1900 2013
8 2017 1903 2013 2123 1904 1789 1901 2014
8 1906 1791 1905 2019 2016 1902 2015 2125
8 1907 1792 1906 2020 2017 1903 2016 2126
8 1909 1793 1908 2022 2019 1905 2018 2128
8 2020 1906 1794 1910 2129 2019 1909 2023
8 1912 1796 1911 2025 2022 1908 2021 2131
8 1913 1797 1912 2026 2023 1909 2022 2132
8 1915 1799 1914 2028 2025 1911 2024 2134
8 1916 1800 1915 2029 2026 1912 2025 2135
8 1918 1804 1919 2031 2028 1914 2027 2136
8 1917 1803 1918 2030 2029 1915 2028 2137
8 1920 1806 1921 2032 2030 1918 2031 2138
8 1940 1827 1941 2054 2035 1923 2033 2140
8 2035 1923 2034 2143 1939 1826 1924 2037
8 2037 1924 2036 2146 1926 1811 1925 2039
8 2051 1939 2037 2147 1944 1829 1926 2040
8 2039 1925 2038 2149 1928 1812 1927 2042
8 2040 1926 2039 2150 1929 1813 1928 2043
8 2042 1927 2041 2151 1931 1814 1930 2044
8 2043 1928 2042 2152 1932 1815 1931 2045
8 2045 1931 2044 2153 1934 1818 1933 2046
8 2155 2047 1936 2048 2086 1976 1864 1977
8 2063 1949 1833 1950 2155 2047 1936 2048
8 2156 2048 1937 2049 2087 1977 1865 1978
8 2064 1950 1834 1951 2156 2048 1937 2049
8 2051 1939 1829 1944 2160 2053 1946 2058
8 2052 1940 2035 2144 2160 2053 1939 2051
8 2053 1942 1831 1946 2163 2057 1948 2060
8 2055 1943 1827 1940 2163 2057 1942 2053
8 2055 1943 2056 2164 1940 1827 1941 2054
8 2059 1947 1849 1966 2167 2060 1965 2078
8 2059 1947 2060 2167 1945 1830 1946 2058
8 2077 1964 2061 2168 1965 1848 1948 2060
8 2070 1963 1847 1959 2170 2062 1949 2063
8 2065 1959 1843 1952 2171 2063 1950 2064
8 2173 2072 1958 2066 2065 1959 1843 1952
8 1953 1842 1958 2066 2067 1957 2071 2174
8 2068 1956 2069 2175 1967 1859 1973 2079
8 2067 1957 2069 2175 1955 1841 1956 2068
8 1845 1957 2069 1960 1961 2071 2176 2073
8 2069 1960 2073 2176 1973 1862 1975 2083
8 2070 1963 2075 2177 1959 1847 1962 2072
8 1846 1958 2071 1961 1962 2072 2178 2074
8 2077 1964 1861 1971 2182 2076 1974 2082
8 2081 1971 2077 2183 1969 1857 1965 2078
8 2079 1973 2083 2184 1968 1860 1972 2080
8 2081 1971 1858 1970 2185 2082 1972 2080
8 2083 1975 2084 2186 1972 1863 1974 2082
8 2086 1976 1882 1987 2189 2085 1993 2095
8 2090 1987 2086 2190 1981 1875 1977 2087
8 2191 2094 1986 2088 2103 1998 1888 1997
8 2088 1986 2094 2191 1980 1877 1989 2089
8 1991 2091 2192 2097 1880 1982 2089 1989
8 2093 1988 2095 2193 1984 1876 1987 2090
8 1879 1983 2092 1990 1991 2091 2194 2098
8 1985 1878 1990 2092 2093 1988 2096 2195
8 2097 1996 1886 1989 2196 2099 1992 2094
8 2196 2099 1992 2094 2104 1999 1889 1998
8 1994 2096 1988 1883 2100 2197 2095 1993
8 2096 1994 1884 1990 2198 2101 1995 2098
8 1995 2098 2199 2102 1885 1991 2097 1996
8 2203 2104 1998 2103 2106 2001 1891 2000
8 2107 2002 2105 2204 2001 1892 1999 2104
8 2109 2004 2107 2206 2003 1894 2001 2106
8 2110 2005 2108 2207 2004 1895 2002 2107
8 2112 2007 2110 2209 2006 1897 2004 2109
8 2113 2008 2111 2210 2007 1898 2005 2110
8 2120 2011 2113 2212 2014 1901 2007 2112
8 2117 2009 2114 2213 2011 1899 2008 2113
8 2219 2116 2009 2117 2119 2010 1899 2011
8 2222 2118 2010 2119 2122 2012 1900 2013
8 2223 2119 2011 2120 2123 2013 1901 2014
8 2016 1902 2015 2125 2122 2012 2121 2225
8 2126 2016 2122 2226 2017 1903 2013 2123
8 2019 1905 2018 2128 2125 2015 2124 2228
8 2020 1906 2019 2129 2126 2016 2125 2229
8 2022 1908 2021 2131 2128 2018 2127 2231
8 2023 1909 2022 2132 2129 2019 2128 2232
8 2025 1911 2024 2134 2131 2021 2130 2234
8 2026 1912 2025 2135 2132 2022 2131 2235
8 1914 2028 2134 2024 2027 2136 2236 2133
8 2029 1915 2028 2137 2135 2025 2134 2237
8 2030 1918 2031 2138 2137 2028 2136 2238
8 2157 2050 2139 2240 2054 1941 2033 2140
8 2052 1940 2054 2161 2144 2035 2140 2242
8 2140 2033 2141 2243 2035 1923 2034 2143
8 2143 2034 2142 2246 2037 1924 2036 2146
8 2144 2035 2143 2247 2051 1939 2037 2147
8 2146 2036 2145 2249 2039 1925 2038 2149
8 2147 2037 2146 2250 2040 1926 2039 2150
8 2149 2038 2148 2251 2042 1927 2041 2151
8 2150 2039 2149 2252 2043 1928 2042 2152
8 2152 2042 2151 2253 2045 1931 2044 2153
8 2255 2154 2047 2155 2189 2085 1976 2086
8 2170 2062 1949 2063 2255 2154 2047 2155
8 2256 2155 2048 2156 2190 2086 1977 2087
8 2171 2063 1950 2064 2256 2155 2048 2156
8 2258 2159 2050 2157 2164 2056 1941 2054
8 2160 2053 1946 2058 2262 2163 2060 2167
8 2162 2055 1940 2052 2262 2163 2053 2160
8 2162 2055 2164 2263 2052 1940 2054 2161
8 2163 2057 1948 2060 2264 2165 2061 2168
8 2055 1943 2057 2163 2164 2056 2165 2264
8 2182 2076 2166 2268 2077 1964 2061 2168
8 2183 2077 2168 2269 2078 1965 2060 2167
8 2070 1963 2062 2170 2177 2075 2169 2271
8 2172 2070 1959 2065 2272 2170 2063 2171
8 2172 2070 2177 2273 2065 1959 2072 2173
8 2066 1958 2072 2173 2174 2071 2178 2274
8 2067 1957 2071 2174 2175 2069 2176 2275
8 2175 2069 2176 2275 2079 1973 2083 2184
8 2071 1961 2074 2178 2176 2073 2179 2276
8 2176 2073 2179 2276 2083 1975 2084 2186
8 2072 1962 2075 2177 2178 2074 2180 2277
8 2182 2076 1974 2082 2280 2181 2084 2186
8 2183 2077 1971 2081 2281 2182 2082 2185
8 2184 2083 2186 2282 2080 1972 2082 2185
8 2189 2085 1993 2095 2285 2188 2100 2197
8 2190 2086 1987 2090 2286 2189 2095 2193
8 2192 2097 1989 2089 2287 2196 2094 2191
8 2287 2196 2094 2191 2203 2104 1998 2103
8 2194 2098 1991 2091 2288 2199 2097 2192
8 2195 2096 2197 2289 2093 1988 2095 2193
8 2096 2195 2290 2198 1990 2092 2194 2098
8 2097 1996 2099 2196 2199 2102 2200 2291
8 2196 2099 1999 2104 2291 2200 2105 2204
8 2100 2197 2292 2201 1994 2096 2198 2101
8 1995 2098 2198 2101 2102 2199 2293 2202
8 2206 2107 2204 2296 2106 2001 2104 2203
8 2207 2108 2205 2297 2107 2002 2105 2204
8 2209 2110 2207 2299 2109 2004 2107 2206
8 2210 2111 2208 2300 2110 2005 2108 2207
8 2212 2113 2210 2302 2112 2007 2110 2209
8 2213 2114 2211 2303 2113 2008 2111 2210
8 2220 2117 2213 2305 2120 2011 2113 2212
8 2216 2115 2214 2306 2117 2009 2114 2213
8 2216 2115 2009 2117 2311 2217 2116 2219
8 2219 2116 2010 2119 2314 2218 2118 2222
8 2315 2219 2117 2220 2223 2119 2011 2120
8 2122 2012 2121 2225 2222 2118 2221 2317
8 2318 2222 2119 2223 2226 2122 2013 2123
8 2125 2015 2124 2228 2225 2121 2224 2320
8 2126 2016 2125 2229 2226 2122 2225 2321
8 2128 2018 2127 2231 2228 2124 2227 2323
8 2129 2019 2128 2232 2229 2125 2228 2324
8 2131 2021 2130 2234 2231 2127 2230 2326
8 2132 2022 2131 2235 2232 2128 2231 2327
8 2134 2024 2133 2236 2234 2130 2233 2328
8 2135 2025 2134 2237 2235 2131 2234 2329
8 2137 2028 2136 2238 2237 2134 2236 2330
8 2157 2050 2158 2259 2240 2139 2239 2332
8 2257 2157 2240 2334 2161 2054 2140 2242
8 2240 2139 2241 2335 2140 2033 2141 2243
8 2242 2140 2243 2337 2144 2035 2143 2247
8 2243 2141 2244 2338 2143 2034 2142 2246
8 2246 2142 2245 2341 2146 2036 2145 2249
8 2247 2143 2246 2342 2147 2037 2146 2250
8 2249 2145 2248 2343 2149 2038 2148 2251
8 2250 2146 2249 2344 2150 2039 2149 2252
8 2252 2149 2251 2345 2152 2042 2151 2253
8 2169 2271 2347 2254 2062 2170 2255 2154
8 2189 2085 2188 2285 2255 2154 2254 2347
8 2348 2255 2155 2256 2286 2189 2086 2190
8 2272 2170 2063 2171 2348 2255 2155 2256
8 2349 2258 2157 2257 2263 2164 2054 2161
8 2258 2159 2261 2351 2157 2050 2158 2259
8 2258 2159 2056 2164 2351 2261 2165 2264
8 2262 2163 2060 2167 2355 2264 2168 2269
8 2162 2055 2163 2262 2263 2164 2264 2355
8 2357 2266 2165 2264 2268 2166 2061 2168
8 2268 2166 2076 2182 2361 2267 2181 2280
8 2281 2182 2268 2362 2183 2077 2168 2269
8 2271 2169 2270 2364 2177 2075 2180 2277
8 2172 2070 2170 2272 2273 2177 2271 2365
8 2072 2173 2274 2178 2177 2273 2366 2277
8 2071 2174 2275 2176 2178 2274 2367 2276
8 2275 2176 2276 2367 2184 2083 2186 2282
8 2283 2187 2084 2186 2368 2278 2179 2276
8 2178 2074 2180 2277 2276 2179 2278 2368
8 2283 2187 2279 2370 2186 2084 2181 2280
8 2281 2182 2082 2185 2371 2280 2186 2282
8 2188 2285 2374 2284 2100 2197 2292 2201
8 2286 2189 2095 2193 2375 2285 2197 2289
8 2192 2097 2196 2287 2288 2199 2291 2376
8 2287 2196 2104 2203 2376 2291 2204 2296
8 2194 2098 2199 2288 2290 2198 2293 2377
8 2289 2197 2096 2195 2378 2292 2198 2290
8 2291 2200 2105 2204 2379 2294 2205 2297
8 2199 2102 2200 2291 2293 2202 2294 2379
8 2198 2101 2202 2293 2292 2201 2295 2380
8 2299 2207 2297 2383 2206 2107 2204 2296
8 2300 2208 2298 2384 2207 2108 2205 2297
8 2302 2210 2300 2386 2209 2110 2207 2299
8 2303 2211 2301 2387 2210 2111 2208 2300
8 2305 2213 2303 2389 2212 2113 2210 2302
8 2306 2214 2304 2390 2213 2114 2211 2303
8 2310 2216 2306 2392 2220 2117 2213 2305
8 2308 2215 2307 2393 2216 2115 2214 2306
8 2308 2215 2115 2216 2396 2309 2217 2311
8 2310 2216 2117 2220 2398 2311 2219 2315
8 2311 2217 2116 2219 2399 2312 2218 2314
8 2314 2218 2118 2222 2402 2313 2221 2317
8 2315 2219 2119 2223 2403 2314 2222 2318
8 2225 2121 2224 2320 2317 2221 2316 2405
8 2226 2122 2225 2321 2318 2222 2317 2406
8 2228 2124 2227 2323 2320 2224 2319 2408
8 2229 2125 2228 2324 2321 2225 2320 2409
8 2231 2127 2230 2326 2323 2227 2322 2411
8 2232 2128 2231 2327 2324 2228 2323 2412
8 2234 2130 2233 2328 2326 2230 2325 2413
8 2235 2131 2234 2329 2327 2231 2326 2414
8 2237 2134 2236 2330 2329 2234 2328 2415
8 2259 2158 2260 2352 2332 2239 2331 2417
8 2257 2157 2259 2350 2334 2240 2332 2419
8 2240 2139 2239 2332 2335 2241 2333 2420
8 2334 2240 2335 2422 2242 2140 2243 2337
8 2335 2241 2336 2423 2243 2141 2244 2338
8 2337 2243 2338 2425 2247 2143 2246 2342
8 2338 2244 2339 2426 2246 2142 2245 2341
8 2341 2245 2340 2428 2249 2145 2248 2343
8 2342 2246 2341 2429 2250 2146 2249 2344
8 2344 2249 2343 2430 2252 2149 2251 2345
8 2188 2285 2347 2254 2284 2374 2432 2346
8 2347 2254 2346 2432 2271 2169 2270 2364
8 2365 2271 2170 2272 2433 2347 2255 2348
8 2286 2189 2285 2375 2348 2255 2347 2433
8 2349 2258 2351 2435 2257 2157 2259 2350
8 2349 2258 2164 2263 2435 2351 2264 2355
8 2259 2158 2261 2351 2352 2260 2354 2437
8 2356 2265 2354 2437 2264 2165 2261 2351
8 2441 2357 2264 2355 2362 2268 2168 2269
8 2356 2265 2165 2264 2442 2358 2266 2357
8 2443 2359 2266 2357 2361 2267 2166 2268
8 2370 2279 2360 2446 2280 2181 2267 2361
8 2362 2268 2182 2281 2447 2361 2280 2371
8 2180 2277 2368 2278 2270 2364 2449 2363
8 2271 2365 2273 2177 2364 2450 2366 2277
8 2372 2283 2186 2282 2451 2368 2276 2367
8 2178 2274 2367 2276 2277 2366 2451 2368
8 2283 2187 2278 2368 2370 2279 2369 2452
8 2372 2283 2370 2453 2282 2186 2280 2371
8 2284 2374 2455 2373 2201 2292 2380 2295
8 2375 2285 2197 2289 2456 2374 2292 2378
8 2376 2291 2204 2296 2457 2379 2297 2383
8 2288 2199 2291 2376 2377 2293 2379 2457
8 2198 2290 2378 2292 2293 2377 2458 2380
8 2293 2202 2294 2379 2380 2295 2381 2459
8 2384 2298 2381 2459 2297 2205 2294 2379
8 2386 2300 2384 2463 2299 2207 2297 2383
8 2387 2301 2385 2464 2300 2208 2298 2384
8 2389 2303 2387 2466 2302 2210 2300 2386
8 2390 2304 2388 2467 2303 2211 2301 2387
8 2392 2306 2390 2469 2305 2213 2303 2389
8 2393 2307 2391 2470 2306 2214 2304 2390
8 2395 2308 2393 2472 2310 2216 2306 2392
8 2308 2215 2309 2396 2393 2307 2394 2473
8 2395 2308 2216 2310 2475 2396 2311 2398
8 2396 2309 2217 2311 2476 2397 2312 2399
8 2398 2311 2219 2315 2478 2399 2314 2403
8 2399 2312 2218 2314 2479 2400 2313 2402
8 2317 2221 2316 2405 2402 2313 2401 2482
8 2403 2314 2222 2318 2483 2402 2317 2406
8 2320 2224 2319 2408 2405 2316 2404 2485
8 2321 2225 2320 2409 2406 2317 2405 2486
8 2323 2227 2322 2411 2408 2319 2407 2488
8 2324 2228 2323 2412 2409 2320 2408 2489
8 2326 2230 2325 2413 2411 2322 2410 2490
8 2327 2231 2326 2414 2412 2323 2411 2491
8 2329 2234 2328 2415 2414 2326 2413 2492
8 2417 2331 2260 2352 2494 2416 2353 2438
8 2350 2259 2352 2436 2419 2332 2417 2496
8 2332 2239 2331 2417 2420 2333 2418 2497
8 2334 2240 2332 2419 2422 2335 2420 2499
8 2420 2333 2421 2500 2335 2241 2336 2423
8 2422 2335 2423 2502 2337 2243 2338 2425
8 2423 2336 2424 2503 2338 2244 2339 2426
8 2425 2338 2426 2505 2342 2246 2341 2429
8 2426 2339 2427 2506 2341 2245 2340 2428
8 2429 2341 2428 2507 2344 2249 2343 2430
8 2432 2346 2284 2374 2509 2431 2373 2455
8 2432 2346 2431 2509 2364 2270 2363 2449
8 2375 2285 2374 2456 2433 2347 2432 2510
8 2347 2433 2365 2271 2432 2510 2450 2364
8 2350 2259 2351 2435 2436 2352 2437 2514
8 2440 2356 2437 2514 2355 2264 2351 2435
8 2352 2260 2354 2437 2438 2353 2439 2516
8 2356 2265 2358 2442 2437 2354 2439 2516
8 2440 2356 2264 2355 2518 2442 2357 2441
8 2519 2443 2357 2441 2447 2361 2268 2362
8 2443 2359 2444 2520 2357 2266 2358 2442
8 2443 2359 2267 2361 2520 2444 2360 2446
8 2446 2360 2279 2370 2523 2445 2369 2452
8 2453 2370 2446 2524 2371 2280 2361 2447
8 2449 2363 2448 2525 2368 2278 2369 2452
8 2366 2277 2364 2450 2451 2368 2449 2526
8 2372 2283 2368 2451 2453 2370 2452 2527
8 2455 2373 2295 2380 2529 2454 2382 2460
8 2456 2374 2292 2378 2530 2455 2380 2458
8 2377 2293 2379 2457 2458 2380 2459 2531
8 2463 2384 2459 2531 2383 2297 2379 2457
8 2533 2461 2382 2460 2459 2381 2295 2380
8 2464 2385 2461 2533 2384 2298 2381 2459
8 2466 2387 2464 2537 2386 2300 2384 2463
8 2467 2388 2465 2538 2387 2301 2385 2464
8 2469 2390 2467 2540 2389 2303 2387 2466
8 2470 2391 2468 2541 2390 2304 2388 2467
8 2472 2393 2470 2543 2392 2306 2390 2469
8 2393 2307 2394 2473 2470 2391 2471 2544
8 2395 2308 2396 2475 2472 2393 2473 2546
8 2396 2309 2397 2476 2473 2394 2474 2547
8 2475 2396 2311 2398 2549 2476 2399 2478
8 2476 2397 2312 2399 2550 2477 2400 2479
8 2478 2399 2314 2403 2552 2479 2402 2483
8 2479 2400 2313 2402 2553 2480 2401 2482
8 2405 2316 2404 2485 2482 2401 2481 2556
8 2406 2317 2405 2486 2483 2402 2482 2557
8 2408 2319 2407 2488 2485 2404 2484 2559
8 2409 2320 2408 2489 2486 2405 2485 2560
8 2411 2322 2410 2490 2488 2407 2487 2561
8 2412 2323 2411 2491 2489 2408 2488 2562
8 2414 2326 2413 2492 2491 2411 2490 2563
8 2513 2434 2493 2565 2438 2353 2416 2494
8 2496 2417 2352 2436 2567 2494 2438 2515
8 2494 2416 2495 2568 2417 2331 2418 2497
8 2419 2332 2417 2496 2499 2420 2497 2570
8 2497 2418 2498 2571 2420 2333 2421 2500
8 2499 2420 2500 2573 2422 2335 2423 2502
8 2500 2421 2501 2574 2423 2336 2424 2503
8 2502 2423 2503 2576 2425 2338 2426 2505
8 2503 2424 2504 2577 2426 2339 2427 2506
8 2505 2426 2506 2578 2429 2341 2428 2507
8 2509 2431 2373 2455 2580 2508 2454 2529
8 2509 2431 2508 2580 2449 2363 2448 2525
8 2432 2510 2581 2509 2374 2456 2530 2455
8 2432 2510 2450 2364 2509 2581 2526 2449
8 2583 2511 2434 2513 2516 2439 2353 2438
8 2436 2352 2437 2514 2515 2438 2516 2588
8 2440 2356 2442 2518 2514 2437 2516 2588
8 2442 2358 2444 2520 2516 2439 2517 2589
8 2519 2443 2520 2591 2441 2357 2442 2518
8 2519 2443 2361 2447 2591 2520 2446 2524
8 2446 2360 2445 2523 2520 2444 2521 2592
8 2525 2448 2522 2593 2452 2369 2445 2523
8 2524 2446 2370 2453 2594 2523 2452 2527
8 2526 2449 2525 2595 2451 2368 2452 2527
8 2534 2462 2528 2597 2460 2382 2454 2529
8 2530 2455 2380 2458 2598 2529 2460 2532
8 2599 2533 2460 2532 2531 2459 2380 2458
8 2537 2464 2533 2599 2463 2384 2459 2531
8 2534 2462 2382 2460 2601 2535 2461 2533
8 2538 2465 2535 2601 2464 2385 2461 2533
8 2540 2467 2538 2604 2466 2387 2464 2537
8 2541 2468 2539 2605 2467 2388 2465 2538
8 2543 2470 2541 2607 2469 2390 2467 2540
8 2470 2391 2471 2544 2541 2468 2542 2608
8 2472 2393 2473 2546 2543 2470 2544 2610
8 2473 2394 2474 2547 2544 2471 2545 2611
8 2475 2396 2476 2549 2546 2473 2547 2613
8 2476 2397 2477 2550 2547 2474 2548 2614
8 2549 2476 2399 2478 2616 2550 2479 2552
8 2479 2400 2480 2553 2550 2477 2551 2617
8 2552 2479 2402 2483 2619 2553 2482 2557
8 2482 2401 2481 2556 2553 2480 2554 2620
8 2485 2404 2484 2559 2556 2481 2555 2623
8 2486 2405 2485 2560 2557 2482 2556 2624
8 2488 2407 2487 2561 2559 2484 2558 2625
8 2489 2408 2488 2562 2560 2485 2559 2626
8 2491 2411 2490 2563 2562 2488 2561 2627
8 2513 2434 2512 2585 2565 2493 2564 2630
8 2586 2513 2565 2632 2515 2438 2494 2567
8 2565 2493 2566 2633 2494 2416 2495 2568
8 2567 2494 2568 2635 2496 2417 2497 2570
8 2568 2495 2569 2636 2497 2418 2498 2571
8 2570 2497 2571 2638 2499 2420 2500 2573
8 2571 2498 2572 2639 2500 2421 2501 2574
8 2573 2500 2574 2641 2502 2423 2503 2576
8 2574 2501 2575 2642 2503 2424 2504 2577
8 2576 2503 2577 2643 2505 2426 2506 2578
8 2597 2528 2579 2645 2529 2454 2508 2580
8 2580 2508 2579 2645 2525 2448 2522 2593
8 2581 2509 2455 2530 2646 2580 2529 2598
8 2581 2509 2580 2646 2526 2449 2525 2595
8 2583 2511 2582 2648 2513 2434 2512 2585
8 2583 2511 2439 2516 2648 2582 2517 2589
8 2649 2583 2513 2586 2588 2516 2438 2515
8 2589 2517 2444 2520 2653 2587 2521 2592
8 2518 2442 2520 2591 2588 2516 2589 2654
8 2593 2522 2590 2655 2523 2445 2521 2592
8 2524 2446 2523 2594 2591 2520 2592 2656
8 2595 2525 2593 2657 2527 2452 2523 2594
8 2602 2536 2596 2659 2534 2462 2528 2597
8 2600 2534 2597 2660 2532 2460 2529 2598
8 2600 2534 2460 2532 2661 2601 2533 2599
8 2604 2538 2601 2661 2537 2464 2533 2599
8 2602 2536 2462 2534 2663 2603 2535 2601
8 2601 2535 2465 2538 2663 2603 2539 2605
8 2607 2541 2605 2665 2540 2467 2538 2604
8 2608 2542 2606 2666 2541 2468 2539 2605
8 2543 2470 2544 2610 2607 2541 2608 2668
8 2544 2471 2545 2611 2608 2542 2609 2669
8 2546 2473 2547 2613 2610 2544 2611 2671
8 2547 2474 2548 2614 2611 2545 2612 2672
8 2549 2476 2550 2616 2613 2547 2614 2674
8 2550 2477 2551 2617 2614 2548 2615 2675
8 2552 2479 2553 2619 2616 2550 2617 2677
8 2553 2480 2554 2620 2617 2551 2618 2678
8 2557 2482 2556 2624 2619 2553 2620 2680
8 2556 2481 2555 2623 2620 2554 2621 2681
8 2559 2484 2558 2625 2623 2555 2622 2683
8 2560 2485 2559 2626 2624 2556 2623 2684
8 2562 2488 2561 2627 2626 2559 2625 2685
8 2690 2629 2564 2630 2650 2584 2512 2585
8 2586 2513 2585 2651 2632 2565 2630 2691
8 2630 2564 2631 2692 2565 2493 2566 2633
8 2632 2565 2633 2694 2567 2494 2568 2635
8 2633 2566 2634 2695 2568 2495 2569 2636
8 2635 2568 2636 2697 2570 2497 2571 2638
8 2636 2569 2637 2698 2571 2498 2572 2639
8 2638 2571 2639 2700 2573 2500 2574 2641
8 2639 2572 2640 2701 2574 2501 2575 2642
8 2641 2574 2642 2702 2576 2503 2577 2643
8 2597 2528 2596 2659 2645 2579 2644 2704
8 2645 2579 2644 2704 2593 2522 2590 2655
8 2660 2597 2645 2705 2598 2529 2580 2646
8 2646 2580 2645 2705 2595 2525 2593 2657
8 2650 2584 2512 2585 2707 2647 2582 2648
8 2648 2582 2517 2589 2707 2647 2587 2653
8 2649 2583 2648 2708 2586 2513 2585 2651
8 2649 2583 2516 2588 2708 2648 2589 2654
8 2655 2590 2652 2710 2592 2521 2587 2653
8 2654 2589 2520 2591 2711 2653 2592 2656
8 2657 2593 2655 2712 2594 2523 2592 2656
8 2602 2536 2603 2663 2659 2596 2658 2714
8 2662 2602 2659 2715 2600 2534 2597 2660
8 2662 2602 2534 2600 2717 2663 2601 2661
8 2661 2601 2538 2604 2717 2663 2605 2665
8 2666 2606 2664 2718 2605 2539 2603 2663
8 2668 2608 2666 2720 2607 2541 2605 2665
8 2608 2542 2609 2669 2666 2606 2667 2721
8 2610 2544 2611 2671 2668 2608 2669 2723
8 2611 2545 2612 2672 2669 2609 2670 2724
8 2613 2547 2614 2674 2671 2611 2672 2726
8 2614 2548 2615 2675 2672 2612 2673 2727
8 2616 2550 2617 2677 2674 2614 2675 2729
8 2617 2551 2618 2678 2675 2615 2676 2730
8 2619 2553 2620 2680 2677 2617 2678 2732
8 2620 2554 2621 2681 2678 2618 2679 2733
8 2624 2556 2623 2684 2680 2620 2681 2735
8 2681 2621 2555 2623 2736 2682 2622 2683
8 2626 2559 2625 2685 2684 2623 2683 2737
8 2688 2628 2584 2650 2740 2686 2647 2707
8 2688 2628 2687 2742 2650 2584 2629 2690
8 2690 2629 2689 2745 2630 2564 2631 2692
8 2746 2690 2630 2691 2709 2650 2585 2651
8 2691 2630 2692 2747 2632 2565 2633 2694
8 2692 2631 2693 2748 2633 2566 2634 2695
8 2694 2633 2695 2750 2635 2568 2636 2697
8 2695 2634 2696 2751 2636 2569 2637 2698
8 2697 2636 2698 2753 2638 2571 2639 2700
8 2698 2637 2699 2754 2639 2572 2640 2701
8 2700 2639 2701 2755 2641 2574 2642 2702
8 2659 2596 2658 2714 2704 2644 2703 2757
8 2704 2644 2703 2757 2655 2590 2652 2710
8 2660 2597 2659 2715 2705 2645 2704 2758
8 2705 2645 2704 2758 2657 2593 2655 2712
8 2759 2706 2647 2707 2710 2652 2587 2653
8 2709 2650 2585 2651 2760 2707 2648 2708
8 2708 2648 2589 2654 2760 2707 2653 2711
8 2712 2655 2710 2761 2656 2592 2653 2711
8 2763 2713 2658 2714 2718 2664 2603 2663
8 2662 2602 2663 2717 2715 2659 2714 2764
8 2720 2666 2718 2767 2665 2605 2663 2717
8 2768 2719 2664 2718 2721 2667 2606 2666
8 2668 2608 2669 2723 2720 2666 2721 2770
8 2669 2609 2670 2724 2721 2667 2722 2771
8 2671 2611 2672 2726 2723 2669 2724 2773
8 2672 2612 2673 2727 2724 2670 2725 2774
8 2674 2614 2675 2729 2726 2672 2727 2776
8 2675 2615 2676 2730 2727 2673 2728 2777
8 2677 2617 2678 2732 2729 2675 2730 2779
8 2678 2618 2679 2733 2730 2676 2731 2780
8 2680 2620 2681 2735 2732 2678 2733 2782
8 2733 2679 2621 2681 2783 2734 2682 2736
8 2735 2681 2623 2684 2784 2736 2683 2737
8 2740 2686 2647 2707 2787 2738 2706 2759
8 2688 2628 2686 2740 2742 2687 2739 2789
8 2743 2688 2650 2709 2790 2740 2707 2760
8 2742 2687 2741 2792 2690 2629 2689 2745
8 2743 2688 2742 2793 2709 2650 2690 2746
8 2745 2689 2744 2795 2692 2631 2693 2748
8 2746 2690 2745 2796 2691 2630 2692 2747
8 2747 2692 2748 2797 2694 2633 2695 2750
8 2748 2693 2749 2798 2695 2634 2696 2751
8 2750 2695 2751 2800 2697 2636 2698 2753
8 2751 2696 2752 2801 2698 2637 2699 2754
8 2753 2698 2754 2802 2700 2639 2701 2755
8 2763 2713 2756 2804 2714 2658 2703 2757
8 2759 2706 2652 2710 2804 2756 2703 2757
8 2715 2659 2714 2764 2758 2704 2757 2805
8 2758 2704 2757 2805 2712 2655 2710 2761
8 2806 2759 2707 2760 2761 2710 2653 2711
8 2765 2716 2762 2808 2718 2664 2713 2763
8 2809 2763 2714 2764 2767 2718 2663 2717
8 2765 2716 2664 2718 2811 2766 2719 2768
8 2813 2768 2718 2767 2770 2721 2666 2720
8 2814 2769 2719 2768 2771 2722 2667 2721
8 2723 2669 2724 2773 2770 2721 2771 2816
8 2724 2670 2725 2774 2771 2722 2772 2817
8 2726 2672 2727 2776 2773 2724 2774 2819
8 2727 2673 2728 2777 2774 2725 2775 2820
8 2729 2675 2730 2779 2776 2727 2777 2822
8 2730 2676 2731 2780 2777 2728 2778 2823
8 2732 2678 2733 2782 2779 2730 2780 2825
8 2780 2731 2679 2733 2826 2781 2734 2783
8 2782 2733 2681 2735 2827 2783 2736 2784
8 2830 2785 2738 2787 2804 2756 2706 2759
8 2789 2739 2686 2740 2832 2786 2738 2787
8 2790 2740 2707 2760 2833 2787 2759 2806
8 2742 2687 2739 2789 2792 2741 2788 2835
8 2743 2688 2740 2790 2793 2742 2789 2836
8 2792 2741 2791 2838 2745 2689 2744 2795
8 2793 2742 2792 2839 2746 2690 2745 2796
8 2795 2744 2794 2841 2748 2693 2749 2798
8 2796 2745 2795 2842 2747 2692 2748 2797
8 2797 2748 2798 2843 2750 2695 2751 2800
8 2798 2749 2799 2844 2751 2696 2752 2801
8 2800 2751 2801 2845 2753 2698 2754 2802
8 2808 2762 2803 2847 2763 2713 2756 2804
8 2809 2763 2804 2848 2764 2714 2757 2805
8 2806 2759 2710 2761 2848 2804 2757 2805
8 2765 2716 2766 2811 2808 2762 2807 2850
8 2810 2765 2808 2851 2767 2718 2763 2809
8 2810 2765 2718 2767 2852 2811 2768 2813
8 2811 2766 2719 2768 2853 2812 2769 2814
8 2855 2814 2768 2813 2816 2771 2721 2770
8 2856 2815 2769 2814 2817 2772 2722 2771
8 2773 2724 2774 2819 2816 2771 2817 2858
8 2774 2725 2775 2820 2817 2772 2818 2859
8 2776 2727 2777 2822 2819 2774 2820 2861
8 2777 2728 2778 2823 2820 2775 2821 2862
8 2779 2730 2780 2825 2822 2777 2823 2864
8 2823 2778 2731 2780 2865 2824 2781 2826
8 2825 2780 2733 2782 2866 2826 2783 2827
8 2869 2828 2785 2830 2847 2803 2756 2804
8 2871 2829 2786 2832 2830 2785 2738 2787
8 2872 2830 2787 2833 2848 2804 2759 2806
8 2789 2739 2786 2832 2835 2788 2831 2874
8 2836 2789 2740 2790 2875 2832 2787 2833
8 2792 2741 2788 2835 2838 2791 2834 2877
8 2793 2742 2789 2836 2839 2792 2835 2878
8 2838 2791 2837 2880 2795 2744 2794 2841
8 2839 2792 2838 2881 2796 2745 2795 2842
8 2841 2794 2840 2882 2798 2749 2799 2844
8 2842 2795 2841 2883 2797 2748 2798 2843
8 2843 2798 2844 2884 2800 2751 2801 2845
8 2886 2846 2803 2847 2850 2807 2762 2808
8 2851 2808 2847 2887 2809 2763 2804 2848
8 2850 2807 2766 2811 2889 2849 2812 2853
8 2810 2765 2811 2852 2851 2808 2850 2890
8 2852 2811 2768 2813 2891 2853 2814 2855
8 2853 2812 2769 2814 2892 2854 2815 2856
8 2894 2856 2814 2855 2858 2817 2771 2816
8 2817 2772 2818 2859 2856 2815 2857 2895
8 2819 2774 2820 2861 2858 2817 2859 2897
8 2820 2775 2821 2862 2859 2818 2860 2898
8 2822 2777 2823 2864 2861 2820 2862 2900
8 2823 2778 2824 2865 2862 2821 2863 2901
8 2864 2823 2780 2825 2902 2865 2826 2866
8 2904 2867 2828 2869 2886 2846 2803 2847
8 2869 2828 2868 2906 2830 2785 2829 2871
8 2907 2869 2830 2872 2887 2847 2804 2848
8 2871 2829 2870 2909 2832 2786 2831 2874
8 2910 2871 2832 2875 2872 2830 2787 2833
8 2835 2788 2831 2874 2877 2834 2873 2912
8 2836 2789 2832 2875 2878 2835 2874 2913
8 2877 2834 2876 2915 2838 2791 2837 2880
8 2839 2792 2835 2878 2881 2838 2877 2916
8 2880 2837 2879 2917 2841 2794 2840 2882
8 2881 2838 2880 2918 2842 2795 2841 2883
8 2883 2841 2882 2919 2843 2798 2844 2884
8 2921 2885 2846 2886 2889 2849 2807 2850
8 2922 2886 2847 2887 2890 2850 2808 2851
8 2889 2849 2812 2853 2924 2888 2854 2892
8 2890 2850 2811 2852 2925 2889 2853 2891
8 2891 2853 2814 2855 2926 2892 2856 2894
8 2892 2854 2815 2856 2927 2893 2857 2895
8 2858 2817 2859 2897 2894 2856 2895 2929
8 2859 2818 2860 2898 2895 2857 2896 2930
8 2861 2820 2862 2900 2897 2859 2898 2932
8 2862 2821 2863 2901 2898 2860 2899 2933
8 2864 2823 2865 2902 2900 2862 2901 2934
8 2904 2867 2846 2886 2936 2903 2885 2921
8 2904 2867 2903 2936 2869 2828 2868 2906
8 2937 2904 2869 2907 2922 2886 2847 2887
8 2906 2868 2905 2939 2871 2829 2870 2909
8 2907 2869 2906 2940 2872 2830 2871 2910
8 2909 2870 2908 2942 2874 2831 2873 2912
8 2910 2871 2909 2943 2875 2832 2874 2913
8 2912 2873 2911 2945 2877 2834 2876 2915
8 2878 2835 2874 2913 2916 2877 2912 2946
8 2915 2876 2914 2947 2880 2837 2879 2917
8 2916 2877 2915 2948 2881 2838 2880 2918
8 2918 2880 2917 2949 2883 2841 2882 2919
8 2921 2885 2849 2889 2951 2920 2888 2924
8 2952 2921 2886 2922 2925 2889 2850 2890
8 2924 2888 2854 2892 2954 2923 2893 2927
8 2925 2889 2853 2891 2955 2924 2892 2926
8 2926 2892 2856 2894 2956 2927 2895 2929
8 2895 2857 2896 2930 2927 2893 2928 2957
8 2897 2859 2898 2932 2929 2895 2930 2959
8 2898 2860 2899 2933 2930 2896 2931 2960
8 2900 2862 2901 2934 2932 2898 2933 2961
8 2936 2903 2885 2921 2963 2935 2920 2951
8 2936 2903 2935 2963 2906 2868 2905 2939
8 2937 2904 2886 2922 2964 2936 2921 2952
8 2937 2904 2936 2964 2907 2869 2906 2940
8 2939 2905 2938 2966 2909 2870 2908 2942
8 2940 2906 2939 2967 2910 2871 2909 2943
8 2942 2908 2941 2969 2912 2873 2911 2945
8 2943 2909 2942 2970 2913 2874 2912 2946
8 2945 2911 2944 2971 2915 2876 2914 2947
8 2946 2912 2945 2972 2916 2877 2915 2948
8 2948 2915 2947 2973 2918 2880 2917 2949
8 2951 2920 2888 2924 2975 2950 2923 2954
8 2952 2921 2889 2925 2976 2951 2924 2955
8 2927 2893 2928 2957 2954 2923 2953 2978
8 2955 2924 2892 2926 2979 2954 2927 2956
8 2929 2895 2930 2959 2956 2927 2957 2980
8 2930 2896 2931 2960 2957 2928 2958 2981
8 2932 2898 2933 2961 2959 2930 2960 2982
8 2951 2920 2950 2975 2963 2935 2962 2984
8 2963 2935 2962 2984 2939 2905 2938 2966
8 2964 2936 2921 2952 2985 2963 2951 2976
8 2964 2936 2963 2985 2940 2906 2939 2967
8 2966 2938 2965 2987 2942 2908 2941 2969
8 2967 2939 2966 2988 2943 2909 2942 2970
8 2969 2941 2968 2989 2945 2911 2944 2971
8 2970 2942 2969 2990 2946 2912 2945 2972
8 2972 2945 2971 2991 2948 2915 2947 2973
8 2954 2923 2953 2978 2975 2950 2974 2993
8 2976 2951 2924 2955 2994 2975 2954 2979
8 2957 2928 2958 2981 2978 2953 2977 2995
8 2956 2927 2957 2980 2979 2954 2978 2996
8 2959 2930 2960 2982 2980 2957 2981 2997
8 2984 2962 2983 2999 2966 2938 2965 2987
8 2975 2950 2974 2993 2984 2962 2983 2999
8 2976 2951 2975 2994 2985 2963 2984 3000
8 2985 2963 2984 3000 2967 2939 2966 2988
8 2987 2965 2986 3001 2969 2941 2968 2989
8 2988 2966 2987 3002 2970 2942 2969 2990
8 2990 2969 2989 3003 2972 2945 2971 2991
8 2978 2953 2977 2995 2993 2974 2992 3004
8 2979 2954 2978 2996 2994 2975 2993 3005
8 2980 2957 2981 2997 2996 2978 2995 3006
8 2974 2993 2999 2983 2992 3004 3007 2998
8 2983 2999 2987 2965 2998 3007 3001 2986
8 3000 2984 2999 3008 2988 2966 2987 3002
8 2994 2975 2993 3005 3000 2984 2999 3008
8 3002 2987 3001 3009 2990 2969 2989 3003
8 2996 2978 2995 3006 3005 2993 3004 3010
8 3005 2993 3004 3010 3008 2999 3007 3011
8 3008 2999 3007 3011 3002 2987 3001 3009

CELL_TYPES 1910
12
12
12
12
12
12
12
12
12
12
12
12
12
12
12
12
12
12
12
12
12
12
12
12
12
12
12
12
12
12
12
12
12
12
12
12
12
12
12
12
12
12
12
12
12
12
12
12
12
12
12
12
12
12
12
12
12
12
12
12
12
12
12
12
12
12
12
12
12
12
12
12
12
12
12
12
12
12
12
12
12
12
12
12
12
12
12
12
12
12
12
12
12
12
12
12
12
12
12
12
12
12
12
12
12
12
12
12
12
12
12
12
12
12
12
12
12
12
12
12
12
12
12
12
12
12
12
12
12
12
12
12
12
12
12
12
12
12
12
12
12
12
12
12
12
12
12
12
12
12
12
12
12
12
12
12
12
12
12
12
12
12
12
12
12
12
12
12
12
12
12
12
12
12
12
12
12
12
12
12
12
12
12
12
12
12
12
12
12
12
12
12
12
12
12
12
12
12
12
12
12
12
12
12
12
12
12
12
12
12
12
12
12
12
12
12
12
12
12
12
12
12
12
12
12
12
12
12
12
12
12
12
12
12
12
12
12
12
12
12
12
12
12
12
12
12
12
12
12
12
12
12
12
12
12
12
12
12
12
12
12
12
12
12
12
12
12
12
12
12
12
12
12
12
12
12
12
12
12
12
12
12
12
12
12
12
12
12
12
12
12
12
12
12
12
12
12
12
12
12
12
12
12
12
12
12
12
12
12
12
12
12
12
12
12
12
12
12
12
12
12
12
12
12
12
12
12
12
12
12
12
12
12
12
12
12
12
12
12
12
12
12
12
12
12
12
12
12
12
12
12
12
12
12
12
12
12
12
12
12
12
12
12
12
12
12
12
12
12
12
12
12
12
12
12
12
12
12
12
12
12
12
12
12
12
12
12
12
12
12
12
12
12
12
12
12
12
12
12
12
12
12
12
12
12
12
12
12
12
12
12
12
12
12
12
12
12
12
12
12
12
12
12
12
12
12
12
12
12
12
12
12
12
12
12
12
12
12
12
12
12
12
12
12
12
12
12
12
12
12
12
12
12
12
12
12
12
12
12
12
12
12
12
12
12
12
12
12
12
12
12
12
12
12
12
12
12
12
12
12
12
12
12
12
12
12
12
12
12
12
12
12
12
12
12
12
12
12
12
12
12
12
12
12
12
12
12
12
12
12
12
12
12
12
12
12
12
12
12
12
12
12
12
12
12
12
12
12
12
12
12
12
12
12
12
12
12
12
12
12
12
12
12
12
12
12
12
12
12
12
12
12
12
12
12
12
12
12
12
12
12
12
12
12
12
12
12
12
12
12
12
12
12
12
12
12
12
12
12
12
12
12
12
12
12
12
12
12
12
12
12
12
12
12
12
12
12
12
12
12
12
12
12
12
12
12
12
12
12
12
12
12
12
12
12
12
12
12
12
12
12
12
12
12
12
12
12
12
12
12
12
12
12
12
12
12
12
12
12
12
12
12
12
12
12
12
12
12
12
12
12
12
12
12
12
12
12
12
12
12
12
12
12
12
12
12
12
12
12
12
12
12
12
12
12
12
12
12
12
12
12
12
12
12
12
12
12
12
12
12
12
12
12
12
12
12
12
12
12
12
12
12
12
12
12
12
12
12
12
12
12
12
12
12
12
12
12
12
12
12
12
12
12
12
12
12
12
12
12
12
12
12
12
12
12
12
12
12
12
12
12
12
12
12
12
12
12
12
12
12
12
12
12
12
12
12
12
12
12
12
12
12
12
12
12
12
12
12
12
12
12
12
12
12
12
12
12
12
12
12
12
12
12
12
12
12
12
12
12
12
12
12
12
12
12
12
12
12
12
12
12
12
12
12
12
12
12
12
12
12
12
12
12
12
12
12
12
12
12
12
12
12
12
12
12
12
12
12
12
12
12
12
12
12
12
12
12
12
12
12
12
12
12
12
12
12
12
12
12
12
12
12
12
12
12
12
12
12
12
12
12
12
12
12
12
12
12
12
12
12
12
12
12
12
12
12
12
12
12
12
12
12
12
12
12
12
12
12
12
12
12
12
12
12
12
12
12
12
12
12
12
12
12
12
12
12
12
12
12
12
12
12
12
12
12
12
12
12
12
12
12
12
12
12
12
12
12
12
12
12
12
12
12
12
12
12
12
12
12
12
12
12
12
12
12
12
12
12
12
12
12
12
12
12
12
12
12
12
12
12
12
12
12
12
12
12
12
12
12
12
12
12
12
12
12
12
12
12
12
12
12
12
12
12
12
12
12
12
12
12
12
12
12
12
12
12
12
12
12
12
12
12
12
12
12
12
12
12
12
12
12
12
12
12
12
12
12
12
12
12
12
12
12
12
12
12
12
12
12
12
12
12
12
12
12
12
12
12
12
12
12
12
12
12
12
12
12
12
12
12
12
12
12
12
12
12
12
12
12
12
12
12
12
12
12
12
12
12
12
12
12
12
12
12
12
12
12
12
12
12
12
12
12
12
12
12
12
12
12
12
12
12
12
12
12
12
12
12
12
12
12
12
12
12
12
12
12
12
12
12
12
12
12
12
12
12
12
12
12
12
12
12
12
12
12
12
12
12
12
12
12
12
12
12
12
12
12
12
12
12
12
12
12
12
12
12
12
12
12
12
12
12
12
12
12
12
12
12
12
12
12
12
12
12
12
12
12
12
12
12
12
12
12
12
12
12
12
12
12
12
12
12
12
12
12
12
12
12
12
12
12
12
12
12
12
12
12
12
12
12
12
12
12
12
12
12
12
12
12
12
12
12
12
12
12
12
12
12
12
12
12
12
12
12
12
12
12
12
12
12
12
12
12
12
12
12
12
12
12
12
12
12
12
12
12
12
12
12
12
12
12
12
12
12
12
12
12
12
12
12
12
12
12
12
12
12
12
12
12
12
12
12
12
12
12
12
12
12
12
12
12
12
12
12
12
12
12
12
12
12
12
12
12
12
12
12
12
12
12
12
12
12
12
12
12
12
12
12
12
12
12
12
12
12
12
12
12
12
12
12
12
12
12
12
12
12
12
12
12
12
12
12
12
12
12
12
12
12
12
12
12
12
12
12
12
12
12
12
12
12
12
12
12
12
12
12
12
12
12
12
12
12
12
12
12
12
12
12
12
12
12
12
12
12
12
12
12
12
12
12
12
12
12
12
12
12
12
12
12
12
12
12
12
12
12
12
12
12
12
12
12
12
12
12
12
12
12
12
12
12
12
12
12
12
12
12
12
12
12
12
12
12
12
12
12
12
12
12
12
12
12
12
12
12
12
12
12
12
12
12
12
12
12
12
12
12
12
12
12
12
12
12
12
12
12
12
12
12
12
12
12
12
12
12
12
12
12
12
12
12
12
12
12
12
12
12
12
12
12
12
12
12
12
12
12
12
12
12
12
12
12
12
12
12
12
12
12
12
12
12
12
12
12
12
12
12
12
12
12
12
12
12
12
12
12
12
12
12
12
12
12
12
12
12
12
12
12
12
12
12
12
12
12
12
12
12
12
12
12
12
12
12
12
12
12
12
12
12
12
12
12
12
12
12
12
12
12
12
12
12
12
12
12
12
12
12
12
12
12
12
12
12
12
12
12
12
12
12
12
12
12
12
12
12
12
12
12
12
12
12
12
12
12
12
12
12
12
12
12
12
12
12
12
12
12
12
12
12
12
12
12
12
12
12
12
12
12
12
12
12
12
12
12
12
12
12
12
12
12
12
12
12
12
12
12
12
12
12
12
12
12
12
12
12
12
12
12
12
12
12
12
12
12
12
12
12
12
12
12
12
12
12
12
12
12
12
12
12
12
12
12
12
12
12
12
12
12
12
12
12
12
12
12
12
12
12
12
12
12
12
12
12
12
12
12
12
12
12
12
12
12
12
12
12
12
12
12
12
12
12
12
12
12
12
12
12
12
12
12
12
12
12
12
12
12
12
12
12
12
12
12
12
12
12
12
12
12
12
12
12
12
12
12
12
12
12
12
12
12
12
12
12
12
12
12
12
12
12
12
12
12
12
12
12
12
12
12
12
12
12
12
12
12
12
12
12
12
12
12
12
12
12
12
12
12
12
12
12
12
12
12
12
12
12
12
12
12
12
12
12
12
12
12
12
12
12
12
12
12
12
12
12
12
12
12
12
12
12
12
12
12
12
12
12
12
12
12
12
12
12
12
12
12
12
12
12
12
12
12
12
12
12
12
12
12
12
12
12
12
12
12
12
12
12
12
12
12
12
12
12
12
12
12
12
12
12
12
12
12
12
12
12
12
12
12
12
12
12
12
12
12
12
12
12
12
12
12
12
12
12
12
12
12
12
12
12
12
12
12
12
12
12
12
12
12
12
12
12
12
12

POINT_DATA 3012
SCALARS Jp_lamdaP float 4
LOOKUP_TABLE default
0.999744 1 1 0.999744
1 1 1 1
0.999752 1 1 0.999752
0.999692 1 1 0.999692
0.999745 1 1 0.999745
0.99973 1 1 0.99973
0.999023 1 1 0.999023
1 1 1 1
1 1 1 1
1 1 1 1
0.999818 1 1 0.999818
0.999153 1 1 0.999153
0.999673 1 1 0.999673
0.999691 1 1 0.999691
0.999753 1 1 0.999753
0.999715 1 1 0.999715
0.999736 1 1 0.999736
0.999759 1 1 0.999759
0.999025 1 1 0.999025
1 1 1 1
0.999672 1 1 0.999672
0.999723 1 1 0.999723
0.998893 1 1 0.998893
0.998997 1 1 0.998997
0.999742 1 1 0.999742
0.999044 1 1 0.999044
1.00671 1.00882 1 0.997907
1 1 1 1
0.999862 1 1 0.999862
0.999876 1 1 0.999876
1 1 1 1
0.999162 1 1 0.999162
0.999717 1 1 0.999717
0.999743 1 1 0.999743
0.999148 1 1 0.999148
1 1 1 1
0.999233 1 1 0.999233
0.999254 1 1 0.999254
1.00102 1.00312 1 0.997904
1 1 1 1
1 1 1 1
0.999845 1 1 0.999845
1 1 1 1
0.99969 1 1 0.99969
0.99882 1 1 0.99882
1 1 1 1
0.999048 1 1 0.999048
0.999734 1 1 0.999734
0.999768 1 1 0.999768
0.999738 1 1 0.999738
0.99903 1 1 0.99903
0.999828 1 1 0.999828
0.999693 1 1 0.999693
0.999754 1 1 0.999754
0.999743 1 1 0.999743
0.998891 1 1 0.998891
0.999048 1 1 0.999048
0.998999 1 1 0.998999
1.00713 1.00926 1 0.997892
1 1 1 1
0.999668 1 1 0.999668
0.999053 1 1 0.999053
0.998859 1 1 0.998859
0.998947 1 1 0.998947
1.01004 1.01245 1 0.997622
1.00818 1.01046 1 0.997744
0.999804 1 1 0.999804
0.999152 1 1 0.999152
1.00425 1.00626 1 0.998004
1.0219 1.02493 1 0.997048
1 1 1 1
1 1 1 1
1 1 1 1
0.999169 1 1 0.999169
1 1 1 1
1 1 1 1
0.999009 1 1 0.999009
0.999939 1 1 0.999939
0.999114 1 1 0.999114
0.999346 1 1 0.999346
1.00029 1.00239 1 0.997901
1 1 1 1
1.00063 1 1.00078 0.999849
0.998937 1 1 0.998937
0.999043 1 1 0.999043
1.01042 1.01298 1 0.997478
0.999679 1 1.00012 0.999561
1.00457 1.00678 1 0.997803
0.998929 1.00088 1 0.998048
1.00552 1.0083 1 0.997235
1 1 1 1
1 1 1 1
1 1 1 1
1 1 1 1
1 1 1 1
0.999843 1 1 0.999843
0.99893 1 1 0.99893
0.999848 1 1 0.999848
0.998973 1 1 0.998973
1 1 1 1
0.998823 1 1 0.998823
0.999032 1 1 0.999032
1.00941 1.0122 1 0.997243
0.999084 1 1 0.999084
1.01174 1.01448 1 0.9973
0.999694 1 1 0.999694
0.999712 1 1 0.999712
0.999764 1 1 0.999764
0.99976 1 1 0.99976
0.998891 1 1 0.998891
0.999003 1 1 0.999003
0.999054 1 1 0.999054
1.00755 1.00969 1 0.997877
1 1 1 1
0.999688 1 1 0.999688
0.99885 1 1 0.99885
0.998855 1 1 0.998855
0.999902 1 1 0.999902
0.999222 1 1 0.999222
0.998948 1 1 0.998948
1.00998 1.01243 1 0.997581
1.00492 1.00695 1 0.997986
1.00843 1.01068 1 0.997774
1.02181 1.02483 1 0.997054
0.998846 1 1 0.998846
0.998847 1 1 0.998847
1.00837 1.01094 1 0.997457
1.00996 1.01248 1 0.997515
1.00966 1.01205 1 0.997634
1.0306 1.03378 1 0.996924
1 1 1 1
1.02478 1.02786 1 0.997003
0.999585 1 1.00021 0.999373
1.00078 1.00278 1 0.998001
1.01843 1.0214 1 0.997093
1.03033 1.03357 1 0.996867
1.00088 1 1.00122 0.999653
1.00487 1 1.00618 0.998705
1 1 1 1
1 1 1 1
0.999015 1 1 0.999015
1 1 1 1
0.999325 1 1.00001 0.999318
0.999119 1 1 0.999119
0.999399 1.0015 1 0.997898
1 1 1 1
1.00023 1 1.00036 0.999871
0.999028 1 1 0.999028
0.999128 1 1 0.999128
1.00981 1.01236 1 0.997479
0.999814 1 1.00028 0.999535
1.00346 1.00567 1 0.997806
0.998546 1.0005 1 0.998047
1.00561 1.00841 1 0.997219
1.0005 1 1.0008 0.999703
0.999939 1 1 0.999939
1.00177 1 1.00281 0.998962
1.01189 1.01455 1 0.997371
1.00802 1.0104 1 0.997641
1.02688 1.03011 1 0.996864
0.998599 1 1.00028 0.998311
1.01319 1.01608 1 0.997152
1.00341 1.00553 1.00057 0.997326
1.01358 1.01659 1 0.997047
1 1 1 1
1 1 1 1
1 1 1 1
1.00003 1 1.00026 0.999769
1 1 1 1
1 1 1 1
1 1 1 1
0.998897 1 1 0.998897
0.998851 1 1 0.998851
1 1 1 1
1 1 1 1
0.998825 1 1 0.998825
0.998956 1 1 0.998956
1.00979 1.01258 1 0.997243
0.99892 1 1 0.99892
1.01196 1.0147 1 0.9973
0.998819 1 1 0.998819
1.00836 1.01119 1 0.997203
1.0106 1.01335 1 0.997283
1.03312 1.03644 1 0.996799
1.01226 1.01498 1 0.997319
1.03578 1.03908 1 0.996826
1 1 1 1
0.999708 1 1 0.999708
0.998627 1 1 0.998627
0.998852 1 1 0.998852
1 1 1 1
0.999293 1 1 0.999293
0.998951 1 1 0.998951
1.0099 1.01239 1 0.997541
1.00871 1.01093 1 0.997804
1.00562 1.00766 1 0.997968
1.02171 1.02472 1 0.99706
0.998844 1 1 0.998844
0.998843 1 1 0.998843
1.00823 1.01092 1 0.997342
1.00994 1.01243 1 0.997542
1 1 1 1
0.999484 1 1.00009 0.999398
1.00188 1.00381 1 0.998071
1.00961 1.01201 1 0.997631
1.0305 1.03371 1 0.996897
1.01777 1.02075 1 0.997083
1.02498 1.02802 1 0.997038
1.02994 1.03317 1 0.996875
1.00101 1 1.00137 0.999642
1.00388 1 1.00519 0.998707
1.00784 1.01064 1 0.997225
1.00873 1.01127 1 0.997493
1.03103 1.03426 1 0.996881
1.03104 1.0343 1 0.99685
1.02751 1.03059 1 0.997008
1.04002 1.04324 1 0.996917
1.0005 1 1.00099 0.999518
1.03265 1.03585 1 0.99691
0.998836 1.00055 1.00011 0.99818
1.01113 1.01398 1 0.997193
1.0279 1.03115 1 0.99685
1.03174 1.03486 1 0.996988
1.00306 1 1.00457 0.998501
1.0012 1 1.00225 0.99896
1.00339 1 1.00534 0.998063
0.998962 1 1 0.998962
1 1 1 1
0.999893 1 1 0.999893
0.999075 1 1 0.999075
1.0092 1.01175 1 0.997481
0.999951 1 1.00041 0.99954
0.998293 1.00021 1.00004 0.998045
1.00242 1.00462 1 0.99781
1.00611 1.00893 1 0.997204
1.00038 1 1.00066 0.999724
0.999952 1 1 0.999952
1.00213 1 1.00317 0.998964
1.01153 1.0142 1 0.99737
1.00708 1.00946 1 0.997645
1.027 1.03023 1 0.99686
0.998611 1 1.0003 0.998314
1.01415 1.01704 1 0.997159
1.00279 1.00501 1.00047 0.997321
1.01439 1.01741 1 0.997035
0.999979 1 1 0.999979
1.00045 1 1.00184 0.998614
1.0007 1 1.0014 0.999306
1.00238 1 1.00407 0.998319
1.03107 1.03437 1 0.996809
1.02122 1.02428 1 0.997007
1.03338 1.03675 1 0.996745
1.00066 1.00255 1.00049 0.99763
1.0214 1.02447 1 0.997009
1.01181 1.01326 1.00158 0.996993
1.02316 1.02632 1 0.996924
0.999751 1 1 0.999751
0.999999 1 1 0.999999
1 1 1 1
1 1 1 1
1 1 1 1
0.999865 1 1 0.999865
1 1 1 1
1.00053 1 1.00078 0.999756
1 1 1 1
0.998921 1 1 0.998921
0.998878 1 1 0.998878
1.01228 1.01503 1 0.997299
1.01014 1.01293 1 0.997243
0.998827 1 1 0.998827
1 1 1 1
0.998819 1 1 0.998819
1.00864 1.01147 1 0.997203
1.01099 1.01374 1 0.997282
1.03284 1.03615 1 0.996797
1.01229 1.01502 1 0.997317
1.03568 1.03898 1 0.996823
1.00774 1.01057 1 0.997198
1.03202 1.03537 1 0.996764
1.03463 1.03793 1 0.996823
1.04553 1.04911 0.999601 0.996988
1.03491 1.03822 1 0.996812
1.04505 1.04827 1 0.996927
0.998841 1 1 0.998841
0.998839 1 1 0.998839
1.00809 1.0109 1 0.997227
1.00993 1.01239 1 0.997568
1 1 1 1
0.999423 1 1 0.999423
1.00288 1.00475 1 0.998139
1.00956 1.01196 1 0.997628
1.03044 1.03367 1 0.99687
1.02513 1.02814 1 0.997073
1.01713 1.02012 1 0.997074
1.02966 1.03288 1 0.996883
1.00121 1 1.00158 0.999631
1.00327 1 1.00457 0.998708
1.00776 1.01059 1 0.997202
1.00873 1.01127 1 0.997488
1.031 1.03421 1 0.996892
1.03121 1.03445 1 0.996874
1.00027 1 1.00077 0.999507
0.999403 1.00116 1.00006 0.998177
1.01122 1.01404 1 0.997228
1.02781 1.03091 1 0.996998
1.04009 1.04328 1 0.996948
1.02735 1.03062 1 0.996823
1.03268 1.03588 1 0.996915
1.03197 1.03509 1 0.996987
1.00243 1 1.00394 0.998504
1.00363 1 1.00558 0.998066
1.00197 1 1.00302 0.998957
1.03057 1.03384 1 0.996839
1.03146 1.03466 1 0.996912
1.04477 1.0482 0.999784 0.996944
1.04161 1.04482 1 0.99692
1.03561 1.03877 1 0.996954
1.03777 1.04116 0.999539 0.9972
0.99898 1.00003 1.0006 0.998356
1.03397 1.03699 1 0.997086
1.00295 1.00546 1 0.997513
1.01896 1.02225 1 0.996776
1.02842 1.03177 1 0.996754
1.02764 1.03052 1 0.997209
0.999951 1 1.00076 0.999196
0.998728 1.00007 1.00067 0.997987
1.00636 1 1.00817 0.998205
1.00068 1.00018 1.00266 0.997845
1.01119 1.01386 1 0.997369
0.999966 1 1 0.999966
1.00022 1 1.00047 0.999746
1.00235 1 1.00339 0.998965
1.00614 1.00851 1 0.997649
1.0271 1.03034 1 0.996856
0.998565 1 1.00025 0.998318
1.00166 1.00403 1.00033 0.997316
1.01504 1.01793 1 0.997166
1.01463 1.01766 1 0.997024
0.999985 1 1 0.999985
1.00107 1 1.00246 0.998615
1.00022 1 1.00091 0.999314
1.00295 1 1.00465 0.998314
1.03099 1.03429 1 0.996804
1.02133 1.02439 1 0.997006
1.0331 1.03648 1 0.996743
0.999661 1.00158 1.00045 0.997637
1.02129 1.02435 1 0.997015
1.01162 1.01293 1.00173 0.996982
1.02315 1.02623 1 0.996998
0.999995 1 1 0.999995
0.999538 1 1 0.999538
0.999838 1.00037 1.00146 0.998007
1.00236 1 1.00373 0.998641
1.00073 1 1.00272 0.998014
1.03761 1.04098 1 0.996768
1.02746 1.03071 1 0.996851
1.02993 1.03321 1 0.996831
1.00518 1.00595 1.00199 0.99725
1.02118 1.02428 1 0.996977
1.01338 1.01583 1.00086 0.996726
0.999721 1 1 0.999721
0.999254 1 1 0.999254
0.999774 1 1 0.999774
0.999753 1 1 0.999753
1 1 1 1
0.999999 1 1 0.999999
1 1 1 1
1 1 1 1
1 1 1 1
0.999941 1 1 0.999941
1 1 1 1
0.99985 1 1 0.99985
1 1 1 1
1.00088 1 1.00113 0.999742
1 1 1 1
1.01228 1.015 1 0.997315
1.01131 1.01407 1 0.997282
1.03535 1.03866 1 0.996821
1.03253 1.03585 1 0.996795
1.009 1.01183 1 0.997203
0.998818 1 1 0.998818
1.00792 1.01075 1 0.997198
1.03175 1.0351 1 0.996764
1.03439 1.03769 1 0.996821
1.04529 1.04914 0.999319 0.997007
1.03426 1.03757 1 0.996808
1.04465 1.04787 1 0.996924
1.03097 1.03433 1 0.996755
1.04398 1.04828 0.99889 0.997008
1.04654 1.04985 0.999874 0.99697
1.044 1.05014 0.996929 0.99722
1.04069 1.04398 1 0.996852
1.04341 1.04769 0.998659 0.997249
1.00772 1.01057 1 0.997179
1.00874 1.01129 1 0.997484
1.03098 1.03419 1 0.996904
1.03135 1.03456 1 0.996897
1.00003 1 1.00054 0.999496
0.999937 1.00177 1 0.998175
1.01156 1.01433 1 0.997263
1.02813 1.03124 1 0.996987
1.04017 1.04333 1 0.996979
1.03274 1.03594 1 0.996919
1.02663 1.02993 1 0.996797
1.03222 1.03535 1 0.996986
1.00171 1 1.00321 0.998506
1.00384 1 1.00578 0.998069
1.00246 1 1.00351 0.998955
1.03063 1.03393 1 0.996808
1.03167 1.03487 1 0.996909
1.04426 1.04783 0.999613 0.996979
1.0418 1.04503 1 0.996912
0.999172 1.00012 1.0007 0.998353
1.0044 1.00691 1 0.997507
1.0177 1.0209 1.00003 0.996824
1.03588 1.03907 1 0.996934
1.03783 1.04121 0.999499 0.997248
1.02877 1.03216 1 0.996718
1.03364 1.03666 1 0.997089
1.02818 1.03102 1 0.997242
0.999437 1.00028 1.00117 0.997989
1.00089 1.00031 1.00277 0.99782
1.00034 1 1.00115 0.999192
1.00591 1 1.00769 0.998241
1.04429 1.04793 0.999568 0.996956
1.04397 1.04736 0.999813 0.996954
1.04129 1.04742 0.997005 0.997133
1.03853 1.04393 0.997556 0.997266
1.03585 1.03884 0.99993 0.997195
1.03447 1.03967 0.997555 0.997429
0.998914 1.00111 1 0.997807
1.02905 1.03193 0.999792 0.997423
1.00848 1.01143 1 0.99708
1.01848 1.02182 1.00018 0.996557
1.02983 1.03323 1 0.996717
1.02834 1.03115 1 0.99728
0.999388 1 1.00001 0.99938
1.00366 1 1.00521 0.998455
0.998627 1.00088 1 0.99775
1.00393 1 1.00598 0.997957
1.00049 1.00056 1.00217 0.997779
0.99999 1 1 0.99999
1.03084 1.03415 1 0.996799
0.999757 1 1.00043 0.999323
1.00184 1 1.00323 0.998616
1.00364 1 1.00534 0.998308
1.02147 1.02454 1 0.997005
1.03285 1.03623 1 0.99674
0.998847 1.0007 1.00051 0.997643
1.01241 1.01352 1.00193 0.996971
1.02129 1.02434 1 0.997022
1.02346 1.02646 1 0.997073
0.999996 1 1 0.999996
0.999547 1 1 0.999547
0.999363 1.00017 1.00119 0.998009
1.00282 1 1.00419 0.99864
1.00102 1 1.00303 0.997994
1.03759 1.04096 1 0.996762
1.02751 1.03076 1 0.99685
1.02987 1.03316 1 0.996819
1.00435 1.00498 1.00213 0.997255
1.02372 1.02682 1 0.996977
1.01341 1.01575 1.00096 0.996745
0.999661 1 1 0.999661
0.999872 1 1.00093 0.998945
0.999778 1.00163 1.00048 0.997677
1.00401 1 1.00575 0.998276
0.999727 1.0001 1.00171 0.997922
1.03494 1.03813 1 0.996926
1.02469 1.0279 1 0.996875
1.02875 1.03182 1 0.997027
1.00259 1.00175 1.00379 0.997063
1.01165 1.01505 1 0.99665
0.999724 1 1 0.999724
0.999182 1 1 0.999182
0.99923 1 1 0.99923
0.99899 1 1 0.99899
0.999267 1 1 0.999267
0.999785 1 1 0.999785
0.999776 1 1 0.999776
1 1 1 1
0.999755 1 1 0.999755
1 1 1 1
1 1 1 1
1 1 1 1
1 1 1 1
1 1 1 1
0.999986 1 1 0.999986
0.999924 1 1 0.999924
1 1 1 1
1 1 1 1
0.999909 1 1.00008 0.999834
1 1 1 1
1.03372 1.03704 1 0.996805
1.03435 1.03765 1 0.996819
1.04439 1.04762 1 0.996922
1.04511 1.04924 0.999038 0.997025
1.03137 1.03472 1 0.996764
1.008 1.01084 1 0.997198
1.03084 1.03419 1 0.996756
1.04402 1.04822 0.998991 0.997003
1.04613 1.04942 0.999889 0.99697
1.04338 1.05 0.996434 0.997252
1.04142 1.04471 1 0.996846
1.04302 1.0476 0.99835 0.997271
1.0439 1.04794 0.999167 0.996977
1.04232 1.04903 0.996398 0.997192
1.04293 1.0492 0.996715 0.997301
1.04042 1.04932 0.994125 0.99738
1.0404 1.04359 0.999829 0.997111
1.04073 1.04756 0.995992 0.997478
1.03057 1.03391 1 0.996778
1.03186 1.03506 1 0.996907
1.04371 1.04743 0.999437 0.997013
1.04196 1.0452 1 0.996904
0.999446 1.00028 1.00082 0.998351
1.00561 1.00813 1 0.997501
1.0164 1.0194 1.00018 0.996871
1.03615 1.03935 1 0.996914
1.03782 1.04125 0.999414 0.997296
1.03325 1.03626 1 0.997093
1.02919 1.03262 1 0.996682
1.02832 1.03113 1 0.997274
1.00024 1.00052 1.00173 0.99799
1.0012 1.0005 1.0029 0.997796
1.00074 1 1.00156 0.999187
1.005 1 1.00673 0.998276
1.04412 1.04776 0.999566 0.996956
1.04373 1.04705 0.9999 0.996931
1.04127 1.04744 0.996933 0.997166
1.03901 1.04398 0.997979 0.997248
0.99989 1.0021 1 0.997799
1.0073 1.01018 1.00003 0.997125
1.01909 1.02223 1.00039 0.996547
1.03526 1.03827 0.99995 0.99715
1.03373 1.03899 0.997441 0.997487
1.02764 1.03104 1 0.996702
1.03013 1.03296 0.999839 0.997424
1.02912 1.03187 1 0.997334
0.999178 1.00143 1 0.997748
1.00008 1.00085 1.00146 0.997783
1.00442 1 1.00648 0.997951
0.999562 1 1.00022 0.999343
1.00328 1 1.0048 0.998489
1.0409 1.0482 0.995836 0.997181
1.03968 1.04658 0.996178 0.997217
1.03462 1.04339 0.994102 0.997475
1.03098 1.03616 0.997492 0.997496
1.00118 1.00367 1 0.997511
1.03388 1.03681 0.99957 0.997601
1.00531 1.00823 1.00029 0.996822
1.01694 1.02016 1.00051 0.996338
1.02534 1.02874 1 0.996695
0.999495 1 1 0.999495
1.00103 1 1.00226 0.998767
1.00368 1 1.00547 0.998212
0.999962 1.00229 1 0.997677
1.00409 1 1.00639 0.997716
0.999818 1.00116 1.001 0.997663
0.999998 1 1 0.999998
0.999555 1 1 0.999555
1.03759 1.04096 1 0.996756
1.00342 1 1.00479 0.99864
0.99875 1 1.00074 0.998011
1.00152 1 1.00355 0.997973
1.02745 1.03069 1 0.996848
1.02964 1.03293 1 0.996808
1.00322 1.00368 1.00229 0.997261
1.01259 1.01509 1.00077 0.996765
1.02617 1.02928 1 0.996978
0.999667 1 1 0.999667
0.999661 1 1.00071 0.998949
0.999294 1.00121 1.00041 0.997673
1.00504 1 1.00678 0.998272
0.999654 1.00005 1.00168 0.997923
1.03496 1.03815 1 0.996919
1.02498 1.0282 1 0.996864
1.02848 1.03152 1 0.997054
1.0031 1.00285 1.00324 0.997023
1.01054 1.01391 1.00006 0.996621
0.999138 1 1 0.999138
1.00338 1 1.00487 0.998523
1.00162 1.00208 1.002 0.997552
1.00315 1.00002 1.0051 0.998028
0.99964 1.00083 1.001 0.997817
1.03512 1.03822 0.99962 0.997394
1.02348 1.02679 1 0.996778
1.02481 1.02783 1 0.997064
1.00462 1.00343 1.00433 0.996871
1.00301 1.0066 1 0.996433
0.999727 1 1 0.999727
0.999201 1 1 0.999201
0.99891 1 1 0.99891
0.999206 1 1 0.999206
0.999266 1 1 0.999266
0.998959 1 1 0.998959
0.998835 1 1 0.998835
0.998909 1 1 0.998909
0.999276 1 1 0.999276
0.999779 1 1 0.999779
0.999785 1 1 0.999785
1 1 1 1
0.999777 1 1 0.999777
1 1 1 1
1 1 1 1
1 1 1 1
1 1 1 1
1 1 1 1
0.999999 1 1 0.999999
0.999975 1 1 0.999975
1 1 1 1
0.999908 1 1 0.999908
1 1 1 1
1 1 1 1
1.04209 1.04539 1 0.996839
1.04555 1.04883 0.999904 0.99697
1.04264 1.04752 0.998042 0.997293
1.04271 1.04983 0.995924 0.997284
1.04409 1.04818 0.999106 0.996997
1.03085 1.0342 1 0.996756
1.04404 1.04791 0.999349 0.996957
1.04269 1.0491 0.996696 0.997184
1.04309 1.04912 0.996951 0.997284
1.0397 1.04899 0.993742 0.997393
1.03982 1.04293 0.999905 0.997111
1.03922 1.04666 0.995357 0.99752
1.04247 1.0488 0.996787 0.997167
1.04094 1.0504 0.993598 0.997375
1.04044 1.05032 0.993094 0.997486
1.03724 1.04413 0.995836 0.997552
1.04402 1.04766 0.999564 0.996956
1.04355 1.04679 1 0.996909
1.04126 1.04744 0.996891 0.997198
1.03955 1.04409 0.99841 0.997231
1.00087 1.00308 1 0.997791
1.00622 1.00907 1 0.997169
1.01957 1.02252 1.00058 0.996538
1.03467 1.03767 1 0.997105
1.033 1.03829 0.997358 0.997545
1.03144 1.03421 0.99989 0.997426
1.02586 1.02927 1 0.996688
1.03085 1.03355 1 0.997389
0.99971 1.00197 1 0.997745
0.999534 1.00106 1.00069 0.997788
1.00581 1 1.00789 0.997944
0.999728 1 1.00042 0.999307
1.00317 1 1.00465 0.998522
1.04142 1.04865 0.995909 0.997183
1.03987 1.04677 0.996178 0.997212
1.03444 1.04269 0.994603 0.997465
1.00174 1.00425 1 0.997504
1.00565 1.00855 1.00026 0.996867
1.01583 1.0188 1.00076 0.996327
1.03151 1.03661 0.99759 0.997483
1.0267 1.03 1 0.996792
1.03075 1.03389 0.999391 0.997572
0.999521 1 1 0.999521
1.00052 1.00286 1 0.997666
0.998958 1.00066 1.00051 0.99779
1.00492 1 1.00724 0.997702
1.00389 1 1.00567 0.998232
1.00098 1 1.00225 0.998734
1.03903 1.04876 0.993442 0.997265
1.03746 1.04959 0.991022 0.997395
1.02879 1.04113 0.990566 0.99756
1.03183 1.0401 0.99434 0.997701
1.00271 1.0054 1 0.99732
1.02546 1.02834 1 0.997195
1.00351 1.00549 1.00165 0.996398
1.00863 1.01145 1.00104 0.996175
0.999697 1 1 0.999697
0.999267 1 1.00026 0.999008
1.00183 1 1.0034 0.998439
1.00488 1 1.00705 0.997847
1.00088 1.00297 1.00042 0.997503
1.00601 1.0003 1.00825 0.997479
0.999672 1 1 0.999672
0.999323 1 1.00037 0.998953
1.03518 1.03839 1 0.996912
1.00548 1 1.00722 0.998267
0.998678 1.00074 1.00027 0.99767
0.999446 1 1.00152 0.997925
1.02554 1.02877 1 0.996853
1.02856 1.03157 1 0.99708
1.00391 1.0042 1.00273 0.996984
1.00943 1.01261 1.00027 0.996592
0.999141 1 1 0.999141
1.00341 1 1.00489 0.998521
1.00153 1.002 1.00198 0.997562
1.0029 1 1.00488 0.998036
0.999184 1.00081 1.00048 0.997905
1.03578 1.0391 0.999366 0.997437
1.0229 1.02619 1 0.996793
1.02641 1.02936 1 0.997136
1.00414 1.00273 1.00458 0.996834
1.00356 1.00719 1.00003 0.996371
0.998993 1 1.00018 0.998812
1.00442 1 1.00628 0.998153
1.0037 1.0025 1.00378 0.99742
0.999798 1.0005 1.00161 0.997699
1.03452 1.0506 0.986972 0.997687
1.02913 1.03192 0.999814 0.997488
1.01362 1.01715 1 0.996528
1.00469 1.00399 1.00426 0.996453
0.999219 1 1 0.999219
0.998923 1 1 0.998923
0.99882 1 1 0.99882
0.999265 1 1 0.999265
0.998928 1 1 0.998928
0.999274 1 1 0.999274
0.998828 1 1 0.998828
0.998922 1 1 0.998922
0.998799 1 1 0.998799
0.998741 1 1 0.998741
0.998875 1 1 0.998875
0.999257 1 1 0.999257
0.999761 1 1 0.999761
0.999778 1 1 0.999778
1 1 1 1
0.999785 1 1 0.999785
1 1 1 1
1 1 1 1
1 1 1 1
1 1 1 1
1 1 1 1
1 1 1 1
0.999997 1 1 0.999997
1 1 1 1
0.999965 1 1 0.999965
1 1 1 1
1 1 1 1
1.03915 1.04217 0.999994 0.997112
1.04327 1.0491 0.997169 0.997267
1.03776 1.04581 0.994733 0.997562
1.03904 1.04872 0.993352 0.997405
1.04309 1.04919 0.996997 0.997177
1.0441 1.04782 0.999516 0.996937
1.04232 1.04874 0.996698 0.997166
1.04068 1.05 0.993744 0.997366
1.03964 1.04961 0.992998 0.997486
1.03884 1.04544 0.996113 0.997561
1.04143 1.05033 0.994185 0.997318
1.04204 1.05565 0.989555 0.997533
1.0419 1.05425 0.990653 0.997613
1.04193 1.04911 0.995962 0.997185
1.04 1.04695 0.996148 0.997208
1.03432 1.04199 0.995169 0.997455
1.00227 1.00478 1 0.997497
1.0056 1.00853 1.00018 0.996911
1.01458 1.01747 1.00085 0.996316
1.03201 1.03704 0.997674 0.99747
1.02722 1.03053 0.999242 0.997542
1.02723 1.03043 1 0.99689
1.00047 1.00282 1 0.997654
0.998031 1.00012 1 0.997916
1.00541 1 1.00774 0.997688
0.999546 1 1 0.999546
1.00324 1 1.00499 0.998252
1.00089 1 1.00219 0.9987
1.0397 1.0492 0.99365 0.997273
1.03704 1.04946 0.990736 0.997402
1.02894 1.0407 0.991122 0.997553
1.00157 1.00427 1 0.99731
1.00341 1.00555 1.0014 0.996479
1.00879 1.01169 1.0009 0.996239
1.03199 1.03987 0.994711 0.997707
1.02461 1.02782 0.999701 0.997177
0.99975 1 1 0.99975
0.999199 1 1.00019 0.999007
0.999242 1.00169 1 0.997553
1.00822 1.00043 1.01019 0.997609
1.00473 1 1.00686 0.997884
1.00167 1 1.00326 0.998411
1.03959 1.053 0.989779 0.997454
1.0296 1.04871 0.984216 0.997518
1.02667 1.04077 0.988676 0.99775
1.02197 1.03026 0.994214 0.997722
1.00151 1.00363 1.00091 0.996989
1.00734 1.00955 1.0014 0.99642
1.0029 1.00409 1.00264 0.996188
0.999873 1 1 0.999873
0.999429 1 1 0.999429
0.999187 1 1 0.999187
0.999364 1 1.00078 0.998585
1.00231 1 1.00421 0.99811
1.00821 1 1.01052 0.997721
0.998715 1.00112 1 0.997599
1.03007 1.00033 1.03199 0.997812
0.999144 1 1 0.999144
1.00374 1 1.00523 0.99852
1.03639 1.03991 0.999136 0.997481
1.00323 1 1.0052 0.998044
1.00173 1.00201 1.00215 0.997571
0.99869 1.00066 1.00004 0.997993
1.0219 1.02518 1 0.996807
1.02775 1.03063 1 0.997209
1.00377 1.00217 1.00482 0.996798
1.00422 1.00794 1 0.996309
0.999145 1 1.00036 0.998785
1.00419 1 1.00604 0.998168
1.00417 1.00258 1.00415 0.997449
0.9997 1.00055 1.00142 0.997735
1.03661 1.05225 0.987401 0.997706
1.02903 1.03173 0.999936 0.997441
1.01464 1.01813 1 0.996572
1.0057 1.00554 1.00377 0.996402
0.999965 1 1.00139 0.998577
1.03439 1.05551 0.982237 0.997712
1.00147 1 1.00363 0.997843
1.00281 1.00297 1.00268 0.997166
1.03274 1.04203 0.993275 0.997799
1.01328 1.01666 1 0.996669
1.00567 1.00623 1.00323 0.996226
0.998936 1 1 0.998936
0.998811 1 1 0.998811
0.998799 1 1 0.998799
0.999273 1 1 0.999273
0.998935 1 1 0.998935
0.998822 1 1 0.998822
0.999255 1 1 0.999255
0.998879 1 1 0.998879
0.998797 1 1 0.998797
0.998762 1 1 0.998762
0.998816 1 1 0.998816
0.99872 1 1 0.99872
0.998818 1 1.00015 0.998664
0.998837 1 1 0.998837
0.999209 1 1 0.999209
0.999736 1 1 0.999736
0.999759 1 1 0.999759
1 1 1 1
0.999777 1 1 0.999777
1 1 1 1
1 1 1 1
1 1 1 1
1 1 1 1
1 1 1 1
0.9999 1 1 0.9999
1 1 1 1
1 1 1 1
1 1 1 1
0.999994 1 1 0.999994
1 1 1 1
1 1 1 1
1.04044 1.04678 0.996366 0.99757
1.0388 1.04881 0.992959 0.997485
1.04037 1.04955 0.993888 0.997357
1.04218 1.04867 0.99663 0.997166
1.04108 1.05028 0.993893 0.997337
1.04207 1.05522 0.989987 0.997523
1.04045 1.0531 0.990337 0.997623
1.04163 1.05545 0.989367 0.997512
1.04865 1.06383 0.988072 0.997634
1.0356 1.05582 0.982928 0.997882
1.04038 1.04964 0.993877 0.99728
1.03661 1.04936 0.990414 0.99741
1.02895 1.04027 0.991556 0.997545
1.0016 1.00426 1.00006 0.997301
1.00378 1.00597 1.00126 0.99656
1.00961 1.01258 1.00078 0.996303
1.03226 1.03977 0.995059 0.997713
1.02407 1.0276 0.999399 0.99716
0.998651 1.00105 1 0.997604
1.01074 1.00087 1.01215 0.997738
1.00551 1 1.00761 0.997922
0.999802 1 1 0.999802
0.999164 1 1.00016 0.999007
1.00183 1 1.00345 0.998383
1.03954 1.05329 0.989451 0.997466
0.999869 1 1 0.999869
0.999401 1 1 0.999401
1.02966 1.0479 0.985034 0.997519
1.02587 1.04055 0.988142 0.997718
1.0013 1.00304 1.00119 0.997079
1.00352 1.00406 1.0033 0.996172
1.00802 1.01079 1.00084 0.996416
1.0208 1.02936 0.993977 0.9977
0.999261 1 1 0.999261
0.999428 1 1.00085 0.998579
0.999696 1.00128 1.00091 0.997504
1.02493 1.00046 1.02654 0.997969
1.00645 1 1.00874 0.997734
1.00281 1 1.00469 0.998129
1.04698 1.06222 0.988032 0.997593
1.01299 1.04607 0.97065 0.997658
1.01889 1.03535 0.986169 0.997909
1.00384 1.01267 0.993849 0.997416
1.00202 1.00111 1.00381 0.997117
1.00348 1.00193 1.00547 0.996101
0.999391 1 1 0.999391
0.999382 1 1 0.999382
0.999109 1 1 0.999109
0.998705 1 1 0.998705
1.00044 1 1.0021 0.998347
1.00136 1 1.00355 0.99782
1.04059 1 1.04296 0.997731
1.0024 1.00049 1.00393 0.997989
0.999374 1 1.00062 0.998757
1.0035 1 1.00533 0.998183
1.03802 1.05299 0.988023 0.997724
1.02881 1.0315 1 0.997394
0.999575 1.00065 1.00115 0.997771
1.00467 1.00279 1.00441 0.997478
1.01605 1.01947 1.00004 0.996615
1.00666 1.00698 1.00335 0.996351
1.00014 1 1.00158 0.998564
1.03635 1.05804 0.981704 0.997756
1.00167 1 1.00382 0.997863
1.00245 1.00265 1.00269 0.997116
1.03139 1.04122 0.992773 0.997772
1.01336 1.01667 1 0.99674
1.006 1.00629 1.00348 0.996242
1.00143 1 1.00318 0.998249
1.01701 1.03869 0.980931 0.998169
1.00224 1.0024 1.00226 0.997584
1.00348 1.00295 1.00379 0.996752
1.01582 1.02332 0.995277 0.997383
1.00194 1.00333 1.00221 0.996416
0.990085 1.00497 0.987274 0.997888
0.998803 1 1 0.998803
0.999098 1 1.0003 0.998797
0.998796 1 1.0001 0.998694
0.999252 1 1 0.999252
0.998884 1 1 0.998884
0.998783 1 1 0.998783
0.998795 1 1 0.998795
0.999208 1 1 0.999208
0.998827 1 1 0.998827
0.998784 1 1 0.998784
0.99871 1 1.00005 0.998664
0.998717 1 1 0.998717
0.99877 1 1 0.99877
0.99884 1 1.00034 0.998496
0.999106 1 1.00046 0.998648
0.998736 1 1 0.998736
0.999101 1 1 0.999101
0.998896 1 1 0.998896
0.999083 1 1 0.999083
0.999722 1 1 0.999722
0.999734 1 1 0.999734
1 1 1 1
0.999757 1 1 0.999757
1 1 1 1
1 1 1 1
1 1 1 1
1 1 1 1
1 1 1 1
0.999921 1 1 0.999921
0.999899 1 1 0.999899
1 1 1 1
1 1 1 1
1 1 1 1
1 1 1 1
1 1 1 1
1 1 1 1
1.03915 1.05222 0.989928 0.997633
1.04204 1.05485 0.990321 0.997513
1.04074 1.05023 0.993598 0.997356
1.04165 1.05541 0.989422 0.99751
1.04653 1.06173 0.988023 0.997631
1.03571 1.05489 0.983962 0.997824
1.0489 1.06669 0.985586 0.997698
0.982273 1.01605 0.970091 0.99656
1.00975 1.03571 0.976381 0.998516
0.999497 1 1 0.999497
1.03949 1.05357 0.98913 0.997477
1.02994 1.04716 0.986 0.99752
1.02518 1.04038 0.987681 0.997687
0.999703 1.00172 1.00082 0.997168
1.00384 1.00368 1.00402 0.996157
1.0085 1.01168 1.00045 0.996412
1.01949 1.02821 0.993827 0.997677
0.998899 1.00149 1 0.99741
1.01877 1 1.02069 0.998128
1.00454 1 1.00681 0.997747
0.999864 1 1 0.999864
1.00311 1 1.00498 0.998147
0.999334 1 1 0.999334
0.999327 1 1.00076 0.998573
0.999373 1 1 0.999373
1.04442 1.06249 0.985352 0.9976
0.999429 1 1 0.999429
0.99938 1 1 0.99938
0.999073 1 1 0.999073
1.01636 1.04597 0.973981 0.997658
1.01961 1.03601 0.986278 0.997863
1.00039 1.00113 1.00213 0.997142
1.00401 1.00227 1.00556 0.996195
1.00307 1.01084 0.994901 0.997404
0.99875 1 1 0.99875
1.0005 1 1.0022 0.998308
1.00739 1.00031 1.0092 0.997901
1.03272 1 1.03504 0.997766
1.00121 1 1.00336 0.997858
1.03097 1.05325 0.981107 0.997695
1.0048 1.04195 0.966475 0.997794
1.01124 1.02183 0.992022 0.99759
0.994622 1.00417 0.993305 0.997172
1.00333 1 1.00579 0.997553
0.998993 1 1 0.998993
0.998908 1 1 0.998908
0.998963 1 1.00017 0.998794
0.999505 1 1.00102 0.998485
1.0014 1 1.00325 0.998154
1.02844 1 1.03068 0.997828
1.02633 1 1.02861 0.997783
1.00015 1 1.0016 0.99855
1.00186 1 1.00399 0.997883
1.03762 1.0613 0.979837 0.997799
1.03026 1.04082 0.992098 0.997746
1.01316 1.01641 1 0.99681
1.00203 1.00229 1.00268 0.997067
1.006 1.00616 1.0036 0.996259
1.00142 1 1.00314 0.99829
1.01511 1.0387 0.979054 0.998195
1.00074 1.0016 1.00154 0.997601
1.00285 1.00202 1.00408 0.99676
1.01576 1.02343 0.994999 0.997486
1.00189 1.00277 1.00273 0.996404
0.989332 1.00472 0.987545 0.997102
1.00128 1.00038 1.0028 0.998104
1.00705 1.02113 0.988041 0.998147
1.0008 1.0013 1.00194 0.997559
1.00444 1.00112 1.00644 0.996899
0.994965 1.00581 0.992 0.997197
0.936654 0.981839 0.973257 0.980192
0.94191 0.977908 0.972964 0.989953
0.980231 0.990574 0.991612 0.997929
0.78812 0.866067 0.941695 0.966341
0.721037 0.844957 0.891284 0.95743
0.999224 1 1.00043 0.998794
0.999281 1 1.00055 0.998734
0.999017 1 1.00029 0.998723
0.999207 1 1 0.999207
0.998817 1 1 0.998817
0.998665 1 1 0.998665
0.998715 1 1 0.998715
0.998753 1 1 0.998753
0.999776 1 1.00115 0.998623
0.999131 1 1 0.999131
0.998754 1 1 0.998754
0.998748 1 1 0.998748
0.99919 1 1.00067 0.99852
1.00096 1 1.00244 0.998531
1.00117 1 1.00261 0.998563
0.999958 1 1.00141 0.998553
0.998727 1 1.00004 0.998691
0.999076 1 1 0.999076
0.998769 1 1 0.998769
0.998721 1 1 0.998721
0.998892 1 1 0.998892
0.99886 1 1 0.998859
0.999179 1 1 0.999179
0.99908 1 1 0.99908
0.999717 1 1 0.999717
0.999722 1 1 0.999722
1 1 1 1
0.999732 1 1 0.999732
1 1 1 1
1 1 1 1
1 1 1 1
1 1 1 1
1 1 1 1
0.999937 1 1 0.999937
0.999918 1 1 0.999918
1 1 1 1
0.999897 1 1 0.999897
1 1 1 1
1 1 1 1
1 1 1 1
1 1 1 1
1 1 1 1
1.04418 1.05942 0.987959 0.997629
1.04167 1.05535 0.989508 0.997508
1.03638 1.05424 0.985257 0.997766
0.986042 1.01587 0.973929 0.996623
1.04602 1.06409 0.985283 0.997697
1.01944 1.03866 0.983068 0.998401
1.03658 1.04743 0.991824 0.997804
0.942402 0.982246 0.970011 0.989098
0.997189 1.01935 0.980938 0.997267
0.999506 1 1 0.999506
0.999494 1 1 0.999494
0.999099 1 1 0.999099
0.999152 1 1 0.999152
1.04233 1.06271 0.983178 0.997607
1.0191 1.04542 0.977114 0.997658
1.01988 1.03637 0.986238 0.997818
0.999366 1.00073 1.00147 0.997166
1.00446 1.00283 1.00536 0.996288
1.00227 1.00946 0.995472 0.997391
1.01367 1 1.01589 0.997812
1.02561 1 1.02787 0.997801
1.00083 1 1.00294 0.997896
0.999379 1 1 0.999379
1.00042 1 1.00215 0.998268
0.998796 1 1 0.998796
0.999467 1 1 0.999467
0.999036 1 1 0.999036
1.02838 1.05295 0.978912 0.99771
0.999038 1 1 0.999038
0.998956 1 1 0.998956
0.998898 1 1 0.998898
1.00823 1.0442 0.967697 0.99779
1.01012 1.02146 0.991286 0.997588
1.003 1.00005 1.00543 0.997536
0.996111 1.00461 0.994302 0.997226
0.999414 1 1.00096 0.998458
1.00108 1 1.003 0.998085
1.03036 1.00033 1.03232 0.997769
1.02912 1 1.03141 0.99778
0.999702 1.03805 0.965128 0.997858
0.998453 1.02859 0.972882 0.997762
1.00343 1.00859 0.997595 0.997276
0.989008 1.00045 0.990546 0.997999
0.998662 1 1 0.998662
0.999727 1 1.00113 0.998598
1.00989 1 1.01156 0.998353
1.04673 1 1.04911 0.997735
0.91234 0.970557 0.960904 0.978263
1.00181 1 1.00348 0.998331
0.999413 1.0007 1.00109 0.997618
1.01442 1.03852 0.978532 0.998222
1.01596 1.02379 0.994756 0.997589
1.00218 1.0025 1.0033 0.996391
1.00262 1.0014 1.00447 0.996766
0.990054 1.00504 0.988747 0.996299
1.00073 1.00016 1.00242 0.998155
1.00718 1.02197 0.987365 0.998136
1.00025 1.00125 1.00144 0.997572
1.00444 1.00144 1.00611 0.996898
0.997807 1.00681 0.993831 0.997208
0.935794 0.987114 0.96902 0.978318
0.937234 0.975501 0.972871 0.987564
0.980997 0.98941 0.993535 0.997948
0.7874 0.86336 0.943283 0.966856
0.706066 0.834069 0.887363 0.953986
1.00006 1.00011 1.0016 0.998355
0.816429 0.886212 0.951273 0.968446
0.762612 0.849995 0.935648 0.958903
0.990429 1.00708 0.985384 0.99805
1.00629 1.00124 1.00718 0.997877
1.01218 1.00447 1.01024 0.997458
0.973464 0.985076 0.990045 0.998149
0.929729 0.96919 0.980225 0.978636
0.915398 0.950577 0.97631 0.986359
0.77103 0.864934 0.920715 0.968196
0.782464 0.894227 0.913243 0.958142
0.999869 1 1.0011 0.998774
0.999993 1 1.00129 0.998704
1.00084 1 1.00195 0.998889
0.999161 1 1 0.999161
0.998772 1 1 0.998772
0.999972 1 1.00137 0.998599
0.999728 1 1.00119 0.998544
0.998726 1 1 0.998726
0.999077 1 1 0.999077
1.00069 1 1.00217 0.998523
1.00033 1 1.00176 0.998569
0.998724 1 1 0.998723
1.00083 1 1.00226 0.998576
1.0028 1 1.00427 0.998539
1.00485 1 1.00621 0.998645
0.998705 1 1.00018 0.998522
0.998732 1 1 0.998732
0.998766 1 1 0.998766
0.998717 1 1 0.998717
0.998627 1 1.00004 0.998588
0.9992 1 1.00048 0.998725
0.999286 1 1.0006 0.998689
1.0009 1 1.00237 0.998534
0.999384 1 1.00053 0.998857
0.998997 1 1.00011 0.998892
0.999207 1 1 0.999207
0.998823 1 1 0.998823
0.999153 1 1 0.999153
0.999709 1 1 0.999709
0.999077 1 1 0.999077
0.999718 1 1 0.999718
1 1 1 1
0.999721 1 1 0.999721
1 1 1 1
1 1 1 1
1 1 1 1
1 1 1 1
1 1 1 1
0.99947 1 1 0.99947
0.999938 1 1 0.999938
0.999934 1 1 0.999934
1 1 1 1
0.999914 1 1 0.999914
1 1 1 1
1 1 1 1
1 1 1 1
1 1 1 1
1 1 1 1
0.988928 1.01579 0.97679 0.996692
1.04383 1.06132 0.985797 0.997696
1.02526 1.04149 0.986105 0.998284
0.936285 0.975874 0.968984 0.990143
0.997808 1.01907 0.981682 0.997407
1.03749 1.05078 0.989569 0.997759
1.01211 1.0261 0.989029 0.997311
0.951121 0.976914 0.982199 0.991242
0.935001 0.979545 0.975715 0.978284
0.778969 0.861942 0.933836 0.967768
0.695383 0.811584 0.895578 0.956725
0.9991 1 1 0.9991
0.999504 1 1 0.999504
0.999492 1 1 0.999492
0.999087 1 1 0.999087
0.998852 1 1 0.998852
0.998883 1 1 0.998883
0.99906 1 1 0.99906
0.999119 1 1 0.999119
1.02502 1.05295 0.9757 0.997724
1.01273 1.04751 0.968947 0.997786
1.00954 1.02126 0.990921 0.997587
1.00277 1.00033 1.00493 0.99752
0.99778 1.00469 0.995835 0.99728
1.0329 1 1.03522 0.997755
1.03027 1 1.03261 0.997733
1.00104 1 1.00303 0.998015
0.999005 1 1 0.999005
0.999291 1 1.00086 0.99843
0.999085 1 1 0.999085
0.999002 1 1 0.999002
1.00017 1.03873 0.964942 0.997859
0.998742 1 1.00005 0.998691
0.99923 1 1.00059 0.998637
0.998212 1.02776 0.973449 0.997738
1.00041 1.00814 0.994919 0.9974
0.991457 1.00083 0.99272 0.997897
1.01454 1 1.01634 0.998229
1.04213 1 1.04447 0.997756
0.9914 1.02678 0.96763 0.997842
0.985312 1.00864 0.979037 0.997791
0.983866 1.00113 0.984903 0.997816
0.995066 1.00046 0.99648 0.998118
1.00103 1 1.00266 0.998371
1.00554 1 1.00718 0.998371
1.04205 1 1.04411 0.998028
0.809799 0.894473 0.933719 0.969602
0.929629 0.976511 0.970359 0.98107
0.999912 1 1.00171 0.998207
0.999602 1.00095 1.00107 0.997587
1.00725 1.02281 0.986636 0.998126
1.00021 1.00776 0.995275 0.997219
1.00454 1.00194 1.00571 0.996899
0.929954 0.976303 0.973354 0.978602
0.943895 0.982342 0.972349 0.988186
0.981139 0.98779 0.995297 0.99796
0.787173 0.865031 0.939322 0.968778
0.693564 0.823418 0.886206 0.950455
1.0001 1.00007 1.00168 0.998353
0.812189 0.891043 0.940644 0.96902
0.753196 0.840989 0.935697 0.957156
0.99066 1.00778 0.984933 0.998048
1.00631 1.00151 1.00691 0.997904
1.0105 1.00276 1.01013 0.997611
0.965695 0.978901 0.988205 0.998284
0.935423 0.978567 0.978788 0.976628
0.915503 0.954147 0.970542 0.988621
0.773964 0.8608 0.930261 0.966527
0.780284 0.898043 0.907645 0.957281
1.00177 1 1.00305 0.998728
0.794275 0.861332 0.960109 0.960462
0.8673 0.92903 0.965256 0.967158
0.989892 0.998703 0.992474 0.998694
1.01406 1.00265 1.01274 0.998655
0.975299 0.969587 1.00772 0.998187
0.908597 0.937813 0.978917 0.989714
0.906217 0.942828 0.985012 0.975794
0.781218 0.862499 0.936466 0.967211
0.819053 0.929238 0.917146 0.961051
1.00094 1 1.00226 0.998685
1.0007 1 1.00185 0.998856
1.00418 1 1.00509 0.999098
0.999078 1 1 0.999078
0.998755 1 1 0.998755
1.00094 1 1.00236 0.998584
1.00091 1 1.0024 0.998515
1.00056 1 1.00198 0.998588
0.998731 1 1 0.998731
1.00152 1 1.00299 0.998533
0.998721 1 1.0002 0.998524
1.00576 1 1.00707 0.998693
1.0207 0.999448 1.02218 0.999109
1.00193 1 1.00339 0.99854
0.998486 1 1 0.998486
0.998762 1 1 0.998762
0.998714 1 1 0.998713
0.998771 1 1.00019 0.998582
0.999277 1 1.00056 0.998718
0.999133 1 1.00039 0.998739
1.00074 1 1.00209 0.998653
0.999294 1 1.00069 0.998603
1.00064 1 1.0019 0.998737
0.998828 1 1.00033 0.998501
0.998902 1 1.00093 0.997975
1.00076 1 1.00235 0.99842
1.00082 1 1.00229 0.998532
1.00063 1 1.00186 0.998772
0.999787 1 1.00093 0.998855
0.999193 1 1 0.999193
0.999245 1 1.00035 0.998892
0.999207 1 1 0.999207
0.999706 1 1 0.999706
0.999128 1 1 0.999128
0.999711 1 1 0.999711
0.999999 1 1 0.999999
0.999718 1 1 0.999718
1 1 1 1
1 1 1 1
1 1 1 1
1 1 1 1
1 1 1 1
0.999484 1 1 0.999484
0.999922 1 1 0.999922
0.999471 1 1 0.999471
1 1 1 1
0.999939 1 1 0.999939
0.999932 1 1 0.999932
1 1 1 1
1 1 1 1
1 1 1 1
1 1 1 1
1 1 1 1
0.80852 0.881883 0.94795 0.967152
0.760398 0.848441 0.934567 0.958978
0.938315 0.980301 0.966218 0.990636
0.998948 1.01871 0.983008 0.997549
1.04062 1.05431 0.989279 0.997715
0.933445 0.96257 0.976951 0.992621
1.01107 1.02553 0.988444 0.997419
0.944421 0.989575 0.974326 0.97952
0.784129 0.865797 0.936925 0.966643
0.691657 0.816305 0.888869 0.953236
0.964998 0.996267 0.973981 0.99449
0.933847 0.972915 0.980275 0.979159
0.766279 0.86216 0.918612 0.967536
0.767349 0.883983 0.907279 0.956772
0.999283 1 1.00056 0.998728
0.999129 1 1 0.999129
0.999503 1 1 0.999503
0.999075 1 1 0.999075
0.998896 1 1 0.998896
0.999335 1 1.00061 0.998722
0.99887 1 1 0.99887
0.998821 1 1 0.998821
0.999025 1 1 0.999025
0.999086 1 1 0.999086
1.0015 1.03893 0.966041 0.997861
0.995766 1.0256 0.973129 0.997717
0.997381 1.00792 0.991998 0.997524
0.993362 1.00105 0.994515 0.997795
1.03705 1.00067 1.03867 0.997777
1.02007 1 1.02201 0.998104
0.998676 1 1 0.998676
0.998794 1 1.00007 0.99872
0.991833 1.02706 0.967744 0.997885
1.0018 1 1.00346 0.998344
1.00565 1 1.00733 0.998333
0.984024 1.00694 0.979484 0.997715
0.981696 1.00055 0.98321 0.997912
0.997271 1.00129 0.997952 0.99803
1.03692 1 1.039 0.997993
0.989256 1.00423 0.986885 0.998179
0.977791 1 0.979181 0.998578
1.01484 1.00062 1.01601 0.998226
1.00511 1 1.0068 0.998313
1.00465 1 1.00648 0.998179
1.0227 1 1.02462 0.998122
0.813392 0.874529 0.962811 0.966016
0.819584 0.893487 0.946069 0.969577
0.918597 0.973491 0.964504 0.978339
0.999993 1 1.00165 0.998351
1.00623 1.00156 1.00675 0.99793
0.992727 1.00862 0.98617 0.998046
1.00918 1.00137 1.01006 0.997761
0.805318 0.885894 0.937513 0.969636
0.932286 0.975058 0.977213 0.978429
0.907237 0.950264 0.967826 0.986459
0.962208 0.974274 0.989181 0.998418
0.771955 0.860095 0.929962 0.965118
0.75472 0.844298 0.933571 0.957508
0.768153 0.887567 0.902862 0.958574
1.00234 1 1.00361 0.99873
0.79575 0.86461 0.95643 0.962283
0.876396 0.936842 0.967419 0.966984
0.991851 0.998388 0.994663 0.998783
1.01371 1.0014 1.01369 0.99862
0.972498 0.968409 1.0058 0.998431
0.906411 0.941288 0.97505 0.987587
0.911846 0.947981 0.983625 0.977894
0.801824 0.884182 0.938682 0.966093
0.806095 0.917215 0.913331 0.962248
1.00632 0.999487 1.00741 0.999437
0.884308 0.939648 0.968239 0.971976
0.857906 0.928414 0.951382 0.971277
0.993547 0.979584 1.01454 0.999715
0.930423 0.938223 0.998532 0.993145
0.91799 0.940418 0.999255 0.976879
0.838918 0.904869 0.960651 0.965091
0.835169 0.948843 0.915564 0.961372
1.00053 1 1.00171 0.998823
1.00407 1 1.00498 0.999098
1.02061 0.999731 1.02155 0.999354
0.99873 1 1 0.99873
0.998643 1 1.00012 0.998526
0.999952 1 1.00143 0.998526
1.00658 1 1.00785 0.998741
0.998484 1 1 0.998484
1.00228 1 1.00375 0.998532
1.02521 0.999852 1.02621 0.99918
1.03784 0.996861 1.04168 0.999446
1.027 0.999983 1.02798 0.999068
0.998499 1 1 0.998499
0.998849 1 1.00027 0.998577
0.999103 1 1.00039 0.99871
0.998788 1 1 0.998788
0.998998 1 1.00038 0.998619
1.00036 1 1.00171 0.998653
1.00102 1 1.00228 0.998749
1.00022 1 1.00159 0.998629
1.00551 1 1.00653 0.998992
0.998584 1 1 0.998584
0.999186 1.00024 1.00042 0.998529
0.998854 1 1.00069 0.998161
0.999305 1.00044 1.00153 0.99734
1.00128 1 1.00295 0.998328
0.998916 1 1.00079 0.998125
1.00054 1 1.0021 0.998446
1.00101 1 1.00238 0.998628
1.00059 1 1.00206 0.998531
1.00033 1 1.00156 0.998771
0.999124 1 1 0.999124
0.999832 1 1.00098 0.998852
0.999191 1 1 0.999191
0.999697 1 1 0.999697
0.999208 1 1 0.999208
0.999706 1 1 0.999706
0.999997 1 1 0.999997
0.999713 1 1 0.999713
0.999999 1 1 0.999999
1 1 1 1
1 1 1 1
1 1 1 1
1 1 1 1
0.999292 1 1 0.999292
0.999893 1 1 0.999893
0.99942 1 1 0.99942
1 1 1 1
0.999926 1 1 0.999926
0.999472 1 1 0.999472
1 1 1 1
1 1 1 1
0.999939 1 1 0.999939
1 1 1 1
1 1 1 1
1 1 1 1
0.792761 0.862528 0.954482 0.962945
0.813607 0.889225 0.945201 0.968008
0.873205 0.937 0.964038 0.96668
0.754377 0.84374 0.933473 0.957807
0.933718 0.970545 0.971406 0.990375
1.00881 1.02497 0.986663 0.997534
0.951286 0.98844 0.981438 0.980614
0.791054 0.869529 0.939811 0.968014
0.692593 0.824679 0.88432 0.949693
0.96357 0.992216 0.977292 0.993694
0.929891 0.973378 0.978861 0.975954
0.778742 0.870656 0.925866 0.966049
0.769992 0.889254 0.906552 0.955141
0.944459 0.979944 0.971681 0.991878
0.919006 0.947106 0.994831 0.975373
0.802338 0.889299 0.935153 0.964777
0.81307 0.928332 0.913608 0.95866
1.00027 1 1.00176 0.998506
0.998854 1 1.00009 0.998769
0.999158 1 1 0.999158
0.998941 1 1 0.998941
0.998712 1 1.00027 0.998445
0.998904 1 1.00015 0.998756
0.998857 1 1 0.998857
0.998787 1 1 0.998787
0.998855 1 1 0.998855
0.99899 1 1 0.99899
0.993235 1.02831 0.967899 0.997928
0.985663 1.00623 0.981875 0.997643
0.979992 1.00035 0.981605 0.998006
1.00084 1.00237 1.00052 0.997945
1.03047 1 1.03258 0.997957
1.00471 1 1.00643 0.998296
1.00222 1 1.00391 0.998318
1.00445 1 1.00618 0.998286
0.98622 1.0047 0.983397 0.998184
1.0036 1 1.00543 0.998178
1.02301 1 1.02495 0.998112
0.976997 1.00045 0.978003 0.998525
1.01312 1.00151 1.01343 0.998189
0.959325 0.987139 0.973146 0.998642
0.99599 0.996631 1.00012 0.999233
1.03564 0.99984 1.03742 0.998438
1.00201 1 1.00382 0.99819
1.01171 1 1.01359 0.998149
0.891656 0.942187 0.971047 0.974584
0.816815 0.874478 0.967213 0.965724
0.808646 0.887638 0.940763 0.968373
1.00281 1 1.00408 0.998732
1.01345 1.00008 1.01481 0.998585
0.990962 0.997659 0.994411 0.99887
0.801797 0.868625 0.958393 0.963137
0.918825 0.946922 0.994646 0.975551
0.907538 0.93943 0.976791 0.989005
0.962636 0.964288 0.999633 0.998654
0.801333 0.883438 0.937612 0.967418
0.882808 0.941596 0.969717 0.966844
0.810097 0.920516 0.914463 0.962364
1.00467 0.99916 1.00612 0.999402
0.880926 0.93802 0.964995 0.9732
0.858787 0.929248 0.951484 0.971298
0.996278 0.983427 1.01351 0.999559
0.940362 0.946342 1.00085 0.992837
0.898041 0.933945 0.986667 0.97455
0.837187 0.949432 0.916405 0.962212
0.849388 0.911398 0.965015 0.965749
1.00543 0.987116 1.01885 0.999711
0.863171 0.923758 0.954061 0.979406
0.874822 0.946095 0.950853 0.972459
0.813772 0.928041 0.914534 0.958817
0.975341 0.96312 1.01452 0.998194
0.942245 0.953881 1.01012 0.977907
0.879888 0.931821 0.976809 0.966687
1.0041 1 1.005 0.999096
1.02083 0.999713 1.02187 0.999273
1.02172 0.989845 1.03265 0.999566
0.998483 1 1 0.998483
1.00251 1 1.00399 0.998523
1.0304 1 1.03117 0.999251
0.998508 1 1 0.998507
1.02613 1 1.02707 0.999079
1.03901 0.996972 1.04277 0.999421
1.02748 0.995248 1.03292 0.999489
1.01929 1 1.02026 0.999059
0.998915 1 1.00028 0.998636
1.00033 1 1.00167 0.998654
1.00153 1 1.00277 0.998763
1.0045 1 1.00554 0.998968
0.999803 1 1.00117 0.998632
1.00259 1 1.00369 0.998901
0.998807 1 1 0.998807
1.00117 1 1.00333 0.997848
0.999515 1.00048 1.00048 0.998558
0.998969 1.00031 1.00057 0.998095
0.998245 1.00011 1.00101 0.99713
1.00616 1.00773 1.00129 0.997158
1.00108 1.00029 1.00276 0.998035
0.999213 1.00046 1.00138 0.997376
1.00388 1 1.00542 0.998463
1.00183 1 1.00353 0.998306
0.998919 1 1.00065 0.998274
1.00038 1 1.00191 0.998472
1.00079 1 1.00213 0.998661
0.999026 1 1 0.999024
1.00024 1 1.00147 0.998769
0.999124 1 1 0.999124
0.99966 1 1 0.99966
0.999189 1 1 0.999189
0.999694 1 1 0.999694
0.999996 1 1 0.999996
0.999706 1 1 0.999706
0.999997 1 1 0.999997
1 1 1 1
0.999998 1 1 0.999998
1 1 1 1
1 1 1 1
0.999088 1 1 0.999088
0.999737 1 1 0.999737
0.99929 1 1 0.99929
1 1 1 1
0.999851 1 1 0.999851
0.999356 1 1 0.999356
1 1 1 1
1 1 1 1
0.99993 1 1 0.99993
1 1 1 1
1 1 1 1
1 1 1 1
0.878557 0.939325 0.961557 0.9727
0.786687 0.861487 0.947314 0.96396
0.811671 0.885598 0.947082 0.967733
0.99867 1 1 0.99867
0.862563 0.925872 0.957415 0.973061
0.871946 0.936601 0.963172 0.966566
0.754478 0.848294 0.927569 0.958858
0.969864 0.994524 0.982388 0.992687
0.930242 0.969227 0.980708 0.978657
0.785023 0.882473 0.92223 0.964588
0.764961 0.879753 0.909747 0.955781
0.94356 0.978225 0.975075 0.98922
0.909715 0.944025 0.985588 0.977747
0.813723 0.894477 0.942676 0.96504
0.809748 0.922536 0.915354 0.958909
0.911889 0.947794 0.975051 0.986735
0.912341 0.934305 1.00107 0.975447
0.860934 0.921869 0.966931 0.96584
0.83537 0.947817 0.916812 0.961333
1.0002 1 1.00192 0.998287
1.00116 1 1.0027 0.998467
0.998809 1 1 0.998809
0.998473 1 1 0.998473
0.998807 1 1.00031 0.9985
0.998791 1 1 0.998791
0.998795 1 1 0.998795
0.998889 1 1 0.998889
0.981589 1.00531 0.978176 0.998187
0.974605 1.00029 0.975809 0.998476
1.00401 1 1.00576 0.998259
1.01214 1.00244 1.01155 0.998151
1.02489 1 1.02684 0.998101
1.00315 1 1.00498 0.998177
1.00236 1 1.00417 0.998197
0.965758 0.989495 0.97727 0.998712
1.01202 1 1.01386 0.998187
1.02708 1.00032 1.02833 0.998461
0.990997 0.996478 0.995214 0.999282
1.00182 1 1.00355 0.998272
0.958789 0.977112 0.982555 0.998669
1.00629 0.992632 1.01431 0.999456
1.04633 0.998326 1.04961 0.998552
1.00241 1 1.00408 0.998338
0.874856 0.927134 0.961576 0.98132
0.890667 0.941665 0.970452 0.974642
0.821695 0.874521 0.97324 0.965429
1.00266 0.998648 1.00465 0.99937
1.00045 0.987096 1.01413 0.999408
0.879055 0.937742 0.962041 0.974404
0.924389 0.938667 1.00744 0.977514
0.931574 0.943747 0.997136 0.989937
0.851688 0.914432 0.965518 0.964647
0.85953 0.930162 0.951358 0.97131
0.840373 0.951003 0.917573 0.963052
1.00815 0.991594 1.01704 0.999669
0.864575 0.924683 0.954677 0.979385
0.873316 0.944137 0.949462 0.974224
0.984731 0.969552 1.01607 0.999595
0.809758 0.921949 0.91586 0.959001
0.923504 0.939525 1.00672 0.976382
0.888639 0.941739 0.976632 0.966193
1.00733 0.984962 1.02295 0.999766
0.882593 0.941435 0.955614 0.981043
0.861112 0.924558 0.95702 0.973205
0.765611 0.883132 0.905944 0.956932
0.860986 0.923147 0.966059 0.965432
0.960587 0.958723 1.00569 0.996276
0.945552 0.948953 1.02357 0.973473
1.01862 0.999935 1.0195 0.999193
1.02318 0.990852 1.03311 0.999534
1.00773 0.979581 1.02917 0.999582
0.998515 1 1 0.998515
1.02629 1 1.02722 0.999091
1.03934 0.998282 1.04176 0.999396
1.0144 0.999992 1.01538 0.999045
1.0267 0.996418 1.03092 0.999488
1.01228 0.993576 1.0196 0.999239
1.0032 1 1.00426 0.998943
0.999365 1 1.00073 0.998636
1.0041 1 1.00522 0.998879
1.00737 1 1.00912 0.998268
0.999028 1 1 0.999028
1.00039 1 1.00239 0.998004
1.00164 1.00057 1.00413 0.996952
1.00428 1.00589 1.00188 0.99653
0.999072 1.00064 1.0004 0.998028
0.998663 1.00059 1.00109 0.996979
1.00753 1.00978 1.00053 0.997252
1.00379 1.00353 1.00261 0.997659
1.00591 1.00744 1.00125 0.997232
1.00569 1 1.00743 0.998273
1.00209 1.00089 1.00319 0.99802
0.998923 1.00024 1.00128 0.997413
0.999274 1 1.00041 0.998864
1.00356 1 1.0051 0.998468
1.00242 1 1.00415 0.998284
1.00061 1 1.00192 0.998694
0.999023 1 1 0.999023
0.999591 1 1 0.999591
0.999123 1 1 0.999123
0.999657 1 1 0.999657
0.999994 1 1 0.999994
0.999692 1 1 0.999692
0.999995 1 1 0.999995
1 1 1 1
0.999996 1 1 0.999996
1 1 1 1
1 1 1 1
0.999006 1 1 0.999006
0.999623 1 1 0.999623
0.999126 1 1 0.999126
1 1 1 1
0.999726 1 1 0.999726
0.999288 1 1 0.999288
1 1 1 1
1 1 1 1
0.999808 1 1 0.999808
1 1 1 1
1 1 1 1
1 1 1 1
0.867825 0.925783 0.956696 0.979826
0.881424 0.939111 0.964934 0.972681
0.78673 0.862077 0.946573 0.964108
0.998697 1 1 0.998697
0.99863 1 1 0.99863
0.998542 1 1 0.998542
0.873238 0.946908 0.94846 0.972313
0.859611 0.925427 0.954569 0.973088
0.87207 0.936227 0.963804 0.966454
0.947624 0.981242 0.974414 0.991098
0.904611 0.942314 0.984314 0.975287
0.802247 0.877437 0.945256 0.967259
0.822741 0.931592 0.921831 0.958045
0.915957 0.950738 0.973982 0.989153
0.913136 0.935807 0.999728 0.97604
0.840532 0.899501 0.966449 0.966883
0.836172 0.949152 0.91564 0.962133
0.906133 0.939422 0.976979 0.987293
0.928069 0.942572 1.00791 0.976888
0.879812 0.929958 0.978468 0.966896
0.821982 0.930924 0.918845 0.960962
0.998507 1 1.0002 0.998305
1.00071 1 1.00244 0.998267
1.00109 1 1.00266 0.998429
0.998465 1 1 0.998465
0.998584 1 1.00003 0.998556
0.998803 1 1 0.998803
0.9721 0.990538 0.982599 0.998765
0.986395 0.996561 0.990472 0.999321
1.00257 1 1.00438 0.998204
1.01972 1.00057 1.02069 0.998483
1.01322 1 1.01502 0.998225
1.00243 1 1.00419 0.998246
1.00177 1 1.00341 0.998361
0.966292 0.978242 0.989019 0.998751
1.04297 0.998446 1.04596 0.998687
1.00866 0.988556 1.02093 0.999423
1.00226 1 1.00377 0.998497
0.980599 0.967147 1.01527 0.998664
1.00796 0.982623 1.02634 0.999464
1.03255 0.996727 1.03718 0.998809
0.89551 0.945702 0.963218 0.983087
0.875306 0.927335 0.961395 0.981797
0.890055 0.94113 0.970281 0.974697
1.01208 0.996499 1.01602 0.999627
0.974902 0.967463 1.00902 0.998677
0.866269 0.925758 0.955458 0.979363
0.918589 0.928471 1.00926 0.980277
0.883711 0.938495 0.975173 0.965599
0.872975 0.942499 0.949023 0.975987
0.824018 0.931453 0.923243 0.958208
1.00294 0.982267 1.02127 0.999786
0.883838 0.941619 0.956167 0.981666
0.860483 0.9256 0.955217 0.973234
0.958099 0.955029 1.01036 0.992923
0.768513 0.888197 0.905663 0.955377
0.837106 0.899988 0.962503 0.966366
0.954766 0.953052 1.0255 0.976891
1.00101 0.966231 1.03682 0.999204
0.868536 0.925766 0.957382 0.979944
0.877524 0.940182 0.965267 0.96694
0.693645 0.809132 0.895655 0.957144
0.799394 0.886655 0.934509 0.964768
0.925567 0.939754 1.00881 0.976301
0.937183 0.950629 0.99516 0.99065
1.02713 0.992041 1.03589 0.999501
1.01137 0.985462 1.02672 0.999586
1.01337 0.990527 1.02354 0.999526
1.00957 1 1.01054 0.999032
1.02571 0.997377 1.02893 0.999487
1.01498 0.992186 1.02367 0.999321
1.0091 1 1.01029 0.998818
1.00578 1 1.00693 0.998857
1.00692 1 1.00881 0.998125
1.01541 1.00066 1.01779 0.997011
0.999606 1 1.00145 0.998163
1.00305 1.00105 1.00509 0.996926
1.00449 1.00243 1.00596 0.996113
1.00403 1.00604 1.00191 0.996104
1.00467 1.00675 1.00108 0.996865
1.00403 1.00568 1.00189 0.996482
0.99898 1.00092 1.00124 0.996828
1.00249 1.00389 1.0011 0.997512
1.00754 1.00974 1.00048 0.997339
1.00254 1 1.00464 0.997918
1.00436 1.00391 1.00274 0.997713
1.00605 1.00758 1.00117 0.997306
1.00364 1 1.00506 0.998594
1.00476 1 1.0065 0.998273
1.0031 1.00155 1.00355 0.998005
0.999485 1 1 0.999485
0.999607 1 1.00075 0.998862
1.00308 1 1.00461 0.998473
0.999021 1 1 0.999021
0.999586 1 1 0.999586
0.999987 1 1 0.999987
0.999653 1 1 0.999653
0.999992 1 1 0.999992
1 1 1 1
0.999995 1 1 0.999995
1 1 1 1
1 1 1 1
0.998981 1 1 0.998981
0.999614 1 1 0.999614
0.99903 1 1 0.99903
1 1 1 1
0.999661 1 1 0.999661
0.999164 1 1 0.999164
1 1 1 1
1 1 1 1
0.999714 1 1 0.999714
1 1 1 1
1 1 1 1
1 1 1 1
0.882357 0.941305 0.955594 0.980935
0.868947 0.926391 0.95732 0.979809
0.882382 0.938534 0.966573 0.972685
0.998831 1 1.00027 0.998559
0.99869 1 1.00027 0.99842
0.998724 1 1 0.998724
0.998623 1 1 0.998623
0.998527 1 1 0.998527
0.998522 1 1 0.998522
0.998451 1 1 0.998451
0.856577 0.929654 0.948834 0.97108
0.87387 0.944592 0.949734 0.974093
0.856885 0.924423 0.952547 0.973118
0.837379 0.950625 0.914773 0.962941
0.906457 0.942579 0.974327 0.987018
0.912987 0.933341 1.00152 0.97671
0.849051 0.90858 0.96628 0.967092
0.897963 0.938458 0.970003 0.986438
0.923404 0.935336 1.013 0.97457
0.889029 0.942062 0.976131 0.96678
0.806931 0.918251 0.913316 0.962174
0.915624 0.942364 0.982662 0.988768
0.93468 0.944422 1.0159 0.974193
0.843224 0.908721 0.961181 0.9654
0.782419 0.895612 0.912065 0.957842
1.00589 1 1.00742 0.998488
0.999011 1 1.0007 0.998312
1.0015 1 1.00326 0.998246
0.998457 1 1 0.998457
0.971973 0.977839 0.995144 0.998852
1.00904 0.985224 1.0248 0.999387
1.00161 1 1.00339 0.998221
1.00158 1 1.0032 0.998384
1.03583 0.99767 1.03947 0.998821
1.00163 1 1.00314 0.99849
1.0336 0.996149 1.03885 0.998796
0.977945 0.96556 1.01522 0.99764
1.00743 0.975921 1.0327 0.999595
1.01337 0.99502 1.01954 0.998921
0.964919 0.945223 1.0235 0.997395
1.02218 0.97967 1.04413 0.999296
0.875442 0.926948 0.962352 0.981381
0.892952 0.944839 0.960558 0.98389
0.875152 0.927208 0.960892 0.982272
0.996981 0.977801 1.01981 0.999805
0.964476 0.959984 1.00817 0.996539
0.883424 0.940918 0.955819 0.982295
0.952251 0.956138 1.02252 0.973997
0.841109 0.90452 0.962062 0.966564
0.85861 0.926378 0.952309 0.973262
0.764417 0.878638 0.910036 0.956008
1.0036 0.969053 1.03633 0.999346
0.868433 0.926909 0.956103 0.97993
0.87368 0.937681 0.963716 0.966825
0.939453 0.950148 0.99567 0.993044
0.690995 0.814883 0.889132 0.953703
0.807647 0.889578 0.940983 0.964842
0.924083 0.935381 1.01334 0.974917
0.998434 0.973702 1.02741 0.998047
0.879158 0.939995 0.961285 0.972948
0.760628 0.847984 0.93492 0.959422
0.767651 0.863103 0.918869 0.967937
0.906018 0.927273 1.0003 0.97679
0.909733 0.936729 0.98337 0.987605
1.0133 0.988939 1.02505 0.99959
1.01342 0.988023 1.0262 0.99952
0.992411 0.987336 1.0058 0.999344
1.01759 0.990772 1.02768 0.999402
1.00755 0.994999 1.01373 0.998899
1.00231 1.0008 1.00365 0.997874
1.00683 1 1.00886 0.997983
1.01428 1.0006 1.01678 0.996937
1.00875 1.0004 1.01222 0.996173
1.00467 1.00175 1.00604 0.996901
1.00489 1.00224 1.00664 0.996025
1.00237 1.00215 1.00445 0.995789
1.01258 1.01644 1 0.996205
1.00871 1.01163 1.00077 0.996348
1.00452 1.00632 1.00218 0.996049
1.00179 1.00453 1.00013 0.997145
1.00372 1.00606 1.00074 0.996928
1.00382 1.0055 1.0019 0.996434
0.99977 1.00112 1.00112 0.997542
1.00274 1.00417 1.00108 0.997495
1.00724 1.00941 1.00043 0.997426
1.00477 1 1.00654 0.998237
1.00256 1.00004 1.00455 0.997973
1.0048 1.00416 1.00288 0.997768
0.999665 1 1.00039 0.999273
1.00308 1 1.00449 0.998597
1.00397 1 1.00571 0.998273
0.999975 1 1 0.999975
0.999477 1 1 0.999477
0.999956 1 1.0011 0.99886
0.999581 1 1 0.999581
0.999984 1 1 0.999984
1 1 1 1
0.99999 1 1 0.99999
1 1 1 1
1 1 1 1
0.999528 1 1.00099 0.998543
0.998879 1 1 0.998879
0.999524 1 1 0.999524
0.998978 1 1 0.998978
0.999995 1 1 0.999995
0.999618 1 1 0.999618
0.999054 1 1 0.999054
1 1 1 1
1 1 1 1
0.9997 1 1 0.9997
1 1 1 1
1 1 1 1
1 1 1 1
0.861982 0.923714 0.95289 0.979304
0.881923 0.940627 0.955195 0.98157
0.869909 0.927747 0.957 0.979789
0.998747 1 1.00018 0.998571
0.999162 1 1.00075 0.998414
0.999086 1 1.00066 0.998427
0.998544 1 1.00012 0.998422
1.00244 1 1.00409 0.998357
0.998615 1 1 0.998615
0.998512 1 1 0.998512
0.998523 1 1 0.998523
0.998455 1 1 0.998455
1.00386 1 1.00537 0.998502
0.867485 0.929973 0.964759 0.966881
0.858695 0.930368 0.950408 0.971123
0.87529 0.943544 0.950601 0.975869
0.808654 0.920863 0.912545 0.962306
0.8846 0.93738 0.977043 0.965867
0.89057 0.933774 0.968035 0.985224
0.930483 0.942503 1.01091 0.976592
0.91397 0.945079 0.980688 0.986127
0.945332 0.953437 1.01527 0.976588
0.852124 0.912232 0.966528 0.966458
0.78119 0.8999 0.90719 0.956896
0.927373 0.94137 0.996971 0.988125
0.930993 0.941128 1.01237 0.977142
0.782533 0.86438 0.936332 0.96687
0.721464 0.845358 0.892175 0.956585
1.0069 1 1.0079 0.99901
1.00709 1 1.00862 0.998489
1.00019 1 1.00188 0.998319
0.979314 0.968433 1.0147 0.996585
1.01083 0.971516 1.04074 0.999733
1.00148 1 1.003 0.998483
1.03539 0.995586 1.04125 0.998782
1.01449 0.997295 1.01833 0.998929
1.02631 0.984695 1.04301 0.999285
0.969266 0.952532 1.02024 0.997381
1.019 0.995472 1.02431 0.999345
0.978513 0.965123 1.0164 0.997514
0.890311 0.941897 0.970129 0.974336
0.876316 0.927444 0.96234 0.98185
0.890576 0.943966 0.958106 0.984694
1.00735 0.974223 1.03455 0.999472
0.938488 0.950913 0.997656 0.989253
0.870483 0.928112 0.957136 0.97991
0.928203 0.944389 1.00896 0.974134
0.795505 0.871599 0.943789 0.967055
0.87105 0.935188 0.96348 0.966721
0.692404 0.823815 0.884531 0.950204
0.997954 0.972637 1.02786 0.998221
0.8812 0.939112 0.964445 0.972927
0.754627 0.843889 0.93317 0.958267
0.914395 0.942149 0.981428 0.988908
0.779452 0.870828 0.926185 0.966405
0.895697 0.928212 0.989709 0.975004
0.964959 0.965124 1.00298 0.996855
0.792961 0.863369 0.953401 0.96334
0.778918 0.8618 0.933503 0.96821
0.916534 0.947372 0.991795 0.975453
0.891344 0.932812 0.965589 0.989597
1.01279 0.986058 1.02761 0.999515
0.996761 0.986701 1.01089 0.999318
0.998326 0.997266 1.00254 0.998526
1.00596 0.989609 1.01757 0.998977
1.00185 1.00093 1.00296 0.997961
0.998724 1.00199 0.999623 0.997121
1.01274 1.00052 1.01539 0.996863
1.00708 1.00056 1.01037 0.996184
0.999283 1.00159 1.00137 0.996333
1.00484 1.00195 1.00698 0.995938
1.00254 1.00304 1.0037 0.995819
1.01208 1.01574 1 0.9964
1.02975 1.03317 1 0.996691
1.02052 1.02432 1.00002 0.99627
1.01235 1.01618 1 0.99623
1.00856 1.01197 1 0.996625
1.00711 1.00976 1.00107 0.996299
1.00511 1.0067 1.00244 0.995994
1.00143 1.00414 1 0.997305
1.00057 1.00334 1.00002 0.997218
1.00274 1.00544 1.00032 0.996992
1.00007 1.0001 1.00208 0.997892
1.00035 1.00148 1.0013 0.997576
1.00309 1.00453 1.0011 0.997478
1.00294 1 1.00404 0.998902
1.00432 1 1.00609 0.99824
1.00252 1.00004 1.00446 0.998028
0.999948 1 1 0.999948
1.00009 1 1.00082 0.999265
1.00259 1 1.004 0.9986
1 1 1 1
0.999969 1 1 0.999969
0.99947 1 1 0.99947
0.999981 1 1 0.999981
1 1 1 1
1 1 1 1
1.00063 1 1.00217 0.998464
0.998974 1 1.00021 0.998767
0.999585 1 1.00106 0.998528
0.999438 1 1 0.999438
0.998893 1 1.00002 0.998878
0.999981 1 1 0.999981
0.999527 1 1 0.999527
0.998975 1 1 0.998975
1 1 1 1
0.999997 1 1 0.999997
0.999621 1 1 0.999621
1 1 1 1
1 1 1 1
1 1 1 1
0.880346 0.939997 0.960888 0.974663
0.864172 0.925095 0.953901 0.979287
0.881813 0.939361 0.955743 0.982208
0.998611 1 1.00017 0.998442
0.998922 1 1.00034 0.998583
0.99926 1 1.00085 0.998408
0.998655 1 1.00023 0.998427
0.998904 1 1.00046 0.998446
1.0011 1 1.0027 0.998405
1.00712 1 1.00896 0.998178
1.0082 1 1.00986 0.998364
0.998525 1 1 0.998525
0.998459 1 1 0.998459
1.00358 1 1.0051 0.99849
1.01308 1 1.0144 0.9987
0.763406 0.850062 0.937001 0.958439
0.876196 0.937866 0.966417 0.966709
0.859924 0.930297 0.95181 0.971155
0.770872 0.89099 0.90294 0.958187
0.857234 0.919261 0.965618 0.965729
0.936288 0.945184 1.01677 0.974253
0.916954 0.940888 0.987557 0.986841
0.926071 0.939638 0.995456 0.99006
0.707528 0.835746 0.888097 0.953255
0.925166 0.93728 1.0126 0.97479
0.800391 0.883703 0.937951 0.965642
0.923412 0.944324 0.986917 0.990817
0.916775 0.936434 1.00097 0.978058
0.770293 0.86633 0.919793 0.966679
1.00012 1 1.00057 0.999548
1.00667 1 1.00766 0.999016
1.00751 1 1.00904 0.998489
0.965844 0.95018 1.01912 0.997412
1.03038 0.989716 1.04185 0.999273
1.01521 0.998764 1.01755 0.998937
1.01902 0.996892 1.02286 0.999344
0.976106 0.96457 1.01443 0.997561
0.995537 0.988428 1.0089 0.998307
0.815486 0.875176 0.967147 0.963448
0.887896 0.941107 0.966703 0.975956
0.875454 0.927399 0.960983 0.982315
0.998502 0.971132 1.02988 0.998349
0.905353 0.937872 0.975332 0.989742
0.880629 0.93819 0.964767 0.972926
0.900802 0.922259 1.00036 0.976379
0.788215 0.884724 0.923213 0.965016
0.754524 0.848248 0.927242 0.959306
0.966031 0.96366 1.00555 0.996924
0.786742 0.86197 0.946482 0.964336
0.784861 0.866015 0.937105 0.967117
0.894488 0.93387 0.970658 0.986782
0.90955 0.947036 0.982248 0.977774
0.955601 0.972678 0.983973 0.998445
0.805489 0.879716 0.946408 0.967472
0.935053 0.975284 0.979322 0.978993
0.907274 0.948109 0.969967 0.98656
1.00089 0.985787 1.01604 0.999295
0.990144 0.996563 0.994922 0.998629
0.993665 1.00216 0.993719 0.997789
1.00194 1.0011 1.0028 0.998047
1.00164 1.00242 1.00212 0.997106
1.00023 1.00364 0.999428 0.997174
1.00577 1.00076 1.00884 0.996194
0.999205 1.0012 1.00167 0.996345
1.01787 1.02103 0.99979 0.997112
1.00297 1.00395 1.00319 0.995848
1.01122 1.01486 1 0.99641
1.03004 1.03291 1 0.997222
1.03361 1.03646 1 0.997246
1.03236 1.03587 1 0.996611
1.02941 1.03279 1 0.996729
1.02092 1.02452 1 0.996484
1.01929 1.02305 1 0.996322
1.01186 1.01566 1 0.996254
1.01006 1.01311 1 0.996992
1.00855 1.0118 1.00014 0.996653
1.00554 1.00784 1.00148 0.996249
0.998965 1.00136 1 0.997607
1.00218 1.00489 1 0.997298
0.999356 1.00207 1 0.997291
1.00239 1 1.00389 0.998504
1.00052 1.00043 1.0022 0.997891
1.00087 1.00182 1.00145 0.997609
0.999946 1 1.00008 0.999865
1.00249 1 1.0036 0.998898
1.00355 1 1.00532 0.998243
1 1 1 1
0.999935 1 1 0.999935
1.00045 1 1.0012 0.999257
1 1 1 1
0.999963 1 1 0.999963
1 1 1 1
0.999144 1 1.00075 0.998393
1.00031 1 1.00185 0.998456
1.00048 1 1.00184 0.998642
0.999488 1 1.00014 0.999348
0.999156 1 1.00039 0.998766
0.999242 1 1.00073 0.998512
0.99996 1 1 0.99996
0.999441 1 1 0.999441
0.998876 1 1 0.998876
1 1 1 1
0.999986 1 1 0.999986
0.999531 1 1 0.999531
1 1 1 1
0.999999 1 1 0.999999
1 1 1 1
0.793751 0.861186 0.959317 0.960783
0.879714 0.939254 0.960954 0.974666
0.866926 0.926996 0.954996 0.979271
1.00007 1 1.00165 0.998423
1.00182 1.00058 1.00301 0.998238
1.00549 1 1.0072 0.998302
0.999168 1 1.00074 0.998432
0.998724 1 1.00026 0.998466
1.00103 1 1.00258 0.998453
1.00723 1 1.0089 0.998345
1.00665 1 1.00846 0.998201
1.00838 1 1.01031 0.998088
0.993341 1.00032 0.994033 0.998987
1.00259 1 1.00412 0.998478
1.01026 1 1.01161 0.998668
0.783764 0.86226 0.941364 0.965583
0.752474 0.840097 0.936268 0.956669
0.882631 0.942969 0.968377 0.966579
0.694978 0.824783 0.887105 0.949853
0.800781 0.882368 0.938542 0.966964
0.917123 0.934737 1.00431 0.976945
0.933623 0.946007 0.999236 0.987664
0.91687 0.940236 0.986191 0.988804
0.771632 0.859227 0.930002 0.965647
0.902102 0.928007 0.995694 0.976289
0.909359 0.945104 0.972122 0.989771
0.90308 0.947503 0.976653 0.975899
1.00536 1 1.00635 0.999021
0.99972 1 1.00023 0.999488
1.00642 1 1.00741 0.999022
0.975023 0.965322 1.01247 0.997605
1.01895 0.998269 1.02139 0.999344
0.995973 0.989217 1.00861 0.99823
0.986311 0.993688 0.995188 0.997375
0.810907 0.896475 0.932896 0.969616
0.817417 0.874536 0.969309 0.964281
0.888062 0.941666 0.964729 0.977555
0.967781 0.969059 1.00163 0.997057
0.895994 0.934475 0.971077 0.98738
0.787063 0.862901 0.945719 0.964465
0.902227 0.942027 0.981795 0.97551
0.793178 0.872154 0.939048 0.968478
0.959727 0.974573 0.987114 0.997622
0.813075 0.888917 0.944601 0.968325
0.933001 0.97637 0.97901 0.976069
0.913479 0.950418 0.971946 0.988876
0.964977 0.988016 0.978317 0.998328
0.938342 0.981648 0.977087 0.9783
0.943259 0.980256 0.97131 0.99068
0.980984 0.995033 0.987143 0.998721
0.99073 1.00256 0.990418 0.997763
0.98195 1.00736 0.977066 0.997653
1.00343 1.00278 1.00356 0.99709
0.999457 1.00365 0.998648 0.99717
1.02032 1.02868 0.99411 0.997755
0.998923 1.00071 1.00186 0.996358
1.01731 1.02099 0.999298 0.997096
1.0308 1.03627 0.996961 0.997757
1.01029 1.01392 1 0.996421
1.02943 1.0325 0.999814 0.997218
1.03456 1.03754 0.999431 0.997703
1.0312 1.0337 1 0.99758
1.03452 1.03731 1 0.997309
1.03373 1.03673 1 0.997104
1.03293 1.03637 1 0.996677
1.03263 1.03613 1 0.996622
1.0292 1.03253 1 0.996768
1.02053 1.02387 1 0.996743
1.02244 1.02601 1 0.996516
1.01814 1.02185 1 0.996373
1.00401 1.00669 1 0.997339
1.00942 1.01247 1 0.996987
1.0087 1.01188 1.00017 0.996681
0.99845 1 1.00022 0.998227
1.0002 1.0026 1 0.997605
1.00291 1.00564 1 0.997292
1.00043 1 1.00074 0.999684
1.00169 1 1.00319 0.998505
1.0012 1.00078 1.00254 0.997891
1 1 1 1
1.00036 1 1.00052 0.999842
1.00221 1 1.00332 0.998894
1 1 1 1
0.999922 1 1 0.999922
1 1 1 1
0.998311 1 1 0.998311
0.999782 1 1.00138 0.998402
1.00113 1 1.00261 0.99852
0.999928 1 1.00148 0.998449
1.00074 1 1.0021 0.998641
1.00013 1 1.0009 0.999228
0.999936 1 1 0.999936
0.999448 1 1.0001 0.999351
0.999571 1 1.00081 0.998764
1 1 1 1
0.999967 1 1 0.999967
0.999444 1 1 0.999444
1 1 1 1
0.999991 1 1 0.999991
1 1 1 1
0.814679 0.885289 0.950348 0.96832
0.796581 0.864679 0.958676 0.960955
0.878733 0.938507 0.960649 0.974663
1.00162 1 1.00323 0.998405
1.00699 1 1.00881 0.998188
1.00047 1.00031 1.00186 0.998305
0.999126 1.00121 1.0003 0.997623
1.00645 1.00021 1.00808 0.998177
1.0067 1 1.00838 0.998327
1.00528 1 1.00707 0.998224
1.01038 1.00006 1.0122 0.998143
0.99789 1 1 0.99789
0.985187 1.00065 0.985851 0.998679
0.98729 1.00035 0.989134 0.997785
0.994127 1.00016 0.994925 0.999035
1.00616 1 1.00754 0.998637
0.924057 0.96952 0.97518 0.977366
0.783678 0.85933 0.943709 0.966361
0.753006 0.842731 0.933675 0.957005
0.769749 0.860935 0.927412 0.964065
0.913572 0.937552 0.99888 0.975515
0.918953 0.935742 0.991052 0.990925
0.91127 0.94435 0.973492 0.991247
0.913653 0.949071 0.983684 0.978649
0.938059 0.975169 0.97133 0.990337
0.997296 1.00132 0.997761 0.998218
1.00493 1 1.00593 0.998999
0.999493 1 1.00006 0.999429
0.997264 0.991158 1.00799 0.998183
0.991232 0.997265 0.996487 0.997454
0.914429 0.969066 0.964565 0.978284
0.820427 0.894953 0.945385 0.969686
0.819234 0.872971 0.972342 0.965136
0.966348 0.978795 0.990496 0.996756
0.913607 0.950489 0.974141 0.986713
0.813043 0.885967 0.947997 0.96803
0.930693 0.970018 0.980501 0.97854
0.97219 0.987925 0.985657 0.998392
0.945764 0.989498 0.975948 0.979358
0.939849 0.977571 0.972676 0.98842
0.987876 1.00428 0.985854 0.997777
0.961896 0.99405 0.973943 0.993542
0.99127 1.00465 0.988908 0.997754
0.982456 1.00691 0.978054 0.997603
1.00165 1.03178 0.972839 0.9979
0.998962 1.00369 0.998123 0.997166
1.02076 1.02879 0.99445 0.997734
1.0302 1.04428 0.988471 0.998019
1.01678 1.02097 0.998805 0.99708
1.03027 1.03643 0.996318 0.997736
1.02777 1.03648 0.993643 0.99794
1.0288 1.03215 0.999537 0.997215
1.03463 1.03802 0.999052 0.997684
1.03249 1.03608 0.998764 0.997769
1.03184 1.03429 1 0.997632
1.03064 1.03335 0.999987 0.997394
1.03541 1.03814 1 0.997372
1.03365 1.03666 1 0.997096
1.03529 1.03847 1 0.996931
1.02939 1.03274 1 0.996748
1.03276 1.03621 1 0.996667
1.03286 1.03634 1 0.996634
1.01354 1.01646 1 0.997122
1.01977 1.02309 1 0.996758
1.02392 1.02746 1 0.996549
0.998904 1.00089 1 0.998019
1.00528 1.00796 1 0.997336
1.00869 1.01175 1 0.996982
1.00006 1 1.0006 0.999459
0.998771 1.00018 1.00037 0.998228
1.00149 1.0039 1 0.997602
1 1 1 1
1.00059 1 1.00093 0.999659
1.00095 1 1.00245 0.998506
1 1 1 1
1.00078 1 1.00096 0.999818
1 1 1 1
1.00134 1.00365 1 0.997699
0.998307 1 1 0.998304
0.999837 1 1.00149 0.998346
1.00053 1 1.00213 0.99841
1.00102 1 1.00252 0.998495
1.0006 1 1.00156 0.99904
1.00084 1 1.0022 0.99864
0.999801 1 1.00057 0.99923
0.999906 1 1 0.999906
1 1 1 1
0.999943 1 1 0.999943
0.999353 1 1 0.999353
1 1 1 1
0.999973 1 1 0.999973
1 1 1 1
0.93865 0.982907 0.974323 0.98014
0.811202 0.890132 0.940526 0.968955
0.804417 0.869578 0.963458 0.960151
1.0083 1 1.01025 0.998074
0.998989 1 1.00062 0.998373
1.00514 1.00014 1.00686 0.998157
1.00034 1.00215 1.00051 0.997678
1.00753 1.01021 1.00016 0.997182
0.998033 1.00019 1 0.997847
1.01273 1.00009 1.01446 0.998198
0.997808 1.00009 1 0.997714
0.989461 1.00066 0.990144 0.998655
0.996506 1.00073 0.997949 0.997827
0.984069 1.00303 0.983126 0.997938
0.99588 1.00129 0.997192 0.997399
0.987684 1.00082 0.988931 0.997922
0.997309 1.00002 0.998201 0.999083
0.939899 0.979231 0.969101 0.990437
0.927181 0.972371 0.975171 0.977804
0.783458 0.860774 0.940054 0.968219
0.922553 0.954409 0.990919 0.975481
0.914105 0.943307 0.97668 0.99218
0.942463 0.974397 0.9738 0.99325
0.990273 1.00377 0.988793 0.997738
0.995212 1.00067 0.99632 0.998219
1.00456 1 1.00559 0.998978
0.992512 0.999792 0.995193 0.997514
0.948809 0.975349 0.981992 0.990628
0.92958 0.975279 0.971568 0.981036
0.80893 0.888886 0.939712 0.968434
0.973814 0.985385 0.989794 0.998448
0.94193 0.980499 0.970367 0.990001
0.952202 0.988896 0.982158 0.980385
0.98082 1.00282 0.980215 0.997807
0.960498 0.990581 0.97664 0.992824
0.982487 1.02425 0.961456 0.997684
1.00204 1.0163 0.989045 0.996885
0.982243 1.00645 0.978343 0.997547
0.999929 1.03058 0.972311 0.997894
1.00645 1.04727 0.963005 0.997934
1.02152 1.02933 0.994695 0.997712
1.03 1.04413 0.988449 0.998002
1.02359 1.03942 0.986847 0.997889
1.02997 1.03669 0.995795 0.997715
1.02723 1.0358 0.993793 0.997922
1.0323 1.04052 0.994344 0.99774
1.03478 1.03846 0.99879 0.997664
1.03085 1.0345 0.998706 0.997762
1.03201 1.0351 0.999526 0.997489
1.03245 1.03485 1 0.997683
1.0309 1.03355 0.999996 0.997438
1.03411 1.03712 1 0.997097
1.03364 1.03666 1 0.997088
1.03524 1.03844 1 0.99692
1.03249 1.03571 1 0.996893
1.02084 1.02392 1 0.996996
1.02937 1.03272 1 0.996759
1.03254 1.03601 1 0.996656
1.00179 1.00397 1 0.997832
1.01325 1.01617 1 0.997124
1.01913 1.02243 1 0.996773
0.999264 1 1 0.999264
0.99967 1.00166 1 0.998017
1.00633 1.00903 1 0.997332
1 1 1 1
0.999847 1 1.0004 0.999443
0.999008 1.00033 1.00045 0.998228
1 1 1 1
1.00074 1 1.0011 0.999635
1 1 1 1
1.0077 1.01046 1 0.997277
1.00161 1.0039 1 0.997718
1.00158 1.00301 1.00063 0.997954
0.998312 1.00002 1 0.998296
0.99973 1 1.00142 0.998311
1.00058 1 1.00179 0.998786
1.00102 1 1.00256 0.99847
1.00045 1 1.0014 0.999042
0.999955 1 1.0001 0.999858
0.999605 1 1.00037 0.999232
0.999914 1 1 0.999914
1 1 1 1
1 1 1 1
0.999951 1 1 0.999951
1 1 1 1
0.940584 0.979325 0.969159 0.991004
0.932091 0.982497 0.970201 0.977834
0.803725 0.88352 0.938277 0.969528
1.01929 1.02237 1.00007 0.996922
1.00395 1.00013 1.00569 0.998137
1.00183 1.00336 1.00074 0.997733
0.99799 1.00017 1 0.997819
1.00733 1.00977 1.00042 0.997166
1.00179 1.00409 1 0.997708
0.997768 1.00023 1 0.997538
0.991866 1.00056 0.992667 0.998632
0.995099 1.00098 0.99627 0.997848
0.979341 1.0021 0.979378 0.997863
1.00099 1.00628 0.997541 0.997191
1.00125 1.00677 0.997119 0.99739
0.996678 1.00195 0.997372 0.997355
0.987625 1.00134 0.988226 0.998058
0.988984 1.00613 0.984696 0.99824
0.936211 0.978573 0.96706 0.989298
0.930385 0.974129 0.975929 0.978652
0.935489 0.969475 0.973435 0.991278
0.993391 1.00565 0.989488 0.998307
0.995345 1.0002 0.996925 0.998216
0.989377 1.00668 0.986035 0.996729
0.936101 0.963041 0.979838 0.992027
0.916853 0.972216 0.963878 0.978397
0.975628 1.00103 0.976735 0.997836
0.966745 0.992352 0.98217 0.991881
0.985425 1.02527 0.963288 0.997763
1.00174 1.0157 0.989133 0.997095
0.996367 1.03674 0.963209 0.997762
1.0385 1.04681 0.99442 0.997628
0.99756 1.02876 0.971728 0.997888
1.00966 1.04867 0.964809 0.997924
1.01321 1.0485 0.968524 0.997748
1.0291 1.0434 0.988287 0.997984
1.02259 1.03877 0.986513 0.997886
1.03084 1.0451 0.988706 0.997627
1.02644 1.03503 0.993778 0.997904
1.03137 1.03964 0.994279 0.997753
1.03493 1.03982 0.997851 0.997436
1.02924 1.03297 0.998628 0.997755
1.03255 1.03558 0.999585 0.997488
1.03615 1.03909 1 0.99717
1.03112 1.03373 1 0.997482
1.0343 1.03728 1 0.997134
1.03448 1.03768 1 0.996919
1.03516 1.03837 1 0.99691
1.03225 1.03549 1 0.996873
1.02409 1.02716 1 0.997004
1.00572 1.00803 1 0.99771
1.02021 1.02326 1 0.997017
1.02933 1.03267 1 0.99677
0.99912 1 1 0.99912
1.003 1.00518 1 0.997831
1.01306 1.01598 1 0.997126
1 1 1 1
0.999251 1 1 0.999251
1.00051 1.0025 1 0.998016
1 1 1 1
0.99965 1 1.00022 0.999426
1 1 1 1
1.01589 1.019 1 0.996955
1.00852 1.01127 1 0.997279
1.00632 1.00875 1 0.997583
1.00168 1.00394 1.00001 0.997738
1.00043 1.00193 1.00056 0.997952
1.00016 1.0002 1.00146 0.998499
0.999561 1 1.00129 0.998276
1.00117 1 1.00238 0.998787
1.00059 1 1.00082 0.999767
0.999976 1 1.00093 0.999043
0.999868 1 1 0.999868
1 1 1 1
0.999922 1 1 0.999922
1 1 1 1
1 1 1 1
0.986078 1.01057 0.977622 0.998104
0.934994 0.97627 0.968539 0.988831
0.927787 0.972468 0.973041 0.980487
1.01395 1.01672 1.00001 0.997266
1.02713 1.03031 1 0.996905
1.01707 1.02002 1.00013 0.99698
0.997884 1.00009 1 0.997789
1.00687 1.009 1.00073 0.997149
1.00277 1.00556 0.999558 0.997669
1.01553 1.01904 0.999396 0.99716
0.994246 1.00123 0.995143 0.997869
0.975905 1.0012 0.976894 0.997788
1.00219 1.00794 0.99702 0.997266
1.01842 1.02436 0.997222 0.996972
1.00972 1.02327 0.989083 0.997658
1.00311 1.00829 0.9975 0.997359
0.99788 1.00262 0.997952 0.99731
0.993077 1.00815 0.986598 0.998432
0.939754 0.980067 0.970477 0.988038
0.99363 1.0064 0.988406 0.998895
1.02006 1.03566 0.986668 0.998245
0.988839 1.00539 0.986654 0.99684
0.940006 0.972525 0.976332 0.989995
0.988766 1.02667 0.965167 0.997837
1.00143 1.01545 0.988843 0.997316
0.995894 1.03732 0.962112 0.99787
1.03867 1.04823 0.993226 0.99764
1.03354 1.0554 0.981609 0.997632
1.05897 1.07013 0.991802 0.997758
1.01332 1.05091 0.966245 0.997914
1.01756 1.04889 0.972323 0.99775
1.03409 1.05336 0.984143 0.99753
1.02198 1.0383 0.986366 0.997882
1.03073 1.0444 0.989259 0.997625
1.03607 1.04536 0.993694 0.997401
1.03047 1.03875 0.994255 0.997766
1.03539 1.04023 0.997912 0.997433
1.0392 1.04238 0.999787 0.99716
1.03303 1.036 0.999646 0.997486
1.03622 1.03916 1 0.99717
1.03757 1.04077 1 0.996917
1.03451 1.03745 1 0.99717
1.03413 1.03732 1 0.996931
1.02634 1.02946 1 0.99697
1.03204 1.0353 1 0.996853
1.02398 1.02707 1 0.996997
1.00787 1.01025 1 0.997641
0.999052 1 1 0.999052
1.00635 1.00866 1 0.997709
1.01962 1.02265 1 0.997038
1 1 1 1
0.999109 1 1 0.999109
1.00418 1.00636 1 0.99783
1 1 1 1
0.999238 1 1 0.999238
1 1 1 1
1.02399 1.02725 1 0.996825
1.01632 1.01944 1 0.996937
1.01092 1.01368 1 0.997276
1.00928 1.01203 1 0.997281
1.00482 1.00725 1 0.99759
0.999958 1.00141 1.00033 0.998218
0.999169 1.00076 1.00046 0.997949
1.00062 1.00005 1.00207 0.998501
1.00035 1 1.00075 0.999597
1.00201 1 1.00322 0.998787
1.00028 1 1.00049 0.999782
1 1 1 1
0.999878 1 1 0.999878
1 1 1 1
1 1 1 1
1.00822 1.03317 0.97766 0.998148
0.983649 1.00952 0.976824 0.997491
0.934259 0.977988 0.965362 0.989564
1.02534 1.02837 1 0.997052
1.01492 1.01752 1 0.997449
1.04199 1.0452 1 0.996921
1.02781 1.03102 1 0.99689
1.01515 1.01799 1.00018 0.997039
1.0357 1.03934 0.999594 0.996896
1.00359 1.00712 0.998852 0.997632
1.01422 1.01759 0.999582 0.997098
1.03719 1.04997 0.990644 0.997152
1.00262 1.00955 0.995787 0.99734
1.01899 1.02502 0.997186 0.996927
1.0105 1.02423 0.988888 0.997687
1.00352 1.00861 0.997626 0.997326
0.997432 1.01005 0.988874 0.998616
1.04638 1.06307 0.98646 0.997813
1.02027 1.03549 0.987025 0.998259
0.98783 1.00409 0.986821 0.996945
0.996121 1.03728 0.962264 0.997976
1.03801 1.04875 0.99209 0.997653
1.02989 1.05483 0.978648 0.997652
1.05946 1.07172 0.990783 0.997754
1.04993 1.06529 0.987903 0.997649
1.02139 1.04892 0.975955 0.997752
1.03458 1.05278 0.985139 0.997539
1.03739 1.0509 0.989695 0.997421
1.03052 1.04367 0.98975 0.997623
1.03572 1.04493 0.993786 0.997382
1.04081 1.04569 0.998189 0.997138
1.03592 1.0407 0.997977 0.99743
1.03933 1.04249 0.999811 0.997158
1.04098 1.04422 1 0.996898
1.03631 1.03925 1 0.99717
1.03736 1.04057 1 0.99692
1.02935 1.03255 1 0.996907
1.03379 1.03696 1 0.996943
1.02651 1.02963 1 0.996974
1.0088 1.01126 1 0.997566
1.02383 1.02692 1 0.99699
1.00807 1.01046 1 0.997639
0.999198 1 1 0.999198
0.999712 1 1 0.999712
0.999117 1 1 0.999117
1.00695 1.00926 1 0.997708
1 1 1 1
0.999097 1 1 0.999097
1 1 1 1
1.04901 1.05217 1 0.996994
1.03382 1.03706 1 0.996881
1.02479 1.02806 1 0.996822
1.01639 1.01934 1 0.997112
1.01695 1.02009 1 0.99692
1.01093 1.01369 1 0.997277
1.00229 1.00432 1 0.997984
1.00338 1.00579 1 0.997597
0.999605 1.00093 1.00046 0.998221
0.999484 1 1.00011 0.999369
1.00122 1 1.00272 0.998503
1.00038 1 1.00076 0.999617
1 1 1 1
0.999875 1 1.00008 0.999798
1 1 1 1
1 1 1 1
1.04192 1.06157 0.983888 0.997564
1.01241 1.03773 0.977342 0.998215
0.981656 1.00962 0.975342 0.996886
1.03953 1.04274 1 0.996922
1.02388 1.02685 1 0.997109
1.01551 1.01792 1 0.997629
1.0408 1.04399 1 0.996939
1.02845 1.03168 1 0.996875
1.04504 1.05554 0.9929 0.997132
1.03219 1.03585 0.999604 0.996855
1.0131 1.01611 1 0.997035
1.03627 1.04902 0.990679 0.997147
1.02175 1.02745 0.997557 0.996882
1.0142 1.02859 0.988255 0.997721
1.0496 1.0643 0.988421 0.997746
1.04865 1.06455 0.987197 0.99784
1.02045 1.03547 0.987199 0.998274
1.02746 1.05526 0.975923 0.99767
1.06074 1.07403 0.989852 0.997751
1.04993 1.06631 0.986953 0.997658
1.04237 1.05293 0.992448 0.997506
1.03498 1.0521 0.986151 0.997548
1.03747 1.05047 0.990184 0.997409
1.04253 1.04937 0.996298 0.997168
1.03537 1.0445 0.993876 0.997363
1.04131 1.04617 0.998212 0.997138
1.04376 1.04703 1 0.996879
1.03945 1.04259 0.999836 0.997155
1.04106 1.04429 1 0.996899
1.03202 1.03529 1 0.996837
1.03718 1.04038 1 0.996923
1.02964 1.03283 1 0.99691
1.00981 1.01237 1 0.997467
1.0267 1.02981 1 0.996978
1.00906 1.01153 1 0.997565
0.999205 1 1 0.999205
1.00829 1.01068 1 0.997637
0.999193 1 1 0.999193
0.999731 1 1 0.999731
0.999862 1 1 0.999862
0.999187 1 1 0.999187
1 1 1 1
1.04468 1.04787 1 0.996955
1.0396 1.04279 1 0.996933
1.04808 1.05112 1 0.997111
1.02536 1.02843 1 0.997018
1.03579 1.03904 1 0.996869
1.02565 1.02892 1 0.996819
1.01722 1.02018 1 0.997107
1.00651 1.00873 1 0.997799
1.01104 1.0138 1 0.997278
1.00134 1.00336 1 0.997985
0.999178 1 1 0.999178
0.99916 1.00042 1.00052 0.998224
0.999703 1 1.00032 0.999388
1 1 1 1
1.00041 1 1.00077 0.999637
1 1 1 1
1 1 1 1
1.04312 1.05927 0.987269 0.997453
1.04061 1.0601 0.984021 0.997559
1.015 1.04008 0.977574 0.998275
1.04603 1.05155 0.997697 0.997043
1.03775 1.04095 1 0.996923
1.02261 1.02552 1 0.997167
1.03942 1.04259 1 0.996957
1.04375 1.0543 0.992863 0.997108
1.02851 1.03219 0.999616 0.996814
1.03213 1.04468 0.990822 0.997141
1.04453 1.05595 0.991589 0.997568
1.04857 1.06305 0.988647 0.997707
1.05076 1.06579 0.988008 0.997867
1.0413 1.0495 0.994776 0.9974
1.04963 1.06705 0.98597 0.997667
1.04216 1.05298 0.992217 0.997492
1.04408 1.05122 0.99593 0.997266
1.03763 1.05008 0.990719 0.997398
1.04255 1.04943 0.996268 0.99717
1.04486 1.04824 0.999894 0.99688
1.04177 1.0466 0.998238 0.997137
1.04385 1.04712 0.999999 0.99688
1.03329 1.03663 1 0.996785
1.04103 1.04427 1 0.9969
1.03229 1.03556 1 0.996839
1.01059 1.01326 1 0.99737
1.0299 1.03309 1 0.996913
1.01004 1.01261 1 0.997467
0.99918 1 1 0.99918
1.00933 1.01179 1 0.997563
0.999196 1 1 0.999196
0.999735 1 1 0.999735
0.999191 1 1 0.999191
0.999736 1 1 0.999736
1 1 1 1
1.04499 1.04859 0.999709 0.996857
1.04094 1.04424 1 0.996849
1.0462 1.04939 1 0.996959
1.0309 1.03397 1 0.99703
1.04054 1.04371 1 0.996956
1.04733 1.05024 1 0.997227
1.00988 1.01227 1 0.997643
1.02539 1.02846 1 0.99701
1.03788 1.04115 1 0.996858
1.0179 1.02086 1 0.997102
1.00518 1.00739 1 0.9978
0.99907 1 1 0.99907
1.00027 1.00229 1 0.997986
0.999191 1 1 0.999191
1 1 1 1
0.999916 1 1.00051 0.999407
1 1 1 1
1 1 1 1
1.04289 1.05263 0.993412 0.997316
1.04322 1.0597 0.986976 0.997437
1.04092 1.06043 0.984008 0.997554
1.04494 1.05072 0.997434 0.997059
1.03577 1.03896 1 0.996924
1.04316 1.05378 0.992819 0.997084
1.04209 1.0511 0.994008 0.997402
1.04494 1.05605 0.991899 0.997561
1.04757 1.06191 0.988803 0.997668
1.04183 1.04991 0.994868 0.99742
1.04502 1.05103 0.997067 0.997207
1.04193 1.05304 0.991948 0.997479
1.04424 1.05111 0.996223 0.997225
1.04476 1.04879 0.999188 0.996962
1.04254 1.04945 0.996236 0.997172
1.04526 1.04869 0.999849 0.996883
1.03322 1.03659 1 0.996751
1.04414 1.0474 1 0.996882
1.0337 1.03703 1 0.996787
1.01077 1.01351 1 0.9973
1.03271 1.03598 1 0.996841
1.01068 1.01334 1 0.99737
0.999126 1 1 0.999126
1.01029 1.01286 1 0.997466
0.999165 1 1 0.999165
0.999716 1 1 0.999716
0.999189 1 1 0.999189
0.999749 1 1 0.999749
0.999738 1 1 0.999738
1.04538 1.05008 0.998424 0.997102
1.0433 1.04672 1 0.996739
1.04578 1.04974 0.999338 0.996883
1.03296 1.03614 1 0.996926
1.04021 1.04351 1 0.996841
1.04764 1.05083 1 0.996963
1.01095 1.01345 1 0.997534
1.03085 1.03396 1 0.996991
1.04133 1.04448 1 0.99698
0.999032 1 1 0.999032
1.00915 1.01153 1 0.997646
1.02552 1.0286 1 0.997002
1.00391 1.00612 1 0.997802
0.999081 1 1 0.999081
1 1 1 1
0.999205 1 1 0.999205
1 1 1 1
1 1 1 1
1.04039 1.04836 0.995085 0.997297
1.04256 1.05235 0.993372 0.997309
1.04302 1.05976 0.986746 0.997421
1.04385 1.04988 0.997175 0.997074
1.04439 1.0494 0.998054 0.997166
1.04258 1.05133 0.994252 0.997412
1.0454 1.05612 0.992285 0.997554
1.04239 1.05034 0.994982 0.997441
1.04478 1.05088 0.99697 0.997218
1.04506 1.04911 0.999177 0.996961
1.04447 1.05106 0.996541 0.997183
1.04512 1.04895 0.999424 0.996921
1.03271 1.03606 1 0.996774
1.04561 1.04908 0.999803 0.996886
1.03334 1.03671 1 0.996753
1.01025 1.01304 1 0.997244
1.03386 1.03719 1 0.996788
1.01059 1.01333 1 0.9973
0.998922 1 1 0.998922
1.0107 1.01337 1 0.99737
0.999043 1 1 0.999043
1 1 1 1
0.999152 1 1 0.999152
0.999735 1 1 0.999735
0.999757 1 1 0.999757
1.04278 1.04761 0.998195 0.99719
1.04388 1.04718 1 0.996851
1.04541 1.04989 0.998633 0.997093
1.03403 1.03739 1 0.996766
1.04279 1.04618 1 0.996759
1.04663 1.05097 0.998956 0.99691
1.0114 1.01409 1 0.997349
1.03314 1.03633 1 0.996926
1.03953 1.04283 1 0.996834
0.999024 1 1 0.999024
1.01085 1.01339 1 0.99749
1.03078 1.03393 1 0.996952
1 1 1 1
0.999042 1 1 0.999042
1.00837 1.01075 1 0.997649
0.999092 1 1 0.999092
1 1 1 1
1 1 1 1
1.04291 1.04774 0.998202 0.997182
1.04085 1.04876 0.995138 0.997303
1.04214 1.05204 0.993272 0.997302
1.0451 1.0486 0.999766 0.996898
1.0437 1.04903 0.997729 0.99718
1.04305 1.05154 0.994483 0.997423
1.0445 1.05073 0.99684 0.997229
1.04482 1.04895 0.999094 0.996962
1.03147 1.03474 1 0.996837
1.0454 1.04904 0.999642 0.996879
1.03254 1.03587 1 0.996785
1.00972 1.01262 1 0.997135
1.03358 1.03695 1 0.996755
1.01013 1.01292 1 0.997245
0.998876 1 1 0.998876
1.0105 1.01324 1 0.997301
0.998919 1 1 0.998919
1 1 1 1
0.998946 1 1 0.998946
0.99985 1 1 0.99985
0.999751 1 1 0.999751
1.04286 1.047 0.998909 0.99714
1.04448 1.04772 1 0.996911
1.04316 1.0479 0.998283 0.997197
1.03429 1.03764 1 0.996765
1.04427 1.04759 1 0.996836
1.04547 1.04973 0.99886 0.997085
1.01142 1.01421 1 0.997252
1.03394 1.03726 1 0.996799
1.04225 1.04562 1 0.996779
0.999 1 1 0.999
1.01136 1.01406 1 0.997336
1.03333 1.03652 1 0.996925
1 1 1 1
0.999034 1 1 0.999034
1.01078 1.01337 1 0.997446
1 1 1 1
0.999053 1 1 0.999053
1 1 1 1
1.04544 1.04895 0.999699 0.996948
1.04226 1.04703 0.998273 0.997167
1.04129 1.04913 0.995205 0.99731
1.03121 1.03449 1 0.996831
1.04479 1.04853 0.999517 0.996921
1.04301 1.04867 0.997403 0.997193
1.0446 1.04879 0.999035 0.996963
1.03154 1.03481 1 0.996837
1.00905 1.01197 1 0.997113
1.03239 1.03571 1 0.996795
1.00967 1.01254 1 0.997165
0.998821 1 1 0.998821
1.00995 1.01274 1 0.997246
0.998873 1 1 0.998873
1 1 1 1
0.998916 1 1 0.998916
1 1 1 1
0.999727 1 1 0.999727
1.04611 1.04932 1 0.996933
1.04222 1.0467 0.99855 0.997164
1.03385 1.03718 1 0.996793
1.04465 1.04789 1 0.99691
1.04362 1.04827 0.998356 0.997204
1.01067 1.01342 1 0.99728
1.03388 1.03724 1 0.996762
1.04463 1.04797 1 0.996821
0.998948 1 1 0.998948
1.01159 1.01435 1 0.997279
1.03382 1.03711 1 0.996831
1 1 1 1
0.999006 1 1 0.999006
1.01132 1.01403 1 0.997322
1 1 1 1
0.999042 1 1 0.999042
1 1 1 1
1.03185 1.0351 1 0.996862
1.04539 1.0488 0.99981 0.996935
1.0416 1.04633 0.998325 0.997151
1.008 1.01091 1 0.997123
1.03121 1.03449 1 0.996831
1.04448 1.04846 0.999262 0.996943
1.03161 1.03488 1 0.996837
1.00908 1.012 1 0.997113
0.998786 1 1 0.998786
1.00965 1.01249 1 0.997196
0.998818 1 1 0.998818
1 1 1 1
0.998871 1 1 0.998871
1 1 1 1
1 1 1 1
1.03339 1.0367 1 0.996805
1.04563 1.049 0.999819 0.996968
1.0415 1.04629 0.998226 0.997188
1.00975 1.01252 1 0.997269
1.03349 1.03682 1 0.99679
1.04476 1.048 1 0.996908
0.998897 1 1 0.998897
1.01099 1.01375 1 0.997278
1.03351 1.03687 1 0.996758
1 1 1 1
0.998952 1 1 0.998952
1.01176 1.0145 1 0.997307
1 1 1 1
0.999012 1 1 0.999012
1 1 1 1
1.0079 1.01072 1 0.997206
1.03169 1.03498 1 0.99683
1.04536 1.04864 0.999947 0.996921
0.998796 1 1 0.998796
1.00809 1.011 1 0.99712
1.03122 1.0345 1 0.996831
1.00911 1.01203 1 0.997113
0.998786 1 1 0.998786
1 1 1 1
0.998815 1 1 0.998815
1 1 1 1
1 1 1 1
1.00869 1.01148 1 0.997245
1.03298 1.03628 1 0.996817
1.0452 1.04874 0.999617 0.997004
0.999045 1 1 0.999045
1.01005 1.01282 1 0.997268
1.03314 1.03647 1 0.996787
1 1 1 1
0.998898 1 1 0.998898
1.01129 1.01406 1 0.997276
1 1 1 1
0.998955 1 1 0.998955
1 1 1 1
0.99879 1 1 0.99879
1.00809 1.01094 1 0.997178
1.03155 1.03486 1 0.996797
1 1 1 1
0.998795 1 1 0.998795
1.00818 1.01109 1 0.997118
0.998784 1 1 0.998784
1 1 1 1
1 1 1 1
0.999002 1 1 0.999002
1.00903 1.01182 1 0.997245
1.03253 1.03582 1 0.996829
1 1 1 1
0.998865 1 1 0.998865
1.01036 1.01313 1 0.997266
1 1 1 1
0.9989 1 1 0.9989
1 1 1 1
0.999661 1 1 0.999661
0.998902 1 1 0.998902
1.00827 1.01115 1 0.997149
1 1 1 1
0.998796 1 1 0.998796
1 1 1 1
0.999677 1 1 0.999677
0.998924 1 1 0.998924
1.00939 1.01218 1 0.997245
0.999839 1 1 0.999839
0.998865 1 1 0.998865
1 1 1 1
1 1 1 1
0.998819 1 1 0.998819
1 1 1 1
0.999836 1 1 0.999836
0.998842 1 1 0.998842
1 1 1 1
1 1 1 1
1 1 1 1

VECTORS lamdaE float
1.00101 1.00014 0.99406
1.00064 1.00065 0.997134
1.0006 1.00035 0.994329
1.00117 1.00002 0.993958
1.0011 0.999973 0.994122
1.00095 1.00037 0.993892
1.00236 1.00046 0.991101
1.00065 1.00056 0.997139
1.00062 1.00017 0.997524
1.00012 1.00087 0.997567
1.00059 1.00062 0.994101
1.00204 1.0013 0.990005
1.00084 0.999978 0.994324
1.00058 0.999999 0.994506
1.00022 1.00057 0.99457
1.00086 0.999998 0.994264
1.00049 1.00073 0.994136
1.00075 1.00003 0.994403
1.00257 1.00027 0.990981
1.00084 1.00002 0.997164
1.00112 1.00007 0.993953
1.00116 0.999948 0.994057
1.00252 1.0001 0.991186
1.00249 1.00015 0.991199
1.00093 1.00047 0.99378
1.00213 1.00101 0.990914
1.00494 1.00053 0.986603
1.00066 1.00053 0.99716
1.00081 1.00006 0.995817
1.00041 1.00062 0.995843
1.00061 1.00052 0.997209
1.00194 1.00143 0.990011
1.00111 0.999823 0.994037
1.00083 1.00027 0.994141
1.00281 1.00007 0.991456
0.999884 1.00064 0.997814
1.00245 1.00079 0.991431
1.00177 1.00172 0.990004
1.00422 1.00151 0.986084
0.999985 0.999223 0.998217
1.00087 0.999988 0.997148
1.00079 1.00001 0.995803
1.0008 0.999976 0.997191
1.00046 1.00003 0.994665
1.00253 0.999943 0.990556
1.00074 0.999962 0.99745
1.00284 1.00005 0.991445
1.00056 0.999933 0.99457
1.00043 1.00007 0.994671
1.00003 1.00113 0.994362
1.00276 1.00009 0.990876
1.00067 1.00004 0.995898
1.0008 1.00009 0.994264
1.00043 1.00093 0.993999
1.00085 0.999926 0.994352
1.00266 1.00007 0.991043
1.00239 1.00074 0.9908
1.00265 1.00004 0.991075
1.00491 1.00055 0.986612
1.00076 1.00001 0.997195
1.00102 1.00007 0.994095
1.00228 1.00001 0.99221
1.00245 1.00013 0.991262
1.00254 1.00006 0.991198
1.00486 1.00017 0.986985
1.00494 1.00018 0.986773
1.00077 1.00038 0.994036
1.00161 1.00192 0.990802
1.00484 1.00084 0.986478
1.00527 1.0003 0.985499
1.00105 1.00009 0.997107
1.00053 1.00043 0.997329
1.00071 1.00048 0.997135
1.00189 1.00149 0.990012
1.00115 0.999955 0.997052
1.00092 1.00028 0.997131
1.00268 1.00003 0.990102
1.00011 1.00045 0.996213
1.00221 1.00085 0.990092
1.00166 1.00195 0.990802
1.00431 1.00136 0.98608
1.00025 0.999869 0.997771
1.00004 1.00155 0.993165
1.00286 0.999941 0.98994
1.00263 1.00024 0.990081
1.00499 1.00021 0.986112
1.00114 1.00238 0.992068
1.00462 1.00079 0.98612
1.0035 1.00267 0.986237
1.00515 1.00128 0.98464
0.999849 0.998428 0.998604
0.999851 0.999036 0.99838
1.00107 0.999987 0.997043
1.00091 0.999987 0.997133
1.00083 0.999982 0.99719
1.0007 0.999994 0.995904
1.00257 0.999934 0.991229
1.00091 0.999969 0.995743
1.00278 1.00007 0.99078
1.00081 0.999991 0.9972
1.00239 0.999866 0.990815
1.00274 1.00003 0.991652
1.00486 0.999465 0.987161
1.00287 0.999985 0.991407
1.00497 0.999765 0.986674
1.00081 1.00001 0.994367
1.00047 1.00009 0.994579
0.999929 1.00143 0.994218
1.00055 0.999878 0.994643
1.00279 1.00007 0.9909
1.00281 0.999955 0.990958
1.00265 1.00043 0.990694
1.00488 1.00056 0.986621
1.00082 0.999992 0.997196
1.0007 1.00007 0.994404
1.00245 0.999977 0.991075
1.00258 1.00011 0.991111
1.00051 1.00081 0.995593
1.00198 1.00168 0.990905
1.00268 1.00001 0.991067
1.00488 1.00009 0.987043
1.00479 1.00087 0.98649
1.00493 1.0003 0.986738
1.00527 1.00029 0.985529
1.00238 0.999923 0.990815
1.00235 1.00006 0.991456
1.00473 0.999415 0.987901
1.00481 0.999851 0.987312
1.0049 1.00004 0.986954
1.00528 0.999143 0.986917
1.00017 1.00058 0.997546
1.00527 0.999829 0.985972
1.00119 1.00272 0.989858
1.00439 1.00126 0.986036
1.00526 1.00082 0.985039
1.00521 0.998992 0.986798
1.00042 1.00286 0.991167
1.0011 1.00512 0.987666
1.00115 0.999981 0.997069
1.00088 1.0003 0.997128
1.00269 1.00002 0.990096
1.00025 1.00017 0.99767
1.0013 1.00235 0.990138
1.00219 1.00086 0.990106
1.00439 1.00121 0.986076
1.00008 0.999764 0.99794
0.999934 1.00171 0.993202
1.00288 0.999978 0.990675
1.00263 1.00028 0.990772
1.00498 1.00022 0.986092
1.0008 1.00257 0.990818
1.00465 1.00075 0.98611
1.00357 1.00247 0.986245
1.0052 1.00119 0.984719
1.00026 1.0024 0.991894
0.999987 1.00063 0.994256
1.00114 1.00457 0.988728
1.00503 1.00007 0.98621
1.00487 1.00041 0.98609
1.00531 0.999723 0.986065
1.00261 1.00355 0.986862
1.00526 1.00059 0.985267
1.00486 1.00175 0.984745
1.00522 1.00081 0.984986
0.999842 0.997919 0.998845
0.999803 0.998337 0.998704
0.999755 0.998856 0.998519
1.00014 1.00246 0.992007
0.999994 1.00018 0.99783
1.00116 0.999965 0.997034
1.00097 0.99999 0.997085
1.00265 1.00009 0.990157
1.00246 0.999934 0.990624
1.00081 0.999981 0.997183
1.00078 0.999985 0.997198
1.00238 0.999879 0.99081
1.00265 1.00002 0.990998
1.00484 0.999466 0.987166
1.00275 1.00002 0.990015
1.00495 0.999772 0.986668
1.00235 0.999885 0.990856
1.00481 0.999381 0.98732
1.00491 0.999597 0.986941
1.00533 0.997717 0.988253
1.00502 0.999931 0.986404
1.0053 0.998315 0.987656
1.00079 0.999991 0.997192
1.00036 1.00011 0.994714
1.00247 0.999975 0.990071
1.00272 1.00011 0.990957
0.999872 1.00133 0.997526
1.00244 1.00127 0.991011
1.00282 0.999979 0.990937
1.00489 0.999981 0.987101
1.00492 1.00041 0.986703
1.00474 1.00093 0.986501
1.00527 1.00028 0.985559
1.00236 0.999914 0.990816
1.00249 1.00007 0.991301
1.00476 0.999401 0.987604
1.00483 0.999962 0.987229
1.00031 1.00062 0.997442
1.00141 1.00248 0.990656
1.00424 1.0016 0.986275
1.00491 1.00009 0.986918
1.00528 0.998867 0.987164
1.00526 1.00076 0.985097
1.00527 0.999909 0.985999
1.00521 0.999001 0.986821
1.00051 1.00276 0.991147
1.00126 1.00502 0.987666
1.00477 0.999463 0.987303
1.00477 0.999663 0.987629
1.00528 0.99817 0.987924
1.00527 0.998269 0.987759
1.00528 0.99925 0.986705
1.00524 0.997017 0.988947
1.00077 1.003 0.990393
1.00522 0.998117 0.987694
1.00366 1.0022 0.986234
1.00524 1.00123 0.984552
1.00521 1.00012 0.985815
1.00519 0.997416 0.988522
1.00209 1.00437 0.986895
1.00072 1.00493 0.988639
1.00251 1.00447 0.98633
1.00277 0.999966 0.990027
0.999902 0.999621 0.998121
0.999854 1.00175 0.993237
1.00248 1.00032 0.990137
1.00498 1.00022 0.986072
1.00074 1.0027 0.990778
1.0036 1.00225 0.986252
1.00469 1.00072 0.9861
1.00522 1.00111 0.984798
1.00023 1.00249 0.991903
0.999961 1.00052 0.994302
1.00083 1.00469 0.988711
1.00502 1.00009 0.98619
1.00488 1.0004 0.986076
1.00531 0.999733 0.986041
1.00269 1.00337 0.986863
1.00527 1.00065 0.985203
1.0049 1.00169 0.984728
1.00522 1.00064 0.985105
1.00001 0.999805 0.995011
1.00182 1.00428 0.987653
1.00064 1.00373 0.99013
1.00177 1.00454 0.987422
1.00531 0.999227 0.986604
1.0053 1.00021 0.985565
1.00525 0.998369 0.987384
1.00426 1.00208 0.985434
1.00523 0.999704 0.986223
1.00508 1.00138 0.984802
1.00518 1.00011 0.985726
1.00023 1.00122 0.993242
1.00023 0.998793 0.995613
0.999891 0.997566 0.998969
0.999826 0.997845 0.998896
0.999776 0.998205 0.998787
1.00004 1.00168 0.99298
0.999873 0.999658 0.998112
1.00025 1.00238 0.991984
1.00009 1.00027 0.997723
1.00275 1.00005 0.990017
1.00257 1 0.990386
1.00493 0.99978 0.986663
1.00482 0.999471 0.987171
1.00239 0.999896 0.99081
1.00083 0.999975 0.997197
1.00237 0.99988 0.990859
1.00479 0.99939 0.987321
1.00489 0.999608 0.986942
1.00532 0.997728 0.988251
1.005 0.999946 0.986388
1.0053 0.998313 0.987637
1.00477 0.999396 0.987352
1.00534 0.997561 0.98838
1.00529 0.997974 0.988035
1.0052 0.99529 0.990829
1.00532 0.99874 0.987145
1.00528 0.996222 0.989714
1.00237 0.999911 0.990822
1.00264 1.00005 0.991147
1.00478 0.999369 0.98731
1.00486 1.00006 0.987146
1.00042 1.00069 0.997331
1.0017 1.00228 0.991273
1.00422 1.00186 0.986511
1.00492 1.00012 0.986882
1.00528 0.998585 0.98741
1.00527 0.999991 0.986028
1.00526 1.00069 0.985155
1.00522 0.999007 0.986844
1.00055 1.00266 0.99113
1.00137 1.00492 0.987664
1.00477 0.999329 0.987389
1.00479 0.999639 0.987609
1.00528 0.997967 0.988166
1.00527 0.998561 0.987481
1.00085 1.00288 0.990394
1.00362 1.00239 0.986231
1.00522 1.0013 0.984514
1.00528 0.999411 0.986572
1.00524 0.996734 0.989231
1.00521 0.999975 0.985968
1.00522 0.998125 0.987704
1.00519 0.997341 0.988499
1.00209 1.00435 0.986901
1.0023 1.0043 0.986349
1.0008 1.00484 0.988646
1.00532 0.997944 0.988097
1.00524 0.998125 0.988085
1.00524 0.995718 0.990316
1.00524 0.996185 0.989727
1.00523 0.997133 0.988622
1.00521 0.995416 0.990464
1.003 1.00317 0.986463
1.0052 0.996302 0.989365
1.00514 1.00171 0.984457
1.00521 1.00096 0.984773
1.00517 0.99883 0.987053
1.00515 0.996471 0.98944
1.00033 1.00454 0.989734
1.00376 1.00278 0.985767
1.0013 1.00508 0.987249
1.00398 1.00317 0.985477
1.005 1.0001 0.98617
0.999956 1.00047 0.994346
1.00009 1.00265 0.991919
1.00051 1.00489 0.988694
1.00489 1.00038 0.98606
1.00531 0.999743 0.986018
1.00273 1.00323 0.986868
1.00502 1.00168 0.984709
1.00529 1.00071 0.985138
1.00521 1.00047 0.985223
1.00002 0.999696 0.995047
1.00168 1.00432 0.987647
1.00048 1.00387 0.99015
1.00163 1.0047 0.98741
1.00531 0.999235 0.986583
1.0053 1.00022 0.985541
1.00525 0.998363 0.987376
1.0044 1.00193 0.985443
1.00522 0.999814 0.986074
1.00509 1.00127 0.984778
1.00517 1.00003 0.985871
1.00015 0.999138 0.995425
1.00041 1.00275 0.991467
1.00304 1.0031 0.986461
1.00106 1.00494 0.988627
1.00292 1.0031 0.987138
1.00526 0.997659 0.988138
1.00524 0.99905 0.986681
1.00522 0.99725 0.988368
1.00467 1.00134 0.985238
1.00518 0.998976 0.986879
1.00484 1.00098 0.98541
1.0003 1.0014 0.99295
1.00032 1.00265 0.991698
1.00013 1.00115 0.993485
1.00021 1.00123 0.993238
1.00022 0.998576 0.996393
1.00022 0.998758 0.995959
1.00007 0.997277 0.997714
0.999895 0.997516 0.998983
0.999819 0.99777 0.998933
0.999863 1.00086 0.994067
0.999818 0.999052 0.998434
1.00008 1.00167 0.992956
0.999985 0.999735 0.998008
1.00038 1.00219 0.991962
1.00021 1.00035 0.997619
1.00498 0.999959 0.986372
1.00487 0.999614 0.986942
1.00531 0.998332 0.987617
1.00531 0.997737 0.988249
1.00478 0.999401 0.987322
1.00236 0.99987 0.990859
1.00477 0.999396 0.987354
1.00534 0.997566 0.988381
1.00529 0.997989 0.988021
1.00522 0.995254 0.990833
1.00532 0.998746 0.987128
1.00526 0.996225 0.989713
1.00534 0.99755 0.988397
1.00522 0.99516 0.990992
1.00523 0.995604 0.990423
1.00519 0.994952 0.991115
1.00526 0.996972 0.988916
1.00528 0.995093 0.990546
1.00477 0.999198 0.987476
1.00482 0.999629 0.987588
1.00528 0.997787 0.988407
1.00526 0.998856 0.987203
1.00093 1.00279 0.9904
1.00343 1.00271 0.986233
1.00521 1.00138 0.984475
1.00528 0.999574 0.98644
1.00524 0.99646 0.989516
1.00523 0.998133 0.987715
1.00521 0.999828 0.98612
1.00518 0.997263 0.988475
1.00214 1.00432 0.986907
1.00222 1.00419 0.986369
1.00089 1.00475 0.988655
1.00532 0.997816 0.988207
1.00524 0.998108 0.988078
1.00523 0.995548 0.990546
1.00525 0.996356 0.989556
1.00297 1.00331 0.986458
1.00506 1.00171 0.984479
1.00521 1.00106 0.984676
1.00523 0.997435 0.988348
1.00521 0.995238 0.990566
1.00518 0.998763 0.987007
1.0052 0.996342 0.989355
1.00516 0.996332 0.989529
1.00373 1.00288 0.985759
1.00381 1.0032 0.985323
1.00046 1.00433 0.989751
1.00115 1.00507 0.987411
1.00523 0.995207 0.990936
1.00523 0.996057 0.989891
1.00519 0.994953 0.991079
1.00524 0.994911 0.990818
1.00521 0.995566 0.990056
1.00522 0.994988 0.990728
1.00492 1.00163 0.98505
1.00518 0.995228 0.990306
1.00518 1.00193 0.983958
1.00515 1.00045 0.985252
1.00518 0.998081 0.987541
1.00517 0.996402 0.98946
1.0002 1.00365 0.990816
1.00069 1.00512 0.98833
1.00492 1.00188 0.984766
1.00202 1.0049 0.986671
1.00458 1.00333 0.98442
1.00002 0.999598 0.995083
1.00532 0.999241 0.986562
1.00034 1.00395 0.990169
1.0016 1.00434 0.987639
1.00148 1.00482 0.987398
1.00531 1.00022 0.985517
1.00524 0.998358 0.987369
1.0047 1.00154 0.985452
1.00515 1.00118 0.984756
1.00522 0.999917 0.985927
1.00517 0.99996 0.986016
1.00015 0.999091 0.99545
1.00032 1.00281 0.991497
1.00323 1.00301 0.986465
1.00072 1.005 0.988621
1.00259 1.00315 0.98724
1.00526 0.997647 0.988131
1.00523 0.999038 0.986674
1.00522 0.997213 0.988353
1.00492 1.00127 0.985221
1.00517 0.999038 0.986736
1.00492 1.00095 0.985457
1.00036 1.00187 0.992429
1.00058 1.00415 0.990127
1.00431 1.00136 0.98611
1.00119 1.00499 0.988387
1.00334 1.00158 0.987894
1.00523 0.996506 0.989178
1.00519 0.998036 0.987543
1.00523 0.996473 0.988744
1.00448 1.001 0.985601
1.00498 0.999653 0.986138
1.0003 1.00139 0.99295
1.00031 1.00267 0.991562
1.00017 1.00281 0.991663
1.00044 1.00301 0.991331
1.00022 1.00269 0.991842
1.00005 1.00109 0.993648
1.00012 1.00113 0.993491
1.00021 0.998487 0.996492
1.00021 1.00125 0.993234
1.00023 0.998577 0.996409
1.00014 0.997059 0.997788
1.00021 0.998743 0.996297
1 0.997287 0.998369
0.999904 0.997447 0.998997
0.999802 0.999959 0.995069
0.999894 1.00092 0.99404
0.99973 0.99842 0.998772
0.999894 0.99917 0.998311
1.00012 1.00176 0.99293
1.00007 0.999849 0.997899
1.00532 0.99875 0.987111
1.00529 0.997986 0.988007
1.00526 0.996227 0.989712
1.00524 0.995218 0.990837
1.00534 0.997572 0.988381
1.00477 0.999398 0.987355
1.00534 0.997554 0.988397
1.00522 0.99514 0.991002
1.00524 0.995602 0.990426
1.00519 0.99495 0.991097
1.00526 0.996943 0.988906
1.00528 0.995088 0.990555
1.00523 0.995153 0.991008
1.00515 0.994964 0.991226
1.00525 0.994936 0.990893
1.00523 0.994945 0.991012
1.00526 0.995733 0.989946
1.0053 0.994914 0.99069
1.00533 0.997684 0.988316
1.00524 0.998104 0.988071
1.00522 0.995369 0.990775
1.00526 0.99652 0.989385
1.00293 1.00341 0.986452
1.00504 1.00172 0.984499
1.00521 1.00111 0.984579
1.00523 0.997733 0.988073
1.00522 0.99507 0.990668
1.0052 0.996383 0.989346
1.00519 0.998708 0.986961
1.00516 0.99618 0.989619
1.00349 1.0031 0.985751
1.00339 1.00322 0.985169
1.00059 1.00415 0.989769
1.00106 1.00507 0.987576
1.00522 0.995216 0.990933
1.00524 0.996086 0.989895
1.00521 0.994948 0.991084
1.00524 0.994911 0.990826
1.00462 1.00199 0.985029
1.00514 1.00198 0.983918
1.00516 1.00041 0.98523
1.00521 0.995764 0.9899
1.00522 0.994951 0.990735
1.00515 0.998131 0.98752
1.00518 0.995234 0.990292
1.00517 0.996181 0.989595
1.00478 1.00199 0.984772
1.00434 1.00347 0.984267
1.00197 1.00492 0.986676
1.00021 1.00352 0.990807
1.00055 1.00511 0.988459
1.00516 0.994961 0.991176
1.00525 0.99493 0.990949
1.00524 0.994888 0.990671
1.00521 0.994942 0.990657
1.00509 1.00235 0.984023
1.00519 0.995162 0.990369
1.00509 1.00169 0.983959
1.00514 1 0.985563
1.00514 0.997906 0.987647
0.999937 1.00244 0.992139
1.00034 1.00487 0.989435
1.00114 1.00509 0.988063
1.0051 1.00271 0.983823
1.0026 1.00482 0.985396
1.00481 1.00351 0.983257
1.00015 0.999056 0.995475
1.00024 1.00288 0.991526
1.00525 0.997634 0.988124
1.00034 1.00508 0.988613
1.00321 1.00314 0.98647
1.00229 1.00316 0.987342
1.00523 0.999027 0.986666
1.00522 0.997176 0.988337
1.00508 1.00118 0.985202
1.00505 1.00096 0.985505
1.00516 0.999093 0.986593
1.00032 1.00188 0.992438
1.00025 1.00435 0.990132
1.00446 1.00124 0.986106
1.00092 1.00505 0.988361
1.00324 1.00135 0.987934
1.00523 0.996467 0.989178
1.00519 0.998051 0.98752
1.00523 0.996532 0.988737
1.00466 1.00101 0.985601
1.005 0.999774 0.986148
1.00039 1.00319 0.99119
0.999826 1.00496 0.989748
1.00477 1.00043 0.986244
1.00125 1.00365 0.988769
1.00425 1.00013 0.987664
1.00526 0.995475 0.989848
1.00521 0.997985 0.987417
1.00522 0.996745 0.988335
1.00469 1.00017 0.986179
1.00507 0.999624 0.986144
1.0003 1.00138 0.99295
1.00032 1.00271 0.991573
1.00007 1.00316 0.991407
1.00006 1.0029 0.991629
1.00014 1.0028 0.991831
1.00017 1.00321 0.991351
1.00004 1.00296 0.991908
1.00005 1.00349 0.991087
1.00011 1.00271 0.991999
1.00002 1.0012 0.993615
1.00005 1.00109 0.993647
1.00015 0.998497 0.996568
1.00012 1.00108 0.993496
1.00022 0.998492 0.996504
1.00017 0.996943 0.997838
1.00024 0.998565 0.996428
1.00011 0.997058 0.997792
0.999928 0.99728 0.999041
0.999864 0.999136 0.995819
0.999805 1.00006 0.995025
0.99969 0.997964 0.99898
0.999929 1.00096 0.994014
0.999792 0.998577 0.998653
0.999981 0.999238 0.998196
1.00527 0.996914 0.988896
1.00525 0.995601 0.990429
1.00529 0.995087 0.990564
1.00519 0.994946 0.99108
1.00522 0.995119 0.991012
1.00534 0.997558 0.988398
1.00522 0.995142 0.991019
1.00515 0.994968 0.99124
1.00524 0.994933 0.990928
1.00522 0.994942 0.990986
1.00526 0.995719 0.989965
1.0053 0.994908 0.990632
1.00515 0.99498 0.991234
1.00522 0.994939 0.991067
1.00526 0.994931 0.990815
1.00526 0.995039 0.990457
1.00521 0.995225 0.99093
1.00524 0.996098 0.9899
1.00522 0.994942 0.991088
1.00523 0.994911 0.990835
1.00447 1.00217 0.98501
1.00513 1.00203 0.983881
1.00516 1.00041 0.985209
1.00522 0.995958 0.989744
1.00521 0.994897 0.990741
1.00518 0.995228 0.990277
1.00513 0.998167 0.987498
1.00518 0.995949 0.98973
1.00465 1.00211 0.984779
1.00431 1.00326 0.984112
1.00184 1.00492 0.986681
1.00024 1.00332 0.990805
1.00046 1.0051 0.98859
1.00516 0.994961 0.991164
1.00525 0.994952 0.990923
1.00524 0.994889 0.990707
1.00499 1.00234 0.984051
1.00507 1.00184 0.983919
1.00511 1.00001 0.985552
1.00521 0.994968 0.990616
1.00517 0.997661 0.987952
1.00517 0.995223 0.990287
0.999999 1.00221 0.992353
1.00499 1.00249 0.983844
1.0046 1.00362 0.983465
1.00286 1.00474 0.985486
1.00114 1.00509 0.988192
1.00028 1.0049 0.989339
1.00521 0.994954 0.991045
1.00525 0.994912 0.990782
1.00524 0.994878 0.990632
1.00519 0.994891 0.990621
1.00509 1.00267 0.983579
1.00516 0.995925 0.989505
1.00499 1.00153 0.984239
1.00506 1.00037 0.985405
1.00005 1.00073 0.99374
0.999976 1.00414 0.990779
1.00064 1.00509 0.989091
1.00189 1.00506 0.986664
1.00497 1.00343 0.983019
1.0045 1.00425 0.983136
1.00026 1.00188 0.992447
0.99999 1.00448 0.990139
1.00523 0.996429 0.989179
1.00061 1.00513 0.988335
1.00466 1.0011 0.986101
1.00282 1.00137 0.987972
1.00519 0.998066 0.987498
1.00524 0.996603 0.988727
1.00478 1.00107 0.985599
1.00504 0.999901 0.986158
1.00026 1.00327 0.991197
1.00007 1.00496 0.989572
1.00494 1.00037 0.986187
1.00103 1.00391 0.988844
1.00417 1.00005 0.987573
1.00526 0.995482 0.989951
1.00521 0.997913 0.98758
1.00523 0.996896 0.988305
1.00465 1.00024 0.986243
1.00502 0.999798 0.985936
0.999679 1.00378 0.99101
1.00006 1.005 0.989175
1.00479 0.999672 0.986778
1.00295 1.00108 0.987833
1.0053 0.994861 0.990236
1.00523 0.996233 0.989451
1.00507 0.999015 0.986444
1.00509 0.999557 0.986012
1.00037 1.0027 0.991583
1.00017 1.00315 0.9914
0.999647 1.00352 0.992162
1.00006 1.00292 0.991821
0.999885 1.00342 0.991371
1.00008 1.00275 0.991988
0.999847 1.00296 0.99212
1.00009 1.00356 0.991066
0.999726 1.00192 0.993393
0.999887 1.00385 0.991258
1.00001 1.00375 0.990901
1.00014 1.00273 0.99193
0.999983 1.00143 0.993385
0.999996 1.00119 0.993609
1.00006 0.998565 0.996639
1.00005 1.00106 0.993648
1.00016 0.998519 0.996578
1.00013 0.99695 0.997879
1.00022 0.998501 0.996519
1.00015 0.996937 0.997842
1.00008 0.997066 0.997789
0.999994 0.998495 0.996275
0.999864 0.99924 0.99576
0.999712 0.997556 0.999109
0.999798 1.00019 0.994979
0.999724 0.998041 0.998927
0.999878 0.998679 0.998521
1.00526 0.995701 0.989985
1.00524 0.99493 0.990962
1.0053 0.994901 0.990574
1.00522 0.99494 0.990959
1.00515 0.994972 0.991253
1.00521 0.99513 0.991031
1.00515 0.994978 0.991234
1.00522 0.99494 0.991068
1.00526 0.994927 0.990807
1.00525 0.995026 0.990497
1.00523 0.994953 0.991094
1.00527 0.994925 0.990908
1.00529 0.994892 0.990651
1.00517 0.994962 0.991151
1.00525 0.994983 0.990898
1.00524 0.994889 0.990743
1.00486 1.00235 0.984078
1.00506 1.00197 0.983876
1.00508 0.999972 0.985539
1.0052 0.995009 0.990575
1.00515 0.995282 0.990203
1.00519 0.997386 0.988255
1.00494 1.00249 0.983863
1.00426 1.00363 0.983674
1.00319 1.00471 0.985577
1.00006 1.00201 0.992571
1.00099 1.00509 0.98832
1.00016 1.00497 0.989238
1.00522 0.994956 0.991056
1.00525 0.99491 0.990758
1.00524 0.994876 0.99062
1.005 1.00268 0.983627
1.00499 1.00152 0.984167
1.00508 1.00006 0.985742
1.00518 0.994893 0.990579
1.00513 0.995966 0.989435
1.00006 1.00065 0.993951
0.999958 1.00418 0.990758
1.00493 1.0029 0.983025
1.00404 1.00437 0.983911
1.00192 1.00504 0.986896
1.00054 1.00509 0.988952
1.00526 0.994927 0.990926
1.00528 0.994875 0.990518
1.00523 0.99486 0.990613
1.00512 0.994961 0.990438
1.0045 1.00275 0.983605
1.00508 0.998589 0.987073
1.00495 1.00209 0.98409
1.00024 0.99993 0.994524
1.00032 1.00104 0.993345
0.99985 1.00226 0.99266
1.00013 1.00501 0.989699
1.00081 1.00509 0.988116
1.00206 1.0045 0.985716
1.00465 1.00346 0.983341
1.00405 1.00421 0.984873
1.00012 1.00344 0.991204
1.00024 1.0051 0.989394
1.00527 0.995479 0.990054
1.00117 1.00384 0.988918
1.00507 1.00035 0.986134
1.00404 0.999994 0.987484
1.00522 0.997811 0.987745
1.00525 0.997003 0.988279
1.00475 1.00028 0.986306
1.00499 0.999915 0.985731
0.999863 1.00383 0.990878
1.00023 1.00503 0.989148
1.00502 0.999571 0.98676
1.00323 1.00124 0.987891
1.00532 0.994857 0.990282
1.00523 0.996163 0.989326
1.00505 0.998955 0.986542
1.0051 0.999677 0.985952
0.999804 1.00411 0.990606
1.00533 0.994885 0.990297
1.002 1.00406 0.988152
1.00477 0.999654 0.986875
1.00523 0.995254 0.990436
1.00502 0.998131 0.986447
1.00485 1.0008 0.985432
1.00021 1.00319 0.991393
0.999645 1.00337 0.99208
0.99908 1.00306 0.993861
1.00007 1.00272 0.991978
1.00012 1.00364 0.991045
0.999322 1.00332 0.992329
1.00012 1.00272 0.991921
0.999931 1.00386 0.990924
0.999224 1.00225 0.993629
1.00002 1.0037 0.99121
0.999511 1.00065 0.995611
0.999372 1.00286 0.99297
0.999844 1.00457 0.990375
1.00036 1.00373 0.990505
1.00014 1.00305 0.991567
0.999912 1.00185 0.993082
0.999927 1.00156 0.993369
0.999954 0.998788 0.99664
0.999967 1.00126 0.993604
1.00007 0.998615 0.996635
1.00006 0.996988 0.997946
1.00016 0.998538 0.996589
1.00014 0.996933 0.997877
1.00014 0.996933 0.997841
1.00019 1.00009 0.994485
1.0001 0.998138 0.996478
0.999996 0.998559 0.99624
0.999801 0.997175 0.999181
0.999861 0.999344 0.995702
0.999734 0.997641 0.999078
0.999767 0.998156 0.998855
1.00525 0.995016 0.990536
1.00526 0.994924 0.9908
1.00523 0.994941 0.99107
1.00515 0.994976 0.991234
1.00523 0.994954 0.991087
1.00526 0.994924 0.990924
1.00526 0.994895 0.990631
1.00527 0.99492 0.990964
1.00533 0.994924 0.99071
1.00535 0.994997 0.99111
1.00522 0.994958 0.991066
1.00524 0.99491 0.990733
1.00524 0.994876 0.990607
1.00481 1.00268 0.983676
1.005 1.00175 0.984108
1.00497 0.999813 0.98608
1.00518 0.994898 0.990538
1.0051 0.996093 0.989365
1.00485 1.00299 0.983032
1.00365 1.00461 0.984682
1.00175 1.00498 0.987126
1.00006 1.0005 0.994161
1.00009 1.00408 0.990738
1.00054 1.00508 0.988808
1.00526 0.994927 0.990909
1.0002 0.999969 0.994518
1.00025 1.00111 0.993244
1.00528 0.994886 0.990532
1.00522 0.994857 0.99062
1.00493 1.00274 0.983518
1.00475 1.00201 0.984197
1.00505 0.998404 0.986984
1.00513 0.994978 0.990351
0.999916 1.00223 0.992838
1.00018 1.0049 0.98966
1.00473 1.00371 0.983076
1.00325 1.00392 0.985545
1.00231 1.00472 0.985994
1.00089 1.00508 0.988133
1.00532 0.994905 0.99068
1.00527 0.994817 0.990519
1.00516 0.994838 0.990405
1.005 0.994918 0.990375
1.00421 1.00294 0.984192
1.00443 1.00206 0.98494
1.00005 1.00173 0.992794
1.00025 1.00094 0.993526
1.00087 1.00072 0.992951
1.00031 1.00306 0.991209
1.00033 1.00507 0.989284
1.00233 1.00433 0.987103
1.00125 1.00511 0.986294
1.00391 1.00058 0.986179
1.00013 1.00372 0.990748
1.00054 1.00504 0.989122
1.00533 0.994854 0.990329
1.00523 0.99617 0.989202
1.00356 1.00145 0.987949
1.00514 0.999438 0.98674
1.00503 0.998935 0.986636
1.00511 0.99983 0.985893
1.00012 1.00399 0.990529
1.00534 0.994888 0.990519
1.00171 1.00408 0.988252
1.00491 0.999707 0.986708
1.00523 0.995237 0.990433
1.00502 0.998318 0.986675
1.00482 1.00072 0.985457
1.0001 1.00485 0.990112
1.00479 0.994828 0.991166
1.00302 1.00251 0.987596
1.0046 1.00115 0.985368
1.00483 0.996334 0.989594
1.00372 1.00138 0.985892
0.998667 0.996368 0.987365
0.999537 1.00336 0.992
0.998661 1.00323 0.993843
0.999284 1.00228 0.994587
1.00004 1.00279 0.991911
0.999889 1.00397 0.990947
1.00031 1.00338 0.991165
0.998907 1.00237 0.993872
1.00009 1.0031 0.991566
1.00024 1.00383 0.99054
0.999506 1.00078 0.995114
0.999923 1.00455 0.990389
0.999652 1.00277 0.992672
0.998942 1.00133 0.995904
1.00027 1.00468 0.989875
1.0001 1.00461 0.99026
1.00058 1.00391 0.990089
1.00013 1.00352 0.990917
1.00028 1.00416 0.990473
1.00011 1.00371 0.990714
0.999925 1.00197 0.992939
0.999941 1.00183 0.993063
0.999847 0.998949 0.996053
0.999937 1.00154 0.993349
0.999947 0.99885 0.996319
1.00001 0.997156 0.999119
1.00007 0.998664 0.996633
1.00008 0.996963 0.997947
1.00015 0.996917 0.997872
1.00009 1.00012 0.994552
1.00021 0.99999 0.994511
1.0001 0.998046 0.996597
1.00007 0.998161 0.996741
0.999882 0.996974 0.999221
0.99999 0.99862 0.996205
0.999798 0.99729 0.999164
0.999757 0.997706 0.999047
1.00524 0.994896 0.990611
1.00526 0.994922 0.990939
1.00523 0.994955 0.99108
1.00527 0.994921 0.990963
1.00532 0.994919 0.99071
1.00534 0.994977 0.990762
1.00535 0.994917 0.990746
1.00129 0.994925 0.983291
1.00452 0.994979 0.992614
1.00002 1.00151 0.993274
1.00526 0.994925 0.990891
1.00528 0.994894 0.990545
1.0052 0.994853 0.990627
1.00495 1.00243 0.983421
1.00493 1.00182 0.984298
1.00507 0.998329 0.986903
1.00514 0.995037 0.990262
1.00498 1.00356 0.982813
1.00273 1.00365 0.986218
1.00234 1.00491 0.986278
1.00014 1.00007 0.994513
1.00106 1.00509 0.988152
0.999894 1.0022 0.993005
1.00023 1.00492 0.989619
1.00025 1.00106 0.993142
1.00532 0.994894 0.990674
1.00007 1.00172 0.992903
1.00014 1.0011 0.993531
1.00072 1.00071 0.993094
1.00528 0.994831 0.990487
1.00516 0.994853 0.99039
1.00371 1.00352 0.98426
1.00466 1.00109 0.985505
1.00495 0.995351 0.990279
0.999943 1.00327 0.991376
1.00047 1.00507 0.989126
1.00379 1.00209 0.985968
1.00198 1.00489 0.986176
1.00208 1.00405 0.987324
1.00527 0.99485 0.990911
1.00517 0.994735 0.99085
1.0051 0.99506 0.989914
1.00483 0.997126 0.98974
1.00222 1.00295 0.987643
0.999741 1.00294 0.992076
1.0008 1.00086 0.992541
0.999956 1.00136 0.992811
1 1.00456 0.991192
1.00023 1.00507 0.989582
1.00059 1.00455 0.98823
1.00239 1.00087 0.988771
1.00058 1.00378 0.990451
1.0012 1.00407 0.988353
1.00536 0.994887 0.990728
1.00523 0.995168 0.990423
1.00501 0.998455 0.986903
1.00495 0.999704 0.98654
1.00476 1.00057 0.985486
1.00045 1.00465 0.990119
1.00462 0.994842 0.991349
1.00306 1.0022 0.98751
1.00483 1.00098 0.985322
1.00496 0.995895 0.989825
1.00383 1.00149 0.98597
0.998674 0.997112 0.985457
1.0003 1.00433 0.990181
1.00294 0.996984 0.991113
1.0037 1.00175 0.986199
1.00298 1.00117 0.987104
1.00309 0.997688 0.990765
0.999967 0.994917 0.947355
0.996015 0.994803 0.967426
0.995584 1.0005 0.988327
0.999536 0.994798 0.87178
0.994698 0.994794 0.837497
0.998359 1.00338 0.993828
0.998524 1.00277 0.994885
0.998625 1.00275 0.995369
1.00007 1.00312 0.991566
1.00032 1.00361 0.990574
1.00002 1.00448 0.990403
0.999881 1.00269 0.992366
0.999497 1.00096 0.994613
1.00015 1.00439 0.99023
1.00013 1.00351 0.991007
1.0005 1.00388 0.990152
0.999165 1.00076 0.995422
1.00003 1.00464 0.990163
1.00029 1.00459 0.990202
0.999248 1.00482 0.991115
1.00009 1.00462 0.990194
1.0005 1.00435 0.98958
1.00022 1.00359 0.990715
1.0004 1.00452 0.989723
1.00046 1.00401 0.990339
0.999793 1.00437 0.990786
1.00021 1.00422 0.99038
1.0002 1.00344 0.991116
1.00015 1.00371 0.990701
0.999953 1.00195 0.992925
0.999938 1.00197 0.992941
0.999818 0.999052 0.996047
0.999922 1.0019 0.993046
0.99984 0.998988 0.996044
0.999967 0.997168 0.99914
0.999934 0.998922 0.995999
1 0.997153 0.998525
1.00009 0.996938 0.997946
0.999983 1.00009 0.994738
1.0001 1.00012 0.994556
1.0001 0.997942 0.996711
1.00023 0.999894 0.994536
1.0001 0.997982 0.996862
0.999931 0.996773 0.999257
1.00007 0.998228 0.996454
0.999869 0.997049 0.999205
0.999801 0.99735 0.999148
1.00532 0.994915 0.990711
1.00527 0.994921 0.990962
1.00532 0.994984 0.990425
1.00081 0.994892 0.983414
1.00535 0.994912 0.990761
1.00441 0.995236 0.99229
1.00502 0.996392 0.991283
0.996381 0.994954 0.966505
1.00092 0.99633 0.985529
1.00007 1.00136 0.993392
1.00006 1.00153 0.993247
0.999745 1.00295 0.992251
0.999844 1.00228 0.992771
1.00532 0.994888 0.990668
1.00529 0.994847 0.990455
1.00516 0.99486 0.990375
1.00458 1.00357 0.984326
1.00453 0.99957 0.986067
1.00483 0.995743 0.990177
1.00338 1.00326 0.985769
1.00312 1.00474 0.986055
1.00187 1.00348 0.987541
1.00001 1.00136 0.993538
1.00043 1.00506 0.988969
0.999996 1.00338 0.991543
1.00005 1.00179 0.993011
1.0005 1.00075 0.993224
1.00527 0.994847 0.990917
0.999978 1.00284 0.992033
1.00087 1.00077 0.992756
0.999261 1.00145 0.994162
1.00516 0.994761 0.990748
1.00511 0.995101 0.989917
1.00327 1.00167 0.987618
1.00448 0.996578 0.990158
1.00023 1.00414 0.990778
1.00038 1.00493 0.988961
1.00204 1.0027 0.98862
1.00192 1.00403 0.987787
1.0044 0.994844 0.991839
1.00495 0.994895 0.991251
1.00497 0.996034 0.989487
1.00287 0.998046 0.992184
0.99906 1.00384 0.992378
1.0006 1.00161 0.991965
0.998422 1.00457 0.992648
0.999176 1.00506 0.990288
0.99997 0.994892 0.935801
1.0006 1.00453 0.990121
1.00308 1.00211 0.987423
1.00439 0.994857 0.991555
1.00507 0.99575 0.990051
1.00393 1.00158 0.98603
1.00478 1.00091 0.985269
0.998612 0.997337 0.983437
1.00035 1.00414 0.990574
1.00284 0.997042 0.991079
1.00352 1.0021 0.986236
1.00364 1.00087 0.987147
1.00349 0.997822 0.990456
1.00046 0.994897 0.935468
0.99628 0.994806 0.963468
0.995732 1.0014 0.988367
0.999015 0.994799 0.876228
0.994699 0.994801 0.826868
1.00021 1.00401 0.990683
0.999788 0.994854 0.882907
0.994699 0.994781 0.83189
1.00039 1.00007 0.992144
1.00208 1.00155 0.989222
1.00141 0.999512 0.992419
0.994958 1.00168 0.989823
0.998758 0.994865 0.944844
0.994888 0.99478 0.960272
0.996977 0.994986 0.890437
0.994723 0.9948 0.823821
0.997908 1.00315 0.995189
0.998318 1.00233 0.995229
0.99857 1.0044 0.993773
1.00017 1.00346 0.991096
1.00043 1.00393 0.990217
0.999779 1.00475 0.990201
0.999813 1.00465 0.990452
0.999459 1.00004 0.994941
1.00021 1.00362 0.990716
1.00006 1.00494 0.990135
1.00001 1.00471 0.990124
1.00062 1.00416 0.989716
0.999178 1.00484 0.991331
0.999602 1.00503 0.990888
0.998528 1.00479 0.992006
1.00025 1.00476 0.989701
1.00046 1.00438 0.989787
1.00045 1.00446 0.989719
1.00035 1.00383 0.990504
1.00047 1.00475 0.989537
0.999942 1.00412 0.990898
0.999634 1.00334 0.991145
0.999689 1.00495 0.990385
0.99968 1.00467 0.990558
0.99992 1.00421 0.99081
1.00009 1.00335 0.991297
1.00014 1.00421 0.990288
1.00019 1.00341 0.99106
1.00001 1.00197 0.992844
1.00022 1.00368 0.990688
0.999947 1.00196 0.992935
0.999949 0.99902 0.996529
0.999922 1.00199 0.992944
0.999848 0.999018 0.996319
0.99993 0.997173 0.997984
0.999833 0.999008 0.996034
0.999964 0.997182 0.999146
1.00001 0.997169 0.99793
1.00014 1.00138 0.993206
0.99994 1.00008 0.994812
0.999991 1.00009 0.994735
1.00008 0.997922 0.996763
1.00011 1.00011 0.994559
1.00011 0.997897 0.996713
0.999972 0.996673 0.999278
1.00009 0.997969 0.997099
0.999947 0.996892 0.998724
0.999912 0.997129 0.998139
1.00037 0.994865 0.983536
1.00534 0.994909 0.990774
1.00412 0.996039 0.991958
0.996544 0.994925 0.967324
1.00085 0.995907 0.985876
1.00504 0.995747 0.991242
1.00329 0.996545 0.987208
0.996841 0.995711 0.970167
0.999975 0.994882 0.944993
0.999215 0.994853 0.89224
0.994662 0.994771 0.836261
0.999776 1.00235 0.992677
1.00008 1.00134 0.993382
1.00014 1.00147 0.993219
0.999857 1.00277 0.992301
0.999469 1.00365 0.992149
1.00033 1.00216 0.991982
1.00008 1.00284 0.992138
0.999994 1.00219 0.992615
1.00528 0.994829 0.990919
1.00517 0.994779 0.99065
1.00513 0.995091 0.989919
1.00334 1.00147 0.987599
1.00427 0.996338 0.990585
1.00228 1.00376 0.988453
1.00309 1.00377 0.987349
1.0008 1.00508 0.988346
1.00063 1.00076 0.992975
1.00016 1.00418 0.990353
1.00024 1.00269 0.991999
0.99878 1.00138 0.995497
1.0043 0.994796 0.992076
0.99924 1.00369 0.992382
1.00044 1.002 0.992325
1.00483 0.994862 0.991198
1.00487 0.995625 0.989761
1.00253 0.997933 0.99176
0.999443 1.00509 0.991327
1.00057 1.00399 0.99048
1.0031 0.994774 0.992079
1.00413 0.99769 0.990736
1.00474 0.99548 0.990614
1.001 0.998863 0.99323
0.999625 1.00475 0.990554
0.999288 1.00405 0.991916
0.999394 1.00527 0.99138
0.999811 0.994906 0.885514
1.0003 0.994886 0.948247
1.00048 1.00377 0.990964
1.00366 1.00227 0.986278
1.0028 0.997343 0.991039
1.00397 0.99807 0.990156
1.00411 1.00079 0.98721
0.999979 0.994888 0.945896
0.996192 0.994813 0.963119
0.996041 1.0024 0.988414
0.998625 0.994824 0.891508
0.994702 0.994802 0.815686
1.00019 1.00392 0.99064
0.999803 0.994856 0.88264
0.994669 0.994779 0.82538
1.00069 1.00002 0.992195
1.00206 1.00166 0.989252
1.00145 0.999674 0.992759
0.995346 1.00181 0.990436
0.999986 0.995779 0.938379
0.994861 0.994785 0.962787
0.996916 0.997679 0.88937
0.994746 0.994788 0.82257
0.999491 1.00397 0.992957
0.994702 0.994824 0.825032
0.994744 0.994795 0.836932
0.997984 1.00168 0.996068
0.999908 1.00183 0.994068
0.994991 1.00187 0.988552
0.995026 0.995828 0.963683
0.996572 0.995244 0.933875
0.994728 0.998975 0.894124
0.994826 0.994822 0.826256
0.998134 1.00209 0.995092
0.998951 1.00372 0.993493
0.997959 1.00321 0.994612
1.00018 1.00366 0.990717
1.00072 1.00397 0.989851
1 1.00478 0.990052
0.999848 1.00495 0.990068
0.998895 1.00472 0.991549
1.00044 1.0044 0.989784
0.999629 1.00484 0.990692
1.00035 1.00467 0.989702
0.998143 1.00475 0.992473
0.996082 1.0049 0.996055
0.999286 1.00479 0.991342
1.00049 1.00463 0.989586
1.00051 1.00439 0.989716
1.00035 1.00359 0.990665
1.00042 1.00475 0.989497
1.00001 1.00405 0.990833
0.999512 1.00329 0.991837
0.99932 1.005 0.990802
0.999462 1.00468 0.990757
0.999043 1.00394 0.992158
1.00063 1.002 0.991978
1.00125 1.00139 0.99042
0.999386 1.00478 0.990682
0.999799 1.00478 0.990422
0.999744 1.00499 0.990063
0.999726 1.0048 0.990557
1.00001 1.00364 0.991102
0.999934 1.00428 0.990833
1.00012 1.00336 0.991302
1.00005 1.0019 0.992771
1.0002 1.00343 0.991004
1 1.00195 0.992861
1.00005 0.999016 0.996359
0.99994 1.00196 0.992945
0.999932 0.999004 0.996193
1.00001 0.997119 0.997888
0.999843 0.999007 0.996029
0.999965 0.997175 0.99915
0.999963 0.997185 0.999152
1.0002 1.00172 0.99309
0.999943 1.00023 0.994687
1.00009 1.00148 0.993217
1.00007 0.99792 0.996771
0.999939 1.00009 0.994813
0.999998 1.00011 0.994732
1.00008 0.997909 0.996756
0.999999 0.99662 0.999282
1.00009 0.997878 0.99719
0.999989 0.996679 0.99878
0.999966 0.996904 0.998228
0.999815 0.994853 0.871841
0.994674 0.994766 0.82566
0.997182 0.994895 0.967483
1.0008 0.995372 0.986287
1.00509 0.995013 0.991203
0.996516 0.995557 0.970478
1.00347 0.995856 0.987684
1.00109 0.994893 0.942425
0.999437 0.994802 0.876186
0.99469 0.994787 0.825819
0.998414 0.994866 0.975318
0.999658 0.994898 0.944374
0.996979 0.995712 0.889808
0.994715 0.99477 0.828124
1.00009 1.00324 0.991622
0.999852 1.00217 0.992799
1.00009 1.00135 0.993373
0.999906 1.00266 0.99235
0.999431 1.00352 0.992329
1.00007 1.00366 0.991046
1.00024 1.00274 0.99178
1.00036 1.00343 0.990734
1.00007 1.00281 0.992017
1 1.0023 0.992459
1.0042 0.994773 0.992301
1.00469 0.994787 0.991153
1.00461 0.995277 0.990033
1.00218 0.998387 0.991334
1.00099 1.00394 0.990674
0.999541 1.0052 0.990014
1.00049 1.00188 0.992713
0.999354 1.00372 0.992379
1.00257 0.994886 0.99247
0.999703 1.00489 0.990365
0.99899 1.00423 0.991786
1.00403 0.996597 0.991002
1.00466 0.995574 0.990398
1.00099 0.998988 0.993495
0.999406 1.00521 0.991181
1.00042 0.994969 0.992501
1.00225 0.997179 0.993486
0.999849 1.00136 0.994074
0.998796 1.00507 0.990049
0.999224 1.00506 0.990405
0.998927 1.00514 0.991515
0.99473 0.994854 0.846892
0.999806 0.994898 0.890195
0.999972 0.994901 0.936098
0.999953 1.004 0.990587
1.00212 1.0016 0.989269
1.00075 0.999999 0.992251
1.00136 0.999636 0.993106
0.999813 0.994876 0.893166
0.999128 0.99486 0.935168
0.994855 0.99483 0.960432
0.995381 1.00226 0.991016
0.997045 0.995248 0.876062
0.994647 0.994786 0.829914
0.994739 0.994796 0.834369
0.99916 1.00342 0.992726
0.994697 0.994823 0.834294
0.994774 0.994799 0.836457
0.997431 1.0013 0.996663
0.999487 1.00179 0.99399
0.995053 0.999543 0.99097
0.995204 0.995247 0.962072
0.996946 0.998697 0.944522
0.995009 0.998943 0.879252
0.994875 0.994812 0.836055
0.997274 1.00366 0.996083
0.994791 0.994843 0.845224
0.994812 0.994793 0.834253
0.994933 1.00241 1.00002
0.995169 0.997898 0.970144
0.994914 0.999928 0.944438
0.995353 0.996874 0.871728
0.994996 0.99486 0.839927
0.999243 1.00314 0.993188
0.998182 1.0034 0.994834
0.996353 1.00381 0.997169
1.00039 1.00446 0.989782
1.00048 1.0046 0.989704
0.999736 1.0047 0.990495
0.997766 1.00463 0.992944
1.00036 1.00472 0.989607
0.999265 1.0048 0.991298
0.996062 1.00465 0.996478
0.995217 1.00489 0.997858
0.995919 1.00497 0.996516
0.999785 1.00429 0.991007
1.00037 1.00483 0.989456
1.00004 1.00395 0.990766
0.999284 1.00347 0.992514
0.999466 1.00473 0.990801
0.999408 1.005 0.99082
0.999047 1.00414 0.992243
0.999235 1.00455 0.991519
0.997307 1.00494 0.994329
1.00244 0.997749 0.9924
1.00043 1.0018 0.992333
1.00099 1.0017 0.991118
1.00426 1.00124 0.986838
1.00087 1.00356 0.990413
1.00046 1.00156 0.991818
0.999813 1.00456 0.990486
0.999766 1.005 0.989791
0.999946 1.00457 0.990459
0.999924 1.00497 0.990071
1.00002 1.0043 0.990478
1.00001 1.00466 0.990557
1.00016 1.00352 0.991087
1.00011 1.00195 0.992653
1.00026 1.00319 0.991307
1.00012 1.00187 0.992777
1.00014 0.999034 0.996194
1.00003 1.0019 0.992878
1.00004 0.999019 0.995999
1.00007 0.997168 0.997751
0.999934 0.998988 0.995897
0.999992 0.99714 0.998519
0.999972 0.99716 0.999139
1.00021 1.00231 0.992177
1.00004 1.00037 0.994431
1.00013 1.00177 0.992909
1.00006 0.997979 0.996714
0.999955 1.0002 0.994691
1.00005 1.00154 0.993227
1.00002 0.996593 0.999283
1.00006 0.99792 0.996771
0.999945 1.0001 0.994814
1.00009 0.997892 0.99675
0.999999 0.996641 0.999282
0.999971 0.996661 0.999278
0.994683 0.994799 0.829822
0.999808 0.994861 0.882388
0.994762 0.994783 0.8345
0.994694 0.994773 0.82413
0.996437 0.994937 0.96817
1.00353 0.994906 0.988176
0.999986 0.994905 0.939277
0.999469 0.994841 0.892293
0.994721 0.994803 0.815019
0.998502 0.994888 0.974612
1.00099 0.996112 0.931312
0.997032 0.998301 0.888055
0.994739 0.994771 0.821575
0.995452 0.994906 0.967678
0.996918 0.997382 0.932796
0.994786 0.997966 0.872674
0.994815 0.994834 0.823479
1.00032 1.00452 0.99062
0.99991 1.00323 0.99173
0.999911 1.00205 0.992917
0.999339 1.00335 0.992511
1.00055 1.00407 0.989717
0.999962 1.00364 0.991233
1.00002 1.00313 0.991581
1.00081 1.0029 0.990794
1.00046 1.00344 0.990806
1.00006 1.00271 0.991896
1.00226 0.994787 0.992862
1.00405 0.995472 0.991287
1.00457 0.995741 0.990185
1.00093 0.998126 0.993783
1.00022 1.005 0.990977
0.999227 1.00463 0.991665
0.999721 1.00494 0.990174
0.999932 1.0051 0.989789
1.00001 0.994905 0.992851
0.999747 1.00499 0.990262
0.99947 1.00518 0.991409
1.00218 0.996723 0.994098
1.00048 1.00018 0.993882
0.997324 0.997518 0.993129
0.997658 0.996856 1.00081
0.998034 1.00319 0.994496
0.999898 1.00481 0.990172
0.998681 1.00515 0.992212
0.994825 0.994826 0.850706
0.994725 0.994842 0.843403
0.999807 0.994892 0.875301
0.999135 1.00284 0.992528
0.999341 1.00166 0.993887
0.997413 1.00053 0.997253
0.994677 0.994816 0.833471
0.997056 0.997336 0.934034
0.995194 0.995256 0.962596
0.995426 0.997324 0.99359
0.994793 0.997503 0.89585
0.994787 0.994803 0.836363
0.994897 0.994822 0.83672
0.997514 1.00353 0.996228
0.994796 0.994837 0.848101
0.994801 0.994791 0.834784
0.995358 1.00186 0.999009
0.995124 0.997313 0.971966
0.995074 0.998417 0.933235
0.994895 0.994857 0.837112
0.994882 0.999328 0.879437
0.995083 1.00483 0.999456
0.99479 0.994827 0.845613
0.994851 0.994813 0.839771
0.994806 0.994833 0.82429
0.994846 0.999407 0.990869
0.994882 0.99894 0.948052
0.995876 0.997789 0.885925
0.998537 1.00373 0.99507
0.996627 1.00418 0.996851
0.994981 1.0052 0.998811
1.00028 1.00478 0.989628
0.999171 1.00483 0.99125
0.996185 1.00462 0.996894
0.999571 1.00454 0.99092
0.996232 1.00497 0.996491
0.995386 1.00511 0.997838
0.99518 1.00527 0.997757
0.99652 1.00477 0.99582
0.9994 1.00476 0.990854
0.999461 1.00501 0.990838
0.999091 1.00437 0.992345
0.997601 1.00485 0.994193
0.999241 1.00468 0.991428
0.999071 1.00265 0.993579
1.00051 0.998514 0.995018
1.00235 1.00095 0.988657
1.00022 1.00162 0.992672
1.00154 1.00178 0.990658
1.00416 1.00207 0.986071
1.0052 1.00147 0.984554
1.00235 1.00199 0.989047
1.00341 1.00124 0.987114
1.00057 1.00503 0.989129
1.00058 1.00358 0.990686
0.999663 1.00179 0.993203
1.00023 1.00438 0.990291
0.999842 1.00503 0.989808
1.00019 1.0046 0.989911
1.00004 1.005 0.990079
1.00014 1.00414 0.990493
1.00011 1.00238 0.992217
1.00023 1.0035 0.991071
1.00014 1.00194 0.99264
1.00016 0.999039 0.996127
1.00014 1.00183 0.992783
1.00013 0.999021 0.995845
1.00012 0.997219 0.997641
1.00005 0.999006 0.995686
1.00005 0.997169 0.998426
1.00001 0.997149 0.999094
1.00046 1.00244 0.991472
1.0001 1.0007 0.993733
1.00027 1.00226 0.992174
1.00011 0.998055 0.996568
1.00003 1.00037 0.994283
1.00011 1.00177 0.992733
1.00004 0.996631 0.999267
1.00007 0.997958 0.996722
0.999961 1.00015 0.994695
1.00002 0.996613 0.999283
1.00005 0.997926 0.996771
0.999999 0.996625 0.999282
0.994824 0.99483 0.842147
0.994694 0.994824 0.840729
0.999805 0.994844 0.881988
1.00094 1.0027 0.990628
0.994819 0.994802 0.841274
0.99476 0.994783 0.834444
0.994718 0.994785 0.834472
0.99897 0.995193 0.973652
0.999335 0.994892 0.942921
0.996854 0.995435 0.87379
0.994725 0.994791 0.82826
0.996612 0.9949 0.964859
0.99702 0.999498 0.942988
0.99487 0.99918 0.875846
0.994807 0.99482 0.827927
0.994882 0.994869 0.960187
0.994879 0.998738 0.941927
0.995098 0.999978 0.882145
0.994959 0.994852 0.839513
0.999999 1.00477 0.990119
1.00015 1.00428 0.990432
1.00003 1.00302 0.991837
1.00062 1.00328 0.990498
1.00043 1.00423 0.989969
0.999949 1.00375 0.991417
1.00081 1.003 0.990764
1.00049 1.00347 0.990873
0.998994 0.995912 0.993048
1.00235 0.996363 0.994631
1.00026 1.0051 0.989527
1.00099 0.999887 0.993692
0.999705 1.00518 0.991301
1.00006 1.00507 0.990126
0.999689 1.00481 0.990231
0.9964 0.996573 0.993867
0.998885 1.00484 0.992352
0.998377 1.00323 0.994712
0.997698 0.997941 1.00098
0.99948 1.00483 0.991329
0.995462 0.999927 0.989743
0.995936 1.00124 0.999732
0.996631 1.00465 0.995738
0.998838 1.00451 0.992758
0.994784 0.994805 0.851298
0.99483 0.994824 0.849076
0.994719 0.994835 0.839866
0.997644 1.00359 0.996378
0.995491 1.00093 0.998018
0.994806 0.994832 0.850829
0.994872 0.999887 0.944588
0.995204 0.996751 0.969372
0.994949 0.99942 0.878266
0.994799 0.994787 0.835183
0.994857 0.994852 0.834337
0.995305 1.0047 0.999194
0.994794 0.994827 0.845529
0.994848 0.994816 0.841897
0.994811 0.999959 0.994521
0.994798 0.994823 0.828455
0.994862 0.997087 0.940992
0.995388 0.998226 0.888307
0.994875 1.00367 0.998425
0.994819 0.994847 0.850258
0.994799 0.994803 0.841983
0.994707 0.994771 0.828635
0.9949 0.999987 0.88187
0.9949 1.00038 0.977309
0.995345 0.998364 0.934088
0.996979 1.0045 0.99655
0.995254 1.00523 0.998724
0.994926 1.00517 0.998359
0.999404 1.00465 0.990833
0.996416 1.00509 0.99647
0.995332 1.00516 0.997813
0.9967 1.00464 0.995778
0.995245 1.0052 0.997828
0.997782 1.00173 0.997593
0.997834 1.00466 0.994047
0.999218 1.00481 0.991347
0.999078 1.00289 0.994031
0.999004 1.00333 0.991937
0.998624 0.999272 0.99755
1.00227 1.0005 0.989627
1.00409 1.00334 0.984038
1.00496 1.00235 0.98369
1.00209 1.00183 0.990173
1.00414 1.00227 0.98537
1.0052 1.00154 0.984549
1.00422 1.00054 0.986804
1.00488 1.00133 0.984897
1.00076 1.00479 0.988601
1.0023 1.00224 0.988886
1.00262 1.00121 0.987394
1.00024 1.00492 0.989362
1.00022 1.00504 0.989318
1.0003 1.00353 0.990965
0.999907 1.00505 0.989824
1.00023 1.00459 0.98992
1.00019 1.00298 0.991486
1.00025 1.00407 0.990508
1.00012 1.00242 0.9922
1.00012 0.999231 0.995322
1.00018 1.00198 0.992627
1.00018 0.999038 0.995445
1.00004 0.997201 0.999
1.00014 0.999033 0.99552
1.00009 0.99722 0.998333
1.00005 0.997179 0.999035
1.00046 1.00256 0.991321
1.00024 1.00106 0.993148
1.00042 1.00249 0.991608
1.00017 0.998192 0.996341
1.00014 1.0007 0.993662
1.00029 1.00227 0.992167
1.00006 0.996652 0.999234
1.00011 0.99803 0.996582
1.00004 1.00037 0.994137
1.00004 0.996608 0.999273
1.00008 0.997935 0.99673
1.00002 0.996637 0.999283
0.9948 0.994833 0.850244
0.994824 0.994833 0.842291
0.994687 0.994833 0.840798
1.00085 1.00273 0.990787
1.0007 1.00296 0.990602
1.00092 1.00241 0.991136
0.994865 0.994817 0.839084
0.994818 0.994794 0.841696
0.994757 0.994777 0.83443
0.996885 0.99487 0.966139
0.997066 0.995707 0.931763
0.994777 0.999901 0.894387
0.994823 0.994824 0.822862
0.995002 0.994834 0.963428
0.994999 0.999625 0.938606
0.995003 0.999056 0.878952
0.994906 0.994847 0.836541
0.994907 0.995463 0.960031
0.994879 0.998113 0.943339
0.995948 0.998149 0.885409
0.994847 0.994821 0.826718
1.00002 1.00352 0.991124
1.00029 1.00451 0.989918
1.00036 1.00408 0.990243
1.00075 1.00317 0.990444
1.00023 1.00437 0.990225
1.00083 1.0031 0.990734
0.996133 0.995331 0.994638
0.997182 0.998721 1.00126
0.999751 1.00455 0.990286
0.998909 1.0025 0.994896
0.998989 1.00468 0.992485
0.999212 1.00467 0.991447
0.998445 1.00493 0.992795
0.995313 0.999928 0.989697
0.996295 1.00499 0.996316
0.996474 1.00163 0.998885
0.998374 1.00452 0.993479
0.995011 1.00225 0.985918
0.995572 1.00415 0.995991
0.996206 1.0051 0.996637
0.99482 0.994825 0.851832
0.994785 0.994812 0.851126
0.994832 0.994821 0.847456
0.995384 1.00436 0.99888
0.99477 1.00031 0.990782
0.994794 0.994828 0.845455
0.994824 0.998874 0.940985
0.995751 0.997789 0.874186
0.994846 0.994815 0.844002
0.994815 0.994834 0.823756
0.99485 1.00354 0.998891
0.994815 0.994847 0.85108
0.994811 0.994798 0.842417
0.994893 0.99964 0.974614
0.994726 0.994771 0.822393
0.995401 0.999845 0.877386
0.995097 0.996634 0.946691
0.994914 1.00514 0.991932
0.994789 0.994841 0.85038
0.994777 0.994794 0.835469
0.994661 0.994771 0.837645
0.994759 0.997601 0.87236
0.994886 0.999516 0.942378
0.994895 1.00082 0.968624
0.995586 1.00512 0.998628
0.995042 1.00504 0.998384
0.997312 1.00225 0.997832
0.996949 1.0045 0.995736
0.995293 1.0052 0.99785
0.996479 1.0035 0.99752
0.998997 0.996912 1.00017
0.999066 1.00319 0.994472
1.00121 1.0024 0.991269
1.00239 1.00428 0.986479
1.00205 1.00011 0.990711
1.00411 1.00317 0.984303
1.0044 1.00425 0.982735
1.00495 1.00182 0.983923
1.00514 1.00175 0.98413
1.00489 1.00243 0.983673
1.00437 1.00238 0.984681
1.0051 1.00094 0.985697
1.00516 1.00164 0.984425
1.00248 1.00261 0.987644
1.00412 1.00065 0.987058
1.00447 1.00122 0.985244
1.00043 1.00504 0.98851
1.00103 1.00474 0.988573
1.00219 1.00256 0.988717
1.00032 1.00355 0.99081
1.00049 1.00474 0.989364
0.999972 1.00506 0.989506
1.00033 1.00442 0.98993
1.00026 1.00293 0.991487
1.00007 0.99963 0.995019
1.00018 1.00238 0.992185
1.00014 0.999268 0.995301
1.00003 0.997338 0.998968
1.00018 0.999068 0.995438
1.00009 0.997236 0.998308
1.00007 0.997214 0.998997
1.00052 1.00297 0.991087
1.00035 1.00128 0.992946
1.00055 1.00247 0.991386
1.00022 0.998406 0.996025
1.00024 1.00106 0.993233
1.0004 1.00251 0.991745
1.00008 0.996722 0.999182
1.00016 0.998163 0.996359
1.00018 1.00068 0.993591
1.00006 0.996656 0.999244
1.00011 0.998006 0.996596
1.00004 0.99662 0.999279
0.994823 0.994844 0.849722
0.994799 0.994847 0.850158
0.994819 0.994847 0.842515
1.00037 1.00418 0.989795
1.00112 1.00393 0.98972
1.0007 1.0028 0.990949
1.00063 1.00317 0.990509
1.00055 1.00259 0.991251
1.00036 1.00306 0.991104
1.00038 1.00227 0.991909
0.994832 0.994796 0.834029
0.994865 0.994819 0.841308
0.994813 0.994803 0.84213
0.994866 0.994844 0.833673
0.994935 0.994848 0.960471
0.994876 0.999942 0.934402
0.995168 0.997158 0.891691
0.994901 0.996011 0.959021
0.994893 0.999393 0.931893
0.995195 0.998043 0.888427
0.994851 0.994812 0.836471
0.995933 0.9967 0.9619
0.995027 0.999255 0.933728
0.995306 0.997512 0.871932
0.99474 0.994795 0.824322
0.998518 1.00482 0.992765
0.999872 1.00381 0.991263
1.0003 1.00466 0.989716
1.00079 1.00329 0.990393
0.994968 0.999859 0.989944
0.99699 1.00238 0.99792
0.999084 1.00482 0.991567
0.998292 1.00485 0.992836
0.996277 1.00521 0.996878
0.998329 1.00417 0.993419
0.996231 1.00493 0.996618
0.99663 1.00182 0.982559
0.994962 1.0051 0.996454
0.996371 1.00434 0.996409
0.994741 1.00406 0.982617
0.995498 1.00366 0.998601
0.99478 0.994808 0.851488
0.994824 0.994825 0.854682
0.994786 0.994823 0.850942
0.994824 1.00344 0.999319
0.994903 0.99902 0.978073
0.994809 0.994846 0.851951
0.99551 0.997466 0.934985
0.995324 0.99788 0.890864
0.994819 0.994806 0.842825
0.994712 0.994793 0.828961
0.994902 1.00444 0.992729
0.9948 0.994839 0.850316
0.994759 0.994789 0.83545
0.994895 1.00023 0.96878
0.99469 0.994785 0.827304
0.994951 0.99907 0.874875
0.995283 0.999106 0.931412
0.995387 1.00446 0.986547
0.994827 0.994824 0.842454
0.994665 0.994762 0.826975
0.996738 0.995618 0.891346
0.994842 0.999533 0.941861
0.994866 0.999984 0.961848
0.995214 1.00509 0.998701
0.996209 1.00312 0.997983
0.996519 0.999221 1.00117
0.995356 1.00514 0.997432
0.997491 0.998543 1.00032
1.00188 0.998118 0.994504
1.00343 1.00133 0.990605
1.00322 1.00392 0.985857
1.00345 1.00442 0.98374
1.00396 1.00313 0.984564
1.00452 1.00421 0.982639
1.00433 1.00429 0.98278
1.0051 1.0005 0.985064
1.00509 1.0011 0.98478
1.00493 1.00202 0.983904
1.00507 1.00165 0.984733
1.00509 1.00164 0.984159
1.00471 1.00258 0.983654
1.00468 1.00093 0.98625
1.0049 1.00108 0.985517
1.00513 1.00174 0.984303
1.00149 1.00488 0.987411
1.0025 1.00274 0.987729
1.00401 1.00071 0.987312
1.00038 1.00411 0.98985
1.00077 1.00501 0.988538
1.00121 1.00467 0.988546
1.00006 1.00002 0.994642
1.00038 1.00341 0.990809
1.00068 1.00468 0.989365
1.00029 1.00291 0.991489
1.00007 0.999676 0.994992
0.999972 0.997569 0.998913
1.00015 0.999295 0.99528
1.00002 0.997369 0.998955
1.00006 0.997234 0.998981
1.00007 1.00496 0.989807
1.00069 1.00352 0.990289
1.00043 1.00171 0.992409
1.00053 1.00291 0.991075
1.00024 0.998691 0.995693
1.00035 1.00131 0.99294
1.00055 1.00247 0.991451
1.00009 0.996878 0.999106
1.00021 0.998397 0.996044
1.00024 1.00108 0.993315
1.00008 0.996722 0.999199
1.00016 0.998148 0.996378
1.00006 0.996634 0.999255
0.994793 0.994827 0.845301
0.994807 0.994839 0.850585
0.994807 0.994839 0.850063
1.00045 1.00438 0.989789
1.00075 1.00356 0.98988
1.00003 1.00243 0.9909
1.00001 1.00448 0.989942
1.00125 1.00356 0.99047
1.0007 1.0033 0.990414
1.0004 1.00274 0.991366
1.00043 1.00304 0.991124
1.00036 1.00252 0.991935
0.999317 1.00406 0.992027
0.994756 0.994784 0.837053
0.994817 0.994792 0.834611
0.994864 0.994811 0.843469
0.994888 0.994822 0.837085
0.995796 0.998152 0.874189
0.994875 0.996354 0.957501
0.994887 0.998887 0.943313
0.994911 0.997223 0.958653
0.994893 0.99628 0.94505
0.994869 0.999515 0.880454
0.99476 0.994781 0.82302
0.994792 0.998177 0.963011
0.994847 1.00004 0.944631
0.994726 0.999308 0.893512
0.994684 0.994771 0.837396
0.998159 1.0033 0.99475
0.998303 1.00468 0.992894
0.999882 1.00384 0.991407
0.997175 1.00163 0.978887
0.994781 1.00517 0.997011
0.998192 1.00432 0.993355
0.996035 1.0051 0.996604
0.996691 1.00423 0.996363
0.995266 1.00337 0.998888
0.995066 1.00189 0.981844
0.995756 1.00195 0.999178
0.995775 1 0.987612
0.99482 0.99482 0.849696
0.994787 0.994817 0.851324
0.994826 0.994824 0.857547
0.994905 1.00356 0.99315
0.994865 0.99985 0.966007
0.994811 0.994842 0.850227
0.994913 0.999709 0.94224
0.994751 0.999806 0.89301
0.994741 0.994771 0.835512
0.994714 0.994797 0.816577
0.995625 1.00423 0.987244
0.994814 0.994831 0.842534
0.994689 0.994767 0.825565
0.995017 0.999594 0.962797
0.996918 0.997852 0.889108
0.995044 0.99946 0.936863
0.995091 1.0034 0.985077
0.994682 0.994794 0.830504
0.999191 0.994837 0.893361
0.996755 0.997316 0.933178
0.994867 0.996861 0.964679
0.995642 1.00393 0.998119
0.996238 0.999459 1.00116
0.998783 1.00244 0.99606
0.995972 1.00011 1.00046
1.00071 0.998672 0.995035
1.00331 0.99981 0.98928
1.00407 1.00344 0.98522
1.00347 1.00438 0.983626
1.00419 1.00177 0.984892
1.00472 1.0042 0.982547
1.00435 1.00391 0.98287
1.00485 1.00048 0.985645
1.00523 0.997993 0.987185
1.0052 0.999858 0.985444
1.00509 1.00038 0.985157
1.00511 1.00114 0.984895
1.0051 1.00113 0.984707
1.00493 1.00218 0.983883
1.00508 1.00157 0.984943
1.00486 1.00156 0.984768
1.00504 1.00155 0.98419
1.00346 1.00274 0.986424
1.00427 1.0013 0.986233
1.00474 1.00126 0.985335
1.00056 1.00495 0.988368
1.00158 1.00475 0.987436
1.00265 1.00287 0.987811
1.00005 1.00077 0.994781
1.00056 1.00409 0.98984
1.00109 1.00498 0.988567
0.999967 0.997926 0.997165
1.00006 1.00017 0.994931
1.00046 1.00329 0.990808
1.00008 0.999733 0.994965
0.999975 0.997619 0.998886
1.00002 0.997383 0.998941
1.00014 1.00508 0.989811
1.00054 1.00476 0.989547
0.999932 1.00496 0.989757
1.00048 1.00237 0.991704
1.00048 1.00388 0.990275
1.00021 0.999033 0.995404
1.00043 1.00169 0.992421
1.00063 1.00281 0.991061
1.00008 0.997098 0.999029
1.00024 0.998671 0.995708
1.00034 1.00133 0.992934
1.00009 0.996864 0.99913
1.0002 0.998378 0.996064
1.00008 0.99671 0.999215
0.99479 0.994823 0.851514
0.994803 0.994832 0.845218
0.994795 0.994849 0.851479
1.00054 1.00248 0.99075
1.00017 1.00476 0.989783
1.00063 1.00337 0.990046
1.00047 1.00452 0.989731
1.00069 1.00242 0.990947
1.00069 1.00317 0.991269
1.00225 1.00234 0.988927
0.998862 1.00488 0.991129
1.00051 1.00296 0.991145
1 1.00255 0.99196
0.999208 1.00394 0.991961
0.998352 1.00524 0.992583
0.99469 0.994797 0.831857
0.994783 0.994788 0.836598
0.994812 0.994786 0.83508
0.994749 0.99478 0.834523
0.994857 0.999473 0.879703
0.995401 0.998246 0.933707
0.99489 0.997616 0.957834
0.995037 0.997649 0.96297
0.994695 0.99478 0.826931
0.994867 0.997555 0.937567
0.994956 0.99989 0.878504
0.994896 0.996261 0.966969
0.994889 0.999927 0.945116
0.996961 0.996346 0.88867
0.999323 0.998437 0.997475
0.998182 1.00317 0.994712
0.998216 1.00447 0.993017
0.995233 1.00112 0.981652
0.994912 1.00299 0.999157
0.997082 1.00384 0.996325
0.996856 1.00182 0.999228
0.995237 0.9991 0.987751
0.99667 0.998429 0.992181
0.994722 0.994857 0.841488
0.99482 0.994811 0.851654
0.994791 0.994819 0.851117
0.995253 1.00414 0.987624
0.994864 0.999969 0.962667
0.994801 0.994837 0.842766
0.994831 0.999879 0.93319
0.996714 0.995064 0.87521
0.99472 0.994781 0.835684
0.994825 1.00402 0.985102
0.994694 0.99482 0.841281
0.999148 0.994796 0.877253
0.994853 0.996035 0.960416
0.996831 0.999131 0.943463
0.994797 1.0033 0.990257
0.9998 0.994847 0.872088
0.99953 0.994899 0.945178
0.994862 0.994838 0.959647
0.995927 0.999562 1.0012
0.998153 1.00152 0.995722
1.00159 1.00349 0.990574
0.999538 0.999375 0.995571
1.00272 1.00059 0.989129
1.00422 0.99971 0.987503
1.00345 1.00445 0.983511
1.00409 1.00199 0.984864
1.00498 0.997199 0.987879
1.00436 1.00347 0.982959
1.00472 1.00027 0.985674
1.00525 0.996284 0.988788
1.00522 0.996281 0.989224
1.00523 0.998226 0.987047
1.00525 0.997888 0.987314
1.00521 0.99977 0.98559
1.00519 0.999836 0.985604
1.00509 1.00028 0.985249
1.00518 1.00136 0.984507
1.00512 1.00105 0.984873
1.00511 1.00113 0.984632
1.0049 1.00107 0.985583
1.00491 1.00153 0.984948
1.00465 1.00144 0.9848
1.00181 1.00445 0.987161
1.00339 1.00284 0.986389
1.00383 1.00166 0.986218
0.99994 1.00191 0.992933
1.00104 1.00473 0.988372
1.0017 1.0047 0.987457
0.999786 0.998472 0.998656
1.00007 1.00079 0.993828
1.00075 1.00395 0.989833
0.999951 0.997906 0.998794
1.00005 1.00024 0.994515
0.999981 0.997679 0.998858
1.00154 1.00379 0.989005
1.00016 1.00497 0.989692
1.00056 1.00506 0.989162
1.00035 1.00336 0.99091
1.00042 1.00466 0.989519
1.00009 1.00484 0.989709
1.00016 0.999465 0.995076
1.00043 1.00239 0.991726
1.00029 1.004 0.990261
1.00006 0.997308 0.998964
1.00022 0.998977 0.99542
1.00043 1.00167 0.992432
1.00008 0.997062 0.999051
1.00024 0.998659 0.995723
1.00008 0.996838 0.999154
0.994709 0.994821 0.827016
0.994808 0.994824 0.851694
0.994811 0.994836 0.845149
1.00049 1.00283 0.990728
1.00379 1.00209 0.98796
1.00103 1.00348 0.99013
1.00048 1.0045 0.989519
1.00146 1.00228 0.990987
0.999809 1.00251 0.992058
0.999435 1.00475 0.990821
1.00153 1.00277 0.98933
1.00136 1.00431 0.988765
0.999737 0.999834 0.994961
0.999743 1.00387 0.991893
0.998595 1.00521 0.992393
0.999469 0.995068 0.870833
0.994665 0.994781 0.825546
0.994795 0.994792 0.836538
0.994708 0.994786 0.815967
0.994953 0.998749 0.894834
0.994802 0.99932 0.933342
0.995361 0.995636 0.960527
0.994854 0.996168 0.965366
0.997081 0.998437 0.887931
0.994984 0.9991 0.933798
0.994881 0.997224 0.967704
0.996694 0.996617 0.933044
1.00117 0.996194 0.998177
0.999258 0.999288 0.997427
0.998261 1.00312 0.994686
0.994803 0.99882 0.987991
0.997656 1.00147 0.999261
0.997144 0.998556 0.991909
0.997482 0.99602 0.990855
0.999809 0.99489 0.884766
0.994713 0.994844 0.839675
0.994829 0.994808 0.853495
0.99486 1.00408 0.985395
0.99485 0.99533 0.958869
0.994689 0.99483 0.841231
0.996928 0.995597 0.932974
0.999218 0.994832 0.893635
0.994874 1.00143 0.987203
0.999803 0.994861 0.8827
1.00046 0.995792 0.93252
0.994889 0.994812 0.962331
0.997197 0.998041 0.989064
0.999976 0.994888 0.945738
0.995496 0.99488 0.965936
0.997874 1.00064 0.995331
1.00086 1.0014 0.990683
1.00402 0.999043 0.990331
1.0022 1.0012 0.988991
1.00413 0.999543 0.987518
1.00512 0.996154 0.989278
1.00408 1.00213 0.984839
1.00494 0.997599 0.987813
1.00521 0.995223 0.989867
1.00463 1.00005 0.985702
1.00525 0.996373 0.988734
1.00523 0.995149 0.990192
1.00521 0.995568 0.990202
1.00522 0.996182 0.989407
1.0052 0.996779 0.988955
1.00526 0.998617 0.986927
1.00522 0.998295 0.987151
1.00526 0.99779 0.987445
1.00525 1.00042 0.985274
1.00522 0.999819 0.985549
1.00518 0.999797 0.985764
1.00516 1.00136 0.984822
1.00516 1.00139 0.984556
1.00509 1.00101 0.984856
1.0031 1.00301 0.986561
1.00473 1.00123 0.985552
1.00473 1.00153 0.984951
1.00024 1.00271 0.991576
1.00192 1.00433 0.987181
1.0034 1.00272 0.986354
0.99986 0.998874 0.998432
1.00007 1.00177 0.992891
1.00143 1.00463 0.988374
0.99988 0.998471 0.997724
1.0001 1.00087 0.993833
0.999964 0.998033 0.998713
1.00298 1.00188 0.988205
1.00096 1.00383 0.989231
1.0005 1.00508 0.988838
1.00021 1.00488 0.989571
1.00035 1.00506 0.989165
1.00046 1.00411 0.990059
1.00008 1.00017 0.994543
1.0003 1.00343 0.990904
1.0002 1.00476 0.989492
1.00002 0.997551 0.998872
1.00014 0.999434 0.995097
1.00038 1.00244 0.991748
1.00005 0.997276 0.998983
1.00023 0.998934 0.995438
1.00008 0.997036 0.999074
0.9998 0.994845 0.882341
0.994698 0.994834 0.832065
0.994819 0.994823 0.851856
1.00038 1.00325 0.990704
1.00098 1.00416 0.989127
1.00297 1.00264 0.988285
1.00477 1.00364 0.983479
1.00102 1.00366 0.989076
0.999633 1.0048 0.990528
1.00105 1.00329 0.989735
1.0007 1.00426 0.989118
1.00316 1.00058 0.98762
1.00179 0.999739 0.992477
1.00368 0.995106 0.992784
1.00041 0.999487 0.994846
0.999336 1.0045 0.992207
0.998624 0.994873 0.943598
0.999693 0.994777 0.875709
0.994653 0.994783 0.829866
0.99711 0.996862 0.874709
0.9949 0.999889 0.94214
0.994853 0.995492 0.966188
0.994892 0.99689 0.969343
0.997192 0.999263 0.94474
0.995791 0.995305 0.969087
1.00062 0.99584 0.998033
1.0005 0.996641 0.998212
0.99907 1.00014 0.997371
0.997823 0.998038 0.991739
0.998112 0.996926 0.991009
0.999967 0.994897 0.93574
0.999805 0.994882 0.889754
0.994698 0.99483 0.837961
0.994901 0.999837 0.983936
0.99493 0.994823 0.959739
0.999803 0.994845 0.882421
0.999298 0.994881 0.943732
0.996775 0.997977 0.989375
1.00076 0.994896 0.942666
0.996463 0.994889 0.96352
1.00072 0.99536 0.989317
0.998695 0.994875 0.973384
0.999871 0.999394 0.990882
1.0036 0.997502 0.990319
1.00482 0.995247 0.99152
1.0039 0.99938 0.987528
1.00498 0.996152 0.989146
1.00521 0.994896 0.990354
1.00483 0.998045 0.987748
1.00521 0.995279 0.989813
1.00523 0.994907 0.990422
1.00525 0.996483 0.98868
1.00523 0.995227 0.990155
1.00522 0.995023 0.990516
1.00521 0.995434 0.990267
1.0052 0.995768 0.990076
1.00522 0.996074 0.98959
1.0052 0.996783 0.988947
1.00523 0.997491 0.988179
1.00528 0.999478 0.986244
1.00525 0.998679 0.986905
1.00522 0.998363 0.987255
1.00527 1.00108 0.984707
1.00526 1.00048 0.985159
1.00523 0.999863 0.985505
1.00388 1.00191 0.986225
1.00502 1.00141 0.984844
1.0051 1.00142 0.984604
1.00092 1.00279 0.990401
1.00298 1.00314 0.986565
1.00445 1.00154 0.985524
0.999981 0.999664 0.998059
1.00038 1.00259 0.99156
1.00214 1.00424 0.987203
0.999948 0.999058 0.998311
1.00024 1.00157 0.992846
0.999965 0.998486 0.998511
1.00434 1.00222 0.985032
1.00305 1.00164 0.98809
1.00122 1.00442 0.987856
1.00042 1.00374 0.989464
1.00053 1.00501 0.988706
1.00067 1.00472 0.989083
1.00023 1.00508 0.989166
1.00031 1.00424 0.990036
1.00011 1.00082 0.993839
0.999979 0.997976 0.998703
1.00006 1.00009 0.994565
1.00025 1.00348 0.9909
1.00001 0.997536 0.998905
1.00014 0.999383 0.995113
1.00006 0.997246 0.999002
0.999978 0.994895 0.947365
0.999818 0.994865 0.882025
0.99468 0.994824 0.826912
1.00092 1.00479 0.98812
1.00233 1.0029 0.988617
1.00193 1.00354 0.988579
1.0043 1.00355 0.984209
1.00483 1.00202 0.984165
1.00318 1.00217 0.985814
1.00019 1.00447 0.989458
1.00395 1.00062 0.986533
1.0017 0.999712 0.992688
1.00337 0.997615 0.990072
1.00436 0.995634 0.991803
1.00323 0.996035 0.992759
1.00329 0.995317 0.992989
1.00001 0.99984 0.99473
0.996051 0.994862 0.967357
0.999587 0.996068 0.939714
0.99848 0.994839 0.89069
0.996892 0.997507 0.932773
0.994894 0.996979 0.969842
0.995453 0.995861 0.974798
0.999326 0.995902 0.99265
1.00109 0.995344 0.99768
0.999863 0.996915 0.998263
0.999054 0.998443 0.991193
0.996993 0.9963 0.968409
1.00009 0.994889 0.948101
0.999807 0.994874 0.874768
0.99619 0.997666 0.989654
0.996924 0.994865 0.964532
0.999987 0.994886 0.939363
1.00013 0.994909 0.989518
0.998524 0.995008 0.972793
1.00302 0.994786 0.990944
1.00298 0.997349 0.985651
1.003 0.995982 0.99028
1.00452 0.995176 0.991522
1.00511 0.994766 0.99097
1.00496 0.99621 0.989015
1.0052 0.994898 0.990312
1.00525 0.994892 0.990488
1.00522 0.995337 0.989758
1.00523 0.994914 0.990398
1.00526 0.994914 0.990505
1.00523 0.99528 0.990117
1.00521 0.995024 0.990495
1.00522 0.995049 0.990513
1.0052 0.995309 0.99033
1.0052 0.995646 0.990142
1.00521 0.996652 0.98921
1.0052 0.996791 0.988938
1.00523 0.997549 0.988158
1.00526 0.998728 0.987105
1.00531 1.00038 0.985345
1.00528 0.999597 0.986086
1.00525 0.998744 0.986882
1.00453 1.00101 0.986015
1.00525 1.00109 0.98474
1.00527 1.00054 0.985044
1.00144 1.00241 0.989825
1.00378 1.00212 0.986204
1.00486 1.00146 0.984862
1.00032 1.00027 0.997568
1.001 1.00264 0.990393
1.00287 1.00325 0.986567
1.00014 0.999815 0.997863
1.00042 1.00245 0.991552
1.00006 0.999191 0.998159
1.00471 1.0019 0.984579
1.00466 1.0021 0.985184
1.00361 1.00242 0.985936
1.00295 1.00179 0.987974
1.00145 1.00417 0.987638
1.00142 1.00486 0.987885
1.00047 1.00498 0.988575
1.00061 1.00475 0.989077
1.00013 1.00167 0.993034
1.00022 1.00441 0.990013
1.00006 1.00084 0.993868
0.999933 0.998533 0.998501
0.999963 0.997916 0.998767
1.00004 1.00007 0.99459
1 0.997483 0.998933
0.996972 0.994882 0.968629
0.999976 0.994875 0.935107
0.999811 0.994854 0.892598
1.00517 0.999754 0.985689
1.00287 1.00353 0.988093
1.00379 1.00348 0.98494
1.00384 1.00195 0.986119
1.00486 1.00222 0.984062
1.00441 0.999332 0.987456
1.00471 1.00146 0.985444
1.00139 0.99918 0.9929
1.00383 0.998098 0.989705
1.00424 0.995772 0.991155
1.00478 0.995592 0.990092
1.00357 0.995328 0.993267
1.00327 0.995648 0.9928
1.00308 0.995526 0.993187
0.999215 0.995926 0.991
0.995902 0.994868 0.96569
0.999124 0.994863 0.935683
0.995004 0.99642 0.973254
0.999044 0.99576 0.995134
1.00103 0.994944 0.997279
1.00146 0.996653 0.983167
0.997025 0.995527 0.969064
0.999974 0.9949 0.93574
0.999306 0.99484 0.989766
0.998806 0.995183 0.971954
1.00212 0.995089 0.991415
1.00294 0.996797 0.986401
1.00402 0.994899 0.991384
1.00459 0.997429 0.990762
1.00428 0.994999 0.991513
1.0051 0.994792 0.990859
1.00528 0.994814 0.990479
1.0052 0.994899 0.990269
1.00524 0.994887 0.990481
1.00529 0.994885 0.990456
1.00523 0.994918 0.990374
1.00525 0.994912 0.99051
1.00524 0.994928 0.990625
1.0052 0.995025 0.990474
1.00523 0.995047 0.990495
1.00522 0.995664 0.990064
1.0052 0.995525 0.990209
1.00522 0.996501 0.989374
1.00526 0.998 0.987907
1.00523 0.997605 0.988137
1.00526 0.998686 0.987145
1.0053 1.00005 0.985784
1.00483 1.00052 0.986009
1.0053 1.00048 0.985246
1.00528 0.999712 0.985928
1.00205 1.00148 0.989726
1.00445 1.00114 0.986024
1.00523 1.0011 0.984773
1.00061 1.00054 0.997237
1.00165 1.0021 0.989822
1.00369 1.00229 0.986188
1.00047 1.00035 0.997423
1.00114 1.00246 0.990386
1.00031 1 0.997672
1.00525 1.00087 0.984772
1.00497 1.00189 0.984497
1.00498 1.00137 0.98488
1.00508 1.00195 0.985336
1.00392 1.00243 0.985749
1.0024 1.00408 0.98697
1.00175 1.00382 0.98742
1.00113 1.00505 0.987908
1.00033 1.00224 0.992042
1.00046 1.00482 0.98907
1.00006 1.00155 0.993066
0.999913 0.999128 0.998249
1 1.00077 0.993897
0.999921 0.998411 0.998574
0.999951 0.997843 0.998824
1.00086 0.994869 0.987679
0.99676 0.994895 0.965381
0.99997 0.994886 0.947264
1.00505 0.998333 0.987532
1.00523 0.997902 0.987654
1.00516 0.999554 0.985945
1.00448 1.00149 0.986418
1.00491 1.00246 0.983956
1.00445 0.999142 0.987827
1.00511 0.995862 0.989199
1.00443 0.998104 0.989353
1.00419 0.99627 0.990508
1.00471 0.996127 0.990348
1.00512 0.995077 0.990623
1.00386 0.995482 0.99224
1.00324 0.995628 0.993107
1.00355 0.995212 0.992851
0.999843 0.995758 0.991124
0.995715 0.994861 0.964147
0.999085 0.995678 0.997722
1.00444 0.995178 0.990982
1.00129 0.996702 0.983331
0.99706 0.994877 0.967083
1.00173 0.99481 0.991855
1.00287 0.996186 0.987177
1.00406 0.994823 0.992012
1.00462 0.996625 0.99084
1.00528 0.994855 0.990786
1.00537 0.994927 0.990983
1.00508 0.994808 0.990752
1.0053 0.99483 0.99045
1.00531 0.994875 0.990469
1.00522 0.994882 0.990474
1.00529 0.994886 0.990475
1.00526 0.994892 0.990622
1.00524 0.994911 0.990515
1.00525 0.994926 0.990615
1.00524 0.995187 0.990548
1.00523 0.995042 0.990476
1.00522 0.995692 0.990044
1.00526 0.997273 0.988581
1.00522 0.996348 0.989538
1.00525 0.997926 0.987973
1.0053 0.999646 0.986173
1.00526 0.998647 0.987184
1.0053 0.999981 0.985865
1.00493 1.00032 0.986074
1.00239 1.00074 0.989844
1.00481 1.00057 0.986014
1.0053 1.00059 0.985147
1.00076 1.00059 0.997097
1.00209 1.00142 0.989718
1.00434 1.00133 0.986033
1.00067 1.00057 0.99717
1.00177 1.00191 0.989819
1.00056 1.00046 0.997299
1.00528 0.999231 0.986296
1.00524 1.00075 0.984937
1.00517 1.001 0.984991
1.00516 1.00182 0.984415
1.00507 1.00131 0.984913
1.00328 1.00263 0.986731
1.00425 1.00237 0.985564
1.00228 1.00396 0.986982
1.00063 1.00279 0.990929
1.00086 1.00512 0.987931
1.00019 1.00239 0.992076
0.99998 0.999891 0.997911
1.00002 1.0016 0.993098
0.99987 0.999039 0.998347
0.999899 0.998322 0.998644
1.00431 0.994848 0.992157
1.00095 0.994865 0.985592
0.996601 0.994913 0.964495
1.00514 0.997219 0.988655
1.00504 0.997906 0.987816
1.00528 0.99665 0.988855
1.00523 0.997921 0.987629
1.00517 0.999354 0.986197
1.00522 0.995287 0.989794
1.00452 0.999076 0.988188
1.00512 0.996237 0.989162
1.00525 0.994881 0.99042
1.00459 0.996466 0.990603
1.00507 0.995174 0.990367
1.00369 0.995504 0.992463
1.00267 0.995921 0.992949
1.00027 0.995535 0.991105
1.00533 0.994906 0.990737
1.0044 0.996172 0.991174
1.00116 0.996954 0.983529
1.004 0.994794 0.992624
1.00462 0.995835 0.990923
1.00527 0.994838 0.990855
1.00538 0.994923 0.990922
1.00533 0.994905 0.990812
1.00531 0.99485 0.990422
1.0053 0.994883 0.990482
1.00525 0.99491 0.990731
1.00528 0.994889 0.990494
1.00526 0.994894 0.990618
1.00526 0.994957 0.990794
1.00525 0.994925 0.990604
1.00524 0.995188 0.990524
1.00525 0.996545 0.989332
1.00523 0.99572 0.990023
1.00525 0.997294 0.988588
1.00532 0.999228 0.98662
1.00525 0.997851 0.98804
1.0053 0.999647 0.986198
1.00494 1.00026 0.986128
1.0053 0.999908 0.985945
1.00493 1.00032 0.986081
1.00248 1.00034 0.991675
1.00108 1.00018 0.993889
1.00243 1.00072 0.99063
1.00478 1.00062 0.986018
1.00078 1.00061 0.997068
1.00222 1.00123 0.989707
1.00071 1.00062 0.997108
1.00526 0.996436 0.989315
1.00528 0.998099 0.987598
1.00528 0.999234 0.986463
1.00526 1.00041 0.985419
1.00522 1.00065 0.985103
1.00521 1.00101 0.984937
1.00396 1.00145 0.986584
1.00515 1.00129 0.984945
1.0034 1.00225 0.986718
1.00124 1.00264 0.990026
1.00217 1.0039 0.986992
1.00058 1.00291 0.990919
1.00019 1.00058 0.997473
1.00008 1.00241 0.992107
0.999902 0.999672 0.998046
0.99985 0.998889 0.998433
1.00533 0.994872 0.99067
1.00452 0.994834 0.991909
1.00129 0.994858 0.983561
1.00526 0.995812 0.989575
1.00509 0.997167 0.98853
1.00507 0.997451 0.988107
1.00527 0.996797 0.988844
1.00523 0.997926 0.987604
1.00531 0.994891 0.990501
1.00523 0.995255 0.989814
1.00512 0.996627 0.989126
1.00524 0.994884 0.990441
1.00504 0.995251 0.990111
1.00364 0.995554 0.992691
1.0053 0.994931 0.990875
1.00534 0.994913 0.990918
1.00438 0.996831 0.991368
1.00526 0.994819 0.990911
1.0054 0.994919 0.990865
1.00533 0.994903 0.990773
1.00523 0.994947 0.990999
1.0053 0.994891 0.990495
1.00525 0.99491 0.990701
1.00525 0.994922 0.99095
1.00527 0.994895 0.990614
1.00526 0.994947 0.990773
1.00524 0.995934 0.989991
1.00523 0.995189 0.990499
1.00526 0.996572 0.989328
1.00532 0.998838 0.987065
1.00525 0.997313 0.988595
1.00532 0.999228 0.986643
1.00494 1.00021 0.986201
1.0053 0.999647 0.986223
1.00496 1.00024 0.986142
1.00257 1.00008 0.991794
1.00495 1.00032 0.986087
1.00267 1.00023 0.991563
1.00113 0.999977 0.994057
1.00082 1.00046 0.995528
1.00263 1.00067 0.991256
1.00078 1.00066 0.997051
1.00523 0.995498 0.99036
1.00525 0.997755 0.987967
1.00526 0.996248 0.989504
1.00531 0.999745 0.986001
1.00528 0.998167 0.98758
1.00528 0.999243 0.986629
1.00527 1.00042 0.985367
1.00458 1.0006 0.986353
1.00524 1.00102 0.984883
1.00408 1.0012 0.98658
1.00181 1.0019 0.98973
1.00351 1.00187 0.986708
1.00107 1.00281 0.990022
1.00037 1.00108 0.99715
1.00039 1.00305 0.990922
1.00003 1.00043 0.997649
0.999823 0.999545 0.998169
1.00529 0.994863 0.990732
1.00531 0.994871 0.990661
1.00462 0.99483 0.991646
1.00526 0.994983 0.990526
1.00524 0.995857 0.989578
1.00501 0.997131 0.988411
1.00527 0.996949 0.988834
1.00529 0.994919 0.990473
1.00524 0.99523 0.989832
1.0052 0.994888 0.990462
1.00525 0.994956 0.990993
1.0053 0.994929 0.990862
1.00536 0.994921 0.991098
1.00519 0.994965 0.991126
1.00533 0.994902 0.990735
1.00523 0.994949 0.990985
1.0052 0.994952 0.991074
1.00526 0.994911 0.990672
1.00524 0.994922 0.990943
1.00524 0.995553 0.99047
1.00525 0.994938 0.990752
1.00525 0.995949 0.989983
1.00529 0.998497 0.987496
1.00527 0.9966 0.989324
1.00532 0.998833 0.987084
1.00492 1.00013 0.986334
1.00532 0.999227 0.986666
1.00496 1.00019 0.986218
1.0026 1.00005 0.991764
1.00499 1.00021 0.986155
1.00273 1.00001 0.991657
1.00118 0.999866 0.994096
1.00285 1.00012 0.99146
1.00074 1.00015 0.994316
1.00028 1.0008 0.997488
1.00523 0.995388 0.990361
1.00526 0.996971 0.98888
1.00524 0.99558 0.990178
1.00533 0.999413 0.986431
1.00527 0.997449 0.988215
1.00525 0.996065 0.989693
1.00495 1.00006 0.9863
1.00531 0.999752 0.985962
1.00528 0.998228 0.987561
1.00528 1.00042 0.985314
1.00463 1.0005 0.986344
1.00215 1.00119 0.98983
1.0042 1.00095 0.986576
1.00167 1.00209 0.989746
1.00046 1.00119 0.997058
1.00103 1.00295 0.990009
1.0003 1.00093 0.997259
0.999932 1.00021 0.997812
1.00522 0.994891 0.99097
1.00528 0.994864 0.990709
1.00531 0.99487 0.990654
1.00527 0.995007 0.990543
1.00522 0.995899 0.989581
1.00529 0.994941 0.990444
1.00522 0.994959 0.991062
1.00525 0.994953 0.990999
1.00529 0.994926 0.990849
1.00519 0.994966 0.991126
1.00516 0.994955 0.991227
1.00524 0.99495 0.990972
1.00521 0.994953 0.991081
1.00524 0.995375 0.990723
1.00524 0.994923 0.990937
1.00523 0.995552 0.990467
1.00527 0.998219 0.987823
1.00527 0.995954 0.989974
1.00528 0.998487 0.987513
1.00489 1.00002 0.986517
1.00532 0.998828 0.987103
1.00494 1.00012 0.986349
1.00257 1.00015 0.991701
1.00499 1.00016 0.986234
1.00275 1 0.991614
1.00123 0.999885 0.994018
1.00287 0.999953 0.991529
1.00084 0.999919 0.994378
1.00037 1.00033 0.994559
1.00523 0.995014 0.990873
1.00527 0.996634 0.989213
1.00525 0.995236 0.990448
1.00533 0.998727 0.987164
1.00525 0.997087 0.988739
1.00526 0.995658 0.989995
1.00504 0.999883 0.986366
1.00533 0.999161 0.98661
1.00528 0.997145 0.988464
1.00242 1.00044 0.990067
1.00495 1.00004 0.986293
1.00531 0.999761 0.985924
1.00469 1.00041 0.986337
1.0021 1.00127 0.989845
1.00057 1.00109 0.99707
1.00153 1.00228 0.989763
1.00044 1.00112 0.997085
1.00016 1.00083 0.997399
1.00521 0.994915 0.991074
1.00522 0.9949 0.990933
1.00527 0.994865 0.990687
1.00527 0.995037 0.990559
1.0052 0.99496 0.991162
1.00521 0.994959 0.991069
1.00525 0.994949 0.991004
1.00519 0.994966 0.991127
1.00517 0.994955 0.99121
1.00523 0.995734 0.990389
1.00521 0.994954 0.991088
1.00522 0.995613 0.990483
1.00528 0.997628 0.988465
1.00522 0.995561 0.990465
1.00527 0.998214 0.987829
1.00487 0.999852 0.986723
1.00527 0.998489 0.987528
1.0049 1 0.986526
1.00257 1.00022 0.990146
1.00495 1.0001 0.986365
1.0027 1.00011 0.990804
1.00105 0.999954 0.997089
1.00288 0.999969 0.991466
1.00091 0.999875 0.994308
1.00052 0.999958 0.994642
1.00524 0.995 0.990981
1.00527 0.99614 0.989766
1.00523 0.995102 0.990785
1.00531 0.998262 0.987637
1.00526 0.996641 0.989176
1.00526 0.995085 0.990535
1.00503 0.999627 0.986581
1.00533 0.998721 0.987174
1.00525 0.9972 0.988597
1.00259 0.999927 0.99029
1.00502 0.999785 0.98641
1.00532 0.9989 0.98679
1.00073 1.00069 0.997146
1.00244 1.00042 0.990075
1.00495 1.00001 0.986284
1.00204 1.00132 0.989862
1.00057 1.00102 0.997059
1.00041 1.00106 0.997118
1.00522 0.994953 0.991072
1.0052 0.994918 0.991078
1.00523 0.994908 0.990895
1.00524 0.995741 0.990363
1.0052 0.994959 0.991166
1.0052 0.994958 0.991075
1.00518 0.994955 0.991194
1.00523 0.995728 0.990392
1.00531 0.997706 0.988431
1.00521 0.995847 0.990243
1.00529 0.997945 0.98813
1.00483 0.999449 0.987139
1.00527 0.998197 0.987836
1.00488 0.999842 0.986723
1.00254 1.00015 0.990274
1.00491 0.999988 0.986536
1.00258 1.0002 0.990151
1.001 1.00001 0.997075
1.00273 1.00009 0.990033
1.00091 0.999955 0.995716
1.0006 0.999845 0.994596
1.00528 0.994945 0.990929
1.00529 0.996025 0.989952
1.00524 0.994966 0.99099
1.0053 0.998371 0.987557
1.00527 0.996224 0.989689
1.00523 0.995191 0.990698
1.00498 0.999549 0.986748
1.00531 0.998514 0.987405
1.00525 0.996646 0.989139
1.00267 0.999781 0.990333
1.005 0.999616 0.986595
1.00533 0.998717 0.987185
1.00092 1.00025 0.997178
1.00262 0.999902 0.990295
1.005 0.999685 0.986452
1.00074 1.00068 0.997111
1.00245 1.0004 0.990083
1.00052 1.00099 0.997073
1.00523 0.99578 0.990299
1.00523 0.994958 0.991056
1.00519 0.994922 0.991081
1.0053 0.997654 0.988514
1.00524 0.99573 0.990366
1.0052 0.994958 0.99117
1.00523 0.995721 0.990394
1.00531 0.99768 0.988438
1.00478 0.999303 0.987371
1.0053 0.998268 0.987794
1.00485 0.999562 0.987022
1.0025 1.00004 0.990452
1.00489 0.999829 0.986723
1.00252 1.00016 0.990281
1.00095 1.00002 0.997071
1.00258 1.00019 0.990155
1.00098 1.00002 0.997068
1.001 0.999917 0.994087
1.00529 0.99599 0.989939
1.00529 0.994938 0.990901
1.00528 0.998163 0.987828
1.00528 0.996029 0.989963
1.00524 0.994929 0.990997
1.00492 0.99974 0.986754
1.0053 0.998379 0.987552
1.00526 0.996307 0.989612
1.00267 0.999849 0.990297
1.00496 0.999676 0.986667
1.0053 0.998771 0.987173
1.00104 1 0.997138
1.00269 0.999776 0.990333
1.00498 0.999599 0.986608
1.0009 1.00029 0.997168
1.00264 0.999892 0.990298
1.00075 1.00067 0.997078
1.00526 0.997711 0.988462
1.00523 0.995802 0.990287
1.00524 0.994977 0.991039
1.00476 0.999237 0.987479
1.0053 0.99763 0.98852
1.00523 0.995719 0.990368
1.00531 0.997658 0.988445
1.0048 0.999294 0.987342
1.00242 0.99999 0.990651
1.00486 0.999675 0.986904
1.00248 1.00005 0.990459
1.00092 1.00002 0.997096
1.00252 1.00017 0.990288
1.00093 1.00004 0.997083
1.00097 1.00003 0.997067
1.00526 0.997982 0.988071
1.00528 0.995828 0.990156
1.0053 0.994922 0.990874
1.00485 0.999665 0.986966
1.00529 0.998171 0.987819
1.00527 0.996036 0.989975
1.0026 0.999965 0.990328
1.00489 0.99976 0.98675
1.0053 0.998387 0.987547
1.00106 0.999935 0.997085
1.00268 0.999864 0.990294
1.00493 0.999797 0.986586
1.00102 1.00005 0.997156
1.0027 0.999788 0.990333
1.00092 1.00029 0.997149
1.00476 0.999508 0.987262
1.00527 0.997569 0.988577
1.00523 0.995813 0.990274
1.00238 0.999916 0.990808
1.00477 0.999223 0.987468
1.0053 0.997603 0.988526
1.00482 0.999281 0.987314
1.00242 0.999965 0.990658
1.00087 1.00002 0.997119
1.00246 1.00006 0.990467
1.0009 1.00003 0.997099
1.00089 1.00006 0.997093
1.00479 0.999573 0.987163
1.00527 0.997796 0.988276
1.00527 0.995673 0.990372
1.00262 1.00001 0.991795
1.00482 0.999673 0.986967
1.00529 0.99818 0.987809
1.001 0.999959 0.99707
1.00261 0.999984 0.990326
1.00487 0.99978 0.986745
1.00106 0.999962 0.997106
1.00268 0.999885 0.990291
1.00101 1.00007 0.997168
1.00246 0.999915 0.990716
1.00475 0.999377 0.987363
1.00527 0.997423 0.988692
1.0008 0.999986 0.99717
1.00237 0.999915 0.990803
1.00478 0.999212 0.987458
1.00242 0.999942 0.990661
1.00085 1.00001 0.997135
1.00088 1.00004 0.997109
1.00261 0.999961 0.991907
1.00478 0.999576 0.987162
1.00527 0.997607 0.988481
1.00048 0.999998 0.997571
1.00251 1.00001 0.990477
1.00481 0.999678 0.986968
1.00101 0.999968 0.997081
1.00261 1 0.990322
1.00106 0.999982 0.997124
1.00079 0.999958 0.994432
1.00248 0.999917 0.991393
1.00475 0.999245 0.987463
1.00083 0.999989 0.997176
1.00237 0.999918 0.990806
1.00086 0.999999 0.997148
1.00034 0.999989 0.994868
1.00252 0.99995 0.991291
1.00476 0.999584 0.987161
1.00069 0.999989 0.995923
1.00251 1.00001 0.990494
1.00103 0.999976 0.997093
1.00082 0.999976 0.99717
1.00237 0.999909 0.990816
1.00079 0.99999 0.997174
1.0006 0.999972 0.996026
1.00243 0.999943 0.990707
1.00095 0.999984 0.997099
1.00083 0.999975 0.997182
1.00085 0.999978 0.997148

TENSORS stress float
0.00203209 -0.000134276 0.000232538
-0.000134276 0.000921082 -3.72908e-05
0.000232538 -3.72908e-05 0.000896477
0.0063089 5.97366e-06 0.00025381
5.97366e-06 0.00357587 2.75418e-05
0.00025381 2.75418e-05 0.00357465
0.00173465 -6.61165e-05 0.000100096
-6.61165e-05 0.000737732 -1.48826e-05
0.000100096 -1.48826e-05 0.000702827
0.0020891 -7.72046e-05 0.000227334
-7.72046e-05 0.000931722 -2.18905e-05
0.000227334 -2.18905e-05 0.00091511
0.00208526 -0.000118859 0.000227707
-0.000118859 0.000944032 -3.29148e-05
0.000227707 -3.29148e-05 0.000922515
0.00197467 -0.000134646 0.00023922
-0.000134646 0.000887056 -3.83685e-05
0.00023922 -3.83685e-05 0.000863093
0.00172644 -0.000119622 4.34044e-05
-0.000119622 0.000647182 -1.22741e-05
4.34044e-05 -1.22741e-05 0.000544805
0.00623475 -2.89602e-06 -6.99249e-06
-2.89602e-06 0.00352052 -8.39457e-07
-6.99249e-06 -8.39457e-07 0.00352411
0.0061587 0.000172347 0.000127299
0.000172347 0.00346028 1.10697e-05
0.000127299 1.10697e-05 0.0034385
0.00603382 -8.26472e-05 6.14209e-05
-8.26472e-05 0.00338543 2.9722e-06
6.14209e-05 2.9722e-06 0.0033637
0.00178158 0.000172054 0.00024113
0.000172054 0.000759448 2.78041e-05
0.00024113 2.78041e-05 0.000755354
0.000543753 0.000239264 2.62715e-05
0.000239264 -5.39994e-05 1.831e-05
2.62715e-05 1.831e-05 -0.000173722
0.00173895 -3.45545e-05 0.000228509
-3.45545e-05 0.000711678 3.58516e-06
0.000228509 3.58516e-06 0.000710206
0.00140663 -1.40967e-06 5.50419e-05
-1.40967e-06 0.000529567 1.52035e-06
5.50419e-05 1.52035e-06 0.000486613
0.00148724 -6.48887e-05 -4.88602e-05
-6.48887e-05 0.000591903 8.59199e-06
-4.88602e-05 8.59199e-06 0.000544281
0.00174373 -7.82856e-05 7.55457e-05
-7.82856e-05 0.000734786 -4.49461e-06
7.55457e-05 -4.49461e-06 0.000702956
0.00173803 -5.22092e-05 0.000108352
-5.22092e-05 0.000747332 -1.55747e-05
0.000108352 -1.55747e-05 0.000708718
0.00174706 -7.6472e-05 8.9145e-05
-7.6472e-05 0.000737231 -1.17315e-05
8.9145e-05 -1.17315e-05 0.000705754
0.00177942 -0.000156307 -3.76951e-05
-0.000156307 0.000676109 5.01934e-06
-3.76951e-05 5.01934e-06 0.000582694
0.00592375 -0.000132491 0.000290886
-0.000132491 0.00332543 -1.13031e-05
0.000290886 -1.13031e-05 0.00333903
0.0020297 -5.58667e-05 0.000226431
-5.58667e-05 0.000894362 -1.63053e-05
0.000226431 -1.63053e-05 0.000879875
0.00211402 -9.94194e-05 0.000227272
-9.94194e-05 0.000952363 -2.76361e-05
0.000227272 -2.76361e-05 0.000933802
0.00169593 -0.000127457 6.44026e-05
-0.000127457 0.000614283 -9.75537e-06
6.44026e-05 -9.75537e-06 0.000523755
0.00172389 -0.000128243 5.29326e-05
-0.000128243 0.000633498 -1.16631e-05
5.29326e-05 -1.16631e-05 0.000538601
0.00191078 -0.000110528 0.000236914
-0.000110528 0.00084007 -3.49186e-05
0.000236914 -3.49186e-05 0.000819928
0.00170674 -0.000112551 3.55331e-05
-0.000112551 0.000654407 -1.31019e-05
3.55331e-05 -1.31019e-05 0.000541696
0.00206297 -0.000285687 1.61511e-05
-0.000285687 0.000666975 -7.05048e-06
1.61511e-05 -7.05048e-06 0.000480589
0.00623105 -1.75112e-05 -0.000252302
-1.75112e-05 0.00350887 -1.83481e-05
-0.000252302 -1.83481e-05 0.00351719
0.00398217 0.000131752 -0.000133314
0.000131752 0.00211699 -1.40657e-05
-0.000133314 -1.40657e-05 0.00209609
0.00386801 3.60973e-05 -0.000128926
3.60973e-05 0.00206045 -1.07874e-05
-0.000128926 -1.07874e-05 0.00203923
0.00615052 -7.21104e-05 -3.90336e-06
-7.21104e-05 0.00348092 -4.40596e-08
-3.90336e-06 -4.40596e-08 0.00347909
0.000496336 0.000219566 -1.5433e-06
0.000219566 -8.0537e-05 -1.00247e-06
-1.5433e-06 -1.00247e-06 -0.000199904
0.00176939 6.39496e-05 0.000233112
6.39496e-05 0.000735122 2.03813e-05
0.000233112 2.03813e-05 0.000721583
0.00189943 0.00014952 0.000237707
0.00014952 0.000846581 3.14795e-05
0.000237707 3.14795e-05 0.000822894
0.00275729 0.000198918 0.000143465
0.000198918 0.00126315 1.98427e-05
0.000143465 1.98427e-05 0.00118645
0.00541508 -0.000339786 -6.64775e-06
-0.000339786 0.00310135 6.91658e-06
-6.64775e-06 6.91658e-06 0.00303507
0.00286924 0.000266932 0.000145962
0.000266932 0.00137052 2.43408e-05
0.000145962 2.43408e-05 0.0012813
0.000480454 0.000199978 2.71564e-05
0.000199978 -9.01097e-05 2.34368e-05
2.71564e-05 2.34368e-05 -0.000206708
0.000847452 0.000218441 1.20242e-05
0.000218441 1.7376e-05 6.02054e-06
1.20242e-05 6.02054e-06 -0.000178563
0.00416904 -0.00010538 0.000155496
-0.00010538 0.00228748 1.12452e-05
0.000155496 1.12452e-05 0.0022887
0.00592945 7.83972e-05 3.57812e-06
7.83972e-05 0.00331659 -1.70712e-06
3.57812e-06 -1.70712e-06 0.00333675
0.00381508 8.21037e-05 -0.000111191
8.21037e-05 0.00201048 -4.69362e-06
-0.000111191 -4.69362e-06 0.00199843
0.00579151 5.87372e-05 0.00028411
5.87372e-05 0.00323452 3.89782e-06
0.00028411 3.89782e-06 0.00325511
0.00137774 8.46216e-05 5.79109e-05
8.46216e-05 0.000512647 3.69577e-06
5.79109e-05 3.69577e-06 0.000474449
0.000568687 1.07656e-05 1.5668e-05
1.07656e-05 -0.000111097 1.84159e-06
1.5668e-05 1.84159e-06 -0.000192601
0.00600034 0.000219957 0.000159092
0.000219957 0.00338751 1.49043e-05
0.000159092 1.49043e-05 0.003363
0.00277942 7.11213e-05 0.000136105
7.11213e-05 0.00124547 8.51216e-06
0.000136105 8.51216e-06 0.00118931
0.00134954 -8.10427e-05 -6.89668e-05
-8.10427e-05 0.000508705 8.59095e-06
-6.89668e-05 8.59095e-06 0.000460863
0.00139569 -9.72915e-05 -6.14964e-05
-9.72915e-05 0.000539937 1.02513e-05
-6.14964e-05 1.02513e-05 0.000490179
0.00155698 -2.01694e-05 -3.70171e-05
-2.01694e-05 0.000636676 7.78252e-06
-3.70171e-05 7.78252e-06 0.000587872
0.00181306 -0.000160187 -0.00012551
-0.000160187 0.000689509 2.22088e-05
-0.00012551 2.22088e-05 0.00060597
0.00371228 -1.03176e-05 -0.000114207
-1.03176e-05 0.0019562 -1.88268e-06
-0.000114207 -1.88268e-06 0.00194307
0.00171673 -6.06097e-05 8.10913e-05
-6.06097e-05 0.000714091 -3.6807e-06
8.10913e-05 -3.6807e-06 0.000685753
0.00168544 -2.92599e-05 0.000111823
-2.92599e-05 0.000718046 -1.37895e-05
0.000111823 -1.37895e-05 0.000678561
0.00175336 -7.86605e-05 8.0958e-05
-7.86605e-05 0.000738675 -7.77371e-06
8.0958e-05 -7.77371e-06 0.000707786
0.00176359 -0.000106094 -3.02234e-05
-0.000106094 0.000646261 1.87512e-06
-3.02234e-05 1.87512e-06 0.000565897
0.00176066 -0.000155376 -4.35161e-05
-0.000155376 0.000677592 5.5723e-06
-4.35161e-05 5.5723e-06 0.000577602
0.00177916 -0.000146844 -3.2361e-05
-0.000146844 0.000666598 3.55672e-06
-3.2361e-05 3.55672e-06 0.000578649
0.00204311 -0.000284818 -8.89936e-06
-0.000284818 0.000650589 2.38552e-06
-8.89936e-06 2.38552e-06 0.000464414
0.0057669 1.68125e-05 0.000278838
1.68125e-05 0.00321811 -1.34729e-06
0.000278838 -1.34729e-06 0.00323972
0.00198235 -3.32591e-05 0.000224145
-3.32591e-05 0.000867805 -1.11752e-05
0.000224145 -1.11752e-05 0.00085631
0.00243668 -7.94907e-07 4.73763e-05
-7.94907e-07 0.00105813 -8.696e-07
4.73763e-05 -8.696e-07 0.000992374
0.00167372 -0.000103606 5.72959e-05
-0.000103606 0.00059414 -6.53357e-06
5.72959e-05 -6.53357e-06 0.00051055
0.00171164 -0.000129848 6.03192e-05
-0.000129848 0.000622865 -1.10682e-05
6.03192e-05 -1.10682e-05 0.000530689
0.00189188 -0.000182571 1.14005e-05
-0.000182571 0.000493017 -2.86956e-06
1.14005e-05 -2.86956e-06 0.000341194
0.00182201 -0.000245389 1.64804e-05
-0.000245389 0.000481396 -5.53736e-06
1.64804e-05 -5.53736e-06 0.000308563
0.00175218 -6.80938e-05 0.000216033
-6.80938e-05 0.000741557 -2.72238e-05
0.000216033 -2.72238e-05 0.00072581
0.00159727 -7.56521e-05 2.62231e-05
-7.56521e-05 0.00060721 -1.27614e-05
2.62231e-05 -1.27614e-05 0.000493576
0.00206596 -0.000307397 1.59799e-05
-0.000307397 0.000711187 -8.07998e-06
1.59799e-05 -8.07998e-06 0.000512885
0.0015228 -0.000350582 6.06068e-06
-0.000350582 0.00014471 -1.18657e-06
6.06068e-06 -1.18657e-06 -8.72287e-05
0.00647525 0.000230166 -0.000308175
0.000230166 0.00365655 -3.19296e-05
-0.000308175 -3.19296e-05 0.00366086
0.00600098 -9.69363e-05 -0.000222518
-9.69363e-05 0.00339026 -1.46185e-05
-0.000222518 -1.46185e-05 0.00338957
0.00626848 5.92314e-05 -0.000267972
5.92314e-05 0.00352283 -2.24598e-05
-0.000267972 -2.24598e-05 0.00353489
0.000464517 0.00021386 -2.50341e-05
0.00021386 -9.58226e-05 -1.88102e-05
-2.50341e-05 -1.88102e-05 -0.000217419
0.00643835 0.000218247 -2.54962e-06
0.000218247 0.00363047 -2.22719e-06
-2.54962e-06 -2.22719e-06 0.00363776
0.00647776 0.000173336 -8.92867e-06
0.000173336 0.00365312 -2.44042e-06
-8.92867e-06 -2.44042e-06 0.00365997
0.000412675 0.000128287 1.46661e-07
0.000128287 -0.000184519 -2.91392e-07
1.46661e-07 -2.91392e-07 -0.000289372
0.00338308 -0.000113866 -0.000100541
-0.000113866 0.00180138 -3.48198e-06
-0.000100541 -3.48198e-06 0.00176842
0.00042195 0.000200914 -1.84866e-08
0.000200914 -0.000133826 -4.41495e-07
-1.84866e-08 -4.41495e-07 -0.000253215
0.0016954 0.000204216 5.09461e-05
0.000204216 0.000662465 2.67751e-06
5.09461e-05 2.67751e-06 0.000565229
0.000851917 0.000216189 2.25896e-07
0.000216189 2.00956e-05 1.60101e-08
2.25896e-07 1.60101e-08 -0.00017429
0.00511933 -0.000125085 0.000188782
-0.000125085 0.002879 1.68175e-05
0.000188782 1.68175e-05 0.00287165
0.000507955 2.73194e-05 1.08507e-05
2.73194e-05 -9.30174e-06 1.22055e-05
1.08507e-05 1.22055e-05 -7.1706e-05
0.000509818 9.80965e-05 1.58019e-05
9.80965e-05 -0.000145153 9.61557e-06
1.58019e-05 9.61557e-06 -0.000244301
0.000551917 0.000156294 2.06546e-05
0.000156294 -8.47384e-05 1.69832e-05
2.06546e-05 1.69832e-05 -0.000196434
0.00107453 0.0002082 1.47856e-05
0.0002082 -4.5944e-07 5.32063e-06
1.47856e-05 5.32063e-06 -0.000179668
0.00287921 0.000161959 0.000126661
0.000161959 0.00141166 1.70086e-05
0.000126661 1.70086e-05 0.00134048
0.000915091 0.000225837 1.3843e-05
0.000225837 -5.03459e-07 6.63383e-06
1.3843e-05 6.63383e-06 -0.000192426
0.000923582 0.000226304 1.17302e-05
0.000226304 0.000130647 5.75788e-06
1.17302e-05 5.75788e-06 -7.15595e-05
0.00107872 0.000320236 1.86728e-06
0.000320236 7.48001e-05 -1.52142e-07
1.86728e-06 -1.52142e-07 -0.000178096
0.00324083 -0.000120137 9.47006e-05
-0.000120137 0.00170645 4.73522e-06
9.47006e-05 4.73522e-06 0.00170633
0.00380274 -0.000154007 1.76752e-05
-0.000154007 0.00206903 -2.85575e-07
1.76752e-05 -2.85575e-07 0.00205874
0.00627654 5.02704e-05 -0.000296094
5.02704e-05 0.00351816 -1.40028e-05
-0.000296094 -1.40028e-05 0.00353695
0.00601613 6.91257e-05 -0.00029302
6.91257e-05 0.00336633 -8.6391e-06
-0.00029302 -8.6391e-06 0.00338753
0.00588064 8.41414e-05 4.4476e-09
8.41414e-05 0.00329473 -3.49671e-06
4.4476e-09 -3.49671e-06 0.00331177
0.00371996 2.69528e-05 -0.000123408
2.69528e-05 0.00195081 -6.06414e-06
-0.000123408 -6.06414e-06 0.00194344
0.00162468 3.72174e-05 5.87958e-05
3.72174e-05 0.000540839 1.46432e-06
5.87958e-05 1.46432e-06 0.000474968
0.00396072 0.000137608 -0.000113766
0.000137608 0.00210479 -6.41923e-06
-0.000113766 -6.41923e-06 0.00208576
0.0016717 8.8621e-05 5.93276e-05
8.8621e-05 0.000566869 2.78851e-06
5.93276e-05 2.78851e-06 0.000492334
0.00584337 0.00012792 0.000287155
0.00012792 0.00328118 7.06562e-06
0.000287155 7.06562e-06 0.00329283
0.000481863 1.06627e-05 1.87723e-05
1.06627e-05 -0.000159507 8.63114e-07
1.87723e-05 8.63114e-07 -0.000238299
0.00278308 3.58336e-05 0.000134993
3.58336e-05 0.00124879 5.79559e-06
0.000134993 5.79559e-06 0.00119744
0.00108324 5.37198e-05 1.23029e-05
5.37198e-05 -2.33488e-05 9.55333e-07
1.23029e-05 9.55333e-07 -0.000154015
0.00271231 0.000114671 0.000140637
0.000114671 0.00120951 1.11271e-05
0.000140637 1.11271e-05 0.00114751
0.00113609 0.000122767 1.22051e-05
0.000122767 -2.75473e-06 2.11517e-06
1.22051e-05 2.11517e-06 -0.000150134
0.00177405 4.28541e-05 -0.000227886
4.28541e-05 0.000733113 2.50268e-06
-0.000227886 2.50268e-06 0.00073296
0.00136627 -1.13286e-05 -5.57752e-05
-1.13286e-05 0.000510825 2.3844e-06
-5.57752e-05 2.3844e-06 0.000467994
0.00153173 1.63173e-05 -2.86789e-05
1.63173e-05 0.000626601 7.6521e-06
-2.86789e-05 7.6521e-06 0.000576021
0.00135291 -9.48008e-05 -6.99332e-05
-9.48008e-05 0.000513249 1.03601e-05
-6.99332e-05 1.03601e-05 0.000464322
0.00188353 -8.55066e-05 -0.000120888
-8.55066e-05 0.000710517 1.09981e-05
-0.000120888 1.09981e-05 0.000640406
0.001862 -0.000135361 -0.000122728
-0.000135361 0.000708022 1.87189e-05
-0.000122728 1.87189e-05 0.000630769
0.00176854 -0.000172212 -0.000128187
-0.000172212 0.000674046 2.38201e-05
-0.000128187 2.38201e-05 0.00058462
0.00201243 -0.000282875 -3.12392e-05
-0.000282875 0.000627908 1.07883e-05
-3.12392e-05 1.07883e-05 0.000442309
0.00587465 -9.88275e-05 2.26767e-06
-9.88275e-05 0.00329447 -1.78398e-06
2.26767e-06 -1.78398e-06 0.00330941
0.0016402 3.48528e-05 8.87977e-05
3.48528e-05 0.000661725 -4.10344e-06
8.87977e-05 -4.10344e-06 0.000640115
0.00114674 -7.73142e-06 -6.17576e-05
-7.73142e-06 0.000253213 1.66227e-06
-6.17576e-05 1.66227e-06 0.000185884
0.00174134 -6.79508e-05 -3.35255e-05
-6.79508e-05 0.00062921 2.48474e-06
-3.35255e-05 2.48474e-06 0.000553887
0.0040117 -5.9537e-06 0.00022205
-5.9537e-06 0.002159 -1.13702e-05
0.00022205 -1.13702e-05 0.00214908
0.00227745 -0.000154667 -3.88637e-05
-0.000154667 0.00101029 2.63412e-06
-3.88637e-05 2.63412e-06 0.000909078
0.00177802 -0.000128468 -2.98192e-05
-0.000128468 0.000659122 2.45929e-06
-2.98192e-05 2.45929e-06 0.000575337
0.00190268 -0.000180521 -9.77066e-06
-0.000180521 0.000495745 1.73694e-06
-9.77066e-06 1.73694e-06 0.00034565
0.00202448 -0.000307656 -7.62762e-06
-0.000307656 0.00068096 2.26915e-06
-7.62762e-06 2.26915e-06 0.000481917
0.00192931 -0.00025017 -6.91939e-06
-0.00025017 0.000548564 1.81362e-06
-6.91939e-06 1.81362e-06 0.000375175
0.00155393 -0.000352053 5.61759e-07
-0.000352053 0.000164999 -1.83592e-07
5.61759e-07 -1.83592e-07 -6.64176e-05
0.000516899 1.10635e-05 1.94342e-05
1.10635e-05 -0.000141035 -8.42416e-07
1.94342e-05 -8.42416e-07 -0.000216617
0.00159962 3.08734e-06 4.82285e-05
3.08734e-06 0.0005398 -2.60776e-06
4.82285e-05 -2.60776e-06 0.000466269
0.00174344 -5.48884e-05 1.14709e-05
-5.48884e-05 0.000391266 -7.12139e-07
1.14709e-05 -7.12139e-07 0.000272382
0.00175665 -0.000141089 1.15286e-05
-0.000141089 0.000399215 -1.82488e-06
1.15286e-05 -1.82488e-06 0.000259817
0.00179979 -0.000212248 1.42135e-05
-0.000212248 0.000442345 -3.91137e-06
1.42135e-05 -3.91137e-06 0.000281879
0.00184486 -0.000250255 4.20002e-07
-0.000250255 0.000225982 -1.83582e-07
4.20002e-07 -1.83582e-07 5.80456e-05
0.00564355 0.000146497 0.00018306
0.000146497 0.00319889 -1.3603e-05
0.00018306 -1.3603e-05 0.00318489
0.00154525 -0.00032257 4.91318e-06
-0.00032257 0.000113103 -9.07206e-07
4.91318e-06 -9.07206e-07 -9.78564e-05
0.000323675 -0.000159947 2.07501e-05
-0.000159947 -0.00018769 -1.89333e-05
2.07501e-05 -1.89333e-05 -0.000289699
0.000873974 -0.000230206 1.24677e-05
-0.000230206 2.95458e-05 -8.55755e-06
1.24677e-05 -8.55755e-06 -0.000169278
0.00155812 -0.000386813 7.04818e-06
-0.000386813 0.000226091 -1.965e-06
7.04818e-06 -1.965e-06 -3.14984e-05
0.0017886 -0.000425651 2.96691e-06
-0.000425651 0.000192747 1.51186e-06
2.96691e-06 1.51186e-06 -3.78811e-05
0.000474962 -0.000113695 1.96072e-05
-0.000113695 -5.33556e-05 -1.53758e-05
1.96072e-05 -1.53758e-05 -0.000139214
0.000433532 -9.10279e-05 -8.81098e-07
-9.10279e-05 -2.4008e-05 -3.88375e-06
-8.81098e-07 -3.88375e-06 -0.000233355
0.00648482 0.000239651 -0.000319235
0.000239651 0.00366469 -3.11067e-05
-0.000319235 -3.11067e-05 0.00366889
0.00639014 0.000157298 -0.000289538
0.000157298 0.00359746 -2.8091e-05
-0.000289538 -2.8091e-05 0.00360774
0.000414616 0.000124926 -1.85591e-05
0.000124926 -0.000185085 -1.18285e-05
-1.85591e-05 -1.18285e-05 -0.000290096
0.00541467 -0.000167946 -0.000172611
-0.000167946 0.00306215 -1.21688e-05
-0.000172611 -1.21688e-05 0.00304732
0.000452388 0.000179109 -2.35104e-05
0.000179109 -0.000105617 -1.76031e-05
-2.35104e-05 -1.76031e-05 -0.000208286
0.000400705 0.000186362 -2.09054e-05
0.000186362 -0.000144557 -1.73481e-05
-2.09054e-05 -1.73481e-05 -0.000265123
0.000809561 0.000209943 -1.30941e-05
0.000209943 -4.14313e-06 -6.36251e-06
-1.30941e-05 -6.36251e-06 -0.000196356
0.00477887 -0.000140301 8.99539e-06
-0.000140301 0.0026714 -3.94425e-07
8.99539e-06 -3.94425e-07 0.00266292
0.000525916 1.4025e-05 1.36716e-06
1.4025e-05 6.43477e-06 5.21355e-07
1.36716e-06 5.21355e-07 -5.28966e-05
0.00167082 0.000136039 6.09629e-05
0.000136039 0.000574496 4.95379e-06
6.09629e-05 4.95379e-06 0.000488838
0.00163677 0.000194091 6.03782e-05
0.000194091 0.000589887 5.25046e-06
6.03782e-05 5.25046e-06 0.000490869
0.00104034 0.000206612 7.64535e-08
0.000206612 -1.53768e-05 -2.73079e-07
7.64535e-08 -2.73079e-07 -0.000195097
0.0004926 0.000147118 -1.86633e-07
0.000147118 -6.29344e-05 -2.3247e-07
-1.86633e-07 -2.3247e-07 -0.000152352
0.000911409 0.000222674 7.48709e-07
0.000222674 4.25052e-06 7.48436e-08
7.48709e-07 7.48436e-08 -0.000186704
0.000813113 0.000214255 1.7463e-07
0.000214255 6.09414e-05 -9.33858e-07
1.7463e-07 -9.33858e-07 -0.000137986
0.00121455 0.000338568 3.3383e-07
0.000338568 0.000153423 -2.67276e-07
3.3383e-07 -2.67276e-07 -0.000102491
0.000469178 9.76838e-05 1.74345e-05
9.76838e-05 -4.42452e-05 1.46144e-05
1.74345e-05 1.46144e-05 -0.000124938
0.000596697 -1.99693e-05 4.62429e-06
-1.99693e-05 4.9125e-05 1.01599e-05
4.62429e-06 1.01599e-05 3.52272e-06
0.00123986 0.000139173 3.77211e-06
0.000139173 0.000468373 6.05566e-06
3.77211e-06 6.05566e-06 0.000288043
0.00112246 0.000184734 1.38813e-05
0.000184734 1.66701e-06 4.11719e-06
1.38813e-05 4.11719e-06 -0.000167828
0.00100817 0.000224298 1.48171e-05
0.000224298 9.45906e-07 6.25094e-06
1.48171e-05 6.25094e-06 -0.000186355
0.00169056 0.000345699 4.37291e-06
0.000345699 0.000183387 4.02273e-07
4.37291e-06 4.02273e-07 -3.30223e-05
0.000818902 0.000222303 9.18734e-06
0.000222303 0.000134012 6.35302e-06
9.18734e-06 6.35302e-06 -6.707e-05
0.0014986 0.000380852 3.58349e-06
0.000380852 0.00023133 7.76193e-08
3.58349e-06 7.76193e-08 -2.08864e-05
0.00110757 0.000311087 3.3982e-06
0.000311087 0.000154484 9.18803e-07
3.3982e-06 9.18803e-07 -0.000104855
0.0014235 0.000425019 -5.99201e-06
0.000425019 0.000197539 -3.20344e-06
-5.99201e-06 -3.20344e-06 -8.41077e-05
0.00283414 -0.00012743 5.37828e-05
-0.00012743 0.0014492 3.36638e-06
5.37828e-05 3.36638e-06 0.00144722
0.00313949 -0.000150001 1.22136e-05
-0.000150001 0.00164881 -8.31648e-07
1.22136e-05 -8.31648e-07 0.00164042
0.00351075 -0.000179213 -7.02079e-05
-0.000179213 0.00189273 -4.14968e-06
-7.02079e-05 -4.14968e-06 0.00187523
0.000407632 -8.42538e-05 1.51437e-05
-8.42538e-05 -7.79267e-05 -1.36066e-05
1.51437e-05 -1.36066e-05 -0.000149174
0.00501925 0.000183462 0.000144381
0.000183462 0.00284209 -1.45357e-05
0.000144381 -1.45357e-05 0.00281673
0.00643385 0.000206174 -0.000319683
0.000206174 0.00362884 -2.61661e-05
-0.000319683 -2.61661e-05 0.00363811
0.00608223 8.66731e-05 -0.000293232
8.66731e-05 0.00340424 -1.20538e-05
-0.000293232 -1.20538e-05 0.00342406
0.000490523 9.61559e-05 -1.97064e-05
9.61559e-05 -0.000159586 -5.39109e-06
-1.97064e-05 -5.39109e-06 -0.000248838
0.000479002 4.2993e-05 -1.9292e-05
4.2993e-05 -0.00016144 -2.70419e-06
-1.9292e-05 -2.70419e-06 -0.000243701
0.0058252 -8.02227e-06 -0.000281064
-8.02227e-06 0.00325137 -2.24918e-06
-0.000281064 -2.24918e-06 0.00327354
0.0057793 1.00386e-05 -2.23411e-07
1.00386e-05 0.00322453 -8.5826e-07
-2.23411e-07 -8.5826e-07 0.00324665
0.000463873 7.87086e-07 -1.13204e-07
7.87086e-07 -0.000173286 1.06638e-07
-1.13204e-07 1.06638e-07 -0.000250241
0.00161197 3.77204e-05 5.91653e-05
3.77204e-05 0.000528751 2.49194e-06
5.91653e-05 2.49194e-06 0.00046125
0.00104311 5.70613e-05 -8.90513e-08
5.70613e-05 -4.95853e-05 -1.49028e-07
-8.90513e-08 -1.49028e-07 -0.000180956
0.000452543 8.17061e-05 -4.06921e-07
8.17061e-05 -0.000181262 -3.87066e-07
-4.06921e-07 -3.87066e-07 -0.00027619
0.0010739 0.000123561 -2.27304e-07
0.000123561 -4.10598e-05 -1.22697e-07
-2.27304e-07 -1.22697e-07 -0.000189461
0.000457345 -3.08734e-05 1.93327e-05
-3.08734e-05 -0.000178909 -7.37576e-07
1.93327e-05 -7.37576e-07 -0.000253442
0.00104415 2.27166e-05 1.20043e-05
2.27166e-05 -3.93801e-05 4.97713e-07
1.20043e-05 4.97713e-07 -0.000166275
0.00108769 8.78609e-05 1.19899e-05
8.78609e-05 -2.66573e-05 1.66091e-06
1.19899e-05 1.66091e-06 -0.000164415
0.00169768 9.12179e-05 -7.80783e-07
9.12179e-05 7.74579e-05 -2.63563e-07
-7.80783e-07 -2.63563e-07 -3.83848e-05
0.00114509 0.000154939 1.29385e-05
0.000154939 3.30731e-06 2.90851e-06
1.29385e-05 2.90851e-06 -0.000155078
0.00176082 0.000203306 7.53323e-07
0.000203306 0.000110303 -6.42689e-07
7.53323e-07 -6.42689e-07 -3.43505e-05
0.00579779 -5.97406e-05 -0.000286222
-5.97406e-05 0.00324139 2.18104e-06
-0.000286222 2.18104e-06 0.00326035
0.00131852 -0.000150762 -5.73836e-05
-0.000150762 0.000493428 6.61567e-06
-5.73836e-05 6.61567e-06 0.000447557
-0.000259865 -4.85163e-06 -1.24248e-05
-4.85163e-06 -0.000609711 1.88468e-06
-1.24248e-05 1.88468e-06 -0.000700703
0.00184782 -6.03614e-05 -0.00011977
-6.03614e-05 0.000688377 7.78783e-06
-0.00011977 7.78783e-06 0.000621491
0.00601278 0.000306724 -1.19331e-05
0.000306724 0.00344278 4.95492e-06
-1.19331e-05 4.95492e-06 0.00338361
0.00292979 -0.000240557 -0.000130912
-0.000240557 0.00140553 2.46326e-05
-0.000130912 2.46326e-05 0.00130984
0.00188732 -0.00011034 -0.000121695
-0.00011034 0.000715835 1.47743e-05
-0.000121695 1.47743e-05 0.000642901
0.00188746 -0.000177073 -2.95298e-05
-0.000177073 0.000482263 5.44814e-06
-2.95298e-05 5.44814e-06 0.000334167
0.00201407 -0.000253325 -3.01076e-05
-0.000253325 0.000601297 9.15041e-06
-3.01076e-05 9.15041e-06 0.000427786
0.00200693 -0.000309256 -2.88827e-05
-0.000309256 0.000666344 1.16127e-05
-2.88827e-05 1.16127e-05 0.00046636
0.00158719 -0.000353668 -4.61223e-06
-0.000353668 0.000186751 8.5608e-07
-4.61223e-06 8.5608e-07 -4.4173e-05
0.000459256 5.54685e-06 -2.05472e-08
5.54685e-06 -0.000174545 2.15204e-07
-2.05472e-08 2.15204e-07 -0.000251115
0.00173108 -8.01645e-05 -3.2552e-05
-8.01645e-05 0.000625023 3.72091e-07
-3.2552e-05 3.72091e-07 0.000553423
0.00136767 -5.04864e-05 -9.4792e-06
-5.04864e-05 0.00016077 5.28902e-07
-9.4792e-06 5.28902e-07 3.75087e-05
0.0018609 -0.000142047 -7.74422e-06
-0.000142047 0.000463569 1.22609e-06
-7.74422e-06 1.22609e-06 0.000323871
0.00589935 0.000144267 4.86406e-06
0.000144267 0.00335895 8.61331e-07
4.86406e-06 8.61331e-07 0.00334322
0.00165741 -0.000155315 2.129e-06
-0.000155315 0.000648106 5.20207e-07
2.129e-06 5.20207e-07 0.000535713
0.00134536 -0.000263347 1.27169e-06
-0.000263347 0.000322925 -1.06351e-06
1.27169e-06 -1.06351e-06 0.000121376
0.00184126 -0.000214237 -7.86901e-06
-0.000214237 0.00046758 1.93251e-06
-7.86901e-06 1.93251e-06 0.000306681
0.00181816 -0.000252063 -1.26604e-06
-0.000252063 0.000205006 1.1733e-07
-1.26604e-06 1.1733e-07 4.06379e-05
0.00155118 -0.000385346 9.65449e-07
-0.000385346 0.000226245 -2.63221e-07
9.65449e-07 -2.63221e-07 -3.0114e-05
0.00169101 -0.00032884 5.37684e-07
-0.00032884 0.000205005 -1.78399e-07
5.37684e-07 -1.78399e-07 -5.6435e-06
0.00182997 -0.000427077 7.14051e-07
-0.000427077 0.000222407 8.5123e-08
7.14051e-07 8.5123e-08 -7.87422e-06
0.000516675 -0.000119091 8.92365e-07
-0.000119091 -2.91335e-05 6.20199e-07
8.92365e-07 6.20199e-07 -0.000118648
0.000688233 -0.000122329 1.71739e-07
-0.000122329 0.000119584 -6.25025e-09
1.71739e-07 -6.25025e-09 -8.31785e-05
0.00103075 -2.49938e-05 1.20603e-05
-2.49938e-05 -4.01489e-05 -7.26916e-07
1.20603e-05 -7.26916e-07 -0.000167428
0.00181657 -9.42404e-05 1.04012e-05
-9.42404e-05 0.000437671 -1.18528e-06
1.04012e-05 -1.18528e-06 0.000311059
0.00173321 -9.08562e-05 -7.43459e-07
-9.08562e-05 0.00012363 2.31889e-07
-7.43459e-07 2.31889e-07 2.83931e-06
0.00174907 -0.00020072 5.58122e-07
-0.00020072 0.000141857 9.1885e-07
5.58122e-07 9.1885e-07 -4.60165e-07
0.00175494 -0.000297974 1.6208e-06
-0.000297974 0.000204096 9.10182e-08
1.6208e-06 9.10182e-08 1.81162e-05
0.00195615 -0.000295092 8.43658e-07
-0.000295092 0.000165969 3.44333e-07
8.43658e-07 3.44333e-07 2.43377e-05
0.000454316 -0.000145177 1.97922e-05
-0.000145177 -8.39935e-05 -1.81715e-05
1.97922e-05 -1.81715e-05 -0.000182424
0.00185179 -0.000390852 1.20009e-06
-0.000390852 0.000186039 1.30207e-06
1.20009e-06 1.30207e-06 -1.13608e-05
0.000616877 -0.000210046 8.7883e-06
-0.000210046 -6.01762e-05 -7.28318e-06
8.7883e-06 -7.28318e-06 -0.000258703
0.00127113 -0.000381604 9.52904e-06
-0.000381604 0.000143507 -2.93674e-06
9.52904e-06 -2.93674e-06 -0.000131908
0.00196069 -0.000481924 2.71905e-06
-0.000481924 0.000360389 7.46487e-07
2.71905e-06 7.46487e-07 8.67807e-05
0.0021415 -0.00046399 -2.25056e-06
-0.00046399 0.000360201 3.75129e-06
-2.25056e-06 3.75129e-06 0.000154996
0.000714924 -0.000195589 1.42921e-06
-0.000195589 0.000126883 -5.46523e-06
1.42921e-06 -5.46523e-06 -0.000106334
0.000601169 -8.52612e-05 -3.92158e-07
-8.52612e-05 6.31796e-05 -4.67151e-06
-3.92158e-07 -4.67151e-06 -9.30101e-05
0.00111136 -0.000254572 -1.96946e-06
-0.000254572 0.00039783 -1.46492e-07
-1.96946e-06 -1.46492e-07 0.000116188
0.00044304 0.000103984 -1.79722e-05
0.000103984 -0.000181124 -9.03985e-06
-1.79722e-05 -9.03985e-06 -0.0002813
0.00440222 -0.000196286 -0.000112382
-0.000196286 0.00245709 -8.70846e-06
-0.000112382 -8.70846e-06 0.00243391
0.000435222 -7.16929e-07 -5.53024e-06
-7.16929e-07 -4.33363e-05 -1.16719e-05
-5.53024e-06 -1.16719e-05 -0.000100992
0.000400331 0.000155637 -1.9849e-05
0.000155637 -0.000170426 -1.48928e-05
-1.9849e-05 -1.48928e-05 -0.000283088
0.00100761 0.000205346 -1.54021e-05
0.000205346 -2.95418e-05 -5.87372e-06
-1.54021e-05 -5.87372e-06 -0.000209793
0.000486961 0.000137694 -2.23833e-05
0.000137694 -6.83124e-05 -1.6305e-05
-2.23833e-05 -1.6305e-05 -0.000154987
0.000562955 0.000192718 -9.30832e-06
0.000192718 -9.36445e-05 -7.32757e-06
-9.30832e-06 -7.32757e-06 -0.000288429
0.000929546 0.000221428 -1.396e-05
0.000221428 2.19546e-05 -6.91443e-06
-1.396e-05 -6.91443e-06 -0.00016835
0.00129191 0.000352913 -3.83826e-06
0.000352913 0.000193665 -9.91995e-07
-3.83826e-06 -9.91995e-07 -6.49171e-05
0.000528921 8.61388e-05 1.21613e-06
8.61388e-05 -9.91383e-06 1.02059e-06
1.21613e-06 1.02059e-06 -8.64505e-05
0.000437392 -3.9869e-05 6.34435e-08
-3.9869e-05 -4.01829e-05 4.73174e-07
6.34435e-08 4.73174e-07 -8.87506e-05
0.000634512 8.40261e-05 1.7194e-06
8.40261e-05 8.26133e-05 -1.96062e-07
1.7194e-06 -1.96062e-07 -8.05814e-05
0.00107913 0.000184042 -1.24012e-07
0.000184042 -2.05435e-05 -2.88171e-07
-1.24012e-07 -2.88171e-07 -0.000190929
0.000985952 0.000221378 3.24809e-07
0.000221378 -5.23858e-06 -1.93439e-07
3.24809e-07 -1.93439e-07 -0.000192259
0.00167196 0.000344746 -7.26847e-08
0.000344746 0.000170582 -9.81083e-08
-7.26847e-08 -9.81083e-08 -4.62026e-05
0.000739632 0.00021096 -8.87245e-07
0.00021096 8.19525e-05 3.59551e-08
-8.87245e-07 3.59551e-08 -0.000116867
0.00151062 0.00038031 -6.57116e-08
0.00038031 0.000233429 -1.88629e-07
-6.57116e-08 -1.88629e-07 -1.9415e-05
0.00108848 0.000308337 5.90889e-07
0.000308337 0.000144793 -8.76749e-07
5.90889e-07 -8.76749e-07 -0.000113039
0.0013964 0.000435887 -5.31273e-07
0.000435887 0.000165948 9.8159e-07
-5.31273e-07 9.8159e-07 -0.000117845
0.000538942 -4.30285e-05 9.58503e-08
-4.30285e-05 1.45869e-05 8.21765e-06
9.58503e-08 8.21765e-06 -2.28506e-05
0.000984087 0.000156856 5.52147e-06
0.000156856 0.000283616 4.69537e-06
5.52147e-06 4.69537e-06 8.74465e-05
0.000802548 4.90118e-05 1.84563e-06
4.90118e-05 0.000171849 5.84878e-06
1.84563e-06 5.84878e-06 5.23213e-05
0.000904947 0.0001383 1.51637e-06
0.0001383 0.000289428 -2.1132e-07
1.51637e-06 -2.1132e-07 4.29418e-05
0.00174735 0.000307823 2.38603e-06
0.000307823 0.000161788 -8.25218e-07
2.38603e-06 -8.25218e-07 -2.98613e-05
0.00159461 0.000371546 4.77366e-06
0.000371546 0.000198396 7.30291e-07
4.77366e-06 7.30291e-07 -4.01733e-05
0.00195184 0.000419104 9.96305e-07
0.000419104 0.000237926 -6.67169e-07
9.96305e-07 -6.67169e-07 2.45255e-05
0.000913936 0.000255095 4.73768e-06
0.000255095 8.83806e-05 2.9941e-06
4.73768e-06 2.9941e-06 -0.000145266
0.00204526 0.000515224 -2.35222e-06
0.000515224 0.000445632 -1.28836e-06
-2.35222e-06 -1.28836e-06 0.00016989
0.00150742 0.000429702 -3.1345e-06
0.000429702 0.000332105 -3.40478e-06
-3.1345e-06 -3.40478e-06 2.13706e-05
0.00166527 0.000485716 -7.01632e-07
0.000485716 0.000230301 -1.10386e-06
-7.01632e-07 -1.10386e-06 -5.40285e-05
0.000571204 3.13258e-05 2.42639e-06
3.13258e-05 3.44074e-05 3.17609e-06
2.42639e-06 3.17609e-06 -2.86757e-05
0.000490907 -3.23612e-05 9.17671e-07
-3.23612e-05 -3.51114e-05 6.05466e-06
9.17671e-07 6.05466e-06 -5.96969e-05
0.0026204 -0.000118538 3.47012e-05
-0.000118538 0.00130931 3.65873e-06
3.47012e-05 3.65873e-06 0.00130977
0.0027603 -0.000137012 6.23853e-06
-0.000137012 0.00140555 -6.62144e-07
6.23853e-06 -6.62144e-07 0.00140078
0.00300358 -0.000161366 -4.41382e-05
-0.000161366 0.00156707 -3.40697e-06
-4.41382e-05 -3.40697e-06 0.00155509
0.000412651 -5.86793e-05 1.06588e-05
-5.86793e-05 -6.57028e-05 -1.16896e-05
1.06588e-05 -1.16896e-05 -0.000125525
0.00437705 0.000158359 0.000122515
0.000158359 0.00243395 -1.08839e-05
0.000122515 -1.08839e-05 0.00241778
0.000515222 -8.49301e-05 -6.58175e-07
-8.49301e-05 -1.41597e-05 3.01547e-07
-6.58175e-07 3.01547e-07 -8.98635e-05
0.00523527 0.000146334 -3.69169e-06
0.000146334 0.00295792 -5.13219e-07
-3.69169e-06 -5.13219e-07 0.00294262
0.000486273 0.000107303 -1.93272e-05
0.000107303 -0.000158347 -7.21086e-06
-1.93272e-05 -7.21086e-06 -0.000255138
0.000494483 3.42418e-05 -1.83373e-05
3.42418e-05 -0.000157863 -3.50944e-06
-1.83373e-05 -3.50944e-06 -0.000241495
0.00103611 0.00012439 -1.21377e-05
0.00012439 -6.5928e-05 -2.329e-06
-1.21377e-05 -2.329e-06 -0.000215198
0.00100551 5.90843e-05 -1.20168e-05
5.90843e-05 -7.41481e-05 -1.17103e-06
-1.20168e-05 -1.17103e-06 -0.000206052
0.000517876 -7.73419e-06 -1.94478e-05
-7.73419e-06 -0.000143466 -8.46653e-07
-1.94478e-05 -8.46653e-07 -0.000218531
0.00586951 -9.81897e-05 -0.000292745
-9.81897e-05 0.00329058 4.86941e-06
-0.000292745 4.86941e-06 0.00330704
0.000504492 -1.81645e-06 7.30098e-08
-1.81645e-06 -0.000150742 -6.38995e-07
7.30098e-08 -6.38995e-07 -0.00022527
0.00102612 2.78915e-05 -8.63568e-08
2.78915e-05 -5.15352e-05 2.00297e-08
-8.63568e-08 2.00297e-08 -0.000178824
0.00106501 8.97082e-05 -1.76072e-07
8.97082e-05 -4.27499e-05 -4.7792e-08
-1.76072e-07 -4.7792e-08 -0.000181227
0.00168005 8.96421e-05 -4.42902e-08
8.96421e-05 6.88758e-05 1.04523e-07
-4.42902e-08 1.04523e-07 -4.70874e-05
0.00109291 0.000155869 -2.87539e-07
0.000155869 -2.72298e-05 -2.74525e-07
-2.87539e-07 -2.74525e-07 -0.000186873
0.00174347 0.000202429 -1.69145e-07
0.000202429 0.000100076 7.10174e-08
-1.69145e-07 7.10174e-08 -4.49545e-05
0.00101601 -2.90096e-06 1.19661e-05
-2.90096e-06 -5.00948e-05 -2.2019e-07
1.19661e-05 -2.2019e-07 -0.000176423
0.0016642 4.29686e-05 -2.11991e-07
4.29686e-05 6.06777e-05 -8.72806e-08
-2.11991e-07 -8.72806e-08 -4.92003e-05
0.00170533 0.000143745 -7.49124e-07
0.000143745 7.8683e-05 -3.84005e-07
-7.49124e-07 -3.84005e-07 -4.8396e-05
0.00188865 0.000118044 1.52535e-06
0.000118044 4.76619e-05 3.65632e-08
1.52535e-06 3.65632e-08 -2.25617e-05
0.00178841 0.00026185 1.8359e-06
0.00026185 0.000142552 -5.90836e-07
1.8359e-06 -5.90836e-07 -2.48318e-05
0.00198798 0.000243566 1.87559e-06
0.000243566 0.000128709 -1.40656e-06
1.87559e-06 -1.40656e-06 1.43202e-05
0.000490118 -1.76662e-06 -1.8592e-05
-1.76662e-06 -0.000152702 9.10481e-07
-1.8592e-05 9.10481e-07 -0.000231418
0.00182403 -3.64804e-05 -0.000118481
-3.64804e-05 0.000674089 5.18585e-06
-0.000118481 5.18585e-06 0.000611429
0.000955292 -4.50411e-05 -1.66186e-05
-4.50411e-05 -9.16697e-05 1.6672e-06
-1.66186e-05 1.6672e-06 -0.000219653
0.00194408 -0.000141952 -2.70384e-05
-0.000141952 0.000514427 4.07617e-06
-2.70384e-05 4.07617e-06 0.000374586
0.00609737 0.000127895 -0.000214235
0.000127895 0.00347682 2.04078e-05
-0.000214235 2.04078e-05 0.00346229
0.00299174 -0.000224374 -0.000137377
-0.000224374 0.00146023 2.0025e-05
-0.000137377 2.0025e-05 0.00137479
0.00202911 -0.000315651 -2.41974e-05
-0.000315651 0.000743009 1.06015e-05
-2.41974e-05 1.06015e-05 0.000535358
0.00186044 -0.000214589 -2.93725e-05
-0.000214589 0.000478706 7.30816e-06
-2.93725e-05 7.30816e-06 0.000317752
0.00178833 -0.00025385 -3.631e-06
-0.00025385 0.000181442 -2.83067e-08
-3.631e-06 -2.83067e-08 2.06432e-05
0.00183843 -0.000335205 -4.64199e-06
-0.000335205 0.000298551 1.09656e-06
-4.64199e-06 1.09656e-06 8.81972e-05
0.00153993 -0.00038371 -6.04652e-06
-0.00038371 0.000222962 1.13227e-06
-6.04652e-06 1.13227e-06 -3.21266e-05
0.0018695 -0.000428777 -1.11534e-06
-0.000428777 0.000249708 -1.48502e-06
-1.11534e-06 -1.48502e-06 1.96769e-05
0.000461213 -0.000129763 -1.80549e-05
-0.000129763 -5.91352e-05 1.66636e-05
-1.80549e-05 1.66636e-05 -0.000154133
0.000831463 -0.000157848 -6.79172e-07
-0.000157848 0.000204508 3.78618e-06
-6.79172e-07 3.78618e-06 1.90256e-06
0.000976786 -1.97317e-05 4.051e-08
-1.97317e-05 -7.53516e-05 -4.46845e-08
4.051e-08 -4.46845e-08 -0.00020113
0.00181242 -9.46734e-05 -8.09947e-06
-9.46734e-05 0.000433408 9.68541e-07
-8.09947e-06 9.68541e-07 0.000306987
0.00179903 -8.75547e-05 -4.77862e-07
-8.75547e-05 0.000162869 1.614e-07
-4.77862e-07 1.614e-07 4.68763e-05
0.00174628 -0.000200272 -1.79344e-06
-0.000200272 0.000143925 6.09283e-07
-1.79344e-06 6.09283e-07 -2.95855e-06
0.000461416 -0.000163014 3.26177e-07
-0.000163014 -8.13354e-05 1.2392e-07
3.26177e-07 1.2392e-07 -0.000180923
0.000792309 -0.000219173 -1.87417e-07
-0.000219173 4.30563e-05 7.63293e-08
-1.87417e-07 7.63293e-08 -0.00015691
0.00125674 -0.000379447 1.71129e-06
-0.000379447 0.000137095 -5.7525e-07
1.71129e-06 -5.7525e-07 -0.000138294
0.00178552 -0.000297544 -3.1509e-06
-0.000297544 0.00022351 8.67818e-07
-3.1509e-06 8.67818e-07 3.54508e-05
0.00200227 -0.000299691 1.86573e-06
-0.000299691 0.000187476 -6.25941e-07
1.86573e-06 -6.25941e-07 5.06198e-05
0.00201117 -0.000490703 -9.23148e-07
-0.000490703 0.000389608 -3.49049e-07
-9.23148e-07 -3.49049e-07 0.00011595
0.00187724 -0.000392591 5.22535e-07
-0.000392591 0.000201746 -5.38193e-08
5.22535e-07 -5.38193e-08 4.22024e-06
0.00201246 -0.000457774 8.70607e-07
-0.000457774 0.000274492 7.39967e-07
8.70607e-07 7.39967e-07 6.95676e-05
0.000678868 -0.000188401 1.83918e-07
-0.000188401 0.000101755 -2.44955e-07
1.83918e-07 -2.44955e-07 -0.000125778
0.000352878 -0.000155185 -8.8345e-07
-0.000155185 -9.01517e-05 -4.05597e-07
-8.8345e-07 -4.05597e-07 -0.000348681
0.000694608 -0.000106658 6.60289e-07
-0.000106658 0.000122336 7.24235e-08
6.60289e-07 7.24235e-08 -4.13766e-05
0.00172915 -3.98467e-05 -8.47076e-07
-3.98467e-05 0.000118597 8.66334e-08
-8.47076e-07 8.66334e-08 4.62629e-06
0.00185542 -0.000140218 -2.15208e-06
-0.000140218 0.000200601 1.08539e-06
-2.15208e-06 1.08539e-06 7.62357e-05
0.00183402 -0.000109832 3.10865e-06
-0.000109832 2.43367e-05 5.60233e-08
3.10865e-06 5.60233e-08 -5.51072e-05
0.00187548 -0.000239335 -8.95586e-07
-0.000239335 8.25005e-05 1.28095e-06
-8.95586e-07 1.28095e-06 -3.09658e-05
0.00176949 -0.000349637 -6.30287e-07
-0.000349637 8.677e-05 2.18292e-06
-6.30287e-07 2.18292e-06 -7.81402e-05
0.00209266 -0.000323843 2.58903e-06
-0.000323843 0.000203464 -5.68753e-07
2.58903e-06 -5.68753e-07 9.16849e-05
0.000645537 -0.000220198 5.03175e-06
-0.000220198 1.70247e-05 -7.10904e-06
5.03175e-06 -7.10904e-06 -0.000191476
0.00187493 -0.000421537 -1.67568e-06
-0.000421537 0.000137931 1.64162e-06
-1.67568e-06 1.64162e-06 -3.46305e-05
0.00129787 -0.000353196 6.75454e-06
-0.000353196 0.000269873 -5.60936e-06
6.75454e-06 -5.60936e-06 -1.97743e-07
0.00168009 -0.000528844 4.96678e-06
-0.000528844 0.00028785 5.04774e-07
4.96678e-06 5.04774e-07 -3.81724e-05
0.00209657 -0.000523253 2.14724e-06
-0.000523253 0.000386415 3.63429e-06
2.14724e-06 3.63429e-06 0.000123351
0.00219666 -0.000483182 -2.68259e-06
-0.000483182 0.000388851 2.50428e-06
-2.68259e-06 2.50428e-06 0.000197902
0.000638671 -7.4657e-05 -4.36223e-07
-7.4657e-05 0.000101174 -5.2925e-06
-4.36223e-07 -5.2925e-06 -3.16152e-05
0.00100491 -0.000260625 8.55805e-07
-0.000260625 0.000214653 -1.42177e-06
8.55805e-07 -1.42177e-06 -2.00725e-05
0.000250037 -0.000137903 -1.32498e-06
-0.000137903 -7.56167e-05 8.80621e-07
-1.32498e-06 8.80621e-07 -0.000349137
0.0017627 -0.000341584 -3.80569e-06
-0.000341584 0.000709894 9.57996e-07
-3.80569e-06 9.57996e-07 0.000432572
0.00103306 0.00018349 -1.45162e-05
0.00018349 -4.46238e-05 -4.64749e-06
-1.45162e-05 -4.64749e-06 -0.000215914
0.000400667 -5.50932e-05 3.46149e-06
-5.50932e-05 -5.40312e-05 -1.0533e-05
3.46149e-06 -1.0533e-05 -0.000106421
0.000436446 6.68194e-05 -1.55534e-05
6.68194e-05 -6.54375e-05 -1.35561e-05
-1.55534e-05 -1.35561e-05 -0.000136497
0.000106986 5.12303e-05 -1.26259e-06
5.12303e-05 -0.000233485 -5.82049e-06
-1.26259e-06 -5.82049e-06 -0.00039291
0.000958087 0.000218382 -1.5085e-05
0.000218382 -1.48125e-05 -6.75053e-06
-1.5085e-05 -6.75053e-06 -0.000201582
0.00165655 0.000343909 -4.33631e-06
0.000343909 0.000159762 -3.95778e-07
-4.33631e-06 -3.95778e-07 -5.7385e-05
0.000624389 0.00019811 -6.37804e-06
0.00019811 7.50776e-06 -4.728e-06
-6.37804e-06 -4.728e-06 -0.000187819
0.00132648 0.000328312 -5.44456e-06
0.000328312 0.000296031 -3.88631e-06
-5.44456e-06 -3.88631e-06 3.6155e-05
0.00151951 0.000379285 -3.76758e-06
0.000379285 0.000234618 -5.48828e-07
-3.76758e-06 -5.48828e-07 -1.87667e-05
0.0013583 0.000443208 2.26162e-06
0.000443208 0.000132296 3.53354e-06
2.26162e-06 3.53354e-06 -0.000152546
0.000456898 -5.20139e-05 -2.87494e-06
-5.20139e-05 -3.12011e-05 8.2956e-07
-2.87494e-06 8.2956e-07 -7.07779e-05
0.000682199 0.000172938 -1.95966e-07
0.000172938 0.000111755 -8.58518e-07
-1.95966e-07 -8.58518e-07 -9.12031e-05
0.000624511 2.69981e-05 4.42275e-07
2.69981e-05 6.55285e-05 4.72728e-07
4.42275e-07 4.72728e-07 -4.86956e-05
0.000770892 0.000131159 1.71415e-06
0.000131159 0.000207124 -5.94052e-07
1.71415e-06 -5.94052e-07 -3.82748e-05
0.00172921 0.000306476 -7.52607e-07
0.000306476 0.000150799 -7.71837e-07
-7.52607e-07 -7.71837e-07 -4.10927e-05
0.00157574 0.000371112 -6.47586e-08
0.000371112 0.000186112 -1.4498e-07
-6.47586e-08 -1.4498e-07 -5.31065e-05
0.00192134 0.000416005 3.00946e-07
0.000416005 0.000221742 2.39331e-07
3.00946e-07 2.39331e-07 8.77839e-06
0.00103584 0.000269976 1.61234e-06
0.000269976 0.000170723 4.92687e-07
1.61234e-06 4.92687e-07 -6.48195e-05
0.00193749 0.000497375 -6.54694e-07
0.000497375 0.000386688 1.20165e-07
-6.54694e-07 1.20165e-07 0.000113191
0.00135045 0.000416738 -5.19087e-07
0.000416738 0.000233678 -1.70108e-06
-5.19087e-07 -1.70108e-06 -7.66637e-05
0.00172636 0.000484162 -3.57643e-06
0.000484162 0.000270604 1.44577e-06
-3.57643e-06 1.44577e-06 -8.66818e-06
0.000505537 -4.09214e-05 5.39296e-07
-4.09214e-05 -1.71845e-05 6.86668e-06
5.39296e-07 6.86668e-06 -4.66796e-05
0.000698731 2.20245e-05 1.00386e-06
2.20245e-05 0.000113105 5.38178e-06
1.00386e-06 5.38178e-06 2.25612e-05
0.000675506 0.000215371 2.63494e-06
0.000215371 3.7809e-05 8.64919e-07
2.63494e-06 8.64919e-07 -0.000185568
0.00142785 0.000123598 -1.42096e-06
0.000123598 0.000628307 3.04927e-06
-1.42096e-06 3.04927e-06 0.000412181
0.00137318 0.000285214 -1.51526e-06
0.000285214 0.000518522 -2.5748e-06
-1.51526e-06 -2.5748e-06 0.000264964
0.00200179 0.000372873 3.27334e-07
0.000372873 0.000209026 -2.54808e-06
3.27334e-07 -2.54808e-06 2.94669e-05
0.00190816 0.000467477 3.80319e-07
0.000467477 0.000281031 -6.71688e-07
3.80319e-07 -6.71688e-07 3.31468e-05
0.00197798 0.00045659 -1.28211e-06
0.00045659 0.000228782 -8.60406e-07
-1.28211e-06 -8.60406e-07 2.34117e-05
0.000891356 0.000340561 2.57243e-06
0.000340561 3.90577e-05 2.06948e-06
2.57243e-06 2.06948e-06 -0.000249708
0.00215783 0.000566143 -7.46627e-07
0.000566143 0.000461626 -7.90942e-07
-7.46627e-07 -7.90942e-07 0.000182614
0.00147411 0.000481603 4.81159e-06
0.000481603 0.00024504 -2.90783e-06
4.81159e-06 -2.90783e-06 -7.28297e-05
0.000594932 2.65426e-05 2.49656e-06
2.65426e-05 4.76763e-05 3.47568e-06
2.49656e-06 3.47568e-06 -1.96224e-05
0.000634961 7.13808e-05 -2.10518e-07
7.13808e-05 0.000107439 1.54119e-06
-2.10518e-07 1.54119e-06 -1.33317e-06
0.000591241 4.10366e-05 2.3948e-06
4.10366e-05 5.19029e-05 3.15543e-06
2.3948e-06 3.15543e-06 -9.61958e-06
0.000548098 1.11886e-07 -5.85952e-07
1.11886e-07 2.11852e-05 6.23158e-09
-5.85952e-07 6.23158e-09 -4.22222e-05
0.00126233 -4.50167e-05 8.3545e-07
-4.50167e-05 0.000440555 3.42392e-06
8.3545e-07 3.42392e-06 0.000422346
0.00088711 -4.32329e-05 4.92663e-07
-4.32329e-05 0.000211356 -1.57003e-07
4.92663e-07 -1.57003e-07 0.000188598
0.000849672 -5.26842e-05 2.73939e-05
-5.26842e-05 0.000195334 8.52616e-06
2.73939e-05 8.52616e-06 0.000194914
0.00257808 -0.000116589 5.82915e-06
-0.000116589 0.0012821 -5.59258e-07
5.82915e-06 -5.59258e-07 0.00128299
0.00268781 -0.000134533 -3.82292e-05
-0.000134533 0.00136004 -3.46462e-06
-3.82292e-05 -3.46462e-06 0.00135595
0.000356176 -2.90212e-05 5.31411e-06
-2.90212e-05 -9.22589e-05 -9.06189e-06
5.31411e-06 -9.06189e-06 -0.000138927
0.00383138 0.000149179 8.9304e-05
0.000149179 0.00208313 -6.24461e-06
8.9304e-05 -6.24461e-06 0.00207161
0.000461546 -6.06031e-05 -1.47404e-06
-6.06031e-05 -3.81727e-05 4.18739e-07
-1.47404e-06 4.18739e-07 -9.86021e-05
0.00461105 0.00013984 -1.16695e-05
0.00013984 0.00257245 -1.31061e-06
-1.16695e-05 -1.31061e-06 0.00256027
0.000559277 -8.63692e-05 -1.54793e-05
-8.63692e-05 6.8497e-06 1.37513e-05
-1.54793e-05 1.37513e-05 -7.14482e-05
0.00551146 0.000142378 -0.000187979
0.000142378 0.00313002 1.8654e-05
-0.000187979 1.8654e-05 0.00311412
0.00104177 0.000156594 -1.31503e-05
0.000156594 -5.69944e-05 -3.4e-06
-1.31503e-05 -3.4e-06 -0.00021778
0.00102106 9.29996e-05 -1.19429e-05
9.29996e-05 -7.0656e-05 -1.69484e-06
-1.19429e-05 -1.69484e-06 -0.000210154
0.00175119 0.000198614 -1.98496e-06
0.000198614 0.000106429 6.75536e-07
-1.98496e-06 6.75536e-07 -3.8307e-05
0.00166596 8.83571e-05 2.0117e-07
8.83571e-05 6.27058e-05 4.49871e-07
2.0117e-07 4.49871e-07 -5.33808e-05
0.00101397 3.24162e-05 -1.2024e-05
3.24162e-05 -6.07958e-05 -4.91315e-07
-1.2024e-05 -4.91315e-07 -0.000188484
0.00046708 2.90765e-05 -1.93139e-05
2.90765e-05 -0.000175052 -5.75607e-07
-1.93139e-05 -5.75607e-07 -0.000248505
0.00101388 4.66459e-07 -3.68404e-08
4.66459e-07 -5.2432e-05 -1.09255e-07
-3.68404e-08 -1.09255e-07 -0.000178809
0.00166474 4.36772e-05 -8.83772e-08
4.36772e-05 6.3749e-05 1.38486e-07
-8.83772e-08 1.38486e-07 -4.62153e-05
0.00171338 0.000141487 -5.13494e-08
0.000141487 8.40851e-05 1.85576e-07
-5.13494e-08 1.85576e-07 -4.29352e-05
0.0019178 0.000116707 -1.56662e-07
0.000116707 5.99089e-05 2.42798e-07
-1.56662e-07 2.42798e-07 -7.01553e-06
0.00176201 0.00025923 -3.74176e-07
0.00025923 0.000130524 -1.02516e-07
-3.74176e-07 -1.02516e-07 -3.68197e-05
0.00195657 0.000240314 -5.47719e-07
0.000240314 0.000113166 -2.03594e-08
-5.47719e-07 -2.03594e-08 -8.87463e-07
0.00164159 -3.58253e-07 -2.09617e-08
-3.58253e-07 5.42527e-05 1.09948e-07
-2.09617e-08 1.09948e-07 -5.4252e-05
0.0019224 5.79003e-05 1.10822e-06
5.79003e-05 6.87805e-05 1.12947e-07
1.10822e-06 1.12947e-07 1.36239e-05
0.00191647 0.000177273 1.90729e-06
0.000177273 6.48114e-05 -5.65749e-07
1.90729e-06 -5.65749e-07 -2.3402e-05
0.00196145 0.000115446 6.96646e-06
0.000115446 3.84809e-05 7.1136e-07
6.96646e-06 7.1136e-07 6.13373e-07
0.00203498 0.000316266 8.4044e-07
0.000316266 0.000193359 -1.54902e-06
8.4044e-07 -1.54902e-06 4.69399e-05
0.00193809 0.000260374 2.33936e-06
0.000260374 3.01962e-05 4.73185e-07
2.33936e-06 4.73185e-07 -5.51276e-05
0.000924078 -1.58888e-05 -1.21936e-05
-1.58888e-05 -0.000109837 6.24115e-07
-1.21936e-05 6.24115e-07 -0.000234202
0.00183082 -9.59818e-05 -2.64242e-05
-9.59818e-05 0.000443102 2.9263e-06
-2.64242e-05 2.9263e-06 0.000316798
0.00189651 -8.27571e-05 -2.40518e-06
-8.27571e-05 0.000221234 -2.07826e-07
-2.40518e-06 -2.07826e-07 0.000110364
0.00174412 -0.000199492 -2.85494e-06
-0.000199492 0.000146724 6.30817e-07
-2.85494e-06 6.30817e-07 -4.67849e-06
0.000547631 -0.00018158 -2.34633e-05
-0.00018158 -2.72331e-05 1.82205e-05
-2.34633e-05 1.82205e-05 -0.000130388
0.00081261 -0.000219273 -1.05935e-05
-0.000219273 5.87329e-05 7.94849e-06
-1.05935e-05 7.94849e-06 -0.000142069
0.00126165 -0.000379763 -4.5503e-06
-0.000379763 0.000141682 2.17679e-06
-4.5503e-06 2.17679e-06 -0.000134359
0.00181738 -0.000296971 -6.08729e-06
-0.000296971 0.00024372 1.43383e-06
-6.08729e-06 1.43383e-06 5.36218e-05
0.00205486 -0.000304433 5.02754e-07
-0.000304433 0.000213169 -1.45815e-06
5.02754e-07 -1.45815e-06 8.10623e-05
0.00190689 -0.000394652 -7.76812e-07
-0.000394652 0.000219727 -1.2144e-06
-7.76812e-07 -1.2144e-06 2.2041e-05
0.00204382 -0.000497457 -3.29141e-06
-0.000497457 0.000409734 -2.33422e-06
-3.29141e-06 -2.33422e-06 0.000136467
0.00188273 -0.000449776 3.31631e-06
-0.000449776 0.000188618 -2.6057e-06
3.31631e-06 -2.6057e-06 -1.53932e-05
0.000773879 -0.000178925 -3.38776e-06
-0.000178925 0.000146473 5.6671e-06
-3.38776e-06 5.6671e-06 -7.03886e-05
2.15187e-05 -0.00012089 5.32764e-07
-0.00012089 -0.000293779 -6.21893e-07
5.32764e-07 -6.21893e-07 -0.00054988
0.000800214 -0.000125619 -3.48991e-07
-0.000125619 0.000185457 4.34105e-06
-3.48991e-07 4.34105e-06 1.75068e-05
0.00171577 -3.70707e-05 -7.76899e-07
-3.70707e-05 0.000108154 8.67004e-08
-7.76899e-07 8.67004e-08 -4.01353e-06
0.00183054 -0.000147647 -2.95912e-06
-0.000147647 0.000183452 5.29023e-07
-2.95912e-06 5.29023e-07 5.77221e-05
0.00191002 -0.000108726 2.8789e-06
-0.000108726 7.05153e-05 -3.29831e-07
2.8789e-06 -3.29831e-07 -2.73481e-06
0.00188367 -0.000235085 -1.72616e-06
-0.000235085 8.74784e-05 5.60314e-07
-1.72616e-06 5.60314e-07 -2.81295e-05
0.000763719 -0.000225325 5.15039e-07
-0.000225325 9.0682e-05 -5.6452e-07
5.15039e-07 -5.6452e-07 -0.00011974
0.0011702 -0.000345421 -1.58945e-06
-0.000345421 0.000180124 -2.54335e-07
-1.58945e-06 -2.54335e-07 -8.8768e-05
0.00164543 -0.000519395 1.56864e-06
-0.000519395 0.000281824 2.35768e-07
1.56864e-06 2.35768e-07 -4.34795e-05
0.00178827 -0.000348904 -1.37721e-06
-0.000348904 0.000102234 9.71191e-07
-1.37721e-06 9.71191e-07 -6.77676e-05
0.00200567 -0.00032048 1.49201e-06
-0.00032048 0.000143391 -5.05978e-07
1.49201e-06 -5.05978e-07 3.50894e-05
0.001983 -0.000522256 -5.04167e-07
-0.000522256 0.000308651 4.80845e-07
-5.04167e-07 4.80845e-07 4.32446e-05
0.00191616 -0.000422865 -5.24352e-08
-0.000422865 0.000165449 5.26312e-07
-5.24352e-08 5.26312e-07 -7.33329e-06
0.0021398 -0.000471152 1.78161e-06
-0.000471152 0.000345532 -5.78846e-07
1.78161e-06 -5.78846e-07 0.000160278
0.00107641 -0.000267756 -1.11229e-07
-0.000267756 0.000264675 3.96961e-07
-1.11229e-07 3.96961e-07 2.23561e-05
0.00115202 -0.000293456 -9.25307e-07
-0.000293456 0.000339937 1.90988e-07
-9.25307e-07 1.90988e-07 6.26836e-05
0.000661642 -9.24194e-05 -1.82701e-07
-9.24194e-05 0.000111798 1.47857e-08
-1.82701e-07 1.47857e-08 -2.36846e-05
9.19809e-05 -7.98564e-05 1.99865e-07
-7.98564e-05 -0.000194159 -1.56353e-06
1.99865e-07 -1.56353e-06 -0.000443877
0.00193297 -5.7498e-05 1.981e-06
-5.7498e-05 8.47539e-05 1.08473e-07
1.981e-06 1.08473e-07 2.20395e-05
0.00179549 -0.000173154 1.80991e-06
-0.000173154 6.81002e-06 6.79926e-08
1.80991e-06 6.79926e-08 -8.87973e-05
0.00185379 -0.000108637 6.66659e-06
-0.000108637 -5.38813e-06 -5.57648e-07
6.66659e-06 -5.57648e-07 -4.41611e-05
0.00198722 -0.000264238 -5.54563e-09
-0.000264238 7.64277e-05 -5.14006e-07
-5.54563e-09 -5.14006e-07 5.14486e-06
0.00178197 -0.000372062 -2.28822e-06
-0.000372062 4.25791e-05 9.17745e-07
-2.28822e-06 9.17745e-07 -9.75126e-05
0.00203068 -0.000332915 4.3485e-06
-0.000332915 0.000129807 -1.64028e-06
4.3485e-06 -1.64028e-06 4.28458e-05
0.00127335 -0.000317105 4.14807e-06
-0.000317105 0.000315584 -4.40724e-06
4.14807e-06 -4.40724e-06 6.7193e-05
0.00183719 -0.000436346 -3.62241e-06
-0.000436346 0.000108006 5.16702e-07
-3.62241e-06 5.16702e-07 -4.54171e-05
0.00147752 -0.00049717 2.39879e-06
-0.00049717 0.00031243 -5.91732e-07
2.39879e-06 -5.91732e-07 -2.8059e-05
0.00184917 -0.000590678 1.10669e-06
-0.000590678 0.000341783 1.71357e-06
1.10669e-06 1.71357e-06 2.03941e-06
0.00193335 -0.000531154 1.3834e-06
-0.000531154 0.000231382 4.05133e-06
1.3834e-06 4.05133e-06 -2.57788e-05
0.00223025 -0.000487625 -3.32659e-06
-0.000487625 0.000380374 -1.54942e-06
-3.32659e-06 -1.54942e-06 0.000191846
0.000554049 -7.275e-05 -7.95171e-07
-7.275e-05 5.02625e-05 -5.02727e-06
-7.95171e-07 -5.02727e-06 -6.16876e-05
0.000341063 -0.000101128 -3.76601e-06
-0.000101128 -2.10661e-05 -1.17452e-06
-3.76601e-06 -1.17452e-06 -0.000246816
0.0013059 -0.000342037 7.04375e-08
-0.000342037 0.000349305 -8.33792e-07
7.04375e-08 -8.33792e-07 8.25536e-05
0.00102751 -0.000219777 -2.97704e-06
-0.000219777 0.000363916 2.82489e-06
-2.97704e-06 2.82489e-06 8.90771e-05
0.00207402 -0.000419555 -8.80824e-06
-0.000419555 0.000883743 1.35104e-06
-8.80824e-06 1.35104e-06 0.000571898
0.000363599 -5.41973e-05 -6.83002e-07
-5.41973e-05 -8.69043e-05 -7.50807e-06
-6.83002e-07 -7.50807e-06 -0.000126364
0.00170757 0.000304731 -3.75184e-06
0.000304731 0.000138105 -5.93381e-07
-3.75184e-06 -5.93381e-07 -5.39711e-05
0.000418088 4.60953e-06 4.07818e-07
4.60953e-06 -5.58118e-05 -5.80113e-06
4.07818e-07 -5.80113e-06 -0.000166992
0.000522694 0.000173508 -4.73639e-06
0.000173508 1.67354e-06 -3.43392e-06
-4.73639e-06 -3.43392e-06 -0.000194624
0.00054614 0.000127063 1.56332e-06
0.000127063 7.03241e-05 5.26483e-07
1.56332e-06 5.26483e-07 -0.000174699
0.0015588 0.000371005 -4.71853e-06
0.000371005 0.000174627 -7.94374e-07
-4.71853e-06 -7.94374e-07 -6.5326e-05
0.00189014 0.000412926 1.93829e-07
0.000412926 0.000204957 1.28154e-06
1.93829e-07 1.28154e-06 -7.59291e-06
0.00119886 0.000295051 -4.87617e-06
0.000295051 0.000277872 -3.18e-06
-4.87617e-06 -3.18e-06 3.5914e-05
0.00140988 0.000431794 4.14692e-07
0.000431794 0.000260032 1.87112e-08
4.14692e-07 1.87112e-08 -5.65351e-05
0.00182633 0.000479581 4.56437e-07
0.000479581 0.000324475 1.86953e-06
4.56437e-07 1.86953e-06 5.31929e-05
0.00180667 0.000488328 1.13412e-06
0.000488328 0.000321743 7.13939e-06
1.13412e-06 7.13939e-06 4.56037e-05
0.00048525 -3.48003e-05 3.31382e-08
-3.48003e-05 -3.11673e-05 9.78482e-08
3.31382e-08 9.78482e-08 -5.9391e-05
0.000605909 1.02563e-05 -5.86567e-07
1.02563e-05 6.03316e-05 4.76114e-07
-5.86567e-07 4.76114e-07 -2.99202e-05
0.000997833 0.000250206 6.8256e-07
0.000250206 0.000238589 6.10486e-07
6.8256e-07 6.10486e-07 9.28967e-06
0.000685792 6.90125e-05 -7.32558e-07
6.90125e-05 0.000165301 -3.64184e-07
-7.32558e-07 -3.64184e-07 -3.71066e-05
0.000760985 0.000205543 6.34499e-07
0.000205543 0.000121419 5.30825e-08
6.34499e-07 5.30825e-08 -0.000105604
0.00197832 0.000372231 -1.14288e-06
0.000372231 0.000194133 -1.49407e-06
-1.14288e-06 -1.49407e-06 1.44169e-05
0.00186786 0.000464219 5.6483e-07
0.000464219 0.000256852 1.7379e-07
5.6483e-07 1.7379e-07 9.39656e-06
0.00191435 0.000453423 1.63172e-06
0.000453423 0.000192386 2.73453e-07
1.63172e-06 2.73453e-07 -1.3136e-05
0.00135406 0.000385953 1.63767e-06
0.000385953 0.000332216 9.6701e-07
1.63767e-06 9.6701e-07 3.37036e-05
0.00200955 0.000550349 1.82393e-06
0.000550349 0.000357194 1.71397e-07
1.82393e-06 1.71397e-07 7.94534e-05
0.00173238 0.000504478 -2.56888e-06
0.000504478 0.000404232 -2.32155e-07
-2.56888e-06 -2.32155e-07 8.33453e-05
0.000672175 2.19491e-05 1.28147e-06
2.19491e-05 9.57495e-05 3.96878e-06
1.28147e-06 3.96878e-06 2.01844e-05
0.00123022 0.000140262 4.28486e-07
0.000140262 0.000485644 3.33122e-06
4.28486e-07 3.33122e-06 0.000330842
0.00101253 0.000302502 -2.24269e-06
0.000302502 0.000172454 -5.95677e-08
-2.24269e-06 -5.95677e-08 -7.17535e-05
0.00153848 0.000157422 -1.60782e-06
0.000157422 0.000702337 4.6555e-07
-1.60782e-06 4.6555e-07 0.00045668
0.00137614 0.000240858 -7.63636e-06
0.000240858 0.000425185 -3.898e-06
-7.63636e-06 -3.898e-06 0.000223389
0.00198196 0.00038853 -3.79587e-06
0.00038853 0.000172953 -2.84702e-06
-3.79587e-06 -2.84702e-06 1.05035e-05
0.00197091 0.000517489 -5.04138e-07
0.000517489 0.000277971 -1.8106e-07
-5.04138e-07 -1.8106e-07 3.0741e-05
0.00175063 0.00048878 5.06844e-06
0.00048878 5.57126e-05 -1.11488e-07
5.06844e-06 -1.11488e-07 -0.000152052
0.000709742 0.000379558 3.14666e-06
0.000379558 -3.96568e-05 -1.77871e-06
3.14666e-06 -1.77871e-06 -0.000365736
0.00146168 0.000514817 8.59645e-06
0.000514817 0.000140408 -5.67693e-07
8.59645e-06 -5.67693e-07 -0.000156911
0.000580243 1.96687e-05 -2.76578e-07
1.96687e-05 3.69146e-05 1.20167e-07
-2.76578e-07 1.20167e-07 -2.91931e-05
0.000455469 4.81241e-05 6.64258e-07
4.81241e-05 -1.62596e-05 2.05587e-06
6.64258e-07 2.05587e-06 -0.000118809
0.000449263 4.28519e-05 -6.03277e-07
4.28519e-05 -2.05144e-05 -2.35755e-07
-6.03277e-07 -2.35755e-07 -0.000117771
0.000943361 0.000130265 -9.24942e-07
0.000130265 0.000299691 -1.22969e-06
-9.24942e-07 -1.22969e-06 0.000175613
0.000666713 9.97623e-05 1.8481e-06
9.97623e-05 0.000128402 1.99572e-06
1.8481e-06 1.99572e-06 2.23595e-05
0.000549624 5.19617e-05 2.69094e-06
5.19617e-05 3.24386e-05 3.12465e-06
2.69094e-06 3.12465e-06 -2.92343e-05
0.000546819 6.8163e-06 -6.39763e-07
6.8163e-06 2.47268e-05 -1.7496e-08
-6.39763e-07 -1.7496e-08 -3.65542e-05
0.00124422 -3.05613e-05 7.62588e-07
-3.05613e-05 0.000427165 3.07628e-06
7.62588e-07 3.07628e-06 0.000411598
0.000560703 1.08065e-05 -1.60797e-06
1.08065e-05 2.49178e-05 -3.30413e-06
-1.60797e-06 -3.30413e-06 -3.58549e-05
0.00130378 -4.10389e-05 -6.91804e-06
-4.10389e-05 0.000465787 -1.48914e-06
-6.91804e-06 -1.48914e-06 0.000448566
0.000822298 -3.94013e-05 2.84802e-05
-3.94013e-05 0.000170436 8.38728e-06
2.84802e-05 8.38728e-06 0.000174065
0.00132172 -4.99855e-05 -1.14924e-05
-4.99855e-05 0.000482098 -4.77766e-06
-1.14924e-05 -4.77766e-06 0.000462036
0.00164879 -7.45216e-05 2.68046e-05
-7.45216e-05 0.000694114 1.62093e-06
2.68046e-05 1.62093e-06 0.000696559
0.00251941 -0.000112679 -3.381e-05
-0.000112679 0.00124428 -3.90197e-06
-3.381e-05 -3.90197e-06 0.00124607
0.000322053 8.02564e-05 -5.39042e-06
8.02564e-05 -8.88871e-05 -7.48203e-06
-5.39042e-06 -7.48203e-06 -0.000137367
0.000474682 -1.35159e-05 5.41922e-07
-1.35159e-05 -1.44686e-05 5.7075e-07
5.41922e-07 5.7075e-07 -6.6408e-05
0.00318815 0.000166134 1.42499e-05
0.000166134 0.00168226 -5.72403e-06
1.42499e-05 -5.72403e-06 0.00166666
0.00400838 0.000121151 -1.14302e-05
0.000121151 0.00218998 -9.21414e-07
-1.14302e-05 -9.21414e-07 0.00218487
0.000675801 -6.41921e-05 -1.16325e-05
-6.41921e-05 9.09837e-05 1.16378e-05
-1.16325e-05 1.16378e-05 2.88258e-05
0.00483641 0.000117692 -0.000164357
0.000117692 0.0027047 1.53798e-05
-0.000164357 1.53798e-05 0.00269713
0.00173734 0.000257107 -2.69557e-06
0.000257107 0.000118664 4.20494e-07
-2.69557e-06 4.20494e-07 -4.87469e-05
0.00169254 0.000141699 -4.64165e-07
0.000141699 7.07076e-05 6.50769e-07
-4.64165e-07 6.50769e-07 -5.68703e-05
0.00192683 0.000238472 -1.81127e-06
0.000238472 9.81082e-05 1.66897e-06
-1.81127e-06 1.66897e-06 -1.58723e-05
0.0019401 0.000115105 -1.78648e-06
0.000115105 6.73366e-05 6.27791e-07
-1.78648e-06 6.27791e-07 3.73261e-06
0.00166424 4.56778e-05 1.21352e-07
4.56778e-05 6.7118e-05 3.82356e-07
1.21352e-07 3.82356e-07 -4.29531e-05
0.00102035 5.28255e-06 -1.17686e-05
5.28255e-06 -4.9149e-05 -1.07689e-07
-1.17686e-05 -1.07689e-07 -0.000175477
0.00165229 3.20794e-06 5.79013e-08
3.20794e-06 6.29092e-05 1.57541e-07
5.79013e-08 1.57541e-07 -4.56122e-05
0.00189616 4.94118e-05 -9.13485e-07
4.94118e-05 5.31966e-05 1.15525e-08
-9.13485e-07 1.15525e-08 -2.36141e-06
0.00193219 0.000175733 -6.22963e-07
0.000175733 7.78603e-05 3.05415e-07
-6.22963e-07 3.05415e-07 -9.9754e-06
0.00194353 0.000113352 9.34999e-07
0.000113352 2.12582e-05 2.42838e-07
9.34999e-07 2.42838e-07 -1.15174e-05
0.00199382 0.000316348 -3.97906e-07
0.000316348 0.000161433 -1.60314e-07
-3.97906e-07 -1.60314e-07 1.45902e-05
0.00194385 0.000255732 3.74729e-08
0.000255732 3.27466e-05 4.55468e-07
3.74729e-08 4.55468e-07 -4.81743e-05
0.00192201 -4.71624e-06 1.78565e-06
-4.71624e-06 7.51759e-05 1.5967e-07
1.78565e-06 1.5967e-07 1.91735e-05
0.00191715 4.97672e-05 6.4944e-06
4.97672e-05 2.35375e-05 1.74091e-07
6.4944e-06 1.74091e-07 -3.01479e-06
0.00195293 0.000180812 3.23502e-06
0.000180812 2.13811e-05 1.84466e-07
3.23502e-06 1.84466e-07 -2.57701e-05
0.00202513 0.000112464 4.7952e-06
0.000112464 4.30126e-05 5.71347e-07
4.7952e-06 5.71347e-07 3.16095e-05
0.00193986 0.000312319 9.91252e-07
0.000312319 8.86437e-05 -1.10126e-06
9.91252e-07 -1.10126e-06 -3.22193e-05
0.00211738 0.000264643 3.74453e-06
0.000264643 9.18408e-05 1.24247e-06
3.74453e-06 1.24247e-06 3.60837e-05
0.00169667 -3.42934e-05 -1.15861e-06
-3.42934e-05 9.51281e-05 -1.37045e-07
-1.15861e-06 -1.37045e-07 -1.52073e-05
0.00182863 -0.000153226 -3.73673e-06
-0.000153226 0.000180074 6.04525e-08
-3.73673e-06 6.04525e-08 5.33286e-05
0.00197535 -0.000108602 6.4506e-07
-0.000108602 0.000110203 -9.67736e-07
6.4506e-07 -9.67736e-07 4.30288e-05
0.00188343 -0.000231235 -1.67429e-06
-0.000231235 8.76703e-05 -7.05927e-08
-1.67429e-06 -7.05927e-08 -3.01766e-05
0.000811689 -0.000230324 -8.10615e-06
-0.000230324 0.000121262 7.58855e-06
-8.10615e-06 7.58855e-06 -9.12955e-05
0.00115077 -0.000347771 -7.11267e-06
-0.000347771 0.000158447 3.8192e-06
-7.11267e-06 3.8192e-06 -0.00011122
0.00151906 -0.000500248 8.23994e-07
-0.000500248 0.000220741 -2.84559e-07
8.23994e-07 -2.84559e-07 -0.000102498
0.00179614 -0.000347704 -1.20836e-06
-0.000347704 0.000110785 -3.61082e-08
-1.20836e-06 -3.61082e-08 -6.42679e-05
0.0019387 -0.000317534 3.59658e-07
-0.000317534 9.56152e-05 -2.0074e-07
3.59658e-07 -2.0074e-07 -8.81195e-06
0.0019462 -0.000423381 1.62375e-06
-0.000423381 0.000186944 -5.57294e-07
1.62375e-06 -5.57294e-07 1.40089e-05
0.00189486 -0.000525049 -1.1147e-06
-0.000525049 0.000245364 -2.53586e-06
-1.1147e-06 -2.53586e-06 -2.33436e-05
0.0020511 -0.000460022 6.70771e-06
-0.000460022 0.000286594 -4.86691e-06
6.70771e-06 -4.86691e-06 0.000106323
0.00078585 -0.000239671 -1.31669e-06
-0.000239671 9.33143e-05 1.98211e-06
-1.31669e-06 1.98211e-06 -0.000149447
-0.000101409 -0.000159413 2.1809e-07
-0.000159413 -0.000442346 1.73846e-06
2.1809e-07 1.73846e-06 -0.000698997
0.000762174 -0.000104728 -4.89147e-07
-0.000104728 0.000169277 4.6151e-06
-4.89147e-07 4.6151e-06 3.0973e-05
0.000137692 -5.23248e-05 3.17654e-06
-5.23248e-05 -0.000183446 -2.56732e-06
3.17654e-06 -2.56732e-06 -0.00041217
0.00191207 -5.68291e-05 -3.15265e-09
-5.68291e-05 7.34749e-05 1.80647e-07
-3.15265e-09 1.80647e-07 1.06176e-05
0.00185211 -0.000174312 2.17572e-06
-0.000174312 4.59288e-05 -7.96915e-07
2.17572e-06 -7.96915e-07 -5.06311e-05
0.00190798 -0.000110114 1.47349e-06
-0.000110114 2.59899e-05 -4.66135e-07
1.47349e-06 -4.66135e-07 -1.15555e-05
0.00195901 -0.000260581 -1.66893e-06
-0.000260581 6.58644e-05 2.46608e-07
-1.66893e-06 2.46608e-07 -8.88821e-06
0.00107019 -0.00029105 -1.53452e-06
-0.00029105 0.000185272 6.50507e-07
-1.53452e-06 6.50507e-07 -5.76289e-05
0.00135555 -0.000475034 2.62115e-06
-0.000475034 0.000250999 -9.58242e-07
2.62115e-06 -9.58242e-07 -8.35499e-05
0.00177957 -0.000591767 -1.5537e-07
-0.000591767 0.00029365 4.3553e-07
-1.5537e-07 4.3553e-07 -5.0131e-05
0.00182806 -0.000372071 -1.46245e-06
-0.000372071 8.00694e-05 7.80948e-07
-1.46245e-06 7.80948e-07 -6.34676e-05
0.00198093 -0.000332733 1.26709e-06
-0.000332733 0.000102296 -4.96636e-07
1.26709e-06 -4.96636e-07 1.69872e-05
0.00191715 -0.000533759 -8.80859e-08
-0.000533759 0.000238552 4.62883e-07
-8.80859e-08 4.62883e-07 -2.078e-05
0.0018307 -0.000437366 -9.25072e-07
-0.000437366 9.48994e-05 1.08368e-06
-9.25072e-07 1.08368e-06 -5.9458e-05
0.00209025 -0.00047341 4.06578e-06
-0.00047341 0.000289807 -5.41001e-06
4.06578e-06 -5.41001e-06 0.000108143
0.00111412 -0.000322499 2.13161e-07
-0.000322499 0.000229193 1.22471e-06
2.13161e-07 1.22471e-06 -3.39752e-05
0.00146396 -0.000351492 2.85291e-06
-0.000351492 0.000496244 1.14948e-06
2.85291e-06 1.14948e-06 0.000200109
0.000927874 -0.0001999 -1.65717e-07
-0.0001999 0.000301519 -3.55794e-08
-1.65717e-07 -3.55794e-08 2.58282e-05
0.0003607 -4.19883e-05 -2.15937e-06
-4.19883e-05 -7.06462e-05 6.33513e-07
-2.15937e-06 6.33513e-07 -0.000182718
0.000151859 -5.17153e-05 -4.58658e-07
-5.17153e-05 -0.000148504 -6.27598e-07
-4.58658e-07 -6.27598e-07 -0.000359107
0.0018903 -5.98787e-05 5.69756e-06
-5.98787e-05 4.78105e-06 3.17113e-09
5.69756e-06 3.17113e-09 -1.76566e-05
0.00195602 -0.00016421 4.88861e-06
-0.00016421 4.01449e-05 -7.68616e-07
4.88861e-06 -7.68616e-07 1.86745e-06
0.00200259 -0.000307062 1.97158e-06
-0.000307062 3.08188e-05 -6.9005e-07
1.97158e-06 -6.9005e-07 -1.69413e-05
0.00193671 -0.00038 1.12008e-06
-0.00038 9.72308e-05 -1.96125e-06
1.12008e-06 -1.96125e-06 -4.91204e-06
0.00153 -0.000412782 3.86053e-07
-0.000412782 0.00045554 -3.91088e-06
3.86053e-07 -3.91088e-06 0.000150493
0.00214062 -0.000526282 -1.06442e-06
-0.000526282 0.000202206 -3.55584e-06
-1.06442e-06 -3.55584e-06 3.33151e-05
0.00125831 -0.000549208 -3.45783e-06
-0.000549208 0.000163724 1.96923e-06
-3.45783e-06 1.96923e-06 -0.000207972
0.00193256 -0.000657075 2.07144e-06
-0.000657075 0.00034123 6.25782e-08
2.07144e-06 6.25782e-08 -1.80564e-05
0.0018689 -0.000515835 -4.97612e-06
-0.000515835 0.000195946 1.75296e-06
-4.97612e-06 1.75296e-06 -5.29664e-05
4.80239e-05 -6.29545e-06 -1.76935e-06
-6.29545e-06 -0.000258749 -4.58661e-06
-1.76935e-06 -4.58661e-06 -0.000348421
0.00069714 -0.000107022 -2.06089e-06
-0.000107022 0.000194637 6.08786e-07
-2.06089e-06 6.08786e-07 9.34587e-06
0.00105701 -0.000147752 -2.50778e-06
-0.000147752 0.00040995 -2.41988e-06
-2.50778e-06 -2.41988e-06 0.000166954
0.00176516 -0.000424886 -7.77408e-06
-0.000424886 0.000614823 -4.30182e-07
-7.77408e-06 -4.30182e-07 0.000307143
0.000627234 -0.000177789 7.40179e-07
-0.000177789 6.96102e-05 4.49341e-06
7.40179e-07 4.49341e-06 -0.000216291
0.00144802 -0.00038408 -3.59839e-06
-0.00038408 0.000448658 4.75501e-06
-3.59839e-06 4.75501e-06 0.000131468
0.000468264 -3.81285e-05 -1.02073e-06
-3.81285e-05 -4.10826e-05 -6.30296e-06
-1.02073e-06 -6.30296e-06 -6.94658e-05
0.000550681 4.4438e-06 -8.97995e-07
4.4438e-06 3.07811e-05 -4.84436e-06
-8.97995e-07 -4.84436e-06 -5.95463e-05
0.00195416 0.00037153 -2.34241e-06
0.00037153 0.000178875 -3.49204e-07
-2.34241e-06 -3.49204e-07 -9.89572e-07
-0.000169796 -2.72691e-05 1.47742e-06
-2.72691e-05 -0.000357614 -2.94936e-06
1.47742e-06 -2.94936e-06 -0.000551148
0.00115157 0.000263 -2.63648e-06
0.000263 0.000335739 -4.34919e-07
-2.63648e-06 -4.34919e-07 0.000107549
0.000207711 0.000132795 3.13802e-06
0.000132795 -0.000236658 6.30124e-07
3.13802e-06 6.30124e-07 -0.000440855
0.00182911 0.000460709 5.48822e-07
0.000460709 0.000234608 9.83803e-07
5.48822e-07 9.83803e-07 -1.23095e-05
0.00185133 0.000449881 1.74409e-06
0.000449881 0.000157697 8.64429e-07
1.74409e-06 8.64429e-07 -4.78555e-05
0.00158767 0.000405027 2.49483e-07
0.000405027 0.000488767 -4.89058e-07
2.49483e-07 -4.89058e-07 0.000185192
0.00214403 0.000540487 -2.95392e-06
0.000540487 0.000656208 1.44077e-06
-2.95392e-06 1.44077e-06 0.000332874
0.00185105 0.000533629 -5.06049e-07
0.000533629 0.000246576 1.44125e-06
-5.06049e-07 1.44125e-06 -2.97673e-05
0.000586194 2.18728e-05 -4.13644e-07
2.18728e-05 4.47516e-05 4.75452e-07
-4.13644e-07 4.75452e-07 -3.05155e-05
0.000732963 5.62829e-05 -1.02975e-06
5.62829e-05 0.000175367 4.70406e-07
-1.02975e-06 4.70406e-07 3.46405e-05
0.00118837 0.000319463 2.34899e-07
0.000319463 0.0002809 2.68746e-07
2.34899e-07 2.68746e-07 3.47477e-05
0.000912497 0.000105996 6.49215e-07
0.000105996 0.000307604 6.03124e-07
6.49215e-07 6.03124e-07 7.47832e-05
0.000856221 0.000236975 4.30367e-06
0.000236975 0.000126322 7.90339e-07
4.30367e-06 7.90339e-07 -8.12215e-05
0.00192802 0.000388455 -2.32195e-06
0.000388455 0.000142131 -1.71745e-06
-2.32195e-06 -1.71745e-06 -2.11188e-05
0.00195916 0.000515221 1.7822e-06
0.000515221 0.000270873 5.94435e-07
1.7822e-06 5.94435e-07 2.39693e-05
0.00184141 0.000489485 3.79902e-07
0.000489485 0.000111292 -1.61633e-07
3.79902e-07 -1.61633e-07 -9.53631e-05
0.00120688 0.000443979 2.65777e-06
0.000443979 0.00024525 2.54002e-06
2.65777e-06 2.54002e-06 -8.96574e-05
0.00171081 0.000542057 -2.64595e-06
0.000542057 0.000302669 -1.90825e-06
-2.64595e-06 -1.90825e-06 -2.43019e-06
0.000880935 7.71033e-05 4.60564e-07
7.71033e-05 0.000259846 2.64679e-06
4.60564e-07 2.64679e-06 0.000139513
4.49072e-05 1.10962e-06 -2.11216e-06
1.10962e-06 -0.000207777 2.34342e-06
-2.11216e-06 2.34342e-06 -0.000390028
0.00121722 0.000355401 -3.80095e-06
0.000355401 0.000267778 -3.43125e-06
-3.80095e-06 -3.43125e-06 -1.41091e-06
0.000328804 0.000192661 -5.84259e-06
0.000192661 -6.01647e-05 -2.12629e-06
-5.84259e-06 -2.12629e-06 -0.000294739
0.00137189 0.000312395 -3.57472e-06
0.000312395 0.000374016 -3.42855e-06
-3.57472e-06 -3.42855e-06 0.000157899
0.00188574 0.00042166 -3.56842e-08
0.00042166 4.26061e-05 -1.15801e-06
-3.56842e-08 -1.15801e-06 -0.000103952
0.00205209 0.000570846 4.75557e-06
0.000570846 0.00030238 -1.60088e-06
4.75557e-06 -1.60088e-06 3.46997e-05
0.0017588 0.000510972 3.8214e-06
0.000510972 4.86191e-05 8.28604e-07
3.8214e-06 8.28604e-07 -0.000170995
0.00107785 0.000450871 6.05808e-06
0.000450871 0.000129415 2.65054e-06
6.05808e-06 2.65054e-06 -0.000209233
0.00192226 0.000607177 -1.58763e-06
0.000607177 0.000433275 -7.89009e-07
-1.58763e-06 -7.89009e-07 0.000107334
0.000546004 1.07441e-05 -1.77309e-06
1.07441e-05 1.50759e-05 -3.53584e-06
-1.77309e-06 -3.53584e-06 -5.02978e-05
0.000554555 5.49794e-05 1.24477e-06
5.49794e-05 4.70217e-05 4.0701e-07
1.24477e-06 4.0701e-07 -5.6907e-05
0.000380352 4.1183e-05 -5.25735e-07
4.1183e-05 -6.79629e-05 9.64416e-07
-5.25735e-07 9.64416e-07 -0.000169216
0.000282699 -2.09141e-05 -3.05676e-07
-2.09141e-05 -0.000118252 -2.10406e-06
-3.05676e-07 -2.10406e-06 -0.00021655
0.000612231 5.51869e-05 -3.33844e-07
5.51869e-05 9.43871e-05 2.34247e-08
-3.33844e-07 2.34247e-08 -9.60476e-06
0.000616714 7.93969e-05 -7.47826e-07
7.93969e-05 8.64384e-05 -1.26689e-07
-7.47826e-07 -1.26689e-07 -2.29297e-05
0.000747296 0.000115565 -3.14884e-06
0.000115565 0.000181398 -3.75431e-06
-3.14884e-06 -3.75431e-06 6.68934e-05
0.000348468 5.4938e-06 4.78275e-08
5.4938e-06 -6.02238e-05 -4.31347e-07
4.78275e-08 -4.31347e-07 -0.000181324
0.000673896 8.72358e-05 9.67673e-07
8.72358e-05 0.000125955 2.35995e-06
9.67673e-07 2.35995e-06 2.82185e-05
0.000580098 6.0678e-05 3.26642e-06
6.0678e-05 5.50687e-05 3.19672e-06
3.26642e-06 3.19672e-06 -8.89852e-06
0.000545336 1.59812e-05 -2.09177e-06
1.59812e-05 2.82038e-05 -1.48236e-09
-2.09177e-06 -1.48236e-09 -3.25602e-05
0.00122765 -1.62712e-05 1.10781e-06
-1.62712e-05 0.000418597 2.83424e-06
1.10781e-06 2.83424e-06 0.000404328
0.000475234 -5.81247e-05 1.28478e-06
-5.81247e-05 -1.35417e-05 -3.17513e-06
1.28478e-06 -3.17513e-06 -7.80739e-05
0.00128962 -2.63066e-05 -6.08416e-06
-2.63066e-05 0.000454845 -1.54848e-06
-6.08416e-06 -1.54848e-06 0.00044
0.000792368 -2.97942e-05 2.4688e-05
-2.97942e-05 0.000148236 8.65062e-06
2.4688e-05 8.65062e-06 0.00015379
0.00133563 -3.81748e-05 -1.03472e-05
-3.81748e-05 0.000485031 -6.35503e-06
-1.03472e-05 -6.35503e-06 0.000468367
0.000773491 -4.2087e-05 9.42002e-06
-4.2087e-05 0.000139915 3.21818e-06
9.42002e-06 3.21818e-06 0.000142156
0.00240957 -0.00010585 -2.84377e-06
-0.00010585 0.00116831 -2.47263e-06
-2.84377e-06 -2.47263e-06 0.00117126
0.000372695 5.5935e-05 -2.67272e-06
5.5935e-05 -7.95431e-05 -4.57625e-06
-2.67272e-06 -4.57625e-06 -0.000109584
0.000429105 2.64595e-05 -3.26978e-06
2.64595e-05 -3.8703e-05 -2.85413e-08
-3.26978e-06 -2.85413e-08 -7.9277e-05
0.00272934 0.000131191 1.57299e-05
0.000131191 0.00138973 -4.60687e-06
1.57299e-05 -4.60687e-06 0.00138406
0.000587209 -4.14118e-05 -8.14912e-06
-4.14118e-05 4.62266e-05 9.59293e-06
-8.14912e-06 9.59293e-06 -2.86869e-06
0.00339693 0.000131408 -3.06562e-05
0.000131408 0.00180468 -5.93172e-07
-3.06562e-05 -5.93172e-07 0.00179806
0.00415502 9.66411e-05 -0.000141477
9.66411e-05 0.0022746 1.18886e-05
-0.000141477 1.18886e-05 0.00227473
0.00195146 0.000316207 -2.42997e-06
0.000316207 0.000129119 1.15614e-06
-2.42997e-06 1.15614e-06 -1.80999e-05
0.00195247 0.000173141 -1.18926e-06
0.000173141 9.45932e-05 1.53951e-06
-1.18926e-06 1.53951e-06 7.36919e-06
0.00195058 0.000250706 -1.27604e-06
0.000250706 3.57827e-05 1.19985e-06
-1.27604e-06 1.19985e-06 -4.06855e-05
0.00192829 0.000111517 -3.67802e-06
0.000111517 5.78423e-06 -7.15331e-08
-3.67802e-06 -7.15331e-08 -2.1805e-05
0.00186941 4.28257e-05 -3.13357e-06
4.28257e-05 3.73752e-05 2.28669e-07
-3.13357e-06 2.28669e-07 -1.87862e-05
0.00166298 6.0717e-06 2.60354e-07
6.0717e-06 7.01565e-05 2.16217e-07
2.60354e-07 2.16217e-07 -3.83384e-05
0.0018934 -4.39364e-06 -6.22308e-07
-4.39364e-06 5.98633e-05 7.33669e-08
-6.22308e-07 7.33669e-08 2.10073e-06
0.0019338 4.95809e-05 1.42756e-06
4.95809e-05 3.79147e-05 4.42601e-09
1.42756e-06 4.42601e-09 8.607e-06
0.00198799 0.000180641 -7.59001e-08
0.000180641 4.55186e-05 -5.30406e-08
-7.59001e-08 -5.30406e-08 -3.27407e-06
0.00198775 0.00011306 8.37539e-07
0.00011306 1.59528e-05 2.92029e-07
8.37539e-07 2.92029e-07 8.05604e-06
0.0019184 0.000309254 -6.93292e-07
0.000309254 8.43651e-05 -1.12942e-07
-6.93292e-07 -1.12942e-07 -3.63259e-05
0.0020632 0.000266769 3.22441e-06
0.000266769 5.49717e-05 6.36245e-07
3.22441e-06 6.36245e-07 4.34962e-06
0.00192019 -9.53525e-06 5.99042e-06
-9.53525e-06 3.54903e-05 2.34805e-07
5.99042e-06 2.34805e-07 6.14459e-06
0.00196683 5.31213e-05 3.22141e-06
5.31213e-05 1.86096e-06 -5.55046e-08
3.22141e-06 -5.55046e-08 5.95386e-07
0.0020439 0.000180224 2.10949e-06
0.000180224 1.52006e-05 5.42252e-07
2.10949e-06 5.42252e-07 3.12777e-06
0.00207232 0.000347843 -3.87787e-07
0.000347843 7.50991e-05 7.01649e-07
-3.87787e-07 7.01649e-07 -1.34866e-06
0.00188823 -5.60722e-05 -2.50997e-06
-5.60722e-05 5.97699e-05 2.49617e-07
-2.50997e-06 2.49617e-07 -3.24208e-06
0.00188396 -0.000176167 1.54205e-06
-0.000176167 6.93364e-05 -1.29821e-06
1.54205e-06 -1.29821e-06 -2.84455e-05
0.00195507 -0.000111352 -4.06118e-06
-0.000111352 5.36235e-05 -1.04831e-07
-4.06118e-06 -1.04831e-07 1.70174e-05
0.00192892 -0.000256643 -4.65889e-06
-0.000256643 5.33584e-05 1.55851e-06
-4.65889e-06 1.55851e-06 -2.48704e-05
0.000916667 -0.000276149 -4.32456e-06
-0.000276149 8.59965e-05 4.59961e-06
-4.32456e-06 4.59961e-06 -0.000155219
0.00129735 -0.000459696 -2.62144e-08
-0.000459696 0.000226177 -3.71825e-08
-2.62144e-08 -3.71825e-08 -0.000103113
0.00176555 -0.000599987 -3.72777e-08
-0.000599987 0.000280262 -1.07456e-06
-3.72777e-08 -1.07456e-06 -6.94994e-05
0.00187959 -0.000372755 -1.63446e-06
-0.000372755 0.00012096 3.99464e-07
-1.63446e-06 3.99464e-07 -2.63578e-05
0.00189778 -0.000331381 -7.77429e-07
-0.000331381 5.47243e-05 1.23626e-06
-7.77429e-07 1.23626e-06 -2.90831e-05
0.00181922 -0.000438925 1.91615e-06
-0.000438925 7.622e-05 1.49131e-06
1.91615e-06 1.49131e-06 -7.91815e-05
0.00188679 -0.000530397 -1.24898e-06
-0.000530397 0.000234855 -2.34931e-06
-1.24898e-06 -2.34931e-06 -2.47498e-05
0.00196372 -0.000460064 5.91916e-06
-0.000460064 0.000199147 -7.28131e-06
5.91916e-06 -7.28131e-06 2.43408e-05
0.00100176 -0.000312038 1.47644e-06
-0.000312038 0.000159145 2.25728e-06
1.47644e-06 2.25728e-06 -0.000102826
0.000876604 -0.00028719 4.40809e-06
-0.00028719 0.000106196 1.14994e-06
4.40809e-06 1.14994e-06 -0.000168653
0.000606705 -0.000168088 3.78994e-06
-0.000168088 0.000108397 -3.88212e-06
3.78994e-06 -3.88212e-06 -0.000170667
0.000162324 -2.37324e-05 5.2379e-08
-2.37324e-05 -0.000193833 4.03787e-06
5.2379e-08 4.03787e-06 -0.000307346
0.000129714 -8.8167e-06 3.62528e-06
-8.8167e-06 -0.000168507 9.14956e-09
3.62528e-06 9.14956e-09 -0.000370052
0.00190131 -6.77253e-05 -1.37817e-07
-6.77253e-05 8.03269e-06 -1.34011e-07
-1.37817e-07 -1.34011e-07 -1.57871e-05
0.00195363 -0.000163943 1.08355e-06
-0.000163943 3.77411e-05 -1.15751e-07
1.08355e-06 -1.15751e-07 -1.43765e-06
0.00199998 -0.000301709 -8.62667e-07
-0.000301709 4.42102e-05 -4.53006e-09
-8.62667e-07 -4.53006e-09 -7.06662e-06
0.00132134 -0.00039312 -1.76191e-06
-0.00039312 0.000319867 -6.24725e-07
-1.76191e-06 -6.24725e-07 1.92601e-05
0.00133763 -0.000545249 2.95292e-06
-0.000545249 0.000212343 -8.70953e-07
2.95292e-06 -8.70953e-07 -0.000155888
0.00185546 -0.00065215 3.62291e-08
-0.00065215 0.00030556 -2.73681e-07
3.62291e-08 -2.73681e-07 -5.6772e-05
0.00190185 -0.000376965 2.93294e-07
-0.000376965 7.41302e-05 2.07094e-07
2.93294e-07 2.07094e-07 -2.90617e-05
0.00201517 -0.000537311 1.05717e-06
-0.000537311 0.000269718 -3.2784e-06
1.05717e-06 -3.2784e-06 2.32034e-05
0.00202167 -0.000508485 -8.64835e-07
-0.000508485 0.000160822 -5.26082e-07
-8.64835e-07 -5.26082e-07 -5.06813e-06
0.000179676 4.58526e-05 -1.46574e-06
4.58526e-05 -0.00018648 -7.7094e-07
-1.46574e-06 -7.7094e-07 -0.000269808
0.00118812 -0.000363638 -1.06573e-07
-0.000363638 0.000248005 7.60018e-08
-1.06573e-07 7.60018e-08 -4.43284e-05
0.00138047 -0.000377646 5.52312e-08
-0.000377646 0.000407686 2.37518e-06
5.52312e-08 2.37518e-06 9.86116e-05
0.0012594 -0.000268072 -3.51814e-07
-0.000268072 0.00047354 4.57126e-07
-3.51814e-07 4.57126e-07 0.00016263
0.00125301 -0.000153397 1.01897e-06
-0.000153397 0.000528549 -2.90366e-06
1.01897e-06 -2.90366e-06 0.000287398
0.000468308 -3.32347e-05 -7.31495e-07
-3.32347e-05 4.38975e-05 1.43218e-06
-7.31495e-07 1.43218e-06 -0.000134512
0.00195756 -8.37459e-05 3.67877e-06
-8.37459e-05 7.53194e-06 8.34759e-09
3.67877e-06 8.34759e-09 4.33024e-06
0.00207391 -0.000211252 1.39937e-06
-0.000211252 7.78747e-06 -3.41774e-07
1.39937e-06 -3.41774e-07 8.77405e-06
0.0020865 -0.000367192 1.41041e-06
-0.000367192 5.57522e-05 -8.85873e-07
1.41041e-06 -8.85873e-07 2.56999e-05
0.00213089 -0.000455999 1.8763e-06
-0.000455999 0.000117501 -2.30936e-06
1.8763e-06 -2.30936e-06 2.63952e-05
0.00164122 -0.000497338 -6.2748e-06
-0.000497338 0.000486496 -1.36621e-06
-6.2748e-06 -1.36621e-06 0.000139352
0.00201497 -0.000578783 3.49219e-06
-0.000578783 0.000196998 -1.64623e-06
3.49219e-06 -1.64623e-06 -1.98607e-05
0.00158484 -0.000639946 -1.11366e-05
-0.000639946 0.000322912 1.83649e-06
-1.11366e-05 1.83649e-06 -8.67987e-05
0.00221045 -0.000714553 -9.2178e-06
-0.000714553 0.000523947 4.36463e-07
-9.2178e-06 4.36463e-07 0.000139428
0.000131629 5.80747e-05 -3.87857e-06
5.80747e-05 -0.000220492 -1.61339e-06
-3.87857e-06 -1.61339e-06 -0.000284336
0.000675469 4.86297e-06 -1.96229e-06
4.86297e-06 0.000161374 3.44885e-07
-1.96229e-06 3.44885e-07 2.50414e-05
0.0012774 -0.000177396 -4.90803e-06
-0.000177396 0.000562088 2.27852e-06
-4.90803e-06 2.27852e-06 0.000345963
0.000913258 -6.47873e-05 -2.56847e-06
-6.47873e-05 0.000280142 -4.33622e-07
-2.56847e-06 -4.33622e-07 1.40848e-05
0.00163552 -0.000464088 -2.1028e-06
-0.000464088 0.000498734 1.02588e-06
-2.1028e-06 1.02588e-06 0.000154507
0.00157307 -0.000387759 -1.13816e-05
-0.000387759 0.000582351 1.38824e-05
-1.13816e-05 1.38824e-05 0.000206834
0.000475422 1.33479e-05 -1.77859e-06
1.33479e-05 -2.2767e-05 -3.79385e-06
-1.77859e-06 -3.79385e-06 -9.68437e-05
0.000292083 2.25832e-06 1.59744e-06
2.25832e-06 -0.000111009 -2.29268e-06
1.59744e-06 -2.29268e-06 -0.000232385
0.00187943 0.000389375 -2.04605e-06
0.000389375 0.000112627 -6.92633e-07
-2.04605e-06 -6.92633e-07 -5.1631e-05
0.000208573 5.01478e-05 1.08734e-06
5.01478e-05 -0.000137295 -3.25793e-07
1.08734e-06 -3.25793e-07 -0.00035222
0.00146843 0.000347113 -5.80937e-07
0.000347113 0.00045377 -7.14722e-08
-5.80937e-07 -7.14722e-08 0.000204438
-9.38395e-05 0.000127009 5.02166e-06
0.000127009 -0.000472346 2.64031e-06
5.02166e-06 2.64031e-06 -0.000649011
0.00194592 0.000513287 1.52575e-06
0.000513287 0.000260962 8.32277e-07
1.52575e-06 8.32277e-07 1.42611e-05
0.00195555 0.000492201 -4.39263e-06
0.000492201 0.000177566 3.68259e-07
-4.39263e-06 3.68259e-07 -2.84007e-05
0.00158875 0.000494475 -1.07304e-06
0.000494475 0.000465685 2.78061e-06
-1.07304e-06 2.78061e-06 0.0001228
0.00201748 0.00057438 -3.52903e-06
0.00057438 0.000500875 1.35912e-07
-3.52903e-06 1.35912e-07 0.000185959
0.000684261 4.14268e-05 -9.25964e-07
4.14268e-05 0.000133444 1.06087e-07
-9.25964e-07 1.06087e-07 2.04783e-05
0.000374934 5.26524e-05 8.60462e-07
5.26524e-05 -2.60177e-06 4.18183e-07
8.60462e-07 4.18183e-07 -0.000195967
0.0014508 0.000379128 -1.45566e-06
0.000379128 0.000414135 -1.43655e-06
-1.45566e-06 -1.43655e-06 0.000139715
0.000277718 9.14524e-05 -1.31678e-06
9.14524e-05 -0.000138088 -7.23293e-07
-1.31678e-06 -7.23293e-07 -0.000331537
0.000931393 0.000271902 9.37431e-07
0.000271902 9.47151e-05 -2.12449e-06
9.37431e-07 -2.12449e-06 -0.000107795
0.00207038 0.000434765 -2.84411e-06
0.000434765 0.000144617 -1.24825e-06
-2.84411e-06 -1.24825e-06 1.75741e-07
0.00217558 0.000571422 2.47772e-06
0.000571422 0.000379829 -2.88178e-07
2.47772e-06 -2.88178e-07 0.000117093
0.00198605 0.000536137 2.89458e-06
0.000536137 0.000170953 2.78479e-06
2.89458e-06 2.78479e-06 -5.41972e-05
0.00120908 0.000466133 3.85985e-06
0.000466133 0.000216688 2.28542e-06
3.85985e-06 2.28542e-06 -0.000126745
0.00175293 0.000606116 -4.3892e-06
0.000606116 0.000334201 -1.34255e-07
-4.3892e-06 -1.34255e-07 4.15634e-07
-0.000236483 7.2048e-06 -1.51545e-06
7.2048e-06 -0.000424192 3.81575e-06
-1.51545e-06 3.81575e-06 -0.000536519
-0.00014544 0.00013489 1.92764e-06
0.00013489 -0.000269476 2.77293e-06
1.92764e-06 2.77293e-06 -0.000514466
0.00103739 0.00035139 8.46516e-07
0.00035139 0.000154443 -8.01178e-07
8.46516e-07 -8.01178e-07 -0.000127486
-0.000289255 0.000141774 1.87409e-06
0.000141774 -0.000594729 -2.42306e-10
1.87409e-06 -2.42306e-10 -0.000788026
0.00209478 0.000436131 2.10647e-06
0.000436131 -9.44169e-05 1.56629e-06
2.10647e-06 1.56629e-06 -0.000111283
0.0027244 0.00055088 3.71703e-06
0.00055088 0.000541097 2.19325e-07
3.71703e-06 2.19325e-07 0.000354192
0.00200321 0.00063357 -5.10984e-06
0.00063357 0.000308982 -4.25641e-06
-5.10984e-06 -4.25641e-06 -4.08061e-06
0.00145201 0.000560424 4.23063e-07
0.000560424 0.000263251 -1.44476e-08
4.23063e-07 -1.44476e-08 -0.000105728
0.000646993 9.19125e-05 -6.83823e-07
9.19125e-05 0.000110264 -1.34174e-06
-6.83823e-07 -1.34174e-06 1.75848e-06
0.000595678 7.46314e-05 -4.41852e-07
7.46314e-05 7.70159e-05 -9.10477e-08
-4.41852e-07 -9.10477e-08 -3.45134e-05
0.0010086 7.31601e-05 -5.42171e-06
7.31601e-05 0.000330848 -2.28013e-06
-5.42171e-06 -2.28013e-06 0.000232353
0.000592766 3.50922e-05 -1.26998e-06
3.50922e-05 6.35815e-05 -2.25819e-06
-1.26998e-06 -2.25819e-06 -2.69462e-05
0.000259869 2.86959e-05 -1.45191e-07
2.86959e-05 -0.000132033 -2.33715e-07
-1.45191e-07 -2.33715e-07 -0.000234745
0.000619129 4.50081e-05 -4.06986e-07
4.50081e-05 9.48665e-05 1.04278e-07
-4.06986e-07 1.04278e-07 -3.68929e-06
0.00058824 0.000111607 -1.06743e-06
0.000111607 9.86686e-05 4.64353e-07
-1.06743e-06 4.64353e-07 -1.78941e-05
0.000518561 4.24926e-05 1.05042e-06
4.24926e-05 4.96773e-05 1.2352e-07
1.05042e-06 1.2352e-07 -7.63929e-05
0.000643641 8.38784e-05 2.26946e-06
8.38784e-05 0.000102068 -1.60155e-06
2.26946e-06 -1.60155e-06 1.6296e-05
0.000743063 5.20286e-06 3.15877e-06
5.20286e-06 0.000183614 -4.00271e-06
3.15877e-06 -4.00271e-06 6.18455e-05
0.000356885 6.40534e-05 4.24946e-07
6.40534e-05 -4.92209e-05 1.74631e-06
4.24946e-07 1.74631e-06 -0.000175749
0.000667083 9.99718e-05 2.19013e-06
9.99718e-05 0.000126816 3.06298e-06
2.19013e-06 3.06298e-06 2.40823e-05
0.0004921 6.82661e-05 3.03927e-06
6.82661e-05 7.78961e-06 3.12545e-06
3.03927e-06 3.12545e-06 -6.21587e-05
0.000497413 9.19735e-06 -1.50013e-06
9.19735e-06 4.14816e-06 -2.11697e-07
-1.50013e-06 -2.11697e-07 -5.92339e-05
0.00120707 1.51395e-06 1.45678e-06
1.51395e-06 0.000410694 2.6596e-06
1.45678e-06 2.6596e-06 0.000396618
0.000496085 -4.57232e-05 9.68837e-09
-4.57232e-05 -1.57515e-06 -2.84028e-06
9.68837e-09 -2.84028e-06 -6.2493e-05
0.00128822 -1.09742e-05 -5.54741e-06
-1.09742e-05 0.00045607 -1.62502e-06
-5.54741e-06 -1.62502e-06 0.000442175
0.000785447 -2.02056e-05 2.20789e-05
-2.02056e-05 0.000144407 8.79752e-06
2.20789e-05 8.79752e-06 0.000150754
0.00133055 -2.30145e-05 -9.36421e-06
-2.30145e-05 0.000480302 -6.15544e-06
-9.36421e-06 -6.15544e-06 0.000465753
0.00076156 -3.20084e-05 8.11415e-06
-3.20084e-05 0.00012817 3.29837e-06
8.11415e-06 3.29837e-06 0.000132763
0.000719907 -4.18192e-05 -2.04889e-07
-4.18192e-05 0.000106388 -2.72763e-06
-2.04889e-07 -2.72763e-06 0.000108238
0.00043432 4.05059e-05 -3.85151e-07
4.05059e-05 -6.05334e-05 -3.22077e-06
-3.85151e-07 -3.22077e-06 -7.95403e-05
0.000439352 6.89287e-05 -2.01896e-07
6.89287e-05 -3.30778e-05 2.3206e-07
-2.01896e-07 2.3206e-07 -6.72672e-05
0.00237483 0.000104461 1.39531e-05
0.000104461 0.0011613 -4.14355e-06
1.39531e-05 -4.14355e-06 0.00116305
0.000530679 2.58051e-05 -4.43677e-06
2.58051e-05 2.66651e-05 7.88038e-06
-4.43677e-06 7.88038e-06 -1.67224e-05
0.00284753 0.00013806 -4.93107e-06
0.00013806 0.0014635 -5.66291e-07
-4.93107e-06 -5.66291e-07 0.00145598
0.003559 8.49561e-05 -0.000114369
8.49561e-05 0.00190045 8.59305e-06
-0.000114369 8.59305e-06 0.00190501
0.00189101 0.000305758 -6.90997e-07
0.000305758 7.74187e-05 1.4481e-06
-6.90997e-07 1.4481e-06 -4.3142e-05
0.00202331 0.00018076 -5.1451e-06
0.00018076 6.9286e-05 -5.88615e-07
-5.1451e-06 -5.88615e-07 1.89687e-05
0.00201239 0.000269138 -4.03124e-07
0.000269138 1.99603e-05 -3.47931e-07
-4.03124e-07 -3.47931e-07 -2.56582e-05
0.00195298 0.000113911 -3.23405e-06
0.000113911 -9.98243e-06 -5.10359e-07
-3.23405e-06 -5.10359e-07 -1.43788e-05
0.00195061 4.97412e-05 -5.06012e-06
4.97412e-05 5.22961e-05 -2.26143e-07
-5.06012e-06 -2.26143e-07 2.01975e-05
0.00186821 -6.58672e-06 -3.47649e-06
-6.58672e-06 4.69411e-05 2.36169e-07
-3.47649e-06 2.36169e-07 -1.23978e-05
0.00191605 -7.58181e-06 -3.82546e-07
-7.58181e-06 3.30475e-05 -5.91474e-08
-3.82546e-07 -5.91474e-08 4.43651e-06
0.00197228 5.54862e-05 1.13423e-06
5.54862e-05 1.05927e-05 1.44544e-07
1.13423e-06 1.44544e-07 7.68733e-06
0.00204568 0.000185168 8.41149e-07
0.000185168 1.85647e-05 2.12571e-07
8.41149e-07 2.12571e-07 6.30796e-06
0.00209371 0.000342631 7.54123e-07
0.000342631 7.8849e-05 3.3968e-07
7.54123e-07 3.3968e-07 2.52071e-06
0.00195455 -1.35166e-05 2.24493e-06
-1.35166e-05 8.57839e-06 -5.56916e-08
2.24493e-06 -5.56916e-08 3.22482e-06
0.00209145 0.000105608 8.16347e-07
0.000105608 -2.08388e-05 -1.45403e-07
8.16347e-07 -1.45403e-07 9.95004e-06
0.00224744 0.000284715 2.08132e-06
0.000284715 5.00029e-05 9.46819e-07
2.08132e-06 9.46819e-07 3.90185e-05
0.0019142 -7.56985e-05 -5.24536e-06
-7.56985e-05 1.21708e-05 1.51252e-07
-5.24536e-06 1.51252e-07 -1.28434e-05
0.00196351 -0.000163774 -2.78022e-06
-0.000163774 4.32545e-05 8.77603e-08
-2.78022e-06 8.77603e-08 3.42396e-06
0.00199853 -0.000296321 -3.04611e-06
-0.000296321 5.8871e-05 1.0001e-06
-3.04611e-06 1.0001e-06 3.55549e-06
0.00105675 -0.000366673 -2.92604e-06
-0.000366673 0.000150673 2.00946e-06
-2.92604e-06 2.00946e-06 -0.000143946
0.00139171 -0.000535332 8.00368e-06
-0.000535332 0.000249197 -2.38738e-06
8.00368e-06 -2.38738e-06 -0.000113111
0.00171378 -0.000640483 -6.39659e-07
-0.000640483 0.000233193 7.46364e-07
-6.39659e-07 7.46364e-07 -0.00012963
0.00188549 -0.00037463 -1.20456e-06
-0.00037463 6.24572e-05 1.18888e-06
-1.20456e-06 1.18888e-06 -4.17329e-05
0.00190262 -0.000488937 1.01123e-06
-0.000488937 0.000122091 1.36072e-06
1.01123e-06 1.36072e-06 -4.06632e-05
0.00210226 -0.00055376 4.09032e-06
-0.00055376 0.000314891 -6.86702e-06
4.09032e-06 -6.86702e-06 7.14376e-05
0.00110623 -0.000353721 3.23345e-06
-0.000353721 0.000197397 2.73884e-06
3.23345e-06 2.73884e-06 -9.21468e-05
0.000799897 -0.000316721 -1.01575e-05
-0.000316721 5.61749e-05 1.20822e-06
-1.01575e-05 1.20822e-06 -0.000233063
0.0021497 -0.000381098 1.50768e-06
-0.000381098 0.00104763 -8.6166e-07
1.50768e-06 -8.6166e-07 0.000703533
0.000356775 4.62025e-05 2.35602e-06
4.62025e-05 -8.05471e-05 8.09579e-07
2.35602e-06 8.09579e-07 -0.0001611
0.00106966 -0.000158467 3.64206e-06
-0.000158467 0.000400132 2.22789e-06
3.64206e-06 2.22789e-06 0.000177757
0.000115685 3.54821e-05 5.34113e-06
3.54821e-05 -0.000182236 5.73849e-07
5.34113e-06 5.73849e-07 -0.0003521
0.00197447 -8.33291e-05 -4.92026e-07
-8.33291e-05 1.75171e-05 9.43279e-08
-4.92026e-07 9.43279e-08 1.25453e-05
0.00204484 -0.00021751 1.49222e-07
-0.00021751 -1.30218e-05 -1.55919e-08
1.49222e-07 -1.55919e-08 -1.06653e-05
0.00205736 -0.000361368 -5.48393e-07
-0.000361368 4.50411e-05 3.03483e-07
-5.48393e-07 3.03483e-07 1.14165e-05
0.00149889 -0.000478569 -1.74103e-06
-0.000478569 0.00040555 -2.48167e-07
-1.74103e-06 -2.48167e-07 6.35565e-05
0.00143067 -0.0006179 2.01212e-06
-0.0006179 0.00023419 -1.0764e-06
2.01212e-06 -1.0764e-06 -0.000168796
0.00228509 -0.000714008 -5.0649e-06
-0.000714008 0.000560407 7.3788e-07
-5.0649e-06 7.3788e-07 0.000186297
0.00207267 -0.000460726 5.86613e-07
-0.000460726 8.53297e-05 -4.82271e-07
5.86613e-07 -4.82271e-07 -1.13306e-05
0.00190307 -0.000563231 1.45335e-06
-0.000563231 0.000134857 -2.97953e-06
1.45335e-06 -2.97953e-06 -7.73644e-05
0.000361035 5.9398e-05 -1.12193e-06
5.9398e-05 -8.28065e-05 -1.07213e-06
-1.12193e-06 -1.07213e-06 -0.00014219
0.000663073 -1.54044e-05 -8.07333e-07
-1.54044e-05 0.00014908 4.24506e-07
-8.07333e-07 4.24506e-07 1.62832e-05
0.000756589 -0.000371781 -4.78065e-06
-0.000371781 -3.34825e-05 2.30257e-06
-4.78065e-06 2.30257e-06 -0.000352479
0.00164245 -0.000366043 4.23264e-06
-0.000366043 0.00065512 -2.33253e-07
4.23264e-06 -2.33253e-07 0.000277883
0.00130197 -0.000129842 -2.23953e-07
-0.000129842 0.000527825 -1.96006e-06
-2.23953e-07 -1.96006e-06 0.000257169
0.000829967 -0.000128659 -5.4239e-07
-0.000128659 0.000280862 8.7967e-07
-5.4239e-07 8.7967e-07 7.05236e-05
0.00204325 -0.000113776 -6.52955e-07
-0.000113776 -2.40538e-05 -3.40455e-08
-6.52955e-07 -3.40455e-08 4.22632e-06
0.00216063 -0.000311665 -1.42582e-06
-0.000311665 -3.82222e-05 5.57877e-07
-1.42582e-06 5.57877e-07 4.1636e-06
0.00214683 -0.000421715 1.51413e-06
-0.000421715 6.03866e-05 -2.9831e-07
1.51413e-06 -2.9831e-07 3.66144e-05
0.00226068 -0.000613593 6.9353e-06
-0.000613593 0.000184045 -2.93178e-06
6.9353e-06 -2.93178e-06 4.17194e-05
0.000658168 -0.000444792 -4.20367e-07
-0.000444792 -0.000104942 -4.34094e-06
-4.20367e-07 -4.34094e-06 -0.000466589
0.00230024 -0.000746838 -8.46175e-07
-0.000746838 0.000498949 1.05854e-05
-8.46175e-07 1.05854e-05 0.000145766
0.00236356 -0.000775904 -1.22502e-05
-0.000775904 0.000727389 -3.66212e-06
-1.22502e-05 -3.66212e-06 0.000270567
0.000585181 4.92944e-05 7.2155e-07
4.92944e-05 3.87883e-05 -7.0765e-07
7.2155e-07 -7.0765e-07 -6.62548e-06
0.000662544 -0.000130759 4.54218e-06
-0.000130759 0.000136447 -2.36924e-06
4.54218e-06 -2.36924e-06 4.0833e-05
0.000313025 7.40252e-05 -5.37061e-06
7.40252e-05 -7.70393e-05 1.26963e-06
-5.37061e-06 1.26963e-06 -0.000175023
0.000787309 -5.06808e-05 -4.029e-06
-5.06808e-05 0.000251735 5.29887e-06
-4.029e-06 5.29887e-06 7.44976e-05
0.000346244 -7.74987e-05 1.83068e-06
-7.74987e-05 -5.97757e-05 -3.01687e-06
1.83068e-06 -3.01687e-06 -0.00026851
-0.000862546 -6.15774e-06 2.05685e-06
-6.15774e-06 -0.000762651 -3.12224e-09
2.05685e-06 -3.12224e-09 -0.00109128
0.00143178 -0.000467723 -1.55497e-05
-0.000467723 0.000372441 1.01735e-05
-1.55497e-05 1.01735e-05 3.69891e-05
0.00303663 -0.000522859 -1.91837e-05
-0.000522859 0.00160992 1.14412e-05
-1.91837e-05 1.14412e-05 0.00106153
0.000609535 1.19266e-05 -4.24761e-07
1.19266e-05 8.08738e-05 -1.50516e-06
-4.24761e-07 -1.50516e-06 -2.40749e-05
0.000767324 0.000120046 2.33776e-07
0.000120046 0.000242879 -1.46346e-06
2.33776e-07 -1.46346e-06 3.70247e-05
0.00223967 0.00044698 -2.15027e-06
0.00044698 0.000238332 -1.33653e-06
-2.15027e-06 -1.33653e-06 9.60332e-05
0.000630006 0.00014154 -1.9798e-06
0.00014154 9.08557e-05 2.57702e-06
-1.9798e-06 2.57702e-06 -0.000116857
0.00161371 0.000396281 -1.01273e-06
0.000396281 0.000516062 1.42145e-06
-1.01273e-06 1.42145e-06 0.000236612
0.00041306 0.000221174 -2.98866e-06
0.000221174 -0.000229602 -2.21002e-06
-2.98866e-06 -2.21002e-06 -0.000417145
0.00225225 0.000566005 -3.34506e-06
0.000566005 0.000433465 -3.84281e-07
-3.34506e-06 -3.84281e-07 0.000177164
0.00215472 0.00055641 -6.78323e-06
0.00055641 0.000260702 4.97576e-06
-6.78323e-06 4.97576e-06 3.11801e-05
0.0016592 0.000522066 -8.82475e-07
0.000522066 0.000488606 9.49274e-07
-8.82475e-07 9.49274e-07 0.000134181
0.00156927 0.000605686 3.10721e-07
0.000605686 0.000221849 3.22323e-07
3.10721e-07 3.22323e-07 -0.000119169
9.9113e-05 3.83733e-05 1.68121e-08
3.83733e-05 -0.000211885 1.39327e-06
1.68121e-08 1.39327e-06 -0.000335767
0.000282902 0.00016901 -9.55386e-07
0.00016901 -1.33436e-05 -3.33627e-06
-9.55386e-07 -3.33627e-06 -0.000257454
0.00150029 0.000409869 2.38171e-06
0.000409869 0.000424855 -3.13883e-07
2.38171e-06 -3.13883e-07 0.000130696
0.000724137 0.000230373 -2.18092e-06
0.000230373 2.54657e-05 -3.97877e-07
-2.18092e-06 -3.97877e-07 -0.00018044
0.00219507 0.000425399 8.6567e-07
0.000425399 -4.36464e-05 -1.03044e-06
8.6567e-07 -1.03044e-06 -5.86872e-05
0.00246464 0.000543314 3.12195e-06
0.000543314 0.000393521 5.82544e-07
3.12195e-06 5.82544e-07 0.000202481
0.00198242 0.000620875 -2.18568e-07
0.000620875 0.000297496 6.54195e-07
-2.18568e-07 6.54195e-07 -9.51667e-06
0.00158384 0.000574083 7.95971e-07
0.000574083 0.000323132 5.44545e-07
7.95971e-07 5.44545e-07 -4.37092e-05
4.53499e-06 4.77045e-05 -1.31182e-06
4.77045e-05 -0.000274808 4.52575e-06
-1.31182e-06 4.52575e-06 -0.000406223
0.0021346 0.000337027 5.83521e-06
0.000337027 -0.000140719 3.8398e-06
5.83521e-06 3.8398e-06 -8.79865e-05
0.00198086 0.000390091 6.21693e-06
0.000390091 0.000969094 8.69566e-06
6.21693e-06 8.69566e-06 0.000682089
0.00137982 0.000417686 2.58501e-06
0.000417686 0.000315011 -6.49295e-07
2.58501e-06 -6.49295e-07 2.74373e-05
0.00256405 0.000531675 -1.71425e-05
0.000531675 0.000306047 -6.98783e-06
-1.71425e-05 -6.98783e-06 0.000204183
0.00106994 0.00057378 -1.03882e-05
0.00057378 -0.000320422 -8.74323e-06
-1.03882e-05 -8.74323e-06 -0.000611069
0.00214935 0.00066386 -3.57138e-06
0.00066386 0.000592956 2.33666e-06
-3.57138e-06 2.33666e-06 0.000201715
0.000761095 9.20528e-05 -1.12374e-06
9.20528e-05 0.000178026 -1.06146e-06
-1.12374e-06 -1.06146e-06 6.60772e-05
0.000651188 8.63315e-05 -2.71449e-06
8.63315e-05 0.000121845 -8.19393e-07
-2.71449e-06 -8.19393e-07 1.79965e-05
0.00140653 8.86986e-05 -3.40722e-06
8.86986e-05 0.000590198 -1.77736e-06
-3.40722e-06 -1.77736e-06 0.000506669
0.000543254 3.87199e-06 2.2408e-07
3.87199e-06 5.10998e-05 -3.06705e-06
2.2408e-07 -3.06705e-06 -4.90806e-05
0.000685906 7.44086e-05 1.65896e-06
7.44086e-05 0.000156261 -4.21679e-08
1.65896e-06 -4.21679e-08 2.66044e-05
0.000111982 5.71318e-05 -1.1703e-06
5.71318e-05 -0.000178147 3.83507e-06
-1.1703e-06 3.83507e-06 -0.000287666
0.000578623 1.64971e-05 -1.07668e-06
1.64971e-05 7.97224e-05 1.71923e-08
-1.07668e-06 1.71923e-08 -2.70539e-05
0.000349359 -1.55873e-05 -8.77488e-07
-1.55873e-05 -4.2023e-05 1.11681e-07
-8.77488e-07 1.11681e-07 -0.000173586
0.000230717 3.55556e-05 7.35872e-07
3.55556e-05 -0.00013681 5.97385e-07
7.35872e-07 5.97385e-07 -0.000214251
0.000762962 7.55425e-05 8.6753e-07
7.55425e-05 0.000210643 -8.98779e-07
8.6753e-07 -8.98779e-07 7.61528e-05
0.00149494 0.000101048 -3.69071e-07
0.000101048 0.000609587 -2.76817e-06
-3.69071e-07 -2.76817e-06 0.000554634
0.000529905 1.13684e-05 7.44776e-06
1.13684e-05 4.34221e-05 -4.7117e-06
7.44776e-06 -4.7117e-06 -4.50633e-05
0.000399364 8.60565e-05 3.36634e-07
8.60565e-05 -4.0145e-06 1.72509e-06
3.36634e-07 1.72509e-06 -0.000149463
0.000608317 4.40899e-05 2.41141e-06
4.40899e-05 0.000116547 2.6815e-06
2.41141e-06 2.6815e-06 -3.04437e-05
0.000601255 3.4822e-05 2.35506e-06
3.4822e-05 8.70034e-05 2.85967e-06
2.35506e-06 2.85967e-06 -2.06252e-05
0.000489638 -4.81451e-05 -1.68827e-07
-4.81451e-05 5.46071e-06 2.93562e-06
-1.68827e-07 2.93562e-06 -6.60367e-05
0.000514625 4.57486e-06 -1.28232e-07
4.57486e-06 1.60648e-05 -2.40375e-07
-1.28232e-07 -2.40375e-07 -4.95506e-05
0.00127728 1.72961e-05 2.31317e-06
1.72961e-05 0.000461094 2.70797e-06
2.31317e-06 2.70797e-06 0.000444972
0.000517454 -8.9514e-06 2.98155e-07
-8.9514e-06 1.03804e-05 -3.02612e-06
2.98155e-07 -3.02612e-06 -4.8747e-05
0.00129107 5.08999e-06 -4.46256e-06
5.08999e-06 0.000462848 -1.62938e-06
-4.46256e-06 -1.62938e-06 0.000448597
0.000752891 -1.1851e-05 1.71882e-05
-1.1851e-05 0.000127464 8.63038e-06
1.71882e-05 8.63038e-06 0.000134125
0.0013477 -9.29663e-06 -7.52683e-06
-9.29663e-06 0.000492928 -6.21836e-06
-7.52683e-06 -6.21836e-06 0.000479069
0.000783137 -2.28654e-05 5.94665e-06
-2.28654e-05 0.000140579 3.37822e-06
5.94665e-06 3.37822e-06 0.000146174
0.000747491 -3.23598e-05 -1.17862e-07
-3.23598e-05 0.000117616 -2.59427e-06
-1.17862e-07 -2.59427e-06 0.000122002
0.000641991 -1.63124e-06 1.91488e-06
-1.63124e-06 7.15865e-05 -1.78316e-06
1.91488e-06 -1.78316e-06 2.82886e-05
0.000470806 2.86589e-05 5.59487e-07
2.86589e-05 -4.92319e-05 -3.34411e-06
5.59487e-07 -3.34411e-06 -6.25413e-05
0.000479256 4.35079e-05 3.77454e-07
4.35079e-05 -3.09725e-05 2.3074e-07
3.77454e-07 2.3074e-07 -5.10635e-05
0.00214072 8.12269e-05 1.49093e-05
8.12269e-05 0.00100576 -4.01834e-06
1.49093e-05 -4.01834e-06 0.00101384
0.000503077 6.88957e-05 5.67412e-06
6.88957e-05 5.73357e-06 6.43544e-06
5.67412e-06 6.43544e-06 -2.9121e-05
0.00250777 0.000110697 -5.51321e-06
0.000110697 0.00124441 -5.44773e-07
-5.51321e-06 -5.44773e-07 0.00124467
0.00301927 0.000120455 -3.50625e-05
0.000120455 0.00156419 4.86471e-06
-3.50625e-05 4.86471e-06 0.0015603
0.0021148 0.000337827 8.51725e-08
0.000337827 8.19911e-05 -1.11814e-07
8.51725e-08 -1.11814e-07 5.89642e-06
0.00204596 0.000189832 -2.53076e-06
0.000189832 2.21812e-05 -6.38348e-07
-2.53076e-06 -6.38348e-07 9.25415e-06
0.00197481 5.90868e-05 -3.14653e-06
5.90868e-05 1.80206e-05 -2.36394e-07
-3.14653e-06 -2.36394e-07 1.35154e-05
0.0019116 -5.48222e-06 -5.24898e-06
-5.48222e-06 3.06319e-05 -1.92578e-07
-5.24898e-06 -1.92578e-07 2.60101e-06
0.00195024 -8.51203e-06 -9.00983e-07
-8.51203e-06 3.31714e-06 4.11684e-09
-9.00983e-07 4.11684e-09 7.32e-07
0.00207349 9.86525e-05 -8.56416e-08
9.86525e-05 -2.27003e-05 1.3678e-07
-8.56416e-08 1.3678e-07 5.02108e-06
0.002178 0.000289228 -1.08109e-06
0.000289228 1.30971e-05 -9.23392e-08
-1.08109e-06 -9.23392e-08 4.14022e-06
0.00204945 -1.04067e-05 -2.95744e-07
-1.04067e-05 -3.87045e-05 -4.77294e-07
-2.95744e-07 -4.77294e-07 -8.63719e-07
0.00224802 0.0001517 4.62004e-06
0.0001517 -2.8518e-05 -2.12434e-07
4.62004e-06 -2.12434e-07 1.04649e-05
0.00242961 0.000102705 5.17943e-06
0.000102705 0.00015632 1.23719e-05
5.17943e-06 1.23719e-05 0.000223634
0.00198704 -8.30551e-05 -3.55979e-06
-8.30551e-05 2.49218e-05 1.74984e-07
-3.55979e-06 1.74984e-07 1.80482e-05
0.00202284 -0.000225114 -1.84117e-06
-0.000225114 -3.04061e-05 9.17443e-08
-1.84117e-06 9.17443e-08 -2.66886e-05
0.00203438 -0.000355448 -1.38294e-06
-0.000355448 3.77073e-05 2.61e-07
-1.38294e-06 2.61e-07 1.48573e-06
0.00112048 -0.000438562 2.40705e-06
-0.000438562 0.000171327 5.46492e-07
2.40705e-06 5.46492e-07 -0.000162026
0.00168611 -0.000640934 7.10668e-06
-0.000640934 0.000382384 3.75922e-07
7.10668e-06 3.75922e-07 -2.43068e-05
0.00206246 -0.000677766 1.30705e-06
-0.000677766 0.000439262 3.13496e-07
1.30705e-06 3.13496e-07 8.10988e-05
0.00199938 -0.000464002 1.10528e-07
-0.000464002 4.44616e-05 2.44465e-06
1.10528e-07 2.44465e-06 -5.7141e-05
0.00187875 -0.000555764 -5.24939e-06
-0.000555764 0.000124597 -1.88521e-06
-5.24939e-06 -1.88521e-06 -8.46112e-05
0.000693197 -0.000359981 -6.65017e-06
-0.000359981 -6.55644e-05 -2.35793e-06
-6.65017e-06 -2.35793e-06 -0.000380967
0.00207988 -0.000386547 1.51264e-05
-0.000386547 0.000964317 -8.5088e-06
1.51264e-05 -8.5088e-06 0.000571431
0.00110928 -7.40548e-05 -1.29162e-07
-7.40548e-05 0.000391188 2.23829e-06
-1.29162e-07 2.23829e-06 0.0001405
0.00045093 1.71686e-05 1.46173e-06
1.71686e-05 -3.03206e-05 -3.26326e-07
1.46173e-06 -3.26326e-07 -8.51483e-05
0.000796615 3.86731e-05 5.32806e-06
3.86731e-05 0.000226239 7.66996e-08
5.32806e-06 7.66996e-08 9.2866e-05
0.000623872 -8.92354e-05 1.30083e-06
-8.92354e-05 0.000147748 3.11429e-06
1.30083e-06 3.11429e-06 -6.12224e-05
0.00205182 -0.000116576 5.77459e-07
-0.000116576 -2.71157e-05 -3.05151e-08
5.77459e-07 -3.05151e-08 3.32173e-06
0.000514712 1.42576e-05 1.39629e-06
1.42576e-05 -3.62019e-06 2.59967e-07
1.39629e-06 2.59967e-07 -4.88138e-05
0.000446393 -6.55374e-05 -1.89944e-06
-6.55374e-05 -2.33855e-05 -2.83012e-07
-1.89944e-06 -2.83012e-07 -0.000101871
0.00214529 -0.000301435 -2.44691e-07
-0.000301435 -2.78303e-05 1.90192e-07
-2.44691e-07 1.90192e-07 8.58597e-06
0.00208603 -0.000412812 -1.44873e-06
-0.000412812 2.58744e-05 1.23088e-07
-1.44873e-06 1.23088e-07 8.96195e-06
0.0016449 -0.000558995 -1.895e-06
-0.000558995 0.000463105 9.5188e-07
-1.895e-06 9.5188e-07 7.68455e-05
0.00184136 -0.000715271 2.18925e-06
-0.000715271 0.00044788 1.24565e-06
2.18925e-06 1.24565e-06 -4.76137e-06
0.00183434 -0.0006978 4.78068e-06
-0.0006978 0.000229699 -3.45111e-06
4.78068e-06 -3.45111e-06 -0.000110692
0.00218197 -0.000603965 2.86372e-06
-0.000603965 0.000148364 -8.6182e-07
2.86372e-06 -8.6182e-07 8.42704e-06
0.000688532 -4.04026e-07 -5.21121e-08
-4.04026e-07 0.000162229 -1.41642e-06
-5.21121e-08 -1.41642e-06 6.00214e-05
0.000680766 -3.73852e-05 3.48438e-07
-3.73852e-05 0.000183709 1.78064e-06
3.48438e-07 1.78064e-06 7.01498e-06
0.00160335 -0.000469299 3.58387e-06
-0.000469299 0.000476218 3.08054e-07
3.58387e-06 3.08054e-07 0.000131474
0.00144724 -0.000351706 1.57108e-05
-0.000351706 0.000646217 -4.02802e-06
1.57108e-05 -4.02802e-06 0.000177923
0.000523586 -6.89184e-05 -3.6421e-06
-6.89184e-05 3.74864e-05 -1.1059e-06
-3.6421e-06 -1.1059e-06 -0.000256149
0.000556219 -5.35521e-05 9.70022e-07
-5.35521e-05 8.30536e-05 -1.82461e-06
9.70022e-07 -1.82461e-06 -0.000138268
0.00208103 -0.000135381 2.20828e-06
-0.000135381 -0.000119454 -1.27105e-06
2.20828e-06 -1.27105e-06 -7.78588e-05
0.00212042 -0.000383333 -1.67105e-06
-0.000383333 -0.000172392 1.8051e-06
-1.67105e-06 1.8051e-06 -1.42441e-05
0.00222506 -0.000557475 -5.19956e-06
-0.000557475 4.55921e-05 6.70956e-07
-5.19956e-06 6.70956e-07 1.42249e-06
0.00187403 -0.00073276 5.84526e-06
-0.00073276 7.27296e-05 -4.09044e-06
5.84526e-06 -4.09044e-06 -0.000125807
0.00107473 -0.000521221 -1.38946e-06
-0.000521221 0.000163346 -9.2627e-06
-1.38946e-06 -9.2627e-06 -0.000230957
0.00249884 -0.000860649 -1.24448e-05
-0.000860649 0.000739963 1.08569e-05
-1.24448e-05 1.08569e-05 0.000251171
0.000226576 4.79023e-05 -1.25633e-06
4.79023e-05 -0.000147055 -3.25458e-06
-1.25633e-06 -3.25458e-06 -0.000233377
0.00060503 -5.66245e-05 5.26514e-06
-5.66245e-05 7.22994e-05 -2.49546e-07
5.26514e-06 -2.49546e-07 -2.15738e-06
0.00100877 -0.000132686 1.37559e-06
-0.000132686 0.000320649 5.56165e-06
1.37559e-06 5.56165e-06 0.0002171
0.000538743 2.79316e-05 -4.06877e-06
2.79316e-05 7.87548e-05 8.8201e-06
-4.06877e-06 8.8201e-06 -6.67946e-05
0.000804335 -9.07254e-05 -5.26489e-06
-9.07254e-05 0.000236348 7.81397e-06
-5.26489e-06 7.81397e-06 5.49024e-05
0.00157085 -4.66797e-05 6.51823e-06
-4.66797e-05 0.000612792 -4.07763e-06
6.51823e-06 -4.07763e-06 0.000398723
-0.00108408 -0.000186568 6.99538e-06
-0.000186568 -0.000578912 1.05568e-06
6.99538e-06 1.05568e-06 -0.00124445
-0.000188751 -0.000424778 -3.64902e-05
-0.000424778 -0.000621428 9.17027e-06
-3.64902e-05 9.17027e-06 -0.000941645
0.000408389 5.8056e-05 -4.34549e-07
5.8056e-05 -1.2162e-05 -1.18941e-06
-4.34549e-07 -1.18941e-06 -0.000152294
0.00105703 0.000210847 -9.00736e-06
0.000210847 0.000444416 -6.47557e-06
-9.00736e-06 -6.47557e-06 0.00020362
0.00227553 0.000413735 -6.4839e-06
0.000413735 2.60085e-06 -2.7357e-06
-6.4839e-06 -2.7357e-06 -1.22304e-05
0.00229863 0.000540808 -3.91468e-06
0.000540808 0.000302412 3.35794e-07
-3.91468e-06 3.35794e-07 0.000106533
0.00196576 0.00031987 -6.7878e-06
0.00031987 0.000769155 -9.59864e-07
-6.7878e-06 -9.59864e-07 0.000555958
0.00159782 0.000424948 -4.23852e-06
0.000424948 0.000476206 -2.96575e-06
-4.23852e-06 -2.96575e-06 0.000178211
0.00201377 0.000614014 2.25971e-06
0.000614014 0.000313383 2.18983e-06
2.25971e-06 2.18983e-06 1.07528e-05
0.00177402 0.000590912 -5.75859e-07
0.000590912 0.000420643 -2.2844e-07
-5.75859e-07 -2.2844e-07 5.5102e-05
0.000470339 8.87924e-05 7.7577e-07
8.87924e-05 2.70382e-05 -1.09683e-06
7.7577e-07 -1.09683e-06 -0.000126418
0.00228307 0.000320769 -1.93243e-06
0.000320769 -4.87532e-05 -1.36298e-06
-1.93243e-06 -1.36298e-06 7.49415e-06
0.00143433 0.000290658 1.47721e-06
0.000290658 0.000613906 1.72539e-06
1.47721e-06 1.72539e-06 0.000355782
0.00153663 0.000433283 1.87158e-06
0.000433283 0.000424095 1.01534e-06
1.87158e-06 1.01534e-06 0.000128907
0.00250511 0.000528189 1.59763e-06
0.000528189 0.000280469 3.53356e-07
1.59763e-06 3.53356e-07 0.000179821
0.00165246 0.000619183 -1.8531e-06
0.000619183 1.25709e-05 -4.53456e-06
-1.8531e-06 -4.53456e-06 -0.000281685
0.00196903 0.000638948 3.87395e-07
0.000638948 0.000499914 2.53176e-07
3.87395e-07 2.53176e-07 0.000112468
0.00115016 0.000224233 -3.74649e-06
0.000224233 0.00048379 4.89514e-06
-3.74649e-06 4.89514e-06 0.000273574
0.00303981 0.000424549 -7.05789e-05
0.000424549 0.000439327 -1.90401e-05
-7.05789e-05 -1.90401e-05 0.000519832
0.00171868 0.000438625 -4.34821e-06
0.000438625 0.000691352 2.87949e-06
-4.34821e-06 2.87949e-06 0.000402968
0.00143934 0.000498578 -3.49936e-06
0.000498578 0.000285373 -6.11252e-06
-3.49936e-06 -6.11252e-06 -6.39338e-05
0.00202479 0.000663791 -3.56021e-05
0.000663791 9.50216e-05 -1.86283e-05
-3.56021e-05 -1.86283e-05 -0.000107459
0.00110451 0.00057774 -2.72359e-05
0.00057774 -4.97102e-05 -3.52466e-06
-2.72359e-05 -3.52466e-06 -0.000414072
0.000359386 0.000609839 2.89638e-05
0.000609839 -0.00137379 -3.44755e-05
2.89638e-05 -3.44755e-05 -0.00130263
0.000227538 9.87999e-05 2.19976e-06
9.87999e-05 -0.000119692 -5.33461e-07
2.19976e-06 -5.33461e-07 -0.000230079
0.000559066 9.25475e-05 -5.66537e-07
9.25475e-05 0.000106258 9.92173e-07
-5.66537e-07 9.92173e-07 1.63526e-05
0.00183416 0.000139568 1.24636e-06
0.000139568 0.000841518 -2.50485e-06
1.24636e-06 -2.50485e-06 0.000757944
0.000479555 -6.41552e-05 5.75416e-07
-6.41552e-05 2.77557e-05 -3.65498e-06
5.75416e-07 -3.65498e-06 -8.28894e-05
0.00045423 -4.13267e-05 -1.06816e-06
-4.13267e-05 1.89618e-05 -4.5091e-07
-1.06816e-06 -4.5091e-07 -0.000109116
0.000941536 0.000164589 1.44539e-07
0.000164589 0.000323941 1.27836e-06
1.44539e-07 1.27836e-06 0.000179231
-4.32156e-05 1.476e-05 -3.65329e-06
1.476e-05 -0.000286891 1.02403e-05
-3.65329e-06 1.02403e-05 -0.000363508
0.000559203 -1.57762e-05 -4.94029e-07
-1.57762e-05 7.63918e-05 -5.10566e-08
-4.94029e-07 -5.10566e-08 -3.97192e-05
0.000521273 5.95122e-05 1.61264e-07
5.95122e-05 4.52535e-05 -6.32419e-07
1.61264e-07 -6.32419e-07 -8.70073e-05
0.000953845 8.33325e-05 1.65839e-06
8.33325e-05 0.00027984 3.59173e-06
1.65839e-06 3.59173e-06 0.000220764
0.000607678 5.31622e-05 1.46037e-06
5.31622e-05 0.000107882 7.04386e-07
1.46037e-06 7.04386e-07 -2.96611e-05
0.000662772 3.68793e-05 -1.62815e-06
3.68793e-05 0.000117788 -1.6284e-06
-1.62815e-06 -1.6284e-06 2.33609e-05
0.00149147 0.00010436 -3.85178e-07
0.00010436 0.000626585 -9.70275e-06
-3.85178e-07 -9.70275e-06 0.000570393
0.000932801 0.000107913 -2.19011e-06
0.000107913 0.000283099 -2.59763e-06
-2.19011e-06 -2.59763e-06 0.000139382
0.000947612 0.000116266 1.18626e-06
0.000116266 0.000308033 1.1209e-06
1.18626e-06 1.1209e-06 0.000167193
0.000801603 7.16983e-05 3.61507e-07
7.16983e-05 0.000236816 1.61597e-06
3.61507e-07 1.61597e-06 7.79468e-05
0.000338015 -2.33181e-05 9.07785e-08
-2.33181e-05 -7.72058e-05 3.14145e-06
9.07785e-08 3.14145e-06 -0.000191384
0.00097767 -4.32786e-05 -1.46871e-07
-4.32786e-05 0.000376193 -1.2077e-06
-1.46871e-07 -1.2077e-06 0.000210547
0.000266643 -3.48621e-05 -1.89024e-06
-3.48621e-05 -0.000117209 2.73457e-06
-1.89024e-06 2.73457e-06 -0.000236
0.000485481 3.50425e-06 -2.0089e-06
3.50425e-06 7.53061e-06 3.06224e-06
-2.0089e-06 3.06224e-06 -6.89032e-05
0.00050463 3.40279e-05 2.29199e-06
3.40279e-05 1.68394e-05 -1.46968e-07
2.29199e-06 -1.46968e-07 -5.69271e-05
0.00041685 2.1534e-05 8.34321e-07
2.1534e-05 -6.41106e-05 4.19577e-06
8.34321e-07 4.19577e-06 -8.52041e-05
0.000480202 6.759e-06 -2.94593e-06
6.759e-06 4.53997e-07 -3.19163e-06
-2.94593e-06 -3.19163e-06 -6.90813e-05
0.000895086 1.54476e-05 -3.05412e-06
1.54476e-05 0.000225552 -1.60269e-06
-3.05412e-06 -1.60269e-06 0.000207472
0.00254764 -8.79263e-06 1.44881e-05
-8.79263e-06 0.00123866 5.3549e-06
1.44881e-05 5.3549e-06 0.00125223
0.00137456 9.47915e-06 -6.97674e-06
9.47915e-06 0.000514979 -6.15994e-06
-6.97674e-06 -6.15994e-06 0.000500302
0.000772438 -1.32561e-05 4.61582e-06
-1.32561e-05 0.00013638 3.32685e-06
4.61582e-06 3.32685e-06 0.00014276
0.000777439 -2.27107e-05 3.94863e-07
-2.27107e-05 0.000134312 -2.48962e-06
3.94863e-07 -2.48962e-06 0.000139915
0.000522581 1.59684e-05 -1.38645e-06
1.59684e-05 4.06723e-06 -1.84857e-06
-1.38645e-06 -1.84857e-06 -3.96187e-05
0.000567838 -1.47815e-05 9.52279e-07
-1.47815e-05 2.74828e-05 -2.96072e-07
9.52279e-07 -2.96072e-07 -1.67725e-05
0.000525847 2.27995e-05 5.04327e-07
2.27995e-05 -1.8061e-05 -3.38911e-06
5.04327e-07 -3.38911e-06 -2.92068e-05
0.000807069 3.69715e-05 -1.73692e-07
3.69715e-05 0.000161321 9.53295e-08
-1.73692e-07 9.53295e-08 0.000149113
0.00210467 6.498e-05 1.16686e-05
6.498e-05 0.000975477 -4.22893e-06
1.16686e-05 -4.22893e-06 0.000987186
0.000501066 5.03055e-05 3.01079e-06
5.03055e-05 -1.41419e-05 4.26919e-06
3.01079e-06 4.26919e-06 -3.63955e-05
0.00227858 8.75937e-05 -2.95004e-06
8.75937e-05 0.00109271 -2.44091e-07
-2.95004e-06 -2.44091e-07 0.00109916
0.00261514 0.000116657 -8.52777e-06
0.000116657 0.0013117 5.19987e-06
-8.52777e-06 5.19987e-06 0.00131048
0.00211389 0.000294129 -2.42771e-06
0.000294129 -2.31019e-05 -1.12349e-06
-2.42771e-06 -1.12349e-06 -2.92147e-05
0.00205553 9.32142e-05 4.67047e-07
9.32142e-05 -2.57322e-05 2.20146e-07
4.67047e-07 2.20146e-07 -2.40895e-07
0.0019488 -4.57298e-06 -2.54837e-06
-4.57298e-06 -3.09524e-07 -1.12208e-07
-2.54837e-06 -1.12208e-07 -6.80095e-08
0.0020427 -7.27455e-06 1.42276e-07
-7.27455e-06 -4.14245e-05 -1.72147e-07
1.42276e-07 -1.72147e-07 -3.84087e-06
0.00222667 0.00015543 -2.40796e-07
0.00015543 -2.51983e-05 2.83192e-07
-2.40796e-07 2.83192e-07 1.25889e-05
0.00212094 8.10136e-05 7.67579e-06
8.10136e-05 -4.90877e-05 -4.5252e-06
7.67579e-06 -4.5252e-06 1.38384e-05
0.00224079 -6.23746e-06 1.92081e-06
-6.23746e-06 -6.87287e-05 -7.53919e-07
1.92081e-06 -7.53919e-07 2.29287e-06
0.00408899 0.000615954 4.27921e-05
0.000615954 -0.000374937 7.59808e-06
4.27921e-05 7.59808e-06 0.000143247
0.00244012 5.95835e-05 -2.76796e-05
5.95835e-05 0.00030702 2.87738e-05
-2.76796e-05 2.87738e-05 0.000473036
0.000502924 0.000100154 -1.29642e-06
0.000100154 3.2728e-05 -2.9844e-07
-1.29642e-06 -2.9844e-07 -5.26089e-05
0.00206123 -0.000117875 -1.3882e-07
-0.000117875 -2.91526e-05 -3.6619e-08
-1.3882e-07 -3.6619e-08 3.48677e-06
0.00211938 -0.000290902 1.61297e-06
-0.000290902 -2.38741e-05 -3.44443e-07
1.61297e-06 -3.44443e-07 5.62677e-06
0.00202912 -0.00040613 1.06441e-09
-0.00040613 -7.31555e-06 3.71488e-07
1.06441e-09 3.71488e-07 -1.84443e-05
0.00107226 -0.00050073 -8.235e-06
-0.00050073 0.000126902 5.62745e-06
-8.235e-06 5.62745e-06 -0.000245687
0.00219932 -0.000752488 8.26484e-06
-0.000752488 0.000645589 7.37253e-06
8.26484e-06 7.37253e-06 0.000186424
0.00169201 -0.000687077 -4.08447e-06
-0.000687077 0.000134936 -8.16341e-06
-4.08447e-06 -8.16341e-06 -0.000200679
0.00219315 -0.000601311 -4.14641e-06
-0.000601311 0.000165508 -2.15359e-07
-4.14641e-06 -2.15359e-07 2.53719e-05
0.00162446 -0.000456091 1.90438e-05
-0.000456091 0.000459075 -1.66202e-05
1.90438e-05 -1.66202e-05 0.000126011
0.00066925 -0.000257566 1.9412e-05
-0.000257566 0.000167953 -1.54124e-05
1.9412e-05 -1.54124e-05 -0.000236423
0.00129752 -7.86626e-05 1.74199e-06
-7.86626e-05 0.000478056 -1.97142e-08
1.74199e-06 -1.97142e-08 0.000214827
0.000523875 8.49563e-06 2.20343e-07
8.49563e-06 4.16736e-06 1.1261e-06
2.20343e-07 1.1261e-06 -4.11817e-05
0.00100393 -3.47588e-05 2.05669e-06
-3.47588e-05 0.000365716 3.48854e-06
2.05669e-06 3.48854e-06 0.000132887
0.000831378 -1.89814e-05 4.88196e-06
-1.89814e-05 0.00025907 -2.58498e-06
4.88196e-06 -2.58498e-06 0.000155521
0.000796682 -3.7074e-05 3.00248e-06
-3.7074e-05 0.000250111 -3.96902e-06
3.00248e-06 -3.96902e-06 7.38707e-05
0.000239969 -4.03606e-05 -4.24175e-06
-4.03606e-05 -0.0001582 1.06935e-06
-4.24175e-06 1.06935e-06 -0.000233121
0.00213716 -0.000151966 -5.7647e-07
-0.000151966 -0.000114808 -1.29247e-07
-5.7647e-07 -1.29247e-07 -5.11363e-05
0.000391747 2.98319e-05 -1.44041e-08
2.98319e-05 -3.48178e-05 -1.88108e-06
-1.44041e-08 -1.88108e-06 -0.000126517
0.000587722 -5.38885e-05 2.00454e-06
-5.38885e-05 8.00206e-05 8.6703e-07
2.00454e-06 8.6703e-07 -3.64084e-06
0.000828463 -0.000105822 1.92744e-06
-0.000105822 0.000206212 3.69922e-07
1.92744e-06 3.69922e-07 0.000109331
0.00214467 -0.000391958 1.71002e-06
-0.000391958 -0.000136337 -5.75616e-07
1.71002e-06 -5.75616e-07 -1.13658e-05
0.00220382 -0.000559446 6.68411e-07
-0.000559446 3.46341e-05 -1.18394e-06
6.68411e-07 -1.18394e-06 -1.16701e-05
0.000643939 -0.000427472 6.70181e-06
-0.000427472 -8.02808e-05 4.37862e-08
6.70181e-06 4.37862e-08 -0.000436778
0.00244953 -0.000859794 1.14265e-05
-0.000859794 0.000712476 -3.08845e-07
1.14265e-05 -3.08845e-07 0.000235586
0.00223211 -0.000761067 -2.37456e-06
-0.000761067 0.000293888 1.96446e-06
-2.37456e-06 1.96446e-06 7.70817e-05
0.000193383 -3.2109e-05 -7.3515e-07
-3.2109e-05 -0.000134469 -9.73729e-07
-7.3515e-07 -9.73729e-07 -0.000267156
0.000901067 -9.43634e-05 -1.19384e-06
-9.43634e-05 0.000309871 1.22308e-06
-1.19384e-06 1.22308e-06 0.000112744
0.0013826 -0.000599854 -5.31166e-06
-0.000599854 0.000294806 1.85773e-06
-5.31166e-06 1.85773e-06 -9.03057e-05
0.000361303 -0.000152651 2.51837e-07
-0.000152651 9.6006e-05 -2.27819e-06
2.51837e-07 -2.27819e-06 -0.000421085
0.000839678 -6.48296e-05 9.21578e-07
-6.48296e-05 0.000174187 2.36745e-06
9.21578e-07 2.36745e-06 -3.33502e-05
0.00255785 -0.000286695 -3.44094e-06
-0.000286695 0.00012874 -3.33238e-07
-3.44094e-06 -3.33238e-07 0.000198717
0.00193547 -0.000424872 -1.7832e-05
-0.000424872 -0.000245624 5.32399e-06
-1.7832e-05 5.32399e-06 -6.73173e-05
0.00206178 -0.000694391 -9.86222e-06
-0.000694391 4.69056e-05 9.73153e-08
-9.86222e-06 9.73153e-08 -0.000112328
0.00353162 -0.000944779 -2.02573e-05
-0.000944779 0.00113859 -1.45714e-06
-2.02573e-05 -1.45714e-06 0.000842786
0.000723991 -0.000548554 -2.42504e-05
-0.000548554 -5.21898e-05 -2.75308e-06
-2.42504e-05 -2.75308e-06 -0.000443306
0.000209358 -2.12186e-05 1.71996e-06
-2.12186e-05 -0.000143302 7.10831e-07
1.71996e-06 7.10831e-07 -0.000246277
0.00047343 5.54571e-06 3.62771e-07
5.54571e-06 -3.1213e-05 4.78802e-06
3.62771e-07 4.78802e-06 -0.000125097
-0.000480226 -5.12381e-05 -1.6833e-06
-5.12381e-05 -0.000587401 -3.06548e-06
-1.6833e-06 -3.06548e-06 -0.000677242
0.00198667 -0.000255078 -1.34137e-05
-0.000255078 0.000994503 1.70952e-05
-1.34137e-05 1.70952e-05 0.000815916
0.00100303 -9.64473e-05 -6.12074e-06
-9.64473e-05 0.00033857 1.62033e-05
-6.12074e-06 1.62033e-05 0.00016277
-0.00119185 -9.36808e-05 2.99549e-06
-9.36808e-05 -0.000522731 3.35473e-06
2.99549e-06 3.35473e-06 -0.00114736
-7.76756e-05 -0.000732529 -9.56681e-06
-0.000732529 -0.000171991 -2.63495e-06
-9.56681e-06 -2.63495e-06 -0.000816684
0.00121441 0.000158959 -1.46872e-06
0.000158959 0.000493782 -6.35687e-06
-1.46872e-06 -6.35687e-06 0.000316465
0.00030049 0.000123839 -4.23952e-06
0.000123839 -0.000105107 -3.32981e-06
-4.23952e-06 -3.32981e-06 -0.00031781
0.00242146 0.000297821 6.10519e-06
0.000297821 2.8303e-05 1.03497e-07
6.10519e-06 1.03497e-07 9.69581e-05
0.00238476 0.00052163 1.60199e-05
0.00052163 0.000216728 5.31899e-06
1.60199e-05 5.31899e-06 0.000120422
0.0021383 0.000654562 1.84816e-05
0.000654562 0.000294178 4.66349e-06
1.84816e-05 4.66349e-06 -1.53267e-06
0.00134109 0.000411617 -7.48082e-07
0.000411617 0.000315101 1.30378e-06
-7.48082e-07 1.30378e-06 2.07618e-05
0.00163111 0.000597503 3.7171e-06
0.000597503 0.000318206 3.43449e-06
3.7171e-06 3.43449e-06 -6.18188e-05
0.00174627 0.000225158 9.53869e-08
0.000225158 0.00080629 -1.0669e-07
9.53869e-08 -1.0669e-07 0.000612345
0.00257535 0.000353701 1.1606e-06
0.000353701 0.000207324 1.86774e-06
1.1606e-06 1.86774e-06 0.000307475
0.00124386 0.000351885 -2.11383e-06
0.000351885 0.0003803 2.14642e-06
-2.11383e-06 2.14642e-06 0.000120144
0.00171846 0.00053514 2.55569e-06
0.00053514 0.000478178 -6.79624e-07
2.55569e-06 -6.79624e-07 0.000110964
0.00205048 0.000657312 -3.71496e-06
0.000657312 0.000110576 -3.44862e-06
-3.71496e-06 -3.44862e-06 -7.50576e-05
0.00167144 0.000640161 -4.36738e-06
0.000640161 0.000283437 4.82664e-06
-4.36738e-06 4.82664e-06 -9.62982e-05
0.0031194 0.000872773 5.08243e-05
0.000872773 -0.000197325 4.1683e-06
5.08243e-05 4.1683e-06 -0.000261896
0.00100886 0.000266439 -4.4366e-06
0.000266439 0.000393751 2.53546e-06
-4.4366e-06 2.53546e-06 0.000174455
0.00293112 0.000632304 -8.2584e-05
0.000632304 0.000523771 -3.38428e-05
-8.2584e-05 -3.38428e-05 0.000475607
0.000910339 0.000373905 -3.8883e-06
0.000373905 3.67487e-05 3.43276e-07
-3.8883e-06 3.43276e-07 -0.000246402
8.67839e-05 0.000391532 -2.17113e-06
0.000391532 -0.00047745 -1.56368e-05
-2.17113e-06 -1.56368e-05 -0.000823003
0.000702086 0.000643511 -3.58862e-05
0.000643511 -0.000421539 -1.20749e-05
-3.58862e-05 -1.20749e-05 -0.000639589
0.0135258 0.000353495 -0.000388687
0.000353495 0.00235142 -4.43109e-05
-0.000388687 -4.43109e-05 0.00163573
0.00488347 0.00138588 1.52254e-05
0.00138588 -0.000704078 -8.40547e-05
1.52254e-05 -8.40547e-05 -8.08807e-05
-0.000635111 0.000903275 -2.07172e-06
0.000903275 -0.00125805 4.2999e-07
-2.07172e-06 4.2999e-07 -0.00153084
-0.00124434 -0.00160811 0.00107939
-0.00160811 0.000754909 0.000240679
0.00107939 0.000240679 -0.00191281
0.0171442 -0.0062888 -1.0716e-05
-0.0062888 0.00569275 6.91901e-05
-1.0716e-05 6.91901e-05 0.00499546
-1.64708e-05 9.10427e-05 6.90995e-06
9.10427e-05 -0.000218288 1.70088e-06
6.90995e-06 1.70088e-06 -0.000313516
0.0010627 0.000100092 1.90079e-07
0.000100092 0.00041127 -2.52446e-06
1.90079e-07 -2.52446e-06 0.000330062
0.00196374 0.000225144 1.24351e-08
0.000225144 0.00097879 -6.75042e-07
1.24351e-08 -6.75042e-07 0.000868128
0.000525908 -5.72091e-05 -8.97946e-07
-5.72091e-05 6.50007e-05 -2.7013e-06
-8.97946e-07 -2.7013e-06 -5.61702e-05
0.000450142 6.20166e-05 -1.07512e-06
6.20166e-05 2.5417e-06 -2.39665e-06
-1.07512e-06 -2.39665e-06 -0.000131952
0.000747283 -1.63139e-05 2.51757e-08
-1.63139e-05 0.000193496 -5.89596e-07
2.51757e-08 -5.89596e-07 5.36105e-05
0.000672574 5.95119e-05 -4.14031e-06
5.95119e-05 0.000118302 8.08724e-06
-4.14031e-06 8.08724e-06 1.88809e-05
0.000455065 6.28927e-05 2.81642e-06
6.28927e-05 -2.53135e-05 7.92762e-06
2.81642e-06 7.92762e-06 -8.78305e-05
0.000683109 0.000117273 -1.76705e-06
0.000117273 0.000167385 -5.09102e-07
-1.76705e-06 -5.09102e-07 9.52058e-06
0.000435554 -5.85662e-06 4.28469e-07
-5.85662e-06 -8.36521e-06 9.43344e-07
4.28469e-07 9.43344e-07 -0.00012664
0.000674651 3.77121e-05 -5.31096e-07
3.77121e-05 0.000152537 -3.61818e-08
-5.31096e-07 -3.61818e-08 5.22098e-07
0.000509414 7.5074e-05 -5.97489e-07
7.5074e-05 2.08085e-05 -3.5853e-07
-5.97489e-07 -3.5853e-07 -3.55378e-05
0.000694059 9.9756e-05 -1.37654e-06
9.9756e-05 0.000146386 -3.17369e-07
-1.37654e-06 -3.17369e-07 5.77939e-06
0.00130586 0.000158721 -1.66833e-06
0.000158721 0.000542243 -9.68068e-07
-1.66833e-06 -9.68068e-07 0.00037421
0.000367942 9.38086e-05 1.04486e-06
9.38086e-05 -3.527e-06 -2.58961e-06
1.04486e-06 -2.58961e-06 -0.000154873
0.000817311 9.89001e-05 2.52117e-06
9.89001e-05 0.000239395 6.67593e-07
2.52117e-06 6.67593e-07 8.80212e-05
0.000521595 -2.85871e-05 1.74704e-06
-2.85871e-05 4.34741e-05 7.09712e-07
1.74704e-06 7.09712e-07 -0.000105799
0.000357367 -6.63814e-05 -1.39563e-06
-6.63814e-05 -5.91924e-05 2.79115e-06
-1.39563e-06 2.79115e-06 -0.00018191
0.000742769 -2.22535e-05 -8.13761e-07
-2.22535e-05 0.000193137 -4.58628e-08
-8.13761e-07 -4.58628e-08 3.94813e-05
0.00104921 1.86106e-05 1.41738e-08
1.86106e-05 0.000374333 -7.47103e-06
1.41738e-08 -7.47103e-06 0.000225979
0.000561845 -3.16953e-05 -1.26892e-06
-3.16953e-05 0.000108709 7.39415e-08
-1.26892e-06 7.39415e-08 -3.44828e-05
0.000772867 -4.3302e-05 1.7946e-06
-4.3302e-05 0.000223681 -5.77835e-07
1.7946e-06 -5.77835e-07 7.52665e-05
0.000657787 -0.000112423 -2.70429e-06
-0.000112423 0.000132544 1.79672e-06
-2.70429e-06 1.79672e-06 1.14452e-05
0.00033922 -2.18829e-05 1.33673e-07
-2.18829e-05 -6.86427e-05 1.14574e-06
1.33673e-07 1.14574e-06 -0.000190939
0.000518871 -4.58846e-05 -2.31847e-06
-4.58846e-05 1.92618e-05 3.25997e-06
-2.31847e-06 3.25997e-06 -5.26149e-05
0.000520182 -3.26598e-05 1.75079e-06
-3.26598e-05 2.63914e-05 6.33059e-08
1.75079e-06 6.33059e-08 -4.8865e-05
0.000482878 4.21422e-06 1.82667e-06
4.21422e-06 -2.10675e-05 6.11577e-06
1.82667e-06 6.11577e-06 -4.31911e-05
0.000540227 4.25718e-05 -1.61386e-06
4.25718e-05 3.3616e-05 -3.20977e-06
-1.61386e-06 -3.20977e-06 -3.68955e-05
0.00044355 2.5723e-05 4.45856e-07
2.5723e-05 -4.66465e-05 6.51504e-08
4.45856e-07 6.51504e-08 -6.83526e-05
0.00248547 1.64555e-06 1.73217e-06
1.64555e-06 0.0012022 5.31626e-06
1.73217e-06 5.31626e-06 0.00121552
0.00050916 2.7609e-05 -2.62034e-06
2.7609e-05 -1.13005e-05 -6.63901e-06
-2.62034e-06 -6.63901e-06 -3.29454e-05
0.00168526 -7.45926e-06 -1.45259e-06
-7.45926e-06 0.000704466 1.31518e-07
-1.45259e-06 1.31518e-07 0.00071359
0.000792485 -1.28945e-05 5.7851e-07
-1.28945e-05 0.000145132 -2.28368e-06
5.7851e-07 -2.28368e-06 0.000151676
0.00049723 -4.6697e-06 4.83362e-07
-4.6697e-06 -1.22374e-05 -1.33619e-06
4.83362e-07 -1.33619e-06 -5.12984e-05
0.000564577 -3.36793e-05 2.06454e-07
-3.36793e-05 3.19366e-05 -4.02542e-08
2.06454e-07 -4.02542e-08 -1.3468e-05
0.000540518 1.32352e-05 1.00165e-06
1.32352e-05 -1.10346e-05 -3.06177e-06
1.00165e-06 -3.06177e-06 -1.99315e-05
0.000513352 -2.92484e-05 -2.0157e-06
-2.92484e-05 -6.609e-06 1.09102e-06
-2.0157e-06 1.09102e-06 -5.07369e-05
0.000796815 2.6982e-05 -6.77421e-08
2.6982e-05 0.000150172 -7.30817e-07
-6.77421e-08 -7.30817e-07 0.000141139
0.00198342 4.82624e-05 8.06403e-06
4.82624e-05 0.000894797 -4.33759e-06
8.06403e-06 -4.33759e-06 0.000909719
0.000499218 3.28865e-05 -2.39109e-07
3.28865e-05 -2.85942e-05 3.32579e-06
-2.39109e-07 3.32579e-06 -4.31054e-05
0.00215762 6.8365e-05 -6.28883e-06
6.8365e-05 0.00101108 1.1242e-06
-6.28883e-06 1.1242e-06 0.0010219
0.00235017 9.27688e-05 -8.26712e-06
9.27688e-05 0.00113852 4.61296e-06
-8.26712e-06 4.61296e-06 0.00114373
0.00219915 0.000160326 -2.99111e-06
0.000160326 -2.41802e-05 -1.18589e-06
-2.99111e-06 -1.18589e-06 1.25813e-05
0.00203354 -6.35832e-06 5.01743e-07
-6.35832e-06 -4.54206e-05 7.28045e-08
5.01743e-07 7.28045e-08 -8.31907e-06
0.00188149 5.84591e-05 -2.78173e-08
5.84591e-05 -0.00021986 7.09684e-07
-2.78173e-08 7.09684e-07 -0.000160191
0.00243051 0.000449455 7.19449e-05
0.000449455 -0.00109521 1.67268e-05
7.19449e-05 1.67268e-05 -0.000632299
0.002217 -2.87077e-05 -1.41668e-06
-2.87077e-05 -6.40057e-05 -2.13487e-06
-1.41668e-06 -2.13487e-06 7.39466e-06
0.00213548 6.18607e-05 1.28572e-06
6.18607e-05 0.000139045 -8.17213e-06
1.28572e-06 -8.17213e-06 0.000255563
0.00327229 -3.2781e-05 -2.5758e-05
-3.2781e-05 0.000916423 3.80815e-06
-2.5758e-05 3.80815e-06 0.000918119
0.00282759 -8.14375e-06 -5.54462e-06
-8.14375e-06 -0.00170963 -2.60789e-05
-5.54462e-06 -2.60789e-05 -0.000932845
0.00275876 0.000166841 9.39588e-05
0.000166841 -0.00048851 5.48212e-05
9.39588e-05 5.48212e-05 -5.41889e-05
0.000584658 8.1657e-05 4.02759e-07
8.1657e-05 8.53688e-05 -2.46229e-07
4.02759e-07 -2.46229e-07 -1.33187e-06
0.000584349 -5.11189e-06 4.60942e-07
-5.11189e-06 9.15152e-05 -1.11844e-07
4.60942e-07 -1.11844e-07 -5.26623e-07
0.000480913 -0.000100652 -2.99864e-06
-0.000100652 3.29937e-05 1.25246e-06
-2.99864e-06 1.25246e-06 -7.37223e-05
0.000477701 -5.04661e-05 -1.8182e-06
-5.04661e-05 4.80422e-05 1.43429e-06
-1.8182e-06 1.43429e-06 -6.41062e-05
0.00220808 -0.000169379 -3.80758e-06
-0.000169379 -9.56736e-05 9.30757e-07
-3.80758e-06 9.30757e-07 -1.51396e-05
0.00216144 -0.000395651 2.122e-06
-0.000395651 -9.95704e-05 -1.2805e-06
2.122e-06 -1.2805e-06 -5.22728e-06
0.00216713 -0.000555999 -2.50562e-06
-0.000555999 1.66211e-05 7.7054e-07
-2.50562e-06 7.7054e-07 -2.89989e-05
0.00318666 -0.000707616 1.08491e-05
-0.000707616 0.00137061 4.97205e-06
1.08491e-05 4.97205e-06 0.000970762
0.000604727 -0.000666431 8.5869e-06
-0.000666431 -0.000304566 -2.8558e-06
8.5869e-06 -2.8558e-06 -0.000744596
0.00230585 -0.000760404 4.36333e-06
-0.000760404 0.000358133 -2.69347e-06
4.36333e-06 -2.69347e-06 0.000132626
0.00178161 -0.00066376 3.87337e-06
-0.00066376 0.000507636 -7.92263e-06
3.87337e-06 -7.92263e-06 8.79217e-05
0.00301464 -0.000216284 4.57571e-06
-0.000216284 0.00147057 -3.29419e-06
4.57571e-06 -3.29419e-06 0.0011082
-0.000175947 -2.04736e-05 -2.08091e-06
-2.04736e-05 -0.000466988 2.52821e-06
-2.08091e-06 2.52821e-06 -0.000648232
0.000667916 -5.48793e-05 7.87231e-07
-5.48793e-05 0.0001341 4.06357e-07
7.87231e-07 4.06357e-07 4.96606e-05
0.000556801 -0.000109457 5.70403e-07
-0.000109457 0.00011268 -7.31757e-06
5.70403e-07 -7.31757e-06 -9.30704e-05
0.000723429 -2.68932e-06 3.3864e-06
-2.68932e-06 0.000202025 -4.42173e-06
3.3864e-06 -4.42173e-06 6.21027e-05
0.000617875 1.08616e-06 -9.95477e-08
1.08616e-06 0.00011979 5.41457e-07
-9.95477e-08 5.41457e-07 2.01748e-05
0.000542801 -4.37576e-05 -7.99071e-06
-4.37576e-05 2.30534e-05 2.81314e-06
-7.99071e-06 2.81314e-06 -6.28344e-05
0.00251645 -0.000269797 1.67945e-06
-0.000269797 0.000112101 1.134e-06
1.67945e-06 1.134e-06 0.000199274
0.000575932 -2.7161e-05 1.96128e-07
-2.7161e-05 9.73149e-05 7.53345e-07
1.96128e-07 7.53345e-07 -2.11935e-05
0.000823777 -2.22211e-05 5.20195e-06
-2.22211e-05 0.000204691 -6.62196e-07
5.20195e-06 -6.62196e-07 9.72386e-05
-0.000104329 -1.19158e-05 1.76601e-06
-1.19158e-05 -0.00033978 8.44917e-07
1.76601e-06 8.44917e-07 -0.000410341
0.00188887 -0.00043028 2.88371e-07
-0.00043028 -0.000301473 -1.28163e-06
2.88371e-07 -1.28163e-06 -0.000128032
0.00214031 -0.00069678 2.03393e-06
-0.00069678 8.84744e-05 -1.37261e-06
2.03393e-06 -1.37261e-06 -6.29593e-05
0.00179572 -0.000704166 -1.37285e-06
-0.000704166 0.000535291 -3.87161e-07
-1.37285e-06 -3.87161e-07 0.000121294
0.00233073 -0.000839901 -5.93487e-06
-0.000839901 0.000484295 1.2651e-06
-5.93487e-06 1.2651e-06 0.000198758
0.00134698 -0.000113567 -3.2208e-07
-0.000113567 0.00056912 7.76662e-07
-3.2208e-07 7.76662e-07 0.000407862
0.000273216 -4.24043e-05 4.59417e-06
-4.24043e-05 -0.000121982 1.16139e-06
4.59417e-06 1.16139e-06 -0.000294858
0.00144262 -0.000851371 4.21285e-06
-0.000851371 0.000703056 -1.78664e-06
4.21285e-06 -1.78664e-06 3.74464e-05
0.00120872 -0.000313291 -3.83999e-06
-0.000313291 0.000554214 2.67789e-08
-3.83999e-06 2.67789e-08 0.000102692
0.0030552 -0.000380698 -3.29222e-05
-0.000380698 0.000308361 -8.11151e-07
-3.29222e-05 -8.11151e-07 0.000538722
0.00227599 -0.000555937 -4.29432e-05
-0.000555937 8.83253e-05 1.15821e-05
-4.29432e-05 1.15821e-05 0.000143622
0.00237432 -0.000822036 -6.66854e-06
-0.000822036 0.000369971 -5.24652e-06
-6.66854e-06 -5.24652e-06 9.59691e-05
0.00254591 -0.000807862 -1.33025e-05
-0.000807862 0.00078976 1.8759e-06
-1.33025e-05 1.8759e-06 0.000502852
0.000309044 -4.32542e-05 -1.08926e-06
-4.32542e-05 -3.37772e-05 -3.60269e-06
-1.08926e-06 -3.60269e-06 -0.000155016
0.000258378 -9.00123e-05 -5.64963e-06
-9.00123e-05 -0.000103132 -9.86227e-06
-5.64963e-06 -9.86227e-06 -0.00025292
3.03853e-05 -0.000155872 -4.54911e-06
-0.000155872 -3.90317e-06 2.94511e-05
-4.54911e-06 2.94511e-05 -0.000286704
-0.000946885 -0.000556935 -5.85039e-06
-0.000556935 -0.000127726 -2.46216e-05
-5.85039e-06 -2.46216e-05 -0.00102619
0.00184104 -0.000491417 3.78089e-05
-0.000491417 -0.00461161 -8.28214e-08
3.78089e-05 -8.28214e-08 -0.00466326
0.00196009 0.000213772 -1.10705e-06
0.000213772 0.000918342 -4.96498e-06
-1.10705e-06 -4.96498e-06 0.000730691
0.00101669 0.00030575 -9.3544e-07
0.00030575 0.000240431 -2.82449e-07
-9.3544e-07 -2.82449e-07 -8.15655e-06
0.00198409 0.00030099 6.53022e-05
0.00030099 -0.000117769 1.69105e-05
6.53022e-05 1.69105e-05 -7.80817e-07
0.00240257 0.000673225 2.95635e-05
0.000673225 0.000307419 1.06987e-05
2.95635e-05 1.06987e-05 0.000129875
0.0021338 0.000692117 1.46261e-05
0.000692117 0.000558832 1.18894e-05
1.46261e-05 1.18894e-05 0.000164072
0.00138412 0.00050288 7.575e-06
0.00050288 0.000301322 8.63303e-06
7.575e-06 8.63303e-06 -6.86672e-05
0.00480269 0.00107407 0.000116808
0.00107407 0.000396875 4.45157e-05
0.000116808 4.45157e-05 0.00015309
0.00143524 0.000267201 4.49632e-06
0.000267201 0.000639752 6.89496e-08
4.49632e-06 6.89496e-08 0.000430235
0.00254402 0.00059257 -1.89538e-05
0.00059257 0.000302374 1.88127e-07
-1.89538e-05 1.88127e-07 0.000275021
0.000932721 0.000377769 -3.01539e-06
0.000377769 8.4778e-05 2.51915e-06
-3.01539e-06 2.51915e-06 -0.000203478
0.00145445 0.000564617 2.17045e-06
0.000564617 0.000302827 -4.95305e-06
2.17045e-06 -4.95305e-06 -7.50669e-05
0.00167271 0.000725437 -9.89312e-06
0.000725437 9.16531e-05 4.69426e-08
-9.89312e-06 4.69426e-08 -0.000149431
0.00405718 -0.000594461 -0.000159107
-0.000594461 -0.00398353 -6.06517e-05
-0.000159107 -6.06517e-05 -0.00499076
0.00706476 0.00132419 -9.13842e-05
0.00132419 0.000270342 -6.58381e-05
-9.13842e-05 -6.58381e-05 0.000619344
0.000995112 0.00094398 -9.29107e-06
0.00094398 -0.000350767 8.70086e-06
-9.29107e-06 8.70086e-06 -0.00069825
-0.000696097 -0.00137788 0.000397579
-0.00137788 0.00223771 0.000168215
0.000397579 0.000168215 -0.00027976
0.00871221 -0.00626416 -0.000365569
-0.00626416 0.00349944 -0.000346207
-0.000365569 -0.000346207 0.00275453
0.0012909 0.000269989 -1.22731e-05
0.000269989 0.000488372 1.15824e-06
-1.22731e-05 1.15824e-06 0.000290352
0.00061201 0.000525664 0.000554612
0.000525664 0.00337901 6.35367e-05
0.000554612 6.35367e-05 0.0016125
0.00213309 -0.00203357 -0.000163072
-0.00203357 0.00446514 -0.000218768
-0.000163072 -0.000218768 0.000478879
0.00232451 0.000881442 -4.49362e-05
0.000881442 0.000278463 -1.41774e-05
-4.49362e-05 -1.41774e-05 0.000167646
0.000955725 0.000298784 -2.27109e-05
0.000298784 0.000101358 -7.37031e-06
-2.27109e-05 -7.37031e-06 -0.000151768
0.000633244 0.000576166 -2.99391e-05
0.000576166 -9.00614e-05 -2.985e-05
-2.99391e-05 -2.985e-05 -0.000411978
0.000140327 0.000927336 3.90666e-05
0.000927336 -0.000665594 9.07354e-05
3.90666e-05 9.07354e-05 -0.000998044
0.0120398 0.00186499 3.29924e-05
0.00186499 0.00177454 -4.55011e-05
3.29924e-05 -4.55011e-05 0.000360331
0.00342943 0.00189458 -1.56421e-05
0.00189458 3.73683e-05 -4.02633e-05
-1.56421e-05 -4.02633e-05 -0.000193747
0.0100402 -0.00529619 0.000829208
-0.00529619 0.00263983 0.00047524
0.000829208 0.00047524 0.000589721
0.0107349 -0.00247849 -5.16062e-05
-0.00247849 0.00200235 0.000498988
-5.16062e-05 0.000498988 0.00127834
0.000500834 8.83172e-05 6.50618e-06
8.83172e-05 0.000101045 -1.67975e-06
6.50618e-06 -1.67975e-06 1.97079e-05
0.000360437 0.000121274 7.9108e-06
0.000121274 1.76666e-05 3.15467e-07
7.9108e-06 3.15467e-07 -8.37271e-05
0.00187517 0.000264819 3.07403e-06
0.000264819 0.000944361 -2.24969e-06
3.07403e-06 -2.24969e-06 0.000784268
0.000587092 1.14513e-05 8.26225e-07
1.14513e-05 0.000107802 -8.19772e-07
8.26225e-07 -8.19772e-07 -2.46748e-05
0.000654624 6.1307e-05 -1.32761e-06
6.1307e-05 0.000136579 -1.89893e-06
-1.32761e-06 -1.89893e-06 -1.04561e-05
0.000261749 1.91244e-05 -1.45215e-06
1.91244e-05 -0.000104991 6.50203e-07
-1.45215e-06 6.50203e-07 -0.000245294
0.000580424 9.17141e-05 -7.00423e-06
9.17141e-05 9.11239e-05 1.72148e-06
-7.00423e-06 1.72148e-06 -5.10663e-05
-0.000525919 4.52066e-05 -3.85541e-06
4.52066e-05 -0.00062001 8.0208e-07
-3.85541e-06 8.0208e-07 -0.000675741
0.000374998 -1.15147e-05 2.27017e-07
-1.15147e-05 -4.16754e-05 9.69861e-07
2.27017e-07 9.69861e-07 -0.000168188
0.00115325 0.000103811 1.35924e-06
0.000103811 0.000443756 -4.47286e-07
1.35924e-06 -4.47286e-07 0.000284662
0.000649826 4.82065e-05 5.46756e-07
4.82065e-05 0.000144264 2.6978e-07
5.46756e-07 2.6978e-07 -1.14982e-05
0.000736197 2.81504e-05 1.19659e-06
2.81504e-05 0.000195298 -4.46879e-07
1.19659e-06 -4.46879e-07 3.22751e-05
0.000537474 0.000101792 -3.62712e-07
0.000101792 9.96334e-05 -1.78475e-06
-3.62712e-07 -1.78475e-06 -4.86188e-05
0.00124811 0.000109079 -2.02073e-06
0.000109079 0.000523766 -1.48335e-06
-2.02073e-06 -1.48335e-06 0.000362204
-0.000195709 4.22249e-05 -5.86886e-06
4.22249e-05 -0.000277806 -3.61407e-06
-5.86886e-06 -3.61407e-06 -0.000453931
0.000695475 -9.6847e-05 -1.86081e-07
-9.6847e-05 0.000165666 -1.40963e-07
-1.86081e-07 -1.40963e-07 9.90461e-06
0.000769306 -7.36427e-05 -6.63682e-07
-7.36427e-05 0.000225338 3.75315e-08
-6.63682e-07 3.75315e-08 6.09701e-05
0.000751167 -4.34816e-05 -1.23997e-07
-4.34816e-05 0.00021085 -3.76629e-07
-1.23997e-07 -3.76629e-07 4.8259e-05
0.000762525 -1.51518e-05 -2.69514e-06
-1.51518e-05 0.000183716 -3.24646e-08
-2.69514e-06 -3.24646e-08 4.93242e-05
0.0009714 1.21569e-05 -4.83949e-06
1.21569e-05 0.000364702 -3.99324e-06
-4.83949e-06 -3.99324e-06 0.000183176
0.00075438 -2.62785e-05 1.78335e-06
-2.62785e-05 0.000199299 -6.06057e-06
1.78335e-06 -6.06057e-06 6.39933e-05
-0.000792157 -1.67733e-05 -1.93659e-06
-1.67733e-05 -0.000761507 -4.80166e-06
-1.93659e-06 -4.80166e-06 -0.000875093
0.000641584 -3.98203e-05 1.34535e-06
-3.98203e-05 0.000120259 -8.63683e-07
1.34535e-06 -8.63683e-07 -2.31379e-05
0.000415485 -7.31432e-05 1.38364e-06
-7.31432e-05 -9.74918e-06 1.22834e-06
1.38364e-06 1.22834e-06 -0.000138665
0.000672404 -7.667e-05 -1.0091e-06
-7.667e-05 0.00016803 -2.71988e-07
-1.0091e-06 -2.71988e-07 2.61336e-05
0.000534645 -7.57839e-05 -2.29229e-06
-7.57839e-05 4.04525e-05 1.60807e-06
-2.29229e-06 1.60807e-06 -6.56524e-05
0.000468176 -6.01484e-05 2.89294e-06
-6.01484e-05 8.39877e-06 2.04152e-07
2.89294e-06 2.04152e-07 -0.000121925
0.000533289 -0.000102091 9.5599e-08
-0.000102091 5.25548e-05 2.65542e-07
9.5599e-08 2.65542e-07 -6.72048e-05
0.000554471 -4.48871e-05 -2.43371e-06
-4.48871e-05 3.90848e-05 3.6432e-06
-2.43371e-06 3.6432e-06 -3.36424e-05
0.000424646 -8.79294e-06 1.54888e-06
-8.79294e-06 -2.7726e-06 -8.19749e-07
1.54888e-06 -8.19749e-07 -0.000135259
0.000515922 1.56053e-06 1.86763e-06
1.56053e-06 2.45814e-05 6.35965e-08
1.86763e-06 6.35965e-08 -5.14445e-05
0.0014347 -1.58055e-05 -6.72233e-06
-1.58055e-05 0.000560997 6.30181e-06
-6.72233e-06 6.30181e-06 0.000542879
0.000517727 5.8328e-05 -1.19858e-06
5.8328e-05 2.52826e-05 -3.14362e-06
-1.19858e-06 -3.14362e-06 -4.98091e-05
0.000891482 -9.76997e-06 -3.10404e-06
-9.76997e-06 0.000230739 7.46445e-07
-3.10404e-06 7.46445e-07 0.00021077
0.000776146 3.12018e-06 -3.58521e-06
3.12018e-06 0.000148372 4.83203e-06
-3.58521e-06 4.83203e-06 0.000153737
0.000442239 -6.94009e-06 2.34548e-06
-6.94009e-06 -4.75114e-05 -4.56641e-06
2.34548e-06 -4.56641e-06 -6.90186e-05
0.00250905 2.04686e-06 5.77145e-06
2.04686e-06 0.00121696 -1.60876e-08
5.77145e-06 -1.60876e-08 0.00123023
0.000887382 2.66834e-07 -6.17344e-06
2.66834e-07 0.000212481 -5.2272e-06
-6.17344e-06 -5.2272e-06 0.000217549
0.000519874 6.36307e-05 2.63099e-06
6.36307e-05 4.96246e-05 7.90614e-07
2.63099e-06 7.90614e-07 -4.38334e-05
0.000492524 4.53528e-05 -1.96358e-06
4.53528e-05 -5.22484e-06 -1.83399e-06
-1.96358e-06 -1.83399e-06 -4.88457e-05
0.000511425 -6.11484e-06 1.41109e-06
-6.11484e-06 5.21247e-06 4.3469e-08
1.41109e-06 4.3469e-08 -3.94989e-05
0.000521766 8.51538e-06 9.34584e-07
8.51538e-06 -2.19528e-05 -2.96204e-06
9.34584e-07 -2.96204e-06 -3.0075e-05
0.000564206 -5.22731e-05 -1.87118e-06
-5.22731e-05 3.63173e-05 1.76369e-06
-1.87118e-06 1.76369e-06 -1.21919e-05
0.000501644 1.36211e-05 7.67277e-08
1.36211e-05 -3.56707e-05 -7.42262e-07
7.67277e-08 -7.42262e-07 -4.424e-05
0.00197102 3.31219e-05 5.5733e-06
3.31219e-05 0.000883125 -4.47607e-06
5.5733e-06 -4.47607e-06 0.00089998
0.00108548 3.43701e-05 -6.7808e-07
3.43701e-05 0.000330199 1.70369e-06
-6.7808e-07 1.70369e-06 0.000322408
0.00144846 4.19568e-05 -1.47051e-07
4.19568e-05 0.000563045 1.38413e-06
-1.47051e-07 1.38413e-06 0.000573581
0.000882332 4.58678e-05 -9.87438e-06
4.58678e-05 0.000217398 7.36828e-06
-9.87438e-06 7.36828e-06 0.000221332
0.00092633 0.000306008 8.88585e-05
0.000306008 -0.00178169 1.49956e-05
8.88585e-05 1.49956e-05 -0.00133468
0.00217611 -4.52942e-05 -2.8616e-06
-4.52942e-05 -6.01182e-05 3.61056e-06
-2.8616e-06 3.61056e-06 4.46437e-06
0.0021236 7.25873e-05 3.44847e-05
7.25873e-05 0.000156518 -1.541e-05
3.44847e-05 -1.541e-05 0.00025788
0.00224695 0.000273626 -4.23287e-05
0.000273626 -0.00156145 -3.01527e-05
-4.23287e-05 -3.01527e-05 -0.000571115
0.00197746 9.51149e-05 3.27141e-05
9.51149e-05 -0.000702798 -2.17504e-06
3.27141e-05 -2.17504e-06 -0.00040686
0.00245986 -4.20229e-05 3.26052e-06
-4.20229e-05 0.000352598 -7.26764e-06
3.26052e-06 -7.26764e-06 0.000374208
0.00411548 -0.000241284 -4.76178e-05
-0.000241284 0.00095308 -1.35565e-05
-4.76178e-05 -1.35565e-05 0.000953624
0.00264932 -0.000119717 2.24489e-05
-0.000119717 -9.04704e-05 2.61501e-05
2.24489e-05 2.61501e-05 0.000102802
0.0136675 -0.000738744 1.46758e-05
-0.000738744 0.00256922 1.90836e-05
1.46758e-05 1.90836e-05 0.00122158
0.0139541 0.00408855 0.00104418
0.00408855 0.00557217 -0.000402645
0.00104418 -0.000402645 0.00369395
0.0136996 0.00474006 3.96402e-07
0.00474006 0.00908855 4.10189e-06
3.96402e-07 4.10189e-06 0.007545
0.000290415 -9.74003e-05 1.25825e-06
-9.74003e-05 -8.05728e-05 -3.46201e-07
1.25825e-06 -3.46201e-07 -0.000184596
0.000572436 -9.88151e-06 1.31189e-06
-9.88151e-06 7.92227e-05 -1.35836e-07
1.31189e-06 -1.35836e-07 -8.71053e-06
0.000659345 -8.77256e-05 -1.1269e-06
-8.77256e-05 0.000145824 1.89573e-06
-1.1269e-06 1.89573e-06 4.64876e-05
0.000565224 -4.24359e-05 1.74911e-07
-4.24359e-05 8.21283e-05 4.93328e-07
1.74911e-07 4.93328e-07 -2.50205e-05
0.00070302 7.81082e-05 -2.66605e-06
7.81082e-05 0.000196184 1.91267e-06
-2.66605e-06 1.91267e-06 7.20161e-05
0.000389807 0.00011454 1.96031e-06
0.00011454 -4.20753e-05 6.1902e-06
1.96031e-06 6.1902e-06 -0.000156075
0.000971209 -1.92137e-05 3.70917e-06
-1.92137e-05 0.000353617 2.31172e-06
3.70917e-06 2.31172e-06 0.000224514
0.00049873 -2.72579e-05 -1.54036e-06
-2.72579e-05 4.32444e-05 1.17814e-06
-1.54036e-06 1.17814e-06 -6.40556e-05
0.00245342 -0.000254931 7.36205e-06
-0.000254931 6.91678e-05 6.10508e-07
7.36205e-06 6.10508e-07 0.00018323
0.00192212 -0.00044845 1.59747e-05
-0.00044845 -0.000318422 -5.53918e-06
1.59747e-05 -5.53918e-06 -0.000156594
0.00214479 -0.000695911 4.44732e-06
-0.000695911 9.00395e-05 2.01501e-06
4.44732e-06 2.01501e-06 -5.63721e-05
0.0017389 -0.00068341 2.27281e-05
-0.00068341 0.000484188 1.49907e-06
2.27281e-05 1.49907e-06 8.64667e-05
0.00200967 -0.000828692 6.61112e-07
-0.000828692 0.000306365 5.79434e-06
6.61112e-07 5.79434e-06 1.59231e-05
0.00339466 -0.00101961 2.40563e-05
-0.00101961 0.0018122 -2.87504e-06
2.40563e-05 -2.87504e-06 0.00110574
0.00351208 -0.000534052 2.9657e-06
-0.000534052 0.00168007 -2.28604e-06
2.9657e-06 -2.28604e-06 0.00132783
0.000645712 -0.000153217 8.70526e-06
-0.000153217 0.000137 -1.60893e-05
8.70526e-06 -1.60893e-05 -7.50001e-05
0.000535708 -5.5604e-05 -2.31337e-07
-5.5604e-05 2.45032e-05 3.81916e-06
-2.31337e-07 3.81916e-06 -7.2263e-05
0.000628322 -8.95261e-05 8.40481e-06
-8.95261e-05 9.94765e-05 -1.87829e-05
8.40481e-06 -1.87829e-05 -4.21372e-05
0.000967722 -3.74606e-05 2.06017e-06
-3.74606e-05 0.000335651 1.3679e-07
2.06017e-06 1.3679e-07 0.000211397
0.000558658 3.58726e-05 2.90107e-06
3.58726e-05 7.40129e-05 5.80347e-07
2.90107e-06 5.80347e-07 2.23569e-05
0.00226102 -0.000344002 -1.02298e-06
-0.000344002 -7.31333e-05 3.50489e-06
-1.02298e-06 3.50489e-06 0.000153909
0.000531764 -3.6669e-05 -2.24166e-06
-3.6669e-05 9.81921e-05 -9.10293e-07
-2.24166e-06 -9.10293e-07 -2.58972e-05
0.000970003 -0.000150075 -6.08199e-06
-0.000150075 0.000323038 5.9844e-06
-6.08199e-06 5.9844e-06 0.000186832
0.00176817 -0.000539803 5.31373e-06
-0.000539803 -0.000204052 -2.63462e-06
5.31373e-06 -2.63462e-06 -0.000133182
0.00170619 -0.000734693 8.87051e-07
-0.000734693 -1.43151e-06 -5.06763e-07
8.87051e-07 -5.06763e-07 -0.000218371
0.000866716 -0.000630354 -2.90042e-07
-0.000630354 -0.00015647 -1.34108e-06
-2.90042e-07 -1.34108e-06 -0.000415179
0.00160308 -0.000283854 1.16599e-06
-0.000283854 0.000846635 -1.63771e-05
1.16599e-06 -1.63771e-05 0.000539221
0.00164184 -0.000598231 -1.39981e-06
-0.000598231 0.00118598 2.66541e-06
-1.39981e-06 2.66541e-06 0.000430238
0.0041796 -0.000618157 -4.43962e-05
-0.000618157 0.000865255 1.079e-05
-4.43962e-05 1.079e-05 0.00101869
0.00371369 -0.000816841 -5.23164e-05
-0.000816841 0.00109406 1.51043e-05
-5.23164e-05 1.51043e-05 0.000964551
0.00194166 -0.000821249 -6.71286e-06
-0.000821249 0.000230878 6.77555e-07
-6.71286e-06 6.77555e-07 3.405e-06
-0.000394567 -0.00041159 -1.35533e-05
-0.00041159 -0.00060204 1.9742e-05
-1.35533e-05 1.9742e-05 -0.000770749
0.000397201 -0.000133481 1.70279e-06
-0.000133481 4.06139e-05 6.82099e-06
1.70279e-06 6.82099e-06 -0.000143733
0.000485136 -0.000158262 4.24387e-06
-0.000158262 0.000140706 -2.8597e-07
4.24387e-06 -2.8597e-07 -7.2298e-05
0.00166782 -0.000211323 -2.42286e-06
-0.000211323 0.00117126 -1.82653e-05
-2.42286e-06 -1.82653e-05 0.000578321
-0.00630177 -0.000265945 0.000427925
-0.000265945 -0.0045496 -7.3882e-06
0.000427925 -7.3882e-06 -0.00351056
0.0111048 -0.000266007 5.01468e-05
-0.000266007 0.001878 7.35079e-06
5.01468e-05 7.35079e-06 0.00157327
0.00183778 0.000249427 6.83617e-06
0.000249427 0.000847097 -6.83194e-06
6.83617e-06 -6.83194e-06 0.00066305
0.00154675 0.000448359 -3.60291e-06
0.000448359 0.000480395 4.59517e-06
-3.60291e-06 4.59517e-06 0.000173268
0.00260558 0.000542652 8.71876e-05
0.000542652 0.000370223 3.64552e-05
8.71876e-05 3.64552e-05 0.00035597
0.00304025 0.000848748 2.70257e-05
0.000848748 0.000815885 1.11189e-05
2.70257e-05 1.11189e-05 0.000542957
0.00267341 0.00071481 1.75419e-05
0.00071481 0.00099687 6.54213e-06
1.75419e-05 6.54213e-06 0.000594025
0.0141414 0.000683415 7.39857e-05
0.000683415 0.00309319 -2.14106e-05
7.39857e-05 -2.14106e-05 0.0021542
0.00818883 0.00179864 -0.000196367
0.00179864 1.79066e-05 3.06944e-05
-0.000196367 3.06944e-05 0.000407874
0.00315002 0.00107831 1.72969e-06
0.00107831 0.000837445 -2.90597e-05
1.72969e-06 -2.90597e-05 0.000372146
0.0119325 -0.00314692 -0.000377206
-0.00314692 0.00508587 -2.77109e-05
-0.000377206 -2.77109e-05 0.0031733
-0.00123068 -0.00640079 -0.00184569
-0.00640079 0.00111552 -0.00123866
-0.00184569 -0.00123866 -5.39575e-05
0.000953277 0.000278521 8.28899e-07
0.000278521 0.000337576 3.80549e-07
8.28899e-07 3.80549e-07 0.000117752
-0.00219412 -0.00184367 0.00033979
-0.00184367 -0.00270812 5.9352e-05
0.00033979 5.9352e-05 -0.00390683
-0.00322689 -0.00149662 -0.000362134
-0.00149662 0.00394628 -0.000167634
-0.000362134 -0.000167634 -0.000367987
0.0032779 0.00087983 -1.82663e-05
0.00087983 0.00076085 -2.63757e-07
-1.82663e-05 -2.63757e-07 0.000666016
0.0010607 0.000374357 -6.72463e-06
0.000374357 0.000206508 6.1351e-06
-6.72463e-06 6.1351e-06 -8.4797e-05
0.00139282 0.000679451 4.2482e-06
0.000679451 0.000318882 2.86317e-06
4.2482e-06 2.86317e-06 -3.1315e-05
0.00150738 0.000923286 4.4612e-05
0.000923286 0.000218907 2.47726e-05
4.4612e-05 2.47726e-05 -8.12792e-06
0.0133015 0.00180917 -0.000127116
0.00180917 0.00150443 -7.47915e-05
-0.000127116 -7.47915e-05 -0.000429919
0.00516686 0.00248318 -6.28177e-05
0.00248318 0.00017664 -4.89524e-05
-6.28177e-05 -4.89524e-05 0.000298241
0.0162314 -0.00387261 0.000387013
-0.00387261 0.00652528 -1.40296e-05
0.000387013 -1.40296e-05 0.00437129
0.0119879 -0.0033116 0.000198109
-0.0033116 0.00117881 0.000600435
0.000198109 0.000600435 0.000404
0.00251624 0.000366881 -1.95051e-05
0.000366881 0.00124716 -1.25969e-05
-1.95051e-05 -1.25969e-05 0.00105308
-0.00997969 0.00095839 -0.000130544
0.00095839 0.0026848 -0.000118201
-0.000130544 -0.000118201 -0.00267171
0.00437405 0.000655789 -0.000304329
0.000655789 0.00324545 -0.000406075
-0.000304329 -0.000406075 -0.00107689
0.0029177 0.000698344 -2.64989e-05
0.000698344 0.000826835 4.64953e-06
-2.64989e-05 4.64953e-06 0.000804382
0.00200225 0.000649122 -6.52367e-05
0.000649122 0.000788688 -2.52544e-05
-6.52367e-05 -2.52544e-05 0.000471245
0.00188501 0.000718299 -7.61517e-05
0.000718299 0.00126373 -1.66741e-05
-7.61517e-05 -1.66741e-05 0.000610829
-0.000230688 0.00154131 -5.02589e-05
0.00154131 -0.000313042 -3.2263e-05
-5.02589e-05 -3.2263e-05 -0.000498049
-0.000570543 0.00211503 0.000313034
0.00211503 -0.00175891 0.000128281
0.000313034 0.000128281 -0.00468281
0.0166662 -0.00464426 0.00025842
-0.00464426 0.00766963 0.000575797
0.00025842 0.000575797 0.00492584
0.00787472 -0.00127451 -0.000125954
-0.00127451 -0.0020249 -0.000123254
-0.000125954 -0.000123254 -0.000895238
-0.000702089 9.64125e-05 2.41183e-06
9.64125e-05 -0.000582036 -7.59151e-06
2.41183e-06 -7.59151e-06 -0.000705173
0.00143764 0.000243457 1.09707e-05
0.000243457 0.000664335 3.31057e-06
1.09707e-05 3.31057e-06 0.000506989
-0.00029781 8.23426e-05 -2.90168e-08
8.23426e-05 -0.000323903 -8.13485e-06
-2.90168e-08 -8.13485e-06 -0.00046518
0.000354893 5.26968e-05 1.94487e-06
5.26968e-05 -5.33306e-05 -9.05401e-07
1.94487e-06 -9.05401e-07 -0.000179455
0.000881025 7.30052e-05 -9.8791e-07
7.30052e-05 0.000291182 -1.78977e-06
-9.8791e-07 -1.78977e-06 0.000123144
0.000630577 2.33883e-06 -1.43395e-06
2.33883e-06 0.000138903 1.57909e-06
-1.43395e-06 1.57909e-06 -2.34392e-05
0.000553931 5.86947e-05 4.53555e-06
5.86947e-05 8.46936e-05 2.67919e-06
4.53555e-06 2.67919e-06 -7.45195e-05
-3.35523e-05 6.54733e-05 -4.16481e-06
6.54733e-05 -0.000240205 3.37188e-07
-4.16481e-06 3.37188e-07 -0.000380349
0.000751585 4.7048e-05 1.01543e-07
4.7048e-05 0.000215089 -9.38589e-07
1.01543e-07 -9.38589e-07 5.07476e-05
0.00074657 7.19761e-05 7.51508e-07
7.19761e-05 0.000208068 -4.75771e-07
7.51508e-07 -4.75771e-07 5.54415e-05
0.00080675 -5.33335e-05 -8.98638e-07
-5.33335e-05 0.000232522 1.62614e-06
-8.98638e-07 1.62614e-06 7.49387e-05
-0.000558918 2.56675e-05 2.65046e-06
2.56675e-05 -0.000471585 6.06035e-07
2.65046e-06 6.06035e-07 -0.000651367
-0.00045428 4.05806e-05 -2.25279e-06
4.05806e-05 -0.000168268 3.77632e-06
-2.25279e-06 3.77632e-06 -0.00045882
0.000740796 -2.15399e-05 -4.76306e-06
-2.15399e-05 0.000240566 -6.68478e-06
-4.76306e-06 -6.68478e-06 8.30971e-05
0.000915837 -1.60949e-05 2.35663e-07
-1.60949e-05 0.000324603 -9.32063e-07
2.35663e-07 -9.32063e-07 0.00014676
0.000795429 -7.18349e-05 -2.01924e-07
-7.18349e-05 0.000245231 -1.02202e-06
-2.01924e-07 -1.02202e-06 7.65626e-05
0.000648869 -6.18236e-05 2.51823e-06
-6.18236e-05 0.000103472 4.05925e-06
2.51823e-06 4.05925e-06 -2.28015e-05
0.000801415 -6.93499e-05 9.39556e-07
-6.93499e-05 0.000244354 -1.30195e-06
9.39556e-07 -1.30195e-06 7.34517e-05
0.000729994 -2.48984e-05 -1.38692e-06
-2.48984e-05 0.000177678 2.25317e-07
-1.38692e-06 2.25317e-07 4.36111e-05
-0.00015926 -6.05942e-05 1.74415e-06
-6.05942e-05 -0.000362962 3.04749e-06
1.74415e-06 3.04749e-06 -0.000474562
0.000383445 -2.66211e-05 7.82306e-07
-2.66211e-05 -8.29302e-06 -5.56572e-07
7.82306e-07 -5.56572e-07 -0.000149544
0.000161954 -1.67972e-05 -6.08476e-06
-1.67972e-05 -0.000118857 -4.81727e-06
-6.08476e-06 -4.81727e-06 -0.000272443
7.5377e-05 -6.81284e-05 2.8553e-06
-6.81284e-05 -0.000184509 -3.2963e-06
2.8553e-06 -3.2963e-06 -0.000310708
0.00104838 -9.64824e-05 6.1262e-06
-9.64824e-05 0.00028751 -1.27273e-05
6.1262e-06 -1.27273e-05 0.00018724
-0.000456498 -2.50067e-05 4.71378e-07
-2.50067e-05 -0.000638759 2.98146e-06
4.71378e-07 2.98146e-06 -0.000768295
7.07084e-05 -4.03062e-05 -4.89868e-06
-4.03062e-05 -0.000213176 -2.00968e-06
-4.89868e-06 -2.00968e-06 -0.000355841
0.000727327 -5.9166e-05 6.57689e-07
-5.9166e-05 0.00016904 -7.6112e-07
6.57689e-07 -7.6112e-07 2.39876e-05
0.000335807 -3.95878e-05 3.08888e-07
-3.95878e-05 -6.22531e-05 -5.95412e-07
3.08888e-07 -5.95412e-07 -0.000202583
0.000709221 -8.60827e-05 3.21343e-07
-8.60827e-05 0.000191642 2.61377e-08
3.21343e-07 2.61377e-08 4.57541e-05
0.000490142 -1.73714e-05 1.22606e-07
-1.73714e-05 1.98105e-05 1.73664e-06
1.22606e-07 1.73664e-06 -9.16039e-05
0.0008588 -7.68287e-05 -1.18804e-06
-7.68287e-05 0.000278541 3.88609e-07
-1.18804e-06 3.88609e-07 0.000137451
0.00062867 -7.14218e-05 -9.28407e-07
-7.14218e-05 0.000110741 5.51712e-08
-9.28407e-07 5.51712e-08 -4.00162e-06
0.00045784 3.34379e-05 -9.11266e-07
3.34379e-05 -2.15867e-05 3.35264e-06
-9.11266e-07 3.35264e-06 -9.51252e-05
0.000485659 -9.36128e-05 2.16374e-06
-9.36128e-05 1.74746e-05 -8.73969e-07
2.16374e-06 -8.73969e-07 -9.96246e-05
0.000537379 -2.84092e-05 -3.21128e-07
-2.84092e-05 2.58677e-05 1.02082e-07
-3.21128e-07 1.02082e-07 -4.47773e-05
0.00142361 8.78828e-06 -6.59436e-06
8.78828e-06 0.000548816 6.62449e-06
-6.59436e-06 6.62449e-06 0.000530073
0.000519056 -5.02545e-05 1.55278e-06
-5.02545e-05 2.25195e-05 -2.94429e-06
1.55278e-06 -2.94429e-06 -5.07537e-05
0.000895847 -9.90857e-06 -4.97111e-06
-9.90857e-06 0.000228406 7.47919e-07
-4.97111e-06 7.47919e-07 0.000208329
0.000756348 1.33504e-05 7.00669e-07
1.33504e-05 0.000128893 2.09635e-06
7.00669e-07 2.09635e-06 0.000133652
0.000459462 -6.31563e-06 1.99334e-06
-6.31563e-06 -3.80319e-05 -4.35502e-06
1.99334e-06 -4.35502e-06 -5.92756e-05
0.00250604 1.38158e-05 6.29106e-06
1.38158e-05 0.00121523 4.61282e-08
6.29106e-06 4.61282e-08 0.00122853
0.00251865 2.32274e-06 -2.18181e-07
2.32274e-06 0.00122294 -5.09612e-06
-2.18181e-07 -5.09612e-06 0.00123618
0.00099927 7.55444e-05 -4.23164e-07
7.55444e-05 0.000341953 2.40359e-07
-4.23164e-07 2.40359e-07 0.000246844
0.000528484 5.42602e-05 -1.42166e-06
5.42602e-05 2.09056e-05 -2.12097e-06
-1.42166e-06 -2.12097e-06 -2.70197e-05
0.000567123 -1.35604e-05 2.15693e-07
-1.35604e-05 8.04688e-05 8.44882e-07
2.15693e-07 8.44882e-07 -1.29122e-05
0.000515928 5.52943e-06 9.35688e-07
5.52943e-06 -2.53449e-05 -3.21117e-06
9.35688e-07 -3.21117e-06 -3.32751e-05
0.00049986 -1.43507e-05 5.63627e-07
-1.43507e-05 -1.09781e-06 -1.13112e-07
5.63627e-07 -1.13112e-07 -4.4473e-05
0.000556595 -5.21629e-05 -1.54216e-06
-5.21629e-05 3.5052e-05 1.55277e-06
-1.54216e-06 1.55277e-06 -1.13042e-05
0.000509008 7.36069e-06 -3.953e-07
7.36069e-06 -3.01381e-05 -2.57282e-08
-3.953e-07 -2.57282e-08 -3.81737e-05
0.00196601 1.95757e-05 6.1132e-07
1.95757e-05 0.000877521 -4.6151e-06
6.1132e-07 -4.6151e-06 0.000895429
0.0010918 2.23323e-05 -8.23088e-07
2.23323e-05 0.000331501 1.82918e-06
-8.23088e-07 1.82918e-06 0.000325945
0.00132343 2.74856e-05 -5.72936e-07
2.74856e-05 0.000479887 -1.29378e-08
-5.72936e-07 -1.29378e-08 0.000493457
0.000814472 3.27766e-05 -1.03012e-05
3.27766e-05 0.000169021 7.04324e-06
-1.03012e-05 7.04324e-06 0.000176709
-0.0092662 0.000894622 0.000377395
0.000894622 -0.00350207 -1.24902e-05
0.000377395 -1.24902e-05 -0.00566417
-0.00199959 -6.40674e-05 0.000750572
-6.40674e-05 0.0048244 -0.000186685
0.000750572 -0.000186685 0.00179072
0.00317112 0.000276138 -0.000181441
0.000276138 -0.0013815 -2.57263e-05
-0.000181441 -2.57263e-05 -0.000133801
0.00117286 4.22633e-05 2.11674e-05
4.22633e-05 -0.00109415 -3.80257e-05
2.11674e-05 -3.80257e-05 -0.000769658
0.00162727 -6.10584e-05 7.49484e-06
-6.10584e-05 -0.000223241 9.99233e-06
7.49484e-06 9.99233e-06 -0.000200862
-0.000855 5.4279e-05 -7.03574e-05
5.4279e-05 -0.00115321 -2.02845e-05
-7.03574e-05 -2.02845e-05 -0.000444439
0.00370201 -0.00029193 1.93659e-06
-0.00029193 0.000535591 4.78519e-06
1.93659e-06 4.78519e-06 0.000600054
0.011293 -1.28802e-05 0.000142674
-1.28802e-05 5.26427e-05 -5.32598e-05
0.000142674 -5.32598e-05 -0.000852464
-0.000241476 0.0026811 -6.53157e-06
0.0026811 0.000379066 -4.93211e-05
-6.53157e-06 -4.93211e-05 -0.00232777
0.00716673 0.00530224 -0.000373671
0.00530224 0.00539292 0.000199949
-0.000373671 0.000199949 0.00422968
0.00222089 -0.000566278 6.19494e-05
-0.000566278 -0.00149104 -4.14209e-05
6.19494e-05 -4.14209e-05 -0.000713601
0.014679 -0.00157117 0.000181199
-0.00157117 0.00227579 -6.81775e-05
0.000181199 -6.81775e-05 0.000678418
0.0109325 0.00503329 0.000331996
0.00503329 0.00291735 -0.000482299
0.000331996 -0.000482299 0.00103358
0.0149611 0.00329862 -0.000302314
0.00329862 0.00389016 0.000226925
-0.000302314 0.000226925 0.00262571
0.000838064 0.000136477 -1.97817e-06
0.000136477 0.000286497 3.21927e-06
-1.97817e-06 3.21927e-06 0.000132006
0.000397417 2.98816e-05 1.56987e-07
2.98816e-05 -2.47542e-05 -8.73871e-07
1.56987e-07 -8.73871e-07 -0.000122945
0.000584602 -9.39725e-05 6.69111e-08
-9.39725e-05 9.43948e-05 7.78278e-07
6.69111e-08 7.78278e-07 1.40373e-06
0.00059546 1.22816e-06 3.42817e-06
1.22816e-06 0.000107172 -9.57842e-07
3.42817e-06 -9.57842e-07 -4.52551e-06
0.000664899 6.40603e-05 1.78861e-06
6.40603e-05 0.000181132 1.22959e-06
1.78861e-06 1.22959e-06 5.53739e-05
0.000597432 1.71571e-05 6.74647e-07
1.71571e-05 0.00013007 6.21302e-06
6.74647e-07 6.21302e-06 -2.25818e-05
0.000710962 9.13898e-05 1.17255e-06
9.13898e-05 0.000175539 2.67496e-06
1.17255e-06 2.67496e-06 4.77308e-05
0.000517104 4.78072e-05 5.13095e-06
4.78072e-05 4.08067e-05 1.05754e-06
5.13095e-06 1.05754e-06 -9.15173e-05
0.000734547 -3.58774e-05 2.4353e-06
-3.58774e-05 0.000207261 -1.15056e-06
2.4353e-06 -1.15056e-06 7.80486e-05
0.000476476 -8.65942e-06 2.16842e-07
-8.65942e-06 1.57976e-05 -1.78679e-06
2.16842e-07 -1.78679e-06 -8.52194e-05
0.00150438 -0.000301832 2.6305e-05
-0.000301832 -0.000419156 -1.58056e-06
2.6305e-05 -1.58056e-06 -0.00021071
0.00113972 -0.000500267 3.76629e-05
-0.000500267 -0.000556763 -9.01371e-06
3.76629e-05 -9.01371e-06 -0.000454703
0.00069035 -0.000610937 1.2271e-05
-0.000610937 -0.000571362 3.48845e-07
1.2271e-05 3.48845e-07 -0.000712793
-5.57048e-05 -0.00054199 4.05181e-06
-0.00054199 -0.00065305 8.76594e-07
4.05181e-06 8.76594e-07 -0.00089375
0.00304237 -0.000534461 6.86063e-06
-0.000534461 0.00186214 2.90174e-05
6.86063e-06 2.90174e-05 0.00124045
0.000211844 -0.000391434 4.56869e-06
-0.000391434 -1.53988e-06 -2.28748e-06
4.56869e-06 -2.28748e-06 -0.00037544
0.00149592 -0.00019352 2.69762e-06
-0.00019352 0.000627586 -1.23135e-06
2.69762e-06 -1.23135e-06 0.000507458
0.000859085 -4.01816e-05 -2.32211e-06
-4.01816e-05 0.000297499 2.62986e-06
-2.32211e-06 2.62986e-06 0.000169251
0.00220651 -0.00046579 1.29832e-05
-0.00046579 -0.000147023 -7.53381e-06
1.29832e-05 -7.53381e-06 4.20557e-05
0.000519595 -6.35421e-05 1.539e-07
-6.35421e-05 0.000122583 6.27332e-07
1.539e-07 6.27332e-07 -7.48461e-05
-0.000190386 -0.000140477 -3.79211e-08
-0.000140477 -0.000257022 -3.60949e-06
-3.79211e-08 -3.60949e-06 -0.000469851
0.00194841 -0.000675514 1.45704e-05
-0.000675514 0.000108172 -2.13757e-06
1.45704e-05 -2.13757e-06 5.76765e-05
0.0017585 -0.000826704 -7.19279e-07
-0.000826704 3.73216e-05 3.81597e-06
-7.19279e-07 3.81597e-06 -0.000124681
0.000234427 -0.00055858 1.6558e-05
-0.00055858 -0.000225751 -1.00151e-05
1.6558e-05 -1.00151e-05 -0.000473899
0.00136403 -0.000286541 1.25195e-06
-0.000286541 0.000986069 -1.33683e-05
1.25195e-06 -1.33683e-05 0.000399736
0.00281293 -0.000772674 -6.43264e-05
-0.000772674 0.000619353 2.56868e-05
-6.43264e-05 2.56868e-05 0.00032171
0.00107461 -0.000608654 -4.27604e-05
-0.000608654 -0.000156365 1.43921e-05
-4.27604e-05 1.43921e-05 -0.00020228
0.00109699 -0.000565925 -7.34581e-05
-0.000565925 0.000572163 4.90018e-05
-7.34581e-05 4.90018e-05 0.000186414
-0.00195235 -0.000170496 -2.84943e-06
-0.000170496 -0.00136319 8.68804e-06
-2.84943e-06 8.68804e-06 -0.00156442
-0.000389513 -0.000102218 4.29824e-06
-0.000102218 -0.000364707 6.94518e-06
4.29824e-06 6.94518e-06 -0.000605191
0.000621443 -5.35184e-05 8.56918e-06
-5.35184e-05 0.000334054 -7.52491e-06
8.56918e-06 -7.52491e-06 -7.57944e-06
-0.00176984 0.000934401 -0.00031346
0.000934401 0.00619806 1.60902e-05
-0.00031346 1.60902e-05 0.0023538
0.000822624 -0.00111189 -2.79015e-06
-0.00111189 0.00188728 2.19001e-05
-2.79015e-06 2.19001e-05 0.00147076
0.0017416 0.00101144 -9.06035e-05
0.00101144 -0.00455959 -3.91026e-05
-9.06035e-05 -3.91026e-05 -0.00486534
0.000286873 0.000219646 7.41422e-06
0.000219646 -3.80809e-05 -3.27782e-06
7.41422e-06 -3.27782e-06 -0.000252741
0.00112268 0.000456886 7.76129e-06
0.000456886 0.000284026 1.86278e-05
7.76129e-06 1.86278e-05 -5.19762e-05
0.00359993 0.000796984 5.9578e-05
0.000796984 0.000938337 1.97749e-05
5.9578e-05 1.97749e-05 0.000860484
0.00142445 0.000716254 1.70985e-05
0.000716254 0.000357333 2.47697e-05
1.70985e-05 2.47697e-05 -1.76644e-05
0.0109628 -0.00211588 0.000152441
-0.00211588 0.00376939 4.41594e-05
0.000152441 4.41594e-05 0.0034756
0.00394828 0.000842036 -0.000323456
0.000842036 -0.00338011 -4.47579e-05
-0.000323456 -4.47579e-05 -0.00527155
0.00474869 0.00231504 -1.95929e-05
0.00231504 1.83063e-05 1.33712e-05
-1.95929e-05 1.33712e-05 0.000192799
0.00232126 0.000797636 4.17408e-05
0.000797636 0.000906992 -2.55786e-05
4.17408e-05 -2.55786e-05 0.000729073
0.00174394 -0.0025713 -0.000337699
-0.0025713 0.00158212 -0.00030872
-0.000337699 -0.00030872 -0.00070596
-0.000731645 -0.00232662 -0.000450732
-0.00232662 0.00424968 -0.000156457
-0.000450732 -0.000156457 -0.000159637
0.0185955 -0.00414926 0.000505975
-0.00414926 0.00459887 0.000302034
0.000505975 0.000302034 0.00378123
0.00049433 0.000205248 1.43182e-05
0.000205248 7.26089e-05 -3.8684e-06
1.43182e-05 -3.8684e-06 -0.00011438
-0.00389792 0.000358942 -0.000155646
0.000358942 0.0044248 -3.42345e-05
-0.000155646 -3.42345e-05 -7.24014e-05
0.0048954 0.000842617 -7.60907e-05
0.000842617 0.00283614 -0.00014456
-7.60907e-05 -0.00014456 -0.00182168
0.00160553 0.00067631 5.47037e-06
0.00067631 0.000230602 4.7668e-06
5.47037e-06 4.7668e-06 0.000153093
0.000487822 0.000488036 9.7751e-06
0.000488036 5.98315e-05 4.12295e-06
9.7751e-06 4.12295e-06 -0.000273337
0.000119056 0.000700757 -3.39496e-05
0.000700757 0.000155296 -5.63864e-05
-3.39496e-05 -5.63864e-05 -0.000346755
0.00353551 0.0023753 1.40692e-05
0.0023753 0.0010396 1.58916e-05
1.40692e-05 1.58916e-05 0.000752288
0.0162984 0.00287939 7.34449e-05
0.00287939 0.00440558 2.19826e-05
7.34449e-05 2.19826e-05 0.00230959
0.0062622 -0.00292593 7.31456e-05
-0.00292593 0.00164863 -6.89276e-05
7.31456e-05 -6.89276e-05 -0.0016254
0.0135227 -0.00205004 -3.02198e-06
-0.00205004 0.00188915 -6.17328e-05
-3.02198e-06 -6.17328e-05 0.00318318
0.000422728 0.000327924 -7.9547e-06
0.000327924 7.65495e-05 -1.02089e-05
-7.9547e-06 -1.02089e-05 -0.000143932
0.00225292 0.000177587 -0.000261636
0.000177587 0.00175548 -5.57877e-05
-0.000261636 -5.57877e-05 -0.00195844
0.000436928 0.000459731 -8.06764e-05
0.000459731 -0.000158179 -0.000154622
-8.06764e-05 -0.000154622 -0.00170602
-0.0010958 0.00020506 6.91094e-06
0.00020506 -0.000430118 -2.4591e-05
6.91094e-06 -2.4591e-05 -0.000650507
-0.000189974 0.000447599 -0.000120305
0.000447599 0.00113262 6.54512e-06
-0.000120305 6.54512e-06 0.0002916
0.013608 0.00353762 8.80696e-05
0.00353762 0.00461146 -2.20583e-05
8.80696e-05 -2.20583e-05 0.000758771
-0.00398028 -0.00413746 -5.12741e-06
-0.00413746 -0.00114125 0.000218199
-5.12741e-06 0.000218199 -0.00508051
0.0107943 0.000551361 4.7017e-05
0.000551361 -0.00143294 -0.000287695
4.7017e-05 -0.000287695 0.00114904
0.0009074 0.000175975 -3.05481e-06
0.000175975 0.000315271 1.37478e-05
-3.05481e-06 1.37478e-05 0.000177172
0.000870438 0.000196925 -9.99037e-06
0.000196925 0.000391177 -3.61041e-06
-9.99037e-06 -3.61041e-06 0.000225517
-0.000131383 0.000105596 3.29551e-06
0.000105596 -1.17923e-05 -2.96274e-06
3.29551e-06 -2.96274e-06 -0.000278725
0.000717581 8.48993e-05 -1.72148e-06
8.48993e-05 0.000179752 -2.11394e-06
-1.72148e-06 -2.11394e-06 2.55953e-05
0.00103317 -3.83968e-05 -8.8349e-07
-3.83968e-05 0.000377525 3.16634e-06
-8.8349e-07 3.16634e-06 0.000212784
0.000528689 6.93478e-05 2.73026e-06
6.93478e-05 6.4514e-05 1.7446e-06
2.73026e-06 1.7446e-06 -8.054e-05
-0.00101535 1.06494e-05 2.6597e-06
1.06494e-05 -0.000720746 6.73803e-07
2.6597e-06 6.73803e-07 -0.000902638
0.000768815 -2.51083e-05 1.20263e-06
-2.51083e-05 0.0002115 1.84382e-07
1.20263e-06 1.84382e-07 5.13784e-05
0.000647744 1.04873e-05 -1.64235e-07
1.04873e-05 0.0001873 -2.34618e-06
-1.64235e-07 -2.34618e-06 2.67047e-05
-0.000278682 4.15482e-06 1.03161e-06
4.15482e-06 -4.31579e-05 2.56073e-06
1.03161e-06 2.56073e-06 -0.0003511
-0.000569808 4.93869e-05 -4.11392e-06
4.93869e-05 -1.44064e-05 7.6824e-06
-4.11392e-06 7.6824e-06 -0.000458435
-6.57111e-05 4.61529e-06 -2.6861e-06
4.61529e-06 0.000120073 -2.75286e-06
-2.6861e-06 -2.75286e-06 -0.000217303
0.000760127 1.09842e-05 -1.44612e-06
1.09842e-05 0.000228106 -6.12234e-06
-1.44612e-06 -6.12234e-06 8.2599e-05
0.000744014 -0.000132355 1.3464e-06
-0.000132355 0.000193013 1.2741e-06
1.3464e-06 1.2741e-06 3.27561e-05
0.000559781 -8.75934e-06 5.71915e-07
-8.75934e-06 6.4539e-05 1.12352e-06
5.71915e-07 1.12352e-06 -6.46009e-05
0.000519895 -8.9355e-05 7.58675e-07
-8.9355e-05 5.98482e-05 9.24015e-06
7.58675e-07 9.24015e-06 -4.39198e-05
0.000316801 -3.54606e-05 2.1215e-06
-3.54606e-05 -4.24717e-05 3.11616e-06
2.1215e-06 3.11616e-06 -0.000183137
0.000635278 -3.41921e-05 3.00873e-07
-3.41921e-05 0.00014096 3.15418e-07
3.00873e-07 3.15418e-07 1.0793e-06
0.000515332 -4.41342e-05 1.34167e-07
-4.41342e-05 7.92931e-05 -1.72266e-06
1.34167e-07 -1.72266e-06 -4.52507e-05
0.000546458 -4.79337e-05 -5.94924e-06
-4.79337e-05 7.92812e-05 -4.71655e-06
-5.94924e-06 -4.71655e-06 -4.50743e-05
0.000336763 -5.53117e-05 6.03607e-06
-5.53117e-05 0.000106781 -6.5586e-06
6.03607e-06 -6.5586e-06 -5.08356e-05
0.000136051 -0.000137651 -3.86431e-08
-0.000137651 -0.000349506 2.28417e-06
-3.86431e-08 2.28417e-06 -0.000444732
0.000780842 -0.00012726 -8.14279e-06
-0.00012726 0.000144058 -7.49277e-07
-8.14279e-06 -7.49277e-07 3.53782e-05
0.00033094 -0.000145549 6.24983e-06
-0.000145549 -0.000129376 5.72475e-06
6.24983e-06 5.72475e-06 -0.000275834
0.00200972 -0.000444231 1.79797e-06
-0.000444231 0.000785598 1.588e-05
1.79797e-06 1.588e-05 0.000499231
0.00166076 -0.000197474 2.28676e-06
-0.000197474 0.000724902 -4.88007e-06
2.28676e-06 -4.88007e-06 0.000544614
-0.00019137 -6.28846e-05 -9.05854e-06
-6.28846e-05 -0.000433597 -4.53854e-06
-9.05854e-06 -4.53854e-06 -0.000558308
0.000547181 -6.04627e-05 7.0914e-08
-6.04627e-05 5.34192e-05 -1.21993e-07
7.0914e-08 -1.21993e-07 -8.83566e-05
1.92125e-05 -4.25166e-05 -8.34289e-07
-4.25166e-05 -0.000250892 -1.68505e-06
-8.34289e-07 -1.68505e-06 -0.000402038
0.000841121 -8.34366e-05 -9.66607e-07
-8.34366e-05 0.000233206 8.93723e-07
-9.66607e-07 8.93723e-07 8.74534e-05
0.000760716 -0.000102358 -7.94397e-07
-0.000102358 0.000210273 6.55145e-07
-7.94397e-07 6.55145e-07 5.69201e-05
0.000585027 -5.27701e-05 -3.71951e-07
-5.27701e-05 6.59727e-05 1.479e-06
-3.71951e-07 1.479e-06 -4.69414e-05
0.00120123 -0.000143774 -5.60713e-07
-0.000143774 0.000512462 -1.15159e-06
-5.60713e-07 -1.15159e-06 0.000345817
0.000658871 -8.81095e-05 -5.05485e-07
-8.81095e-05 0.000124468 -4.65676e-08
-5.05485e-07 -4.65676e-08 8.27062e-06
0.000515425 1.56964e-05 -2.32114e-06
1.56964e-05 1.13191e-05 2.83428e-06
-2.32114e-06 2.83428e-06 -6.33812e-05
0.000724945 -0.00011869 1.85354e-06
-0.00011869 0.000171263 -2.01858e-06
1.85354e-06 -2.01858e-06 5.22166e-05
0.000599794 -4.37203e-05 -2.22186e-07
-4.37203e-05 6.13147e-05 1.58367e-07
-2.22186e-07 1.58367e-07 -1.11047e-05
0.0014394 1.41312e-05 -1.11684e-05
1.41312e-05 0.000554636 6.86424e-06
-1.11684e-05 6.86424e-06 0.000534543
0.000556158 -5.86619e-05 2.47523e-06
-5.86619e-05 4.35614e-05 -3.17568e-06
2.47523e-06 -3.17568e-06 -3.13523e-05
0.000898989 -3.80101e-06 -6.08005e-06
-3.80101e-06 0.000225123 6.8217e-07
-6.08005e-06 6.8217e-07 0.000203871
0.000782223 2.25312e-05 7.24372e-07
2.25312e-05 0.000143164 2.55605e-06
7.24372e-07 2.55605e-06 0.000146037
0.000462812 -1.78308e-05 1.7466e-06
-1.78308e-05 -4.05396e-05 -4.58645e-06
1.7466e-06 -4.58645e-06 -6.26371e-05
0.00163407 2.28713e-05 8.58074e-06
2.28713e-05 0.00067457 -1.48704e-06
8.58074e-06 -1.48704e-06 0.000683466
0.00248593 1.46949e-05 7.91349e-06
1.46949e-05 0.00120237 -5.11009e-06
7.91349e-06 -5.11009e-06 0.00121569
0.000585222 3.88475e-05 2.06871e-06
3.88475e-05 6.99476e-05 -9.57028e-07
2.06871e-06 -9.57028e-07 -2.67477e-05
0.000603636 5.31678e-05 -7.77981e-07
5.31678e-05 6.2643e-05 -1.80484e-06
-7.77981e-07 -1.80484e-06 1.2164e-05
0.000622828 -6.51975e-07 1.1692e-06
-6.51975e-07 0.000105482 5.80328e-07
1.1692e-06 5.80328e-07 1.28677e-05
0.000502029 1.45064e-06 1.4089e-06
1.45064e-06 -3.28237e-05 -3.51742e-06
1.4089e-06 -3.51742e-06 -4.15227e-05
0.000519324 4.43833e-05 1.20673e-07
4.43833e-05 1.14679e-05 -9.86356e-08
1.20673e-07 -9.86356e-08 -3.41878e-05
0.000559706 -0.000106527 -3.48058e-06
-0.000106527 6.89086e-05 6.62532e-07
-3.48058e-06 6.62532e-07 -1.91098e-05
0.00198552 6.12758e-06 -4.44351e-06
6.12758e-06 0.00088788 -4.70621e-06
-4.44351e-06 -4.70621e-06 0.000906374
0.000496568 4.24971e-06 -2.39018e-07
4.24971e-06 -3.6823e-05 1.38167e-08
-2.39018e-07 1.38167e-08 -4.47461e-05
0.000524379 -1.7513e-05 -2.01521e-06
-1.7513e-05 1.20823e-05 1.71418e-06
-2.01521e-06 1.71418e-06 -3.01875e-05
0.000490375 6.39035e-06 -1.31814e-06
6.39035e-06 -4.204e-05 3.12081e-06
-1.31814e-06 3.12081e-06 -5.0002e-05
0.00199505 2.10595e-05 -4.87922e-06
2.10595e-05 0.000895703 -8.34582e-08
-4.87922e-06 -8.34582e-08 0.000913429
0.00195088 3.4147e-05 -6.91406e-06
3.4147e-05 0.000870684 4.37891e-06
-6.91406e-06 4.37891e-06 0.000887662
-0.00644751 -0.00127215 -0.000136011
-0.00127215 0.00423707 4.60569e-05
-0.000136011 4.60569e-05 0.000612016
0.000993792 0.00101304 -0.000196821
0.00101304 0.000144445 5.67577e-05
-0.000196821 5.67577e-05 -0.00132984
0.00294766 -0.000830995 -0.000516848
-0.000830995 0.00119788 0.000234167
-0.000516848 0.000234167 -0.00311464
-0.00200153 0.000239373 0.000855562
0.000239373 0.00480035 -0.000301494
0.000855562 -0.000301494 0.00148092
0.00116224 0.000432775 -1.78871e-05
0.000432775 -0.00136432 -2.64808e-05
-1.78871e-05 -2.64808e-05 -0.000744081
0.00244963 -0.000356462 8.73101e-05
-0.000356462 -0.000276336 4.82185e-06
8.73101e-05 4.82185e-06 -0.000213176
0.000632966 -0.000360574 0.000202951
-0.000360574 -0.0039513 -6.68843e-05
0.000202951 -6.68843e-05 -0.00587111
0.017043 0.00245418 -0.000528072
0.00245418 0.00775292 4.6323e-05
-0.000528072 4.6323e-05 0.0056453
-0.000533012 0.00609539 -0.00175535
0.00609539 0.00102111 0.00122271
-0.00175535 0.00122271 -8.51912e-05
0.00398474 -0.000440215 1.44728e-05
-0.000440215 -0.000374431 9.18706e-06
1.44728e-05 9.18706e-06 7.72882e-05
0.00866398 -0.00151552 0.000120234
-0.00151552 -0.000639593 -0.000107397
0.000120234 -0.000107397 -0.00299017
0.0184196 0.00432464 -0.000239586
0.00432464 0.00549009 -9.85804e-05
-0.000239586 -9.85804e-05 0.00378233
0.0110267 0.00342793 -6.46543e-05
0.00342793 0.00120598 0.000327522
-6.46543e-05 0.000327522 -0.000287371
0.00174177 -0.0013072 -9.82369e-05
-0.0013072 -0.00247996 1.462e-05
-9.82369e-05 1.462e-05 -0.00175087
0.00453751 -0.0025167 0.000313697
-0.0025167 -0.000214575 -0.000198333
0.000313697 -0.000198333 -0.00409325
0.00157929 0.00276439 6.714e-05
0.00276439 -0.000911135 -0.000642797
6.714e-05 -0.000642797 -0.00344502
0.00759033 0.00116057 -0.000205784
0.00116057 -0.00268151 1.89886e-06
-0.000205784 1.89886e-06 -0.00150051
0.00185828 -7.20931e-05 2.21226e-06
-7.20931e-05 0.000966864 1.1774e-05
2.21226e-06 1.1774e-05 0.000744588
0.000555397 0.000113889 -1.79475e-06
0.000113889 9.74192e-05 -2.20967e-06
-1.79475e-06 -2.20967e-06 -3.83826e-05
0.00054296 9.09952e-05 5.33999e-07
9.09952e-05 5.6588e-05 -1.87198e-06
5.33999e-07 -1.87198e-06 -3.6596e-05
0.000456062 3.69104e-05 5.33859e-06
3.69104e-05 5.20791e-05 -2.28004e-07
5.33859e-06 -2.28004e-07 -6.72018e-05
0.000459395 7.9565e-05 3.45915e-06
7.9565e-05 2.67305e-05 2.93445e-06
3.45915e-06 2.93445e-06 -0.000144419
0.000559227 4.54425e-05 -4.76805e-08
4.54425e-05 0.000100908 2.06924e-06
-4.76805e-08 2.06924e-06 -4.16193e-05
0.000454228 3.98448e-05 1.45715e-07
3.98448e-05 2.00695e-05 -1.92413e-06
1.45715e-07 -1.92413e-06 -0.000106405
0.000898884 0.000160959 2.809e-06
0.000160959 0.000303015 4.1783e-06
2.809e-06 4.1783e-06 0.000142093
0.000849031 0.000116174 5.42062e-08
0.000116174 0.000277877 2.73767e-07
5.42062e-08 2.73767e-07 0.000122359
0.000392609 -1.37682e-05 -4.73831e-06
-1.37682e-05 -1.29009e-05 -4.33919e-06
-4.73831e-06 -4.33919e-06 -0.000136865
0.000528799 -0.000366426 6.80334e-05
-0.000366426 -0.00102102 -2.85041e-05
6.80334e-05 -2.85041e-05 -0.000805645
0.000484249 -0.000574476 3.1852e-05
-0.000574476 -0.000707037 -1.09971e-05
3.1852e-05 -1.09971e-05 -0.00071564
0.0016183 -0.000820334 5.28218e-06
-0.000820334 -8.46377e-05 8.28909e-06
5.28218e-06 8.28909e-06 -0.000200012
-0.000669875 -0.000543714 8.15187e-06
-0.000543714 -0.000709417 -1.69541e-05
8.15187e-06 -1.69541e-05 -0.00102994
0.00296438 -0.000359105 -1.3563e-05
-0.000359105 0.00176597 5.02118e-05
-1.3563e-05 5.02118e-05 0.00130809
0.000822389 -0.000146644 -2.73445e-06
-0.000146644 0.00036434 3.81851e-06
-2.73445e-06 3.81851e-06 0.00013865
0.000363231 0.000109106 -2.44418e-06
0.000109106 2.18109e-05 -1.18677e-05
-2.44418e-06 -1.18677e-05 -0.000175373
0.000572109 -9.41148e-05 -1.76967e-06
-9.41148e-05 0.000168684 7.74185e-06
-1.76967e-06 7.74185e-06 -6.41222e-05
0.00154125 -0.00062672 7.34354e-07
-0.00062672 -0.000178114 -4.77777e-06
7.34354e-07 -4.77777e-06 -0.000268606
0.000631774 -4.42974e-05 6.99673e-07
-4.42974e-05 0.000205679 4.11202e-06
6.99673e-07 4.11202e-06 -1.58463e-05
0.00191327 -0.000233567 6.89499e-07
-0.000233567 0.0011021 -1.32868e-06
6.89499e-07 -1.32868e-06 0.000743942
0.00127108 -0.000634872 1.16771e-06
-0.000634872 -6.34869e-05 4.75089e-06
1.16771e-06 4.75089e-06 -0.000103621
0.000792589 -0.000582528 -1.99507e-05
-0.000582528 0.000329042 6.78783e-06
-1.99507e-05 6.78783e-06 -3.11537e-05
0.00318068 -0.00120416 2.83143e-05
-0.00120416 0.00064231 -1.96487e-05
2.83143e-05 -1.96487e-05 0.000614466
-0.00119545 -0.000392781 -1.02065e-05
-0.000392781 -0.000987003 2.29739e-05
-1.02065e-05 2.29739e-05 -0.0010384
-0.000641148 -8.12841e-05 7.53431e-06
-8.12841e-05 -0.000234894 4.96052e-06
7.53431e-06 4.96052e-06 -0.00069448
0.000629953 1.29051e-05 -2.37227e-06
1.29051e-05 0.000163369 -3.94923e-07
-2.37227e-06 -3.94923e-07 -3.00192e-05
0.00104933 1.84246e-05 8.27699e-06
1.84246e-05 0.000564916 -7.30386e-06
8.27699e-06 -7.30386e-06 0.00029137
0.00137236 5.74935e-05 -2.73747e-05
5.74935e-05 0.00170453 -1.24029e-05
-2.73747e-05 -1.24029e-05 -0.00166562
-0.00545228 0.000330548 -0.000269246
0.000330548 0.00548669 -1.38816e-05
-0.000269246 -1.38816e-05 0.0011878
-0.0123863 -0.00176534 -0.000540035
-0.00176534 -0.00570548 -1.72681e-05
-0.000540035 -1.72681e-05 -0.00586457
-0.000738551 0.0001385 6.90335e-06
0.0001385 -0.000625851 -2.42788e-06
6.90335e-06 -2.42788e-06 -0.000827083
-0.000371553 0.000394894 -2.48079e-06
0.000394894 -0.000352516 1.06177e-05
-2.48079e-06 1.06177e-05 -0.000693477
0.00130491 0.000763391 2.85376e-05
0.000763391 6.95422e-05 2.02403e-05
2.85376e-05 2.02403e-05 -3.15758e-05
-0.00537124 0.00142039 3.3126e-05
0.00142039 0.00458905 4.52901e-05
3.3126e-05 4.52901e-05 0.000605207
0.00492447 0.0024361 -0.000203637
0.0024361 0.000152813 -0.000140317
-0.000203637 -0.000140317 -0.00355915
0.00199319 0.00168196 0.000304933
0.00168196 0.000417197 9.66391e-05
0.000304933 9.66391e-05 0.000237133
-0.000323712 0.000667661 2.02733e-05
0.000667661 -0.000277893 -3.67057e-05
2.02733e-05 -3.67057e-05 -0.000458861
0.0206624 -0.00303534 -0.000146269
-0.00303534 0.00652314 -0.000271917
-0.000146269 -0.000271917 0.00433048
0.00538117 0.0010444 0.000379211
0.0010444 0.00275865 0.000140866
0.000379211 0.000140866 -0.00224369
0.0131069 -0.00178337 0.000127078
-0.00178337 0.00204802 3.27881e-05
0.000127078 3.27881e-05 0.00342953
0.00102248 0.000386257 4.59177e-06
0.000386257 0.000486072 -1.70229e-06
4.59177e-06 -1.70229e-06 0.000254757
0.00376737 0.000361608 2.3538e-06
0.000361608 0.00257383 1.41625e-05
2.3538e-06 1.41625e-05 -0.000210998
0.0011722 0.000444146 4.74033e-05
0.000444146 2.96977e-05 7.18439e-06
4.74033e-05 7.18439e-06 -0.00155997
-0.000338151 0.000383933 -2.73874e-06
0.000383933 -0.00014898 -4.12002e-06
-2.73874e-06 -4.12002e-06 -0.000423254
0.00068539 0.000920698 -9.60786e-05
0.000920698 0.000995679 -4.33515e-05
-9.60786e-05 -4.33515e-05 -0.000192464
0.00142052 0.00332047 0.000149321
0.00332047 0.000594718 8.86149e-05
0.000149321 8.86149e-05 -0.00340926
0.00844002 0.000169128 -1.20238e-05
0.000169128 -0.00328713 -0.000189973
-1.20238e-05 -0.000189973 -0.000414214
0.00417125 -0.00226965 -5.87426e-05
-0.00226965 0.00237925 -0.000129967
-5.87426e-05 -0.000129967 -0.00140045
0.00101199 0.000304338 -2.64184e-06
0.000304338 0.000761158 -1.84644e-05
-2.64184e-06 -1.84644e-05 0.00048504
-0.00198105 7.97655e-05 6.98923e-06
7.97655e-05 -0.000136413 7.32713e-06
6.98923e-06 7.32713e-06 -0.000215657
0.00397035 -3.16074e-05 7.51316e-05
-3.16074e-05 -0.00023408 -0.000144541
7.51316e-05 -0.000144541 -0.00125044
0.00761951 0.00124225 0.000211205
0.00124225 -0.0024162 -1.73589e-05
0.000211205 -1.73589e-05 -0.00137714
-0.00195741 0.000108837 1.90339e-05
0.000108837 -9.72763e-05 -3.35873e-05
1.90339e-05 -3.35873e-05 -0.000821655
0.0124884 0.00266406 0.00022868
0.00266406 0.00569383 5.66881e-05
0.00022868 5.66881e-05 0.000961498
-0.00270313 -0.00043161 7.82547e-05
-0.00043161 0.00154967 0.000348711
7.82547e-05 0.000348711 -0.00147734
0.00258709 0.000362111 2.12314e-05
0.000362111 0.00144776 1.33673e-05
2.12314e-05 1.33673e-05 0.00124309
0.000586865 0.000193649 -5.24937e-06
0.000193649 0.000435405 -6.81033e-07
-5.24937e-06 -6.81033e-07 0.000134639
-2.93002e-05 9.68312e-05 1.51352e-06
9.68312e-05 0.000297517 2.01559e-06
1.51352e-06 2.01559e-06 -8.28567e-05
0.000680381 0.000154072 1.15102e-06
0.000154072 0.000173624 9.96898e-07
1.15102e-06 9.96898e-07 5.85498e-06
0.000387069 4.80178e-05 2.08269e-06
4.80178e-05 1.96703e-05 1.50493e-06
2.08269e-06 1.50493e-06 -0.000134684
0.000618949 -2.20383e-05 8.85497e-06
-2.20383e-05 0.000499488 7.09371e-07
8.85497e-06 7.09371e-07 0.000180241
0.000473817 2.8152e-05 3.03521e-07
2.8152e-05 4.60627e-05 -6.94933e-07
3.03521e-07 -6.94933e-07 -9.03488e-05
0.000693543 -2.2915e-05 -2.42966e-06
-2.2915e-05 0.000551345 -2.50398e-06
-2.42966e-06 -2.50398e-06 0.0002285
0.000346525 4.7054e-05 7.99269e-07
4.7054e-05 0.000499419 -1.58868e-06
7.99269e-07 -1.58868e-06 7.62216e-05
-0.00020384 2.04216e-05 -1.08455e-05
2.04216e-05 0.000115942 8.44648e-08
-1.08455e-05 8.44648e-08 -0.000230122
0.000219294 -2.10061e-05 -3.52983e-07
-2.10061e-05 0.000208074 -5.67083e-06
-3.52983e-07 -5.67083e-06 -7.13035e-05
0.000294811 -6.30432e-05 1.14101e-06
-6.30432e-05 -7.66038e-05 7.95051e-06
1.14101e-06 7.95051e-06 -0.000201986
0.000811077 -4.52774e-05 -9.9804e-07
-4.52774e-05 0.000245178 1.33954e-06
-9.9804e-07 1.33954e-06 0.000105292
0.00112806 -4.47716e-05 -1.04587e-05
-4.47716e-05 0.000451802 8.32487e-06
-1.04587e-05 8.32487e-06 0.000325267
0.000753968 -7.31945e-05 2.81794e-06
-7.31945e-05 0.000333109 -4.0196e-07
2.81794e-06 -4.0196e-07 0.000186757
0.000620481 -4.67478e-05 -8.91089e-07
-4.67478e-05 0.00012219 -5.87653e-07
-8.91089e-07 -5.87653e-07 -6.26583e-07
0.000294822 -0.000133482 3.85174e-07
-0.000133482 -3.84884e-05 1.17051e-06
3.85174e-07 1.17051e-06 -0.000179799
8.7008e-05 -0.000123527 -9.16147e-06
-0.000123527 -0.000291893 -1.71544e-06
-9.16147e-06 -1.71544e-06 -0.000360705
-0.000802933 -0.000246318 8.70957e-06
-0.000246318 -0.000780402 1.22733e-05
8.70957e-06 1.22733e-05 -0.00103523
0.000495198 -0.000167473 4.61317e-06
-0.000167473 -1.02904e-05 -5.26872e-07
4.61317e-06 -5.26872e-07 -0.000126161
0.0012312 -0.000253379 -2.26392e-06
-0.000253379 0.000405834 8.45247e-06
-2.26392e-06 8.45247e-06 0.000231076
0.0020323 -0.000483887 -8.95664e-06
-0.000483887 0.000818449 1.0973e-05
-8.95664e-06 1.0973e-05 0.000501332
0.00151599 -0.000421929 -5.90034e-06
-0.000421929 0.000382347 7.52727e-07
-5.90034e-06 7.52727e-07 7.07802e-05
0.00113658 -0.000282206 -1.48586e-06
-0.000282206 0.000381063 4.22902e-06
-1.48586e-06 4.22902e-06 0.000148832
0.000230157 -0.000236508 1.02784e-05
-0.000236508 -0.000288904 -3.68539e-06
1.02784e-05 -3.68539e-06 -0.000526245
0.00113114 -0.000136841 1.81786e-06
-0.000136841 0.000430071 -2.68069e-06
1.81786e-06 -2.68069e-06 0.000229045
0.00132779 -0.000200481 -6.25864e-06
-0.000200481 0.000554653 -4.46968e-07
-6.25864e-06 -4.46968e-07 0.000360135
9.2693e-05 -0.000103522 7.28414e-06
-0.000103522 -0.000220035 -1.42138e-05
7.28414e-06 -1.42138e-05 -0.000339548
0.00106087 -8.33435e-05 2.0556e-08
-8.33435e-05 0.000342862 1.45647e-06
2.0556e-08 1.45647e-06 0.000201458
0.000273274 -6.81871e-05 6.40926e-07
-6.81871e-05 -9.47289e-05 -6.33435e-07
6.40926e-07 -6.33435e-07 -0.000248041
0.000641666 -4.61249e-05 3.18388e-07
-4.61249e-05 9.05059e-05 4.35218e-07
3.18388e-07 4.35218e-07 -2.87761e-05
0.00109719 -0.000161669 -5.99384e-07
-0.000161669 0.00043117 3.77301e-07
-5.99384e-07 3.77301e-07 0.000264241
0.000655813 -7.53182e-05 -2.17875e-07
-7.53182e-05 0.000121132 -5.66929e-08
-2.17875e-07 -5.66929e-08 -2.14535e-06
0.000499923 1.85289e-05 1.03802e-06
1.85289e-05 1.05431e-05 3.35987e-06
1.03802e-06 3.35987e-06 -7.48179e-05
0.000769012 -0.000111992 4.88843e-07
-0.000111992 0.000203921 -2.29536e-06
4.88843e-07 -2.29536e-06 7.81724e-05
0.000525392 1.00548e-05 -1.82494e-06
1.00548e-05 2.21759e-05 -1.63421e-07
-1.82494e-06 -1.63421e-07 -5.61318e-05
0.0013893 2.31488e-05 -1.33231e-05
2.31488e-05 0.000524474 4.65479e-06
-1.33231e-05 4.65479e-06 0.000503376
0.000599036 -5.38427e-05 2.88542e-06
-5.38427e-05 6.36772e-05 -3.44259e-06
2.88542e-06 -3.44259e-06 -1.08123e-05
0.000904625 4.52491e-06 -6.80808e-06
4.52491e-06 0.000224397 6.24649e-07
-6.80808e-06 6.24649e-07 0.000202031
0.000826456 3.24238e-05 -3.9507e-08
3.24238e-05 0.000169517 2.78751e-06
-3.9507e-08 2.78751e-06 0.000170411
0.000472449 -9.4101e-06 1.79252e-06
-9.4101e-06 -4.06649e-05 -5.15393e-06
1.79252e-06 -5.15393e-06 -6.40997e-05
0.00168319 3.50544e-05 1.15996e-05
3.50544e-05 0.000703551 -1.30846e-06
1.15996e-05 -1.30846e-06 0.000711046
0.00250509 2.98087e-05 1.20006e-05
2.98087e-05 0.00121318 -5.31049e-06
1.20006e-05 -5.31049e-06 0.00122588
0.000331609 1.30016e-05 1.17309e-06
1.30016e-05 -7.42243e-05 -3.35362e-07
1.17309e-06 -3.35362e-07 -0.000194081
0.000221586 1.60491e-05 3.28666e-07
1.60491e-05 -0.000175756 -3.29611e-06
3.28666e-07 -3.29611e-06 -0.000234459
0.000651868 4.23635e-05 -9.37346e-09
4.23635e-05 0.000120098 1.06721e-07
-9.37346e-09 1.06721e-07 1.61001e-05
0.000500569 -2.00248e-07 1.25838e-06
-2.00248e-07 -3.46379e-05 -3.65943e-06
1.25838e-06 -3.65943e-06 -4.49458e-05
0.000361916 3.88511e-06 1.51186e-06
3.88511e-06 -9.06984e-05 -5.37054e-10
1.51186e-06 -5.37054e-10 -0.000139722
0.000327244 -9.30954e-05 -1.97925e-06
-9.30954e-05 -7.70388e-05 -1.63808e-07
-1.97925e-06 -1.63808e-07 -0.000171167
0.00205357 -7.6879e-06 -9.13358e-06
-7.6879e-06 0.000929577 -4.7484e-06
-9.13358e-06 -4.7484e-06 0.000947762
0.000496972 9.36235e-07 -3.6328e-08
9.36235e-07 -3.64726e-05 -5.47407e-08
-3.6328e-08 -5.47407e-08 -4.49883e-05
0.000477066 -1.78588e-05 -2.47486e-06
-1.78588e-05 -1.81903e-05 1.9462e-06
-2.47486e-06 1.9462e-06 -6.14308e-05
0.00200624 7.52348e-06 -4.42368e-06
7.52348e-06 0.000901024 1.22164e-08
-4.42368e-06 1.22164e-08 0.000919335
0.000483481 3.49127e-06 -1.21828e-06
3.49127e-06 -4.4408e-05 3.16087e-06
-1.21828e-06 3.16087e-06 -5.23569e-05
0.00197115 2.2264e-05 -3.61129e-07
2.2264e-05 0.000880894 4.58006e-06
-3.61129e-07 4.58006e-06 0.000898643
3.56543e-05 -0.000531372 -0.000193686
-0.000531372 -0.000186942 6.12143e-05
-0.000193686 6.12143e-05 -0.00272466
0.00137379 0.000376555 -7.6013e-05
0.000376555 0.00607065 7.52969e-06
-7.6013e-05 7.52969e-06 0.002972
0.00147656 -0.000220939 -0.000595895
-0.000220939 0.00322185 9.75715e-05
-0.000595895 9.75715e-05 0.00161276
0.000697376 0.000112057 3.51627e-06
0.000112057 0.000147655 3.37967e-06
3.51627e-06 3.37967e-06 1.04995e-06
0.00425772 -0.000640669 -4.20701e-05
-0.000640669 0.00291432 0.000182763
-4.20701e-05 0.000182763 0.00110654
0.00390186 -0.00100151 -0.00022265
-0.00100151 0.00156607 1.78101e-05
-0.00022265 1.78101e-05 -0.00267458
0.0072623 0.00202242 0.000323762
0.00202242 0.00613408 -0.000263498
0.000323762 -0.000263498 0.00318785
0.0063746 -0.000701608 8.35991e-05
-0.000701608 0.000869859 -2.06437e-05
8.35991e-05 -2.06437e-05 0.00091231
0.0123372 -0.00160584 0.000215342
-0.00160584 0.00133196 -9.17464e-05
0.000215342 -9.17464e-05 -0.000194171
0.0034849 0.00376006 -0.00043862
0.00376006 -0.00164428 0.000347458
-0.00043862 0.000347458 -0.00325326
0.0112848 0.00345818 4.45596e-05
0.00345818 0.00298609 0.000164021
4.45596e-05 0.000164021 0.0010216
0.00643222 -0.00160914 -0.000121688
-0.00160914 0.000205825 -7.15205e-06
-0.000121688 -7.15205e-06 0.000336434
0.0164295 -0.00266844 4.48976e-05
-0.00266844 0.00462206 -2.66395e-05
4.48976e-05 -2.66395e-05 0.00229573
0.00785385 0.00227641 0.000146314
0.00227641 0.00162049 -0.000269946
0.000146314 -0.000269946 -0.00106733
0.00987876 0.00116713 1.46808e-05
0.00116713 -0.00100261 2.84144e-05
1.46808e-05 2.84144e-05 -0.000315874
0.00308393 -0.00202251 -2.73377e-05
-0.00202251 -8.832e-05 3.80858e-05
-2.73377e-05 3.80858e-05 -0.000396813
0.0115508 -0.00322691 0.000141861
-0.00322691 0.00488031 -9.14329e-05
0.000141861 -9.14329e-05 0.000699258
0.00747665 -8.49858e-05 0.000123448
-8.49858e-05 0.00307858 -0.000364938
0.000123448 -0.000364938 0.00106062
0.0105834 0.000675245 -9.68747e-05
0.000675245 -0.00136489 0.000199457
-9.68747e-05 0.000199457 0.000999708
0.000709707 -2.08801e-06 2.98139e-06
-2.08801e-06 0.00023427 5.80316e-06
2.98139e-06 5.80316e-06 3.41121e-05
0.000810589 -0.000117366 -2.33159e-07
-0.000117366 0.000312764 3.46049e-07
-2.33159e-07 3.46049e-07 0.00010124
0.000696319 0.000131781 -5.82863e-08
0.000131781 0.00018692 -4.3533e-06
-5.82863e-08 -4.3533e-06 4.87377e-05
0.000630947 0.000101645 6.43935e-07
0.000101645 9.49202e-05 6.10448e-06
6.43935e-07 6.10448e-06 -4.46006e-05
0.000758899 0.00014435 1.66769e-07
0.00014435 0.000227974 5.51572e-07
1.66769e-07 5.51572e-07 5.12719e-05
0.000958289 7.83396e-05 -5.14898e-06
7.83396e-05 0.000351612 -2.85801e-06
-5.14898e-06 -2.85801e-06 0.000208425
0.00101932 0.000156737 -1.25189e-06
0.000156737 0.000377989 -1.13657e-08
-1.25189e-06 -1.13657e-08 0.000215899
0.00107271 0.000172874 6.60995e-07
0.000172874 0.000432916 1.988e-06
6.60995e-07 1.988e-06 0.000266045
-0.000265348 -0.000401403 8.53429e-05
-0.000401403 -0.0012124 -4.72387e-05
8.53429e-05 -4.72387e-05 -0.00111105
0.00214234 -0.000733457 9.11828e-06
-0.000733457 0.00037392 -1.64018e-05
9.11828e-06 -1.64018e-05 0.000333129
0.00101268 -0.000221866 -8.63131e-08
-0.000221866 0.000451099 -1.88424e-05
-8.63131e-08 -1.88424e-05 0.000198779
0.00145524 -0.000639491 2.10757e-05
-0.000639491 0.000673232 -2.68215e-05
2.10757e-05 -2.68215e-05 0.000327454
0.00243051 -0.000380915 -1.47641e-05
-0.000380915 0.00136169 1.28314e-05
-1.47641e-05 1.28314e-05 0.00101462
0.00134203 -0.000122828 -3.27447e-07
-0.000122828 0.000624714 -1.75527e-05
-3.27447e-07 -1.75527e-05 0.000397284
0.000188414 -5.39165e-05 1.60643e-06
-5.39165e-05 -0.000102877 5.03103e-06
1.60643e-06 5.03103e-06 -0.000292928
4.01191e-05 -0.00086818 -6.93103e-07
-0.00086818 -0.000973399 -2.56971e-06
-6.93103e-07 -2.56971e-06 -0.000917829
0.00127821 4.71704e-05 -7.54468e-07
4.71704e-05 0.000704508 1.42917e-07
-7.54468e-07 1.42917e-07 0.000421253
0.000759263 -0.000219233 7.05873e-06
-0.000219233 0.000492187 1.57952e-06
7.05873e-06 1.57952e-06 9.14063e-05
0.000713706 -0.000406618 8.30466e-06
-0.000406618 7.70218e-05 4.57736e-06
8.30466e-06 4.57736e-06 5.04046e-05
0.00130865 0.000124217 -5.8761e-07
0.000124217 0.000560712 -7.86526e-07
-5.8761e-07 -7.86526e-07 0.000404114
0.000952693 -0.000816435 -1.19315e-05
-0.000816435 -3.36751e-05 -3.82655e-05
-1.19315e-05 -3.82655e-05 -0.000102407
-0.000883392 -0.000372945 -1.48186e-05
-0.000372945 -0.000546909 2.99226e-05
-1.48186e-05 2.99226e-05 -0.000754929
-0.000289409 8.31239e-05 1.9139e-05
8.31239e-05 0.000161062 -1.56221e-05
1.9139e-05 -1.56221e-05 -0.000381778
0.00128175 0.000229124 -6.35788e-08
0.000229124 0.000640901 -3.55861e-06
-6.35788e-08 -3.55861e-06 0.000443049
-0.00082508 5.59017e-05 5.75078e-05
5.59017e-05 0.00103598 4.81756e-06
5.75078e-05 4.81756e-06 0.000347123
0.000732945 -3.27426e-05 0.000125162
-3.27426e-05 0.00125281 -2.75732e-05
0.000125162 -2.75732e-05 -0.00208241
-0.00945186 -0.000243387 -0.000212352
-0.000243387 0.00491573 2.02775e-05
-0.000212352 2.02775e-05 4.88473e-05
0.00156972 0.000425307 1.72389e-05
0.000425307 0.000895456 1.08493e-06
1.72389e-05 1.08493e-06 0.000651483
-0.00101526 0.000510632 6.4114e-06
0.000510632 -0.000557593 1.66659e-05
6.4114e-06 1.66659e-05 -0.000932333
0.00511158 0.000447087 0.000215837
0.000447087 0.00318676 3.43471e-05
0.000215837 3.43471e-05 0.00129545
0.0102 0.00268326 0.000248514
0.00268326 0.0037325 0.000156122
0.000248514 0.000156122 -0.000319618
0.00287808 0.00155984 -7.68563e-05
0.00155984 0.00184488 -7.93902e-05
-7.68563e-05 -7.93902e-05 0.000533565
0.00530787 -0.00183701 -0.000135462
-0.00183701 0.00329846 -0.00038296
-0.000135462 -0.00038296 0.000320801
0.00202199 0.000404858 0.000102716
0.000404858 0.000207714 0.000177301
0.000102716 0.000177301 -0.00134668
0.006326 -0.00013145 -3.60103e-05
-0.00013145 -0.00517526 -0.000211341
-3.60103e-05 -0.000211341 -0.0018939
0.000718117 0.000330583 6.08548e-06
0.000330583 0.000577068 1.69198e-06
6.08548e-06 1.69198e-06 0.000278778
-0.00173899 2.11811e-05 -1.58199e-06
2.11811e-05 -9.63656e-05 -1.84026e-07
-1.58199e-06 -1.84026e-07 -0.000279154
0.00373976 3.5023e-05 8.27948e-05
3.5023e-05 -0.000192916 2.3537e-05
8.27948e-05 2.3537e-05 -0.000608456
-0.0013934 0.000329164 -1.0747e-05
0.000329164 -0.00032357 -8.03567e-06
-1.0747e-05 -8.03567e-06 -0.000948676
0.00972093 0.00128779 -8.08802e-06
0.00128779 -0.000893638 -2.51119e-05
-8.08802e-06 -2.51119e-05 -0.000317102
0.00311319 0.00150813 0.00017414
0.00150813 0.00335583 0.000111387
0.00017414 0.000111387 -0.00180001
0.00557647 0.000622405 -0.000141183
0.000622405 0.00294495 1.30667e-06
-0.000141183 1.30667e-06 0.000111903
0.000528437 0.000345706 -8.07071e-06
0.000345706 0.000499721 -2.35775e-05
-8.07071e-06 -2.35775e-05 6.78207e-05
0.00126676 3.15724e-05 1.4328e-05
3.15724e-05 -0.000194458 -2.23191e-05
1.4328e-05 -2.23191e-05 -0.000123655
0.00369866 -0.000690654 3.21979e-05
-0.000690654 0.00285668 -0.000187167
3.21979e-05 -0.000187167 0.00121326
0.0148218 0.00355841 0.000283955
0.00355841 0.00372907 -0.000227511
0.000283955 -0.000227511 0.00254822
0.00695329 -2.90065e-05 -9.94484e-05
-2.90065e-05 0.003021 0.000372388
-9.94484e-05 0.000372388 0.000829392
0.000647557 0.000348735 -7.68893e-06
0.000348735 0.000520468 -0.000114387
-7.68893e-06 -0.000114387 5.70295e-05
0.0026615 0.00149492 0.000226329
0.00149492 0.00485195 4.11482e-05
0.000226329 4.11482e-05 -0.00250715
0.00153612 0.000305332 1.76143e-06
0.000305332 0.00096213 1.20487e-05
1.76143e-06 1.20487e-05 0.000664915
0.000778613 0.000214633 2.1429e-06
0.000214633 0.000733224 -8.13119e-07
2.1429e-06 -8.13119e-07 0.000370497
-8.07462e-06 -2.42947e-05 -1.15127e-05
-2.42947e-05 0.000362145 -8.7726e-06
-1.15127e-05 -8.7726e-06 6.99232e-05
0.000100873 -4.55166e-05 9.54864e-07
-4.55166e-05 -0.000197107 6.0835e-06
9.54864e-07 6.0835e-06 -0.000320387
0.00130586 -6.29546e-06 4.89957e-06
-6.29546e-06 0.00089042 -1.44163e-06
4.89957e-06 -1.44163e-06 0.000583346
0.000296154 5.88639e-05 2.46475e-06
5.88639e-05 0.0004596 -7.64503e-07
2.46475e-06 -7.64503e-07 4.08482e-05
0.000427764 -3.6655e-05 1.1165e-06
-3.6655e-05 0.000277355 -1.44992e-07
1.1165e-06 -1.44992e-07 4.69971e-05
-3.47182e-05 -9.28958e-06 5.03605e-06
-9.28958e-06 0.000209421 1.01791e-06
5.03605e-06 1.01791e-06 -0.000137719
0.00108075 -0.000230975 -4.65717e-07
-0.000230975 0.000681892 -1.23414e-05
-4.65717e-07 -1.23414e-05 0.00040027
0.000862898 -8.24885e-05 -4.68905e-06
-8.24885e-05 0.000374964 7.63247e-06
-4.68905e-06 7.63247e-06 0.00024081
0.000639679 -1.64036e-05 -1.13342e-06
-1.64036e-05 0.000131543 2.11353e-06
-1.13342e-06 2.11353e-06 1.16444e-05
0.00138064 -0.000227075 2.55589e-06
-0.000227075 0.000600352 4.0028e-06
2.55589e-06 4.0028e-06 0.000439308
-0.00146771 -0.000215346 1.5942e-05
-0.000215346 -0.000976042 8.55481e-06
1.5942e-05 8.55481e-06 -0.00127385
3.75158e-05 -0.000112035 3.75357e-06
-0.000112035 -0.000242811 -1.93902e-06
3.75357e-06 -1.93902e-06 -0.000286441
-0.000198157 -0.000278975 2.62848e-07
-0.000278975 -0.000451254 -3.21889e-06
2.62848e-07 -3.21889e-06 -0.000682961
0.00118794 -0.000447507 3.5488e-06
-0.000447507 0.000257979 -3.53845e-06
3.5488e-06 -3.53845e-06 -0.000116829
0.00158864 -0.000524178 -3.26892e-06
-0.000524178 0.000376673 -8.16233e-07
-3.26892e-06 -8.16233e-07 2.93572e-06
0.0019992 -0.000350891 3.2388e-06
-0.000350891 0.00086103 -1.53242e-06
3.2388e-06 -1.53242e-06 0.000659496
0.00128753 -0.000401167 2.21364e-06
-0.000401167 0.000346781 3.2545e-07
2.21364e-06 3.2545e-07 3.7215e-05
0.00160367 -0.000434778 2.47091e-06
-0.000434778 0.00042247 -1.95114e-06
2.47091e-06 -1.95114e-06 0.000116865
0.000643251 -0.000267853 -3.2785e-06
-0.000267853 -6.05795e-05 4.37683e-06
-3.2785e-06 4.37683e-06 -0.000309227
0.000954869 -0.000353758 1.62574e-06
-0.000353758 5.05083e-05 -4.93589e-06
1.62574e-06 -4.93589e-06 -0.000240679
0.000481691 -0.000123346 9.76179e-07
-0.000123346 5.31301e-05 -3.06587e-06
9.76179e-07 -3.06587e-06 -0.000181942
0.00112839 -0.000304049 -6.19409e-06
-0.000304049 0.000389482 4.52684e-06
-6.19409e-06 4.52684e-06 0.000141119
-0.0014341 -4.14207e-05 -3.09978e-06
-4.14207e-05 -0.00129163 -7.24134e-06
-3.09978e-06 -7.24134e-06 -0.00148308
0.000431362 -4.44055e-05 6.05827e-07
-4.44055e-05 -3.79795e-05 3.0089e-07
6.05827e-07 3.0089e-07 -0.000170086
0.000549909 -0.000112855 1.00242e-08
-0.000112855 9.12336e-05 9.79448e-08
1.00242e-08 9.79448e-08 -0.000106209
0.000962944 -0.00020133 6.20445e-06
-0.00020133 0.00036236 -1.8973e-06
6.20445e-06 -1.8973e-06 0.000154827
0.000492329 -9.48908e-05 6.64793e-07
-9.48908e-05 3.97574e-05 1.61239e-06
6.64793e-07 1.61239e-06 -0.000115349
0.000725453 -7.08579e-05 -3.19717e-07
-7.08579e-05 0.000157113 2.93606e-07
-3.19717e-07 2.93606e-07 2.6585e-05
0.000516094 6.92811e-06 5.67909e-07
6.92811e-06 1.17828e-05 4.15188e-06
5.67909e-07 4.15188e-06 -7.89766e-05
0.000834971 -9.87373e-05 -1.7158e-07
-9.87373e-05 0.000242692 -9.08586e-07
-1.7158e-07 -9.08586e-07 0.000109144
0.000564747 6.96804e-06 -1.19899e-06
6.96804e-06 4.4854e-05 -2.88135e-07
-1.19899e-06 -2.88135e-07 -3.76017e-05
0.000442909 3.60925e-05 -6.24383e-08
3.60925e-05 -5.52798e-05 5.83602e-06
-6.24383e-08 5.83602e-06 -8.55844e-05
0.000682136 -4.97176e-05 2.23782e-06
-4.97176e-05 0.000112327 -3.29017e-06
2.23782e-06 -3.29017e-06 3.6526e-05
0.000478917 1.24133e-05 -4.37898e-07
1.24133e-05 -4.10932e-05 -4.62858e-08
-4.37898e-07 -4.62858e-08 -6.69627e-05
0.00250101 8.75227e-05 -2.86409e-06
8.75227e-05 0.00121445 2.38429e-06
-2.86409e-06 2.38429e-06 0.00122069
0.000486474 8.09368e-08 2.07193e-06
8.09368e-08 -3.58905e-05 -5.36638e-06
2.07193e-06 -5.36638e-06 -6.06562e-05
0.00171731 4.83463e-05 1.40137e-05
4.83463e-05 0.000724936 -1.08324e-06
1.40137e-05 -1.08324e-06 0.000730484
0.00256273 4.57276e-05 1.84714e-05
4.57276e-05 0.00124858 -5.40642e-06
1.84714e-05 -5.40642e-06 0.00126009
0.000311737 1.37051e-05 1.03457e-06
1.37051e-05 -0.000102442 -8.33453e-07
1.03457e-06 -8.33453e-07 -0.000214788
0.000233137 9.33608e-06 9.34873e-07
9.33608e-06 -0.000171516 -3.09431e-06
9.34873e-07 -3.09431e-06 -0.00023897
0.000505786 2.87809e-05 -4.91451e-07
2.87809e-05 3.19793e-05 -1.11765e-06
-4.91451e-07 -1.11765e-06 -8.44178e-05
0.000515698 -3.70257e-06 1.8198e-06
-3.70257e-06 -2.60277e-05 -4.08909e-06
1.8198e-06 -4.08909e-06 -3.89935e-05
0.000210571 1.29702e-05 -6.34207e-07
1.29702e-05 -0.000182866 -1.63183e-06
-6.34207e-07 -1.63183e-06 -0.000243013
0.000669393 5.06225e-05 -6.55967e-07
5.06225e-05 0.000141855 1.26355e-06
-6.55967e-07 1.26355e-06 3.06219e-05
0.0020906 -2.10828e-05 -1.44714e-05
-2.10828e-05 0.000952051 -4.64525e-06
-1.44714e-05 -4.64525e-06 0.000969739
0.000499538 -1.74314e-06 -4.67225e-07
-1.74314e-06 -3.57577e-05 -6.329e-08
-4.67225e-07 -6.329e-08 -4.5777e-05
0.000152483 1.16775e-05 8.58386e-07
1.16775e-05 -0.000217189 1.57894e-06
8.58386e-07 1.57894e-06 -0.00026967
0.00202979 -6.31369e-06 -3.94636e-06
-6.31369e-06 0.000914675 5.09784e-08
-3.94636e-06 5.09784e-08 0.000933057
0.000488094 5.89593e-07 -1.35573e-06
5.89593e-07 -4.23019e-05 3.3978e-06
-1.35573e-06 3.3978e-06 -5.05788e-05
0.0020327 9.03128e-06 4.81693e-06
9.03128e-06 0.000917746 4.72563e-06
4.81693e-06 4.72563e-06 0.000935788
0.000387352 -3.05847e-05 8.10526e-05
-3.05847e-05 0.00134319 2.18965e-05
8.10526e-05 2.18965e-05 0.00105586
-2.63838e-05 -0.000295761 -3.16571e-05
-0.000295761 0.000238873 -1.41797e-05
-3.16571e-05 -1.41797e-05 -0.00282981
0.00038899 0.000341249 1.96379e-05
0.000341249 0.00576972 -3.38794e-05
1.96379e-05 -3.38794e-05 0.00270729
0.000764934 0.000120428 1.54586e-07
0.000120428 0.000182046 2.32307e-07
1.54586e-07 2.32307e-07 4.39647e-05
0.000480919 8.22321e-05 4.24471e-06
8.22321e-05 -9.42832e-06 2.86988e-06
4.24471e-06 2.86988e-06 -0.000135703
0.00100002 0.000171299 5.03937e-06
0.000171299 0.000327399 4.9508e-06
5.03937e-06 4.9508e-06 0.000185512
0.00460712 -0.000127842 -3.36263e-05
-0.000127842 -0.000420418 0.000221875
-3.36263e-05 0.000221875 -0.00117394
0.00419652 -0.000648346 6.23676e-05
-0.000648346 0.00270103 -3.42736e-06
6.23676e-05 -3.42736e-06 0.00134173
0.00448608 -0.00121169 0.000131061
-0.00121169 0.0019062 -0.00020327
0.000131061 -0.00020327 -0.00245914
0.0080481 -0.00198448 -5.54185e-05
-0.00198448 0.000664814 -1.89122e-05
-5.54185e-05 -1.89122e-05 0.00100508
0.000442929 -0.00219351 -0.000288569
-0.00219351 -0.00165289 9.99198e-05
-0.000288569 9.99198e-05 -0.00467465
0.0214269 0.00319447 0.000138837
0.00319447 0.00842011 0.000119242
0.000138837 0.000119242 0.00537318
0.0059923 8.65135e-05 0.00020325
8.65135e-05 -0.00304655 -0.000185913
0.00020325 -0.000185913 -0.00284594
0.00491814 -0.00227995 -3.52938e-05
-0.00227995 0.000496941 1.46865e-05
-3.52938e-05 1.46865e-05 0.000417148
0.00717461 -0.00282271 -8.26698e-05
-0.00282271 0.00282186 2.26212e-05
-8.26698e-05 2.26212e-05 -0.00140322
-0.00343741 0.00295277 -7.82904e-05
0.00295277 0.002422 -0.000253147
-7.82904e-05 -0.000253147 -0.00145611
0.00846107 0.000264855 -4.88228e-05
0.000264855 -0.00347299 0.000114024
-4.88228e-05 0.000114024 -0.000489425
0.000634396 -0.00130608 -0.000114881
-0.00130608 0.0001319 3.64708e-05
-0.000114881 3.64708e-05 -0.000163515
0.010536 -0.00243486 -0.000216457
-0.00243486 0.00521112 0.000137952
-0.000216457 0.000137952 0.000587366
-0.00328856 -2.35576e-05 3.71117e-05
-2.35576e-05 0.0016146 -0.000313979
3.71117e-05 -0.000313979 -0.00158361
0.00778069 -0.00127114 9.17433e-05
-0.00127114 -0.0019876 4.14794e-05
9.17433e-05 4.14794e-05 -0.00106435
0.000399718 8.64021e-05 2.36203e-06
8.64021e-05 -1.3842e-05 1.15242e-05
2.36203e-06 1.15242e-05 -0.000156878
0.000763714 -1.79288e-05 2.62809e-06
-1.79288e-05 0.000255231 -2.06192e-06
2.62809e-06 -2.06192e-06 4.9208e-05
0.000778476 -0.000117761 -3.9924e-07
-0.000117761 0.000251139 -8.17034e-06
-3.9924e-07 -8.17034e-06 5.37084e-05
0.000693637 0.000115612 -1.68303e-06
0.000115612 0.000136934 7.03487e-07
-1.68303e-06 7.03487e-07 -8.4747e-06
0.000831529 0.000149292 7.809e-07
0.000149292 0.000277921 -3.1812e-06
7.809e-07 -3.1812e-06 0.000107441
0.00115262 0.000174265 -3.5562e-06
0.000174265 0.00046396 -1.94766e-06
-3.5562e-06 -1.94766e-06 0.000298394
-0.00143395 -0.000718115 2.13246e-05
-0.000718115 -0.00175975 -2.79952e-06
2.13246e-05 -2.79952e-06 -0.00169622
0.00083178 -0.000324641 3.35238e-05
-0.000324641 0.00013691 -2.68106e-05
3.35238e-05 -2.68106e-05 0.000165244
4.07392e-05 1.1876e-05 -1.75887e-06
1.1876e-05 -0.000184602 -9.70254e-06
-1.75887e-06 -9.70254e-06 -0.000379183
0.00147747 -0.000380385 4.80956e-05
-0.000380385 0.000842783 -2.5432e-05
4.80956e-05 -2.5432e-05 0.000470972
0.00148844 -5.15755e-05 -6.44015e-06
-5.15755e-05 0.000813434 2.01693e-06
-6.44015e-06 2.01693e-06 0.000539657
0.000551306 9.91435e-05 2.75813e-06
9.91435e-05 0.000131903 2.01892e-06
2.75813e-06 2.01892e-06 -3.69882e-05
0.000995319 0.000162914 -7.61837e-07
0.000162914 0.000457498 -1.99742e-06
-7.61837e-07 -1.99742e-06 0.000284034
0.000379838 -0.000905535 1.20896e-06
-0.000905535 -0.000369733 -4.12775e-06
1.20896e-06 -4.12775e-06 -0.000559433
5.1806e-05 1.24221e-05 -6.38131e-06
1.24221e-05 0.000335238 4.77682e-06
-6.38131e-06 4.77682e-06 -0.000156095
0.0015229 -0.000285653 1.00961e-05
-0.000285653 0.000726226 -8.82511e-06
1.00961e-05 -8.82511e-06 0.000496248
0.00123667 0.000164024 1.02773e-06
0.000164024 0.000596151 -7.96151e-06
1.02773e-06 -7.96151e-06 0.000438244
-0.00311628 -5.66073e-05 -0.000128625
-5.66073e-05 -0.000959398 -1.2308e-05
-0.000128625 -1.2308e-05 -0.00170083
-0.000173583 -0.000127603 -1.57803e-05
-0.000127603 0.000205546 1.11622e-05
-1.57803e-05 1.11622e-05 -0.000122774
0.000369946 0.000142084 1.7385e-06
0.000142084 0.00047333 8.93137e-06
1.7385e-06 8.93137e-06 8.39327e-05
1.34195e-06 7.85695e-05 -3.87505e-06
7.85695e-05 -0.000588637 7.08021e-07
-3.87505e-06 7.08021e-07 -0.00121768
-0.0012464 7.52688e-05 1.9668e-05
7.52688e-05 0.000738311 -1.55612e-05
1.9668e-05 -1.55612e-05 0.000132966
-2.83138e-05 -0.000127527 0.000272255
-0.000127527 0.000786815 1.22944e-05
0.000272255 1.22944e-05 -0.0025596
-0.000352224 0.000277546 -5.25193e-06
0.000277546 -5.5996e-05 1.87014e-05
-5.25193e-06 1.87014e-05 -0.000375907
0.000802233 0.000677216 -8.35967e-06
0.000677216 0.000381478 -3.04957e-06
-8.35967e-06 -3.04957e-06 -0.000134469
-0.00159121 -5.00343e-06 -7.7149e-06
-5.00343e-06 -8.76913e-05 -7.5546e-06
-7.7149e-06 -7.5546e-06 -0.000384426
-0.0039776 0.000658577 4.87374e-05
0.000658577 0.00181352 0.000148056
4.87374e-05 0.000148056 -0.00310333
-0.00475678 0.00121912 -0.00017712
0.00121912 -0.00260517 -0.000405055
-0.00017712 -0.000405055 -0.00617469
0.00320077 8.04099e-05 6.65185e-05
8.04099e-05 -0.000194883 9.97753e-05
6.65185e-05 9.97753e-05 -0.000152524
0.00579895 0.000179083 -0.000207381
0.000179083 -0.0028069 0.000188576
-0.000207381 0.000188576 -0.0028027
0.000361248 0.000275641 2.30141e-06
0.000275641 0.000455587 -1.30843e-06
2.30141e-06 -1.30843e-06 8.5255e-05
0.000996447 -3.82482e-06 2.49316e-05
-3.82482e-06 -0.000294133 -2.62616e-05
2.49316e-05 -2.62616e-05 -0.000196967
0.00368501 -0.000519042 -6.38551e-05
-0.000519042 0.00262119 6.21736e-06
-6.38551e-05 6.21736e-06 0.00127309
0.00040174 0.000501882 -9.14289e-05
0.000501882 0.00101357 -6.4259e-06
-9.14289e-05 -6.4259e-06 -0.000101292
0.010606 0.00363766 6.50904e-05
0.00363766 0.00111682 -0.000322148
6.50904e-05 -0.000322148 -0.000269158
-0.00109615 0.00226843 6.31257e-05
0.00226843 0.00255168 0.000255341
6.31257e-05 0.000255341 -0.00110107
0.00586545 0.000364583 4.93403e-05
0.000364583 0.00597262 -2.28767e-05
4.93403e-05 -2.28767e-05 -0.00071385
0.000925855 -4.47193e-06 2.84742e-05
-4.47193e-06 0.00135589 -2.65364e-05
2.84742e-05 -2.65364e-05 0.000535031
0.000188432 -7.55835e-05 -6.78429e-05
-7.55835e-05 0.00130148 3.74686e-06
-6.78429e-05 3.74686e-06 0.000969489
0.00243856 -0.000766867 0.000559749
-0.000766867 0.000867318 -0.000226165
0.000559749 -0.000226165 -0.00351071
0.0133153 0.00507174 -2.87619e-05
0.00507174 0.00917163 1.08117e-05
-2.87619e-05 1.08117e-05 0.00758075
0.000663804 0.0028842 -0.000124578
0.0028842 -0.00102828 0.000625661
-0.000124578 0.000625661 -0.00349677
0.0119937 -0.0026098 0.000208587
-0.0026098 0.00543933 -0.00018205
0.000208587 -0.00018205 0.00052507
0.00339073 -0.000682139 -6.54443e-05
-0.000682139 0.00244667 4.70689e-05
-6.54443e-05 4.70689e-05 0.0017449
0.00155331 0.00028731 6.66739e-06
0.00028731 0.00117571 5.40224e-06
6.66739e-06 5.40224e-06 0.000811771
-0.000151564 -2.39042e-05 -3.81919e-06
-2.39042e-05 0.000217213 -2.54227e-06
-3.81919e-06 -2.54227e-06 -8.45061e-05
0.00199601 -0.000424806 2.95326e-05
-0.000424806 0.00120211 -1.20478e-05
2.95326e-05 -1.20478e-05 0.000810299
0.000797971 -8.7892e-05 2.66591e-07
-8.7892e-05 0.00045597 4.0616e-06
2.66591e-07 4.0616e-06 0.000265706
0.000147822 -2.92381e-05 -3.32734e-06
-2.92381e-05 0.000301045 2.0257e-08
-3.32734e-06 2.0257e-08 -3.58504e-05
0.000203961 -0.000208925 -2.96582e-06
-0.000208925 0.00027942 1.18833e-07
-2.96582e-06 1.18833e-07 -1.66291e-05
0.000582949 -0.000415955 2.4069e-05
-0.000415955 0.000163395 -2.23138e-05
2.4069e-05 -2.23138e-05 -3.23567e-05
0.00247219 -0.000322747 -2.89065e-06
-0.000322747 0.00125493 3.01717e-06
-2.89065e-06 3.01717e-06 0.00106449
0.0022974 -0.000603181 1.23781e-05
-0.000603181 0.00106508 -3.3571e-06
1.23781e-05 -3.3571e-06 0.000724221
0.00170937 -0.000550462 1.15869e-05
-0.000550462 0.000700012 -2.37596e-06
1.15869e-05 -2.37596e-06 0.00018831
0.000343317 -0.000279987 -3.72294e-06
-0.000279987 -0.000165166 -2.07434e-06
-3.72294e-06 -2.07434e-06 -0.000359594
0.00150631 -0.000481921 -2.18516e-06
-0.000481921 0.000396171 6.72747e-07
-2.18516e-06 6.72747e-07 1.91597e-05
0.00214427 -0.000655051 1.2732e-07
-0.000655051 0.000700264 6.94272e-07
1.2732e-07 6.94272e-07 0.000223645
0.00177279 -0.000666755 -5.15747e-06
-0.000666755 0.00036412 1.67347e-06
-5.15747e-06 1.67347e-06 -5.28433e-05
0.0016105 -0.000537761 -1.34222e-06
-0.000537761 0.000393283 -7.6302e-10
-1.34222e-06 -7.6302e-10 3.21718e-05
0.00150779 -0.000519183 -4.44382e-06
-0.000519183 0.000323067 1.38025e-06
-4.44382e-06 1.38025e-06 -5.09252e-05
0.0010924 -0.000381851 -3.99345e-06
-0.000381851 0.000196459 -2.02967e-06
-3.99345e-06 -2.02967e-06 -0.000117652
0.00198952 -0.000444377 4.37729e-06
-0.000444377 0.000723013 1.77347e-06
4.37729e-06 1.77347e-06 0.0004342
0.00146683 -0.000424024 4.68596e-06
-0.000424024 0.000343093 -3.1596e-06
4.68596e-06 -3.1596e-06 3.78424e-05
0.000348717 -0.000164261 1.80619e-06
-0.000164261 -0.000129167 3.80296e-07
1.80619e-06 3.80296e-07 -0.000358411
0.000905915 -0.000307537 3.17012e-06
-0.000307537 0.000117552 -6.34217e-07
3.17012e-06 -6.34217e-07 -0.000139605
0.000208546 -0.000265415 -4.82496e-07
-0.000265415 -0.000394899 -7.72989e-06
-4.82496e-07 -7.72989e-06 -0.000661975
-0.000152482 -1.77795e-05 3.20935e-07
-1.77795e-05 -0.000355036 1.53841e-06
3.20935e-07 1.53841e-06 -0.000549797
0.00105513 -0.000180908 -4.17988e-07
-0.000180908 0.000407158 -1.65973e-07
-4.17988e-07 -1.65973e-07 0.000163419
0.00108436 -0.000325426 -1.38951e-07
-0.000325426 0.000380958 -1.88831e-06
-1.38951e-07 -1.88831e-06 0.000114881
0.000686896 -1.62983e-05 -1.15694e-06
-1.62983e-05 0.000113572 4.5881e-06
-1.15694e-06 4.5881e-06 1.22898e-05
0.000802509 -9.87149e-05 -3.85891e-07
-9.87149e-05 0.000189964 -3.01358e-07
-3.85891e-07 -3.01358e-07 4.84079e-05
0.000213625 -8.80808e-05 6.54337e-07
-8.80808e-05 -0.000105158 1.25808e-06
6.54337e-07 1.25808e-06 -0.00029633
0.000725674 -9.50033e-05 1.14136e-06
-9.50033e-05 0.000162986 -5.99633e-07
1.14136e-06 -5.99633e-07 2.62298e-05
0.000616766 -3.53746e-05 3.0386e-09
-3.53746e-05 7.03187e-05 -2.21812e-07
3.0386e-09 -2.21812e-07 -2.02473e-05
0.000450376 3.34609e-05 6.14132e-07
3.34609e-05 -4.44469e-05 7.14016e-06
6.14132e-07 7.14016e-06 -7.99189e-05
0.00063695 -4.13207e-05 1.40158e-06
-4.13207e-05 8.4651e-05 -3.4381e-06
1.40158e-06 -3.4381e-06 3.28118e-06
0.000502525 2.49287e-05 -1.58326e-06
2.49287e-05 -2.06787e-05 -1.92297e-07
-1.58326e-06 -1.92297e-07 -5.03939e-05
0.00262559 9.54275e-05 -3.24778e-05
9.54275e-05 0.00129848 4.38203e-06
-3.24778e-05 4.38203e-06 0.0013037
0.000521257 9.64708e-06 2.01352e-06
9.64708e-06 -1.57701e-05 -5.45571e-06
2.01352e-06 -5.45571e-06 -4.15716e-05
0.00169309 6.29082e-05 1.62102e-05
6.29082e-05 0.000712872 -8.36905e-07
1.62102e-05 -8.36905e-07 0.000716552
0.00260201 6.34764e-05 2.32362e-05
6.34764e-05 0.00127451 -5.07314e-06
2.32362e-05 -5.07314e-06 0.00128433
0.000710313 8.30758e-05 2.87759e-06
8.30758e-05 0.000152891 1.16438e-07
2.87759e-06 1.16438e-07 2.89372e-05
0.000534664 4.03718e-05 1.24404e-06
4.03718e-05 1.39093e-05 -2.57123e-06
1.24404e-06 -2.57123e-06 -5.79755e-05
0.000474032 4.65712e-05 -1.12283e-06
4.65712e-05 1.03568e-05 -1.19422e-06
-1.12283e-06 -1.19422e-06 -0.000111396
0.000504954 -3.14666e-06 9.19615e-07
-3.14666e-06 -3.2262e-05 -4.92596e-06
9.19615e-07 -4.92596e-06 -4.91976e-05
0.000362077 3.22917e-05 -2.03333e-06
3.22917e-05 -9.07191e-05 -1.63746e-06
-2.03333e-06 -1.63746e-06 -0.000157628
0.000694508 6.55111e-05 -8.63554e-07
6.55111e-05 0.000151418 -1.10801e-06
-8.63554e-07 -1.10801e-06 3.51786e-05
0.00216772 -3.58867e-05 -1.87188e-05
-3.58867e-05 0.00100024 -4.71162e-06
-1.87188e-05 -4.71162e-06 0.00101658
0.000497298 -5.91344e-06 -1.15483e-07
-5.91344e-06 -3.7537e-05 -1.07138e-07
-1.15483e-07 -1.07138e-07 -5.0221e-05
0.000161206 1.11959e-05 -1.69941e-06
1.11959e-05 -0.000213638 4.04726e-07
-1.69941e-06 4.04726e-07 -0.00027493
0.00210902 -2.02323e-05 -4.97743e-06
-2.02323e-05 0.000963463 1.1476e-07
-4.97743e-06 1.1476e-07 0.000981157
0.000493249 -3.85964e-06 -1.96443e-06
-3.85964e-06 -3.99954e-05 3.47401e-06
-1.96443e-06 3.47401e-06 -4.97759e-05
0.00206092 -4.84546e-06 9.69604e-06
-4.84546e-06 0.000933943 4.74989e-06
9.69604e-06 4.74989e-06 0.000952204
0.00119033 -0.000145917 -3.40616e-05
-0.000145917 -0.000243532 2.84272e-05
-3.40616e-05 2.84272e-05 -0.00021405
-0.000100328 -0.000177083 4.17662e-05
-0.000177083 0.00113879 -2.62839e-06
4.17662e-05 -2.62839e-06 0.000811654
-0.000323284 -0.00032081 0.000144025
-0.00032081 0.000404375 -9.55465e-05
0.000144025 -9.55465e-05 -0.00291451
0.00029557 4.47178e-05 3.01414e-06
4.47178e-05 -0.000128872 2.11102e-06
3.01414e-06 2.11102e-06 -0.000255706
0.00172307 9.89821e-05 6.53909e-07
9.89821e-05 0.000732302 2.41177e-06
6.53909e-07 2.41177e-06 0.000584049
0.00073001 0.000128869 -1.6082e-06
0.000128869 0.000160063 -2.20929e-06
-1.6082e-06 -2.20929e-06 2.79643e-05
0.000487383 7.02672e-05 6.2515e-07
7.02672e-05 -1.71516e-05 7.41772e-07
6.2515e-07 7.41772e-07 -0.000135583
0.000534546 8.89205e-05 2.54656e-07
8.89205e-05 3.28305e-05 -2.52295e-07
2.54656e-07 -2.52295e-07 -9.26111e-05
0.00054689 8.00841e-05 4.18046e-06
8.00841e-05 3.16727e-05 2.2842e-06
4.18046e-06 2.2842e-06 -8.57529e-05
0.000574011 0.000163293 7.5824e-06
0.000163293 9.5301e-05 5.08747e-06
7.5824e-06 5.08747e-06 -4.47354e-05
0.000851565 0.000477023 0.000132699
0.000477023 -0.000422173 0.000233051
0.000132699 0.000233051 -0.00166437
0.00387365 -9.96513e-05 -3.04928e-05
-9.96513e-05 -0.000190144 5.73596e-05
-3.04928e-05 5.73596e-05 -0.000726428
0.00367405 -0.000490877 0.000118912
-0.000490877 0.00247341 -9.499e-05
0.000118912 -9.499e-05 0.0014532
0.00641805 -0.000120348 -6.09488e-06
-0.000120348 -0.00556794 0.000137755
-6.09488e-06 0.000137755 -0.0018797
0.00281861 -0.0019127 -9.4629e-05
-0.0019127 0.000356898 5.96747e-05
-9.4629e-05 5.96747e-05 0.0001319
0.000561588 -0.0028951 -0.000152082
-0.0028951 0.00114676 7.6485e-05
-0.000152082 7.6485e-05 -0.00385349
0.0128301 0.00337676 8.71995e-05
0.00337676 0.00629845 -0.000118169
8.71995e-05 -0.000118169 0.00278747
0.00292726 -0.00174939 -4.01092e-05
-0.00174939 0.000580725 1.85637e-05
-4.01092e-05 1.85637e-05 0.000661829
-0.00123119 -0.000624498 -2.96503e-05
-0.000624498 0.00298199 4.5313e-05
-2.96503e-05 4.5313e-05 -0.00312555
0.00599419 0.000469635 0.000131744
0.000469635 0.00269053 -1.84014e-05
0.000131744 -1.84014e-05 -5.55555e-05
0.0133295 -0.00201325 -5.97241e-05
-0.00201325 0.00176407 -2.67316e-05
-5.97241e-05 -2.67316e-05 0.00310683
-0.00144057 -0.0003074 -0.000131411
-0.0003074 -0.000433714 0.000108275
-0.000131411 0.000108275 -0.000311752
0.00307009 0.00196163 -0.000144008
0.00196163 0.00424928 -8.20534e-05
-0.000144008 -8.20534e-05 -0.00190413
-0.00384619 -0.00395297 3.83125e-05
-0.00395297 -0.00140922 -0.000216532
3.83125e-05 -0.000216532 -0.00528678
0.0108366 -0.00240127 8.42321e-05
-0.00240127 0.00183438 -0.000494962
8.42321e-05 -0.000494962 0.00130558
0.000970969 2.75443e-05 9.20802e-06
2.75443e-05 0.000414202 3.31547e-06
9.20802e-06 3.31547e-06 0.000251102
0.00067369 0.000141417 -1.03937e-06
0.000141417 0.000163825 -1.32924e-06
-1.03937e-06 -1.32924e-06 1.63011e-05
0.000715404 -1.35454e-05 3.26511e-07
-1.35454e-05 0.000233956 -4.0541e-06
3.26511e-07 -4.0541e-06 1.58081e-05
0.00090178 0.00011866 -2.73986e-06
0.00011866 0.000287266 -6.30462e-06
-2.73986e-06 -6.30462e-06 0.000125112
-0.00049062 -0.000667719 -2.59437e-06
-0.000667719 -0.000765064 4.38657e-05
-2.59437e-06 4.38657e-05 -0.000935967
0.00406234 -0.00031747 -2.75171e-06
-0.00031747 0.00225539 -2.70978e-05
-2.75171e-06 -2.70978e-05 0.0019574
0.000629604 7.36221e-05 -4.05381e-06
7.36221e-05 0.000160009 -8.28666e-06
-4.05381e-06 -8.28666e-06 1.05217e-05
0.000563774 0.000195498 -2.00693e-06
0.000195498 0.000203365 -2.86285e-06
-2.00693e-06 -2.86285e-06 2.8099e-05
0.00105058 0.000105902 -1.18723e-05
0.000105902 0.000852166 4.76076e-06
-1.18723e-05 4.76076e-06 0.000467078
0.000528647 6.21148e-05 3.81352e-06
6.21148e-05 0.000126986 3.34979e-06
3.81352e-06 3.34979e-06 -9.97742e-07
0.000159242 0.000151553 -3.2721e-07
0.000151553 0.00035846 9.81519e-07
-3.2721e-07 9.81519e-07 -4.54459e-05
0.00166617 -0.000348341 -4.87486e-07
-0.000348341 0.00139666 4.05614e-06
-4.87486e-07 4.05614e-06 0.000456322
-9.24825e-06 -0.00012212 2.00785e-05
-0.00012212 0.000459268 1.35424e-06
2.00785e-05 1.35424e-06 0.000101866
-0.000292183 0.000112348 3.14442e-06
0.000112348 -9.30916e-05 -4.67583e-06
3.14442e-06 -4.67583e-06 -0.000325574
0.00193683 -0.00010925 -2.47364e-05
-0.00010925 0.00282523 -3.86104e-05
-2.47364e-05 -3.86104e-05 0.00132177
0.00134776 0.000296266 -7.63342e-06
0.000296266 0.0011531 1.84953e-05
-7.63342e-06 1.84953e-05 0.000684142
-0.00103768 5.33991e-05 -4.79102e-05
5.33991e-05 0.00107083 7.71058e-06
-4.79102e-05 7.71058e-06 0.000320529
0.000903231 1.11081e-05 5.56982e-06
1.11081e-05 -0.00021693 1.88973e-06
5.56982e-06 1.88973e-06 -0.000336682
-0.0016587 8.81668e-05 -9.63063e-07
8.81668e-05 0.000428248 -3.99224e-05
-9.63063e-07 -3.99224e-05 -4.95962e-05
0.000206148 0.00018674 -1.10684e-05
0.00018674 0.000461556 9.44813e-06
-1.10684e-05 9.44813e-06 0.000167889
-0.00123885 0.000618346 0.000100979
0.000618346 -0.00047923 9.04293e-05
0.000100979 9.04293e-05 -0.00104998
0.00076924 2.87986e-06 3.90607e-05
2.87986e-06 -0.000377316 -4.92205e-06
3.90607e-05 -4.92205e-06 -0.000136053
0.00410042 -0.00171878 0.000153719
-0.00171878 0.00466499 -0.000168672
0.000153719 -0.000168672 -0.0026356
0.0144412 0.00299774 -0.000136182
0.00299774 0.00649311 0.000112231
-0.000136182 0.000112231 0.00328404
0.00344612 -0.000389724 -0.000115516
-0.000389724 0.00223807 0.000103444
-0.000115516 0.000103444 0.00133091
0.0106701 0.00356276 -1.91745e-05
0.00356276 0.00299817 -0.000153205
-1.91745e-05 -0.000153205 0.000975038
0.000427227 0.000140635 -4.79322e-05
0.000140635 0.000969732 1.04888e-05
-4.79322e-05 1.04888e-05 0.000159285
0.000260529 -0.000102958 -4.90334e-05
-0.000102958 0.00109134 1.46064e-06
-4.90334e-05 1.46064e-06 0.000929171
0.00348599 -0.00101733 0.000220325
-0.00101733 0.00143981 -2.25148e-05
0.000220325 -2.25148e-05 -0.00278033
-0.00160872 -0.000164197 3.16676e-05
-0.000164197 -0.000429199 2.95557e-05
3.16676e-05 2.95557e-05 -0.000759831
0.00665464 0.00558267 0.000404074
0.00558267 0.00540926 -0.000199003
0.000404074 -0.000199003 0.00423437
0.00703625 0.0023127 -0.000146912
0.0023127 0.00145216 0.000274399
-0.000146912 0.000274399 -0.00113432
-0.00265395 -0.00104995 0.000121426
-0.00104995 0.0021783 -0.000116257
0.000121426 -0.000116257 -0.00433934
-0.000168331 -0.000347564 1.60482e-05
-0.000347564 0.000526175 -2.15475e-05
1.60482e-05 -2.15475e-05 -0.000274117
0.000156367 -0.000496135 0.000203781
-0.000496135 -0.000288359 -4.66172e-05
0.000203781 -4.66172e-05 -0.00277245
-0.00203416 5.03815e-05 -0.000723141
5.03815e-05 0.00490951 0.000198841
-0.000723141 0.000198841 0.00189211
0.0110249 0.00523859 -0.000475378
0.00523859 0.00286165 0.000497135
-0.000475378 0.000497135 0.0010021
0.00894818 -0.00245396 -8.45856e-05
-0.00245396 0.00363147 3.36587e-05
-8.45856e-05 3.36587e-05 1.37464e-06
0.00285799 -0.00108828 -2.77591e-05
-0.00108828 0.00190014 2.01683e-05
-2.77591e-05 2.01683e-05 0.00133458
0.00059359 -5.77768e-05 6.58725e-06
-5.77768e-05 0.000578186 1.06756e-05
6.58725e-06 1.06756e-05 0.000289048
0.000320652 -0.000281145 1.72385e-06
-0.000281145 0.000374582 -3.83852e-07
1.72385e-06 -3.83852e-07 -2.71033e-05
0.00106212 -0.000571221 7.82539e-06
-0.000571221 0.00051948 -8.96998e-07
7.82539e-06 -8.96998e-07 0.000351016
-0.000429895 -0.000188432 1.30471e-06
-0.000188432 7.35136e-06 7.12658e-06
1.30471e-06 7.12658e-06 -0.000295953
-0.000800411 -0.000282571 1.62948e-06
-0.000282571 -0.000484069 -1.19953e-06
1.62948e-06 -1.19953e-06 -0.000688912
0.00269877 -0.000696406 4.24703e-05
-0.000696406 0.00108088 -3.80537e-06
4.24703e-05 -3.80537e-06 0.000791358
0.00588869 -0.000998068 -1.44729e-05
-0.000998068 0.00301079 5.2566e-06
-1.44729e-05 5.2566e-06 0.00261773
0.00268534 -0.0006722 6.96203e-06
-0.0006722 0.00115207 -4.38745e-08
6.96203e-06 -4.38745e-08 0.00064727
0.00162258 -0.000647731 1.11542e-05
-0.000647731 0.000406611 -9.1439e-06
1.11542e-05 -9.1439e-06 -0.000123667
0.00148504 -0.000476129 -8.34958e-06
-0.000476129 0.000348687 -2.41764e-06
-8.34958e-06 -2.41764e-06 -2.46456e-05
0.00231023 -0.000683834 2.78865e-06
-0.000683834 0.000767136 -6.37629e-07
2.78865e-06 -6.37629e-07 0.000282415
0.00232048 -0.0007296 2.89177e-06
-0.0007296 0.000707608 -9.38803e-06
2.89177e-06 -9.38803e-06 0.000223758
0.00206464 -0.000633006 -2.41951e-06
-0.000633006 0.000397559 -4.7515e-06
-2.41951e-06 -4.7515e-06 5.05201e-05
0.00213051 -0.000705956 -2.46131e-06
-0.000705956 0.000545475 1.46315e-06
-2.46131e-06 1.46315e-06 0.00014843
0.0020032 -0.000693264 -2.18965e-06
-0.000693264 0.000490703 7.3522e-09
-2.18965e-06 7.3522e-09 6.50889e-05
0.00193503 -0.000538405 6.9529e-06
-0.000538405 0.000629881 1.81856e-06
6.9529e-06 1.81856e-06 0.000293451
0.00131394 -0.000497983 1.47922e-06
-0.000497983 0.000221838 -8.81803e-08
1.47922e-06 -8.81803e-08 -0.000124663
0.0012526 -0.000492799 -2.12901e-07
-0.000492799 0.000169862 1.76745e-07
-2.12901e-07 1.76745e-07 -0.000200161
0.00158021 -0.000364449 3.11704e-06
-0.000364449 0.000510752 8.21162e-07
3.11704e-06 8.21162e-07 0.000250826
0.00145128 -0.000387217 -7.96874e-07
-0.000387217 0.000391755 -1.40994e-06
-7.96874e-07 -1.40994e-06 0.00011225
0.00135143 -0.000414767 1.00507e-05
-0.000414767 0.000278467 -4.25079e-06
1.00507e-05 -4.25079e-06 -2.63819e-05
0.000699345 -0.000166774 3.16956e-06
-0.000166774 0.000184428 -1.68039e-07
3.16956e-06 -1.68039e-07 -8.24082e-05
0.000687814 -0.00019958 -1.83035e-06
-0.00019958 9.31896e-05 1.18109e-06
-1.83035e-06 1.18109e-06 -0.000144861
0.00106707 -0.000332359 7.13307e-06
-0.000332359 0.000230305 -6.57999e-06
7.13307e-06 -6.57999e-06 -3.11073e-05
0.000299689 -2.32141e-05 3.28261e-07
-2.32141e-05 -0.000130859 4.95889e-06
3.28261e-07 4.95889e-06 -0.000246213
0.000696399 -6.68502e-05 -9.2864e-07
-6.68502e-05 0.000167083 1.89813e-07
-9.2864e-07 1.89813e-07 -3.75095e-05
0.0013652 -0.000245363 9.71943e-07
-0.000245363 0.00060573 4.66518e-07
9.71943e-07 4.66518e-07 0.000351756
0.000447972 1.7875e-05 -3.75827e-06
1.7875e-05 -4.70271e-05 1.04202e-05
-3.75827e-06 1.04202e-05 -8.54691e-05
0.000642027 -2.65296e-05 -3.16787e-07
-2.65296e-05 8.04342e-05 -7.43199e-08
-3.16787e-07 -7.43199e-08 -1.9324e-05
0.00120134 -0.000143649 2.80159e-08
-0.000143649 0.00044191 -8.00288e-07
2.80159e-08 -8.00288e-07 0.000287462
0.000660223 -3.71307e-05 1.22182e-06
-3.71307e-05 9.57368e-05 -3.70019e-06
1.22182e-06 -3.70019e-06 5.0609e-06
0.000489632 2.71111e-05 5.34118e-08
2.71111e-05 -2.24898e-05 -1.42725e-07
5.34118e-08 -1.42725e-07 -5.71356e-05
0.00274607 0.000117733 -3.3862e-05
0.000117733 0.00138187 4.15923e-06
-3.3862e-05 4.15923e-06 0.00138196
0.000549053 2.29924e-05 9.19153e-07
2.29924e-05 5.98662e-06 -6.2383e-06
9.19153e-07 -6.2383e-06 -2.3363e-05
0.00264277 9.87699e-05 3.95426e-06
9.87699e-05 0.00130991 4.27222e-07
3.95426e-06 4.27222e-07 0.00131442
0.00257425 8.07302e-05 2.6738e-05
8.07302e-05 0.00126125 -4.6156e-06
2.6738e-05 -4.6156e-06 0.00126914
0.000712865 8.25658e-05 1.97785e-06
8.25658e-05 0.000196828 -2.57697e-06
1.97785e-06 -2.57697e-06 2.88073e-05
0.000777224 0.000105572 4.78729e-06
0.000105572 0.000208002 -3.90446e-07
4.78729e-06 -3.90446e-07 6.02689e-05
0.000583706 3.22604e-05 2.16043e-06
3.22604e-05 4.25077e-05 -3.24648e-06
2.16043e-06 -3.24648e-06 -3.71727e-05
0.000637424 9.59551e-05 2.01596e-07
9.59551e-05 0.000105156 -2.21984e-07
2.01596e-07 -2.21984e-07 -1.71477e-05
0.000490326 -7.09711e-06 4.17877e-07
-7.09711e-06 -3.87613e-05 -5.89633e-06
4.17877e-07 -5.89633e-06 -6.03337e-05
0.000555972 4.36214e-05 2.32875e-07
4.36214e-05 2.72617e-05 -1.43936e-07
2.32875e-07 -1.43936e-07 -4.46634e-05
0.000589473 5.09547e-05 -3.35712e-06
5.09547e-05 6.86235e-05 -6.49479e-07
-3.35712e-06 -6.49479e-07 -4.44636e-05
0.00230939 -5.16548e-05 -2.44532e-05
-5.16548e-05 0.00108996 -4.78789e-06
-2.44532e-05 -4.78789e-06 0.00110395
0.000498096 -8.47844e-06 -6.54273e-07
-8.47844e-06 -3.59877e-05 -1.00693e-07
-6.54273e-07 -1.00693e-07 -5.27436e-05
0.000498947 4.97971e-05 -2.82322e-06
4.97971e-05 -5.02864e-06 8.57739e-07
-2.82322e-06 8.57739e-07 -7.12548e-05
0.00218396 -3.51703e-05 -4.58104e-06
-3.51703e-05 0.00101028 2.12079e-07
-4.58104e-06 2.12079e-07 0.00102668
0.000496635 -6.11927e-06 -2.06629e-06
-6.11927e-06 -3.80512e-05 3.80103e-06
-2.06629e-06 3.80103e-06 -5.05051e-05
0.00209571 -1.93286e-05 1.38945e-05
-1.93286e-05 0.000954969 4.65584e-06
1.38945e-05 4.65584e-06 0.00097278
-0.00153493 4.09739e-05 -1.2204e-05
4.09739e-05 -8.09721e-05 -9.70987e-06
-1.2204e-05 -9.70987e-06 -4.87832e-05
0.00119457 -0.000154541 -1.66744e-05
-0.000154541 -0.000229024 2.34648e-05
-1.66744e-05 2.34648e-05 -6.88008e-05
0.000199647 -0.000171725 7.27399e-06
-0.000171725 0.00109359 -2.78017e-05
7.27399e-06 -2.78017e-05 0.000795216
0.000789244 8.83781e-05 -3.85232e-07
8.83781e-05 0.000207775 6.07771e-07
-3.85232e-07 6.07771e-07 5.7286e-05
0.000517734 8.23151e-05 3.55655e-06
8.23151e-05 -4.01633e-06 -1.10466e-06
3.55655e-06 -1.10466e-06 -0.000142346
-0.00144899 -5.76493e-06 -3.92106e-06
-5.76493e-06 -0.00118444 -8.36672e-06
-3.92106e-06 -8.36672e-06 -0.00129873
0.000103442 3.49203e-05 2.4343e-06
3.49203e-05 -0.000228923 8.81648e-06
2.4343e-06 8.81648e-06 -0.00035957
0.00265616 0.000340587 -1.79082e-06
0.000340587 0.00135585 -1.01881e-06
-1.79082e-06 -1.01881e-06 0.00113971
0.000707593 4.32124e-05 -4.6202e-06
4.32124e-05 0.000108769 -2.89133e-06
-4.6202e-06 -2.89133e-06 -7.08218e-06
0.000548301 8.26652e-05 -4.45729e-06
8.26652e-05 3.45191e-05 -6.39519e-06
-4.45729e-06 -6.39519e-06 -8.22181e-05
0.000709995 6.91553e-05 1.67051e-07
6.91553e-05 0.000133527 -3.55961e-07
1.67051e-07 -3.55961e-07 1.39008e-05
0.00095629 0.00013948 -1.82047e-07
0.00013948 0.000307805 -1.1135e-06
-1.82047e-07 -1.1135e-06 0.000180381
0.000735221 0.000103084 5.88283e-06
0.000103084 0.000266623 -8.863e-06
5.88283e-06 -8.863e-06 8.60036e-05
0.00454397 0.000633559 0.000302259
0.000633559 0.00318013 0.000397302
0.000302259 0.000397302 -0.00113375
0.00149209 0.000424723 1.58357e-05
0.000424723 -7.21673e-05 8.39344e-05
1.58357e-05 8.39344e-05 -0.0015517
0.00338486 -8.39736e-05 8.3818e-06
-8.39736e-05 -6.60935e-05 -1.44016e-05
8.3818e-06 -1.44016e-05 -0.000308726
0.0131559 -0.00171528 -0.000199365
-0.00171528 0.00180913 -0.000139758
-0.000199365 -0.000139758 0.00349164
-0.00517691 0.0015733 4.70503e-05
0.0015733 -0.00237717 0.000386964
4.70503e-05 0.000386964 -0.00613237
0.00354338 -0.00183279 -8.19126e-05
-0.00183279 0.00118922 9.62726e-06
-8.19126e-05 9.62726e-06 0.00124745
0.010035 -0.00171869 -0.000117316
-0.00171869 0.00529703 1.19674e-05
-0.000117316 1.19674e-05 0.000837909
0.000661419 -0.000437016 -2.11833e-05
-0.000437016 0.00034446 8.1889e-05
-2.11833e-05 8.1889e-05 0.000151029
0.00980447 -0.000226572 -9.80402e-05
-0.000226572 0.00599936 -6.0793e-06
-9.80402e-05 -6.0793e-06 0.000192009
0.00416405 -0.00222999 8.98851e-05
-0.00222999 0.00245258 0.000146602
8.98851e-05 0.000146602 -0.0012188
0.0119559 -0.0031973 -0.000184008
-0.0031973 0.00100202 -0.000585221
-0.000184008 -0.000585221 0.000330532
0.00381767 4.98842e-05 -8.65153e-05
4.98842e-05 0.00269397 8.28113e-05
-8.65153e-05 8.28113e-05 0.00194485
0.012242 0.00212087 -0.000129361
0.00212087 0.00611822 2.86716e-05
-0.000129361 2.86716e-05 0.00164357
0.0163198 -0.00469922 -0.00019916
-0.00469922 0.00730373 -0.000547173
-0.00019916 -0.000547173 0.00471128
0.0167867 -0.00592011 7.33949e-05
-0.00592011 0.00566063 -4.87267e-05
7.33949e-05 -4.87267e-05 0.00491766
0.00053956 0.000170476 1.16493e-05
0.000170476 0.000228854 1.16232e-06
1.16493e-05 1.16232e-06 2.13894e-05
0.00037919 4.28208e-05 2.03067e-06
4.28208e-05 0.000104077 2.43167e-06
2.03067e-06 2.43167e-06 -8.87905e-05
0.000930445 0.000164276 -6.09406e-06
0.000164276 0.000332573 -9.47595e-06
-6.09406e-06 -9.47595e-06 0.000174526
0.00365629 -0.000395392 -5.72334e-05
-0.000395392 0.00193449 3.92284e-05
-5.72334e-05 3.92284e-05 0.000874025
0.000193324 -8.23717e-05 -4.94196e-06
-8.23717e-05 0.00067288 -4.11299e-05
-4.94196e-06 -4.11299e-05 0.000286195
0.000326714 -6.28263e-06 -7.62659e-06
-6.28263e-06 -3.35879e-06 -1.2478e-07
-7.62659e-06 -1.2478e-07 -0.000123113
-2.94773e-05 5.51867e-05 9.67827e-07
5.51867e-05 0.000250095 -4.95686e-06
9.67827e-07 -4.95686e-06 -0.000149903
0.000305193 0.000106116 1.90558e-06
0.000106116 0.000235208 -1.02028e-06
1.90558e-06 -1.02028e-06 -7.27464e-06
0.000493592 0.000268553 8.80887e-06
0.000268553 0.000613092 4.92868e-07
8.80887e-06 4.92868e-07 0.000143317
-0.0015736 -0.000103643 0.000215005
-0.000103643 0.000708545 -1.40294e-05
0.000215005 -1.40294e-05 -0.000915453
-0.00189779 0.000174093 -1.57021e-05
0.000174093 -0.000970081 1.34674e-05
-1.57021e-05 1.34674e-05 -0.00130216
0.00276165 0.00067117 -0.000125944
0.00067117 0.00204043 -7.16963e-05
-0.000125944 -7.16963e-05 0.00087485
0.00154768 0.000179342 0.000139389
0.000179342 0.00158688 4.37144e-05
0.000139389 4.37144e-05 -0.00176871
-0.00137421 8.34135e-05 -1.99722e-05
8.34135e-05 0.000784493 1.76742e-05
-1.99722e-05 1.76742e-05 8.65308e-05
0.00183861 -0.000154679 -1.04531e-05
-0.000154679 0.000205811 4.16537e-07
-1.04531e-05 4.16537e-07 0.000539223
-0.000876473 0.000411453 0.000113819
0.000411453 0.000156079 1.43744e-05
0.000113819 1.43744e-05 -0.000739741
0.00156561 0.000283884 -6.55068e-05
0.000283884 0.00162266 6.54356e-05
-6.55068e-05 6.54356e-05 0.000469335
0.00015247 -0.000169906 -1.46304e-05
-0.000169906 0.00104357 6.04795e-06
-1.46304e-05 6.04795e-06 0.000753276
0.0161587 -0.0031253 0.000176475
-0.0031253 0.00758614 -7.97592e-05
0.000176475 -7.97592e-05 0.00233135
0.0193571 0.00346408 -5.48527e-05
0.00346408 0.00809548 -0.000109625
-5.48527e-05 -0.000109625 0.00509374
0.00456631 -0.00111582 -0.000164781
-0.00111582 0.00212669 0.000195109
-0.000164781 0.000195109 -0.00208973
-0.000802502 0.00635666 0.00182863
0.00635666 0.00102909 -0.00125796
0.00182863 -0.00125796 -1.96952e-05
0.000894426 -0.000378929 2.33959e-05
-0.000378929 0.00110467 -7.09121e-06
2.33959e-05 -7.09121e-06 0.000222583
-5.58137e-06 -0.000357918 2.69252e-05
-0.000357918 0.000164617 1.51797e-05
2.69252e-05 1.51797e-05 -0.00279089
-0.00196556 0.000368177 -0.000870954
0.000368177 0.00477077 0.0003047
-0.000870954 0.0003047 0.00156284
0.000946925 -0.000636613 -5.13008e-06
-0.000636613 0.000887579 3.2726e-05
-5.13008e-06 3.2726e-05 0.000390243
0.0180275 0.00462133 0.000245716
0.00462133 0.00525984 8.24415e-05
0.000245716 8.24415e-05 0.00355674
0.00767462 -0.0033745 0.000150024
-0.0033745 0.00269022 -6.58911e-05
0.000150024 -6.58911e-05 -0.000861716
0.00213935 -0.000991852 -1.72905e-05
-0.000991852 0.00112426 2.993e-05
-1.72905e-05 2.993e-05 0.000602405
-0.00634824 -0.00124895 0.000101521
-0.00124895 0.00404241 -5.48939e-05
0.000101521 -5.48939e-05 0.000628808
0.0141534 0.00424651 -0.00109172
0.00424651 0.00563244 0.000454674
-0.00109172 0.000454674 0.00385539
0.00448779 -0.00238573 -0.000325481
-0.00238573 -0.000483173 0.000174512
-0.000325481 0.000174512 -0.00401858
0.00211321 -0.00163635 0.00017482
-0.00163635 0.000340371 -9.5288e-05
0.00017482 -9.5288e-05 0.00105393
2.29364e-05 -0.000321236 -6.94513e-05
-0.000321236 0.000181117 2.42156e-05
-6.94513e-05 2.42156e-05 -0.000191865
0.000698161 -0.000504498 -7.88496e-06
-0.000504498 0.000371283 1.21156e-05
-7.88496e-06 1.21156e-05 0.00012603
0.00340679 -0.00076742 2.79453e-05
-0.00076742 0.0015691 -1.60623e-06
2.79453e-05 -1.60623e-06 0.00127373
-0.00235039 -0.000147623 3.35136e-06
-0.000147623 -0.00120961 1.25146e-05
3.35136e-06 1.25146e-05 -0.00142506
0.000856941 -0.000482761 5.55258e-06
-0.000482761 0.00011898 3.33922e-07
5.55258e-06 3.33922e-07 -0.000151753
0.00227961 -0.000748531 9.27084e-06
-0.000748531 0.000578249 -6.19435e-07
9.27084e-06 -6.19435e-07 0.000253428
0.00352801 -0.00077639 -2.59876e-05
-0.00077639 0.00153299 6.92687e-06
-2.59876e-05 6.92687e-06 0.00103909
0.00144627 -0.000611032 -7.69007e-07
-0.000611032 0.000291283 -1.38058e-06
-7.69007e-07 -1.38058e-06 -0.000214979
0.00179341 -0.000750309 5.14882e-06
-0.000750309 0.000255561 -9.29155e-06
5.14882e-06 -9.29155e-06 -0.000154983
0.00277148 -0.000745692 -3.82728e-06
-0.000745692 0.000997137 3.1252e-06
-3.82728e-06 3.1252e-06 0.000502941
0.00196225 -0.000695926 2.51737e-07
-0.000695926 0.000487781 -4.8618e-06
2.51737e-07 -4.8618e-06 2.23444e-05
0.0024703 -0.000679316 1.91546e-06
-0.000679316 0.000570758 -8.62327e-06
1.91546e-06 -8.62327e-06 0.00023206
0.00168933 -0.000462909 -4.34513e-06
-0.000462909 3.3734e-05 -3.21744e-06
-4.34513e-06 -3.21744e-06 -0.000201513
0.00177211 -0.000624481 1.96974e-07
-0.000624481 0.000187093 -9.49444e-07
1.96974e-07 -9.49444e-07 -0.000155448
0.00198514 -0.000624632 2.56652e-06
-0.000624632 0.000348508 -2.96358e-06
2.56652e-06 -2.96358e-06 5.39134e-06
0.00201193 -0.000617069 1.5883e-07
-0.000617069 0.000543115 -1.70635e-07
1.5883e-07 -1.70635e-07 0.000185506
0.0021132 -0.00070324 -2.32023e-06
-0.00070324 0.000547888 9.37083e-08
-2.32023e-06 9.37083e-08 0.000146384
0.00223776 -0.000721932 1.59455e-06
-0.000721932 0.000618053 -3.03526e-06
1.59455e-06 -3.03526e-06 0.000183592
0.00183698 -0.000449299 3.5226e-06
-0.000449299 0.000614315 3.06701e-06
3.5226e-06 3.06701e-06 0.000316867
0.00129195 -0.000464823 1.63564e-06
-0.000464823 0.000255222 8.54423e-07
1.63564e-06 8.54423e-07 -6.29757e-05
0.00105467 -0.000463928 3.59304e-06
-0.000463928 7.03515e-05 3.59028e-07
3.59304e-06 3.59028e-07 -0.000262345
0.001185 -0.000309016 -1.09638e-06
-0.000309016 0.000357408 7.93843e-07
-1.09638e-06 7.93843e-07 0.000106015
0.00106874 -0.00030594 -2.73753e-07
-0.00030594 0.000204078 -9.19999e-07
-2.73753e-07 -9.19999e-07 -4.53873e-05
0.00105967 -0.00034513 -3.99996e-06
-0.00034513 0.000150612 -3.63859e-06
-3.99996e-06 -3.63859e-06 -0.000123041
-0.000159106 -4.78899e-05 -1.26212e-06
-4.78899e-05 -0.000397443 5.47458e-06
-1.26212e-06 5.47458e-06 -0.000564592
0.000767048 -0.000179448 2.14034e-06
-0.000179448 0.000221874 6.59143e-08
2.14034e-06 6.59143e-08 -4.28615e-05
0.00134056 -0.000255115 -1.99404e-06
-0.000255115 0.000508531 2.10886e-06
-1.99404e-06 2.10886e-06 0.000255369
0.00169681 5.56526e-05 -3.24431e-05
5.56526e-05 0.000734857 6.80746e-06
-3.24431e-05 6.80746e-06 0.000692
0.000710832 -6.42975e-05 3.51843e-07
-6.42975e-05 0.000115201 -6.73518e-07
3.51843e-07 -6.73518e-07 -4.20925e-06
0.00150239 -0.00011442 -2.90092e-06
-0.00011442 0.000665132 -1.88726e-06
-2.90092e-06 -1.88726e-06 0.000449672
0.000760681 4.47839e-05 -4.14995e-05
4.47839e-05 0.00015134 4.79718e-06
-4.14995e-05 4.79718e-06 0.000144194
0.00105995 3.56751e-05 -1.33821e-05
3.56751e-05 0.000334702 -4.98239e-07
-1.33821e-05 -4.98239e-07 0.00029699
0.000642259 -3.55374e-05 1.66277e-06
-3.55374e-05 7.53234e-05 -4.64295e-06
1.66277e-06 -4.64295e-06 -2.33112e-05
0.000545087 2.4835e-05 1.76806e-06
2.4835e-05 1.07008e-05 -7.39173e-06
1.76806e-06 -7.39173e-06 -2.39856e-05
0.00278525 0.000118885 6.74161e-06
0.000118885 0.00140666 6.17144e-07
6.74161e-06 6.17144e-07 0.00140659
0.00263417 0.000100018 2.9686e-05
0.000100018 0.00130526 -4.45041e-06
2.9686e-05 -4.45041e-06 0.00130951
0.00109083 0.000125107 6.49663e-06
0.000125107 0.000411066 1.90962e-06
6.49663e-06 1.90962e-06 0.00024368
0.00117639 0.000136168 2.93656e-06
0.000136168 0.000474968 -2.14199e-06
2.93656e-06 -2.14199e-06 0.000303659
0.000307298 6.82283e-05 -5.18643e-07
6.82283e-05 -7.72442e-05 1.17847e-06
-5.18643e-07 1.17847e-06 -0.000226187
0.000625157 2.52612e-05 2.338e-06
2.52612e-05 6.838e-05 -4.43034e-06
2.338e-06 -4.43034e-06 -2.15134e-05
0.000799155 9.63869e-05 6.31194e-07
9.63869e-05 0.00021411 8.89274e-09
6.31194e-07 8.89274e-09 7.52713e-05
0.000482753 -6.25838e-07 -1.12986e-06
-6.25838e-07 -3.84146e-05 -6.94235e-06
-1.12986e-06 -6.94235e-06 -6.46918e-05
0.000560852 3.48837e-05 -9.58161e-08
3.48837e-05 3.04822e-05 -3.29708e-07
-9.58161e-08 -3.29708e-07 -4.99299e-05
0.000707006 6.58646e-05 -2.52892e-06
6.58646e-05 0.000168575 5.63432e-07
-2.52892e-06 5.63432e-07 3.09836e-05
0.00249722 -6.88777e-05 -3.19774e-05
-6.88777e-05 0.00121021 -4.67416e-06
-3.19774e-05 -4.67416e-06 0.00122122
0.000476505 -5.2887e-06 -7.77619e-07
-5.2887e-06 -4.68861e-05 -1.01239e-07
-7.77619e-07 -1.01239e-07 -6.82394e-05
0.000567091 4.80588e-05 -4.72711e-07
4.80588e-05 3.49288e-05 2.87921e-06
-4.72711e-07 2.87921e-06 -3.72346e-05
0.00231444 -5.14232e-05 -5.4349e-06
-5.14232e-05 0.001093 3.22673e-07
-5.4349e-06 3.22673e-07 0.00110707
0.000477246 -1.25644e-05 -2.99122e-06
-1.25644e-05 -4.84445e-05 4.71414e-06
-2.99122e-06 4.71414e-06 -6.50686e-05
0.00218628 -3.37893e-05 1.93138e-05
-3.37893e-05 0.00101165 4.58008e-06
1.93138e-05 4.58008e-06 0.00102822
0.00613113 0.000403008 0.00023385
0.000403008 0.00310693 4.60699e-05
0.00023385 4.60699e-05 0.00132012
-0.00135387 7.50516e-06 -1.10901e-06
7.50516e-06 -8.08244e-05 -4.46588e-06
-1.10901e-06 -4.46588e-06 -0.000196975
0.000864102 -3.95286e-05 -2.14416e-05
-3.95286e-05 -0.000202128 -5.67486e-07
-2.14416e-05 -5.67486e-07 2.63743e-07
-0.000330523 8.60599e-05 -7.23764e-06
8.60599e-05 -0.000501842 -1.34873e-06
-7.23764e-06 -1.34873e-06 -0.00063429
0.000645816 8.09669e-05 -4.9097e-06
8.09669e-05 0.000116573 -1.8404e-06
-4.9097e-06 -1.8404e-06 -2.51195e-05
0.000176305 6.27326e-05 1.97537e-07
6.27326e-05 -0.000215708 -2.24942e-06
1.97537e-07 -2.24942e-06 -0.000347392
0.000995723 6.30615e-05 6.82403e-07
6.30615e-05 0.000302235 -4.05259e-07
6.82403e-07 -4.05259e-07 0.000164169
0.000249138 8.68126e-05 -1.86341e-06
8.68126e-05 -0.000165181 -6.18788e-07
-1.86341e-06 -6.18788e-07 -0.000287367
0.0018361 0.000254353 7.23896e-09
0.000254353 0.000851347 -2.79393e-06
7.23896e-09 -2.79393e-06 0.000675246
0.00109931 0.000207967 -5.25203e-06
0.000207967 0.000372019 -1.53704e-05
-5.25203e-06 -1.53704e-05 0.000127836
-0.00052337 5.46793e-05 2.4111e-06
5.46793e-05 -0.000440267 1.82241e-06
2.4111e-06 1.82241e-06 -0.000681197
0.000805934 0.000139177 -4.03304e-06
0.000139177 0.000213159 -3.48521e-06
-4.03304e-06 -3.48521e-06 7.83383e-05
0.00016538 4.42541e-05 -5.24153e-06
4.42541e-05 -0.000207695 -5.6157e-06
-5.24153e-06 -5.6157e-06 -0.000304537
0.00018666 5.10971e-05 1.63382e-07
5.10971e-05 -8.17289e-05 8.91278e-07
1.63382e-07 8.91278e-07 -0.000249896
0.000881574 0.000211895 1.37991e-05
0.000211895 0.000468155 6.02371e-07
1.37991e-05 6.02371e-07 0.000183992
0.00177287 -0.00198799 0.000142144
-0.00198799 0.00444235 0.00024984
0.000142144 0.00024984 0.000209479
0.00521414 0.000855516 7.91329e-05
0.000855516 0.00276936 0.000144601
7.91329e-05 0.000144601 -0.00180868
0.00207996 0.000303638 -2.81378e-05
0.000303638 0.000338149 -7.63617e-05
-2.81378e-05 -7.63617e-05 -0.00135838
0.0184822 -0.00395403 -0.00052181
-0.00395403 0.00436451 -0.00030596
-0.00052181 -0.00030596 0.00359166
0.00628594 -0.0014431 0.000199819
-0.0014431 0.00291245 0.000402907
0.000199819 0.000402907 0.000195362
0.00284774 -0.00123491 -0.000175552
-0.00123491 0.00410026 8.64899e-05
-0.000175552 8.64899e-05 -0.00218539
0.000559625 -0.000578356 7.46163e-05
-0.000578356 0.00116503 2.40617e-05
7.46163e-05 2.40617e-05 0.000322091
0.000741492 -0.000137002 3.79164e-05
-0.000137002 0.000932608 5.59352e-05
3.79164e-05 5.59352e-05 0.000508176
0.00860937 -0.00610169 0.000337965
-0.00610169 0.0033771 0.000325475
0.000337965 0.000325475 0.00250975
0.00285587 0.00135441 -6.54848e-05
0.00135441 0.00391527 -6.4495e-05
-6.54848e-05 -6.4495e-05 -0.00186152
0.00595629 -0.00285211 -9.81522e-05
-0.00285211 0.00165458 8.32433e-05
-9.81522e-05 8.32433e-05 -0.00146552
0.000423745 0.000518671 -2.65262e-05
0.000518671 0.000758901 6.21324e-05
-2.65262e-05 6.21324e-05 0.000561629
0.0109649 0.00275302 -9.47387e-05
0.00275302 0.00413687 7.12473e-06
-9.47387e-05 7.12473e-06 0.000584577
0.0104111 -0.00504169 -0.000633373
-0.00504169 0.00248142 -0.000441713
-0.000633373 -0.000441713 0.000398282
5.49082e-06 0.000387858 1.37929e-06
0.000387858 -0.000360362 -5.40721e-06
1.37929e-06 -5.40721e-06 -0.000513267
0.000406012 0.000106359 6.9485e-06
0.000106359 0.000126517 2.44011e-06
6.9485e-06 2.44011e-06 -5.16393e-05
2.42818e-05 4.52594e-05 -6.53401e-06
4.52594e-05 -0.000113226 -4.77822e-06
-6.53401e-06 -4.77822e-06 -0.000304516
-0.00317666 -0.000303726 -0.000117757
-0.000303726 -9.22035e-05 -5.92212e-05
-0.000117757 -5.92212e-05 -0.00168164
-0.000935202 0.000191807 1.08315e-05
0.000191807 -0.000259881 -1.74695e-05
1.08315e-05 -1.74695e-05 -0.000728987
0.000669315 0.000129898 -7.99062e-06
0.000129898 0.000416859 3.8295e-06
-7.99062e-06 3.8295e-06 0.000169644
0.000892959 0.000518742 1.54641e-05
0.000518742 0.000485301 3.63926e-06
1.54641e-05 3.63926e-06 0.00012504
-0.000373045 0.000353732 4.92761e-05
0.000353732 0.000517724 -2.70057e-05
4.92761e-05 -2.70057e-05 -0.000493986
0.000250909 0.00093077 4.34161e-05
0.00093077 -0.000244807 4.50063e-06
4.34161e-05 4.50063e-06 -0.000878009
-0.00464975 0.000856551 0.000269055
0.000856551 0.00473744 1.19114e-05
0.000269055 1.19114e-05 -0.000590974
0.00225997 -5.01204e-05 -6.06339e-06
-5.01204e-05 0.00178883 5.03586e-05
-6.06339e-06 5.03586e-05 -0.000606737
-0.00173714 -4.53565e-05 -7.60354e-06
-4.53565e-05 0.000390471 3.37935e-05
-7.60354e-06 3.37935e-05 -7.84891e-05
-0.000372134 -0.000192502 -5.37614e-05
-0.000192502 0.000562249 1.21452e-05
-5.37614e-05 1.21452e-05 -0.000354554
-0.00122482 -0.000286845 -5.18823e-05
-0.000286845 -0.000664039 3.68215e-05
-5.18823e-05 3.68215e-05 -0.000356754
0.00018764 -0.000282208 -0.000146697
-0.000282208 0.000400127 8.22861e-05
-0.000146697 8.22861e-05 -0.00268635
-0.000559441 -0.00278422 0.000193698
-0.00278422 0.00159478 -9.17686e-05
0.000193698 -9.17686e-05 -0.00345369
0.00383471 0.00399373 0.000489708
0.00399373 -0.00168941 -0.00037415
0.000489708 -0.00037415 -0.00333247
0.00674932 0.0020963 -0.000344846
0.0020963 0.00597692 0.000241775
-0.000344846 0.000241775 0.00310087
0.00133594 -0.000584847 -7.02124e-06
-0.000584847 0.00100561 -3.26805e-06
-7.02124e-06 -3.26805e-06 0.000521044
0.00141202 0.00035294 8.19793e-05
0.00035294 0.00586499 -7.82128e-06
8.19793e-05 -7.82128e-06 0.00291141
-0.000887156 0.00284649 1.45287e-05
0.00284649 0.000154975 5.01967e-05
1.45287e-05 5.01967e-05 -0.00255316
0.00245642 -0.00189158 7.99141e-05
-0.00189158 0.000705435 -2.95351e-05
7.99141e-05 -2.95351e-05 0.000708072
0.016402 -0.0025622 2.52277e-05
-0.0025622 0.00406549 -1.06875e-05
2.52277e-05 -1.06875e-05 0.00216585
0.00319082 -0.00122023 2.49335e-06
-0.00122023 0.00122702 2.26055e-05
2.49335e-06 2.26055e-05 0.00104302
-0.00905338 0.000886632 -0.000401554
0.000886632 -0.00330856 4.56366e-05
-0.000401554 4.56366e-05 -0.00529639
0.0151378 -0.00163663 -0.000182047
-0.00163663 0.00253839 6.40246e-05
-0.000182047 6.40246e-05 0.00103426
0.00365626 -0.00216953 8.01854e-05
-0.00216953 -0.000176985 -6.11923e-05
8.01854e-05 -6.11923e-05 -7.94148e-05
0.000128527 -0.000390275 -1.29251e-05
-0.000390275 0.000139775 1.60836e-05
-1.29251e-05 1.60836e-05 -0.000177529
0.000874732 -0.000607346 -3.619e-06
-0.000607346 8.43236e-05 5.2257e-07
-3.619e-06 5.2257e-07 -7.55506e-05
0.00526704 -0.000879141 2.4408e-05
-0.000879141 0.00223736 -5.10229e-06
2.4408e-05 -5.10229e-06 0.00191767
-0.000812942 -0.000295648 -1.0205e-05
-0.000295648 -0.000738061 6.56568e-06
-1.0205e-05 6.56568e-06 -0.000999428
0.00140696 -0.00065281 -6.05088e-06
-0.00065281 0.00015386 -3.13977e-06
-6.05088e-06 -3.13977e-06 -0.000187483
0.00254314 -0.000833777 6.03934e-06
-0.000833777 0.000534491 -7.09078e-06
6.03934e-06 -7.09078e-06 0.000198433
0.00130243 -0.000579193 -1.52614e-05
-0.000579193 0.000192537 3.33218e-06
-1.52614e-05 3.33218e-06 -0.000292821
0.00178569 -0.000734084 -1.31492e-06
-0.000734084 0.000263276 -4.05593e-07
-1.31492e-06 -4.05593e-07 -0.000151431
0.00158644 -0.000606701 2.77212e-06
-0.000606701 -7.11034e-05 -4.67471e-06
2.77212e-06 -4.67471e-06 -0.000331859
0.00144887 -0.000646777 -7.04977e-06
-0.000646777 0.000182554 1.59619e-06
-7.04977e-06 1.59619e-06 -0.000264423
0.00181939 -0.000604077 -6.35475e-07
-0.000604077 0.000218445 1.30845e-06
-6.35475e-07 1.30845e-06 -0.00010491
0.00184433 -0.000468425 -8.35429e-07
-0.000468425 5.74153e-05 -4.09961e-06
-8.35429e-07 -4.09961e-06 -0.000136245
0.00176939 -0.000381112 -5.49064e-06
-0.000381112 5.96293e-05 -1.26943e-06
-5.49064e-06 -1.26943e-06 -0.000101531
0.00161449 -0.000466861 -5.22504e-06
-0.000466861 7.76265e-06 -1.85047e-06
-5.22504e-06 -1.85047e-06 -0.000236265
0.00171933 -0.000457826 1.20807e-06
-0.000457826 5.7098e-05 2.5697e-06
1.20807e-06 2.5697e-06 -0.000173432
0.00157632 -0.000539081 -3.75765e-06
-0.000539081 0.000127604 -1.67357e-06
-3.75765e-06 -1.67357e-06 -0.000183248
0.00193203 -0.000630458 2.41525e-06
-0.000630458 0.00029594 -4.85686e-07
2.41525e-06 -4.85686e-07 -4.30409e-05
0.00197674 -0.000622432 2.37497e-06
-0.000622432 0.000340128 1.02828e-06
2.37497e-06 1.02828e-06 1.91967e-07
0.00149045 -0.00049701 -2.22325e-06
-0.00049701 0.000284718 6.26752e-07
-2.22325e-06 6.26752e-07 -4.07452e-05
0.00188092 -0.000607781 7.1554e-07
-0.000607781 0.000464103 -2.40917e-07
7.1554e-07 -2.40917e-07 0.000106211
0.00204343 -0.00069386 -2.80084e-06
-0.00069386 0.000520017 -1.09654e-06
-2.80084e-06 -1.09654e-06 0.000114941
0.00127817 -0.000311821 -4.33773e-06
-0.000311821 0.000293569 9.17028e-07
-4.33773e-06 9.17028e-07 5.73741e-05
0.00134901 -0.000400425 2.09918e-06
-0.000400425 0.000306779 6.69483e-07
2.09918e-06 6.69483e-07 1.99627e-05
0.00059357 -0.000384562 -4.90551e-07
-0.000384562 -0.000153488 -9.49066e-07
-4.90551e-07 -9.49066e-07 -0.000452234
0.000532928 -0.000167649 -3.40768e-06
-0.000167649 2.20699e-08 3.36261e-06
-3.40768e-06 3.36261e-06 -0.000209794
0.00111534 -0.000308445 -1.27226e-07
-0.000308445 0.000302919 4.97454e-07
-1.27226e-07 4.97454e-07 5.78803e-05
0.000444038 -0.00024083 -5.53593e-06
-0.00024083 -0.000170765 -1.25753e-06
-5.53593e-06 -1.25753e-06 -0.000408758
0.000440741 -1.18695e-05 -6.19309e-06
-1.18695e-05 -4.63533e-05 1.14678e-05
-6.19309e-06 1.14678e-05 -0.000106669
0.000748229 -0.000120714 3.12612e-07
-0.000120714 0.000159355 3.31522e-07
3.12612e-07 3.31522e-07 -2.21367e-05
0.00103996 -0.000197019 1.01422e-06
-0.000197019 0.000381482 -7.11789e-07
1.01422e-06 -7.11789e-07 0.000120951
0.00323606 0.000191106 -8.5333e-07
0.000191106 0.00171295 3.68226e-06
-8.5333e-07 3.68226e-06 0.00169054
0.000418192 6.33784e-06 -6.92467e-08
6.33784e-06 -6.42961e-05 -1.19496e-07
-6.92467e-08 -1.19496e-07 -0.000113031
0.000956836 -9.51225e-05 2.67656e-06
-9.51225e-05 0.000266342 -5.83846e-06
2.67656e-06 -5.83846e-06 0.000139197
0.00301035 0.00013654 6.64926e-06
0.00013654 0.00155351 5.26678e-07
6.64926e-06 5.26678e-07 0.00154938
0.00054746 1.58084e-05 2.77935e-06
1.58084e-05 1.49299e-05 -8.39072e-06
2.77935e-06 -8.39072e-06 -2.56282e-05
0.00284673 0.000118812 4.15112e-05
0.000118812 0.00144487 -3.93171e-06
4.15112e-05 -3.93171e-06 0.00144499
0.00152986 0.000229102 6.60437e-06
0.000229102 0.000641026 3.84984e-06
6.60437e-06 3.84984e-06 0.000453112
0.000802985 0.000125274 6.23825e-07
0.000125274 0.000243889 -9.6041e-07
6.23825e-07 -9.6041e-07 7.05793e-05
0.00113136 0.000116944 1.44453e-06
0.000116944 0.00046055 -4.5786e-06
1.44453e-06 -4.5786e-06 0.000266033
0.000636078 3.43573e-05 1.85317e-06
3.43573e-05 8.38524e-05 -5.80797e-06
1.85317e-06 -5.80797e-06 -2.02777e-05
0.000688204 7.55801e-05 -1.09068e-07
7.55801e-05 0.000157682 9.10619e-07
-1.09068e-07 9.10619e-07 4.04398e-07
0.000432351 9.336e-05 -6.44511e-07
9.336e-05 4.56797e-06 2.87614e-06
-6.44511e-07 2.87614e-06 -0.000150639
0.000509668 -5.66975e-06 -1.63685e-06
-5.66975e-06 -1.68054e-05 -8.19226e-06
-1.63685e-06 -8.19226e-06 -4.85912e-05
0.000589842 3.1357e-05 -5.0531e-08
3.1357e-05 5.13879e-05 -2.62128e-07
-5.0531e-08 -2.62128e-07 -4.01175e-05
0.000483361 7.83994e-05 -3.08564e-06
7.83994e-05 1.02289e-05 6.92495e-07
-3.08564e-06 6.92495e-07 -0.000117376
0.00264334 -8.5089e-05 -4.04766e-05
-8.5089e-05 0.00130608 -4.3548e-06
-4.04766e-05 -4.3548e-06 0.00131425
0.000452858 -2.00656e-05 1.92577e-06
-2.00656e-05 -5.60392e-05 -1.23988e-07
1.92577e-06 -1.23988e-07 -8.27035e-05
0.000537584 3.90206e-05 -1.57551e-06
3.90206e-05 1.73463e-05 3.27381e-06
-1.57551e-06 3.27381e-06 -6.34841e-05
0.00247465 -6.85886e-05 -5.84596e-06
-6.85886e-05 0.00119591 4.10385e-07
-5.84596e-06 4.10385e-07 0.00120696
0.000472003 -1.20916e-05 -2.16746e-06
-1.20916e-05 -4.94137e-05 5.69788e-06
-2.16746e-06 5.69788e-06 -7.06623e-05
0.00230342 -5.06461e-05 2.25786e-05
-5.06461e-05 0.00108604 4.57131e-06
2.25786e-05 4.57131e-06 0.0011003
-0.00917151 0.000839905 -6.05481e-05
0.000839905 0.0029056 7.81043e-05
-6.05481e-05 7.81043e-05 -0.00221012
0.00579121 0.000246038 -5.16597e-06
0.000246038 0.00313817 -2.65315e-06
-5.16597e-06 -2.65315e-06 0.00142849
-0.00111792 -2.3998e-05 1.43459e-05
-2.3998e-05 -9.1307e-05 3.76545e-07
1.43459e-05 3.76545e-07 -0.000364971
2.59009e-05 8.50579e-05 -2.6761e-06
8.50579e-05 -0.000274891 2.5151e-06
-2.6761e-06 2.5151e-06 -0.000420555
0.00336069 0.000561412 6.88901e-06
0.000561412 0.00170735 9.29515e-06
6.88901e-06 9.29515e-06 0.00141221
0.00142014 0.000143234 -6.81519e-06
0.000143234 0.000614782 -9.2057e-07
-6.81519e-06 -9.2057e-07 0.000399891
0.000672627 6.53755e-05 -5.62404e-06
6.53755e-05 0.000102383 -9.1127e-06
-5.62404e-06 -9.1127e-06 -3.72446e-05
0.00201634 0.000215261 2.85753e-06
0.000215261 0.000895474 -4.52406e-07
2.85753e-06 -4.52406e-07 0.00075926
-0.000217896 5.83193e-05 -7.2956e-06
5.83193e-05 -0.000408879 5.22882e-06
-7.2956e-06 5.22882e-06 -0.000534312
0.000302883 7.14515e-05 -1.44675e-06
7.14515e-05 1.67441e-05 4.39014e-06
-1.44675e-06 4.39014e-06 -0.000206425
0.000472427 0.00013598 -3.47071e-06
0.00013598 2.40642e-05 -4.7054e-06
-3.47071e-06 -4.7054e-06 -0.000216049
0.00171072 0.000345543 7.15855e-06
0.000345543 0.000813871 -2.23668e-05
7.15855e-06 -2.23668e-05 0.000470809
0.000402178 0.000396403 -9.5441e-06
0.000396403 -0.000117757 2.74852e-05
-9.5441e-06 2.74852e-05 -0.000269069
0.0013344 5.54634e-05 -7.71271e-06
5.54634e-05 0.000599977 8.52836e-06
-7.71271e-06 8.52836e-06 0.000430066
0.00108607 0.000191415 2.5488e-06
0.000191415 0.000601897 -5.006e-06
2.5488e-06 -5.006e-06 0.000322007
-0.00256694 -0.00170578 -0.00105672
-0.00170578 0.000529201 -0.000179695
-0.00105672 -0.000179695 -0.00231363
-0.0034222 -0.00147446 0.000372751
-0.00147446 0.00397593 0.000169002
0.000372751 0.000169002 -0.000509752
0.00585729 0.00104576 -0.000373933
0.00104576 0.00266335 -0.000135277
-0.000373933 -0.000135277 -0.00220479
-0.00153367 -0.0063532 0.00174947
-0.0063532 0.000959318 0.00119236
0.00174947 0.00119236 -0.000422486
0.0209032 -0.00298919 3.36264e-05
-0.00298919 0.00680892 0.000273116
3.36264e-05 0.000273116 0.00478545
-0.00236913 0.00145545 -8.21899e-07
0.00145545 0.00158042 -0.000160588
-8.21899e-07 -0.000160588 -0.00356065
-0.00170529 0.000200144 -0.000339339
0.000200144 8.8852e-05 -5.28022e-05
-0.000339339 -5.28022e-05 -0.00121899
0.00124877 0.000616642 6.10677e-05
0.000616642 0.00119065 4.53563e-05
6.10677e-05 4.53563e-05 0.000983589
0.0161626 -0.003677 -0.000453775
-0.003677 0.00672733 2.04733e-05
-0.000453775 2.04733e-05 0.00455538
-0.00190967 0.00215419 -7.31035e-05
0.00215419 0.000432883 -4.46154e-05
-7.31035e-05 -4.46154e-05 -0.00390581
0.00260627 0.00157889 -1.90033e-05
0.00157889 0.000737492 -6.55597e-05
-1.90033e-05 -6.55597e-05 0.00120833
0.00236091 0.00327532 -0.000286031
0.00327532 -0.00168003 -0.000109681
-0.000286031 -0.000109681 -0.00436039
0.00310726 0.000995698 1.90957e-05
0.000995698 0.00109114 -1.30832e-05
1.90957e-05 -1.30832e-05 0.000777705
0.000980068 0.000465441 -5.6621e-06
0.000465441 0.000268667 -7.42364e-07
-5.6621e-06 -7.42364e-07 0.000101813
0.000557779 0.000152686 -5.70011e-06
0.000152686 0.000216868 -8.41177e-07
-5.70011e-06 -8.41177e-07 3.20025e-05
-0.00198908 0.000208913 -6.6728e-05
0.000208913 -0.000366266 -6.40674e-05
-6.6728e-05 -6.40674e-05 -0.00124537
0.00242234 0.000711445 -3.03535e-05
0.000711445 0.00125389 -2.03704e-05
-3.03535e-05 -2.03704e-05 0.000876046
0.00149233 0.00107969 1.46647e-05
0.00107969 0.000303711 -6.37886e-06
1.46647e-05 -6.37886e-06 -0.000321986
6.5376e-05 0.00128266 9.90134e-05
0.00128266 -0.00121002 3.81818e-05
9.90134e-05 3.81818e-05 -0.00147931
-0.00569758 -0.000304098 -0.000446832
-0.000304098 -0.00462631 2.46024e-05
-0.000446832 2.46024e-05 -0.00360533
-0.00686197 0.000402561 0.000278799
0.000402561 0.00467424 1.14208e-05
0.000278799 1.14208e-05 -0.000465946
0.00288493 -0.00011327 -9.98843e-05
-0.00011327 0.0019512 3.35171e-05
-9.98843e-05 3.35171e-05 0.000340665
0.00208705 -0.000701241 -3.51392e-05
-0.000701241 0.00104795 -5.03262e-05
-3.51392e-05 -5.03262e-05 0.000576855
0.000154339 -0.00158486 -1.75037e-05
-0.00158486 -0.000540558 4.35821e-05
-1.75037e-05 4.35821e-05 -0.000421854
0.000702228 0.000389606 4.7514e-06
0.000389606 0.00559795 3.17445e-05
4.7514e-06 3.17445e-05 0.0026594
0.00146468 -0.00226182 0.000343575
-0.00226182 -0.00139387 -0.000132089
0.000343575 -0.000132089 -0.00404889
0.0171505 0.00255041 0.00053104
0.00255041 0.00760512 -7.76143e-05
0.00053104 -7.76143e-05 0.00557659
0.0019094 -0.001289 -1.90637e-05
-0.001289 0.000448756 6.53563e-06
-1.90637e-05 6.53563e-06 2.09211e-05
0.000994444 0.00103488 0.00018824
0.00103488 5.85888e-05 -5.40121e-05
0.00018824 -5.40121e-05 -0.00133152
0.007806 -0.00145274 -0.000118087
-0.00145274 -0.00114819 0.000110636
-0.000118087 0.000110636 -0.00343748
0.0048525 -0.00225804 -1.8885e-05
-0.00225804 0.000295325 2.49236e-05
-1.8885e-05 2.49236e-05 0.000419713
0.00261534 -0.00107616 7.355e-05
-0.00107616 0.00038767 -1.17555e-05
7.355e-05 -1.17555e-05 0.000263967
0.0141632 -0.000705552 -1.78742e-05
-0.000705552 0.00298044 1.16026e-05
-1.78742e-05 1.16026e-05 0.00154831
0.00222423 -0.00131959 0.000102016
-0.00131959 -0.00250269 -8.41195e-05
0.000102016 -8.41195e-05 -0.00174725
-0.000618842 -0.000485934 -3.32319e-05
-0.000485934 -0.000822127 2.02451e-05
-3.32319e-05 2.02451e-05 -0.000862801
0.00022492 -0.000461313 -2.93359e-05
-0.000461313 -0.000539421 1.80196e-06
-2.93359e-05 1.80196e-06 -0.000651875
0.00526727 -0.000921259 5.8552e-05
-0.000921259 0.00187169 -1.96129e-05
5.8552e-05 -1.96129e-05 0.0017155
0.000555447 -0.000553827 -2.09874e-05
-0.000553827 -0.000269413 -5.18744e-06
-2.09874e-05 -5.18744e-06 -0.000616668
0.00203806 -0.000772852 -7.91826e-07
-0.000772852 0.000269326 -2.40415e-06
-7.91826e-07 -2.40415e-06 -4.84235e-05
0.00263423 -0.000714307 1.94105e-06
-0.000714307 0.000322945 -3.83588e-06
1.94105e-06 -3.83588e-06 0.000138697
0.00193504 -0.00073563 -5.99248e-06
-0.00073563 0.000349149 5.29824e-06
-5.99248e-06 5.29824e-06 -7.04554e-05
0.00199011 -0.00064235 -4.96816e-07
-0.00064235 0.000145321 1.50508e-06
-4.96816e-07 1.50508e-06 -0.000119838
0.00203848 -0.000487877 1.33398e-06
-0.000487877 6.02038e-05 -1.18144e-07
1.33398e-06 -1.18144e-07 -7.62122e-05
0.00124935 -0.000536885 3.9577e-06
-0.000536885 -9.10452e-05 6.82988e-06
3.9577e-06 6.82988e-06 -0.000400314
0.00186979 -0.000463029 -4.06289e-07
-0.000463029 7.75627e-05 1.79499e-06
-4.06289e-07 1.79499e-06 -0.0001133
0.00188334 -0.000413323 -2.81337e-06
-0.000413323 4.71831e-05 8.80438e-07
-2.81337e-06 8.80438e-07 -8.83005e-05
0.0020768 -0.000397641 -4.87536e-06
-0.000397641 0.000248018 9.56407e-07
-4.87536e-06 9.56407e-07 0.000108529
0.00187207 -0.000386567 -2.89308e-06
-0.000386567 0.000115175 3.37047e-06
-2.89308e-06 3.37047e-06 -4.24353e-05
0.00193191 -0.000404691 -3.09675e-06
-0.000404691 0.000188302 -4.29373e-06
-3.09675e-06 -4.29373e-06 1.21479e-05
0.00187391 -0.000485749 -5.68147e-06
-0.000485749 0.000193464 -2.17209e-06
-5.68147e-06 -2.17209e-06 -5.69569e-05
0.00181999 -0.000482923 1.61801e-06
-0.000482923 0.000135482 7.07146e-07
1.61801e-06 7.07146e-07 -0.000109765
0.00175148 -0.00045303 5.863e-06
-0.00045303 8.06729e-05 7.14334e-06
5.863e-06 7.14334e-06 -0.000145254
0.00173978 -0.000518895 -6.54778e-06
-0.000518895 0.00029281 -8.05059e-07
-6.54778e-06 -8.05059e-07 -1.46354e-05
0.00159807 -0.000546303 -5.50298e-07
-0.000546303 0.000128876 1.59781e-07
-5.50298e-07 1.59781e-07 -0.000184683
0.00205918 -0.000634513 5.18197e-06
-0.000634513 0.000384482 2.24926e-07
5.18197e-06 2.24926e-07 4.91628e-05
0.00143408 -0.000367435 -7.90439e-06
-0.000367435 0.000327887 5.42628e-06
-7.90439e-06 5.42628e-06 6.21907e-05
0.00155873 -0.000499841 -1.38384e-07
-0.000499841 0.000329449 9.27209e-07
-1.38384e-07 9.27209e-07 4.83552e-06
0.00173397 -0.000597609 1.43222e-06
-0.000597609 0.00037311 -3.63551e-08
1.43222e-06 -3.63551e-08 1.55173e-05
0.000828433 -0.000215307 -6.60479e-06
-0.000215307 0.00010851 5.4325e-06
-6.60479e-06 5.4325e-06 -9.14451e-05
0.00107527 -0.000297971 2.53899e-07
-0.000297971 0.000165829 -9.77131e-07
2.53899e-07 -9.77131e-07 -7.0619e-05
0.000918172 -0.00035709 1.55595e-06
-0.00035709 3.42235e-05 -1.37501e-06
1.55595e-06 -1.37501e-06 -0.000243177
0.000412814 -9.16388e-05 -1.68843e-05
-9.16388e-05 -8.95132e-05 1.4111e-05
-1.68843e-05 1.4111e-05 -0.000166004
0.0006619 -0.000165535 1.33976e-07
-0.000165535 8.89278e-05 9.54633e-07
1.33976e-07 9.54633e-07 -0.00012722
0.000949197 -0.000321282 2.21921e-06
-0.000321282 0.000192624 -3.13077e-07
2.21921e-06 -3.13077e-07 -5.21408e-05
0.00366754 0.000181894 -7.35442e-05
0.000181894 0.00198427 4.22519e-06
-7.35442e-05 4.22519e-06 0.00196645
0.000500551 -3.03612e-05 7.68295e-07
-3.03612e-05 -1.64277e-05 -4.94849e-07
7.68295e-07 -4.94849e-07 -7.936e-05
0.00155431 -0.000173495 2.61947e-06
-0.000173495 0.000653841 -6.11713e-06
2.61947e-06 -6.11713e-06 0.000460671
0.00213139 0.000117659 4.00544e-05
0.000117659 0.00101784 1.13102e-06
4.00544e-05 1.13102e-06 0.00100238
0.000623213 7.49558e-07 6.14755e-06
7.49558e-07 5.82133e-05 -1.03988e-05
6.14755e-06 -1.03988e-05 9.46356e-06
0.00310979 0.000130018 6.20648e-05
0.000130018 0.00161431 -3.68115e-06
6.20648e-05 -3.68115e-06 0.0016119
0.0012343 0.000251861 6.18049e-06
0.000251861 0.000375165 1.29631e-06
6.18049e-06 1.29631e-06 0.000187571
0.000482448 0.000111126 -1.3489e-06
0.000111126 -1.5268e-05 -1.59397e-07
-1.3489e-06 -1.59397e-07 -0.000174754
0.000571073 0.000128548 1.66625e-06
0.000128548 8.11914e-05 -4.18716e-06
1.66625e-06 -4.18716e-06 -0.000100616
0.000595014 0.000118086 -1.83138e-06
0.000118086 0.000113032 2.91058e-06
-1.83138e-06 2.91058e-06 -5.85162e-05
0.000628904 7.93529e-05 5.24546e-07
7.93529e-05 0.000123262 3.36103e-07
5.24546e-07 3.36103e-07 -4.80137e-05
0.000787951 6.73702e-05 4.63374e-07
6.73702e-05 0.000173206 -7.5343e-06
4.63374e-07 -7.5343e-06 5.24739e-05
0.000579193 1.02072e-05 -3.59105e-06
1.02072e-05 3.15378e-05 -1.01472e-05
-3.59105e-06 -1.01472e-05 -8.31547e-06
0.000615958 3.17197e-05 4.03784e-07
3.17197e-05 7.63397e-05 -7.52794e-08
4.03784e-07 -7.52794e-08 -2.93607e-05
0.000283917 3.94717e-05 -3.72452e-06
3.94717e-05 -0.000117494 2.40236e-06
-3.72452e-06 2.40236e-06 -0.000253868
0.00277723 -9.88224e-05 -5.34217e-05
-9.88224e-05 0.00139566 -4.26217e-06
-5.34217e-05 -4.26217e-06 0.00140131
0.000456464 -4.13637e-07 7.63497e-07
-4.13637e-07 -4.70573e-05 -2.26133e-07
7.63497e-07 -2.26133e-07 -7.92389e-05
0.000554667 3.21916e-05 -2.26097e-06
3.21916e-05 3.61066e-05 4.2707e-06
-2.26097e-06 4.2707e-06 -5.76028e-05
0.0026175 -8.54061e-05 -6.36586e-06
-8.54061e-05 0.00128998 4.89507e-07
-6.36586e-06 4.89507e-07 0.00129788
0.000440089 -2.00769e-05 -7.68344e-08
-2.00769e-05 -6.23021e-05 6.66742e-06
-7.68344e-08 6.66742e-06 -8.95045e-05
0.00246816 -6.80149e-05 2.82582e-05
-6.80149e-05 0.00119154 4.65649e-06
2.82582e-05 4.65649e-06 0.00120265
0.000434292 0.00022049 -0.00058263
0.00022049 0.00304988 -3.18342e-05
-0.00058263 -3.18342e-05 0.0012164
-0.00517225 0.000160036 3.58993e-05
0.000160036 0.00375399 4.48477e-06
3.58993e-05 4.48477e-06 -0.001493
0.00542859 0.000102625 -0.000163789
0.000102625 0.00311624 -4.21838e-05
-0.000163789 -4.21838e-05 0.00151945
0.000325961 4.99266e-05 1.14032e-06
4.99266e-05 -9.35189e-05 -5.43e-06
1.14032e-06 -5.43e-06 -0.000240997
0.000866864 7.49772e-05 5.43921e-06
7.49772e-05 0.000267865 4.32167e-06
5.43921e-06 4.32167e-06 4.40781e-05
0.00253987 0.000464196 -2.46951e-06
0.000464196 0.0012375 3.09104e-06
-2.46951e-06 3.09104e-06 0.000967073
0.00202628 0.000523276 6.43744e-06
0.000523276 0.000785931 -1.07692e-06
6.43744e-06 -1.07692e-06 0.000425462
0.000342867 0.000242254 -2.07918e-07
0.000242254 -7.71543e-07 -3.39166e-06
-2.07918e-07 -3.39166e-06 -0.000281863
0.000448432 0.000104122 -4.5693e-06
0.000104122 0.000105708 7.36928e-06
-4.5693e-06 7.36928e-06 -0.000125464
0.000602107 0.00014473 9.7609e-06
0.00014473 0.000131281 1.02055e-05
9.7609e-06 1.02055e-05 -0.000103212
0.000436912 0.000283616 -6.73768e-06
0.000283616 9.70138e-05 -3.28986e-06
-6.73768e-06 -3.28986e-06 -0.000252919
-0.000498573 0.000348332 5.89499e-06
0.000348332 -0.000713528 -7.81105e-06
5.89499e-06 -7.81105e-06 -0.000991622
0.00212967 0.000641848 -8.60001e-07
0.000641848 0.000738179 1.54217e-05
-8.60001e-07 1.54217e-05 0.000565218
0.00130441 0.000720709 2.04387e-05
0.000720709 -2.95676e-05 1.68753e-06
2.04387e-05 1.68753e-06 -0.000187827
0.00143314 0.000517593 -8.24829e-06
0.000517593 0.000505528 -2.35029e-06
-8.24829e-06 -2.35029e-06 0.000304246
0.00172804 0.000241033 -7.92563e-06
0.000241033 0.00088832 2.05459e-05
-7.92563e-06 2.05459e-05 0.000646749
0.0133342 0.00187453 -9.3096e-05
0.00187453 0.0021395 6.54684e-05
-9.3096e-05 6.54684e-05 0.000742329
0.000769676 -0.00140719 -0.000417851
-0.00140719 0.003157 -0.000159346
-0.000417851 -0.000159346 0.000568959
-0.000915161 -0.00237512 0.000478065
-0.00237512 0.00428876 0.000131463
0.000478065 0.000131463 -0.000240624
0.00314383 -0.00221205 0.000197929
-0.00221205 0.00166883 0.000291329
0.000197929 0.000291329 -0.000439924
0.0127466 0.00323357 -6.96383e-05
0.00323357 0.0046525 -4.23761e-05
-6.96383e-05 -4.23761e-05 0.000805739
-0.0027311 0.000182342 -5.78666e-05
0.000182342 -0.000490489 -4.86593e-05
-5.78666e-05 -4.86593e-05 -0.000738391
0.0018737 0.00138791 -3.53325e-05
0.00138791 0.000479837 -1.3013e-05
-3.53325e-05 -1.3013e-05 0.000948685
0.0162526 0.00304834 2.01239e-05
0.00304834 0.00437696 3.40992e-05
2.01239e-05 3.40992e-05 0.00213596
0.0062982 0.00272938 -3.41872e-05
0.00272938 0.000401967 -8.71366e-05
-3.41872e-05 -8.71366e-05 0.000411845
0.00187477 0.000997603 1.1429e-05
0.000997603 0.000271205 -4.20508e-06
1.1429e-05 -4.20508e-06 4.61288e-05
0.00149532 0.000769608 7.64919e-06
0.000769608 0.000357219 -1.98418e-06
7.64919e-06 -1.98418e-06 7.61826e-05
0.00162799 0.000487537 -2.19387e-05
0.000487537 0.000692145 4.13528e-06
-2.19387e-05 4.13528e-06 0.000523637
0.00266673 0.00126862 -5.64298e-05
0.00126862 0.000804114 -2.09587e-05
-5.64298e-05 -2.09587e-05 0.000191913
0.00177772 0.00146463 4.47465e-05
0.00146463 -0.000513829 2.70877e-05
4.47465e-05 2.70877e-05 -0.000819844
0.00152889 -0.00035952 -8.80861e-05
-0.00035952 -0.00425921 4.01948e-05
-8.80861e-05 4.01948e-05 -0.00454049
0.00125079 -0.00120232 6.89508e-06
-0.00120232 0.0016654 -1.38343e-05
6.89508e-06 -1.38343e-05 0.00127459
-0.00958237 -0.000151179 0.000248006
-0.000151179 0.00477213 -2.17809e-05
0.000248006 -2.17809e-05 -0.000152793
0.000160632 -0.00129538 -3.63346e-05
-0.00129538 -0.000661981 4.07553e-06
-3.63346e-05 4.07553e-06 -0.00128579
0.00394711 -0.00225286 2.66844e-05
-0.00225286 0.000211998 3.36838e-05
2.66844e-05 3.36838e-05 -3.12023e-05
0.00157892 -0.00019435 0.000622567
-0.00019435 0.00330832 -0.000132331
0.000622567 -0.000132331 0.00169135
0.0129073 -0.00170819 -0.000224144
-0.00170819 0.00170196 0.000105551
-0.000224144 0.000105551 0.000250466
0.00158717 -0.00106626 -3.24013e-05
-0.00106626 -9.70488e-05 -8.41031e-07
-3.24013e-05 -8.41031e-07 -0.000331116
0.0104805 -4.00847e-05 -0.00015456
-4.00847e-05 -0.000203667 4.42561e-05
-0.00015456 4.42561e-05 -0.00120162
0.006416 -0.00153025 9.84085e-05
-0.00153025 -0.000101894 1.48916e-05
9.84085e-05 1.48916e-05 0.000232454
0.00462638 -0.00101032 7.17782e-05
-0.00101032 0.00120569 -2.8057e-05
7.17782e-05 -2.8057e-05 0.000914836
0.00303531 -0.000597608 -5.09541e-05
-0.000597608 -0.00113009 1.89498e-05
-5.09541e-05 1.89498e-05 -0.000394813
-0.00532185 -1.31708e-05 -6.22923e-07
-1.31708e-05 -0.00356113 3.44208e-06
-6.22923e-07 3.44208e-06 -0.0035135
0.00159163 -0.000630638 -1.06163e-05
-0.000630638 -0.000138289 7.98318e-07
-1.06163e-05 7.98318e-07 -0.000169057
0.00304491 -0.000620762 2.95334e-05
-0.000620762 0.000437189 -1.13101e-05
2.95334e-05 -1.13101e-05 0.00048864
0.00111897 -0.000676675 -7.69034e-06
-0.000676675 -0.000204758 7.35134e-06
-7.69034e-06 7.35134e-06 -0.000500327
0.0019722 -0.000652631 -2.84727e-06
-0.000652631 -1.55821e-05 2.77325e-06
-2.84727e-06 2.77325e-06 -0.000194326
0.00226268 -0.000530071 4.57983e-06
-0.000530071 1.58412e-05 -5.76921e-07
4.57983e-06 -5.76921e-07 -2.96624e-05
0.0022468 -0.000660899 -5.63936e-06
-0.000660899 0.000286876 8.52383e-06
-5.63936e-06 8.52383e-06 1.97689e-05
0.00202322 -0.00048483 1.99134e-07
-0.00048483 4.95921e-05 1.4105e-06
1.99134e-07 1.4105e-06 -8.18883e-05
0.00214349 -0.000467715 -8.58861e-07
-0.000467715 0.00010761 8.86931e-07
-8.58861e-07 8.86931e-07 2.2814e-05
0.00191649 -0.000459126 3.05396e-06
-0.000459126 0.000110452 6.05612e-06
3.05396e-06 6.05612e-06 -7.72007e-05
0.0019393 -0.000419059 -1.95612e-07
-0.000419059 7.76111e-05 1.29876e-06
-1.95612e-07 1.29876e-06 -5.69299e-05
0.00207627 -0.000444206 -2.47751e-06
-0.000444206 0.000164177 1.5962e-06
-2.47751e-06 1.5962e-06 3.56447e-05
0.00198551 -0.000397856 -4.10701e-06
-0.000397856 0.000184985 2.96584e-06
-4.10701e-06 2.96584e-06 4.67224e-05
0.00208879 -0.000403498 -1.19283e-06
-0.000403498 0.00027956 -1.61633e-06
-1.19283e-06 -1.61633e-06 0.000132329
0.00197196 -0.000392724 4.41766e-06
-0.000392724 0.0001692 6.66362e-06
4.41766e-06 6.66362e-06 1.49179e-05
0.00193829 -0.0004051 4.14059e-07
-0.0004051 0.000191015 -7.26225e-07
4.14059e-07 -7.26225e-07 1.47258e-05
0.00183457 -0.000416622 -2.8375e-06
-0.000416622 0.000137237 -3.26741e-06
-2.8375e-06 -3.26741e-06 -5.9915e-05
0.00188629 -0.000459588 -4.4257e-06
-0.000459588 0.000275543 -2.58576e-06
-4.4257e-06 -2.58576e-06 2.00049e-05
0.00193397 -0.000492512 -2.02933e-07
-0.000492512 0.00023183 -1.30959e-07
-2.02933e-07 -1.30959e-07 -2.09196e-05
0.00203046 -0.000498958 7.22918e-06
-0.000498958 0.000267193 3.49179e-06
7.22918e-06 3.49179e-06 2.08049e-05
0.00136725 -0.000391348 -8.92179e-06
-0.000391348 0.000172842 2.53616e-06
-8.92179e-06 2.53616e-06 -9.97605e-05
0.00166323 -0.000507633 -1.51539e-06
-0.000507633 0.000252765 -1.09261e-07
-1.51539e-06 -1.09261e-07 -5.37927e-05
0.00161431 -0.000551855 4.02309e-06
-0.000551855 0.000127812 1.06366e-06
4.02309e-06 1.06366e-06 -0.000188021
0.000728725 -0.000208263 -9.13219e-06
-0.000208263 -1.45631e-05 6.56302e-06
-9.13219e-06 6.56302e-06 -0.000209367
0.00120063 -0.000351017 1.93873e-06
-0.000351017 0.000177833 4.96918e-07
1.93873e-06 4.96918e-07 -8.60545e-05
0.00150954 -0.000489741 3.96394e-06
-0.000489741 0.000304258 1.77039e-07
3.96394e-06 1.77039e-07 -1.6758e-05
0.00049993 -0.000158473 -2.13928e-05
-0.000158473 -6.05659e-05 1.70897e-05
-2.13928e-05 1.70897e-05 -0.000159485
0.000726772 -0.000215533 -4.28721e-07
-0.000215533 5.25611e-05 5.68054e-07
-4.28721e-07 5.68054e-07 -0.000149586
0.000791529 -0.000269008 2.93864e-06
-0.000269008 -1.34612e-05 -2.50187e-06
2.93864e-06 -2.50187e-06 -0.000245477
0.00456838 0.000209115 -0.000106324
0.000209115 0.00255663 8.19026e-06
-0.000106324 8.19026e-06 0.00253004
0.000560795 -0.000106653 -5.55632e-07
-0.000106653 3.71093e-06 -8.71515e-07
-5.55632e-07 -8.71515e-07 -8.04661e-05
0.00109703 -0.00019494 3.93949e-06
-0.00019494 0.000359887 -4.0874e-06
3.93949e-06 -4.0874e-06 0.000137419
0.00397556 0.000164225 1.57606e-05
0.000164225 0.00217129 4.31333e-07
1.57606e-05 4.31333e-07 0.00215867
0.000584116 -4.93442e-05 1.3339e-05
-4.93442e-05 2.80767e-05 -1.27101e-05
1.3339e-05 -1.27101e-05 -3.87855e-05
0.00347811 0.000130939 9.45845e-05
0.000130939 0.00184826 -4.27032e-06
9.45845e-05 -4.27032e-06 0.0018459
0.000813281 0.000323045 3.64046e-06
0.000323045 3.88621e-05 -5.97441e-06
3.64046e-06 -5.97441e-06 -0.000231018
0.000874205 0.000227784 2.55334e-06
0.000227784 0.00015416 -1.07314e-06
2.55334e-06 -1.07314e-06 -3.23857e-05
5.03837e-06 0.000109969 3.99874e-06
0.000109969 -0.000308412 -7.92012e-07
3.99874e-06 -7.92012e-07 -0.00049232
-0.00065299 2.41019e-05 -3.35121e-06
2.41019e-05 -0.000697094 -1.05975e-06
-3.35121e-06 -1.05975e-06 -0.000847607
0.000349735 7.05313e-05 4.86873e-08
7.05313e-05 -6.90393e-05 1.15654e-06
4.86873e-08 1.15654e-06 -0.000242345
0.00082533 7.84501e-05 3.66404e-07
7.84501e-05 0.000191078 -8.00028e-06
3.66404e-07 -8.00028e-06 4.94375e-05
0.000356919 4.51241e-05 -1.81868e-06
4.51241e-05 -6.13652e-05 3.26683e-06
-1.81868e-06 3.26683e-06 -0.000217896
0.000566583 5.2678e-05 -1.34213e-07
5.2678e-05 4.30075e-05 -8.16108e-08
-1.34213e-07 -8.16108e-08 -7.58806e-05
0.00059096 1.24546e-05 -5.14748e-06
1.24546e-05 3.88662e-05 -1.23231e-05
-5.14748e-06 -1.23231e-05 -1.01458e-05
0.00304745 -0.000111125 -7.27414e-05
-0.000111125 0.00157162 -4.81236e-06
-7.27414e-05 -4.81236e-06 0.00157425
0.000453087 -6.98059e-07 1.04962e-06
-6.98059e-07 -4.30547e-05 -3.1634e-07
1.04962e-06 -3.1634e-07 -8.31824e-05
0.000553113 3.03621e-05 -2.14372e-06
3.03621e-05 4.12662e-05 6.17772e-06
-2.14372e-06 6.17772e-06 -6.46904e-05
0.00277852 -0.000103057 -7.13849e-06
-0.000103057 0.00139708 6.02427e-07
-7.13849e-06 6.02427e-07 0.00140129
0.000378641 -4.2443e-05 -3.99559e-06
-4.2443e-05 -9.02128e-05 7.80494e-06
-3.99559e-06 7.80494e-06 -0.00012446
0.00261049 -8.57274e-05 3.4965e-05
-8.57274e-05 0.00128509 4.555e-06
3.4965e-05 4.555e-06 0.00129278
0.013764 0.000522014 0.000385854
0.000522014 0.00231113 9.59545e-05
0.000385854 9.59545e-05 0.00165863
-0.00206872 -0.00207269 -0.000347332
-0.00207269 -0.00270497 -6.18828e-05
-0.000347332 -6.18828e-05 -0.00404016
-0.00854571 0.00110364 -0.000149786
0.00110364 0.00295034 -0.000106618
-0.000149786 -0.000106618 -0.00278247
0.000166677 2.18779e-05 1.84111e-05
2.18779e-05 -0.000153794 8.5645e-07
1.84111e-05 8.5645e-07 -0.000399099
0.00172134 0.000359377 -1.33696e-05
0.000359377 0.000751971 1.6353e-06
-1.33696e-05 1.6353e-06 0.000512895
0.00179183 0.000405532 -7.18975e-06
0.000405532 0.000840494 -2.61256e-06
-7.18975e-06 -2.61256e-06 0.000522191
0.00170538 0.000485303 7.79344e-07
0.000485303 0.000608875 4.0411e-07
7.79344e-07 4.0411e-07 0.000262613
0.00115356 0.000480172 8.67391e-06
0.000480172 0.000120375 1.25972e-05
8.67391e-06 1.25972e-05 -0.000221399
-0.000653932 0.000288346 1.43196e-05
0.000288346 -0.000821288 6.07025e-07
1.43196e-05 6.07025e-07 -0.00110749
-0.000162624 0.000232751 -8.05589e-06
0.000232751 -0.000195457 6.91466e-06
-8.05589e-06 6.91466e-06 -0.00057564
0.000141238 0.00042505 7.48123e-06
0.00042505 -0.000370723 -2.8674e-07
7.48123e-06 -2.8674e-07 -0.000679279
0.00214746 0.000637461 2.33151e-06
0.000637461 0.000802482 4.59327e-06
2.33151e-06 4.59327e-06 0.000582499
-0.000140874 0.000448324 6.99059e-06
0.000448324 -0.000654878 2.45704e-06
6.99059e-06 2.45704e-06 -0.000877476
0.00270252 0.000801988 2.73474e-06
0.000801988 0.000696414 8.39556e-06
2.73474e-06 8.39556e-06 0.000553558
0.00141746 0.000748183 1.49096e-05
0.000748183 3.26695e-05 5.43699e-06
1.49096e-05 5.43699e-06 -0.000203706
0.000804885 0.00065842 3.38687e-06
0.00065842 -0.000315321 -6.07231e-07
3.38687e-06 -6.07231e-07 -0.000432329
0.000664155 0.000430079 2.2027e-06
0.000430079 7.8304e-05 -2.80576e-05
2.2027e-06 -2.80576e-05 -0.000118241
0.00546312 0.00129308 1.15652e-05
0.00129308 -0.000653851 1.27048e-05
1.15652e-05 1.27048e-05 0.000311431
0.0127512 0.00197821 0.000217179
0.00197821 0.00155442 0.000108852
0.000217179 0.000108852 -0.000102613
0.00995968 -0.00302746 0.00033342
-0.00302746 0.00474892 -4.7337e-05
0.00033342 -4.7337e-05 0.0025837
0.00479603 0.00331864 0.000434974
0.00331864 -0.000696968 0.00025455
0.000434974 0.00025455 -0.00477942
0.000209913 0.000948781 -5.24268e-05
0.000948781 6.61785e-05 -6.01174e-06
-5.24268e-05 -6.01174e-06 0.000536287
0.00358538 0.00200006 -0.000110071
0.00200006 -0.000395133 -4.57523e-05
-0.000110071 -4.57523e-05 -0.000115963
0.00554371 0.00172942 7.17193e-05
0.00172942 0.00113622 2.40056e-05
7.17193e-05 2.40056e-05 0.000922928
0.00376481 0.00124135 1.57668e-05
0.00124135 0.00109163 6.1502e-06
1.57668e-05 6.1502e-06 0.000832778
-8.77973e-05 0.00056752 -2.20246e-05
0.00056752 -0.000436158 1.14928e-05
-2.20246e-05 1.14928e-05 -0.000674641
0.0056704 0.00189049 -0.000162883
0.00189049 0.00126926 -1.92145e-05
-0.000162883 -1.92145e-05 0.000885668
0.00289469 -0.000378303 1.09429e-05
-0.000378303 7.85936e-05 3.16206e-06
1.09429e-05 3.16206e-06 0.000263065
0.0108709 -0.000462319 -2.8516e-05
-0.000462319 0.00185515 1.79721e-06
-2.8516e-05 1.79721e-06 0.00145601
-0.0117145 -0.00185916 0.00056728
-0.00185916 -0.00568977 5.8276e-06
0.00056728 5.8276e-06 -0.00586531
-0.000282428 -0.000855114 -8.22648e-05
-0.000855114 -0.00100655 1.57086e-05
-8.22648e-05 1.57086e-05 -0.00121707
0.00866425 -0.00197741 5.14955e-05
-0.00197741 0.000574691 8.61589e-05
5.14955e-05 8.61589e-05 0.00120553
0.00103036 -0.000288138 -0.000210149
-0.000288138 -0.00368805 3.84185e-05
-0.000210149 3.84185e-05 -0.005685
0.00199541 -0.000744629 1.94691e-05
-0.000744629 -0.000270483 1.80799e-06
1.94691e-05 1.80799e-06 -0.000285549
0.00442446 -0.000486341 -3.24907e-05
-0.000486341 -0.000293037 -5.81282e-06
-3.24907e-05 -5.81282e-06 0.000166597
0.00509151 -0.000688623 3.19823e-05
-0.000688623 0.00111965 -2.37216e-05
3.19823e-05 -2.37216e-05 0.00136175
0.00468439 -0.000295639 8.40377e-05
-0.000295639 0.00115453 5.58761e-06
8.40377e-05 5.58761e-06 0.00113772
-0.00252531 -0.000340843 -1.65856e-06
-0.000340843 -0.00245337 8.51795e-06
-1.65856e-06 8.51795e-06 -0.0022945
0.00197776 -0.000552389 -3.41286e-06
-0.000552389 -0.000169282 4.23249e-07
-3.41286e-06 4.23249e-07 -5.91222e-05
0.00208607 -0.000411391 1.95501e-05
-0.000411391 -0.000250998 -4.96767e-06
1.95501e-05 -4.96767e-06 -3.25165e-05
0.00177836 -0.000637301 -1.3789e-06
-0.000637301 -0.000119865 6.25238e-06
-1.3789e-06 6.25238e-06 -0.000300668
0.00220615 -0.000528321 1.53051e-06
-0.000528321 -1.18337e-05 1.10637e-06
1.53051e-06 1.10637e-06 -5.89038e-05
0.00220073 -0.000455086 1.19894e-06
-0.000455086 2.63563e-05 -2.47481e-07
1.19894e-06 -2.47481e-07 1.98721e-05
0.00202626 -0.00048388 9.16826e-07
-0.00048388 4.86378e-05 3.58501e-06
9.16826e-07 3.58501e-06 -7.90288e-05
0.0020736 -0.000457232 3.85648e-07
-0.000457232 7.8633e-05 3.84674e-07
3.85648e-07 3.84674e-07 -5.7687e-06
0.00206316 -0.000409287 -3.19722e-06
-0.000409287 6.59228e-05 5.14798e-07
-3.19722e-06 5.14798e-07 -8.77032e-06
0.0019601 -0.000422496 3.79405e-06
-0.000422496 8.70369e-05 2.03552e-06
3.79405e-06 2.03552e-06 -4.70643e-05
0.00199117 -0.000436317 -1.2189e-07
-0.000436317 0.000130487 1.88576e-07
-1.2189e-07 1.88576e-07 2.78502e-06
0.00190365 -0.000398011 3.83192e-09
-0.000398011 0.000110965 3.37948e-07
3.83192e-09 3.37948e-07 -1.87995e-05
0.00190291 -0.000398365 5.72705e-07
-0.000398365 0.000127724 3.105e-06
5.72705e-07 3.105e-06 -9.36224e-06
0.00200909 -0.000394251 -2.0787e-06
-0.000394251 0.000225935 3.70513e-07
-2.0787e-06 3.70513e-07 8.26058e-05
0.00201983 -0.000398393 -5.92062e-07
-0.000398393 0.000242413 -1.58753e-06
-5.92062e-07 -1.58753e-06 7.60838e-05
0.00194355 -0.000404461 4.72703e-06
-0.000404461 0.000193374 3.19921e-06
4.72703e-06 3.19921e-06 1.72442e-05
0.00189434 -0.000422018 7.08164e-08
-0.000422018 0.000174688 -3.73337e-07
7.08164e-08 -3.73337e-07 -2.40838e-05
0.00192129 -0.000408412 -1.48147e-06
-0.000408412 0.000252286 -2.26765e-06
-1.48147e-06 -2.26765e-06 3.7303e-05
0.00149893 -0.000377218 -8.65322e-06
-0.000377218 0.000153456 8.61514e-07
-8.65322e-06 8.61514e-07 -9.43435e-05
0.00183649 -0.000459739 -8.50516e-07
-0.000459739 0.000245615 -7.71487e-07
-8.50516e-07 -7.71487e-07 -1.37302e-05
0.00199257 -0.000499416 4.63613e-06
-0.000499416 0.00026983 1.74557e-06
4.63613e-06 1.74557e-06 1.46776e-05
0.00083825 -0.000223643 -1.23533e-05
-0.000223643 -1.49056e-05 7.6473e-06
-1.23533e-05 7.6473e-06 -0.000211089
0.00137801 -0.000389796 -1.14482e-07
-0.000389796 0.000181805 4.84993e-07
-1.14482e-07 4.84993e-07 -8.94192e-05
0.00158055 -0.000496291 2.80533e-06
-0.000496291 0.000207985 6.5124e-07
2.80533e-06 6.5124e-07 -9.77467e-05
0.000437316 -0.000172236 -2.10625e-05
-0.000172236 -0.000119902 1.73689e-05
-2.10625e-05 1.73689e-05 -0.000227612
0.000803761 -0.000216196 3.49426e-07
-0.000216196 3.09336e-05 1.0934e-07
3.49426e-07 1.0934e-07 -0.000166783
0.000924623 -0.000329531 8.47609e-06
-0.000329531 3.50185e-06 -2.71951e-06
8.47609e-06 -2.71951e-06 -0.000257491
0.00559968 0.000145238 -0.000179226
0.000145238 0.00315889 1.01032e-05
-0.000179226 1.01032e-05 0.00314853
0.00048132 -0.00016637 -3.72759e-07
-0.00016637 -7.2492e-05 4.12071e-08
-3.72759e-07 4.12071e-08 -0.000173094
0.000615105 -0.000215729 8.2824e-06
-0.000215729 -1.17888e-05 -5.7618e-06
8.2824e-06 -5.7618e-06 -0.000214692
0.00489708 0.000137893 6.56206e-06
0.000137893 0.00273517 -2.85805e-07
6.56206e-06 -2.85805e-07 0.00272619
0.000448404 -0.000116227 1.75598e-05
-0.000116227 -6.28097e-05 -1.53584e-05
1.75598e-05 -1.53584e-05 -0.000150906
0.0042272 0.000111335 0.000147689
0.000111335 0.00231673 -1.03338e-05
0.000147689 -1.03338e-05 0.00231574
0.000956731 0.000397599 -4.75859e-06
0.000397599 3.04207e-05 -9.65136e-07
-4.75859e-06 -9.65136e-07 -0.000270848
0.00164968 0.000405577 -7.48203e-07
0.000405577 0.000555914 -1.34397e-06
-7.48203e-07 -1.34397e-06 0.000272114
0.000408576 0.000209763 -1.48467e-06
0.000209763 -0.000189412 -1.89822e-06
-1.48467e-06 -1.89822e-06 -0.00041012
0.000670952 0.000223902 -4.83445e-06
0.000223902 4.80092e-05 -2.44083e-06
-4.83445e-06 -2.44083e-06 -0.000145923
-0.000113417 0.000113439 7.00392e-07
0.000113439 -0.000386222 -7.86332e-07
7.00392e-07 -7.86332e-07 -0.00057474
0.00116623 0.000217148 -3.01192e-06
0.000217148 0.0004183 -5.92495e-06
-3.01192e-06 -5.92495e-06 0.000224079
-1.46594e-05 3.84968e-05 -1.63535e-06
3.84968e-05 -0.000301797 1.59614e-06
-1.63535e-06 1.59614e-06 -0.000468623
0.000710702 8.68758e-05 3.24133e-07
8.68758e-05 0.000125162 -3.47343e-07
3.24133e-07 -3.47343e-07 -1.68977e-05
0.000703057 3.1547e-05 -8.81569e-06
3.1547e-05 0.000105393 -1.42198e-05
-8.81569e-06 -1.42198e-05 4.6464e-05
0.000577265 3.29909e-05 -1.59888e-06
3.29909e-05 5.62928e-05 8.54779e-06
-1.59888e-06 8.54779e-06 -6.37249e-05
0.000522609 1.70577e-05 2.17163e-07
1.70577e-05 -1.26056e-07 -1.59231e-07
2.17163e-07 -1.59231e-07 -4.85426e-05
0.00345133 -0.00012662 -9.31512e-05
-0.00012662 0.00183218 -5.49276e-06
-9.31512e-05 -5.49276e-06 0.00183043
0.00301623 -0.000121358 -7.68924e-06
-0.000121358 0.0015537 7.09454e-07
-7.68924e-06 7.09454e-07 0.0015534
0.000376417 1.98112e-05 4.27043e-06
1.98112e-05 -8.96753e-05 9.92668e-06
4.27043e-06 9.92668e-06 -0.000128486
0.00271939 -0.000102459 4.27353e-05
-0.000102459 0.00136043 4.33149e-06
4.27353e-05 4.33149e-06 0.00136447
0.00400069 0.000126368 8.06345e-05
0.000126368 -0.000915464 2.20655e-05
8.06345e-05 2.20655e-05 0.000166093
0.00415993 -0.000843706 0.000128135
-0.000843706 -0.00361719 6.25373e-05
0.000128135 6.25373e-05 -0.0047442
0.0107216 -0.00221427 -0.000169878
-0.00221427 0.00400624 -7.80024e-05
-0.000169878 -7.80024e-05 0.00358393
0.00123693 0.000499531 8.92873e-06
0.000499531 -6.55843e-06 7.20355e-06
8.92873e-06 7.20355e-06 -0.000310319
0.00350512 0.000590804 -6.10761e-06
0.000590804 0.00184197 6.93742e-06
-6.10761e-06 6.93742e-06 0.00148635
0.00132173 0.00044079 -3.64074e-07
0.00044079 0.000394072 -1.26187e-06
-3.64074e-07 -1.26187e-06 6.24573e-05
0.00117716 0.000494972 3.13299e-06
0.000494972 0.000272106 1.40467e-06
3.13299e-06 1.40467e-06 -5.67234e-05
0.0013949 0.000505371 -2.21484e-06
0.000505371 0.000280578 2.63222e-06
-2.21484e-06 2.63222e-06 -7.24692e-05
0.00138825 0.00058936 1.64409e-05
0.00058936 0.000217006 1.48937e-05
1.64409e-05 1.48937e-05 -9.39003e-05
0.00185258 0.000608102 -2.61911e-05
0.000608102 0.000625403 -4.27529e-06
-2.61911e-05 -4.27529e-06 0.000259848
0.000848732 0.000521438 1.57781e-05
0.000521438 9.02572e-05 -1.8277e-05
1.57781e-05 -1.8277e-05 -0.00013716
0.00125502 0.000609327 2.77096e-06
0.000609327 0.000127134 -2.45879e-06
2.77096e-06 -2.45879e-06 -0.000123375
0.0016111 0.00069701 5.10956e-06
0.00069701 4.45498e-05 1.64364e-06
5.10956e-06 1.64364e-06 -1.64619e-05
0.00173573 0.000732176 1.34819e-05
0.000732176 0.000106619 6.74393e-07
1.34819e-05 6.74393e-07 -0.000142832
0.00160403 0.000665015 2.20873e-05
0.000665015 9.07448e-05 1.46901e-05
2.20873e-05 1.46901e-05 -8.21238e-05
0.000978354 0.00070658 -4.41325e-06
0.00070658 -0.000206572 -5.1808e-06
-4.41325e-06 -5.1808e-06 -0.000428989
0.000780805 0.000646709 -9.8713e-06
0.000646709 -0.000321455 -1.40107e-05
-9.8713e-06 -1.40107e-05 -0.00042017
0.00133511 0.000643748 4.37285e-05
0.000643748 -0.000795732 3.79191e-05
4.37285e-05 3.79191e-05 -0.000597451
0.0058778 0.00135658 -8.29555e-05
0.00135658 -0.000806409 -2.42918e-05
-8.29555e-05 -2.42918e-05 0.000211798
0.00367858 0.00127379 0.000448162
0.00127379 -0.00342227 6.85477e-05
0.000448162 6.85477e-05 -0.00530502
0.000675693 0.00149338 -0.000106975
0.00149338 -0.00135362 -3.97606e-05
-0.000106975 -3.97606e-05 -0.000970955
0.00405089 0.00139964 -3.22396e-05
0.00139964 0.00072869 -8.08487e-06
-3.22396e-05 -8.08487e-06 0.000570584
0.0039702 0.00126801 -0.000119074
0.00126801 0.00113911 -3.20208e-05
-0.000119074 -3.20208e-05 0.000872683
0.00279643 -0.000269862 -4.98068e-05
-0.000269862 -0.000210749 -2.21675e-05
-4.98068e-05 -2.21675e-05 3.25493e-05
0.000198674 -0.000206851 5.50763e-05
-0.000206851 -0.000481202 1.26689e-05
5.50763e-05 1.26689e-05 -6.31317e-05
0.00202487 0.000853388 0.000156751
0.000853388 -0.00447881 -4.78907e-06
0.000156751 -4.78907e-06 -0.00468251
-0.000730358 -0.000522271 -3.25332e-05
-0.000522271 -0.0017106 5.08385e-05
-3.25332e-05 5.08385e-05 -0.001518
0.0059997 -0.000514649 -0.000120982
-0.000514649 0.000630469 3.67123e-05
-0.000120982 3.67123e-05 0.000675689
0.00249192 -0.000508979 -2.24926e-05
-0.000508979 -0.00024758 1.05429e-05
-2.24926e-05 1.05429e-05 4.86256e-05
0.00403341 -0.000325908 -1.79968e-06
-0.000325908 0.000693239 -3.28731e-06
-1.79968e-06 -3.28731e-06 0.000722058
0.00231997 -0.000299879 4.73469e-05
-0.000299879 -0.000215773 -7.21271e-06
4.73469e-05 -7.21271e-06 8.48508e-05
0.0035216 -8.93941e-05 3.47405e-05
-8.93941e-05 0.00105759 -1.54627e-06
3.47405e-05 -1.54627e-06 0.0010303
0.000865081 -0.000470209 -2.548e-05
-0.000470209 -0.000780272 1.08537e-05
-2.548e-05 1.08537e-05 -0.00061469
0.00199698 -0.000424988 -1.03618e-06
-0.000424988 -0.000327792 2.04797e-06
-1.03618e-06 2.04797e-06 -0.000115939
0.00226792 -0.000379037 3.41765e-06
-0.000379037 -0.00014426 -1.68287e-06
3.41765e-06 -1.68287e-06 2.82623e-05
0.00214295 -0.000521352 -2.21138e-06
-0.000521352 -3.67189e-05 2.87866e-06
-2.21138e-06 2.87866e-06 -8.36225e-05
0.00219315 -0.000450525 2.23911e-07
-0.000450525 3.13794e-05 -1.87183e-07
2.23911e-07 -1.87183e-07 2.59391e-05
0.00215016 -0.000365921 -1.33801e-06
-0.000365921 1.94823e-05 -4.89423e-07
-1.33801e-06 -4.89423e-07 8.03083e-06
0.00199764 -0.000445555 4.19414e-07
-0.000445555 4.63418e-05 6.49598e-07
4.19414e-07 6.49598e-07 -3.61875e-05
0.00205318 -0.000415634 -7.80464e-07
-0.000415634 6.82232e-05 1.65448e-07
-7.80464e-07 1.65448e-07 -8.26104e-06
0.00196534 -0.000358643 -2.01116e-06
-0.000358643 8.29557e-05 8.92962e-07
-2.01116e-06 8.92962e-07 -1.57492e-05
0.00190604 -0.00042827 1.11324e-06
-0.00042827 9.66178e-05 -7.92333e-07
1.11324e-06 -7.92333e-07 -3.00785e-05
0.00188132 -0.000397118 1.13535e-06
-0.000397118 9.34895e-05 -5.17362e-07
1.13535e-06 -5.17362e-07 -3.69578e-05
0.00189953 -0.000372577 5.30334e-07
-0.000372577 0.000125252 -1.47522e-06
5.30334e-07 -1.47522e-06 -1.56179e-05
0.00193261 -0.00038524 -2.24288e-06
-0.00038524 0.000174562 2.82902e-06
-2.24288e-06 2.82902e-06 3.512e-05
0.00206016 -0.000398203 -1.89316e-06
-0.000398203 0.000261766 6.10095e-07
-1.89316e-06 6.10095e-07 9.9443e-05
0.00199571 -0.000383798 -1.09103e-06
-0.000383798 0.000262984 -1.76443e-06
-1.09103e-06 -1.76443e-06 7.47054e-05
0.00195384 -0.000427877 3.04128e-06
-0.000427877 0.000211714 2.35821e-06
3.04128e-06 2.35821e-06 1.11877e-05
0.00192892 -0.000411122 6.44363e-07
-0.000411122 0.000257404 -5.40703e-07
6.44363e-07 -5.40703e-07 4.2044e-05
0.00161973 -0.000341007 -6.68315e-06
-0.000341007 0.000180166 1.00073e-06
-6.68315e-06 1.00073e-06 -4.09321e-05
0.00091607 -0.000225969 -1.35439e-05
-0.000225969 -2.59658e-05 7.12096e-06
-1.35439e-05 7.12096e-06 -0.000217568
0.00148027 -0.000373323 -1.13349e-06
-0.000373323 0.000149601 -1.45098e-07
-1.13349e-06 -1.45098e-07 -9.88263e-05
0.00178564 -0.000460028 2.75989e-06
-0.000460028 0.000214628 5.40485e-07
2.75989e-06 5.40485e-07 -4.8579e-05
0.000437693 -0.000212325 -2.22433e-05
-0.000212325 -0.000122112 1.79824e-05
-2.22433e-05 1.79824e-05 -0.00024608
0.000847712 -0.000227872 6.92852e-07
-0.000227872 -1.37533e-05 1.17266e-07
6.92852e-07 1.17266e-07 -0.000211706
0.00139223 -0.000389005 8.24182e-06
-0.000389005 0.000191991 -1.57073e-06
8.24182e-06 -1.57073e-06 -7.80262e-05
0.00622804 0.000102025 -0.000223796
0.000102025 0.00352443 1.36488e-05
-0.000223796 1.36488e-05 0.00352145
0.000477149 -0.000214454 -1.12824e-06
-0.000214454 -8.96148e-05 4.14202e-07
-1.12824e-06 4.14202e-07 -0.000206059
0.000787002 -0.000221433 1.10806e-05
-0.000221433 2.11027e-05 -7.11135e-06
1.10806e-05 -7.11135e-06 -0.000179655
0.00585253 0.000129082 -5.20845e-06
0.000129082 0.00331729 -7.32869e-07
-5.20845e-06 -7.32869e-07 0.00330617
0.000559084 -0.000188312 2.285e-05
-0.000188312 -2.29319e-05 -1.72714e-05
2.285e-05 -1.72714e-05 -0.000128595
0.00530781 0.000123325 0.000188894
0.000123325 0.00299193 -1.74982e-05
0.000188894 -1.74982e-05 0.00298185
0.0014126 0.000459314 -1.86478e-06
0.000459314 0.000172556 3.56682e-06
-1.86478e-06 3.56682e-06 -0.000130304
0.0014725 0.000454882 -3.87124e-06
0.000454882 0.000340143 -1.03757e-06
-3.87124e-06 -1.03757e-06 2.5303e-05
0.000969255 0.00031476 -6.49406e-06
0.00031476 4.40112e-05 -7.54752e-07
-6.49406e-06 -7.54752e-07 -0.000208281
0.0026716 0.000507258 9.54708e-07
0.000507258 0.00118728 3.96539e-06
9.54708e-07 3.96539e-06 0.000885816
0.000914225 0.000261129 -2.41628e-06
0.000261129 0.000130634 -1.49397e-06
-2.41628e-06 -1.49397e-06 -0.000101884
0.00114747 0.000223786 -6.95751e-06
0.000223786 0.00036027 -2.84839e-06
-6.95751e-06 -2.84839e-06 0.000152975
-0.000185299 0.000103483 -2.74402e-06
0.000103483 -0.000443958 -1.37722e-06
-2.74402e-06 -1.37722e-06 -0.000633388
0.000757034 0.000121319 -1.05687e-06
0.000121319 0.000155099 -3.77088e-07
-1.05687e-06 -3.77088e-07 -2.41188e-05
0.00061607 6.49329e-05 -1.45775e-05
6.49329e-05 4.02923e-05 -1.55659e-05
-1.45775e-05 -1.55659e-05 -3.38342e-05
0.000413382 5.52562e-05 3.09983e-07
5.52562e-05 -6.11441e-05 8.30448e-06
3.09983e-07 8.30448e-06 -0.000194034
0.000417184 2.64309e-05 -1.37473e-07
2.64309e-05 -6.63837e-05 -4.59615e-07
-1.37473e-07 -4.59615e-07 -0.000124049
0.00390386 -0.000138385 -0.000117149
-0.000138385 0.00212241 -7.24393e-06
-0.000117149 -7.24393e-06 0.00211619
0.000312703 2.15916e-05 5.2458e-06
2.15916e-05 -0.00012613 1.21224e-05
5.2458e-06 1.21224e-05 -0.000173644
0.00335165 -0.000137989 -7.41385e-06
-0.000137989 0.001772 7.32731e-07
-7.41385e-06 7.32731e-07 0.00176709
0.0029616 -0.000123919 5.18527e-05
-0.000123919 0.00152003 4.2692e-06
5.18527e-05 4.2692e-06 0.00151879
0.000481747 0.000105 6.90672e-06
0.000105 -0.00150659 1.57548e-05
6.90672e-06 1.57548e-05 -0.00105415
0.00523839 1.58427e-05 6.27881e-05
1.58427e-05 -0.000154977 1.20972e-05
6.27881e-05 1.20972e-05 0.00075847
0.0127791 0.000778039 -5.30898e-05
0.000778039 0.00261635 1.20923e-06
-5.30898e-05 1.20923e-06 0.00202781
0.0018714 0.000629414 2.0309e-06
0.000629414 0.000335305 4.39036e-06
2.0309e-06 4.39036e-06 3.36901e-05
0.00201024 0.000613632 -3.06172e-07
0.000613632 0.000285211 2.6671e-06
-3.06172e-07 2.6671e-06 5.75059e-06
0.00135545 0.000515492 4.11715e-08
0.000515492 7.78414e-05 -3.19167e-06
4.11715e-08 -3.19167e-06 -0.000225774
0.00261062 0.000659453 -4.05359e-06
0.000659453 0.00112203 6.2526e-06
-4.05359e-06 6.2526e-06 0.000761518
0.00172891 0.00053788 -4.19464e-06
0.00053788 0.000502045 -6.46484e-06
-4.19464e-06 -6.46484e-06 0.000135622
0.00175879 0.000634893 6.60666e-06
0.000634893 0.000405075 3.20195e-06
6.60666e-06 3.20195e-06 9.47872e-05
0.00167543 0.000673768 -1.03334e-06
0.000673768 2.85687e-05 -2.37766e-06
-1.03334e-06 -2.37766e-06 -0.000232278
0.0023827 0.00073949 -1.54631e-05
0.00073949 0.000732538 1.14995e-06
-1.54631e-05 1.14995e-06 0.000453678
0.00126657 0.000655496 -3.31037e-07
0.000655496 -0.000182183 1.19009e-05
-3.31037e-07 1.19009e-05 -0.000188609
0.00260812 0.000819713 -1.82095e-06
0.000819713 0.000596256 1.14268e-06
-1.82095e-06 1.14268e-06 0.000329138
0.00258411 0.000716806 -5.25864e-06
0.000716806 0.000413679 2.6393e-06
-5.25864e-06 2.6393e-06 0.000202773
0.00102309 0.000355004 2.6724e-05
0.000355004 -0.000388963 1.78119e-05
2.6724e-05 1.78119e-05 -0.000386855
0.000813398 0.000591814 1.05171e-05
0.000591814 -0.000308419 -2.39328e-06
1.05171e-05 -2.39328e-06 -0.000474795
0.00120709 0.000726083 -3.01954e-05
0.000726083 -9.02431e-05 -4.59144e-06
-3.01954e-05 -4.59144e-06 -0.000317311
0.00278455 0.000736617 2.67252e-06
0.000736617 -3.41295e-05 8.6821e-06
2.67252e-06 8.6821e-06 7.72822e-05
0.00590829 0.000943123 -9.84784e-06
0.000943123 -0.000714679 -3.11112e-05
-9.84784e-06 -3.11112e-05 -9.0855e-05
0.00373738 0.00117031 -2.50666e-05
0.00117031 0.000912693 -4.35489e-05
-2.50666e-05 -4.35489e-05 0.000812683
0.0012954 -5.80297e-05 2.68737e-05
-5.80297e-05 -0.000345512 1.67076e-06
2.68737e-05 1.67076e-06 -0.000263444
0.0022821 -0.000201278 -4.50327e-05
-0.000201278 -0.00037527 2.72815e-06
-4.50327e-05 2.72815e-06 -0.000222157
0.00225049 0.000273662 1.66674e-05
0.000273662 -0.000620664 -2.852e-06
1.66674e-05 -2.852e-06 -0.00039043
0.00035778 -0.000381226 -4.72481e-05
-0.000381226 -0.00135234 3.99051e-05
-4.72481e-05 3.99051e-05 -0.00104672
0.00312895 -0.000391968 -9.67459e-05
-0.000391968 0.000124217 -5.85192e-06
-9.67459e-05 -5.85192e-06 0.000172573
0.00236089 -0.000314117 7.45034e-06
-0.000314117 -0.000103967 -4.01455e-06
7.45034e-06 -4.01455e-06 0.000173885
0.002488 -8.78233e-05 -1.14784e-05
-8.78233e-05 0.000390095 4.55124e-07
-1.14784e-05 4.55124e-07 0.00037595
0.00228206 -0.000223034 8.91125e-06
-0.000223034 -1.92061e-05 -3.66294e-07
8.91125e-06 -3.66294e-07 5.973e-05
0.00222396 -7.94702e-06 7.51012e-06
-7.94702e-06 -1.08532e-05 1.12973e-06
7.51012e-06 1.12973e-06 8.46572e-06
0.00191183 -0.000444668 -1.3225e-05
-0.000444668 -0.00041477 4.41814e-06
-1.3225e-05 4.41814e-06 -0.000207735
0.00228177 -0.000387528 -2.38613e-06
-0.000387528 -0.000122858 5.89796e-07
-2.38613e-06 5.89796e-07 1.6937e-05
0.00222091 -0.000274876 2.29776e-07
-0.000274876 -4.67783e-05 -1.18288e-06
2.29776e-07 -1.18288e-06 3.92571e-06
0.00217967 -0.000447179 -2.96134e-06
-0.000447179 3.07341e-05 7.49004e-07
-2.96134e-06 7.49004e-07 2.51283e-05
0.00214423 -0.000362922 -1.58036e-07
-0.000362922 2.7656e-05 2.79819e-08
-1.58036e-07 2.79819e-08 1.18685e-05
0.0020659 -0.00030817 -1.55898e-06
-0.00030817 4.1003e-05 4.56481e-07
-1.55898e-06 4.56481e-07 -4.64247e-06
0.00204416 -0.000422334 4.31707e-07
-0.000422334 7.09402e-05 -1.03748e-06
4.31707e-07 -1.03748e-06 -7.66727e-06
0.00196178 -0.000356839 5.70264e-07
-0.000356839 7.74244e-05 -2.93833e-07
5.70264e-07 -2.93833e-07 -2.1405e-05
0.00196687 -0.000330015 -9.42502e-07
-0.000330015 0.000119753 9.31541e-08
-9.42502e-07 9.31541e-08 4.1609e-06
0.00185368 -0.000395909 1.89071e-06
-0.000395909 7.31787e-05 -1.19779e-06
1.89071e-06 -1.19779e-06 -5.79048e-05
0.00192625 -0.000374199 2.79427e-07
-0.000374199 0.000139757 -5.19045e-07
2.79427e-07 -5.19045e-07 -1.61035e-06
0.00189954 -0.000348987 -5.18815e-07
-0.000348987 0.000164009 -1.56443e-06
-5.18815e-07 -1.56443e-06 -8.81386e-07
0.00209569 -0.000397752 -1.40174e-06
-0.000397752 0.000277911 3.45568e-06
-1.40174e-06 3.45568e-06 0.000119617
0.00198261 -0.000383554 -5.81319e-07
-0.000383554 0.000255831 -1.0457e-07
-5.81319e-07 -1.0457e-07 6.86976e-05
0.0015977 -0.000311448 -5.34861e-06
-0.000311448 0.000130465 7.5992e-07
-5.34861e-06 7.5992e-07 -7.20602e-05
0.00194026 -0.000414008 3.37291e-06
-0.000414008 0.000264843 1.36193e-06
3.37291e-06 1.36193e-06 4.90791e-05
0.00164709 -0.000344454 -4.89765e-07
-0.000344454 0.000196987 2.12797e-08
-4.89765e-07 2.12797e-08 -2.35809e-05
0.000965705 -0.00021122 -1.4357e-05
-0.00021122 -3.02698e-05 6.73034e-06
-1.4357e-05 6.73034e-06 -0.00021281
0.000373512 -0.000188931 -1.99047e-05
-0.000188931 -0.000177046 1.67415e-05
-1.99047e-05 1.67415e-05 -0.00029785
0.000953077 -0.000229831 2.27647e-07
-0.000229831 -7.14819e-06 7.09921e-08
2.27647e-07 7.09921e-08 -0.000199649
0.0014669 -0.000369887 5.66168e-06
-0.000369887 0.000148806 -1.34423e-06
5.66168e-06 -1.34423e-06 -0.000100339
0.00646784 2.42654e-05 -0.000252579
2.42654e-05 0.00364892 1.63707e-05
-0.000252579 1.63707e-05 0.00365589
0.000445209 -0.000207509 -1.40641e-06
-0.000207509 -0.00012524 1.0156e-06
-1.40641e-06 1.0156e-06 -0.000244789
0.00089152 -0.000233174 1.23429e-05
-0.000233174 9.23492e-06 -6.7443e-06
1.23429e-05 -6.7443e-06 -0.000190584
0.00633221 7.64555e-05 -1.39982e-06
7.64555e-05 0.00358672 2.23775e-07
-1.39982e-06 2.23775e-07 0.00358467
0.000517958 -0.000219175 2.46889e-05
-0.000219175 -6.97504e-05 -1.79823e-05
2.46889e-05 -1.79823e-05 -0.0001863
0.00607047 0.000100194 0.000221754
0.000100194 0.00344296 -1.87837e-05
0.000221754 -1.87837e-05 0.00343574
0.00164874 0.00052049 -1.4359e-06
0.00052049 0.000178247 4.22866e-06
-1.4359e-06 4.22866e-06 -0.0001068
0.00145331 0.000471253 3.75234e-07
0.000471253 0.000195617 6.10571e-07
3.75234e-07 6.10571e-07 -0.000108795
0.00126115 0.000364575 -6.80754e-06
0.000364575 0.000152653 -1.05123e-07
-6.80754e-06 -1.05123e-07 -0.000108741
0.00172865 0.000484978 1.21007e-06
0.000484978 0.000490272 1.53104e-06
1.21007e-06 1.53104e-06 0.000167857
0.0011413 0.000323525 -1.58174e-06
0.000323525 0.000158619 1.70308e-07
-1.58174e-06 1.70308e-07 -9.28794e-05
0.000982374 0.000226178 -1.04092e-05
0.000226178 0.000181877 -3.94701e-06
-1.04092e-05 -3.94701e-06 -1.54298e-05
0.0013483 0.000306646 -1.95853e-06
0.000306646 0.000404583 -3.83523e-07
-1.95853e-06 -3.83523e-07 0.000161849
0.000690136 0.000197361 4.13298e-07
0.000197361 8.59797e-05 1.15399e-06
4.13298e-07 1.15399e-06 -0.000122238
0.0005581 0.000145817 -2.39011e-05
0.000145817 -1.15073e-05 -1.65243e-05
-2.39011e-05 -1.65243e-05 -0.000102022
0.000224886 7.26618e-05 4.13468e-07
7.26618e-05 -0.000169349 4.90589e-06
4.13468e-07 4.90589e-06 -0.000344405
0.000540749 5.61338e-05 -9.58582e-07
5.61338e-05 -4.97566e-07 -4.0454e-07
-9.58582e-07 -4.0454e-07 -7.13624e-05
0.00469034 -0.000152723 -0.000150419
-0.000152723 0.0026195 -1.06317e-05
-0.000150419 -1.06317e-05 0.00260676
0.000422426 2.28772e-05 7.2689e-06
2.28772e-05 -5.95399e-05 1.40204e-05
7.2689e-06 1.40204e-05 -0.000117335
0.00381113 -0.000159824 -7.15738e-06
-0.000159824 0.00207003 7.32365e-07
-7.15738e-06 7.32365e-07 0.00205834
0.0032709 -0.000145937 6.60992e-05
-0.000145937 0.00172332 4.50614e-06
6.60992e-05 4.50614e-06 0.00171588
0.000926235 0.000110993 2.30737e-05
0.000110993 -0.000546989 1.81164e-05
2.30737e-05 1.81164e-05 -0.000386882
0.00250057 0.000121127 -1.00072e-05
0.000121127 -0.0006852 -3.89358e-06
-1.00072e-05 -3.89358e-06 -0.000192304
0.00385675 0.000185143 0.000183973
0.000185143 -0.00142014 5.34484e-05
0.000183973 5.34484e-05 -7.73509e-06
0.00255894 0.00068006 -8.06719e-06
0.00068006 0.000549139 -5.98684e-07
-8.06719e-06 -5.98684e-07 0.000279781
0.00170527 0.000632331 -6.26912e-06
0.000632331 0.000221846 -4.40441e-06
-6.26912e-06 -4.40441e-06 -7.53611e-05
0.00207338 0.000510593 -6.80323e-07
0.000510593 0.00017765 4.03137e-06
-6.80323e-07 4.03137e-06 -3.5725e-05
0.00199751 0.000603416 1.11093e-06
0.000603416 0.000277336 3.53351e-07
1.11093e-06 3.53351e-07 6.59174e-07
0.00149343 0.000532941 -8.19986e-08
0.000532941 0.000172161 -9.70561e-06
-8.19986e-08 -9.70561e-06 -0.000131683
0.00189331 0.00053053 -2.85427e-06
0.00053053 8.11882e-06 8.35353e-07
-2.85427e-06 8.35353e-07 -0.000185231
0.00239699 0.00070956 -6.93046e-06
0.00070956 0.000749402 -3.68744e-06
-6.93046e-06 -3.68744e-06 0.000434681
0.00216282 0.000705489 -2.60386e-07
0.000705489 0.000324637 -5.27756e-07
-2.60386e-07 -5.27756e-07 5.55471e-05
0.0019894 0.000388905 -1.01341e-05
0.000388905 -9.11413e-05 1.86257e-07
-1.01341e-05 1.86257e-07 -0.000139955
0.00304123 0.000872197 -3.98611e-06
0.000872197 0.000828393 5.14995e-06
-3.98611e-06 5.14995e-06 0.00056051
0.00233351 0.000697405 -6.08113e-07
0.000697405 0.000271878 -4.84577e-07
-6.08113e-07 -4.84577e-07 6.07617e-05
0.000700736 0.00034845 3.49719e-06
0.00034845 -0.000532341 2.75415e-06
3.49719e-06 2.75415e-06 -0.000535007
-0.000660248 0.000469254 -2.09664e-05
0.000469254 -0.00107285 -7.005e-06
-2.09664e-05 -7.005e-06 -0.00121888
0.00341078 0.000807088 -9.58274e-05
0.000807088 0.000264913 -3.36754e-05
-9.58274e-05 -3.36754e-05 0.000304063
0.00203053 6.74113e-05 -1.53156e-06
6.74113e-05 -0.000156963 -8.76903e-07
-1.53156e-06 -8.76903e-07 -9.69391e-05
0.00249015 -6.52827e-05 6.86275e-06
-6.52827e-05 0.000427042 -3.64457e-08
6.86275e-06 -3.64457e-08 0.000490272
0.00229003 -0.000180343 -7.44544e-05
-0.000180343 -0.000295383 9.61596e-06
-7.44544e-05 9.61596e-06 -0.000177904
0.00224162 -0.000324525 -5.48651e-05
-0.000324525 -8.49431e-05 8.37342e-06
-5.48651e-05 8.37342e-06 0.000159936
0.00139659 -9.80827e-05 -1.00305e-05
-9.80827e-05 -0.000309137 2.58421e-06
-1.00305e-05 2.58421e-06 -0.000310329
0.00226625 -0.000221759 3.19041e-07
-0.000221759 -3.81612e-05 -1.60549e-06
3.19041e-07 -1.60549e-06 5.98932e-05
0.00226937 -8.57545e-06 -2.45865e-06
-8.57545e-06 -1.24772e-05 1.52686e-06
-2.45865e-06 1.52686e-06 1.43512e-05
0.00227265 -7.35982e-05 -1.06125e-09
-7.35982e-05 -1.8644e-05 -6.77643e-08
-1.06125e-09 -6.77643e-08 2.92363e-05
0.00229728 -0.000392673 -5.26509e-06
-0.000392673 -9.54798e-05 1.08164e-06
-5.26509e-06 1.08164e-06 1.2887e-05
0.00218534 -0.000264924 4.15279e-07
-0.000264924 -5.05582e-05 -2.31495e-07
4.15279e-07 -2.31495e-07 -7.0781e-06
0.00212864 -0.000207963 -2.72802e-07
-0.000207963 2.98505e-06 -2.37278e-07
-2.72802e-07 -2.37278e-07 1.58402e-05
0.00214246 -0.000360126 6.64553e-07
-0.000360126 3.83858e-05 1.66204e-07
6.64553e-07 1.66204e-07 1.85936e-05
0.0020586 -0.000305103 9.27737e-08
-0.000305103 4.17067e-05 1.56596e-07
9.27737e-08 1.56596e-07 -4.30889e-06
0.00203641 -0.000263563 -2.07687e-06
-0.000263563 0.000104919 6.73448e-07
-2.07687e-06 6.73448e-07 2.62712e-05
0.00195719 -0.000354934 2.52183e-06
-0.000354934 7.07747e-05 -1.22767e-06
2.52183e-06 -1.22767e-06 -2.81768e-05
0.00193171 -0.000327616 4.42933e-07
-0.000327616 9.57407e-05 -3.39653e-07
4.42933e-07 -3.39653e-07 -2.00288e-05
0.00189205 -0.000299647 -2.37453e-07
-0.000299647 0.000115004 -1.12031e-06
-2.37453e-07 -1.12031e-06 -2.16964e-05
0.00195855 -0.000376268 5.98228e-07
-0.000376268 0.000157542 3.43656e-07
5.98228e-07 3.43656e-07 1.56163e-05
0.00192749 -0.000350112 -3.91145e-07
-0.000350112 0.000182979 -1.29157e-07
-3.91145e-07 -1.29157e-07 1.80529e-05
0.00164278 -0.000283359 -3.34969e-06
-0.000283359 0.000120404 4.10614e-07
-3.34969e-06 4.10614e-07 -6.43085e-05
0.00197017 -0.000383232 6.34457e-07
-0.000383232 0.000248883 1.67788e-06
6.34457e-07 1.67788e-06 6.29488e-05
0.00162981 -0.000313567 -4.27109e-07
-0.000313567 0.000149756 9.36152e-08
-4.27109e-07 9.36152e-08 -5.25741e-05
0.000989151 -0.000190656 -1.44743e-05
-0.000190656 -3.53244e-05 6.00468e-06
-1.44743e-05 6.00468e-06 -0.000209458
0.00167218 -0.00034771 5.62791e-06
-0.00034771 0.000212496 -6.872e-07
5.62791e-06 -6.872e-07 -7.5022e-06
0.00100945 -0.000213 8.47163e-08
-0.000213 -6.48772e-06 1.00433e-07
8.47163e-08 1.00433e-07 -0.00018875
0.00265557 -0.000161315 -4.32469e-05
-0.000161315 0.00121127 1.08773e-05
-4.32469e-05 1.08773e-05 0.00111646
0.00199774 -8.29298e-05 -0.000230648
-8.29298e-05 0.000883081 2.9712e-05
-0.000230648 2.9712e-05 0.000864419
0.00158196 -0.000188615 -1.08731e-05
-0.000188615 0.000561793 -2.69151e-07
-1.08731e-05 -2.69151e-07 0.000450443
0.000984935 -0.000233363 1.34314e-05
-0.000233363 8.99171e-06 -6.55907e-06
1.34314e-05 -6.55907e-06 -0.000184393
0.00651684 7.36563e-06 -7.01825e-06
7.36563e-06 0.0036859 5.9668e-07
-7.01825e-06 5.9668e-07 0.00368928
0.000477211 -0.00023324 2.46121e-05
-0.00023324 -0.000106036 -1.76227e-05
2.46121e-05 -1.76227e-05 -0.000228025
0.00640953 5.56187e-05 0.000244629
5.56187e-05 0.0036391 -2.22344e-05
0.000244629 -2.22344e-05 0.00363447
0.00209318 0.00039097 2.83083e-07
0.00039097 0.000171225 8.40445e-07
2.83083e-07 8.40445e-07 9.05083e-06
0.00196822 0.000503144 2.52728e-06
0.000503144 0.000255779 4.63633e-06
2.52728e-06 4.63633e-06 1.3235e-05
0.00193381 0.000545387 1.21645e-07
0.000545387 0.00034472 1.7916e-07
1.21645e-07 1.7916e-07 5.81241e-05
0.00149046 0.000402383 -5.92225e-06
0.000402383 0.000203514 6.82994e-07
-5.92225e-06 6.82994e-07 -5.53239e-05
0.00151856 0.000487179 4.06534e-06
0.000487179 0.000231987 -2.05607e-06
4.06534e-06 -2.05607e-06 -7.51757e-05
0.00130528 0.000369442 -1.67486e-07
0.000369442 0.000177788 3.77841e-07
-1.67486e-07 3.77841e-07 -8.52647e-05
0.000870914 0.000219121 -1.1974e-05
0.000219121 3.37703e-05 -5.47256e-06
-1.1974e-05 -5.47256e-06 -0.000156334
0.001331 0.000333631 5.71549e-06
0.000333631 0.000285508 1.76644e-06
5.71549e-06 1.76644e-06 3.43349e-05
0.000697795 0.000201362 1.02853e-06
0.000201362 1.18679e-06 3.18728e-07
1.02853e-06 3.18728e-07 -0.000191144
0.00058231 0.000217308 -2.63848e-05
0.000217308 -1.14919e-05 -1.77962e-05
-2.63848e-05 -1.77962e-05 -0.000122742
0.000363924 0.000162769 3.04663e-06
0.000162769 -0.000118405 2.62067e-06
3.04663e-06 2.62067e-06 -0.000322615
0.000590393 0.000125269 -8.1931e-07
0.000125269 8.42168e-06 -7.00959e-07
-8.1931e-07 -7.00959e-07 -7.95832e-05
0.00557423 -0.000150351 -0.000193092
-0.000150351 0.00317191 -1.76232e-05
-0.000193092 -1.76232e-05 0.00315147
0.000328279 4.90061e-05 1.1272e-05
4.90061e-05 -0.000127057 1.55912e-05
1.1272e-05 1.55912e-05 -0.000193891
0.00437452 -0.000180442 -1.03602e-05
-0.000180442 0.00243043 9.47607e-07
-1.03602e-05 9.47607e-07 0.00241128
0.00366774 -0.000168284 8.43842e-05
-0.000168284 0.00198248 5.13437e-06
8.43842e-05 5.13437e-06 0.00196844
0.00215719 0.000199524 -4.29098e-06
0.000199524 -0.000105435 -4.49901e-07
-4.29098e-06 -4.49901e-07 -3.86782e-05
0.00208914 7.61917e-05 2.43045e-05
7.61917e-05 4.09436e-05 -2.81794e-06
2.43045e-05 -2.81794e-06 0.000198454
0.00526699 0.000185763 -0.000109157
0.000185763 0.000572733 -1.12126e-05
-0.000109157 -1.12126e-05 0.00107653
0.00202101 0.000460675 -5.02295e-06
0.000460675 0.00010545 1.40256e-06
-5.02295e-06 1.40256e-06 -7.24779e-05
0.00210338 0.000631609 -3.19325e-06
0.000631609 0.000309125 -1.88943e-07
-3.19325e-06 -1.88943e-07 4.68598e-05
0.00160971 0.00064153 -5.37159e-06
0.00064153 0.000147445 -8.75856e-06
-5.37159e-06 -8.75856e-06 -0.000145472
0.00220196 0.000505147 3.11436e-06
0.000505147 0.00027345 1.4024e-06
3.11436e-06 1.4024e-06 6.30596e-05
0.0019562 0.000592067 1.04996e-06
0.000592067 0.000253038 -3.6068e-06
1.04996e-06 -3.6068e-06 -2.08808e-05
0.00230963 0.000377445 -4.68421e-07
0.000377445 9.3301e-05 3.87467e-07
-4.68421e-07 3.87467e-07 3.30971e-05
0.00190323 0.000534079 -2.37063e-07
0.000534079 3.78811e-05 5.81085e-07
-2.37063e-07 5.81085e-07 -0.000156595
0.00266768 0.000739524 -3.88577e-06
0.000739524 0.00063247 -1.23269e-06
-3.88577e-06 -1.23269e-06 0.000352224
0.00201748 0.000385039 -3.53778e-07
0.000385039 -6.46973e-05 -5.24408e-07
-3.53778e-07 -5.24408e-07 -0.000112509
0.00213952 0.000679895 1.24933e-05
0.000679895 0.000153403 1.59491e-06
1.24933e-05 1.59491e-06 -5.93495e-05
0.0007227 0.000344549 -3.79719e-05
0.000344549 -0.000497801 -1.68459e-05
-3.79719e-05 -1.68459e-05 -0.000506217
0.00224808 7.39688e-05 2.54098e-07
7.39688e-05 -1.08095e-05 4.29812e-07
2.54098e-07 4.29812e-07 3.36847e-05
0.00219072 7.8751e-05 -1.98363e-06
7.8751e-05 -4.13967e-05 2.36598e-07
-1.98363e-06 2.36598e-07 1.28336e-05
0.00326452 -6.09125e-05 -4.11057e-05
-6.09125e-05 0.000953609 2.46108e-06
-4.11057e-05 2.46108e-06 0.000996976
0.00222833 -0.000217583 -1.50574e-05
-0.000217583 -7.33606e-05 2.40493e-06
-1.50574e-05 2.40493e-06 4.26441e-05
0.00231937 -5.64463e-06 -3.9765e-06
-5.64463e-06 -1.57838e-05 -2.88115e-06
-3.9765e-06 -2.88115e-06 1.83472e-05
0.00222998 -7.96368e-05 -5.62891e-07
-7.96368e-05 -6.3299e-05 -8.30827e-08
-5.62891e-07 -8.30827e-08 -7.51753e-06
0.00201434 -6.53889e-05 -4.14163e-07
-6.53889e-05 -1.07354e-05 3.08622e-07
-4.14163e-07 3.08622e-07 -2.43141e-06
0.00214637 -0.000253914 -9.64818e-08
-0.000253914 -5.50598e-05 6.51932e-07
-9.64818e-08 6.51932e-07 -1.87775e-05
0.0020839 -0.000211713 -1.63401e-07
-0.000211713 -1.58504e-05 -2.58166e-08
-1.63401e-07 -2.58166e-08 -8.44828e-06
0.00203931 -0.000180173 -1.5688e-06
-0.000180173 6.52855e-05 -8.07042e-08
-1.5688e-06 -8.07042e-08 2.25501e-05
0.00205333 -0.000302224 1.76828e-06
-0.000302224 4.37277e-05 -4.8537e-08
1.76828e-06 -4.8537e-08 -2.65833e-06
0.00198514 -0.000260555 3.34199e-07
-0.000260555 6.91592e-05 -7.04006e-08
3.34199e-07 -7.04006e-08 -9.58393e-06
0.00191154 -0.000238111 -7.15958e-07
-0.000238111 8.48521e-05 -8.71564e-07
-7.15958e-07 -8.71564e-07 -2.44237e-05
0.00189745 -0.000325157 1.83356e-06
-0.000325157 7.2236e-05 -6.56686e-07
1.83356e-06 -6.56686e-07 -4.36772e-05
0.00194959 -0.000302721 -2.88069e-07
-0.000302721 0.000149906 -1.18678e-08
-2.88069e-07 -1.18678e-08 1.28209e-05
0.00169594 -0.000244979 -2.16516e-06
-0.000244979 0.000118277 1.11382e-07
-2.16516e-06 1.11382e-07 -4.7471e-05
0.00195284 -0.000351127 3.48647e-07
-0.000351127 0.000200287 1.09857e-06
3.48647e-07 1.09857e-06 3.53271e-05
0.00167788 -0.000285526 -3.41398e-07
-0.000285526 0.000140713 3.32506e-08
-3.41398e-07 3.32506e-08 -4.37762e-05
0.00100824 -0.000170251 -1.38685e-05
-0.000170251 -4.05861e-05 4.99636e-06
-1.38685e-05 4.99636e-06 -0.000207717
0.00166164 -0.000315717 4.28e-06
-0.000315717 0.000168809 -5.981e-07
4.28e-06 -5.981e-07 -3.33353e-05
0.00103777 -0.000191939 -4.3671e-08
-0.000191939 -9.78641e-06 1.58485e-07
-4.3671e-08 1.58485e-07 -0.000183225
0.00266806 -0.000159772 -5.13835e-05
-0.000159772 0.00120867 1.03622e-05
-5.13835e-05 1.03622e-05 0.00112196
0.00105043 -0.000214969 1.44185e-05
-0.000214969 1.55659e-05 -6.37724e-06
1.44185e-05 -6.37724e-06 -0.000166485
0.00278892 -0.000201255 4.51797e-05
-0.000201255 0.00129278 -6.71372e-06
4.51797e-05 -6.71372e-06 0.00120509
0.00206287 -0.000121151 -0.000233123
-0.000121151 0.000929315 3.44694e-05
-0.000233123 3.44694e-05 0.000908629
0.00416703 -8.46505e-05 -0.00022857
-8.46505e-05 0.00223802 2.10114e-05
-0.00022857 2.10114e-05 0.00223022
0.00287159 -0.000257386 0.000146302
-0.000257386 0.00135794 -2.27659e-05
0.000146302 -2.27659e-05 0.00127024
0.00656411 -8.22515e-06 0.000260422
-8.22515e-06 0.00372379 -2.63733e-05
0.000260422 -2.63733e-05 0.00372311
0.0022927 0.000390596 -1.98041e-06
0.000390596 0.000287595 -1.38166e-07
-1.98041e-06 -1.38166e-07 0.000148342
0.00179142 0.000386508 2.9664e-06
0.000386508 9.95703e-05 1.7559e-06
2.9664e-06 1.7559e-06 -9.24354e-05
0.00207215 0.000382093 5.53629e-07
0.000382093 0.000163241 -1.80989e-06
5.53629e-07 -1.80989e-06 8.05748e-06
0.00163439 0.000392631 -4.6573e-06
0.000392631 0.000184543 1.22061e-06
-4.6573e-06 1.22061e-06 -5.31577e-05
0.0020502 0.000509109 6.58595e-07
0.000509109 0.000292542 3.84169e-07
6.58595e-07 3.84169e-07 4.92217e-05
0.00222278 0.000571162 1.64988e-06
0.000571162 0.000513594 -3.44294e-06
1.64988e-06 -3.44294e-06 0.000225226
0.00145735 0.000402442 1.85548e-07
0.000402442 0.000176437 4.16971e-07
1.85548e-07 4.16971e-07 -8.38478e-05
0.000932347 0.000241068 -1.37865e-05
0.000241068 -4.68215e-06 -5.6173e-06
-1.37865e-05 -5.6173e-06 -0.000198259
0.00130824 0.000370823 7.98776e-06
0.000370823 0.000176985 1.37954e-06
7.98776e-06 1.37954e-06 -8.71671e-05
0.000776372 0.000211841 -4.72355e-07
0.000211841 -2.34107e-05 -1.32579e-07
-4.72355e-07 -1.32579e-07 -0.000210677
0.000461849 0.000236507 -2.57077e-05
0.000236507 -9.9207e-05 -1.83165e-05
-2.57077e-05 -1.83165e-05 -0.000220074
0.000393796 0.000185068 7.97256e-06
0.000185068 -0.000187102 2.86633e-06
7.97256e-06 2.86633e-06 -0.000376425
0.000391785 0.000184564 2.65052e-06
0.000184564 -0.000131796 4.13698e-07
2.65052e-06 4.13698e-07 -0.000235738
0.00629013 -0.000101812 -0.000225308
-0.000101812 0.0035978 -2.25868e-05
-0.000225308 -2.25868e-05 0.00357957
0.000334046 9.18762e-05 1.77394e-05
9.18762e-05 -0.000146198 1.57916e-05
1.77394e-05 1.57916e-05 -0.000228375
0.00523128 -0.000174975 -4.17665e-06
-0.000174975 0.00295633 -6.41959e-07
-4.17665e-06 -6.41959e-07 0.00293621
0.00417483 -0.000197689 0.000100082
-0.000197689 0.00231218 6.69331e-06
0.000100082 6.69331e-06 0.00228855
0.00228409 0.000228641 -4.41163e-07
0.000228641 6.55615e-06 4.50124e-07
-4.41163e-07 4.50124e-07 3.81198e-05
0.0020972 0.000204972 1.33483e-06
0.000204972 -0.000130854 1.03856e-07
1.33483e-06 1.03856e-07 -6.55171e-05
0.0029244 4.81811e-05 -8.06927e-05
4.81811e-05 0.000451455 -1.22649e-05
-8.06927e-05 -1.22649e-05 0.000613488
0.00203086 0.000329979 -4.31045e-07
0.000329979 2.79421e-05 2.52743e-07
-4.31045e-07 2.52743e-07 -6.82448e-05
0.00202787 0.000458884 -4.09971e-07
0.000458884 0.000131405 4.3608e-07
-4.09971e-07 4.3608e-07 -4.63296e-05
0.00160915 0.000577518 6.00219e-06
0.000577518 4.76446e-05 -1.86155e-06
6.00219e-06 -1.86155e-06 -0.000206359
0.00233746 0.000499974 2.64681e-07
0.000499974 0.000373743 -3.01765e-06
2.64681e-07 -3.01765e-06 0.000166371
0.00223918 0.00036454 -8.8284e-07
0.00036454 6.20289e-05 -8.18645e-09
-8.8284e-07 -8.18645e-09 4.20421e-06
0.00191964 0.000538049 -1.61118e-06
0.000538049 7.18885e-05 9.74481e-08
-1.61118e-06 9.74481e-08 -0.000123762
0.00194376 0.000375182 1.10427e-05
0.000375182 -7.18173e-05 -2.99681e-07
1.10427e-05 -2.99681e-07 -0.000118292
0.00207897 6.01449e-05 1.19148e-06
6.01449e-05 -7.19845e-07 4.78367e-07
1.19148e-06 4.78367e-07 1.60753e-05
0.00218625 7.04577e-05 8.96174e-08
7.04577e-05 -3.73262e-05 -4.70295e-09
8.96174e-08 -4.70295e-09 5.13467e-06
0.00233372 9.4452e-05 -7.93182e-06
9.4452e-05 6.65358e-05 -4.41815e-07
-7.93182e-06 -4.41815e-07 0.000114575
0.00195104 -1.24587e-05 -3.93936e-06
-1.24587e-05 1.68887e-05 5.16172e-07
-3.93936e-06 5.16172e-07 6.90471e-06
0.00219193 -9.1253e-05 7.79681e-07
-9.1253e-05 -0.000103958 -7.18462e-07
7.79681e-07 -7.18462e-07 -4.03758e-05
0.00203933 -6.82262e-05 -8.05681e-07
-6.82262e-05 -3.80865e-07 3.09459e-07
-8.05681e-07 3.09459e-07 8.91167e-06
0.0019536 -0.000103297 -3.89253e-06
-0.000103297 1.02089e-05 3.23363e-07
-3.89253e-06 3.23363e-07 -1.69412e-05
0.00203856 -0.000215281 9.41675e-07
-0.000215281 -3.50723e-05 2.19663e-07
9.41675e-07 2.19663e-07 -3.35069e-05
0.00201739 -0.000178146 1.52381e-06
-0.000178146 5.14921e-05 -4.02666e-07
1.52381e-06 -4.02666e-07 9.1835e-06
0.00197052 -0.000168617 1.35762e-06
-0.000168617 0.00010193 -1.21764e-06
1.35762e-06 -1.21764e-06 1.57932e-05
0.00192877 -0.000256656 2.33978e-06
-0.000256656 3.03655e-05 -7.5459e-07
2.33978e-06 -7.5459e-07 -4.83322e-05
0.00196115 -0.000239044 -2.19831e-07
-0.000239044 0.000114195 -1.43393e-07
-2.19831e-07 -1.43393e-07 4.94414e-06
0.00171876 -0.000193461 -1.35673e-06
-0.000193461 0.000109954 -2.39433e-07
-1.35673e-06 -2.39433e-07 -3.63509e-05
0.00200483 -0.00030549 6.69175e-07
-0.00030549 0.000184147 8.45154e-07
6.69175e-07 8.45154e-07 4.67252e-05
0.0017115 -0.00024524 -2.7318e-07
-0.00024524 0.000126601 1.09192e-07
-2.7318e-07 1.09192e-07 -3.86945e-05
0.00103042 -0.000146849 -1.31504e-05
-0.000146849 -4.14902e-05 3.84636e-06
-1.31504e-05 3.84636e-06 -0.000200913
0.00171221 -0.000287538 2.47919e-06
-0.000287538 0.000160716 -3.51549e-07
2.47919e-06 -3.51549e-07 -2.35151e-05
0.00105676 -0.00017045 -1.70348e-07
-0.00017045 -1.50047e-05 2.56921e-07
-1.70348e-07 2.56921e-07 -0.000181125
0.00265433 -0.000157674 -5.8945e-05
-0.000157674 0.00119761 1.01263e-05
-5.8945e-05 1.01263e-05 0.00111416
0.00108719 -0.000193279 1.44535e-05
-0.000193279 1.60272e-05 -5.71266e-06
1.44535e-05 -5.71266e-06 -0.000156663
0.00274881 -0.000183832 4.13288e-05
-0.000183832 0.0012583 -5.34728e-06
4.13288e-05 -5.34728e-06 0.00117785
0.00209761 -0.000103879 -0.000227783
-0.000103879 0.000943405 3.03192e-05
-0.000227783 3.03192e-05 0.000925009
0.00290366 -0.000210491 0.000142288
-0.000210491 0.00135903 -2.39838e-05
0.000142288 -2.39838e-05 0.0012798
0.00175576 -5.95479e-05 -9.70516e-05
-5.95479e-05 0.000742628 1.33783e-05
-9.70516e-05 1.33783e-05 0.000710398
0.00620062 5.9822e-05 7.23351e-05
5.9822e-05 0.00348216 -3.15098e-06
7.23351e-05 -3.15098e-06 0.00346214
0.00206444 0.000329274 1.06832e-06
0.000329274 0.000125632 4.18408e-07
1.06832e-06 4.18408e-07 5.2898e-06
0.00209653 0.000363693 3.81109e-07
0.000363693 0.000236302 -1.56071e-07
3.81109e-07 -1.56071e-07 7.36883e-05
0.00217279 0.000386662 -3.94718e-06
0.000386662 0.000203848 -9.03973e-08
-3.94718e-06 -9.03973e-08 6.17626e-05
0.00180514 0.000351869 -1.91156e-06
0.000351869 0.00022726 5.59463e-07
-1.91156e-06 5.59463e-07 1.79547e-05
0.00179353 0.000392586 -5.71225e-07
0.000392586 8.44044e-05 -1.91255e-06
-5.71225e-07 -1.91255e-06 -0.000104283
0.00205576 0.000373588 -4.29196e-06
0.000373588 0.000158109 -5.58057e-06
-4.29196e-06 -5.58057e-06 9.86211e-06
0.00105798 0.000240867 -1.49242e-05
0.000240867 1.01773e-05 -5.24333e-06
-1.49242e-05 -5.24333e-06 -0.000177551
0.00158922 0.000390162 6.06142e-07
0.000390162 0.000155987 3.77873e-07
6.06142e-07 3.77873e-07 -8.22505e-05
0.00212947 0.000514499 2.49265e-06
0.000514499 0.000326768 -3.45766e-06
2.49265e-06 -3.45766e-06 8.28274e-05
0.00142109 0.000401803 6.92772e-06
0.000401803 0.000148556 3.42373e-07
6.92772e-06 3.42373e-07 -0.000112989
0.00088879 0.000233358 -8.77974e-07
0.000233358 -2.39831e-05 3.54139e-08
-8.77974e-07 3.54139e-08 -0.000215187
0.000413616 0.000233189 -2.50157e-05
0.000233189 -0.000134805 -1.72458e-05
-2.50157e-05 -1.72458e-05 -0.000259098
0.00066678 0.000201518 1.16892e-05
0.000201518 -8.90244e-05 5.81155e-06
1.16892e-05 5.81155e-06 -0.000272934
0.000419806 0.000223292 2.1891e-06
0.000223292 -0.000119072 6.29791e-07
2.1891e-06 6.29791e-07 -0.000240343
0.00655539 -1.51907e-05 -0.0002478
-1.51907e-05 0.00374486 -2.84359e-05
-0.0002478 -2.84359e-05 0.00373141
0.000461149 0.000167526 2.34857e-05
0.000167526 -9.27655e-05 1.78388e-05
2.34857e-05 1.78388e-05 -0.000193885
0.00605855 -0.000137063 3.62018e-06
-0.000137063 0.00345231 -1.15591e-06
3.62018e-06 -1.15591e-06 0.00343536
0.00489746 -0.000222702 0.00012614
-0.000222702 0.0027674 8.82341e-06
0.00012614 8.82341e-06 0.00273525
0.00206537 0.0001798 -1.07428e-06
0.0001798 1.86845e-05 -1.07221e-07
-1.07428e-06 -1.07221e-07 3.38912e-06
0.00224803 0.000230197 1.11884e-07
0.000230197 -2.32257e-05 5.87515e-07
1.11884e-07 5.87515e-07 1.10401e-05
0.00210503 0.00021036 3.8733e-06
0.00021036 -0.000131425 8.90418e-08
3.8733e-06 8.90418e-08 -6.6858e-05
0.00207735 0.000328011 -2.09011e-07
0.000328011 6.21305e-05 9.28675e-08
-2.09011e-07 9.28675e-08 -2.98634e-05
0.00201798 0.000455263 1.59661e-06
0.000455263 0.000149846 -6.28813e-07
1.59661e-06 -6.28813e-07 -2.74339e-05
0.00218938 0.00035321 1.62165e-06
0.00035321 3.78332e-05 -4.86261e-07
1.62165e-06 -4.86261e-07 -1.77991e-05
0.00198279 5.94015e-05 -1.88427e-06
5.94015e-05 9.58192e-06 3.36e-07
-1.88427e-06 3.36e-07 4.4112e-06
0.00206294 5.54492e-05 3.44772e-07
5.54492e-05 -6.71286e-06 -9.6429e-08
3.44772e-07 -9.6429e-08 7.77307e-06
0.00212612 6.70803e-05 -2.23363e-07
6.70803e-05 -6.42786e-05 -4.36518e-07
-2.23363e-07 -4.36518e-07 -2.31333e-05
0.00194744 -1.2715e-05 -1.16335e-06
-1.2715e-05 1.15237e-05 3.33736e-08
-1.16335e-06 3.33736e-08 1.07577e-06
0.00192352 -3.98548e-05 -6.04845e-06
-3.98548e-05 1.79004e-05 6.33625e-07
-6.04845e-06 6.33625e-07 -1.41747e-05
0.00206602 -7.08138e-05 6.10601e-07
-7.08138e-05 1.05688e-05 -4.13603e-08
6.10601e-07 -4.13603e-08 2.11601e-05
0.00196002 -0.000102781 -1.52376e-06
-0.000102781 1.97594e-05 3.12388e-07
-1.52376e-06 3.12388e-07 -1.04496e-05
0.00197698 -0.000108289 -3.63322e-06
-0.000108289 9.80054e-05 2.91046e-07
-3.63322e-06 2.91046e-07 3.15188e-05
0.00200116 -0.000176789 4.43338e-06
-0.000176789 4.18982e-05 -7.44042e-07
4.43338e-06 -7.44042e-07 -1.16158e-07
0.00193908 -0.000169311 2.68541e-06
-0.000169311 7.92323e-05 -8.9526e-07
2.68541e-06 -8.9526e-07 -6.9519e-06
0.00169473 -0.000139153 1.51327e-06
-0.000139153 8.2986e-05 -5.60518e-07
1.51327e-06 -5.60518e-07 -4.7952e-05
0.00200295 -0.000241454 1.17351e-06
-0.000241454 0.000137687 4.17596e-07
1.17351e-06 4.17596e-07 2.81349e-05
0.00170915 -0.000193775 -2.23487e-07
-0.000193775 0.000100877 -6.62845e-08
-2.23487e-07 -6.62845e-08 -4.52539e-05
0.00104374 -0.000117653 -1.25633e-05
-0.000117653 -4.32322e-05 2.88123e-06
-1.25633e-05 2.88123e-06 -0.000193829
0.0017316 -0.000245902 1.391e-06
-0.000245902 0.000136542 9.36882e-08
1.391e-06 9.36882e-08 -2.83512e-05
0.00106644 -0.000145606 -3.04076e-07
-0.000145606 -2.18423e-05 2.41936e-07
-3.04076e-07 2.41936e-07 -0.000180183
0.00259481 -0.000161757 -6.15832e-05
-0.000161757 0.00116082 8.90504e-06
-6.15832e-05 8.90504e-06 0.0010791
0.00110505 -0.000170658 1.38973e-05
-0.000170658 1.01932e-05 -4.60249e-06
1.38973e-05 -4.60249e-06 -0.000154887
0.00271406 -0.000159707 3.96752e-05
-0.000159707 0.00122993 -4.05779e-06
3.96752e-05 -4.05779e-06 0.00115404
0.00211905 -8.72133e-05 -0.000226523
-8.72133e-05 0.000949773 2.56152e-05
-0.000226523 2.56152e-05 0.000932716
0.0028295 -0.000177713 0.000139372
-0.000177713 0.00130115 -2.0495e-05
0.000139372 -2.0495e-05 0.00123002
0.00175218 -6.54557e-05 -8.79871e-05
-6.54557e-05 0.000735107 1.08464e-05
-8.79871e-05 1.08464e-05 0.000705577
0.00148869 -5.69755e-05 5.24863e-05
-5.69755e-05 0.000587062 -8.06334e-06
5.24863e-05 -8.06334e-06 0.000541285
0.00201499 0.00020824 -3.62178e-07
0.00020824 6.7658e-05 7.66708e-07
-3.62178e-07 7.66708e-07 -1.36874e-06
0.00203458 0.000302208 -7.95575e-07
0.000302208 0.000165476 6.41602e-07
-7.95575e-07 6.41602e-07 2.65577e-05
0.00203297 0.000329823 -9.17732e-08
0.000329823 8.83594e-05 1.33466e-07
-9.17732e-08 1.33466e-07 -2.66647e-05
0.00191292 0.000321507 -8.00841e-07
0.000321507 0.000244701 5.23914e-07
-8.00841e-07 5.23914e-07 6.13161e-05
0.00202272 0.000357429 -6.52039e-07
0.000357429 0.000199599 -3.27819e-07
-6.52039e-07 -3.27819e-07 3.55146e-05
0.00204604 0.000382759 8.86766e-08
0.000382759 0.000115945 -2.16605e-07
8.86766e-08 -2.16605e-07 -2.90565e-05
0.00112378 0.000220204 -1.53832e-05
0.000220204 2.25096e-05 -4.86583e-06
-1.53832e-05 -4.86583e-06 -0.000154738
0.00172613 0.000351416 2.62294e-06
0.000351416 0.000171134 1.42931e-07
2.62294e-06 1.42931e-07 -3.58835e-05
0.00180627 0.000399476 -1.35234e-06
0.000399476 7.61232e-05 -3.7329e-06
-1.35234e-06 -3.7329e-06 -0.000109355
0.00034071 0.000184899 -2.23634e-05
0.000184899 -0.000200811 -1.42985e-05
-2.23634e-05 -1.42985e-05 -0.000316012
0.000999057 0.000234668 -5.34151e-07
0.000234668 -2.02372e-05 1.11905e-07
-5.34151e-07 1.11905e-07 -0.000206861
0.00154776 0.000388336 6.48284e-06
0.000388336 0.000128871 -3.52775e-07
6.48284e-06 -3.52775e-07 -0.000110068
0.000869332 0.00022794 1.3831e-05
0.00022794 -2.90535e-05 6.38363e-06
1.3831e-05 6.38363e-06 -0.000218338
0.000415812 0.000218015 8.41921e-07
0.000218015 -0.000130719 9.0127e-07
8.41921e-07 9.0127e-07 -0.000256219
0.00670658 8.51577e-05 -0.000262857
8.51577e-05 0.00381878 -3.25271e-05
-0.000262857 -3.25271e-05 0.00381019
0.000386631 0.000206271 2.25254e-05
0.000206271 -0.000136885 1.71598e-05
2.25254e-05 1.71598e-05 -0.000256513
0.00645059 -4.41149e-05 7.11128e-06
-4.41149e-05 0.00366829 -3.52146e-07
7.11128e-06 -3.52146e-07 0.00366182
0.00578129 -0.000168379 0.000177552
-0.000168379 0.00328008 9.82783e-06
0.000177552 9.82783e-06 0.00326197
0.00201099 0.000120118 -4.23224e-06
0.000120118 5.09962e-05 -1.04353e-06
-4.23224e-06 -1.04353e-06 3.0297e-05
0.00206117 0.000182795 9.30367e-07
0.000182795 1.57601e-05 3.99719e-07
9.30367e-07 3.99719e-07 6.38496e-08
0.00220079 0.000231988 -1.28483e-07
0.000231988 -5.67724e-05 -7.82799e-07
-1.28483e-07 -7.82799e-07 -2.0335e-05
0.00213203 0.000325529 2.7753e-06
0.000325529 0.000101633 -1.36217e-07
2.7753e-06 -1.36217e-07 1.39492e-05
0.00189702 1.01241e-05 -5.04813e-06
1.01241e-05 2.33503e-05 6.41521e-07
-5.04813e-06 6.41521e-07 -1.81185e-05
0.00195917 4.9818e-05 1.04178e-07
4.9818e-05 -3.72061e-06 8.02092e-08
1.04178e-07 8.02092e-08 -1.04182e-05
0.00204738 5.0692e-05 -4.90271e-07
5.0692e-05 -1.13988e-05 -3.17758e-07
-4.90271e-07 -3.17758e-07 3.71946e-08
0.00194213 -1.15654e-05 1.32759e-06
-1.15654e-05 5.42166e-06 -7.23191e-07
1.32759e-06 -7.23191e-07 -5.74836e-06
0.00192598 -3.46247e-05 -1.00402e-06
-3.46247e-05 1.88238e-05 -1.17545e-07
-1.00402e-06 -1.17545e-07 -1.23085e-05
0.00189158 -4.64623e-05 -2.02756e-06
-4.64623e-05 5.17369e-05 1.90992e-07
-2.02756e-06 1.90992e-07 -1.61412e-05
0.00196311 -0.000102393 3.0524e-06
-0.000102393 2.68937e-05 1.00765e-07
3.0524e-06 1.00765e-07 -6.56897e-06
0.00191293 -0.000107688 -1.82006e-06
-0.000107688 6.23968e-05 5.83479e-07
-1.82006e-06 5.83479e-07 -1.10438e-05
0.00179006 -8.85899e-05 -6.19563e-07
-8.85899e-05 0.000135274 -1.511e-07
-6.19563e-07 -1.511e-07 2.29427e-05
0.00191463 -0.000168795 4.74837e-06
-0.000168795 6.06641e-05 -6.59128e-07
4.74837e-06 -6.59128e-07 -2.52981e-05
0.00170157 -0.000137105 1.90145e-06
-0.000137105 8.55561e-05 -5.15674e-07
1.90145e-06 -5.15674e-07 -4.47229e-05
0.00103327 -8.5315e-05 -1.2184e-05
-8.5315e-05 -5.38998e-05 2.10065e-06
-1.2184e-05 2.10065e-06 -0.000196096
0.00171045 -0.00019205 7.9611e-07
-0.00019205 0.000100094 8.01239e-08
7.9611e-07 8.01239e-08 -4.5421e-05
0.00105148 -0.000116522 -1.3112e-07
-0.000116522 -3.76907e-05 1.35636e-07
-1.3112e-07 1.35636e-07 -0.000187623
0.000466786 -8.77609e-05 -1.99762e-05
-8.77609e-05 -0.000169098 5.73106e-06
-1.99762e-05 5.73106e-06 -0.000258152
0.00109887 -0.000144099 1.30345e-05
-0.000144099 -3.95409e-06 -3.46401e-06
1.30345e-05 -3.46401e-06 -0.000161162
0.00158 -0.000105234 5.77536e-05
-0.000105234 0.000521895 -4.22581e-06
5.77536e-05 -4.22581e-06 0.000443295
0.00623234 -0.000149115 -0.000298392
-0.000149115 0.0034992 2.1141e-05
-0.000298392 2.1141e-05 0.00351343
0.00278918 -0.00014369 0.000137205
-0.00014369 0.00126658 -1.63207e-05
0.000137205 -1.63207e-05 0.00120064
0.00175955 -6.75126e-05 -7.95272e-05
-6.75126e-05 0.000737875 7.12004e-06
-7.95272e-05 7.12004e-06 0.000708361
0.00140597 -8.67883e-05 6.40838e-05
-8.67883e-05 0.00053997 -9.6067e-06
6.40838e-05 -9.6067e-06 0.000493064
0.00202166 0.000155781 -2.66691e-06
0.000155781 9.80193e-05 -2.52806e-07
-2.66691e-06 -2.52806e-07 4.2779e-05
0.00197636 0.000222941 -1.60834e-08
0.000222941 0.00011406 1.49691e-06
-1.60834e-08 1.49691e-06 5.22005e-06
0.00200254 0.000204259 8.74698e-07
0.000204259 6.51187e-05 4.73126e-07
8.74698e-07 4.73126e-07 -7.00652e-06
0.00182805 0.000259729 -8.1335e-07
0.000259729 0.000163351 7.84421e-07
-8.1335e-07 7.84421e-07 4.71111e-06
0.00196882 0.000296535 7.84441e-07
0.000296535 0.000128118 7.59534e-08
7.84441e-07 7.59534e-08 -1.02717e-05
0.00200289 0.000331022 5.62262e-07
0.000331022 5.13331e-05 2.36721e-07
5.62262e-07 2.36721e-07 -5.84318e-05
0.00105272 0.000189904 -1.5962e-05
0.000189904 -4.54008e-05 -3.75781e-06
-1.5962e-05 -3.75781e-06 -0.00021081
0.00191172 0.00032041 2.47157e-06
0.00032041 0.000243443 5.9593e-07
2.47157e-06 5.9593e-07 6.0552e-05
0.00194016 0.000350364 -1.44182e-06
0.000350364 0.000158084 -1.30137e-06
-1.44182e-06 -1.30137e-06 -7.37526e-06
0.000349055 0.000131878 -1.94867e-05
0.000131878 -0.000219908 -1.06571e-05
-1.94867e-05 -1.06571e-05 -0.000322623
0.000992872 0.000213654 3.97736e-07
0.000213654 -5.91613e-05 3.56813e-07
3.97736e-07 3.56813e-07 -0.000235634
0.00163627 0.000350111 7.0544e-06
0.000350111 0.000108075 -6.05615e-07
7.0544e-06 -6.05615e-07 -9.64688e-05
0.00665061 0.000165796 -0.000273383
0.000165796 0.0037658 -3.22719e-05
-0.000273383 -3.22719e-05 0.00376407
0.000373926 0.000177138 3.88755e-07
0.000177138 -0.000181437 7.91944e-07
3.88755e-07 7.91944e-07 -0.000297562
0.000934132 0.000228153 1.50152e-05
0.000228153 -5.38192e-05 5.83485e-06
1.50152e-05 5.83485e-06 -0.000239297
0.000369652 0.000202551 2.11409e-05
0.000202551 -0.000155687 1.70831e-05
2.11409e-05 1.70831e-05 -0.000282173
0.00657951 7.45419e-05 9.89496e-06
7.45419e-05 0.00373313 5.691e-07
9.89496e-06 5.691e-07 0.00373147
0.00634487 -7.55548e-05 0.000232012
-7.55548e-05 0.0035946 1.39231e-05
0.000232012 1.39231e-05 0.00359254
0.00193859 6.48411e-05 -7.50536e-06
6.48411e-05 4.97009e-05 9.66135e-08
-7.50536e-06 9.66135e-08 4.00478e-06
0.00199359 0.00011711 2.42511e-07
0.00011711 3.83516e-05 3.14803e-08
2.42511e-07 3.14803e-08 1.74903e-05
0.00205538 0.000185857 1.43252e-06
0.000185857 1.15392e-05 3.77966e-07
1.43252e-06 3.77966e-07 -4.02912e-06
0.00184403 3.30857e-06 -1.85537e-06
3.30857e-06 3.31141e-05 7.77322e-08
-1.85537e-06 7.77322e-08 -4.006e-05
0.00191904 1.51901e-05 1.11397e-07
1.51901e-05 3.60016e-05 9.00269e-08
1.11397e-07 9.00269e-08 -2.37737e-06
0.00193849 3.91221e-05 1.33681e-06
3.91221e-05 -1.543e-05 -3.8076e-07
1.33681e-06 -3.8076e-07 -2.34917e-05
0.00192947 -3.02811e-05 3.09441e-06
-3.02811e-05 2.00682e-05 -4.79445e-07
3.09441e-06 -4.79445e-07 -9.78913e-06
0.00187521 -4.48124e-05 -1.12479e-06
-4.48124e-05 4.16981e-05 2.60184e-07
-1.12479e-06 2.60184e-07 -2.52729e-05
0.00187115 -3.90847e-05 1.88135e-06
-3.90847e-05 0.000198729 -6.01513e-07
1.88135e-06 -6.01513e-07 9.05456e-05
0.00184651 -0.000106845 -1.01458e-06
-0.000106845 2.57337e-05 7.2235e-07
-1.01458e-06 7.2235e-07 -5.44709e-05
0.00177904 -8.94562e-05 4.95537e-07
-8.94562e-05 0.000132656 2.18897e-08
4.95537e-07 2.18897e-08 1.48147e-05
0.000968119 -4.85893e-05 -1.30597e-05
-4.85893e-05 -9.98512e-05 1.06845e-06
-1.30597e-05 1.06845e-06 -0.000231967
0.00169487 -0.000136971 1.99562e-06
-0.000136971 7.93812e-05 -4.54346e-07
1.99562e-06 -4.54346e-07 -5.06494e-05
0.00104068 -8.16603e-05 -6.05959e-08
-8.16603e-05 -4.93027e-05 1.5146e-07
-6.05959e-08 1.5146e-07 -0.000190744
0.000473792 -2.25756e-05 -1.85431e-05
-2.25756e-05 -0.000169121 3.51658e-06
-1.85431e-05 3.51658e-06 -0.000253685
0.00107975 -0.000114942 1.2315e-05
-0.000114942 -2.09503e-05 -2.62079e-06
1.2315e-05 -2.62079e-06 -0.000170019
0.000473609 -7.19359e-05 -2.29325e-07
-7.19359e-05 -0.000163493 3.99949e-07
-2.29325e-07 3.99949e-07 -0.00025342
0.00618682 -4.21132e-05 -0.000288536
-4.21132e-05 0.00346624 1.29535e-05
-0.000288536 1.29535e-05 0.00348451
0.000511764 -7.37578e-05 1.51208e-05
-7.37578e-05 -0.00014112 -7.58895e-06
1.51208e-05 -7.58895e-06 -0.000234916
0.00391503 -9.74028e-05 0.000129017
-9.74028e-05 0.00207203 -6.21466e-06
0.000129017 -6.21466e-06 0.00205627
0.00137081 -8.42861e-05 7.00719e-05
-8.42861e-05 0.00051858 -9.65066e-06
7.00719e-05 -9.65066e-06 0.000471568
0.00190227 0.000118455 -6.07253e-06
0.000118455 3.321e-05 -3.36681e-07
-6.07253e-06 -3.36681e-07 -2.54482e-05
0.00197026 0.000162444 -1.5186e-07
0.000162444 0.000110689 1.99342e-06
-1.5186e-07 1.99342e-06 1.73096e-05
0.00197643 0.000150343 -6.55183e-07
0.000150343 6.71652e-05 -1.4181e-07
-6.55183e-07 -1.4181e-07 1.21499e-05
0.0017519 0.000194228 -2.38733e-07
0.000194228 0.00010622 8.25103e-07
-2.38733e-07 8.25103e-07 -3.82624e-05
0.00198366 0.000222959 4.01151e-07
0.000222959 0.000116272 1.84906e-07
4.01151e-07 1.84906e-07 6.05987e-06
0.00199076 0.000200004 2.29846e-06
0.000200004 6.30356e-05 1.60912e-07
2.29846e-06 1.60912e-07 -1.22805e-05
0.00104415 0.000154979 -1.45716e-05
0.000154979 -6.13506e-05 -2.75731e-06
-1.45716e-05 -2.75731e-06 -0.000215421
0.00182733 0.000257672 1.03312e-06
0.000257672 0.000168685 5.13293e-07
1.03312e-06 5.13293e-07 6.64555e-06
0.00190034 0.000290659 -2.21871e-07
0.000290659 8.90281e-05 -8.96007e-07
-2.21871e-07 -8.96007e-07 -4.87791e-05
0.000376864 9.38461e-05 -1.81682e-05
9.38461e-05 -0.000220147 -7.59652e-06
-1.81682e-05 -7.59652e-06 -0.000314258
0.00098306 0.000185653 -1.61207e-06
0.000185653 -8.65092e-05 4.23825e-08
-1.61207e-06 4.23825e-08 -0.000251537
0.00191575 0.000319759 5.80005e-06
0.000319759 0.000245404 7.79635e-07
5.80005e-06 7.79635e-07 6.29225e-05
0.00650259 0.000229437 -0.000290267
0.000229437 0.00367108 -3.11612e-05
-0.000290267 -3.11612e-05 0.00367243
0.00038458 0.000130351 -2.20087e-08
0.000130351 -0.000199869 4.18258e-07
-2.20087e-08 4.18258e-07 -0.000303111
0.000869893 0.000207946 1.47134e-05
0.000207946 -0.000136292 4.81614e-06
1.47134e-05 4.81614e-06 -0.000312088
0.00659022 0.000181937 1.36666e-05
0.000181937 0.00373486 2.97019e-06
1.36666e-05 2.97019e-06 0.00373184
0.000394255 0.000167983 1.99294e-05
0.000167983 -0.000169995 1.416e-05
1.99294e-05 1.416e-05 -0.000286851
0.00645467 3.85709e-05 0.000256244
3.85709e-05 0.00364448 2.05571e-05
0.000256244 2.05571e-05 0.00365034
0.00184429 4.56592e-05 -2.83984e-06
4.56592e-05 2.22487e-05 1.93997e-07
-2.83984e-06 1.93997e-07 -5.2016e-05
0.00192156 6.74684e-05 -7.95107e-07
6.74684e-05 4.74226e-05 -2.86759e-07
-7.95107e-07 -2.86759e-07 4.02035e-07
0.00197212 0.000114115 3.80386e-06
0.000114115 2.36719e-05 5.79965e-07
3.80386e-06 5.79965e-07 2.52867e-06
0.00185965 -3.47444e-06 2.40354e-06
-3.47444e-06 0.000193911 -4.85622e-07
2.40354e-06 -4.85622e-07 8.78191e-05
0.00183072 3.96668e-06 -1.65528e-06
3.96668e-06 2.1847e-05 2.49239e-07
-1.65528e-06 2.49239e-07 -4.88135e-05
0.00193745 2.15709e-05 6.73515e-06
2.15709e-05 4.63865e-05 -3.33297e-07
6.73515e-06 -3.33297e-07 1.10272e-05
0.0018569 -4.34696e-05 -4.65034e-07
-4.34696e-05 3.07335e-05 4.65281e-07
-4.65034e-07 4.65281e-07 -3.55647e-05
0.00184327 -3.81092e-05 3.23193e-06
-3.81092e-05 0.000179821 -2.53205e-07
3.23193e-06 -2.53205e-07 7.18624e-05
0.000966504 -1.886e-05 -1.27858e-05
-1.886e-05 -9.5836e-05 3.0862e-07
-1.27858e-05 3.0862e-07 -0.000222754
0.00177369 -9.06241e-05 1.36171e-07
-9.06241e-05 0.000133556 1.85206e-07
1.36171e-07 1.85206e-07 1.01634e-05
0.00100085 -4.86632e-05 -1.03471e-06
-4.86632e-05 -7.82115e-05 4.09624e-08
-1.03471e-06 4.09624e-08 -0.000211689
0.000481157 -7.79764e-06 -1.88756e-05
-7.79764e-06 -0.000165833 2.15021e-06
-1.88756e-05 2.15021e-06 -0.00024765
0.00104977 -7.92766e-05 1.17838e-05
-7.92766e-05 -4.29837e-05 -1.81784e-06
1.17838e-05 -1.81784e-06 -0.000183817
0.00045381 -3.48307e-05 8.56079e-07
-3.48307e-05 -0.000181797 -1.58817e-07
8.56079e-07 -1.58817e-07 -0.000265516
0.00606592 -0.00013899 -0.000293458
-0.00013899 0.00340522 1.41642e-05
-0.000293458 1.41642e-05 0.00341836
0.000443949 -5.52439e-05 1.7978e-05
-5.52439e-05 -0.000181705 -4.45248e-06
1.7978e-05 -4.45248e-06 -0.000271209
0.00614543 -7.8391e-05 7.57512e-06
-7.8391e-05 0.00344302 -5.98491e-08
7.57512e-06 -5.98491e-08 0.00346098
0.00171294 -3.05883e-05 0.000228503
-3.05883e-05 0.000700355 -1.44328e-05
0.000228503 -1.44328e-05 0.000689803
0.00182099 0.000106907 -1.7794e-06
0.000106907 5.21138e-06 4.02449e-07
-1.7794e-06 4.02449e-07 -8.20176e-05
0.00192702 0.00012226 -3.11552e-06
0.00012226 4.29289e-05 -6.47892e-07
-3.11552e-06 -6.47892e-07 -1.26512e-05
0.00172224 0.000133284 7.33999e-07
0.000133284 8.43027e-05 1.12964e-06
7.33999e-07 1.12964e-06 -4.41668e-05
0.00196952 0.000161375 9.17771e-07
0.000161375 0.000109001 2.43497e-07
9.17771e-07 2.43497e-07 1.58313e-05
0.00193077 0.000145 3.38914e-06
0.000145 3.4945e-05 -2.24832e-07
3.38914e-06 -2.24832e-07 -1.97145e-05
0.0011124 0.000116383 -1.26787e-05
0.000116383 -1.28405e-05 -1.97883e-06
-1.26787e-05 -1.97883e-06 -0.000158375
0.00174874 0.000193007 1.6629e-07
0.000193007 0.000107572 8.03242e-08
1.6629e-07 8.03242e-08 -3.69182e-05
0.00198947 0.00022286 9.16496e-07
0.00022286 0.000117852 -1.24019e-06
9.16496e-07 -1.24019e-06 6.26622e-06
0.000420388 6.85353e-05 -1.78521e-05
6.85353e-05 -0.000202125 -5.45391e-06
-1.78521e-05 -5.45391e-06 -0.000291625
0.00103886 0.000154946 -1.5583e-06
0.000154946 -6.08988e-05 1.02565e-07
-1.5583e-06 1.02565e-07 -0.000216508
0.00183163 0.000255666 2.68063e-06
0.000255666 0.000177593 3.75801e-07
2.68063e-06 3.75801e-07 1.21718e-05
0.00636508 0.000252496 -0.000306895
0.000252496 0.00359499 -2.93109e-05
-0.000306895 -2.93109e-05 0.00359526
0.0004222 9.63133e-05 -9.66198e-08
9.63133e-05 -0.000193995 1.85984e-07
-9.66198e-08 1.85984e-07 -0.000288574
0.000915482 0.000181467 1.1073e-05
0.000181467 -0.000126717 3.61843e-06
1.1073e-05 3.61843e-06 -0.000291273
0.0064948 0.000251958 1.10335e-05
0.000251958 0.00367823 4.32893e-06
1.10335e-05 4.32893e-06 0.00367399
0.000427784 0.000127387 1.87695e-05
0.000127387 -0.000175648 1.0811e-05
1.87695e-05 1.0811e-05 -0.000279056
0.00656556 0.000180359 0.000284769
0.000180359 0.0037099 2.94977e-05
0.000284769 2.94977e-05 0.00371355
0.00180163 3.90466e-05 3.52894e-06
3.90466e-05 0.000153311 -1.47054e-08
3.52894e-06 -1.47054e-08 4.53555e-05
0.0018462 4.42238e-05 -2.60195e-06
4.42238e-05 2.85954e-05 -4.47399e-08
-2.60195e-06 -4.47399e-08 -4.69438e-05
0.00192878 6.98696e-05 5.03699e-06
6.98696e-05 6.05546e-05 -1.81779e-07
5.03699e-06 -1.81779e-07 1.24257e-05
0.000959296 -8.63638e-06 -1.30742e-05
-8.63638e-06 -9.09015e-05 -1.58246e-07
-1.30742e-05 -1.58246e-07 -0.000215785
0.00183456 1.52787e-06 3.45052e-06
1.52787e-06 0.00017752 -1.17286e-07
3.45052e-06 -1.17286e-07 7.15242e-05
0.00182028 4.12811e-06 -7.16966e-07
4.12811e-06 1.23635e-05 3.36781e-07
-7.16966e-07 3.36781e-07 -5.57069e-05
0.00181949 -3.74384e-05 4.41107e-06
-3.74384e-05 0.000163564 1.71974e-07
4.41107e-06 1.71974e-07 5.58342e-05
0.000959827 -1.98195e-05 -6.87164e-07
-1.98195e-05 -0.000101503 1.17162e-08
-6.87164e-07 1.17162e-08 -0.000228704
0.000484758 -3.1882e-05 -1.93529e-05
-3.1882e-05 -0.000162629 1.01141e-06
-1.93529e-05 1.01141e-06 -0.000241473
0.001014 -4.77837e-05 1.12739e-05
-4.77837e-05 -6.84302e-05 -1.2757e-06
1.12739e-05 -1.2757e-06 -0.000203297
0.000459711 3.56592e-06 3.58629e-07
3.56592e-06 -0.000179744 4.67349e-08
3.58629e-07 4.67349e-08 -0.000260533
0.00602312 -0.000111504 -0.00029687
-0.000111504 0.00337719 1.04261e-05
-0.00029687 1.04261e-05 0.00339331
0.000468407 -4.16062e-05 1.88297e-05
-4.16062e-05 -0.000170639 -3.02336e-06
1.88297e-05 -3.02336e-06 -0.000255521
0.00607434 -3.33164e-05 -3.00994e-06
-3.33164e-05 0.00339883 2.44867e-06
-3.00994e-06 2.44867e-06 0.00341908
0.00612933 -9.37125e-05 0.000293169
-9.37125e-05 0.00343329 -1.2549e-05
0.000293169 -1.2549e-05 0.00345186
0.00166623 7.98332e-05 9.80689e-07
7.98332e-05 5.56988e-05 4.32723e-07
9.80689e-07 4.32723e-07 -6.27234e-05
0.00190713 0.000107186 -2.95703e-06
0.000107186 5.65191e-05 -8.6067e-07
-2.95703e-06 -8.6067e-07 -2.48571e-05
0.00193496 0.000126077 2.13336e-06
0.000126077 4.29752e-05 -1.6846e-08
2.13336e-06 -1.6846e-08 -9.8471e-06
0.0011023 7.40641e-05 -1.22192e-05
7.40641e-05 -1.39488e-05 -1.32343e-06
-1.22192e-05 -1.32343e-06 -0.000150005
0.00172691 0.000132182 2.36723e-07
0.000132182 9.02452e-05 2.13334e-08
2.36723e-07 2.13334e-08 -3.8398e-05
0.00197385 0.000160296 3.50881e-07
0.000160296 0.000111281 -1.95625e-06
3.50881e-07 -1.95625e-06 1.8318e-05
0.000452724 4.56215e-05 -1.74558e-05
4.56215e-05 -0.000183626 -3.92687e-06
-1.74558e-05 -3.92687e-06 -0.000269825
0.00107805 0.000117789 3.5864e-07
0.000117789 -3.43911e-05 2.5603e-07
3.5864e-07 2.5603e-07 -0.000180908
0.00174647 0.00019182 9.53108e-07
0.00019182 0.000109166 -5.81703e-07
9.53108e-07 -5.81703e-07 -3.53459e-05
0.00621601 0.000217925 -0.000316078
0.000217925 0.00350418 -2.44015e-05
-0.000316078 -2.44015e-05 0.00350969
0.000454027 7.4009e-05 3.79808e-07
7.4009e-05 -0.000181535 1.60968e-07
3.79808e-07 1.60968e-07 -0.000272068
0.00103125 0.000154724 1.11169e-05
0.000154724 -6.21668e-05 2.98961e-06
1.11169e-05 2.98961e-06 -0.000219249
0.00639702 0.000267582 6.17897e-06
0.000267582 0.00362038 3.29836e-06
6.17897e-06 3.29836e-06 0.00361827
0.000471581 0.000100743 1.81731e-05
0.000100743 -0.000164252 8.25373e-06
1.81731e-05 8.25373e-06 -0.000259794
0.0065104 0.000281944 0.000302288
0.000281944 0.00369328 3.59063e-05
0.000302288 3.59063e-05 0.00368629
0.00102216 2.1083e-05 -1.25857e-05
2.1083e-05 -4.58522e-05 -5.89261e-07
-1.25857e-05 -5.89261e-07 -0.000174137
0.0017727 3.56149e-05 3.64591e-06
3.56149e-05 0.000134105 9.67374e-08
3.64591e-06 9.67374e-08 2.79822e-05
0.00183141 4.23993e-05 -3.03697e-06
4.23993e-05 2.4162e-05 -7.77347e-08
-3.03697e-06 -7.77347e-08 -5.28859e-05
0.000520613 3.15998e-05 -1.99393e-05
3.15998e-05 -0.000148635 -6.04626e-07
-1.99393e-05 -6.04626e-07 -0.000219692
0.000940717 -2.74776e-06 -8.21434e-07
-2.74776e-06 -0.000103825 -6.48035e-09
-8.21434e-07 -6.48035e-09 -0.000228878
0.00180531 7.72906e-06 4.54937e-06
7.72906e-06 0.000158323 2.09154e-07
4.54937e-06 2.09154e-07 5.24069e-05
0.000951302 -2.03705e-05 1.14753e-05
-2.03705e-05 -0.000108544 -5.34267e-07
1.14753e-05 -5.34267e-07 -0.000236002
0.000481244 -5.45886e-06 3.72609e-07
-5.45886e-06 -0.000164772 3.76315e-07
3.72609e-07 3.76315e-07 -0.000243733
0.005938 2.23582e-05 -0.000299549
2.23582e-05 0.00331877 8.05635e-07
-0.000299549 8.05635e-07 0.00334089
0.000438494 1.5256e-05 1.83914e-05
1.5256e-05 -0.000194244 -1.24224e-06
1.83914e-05 -1.24224e-06 -0.000273701
0.00598566 -0.00010966 -7.7424e-06
-0.00010966 0.00335568 1.84312e-06
-7.7424e-06 1.84312e-06 0.00337127
0.0060182 -1.47541e-05 0.000281679
-1.47541e-05 0.00336453 -6.29682e-06
0.000281679 -6.29682e-06 0.00338472
0.00106382 4.20475e-05 -1.23969e-05
4.20475e-05 -2.75854e-05 -1.20398e-06
-1.23969e-05 -1.20398e-06 -0.000157854
0.0017186 7.73865e-05 -2.34284e-07
7.73865e-05 8.90636e-05 -3.28105e-07
-2.34284e-07 -3.28105e-07 -2.54735e-05
0.00200413 0.00010742 -3.43459e-06
0.00010742 0.000114033 -2.38651e-06
-3.43459e-06 -2.38651e-06 3.86868e-05
0.00266811 6.01523e-05 -0.000139365
6.01523e-05 0.00118286 -4.74445e-06
-0.000139365 -4.74445e-06 0.00113174
0.00105637 7.57234e-05 3.25364e-07
7.57234e-05 -4.28812e-05 1.62176e-07
3.25364e-07 1.62176e-07 -0.000179724
0.00173279 0.000131029 7.89619e-07
0.000131029 9.68056e-05 -9.32914e-07
7.89619e-07 -9.32914e-07 -3.20186e-05
0.00608506 0.000160725 -0.000315494
0.000160725 0.00341841 -1.75749e-05
-0.000315494 -1.75749e-05 0.00343164
0.000485812 6.4591e-05 8.8769e-07
6.4591e-05 -0.000161112 4.09529e-07
8.8769e-07 4.09529e-07 -0.000249293
0.00104597 0.000119147 1.25941e-05
0.000119147 -5.44752e-05 2.37895e-06
1.25941e-05 2.37895e-06 -0.000201946
0.00629646 0.000232407 1.48948e-06
0.000232407 0.00355496 1.61414e-06
1.48948e-06 1.61414e-06 0.00355926
0.000498349 8.23981e-05 1.83814e-05
8.23981e-05 -0.000153246 6.46687e-06
1.83814e-05 6.46687e-06 -0.000245478
0.00641891 0.000300505 0.000312753
0.000300505 0.0036462 3.63698e-05
0.000312753 3.63698e-05 0.00363746
0.00058326 1.12415e-05 -1.60262e-05
1.12415e-05 -9.9292e-05 -1.84816e-06
-1.60262e-05 -1.84816e-06 -0.000179388
0.000976546 2.02594e-05 3.65989e-07
2.02594e-05 -7.78646e-05 2.16631e-07
3.65989e-07 2.16631e-07 -0.000204814
0.00173675 3.11746e-05 3.68714e-06
3.11746e-05 0.000110221 3.34287e-08
3.68714e-06 3.34287e-08 5.98118e-06
0.00579048 -9.9585e-05 -0.000282744
-9.9585e-05 0.00324589 3.10614e-06
-0.000282744 3.10614e-06 0.00325727
0.000476015 9.0422e-06 -5.82127e-07
9.0422e-06 -0.000171501 -2.15498e-08
-5.82127e-07 -2.15498e-08 -0.000245181
0.000940031 2.0229e-06 1.13826e-05
2.0229e-06 -0.000105971 -6.25573e-09
1.13826e-05 -6.25573e-09 -0.000231131
0.000436937 2.0928e-05 1.86175e-05
2.0928e-05 -0.000193176 1.74632e-07
1.86175e-05 1.74632e-07 -0.000271125
0.00588319 -1.3398e-05 2.15061e-06
-1.3398e-05 0.00329076 -1.43944e-06
2.15061e-06 -1.43944e-06 0.00330861
0.00597597 -2.9999e-05 0.000288352
-2.9999e-05 0.00333845 -4.18638e-06
0.000288352 -4.18638e-06 0.00335979
0.0027469 1.41409e-05 -0.000134273
1.41409e-05 0.00122976 -2.74727e-06
-0.000134273 -2.74727e-06 0.00118137
0.00104364 4.52949e-05 1.02912e-07
4.52949e-05 -4.19423e-05 -4.35063e-08
1.02912e-07 -4.35063e-08 -0.000172809
0.00176636 7.50559e-05 8.25313e-07
7.50559e-05 0.000119899 -9.60705e-07
8.25313e-07 -9.60705e-07 9.25476e-06
0.00561296 -4.01525e-05 -0.000118514
-4.01525e-05 0.00313941 4.80105e-07
-0.000118514 4.80105e-07 0.00312738
0.000496645 5.68076e-05 1.04942e-07
5.68076e-05 -0.000153947 2.51302e-07
1.04942e-07 2.51302e-07 -0.000237404
0.00102677 7.80149e-05 1.21569e-05
7.80149e-05 -6.23956e-05 1.63703e-06
1.21569e-05 1.63703e-06 -0.000199972
0.00615705 0.000135532 -1.06154e-05
0.000135532 0.0034575 -1.67685e-06
-1.06154e-05 -1.67685e-06 0.00347206
0.000514425 8.77145e-05 1.96782e-05
8.77145e-05 -0.000142895 5.49621e-06
1.96782e-05 5.49621e-06 -0.00023205
0.00634892 0.000256547 0.000321312
0.000256547 0.00359392 3.15115e-05
0.000321312 3.15115e-05 0.00359525
0.00175785 -5.29853e-05 -0.000227758
-5.29853e-05 0.000727337 1.21763e-06
-0.000227758 1.21763e-06 0.000724637
0.00161794 2.99912e-05 -5.72809e-05
2.99912e-05 0.000531568 1.47904e-07
-5.72809e-05 1.47904e-07 0.000472376
0.000925677 2.20652e-05 1.24563e-05
2.20652e-05 -0.000112704 8.22704e-07
1.24563e-05 8.22704e-07 -0.000238395
0.00586638 -4.62053e-05 7.09155e-06
-4.62053e-05 0.00328614 2.31439e-06
7.09155e-06 2.31439e-06 0.00330272
0.000491824 -1.21918e-05 1.92198e-05
-1.21918e-05 -0.000155403 7.13376e-07
1.92198e-05 7.13376e-07 -0.00023294
0.00592378 -7.77189e-05 0.000301528
-7.77189e-05 0.00331868 -4.11441e-06
0.000301528 -4.11441e-06 0.00333646
0.00132439 1.99875e-05 -5.62607e-05
1.99875e-05 0.000486734 -8.83207e-07
-5.62607e-05 -8.83207e-07 0.000449764
0.00160603 1.72446e-05 -5.78776e-05
1.72446e-05 0.000527484 -1.21665e-06
-5.78776e-05 -1.21665e-06 0.000464384
0.00101344 4.71205e-05 1.22692e-05
4.71205e-05 -6.22218e-05 1.14402e-06
1.22692e-05 1.14402e-06 -0.000193711
0.00370304 6.38679e-05 0.000111637
6.38679e-05 0.00194326 3.17146e-06
0.000111637 3.17146e-06 0.0019348
0.000508692 6.73172e-05 1.99456e-05
6.73172e-05 -0.000146613 4.20141e-06
1.99456e-05 4.20141e-06 -0.000230034
0.00623455 0.000123472 0.000306489
0.000123472 0.00349777 1.88617e-05
0.000306489 1.88617e-05 0.00351596
0.00581672 -2.04238e-05 -8.94502e-06
-2.04238e-05 0.00325873 -2.90522e-06
-8.94502e-06 -2.90522e-06 0.00327411
0.000486833 4.90286e-05 2.07559e-05
4.90286e-05 -0.000168896 2.30892e-06
2.07559e-05 2.30892e-06 -0.000239418
0.00577727 4.04065e-05 0.00028931
4.04065e-05 0.00322731 2.15819e-07
0.00028931 2.15819e-07 0.00324738
0.0035999 3.06169e-05 0.000123972
3.06169e-05 0.00188454 4.65499e-06
0.000123972 4.65499e-06 0.00187763
0.000519438 7.95264e-06 1.91725e-05
7.95264e-06 -0.000139943 2.5641e-06
1.91725e-05 2.5641e-06 -0.000218501
0.0060439 -5.48323e-06 0.000294563
-5.48323e-06 0.00338222 8.26904e-06
0.000294563 8.26904e-06 0.00340159
0.0058598 -0.000120739 0.000286328
-0.000120739 0.00328988 -4.02362e-06
0.000286328 -4.02362e-06 0.00330068
0.00586634 4.48899e-06 0.000288067
4.48899e-06 0.00327303 4.67511e-06
0.000288067 4.67511e-06 0.00329548
