# vtk DataFile Version 2.0
Wound Healing Simulation
ASCII
DATASET UNSTRUCTURED_GRID
POINTS 3012 float
69.9759 18.75 4
67.2507 60.3285 4
69.976 18.75 2
73.0099 25.446 4
71.1327 20.9142 4
68.6801 16.6661 4
67.8247 19.9262 3.98062
67.2507 60.3286 2
71.1327 54.0858 4
68.6801 58.3339 4
65.6939 62.2254 4
65.3112 59.0007 3.97967
74.6784 42.3946 4
73.7221 47.2057 4
69.9759 18.75 0
73.0099 25.446 2
68.6801 16.6661 2
71.1327 20.9142 2
67.8253 19.9296 2
74.6792 32.6053 4
73.7222 27.7943 4
72.1454 23.1494 4
70.6134 26.2209 3.98022
68.8849 21.958 3.9811
67.2507 14.6715 4
66.6361 17.9724 3.97973
65.7941 21.0269 3.9701
67.2507 60.3285 0
71.1327 54.0858 2
68.6801 58.3339 2
65.694 62.2255 2
65.3125 58.9968 2
72.1454 51.8506 4
69.9759 56.25 4
68.8356 53.113 3.98028
64.0165 64.0165 4
66.6099 57.1334 3.98033
63.8843 60.765 3.97992
63.4974 57.7682 3.9712
60.3285 67.2507 4
74.6792 42.3947 2
73.7222 47.2057 2
74.9194 39.9526 4
74.2788 44.8158 4
72.1677 42.0855 3.97987
73.0099 49.554 4
71.2487 46.5979 3.97948
73.0099 25.446 0
71.1327 20.9142 0
68.6801 16.6661 0
67.8247 19.9262 0.019382
74.6792 32.6053 2
73.7222 27.7943 2
67.2508 14.6715 2
72.1455 23.1494 2
70.6134 26.2214 2
66.6371 17.9765 2
68.8852 21.9602 2
65.7935 21.0279 2
74.9197 35.0474 4
74.2794 30.1841 4
72.1844 32.9434 3.98014
71.2776 28.4314 3.97978
69.8148 24.0595 3.98084
68.3443 26.9522 3.96922
66.7598 22.9344 3.96965
65.694 12.7746 4
65.3224 16.1045 3.97931
64.7105 19.1978 3.97049
63.8793 22.0402 3.96651
71.1327 54.0858 0
65.6939 62.2254 0
68.6801 58.3339 0
65.3112 59.0007 0.0203295
72.1455 51.8506 2
69.9759 56.25 2
68.8358 53.111 2
64.0165 64.0165 2
66.6108 57.1297 2
63.886 60.7615 2
63.4969 57.7679 2
62.2254 65.694 4
58.8939 65.4139 3.98942
69.7682 50.9888 3.97999
67.7829 55.167 3.98012
66.6468 52.2079 3.96884
62.3351 62.4269 3.98404
64.658 56.0294 3.97049
62.199 59.3978 3.96957
61.8166 56.6737 3.96635
58.3339 68.6801 4
60.3285 67.2508 2
73.7221 47.2057 0
74.6784 42.3946 0
74.9197 39.9526 2
74.2794 44.8159 2
72.1672 42.0854 2
73.0099 49.554 2
71.2485 46.5977 2
75 37.5 4
72.405 39.8022 3.98047
71.782 44.3527 3.97987
69.8021 41.7894 3.96936
70.5744 48.8134 3.97959
68.9099 46.014 3.96895
74.6792 32.6053 0
73.7222 27.7943 0
67.2507 14.6715 0
72.1454 23.1494 0
70.6134 26.2209 0.0197839
68.8849 21.958 0.0188956
66.6361 17.9724 0.0202717
65.7941 21.0269 0.0298989
74.9197 35.0474 2
74.2794 30.1841 2
72.1838 32.9437 2
71.2774 28.4318 2
65.694 12.7745 2
65.3239 16.1088 2
69.8149 24.0607 2
68.3442 26.9528 2
64.7099 19.1987 2
66.7594 22.9353 2
63.8788 22.0407 2
72.4128 35.2242 3.98052
71.8034 30.6763 3.98018
69.838 33.2687 3.96955
68.9637 29.0387 3.96923
67.6087 24.9129 3.96934
66.1796 27.6385 3.96703
64.0165 10.9835 4
64.7459 23.8344 3.96672
63.8888 14.3285 3.9809
63.5096 17.452 3.97098
62.8997 20.327 3.96633
62.0536 22.9586 3.96681
60.683 11.0988 3.98542
57.6112 11.4534 3.97715
72.1454 51.8506 0
69.9759 56.25 0
68.8356 53.113 0.0197232
64.0165 64.0165 0
63.8843 60.765 0.0200809
66.6099 57.1334 0.0196722
63.4974 57.7682 0.028797
62.2255 65.694 2
58.8953 65.413 2
69.7681 50.9878 2
67.7833 55.164 2
66.6463 52.207 2
62.337 62.4243 2
64.6574 56.0288 2
62.1984 59.3982 2
61.816 56.6735 2
60.6678 63.9763 3.98652
57.0251 66.7346 3.99089
57.5565 63.6881 3.97915
67.5048 50.1755 3.96858
65.6989 54.1717 3.96933
64.5241 51.3797 3.96588
60.7706 60.9324 3.97356
62.8138 55.062 3.96658
60.6493 58.1476 3.96398
60.3175 55.7725 3.96564
56.25 69.9759 4
58.3339 68.6801 2
60.3285 67.2507 0
58.9205 9.65684 3.98718
62.2254 9.30607 4
73.0099 49.554 0
74.2788 44.8158 0
71.2487 46.5979 0.0205152
72.1677 42.0855 0.0201344
74.9194 39.9526 0
75 37.5 2
72.405 39.8023 2
71.7819 44.3524 2
69.8015 41.7891 2
70.5743 48.8131 2
68.9098 46.0134 2
72.4884 37.512 3.98007
70.0394 39.6572 3.96945
69.4282 43.907 3.96924
67.5823 41.4954 3.96828
68.2633 48.1061 3.96862
66.6886 45.4354 3.9675
74.9197 35.0474 0
74.2794 30.1841 0
72.1844 32.9434 0.0198645
71.2776 28.4314 0.0202223
65.694 12.7746 0
65.3224 16.1045 0.0206931
69.8148 24.0595 0.0191581
68.3443 26.9522 0.0307828
66.7598 22.9344 0.0303452
64.7105 19.1978 0.0295076
63.8793 22.0402 0.0334884
72.4128 35.2243 2
71.8034 30.6768 2
69.8375 33.2691 2
68.9637 29.0393 2
64.0165 10.9835 2
63.8908 14.3324 2
63.509 17.4529 2
67.6084 24.9137 2
66.1797 27.6389 2
62.899 20.3275 2
64.7455 23.8348 2
62.0531 22.959 2
60.6855 11.1014 2
57.6121 11.4517 2
70.0561 35.3921 3.96959
69.465 31.1499 3.96934
67.6436 33.5927 3.96805
66.7565 29.6262 3.96734
65.5102 25.7034 3.96682
64.0796 28.2692 3.96998
62.3407 12.656 3.98396
62.808 24.6523 3.96807
62.1954 15.7924 3.97141
61.8051 18.6946 3.96623
61.1846 21.3581 3.96531
60.3431 23.7548 3.9691
59.2443 12.7857 3.97442
55.8737 10.2385 3.97935
56.4029 13.1298 3.97368
69.7682 50.9888 0.0200063
62.2254 65.694 0
58.8939 65.4139 0.0105774
67.7829 55.167 0.0198787
66.6468 52.2079 0.0311619
62.3351 62.4269 0.0159576
62.199 59.3978 0.0304258
64.658 56.0294 0.0295141
61.8166 56.6737 0.0336506
60.6695 63.9747 2
57.0261 66.7342 2
57.5566 63.6898 2
67.5045 50.1747 2
65.6983 54.1709 2
64.524 51.3794 2
60.7704 60.9332 2
62.8131 55.0618 2
60.649 58.1478 2
60.317 55.7723 2
55.071 67.9315 3.99172
59.217 62.3606 3.97473
55.804 64.9076 3.98362
56.3241 62.0792 3.97508
65.3128 49.4025 3.96628
63.6983 53.2872 3.9657
62.3841 50.6344 3.96721
59.3272 59.546 3.96831
61.0588 54.2958 3.96585
59.2711 56.9938 3.96394
59.2248 55.1654 3.96521
48.1017 68.5773 3.98716
50.9488 69.9312 3.99185
54.0858 71.1327 4
56.25 69.976 2
58.3339 68.6801 0
57.058 8.33663 3.98849
60.3285 7.74928 4
58.9228 9.65839 2
62.2255 9.30602 2
70.5744 48.8134 0.0204067
71.782 44.3527 0.0201271
68.9099 46.014 0.0310498
69.8021 41.7894 0.030641
72.405 39.8022 0.0195278
75 37.5 0
72.4879 37.5122 2
70.0393 39.6571 2
69.4281 43.9066 2
67.5822 41.4953 2
68.2632 48.1054 2
66.6882 45.435 2
70.1274 37.5216 3.96947
67.8224 39.5113 3.96834
67.2045 43.4666 3.96791
65.4805 41.2026 3.97232
66.0469 47.4126 3.96691
64.5696 44.8347 3.97055
72.4128 35.2242 0.0194826
71.8034 30.6763 0.0198165
69.838 33.2687 0.0304524
68.9637 29.0387 0.0307691
64.0165 10.9835 0
63.8888 14.3285 0.019101
63.5096 17.452 0.0290229
67.6087 24.9129 0.0306597
66.1796 27.6385 0.0329738
64.7459 23.8344 0.0332779
62.8997 20.327 0.0336688
62.0536 22.9586 0.0331879
60.683 11.0988 0.01458
57.6112 11.4534 0.0228522
70.0561 35.3923 2
69.4649 31.1504 2
67.6437 33.5928 2
66.7567 29.6265 2
62.343 12.6595 2
62.1949 15.7926 2
61.8044 18.695 2
65.51 25.7039 2
64.0784 28.2697 2
61.1836 21.3585 2
62.8074 24.6528 2
60.3429 23.7555 2
59.2453 12.7854 2
56.4035 13.1279 2
55.8743 10.2371 2
67.8607 35.5484 3.96831
67.2514 31.625 3.96774
65.634 33.9326 3.97237
64.5934 30.2037 3.97082
63.4813 26.4287 3.96913
62.1372 28.8006 3.97397
60.7731 14.23 3.97388
60.9501 25.3643 3.9711
60.6033 17.1416 3.96608
60.1951 19.8348 3.96371
59.5831 22.2876 3.96597
58.8607 24.3573 3.9716
54.037 9.13948 3.98134
57.9066 14.3462 3.97404
54.7848 12.0222 3.97469
55.3072 14.6693 3.97203
67.5048 50.1755 0.0314197
57.0251 66.7346 0.00910968
60.6678 63.9763 0.0134827
57.5565 63.6881 0.0208548
65.6989 54.1717 0.0306702
64.5241 51.3797 0.0341218
60.7706 60.9324 0.0264386
60.6493 58.1476 0.0360211
62.8138 55.062 0.0334154
60.3175 55.7725 0.0343633
55.0717 67.9314 2
59.2172 62.3619 2
55.8039 64.9087 2
56.3236 62.0815 2
65.3126 49.4021 2
63.698 53.287 2
62.384 50.6341 2
59.3266 59.5474 2
61.0592 54.2956 2
59.2715 56.9934 2
59.2252 55.165 2
53.043 68.9993 3.99175
53.9664 66.0114 3.98518
57.8765 60.8584 3.97413
54.6826 63.2023 3.97828
55.2063 60.5983 3.97378
63.1242 48.6435 3.96837
61.7025 52.5592 3.9664
60.1632 49.9892 3.96907
58.0046 58.2451 3.96544
59.2878 53.9255 3.967
58.0874 55.7888 3.96134
50.1084 67.8557 3.98686
47.4625 66.5776 3.98361
46.0553 69.1563 3.98735
48.1017 68.578 2
48.8028 70.7224 3.99196
50.9492 69.9312 2
51.8506 72.1454 4
54.0858 71.1327 2
56.25 69.9759 0
55.1028 7.14095 3.9902
58.3339 6.31992 4
57.0598 8.33743 2
60.3286 7.74926 2
58.9205 9.65684 0.0128234
62.2254 9.30607 0
68.2633 48.1061 0.0313794
69.4282 43.907 0.0307596
66.6886 45.4354 0.0324967
67.5823 41.4954 0.0317175
70.0394 39.6572 0.0305518
72.4884 37.512 0.0199332
70.1269 37.5216 2
67.8222 39.5112 2
67.2052 43.4663 2
65.4794 41.2024 2
66.047 47.4122 2
64.5683 44.8342 2
67.9212 37.522 3.96836
65.718 39.3664 3.97253
65.0992 43.0149 3.97182
63.6217 40.9177 3.97684
63.8843 46.7004 3.96938
62.666 44.1944 3.97455
70.0561 35.3921 0.0304105
69.465 31.1499 0.0306571
67.6436 33.5927 0.0319546
66.7565 29.6262 0.0326648
62.3407 12.656 0.0160407
62.1954 15.7924 0.0285949
61.8051 18.6946 0.0337674
65.5102 25.7034 0.033179
64.0796 28.2692 0.0300155
62.808 24.6523 0.0319331
61.1846 21.3581 0.0346914
60.3431 23.7548 0.030897
59.2443 12.7857 0.0255791
56.4029 13.1298 0.026324
55.8737 10.2385 0.0206522
67.8604 35.5485 2
67.2518 31.6253 2
65.633 33.9329 2
64.5924 30.2041 2
60.7732 14.2307 2
60.6028 17.1416 2
60.1961 19.8348 2
63.4805 26.4292 2
62.1352 28.8012 2
59.5846 22.2881 2
60.9494 25.365 2
58.8598 24.3584 2
57.9066 14.3453 2
55.3076 14.6687 2
54.0375 9.13807 2
54.7854 12.0199 2
65.8096 35.6693 3.97246
65.1139 32.1632 3.97136
64.1755 34.2575 3.97675
62.4526 30.6563 3.97491
61.5421 27.0975 3.97233
60.6911 29.1701 3.9773
59.3048 15.6819 3.9701
59.1884 25.8342 3.97448
59.1049 18.3759 3.96432
58.6808 20.8835 3.96291
58.1692 23.1321 3.96659
57.8294 24.709 3.97366
52.1119 8.15602 3.98393
53.0569 11.0257 3.97666
56.6689 15.7628 3.97268
53.8056 13.7007 3.97438
54.3661 16.0257 3.97371
55.071 67.9315 0.00828447
65.3128 49.4025 0.0337172
55.804 64.9076 0.016379
59.217 62.3606 0.0252688
56.3241 62.0792 0.0249194
63.6983 53.2872 0.0342979
62.3841 50.6344 0.0327948
59.3272 59.546 0.0316888
59.2711 56.9938 0.0360625
61.0588 54.2958 0.0341549
59.2248 55.1654 0.0347941
53.0435 68.9993 2
53.9663 66.0123 2
57.8757 60.8599 2
54.682 63.2031 2
55.206 60.6001 2
63.1235 48.6431 2
61.7034 52.5591 2
60.163 49.9886 2
58.0041 58.2465 2
59.2897 53.9252 2
58.0858 55.7877 2
52.0697 66.9985 3.98651
52.9527 64.2145 3.98168
56.6399 59.4736 3.97299
53.6776 61.6132 3.97607
54.25 59.3 3.97413
60.853 47.85 3.96991
59.6244 52.0771 3.96785
57.8728 49.5764 3.97079
56.7518 56.9638 3.96714
57.0578 54.0924 3.96469
50.1083 67.856 2
49.3365 65.9183 3.98357
47.4625 66.5782 2
46.8918 64.7307 3.98192
45.5576 67.0944 3.98366
43.9725 69.5883 3.98754
46.0553 69.1569 2
46.6093 71.3669 3.992
48.1017 68.5773 0.0128395
48.8033 70.7226 2
49.554 73.0099 4
50.9488 69.9312 0.00814859
51.8506 72.1455 2
54.0858 71.1327 0
53.0645 6.07214 3.99132
55.1042 7.14112 2
56.25 5.02411 4
58.3339 6.3199 2
57.058 8.33663 0.0115069
60.3285 7.74928 0
66.0469 47.4126 0.0330922
67.2045 43.4666 0.0320862
64.5696 44.8347 0.0294549
65.4805 41.2026 0.0276843
67.8224 39.5113 0.0316616
70.1274 37.5216 0.0305291
67.9212 37.522 2
65.7167 39.3662 2
65.098 43.0146 2
63.6193 40.9172 2
63.883 46.6999 2
62.6636 44.1937 2
65.824 37.5011 3.97251
63.7725 39.2602 3.97705
63.1839 42.5326 3.97574
62.2503 40.68 3.97707
61.826 45.8927 3.97227
61.2617 43.6552 3.97726
67.8607 35.5484 0.0316944
67.2514 31.625 0.0322616
65.634 33.9326 0.0276344
64.5934 30.2037 0.029185
60.7731 14.23 0.02612
60.6033 17.1416 0.0339203
60.1951 19.8348 0.0362911
63.4813 26.4287 0.0308746
62.1372 28.8006 0.0260278
60.9501 25.3643 0.0289043
59.5831 22.2876 0.0340303
58.8607 24.3573 0.0283995
57.9066 14.3462 0.0259593
55.3072 14.6693 0.0279653
54.037 9.13948 0.018661
54.7848 12.0222 0.0253071
65.8082 35.6694 2
65.1127 32.1635 2
64.1743 34.2578 2
62.4511 30.6567 2
59.3041 15.6822 2
59.105 18.3759 2
58.6857 20.8835 2
61.5408 27.0982 2
60.6901 29.1708 2
58.1678 23.1334 2
59.1876 25.8352 2
57.829 24.7104 2
56.6689 15.7616 2
54.3663 16.0261 2
53.8057 13.696 2
52.1122 8.15489 2
53.0571 11.0243 2
63.9734 35.6364 3.97637
62.7852 33.0611 3.9758
60.4254 30.6421 3.97668
59.4048 27.9471 3.97552
57.9269 17.0039 3.96718
57.5804 25.773 3.97625
57.6794 19.5034 3.96086
57.2695 21.8824 3.96333
57.0321 23.9976 3.96783
50.1123 7.28667 3.98653
51.2321 10.1307 3.97947
52.169 12.81 3.97652
55.5232 16.9976 3.97172
52.9711 15.2928 3.97148
53.7433 17.0114 3.97833
53.043 68.9993 0.00824734
53.9664 66.0114 0.0148209
63.1242 48.6435 0.0316302
54.6826 63.2023 0.0217231
57.8765 60.8584 0.0258667
55.2063 60.5983 0.0262249
61.7025 52.5592 0.0336015
60.1632 49.9892 0.0309295
58.0046 58.2451 0.0345602
58.0874 55.7888 0.038661
59.2878 53.9255 0.0329999
52.0697 66.9992 2
52.9524 64.2153 2
56.6394 59.4747 2
53.677 61.6133 2
54.2497 59.302 2
60.8517 47.8492 2
59.6245 52.0765 2
57.8703 49.5751 2
56.7505 56.9682 2
57.0557 54.0914 2
51.1677 65.125 3.98349
52.0442 62.532 3.97863
55.4651 58.2314 3.97472
52.8265 60.1151 3.97746
53.6241 58.4502 3.97906
58.0996 46.8046 3.97421
57.4504 51.75 3.96731
56.0596 49.5065 3.97064
55.4313 55.7633 3.96342
55.2682 53.3464 3.96313
50.1084 67.8557 0.013143
49.3364 65.9185 2
48.6176 64.1181 3.98245
47.4625 66.5776 0.016393
45.5576 67.095 2
46.8918 64.7312 2
46.3813 63.046 3.98213
45.132 65.1911 3.9817
43.6308 67.4648 3.98381
41.86 69.8755 3.98733
43.9724 69.5888 2
44.3766 71.8617 3.99196
46.0553 69.1563 0.012645
46.6097 71.3671 2
47.2057 73.7222 4
48.8028 70.7224 0.00803849
49.554 73.0099 2
51.8506 72.1454 0
50.9546 5.13256 3.99196
53.0654 6.07216 2
54.0858 3.86728 4
55.1028 7.14095 0.00980277
56.25 5.02406 2
58.3339 6.31992 0
63.8843 46.7004 0.030622
65.0992 43.0149 0.0281766
62.666 44.1944 0.0254535
63.6217 40.9177 0.0231619
65.718 39.3664 0.027468
67.9212 37.522 0.0316392
65.8228 37.5011 2
63.7702 39.2599 2
63.1819 42.532 2
62.2479 40.6795 2
61.8239 45.8919 2
61.2597 43.6544 2
63.8345 37.456 3.97665
61.9693 39.3431 3.97711
61.0091 41.9324 3.97707
60.0531 44.736 3.97682
65.8096 35.6693 0.0275373
65.1139 32.1632 0.02864
64.1755 34.2575 0.0232542
62.4526 30.6563 0.0250879
59.3048 15.6819 0.0299
59.1049 18.3759 0.0356817
58.6808 20.8835 0.0370886
61.5421 27.0975 0.0276744
60.6911 29.1701 0.022704
59.1884 25.8342 0.0255168
58.1692 23.1321 0.0334089
57.8294 24.709 0.0263365
56.6689 15.7628 0.0273178
54.3661 16.0257 0.0262948
53.8056 13.7007 0.025623
52.1119 8.15602 0.0160691
53.0569 11.0257 0.0233368
63.9715 35.6366 2
62.7835 33.0615 2
60.4238 30.6429 2
57.9261 17.0042 2
57.6822 19.5024 2
57.2725 21.8831 2
59.4039 27.9481 2
57.0313 23.9994 2
57.5799 25.7744 2
50.1126 7.28505 2
55.5234 16.997 2
53.7432 17.0106 2
52.9713 15.2909 2
52.1696 12.8097 2
51.2325 10.1293 2
62.0073 35.3715 3.97704
60.0629 32.7737 3.97706
58.3968 30.1202 3.97696
57.0854 27.4344 3.97681
56.6136 18.1827 3.96662
56.1147 25.161 3.97369
56.2971 20.5596 3.95988
55.9696 22.9234 3.96244
48.0567 6.52821 3.98847
49.3246 9.33567 3.98159
50.4316 12.0043 3.97654
51.3717 14.5175 3.97257
54.3924 17.9502 3.97363
52.347 17.0744 3.969
52.0697 66.9985 0.0134938
52.9527 64.2145 0.0183236
60.853 47.85 0.0300921
53.6776 61.6132 0.0239334
56.6399 59.4736 0.0270068
54.25 59.3 0.0258655
59.6244 52.0771 0.032146
57.8728 49.5764 0.029213
56.7518 56.9638 0.0328563
57.0578 54.0924 0.0353094
51.1675 65.1257 2
52.0437 62.5328 2
55.4645 58.2327 2
52.8263 60.1185 2
53.6237 58.4514 2
58.0986 46.8035 2
57.4491 51.749 2
56.0571 49.5055 2
55.4309 55.7639 2
55.2706 53.3467 2
50.3456 63.3764 3.98213
51.2393 60.9244 3.97653
54.1936 57.2476 3.97504
52.298 58.6085 3.97549
56.4123 44.1257 3.97755
55.2559 47.8405 3.97402
54.9276 51.3453 3.96593
53.9412 54.51 3.96448
49.3365 65.9183 0.016431
48.6175 64.1182 2
47.961 62.4684 3.98177
45.5576 67.0944 0.016341
46.8918 64.7307 0.0180755
43.6308 67.4654 2
46.3814 63.0464 2
45.1321 65.1917 2
45.9864 61.5771 3.98384
44.7666 63.4451 3.98041
43.3563 65.5001 3.98141
41.6631 67.6833 3.98364
39.7021 70.0221 3.98745
41.8599 69.8761 2
42.1109 72.2065 3.99203
43.9725 69.5883 0.0124556
44.3769 71.8619 2
44.8159 74.2794 4
46.6093 71.3669 0.00799937
47.2057 73.7222 2
49.554 73.0099 0
48.7853 4.32304 3.99258
50.9552 5.13201 2
51.8506 2.85458 4
53.0645 6.07214 0.00868408
54.0858 3.86728 2
56.25 5.02411 0
61.826 45.8927 0.027733
63.1839 42.5326 0.0242585
61.2617 43.6552 0.0227436
62.2503 40.68 0.022928
63.7725 39.2602 0.0229464
65.824 37.5011 0.0274945
63.8323 37.456 2
61.9672 39.3432 2
61.0073 41.9317 2
60.0522 44.7351 2
61.8057 37.4437 3.97737
59.9966 39.8262 3.97723
58.7194 42.8761 3.97689
63.9734 35.6364 0.0236254
62.7852 33.0611 0.0242043
60.4254 30.6421 0.0233155
57.9269 17.0039 0.0328242
57.6794 19.5034 0.0391436
57.2695 21.8824 0.0366659
59.4048 27.9471 0.0244823
57.5804 25.773 0.0237526
57.0321 23.9976 0.0321656
55.5232 16.9976 0.0282799
53.7433 17.0114 0.0216718
52.9711 15.2928 0.0285237
50.1123 7.28667 0.0134721
52.169 12.81 0.0234786
51.2321 10.1307 0.0205319
62.0053 35.3719 2
60.0609 32.774 2
58.3962 30.1211 2
56.6128 18.183 2
56.3011 20.557 2
55.9724 22.9249 2
57.0858 27.4356 2
56.1156 25.1627 2
48.0567 6.52707 2
49.325 9.33383 2
54.3929 17.9499 2
52.3469 17.0735 2
51.3713 14.5128 2
50.4322 12.0027 2
59.6394 35.1354 3.97711
57.7 32.3126 3.97657
56.2954 29.3997 3.97745
55.2028 26.6729 3.97735
55.3047 19.2208 3.96136
54.7571 24.1258 3.96385
54.9085 21.613 3.95984
45.9627 5.88308 3.98892
43.3742 7.47445 3.98589
47.3556 8.62606 3.9842
48.5994 11.3014 3.97837
49.7087 13.7566 3.97624
50.6227 16.1617 3.97546
53.0958 18.6987 3.96801
51.2803 18.0964 3.97788
51.1677 65.125 0.016508
52.0442 62.532 0.0213702
58.0996 46.8046 0.0257901
52.8265 60.1151 0.0225405
55.4651 58.2314 0.0252822
53.6241 58.4502 0.0209387
57.4504 51.75 0.0326891
56.0596 49.5065 0.029358
55.4313 55.7633 0.0365828
55.2682 53.3464 0.0368698
50.3453 63.3766 2
51.2387 60.9247 2
54.1934 57.249 2
52.2975 58.6096 2
56.4112 44.1249 2
55.2556 47.8397 2
54.9295 51.3453 2
53.9418 54.5113 2
49.59 61.7388 3.98052
55.2352 41.6689 3.97581
50.5557 59.3113 3.9737
52.1513 56.465 3.97003
53.8545 45.4947 3.97496
53.1212 49.2717 3.96972
52.5616 52.8114 3.96186
48.6176 64.1181 0.0175487
47.9609 62.4681 2
47.3265 61.0013 3.98514
43.6308 67.4648 0.0161867
45.132 65.1911 0.0183024
46.3813 63.046 0.0178662
41.6633 67.6835 2
43.3563 65.501 2
45.9866 61.5776 2
44.7668 63.4458 2
45.7627 60.6212 3.98324
44.4828 61.8237 3.98086
43.146 63.7166 3.97973
41.5459 65.6375 3.98045
39.6325 67.7623 3.98325
37.526 70.0469 3.98692
39.7019 70.0227 2
39.8177 72.4033 3.99183
41.86 69.8755 0.0126712
42.1112 72.2068 2
42.3947 74.6792 4
44.3766 71.8617 0.00803736
44.8159 74.2794 2
47.2057 73.7222 0
43.8519 5.36 3.9889
46.5712 3.64751 3.9927
48.7856 4.32259 2
49.554 1.99015 4
50.9546 5.13256 0.0080406
51.8506 2.85453 2
54.0858 3.86728 0
60.0531 44.736 0.0231801
61.0091 41.9324 0.0229321
61.9693 39.3431 0.0228905
63.8345 37.456 0.023352
61.8042 37.4438 2
59.9958 39.8264 2
58.7185 42.8751 2
59.4979 37.5651 3.97746
57.6743 40.6258 3.97744
54.6584 39.6853 3.97529
62.0073 35.3715 0.0229582
60.0629 32.7737 0.0229429
58.3968 30.1202 0.0230399
56.6136 18.1827 0.0333809
56.2971 20.5596 0.0401162
55.9696 22.9234 0.0375609
57.0854 27.4344 0.0231876
56.1147 25.161 0.0263125
54.3924 17.9502 0.0263679
52.347 17.0744 0.0309968
51.3717 14.5175 0.0274334
48.0567 6.52821 0.0115282
49.3246 9.33567 0.018411
50.4316 12.0043 0.0234568
59.639 35.135 2
45.9626 5.88236 2
43.3741 7.47364 2
57.6997 32.3131 2
56.2944 29.401 2
55.3043 19.2214 2
54.9161 21.6127 2
54.7565 24.128 2
55.1998 26.6753 2
47.3557 8.62412 2
48.5999 11.2993 2
53.0969 18.6978 2
51.2812 18.097 2
50.6233 16.1615 2
49.7087 13.7553 2
57.0602 34.779 3.9774
55.4154 31.5709 3.97693
54.2143 28.4873 3.97761
53.5649 25.5841 3.97594
53.9159 20.1795 3.96154
53.4561 22.7799 3.95527
41.3994 7.08029 3.98603
45.3604 7.99582 3.98652
42.8663 9.41783 3.98272
46.667 10.6575 3.98131
47.7417 13.1127 3.97821
48.9227 15.42 3.97312
49.9867 17.7262 3.97486
51.6137 19.3745 3.97645
50.3456 63.3764 0.0178692
51.2393 60.9244 0.0234731
56.4123 44.1257 0.0224546
55.2559 47.8405 0.0259811
52.298 58.6085 0.0245149
54.1936 57.2476 0.0249646
54.9276 51.3453 0.0340658
53.9412 54.51 0.0355243
49.5895 61.7385 2
55.2326 41.6674 2
50.5555 59.3128 2
52.151 56.4663 2
53.8565 45.4946 2
53.1292 49.2721 2
52.5616 52.8107 2
48.8423 60.1947 3.97844
52.0775 42.563 3.98114
49.7665 57.6043 3.97048
50.5217 54.3998 3.96252
51.5241 47.2028 3.97577
51.0534 50.8982 3.95649
47.7398 43.6993 3.98821
47.961 62.4684 0.0182295
47.3265 61.001 2
46.6127 59.7884 3.98569
41.6631 67.6833 0.0163561
43.3563 65.5001 0.0185921
44.7666 63.4451 0.0195926
45.9864 61.5771 0.0161629
39.6328 67.763 2
41.5457 65.6373 2
45.7628 60.6219 2
43.1461 63.7175 2
44.483 61.8245 2
44.6196 60.2809 3.98428
42.9498 62.0703 3.97772
41.5997 63.8093 3.97969
39.6474 65.6041 3.97931
37.5634 67.7437 3.98239
31.6973 65.1237 3.98064
33.3925 67.4819 3.98215
35.3339 69.9571 3.98714
37.5259 70.0478 2
37.5095 72.4579 3.99189
39.7021 70.0221 0.0125463
39.8179 72.4037 2
39.9526 74.9197 4
42.1109 72.2065 0.0079673
42.3947 74.6792 2
44.8159 74.2794 0
41.7365 4.96915 3.98909
43.8519 5.35915 2
44.3265 3.11067 3.99303
46.5714 3.64716 2
47.2057 1.27793 4
48.7853 4.32304 0.00742381
49.554 1.99013 2
51.8506 2.85458 0
58.7194 42.8761 0.0231069
59.9966 39.8262 0.022772
61.8057 37.4437 0.0226319
59.4983 37.5655 2
57.674 40.6263 2
54.657 39.6864 2
56.4491 37.8851 3.97717
49.1091 41.2694 3.98614
52.6733 39.3066 3.98352
39.4429 6.80413 3.98599
59.6394 35.1354 0.0228857
57.7 32.3126 0.0234333
56.2954 29.3997 0.0225466
55.3047 19.2208 0.0386421
54.9085 21.613 0.0401595
54.7571 24.1258 0.0361518
55.2028 26.6729 0.0226481
53.0958 18.6987 0.0319909
51.2803 18.0964 0.0221215
50.6227 16.1617 0.0245424
45.9627 5.88308 0.0110812
49.7087 13.7566 0.02376
47.3556 8.62606 0.0157995
48.5994 11.3014 0.0216305
43.3742 7.47445 0.0141095
57.0597 34.7785 2
41.3994 7.07909 2
45.3602 7.99512 2
42.8661 9.41712 2
55.4182 31.5694 2
54.2146 28.488 2
53.9172 20.1819 2
53.4557 22.7781 2
53.5631 25.5859 2
46.6671 10.6543 2
47.7421 13.1096 2
51.6155 19.3749 2
49.9865 17.7241 2
48.9223 15.4205 2
54.4612 33.9771 3.97596
53.1567 30.5761 3.97755
52.3073 27.3027 3.97574
51.9859 24.1918 3.97736
52.3174 21.1135 3.9733
41.0138 9.05183 3.98239
44.7255 9.99599 3.98464
42.4681 10.9043 3.98624
46.003 12.7361 3.97714
47.6735 14.5976 3.97311
48.0938 17.0042 3.97278
49.7948 19.7187 3.97212
49.59 61.7388 0.0194845
50.5557 59.3113 0.0263025
55.2352 41.6689 0.0241949
53.8545 45.4947 0.025039
53.1212 49.2717 0.0302801
52.1513 56.465 0.0299688
52.5616 52.8114 0.0381386
48.8418 60.1931 2
52.0917 42.5672 2
49.766 57.6053 2
50.5214 54.4016 2
51.5277 47.203 2
51.0539 50.8967 2
47.75 43.7235 2
47.9725 58.7275 3.9789
49.6955 45.2062 3.97889
48.5535 55.8974 3.97552
49.0246 52.5603 3.97754
49.461 48.9887 3.9739
45.5094 39.838 3.88054
45.9734 42.5701 3.91141
46.1473 45.7335 3.98388
43.3184 41.089 3.76881
41.8048 41.9714 3.60495
47.3265 61.0013 0.0148599
46.6123 59.7882 2
45.4586 58.7833 3.98293
39.6325 67.7623 0.0167499
41.5459 65.6375 0.0195531
43.146 63.7166 0.0202675
44.4828 61.8237 0.0191368
45.7627 60.6212 0.0167552
41.5997 63.8095 2
37.5636 67.7447 2
39.6472 65.6048 2
44.6197 60.2815 2
42.95 62.071 2
41.7529 62.4809 3.97879
42.4779 59.9659 3.9812
39.8938 63.5415 3.97747
37.6421 65.5022 3.98011
35.4636 67.6533 3.98239
33.5756 65.3355 3.97953
31.9592 63.2921 3.98036
29.8835 64.7155 3.98183
31.6972 65.1243 2
31.3771 67.1922 3.98285
33.3926 67.4827 2
33.1572 69.751 3.98701
35.3337 69.9579 2
35.1951 72.3723 3.99179
37.526 70.0469 0.0130819
37.5096 72.4584 2
37.5 75 4
39.8177 72.4033 0.00816649
39.9526 74.9197 2
42.3947 74.6792 0
39.6242 4.71671 3.98945
41.7365 4.96823 2
42.0628 2.71813 3.99328
43.8519 5.36 0.0110956
44.3266 3.11014 2
44.8158 0.721173 4
46.5712 3.64751 0.0072973
47.2057 1.27779 2
49.554 1.99015 0
57.6743 40.6258 0.0225588
59.4979 37.5651 0.0225378
54.6584 39.6853 0.0247078
49.1315 41.2833 2
56.4502 37.8854 2
52.6723 39.2931 2
53.5186 36.6314 3.97733
47.0337 40.3613 3.91747
50.0504 38.5233 3.99054
37.5169 6.67539 3.9859
39.4429 6.80277 2
39.2112 8.69487 3.98331
35.9427 8.4951 3.98393
57.0602 34.779 0.0226006
55.4154 31.5709 0.023069
54.2143 28.4873 0.0223921
53.9159 20.1795 0.0384606
53.4561 22.7799 0.0447333
53.5649 25.5841 0.0240571
51.6137 19.3745 0.0235468
49.9867 17.7262 0.025141
48.9227 15.42 0.0268813
45.3604 7.99582 0.0134808
47.7417 13.1127 0.021794
46.667 10.6575 0.0186946
41.3994 7.08029 0.0139701
42.8663 9.41783 0.0172814
54.4578 33.9796 2
41.0139 9.05075 2
44.7247 9.99549 2
42.4679 10.9043 2
53.1541 30.5759 2
52.3154 27.3039 2
52.3209 21.1141 2
51.9871 24.1952 2
46.0029 12.7312 2
47.6733 14.5944 2
49.7969 19.7185 2
48.0927 17.0024 2
52.0032 32.8909 3.98019
50.9534 29.2637 3.97541
50.5613 25.8254 3.97309
49.8701 22.3095 3.9833
40.5687 11.6116 3.9808
43.8574 11.9163 3.98013
45.7928 15.4362 3.98174
47.4861 19.3311 3.9772
45.9009 37.4826 3.87736
48.8423 60.1947 0.0215562
49.7665 57.6043 0.0295225
52.0775 42.563 0.0188581
51.5241 47.2028 0.024225
51.0534 50.8982 0.0435057
50.5217 54.3998 0.0374831
47.7398 43.6993 0.011789
47.9718 58.7291 2
49.7084 45.2163 2
48.5519 55.8998 2
49.0235 52.5645 2
49.4642 48.9855 2
45.5543 39.8487 2
45.9985 42.5968 2
46.1541 45.7407 2
43.3441 41.1179 2
41.8251 41.9897 2
46.8153 57.3296 3.98101
44.0703 39.3779 3.76732
42.1581 40.8473 3.65723
47.7821 47.2008 3.97932
47.1031 54.2117 3.97074
47.4453 50.7129 3.9692
44.5536 47.3347 3.9765
44.6237 41.9074 3.85941
44.6229 44.4675 3.92748
42.2304 42.5832 3.78186
40.7452 42.2934 3.64289
46.6127 59.7884 0.0143127
45.459 58.7836 2
43.8631 57.6986 3.98142
37.5634 67.7437 0.0176137
39.6474 65.6041 0.0206937
41.5997 63.8093 0.0203098
42.9498 62.0703 0.0222791
44.6196 60.2809 0.0157232
35.4638 67.6543 2
41.753 62.4815 2
39.8935 63.5421 2
37.6421 65.5031 2
42.4783 59.9665 2
40.6232 61.6352 3.98053
40.44 58.1878 3.97945
37.8368 63.2025 3.97815
35.573 65.4245 3.97968
33.5755 65.3362 2
31.9589 63.2928 2
33.6285 63.3298 3.97865
30.3786 62.8518 3.98123
32.1238 61.9963 3.98378
26.8712 61.4925 3.97862
28.0625 64.144 3.98139
29.8834 64.7161 2
29.4066 66.7565 3.98354
31.6973 65.1237 0.0193628
31.3773 67.193 2
31.0147 69.416 3.98694
33.3925 67.4819 0.0178532
33.157 69.7517 2
32.8922 72.1467 3.99188
35.3339 69.9571 0.0128581
35.1949 72.3727 2
35.0474 74.9194 4
37.5095 72.4579 0.00810507
37.5 75 2
39.9526 74.9197 0
35.6215 6.72653 3.98549
37.5237 4.61618 3.98956
39.6242 4.71553 2
39.7893 2.47468 3.99325
41.7365 4.96915 0.0109119
42.0629 2.71759 2
42.3946 0.32156 4
44.3265 3.11067 0.00696527
44.8159 0.72056 2
47.2057 1.27793 0
49.1091 41.2694 0.0138645
56.4491 37.8851 0.0228288
52.6733 39.3066 0.0164777
47.0551 40.3604 2
50.057 38.5113 2
53.5246 36.6367 2
50.8385 35.5798 3.97603
47.702 37.7547 3.93294
45.511 35.149 3.87744
43.3249 33.8971 3.76297
41.8052 33.0255 3.60086
37.4584 8.53666 3.98416
37.5168 6.6742 2
39.4429 6.80413 0.0140073
39.2115 8.69327 2
38.9763 10.1296 3.98364
35.899 9.77692 3.98136
34.1517 8.82582 3.98272
35.9423 8.49356 2
54.4612 33.9771 0.0240404
53.1567 30.5761 0.0224465
52.3073 27.3027 0.0242648
52.3174 21.1135 0.0266999
51.9859 24.1918 0.0226358
49.7948 19.7187 0.0278794
48.0938 17.0042 0.0272226
47.6735 14.5976 0.0268939
44.7255 9.99599 0.0153589
46.003 12.7361 0.0228623
41.0138 9.05183 0.0176065
42.4681 10.9043 0.0137567
52.0098 32.8903 2
40.5696 11.6117 2
43.8563 11.9167 2
50.9716 29.2642 2
50.5661 25.8278 2
49.8716 22.3069 2
45.7912 15.4239 2
47.4876 19.3349 2
49.5494 31.4889 3.98696
48.9865 27.5965 3.97495
49.2431 24.5029 3.97774
47.1481 22.0762 3.98373
38.3022 12.7419 3.9779
42.0994 14.3068 3.9789
44.7881 18.5198 3.97781
44.4216 37.4911 3.7771
45.9706 37.4907 2
47.9725 58.7275 0.0211011
48.5535 55.8974 0.0244792
49.6955 45.2062 0.0211091
49.461 48.9887 0.0260998
49.0246 52.5603 0.0224643
45.5094 39.838 0.119456
45.9734 42.5701 0.0885946
46.1473 45.7335 0.0161214
43.3184 41.089 0.23119
41.8048 41.9714 0.39505
46.814 57.3308 2
44.1067 39.3996 2
42.1521 40.8573 2
47.787 47.2012 2
47.1012 54.2159 2
47.4478 50.7167 2
44.5659 47.3135 2
44.6493 41.9317 2
44.6474 44.4872 2
42.2787 42.6152 2
40.7567 42.2923 2
45.3627 55.9178 3.98942
42.4821 39.2635 3.66907
40.6278 40.7349 3.76233
45.8947 48.8685 3.99064
45.4397 52.499 3.98306
43.2593 48.3414 3.9981
43.1934 46.0028 3.90892
43.3611 43.687 3.85739
40.8859 43.6921 3.76404
39.2453 42.5825 3.65679
45.4586 58.7833 0.0170684
43.8633 57.6997 2
42.0908 56.3069 3.98357
35.4636 67.6533 0.0176142
37.6421 65.5022 0.0198939
39.8938 63.5415 0.022535
41.7529 62.4809 0.0212056
42.4779 59.9659 0.0187991
35.573 65.4257 2
40.6233 61.636 2
37.8364 63.2032 2
40.4404 58.1894 2
38.9186 56.4796 3.99055
38.2508 60.3171 3.97889
35.6067 63.1955 3.97663
33.5756 65.3355 0.0204726
31.9592 63.2921 0.0196378
33.6284 63.3307 2
30.3785 62.8523 2
32.1242 61.9972 2
28.682 62.1973 3.98085
33.3456 61.5057 3.98027
31.0691 61.2138 3.98054
27.5758 59.5862 3.98084
23.8017 59.0731 3.97869
25.0377 60.8654 3.979
26.8715 61.493 2
26.2298 63.4742 3.98032
28.0625 64.1441 2
27.4633 66.1807 3.98375
29.8835 64.7155 0.0181684
29.4067 66.757 2
28.9071 68.9421 3.98675
31.3771 67.1922 0.0171529
31.0146 69.4167 2
30.6146 71.7777 3.99168
33.1572 69.751 0.0129908
32.8919 72.1471 2
32.6054 74.6784 4
35.1951 72.3723 0.00820794
35.0474 74.9197 2
37.5 75 0
33.7244 6.98193 3.98478
35.4356 4.68647 3.98942
35.6214 6.72551 2
37.5149 2.38718 3.99326
37.5236 4.61534 2
39.6242 4.71671 0.0105453
39.7892 2.47403 2
39.9526 0.0806499 4
42.0628 2.71813 0.00672281
42.3947 0.320817 2
44.8158 0.721173 0
44.0816 35.6017 3.76519
42.1608 34.1422 3.65181
47.0337 40.3613 0.0825293
50.0504 38.5233 0.00945902
53.5186 36.6314 0.0226747
47.7015 37.755 2
50.8512 35.5753 2
45.5476 35.1243 2
43.3558 33.8666 2
41.8262 33.0061 2
47.87 34.3051 3.96021
44.6247 33.0642 3.85339
42.233 32.4131 3.77499
40.7471 32.7072 3.63976
37.3108 10.6342 3.98101
37.4584 8.53494 2
37.5169 6.67539 0.0141012
39.2112 8.69487 0.0166903
38.9774 10.1282 2
34.7548 10.3848 3.98134
35.8994 9.77426 2
32.3787 9.37343 3.98039
34.1508 8.82376 2
35.9427 8.4951 0.0160693
52.0032 32.8909 0.0198059
50.9534 29.2637 0.0245857
50.5613 25.8254 0.0269097
49.8701 22.3095 0.0167031
47.4861 19.3311 0.022801
45.7928 15.4362 0.0182556
43.8574 11.9163 0.0198711
40.5687 11.6116 0.0192046
49.564 31.4861 2
38.3023 12.7402 2
42.1001 14.3102 2
48.9941 27.5979 2
49.2472 24.5009 2
47.1447 22.0686 2
44.7883 18.5389 2
47.3886 29.5945 3.98359
46.9313 25.2487 3.97913
44.2634 21.455 3.97788
36.5831 12.9412 3.97597
38.6829 14.8229 3.97583
41.7453 17.8815 3.97865
42.6024 37.4843 3.68527
44.4559 37.4902 2
45.9009 37.4826 0.122637
46.8153 57.3296 0.01899
47.1031 54.2117 0.0292647
47.7821 47.2008 0.0206772
47.4453 50.7129 0.0308011
44.0703 39.3779 0.232681
44.6237 41.9074 0.140593
44.6229 44.4675 0.072519
44.5536 47.3347 0.0235001
42.2304 42.5832 0.218143
42.1581 40.8473 0.342767
40.7452 42.2934 0.357112
45.3613 55.9173 2
42.4739 39.2633 2
40.6245 40.7204 2
45.8965 48.8764 2
45.4388 52.5054 2
43.2647 48.3598 2
43.2311 46.0329 2
43.397 43.7141 2
40.919 43.7363 2
39.2429 42.5821 2
43.6934 54.4122 3.99722
40.7245 39.1383 3.77915
39.1121 40.8026 3.75888
43.5617 50.4049 4.00453
41.8601 47.5454 3.94573
41.7665 45.0981 3.87263
39.3355 44.3684 3.76572
37.5057 42.6776 3.68118
43.8631 57.6986 0.0185805
42.0908 56.3081 2
40.4026 54.8919 3.98221
35.573 65.4245 0.0203155
37.8368 63.2025 0.0218479
40.6232 61.6352 0.0194723
40.44 58.1878 0.0205492
35.6064 63.1961 2
38.2511 60.3179 2
38.9187 56.4805 2
37.9945 55.2137 3.99127
36.9338 57.614 3.98412
35.3636 60.9011 3.9765
33.6285 63.3298 0.0213541
30.3786 62.8518 0.0187687
32.1238 61.9963 0.0162213
33.3463 61.5066 2
28.6823 62.1973 2
31.0696 61.2145 2
29.4075 60.2831 3.97882
32.3613 59.736 3.98866
28.0373 58.3675 3.99033
27.5768 59.5868 2
25.3906 58.5872 3.9774
22.7713 58.2272 3.96947
23.4056 60.3422 3.97922
23.8024 59.0741 2
25.0382 60.8662 2
24.4332 62.7656 3.98046
26.8712 61.4925 0.0213753
26.2299 63.4749 2
25.5477 65.4898 3.98263
28.0625 64.144 0.0186092
27.4634 66.1811 2
26.8366 68.3305 3.98676
29.4066 66.7565 0.0164606
28.907 68.9423 2
28.3696 71.263 3.99168
31.0147 69.416 0.0130649
30.6142 71.778 2
30.1842 74.2788 4
32.8922 72.1467 0.00811585
32.6053 74.6792 2
35.0474 74.9194 0
31.7889 7.42204 3.98353
33.348 4.92603 3.98883
33.724 6.98038 2
35.2451 2.46322 3.99316
35.4354 4.68585 2
35.6215 6.72653 0.0145089
37.5 0 4
37.5146 2.38673 2
37.5237 4.61618 0.0104376
39.7893 2.47468 0.00674897
39.9526 0.0802889 2
42.3946 0.32156 0
42.4712 35.7106 3.66743
44.1179 35.5799 2
40.6328 34.2615 3.76082
42.1514 34.1325 2
47.702 37.7547 0.0670647
50.8385 35.5798 0.0239656
45.511 35.149 0.122562
43.3249 33.8971 0.237029
41.8052 33.0255 0.399141
47.8872 34.3022 2
44.6526 33.0457 2
42.2858 32.3772 2
40.76 32.7077 2
45.9009 31.6426 3.93189
43.3553 31.3116 3.85849
40.8854 31.3083 3.76594
39.2451 32.4286 3.65556
35.6934 11.782 3.97943
37.3123 10.6317 2
37.4584 8.53666 0.0158365
38.9763 10.1296 0.0163563
33.0996 11.2238 3.97693
34.7543 10.3813 2
35.899 9.77692 0.0186354
30.4838 10.0234 3.98002
32.3778 9.37263 2
34.1517 8.82582 0.0172787
49.5494 31.4889 0.0130382
48.9865 27.5965 0.025048
49.2431 24.5029 0.0222583
47.1481 22.0762 0.0162674
44.7881 18.5198 0.0221881
42.0994 14.3068 0.0211014
38.3022 12.7419 0.0221034
36.5823 12.9352 2
47.4023 29.5689 2
38.6817 14.8146 2
41.7428 17.88 2
46.9389 25.2489 2
44.259 21.4394 2
45.271 27.7216 4.00252
43.6988 24.1704 4.00959
41.3234 20.8435 3.97984
35.7737 14.7757 3.97727
38.6819 17.6255 3.9785
40.776 37.4778 3.78974
42.6003 37.4867 2
44.4216 37.4911 0.222899
45.3627 55.9178 0.010584
45.4397 52.499 0.0169386
45.8947 48.8685 0.00935653
42.4821 39.2635 0.330931
43.3611 43.687 0.142609
43.1934 46.0028 0.0910758
43.2593 48.3414 0.00190099
40.8859 43.6921 0.235959
40.6278 40.7349 0.237669
39.2453 42.5825 0.343214
43.6908 54.4118 2
40.7092 39.1327 2
39.1144 40.7854 2
43.561 50.422 2
41.8515 47.5672 2
41.7889 45.1311 2
37.5031 42.6807 2
39.352 44.4078 2
41.8443 52.949 3.99513
39.1307 39.1509 3.77964
37.5056 40.8521 3.7736
35.7683 42.5901 3.65828
40.8564 49.5992 3.99704
39.7959 45.9316 3.84917
37.5041 44.5994 3.76413
42.0908 56.3069 0.016425
40.3995 54.9023 2
38.7212 53.7715 3.99681
35.6067 63.1955 0.0233737
38.2508 60.3171 0.0211102
38.9186 56.4796 0.00944502
35.3639 60.9007 2
36.9345 57.615 2
37.9937 55.2037 2
36.3246 55.2901 3.99877
34.4896 58.5065 3.98554
33.3456 61.5057 0.0197319
28.682 62.1973 0.0191525
31.0691 61.2138 0.019462
32.3621 59.7375 2
29.4085 60.2829 2
30.3149 57.8118 3.98423
28.0383 58.368 2
26.9728 56.8205 3.97537
27.5758 59.5862 0.0191589
25.3916 58.5882 2
23.8668 56.7874 3.96222
21.3541 57.3794 3.96795
22.0017 59.6115 3.97703
22.7718 58.2289 2
22.7382 62.0157 3.97811
23.4061 60.3431 2
23.8017 59.0731 0.0213107
25.0377 60.8654 0.0209953
24.4334 62.7664 2
23.682 64.707 3.98199
26.2298 63.4742 0.0196751
25.5477 65.4908 2
24.8088 67.5916 3.98635
27.4633 66.1807 0.0162511
26.8366 68.3312 2
26.1647 70.6037 3.9917
28.9071 68.9421 0.0132457
28.3692 71.263 2
27.7943 73.7221 4
30.6146 71.7777 0.00832497
30.1841 74.2794 2
32.6054 74.6784 0
29.8116 7.99679 3.98246
31.2535 5.33303 3.98791
31.7885 7.42098 2
32.9809 2.70151 3.99285
33.3477 4.92495 2
33.7244 6.98193 0.0152207
35.0474 0.080333 4
35.2448 2.46293 2
35.4356 4.68647 0.0105825
37.5 0 2
37.5149 2.38718 0.00674135
39.9526 0.0806499 0
40.73 35.832 3.77668
42.4636 35.7136 2
44.0816 35.6017 0.234805
28.5444 10.6988 3.97888
39.1076 34.207 3.75831
40.624 34.2759 2
42.1608 34.1422 0.348193
47.87 34.3051 0.0397893
44.6247 33.0642 0.14661
42.233 32.4131 0.225013
40.7471 32.7072 0.360244
45.9301 31.6248 2
43.39 31.2796 2
40.9221 31.2634 2
39.2483 32.43 2
44.1721 29.8384 3.92595
41.7606 29.901 3.87118
39.3395 30.637 3.76455
37.5086 32.3422 3.68085
34.0945 12.9453 3.97562
35.693 11.7759 2
37.3108 10.6342 0.0189904
31.188 11.9941 3.97795
33.0996 11.2228 2
34.7548 10.3848 0.0186596
30.4824 10.0207 2
32.3787 9.37343 0.0196075
47.3886 29.5945 0.0164073
46.9313 25.2487 0.0208706
36.5831 12.9412 0.0240325
44.2634 21.455 0.0221224
41.7453 17.8815 0.0213538
38.6829 14.8229 0.0241688
35.7744 14.7814 2
45.2758 27.7213 2
38.6794 17.6271 2
41.3183 20.8361 2
43.7025 24.1618 2
33.6111 15.8941 3.97718
42.8843 26.5731 3.99323
40.8578 23.4123 4.00797
38.4121 20.4038 3.98472
35.8523 17.5297 3.97964
39.1353 37.4893 3.80332
40.7621 37.4781 2
42.6024 37.4843 0.314728
43.6934 54.4122 0.00277821
43.5617 50.4049 -0.00452615
40.7245 39.1383 0.220853
41.7665 45.0981 0.127367
41.8601 47.5454 0.0542713
39.3355 44.3684 0.234278
39.1121 40.8026 0.241122
37.5057 42.6776 0.318817
41.8409 52.9464 2
39.1209 39.1386 2
37.5051 40.8303 2
40.8592 49.6148 2
35.7646 42.5894 2
39.8145 45.972 2
37.4971 44.6338 2
39.7847 51.8118 4.00091
37.5022 39.1608 3.80757
35.9011 40.8159 3.75938
34.2655 42.305 3.64029
35.6722 44.3806 3.76182
38.6685 48.5773 3.96005
37.5177 46.2249 3.86679
40.4026 54.8919 0.0177869
38.7213 53.7645 2
36.7455 53.1079 3.99856
35.3636 60.9011 0.0235025
36.9338 57.614 0.0158818
37.9945 55.2137 0.00872969
34.49 58.5057 2
36.325 55.2919 2
33.2482 55.476 3.99358
32.3613 59.736 0.0113364
29.4075 60.2831 0.0211786
30.316 57.8116 2
28.7345 55.308 3.97931
28.0373 58.3675 0.0096722
26.9733 56.8212 2
25.3591 55.1261 3.96835
21.8468 55.3273 3.96422
25.3906 58.5872 0.0226039
23.867 56.79 2
20.2404 57.0082 3.97056
20.6564 58.7629 3.97181
21.3542 57.3808 2
21.1707 61.1621 3.97697
22.0022 59.6124 2
22.7713 58.2272 0.0305323
21.8959 63.834 3.98065
22.7385 62.0164 2
23.4056 60.3422 0.0207817
24.4332 62.7656 0.0195427
23.6821 64.7078 2
22.8372 66.7346 3.98534
25.5477 65.4898 0.0173745
24.8088 67.5925 2
24.0089 69.8048 3.99176
26.8366 68.3305 0.0132412
26.1642 70.6039 2
25.446 73.0099 4
28.3696 71.263 0.0083215
27.7943 73.7222 2
30.1842 74.2788 0
27.8215 8.65639 3.98211
29.1557 5.87938 3.98673
29.8107 7.99462 2
30.7262 3.09854 3.99257
31.253 5.3321 2
31.7889 7.42204 0.0164707
32.6053 0.320823 4
32.9805 2.70099 2
33.348 4.92603 0.0111668
35.0474 0.0802903 2
35.2451 2.46322 0.0068416
37.5 0 0
39.1289 35.8399 3.78067
40.7124 35.8371 2
42.4712 35.7106 0.332569
28.5432 10.6977 2
26.6228 11.395 3.97877
29.2271 12.65 3.97886
37.5015 34.1697 3.77236
39.1105 34.2256 2
40.6328 34.2615 0.23918
45.9009 31.6426 0.0681115
43.3553 31.3116 0.141508
40.8854 31.3083 0.234055
39.2451 32.4286 0.344436
44.1764 29.8274 2
41.7795 29.8721 2
39.3501 30.5972 2
37.5105 32.3383 2
42.2134 28.5043 3.89692
39.7967 29.0641 3.87005
37.5105 30.416 3.76345
35.7735 32.4294 3.65664
31.9178 14.4944 3.97746
34.0952 12.9457 2
35.6934 11.782 0.020573
31.187 11.99 2
33.0996 11.2238 0.0230654
30.4838 10.0234 0.019979
45.271 27.7216 -0.00251607
43.6988 24.1704 -0.00958902
35.7737 14.7757 0.0227341
41.3234 20.8435 0.020161
38.6819 17.6255 0.0215023
33.6094 15.8894 2
35.8488 17.5323 2
42.8933 26.5749 2
38.4091 20.4034 2
40.8514 23.3973 2
33.5557 17.404 3.97844
40.317 25.7798 3.98248
38.0657 23.0731 3.99864
35.5836 20.1164 3.98281
37.5006 37.4999 3.82601
39.1265 37.4883 2
40.776 37.4778 0.210263
41.8443 52.949 0.00486863
40.8564 49.5992 0.00296167
39.1307 39.1509 0.220364
39.7959 45.9316 0.150827
37.5041 44.5994 0.235866
37.5056 40.8521 0.226397
35.7683 42.5901 0.341721
39.7842 51.8144 2
37.5027 39.1476 2
35.8989 40.7994 2
38.6813 48.6199 2
34.2541 42.3044 2
35.6543 44.422 2
37.5203 46.2665 2
37.6596 50.8711 4.00098
35.8791 39.1685 3.78065
34.3852 40.7564 3.76134
33.2018 41.9839 3.60422
34.1128 43.6944 3.76487
35.1921 45.9298 3.86253
36.9158 48.199 3.92879
38.7212 53.7715 0.00319455
36.7409 53.1101 2
34.4019 52.4166 3.99652
34.4896 58.5065 0.0144558
36.3246 55.2901 0.00123461
33.2489 55.4798 2
30.5674 53.3355 3.98409
30.3149 57.8118 0.0157662
28.735 55.3093 2
26.9556 53.4215 3.9721
26.9728 56.8205 0.0246288
25.3593 55.13 2
23.6549 53.4562 3.95848
20.564 53.1906 3.96163
19.9639 55.8096 3.96537
21.8454 55.3288 2
23.8668 56.7874 0.0377752
19.4531 57.8697 3.97108
20.2401 57.0096 2
19.7124 60.1888 3.9754
20.6565 58.7635 2
21.3541 57.3794 0.0320452
20.2092 62.8537 3.97753
21.1712 61.164 2
22.0017 59.6115 0.0229697
20.9386 65.7631 3.98425
21.8961 63.8349 2
22.7382 62.0157 0.0218907
23.682 64.707 0.0180077
22.8372 66.7352 2
21.9115 68.8718 3.99139
24.8088 67.5916 0.0136519
24.0082 69.805 2
23.1494 72.1454 4
26.1647 70.6037 0.00829625
25.446 73.0099 2
27.7943 73.7221 0
25.8606 9.38531 3.98111
27.0704 6.54342 3.98566
27.8204 8.65545 2
28.4885 3.64459 3.99201
29.155 5.87799 2
29.8116 7.99679 0.0175373
30.1841 0.720592 4
30.7256 3.09815 2
31.2535 5.33303 0.0120873
32.6053 0.320817 2
32.9809 2.70151 0.00715213
35.0474 0.080333 0
37.5015 35.8453 3.80648
39.1166 35.8495 2
40.73 35.832 0.223321
24.7779 12.0807 3.97853
23.7539 14.3705 3.97668
28.5444 10.6988 0.0211245
26.622 11.3948 2
29.2262 12.649 2
27.2934 13.3835 3.97819
29.784 14.2122 3.97847
35.8967 34.2064 3.7578
37.5036 34.1911 2
39.1076 34.207 0.241687
37.5086 32.3422 0.319149
44.1721 29.8384 0.0740481
41.7606 29.901 0.128818
39.3395 30.637 0.235447
42.2341 28.4735 2
39.8092 29.0268 2
37.5143 30.3789 2
35.7721 32.4299 2
39.9778 27.7032 3.90226
37.5003 28.783 3.86653
35.6786 30.6489 3.76783
34.275 32.7137 3.64026
30.9313 16.8559 3.97822
31.9168 14.4874 2
34.0945 12.9453 0.0243769
31.188 11.9941 0.0220533
42.8843 26.5731 0.00676562
40.8578 23.4123 -0.00797284
33.6111 15.8941 0.0228212
35.8523 17.5297 0.0203572
38.4121 20.4038 0.0152821
33.5509 17.4162 2
35.5837 20.1196 2
40.3252 25.7641 2
38.0543 23.0617 2
32.8703 19.8087 3.98938
37.7729 25.3792 3.99457
35.1942 22.7878 3.99439
35.8664 37.5039 3.80432
37.5004 37.5 2
39.1353 37.4893 0.196685
39.7847 51.8118 -0.000911347
38.6685 48.5773 0.0399489
37.5022 39.1608 0.192428
37.5177 46.2249 0.13321
35.6722 44.3806 0.23818
35.9011 40.8159 0.240623
34.2655 42.305 0.359714
37.6484 50.893 2
35.8911 39.1567 2
34.3877 40.7431 2
36.8931 48.2426 2
33.1809 42.0012 2
34.0852 43.7363 2
35.1771 45.9627 2
35.5158 50.0392 3.99077
34.2879 39.1679 3.7788
32.8445 40.8651 3.65425
32.7732 42.5976 3.77743
33.2469 45.1016 3.86846
34.3544 47.3027 3.90345
36.7455 53.1079 0.00144165
34.3957 52.4232 2
32.0885 51.151 4.01275
33.2482 55.476 0.00641553
30.5676 53.3397 2
28.519 51.5566 3.9848
28.7345 55.308 0.0206932
26.9552 53.4249 2
25.1918 51.7079 3.9559
25.3591 55.1261 0.0316497
23.6541 53.4588 2
22.0977 51.7638 3.95419
19.3482 51.5954 3.9622
18.9786 54.2815 3.96272
20.5634 53.1898 2
18.4693 56.7027 3.96704
19.9627 55.811 2
21.8468 55.3273 0.0357835
18.3778 59.0921 3.96934
19.4528 57.8707 2
20.2404 57.0082 0.029445
18.622 61.7553 3.97447
19.7131 60.19 2
20.6564 58.7629 0.0281856
19.1277 64.6725 3.98289
20.2092 62.855 2
21.1707 61.1621 0.0230327
19.8857 67.8085 3.99126
20.9385 65.7639 2
21.8959 63.834 0.0193506
22.8372 66.7346 0.0146563
21.9108 68.8717 2
20.9142 71.1327 4
24.0089 69.8048 0.00824443
23.1494 72.1455 2
25.446 73.0099 0
23.0974 12.7965 3.97797
23.9731 10.1738 3.9801
25.024 7.31413 3.98461
25.8597 9.38479 2
26.2803 4.32869 3.99148
27.0696 6.54271 2
27.8215 8.65639 0.0178877
27.7943 1.27781 4
28.4876 3.64417 2
29.1557 5.87938 0.0132677
30.1841 0.720551 2
30.7262 3.09854 0.00743248
32.6053 0.320823 0
35.8698 35.8432 3.77796
37.5025 35.859 2
39.1289 35.8399 0.219331
24.777 12.0794 2
23.7544 14.3712 2
22.4834 15.0484 3.97855
25.3598 13.919 3.97657
24.0314 15.6342 3.97944
26.6228 11.395 0.021234
29.2271 12.65 0.0211372
27.2934 13.3837 2
29.782 14.2105 2
28.3626 15.9877 3.97796
34.3862 34.2699 3.76017
35.8941 34.2242 2
37.5015 34.1697 0.227638
35.7735 32.4294 0.343364
37.5105 30.416 0.236553
42.2134 28.5043 0.103081
39.7967 29.0641 0.129953
39.9955 27.6722 2
37.5008 28.744 2
35.6626 30.6038 2
34.2601 32.7163 2
37.5738 27.4185 3.91385
35.2017 29.0803 3.86872
34.1222 31.3226 3.76479
33.2167 33.0363 3.60301
30.2175 19.3741 3.98094
30.9291 16.8485 2
31.9178 14.4944 0.0225434
40.317 25.7798 0.017522
38.0657 23.0731 0.00135677
33.5557 17.404 0.0215624
35.5836 20.1164 0.0171859
32.868 19.8218 2
35.1885 22.7762 2
37.7746 25.3665 2
32.3219 22.5079 3.9964
35.0245 25.3384 4.0004
34.2299 37.5123 3.79079
35.8755 37.5049 2
37.5006 37.4999 0.173993
37.6596 50.8711 -0.000978808
36.9158 48.199 0.0712106
35.8791 39.1685 0.219345
35.1921 45.9298 0.137467
34.1128 43.6944 0.235129
34.3852 40.7564 0.238661
33.2018 41.9839 0.395778
35.504 50.0441 2
34.3053 39.1625 2
32.8493 40.8727 2
34.3468 47.3434 2
32.7351 42.6292 2
33.2294 45.1317 2
33.3381 49.0483 3.98191
32.5257 39.2907 3.66988
31.676 41.106 3.76631
31.6429 43.6962 3.85964
32.4217 46.2481 3.90223
34.4019 52.4166 0.0034831
32.0896 51.161 2
30.0006 49.6846 3.99106
30.5674 53.3355 0.0159061
28.5176 51.5544 2
26.6574 49.9346 3.96987
26.9556 53.4215 0.0279035
25.1905 51.7058 2
23.508 50.1353 3.96386
23.6549 53.4562 0.0415209
22.0969 51.762 2
20.6413 50.2655 3.96484
18.1558 50.2895 3.96788
17.9473 52.7587 3.96419
19.3467 51.5948 2
17.4744 55.3186 3.96274
18.9752 54.2817 2
20.564 53.1906 0.038374
17.1484 57.8546 3.96615
18.4685 56.703 2
19.9639 55.8096 0.034632
17.1406 60.5323 3.9724
18.3779 59.0932 2
19.4531 57.8697 0.0289246
17.4091 63.4632 3.97839
18.6224 61.7561 2
19.7124 60.1888 0.024595
17.9423 66.6169 3.99034
19.1275 64.6735 2
20.2092 62.8537 0.0224673
18.75 69.9759 4
19.8848 67.8082 2
20.9386 65.7631 0.0157484
21.9115 68.8718 0.00861147
20.9142 71.1327 2
23.1494 72.1454 0
21.589 13.6184 3.97772
22.1912 11.0342 3.97905
23.0974 12.7971 2
23.0418 8.18064 3.98364
23.9723 10.1726 2
24.1179 5.14348 3.99094
25.0232 7.31347 2
25.8606 9.38531 0.0188933
25.446 1.99014 4
26.2792 4.32869 2
27.0704 6.54342 0.0143372
27.7943 1.27778 2
28.4885 3.64459 0.00799319
30.1841 0.720592 0
34.2831 35.8543 3.77873
35.8804 35.8549 2
37.5015 35.8453 0.193521
21.3113 15.8457 3.98098
24.7779 12.0807 0.0214657
23.7539 14.3705 0.0233208
25.3598 13.9172 2
22.4842 15.0485 2
24.0318 15.6361 2
23.273 16.265 3.97535
25.3875 16.1047 3.9791
27.2934 13.3835 0.0218146
29.784 14.2122 0.0215263
28.36 15.9915 2
27.4489 18.8265 3.97908
32.851 34.1569 3.65528
34.3925 34.2845 2
35.8967 34.2064 0.242199
34.275 32.7137 0.359736
35.6786 30.6489 0.232173
37.5003 28.783 0.133468
39.9778 27.7032 0.0977369
37.5773 27.382 2
33.195 33.0192 2
35.1947 29.0355 2
34.0854 31.2743 2
35.0982 27.5335 3.91245
33.243 29.9141 3.86626
32.7877 32.4159 3.76406
29.6125 21.9731 3.99583
30.2162 19.3866 2
30.9313 16.8559 0.0217845
37.7729 25.3792 0.0054326
35.1942 22.7878 0.00561168
32.8703 19.8087 0.0106224
32.3213 22.4984 2
35.0441 25.326 2
31.8115 25.7352 4.00784
32.3894 37.5135 3.68789
34.2485 37.512 2
35.8664 37.5039 0.195677
35.5158 50.0392 0.0092317
34.3544 47.3027 0.09655
34.2879 39.1679 0.221204
33.2469 45.1016 0.131536
32.7732 42.5976 0.222571
32.8445 40.8651 0.34575
33.3294 49.0489 2
32.5401 39.2898 2
31.6433 41.1328 2
32.3888 46.281 2
31.6104 43.7242 2
31.3245 47.8875 3.98454
30.9253 39.4012 3.76689
30.3752 41.9393 3.85527
30.6735 44.8529 3.92351
32.0885 51.151 -0.0127454
29.9998 49.6944 2
28.0857 48.1198 3.96015
28.519 51.5566 0.015198
26.6565 49.9326 2
24.8652 48.4029 3.97216
25.1918 51.7079 0.0440953
23.5076 50.1331 2
21.8882 48.7263 3.96975
22.0977 51.7638 0.0458073
20.6393 50.2644 2
19.2319 49.0445 3.97202
17.0504 49.2951 3.97314
16.8977 51.3745 3.96697
18.1578 50.2883 2
16.452 53.8465 3.96446
17.9452 52.7584 2
19.3482 51.5954 0.0378003
15.9939 56.4591 3.96528
17.4715 55.3192 2
18.9786 54.2815 0.0372799
15.7572 59.1953 3.9689
17.1484 57.8552 2
18.4693 56.7027 0.0329612
15.7908 62.1294 3.97329
17.1411 60.5341 2
18.3778 59.0921 0.0306579
16.0895 65.2993 3.98907
17.4087 63.4649 2
18.622 61.7553 0.0255313
16.6661 68.6801 4
17.9411 66.6164 2
19.1277 64.6725 0.0171064
18.75 69.9759 2
19.8857 67.8085 0.00873502
20.9142 71.1327 0
20.2226 14.6096 3.97612
21.5892 13.6185 2
20.5308 12.0056 3.97831
21.1445 9.15105 3.98282
22.1908 11.0343 2
23.0974 12.7965 0.0220315
22.017 6.0827 3.99033
23.0409 8.17966 2
23.9731 10.1738 0.0198963
23.1494 2.85457 4
24.1166 5.14363 2
25.024 7.31413 0.0153858
25.446 1.99012 2
26.2803 4.32869 0.00851628
27.7943 1.27781 0
32.5172 35.7337 3.66665
34.3015 35.8617 2
35.8698 35.8432 0.222043
21.3122 15.8451 2
20.3128 16.978 3.98007
22.1053 16.6516 3.97224
25.3598 13.919 0.0234273
22.4834 15.0484 0.0214456
24.0314 15.6342 0.0205586
25.3871 16.104 2
23.2736 16.2655 2
24.2148 18.4837 3.97342
27.053 21.4957 3.99209
28.3626 15.9877 0.0220421
27.4495 18.8245 2
31.6917 33.9243 3.7631
32.8584 34.1463 2
34.3862 34.2699 0.239828
33.2167 33.0363 0.396994
34.1222 31.3226 0.23521
35.2017 29.0803 0.131283
37.5738 27.4185 0.086153
35.0969 27.4919 2
32.7192 32.384 2
33.2287 29.8945 2
32.6804 28.239 3.92331
31.6427 31.3318 3.85969
28.9214 24.4564 3.9825
29.6067 21.9843 2
30.2175 19.3741 0.0190624
35.0245 25.3384 -0.000402212
32.3219 22.5079 0.00359777
31.8127 25.7128 2
29.8258 27.389 3.97522
30.5665 37.51 3.77552
32.4015 37.5123 2
34.2299 37.5123 0.209209
33.3381 49.0483 0.0180863
32.4217 46.2481 0.0977719
32.5257 39.2907 0.330121
31.6429 43.6962 0.140362
31.676 41.106 0.233688
31.3217 47.8916 2
30.8811 39.4233 2
30.3483 41.9557 2
30.6494 44.8764 2
29.4558 46.4937 4.00045
29.4807 39.8538 3.87925
29.0796 43.0861 3.92363
30.0006 49.6846 0.00894466
28.0828 48.1163 2
26.2239 46.5816 3.97635
26.6574 49.9346 0.0301286
24.8646 48.4002 2
23.093 47.0026 3.97493
23.508 50.1353 0.0361393
21.8867 48.7253 2
20.2089 47.5631 3.97723
20.6413 50.2655 0.0351572
19.2336 49.0431 2
17.8537 48.1373 3.97634
16.2884 48.6505 3.97612
17.0517 49.2942 2
15.9779 50.1392 3.97062
15.4599 52.3909 3.96642
16.8985 51.3738 2
18.1558 50.2895 0.0321218
14.8983 54.9611 3.96441
16.4524 53.8462 2
17.9473 52.7587 0.0358148
14.4698 57.7261 3.96613
15.9945 56.459 2
17.4744 55.3186 0.0372623
14.27 60.6834 3.97232
15.7577 59.1964 2
17.1484 57.8546 0.0338459
14.3347 63.8579 3.9855
15.7906 62.1307 2
17.1406 60.5323 0.0275972
14.6715 67.2507 4
16.0878 65.2984 2
17.4091 63.4632 0.0216073
16.6661 68.6801 2
17.9423 66.6169 0.00965779
18.75 69.9759 0
18.9383 15.7964 3.9775
20.223 14.6094 2
18.9813 13.118 3.97678
21.589 13.6184 0.0222838
20.5307 12.0056 2
19.3438 10.2399 3.98192
19.9915 7.14739 3.98978
21.1439 9.15093 2
22.1912 11.0342 0.0209533
20.9142 3.86727 4
22.0153 6.08301 2
23.0418 8.18064 0.0163649
23.1494 2.85451 2
24.1179 5.14348 0.00905849
25.446 1.99014 0
30.9438 35.6309 3.76752
32.5279 35.7355 2
34.2831 35.8543 0.221268
21.3113 15.8457 0.0190155
22.106 16.6517 2
20.3134 16.9766 2
19.2642 18.4276 3.97243
21.7928 17.8728 3.98009
25.3875 16.1047 0.020897
23.273 16.265 0.0246527
24.2145 18.4853 2
22.3123 19.925 3.96775
24.6348 21.3723 3.98815
26.5302 23.7634 3.97231
27.0519 21.491 2
27.4489 18.8265 0.0209244
30.4076 33.0961 3.86855
31.6662 33.8863 2
32.851 34.1569 0.344716
32.7877 32.4159 0.235943
33.243 29.9141 0.13374
35.0982 27.5335 0.0875453
32.6386 28.2102 2
31.6044 31.2955 2
30.3588 29.6511 3.94386
28.075 26.5998 3.98927
28.9155 24.4724 2
29.6125 21.9731 0.00417401
31.8115 25.7352 -0.00783758
29.8203 27.3597 2
29.085 37.5193 3.87811
30.5388 37.5107 2
32.3894 37.5135 0.312109
31.3245 47.8875 0.0154574
30.6735 44.8529 0.0764862
30.9253 39.4012 0.233114
30.3752 41.9393 0.144729
29.4543 46.5065 2
29.4454 39.8735 2
29.0504 43.1154 2
27.6515 44.8011 3.97258
27.2511 40.5945 3.94956
28.0857 48.1198 0.0398475
26.2197 46.583 2
24.3538 45.1234 3.97602
24.8652 48.4029 0.027837
23.0918 47.002 2
21.1926 45.8299 3.97802
21.8882 48.7263 0.0302494
20.2077 47.5618 2
18.5408 46.6893 3.97801
19.2319 49.0445 0.0279764
17.8549 48.1362 2
16.4987 47.679 3.97711
16.2897 48.6497 2
15.3229 48.9868 3.97403
17.0504 49.2951 0.0268599
15.9796 50.1384 2
14.5796 50.9611 3.96871
13.8707 53.4187 3.96556
15.461 52.3904 2
16.8977 51.3745 0.0330345
13.2651 56.1579 3.96637
14.8976 54.9612 2
16.452 53.8465 0.0355362
12.8539 59.1174 3.97073
14.4706 57.7261 2
15.9939 56.4591 0.0347169
12.6805 62.3 3.98246
14.2701 60.6837 2
15.7572 59.1953 0.0310967
12.7746 65.6939 4
14.3328 63.8559 2
15.7908 62.1294 0.0267131
14.6714 67.2507 2
16.0895 65.2993 0.0109294
16.6661 68.6801 0
17.6793 17.1737 3.97131
18.9387 15.7957 2
17.5139 14.3834 3.97582
20.2226 14.6096 0.023876
18.9815 13.1178 2
17.6395 11.4597 3.98043
20.5308 12.0056 0.0216893
19.3433 10.2398 2
18.0516 8.34044 3.98932
18.75 5.0241 4
19.9898 7.14844 2
21.1445 9.15105 0.0171787
20.9142 3.86727 2
22.017 6.0827 0.00967398
23.1494 2.85457 0
29.498 35.1696 3.88153
30.8925 35.6064 2
32.5172 35.7337 0.333348
22.1053 16.6516 0.0277597
20.3128 16.978 0.0199324
21.7934 17.8714 2
19.2644 18.4262 2
18.0233 19.9658 3.95973
20.9063 19.4033 3.97227
24.2148 18.4837 0.0265825
22.3117 19.9248 2
24.634 21.3742 2
22.4199 21.7577 3.97777
24.7987 23.2053 3.97543
25.664 25.9955 3.97745
26.532 23.7603 2
27.053 21.4957 0.00791429
28.7864 32.4231 3.92741
30.3719 33.0732 2
31.6917 33.9243 0.236903
31.6427 31.3318 0.140306
32.6804 28.239 0.0766912
30.3513 29.6517 2
27.3129 29.189 4.00677
28.0657 26.612 2
28.9214 24.4564 0.017503
29.8258 27.389 0.0247808
27.3613 37.3683 3.92996
29.0261 37.5075 2
30.5665 37.51 0.22448
29.4558 46.4937 -0.000453498
29.0796 43.0861 0.0763738
29.4807 39.8538 0.120754
27.6412 44.8274 2
27.2319 40.5972 2
25.6807 43.1081 3.98838
24.5077 39.454 3.97543
26.2239 46.5816 0.0236529
24.3453 45.1243 2
22.2406 43.8798 3.97777
23.093 47.0026 0.0250712
21.1899 45.8291 2
19.2493 44.9219 3.9776
20.2089 47.5631 0.0227658
18.5412 46.6881 2
16.8234 46.1756 3.97704
17.8537 48.1373 0.0236603
16.5001 47.6782 2
15.0718 47.6418 3.97546
16.2884 48.6505 0.0238788
15.3247 48.9861 2
13.883 49.5238 3.9709
15.9779 50.1392 0.0293765
14.5806 50.9606 2
12.943 51.8594 3.96691
12.1529 54.52 3.9661
13.8708 53.4186 2
15.4599 52.3909 0.0335818
11.5394 57.452 3.97053
13.2656 56.1578 2
14.8983 54.9611 0.035588
11.1354 60.6255 3.98015
12.8545 59.1169 2
14.4698 57.7261 0.033867
10.9835 64.0165 4
12.6787 62.297 2
14.27 60.6834 0.0276818
12.7745 65.694 2
14.3347 63.8579 0.0145025
14.6715 67.2507 0
16.4227 18.6708 3.96459
17.6794 17.1729 2
16.1072 15.794 3.97292
18.9383 15.7964 0.0224978
17.5141 14.3827 2
16.0216 12.8144 3.97816
18.9813 13.118 0.0232217
17.6392 11.4597 2
16.2027 9.66364 3.98877
19.3438 10.2399 0.0180833
18.0498 8.34186 2
16.6661 6.31991 4
18.75 5.02404 2
19.9915 7.14739 0.0102249
20.9142 3.86727 0
27.8944 34.8097 3.9205
29.4613 35.1531 2
30.9438 35.6309 0.232476
16.7348 21.4015 3.96517
21.7928 17.8728 0.0199144
19.2642 18.4276 0.0275706
20.9062 19.4018 2
18.0236 19.965 2
19.7919 21.6059 3.96878
22.3123 19.925 0.0322508
24.6348 21.3723 0.0118472
22.4195 21.7578 2
24.7986 23.2045 2
23.0056 24.6452 3.97297
24.8545 28.5792 3.97885
25.6605 25.9925 2
26.5302 23.7634 0.0276854
26.6353 31.7747 3.98168
28.7582 32.3999 2
30.4076 33.0961 0.131448
30.3588 29.6511 0.0561355
27.3339 29.1703 2
28.075 26.5998 0.0107333
25.1917 36.8597 3.9808
27.3491 37.361 2
29.085 37.5193 0.121893
27.6515 44.8011 0.0274216
27.2511 40.5945 0.0504434
25.6633 43.1212 2
24.4907 39.4546 2
23.4015 41.8146 3.98015
22.2247 38.5225 3.97775
24.3538 45.1234 0.0239796
22.2395 43.8801 2
20.0807 42.8568 3.9767
21.1926 45.8299 0.0219753
19.2496 44.922 2
17.199 44.3426 3.97694
18.5408 46.6893 0.0219934
16.8251 46.1747 2
15.015 46.0626 3.97591
16.4987 47.679 0.0228932
15.0732 47.6412 2
13.4029 47.9874 3.97265
15.3229 48.9868 0.0259733
13.8842 49.5233 2
12.1674 50.2391 3.96808
14.5796 50.9611 0.0312927
12.9434 51.8591 2
11.15 52.8311 3.96634
10.3302 55.7069 3.96995
12.1535 54.5198 2
13.8707 53.4187 0.0344436
9.70201 58.8479 3.97911
11.5398 57.4516 2
13.2651 56.1579 0.0336283
9.30605 62.2254 4
11.1338 60.6222 2
12.8539 59.1174 0.0292725
10.9835 64.0165 2
12.6805 62.3 0.0175372
12.7746 65.6939 0
15.1709 20.2029 3.96438
16.4227 18.6706 2
14.759 17.3207 3.96661
17.6793 17.1737 0.028686
16.1075 15.7931 2
14.485 14.298 3.97559
17.5139 14.3834 0.0241751
16.0213 12.814 2
14.4455 11.1151 3.98776
17.6395 11.4597 0.0195726
16.2009 9.66549 2
14.6715 7.74927 4
18.0516 8.34044 0.0106781
16.6661 6.31988 2
18.75 5.0241 0
25.8543 34.3004 3.98843
27.8714 34.8178 2
29.498 35.1696 0.118474
17.9425 22.3529 3.97079
15.6023 22.9441 3.96793
16.7352 21.4015 2
20.9063 19.4033 0.0277302
18.0233 19.9658 0.0402703
19.7922 21.6055 2
19.8369 24.4261 3.97079
22.4199 21.7577 0.0222333
24.7987 23.2053 0.0245692
23.0041 24.6451 2
22.2219 27.8809 3.97311
24.1923 31.2528 3.97673
24.8679 28.5792 2
25.664 25.9955 0.0225532
26.6176 31.7425 2
28.7864 32.4231 0.0725851
27.3129 29.189 -0.0067661
22.9451 36.2889 3.9825
25.1769 36.8638 2
27.3613 37.3683 0.070037
25.6807 43.1081 0.0116212
24.5077 39.454 0.0245731
23.3904 41.8141 2
22.2166 38.5209 2
21.1208 40.6361 3.97552
20.5109 37.8037 3.97697
22.2406 43.8798 0.0222313
20.0794 42.8581 2
17.6604 42.068 3.97642
19.2493 44.9219 0.0224024
17.2006 44.3426 2
15.0502 44.173 3.97626
16.8234 46.1756 0.0229599
15.0161 46.0621 2
13.0929 46.2757 3.97392
15.0718 47.6418 0.0245435
13.404 47.9869 2
11.5469 48.537 3.96909
13.883 49.5238 0.0290954
12.1681 50.2388 2
10.2777 51.0759 3.96654
12.943 51.8594 0.0330926
11.1506 52.8308 2
9.23875 53.8871 3.96989
8.38544 56.9812 3.97962
10.3307 55.7062 2
12.1529 54.52 0.0338964
7.74927 60.3285 4
9.70076 58.8443 2
11.5394 57.452 0.029473
9.306 62.2255 2
11.1354 60.6255 0.0198514
10.9835 64.0165 0
13.9972 21.769 3.96498
15.1713 20.2028 2
13.4617 18.9153 3.9666
16.4227 18.6708 0.0354129
14.7594 17.3201 2
13.0328 15.8947 3.97195
16.1072 15.794 0.0270781
14.4847 14.2974 2
12.7832 12.689 3.98572
16.0216 12.8144 0.0218352
14.4437 11.1173 2
12.7746 9.30605 4
16.2027 9.66364 0.0112264
14.6715 7.74924 2
16.6661 6.31991 0
23.5317 33.8411 3.9839
25.8291 34.2928 2
27.8944 34.8097 0.079502
17.7738 24.0786 3.96969
17.9438 22.353 2
14.4336 24.478 3.96966
15.6036 22.9443 2
16.7348 21.4015 0.0348271
19.2947 27.2538 3.9721
19.7919 21.6059 0.0312197
19.834 24.426 2
21.5597 30.7237 3.97546
23.0056 24.6452 0.0270255
22.2301 27.8824 2
24.1718 31.2522 2
24.8545 28.5792 0.021151
26.6353 31.7747 0.0183222
20.6322 35.9546 3.9768
22.9453 36.288 2
25.1917 36.8597 0.0192006
23.4015 41.8146 0.0198452
22.2247 38.5225 0.022245
21.1268 40.6357 2
20.5106 37.8024 2
18.4054 39.0049 3.97724
20.0807 42.8568 0.0232973
17.6611 42.0682 2
15.0333 41.894 3.97684
17.199 44.3426 0.0230591
15.0516 44.1725 2
12.8553 44.3744 3.97471
15.015 46.0626 0.0240863
13.0943 46.2752 2
11.0576 46.7218 3.96987
13.4029 47.9874 0.0273476
11.5476 48.5366 2
9.54317 49.2363 3.96658
12.1674 50.2391 0.0319156
10.2782 51.0755 2
8.27156 52.001 3.96964
11.15 52.8311 0.0336617
9.23925 53.8862 2
7.19438 55.0322 3.98056
6.31991 58.3339 4
8.38453 56.9777 2
10.3302 55.7069 0.030047
7.74924 60.3285 2
9.70201 58.8479 0.0208912
9.30605 62.2254 0
13.325 25.3846 3.97255
12.8858 23.2984 3.96702
13.9963 21.7688 2
12.2473 20.5601 3.967
15.1709 20.2029 0.0356232
13.4629 18.9152 2
11.664 17.5742 3.97069
14.759 17.3207 0.0333948
13.0333 15.8934 2
11.2214 14.375 3.9814
14.485 14.298 0.0244095
12.7811 12.6915 2
10.9835 10.9835 4
14.4455 11.1151 0.0122352
12.7745 9.306 2
14.6715 7.74927 0
20.9943 33.4483 3.97593
23.5315 33.8416 2
25.8543 34.3004 0.0115719
16.0962 26.4378 3.97202
17.7742 24.0787 2
17.9425 22.3529 0.0292117
14.4337 24.4784 2
15.6023 22.9441 0.0320715
18.6787 30.2228 3.97486
19.2926 27.2541 2
19.8369 24.4261 0.0292063
21.5629 30.7239 2
22.2219 27.8809 0.0268918
24.1923 31.2528 0.0232715
18.0173 35.9859 3.97801
20.6331 35.9559 2
22.9451 36.2889 0.0174988
21.1208 40.6361 0.0244772
20.5109 37.8037 0.0230282
18.4036 39.0047 2
14.5408 39.1699 3.9775
17.6604 42.068 0.0235833
15.0344 41.8937 2
12.5499 42.2646 3.97583
15.0502 44.173 0.0237403
12.8566 44.374 2
10.6446 44.7921 3.97065
13.0929 46.2757 0.0260784
11.0585 46.7215 2
8.92783 47.3156 3.96664
11.5469 48.537 0.0309107
9.54332 49.2359 2
7.43841 50.0347 3.96924
10.2777 51.0759 0.0334583
8.27192 52.0002 2
6.13501 53.0075 3.98092
9.23875 53.8871 0.0301146
7.19382 55.0292 2
5.0241 56.25 4
6.31988 58.3339 2
8.38544 56.9812 0.0203838
7.74927 60.3285 0
13.5916 26.8387 3.97203
11.9957 24.8032 3.9689
13.3243 25.3848 2
11.1551 22.2423 3.96615
12.8862 23.2986 2
13.9972 21.769 0.0350231
12.2484 20.5602 2
10.395 19.326 3.97033
13.4617 18.9153 0.0334048
11.6651 17.5743 2
9.7626 16.1591 3.97919
13.0328 15.8947 0.0280478
11.2195 14.3787 2
9.30607 12.7746 4
12.7832 12.689 0.0142791
10.9835 10.9835 2
12.7746 9.30605 0
18.1902 33.1553 3.97707
20.9952 33.4498 2
23.5317 33.8411 0.0161002
15.7214 29.6722 3.97462
16.0956 26.4382 2
17.7738 24.0786 0.0303057
14.4336 24.478 0.0303406
18.6775 30.2232 2
19.2947 27.2538 0.0278956
21.5597 30.7237 0.0245355
15.1603 36.0356 3.97775
18.0181 35.9857 2
20.6322 35.9546 0.023205
12.7777 37.8317 3.97754
18.4054 39.0049 0.0227579
14.5414 39.1697 2
12.0528 40.135 3.97667
15.0333 41.894 0.0231627
12.5509 42.2642 2
10.2504 42.7699 3.97092
12.8553 44.3744 0.0252901
10.6453 44.7919 2
8.40676 45.3179 3.967
11.0576 46.7218 0.0301326
8.9276 47.3153 2
6.72958 48 3.96893
9.54317 49.2363 0.033417
7.43863 50.034 2
5.21182 50.9109 3.98063
8.27156 52.001 0.0303627
6.13474 53.0055 2
3.86727 54.0858 4
7.19438 55.0322 0.0194426
5.02404 56.25 2
6.31991 58.3339 0
13.068 29.0561 3.97171
11.4399 26.5028 3.96928
13.591 26.839 2
10.2157 23.9739 3.96674
11.9968 24.8035 2
13.325 25.3846 0.0274493
9.24744 21.1422 3.96974
11.1558 22.2424 2
12.8858 23.2984 0.0329775
12.2473 20.5601 0.0329997
10.3961 19.3264 2
8.41825 18.03 3.97929
11.664 17.5742 0.0293127
9.76119 16.1634 2
7.74928 14.6715 4
11.2214 14.375 0.0186017
9.30602 12.7745 2
10.9835 10.9835 0
14.7155 32.8898 3.97681
18.1882 33.1553 2
20.9943 33.4483 0.0240676
15.7229 29.6729 2
16.0962 26.4378 0.0279756
18.6787 30.2228 0.0251364
13.0708 36.2187 3.97721
15.1604 36.0356 2
18.0173 35.9859 0.0219861
12.7796 37.8314 2
11.3969 38.3096 3.97648
14.5408 39.1699 0.022505
12.055 40.1348 2
9.83535 40.7494 3.97141
12.5499 42.2646 0.024165
10.2518 42.7696 2
7.95678 43.2673 3.96738
10.6446 44.7921 0.0293498
8.40699 45.3176 2
6.1356 45.9052 3.96881
8.92783 47.3156 0.0333601
6.72976 47.9994 2
4.42331 48.7515 3.98001
7.43841 50.0347 0.0307596
5.21171 50.9098 2
2.85457 51.8506 4
6.13501 53.0075 0.0190776
3.86727 54.0858 2
5.0241 56.25 0
12.2121 31.2755 3.97288
10.862 28.4295 3.96957
13.0695 29.0566 2
9.43328 25.8034 3.96708
11.4405 26.503 2
13.5916 26.8387 0.0279688
8.23405 23.0254 3.96964
10.2163 23.9741 2
11.9957 24.8032 0.0310965
7.20035 19.9796 3.9799
9.24848 21.1428 2
11.1551 22.2423 0.0338452
10.395 19.326 0.0296738
8.41743 18.0342 2
6.31992 16.6661 4
9.7626 16.1591 0.0208073
7.74926 14.6714 2
9.30607 12.7746 0
12.2382 34.3086 3.97698
14.7166 32.8904 2
18.1902 33.1553 0.0229295
15.7214 29.6722 0.0253826
10.9502 36.615 3.97582
13.0722 36.2187 2
15.1603 36.0356 0.0222481
12.7777 37.8317 0.0224596
11.3991 38.3096 2
9.42289 38.8217 3.97202
12.0528 40.135 0.0233337
9.83647 40.7491 2
7.56811 41.2097 3.9678
10.2504 42.7699 0.0290762
7.95609 43.2671 2
5.64741 43.7681 3.96882
8.40676 45.3179 0.0329984
6.13574 45.9047 2
3.76885 46.5371 3.97963
6.72958 48 0.0310708
4.4234 48.751 2
1.99014 49.554 4
5.21182 50.9109 0.0193651
2.85451 51.8506 2
3.86727 54.0858 0
11.0381 32.9319 3.97478
10.1787 30.3945 3.9701
12.2136 31.2759 2
8.74498 27.7369 3.96717
10.8628 28.4298 2
13.068 29.0561 0.0282855
7.35948 24.9838 3.96934
9.43341 25.8037 2
11.4399 26.5028 0.0307161
6.11725 22.0026 3.98082
8.23471 23.026 2
10.2157 23.9739 0.033261
5.02411 18.75 4
7.19999 19.9829 2
9.24744 21.1422 0.0302618
8.41825 18.03 0.0207112
6.3199 16.6661 2
7.74928 14.6715 0
10.5509 35.007 3.97556
12.2403 34.3091 2
14.7155 32.8898 0.023188
9.0861 36.9862 3.97264
10.952 36.6151 2
13.0708 36.2187 0.0227932
11.3969 38.3096 0.0235195
9.42429 38.8216 2
7.2455 39.1817 3.96825
9.83535 40.7494 0.0285854
7.56819 41.2095 2
5.26246 41.6139 3.9688
7.95678 43.2673 0.0326249
5.64751 43.7677 2
3.24654 44.2818 3.97966
6.1356 45.9052 0.0311884
3.76904 46.5367 2
1.27781 47.2057 4
4.42331 48.7515 0.0199857
1.99012 49.554 2
2.85457 51.8506 0
10.1873 33.8901 3.97565
9.46122 32.1636 3.97094
11.0399 32.9322 2
8.09259 29.6997 3.9675
10.1798 30.3948 2
12.2121 31.2755 0.0271153
6.60299 27.0094 3.96918
8.74462 27.7371 2
10.862 28.4295 0.0304318
5.17264 24.0951 3.98072
7.35982 24.9843 2
9.43328 25.8034 0.0329229
3.86728 20.9142 4
6.11713 22.0046 2
8.23405 23.0254 0.0303569
5.02406 18.75 2
7.20035 19.9796 0.0201047
6.31992 16.6661 0
8.90711 35.2833 3.97271
10.5521 35.0071 2
12.2382 34.3086 0.023017
7.02514 37.2064 3.96823
9.08722 36.9861 2
10.9502 36.615 0.0241764
9.42289 38.8217 0.0279814
7.24597 39.1815 2
4.99001 39.4674 3.969
7.56811 41.2097 0.0321976
5.26289 41.6136 2
2.85694 42.0021 3.97971
5.64741 43.7681 0.0311823
3.24661 44.2816 2
0.720592 44.8159 4
3.76885 46.5371 0.0203732
1.27778 47.2057 2
1.99014 49.554 0
8.9479 33.7039 3.97219
10.1886 33.8903 2
7.52767 31.6123 3.96785
9.46254 32.1638 2
11.0381 32.9319 0.0252173
5.94793 29.0702 3.96924
8.09203 29.6998 2
10.1787 30.3945 0.0298999
4.36029 26.2475 3.98025
6.60313 27.0098 2
8.74498 27.7369 0.0328299
2.85458 23.1494 4
5.17264 24.0961 2
7.35948 24.9838 0.0306631
3.86728 20.9142 2
6.11725 22.0026 0.0191768
5.02411 18.75 0
6.97359 35.3074 3.96823
8.90808 35.2833 2
10.5509 35.007 0.0244388
4.84009 37.3399 3.96941
7.02567 37.2064 2
9.0861 36.9862 0.0273635
7.2455 39.1817 0.0317493
4.99044 39.4672 2
2.60497 39.7138 3.97971
5.26246 41.6139 0.0312014
2.85729 42.0021 2
0.320823 42.3947 4
3.24654 44.2818 0.0203416
0.720551 44.8159 2
1.27781 47.2057 0
7.13715 33.4631 3.96809
8.94862 33.704 2
10.1873 33.8901 0.0243542
5.41852 31.1339 3.96953
7.5275 31.6124 2
9.46122 32.1636 0.0290626
3.68191 28.4434 3.97988
5.94807 29.0706 2
8.09259 29.6997 0.0325021
1.99015 25.446 4
4.36037 26.2478 2
6.60299 27.0094 0.0308242
2.85453 23.1494 2
5.17264 24.0951 0.019284
3.86728 20.9142 0
4.8544 35.2517 3.96952
6.97358 35.3074 2
8.90711 35.2833 0.0272888
2.49639 37.4284 3.98041
4.84012 37.3399 2
7.02514 37.2064 0.0317662
4.99001 39.4674 0.0310037
2.6054 39.7141 2
0.080333 39.9526 4
2.85694 42.0021 0.0202876
0.320817 42.3947 2
0.720592 44.8159 0
5.04781 33.1904 3.96957
7.13702 33.4632 2
8.9479 33.7039 0.0278069
3.14611 30.6661 3.97992
5.41866 31.1343 2
7.52767 31.6123 0.0321511
1.27793 27.7943 4
3.68212 28.4437 2
5.94793 29.0702 0.0307569
1.99013 25.446 2
4.36029 26.2475 0.0197518
2.85458 23.1494 0
2.54849 35.159 3.98021
4.85494 35.2519 2
6.97359 35.3074 0.0317718
0 37.5 4
2.49642 37.4288 2
4.84009 37.3399 0.0305863
2.60497 39.7138 0.0202913
0.0802903 39.9526 2
0.320823 42.3947 0
2.76611 32.9057 3.98035
5.04796 33.1908 2
7.13715 33.4631 0.0319069
0.721173 30.1842 4
3.14634 30.6666 2
5.41852 31.1339 0.0304727
1.27779 27.7943 2
3.68191 28.4434 0.0201249
1.99015 25.446 0
0.0806499 35.0474 4
2.54901 35.1594 2
4.8544 35.2517 0.0304811
0 37.5 2
2.49639 37.4284 0.0195924
0.080333 39.9526 0
0.32156 32.6054 4
2.76622 32.9063 2
5.04781 33.1904 0.0304283
0.72056 30.1841 2
3.14611 30.6661 0.0200837
1.27793 27.7943 0
0.0802889 35.0474 2
2.54849 35.159 0.0197891
0 37.5 0
0.320817 32.6053 2
2.76611 32.9057 0.0196488
0.721173 30.1842 0
0.0806499 35.0474 0
0.32156 32.6054 0
CELLS 1910 17190
8 18 6 25 56 2 0 5 16
8 57 23 6 18 17 4 0 2
8 78 36 9 29 31 11 1 7
8 31 11 1 7 79 37 10 30
8 110 57 18 50 48 17 2 14
8 50 18 56 111 14 2 16 49
8 116 62 22 55 52 20 3 15
8 56 25 67 118 16 5 24 53
8 119 63 23 57 54 21 4 17
8 55 22 63 119 15 3 21 54
8 58 26 68 121 18 6 25 56
8 122 65 26 58 57 23 6 18
8 73 31 7 27 142 79 30 71
8 143 78 29 72 73 31 7 27
8 83 147 76 34 32 74 28 8
8 84 148 78 36 33 75 29 9
8 76 34 8 28 148 84 33 75
8 37 79 150 86 10 30 77 35
8 151 87 36 78 80 38 11 31
8 80 38 11 31 152 88 37 79
8 175 100 42 94 96 44 12 40
8 44 96 176 101 12 40 95 43
8 101 176 98 46 43 95 41 13
8 46 98 178 103 13 41 97 45
8 178 103 45 97 147 83 32 74
8 189 116 55 109 106 52 15 47
8 111 56 118 191 49 16 53 107
8 192 119 57 110 108 54 17 48
8 109 55 119 192 47 15 54 108
8 194 122 58 112 110 57 18 50
8 112 58 121 195 50 18 56 111
8 115 61 19 51 197 124 59 113
8 115 61 125 198 51 19 60 114
8 198 125 62 116 114 60 20 52
8 200 127 64 120 116 62 22 55
8 118 67 132 202 53 24 66 117
8 121 68 133 203 56 25 67 118
8 120 64 128 204 55 22 63 119
8 204 128 65 122 119 63 23 57
8 206 134 68 121 123 69 26 58
8 123 69 26 58 207 131 65 122
8 226 147 74 138 140 76 28 70
8 229 148 75 139 143 78 29 72
8 140 76 28 70 229 148 75 139
8 142 79 30 71 231 150 77 141
8 144 80 31 73 232 152 79 142
8 233 151 78 143 144 80 31 73
8 150 86 35 77 235 154 81 145
8 235 154 81 145 146 82 39 91
8 146 82 39 91 236 155 90 165
8 238 157 83 147 149 85 34 76
8 239 158 84 148 151 87 36 78
8 149 85 34 76 239 158 84 148
8 152 88 37 79 241 160 86 150
8 242 161 87 151 153 89 38 80
8 153 89 38 80 243 162 88 152
8 171 98 41 92 265 178 97 169
8 265 178 97 169 226 147 74 138
8 172 96 40 93 266 176 95 170
8 266 176 95 170 171 98 41 92
8 269 175 94 173 172 96 40 93
8 271 180 99 174 175 100 42 94
8 197 124 59 113 271 180 99 174
8 272 181 100 175 177 102 44 96
8 273 182 101 176 179 104 46 98
8 177 102 44 96 273 182 101 176
8 179 104 46 98 275 184 103 178
8 275 184 103 178 238 157 83 147
8 188 115 51 105 283 197 113 186
8 188 115 198 284 105 51 114 187
8 284 198 116 189 187 114 52 106
8 286 200 120 193 189 116 55 109
8 191 118 202 288 107 53 117 190
8 195 121 203 289 111 56 118 191
8 193 120 204 290 109 55 119 192
8 290 204 122 194 192 119 57 110
8 196 123 58 112 292 207 122 194
8 293 206 121 195 196 123 58 112
8 199 126 61 115 297 211 124 197
8 298 212 127 200 198 125 62 116
8 199 126 212 298 115 61 125 198
8 205 129 64 120 300 214 127 200
8 301 217 130 201 202 132 66 117
8 209 136 168 264 301 217 130 201
8 302 219 132 202 203 133 67 118
8 303 220 133 203 206 134 68 121
8 205 129 215 304 120 64 128 204
8 304 215 131 207 204 128 65 122
8 306 221 134 206 208 135 69 123
8 208 135 69 123 307 218 131 207
8 210 137 167 263 309 223 136 209
8 328 238 147 226 230 149 76 140
8 228 146 91 166 329 236 165 260
8 231 150 77 141 330 235 145 227
8 330 235 145 227 228 146 91 166
8 332 239 148 229 233 151 78 143
8 230 149 76 140 332 239 148 229
8 232 152 79 142 334 241 150 231
8 234 153 80 144 335 243 152 232
8 336 242 151 233 234 153 80 144
8 236 155 90 165 338 245 164 259
8 241 160 86 150 339 246 154 235
8 339 246 154 235 237 156 82 146
8 237 156 82 146 340 247 155 236
8 342 249 157 238 240 159 85 149
8 343 250 158 239 242 161 87 151
8 240 159 85 149 343 250 158 239
8 243 162 88 152 345 252 160 241
8 244 163 253 346 153 89 161 242
8 244 163 89 153 347 254 162 243
8 311 224 261 371 210 137 167 263
8 263 167 262 372 209 136 168 264
8 267 179 98 171 375 275 178 265
8 375 275 178 265 328 238 147 226
8 376 273 176 266 267 179 98 171
8 268 177 96 172 376 273 176 266
8 379 272 175 269 268 177 96 172
8 380 271 174 270 269 175 94 173
8 283 197 113 186 380 271 174 270
8 381 277 180 271 272 181 100 175
8 297 211 124 197 381 277 180 271
8 382 278 181 272 274 183 102 177
8 274 183 102 177 383 279 182 273
8 383 279 182 273 276 185 104 179
8 385 281 184 275 342 249 157 238
8 276 185 104 179 385 281 184 275
8 285 199 115 188 393 297 197 283
8 394 298 200 286 284 198 116 189
8 285 199 298 394 188 115 198 284
8 291 205 120 193 396 300 200 286
8 397 301 201 287 288 202 117 190
8 295 209 264 374 397 301 201 287
8 398 302 202 288 289 203 118 191
8 399 303 203 289 293 206 121 195
8 291 205 304 400 193 120 204 290
8 400 304 207 292 290 204 122 194
8 294 208 123 196 402 307 207 292
8 403 306 206 293 294 208 123 196
8 296 210 263 373 405 309 209 295
8 408 312 213 299 297 211 126 199
8 299 213 313 409 199 126 212 298
8 409 313 214 300 298 212 127 200
8 305 216 129 205 411 315 214 300
8 412 318 217 301 302 219 132 202
8 309 223 136 209 412 318 217 301
8 413 320 219 302 303 220 133 203
8 306 221 321 414 206 134 220 303
8 307 218 131 207 415 316 215 304
8 305 216 316 415 205 129 215 304
8 417 322 221 306 308 222 135 208
8 308 222 135 208 418 319 218 307
8 310 225 137 210 420 325 223 309
8 423 326 224 311 310 225 137 210
8 329 236 165 260 441 338 259 368
8 442 342 238 328 333 240 149 230
8 331 237 146 228 443 340 236 329
8 334 241 150 231 444 339 235 330
8 444 339 235 330 331 237 146 228
8 446 343 239 332 336 242 151 233
8 333 240 149 230 446 343 239 332
8 335 243 152 232 448 345 241 334
8 337 244 153 234 449 347 243 335
8 337 244 346 450 234 153 242 336
8 338 245 164 259 452 349 258 367
8 340 247 155 236 453 350 245 338
8 345 252 160 241 454 351 246 339
8 454 351 246 339 341 248 156 237
8 341 248 156 237 455 352 247 340
8 240 159 251 344 342 249 354 457
8 242 161 253 346 343 250 355 458
8 343 250 355 458 240 159 251 344
8 347 254 162 243 460 357 252 345
8 348 255 358 461 244 163 253 346
8 348 255 163 244 462 359 254 347
8 473 360 257 365 363 256 364 482
8 452 349 258 367 365 257 366 485
8 422 324 369 488 311 224 261 371
8 371 261 370 490 263 167 262 372
8 407 311 371 491 296 210 263 373
8 373 263 372 492 295 209 264 374
8 493 385 275 375 442 342 238 328
8 377 276 179 267 493 385 275 375
8 378 274 177 268 494 383 273 376
8 494 383 273 376 377 276 179 267
8 497 382 272 379 378 274 177 268
8 498 381 271 380 379 272 175 269
8 393 297 197 283 498 381 271 380
8 499 387 277 381 382 278 181 272
8 408 312 211 297 499 387 277 381
8 500 388 278 382 384 280 183 274
8 501 389 279 383 386 282 185 276
8 384 280 183 274 501 389 279 383
8 386 282 185 276 503 391 281 385
8 503 391 281 385 457 354 249 342
8 511 408 299 395 393 297 199 285
8 395 299 409 512 285 199 298 394
8 512 409 300 396 394 298 200 286
8 401 305 205 291 514 411 300 396
8 515 412 301 397 398 302 202 288
8 405 309 209 295 515 412 301 397
8 516 413 302 398 399 303 203 289
8 403 306 414 517 293 206 303 399
8 402 307 207 292 518 415 304 400
8 401 305 415 518 291 205 304 400
8 404 308 208 294 520 418 307 402
8 521 417 306 403 404 308 208 294
8 406 310 210 296 523 420 309 405
8 526 423 311 407 406 310 210 296
8 410 314 213 299 527 424 312 408
8 528 425 315 411 409 313 214 300
8 410 314 425 528 299 213 313 409
8 416 317 216 305 530 427 315 411
8 531 430 318 412 413 320 219 302
8 420 325 223 309 531 430 318 412
8 532 432 320 413 414 321 220 303
8 417 322 433 533 306 221 321 414
8 418 319 218 307 534 428 316 415
8 416 317 428 534 305 216 316 415
8 419 323 434 536 308 222 322 417
8 419 323 222 308 537 431 319 418
8 421 327 225 310 539 438 325 420
8 421 327 439 541 310 225 326 423
8 543 437 324 422 423 326 224 311
8 441 338 259 368 559 452 367 486
8 443 340 236 329 560 453 338 441
8 333 240 344 447 442 342 457 561
8 445 341 237 331 562 455 340 443
8 448 345 241 334 563 454 339 444
8 563 454 339 444 445 341 237 331
8 336 242 346 450 446 343 458 565
8 446 343 458 565 333 240 344 447
8 449 347 243 335 567 460 345 448
8 451 348 244 337 568 462 347 449
8 451 348 461 569 337 244 346 450
8 570 463 349 452 473 360 257 365
8 453 350 245 338 570 463 349 452
8 455 352 247 340 571 464 350 453
8 460 357 252 345 572 465 351 454
8 572 465 351 454 456 353 248 341
8 456 353 248 341 573 466 352 455
8 344 251 356 459 457 354 468 575
8 458 355 469 576 344 251 356 459
8 346 253 358 461 458 355 469 576
8 462 359 254 347 578 471 357 460
8 348 255 359 462 461 358 472 579
8 591 474 360 473 475 361 256 363
8 475 361 256 363 594 477 362 479
8 363 256 364 482 479 362 480 603
8 590 473 365 484 481 363 482 605
8 482 364 257 365 606 483 366 485
8 559 452 367 486 484 365 485 607
8 542 436 487 609 422 324 369 488
8 525 422 488 611 407 311 371 491
8 488 369 489 612 371 261 370 490
8 491 371 490 613 373 263 372 492
8 495 386 276 377 614 503 385 493
8 614 503 385 493 561 457 342 442
8 615 501 383 494 495 386 276 377
8 496 384 274 378 615 501 383 494
8 618 500 382 497 496 384 274 378
8 619 499 381 498 497 382 272 379
8 511 408 297 393 619 499 381 498
8 620 505 387 499 500 388 278 382
8 527 424 312 408 620 505 387 499
8 502 390 506 621 384 280 388 500
8 622 507 389 501 504 392 282 386
8 502 390 280 384 622 507 389 501
8 504 392 282 386 624 509 391 503
8 624 509 391 503 575 468 354 457
8 513 410 299 395 630 527 408 511
8 631 528 411 514 512 409 300 396
8 513 410 528 631 395 299 409 512
8 519 416 305 401 633 530 411 514
8 634 531 412 515 516 413 302 398
8 523 420 309 405 634 531 412 515
8 635 532 413 516 517 414 303 399
8 521 417 533 636 403 306 414 517
8 520 418 307 402 637 534 415 518
8 519 416 534 637 401 305 415 518
8 522 419 308 404 639 537 418 520
8 522 419 536 640 404 308 417 521
8 524 421 310 406 642 539 420 523
8 524 421 541 644 406 310 423 526
8 646 543 422 525 526 423 311 407
8 529 426 314 410 647 544 424 527
8 528 425 545 648 411 315 427 530
8 529 426 545 648 410 314 425 528
8 535 429 317 416 649 546 427 530
8 650 548 430 531 532 432 320 413
8 539 438 325 420 650 548 430 531
8 533 433 550 651 414 321 432 532
8 536 434 551 652 417 322 433 533
8 537 431 319 418 653 547 428 534
8 535 429 547 653 416 317 428 534
8 538 435 552 654 419 323 434 536
8 538 435 323 419 655 549 431 537
8 540 440 327 421 657 556 438 539
8 540 440 557 659 421 327 439 541
8 541 439 555 660 423 326 437 543
8 661 554 436 542 543 437 324 422
8 676 570 452 559 590 473 365 484
8 560 453 338 441 676 570 452 559
8 562 455 340 443 677 571 453 560
8 447 344 459 566 561 457 575 678
8 564 456 341 445 679 573 455 562
8 567 460 345 448 680 572 454 563
8 680 572 454 563 564 456 341 445
8 565 458 576 682 447 344 459 566
8 450 346 461 569 565 458 576 682
8 568 462 347 449 684 578 460 567
8 451 348 462 568 569 461 579 685
8 686 580 463 570 591 474 360 473
8 571 464 350 453 686 580 463 570
8 573 466 352 455 687 581 464 571
8 572 465 582 688 460 357 471 578
8 574 467 582 688 456 353 465 572
8 574 467 353 456 689 583 466 573
8 459 356 470 577 575 468 585 691
8 576 469 586 692 459 356 470 577
8 461 358 472 579 576 469 586 692
8 462 359 471 578 579 472 588 694
8 704 591 473 590 593 475 363 481
8 595 476 592 705 475 361 474 591
8 593 475 363 481 707 594 479 602
8 594 477 362 479 709 598 478 600
8 595 476 361 475 711 597 477 594
8 479 362 480 603 600 478 601 720
8 481 363 482 605 602 479 603 722
8 603 480 364 482 723 604 483 606
8 605 482 365 484 724 606 485 607
8 656 553 608 726 542 436 487 609
8 645 542 609 728 525 422 488 611
8 609 487 610 729 488 369 489 612
8 611 488 612 730 491 371 490 613
8 616 504 386 495 731 624 503 614
8 731 624 503 614 678 575 457 561
8 732 622 501 615 616 504 386 495
8 617 502 384 496 732 622 501 615
8 617 502 621 735 496 384 500 618
8 736 620 499 619 618 500 382 497
8 630 527 408 511 736 620 499 619
8 621 506 626 737 500 388 505 620
8 647 544 424 527 737 626 505 620
8 623 508 627 738 502 390 506 621
8 623 508 390 502 739 628 507 622
8 625 510 628 739 504 392 507 622
8 740 629 509 624 691 585 468 575
8 625 510 392 504 740 629 509 624
8 632 529 410 513 744 647 527 630
8 631 528 648 745 514 411 530 633
8 632 529 648 745 513 410 528 631
8 638 535 416 519 746 649 530 633
8 747 650 531 634 635 532 413 516
8 642 539 420 523 747 650 531 634
8 636 533 651 748 517 414 532 635
8 640 536 652 749 521 417 533 636
8 639 537 418 520 750 653 534 637
8 638 535 653 750 519 416 534 637
8 641 538 419 522 751 655 537 639
8 641 538 654 752 522 419 536 640
8 643 540 421 524 753 657 539 642
8 643 540 659 755 524 421 541 644
8 644 541 660 757 526 423 543 646
8 758 661 542 645 646 543 422 525
8 529 426 544 647 648 545 662 759
8 530 427 545 648 649 546 663 760
8 535 429 546 649 653 547 664 761
8 762 666 548 650 651 550 432 532
8 657 556 438 539 762 666 548 650
8 652 551 668 763 533 433 550 651
8 654 552 669 764 536 434 551 652
8 655 549 431 537 765 665 547 653
8 538 435 549 655 654 552 667 766
8 661 554 671 768 542 436 553 656
8 658 558 440 540 769 674 556 657
8 658 558 675 770 540 440 557 659
8 659 557 673 771 541 439 555 660
8 660 555 672 772 543 437 554 661
8 788 686 570 676 704 591 473 590
8 677 571 453 560 788 686 570 676
8 679 573 455 562 789 687 571 677
8 566 459 577 683 678 575 691 790
8 681 574 456 564 791 689 573 679
8 680 572 688 792 567 460 578 684
8 681 574 688 792 564 456 572 680
8 682 576 692 794 566 459 577 683
8 569 461 579 685 682 576 692 794
8 568 462 578 684 685 579 694 796
8 687 581 464 571 798 696 580 686
8 798 696 580 686 705 592 474 591
8 689 583 466 573 799 697 581 687
8 688 582 698 800 578 471 588 694
8 690 584 698 800 574 467 582 688
8 690 584 467 574 801 699 583 689
8 693 587 701 803 577 470 585 691
8 693 587 470 577 804 702 586 692
8 695 589 702 804 579 472 586 692
8 695 589 472 579 805 703 588 694
8 708 595 705 813 593 475 591 704
8 710 596 706 814 595 476 592 705
8 707 594 479 602 816 709 600 719
8 708 595 475 593 817 711 594 707
8 709 598 478 600 819 715 599 717
8 711 597 477 594 820 714 598 709
8 710 596 476 595 822 713 597 711
8 600 478 601 720 717 599 718 832
8 602 479 603 722 719 600 720 834
8 720 601 480 603 835 721 604 723
8 722 603 482 605 836 723 606 724
8 767 670 725 839 656 553 608 726
8 756 656 726 841 645 542 609 728
8 726 608 727 842 609 487 610 729
8 728 609 729 843 611 488 612 730
8 844 740 624 731 790 691 575 678
8 733 625 504 616 844 740 624 731
8 734 623 502 617 845 739 622 732
8 733 625 739 845 616 504 622 732
8 734 623 738 846 617 502 621 735
8 735 621 737 847 618 500 620 736
8 744 647 527 630 847 737 620 736
8 621 506 627 738 737 626 741 848
8 647 544 626 737 759 662 741 848
8 623 508 628 739 738 627 742 849
8 740 629 585 691 850 743 700 802
8 625 510 629 740 739 628 743 850
8 632 529 647 744 745 648 759 854
8 633 530 648 745 746 649 760 855
8 638 535 649 746 750 653 761 856
8 857 762 650 747 748 651 532 635
8 753 657 539 642 857 762 650 747
8 749 652 763 858 636 533 651 748
8 752 654 764 859 640 536 652 749
8 751 655 537 639 860 765 653 750
8 641 538 655 751 752 654 766 861
8 754 658 540 643 862 769 657 753
8 754 658 770 863 643 540 659 755
8 755 659 771 864 644 541 660 757
8 758 661 768 866 645 542 656 756
8 757 660 772 867 646 543 661 758
8 759 662 773 868 648 545 663 760
8 649 546 663 760 761 664 774 871
8 765 665 547 653 872 775 664 761
8 873 777 666 762 763 668 550 651
8 769 674 556 657 873 777 666 762
8 764 669 779 874 652 551 668 763
8 654 552 667 766 764 669 778 875
8 655 549 665 765 766 667 776 876
8 768 671 782 877 656 553 670 767
8 772 672 783 878 661 554 671 768
8 658 558 674 769 770 675 786 879
8 659 557 675 770 771 673 785 881
8 882 784 672 772 771 673 555 660
8 789 687 571 677 897 798 686 788
8 897 798 686 788 813 705 591 704
8 791 689 573 679 898 799 687 789
8 795 693 803 900 683 577 691 790
8 793 690 574 681 901 801 689 791
8 792 688 800 902 684 578 694 796
8 793 690 800 902 681 574 688 792
8 795 693 577 683 903 804 692 794
8 797 695 804 903 685 579 692 794
8 797 695 579 685 904 805 694 796
8 905 806 697 799 798 696 581 687
8 814 706 806 905 705 592 696 798
8 689 583 697 799 801 699 808 907
8 800 698 809 908 694 588 703 805
8 690 584 699 801 800 698 809 908
8 803 701 810 909 691 585 700 802
8 693 587 702 804 803 701 811 910
8 695 589 703 805 804 702 812 911
8 818 710 814 919 708 595 705 813
8 821 712 815 920 710 596 706 814
8 816 709 600 719 922 819 717 831
8 817 711 594 707 923 820 709 816
8 818 710 595 708 924 822 711 817
8 819 715 599 717 926 827 716 829
8 820 714 598 709 927 826 715 819
8 929 825 713 822 820 714 597 711
8 821 712 596 710 930 824 713 822
8 717 599 718 832 829 716 830 942
8 719 600 720 834 831 717 832 944
8 832 718 601 720 945 833 721 835
8 834 720 603 722 946 835 723 836
8 869 780 838 950 767 670 725 839
8 865 767 839 952 756 656 726 841
8 839 725 840 953 726 608 727 842
8 841 726 842 954 728 609 729 843
8 844 740 691 790 955 850 802 899
8 733 625 740 844 845 739 850 955
8 734 623 739 845 846 738 849 956
8 735 621 738 846 847 737 848 957
8 744 647 737 847 854 759 848 957
8 738 627 742 849 848 741 851 958
8 848 741 851 958 759 662 773 868
8 850 743 700 802 959 852 807 906
8 849 742 628 739 959 852 743 850
8 854 759 868 965 745 648 760 855
8 746 649 760 855 856 761 871 966
8 860 765 653 750 967 872 761 856
8 968 873 762 857 858 763 651 748
8 862 769 657 753 968 873 762 857
8 859 764 874 969 749 652 763 858
8 752 654 766 861 859 764 875 970
8 751 655 765 860 861 766 876 971
8 754 658 769 862 863 770 879 972
8 755 659 770 863 864 771 881 974
8 976 882 772 867 864 771 660 757
8 866 768 877 977 756 656 767 865
8 867 772 878 978 758 661 768 866
8 760 663 773 868 871 774 883 980
8 870 781 837 948 982 890 780 869
8 982 890 780 869 877 782 670 767
8 761 664 774 871 872 775 884 984
8 876 776 665 765 985 885 775 872
8 873 777 668 763 986 887 779 874
8 769 674 777 873 879 786 887 986
8 764 669 778 875 874 779 888 987
8 766 667 776 876 875 778 886 988
8 878 783 892 989 768 671 782 877
8 878 783 672 772 990 893 784 882
8 880 787 675 770 991 896 786 879
8 880 787 895 992 770 675 785 881
8 881 785 894 993 771 673 784 882
8 1006 905 799 898 897 798 687 789
8 919 814 905 1006 813 705 798 897
8 791 689 799 898 901 801 907 1007
8 900 803 909 1009 790 691 802 899
8 795 693 804 903 900 803 910 1010
8 902 800 908 1011 796 694 805 904
8 793 690 801 901 902 800 908 1011
8 797 695 805 904 903 804 911 1012
8 799 697 806 905 907 808 912 1013
8 920 815 912 1013 814 706 806 905
8 802 700 810 909 906 807 913 1014
8 801 699 808 907 908 809 914 1015
8 805 703 809 908 911 812 915 1016
8 803 701 811 910 909 810 916 1017
8 911 812 917 1018 804 702 811 910
8 925 821 920 1030 818 710 814 919
8 928 823 921 1031 821 712 815 920
8 922 819 717 831 1033 926 829 941
8 923 820 709 816 1034 927 819 922
8 1035 929 822 924 923 820 711 817
8 925 821 710 818 1036 930 822 924
8 1038 933 825 929 927 826 714 820
8 926 827 716 829 1039 935 828 939
8 927 826 715 819 1040 934 827 926
8 928 823 712 821 1041 931 824 930
8 1042 932 824 930 929 825 713 822
8 829 716 830 942 939 828 940 1058
8 831 717 832 944 941 829 942 1060
8 942 830 718 832 1061 943 833 945
8 944 832 720 834 1062 945 835 946
8 981 889 947 1064 870 781 837 948
8 948 837 949 1067 869 780 838 950
8 975 869 950 1069 865 767 839 952
8 950 838 951 1070 839 725 840 953
8 952 839 953 1071 841 726 842 954
8 955 850 802 899 1072 959 906 1008
8 956 849 739 845 1072 959 850 955
8 846 738 849 956 957 848 958 1073
8 957 848 958 1073 854 759 868 965
8 849 742 852 959 958 851 961 1076
8 960 853 961 1076 906 807 852 959
8 958 851 961 1076 868 773 883 980
8 960 853 807 906 1077 963 913 1014
8 855 760 868 965 966 871 980 1085
8 856 761 871 966 967 872 984 1086
8 971 876 765 860 1087 985 872 967
8 968 873 763 858 1088 986 874 969
8 862 769 873 968 972 879 986 1088
8 859 764 875 970 969 874 987 1089
8 861 766 876 971 970 875 988 1090
8 973 880 770 863 1091 991 879 972
8 973 880 992 1092 863 770 881 974
8 974 881 993 1093 864 771 882 976
8 979 870 948 1066 1094 982 869 975
8 1094 982 869 975 977 877 767 865
8 978 878 772 867 1095 990 882 976
8 978 878 989 1096 866 768 877 977
8 871 774 883 980 984 884 994 1099
8 983 891 999 1100 870 781 889 981
8 1101 1000 890 982 989 892 782 877
8 983 891 781 870 1101 1000 890 982
8 872 775 884 984 985 885 995 1103
8 876 776 885 985 988 886 996 1104
8 986 887 779 874 1105 998 888 987
8 879 786 887 986 991 896 998 1105
8 875 778 886 988 987 888 997 1106
8 990 893 1002 1107 878 783 892 989
8 1108 1003 893 990 993 894 784 882
8 880 787 896 991 992 895 1005 1109
8 993 894 785 881 1110 1004 895 992
8 898 799 905 1006 1007 907 1013 1120
8 1030 920 1013 1120 919 814 905 1006
8 901 801 907 1007 1011 908 1015 1121
8 899 802 909 1009 1008 906 1014 1122
8 900 803 910 1010 1009 909 1017 1123
8 1012 911 1018 1124 903 804 910 1010
8 904 805 908 1011 1012 911 1016 1125
8 1013 912 1020 1127 907 808 914 1015
8 1031 921 1020 1127 920 815 912 1013
8 1019 918 962 1075 1128 1021 913 1014
8 1128 1021 913 1014 1017 916 810 909
8 1015 914 1022 1129 908 809 915 1016
8 1016 915 1023 1130 911 812 917 1018
8 1018 917 1024 1131 910 811 916 1017
8 1037 928 1031 1148 925 821 920 1030
8 928 823 931 1041 1031 921 1032 1149
8 1033 926 829 941 1151 1039 939 1057
8 1034 927 819 922 1152 1040 926 1033
8 1153 1038 929 1035 1034 927 820 923
8 1154 1042 930 1036 1035 929 822 924
8 1037 928 821 925 1155 1041 930 1036
8 1039 935 828 939 1156 1047 938 1055
8 1157 1043 932 1042 1038 933 825 929
8 1038 933 826 927 1158 1045 934 1040
8 1040 934 827 926 1159 1046 935 1039
8 930 824 932 1042 1041 931 1044 1160
8 1051 936 1048 1165 1175 1052 937 1053
8 1156 1047 938 1055 1053 937 1054 1178
8 939 828 940 1058 1055 938 1056 1181
8 941 829 942 1060 1057 939 1058 1183
8 942 830 943 1061 1058 940 1059 1184
8 1060 942 832 944 1185 1061 945 1062
8 1082 964 1063 1188 981 889 947 1064
8 1097 981 1064 1190 979 870 948 1066
8 1064 947 1065 1191 948 837 949 1067
8 1066 948 1067 1193 975 869 950 1069
8 1067 949 1068 1194 950 838 951 1070
8 1069 950 1070 1195 952 839 953 1071
8 956 849 959 1072 1073 958 1076 1197
8 1074 960 1076 1197 1008 906 959 1072
8 1073 958 1076 1197 965 868 980 1085
8 1074 960 906 1008 1198 1077 1014 1122
8 1133 1026 1079 1199 1019 918 962 1075
8 1077 963 913 1014 1200 1080 962 1075
8 960 853 963 1077 1076 961 1078 1201
8 980 883 961 1076 1099 994 1078 1201
8 1210 1083 964 1082 1100 999 889 981
8 966 871 980 1085 1086 984 1099 1215
8 967 872 984 1086 1087 985 1103 1216
8 971 876 985 1087 1090 988 1104 1217
8 1088 986 874 969 1218 1105 987 1089
8 972 879 986 1088 1091 991 1105 1218
8 970 875 988 1090 1089 987 1106 1219
8 973 880 991 1091 1092 992 1109 1220
8 1093 993 881 974 1221 1110 992 1092
8 1222 1108 990 1095 1093 993 882 976
8 1223 1101 982 1094 1096 989 877 977
8 1098 983 870 979 1223 1101 982 1094
8 1095 990 1107 1224 978 878 989 1096
8 1098 983 1100 1225 979 870 981 1097
8 984 884 994 1099 1103 995 1111 1227
8 1102 1001 1115 1228 983 891 999 1100
8 1101 1000 892 989 1229 1116 1002 1107
8 1102 1001 891 983 1229 1116 1000 1101
8 985 885 995 1103 1104 996 1112 1230
8 988 886 996 1104 1106 997 1113 1231
8 1105 998 888 987 1232 1114 997 1106
8 991 896 998 1105 1109 1005 1114 1232
8 1108 1003 1117 1233 990 893 1002 1107
8 1108 1003 894 993 1233 1117 1004 1110
8 992 895 1005 1109 1110 1004 1118 1234
8 1120 1013 1127 1244 1007 907 1015 1121
8 1148 1031 1127 1244 1030 920 1013 1120
8 1121 1015 1129 1245 1011 908 1016 1125
8 1126 1019 1075 1196 1246 1128 1014 1122
8 1246 1128 1014 1122 1123 1017 909 1009
8 1124 1018 1131 1247 1010 910 1017 1123
8 1125 1016 1130 1248 1012 911 1018 1124
8 1127 1020 1137 1254 1015 914 1022 1129
8 1031 921 1032 1149 1127 1020 1137 1254
8 1134 1027 918 1019 1257 1140 1021 1128
8 1257 1140 1021 1128 1131 1024 916 1017
8 1129 1022 1141 1258 1016 915 1023 1130
8 1130 1023 1142 1259 1018 917 1024 1131
8 1261 1144 1025 1132 1133 1026 1079 1199
8 1255 1138 1025 1132 1135 1028 1144 1261
8 1133 1026 918 1019 1262 1145 1027 1134
8 1136 1029 1139 1256 1263 1146 1028 1135
8 1037 928 1041 1155 1148 1031 1149 1275
8 1041 931 1044 1160 1149 1032 1150 1276
8 1151 1039 939 1057 1278 1156 1055 1180
8 1152 1040 926 1033 1279 1159 1039 1151
8 1153 1038 927 1034 1280 1158 1040 1152
8 1281 1157 1042 1154 1153 1038 929 1035
8 1036 930 1042 1154 1155 1041 1160 1282
8 1283 1164 1046 1159 1156 1047 935 1039
8 1165 1048 1164 1283 1053 937 1047 1156
8 1157 1043 933 1038 1284 1161 1045 1158
8 1157 1043 1161 1284 1042 932 1044 1160
8 1040 934 1046 1159 1158 1045 1163 1285
8 1166 1049 1167 1292 1051 936 1048 1165
8 1166 1049 936 1051 1293 1168 1050 1172
8 1051 936 1052 1175 1172 1050 1173 1306
8 1174 1051 1165 1290 1308 1175 1053 1177
8 1053 937 1054 1178 1175 1052 1176 1309
8 1278 1156 1055 1180 1177 1053 1178 1311
8 1055 938 1056 1181 1178 1054 1179 1312
8 1057 939 1058 1183 1180 1055 1181 1314
8 1058 940 1059 1184 1181 1056 1182 1315
8 1060 942 1061 1185 1183 1058 1184 1316
8 1208 1081 1187 1321 1082 964 1063 1188
8 1209 1082 1188 1322 1097 981 1064 1190
8 1188 1063 1189 1323 1064 947 1065 1191
8 1190 1064 1191 1325 1066 948 1067 1193
8 1191 1065 1192 1326 1067 949 1068 1194
8 1067 1193 1069 950 1194 1327 1195 1070
8 1250 1133 1199 1330 1126 1019 1075 1196
8 1198 1077 1014 1122 1331 1200 1075 1196
8 1074 960 1077 1198 1197 1076 1201 1332
8 1085 980 1076 1197 1215 1099 1201 1332
8 1199 1079 1203 1333 1075 962 1080 1200
8 1132 1025 1119 1243 1199 1079 1203 1333
8 1201 1078 963 1077 1334 1202 1080 1200
8 1099 994 1078 1201 1227 1111 1202 1334
8 1343 1207 1081 1208 1210 1083 964 1082
8 1214 1084 1186 1319 1343 1207 1081 1208
8 1345 1210 1082 1209 1225 1100 981 1097
8 1346 1211 1083 1210 1228 1115 999 1100
8 1086 984 1099 1215 1216 1103 1227 1352
8 1087 985 1103 1216 1217 1104 1230 1353
8 1090 988 1104 1217 1219 1106 1231 1354
8 1218 1105 987 1089 1355 1232 1106 1219
8 1091 991 1105 1218 1220 1109 1232 1355
8 1092 992 1109 1220 1221 1110 1234 1356
8 1222 1108 1233 1357 1095 990 1107 1224
8 1222 1108 993 1093 1357 1233 1110 1221
8 1223 1101 989 1096 1358 1229 1107 1224
8 1226 1102 983 1098 1358 1229 1101 1223
8 1226 1102 1228 1359 1098 983 1100 1225
8 1103 995 1111 1227 1230 1112 1235 1360
8 1107 1002 1117 1233 1229 1116 1240 1362
8 1102 1001 1116 1229 1228 1115 1240 1362
8 1104 996 1112 1230 1231 1113 1236 1363
8 1364 1237 1114 1232 1231 1113 997 1106
8 1109 1005 1114 1232 1234 1118 1238 1365
8 1110 1004 1118 1234 1233 1117 1241 1366
8 1242 1374 1255 1138 1119 1243 1132 1025
8 1244 1127 1254 1376 1121 1015 1129 1245
8 1148 1031 1149 1275 1244 1127 1254 1376
8 1245 1129 1258 1377 1125 1016 1130 1248
8 1251 1134 1019 1126 1378 1257 1128 1246
8 1378 1257 1128 1246 1247 1131 1017 1123
8 1248 1130 1259 1379 1124 1018 1131 1247
8 1261 1381 1250 1133 1132 1249 1330 1199
8 1255 1380 1252 1135 1132 1249 1381 1261
8 1250 1133 1019 1126 1382 1262 1134 1251
8 1253 1136 1256 1385 1384 1263 1135 1252
8 1254 1137 1265 1387 1129 1022 1141 1258
8 1149 1032 1150 1276 1254 1137 1265 1387
8 1028 1135 1255 1138 1139 1256 1388 1266
8 1136 1029 1147 1264 1256 1139 1267 1389
8 1390 1268 1140 1257 1259 1142 1024 1131
8 1260 1143 1027 1134 1390 1268 1140 1257
8 1258 1141 1269 1391 1130 1023 1142 1259
8 1262 1145 1027 1134 1393 1271 1143 1260
8 1261 1144 1026 1133 1394 1272 1145 1262
8 1135 1028 1144 1261 1263 1146 1272 1394
8 1136 1029 1146 1263 1264 1147 1273 1395
8 1155 1041 1160 1282 1275 1149 1276 1405
8 1276 1150 1044 1160 1406 1277 1162 1286
8 1408 1283 1159 1279 1278 1156 1039 1151
8 1290 1165 1283 1408 1177 1053 1156 1278
8 1152 1040 1159 1279 1280 1158 1285 1409
8 1281 1157 1038 1153 1410 1284 1158 1280
8 1281 1157 1284 1410 1154 1042 1160 1282
8 1159 1046 1164 1283 1285 1163 1289 1412
8 1292 1167 1289 1412 1165 1048 1164 1283
8 1158 1045 1163 1285 1284 1161 1288 1413
8 1284 1161 1288 1413 1160 1044 1162 1286
8 1291 1166 1292 1418 1174 1051 1165 1290
8 1291 1166 1051 1174 1419 1293 1172 1305
8 1294 1169 1296 1421 1166 1049 1167 1292
8 1293 1168 1050 1172 1422 1295 1171 1303
8 1294 1169 1049 1166 1423 1297 1168 1293
8 1422 1295 1171 1303 1301 1170 1302 1435
8 1172 1050 1173 1306 1303 1171 1304 1438
8 1174 1051 1175 1308 1305 1172 1306 1440
8 1175 1052 1176 1309 1306 1173 1307 1441
8 1177 1053 1178 1311 1308 1175 1309 1443
8 1178 1054 1179 1312 1309 1176 1310 1444
8 1180 1055 1181 1314 1311 1178 1312 1446
8 1056 1181 1312 1179 1182 1315 1447 1313
8 1183 1058 1184 1316 1314 1181 1315 1448
8 1319 1186 1084 1214 1451 1317 1213 1350
8 1319 1186 1318 1453 1208 1081 1187 1321
8 1321 1187 1320 1456 1188 1063 1189 1323
8 1344 1208 1321 1457 1209 1082 1188 1322
8 1322 1188 1323 1458 1190 1064 1191 1325
8 1323 1189 1324 1459 1191 1065 1192 1326
8 1191 1325 1193 1067 1326 1460 1327 1194
8 1242 1374 1243 1119 1328 1462 1335 1204
8 1330 1199 1333 1465 1196 1075 1200 1331
8 1132 1249 1330 1199 1243 1375 1465 1333
8 1332 1201 1077 1198 1466 1334 1200 1331
8 1215 1099 1201 1332 1352 1227 1334 1466
8 1119 1243 1333 1203 1204 1335 1470 1338
8 1333 1203 1338 1470 1200 1080 1202 1334
8 1227 1111 1202 1334 1360 1235 1338 1470
8 1328 1462 1335 1204 1205 1336 1471 1339
8 1337 1206 1340 1472 1464 1329 1205 1336
8 1346 1211 1342 1479 1210 1083 1207 1343
8 1346 1211 1115 1228 1479 1342 1239 1361
8 1348 1212 1084 1214 1479 1342 1207 1343
8 1480 1343 1208 1344 1345 1210 1082 1209
8 1351 1214 1319 1454 1480 1343 1208 1344
8 1481 1346 1210 1345 1359 1228 1100 1225
8 1348 1212 1347 1483 1214 1084 1213 1350
8 1216 1103 1227 1352 1353 1230 1360 1488
8 1217 1104 1230 1353 1354 1231 1363 1489
8 1490 1364 1232 1355 1354 1231 1106 1219
8 1220 1109 1232 1355 1356 1234 1365 1491
8 1221 1110 1234 1356 1357 1233 1366 1492
8 1224 1107 1233 1357 1358 1229 1362 1493
8 1226 1102 1229 1358 1359 1228 1362 1493
8 1230 1112 1235 1360 1363 1236 1367 1496
8 1361 1239 1115 1228 1497 1371 1240 1362
8 1366 1241 1372 1498 1233 1117 1240 1362
8 1364 1237 1113 1231 1499 1368 1236 1363
8 1364 1237 1368 1499 1232 1114 1238 1365
8 1234 1118 1238 1365 1366 1241 1369 1500
8 1507 1373 1242 1374 1388 1266 1138 1255
8 1508 1374 1243 1375 1380 1255 1132 1249
8 1376 1254 1387 1509 1245 1129 1258 1377
8 1275 1149 1276 1405 1376 1254 1387 1509
8 1377 1258 1391 1510 1248 1130 1259 1379
8 1511 1390 1257 1378 1379 1259 1131 1247
8 1383 1260 1134 1251 1511 1390 1257 1378
8 1252 1135 1256 1385 1380 1255 1388 1512
8 1261 1381 1513 1394 1133 1250 1382 1262
8 1135 1252 1384 1263 1261 1381 1513 1394
8 1382 1262 1134 1251 1514 1393 1260 1383
8 1253 1136 1263 1384 1386 1264 1395 1516
8 1253 1136 1264 1386 1385 1256 1389 1517
8 1387 1265 1397 1519 1258 1141 1269 1391
8 1276 1150 1277 1406 1387 1265 1397 1519
8 1256 1139 1267 1389 1388 1266 1398 1520
8 1264 1147 1274 1396 1389 1267 1399 1521
8 1392 1270 1143 1260 1522 1400 1268 1390
8 1390 1268 1142 1259 1522 1400 1269 1391
8 1392 1270 1401 1523 1260 1143 1271 1393
8 1272 1394 1524 1402 1145 1262 1393 1271
8 1395 1273 1146 1263 1524 1402 1272 1394
8 1273 1395 1264 1147 1403 1526 1396 1274
8 1405 1276 1160 1282 1534 1406 1286 1411
8 1414 1287 1407 1535 1286 1162 1277 1406
8 1279 1159 1283 1408 1409 1285 1412 1537
8 1418 1292 1412 1537 1290 1165 1283 1408
8 1280 1158 1285 1409 1410 1284 1413 1538
8 1410 1284 1413 1538 1282 1160 1286 1411
8 1285 1163 1289 1412 1413 1288 1417 1540
8 1421 1296 1417 1540 1292 1167 1289 1412
8 1414 1287 1162 1286 1541 1416 1288 1413
8 1420 1294 1421 1545 1291 1166 1292 1418
8 1419 1293 1172 1305 1546 1422 1303 1437
8 1420 1294 1166 1291 1547 1423 1293 1419
8 1294 1169 1297 1423 1421 1296 1425 1548
8 1423 1297 1168 1293 1549 1424 1295 1422
8 1301 1170 1298 1427 1422 1295 1424 1549
8 1432 1300 1428 1554 1301 1170 1298 1427
8 1431 1299 1428 1554 1560 1430 1300 1432
8 1563 1433 1300 1432 1435 1302 1170 1301
8 1546 1422 1303 1437 1434 1301 1435 1565
8 1303 1171 1304 1438 1435 1302 1436 1566
8 1305 1172 1306 1440 1437 1303 1438 1568
8 1306 1173 1307 1441 1438 1304 1439 1569
8 1308 1175 1309 1443 1440 1306 1441 1571
8 1309 1176 1310 1444 1441 1307 1442 1572
8 1311 1178 1312 1446 1443 1309 1444 1574
8 1179 1312 1444 1310 1313 1447 1575 1445
8 1314 1181 1315 1448 1446 1312 1447 1576
8 1350 1213 1349 1486 1451 1317 1449 1579
8 1451 1317 1450 1581 1319 1186 1318 1453
8 1454 1319 1214 1351 1582 1451 1350 1487
8 1453 1318 1452 1584 1321 1187 1320 1456
8 1454 1319 1453 1585 1344 1208 1321 1457
8 1456 1320 1455 1586 1323 1189 1324 1459
8 1457 1321 1456 1587 1322 1188 1323 1458
8 1458 1323 1459 1588 1325 1191 1326 1460
8 1205 1336 1464 1329 1328 1462 1590 1461
8 1507 1373 1461 1590 1374 1242 1328 1462
8 1508 1374 1462 1591 1375 1243 1335 1467
8 1337 1206 1329 1464 1473 1341 1463 1594
8 1375 1243 1335 1467 1465 1333 1470 1596
8 1465 1333 1470 1596 1331 1200 1334 1466
8 1352 1227 1334 1466 1488 1360 1470 1596
8 1591 1462 1336 1468 1467 1335 1471 1597
8 1469 1337 1472 1598 1595 1464 1336 1468
8 1471 1339 1474 1600 1335 1204 1338 1470
8 1600 1474 1367 1496 1470 1338 1235 1360
8 1336 1205 1340 1472 1471 1339 1475 1601
8 1337 1206 1341 1473 1472 1340 1476 1602
8 1495 1370 1478 1609 1361 1239 1342 1479
8 1348 1212 1342 1479 1483 1347 1478 1609
8 1481 1346 1479 1610 1345 1210 1343 1480
8 1481 1346 1228 1359 1610 1479 1361 1494
8 1484 1348 1214 1351 1610 1479 1343 1480
8 1483 1347 1482 1612 1350 1213 1349 1486
8 1484 1348 1483 1613 1351 1214 1350 1487
8 1353 1230 1360 1488 1489 1363 1496 1616
8 1490 1364 1231 1354 1617 1499 1363 1489
8 1490 1364 1499 1617 1355 1232 1365 1491
8 1356 1234 1365 1491 1492 1366 1500 1619
8 1492 1366 1498 1620 1357 1233 1362 1493
8 1494 1361 1228 1359 1621 1497 1362 1493
8 1495 1370 1239 1361 1622 1504 1371 1497
8 1363 1236 1367 1496 1499 1368 1501 1623
8 1497 1371 1240 1362 1624 1505 1372 1498
8 1625 1503 1372 1498 1500 1369 1241 1366
8 1365 1238 1368 1499 1500 1369 1502 1626
8 1520 1398 1506 1633 1388 1266 1373 1507
8 1634 1507 1374 1508 1512 1388 1255 1380
8 1509 1387 1519 1635 1377 1258 1391 1510
8 1405 1276 1406 1534 1509 1387 1519 1635
8 1515 1392 1260 1383 1636 1522 1390 1511
8 1511 1390 1259 1379 1636 1522 1391 1510
8 1385 1256 1389 1517 1512 1388 1520 1637
8 1513 1394 1262 1382 1638 1524 1393 1514
8 1395 1516 1638 1524 1263 1384 1513 1394
8 1515 1392 1523 1639 1383 1260 1393 1514
8 1516 1395 1526 1640 1386 1264 1396 1518
8 1386 1264 1396 1518 1517 1389 1521 1641
8 1519 1397 1527 1643 1391 1269 1400 1522
8 1535 1407 1527 1643 1406 1277 1397 1519
8 1389 1267 1399 1521 1520 1398 1528 1644
8 1645 1529 1399 1521 1525 1404 1274 1396
8 1392 1270 1400 1522 1523 1401 1531 1646
8 1524 1402 1271 1393 1648 1532 1401 1523
8 1403 1526 1648 1532 1273 1395 1524 1402
8 1525 1404 1274 1396 1649 1533 1403 1526
8 1539 1414 1535 1657 1411 1286 1406 1534
8 1542 1415 1536 1658 1414 1287 1407 1535
8 1409 1285 1412 1537 1538 1413 1540 1660
8 1545 1421 1540 1660 1418 1292 1412 1537
8 1539 1414 1286 1411 1661 1541 1413 1538
8 1540 1417 1544 1663 1413 1288 1416 1541
8 1421 1296 1425 1548 1540 1417 1544 1663
8 1542 1415 1287 1414 1664 1543 1416 1541
8 1420 1294 1423 1547 1545 1421 1548 1666
8 1547 1423 1293 1419 1667 1549 1422 1546
8 1434 1301 1427 1553 1546 1422 1549 1667
8 1423 1297 1424 1549 1548 1425 1550 1668
8 1551 1426 1550 1668 1427 1298 1424 1549
8 1551 1426 1298 1427 1671 1552 1428 1554
8 1562 1432 1554 1674 1434 1301 1427 1553
8 1431 1299 1429 1558 1554 1428 1555 1675
8 1431 1299 1430 1560 1558 1429 1557 1680
8 1560 1430 1300 1432 1683 1559 1433 1563
8 1561 1431 1554 1674 1684 1560 1432 1562
8 1685 1563 1432 1562 1565 1435 1301 1434
8 1435 1302 1436 1566 1563 1433 1564 1686
8 1437 1303 1438 1568 1565 1435 1566 1688
8 1438 1304 1439 1569 1566 1436 1567 1689
8 1440 1306 1441 1571 1568 1438 1569 1691
8 1441 1307 1442 1572 1569 1439 1570 1692
8 1443 1309 1444 1574 1571 1441 1572 1694
8 1310 1444 1572 1442 1445 1575 1695 1573
8 1446 1312 1447 1576 1574 1444 1575 1696
8 1486 1349 1485 1614 1579 1449 1577 1699
8 1451 1317 1449 1579 1581 1450 1578 1701
8 1487 1350 1486 1615 1582 1451 1579 1702
8 1581 1450 1580 1704 1453 1318 1452 1584
8 1582 1451 1581 1705 1454 1319 1453 1585
8 1584 1452 1583 1706 1456 1320 1455 1586
8 1585 1453 1584 1707 1457 1321 1456 1587
8 1587 1456 1586 1708 1458 1323 1459 1588
8 1633 1506 1589 1710 1507 1373 1461 1590
8 1464 1329 1461 1590 1594 1463 1589 1710
8 1468 1336 1462 1591 1595 1464 1590 1711
8 1634 1507 1590 1711 1508 1374 1462 1591
8 1473 1341 1463 1594 1603 1477 1593 1716
8 1469 1337 1464 1595 1599 1473 1594 1717
8 1471 1597 1467 1335 1600 1718 1596 1470
8 1718 1600 1496 1616 1596 1470 1360 1488
8 1336 1468 1597 1471 1472 1598 1719 1601
8 1469 1337 1473 1599 1598 1472 1602 1720
8 1722 1604 1501 1623 1600 1474 1367 1496
8 1475 1601 1471 1339 1604 1722 1600 1474
8 1602 1476 1605 1723 1472 1340 1475 1601
8 1476 1602 1724 1606 1341 1473 1603 1477
8 1483 1347 1478 1609 1612 1482 1608 1731
8 1495 1370 1504 1622 1609 1478 1608 1731
8 1618 1495 1609 1732 1494 1361 1479 1610
8 1484 1348 1479 1610 1613 1483 1609 1732
8 1486 1349 1482 1612 1614 1485 1611 1733
8 1613 1483 1612 1734 1487 1350 1486 1615
8 1489 1363 1496 1616 1617 1499 1623 1736
8 1491 1365 1499 1617 1619 1500 1626 1737
8 1618 1495 1361 1494 1738 1622 1497 1621
8 1739 1625 1498 1620 1619 1500 1366 1492
8 1621 1497 1362 1493 1740 1624 1498 1620
8 1742 1631 1504 1622 1624 1505 1371 1497
8 1743 1628 1502 1626 1623 1501 1368 1499
8 1744 1630 1505 1624 1625 1503 1372 1498
8 1745 1629 1503 1625 1626 1502 1369 1500
8 1520 1398 1528 1644 1633 1506 1632 1751
8 1637 1520 1633 1752 1512 1388 1507 1634
8 1635 1519 1643 1753 1510 1391 1522 1636
8 1657 1535 1643 1753 1534 1406 1519 1635
8 1515 1392 1522 1636 1639 1523 1646 1754
8 1517 1389 1521 1641 1637 1520 1644 1755
8 1524 1638 1756 1648 1393 1514 1639 1523
8 1640 1526 1395 1516 1756 1648 1524 1638
8 1642 1525 1396 1518 1757 1649 1526 1640
8 1758 1645 1521 1641 1642 1525 1396 1518
8 1646 1531 1400 1522 1760 1650 1527 1643
8 1535 1407 1536 1658 1643 1527 1650 1760
8 1521 1399 1529 1645 1644 1528 1651 1761
8 1647 1530 1652 1762 1525 1404 1529 1645
8 1401 1523 1648 1532 1531 1646 1763 1655
8 1525 1404 1533 1649 1647 1530 1654 1765
8 1533 1649 1766 1656 1403 1526 1648 1532
8 1662 1542 1658 1774 1539 1414 1535 1657
8 1542 1415 1543 1664 1658 1536 1659 1775
8 1660 1540 1663 1777 1538 1413 1541 1661
8 1545 1421 1548 1666 1660 1540 1663 1777
8 1662 1542 1414 1539 1778 1664 1541 1661
8 1664 1543 1416 1541 1779 1665 1544 1663
8 1548 1425 1550 1668 1663 1544 1665 1779
8 1547 1423 1549 1667 1666 1548 1668 1781
8 1670 1551 1668 1781 1553 1427 1549 1667
8 1551 1426 1552 1671 1668 1550 1669 1782
8 1670 1551 1427 1553 1784 1671 1554 1674
8 1675 1555 1672 1785 1554 1428 1552 1671
8 1678 1556 1673 1789 1558 1429 1555 1675
8 1561 1431 1558 1681 1674 1554 1675 1790
8 1794 1677 1556 1678 1680 1557 1429 1558
8 1560 1430 1559 1683 1680 1557 1679 1797
8 1561 1431 1560 1684 1681 1558 1680 1798
8 1563 1433 1564 1686 1683 1559 1682 1800
8 1684 1560 1432 1562 1801 1683 1563 1685
8 1565 1435 1566 1688 1685 1563 1686 1802
8 1566 1436 1567 1689 1686 1564 1687 1803
8 1568 1438 1569 1691 1688 1566 1689 1805
8 1569 1439 1570 1692 1689 1567 1690 1806
8 1571 1441 1572 1694 1691 1569 1692 1808
8 1442 1572 1692 1570 1573 1695 1809 1693
8 1574 1444 1575 1696 1694 1572 1695 1810
8 1614 1485 1592 1712 1699 1577 1697 1813
8 1579 1449 1577 1699 1701 1578 1698 1815
8 1615 1486 1614 1735 1702 1579 1699 1816
8 1701 1578 1700 1818 1581 1450 1580 1704
8 1582 1451 1579 1702 1705 1581 1701 1819
8 1704 1580 1703 1820 1584 1452 1583 1706
8 1705 1581 1704 1821 1585 1453 1584 1707
8 1707 1584 1706 1822 1587 1456 1586 1708
8 1710 1589 1506 1633 1824 1709 1632 1751
8 1594 1463 1589 1710 1716 1593 1709 1824
8 1752 1633 1710 1825 1634 1507 1590 1711
8 1595 1464 1590 1711 1717 1594 1710 1825
8 1830 1714 1592 1712 1733 1611 1485 1614
8 1603 1477 1593 1716 1725 1607 1715 1834
8 1599 1473 1594 1717 1721 1603 1716 1835
8 1837 1722 1623 1736 1718 1600 1496 1616
8 1719 1601 1722 1837 1597 1471 1600 1718
8 1602 1720 1598 1472 1723 1838 1719 1601
8 1720 1602 1473 1599 1839 1724 1603 1721
8 1723 1605 1726 1840 1601 1475 1604 1722
8 1840 1726 1628 1743 1722 1604 1501 1623
8 1724 1606 1727 1841 1602 1476 1605 1723
8 1725 1607 1728 1842 1603 1477 1606 1724
8 1612 1482 1608 1731 1733 1611 1730 1849
8 1741 1627 1730 1849 1622 1504 1608 1731
8 1613 1483 1609 1732 1734 1612 1731 1850
8 1618 1495 1622 1738 1732 1609 1731 1850
8 1615 1486 1612 1734 1735 1614 1733 1851
8 1852 1743 1626 1737 1736 1623 1499 1617
8 1853 1745 1625 1739 1737 1626 1500 1619
8 1855 1742 1622 1738 1740 1624 1497 1621
8 1856 1744 1624 1740 1739 1625 1498 1620
8 1741 1627 1504 1622 1857 1746 1631 1742
8 1742 1631 1505 1624 1858 1749 1630 1744
8 1859 1747 1629 1745 1743 1628 1502 1626
8 1860 1748 1630 1744 1745 1629 1503 1625
8 1644 1528 1651 1761 1751 1632 1750 1865
8 1637 1520 1644 1755 1752 1633 1751 1866
8 1754 1646 1522 1636 1867 1760 1643 1753
8 1657 1535 1658 1774 1753 1643 1760 1867
8 1639 1523 1646 1754 1756 1648 1763 1868
8 1641 1521 1645 1758 1755 1644 1761 1869
8 1757 1649 1526 1640 1870 1766 1648 1756
8 1642 1525 1649 1757 1759 1647 1765 1871
8 1759 1647 1762 1872 1642 1525 1645 1758
8 1760 1650 1767 1874 1646 1531 1655 1763
8 1658 1536 1659 1775 1760 1650 1767 1874
8 1762 1652 1768 1875 1645 1529 1651 1761
8 1764 1653 1769 1876 1647 1530 1652 1762
8 1656 1766 1877 1773 1532 1648 1763 1655
8 1771 1879 1765 1654 1653 1764 1647 1530
8 1533 1649 1765 1654 1656 1766 1880 1772
8 1662 1542 1664 1778 1774 1658 1775 1887
8 1664 1543 1665 1779 1775 1659 1776 1888
8 1778 1664 1541 1661 1890 1779 1663 1777
8 1666 1548 1668 1781 1777 1663 1779 1890
8 1782 1669 1780 1891 1668 1550 1665 1779
8 1670 1551 1671 1784 1781 1668 1782 1893
8 1671 1552 1672 1785 1782 1669 1783 1894
8 1790 1675 1785 1896 1674 1554 1671 1784
8 1675 1555 1673 1789 1785 1672 1786 1897
8 1792 1676 1788 1903 1678 1556 1673 1789
8 1795 1678 1789 1904 1681 1558 1675 1790
8 1792 1676 1556 1678 1906 1791 1677 1794
8 1680 1557 1679 1797 1794 1677 1793 1909
8 1910 1794 1678 1795 1798 1680 1558 1681
8 1683 1559 1682 1800 1797 1679 1796 1912
8 1684 1560 1683 1801 1798 1680 1797 1913
8 1686 1564 1687 1803 1800 1682 1799 1915
8 1685 1563 1686 1802 1801 1683 1800 1916
8 1688 1566 1689 1805 1802 1686 1803 1917
8 1689 1567 1690 1806 1803 1687 1804 1918
8 1691 1569 1692 1808 1805 1689 1806 1920
8 1692 1570 1693 1809 1806 1690 1807 1921
8 1694 1572 1695 1810 1808 1692 1809 1922
8 1829 1713 1811 1926 1712 1592 1697 1813
8 1813 1697 1812 1928 1699 1577 1698 1815
8 1735 1614 1712 1828 1816 1699 1813 1929
8 1815 1698 1814 1931 1701 1578 1700 1818
8 1702 1579 1699 1816 1819 1701 1815 1932
8 1818 1700 1817 1933 1704 1580 1703 1820
8 1819 1701 1818 1934 1705 1581 1704 1821
8 1821 1704 1820 1935 1707 1584 1706 1822
8 1824 1709 1632 1751 1937 1823 1750 1865
8 1716 1593 1709 1824 1834 1715 1823 1937
8 1825 1710 1633 1752 1938 1824 1751 1866
8 1717 1594 1710 1825 1835 1716 1824 1938
8 1945 1830 1712 1828 1851 1733 1614 1735
8 1830 1714 1831 1946 1712 1592 1713 1829
8 1947 1832 1714 1830 1849 1730 1611 1733
8 1843 1729 1607 1725 1950 1833 1715 1834
8 1721 1603 1716 1835 1836 1725 1834 1951
8 1836 1725 1842 1953 1721 1603 1724 1839
8 1723 1838 1719 1601 1840 1954 1837 1722
8 1954 1840 1743 1852 1837 1722 1623 1736
8 1724 1839 1720 1602 1841 1955 1838 1723
8 1841 1727 1844 1956 1723 1605 1726 1840
8 1956 1844 1747 1859 1840 1726 1628 1743
8 1728 1842 1724 1606 1845 1957 1841 1727
8 1725 1607 1729 1843 1842 1728 1846 1958
8 1741 1627 1746 1857 1849 1730 1848 1965
8 1734 1612 1731 1850 1851 1733 1849 1966
8 1854 1741 1849 1966 1738 1622 1731 1850
8 1967 1859 1745 1853 1852 1743 1626 1737
8 1968 1860 1744 1856 1853 1745 1625 1739
8 1854 1741 1622 1738 1969 1857 1742 1855
8 1855 1742 1624 1740 1970 1858 1744 1856
8 1857 1746 1631 1742 1971 1861 1749 1858
8 1858 1749 1630 1744 1972 1863 1748 1860
8 1859 1747 1862 1973 1745 1629 1748 1860
8 1875 1768 1864 1977 1761 1651 1750 1865
8 1755 1644 1761 1869 1866 1751 1865 1978
8 1867 1760 1874 1979 1754 1646 1763 1868
8 1774 1658 1775 1887 1867 1760 1874 1979
8 1870 1766 1648 1756 1980 1877 1763 1868
8 1872 1762 1875 1981 1758 1645 1761 1869
8 1757 1649 1766 1870 1871 1765 1880 1982
8 1983 1879 1764 1873 1871 1765 1647 1759
8 1873 1764 1876 1984 1759 1647 1762 1872
8 1877 1773 1655 1763 1986 1881 1767 1874
8 1775 1659 1776 1888 1874 1767 1881 1986
8 1876 1769 1882 1987 1762 1652 1768 1875
8 1878 1770 1883 1988 1764 1653 1769 1876
8 1880 1772 1656 1766 1989 1886 1773 1877
8 1878 1770 1653 1764 1990 1884 1771 1879
8 1765 1654 1772 1880 1879 1771 1885 1991
8 1778 1664 1779 1890 1887 1775 1888 1997
8 1998 1889 1776 1888 1891 1780 1665 1779
8 1893 1782 1891 2000 1781 1668 1779 1890
8 1894 1783 1892 2001 1782 1669 1780 1891
8 1784 1671 1785 1896 1893 1782 1894 2003
8 1897 1786 1895 2004 1785 1672 1783 1894
8 1790 1675 1789 1904 1896 1785 1897 2006
8 1901 1787 1898 2007 1789 1673 1786 1897
8 1903 1788 1900 2013 1789 1673 1787 1901
8 1792 1676 1791 1906 1903 1788 1902 2016
8 1907 1792 1903 2017 1795 1678 1789 1904
8 1906 1791 1677 1794 2019 1905 1793 1909
8 1907 1792 1678 1795 2020 1906 1794 1910
8 1797 1679 1796 1912 1909 1793 1908 2022
8 1798 1680 1797 1913 1910 1794 1909 2023
8 1800 1682 1799 1915 1912 1796 1911 2025
8 1801 1683 1800 1916 1913 1797 1912 2026
8 1803 1687 1804 1918 1915 1799 1914 2028
8 1802 1686 1803 1917 1916 1800 1915 2029
8 1805 1689 1806 1920 1917 1803 1918 2030
8 1806 1690 1807 1921 1918 1804 1919 2031
8 1808 1692 1809 1922 1920 1806 1921 2032
8 1939 1826 1924 2037 1829 1713 1811 1926
8 1926 1811 1925 2039 1813 1697 1812 1928
8 1944 1829 1926 2040 1828 1712 1813 1929
8 1928 1812 1927 2042 1815 1698 1814 1931
8 1929 1813 1928 2043 1816 1699 1815 1932
8 1931 1814 1930 2044 1818 1700 1817 1933
8 1932 1815 1931 2045 1819 1701 1818 1934
8 1934 1818 1933 2046 1821 1704 1820 1935
8 2048 1936 1823 1937 1977 1864 1750 1865
8 1950 1833 1715 1834 2048 1936 1823 1937
8 1938 1824 1751 1866 2049 1937 1865 1978
8 1835 1716 1824 1938 1951 1834 1937 2049
8 1939 1826 1713 1829 2053 1942 1831 1946
8 1940 1827 1923 2035 2053 1942 1826 1939
8 1945 1830 1946 2058 1828 1712 1829 1944
8 2059 1947 1830 1945 1966 1849 1733 1851
8 1947 1832 1730 1849 2060 1948 1848 1965
8 1947 1832 1948 2060 1830 1714 1831 1946
8 1959 1847 1729 1843 2063 1949 1833 1950
8 1952 1843 1725 1836 2064 1950 1834 1951
8 1836 1725 1843 1952 1953 1842 1958 2066
8 1953 1842 1957 2067 1839 1724 1841 1955
8 1841 1955 1838 1723 1956 2068 1954 1840
8 2068 1956 1859 1967 1954 1840 1743 1852
8 1956 1844 1960 2069 1859 1747 1862 1973
8 1845 1957 1841 1727 1960 2069 1956 1844
8 1728 1842 1957 1845 1846 1958 2071 1961
8 1962 2072 1959 1847 1846 1958 1843 1729
8 1971 1861 1964 2077 1857 1746 1848 1965
8 1854 1741 1857 1969 1966 1849 1965 2078
8 1967 1859 1973 2079 1853 1745 1860 1968
8 1970 1858 1744 1856 2080 1972 1860 1968
8 1969 1857 1742 1855 2081 1971 1858 1970
8 1971 1861 1749 1858 2082 1974 1863 1972
8 1973 1862 1975 2083 1860 1748 1863 1972
8 1987 1882 1976 2086 1875 1768 1864 1977
8 1981 1875 1977 2087 1869 1761 1865 1978
8 1980 1877 1763 1868 2088 1986 1874 1979
8 1887 1775 1888 1997 1979 1874 1986 2088
8 1880 1982 2089 1989 1766 1870 1980 1877
8 1984 1876 1987 2090 1872 1762 1875 1981
8 1765 1871 1983 1879 1880 1982 2091 1991
8 1985 1878 1764 1873 2092 1990 1879 1983
8 1985 1878 1988 2093 1873 1764 1876 1984
8 2094 1992 1881 1986 1998 1889 1776 1888
8 1986 1881 1992 2094 1877 1773 1886 1989
8 1988 1883 1993 2095 1876 1769 1882 1987
8 1878 1770 1884 1990 1988 1883 1994 2096
8 1991 1885 1772 1880 2097 1996 1886 1989
8 1879 1771 1885 1991 1990 1884 1995 2098
8 2103 1998 1888 1997 2000 1891 1779 1890
8 2104 1999 1889 1998 2001 1892 1780 1891
8 2003 1894 2001 2106 1893 1782 1891 2000
8 2004 1895 2002 2107 1894 1783 1892 2001
8 2006 1897 2004 2109 1896 1785 1894 2003
8 2007 1898 2005 2110 1897 1786 1895 2004
8 2014 1901 2007 2112 1904 1789 1897 2006
8 2011 1899 2008 2113 1901 1787 1898 2007
8 2119 2010 1899 2011 2013 1900 1787 1901
8 2016 1902 2012 2122 1903 1788 1900 2013
8 2017 1903 2013 2123 1904 1789 1901 2014
8 1906 1791 1905 2019 2016 1902 2015 2125
8 1907 1792 1906 2020 2017 1903 2016 2126
8 1909 1793 1908 2022 2019 1905 2018 2128
8 2020 1906 1794 1910 2129 2019 1909 2023
8 1912 1796 1911 2025 2022 1908 2021 2131
8 1913 1797 1912 2026 2023 1909 2022 2132
8 1915 1799 1914 2028 2025 1911 2024 2134
8 1916 1800 1915 2029 2026 1912 2025 2135
8 1918 1804 1919 2031 2028 1914 2027 2136
8 1917 1803 1918 2030 2029 1915 2028 2137
8 1920 1806 1921 2032 2030 1918 2031 2138
8 1940 1827 1941 2054 2035 1923 2033 2140
8 2035 1923 2034 2143 1939 1826 1924 2037
8 2037 1924 2036 2146 1926 1811 1925 2039
8 2051 1939 2037 2147 1944 1829 1926 2040
8 2039 1925 2038 2149 1928 1812 1927 2042
8 2040 1926 2039 2150 1929 1813 1928 2043
8 2042 1927 2041 2151 1931 1814 1930 2044
8 2043 1928 2042 2152 1932 1815 1931 2045
8 2045 1931 2044 2153 1934 1818 1933 2046
8 2155 2047 1936 2048 2086 1976 1864 1977
8 2063 1949 1833 1950 2155 2047 1936 2048
8 2156 2048 1937 2049 2087 1977 1865 1978
8 2064 1950 1834 1951 2156 2048 1937 2049
8 2051 1939 1829 1944 2160 2053 1946 2058
8 2052 1940 2035 2144 2160 2053 1939 2051
8 2053 1942 1831 1946 2163 2057 1948 2060
8 2055 1943 1827 1940 2163 2057 1942 2053
8 2055 1943 2056 2164 1940 1827 1941 2054
8 2059 1947 1849 1966 2167 2060 1965 2078
8 2059 1947 2060 2167 1945 1830 1946 2058
8 2077 1964 2061 2168 1965 1848 1948 2060
8 2070 1963 1847 1959 2170 2062 1949 2063
8 2065 1959 1843 1952 2171 2063 1950 2064
8 2173 2072 1958 2066 2065 1959 1843 1952
8 1953 1842 1958 2066 2067 1957 2071 2174
8 2068 1956 2069 2175 1967 1859 1973 2079
8 2067 1957 2069 2175 1955 1841 1956 2068
8 1845 1957 2069 1960 1961 2071 2176 2073
8 2069 1960 2073 2176 1973 1862 1975 2083
8 2070 1963 2075 2177 1959 1847 1962 2072
8 1846 1958 2071 1961 1962 2072 2178 2074
8 2077 1964 1861 1971 2182 2076 1974 2082
8 2081 1971 2077 2183 1969 1857 1965 2078
8 2079 1973 2083 2184 1968 1860 1972 2080
8 2081 1971 1858 1970 2185 2082 1972 2080
8 2083 1975 2084 2186 1972 1863 1974 2082
8 2086 1976 1882 1987 2189 2085 1993 2095
8 2090 1987 2086 2190 1981 1875 1977 2087
8 2191 2094 1986 2088 2103 1998 1888 1997
8 2088 1986 2094 2191 1980 1877 1989 2089
8 1991 2091 2192 2097 1880 1982 2089 1989
8 2093 1988 2095 2193 1984 1876 1987 2090
8 1879 1983 2092 1990 1991 2091 2194 2098
8 1985 1878 1990 2092 2093 1988 2096 2195
8 2097 1996 1886 1989 2196 2099 1992 2094
8 2196 2099 1992 2094 2104 1999 1889 1998
8 1994 2096 1988 1883 2100 2197 2095 1993
8 2096 1994 1884 1990 2198 2101 1995 2098
8 1995 2098 2199 2102 1885 1991 2097 1996
8 2203 2104 1998 2103 2106 2001 1891 2000
8 2107 2002 2105 2204 2001 1892 1999 2104
8 2109 2004 2107 2206 2003 1894 2001 2106
8 2110 2005 2108 2207 2004 1895 2002 2107
8 2112 2007 2110 2209 2006 1897 2004 2109
8 2113 2008 2111 2210 2007 1898 2005 2110
8 2120 2011 2113 2212 2014 1901 2007 2112
8 2117 2009 2114 2213 2011 1899 2008 2113
8 2219 2116 2009 2117 2119 2010 1899 2011
8 2222 2118 2010 2119 2122 2012 1900 2013
8 2223 2119 2011 2120 2123 2013 1901 2014
8 2016 1902 2015 2125 2122 2012 2121 2225
8 2126 2016 2122 2226 2017 1903 2013 2123
8 2019 1905 2018 2128 2125 2015 2124 2228
8 2020 1906 2019 2129 2126 2016 2125 2229
8 2022 1908 2021 2131 2128 2018 2127 2231
8 2023 1909 2022 2132 2129 2019 2128 2232
8 2025 1911 2024 2134 2131 2021 2130 2234
8 2026 1912 2025 2135 2132 2022 2131 2235
8 1914 2028 2134 2024 2027 2136 2236 2133
8 2029 1915 2028 2137 2135 2025 2134 2237
8 2030 1918 2031 2138 2137 2028 2136 2238
8 2157 2050 2139 2240 2054 1941 2033 2140
8 2052 1940 2054 2161 2144 2035 2140 2242
8 2140 2033 2141 2243 2035 1923 2034 2143
8 2143 2034 2142 2246 2037 1924 2036 2146
8 2144 2035 2143 2247 2051 1939 2037 2147
8 2146 2036 2145 2249 2039 1925 2038 2149
8 2147 2037 2146 2250 2040 1926 2039 2150
8 2149 2038 2148 2251 2042 1927 2041 2151
8 2150 2039 2149 2252 2043 1928 2042 2152
8 2152 2042 2151 2253 2045 1931 2044 2153
8 2255 2154 2047 2155 2189 2085 1976 2086
8 2170 2062 1949 2063 2255 2154 2047 2155
8 2256 2155 2048 2156 2190 2086 1977 2087
8 2171 2063 1950 2064 2256 2155 2048 2156
8 2258 2159 2050 2157 2164 2056 1941 2054
8 2160 2053 1946 2058 2262 2163 2060 2167
8 2162 2055 1940 2052 2262 2163 2053 2160
8 2162 2055 2164 2263 2052 1940 2054 2161
8 2163 2057 1948 2060 2264 2165 2061 2168
8 2055 1943 2057 2163 2164 2056 2165 2264
8 2182 2076 2166 2268 2077 1964 2061 2168
8 2183 2077 2168 2269 2078 1965 2060 2167
8 2070 1963 2062 2170 2177 2075 2169 2271
8 2172 2070 1959 2065 2272 2170 2063 2171
8 2172 2070 2177 2273 2065 1959 2072 2173
8 2066 1958 2072 2173 2174 2071 2178 2274
8 2067 1957 2071 2174 2175 2069 2176 2275
8 2175 2069 2176 2275 2079 1973 2083 2184
8 2071 1961 2074 2178 2176 2073 2179 2276
8 2176 2073 2179 2276 2083 1975 2084 2186
8 2072 1962 2075 2177 2178 2074 2180 2277
8 2182 2076 1974 2082 2280 2181 2084 2186
8 2183 2077 1971 2081 2281 2182 2082 2185
8 2184 2083 2186 2282 2080 1972 2082 2185
8 2189 2085 1993 2095 2285 2188 2100 2197
8 2190 2086 1987 2090 2286 2189 2095 2193
8 2192 2097 1989 2089 2287 2196 2094 2191
8 2287 2196 2094 2191 2203 2104 1998 2103
8 2194 2098 1991 2091 2288 2199 2097 2192
8 2195 2096 2197 2289 2093 1988 2095 2193
8 2096 2195 2290 2198 1990 2092 2194 2098
8 2097 1996 2099 2196 2199 2102 2200 2291
8 2196 2099 1999 2104 2291 2200 2105 2204
8 2100 2197 2292 2201 1994 2096 2198 2101
8 1995 2098 2198 2101 2102 2199 2293 2202
8 2206 2107 2204 2296 2106 2001 2104 2203
8 2207 2108 2205 2297 2107 2002 2105 2204
8 2209 2110 2207 2299 2109 2004 2107 2206
8 2210 2111 2208 2300 2110 2005 2108 2207
8 2212 2113 2210 2302 2112 2007 2110 2209
8 2213 2114 2211 2303 2113 2008 2111 2210
8 2220 2117 2213 2305 2120 2011 2113 2212
8 2216 2115 2214 2306 2117 2009 2114 2213
8 2216 2115 2009 2117 2311 2217 2116 2219
8 2219 2116 2010 2119 2314 2218 2118 2222
8 2315 2219 2117 2220 2223 2119 2011 2120
8 2122 2012 2121 2225 2222 2118 2221 2317
8 2318 2222 2119 2223 2226 2122 2013 2123
8 2125 2015 2124 2228 2225 2121 2224 2320
8 2126 2016 2125 2229 2226 2122 2225 2321
8 2128 2018 2127 2231 2228 2124 2227 2323
8 2129 2019 2128 2232 2229 2125 2228 2324
8 2131 2021 2130 2234 2231 2127 2230 2326
8 2132 2022 2131 2235 2232 2128 2231 2327
8 2134 2024 2133 2236 2234 2130 2233 2328
8 2135 2025 2134 2237 2235 2131 2234 2329
8 2137 2028 2136 2238 2237 2134 2236 2330
8 2157 2050 2158 2259 2240 2139 2239 2332
8 2257 2157 2240 2334 2161 2054 2140 2242
8 2240 2139 2241 2335 2140 2033 2141 2243
8 2242 2140 2243 2337 2144 2035 2143 2247
8 2243 2141 2244 2338 2143 2034 2142 2246
8 2246 2142 2245 2341 2146 2036 2145 2249
8 2247 2143 2246 2342 2147 2037 2146 2250
8 2249 2145 2248 2343 2149 2038 2148 2251
8 2250 2146 2249 2344 2150 2039 2149 2252
8 2252 2149 2251 2345 2152 2042 2151 2253
8 2169 2271 2347 2254 2062 2170 2255 2154
8 2189 2085 2188 2285 2255 2154 2254 2347
8 2348 2255 2155 2256 2286 2189 2086 2190
8 2272 2170 2063 2171 2348 2255 2155 2256
8 2349 2258 2157 2257 2263 2164 2054 2161
8 2258 2159 2261 2351 2157 2050 2158 2259
8 2258 2159 2056 2164 2351 2261 2165 2264
8 2262 2163 2060 2167 2355 2264 2168 2269
8 2162 2055 2163 2262 2263 2164 2264 2355
8 2357 2266 2165 2264 2268 2166 2061 2168
8 2268 2166 2076 2182 2361 2267 2181 2280
8 2281 2182 2268 2362 2183 2077 2168 2269
8 2271 2169 2270 2364 2177 2075 2180 2277
8 2172 2070 2170 2272 2273 2177 2271 2365
8 2072 2173 2274 2178 2177 2273 2366 2277
8 2071 2174 2275 2176 2178 2274 2367 2276
8 2275 2176 2276 2367 2184 2083 2186 2282
8 2283 2187 2084 2186 2368 2278 2179 2276
8 2178 2074 2180 2277 2276 2179 2278 2368
8 2283 2187 2279 2370 2186 2084 2181 2280
8 2281 2182 2082 2185 2371 2280 2186 2282
8 2188 2285 2374 2284 2100 2197 2292 2201
8 2286 2189 2095 2193 2375 2285 2197 2289
8 2192 2097 2196 2287 2288 2199 2291 2376
8 2287 2196 2104 2203 2376 2291 2204 2296
8 2194 2098 2199 2288 2290 2198 2293 2377
8 2289 2197 2096 2195 2378 2292 2198 2290
8 2291 2200 2105 2204 2379 2294 2205 2297
8 2199 2102 2200 2291 2293 2202 2294 2379
8 2198 2101 2202 2293 2292 2201 2295 2380
8 2299 2207 2297 2383 2206 2107 2204 2296
8 2300 2208 2298 2384 2207 2108 2205 2297
8 2302 2210 2300 2386 2209 2110 2207 2299
8 2303 2211 2301 2387 2210 2111 2208 2300
8 2305 2213 2303 2389 2212 2113 2210 2302
8 2306 2214 2304 2390 2213 2114 2211 2303
8 2310 2216 2306 2392 2220 2117 2213 2305
8 2308 2215 2307 2393 2216 2115 2214 2306
8 2308 2215 2115 2216 2396 2309 2217 2311
8 2310 2216 2117 2220 2398 2311 2219 2315
8 2311 2217 2116 2219 2399 2312 2218 2314
8 2314 2218 2118 2222 2402 2313 2221 2317
8 2315 2219 2119 2223 2403 2314 2222 2318
8 2225 2121 2224 2320 2317 2221 2316 2405
8 2226 2122 2225 2321 2318 2222 2317 2406
8 2228 2124 2227 2323 2320 2224 2319 2408
8 2229 2125 2228 2324 2321 2225 2320 2409
8 2231 2127 2230 2326 2323 2227 2322 2411
8 2232 2128 2231 2327 2324 2228 2323 2412
8 2234 2130 2233 2328 2326 2230 2325 2413
8 2235 2131 2234 2329 2327 2231 2326 2414
8 2237 2134 2236 2330 2329 2234 2328 2415
8 2259 2158 2260 2352 2332 2239 2331 2417
8 2257 2157 2259 2350 2334 2240 2332 2419
8 2240 2139 2239 2332 2335 2241 2333 2420
8 2334 2240 2335 2422 2242 2140 2243 2337
8 2335 2241 2336 2423 2243 2141 2244 2338
8 2337 2243 2338 2425 2247 2143 2246 2342
8 2338 2244 2339 2426 2246 2142 2245 2341
8 2341 2245 2340 2428 2249 2145 2248 2343
8 2342 2246 2341 2429 2250 2146 2249 2344
8 2344 2249 2343 2430 2252 2149 2251 2345
8 2188 2285 2347 2254 2284 2374 2432 2346
8 2347 2254 2346 2432 2271 2169 2270 2364
8 2365 2271 2170 2272 2433 2347 2255 2348
8 2286 2189 2285 2375 2348 2255 2347 2433
8 2349 2258 2351 2435 2257 2157 2259 2350
8 2349 2258 2164 2263 2435 2351 2264 2355
8 2259 2158 2261 2351 2352 2260 2354 2437
8 2356 2265 2354 2437 2264 2165 2261 2351
8 2441 2357 2264 2355 2362 2268 2168 2269
8 2356 2265 2165 2264 2442 2358 2266 2357
8 2443 2359 2266 2357 2361 2267 2166 2268
8 2370 2279 2360 2446 2280 2181 2267 2361
8 2362 2268 2182 2281 2447 2361 2280 2371
8 2180 2277 2368 2278 2270 2364 2449 2363
8 2271 2365 2273 2177 2364 2450 2366 2277
8 2372 2283 2186 2282 2451 2368 2276 2367
8 2178 2274 2367 2276 2277 2366 2451 2368
8 2283 2187 2278 2368 2370 2279 2369 2452
8 2372 2283 2370 2453 2282 2186 2280 2371
8 2284 2374 2455 2373 2201 2292 2380 2295
8 2375 2285 2197 2289 2456 2374 2292 2378
8 2376 2291 2204 2296 2457 2379 2297 2383
8 2288 2199 2291 2376 2377 2293 2379 2457
8 2198 2290 2378 2292 2293 2377 2458 2380
8 2293 2202 2294 2379 2380 2295 2381 2459
8 2384 2298 2381 2459 2297 2205 2294 2379
8 2386 2300 2384 2463 2299 2207 2297 2383
8 2387 2301 2385 2464 2300 2208 2298 2384
8 2389 2303 2387 2466 2302 2210 2300 2386
8 2390 2304 2388 2467 2303 2211 2301 2387
8 2392 2306 2390 2469 2305 2213 2303 2389
8 2393 2307 2391 2470 2306 2214 2304 2390
8 2395 2308 2393 2472 2310 2216 2306 2392
8 2308 2215 2309 2396 2393 2307 2394 2473
8 2395 2308 2216 2310 2475 2396 2311 2398
8 2396 2309 2217 2311 2476 2397 2312 2399
8 2398 2311 2219 2315 2478 2399 2314 2403
8 2399 2312 2218 2314 2479 2400 2313 2402
8 2317 2221 2316 2405 2402 2313 2401 2482
8 2403 2314 2222 2318 2483 2402 2317 2406
8 2320 2224 2319 2408 2405 2316 2404 2485
8 2321 2225 2320 2409 2406 2317 2405 2486
8 2323 2227 2322 2411 2408 2319 2407 2488
8 2324 2228 2323 2412 2409 2320 2408 2489
8 2326 2230 2325 2413 2411 2322 2410 2490
8 2327 2231 2326 2414 2412 2323 2411 2491
8 2329 2234 2328 2415 2414 2326 2413 2492
8 2417 2331 2260 2352 2494 2416 2353 2438
8 2350 2259 2352 2436 2419 2332 2417 2496
8 2332 2239 2331 2417 2420 2333 2418 2497
8 2334 2240 2332 2419 2422 2335 2420 2499
8 2420 2333 2421 2500 2335 2241 2336 2423
8 2422 2335 2423 2502 2337 2243 2338 2425
8 2423 2336 2424 2503 2338 2244 2339 2426
8 2425 2338 2426 2505 2342 2246 2341 2429
8 2426 2339 2427 2506 2341 2245 2340 2428
8 2429 2341 2428 2507 2344 2249 2343 2430
8 2432 2346 2284 2374 2509 2431 2373 2455
8 2432 2346 2431 2509 2364 2270 2363 2449
8 2375 2285 2374 2456 2433 2347 2432 2510
8 2347 2433 2365 2271 2432 2510 2450 2364
8 2350 2259 2351 2435 2436 2352 2437 2514
8 2440 2356 2437 2514 2355 2264 2351 2435
8 2352 2260 2354 2437 2438 2353 2439 2516
8 2356 2265 2358 2442 2437 2354 2439 2516
8 2440 2356 2264 2355 2518 2442 2357 2441
8 2519 2443 2357 2441 2447 2361 2268 2362
8 2443 2359 2444 2520 2357 2266 2358 2442
8 2443 2359 2267 2361 2520 2444 2360 2446
8 2446 2360 2279 2370 2523 2445 2369 2452
8 2453 2370 2446 2524 2371 2280 2361 2447
8 2449 2363 2448 2525 2368 2278 2369 2452
8 2366 2277 2364 2450 2451 2368 2449 2526
8 2372 2283 2368 2451 2453 2370 2452 2527
8 2455 2373 2295 2380 2529 2454 2382 2460
8 2456 2374 2292 2378 2530 2455 2380 2458
8 2377 2293 2379 2457 2458 2380 2459 2531
8 2463 2384 2459 2531 2383 2297 2379 2457
8 2533 2461 2382 2460 2459 2381 2295 2380
8 2464 2385 2461 2533 2384 2298 2381 2459
8 2466 2387 2464 2537 2386 2300 2384 2463
8 2467 2388 2465 2538 2387 2301 2385 2464
8 2469 2390 2467 2540 2389 2303 2387 2466
8 2470 2391 2468 2541 2390 2304 2388 2467
8 2472 2393 2470 2543 2392 2306 2390 2469
8 2393 2307 2394 2473 2470 2391 2471 2544
8 2395 2308 2396 2475 2472 2393 2473 2546
8 2396 2309 2397 2476 2473 2394 2474 2547
8 2475 2396 2311 2398 2549 2476 2399 2478
8 2476 2397 2312 2399 2550 2477 2400 2479
8 2478 2399 2314 2403 2552 2479 2402 2483
8 2479 2400 2313 2402 2553 2480 2401 2482
8 2405 2316 2404 2485 2482 2401 2481 2556
8 2406 2317 2405 2486 2483 2402 2482 2557
8 2408 2319 2407 2488 2485 2404 2484 2559
8 2409 2320 2408 2489 2486 2405 2485 2560
8 2411 2322 2410 2490 2488 2407 2487 2561
8 2412 2323 2411 2491 2489 2408 2488 2562
8 2414 2326 2413 2492 2491 2411 2490 2563
8 2513 2434 2493 2565 2438 2353 2416 2494
8 2496 2417 2352 2436 2567 2494 2438 2515
8 2494 2416 2495 2568 2417 2331 2418 2497
8 2419 2332 2417 2496 2499 2420 2497 2570
8 2497 2418 2498 2571 2420 2333 2421 2500
8 2499 2420 2500 2573 2422 2335 2423 2502
8 2500 2421 2501 2574 2423 2336 2424 2503
8 2502 2423 2503 2576 2425 2338 2426 2505
8 2503 2424 2504 2577 2426 2339 2427 2506
8 2505 2426 2506 2578 2429 2341 2428 2507
8 2509 2431 2373 2455 2580 2508 2454 2529
8 2509 2431 2508 2580 2449 2363 2448 2525
8 2432 2510 2581 2509 2374 2456 2530 2455
8 2432 2510 2450 2364 2509 2581 2526 2449
8 2583 2511 2434 2513 2516 2439 2353 2438
8 2436 2352 2437 2514 2515 2438 2516 2588
8 2440 2356 2442 2518 2514 2437 2516 2588
8 2442 2358 2444 2520 2516 2439 2517 2589
8 2519 2443 2520 2591 2441 2357 2442 2518
8 2519 2443 2361 2447 2591 2520 2446 2524
8 2446 2360 2445 2523 2520 2444 2521 2592
8 2525 2448 2522 2593 2452 2369 2445 2523
8 2524 2446 2370 2453 2594 2523 2452 2527
8 2526 2449 2525 2595 2451 2368 2452 2527
8 2534 2462 2528 2597 2460 2382 2454 2529
8 2530 2455 2380 2458 2598 2529 2460 2532
8 2599 2533 2460 2532 2531 2459 2380 2458
8 2537 2464 2533 2599 2463 2384 2459 2531
8 2534 2462 2382 2460 2601 2535 2461 2533
8 2538 2465 2535 2601 2464 2385 2461 2533
8 2540 2467 2538 2604 2466 2387 2464 2537
8 2541 2468 2539 2605 2467 2388 2465 2538
8 2543 2470 2541 2607 2469 2390 2467 2540
8 2470 2391 2471 2544 2541 2468 2542 2608
8 2472 2393 2473 2546 2543 2470 2544 2610
8 2473 2394 2474 2547 2544 2471 2545 2611
8 2475 2396 2476 2549 2546 2473 2547 2613
8 2476 2397 2477 2550 2547 2474 2548 2614
8 2549 2476 2399 2478 2616 2550 2479 2552
8 2479 2400 2480 2553 2550 2477 2551 2617
8 2552 2479 2402 2483 2619 2553 2482 2557
8 2482 2401 2481 2556 2553 2480 2554 2620
8 2485 2404 2484 2559 2556 2481 2555 2623
8 2486 2405 2485 2560 2557 2482 2556 2624
8 2488 2407 2487 2561 2559 2484 2558 2625
8 2489 2408 2488 2562 2560 2485 2559 2626
8 2491 2411 2490 2563 2562 2488 2561 2627
8 2513 2434 2512 2585 2565 2493 2564 2630
8 2586 2513 2565 2632 2515 2438 2494 2567
8 2565 2493 2566 2633 2494 2416 2495 2568
8 2567 2494 2568 2635 2496 2417 2497 2570
8 2568 2495 2569 2636 2497 2418 2498 2571
8 2570 2497 2571 2638 2499 2420 2500 2573
8 2571 2498 2572 2639 2500 2421 2501 2574
8 2573 2500 2574 2641 2502 2423 2503 2576
8 2574 2501 2575 2642 2503 2424 2504 2577
8 2576 2503 2577 2643 2505 2426 2506 2578
8 2597 2528 2579 2645 2529 2454 2508 2580
8 2580 2508 2579 2645 2525 2448 2522 2593
8 2581 2509 2455 2530 2646 2580 2529 2598
8 2581 2509 2580 2646 2526 2449 2525 2595
8 2583 2511 2582 2648 2513 2434 2512 2585
8 2583 2511 2439 2516 2648 2582 2517 2589
8 2649 2583 2513 2586 2588 2516 2438 2515
8 2589 2517 2444 2520 2653 2587 2521 2592
8 2518 2442 2520 2591 2588 2516 2589 2654
8 2593 2522 2590 2655 2523 2445 2521 2592
8 2524 2446 2523 2594 2591 2520 2592 2656
8 2595 2525 2593 2657 2527 2452 2523 2594
8 2602 2536 2596 2659 2534 2462 2528 2597
8 2600 2534 2597 2660 2532 2460 2529 2598
8 2600 2534 2460 2532 2661 2601 2533 2599
8 2604 2538 2601 2661 2537 2464 2533 2599
8 2602 2536 2462 2534 2663 2603 2535 2601
8 2601 2535 2465 2538 2663 2603 2539 2605
8 2607 2541 2605 2665 2540 2467 2538 2604
8 2608 2542 2606 2666 2541 2468 2539 2605
8 2543 2470 2544 2610 2607 2541 2608 2668
8 2544 2471 2545 2611 2608 2542 2609 2669
8 2546 2473 2547 2613 2610 2544 2611 2671
8 2547 2474 2548 2614 2611 2545 2612 2672
8 2549 2476 2550 2616 2613 2547 2614 2674
8 2550 2477 2551 2617 2614 2548 2615 2675
8 2552 2479 2553 2619 2616 2550 2617 2677
8 2553 2480 2554 2620 2617 2551 2618 2678
8 2557 2482 2556 2624 2619 2553 2620 2680
8 2556 2481 2555 2623 2620 2554 2621 2681
8 2559 2484 2558 2625 2623 2555 2622 2683
8 2560 2485 2559 2626 2624 2556 2623 2684
8 2562 2488 2561 2627 2626 2559 2625 2685
8 2690 2629 2564 2630 2650 2584 2512 2585
8 2586 2513 2585 2651 2632 2565 2630 2691
8 2630 2564 2631 2692 2565 2493 2566 2633
8 2632 2565 2633 2694 2567 2494 2568 2635
8 2633 2566 2634 2695 2568 2495 2569 2636
8 2635 2568 2636 2697 2570 2497 2571 2638
8 2636 2569 2637 2698 2571 2498 2572 2639
8 2638 2571 2639 2700 2573 2500 2574 2641
8 2639 2572 2640 2701 2574 2501 2575 2642
8 2641 2574 2642 2702 2576 2503 2577 2643
8 2597 2528 2596 2659 2645 2579 2644 2704
8 2645 2579 2644 2704 2593 2522 2590 2655
8 2660 2597 2645 2705 2598 2529 2580 2646
8 2646 2580 2645 2705 2595 2525 2593 2657
8 2650 2584 2512 2585 2707 2647 2582 2648
8 2648 2582 2517 2589 2707 2647 2587 2653
8 2649 2583 2648 2708 2586 2513 2585 2651
8 2649 2583 2516 2588 2708 2648 2589 2654
8 2655 2590 2652 2710 2592 2521 2587 2653
8 2654 2589 2520 2591 2711 2653 2592 2656
8 2657 2593 2655 2712 2594 2523 2592 2656
8 2602 2536 2603 2663 2659 2596 2658 2714
8 2662 2602 2659 2715 2600 2534 2597 2660
8 2662 2602 2534 2600 2717 2663 2601 2661
8 2661 2601 2538 2604 2717 2663 2605 2665
8 2666 2606 2664 2718 2605 2539 2603 2663
8 2668 2608 2666 2720 2607 2541 2605 2665
8 2608 2542 2609 2669 2666 2606 2667 2721
8 2610 2544 2611 2671 2668 2608 2669 2723
8 2611 2545 2612 2672 2669 2609 2670 2724
8 2613 2547 2614 2674 2671 2611 2672 2726
8 2614 2548 2615 2675 2672 2612 2673 2727
8 2616 2550 2617 2677 2674 2614 2675 2729
8 2617 2551 2618 2678 2675 2615 2676 2730
8 2619 2553 2620 2680 2677 2617 2678 2732
8 2620 2554 2621 2681 2678 2618 2679 2733
8 2624 2556 2623 2684 2680 2620 2681 2735
8 2681 2621 2555 2623 2736 2682 2622 2683
8 2626 2559 2625 2685 2684 2623 2683 2737
8 2688 2628 2584 2650 2740 2686 2647 2707
8 2688 2628 2687 2742 2650 2584 2629 2690
8 2690 2629 2689 2745 2630 2564 2631 2692
8 2746 2690 2630 2691 2709 2650 2585 2651
8 2691 2630 2692 2747 2632 2565 2633 2694
8 2692 2631 2693 2748 2633 2566 2634 2695
8 2694 2633 2695 2750 2635 2568 2636 2697
8 2695 2634 2696 2751 2636 2569 2637 2698
8 2697 2636 2698 2753 2638 2571 2639 2700
8 2698 2637 2699 2754 2639 2572 2640 2701
8 2700 2639 2701 2755 2641 2574 2642 2702
8 2659 2596 2658 2714 2704 2644 2703 2757
8 2704 2644 2703 2757 2655 2590 2652 2710
8 2660 2597 2659 2715 2705 2645 2704 2758
8 2705 2645 2704 2758 2657 2593 2655 2712
8 2759 2706 2647 2707 2710 2652 2587 2653
8 2709 2650 2585 2651 2760 2707 2648 2708
8 2708 2648 2589 2654 2760 2707 2653 2711
8 2712 2655 2710 2761 2656 2592 2653 2711
8 2763 2713 2658 2714 2718 2664 2603 2663
8 2662 2602 2663 2717 2715 2659 2714 2764
8 2720 2666 2718 2767 2665 2605 2663 2717
8 2768 2719 2664 2718 2721 2667 2606 2666
8 2668 2608 2669 2723 2720 2666 2721 2770
8 2669 2609 2670 2724 2721 2667 2722 2771
8 2671 2611 2672 2726 2723 2669 2724 2773
8 2672 2612 2673 2727 2724 2670 2725 2774
8 2674 2614 2675 2729 2726 2672 2727 2776
8 2675 2615 2676 2730 2727 2673 2728 2777
8 2677 2617 2678 2732 2729 2675 2730 2779
8 2678 2618 2679 2733 2730 2676 2731 2780
8 2680 2620 2681 2735 2732 2678 2733 2782
8 2733 2679 2621 2681 2783 2734 2682 2736
8 2735 2681 2623 2684 2784 2736 2683 2737
8 2740 2686 2647 2707 2787 2738 2706 2759
8 2688 2628 2686 2740 2742 2687 2739 2789
8 2743 2688 2650 2709 2790 2740 2707 2760
8 2742 2687 2741 2792 2690 2629 2689 2745
8 2743 2688 2742 2793 2709 2650 2690 2746
8 2745 2689 2744 2795 2692 2631 2693 2748
8 2746 2690 2745 2796 2691 2630 2692 2747
8 2747 2692 2748 2797 2694 2633 2695 2750
8 2748 2693 2749 2798 2695 2634 2696 2751
8 2750 2695 2751 2800 2697 2636 2698 2753
8 2751 2696 2752 2801 2698 2637 2699 2754
8 2753 2698 2754 2802 2700 2639 2701 2755
8 2763 2713 2756 2804 2714 2658 2703 2757
8 2759 2706 2652 2710 2804 2756 2703 2757
8 2715 2659 2714 2764 2758 2704 2757 2805
8 2758 2704 2757 2805 2712 2655 2710 2761
8 2806 2759 2707 2760 2761 2710 2653 2711
8 2765 2716 2762 2808 2718 2664 2713 2763
8 2809 2763 2714 2764 2767 2718 2663 2717
8 2765 2716 2664 2718 2811 2766 2719 2768
8 2813 2768 2718 2767 2770 2721 2666 2720
8 2814 2769 2719 2768 2771 2722 2667 2721
8 2723 2669 2724 2773 2770 2721 2771 2816
8 2724 2670 2725 2774 2771 2722 2772 2817
8 2726 2672 2727 2776 2773 2724 2774 2819
8 2727 2673 2728 2777 2774 2725 2775 2820
8 2729 2675 2730 2779 2776 2727 2777 2822
8 2730 2676 2731 2780 2777 2728 2778 2823
8 2732 2678 2733 2782 2779 2730 2780 2825
8 2780 2731 2679 2733 2826 2781 2734 2783
8 2782 2733 2681 2735 2827 2783 2736 2784
8 2830 2785 2738 2787 2804 2756 2706 2759
8 2789 2739 2686 2740 2832 2786 2738 2787
8 2790 2740 2707 2760 2833 2787 2759 2806
8 2742 2687 2739 2789 2792 2741 2788 2835
8 2743 2688 2740 2790 2793 2742 2789 2836
8 2792 2741 2791 2838 2745 2689 2744 2795
8 2793 2742 2792 2839 2746 2690 2745 2796
8 2795 2744 2794 2841 2748 2693 2749 2798
8 2796 2745 2795 2842 2747 2692 2748 2797
8 2797 2748 2798 2843 2750 2695 2751 2800
8 2798 2749 2799 2844 2751 2696 2752 2801
8 2800 2751 2801 2845 2753 2698 2754 2802
8 2808 2762 2803 2847 2763 2713 2756 2804
8 2809 2763 2804 2848 2764 2714 2757 2805
8 2806 2759 2710 2761 2848 2804 2757 2805
8 2765 2716 2766 2811 2808 2762 2807 2850
8 2810 2765 2808 2851 2767 2718 2763 2809
8 2810 2765 2718 2767 2852 2811 2768 2813
8 2811 2766 2719 2768 2853 2812 2769 2814
8 2855 2814 2768 2813 2816 2771 2721 2770
8 2856 2815 2769 2814 2817 2772 2722 2771
8 2773 2724 2774 2819 2816 2771 2817 2858
8 2774 2725 2775 2820 2817 2772 2818 2859
8 2776 2727 2777 2822 2819 2774 2820 2861
8 2777 2728 2778 2823 2820 2775 2821 2862
8 2779 2730 2780 2825 2822 2777 2823 2864
8 2823 2778 2731 2780 2865 2824 2781 2826
8 2825 2780 2733 2782 2866 2826 2783 2827
8 2869 2828 2785 2830 2847 2803 2756 2804
8 2871 2829 2786 2832 2830 2785 2738 2787
8 2872 2830 2787 2833 2848 2804 2759 2806
8 2789 2739 2786 2832 2835 2788 2831 2874
8 2836 2789 2740 2790 2875 2832 2787 2833
8 2792 2741 2788 2835 2838 2791 2834 2877
8 2793 2742 2789 2836 2839 2792 2835 2878
8 2838 2791 2837 2880 2795 2744 2794 2841
8 2839 2792 2838 2881 2796 2745 2795 2842
8 2841 2794 2840 2882 2798 2749 2799 2844
8 2842 2795 2841 2883 2797 2748 2798 2843
8 2843 2798 2844 2884 2800 2751 2801 2845
8 2886 2846 2803 2847 2850 2807 2762 2808
8 2851 2808 2847 2887 2809 2763 2804 2848
8 2850 2807 2766 2811 2889 2849 2812 2853
8 2810 2765 2811 2852 2851 2808 2850 2890
8 2852 2811 2768 2813 2891 2853 2814 2855
8 2853 2812 2769 2814 2892 2854 2815 2856
8 2894 2856 2814 2855 2858 2817 2771 2816
8 2817 2772 2818 2859 2856 2815 2857 2895
8 2819 2774 2820 2861 2858 2817 2859 2897
8 2820 2775 2821 2862 2859 2818 2860 2898
8 2822 2777 2823 2864 2861 2820 2862 2900
8 2823 2778 2824 2865 2862 2821 2863 2901
8 2864 2823 2780 2825 2902 2865 2826 2866
8 2904 2867 2828 2869 2886 2846 2803 2847
8 2869 2828 2868 2906 2830 2785 2829 2871
8 2907 2869 2830 2872 2887 2847 2804 2848
8 2871 2829 2870 2909 2832 2786 2831 2874
8 2910 2871 2832 2875 2872 2830 2787 2833
8 2835 2788 2831 2874 2877 2834 2873 2912
8 2836 2789 2832 2875 2878 2835 2874 2913
8 2877 2834 2876 2915 2838 2791 2837 2880
8 2839 2792 2835 2878 2881 2838 2877 2916
8 2880 2837 2879 2917 2841 2794 2840 2882
8 2881 2838 2880 2918 2842 2795 2841 2883
8 2883 2841 2882 2919 2843 2798 2844 2884
8 2921 2885 2846 2886 2889 2849 2807 2850
8 2922 2886 2847 2887 2890 2850 2808 2851
8 2889 2849 2812 2853 2924 2888 2854 2892
8 2890 2850 2811 2852 2925 2889 2853 2891
8 2891 2853 2814 2855 2926 2892 2856 2894
8 2892 2854 2815 2856 2927 2893 2857 2895
8 2858 2817 2859 2897 2894 2856 2895 2929
8 2859 2818 2860 2898 2895 2857 2896 2930
8 2861 2820 2862 2900 2897 2859 2898 2932
8 2862 2821 2863 2901 2898 2860 2899 2933
8 2864 2823 2865 2902 2900 2862 2901 2934
8 2904 2867 2846 2886 2936 2903 2885 2921
8 2904 2867 2903 2936 2869 2828 2868 2906
8 2937 2904 2869 2907 2922 2886 2847 2887
8 2906 2868 2905 2939 2871 2829 2870 2909
8 2907 2869 2906 2940 2872 2830 2871 2910
8 2909 2870 2908 2942 2874 2831 2873 2912
8 2910 2871 2909 2943 2875 2832 2874 2913
8 2912 2873 2911 2945 2877 2834 2876 2915
8 2878 2835 2874 2913 2916 2877 2912 2946
8 2915 2876 2914 2947 2880 2837 2879 2917
8 2916 2877 2915 2948 2881 2838 2880 2918
8 2918 2880 2917 2949 2883 2841 2882 2919
8 2921 2885 2849 2889 2951 2920 2888 2924
8 2952 2921 2886 2922 2925 2889 2850 2890
8 2924 2888 2854 2892 2954 2923 2893 2927
8 2925 2889 2853 2891 2955 2924 2892 2926
8 2926 2892 2856 2894 2956 2927 2895 2929
8 2895 2857 2896 2930 2927 2893 2928 2957
8 2897 2859 2898 2932 2929 2895 2930 2959
8 2898 2860 2899 2933 2930 2896 2931 2960
8 2900 2862 2901 2934 2932 2898 2933 2961
8 2936 2903 2885 2921 2963 2935 2920 2951
8 2936 2903 2935 2963 2906 2868 2905 2939
8 2937 2904 2886 2922 2964 2936 2921 2952
8 2937 2904 2936 2964 2907 2869 2906 2940
8 2939 2905 2938 2966 2909 2870 2908 2942
8 2940 2906 2939 2967 2910 2871 2909 2943
8 2942 2908 2941 2969 2912 2873 2911 2945
8 2943 2909 2942 2970 2913 2874 2912 2946
8 2945 2911 2944 2971 2915 2876 2914 2947
8 2946 2912 2945 2972 2916 2877 2915 2948
8 2948 2915 2947 2973 2918 2880 2917 2949
8 2951 2920 2888 2924 2975 2950 2923 2954
8 2952 2921 2889 2925 2976 2951 2924 2955
8 2927 2893 2928 2957 2954 2923 2953 2978
8 2955 2924 2892 2926 2979 2954 2927 2956
8 2929 2895 2930 2959 2956 2927 2957 2980
8 2930 2896 2931 2960 2957 2928 2958 2981
8 2932 2898 2933 2961 2959 2930 2960 2982
8 2951 2920 2950 2975 2963 2935 2962 2984
8 2963 2935 2962 2984 2939 2905 2938 2966
8 2964 2936 2921 2952 2985 2963 2951 2976
8 2964 2936 2963 2985 2940 2906 2939 2967
8 2966 2938 2965 2987 2942 2908 2941 2969
8 2967 2939 2966 2988 2943 2909 2942 2970
8 2969 2941 2968 2989 2945 2911 2944 2971
8 2970 2942 2969 2990 2946 2912 2945 2972
8 2972 2945 2971 2991 2948 2915 2947 2973
8 2954 2923 2953 2978 2975 2950 2974 2993
8 2976 2951 2924 2955 2994 2975 2954 2979
8 2957 2928 2958 2981 2978 2953 2977 2995
8 2956 2927 2957 2980 2979 2954 2978 2996
8 2959 2930 2960 2982 2980 2957 2981 2997
8 2984 2962 2983 2999 2966 2938 2965 2987
8 2975 2950 2974 2993 2984 2962 2983 2999
8 2976 2951 2975 2994 2985 2963 2984 3000
8 2985 2963 2984 3000 2967 2939 2966 2988
8 2987 2965 2986 3001 2969 2941 2968 2989
8 2988 2966 2987 3002 2970 2942 2969 2990
8 2990 2969 2989 3003 2972 2945 2971 2991
8 2978 2953 2977 2995 2993 2974 2992 3004
8 2979 2954 2978 2996 2994 2975 2993 3005
8 2980 2957 2981 2997 2996 2978 2995 3006
8 2974 2993 2999 2983 2992 3004 3007 2998
8 2983 2999 2987 2965 2998 3007 3001 2986
8 3000 2984 2999 3008 2988 2966 2987 3002
8 2994 2975 2993 3005 3000 2984 2999 3008
8 3002 2987 3001 3009 2990 2969 2989 3003
8 2996 2978 2995 3006 3005 2993 3004 3010
8 3005 2993 3004 3010 3008 2999 3007 3011
8 3008 2999 3007 3011 3002 2987 3001 3009

CELL_TYPES 1910
12
12
12
12
12
12
12
12
12
12
12
12
12
12
12
12
12
12
12
12
12
12
12
12
12
12
12
12
12
12
12
12
12
12
12
12
12
12
12
12
12
12
12
12
12
12
12
12
12
12
12
12
12
12
12
12
12
12
12
12
12
12
12
12
12
12
12
12
12
12
12
12
12
12
12
12
12
12
12
12
12
12
12
12
12
12
12
12
12
12
12
12
12
12
12
12
12
12
12
12
12
12
12
12
12
12
12
12
12
12
12
12
12
12
12
12
12
12
12
12
12
12
12
12
12
12
12
12
12
12
12
12
12
12
12
12
12
12
12
12
12
12
12
12
12
12
12
12
12
12
12
12
12
12
12
12
12
12
12
12
12
12
12
12
12
12
12
12
12
12
12
12
12
12
12
12
12
12
12
12
12
12
12
12
12
12
12
12
12
12
12
12
12
12
12
12
12
12
12
12
12
12
12
12
12
12
12
12
12
12
12
12
12
12
12
12
12
12
12
12
12
12
12
12
12
12
12
12
12
12
12
12
12
12
12
12
12
12
12
12
12
12
12
12
12
12
12
12
12
12
12
12
12
12
12
12
12
12
12
12
12
12
12
12
12
12
12
12
12
12
12
12
12
12
12
12
12
12
12
12
12
12
12
12
12
12
12
12
12
12
12
12
12
12
12
12
12
12
12
12
12
12
12
12
12
12
12
12
12
12
12
12
12
12
12
12
12
12
12
12
12
12
12
12
12
12
12
12
12
12
12
12
12
12
12
12
12
12
12
12
12
12
12
12
12
12
12
12
12
12
12
12
12
12
12
12
12
12
12
12
12
12
12
12
12
12
12
12
12
12
12
12
12
12
12
12
12
12
12
12
12
12
12
12
12
12
12
12
12
12
12
12
12
12
12
12
12
12
12
12
12
12
12
12
12
12
12
12
12
12
12
12
12
12
12
12
12
12
12
12
12
12
12
12
12
12
12
12
12
12
12
12
12
12
12
12
12
12
12
12
12
12
12
12
12
12
12
12
12
12
12
12
12
12
12
12
12
12
12
12
12
12
12
12
12
12
12
12
12
12
12
12
12
12
12
12
12
12
12
12
12
12
12
12
12
12
12
12
12
12
12
12
12
12
12
12
12
12
12
12
12
12
12
12
12
12
12
12
12
12
12
12
12
12
12
12
12
12
12
12
12
12
12
12
12
12
12
12
12
12
12
12
12
12
12
12
12
12
12
12
12
12
12
12
12
12
12
12
12
12
12
12
12
12
12
12
12
12
12
12
12
12
12
12
12
12
12
12
12
12
12
12
12
12
12
12
12
12
12
12
12
12
12
12
12
12
12
12
12
12
12
12
12
12
12
12
12
12
12
12
12
12
12
12
12
12
12
12
12
12
12
12
12
12
12
12
12
12
12
12
12
12
12
12
12
12
12
12
12
12
12
12
12
12
12
12
12
12
12
12
12
12
12
12
12
12
12
12
12
12
12
12
12
12
12
12
12
12
12
12
12
12
12
12
12
12
12
12
12
12
12
12
12
12
12
12
12
12
12
12
12
12
12
12
12
12
12
12
12
12
12
12
12
12
12
12
12
12
12
12
12
12
12
12
12
12
12
12
12
12
12
12
12
12
12
12
12
12
12
12
12
12
12
12
12
12
12
12
12
12
12
12
12
12
12
12
12
12
12
12
12
12
12
12
12
12
12
12
12
12
12
12
12
12
12
12
12
12
12
12
12
12
12
12
12
12
12
12
12
12
12
12
12
12
12
12
12
12
12
12
12
12
12
12
12
12
12
12
12
12
12
12
12
12
12
12
12
12
12
12
12
12
12
12
12
12
12
12
12
12
12
12
12
12
12
12
12
12
12
12
12
12
12
12
12
12
12
12
12
12
12
12
12
12
12
12
12
12
12
12
12
12
12
12
12
12
12
12
12
12
12
12
12
12
12
12
12
12
12
12
12
12
12
12
12
12
12
12
12
12
12
12
12
12
12
12
12
12
12
12
12
12
12
12
12
12
12
12
12
12
12
12
12
12
12
12
12
12
12
12
12
12
12
12
12
12
12
12
12
12
12
12
12
12
12
12
12
12
12
12
12
12
12
12
12
12
12
12
12
12
12
12
12
12
12
12
12
12
12
12
12
12
12
12
12
12
12
12
12
12
12
12
12
12
12
12
12
12
12
12
12
12
12
12
12
12
12
12
12
12
12
12
12
12
12
12
12
12
12
12
12
12
12
12
12
12
12
12
12
12
12
12
12
12
12
12
12
12
12
12
12
12
12
12
12
12
12
12
12
12
12
12
12
12
12
12
12
12
12
12
12
12
12
12
12
12
12
12
12
12
12
12
12
12
12
12
12
12
12
12
12
12
12
12
12
12
12
12
12
12
12
12
12
12
12
12
12
12
12
12
12
12
12
12
12
12
12
12
12
12
12
12
12
12
12
12
12
12
12
12
12
12
12
12
12
12
12
12
12
12
12
12
12
12
12
12
12
12
12
12
12
12
12
12
12
12
12
12
12
12
12
12
12
12
12
12
12
12
12
12
12
12
12
12
12
12
12
12
12
12
12
12
12
12
12
12
12
12
12
12
12
12
12
12
12
12
12
12
12
12
12
12
12
12
12
12
12
12
12
12
12
12
12
12
12
12
12
12
12
12
12
12
12
12
12
12
12
12
12
12
12
12
12
12
12
12
12
12
12
12
12
12
12
12
12
12
12
12
12
12
12
12
12
12
12
12
12
12
12
12
12
12
12
12
12
12
12
12
12
12
12
12
12
12
12
12
12
12
12
12
12
12
12
12
12
12
12
12
12
12
12
12
12
12
12
12
12
12
12
12
12
12
12
12
12
12
12
12
12
12
12
12
12
12
12
12
12
12
12
12
12
12
12
12
12
12
12
12
12
12
12
12
12
12
12
12
12
12
12
12
12
12
12
12
12
12
12
12
12
12
12
12
12
12
12
12
12
12
12
12
12
12
12
12
12
12
12
12
12
12
12
12
12
12
12
12
12
12
12
12
12
12
12
12
12
12
12
12
12
12
12
12
12
12
12
12
12
12
12
12
12
12
12
12
12
12
12
12
12
12
12
12
12
12
12
12
12
12
12
12
12
12
12
12
12
12
12
12
12
12
12
12
12
12
12
12
12
12
12
12
12
12
12
12
12
12
12
12
12
12
12
12
12
12
12
12
12
12
12
12
12
12
12
12
12
12
12
12
12
12
12
12
12
12
12
12
12
12
12
12
12
12
12
12
12
12
12
12
12
12
12
12
12
12
12
12
12
12
12
12
12
12
12
12
12
12
12
12
12
12
12
12
12
12
12
12
12
12
12
12
12
12
12
12
12
12
12
12
12
12
12
12
12
12
12
12
12
12
12
12
12
12
12
12
12
12
12
12
12
12
12
12
12
12
12
12
12
12
12
12
12
12
12
12
12
12
12
12
12
12
12
12
12
12
12
12
12
12
12
12
12
12
12
12
12
12
12
12
12
12
12
12
12
12
12
12
12
12
12
12
12
12
12
12
12
12
12
12
12
12
12
12
12
12
12
12
12
12
12
12
12
12
12
12
12
12
12
12
12
12
12
12
12
12
12
12
12
12
12
12
12
12
12
12
12
12
12
12
12
12
12
12
12
12
12
12
12
12
12
12
12
12
12
12
12
12
12
12
12
12
12
12
12
12
12
12
12
12
12
12
12
12
12
12
12
12
12
12
12
12
12
12
12
12
12
12
12
12
12
12
12
12
12
12
12
12
12
12
12
12
12
12
12
12
12
12
12
12
12
12
12
12
12
12
12
12
12
12
12
12
12
12
12
12
12
12
12
12
12
12
12
12
12
12
12
12
12
12
12
12
12
12
12
12
12
12
12
12
12
12
12
12
12
12
12
12
12
12
12
12
12
12
12
12
12
12
12
12
12
12
12
12
12
12
12
12
12
12
12
12
12
12
12
12
12
12
12
12
12
12
12
12
12
12
12
12
12
12
12
12
12
12
12
12
12
12
12
12
12
12
12
12
12
12
12
12
12
12
12
12
12
12
12
12
12
12
12
12
12
12
12
12
12
12
12
12
12
12
12
12
12
12
12
12
12
12
12
12
12
12
12
12
12
12
12
12
12
12
12
12
12
12
12
12
12
12
12
12
12
12
12
12
12
12
12
12
12
12
12
12
12
12
12
12
12
12
12
12
12
12
12
12
12
12
12
12
12
12
12
12
12
12
12
12
12
12
12
12
12
12
12
12
12
12
12
12
12
12
12
12
12
12
12
12
12
12
12
12
12
12
12
12
12
12
12
12
12
12
12
12
12
12
12
12
12
12
12
12
12
12

POINT_DATA 3012
SCALARS Jp_lamdaP float 4
LOOKUP_TABLE default
0.999857 1 1 0.999857
1 1 1 1
0.999862 1 1 0.999862
0.999815 1 1 0.999815
0.999856 1 1 0.999856
0.999852 1 1 0.999852
0.99933 1 1 0.99933
1 1 1 1
1 1 1 1
1 1 1 1
0.99993 1 1 0.99993
0.99949 1 1 0.99949
0.999778 1 1 0.999778
0.999806 1 1 0.999806
0.999862 1 1 0.999862
0.99983 1 1 0.99983
0.999857 1 1 0.999857
0.999865 1 1 0.999865
0.999333 1 1 0.999333
1 1 1 1
0.999795 1 1 0.999795
0.999839 1 1 0.999839
0.999201 1 1 0.999201
0.999299 1 1 0.999299
0.999872 1 1 0.999872
0.999364 1 1 0.999364
0.99874 1.00024 1 0.998497
1 1 1 1
0.999917 1 1 0.999917
0.999931 1 1 0.999931
1 1 1 1
0.999498 1 1 0.999498
0.99983 1 1 0.99983
0.999853 1 1 0.999853
0.999415 1 1 0.999415
1 1 1 1
0.999504 1 1 0.999504
0.999587 1 1 0.999587
0.998541 1 1 0.998541
1 1 1 1
1 1 1 1
0.999901 1 1 0.999901
1 1 1 1
0.999798 1 1 0.999798
0.99913 1 1 0.99913
1 1 1 1
0.999321 1 1 0.999321
0.999843 1 1 0.999843
0.99987 1 1 0.99987
0.999858 1 1 0.999858
0.999339 1 1 0.999339
0.999886 1 1 0.999886
0.99981 1 1 0.99981
0.999882 1 1 0.999882
0.999852 1 1 0.999852
0.999201 1 1 0.999201
0.999368 1 1 0.999368
0.999302 1 1 0.999302
0.998878 1.0004 1 0.998482
1 1 1 1
0.999783 1 1 0.999783
0.999296 1 1 0.999296
0.999166 1 1 0.999166
0.999251 1 1 0.999251
1.00035 1.00216 1 0.998199
0.999109 1.00078 1 0.998333
0.999927 1 1 0.999927
0.999478 1 1 0.999478
0.998623 1.00002 1 0.998602
1.0045 1.00675 1 0.997761
1 1 1 1
1 1 1 1
1 1 1 1
0.999506 1 1 0.999506
1 1 1 1
1 1 1 1
0.999335 1 1 0.999335
0.999984 1 1 0.999984
0.999443 1 1 0.999443
0.99964 1 1 0.99964
0.998538 1 1 0.998538
1 1 1 1
0.999951 1 1 0.999951
0.999275 1 1 0.999275
0.999372 1 1 0.999372
1.00011 1.00199 1 0.998121
0.999781 1 1 0.999781
0.998531 1.00009 1 0.99844
0.998677 1 1 0.998677
0.998376 1.00038 1 0.997993
1 1 1 1
1 1 1 1
1 1 1 1
1 1 1 1
1 1 1 1
0.999896 1 1 0.999896
0.999208 1 1 0.999208
0.999906 1 1 0.999906
0.999276 1 1 0.999276
1 1 1 1
0.999117 1 1 0.999117
0.999294 1 1 0.999294
1.00016 1.00234 1 0.997827
0.999356 1 1 0.999356
1.00142 1.00352 1 0.997913
0.999796 1 1 0.999796
0.999824 1 1 0.999824
0.999891 1 1 0.999891
0.999863 1 1 0.999863
0.999203 1 1 0.999203
0.999306 1 1 0.999306
0.999374 1 1 0.999374
0.999007 1.00054 1 0.998467
1 1 1 1
0.999798 1 1 0.999798
0.999142 1 1 0.999142
0.999164 1 1 0.999164
0.999963 1 1 0.999963
0.999532 1 1 0.999532
0.999253 1 1 0.999253
1.00033 1.00218 1 0.998159
0.998646 1.00006 1 0.998584
0.999275 1.00092 1 0.998362
1.00481 1.00706 1 0.997765
0.999139 1 1 0.999139
0.999143 1 1 0.999143
0.999786 1.0018 1 0.997991
1.00041 1.00233 1 0.998083
1 1.00179 1 0.998216
1.01126 1.01374 1 0.997555
1 1 1 1
1.00648 1.00881 1 0.99769
0.999702 1 1 0.999702
0.998639 1 1 0.998639
1.00303 1.00522 1 0.99783
1.01479 1.01731 1 0.997519
0.99987 1 1 0.99987
0.999531 1 1.00035 0.999179
1 1 1 1
1 1 1 1
0.999342 1 1 0.999342
1 1 1 1
0.99964 1 1 0.99964
0.999448 1 1 0.999448
0.998535 1 1 0.998535
1 1 1 1
0.999965 1 1 0.999965
0.999333 1 1 0.999333
0.999426 1 1 0.999426
0.999747 1.00163 1 0.998123
0.999794 1 1 0.999794
0.998478 1.00004 1 0.998443
0.998676 1 1 0.998676
0.99842 1.00044 1 0.997977
0.999882 1 1 0.999882
0.99999 1 1 0.99999
0.999413 1 1.00005 0.999366
1.00103 1.00303 1 0.99801
0.99905 1.00077 1 0.998284
1.00798 1.01045 1 0.997555
0.998894 1 1 0.998894
1.00114 1.00326 1 0.997884
0.998899 1.00024 1.00057 0.998085
1.00086 1.00305 1 0.997815
1 1 1 1
1 1 1 1
1 1 1 1
0.999922 1 1 0.999922
1 1 1 1
1 1 1 1
1 1 1 1
0.999228 1 1 0.999228
0.999156 1 1 0.999156
1 1 1 1
1 1 1 1
0.999118 1 1 0.999118
0.999248 1 1 0.999248
1.00038 1.00256 1 0.997827
0.999257 1 1 0.999257
1.00145 1.00355 1 0.997913
0.999109 1 1 0.999109
0.999551 1.00178 1 0.997777
1.00087 1.00299 1 0.99788
1.01441 1.0171 1 0.997354
1.00146 1.00352 1 0.997947
1.01482 1.01744 1 0.997425
1 1 1 1
0.999813 1 1 0.999813
0.998976 1 1 0.998976
0.999164 1 1 0.999164
1 1 1 1
0.999586 1 1 0.999586
0.999257 1 1 0.999257
1.00031 1.00219 1 0.998119
0.999444 1.00106 1 0.99839
0.998674 1.00011 1 0.998565
1.00511 1.00735 1 0.997769
0.999136 1 1 0.999136
0.999141 1 1 0.999141
0.999652 1.00176 1 0.997899
1.00044 1.00233 1 0.998112
1 1 1 1
0.999698 1 1 0.999698
0.99869 1 1 0.99869
0.999973 1.00176 1 0.998215
1.01116 1.01368 1 0.997518
1.00306 1.00525 1 0.997819
1.0068 1.0091 1 0.99772
1.0143 1.01682 1 0.997525
0.99986 1 1 0.99986
0.999529 1 1.00035 0.999181
0.999282 1.00149 1 0.997798
1.0002 1.00216 1 0.998042
1.01232 1.01491 1 0.997452
1.01175 1.01435 1 0.997441
1.00862 1.011 1 0.997649
1.02256 1.02519 1 0.997435
0.999798 1 1 0.999798
1.01669 1.01923 1 0.997506
0.998867 1 1.00007 0.998802
0.9998 1.00184 1 0.997959
1.01247 1.01494 1 0.997562
1.01819 1.02071 1 0.997531
0.99925 1 1.00021 0.999036
0.999379 1 1.00001 0.999366
1.00005 1 1.00141 0.998637
0.999295 1 1 0.999295
1 1 1 1
0.999978 1 1 0.999978
0.9994 1 1 0.9994
0.999369 1.00125 1 0.998126
0.999803 1 1 0.999803
0.998716 1 1.00004 0.998675
0.998446 1 1 0.998446
0.998501 1.00054 1 0.997961
0.999901 1 1 0.999901
0.999993 1 1 0.999993
0.999526 1 1.00016 0.999369
1.00077 1.00276 1 0.99801
0.998813 1.00053 1 0.998288
1.00773 1.0102 1 0.997553
0.998917 1 1.00002 0.998897
1.00061 1.00272 1 0.997895
0.998931 1.00038 1.00047 0.998081
1.00101 1.00321 1 0.9978
1 1 1 1
0.999201 1 1.00008 0.999121
0.999692 1 1.00009 0.999603
0.999584 1 1.00076 0.99882
1.01106 1.01363 1 0.997469
1.00487 1.00717 1 0.997725
1.0173 1.01999 1 0.997363
0.998772 1 1.00044 0.998335
1.00572 1.00804 1 0.997704
1.00257 1.00323 1.00158 0.997772
1.00791 1.01026 1 0.997669
0.999861 1 1 0.999861
1 1 1 1
1 1 1 1
1 1 1 1
1 1 1 1
0.99996 1 1 0.99996
1 1 1 1
0.999911 1 1 0.999911
1 1 1 1
0.999258 1 1 0.999258
0.999196 1 1 0.999196
1.00155 1.00364 1 0.997913
1.00059 1.00277 1 0.997827
0.99912 1 1 0.99912
1 1 1 1
0.999108 1 1 0.999108
0.999702 1.00193 1 0.997778
1.00106 1.00319 1 0.997879
1.01422 1.01692 1 0.997353
1.0014 1.00346 1 0.997946
1.0148 1.01742 1 0.997424
0.999203 1.00144 1 0.99777
1.01346 1.0162 1 0.997309
1.01501 1.01765 1 0.997397
1.02813 1.03083 1 0.99738
1.01381 1.01641 1 0.997441
1.02695 1.02963 1 0.997397
0.999133 1 1 0.999133
0.999139 1 1 0.999139
0.999527 1.00172 1 0.997808
1.00047 1.00234 1 0.99814
1 1 1 1
0.999694 1 1 0.999694
0.99874 1 1 0.99874
0.999944 1.00173 1 0.998214
1.01107 1.01363 1 0.99748
1.0071 1.00937 1 0.997751
1.00306 1.00526 1 0.997807
1.01392 1.01643 1 0.997531
0.99985 1 1 0.99985
0.999562 1 1.00038 0.999182
0.99923 1.00146 1 0.997773
1.00016 1.00213 1 0.998039
1.01254 1.01513 1 0.997449
1.01191 1.01446 1 0.997477
0.999787 1 1 0.999787
0.998799 1 1 0.998799
1.00025 1.00226 1 0.997993
1.00885 1.01123 1 0.997646
1.02288 1.0255 1 0.997445
1.01179 1.0143 1 0.997528
1.01654 1.01908 1 0.99751
1.01852 1.02104 1 0.997531
0.99919 1 1.00015 0.999038
1.00006 1 1.00142 0.998638
0.999577 1 1.00021 0.999363
1.01254 1.01518 1 0.997397
1.01277 1.01533 1 0.997477
1.02631 1.02902 1 0.997369
1.02475 1.02744 1 0.99739
1.0187 1.02126 1 0.99749
1.02458 1.02706 1 0.997589
0.99894 1 1 0.99894
1.02016 1.02265 1 0.997567
0.998597 1.00033 1 0.998271
1.00445 1.0069 1 0.997563
1.01571 1.01835 1 0.9974
1.0175 1.01987 1 0.99768
0.999526 1 1 0.999526
0.99865 1 1.00004 0.998608
1.00058 1 1.00186 0.998726
0.999471 1 1.00101 0.998465
1.00052 1.00252 1 0.99801
0.999997 1 1 0.999997
0.999919 1 1 0.999919
0.999541 1 1.00017 0.999371
0.99856 1.00027 1 0.998293
1.00747 1.00994 1 0.99755
0.9989 1 1 0.9989
0.998901 1.0005 1.00033 0.998076
1.00005 1.00215 1 0.997905
1.001 1.00322 1 0.997786
1 1 1 1
0.999206 1 1.00009 0.999121
0.999634 1 1.00002 0.999611
0.999719 1 1.0009 0.998816
1.01089 1.01346 1 0.997466
1.00398 1.00627 1 0.997726
1.01732 1.02001 1 0.997361
0.99879 1 1.00045 0.99834
1.0057 1.008 1 0.997718
1.00253 1.00305 1.00173 0.99776
1.00793 1.01022 1 0.997735
1 1 1 1
0.999748 1 1 0.999748
0.998863 1 1.00026 0.998604
0.999616 1 1.00056 0.999054
0.999725 1 1.00119 0.998541
1.02063 1.02335 1 0.997339
1.0117 1.01422 1 0.997515
1.01714 1.01981 1 0.99738
1.00085 1.00088 1.00199 0.997974
1.00869 1.01108 1 0.997635
1.00589 1.00755 1.00086 0.99749
0.999844 1 1 0.999844
0.999473 1 1 0.999473
0.999873 1 1 0.999873
0.999864 1 1 0.999864
1 1 1 1
1 1 1 1
1 1 1 1
1 1 1 1
1 1 1 1
0.999987 1 1 0.999987
1 1 1 1
0.99995 1 1 0.99995
1 1 1 1
0.9999 1 1 0.9999
1 1 1 1
1.0013 1.00336 1 0.997945
1.00121 1.00334 1 0.997879
1.01464 1.01726 1 0.997423
1.01402 1.01671 1 0.997352
0.999895 1.00212 1 0.997778
0.999108 1 1 0.999108
0.9993 1.00153 1 0.997769
1.01342 1.01616 1 0.997309
1.01469 1.01734 1 0.997396
1.0284 1.03109 1 0.997391
1.01344 1.01604 1 0.997438
1.02643 1.02911 1 0.997396
1.01296 1.0157 1 0.997299
1.02723 1.02994 1 0.997372
1.02846 1.03115 1 0.997393
1.03239 1.03506 0.999877 0.997539
1.02311 1.02581 1 0.997374
1.02756 1.03002 1 0.997621
0.999204 1.00146 1 0.997748
1.00013 1.0021 1 0.998037
1.01275 1.01534 1 0.997446
1.01205 1.01458 1 0.997514
0.999777 1 1 0.999777
0.998796 1 1 0.998796
1.00069 1.00267 1 0.998027
1.00911 1.01149 1 0.997644
1.02321 1.02582 1 0.997456
1.0164 1.01894 1 0.997513
1.01101 1.01355 1 0.997494
1.01883 1.02135 1 0.997531
0.999131 1 1.00009 0.999041
1.00004 1 1.0014 0.99864
0.99974 1 1.00038 0.99936
1.01266 1.01534 1 0.997362
1.01286 1.01543 1 0.997475
1.02592 1.02861 1 0.997382
1.02502 1.0277 1 0.997392
0.998971 1 1.00003 0.998938
0.998967 1.0007 1 0.998264
1.00402 1.00639 1.00003 0.997614
1.01886 1.02143 1 0.997488
1.02404 1.02648 1 0.997624
1.01574 1.01842 1 0.997368
1.0202 1.02268 1 0.99757
1.01706 1.0194 1 0.997705
0.998744 1 1.00013 0.998611
0.999451 1 1.00101 0.998447
0.999521 1 1 0.999521
1.00057 1 1.00182 0.998752
1.02618 1.02892 1 0.997336
1.02687 1.02955 1 0.9974
1.02887 1.03149 1 0.997463
1.02657 1.02917 0.99986 0.997609
1.02192 1.02436 1 0.997617
1.02316 1.02544 1 0.997772
0.998505 1 1 0.998505
1.01758 1.01981 1 0.997816
0.998781 1.00088 1 0.997903
1.00844 1.01097 1.00018 0.997327
1.01732 1.02003 1 0.997335
1.01613 1.01843 1 0.99774
0.999633 1 1 0.999633
0.999318 1 1.00041 0.998909
0.99843 1 1 0.99843
1.00084 1 1.00233 0.998506
0.998957 1 1.00054 0.998419
1 1 1 1
1.01065 1.01322 1 0.997462
0.999618 1 1 0.999618
0.999267 1 1.00014 0.999122
0.999961 1 1.00115 0.998811
1.00315 1.00543 1 0.997727
1.0174 1.02009 1 0.99736
0.998851 1 1.00051 0.998345
1.00277 1.00309 1.00193 0.997749
1.00578 1.00807 1 0.997732
1.00815 1.01037 1 0.997802
1 1 1 1
0.999755 1 1 0.999755
0.998897 1 1.00029 0.998605
0.999719 1 1.00067 0.999054
1.00012 1 1.0016 0.99852
1.02087 1.0236 1 0.997334
1.01197 1.01449 1 0.997514
1.01709 1.01977 1 0.99737
1.00065 1.00055 1.00213 0.997979
1.01103 1.01342 1 0.997646
1.00509 1.00663 1.00096 0.997509
0.999813 1 1 0.999813
0.999261 1 1 0.999261
0.998771 1 1.00048 0.998295
1.00072 1 1.002 0.998722
0.999755 1 1.00135 0.998404
1.02087 1.02352 1 0.997418
1.01276 1.01532 1 0.997483
1.0152 1.0177 1 0.997546
1.00153 1 1.00379 0.997743
1.00589 1.00854 1 0.997371
0.999847 1 1 0.999847
0.999407 1 1 0.999407
0.999452 1 1 0.999452
0.999243 1 1 0.999243
0.999482 1 1 0.999482
0.999877 1 1 0.999877
0.999874 1 1 0.999874
1 1 1 1
0.999866 1 1 0.999866
1 1 1 1
1 1 1 1
1 1 1 1
1 1 1 1
1 1 1 1
0.999998 1 1 0.999998
0.99998 1 1 0.99998
1 1 1 1
1 1 1 1
0.99994 1 1 0.99994
1 1 1 1
1.01314 1.01575 1 0.997436
1.01452 1.01717 1 0.997395
1.026 1.02868 1 0.997394
1.02873 1.0314 1 0.997403
1.01334 1.01608 1 0.997309
0.999349 1.00158 1 0.997769
1.01283 1.01557 1 0.9973
1.02718 1.02989 1 0.997365
1.02843 1.03112 1 0.997393
1.03149 1.03438 0.999641 0.997566
1.02362 1.02632 1 0.997369
1.02778 1.03026 0.999961 0.997639
1.02631 1.02905 1 0.997339
1.03033 1.03359 0.999335 0.997503
1.03048 1.03297 0.999957 0.997629
1.03046 1.03406 0.998831 0.997687
1.0248 1.02733 1 0.99754
1.02797 1.03048 0.999745 0.997814
1.01275 1.01547 1 0.997326
1.01294 1.01551 1 0.997474
1.02552 1.0282 1 0.997396
1.02527 1.02795 1 0.997394
0.998938 1 1 0.998937
0.999383 1.00113 1 0.998258
1.0038 1.00597 1.00018 0.997664
1.01902 1.02159 1 0.997486
1.02344 1.02584 1 0.997659
1.02023 1.02271 1 0.997573
1.01582 1.01854 1 0.997337
1.01655 1.01886 1 0.997729
0.998855 1 1.00024 0.998613
0.999404 1 1.00098 0.998429
0.999516 1 1 0.999516
1.00037 1 1.00159 0.998778
1.02604 1.02878 1 0.997337
1.0264 1.02909 1 0.997385
1.02879 1.03139 0.999994 0.997485
1.02634 1.02887 0.999947 0.997593
0.9985 1 1 0.9985
0.998999 1.00102 1.00003 0.997948
1.00864 1.01096 1.00039 0.997319
1.02163 1.0241 1 0.997587
1.02307 1.02531 0.99999 0.997824
1.01662 1.01935 1 0.997323
1.01784 1.02007 1 0.997819
1.01743 1.01969 1 0.997783
0.998428 1 1 0.998428
0.998687 1 1.00026 0.998422
1.00138 1 1.00289 0.9985
0.9996 1 1 0.9996
0.999213 1 1.00028 0.998934
1.02924 1.03266 0.999206 0.997484
1.02981 1.03256 0.999801 0.997536
1.02417 1.02741 0.999036 0.997804
1.02041 1.02264 0.999972 0.997848
0.998279 1 1 0.998279
1.02065 1.02272 1 0.997971
0.998686 1.00073 1.00029 0.997674
1.00933 1.01176 1.00051 0.997095
1.01577 1.01851 1 0.997305
0.999668 1 1 0.999668
0.99914 1 1 0.99914
0.999818 1 1.00113 0.998689
0.998386 1 1 0.998386
1.0017 1 1.00338 0.998326
0.998356 1 1 0.998356
1 1 1 1
0.999762 1 1 0.999762
1.02115 1.02389 1 0.997328
0.999789 1 1.00074 0.999054
0.998857 1 1.00025 0.998607
1.00065 1 1.00216 0.998498
1.01205 1.01457 1 0.997513
1.01688 1.01957 1 0.997361
1.00041 1.00014 1.00229 0.997983
1.00382 1.00552 1.00077 0.997528
1.01313 1.01551 1 0.997657
0.999818 1 1 0.999818
0.999264 1 1 0.999264
0.998713 1 1.00041 0.9983
1.00111 1 1.00239 0.998718
0.999867 1 1.00147 0.998396
1.0208 1.02345 1 0.997412
1.01326 1.01583 1 0.997473
1.01503 1.0175 1 0.997571
1.00114 1.00019 1.00324 0.997712
1.00488 1.0075 1.00006 0.997341
0.999384 1 1 0.999384
0.999967 1 1.00109 0.998883
1.00013 1 1.002 0.998133
1.00142 1 1.00297 0.998454
0.999282 1 1.001 0.998289
1.0216 1.02384 1 0.997814
1.01123 1.01387 1 0.997395
1.01213 1.01457 1 0.997596
1.00346 1.00159 1.00433 0.997546
1.00078 1.00364 1 0.997144
0.99985 1 1 0.99985
0.999424 1 1 0.999424
0.999155 1 1 0.999155
0.999431 1 1 0.999431
0.999482 1 1 0.999482
0.999213 1 1 0.999213
0.999068 1 1 0.999068
0.999186 1 1 0.999186
0.999486 1 1 0.999486
0.999874 1 1 0.999874
0.999877 1 1 0.999877
1 1 1 1
0.999876 1 1 0.999876
1 1 1 1
1 1 1 1
1 1 1 1
1 1 1 1
1 1 1 1
1 1 1 1
0.999996 1 1 0.999996
1 1 1 1
0.999973 1 1 0.999973
1 1 1 1
1 1 1 1
1.02407 1.02678 1 0.997363
1.02828 1.03097 1 0.997393
1.02799 1.0305 0.999906 0.997656
1.03054 1.03367 0.999377 0.997594
1.02712 1.02984 1 0.997359
1.01276 1.0155 1 0.9973
1.02657 1.02932 1 0.997323
1.03059 1.03369 0.999504 0.997494
1.03017 1.03267 0.999971 0.997608
1.02996 1.03382 0.998562 0.997701
1.02416 1.02669 1 0.99754
1.02723 1.02975 0.999703 0.997854
1.02987 1.03282 0.999682 0.997467
1.03053 1.03587 0.997163 0.997678
1.0292 1.03301 0.998498 0.997805
1.02521 1.02761 0.999756 0.997909
1.02591 1.02865 1 0.997337
1.02594 1.02865 1 0.99737
1.02872 1.03129 0.999999 0.997507
1.02614 1.02863 1 0.997576
0.998494 1 1 0.998494
0.998952 1.00096 1 0.997994
1.00874 1.01087 1.00058 0.997311
1.02129 1.02379 1 0.997557
1.02302 1.02521 0.999988 0.997875
1.01817 1.02039 1 0.997821
1.01599 1.01873 1 0.99731
1.01865 1.02087 1 0.997826
0.998426 1 1 0.998426
0.998426 1 1 0.998426
1.00239 1 1.0039 0.998494
0.999566 1 1 0.999566
0.999229 1 1.00027 0.998958
1.02964 1.03274 0.99951 0.997487
1.03003 1.03273 0.999842 0.997538
1.02405 1.02709 0.999247 0.997793
0.998432 1.00016 1 0.998272
0.99983 1.00186 1.00026 0.997717
1.00898 1.01116 1.00076 0.997084
1.02104 1.02328 0.999978 0.997837
1.01548 1.01815 1 0.997378
1.0192 1.02135 0.999946 0.997951
0.999681 1 1 0.999681
0.998388 1.00001 1 0.998379
0.998426 1 1 0.998426
1.00156 1 1.00325 0.998312
0.999814 1 1.00112 0.998699
0.999114 1 1 0.999114
1.03014 1.0347 0.998017 0.997568
1.02798 1.03389 0.996557 0.997715
1.02114 1.02585 0.99751 0.997891
1.0254 1.02825 0.999185 0.998035
0.998519 1.00039 1 0.998128
1.01659 1.01898 1 0.997655
1.00184 1.00294 1.00165 0.997258
1.00595 1.00798 1.00104 0.996949
0.999779 1 1 0.999779
0.999285 1 1 0.999285
0.998856 1 1 0.998856
1.00192 1 1.00352 0.998405
0.998288 1 1 0.998288
1.00015 1 1.00194 0.998208
0.999822 1 1 0.999822
0.999268 1 1 0.999268
1.02088 1.02353 1 0.997406
1.00113 1 1.00242 0.998715
0.998575 1 1.00027 0.998306
0.999868 1 1.00148 0.998389
1.01403 1.01661 1 0.997464
1.01508 1.01753 1 0.997596
1.00085 1.00044 1.00273 0.997682
1.00397 1.00641 1.00027 0.997311
0.999387 1 1 0.999387
0.999588 1 1.0007 0.998892
1.00013 1 1.00198 0.99815
1.00166 1 1.0032 0.998459
0.99883 1 1.00048 0.998355
1.02193 1.02414 0.999998 0.997846
1.01065 1.01328 1 0.997399
1.01353 1.0159 1 0.997671
1.003 1.00091 1.00458 0.997513
1.0015 1.00438 1.00003 0.997097
0.999084 1 1 0.999084
1.00056 1 1.002 0.998563
1.00196 1.0002 1.00378 0.997983
0.999724 1 1.00155 0.998173
1.02471 1.0321 0.99477 0.998054
1.01708 1.01933 0.999872 0.997923
1.00638 1.00921 1 0.9972
1.00329 1.00188 1.00426 0.997158
0.999441 1 1 0.999441
0.999168 1 1 0.999168
0.999025 1 1 0.999025
0.999481 1 1 0.999481
0.999183 1 1 0.999183
0.999485 1 1 0.999485
0.999051 1 1 0.999051
0.999199 1 1 0.999199
0.998956 1 1 0.998956
0.999019 1 1 0.999019
0.999171 1 1 0.999171
0.999473 1 1 0.999473
0.999867 1 1 0.999867
0.999873 1 1 0.999873
1 1 1 1
0.999877 1 1 0.999877
1 1 1 1
1 1 1 1
1 1 1 1
1 1 1 1
1 1 1 1
1 1 1 1
1 1 1 1
1 1 1 1
0.999993 1 1 0.999993
1 1 1 1
1 1 1 1
1.02345 1.02598 1 0.99754
1.02991 1.0324 1 0.997588
1.02653 1.02902 0.999681 0.997893
1.02947 1.03356 0.998324 0.997715
1.03086 1.03378 0.999695 0.997486
1.02683 1.02961 1 0.997308
1.02956 1.03278 0.999406 0.997472
1.02986 1.035 0.997356 0.997668
1.02887 1.03281 0.998377 0.997805
1.02675 1.02909 0.999814 0.997912
1.03012 1.03541 0.997267 0.997618
1.02999 1.03761 0.994802 0.997847
1.03002 1.0349 0.99733 0.997944
1.03002 1.03282 0.999801 0.99749
1.03024 1.03288 0.999909 0.99754
1.02392 1.02671 0.999497 0.997783
0.998686 1.00042 1 0.998265
1.00101 1.00308 1.00018 0.997759
1.00838 1.01049 1.00085 0.997073
1.02165 1.02389 0.99998 0.997826
1.01789 1.02009 0.999917 0.99793
1.01549 1.01809 1 0.997451
0.998447 1.00008 1 0.998371
0.998496 1 1 0.998496
1.00128 1 1.00299 0.998298
0.999694 1 1 0.999694
0.99941 1 1.0007 0.99871
0.999087 1 1 0.999087
1.03089 1.03505 0.998394 0.997574
1.02844 1.0341 0.996793 0.997723
1.02138 1.02564 0.997965 0.997883
0.998888 1.00077 1 0.998117
1.00153 1.0028 1.0014 0.997343
1.00526 1.00739 1.0009 0.996988
1.02528 1.02792 0.999383 0.998045
1.01719 1.01964 0.999959 0.997642
0.999817 1 1 0.999817
0.999285 1 1 0.999285
0.998315 1 1 0.998315
1.00098 1 1.0027 0.998283
1.00183 1 1.00341 0.998424
0.998833 1 1 0.998833
1.02966 1.03673 0.995404 0.997765
1.02084 1.03087 0.992394 0.997855
1.02196 1.02747 0.996554 0.99808
1.01991 1.02322 0.998689 0.998071
0.99951 1.00074 1.00088 0.997886
1.00516 1.00669 1.0014 0.997085
1.0032 1.0035 1.00264 0.997062
0.999907 1 1 0.999907
0.999549 1 1 0.999549
0.999358 1 1 0.999358
0.998946 1 1 0.998946
0.999601 1 1.00102 0.998587
1.00153 1 1.00324 0.998297
0.998345 1 1 0.998345
1.0129 1 1.01449 0.998429
0.999389 1 1 0.999389
0.99943 1 1.00053 0.9989
1.02216 1.02434 0.999999 0.997878
1.0022 1 1.00374 0.998463
1.00032 1 1.00215 0.998166
0.998455 1 1.00004 0.99842
1.00981 1.01244 1 0.997404
1.01476 1.01705 1 0.997745
1.00271 1.00042 1.00482 0.99748
1.00237 1.00534 1 0.99705
0.999066 1 1 0.999066
1.00085 1 1.00228 0.998576
1.00228 1.00013 1.00415 0.998008
0.999554 1 1.00135 0.998202
1.02613 1.03309 0.99519 0.998066
1.01688 1.01908 0.999949 0.997888
1.00738 1.01017 1 0.997239
1.00328 1.0024 1.00377 0.997117
0.999093 1 1.00021 0.998881
1.02332 1.03427 0.991329 0.998063
1.00102 1 1.0027 0.998323
1.00099 1.00057 1.00268 0.997745
1.02353 1.02704 0.998427 0.998155
1.00752 1.01022 1 0.997327
1.00465 1.00445 1.00323 0.996979
0.99918 1 1 0.99918
0.999021 1 1 0.999021
0.998919 1 1 0.998919
0.999484 1 1 0.999484
0.999211 1 1 0.999211
0.999034 1 1 0.999034
0.999472 1 1 0.999472
0.999174 1 1 0.999174
0.998941 1 1 0.998941
0.999041 1 1 0.999041
0.998876 1 1 0.998876
0.998912 1 1 0.998912
0.999009 1 1 0.999009
0.999158 1 1 0.999158
0.999446 1 1 0.999446
0.999857 1 1 0.999857
0.999866 1 1 0.999866
1 1 1 1
0.999872 1 1 0.999872
1 1 1 1
1 1 1 1
1 1 1 1
1 1 1 1
1 1 1 1
0.999934 1 1 0.999934
1 1 1 1
1 1 1 1
1 1 1 1
1 1 1 1
1 1 1 1
1 1 1 1
1.02834 1.03061 0.99988 0.997916
1.02852 1.03258 0.99826 0.997805
1.02918 1.03415 0.997529 0.997659
1.02926 1.03276 0.999133 0.997476
1.02971 1.0353 0.996957 0.997638
1.03023 1.03761 0.995044 0.997836
1.02951 1.03467 0.997047 0.997956
1.0299 1.03833 0.994043 0.997821
1.03329 1.04183 0.993824 0.997962
1.01782 1.03226 0.987815 0.998178
1.03167 1.03545 0.998772 0.997581
1.02893 1.03439 0.996976 0.997731
1.02154 1.02542 0.99834 0.997875
0.999264 1.0011 1.00006 0.998106
1.00123 1.00255 1.00126 0.99743
1.00465 1.00686 1.00078 0.997028
1.02526 1.02774 0.999534 0.998054
1.01727 1.0198 0.999893 0.99763
0.998342 1 1 0.998342
1.00183 1 1.00348 0.998357
1.00221 1 1.00377 0.998443
0.999856 1 1 0.999856
0.999285 1 1 0.999285
0.998966 1 1.00016 0.998811
1.02945 1.03691 0.995019 0.997777
0.999903 1 1 0.999903
0.999528 1 1 0.999528
1.02056 1.03006 0.992906 0.997855
1.02247 1.02818 0.996401 0.998048
0.999248 1.00044 1.00084 0.997968
1.00346 1.00313 1.0033 0.997038
1.00574 1.00784 1.00084 0.997086
1.01879 1.0222 0.998605 0.998055
0.999418 1 1 0.999418
0.998943 1 1 0.998943
0.998277 1 1 0.998277
1.00919 1 1.01067 0.998537
1.00139 1 1.0031 0.99829
0.999895 1 1.0013 0.9986
1.03284 1.04123 0.994008 0.997922
1.01124 1.02848 0.98521 0.997994
1.01907 1.02615 0.994836 0.99826
1.00544 1.00944 0.998247 0.997779
1.0004 1.00009 1.00234 0.997973
1.0042 1.00183 1.00547 0.996916
0.99954 1 1 0.99954
0.999497 1 1 0.999497
0.999272 1 1 0.999272
0.998979 1 1 0.998979
0.998856 1 1.00011 0.998748
0.999877 1 1.00153 0.998353
1.01912 1 1.0209 0.998259
1.00054 1 1.00197 0.998571
0.999047 1 1 0.999047
1.00081 1 1.00222 0.99859
1.02732 1.03376 0.995687 0.998079
1.01685 1.01904 1 0.997852
0.999329 1 1.0011 0.998231
1.00244 1 1.00441 0.998032
1.00864 1.01136 1.00004 0.997278
1.00314 1.00272 1.00335 0.997075
0.999147 1 1.00027 0.998872
1.02445 1.03621 0.990545 0.998094
1.00085 1 1.00251 0.99834
1.00068 1.00028 1.00269 0.997715
1.02227 1.02613 0.998108 0.998129
1.0078 1.01045 1 0.997379
1.00456 1.00409 1.00348 0.996992
1.00021 1 1.00161 0.998602
1.01705 1.02932 0.989622 0.998441
1.0003 1.00041 1.00178 0.998117
1.00239 1.00116 1.00379 0.997445
1.01115 1.01645 0.996977 0.997801
1.00224 1.00292 1.00221 0.997115
1.00284 1.00727 0.997135 0.998457
0.999018 1 1 0.999018
0.998999 1 1.00008 0.998917
0.998902 1 1.0001 0.9988
0.99947 1 1 0.99947
0.999177 1 1 0.999177
0.999063 1 1 0.999063
0.998926 1 1 0.998926
0.999445 1 1 0.999445
0.999147 1 1 0.999147
0.998857 1 1 0.998857
0.999008 1 1 0.999008
0.998925 1 1 0.998925
0.998842 1 1 0.998842
0.998883 1 1 0.998883
0.998999 1 1 0.998999
0.999087 1 1 0.999087
0.999375 1 1 0.999375
0.999206 1 1 0.999206
0.999368 1 1 0.999368
0.99985 1 1 0.99985
0.999856 1 1 0.999856
1 1 1 1
0.999865 1 1 0.999865
1 1 1 1
1 1 1 1
1 1 1 1
1 1 1 1
1 1 1 1
0.99995 1 1 0.99995
0.999931 1 1 0.999931
1 1 1 1
1 1 1 1
1 1 1 1
1 1 1 1
1 1 1 1
1 1 1 1
1.02904 1.03454 0.996709 0.997968
1.03046 1.03762 0.995267 0.997825
1.02931 1.0352 0.996651 0.997657
1.02976 1.03817 0.99407 0.997819
1.03167 1.04014 0.993887 0.997959
1.01845 1.03187 0.988828 0.998147
1.03145 1.04239 0.991466 0.998025
0.994291 1.01596 0.981038 0.99759
1.00936 1.02693 0.9842 0.998673
0.999621 1 1 0.999621
1.02918 1.03701 0.99465 0.99779
1.02063 1.02935 0.99366 0.997855
1.02309 1.02884 0.996389 0.998016
0.998947 1.00008 1.00082 0.99805
1.00373 1.00271 1.00402 0.997014
1.00659 1.00907 1.00045 0.997088
1.01767 1.02107 0.998626 0.998038
0.99821 1 1 0.99821
1.00542 1 1.00678 0.998646
1.00104 1 1.00276 0.998284
0.999899 1 1 0.999899
0.999992 1 1.00138 0.998613
0.999478 1 1 0.999478
0.998939 1 1 0.998939
0.999507 1 1 0.999507
1.03163 1.04171 0.992375 0.99793
0.99957 1 1 0.99957
0.999496 1 1 0.999496
0.999232 1 1 0.999232
1.01241 1.02802 0.986788 0.997996
1.01895 1.02603 0.994875 0.998213
0.999781 1.00007 1.00172 0.997993
1.00421 1.00171 1.00555 0.996965
1.00459 1.00811 0.998728 0.997775
0.999013 1 1 0.999013
0.998948 1 1.00023 0.99872
1.00343 1 1.00494 0.998499
1.01551 1 1.01725 0.998297
0.999661 1 1.00128 0.99838
1.0214 1.03441 0.989391 0.998011
1.01151 1.03121 0.98275 0.998112
1.01155 1.01678 0.996877 0.997972
1.00186 1.00397 1.0003 0.997595
1.00312 1 1.005 0.998124
0.999205 1 1 0.999205
0.999105 1 1 0.999105
0.99899 1 1 0.99899
0.999013 1 1.00024 0.998775
0.999512 1 1.00096 0.998554
1.01392 1 1.01566 0.998294
1.01565 1 1.01745 0.998238
0.999199 1 1.00033 0.998864
1.00066 1 1.00231 0.998357
1.02531 1.03842 0.989232 0.998125
1.0209 1.02526 0.997641 0.998102
1.00761 1.0102 1 0.99743
1.00037 1.00002 1.00268 0.997686
1.00421 1.00361 1.0036 0.997006
1.00015 1 1.00151 0.998639
1.01504 1.0288 0.988151 0.998455
0.99966 1.0002 1.00132 0.998145
1.00213 1.0006 1.00408 0.997456
1.01211 1.01701 0.997289 0.997885
1.00218 1.0024 1.00269 0.997101
1.0017 1.00739 0.996419 0.997927
1.00023 1 1.00176 0.998472
1.00616 1.0181 0.989823 0.998438
1.00007 1 1.00194 0.998126
1.00417 1.00035 1.00636 0.997468
1.00053 1.00574 0.99726 0.997558
0.951178 0.981008 0.983811 0.985547
0.969823 0.985625 0.990937 0.992966
0.983128 0.997779 0.986791 0.998506
0.845885 0.896289 0.962531 0.980503
0.801401 0.891357 0.920455 0.976778
0.998984 1 1.00007 0.998914
0.999124 1 1.00031 0.998818
0.998823 1 1 0.998823
0.999444 1 1 0.999444
0.999137 1 1 0.999137
0.999008 1 1 0.999008
0.998938 1 1 0.998938
0.998837 1 1 0.998837
0.998978 1 1 0.998978
0.999399 1 1 0.999399
0.999101 1 1 0.999101
0.998841 1 1 0.998841
0.998889 1 1 0.998889
0.998896 1 1 0.998896
0.998872 1 1 0.998872
0.998919 1 1 0.998919
0.999057 1 1 0.999057
0.99936 1 1 0.99936
0.999124 1 1 0.999124
0.999042 1 1 0.999042
0.999189 1 1 0.999189
0.999176 1 1 0.999176
0.999436 1 1 0.999436
0.999366 1 1 0.999366
0.999845 1 1 0.999845
0.999849 1 1 0.999849
1 1 1 1
0.999855 1 1 0.999855
1 1 1 1
1 1 1 1
1 1 1 1
1 1 1 1
1 1 1 1
0.999959 1 1 0.999959
0.999947 1 1 0.999947
1 1 1 1
0.999929 1 1 0.999929
1 1 1 1
1 1 1 1
1 1 1 1
1 1 1 1
1 1 1 1
1.03 1.03837 0.993963 0.997956
1.02961 1.03799 0.994095 0.997817
1.01923 1.03138 0.990077 0.998117
0.997147 1.01574 0.984018 0.997637
1.0295 1.04051 0.99138 0.998023
1.01479 1.02912 0.987473 0.998586
1.02707 1.03396 0.995238 0.998086
0.958318 0.984522 0.981089 0.992146
1.00419 1.01935 0.987039 0.998062
0.999627 1 1 0.999627
0.999619 1 1 0.999619
0.999296 1 1 0.999296
0.999326 1 1 0.999326
1.03017 1.04205 0.99064 0.997938
1.01272 1.02709 0.987984 0.997998
1.01866 1.02583 0.994838 0.998166
0.998915 1.00013 1.00077 0.998013
1.00401 1.00165 1.00536 0.997013
1.00378 1.0071 0.99893 0.997771
1.0062 1 1.00778 0.998426
1.01193 1 1.01361 0.998335
0.999435 1 1.00103 0.998406
0.999494 1 1 0.999494
0.998936 1 1.00025 0.998691
0.999047 1 1 0.999047
0.9996 1 1 0.9996
0.999193 1 1 0.999193
1.01947 1.03374 0.98815 0.998026
0.999249 1 1 0.999249
0.999139 1 1 0.999139
0.999025 1 1 0.999025
1.01393 1.03322 0.983186 0.998115
1.01015 1.01589 0.996376 0.99797
1.0028 1 1.0047 0.998111
1.00231 1.00431 1.0004 0.997615
0.999042 1 1.00027 0.998768
0.999171 1 1.00065 0.998526
1.01676 1 1.01856 0.998235
1.01468 1 1.01645 0.998266
1.00794 1.03111 0.979381 0.998105
1.00424 1.0249 0.981738 0.998076
1.00495 1.00772 0.999571 0.997678
0.998097 1.00034 0.99953 0.998232
0.998892 1 1 0.998892
0.999164 1 1.00032 0.998844
1.00446 1 1.00589 0.998579
1.02758 1 1.02953 0.998101
0.931727 0.972438 0.973083 0.984639
1.00032 1 1.00165 0.998676
0.999265 1 1.00109 0.998172
1.0131 1.02804 0.98697 0.998469
1.01335 1.01782 0.997635 0.997968
1.0026 1.00223 1.0033 0.997086
1.00192 1 1.00447 0.997467
1.00096 1.00731 0.996303 0.997386
1.00026 1 1.00176 0.998502
1.00629 1.01871 0.989367 0.998426
0.999573 1 1.00144 0.998137
1.0038 1.00023 1.00611 0.997467
1.00191 1.00665 0.997699 0.997582
0.950077 0.983979 0.980419 0.98483
0.964901 0.983108 0.990282 0.991112
0.984214 0.995754 0.989865 0.998531
0.848316 0.895171 0.966491 0.980514
0.785152 0.879491 0.915814 0.974799
0.999586 1 1.00092 0.998665
0.871529 0.916423 0.969322 0.98111
0.843781 0.896528 0.962246 0.978091
0.984921 1.00709 0.979641 0.998316
1.00504 1.00022 1.00657 0.998265
1.01116 1.00323 1.01019 0.997739
0.978004 0.991058 0.988151 0.998662
0.947681 0.971775 0.990472 0.984588
0.950508 0.964346 0.995281 0.990324
0.824794 0.896481 0.937899 0.980953
0.854984 0.931119 0.93833 0.978583
0.999472 1 1.00064 0.998835
0.999077 1 1.00026 0.998813
0.999496 1 1.00045 0.999046
0.999423 1 1 0.999423
0.999116 1 1 0.999116
0.998958 1 1 0.998958
0.998895 1 1 0.998895
0.998841 1 1 0.998841
0.999361 1 1 0.999361
0.998891 1 1 0.998891
0.998937 1 1 0.998937
0.999082 1 1 0.999082
0.998934 1 1.00006 0.998872
0.998865 1 1 0.998865
0.999249 1 1.00035 0.998898
0.9989 1 1 0.9989
0.999086 1 1 0.999086
0.999122 1 1 0.999122
0.999029 1 1 0.999029
0.998964 1 1 0.998964
0.999027 1 1 0.999027
0.998974 1 1 0.998974
0.998883 1 1 0.998883
0.999168 1 1 0.999168
0.999189 1 1 0.999189
0.999451 1 1 0.999451
0.999146 1 1 0.999146
0.999415 1 1 0.999415
0.999842 1 1 0.999842
0.999364 1 1 0.999364
0.999845 1 1 0.999845
1 1 1 1
0.999849 1 1 0.999849
1 1 1 1
1 1 1 1
1 1 1 1
1 1 1 1
1 1 1 1
0.999604 1 1 0.999604
0.999959 1 1 0.999959
0.999957 1 1 0.999957
1 1 1 1
0.999944 1 1 0.999944
1 1 1 1
1 1 1 1
1 1 1 1
1 1 1 1
1 1 1 1
0.999361 1.01579 0.986105 0.997687
1.02802 1.03874 0.991647 0.998021
1.01945 1.03147 0.989831 0.998498
0.954194 0.979759 0.98072 0.993052
1.0044 1.01907 0.987422 0.998159
1.02905 1.0369 0.994366 0.998048
1.01628 1.02417 0.994348 0.99794
0.965023 0.982307 0.988564 0.993771
0.951843 0.979307 0.987721 0.984038
0.828006 0.889182 0.950129 0.980077
0.782717 0.864575 0.927273 0.976326
0.999283 1 1 0.999283
0.999626 1 1 0.999626
0.999618 1 1 0.999618
0.999284 1 1 0.999284
0.999078 1 1 0.999078
0.999113 1 1 0.999113
0.999272 1 1 0.999272
0.999303 1 1 0.999303
1.01803 1.03349 0.986983 0.99804
1.01724 1.03612 0.983624 0.998119
1.00898 1.01508 0.996022 0.997968
1.00303 1.00006 1.00488 0.9981
1.00284 1.00438 1.00083 0.997635
1.01772 1 1.01952 0.998232
1.01595 1 1.01774 0.998239
0.998991 1 1.00049 0.998497
0.999173 1 1 0.999173
0.999044 1 1.00028 0.998762
0.999293 1 1 0.999293
0.999061 1 1 0.999061
1.00919 1.03129 0.980446 0.998091
0.998917 1 1 0.998917
0.999049 1 1.00019 0.998863
1.00511 1.02431 0.98317 0.998054
1.0034 1.00733 0.998308 0.997787
1.00004 1.00064 1.00124 0.998161
1.0065 1 1.00798 0.998526
1.02467 1 1.02661 0.998112
1.00673 1.02618 0.982927 0.998084
0.986145 1.00762 0.980542 0.998109
0.994975 1.00056 0.996291 0.998117
1.00525 1.00025 1.00674 0.998275
0.999034 1 1.00032 0.998711
1.00278 1 1.00416 0.998631
1.02355 1 1.02527 0.998321
0.859666 0.921446 0.950365 0.981678
0.945282 0.97665 0.981367 0.986259
0.999927 1 1.0014 0.998533
0.999215 1 1.00107 0.998149
1.00691 1.0197 0.98903 0.998414
1.00299 1.00745 0.997963 0.997607
1.00329 1.00013 1.00571 0.997467
0.946854 0.977349 0.984399 0.984152
0.967861 0.987766 0.987976 0.991774
0.985847 0.994363 0.992873 0.998552
0.842773 0.896197 0.958637 0.980964
0.771231 0.867263 0.914145 0.972789
0.999251 1 1.00059 0.998666
0.863916 0.919048 0.957725 0.981505
0.837906 0.890182 0.963231 0.977206
0.986737 1.00789 0.980667 0.998309
1.00466 1.00021 1.00617 0.998288
1.00999 1.00169 1.01044 0.997868
0.96963 0.985972 0.984651 0.998755
0.953403 0.979927 0.989415 0.983342
0.952589 0.968209 0.99168 0.992122
0.827932 0.890961 0.94857 0.979641
0.854086 0.933126 0.935987 0.977893
1.00107 1 1.00216 0.998913
0.871229 0.905764 0.981761 0.97974
0.936733 0.960761 0.990338 0.984504
0.989332 1.00002 0.990499 0.998799
1.01252 1.00177 1.01196 0.998779
0.983995 0.977522 1.00772 0.998912
0.93516 0.953715 0.987281 0.993176
0.937809 0.955957 0.997921 0.98306
0.84336 0.905704 0.950117 0.980052
0.883745 0.954331 0.943908 0.981067
0.99917 1 1.00037 0.998803
0.999251 1 1.00023 0.999024
1.00169 1 1.00247 0.999222
0.999362 1 1 0.999362
0.999107 1 1 0.999107
0.998955 1 1 0.998955
0.998885 1 1 0.998885
0.999007 1 1.00013 0.998873
0.999085 1 1 0.999085
0.998869 1 1 0.998869
0.9989 1 1 0.9989
0.999928 1 1.00101 0.998923
1.00839 0.999977 1.00925 0.999172
0.998925 1 1.00009 0.998838
0.998879 1 1 0.998879
0.999119 1 1 0.999119
0.999017 1 1 0.999017
0.998962 1 1 0.998962
0.999023 1 1 0.999023
0.998986 1 1 0.998986
0.998976 1 1 0.998976
0.998924 1 1 0.998924
0.99897 1 1 0.99897
0.998747 1 1 0.998747
0.999303 1 1.00093 0.998376
0.998772 1 1.00001 0.998761
0.99888 1 1 0.99888
0.999111 1 1 0.999111
0.999166 1 1 0.999166
0.999446 1 1 0.999446
0.999188 1 1 0.999188
0.999451 1 1 0.999451
0.999843 1 1 0.999843
0.999395 1 1 0.999395
0.999843 1 1 0.999843
1 1 1 1
0.999845 1 1 0.999845
1 1 1 1
1 1 1 1
1 1 1 1
1 1 1 1
1 1 1 1
0.999623 1 1 0.999623
0.999949 1 1 0.999949
0.999604 1 1 0.999604
1 1 1 1
0.999959 1 1 0.999959
0.999955 1 1 0.999955
1 1 1 1
1 1 1 1
1 1 1 1
1 1 1 1
1 1 1 1
0.860428 0.909609 0.964371 0.98088
0.84719 0.898225 0.963766 0.978643
0.95656 0.983067 0.979346 0.993557
1.0065 1.01871 0.989738 0.998257
1.03145 1.0396 0.994144 0.99801
0.957166 0.97398 0.987617 0.995058
1.01579 1.02377 0.994192 0.997999
0.956151 0.984717 0.985431 0.985346
0.841894 0.895505 0.958973 0.980353
0.774026 0.864051 0.919437 0.974303
0.983911 0.998325 0.989149 0.996373
0.949648 0.973428 0.990382 0.985045
0.817599 0.891001 0.935836 0.980534
0.846556 0.922396 0.939115 0.977281
0.998988 1 1 0.998988
0.999304 1 1 0.999304
0.999626 1 1 0.999626
0.999271 1 1 0.999271
0.99911 1 1 0.99911
0.999162 1 1.00016 0.999007
0.999111 1 1 0.999111
0.999124 1 1 0.999124
0.999246 1 1 0.999246
0.99928 1 1 0.99928
1.01022 1.03098 0.981752 0.998078
1.00464 1.0226 0.984367 0.998035
1.00202 1.00718 0.996971 0.997896
1.00169 1.00096 1.00264 0.99809
1.02079 1 1.02271 0.998123
1.00857 1 1.01011 0.998472
0.998881 1 1 0.998881
0.998943 1 1 0.998943
1.00604 1.02651 0.981926 0.998098
0.999262 1 1.00057 0.998696
1.0027 1 1.00411 0.9986
0.986577 1.00625 0.982385 0.998031
0.994382 1.00041 0.995729 0.998237
1.0063 1.00079 1.00734 0.998174
1.02072 1 1.02247 0.998295
0.998141 1.0048 0.994972 0.998394
0.987326 1 0.988524 0.998787
1.01354 1.00043 1.01478 0.998352
1.00163 1 1.00296 0.998674
1.00117 1 1.00264 0.998533
1.01415 1 1.01576 0.998411
0.878894 0.912757 0.980079 0.982472
0.868269 0.920453 0.96118 0.981405
0.938183 0.976611 0.975619 0.984659
0.998938 1 1.00027 0.998667
1.00426 1.00016 1.00581 0.99831
0.98938 1.00854 0.982668 0.998302
1.009 1.00015 1.01088 0.997996
0.857289 0.913758 0.956087 0.981292
0.953891 0.978323 0.989753 0.98512
0.946651 0.967116 0.988326 0.990401
0.965775 0.98172 0.984893 0.998849
0.828278 0.891294 0.948648 0.979604
0.840227 0.894871 0.960883 0.97716
0.844557 0.926685 0.931774 0.978107
1.00175 1 1.00283 0.998919
0.872229 0.909272 0.97832 0.980518
0.942111 0.965438 0.991288 0.984415
0.991638 1.00014 0.992618 0.998875
1.012 1.00048 1.01278 0.998756
0.98164 0.976588 1.00632 0.998864
0.936307 0.955969 0.988016 0.991312
0.94022 0.960431 0.994814 0.98406
0.855009 0.917874 0.950137 0.980396
0.873039 0.944953 0.941539 0.981263
1.00356 0.999757 1.00435 0.999461
0.940033 0.965359 0.986072 0.987519
0.924104 0.954527 0.979868 0.988018
1.00343 0.989857 1.014 0.999715
0.955279 0.957348 1.00213 0.995713
0.945782 0.955958 1.00615 0.983308
0.891291 0.936184 0.971139 0.980341
0.890615 0.967117 0.939166 0.980548
0.999022 1 1.00002 0.999003
1.00097 1 1.00175 0.999224
1.0128 1 1.01341 0.9994
0.999084 1 1 0.999084
0.998901 1 1 0.998901
0.998874 1 1 0.998874
1.00019 1 1.00124 0.998949
0.998877 1 1 0.998877
0.998919 1 1.00009 0.998834
1.01082 1 1.01161 0.999218
1.01942 0.998169 1.02185 0.999446
1.00844 1 1.00935 0.999101
0.998831 1 1 0.998831
0.99896 1 1 0.99896
0.999019 1 1 0.999019
0.998997 1 1 0.998997
0.998934 1 1 0.998934
0.998974 1 1 0.998974
0.998977 1 1 0.998977
0.998894 1 1 0.998894
0.99923 1 1.00014 0.999094
0.998779 1 1 0.998779
0.998773 1 1 0.998773
0.999196 1 1.00069 0.998503
0.999485 1 1.00153 0.997963
0.999147 1 1.00048 0.998669
0.999259 1 1.00079 0.998468
0.998796 1 1 0.998792
0.998992 1 1.00001 0.998984
0.998877 1 1 0.998877
0.99911 1 1 0.99911
0.999408 1 1 0.999408
0.999165 1 1 0.999165
0.999445 1 1 0.999445
0.999841 1 1 0.999841
0.999452 1 1 0.999452
0.999843 1 1 0.999843
1 1 1 1
0.999844 1 1 0.999844
1 1 1 1
1 1 1 1
1 1 1 1
1 1 1 1
1 1 1 1
0.999493 1 1 0.999493
0.999934 1 1 0.999934
0.999572 1 1 0.999572
1 1 1 1
0.999952 1 1 0.999952
0.999604 1 1 0.999604
1 1 1 1
1 1 1 1
0.99996 1 1 0.99996
1 1 1 1
1 1 1 1
1 1 1 1
0.873981 0.908724 0.97999 0.981405
0.8642 0.915674 0.962301 0.98076
0.939152 0.966267 0.987459 0.984283
0.838579 0.891177 0.962282 0.977862
0.954091 0.977369 0.982912 0.993154
1.0136 1.02348 0.992262 0.998061
0.960502 0.98477 0.988616 0.986588
0.843544 0.898665 0.957505 0.980323
0.76883 0.866167 0.912946 0.972263
0.980259 0.995862 0.988611 0.995672
0.948529 0.973771 0.990722 0.983199
0.829116 0.898156 0.942655 0.979289
0.84586 0.924641 0.936921 0.976388
0.962874 0.984056 0.983719 0.994669
0.950044 0.961826 1.00508 0.982763
0.853798 0.920299 0.946905 0.979761
0.879492 0.955384 0.93983 0.9795
0.999338 1 1.00052 0.99882
0.99902 1 1 0.99902
0.999325 1 1 0.999325
0.999143 1 1 0.999143
0.998824 1 1 0.998824
0.99903 1 1 0.99903
0.99911 1 1 0.99911
0.999092 1 1 0.999092
0.999152 1 1 0.999152
0.999219 1 1 0.999219
1.0066 1.02762 0.981401 0.998112
0.988748 1.00576 0.985099 0.997953
0.993715 1.00015 0.995199 0.998355
1.00809 1.00132 1.0087 0.998076
1.01799 1 1.01976 0.998268
1.00234 1 1.00377 0.998569
0.999543 1 1.00086 0.998681
1.00096 1 1.0023 0.998667
0.994396 1.00563 0.990403 0.998406
1.00096 1 1.00243 0.99854
1.014 1 1.01563 0.998404
0.985975 1.00023 0.98702 0.998708
1.01368 1.00087 1.0145 0.998327
0.966958 0.990734 0.977083 0.998894
1.00298 0.997929 1.0058 0.999262
1.01983 1 1.02129 0.998569
1.00026 1 1.00171 0.99855
1.00802 1 1.00962 0.998414
0.941233 0.961825 0.9894 0.989074
0.882948 0.912707 0.984615 0.982511
0.860707 0.916247 0.957074 0.981517
1.0024 1 1.00348 0.998925
1.01161 0.999328 1.01358 0.998733
0.991402 1 0.992446 0.998948
0.881813 0.915102 0.982005 0.98128
0.949169 0.959819 1.0062 0.982812
0.93847 0.956657 0.988311 0.992592
0.971653 0.972857 0.999975 0.998788
0.855942 0.917193 0.952163 0.980104
0.947057 0.969333 0.992572 0.984331
0.873382 0.94564 0.941139 0.981353
1.00316 0.99942 1.00431 0.999436
0.937725 0.963482 0.984765 0.988325
0.926222 0.956407 0.980173 0.988028
1.00484 0.991939 1.01344 0.999568
0.95999 0.960843 1.00382 0.99531
0.93527 0.953629 0.998567 0.982155
0.893764 0.969048 0.939814 0.981377
0.889765 0.935412 0.970367 0.980249
1.0048 0.993584 1.01158 0.999711
0.920886 0.951029 0.975154 0.992977
0.935049 0.967273 0.977686 0.988749
0.881359 0.956135 0.941027 0.979561
0.989194 0.97578 1.01491 0.99885
0.962453 0.964842 1.01372 0.98402
0.89822 0.933441 0.981297 0.980607
1.00088 1 1.00166 0.999226
1.01181 1 1.01248 0.999337
1.01599 0.996524 1.01998 0.999566
0.998875 1 1 0.998875
0.998978 1 1.00015 0.998829
1.01447 1 1.01522 0.999263
0.998842 1 1 0.998842
1.00813 1 1.00903 0.999107
1.02099 0.998017 1.02361 0.999421
1.00868 0.997388 1.01184 0.999489
1.00529 1 1.0062 0.999101
0.998944 1 1 0.998944
0.998973 1 1 0.998973
0.998984 1 1 0.998984
0.999197 1 1.00012 0.999077
0.998902 1 1 0.998902
0.999356 1 1.00033 0.999024
0.998909 1 1 0.998909
1.00086 1 1.00259 0.998271
0.998799 1 1 0.998799
0.999032 1 1.00057 0.998466
0.998804 1 1.00101 0.997793
0.999174 1 1.00129 0.997888
1.00001 1 1.00154 0.998475
0.999364 1 1.00138 0.997984
0.999144 1 1.00029 0.998857
0.999234 1 1.00059 0.998641
0.999205 1 1.00065 0.99856
0.998824 1 1 0.998824
0.99902 1 1.00001 0.999014
0.999341 1 1 0.999341
0.999108 1 1 0.999108
0.999408 1 1 0.999408
0.999826 1 1 0.999826
0.999444 1 1 0.999444
0.999839 1 1 0.999839
1 1 1 1
0.999843 1 1 0.999843
1 1 1 1
1 1 1 1
1 1 1 1
1 1 1 1
1 1 1 1
0.999337 1 1 0.999337
0.999827 1 1 0.999827
0.999491 1 1 0.999491
1 1 1 1
0.999902 1 1 0.999902
0.999521 1 1 0.999521
1 1 1 1
1 1 1 1
0.999955 1 1 0.999955
1 1 1 1
1 1 1 1
1 1 1 1
0.933754 0.960767 0.983419 0.988271
0.863298 0.90663 0.970266 0.981385
0.864152 0.912478 0.965782 0.980592
0.998997 1 1 0.998997
0.926218 0.9524 0.983377 0.988949
0.941599 0.967115 0.98923 0.984216
0.834998 0.893192 0.955923 0.977952
0.983165 0.997055 0.991202 0.994821
0.950077 0.97279 0.991759 0.984766
0.8354 0.909419 0.938088 0.979234
0.840133 0.918183 0.937054 0.976459
0.964713 0.984451 0.987383 0.992471
0.93671 0.955801 0.995907 0.984053
0.864333 0.92406 0.954727 0.97972
0.877799 0.951317 0.942236 0.979287
0.944483 0.963495 0.989476 0.990693
0.94531 0.950999 1.0121 0.982134
0.89515 0.941635 0.970015 0.98002
0.890346 0.965593 0.940375 0.980536
0.99938 1 1.00073 0.998654
0.999631 1 1.00084 0.998797
0.999051 1 1 0.999051
0.998822 1 1 0.998822
0.99894 1 1.00008 0.998862
0.999053 1 1 0.999053
0.9991 1 1 0.9991
0.99918 1 1 0.99918
0.988383 1.00564 0.9844 0.998418
0.983627 1.00014 0.984838 0.99863
1.00021 1 1.00156 0.99866
1.01409 1.00133 1.01447 0.998302
1.01472 1 1.01634 0.998397
1.00102 1 1.00248 0.998548
1.00052 1 1.00197 0.998559
0.971582 0.992394 0.980082 0.998924
1.00874 1 1.01032 0.998441
1.01678 1.00009 1.01815 0.998574
0.997828 0.998391 1.00014 0.999295
1.00033 1 1.00174 0.998593
0.962343 0.9823 0.98047 0.999198
1.0083 0.995331 1.01358 0.999454
1.02826 1 1.02966 0.99865
1.002 1 1.00344 0.998564
0.933545 0.9534 0.985204 0.99388
0.940553 0.960907 0.989514 0.98919
0.888099 0.912842 0.99017 0.982553
1.00216 0.998997 1.00375 0.999415
1.00774 0.994262 1.01414 0.999425
0.936082 0.962103 0.983653 0.989124
0.953065 0.95505 1.01434 0.98381
0.954465 0.95907 1.0023 0.992911
0.894387 0.939387 0.972146 0.979376
0.926938 0.956928 0.980388 0.988037
0.898001 0.972114 0.940499 0.982202
1.00613 0.995523 1.01099 0.999672
0.921102 0.950857 0.975553 0.992982
0.932754 0.965364 0.976112 0.989866
0.997929 0.982348 1.01607 0.999797
0.878949 0.952216 0.942553 0.979315
0.951222 0.957018 1.01083 0.983292
0.908858 0.947051 0.979383 0.979874
1.00661 0.991494 1.01548 0.999771
0.934636 0.964777 0.974683 0.993921
0.926674 0.953264 0.982915 0.989004
0.846407 0.923712 0.937532 0.977363
0.894817 0.943213 0.968343 0.979705
0.971782 0.968682 1.00522 0.99799
0.965158 0.958616 1.02598 0.981328
1.00955 1 1.01028 0.999275
1.01529 0.995975 1.01986 0.999541
1.00367 0.98541 1.01896 0.999582
0.998853 1 1 0.998853
1.00733 1 1.00822 0.999114
1.02169 0.998664 1.02367 0.999396
1.00288 1 1.00379 0.999088
1.00888 0.998132 1.01129 0.999488
1.0071 0.997295 1.01059 0.999251
0.999061 1 1 0.999061
0.99891 1 1 0.99891
1.00002 1 1.00103 0.998995
1.00635 1 1.00787 0.998495
0.999038 1 1 0.999038
1.00035 1 1.00198 0.998373
1.00181 1 1.00413 0.997696
1.00068 1.00148 1.00188 0.997338
0.998833 1 1.0004 0.998429
0.998992 1.0002 1.00109 0.997697
0.998504 1 1.00053 0.99798
1.00057 1 1.00232 0.998256
0.999196 1 1.00125 0.997944
1.00051 1 1.0018 0.998714
1.00003 1 1.00156 0.998468
0.999282 1 1.00128 0.998006
0.999224 1 1 0.999224
0.999237 1 1.00038 0.998853
0.999408 1 1.0008 0.998613
0.999045 1 1 0.999045
0.999339 1 1 0.999339
0.999794 1 1 0.999794
0.999407 1 1 0.999407
0.999824 1 1 0.999824
1 1 1 1
0.999838 1 1 0.999838
1 1 1 1
1 1 1 1
1 1 1 1
1 1 1 1
1 1 1 1
0.999272 1 1 0.999272
0.999752 1 1 0.999752
0.999366 1 1 0.999366
1 1 1 1
0.99982 1 1 0.99982
0.99949 1 1 0.99949
1 1 1 1
1 1 1 1
0.99987 1 1 0.99987
1 1 1 1
1 1 1 1
1 1 1 1
0.922876 0.951206 0.977017 0.993039
0.935225 0.961188 0.984545 0.988263
0.863277 0.907857 0.968831 0.981487
0.999014 1 1 0.999014
0.998965 1 1 0.998965
0.998861 1 1 0.998861
0.931842 0.96613 0.975544 0.98869
0.923681 0.951424 0.981669 0.988969
0.944387 0.968062 0.991254 0.984151
0.971143 0.98671 0.99008 0.994085
0.934923 0.955806 0.995314 0.982757
0.854679 0.912518 0.955625 0.980108
0.886824 0.957105 0.946474 0.97897
0.946969 0.964142 0.989501 0.99261
0.941363 0.950376 1.00764 0.983008
0.883596 0.92646 0.97203 0.981177
0.892297 0.967832 0.939478 0.981347
0.934217 0.953625 0.988207 0.991339
0.959656 0.961174 1.01523 0.983446
0.899243 0.931872 0.983888 0.980789
0.884425 0.953823 0.945224 0.980977
0.998643 1 1 0.998643
0.999623 1 1.00098 0.998647
0.999715 1 1.00094 0.998775
0.998817 1 1 0.998817
0.9989 1 1 0.9989
0.999108 1 1 0.999108
0.978403 0.994861 0.984493 0.998948
0.993294 0.998775 0.995185 0.999324
1.0007 1 1.00214 0.998568
1.01315 1.00017 1.01442 0.998579
1.00944 1 1.01099 0.99847
1.00013 1 1.00157 0.998569
1.00174 1 1.00316 0.998578
0.97363 0.985267 0.988946 0.999234
1.02467 1 1.02595 0.998754
1.0062 0.990779 1.01609 0.99948
1.00004 1 1.00135 0.998694
0.988153 0.974585 1.01454 0.999391
0.999977 0.987886 1.01272 0.999522
1.02017 1 1.02132 0.998877
0.949675 0.968717 0.985237 0.995033
0.933187 0.953592 0.984308 0.994203
0.940201 0.959896 0.990072 0.989303
1.00851 0.997807 1.01109 0.999634
0.992516 0.983882 1.00952 0.999258
0.921974 0.951319 0.975998 0.992987
0.950949 0.950902 1.01342 0.98681
0.907576 0.944024 0.980392 0.980619
0.931549 0.963841 0.97529 0.990984
0.887618 0.957628 0.946744 0.979032
1.00462 0.990932 1.01402 0.999788
0.935413 0.965102 0.974834 0.994258
0.924977 0.952628 0.981748 0.989025
0.970858 0.965523 1.01036 0.995219
0.844782 0.924941 0.935305 0.976512
0.880947 0.929009 0.966774 0.980855
0.973732 0.963631 1.02766 0.983284
1.00135 0.973119 1.02944 0.999588
0.923668 0.951777 0.9772 0.993109
0.940897 0.968181 0.98721 0.984409
0.780695 0.862812 0.926534 0.97657
0.855227 0.921935 0.946782 0.979785
0.959066 0.960642 1.01553 0.983097
0.949374 0.960801 0.994449 0.993622
1.01449 0.995069 1.02001 0.999514
1.00697 0.989584 1.01799 0.999586
1.01685 0.994861 1.02259 0.999529
1.00048 1 1.0014 0.999075
1.00931 0.998113 1.01174 0.999487
1.00852 0.997275 1.01196 0.999327
1.01553 1 1.01673 0.998824
1.00082 1 1.00186 0.998966
1.00664 1 1.00827 0.99839
1.01499 1 1.01743 0.9976
0.999921 1 1.00145 0.998477
1.0031 1.00037 1.00509 0.997653
1.00479 1.00183 1.00596 0.997003
1.00317 1.00435 1.00191 0.996925
0.998938 1.00021 1.00108 0.99765
1.00063 1.00145 1.00189 0.997299
0.999212 1.00037 1.00124 0.997601
0.999265 1 1.0011 0.99817
0.998549 1 1.00048 0.99807
1.00105 1 1.0026 0.998456
1.00066 1 1.00237 0.998295
0.99917 1 1.00117 0.998002
0.999899 1 1.00088 0.999024
1.00018 1 1.00146 0.998717
0.99995 1 1.00149 0.99846
0.999733 1 1 0.999733
0.999222 1 1 0.999222
0.999241 1 1.00039 0.998848
0.999337 1 1 0.999337
0.99979 1 1 0.99979
1 1 1 1
0.999821 1 1 0.999821
1 1 1 1
1 1 1 1
1 1 1 1
1 1 1 1
1 1 1 1
0.999262 1 1 0.999262
0.999758 1 1 0.999758
0.999291 1 1 0.999291
1 1 1 1
0.999784 1 1 0.999784
0.999396 1 1 0.999396
1 1 1 1
1 1 1 1
0.999813 1 1 0.999813
1 1 1 1
1 1 1 1
1 1 1 1
0.934075 0.964125 0.974798 0.993879
0.923016 0.951634 0.976719 0.993047
0.934992 0.961521 0.983955 0.988266
0.998939 1 1 0.998939
0.998821 1 1 0.998821
0.999032 1 1 0.999032
0.998962 1 1 0.998962
0.998842 1 1 0.998842
0.998849 1 1 0.998849
0.998748 1 1 0.998748
0.921363 0.953873 0.977731 0.987917
0.931439 0.964138 0.976026 0.989814
0.921231 0.950269 0.980234 0.988991
0.894768 0.970559 0.938657 0.982159
0.935949 0.954458 0.98961 0.990903
0.944015 0.951113 1.00866 0.984019
0.887937 0.928195 0.975857 0.980296
0.929635 0.953066 0.984652 0.99062
0.950525 0.953027 1.01532 0.98233
0.911084 0.948173 0.980141 0.980353
0.87236 0.944417 0.941419 0.98118
0.934905 0.9547 0.986645 0.992521
0.957446 0.958977 1.01676 0.981943
0.893618 0.938177 0.971428 0.980521
0.852528 0.929543 0.937451 0.978342
1.0003 1 1.00156 0.99874
0.998758 1 1.00011 0.998644
1 1 1.00136 0.998641
0.998813 1 1 0.998813
0.98202 0.987284 0.995389 0.999277
1.00308 0.986983 1.01681 0.999505
0.998596 1 1.00005 0.998545
1.00148 1 1.00289 0.998593
1.02055 1 1.02172 0.998858
0.999501 1 1.00081 0.998687
1.0208 0.999721 1.02224 0.998863
0.984032 0.97293 1.01273 0.998696
1.00283 0.9872 1.0162 0.999633
1.00944 0.999004 1.01149 0.998972
0.989463 0.971641 1.01982 0.998548
1.01888 0.993257 1.02652 0.999298
0.93409 0.953625 0.985509 0.993919
0.945252 0.966797 0.982229 0.995405
0.932631 0.95377 0.983219 0.994526
1.00179 0.989394 1.01273 0.999805
0.974239 0.967469 1.00888 0.998133
0.935277 0.964748 0.974718 0.994598
0.967525 0.962379 1.02411 0.98168
0.8843 0.928919 0.971465 0.979929
0.923043 0.951987 0.980335 0.989046
0.839896 0.91827 0.93658 0.976586
1.00644 0.976834 1.03064 0.999671
0.923372 0.952155 0.976491 0.993118
0.942842 0.968559 0.988935 0.984341
0.951612 0.960551 0.994875 0.995797
0.774027 0.863549 0.919717 0.974574
0.86177 0.922987 0.953093 0.979627
0.957029 0.955816 1.01886 0.982733
0.999826 0.978551 1.02288 0.998891
0.935177 0.961929 0.983576 0.988422
0.847775 0.89845 0.96394 0.978897
0.820448 0.892147 0.937641 0.980795
0.943195 0.948608 1.01102 0.983452
0.931365 0.953033 0.985655 0.991487
1.01063 0.993751 1.0174 0.99959
1.01755 0.993391 1.02481 0.999522
1.00977 0.998164 1.01228 0.999359
1.01019 0.99752 1.01331 0.999402
1.01469 0.998408 1.01743 0.998899
1.00881 1.0008 1.01 0.998027
1.00714 1 1.00886 0.998286
1.01407 1 1.01656 0.997548
1.00899 1.00017 1.01186 0.996988
1.00445 1.00081 1.00604 0.99761
1.00491 1.00148 1.00651 0.996931
1.00315 1.00209 1.00436 0.996713
1.00547 1.00853 1 0.996966
1.00519 1.00732 1.00077 0.997123
1.0037 1.00466 1.00218 0.996873
0.998639 1.00063 1.00013 0.997886
0.998746 1.0003 1.00074 0.997705
1.00062 1.00147 1.0019 0.99726
0.999307 1 1.00112 0.998194
0.999244 1 1.00108 0.998162
0.998585 1 1.00043 0.998159
1.00083 1 1.00207 0.998757
1.00096 1 1.00246 0.998498
1.00074 1 1.00241 0.998334
0.999592 1 1 0.999592
0.999659 1 1.00063 0.999026
0.999963 1 1.00125 0.99872
1 1 1 1
0.999726 1 1 0.999726
0.99922 1 1 0.99922
0.999786 1 1 0.999786
1 1 1 1
1 1 1 1
1 1 1 1
1 1 1 1
1 1 1 1
0.998933 1 1 0.998933
0.999205 1 1 0.999205
0.999703 1 1 0.999703
0.99926 1 1 0.99926
1 1 1 1
0.999761 1 1 0.999761
0.99931 1 1 0.99931
1 1 1 1
1 1 1 1
0.999816 1 1 0.999816
1 1 1 1
1 1 1 1
1 1 1 1
0.920229 0.951008 0.974508 0.992947
0.934577 0.964557 0.974549 0.994222
0.923311 0.952138 0.976508 0.993054
0.99895 1 1 0.99895
0.998807 1 1 0.998807
0.99875 1 1 0.99875
0.998808 1 1 0.998808
0.999298 1 1.00058 0.998718
0.998959 1 1 0.998959
0.998824 1 1 0.998824
0.998849 1 1 0.998849
0.998749 1 1 0.998749
0.999774 1 1.00098 0.998795
0.934836 0.959382 0.989957 0.984301
0.924891 0.955892 0.979383 0.987937
0.932103 0.962974 0.976795 0.990937
0.871194 0.944868 0.939613 0.981284
0.908411 0.942522 0.98265 0.980826
0.922075 0.948876 0.981916 0.989652
0.958784 0.960549 1.0152 0.983223
0.935523 0.956734 0.987313 0.990395
0.968576 0.967992 1.01776 0.983141
0.892119 0.936438 0.971438 0.980682
0.85313 0.932302 0.936048 0.977599
0.955778 0.964052 0.999554 0.99186
0.958867 0.960561 1.01486 0.983621
0.841783 0.905538 0.948721 0.979839
0.803737 0.892396 0.922589 0.976222
1.00238 1 1.00323 0.999154
1.00186 1 1.00312 0.998739
0.999555 1 1.00091 0.998645
0.98236 0.971799 1.0129 0.997989
1.00559 0.985834 1.0203 0.999748
0.999836 1 1.00116 0.99868
1.02208 0.999573 1.02369 0.998849
1.01067 0.999559 1.01215 0.99898
1.02001 0.995318 1.02554 0.999287
0.985521 0.968312 1.01922 0.998583
1.01619 0.998855 1.01802 0.999345
0.991917 0.978513 1.01531 0.998409
0.943327 0.963676 0.989812 0.98896
0.93371 0.953699 0.984716 0.994237
0.940776 0.96496 0.979072 0.995777
1.01164 0.980859 1.03164 0.999746
0.950855 0.961765 0.996017 0.992611
0.923781 0.952505 0.976557 0.993125
0.958562 0.962353 1.01522 0.981124
0.853905 0.911653 0.955726 0.980046
0.944814 0.968933 0.990685 0.984276
0.770775 0.86705 0.914043 0.97256
0.998974 0.97721 1.02329 0.99901
0.936637 0.962477 0.984559 0.988415
0.839539 0.892189 0.962038 0.97812
0.93386 0.956232 0.983894 0.992591
0.83115 0.898724 0.94414 0.979528
0.931333 0.94655 1.00175 0.982209
0.974135 0.976866 0.999157 0.998046
0.874334 0.909632 0.979155 0.981657
0.8301 0.88984 0.951552 0.98036
0.949004 0.962112 1.0036 0.982837
0.928695 0.952171 0.982206 0.993015
1.01725 0.992037 1.02591 0.999515
1.0113 0.996697 1.01533 0.99933
0.996235 1.001 0.996554 0.998675
1.01343 0.996506 1.01803 0.998975
1.00882 1.00092 1.00979 0.998124
1.00165 1.00197 1.00211 0.997572
1.01285 1 1.01539 0.997496
1.00739 1.00032 1.0101 0.997003
0.999567 1.00147 1.001 0.9971
1.00472 1.0011 1.00678 0.99686
1.00333 1.00301 1.0036 0.996734
1.00612 1.00902 1 0.997127
1.01591 1.01865 1 0.997313
1.01003 1.01304 1.00002 0.997006
1.00506 1.0081 1 0.996984
1.00232 1.00493 1 0.997403
1.0035 1.00536 1.00107 0.997077
1.00426 1.00501 1.00244 0.99682
0.998278 1.00024 1 0.998041
0.998378 1.0004 1.00002 0.997951
0.998462 1.00038 1.00032 0.99776
0.999801 1 1.0013 0.998501
0.999504 1 1.00129 0.998219
0.999269 1.00002 1.0011 0.998153
0.999818 1 1.00049 0.999332
1.00061 1 1.00185 0.998759
1.00083 1 1.0023 0.998539
0.999995 1 1 0.999995
0.999617 1 1.00003 0.999585
0.999473 1 1.00045 0.999027
1 1 1 1
0.999999 1 1 0.999999
0.99972 1 1 0.99972
1 1 1 1
1 1 1 1
1 1 1 1
0.998847 1 1 0.998847
0.999138 1 1 0.999138
0.99892 1 1 0.99892
0.999657 1 1 0.999657
0.999204 1 1 0.999204
0.999996 1 1 0.999996
0.999705 1 1 0.999705
0.999258 1 1 0.999258
1 1 1 1
1 1 1 1
0.999765 1 1 0.999765
1 1 1 1
1 1 1 1
1 1 1 1
0.938577 0.965717 0.982476 0.989231
0.920356 0.95077 0.974879 0.992956
0.934539 0.964238 0.974495 0.994566
0.998754 1 1 0.998754
0.99896 1 1 0.99896
0.998793 1 1 0.998793
0.998822 1 1 0.998822
0.998767 1 1 0.998767
0.999046 1 1.00032 0.998725
1.00042 1 1.00181 0.99861
1.00054 1 1.00184 0.998694
0.998849 1 1 0.998849
0.99875 1 1 0.99875
0.99992 1 1.00114 0.998786
1.00095 1 1.00202 0.998938
0.843934 0.897306 0.961914 0.977758
0.940571 0.964605 0.990725 0.984212
0.926528 0.955989 0.980997 0.987956
0.846161 0.927512 0.932989 0.977815
0.899104 0.943688 0.972102 0.980098
0.958705 0.959557 1.01743 0.981998
0.940765 0.957634 0.991141 0.991166
0.955025 0.961112 1.00008 0.993592
0.787397 0.880524 0.917821 0.974305
0.954194 0.956081 1.01625 0.982067
0.852196 0.91706 0.948149 0.980088
0.945665 0.959522 0.991474 0.994033
0.946682 0.952757 1.00948 0.98429
0.824726 0.896905 0.938226 0.980068
1.0004 1 1.00081 0.999587
1.00206 1 1.0029 0.999157
1.00304 1 1.00431 0.998738
0.982181 0.965718 1.01846 0.998618
1.02193 0.998258 1.02445 0.999276
1.01182 1 1.01285 0.998987
1.01558 0.999502 1.01675 0.999344
0.992082 0.98033 1.01355 0.99846
0.999905 0.991706 1.00939 0.998892
0.88087 0.913772 0.982868 0.980796
0.941467 0.962378 0.988091 0.990062
0.932907 0.953676 0.983578 0.994555
0.999259 0.975669 1.02509 0.999115
0.929359 0.955731 0.978912 0.993354
0.936284 0.962926 0.983729 0.988415
0.939764 0.946748 1.0089 0.983867
0.839024 0.911036 0.940222 0.979509
0.835214 0.89361 0.955461 0.978221
0.975916 0.977428 1.00035 0.998105
0.863787 0.90723 0.969929 0.981632
0.844621 0.896537 0.960663 0.980669
0.930995 0.952537 0.986468 0.990792
0.937615 0.958907 0.993629 0.984064
0.964974 0.986239 0.979451 0.998966
0.860291 0.909882 0.963703 0.98111
0.952136 0.976126 0.990476 0.984803
0.942931 0.965005 0.986408 0.990589
1.01362 0.995701 1.0187 0.999301
0.990482 1.00039 0.991307 0.99878
0.985157 1.00263 0.984347 0.998198
1.00932 1.00104 1.01007 0.99822
1.00309 1.00239 1.00315 0.997563
1.00049 1.00336 0.999428 0.997719
1.00615 1.0005 1.00865 0.997019
0.999623 1.00112 1.00139 0.997113
1.01151 1.01388 1 0.997659
1.00371 1.00395 1.00302 0.996756
1.00571 1.0086 1 0.997135
1.01575 1.01807 1 0.99772
1.02125 1.02359 1 0.997717
1.01797 1.02078 1 0.997246
1.01534 1.01805 1 0.997341
1.00905 1.01187 1 0.997219
1.0092 1.01219 1 0.997048
1.00452 1.00754 1 0.997002
1.00029 1.00252 1 0.99777
1.0023 1.00475 1.00014 0.997426
1.00192 1.00342 1.00148 0.99703
0.998295 1 1 0.998295
0.998719 1.00068 1 0.998035
0.998018 1 1 0.998016
0.999492 1 1.00046 0.999036
0.999644 1 1.00114 0.998503
0.999688 1 1.00145 0.998245
0.999969 1 1 0.999969
0.999754 1 1.00043 0.999328
1.00024 1 1.00148 0.99876
1 1 1 1
0.99999 1 1 0.99999
0.999617 1 1.00004 0.999578
1 1 1 1
0.999998 1 1 0.999998
1 1 1 1
0.99881 1 1 0.99881
0.998854 1 1.00001 0.998847
0.999052 1 1 0.999052
0.999612 1 1 0.999612
0.999139 1 1 0.999139
0.998906 1 1 0.998906
0.999989 1 1 0.999989
0.999659 1 1 0.999659
0.999203 1 1 0.999203
1 1 1 1
0.999997 1 1 0.999997
0.999708 1 1 0.999708
1 1 1 1
1 1 1 1
1 1 1 1
0.869286 0.904454 0.980882 0.97985
0.936777 0.963427 0.982917 0.989238
0.921301 0.951355 0.975271 0.992964
0.998808 1 1.00007 0.998739
0.998723 1 1.00005 0.998675
0.999716 1 1.00107 0.998651
0.998836 1 1 0.998836
0.998784 1 1 0.998784
0.999203 1 1.00047 0.998732
1.0005 1 1.00181 0.998689
1.00031 1 1.0017 0.998615
1.00094 1 1.00242 0.998525
0.998435 1 0.999384 0.999051
0.999628 1 1.00085 0.998777
1.00036 1 1.00144 0.998918
0.840781 0.893226 0.960476 0.98002
0.836924 0.889701 0.962975 0.976847
0.946077 0.969281 0.991797 0.984132
0.772108 0.866783 0.91609 0.972365
0.85321 0.914819 0.951848 0.979836
0.95411 0.957949 1.01178 0.984398
0.956171 0.959028 1.00549 0.991579
0.944396 0.958916 0.992523 0.992277
0.826302 0.889825 0.948424 0.979111
0.936606 0.948524 1.0038 0.983697
0.939241 0.960721 0.984605 0.992927
0.935434 0.960495 0.990535 0.983214
1.00713 1 1.0081 0.999041
1.00002 1 1.00049 0.999526
1.00136 1 1.0022 0.99916
0.991187 0.98083 1.01207 0.998506
1.01475 1 1.01541 0.999344
1.00039 0.992642 1.00903 0.998792
0.991208 0.995786 0.997371 0.998027
0.859714 0.922644 0.949131 0.981734
0.884619 0.913969 0.986007 0.981623
0.940394 0.96115 0.987136 0.991155
0.976359 0.979903 0.998178 0.998203
0.9304 0.952176 0.985457 0.99155
0.863968 0.908494 0.968692 0.981726
0.934552 0.955824 0.994772 0.982883
0.848554 0.902466 0.958853 0.980611
0.968496 0.986751 0.983056 0.998417
0.865375 0.916676 0.962342 0.980977
0.952018 0.977133 0.990959 0.983186
0.9497 0.967074 0.989498 0.992458
0.977774 0.993739 0.985111 0.998806
0.954257 0.981719 0.987879 0.983953
0.961402 0.984295 0.982905 0.993729
0.985175 0.999635 0.986637 0.998882
0.985702 1.00349 0.984072 0.998175
0.983827 1.00673 0.979127 0.998081
1.00386 1.00275 1.00356 0.997554
0.999821 1.00347 0.998648 0.997714
1.01537 1.02022 0.997065 0.998178
0.999488 1.00068 1.00169 0.997126
1.0114 1.01379 1 0.997648
1.02084 1.02313 0.999601 0.998152
1.00514 1.00802 1 0.997142
1.0151 1.01742 1 0.997719
1.02163 1.0236 1 0.998081
1.01916 1.02124 1 0.997966
1.02166 1.02394 1 0.997764
1.02105 1.0235 1 0.997605
1.01716 1.01989 1 0.997326
1.01856 1.02136 1 0.997252
1.01485 1.01753 1 0.997369
1.00538 1.00791 1 0.997491
1.00964 1.01242 1 0.997255
1.00838 1.01132 1 0.997091
0.998508 1.00043 1 0.998077
1.00101 1.00325 1 0.997763
1.00244 1.00483 1.00017 0.997448
0.998821 1 1 0.998821
0.998293 1 1 0.998293
0.999267 1.00124 1 0.99803
0.999884 1 1 0.999884
0.999459 1 1.00042 0.999037
0.999583 1 1.00108 0.998505
1 1 1 1
0.999952 1 1 0.999952
0.999747 1 1.00042 0.999324
1 1 1 1
0.999985 1 1 0.999985
1 1 1 1
0.998745 1 1 0.998745
0.998802 1 1 0.998802
0.998957 1 1 0.998957
0.998846 1 1 0.998846
0.999051 1 1 0.999051
0.999543 1 1 0.999543
0.999982 1 1 0.999982
0.999614 1 1 0.999614
0.999139 1 1 0.999139
1 1 1 1
0.999991 1 1 0.999991
0.999662 1 1 0.999662
1 1 1 1
0.999998 1 1 0.999998
1 1 1 1
0.86794 0.913736 0.968209 0.98107
0.872186 0.909056 0.979401 0.979621
0.935332 0.961609 0.983253 0.989241
0.99874 1 1.00002 0.998724
0.999751 1 1.00115 0.998605
0.998717 1 1 0.998717
0.998377 1 1 0.998377
0.999519 1 1.00095 0.998575
1.0005 1 1.00182 0.998684
0.999923 1 1.0013 0.99862
1.00077 1 1.00222 0.998558
0.998399 1 1 0.998399
0.997254 1.00036 0.998039 0.998851
0.998613 1.00034 1.00026 0.99802
0.999312 1 1.00021 0.999102
1.00009 1 1.00119 0.998897
0.946935 0.975553 0.987062 0.983388
0.843593 0.891766 0.965116 0.980172
0.837881 0.892727 0.960848 0.976809
0.824401 0.890703 0.945448 0.978967
0.941924 0.952033 1.00735 0.982162
0.947252 0.957153 0.99546 0.994169
0.940444 0.959673 0.985746 0.994133
0.941816 0.962036 0.994166 0.984726
0.963297 0.98498 0.984735 0.993146
1.00053 1.00132 1.00098 0.998238
1.00567 1 1.00666 0.999018
0.999524 1 1.00006 0.999464
1.00112 0.994412 1.00804 0.99871
0.996741 0.999683 0.999107 0.997948
0.933567 0.973509 0.973929 0.984642
0.868823 0.921861 0.960198 0.981533
0.889541 0.91453 0.990037 0.982463
0.971671 0.988036 0.985562 0.997843
0.945061 0.962754 0.990837 0.990701
0.866281 0.914289 0.966059 0.980779
0.95089 0.973628 0.991933 0.984589
0.978472 0.993778 0.98575 0.998831
0.957363 0.985723 0.985876 0.985143
0.962272 0.984194 0.985753 0.991857
0.99684 1.00477 0.993831 0.998263
0.978076 0.995836 0.986439 0.995667
0.986299 1.0045 0.983688 0.998158
0.98532 1.00617 0.981206 0.998032
1.0049 1.02689 0.980337 0.998217
0.999403 1.00358 0.998123 0.997709
1.01481 1.01984 0.996901 0.998164
1.02229 1.03033 0.993811 0.998373
1.0114 1.0138 0.999997 0.997637
1.0206 1.02328 0.999242 0.998135
1.01988 1.02331 0.998358 0.998283
1.01464 1.01696 1 0.997719
1.02189 1.02394 0.999934 0.998065
1.02044 1.02237 1 0.998113
1.01981 1.02185 1 0.99801
1.01904 1.02128 1 0.997804
1.02203 1.02427 1 0.997812
1.02094 1.0234 1 0.997598
1.02001 1.02257 1 0.997495
1.0121 1.0147 1 0.997439
1.01701 1.01975 1 0.997317
1.0191 1.0219 1 0.997258
1.00023 1.00237 1 0.997871
1.00525 1.00775 1 0.997512
1.01017 1.01292 1 0.99729
0.998649 1 1 0.998649
0.998931 1.00086 1 0.998072
1.00141 1.00366 1 0.997757
0.999749 1 1 0.999749
0.998822 1 1 0.998822
0.998292 1 1 0.998292
1 1 1 1
0.999862 1 1 0.999862
0.999394 1 1.00036 0.999037
1 1 1 1
0.999935 1 1 0.999935
1 1 1 1
0.998846 1.00046 1 0.99839
0.998743 1 1 0.998743
0.998822 1 1 0.998822
0.99881 1 1.00001 0.998795
0.998936 1 1 0.998936
0.999416 1 1 0.999416
0.999051 1 1 0.999051
0.999545 1 1 0.999545
0.999974 1 1 0.999974
1 1 1 1
0.999984 1 1 0.999984
0.999617 1 1 0.999617
1 1 1 1
0.999993 1 1 0.999993
1 1 1 1
0.953614 0.982294 0.98508 0.985507
0.860544 0.915955 0.957167 0.981547
0.882996 0.915286 0.985047 0.979367
0.999926 1 1.00137 0.99856
0.998759 1 1 0.998759
0.999449 1 1.00087 0.998582
0.998406 1.00001 1 0.998395
1.00154 1.00352 1.00002 0.998004
0.998448 1 1 0.998448
1.00071 1 1.00213 0.998591
0.998292 1 1 0.998292
0.998257 1.00018 0.999261 0.998818
0.998454 1.00022 1 0.998235
0.999069 1.00261 0.998273 0.998194
0.99811 1.00129 0.999202 0.997622
0.998464 1.00081 0.999515 0.998144
1.00039 1 1.00124 0.999153
0.961804 0.986333 0.981696 0.993313
0.94973 0.9769 0.987851 0.984145
0.838756 0.892571 0.958343 0.980555
0.954401 0.968581 1.00251 0.98289
0.940285 0.958733 0.985688 0.994998
0.967205 0.985731 0.985761 0.995379
0.993239 1.00377 0.991313 0.998182
0.998348 1.00067 0.999398 0.998282
1.00462 1 1.00563 0.998996
0.996889 1.00112 0.997918 0.997851
0.964401 0.98126 0.989418 0.99333
0.946176 0.977311 0.981661 0.986228
0.859735 0.916787 0.95534 0.981608
0.98026 0.994623 0.986689 0.998855
0.96658 0.986361 0.986628 0.993227
0.961173 0.985815 0.988506 0.986341
0.99063 1.00385 0.988538 0.998276
0.975739 0.993569 0.986969 0.995021
0.996942 1.02352 0.975939 0.998044
1.00554 1.01524 0.992769 0.997659
0.98652 1.0055 0.983112 0.99798
1.00465 1.02622 0.980736 0.998209
1.00846 1.03452 0.976522 0.998252
1.01447 1.01979 0.996627 0.998151
1.02199 1.03017 0.993692 0.998359
1.01531 1.02449 0.992791 0.998228
1.02026 1.02335 0.998862 0.998118
1.01933 1.02293 0.998207 0.998267
1.02095 1.02449 0.998467 0.998078
1.0221 1.02424 0.999862 0.998049
1.01981 1.02181 0.999931 0.998109
1.01922 1.02142 1 0.997852
1.02049 1.02248 1 0.998054
1.01898 1.02118 1 0.99784
1.02031 1.02278 1 0.997589
1.02088 1.02335 1 0.997591
1.01991 1.02248 1 0.997487
1.01566 1.01818 1 0.997527
1.003 1.00529 1 0.997721
1.01174 1.01432 1 0.997457
1.01684 1.01959 1 0.997307
0.998475 1 1 0.998475
1.0011 1.00323 1 0.997872
1.00535 1.00784 1 0.997533
0.999603 1 1 0.999603
0.998648 1 1 0.998648
0.999391 1.00133 1 0.998068
1 1 1 1
0.999734 1 1 0.999734
0.998822 1 1 0.998822
1 1 1 1
0.99984 1 1 0.99984
1 1 1 1
1.00092 1.00286 1 0.998059
0.998627 1.00022 1 0.998403
0.998581 1 1 0.998581
0.998742 1 1 0.998742
0.9988 1 1 0.9988
0.999239 1 1 0.999239
0.998915 1 1 0.998915
0.999418 1 1 0.999418
0.999957 1 1 0.999957
0.999547 1 1 0.999547
0.999976 1 1 0.999976
1 1 1 1
1 1 1 1
0.999986 1 1 0.999986
1 1 1 1
0.963226 0.984622 0.98447 0.993703
0.949787 0.983088 0.981505 0.984331
0.85405 0.911418 0.954936 0.981276
1.00727 1.00954 1.00007 0.99768
0.999347 1 1.00076 0.998589
0.998432 1.00002 1 0.998413
0.998417 1 1 0.998417
1.00126 1.00315 1.00012 0.997994
1.00025 1.00195 1 0.998309
0.998184 1 1 0.998184
0.999109 1 1.00032 0.998785
0.9986 1.00042 0.999906 0.998275
0.997756 1.00175 0.997847 0.998166
1.00127 1.0037 1 0.997576
1.00291 1.0058 0.999544 0.997586
0.999188 1.00195 0.999663 0.997575
0.998429 1.00134 0.998827 0.998268
0.994662 1.00619 0.989854 0.998679
0.96095 0.986684 0.981367 0.992411
0.95362 0.978355 0.989353 0.985208
0.96106 0.981775 0.985044 0.993763
0.997219 1.00583 0.992874 0.998553
0.999112 1.0002 1.00059 0.998324
0.99724 1.00668 0.992889 0.997715
0.959565 0.974193 0.990334 0.994598
0.938635 0.976615 0.976005 0.984739
0.983985 1.00221 0.983506 0.998285
0.979504 0.994829 0.990326 0.994213
0.998446 1.0245 0.976443 0.998083
1.00442 1.01383 0.992908 0.997801
1.0054 1.03123 0.976863 0.998051
1.0231 1.0289 0.996399 0.997955
1.0042 1.02523 0.981257 0.998201
1.01103 1.03571 0.977878 0.99825
1.00842 1.02882 0.982044 0.998091
1.02137 1.02966 0.993591 0.998344
1.01572 1.02463 0.993068 0.998225
1.02015 1.02647 0.995867 0.997967
1.01881 1.02255 0.998091 0.998251
1.02082 1.0241 0.998699 0.998091
1.02143 1.02377 0.999933 0.997778
1.01915 1.02122 0.999868 0.998105
1.01928 1.02147 1 0.997852
1.02206 1.02452 1 0.997597
1.01887 1.02104 1 0.997876
1.02036 1.0228 1 0.997613
1.01747 1.02002 1 0.997505
1.01978 1.02235 1 0.997478
1.01548 1.01802 1 0.997506
1.00578 1.00809 1 0.997706
0.998463 1.00011 1 0.99835
1.00336 1.00562 1 0.997746
1.01133 1.01389 1 0.997476
0.999472 1 1 0.999472
0.998481 1.00001 1 0.998474
1.0019 1.00404 1 0.997872
1 1 1 1
0.999591 1 1 0.999591
0.998646 1 1 0.998646
1 1 1 1
0.999718 1 1 0.999718
1 1 1 1
1.00266 1.00493 1 0.997746
1.00038 1.00231 1 0.998064
0.998721 1.00041 1 0.998311
0.998422 1 1.00001 0.998415
0.998588 1 1 0.998588
0.999106 1 1.00007 0.999038
0.998778 1 1 0.998778
0.999239 1 1 0.999239
0.999917 1 1 0.999917
0.99942 1 1 0.99942
0.999962 1 1 0.999962
1 1 1 1
0.999979 1 1 0.999979
1 1 1 1
1 1 1 1
0.998276 1.01054 0.989209 0.998636
0.957505 0.982622 0.982352 0.991946
0.94806 0.975622 0.985742 0.985805
1.00659 1.0087 1.00001 0.997896
1.01251 1.01503 1 0.997512
1.00622 1.00838 1.00013 0.997721
0.998385 1 1 0.998385
1.00096 1.00274 1.00024 0.997981
1.00099 1.00274 1 0.998254
1.00865 1.01102 1 0.997647
0.998662 1.00058 0.999764 0.998315
0.996383 1.00077 0.997476 0.998137
1.00202 1.00449 0.999906 0.997639
1.01078 1.0135 1 0.997323
1.0105 1.0179 0.994816 0.9979
1.00312 1.00621 0.999364 0.99756
0.999942 1.00262 0.999796 0.997528
0.998866 1.00847 0.991665 0.998803
0.96342 0.987077 0.98454 0.99136
0.997582 1.00706 0.991645 0.998934
1.01437 1.02292 0.993112 0.998519
0.996245 1.00539 0.993088 0.9978
0.95948 0.978915 0.987191 0.992864
1.00056 1.02573 0.977297 0.998121
1.00257 1.01267 0.992056 0.997949
1.00469 1.0313 0.976027 0.998118
1.02482 1.03101 0.996023 0.997964
1.0203 1.03409 0.988678 0.997963
1.03642 1.04333 0.995301 0.998074
1.01378 1.03747 0.978888 0.998248
1.0099 1.02854 0.983754 0.998094
1.02319 1.03312 0.992501 0.997873
1.01622 1.02484 0.993357 0.998222
1.02038 1.02603 0.996523 0.997964
1.02521 1.02834 0.999221 0.997735
1.02066 1.02369 0.99893 0.998104
1.02174 1.02405 0.999974 0.997776
1.02466 1.02719 1 0.997542
1.01933 1.02153 1 0.997852
1.02192 1.02438 1 0.997598
1.01975 1.02234 1 0.997462
1.02041 1.02283 1 0.997636
1.01728 1.01982 1 0.997512
1.00716 1.00953 1 0.997652
1.01533 1.01789 1 0.997485
1.00567 1.008 1 0.997695
0.998758 1.00048 1 0.998275
0.999394 1 1 0.999394
0.998537 1.00019 1 0.998349
1.00374 1.00599 1 0.997772
1 1 1 1
0.999461 1 1 0.999461
0.99849 1.00002 1 0.998474
1 1 1 1
0.999578 1 1 0.999578
1 1 1 1
1.00545 1.00795 1 0.997521
1.00271 1.005 1 0.997719
1.00015 1.00214 1 0.998021
0.999811 1.00175 1 0.99807
0.998602 1.00029 1 0.998316
0.998816 1 1 0.998816
0.998595 1 1 0.998595
0.999151 1 1.00011 0.999039
0.999831 1 1 0.999831
0.999239 1 1 0.999239
0.999929 1 1 0.999929
1 1 1 1
0.999968 1 1 0.999968
1 1 1 1
1 1 1 1
1.01005 1.02306 0.988914 0.998351
0.995423 1.00952 0.987761 0.998253
0.955476 0.983418 0.978682 0.992751
1.015 1.01746 1 0.997584
1.00657 1.00853 1 0.998058
1.02339 1.02602 1 0.997434
1.01275 1.01529 1 0.997498
1.0053 1.00737 1.00018 0.997765
1.0216 1.02434 1 0.997325
1.00177 1.00357 1 0.998199
1.00774 1.01017 1 0.997589
1.02676 1.03056 0.9988 0.997506
1.00267 1.00513 0.99985 0.997702
1.01185 1.0146 0.999999 0.997291
1.01033 1.01747 0.995049 0.997916
1.00286 1.00585 0.999488 0.997531
1.00281 1.01034 0.993618 0.998929
1.02909 1.0387 0.992587 0.998146
1.01425 1.0229 0.993008 0.998523
0.996306 1.00409 0.994356 0.99788
1.00413 1.03095 0.975757 0.998186
1.02541 1.03229 0.995351 0.997973
1.01894 1.03434 0.987105 0.997979
1.03648 1.04426 0.994466 0.998075
1.03336 1.04282 0.992935 0.997973
1.01115 1.02804 0.985447 0.998098
1.02302 1.03266 0.992767 0.997881
1.02865 1.03473 0.996371 0.997745
1.02059 1.02562 0.997137 0.997961
1.02485 1.02776 0.999455 0.997717
1.02687 1.02945 1 0.997486
1.02214 1.02442 1 0.997775
1.02441 1.02694 1 0.99754
1.02275 1.02542 1 0.997395
1.0218 1.02426 1 0.997599
1.01973 1.02232 1 0.997464
1.00893 1.01139 1 0.997566
1.01709 1.01962 1 0.997518
1.00731 1.00968 1 0.997655
0.999212 1.00102 1 0.998199
1.00555 1.00788 1 0.997684
0.998893 1.00062 1 0.998273
0.999462 1 1 0.999462
0.999834 1 1 0.999834
0.999429 1 1 0.999429
0.99861 1.00026 1 0.998348
1 1 1 1
0.99945 1 1 0.99945
1 1 1 1
1.0297 1.0323 1 0.997482
1.01551 1.01807 1 0.997488
1.0063 1.00881 1 0.997507
1.00331 1.00549 1 0.997833
1.00267 1.00499 1 0.997693
0.999567 1.00155 1 0.998024
0.998603 1 1 0.998603
0.998495 1.00017 1 0.998321
0.998873 1 1.00005 0.99882
0.999688 1 1 0.999688
0.999078 1 1.00004 0.99904
0.99985 1 1 0.99985
1 1 1 1
0.999942 1 1 0.999942
1 1 1 1
1 1 1 1
1.02958 1.03741 0.994535 0.997899
1.01354 1.02639 0.989027 0.998434
0.993106 1.00962 0.985743 0.997872
1.02457 1.02727 1 0.997371
1.01442 1.01681 1 0.997652
1.00641 1.00821 1 0.998217
1.02299 1.0256 1 0.997453
1.01299 1.01554 1 0.997484
1.0321 1.03509 0.999616 0.997487
1.01931 1.02208 1 0.997286
1.00696 1.00945 1 0.99753
1.02613 1.02979 0.998946 0.9975
1.01388 1.01667 1 0.997258
1.01222 1.01941 0.995002 0.997936
1.03538 1.04352 0.994123 0.998063
1.03098 1.03996 0.993194 0.99816
1.01475 1.02293 0.99346 0.998529
1.0184 1.03539 0.985564 0.997994
1.03735 1.04574 0.993884 0.998077
1.03352 1.04362 0.992314 0.997985
1.03176 1.03834 0.995842 0.997812
1.02271 1.03209 0.993011 0.997889
1.02827 1.03399 0.996721 0.997736
1.02923 1.03189 0.999933 0.997492
1.02447 1.02713 0.999712 0.997699
1.02748 1.03007 1 0.997486
1.02581 1.02855 1 0.997337
1.02411 1.02664 1 0.997539
1.02284 1.02552 1 0.997396
1.01082 1.01338 1 0.997473
1.01971 1.0223 1 0.997466
1.00916 1.01162 1 0.997568
0.999662 1.00156 1 0.9981
1.00745 1.00982 1 0.997657
0.999352 1.00116 1 0.998197
0.999461 1 1 0.999461
0.999025 1.00076 1 0.998271
0.999458 1 1 0.999458
0.999845 1 1 0.999845
0.999919 1 1 0.999919
0.999466 1 1 0.999466
1 1 1 1
1.02863 1.03134 1 0.997373
1.02103 1.02357 1 0.997514
1.02946 1.03196 1 0.997583
1.00667 1.00898 1 0.997709
1.017 1.01956 1 0.997479
1.00723 1.00977 1 0.997493
1.00231 1.00449 1 0.997831
0.998831 1.00041 1 0.998424
0.99901 1.00098 1 0.998027
0.998604 1 1 0.998604
0.999531 1 1 0.999531
0.999046 1 1.00022 0.998823
0.999706 1 1 0.999706
1 1 1 1
0.999869 1 1 0.999869
1 1 1 1
1 1 1 1
1.03409 1.03933 0.997173 0.997782
1.02939 1.03717 0.994589 0.997896
1.01531 1.02825 0.988894 0.998512
1.03181 1.03448 1 0.997413
1.02352 1.02622 1 0.997374
1.01398 1.0163 1 0.997721
1.02246 1.02505 1 0.997473
1.03172 1.03475 0.999603 0.997466
1.01702 1.01983 1 0.997247
1.02404 1.02753 0.999107 0.997494
1.03385 1.03992 0.996276 0.997873
1.03479 1.0426 0.994467 0.998025
1.03285 1.04129 0.993715 0.998173
1.03206 1.03677 0.997751 0.997698
1.03351 1.04423 0.991727 0.997997
1.0315 1.03811 0.995822 0.997799
1.0308 1.03372 0.999591 0.997578
1.02795 1.0333 0.997088 0.997726
1.03033 1.03305 0.999871 0.997494
1.02704 1.02981 1 0.997311
1.02808 1.03067 1 0.997486
1.02553 1.02827 1 0.997338
1.01257 1.01522 1 0.997397
1.0229 1.02557 1 0.997396
1.01108 1.01364 1 0.997474
1.00009 1.00209 1 0.998
1.00938 1.01183 1 0.997569
0.999807 1.00171 1 0.998099
0.999439 1 1 0.999439
0.999498 1.00131 1 0.998195
0.999454 1 1 0.999454
0.999848 1 1 0.999848
0.999455 1 1 0.999455
0.999847 1 1 0.999847
1 1 1 1
1.02925 1.03206 1 0.997275
1.02268 1.02538 1 0.997369
1.0293 1.03199 1 0.99739
1.00873 1.01106 1 0.997689
1.02131 1.02385 1 0.997521
1.02931 1.0317 1 0.997684
0.999532 1.00126 1 0.99827
1.00628 1.00859 1 0.997703
1.01859 1.02117 1 0.997471
1.0012 1.00338 1 0.99783
0.998654 1.00023 1 0.998426
0.999418 1 1 0.999418
0.998606 1 1 0.998606
0.999544 1 1 0.999544
1 1 1 1
0.999725 1 1 0.999725
1 1 1 1
1 1 1 1
1.03409 1.03748 0.999091 0.997637
1.03402 1.03967 0.996793 0.997767
1.02985 1.0376 0.994634 0.997892
1.03127 1.03393 1 0.997422
1.0224 1.02509 1 0.997376
1.03121 1.03428 0.999586 0.997445
1.03241 1.03635 0.99849 0.997703
1.03401 1.03994 0.996425 0.997866
1.03415 1.04166 0.994793 0.997987
1.03269 1.03735 0.997782 0.997718
1.03144 1.03422 0.99979 0.997524
1.03124 1.0379 0.995789 0.997787
1.03122 1.03408 0.999695 0.997543
1.02677 1.02949 1 0.99736
1.03137 1.03415 0.999811 0.997497
1.02665 1.02941 1 0.997314
1.01394 1.01665 1 0.997339
1.02538 1.02811 1 0.997339
1.01295 1.01559 1 0.997398
1.00044 1.00252 1 0.997922
1.01142 1.01398 1 0.997475
1.00022 1.00222 1 0.997999
0.999393 1 1 0.999393
0.999958 1.00186 1 0.998097
0.999428 1 1 0.999428
0.999834 1 1 0.999834
0.999449 1 1 0.999449
0.999856 1 1 0.999856
0.999847 1 1 0.999847
1.03099 1.03361 1 0.997467
1.02492 1.02776 1 0.99724
1.02966 1.03246 1 0.997291
1.01127 1.01376 1 0.997541
1.02233 1.02502 1 0.997371
1.02992 1.0326 1 0.997407
1.00006 1.00191 1 0.998155
1.00875 1.01113 1 0.997644
1.02145 1.02398 1 0.997529
0.999361 1 1 0.999361
0.999285 1.00101 1 0.998273
1.00594 1.00826 1 0.997698
0.998489 1.00006 1 0.998427
0.999428 1 1 0.999428
1 1 1 1
0.999557 1 1 0.999557
1 1 1 1
1 1 1 1
1.03105 1.03413 0.999413 0.997605
1.03322 1.03691 0.998806 0.997634
1.034 1.04005 0.996424 0.997752
1.03071 1.03336 1 0.99743
1.0312 1.03381 0.999989 0.997487
1.0332 1.03732 0.998319 0.997713
1.03413 1.03989 0.996592 0.997858
1.03334 1.03797 0.997797 0.997737
1.03071 1.03372 0.999556 0.997535
1.02658 1.02929 1 0.99737
1.03175 1.03455 0.999786 0.997509
1.0265 1.02924 1 0.997339
1.01476 1.01749 1 0.997319
1.02623 1.02899 1 0.997317
1.01414 1.01684 1 0.997341
1.00057 1.00272 1 0.997854
1.01319 1.01583 1 0.997399
1.00048 1.00256 1 0.997922
0.999253 1 1 0.999253
1.00032 1.00232 1 0.997999
0.999341 1 1 0.999341
1 1 1 1
0.999418 1 1 0.999418
0.999846 1 1 0.999846
0.99986 1 1 0.99986
1.02953 1.03208 1 0.99753
1.02594 1.0287 1 0.997313
1.03058 1.0332 1 0.997463
1.01379 1.01647 1 0.99736
1.0249 1.02771 1 0.997262
1.03016 1.03294 1 0.997307
1.00056 1.0026 1 0.997966
1.01137 1.01386 1 0.99754
1.02205 1.02475 1 0.997373
0.999338 1 1 0.999338
0.999887 1.00178 1 0.998113
1.0088 1.01122 1 0.997599
1 1 1 1
0.999371 1 1 0.999371
0.999017 1.00074 1 0.998276
0.999438 1 1 0.999438
1 1 1 1
1 1 1 1
1.02961 1.03219 1 0.997499
1.03154 1.03458 0.99945 0.997612
1.03234 1.03633 0.998515 0.99763
1.02739 1.03016 1 0.997316
1.0302 1.03282 0.999966 0.997495
1.03394 1.03823 0.998148 0.997723
1.02999 1.0332 0.999344 0.997546
1.0266 1.0293 1 0.99737
1.01429 1.01696 1 0.997374
1.02614 1.0289 1 0.997319
1.0147 1.0174 1 0.997347
1.00064 1.00292 1 0.997725
1.0144 1.01711 1 0.997344
1.00065 1.0028 1 0.997855
0.999201 1 1 0.999201
1.00057 1.00265 1 0.997922
0.99925 1 1 0.99925
1 1 1 1
0.999281 1 1 0.999281
0.999911 1 1 0.999911
0.999856 1 1 0.999856
1.0272 1.02979 1 0.997488
1.02616 1.02887 1 0.997361
1.02932 1.03187 1 0.997533
1.01478 1.01746 1 0.997363
1.02647 1.02925 1 0.997304
1.03018 1.03281 1 0.997459
1.00119 1.00334 1 0.99786
1.01373 1.01637 1 0.997403
1.02482 1.02761 1 0.997283
0.999311 1 1 0.999311
1.00053 1.00259 1 0.997952
1.01146 1.01395 1 0.997539
1 1 1 1
0.999347 1 1 0.999347
0.999725 1.00166 1 0.99807
1 1 1 1
0.999382 1 1 0.999382
1 1 1 1
1.02793 1.03065 1 0.99736
1.02901 1.0316 1 0.997489
1.03211 1.03511 0.999479 0.99762
1.01339 1.01607 1 0.997362
1.02743 1.03018 1 0.997333
1.02928 1.03192 0.999939 0.997503
1.02661 1.02932 1 0.997371
1.01434 1.01701 1 0.997374
1.00022 1.00254 1 0.997689
1.01467 1.01734 1 0.997374
1.00065 1.00289 1 0.99776
0.999137 1 1 0.999137
1.00068 1.00283 1 0.997856
0.999198 1 1 0.999198
1 1 1 1
0.999247 1 1 0.999247
1 1 1 1
0.999839 1 1 0.999839
1.02659 1.02928 1 0.997383
1.02717 1.02975 1 0.997502
1.0144 1.01707 1 0.997376
1.02628 1.02899 1 0.99736
1.0291 1.03164 1 0.997537
1.00113 1.00326 1 0.997883
1.01458 1.01727 1 0.99736
1.02699 1.02977 1 0.997295
0.999265 1 1 0.999265
1.00125 1.00337 1 0.997889
1.01366 1.01626 1 0.997446
1 1 1 1
0.999317 1 1 0.999317
1.0005 1.00257 1 0.997937
1 1 1 1
0.999355 1 1 0.999355
1 1 1 1
1.01328 1.01592 1 0.997398
1.02784 1.03056 1 0.997352
1.02831 1.03091 1 0.997479
0.99945 1.00176 1 0.997692
1.01343 1.01611 1 0.997362
1.02746 1.03019 1 0.99735
1.01439 1.01706 1 0.997373
1.00022 1.00254 1 0.997691
0.99909 1 1 0.99909
1.00068 1.00289 1 0.997795
0.999133 1 1 0.999133
1 1 1 1
0.999194 1 1 0.999194
1 1 1 1
1 1 1 1
1.01379 1.01646 1 0.997375
1.02627 1.02894 1 0.997399
1.02715 1.0297 1 0.997517
1.00059 1.00273 1 0.997861
1.01437 1.01705 1 0.997373
1.02637 1.02908 1 0.997359
0.999216 1 1 0.999216
1.00123 1.00336 1 0.997881
1.01443 1.01712 1 0.997357
1 1 1 1
0.999269 1 1 0.999269
1.00132 1.00341 1 0.997918
1 1 1 1
0.999323 1 1 0.999323
1 1 1 1
0.999183 1.0014 1 0.997783
1.01319 1.01587 1 0.997362
1.02777 1.03051 1 0.997345
0.999089 1 1 0.999089
0.999481 1.00179 1 0.997691
1.01348 1.01616 1 0.997362
1.00022 1.00253 1 0.997694
0.999089 1 1 0.999089
1 1 1 1
0.99913 1 1 0.99913
1 1 1 1
1 1 1 1
0.999732 1.00191 1 0.997827
1.01355 1.01622 1 0.997374
1.02599 1.02865 1 0.997415
0.999297 1 1 0.999297
1.00078 1.00293 1 0.997859
1.01436 1.01703 1 0.997371
1 1 1 1
0.999217 1 1 0.999217
1.00131 1.00344 1 0.997879
1 1 1 1
0.999273 1 1 0.999273
1 1 1 1
0.999089 1 1 0.999089
0.99929 1.00154 1 0.997751
1.01311 1.01583 1 0.997325
1 1 1 1
0.999088 1 1 0.999088
0.999508 1.00182 1 0.997689
0.999088 1 1 0.999088
1 1 1 1
1 1 1 1
0.999249 1 1 0.999249
0.999996 1.00217 1 0.997827
1.01328 1.01595 1 0.997373
1 1 1 1
0.999177 1 1 0.999177
1.00099 1.00313 1 0.997857
1 1 1 1
0.999219 1 1 0.999219
1 1 1 1
0.999758 1 1 0.999758
0.99917 1 1 0.99917
0.999388 1.00167 1 0.99772
1 1 1 1
0.999089 1 1 0.999089
1 1 1 1
0.999775 1 1 0.999775
0.999198 1 1 0.999198
1.00027 1.00245 1 0.997827
0.999891 1 1 0.999891
0.999176 1 1 0.999176
1 1 1 1
1 1 1 1
0.999111 1 1 0.999111
1 1 1 1
0.999884 1 1 0.999884
0.999141 1 1 0.999141
1 1 1 1
1 1 1 1
1 1 1 1

VECTORS lamdaE float
1.00036 1.00014 0.994875
1.00015 1.00046 0.997551
1.00003 1.00035 0.995073
1.00062 0.999942 0.994697
1.00046 0.999948 0.994941
1.00031 1.00033 0.994726
1.00164 1.00048 0.99202
1.00018 1.00037 0.997552
1.00007 1.00021 0.997864
0.999654 1.00075 0.9979
1.00017 1.00039 0.994897
1.00144 1.00123 0.990997
1.00043 1.00001 0.994808
1.00015 0.999995 0.995043
0.999723 1.00058 0.995243
1.00037 0.99992 0.994941
0.999953 1.00065 0.994901
1.00018 1.00002 0.995153
1.00181 1.00031 0.991935
1.00043 1 0.997481
1.00063 0.999999 0.994608
1.00056 0.999886 0.994855
1.00196 1.00001 0.991942
1.00181 1.00011 0.992098
1.00031 1.00032 0.994676
1.00141 1.00101 0.991852
1.00435 1.00026 0.987648
1.00018 1.00031 0.997569
1.00023 1.0001 0.996359
0.999907 1.00057 0.99637
1.00016 1.00018 0.997644
1.00134 1.00137 0.990996
1.00051 0.999846 0.994784
1.00023 1.00037 0.994846
1.00208 1.00016 0.992336
0.999651 0.999654 0.998297
1.00175 1.00084 0.992305
1.0011 1.0017 0.991083
1.0035 1.00166 0.986987
0.999736 0.998555 0.998654
1.00044 1.00001 0.997463
1.00032 1.00001 0.996249
1.0004 0.999992 0.997484
1.00008 1.00004 0.995127
1.00206 1.00001 0.991156
1.00024 0.999966 0.997776
1.00224 1.0001 0.992162
1.00013 0.999859 0.995186
0.999919 1.00008 0.995351
0.999606 1.001 0.99506
1.00197 1.00013 0.991863
1.0003 1.00002 0.996276
1.00037 1 0.994858
0.999942 1.0007 0.994839
1.00031 0.999871 0.995083
1.00207 0.99997 0.991838
1.00162 1.0008 0.991771
1.00194 1.00001 0.99201
1.00434 1.00028 0.987644
1.00038 1 0.997499
1.00055 1.00003 0.994686
1.00188 1 0.992692
1.00197 1.00004 0.991895
1.00192 0.999978 0.992047
1.00445 0.999972 0.987656
1.00442 0.999978 0.987544
1.0001 0.999903 0.995169
1.00093 1.00176 0.991843
1.00412 1.00072 0.987574
1.00518 1.00008 0.985636
1.00042 1.00013 0.997532
1.00004 0.999962 0.99784
1.00016 1.00041 0.997552
1.00127 1.00147 0.990988
1.00054 0.999976 0.997489
1.00031 1.00032 0.997546
1.00197 1.00011 0.991116
0.999786 0.999716 0.996983
1.00152 1.00091 0.991108
1.001 1.00176 0.991909
1.00357 1.00155 0.986971
0.999902 0.999039 0.998323
0.999795 1.0006 0.994566
1.00216 0.99999 0.990971
1.0019 1.00038 0.991072
1.00447 1.00022 0.986724
1.00057 1.0017 0.993392
1.00392 1.00093 0.987001
1.00256 1.00327 0.98704
1.00477 1.00132 0.985097
0.999639 0.998081 0.998925
0.999644 0.998458 0.998769
1.00053 0.999994 0.997441
1.00047 1 0.997459
1.00043 0.999995 0.997485
1.00028 1.00001 0.996297
1.00209 1 0.991799
1.00038 0.999975 0.996251
1.00217 1.00011 0.991558
1.00042 0.999991 0.997493
1.00197 0.999934 0.991344
1.00219 1.00009 0.992267
1.00449 0.999663 0.987303
1.00221 1.00002 0.992226
1.00454 0.999874 0.987002
1.0004 1.00001 0.994852
1.0001 1 0.995113
0.999575 1.0011 0.995006
1.00007 0.999833 0.995309
1.00217 0.999972 0.991734
1.00207 0.999925 0.99193
1.00182 1.00054 0.991698
1.00432 1.0003 0.98764
1.00042 0.999995 0.997495
1.00029 1.00003 0.994937
1.00201 0.999977 0.991608
1.00207 1.00002 0.991781
0.99997 1.00022 0.996433
1.00121 1.0016 0.991986
1.00203 0.999926 0.991954
1.00447 0.999947 0.987592
1.0041 1.00076 0.987575
1.00442 1.00005 0.987599
1.00516 1.00009 0.98566
1.00195 0.999965 0.991362
1.0019 1.00002 0.992003
1.00441 0.999635 0.987899
1.00446 0.999855 0.9876
1.00445 0.999892 0.987559
1.00522 0.999543 0.986383
0.999792 0.999644 0.998174
1.0052 0.999865 0.985826
1.00043 1.00225 0.991539
1.0035 1.00159 0.98704
1.0051 1.00045 0.985473
1.00522 0.999735 0.985882
0.999936 1.00162 0.993111
1.00029 1.00458 0.989675
1.00052 1 0.997509
1.00026 1.00031 0.997553
1.00198 1.00009 0.991109
0.999875 0.999402 0.998218
1.00072 1.00205 0.991311
1.00148 1.00095 0.991117
1.00365 1.00145 0.986957
0.999797 0.998961 0.998448
0.999766 1.00052 0.994622
1.00217 1.00002 0.991636
1.00189 1.00041 0.991718
1.00447 1.00023 0.986717
1.00031 1.00179 0.992432
1.00393 1.00091 0.987007
1.0026 1.00321 0.987027
1.00476 1.00125 0.985087
1.00002 1.00128 0.993503
0.999779 0.999773 0.995405
1.00034 1.0038 0.990552
1.00454 1.00009 0.986758
1.00428 1.00048 0.986795
1.00517 1.00011 0.985624
1.00158 1.00425 0.987838
1.00486 1.00074 0.985396
1.00419 1.00268 0.98496
1.00511 1.00114 0.984819
0.999647 0.997745 0.999062
0.999603 0.998009 0.998984
0.99958 0.998338 0.998866
0.999844 1.0011 0.9938
0.999713 0.999243 0.998397
1.00056 0.999977 0.997462
1.00048 1 0.997444
1.00207 1.00013 0.990969
1.002 1 0.99122
1.0004 0.999998 0.997485
1.00039 0.999994 0.997491
1.00196 0.999942 0.99134
1.00212 1.00008 0.991661
1.00448 0.999663 0.987304
1.00211 1.00005 0.990958
1.00453 0.999872 0.986996
1.00194 0.999933 0.991378
1.00446 0.999602 0.987401
1.00451 0.999754 0.987166
1.00522 0.998785 0.986991
1.00456 0.999986 0.986851
1.00523 0.99922 0.986525
1.00039 0.999993 0.997489
1.00003 1.00004 0.995188
1.00202 0.999971 0.990632
1.00218 1.00002 0.991664
0.999544 1.00055 0.998004
1.00156 1.00132 0.992128
1.00214 0.999898 0.991862
1.00449 0.999906 0.987527
1.00442 1.00012 0.987654
1.00408 1.00082 0.987576
1.00514 1.0001 0.985684
1.00194 0.999951 0.991363
1.00202 1.00002 0.991883
1.00444 0.999615 0.987582
1.00448 0.999901 0.987623
0.999853 0.999733 0.998077
1.00067 1.00202 0.992174
1.0034 1.00182 0.987298
1.00446 0.999925 0.987533
1.00522 0.999393 0.986446
1.00506 1.00047 0.985451
1.00519 0.99991 0.985923
1.00523 0.999725 0.985912
0.999999 1.00161 0.993094
1.00038 1.00441 0.989694
1.00442 0.999624 0.987432
1.00443 0.999768 0.987753
1.00522 0.998987 0.986947
1.00521 0.999075 0.986703
1.00521 0.99956 0.986332
1.00523 0.998314 0.987424
1.00013 1.00203 0.992334
1.00522 0.999116 0.98653
1.00226 1.00337 0.987372
1.00485 1.00106 0.985088
1.00523 1.00047 0.985328
1.00517 0.998739 0.987071
1.00075 1.00458 0.988891
1.00022 1.00386 0.990538
1.00111 1.00473 0.988334
1.00208 1.00001 0.991043
0.999689 0.998861 0.998579
0.99975 1.0004 0.994677
1.00175 1.00045 0.991134
1.00446 1.00023 0.986708
1.0002 1.00189 0.992344
1.00261 1.00315 0.987014
1.00394 1.00089 0.987012
1.00474 1.00118 0.985076
0.999972 1.00124 0.993531
0.999787 0.999646 0.995448
1.00017 1.00389 0.990545
1.00453 1.00011 0.986745
1.00429 1.00048 0.986796
1.00519 1.00012 0.985606
1.0015 1.00432 0.987863
1.00492 1.00074 0.985401
1.00413 1.00265 0.984947
1.00509 1.00102 0.984792
0.999882 0.999108 0.995848
1.00095 1.00412 0.989074
1.0001 1.00267 0.99198
1.00061 1.00474 0.98914
1.00521 0.999804 0.985909
1.00507 1.0004 0.985458
1.0052 0.999425 0.986276
1.00284 1.00404 0.986082
1.00516 1.00043 0.985392
1.00467 1.002 0.98456
1.00523 1.0009 0.984684
1.00028 1.00053 0.993772
1.00011 0.998455 0.996081
0.999711 0.997505 0.999107
0.999637 0.997704 0.999078
0.999578 0.997941 0.999026
0.999844 1.00046 0.994477
0.99967 0.998823 0.998592
0.999882 1.00115 0.993773
0.999781 0.999298 0.99832
1.00211 1.00008 0.990954
1.00205 1.00006 0.991076
1.00453 0.999871 0.986991
1.00447 0.999664 0.987306
1.00197 0.999952 0.99134
1.00043 0.999993 0.997487
1.00195 0.999935 0.991379
1.00445 0.999609 0.987402
1.0045 0.999759 0.987163
1.00521 0.998795 0.986988
1.00455 0.999995 0.986838
1.00523 0.999223 0.986512
1.00443 0.999605 0.987438
1.00522 0.998678 0.987098
1.00522 0.998975 0.986795
1.00521 0.997111 0.988722
1.00523 0.999499 0.986215
1.00522 0.997872 0.987908
1.00195 0.99994 0.991367
1.00213 0.999994 0.991763
1.00446 0.999582 0.987266
1.0045 0.99994 0.987647
0.999938 0.999837 0.997965
1.00093 1.00189 0.992674
1.0034 1.00198 0.987554
1.00447 0.999947 0.987507
1.00522 0.999238 0.986508
1.00518 0.999956 0.98602
1.00503 1.00049 0.98543
1.00523 0.999713 0.985942
1.00006 1.00159 0.993077
1.00046 1.00427 0.98971
1.00443 0.99956 0.987408
1.00446 0.999751 0.987736
1.00522 0.998849 0.987106
1.00521 0.999233 0.986612
1.00021 1.002 0.992321
1.00234 1.00334 0.987377
1.00482 1.00112 0.985134
1.00521 0.999655 0.98625
1.00523 0.998112 0.987659
1.00523 1.00044 0.985347
1.00522 0.99911 0.986549
1.00518 0.99869 0.987059
1.00085 1.00443 0.988886
1.00095 1.00465 0.988354
1.00026 1.00378 0.99054
1.00521 0.998849 0.987081
1.00521 0.998939 0.987027
1.00522 0.997319 0.988449
1.00521 0.997804 0.987945
1.00521 0.998404 0.987247
1.00517 0.996643 0.989084
1.00135 1.00427 0.988133
1.00518 0.997741 0.987856
1.00388 1.00264 0.985403
1.00519 1.00122 0.984408
1.0052 0.999954 0.985808
1.00512 0.997819 0.988
1.0002 1.00299 0.991439
1.00161 1.0041 0.987879
1.0005 1.00503 0.98874
1.00193 1.00383 0.987958
1.00452 1.00012 0.986731
0.999796 0.999542 0.99549
0.999904 1.00123 0.993558
1.00004 1.00402 0.99054
1.0043 1.00046 0.986796
1.0052 1.00012 0.985587
1.00141 1.00439 0.98789
1.00409 1.00266 0.984933
1.00499 1.00075 0.985405
1.00506 1.0009 0.984764
0.999899 0.999033 0.99587
1.00083 1.00429 0.989089
1.00006 1.00265 0.992006
1.00047 1.00491 0.9891
1.00521 0.999813 0.985894
1.00511 1.00039 0.985434
1.00519 0.999425 0.986267
1.00275 1.00398 0.986107
1.00518 1.00049 0.985362
1.00479 1.00179 0.98457
1.00524 1.00092 0.984676
1.00003 0.99867 0.996015
1.00024 1.00149 0.992913
1.0015 1.00448 0.987871
1.00028 1.00433 0.990236
1.00123 1.0042 0.988694
1.0052 0.998925 0.986807
1.00518 0.999922 0.985754
1.00514 0.998561 0.987118
1.00354 1.00297 0.985576
1.00518 1.00007 0.985695
1.00459 1.00184 0.984368
1.0003 1.0006 0.993669
1.00028 1.00192 0.992433
1.00022 1.00057 0.993852
1.00027 1.00054 0.99377
1.00014 0.998278 0.996719
1.0001 0.998438 0.996382
0.999869 0.997315 0.997947
0.999718 0.997467 0.99911
0.999633 0.997656 0.999092
0.999836 0.999824 0.995147
0.999663 0.998392 0.998793
0.999851 1.00053 0.994455
0.999728 0.998901 0.998524
0.999934 1.00116 0.993746
0.999838 0.999361 0.998242
1.00454 1 0.986825
1.0045 0.999762 0.987161
1.00523 0.99924 0.986499
1.00521 0.998804 0.986986
1.00444 0.999616 0.987402
1.00194 0.999935 0.991377
1.00443 0.999605 0.987439
1.00522 0.998681 0.987097
1.00521 0.99899 0.986786
1.00521 0.996951 0.988875
1.00523 0.999509 0.986203
1.00522 0.997886 0.98789
1.00522 0.998661 0.987115
1.00522 0.996688 0.989182
1.00521 0.997388 0.988421
1.00515 0.995622 0.990195
1.00521 0.998425 0.987344
1.0052 0.996201 0.989363
1.00444 0.999499 0.987385
1.00448 0.999747 0.987719
1.00522 0.998726 0.987265
1.00521 0.999392 0.986521
1.00033 1.00196 0.992308
1.0023 1.00334 0.987384
1.00478 1.00118 0.985181
1.00521 0.99975 0.986167
1.00522 0.997909 0.987893
1.00522 0.999104 0.986568
1.00523 1.0004 0.985366
1.00518 0.998642 0.987046
1.00096 1.00427 0.988878
1.00092 1.0046 0.988374
1.0003 1.00366 0.990545
1.00522 0.99879 0.987077
1.00522 0.99894 0.987019
1.00522 0.997068 0.988741
1.00521 0.997908 0.987844
1.0014 1.00423 0.988106
1.0039 1.00262 0.985404
1.00516 1.0013 0.984422
1.00522 0.998608 0.987048
1.00518 0.996433 0.989295
1.00519 0.999951 0.985735
1.00518 0.997759 0.987865
1.00513 0.997691 0.988124
1.00173 1.00405 0.987865
1.00186 1.00387 0.987935
1.00023 1.00294 0.991429
1.00042 1.00495 0.988842
1.00522 0.996975 0.988855
1.00522 0.997521 0.988327
1.00517 0.995805 0.98999
1.00518 0.995793 0.989836
1.00516 0.99695 0.988685
1.00515 0.99578 0.990005
1.00269 1.00357 0.986612
1.00513 0.996379 0.989097
1.00464 1.00238 0.984304
1.00516 1.00134 0.984341
1.00517 0.99946 0.986095
1.00514 0.997442 0.988303
1.00014 1.00216 0.992314
1.00024 1.00468 0.989522
1.00247 1.0033 0.987234
1.00078 1.00504 0.988426
1.00229 1.00305 0.98818
0.999909 0.99897 0.995891
1.00521 0.999821 0.985879
1.00003 1.0026 0.992032
1.00068 1.00448 0.989101
1.00035 1.005 0.98906
1.00515 1.00038 0.98541
1.00519 0.999425 0.986257
1.00279 1.00377 0.986133
1.00494 1.00158 0.984583
1.00519 1.00054 0.985332
1.00525 1.00096 0.984668
1.00004 0.998648 0.996027
1.0002 1.00151 0.992939
1.00151 1.00439 0.987889
1.00013 1.00433 0.990226
1.00104 1.00415 0.988711
1.0052 0.998918 0.986795
1.00519 0.999919 0.985734
1.00514 0.998533 0.98709
1.00362 1.00294 0.985596
1.0052 1.0001 0.985562
1.00489 1.00178 0.984339
1.0003 1.00087 0.993425
1.00024 1.00312 0.991424
1.00228 1.00333 0.987596
1.00043 1.00492 0.989494
1.00158 1.00307 0.989189
1.00516 0.997861 0.987817
1.00514 0.99923 0.986392
1.00512 0.997833 0.987491
1.0035 1.00212 0.986243
1.00497 1.00101 0.984748
1.0003 1.0006 0.993665
1.00028 1.00187 0.99239
1.0002 1.002 0.99239
1.00031 1.00253 0.991914
1.00021 1.00201 0.992451
1.00014 1.00064 0.993888
1.00021 1.00056 0.993852
1.00015 0.998228 0.996747
1.00026 1.00056 0.993767
1.00014 0.998304 0.996723
0.999961 0.997095 0.997977
1.0001 0.998437 0.996679
0.999831 0.997276 0.998536
0.999727 0.997413 0.999113
0.999879 0.999181 0.995721
0.999831 0.999892 0.995118
0.999652 0.997973 0.998968
0.999699 0.998482 0.998717
0.999855 1.00061 0.994433
0.999787 0.998956 0.998451
1.00522 0.999518 0.986192
1.00521 0.998992 0.986777
1.00522 0.997893 0.987873
1.00521 0.996787 0.989029
1.00521 0.998685 0.987097
1.00443 0.999605 0.98744
1.00522 0.998662 0.987116
1.00522 0.996671 0.989192
1.00521 0.997396 0.988409
1.00516 0.99547 0.990342
1.00521 0.998416 0.987323
1.0052 0.996116 0.989483
1.00521 0.99669 0.989184
1.00516 0.995442 0.990405
1.00518 0.995519 0.990167
1.00516 0.994969 0.990772
1.00518 0.997047 0.988626
1.00518 0.99535 0.990231
1.00521 0.998726 0.987072
1.00522 0.998949 0.98701
1.00522 0.996808 0.989033
1.00521 0.998009 0.987742
1.00147 1.00423 0.98808
1.00393 1.00259 0.985404
1.00511 1.00133 0.984435
1.00522 0.998814 0.986848
1.00518 0.996227 0.989507
1.00518 0.997777 0.987874
1.00519 0.999958 0.985663
1.00514 0.997559 0.988248
1.00168 1.0041 0.987851
1.00163 1.00392 0.987911
1.00028 1.00291 0.991419
1.00035 1.0049 0.988945
1.00522 0.996983 0.988852
1.00521 0.99762 0.988198
1.00517 0.995591 0.990222
1.00519 0.99586 0.989752
1.00257 1.00382 0.986577
1.00456 1.00233 0.984366
1.00516 1.00133 0.984304
1.00516 0.997157 0.988477
1.00514 0.995516 0.990191
1.00515 0.999506 0.986068
1.00514 0.996398 0.989094
1.00514 0.997165 0.988472
1.00259 1.00319 0.987209
1.00221 1.00297 0.988274
1.00077 1.00505 0.988401
1.00015 1.00215 0.992248
1.00014 1.00467 0.989649
1.00517 0.995306 0.990594
1.00518 0.995541 0.99025
1.00518 0.995066 0.990477
1.00514 0.995675 0.989835
1.00346 1.00323 0.985684
1.00517 0.995917 0.989706
1.00508 1.00227 0.983518
1.00505 1.0013 0.984432
1.00512 0.999145 0.986292
1.00005 1.00135 0.993088
1.00007 1.0041 0.990611
1.00049 1.005 0.989129
1.00292 1.00266 0.987203
1.00104 1.00478 0.987958
1.00254 1.00213 0.988055
1.00004 0.998633 0.99604
1.00016 1.00151 0.992966
1.0052 0.998911 0.986783
0.999956 1.00438 0.990216
1.00139 1.00446 0.987908
1.00086 1.00409 0.988727
1.0052 0.999918 0.985714
1.00513 0.998507 0.987061
1.00367 1.0029 0.985615
1.00515 1.00175 0.984308
1.00522 1.00013 0.985429
1.00028 1.00087 0.993434
1.00011 1.00319 0.991445
1.00232 1.00337 0.987523
1.00024 1.00496 0.989464
1.00149 1.00286 0.989317
1.00516 0.997866 0.987793
1.00514 0.999234 0.986364
1.00512 0.997871 0.987538
1.00365 1.00206 0.986044
1.00498 1.00107 0.984812
1.00025 1.00226 0.992201
0.999787 1.00443 0.990479
1.00298 1.00155 0.988194
1.00038 1.0045 0.989607
1.00214 1.00152 0.989415
1.00513 0.996428 0.988993
1.00512 0.999324 0.986235
1.00509 0.997739 0.987544
1.0041 1.0015 0.985948
1.00476 1.00087 0.985101
1.0003 1.00059 0.993662
1.00028 1.00189 0.992413
1.0001 1.00252 0.992011
1.00014 1.00206 0.992348
1.00017 1.00207 0.992444
1.00018 1.00263 0.991875
1.00012 1.00281 0.991871
1.0001 1.00288 0.991621
1.00012 1.00217 0.99245
1.00008 1.00077 0.993873
1.00014 1.00064 0.993888
1.00014 0.998244 0.996753
1.0002 1.00055 0.993853
1.00015 0.998254 0.996747
1.00002 0.996976 0.997989
1.00015 0.998318 0.996729
0.99995 0.997066 0.997984
0.999789 0.997231 0.999138
0.999933 0.998684 0.996141
0.999869 0.999264 0.995684
0.999675 0.997646 0.999082
0.999826 0.999976 0.99509
0.999681 0.99807 0.998914
0.999747 0.998552 0.998649
1.00521 0.998407 0.987302
1.00521 0.997408 0.988398
1.00519 0.996039 0.989602
1.00516 0.995323 0.990489
1.00522 0.996656 0.989202
1.00521 0.998664 0.987117
1.00522 0.99681 0.989048
1.00516 0.995469 0.990417
1.00518 0.995545 0.990176
1.00516 0.994968 0.990776
1.00518 0.997077 0.988619
1.00518 0.995196 0.990355
1.00516 0.995255 0.990655
1.00514 0.994971 0.990883
1.00519 0.994952 0.990658
1.00518 0.995507 0.990027
1.00522 0.996991 0.988849
1.00521 0.997714 0.988069
1.00517 0.995378 0.990454
1.0052 0.995938 0.989668
1.00257 1.00396 0.986541
1.00452 1.00227 0.984429
1.00516 1.00135 0.984268
1.00516 0.99736 0.988269
1.00513 0.995234 0.990376
1.00516 0.996418 0.989092
1.00514 0.999543 0.986041
1.00514 0.996901 0.98864
1.00271 1.00314 0.987185
1.00221 1.00269 0.988367
1.00073 1.00508 0.988375
1.00018 1.00212 0.992183
1.00011 1.00455 0.989776
1.00518 0.995301 0.99058
1.00518 0.995567 0.990183
1.00517 0.995147 0.990427
1.00338 1.00334 0.985668
1.00487 1.00232 0.983616
1.00505 1.00121 0.984422
1.00515 0.995686 0.989824
1.00513 0.998902 0.986613
1.00516 0.995891 0.989559
1.00007 1.00122 0.993215
1.00311 1.00245 0.987122
1.00232 1.00182 0.988739
1.00121 1.00491 0.987883
1.00051 1.00496 0.989204
1.00008 1.00405 0.990548
1.00519 0.994938 0.990771
1.00517 0.995076 0.990595
1.00516 0.994943 0.990456
1.00515 0.995158 0.990357
1.00421 1.00265 0.985059
1.00511 0.997057 0.988388
1.00506 1.00271 0.98295
1.00497 1.00144 0.984242
1.00013 1.00033 0.994002
1.00005 1.003 0.991737
1.00028 1.00467 0.98982
1.0009 1.00505 0.988269
1.00312 1.00234 0.986647
1.00229 1.0036 0.987238
1.00026 1.00086 0.993442
0.999999 1.00321 0.991466
1.00516 0.99787 0.98777
1.00004 1.00504 0.989435
1.00236 1.0034 0.98745
1.00118 1.00277 0.989449
1.00514 0.999239 0.986337
1.00512 0.997915 0.987584
1.0038 1.00204 0.985843
1.00502 1.00112 0.984876
1.00019 1.00228 0.992216
0.999871 1.00455 0.990396
1.00308 1.00158 0.988112
1.00017 1.0047 0.989647
1.00201 1.00122 0.989846
1.00514 0.996369 0.989179
1.00511 0.999302 0.986335
1.0051 0.997852 0.987511
1.00405 1.00169 0.985853
1.00484 1.00094 0.984955
0.999847 1.00307 0.991719
0.999741 1.00504 0.989702
1.00347 1.00054 0.988117
1.00109 1.00287 0.989087
1.00519 0.995252 0.990003
1.00508 0.996809 0.988952
1.00496 0.999781 0.985831
1.00436 1.00091 0.985347
1.0003 1.00187 0.992438
1.00013 1.00252 0.992019
0.999826 1.003 0.99226
1.00012 1.00216 0.992438
1.00005 1.00272 0.991836
1.0001 1.0022 0.992441
1.00004 1.00279 0.991943
1.00014 1.00286 0.991652
0.999988 1.00243 0.992427
1.00007 1.00322 0.991451
1.00012 1.00311 0.991374
1.00009 1.00229 0.992365
1.00002 1.0009 0.993809
1.00008 1.00075 0.993871
1.00011 0.998287 0.996755
1.00014 1.00063 0.993888
1.00014 0.998276 0.996752
1.00005 0.996922 0.997988
1.00016 0.998281 0.99675
1.00001 0.996945 0.997995
0.999935 0.997044 0.997986
1.00003 0.998261 0.996414
0.99994 0.998725 0.996106
0.999732 0.997309 0.999159
0.999857 0.999345 0.995646
0.99969 0.997695 0.999052
0.999716 0.998156 0.99884
1.00517 0.997106 0.988613
1.00519 0.995565 0.990185
1.00517 0.995032 0.990478
1.00516 0.994966 0.990781
1.00515 0.995494 0.990429
1.00522 0.996935 0.988912
1.00516 0.995378 0.990524
1.00515 0.99497 0.990882
1.00518 0.995001 0.990624
1.00518 0.995405 0.990119
1.00516 0.994952 0.990901
1.00517 0.994946 0.990761
1.0052 0.994942 0.99053
1.00518 0.995302 0.990567
1.00517 0.995588 0.990115
1.00516 0.99523 0.990379
1.00329 1.00344 0.985652
1.00474 1.00236 0.98371
1.00508 1.00113 0.984411
1.00515 0.995709 0.989814
1.00514 0.995842 0.989411
1.00514 0.998653 0.986934
1.00327 1.0023 0.987038
1.00206 1.00166 0.989421
1.00144 1.00505 0.987809
1.00008 1.00111 0.993343
1.00037 1.00498 0.98928
1.00008 1.004 0.990484
1.00518 0.994956 0.990799
1.00517 0.994996 0.990625
1.00516 0.994999 0.990483
1.00401 1.00283 0.985029
1.00493 1.00272 0.982982
1.00498 1.00123 0.984562
1.00515 0.995131 0.990311
1.0051 0.99701 0.988321
1.00012 1.0003 0.994167
1.00007 1.00298 0.991738
1.00286 1.00218 0.987082
1.00214 1.00366 0.987763
1.00083 1.00504 0.988468
1.00024 1.00471 0.989782
1.00516 0.99493 0.990809
1.00518 0.994921 0.990523
1.00514 0.994963 0.990529
1.00508 0.995072 0.990196
1.00445 1.00309 0.983357
1.00478 1.0004 0.985621
1.00495 1.00304 0.982931
1.00021 0.999867 0.994553
1.00023 1.00099 0.993462
1.00009 1.00175 0.99276
1.00004 1.00407 0.990637
1.00037 1.0049 0.989111
1.00066 1.0046 0.988482
1.00285 1.00178 0.987272
1.00216 1.00375 0.988504
1.00013 1.00234 0.992229
0.999954 1.00466 0.990313
1.00515 0.996299 0.989366
1.00023 1.00475 0.989682
1.00317 1.00165 0.988033
1.00185 1.00097 0.990273
1.0051 0.999264 0.986437
1.0051 0.997947 0.987481
1.00398 1.00184 0.985762
1.00489 1.00099 0.984811
0.99989 1.00317 0.991603
0.999868 1.00501 0.989767
1.00351 1.0006 0.988191
1.00141 1.00299 0.989204
1.00519 0.995177 0.990118
1.00508 0.996818 0.988771
1.00499 0.999735 0.985847
1.00468 1.00095 0.985192
0.999695 1.00381 0.991281
1.00523 0.994893 0.990304
1.00088 1.00477 0.989021
1.00357 1.00102 0.987477
1.00514 0.995709 0.990052
1.00507 0.998401 0.986147
1.00493 1.00136 0.984711
1.00012 1.00257 0.992027
0.999788 1.00295 0.992221
0.999483 1.00289 0.992966
1.0001 1.00217 0.992433
1.00015 1.00285 0.991683
0.999801 1.00291 0.992014
1.00008 1.0023 0.992352
1.00007 1.00314 0.991403
0.999759 1.00257 0.992525
1.00016 1.00311 0.991459
0.999961 1.00201 0.993168
0.999883 1.00295 0.992044
1.00016 1.00369 0.990863
1.00028 1.00321 0.991094
1.0001 1.00248 0.992158
0.999983 1.00107 0.993715
1.00001 1.00094 0.993802
1.00008 0.998385 0.996723
1.00007 1.00078 0.993869
1.00011 0.998331 0.996751
1.00005 0.996897 0.997996
1.00014 0.99831 0.996753
1.00005 0.996891 0.997992
1.00001 0.996916 0.997998
1.0002 0.999874 0.994597
1.00009 0.998023 0.996555
1.00003 0.998295 0.996395
0.999821 0.997028 0.999206
0.999942 0.998777 0.996072
0.999739 0.997396 0.999138
0.999712 0.997771 0.999022
1.00519 0.995305 0.990211
1.00516 0.995056 0.990589
1.00516 0.994969 0.990881
1.00516 0.995498 0.990394
1.00516 0.994948 0.990914
1.00517 0.994947 0.990776
1.0052 0.994944 0.990485
1.00517 0.994961 0.990812
1.00522 0.994936 0.990592
1.00526 0.994923 0.990911
1.00518 0.994968 0.990828
1.00517 0.994921 0.990655
1.00516 0.995041 0.990511
1.00377 1.00301 0.985002
1.00494 1.0028 0.983021
1.00496 1.00103 0.984883
1.00515 0.995124 0.990265
1.0051 0.996976 0.988255
1.00261 1.00211 0.987522
1.00206 1.00369 0.988286
1.00061 1.00505 0.988667
1.0001 1.00023 0.994331
1.00012 1.00294 0.991739
1.00022 1.00477 0.989741
1.00517 0.994931 0.990785
1.00019 0.999888 0.994548
1.00018 1.00104 0.993385
1.00517 0.994914 0.990538
1.00513 0.994952 0.990525
1.0042 1.00326 0.983711
1.00492 1.00294 0.983065
1.00483 1.00018 0.985553
1.00508 0.995239 0.990136
1.00008 1.00177 0.992947
1.0001 1.00403 0.990611
1.00312 1.0024 0.986898
1.00154 1.00369 0.988924
1.00072 1.00462 0.988668
1.00032 1.00496 0.989203
1.00522 0.994933 0.990541
1.00517 0.994845 0.990542
1.0051 0.994917 0.990262
1.0047 0.995825 0.989913
1.00386 1.0035 0.984232
1.0043 1.00351 0.983838
1.0001 1.00128 0.993188
1.00019 1.00106 0.993426
1.00043 1.00145 0.992797
1.00018 1.00294 0.991396
1.00006 1.00474 0.990084
1.00125 1.00434 0.988454
0.999952 1.00492 0.989077
1.00222 1.00126 0.988786
0.999929 1.00325 0.991488
1.00007 1.00498 0.989837
1.00517 0.995114 0.990233
1.00509 0.996859 0.98859
1.00171 1.0031 0.989321
1.00356 1.00061 0.988263
1.005 0.999709 0.985862
1.005 1.00102 0.985035
0.999808 1.0038 0.99123
1.00523 0.9949 0.990426
1.00067 1.00471 0.989073
1.00369 1.00104 0.987208
1.00514 0.995574 0.990045
1.00507 0.998532 0.986427
1.00487 1.00135 0.984737
0.999888 1.00467 0.990594
1.00454 0.995042 0.991574
1.00225 1.00319 0.988453
1.00414 1.00167 0.98615
1.00483 0.996551 0.989342
1.00379 1.00124 0.985711
0.99857 0.997542 0.990204
0.999709 1.00297 0.992183
0.999298 1.00304 0.992946
0.999622 1.00298 0.992974
1.00005 1.00234 0.992338
1.00006 1.00318 0.991431
1.0003 1.00297 0.991468
0.999628 1.00258 0.992623
1.00009 1.00248 0.99216
1.00023 1.00328 0.991086
0.999924 1.002 0.993082
1.00013 1.00373 0.99087
1.00002 1.00287 0.991932
0.999902 1.00235 0.992799
1.00029 1.00381 0.990557
1.00018 1.00389 0.990666
1.00037 1.0034 0.99076
1.00013 1.00262 0.991835
1.00024 1.00309 0.991451
1.00013 1.00268 0.991722
0.999982 1.00108 0.993681
0.999985 1.00106 0.993709
1.00007 0.998487 0.996109
1.00002 1.00092 0.993794
1.00009 0.998435 0.996421
1.00002 0.99691 0.999139
1.00011 0.998372 0.996747
1.00006 0.996859 0.998001
1.00005 0.996861 0.997993
1.00014 0.999868 0.994665
1.0002 0.999823 0.994608
1.0001 0.997907 0.996662
1.00007 0.998028 0.996812
0.999892 0.996848 0.999237
1.00002 0.99833 0.996377
0.999812 0.997095 0.999195
0.999747 0.997439 0.999118
1.0052 0.994946 0.99044
1.00516 0.994947 0.990791
1.00516 0.994942 0.990927
1.00517 0.994961 0.990813
1.00522 0.994934 0.990593
1.00527 0.994922 0.990538
1.00527 0.994945 0.990536
1.00107 0.994854 0.986206
1.00447 0.994872 0.993019
1.00003 1.00131 0.993415
1.00518 0.994933 0.990762
1.00517 0.994909 0.990552
1.00513 0.994944 0.990522
1.00397 1.00328 0.984059
1.00492 1.00284 0.983199
1.00489 1.00001 0.985489
1.00507 0.995399 0.990074
1.00357 1.00257 0.986525
1.00087 1.00361 0.989349
1.00085 1.00465 0.988856
1.00017 0.999932 0.994542
1.00033 1.005 0.989296
1.00006 1.00175 0.99313
1.0002 1.00396 0.990584
1.00017 1.00102 0.993308
1.00521 0.994926 0.990543
1.00011 1.00124 0.993287
1.00016 1.00111 0.993422
1.00038 1.00147 0.992758
1.00517 0.994866 0.990523
1.00511 0.994909 0.990293
1.00404 1.00339 0.984265
1.00427 1.00278 0.984427
1.00462 0.996333 0.989805
1.00005 1.00302 0.991549
1.00018 1.00464 0.989917
1.00217 1.00215 0.988504
1.00043 1.00476 0.98911
1.00111 1.00422 0.988582
1.00521 0.995052 0.990601
1.00514 0.994838 0.990612
1.00507 0.995443 0.989836
1.0044 0.998215 0.989074
1.00196 1.0036 0.987831
1.0001 1.00222 0.992251
1.00043 1.00164 0.992292
1.00014 1.00223 0.992092
0.99992 1.00441 0.990972
1.00011 1.00469 0.989706
1.00031 1.00455 0.989186
1.00079 1.00319 0.98947
0.999988 1.00372 0.991176
1.00037 1.00466 0.989122
1.00524 0.994892 0.990541
1.00515 0.995439 0.990035
1.00505 0.9987 0.986707
1.00384 1.00103 0.98694
1.00484 1.00128 0.984765
1 1.00454 0.990692
1.0045 0.99509 0.991684
1.00203 1.00317 0.988413
1.00398 1.00173 0.986032
1.00499 0.995986 0.989603
1.004 1.00142 0.98571
0.998581 0.99781 0.988019
1.00013 1.0044 0.990409
1.00261 0.998158 0.991618
1.00201 1.00244 0.988769
1.00249 1.00167 0.987732
1.00363 0.99751 0.989542
1.00003 0.995148 0.952191
0.997024 0.994888 0.970993
0.99637 1.00176 0.989416
0.999801 0.996186 0.892646
0.994679 0.995914 0.865671
0.999134 1.00319 0.992927
0.99918 1.00323 0.993113
0.999573 1.00313 0.992719
1.00007 1.00249 0.992161
1.00029 1.00318 0.991076
1.0001 1.00377 0.990877
1.00015 1.00279 0.991818
0.999838 1.00198 0.992997
1.00022 1.00385 0.990632
1.00013 1.00259 0.991905
1.00036 1.00338 0.990783
0.999929 1.00223 0.992685
1.00018 1.00383 0.990712
1.00021 1.00404 0.99072
0.999661 1.00377 0.99141
1.00025 1.00397 0.990461
1.00033 1.00335 0.990788
1.00018 1.00262 0.991717
1.00033 1.00339 0.990915
1.00015 1.0033 0.991352
1.00009 1.00305 0.991598
1.00022 1.00312 0.991385
1.00022 1.00232 0.992118
1.00016 1.00268 0.991708
1.00004 1.00102 0.993669
0.99999 1.00109 0.99368
1.00007 0.998545 0.996093
0.999975 1.00109 0.993704
1.00007 0.998502 0.996107
1.00002 0.996904 0.99914
1.00009 0.99849 0.996119
1.00004 0.996906 0.998555
1.00006 0.996823 0.998003
1.00007 0.999894 0.994759
1.00015 0.999857 0.994668
1.00011 0.997814 0.996753
1.00021 0.999782 0.994619
1.0001 0.997864 0.99692
0.999942 0.996682 0.999268
1.00009 0.998064 0.996529
0.999882 0.996924 0.999223
0.999808 0.997164 0.999183
1.00521 0.994931 0.990595
1.00517 0.99496 0.990815
1.00527 0.994924 0.990168
1.00085 0.994942 0.986332
1.00526 0.994943 0.990535
1.00433 0.995225 0.992613
1.00505 0.996186 0.991129
0.996646 0.994885 0.970053
1.0005 0.996834 0.988187
1.00005 1.00133 0.993378
1.00009 1.00126 0.993406
1.00002 1.00231 0.992428
0.999994 1.00223 0.992557
1.00521 0.994924 0.990545
1.00517 0.994884 0.990504
1.00512 0.994903 0.990323
1.0045 1.00322 0.984296
1.00413 1.00179 0.985009
1.00454 0.996856 0.989692
1.00187 1.00334 0.988222
1.00103 1.00459 0.989141
1.00097 1.00402 0.988708
1.00012 1.0012 0.993417
1.00023 1.00461 0.989748
1.00006 1.00305 0.991703
1.00011 1.00124 0.993386
1.00028 1.00153 0.992714
1.00522 0.994997 0.990603
1.00014 1.00223 0.99233
1.00041 1.00163 0.992477
0.99988 1.00218 0.992608
1.00515 0.994835 0.990514
1.00494 0.995446 0.989858
1.00259 1.0028 0.987739
1.00405 0.997966 0.989517
1.00003 1.0042 0.990791
1.00026 1.00484 0.989278
1.00093 1.00384 0.989356
1.00096 1.00431 0.989043
1.00456 0.995006 0.991501
1.00509 0.995523 0.990306
1.00502 0.99606 0.989656
1.002 0.999578 0.991682
0.999859 1.00328 0.991662
1.00025 1.00274 0.991512
0.999247 1.00473 0.991222
0.999537 1.00476 0.990123
0.999996 0.9949 0.943582
1.00006 1.00444 0.990791
1.0017 1.00326 0.988371
1.0045 0.994997 0.991798
1.00509 0.995568 0.989861
1.00414 1.0015 0.985699
1.00379 1.00188 0.985909
0.998698 0.997667 0.985769
1 1.00456 0.990574
1.00268 0.997781 0.991656
1.00197 1.00252 0.988779
1.00308 1.00118 0.987692
1.0039 0.997538 0.98951
1.00111 0.995232 0.942087
0.996883 0.994907 0.966639
0.996434 1.00221 0.989236
0.999786 0.995918 0.896325
0.994701 0.995926 0.854537
0.999808 1.0039 0.991466
0.999824 0.994872 0.903259
0.994681 0.995672 0.865334
1.00147 1.00005 0.99136
1.00103 1.00227 0.990326
1.00193 1.0007 0.989697
0.996286 1.00259 0.989561
1.00074 0.996565 0.948297
0.994913 0.995824 0.9643
0.997581 0.998574 0.902322
0.994781 0.996345 0.860199
0.998873 1.00345 0.99325
0.99941 1.00324 0.992631
0.999432 1.00332 0.992994
1.00016 1.00254 0.991975
1.00036 1.0034 0.990806
1.00002 1.00405 0.9906
1.00007 1.00384 0.990868
1.00001 1.00209 0.992572
1.00018 1.00262 0.991724
1.00005 1.00418 0.990661
1.00026 1.00396 0.99044
1.0004 1.00328 0.990842
0.999651 1.00376 0.99147
0.999852 1.00427 0.991156
0.998945 1.00464 0.991577
1.00042 1.00374 0.990385
1.0004 1.00341 0.990759
1.00036 1.00338 0.990893
1.0001 1.00328 0.991426
1.0004 1.00348 0.990716
0.999982 1.00336 0.991494
0.999689 1.0032 0.9917
0.999703 1.00439 0.99083
0.999928 1.00337 0.991525
1.00013 1.00301 0.991595
1.00014 1.00224 0.99232
1.00021 1.00313 0.991319
1.00023 1.00233 0.992046
1.00012 1.00094 0.993638
1.00019 1.00267 0.991694
1.00003 1.00103 0.993673
1.00009 0.998489 0.996685
0.999978 1.00111 0.993678
1.00007 0.99851 0.996394
1.00006 0.996919 0.997956
1.00007 0.998514 0.996104
1.00002 0.996917 0.999139
1.00006 0.996914 0.997969
1.00009 1.00141 0.993209
1.00001 0.999951 0.994791
1.00007 0.999881 0.994762
1.00011 0.997788 0.996785
1.00016 0.99983 0.994672
1.00012 0.997774 0.996755
0.999981 0.99658 0.999285
1.00009 0.997864 0.997154
0.999958 0.99677 0.998749
0.999925 0.996974 0.998179
1.00049 0.995186 0.986478
1.00524 0.994951 0.990535
1.00413 0.995969 0.9922
0.996687 0.994871 0.971233
1.00044 0.996517 0.988486
1.00507 0.995822 0.990984
1.00307 0.997307 0.988323
0.996498 0.996849 0.974054
1.00002 0.995482 0.949309
0.999436 0.997758 0.905949
0.994647 0.99624 0.86381
0.99993 1.0023 0.992458
1.00008 1.00131 0.993374
1.00015 1.00119 0.993397
1.00003 1.0023 0.992427
0.99976 1.00327 0.991911
1.00024 1.00247 0.991868
1.00003 1.00273 0.992173
0.999996 1.0023 0.99245
1.00522 0.994898 0.990601
1.00516 0.99484 0.990415
1.00485 0.995321 0.989883
1.00281 1.00231 0.987653
1.00374 0.997869 0.989966
1.00109 1.00448 0.989237
1.00156 1.00417 0.988901
1.00055 1.00499 0.988853
1.0003 1.00162 0.992664
1.00003 1.00424 0.990608
1.00018 1.00226 0.992411
0.999767 1.00211 0.993121
1.0046 0.994909 0.991635
0.99985 1.00333 0.991717
1.0002 1.00288 0.991672
1.00501 0.995333 0.990268
1.00482 0.99562 0.989803
1.00196 0.999555 0.991311
0.999663 1.00497 0.99066
1.00023 1.00444 0.990204
1.00331 0.995549 0.991894
1.00456 0.99659 0.990501
1.00461 0.9951 0.991072
1.00146 0.999274 0.992546
0.99996 1.00442 0.990411
0.999544 1.00423 0.99118
0.999471 1.00508 0.990905
0.999847 0.994845 0.904751
1.00048 0.994933 0.953743
0.999942 1.00465 0.990742
1.00196 1.00243 0.988795
1.00266 0.997545 0.991701
1.00425 0.997665 0.98948
1.00376 1.00069 0.987665
1.0002 0.994925 0.950715
0.997204 0.995056 0.965901
0.996499 1.00258 0.98901
0.999628 0.996507 0.907355
0.994736 0.996037 0.843001
0.999845 1.00378 0.991433
0.999843 0.995534 0.902064
0.994696 0.995727 0.859657
1.00149 1.00003 0.991413
1.00115 1.00211 0.990381
1.00209 1.00047 0.990351
0.996462 1.00284 0.990191
1.00175 0.996574 0.941428
0.994919 0.995337 0.968106
0.998443 0.999002 0.902212
0.994797 0.995911 0.858505
0.999491 1.00354 0.992766
0.994751 0.995758 0.862905
0.994801 0.995786 0.877329
0.999214 1.0018 0.993796
0.999574 1.0027 0.99326
0.995679 1.00256 0.98998
0.994863 0.997864 0.96748
0.997884 0.998918 0.938733
0.994767 0.999805 0.907819
0.994851 0.994804 0.863564
0.999373 1.0033 0.992546
0.999599 1.00302 0.992846
0.998297 1.00428 0.993038
1.00019 1.00261 0.991732
1.00042 1.00324 0.990896
1.00028 1.00393 0.990419
0.99994 1.00432 0.990602
0.999551 1.00383 0.99153
1.0004 1.00342 0.990755
0.99989 1.00408 0.991014
1.00043 1.0037 0.990417
0.998682 1.00477 0.99178
0.997027 1.00522 0.994036
1.00001 1.00407 0.990844
1.00063 1.0039 0.989984
1.00038 1.00336 0.990872
1.00013 1.00319 0.991499
1.0004 1.00354 0.990671
1.00003 1.00334 0.991455
0.999666 1.00316 0.992002
0.999733 1.00399 0.991207
0.999771 1.00382 0.991135
0.9995 1.00318 0.992182
1.00028 1.00279 0.991528
1.0004 1.00418 0.989347
0.999584 1.0046 0.990659
0.999794 1.00432 0.99083
0.99977 1.00392 0.991235
0.999963 1.00338 0.991514
1.00002 1.00239 0.992322
1.00013 1.00306 0.991592
1.00015 1.00223 0.992327
1.00019 1.00078 0.993629
1.00023 1.00234 0.991975
1.00012 1.00091 0.99365
1.00013 0.998464 0.996645
1.00003 1.00103 0.993678
1.0001 0.998461 0.996381
1.00006 0.99686 0.997961
1.00008 0.998482 0.996099
1.00002 0.996919 0.999136
1.00002 0.996913 0.999139
1.00012 1.00165 0.993187
0.999995 1.00008 0.994695
1.00008 1.00144 0.993215
1.00011 0.997794 0.996776
1.00001 0.999951 0.994793
1.00008 0.999886 0.994765
1.00011 0.997777 0.996781
1.00001 0.996521 0.999287
1.0001 0.997749 0.997233
0.999998 0.996592 0.998794
0.999979 0.996779 0.998261
0.999847 0.995519 0.894207
0.994668 0.995819 0.862421
0.998053 0.994876 0.971134
1.00049 0.995483 0.988809
1.00513 0.995099 0.990841
0.996176 0.995864 0.975023
1.00336 0.996276 0.988691
1.00121 0.995767 0.947933
0.999827 0.996587 0.894917
0.994684 0.996203 0.852679
0.998643 0.994896 0.97876
1.00002 0.997346 0.948854
0.998109 0.998874 0.900369
0.994777 0.995822 0.860393
1.00004 1.00329 0.991463
0.999923 1.00228 0.992543
1.00012 1.00126 0.99337
1.00002 1.00229 0.992427
0.999751 1.0031 0.992105
1.00003 1.00358 0.991248
1.00017 1.00278 0.991786
1.00026 1.00315 0.99115
1.00007 1.00266 0.992069
0.99997 1.00242 0.992343
1.00465 0.994852 0.991769
1.005 0.995072 0.990243
1.00442 0.995341 0.989948
1.00178 0.999673 0.990941
1.00074 1.00439 0.990288
0.999822 1.0051 0.990098
1.00018 1.00287 0.991835
0.999798 1.0034 0.99177
1.00326 0.995455 0.992171
0.999914 1.00464 0.990281
0.999469 1.00435 0.991085
1.0047 0.996051 0.990372
1.00448 0.995241 0.990859
1.00128 0.99931 0.992638
0.999688 1.00496 0.990892
1.00068 0.997051 0.992364
1.0029 0.99615 0.993793
1.00035 1.00119 0.992793
0.999393 1.00475 0.990167
0.999593 1.00502 0.990165
0.999277 1.0051 0.990989
0.99475 0.996025 0.879696
0.999841 0.99487 0.908147
0.999996 0.994904 0.943904
0.999694 1.00382 0.991396
1.00126 1.00202 0.990429
1.00152 1.00003 0.991467
1.00226 1.00022 0.991001
0.999837 0.995068 0.910186
1.00001 0.996413 0.941299
0.994892 0.994884 0.964478
0.996613 1.0021 0.990794
0.997745 0.998676 0.891031
0.994669 0.995712 0.862136
0.994756 0.995655 0.865513
0.999203 1.00344 0.9927
0.9947 0.995305 0.869799
0.994817 0.996009 0.876976
0.999176 1.0015 0.993925
0.999372 1.00251 0.993272
0.995637 0.999525 0.992796
0.994879 0.997502 0.966536
0.997423 0.99955 0.948783
0.996981 0.999917 0.895723
0.994819 0.994791 0.871125
0.997513 1.00363 0.995629
0.994809 0.995756 0.886313
0.994792 0.994766 0.880622
0.995637 1.00203 0.999681
0.994827 0.999503 0.974079
0.994901 0.99996 0.949601
0.994869 0.999308 0.891716
0.994873 0.994814 0.869607
0.999748 1.00273 0.992694
0.998563 1.00424 0.99334
0.996884 1.00501 0.995222
1.00036 1.00348 0.99075
1.00046 1.00366 0.99045
0.999961 1.00382 0.990871
0.99841 1.00503 0.99199
1.00052 1.004 0.98997
0.999964 1.00416 0.99079
0.997162 1.00506 0.994492
0.995087 1.0053 0.997306
0.9978 1.00486 0.993996
1.00038 1.00397 0.990293
1.00041 1.0036 0.990624
1.00005 1.00333 0.991415
0.999566 1.00319 0.992299
0.999813 1.00369 0.991267
0.999782 1.00395 0.991222
0.999511 1.00333 0.992241
0.999977 1.00341 0.991644
0.99818 1.00388 0.993657
1.00153 0.999812 0.991998
1.0003 1.00263 0.991655
1.00065 1.00328 0.990151
1.00224 1.00397 0.986999
0.999998 1.00471 0.990506
1.00024 1.00429 0.989719
0.999746 1.0045 0.990684
0.999618 1.00433 0.990899
0.999884 1.00425 0.990829
0.999885 1.00379 0.991236
0.999958 1.0028 0.992028
1.00007 1.00329 0.991503
1.00009 1.00235 0.992315
1.00022 1.00079 0.993589
1.00019 1.00219 0.992333
1.0002 1.0008 0.993635
1.00015 0.998441 0.996621
1.00012 1.0009 0.993661
1.00014 0.998444 0.99634
1.00004 0.996943 0.997921
1.00012 0.998437 0.996083
1.00004 0.996887 0.998549
1.00002 0.996906 0.999137
1.00015 1.00212 0.992454
1.00005 1.00021 0.994502
1.00009 1.00168 0.993009
1.00011 0.997858 0.996711
1 1.00007 0.994697
1.00006 1.00149 0.99322
1.00003 0.996502 0.999283
1.0001 0.997793 0.996776
1.00001 0.999943 0.994795
1.00011 0.997765 0.996778
1.00001 0.99654 0.999288
0.99998 0.996578 0.999285
0.994682 0.994832 0.868496
0.999862 0.995378 0.901315
0.994819 0.996304 0.875818
0.994682 0.995869 0.859993
0.995904 0.995624 0.972442
1.00343 0.996112 0.989096
1.00005 0.996116 0.946006
0.999822 0.997004 0.906607
0.99474 0.996435 0.841276
0.998247 0.995645 0.977956
1.00144 0.997187 0.937661
0.998313 0.999236 0.901062
0.994797 0.99607 0.854871
0.995589 0.995799 0.972628
0.997673 0.998758 0.939208
0.995461 0.999839 0.890654
0.994834 0.994808 0.858635
1.0001 1.00413 0.990795
1.00002 1.00316 0.991598
0.999911 1.00231 0.992627
0.999741 1.00295 0.9923
1.0004 1.00395 0.9901
0.999991 1.00345 0.991387
1.00001 1.00301 0.991706
1.00048 1.00308 0.991038
1.00029 1.00319 0.991234
1.00009 1.00259 0.991965
1.00331 0.994872 0.992434
1.00477 0.995454 0.990258
1.00461 0.995282 0.990644
1.00126 0.999065 0.992739
1.00009 1.00463 0.990881
0.999573 1.00448 0.990992
0.99982 1.00478 0.990151
0.999954 1.00489 0.989942
1.00059 0.99654 0.992665
0.999872 1.00493 0.990059
0.999583 1.00508 0.990976
1.00303 0.995802 0.993789
1.00102 1.00035 0.99262
0.998279 0.997017 0.993518
0.998193 0.998964 0.999778
0.9986 1.00357 0.992871
1.00001 1.00474 0.990023
0.999277 1.005 0.991052
0.994839 0.995982 0.890705
0.994743 0.995915 0.876927
0.999821 0.994856 0.897189
0.998963 1.00331 0.99264
0.999167 1.00221 0.99327
0.999245 1.00142 0.994066
0.99468 0.994836 0.869988
0.99737 0.998727 0.940015
0.994857 0.997129 0.966726
0.995895 0.997954 0.995835
0.995122 0.999852 0.90833
0.994845 0.996087 0.87672
0.994837 0.994806 0.871406
0.997499 1.00351 0.995926
0.994818 0.995279 0.889105
0.994791 0.994766 0.880725
0.995757 1.00223 0.998663
0.994861 0.99918 0.975654
0.996017 0.999781 0.939896
0.994861 0.994813 0.869025
0.994854 0.99993 0.899187
0.995592 1.00485 0.998419
0.994741 0.994793 0.897791
0.994813 0.99478 0.883836
0.994837 0.994796 0.85928
0.995125 1.00011 0.99239
0.994956 0.999581 0.952973
0.994983 0.999698 0.900281
0.998943 1.00415 0.993639
0.997469 1.00507 0.994368
0.99516 1.00507 0.998506
1.00048 1.00403 0.989957
0.999889 1.0042 0.990734
0.997149 1.00486 0.994935
1.00022 1.00405 0.990347
0.997845 1.00468 0.994027
0.995391 1.00531 0.997071
0.995135 1.0052 0.998353
0.997745 1.00455 0.993938
0.999826 1.00364 0.991402
0.99983 1.00392 0.991237
0.999562 1.00347 0.992305
0.998488 1.00395 0.993514
0.999844 1.00335 0.991632
0.999575 1.00263 0.992989
1.00068 1.00029 0.993077
1.00151 1.00173 0.989613
1.00034 1.00246 0.991785
1.00112 1.00323 0.989822
1.00295 1.00294 0.986494
1.003 1.00314 0.986313
1.00054 1.00455 0.989479
1.0019 1.00391 0.987094
0.999883 1.00483 0.990294
0.999877 1.00474 0.990466
1.00004 1.00438 0.990092
0.9999 1.0044 0.990708
0.999691 1.00419 0.990987
0.999971 1.00317 0.991643
0.999984 1.00366 0.991237
1.00002 1.00274 0.992032
1.00019 1.00105 0.993389
1.00013 1.00234 0.992308
1.00023 1.00079 0.993583
1.00013 0.998446 0.996625
1.00021 1.00079 0.993642
1.00016 0.99842 0.996321
1.00001 0.997017 0.997921
1.00016 0.998396 0.996044
1.00002 0.996948 0.998526
1.00001 0.99692 0.999131
1.00031 1.00229 0.991825
1.0001 1.00052 0.993877
1.00018 1.0021 0.992453
1.00013 0.997952 0.996577
1.00005 1.00022 0.99436
1.00009 1.00167 0.992834
1.00003 0.996557 0.999265
1.00011 0.997846 0.996716
1 1.00004 0.994699
1.00003 0.996515 0.999285
1.0001 0.997794 0.996777
1.00001 0.996537 0.999288
0.994828 0.99481 0.885388
0.994694 0.995331 0.875437
0.999848 0.995507 0.90194
1.00061 1.00316 0.990632
0.994785 0.994815 0.886672
0.994807 0.995836 0.875674
0.99471 0.995815 0.866068
0.998436 0.995957 0.976706
0.999647 0.997754 0.947944
0.997989 0.998631 0.88924
0.994764 0.99593 0.858463
0.996562 0.995268 0.968997
0.997425 0.999045 0.948233
0.996729 0.999896 0.894771
0.994824 0.994813 0.862008
0.994865 0.995861 0.964767
0.995269 0.9999 0.94777
0.994867 0.999976 0.900104
0.994875 0.994826 0.869316
1.00013 1.0046 0.989985
1.00008 1.00415 0.990603
1.00006 1.00305 0.991733
1.00042 1.00386 0.990227
1.0003 1.00404 0.990308
1.00001 1.00341 0.991525
1.00052 1.00307 0.991058
1.00029 1.00321 0.991315
1.00015 0.997068 0.992888
1.00322 0.995571 0.993741
1.00011 1.00504 0.989717
1.00159 0.99985 0.992439
0.999866 1.0051 0.990961
1.00003 1.00501 0.989952
0.999912 1.00478 0.990013
0.997523 0.997429 0.994161
0.99954 1.00481 0.991162
0.99928 1.0033 0.992941
0.998173 0.998523 0.999802
0.999999 1.00481 0.990223
0.995996 0.999312 0.992671
0.995008 1.00214 1.00167
0.997715 1.00511 0.993196
0.99961 1.00462 0.991264
0.994731 0.994774 0.903066
0.994842 0.995909 0.89036
0.994736 0.99585 0.87414
0.997454 1.00351 0.996246
0.995585 1.00196 0.997635
0.994819 0.994803 0.891807
0.994932 0.999987 0.949754
0.994876 0.998755 0.972847
0.994838 0.999956 0.898657
0.994782 0.994765 0.880785
0.994852 0.994814 0.868446
0.995863 1.00467 0.998043
0.994744 0.994797 0.897589
0.994809 0.99477 0.887403
0.994937 1.00085 0.995779
0.994818 0.994856 0.862413
0.994913 0.998849 0.94716
0.994968 0.999742 0.904683
0.995054 1.00406 0.998503
0.994757 0.994799 0.901762
0.994786 0.995058 0.887115
0.994744 0.996003 0.860698
0.995645 0.999981 0.899711
0.994893 0.999968 0.981555
0.994967 1.00005 0.939837
0.998169 1.00496 0.993516
0.995501 1.00499 0.998021
0.994918 1.00509 0.999551
1.00004 1.00407 0.990402
0.997853 1.00454 0.994061
0.995877 1.00531 0.996845
0.997944 1.00448 0.993823
0.995236 1.00466 0.998333
0.997566 1.00331 0.996486
0.998804 1.00391 0.993364
0.999615 1.00337 0.991621
0.99961 1.00283 0.993151
0.999313 1.00346 0.991489
0.999822 1.00073 0.994137
1.00141 1.00154 0.990194
1.00322 1.00267 0.986248
1.00455 1.00193 0.984654
1.00159 1.00318 0.989488
1.00334 1.00304 0.985709
1.00408 1.00225 0.986224
1.00147 1.00387 0.987893
1.00293 1.00311 0.986507
0.99995 1.00501 0.989719
1.00057 1.00456 0.989427
1.00156 1.00386 0.987192
0.999986 1.00371 0.990996
0.999749 1.00479 0.990403
0.999776 1.00476 0.990424
0.999773 1.00406 0.991073
1.00003 1.00312 0.991644
1.00019 1.0014 0.993015
1.00008 1.0027 0.992037
1.0002 1.00105 0.993381
1.00009 0.998598 0.995989
1.00024 1.00083 0.993577
1.00015 0.998445 0.996026
0.999892 0.997078 0.999123
1.00017 0.998406 0.996022
0.999986 0.997022 0.998516
0.999991 0.996975 0.999119
1.00033 1.0025 0.991529
1.00021 1.00085 0.993374
1.00027 1.00234 0.991932
1.00015 0.998115 0.996383
1.00013 1.00053 0.993816
1.00017 1.00211 0.99245
1.00004 0.996616 0.999234
1.00013 0.997938 0.996588
1.00005 1.00023 0.994218
1.00004 0.996531 0.999271
1.00011 0.997831 0.996722
1.00002 0.99653 0.999287
0.994749 0.994791 0.899299
0.99482 0.995363 0.88528
0.994691 0.995885 0.875646
1.00052 1.0032 0.990735
1.00048 1.00338 0.990479
1.00058 1.00353 0.990445
0.994823 0.994775 0.883305
0.994786 0.994999 0.886726
0.994798 0.995904 0.875523
0.996452 0.994869 0.971194
0.998204 0.999092 0.937913
0.99514 0.999908 0.90755
0.994857 0.995057 0.858009
0.994879 0.996214 0.968254
0.995901 0.999944 0.944282
0.994818 0.999785 0.899412
0.994869 0.99482 0.868616
0.994901 0.996445 0.964062
0.994905 0.999553 0.949589
0.995045 0.999901 0.900203
0.994859 0.994804 0.863467
1.00035 1.00413 0.989993
1.00022 1.00456 0.989838
1.00024 1.00408 0.99041
1.00051 1.00372 0.990198
1.00013 1.0041 0.990519
1.00054 1.00309 0.991077
0.996914 0.997699 0.994799
0.997759 0.998185 0.999861
1.00002 1.00454 0.990003
0.999893 1.00267 0.993012
0.999602 1.00474 0.991271
0.999915 1.00467 0.990178
0.999244 1.00465 0.991407
0.995702 0.999313 0.992916
0.997793 1.00514 0.993841
0.995235 1.00202 1.00072
0.999495 1.00407 0.991666
0.995326 0.999116 0.991926
0.995934 1.00271 0.997713
0.99803 1.00516 0.993856
0.99475 0.99475 0.906773
0.994734 0.994767 0.903968
0.994849 0.995793 0.890006
0.996003 1.00463 0.997646
0.994892 1.00091 0.992559
0.994755 0.994801 0.897392
0.994857 0.999258 0.948654
0.994964 0.99969 0.893227
0.994802 0.994767 0.890956
0.994845 0.995355 0.85857
0.995152 1.0039 0.998983
0.994755 0.994804 0.903222
0.994788 0.995133 0.887183
0.994918 0.999664 0.978311
0.99478 0.996335 0.85529
0.994827 0.999979 0.898702
0.99492 0.999848 0.950556
0.995109 1.00488 0.994409
0.99475 0.994793 0.899629
0.994814 0.996685 0.876315
0.994644 0.996524 0.864537
0.995787 0.999106 0.890508
0.995723 0.999954 0.948108
0.994928 1.00048 0.972283
0.995948 1.00505 0.997546
0.995268 1.00415 0.99948
0.996938 1.00306 0.997978
0.998097 1.00455 0.993711
0.995489 1.00413 0.998332
0.996512 1.00427 0.996791
0.999576 1.00026 0.996216
0.999674 1.003 0.993311
1.0008 1.0029 0.991105
1.00199 1.0038 0.987464
1.00128 1.00138 0.990797
1.0033 1.00274 0.986208
1.0041 1.00394 0.983454
1.00487 1.00186 0.984093
1.00444 1.00176 0.98506
1.00454 1.00214 0.984467
1.00377 1.0031 0.984923
1.00351 1.00244 0.986737
1.00376 1.00212 0.986424
1.00075 1.00448 0.988446
1.0016 1.0039 0.988057
1.00288 1.00311 0.986702
0.99996 1.00461 0.98992
1.00012 1.005 0.989706
1.00056 1.00461 0.989373
1.00018 1.00193 0.992538
1.0001 1.00367 0.99099
0.999627 1.00477 0.990513
1.00009 1.00307 0.991645
1.00021 1.00141 0.993008
1.00001 0.998849 0.995869
1.00021 1.00105 0.993373
1.00009 0.998605 0.995978
0.999839 0.997235 0.999109
1.00015 0.998444 0.996022
0.999928 0.997108 0.998518
0.999952 0.997056 0.999114
1.00036 1.00285 0.99136
1.0003 1.00108 0.993183
1.00038 1.00249 0.991596
1.00017 0.998307 0.996135
1.0002 1.00085 0.993459
1.00029 1.00234 0.99204
1.00003 0.996736 0.99919
1.00015 0.998086 0.996399
1.00015 1.00052 0.993755
1.00004 0.996611 0.999243
1.00012 0.997927 0.9966
1.00004 0.996531 0.999278
0.994763 0.994805 0.901403
0.994754 0.994806 0.899104
0.994811 0.995849 0.885281
1.00035 1.00388 0.990169
1.00065 1.004 0.989834
1.00045 1.00325 0.99084
1.00043 1.00352 0.990442
1.00041 1.00364 0.990429
1.00031 1.00395 0.990266
1.00039 1.00376 0.990319
0.994807 0.994763 0.880077
0.994815 0.994773 0.886932
0.994782 0.994757 0.886797
0.994854 0.994815 0.867953
0.994896 0.996027 0.96524
0.99514 0.999945 0.941058
0.994874 0.999493 0.907534
0.995013 0.99687 0.963139
0.994888 0.999841 0.940266
0.99496 0.999712 0.905005
0.994825 0.994793 0.871067
0.995348 0.99636 0.967041
0.99492 0.999929 0.940387
0.994888 0.999661 0.892298
0.994789 0.996594 0.859482
0.999523 1.00495 0.990798
1.00021 1.00434 0.990035
1.00028 1.0047 0.989691
1.00062 1.00363 0.990169
0.995494 0.999497 0.993306
0.995349 1.00297 0.999761
0.999848 1.00493 0.990134
0.99919 1.00463 0.991549
0.998216 1.00512 0.994478
0.999482 1.00422 0.991611
0.997774 1.00514 0.993855
0.995112 1.00078 0.989039
0.995339 1.0039 0.998127
0.997421 1.00474 0.994792
0.994898 0.999155 0.988513
0.997143 1.0041 0.997434
0.994726 0.994782 0.90319
0.994753 0.994751 0.909581
0.994732 0.994759 0.904866
0.994997 1.00363 0.999407
0.994935 0.998472 0.982273
0.994752 0.994801 0.904721
0.995827 0.999587 0.940508
0.99485 0.999794 0.906848
0.99479 0.994753 0.887262
0.994772 0.996159 0.858943
0.994915 1.00394 0.995074
0.994755 0.9948 0.899452
0.994799 0.996112 0.876176
0.99494 1.00055 0.97306
0.994666 0.996423 0.853632
0.996762 0.999901 0.89433
0.994855 0.999852 0.939666
0.995605 1.0047 0.988933
0.994823 0.99482 0.886076
0.994655 0.995946 0.863285
0.998494 0.997769 0.901085
0.995067 0.999941 0.947814
0.995005 1.00001 0.965779
0.995272 1.00343 0.999621
0.996167 1.00376 0.997984
0.997097 1.00093 0.998908
0.995504 1.00513 0.997088
0.998325 1.00062 0.996546
1.00262 0.999092 0.992145
1.00229 1.00226 0.99072
1.00244 1.0036 0.987414
1.00303 1.00431 0.984458
1.00335 1.00282 0.986169
1.00443 1.0039 0.983083
1.00428 1.00443 0.982596
1.00495 1.00122 0.984704
1.00505 1.00129 0.984502
1.00481 1.002 0.984067
1.00423 1.00155 0.985438
1.00441 1.00168 0.985219
1.00449 1.00239 0.984279
1.00274 1.00367 0.986567
1.00336 1.00239 0.986708
1.00339 1.00199 0.986621
1.00049 1.00494 0.988736
1.00078 1.00455 0.988668
1.00174 1.00391 0.988224
1.00006 1.00287 0.99168
1.00017 1.00456 0.989942
1.00027 1.00496 0.989694
0.999923 0.999143 0.995712
1.00021 1.00191 0.992518
1.00019 1.00367 0.990984
1.00023 1.00141 0.993001
1 0.998879 0.995853
0.99976 0.997443 0.999088
1.0001 0.998607 0.995968
0.999833 0.997273 0.999104
0.999896 0.997136 0.999114
1.00032 1.00413 0.990102
1.00048 1.0031 0.990944
1.00033 1.00146 0.992751
1.00038 1.00282 0.991349
1.00017 0.998569 0.995867
1.00029 1.0011 0.993182
1.00033 1.00255 0.991662
1.00002 0.996884 0.999132
1.00016 0.998303 0.996152
1.0002 1.00085 0.993542
1.00003 0.996707 0.999203
1.00015 0.998068 0.996415
1.00004 0.99658 0.999253
0.994737 0.994786 0.897392
0.994757 0.994804 0.902902
0.99476 0.994821 0.898888
1.00042 1.00389 0.990196
1.0005 1.00403 0.989865
1.00027 1.00359 0.990269
1.00018 1.00431 0.989921
1.00059 1.00435 0.989918
1.00044 1.0036 0.990405
1.00035 1.00375 0.990414
1.00038 1.00389 0.990272
1.00044 1.00386 0.990362
1.00004 1.00463 0.990333
0.994795 0.996251 0.876606
0.994798 0.994763 0.880248
0.994818 0.994773 0.89053
0.994844 0.994801 0.871351
0.995026 0.999894 0.89327
0.995041 0.997975 0.961576
0.994901 0.999932 0.949381
0.995282 0.996361 0.963879
0.994916 0.999287 0.95007
0.994849 0.99997 0.900378
0.994803 0.996226 0.857554
0.994857 0.995268 0.968713
0.994905 0.999995 0.94993
0.995283 0.999862 0.906627
0.994693 0.996217 0.863324
0.998612 1.00392 0.992998
0.999642 1.00481 0.990736
1.00022 1.00435 0.990078
0.995046 1.00141 0.985966
0.995257 1.00427 0.998536
0.999409 1.00419 0.991556
0.997084 1.00519 0.993858
0.9975 1.00434 0.994806
0.996272 1.00369 0.997521
0.994908 0.999494 0.988474
0.995965 1.00199 0.998851
0.995959 0.999775 0.990078
0.994841 0.995653 0.89028
0.994733 0.994776 0.904061
0.994758 0.994754 0.912393
0.994987 1.00274 0.995385
0.994971 1.00078 0.969735
0.994758 0.994823 0.899246
0.995752 0.999964 0.947306
0.994947 0.99991 0.907008
0.994784 0.996105 0.876051
0.9947 0.996483 0.842447
0.99551 1.00475 0.989511
0.994814 0.995141 0.885974
0.994677 0.996027 0.860874
0.994967 0.999988 0.966771
0.998369 0.999012 0.901706
0.995909 0.999919 0.943215
0.995019 1.00474 0.98688
0.994686 0.994833 0.869435
0.999797 0.997232 0.906895
0.997534 0.998582 0.939256
0.994843 0.997392 0.968788
0.995518 1.00462 0.997977
0.996897 1.00112 0.998834
1.00076 1.00231 0.992975
0.997106 1.00106 0.996812
1.00147 0.999618 0.992375
1.00368 0.999378 0.988774
1.00283 1.00335 0.98736
1.00312 1.00419 0.984456
1.00431 1.00176 0.984723
1.00476 1.00392 0.982714
1.00433 1.00404 0.982695
1.00475 1.00109 0.985064
1.00514 0.999098 0.9863
1.00509 1.00057 0.984945
1.00489 1.00111 0.98479
1.00507 1.00151 0.984423
1.00504 1.00132 0.984484
1.00476 1.00212 0.98404
1.00409 1.00234 0.985449
1.00421 1.00158 0.985539
1.0044 1.00162 0.98538
1.00174 1.0041 0.987543
1.00253 1.0036 0.986746
1.0032 1.00237 0.986678
1.00007 1.00426 0.990141
1.00064 1.00494 0.98875
1.00084 1.00463 0.988887
0.999853 0.999706 0.995929
1.00015 1.00289 0.991656
1.00038 1.00449 0.989966
0.999693 0.997699 0.99776
0.999919 0.999244 0.995957
1.00024 1.00189 0.992499
0.999999 0.998912 0.995837
0.999757 0.997479 0.999078
0.999826 0.997295 0.999099
1.00022 1.00439 0.990018
1.00042 1.00359 0.990561
1.00027 1.00419 0.990064
1.00036 1.00183 0.992334
1.00038 1.00325 0.990937
1.00015 0.998885 0.995597
1.00033 1.00144 0.992755
1.00045 1.00274 0.991337
0.999997 0.997085 0.99907
1.00017 0.998549 0.995883
1.00027 1.00112 0.993181
1.00002 0.996871 0.99915
1.00016 0.998289 0.996169
1.00004 0.99669 0.999217
0.994818 0.994828 0.892493
0.994746 0.994794 0.897203
0.994748 0.994804 0.904428
1.00054 1.00315 0.99051
1.00035 1.00405 0.990223
1.00042 1.00401 0.989896
1.00035 1.00436 0.98989
1.00058 1.00345 0.990322
1.00043 1.00414 0.990212
1.00102 1.00384 0.989231
0.999671 1.00477 0.990122
1.00045 1.0038 0.990279
1.00014 1.00394 0.990403
0.999896 1.00454 0.990316
0.999263 1.00499 0.991668
0.994859 0.996114 0.864219
0.994833 0.996261 0.876264
0.994782 0.994763 0.880378
0.994776 0.995884 0.864689
0.994838 0.999955 0.900194
0.995014 0.99971 0.940432
0.995141 0.996118 0.962726
0.994858 0.99534 0.970226
0.994713 0.996415 0.852587
0.994886 0.999637 0.94455
0.996831 0.999922 0.894747
0.994864 0.996159 0.971055
0.995089 0.999956 0.950206
0.998982 0.998549 0.897465
0.999134 1.00149 0.995207
0.998765 1.00399 0.992957
0.999531 1.00474 0.990674
0.994873 0.999844 0.98868
0.995586 1.00332 0.997601
0.997486 1.004 0.994819
0.997104 1.00186 0.998713
0.995471 0.999593 0.990185
0.996945 0.99856 0.993452
0.994749 0.996609 0.873934
0.994835 0.995273 0.893512
0.994737 0.994764 0.904928
0.995366 1.0047 0.989834
0.994857 0.999975 0.966838
0.994805 0.99551 0.885978
0.994946 0.99995 0.94043
0.998347 0.997729 0.890111
0.994701 0.995996 0.866946
0.994963 1.00472 0.986884
0.994698 0.995165 0.876312
0.999824 0.996099 0.895988
0.994946 0.997042 0.964877
0.997423 0.99892 0.948199
0.99609 1.00286 0.991006
0.999836 0.995404 0.894866
1.00001 0.997209 0.948934
0.994876 0.995346 0.964256
0.996646 1.0011 0.998867
1.00003 1.00166 0.993062
1.00282 1.00237 0.988741
1.00037 1.00012 0.992612
1.00306 1.00003 0.988728
1.00448 0.998518 0.987903
1.00318 1.00409 0.984453
1.0042 1.00183 0.984699
1.00498 0.997726 0.987409
1.00436 1.00361 0.982794
1.00467 1.0009 0.98511
1.0051 0.99736 0.987966
1.00512 0.997291 0.988224
1.00517 0.999323 0.986073
1.00514 0.998966 0.986443
1.00511 1.00072 0.984853
1.00508 1.00058 0.985021
1.00486 1.00101 0.984876
1.00499 1.00125 0.984868
1.00497 1.00145 0.984534
1.00503 1.00132 0.984465
1.00323 1.00287 0.986275
1.00404 1.00232 0.98544
1.00423 1.00158 0.985638
1.00076 1.00482 0.988587
1.00184 1.00417 0.987516
1.00232 1.00352 0.986926
0.999787 1.00058 0.994418
1.00032 1.00408 0.990144
1.00083 1.00495 0.988764
0.999609 0.998012 0.998974
0.999841 0.999808 0.995195
1.00023 1.00287 0.991632
0.9997 0.997687 0.999044
0.999892 0.999321 0.995624
0.999757 0.99753 0.999068
1.00076 1.00381 0.989765
1.00029 1.00437 0.989961
1.00045 1.00395 0.990154
1.0003 1.00232 0.991954
1.00038 1.00361 0.990554
1.00031 1.00413 0.990025
1.00013 0.999195 0.995326
1.00033 1.00186 0.992339
1.0003 1.00337 0.990931
0.999962 0.997309 0.999002
1.00015 0.998842 0.995611
1.00033 1.00144 0.992758
0.999999 0.997047 0.999088
1.00017 0.998532 0.995898
1.00002 0.99683 0.999167
0.994995 0.995674 0.863574
0.994878 0.994813 0.892426
0.994755 0.994803 0.897018
1.00038 1.00345 0.990447
1.00164 1.00314 0.989953
1.00061 1.00359 0.990069
1.00038 1.00447 0.989859
1.00089 1.0033 0.990374
1.00012 1.00382 0.990505
0.999909 1.00479 0.990027
1.00077 1.00401 0.989389
1.00052 1.00465 0.989337
0.999941 1.00074 0.993793
1.00013 1.00448 0.990299
0.999363 1.00481 0.991337
0.999797 0.997283 0.890591
0.994826 0.996097 0.858538
0.994969 0.996271 0.876038
0.994734 0.996722 0.84151
0.996473 0.999144 0.906848
0.994844 0.999934 0.941969
0.994927 0.995539 0.967952
0.99491 0.996094 0.969762
0.998368 0.999401 0.900074
0.995976 0.999905 0.940792
0.994895 0.997444 0.971291
0.998402 0.99881 0.939067
1.00177 0.997725 0.994714
0.999048 1.00169 0.995081
0.998903 1.00409 0.992929
0.994989 0.999417 0.990245
0.998019 1.00174 0.998562
0.997519 0.998702 0.993033
0.998767 0.998069 0.990839
0.999855 0.994856 0.904344
0.994742 0.996065 0.873663
0.994832 0.994828 0.896648
0.994936 1.00489 0.987068
0.994919 0.996783 0.962829
0.994693 0.99543 0.876466
0.998591 0.998362 0.938253
0.999837 0.996405 0.907663
0.995695 1.00221 0.988634
0.999855 0.995254 0.902087
1.00145 0.996882 0.938174
0.994915 0.995377 0.967658
0.998193 0.997573 0.990687
1.00002 0.995585 0.949774
0.99621 0.995668 0.970117
0.999347 1.00072 0.993075
1.00266 1.0005 0.988734
1.00486 0.998311 0.988694
1.00243 1.0007 0.988688
1.0042 0.998719 0.987925
1.00492 0.996286 0.989225
1.00421 1.00187 0.984677
1.00493 0.998052 0.987327
1.00512 0.995655 0.989535
1.00461 1.00072 0.985155
1.0051 0.997383 0.987945
1.00513 0.995775 0.989649
1.00512 0.996354 0.989454
1.00514 0.997109 0.988442
1.00513 0.997952 0.987745
1.00517 0.999762 0.985859
1.00516 0.999396 0.986127
1.00513 0.998833 0.986588
1.00516 1.00079 0.984965
1.00512 1.00073 0.984832
1.00508 1.00058 0.985097
1.00438 1.00167 0.985473
1.00489 1.00135 0.984874
1.00485 1.00145 0.984646
1.00176 1.00409 0.987642
1.00327 1.00292 0.986264
1.004 1.00232 0.985429
0.999982 1.00148 0.99314
1.0009 1.0046 0.988592
1.002 1.00414 0.987491
0.999662 0.998341 0.998812
0.999822 1.00067 0.994362
1.00053 1.00399 0.990148
0.999653 0.998033 0.998264
0.999835 0.999897 0.995181
0.999716 0.997767 0.999007
1.00119 1.003 0.989825
1.00045 1.00398 0.989894
1.00037 1.00436 0.989726
1.00039 1.00435 0.989905
1.00034 1.00406 0.99015
1.00029 1.00276 0.991534
1.00006 0.999573 0.995072
1.0003 1.00229 0.991958
1.0003 1.0037 0.990547
0.999914 0.997536 0.998929
1.00012 0.999184 0.995338
1.00031 1.00189 0.992344
0.999964 0.997264 0.999023
1.00016 0.998812 0.995625
1 0.997027 0.999107
0.999821 0.994916 0.90277
0.994792 0.995638 0.866753
0.994833 0.994795 0.892326
1.00022 1.00384 0.990384
1.0006 1.00426 0.989407
1.00123 1.00305 0.990226
1.0028 1.00332 0.986783
1.00055 1.00415 0.989856
1.00008 1.00485 0.989934
1.00062 1.00422 0.989549
1.00027 1.00461 0.98959
1.00111 1.00331 0.988638
1.00144 0.999726 0.992777
1.00417 0.996822 0.990421
1.00025 1.00034 0.993855
0.999857 1.00405 0.991002
0.998698 0.997276 0.948589
0.999784 0.997614 0.895476
0.994674 0.996005 0.860839
0.998902 0.999696 0.887913
0.995462 0.999954 0.947651
0.994866 0.996023 0.970809
0.994883 0.997401 0.972996
0.997419 0.998843 0.949831
0.995872 0.997173 0.972443
1.00203 0.996035 0.995019
1.00108 0.998452 0.994782
0.998999 1.00198 0.994946
0.998271 0.998348 0.99271
0.999213 0.997921 0.990698
0.999984 0.994945 0.943668
0.999845 0.994884 0.908175
0.994727 0.995593 0.873505
0.995077 1.00206 0.986198
0.995044 0.995042 0.964541
0.999848 0.995423 0.902735
1.00039 0.997255 0.947835
0.997242 0.998758 0.991108
1.00115 0.995727 0.947931
0.996677 0.995123 0.967193
1.0014 0.996284 0.989867
0.999067 0.995475 0.976369
1.0025 0.998849 0.988811
1.00479 0.997145 0.988647
1.005 0.995912 0.990239
1.00388 0.998911 0.987944
1.00474 0.996475 0.989147
1.00518 0.994962 0.990154
1.00481 0.998394 0.987245
1.00511 0.995722 0.989484
1.00509 0.994999 0.990421
1.0051 0.997398 0.987925
1.00513 0.995812 0.989602
1.00515 0.995385 0.990211
1.00512 0.996117 0.989585
1.00512 0.996857 0.988937
1.00515 0.996924 0.988662
1.00514 0.997962 0.987723
1.00517 0.998798 0.986867
1.0052 1.00022 0.985466
1.00517 0.999806 0.985838
1.00515 0.999464 0.986182
1.00495 1.00073 0.985359
1.00513 1.00081 0.984918
1.00513 1.00073 0.984811
1.00288 1.00261 0.987133
1.00434 1.00176 0.985477
1.00475 1.00144 0.984881
1.00043 1.0019 0.991955
1.00181 1.004 0.987632
1.0032 1.00309 0.986254
0.999791 0.998915 0.998503
1.00006 1.0015 0.993114
1.0011 1.00436 0.988596
0.999734 0.998466 0.998716
0.999874 1.00075 0.994304
0.999724 0.998075 0.998879
1.00278 1.00316 0.986847
1.00128 1.00284 0.989791
1.00057 1.00422 0.98934
1.00019 1.00409 0.990024
1.00032 1.0044 0.989697
1.00032 1.00326 0.990961
1.00026 1.00413 0.990146
1.00026 1.00276 0.991542
0.99999 0.99995 0.994823
0.999845 0.997828 0.998861
1.00006 0.999537 0.995084
1.0003 1.00227 0.991962
0.999917 0.997519 0.998953
1.0001 0.999172 0.99535
0.999969 0.99722 0.999044
1.00003 0.995276 0.952539
0.999844 0.99488 0.901816
0.994705 0.9956 0.863062
1.0006 1.00484 0.988745
1.00092 1.00285 0.990501
1.00086 1.00396 0.989692
1.00274 1.00334 0.986965
1.00414 1.00255 0.984544
1.00138 1.00356 0.988239
1.00002 1.0046 0.989841
1.00189 1.00318 0.987827
1.0012 0.999763 0.99284
1.0031 0.999773 0.988937
1.00477 0.99594 0.990882
1.00402 0.996404 0.991137
1.00371 0.996789 0.990954
1.00001 1.00042 0.993921
0.995988 0.995861 0.971666
1.00001 0.997135 0.945517
0.998099 0.997249 0.906685
0.997603 0.999416 0.939064
0.994865 0.997786 0.973561
0.995728 0.997452 0.977371
0.999599 0.997619 0.992248
1.00239 0.995709 0.994892
1.00064 0.999024 0.99485
1.00049 0.998296 0.990545
0.996463 0.997434 0.972493
1.0002 0.995004 0.953696
0.999829 0.994876 0.897075
0.996497 0.999433 0.991351
0.996859 0.994887 0.969066
1.00004 0.996515 0.94588
1.00087 0.996258 0.989966
0.998446 0.995735 0.975769
1.00364 0.995545 0.990686
1.00269 0.998278 0.987065
1.0047 0.99606 0.988567
1.00487 0.995719 0.990265
1.00518 0.994859 0.990587
1.00461 0.996652 0.98907
1.00519 0.994958 0.990111
1.00513 0.994941 0.990503
1.0051 0.995789 0.989432
1.00507 0.995078 0.990389
1.00517 0.995048 0.990467
1.00513 0.995854 0.989554
1.00514 0.995374 0.990144
1.00512 0.995892 0.989693
1.00511 0.995887 0.989714
1.00512 0.996713 0.989078
1.00516 0.998052 0.987746
1.00514 0.997973 0.9877
1.00518 0.998851 0.986841
1.0052 0.999648 0.986141
1.00513 1.00028 0.985481
1.0052 1.00028 0.985415
1.00517 0.999854 0.985817
1.00378 1.0012 0.986963
1.00493 1.00078 0.985367
1.0051 1.00084 0.98487
1.00087 1.00192 0.991171
1.00284 1.00267 0.987138
1.00432 1.00184 0.98548
1.00002 0.99947 0.998101
1.00053 1.00183 0.991945
1.00186 1.00389 0.987622
0.999906 0.999027 0.998351
1.00013 1.00151 0.993088
0.999828 0.998545 0.998596
1.00422 1.0025 0.985012
1.00295 1.00313 0.986864
1.0018 1.00408 0.987445
1.00127 1.00279 0.989758
1.0007 1.00413 0.989208
1.00064 1.00358 0.990146
1.00025 1.00443 0.989668
1.0003 1.00328 0.990966
0.999916 1.00041 0.994496
1.00024 1.00277 0.991549
0.99998 0.999913 0.994839
0.99977 0.998124 0.99879
0.999851 0.997776 0.998883
1.00005 0.999507 0.995096
0.999915 0.997466 0.998975
0.996828 0.994874 0.973228
1.00003 0.995557 0.942739
0.999829 0.995226 0.909816
1.00512 1.0009 0.984601
1.00118 1.00377 0.989528
1.0027 1.00338 0.98715
1.00182 1.00345 0.987996
1.00426 1.00271 0.98452
1.00378 1.00079 0.986991
1.00261 1.00316 0.987018
1.00094 0.999775 0.99291
1.00349 0.999606 0.988792
1.00473 0.995845 0.9905
1.00482 0.996331 0.989277
1.00415 0.995528 0.992059
1.00392 0.996023 0.991108
1.00323 0.996706 0.991486
0.999881 0.996968 0.992074
0.995789 0.995643 0.969942
0.999382 0.996395 0.943027
0.995313 0.99716 0.976006
0.99979 0.996744 0.99434
1.00217 0.995338 0.994752
1.00053 0.997588 0.986336
0.996383 0.996129 0.973864
0.99999 0.994885 0.943781
0.999991 0.996754 0.990139
0.998443 0.996116 0.974681
1.00315 0.995514 0.99103
1.00279 0.997677 0.987544
1.00441 0.994862 0.991169
1.00458 0.997533 0.990665
1.00474 0.995511 0.990288
1.00518 0.994867 0.990475
1.00521 0.994859 0.990399
1.00518 0.99497 0.990068
1.00512 0.994936 0.990497
1.00518 0.994937 0.990506
1.00506 0.995159 0.990357
1.00516 0.995018 0.990442
1.00515 0.995475 0.99011
1.00513 0.995357 0.990078
1.00514 0.995904 0.989678
1.00515 0.99713 0.988597
1.00513 0.996568 0.989219
1.00516 0.997908 0.987924
1.0052 0.999163 0.986618
1.00518 0.998904 0.986815
1.0052 0.999653 0.986124
1.00517 1.00013 0.985649
1.00418 1.00047 0.986971
1.00509 1.00036 0.985474
1.0052 1.00034 0.985364
1.00139 1.00138 0.990867
1.00373 1.00126 0.986967
1.00491 1.00083 0.985375
1.00017 0.999928 0.997776
1.00106 1.00169 0.991166
1.0028 1.00269 0.987143
1.00011 0.999567 0.99797
1.00067 1.00172 0.99194
1.00002 0.999139 0.998199
1.00508 1.00121 0.984599
1.00422 1.00242 0.985014
1.00346 1.00294 0.985863
1.00312 1.00311 0.986881
1.00191 1.00412 0.987391
1.00104 1.00419 0.988937
1.00085 1.00405 0.989074
1.00046 1.0038 0.990152
0.999903 1.00097 0.99396
1.00023 1.00333 0.990971
0.999904 1.00036 0.994519
0.999713 0.998468 0.998689
0.999971 0.999878 0.994855
0.999774 0.998073 0.998816
0.999856 0.997748 0.998905
1.00102 0.994883 0.990296
0.996709 0.994882 0.96985
0.999995 0.994911 0.953018
1.00493 0.999735 0.986114
1.00516 0.999322 0.986318
1.00509 1.00082 0.98476
1.00224 1.00326 0.987749
1.00439 1.00288 0.984492
1.00396 1.00061 0.987048
1.00504 0.997256 0.988037
1.0039 0.999423 0.988647
1.00461 0.995819 0.99011
1.00485 0.996445 0.989469
1.005 0.995465 0.990002
1.00412 0.995426 0.991736
1.00382 0.995717 0.991954
1.00406 0.995727 0.991074
1.00017 0.996791 0.992201
0.995927 0.995551 0.968217
1.00012 0.996487 0.996512
1.0042 0.995554 0.991855
1.00046 0.997665 0.986527
0.996279 0.995819 0.971635
1.003 0.994886 0.991346
1.00284 0.997482 0.988059
1.00448 0.994983 0.991544
1.0046 0.996748 0.99064
1.00524 0.994936 0.990427
1.00529 0.994972 0.990629
1.00519 0.994871 0.990364
1.00522 0.994882 0.990381
1.0052 0.994928 0.990411
1.00512 0.994932 0.99049
1.00517 0.994939 0.990498
1.00518 0.995129 0.990401
1.00516 0.994987 0.990417
1.00516 0.995465 0.990095
1.00515 0.996478 0.989241
1.00515 0.995916 0.989662
1.00515 0.99715 0.988598
1.00521 0.998669 0.987056
1.00516 0.997763 0.988102
1.0052 0.999107 0.986684
1.00519 0.999948 0.985786
1.0052 0.999659 0.986106
1.00516 1.0001 0.985677
1.00434 1.00019 0.986983
1.00167 1.00077 0.990942
1.00417 1.00051 0.986959
1.00506 1.00043 0.985468
1.00025 1.00024 0.997569
1.00144 1.0013 0.990866
1.00365 1.00138 0.986972
1.00023 1.00002 0.997683
1.00116 1.00158 0.991163
1.00019 0.999686 0.997845
1.00516 1.00025 0.985381
1.00508 1.00112 0.984649
1.00464 1.00124 0.985421
1.00423 1.00233 0.985017
1.00344 1.00297 0.985876
1.00195 1.00375 0.9877
1.00198 1.00418 0.987338
1.00085 1.00432 0.98896
1.00011 1.0017 0.99296
1.00032 1.00399 0.990159
0.999875 1.00093 0.993985
0.999709 0.99891 0.998506
0.999896 1.00031 0.994542
0.999703 0.998395 0.998731
0.999777 0.998019 0.998839
1.00408 0.994855 0.992527
1.001 0.994903 0.988531
0.996566 0.994887 0.969205
1.00512 0.998455 0.987348
1.00504 0.999314 0.986335
1.00522 0.997998 0.987545
1.00517 0.999288 0.986321
1.00505 1.00072 0.98492
1.00513 0.996373 0.988897
1.00418 1.00044 0.987107
1.00501 0.997497 0.988032
1.00517 0.995071 0.990164
1.00489 0.996526 0.989666
1.00496 0.995575 0.989886
1.00416 0.995509 0.991871
1.00333 0.995873 0.991842
1.00044 0.996496 0.992238
1.00525 0.994901 0.990479
1.00416 0.996274 0.991932
1.0005 0.99737 0.986707
1.00452 0.995163 0.991912
1.00461 0.996033 0.99062
1.00524 0.994924 0.990469
1.00529 0.995023 0.990552
1.00523 0.994946 0.990623
1.00522 0.994905 0.990364
1.0052 0.994925 0.990428
1.00518 0.994949 0.990609
1.00517 0.994939 0.99049
1.00517 0.995127 0.990371
1.00516 0.995941 0.989741
1.00516 0.995467 0.99008
1.00515 0.996504 0.989236
1.00522 0.998188 0.987536
1.00514 0.997169 0.988598
1.00521 0.998676 0.987076
1.00521 0.999791 0.985943
1.0052 0.999049 0.98675
1.00519 0.999945 0.985806
1.0044 1.0001 0.98698
1.00515 1.00007 0.985705
1.00435 1.00019 0.986978
1.00174 1.00038 0.99259
1.00047 1.00007 0.994703
1.00172 1.00073 0.991648
1.00417 1.00055 0.986948
1.00028 1.00029 0.99753
1.00157 1.00112 0.990861
1.00027 1.00012 0.997599
1.00524 0.997896 0.987719
1.00522 0.999306 0.986332
1.00517 1.00026 0.985481
1.00493 1.0005 0.985622
1.00509 1.00105 0.984698
1.0047 1.00116 0.985403
1.00314 1.00217 0.987087
1.00343 1.00296 0.985888
1.0019 1.00377 0.987698
1.00061 1.00206 0.991698
1.00069 1.00453 0.988981
0.999991 1.00172 0.992991
0.999812 0.999531 0.998138
0.999849 1.00088 0.994009
0.999668 0.998801 0.998583
0.999701 0.998329 0.998766
1.00523 0.994859 0.990455
1.00443 0.99485 0.992435
1.00116 0.994899 0.986813
1.00515 0.99697 0.988432
1.00513 0.998388 0.987193
1.00511 0.998915 0.986554
1.0052 0.998135 0.987507
1.00519 0.999251 0.986325
1.00523 0.995442 0.990036
1.0051 0.996371 0.988859
1.00499 0.997757 0.988024
1.00517 0.995037 0.99017
1.00497 0.995669 0.989771
1.00417 0.995619 0.992027
1.00522 0.994904 0.990725
1.00525 0.994902 0.990649
1.0041 0.997007 0.992014
1.00523 0.994915 0.990504
1.0053 0.994965 0.990478
1.00523 0.994947 0.99057
1.00516 0.994945 0.990852
1.0052 0.994925 0.990445
1.00518 0.994941 0.990575
1.00517 0.99554 0.990166
1.00517 0.995115 0.990341
1.00517 0.995961 0.98974
1.00522 0.997818 0.987923
1.00515 0.99653 0.989232
1.00522 0.998194 0.987548
1.00522 0.999618 0.98612
1.0052 0.998681 0.987096
1.00521 0.999781 0.985961
1.00444 1.00009 0.986932
1.00519 0.999941 0.985825
1.00441 1.00009 0.986984
1.00184 1.0001 0.992709
1.00436 1.0002 0.986973
1.0019 1.00029 0.992514
1.00046 0.999981 0.994874
1.00027 1.00032 0.996137
1.00189 1.00066 0.992222
1.00028 1.00037 0.997504
1.00518 0.997238 0.988498
1.00524 0.998922 0.986625
1.00523 0.997702 0.987909
1.00508 1.00007 0.985748
1.00523 0.999386 0.986277
1.00519 1.00028 0.98558
1.00499 1.00045 0.985595
1.00393 1.00089 0.986959
1.00476 1.0011 0.985384
1.00322 1.00206 0.987068
1.00116 1.00179 0.990925
1.00183 1.00378 0.987697
1.00042 1.00224 0.991716
0.999961 1.00028 0.99772
0.999853 1.0018 0.993019
0.999707 0.999419 0.998292
0.999648 0.998698 0.998648
1.00523 0.994904 0.99049
1.00522 0.99486 0.990439
1.00472 0.994866 0.99231
1.00518 0.996066 0.989523
1.00514 0.997048 0.988415
1.00514 0.998325 0.98704
1.00519 0.998273 0.98747
1.00521 0.995452 0.989965
1.00508 0.996378 0.988821
1.00516 0.995022 0.990177
1.00516 0.994917 0.990872
1.00522 0.994908 0.990716
1.00523 0.994909 0.990818
1.0052 0.994948 0.990825
1.00523 0.994946 0.990517
1.00517 0.994944 0.990819
1.00517 0.995391 0.99046
1.00518 0.994933 0.990541
1.00517 0.995566 0.990167
1.00521 0.997609 0.988201
1.00518 0.995986 0.989739
1.00522 0.997822 0.987931
1.00522 0.999419 0.986343
1.00522 0.998201 0.98756
1.00522 0.999605 0.986135
1.00448 1.00007 0.986898
1.00521 0.999771 0.985979
1.00445 1.00008 0.986941
1.00192 1.00005 0.992654
1.00442 1.00008 0.986987
1.00198 1.00005 0.992603
1.00051 0.999884 0.994908
1.00205 1.00019 0.992446
1.00016 1.00014 0.995064
0.999826 1.00061 0.997835
1.00517 0.997159 0.988502
1.00522 0.998363 0.987326
1.00519 0.997295 0.988354
1.00523 0.999768 0.986063
1.00525 0.998719 0.986805
1.00522 0.997513 0.988098
1.00432 1.00024 0.986961
1.00513 1.00006 0.985718
1.00524 0.999464 0.986222
1.00505 1.0004 0.985569
1.00397 1.00083 0.986966
1.00149 1.00124 0.990848
1.00329 1.00193 0.987049
1.00104 1.00193 0.990932
1.00001 1.00077 0.997516
1.00028 1.00235 0.991738
0.999855 1.00012 0.997877
0.999635 0.999241 0.998423
1.00516 0.995349 0.99035
1.00523 0.994901 0.990494
1.00522 0.994855 0.990423
1.00518 0.995981 0.989612
1.00512 0.997119 0.988398
1.0052 0.995455 0.989895
1.00521 0.994921 0.990847
1.00516 0.994925 0.990884
1.00522 0.99491 0.990708
1.00519 0.994946 0.99087
1.00521 0.995633 0.990157
1.00517 0.994945 0.990786
1.00517 0.995549 0.990279
1.0052 0.997191 0.98873
1.00517 0.995588 0.990168
1.0052 0.997582 0.988207
1.00522 0.999201 0.986579
1.00522 0.997815 0.987939
1.00522 0.999405 0.986352
1.0045 1 0.986922
1.00522 0.999592 0.986149
1.00448 1.00006 0.98691
1.00196 1.00012 0.992499
1.00446 1.00006 0.986951
1.00204 1 0.992529
1.00058 0.999887 0.994816
1.0021 1 0.992507
1.00024 0.999936 0.995122
0.999872 1.00032 0.995237
1.00517 0.996499 0.989297
1.00521 0.998182 0.987517
1.00518 0.99697 0.988663
1.00524 0.999323 0.986508
1.00522 0.998458 0.987213
1.0052 0.997352 0.98821
1.00447 0.999919 0.987032
1.00523 0.999639 0.986069
1.00526 0.998518 0.986985
1.00168 1.00064 0.991073
1.00433 1.00021 0.986973
1.00518 1.00005 0.985688
1.004 1.00078 0.986974
1.00143 1.00132 0.990853
1.00004 1.00088 0.9975
1.00093 1.00207 0.990941
0.999991 1.00063 0.997575
0.999734 0.999965 0.998042
1.00519 0.995131 0.990559
1.00516 0.995387 0.990292
1.00523 0.994899 0.990499
1.00518 0.995902 0.9897
1.00518 0.995726 0.990099
1.00521 0.994928 0.990861
1.00517 0.994933 0.990896
1.00519 0.994944 0.990916
1.00521 0.995607 0.990177
1.00521 0.997239 0.988674
1.00517 0.995702 0.990099
1.0052 0.997416 0.988437
1.00521 0.998802 0.987024
1.0052 0.997564 0.988213
1.00522 0.999195 0.986582
1.00451 0.999912 0.986997
1.00522 0.999399 0.98636
1.0045 1 0.986931
1.00202 1.00018 0.990997
1.00448 1.00006 0.986922
1.00207 1.00008 0.991698
1.00049 0.999942 0.997508
1.00216 0.999975 0.992405
1.00033 0.999876 0.995042
0.999993 0.999982 0.99532
1.00518 0.996046 0.989764
1.00521 0.997829 0.987964
1.00517 0.996567 0.989261
1.00523 0.999072 0.986632
1.00521 0.998189 0.987504
1.00518 0.996776 0.988825
1.00451 0.999706 0.986983
1.00524 0.999325 0.986516
1.00522 0.998551 0.987101
1.00185 1.00011 0.99129
1.00446 0.999873 0.986968
1.00524 0.999502 0.986075
1.00013 1.00067 0.997564
1.00168 1.00064 0.991079
1.00433 1.00018 0.986984
1.00136 1.00138 0.99086
1.00005 1.00079 0.997495
0.999915 1.00054 0.997659
1.00516 0.995671 0.9902
1.0052 0.995185 0.990529
1.00516 0.995425 0.990235
1.00516 0.997322 0.988579
1.00519 0.995607 0.990192
1.0052 0.994936 0.990875
1.00521 0.995579 0.990197
1.00521 0.9972 0.988684
1.00519 0.998741 0.987277
1.0052 0.997644 0.988145
1.00521 0.998969 0.986903
1.0045 0.99969 0.987095
1.00522 0.999182 0.986586
1.00451 0.999909 0.987002
1.00204 1.00014 0.991015
1.0045 1 0.98694
1.00203 1.00016 0.990997
1.00048 0.999987 0.997476
1.0021 1.00007 0.990997
1.00039 0.999939 0.996253
1.00009 0.999843 0.995265
1.00518 0.996135 0.989645
1.00521 0.99765 0.988158
1.00519 0.99601 0.989825
1.00522 0.999112 0.986597
1.00522 0.997885 0.987883
1.00517 0.996638 0.989224
1.00454 0.999627 0.987045
1.00523 0.999203 0.986575
1.00521 0.998198 0.987492
1.00198 0.999876 0.991314
1.0045 0.999703 0.986988
1.00524 0.999328 0.986524
1.0003 1.00031 0.997596
1.00187 1.00009 0.991292
1.00445 0.999825 0.986902
1.00014 1.00063 0.997534
1.00167 1.00063 0.991084
1.00002 1.00075 0.997506
1.00517 0.997181 0.988749
1.00516 0.995757 0.990086
1.00521 0.995237 0.990498
1.00518 0.99863 0.98741
1.00516 0.997218 0.988682
1.00519 0.995488 0.990285
1.00521 0.997162 0.988693
1.00519 0.998745 0.987273
1.00446 0.999593 0.987271
1.00521 0.999138 0.986782
1.0045 0.999751 0.987093
1.00204 1.00005 0.991089
1.00451 0.999904 0.987007
1.00202 1.00014 0.991018
1.00047 1.00001 0.997443
1.00203 1.00015 0.990997
1.00048 0.999999 0.997458
1.00047 0.999899 0.994791
1.0052 0.997542 0.988234
1.00517 0.995958 0.989817
1.00522 0.998982 0.98677
1.00521 0.997656 0.988143
1.0052 0.995974 0.989886
1.00453 0.999686 0.987196
1.00522 0.999121 0.986592
1.00522 0.997939 0.987802
1.00206 0.999857 0.991205
1.00453 0.999676 0.987078
1.00523 0.999338 0.986517
1.00045 1.00005 0.997553
1.00199 0.999868 0.991316
1.0045 0.999693 0.986992
1.00027 1.00033 0.997586
1.00188 1.00008 0.991294
1.00014 1.00061 0.997512
1.00519 0.998615 0.987381
1.00516 0.997264 0.988651
1.00515 0.995851 0.989971
1.00442 0.999543 0.987382
1.00518 0.998635 0.987408
1.00517 0.997109 0.988785
1.00519 0.998751 0.987268
1.00447 0.999583 0.987247
1.002 1.00001 0.991213
1.0045 0.999812 0.987089
1.00203 1.00006 0.991093
1.00048 1.00001 0.997437
1.00203 1.00014 0.991022
1.00047 1.00003 0.997444
1.00048 1.00001 0.997447
1.00521 0.998866 0.986907
1.00521 0.99731 0.988485
1.00515 0.99578 0.989989
1.00449 0.999667 0.987297
1.00521 0.99899 0.98676
1.00522 0.997662 0.988128
1.00206 0.999943 0.991138
1.00451 0.999691 0.98719
1.00522 0.99913 0.986588
1.00052 0.999949 0.997482
1.00206 0.999874 0.991205
1.00452 0.999718 0.987111
1.00041 1.00009 0.997573
1.00199 0.999878 0.991317
1.00028 1.00032 0.997566
1.00442 0.999645 0.987429
1.00519 0.998554 0.987376
1.00516 0.997346 0.988553
1.00196 0.999945 0.991352
1.00443 0.999526 0.987369
1.00518 0.998638 0.987406
1.00449 0.999569 0.987224
1.002 0.999988 0.991219
1.00047 1.00001 0.997434
1.00201 1.00007 0.991096
1.00047 1.00002 0.99743
1.00045 1.00004 0.997443
1.00444 0.99965 0.987384
1.00521 0.998728 0.987054
1.00521 0.997081 0.988736
1.00212 0.999996 0.99242
1.00447 0.999667 0.987298
1.00521 0.999 0.986749
1.00051 0.999956 0.997442
1.00207 0.999963 0.991138
1.0045 0.999697 0.987184
1.00051 0.999979 0.99751
1.00206 0.999898 0.991205
1.00039 1.0001 0.997587
1.00202 0.999947 0.991297
1.00442 0.99958 0.98741
1.00519 0.998489 0.987372
1.00041 0.999993 0.997472
1.00195 0.999946 0.991351
1.00444 0.999511 0.987357
1.00199 0.999972 0.991223
1.00045 1.00001 0.997445
1.00046 1.00003 0.997431
1.00214 0.999975 0.992453
1.00444 0.999648 0.987384
1.0052 0.998588 0.9872
1.00011 0.999993 0.99783
1.00202 1 0.991188
1.00447 0.999664 0.987299
1.00051 0.999967 0.997461
1.00207 0.999985 0.991137
1.00049 0.999999 0.997534
1.0004 0.999978 0.994897
1.00204 0.999946 0.991935
1.00442 0.999516 0.987391
1.00043 0.999994 0.997477
1.00195 0.999948 0.991355
1.00046 1 0.997451
1.00002 0.999998 0.995264
1.00206 0.999969 0.991875
1.00443 0.99965 0.987383
1.00027 0.999989 0.996325
1.00202 1 0.991199
1.00052 0.999978 0.997482
1.00041 0.999985 0.997477
1.00194 0.999942 0.99138
1.0004 0.999993 0.997478
1.00022 0.999983 0.996376
1.00198 0.999966 0.991315
1.00048 0.999981 0.99746
1.00042 0.999983 0.997488
1.00042 0.999983 0.997476

TENSORS stress float
0.00179165 -0.000104406 0.000191938
-0.000104406 0.000731957 -2.74393e-05
0.000191938 -2.74393e-05 0.000709966
0.00561283 -8.16099e-05 0.000190846
-8.16099e-05 0.00304331 1.99939e-05
0.000190846 1.99939e-05 0.00302751
0.00155356 -3.53235e-05 8.73765e-05
-3.53235e-05 0.000595348 -1.08539e-05
8.73765e-05 -1.08539e-05 0.000564044
0.00190192 -6.14837e-05 0.000190782
-6.14837e-05 0.000773171 -1.69642e-05
0.000190782 -1.69642e-05 0.000755854
0.00185656 -9.33384e-05 0.000187992
-9.33384e-05 0.00076189 -2.46165e-05
0.000187992 -2.46165e-05 0.000741923
0.00172703 -0.000101678 0.000196696
-0.000101678 0.000693211 -2.74219e-05
0.000196696 -2.74219e-05 0.000672583
0.00153422 -8.20263e-05 3.16264e-05
-8.20263e-05 0.000501986 -1.02152e-05
3.16264e-05 -1.02152e-05 0.000414879
0.00555129 -8.72733e-05 -7.0515e-06
-8.72733e-05 0.00299575 1.74189e-07
-7.0515e-06 1.74189e-07 0.00298548
0.00553628 8.99868e-05 9.0258e-05
8.99868e-05 0.00295507 6.00662e-06
9.0258e-05 6.00662e-06 0.00293993
0.00531064 -0.000179154 2.64963e-05
-0.000179154 0.00285491 2.63802e-06
2.64963e-05 2.63802e-06 0.0028242
0.00170859 0.000107867 0.00019473
0.000107867 0.000677259 1.92072e-05
0.00019473 1.92072e-05 0.000668687
0.000613518 0.000199689 2.37729e-05
0.000199689 -3.08575e-05 1.49012e-05
2.37729e-05 1.49012e-05 -0.000128564
0.00166412 -3.35625e-05 0.000198602
-3.35625e-05 0.000626986 2.70441e-06
0.000198602 2.70441e-06 0.000620208
0.0012949 -8.66638e-06 3.92657e-05
-8.66638e-06 0.000428896 1.13355e-06
3.92657e-05 1.13355e-06 0.000390693
0.00138092 -2.83351e-05 -3.38281e-05
-2.83351e-05 0.000495098 6.00687e-06
-3.38281e-05 6.00687e-06 0.000456938
0.00159767 -6.51666e-05 6.6208e-05
-6.51666e-05 0.000605276 -3.79996e-06
6.6208e-05 -3.79996e-06 0.000576801
0.00154565 -1.85239e-05 9.42241e-05
-1.85239e-05 0.00059844 -1.05824e-05
9.42241e-05 -1.05824e-05 0.000563195
0.00157186 -5.01204e-05 7.76658e-05
-5.01204e-05 0.000595004 -9.19039e-06
7.76658e-05 -9.19039e-06 0.000567931
0.00159677 -0.000122337 -3.2567e-05
-0.000122337 0.000531675 3.54905e-06
-3.2567e-05 3.54905e-06 0.000453112
0.00556111 -0.000114041 0.000241638
-0.000114041 0.00297762 -7.68194e-06
0.000241638 -7.68194e-06 0.00298378
0.00187123 -4.29618e-05 0.000192651
-4.29618e-05 0.000752648 -1.26495e-05
0.000192651 -1.26495e-05 0.000736392
0.00190269 -7.91937e-05 0.000188716
-7.91937e-05 0.000779761 -2.10443e-05
0.000188716 -2.10443e-05 0.000761616
0.00155215 -0.000108769 5.2869e-05
-0.000108769 0.000486971 -8.05233e-06
5.2869e-05 -8.05233e-06 0.000408795
0.00154283 -9.53733e-05 4.07716e-05
-9.53733e-05 0.000490283 -9.40357e-06
4.07716e-05 -9.40357e-06 0.000410707
0.00164903 -7.41204e-05 0.000190249
-7.41204e-05 0.000639012 -2.36933e-05
0.000190249 -2.36933e-05 0.000621895
0.00148731 -6.90283e-05 2.41314e-05
-6.90283e-05 0.000495037 -1.10478e-05
2.41314e-05 -1.10478e-05 0.000398866
0.00203673 -0.000228643 1.44289e-05
-0.000228643 0.000655696 -6.44314e-06
1.44289e-05 -6.44314e-06 0.000505899
0.00550591 -0.000101974 -0.000188523
-0.000101974 0.00295989 -1.17987e-05
-0.000188523 -1.17987e-05 0.0029539
0.00357187 8.30836e-05 -0.00011052
8.30836e-05 0.00178779 -9.67232e-06
-0.00011052 -9.67232e-06 0.0017691
0.00345508 -2.50283e-05 -0.000104401
-2.50283e-05 0.00174018 -5.93305e-06
-0.000104401 -5.93305e-06 0.00171634
0.00534791 -0.000148365 8.27863e-07
-0.000148365 0.00288732 4.0721e-07
8.27863e-07 4.0721e-07 0.00286983
0.00057279 0.000186591 -2.31167e-06
0.000186591 -5.45738e-05 -6.74966e-07
-2.31167e-06 -6.74966e-07 -0.000150198
0.00161317 5.53247e-05 0.000194406
5.53247e-05 0.000606684 1.54217e-05
0.000194406 1.54217e-05 0.000590897
0.00176269 0.000130851 0.000197047
0.000130851 0.000720242 2.31728e-05
0.000197047 2.31728e-05 0.000698082
0.00263626 0.000178755 0.000120022
0.000178755 0.00113711 1.55997e-05
0.000120022 1.55997e-05 0.00106956
0.00423143 -0.000284517 -4.10715e-06
-0.000284517 0.00225654 5.27452e-06
-4.10715e-06 5.27452e-06 0.00220765
0.00272359 0.000227355 0.000120245
0.000227355 0.00121773 1.80354e-05
0.000120245 1.80354e-05 0.00114401
0.000573566 0.000163557 2.74871e-05
0.000163557 -4.91392e-05 1.89401e-05
2.74871e-05 1.89401e-05 -0.000140656
0.000873744 0.000184163 1.04818e-05
0.000184163 3.05587e-05 5.51385e-06
1.04818e-05 5.51385e-06 -0.000136035
0.00335721 -0.000104883 0.000111533
-0.000104883 0.00169121 5.09631e-06
0.000111533 5.09631e-06 0.00169474
0.00556697 6.93595e-05 3.63366e-06
6.93595e-05 0.00297196 -1.41071e-06
3.63366e-06 -1.41071e-06 0.00298325
0.00351292 6.44389e-05 -9.15229e-05
6.44389e-05 0.00174686 -3.43122e-06
-9.15229e-05 -3.43122e-06 0.00173318
0.00547167 6.01052e-05 0.000236947
6.01052e-05 0.00291759 2.84811e-06
0.000236947 2.84811e-06 0.0029289
0.0012972 7.4089e-05 4.25764e-05
7.4089e-05 0.000428102 2.37057e-06
4.25764e-05 2.37057e-06 0.0003946
0.000657526 9.18113e-06 1.61939e-05
9.18113e-06 -7.3967e-05 1.668e-06
1.61939e-05 1.668e-06 -0.000147938
0.0054496 0.000193911 0.000123703
0.000193911 0.0029267 1.0899e-05
0.000123703 1.0899e-05 0.0029041
0.00270121 5.93443e-05 0.000116854
5.93443e-05 0.00114253 6.89155e-06
0.000116854 6.89155e-06 0.00109007
0.00123204 -7.39503e-05 -5.31556e-05
-7.39503e-05 0.000402862 6.59527e-06
-5.31556e-05 6.59527e-06 0.000361777
0.00128673 -6.96239e-05 -4.58315e-05
-6.96239e-05 0.000438077 7.10139e-06
-4.58315e-05 7.10139e-06 0.000399145
0.00143694 2.2553e-05 -2.20905e-05
2.2553e-05 0.000535071 5.88829e-06
-2.20905e-05 5.88829e-06 0.000493019
0.00161923 -0.000131062 -0.000103938
-0.000131062 0.000538349 1.69455e-05
-0.000103938 1.69455e-05 0.000467096
0.00349066 7.39907e-06 -9.67262e-05
7.39907e-06 0.00174019 -1.91455e-06
-9.67262e-05 -1.91455e-06 0.00172427
0.00158822 -4.887e-05 7.27256e-05
-4.887e-05 0.000594574 -3.19613e-06
7.27256e-05 -3.19613e-06 0.000568363
0.0015037 6.34089e-06 9.68661e-05
6.34089e-06 0.000576241 -8.46901e-06
9.68661e-05 -8.46901e-06 0.000539954
0.00159053 -5.89836e-05 7.06707e-05
-5.89836e-05 0.000600522 -6.45897e-06
7.06707e-05 -6.45897e-06 0.000574042
0.0016077 -8.9843e-05 -2.60985e-05
-8.9843e-05 0.000512567 1.24847e-06
-2.60985e-05 1.24847e-06 0.000441988
0.00157233 -0.000115142 -3.75922e-05
-0.000115142 0.000531701 3.60088e-06
-3.75922e-05 3.60088e-06 0.000447569
0.00160116 -0.000118847 -2.76536e-05
-0.000118847 0.000522868 2.54281e-06
-2.76536e-05 2.54281e-06 0.000448675
0.00202382 -0.000226714 -7.39141e-06
-0.000226714 0.00064571 1.98231e-06
-7.39141e-06 1.98231e-06 0.000496251
0.00544081 3.71184e-05 0.000231102
3.71184e-05 0.00289865 -2.75643e-07
0.000231102 -2.75643e-07 0.00291074
0.00183658 -2.34348e-05 0.000191996
-2.34348e-05 0.000734532 -8.68056e-06
0.000191996 -8.68056e-06 0.000720057
0.00242048 1.56052e-05 3.7333e-05
1.56052e-05 0.000992566 -9.56226e-07
3.7333e-05 -9.56226e-07 0.00093135
0.00155193 -8.78332e-05 4.63451e-05
-8.78332e-05 0.000478429 -5.44237e-06
4.63451e-05 -5.44237e-06 0.000404726
0.00154931 -0.000103741 4.81958e-05
-0.000103741 0.000486628 -8.87234e-06
4.81958e-05 -8.87234e-06 0.000409002
0.0019047 -0.000140946 1.15716e-05
-0.000140946 0.000522861 -3.05013e-06
1.15716e-05 -3.05013e-06 0.000394166
0.0016717 -0.000185238 1.58827e-05
-0.000185238 0.000415052 -5.71877e-06
1.58827e-05 -5.71877e-06 0.000273168
0.00120969 -3.29888e-05 0.000152953
-3.29888e-05 0.000379006 -1.69282e-05
0.000152953 -1.69282e-05 0.000365938
0.00134683 -2.51106e-05 1.52806e-05
-2.51106e-05 0.000434819 -1.1182e-05
1.52806e-05 -1.1182e-05 0.000339076
0.00198778 -0.000245725 1.33719e-05
-0.000245725 0.000655161 -6.98712e-06
1.33719e-05 -6.98712e-06 0.000495704
0.00129211 -0.000233443 7.7196e-06
-0.000233443 9.25645e-05 -2.53479e-06
7.7196e-06 -2.53479e-06 -9.18101e-05
0.0058104 0.000158467 -0.000245942
0.000158467 0.00311908 -2.13264e-05
-0.000245942 -2.13264e-05 0.00312208
0.00500925 -0.000176671 -0.000144962
-0.000176671 0.00269084 -9.88866e-06
-0.000144962 -9.88866e-06 0.00267151
0.00556799 -2.5027e-05 -0.000206951
-2.5027e-05 0.00298447 -1.42818e-05
-0.000206951 -1.42818e-05 0.0029868
0.000534382 0.000181455 -2.42438e-05
0.000181455 -7.35559e-05 -1.50914e-05
-2.42438e-05 -1.50914e-05 -0.000170167
0.00581609 0.000172021 -2.90258e-06
0.000172021 0.00312148 -1.92337e-06
-2.90258e-06 -1.92337e-06 0.00312444
0.00582937 9.16476e-05 -8.72602e-06
9.16476e-05 0.00313208 -1.44672e-06
-8.72602e-06 -1.44672e-06 0.00313481
0.000513956 0.00012247 -9.49292e-08
0.00012247 -0.0001284 -2.18279e-07
-9.49292e-08 -2.18279e-07 -0.000217948
0.00276474 -0.000133388 -6.08148e-05
-0.000133388 0.00135325 -2.5115e-06
-6.08148e-05 -2.5115e-06 0.00132307
0.000516591 0.000182643 -4.95201e-07
0.000182643 -9.06964e-05 -3.48197e-07
-4.95201e-07 -3.48197e-07 -0.000188156
0.00158401 0.000144146 4.01339e-05
0.000144146 0.000561694 1.09131e-06
4.01339e-05 1.09131e-06 0.000484037
0.000877416 0.000182041 -3.08082e-08
0.000182041 2.85735e-05 2.55486e-07
-3.08082e-08 2.55486e-07 -0.000137277
0.00400532 -0.000111758 0.0001389
-0.000111758 0.00207756 8.05411e-06
0.0001389 8.05411e-06 0.00207751
0.000654825 -2.31993e-05 5.00115e-06
-2.31993e-05 6.0009e-05 8.96676e-06
5.00115e-06 8.96676e-06 1.62524e-05
0.00062841 9.23245e-05 1.69221e-05
9.23245e-05 -8.05198e-05 8.83619e-06
1.69221e-05 8.83619e-06 -0.000165412
0.000664984 0.000147756 2.18076e-05
0.000147756 -2.55963e-05 1.52398e-05
2.18076e-05 1.52398e-05 -0.000120977
0.000996096 0.000154045 1.37391e-05
0.000154045 -1.52819e-06 5.46147e-06
1.37391e-05 5.46147e-06 -0.000152403
0.00254056 7.85982e-05 8.98246e-05
7.85982e-05 0.00115331 1.20062e-05
8.98246e-05 1.20062e-05 0.00109726
0.000928586 0.000178337 1.17262e-05
0.000178337 2.74877e-05 6.5882e-06
1.17262e-05 6.5882e-06 -0.000132155
0.000853136 0.000193324 1.0284e-05
0.000193324 8.54484e-05 5.08823e-06
1.0284e-05 5.08823e-06 -9.17767e-05
0.00110489 0.000236021 5.23735e-06
0.000236021 9.53639e-05 1.48767e-06
5.23735e-06 1.48767e-06 -0.000108822
0.00281459 -0.000120298 6.35383e-05
-0.000120298 0.00136635 2.38367e-06
6.35383e-05 2.38367e-06 0.00136631
0.00315065 -0.000137818 1.20432e-05
-0.000137818 0.00157381 -3.13572e-07
1.20432e-05 -3.13572e-07 0.00156893
0.00574877 2.74917e-05 -0.000238851
2.74917e-05 0.00307288 -1.01482e-05
-0.000238851 -1.01482e-05 0.00308288
0.00562174 5.95986e-05 -0.000241923
5.95986e-05 0.00300191 -6.12736e-06
-0.000241923 -6.12736e-06 0.00301403
0.00554389 8.39485e-05 -1.56788e-07
8.39485e-05 0.00296652 -2.7701e-06
-1.56788e-07 -2.7701e-06 0.00297381
0.00346517 1.52062e-05 -0.000105201
1.52062e-05 0.00171682 -4.33595e-06
-0.000105201 -4.33595e-06 0.00170663
0.00165015 3.32439e-05 5.0075e-05
3.32439e-05 0.000518979 1.02381e-06
5.0075e-05 1.02381e-06 0.000457511
0.00359797 0.000112478 -9.3378e-05
0.000112478 0.00180139 -4.76408e-06
-9.3378e-05 -4.76408e-06 0.00178301
0.0016872 7.82586e-05 4.94442e-05
7.82586e-05 0.000542231 1.97838e-06
4.94442e-05 1.97838e-06 0.000475302
0.00551909 0.00013877 0.000239825
0.00013877 0.00296171 5.97289e-06
0.000239825 5.97289e-06 0.00296291
0.000582982 1.04013e-05 1.8577e-05
1.04013e-05 -0.000115014 5.36451e-07
1.8577e-05 5.36451e-07 -0.000187168
0.0027192 2.65462e-05 0.000116813
2.65462e-05 0.00115245 4.59945e-06
0.000116813 4.59945e-06 0.00110314
0.00102363 3.71497e-05 1.24627e-05
3.71497e-05 -1.91961e-05 1.22224e-06
1.24627e-05 1.22224e-06 -0.000142138
0.00262581 0.000101699 0.000119252
0.000101699 0.00110532 8.8531e-06
0.000119252 8.8531e-06 0.00104873
0.00104649 8.80197e-05 1.21696e-05
8.80197e-05 -7.77161e-06 2.51112e-06
1.21696e-05 2.51112e-06 -0.000140151
0.00167566 4.21499e-05 -0.000197194
4.21499e-05 0.000634934 1.79222e-06
-0.000197194 1.79222e-06 0.000628549
0.00127366 -9.78208e-07 -4.00973e-05
-9.78208e-07 0.000418813 1.79239e-06
-4.00973e-05 1.79239e-06 0.000381437
0.00142483 6.92661e-05 -1.24285e-05
6.92661e-05 0.000540366 6.54729e-06
-1.24285e-05 6.54729e-06 0.000491822
0.00123898 -7.91338e-05 -5.38106e-05
-7.91338e-05 0.000408769 7.55242e-06
-5.38106e-05 7.55242e-06 0.000368653
0.00172375 -6.97757e-05 -0.000102275
-6.97757e-05 0.000573562 8.88036e-06
-0.000102275 8.88036e-06 0.000511032
0.00167254 -0.000111651 -0.000101952
-0.000111651 0.000558091 1.46042e-05
-0.000101952 1.46042e-05 0.000491429
0.00159435 -0.000138601 -0.000105447
-0.000138601 0.000535878 1.76602e-05
-0.000105447 1.76602e-05 0.000460165
0.0020124 -0.000224893 -2.75734e-05
-0.000224893 0.000637211 9.73226e-06
-2.75734e-05 9.73226e-06 0.000488167
0.00553175 -8.66727e-05 2.03926e-06
-8.66727e-05 0.00296002 -1.50934e-06
2.03926e-06 -1.50934e-06 0.00296687
0.00152461 4.34896e-05 8.10012e-05
4.34896e-05 0.000555433 -3.08278e-06
8.10012e-05 -3.08278e-06 0.000532693
0.00113307 -2.27037e-06 -5.31295e-05
-2.27037e-06 0.000215318 1.02817e-06
-5.31295e-05 1.02817e-06 0.000152328
0.00161095 -5.40215e-05 -2.99796e-05
-5.40215e-05 0.000508751 1.7671e-06
-2.99796e-05 1.7671e-06 0.000441043
0.00317222 3.76224e-05 0.000163386
3.76224e-05 0.00157512 -4.44667e-06
0.000163386 -4.44667e-06 0.00156307
0.00200365 -9.51709e-05 -3.35222e-05
-9.51709e-05 0.000808248 9.43981e-07
-3.35222e-05 9.43981e-07 0.000724604
0.00160984 -0.000106859 -2.54234e-05
-0.000106859 0.000519551 1.70987e-06
-2.54234e-05 1.70987e-06 0.000447668
0.00183029 -0.00013552 -8.92854e-06
-0.00013552 0.000476344 1.57364e-06
-8.92854e-06 1.57364e-06 0.000347425
0.00200127 -0.000247048 -6.17344e-06
-0.000247048 0.000662299 1.84425e-06
-6.17344e-06 1.84425e-06 0.000502451
0.00185035 -0.00019277 -4.75306e-06
-0.00019277 0.000520408 1.17512e-06
-4.75306e-06 1.17512e-06 0.000379021
0.0012909 -0.000233629 2.20965e-07
-0.000233629 9.05857e-05 -1.49057e-07
2.20965e-07 -1.49057e-07 -9.35776e-05
0.00061911 1.29135e-05 1.91324e-05
1.29135e-05 -9.61734e-05 -1.15841e-06
1.91324e-05 -1.15841e-06 -0.000165211
0.00148839 1.40735e-05 3.7446e-05
1.40735e-05 0.000436139 -2.59113e-06
3.7446e-05 -2.59113e-06 0.000368239
0.00165358 -3.47627e-05 1.26967e-05
-3.47627e-05 0.00036054 -1.06863e-06
1.26967e-05 -1.06863e-06 0.000246673
0.00166383 -0.000105852 1.25204e-05
-0.000105852 0.000371284 -2.3824e-06
1.25204e-05 -2.3824e-06 0.000246269
0.00165839 -0.000158599 1.45301e-05
-0.000158599 0.000385911 -4.32164e-06
1.45301e-05 -4.32164e-06 0.000250715
0.00172447 -0.000175767 1.53631e-06
-0.000175767 0.000253038 -6.8942e-07
1.53631e-06 -6.8942e-07 0.000100685
0.00439473 0.000169496 0.000123926
0.000169496 0.00233047 -7.40903e-06
0.000123926 -7.40903e-06 0.00231361
0.00133432 -0.000217935 6.38308e-06
-0.000217935 8.52492e-05 -1.95764e-06
6.38308e-06 -1.95764e-06 -8.97279e-05
0.000327414 -9.9601e-05 1.68369e-05
-9.9601e-05 -0.00017847 -1.46519e-05
1.68369e-05 -1.46519e-05 -0.000252484
0.0008459 -0.000183725 1.03675e-05
-0.000183725 1.55355e-05 -7.04654e-06
1.03675e-05 -7.04654e-06 -0.000150587
0.00133615 -0.000255572 8.77985e-06
-0.000255572 0.000156024 -3.15964e-06
8.77985e-06 -3.15964e-06 -4.04853e-05
0.00157593 -0.000304017 3.51554e-06
-0.000304017 0.000146641 4.90393e-07
3.51554e-06 4.90393e-07 -5.13869e-05
0.000389037 -3.46547e-05 9.188e-06
-3.46547e-05 -0.000107965 -1.16149e-05
9.188e-06 -1.16149e-05 -0.000165689
0.000672091 -4.47143e-05 1.1074e-06
-4.47143e-05 6.93321e-05 -4.00897e-06
1.1074e-06 -4.00897e-06 -5.30944e-05
0.00583037 0.000188722 -0.000256865
0.000188722 0.00313453 -2.17554e-05
-0.000256865 -2.17554e-05 0.00313524
0.00569208 7.32462e-05 -0.000225783
7.32462e-05 0.00304924 -1.79656e-05
-0.000225783 -1.79656e-05 0.00305506
0.00051193 0.000116221 -1.84077e-05
0.000116221 -0.000131529 -1.05106e-05
-1.84077e-05 -1.05106e-05 -0.000220953
0.00431109 -0.000175781 -0.000120696
-0.000175781 0.00227746 -6.65024e-06
-0.000120696 -6.65024e-06 0.00226172
0.000436998 0.000130132 -2.02014e-05
0.000130132 -0.000124339 -1.47954e-05
-2.02014e-05 -1.47954e-05 -0.000203725
0.000468894 0.000166841 -2.03049e-05
0.000166841 -0.000114896 -1.43802e-05
-2.03049e-05 -1.43802e-05 -0.000213875
0.000894414 0.000182472 -1.21962e-05
0.000182472 3.46845e-05 -5.33825e-06
-1.21962e-05 -5.33825e-06 -0.000130843
0.00380455 -0.00013447 8.75386e-06
-0.00013447 0.00196471 -5.52175e-07
8.75386e-06 -5.52175e-07 0.00196031
0.000529181 -3.44822e-05 3.76761e-07
-3.44822e-05 -1.01832e-05 5.25858e-07
3.76761e-07 5.25858e-07 -5.41672e-05
0.00165838 0.000121441 4.98031e-05
0.000121441 0.000536917 3.39208e-06
4.98031e-05 3.39208e-06 0.000462608
0.00161275 0.000172764 4.85933e-05
0.000172764 0.000543439 3.16351e-06
4.85933e-05 3.16351e-06 0.00045914
0.000971648 0.000153906 5.94347e-08
0.000153906 -1.19862e-05 -2.20124e-07
5.94347e-08 -2.20124e-07 -0.000163366
0.000606642 7.41224e-05 -5.32477e-07
7.41224e-05 5.85338e-07 1.16048e-07
-5.32477e-07 1.16048e-07 -6.61213e-05
0.000934712 0.000179326 6.1357e-07
0.000179326 3.18642e-05 1.78661e-07
6.1357e-07 1.78661e-07 -0.00012795
0.00085536 0.000182879 6.60343e-07
0.000182879 8.27628e-05 -1.49147e-06
6.60343e-07 -1.49147e-06 -9.24189e-05
0.000971132 0.000227067 -7.49878e-07
0.000227067 1.4497e-05 3.11408e-07
-7.49878e-07 3.11408e-07 -0.000188665
0.000675822 2.97654e-05 1.18998e-05
2.97654e-05 5.90759e-05 1.08384e-05
1.18998e-05 1.08384e-05 3.6917e-06
0.000611654 -5.71875e-05 7.61612e-07
-5.71875e-05 3.9546e-05 7.05621e-06
7.61612e-07 7.05621e-06 3.12497e-06
0.000914593 8.13808e-05 3.32183e-06
8.13808e-05 0.000229193 4.67543e-06
3.32183e-06 4.67543e-06 0.000108194
0.00101531 0.000133502 1.31606e-05
0.000133502 -1.01843e-05 4.39024e-06
1.31606e-05 4.39024e-06 -0.000155032
0.000954761 0.000169994 1.34917e-05
0.000169994 5.35571e-06 6.24143e-06
1.34917e-05 6.24143e-06 -0.000150871
0.00136949 0.000231956 5.71091e-06
0.000231956 9.66762e-05 1.43314e-06
5.71091e-06 1.43314e-06 -8.70577e-05
0.000870226 0.000187051 7.50082e-06
0.000187051 0.00015972 7.32221e-06
7.50082e-06 7.32221e-06 -1.21235e-05
0.00100528 0.000227725 5.22431e-06
0.000227725 -1.20432e-05 2.32513e-06
5.22431e-06 2.32513e-06 -0.00020685
0.00134164 0.000266426 6.06543e-06
0.000266426 0.000295391 7.80274e-07
6.06543e-06 7.80274e-07 6.86713e-05
0.00150679 0.000290728 -3.97035e-07
0.000290728 0.000281525 -3.32627e-07
-3.97035e-07 -3.32627e-07 6.20781e-05
0.00254491 -0.000120106 3.38943e-05
-0.000120106 0.00120119 2.95349e-06
3.38943e-05 2.95349e-06 0.00120082
0.00270287 -0.000135 7.54469e-06
-0.000135 0.00130309 -6.47743e-07
7.54469e-06 -6.47743e-07 0.00129864
0.00295421 -0.00015472 -4.73154e-05
-0.00015472 0.00146107 -2.49337e-06
-4.73154e-05 -2.49337e-06 0.001451
0.000394933 -1.51552e-05 6.73599e-06
-1.51552e-05 -9.7443e-05 -9.58972e-06
6.73599e-06 -9.58972e-06 -0.000147648
0.00393238 0.000147156 0.000108109
0.000147156 0.0020478 -5.88362e-06
0.000108109 -5.88362e-06 0.00203754
0.00582786 0.000175799 -0.000259658
0.000175799 0.00313185 -1.90874e-05
-0.000259658 -1.90874e-05 0.00313429
0.00563033 6.63924e-05 -0.000239403
6.63924e-05 0.0030051 -8.52134e-06
-0.000239403 -8.52134e-06 0.00301652
0.000599191 8.94761e-05 -1.96813e-05
8.94761e-05 -0.000105246 -4.7622e-06
-1.96813e-05 -4.7622e-06 -0.000183357
0.000580927 4.00915e-05 -1.92304e-05
4.00915e-05 -0.000114348 -2.31508e-06
-1.92304e-05 -2.31508e-06 -0.000189172
0.00547939 -1.40696e-05 -0.00023198
-1.40696e-05 0.00291894 -1.47058e-06
-0.00023198 -1.47058e-06 0.00293196
0.00545712 1.73719e-05 -6.22752e-07
1.73719e-05 0.00290679 -4.67987e-07
-6.22752e-07 -4.67987e-07 0.00291953
0.000564336 8.05534e-07 -1.44952e-07
8.05534e-07 -0.000128322 -2.887e-08
-1.44952e-07 -2.887e-08 -0.000198823
0.00163413 3.19156e-05 4.99692e-05
3.19156e-05 0.000507659 1.78373e-06
4.99692e-05 1.78373e-06 0.000445608
0.0010011 4.08552e-05 3.42014e-09
4.08552e-05 -3.30812e-05 -1.33959e-07
3.42014e-09 -1.33959e-07 -0.000156445
0.000567128 7.48978e-05 -4.06993e-07
7.48978e-05 -0.000119869 -3.06354e-07
-4.06993e-07 -3.06354e-07 -0.000201857
0.00100846 8.94806e-05 -1.15568e-07
8.94806e-05 -2.94585e-05 -1.3646e-07
-1.15568e-07 -1.3646e-07 -0.000162436
0.000557918 -2.76839e-05 1.90759e-05
-2.76839e-05 -0.00013429 -8.64436e-07
1.90759e-05 -8.64436e-07 -0.000202507
0.00100188 1.59272e-05 1.2275e-05
1.59272e-05 -2.84152e-05 5.43872e-07
1.2275e-05 5.43872e-07 -0.000149421
0.00101804 6.2523e-05 1.21706e-05
6.2523e-05 -2.41421e-05 1.92738e-06
1.21706e-05 1.92738e-06 -0.00015105
0.00148085 6.3075e-05 1.35681e-06
6.3075e-05 5.81816e-05 1.58877e-07
1.35681e-06 1.58877e-07 -6.897e-05
0.001045 0.000111062 1.25528e-05
0.000111062 -4.28007e-06 3.30395e-06
1.25528e-05 3.30395e-06 -0.000142775
0.00151256 0.000138701 2.36976e-06
0.000138701 8.50639e-05 1.73715e-07
2.36976e-06 1.73715e-07 -5.91821e-05
0.0054606 -4.678e-05 -0.000238634
-4.678e-05 0.00291209 7.39905e-07
-0.000238634 7.39905e-07 0.00292292
0.00125464 -0.000135242 -4.23556e-05
-0.000135242 0.000413111 4.42329e-06
-4.23556e-05 4.42329e-06 0.000375321
-0.000267347 -2.02158e-06 -1.28945e-05
-2.02158e-06 -0.000616711 2.15068e-06
-1.28945e-05 2.15068e-06 -0.000699347
0.00170138 -4.81198e-05 -0.0001024
-4.81198e-05 0.000557429 6.38248e-06
-0.0001024 6.38248e-06 0.000496169
0.00484103 0.000353686 1.47477e-05
0.000353686 0.00265148 7.65021e-06
1.47477e-05 7.65021e-06 0.00257996
0.00267214 -0.000182907 -0.000106088
-0.000182907 0.00119478 1.7541e-05
-0.000106088 1.7541e-05 0.00111863
0.00171062 -9.11163e-05 -0.00010188
-9.11163e-05 0.000571261 1.17439e-05
-0.00010188 1.17439e-05 0.000507454
0.00172948 -0.000129053 -2.75492e-05
-0.000129053 0.000413835 5.42772e-06
-2.75492e-05 5.42772e-06 0.000284917
0.00201328 -0.000199339 -2.61181e-05
-0.000199339 0.000616355 8.16641e-06
-2.61181e-05 8.16641e-06 0.000475741
0.0020369 -0.000249667 -2.51103e-05
-0.000249667 0.000683611 1.02381e-05
-2.51103e-05 1.02381e-05 0.000523104
0.00128946 -0.000233815 -6.38177e-06
-0.000233815 8.85275e-05 1.99536e-06
-6.38177e-06 1.99536e-06 -9.54462e-05
0.000560626 7.25408e-06 -5.51597e-08
7.25408e-06 -0.000129056 1.09225e-07
-5.51597e-08 1.09225e-07 -0.00019904
0.00161187 -6.73762e-05 -2.92508e-05
-6.73762e-05 0.000509569 3.29058e-07
-2.92508e-05 3.29058e-07 0.000444611
0.00123107 -3.01873e-05 -7.38158e-06
-3.01873e-05 0.000109651 3.90778e-07
-7.38158e-06 3.90778e-07 -8.61689e-06
0.00182397 -0.000107386 -5.62752e-06
-0.000107386 0.000464892 8.54198e-07
-5.62752e-06 8.54198e-07 0.000341093
0.00453913 0.000157585 -7.36542e-06
0.000157585 0.00241319 -1.04854e-06
-7.36542e-06 -1.04854e-06 0.00239834
0.00152519 -8.71332e-05 -2.55287e-06
-8.71332e-05 0.000548241 -9.84986e-08
-2.55287e-06 -9.84986e-08 0.000461183
0.00131333 -0.000210908 1.39493e-06
-0.000210908 0.000301521 -8.53926e-07
1.39493e-06 -8.53926e-07 0.000134975
0.00168863 -0.000158881 -5.93702e-06
-0.000158881 0.00040372 1.34062e-06
-5.93702e-06 1.34062e-06 0.000268424
0.00160743 -0.000173276 -2.30467e-06
-0.000173276 0.00018147 4.37408e-07
-2.30467e-06 4.37408e-07 3.0064e-05
0.00125441 -0.00025162 2.8177e-07
-0.00025162 0.000108361 -4.03242e-08
2.8177e-07 -4.03242e-08 -8.86269e-05
0.00151708 -0.000225986 3.52636e-07
-0.000225986 0.000192295 -1.48533e-07
3.52636e-07 -1.48533e-07 1.82667e-05
0.00160374 -0.000304046 6.62677e-07
-0.000304046 0.000167942 -7.99457e-08
6.62677e-07 -7.99457e-08 -2.92998e-05
0.000517823 -4.14946e-05 -9.84775e-07
-4.14946e-05 -3.53303e-05 1.31049e-07
-9.84775e-07 1.31049e-07 -9.37874e-05
0.000665953 -6.72023e-05 -1.53761e-07
-6.72023e-05 6.51777e-05 2.15385e-07
-1.53761e-07 2.15385e-07 -5.96672e-05
0.000989313 -1.44768e-05 1.22376e-05
-1.44768e-05 -3.13887e-05 -8.64415e-07
1.22376e-05 -8.64415e-07 -0.000151845
0.0016885 -6.52851e-05 1.19581e-05
-6.52851e-05 0.000381387 -1.64595e-06
1.19581e-05 -1.64595e-06 0.000263481
0.00167761 -5.61624e-05 4.80175e-07
-5.61624e-05 0.000194832 4.80626e-08
4.80175e-07 4.80626e-08 6.86044e-05
0.00150574 -0.000137044 2.59789e-06
-0.000137044 0.000105343 -1.93229e-07
2.59789e-06 -1.93229e-07 -3.54044e-05
0.00168043 -0.000212201 3.38055e-06
-0.000212201 0.000257414 -8.33569e-07
3.38055e-06 -8.33569e-07 9.58617e-05
0.00176922 -0.000213818 -4.79145e-07
-0.000213818 0.000150008 4.60633e-07
-4.79145e-07 4.60633e-07 8.17643e-06
0.000359651 -7.14947e-05 1.38937e-05
-7.14947e-05 -0.00013931 -1.33242e-05
1.38937e-05 -1.33242e-05 -0.000204862
0.00163959 -0.000280873 1.59532e-06
-0.000280873 0.000147208 7.23686e-07
1.59532e-06 7.23686e-07 -2.97812e-05
0.000690602 -0.000164012 6.08197e-06
-0.000164012 4.62083e-06 -7.58638e-06
6.08197e-06 -7.58638e-06 -0.000164689
0.000955584 -0.000241231 9.76619e-06
-0.000241231 -8.3944e-06 -3.55421e-06
9.76619e-06 -3.55421e-06 -0.00021636
0.00179957 -0.000345549 3.25329e-06
-0.000345549 0.000330942 -5.58533e-08
3.25329e-06 -5.58533e-08 0.000108581
0.00192508 -0.000340386 -1.60605e-06
-0.000340386 0.00029942 3.27562e-06
-1.60605e-06 3.27562e-06 0.000115989
0.000722175 -0.000111182 2.05306e-06
-0.000111182 9.74443e-05 -5.21742e-06
2.05306e-06 -5.21742e-06 -4.87956e-05
0.000668398 -3.05555e-05 7.79665e-07
-3.05555e-05 6.978e-05 -3.7124e-06
7.79665e-07 -3.7124e-06 -3.73941e-05
0.00105433 -0.000169714 -1.36966e-07
-0.000169714 0.000313006 5.37064e-07
-1.36966e-07 5.37064e-07 0.00012624
0.000540382 9.51598e-05 -1.77303e-05
9.51598e-05 -0.000127832 -8.13327e-06
-1.77303e-05 -8.13327e-06 -0.000213284
0.00357616 -0.000161538 -8.5037e-05
-0.000161538 0.0018343 -3.24328e-06
-8.5037e-05 -3.24328e-06 0.00182307
0.000387317 -4.66734e-05 2.15926e-07
-4.66734e-05 -8.86801e-05 -8.32988e-06
2.15926e-07 -8.32988e-06 -0.000134002
0.00048844 0.00014377 -1.93584e-05
0.00014377 -0.000123544 -1.32187e-05
-1.93584e-05 -1.32187e-05 -0.000218632
0.000946337 0.000153855 -1.42752e-05
0.000153855 -2.29335e-05 -5.86529e-06
-1.42752e-05 -5.86529e-06 -0.000174816
0.000366838 6.71478e-05 -1.53032e-05
6.71478e-05 -0.000140564 -1.26832e-05
-1.53032e-05 -1.26832e-05 -0.000204429
0.000771927 0.000169876 -7.93284e-06
0.000169876 3.09174e-05 -7.47799e-06
-7.93284e-06 -7.47799e-06 -0.000142261
0.000934622 0.000179716 -1.16923e-05
0.000179716 3.27254e-05 -6.66378e-06
-1.16923e-05 -6.66378e-06 -0.000127214
0.000793052 0.000214245 -6.999e-06
0.000214245 -9.264e-05 -8.34089e-07
-6.999e-06 -8.34089e-07 -0.000294157
0.000538821 1.88501e-05 2.14123e-06
1.88501e-05 -2.04666e-05 3.97743e-07
2.14123e-06 3.97743e-07 -7.39429e-05
0.000504546 -6.54382e-05 3.56831e-07
-6.54382e-05 -2.08637e-05 2.49986e-07
3.56831e-07 2.49986e-07 -5.85657e-05
0.000620252 3.00248e-05 6.9679e-07
3.00248e-05 4.38005e-05 5.14884e-07
6.9679e-07 5.14884e-07 -6.52787e-05
0.000995888 0.000134298 1.22006e-08
0.000134298 -1.85941e-05 -2.53029e-07
1.22006e-08 -2.53029e-07 -0.000164152
0.000951299 0.000170638 4.28948e-07
0.000170638 6.09088e-06 -2.68187e-07
4.28948e-07 -2.68187e-07 -0.000150507
0.00138239 0.000232583 1.98626e-07
0.000232583 0.000105425 -1.3407e-08
1.98626e-07 -1.3407e-08 -7.8643e-05
0.000799028 0.000168753 -5.79996e-07
0.000168753 0.000119334 1.91153e-07
-5.79996e-07 1.91153e-07 -4.9984e-05
0.00117275 0.000237417 3.59171e-07
0.000237417 9.00209e-05 2.44492e-08
3.59171e-07 2.44492e-08 -0.000105369
0.00113342 0.000248566 6.12045e-07
0.000248566 0.00017285 -1.71089e-06
6.12045e-07 -1.71089e-06 -5.12225e-05
0.00125801 0.000277866 -5.95015e-07
0.000277866 0.000130413 1.67726e-07
-5.95015e-07 1.67726e-07 -8.8296e-05
0.000546197 -6.97431e-05 -2.18348e-06
-6.97431e-05 -4.20791e-06 5.98323e-06
-2.18348e-06 5.98323e-06 -3.5922e-05
0.000807821 0.000127118 5.40558e-06
0.000127118 0.000143175 4.91845e-06
5.40558e-06 4.91845e-06 -1.85249e-06
0.000716794 4.49763e-06 1.32054e-06
4.49763e-06 9.59223e-05 4.20949e-06
1.32054e-06 4.20949e-06 1.26363e-05
0.00094475 0.000114889 1.61045e-06
0.000114889 0.000271466 -1.92528e-07
1.61045e-06 -1.92528e-07 9.90612e-05
0.0014509 0.000207664 4.36403e-06
0.000207664 9.99365e-05 4.9454e-07
4.36403e-06 4.9454e-07 -7.04547e-05
0.00123628 0.000240837 6.27196e-06
0.000240837 6.74503e-05 2.23197e-06
6.27196e-06 2.23197e-06 -0.000124857
0.00173926 0.000308542 1.28227e-06
0.000308542 0.000202682 -1.71257e-07
1.28227e-06 -1.71257e-07 1.21416e-05
0.00137199 0.000246359 3.5987e-06
0.000246359 0.000402106 3.85733e-06
3.5987e-06 3.85733e-06 0.000186597
0.00165665 0.000334881 -6.07523e-07
0.000334881 0.000298241 -4.75525e-07
-6.07523e-07 -4.75525e-07 7.93569e-05
0.001228 0.000277268 1.61257e-06
0.000277268 0.000169604 -8.85214e-07
1.61257e-06 -8.85214e-07 -7.67554e-05
0.00151203 0.000312073 1.04999e-06
0.000312073 0.000195572 2.14929e-07
1.04999e-06 2.14929e-07 -3.03492e-05
0.000618954 8.71511e-06 2.37351e-06
8.71511e-06 1.80731e-05 2.37821e-06
2.37351e-06 2.37821e-06 -3.31374e-05
0.000534213 -4.38587e-05 7.14401e-07
-4.38587e-05 -3.82591e-05 4.71595e-06
7.14401e-07 4.71595e-06 -5.84499e-05
0.00242321 -0.000104227 2.84348e-05
-0.000104227 0.00111989 3.31311e-06
2.84348e-05 3.31311e-06 0.0011235
0.0024821 -0.000117664 3.56931e-06
-0.000117664 0.00116333 -3.76944e-07
3.56931e-06 -3.76944e-07 0.00116341
0.00260024 -0.000133573 -3.57376e-05
-0.000133573 0.00124227 -2.73408e-06
-3.57376e-05 -2.73408e-06 0.00123789
0.000434892 -5.21821e-06 5.2277e-06
-5.21821e-06 -7.44466e-05 -8.10485e-06
5.2277e-06 -8.10485e-06 -0.000116101
0.00349481 0.000131566 9.08149e-05
0.000131566 0.0017804 -4.63054e-06
9.08149e-05 -4.63054e-06 0.00177473
0.00052593 -1.74556e-05 -3.02044e-07
-1.74556e-05 -2.25093e-05 2.70372e-07
-3.02044e-07 2.70372e-07 -7.32314e-05
0.00407446 0.000135072 -5.52042e-06
0.000135072 0.00212843 -8.01913e-07
-5.52042e-06 -8.01913e-07 0.00212102
0.00059239 9.90168e-05 -1.92065e-05
9.90168e-05 -0.00010314 -6.40336e-06
-1.92065e-05 -6.40336e-06 -0.000186571
0.000600648 3.29646e-05 -1.84432e-05
3.29646e-05 -0.000106458 -3.23407e-06
-1.84432e-05 -3.23407e-06 -0.000181459
0.000987618 9.07718e-05 -1.20627e-05
9.07718e-05 -4.19638e-05 -2.77418e-06
-1.20627e-05 -2.77418e-06 -0.00017542
0.000977605 4.28426e-05 -1.23456e-05
4.28426e-05 -4.75896e-05 -1.46324e-06
-1.23456e-05 -1.46324e-06 -0.000171237
0.000614719 -6.66236e-06 -1.92851e-05
-6.66236e-06 -0.000102053 -7.33005e-07
-1.92851e-05 -7.33005e-07 -0.000170531
0.00553307 -9.47916e-05 -0.000245478
-9.47916e-05 0.00296062 3.75372e-06
-0.000245478 3.75372e-06 0.00296848
0.000602036 -5.73353e-07 1.32456e-07
-5.73353e-07 -0.000108765 -5.11484e-07
1.32456e-07 -5.11484e-07 -0.000177024
0.000992623 2.07426e-05 -3.6294e-08
2.07426e-05 -3.4326e-05 -7.34812e-08
-3.6294e-08 -7.34812e-08 -0.00015554
0.00100995 6.42873e-05 -8.4089e-08
6.42873e-05 -2.98222e-05 -8.91732e-08
-8.4089e-08 -8.91732e-08 -0.000157111
0.00147693 6.20901e-05 -5.70573e-08
6.20901e-05 5.74442e-05 8.63883e-08
-5.70573e-08 8.63883e-08 -6.98098e-05
0.00101113 0.000112579 -1.32963e-07
0.000112579 -2.25558e-05 -2.38338e-07
-1.32963e-07 -2.38338e-07 -0.000161896
0.00149573 0.000139145 -5.48361e-08
0.000139145 7.53367e-05 -1.10264e-09
-5.48361e-08 -1.10264e-09 -6.94526e-05
0.000988248 -6.86837e-07 1.22531e-05
-6.86837e-07 -3.25868e-05 -3.34445e-07
1.22531e-05 -3.34445e-07 -0.000153047
0.00146391 3.26746e-05 1.55792e-06
3.26746e-05 5.34267e-05 1.29761e-07
1.55792e-06 1.29761e-07 -7.01925e-05
0.00149232 0.000100111 1.47379e-06
0.000100111 6.55611e-05 8.89401e-08
1.47379e-06 8.89401e-08 -6.86247e-05
0.00180426 8.86052e-05 -2.0808e-06
8.86052e-05 0.000102769 -3.25805e-07
-2.0808e-06 -3.25805e-07 2.58868e-06
0.00150192 0.000176733 3.31861e-06
0.000176733 9.51196e-05 3.79613e-07
3.31861e-06 3.79613e-07 -6.17742e-05
0.00181154 0.000183055 -3.12232e-07
0.000183055 0.000129281 -1.36192e-06
-3.12232e-07 -1.36192e-06 2.12422e-06
0.000584824 8.1418e-07 -1.84564e-05
8.1418e-07 -0.000112692 1.1287e-06
-1.84564e-05 1.1287e-06 -0.0001844
0.00169217 -2.58094e-05 -0.000101878
-2.58094e-05 0.000551555 4.19482e-06
-0.000101878 4.19482e-06 0.000492884
0.000779786 -2.43361e-05 -1.4705e-05
-2.43361e-05 -0.00015776 1.74662e-06
-1.4705e-05 1.74662e-06 -0.000280656
0.00196732 -0.000107658 -2.44726e-05
-0.000107658 0.000548196 3.90161e-06
-2.44726e-05 3.90161e-06 0.000425792
0.00474694 0.000130903 -0.00015751
0.000130903 0.00252958 1.09088e-05
-0.00015751 1.09088e-05 0.00251955
0.00270231 -0.000135184 -0.000100914
-0.000135184 0.00123733 1.38238e-05
-0.000100914 1.38238e-05 0.00116921
0.00193589 -0.000254935 -2.00226e-05
-0.000254935 0.000676087 8.77769e-06
-2.00226e-05 8.77769e-06 0.000506448
0.00169963 -0.000157922 -2.59001e-05
-0.000157922 0.000409765 6.66416e-06
-2.59001e-05 6.66416e-06 0.000274672
0.00148658 -0.000170624 -5.52474e-06
-0.000170624 0.000107454 1.04753e-06
-5.52474e-06 1.04753e-06 -4.29897e-05
0.00170088 -0.000234194 -6.71118e-06
-0.000234194 0.000300132 2.02234e-06
-6.71118e-06 2.02234e-06 0.00012702
0.00118346 -0.000248747 -7.37621e-06
-0.000248747 6.70175e-05 2.41769e-06
-7.37621e-06 2.41769e-06 -0.000130632
0.0016328 -0.000304457 -2.00556e-06
-0.000304457 0.000189018 -7.09697e-07
-2.00556e-06 -7.09697e-07 -7.52216e-06
0.00062368 -5.14188e-05 -1.19551e-05
-5.14188e-05 2.57824e-05 1.18751e-05
-1.19551e-05 1.18751e-05 -3.44705e-05
0.000700927 -9.32992e-05 -1.7037e-06
-9.32992e-05 8.91512e-05 3.45977e-06
-1.7037e-06 3.45977e-06 -4.0355e-05
0.000877509 -9.70972e-06 -2.38379e-07
-9.70972e-06 -9.80245e-05 -3.45259e-08
-2.38379e-07 -3.45259e-08 -0.000218876
0.00169705 -6.63912e-05 -6.10127e-06
-6.63912e-05 0.000385212 6.45649e-07
-6.10127e-06 6.45649e-07 0.0002674
0.00171337 -5.24273e-05 -1.81875e-06
-5.24273e-05 0.000212475 2.83305e-07
-1.81875e-06 2.83305e-07 8.92328e-05
0.00158797 -0.000138104 -6.07771e-07
-0.000138104 0.000155542 2.44559e-07
-6.07771e-07 2.44559e-07 1.35003e-05
0.000510697 -8.26289e-05 -6.31009e-08
-8.26289e-05 -5.14504e-05 3.91241e-07
-6.31009e-08 3.91241e-07 -0.000119826
0.000850488 -0.000181622 -7.45938e-07
-0.000181622 9.73345e-05 -5.71017e-07
-7.45938e-07 -5.71017e-07 -7.39837e-05
0.00102166 -0.000246173 2.62164e-06
-0.000246173 3.09062e-05 -9.10055e-07
2.62164e-06 -9.10055e-07 -0.000177134
0.00169356 -0.000210604 -2.86172e-06
-0.000210604 0.000264685 7.45237e-07
-2.86172e-06 7.45237e-07 0.000102156
0.00183023 -0.000218248 8.39098e-07
-0.000218248 0.00017998 -1.95901e-07
8.39098e-07 -1.95901e-07 4.17635e-05
0.00179754 -0.000349934 -1.71915e-06
-0.000349934 0.000332137 2.83999e-07
-1.71915e-06 2.83999e-07 0.000108344
0.00165933 -0.000281467 5.30924e-07
-0.000281467 0.000160391 -2.78252e-08
5.30924e-07 -2.78252e-08 -1.62611e-05
0.00186538 -0.00033858 7.50572e-07
-0.00033858 0.000257656 6.23691e-07
7.50572e-07 6.23691e-07 7.40998e-05
0.00072385 -0.000124448 -2.6476e-07
-0.000124448 9.77167e-05 -2.25603e-07
-2.6476e-07 -2.25603e-07 -5.06612e-05
0.000561877 -0.000105765 -4.70613e-07
-0.000105765 6.01774e-06 -6.00304e-07
-4.70613e-07 -6.00304e-07 -0.000165033
0.000677018 -4.39284e-05 -4.32466e-08
-4.39284e-05 7.38785e-05 6.24386e-08
-4.32466e-08 6.24386e-08 -3.51208e-05
0.00166287 -2.20583e-05 3.15457e-07
-2.20583e-05 0.000180771 -4.38543e-09
3.15457e-07 -4.38543e-09 5.7922e-05
0.0017445 -9.20338e-05 1.04087e-07
-9.20338e-05 0.000232923 4.44636e-07
1.04087e-07 4.44636e-07 0.000104801
0.00169525 -7.48687e-05 -1.98888e-06
-7.48687e-05 5.50916e-05 1.09687e-06
-1.98888e-06 1.09687e-06 -4.8037e-05
0.00176352 -0.000175029 -2.40324e-06
-0.000175029 0.000113464 1.22652e-06
-2.40324e-06 1.22652e-06 -1.15525e-05
0.00164998 -0.000254595 -7.4882e-08
-0.000254595 0.000117703 1.52482e-06
-7.4882e-08 1.52482e-06 -3.78957e-05
0.0018518 -0.000241266 -8.80093e-07
-0.000241266 0.000138993 9.76827e-07
-8.80093e-07 9.76827e-07 2.37249e-05
0.000718716 -0.000146876 3.96732e-06
-0.000146876 7.63919e-05 -5.95881e-06
3.96732e-06 -5.95881e-06 -8.58871e-05
0.00172842 -0.000308923 -1.7082e-06
-0.000308923 0.000131918 1.8552e-06
-1.7082e-06 1.8552e-06 -2.67112e-05
0.00107523 -0.000244076 4.08941e-06
-0.000244076 0.000158284 -5.46739e-06
4.08941e-06 -5.46739e-06 -5.59938e-05
0.00137942 -0.000339735 4.49748e-06
-0.000339735 0.000174148 -1.38331e-06
4.49748e-06 -1.38331e-06 -7.33036e-05
0.00191759 -0.000387386 1.22948e-06
-0.000387386 0.000341862 3.27682e-06
1.22948e-06 3.27682e-06 0.000115824
0.00201727 -0.000361547 -3.11239e-06
-0.000361547 0.000324861 3.63703e-06
-3.11239e-06 3.63703e-06 0.000155033
0.000633913 -3.08092e-05 7.82377e-07
-3.08092e-05 5.14189e-05 -3.75032e-06
7.82377e-07 -3.75032e-06 -4.30169e-05
0.00077068 -0.000163351 2.88072e-07
-0.000163351 0.000101046 -1.3018e-07
2.88072e-07 -1.3018e-07 -7.34265e-05
0.00051781 -9.02493e-05 -5.81083e-07
-9.02493e-05 1.00997e-05 1.04125e-06
-5.81083e-07 1.04125e-06 -0.00016158
0.00132677 -0.000230342 -2.90584e-06
-0.000230342 0.000439358 2.35466e-06
-2.90584e-06 2.35466e-06 0.000241918
0.000972869 0.000135269 -1.3779e-05
0.000135269 -2.92713e-05 -4.82793e-06
-1.3779e-05 -4.82793e-06 -0.000175563
0.000431897 -6.70723e-05 1.69719e-06
-6.70723e-05 -6.35267e-05 -6.65422e-06
1.69719e-06 -6.65422e-06 -0.00010098
0.000380286 -3.6158e-08 -5.71445e-06
-3.6158e-08 -0.000109612 -1.05904e-05
-5.71445e-06 -1.05904e-05 -0.000162423
0.000465634 -6.01302e-06 1.14364e-07
-6.01302e-06 -4.56697e-05 -5.03451e-06
1.14364e-07 -5.03451e-06 -0.000151985
0.000954077 0.000172127 -1.33082e-05
0.000172127 1.05026e-05 -6.85192e-06
-1.33082e-05 -6.85192e-06 -0.000146603
0.0013948 0.000233096 -5.53548e-06
0.000233096 0.000113964 -1.43609e-06
-5.53548e-06 -1.43609e-06 -7.04127e-05
0.000714026 0.000145623 -4.85988e-06
0.000145623 6.90412e-05 -5.08866e-06
-4.85988e-06 -5.08866e-06 -9.62256e-05
0.00100864 0.000237599 -5.54125e-06
0.000237599 9.97716e-05 -4.64332e-06
-5.54125e-06 -4.64332e-06 -0.000122312
0.00134905 0.000247859 -5.92368e-06
0.000247859 0.000197689 -2.50828e-06
-5.92368e-06 -2.50828e-06 1.58316e-06
0.00100811 0.000264318 -3.66722e-06
0.000264318 -1.99129e-05 5.00852e-08
-3.66722e-06 5.00852e-08 -0.000237756
0.00050959 -6.67588e-05 -2.90442e-07
-6.67588e-05 -2.83126e-05 1.96827e-07
-2.90442e-07 1.96827e-07 -5.87558e-05
0.000752844 0.000118578 2.62958e-07
0.000118578 0.000119532 -4.40004e-07
2.62958e-07 -4.40004e-07 -2.71576e-05
0.000613507 -1.38812e-05 -3.94919e-07
-1.38812e-05 3.7061e-05 7.36655e-07
-3.94919e-07 7.36655e-07 -4.54212e-05
0.000788986 9.0434e-05 1.32858e-06
9.0434e-05 0.00017634 -8.64554e-07
1.32858e-06 -8.64554e-07 8.88529e-06
0.00144591 0.000207215 -4.47647e-08
0.000207215 9.79641e-05 -4.08031e-07
-4.47647e-08 -4.08031e-07 -7.26989e-05
0.00128835 0.000243101 4.77718e-07
0.000243101 0.000103635 6.42745e-08
4.77718e-07 6.42745e-08 -8.89376e-05
0.00171202 0.00030675 2.41378e-07
0.00030675 0.000186313 1.1827e-07
2.41378e-07 1.1827e-07 -4.21901e-06
0.00106295 0.000222621 1.24129e-06
0.000222621 0.000221997 3.70893e-07
1.24129e-06 3.70893e-07 1.01789e-05
0.00170961 0.000334172 -1.13517e-06
0.000334172 0.000331446 -1.84409e-07
-1.13517e-06 -1.84409e-07 0.000113045
0.00125473 0.000284079 9.74427e-08
0.000284079 0.00017988 -1.62875e-06
9.74427e-08 -1.62875e-06 -6.84863e-05
0.00154282 0.000314437 -3.51379e-06
0.000314437 0.000215484 5.17215e-07
-3.51379e-06 5.17215e-07 -1.02122e-05
0.000527311 -5.75423e-05 -4.45752e-07
-5.75423e-05 -3.12282e-05 5.12642e-06
-4.45752e-07 5.12642e-06 -5.59963e-05
0.000670645 -7.35986e-06 1.66726e-06
-7.35986e-06 5.83279e-05 3.42465e-06
1.66726e-06 3.42465e-06 -8.17392e-06
0.00105778 0.000192381 1.18292e-06
0.000192381 0.000286656 1.97208e-06
1.18292e-06 1.97208e-06 0.0001017
0.00105798 6.47425e-05 -7.86579e-07
6.47425e-05 0.000343073 2.59699e-06
-7.86579e-07 2.59699e-06 0.000196185
0.00115746 0.000177922 -3.69333e-07
0.000177922 0.000373682 -1.92789e-06
-3.69333e-07 -1.92789e-06 0.000182646
0.00178144 0.000271295 9.68836e-07
0.000271295 0.000179635 -1.48252e-06
9.68836e-07 -1.48252e-06 1.15463e-05
0.00162646 0.000331091 1.00401e-06
0.000331091 0.000204395 1.72723e-07
1.00401e-06 1.72723e-07 -5.39827e-06
0.00183545 0.000343849 7.93465e-09
0.000343849 0.000221234 -2.16668e-07
7.93465e-09 -2.16668e-07 3.73445e-05
0.00105784 0.000262395 2.63706e-06
0.000262395 0.000169342 4.17764e-06
2.63706e-06 4.17764e-06 -7.46163e-05
0.00192757 0.000399914 1.26479e-06
0.000399914 0.000394149 -6.12069e-07
1.26479e-06 -6.12069e-07 0.000164473
0.000732176 0.000254049 4.43657e-06
0.000254049 -0.000192039 -1.32678e-06
4.43657e-06 -1.32678e-06 -0.000436929
0.000617723 3.70597e-06 2.65542e-06
3.70597e-06 1.76747e-05 2.41269e-06
2.65542e-06 2.41269e-06 -3.53289e-05
0.000678829 4.88476e-05 1.60934e-07
4.88476e-05 8.35942e-05 1.14545e-06
1.60934e-07 1.14545e-06 -4.04448e-06
0.000636008 1.89023e-05 2.1662e-06
1.89023e-05 3.18423e-05 2.38502e-06
2.1662e-06 2.38502e-06 -1.9239e-05
0.000604335 -1.51477e-05 -5.49266e-07
-1.51477e-05 1.15576e-05 9.60053e-10
-5.49266e-07 9.60053e-10 -4.06705e-05
0.0012442 -5.12316e-05 1.05286e-06
-5.12316e-05 0.00038284 2.71695e-06
1.05286e-06 2.71695e-06 0.000368616
0.000913239 -5.14519e-05 5.24426e-07
-5.14519e-05 0.000189045 -9.54485e-08
5.24426e-07 -9.54485e-08 0.000170754
0.00089669 -5.19905e-05 2.36631e-05
-5.19905e-05 0.000190942 7.51518e-06
2.36631e-05 7.51518e-06 0.000192095
0.00238848 -0.000101752 3.80067e-06
-0.000101752 0.00109807 -3.39745e-07
3.80067e-06 -3.39745e-07 0.00110221
0.00242025 -0.000114125 -3.29359e-05
-0.000114125 0.00112567 -3.02362e-06
-3.29359e-05 -3.02362e-06 0.00112652
0.000458448 1.76626e-05 1.40006e-06
1.76626e-05 -6.00996e-05 -6.58474e-06
1.40006e-06 -6.58474e-06 -9.43548e-05
0.00314005 0.000133929 5.91597e-05
0.000133929 0.00156272 -3.24799e-06
5.91597e-05 -3.24799e-06 0.00155719
0.000521538 -6.09971e-06 -4.40258e-07
-6.09971e-06 -2.35903e-05 2.4235e-07
-4.40258e-07 2.4235e-07 -6.59031e-05
0.00365773 0.000121707 -5.91908e-06
0.000121707 0.00187455 -5.58753e-07
-5.91908e-06 -5.58753e-07 0.00187125
0.000633413 -1.98908e-05 -7.52956e-06
-1.98908e-05 3.78894e-05 1.00156e-05
-7.52956e-06 1.00156e-05 -1.34878e-05
0.00419853 0.00012118 -0.00013553
0.00012118 0.00219806 8.29241e-06
-0.00013553 8.29241e-06 0.00219363
0.000982693 0.000114131 -1.27536e-05
0.000114131 -3.77414e-05 -3.72329e-06
-1.27536e-05 -3.72329e-06 -0.000177841
0.000988344 6.79664e-05 -1.21117e-05
6.79664e-05 -4.25243e-05 -2.0932e-06
-1.21117e-05 -2.0932e-06 -0.000170429
0.00149511 0.000136432 -3.14074e-06
0.000136432 7.577e-05 -2.37153e-07
-3.14074e-06 -2.37153e-07 -6.90698e-05
0.00147255 6.12948e-05 -1.69539e-06
6.12948e-05 5.66346e-05 5.13131e-08
-1.69539e-06 5.13131e-08 -7.07339e-05
0.000988361 2.45608e-05 -1.23473e-05
2.45608e-05 -3.77046e-05 -7.37131e-07
-1.23473e-05 -7.37131e-07 -0.000159134
0.00056705 2.75171e-05 -1.90627e-05
2.75171e-05 -0.000129464 -1.51524e-07
-1.90627e-05 -1.51524e-07 -0.000197392
0.000987329 1.87327e-06 1.75571e-10
1.87327e-06 -3.38469e-05 -1.52544e-07
1.75571e-10 -1.52544e-07 -0.000154345
0.00146316 3.4115e-05 -6.77441e-08
3.4115e-05 5.35545e-05 4.10313e-08
-6.77441e-08 4.10313e-08 -7.01872e-05
0.00149317 9.76391e-05 -2.22764e-09
9.76391e-05 6.78786e-05 2.69156e-08
-2.22764e-09 2.69156e-08 -6.62968e-05
0.00181085 8.75291e-05 9.22755e-08
8.75291e-05 0.000101243 2.53053e-07
9.22755e-08 2.53053e-07 3.8964e-06
0.00148842 0.000175764 -2.22805e-07
0.000175764 8.97008e-05 -8.43436e-08
-2.22805e-07 -8.43436e-08 -6.73917e-05
0.00180067 0.000180485 -3.22447e-07
0.000180485 0.000127116 -8.72762e-10
-3.22447e-07 -8.72762e-10 3.12309e-08
0.00145655 5.20117e-06 1.80382e-06
5.20117e-06 5.27346e-05 1.8926e-08
1.80382e-06 1.8926e-08 -6.9958e-05
0.00181969 4.4942e-05 -3.54887e-06
4.4942e-05 0.000117315 -1.32446e-07
-3.54887e-06 -1.32446e-07 2.8312e-05
0.00181374 0.00013952 -1.48942e-06
0.00013952 0.000109479 -8.95002e-07
-1.48942e-06 -8.95002e-07 -1.91932e-06
0.00178408 8.80109e-05 3.34157e-06
8.80109e-05 2.64163e-05 3.54007e-07
3.34157e-06 3.54007e-07 -4.60185e-05
0.00181002 0.000226612 1.51112e-07
0.000226612 0.000165553 -1.21712e-06
1.51112e-07 -1.21712e-06 1.95204e-05
0.00176026 0.000201987 -2.1099e-07
0.000201987 4.07638e-05 -1.19147e-06
-2.1099e-07 -1.19147e-06 -6.03298e-05
0.000770281 -6.48648e-06 -1.21602e-05
-6.48648e-06 -0.000161986 7.27214e-07
-1.21602e-05 7.27214e-07 -0.000283286
0.00172861 -6.88401e-05 -2.40413e-05
-6.88401e-05 0.000402716 2.9009e-06
-2.40413e-05 2.9009e-06 0.000284948
0.00177412 -4.65423e-05 -5.02446e-06
-4.65423e-05 0.000244715 1.25426e-07
-5.02446e-06 1.25426e-07 0.000124705
0.00167215 -0.000139267 -4.03431e-06
-0.000139267 0.000206942 9.71601e-07
-4.03431e-06 9.71601e-07 6.36015e-05
0.000739337 -9.91413e-05 -1.66647e-05
-9.91413e-05 8.24024e-05 1.41592e-05
-1.66647e-05 1.41592e-05 1.01919e-05
0.000764885 -0.000186752 -8.70855e-06
-0.000186752 4.93154e-05 7.09302e-06
-8.70855e-06 7.09302e-06 -0.000122976
0.00107256 -0.000249431 -5.39948e-06
-0.000249431 6.15355e-05 2.54039e-06
-5.39948e-06 2.54039e-06 -0.00014627
0.00170708 -0.000208876 -7.8609e-06
-0.000208876 0.000272089 2.26784e-06
-7.8609e-06 2.26784e-06 0.000108616
0.00189105 -0.000222544 5.47345e-07
-0.000222544 0.000209665 -1.15165e-06
5.47345e-07 -1.15165e-06 7.51087e-05
0.00167828 -0.000282021 -1.07356e-06
-0.000282021 0.000173056 -6.28895e-07
-1.07356e-06 -6.28895e-07 -3.25661e-06
0.0017837 -0.000353021 -4.63865e-06
-0.000353021 0.000327053 -4.8963e-07
-4.63865e-06 -4.8963e-07 0.00010211
0.00180246 -0.000335679 3.10166e-06
-0.000335679 0.000214381 -2.57972e-06
3.10166e-06 -2.57972e-06 3.09929e-05
0.000768247 -0.000130346 -3.75993e-06
-0.000130346 0.00011778 5.11709e-06
-3.75993e-06 5.11709e-06 -2.98006e-05
0.000437023 -9.10272e-05 -4.49142e-07
-9.10272e-05 -6.75915e-05 -1.12347e-06
-4.49142e-07 -1.12347e-06 -0.000237095
0.000602102 -5.21549e-05 -1.68619e-06
-5.21549e-05 2.91783e-05 3.27834e-06
-1.68619e-06 3.27834e-06 -8.17026e-05
0.00157678 -1.97597e-05 -2.00371e-06
-1.97597e-05 0.000128252 1.3813e-07
-2.00371e-06 1.3813e-07 5.1685e-06
0.00174525 -9.97651e-05 -2.84611e-06
-9.97651e-05 0.000232481 4.45883e-07
-2.84611e-06 4.45883e-07 0.000103439
0.00175177 -7.19253e-05 1.70825e-06
-7.19253e-05 8.92147e-05 5.75993e-07
1.70825e-06 5.75993e-07 -8.43383e-06
0.00175894 -0.000171319 -1.7081e-06
-0.000171319 0.000109836 5.40974e-07
-1.7081e-06 5.40974e-07 -1.638e-05
0.000751186 -0.000163972 3.90537e-07
-0.000163972 9.73795e-05 8.4147e-08
3.90537e-07 8.4147e-08 -6.83843e-05
0.00110185 -0.000247302 -1.55324e-06
-0.000247302 0.00016879 -6.45107e-07
-1.55324e-06 -6.45107e-07 -4.56629e-05
0.00144508 -0.000340981 2.43972e-06
-0.000340981 0.000221269 -2.68106e-07
2.43972e-06 -2.68106e-07 -2.59788e-05
0.00164606 -0.000253042 -9.43398e-07
-0.000253042 0.000117697 6.1668e-07
-9.43398e-07 6.1668e-07 -4.12344e-05
0.00188404 -0.000242804 1.70069e-06
-0.000242804 0.000157739 1.00155e-08
1.70069e-06 1.00155e-08 4.65679e-05
0.00182312 -0.000387464 -7.04826e-07
-0.000387464 0.000282545 4.24645e-07
-7.04826e-07 4.24645e-07 5.38015e-05
0.00176177 -0.000309948 7.04028e-08
-0.000309948 0.000151429 3.54697e-07
7.04028e-08 3.54697e-07 -7.10274e-06
0.00203924 -0.000358014 1.89994e-06
-0.000358014 0.000336241 -2.35431e-07
1.89994e-06 -2.35431e-07 0.000170158
0.000985234 -0.00019013 4.15322e-07
-0.00019013 0.000231651 8.84168e-07
4.15322e-07 8.84168e-07 5.00828e-05
0.00116645 -0.00022509 -3.04825e-07
-0.00022509 0.000351021 3.32107e-07
-3.04825e-07 3.32107e-07 0.000151105
0.000625709 -3.56745e-05 -6.4694e-08
-3.56745e-05 4.54332e-05 1.6665e-07
-6.4694e-08 1.6665e-07 -4.97344e-05
0.000346998 -4.75851e-05 -1.14031e-07
-4.75851e-05 -0.000103036 -6.78e-07
-1.14031e-07 -6.78e-07 -0.000262753
0.00176443 -3.92776e-05 -2.42895e-06
-3.92776e-05 9.52182e-05 1.15155e-07
-2.42895e-06 1.15155e-07 4.63747e-07
0.00184399 -0.00011925 -5.37834e-07
-0.00011925 0.000142617 1.3834e-06
-5.37834e-07 1.3834e-06 3.25902e-05
0.00174152 -8.17926e-05 2.26442e-06
-8.17926e-05 3.53735e-05 -1.70461e-07
2.26442e-06 -1.70461e-07 -4.12254e-05
0.00181047 -0.000197616 -2.97833e-06
-0.000197616 7.04954e-05 6.74453e-07
-2.97833e-06 6.74453e-07 -2.08811e-05
0.00172958 -0.000275035 -3.18866e-06
-0.000275035 0.000100028 2.54157e-06
-3.18866e-06 2.54157e-06 -3.24859e-05
0.00199889 -0.000251046 2.84069e-06
-0.000251046 0.000211405 -1.0994e-06
2.84069e-06 -1.0994e-06 0.000113714
0.000970856 -0.000219152 7.35282e-07
-0.000219152 0.000177832 -4.4739e-06
7.35282e-07 -4.4739e-06 -2.30022e-05
0.00166085 -0.000320073 -4.50177e-06
-0.000320073 7.22659e-05 2.13508e-06
-4.50177e-06 2.13508e-06 -6.41133e-05
0.0012865 -0.000312393 2.92641e-06
-0.000312393 0.000233283 -4.02826e-06
2.92641e-06 -4.02826e-06 -1.66287e-05
0.00169501 -0.000416674 -1.65113e-06
-0.000416674 0.000304476 1.79344e-06
-1.65113e-06 1.79344e-06 3.11378e-05
0.00176107 -0.000395035 1.58504e-06
-0.000395035 0.000200795 4.99681e-06
1.58504e-06 4.99681e-06 -2.33644e-05
0.00205795 -0.000346624 1.56536e-07
-0.000346624 0.000335189 7.6081e-07
1.56536e-07 7.6081e-07 0.00017655
0.000524448 -3.67781e-05 9.39488e-07
-3.67781e-05 -1.34703e-05 -3.39064e-06
9.39488e-07 -3.39064e-06 -9.49111e-05
0.000456906 -4.4611e-05 -1.86484e-06
-4.4611e-05 -2.63781e-05 -1.0428e-06
-1.86484e-06 -1.0428e-06 -0.000171751
0.000901758 -0.000221029 -1.62068e-06
-0.000221029 0.000151432 5.88533e-07
-1.62068e-06 5.88533e-07 -4.61081e-05
0.000823824 -0.000158059 1.49112e-07
-0.000158059 0.000199158 3.10126e-06
1.49112e-07 3.10126e-06 3.2097e-06
0.00147526 -0.000275737 -4.65149e-06
-0.000275737 0.00051638 4.43362e-06
-4.65149e-06 4.43362e-06 0.000314303
0.000474589 -6.19334e-05 -3.60522e-07
-6.19334e-05 -5.17243e-05 -5.1491e-06
-3.60522e-07 -5.1491e-06 -8.06057e-05
0.0014385 0.000206482 -4.49188e-06
0.000206482 9.51068e-05 -1.26529e-06
-4.49188e-06 -1.26529e-06 -7.57912e-05
0.000486943 -3.05151e-05 -3.81089e-07
-3.05151e-05 -3.48806e-05 -3.58768e-06
-3.81089e-07 -3.58768e-06 -0.000117437
0.000682747 9.06787e-05 -1.80056e-06
9.06787e-05 7.4486e-05 -4.86833e-06
-1.80056e-06 -4.86833e-06 -6.53106e-05
0.000544256 6.80366e-05 1.21674e-06
6.80366e-05 2.63276e-05 -5.58743e-07
1.21674e-06 -5.58743e-07 -0.000135323
0.00133846 0.000245428 -6.22465e-06
0.000245428 0.00013812 -2.31633e-06
-6.22465e-06 -2.31633e-06 -5.47755e-05
0.00168655 0.000305219 3.77064e-09
0.000305219 0.000170437 6.02643e-07
3.77064e-09 6.02643e-07 -2.0142e-05
0.000873634 0.000211436 -1.56776e-06
0.000211436 0.000112281 -4.16183e-06
-1.56776e-06 -4.16183e-06 -9.93512e-05
0.00138326 0.000301759 -2.795e-06
0.000301759 0.000248171 -1.49677e-06
-2.795e-06 -1.49677e-06 -4.46156e-06
0.00176266 0.000333641 -2.15392e-06
0.000333641 0.000363723 -2.95593e-07
-2.15392e-06 -2.95593e-07 0.000145769
0.0015953 0.000319932 -5.44076e-06
0.000319932 0.0002476 3.92595e-06
-5.44076e-06 3.92595e-06 2.14016e-05
0.000533068 -5.16807e-05 8.50777e-09
-5.16807e-05 -3.06777e-05 3.94381e-09
8.50777e-09 3.94381e-09 -5.39223e-05
0.000631719 -1.67872e-05 -6.33932e-07
-1.67872e-05 3.81617e-05 3.02617e-07
-6.33932e-07 3.02617e-07 -2.85197e-05
0.000972781 0.000185094 -2.06728e-07
0.000185094 0.000235413 1.07692e-06
-2.06728e-07 1.07692e-06 5.18203e-05
0.00067008 2.28175e-05 -4.33461e-07
2.28175e-05 0.000102784 4.82125e-08
-4.33461e-07 4.82125e-08 -3.32821e-05
0.000611431 0.000119901 6.95639e-07
0.000119901 4.06609e-05 -6.19856e-07
6.95639e-07 -6.19856e-07 -0.000138371
0.0017646 0.000271789 -3.13323e-07
0.000271789 0.000166883 -9.13253e-07
-3.13323e-07 -9.13253e-07 -1.62977e-06
0.00161648 0.000331273 5.03692e-07
0.000331273 0.000195808 2.01168e-07
5.03692e-07 2.01168e-07 -1.44183e-05
0.00175382 0.000340086 1.77853e-06
0.000340086 0.000174697 2.19177e-07
1.77853e-06 2.19177e-07 -9.49512e-06
0.00122799 0.000278663 1.39271e-06
0.000278663 0.000277409 6.09054e-07
1.39271e-06 6.09054e-07 2.8851e-05
0.00183028 0.000390693 9.9918e-07
0.000390693 0.000319284 1.56783e-07
9.9918e-07 1.56783e-07 8.96867e-05
0.00137963 0.000310562 -1.30956e-06
0.000310562 0.000189713 3.70335e-07
-1.30956e-06 3.70335e-07 -6.2679e-05
0.000681676 -2.94327e-06 2.12723e-06
-2.94327e-06 5.7856e-05 2.66268e-06
2.12723e-06 2.66268e-06 4.87428e-07
0.000903135 6.19335e-05 6.89188e-07
6.19335e-05 0.000229922 2.79723e-06
6.89188e-07 2.79723e-06 0.000118051
0.00107883 0.000240234 -3.11314e-06
0.000240234 0.000259338 -7.71183e-07
-3.11314e-06 -7.71183e-07 5.65426e-05
0.00128084 9.50191e-05 -1.41984e-07
9.50191e-05 0.000470887 6.33818e-07
-1.41984e-07 6.33818e-07 0.000299373
0.00115053 0.000147925 -5.84778e-06
0.000147925 0.000314625 -6.55593e-06
-5.84778e-06 -6.55593e-06 0.000148373
0.00179084 0.000282395 -2.86288e-06
0.000282395 0.000149558 -2.61285e-06
-2.86288e-06 -2.61285e-06 -2.03003e-06
0.00181385 0.000389407 1.29862e-06
0.000389407 0.00025619 2.54724e-07
1.29862e-06 2.54724e-07 4.26576e-05
0.00155181 0.000360894 3.26628e-06
0.000360894 3.06925e-05 -7.1719e-07
3.26628e-06 -7.1719e-07 -0.000151135
0.000832411 0.000257578 -1.43042e-06
0.000257578 3.63893e-05 2.54949e-06
-1.43042e-06 2.54949e-06 -0.00021652
0.00141255 0.000360186 6.27759e-06
0.000360186 0.000131151 -1.20177e-06
6.27759e-06 -1.20177e-06 -0.000116284
0.000621145 -3.88863e-06 -1.8817e-07
-3.88863e-06 1.89804e-05 2.7858e-08
-1.8817e-07 2.7858e-08 -3.3666e-05
0.000551468 2.59036e-05 1.51282e-06
2.59036e-05 -3.14016e-06 1.62982e-06
1.51282e-06 1.62982e-06 -8.52158e-05
0.00053934 1.63064e-05 -6.00082e-07
1.63064e-05 -6.53899e-06 -1.1321e-07
-6.00082e-07 -1.1321e-07 -8.82692e-05
0.000930568 9.63468e-05 3.57791e-07
9.63468e-05 0.000238399 -5.62655e-07
3.57791e-07 -5.62655e-07 0.000135767
0.000676803 7.40288e-05 1.95885e-06
7.40288e-05 8.3689e-05 1.5149e-06
1.95885e-06 1.5149e-06 -2.87173e-06
0.000611374 3.10871e-05 2.26227e-06
3.10871e-05 2.28845e-05 2.46534e-06
2.26227e-06 2.46534e-06 -2.93936e-05
0.000608404 -7.19337e-06 -6.33517e-07
-7.19337e-06 1.66104e-05 -7.17038e-09
-6.33517e-07 -7.17038e-09 -3.48992e-05
0.00124381 -3.83832e-05 8.84279e-07
-3.83832e-05 0.000379271 2.58505e-06
8.84279e-07 2.58505e-06 0.000366929
0.000612988 -1.42455e-05 -1.34338e-06
-1.42455e-05 1.50999e-05 -2.42969e-06
-1.34338e-06 -2.42969e-06 -3.58847e-05
0.00129637 -4.80357e-05 -5.4545e-06
-4.80357e-05 0.000413793 -1.40869e-06
-5.4545e-06 -1.40869e-06 0.000400061
0.000857331 -4.07021e-05 2.3489e-05
-4.07021e-05 0.000158932 7.64123e-06
2.3489e-05 7.64123e-06 0.000163319
0.00131515 -5.70295e-05 -9.61043e-06
-5.70295e-05 0.000430782 -3.91791e-06
-9.61043e-06 -3.91791e-06 0.000414774
0.00158578 -6.87581e-05 2.10772e-05
-6.87581e-05 0.000606133 1.90054e-06
2.10772e-05 1.90054e-06 0.000610565
0.00233809 -9.86917e-05 -2.90524e-05
-9.86917e-05 0.00106664 -3.57928e-06
-2.90524e-05 -3.57928e-06 0.00107143
0.000457585 6.53529e-05 -2.51967e-06
6.53529e-05 -5.64316e-05 -5.39719e-06
-2.51967e-06 -5.39719e-06 -8.87037e-05
0.000504888 1.74504e-05 4.01754e-07
1.74504e-05 -3.12096e-05 3.54425e-07
4.01754e-07 3.54425e-07 -6.69028e-05
0.00275692 0.000123547 3.36117e-05
0.000123547 0.00132839 -3.51845e-06
3.36117e-05 -3.51845e-06 0.00132558
0.00325227 0.000111014 -7.21782e-06
0.000111014 0.00162692 -4.49146e-07
-7.21782e-06 -4.49146e-07 0.00162689
0.00062976 -7.63829e-06 -5.9923e-06
-7.63829e-06 4.00356e-05 8.16789e-06
-5.9923e-06 8.16789e-06 -3.01675e-06
0.00378196 0.000106726 -0.000120074
0.000106726 0.00194456 6.94595e-06
-0.000120074 6.94595e-06 0.00194466
0.00147665 0.000175171 -3.92565e-06
0.000175171 8.46421e-05 -5.41534e-07
-3.92565e-06 -5.41534e-07 -7.27112e-05
0.00147811 9.79946e-05 -2.11236e-06
9.79946e-05 6.02254e-05 -4.60981e-08
-2.11236e-06 -4.60981e-08 -7.43863e-05
0.00178571 0.000179086 -3.81614e-07
0.000179086 0.000122032 1.32403e-06
-3.81614e-07 1.32403e-06 -5.16551e-06
0.00181554 8.64303e-05 1.13341e-06
8.64303e-05 9.79455e-05 7.01886e-07
1.13341e-06 7.01886e-07 3.47412e-06
0.00145894 3.69478e-05 -1.66647e-06
3.69478e-05 5.21304e-05 -2.55677e-08
-1.66647e-06 -2.55677e-08 -7.17876e-05
0.000992215 6.47429e-06 -1.21278e-05
6.47429e-06 -3.15262e-05 -7.99846e-08
-1.21278e-05 -7.99846e-08 -0.000151992
0.00145144 8.77154e-06 7.16083e-08
8.77154e-06 5.1342e-05 3.22924e-08
7.16083e-08 3.22924e-08 -7.1453e-05
0.00181305 3.6225e-05 -2.03608e-06
3.6225e-05 0.000113781 -6.76026e-08
-2.03608e-06 -6.76026e-08 2.52188e-05
0.00181591 0.000138232 -2.99508e-07
0.000138232 0.000110503 2.34431e-07
-2.99508e-07 2.34431e-07 -7.9762e-07
0.00181122 8.6297e-05 2.32008e-06
8.6297e-05 4.22584e-05 7.04176e-07
2.32008e-06 7.04176e-07 -2.48529e-05
0.00178213 0.000227123 -2.84419e-07
0.000227123 0.000144298 -1.01745e-07
-2.84419e-07 -1.01745e-07 -2.35244e-06
0.00178777 0.000198929 -3.80879e-07
0.000198929 5.52766e-05 8.23266e-07
-3.80879e-07 8.23266e-07 -4.27297e-05
0.00178032 1.59008e-06 -2.6774e-06
1.59008e-06 0.000104024 1.53901e-07
-2.6774e-06 1.53901e-07 1.58175e-05
0.00177539 4.03551e-05 3.68158e-06
4.03551e-05 3.25898e-05 2.29302e-07
3.68158e-06 2.29302e-07 -2.84266e-05
0.00182289 0.000144706 1.2114e-07
0.000144706 5.1669e-05 -5.68762e-07
1.2114e-07 -5.68762e-07 -2.69699e-05
0.00182675 9.20879e-05 5.71972e-06
9.20879e-05 2.81704e-05 6.42538e-07
5.71972e-06 6.42538e-07 -2.31879e-05
0.00176516 0.000226555 -2.69118e-07
0.000226555 8.89033e-05 -2.24593e-06
-2.69118e-07 -2.24593e-06 -3.19248e-05
0.00190996 0.000207846 3.87378e-06
0.000207846 9.09279e-05 9.36828e-07
3.87378e-06 9.36828e-07 9.23209e-06
0.00147788 -1.76625e-05 -3.68154e-06
-1.76625e-05 6.84383e-05 8.18363e-08
-3.68154e-06 8.18363e-08 -5.49005e-05
0.00175694 -0.000104821 -5.91739e-06
-0.000104821 0.00023834 6.94376e-07
-5.91739e-06 6.94376e-07 0.000108654
0.00178889 -7.00209e-05 3.42172e-06
-7.00209e-05 0.000112076 -1.22533e-06
3.42172e-06 -1.22533e-06 1.97555e-05
0.00174462 -0.000167898 -2.75896e-07
-0.000167898 0.000100747 -9.9368e-08
-2.75896e-07 -9.9368e-08 -2.67508e-05
0.000871082 -0.000187879 -5.75506e-06
-0.000187879 0.000170037 7.68819e-06
-5.75506e-06 7.68819e-06 4.68305e-07
0.0011498 -0.000252674 -6.45594e-06
-0.000252674 0.000191585 3.84859e-06
-6.45594e-06 3.84859e-06 -2.34637e-05
0.00134574 -0.000327331 -5.6208e-07
-0.000327331 0.000170479 7.86121e-07
-5.6208e-07 7.86121e-07 -7.47914e-05
0.00164629 -0.000251702 -1.10654e-06
-0.000251702 0.000120157 1.55298e-07
-1.10654e-06 1.55298e-07 -4.21374e-05
0.00191825 -0.000244037 2.73205e-06
-0.000244037 0.000178365 -1.66153e-06
2.73205e-06 -1.66153e-06 7.13212e-05
0.00179906 -0.000311203 2.17947e-06
-0.000311203 0.000173294 -1.14724e-06
2.17947e-06 -1.14724e-06 1.48418e-05
0.00174851 -0.000390086 -4.83287e-07
-0.000390086 0.000234202 -1.97961e-06
-4.83287e-07 -1.97961e-06 2.18952e-06
0.00205087 -0.000353938 5.60667e-06
-0.000353938 0.000342308 -6.16552e-06
5.60667e-06 -6.16552e-06 0.000180025
0.000916241 -0.000189519 5.9003e-07
-0.000189519 0.000193037 1.844e-06
5.9003e-07 1.844e-06 1.03671e-05
0.000616604 -0.000159553 8.67578e-07
-0.000159553 1.43174e-05 -7.66846e-07
8.67578e-07 -7.66846e-07 -0.000171103
0.000701873 -4.18255e-05 -1.35079e-06
-4.18255e-05 8.81589e-05 3.61354e-06
-1.35079e-06 3.61354e-06 -7.27866e-06
0.000236695 -1.71527e-05 9.40304e-07
-1.71527e-05 -0.000174068 -2.30339e-06
9.40304e-07 -2.30339e-06 -0.000325216
0.00176263 -3.93935e-05 4.81339e-09
-3.93935e-05 9.56285e-05 1.0903e-07
4.81339e-09 1.0903e-07 7.73967e-07
0.00179161 -0.000118543 6.71044e-07
-0.000118543 0.000114824 -3.56968e-07
6.71044e-07 -3.56968e-07 2.63318e-06
0.00176229 -8.0059e-05 2.17983e-06
-8.0059e-05 4.68304e-05 -6.13686e-07
2.17983e-06 -6.13686e-07 -2.53907e-05
0.00178228 -0.000194097 -1.82479e-06
-0.000194097 5.95604e-05 6.69121e-07
-1.82479e-06 6.69121e-07 -3.38173e-05
0.00100034 -0.000215469 -1.25824e-06
-0.000215469 0.00019679 6.16438e-07
-1.25824e-06 6.16438e-07 -3.16154e-06
0.00107083 -0.000286788 1.80357e-06
-0.000286788 0.000104715 -1.87972e-06
1.80357e-06 -1.87972e-06 -0.000138121
0.00162522 -0.000416007 -1.7724e-07
-0.000416007 0.000262155 1.00388e-06
-1.7724e-07 1.00388e-06 -1.46029e-05
0.00170332 -0.000272302 -1.52154e-06
-0.000272302 9.06596e-05 7.86e-07
-1.52154e-06 7.86e-07 -4.55031e-05
0.0018698 -0.00024755 1.9625e-06
-0.00024755 0.000132981 -1.00052e-06
1.9625e-06 -1.00052e-06 3.94985e-05
0.00175833 -0.000397689 -5.6998e-07
-0.000397689 0.000204869 6.12255e-07
-5.6998e-07 6.12255e-07 -2.09083e-05
0.00172059 -0.000323765 -6.39895e-07
-0.000323765 0.000102641 1.05429e-06
-6.39895e-07 1.05429e-06 -3.42864e-05
0.00189618 -0.00033619 3.71885e-06
-0.00033619 0.000227993 -5.56982e-06
3.71885e-06 -5.56982e-06 7.49982e-05
0.00104837 -0.000235719 6.02575e-07
-0.000235719 0.000233339 1.53732e-06
6.02575e-07 1.53732e-06 3.35333e-05
0.00129188 -0.000251825 3.78141e-06
-0.000251825 0.000399235 1.4123e-06
3.78141e-06 1.4123e-06 0.000206855
0.000770269 -0.000123469 -1.97365e-07
-0.000123469 0.000163988 -2.94647e-07
-1.97365e-07 -2.94647e-07 -3.20818e-05
0.000459373 -1.11696e-05 -1.42582e-06
-1.11696e-05 -5.26346e-05 4.82478e-07
-1.42582e-06 4.82478e-07 -0.000135482
0.000359045 -1.04754e-05 -3.30467e-07
-1.04754e-05 -8.69884e-05 -5.40354e-07
-3.30467e-07 -5.40354e-07 -0.00022543
0.00188846 -5.16119e-05 2.01037e-06
-5.16119e-05 0.00010488 -7.2339e-07
2.01037e-06 -7.2339e-07 4.76068e-05
0.00188309 -0.00011672 3.30494e-06
-0.00011672 9.5376e-05 1.15401e-07
3.30494e-06 1.15401e-07 2.28376e-05
0.00184617 -0.000235766 1.20212e-06
-0.000235766 6.67083e-05 -1.82125e-06
1.20212e-06 -1.82125e-06 -8.54776e-06
0.00168269 -0.000272486 -3.49926e-07
-0.000272486 4.34695e-05 -3.29244e-07
-3.49926e-07 -3.29244e-07 -6.33354e-05
0.00124869 -0.00027286 -2.13026e-06
-0.00027286 0.000303528 -4.63625e-06
-2.13026e-06 -4.63625e-06 7.75798e-05
0.00224141 -0.000388469 -2.93401e-06
-0.000388469 0.000342361 2.49744e-07
-2.93401e-06 2.49744e-07 0.000206868
0.00138496 -0.000368458 2.86216e-06
-0.000368458 0.000254383 -4.48824e-06
2.86216e-06 -4.48824e-06 -2.71492e-05
0.00175016 -0.000466353 -5.73046e-07
-0.000466353 0.000296643 2.1598e-06
-5.73046e-07 2.1598e-06 4.82821e-06
0.00165092 -0.000381916 1.87516e-06
-0.000381916 0.000117366 3.89741e-06
1.87516e-06 3.89741e-06 -9.89459e-05
0.00022672 9.78388e-06 1.07331e-07
9.78388e-06 -0.000190375 -3.52734e-06
1.07331e-07 -3.52734e-06 -0.000260486
0.00071654 -4.65261e-05 5.64142e-07
-4.65261e-05 0.000139296 -9.08604e-07
5.64142e-07 -9.08604e-07 9.50824e-06
0.00100471 -7.96315e-05 -1.38563e-06
-7.96315e-05 0.00030032 1.18588e-06
-1.38563e-06 1.18588e-06 0.000133435
0.00116957 -0.000258299 -7.50377e-06
-0.000258299 0.000283641 4.07115e-07
-7.50377e-06 4.07115e-07 8.07074e-05
0.000456596 -0.000129736 2.81995e-06
-0.000129736 -3.72431e-05 5.56772e-06
2.81995e-06 5.56772e-06 -0.00024367
0.000670916 -0.000215128 -1.86364e-06
-0.000215128 -3.83027e-06 8.90298e-07
-1.86364e-06 8.90298e-07 -0.000188715
0.000538407 -4.96737e-05 -1.08708e-06
-4.96737e-05 -2.87418e-05 -4.69111e-06
-1.08708e-06 -4.69111e-06 -5.14289e-05
0.000579731 -2.08448e-05 -1.75711e-06
-2.08448e-05 9.49137e-06 -2.83107e-06
-1.75711e-06 -2.83107e-06 -5.71097e-05
0.00174614 0.000272266 -1.56896e-06
0.000272266 0.000152944 -3.44011e-07
-1.56896e-06 -3.44011e-07 -1.60086e-05
0.000298843 -5.27356e-05 1.23916e-06
-5.27356e-05 -0.000120254 -2.63814e-06
1.23916e-06 -2.63814e-06 -0.000249217
0.000777236 0.000167706 -1.07943e-06
0.000167706 0.000121167 3.02161e-07
-1.07943e-06 3.02161e-07 -5.84058e-05
9.89844e-05 6.5399e-05 1.67058e-06
6.5399e-05 -0.000271378 1.60108e-06
1.67058e-06 1.60108e-06 -0.000439989
0.00160833 0.000331192 1.53998e-07
0.000331192 0.000189699 3.42935e-07
1.53998e-07 3.42935e-07 -2.08645e-05
0.00167078 0.000335807 4.96201e-07
0.000335807 0.000128675 1.24459e-07
4.96201e-07 1.24459e-07 -5.56927e-05
0.00131149 0.000286409 1.5073e-06
0.000286409 0.000334929 -1.65573e-06
1.5073e-06 -1.65573e-06 8.3038e-05
0.00197655 0.000361197 -1.48946e-06
0.000361197 0.000540884 -1.31503e-06
-1.48946e-06 -1.31503e-06 0.000283687
0.00172471 0.000380771 -2.66742e-06
0.000380771 0.000241236 2.33901e-07
-2.66742e-06 2.33901e-07 1.18224e-05
0.000618257 -3.15599e-06 -3.76349e-07
-3.15599e-06 2.13503e-05 2.73258e-07
-3.76349e-07 2.73258e-07 -3.58666e-05
0.000704203 3.91083e-06 -8.55335e-07
3.91083e-06 0.000109757 4.66608e-07
-8.55335e-07 4.66608e-07 3.73718e-06
0.00111443 0.000244027 -6.44902e-07
0.000244027 0.000283045 1.7989e-07
-6.44902e-07 1.7989e-07 7.84354e-05
0.000825318 4.61383e-05 4.52932e-07
4.61383e-05 0.000195306 -3.19415e-08
4.52932e-07 -3.19415e-08 3.2593e-05
0.000791557 0.000157547 1.81009e-06
0.000157547 0.000119093 1.31344e-06
1.81009e-06 1.31344e-06 -5.34038e-05
0.00176421 0.000283521 -1.98818e-06
0.000283521 0.000136212 -1.52512e-06
-1.98818e-06 -1.52512e-06 -1.65531e-05
0.00177095 0.000385649 1.63558e-06
0.000385649 0.000229024 3.88755e-07
1.63558e-06 3.88755e-07 1.57429e-05
0.00167832 0.000364643 4.128e-07
0.000364643 0.000105527 -1.2575e-07
4.128e-07 -1.2575e-07 -7.5167e-05
0.000844516 0.000265854 8.94693e-07
0.000265854 3.50976e-05 3.39006e-06
8.94693e-07 3.39006e-06 -0.000219322
0.00161804 0.000377622 -2.35213e-06
0.000377622 0.000263486 -1.20583e-06
-2.35213e-06 -1.20583e-06 1.26528e-05
0.000781357 3.75011e-05 5.98319e-07
3.75011e-05 0.000146572 2.03059e-06
5.98319e-07 2.03059e-06 5.37912e-05
0.000328167 -4.68126e-06 -1.81028e-06
-4.68126e-06 -0.000100513 2.33607e-06
-1.81028e-06 2.33607e-06 -0.00022785
0.00124869 0.000273136 -3.90411e-06
0.000273136 0.000314261 -1.95847e-06
-3.90411e-06 -1.95847e-06 0.000107457
0.000742544 0.000128079 -5.6145e-06
0.000128079 0.000165112 -4.91984e-06
-5.6145e-06 -4.91984e-06 -2.20311e-05
0.000712972 0.000215302 -1.27613e-06
0.000215302 3.7083e-05 -3.09815e-06
-1.27613e-06 -3.09815e-06 -0.000137055
0.0016708 0.000303167 -8.51833e-07
0.000303167 1.63895e-05 -2.14699e-06
-8.51833e-07 -2.14699e-06 -0.000112514
0.0019224 0.000423472 3.38882e-06
0.000423472 0.000302239 -1.97226e-06
3.38882e-06 -1.97226e-06 7.58768e-05
0.00156914 0.000378296 1.88084e-06
0.000378296 3.31221e-05 2.79263e-08
1.88084e-06 2.79263e-08 -0.000150547
0.0012316 0.000310423 1.72495e-06
0.000310423 0.000212322 7.93496e-06
1.72495e-06 7.93496e-06 -5.81934e-05
0.00133967 0.000380581 -9.09371e-07
0.000380581 0.000115 -7.90128e-07
-9.09371e-07 -7.90128e-07 -0.000139019
0.000600416 -1.41973e-05 -1.64544e-06
-1.41973e-05 7.45817e-06 -2.5283e-06
-1.64544e-06 -2.5283e-06 -4.56419e-05
0.000610824 3.05174e-05 1.04373e-06
3.05174e-05 3.40754e-05 3.4374e-07
1.04373e-06 3.4374e-07 -4.86903e-05
0.00051769 1.06673e-05 -9.23383e-08
1.06673e-05 -2.18267e-05 1.02486e-06
-9.23383e-08 1.02486e-06 -0.000109246
0.000425003 -2.70767e-05 -7.47291e-07
-2.70767e-05 -7.45157e-05 -1.48579e-06
-7.47291e-07 -1.48579e-06 -0.00015549
0.000654761 3.84036e-05 -2.89048e-07
3.84036e-05 6.97621e-05 1.19316e-08
-2.89048e-07 1.19316e-08 -1.52581e-05
0.00068411 5.18451e-05 -3.78122e-07
5.18451e-05 8.06973e-05 -3.3973e-07
-3.78122e-07 -3.3973e-07 -1.17605e-05
0.000806299 8.35301e-05 -1.30086e-06
8.35301e-05 0.000162548 -2.0086e-06
-1.30086e-06 -2.0086e-06 6.13154e-05
0.000488442 -9.08384e-06 8.00241e-07
-9.08384e-06 -1.95696e-05 1.97898e-07
8.00241e-07 1.97898e-07 -0.000123173
0.000684786 6.29017e-05 1.00341e-06
6.29017e-05 8.47478e-05 1.65887e-06
1.00341e-06 1.65887e-06 2.86075e-06
0.000621905 3.79853e-05 2.39895e-06
3.79853e-05 3.40463e-05 2.48643e-06
2.39895e-06 2.48643e-06 -1.97953e-05
0.000608509 2.3234e-06 -1.29137e-06
2.3234e-06 2.0977e-05 -5.88084e-10
-1.29137e-06 -5.88084e-10 -3.11121e-05
0.00125111 -2.6033e-05 9.96375e-07
-2.6033e-05 0.000382742 2.5317e-06
9.96375e-07 2.5317e-06 0.000371276
0.000569791 -4.7464e-05 -1.89215e-08
-4.7464e-05 -2.26946e-06 -2.44591e-06
-1.89215e-08 -2.44591e-06 -5.60056e-05
0.00129697 -3.52239e-05 -4.71875e-06
-3.52239e-05 0.000410806 -1.46366e-06
-4.71875e-06 -1.46366e-06 0.000398767
0.000849734 -3.27823e-05 1.98384e-05
-3.27823e-05 0.000149278 8.00876e-06
1.98384e-05 8.00876e-06 0.000155211
0.0013386 -4.57713e-05 -8.54145e-06
-4.57713e-05 0.000438748 -5.56058e-06
-8.54145e-06 -5.56058e-06 0.000425237
0.000803148 -4.17094e-05 7.1965e-06
-4.17094e-05 0.000125851 3.00135e-06
7.1965e-06 3.00135e-06 0.000129646
0.00227111 -9.23709e-05 -4.44524e-06
-9.23709e-05 0.00101821 -2.0008e-06
-4.44524e-06 -2.0008e-06 0.00102443
0.000489672 4.63553e-05 -9.09527e-07
4.63553e-05 -5.18314e-05 -3.95923e-06
-9.09527e-07 -3.95923e-06 -7.36702e-05
0.000503455 4.13011e-05 -1.31164e-06
4.13011e-05 -3.45079e-05 -1.85328e-08
-1.31164e-06 -1.85328e-08 -6.39499e-05
0.00250198 0.000105223 2.49254e-05
0.000105223 0.00116907 -3.68089e-06
2.49254e-05 -3.68089e-06 0.00117112
0.000578003 1.49656e-06 -4.70174e-06
1.49656e-06 9.09274e-06 6.90051e-06
-4.70174e-06 6.90051e-06 -2.52905e-05
0.00289433 0.000120708 -1.48587e-05
0.000120708 0.00140961 -7.02736e-07
-1.48587e-05 -7.02736e-07 0.00140773
0.00337618 9.7906e-05 -0.000100337
9.7906e-05 0.00169804 5.49908e-06
-0.000100337 5.49908e-06 0.00170104
0.00175502 0.00022751 -1.86646e-06
0.00022751 0.000123953 7.46094e-07
-1.86646e-06 7.46094e-07 -2.32841e-05
0.00181482 0.000135784 1.18576e-06
0.000135784 0.000110286 1.4147e-06
1.18576e-06 1.4147e-06 -7.70773e-07
0.00182629 0.00019632 6.5208e-07
0.00019632 7.60954e-05 2.10904e-06
6.5208e-07 2.10904e-06 -1.87335e-05
0.0018416 8.45934e-05 7.73014e-07
8.45934e-05 6.00338e-05 9.38907e-07
7.73014e-07 9.38907e-07 -1.52907e-06
0.00180871 2.98762e-05 -6.22309e-07
2.98762e-05 0.000111806 7.02845e-08
-6.22309e-07 7.02845e-08 2.36183e-05
0.00145219 1.16328e-05 -1.56186e-06
1.16328e-05 5.27321e-05 6.29553e-08
-1.56186e-06 6.29553e-08 -7.00849e-05
0.00176186 2.70782e-06 -1.90983e-06
2.70782e-06 9.20597e-05 -9.50157e-09
-1.90983e-06 -9.50157e-09 1.37287e-06
0.00179912 3.89183e-05 2.24429e-06
3.89183e-05 5.03472e-05 1.17145e-07
2.24429e-06 1.17145e-07 -1.22186e-05
0.00187162 0.000144583 -1.35198e-06
0.000144583 8.34456e-05 -5.49158e-07
-1.35198e-06 -5.49158e-07 4.75372e-06
0.00184377 9.41557e-05 1.54751e-06
9.41557e-05 3.57573e-05 4.65722e-07
1.54751e-06 4.65722e-07 -1.30387e-05
0.00178012 0.000225113 -8.74137e-07
0.000225113 0.00010572 -2.34961e-07
-8.74137e-07 -2.34961e-07 -1.49413e-05
0.00188084 0.000209605 3.53973e-06
0.000209605 7.45936e-05 1.46627e-06
3.53973e-06 1.46627e-06 -4.36638e-06
0.00180446 -6.93876e-06 1.77464e-06
-6.93876e-06 6.48698e-05 2.23863e-07
1.77464e-06 2.23863e-07 5.28614e-06
0.0018613 4.34189e-05 5.32514e-06
4.34189e-05 3.12076e-05 -3.03309e-08
5.32514e-06 -3.03309e-08 -1.02756e-06
0.00189603 0.00014774 4.32219e-06
0.00014774 5.50269e-05 1.01746e-06
4.32219e-06 1.01746e-06 7.98349e-07
0.00193505 0.000263759 3.41446e-07
0.000263759 0.000119566 -1.52468e-07
3.41446e-07 -1.52468e-07 2.54483e-05
0.00176767 -3.96024e-05 1.66038e-06
-3.96024e-05 9.99867e-05 1.16711e-07
1.66038e-06 1.16711e-07 5.05863e-06
0.00173451 -0.00011927 2.35775e-06
-0.00011927 8.42361e-05 -1.18885e-06
2.35775e-06 -1.18885e-06 -3.02635e-05
0.00178539 -7.83648e-05 3.41083e-06
-7.83648e-05 5.97958e-05 -1.82642e-06
3.41083e-06 -1.82642e-06 -8.1438e-06
0.00177811 -0.000190897 -1.57938e-06
-0.000190897 6.17123e-05 3.44347e-07
-1.57938e-06 3.44347e-07 -3.33577e-05
0.00115814 -0.000229034 -1.78847e-06
-0.000229034 0.000292445 4.84186e-06
-1.78847e-06 4.84186e-06 8.9187e-05
0.00095558 -0.000270351 -1.14544e-06
-0.000270351 3.58607e-05 1.9643e-06
-1.14544e-06 1.9643e-06 -0.000200822
0.00161264 -0.000421021 1.24696e-06
-0.000421021 0.000255106 -7.79712e-07
1.24696e-06 -7.79712e-07 -2.6257e-05
0.00166759 -0.00026932 -1.73777e-07
-0.00026932 7.60296e-05 -2.72436e-07
-1.73777e-07 -2.72436e-07 -6.37613e-05
0.00171595 -0.000243458 2.41805e-06
-0.000243458 3.94775e-05 -9.72846e-07
2.41805e-06 -9.72846e-07 -4.97977e-05
0.00178574 -0.000327851 3.16347e-06
-0.000327851 0.000135499 -6.32093e-09
3.16347e-06 -6.32093e-09 -2.01727e-06
0.00174613 -0.000398799 -2.21735e-06
-0.000398799 0.00020254 -2.45507e-06
-2.21735e-06 -2.45507e-06 -2.4432e-05
0.00176075 -0.000327025 2.16995e-06
-0.000327025 0.00013735 -1.14506e-05
2.16995e-06 -1.14506e-05 -1.02027e-05
0.00123318 -0.000253918 3.29204e-06
-0.000253918 0.000339722 2.4101e-06
3.29204e-06 2.4101e-06 0.000136649
0.00101287 -0.000223349 4.96782e-06
-0.000223349 0.000219736 -3.00263e-06
4.96782e-06 -3.00263e-06 3.884e-05
0.00068341 -0.000100211 2.04743e-06
-0.000100211 0.00011022 -4.29209e-06
2.04743e-06 -4.29209e-06 -8.75272e-05
0.000366967 6.93498e-06 -9.47605e-07
6.93498e-06 -0.000107274 3.20191e-06
-9.47605e-07 3.20191e-06 -0.000192284
0.000298745 1.73509e-05 1.47088e-06
1.73509e-05 -0.000126031 9.42044e-09
1.47088e-06 9.42044e-09 -0.000259918
0.00187572 -5.69601e-05 -1.84236e-07
-5.69601e-05 9.84419e-05 -1.6296e-07
-1.84236e-07 -1.6296e-07 3.80035e-05
0.00182796 -0.000118178 1.36891e-06
-0.000118178 6.04006e-05 -6.87068e-07
1.36891e-06 -6.87068e-07 -1.40065e-05
0.00184786 -0.000229343 -2.04909e-06
-0.000229343 7.7097e-05 2.94749e-07
-2.04909e-06 2.94749e-07 -6.0283e-07
0.00116908 -0.00026356 -1.47536e-06
-0.00026356 0.000255547 -1.40585e-07
-1.47536e-06 -1.40585e-07 3.11427e-05
0.00102292 -0.000325185 1.26744e-06
-0.000325185 3.65593e-05 -1.95078e-06
1.26744e-06 -1.95078e-06 -0.000233486
0.00163017 -0.000460903 -3.21726e-07
-0.000460903 0.000228993 -3.26453e-08
-3.21726e-07 -3.26453e-08 -6.53886e-05
0.00168992 -0.000272916 5.83555e-07
-0.000272916 4.22368e-05 -3.01249e-07
5.83555e-07 -3.01249e-07 -6.49228e-05
0.00176055 -0.00038619 9.26974e-07
-0.00038619 0.000183356 -2.52257e-06
9.26974e-07 -2.52257e-06 -2.6444e-05
0.00192051 -0.00036566 -4.34829e-07
-0.00036566 0.000172321 -1.13006e-06
-4.34829e-07 -1.13006e-06 3.81863e-05
0.000281182 3.65262e-05 -4.77832e-07
3.65262e-05 -0.000163602 -9.01618e-07
-4.77832e-07 -9.01618e-07 -0.00022945
0.00124005 -0.00026313 -2.1648e-07
-0.00026313 0.000312323 1.48405e-06
-2.1648e-07 1.48405e-06 0.000110048
0.000617805 -0.000207635 4.55911e-07
-0.000207635 -3.00299e-05 7.79024e-07
4.55911e-07 7.79024e-07 -0.000203845
0.000978966 -0.000175225 -6.49797e-07
-0.000175225 0.000276148 5.67243e-07
-6.49797e-07 5.67243e-07 5.97863e-05
0.00111855 -8.29824e-05 4.39632e-07
-8.29824e-05 0.000366517 -1.2567e-06
4.39632e-07 -1.2567e-06 0.00020061
0.000596888 -2.78814e-06 -5.60087e-07
-2.78814e-06 5.99425e-05 5.46748e-07
-5.60087e-07 5.46748e-07 -6.61919e-05
0.00176375 -6.53682e-05 3.58671e-06
-6.53682e-05 -1.40327e-05 -4.05217e-07
3.58671e-06 -4.05217e-07 -5.70285e-05
0.00202061 -0.000160455 2.583e-06
-0.000160455 9.79045e-05 -5.95706e-08
2.583e-06 -5.95706e-08 5.75293e-05
0.00172342 -0.000266549 1.98375e-06
-0.000266549 -1.88417e-05 -1.87858e-06
1.98375e-06 -1.87858e-06 -8.62069e-05
0.00207537 -0.000342315 7.10986e-08
-0.000342315 0.0001759 -2.4936e-06
7.10986e-08 -2.4936e-06 7.43249e-05
0.00157647 -0.000326475 -5.14682e-06
-0.000326475 0.000444557 -5.28417e-06
-5.14682e-06 -5.28417e-06 0.000201535
0.00188467 -0.000409256 1.37933e-06
-0.000409256 0.000180932 3.84501e-06
1.37933e-06 3.84501e-06 6.71378e-06
0.00150702 -0.000435017 -4.39427e-06
-0.000435017 0.000279414 1.76261e-06
-4.39427e-06 1.76261e-06 -4.74038e-05
0.00169067 -0.000482815 -4.29368e-06
-0.000482815 0.000261346 2.63546e-06
-4.29368e-06 2.63546e-06 -4.54217e-05
0.000286152 5.4109e-05 -2.09947e-06
5.4109e-05 -0.00016503 -2.26464e-06
-2.09947e-06 -2.26464e-06 -0.000220055
0.000703324 1.16101e-06 -3.38982e-07
1.16101e-06 0.000119003 -6.02123e-07
-3.38982e-07 -6.02123e-07 1.23294e-05
0.00097257 -0.000107476 -1.91205e-06
-0.000107476 0.000286111 2.23333e-06
-1.91205e-06 2.23333e-06 0.000137845
0.000932518 -2.99495e-05 -2.12646e-06
-2.99495e-05 0.000249818 4.65308e-06
-2.12646e-06 4.65308e-06 5.03824e-05
0.000521875 -0.000222537 -4.65193e-06
-0.000222537 -0.000130394 -4.22139e-06
-4.65193e-06 -4.22139e-06 -0.000336023
0.000982516 -0.000238554 -7.50458e-06
-0.000238554 0.000218766 2.83558e-06
-7.50458e-06 2.83558e-06 -2.12642e-06
0.000559513 -1.0771e-05 -2.26111e-06
-1.0771e-05 -1.29787e-05 -2.43456e-06
-2.26111e-06 -2.43456e-06 -6.9727e-05
0.000491919 -3.28488e-05 5.82858e-07
-3.28488e-05 -2.36867e-05 -1.97772e-06
5.82858e-07 -1.97772e-06 -0.000121166
0.00174111 0.000285216 -2.32587e-06
0.000285216 0.000123537 -6.47708e-07
-2.32587e-06 -6.47708e-07 -3.04986e-05
0.000381872 -5.23514e-06 9.20403e-07
-5.23514e-06 -7.3773e-05 -8.45637e-07
9.20403e-07 -8.45637e-07 -0.000225612
0.00114824 0.000247311 1.92372e-06
0.000247311 0.000305635 -3.97994e-07
1.92372e-06 -3.97994e-07 9.99139e-05
7.20039e-05 7.56734e-05 3.52414e-06
7.56734e-05 -0.000319679 3.19485e-06
3.52414e-06 3.19485e-06 -0.000470642
0.00173691 0.000382971 -2.59366e-07
0.000382971 0.000204852 1.29947e-07
-2.59366e-07 1.29947e-07 -8.3751e-06
0.00181465 0.00036938 -2.01827e-06
0.00036938 0.000183668 1.05027e-06
-2.01827e-06 1.05027e-06 3.87409e-06
0.000922225 0.000279004 -8.0327e-07
0.000279004 7.49357e-05 4.20799e-07
-8.0327e-07 4.20799e-07 -0.000181737
0.00187779 0.000399214 -2.39312e-06
0.000399214 0.000427885 7.31749e-07
-2.39312e-06 7.31749e-07 0.000172141
0.000685756 1.4406e-05 -9.29824e-07
1.4406e-05 8.6103e-05 2.34983e-07
-9.29824e-07 2.34983e-07 -2.32894e-06
0.000600163 2.42512e-05 7.61921e-07
2.42512e-05 6.05784e-05 1.11524e-06
7.61921e-07 1.11524e-06 -6.88927e-05
0.00139611 0.000286568 -8.38252e-07
0.000286568 0.00041304 -2.60595e-06
-8.38252e-07 -2.60595e-06 0.000199815
0.000566428 4.25964e-05 -1.13696e-06
4.25964e-05 3.09726e-05 -3.32151e-07
-1.13696e-06 -3.32151e-07 -0.000129348
0.000554107 0.000181898 -1.63448e-06
0.000181898 -6.91369e-05 -5.77553e-07
-1.63448e-06 -5.77553e-07 -0.000222888
0.00188591 0.000314282 -2.88789e-06
0.000314282 0.000137932 -1.27406e-06
-2.88789e-06 -1.27406e-06 1.10549e-05
0.00200565 0.000424578 1.90892e-06
0.000424578 0.000355288 -3.55736e-07
1.90892e-06 -3.55736e-07 0.000131424
0.00173553 0.000396942 1.67281e-06
0.000396942 0.000117675 2.55056e-06
1.67281e-06 2.55056e-06 -6.96217e-05
0.00123149 0.000313545 3.53956e-06
0.000313545 0.000226325 4.44706e-06
3.53956e-06 4.44706e-06 -4.98869e-05
0.00144294 0.000397626 -3.26714e-06
0.000397626 0.000168727 4.50247e-07
-3.26714e-06 4.50247e-07 -9.23161e-05
0.000269852 -1.73822e-05 -1.2008e-06
-1.73822e-05 -0.000149277 2.85311e-06
-1.2008e-06 2.85311e-06 -0.000247022
-1.44208e-05 7.67379e-05 4.60831e-07
7.67379e-05 -0.000266949 9.90957e-08
4.60831e-07 9.90957e-08 -0.000434523
0.000985291 0.000256023 2.06205e-06
0.000256023 0.00013806 2.83785e-06
2.06205e-06 2.83785e-06 -8.29739e-05
-0.000507931 8.157e-05 3.83784e-06
8.157e-05 -0.000649775 -1.01156e-06
3.83784e-06 -1.01156e-06 -0.000815122
0.00200952 0.000323773 -9.14059e-07
0.000323773 3.18006e-05 2.3437e-08
-9.14059e-07 2.3437e-08 -2.63973e-05
0.00237026 0.000401455 4.22507e-07
0.000401455 0.000413858 -1.02361e-06
4.22507e-07 -1.02361e-06 0.00026545
0.00181547 0.000454205 -3.14169e-06
0.000454205 0.000256613 -4.04716e-06
-3.14169e-06 -4.04716e-06 9.29071e-06
0.00047496 0.000285832 -8.33688e-07
0.000285832 -0.000280347 2.126e-06
-8.33688e-07 2.126e-06 -0.000564762
0.000663528 6.17197e-05 -1.0201e-06
6.17197e-05 7.02783e-05 -8.47643e-07
-1.0201e-06 -8.47643e-07 -1.55115e-05
0.000613413 4.00102e-05 -1.7453e-07
4.00102e-05 4.35831e-05 2.51754e-07
-1.7453e-07 2.51754e-07 -4.98152e-05
0.000922952 3.34312e-05 -2.46152e-06
3.34312e-05 0.00022575 -1.49794e-06
-2.46152e-06 -1.49794e-06 0.000138591
0.00064466 1.15927e-05 -1.52938e-06
1.15927e-05 5.24965e-05 -1.50685e-06
-1.52938e-06 -1.50685e-06 -2.41998e-05
0.000438299 -2.96536e-07 -3.85535e-07
-2.96536e-07 -6.22493e-05 -6.83545e-07
-3.85535e-07 -6.83545e-07 -0.000153795
0.000658495 2.90909e-05 -2.9628e-08
2.90909e-05 7.14305e-05 1.10623e-08
-2.9628e-08 1.10623e-08 -1.1485e-05
0.000667997 8.25955e-05 -7.51183e-07
8.25955e-05 9.09427e-05 -1.93227e-07
-7.51183e-07 -1.93227e-07 -1.39237e-05
0.000592142 2.45909e-05 8.31383e-07
2.45909e-05 4.49011e-05 3.52787e-07
8.31383e-07 3.52787e-07 -6.1037e-05
0.000757271 5.55426e-05 9.34479e-07
5.55426e-05 0.000123995 -1.43941e-06
9.34479e-07 -1.43941e-06 3.47136e-05
0.000679808 -1.61105e-05 1.89741e-06
-1.61105e-05 9.53376e-05 -1.83872e-06
1.89741e-06 -1.83872e-06 -1.42017e-05
0.000518252 4.96805e-05 8.08647e-07
4.96805e-05 9.33365e-07 1.34673e-06
8.08647e-07 1.34673e-06 -0.000107843
0.00065944 7.46176e-05 1.40096e-06
7.46176e-05 7.59937e-05 2.09592e-06
1.40096e-06 2.09592e-06 -1.0182e-05
0.000564889 4.70924e-05 1.97966e-06
4.70924e-05 6.47431e-06 2.28877e-06
1.97966e-06 2.28877e-06 -5.03997e-05
0.000578356 -1.80602e-06 -1.18303e-06
-1.80602e-06 9.42547e-06 -2.02807e-08
-1.18303e-06 -2.02807e-08 -4.5128e-05
0.00125271 -1.40452e-05 8.19342e-07
-1.40452e-05 0.00038455 2.42422e-06
8.19342e-07 2.42422e-06 0.000373366
0.000573672 -4.43057e-05 8.71196e-08
-4.43057e-05 2.96695e-06 -2.44185e-06
8.71196e-08 -2.44185e-06 -5.0696e-05
0.00130316 -2.30145e-05 -3.9913e-06
-2.30145e-05 0.000414028 -1.54956e-06
-3.9913e-06 -1.54956e-06 0.000402662
0.000845969 -2.45138e-05 1.67785e-05
-2.45138e-05 0.00014422 8.32128e-06
1.67785e-05 8.32128e-06 0.000151037
0.00134585 -3.30525e-05 -7.22238e-06
-3.30525e-05 0.000440153 -5.5897e-06
-7.22238e-06 -5.5897e-06 0.000428128
0.000800624 -3.33418e-05 5.85251e-06
-3.33418e-05 0.000118999 3.10491e-06
5.85251e-06 3.10491e-06 0.000124616
0.000741065 -4.03978e-05 -1.17109e-06
-4.03978e-05 8.8128e-05 -2.19667e-06
-1.17109e-06 -2.19667e-06 9.19798e-05
0.000521071 3.71919e-05 2.05681e-07
3.71919e-05 -4.51666e-05 -3.36878e-06
2.05681e-07 -3.36878e-06 -6.06389e-05
0.00051505 5.47641e-05 2.20624e-08
5.47641e-05 -3.4022e-05 1.51428e-07
2.20624e-08 1.51428e-07 -5.78355e-05
0.00226662 8.67918e-05 1.98296e-05
8.67918e-05 0.00102 -3.78199e-06
1.98296e-05 -3.78199e-06 0.00102696
0.000538934 3.4805e-05 -2.76013e-06
3.4805e-05 -1.34881e-05 5.80831e-06
-2.76013e-06 5.80831e-06 -4.30708e-05
0.0025691 0.00010722 -6.51715e-06
0.00010722 0.00120924 -5.08885e-07
-6.51715e-06 -5.08885e-07 0.00121087
0.00299728 9.13901e-05 -7.88194e-05
9.13901e-05 0.00146753 4.32209e-06
-7.88194e-05 4.32209e-06 0.00147252
0.00178713 0.000223261 -3.86416e-07
0.000223261 0.000118599 2.05639e-06
-3.86416e-07 2.05639e-06 -1.87046e-06
0.00191878 0.000144325 -2.2244e-06
0.000144325 0.000114076 4.66601e-07
-2.2244e-06 4.66601e-07 3.52579e-05
0.00183482 0.00021055 1.65389e-06
0.00021055 4.82004e-05 5.08976e-07
1.65389e-06 5.08976e-07 -2.80958e-05
0.00186339 9.64446e-05 -3.88482e-06
9.64446e-05 4.53434e-05 -5.09753e-07
-3.88482e-06 -5.09753e-07 -1.22494e-06
0.00182218 3.79709e-05 6.32221e-07
3.79709e-05 6.80019e-05 -2.54804e-07
6.32221e-07 -2.54804e-07 3.66148e-06
0.00174795 7.69981e-07 -3.67933e-07
7.69981e-07 8.26748e-05 1.09116e-07
-3.67933e-07 1.09116e-07 -1.04488e-05
0.00178764 -3.93745e-06 -2.42245e-07
-3.93745e-06 5.395e-05 -9.19977e-08
-2.42245e-07 -9.19977e-08 -5.45914e-06
0.00187615 4.32268e-05 9.1404e-07
4.32268e-05 4.92081e-05 2.02188e-07
9.1404e-07 2.02188e-07 1.5062e-05
0.00190367 0.000152985 5.062e-07
0.000152985 5.91539e-05 -1.59491e-07
5.062e-07 -1.59491e-07 4.55758e-06
0.00194296 0.000259943 2.57996e-07
0.000259943 0.000110555 1.11281e-07
2.57996e-07 1.11281e-07 1.86723e-05
0.0018106 -8.81543e-06 3.05658e-06
-8.81543e-06 1.44695e-05 -2.42621e-07
3.05658e-06 -2.42621e-07 -1.77318e-05
0.0019453 8.91033e-05 2.84812e-06
8.91033e-05 2.30754e-05 -2.3561e-07
2.84812e-06 -2.3561e-07 9.12874e-06
0.00203656 0.000227622 3.31563e-06
0.000227622 7.89886e-05 1.00432e-06
3.31563e-06 1.00432e-06 2.28814e-05
0.00186974 -6.23144e-05 -5.9091e-07
-6.23144e-05 9.60908e-05 2.20192e-07
-5.9091e-07 2.20192e-07 3.25958e-05
0.00176417 -0.000119435 -6.32453e-07
-0.000119435 2.06951e-05 -7.13758e-07
-6.32453e-07 -7.13758e-07 -5.57597e-05
0.00184729 -0.00022279 -2.54308e-06
-0.00022279 8.73141e-05 1.13432e-06
-2.54308e-06 1.13432e-06 6.85376e-06
0.0010735 -0.000253028 -1.11486e-06
-0.000253028 0.00019697 4.62976e-06
-1.11486e-06 4.62976e-06 -2.56294e-05
0.000847234 -0.000299714 1.61762e-06
-0.000299714 -7.27097e-05 9.41636e-07
1.61762e-06 9.41636e-07 -0.000334065
0.00160721 -0.000465382 1.7053e-06
-0.000465382 0.000215323 -1.65324e-06
1.7053e-06 -1.65324e-06 -8.19343e-05
0.00171165 -0.000273782 -2.09641e-07
-0.000273782 4.97767e-05 3.86595e-07
-2.09641e-07 3.86595e-07 -5.77606e-05
0.00156546 -0.000343098 4.75735e-07
-0.000343098 -2.05025e-05 -2.38177e-06
4.75735e-07 -2.38177e-06 -0.00015369
0.00185788 -0.000391457 -2.46702e-06
-0.000391457 0.0002397 -7.85585e-06
-2.46702e-06 -7.85585e-06 3.59548e-05
0.00131132 -0.000268815 3.79853e-06
-0.000268815 0.000344374 5.14128e-06
3.79853e-06 5.14128e-06 0.000141837
0.000695568 -0.000211337 -7.7302e-06
-0.000211337 2.63983e-05 7.42765e-07
-7.7302e-06 7.42765e-07 -0.00013939
0.00167383 -0.000231862 1.36261e-06
-0.000231862 0.000701952 -1.52608e-06
1.36261e-06 -1.52608e-06 0.000467144
0.000353058 2.77817e-05 6.87617e-07
2.77817e-05 -0.000122018 7.1359e-07
6.87617e-07 7.1359e-07 -0.000186131
0.00091622 -8.94086e-05 1.94185e-06
-8.94086e-05 0.000241996 -1.14004e-06
1.94185e-06 -1.14004e-06 8.57795e-05
0.000425655 3.43159e-05 2.83472e-06
3.43159e-05 -4.95056e-05 1.66509e-06
2.83472e-06 1.66509e-06 -0.000171578
0.00181185 -6.55321e-05 -4.45523e-07
-6.55321e-05 1.65817e-05 1.92872e-07
-4.45523e-07 1.92872e-07 -2.94493e-05
0.00195283 -0.000166109 8.55728e-08
-0.000166109 5.60785e-05 -2.43921e-07
8.55728e-08 -2.43921e-07 1.36226e-05
0.00182467 -0.00026835 -2.49681e-07
-0.00026835 4.66905e-05 5.04266e-07
-2.49681e-07 5.04266e-07 -2.43425e-05
0.00129056 -0.000298411 -2.45397e-06
-0.000298411 0.000276834 5.00261e-07
-2.45397e-06 5.00261e-07 3.76854e-05
0.00121574 -0.000402972 2.87253e-07
-0.000402972 0.000112524 -1.1097e-06
2.87253e-07 -1.1097e-06 -0.000205146
0.00186554 -0.000490714 -3.7553e-06
-0.000490714 0.00036215 3.72271e-07
-3.7553e-06 3.72271e-07 6.27267e-05
0.00195528 -0.000341795 7.53089e-07
-0.000341795 0.000110227 -3.81941e-07
7.53089e-07 -3.81941e-07 5.5004e-06
0.00171078 -0.000400825 1.24563e-06
-0.000400825 7.21955e-05 -2.96378e-06
1.24563e-06 -2.96378e-06 -0.000101545
0.00044543 4.6799e-05 -3.92471e-07
4.6799e-05 -7.28628e-05 -9.95764e-07
-3.92471e-07 -9.95764e-07 -0.000123839
0.000721232 -9.73823e-06 -6.26732e-07
-9.73823e-06 0.000127696 2.88436e-07
-6.26732e-07 2.88436e-07 2.17918e-05
0.000229476 -0.000192686 -3.47982e-06
-0.000192686 -0.000298908 5.99879e-06
-3.47982e-06 5.99879e-06 -0.00049275
0.00141667 -0.000260965 6.60618e-07
-0.000260965 0.00048964 -8.35734e-07
6.60618e-07 -8.35734e-07 0.000266548
0.00101119 -7.83054e-05 -8.25248e-08
-7.83054e-05 0.00030677 -1.37727e-06
-8.25248e-08 -1.37727e-06 0.000106069
0.000865834 -8.39989e-05 -7.03551e-07
-8.39989e-05 0.000224382 1.30328e-06
-7.03551e-07 1.30328e-06 7.55413e-05
0.00190793 -8.20534e-05 1.7883e-06
-8.20534e-05 1.6689e-05 4.82185e-07
1.7883e-06 4.82185e-07 -1.65657e-06
0.00200594 -0.000239009 7.2453e-07
-0.000239009 3.5354e-05 -1.61584e-08
7.2453e-07 -1.61584e-08 2.24492e-05
0.00195785 -0.000290419 1.09174e-06
-0.000290419 8.4611e-05 -2.16257e-06
1.09174e-06 -2.16257e-06 2.37293e-05
0.0019108 -0.000447363 4.50468e-06
-0.000447363 5.7056e-05 -2.58304e-06
4.50468e-06 -2.58304e-06 -7.06447e-05
0.000663125 -0.000286854 -6.61692e-06
-0.000286854 -0.000122524 -7.73549e-06
-6.61692e-06 -7.73549e-06 -0.000401687
0.00185683 -0.000493889 -2.56505e-06
-0.000493889 0.000317098 1.20629e-05
-2.56505e-06 1.20629e-05 3.50308e-05
0.00193801 -0.000512573 -4.93746e-06
-0.000512573 0.000497653 -2.47417e-07
-4.93746e-06 -2.47417e-07 0.000141025
0.000609131 4.75618e-05 1.37863e-07
4.75618e-05 1.62962e-05 -1.21648e-06
1.37863e-07 -1.21648e-06 -2.69147e-05
0.000681051 -0.000109061 2.89814e-06
-0.000109061 9.83942e-05 -1.54261e-06
2.89814e-06 -1.54261e-06 1.54011e-05
0.000450256 5.12985e-05 -2.42683e-06
5.12985e-05 -4.26444e-05 -1.16121e-06
-2.42683e-06 -1.16121e-06 -0.00013053
0.00065213 -4.75822e-05 -1.21367e-06
-4.75822e-05 0.000104919 2.76923e-06
-1.21367e-06 2.76923e-06 -3.07054e-05
0.000564012 -3.50966e-05 1.05912e-06
-3.50966e-05 2.08232e-05 3.76043e-08
1.05912e-06 3.76043e-08 -0.000133318
-3.9307e-05 -8.21123e-05 -8.5863e-07
-8.21123e-05 -0.000316756 2.43607e-06
-8.5863e-07 2.43607e-06 -0.000510746
-5.71741e-05 -0.000191288 -4.61023e-06
-0.000191288 -0.000470451 -6.53844e-06
-4.61023e-06 -6.53844e-06 -0.000659672
0.00275261 -0.000384489 -1.28203e-05
-0.000384489 0.00135037 3.52017e-06
-1.28203e-05 3.52017e-06 0.00102431
0.000628474 -4.74814e-06 -1.12589e-06
-4.74814e-06 4.62192e-05 -9.56359e-07
-1.12589e-06 -9.56359e-07 -3.62977e-05
0.000853919 4.05673e-05 5.93055e-07
4.05673e-05 0.000214901 -1.37135e-06
5.93055e-07 -1.37135e-06 8.00311e-05
0.00208192 0.000323944 -1.26584e-06
0.000323944 0.000249629 -6.04441e-07
-1.26584e-06 -6.04441e-07 0.00012505
0.000812898 8.04493e-05 -1.20408e-06
8.04493e-05 0.000189533 3.48387e-06
-1.20408e-06 3.48387e-06 1.72194e-05
0.00159838 0.000306701 2.60725e-06
0.000306701 0.00054489 -9.0362e-07
2.60725e-06 -9.0362e-07 0.000322113
0.000402523 0.000149924 -4.69683e-07
0.000149924 -0.000167138 2.17071e-06
-4.69683e-07 2.17071e-06 -0.00030236
0.00206425 0.00042241 -2.91606e-06
0.00042241 0.000396857 2.08271e-08
-2.91606e-06 2.08271e-08 0.000176255
0.00186166 0.000412899 -8.31049e-07
0.000412899 0.000180671 5.69299e-06
-8.31049e-07 5.69299e-06 -9.74511e-06
0.00115303 0.000311948 -5.83965e-07
0.000311948 0.000192402 -4.98704e-07
-5.83965e-07 -4.98704e-07 -8.90898e-05
0.00147012 0.000408615 -9.33204e-08
0.000408615 0.000176259 1.52451e-06
-9.33204e-08 1.52451e-06 -9.0393e-05
0.000353151 1.26032e-05 -1.78762e-07
1.26032e-05 -9.26457e-05 1.19147e-06
-1.78762e-07 1.19147e-06 -0.000197576
0.000361148 0.000107813 -6.40558e-07
0.000107813 -4.02315e-05 -2.22114e-06
-6.40558e-07 -2.22114e-06 -0.00021478
0.00129744 0.000289351 3.47766e-06
0.000289351 0.00033018 -1.85165e-06
3.47766e-06 -1.85165e-06 9.99513e-05
0.00067966 0.00017412 -2.13571e-06
0.00017412 4.85108e-05 -2.99795e-06
-2.13571e-06 -2.99795e-06 -0.000127556
0.00204458 0.000314774 1.0189e-06
0.000314774 4.93786e-05 -8.81421e-07
1.0189e-06 -8.81421e-07 -8.04017e-06
0.00211471 0.000393619 2.96144e-06
0.000393619 0.000274362 6.80989e-07
2.96144e-06 6.80989e-07 0.000121891
0.00182263 0.000448221 -7.4821e-07
0.000448221 0.00025296 3.66971e-07
-7.4821e-07 3.66971e-07 8.55908e-06
0.00119573 0.00035637 3.94626e-08
0.00035637 0.000112633 5.86342e-07
3.94626e-08 5.86342e-07 -0.000176582
0.000369584 3.72408e-05 -1.34275e-06
3.72408e-05 -8.91109e-05 2.87865e-06
-1.34275e-06 2.87865e-06 -0.000194349
0.00199877 0.000256546 4.76919e-07
0.000256546 -2.54892e-05 2.44718e-06
4.76919e-07 2.44718e-06 -3.2264e-05
0.00158412 0.000279518 1.46962e-06
0.000279518 0.00067029 3.18787e-06
1.46962e-06 3.18787e-06 0.00044743
0.00118811 0.000292282 5.42936e-06
0.000292282 0.000229144 3.75852e-06
5.42936e-06 3.75852e-06 -4.02973e-06
0.00250574 0.000392027 -1.71467e-05
0.000392027 0.00038659 -5.12438e-06
-1.71467e-05 -5.12438e-06 0.000281428
0.00101933 0.000417182 -5.73519e-06
0.000417182 -0.000296123 -8.07161e-06
-5.73519e-06 -8.07161e-06 -0.000522653
0.00207435 0.000468374 -7.00768e-07
0.000468374 0.00054062 2.62244e-06
-7.00768e-07 2.62244e-06 0.000232781
0.000684158 5.53501e-05 -1.34831e-06
5.53501e-05 8.55662e-05 -6.59205e-07
-1.34831e-06 -6.59205e-07 -7.38012e-06
0.00069594 4.88979e-05 -1.5346e-06
4.88979e-05 9.86475e-05 -5.48858e-07
-1.5346e-06 -5.48858e-07 8.0099e-06
0.000933302 3.72874e-05 -1.94796e-06
3.72874e-05 0.000245113 3.07576e-07
-1.94796e-06 3.07576e-07 0.000162594
0.00061251 -4.3215e-06 1.86195e-08
-4.3215e-06 4.68135e-05 -2.17592e-06
1.86195e-08 -2.17592e-06 -3.78541e-05
0.000662371 5.03922e-05 8.12806e-07
5.03922e-05 8.82069e-05 2.42859e-08
8.12806e-07 2.42859e-08 -1.8766e-05
0.000351985 2.26451e-05 -1.10164e-06
2.26451e-05 -8.37339e-05 1.52582e-06
-1.10164e-06 1.52582e-06 -0.000188957
0.000622752 4.68991e-06 -6.80193e-07
4.68991e-06 6.1413e-05 -5.86689e-09
-6.80193e-07 -5.86689e-09 -2.91979e-05
0.000463706 -1.94523e-05 -6.39219e-07
-1.94523e-05 -2.26943e-05 3.50546e-07
-6.39219e-07 3.50546e-07 -0.000135145
0.000515445 8.12514e-06 3.43128e-07
8.12514e-06 -1.29073e-05 2.87216e-07
3.43128e-07 2.87216e-07 -9.82482e-05
0.000763968 4.52431e-05 5.82216e-07
4.52431e-05 0.000156472 -3.28225e-07
5.82216e-07 -3.28225e-07 3.75653e-05
0.00115895 5.08065e-05 3.88119e-07
5.08065e-05 0.000349524 -1.14277e-06
3.88119e-07 -1.14277e-06 0.00027424
0.000681811 -1.73373e-05 2.52483e-06
-1.73373e-05 8.63727e-05 -2.55595e-06
2.52483e-06 -2.55595e-06 -8.23645e-06
0.000715434 4.40419e-05 1.5531e-07
4.40419e-05 0.00012973 2.45778e-07
1.5531e-07 2.45778e-07 2.98816e-06
0.000636441 3.81181e-05 2.33692e-06
3.81181e-05 8.2503e-05 1.71773e-06
2.33692e-06 1.71773e-06 -4.07294e-05
0.000655653 2.21594e-05 1.65506e-06
2.21594e-05 7.44474e-05 2.11951e-06
1.65506e-06 2.11951e-06 -1.49374e-05
0.000570423 -3.08861e-05 -1.70206e-07
-3.08861e-05 8.9327e-06 2.13247e-06
-1.70206e-07 2.13247e-06 -4.74016e-05
0.00058344 -6.69622e-06 -3.39582e-07
-6.69622e-06 1.45547e-05 4.45073e-10
-3.39582e-07 4.45073e-10 -4.03006e-05
0.00127985 -3.39526e-06 8.6281e-07
-3.39526e-06 0.000402715 2.31662e-06
8.6281e-07 2.31662e-06 0.000390893
0.000590791 -2.55163e-05 6.78437e-07
-2.55163e-05 1.47416e-05 -2.56559e-06
6.78437e-07 -2.56559e-06 -3.83228e-05
0.00130935 -1.12232e-05 -3.05443e-06
-1.12232e-05 0.000418991 -1.59196e-06
-3.05443e-06 -1.59196e-06 0.000407663
0.000837563 -1.65327e-05 1.25521e-05
-1.65327e-05 0.000137995 8.40438e-06
1.25521e-05 8.40438e-06 0.000145323
0.00135911 -2.1066e-05 -5.19233e-06
-2.1066e-05 0.00044777 -5.72339e-06
-5.19233e-06 -5.72339e-06 0.000436254
0.000813208 -2.5228e-05 3.88681e-06
-2.5228e-05 0.000123169 3.21953e-06
3.88681e-06 3.21953e-06 0.000129785
0.000764069 -3.22814e-05 -7.81097e-07
-3.22814e-05 9.56463e-05 -2.18585e-06
-7.81097e-07 -2.18585e-06 0.000101444
0.000654621 1.05e-05 1.20937e-06
1.05e-05 3.9024e-05 -1.38824e-06
1.20937e-06 -1.38824e-06 -6.58336e-07
0.000534115 2.85092e-05 3.83833e-07
2.85092e-05 -4.47326e-05 -3.43424e-06
3.83833e-07 -3.43424e-06 -5.64665e-05
0.000541164 3.83183e-05 1.75323e-07
3.83183e-05 -3.23362e-05 1.28914e-07
1.75323e-07 1.28914e-07 -4.82708e-05
0.00215157 7.01822e-05 1.79777e-05
7.01822e-05 0.000942221 -3.96735e-06
1.79777e-05 -3.96735e-06 0.000953366
0.000545984 5.88612e-05 3.22791e-06
5.88612e-05 -1.39597e-05 4.98054e-06
3.22791e-06 4.98054e-06 -3.92995e-05
0.00238056 9.08721e-05 -4.40463e-06
9.08721e-05 0.00108898 -3.48485e-07
-4.40463e-06 -3.48485e-07 0.00109493
0.00268965 0.000110456 -2.99696e-05
0.000110456 0.00128139 3.82263e-06
-2.99696e-05 3.82263e-06 0.00128228
0.00195461 0.000256509 -6.9494e-07
0.000256509 0.000103591 9.31505e-07
-6.9494e-07 9.31505e-07 1.38232e-05
0.00191664 0.000158317 -3.33339e-06
0.000158317 6.68236e-05 -4.77814e-07
-3.33339e-06 -4.77814e-07 1.17999e-05
0.00188778 4.50863e-05 -3.91922e-06
4.50863e-05 6.50621e-05 -6.47921e-08
-3.91922e-06 -6.47921e-08 2.92188e-05
0.00176364 -9.89048e-07 -1.09661e-06
-9.89048e-07 3.86965e-05 -5.46745e-08
-1.09661e-06 -5.46745e-08 -2.05696e-05
0.00183041 -5.56991e-06 -9.31719e-07
-5.56991e-06 2.39548e-05 -7.40957e-08
-9.31719e-07 -7.40957e-08 -5.05876e-06
0.00192872 8.44027e-05 1.27114e-07
8.44027e-05 1.7665e-05 -2.41573e-08
1.27114e-07 -2.41573e-08 2.13951e-06
0.00197796 0.000229991 -5.3046e-07
0.000229991 4.32248e-05 -6.23965e-08
-5.3046e-07 -6.23965e-08 -1.12406e-05
0.00192871 -1.40037e-06 1.48699e-06
-1.40037e-06 1.0664e-05 -4.04092e-07
1.48699e-06 -4.04092e-07 7.0088e-06
0.00204276 0.000129893 2.52605e-06
0.000129893 1.4398e-05 -8.407e-07
2.52605e-06 -8.407e-07 4.73785e-06
0.00225121 8.11801e-05 -3.5967e-06
8.11801e-05 0.000185181 4.67192e-06
-3.5967e-06 4.67192e-06 0.000223644
0.00185341 -6.58734e-05 -4.25738e-06
-6.58734e-05 4.27571e-05 1.18467e-07
-4.25738e-06 1.18467e-07 -6.31238e-06
0.00189945 -0.000173029 -3.75559e-06
-0.000173029 2.12006e-05 6.40586e-07
-3.75559e-06 6.40586e-07 -2.30883e-05
0.00191255 -0.000269528 -2.93838e-06
-0.000269528 0.000103454 1.95967e-06
-2.93838e-06 1.95967e-06 2.94539e-05
0.000901245 -0.000259718 1.39581e-06
-0.000259718 4.94697e-05 5.89385e-06
1.39581e-06 5.89385e-06 -0.000184141
0.00136488 -0.000413133 2.24419e-06
-0.000413133 0.000201927 -4.23798e-07
2.24419e-06 -4.23798e-07 -0.000114449
0.00195324 -0.000488217 -2.17069e-06
-0.000488217 0.000416402 -1.73329e-06
-2.17069e-06 -1.73329e-06 0.000125933
0.00185951 -0.000340743 2.04971e-06
-0.000340743 5.93083e-05 1.17459e-06
2.04971e-06 1.17459e-06 -4.79136e-05
0.00154943 -0.000388431 -3.60328e-06
-0.000388431 -2.24279e-05 -6.06626e-06
-3.60328e-06 -6.06626e-06 -0.000194373
0.000114113 -0.000178536 -2.27093e-08
-0.000178536 -0.000361703 1.22259e-05
-2.27093e-08 1.22259e-05 -0.000546856
0.00201966 -0.00030205 1.47317e-05
-0.00030205 0.000861862 -4.38522e-06
1.47317e-05 -4.38522e-06 0.00063284
0.000747643 -3.12526e-05 5.92907e-07
-3.12526e-05 0.000137828 -1.46365e-06
5.92907e-07 -1.46365e-06 -4.55503e-05
0.000542149 1.53155e-05 5.81168e-08
1.53155e-05 -1.66872e-05 5.45953e-07
5.81168e-08 5.45953e-07 -6.42362e-05
0.000797679 2.58648e-05 1.68735e-06
2.58648e-05 0.000169206 8.47742e-07
1.68735e-06 8.47742e-07 6.41884e-05
0.000863746 -5.54524e-05 6.40927e-07
-5.54524e-05 0.000224579 1.54139e-06
6.40927e-07 1.54139e-06 7.364e-05
0.00192738 -8.48347e-05 2.40961e-07
-8.48347e-05 2.07159e-05 -1.17521e-07
2.40961e-07 -1.17521e-07 5.19483e-06
0.000586401 1.8257e-05 1.00292e-06
1.8257e-05 1.90985e-06 1.20776e-07
1.00292e-06 1.20776e-07 -4.04254e-05
0.00052987 -4.04453e-05 -1.75164e-06
-4.04453e-05 -9.9647e-06 -4.40332e-08
-1.75164e-06 -4.40332e-08 -8.11207e-05
0.00197862 -0.000228884 -1.55512e-07
-0.000228884 3.54316e-05 2.4103e-07
-1.55512e-07 2.4103e-07 1.90281e-05
0.00190493 -0.000288731 -1.39199e-06
-0.000288731 4.9946e-05 1.81395e-07
-1.39199e-06 1.81395e-07 -9.5093e-06
0.000729571 -0.000290099 -1.0245e-06
-0.000290099 -7.38941e-05 1.53096e-06
-1.0245e-06 1.53096e-06 -0.000347923
0.00188096 -0.000507447 3.07417e-07
-0.000507447 0.000472575 4.90639e-07
3.07417e-07 4.90639e-07 0.000112032
0.00158278 -0.00047399 3.24428e-06
-0.00047399 0.000143063 -1.52065e-06
3.24428e-06 -1.52065e-06 -0.000131178
0.00206062 -0.000453321 2.39696e-06
-0.000453321 0.000153119 -9.76011e-07
2.39696e-06 -9.76011e-07 2.34237e-05
0.000707857 -8.875e-06 8.12166e-07
-8.875e-06 0.000117184 -1.13923e-06
8.12166e-07 -1.13923e-06 2.81898e-05
0.000724326 -3.06076e-05 2.23857e-07
-3.06076e-05 0.00014823 1.3272e-06
2.23857e-07 1.3272e-06 9.97194e-06
0.000986849 -0.000261496 -3.82456e-06
-0.000261496 0.000139311 -1.76401e-06
-3.82456e-06 -1.76401e-06 -6.48424e-05
0.00165808 -0.000285486 1.45828e-05
-0.000285486 0.000698251 -3.24562e-06
1.45828e-05 -3.24562e-06 0.000424245
0.000436787 -8.44047e-05 -2.69429e-06
-8.44047e-05 -4.20374e-05 -3.63576e-07
-2.69429e-06 -3.63576e-07 -0.000233025
0.000660857 -3.13938e-05 6.18425e-07
-3.13938e-05 9.13473e-05 -8.2245e-07
6.18425e-07 -8.2245e-07 -6.95064e-05
0.00194224 -9.81105e-05 1.6128e-06
-9.81105e-05 -4.24948e-05 -1.14874e-06
1.6128e-06 -1.14874e-06 -5.13306e-05
0.00190859 -0.000269592 -3.18358e-07
-0.000269592 -6.86725e-05 2.70482e-07
-3.18358e-07 2.70482e-07 -1.73209e-05
0.00203684 -0.000400544 -4.16421e-06
-0.000400544 4.70048e-05 -1.97782e-06
-4.16421e-06 -1.97782e-06 -2.69106e-05
0.00154975 -0.000512169 9.80493e-07
-0.000512169 -1.8342e-05 -7.2425e-07
9.80493e-07 -7.2425e-07 -0.000182511
0.000923389 -0.000283811 -1.10458e-05
-0.000283811 6.82842e-05 -8.32515e-06
-1.10458e-05 -8.32515e-06 -0.000209487
0.0024913 -0.000602626 -9.68207e-06
-0.000602626 0.000790126 8.23985e-06
-9.68207e-06 8.23985e-06 0.000405872
0.000380342 5.21559e-05 -1.14537e-06
5.21559e-05 -8.9664e-05 -2.09846e-06
-1.14537e-06 -2.09846e-06 -0.000166269
0.000649653 -5.71307e-05 3.25775e-06
-5.71307e-05 6.24654e-05 -7.3509e-07
3.25775e-06 -7.3509e-07 -9.67234e-06
0.000935598 -9.22948e-05 1.39651e-06
-9.22948e-05 0.000243702 1.98272e-06
1.39651e-06 1.98272e-06 0.00014558
0.000449895 1.8584e-05 -1.83633e-06
1.8584e-05 -2.27466e-05 2.5193e-06
-1.83633e-06 2.5193e-06 -0.000148106
0.000920019 -7.19477e-05 -2.05715e-06
-7.19477e-05 0.000246299 3.04998e-06
-2.05715e-06 3.04998e-06 0.000108336
0.00106157 -5.18613e-05 1.82915e-06
-5.18613e-05 0.00028211 1.47201e-07
1.82915e-06 1.47201e-07 0.000108401
-0.000548397 -0.000105769 5.37321e-06
-0.000105769 -0.000445607 8.70212e-07
5.37321e-06 8.70212e-07 -0.000805227
-9.5756e-05 -0.000251531 -2.21274e-05
-0.000251531 -0.000479277 2.84148e-06
-2.21274e-05 2.84148e-06 -0.000682876
0.000405789 5.0465e-05 -1.0108e-07
5.0465e-05 -5.54976e-05 -8.83807e-07
-1.0108e-07 -8.83807e-07 -0.000166797
0.00092708 0.000150844 -4.9954e-06
0.000150844 0.000293736 -2.67809e-06
-4.9954e-06 -2.67809e-06 0.000114027
0.00207069 0.000306196 -4.02607e-06
0.000306196 6.44776e-05 -1.7141e-06
-4.02607e-06 -1.7141e-06 7.07328e-06
0.00191849 0.000388931 1.37923e-07
0.000388931 0.000167478 1.65729e-06
1.37923e-07 1.65729e-06 1.05875e-05
0.00181048 0.000238214 -7.43621e-06
0.000238214 0.000699487 -1.25025e-06
-7.43621e-06 -1.25025e-06 0.000522283
0.00154564 0.000315234 -3.83515e-06
0.000315234 0.000483088 -8.04436e-06
-3.83515e-06 -8.04436e-06 0.000246608
0.00184056 0.000443745 1.84602e-06
0.000443745 0.000254393 2.1234e-06
1.84602e-06 2.1234e-06 1.21303e-05
0.00192189 0.00042541 -4.97605e-07
0.00042541 0.000513265 -1.47708e-06
-4.97605e-07 -1.47708e-06 0.000218464
0.000548453 6.75077e-05 7.52439e-07
6.75077e-05 2.93486e-05 -9.84463e-07
7.52439e-07 -9.84463e-07 -8.78997e-05
0.00205851 0.000242888 -9.72347e-07
0.000242888 2.37078e-06 -7.62162e-07
-9.72347e-07 -7.62162e-07 1.9917e-06
0.00104682 0.000202058 1.1071e-06
0.000202058 0.000341307 1.61828e-06
1.1071e-06 1.61828e-06 0.000137343
0.00113298 0.000289057 1.2547e-06
0.000289057 0.000202159 -6.72691e-07
1.2547e-06 -6.72691e-07 -3.57002e-05
0.00228442 0.000383375 2.64399e-06
0.000383375 0.00026592 6.09048e-07
2.64399e-06 6.09048e-07 0.00016345
0.00163426 0.000458651 -1.27192e-06
0.000458651 4.46999e-05 -3.90579e-06
-1.27192e-06 -3.90579e-06 -0.000182968
0.00195134 0.000456655 -1.19804e-07
0.000456655 0.000481527 2.29288e-07
-1.19804e-07 2.29288e-07 0.000173834
0.00115102 0.000156317 -3.97923e-06
0.000156317 0.000409669 3.2393e-06
-3.97923e-06 3.2393e-06 0.000249028
0.00240851 0.00027964 -4.65903e-05
0.00027964 0.000260801 -1.24415e-05
-4.65903e-05 -1.24415e-05 0.000282869
0.00214304 0.000383738 -5.86614e-06
0.000383738 0.000907955 3.02097e-07
-5.86614e-06 3.02097e-07 0.000673247
0.00209842 0.000423221 -7.95579e-06
0.000423221 0.000669429 -2.21021e-07
-7.95579e-06 -2.21021e-07 0.000392289
0.00195155 0.00050147 -2.36614e-05
0.00050147 0.000118841 -1.29405e-05
-2.36614e-05 -1.29405e-05 -3.91075e-05
0.000815233 0.000385456 -1.77077e-05
0.000385456 -0.000209301 -1.82558e-06
-1.77077e-05 -1.82558e-06 -0.000489393
0.0008396 0.000372518 3.3465e-05
0.000372518 -0.00055297 -2.15853e-05
3.3465e-05 -2.15853e-05 -0.000796457
0.000455681 6.33461e-05 1.05382e-06
6.33461e-05 -3.24173e-05 -5.72415e-07
1.05382e-06 -5.72415e-07 -0.000127535
0.000634581 4.4763e-05 -1.50629e-07
4.4763e-05 8.39463e-05 9.73648e-07
-1.50629e-07 9.73648e-07 -2.35589e-06
0.00144219 7.84157e-05 3.97717e-07
7.84157e-05 0.000542831 -4.83503e-08
3.97717e-07 -4.83503e-08 0.000454131
0.000583002 -6.10144e-05 1.97497e-07
-6.10144e-05 4.50543e-05 -2.68142e-06
1.97497e-07 -2.68142e-06 -4.95363e-05
0.000525002 -3.93409e-05 -1.25088e-06
-3.93409e-05 8.56875e-06 -6.47714e-08
-1.25088e-06 -6.47714e-08 -9.98784e-05
0.000923748 0.000132355 -2.08034e-07
0.000132355 0.000251312 8.66582e-07
-2.08034e-07 8.66582e-07 0.000128671
0.000334989 -6.08457e-06 -1.70038e-06
-6.08457e-06 -0.000110124 4.14631e-06
-1.70038e-06 4.14631e-06 -0.00019658
0.000620735 -2.28519e-05 -1.1737e-07
-2.28519e-05 6.5974e-05 -3.99878e-08
-1.1737e-07 -3.99878e-08 -3.08257e-05
0.000619886 4.46312e-05 -7.02743e-08
4.46312e-05 5.76651e-05 -4.63257e-07
-7.02743e-08 -4.63257e-07 -5.48146e-05
0.000918695 4.33849e-05 -1.32528e-06
4.33849e-05 0.00020903 5.13723e-07
-1.32528e-06 5.13723e-07 0.000132993
0.000724897 2.69541e-05 6.06959e-07
2.69541e-05 0.000121893 2.90991e-08
6.06959e-07 2.90991e-08 4.53595e-06
0.000745702 7.0339e-06 -3.034e-07
7.0339e-06 0.000120491 -4.39128e-07
-3.034e-07 -4.39128e-07 2.34133e-05
0.000970245 4.32651e-05 -1.56289e-08
4.32651e-05 0.000241984 -3.55061e-06
-1.56289e-08 -3.55061e-06 0.000161624
0.000822697 4.88809e-05 -1.80288e-06
4.88809e-05 0.000165971 -2.48742e-06
-1.80288e-06 -2.48742e-06 4.63897e-05
0.000814983 7.94583e-05 7.7966e-07
7.94583e-05 0.000167884 2.7935e-07
7.7966e-07 2.7935e-07 5.15393e-05
0.000681003 4.39384e-05 5.10964e-07
4.39384e-05 0.000109001 1.33014e-06
5.10964e-07 1.33014e-06 -2.10075e-05
0.000475744 -2.27843e-05 -2.37205e-07
-2.27843e-05 -3.5876e-05 2.29742e-06
-2.37205e-07 2.29742e-06 -0.000128293
0.000890057 -3.10436e-05 2.26905e-07
-3.10436e-05 0.000253606 -8.91999e-07
2.26905e-07 -8.91999e-07 0.000123113
0.000394272 -1.6891e-05 -9.30262e-07
-1.6891e-05 -8.07562e-05 2.315e-06
-9.30262e-07 2.315e-06 -0.000176911
0.000540751 5.26073e-06 -1.33945e-06
5.26073e-06 -5.81925e-06 2.19186e-06
-1.33945e-06 2.19186e-06 -6.43653e-05
0.000559091 2.3077e-05 1.42327e-06
2.3077e-05 4.14609e-06 -1.37269e-08
1.42327e-06 -1.37269e-08 -5.35165e-05
0.000523823 6.27631e-06 5.37334e-07
6.27631e-06 -4.78276e-05 3.81499e-06
5.37334e-07 3.81499e-06 -6.45131e-05
0.000564938 4.55786e-08 -1.87675e-06
4.55786e-08 5.71188e-06 -2.38165e-06
-1.87675e-06 -2.38165e-06 -5.07865e-05
0.00093218 2.09821e-07 -2.06924e-06
2.09821e-07 0.000195393 -1.65943e-06
-2.06924e-06 -1.65943e-06 0.000181234
0.00240122 -1.32798e-05 8.38981e-06
-1.32798e-05 0.00107432 5.24561e-06
8.38981e-06 5.24561e-06 0.00108951
0.00136508 -9.37305e-06 -3.31923e-06
-9.37305e-06 0.000452905 -5.62222e-06
-3.31923e-06 -5.62222e-06 0.000441289
0.00080863 -1.66424e-05 2.17339e-06
-1.66424e-05 0.000118865 3.25966e-06
2.17339e-06 3.25966e-06 0.000126255
0.000779131 -2.36973e-05 -2.1319e-07
-2.36973e-05 0.00010109 -2.21653e-06
-2.1319e-07 -2.21653e-06 0.000107975
0.000595861 1.04851e-05 -6.4103e-07
1.04851e-05 6.97798e-06 -1.38202e-06
-6.4103e-07 -1.38202e-06 -3.21554e-05
0.000614704 -4.14113e-06 1.07291e-06
-4.14113e-06 1.66778e-05 -1.25228e-07
1.07291e-06 -1.25228e-07 -2.3986e-05
0.000564515 2.17557e-05 3.31775e-07
2.17557e-05 -2.98666e-05 -3.3464e-06
3.31775e-07 -3.3464e-06 -3.9379e-05
0.000870728 3.48851e-05 -3.63352e-07
3.48851e-05 0.000158229 4.7353e-08
-3.63352e-07 4.7353e-08 0.000147911
0.00211562 5.61287e-05 1.40816e-05
5.61287e-05 0.000913883 -4.18349e-06
1.40816e-05 -4.18349e-06 0.00092781
0.000552266 4.15611e-05 9.41212e-07
4.15611e-05 -2.40641e-05 3.79518e-06
9.41212e-07 3.79518e-06 -4.08309e-05
0.00221032 7.34336e-05 -2.88872e-06
7.34336e-05 0.000978629 -1.9448e-07
-2.88872e-06 -1.9448e-07 0.000988924
0.00243495 9.34735e-05 -2.01737e-05
9.34735e-05 0.00112198 4.01884e-06
-2.01737e-05 4.01884e-06 0.00112726
0.00192423 0.000232703 -4.2761e-06
0.000232703 9.0338e-06 -1.78154e-06
-4.2761e-06 -1.78154e-06 -4.3333e-05
0.00191006 8.0317e-05 -1.88525e-06
8.0317e-05 1.07901e-05 5.91666e-07
-1.88525e-06 5.91666e-07 -6.13916e-06
0.00184926 -4.02909e-06 -4.35708e-06
-4.02909e-06 3.28504e-05 1.29778e-07
-4.35708e-06 1.29778e-07 7.04213e-06
0.00192344 -4.76209e-07 1.36511e-07
-4.76209e-07 1.00424e-05 -1.7026e-07
1.36511e-07 -1.7026e-07 6.29404e-06
0.00202575 0.000130491 7.43152e-08
0.000130491 1.91511e-05 1.95985e-07
7.43152e-08 1.95985e-07 8.42726e-06
0.00194051 6.80946e-05 5.30709e-06
6.80946e-05 -9.41407e-06 -1.02298e-06
5.30709e-06 -1.02298e-06 2.32029e-05
0.00202465 4.76775e-06 -1.78686e-06
4.76775e-06 -1.64816e-05 -1.50836e-06
-1.78686e-06 -1.50836e-06 2.07449e-06
0.0030206 0.000350693 3.47674e-05
0.000350693 -0.00036768 5.39497e-06
3.47674e-05 5.39497e-06 -0.000123507
0.00227565 4.33642e-05 -2.96414e-05
4.33642e-05 0.000344049 1.52101e-05
-2.96414e-05 1.52101e-05 0.000427336
0.000582969 8.38809e-05 -8.95423e-07
8.38809e-05 3.48238e-05 -2.71042e-07
-8.95423e-07 -2.71042e-07 -3.91603e-05
0.00194152 -8.6907e-05 -1.69332e-06
-8.6907e-05 2.2643e-05 -3.1208e-07
-1.69332e-06 -3.1208e-07 9.87216e-06
0.00194432 -0.000219012 -6.40609e-07
-0.000219012 3.27474e-05 1.94106e-07
-6.40609e-07 1.94106e-07 1.09374e-05
0.00185971 -0.000289295 -4.56293e-07
-0.000289295 2.05965e-05 2.30793e-06
-4.56293e-07 2.30793e-06 -3.90394e-05
0.000679857 -0.000282417 -2.28055e-07
-0.000282417 -9.94743e-05 8.91193e-06
-2.28055e-07 8.91193e-06 -0.000365689
0.0019153 -0.000510004 4.89924e-06
-0.000510004 0.000498299 4.14891e-06
4.89924e-06 4.14891e-06 0.000134478
0.00144519 -0.000468112 1.51611e-06
-0.000468112 4.28421e-05 -8.25835e-06
1.51611e-06 -8.25835e-06 -0.000227214
0.00220564 -0.000460928 -2.83309e-06
-0.000460928 0.000246124 -1.20031e-06
-2.83309e-06 -1.20031e-06 0.000113003
0.00182869 -0.000318625 1.70186e-05
-0.000318625 0.000618144 -2.73064e-07
1.70186e-05 -2.73064e-07 0.000402261
0.000398886 -0.000173399 1.25199e-05
-0.000173399 -4.60494e-05 -5.78261e-06
1.25199e-05 -5.78261e-06 -0.000269016
0.00107996 -0.000116302 1.70656e-06
-0.000116302 0.000332757 -2.91165e-06
1.70656e-06 -2.91165e-06 0.000142469
0.000586944 4.99879e-06 -6.29386e-07
4.99879e-06 1.33773e-06 1.44373e-06
-6.29386e-07 1.44373e-06 -3.99434e-05
0.000866357 -1.97048e-05 1.88507e-06
-1.97048e-05 0.000224395 -1.48175e-06
1.88507e-06 -1.48175e-06 5.68906e-05
0.000902156 -3.79476e-05 2.24579e-06
-3.79476e-05 0.000241188 -4.6351e-07
2.24579e-06 -4.6351e-07 0.000150212
0.000843799 -2.83456e-05 1.16732e-06
-2.83456e-05 0.000215924 -9.38643e-07
1.16732e-06 -9.38643e-07 7.61197e-05
0.000370405 -2.81499e-05 -2.14453e-06
-2.81499e-05 -0.000111519 6.61364e-07
-2.14453e-06 6.61364e-07 -0.000179321
0.00196935 -0.000112307 -2.34875e-07
-0.000112307 -4.82252e-05 1.37339e-07
-2.34875e-07 1.37339e-07 -4.35353e-05
0.000481718 3.60668e-05 -2.08305e-08
3.60668e-05 -2.3284e-05 -1.3653e-06
-2.08305e-08 -1.3653e-06 -0.000102613
0.000638204 -5.43599e-05 9.38517e-07
-5.43599e-05 6.43293e-05 4.67043e-07
9.38517e-07 4.67043e-07 -1.27425e-05
0.000784181 -6.18491e-05 4.57579e-09
-6.18491e-05 0.000151858 7.53641e-07
4.57579e-09 7.53641e-07 5.54836e-05
0.00193958 -0.000272471 1.25141e-06
-0.000272471 -3.77803e-05 -1.64864e-07
1.25141e-06 -1.64864e-07 -1.85273e-06
0.00206959 -0.000402036 -1.06157e-07
-0.000402036 7.36944e-05 -5.19379e-07
-1.06157e-07 -5.19379e-07 -1.26006e-06
0.00130845 -0.000332432 6.96257e-06
-0.000332432 0.000274822 -1.54482e-07
6.96257e-06 -1.54482e-07 -3.63533e-06
0.00210241 -0.000567194 6.25422e-06
-0.000567194 0.000582728 -5.71139e-08
6.25422e-06 -5.71139e-08 0.000210442
0.00191849 -0.000534622 -9.27766e-07
-0.000534622 0.000205603 1.54244e-06
-9.27766e-07 1.54244e-06 2.97807e-05
0.000464453 -1.21742e-05 -5.59302e-07
-1.21742e-05 -1.03317e-05 -1.55747e-07
-5.59302e-07 -1.55747e-07 -0.000132562
0.000845911 -8.25005e-05 -1.70045e-06
-8.25005e-05 0.00020992 5.64297e-07
-1.70045e-06 5.64297e-07 6.1276e-05
0.00063111 -0.00031397 -6.6632e-06
-0.00031397 -4.9296e-05 -5.21301e-07
-6.6632e-06 -5.21301e-07 -0.000294222
0.000543236 -0.000116581 -1.26242e-07
-0.000116581 0.000112853 -1.38643e-06
-1.26242e-07 -1.38643e-06 -0.000188677
0.000735456 -7.19802e-05 -1.00775e-07
-7.19802e-05 9.08103e-05 2.13804e-07
-1.00775e-07 2.13804e-07 -7.67548e-05
0.0023957 -0.00022944 -3.36798e-06
-0.00022944 0.000182905 -1.5526e-06
-3.36798e-06 -1.5526e-06 0.000194314
0.00178652 -0.000288259 -1.21982e-05
-0.000288259 -0.000157682 1.81579e-06
-1.21982e-05 1.81579e-06 -9.16988e-05
0.00244281 -0.000561235 -9.8384e-06
-0.000561235 0.000315965 -2.27779e-06
-9.8384e-06 -2.27779e-06 0.000171417
0.00285449 -0.000652618 -2.27828e-05
-0.000652618 0.000839625 1.09736e-06
-2.27828e-05 1.09736e-06 0.000597086
0.00122035 -0.00036105 -2.10547e-05
-0.00036105 0.000276452 -3.01545e-06
-2.10547e-05 -3.01545e-06 -1.11023e-05
0.000423852 4.06131e-07 1.21836e-06
4.06131e-07 -5.67334e-05 -1.86898e-07
1.21836e-06 -1.86898e-07 -0.000153919
0.000476068 4.07088e-05 5.37755e-07
4.07088e-05 -3.85413e-05 1.2179e-06
5.37755e-07 1.2179e-06 -0.000138283
0.000353797 -4.43785e-06 -1.67553e-07
-4.43785e-06 -9.77487e-05 -8.35546e-07
-1.67553e-07 -8.35546e-07 -0.000204008
0.00137111 -0.000164388 -3.23389e-06
-0.000164388 0.000540827 5.94175e-06
-3.23389e-06 5.94175e-06 0.000396218
0.000465335 -5.92153e-05 -1.49692e-06
-5.92153e-05 -3.94941e-05 7.11782e-06
-1.49692e-06 7.11782e-06 -0.000179289
-0.000110291 -8.66614e-05 1.13728e-06
-8.66614e-05 -0.000193067 4.3221e-06
1.13728e-06 4.3221e-06 -0.000527727
-5.58915e-05 -0.000358308 1.84185e-06
-0.000358308 -0.000225054 1.12529e-06
1.84185e-06 1.12529e-06 -0.0006161
0.000812935 0.000108505 8.91627e-07
0.000108505 0.000199947 -4.53172e-06
8.91627e-07 -4.53172e-06 6.72744e-05
0.000264562 9.84728e-05 -1.26783e-06
9.84728e-05 -0.000133022 -1.16209e-06
-1.26783e-06 -1.16209e-06 -0.000312883
0.00211819 0.000226477 7.41015e-06
0.000226477 2.54142e-05 1.98972e-07
7.41015e-06 1.98972e-07 3.5644e-05
0.00206675 0.000374474 1.38307e-05
0.000374474 0.000148652 3.81437e-06
1.38307e-05 3.81437e-06 5.02537e-05
0.00226998 0.000500431 1.28842e-05
0.000500431 0.000401178 4.13771e-06
1.28842e-05 4.13771e-06 0.000172335
0.00111011 0.000289527 -5.86247e-07
0.000289527 0.000191387 -1.37994e-06
-5.86247e-07 -1.37994e-06 -5.09945e-05
0.00179933 0.000442027 1.03492e-06
0.000442027 0.0004038 1.46614e-06
1.03492e-06 1.46614e-06 9.79328e-05
0.00140806 0.000137875 -2.98065e-09
0.000137875 0.000540992 2.79314e-07
-2.98065e-09 2.79314e-07 0.000393129
0.00230576 0.000245627 -2.63626e-06
0.000245627 0.000231854 7.12455e-07
-2.63626e-06 7.12455e-07 0.000260605
0.00148098 0.000295442 -1.99697e-06
0.000295442 0.00051192 5.8662e-07
-1.99697e-06 5.8662e-07 0.000297587
0.00153199 0.000370217 3.64459e-07
0.000370217 0.000372314 2.13415e-06
3.64459e-07 2.13415e-06 9.10241e-05
0.00197238 0.000495502 -1.66263e-06
0.000495502 0.000118411 -2.78929e-06
-1.66263e-06 -2.78929e-06 -2.65674e-05
0.0016431 0.000463111 -3.48457e-06
0.000463111 0.000253949 5.34734e-06
-3.48457e-06 5.34734e-06 -4.11147e-05
0.0023354 0.000501344 4.23124e-05
0.000501344 -6.48942e-05 4.61865e-06
4.23124e-05 4.61865e-06 -0.000380015
0.00110048 0.000202481 -5.67691e-06
0.000202481 0.000383701 -5.30363e-07
-5.67691e-06 -5.30363e-07 0.000209667
0.00278281 0.000420411 -5.84414e-05
0.000420411 0.000609587 -2.73671e-05
-5.84414e-05 -2.73671e-05 0.000576739
0.00116288 0.000291204 -4.67047e-06
0.000291204 0.000247714 -1.57083e-06
-4.67047e-06 -1.57083e-06 3.98075e-05
0.000395216 0.000287831 -7.26615e-07
0.000287831 -0.000281177 -5.17441e-06
-7.26615e-07 -5.17441e-06 -0.000554258
0.000422281 0.000454524 -1.93484e-05
0.000454524 -0.000564531 -3.68617e-06
-1.93484e-05 -3.68617e-06 -0.000753811
0.0109542 0.000407749 -0.00022006
0.000407749 0.00231234 -4.63335e-05
-0.00022006 -4.63335e-05 0.00142509
0.00601143 0.000903182 0.000123173
0.000903182 0.000759922 -3.13604e-05
0.000123173 -3.13604e-05 0.000540188
0.000222185 0.000612737 1.40963e-05
0.000612737 -0.000711168 6.7672e-06
1.40963e-05 6.7672e-06 -0.000975601
-0.00422212 -0.00089025 0.000476702
-0.00089025 -0.000718507 6.32317e-05
0.000476702 6.32317e-05 -0.00226687
0.00979272 -0.00301462 -2.22469e-05
-0.00301462 0.00235325 1.98159e-05
-2.22469e-05 1.98159e-05 0.00349629
0.000396624 5.36898e-05 4.01692e-06
5.36898e-05 -4.43128e-05 7.5164e-07
4.01692e-06 7.5164e-07 -0.000132921
0.000861279 5.06587e-05 1.31776e-06
5.06587e-05 0.000222826 -7.8742e-07
1.31776e-06 -7.8742e-07 0.000134928
0.00113862 0.000116203 -2.274e-06
0.000116203 0.000388008 -4.90137e-07
-2.274e-06 -4.90137e-07 0.000282861
0.000595818 -6.11991e-05 -1.1289e-07
-6.11991e-05 5.94389e-05 -1.95542e-06
-1.1289e-07 -1.95542e-06 -4.22189e-05
0.000602303 5.99056e-05 -1.42027e-06
5.99056e-05 5.07149e-05 -1.66773e-06
-1.42027e-06 -1.66773e-06 -6.58545e-05
0.000731268 -2.65342e-05 1.53136e-07
-2.65342e-05 0.000127984 -2.27765e-07
1.53136e-07 -2.27765e-07 9.99253e-06
0.000814035 3.13349e-05 -1.79433e-06
3.13349e-05 0.000156843 3.40123e-06
-1.79433e-06 3.40123e-06 5.74215e-05
0.000548788 3.10397e-05 -1.45837e-06
3.10397e-05 -6.0378e-06 2.77533e-06
-1.45837e-06 2.77533e-06 -8.2517e-05
0.000787641 8.45576e-05 -1.70176e-06
8.45576e-05 0.000167211 -5.43959e-07
-1.70176e-06 -5.43959e-07 3.94745e-05
0.000536393 -9.77372e-06 5.70552e-09
-9.77372e-06 6.73241e-06 7.10831e-07
5.70552e-09 7.10831e-07 -8.87383e-05
0.000654937 2.11759e-05 2.48248e-07
2.11759e-05 8.9583e-05 1.74432e-07
2.48248e-07 1.74432e-07 -3.71787e-05
0.000691126 4.12028e-05 7.02459e-07
4.12028e-05 7.58947e-05 -6.20218e-07
7.02459e-07 -6.20218e-07 -5.29518e-06
0.000799875 5.38717e-05 -8.3128e-07
5.38717e-05 0.000152607 -2.08887e-07
-8.3128e-07 -2.08887e-07 3.77698e-05
0.00118741 0.000105961 -1.52322e-06
0.000105961 0.000389267 -1.65829e-06
-1.52322e-06 -1.65829e-06 0.000269588
0.000397198 5.23492e-05 -5.28436e-08
5.23492e-05 -6.81997e-05 -3.03982e-06
-5.28436e-08 -3.03982e-06 -0.000172637
0.000800428 8.47221e-05 1.88788e-06
8.47221e-05 0.00015988 2.84109e-07
1.88788e-06 2.84109e-07 3.8688e-05
0.000548688 -2.18476e-05 1.27986e-06
-2.18476e-05 1.27811e-05 -1.11067e-08
1.27986e-06 -1.11067e-08 -0.000104781
0.000428361 -5.41486e-05 -1.18769e-06
-5.41486e-05 -5.92949e-05 2.11001e-06
-1.18769e-06 2.11001e-06 -0.000157588
0.000778735 -7.01849e-06 -7.39983e-07
-7.01849e-06 0.000160367 -1.56704e-07
-7.39983e-07 -1.56704e-07 3.79906e-05
0.000823631 3.19181e-05 -3.85094e-08
3.19181e-05 0.00019023 -3.32421e-06
-3.85094e-08 -3.32421e-06 7.27519e-05
0.000653305 -2.58681e-05 -6.49203e-07
-2.58681e-05 9.66908e-05 8.53354e-08
-6.49203e-07 8.53354e-08 -1.86179e-05
0.000791419 -2.63119e-05 1.18481e-06
-2.63119e-05 0.000175515 -6.15835e-07
1.18481e-06 -6.15835e-07 5.68094e-05
0.00066621 -8.88431e-05 -2.45982e-06
-8.88431e-05 8.22177e-05 1.53004e-06
-2.45982e-06 1.53004e-06 -1.18195e-05
0.000438908 -1.27762e-05 1.41256e-07
-1.27762e-05 -5.22611e-05 8.73225e-07
1.41256e-07 8.73225e-07 -0.000150522
0.000578346 -2.31682e-05 -1.55218e-06
-2.31682e-05 9.1289e-06 2.48646e-06
-1.55218e-06 2.48646e-06 -4.65306e-05
0.000571321 -2.04989e-05 1.1173e-06
-2.04989e-05 1.08192e-05 6.2214e-09
1.1173e-06 6.2214e-09 -4.70261e-05
0.000567336 6.69644e-06 1.37098e-07
6.69644e-06 -2.09658e-05 5.59232e-06
1.37098e-07 5.59232e-06 -3.81966e-05
0.000571481 2.17546e-05 -1.00862e-06
2.17546e-05 8.84532e-06 -2.25722e-06
-1.00862e-06 -2.25722e-06 -4.70119e-05
0.000535912 5.79821e-06 3.9393e-07
5.79821e-06 -4.03099e-05 4.03373e-09
3.9393e-07 4.03373e-09 -5.71115e-05
0.00238418 -1.62528e-06 -8.25665e-07
-1.62528e-06 0.00106408 5.30738e-06
-8.25665e-07 5.30738e-06 0.00107929
0.000581613 3.75902e-06 -9.54076e-07
3.75902e-06 -1.44311e-05 -5.75808e-06
-9.54076e-07 -5.75808e-06 -3.10643e-05
0.00160743 -9.90775e-06 2.35325e-08
-9.90775e-06 0.000597513 8.798e-08
2.35325e-08 8.798e-08 0.000608621
0.000775293 -1.47925e-05 2.32007e-07
-1.47925e-05 9.70409e-05 -2.13622e-06
2.32007e-07 -2.13622e-06 0.000104784
0.000592936 -1.3041e-05 9.92503e-07
-1.3041e-05 7.83057e-06 -1.313e-06
9.92503e-07 -1.313e-06 -3.00976e-05
0.000617333 -2.11439e-05 3.95208e-07
-2.11439e-05 2.03e-05 -4.84537e-08
3.95208e-07 -4.84537e-08 -1.95948e-05
0.00058145 1.4092e-05 4.71368e-07
1.4092e-05 -2.19672e-05 -3.09977e-06
4.71368e-07 -3.09977e-06 -2.96564e-05
0.000591617 -1.58021e-05 -1.3872e-06
-1.58021e-05 1.72903e-06 1.19187e-06
-1.3872e-06 1.19187e-06 -3.83062e-05
0.000852648 2.56644e-05 -6.14949e-08
2.56644e-05 0.000143162 -7.12783e-07
-6.14949e-08 -7.12783e-07 0.000135586
0.0020435 4.1697e-05 1.05785e-05
4.1697e-05 0.000865674 -4.29953e-06
1.05785e-05 -4.29953e-06 0.000882058
0.000549303 3.05046e-05 -3.92225e-07
3.05046e-05 -3.45396e-05 3.41251e-06
-3.92225e-07 3.41251e-06 -4.68972e-05
0.0021771 5.84266e-05 -7.14605e-06
5.84266e-05 0.000952901 1.11408e-06
-7.14605e-06 1.11408e-06 0.000966132
0.00228405 7.70072e-05 -1.57051e-05
7.70072e-05 0.00102397 4.08709e-06
-1.57051e-05 4.08709e-06 0.00103336
0.00200058 0.000131154 -2.44055e-06
0.000131154 1.96903e-05 -1.6641e-07
-2.44055e-06 -1.6641e-07 7.85908e-06
0.00192597 -2.59955e-07 -1.27198e-06
-2.59955e-07 1.40631e-05 2.08348e-07
-1.27198e-06 2.08348e-07 1.02003e-05
0.00164557 5.57054e-05 9.08777e-06
5.57054e-05 -0.000195688 2.083e-07
9.08777e-06 2.083e-07 -0.000169215
0.0023029 0.000254868 4.05804e-05
0.000254868 -0.000557038 8.77065e-06
4.05804e-05 8.77065e-06 -0.000401873
0.00198821 -9.87216e-06 -2.12179e-06
-9.87216e-06 -2.6251e-05 -5.38545e-07
-2.12179e-06 -5.38545e-07 -7.09948e-06
0.00191471 5.21572e-05 3.75358e-06
5.21572e-05 0.000137432 -2.90111e-06
3.75358e-06 -2.90111e-06 0.000202758
0.0028385 -1.84268e-05 -2.78086e-05
-1.84268e-05 0.000707098 4.25439e-06
-2.78086e-05 4.25439e-06 0.000686708
0.0019652 -2.37527e-05 4.99933e-05
-2.37527e-05 -0.00143843 -2.43763e-05
4.99933e-05 -2.43763e-05 -0.00120853
0.00251399 9.24337e-05 3.79792e-05
9.24337e-05 -0.000128546 2.22812e-05
3.79792e-05 2.22812e-05 4.20155e-05
0.000618867 7.08405e-05 8.9692e-08
7.08405e-05 5.94692e-05 -5.66124e-07
8.9692e-08 -5.66124e-07 -1.76351e-05
0.000643201 -8.53836e-06 5.84631e-07
-8.53836e-06 7.58785e-05 -2.01137e-07
5.84631e-07 -2.01137e-07 -3.14181e-06
0.000618819 -9.6167e-05 -9.04651e-07
-9.6167e-05 6.11167e-05 1.10734e-06
-9.04651e-07 1.10734e-06 -3.28198e-05
0.000597048 -4.23154e-05 -1.24172e-06
-4.23154e-05 7.0067e-05 1.07479e-06
-1.24172e-06 1.07479e-06 -3.44423e-05
0.00201057 -0.000124989 -3.60325e-06
-0.000124989 -4.52203e-05 5.97914e-07
-3.60325e-06 5.97914e-07 -2.61465e-05
0.00195813 -0.000270183 7.65968e-07
-0.000270183 -1.10301e-05 -2.38946e-07
7.65968e-07 -2.38946e-07 1.32933e-05
0.00209491 -0.000400339 -2.34531e-06
-0.000400339 9.63454e-05 2.31005e-06
-2.34531e-06 2.31005e-06 2.17949e-05
0.0023689 -0.000451651 1.09151e-05
-0.000451651 0.00086452 3.48003e-06
1.09151e-05 3.48003e-06 0.000575961
0.00106469 -0.000475275 1.1858e-05
-0.000475275 1.60554e-05 -3.69369e-06
1.1858e-05 -3.69369e-06 -0.00033983
0.00231065 -0.000559499 6.81341e-06
-0.000559499 0.00043857 -3.11886e-06
6.81341e-06 -3.11886e-06 0.000252762
0.00116469 -0.000348356 -4.04178e-06
-0.000348356 0.00027161 2.65798e-06
-4.04178e-06 2.65798e-06 -4.73075e-06
0.00196158 -0.000154917 1.43764e-06
-0.000154917 0.000859861 -9.82962e-07
1.43764e-06 -9.82962e-07 0.000614295
0.000247141 -7.64248e-05 -1.21028e-07
-7.64248e-05 -0.000200784 -1.22241e-06
-1.21028e-07 -1.22241e-06 -0.000358189
0.000675664 -4.02809e-05 -1.32955e-07
-4.02809e-05 8.52227e-05 1.06916e-06
-1.32955e-07 1.06916e-06 9.64567e-06
0.000682252 -8.99219e-05 5.75278e-07
-8.99219e-05 0.000123589 -2.86939e-06
5.75278e-07 -2.86939e-06 -3.51747e-05
0.000754457 -7.96134e-06 9.04325e-07
-7.96134e-06 0.000163307 -7.45113e-07
9.04325e-07 -7.45113e-07 4.15621e-05
0.000642513 7.36867e-06 1.63125e-07
7.36867e-06 7.89305e-05 -1.77904e-07
1.63125e-07 -1.77904e-07 -3.40911e-06
0.000544457 -7.03545e-07 -3.27347e-06
-7.03545e-07 9.46124e-06 2.21629e-06
-3.27347e-06 2.21629e-06 -8.47091e-05
0.00231698 -0.00021153 1.22961e-06
-0.00021153 0.000145999 6.02131e-07
1.22961e-06 6.02131e-07 0.000171119
0.000644353 -1.38394e-05 1.12763e-06
-1.38394e-05 8.56318e-05 -2.46037e-07
1.12763e-06 -2.46037e-07 -1.86991e-05
0.000690874 3.07859e-06 2.62212e-06
3.07859e-06 9.85303e-05 -1.42809e-07
2.62212e-06 -1.42809e-07 -4.93352e-06
0.000354161 3.1276e-05 2.04427e-07
3.1276e-05 -9.6062e-05 1.32894e-06
2.04427e-07 1.32894e-06 -0.000189619
0.00177251 -0.000291461 -8.20284e-07
-0.000291461 -0.000191924 -1.60172e-06
-8.20284e-07 -1.60172e-06 -0.000129716
0.00206658 -0.000526882 1.52684e-06
-0.000526882 0.000126144 -4.24756e-07
1.52684e-06 -4.24756e-07 -8.03732e-06
0.00166538 -0.000438514 -1.11745e-06
-0.000438514 0.000515157 1.28658e-07
-1.11745e-06 1.28658e-07 0.000215712
0.002158 -0.000599134 -5.65863e-06
-0.000599134 0.000465828 1.94926e-06
-5.65863e-06 1.94926e-06 0.000227814
0.00108604 -8.0762e-05 -9.59638e-07
-8.0762e-05 0.000352885 3.92779e-07
-9.59638e-07 3.92779e-07 0.000216816
0.000453396 -7.1764e-05 3.02254e-07
-7.1764e-05 -4.83239e-05 9.09375e-07
3.02254e-07 9.09375e-07 -0.000195167
0.0011042 -0.00043814 3.96973e-06
-0.00043814 0.000432478 -1.72316e-06
3.96973e-06 -1.72316e-06 2.52447e-05
0.00115881 -0.000198355 1.705e-07
-0.000198355 0.00045611 -4.03964e-07
1.705e-07 -4.03964e-07 0.000154645
0.00247699 -0.000256762 -2.38942e-05
-0.000256762 0.000149159 -1.24567e-06
-2.38942e-05 -1.24567e-06 0.000269005
0.00231157 -0.000428301 -2.87102e-05
-0.000428301 0.000149624 6.23583e-06
-2.87102e-05 6.23583e-06 0.000166158
0.00281883 -0.000685777 -1.22923e-05
-0.000685777 0.000627284 -5.57579e-06
-1.22923e-05 -5.57579e-06 0.000408136
0.00163428 -0.000510602 -1.00103e-05
-0.000510602 0.000374378 2.83549e-06
-1.00103e-05 2.83549e-06 0.00014985
0.000531059 -1.1117e-05 -1.61639e-06
-1.1117e-05 3.46506e-05 -2.08632e-06
-1.61639e-06 -2.08632e-06 -8.7796e-05
0.000532165 -8.11033e-05 -8.83124e-07
-8.11033e-05 2.40652e-05 -4.43141e-06
-8.83124e-07 -4.43141e-06 -0.000107757
0.000441643 -0.000120608 -3.17165e-06
-0.000120608 6.73759e-05 1.16806e-05
-3.17165e-06 1.16806e-05 -0.000126779
-0.000377844 -0.000217481 -3.26746e-06
-0.000217481 -0.000188771 -5.63286e-06
-3.26746e-06 -5.63286e-06 -0.000681653
0.00103189 -0.000410846 2.73939e-05
-0.000410846 -0.00332803 -5.91698e-06
2.73939e-05 -5.91698e-06 -0.0035484
0.00153921 0.000128831 7.87444e-07
0.000128831 0.000606743 -3.871e-06
7.87444e-07 -3.871e-06 0.000467055
0.000659356 0.000199887 2.9608e-06
0.000199887 3.29916e-05 1.91805e-06
2.9608e-06 1.91805e-06 -0.000164468
0.00209459 0.000217209 5.42131e-05
0.000217209 0.000133436 1.10267e-05
5.42131e-05 1.10267e-05 0.000165564
0.00204346 0.000488761 1.85129e-05
0.000488761 0.000149616 6.81454e-06
1.85129e-05 6.81454e-06 1.4728e-05
0.00209759 0.000507822 7.44676e-06
0.000507822 0.000517675 8.30516e-06
7.44676e-06 8.30516e-06 0.000209631
0.00102017 0.000322089 6.08113e-06
0.000322089 0.000106235 4.30548e-06
6.08113e-06 4.30548e-06 -0.000180496
0.0034373 0.000608937 7.99782e-05
0.000608937 0.000244962 2.93185e-05
7.99782e-05 2.93185e-05 -0.000182342
0.00126935 0.000187906 3.67102e-06
0.000187906 0.000483943 6.57558e-07
3.67102e-06 6.57558e-07 0.000313689
0.00238855 0.000397458 -1.20294e-05
0.000397458 0.000368723 -9.24998e-07
-1.20294e-05 -9.24998e-07 0.000359223
0.00111593 0.000287441 1.80143e-06
0.000287441 0.000242445 6.95581e-07
1.80143e-06 6.95581e-07 3.30379e-05
0.00118098 0.000379371 2.26405e-06
0.000379371 0.000157927 -2.71006e-06
2.26405e-06 -2.71006e-06 -0.000129041
0.00122424 0.000517283 -5.15384e-06
0.000517283 -0.000150891 -1.51287e-06
-5.15384e-06 -1.51287e-06 -0.000347279
0.00281664 -0.000331375 -0.000126597
-0.000331375 -0.00262825 -3.77317e-05
-0.000126597 -3.77317e-05 -0.00362322
0.00598031 0.000759759 -2.50218e-05
0.000759759 0.000581517 -4.62057e-05
-2.50218e-05 -4.62057e-05 0.000153248
0.000588899 0.000530393 -8.789e-06
0.000530393 -0.00038019 7.24084e-06
-8.789e-06 7.24084e-06 -0.000703618
-0.00202176 -0.0006737 0.000208202
-0.0006737 0.00111915 8.89758e-05
0.000208202 8.89758e-05 -0.000611984
0.0018042 -0.00300405 -0.000152914
-0.00300405 -0.0002534 -0.000162286
-0.000152914 -0.000162286 0.00105906
0.00114847 0.000209421 -6.716e-06
0.000209421 0.000393889 -2.67631e-06
-6.716e-06 -2.67631e-06 0.000238848
0.000589967 0.000449811 0.000241305
0.000449811 0.002093 -5.67704e-06
0.000241305 -5.67704e-06 0.00082105
0.00102864 -0.00092302 -0.000123914
-0.00092302 0.00273417 -0.000190622
-0.000123914 -0.000190622 0.000501647
0.00265804 0.000615387 -3.22972e-05
0.000615387 0.000497819 -8.32465e-06
-3.22972e-05 -8.32465e-06 0.000518795
0.000742177 0.000176367 -1.40009e-05
0.000176367 3.00477e-05 -3.87115e-06
-1.40009e-05 -3.87115e-06 -0.000166117
0.000325752 0.000420221 -2.50496e-05
0.000420221 -0.000304635 -1.72961e-05
-2.50496e-05 -1.72961e-05 -0.000596239
9.03423e-05 0.000560801 3.33095e-05
0.000560801 -0.000704035 7.10457e-05
3.33095e-05 7.10457e-05 -0.000871626
0.0131994 0.00094092 -1.25556e-05
0.00094092 0.00381173 -4.32976e-05
-1.25556e-05 -4.32976e-05 0.00233552
0.00274525 0.00109934 1.34684e-05
0.00109934 0.000424701 4.0151e-06
1.34684e-05 4.0151e-06 -0.000652774
0.0039339 -0.00266495 0.000388563
-0.00266495 0.000140817 0.000265268
0.000388563 0.000265268 0.000126121
0.0067207 -0.0013903 -3.12907e-05
-0.0013903 -4.69581e-05 0.000282063
-3.12907e-05 0.000282063 0.000668881
0.000577087 3.38017e-05 2.48474e-06
3.38017e-05 7.31545e-05 -2.27594e-06
2.48474e-06 -2.27594e-06 -1.61591e-05
0.000745599 9.58966e-05 3.16633e-06
9.58966e-05 0.000162165 9.66498e-07
3.16633e-06 9.66498e-07 5.68962e-05
0.00144779 0.000168366 -2.43616e-06
0.000168366 0.000586759 -2.68847e-06
-2.43616e-06 -2.68847e-06 0.000471301
0.000617534 5.06085e-06 8.09349e-07
5.06085e-06 7.26738e-05 -4.55836e-07
8.09349e-07 -4.55836e-07 -3.36258e-05
0.000726234 3.58688e-05 -6.4355e-10
3.58688e-05 0.000129689 -1.64007e-06
-6.4355e-10 -1.64007e-06 4.58434e-06
0.000517571 -1.94108e-06 -1.69112e-06
-1.94108e-06 -5.402e-06 4.60564e-07
-1.69112e-06 4.60564e-07 -0.000119934
0.00075647 5.89008e-05 -1.53961e-06
5.89008e-05 0.000127864 1.64655e-06
-1.53961e-06 1.64655e-06 1.73351e-05
0.000536334 4.03539e-05 -1.28358e-06
4.03539e-05 -2.01596e-05 -1.23574e-07
-1.28358e-06 -1.23574e-07 -0.000101869
0.000434592 -4.34757e-06 2.53192e-07
-4.34757e-06 -5.09333e-05 7.93793e-07
2.53192e-07 7.93793e-07 -0.000152066
0.000888242 4.4947e-05 5.28568e-07
4.4947e-05 0.000214952 7.72755e-07
5.28568e-07 7.72755e-07 9.75496e-05
0.00078077 3.37842e-05 2.79993e-07
3.37842e-05 0.000148918 3.57377e-07
2.79993e-07 3.57377e-07 2.7077e-05
0.000687236 1.92966e-05 6.31504e-07
1.92966e-05 0.000110704 -3.24084e-07
6.31504e-07 -3.24084e-07 -1.758e-05
0.000445602 5.51836e-05 -3.22308e-07
5.51836e-05 -3.78248e-05 -9.68666e-07
-3.22308e-07 -9.68666e-07 -0.000142848
0.00125477 7.08914e-05 -8.2493e-07
7.08914e-05 0.000434023 -3.16515e-06
-8.2493e-07 -3.16515e-06 0.000325686
6.77293e-05 4.72454e-05 -3.40663e-06
4.72454e-05 -0.00021444 -4.90373e-06
-3.40663e-06 -4.90373e-06 -0.000328189
0.000757222 -8.09491e-05 1.9332e-08
-8.09491e-05 0.000134839 -1.27593e-07
1.9332e-08 -1.27593e-07 8.37468e-06
0.000767771 -5.67548e-05 -7.30295e-07
-5.67548e-05 0.000164782 -3.6836e-07
-7.30295e-07 -3.6836e-07 3.1409e-05
0.000792725 -2.88057e-05 -4.72743e-07
-2.88057e-05 0.000178932 -3.75021e-07
-4.72743e-07 -3.75021e-07 4.92148e-05
0.000803964 1.42595e-06 -1.25456e-06
1.42595e-06 0.00016994 -2.0092e-07
-1.25456e-06 -2.0092e-07 5.97383e-05
0.000790042 1.64659e-05 -3.15108e-06
1.64659e-05 0.00018307 -2.54254e-06
-3.15108e-06 -2.54254e-06 4.34269e-05
0.000721139 5.63142e-06 1.30553e-06
5.63142e-06 0.000124416 -1.82143e-06
1.30553e-06 -1.82143e-06 1.50574e-05
3.62261e-05 -2.12812e-05 -3.67369e-07
-2.12812e-05 -0.000288375 -2.53467e-06
-3.67369e-07 -2.53467e-06 -0.000383198
0.000588095 -4.33971e-06 9.4174e-07
-4.33971e-06 3.49489e-05 4.73858e-08
9.4174e-07 4.73858e-08 -7.24807e-05
0.000641396 -5.13169e-05 2.82437e-07
-5.13169e-05 6.75129e-05 5.70755e-07
2.82437e-07 5.70755e-07 -3.1452e-05
0.000714048 -4.88706e-05 -2.23815e-07
-4.88706e-05 0.000126022 -3.58557e-08
-2.23815e-07 -3.58557e-08 1.34583e-05
0.000655244 -5.51997e-05 -2.04378e-06
-5.51997e-05 6.39846e-05 1.24474e-06
-2.04378e-06 1.24474e-06 -1.83546e-05
0.000676876 -3.92929e-05 1.42948e-06
-3.92929e-05 8.7162e-05 -4.37668e-07
1.42948e-06 -4.37668e-07 -1.94271e-05
0.000598469 -8.21199e-05 1.49707e-08
-8.21199e-05 3.94959e-05 2.21619e-07
1.49707e-08 2.21619e-07 -5.42908e-05
0.000619844 -2.1806e-05 -2.05759e-06
-2.1806e-05 2.92529e-05 2.7004e-06
-2.05759e-06 2.7004e-06 -2.61525e-05
0.000479841 -6.17292e-06 1.2566e-06
-6.17292e-06 -1.79808e-05 -7.04959e-07
1.2566e-06 -7.04959e-07 -0.000123396
0.000576866 3.03788e-06 1.34388e-06
3.03788e-06 1.25622e-05 -8.5799e-09
1.34388e-06 -8.5799e-09 -4.55e-05
0.00138908 9.47248e-06 -3.25956e-06
9.47248e-06 0.000469737 5.49967e-06
-3.25956e-06 5.49967e-06 0.000456871
0.000569842 3.72432e-05 -7.16268e-07
3.72432e-05 1.01916e-05 -2.28677e-06
-7.16268e-07 -2.28677e-06 -4.75238e-05
0.000949021 2.76429e-06 -1.87306e-06
2.76429e-06 0.000207445 8.09612e-07
-1.87306e-06 8.09612e-07 0.000192599
0.000831434 3.13433e-06 -4.20322e-06
3.13433e-06 0.000133438 5.08207e-06
-4.20322e-06 5.08207e-06 0.000140459
0.000541889 -6.26894e-07 5.22906e-07
-6.26894e-07 -3.65678e-05 -3.84143e-06
5.22906e-07 -3.84143e-06 -5.34115e-05
0.00239893 1.46492e-07 4.67023e-06
1.46492e-07 0.00107301 -6.76623e-09
4.67023e-06 -6.76623e-09 0.00108815
0.000850689 -2.7908e-06 -4.27244e-06
-2.7908e-06 0.000144636 -5.19253e-06
-4.27244e-06 -5.19253e-06 0.000151795
0.000589865 6.41013e-05 1.98514e-06
6.41013e-05 4.85405e-05 1.81371e-07
1.98514e-06 1.81371e-07 -3.57652e-05
0.000570748 2.91406e-05 -1.35238e-06
2.91406e-05 1.04247e-07 -1.76049e-06
-1.35238e-06 -1.76049e-06 -3.94595e-05
0.000582943 -6.3906e-06 1.03162e-06
-6.3906e-06 4.28466e-06 1.65936e-08
1.03162e-06 1.65936e-08 -3.52492e-05
0.000582347 8.2476e-06 3.98143e-07
8.2476e-06 -2.2001e-05 -3.05584e-06
3.98143e-07 -3.05584e-06 -2.90076e-05
0.000611067 -3.5598e-05 -1.76776e-06
-3.5598e-05 1.83966e-05 1.34097e-06
-1.76776e-06 1.34097e-06 -2.30358e-05
0.000551135 1.40703e-05 1.71349e-08
1.40703e-05 -4.07096e-05 -7.57543e-07
1.71349e-08 -7.57543e-07 -4.80872e-05
0.00201768 2.80359e-05 7.09393e-06
2.80359e-05 0.000846561 -4.45419e-06
7.09393e-06 -4.45419e-06 0.000864527
0.00115185 3.22522e-05 -6.23529e-07
3.22522e-05 0.00032369 1.81301e-06
-6.23529e-07 1.81301e-06 0.000317361
0.00147861 3.58973e-05 7.7607e-08
3.58973e-05 0.000526621 1.40486e-06
7.7607e-08 1.40486e-06 0.00053891
0.00088531 3.90683e-05 -1.30289e-05
3.90683e-05 0.000175372 7.18368e-06
-1.30289e-05 7.18368e-06 0.000181815
0.00150623 0.000169221 7.50864e-05
0.000169221 -0.000859157 1.59924e-05
7.50864e-05 1.59924e-05 -0.000723095
0.00195654 -2.31976e-05 2.54458e-06
-2.31976e-05 -3.03019e-05 1.40144e-06
2.54458e-06 1.40144e-06 -1.42573e-05
0.0019187 6.41084e-05 3.50342e-05
6.41084e-05 0.000156523 -1.19568e-05
3.50342e-05 -1.19568e-05 0.000212586
0.00154047 0.000140065 -1.96776e-05
0.000140065 -0.00123601 -1.2279e-05
-1.96776e-05 -1.2279e-05 -0.000827586
0.00187522 6.62386e-05 2.05272e-05
6.62386e-05 -0.0003823 -1.34585e-08
2.05272e-05 -1.34585e-08 -0.000223873
0.00237165 -2.19661e-05 6.25891e-07
-2.19661e-05 0.000377929 -2.83079e-06
6.25891e-07 -2.83079e-06 0.000362223
0.0035527 -9.61579e-05 -6.0333e-05
-9.61579e-05 0.000835043 2.02158e-06
-6.0333e-05 2.02158e-06 0.00080762
0.00301866 -7.30255e-05 7.72293e-05
-7.30255e-05 0.000301019 3.06412e-06
7.72293e-05 3.06412e-06 0.00025731
0.0104284 -0.000505263 1.43756e-05
-0.000505263 0.00238614 4.10473e-05
1.43756e-05 4.10473e-05 0.000845622
0.0102182 0.00217118 0.000486025
0.00217118 0.00459399 -0.00020991
0.000486025 -0.00020991 0.00427917
0.00629531 0.00236442 -2.58996e-05
0.00236442 0.00471993 1.9512e-05
-2.58996e-05 1.9512e-05 0.00487966
0.000412771 -9.02041e-05 1.79138e-06
-9.02041e-05 -5.17937e-05 -1.52372e-07
1.79138e-06 -1.52372e-07 -0.000148489
0.000638825 -1.16387e-05 1.33973e-06
-1.16387e-05 7.31657e-05 -1.68839e-07
1.33973e-06 -1.68839e-07 -5.81452e-06
0.000685049 -8.04804e-05 -1.64877e-06
-8.04804e-05 0.000106978 1.09059e-06
-1.64877e-06 1.09059e-06 2.22421e-05
0.000622952 -4.34945e-05 -1.83383e-07
-4.34945e-05 6.53637e-05 2.47254e-07
-1.83383e-07 2.47254e-07 -2.99448e-05
0.000617961 5.92518e-05 -1.49135e-06
5.92518e-05 8.50786e-05 1.90022e-06
-1.49135e-06 1.90022e-06 -2.76812e-05
0.000607024 0.000118555 1.33071e-06
0.000118555 5.63153e-05 4.11329e-06
1.33071e-06 4.11329e-06 -5.40879e-05
0.000864682 -1.46192e-05 2.8811e-06
-1.46192e-05 0.000228378 3.38767e-07
2.8811e-06 3.38767e-07 0.000118112
0.00056366 -2.87101e-05 -1.10912e-06
-2.87101e-05 3.87607e-05 9.9443e-07
-1.10912e-06 9.9443e-07 -6.02249e-05
0.00216693 -0.000196659 5.37458e-06
-0.000196659 6.26419e-05 2.13272e-06
5.37458e-06 2.13272e-06 0.000101458
0.00181659 -0.000304466 9.71486e-06
-0.000304466 -0.000202472 -2.02332e-06
9.71486e-06 -2.02332e-06 -0.000146503
0.00161855 -0.000488601 6.55158e-06
-0.000488601 -0.000106131 3.48046e-06
6.55158e-06 3.48046e-06 -0.000230646
0.0014631 -0.000444152 1.53227e-05
-0.000444152 0.000386192 3.15052e-07
1.53227e-05 3.15052e-07 8.25444e-05
0.00178315 -0.000573599 6.47447e-06
-0.000573599 0.00027048 2.3437e-06
6.47447e-06 2.3437e-06 3.46056e-05
0.00227948 -0.000516643 8.26585e-06
-0.000516643 0.00109977 -2.95407e-06
8.26585e-06 -2.95407e-06 0.000672767
0.00237662 -0.000312241 1.42461e-06
-0.000312241 0.00109949 -2.84007e-06
1.42461e-06 -2.84007e-06 0.000814669
0.000786893 -0.000135021 4.48456e-06
-0.000135021 0.000156483 -4.40063e-06
4.48456e-06 -4.40063e-06 -9.35642e-06
0.000670551 -2.59168e-05 5.23587e-07
-2.59168e-05 8.64724e-05 2.18294e-06
5.23587e-07 2.18294e-06 -1.18785e-05
0.000888697 -4.54577e-05 2.04881e-06
-4.54577e-05 0.000219564 -7.12582e-06
2.04881e-06 -7.12582e-06 9.24601e-05
0.000917799 -2.40968e-05 1.69193e-06
-2.40968e-05 0.000251097 -9.70831e-08
1.69193e-06 -9.70831e-08 0.000144497
0.00071091 9.21162e-05 2.19079e-06
9.21162e-05 0.000118894 1.96896e-06
2.19079e-06 1.96896e-06 3.19879e-05
0.00202619 -0.000243301 -2.09868e-07
-0.000243301 -3.7449e-05 2.07033e-06
-2.09868e-07 2.07033e-06 6.46751e-05
0.000658143 9.885e-06 -1.56723e-06
9.885e-06 0.000110597 2.00498e-07
-1.56723e-06 2.00498e-07 -1.11607e-05
0.000847664 -9.15917e-05 -2.6389e-06
-9.15917e-05 0.000202121 1.58428e-06
-2.6389e-06 1.58428e-06 7.94066e-05
0.00177672 -0.000412337 2.15092e-06
-0.000412337 -0.000136035 -1.66952e-06
2.15092e-06 -1.66952e-06 -0.00012416
0.00165153 -0.000585618 3.27318e-07
-0.000585618 5.80709e-06 1.46759e-07
3.27318e-07 1.46759e-07 -0.000180447
0.000993957 -0.000452642 -1.04811e-06
-0.000452642 2.70941e-05 -1.82973e-06
-1.04811e-06 -1.82973e-06 -0.000209229
0.00109196 -0.000167196 2.51896e-07
-0.000167196 0.000428909 -5.83754e-06
2.51896e-07 -5.83754e-06 0.000214164
0.00115804 -0.000286324 -1.77523e-06
-0.000286324 0.000625476 1.4403e-06
-1.77523e-06 1.4403e-06 0.000176894
0.00314804 -0.000368676 -3.472e-05
-0.000368676 0.000535937 4.35529e-06
-3.472e-05 4.35529e-06 0.000574512
0.00286499 -0.000594264 -3.68601e-05
-0.000594264 0.00058039 5.57216e-06
-3.68601e-05 5.57216e-06 0.000542704
0.00179539 -0.00064824 -1.30241e-05
-0.00064824 0.000175564 -5.49915e-07
-1.30241e-05 -5.49915e-07 -1.53642e-05
0.000570353 -0.00032388 -1.5612e-05
-0.00032388 -5.73677e-05 1.6985e-05
-1.5612e-05 1.6985e-05 -0.00027447
0.000657128 -0.000136934 1.46939e-06
-0.000136934 0.000115437 1.80017e-06
1.46939e-06 1.80017e-06 -3.26154e-05
0.000430528 -0.000113921 2.85725e-06
-0.000113921 2.26034e-05 -3.09695e-07
2.85725e-06 -3.09695e-07 -0.000147518
0.00106414 -0.000119039 -5.33683e-07
-0.000119039 0.00057953 -4.14196e-06
-5.33683e-07 -4.14196e-06 0.000201831
-0.0052116 -0.000117661 0.000282293
-0.000117661 -0.00379623 2.10285e-06
0.000282293 2.10285e-06 -0.00266717
0.0103399 -0.000155569 1.51654e-05
-0.000155569 0.00266837 2.01476e-07
1.51654e-05 2.01476e-07 0.00212241
0.0014989 0.000167453 6.29538e-06
0.000167453 0.000605754 -3.38225e-06
6.29538e-06 -3.38225e-06 0.00044755
0.000936088 0.000270822 3.03646e-06
0.000270822 0.000155941 -1.6433e-06
3.03646e-06 -1.6433e-06 -5.21482e-05
0.00192233 0.000354623 4.78572e-05
0.000354623 0.000104955 2.46924e-05
4.78572e-05 2.46924e-05 0.000116798
0.00243176 0.000615031 1.533e-05
0.000615031 0.000475691 4.92884e-06
1.533e-05 4.92884e-06 0.000269166
0.00223856 0.000496983 1.07703e-05
0.000496983 0.000739459 6.90162e-07
1.07703e-05 6.90162e-07 0.000437528
0.011387 0.000618602 5.07727e-05
0.000618602 0.00288346 2.3388e-05
5.07727e-05 2.3388e-05 0.00178253
0.00771275 0.00109575 -0.000168382
0.00109575 0.000895748 -2.35676e-05
-0.000168382 -2.35676e-05 0.000591901
0.000775853 0.000457329 6.60443e-06
0.000457329 -0.00015963 -1.86465e-05
6.60443e-06 -1.86465e-05 -0.000548324
0.0102625 -0.00173682 -0.00013191
-0.00173682 0.00467456 1.608e-05
-0.00013191 1.608e-05 0.00383915
-0.00716698 -0.00305193 -0.000820642
-0.00305193 -0.00295187 -0.000618598
-0.000820642 -0.000618598 -0.00176982
0.000988725 0.000201338 -6.70655e-07
0.000201338 0.000311193 -1.44289e-06
-6.70655e-07 -1.44289e-06 0.000155331
-0.002432 -0.000906204 0.000163438
-0.000906204 -0.00229504 2.33209e-05
0.000163438 2.33209e-05 -0.00265744
-0.0031456 -0.000660299 -0.000192616
-0.000660299 0.001807 -9.64118e-05
-0.000192616 -9.64118e-05 -0.000781293
0.00282778 0.000556479 -1.21686e-05
0.000556479 0.000600324 -1.20077e-06
-1.21686e-05 -1.20077e-06 0.00062249
0.000874353 0.000240041 -4.07901e-06
0.000240041 0.000136136 1.3376e-06
-4.07901e-06 1.3376e-06 -8.30657e-05
0.00123548 0.000502121 4.80799e-06
0.000502121 0.000188109 2.29677e-06
4.80799e-06 2.29677e-06 -0.000111353
0.00120414 0.000502193 1.96646e-05
0.000502193 2.29609e-05 1.64512e-05
1.96646e-05 1.64512e-05 -2.48127e-05
0.00973655 0.000751046 -6.97876e-05
0.000751046 0.00139722 -3.33068e-05
-6.97876e-05 -3.33068e-05 -0.000465015
0.00604771 0.00156882 -6.46169e-05
0.00156882 0.00138521 -2.94202e-05
-6.46169e-05 -2.94202e-05 0.000658542
0.0115367 -0.00204924 0.000165539
-0.00204924 0.00505841 -4.98531e-05
0.000165539 -4.98531e-05 0.00465491
0.0060817 -0.00173927 0.000165396
-0.00173927 -0.000873369 0.000363383
0.000165396 0.000363383 -0.000139888
0.00164377 0.00019917 -1.66735e-05
0.00019917 0.000698093 -9.09613e-06
-1.66735e-05 -9.09613e-06 0.000557856
-0.00671469 0.000420589 -9.65345e-05
0.000420589 0.00126624 -6.16909e-05
-9.65345e-05 -6.16909e-05 -0.00198668
0.00334834 0.000376266 -0.000190799
0.000376266 0.00206375 -0.000255342
-0.000190799 -0.000255342 -0.00112777
0.00179708 0.000487877 -1.94809e-05
0.000487877 0.00031228 7.07973e-06
-1.94809e-05 7.07973e-06 0.000311747
0.00144768 0.000443491 -5.16986e-05
0.000443491 0.000531455 -1.8444e-05
-5.16986e-05 -1.8444e-05 0.000280483
0.00230767 0.000438349 -6.10658e-05
0.000438349 0.00127938 -6.08815e-06
-6.10658e-05 -6.08815e-06 0.000843843
0.00153118 0.00105038 -4.24753e-05
0.00105038 1.74863e-05 -1.72666e-05
-4.24753e-05 -1.72666e-05 -0.000224886
0.000612384 0.000972317 0.000175111
0.000972317 -0.000487648 0.000121346
0.000175111 0.000121346 -0.00329937
0.0106545 -0.00242005 0.000118508
-0.00242005 0.00384979 0.00032328
0.000118508 0.00032328 0.00302677
0.00524519 -0.000989265 -5.86532e-05
-0.000989265 -0.00200291 -6.0379e-05
-5.86532e-05 -6.0379e-05 -0.000804804
0.000610229 0.000112489 3.423e-06
0.000112489 9.38019e-05 1.02536e-06
3.423e-06 1.02536e-06 -2.04691e-05
0.00123475 0.000151771 6.15332e-06
0.000151771 0.000450639 3.38331e-06
6.15332e-06 3.38331e-06 0.000338633
-4.1601e-05 5.69058e-05 2.49591e-06
5.69058e-05 -0.000224783 -8.22781e-06
2.49591e-06 -8.22781e-06 -0.000344276
0.00044479 4.65715e-05 1.40736e-06
4.65715e-05 -4.53674e-05 -4.40731e-07
1.40736e-06 -4.40731e-07 -0.000146165
0.000748812 5.20384e-05 -5.83689e-07
5.20384e-05 0.000153659 -1.139e-06
-5.83689e-07 -1.139e-06 2.17035e-05
0.000739459 -6.67476e-06 -7.17115e-07
-6.67476e-06 0.000123438 1.78352e-06
-7.17115e-07 1.78352e-06 1.65084e-06
0.00072912 2.66641e-06 3.17451e-06
2.66641e-06 0.000130481 1.33132e-06
3.17451e-06 1.33132e-06 9.32286e-06
0.000381124 4.47802e-05 2.05618e-07
4.47802e-05 -7.20297e-05 2.24586e-06
2.05618e-07 2.24586e-06 -0.000176258
0.000761942 4.58246e-05 -2.20882e-08
4.58246e-05 0.000161792 -8.27053e-07
-2.20882e-08 -8.27053e-07 2.81498e-05
0.000859985 5.02758e-05 1.12864e-07
5.02758e-05 0.000197237 6.74122e-08
1.12864e-07 6.74122e-08 8.84952e-05
0.000772308 -3.86629e-05 -6.37039e-07
-3.86629e-05 0.000146318 6.75556e-07
-6.37039e-07 6.75556e-07 1.83022e-05
-0.000121311 3.19059e-05 5.39902e-07
3.19059e-05 -0.000309261 6.31459e-07
5.39902e-07 6.31459e-07 -0.000425629
-0.00051954 2.41021e-05 -9.65352e-07
2.41021e-05 -0.000375175 -2.29951e-06
-9.65352e-07 -2.29951e-06 -0.000557024
0.000903513 -3.61862e-06 -3.2124e-06
-3.61862e-06 0.000230861 -5.18229e-06
-3.2124e-06 -5.18229e-06 0.000111692
0.000938268 9.65047e-06 -4.95234e-07
9.65047e-06 0.000267347 -6.67934e-08
-4.95234e-07 -6.67934e-08 0.000114187
0.000796723 -5.75758e-05 -2.56037e-07
-5.75758e-05 0.000185917 -7.21664e-07
-2.56037e-07 -7.21664e-07 5.23469e-05
0.000864545 -4.20875e-05 1.74049e-07
-4.20875e-05 0.000199009 1.71576e-06
1.74049e-07 1.71576e-06 9.27135e-05
0.000827428 -5.40752e-05 2.61562e-07
-5.40752e-05 0.000194094 -6.54797e-07
2.61562e-07 -6.54797e-07 6.09853e-05
0.000756559 -3.43889e-06 -3.40426e-07
-3.43889e-06 0.000140054 -4.42607e-08
-3.40426e-07 -4.42607e-08 3.20355e-05
0.000363446 -5.08389e-05 5.68682e-07
-5.08389e-05 -8.72731e-05 1.59215e-06
5.68682e-07 1.59215e-06 -0.00018295
0.000604718 4.41709e-06 9.43709e-07
4.41709e-06 5.19544e-05 9.11788e-07
9.43709e-07 9.11788e-07 -5.32801e-05
0.000327943 -1.40388e-05 -2.9885e-06
-1.40388e-05 -8.69172e-05 -3.85149e-06
-2.9885e-06 -3.85149e-06 -0.00020873
0.000235001 -4.16408e-05 2.19244e-06
-4.16408e-05 -0.000159762 -1.36999e-06
2.19244e-06 -1.36999e-06 -0.000252029
0.000764472 -3.97446e-05 3.62826e-06
-3.97446e-05 0.000102274 -5.80479e-06
3.62826e-06 -5.80479e-06 5.01624e-06
1.61023e-05 -5.04818e-05 -1.74517e-08
-5.04818e-05 -0.000318605 1.40315e-06
-1.74517e-08 1.40315e-06 -0.00046976
0.000355559 3.85114e-06 -1.05761e-06
3.85114e-06 -9.45296e-05 -8.53166e-07
-1.05761e-06 -8.53166e-07 -0.000208002
0.000722687 -1.20749e-05 2.45784e-07
-1.20749e-05 0.000112215 2.22286e-07
2.45784e-07 2.22286e-07 2.67301e-06
0.000632066 -1.56573e-05 2.34567e-07
-1.56573e-05 6.17293e-05 8.18474e-07
2.34567e-07 8.18474e-07 -3.76958e-05
0.00071591 -3.30448e-05 -1.89263e-07
-3.30448e-05 0.000124913 -7.472e-08
-1.89263e-07 -7.472e-08 1.61753e-05
0.000561451 -2.82644e-07 -5.4839e-07
-2.82644e-07 1.66897e-05 1.10715e-06
-5.4839e-07 1.10715e-06 -6.8029e-05
0.000768248 -2.94753e-05 -4.97726e-08
-2.94753e-05 0.00015554 -2.00742e-07
-4.97726e-08 -2.00742e-07 4.45487e-05
0.000663473 -4.87215e-05 -5.05526e-07
-4.87215e-05 7.77436e-05 1.11936e-07
-5.05526e-07 1.11936e-07 -1.03231e-05
0.000554638 4.0054e-05 -7.67193e-07
4.0054e-05 -1.07309e-05 2.53869e-06
-7.67193e-07 2.53869e-06 -6.73093e-05
0.000533043 -7.25962e-05 1.7982e-06
-7.25962e-05 -4.53352e-06 -1.15332e-06
1.7982e-06 -1.15332e-06 -9.62912e-05
0.000590165 -5.83213e-06 -3.63882e-07
-5.83213e-06 1.09692e-05 1.92391e-09
-3.63882e-07 1.92391e-09 -4.37918e-05
0.001386 2.0521e-05 -4.9052e-06
2.0521e-05 0.000466349 5.68261e-06
-4.9052e-06 5.68261e-06 0.000453012
0.000578021 -2.80082e-05 1.10011e-06
-2.80082e-05 1.10233e-05 -2.25872e-06
1.10011e-06 -2.25872e-06 -4.55734e-05
0.000943413 8.62532e-06 -2.8392e-06
8.62532e-06 0.000202167 7.37059e-07
-2.8392e-06 7.37059e-07 0.000187438
0.000759608 1.46628e-05 1.13978e-09
1.46628e-05 8.81475e-05 2.02572e-06
1.13978e-09 2.02572e-06 9.53141e-05
0.000534114 2.16076e-07 8.25118e-07
2.16076e-07 -4.23657e-05 -3.86252e-06
8.25118e-07 -3.86252e-06 -5.90294e-05
0.00239784 1.38029e-05 4.47369e-06
1.38029e-05 0.00107254 5.92648e-08
4.47369e-06 5.92648e-08 0.00108755
0.00239115 1.92948e-06 -5.45813e-07
1.92948e-06 0.00106838 -5.27241e-06
-5.45813e-07 -5.27241e-06 0.00108351
0.000990959 7.19978e-05 -9.59095e-07
7.19978e-05 0.000282891 -5.62838e-07
-9.59095e-07 -5.62838e-07 0.000200114
0.000589446 3.88604e-05 -1.21305e-06
3.88604e-05 1.47662e-05 -2.01641e-06
-1.21305e-06 -2.01641e-06 -2.78954e-05
0.000628902 -1.00772e-05 5.86516e-07
-1.00772e-05 7.11204e-05 8.73424e-07
5.86516e-07 8.73424e-07 -1.25748e-05
0.000583404 3.40112e-06 3.44758e-07
3.40112e-06 -2.15642e-05 -3.27556e-06
3.44758e-07 -3.27556e-06 -2.85626e-05
0.000582033 -1.38001e-05 1.79232e-07
-1.38001e-05 7.25101e-06 -2.35774e-08
1.79232e-07 -2.35774e-08 -3.26748e-05
0.00060714 -3.57116e-05 -1.51127e-06
-3.57116e-05 1.98913e-05 1.22775e-06
-1.51127e-06 1.22775e-06 -2.06336e-05
0.00056565 7.83511e-06 -2.3991e-07
7.83511e-06 -3.20149e-05 -1.98982e-08
-2.3991e-07 -1.98982e-08 -3.89578e-05
0.00200557 1.51116e-05 2.58616e-06
1.51116e-05 0.000836885 -4.61005e-06
2.58616e-06 -4.61005e-06 0.000855733
0.00113776 2.10717e-05 -6.91403e-07
2.10717e-05 0.000312256 1.78936e-06
-6.91403e-07 1.78936e-06 0.000308049
0.00138881 2.38083e-05 6.45865e-07
2.38083e-05 0.000467829 2.00536e-09
6.45865e-07 2.00536e-09 0.000482436
0.000858284 2.83156e-05 -1.24282e-05
2.83156e-05 0.000153501 7.02108e-06
-1.24282e-05 7.02108e-06 0.000162933
-0.00867318 0.000501071 0.00023643
0.000501071 -0.0037439 1.56752e-06
0.00023643 1.56752e-06 -0.00485712
-0.00216237 -2.23495e-06 0.000327163
-2.23495e-06 0.00249189 -2.13502e-05
0.000327163 -2.13502e-05 0.000605685
0.00450597 0.000240252 -0.000226153
0.000240252 9.38396e-05 -1.90821e-05
-0.000226153 -1.90821e-05 0.000629526
0.000468386 4.59262e-05 2.71324e-05
4.59262e-05 -0.00105898 -1.55346e-05
2.71324e-05 -1.55346e-05 -0.000974682
0.00149662 -3.1852e-05 1.80991e-05
-3.1852e-05 -0.000204448 -1.68398e-08
1.80991e-05 -1.68398e-08 -0.000218035
-7.27705e-05 5.24766e-05 -2.09948e-05
5.24766e-05 -0.000851564 -8.61289e-06
-2.09948e-05 -8.61289e-06 -0.000718012
0.00269851 -0.000137808 -3.00438e-06
-0.000137808 0.000263891 4.40823e-06
-3.00438e-06 4.40823e-06 0.000231181
0.00957229 0.00010851 6.25965e-05
0.00010851 0.00121174 -3.50465e-05
6.25965e-05 -3.50465e-05 0.00016594
-0.00300671 0.00132703 -1.98189e-05
0.00132703 -0.000673794 -1.9302e-05
-1.98189e-05 -1.9302e-05 -0.00217075
-0.000283615 0.00258144 -0.000166744
0.00258144 0.00105371 9.07063e-05
-0.000166744 9.07063e-05 0.00179919
0.00193085 -0.000287389 6.82013e-05
-0.000287389 -0.000764901 -6.81298e-06
6.82013e-05 -6.81298e-06 -0.000726081
0.0129648 -0.000561199 0.000115191
-0.000561199 0.00324036 -3.13076e-05
0.000115191 -3.13076e-05 0.0017019
0.00445468 0.00249719 0.000163918
0.00249719 0.000601164 -0.00030442
0.000163918 -0.00030442 0.000793726
0.00806428 0.001815 -0.000238437
0.001815 0.00144222 0.000146035
-0.000238437 0.000146035 0.00121852
0.000719368 9.4614e-05 -2.42186e-06
9.4614e-05 0.000152285 1.63707e-06
-2.42186e-06 1.63707e-06 2.06459e-05
0.000478611 1.76427e-05 -1.31678e-07
1.76427e-05 -1.79511e-05 -7.5733e-07
-1.31678e-07 -7.5733e-07 -0.000110074
0.000663364 -8.95741e-05 -9.25518e-07
-8.95741e-05 9.3139e-05 9.03702e-07
-9.25518e-07 9.03702e-07 9.66647e-06
0.000554928 -7.66853e-06 1.02877e-06
-7.66853e-06 3.23873e-05 -5.27543e-07
1.02877e-06 -5.27543e-07 -6.71305e-05
0.000619443 5.73842e-05 9.90849e-07
5.73842e-05 9.17116e-05 1.37199e-06
9.90849e-07 1.37199e-06 -2.17984e-05
0.000782257 5.43376e-05 1.247e-07
5.43376e-05 0.00019098 3.15273e-06
1.247e-07 3.15273e-06 5.71611e-05
0.00074849 8.90729e-05 1.48766e-06
8.90729e-05 0.000153121 1.97079e-06
1.48766e-06 1.97079e-06 3.56084e-05
0.000607797 2.21757e-05 3.36839e-06
2.21757e-05 5.49886e-05 4.75567e-07
3.36839e-06 4.75567e-07 -6.18244e-05
0.000713446 -2.70623e-05 1.45782e-06
-2.70623e-05 0.000138896 -9.49251e-07
1.45782e-06 -9.49251e-07 2.60744e-05
0.000521092 -8.92744e-06 -1.56872e-07
-8.92744e-06 2.58583e-06 -5.24718e-07
-1.56872e-07 -5.24718e-07 -9.03675e-05
0.00167118 -0.000226058 2.12701e-05
-0.000226058 -0.000164859 3.59952e-09
2.12701e-05 3.59952e-09 -8.24584e-05
0.00133035 -0.000393124 2.73798e-05
-0.000393124 -0.000370804 -4.1318e-06
2.73798e-05 -4.1318e-06 -0.000359877
0.000154876 -0.000453201 1.59137e-05
-0.000453201 -0.000790625 3.36661e-06
1.59137e-05 3.36661e-06 -0.000935126
0.000121133 -0.000377511 8.08177e-06
-0.000377511 -0.000434367 -1.80052e-06
8.08177e-06 -1.80052e-06 -0.000672438
0.00262621 -0.00035023 4.51867e-06
-0.00035023 0.00140241 5.83143e-06
4.51867e-06 5.83143e-06 0.00100348
0.00089541 -0.000207046 3.90972e-06
-0.000207046 0.000318889 -1.90519e-06
3.90972e-06 -1.90519e-06 7.43459e-05
0.00103125 -0.000103338 1.238e-07
-0.000103338 0.000298018 -3.8937e-07
1.238e-07 -3.8937e-07 0.000186998
0.000714789 7.34703e-06 -1.59206e-06
7.34703e-06 0.000143817 1.7189e-06
-1.59206e-06 1.7189e-06 2.46059e-05
0.00212015 -0.000303654 6.9209e-06
-0.000303654 4.12765e-05 -3.71008e-06
6.9209e-06 -3.71008e-06 9.96619e-05
0.000673513 -6.74971e-05 -2.15059e-07
-6.74971e-05 0.000130151 -2.41237e-07
-2.15059e-07 -2.41237e-07 -2.24272e-05
0.00026419 -9.55375e-05 8.09458e-07
-9.55375e-05 -6.97571e-05 -2.01905e-06
8.09458e-07 -2.01905e-06 -0.000242351
0.00206808 -0.000541658 7.13496e-06
-0.000541658 0.000165737 -9.94845e-07
7.13496e-06 -9.94845e-07 0.000127415
0.00149174 -0.000630319 6.14401e-07
-0.000630319 -1.7868e-05 3.54491e-06
6.14401e-07 3.54491e-06 -0.000188403
0.000396459 -0.000357932 9.01407e-06
-0.000357932 -0.000145221 -4.72863e-06
9.01407e-06 -4.72863e-06 -0.000384688
0.00146753 -0.000184347 -9.31286e-07
-0.000184347 0.000780543 -4.81067e-06
-9.31286e-07 -4.81067e-06 0.000425169
0.00236314 -0.00048911 -3.53247e-05
-0.00048911 0.000565015 5.33477e-06
-3.53247e-05 5.33477e-06 0.000278533
0.00164948 -0.000502551 -4.43658e-05
-0.000502551 0.000214977 6.02287e-06
-4.43658e-05 6.02287e-06 0.000123779
0.00052497 -0.000274823 -3.3507e-05
-0.000274823 0.000103918 3.81234e-05
-3.3507e-05 3.81234e-05 -0.000178264
-0.000674854 -3.37507e-05 -3.01404e-07
-3.37507e-05 -0.000650615 2.91377e-06
-3.01404e-07 2.91377e-06 -0.000807036
0.000236678 -0.000114205 2.88384e-06
-0.000114205 -8.9325e-05 2.06968e-06
2.88384e-06 2.06968e-06 -0.000268559
0.000763083 -9.70222e-05 4.37114e-06
-9.70222e-05 0.000302119 -3.37269e-07
4.37114e-06 -3.37269e-07 4.04127e-05
-0.000165566 0.000363455 -0.000184824
0.000363455 0.00430528 6.7221e-06
-0.000184824 6.7221e-06 0.00216298
0.00156526 -0.0005199 1.45365e-05
-0.0005199 0.00140685 2.57035e-05
1.45365e-05 2.57035e-05 0.00138043
0.00120675 0.000804167 -6.32303e-05
0.000804167 -0.00332098 3.64305e-06
-6.32303e-05 3.64305e-06 -0.0037314
0.000564383 0.000166627 6.04684e-06
0.000166627 7.37701e-05 2.20659e-06
6.04684e-06 2.20659e-06 -7.72233e-05
0.00107291 0.000309404 7.41398e-06
0.000309404 0.000276046 1.14165e-05
7.41398e-06 1.14165e-05 3.48316e-05
0.00303325 0.000486392 3.22803e-05
0.000486392 0.000738962 1.10478e-05
3.22803e-05 1.10478e-05 0.000749672
0.00214936 0.000558873 1.86571e-05
0.000558873 0.000687224 1.3839e-05
1.86571e-05 1.3839e-05 0.000383339
0.00774861 -0.00103501 8.30463e-05
-0.00103501 0.00278135 4.25158e-05
8.30463e-05 4.25158e-05 0.00297346
0.00303234 0.000183119 -0.000175576
0.000183119 -0.00213981 -8.94242e-06
-0.000175576 -8.94242e-06 -0.00395354
0.00290009 0.001411 -6.04494e-05
0.001411 -0.000409762 -9.93709e-06
-6.04494e-05 -9.93709e-06 -0.00102982
0.000688268 0.000336772 2.75372e-05
0.000336772 -2.93147e-05 -2.46192e-05
2.75372e-05 -2.46192e-05 -2.92049e-05
-0.0032294 -0.00120813 -0.000143978
-0.00120813 -0.000679953 -0.000163126
-0.000143978 -0.000163126 -0.00137564
-0.000931043 -0.00107701 -0.00013795
-0.00107701 0.0018431 -2.54805e-05
-0.00013795 -2.54805e-05 -0.000788922
0.0107403 -0.00221844 0.000261442
-0.00221844 0.00160516 0.000190612
0.000261442 0.000190612 0.00241294
0.000626824 0.000140436 7.77928e-06
0.000140436 0.000127063 -2.52979e-06
7.77928e-06 -2.52979e-06 -1.8159e-05
-0.0024649 0.000134811 -9.74451e-05
0.000134811 0.00247862 -2.59241e-05
-9.74451e-05 -2.59241e-05 -0.000260445
0.00381413 0.000436644 -2.23712e-05
0.000436644 0.00202816 -9.04013e-05
-2.23712e-05 -9.04013e-05 -0.00127193
0.00131606 0.000452917 -3.79785e-06
0.000452917 0.000107901 4.9559e-06
-3.79785e-06 4.9559e-06 7.00548e-05
0.000567453 0.000312167 4.00166e-06
0.000312167 9.65272e-05 2.42229e-06
4.00166e-06 2.42229e-06 -0.000157127
-0.00050598 0.000329462 1.21203e-05
0.000329462 -0.00028719 -4.1315e-05
1.21203e-05 -4.1315e-05 -0.000604667
0.00509796 0.00164326 -7.51488e-06
0.00164326 0.00177517 7.67897e-06
-7.51488e-06 7.67897e-06 0.00120595
0.0126792 0.00114604 6.54053e-05
0.00114604 0.00428862 2.34357e-05
6.54053e-05 2.34357e-05 0.00222897
0.00473434 -0.00157693 3.10547e-05
-0.00157693 4.77593e-05 -5.08596e-05
3.10547e-05 -5.08596e-05 -0.000871516
0.0101983 -0.00136466 3.9409e-06
-0.00136466 0.00134917 -3.95668e-05
3.9409e-06 -3.95668e-05 0.00257399
0.000582286 0.000205842 -8.3752e-06
0.000205842 0.000152746 -1.1859e-05
-8.3752e-06 -1.1859e-05 1.17981e-05
0.00295256 0.00011091 -0.000138978
0.00011091 0.00119141 -2.9342e-05
-0.000138978 -2.9342e-05 -0.000868115
7.58299e-05 0.000135699 -3.46398e-05
0.000135699 2.61301e-05 -0.000103865
-3.46398e-05 -0.000103865 -0.00152551
-0.000902716 9.74943e-05 -1.02568e-05
9.74943e-05 -0.000410066 -1.78693e-05
-1.02568e-05 -1.78693e-05 -0.000578759
0.00127003 0.000377773 -4.88922e-05
0.000377773 0.000972396 4.02639e-05
-4.88922e-05 4.02639e-05 0.000249181
0.0100518 0.0016003 4.69595e-05
0.0016003 0.00392098 1.29503e-06
4.69595e-05 1.29503e-06 0.000729955
-0.00672676 -0.00229221 -3.94026e-05
-0.00229221 -0.00338789 0.000142936
-3.94026e-05 0.000142936 -0.00580748
0.00826349 0.000481881 2.57819e-05
0.000481881 -0.00106076 -0.000199775
2.57819e-05 -0.000199775 0.00107606
0.00096911 0.000119586 1.99865e-06
0.000119586 0.000276142 7.66046e-06
1.99865e-06 7.66046e-06 0.000173329
0.00102947 0.000143912 -6.04429e-06
0.000143912 0.000405706 -1.2269e-06
-6.04429e-06 -1.2269e-06 0.000278317
0.000338635 8.77541e-05 -1.69247e-06
8.77541e-05 0.000170946 -6.59448e-06
-1.69247e-06 -6.59448e-06 -3.23271e-05
0.000748227 7.95089e-05 -2.58346e-06
7.95089e-05 0.000142812 -1.45787e-06
-2.58346e-06 -1.45787e-06 1.71288e-05
0.000842048 -2.88674e-05 -1.13682e-06
-2.88674e-05 0.000198693 1.60511e-06
-1.13682e-06 1.60511e-06 6.32253e-05
0.000441421 3.56614e-05 1.33798e-06
3.56614e-05 -5.41459e-05 2.34404e-06
1.33798e-06 2.34404e-06 -0.000163758
-0.000151291 2.77467e-05 1.84494e-06
2.77467e-05 -0.000309122 4.38082e-06
1.84494e-06 4.38082e-06 -0.00042709
0.0008043 -6.75705e-06 1.12143e-06
-6.75705e-06 0.000168937 1.50677e-07
1.12143e-06 1.50677e-07 3.06159e-05
0.000822049 2.5653e-05 1.9145e-07
2.5653e-05 0.000187377 -1.05551e-06
1.9145e-07 -1.05551e-06 6.59933e-05
0.000268369 -5.86498e-06 1.58075e-06
-5.86498e-06 8.89275e-05 2.06314e-06
1.58075e-06 2.06314e-06 -9.87141e-05
-0.000941639 9.25277e-06 -1.73521e-06
9.25277e-06 -0.000378323 1.37413e-06
-1.73521e-06 1.37413e-06 -0.000659135
0.000927041 4.50841e-07 -2.44521e-06
4.50841e-07 0.000410426 -6.95984e-06
-2.44521e-06 -6.95984e-06 0.000249375
0.000882835 3.61373e-05 -1.81683e-06
3.61373e-05 0.000223825 -3.19678e-06
-1.81683e-06 -3.19678e-06 8.57092e-05
0.000887022 -0.000114283 1.62092e-06
-0.000114283 0.000217246 9.28797e-07
1.62092e-06 9.28797e-07 9.08027e-05
0.000738373 -3.27867e-06 -3.57354e-07
-3.27867e-06 0.000123866 -1.11773e-07
-3.57354e-07 -1.11773e-07 1.80707e-05
0.000582669 -6.02535e-05 -1.12276e-06
-6.02535e-05 4.92749e-05 4.08363e-06
-1.12276e-06 4.08363e-06 -4.4603e-05
0.000439164 -3.16453e-05 2.0425e-06
-3.16453e-05 -3.3815e-05 1.53418e-06
2.0425e-06 1.53418e-06 -0.00014731
0.000702615 -4.56534e-07 3.17557e-07
-4.56534e-07 0.000109883 -9.54984e-08
3.17557e-07 -9.54984e-08 2.79567e-06
0.000570907 -3.2416e-05 -6.77283e-07
-3.2416e-05 3.63663e-05 -1.97426e-07
-6.77283e-07 -1.97426e-07 -5.42484e-05
0.00101897 -3.18087e-05 -9.29872e-07
-3.18087e-05 0.000274672 -3.08547e-06
-9.29872e-07 -3.08547e-06 0.000178211
-2.39915e-06 -4.00879e-05 4.07933e-06
-4.00879e-05 -0.000226541 -4.86574e-06
4.07933e-06 -4.86574e-06 -0.000310827
0.000357432 -0.000109504 7.30312e-07
-0.000109504 -0.000195084 -3.95801e-07
7.30312e-07 -3.95801e-07 -0.000291973
0.000772706 -6.99982e-05 -2.94835e-06
-6.99982e-05 0.000113942 -3.9505e-07
-2.94835e-06 -3.9505e-07 1.15623e-05
0.000506164 -0.00010804 5.01681e-06
-0.00010804 -3.91456e-05 3.47909e-06
5.01681e-06 3.47909e-06 -0.000183054
0.00120597 -0.000255827 -2.20201e-06
-0.000255827 0.000327134 8.28908e-06
-2.20201e-06 8.28908e-06 9.87526e-05
0.00136834 -0.000131737 1.04027e-06
-0.000131737 0.000512519 -1.04601e-06
1.04027e-06 -1.04601e-06 0.000370351
0.000284331 -8.28662e-05 -2.09527e-06
-8.28662e-05 -0.000143986 -4.97817e-06
-2.09527e-06 -4.97817e-06 -0.000296991
0.000665338 -1.53922e-05 -2.2772e-07
-1.53922e-05 7.81426e-05 1.06568e-07
-2.2772e-07 1.06568e-07 -3.39088e-05
0.000360726 -4.65556e-06 -6.34743e-09
-4.65556e-06 -8.72493e-05 1.68095e-09
-6.34743e-09 1.68095e-09 -0.000195586
0.000859677 -2.59129e-05 -6.83176e-07
-2.59129e-05 0.000191457 8.58069e-07
-6.83176e-07 8.58069e-07 7.94897e-05
0.000730713 -4.3571e-05 -5.55005e-07
-4.3571e-05 0.000130847 6.72531e-07
-5.55005e-07 6.72531e-07 2.09865e-05
0.000598702 -2.40816e-05 -5.24494e-07
-2.40816e-05 3.36358e-05 1.17548e-06
-5.24494e-07 1.17548e-06 -5.03838e-05
0.000848639 -6.33224e-05 -4.00718e-07
-6.33224e-05 0.000216797 -1.02155e-06
-4.00718e-07 -1.02155e-06 9.61381e-05
0.000671865 -5.62856e-05 -6.13425e-07
-5.62856e-05 8.33863e-05 -4.2684e-08
-6.13425e-07 -4.2684e-08 -4.05653e-06
0.000577806 2.86621e-05 -2.02649e-06
2.86621e-05 1.89007e-06 2.02583e-06
-2.02649e-06 2.02583e-06 -5.50311e-05
0.000706123 -8.78581e-05 1.91794e-06
-8.78581e-05 0.000106186 -1.38393e-06
1.91794e-06 -1.38393e-06 1.51229e-05
0.0006358 -1.61829e-05 -2.62326e-07
-1.61829e-05 3.35694e-05 4.73763e-08
-2.62326e-07 4.73763e-08 -2.08895e-05
0.0013779 3.06956e-05 -7.6601e-06
3.06956e-05 0.000461014 5.69547e-06
-7.6601e-06 5.69547e-06 0.000447121
0.000605551 -3.49435e-05 2.06801e-06
-3.49435e-05 2.28417e-05 -2.32567e-06
2.06801e-06 -2.32567e-06 -3.37228e-05
0.000949284 1.76727e-05 -3.78631e-06
1.76727e-05 0.000204127 7.16829e-07
-3.78631e-06 7.16829e-07 0.000188906
0.000772655 2.34783e-05 -2.45033e-07
2.34783e-05 9.83269e-05 2.18013e-06
-2.45033e-07 2.18013e-06 0.000104091
0.000533849 5.73451e-06 5.13416e-07
5.73451e-06 -4.46143e-05 -3.97103e-06
5.13416e-07 -3.97103e-06 -6.122e-05
0.00156814 2.33341e-05 5.95905e-06
2.33341e-05 0.000574728 -1.50122e-06
5.95905e-06 -1.50122e-06 0.00058561
0.00237858 1.62444e-05 4.4646e-06
1.62444e-05 0.00106106 -5.17806e-06
4.4646e-06 -5.17806e-06 0.00107609
0.000683957 1.32843e-05 1.4798e-06
1.32843e-05 8.97335e-05 -1.27279e-06
1.4798e-06 -1.27279e-06 3.41412e-06
0.000638212 3.48226e-05 -7.03828e-07
3.48226e-05 4.09856e-05 -1.86235e-06
-7.03828e-07 -1.86235e-06 -3.61816e-06
0.000686353 -3.45939e-06 1.20995e-06
-3.45939e-06 9.85182e-05 3.60338e-07
1.20995e-06 3.60338e-07 1.6269e-05
0.00057032 -1.97685e-06 4.98764e-07
-1.97685e-06 -2.84096e-05 -3.48375e-06
4.98764e-07 -3.48375e-06 -3.63163e-05
0.000583035 2.75552e-05 8.49201e-08
2.75552e-05 8.91856e-06 -3.17594e-08
8.49201e-08 -3.17594e-08 -3.25369e-05
0.000646922 -9.34247e-05 -3.5232e-06
-9.34247e-05 7.59265e-05 1.36094e-06
-3.5232e-06 1.36094e-06 -3.47665e-06
0.00202139 2.30403e-06 -2.20941e-06
2.30403e-06 0.000844983 -4.73356e-06
-2.20941e-06 -4.73356e-06 0.000864142
0.000564711 2.8894e-06 -1.81872e-07
2.8894e-06 -3.22802e-05 -3.22189e-09
-1.81872e-07 -3.22189e-09 -3.92728e-05
0.000583297 -2.02237e-05 -1.60024e-06
-2.02237e-05 6.43413e-06 1.60209e-06
-1.60024e-06 1.60209e-06 -3.25759e-05
0.000547511 7.48592e-06 -6.37835e-07
7.48592e-06 -4.28927e-05 3.13626e-06
-6.37835e-07 3.13626e-06 -4.97905e-05
0.00202994 1.6615e-05 -4.02496e-06
1.6615e-05 0.000851695 -5.17489e-08
-4.02496e-06 -5.17489e-08 0.00087039
0.00201349 2.88792e-05 -9.17893e-06
2.88792e-05 0.00084406 4.32981e-06
-9.17893e-06 4.32981e-06 0.000862128
-0.00485659 -0.000509935 -6.09647e-05
-0.000509935 0.00199136 2.34045e-05
-6.09647e-05 2.34045e-05 -0.000562038
-0.000347297 0.000586249 -0.000101596
0.000586249 -0.000319185 2.37774e-05
-0.000101596 2.37774e-05 -0.00101532
0.00341051 -0.000468783 -0.000304183
-0.000468783 0.00116171 0.000183427
-0.000304183 0.000183427 -0.00179159
-0.00310155 7.32748e-05 0.000441844
7.32748e-05 0.00253709 -0.0001847
0.000441844 -0.0001847 0.000615101
0.000354686 0.000296383 -1.75756e-05
0.000296383 -0.00129079 2.04813e-06
-1.75756e-05 2.04813e-06 -0.00117917
0.00250589 -0.000193314 0.0001009
-0.000193314 7.0774e-05 -8.59492e-06
0.0001009 -8.59492e-06 7.12874e-05
0.00103938 -0.000397564 7.78395e-06
-0.000397564 -0.00242616 -7.30444e-05
7.78395e-06 -7.30444e-05 -0.00402513
0.0116183 0.00130127 -0.000178011
0.00130127 0.00558222 -1.19848e-05
-0.000178011 -1.19848e-05 0.00470106
-0.00728982 0.00291363 -0.000772265
0.00291363 -0.00297617 0.000597747
-0.000772265 0.000597747 -0.00172908
0.0029202 -0.000157777 -1.49468e-06
-0.000157777 -0.000273153 -4.32901e-06
-1.49468e-06 -4.32901e-06 -0.000292232
0.00542153 -0.000617159 6.31414e-05
-0.000617159 -0.000289609 -6.32918e-05
6.31414e-05 -6.32918e-05 -0.00248676
0.0122235 0.00234883 -0.00010661
0.00234883 0.00368973 -8.96345e-05
-0.00010661 -8.96345e-05 0.00393157
0.00493428 0.00180503 -7.79126e-05
0.00180503 -0.000740752 0.000201479
-7.79126e-05 0.000201479 -0.000916288
0.00276519 -0.000784296 -7.58071e-05
-0.000784296 -0.000939255 2.04226e-05
-7.58071e-05 2.04226e-05 -0.000765433
0.00304252 -0.00118404 0.000216259
-0.00118404 2.07401e-05 -0.000143072
0.000216259 -0.000143072 -0.00341561
-0.00359903 0.00141595 -7.40879e-05
0.00141595 -0.00367204 -0.000377814
-7.40879e-05 -0.000377814 -0.00418212
0.00461299 0.000951591 -9.97121e-05
0.000951591 -0.00297367 5.64088e-06
-9.97121e-05 5.64088e-06 -0.00171447
0.00112805 -3.97892e-05 7.77291e-07
-3.97892e-05 0.000413929 5.236e-06
7.77291e-07 5.236e-06 0.000254618
0.000661749 8.15042e-05 -1.72438e-06
8.15042e-05 0.000109402 -1.39243e-06
-1.72438e-06 -1.39243e-06 -1.38484e-05
0.000624214 6.99718e-05 1.83282e-07
6.99718e-05 6.39308e-05 -1.5049e-06
1.83282e-07 -1.5049e-06 -2.40167e-05
0.00065565 6.21807e-05 3.92927e-06
6.21807e-05 0.000116693 6.97119e-07
3.92927e-06 6.97119e-07 4.08924e-06
0.000627896 5.29949e-05 1.62677e-06
5.29949e-05 8.62846e-05 1.99262e-06
1.62677e-06 1.99262e-06 -6.48568e-05
0.000705491 6.04256e-05 -2.23818e-07
6.04256e-05 0.000142149 1.50091e-06
-2.23818e-07 1.50091e-06 1.39992e-05
0.000580379 3.22123e-05 6.70301e-07
3.22123e-05 5.48895e-05 -4.05051e-07
6.70301e-07 -4.05051e-07 -6.01122e-05
0.000877689 0.000132897 1.59015e-06
0.000132897 0.000239842 2.29799e-06
1.59015e-06 2.29799e-06 9.94083e-05
0.000841272 8.52722e-05 -1.1121e-07
8.52722e-05 0.00021913 3.45262e-07
-1.1121e-07 3.45262e-07 8.62267e-05
0.000500436 -1.15344e-05 -3.35344e-06
-1.15344e-05 9.46296e-06 -2.09022e-06
-3.35344e-06 -2.09022e-06 -0.00010351
0.000662638 -0.000229798 4.39933e-05
-0.000229798 -0.000715523 -1.74817e-05
4.39933e-05 -1.74817e-05 -0.000636819
0.00100755 -0.000485483 3.61473e-05
-0.000485483 -0.000395806 -4.67613e-06
3.61473e-05 -4.67613e-06 -0.000437273
0.00177716 -0.000662296 1.70313e-05
-0.000662296 0.000117138 4.64643e-06
1.70313e-05 4.64643e-06 -5.16931e-05
0.000249625 -0.000398399 9.72321e-06
-0.000398399 -0.000224996 -1.58394e-05
9.72321e-06 -1.58394e-05 -0.000501039
0.0020867 -0.000225338 -2.49433e-06
-0.000225338 0.00107366 1.54963e-05
-2.49433e-06 1.54963e-05 0.00076053
0.000600621 -0.000101046 -1.13241e-06
-0.000101046 0.000131825 1.66623e-06
-1.13241e-06 1.66623e-06 -4.71981e-05
0.000450133 7.92858e-05 -3.25342e-07
7.92858e-05 2.96711e-06 -4.19781e-06
-3.25342e-07 -4.19781e-06 -0.000152154
0.000651829 -6.47155e-05 -6.33229e-07
-6.47155e-05 0.000133894 3.6092e-06
-6.33229e-07 3.6092e-06 -4.1381e-05
0.00125253 -0.000373031 3.79283e-07
-0.000373031 -0.000103496 -1.58976e-06
3.79283e-07 -1.58976e-06 -0.000258704
0.000679397 -2.95728e-05 5.16321e-08
-2.95728e-05 0.000154457 1.65601e-06
5.16321e-08 1.65601e-06 -2.29862e-05
0.00151963 -0.000160333 -2.38231e-07
-0.000160333 0.000740777 -7.83511e-07
-2.38231e-07 -7.83511e-07 0.000471789
0.00165091 -0.000511428 1.5293e-06
-0.000511428 0.00017519 2.99203e-06
1.5293e-06 2.99203e-06 0.000102181
0.00087879 -0.000348102 -1.52625e-05
-0.000348102 0.000261834 4.77426e-06
-1.52625e-05 4.77426e-06 -2.04017e-05
0.00105982 -0.000636178 -5.4929e-06
-0.000636178 -0.000240699 -2.57474e-05
-5.4929e-06 -2.57474e-05 -0.000250889
0.00135459 -0.000297004 -1.77445e-05
-0.000297004 0.00053087 1.42615e-05
-1.77445e-05 1.42615e-05 0.000404558
-0.0007045 -4.80865e-05 1.41627e-06
-4.80865e-05 -0.000451821 1.88047e-05
1.41627e-06 1.88047e-05 -0.000765572
0.00071753 1.23223e-05 -7.65655e-07
1.23223e-05 0.000145163 -3.82999e-06
-7.65655e-07 -3.82999e-06 -1.27484e-05
0.000701555 4.1196e-05 3.22838e-06
4.1196e-05 0.000253022 8.61273e-07
3.22838e-06 8.61273e-07 2.0081e-05
0.00176793 -4.93764e-05 -2.10774e-05
-4.93764e-05 0.00132202 -7.44878e-06
-2.10774e-05 -7.44878e-06 -0.000680549
-0.00309648 0.000136116 -0.000148873
0.000136116 0.0034014 -5.88121e-06
-0.000148873 -5.88121e-06 0.00079809
-0.0103148 -0.000764971 -0.000332494
-0.000764971 -0.0054254 8.29345e-07
-0.000332494 8.29345e-07 -0.0051902
-0.000299092 0.000100416 6.40684e-06
0.000100416 -0.000384113 -1.81668e-06
6.40684e-06 -1.81668e-06 -0.000541892
-0.00048588 0.000196774 1.34676e-06
0.000196774 -0.000445633 5.25797e-06
1.34676e-06 5.25797e-06 -0.000703178
0.00153306 0.000453017 2.41581e-05
0.000453017 0.000215583 8.39976e-06
2.41581e-05 8.39976e-06 0.000187464
-0.00415423 0.000617461 -1.55275e-05
0.000617461 0.00196797 2.15278e-05
-1.55275e-05 2.15278e-05 -0.000814807
0.00146597 0.00101183 -0.000104
0.00101183 -0.000100796 -0.000107689
-0.000104 -0.000107689 -0.00361327
0.00286825 0.00121001 0.000193102
0.00121001 0.000535014 4.95918e-05
0.000193102 4.95918e-05 0.000145268
0.000181721 0.000376422 9.06652e-06
0.000376422 -7.82995e-05 -3.04943e-05
9.06652e-06 -3.04943e-05 -0.000150504
0.0137716 -0.0017043 -1.75613e-05
-0.0017043 0.00398827 -0.00013911
-1.75613e-05 -0.00013911 0.00343982
0.00422218 0.000478342 0.00017234
0.000478342 0.00205747 7.93555e-05
0.00017234 7.93555e-05 -0.0013839
0.0103467 -0.0012037 6.77684e-05
-0.0012037 0.00158593 1.96455e-05
6.77684e-05 1.96455e-05 0.00286216
0.000787169 0.000218721 1.96516e-06
0.000218721 0.000325602 -2.25993e-06
1.96516e-06 -2.25993e-06 0.000175504
0.00362423 0.0001321 1.12349e-05
0.0001321 0.00173135 2.51223e-06
1.12349e-05 2.51223e-06 7.09437e-05
0.000662374 0.000154456 1.98633e-05
0.000154456 8.7321e-05 1.03411e-05
1.98633e-05 1.03411e-05 -0.00150517
-0.000355444 0.00023152 -6.04419e-06
0.00023152 -0.000189431 -1.72614e-06
-6.04419e-06 -1.72614e-06 -0.000402826
0.0019958 0.000659237 -8.19855e-05
0.000659237 0.00107698 -4.01102e-05
-8.19855e-05 -4.01102e-05 0.000165279
0.00281219 0.00192321 9.1895e-05
0.00192321 0.00102403 6.28284e-05
9.1895e-05 6.28284e-05 -0.00234339
0.00632285 0.000182025 -1.17066e-05
0.000182025 -0.00265952 -0.000128858
-1.17066e-05 -0.000128858 -0.000201099
0.0024319 -0.00141375 -3.95248e-05
-0.00141375 0.000765223 -5.57975e-05
-3.95248e-05 -5.57975e-05 -0.00126494
0.000971566 0.000178429 -5.35273e-06
0.000178429 0.00062969 -1.25405e-05
-5.35273e-06 -1.25405e-05 0.000454791
7.37414e-05 -4.75079e-05 -2.09525e-06
-4.75079e-05 -1.31677e-05 -6.20571e-06
-2.09525e-06 -6.20571e-06 3.73028e-05
0.0028764 2.43263e-05 3.53285e-05
2.43263e-05 0.000188965 -9.56408e-05
3.53285e-05 -9.56408e-05 -0.000918982
0.00469407 0.000990969 0.000106257
0.000990969 -0.0028236 -1.23525e-05
0.000106257 -1.23525e-05 -0.00170881
-0.000792534 0.000122285 -4.24364e-07
0.000122285 1.40451e-05 -1.93656e-05
-4.24364e-07 -1.93656e-05 -0.000544555
0.0107131 0.00147684 0.000142221
0.00147684 0.00519253 5.07067e-05
0.000142221 5.07067e-05 0.00134496
-0.00841698 -0.000413617 7.52948e-05
-0.000413617 -0.000283908 0.000225633
7.52948e-05 0.000225633 -0.00245213
0.0023106 0.000255585 1.91697e-05
0.000255585 0.00116755 1.34725e-05
1.91697e-05 1.34725e-05 0.00102176
0.00071891 0.000141549 -4.83734e-06
0.000141549 0.000366625 -2.11168e-06
-4.83734e-06 -2.11168e-06 0.000152499
-5.87593e-05 6.89087e-05 -2.33575e-06
6.89087e-05 0.000132312 -8.7305e-07
-2.33575e-06 -8.7305e-07 -0.000108674
0.000724772 0.000138846 4.18784e-07
0.000138846 0.00013403 1.66764e-07
4.18784e-07 1.66764e-07 -1.10276e-05
0.000615618 6.6847e-05 1.03768e-06
6.6847e-05 6.18083e-05 2.10174e-06
1.03768e-06 2.10174e-06 -5.59766e-05
0.000574947 2.30988e-06 7.02241e-06
2.30988e-06 0.000293946 6.77643e-06
7.02241e-06 6.77643e-06 8.50227e-05
0.000657453 4.64364e-05 -2.83751e-07
4.64364e-05 8.71456e-05 -3.94773e-07
-2.83751e-07 -3.94773e-07 -4.34716e-05
0.000815272 -1.72357e-05 -1.75761e-06
-1.72357e-05 0.000350755 -2.20056e-06
-1.75761e-06 -2.20056e-06 0.00018518
-0.000393331 3.35677e-05 3.69727e-06
3.35677e-05 -7.33714e-05 5.88574e-06
3.69727e-06 5.88574e-06 -0.000358189
0.000651702 1.29231e-06 -6.22444e-06
1.29231e-06 0.000409423 -5.62651e-06
-6.22444e-06 -5.62651e-06 0.000266596
0.00024872 -4.17261e-05 -3.10933e-06
-4.17261e-05 1.90928e-06 -7.53534e-06
-3.10933e-06 -7.53534e-06 -0.000139568
0.000601004 -5.40069e-05 3.29158e-06
-5.40069e-05 4.83716e-05 4.47089e-06
3.29158e-06 4.47089e-06 -5.55654e-05
0.000802277 -8.89475e-07 -9.33417e-07
-8.89475e-07 0.000168167 -1.63512e-07
-9.33417e-07 -1.63512e-07 5.96483e-05
0.00100627 -3.0484e-05 -7.63596e-06
-3.0484e-05 0.000290485 5.61988e-06
-7.63596e-06 5.61988e-06 0.00020081
0.000685101 -5.05452e-05 4.14531e-06
-5.05452e-05 0.000162558 -4.93226e-07
4.14531e-06 -4.93226e-07 7.74534e-05
0.000574577 -2.19092e-05 -1.089e-06
-2.19092e-05 2.07639e-05 8.94966e-08
-1.089e-06 8.94966e-08 -7.67572e-05
0.000787908 -9.64859e-05 2.77167e-06
-9.64859e-05 0.000176298 -2.2989e-07
2.77167e-06 -2.2989e-07 7.60346e-05
0.000402005 -9.42715e-05 -2.55305e-06
-9.42715e-05 -0.000132877 -1.01338e-06
-2.55305e-06 -1.01338e-06 -0.000214849
-0.000307764 -0.000160789 7.69536e-06
-0.000160789 -0.000521931 1.96371e-06
7.69536e-06 1.96371e-06 -0.000705848
0.000812318 -9.89035e-05 -1.04149e-07
-9.89035e-05 0.000144305 9.47531e-07
-1.04149e-07 9.47531e-07 3.62857e-05
0.00118663 -0.000180185 -7.63969e-07
-0.000180185 0.000349801 3.00065e-06
-7.63969e-07 3.00065e-06 0.000190541
0.000931667 -0.000263821 -4.56806e-06
-0.000263821 0.000124955 5.03377e-06
-4.56806e-06 5.03377e-06 -0.000108232
0.000969835 -0.000244107 -4.70141e-06
-0.000244107 0.000143872 5.34081e-07
-4.70141e-06 5.34081e-07 -8.51843e-05
0.00104105 -0.000197191 -2.5543e-06
-0.000197191 0.000332737 5.16495e-06
-2.5543e-06 5.16495e-06 0.000145566
0.000345929 -0.000166003 2.33711e-06
-0.000166003 -0.000175926 -2.83102e-08
2.33711e-06 -2.83102e-08 -0.000386093
0.000911922 -8.20839e-05 1.15561e-06
-8.20839e-05 0.000239172 -6.10296e-07
1.15561e-06 -6.10296e-07 0.000109815
0.00104787 -0.000122189 -1.57407e-06
-0.000122189 0.000333913 -3.9696e-07
-1.57407e-06 -3.9696e-07 0.000187591
0.000438416 -0.000105615 4.72997e-06
-0.000105615 -3.80677e-05 -1.12786e-05
4.72997e-06 -1.12786e-05 -0.000190319
0.000958878 -3.50478e-05 -8.64935e-08
-3.50478e-05 0.000241441 -7.57985e-08
-8.64935e-08 -7.57985e-08 0.000130924
0.000463932 -1.46325e-05 4.01757e-07
-1.46325e-05 -2.4526e-05 -1.47969e-07
4.01757e-07 -1.47969e-07 -0.00013512
0.000610958 -1.34406e-05 -3.42297e-07
-1.34406e-05 4.01374e-05 8.74399e-07
-3.42297e-07 8.74399e-07 -4.94705e-05
0.0007957 -6.16526e-05 -2.72797e-07
-6.16526e-05 0.000179498 -4.55929e-08
-2.72797e-07 -4.55929e-08 5.99827e-05
0.000669818 -3.86993e-05 -8.21412e-08
-3.86993e-05 8.42804e-05 4.78062e-08
-8.21412e-08 4.78062e-08 -6.84476e-06
0.000579972 2.82277e-05 -2.99482e-07
2.82277e-05 8.35578e-06 2.1297e-06
-2.99482e-07 2.1297e-06 -5.31961e-05
0.000734878 -7.18902e-05 5.0282e-07
-7.18902e-05 0.000128599 -1.50417e-06
5.0282e-07 -1.50417e-06 3.49549e-05
0.00060367 1.98484e-05 -1.06313e-06
1.98484e-05 1.79936e-05 -7.67705e-08
-1.06313e-06 -7.67705e-08 -3.98254e-05
0.00133855 4.4252e-05 -8.6558e-06
4.4252e-05 0.000440551 3.80718e-06
-8.6558e-06 3.80718e-06 0.000425534
0.000640494 -2.77496e-05 2.33064e-06
-2.77496e-05 3.77657e-05 -2.37673e-06
2.33064e-06 -2.37673e-06 -1.77476e-05
0.000933084 2.75173e-05 -4.76679e-06
2.75173e-05 0.000194282 6.25755e-07
-4.76679e-06 6.25755e-07 0.000178476
0.000799147 3.24453e-05 -8.78901e-07
3.24453e-05 0.000117197 2.25925e-06
-8.78901e-07 2.25925e-06 0.000121705
0.00051964 1.33812e-05 8.15193e-07
1.33812e-05 -5.51027e-05 -4.23423e-06
8.15193e-07 -4.23423e-06 -7.20208e-05
0.00158168 3.51352e-05 8.13416e-06
3.51352e-05 0.000585066 -1.35012e-06
8.13416e-06 -1.35012e-06 0.000594758
0.00237165 3.13186e-05 7.98004e-06
3.13186e-05 0.00105825 -5.13001e-06
7.98004e-06 -5.13001e-06 0.00107267
0.000429265 6.97412e-06 1.00616e-06
6.97412e-06 -5.1241e-05 -3.76114e-07
1.00616e-06 -3.76114e-07 -0.00015726
0.000301973 5.74955e-06 8.63477e-09
5.74955e-06 -0.000159947 -3.22397e-06
8.63477e-09 -3.22397e-06 -0.000212765
0.000726241 2.32077e-05 1.2166e-08
2.32077e-05 0.000121063 1.22648e-07
1.2166e-08 1.22648e-07 2.9954e-05
0.000565553 -6.47192e-06 4.091e-07
-6.47192e-06 -3.11241e-05 -3.63124e-06
4.091e-07 -3.63124e-06 -4.07489e-05
0.000433757 2.09365e-06 1.19339e-06
2.09365e-06 -8.25725e-05 -6.45857e-08
1.19339e-06 -6.45857e-08 -0.000127546
0.000424814 -8.36045e-05 -1.49911e-06
-8.36045e-05 -5.67399e-05 7.09877e-07
-1.49911e-06 7.09877e-07 -0.000141723
0.00208934 -1.09901e-05 -6.63276e-06
-1.09901e-05 0.000885807 -4.78151e-06
-6.63276e-06 -4.78151e-06 0.000904398
0.00056501 -2.11249e-06 -1.02804e-07
-2.11249e-06 -3.18078e-05 -4.63133e-08
-1.02804e-07 -4.63133e-08 -3.96042e-05
0.000560578 -1.61956e-05 -1.74492e-06
-1.61956e-05 -6.26522e-06 1.86632e-06
-1.74492e-06 1.86632e-06 -4.65076e-05
0.00203582 3.70054e-06 -3.97452e-06
3.70054e-06 0.000853819 1.36508e-08
-3.97452e-06 1.36508e-08 0.000872898
0.000547861 2.58346e-06 -5.30565e-07
2.58346e-06 -4.1891e-05 3.25727e-06
-5.30565e-07 3.25727e-06 -4.88863e-05
0.00202343 1.80084e-05 -2.15859e-06
1.80084e-05 0.000847897 4.52644e-06
-2.15859e-06 4.52644e-06 0.000866553
0.000323491 -0.00022168 -0.000111757
-0.00022168 -0.000214633 3.20102e-05
-0.000111757 3.20102e-05 -0.00189806
0.00137147 0.00018969 -3.5148e-05
0.00018969 0.00391034 -6.05762e-06
-3.5148e-05 -6.05762e-06 0.00221832
0.0010596 -0.000341524 -0.000320929
-0.000341524 0.00220279 1.71052e-05
-0.000320929 1.71052e-05 0.00114884
0.000756303 8.62392e-05 2.19591e-06
8.62392e-05 0.000145543 7.97859e-07
2.19591e-06 7.97859e-07 1.03488e-05
0.00346328 -0.000297363 -2.38417e-05
-0.000297363 0.00235951 0.000107709
-2.38417e-05 0.000107709 0.000907019
0.00365193 -0.000532557 -0.00012286
-0.000532557 0.00132397 8.27269e-06
-0.00012286 8.27269e-06 -0.00180069
0.00298688 0.000843267 0.000217322
0.000843267 0.00382922 -0.000179682
0.000217322 -0.000179682 0.00237941
0.00428343 -0.000290953 3.59192e-05
-0.000290953 0.000316612 -3.69753e-05
3.59192e-05 -3.69753e-05 4.91983e-05
0.0118625 -0.00060493 0.000133889
-0.00060493 0.00284724 -6.83132e-05
0.000133889 -6.83132e-05 0.00123753
-0.00113781 0.00195825 -0.000173873
0.00195825 -0.00340078 0.000180074
-0.000173873 0.000180074 -0.00295006
0.0060989 0.0019309 3.55605e-05
0.0019309 0.000480542 5.89228e-05
3.55605e-05 5.89228e-05 -4.93729e-05
0.00504183 -0.00092184 -9.40036e-05
-0.00092184 0.000195515 -1.81596e-06
-9.40036e-05 -1.81596e-06 -9.61719e-05
0.0115458 -0.00108806 5.6548e-05
-0.00108806 0.00398525 -1.56684e-05
5.6548e-05 -1.56684e-05 0.0018221
0.00727867 0.00127077 8.17479e-05
0.00127077 0.000806443 -0.000145159
8.17479e-05 -0.000145159 9.23859e-05
0.00628744 0.000883413 1.11542e-06
0.000883413 -0.00155391 1.32745e-05
1.11542e-06 1.32745e-05 -0.000643977
0.0031986 -0.00134688 1.5289e-05
-0.00134688 7.54699e-05 5.75704e-06
1.5289e-05 5.75704e-06 -0.000634104
0.0116555 -0.00169788 0.000103135
-0.00169788 0.00538289 -5.56357e-05
0.000103135 -5.56357e-05 0.00162537
0.00405033 -9.88735e-05 8.0337e-05
-9.88735e-05 0.000774695 -0.000218903
8.0337e-05 -0.000218903 1.79279e-05
0.00795651 0.000460439 -5.46988e-05
0.000460439 -0.000998055 0.000122899
-5.46988e-05 0.000122899 0.000977974
0.00073506 -2.21005e-05 1.82203e-06
-2.21005e-05 0.000166466 2.72576e-06
1.82203e-06 2.72576e-06 4.5419e-06
0.000847296 -7.0031e-05 -3.25076e-07
-7.0031e-05 0.000249652 -4.76449e-08
-3.25076e-07 -4.76449e-08 8.63896e-05
0.000795335 0.000104363 -2.10293e-07
0.000104363 0.000194032 -2.77553e-06
-2.10293e-07 -2.77553e-06 6.80207e-05
0.00072242 5.45982e-05 1.04642e-06
5.45982e-05 0.000114954 3.32184e-06
1.04642e-06 3.32184e-06 -1.74212e-05
0.000782169 0.00010176 -4.24273e-07
0.00010176 0.000187569 7.2539e-07
-4.24273e-07 7.2539e-07 3.55981e-05
0.000889827 6.25275e-05 -2.2122e-06
6.25275e-05 0.000250928 -6.99512e-07
-2.2122e-06 -6.99512e-07 0.000124474
0.000997894 0.00012601 -9.94194e-07
0.00012601 0.000309744 -7.82709e-08
-9.94194e-07 -7.82709e-08 0.000169448
0.000983919 0.00013393 7.35806e-07
0.00013393 0.000315807 2.23925e-06
7.35806e-07 2.23925e-06 0.000176446
0.000438071 -0.000271742 5.68194e-05
-0.000271742 -0.000600857 -2.24044e-05
5.68194e-05 -2.24044e-05 -0.000604416
0.00191977 -0.000537601 1.24192e-05
-0.000537601 0.000279955 -9.95978e-06
1.24192e-05 -9.95978e-06 0.000224251
0.000949834 -0.000187298 -7.78465e-07
-0.000187298 0.000319598 -4.64285e-06
-7.78465e-07 -4.64285e-06 0.000133265
0.00146465 -0.000418397 1.80674e-05
-0.000418397 0.000563283 -2.23074e-05
1.80674e-05 -2.23074e-05 0.000279959
0.00227919 -0.000228788 -5.71809e-06
-0.000228788 0.00117262 3.57857e-06
-5.71809e-06 3.57857e-06 0.000899715
0.00105883 -8.42114e-05 -1.77421e-06
-8.42114e-05 0.000367335 -7.38732e-06
-1.77421e-06 -7.38732e-06 0.00018936
0.000490039 -1.34398e-05 9.26942e-07
-1.34398e-05 1.85439e-05 3.0183e-06
9.26942e-07 3.0183e-06 -0.000142062
0.000262328 -0.000579717 -4.70026e-06
-0.000579717 -0.000689396 -9.23335e-07
-4.70026e-06 -9.23335e-07 -0.000658401
0.00127902 4.61272e-05 3.3949e-07
4.61272e-05 0.000590824 4.06039e-07
3.3949e-07 4.06039e-07 0.000348842
0.000891536 -0.000181625 -1.20031e-05
-0.000181625 0.000399851 3.17273e-06
-1.20031e-05 3.17273e-06 0.000112244
0.000544903 -0.000215314 1.33821e-05
-0.000215314 5.32858e-05 3.05099e-06
1.33821e-05 3.05099e-06 -2.47431e-05
0.00107335 7.54346e-05 1.91252e-06
7.54346e-05 0.00033169 -2.16979e-06
1.91252e-06 -2.16979e-06 0.000192917
0.00104806 -0.000502157 1.84609e-05
-0.000502157 -8.78504e-05 -3.91012e-05
1.84609e-05 -3.91012e-05 4.7432e-05
-1.19245e-05 -0.000121346 1.12591e-05
-0.000121346 2.21735e-05 2.00406e-05
1.12591e-05 2.00406e-05 -0.000108305
-0.000343029 5.01072e-05 5.32478e-06
5.01072e-05 -9.09973e-05 7.82255e-06
5.32478e-06 7.82255e-06 -0.000496905
0.00136385 0.000203318 2.53432e-06
0.000203318 0.000582896 -3.78001e-06
2.53432e-06 -3.78001e-06 0.000400532
0.000232224 -3.16363e-06 7.60733e-07
-3.16363e-06 0.000747044 -8.82934e-06
7.60733e-07 -8.82934e-06 0.000105076
0.0012148 -4.55321e-05 8.8325e-05
-4.55321e-05 0.00104932 -1.27786e-05
8.8325e-05 -1.27786e-05 -0.000973369
-0.00613273 -7.19454e-05 -0.000158768
-7.19454e-05 0.00258944 7.11922e-06
-0.000158768 7.11922e-06 -0.000544689
0.00110094 0.000231309 1.46379e-05
0.000231309 0.00057197 4.58901e-06
1.46379e-05 4.58901e-06 0.000412707
-0.00140289 0.000285035 4.84881e-06
0.000285035 -0.000781171 9.95498e-06
4.84881e-06 9.95498e-06 -0.00106528
0.00421596 0.000125194 0.00010438
0.000125194 0.00220188 7.05203e-06
0.00010438 7.05203e-06 0.000930427
0.00763105 0.00106237 0.000163897
0.00106237 0.0034321 8.73793e-05
0.000163897 8.73793e-05 -0.000195387
0.00336952 0.000982567 -0.000110655
0.000982567 0.00165868 -8.76667e-05
-0.000110655 -8.76667e-05 0.000562577
0.00479024 -0.000946939 -3.0227e-05
-0.000946939 0.00171074 -0.000240826
-3.0227e-05 -0.000240826 -2.5407e-05
0.00109862 0.00017549 5.88684e-05
0.00017549 0.000153226 0.000130163
5.88684e-05 0.000130163 -0.00141806
0.00456315 -5.88867e-05 -1.843e-05
-5.88867e-05 -0.00432951 -0.000131978
-1.843e-05 -0.000131978 -0.0014456
0.000692946 0.000195934 3.18987e-07
0.000195934 0.000472526 -2.38066e-06
3.18987e-07 -2.38066e-06 0.000278465
3.71412e-05 -4.74935e-05 7.81369e-07
-4.74935e-05 -1.7352e-05 -9.43066e-07
7.81369e-07 -9.43066e-07 6.32345e-06
0.00292608 5.37081e-05 4.32604e-05
5.37081e-05 0.000331044 1.82575e-05
4.32604e-05 1.82575e-05 -0.000352195
-0.000989802 0.000178318 -8.80076e-06
0.000178318 -0.000348619 -5.79297e-06
-8.80076e-06 -5.79297e-06 -0.000800996
0.0064073 0.00097337 -6.67122e-08
0.00097337 -0.00151896 -1.28131e-05
-6.67122e-08 -1.28131e-05 -0.00066763
0.00482114 0.00107048 0.000128177
0.00107048 0.00314389 6.61159e-05
0.000128177 6.61159e-05 -0.000923339
0.00369578 0.000469013 -8.25086e-05
0.000469013 0.00250008 6.42202e-06
-8.25086e-05 6.42202e-06 0.000983679
0.000318604 0.000210087 -1.40819e-05
0.000210087 0.000287394 -1.60348e-05
-1.40819e-05 -1.60348e-05 8.52141e-06
0.00162241 7.6706e-05 1.1295e-05
7.6706e-05 -0.000268485 -1.57555e-05
1.1295e-05 -1.57555e-05 -3.75521e-05
0.00354329 -0.000249759 2.92029e-05
-0.000249759 0.00236678 -0.000109792
2.92029e-05 -0.000109792 0.000972191
0.00819284 0.00193445 0.000218117
0.00193445 0.00120777 -0.00014387
0.000218117 -0.00014387 0.00114424
0.00653389 -0.000142449 -9.48735e-05
-0.000142449 0.00164294 0.000216891
-9.48735e-05 0.000216891 0.00104174
0.000984678 0.00017926 2.57866e-07
0.00017926 0.000237364 -7.3712e-05
2.57866e-07 -7.3712e-05 6.98215e-05
-0.000573313 0.00113013 0.00013101
0.00113013 0.00284666 3.06397e-05
0.00013101 3.06397e-05 -0.00323131
0.00118141 0.000209513 3.8254e-06
0.000209513 0.000589849 1.78055e-05
3.8254e-06 1.78055e-05 0.00037683
0.0001472 0.000103539 2.59545e-06
0.000103539 0.000240708 1.14195e-06
2.59545e-06 1.14195e-06 -3.8504e-06
0.000977231 -2.2893e-06 -8.02844e-06
-2.2893e-06 0.000753266 -1.00739e-05
-8.02844e-06 -1.00739e-05 0.000596103
0.000331518 -2.5654e-05 1.27777e-06
-2.5654e-05 -0.000118755 3.49992e-06
1.27777e-06 3.49992e-06 -0.000235504
0.000665519 -1.72695e-05 1.83433e-06
-1.72695e-05 0.000264774 5.23693e-06
1.83433e-06 5.23693e-06 9.91099e-05
0.000605342 -1.29201e-05 2.96358e-06
-1.29201e-05 0.00046329 -4.1349e-06
2.96358e-06 -4.1349e-06 0.000192179
0.000498386 -5.81601e-05 4.35738e-07
-5.81601e-05 0.000119252 -9.30973e-08
4.35738e-07 -9.30973e-08 -2.53862e-06
7.48041e-05 -1.42868e-05 5.3368e-07
-1.42868e-05 7.29951e-05 1.94092e-06
5.3368e-07 1.94092e-06 -7.48438e-05
0.00136837 -0.000231094 7.96092e-06
-0.000231094 0.000749427 -1.03925e-05
7.96092e-06 -1.03925e-05 0.000555459
0.00123468 -6.87196e-05 -1.48145e-06
-6.87196e-05 0.000471949 3.93194e-06
-1.48145e-06 3.93194e-06 0.000385676
-1.20817e-05 -5.57533e-06 -9.19209e-07
-5.57533e-06 -0.000314763 1.64752e-06
-9.19209e-07 1.64752e-06 -0.000411891
0.00147391 -0.000161515 1.6679e-06
-0.000161515 0.000566405 1.94627e-06
1.6679e-06 1.94627e-06 0.000453258
-0.000884495 -0.000119122 5.62331e-06
-0.000119122 -0.000695134 1.46957e-06
5.62331e-06 1.46957e-06 -0.00092211
0.000352829 -7.36884e-05 -4.8224e-06
-7.36884e-05 -0.000126156 6.48802e-07
-4.8224e-06 6.48802e-07 -0.000192691
1.29534e-05 -0.000169748 2.83288e-06
-0.000169748 -0.000343147 -1.03364e-06
2.83288e-06 -1.03364e-06 -0.000512863
0.00111893 -0.000312225 1.01201e-05
-0.000312225 0.000204679 -3.99154e-06
1.01201e-05 -3.99154e-06 -6.72013e-05
0.00132585 -0.000348527 -4.19218e-06
-0.000348527 0.00021204 3.18007e-06
-4.19218e-06 3.18007e-06 -6.31731e-05
0.00186802 -0.000252558 -1.92782e-06
-0.000252558 0.000740064 3.21468e-07
-1.92782e-06 3.21468e-07 0.00056504
0.00100121 -0.000271175 -2.04103e-07
-0.000271175 0.000138268 4.07394e-07
-2.04103e-07 4.07394e-07 -0.000106492
0.00233621 -0.00038621 2.92405e-06
-0.00038621 0.000916473 -1.21082e-06
2.92405e-06 -1.21082e-06 0.000674225
0.000217611 -0.00013981 -1.80798e-06
-0.00013981 -0.000209944 2.74247e-06
-1.80798e-06 2.74247e-06 -0.000412247
0.000995638 -0.000242279 -3.62252e-07
-0.000242279 0.000166167 -4.49487e-07
-3.62252e-07 -4.49487e-07 -5.93557e-05
0.000522393 -7.33837e-05 1.03402e-07
-7.33837e-05 2.0638e-05 -1.52052e-06
1.03402e-07 -1.52052e-06 -0.000132304
0.00106383 -0.000210914 -4.12931e-06
-0.000210914 0.000349188 2.42072e-06
-4.12931e-06 2.42072e-06 0.000157666
-0.000502575 -7.7639e-05 -2.22916e-06
-7.7639e-05 -0.000670796 -4.26443e-06
-2.22916e-06 -4.26443e-06 -0.000864137
0.000509605 3.82082e-06 8.62107e-07
3.82082e-06 -1.28631e-05 1.24584e-06
8.62107e-07 1.24584e-06 -0.000117323
0.00067034 -6.50922e-05 5.68178e-07
-6.50922e-05 0.000106063 8.20886e-09
5.68178e-07 8.20886e-09 -2.43852e-05
0.000748136 -0.000113816 4.21903e-06
-0.000113816 0.00016688 -2.60705e-06
4.21903e-06 -2.60705e-06 1.55828e-05
0.000612731 -2.61689e-05 2.45678e-07
-2.61689e-05 6.50512e-05 -3.89836e-07
2.45678e-07 -3.89836e-07 -4.80182e-05
0.000686579 -2.57181e-05 -6.31883e-07
-2.57181e-05 9.51625e-05 -1.00057e-07
-6.31883e-07 -1.00057e-07 -2.75895e-06
0.000565822 3.2286e-05 -2.67236e-07
3.2286e-05 1.03068e-06 2.69604e-06
-2.67236e-07 2.69604e-06 -6.55097e-05
0.000763637 -5.15845e-05 4.34067e-07
-5.15845e-05 0.000147577 -9.71143e-07
4.34067e-07 -9.71143e-07 4.98454e-05
0.000604351 2.48133e-05 -9.39705e-07
2.48133e-05 2.13015e-05 -1.67532e-07
-9.39705e-07 -1.67532e-07 -3.9726e-05
0.000537419 4.10442e-05 -9.85178e-07
4.10442e-05 -3.45473e-05 4.39014e-06
-9.85178e-07 4.39014e-06 -5.59757e-05
0.000673332 -1.9345e-05 2.17509e-06
-1.9345e-05 5.5235e-05 -2.23201e-06
2.17509e-06 -2.23201e-06 -3.94032e-07
0.000545822 3.12285e-05 1.70987e-07
3.12285e-05 -3.64792e-05 -2.92619e-09
1.70987e-07 -2.92619e-09 -5.53005e-05
0.00229008 7.73333e-05 -3.87524e-06
7.73333e-05 0.00102018 1.97415e-06
-3.87524e-06 1.97415e-06 0.00102943
0.00052135 2.28089e-05 9.3993e-07
2.28089e-05 -5.34074e-05 -4.34838e-06
9.3993e-07 -4.34838e-06 -7.12027e-05
0.00158781 4.68449e-05 9.66351e-06
4.68449e-05 0.000592386 -1.15119e-06
9.66351e-06 -1.15119e-06 0.000600613
0.00238374 4.5908e-05 1.28283e-05
4.5908e-05 0.00106815 -4.95743e-06
1.28283e-05 -4.95743e-06 0.0010814
0.000373022 5.92883e-06 8.31633e-07
5.92883e-06 -9.93074e-05 -1.71156e-06
8.31633e-07 -1.71156e-06 -0.000200625
0.000323162 1.80673e-06 3.40348e-07
1.80673e-06 -0.000149677 -2.78706e-06
3.40348e-07 -2.78706e-06 -0.000209799
0.000556548 1.76113e-05 -4.47036e-07
1.76113e-05 2.35841e-05 -1.11349e-06
-4.47036e-07 -1.11349e-06 -7.92999e-05
0.000569288 -1.20033e-05 6.49724e-07
-1.20033e-05 -2.76573e-05 -3.89883e-06
6.49724e-07 -3.89883e-06 -4.0004e-05
0.000288776 4.65084e-06 -4.69345e-07
4.65084e-06 -0.000168339 -1.28956e-06
-4.69345e-07 -1.28956e-06 -0.000222166
0.000726817 3.29723e-05 -3.0505e-07
3.29723e-05 0.000130531 1.53349e-06
-3.0505e-07 1.53349e-06 3.3767e-05
0.00213753 -2.41495e-05 -1.14646e-05
-2.41495e-05 0.000915348 -4.71783e-06
-1.14646e-05 -4.71783e-06 0.000933058
0.000560593 -7.0114e-06 -2.48571e-07
-7.0114e-06 -3.41795e-05 -4.95222e-08
-2.48571e-07 -4.95222e-08 -4.3635e-05
0.000253581 4.6987e-06 7.05954e-07
4.6987e-06 -0.000188447 1.76794e-06
7.05954e-07 1.76794e-06 -0.000236102
0.00206392 -9.47578e-06 -3.68324e-06
-9.47578e-06 0.0008703 4.38241e-08
-3.68324e-06 4.38241e-08 0.000889149
0.000555713 -2.23674e-06 -5.07525e-07
-2.23674e-06 -3.75247e-05 3.43238e-06
-5.07525e-07 3.43238e-06 -4.5172e-05
0.0020549 5.15644e-06 2.47259e-06
5.15644e-06 0.000865455 4.66758e-06
2.47259e-06 4.66758e-06 0.000884378
0.000701867 -4.69933e-06 1.93073e-05
-4.69933e-06 0.000524762 7.13186e-06
1.93073e-05 7.13186e-06 0.000429396
0.00067465 -0.000154694 -3.11734e-06
-0.000154694 0.000105084 -1.3053e-05
-3.11734e-06 -1.3053e-05 -0.00171156
0.00142653 9.544e-05 2.96275e-05
9.544e-05 0.00391123 -2.89994e-05
2.96275e-05 -2.89994e-05 0.00241597
0.000738863 9.29475e-05 -1.34748e-07
9.29475e-05 0.000127828 3.63419e-07
-1.34748e-07 3.63419e-07 1.0367e-06
0.000541024 6.56341e-05 1.88781e-06
6.56341e-05 -5.30234e-06 -4.03212e-07
1.88781e-06 -4.03212e-07 -0.000124346
0.000966932 0.00013316 3.07403e-06
0.00013316 0.000264105 2.91251e-06
3.07403e-06 2.91251e-06 0.000127665
0.00290667 -5.58584e-05 9.82374e-07
-5.58584e-05 3.88176e-05 0.000173179
9.82374e-07 0.000173179 -0.000853155
0.0035348 -0.000269105 1.66451e-05
-0.000269105 0.00238643 -5.07879e-06
1.66451e-05 -5.07879e-06 0.0011377
0.00410104 -0.000598585 6.70124e-05
-0.000598585 0.00160959 -0.000132311
6.70124e-05 -0.000132311 -0.00171221
0.00619154 -0.00112197 -9.00142e-05
-0.00112197 0.000760477 -3.88157e-06
-9.00142e-05 -3.88157e-06 0.000510476
0.00218683 -0.00107946 -0.000144271
-0.00107946 -0.000188859 8.76458e-05
-0.000144271 8.76458e-05 -0.0028498
0.0126624 0.00179762 0.00011397
0.00179762 0.00448829 5.09282e-05
0.00011397 5.09282e-05 0.00348724
0.0033064 0.00025773 9.09709e-05
0.00025773 -0.00313379 -0.000109566
9.09709e-05 -0.000109566 -0.00246297
0.00536046 -0.00155649 -1.97405e-05
-0.00155649 0.00114906 5.4992e-06
-1.97405e-05 5.4992e-06 0.000582559
0.0065081 -0.00141425 -3.3337e-05
-0.00141425 0.00299286 2.29379e-05
-3.3337e-05 2.29379e-05 -0.000526922
-0.00315268 0.00141662 -3.96435e-05
0.00141662 0.000358087 -0.000148287
-3.96435e-05 -0.000148287 -0.00189995
0.0062112 0.000140427 -2.02416e-05
0.000140427 -0.002699 6.09094e-05
-2.02416e-05 6.09094e-05 -0.00022228
0.00134236 -0.00088561 -4.29461e-05
-0.00088561 0.000136001 -1.42346e-05
-4.29461e-05 -1.42346e-05 -0.000364516
0.0114246 -0.00164923 -8.70004e-05
-0.00164923 0.00506219 6.64425e-05
-8.70004e-05 6.64425e-05 0.00114219
-0.00861557 -0.000113454 3.78183e-05
-0.000113454 -7.25955e-05 -0.000213767
3.78183e-05 -0.000213767 -0.00253417
0.00492155 -0.00100436 4.77428e-05
-0.00100436 -0.00195313 -8.68725e-06
4.77428e-05 -8.68725e-06 -0.000887845
0.000643434 6.09585e-05 1.44757e-06
6.09585e-05 7.4671e-05 8.90726e-06
1.44757e-06 8.90726e-06 -6.65725e-05
0.000698499 -6.16132e-06 1.21853e-06
-6.16132e-06 0.000143508 -9.91735e-07
1.21853e-06 -9.91735e-07 -2.32221e-05
0.000855071 -8.93937e-05 4.82609e-07
-8.93937e-05 0.000242789 -3.18434e-06
4.82609e-07 -3.18434e-06 7.85505e-05
0.000720694 7.33683e-05 -9.28023e-07
7.33683e-05 0.000113995 -4.4418e-07
-9.28023e-07 -4.4418e-07 -2.14935e-05
0.000771611 0.000117109 6.51951e-07
0.000117109 0.000184239 -1.22424e-06
6.51951e-07 -1.22424e-06 3.82634e-05
0.0010921 0.00013813 -2.43746e-06
0.00013813 0.000369572 -1.26234e-06
-2.43746e-06 -1.26234e-06 0.000226627
-0.000248735 -0.000543848 1.95729e-05
-0.000543848 -0.000977685 1.04842e-05
1.95729e-05 1.04842e-05 -0.000969151
-0.00112546 -0.000136145 1.66854e-05
-0.000136145 -0.000894263 -1.47884e-05
1.66854e-05 -1.47884e-05 -0.000923421
0.000398674 3.74424e-05 -2.14378e-06
3.74424e-05 -3.05377e-05 -3.01455e-06
-2.14378e-06 -3.01455e-06 -0.000197674
0.00178497 -0.000297047 4.12046e-05
-0.000297047 0.000857422 -3.05675e-05
4.12046e-05 -3.05675e-05 0.000584492
0.00151432 6.78379e-06 -4.54171e-06
6.78379e-06 0.000717546 -3.87015e-06
-4.54171e-06 -3.87015e-06 0.000479483
0.000570803 5.4067e-05 3.6186e-08
5.4067e-05 4.62505e-05 2.35476e-06
3.6186e-08 2.35476e-06 -9.66751e-05
0.00066566 0.000122543 5.06245e-07
0.000122543 0.000172454 -1.58572e-06
5.06245e-07 -1.58572e-06 7.06059e-06
0.000400741 -0.000536856 -1.08446e-06
-0.000536856 -0.000409364 -4.94887e-06
-1.08446e-06 -4.94887e-06 -0.00043713
0.000748081 -1.45028e-05 -1.37959e-06
-1.45028e-05 0.000465815 3.61152e-07
-1.37959e-06 3.61152e-07 0.000144417
9.85454e-06 -0.000113681 3.72204e-06
-0.000113681 9.8929e-05 -2.20563e-06
3.72204e-06 -2.20563e-06 -7.01091e-05
0.00083638 9.5428e-05 4.06929e-06
9.5428e-05 0.000221635 -1.07118e-05
4.06929e-06 -1.07118e-05 9.34001e-05
-0.00230386 1.16027e-05 -5.45534e-05
1.16027e-05 -0.000856583 -1.76966e-05
-5.45534e-05 -1.76966e-05 -0.00133146
-0.000405956 4.17417e-05 2.59154e-05
4.17417e-05 -0.00014037 2.35118e-05
2.59154e-05 2.35118e-05 -0.000306748
0.00131459 2.66008e-05 8.13743e-06
2.66008e-05 0.000733233 3.08836e-06
8.13743e-06 3.08836e-06 0.000483446
0.000774512 -9.7466e-06 -1.27498e-06
-9.7466e-06 -0.000220511 8.97804e-07
-1.27498e-06 8.97804e-07 -0.000698276
3.05892e-05 -1.93013e-06 -1.30888e-05
-1.93013e-06 0.000509057 -1.32657e-05
-1.30888e-05 -1.32657e-05 -1.83095e-05
0.000548983 -3.95983e-05 0.000193399
-3.95983e-05 0.00076012 -9.32766e-06
0.000193399 -9.32766e-06 -0.00131937
0.000238571 0.000189962 6.4712e-06
0.000189962 0.000207459 1.66589e-05
6.4712e-06 1.66589e-05 -5.39868e-06
0.000913143 0.000446779 8.24158e-06
0.000446779 0.000192303 -1.22052e-05
8.24158e-06 -1.22052e-05 -0.000142574
6.02881e-05 -5.01499e-05 1.19709e-05
-5.01499e-05 -3.88005e-05 2.69093e-06
1.19709e-05 2.69093e-06 -4.70478e-05
-0.0030099 0.000574989 4.23159e-05
0.000574989 0.000532274 7.90292e-05
4.23159e-05 7.90292e-05 -0.00350801
-0.00968094 0.000636564 -9.68546e-05
0.000636564 -0.00360665 -0.00026836
-9.68546e-05 -0.00026836 -0.00599756
0.00284612 6.48061e-05 4.09027e-05
6.48061e-05 0.000474979 6.99847e-05
4.09027e-05 6.99847e-05 0.000125842
0.00351682 0.000328348 -9.42667e-05
0.000328348 -0.0029792 0.00011072
-9.42667e-05 0.00011072 -0.00234298
0.000593438 0.00019721 6.9159e-06
0.00019721 0.000443211 -8.07747e-07
6.9159e-06 -8.07747e-07 0.000203982
0.00142031 9.08339e-06 1.60351e-05
9.08339e-06 -0.000385818 -2.70881e-05
1.60351e-05 -2.70881e-05 -0.00012641
0.00354539 -0.000199215 -1.65316e-05
-0.000199215 0.00237034 4.71581e-06
-1.65316e-05 4.71581e-06 0.00113149
0.0010366 0.000256803 -5.41711e-05
0.000256803 0.000622896 -5.02675e-06
-5.41711e-05 -5.02675e-06 -8.08452e-05
0.00494238 0.00185898 7.0792e-05
0.00185898 -0.000897613 -0.000196714
7.0792e-05 -0.000196714 -0.000882641
-0.00266136 0.00126646 3.84957e-05
0.00126646 -0.000195976 0.000144593
3.84957e-05 0.000144593 -0.00201657
0.0071508 0.000122547 5.92454e-05
0.000122547 0.00581589 -2.66586e-05
5.92454e-05 -2.66586e-05 0.000275829
0.00152988 -6.30383e-05 5.50202e-05
-6.30383e-05 0.00137051 -2.05638e-05
5.50202e-05 -2.05638e-05 0.000847477
0.000785911 2.2816e-05 -2.03257e-05
2.2816e-05 0.000536222 -5.08356e-06
-2.03257e-05 -5.08356e-06 0.000437102
0.00344702 -0.000430639 0.000316551
-0.000430639 0.00107115 -0.000182067
0.000316551 -0.000182067 -0.00183424
0.00635438 0.00245243 1.42912e-07
0.00245243 0.00478161 -6.78163e-06
1.42912e-07 -6.78163e-06 0.00500844
-0.00321616 0.00139351 2.41803e-05
0.00139351 -0.00372728 0.000378439
2.41803e-05 0.000378439 -0.0041829
0.0132811 -0.00160155 0.000132449
-0.00160155 0.00551073 -0.000116249
0.000132449 -0.000116249 0.00152979
0.00307125 -0.000476178 -6.4451e-05
-0.000476178 0.00136949 6.87358e-05
-6.4451e-05 6.87358e-05 0.000976084
0.000892432 0.000169698 8.6319e-06
0.000169698 0.00065318 4.51106e-06
8.6319e-06 4.51106e-06 0.000407876
0.00025813 1.69696e-06 -2.79061e-05
1.69696e-06 0.000299123 1.20631e-06
-2.79061e-05 1.20631e-06 0.000130368
0.00142964 -0.000303918 2.17256e-05
-0.000303918 0.000926389 -8.0667e-06
2.17256e-05 -8.0667e-06 0.000607455
0.000830516 -8.0525e-05 1.15978e-06
-8.0525e-05 0.000291012 2.91831e-06
1.15978e-06 2.91831e-06 0.000185998
-3.73169e-05 -3.56056e-05 6.0151e-07
-3.56056e-05 3.29726e-06 3.03666e-06
6.0151e-07 3.03666e-06 -0.00015097
0.000480212 -0.000210946 -9.08509e-07
-0.000210946 0.000292552 -8.04827e-07
-9.08509e-07 -8.04827e-07 0.000103774
0.00169371 -0.000369523 2.7481e-05
-0.000369523 0.000804153 -1.91877e-05
2.7481e-05 -1.91877e-05 0.000562702
0.00217915 -0.000225231 -5.98433e-06
-0.000225231 0.000966383 4.12984e-06
-5.98433e-06 4.12984e-06 0.000838827
0.00184623 -0.000380291 5.00986e-06
-0.000380291 0.000766083 -8.20258e-07
5.00986e-06 -8.20258e-07 0.000515707
0.00136885 -0.000361504 1.24958e-05
-0.000361504 0.000516178 1.87708e-06
1.24958e-05 1.87708e-06 0.000101532
0.000363072 -0.000169272 -2.76518e-06
-0.000169272 -0.000150704 -1.01914e-06
-2.76518e-06 -1.01914e-06 -0.000302301
0.00146174 -0.000343548 -1.89544e-06
-0.000343548 0.000369955 1.22607e-06
-1.89544e-06 1.22607e-06 8.95646e-05
0.00177476 -0.000443992 -8.02958e-07
-0.000443992 0.000488048 2.21369e-06
-8.02958e-07 2.21369e-06 0.00011948
0.00170501 -0.000461666 -3.97201e-06
-0.000461666 0.000332377 3.30113e-06
-3.97201e-06 3.30113e-06 1.80735e-05
0.00115096 -0.0003148 9.98321e-08
-0.0003148 0.000144886 3.83517e-06
9.98321e-08 3.83517e-06 -0.000107413
0.00133539 -0.000351778 -2.64215e-06
-0.000351778 0.000217612 1.58901e-06
-2.64215e-06 1.58901e-06 -6.23917e-05
0.00112396 -0.000284408 -7.07295e-06
-0.000284408 0.000179854 2.14889e-06
-7.07295e-06 2.14889e-06 -7.72643e-05
0.00180067 -0.000327458 5.10315e-06
-0.000327458 0.000634021 -7.91013e-07
5.10315e-06 -7.91013e-07 0.00040429
0.0015881 -0.000313425 3.00225e-06
-0.000313425 0.000477578 -3.01751e-06
3.00225e-06 -3.01751e-06 0.000252238
1.88454e-07 -6.82855e-05 1.23256e-06
-6.82855e-05 -0.000320088 6.61048e-07
1.23256e-06 6.61048e-07 -0.000498657
0.000819445 -0.000202405 1.98647e-06
-0.000202405 0.000153659 -1.27077e-06
1.98647e-06 -1.27077e-06 -5.78548e-05
0.00110538 -0.000248726 6.04616e-06
-0.000248726 0.000238604 -5.25728e-06
6.04616e-06 -5.25728e-06 1.54122e-05
0.000216746 1.88579e-06 1.01437e-06
1.88579e-06 -0.000176867 1.75071e-06
1.01437e-06 1.75071e-06 -0.00030599
0.000922057 -0.000113595 -5.4123e-07
-0.000113595 0.0002636 2.73702e-07
-5.4123e-07 2.73702e-07 0.000101085
0.00104461 -0.000219716 -1.02372e-06
-0.000219716 0.000341239 -1.17099e-06
-1.02372e-06 -1.17099e-06 0.000146867
0.000627374 1.43401e-05 -1.14064e-06
1.43401e-05 3.84894e-05 2.93247e-06
-1.14064e-06 2.93247e-06 -3.43427e-05
0.000731163 -3.26252e-05 -4.30622e-07
-3.26252e-05 0.000117388 -3.74137e-07
-4.30622e-07 -3.74137e-07 9.85302e-06
0.000479576 -4.72576e-05 3.05645e-07
-4.72576e-05 2.58159e-06 4.05778e-07
3.05645e-07 4.05778e-07 -0.000128765
0.000756104 -4.48758e-05 4.45535e-07
-4.48758e-05 0.000139867 -1.28496e-06
4.45535e-07 -1.28496e-06 3.7843e-05
0.000630819 -1.08754e-06 -2.38096e-07
-1.08754e-06 3.49433e-05 -1.94296e-07
-2.38096e-07 -1.94296e-07 -2.94367e-05
0.000525904 5.0132e-05 -2.38919e-07
5.0132e-05 -3.22936e-05 5.04278e-06
-2.38919e-07 5.04278e-06 -5.77869e-05
0.00064385 -1.00896e-05 1.75613e-06
-1.00896e-05 4.00618e-05 -2.18391e-06
1.75613e-06 -2.18391e-06 -1.85868e-05
0.000549259 4.32764e-05 -2.60511e-07
4.32764e-05 -2.71094e-05 -5.79864e-08
-2.60511e-07 -5.79864e-08 -4.89382e-05
0.00235839 8.5293e-05 -2.53959e-05
8.5293e-05 0.00106876 3.92894e-06
-2.53959e-05 3.92894e-06 0.00107653
0.000542052 3.22464e-05 9.90624e-07
3.22464e-05 -3.85396e-05 -4.3016e-06
9.90624e-07 -4.3016e-06 -5.7491e-05
0.00156885 5.88266e-05 1.16196e-05
5.88266e-05 0.000586646 -9.80082e-07
1.16196e-05 -9.80082e-07 0.000593062
0.00239462 6.08328e-05 1.6858e-05
6.08328e-05 0.00107903 -4.61964e-06
1.6858e-05 -4.61964e-06 0.00109064
0.000699911 6.86302e-05 7.33455e-07
6.86302e-05 0.000102437 -9.81254e-07
7.33455e-07 -9.81254e-07 -6.40841e-06
0.000611408 2.77673e-05 -7.46546e-08
2.77673e-05 2.02087e-05 -2.42493e-06
-7.46546e-08 -2.42493e-06 -4.28477e-05
0.000549442 4.11715e-05 -1.18412e-06
4.11715e-05 1.80919e-05 -1.17218e-06
-1.18412e-06 -1.17218e-06 -9.13908e-05
0.000553326 -1.64973e-05 6.22781e-07
-1.64973e-05 -3.57739e-05 -4.38099e-06
6.22781e-07 -4.38099e-06 -5.15372e-05
0.000429503 1.95901e-05 -1.54318e-06
1.95901e-05 -8.57744e-05 -1.29067e-06
-1.54318e-06 -1.29067e-06 -0.000144734
0.000761205 4.57106e-05 -4.84742e-07
4.57106e-05 0.000145824 -9.60565e-07
-4.84742e-07 -9.60565e-07 4.37296e-05
0.00223825 -3.83346e-05 -1.62249e-05
-3.83346e-05 0.000977472 -4.68086e-06
-1.62249e-05 -4.68086e-06 0.000993506
0.000554452 -1.21754e-05 -1.84721e-07
-1.21754e-05 -3.69033e-05 -7.86032e-08
-1.84721e-07 -7.86032e-08 -4.89758e-05
0.000233451 3.58785e-06 -9.62514e-07
3.58785e-06 -0.00020168 7.82069e-07
-9.62514e-07 7.82069e-07 -0.000256297
0.0021472 -2.30222e-05 -4.18774e-06
-2.30222e-05 0.000920933 9.9037e-08
-4.18774e-06 9.9037e-08 0.000938758
0.000555507 -7.76282e-06 -6.94611e-07
-7.76282e-06 -3.724e-05 3.48713e-06
-6.94611e-07 3.48713e-06 -4.65695e-05
0.00207988 -7.99769e-06 7.21053e-06
-7.99769e-06 0.000879725 4.72591e-06
7.21053e-06 4.72591e-06 0.000898579
0.00149234 -4.88093e-05 -1.58255e-05
-4.88093e-05 -0.000287356 1.85246e-05
-1.58255e-05 1.85246e-05 -7.08326e-05
0.000721735 -4.30559e-05 1.19632e-05
-4.30559e-05 0.000485426 -1.91999e-06
1.19632e-05 -1.91999e-06 0.000412798
0.00109347 -0.00014295 0.000113509
-0.00014295 0.000313293 -3.69422e-05
0.000113509 -3.69422e-05 -0.00146381
0.000512814 2.61641e-05 8.96171e-07
2.61641e-05 -3.42481e-05 -4.10025e-07
8.96171e-07 -4.10025e-07 -0.000146265
0.00099078 6.18105e-05 -6.92066e-07
6.18105e-05 0.000243507 7.0938e-07
-6.92066e-07 7.0938e-07 0.000117641
0.000791152 0.000102931 -5.20979e-07
0.000102931 0.000158264 -1.57033e-07
-5.20979e-07 -1.57033e-07 3.52094e-05
0.00056488 4.91288e-05 2.34784e-07
4.91288e-05 1.17261e-06 3.15178e-07
2.34784e-07 3.15178e-07 -0.000111941
0.000678094 6.50782e-05 1.38099e-07
6.50782e-05 8.80961e-05 3.42746e-07
1.38099e-07 3.42746e-07 -4.0659e-05
0.000644551 5.99065e-05 1.61178e-06
5.99065e-05 5.93355e-05 -1.54526e-06
1.61178e-06 -1.54526e-06 -6.2854e-05
0.000654851 0.000151263 4.50052e-06
0.000151263 0.000100024 3.70644e-06
4.50052e-06 3.70644e-06 -4.80924e-05
8.99337e-05 9.30505e-05 6.3588e-05
9.30505e-05 -0.000100123 0.00017087
6.3588e-05 0.00017087 -0.00148638
0.00276514 -3.82511e-05 -1.18921e-05
-3.82511e-05 0.000330553 5.19294e-05
-1.18921e-05 5.19294e-05 -0.000377636
0.00326568 -0.00019454 3.9743e-05
-0.00019454 0.00228445 -7.01575e-05
3.9743e-05 -7.01575e-05 0.00120673
0.00445011 -0.000122204 -6.53191e-06
-0.000122204 -0.0044504 6.75659e-05
-6.53191e-06 6.75659e-05 -0.00140729
0.00291531 -0.00126163 -9.27466e-05
-0.00126163 0.000892641 6.88959e-05
-9.27466e-05 6.88959e-05 0.000109198
-0.00192391 -0.00154725 -3.56021e-05
-0.00154725 -0.000134703 8.75693e-05
-3.56021e-05 8.75693e-05 -0.00422078
0.00939725 0.00203294 7.88583e-05
0.00203294 0.00491916 -6.38001e-05
7.88583e-05 -6.38001e-05 0.00275466
0.00326406 -0.00114797 -2.81619e-05
-0.00114797 0.000828162 5.1958e-06
-2.81619e-05 5.1958e-06 0.000407199
-0.000639689 -0.000525692 2.68572e-05
-0.000525692 0.00175609 3.06238e-05
2.68572e-05 3.06238e-05 -0.00300315
0.00478421 0.000190761 2.90347e-05
0.000190761 0.00256515 -1.13053e-05
2.90347e-05 -1.13053e-05 0.00101309
0.00989919 -0.00137127 -3.41608e-05
-0.00137127 0.0012982 -3.8001e-05
-3.41608e-05 -3.8001e-05 0.00252922
-0.00106975 -7.83428e-05 -0.000137004
-7.83428e-05 -0.00108365 8.19312e-05
-0.000137004 8.19312e-05 -0.000903766
0.000834084 0.00144514 -6.41665e-05
0.00144514 0.00217771 -8.30932e-05
-6.41665e-05 -8.30932e-05 -0.00263372
-0.00637337 -0.00224203 4.98478e-05
-0.00224203 -0.00341336 -0.000147223
4.98478e-05 -0.000147223 -0.00576791
0.00633252 -0.00137652 5.00257e-05
-0.00137652 -0.000109042 -0.000286051
5.00257e-05 -0.000286051 0.000700802
0.000904308 2.58033e-05 5.59726e-06
2.58033e-05 0.00024779 -1.49875e-07
5.59726e-06 -1.49875e-07 0.000121333
0.000635959 7.6584e-05 -1.00415e-07
7.6584e-05 7.79642e-05 -1.27684e-06
-1.00415e-07 -1.27684e-06 -6.38676e-05
0.000825988 -1.09276e-05 2.34723e-07
-1.09276e-05 0.000232919 -2.99559e-06
2.34723e-07 -2.99559e-06 5.22311e-05
0.000820745 6.26648e-05 -1.68035e-06
6.26648e-05 0.000185449 -5.02686e-06
-1.68035e-06 -5.02686e-06 3.87231e-05
0.000517208 -0.000455011 -5.23219e-06
-0.000455011 -0.000347057 3.48903e-05
-5.23219e-06 3.48903e-05 -0.000442402
0.00132932 -9.68116e-05 -2.08379e-05
-9.68116e-05 0.000885028 -2.12074e-05
-2.08379e-05 -2.12074e-05 0.000690687
0.000736945 4.54699e-05 -3.49368e-06
4.54699e-05 0.000123919 -4.83614e-06
-3.49368e-06 -4.83614e-06 6.84569e-07
0.00069664 0.000167156 -1.71952e-06
0.000167156 0.000202904 3.68808e-06
-1.71952e-06 3.68808e-06 3.26336e-05
0.00266492 -2.55008e-05 8.64774e-06
-2.55008e-05 0.001484 -2.0264e-05
8.64774e-06 -2.0264e-05 0.00125256
0.000952346 7.45013e-05 2.82498e-06
7.45013e-05 0.000277456 3.62452e-06
2.82498e-06 3.62452e-06 0.000158803
0.000624014 0.000120838 -2.67063e-06
0.000120838 0.000365926 -1.18484e-06
-2.67063e-06 -1.18484e-06 8.86437e-05
0.000515656 -7.14442e-05 2.29388e-05
-7.14442e-05 0.000539248 -9.78663e-06
2.29388e-05 -9.78663e-06 -5.05373e-05
0.000179567 2.02715e-05 2.3938e-05
2.02715e-05 0.000232098 -1.06979e-06
2.3938e-05 -1.06979e-06 6.9124e-05
0.000752873 0.000138564 5.49763e-07
0.000138564 0.000381321 -6.78886e-06
5.49763e-07 -6.78886e-06 0.000191423
-0.00051068 -4.94205e-05 -3.36991e-05
-4.94205e-05 0.00046517 -4.55546e-05
-3.36991e-05 -4.55546e-05 -0.00080965
0.00375897 0.000170585 2.59684e-05
0.000170585 0.00210608 2.27585e-05
2.59684e-05 2.27585e-05 0.00185755
0.000247726 1.26561e-05 -7.11441e-06
1.26561e-05 0.000766117 1.38618e-05
-7.11441e-06 1.38618e-05 0.000106455
0.00125052 -2.65424e-05 9.60215e-09
-2.65424e-05 8.43101e-06 5.56434e-07
9.60215e-09 5.56434e-07 -0.000160965
-0.000137797 -4.95334e-06 2.50803e-06
-4.95334e-06 0.000267276 -1.94406e-05
2.50803e-06 -1.94406e-05 -0.000125896
-0.000113372 0.000112469 -1.5912e-06
0.000112469 0.000109812 5.48258e-06
-1.5912e-06 5.48258e-06 -8.80038e-05
-0.00113187 0.000346572 6.50683e-05
0.000346572 -0.000810786 5.4503e-05
6.50683e-05 5.4503e-05 -0.00111485
0.00124166 -2.18591e-05 2.08641e-05
-2.18591e-05 -0.000457063 -6.37083e-06
2.08641e-05 -6.37083e-06 -0.000148271
0.00295875 -0.00124153 0.000133355
-0.00124153 0.00364253 -0.000128573
0.000133355 -0.000128573 -0.00208202
0.00989664 0.00202438 -8.20834e-05
0.00202438 0.00459979 6.05773e-05
-8.20834e-05 6.05773e-05 0.00272343
0.00329316 -0.000131981 -4.53116e-05
-0.000131981 0.00222707 7.39003e-05
-4.53116e-05 7.39003e-05 0.00115255
0.00603 0.00193795 -2.57346e-05
0.00193795 0.000452184 -5.76305e-05
-2.57346e-05 -5.76305e-05 -1.88321e-05
8.08632e-06 0.000122542 -4.14728e-05
0.000122542 0.000526456 1.07644e-05
-4.14728e-05 1.07644e-05 -5.37417e-05
0.000824812 -1.93958e-06 -1.41212e-05
-1.93958e-06 0.00048081 2.19271e-06
-1.41212e-05 2.19271e-06 0.000438139
0.00364868 -0.000493919 0.000119964
-0.000493919 0.0012441 -1.04011e-05
0.000119964 -1.04011e-05 -0.00183008
-0.00025578 -0.000200666 1.3279e-05
-0.000200666 -0.000424435 2.55293e-05
1.3279e-05 2.55293e-05 -0.000537624
-0.000269672 0.0026511 0.000172791
0.0026511 0.00112415 -8.51155e-05
0.000172791 -8.51155e-05 0.00187124
0.00738879 0.00124346 -7.60144e-05
0.00124346 0.000660518 0.000144463
-7.60144e-05 0.000144463 0.000113886
-0.00309746 -0.000798443 7.58833e-05
-0.000798443 0.000766974 -7.93181e-05
7.58833e-05 -7.93181e-05 -0.00459678
0.000543758 -0.000199027 4.16618e-05
-0.000199027 0.000518598 -9.6529e-06
4.16618e-05 -9.6529e-06 6.74758e-05
0.000493674 -0.000207221 0.00010185
-0.000207221 -0.000222077 -3.28945e-05
0.00010185 -3.28945e-05 -0.00188951
-0.00210131 5.78278e-05 -0.000318493
5.78278e-05 0.00250921 2.91419e-05
-0.000318493 2.91419e-05 0.000643694
0.00469238 0.00249326 -0.000250863
0.00249326 0.000620722 0.000319362
-0.000250863 0.000319362 0.000695199
0.00805852 -0.00107523 -2.0458e-05
-0.00107523 0.00362541 6.91908e-06
-2.0458e-05 6.91908e-06 0.000195622
0.00302007 -0.000619112 -5.9624e-05
-0.000619112 0.00119441 4.43174e-05
-5.9624e-05 4.43174e-05 0.00079711
-0.00075661 3.55153e-05 2.47604e-05
3.55153e-05 -0.000289691 7.93194e-06
2.47604e-05 7.93194e-06 -0.000476482
0.000335652 -0.000222659 -1.61401e-06
-0.000222659 0.000344888 6.09682e-07
-1.61401e-06 6.09682e-07 3.33145e-05
0.00099123 -0.000356468 1.66224e-05
-0.000356468 0.000416695 -4.09336e-06
1.66224e-05 -4.09336e-06 0.000263939
-0.000447859 -0.000186381 -6.72737e-06
-0.000186381 -0.000184034 6.77574e-06
-6.72737e-06 6.77574e-06 -0.00036792
-0.000656173 -0.000197156 -7.86066e-07
-0.000197156 -0.000439162 -3.98195e-06
-7.86066e-07 -3.98195e-06 -0.000679868
0.00319657 -0.000595671 3.23976e-05
-0.000595671 0.00128984 -2.14842e-06
3.23976e-05 -2.14842e-06 0.00101444
0.00450458 -0.000648 -9.83568e-06
-0.000648 0.00218118 3.78005e-06
-9.83568e-06 3.78005e-06 0.00190619
0.00232118 -0.000455926 7.02478e-06
-0.000455926 0.000967745 3.41183e-07
7.02478e-06 3.41183e-07 0.000576385
0.00121752 -0.000422459 8.53619e-06
-0.000422459 0.000212515 -6.13328e-06
8.53619e-06 -6.13328e-06 -0.000206497
0.00175655 -0.000371119 -8.33559e-06
-0.000371119 0.000506629 2.01157e-06
-8.33559e-06 2.01157e-06 0.000218922
0.00214715 -0.000489636 1.0508e-06
-0.000489636 0.00066144 5.13106e-07
1.0508e-06 5.13106e-07 0.000283827
0.00198345 -0.000500557 1.40003e-06
-0.000500557 0.000528494 -5.61911e-06
1.40003e-06 -5.61911e-06 0.000149119
0.00198228 -0.00047033 -1.59637e-06
-0.00047033 0.000407841 -2.97361e-06
-1.59637e-06 -2.97361e-06 0.000130084
0.00179678 -0.000464408 -1.50122e-06
-0.000464408 0.000365941 2.2955e-06
-1.50122e-06 2.2955e-06 7.23638e-05
0.00173677 -0.000469245 -9.42172e-07
-0.000469245 0.000350635 -1.67953e-07
-9.42172e-07 -1.67953e-07 3.02061e-05
0.000728385 -0.000256456 6.63268e-06
-0.000256456 -9.52834e-05 2.30007e-06
6.63268e-06 2.30007e-06 -0.000318584
0.00116056 -0.000308389 1.85679e-06
-0.000308389 0.000147281 -1.64117e-08
1.85679e-06 -1.64117e-08 -9.64784e-05
0.00131867 -0.000351702 9.37981e-07
-0.000351702 0.000210125 -2.21586e-06
9.37981e-07 -2.21586e-06 -7.42871e-05
0.00130572 -0.000263275 3.47915e-06
-0.000263275 0.00037922 1.87866e-06
3.47915e-06 1.87866e-06 0.000153265
0.00131901 -0.000279364 -2.27081e-06
-0.000279364 0.000343912 -1.91003e-06
-2.27081e-06 -1.91003e-06 0.000122402
0.000697991 -0.000227261 5.78024e-06
-0.000227261 -4.41214e-05 -5.77196e-06
5.78024e-06 -5.77196e-06 -0.000250193
0.000358696 -8.9369e-05 1.88968e-06
-8.9369e-05 -8.5257e-05 6.60172e-07
1.88968e-06 6.60172e-07 -0.000259224
0.000482982 -0.000114901 -6.45387e-07
-0.000114901 -1.82632e-05 1.01648e-06
-6.45387e-07 1.01648e-06 -0.000205965
0.00143061 -0.000265699 3.24788e-06
-0.000265699 0.000522204 -4.87305e-06
3.24788e-06 -4.87305e-06 0.000301336
0.000453153 1.67596e-05 8.82467e-09
1.67596e-05 -5.76591e-05 3.47382e-06
8.82467e-09 3.47382e-06 -0.000143909
0.000710409 -3.89258e-05 -2.29901e-07
-3.89258e-05 0.000123293 -1.23575e-07
-2.29901e-07 -1.23575e-07 -1.62352e-05
0.00122333 -0.000155553 7.06288e-07
-0.000155553 0.000448544 -1.81631e-07
7.06288e-07 -1.81631e-07 0.000276796
0.000499337 5.33303e-05 -1.24489e-06
5.33303e-05 -3.92246e-05 7.26423e-06
-1.24489e-06 7.26423e-06 -6.85735e-05
0.000641738 9.65315e-06 -3.18009e-07
9.65315e-06 4.46934e-05 -2.43127e-07
-3.18009e-07 -2.43127e-07 -2.7935e-05
0.000957182 -5.87229e-05 -3.11834e-07
-5.87229e-05 0.000256392 -1.44892e-06
-3.11834e-07 -1.44892e-06 0.000142433
0.00066524 -2.30561e-06 1.46145e-06
-2.30561e-06 5.43245e-05 -2.63738e-06
1.46145e-06 -2.63738e-06 -1.01057e-05
0.000537102 5.23378e-05 3.76683e-07
5.23378e-05 -2.4407e-05 2.21697e-08
3.76683e-07 2.21697e-08 -5.05584e-05
0.00242853 0.000101915 -2.72014e-05
0.000101915 0.00111931 3.6022e-06
-2.72014e-05 3.6022e-06 0.0011233
0.000558192 4.77935e-05 -4.50941e-07
4.77935e-05 -2.09009e-05 -4.74772e-06
-4.50941e-07 -4.74772e-06 -4.35693e-05
0.0023914 8.84294e-05 2.79174e-06
8.84294e-05 0.00108944 2.65519e-07
2.79174e-06 2.65519e-07 0.00109656
0.00236887 7.48921e-05 2.04083e-05
7.48921e-05 0.00106932 -4.16678e-06
2.04083e-05 -4.16678e-06 0.00107904
0.000692669 6.29368e-05 -2.16676e-07
6.29368e-05 0.000106615 -1.07409e-06
-2.16676e-07 -1.07409e-06 -2.78455e-05
0.000770356 8.91762e-05 8.57884e-07
8.91762e-05 0.000154691 -1.34784e-06
8.57884e-07 -1.34784e-06 3.03422e-05
0.000633778 1.96002e-05 6.01692e-08
1.96002e-05 3.37005e-05 -2.78389e-06
6.01692e-08 -2.78389e-06 -3.5514e-05
0.000695351 8.08761e-05 -3.41197e-08
8.08761e-05 9.81192e-05 -4.42963e-08
-3.41197e-08 -4.42963e-08 -1.03982e-05
0.000543863 -1.90769e-05 -2.12147e-07
-1.90769e-05 -3.79904e-05 -5.04744e-06
-2.12147e-07 -5.04744e-06 -5.77646e-05
0.00061557 2.84147e-05 2.06865e-08
2.84147e-05 2.3327e-05 -9.37884e-08
2.06865e-08 -9.37884e-08 -3.97598e-05
0.000626499 4.33481e-05 -2.24639e-06
4.33481e-05 5.309e-05 2.4923e-07
-2.24639e-06 2.4923e-07 -4.73944e-05
0.00234095 -5.27597e-05 -2.12846e-05
-5.27597e-05 0.00104174 -4.63785e-06
-2.12846e-05 -4.63785e-06 0.0010556
0.000552651 -1.76412e-05 -3.45098e-07
-1.76412e-05 -3.57475e-05 -6.99752e-08
-3.45098e-07 -6.99752e-08 -5.14375e-05
0.000545953 3.16386e-05 -1.53272e-06
3.16386e-05 -1.59491e-05 7.65502e-07
-1.53272e-06 7.65502e-07 -7.37431e-05
0.00221755 -3.69537e-05 -4.13667e-06
-3.69537e-05 0.000964716 1.60424e-07
-4.13667e-06 1.60424e-07 0.000981067
0.000553943 -1.20554e-05 -7.48351e-07
-1.20554e-05 -3.75044e-05 3.68335e-06
-7.48351e-07 3.68335e-06 -4.93373e-05
0.00212251 -2.1697e-05 1.1341e-05
-2.1697e-05 0.000905776 4.68061e-06
1.1341e-05 4.68061e-06 0.000923856
0.000219794 -7.23532e-05 -1.083e-06
-7.23532e-05 -1.64414e-05 7.07463e-06
-1.083e-06 7.07463e-06 7.56404e-05
0.00142745 -8.95261e-05 -1.65364e-05
-8.95261e-05 -0.000377538 2.66433e-05
-1.65364e-05 2.66433e-05 -0.000106094
0.000764289 -7.07687e-05 9.19577e-06
-7.07687e-05 0.000455012 -1.56539e-05
9.19577e-06 -1.56539e-05 0.000393398
0.000731455 6.42028e-05 -2.33875e-07
6.42028e-05 0.000117546 1.53665e-07
-2.33875e-07 1.53665e-07 -1.00312e-05
0.000707103 4.82107e-05 1.23732e-06
4.82107e-05 7.66628e-05 -3.05002e-07
1.23732e-06 -3.05002e-07 -4.53159e-05
6.88727e-05 3.22844e-05 -4.13288e-06
3.22844e-05 -0.000298983 -4.51534e-06
-4.13288e-06 -4.51534e-06 -0.00041231
0.000363257 1.3907e-05 6.97804e-07
1.3907e-05 -0.000111133 1.08807e-06
6.97804e-07 1.08807e-06 -0.000232085
0.00148427 0.000169979 -7.79392e-07
0.000169979 0.000572495 -9.10846e-07
-7.79392e-07 -9.10846e-07 0.000417554
0.000649414 3.08839e-05 -1.71911e-06
3.08839e-05 4.43559e-05 5.5189e-07
-1.71911e-06 5.5189e-07 -6.50967e-05
0.000669643 5.53629e-05 -2.5313e-06
5.53629e-05 7.42664e-05 -3.03195e-06
-2.5313e-06 -3.03195e-06 -4.78058e-05
0.000765435 6.50454e-05 -9.51624e-08
6.50454e-05 0.000131746 -2.15668e-07
-9.51624e-08 -2.15668e-07 6.97702e-06
0.000998608 0.000104973 1.55463e-07
0.000104973 0.000281142 -8.75657e-08
1.55463e-07 -8.75657e-08 0.00014607
0.00106139 8.24179e-05 2.90142e-06
8.24179e-05 0.000341342 -1.9987e-06
2.90142e-06 -1.9987e-06 0.000197875
0.00320064 0.000272367 0.000181703
0.000272367 0.00213436 0.000252705
0.000181703 0.000252705 -0.00107621
0.000611641 0.000111248 9.55002e-06
0.000111248 4.33312e-05 6.70677e-05
9.55002e-06 6.70677e-05 -0.00149775
0.00266426 -4.59243e-05 -1.12787e-05
-4.59243e-05 0.000576088 -5.85523e-06
-1.12787e-05 -5.85523e-06 6.5692e-05
0.0101861 -0.0011964 -0.000103869
-0.0011964 0.00143421 -0.000109964
-0.000103869 -0.000109964 0.00287344
-0.0098508 0.000967254 -1.90319e-05
0.000967254 -0.00333996 0.000264453
-1.90319e-05 0.000264453 -0.00597529
0.0051937 -0.001266 -0.000125229
-0.001266 0.00196975 3.99015e-05
-0.000125229 3.99015e-05 0.00157054
0.010957 -0.00104117 -7.04048e-05
-0.00104117 0.00490997 -2.37895e-06
-7.04048e-05 -2.37895e-06 0.00123391
0.00226802 -0.000281913 -2.48044e-05
-0.000281913 0.000579056 6.71228e-05
-2.48044e-05 6.71228e-05 0.000362097
0.0115397 -0.000125809 -1.42027e-05
-0.000125809 0.00595406 -1.28333e-05
-1.42027e-05 -1.28333e-05 0.00138988
0.00257533 -0.00139222 5.65467e-05
-0.00139222 0.000806109 7.63022e-05
5.65467e-05 7.63022e-05 -0.00114809
0.00561257 -0.00168166 -0.000148334
-0.00168166 -0.000930591 -0.000347691
-0.000148334 -0.000347691 -0.000205059
0.002837 9.34128e-05 -0.00011774
9.34128e-05 0.00084158 5.21044e-05
-0.00011774 5.21044e-05 0.000270944
0.0101096 0.0011473 -5.02853e-05
0.0011473 0.00473574 1.51819e-05
-5.02853e-05 1.51819e-05 0.00105233
0.0115127 -0.00241882 -8.85932e-05
-0.00241882 0.00402927 -0.000302859
-8.85932e-05 -0.000302859 0.00350653
0.00882209 -0.0027605 7.36415e-05
-0.0027605 0.00216025 -1.18062e-06
7.36415e-05 -1.18062e-06 0.00318546
0.000169544 7.75331e-05 5.07306e-06
7.75331e-05 -0.000100446 -5.06741e-06
5.07306e-06 -5.06741e-06 -0.000241505
0.000903232 2.66407e-05 1.08092e-06
2.66407e-05 0.000265284 2.95104e-06
1.08092e-06 2.95104e-06 0.000117718
0.000724888 9.05776e-05 -2.97787e-06
9.05776e-05 0.000132812 -6.49295e-06
-2.97787e-06 -6.49295e-06 -1.28277e-05
0.00180584 -0.000225129 -2.41121e-05
-0.000225129 0.00112378 2.27021e-05
-2.41121e-05 2.27021e-05 0.000393596
0.000927422 -3.0141e-05 -6.53592e-05
-3.0141e-05 0.000675031 -2.27895e-05
-6.53592e-05 -2.27895e-05 0.000529146
0.000636231 8.00323e-06 -4.98611e-06
8.00323e-06 9.10339e-05 4.32028e-06
-4.98611e-06 4.32028e-06 -2.58753e-05
-0.00113343 0.000101024 -9.05991e-06
0.000101024 -0.000587085 -4.20147e-06
-9.05991e-06 -4.20147e-06 -0.000907934
0.000422085 7.95227e-05 6.26101e-07
7.95227e-05 0.000180376 -2.34185e-06
6.26101e-07 -2.34185e-06 -1.55621e-05
0.000622873 0.000146402 2.59415e-07
0.000146402 0.000428177 2.86198e-06
2.59415e-07 2.86198e-06 0.000131312
-0.000466628 -5.9695e-05 0.000120442
-5.9695e-05 0.000714997 -4.0798e-05
0.000120442 -4.0798e-05 -0.000543713
-0.00218476 1.85262e-05 -2.15032e-05
1.85262e-05 -0.0011553 1.30731e-05
-2.15032e-05 1.30731e-05 -0.00138079
0.00245989 0.000319233 -5.23407e-05
0.000319233 0.0015891 -4.67305e-05
-5.23407e-05 -4.67305e-05 0.000732976
0.00190553 4.50819e-05 8.91979e-05
4.50819e-05 0.00120291 1.56651e-05
8.91979e-05 1.56651e-05 -0.000890182
3.14856e-05 9.78234e-06 1.40082e-05
9.78234e-06 0.000535601 1.47262e-05
1.40082e-05 1.47262e-05 -1.87976e-05
0.00174592 -7.22561e-05 2.7542e-07
-7.22561e-05 0.00023733 -2.05283e-07
2.7542e-07 -2.05283e-07 0.000366115
-0.00175227 0.000288843 0.000102167
0.000288843 -0.00042604 7.55653e-06
0.000102167 7.55653e-06 -0.00111801
0.00305777 0.00015106 -3.03033e-05
0.00015106 0.00153462 1.62828e-05
-3.03033e-05 1.62828e-05 0.000776852
0.000802565 -4.1701e-05 -8.52712e-06
-4.1701e-05 0.000454436 1.24278e-05
-8.52712e-06 1.24278e-05 0.000401723
0.0161329 -0.00179197 0.000135802
-0.00179197 0.00704225 -4.30784e-05
0.000135802 -4.30784e-05 0.00285208
0.0116358 0.00185953 -6.72576e-05
0.00185953 0.0041485 -5.41104e-05
-6.72576e-05 -5.41104e-05 0.00308203
0.00414668 -0.000544946 -8.3254e-05
-0.000544946 0.00156695 0.000133163
-8.3254e-05 0.000133163 -0.00166489
-0.00712405 0.00298102 0.000804932
0.00298102 -0.00291127 -0.000612303
0.000804932 -0.000612303 -0.00172772
0.000714678 -0.000197595 1.12693e-05
-0.000197595 0.000719396 -3.99915e-06
1.12693e-05 -3.99915e-06 0.000183264
0.000780404 -0.000160018 2.18797e-06
-0.000160018 3.21214e-05 1.25425e-05
2.18797e-06 1.25425e-05 -0.00175823
-0.00289328 0.000155715 -0.000444642
0.000155715 0.00250046 0.000184959
-0.000444642 0.000184959 0.000640846
0.00138454 -0.000377437 -2.31457e-05
-0.000377437 0.000388673 3.58526e-05
-2.31457e-05 3.58526e-05 3.01778e-05
0.0124841 0.00243667 0.000113475
0.00243667 0.00376325 8.25257e-05
0.000113475 8.25257e-05 0.00391761
0.00783606 -0.00171207 9.3577e-05
-0.00171207 0.00323372 -5.65601e-05
9.3577e-05 -5.65601e-05 9.86272e-05
0.00222275 -0.000486921 3.25065e-06
-0.000486921 0.000992829 2.23101e-05
3.25065e-06 2.23101e-05 0.000868786
-0.00457842 -0.000488113 4.36555e-05
-0.000488113 0.00196771 -2.71605e-05
4.36555e-05 -2.71605e-05 -0.000446637
0.0108328 0.00225286 -0.000494405
0.00225286 0.00486505 0.000231782
-0.000494405 0.000231782 0.00452106
0.00250067 -0.00107021 -0.000220195
-0.00107021 -0.000361224 0.000144983
-0.000220195 0.000144983 -0.00365251
0.00241378 -0.000999511 0.000104662
-0.000999511 0.000478537 -5.09087e-05
0.000104662 -5.09087e-05 0.000473696
-0.000291025 -0.000190697 -4.86941e-05
-0.000190697 -6.66716e-06 1.40456e-05
-4.86941e-05 1.40456e-05 -0.000301715
0.000598306 -0.000304129 -7.77299e-06
-0.000304129 0.000268169 9.1891e-06
-7.77299e-06 9.1891e-06 4.95407e-05
0.00383828 -0.00062434 3.08099e-05
-0.00062434 0.00163059 2.26589e-06
3.08099e-05 2.26589e-06 0.00146349
-0.00287965 -4.94574e-05 -1.6404e-06
-4.94574e-05 -0.0016043 1.04101e-05
-1.6404e-06 1.04101e-05 -0.00184457
0.000824617 -0.000352742 4.35273e-06
-0.000352742 7.25009e-05 2.06485e-06
4.35273e-06 2.06485e-06 -0.000200223
0.00225355 -0.000577597 5.21686e-06
-0.000577597 0.000534273 1.40903e-06
5.21686e-06 1.40903e-06 0.000273451
0.00305143 -0.000525397 -1.49797e-05
-0.000525397 0.00129775 4.98858e-06
-1.49797e-05 4.98858e-06 0.000933338
0.00129731 -0.000420174 -2.38965e-06
-0.000420174 0.000226289 -3.86658e-06
-2.38965e-06 -3.86658e-06 -0.000169516
0.00179511 -0.0005479 4.80207e-06
-0.0005479 0.000267308 -6.01757e-06
4.80207e-06 -6.01757e-06 -4.40091e-05
0.00258887 -0.000540379 -3.64356e-06
-0.000540379 0.000875808 -1.22454e-06
-3.64356e-06 -1.22454e-06 0.000490295
0.00166244 -0.000474695 2.18674e-07
-0.000474695 0.000325002 -3.59875e-06
2.18674e-07 -3.59875e-06 -3.89788e-05
0.0020829 -0.000484204 5.0299e-07
-0.000484204 0.000406398 -6.78488e-06
5.0299e-07 -6.78488e-06 0.000138187
0.00168428 -0.000373906 -3.48147e-06
-0.000373906 0.000120894 -3.30717e-06
-3.48147e-06 -3.30717e-06 -8.91691e-05
0.00160093 -0.000447772 1.43787e-06
-0.000447772 0.00017073 -7.23098e-07
1.43787e-06 -7.23098e-07 -0.000101048
0.00179542 -0.000453429 1.95787e-06
-0.000453429 0.000303834 -2.49473e-06
1.95787e-06 -2.49473e-06 3.04363e-05
0.00170901 -0.000393353 -4.07778e-07
-0.000393353 0.000376101 1.80638e-06
-4.07778e-07 1.80638e-06 0.000111525
0.00179938 -0.000465493 -2.12621e-06
-0.000465493 0.000385079 1.288e-07
-2.12621e-06 1.288e-07 8.68314e-05
0.00174728 -0.000476081 1.45648e-06
-0.000476081 0.000356048 -3.73408e-06
1.45648e-06 -3.73408e-06 2.97945e-05
0.00135346 -0.000288956 3.37885e-06
-0.000288956 0.000309271 1.13825e-06
3.37885e-06 1.13825e-06 8.26586e-05
0.000846788 -0.000263769 9.27823e-07
-0.000263769 -2.2879e-05 -6.21031e-09
9.27823e-07 -6.21031e-09 -0.000244102
0.00127007 -0.000312197 4.05493e-06
-0.000312197 0.000207214 -3.32093e-06
4.05493e-06 -3.32093e-06 -2.9131e-05
0.000654584 -0.00018987 -2.5127e-07
-0.00018987 3.77646e-05 2.85897e-07
-2.5127e-07 2.85897e-07 -0.000159073
0.000930792 -0.000223834 1.35389e-08
-0.000223834 0.000158919 -3.66548e-07
1.35389e-08 -3.66548e-07 -5.83592e-05
0.000844446 -0.000231887 -3.93712e-06
-0.000231887 5.82207e-05 -1.68241e-06
-3.93712e-06 -1.68241e-06 -0.000155344
0.00030706 1.51391e-05 2.93309e-07
1.51391e-05 -0.000138128 5.02469e-06
2.93309e-07 5.02469e-06 -0.000252654
0.000776125 -0.000110374 1.08316e-06
-0.000110374 0.000170375 5.66819e-07
1.08316e-06 5.66819e-07 -1.35045e-05
0.00105936 -0.000165179 -2.26775e-06
-0.000165179 0.000338915 3.20877e-07
-2.26775e-06 3.20877e-07 0.000141113
0.00144284 8.81563e-05 -1.75191e-05
8.81563e-05 0.000539288 4.82315e-06
-1.75191e-05 4.82315e-06 0.000505
0.000677394 -1.03861e-05 -1.38578e-07
-1.03861e-05 7.17611e-05 -6.4056e-07
-1.38578e-07 -6.4056e-07 -1.58861e-05
0.00117392 -7.36831e-05 -1.7566e-06
-7.36831e-05 0.000405393 -1.66535e-06
-1.7566e-06 -1.66535e-06 0.000255289
0.00074099 4.9591e-05 -2.93779e-05
4.9591e-05 0.000111517 3.77347e-06
-2.93779e-05 3.77347e-06 0.000108738
0.000986937 6.87041e-05 -9.00085e-06
6.87041e-05 0.000255384 -1.1816e-07
-9.00085e-06 -1.1816e-07 0.000226298
0.000666588 3.18085e-06 1.17723e-06
3.18085e-06 5.65735e-05 -3.4168e-06
1.17723e-06 -3.4168e-06 -1.56808e-05
0.000547781 5.51888e-05 -3.38626e-07
5.51888e-05 -1.66339e-05 -5.37413e-06
-3.38626e-07 -5.37413e-06 -4.35717e-05
0.0024598 0.000103915 4.16794e-06
0.000103915 0.00113879 3.77194e-07
4.16794e-06 3.77194e-07 0.0011424
0.00239754 9.0513e-05 2.27536e-05
9.0513e-05 0.00109407 -3.93165e-06
2.27536e-05 -3.93165e-06 0.00110074
0.000732666 6.45477e-05 6.42568e-07
6.45477e-05 0.000114012 8.42391e-07
6.42568e-07 8.42391e-07 -1.11294e-05
0.000791108 7.95984e-05 4.73344e-07
7.95984e-05 0.000166631 -2.00831e-06
4.73344e-07 -2.00831e-06 3.81016e-05
0.00060183 4.92256e-05 -3.34926e-07
4.92256e-05 3.45481e-05 4.49072e-07
-3.34926e-07 4.49072e-07 -8.75081e-05
0.000638984 8.82648e-06 -1.42216e-07
8.82648e-06 3.68784e-05 -3.087e-06
-1.42216e-07 -3.087e-06 -3.80617e-05
0.00072544 6.60838e-05 5.81664e-07
6.60838e-05 0.000115886 3.31947e-08
5.81664e-07 3.31947e-08 1.96362e-06
0.00054314 -2.04079e-05 -8.46208e-07
-2.04079e-05 -3.3699e-05 -5.60155e-06
-8.46208e-07 -5.60155e-06 -5.78497e-05
0.000609237 2.23408e-05 -2.51136e-08
2.23408e-05 2.02356e-05 -1.28529e-07
-2.51136e-08 -1.28529e-07 -4.94362e-05
0.000732751 6.80418e-05 -7.86846e-07
6.80418e-05 0.00013668 1.65958e-06
-7.86846e-07 1.65958e-06 1.59085e-05
0.00248643 -6.80072e-05 -2.78071e-05
-6.80072e-05 0.00113303 -4.50271e-06
-2.78071e-05 -4.50271e-06 0.00114417
0.000534481 -2.14357e-05 -5.02419e-07
-2.14357e-05 -4.34729e-05 -5.11167e-08
-5.02419e-07 -5.11167e-08 -6.31776e-05
0.000603346 3.10793e-05 2.46019e-07
3.10793e-05 1.68776e-05 2.56045e-06
2.46019e-07 2.56045e-06 -4.6218e-05
0.00234919 -5.20798e-05 -4.44755e-06
-5.20798e-05 0.00104643 2.38543e-07
-4.44755e-06 2.38543e-07 0.00106044
0.000536283 -1.84232e-05 -1.05189e-06
-1.84232e-05 -4.52404e-05 4.20643e-06
-1.05189e-06 4.20643e-06 -6.08074e-05
0.00221896 -3.56358e-05 1.62525e-05
-3.56358e-05 0.000965193 4.59812e-06
1.62525e-05 4.59812e-06 0.000981747
0.00481576 0.000106575 0.000112616
0.000106575 0.00197489 2.43689e-05
0.000112616 2.43689e-05 0.000783354
0.000174854 -6.81699e-05 -8.29866e-07
-6.81699e-05 -2.07059e-05 -4.35628e-07
-8.29866e-07 -4.35628e-07 4.73411e-05
0.00130642 -7.47965e-05 -1.79177e-05
-7.47965e-05 -0.000420506 4.29172e-06
-1.79177e-05 4.29172e-06 -0.000106385
0.000459427 0.000103008 -6.14268e-06
0.000103008 -5.7984e-05 -1.70917e-06
-6.14268e-06 -1.70917e-06 -0.000184329
0.000819323 6.46841e-05 -1.0364e-06
6.46841e-05 0.000165852 1.4235e-07
-1.0364e-06 1.4235e-07 4.31526e-05
0.000512168 3.84029e-05 6.43389e-07
3.84029e-05 -4.05787e-05 1.30734e-07
6.43389e-07 1.30734e-07 -0.000158697
0.000818866 4.09603e-05 1.02196e-07
4.09603e-05 0.00014978 -1.81429e-07
1.02196e-07 -1.81429e-07 2.89702e-05
0.000719471 8.0607e-05 -7.69599e-07
8.0607e-05 8.39345e-05 1.90914e-07
-7.69599e-07 1.90914e-07 -3.65911e-05
0.00118772 0.000141127 6.206e-07
0.000141127 0.000392919 -6.87382e-07
6.206e-07 -6.87382e-07 0.000250389
0.000861732 0.000108579 -1.12995e-06
0.000108579 0.000173304 -6.66796e-06
-1.12995e-06 -6.66796e-06 1.25031e-05
2.8309e-05 2.55336e-05 6.43755e-07
2.55336e-05 -0.00026685 7.50969e-07
6.43755e-07 7.50969e-07 -0.000407614
0.000799013 0.000117847 -1.76955e-06
0.000117847 0.000164272 1.16972e-06
-1.76955e-06 1.16972e-06 2.96326e-05
0.000423037 2.31331e-05 -3.19504e-06
2.31331e-05 -8.14393e-05 -2.52473e-06
-3.19504e-06 -2.52473e-06 -0.000193057
0.000535234 5.95809e-05 -1.14145e-07
5.95809e-05 2.75002e-05 9.68213e-07
-1.14145e-07 9.68213e-07 -0.000110241
0.00157021 0.000170812 9.71085e-06
0.000170812 0.000686701 6.22512e-06
9.71085e-06 6.22512e-06 0.000531767
0.00108483 -0.000976437 0.000124302
-0.000976437 0.00272012 0.000205998
0.000124302 0.000205998 0.000467459
0.00370862 0.000359923 2.60046e-05
0.000359923 0.00203316 9.02085e-05
2.60046e-05 9.02085e-05 -0.00127195
0.000902327 0.000111513 -2.35667e-05
0.000111513 0.000247581 -4.31058e-05
-2.35667e-05 -4.31058e-05 -0.00144304
0.0103433 -0.00212687 -0.00027908
-0.00212687 0.00159582 -0.000203542
-0.00027908 -0.000203542 0.00225956
0.00574794 -0.000770849 7.54914e-05
-0.000770849 0.00152228 0.000261328
7.54914e-05 0.000261328 4.26899e-05
0.000840925 -0.000835871 -0.000102749
-0.000835871 0.00204014 9.00838e-05
-0.000102749 9.00838e-05 -0.00285393
0.000967211 -0.000359441 8.20404e-06
-0.000359441 0.000179058 5.66941e-05
8.20404e-06 5.66941e-05 -0.000384288
0.00226535 -0.000110854 2.87727e-05
-0.000110854 0.000686388 5.24961e-05
2.87727e-05 5.24961e-05 0.000309055
0.00126106 -0.00282923 0.000137834
-0.00282923 -0.00030204 0.000149134
0.000137834 0.000149134 0.000860715
0.00463473 0.000960901 -1.42399e-05
0.000960901 0.00368047 -2.8386e-05
-1.42399e-05 -2.8386e-05 -0.000880612
0.00329793 -0.00144704 -4.42869e-05
-0.00144704 -0.000566483 5.60112e-05
-4.42869e-05 5.60112e-05 -0.00128017
0.000577781 0.000331913 -9.00353e-06
0.000331913 2.78366e-05 5.02982e-05
-9.00353e-06 5.02982e-05 -9.18199e-05
0.00826814 0.00116225 -4.40619e-05
0.00116225 0.00382517 -2.22034e-05
-4.40619e-05 -2.22034e-05 0.000583759
0.00432544 -0.00239971 -0.000273541
-0.00239971 0.000209985 -0.000231467
-0.000273541 -0.000231467 0.000190856
0.000892265 0.000337975 6.45497e-06
0.000337975 0.00021053 -1.29585e-05
6.45497e-06 -1.29585e-05 6.24288e-05
0.000635288 9.51329e-05 2.77988e-06
9.51329e-05 0.000159998 -3.58111e-07
2.77988e-06 -3.58111e-07 2.49643e-05
0.000411712 4.22324e-05 -3.86621e-06
4.22324e-05 -1.39642e-05 -2.01638e-06
-3.86621e-06 -2.01638e-06 -0.000170937
-6.27139e-05 -8.02564e-05 -0.000164388
-8.02564e-05 0.00108132 -4.41558e-05
-0.000164388 -4.41558e-05 -0.000125271
-0.00194046 0.0001501 2.03637e-06
0.0001501 -0.000989631 -1.63898e-05
2.03637e-06 -1.63898e-05 -0.00130925
-0.000102183 9.99282e-05 -5.44604e-06
9.99282e-05 -0.000108365 4.61643e-06
-5.44604e-06 4.61643e-06 -0.000328977
0.000551 0.000324265 1.20801e-05
0.000324265 0.000266374 3.26109e-06
1.20801e-05 3.26109e-06 1.75688e-05
0.000718594 0.000273013 4.37857e-07
0.000273013 0.000592251 -3.41107e-05
4.37857e-07 -3.41107e-05 -0.00014617
-5.2462e-05 0.000541944 3.17038e-05
0.000541944 -0.000442114 7.63249e-06
3.17038e-05 7.63249e-06 -0.000815506
-0.00162903 0.000372107 0.000170276
0.000372107 0.0035192 4.99025e-06
0.000170276 4.99025e-06 0.00060145
0.00212732 -1.51879e-05 -5.82111e-06
-1.51879e-05 0.00133285 2.49104e-05
-5.82111e-06 2.49104e-05 -0.000308165
-0.000205737 -1.69763e-05 3.51412e-07
-1.69763e-05 0.000275508 1.73611e-05
3.51412e-07 1.73611e-05 -0.000140335
0.000132795 -0.000139883 -5.54616e-05
-0.000139883 0.000514434 5.64625e-06
-5.54616e-05 5.64625e-06 -2.8163e-05
-0.00046849 -0.000104228 -6.38106e-05
-0.000104228 -0.00102365 2.38249e-05
-6.38106e-05 2.38249e-05 -0.0007964
0.00120052 -0.000128336 -9.84985e-05
-0.000128336 0.000198927 3.73889e-05
-9.84985e-05 3.73889e-05 -0.00154333
-0.00230276 -0.00153375 8.14168e-05
-0.00153375 4.02276e-05 -0.000106226
8.14168e-05 -0.000106226 -0.00415253
-0.000586383 0.00199216 0.000225166
0.00199216 -0.00323612 -0.00019978
0.000225166 -0.00019978 -0.00292723
0.00298026 0.000915782 -0.000222297
0.000915782 0.00377336 0.000169152
-0.000222297 0.000169152 0.00239157
0.00150762 -0.000236794 -6.56941e-06
-0.000236794 0.00062124 -2.2393e-06
-6.56941e-06 -2.2393e-06 0.000578262
0.0014829 0.000200562 3.62082e-05
0.000200562 0.00385013 6.41232e-06
3.62082e-05 6.41232e-06 0.00222679
-0.00323769 0.00140158 2.57417e-05
0.00140158 -0.000744927 1.7471e-05
2.57417e-05 1.7471e-05 -0.00235683
0.0036044 -0.00119899 5.016e-05
-0.00119899 0.00127462 -1.42229e-05
5.016e-05 -1.42229e-05 0.000724422
0.011901 -0.000985683 1.71768e-05
-0.000985683 0.00372016 -1.20159e-05
1.71768e-05 -1.20159e-05 0.00179718
0.00316133 -0.000733483 -1.13588e-05
-0.000733483 0.00108811 2.28463e-05
-1.13588e-05 2.28463e-05 0.00107749
-0.00844777 0.000531887 -0.000230383
0.000531887 -0.00378413 9.61376e-06
-0.000230383 9.61376e-06 -0.00481992
0.0127494 -0.000580078 -0.000106072
-0.000580078 0.00316228 3.31995e-05
-0.000106072 3.31995e-05 0.00159874
0.00337641 -0.00133906 2.61378e-05
-0.00133906 -0.000143345 -2.72856e-05
2.61378e-05 -2.72856e-05 -0.000586367
-4.79039e-05 -0.000216297 -1.44146e-05
-0.000216297 -1.75518e-05 1.67964e-05
-1.44146e-05 1.67964e-05 -0.000303367
0.00159244 -0.000470133 -3.83159e-06
-0.000470133 0.000324276 1.09731e-06
-3.83159e-06 1.09731e-06 0.000277412
0.00364797 -0.000592181 1.15563e-05
-0.000592181 0.00122107 -4.44892e-06
1.15563e-05 -4.44892e-06 0.00110324
-0.00143149 -0.000125199 -5.24555e-06
-0.000125199 -0.00108021 2.45311e-06
-5.24555e-06 2.45311e-06 -0.00135399
0.00130495 -0.000481664 -5.43203e-06
-0.000481664 7.4177e-05 -2.83531e-06
-5.43203e-06 -2.83531e-06 -0.000195722
0.00229653 -0.000607638 3.56943e-06
-0.000607638 0.000401648 -9.36981e-07
3.56943e-06 -9.36981e-07 0.000168374
0.00133142 -0.000415701 -1.57317e-05
-0.000415701 0.000222337 -1.67445e-06
-1.57317e-05 -1.67445e-06 -0.000153578
0.00154353 -0.000514834 1.46158e-08
-0.000514834 0.000143632 3.59523e-07
1.46158e-08 3.59523e-07 -0.000170072
0.00159779 -0.000457582 1.00815e-06
-0.000457582 -8.72113e-06 -5.81914e-06
1.00815e-06 -5.81914e-06 -0.000215402
0.00126627 -0.000443063 -4.09212e-06
-0.000443063 8.1127e-05 -5.17157e-07
-4.09212e-06 -5.17157e-07 -0.000268529
0.00163873 -0.000441622 -4.4833e-07
-0.000441622 0.000162826 6.09637e-07
-4.4833e-07 6.09637e-07 -9.76313e-05
0.0017499 -0.000367506 -1.60867e-06
-0.000367506 9.68426e-05 -5.21287e-06
-1.60867e-06 -5.21287e-06 -7.24418e-05
0.00164446 -0.0002942 -4.54833e-06
-0.0002942 4.98217e-05 -2.8638e-06
-4.54833e-06 -2.8638e-06 -9.74918e-05
0.00154018 -0.000361907 -3.50666e-06
-0.000361907 5.7119e-05 -2.13382e-06
-3.50666e-06 -2.13382e-06 -0.000157694
0.00164349 -0.000362808 1.0855e-06
-0.000362808 0.000104822 1.68656e-06
1.0855e-06 1.68656e-06 -9.98976e-05
0.00145882 -0.000385685 -2.5275e-06
-0.000385685 0.000136976 -9.35218e-07
-2.5275e-06 -9.35218e-07 -0.000116741
0.00168887 -0.000449294 1.66443e-06
-0.000449294 0.00023151 -1.9504e-07
1.66443e-06 -1.9504e-07 -3.78909e-05
0.00166729 -0.000441078 1.74528e-06
-0.000441078 0.000233006 1.81852e-07
1.74528e-06 1.81852e-07 -3.651e-05
0.00143658 -0.000317971 -1.86172e-06
-0.000317971 0.000269052 1.66956e-06
-1.86172e-06 1.66956e-06 3.51168e-05
0.00153415 -0.000379578 1.06665e-06
-0.000379578 0.00027665 -5.2768e-07
1.06665e-06 -5.2768e-07 1.43534e-05
0.00173584 -0.00045982 -2.3306e-06
-0.00045982 0.000366006 -1.65244e-06
-2.3306e-06 -1.65244e-06 6.36997e-05
0.000930636 -0.000220377 -1.64207e-06
-0.000220377 0.000109133 2.6556e-06
-1.64207e-06 2.6556e-06 -9.20371e-05
0.00120187 -0.000274255 1.32095e-06
-0.000274255 0.000213928 4.01154e-07
1.32095e-06 4.01154e-07 -9.6093e-06
0.00104001 -0.000277433 -7.41245e-07
-0.000277433 9.38959e-05 -3.50228e-06
-7.41245e-07 -3.50228e-06 -0.00012678
0.000668874 -9.33801e-05 -8.99379e-07
-9.33801e-05 6.27406e-05 5.29248e-06
-8.99379e-07 5.29248e-06 -8.74637e-05
0.000994218 -0.000197115 2.37526e-08
-0.000197115 0.000236094 3.17822e-08
2.37526e-08 3.17822e-08 3.68596e-05
0.000506908 -0.000181407 -3.75846e-06
-0.000181407 -9.0778e-05 -7.91993e-07
-3.75846e-06 -7.91993e-07 -0.000298736
0.000379235 3.59909e-05 -6.0289e-07
3.59909e-05 -9.82479e-05 8.33915e-06
-6.0289e-07 8.33915e-06 -0.000144689
0.000688289 -5.93642e-05 -6.91221e-07
-5.93642e-05 8.72228e-05 -4.91975e-07
-6.91221e-07 -4.91975e-07 -3.50646e-05
0.0013061 -0.000133661 9.50988e-07
-0.000133661 0.000490525 -1.77196e-06
9.50988e-07 -1.77196e-06 0.000297377
0.00271488 0.000149069 -6.1988e-06
0.000149069 0.00130944 2.04354e-06
-6.1988e-06 2.04354e-06 0.00130027
0.000517951 4.77287e-05 -3.13323e-07
4.77287e-05 -2.07482e-05 -2.11509e-07
-3.13323e-07 -2.11509e-07 -5.75495e-05
0.000834281 -3.50414e-05 2.45837e-06
-3.50414e-05 0.00016385 -4.36898e-06
2.45837e-06 -4.36898e-06 7.35111e-05
0.00256761 0.000117705 4.17072e-06
0.000117705 0.00121072 3.36092e-07
4.17072e-06 3.36092e-07 0.00121112
0.000561238 5.13454e-05 1.9653e-07
5.13454e-05 -7.04786e-07 -5.90364e-06
1.9653e-07 -5.90364e-06 -3.12533e-05
0.00251945 0.000106222 2.9337e-05
0.000106222 0.00117523 -3.38594e-06
2.9337e-05 -3.38594e-06 0.00117837
0.000886069 0.000128175 1.11392e-06
0.000128175 0.000197256 2.27675e-06
1.11392e-06 2.27675e-06 5.65908e-05
0.000771989 7.62229e-05 7.53627e-08
7.62229e-05 0.000139916 -1.73586e-08
7.53627e-08 -1.73586e-08 1.08239e-05
0.000815366 6.67947e-05 2.18371e-07
6.67947e-05 0.00018452 -2.66246e-06
2.18371e-07 -2.66246e-06 4.56041e-05
0.000651588 7.72613e-06 -6.31907e-07
7.72613e-06 4.963e-05 -3.85094e-06
-6.31907e-07 -3.85094e-06 -3.20451e-05
0.000715052 4.8204e-05 2.84902e-07
4.8204e-05 0.000112569 2.64777e-07
2.84902e-07 2.64777e-07 -9.09892e-06
0.000554739 6.46574e-05 8.77841e-07
6.46574e-05 1.34499e-05 1.40377e-06
8.77841e-07 1.40377e-06 -0.000114469
0.000548969 -2.07821e-05 -1.49531e-06
-2.07821e-05 -2.65251e-05 -6.20308e-06
-1.49531e-06 -6.20308e-06 -5.48693e-05
0.000622596 1.52581e-05 -2.89299e-08
1.52581e-05 3.04918e-05 -8.75018e-08
-2.89299e-08 -8.75018e-08 -4.56216e-05
0.000683522 6.24786e-05 1.33515e-07
6.24786e-05 8.72176e-05 1.43781e-06
1.33515e-07 1.43781e-06 -2.20132e-05
0.00262595 -8.28253e-05 -3.57955e-05
-8.28253e-05 0.00122197 -4.23553e-06
-3.57955e-05 -4.23553e-06 0.0012302
0.000519513 -2.14012e-05 3.51085e-08
-2.14012e-05 -4.8186e-05 -1.05277e-07
3.51085e-08 -1.05277e-07 -7.20184e-05
0.000612167 2.52894e-05 1.45296e-07
2.52894e-05 2.27489e-05 2.88616e-06
1.45296e-07 2.88616e-06 -4.72262e-05
0.0024606 -6.70545e-05 -4.89731e-06
-6.70545e-05 0.00111709 3.0919e-07
-4.89731e-06 3.0919e-07 0.0011285
0.000526319 -2.23539e-05 -9.18651e-07
-2.23539e-05 -4.82748e-05 4.88075e-06
-9.18651e-07 4.88075e-06 -6.78364e-05
0.00231264 -5.057e-05 2.04009e-05
-5.057e-05 0.00102416 4.50926e-06
2.04009e-05 4.50926e-06 0.00103857
-0.00621436 0.000321309 -9.70224e-06
0.000321309 0.00155392 4.69967e-05
-9.70224e-06 4.69967e-05 -0.00154396
0.0046215 3.32691e-05 -4.82142e-06
3.32691e-05 0.0021697 4.04219e-06
-4.82142e-06 4.04219e-06 0.00097111
0.000218687 -7.16719e-05 -7.98212e-06
-7.16719e-05 -4.82905e-05 -6.43673e-06
-7.98212e-06 -6.43673e-06 -8.80583e-06
0.00039621 7.17647e-05 -1.43362e-06
7.17647e-05 -9.92962e-05 1.46037e-06
-1.43362e-06 1.46037e-06 -0.000219421
0.00248814 0.000356609 2.0699e-07
0.000356609 0.00115686 4.01275e-06
2.0699e-07 4.01275e-06 0.000963078
0.000650265 7.40029e-05 -3.68007e-06
7.40029e-05 4.88566e-05 -2.46143e-07
-3.68007e-06 -2.46143e-07 -8.68371e-05
0.00102541 4.40582e-05 -9.94622e-07
4.40582e-05 0.00026719 -1.90969e-06
-9.94622e-07 -1.90969e-06 0.000148353
0.00136011 0.000137992 2.64831e-06
0.000137992 0.000458589 1.77553e-07
2.64831e-06 1.77553e-07 0.000332197
0.000348766 5.16215e-05 -2.77262e-06
5.16215e-05 -0.000119314 3.22423e-06
-2.77262e-06 3.22423e-06 -0.000237583
0.000520607 7.0297e-05 -1.15407e-06
7.0297e-05 2.85665e-05 1.25329e-06
-1.15407e-06 1.25329e-06 -0.000123842
0.000693312 8.61027e-05 -1.79179e-06
8.61027e-05 7.81232e-05 -2.1622e-06
-1.79179e-06 -2.1622e-06 -7.52045e-05
0.000971333 0.000162898 2.21974e-06
0.000162898 0.000283366 -4.67256e-06
2.21974e-06 -4.67256e-06 8.85736e-05
0.000580695 0.000243116 2.26001e-06
0.000243116 -3.87444e-05 -2.7879e-06
2.26001e-06 -2.7879e-06 -0.000151123
0.00100899 8.79485e-05 -3.02627e-06
8.79485e-05 0.000313351 4.78315e-07
-3.02627e-06 4.78315e-07 0.000165361
0.00105712 0.000147474 6.21674e-07
0.000147474 0.000389943 3.38593e-06
6.21674e-07 3.38593e-06 0.000234456
-0.00481489 -0.00102636 -0.000476774
-0.00102636 -0.000881341 -2.70532e-05
-0.000476774 -2.70532e-05 -0.00238837
-0.00324726 -0.00073131 0.000194722
-0.00073131 0.00181847 9.72639e-05
0.000194722 9.72639e-05 -0.000783257
0.00433468 0.000405 -0.00016651
0.000405 0.00207268 -7.82446e-05
-0.00016651 -7.82446e-05 -0.00135273
-0.00754977 -0.00290771 0.000681012
-0.00290771 -0.0027871 0.000532434
0.000681012 0.000532434 -0.00178003
0.0145581 -0.00167779 -4.68982e-05
-0.00167779 0.00446551 0.000156801
-4.68982e-05 0.000156801 0.0040512
-0.00161833 0.00111359 -5.71714e-06
0.00111359 0.000436118 -8.45056e-05
-5.71714e-06 -8.45056e-05 -0.00388512
0.00247998 2.31897e-06 -0.000136336
2.31897e-06 0.00117992 2.64573e-05
-0.000136336 2.64573e-05 0.000252843
0.00216244 0.00043507 3.86765e-06
0.00043507 0.000789991 2.59644e-05
3.86765e-06 2.59644e-05 0.000533142
0.0104388 -0.00185866 -0.00020437
-0.00185866 0.00485711 5.61434e-05
-0.00020437 5.61434e-05 0.00446248
-0.000255827 0.00121937 -1.83703e-05
0.00121937 0.000541378 -3.25429e-05
-1.83703e-05 -3.25429e-05 -0.00295159
0.00190627 0.000869591 -3.21665e-05
0.000869591 0.000365861 -6.01196e-05
-3.21665e-05 -6.01196e-05 0.000380594
0.0042824 0.001798 -0.000200918
0.001798 9.51409e-05 -0.000114119
-0.000200918 -0.000114119 -0.00230089
0.00226508 0.000671841 1.77484e-05
0.000671841 0.000638249 -2.03954e-05
1.77484e-05 -2.03954e-05 0.000393235
0.000820823 0.000311746 -4.59476e-06
0.000311746 0.000173195 5.57726e-07
-4.59476e-06 5.57726e-07 3.50217e-05
0.00114348 0.000102588 -6.73305e-06
0.000102588 0.000442323 4.42739e-06
-6.73305e-06 4.42739e-06 0.000318567
-0.00105334 0.000215865 -4.86682e-05
0.000215865 -0.000417113 -4.91787e-05
-4.86682e-05 -4.91787e-05 -0.00106336
0.00260151 0.000486085 -2.34059e-05
0.000486085 0.00132045 -1.59074e-05
-2.34059e-05 -1.59074e-05 0.00106996
0.00130281 0.000666381 1.3835e-05
0.000666381 0.000192662 -4.06165e-06
1.3835e-05 -4.06165e-06 -0.000178354
0.00301924 0.00104215 0.000106306
0.00104215 0.00042175 3.32869e-05
0.000106306 3.32869e-05 0.000273211
-0.00487589 -0.00010836 -0.000300778
-0.00010836 -0.00394016 5.85042e-06
-0.000300778 5.85042e-06 -0.00272956
-0.00370435 0.000210721 0.000149467
0.000210721 0.00291599 2.75008e-06
0.000149467 2.75008e-06 -0.000122881
0.00226103 -5.9284e-05 -7.50271e-05
-5.9284e-05 0.00145845 3.09536e-05
-7.50271e-05 3.09536e-05 0.000208214
0.00197233 -0.000307939 -5.47574e-05
-0.000307939 0.000680302 -3.84897e-05
-5.47574e-05 -3.84897e-05 0.000631897
0.00132202 -0.00101855 -1.49382e-05
-0.00101855 -0.000105271 1.59699e-05
-1.49382e-05 1.59699e-05 -0.000467382
0.00148543 0.000152113 -1.94527e-05
0.000152113 0.00377127 3.20181e-05
-1.94527e-05 3.20181e-05 0.0022927
0.00282498 -0.00108463 0.000193803
-0.00108463 7.36746e-06 -0.000135705
0.000193803 -0.000135705 -0.0025084
0.0114018 0.00136206 0.000177314
0.00136206 0.00529163 -7.60348e-06
0.000177314 -7.60348e-06 0.00428731
0.00267135 -0.000857116 -2.28207e-05
-0.000857116 0.000675264 7.32643e-06
-2.28207e-05 7.32643e-06 0.000495702
-0.000317695 0.00062132 9.65284e-05
0.00062132 -0.000420588 -2.38391e-05
9.65284e-05 -2.38391e-05 -0.00109068
0.00516905 -0.000536768 -6.36023e-05
-0.000536768 -0.000539109 6.17017e-05
-6.36023e-05 6.17017e-05 -0.00271858
0.00567848 -0.00147686 -3.52855e-05
-0.00147686 0.00106753 1.72967e-05
-3.52855e-05 1.72967e-05 0.000567689
0.00148982 -0.000601762 4.92843e-05
-0.000601762 2.43514e-05 -1.21901e-05
4.92843e-05 -1.21901e-05 -0.000190259
0.0106766 -0.000483309 6.52939e-06
-0.000483309 0.00252074 -2.64751e-05
6.52939e-06 -2.64751e-05 0.000974336
0.00361301 -0.000787409 7.84843e-05
-0.000787409 -0.000737534 -4.62204e-05
7.84843e-05 -4.62204e-05 -0.00053392
-0.00100491 -0.000270845 -2.38652e-05
-0.000270845 -0.00114602 1.22027e-05
-2.38652e-05 1.22027e-05 -0.00108801
0.000375377 -0.000361577 -1.11922e-05
-0.000361577 -0.000564475 -8.9451e-07
-1.11922e-05 -8.9451e-07 -0.000602109
0.0036398 -0.00061019 3.22686e-05
-0.00061019 0.000966942 -1.86985e-05
3.22686e-05 -1.86985e-05 0.000903647
0.000353521 -0.000382478 -1.3779e-05
-0.000382478 -0.000390533 -7.74364e-06
-1.3779e-05 -7.74364e-06 -0.000662459
0.00177296 -0.00055457 6.03334e-08
-0.00055457 0.000139079 -9.12655e-07
6.03334e-08 -9.12655e-07 -8.1568e-05
0.0022337 -0.00050838 -6.75462e-07
-0.00050838 0.000194026 -9.25071e-07
-6.75462e-07 -9.25071e-07 5.19966e-05
0.00158041 -0.000507536 -2.97213e-06
-0.000507536 0.000167637 4.24451e-06
-2.97213e-06 4.24451e-06 -0.000149954
0.00184239 -0.000475383 -2.03875e-06
-0.000475383 0.000122785 7.80243e-07
-2.03875e-06 7.80243e-07 -8.86703e-05
0.00190293 -0.000370831 2.90913e-07
-0.000370831 7.51797e-05 -9.35071e-07
2.90913e-07 -9.35071e-07 -5.08916e-05
0.00126339 -0.000403897 3.67777e-06
-0.000403897 -4.3072e-05 4.49137e-06
3.67777e-06 4.49137e-06 -0.000296331
0.00173344 -0.00035952 -1.66773e-07
-0.00035952 9.51246e-05 1.00696e-06
-1.66773e-07 1.00696e-06 -7.23796e-05
0.00178961 -0.000304947 -3.46645e-06
-0.000304947 7.45779e-05 -1.19761e-06
-3.46645e-06 -1.19761e-06 -4.12849e-05
0.00199648 -0.000290222 -3.10145e-06
-0.000290222 0.000260349 -4.37928e-07
-3.10145e-06 -4.37928e-07 0.000141581
0.00172558 -0.000296856 -2.52266e-06
-0.000296856 9.18578e-05 3.16104e-06
-2.52266e-06 3.16104e-06 -5.0891e-05
0.00176447 -0.000312108 -1.70982e-06
-0.000312108 0.000153077 -5.39708e-06
-1.70982e-06 -5.39708e-06 -9.48598e-06
0.00168681 -0.000361983 -4.26261e-06
-0.000361983 0.000180163 -1.96224e-06
-4.26261e-06 -1.96224e-06 -3.7839e-05
0.00168521 -0.000372223 1.24844e-06
-0.000372223 0.000142331 4.57876e-07
1.24844e-06 4.57876e-07 -7.33655e-05
0.00160964 -0.00035218 4.0436e-06
-0.00035218 9.1732e-05 5.94828e-06
4.0436e-06 5.94828e-06 -0.000107671
0.00152102 -0.000340103 -6.60094e-06
-0.000340103 0.000238254 1.5939e-06
-6.60094e-06 1.5939e-06 3.53442e-06
0.00145998 -0.000386832 -4.81658e-07
-0.000386832 0.000133082 2.82811e-07
-4.81658e-07 2.82811e-07 -0.000120934
0.00177039 -0.000450924 2.96676e-06
-0.000450924 0.000287961 5.00934e-07
2.96676e-06 5.00934e-07 2.07897e-05
0.00107732 -0.000242792 -4.40097e-06
-0.000242792 0.000116087 3.49615e-06
-4.40097e-06 3.49615e-06 -9.0684e-05
0.00131257 -0.000308184 3.52021e-07
-0.000308184 0.000193347 3.02077e-07
3.52021e-07 3.02077e-07 -3.97257e-05
0.00138046 -0.000368185 2.40417e-06
-0.000368185 0.000188015 -2.0512e-06
2.40417e-06 -2.0512e-06 -7.1923e-05
0.000815363 -0.000158409 -5.56564e-06
-0.000158409 0.000108244 5.02441e-06
-5.56564e-06 5.02441e-06 -5.94099e-05
0.00109498 -0.000235483 8.1172e-07
-0.000235483 0.000206921 -2.6618e-07
8.1172e-07 -2.6618e-07 2.85224e-06
0.00106807 -0.000262186 1.17903e-06
-0.000262186 0.000128908 -1.70554e-06
1.17903e-06 -1.70554e-06 -9.23476e-05
0.000341657 -2.0921e-05 -6.37234e-06
-2.0921e-05 -0.000139298 1.13651e-05
-6.37234e-06 1.13651e-05 -0.00019593
0.00072144 -0.000113957 6.06219e-07
-0.000113957 9.86688e-05 6.71059e-07
6.06219e-07 6.71059e-07 -5.90792e-05
0.00132518 -0.000217624 4.38919e-07
-0.000217624 0.000431112 -1.29328e-06
4.38919e-07 -1.29328e-06 0.000226082
0.00308953 0.000155639 -5.1156e-05
0.000155639 0.00153698 2.43603e-06
-5.1156e-05 2.43603e-06 0.00152721
0.000521269 2.0931e-05 -1.97729e-07
2.0931e-05 -1.99209e-05 -6.55945e-07
-1.97729e-07 -6.55945e-07 -6.55815e-05
0.00109209 -0.000105183 2.17067e-06
-0.000105183 0.000329112 -5.17436e-06
2.17067e-06 -5.17436e-06 0.000198274
0.00184013 0.000104508 2.48228e-05
0.000104508 0.000780187 4.66208e-07
2.48228e-05 4.66208e-07 0.000772592
0.000614919 4.08044e-05 2.03861e-06
4.08044e-05 3.47568e-05 -7.07609e-06
2.03861e-06 -7.07609e-06 -1.29294e-06
0.00267244 0.000119701 4.02195e-05
0.000119701 0.00127348 -2.80795e-06
4.02195e-05 -2.80795e-06 0.00127356
0.00090024 0.000140685 3.9126e-06
0.000140685 0.000179693 9.30359e-07
3.9126e-06 9.30359e-07 4.04935e-05
0.000550236 7.59037e-05 -2.05685e-07
7.59037e-05 -7.14786e-06 1.60764e-07
-2.05685e-07 1.60764e-07 -0.000133596
0.0006317 5.5985e-05 -3.08605e-07
5.5985e-05 5.14376e-05 -1.53197e-06
-3.08605e-07 -1.53197e-06 -7.77433e-05
0.000924329 9.88165e-05 5.08012e-07
9.88165e-05 0.000233721 4.53028e-07
5.08012e-07 4.53028e-07 9.89199e-05
0.000705576 4.17009e-05 2.16085e-07
4.17009e-05 9.86899e-05 4.39286e-08
2.16085e-07 4.39286e-08 -2.39158e-05
0.000666776 1.22717e-05 -1.03439e-06
1.22717e-05 6.00147e-05 -4.59078e-06
-1.03439e-06 -4.59078e-06 -2.89602e-05
0.00056114 -2.18221e-05 -2.22014e-06
-2.18221e-05 -1.29675e-05 -7.08379e-06
-2.22014e-06 -7.08379e-06 -4.58807e-05
0.000613145 7.91284e-06 2.48208e-07
7.91284e-06 2.81224e-05 -7.50471e-08
2.48208e-07 -7.50471e-08 -5.42126e-05
0.000633366 2.14027e-05 -4.5579e-07
2.14027e-05 4.27095e-05 1.87355e-06
-4.5579e-07 1.87355e-06 -6.32093e-05
0.00272895 -9.63434e-05 -4.49572e-05
-9.63434e-05 0.00129009 -3.92559e-06
-4.49572e-05 -3.92559e-06 0.00129553
0.000518697 -1.85967e-05 -4.19392e-08
-1.85967e-05 -4.36385e-05 -8.82166e-08
-4.19392e-08 -8.82166e-08 -7.18021e-05
0.000592908 1.90347e-05 4.90711e-07
1.90347e-05 1.66423e-05 3.197e-06
4.90711e-07 3.197e-06 -6.09592e-05
0.00259508 -8.23895e-05 -5.22142e-06
-8.23895e-05 0.00120302 3.55755e-07
-5.22142e-06 3.55755e-07 0.00121137
0.000508466 -2.5345e-05 -1.6814e-07
-2.5345e-05 -5.44619e-05 5.50628e-06
-1.6814e-07 5.50628e-06 -7.83512e-05
0.00246479 -6.64217e-05 2.55206e-05
-6.64217e-05 0.00111917 4.44705e-06
2.55206e-05 4.44705e-06 0.00113069
5.67655e-06 0.000317976 -0.000262014
0.000317976 0.00186554 1.94238e-05
-0.000262014 1.94238e-05 0.000627518
-0.00311772 2.21153e-05 1.82687e-05
2.21153e-05 0.0021093 1.40231e-05
1.82687e-05 1.40231e-05 -0.00101205
0.00431788 -2.69465e-05 -7.76452e-05
-2.69465e-05 0.00225145 -9.96654e-06
-7.76452e-05 -9.96654e-06 0.00105363
0.00047536 4.61025e-05 2.50998e-06
4.61025e-05 -5.51551e-05 -2.4022e-06
2.50998e-06 -2.4022e-06 -0.000169636
0.000646199 5.498e-05 2.76897e-06
5.498e-05 4.28432e-05 1.06703e-06
2.76897e-06 1.06703e-06 -9.85809e-05
0.001695 0.000274555 -1.572e-06
0.000274555 0.000690846 1.06177e-06
-1.572e-06 1.06177e-06 0.000516535
0.00133014 0.000294486 3.35372e-06
0.000294486 0.000378366 -2.42227e-06
3.35372e-06 -2.42227e-06 0.000155136
0.00105464 0.00021217 -6.14127e-06
0.00021217 0.000342595 -1.12483e-07
-6.14127e-06 -1.12483e-07 0.0001577
0.000911179 0.000121149 3.39593e-07
0.000121149 0.000262014 3.05907e-06
3.39593e-07 3.05907e-06 0.000101407
0.000830197 0.000109227 4.85015e-06
0.000109227 0.000169991 3.42247e-06
4.85015e-06 3.42247e-06 1.75038e-05
0.000614964 0.000165405 -4.72421e-06
0.000165405 8.75545e-05 -3.38437e-06
-4.72421e-06 -3.38437e-06 -0.000101563
-0.000382433 0.000152222 8.68271e-07
0.000152222 -0.000565176 -5.68588e-07
8.68271e-07 -5.68588e-07 -0.000750304
0.0016528 0.000353967 3.92671e-06
0.000353967 0.00049531 -2.85028e-06
3.92671e-06 -2.85028e-06 0.000363106
0.002024 0.000568418 5.8774e-06
0.000568418 0.000423838 -7.14469e-06
5.8774e-06 -7.14469e-06 0.000213423
0.000826997 0.000270321 -5.91754e-06
0.000270321 0.000116499 -6.89146e-07
-5.91754e-06 -6.89146e-07 -8.45048e-06
0.00074418 0.000107451 -2.119e-06
0.000107451 0.000156885 -2.42964e-06
-2.119e-06 -2.42964e-06 1.44527e-05
0.0116779 0.00098221 -0.000101099
0.00098221 0.00276678 4.02696e-05
-0.000101099 4.02696e-05 0.00129131
-9.60196e-05 -0.000811975 -0.000222649
-0.000811975 0.00226671 -7.6536e-05
-0.000222649 -7.6536e-05 0.00067072
-0.00143789 -0.00117589 0.000137212
-0.00117589 0.00182096 4.85567e-06
0.000137212 4.85567e-06 -0.000823441
-0.000924849 -0.00103999 4.93364e-05
-0.00103999 -5.63335e-05 0.000177132
4.93364e-05 0.000177132 -0.000512229
0.0113147 0.00139535 -4.5041e-06
0.00139535 0.00493101 2.52713e-06
-4.5041e-06 2.52713e-06 0.0016077
-0.000230693 0.000294847 -2.49791e-05
0.000294847 -0.000351659 -2.572e-05
-2.49791e-05 -2.572e-05 -0.000537176
0.00163994 0.000804667 -2.42798e-05
0.000804667 0.000334917 -1.20722e-05
-2.42798e-05 -1.20722e-05 0.000334466
0.0110979 0.00123861 2.52792e-05
0.00123861 0.00348437 2.39311e-05
2.52792e-05 2.39311e-05 0.00146946
0.00590806 0.00165818 -4.40336e-05
0.00165818 0.000899499 -5.42368e-05
-4.40336e-05 -5.42368e-05 0.000504216
0.00160313 0.000680339 4.12991e-06
0.000680339 0.000142701 -6.47813e-06
4.12991e-06 -6.47813e-06 -3.27634e-05
0.00113287 0.000516625 5.9111e-06
0.000516625 0.000165156 -5.45336e-07
5.9111e-06 -5.45336e-07 -6.26754e-05
0.000925347 0.00028925 -1.78981e-05
0.00028925 0.000251516 1.73848e-05
-1.78981e-05 1.73848e-05 0.000123473
0.00267533 0.000832302 -4.74156e-05
0.000832302 0.000780504 -1.98048e-05
-4.74156e-05 -1.98048e-05 0.000423557
0.00195026 0.00094561 1.69412e-06
0.00094561 -0.000240775 1.96067e-05
1.69412e-06 1.96067e-05 -0.000389781
0.00105199 -0.000365806 -3.95996e-05
-0.000365806 -0.00330072 2.36839e-05
-3.95996e-05 2.36839e-05 -0.00352658
0.00202985 -0.000562427 -3.12625e-07
-0.000562427 0.00127198 -2.33439e-05
-3.12625e-07 -2.33439e-05 0.00134101
-0.00596295 2.35315e-05 0.000173248
2.35315e-05 0.00239777 -5.07592e-06
0.000173248 -5.07592e-06 -0.00079867
0.00170578 -0.000875245 -2.93793e-05
-0.000875245 8.79355e-05 6.89026e-06
-2.93793e-05 6.89026e-06 -0.000193864
0.00330966 -0.00132411 3.25844e-05
-0.00132411 0.000478521 -3.1706e-06
3.25844e-05 -3.1706e-06 -0.000324921
0.00124727 -0.000301601 0.000299428
-0.000301601 0.00217852 -2.76466e-05
0.000299428 -2.76466e-05 0.00116169
0.0128404 -0.000665882 -0.000150552
-0.000665882 0.00342981 7.00489e-05
-0.000150552 7.00489e-05 0.00182806
0.00107133 -0.000596481 -2.96914e-05
-0.000596481 -0.000221299 -2.70757e-06
-2.96914e-05 -2.70757e-06 -0.000385361
0.00887303 5.28339e-05 -7.41718e-05
5.28339e-05 0.000927761 3.18368e-05
-7.41718e-05 3.18368e-05 -0.000142671
0.00486 -0.000866217 8.06164e-05
-0.000866217 -0.000119162 6.42618e-06
8.06164e-05 6.42618e-06 -0.000316631
0.00363706 -0.000604937 5.71453e-05
-0.000604937 0.00100124 -1.508e-05
5.71453e-05 -1.508e-05 0.000675836
0.00324292 -0.000317854 -8.86135e-05
-0.000317854 -0.000202341 7.01435e-06
-8.86135e-05 7.01435e-06 -0.000107972
-0.00239399 -0.000180067 -1.38241e-05
-0.000180067 -0.00209726 5.20847e-06
-1.38241e-05 5.20847e-06 -0.00205523
0.00151431 -0.000476053 -1.20275e-06
-0.000476053 -0.000168287 -5.33547e-07
-1.20275e-06 -5.33547e-07 -0.000199128
0.00248094 -0.000426692 1.81194e-05
-0.000426692 0.000202384 -9.7034e-06
1.81194e-05 -9.7034e-06 0.000235599
0.00112791 -0.000495275 -2.78561e-06
-0.000495275 -0.000183899 3.11117e-06
-2.78561e-06 3.11117e-06 -0.000392993
0.00181025 -0.00046766 -2.05035e-06
-0.00046766 -9.25723e-06 5.53765e-07
-2.05035e-06 5.53765e-07 -0.000147398
0.00204673 -0.000371375 2.06014e-06
-0.000371375 1.65836e-05 9.36646e-07
2.06014e-06 9.36646e-07 -3.51799e-05
0.0018974 -0.000476692 -4.70326e-06
-0.000476692 0.000155626 6.5845e-06
-4.70326e-06 6.5845e-06 -5.85601e-05
0.00187936 -0.000368661 3.83106e-07
-0.000368661 6.25257e-05 1.779e-06
3.83106e-07 1.779e-06 -6.15198e-05
0.00189238 -0.000329985 -2.82421e-07
-0.000329985 7.65677e-05 2.06134e-06
-2.82421e-07 2.06134e-06 -1.05904e-05
0.00169669 -0.000351315 3.6604e-06
-0.000351315 8.07125e-05 5.75008e-06
3.6604e-06 5.75008e-06 -8.50992e-05
0.00177319 -0.000307028 -4.38248e-07
-0.000307028 6.34247e-05 1.44357e-06
-4.38248e-07 1.44357e-06 -5.35277e-05
0.00200607 -0.000312282 -1.25384e-06
-0.000312282 0.00020944 5.55375e-07
-1.25384e-06 5.55375e-07 0.000104031
0.00185375 -0.000284628 -4.02154e-06
-0.000284628 0.000168204 3.49247e-06
-4.02154e-06 3.49247e-06 5.303e-05
0.00188649 -0.000295137 1.12041e-06
-0.000295137 0.0002172 -3.06112e-06
1.12041e-06 -3.06112e-06 8.52121e-05
0.00180427 -0.000299961 3.15237e-06
-0.000299961 0.000132611 7.81336e-06
3.15237e-06 7.81336e-06 -5.7184e-06
0.00176795 -0.000313221 3.23873e-07
-0.000313221 0.000153892 -8.13294e-07
3.23873e-07 -8.13294e-07 -9.2046e-06
0.00169565 -0.000312324 -1.69003e-06
-0.000312324 0.000144123 -3.36969e-06
-1.69003e-06 -3.36969e-06 -3.60591e-05
0.00160798 -0.000326382 -5.32636e-06
-0.000326382 0.000204719 -9.11219e-07
-5.32636e-06 -9.11219e-07 -1.06693e-05
0.00172846 -0.000365909 2.84977e-07
-0.000365909 0.000205946 -2.84042e-07
2.84977e-07 -2.84042e-07 -1.34081e-05
0.00182575 -0.000382276 4.56822e-06
-0.000382276 0.000225528 2.80962e-06
4.56822e-06 2.80962e-06 8.97465e-06
0.00114378 -0.000245718 -7.29304e-06
-0.000245718 8.6253e-05 2.5323e-06
-7.29304e-06 2.5323e-06 -0.00011468
0.00138203 -0.000326591 -9.06032e-07
-0.000326591 0.000159172 2.43156e-07
-9.06032e-07 2.43156e-07 -7.39022e-05
0.00145285 -0.000386646 2.89153e-06
-0.000386646 0.000124568 6.35221e-07
2.89153e-06 6.35221e-07 -0.000129445
0.000831756 -0.000171463 -7.60974e-06
-0.000171463 4.73693e-05 6.47219e-06
-7.60974e-06 6.47219e-06 -0.000120341
0.00113901 -0.000248552 8.56487e-07
-0.000248552 0.000151537 4.92788e-07
8.56487e-07 4.92788e-07 -5.65862e-05
0.00111694 -0.000290368 3.25687e-06
-0.000290368 7.79769e-05 -1.43046e-06
3.25687e-06 -1.43046e-06 -0.000152561
0.0003941 -9.37656e-05 -1.65314e-05
-9.37656e-05 -0.000135554 1.3261e-05
-1.65314e-05 1.3261e-05 -0.000204606
0.000793705 -0.000171404 -4.60018e-07
-0.000171404 9.51527e-05 3.38914e-07
-4.60018e-07 3.38914e-07 -7.42882e-05
0.00116115 -0.000236489 2.11017e-06
-0.000236489 0.000246926 -1.9904e-06
2.11017e-06 -1.9904e-06 4.32636e-05
0.00380789 0.000175014 -8.15909e-05
0.000175014 0.00196846 2.98659e-06
-8.15909e-05 2.98659e-06 0.00195418
0.000547624 -4.09277e-05 1.24547e-06
-4.09277e-05 -2.10198e-05 -3.52556e-07
1.24547e-06 -3.52556e-07 -7.94479e-05
0.000866377 -0.000163003 4.87459e-06
-0.000163003 0.000185227 -4.60308e-06
4.87459e-06 -4.60308e-06 2.10617e-05
0.00331475 0.000145971 9.72386e-06
0.000145971 0.00166748 3.63336e-07
9.72386e-06 3.63336e-07 0.001661
0.000694033 3.04982e-06 6.99936e-06
3.04982e-06 7.71157e-05 -9.39874e-06
6.99936e-06 -9.39874e-06 3.14846e-05
0.0029562 0.000126144 6.40003e-05
0.000126144 0.00144695 -2.18275e-06
6.40003e-05 -2.18275e-06 0.00144602
0.00101556 0.000236107 4.40066e-06
0.000236107 0.000192264 -4.14687e-06
4.40066e-06 -4.14687e-06 -1.08635e-05
0.000855165 0.00016543 1.30201e-06
0.00016543 0.000162336 -1.71181e-07
1.30201e-06 -1.71181e-07 1.45803e-05
0.000385029 6.12031e-05 7.10818e-07
6.12031e-05 -0.000105619 -7.39161e-07
7.10818e-07 -7.39161e-07 -0.000240859
0.00020251 3.4836e-05 -3.19831e-07
3.4836e-05 -0.000211736 -8.56727e-07
-3.19831e-07 -8.56727e-07 -0.000329461
0.000500848 2.71248e-05 -2.97453e-07
2.71248e-05 -2.98004e-05 7.08464e-07
-2.97453e-07 7.08464e-07 -0.00015532
0.000669171 2.09173e-05 -1.37129e-06
2.09173e-05 5.99721e-05 -4.78077e-06
-1.37129e-06 -4.78077e-06 -3.85367e-05
0.000602154 1.91953e-05 9.25453e-08
1.91953e-05 2.75965e-05 2.13289e-06
9.25453e-08 2.13289e-06 -8.61743e-05
0.000606988 5.39757e-06 3.17803e-07
5.39757e-06 2.6665e-05 -2.25593e-07
3.17803e-07 -2.25593e-07 -6.2404e-05
0.000567843 -2.43012e-05 -2.79669e-06
-2.43012e-05 -2.89665e-06 -7.98119e-06
-2.79669e-06 -7.98119e-06 -4.03732e-05
0.00287756 -0.000111144 -5.44798e-05
-0.000111144 0.00138746 -3.47666e-06
-5.44798e-05 -3.47666e-06 0.00138956
0.000511491 -2.09414e-05 2.10289e-07
-2.09414e-05 -4.22019e-05 -4.37114e-08
2.10289e-07 -4.37114e-08 -7.47964e-05
0.000577625 9.33179e-06 9.22066e-07
9.33179e-06 8.12349e-06 3.93978e-06
9.22066e-07 3.93978e-06 -7.45904e-05
0.00274605 -9.77567e-05 -5.65741e-06
-9.77567e-05 0.00130013 4.37724e-07
-5.65741e-06 4.37724e-07 0.00130515
0.000480798 -2.28986e-05 7.0557e-07
-2.28986e-05 -6.49866e-05 6.15179e-06
7.0557e-07 6.15179e-06 -9.3275e-05
0.00257354 -8.17073e-05 3.1596e-05
-8.17073e-05 0.00118939 4.29316e-06
3.1596e-05 4.29316e-06 0.00119794
0.0118594 0.000544461 0.000223359
0.000544461 0.00267132 6.21738e-05
0.000223359 6.21738e-05 0.00177463
-0.00329216 -0.00107312 -0.000159311
-0.00107312 -0.00258603 -2.33774e-05
-0.000159311 -2.33774e-05 -0.0029593
-0.0059245 0.000496251 -8.10626e-05
0.000496251 0.00102603 -4.54837e-05
-8.10626e-05 -4.54837e-05 -0.00267014
0.000534318 2.76848e-05 1.07173e-05
2.76848e-05 -2.98129e-05 1.46769e-06
1.07173e-05 1.46769e-06 -0.000176064
0.000966061 0.000204048 -4.43428e-06
0.000204048 0.000260346 1.00698e-06
-4.43428e-06 1.00698e-06 0.000104574
0.0013507 0.0002345 -7.18354e-07
0.0002345 0.000499381 -1.11653e-06
-7.18354e-07 -1.11653e-06 0.000311709
0.00144199 0.000301975 -4.38993e-06
0.000301975 0.000454076 1.2445e-06
-4.38993e-06 1.2445e-06 0.000231507
0.000705109 0.0002735 1.34834e-05
0.0002735 -0.000128781 2.05706e-06
1.34834e-05 2.05706e-06 -0.000372838
0.000104247 0.00018693 1.44621e-06
0.00018693 -0.000290119 -2.27591e-06
1.44621e-06 -2.27591e-06 -0.000483792
0.000279853 0.000148913 -3.6941e-06
0.000148913 -9.18843e-05 -2.64659e-06
-3.6941e-06 -2.64659e-06 -0.000276909
0.000325945 0.000229422 1.39034e-06
0.000229422 -0.000183523 1.83654e-06
1.39034e-06 1.83654e-06 -0.000392245
0.00116193 0.000325807 -8.1968e-08
0.000325807 0.000233643 9.77434e-07
-8.1968e-08 9.77434e-07 9.50186e-05
0.000712589 0.000340902 5.76263e-06
0.000340902 -0.000127427 2.10596e-06
5.76263e-06 2.10596e-06 -0.000323324
0.00307715 0.000622237 -2.12017e-06
0.000622237 0.000974216 -2.87217e-06
-2.12017e-06 -2.87217e-06 0.000783766
0.00206091 0.00059909 -2.75621e-06
0.00059909 0.000365717 5.97191e-06
-2.75621e-06 5.97191e-06 0.000169501
0.00141202 0.000513047 4.05343e-06
0.000513047 0.000106499 -3.5842e-06
4.05343e-06 -3.5842e-06 -8.28646e-05
0.000313256 0.000246416 -3.31722e-06
0.000246416 -0.000160849 1.56111e-06
-3.31722e-06 1.56111e-06 -0.000291188
0.0058341 0.000754008 -1.25728e-05
0.000754008 0.00027868 1.1556e-05
-1.25728e-05 1.1556e-05 0.000611419
0.00999376 0.00086479 0.000113038
0.00086479 0.0018184 5.59971e-05
0.000113038 5.59971e-05 0.000179026
0.00591737 -0.00164701 0.000127214
-0.00164701 0.00329137 -5.58942e-05
0.000127214 -5.58942e-05 0.00233563
0.00377242 0.00166738 0.000359144
0.00166738 -0.000136046 0.000177147
0.000359144 0.000177147 -0.00367252
0.000845208 0.000625852 -5.31048e-05
0.000625852 8.194e-05 -5.58397e-06
-5.31048e-05 -5.58397e-06 0.000250423
0.00340745 0.00126146 -9.08781e-05
0.00126146 -9.9297e-05 -2.74892e-05
-9.08781e-05 -2.74892e-05 -0.00022198
0.00415155 0.00104383 4.42058e-05
0.00104383 0.000753532 2.02142e-05
4.42058e-05 2.02142e-05 0.000689524
0.00315225 0.000830483 1.01114e-05
0.000830483 0.000831461 5.44819e-06
1.01114e-05 5.44819e-06 0.000649568
0.000644535 0.00044353 -1.14249e-05
0.00044353 -4.10317e-05 1.81973e-05
-1.14249e-05 1.81973e-05 -0.000251712
0.00440855 0.00116504 -0.000130517
0.00116504 0.000920207 -2.55038e-05
-0.000130517 -2.55038e-05 0.000707411
0.00297163 -0.000241062 -5.60221e-05
-0.000241062 0.000370461 6.56754e-06
-5.60221e-05 6.56754e-06 0.00022273
0.0101437 -0.000313791 -1.36051e-05
-0.000313791 0.00245907 5.66098e-06
-1.36051e-05 5.66098e-06 0.00189354
-0.00978274 -0.000816274 0.000342981
-0.000816274 -0.00545879 -6.8088e-06
0.000342981 -6.8088e-06 -0.0051042
0.000276848 -0.000547158 -5.06687e-05
-0.000547158 -0.000712923 1.23578e-05
-5.06687e-05 1.23578e-05 -0.000818188
0.00719049 -0.00113272 0.000106629
-0.00113272 0.000931431 3.69185e-05
0.000106629 3.69185e-05 0.000860847
0.00155796 -0.000361519 -3.24494e-05
-0.000361519 -0.0022383 5.97568e-05
-3.24494e-05 5.97568e-05 -0.00382741
0.00165161 -0.000442663 1.69381e-05
-0.000442663 -0.000122741 1.39072e-06
1.69381e-05 1.39072e-06 -0.000261485
0.00303725 -0.000194739 -9.51845e-06
-0.000194739 -0.000353548 4.51551e-06
-9.51845e-06 4.51551e-06 -0.000342124
0.00435634 -0.000442512 2.53729e-05
-0.000442512 0.00100634 -1.13983e-05
2.53729e-05 -1.13983e-05 0.00110615
0.00369907 -0.000115294 7.08046e-05
-0.000115294 0.000857817 1.83077e-06
7.08046e-05 1.83077e-06 0.000814494
-0.000582533 -0.000356671 -7.02198e-06
-0.000356671 -0.0013004 7.68876e-06
-7.02198e-06 7.68876e-06 -0.00128938
0.00179465 -0.000392884 -4.12915e-07
-0.000392884 -0.000167771 4.73037e-07
-4.12915e-07 4.73037e-07 -0.000120499
0.00185539 -0.000278352 1.46756e-05
-0.000278352 -0.000209322 -3.39018e-06
1.46756e-05 -3.39018e-06 -8.23633e-05
0.00154447 -0.00044045 -2.47969e-07
-0.00044045 -0.000138308 2.34956e-06
-2.47969e-07 2.34956e-06 -0.000273797
0.00198288 -0.000369961 1.67377e-06
-0.000369961 -1.54047e-05 6.97325e-07
1.67377e-06 6.97325e-07 -6.7833e-05
0.00192684 -0.000306383 8.66916e-07
-0.000306383 2.73317e-05 8.96625e-07
8.66916e-07 8.96625e-07 3.34699e-06
0.00185053 -0.000365673 3.28161e-06
-0.000365673 4.66211e-05 3.80046e-06
3.28161e-06 3.80046e-06 -7.50705e-05
0.00187173 -0.000325136 7.28487e-07
-0.000325136 7.34536e-05 2.97819e-07
7.28487e-07 2.97819e-07 -1.25573e-05
0.00195343 -0.000294319 -2.62807e-06
-0.000294319 0.000131305 1.73076e-06
-2.62807e-06 1.73076e-06 5.11682e-05
0.00176715 -0.000309117 4.28268e-06
-0.000309117 5.85283e-05 3.42579e-06
4.28268e-06 3.42579e-06 -5.93988e-05
0.00184319 -0.000305088 2.55273e-07
-0.000305088 0.000122975 4.76471e-07
2.55273e-07 4.76471e-07 1.75385e-05
0.00171254 -0.000283349 2.65023e-06
-0.000283349 8.26639e-05 -1.43096e-06
2.65023e-06 -1.43096e-06 -3.11633e-05
0.00171423 -0.00027919 -1.59474e-06
-0.00027919 7.82117e-05 6.76119e-06
-1.59474e-06 6.76119e-06 -3.3428e-05
0.00189934 -0.000292162 -2.21842e-06
-0.000292162 0.000221465 1.95234e-07
-2.21842e-06 1.95234e-07 9.32106e-05
0.00183111 -0.000289779 4.84294e-07
-0.000289779 0.0002069 -1.99974e-06
4.84294e-07 -1.99974e-06 5.21251e-05
0.00177147 -0.000313739 2.79316e-06
-0.000313739 0.000154657 3.71315e-06
2.79316e-06 3.71315e-06 -8.80415e-06
0.00174061 -0.000316079 5.2361e-07
-0.000316079 0.000172073 -5.91261e-07
5.2361e-07 -5.91261e-07 -9.31715e-06
0.00173313 -0.000295278 -2.12312e-06
-0.000295278 0.000231272 -1.58642e-06
-2.12312e-06 -1.58642e-06 4.24778e-05
0.00119925 -0.000240704 -9.08345e-06
-0.000240704 6.4088e-05 2.54129e-06
-9.08345e-06 2.54129e-06 -0.000128672
0.00161087 -0.000327207 -9.73661e-07
-0.000327207 0.000210517 -2.85816e-07
-9.73661e-07 -2.85816e-07 -6.12126e-06
0.00176611 -0.000369454 4.133e-06
-0.000369454 0.000229937 1.05199e-06
4.133e-06 1.05199e-06 9.27351e-06
0.000913081 -0.000183358 -1.08506e-05
-0.000183358 3.36353e-05 6.36245e-06
-1.08506e-05 6.36245e-06 -0.000130434
0.00118512 -0.000250928 -2.28057e-07
-0.000250928 0.000105413 1.02441e-07
-2.28057e-07 1.02441e-07 -9.66633e-05
0.00128427 -0.000317412 2.2907e-06
-0.000317412 0.000102672 -4.10783e-07
2.2907e-06 -4.10783e-07 -0.000129585
0.000433752 -0.000123323 -1.8885e-05
-0.000123323 -0.000134822 1.42618e-05
-1.8885e-05 1.42618e-05 -0.000214727
0.000840657 -0.000176423 6.08018e-07
-0.000176423 5.51597e-05 4.85764e-07
6.08018e-07 4.85764e-07 -0.000113776
0.0012136 -0.000255765 6.56243e-06
-0.000255765 0.00019382 -2.35936e-06
6.56243e-06 -2.35936e-06 -1.58648e-05
0.00460666 0.000187201 -0.000121871
0.000187201 0.00244712 6.15311e-06
-0.000121871 6.15311e-06 0.00242855
0.000558719 -9.81193e-05 -1.56123e-07
-9.81193e-05 -3.80008e-05 -3.10667e-07
-1.56123e-07 -3.10667e-07 -0.000111238
0.000769307 -0.000184235 6.94977e-06
-0.000184235 7.84263e-05 -5.91941e-06
6.94977e-06 -5.91941e-06 -9.19515e-05
0.00404258 0.000145566 9.82151e-06
0.000145566 0.00210157 5.03229e-07
9.82151e-06 5.03229e-07 0.0020942
0.000713261 -5.05401e-05 1.25811e-05
-5.05401e-05 7.39902e-05 -1.15277e-05
1.25811e-05 -1.15277e-05 1.401e-05
0.00349438 0.000111878 0.000108321
0.000111878 0.00176749 -4.69868e-06
0.000108321 -4.69868e-06 0.00176927
0.00131323 0.000289427 -3.76477e-06
0.000289427 0.000259246 -4.27537e-06
-3.76477e-06 -4.27537e-06 2.74015e-05
0.00142612 0.000273573 1.2208e-06
0.000273573 0.000440574 6.98227e-07
1.2208e-06 6.98227e-07 0.000230791
0.000650002 0.000156588 2.08124e-07
0.000156588 1.28648e-05 -5.90711e-06
2.08124e-07 -5.90711e-06 -0.000165497
0.00069483 0.000175377 -2.54194e-06
0.000175377 7.93722e-05 -3.33978e-07
-2.54194e-06 -3.33978e-07 -7.53854e-05
0.000394234 7.27053e-05 4.10426e-07
7.27053e-05 -0.000100928 -5.78174e-07
4.10426e-07 -5.78174e-07 -0.000241308
0.000781133 0.000101658 -2.75878e-06
0.000101658 0.000134325 -5.17131e-06
-2.75878e-06 -5.17131e-06 8.74312e-06
0.000352196 6.51411e-06 2.07783e-07
6.51411e-06 -0.000123225 1.62287e-06
2.07783e-07 1.62287e-06 -0.000243903
0.000631388 2.00694e-05 3.1998e-08
2.00694e-05 3.9528e-05 -2.49639e-07
3.1998e-08 -2.49639e-07 -5.91241e-05
0.000577854 -1.9169e-05 -3.77233e-06
-1.9169e-05 7.47564e-06 -8.93167e-06
-3.77233e-06 -8.93167e-06 -3.49357e-05
0.000558225 2.40841e-06 8.90847e-07
2.40841e-06 -1.78009e-06 4.56467e-06
8.90847e-07 4.56467e-06 -9.00937e-05
0.000509853 -2.19133e-05 2.83015e-07
-2.19133e-05 -3.68851e-05 -7.67454e-08
2.83015e-07 -7.67454e-08 -7.39034e-05
0.00301567 -0.000123338 -6.58349e-05
-0.000123338 0.00147883 -2.93635e-06
-6.58349e-05 -2.93635e-06 0.00147807
0.00285018 -0.000111991 -4.57336e-06
-0.000111991 0.00137054 4.46748e-07
-4.57336e-06 4.46748e-07 0.00137225
0.000477104 -1.32929e-05 3.01979e-06
-1.32929e-05 -6.30578e-05 7.04367e-06
3.01979e-06 7.04367e-06 -9.49277e-05
0.00269754 -9.70607e-05 3.87852e-05
-9.70607e-05 0.00127069 4.02035e-06
3.87852e-05 4.02035e-06 0.00127577
0.00364419 4.65211e-05 3.51833e-05
4.65211e-05 -0.00029346 1.27128e-05
3.51833e-05 1.27128e-05 -2.73277e-05
0.00308943 -0.000591986 7.20194e-05
-0.000591986 -0.00241085 3.33923e-05
7.20194e-05 3.33923e-05 -0.00349776
0.00814292 -0.00111641 -9.97336e-05
-0.00111641 0.00306196 -6.08262e-05
-9.97336e-05 -6.08262e-05 0.00335517
0.00115098 0.000343946 6.38382e-06
0.000343946 6.61195e-06 4.8982e-06
6.38382e-06 4.8982e-06 -0.00024138
0.00166057 0.000264353 1.05087e-06
0.000264353 0.000665872 1.85039e-06
1.05087e-06 1.85039e-06 0.000473781
0.00163422 0.000318122 -5.81488e-06
0.000318122 0.000578097 7.83558e-06
-5.81488e-06 7.83558e-06 0.000354224
0.000767041 0.000257351 1.58329e-06
0.000257351 8.60556e-05 2.58355e-06
1.58329e-06 2.58355e-06 -0.000124072
0.00123585 0.00032455 -1.30004e-06
0.00032455 0.000195776 -1.49675e-06
-1.30004e-06 -1.49675e-06 -6.06482e-05
0.00112523 0.000379648 8.2874e-06
0.000379648 8.86004e-05 6.36455e-06
8.2874e-06 6.36455e-06 -0.000141447
0.00106204 0.000308983 -7.98826e-06
0.000308983 0.000218677 -3.95514e-06
-7.98826e-06 -3.95514e-06 -1.46198e-05
0.000609729 0.000294953 3.09195e-06
0.000294953 -6.4817e-05 3.73701e-06
3.09195e-06 3.73701e-06 -0.000206567
0.00130067 0.000401412 2.40592e-06
0.000401412 0.00019237 -1.09662e-06
2.40592e-06 -1.09662e-06 -1.32138e-05
0.00218712 0.000543485 3.01153e-06
0.000543485 0.000482958 6.3163e-06
3.01153e-06 6.3163e-06 0.000311447
0.00171611 0.000537628 3.35268e-06
0.000537628 0.000143455 5.04161e-07
3.35268e-06 5.04161e-07 -6.22096e-05
0.00175061 0.000503871 6.98161e-06
0.000503871 0.000179215 8.32313e-06
6.98161e-06 8.32313e-06 3.85821e-05
0.00121199 0.000529084 -3.21971e-06
0.000529084 -8.69193e-05 -2.81913e-06
-3.21971e-06 -2.81913e-06 -0.000272228
0.000651865 0.000439795 -1.86646e-06
0.000439795 -0.000287335 -7.03579e-07
-1.86646e-06 -7.03579e-07 -0.000451227
0.00158317 0.000420511 3.22151e-05
0.000420511 -0.000261721 3.45538e-05
3.22151e-05 3.45538e-05 -0.000189841
0.00525842 0.000851967 -5.49139e-05
0.000851967 -0.00026315 -1.55257e-05
-5.49139e-05 -1.55257e-05 3.65104e-05
0.00228888 0.000540789 0.000310614
0.000540789 -0.0022862 4.15183e-05
0.000310614 4.15183e-05 -0.00411777
0.00032543 0.000916642 -2.65198e-05
0.000916642 -0.00135389 -2.59332e-05
-2.65198e-05 -2.59332e-05 -0.00139967
0.00285281 0.0008398 -2.6593e-05
0.0008398 0.000383401 -3.57547e-06
-2.6593e-05 -3.57547e-06 0.000307103
0.00270875 0.000779657 -6.96047e-05
0.000779657 0.000606189 -2.45209e-05
-6.96047e-05 -2.45209e-05 0.000420572
0.00234092 -0.00020169 -1.86499e-05
-0.00020169 -2.25148e-05 -1.04421e-05
-1.86499e-05 -1.04421e-05 7.80484e-07
0.000786944 -8.7142e-05 1.83865e-05
-8.7142e-05 -0.000274232 6.77198e-06
1.83865e-05 6.77198e-06 -0.000365246
0.00125749 0.000761613 9.9806e-05
0.000761613 -0.00333369 -1.9663e-05
9.9806e-05 -1.9663e-05 -0.00375858
-0.000459648 -0.000284343 -2.06935e-05
-0.000284343 -0.00127712 3.25277e-05
-2.06935e-05 3.25277e-05 -0.00122595
0.00396127 -0.000169303 -4.7507e-05
-0.000169303 0.000100795 3.80016e-05
-4.7507e-05 3.80016e-05 -0.000172617
0.00226767 -0.000321208 -1.72169e-05
-0.000321208 -6.56898e-05 6.2984e-06
-1.72169e-05 6.2984e-06 6.73897e-05
0.0032406 -0.00015654 -1.0471e-06
-0.00015654 0.000556986 -3.5988e-06
-1.0471e-06 -3.5988e-06 0.000513543
0.00160226 -0.000183344 3.30582e-05
-0.000183344 -0.000388058 -2.19726e-06
3.30582e-05 -2.19726e-06 -0.00022206
0.00330098 -4.42259e-05 2.67155e-05
-4.42259e-05 0.000996767 8.50657e-08
2.67155e-05 8.50657e-08 0.000956805
0.00111348 -0.000354591 -1.79124e-05
-0.000354591 -0.000523532 8.68833e-06
-1.79124e-05 8.68833e-06 -0.000466155
0.00182362 -0.000288948 3.43561e-07
-0.000288948 -0.000244088 2.16686e-06
3.43561e-07 2.16686e-06 -0.000129108
0.00201637 -0.000278765 2.07797e-06
-0.000278765 -6.72162e-05 -9.07521e-07
2.07797e-06 -9.07521e-07 9.74155e-06
0.00192143 -0.000366453 -4.61316e-07
-0.000366453 -4.15016e-05 1.86107e-06
-4.61316e-07 1.86107e-06 -9.45474e-05
0.00193475 -0.000311753 3.96099e-07
-0.000311753 3.16033e-05 5.27817e-08
3.96099e-07 5.27817e-08 2.9886e-06
0.00195222 -0.00027469 -1.85728e-06
-0.00027469 7.30064e-05 3.93504e-07
-1.85728e-06 3.93504e-07 2.30282e-05
0.00186921 -0.000321694 4.10286e-07
-0.000321694 8.07869e-05 2.13194e-07
4.10286e-07 2.13194e-07 -4.6242e-06
0.0018662 -0.000296983 -6.27113e-07
-0.000296983 8.59148e-05 6.08028e-08
-6.27113e-07 6.08028e-08 2.29115e-06
0.00180467 -0.000262561 -1.54509e-07
-0.000262561 0.000100898 4.25979e-07
-1.54509e-07 4.25979e-07 2.29024e-06
0.00167022 -0.000297314 5.08446e-07
-0.000297314 3.09665e-05 6.38792e-07
5.08446e-07 6.38792e-07 -7.44588e-05
0.00174523 -0.000285282 8.46083e-07
-0.000285282 9.95479e-05 -6.91399e-07
8.46083e-07 -6.91399e-07 -1.47121e-05
0.00176844 -0.000272612 1.71395e-06
-0.000272612 0.0001337 -2.07202e-06
1.71395e-06 -2.07202e-06 -5.49995e-07
0.00191144 -0.000288945 -4.38354e-06
-0.000288945 0.000225755 4.78409e-06
-4.38354e-06 4.78409e-06 0.000101271
0.00189227 -0.00029103 -1.41478e-06
-0.00029103 0.000239733 3.94944e-07
-1.41478e-06 3.94944e-07 8.84821e-05
0.00172631 -0.00026836 -1.32361e-06
-0.00026836 0.000197099 -1.24319e-06
-1.32361e-06 -1.24319e-06 2.58764e-05
0.00178715 -0.000320299 2.6505e-06
-0.000320299 0.000200863 1.96158e-06
2.6505e-06 1.96158e-06 1.81596e-05
0.00171943 -0.000296687 8.6893e-07
-0.000296687 0.000223959 -6.3902e-07
8.6893e-07 -6.3902e-07 3.41278e-05
0.00133175 -0.000226715 -7.25576e-06
-0.000226715 0.000103164 1.92207e-06
-7.25576e-06 1.92207e-06 -7.86816e-05
0.00090072 -0.000172834 -1.1815e-05
-0.000172834 -9.86444e-06 6.48607e-06
-1.1815e-05 6.48607e-06 -0.000166043
0.00120433 -0.000241127 -1.47444e-06
-0.000241127 6.79901e-05 3.91046e-07
-1.47444e-06 3.91046e-07 -0.000125232
0.00161865 -0.00032851 3.3214e-06
-0.00032851 0.00021914 -2.21506e-07
3.3214e-06 -2.21506e-07 1.16795e-06
0.000516237 -0.000179436 -2.17663e-05
-0.000179436 -9.18079e-05 1.4847e-05
-2.17663e-05 1.4847e-05 -0.000188777
0.00087244 -0.000181182 3.86444e-07
-0.000181182 1.18015e-05 4.60218e-09
3.86444e-07 4.60218e-09 -0.000152156
0.0012189 -0.000255419 6.89611e-06
-0.000255419 0.000120651 -2.40904e-06
6.89611e-06 -2.40904e-06 -8.24359e-05
0.00518571 0.000179117 -0.000149568
0.000179117 0.0027878 9.0576e-06
-0.000149568 9.0576e-06 0.00276845
0.000562541 -0.000161503 -1.12997e-06
-0.000161503 -5.3782e-05 1.49171e-07
-1.12997e-06 1.49171e-07 -0.000142384
0.000788718 -0.000178971 9.21506e-06
-0.000178971 2.72512e-05 -6.09636e-06
9.21506e-06 -6.09636e-06 -0.000142778
0.00478488 0.000156934 9.78154e-06
0.000156934 0.0025463 1.24539e-06
9.78154e-06 1.24539e-06 0.00253285
0.000728775 -0.000119412 1.85324e-05
-0.000119412 6.14769e-05 -1.38703e-05
1.85324e-05 -1.38703e-05 -1.59618e-05
0.00427156 0.000112513 0.000143273
0.000112513 0.00223 -8.58214e-06
0.000143273 -8.58214e-06 0.00222839
0.00126114 0.000303698 -3.62313e-06
0.000303698 0.000134173 2.47228e-07
-3.62313e-06 2.47228e-07 -9.92702e-05
0.00119243 0.00027737 -2.15139e-06
0.00027737 0.000190478 -8.09021e-07
-2.15139e-06 -8.09021e-07 -3.89541e-05
0.00104816 0.000227658 -4.41539e-06
0.000227658 0.000161407 -2.30054e-06
-4.41539e-06 -2.30054e-06 -4.35516e-05
0.00183455 0.000310505 -2.6414e-06
0.000310505 0.000687666 3.47977e-06
-2.6414e-06 3.47977e-06 0.00047135
0.000893857 0.000178297 -1.31541e-06
0.000178297 0.000159006 -2.04452e-06
-1.31541e-06 -2.04452e-06 -2.36243e-05
0.000962483 0.000156332 -4.12565e-06
0.000156332 0.00023775 -6.09667e-06
-4.12565e-06 -6.09667e-06 8.45902e-05
0.000466428 8.7657e-05 -5.17602e-07
8.7657e-05 -6.09219e-05 3.06908e-07
-5.17602e-07 3.06908e-07 -0.000205884
0.00066366 5.00547e-05 -6.42184e-07
5.00547e-05 5.70017e-05 -2.42032e-07
-6.42184e-07 -2.42032e-07 -5.81876e-05
0.0005945 -7.50366e-07 -6.3809e-06
-7.50366e-07 1.65492e-05 -1.00198e-05
-6.3809e-06 -1.00198e-05 -3.26888e-05
0.000541228 6.15749e-07 9.15871e-07
6.15749e-07 -1.23469e-05 4.95923e-06
9.15871e-07 4.95923e-06 -0.000109729
0.000499795 -2.27309e-05 3.92429e-07
-2.27309e-05 -3.70878e-05 -1.63706e-07
3.92429e-07 -1.63706e-07 -7.94464e-05
0.00322546 -0.000131277 -8.24468e-05
-0.000131277 0.00161208 -2.68795e-06
-8.24468e-05 -2.68795e-06 0.0016093
0.000455984 -1.97537e-05 3.19313e-06
-1.97537e-05 -6.85175e-05 7.834e-06
3.19313e-06 7.834e-06 -0.000105074
0.0029888 -0.000126838 -3.73411e-06
-0.000126838 0.0014627 4.14311e-07
-3.73411e-06 4.14311e-07 0.00146078
0.00285493 -0.00011264 4.79671e-05
-0.00011264 0.00137294 3.69041e-06
4.79671e-05 3.69041e-06 0.00137437
0.000382096 5.84121e-05 1.70436e-05
5.84121e-05 -0.00101797 9.99383e-06
1.70436e-05 9.99383e-06 -0.0008993
0.00479652 3.77132e-05 5.5048e-05
3.77132e-05 0.000242044 1.40198e-06
5.5048e-05 1.40198e-06 0.000426757
0.0110756 0.000673294 -7.26966e-05
0.000673294 0.00298537 -1.6171e-05
-7.26966e-05 -1.6171e-05 0.00200912
0.00140867 0.000410445 3.20844e-06
0.000410445 0.000119801 2.87154e-06
3.20844e-06 2.87154e-06 -0.000116925
0.00177081 0.00042755 2.47678e-06
0.00042755 0.000252548 2.3461e-06
2.47678e-06 2.3461e-06 2.44349e-05
0.00122199 0.000357378 8.03741e-07
0.000357378 5.62505e-05 -1.93063e-06
8.03741e-07 -1.93063e-06 -0.000193358
0.00126958 0.000312264 -2.66815e-06
0.000312264 0.000366743 2.64102e-06
-2.66815e-06 2.64102e-06 0.000143517
0.00175298 0.000373208 -1.75187e-06
0.000373208 0.000512113 -1.17277e-06
-1.75187e-06 -1.17277e-06 0.000243874
0.00146063 0.000411913 7.17882e-06
0.000411913 0.000261585 1.04482e-06
7.17882e-06 1.04482e-06 2.85016e-05
0.00168639 0.00049959 -2.41661e-06
0.00049959 0.000104489 -1.47421e-06
-2.41661e-06 -1.47421e-06 -0.000109393
0.00193932 0.000466705 -6.99922e-06
0.000466705 0.000537965 5.86816e-07
-6.99922e-06 5.86816e-07 0.000322218
0.00120719 0.000459087 9.29014e-06
0.000459087 -5.72292e-05 1.56868e-05
9.29014e-06 1.56868e-05 -0.000210508
0.00219481 0.000574222 -2.63943e-06
0.000574222 0.000407789 8.28653e-07
-2.63943e-06 8.28653e-07 0.000199732
0.00192219 0.000500521 -9.80803e-06
0.000500521 0.000148413 1.00361e-06
-9.80803e-06 1.00361e-06 -2.15168e-05
0.000655945 0.000252989 1.66542e-05
0.000252989 -0.00051736 9.13946e-06
1.66542e-05 9.13946e-06 -0.000548606
0.000957233 0.000443305 1.03707e-05
0.000443305 -0.000225971 -2.29239e-07
1.03707e-05 -2.29239e-07 -0.000361553
0.00114383 0.000515685 -1.18106e-05
0.000515685 -0.000129181 -9.99081e-06
-1.18106e-05 -9.99081e-06 -0.00031142
0.00198418 0.000432406 3.83566e-06
0.000432406 -5.50743e-05 7.18424e-06
3.83566e-06 7.18424e-06 -3.48509e-05
0.00557111 0.000565136 2.69637e-05
0.000565136 -2.98718e-05 -2.18684e-05
2.69637e-05 -2.18684e-05 -5.90041e-05
0.00293804 0.00073515 5.62293e-06
0.00073515 0.000697001 -3.26188e-05
5.62293e-06 -3.26188e-05 0.000636822
0.00149967 -4.45059e-05 2.44148e-05
-4.45059e-05 -3.01723e-05 -2.97666e-06
2.44148e-05 -2.97666e-06 -2.43213e-05
0.00217623 -0.000134547 -2.81941e-05
-0.000134547 -5.29338e-05 2.1631e-07
-2.81941e-05 2.1631e-07 -4.19446e-05
0.00157641 0.00019469 2.62433e-05
0.00019469 -0.000559201 -7.00808e-06
2.62433e-05 -7.00808e-06 -0.000702942
0.000205614 -0.000222192 -3.26255e-05
-0.000222192 -0.00113782 2.54937e-05
-3.26255e-05 2.54937e-05 -0.000989489
0.00330556 -0.000233081 -9.5479e-05
-0.000233081 0.000511565 -1.12432e-06
-9.5479e-05 -1.12432e-06 0.000510094
0.00191764 -0.000212663 4.19717e-06
-0.000212663 -0.000156635 -3.10986e-06
4.19717e-06 -3.10986e-06 -7.48214e-06
0.00234376 -6.08612e-05 -8.50581e-06
-6.08612e-05 0.000390562 4.07679e-07
-8.50581e-06 4.07679e-07 0.000356697
0.00208394 -0.000190272 4.72324e-06
-0.000190272 5.45649e-06 8.49548e-07
4.72324e-06 8.49548e-07 3.20686e-05
0.00204911 -2.25407e-05 6.08138e-06
-2.25407e-05 3.44946e-05 3.26274e-07
6.08138e-06 3.26274e-07 2.09995e-05
0.00181303 -0.000303914 -8.28783e-06
-0.000303914 -0.000276286 3.30648e-06
-8.28783e-06 3.30648e-06 -0.000170882
0.00203942 -0.000277747 -1.86449e-06
-0.000277747 -4.24912e-05 1.28936e-07
-1.86449e-06 1.28936e-07 2.01082e-05
0.0020189 -0.000212985 -1.65701e-06
-0.000212985 1.32065e-05 -5.76644e-07
-1.65701e-06 -5.76644e-07 3.16638e-06
0.0019438 -0.000317071 -1.71602e-06
-0.000317071 3.56472e-05 -5.5871e-07
-1.71602e-06 -5.5871e-07 2.56937e-06
0.00192845 -0.000270062 1.18887e-07
-0.000270062 6.95938e-05 1.04974e-08
1.18887e-07 1.04974e-08 1.42337e-05
0.00192093 -0.000239284 -1.538e-06
-0.000239284 9.62072e-05 4.04912e-07
-1.538e-06 4.04912e-07 1.7162e-05
0.0017829 -0.000299576 -9.47577e-07
-0.000299576 4.27998e-05 -1.26917e-06
-9.47577e-07 -1.26917e-06 -4.42301e-05
0.00178263 -0.000261275 4.66571e-07
-0.000261275 8.43132e-05 -1.72786e-07
4.66571e-07 -1.72786e-07 -1.46134e-05
0.00178153 -0.000245426 1.066e-06
-0.000245426 0.000101675 -9.52211e-07
1.066e-06 -9.52211e-07 -1.36e-05
0.00178092 -0.000287383 -7.14008e-07
-0.000287383 0.000118101 4.03468e-08
-7.14008e-07 4.03468e-08 3.39877e-06
0.00178887 -0.000272947 -2.35796e-08
-0.000272947 0.000146609 -3.34612e-07
-2.35796e-08 -3.34612e-07 1.23327e-05
0.00167697 -0.000246019 -2.13514e-07
-0.000246019 0.00013599 -1.10188e-06
-2.13514e-07 -1.10188e-06 -2.14751e-05
0.00195351 -0.00029236 -1.74837e-06
-0.00029236 0.000272387 3.57227e-06
-1.74837e-06 3.57227e-06 0.000124655
0.00173899 -0.000269549 -6.36165e-07
-0.000269549 0.000205319 -1.08118e-07
-6.36165e-07 -1.08118e-07 3.50401e-05
0.00134175 -0.000205893 -6.3604e-06
-0.000205893 8.44066e-05 1.65042e-06
-6.3604e-06 1.65042e-06 -8.82282e-05
0.00170554 -0.000298014 4.11987e-06
-0.000298014 0.000216444 4.90489e-07
4.11987e-06 4.90489e-07 2.55879e-05
0.00132516 -0.000227483 -1.85065e-07
-0.000227483 9.96104e-05 -4.92323e-08
-1.85065e-07 -4.92323e-08 -8.21707e-05
0.000935386 -0.000157578 -1.31851e-05
-0.000157578 -1.20061e-05 6.09703e-06
-1.31851e-05 6.09703e-06 -0.000160942
0.000442156 -0.00016891 -2.0037e-05
-0.00016891 -0.000145887 1.40836e-05
-2.0037e-05 1.40836e-05 -0.000243906
0.000929298 -0.000174228 2.31939e-07
-0.000174228 6.52881e-06 1.45938e-07
2.31939e-07 1.45938e-07 -0.000149918
0.00121184 -0.000241696 5.71942e-06
-0.000241696 7.32008e-05 -1.85319e-06
5.71942e-06 -1.85319e-06 -0.000120496
0.00557663 0.000109604 -0.000182782
0.000109604 0.00299608 9.90631e-06
-0.000182782 9.90631e-06 0.00298958
0.000543861 -0.000175115 -1.79971e-06
-0.000175115 -8.21555e-05 7.10457e-07
-1.79971e-06 7.10457e-07 -0.000176189
0.00084306 -0.000180748 1.06081e-05
-0.000180748 -2.22804e-06 -6.13971e-06
1.06081e-05 -6.13971e-06 -0.000166387
0.00534019 0.000145101 2.98374e-06
0.000145101 0.0028718 1.81078e-07
2.98374e-06 1.81078e-07 0.00285755
0.00066114 -0.000164097 2.17255e-05
-0.000164097 1.51527e-06 -1.4718e-05
2.17255e-05 -1.4718e-05 -8.86823e-05
0.0049835 0.000129631 0.000164686
0.000129631 0.00265736 -1.14015e-05
0.000164686 -1.14015e-05 0.0026479
0.00136793 0.000336979 -2.76616e-06
0.000336979 0.000132963 1.70301e-06
-2.76616e-06 1.70301e-06 -9.32474e-05
0.00119246 0.000298878 1.53451e-07
0.000298878 9.10208e-05 4.44415e-07
1.53451e-07 4.44415e-07 -0.000140919
0.00109813 0.000241582 -7.26219e-06
0.000241582 9.0236e-05 -1.70136e-06
-7.26219e-06 -1.70136e-06 -0.000112266
0.00106877 0.00026526 -8.51775e-07
0.00026526 0.000119775 2.61805e-06
-8.51775e-07 2.61805e-06 -0.000107125
0.00105141 0.000226878 -1.85133e-06
0.000226878 0.000166271 9.95874e-07
-1.85133e-06 9.95874e-07 -3.85761e-05
0.000891182 0.000182847 -7.01965e-06
0.000182847 0.000145969 -4.98356e-06
-7.01965e-06 -4.98356e-06 -2.34717e-05
0.00109049 0.000196313 -8.96643e-07
0.000196313 0.000277801 1.25253e-06
-8.96643e-07 1.25253e-06 9.13949e-05
0.000691237 0.000124952 -5.19476e-08
0.000124952 8.02766e-05 -2.6775e-07
-5.19476e-08 -2.6775e-07 -6.86358e-05
0.000757224 5.67345e-05 -1.25979e-05
5.67345e-05 0.000104448 -1.24607e-05
-1.25979e-05 -1.24607e-05 4.03091e-05
0.000575317 1.51537e-05 1.18246e-06
1.51537e-05 3.65285e-06 4.99575e-06
1.18246e-06 4.99575e-06 -0.000106387
0.000500492 -9.40609e-06 -2.02019e-07
-9.40609e-06 -3.65031e-05 -2.97159e-07
-2.02019e-07 -2.97159e-07 -8.54264e-05
0.00359633 -0.000132587 -0.000107597
-0.000132587 0.00183923 -3.6368e-06
-0.000107597 -3.6368e-06 0.00183525
0.000436932 -2.34637e-05 3.29384e-06
-2.34637e-05 -7.34516e-05 8.62934e-06
3.29384e-06 8.62934e-06 -0.000115461
0.0031558 -0.000140088 -3.67137e-06
-0.000140088 0.00157164 3.98149e-07
-3.67137e-06 3.98149e-07 0.00156627
0.00295355 -0.000127282 5.58179e-05
-0.000127282 0.00144122 3.26713e-06
5.58179e-05 3.26713e-06 0.00143894
0.000546772 6.85069e-05 2.1061e-05
6.85069e-05 -0.000599911 3.1975e-06
2.1061e-05 3.1975e-06 -0.000539988
0.00204504 3.98887e-05 -8.22771e-06
3.98887e-05 -0.000330174 -1.36405e-06
-8.22771e-06 -1.36405e-06 -0.000190329
0.00427019 5.6613e-05 0.000146999
5.6613e-05 -0.000448628 4.01853e-05
0.000146999 4.01853e-05 0.000133207
0.00224597 0.000492059 -1.86159e-06
0.000492059 0.000440753 3.30526e-07
-1.86159e-06 3.30526e-07 0.000221815
0.00149378 0.000435818 -1.69628e-06
0.000435818 0.000155443 -3.22436e-06
-1.69628e-06 -3.22436e-06 -8.13819e-05
0.00196469 0.000388811 -1.38372e-07
0.000388811 0.00022947 3.39719e-06
-1.38372e-07 3.39719e-06 4.12904e-05
0.00176924 0.000424101 8.40822e-07
0.000424101 0.000249546 2.78165e-07
8.40822e-07 2.78165e-07 2.25428e-05
0.00127671 0.000370137 1.66955e-06
0.000370137 9.40755e-05 -6.67099e-06
1.66955e-06 -6.67099e-06 -0.000157115
0.00185064 0.000412067 -7.69043e-07
0.000412067 8.13972e-05 1.21243e-06
-7.69043e-07 1.21243e-06 -8.54898e-05
0.0018967 0.000454487 -3.84201e-06
0.000454487 0.000493916 -1.96558e-06
-3.84201e-06 -1.96558e-06 0.000255682
0.00193785 0.000511277 -6.02774e-09
0.000511277 0.000261763 -1.91069e-07
-6.02774e-09 -1.91069e-07 4.57085e-05
0.0018128 0.000297863 -4.19505e-06
0.000297863 -2.58428e-05 -1.66327e-07
-4.19505e-06 -1.66327e-07 -0.000122548
0.00266861 0.000610909 3.02375e-06
0.000610909 0.000667531 2.00832e-06
3.02375e-06 2.00832e-06 0.000457113
0.00192462 0.000504264 -1.66974e-06
0.000504264 0.000139402 9.42666e-08
-1.66974e-06 9.42666e-08 -3.38243e-05
0.000909858 0.000270022 4.93259e-06
0.000270022 -0.000343804 3.16265e-06
4.93259e-06 3.16265e-06 -0.000384888
-0.000370295 0.000345903 -4.551e-06
0.000345903 -0.000904504 -4.14477e-06
-4.551e-06 -4.14477e-06 -0.00103093
0.00205077 0.000446413 -5.81349e-05
0.000446413 -3.09057e-05 -2.89171e-05
-5.81349e-05 -2.89171e-05 -5.6182e-05
0.00187727 4.52057e-05 6.52645e-07
4.52057e-05 -7.8555e-05 -1.57019e-06
6.52645e-07 -1.57019e-06 -7.03141e-05
0.00220134 -3.89115e-05 1.2836e-06
-3.89115e-05 0.000405822 1.49537e-06
1.2836e-06 1.49537e-06 0.00041273
0.00174227 -7.18091e-05 -5.66679e-05
-7.18091e-05 -0.000185358 6.39001e-07
-5.66679e-05 6.39001e-07 -0.000267861
0.00228685 -0.000241941 -3.64536e-05
-0.000241941 0.000103549 3.10522e-06
-3.64536e-05 3.10522e-06 0.000230065
0.00143147 -7.66124e-05 -9.54183e-06
-7.66124e-05 -0.000182858 1.13624e-06
-9.54183e-06 1.13624e-06 -0.000209969
0.00201315 -0.000183851 7.24033e-09
-0.000183851 -3.88073e-05 -7.7991e-07
7.24033e-09 -7.7991e-07 -3.87034e-08
0.00211791 -2.37456e-05 -2.03013e-06
-2.37456e-05 5.45273e-05 1.47391e-06
-2.03013e-06 1.47391e-06 4.7163e-05
0.00209258 -6.81945e-05 -2.10275e-06
-6.81945e-05 2.95586e-05 -2.04609e-07
-2.10275e-06 -2.04609e-07 3.27229e-05
0.00205263 -0.000274813 -4.01829e-06
-0.000274813 -1.99937e-05 6.40233e-07
-4.01829e-06 6.40233e-07 2.84971e-05
0.00199166 -0.000204656 4.19162e-07
-0.000204656 8.31825e-06 -2.06365e-07
4.19162e-07 -2.06365e-07 -3.03303e-06
0.00201453 -0.000168223 -1.70736e-06
-0.000168223 6.62569e-05 -2.11688e-07
-1.70736e-06 -2.11688e-07 2.81347e-05
0.00190192 -0.000265917 1.13765e-06
-0.000265917 6.39881e-05 -9.98206e-07
1.13765e-06 -9.98206e-07 3.46083e-06
0.00184358 -0.00023415 2.13636e-07
-0.00023415 5.82124e-05 -2.05157e-08
2.13636e-07 -2.05157e-08 -2.29556e-05
0.00178207 -0.000194067 3.49127e-07
-0.000194067 6.17716e-05 -3.9889e-07
3.49127e-07 -3.9889e-07 -3.37119e-05
0.00177512 -0.000260636 9.26866e-07
-0.000260636 7.54938e-05 -6.09421e-07
9.26866e-07 -6.09421e-07 -2.37112e-05
0.00180932 -0.000245793 3.87682e-08
-0.000245793 0.000119377 -2.23274e-07
3.87682e-08 -2.23274e-07 4.04654e-06
0.00172141 -0.000218781 6.74249e-07
-0.000218781 0.000122022 -8.86479e-07
6.74249e-07 -8.86479e-07 -1.98682e-05
0.00180774 -0.000273253 -1.01731e-06
-0.000273253 0.00015845 1.22392e-06
-1.01731e-06 1.22392e-06 2.41402e-05
0.00170527 -0.000246887 -3.08546e-07
-0.000246887 0.000153473 -8.2381e-08
-3.08546e-07 -8.2381e-08 -3.71413e-06
0.0013892 -0.0001877 -4.74256e-06
-0.0001877 8.74011e-05 1.30448e-06
-4.74256e-06 1.30448e-06 -7.74785e-05
0.00175023 -0.000270597 8.75712e-07
-0.000270597 0.00021253 1.16467e-06
8.75712e-07 1.16467e-06 4.32324e-05
0.00136229 -0.00020686 -2.30034e-07
-0.00020686 9.55684e-05 5.73031e-08
-2.30034e-07 5.73031e-08 -7.67609e-05
0.000963887 -0.000141496 -1.36924e-05
-0.000141496 -1.00111e-05 5.6773e-06
-1.36924e-05 5.6773e-06 -0.000153852
0.00132117 -0.000228446 6.41378e-06
-0.000228446 9.75828e-05 -1.49924e-06
6.41378e-06 -1.49924e-06 -8.41638e-05
0.000960208 -0.000157971 1.26639e-07
-0.000157971 8.89128e-07 5.71348e-08
1.26639e-07 5.71348e-08 -0.000147889
0.00246175 -0.000120023 -3.15726e-05
-0.000120023 0.00104764 8.81001e-06
-3.15726e-05 8.81001e-06 0.000967766
0.00172449 -5.27794e-05 -0.000187101
-5.27794e-05 0.000675892 2.09475e-05
-0.000187101 2.09475e-05 0.000658013
0.00154264 -0.000154341 -6.10198e-06
-0.000154341 0.000505835 -3.16591e-07
-6.10198e-06 -3.16591e-07 0.000414335
0.000967243 -0.000176314 1.21764e-05
-0.000176314 2.85319e-05 -5.99953e-06
1.21764e-05 -5.99953e-06 -0.000128307
0.00566652 9.30741e-05 -6.15607e-06
9.30741e-05 0.00305583 -5.09416e-07
-6.15607e-06 -5.09416e-07 0.00304614
0.000608598 -0.000197041 2.32776e-05
-0.000197041 -4.40735e-05 -1.4597e-05
2.32776e-05 -1.4597e-05 -0.000141454
0.0054736 0.000135603 0.000176806
0.000135603 0.0029603 -1.60068e-05
0.000176806 -1.60068e-05 0.00294089
0.00195449 0.000307629 7.76253e-07
0.000307629 0.000191553 4.58352e-07
7.76253e-07 4.58352e-07 3.24732e-05
0.00168792 0.000351438 1.32881e-06
0.000351438 0.000198463 3.09942e-06
1.32881e-06 3.09942e-06 -7.08386e-06
0.00160184 0.000360914 2.74612e-08
0.000360914 0.000261548 3.9832e-08
2.74612e-08 3.9832e-08 3.23031e-05
0.00116804 0.000252629 -6.2671e-06
0.000252629 6.84334e-05 -1.90295e-06
-6.2671e-06 -1.90295e-06 -0.000129055
0.00116571 0.000297963 5.11115e-06
0.000297963 7.36177e-05 1.13817e-06
5.11115e-06 1.13817e-06 -0.000157598
0.00112027 0.000241282 -2.13533e-07
0.000241282 0.000104635 2.41e-07
-2.13533e-07 2.41e-07 -9.71606e-05
0.000820722 0.000179158 -9.61224e-06
0.000179158 2.21241e-05 -4.80109e-06
-9.61224e-06 -4.80109e-06 -0.000145123
0.00103884 0.000224871 2.16331e-06
0.000224871 0.000160534 4.68245e-06
2.16331e-06 4.68245e-06 -4.38388e-05
0.000811753 0.000167915 -2.89381e-07
0.000167915 9.93856e-05 6.82231e-07
-2.89381e-07 6.82231e-07 -6.84497e-05
0.000729048 0.000140522 -2.01758e-05
0.000140522 6.79584e-05 -1.41889e-05
-2.01758e-05 -1.41889e-05 -1.55207e-05
0.000611348 9.05946e-05 1.82546e-06
9.05946e-05 2.84554e-05 4.73699e-06
1.82546e-06 4.73699e-06 -0.000112148
0.000511105 4.22452e-05 -1.34916e-06
4.22452e-05 -3.86181e-05 -6.73261e-07
-1.34916e-06 -6.73261e-07 -9.92164e-05
0.00423253 -0.000126512 -0.000143158
-0.000126512 0.00222189 -7.4049e-06
-0.000143158 -7.4049e-06 0.00221515
0.000383177 -1.70651e-05 3.72879e-06
-1.70651e-05 -0.000102495 9.69642e-06
3.72879e-06 9.69642e-06 -0.000151509
0.00344287 -0.000151737 -4.93719e-06
-0.000151737 0.00175127 4.00872e-07
-4.93719e-06 4.00872e-07 0.00174248
0.00310413 -0.000143093 6.43036e-05
-0.000143093 0.00154096 2.67913e-06
6.43036e-05 2.67913e-06 0.00153455
0.00194019 0.000157823 1.00858e-06
0.000157823 -3.38737e-05 -9.7688e-07
1.00858e-06 -9.7688e-07 -5.42419e-05
0.00191341 5.13261e-05 1.71169e-05
5.13261e-05 0.000118199 -4.91589e-07
1.71169e-05 -4.91589e-07 0.000166222
0.0042777 4.55102e-05 -9.9551e-05
4.55102e-05 0.000622203 -1.45099e-05
-9.9551e-05 -1.45099e-05 0.000808117
0.00179277 0.000354135 -2.48015e-06
0.000354135 6.53067e-05 1.39044e-06
-2.48015e-06 1.39044e-06 -9.44704e-05
0.00190255 0.000461533 -2.56942e-06
0.000461533 0.000257243 -9.10554e-08
-2.56942e-06 -9.10554e-08 4.13104e-05
0.00148302 0.000451265 -1.09025e-05
0.000451265 0.000138386 -7.5106e-06
-1.09025e-05 -7.5106e-06 -9.63879e-05
0.00202419 0.000380682 2.77232e-06
0.000380682 0.00027606 1.04587e-06
2.77232e-06 1.04587e-06 9.01162e-05
0.00175431 0.000419819 -1.45034e-06
0.000419819 0.000239767 -2.74476e-06
-1.45034e-06 -2.74476e-06 1.38859e-05
0.00220064 0.000295446 7.19409e-07
0.000295446 0.000199843 6.64008e-07
7.19409e-07 6.64008e-07 9.69057e-05
0.00172727 0.000405115 -6.40506e-07
0.000405115 2.98188e-05 7.41303e-07
-6.40506e-07 7.41303e-07 -0.000137442
0.00221738 0.000525614 -2.27199e-06
0.000525614 0.000434062 -6.02114e-07
-2.27199e-06 -6.02114e-07 0.000215253
0.00181681 0.000302093 -1.0126e-06
0.000302093 -1.7649e-05 -2.21956e-07
-1.0126e-06 -2.21956e-07 -0.00011597
0.00204571 0.000516163 1.70374e-05
0.000516163 0.000185056 2.05803e-06
1.70374e-05 2.05803e-06 8.06004e-06
0.00116765 0.000273269 -2.79822e-05
0.000273269 -0.000180307 -7.04238e-06
-2.79822e-05 -7.04238e-06 -0.000228417
0.0020455 5.29787e-05 -2.1833e-06
5.29787e-05 1.97085e-05 3.60247e-07
-2.1833e-06 3.60247e-07 1.59804e-05
0.00198189 5.48089e-05 -2.05032e-06
5.48089e-05 -8.5052e-06 2.3115e-07
-2.05032e-06 2.3115e-07 -4.10837e-06
0.00290578 -2.87884e-05 -3.89869e-05
-2.87884e-05 0.000849161 3.46105e-06
-3.89869e-05 3.46105e-06 0.000851681
0.00192803 -0.000176186 -9.42862e-06
-0.000176186 -9.60217e-05 -5.70466e-07
-9.42862e-06 -5.70466e-07 -4.53155e-05
0.00205084 -2.30605e-05 -1.54193e-06
-2.30605e-05 -1.14265e-05 -1.59304e-06
-1.54193e-06 -1.59304e-06 -1.37343e-05
0.00205782 -7.22389e-05 -3.45e-07
-7.22389e-05 -6.65031e-06 7.57651e-08
-3.45e-07 7.57651e-08 1.50618e-06
0.00193427 -5.72888e-05 -2.17171e-06
-5.72888e-05 3.11725e-05 1.80486e-07
-2.17171e-06 1.80486e-07 1.10526e-05
0.00196492 -0.000195237 1.96917e-06
-0.000195237 5.13214e-06 1.97512e-07
1.96917e-06 1.97512e-07 -7.28082e-06
0.00191835 -0.000168165 1.9239e-07
-0.000168165 2.07687e-05 -5.59172e-09
1.9239e-07 -5.59172e-09 -2.12203e-05
0.00180342 -0.000128575 2.42448e-06
-0.000128575 4.65291e-05 -1.47947e-06
2.42448e-06 -1.47947e-06 -3.07073e-05
0.00175163 -0.000228273 1.74418e-06
-0.000228273 1.21704e-05 -4.33881e-07
1.74418e-06 -4.33881e-07 -7.12261e-05
0.00184118 -0.000196793 -7.54414e-08
-0.000196793 9.12341e-05 4.86714e-08
-7.54414e-08 4.86714e-08 -4.48324e-06
0.00179296 -0.000180262 9.21352e-07
-0.000180262 0.000121386 -7.17208e-07
9.21352e-07 -7.17208e-07 -5.31858e-06
0.00183627 -0.000245973 -2.9027e-07
-0.000245973 0.00013698 4.09146e-07
-2.9027e-07 4.09146e-07 2.16262e-05
0.00175345 -0.000219804 -2.33695e-07
-0.000219804 0.000140587 -2.43878e-08
-2.33695e-07 -2.43878e-08 -1.14047e-06
0.00143862 -0.000164606 -3.61423e-06
-0.000164606 8.98434e-05 8.82996e-07
-3.61423e-06 8.82996e-07 -6.67027e-05
0.00173285 -0.000247746 -2.76616e-07
-0.000247746 0.000170602 8.8679e-07
-2.76616e-07 8.8679e-07 1.36889e-05
0.00140451 -0.000188233 -1.7498e-07
-0.000188233 9.45709e-05 6.86597e-08
-1.7498e-07 6.86597e-08 -6.99311e-05
0.000969828 -0.000125249 -1.33746e-05
-0.000125249 -1.81914e-05 4.89703e-06
-1.33746e-05 4.89703e-06 -0.000159022
0.00138083 -0.000207742 5.49685e-06
-0.000207742 0.00010557 -1.42833e-06
5.49685e-06 -1.42833e-06 -6.64512e-05
0.000977497 -0.000140561 1.33581e-07
-0.000140561 -4.06065e-06 1.16374e-07
1.33581e-07 1.16374e-07 -0.000147363
0.00249162 -0.000125301 -3.91719e-05
-0.000125301 0.00105342 8.11121e-06
-3.91719e-05 8.11121e-06 0.000980901
0.000977027 -0.000158114 1.32521e-05
-0.000158114 9.25399e-06 -5.94567e-06
1.32521e-05 -5.94567e-06 -0.000139376
0.00261494 -0.000164195 3.84916e-05
-0.000164195 0.00113487 -5.02198e-06
3.84916e-05 -5.02198e-06 0.00106132
0.00181159 -9.24154e-05 -0.000191034
-9.24154e-05 0.000734497 2.53243e-05
-0.000191034 2.53243e-05 0.000715187
0.00365364 -2.9405e-05 -0.000188101
-2.9405e-05 0.00184681 1.28501e-05
-0.000188101 1.28501e-05 0.00183457
0.00270553 -0.000217467 0.000119753
-0.000217467 0.00119536 -1.67237e-05
0.000119753 -1.67237e-05 0.00112346
0.00574053 7.81134e-05 0.000194814
7.81134e-05 0.0031092 -1.88123e-05
0.000194814 -1.88123e-05 0.00309514
0.00208261 0.000302397 -1.9064e-06
0.000302397 0.000246529 -8.00332e-07
-1.9064e-06 -8.00332e-07 0.000104042
0.00159376 0.000283462 2.78642e-06
0.000283462 8.42817e-05 1.10604e-06
2.78642e-06 1.10604e-06 -9.22102e-05
0.00194351 0.000305076 3.85607e-07
0.000305076 0.000183363 -1.24869e-06
3.85607e-07 -1.24869e-06 2.91826e-05
0.00122209 0.000247383 -6.11619e-06
0.000247383 4.26975e-05 -9.48701e-07
-6.11619e-06 -9.48701e-07 -0.000147092
0.0017565 0.00035431 6.59628e-07
0.00035431 0.000229193 5.08001e-07
6.59628e-07 5.08001e-07 2.28444e-05
0.00184325 0.000385793 2.32747e-06
0.000385793 0.000393796 -1.19393e-06
2.32747e-06 -1.19393e-06 0.000161359
0.00120161 0.000252023 -9.42692e-08
0.000252023 9.27148e-05 -1.70163e-07
-9.42692e-08 -1.70163e-07 -0.000104103
0.000872837 0.000178385 -1.15697e-05
0.000178385 -9.90847e-06 -5.71252e-06
-1.15697e-05 -5.71252e-06 -0.000170614
0.00113897 0.000240804 7.17591e-06
0.000240804 0.000117164 2.14607e-06
7.17591e-06 2.14607e-06 -8.39846e-05
0.000838119 0.000175844 -4.17707e-07
0.000175844 2.80565e-05 2.88514e-07
-4.17707e-07 2.88514e-07 -0.000138193
0.000620842 0.000189028 -2.31156e-05
0.000189028 -1.74765e-05 -1.49794e-05
-2.31156e-05 -1.49794e-05 -0.000113709
0.000614885 0.000155548 4.07931e-06
0.000155548 -1.31697e-05 5.61391e-06
4.07931e-06 5.61391e-06 -0.000180941
0.000550763 0.000112561 -1.67145e-07
0.000112561 -3.43414e-05 1.25931e-07
-1.67145e-07 1.25931e-07 -0.000113159
0.00509934 -0.000127058 -0.000172663
-0.000127058 0.00274902 -1.39261e-05
-0.000172663 -1.39261e-05 0.00273159
0.000305024 1.46492e-05 6.57491e-06
1.46492e-05 -0.000153484 1.13721e-05
6.57491e-06 1.13721e-05 -0.000212905
0.00402205 -0.000167686 -9.07059e-06
-0.000167686 0.00210622 6.14899e-07
-9.07059e-06 6.14899e-07 0.00209142
0.00333654 -0.000160017 7.48025e-05
-0.000160017 0.00168916 2.2952e-06
7.48025e-05 2.2952e-06 0.00167807
0.00197789 0.00017336 -8.3144e-07
0.00017336 5.58952e-06 5.13998e-07
-8.3144e-07 5.13998e-07 -4.1634e-05
0.00187635 0.000158442 8.62703e-07
0.000158442 -6.83284e-05 -1.95981e-07
8.62703e-07 -1.95981e-07 -8.92503e-05
0.00305598 3.83419e-05 -7.10571e-05
3.83419e-05 0.000725899 -6.93025e-06
-7.10571e-05 -6.93025e-06 0.000768285
0.00200853 0.000260243 9.18257e-07
0.000260243 0.000131991 7.19651e-07
9.18257e-07 7.19651e-07 1.97433e-05
0.00180803 0.000350962 -4.71802e-07
0.000350962 9.21414e-05 3.51052e-07
-4.71802e-07 3.51052e-07 -6.74182e-05
0.00157205 0.00043188 -2.78918e-07
0.00043188 7.96021e-05 -2.19633e-06
-2.78918e-07 -2.19633e-06 -0.000133426
0.00208531 0.00037227 -6.92303e-07
0.00037227 0.000324128 -2.39871e-06
-6.92303e-07 -2.39871e-06 0.000140542
0.0020631 0.00028538 -8.54361e-07
0.00028538 0.000122928 -1.13603e-07
-8.54361e-07 -1.13603e-07 2.01548e-05
0.00160698 0.000398238 -2.50977e-06
0.000398238 -2.06098e-05 6.06414e-08
-2.50977e-06 6.06414e-08 -0.00018825
0.00176603 0.000302656 6.69988e-06
0.000302656 -2.61012e-05 7.7096e-08
6.69988e-06 7.7096e-08 -0.000125975
0.0019173 4.86751e-05 -8.01057e-07
4.86751e-05 1.34443e-05 5.06382e-07
-8.01057e-07 5.06382e-07 -9.32244e-06
0.00200368 5.27278e-05 2.78301e-07
5.27278e-05 5.93314e-06 -1.28983e-07
2.78301e-07 -1.28983e-07 -1.2509e-06
0.00204357 6.46324e-05 -7.88013e-06
6.46324e-05 3.62606e-05 5.68997e-07
-7.88013e-06 5.68997e-07 3.79988e-05
0.00181315 -1.3783e-05 -3.71417e-06
-1.3783e-05 3.53177e-06 3.07673e-07
-3.71417e-06 3.07673e-07 -3.30663e-05
0.00201991 -8.04993e-05 2.26749e-06
-8.04993e-05 -4.39305e-05 -5.25108e-07
2.26749e-06 -5.25108e-07 -3.13486e-05
0.00191787 -6.00456e-05 -7.25251e-07
-6.00456e-05 2.00017e-05 2.5474e-07
-7.25251e-07 2.5474e-07 -9.37514e-07
0.00188093 -7.45583e-05 -1.85524e-06
-7.45583e-05 8.78874e-05 -1.22637e-07
-1.85524e-06 -1.22637e-07 2.45401e-05
0.00182336 -0.000168092 2.69268e-06
-0.000168092 -2.44703e-05 -2.28352e-07
2.69268e-06 -2.28352e-07 -7.04368e-05
0.0018605 -0.00013045 2.14194e-06
-0.00013045 7.11299e-05 -8.00015e-07
2.14194e-06 -8.00015e-07 -5.73135e-06
0.0018373 -0.00012713 3.12495e-06
-0.00012713 0.00012858 -1.22137e-06
3.12495e-06 -1.22137e-06 1.49564e-05
0.00190938 -0.000199305 1.30579e-07
-0.000199305 0.000126104 4.51414e-07
1.30579e-07 4.51414e-07 3.02329e-05
0.00180569 -0.000179002 -1.18322e-07
-0.000179002 0.000131345 -1.18621e-07
-1.18322e-07 -1.18621e-07 5.01354e-06
0.00148031 -0.000133686 -2.77611e-06
-0.000133686 8.87392e-05 4.14045e-07
-2.77611e-06 4.14045e-07 -5.82501e-05
0.00178606 -0.00022072 -7.45793e-07
-0.00022072 0.000159793 7.54395e-07
-7.45793e-07 7.54395e-07 1.82561e-05
0.00144065 -0.000164157 -1.73687e-07
-0.000164157 8.89588e-05 1.35565e-07
-1.73687e-07 1.35565e-07 -6.71634e-05
0.000981144 -0.000107304 -1.28842e-05
-0.000107304 -2.27637e-05 3.95673e-06
-1.28842e-05 3.95673e-06 -0.000160658
0.0014185 -0.000188617 4.17607e-06
-0.000188617 0.000101061 -1.13214e-06
4.17607e-06 -1.13214e-06 -6.30382e-05
0.000990061 -0.000123935 1.11351e-08
-0.000123935 -8.51543e-06 1.96941e-07
1.11351e-08 1.96941e-07 -0.000148636
0.00251909 -0.000132396 -4.69802e-05
-0.000132396 0.00106409 7.86948e-06
-4.69802e-05 7.86948e-06 0.00099388
0.000991758 -0.000139741 1.35687e-05
-0.000139741 2.06575e-06 -5.48455e-06
1.35687e-05 -5.48455e-06 -0.000140674
0.00259462 -0.000155078 3.50048e-05
-0.000155078 0.00111332 -4.13841e-06
3.50048e-05 -4.13841e-06 0.00104526
0.0018483 -8.01391e-05 -0.000186694
-8.01391e-05 0.000751291 2.26028e-05
-0.000186694 2.26028e-05 0.000733058
0.00274705 -0.000179731 0.000118118
-0.000179731 0.00120967 -1.85694e-05
0.000118118 -1.85694e-05 0.00114175
0.00156495 -3.00672e-05 -8.42257e-05
-3.00672e-05 0.000593405 9.863e-06
-8.42257e-05 9.863e-06 0.000564318
0.00545516 0.000156918 3.62415e-05
0.000156918 0.00292866 -2.20752e-06
3.62415e-05 -2.20752e-06 0.00290184
0.0018835 0.000247863 5.54548e-07
0.000247863 0.000114338 3.18155e-07
5.54548e-07 3.18155e-07 -1.61282e-05
0.00186393 0.000274047 -1.48744e-09
0.000274047 0.000198842 -7.01755e-07
-1.48744e-09 -7.01755e-07 4.02759e-05
0.00196429 0.000297756 -3.45854e-06
0.000297756 0.000173464 3.13851e-08
-3.45854e-06 3.13851e-08 2.89977e-05
0.00166019 0.000246139 -3.45363e-06
0.000246139 0.000259341 -5.77462e-07
-3.45363e-06 -5.77462e-07 8.29006e-05
0.00162928 0.000290577 3.25676e-07
0.000290577 9.59975e-05 -1.48798e-06
3.25676e-07 -1.48798e-06 -7.86331e-05
0.00193794 0.000302979 -3.05463e-06
0.000302979 0.000178396 -3.4875e-06
-3.05463e-06 -3.4875e-06 2.90731e-05
0.000951504 0.000174701 -1.34159e-05
0.000174701 -3.96553e-06 -5.52379e-06
-1.34159e-05 -5.52379e-06 -0.000158625
0.00128775 0.000251767 -2.68629e-07
0.000251767 8.19216e-05 3.61702e-07
-2.68629e-07 3.61702e-07 -0.000108609
0.00182031 0.000356778 2.77654e-06
0.000356778 0.000256221 -1.9282e-06
2.77654e-06 -1.9282e-06 4.91114e-05
0.0012501 0.000252341 7.74463e-06
0.000252341 0.000126655 2.16147e-06
7.74463e-06 2.16147e-06 -6.9578e-05
0.000886061 0.00017894 -5.93557e-07
0.00017894 -1.77462e-06 -1.03638e-07
-5.93557e-07 -1.03638e-07 -0.000162214
0.000564002 0.000213177 -2.50236e-05
0.000213177 -6.27834e-05 -1.46785e-05
-2.50236e-05 -1.46785e-05 -0.000162922
0.000792395 0.000170833 9.09977e-06
0.000170833 -3.12895e-06 5.52322e-06
9.09977e-06 5.52322e-06 -0.00016817
0.00053308 0.000180851 2.12752e-06
0.000180851 -6.66592e-05 4.35701e-07
2.12752e-06 4.35701e-07 -0.000161107
0.00565644 -0.000105354 -0.000184615
-0.000105354 0.00308941 -2.02275e-05
-0.000184615 -2.02275e-05 0.00306254
0.000352112 9.72503e-05 1.49789e-05
9.72503e-05 -0.000152674 1.38645e-05
1.49789e-05 1.38645e-05 -0.000225516
0.00482078 -0.000168207 -1.04752e-05
-0.000168207 0.00258512 7.57887e-07
-1.04752e-05 7.57887e-07 0.00256563
0.00376947 -0.000182492 8.99656e-05
-0.000182492 0.00195856 2.80722e-06
8.99656e-05 2.80722e-06 0.00194049
0.00192886 0.000140504 -1.07396e-06
0.000140504 5.26857e-05 1.26662e-06
-1.07396e-06 1.26662e-06 -1.36972e-05
0.00200418 0.000177083 7.08513e-07
0.000177083 1.42624e-05 3.69652e-07
7.08513e-07 3.69652e-07 -3.00134e-05
0.00187518 0.00016316 -3.75171e-07
0.00016316 -7.49707e-05 8.2724e-07
-3.75171e-07 8.2724e-07 -9.6791e-05
0.00199736 0.000255409 1.88436e-07
0.000255409 0.000129806 -1.32443e-08
1.88436e-07 -1.32443e-08 2.03001e-05
0.00181294 0.000347092 -1.21331e-06
0.000347092 0.00011378 -9.50193e-07
-1.21331e-06 -9.50193e-07 -4.5488e-05
0.00193874 0.000275318 -2.17361e-07
0.000275318 5.46081e-05 -8.3653e-07
-2.17361e-07 -8.3653e-07 -4.78276e-05
0.00191705 5.37045e-05 -1.72273e-06
5.37045e-05 6.81436e-05 4.09264e-08
-1.72273e-06 4.09264e-08 2.40091e-05
0.00193296 4.64637e-05 4.00498e-07
4.64637e-05 2.64244e-05 -1.26778e-07
4.00498e-07 -1.26778e-07 2.38403e-06
0.00199167 5.31135e-05 1.77108e-06
5.31135e-05 9.91793e-06 -1.20787e-08
1.77108e-06 -1.20787e-08 -7.07302e-07
0.00187299 -1.86381e-05 -2.06601e-06
-1.86381e-05 3.60623e-05 8.32076e-08
-2.06601e-06 8.32076e-08 -6.97164e-08
0.00178166 -3.65036e-05 -2.0822e-06
-3.65036e-05 3.78299e-05 -1.041e-07
-2.0822e-06 -1.041e-07 -3.04588e-05
0.00190173 -6.28054e-05 1.5081e-06
-6.28054e-05 8.84683e-06 6.11326e-08
1.5081e-06 6.11326e-08 -1.28246e-05
0.00183477 -7.37846e-05 -1.84639e-06
-7.37846e-05 6.03623e-05 6.09983e-07
-1.84639e-06 6.09983e-07 -7.28074e-06
0.00189204 -7.48685e-05 2.94761e-07
-7.48685e-05 0.000165911 -4.4154e-07
2.94761e-07 -4.4154e-07 6.68288e-05
0.00190407 -0.000132391 2.55816e-06
-0.000132391 8.84299e-05 -1.91084e-07
2.55816e-06 -1.91084e-07 1.18508e-05
0.0017961 -0.000127369 2.32139e-06
-0.000127369 0.000107675 -7.09753e-07
2.32139e-06 -7.09753e-07 -6.02508e-06
0.0014969 -9.52531e-05 -1.56973e-06
-9.52531e-05 7.6479e-05 -8.48173e-08
-1.56973e-06 -8.48173e-08 -6.13354e-05
0.00180371 -0.00017905 -1.21308e-06
-0.00017905 0.000131872 4.72259e-07
-1.21308e-06 4.72259e-07 5.64317e-06
0.00147131 -0.000133282 -1.11272e-07
-0.000133282 8.03544e-05 3.97413e-08
-1.11272e-07 3.97413e-08 -6.63964e-05
0.000985852 -8.49371e-05 -1.2489e-05
-8.49371e-05 -3.07694e-05 3.00876e-06
-1.2489e-05 3.00876e-06 -0.000164641
0.00144712 -0.000163935 3.15339e-06
-0.000163935 9.00433e-05 -6.33857e-07
3.15339e-06 -6.33857e-07 -6.56666e-05
0.000998693 -0.000105502 -1.11316e-07
-0.000105502 -1.41803e-05 2.34031e-07
-1.11316e-07 2.34031e-07 -0.000151387
0.00249824 -0.000144231 -5.05811e-05
-0.000144231 0.00104837 7.07313e-06
-5.05811e-05 7.07313e-06 0.000977948
0.00101004 -0.000122674 1.32937e-05
-0.000122674 8.33073e-07 -4.59243e-06
1.32937e-05 -4.59243e-06 -0.000138557
0.00258661 -0.000139064 3.36634e-05
-0.000139064 0.0011007 -3.14038e-06
3.36634e-05 -3.14038e-06 0.0010353
0.0018843 -6.83151e-05 -0.000186634
-6.83151e-05 0.000766361 1.93683e-05
-0.000186634 1.93683e-05 0.000748696
0.00269614 -0.000154114 0.000116373
-0.000154114 0.00116846 -1.61238e-05
0.000116373 -1.61238e-05 0.00110657
0.00156614 -4.13471e-05 -7.64041e-05
-4.13471e-05 0.000587688 8.51564e-06
-7.64041e-05 8.51564e-06 0.000561506
0.00137048 -2.33095e-05 3.62223e-05
-2.33095e-05 0.000482126 -5.57546e-06
3.62223e-05 -5.57546e-06 0.000445208
0.00194794 0.000149244 -9.01332e-07
0.000149244 0.000131678 1.54827e-06
-9.01332e-07 1.54827e-06 3.54373e-05
0.00183368 0.000229627 -1.1102e-06
0.000229627 0.000150403 2.67848e-07
-1.1102e-06 2.67848e-07 5.73016e-06
0.00188512 0.000248418 -7.01709e-07
0.000248418 0.000107447 -7.7239e-08
-7.01709e-07 -7.7239e-08 -2.00537e-05
0.0017527 0.000228575 -2.68775e-06
0.000228575 0.000267813 -4.15248e-07
-2.68775e-06 -4.15248e-07 0.000105142
0.00180818 0.000269336 2.70248e-07
0.000269336 0.00017175 -6.16906e-08
2.70248e-07 -6.16906e-08 1.20174e-05
0.0018434 0.000293174 4.95079e-07
0.000293174 9.91785e-05 1.33748e-07
4.95079e-07 1.33748e-07 -4.73308e-05
0.00100698 0.000161123 -1.40351e-05
0.000161123 4.05159e-06 -5.15919e-06
-1.40351e-05 -5.15919e-06 -0.000143426
0.00151679 0.000243072 3.22552e-06
0.000243072 0.000169554 6.21451e-07
3.22552e-06 6.21451e-07 -7.16602e-06
0.00167078 0.000298038 1.21439e-07
0.000298038 0.000111736 -2.33814e-06
1.21439e-07 -2.33814e-06 -6.10437e-05
0.00049861 0.000178202 -2.26385e-05
0.000178202 -0.000111904 -1.28465e-05
-2.26385e-05 -1.28465e-05 -0.000208857
0.000954586 0.000174528 -6.3305e-07
0.000174528 -4.57649e-07 1.65004e-07
-6.3305e-07 1.65004e-07 -0.000154866
0.00135972 0.000256678 7.69991e-06
0.000256678 0.000124544 2.47723e-06
7.69991e-06 2.47723e-06 -6.68323e-05
0.000909986 0.000180227 1.16308e-05
0.000180227 1.26764e-05 5.74183e-06
1.16308e-05 5.74183e-06 -0.000147645
0.000531347 0.00019485 1.49751e-06
0.00019485 -7.78456e-05 5.92775e-07
1.49751e-06 5.92775e-07 -0.000179415
0.00589021 -1.13125e-05 -0.000201319
-1.13125e-05 0.00320628 -2.2855e-05
-0.000201319 -2.2855e-05 0.00318901
0.000462684 0.000168078 2.10105e-05
0.000168078 -0.000107708 1.47018e-05
2.10105e-05 1.47018e-05 -0.000199256
0.00548007 -0.000122259 2.71413e-06
-0.000122259 0.0029698 -8.57718e-07
2.71413e-06 -8.57718e-07 0.00295188
0.00452091 -0.000216796 0.000110918
-0.000216796 0.00242176 5.9091e-06
0.000110918 5.9091e-06 0.0023916
0.00182108 9.74985e-05 -3.23931e-06
9.74985e-05 3.03852e-05 1.00607e-06
-3.23931e-06 1.00607e-06 -3.04412e-05
0.0018989 0.000139944 1.23455e-06
0.000139944 3.74291e-05 7.82937e-07
1.23455e-06 7.82937e-07 -2.73149e-05
0.00200528 0.000180595 -5.6886e-07
0.000180595 8.1935e-06 -3.18327e-07
-5.6886e-07 -3.18327e-07 -3.322e-05
0.00199044 0.00025035 2.30362e-06
0.00025035 0.000130177 -3.83604e-07
2.30362e-06 -3.83604e-07 2.34837e-05
0.00174209 1.66303e-06 5.37816e-07
1.66303e-06 2.35743e-05 -2.48118e-07
5.37816e-07 -2.48118e-07 -4.8061e-05
0.00192717 4.67271e-05 4.18109e-07
4.67271e-05 6.69814e-05 1.73419e-09
4.18109e-07 1.73419e-09 2.47542e-05
0.00194986 4.4374e-05 1.81288e-06
4.4374e-05 4.09479e-05 -1.80229e-07
1.81288e-06 -1.80229e-07 1.5468e-05
0.00193238 -2.12307e-05 1.73909e-07
-2.12307e-05 6.79822e-05 -4.18921e-07
1.73909e-07 -4.18921e-07 3.24008e-05
0.00176775 -2.96703e-05 -2.07163e-06
-2.96703e-05 3.12243e-05 5.6447e-08
-2.07163e-06 5.6447e-08 -3.43887e-05
0.00182676 -3.05132e-05 2.25642e-06
-3.05132e-05 0.000134994 -8.32406e-07
2.25642e-06 -8.32406e-07 3.76434e-05
0.0017855 -7.30271e-05 -1.29167e-06
-7.30271e-05 2.98481e-05 1.14428e-06
-1.29167e-06 1.14428e-06 -4.197e-05
0.00179242 -7.43433e-05 -3.31799e-07
-7.43433e-05 0.000110171 3.26746e-07
-3.31799e-07 3.26746e-07 6.02564e-06
0.00156363 -5.53556e-05 -2.45911e-06
-5.53556e-05 0.000101414 -1.47309e-07
-2.45911e-06 -1.47309e-07 -2.48628e-05
0.00177407 -0.000126513 1.3315e-06
-0.000126513 9.79237e-05 -1.51196e-07
1.3315e-06 -1.51196e-07 -1.55903e-05
0.00149347 -9.31876e-05 6.74679e-07
-9.31876e-05 7.26918e-05 -2.32072e-07
6.74679e-07 -2.32072e-07 -6.46797e-05
0.000983616 -5.90765e-05 -1.22767e-05
-5.90765e-05 -4.04476e-05 2.21467e-06
-1.22767e-05 2.21467e-06 -0.000170188
0.00146797 -0.000130843 2.51312e-06
-0.000130843 7.60954e-05 -3.91084e-07
2.51312e-06 -3.91084e-07 -7.01084e-05
0.000993007 -8.41506e-05 -5.76374e-08
-8.41506e-05 -2.71073e-05 1.68176e-07
-5.76374e-08 1.68176e-07 -0.000160648
0.000577035 -8.20842e-05 -1.97759e-05
-8.20842e-05 -0.000116033 4.93483e-06
-1.97759e-05 4.93483e-06 -0.000192651
0.00101602 -0.000103682 1.2758e-05
-0.000103682 -5.60642e-06 -3.54011e-06
1.2758e-05 -3.54011e-06 -0.000142099
0.00158194 -9.24999e-05 4.76056e-05
-9.24999e-05 0.000491187 -3.15977e-06
4.76056e-05 -3.15977e-06 0.000422502
0.00565875 -0.00012275 -0.000240593
-0.00012275 0.00302519 1.53218e-05
-0.000240593 1.53218e-05 0.00303238
0.00267201 -0.000125636 0.000115408
-0.000125636 0.00114331 -1.30225e-05
0.000115408 -1.30225e-05 0.00108507
0.00158173 -5.09925e-05 -6.88705e-05
-5.09925e-05 0.000593715 5.82884e-06
-6.88705e-05 5.82884e-06 0.000567463
0.00128756 -6.32122e-05 4.73741e-05
-6.32122e-05 0.000433962 -6.65756e-06
4.73741e-05 -6.65756e-06 0.000396431
0.00189036 0.000104445 -1.13539e-06
0.000104445 0.000113124 1.768e-06
-1.13539e-06 1.768e-06 3.15677e-05
0.00188525 0.000161792 2.42243e-07
0.000161792 0.000166034 1.42929e-06
2.42243e-07 1.42929e-06 4.31589e-05
0.00196996 0.000146112 4.45174e-07
0.000146112 0.0001516 5.40038e-08
4.45174e-07 5.40038e-08 5.47425e-05
0.00155986 0.000183554 -3.08248e-06
0.000183554 0.000116513 -2.58366e-07
-3.08248e-06 -2.58366e-07 -3.51053e-05
0.00181188 0.000226276 3.87676e-07
0.000226276 0.000137972 3.14044e-09
3.87676e-07 3.14044e-09 -6.10927e-06
0.00187995 0.000249116 3.9342e-07
0.000249116 9.5832e-05 -1.52478e-07
3.9342e-07 -1.52478e-07 -2.87786e-05
0.000749406 0.000128607 -1.55994e-05
0.000128607 -0.000169122 -4.54043e-06
-1.55994e-05 -4.54043e-06 -0.000311111
0.00176966 0.000229526 2.51238e-06
0.000229526 0.000277617 6.61376e-07
2.51238e-06 6.61376e-07 0.000115036
0.00174597 0.000264164 1.44386e-07
0.000264164 0.000140767 -4.53574e-07
1.44386e-07 -4.53574e-07 -2.01038e-05
0.000480941 0.000130635 -1.95951e-05
0.000130635 -0.000141462 -1.00507e-05
-1.95951e-05 -1.00507e-05 -0.000229875
0.000822412 0.000151917 4.72888e-07
0.000151917 -0.000104947 2.92079e-07
4.72888e-07 2.92079e-07 -0.000252872
0.00136137 0.000239207 9.07291e-06
0.000239207 7.23689e-05 1.47804e-06
9.07291e-06 1.47804e-06 -0.000104508
0.00591534 7.3163e-05 -0.000213538
7.3163e-05 0.00319688 -2.22421e-05
-0.000213538 -2.22421e-05 0.0031908
0.000496452 0.000166035 1.03507e-06
0.000166035 -0.000112741 7.05492e-07
1.03507e-06 7.05492e-07 -0.000210573
0.000942365 0.000173578 1.32265e-05
0.000173578 -5.65359e-06 5.94157e-06
1.32265e-05 5.94157e-06 -0.000159755
0.000453015 0.000177945 2.08948e-05
0.000177945 -0.000119757 1.45433e-05
2.08948e-05 1.45433e-05 -0.000222474
0.00576525 -2.24411e-05 8.92196e-06
-2.24411e-05 0.00312229 -5.61583e-07
8.92196e-06 -5.61583e-07 0.00311216
0.00528527 -0.000162663 0.00015694
-0.000162663 0.00285302 8.0758e-06
0.00015694 8.0758e-06 0.00283443
0.00186685 6.28073e-05 -2.2963e-06
6.28073e-05 9.97704e-05 -4.37502e-07
-2.2963e-06 -4.37502e-07 2.77185e-05
0.00187374 9.78447e-05 4.48725e-07
9.78447e-05 5.87552e-05 6.43213e-07
4.48725e-07 6.43213e-07 -2.87906e-06
0.00187051 0.000139406 1.95261e-06
0.000139406 2.32413e-05 1.71281e-07
1.95261e-06 1.71281e-07 -3.98237e-05
0.00168007 4.47649e-06 2.35481e-06
4.47649e-06 4.35441e-05 -6.55561e-07
2.35481e-06 -6.55561e-07 -5.59618e-05
0.00172062 4.15269e-06 5.09339e-07
4.15269e-06 1.56539e-05 1.04598e-07
5.09339e-07 1.04598e-07 -5.38788e-05
0.00193277 3.82266e-05 1.80605e-06
3.82266e-05 6.35554e-05 -1.91788e-07
1.80605e-06 -1.91788e-07 2.32358e-05
0.00175266 -2.39518e-05 -1.76932e-06
-2.39518e-05 2.40445e-05 7.35261e-07
-1.76932e-06 7.35261e-07 -3.90631e-05
0.00178275 -2.67278e-05 9.52959e-07
-2.67278e-05 0.000107759 -7.12699e-08
9.52959e-07 -7.12699e-08 1.07613e-05
0.00175017 -2.06323e-05 -3.34119e-07
-2.06323e-05 0.000217723 -5.79659e-07
-3.34119e-07 -5.79659e-07 9.77326e-05
0.00169258 -7.37282e-05 -2.23854e-06
-7.37282e-05 5.50857e-05 1.09844e-06
-2.23854e-06 1.09844e-06 -5.41385e-05
0.00161931 -5.57291e-05 7.32108e-08
-5.57291e-05 0.000136537 5.8367e-08
7.32108e-08 5.8367e-08 8.44637e-06
0.000797267 -2.92199e-05 -1.37446e-05
-2.92199e-05 -0.000158791 1.35677e-06
-1.37446e-05 1.35677e-06 -0.000285521
0.00147952 -9.311e-05 2.80747e-06
-9.311e-05 6.25173e-05 -4.37674e-07
2.80747e-06 -4.37674e-07 -7.47251e-05
0.000990519 -5.60707e-05 -4.05645e-08
-5.60707e-05 -3.76065e-05 1.33098e-07
-4.05645e-08 1.33098e-07 -0.000166885
0.000581152 -2.08335e-05 -1.84655e-05
-2.08335e-05 -0.000117198 3.1865e-06
-1.84655e-05 3.1865e-06 -0.000192458
0.00101441 -8.27771e-05 1.23603e-05
-8.27771e-05 -1.58136e-05 -2.66296e-06
1.23603e-05 -2.66296e-06 -0.000148867
0.000583055 -6.49902e-05 -2.22565e-07
-6.49902e-05 -0.000110225 3.50575e-07
-2.22565e-07 3.50575e-07 -0.000188431
0.00566361 -1.75819e-05 -0.000231821
-1.75819e-05 0.00302455 9.29068e-06
-0.000231821 9.29068e-06 0.00303416
0.000614979 -6.79049e-05 1.59403e-05
-6.79049e-05 -8.95103e-05 -6.84592e-06
1.59403e-05 -6.84592e-06 -0.000170085
0.00356678 -8.06557e-05 0.000107241
-8.06557e-05 0.00177951 -4.12971e-06
0.000107241 -4.12971e-06 0.00176349
0.00124585 -7.3894e-05 5.36099e-05
-7.3894e-05 0.000410774 -7.1432e-06
5.36099e-05 -7.1432e-06 0.000371071
0.00180218 9.30986e-05 -1.45169e-06
9.30986e-05 8.12721e-05 2.28919e-07
-1.45169e-06 2.28919e-07 -1.70322e-06
0.00176995 0.000100276 2.30634e-06
0.000100276 0.000100845 2.40917e-06
2.30634e-06 2.40917e-06 -9.84901e-06
0.00193552 0.000101515 8.35666e-08
0.000101515 0.000141283 -3.21961e-07
8.35666e-08 -3.21961e-07 6.10804e-05
0.00150869 0.000131542 -1.89602e-06
0.000131542 7.19499e-05 -1.74657e-08
-1.89602e-06 -1.74657e-08 -7.02729e-05
0.00185768 0.000160879 5.37043e-07
0.000160879 0.000145295 1.94182e-07
5.37043e-07 1.94182e-07 2.11689e-05
0.00199872 0.000142886 5.26063e-07
0.000142886 0.000175463 -1.56766e-06
5.26063e-07 -1.56766e-06 7.8025e-05
0.000802588 0.000106975 -1.46615e-05
0.000106975 -0.000153594 -3.47225e-06
-1.46615e-05 -3.47225e-06 -0.000289821
0.00164871 0.000184821 4.74956e-08
0.000184821 0.000172819 2.58037e-07
4.74956e-08 2.58037e-07 2.05856e-05
0.00179395 0.000223034 7.22848e-07
0.000223034 0.000128197 -4.53789e-07
7.22848e-07 -4.53789e-07 -1.52783e-05
0.00050026 9.27298e-05 -1.80043e-05
9.27298e-05 -0.00014818 -7.35159e-06
-1.80043e-05 -7.35159e-06 -0.000229697
0.000727466 0.000127759 -2.74349e-06
0.000127759 -0.000181271 -3.43935e-07
-2.74349e-06 -3.43935e-07 -0.000323378
0.00179009 0.000230891 7.88483e-06
0.000230891 0.000289482 1.84511e-06
7.88483e-06 1.84511e-06 0.000126918
0.00584281 0.000148952 -0.000231582
0.000148952 0.00314011 -2.13066e-05
-0.000231582 -2.13066e-05 0.00314088
0.000494124 0.000125426 3.41508e-07
0.000125426 -0.00013458 3.63338e-07
3.41508e-07 3.63338e-07 -0.000223438
0.000646871 0.000143508 1.37781e-05
0.000143508 -0.000208872 5.07797e-06
1.37781e-05 5.07797e-06 -0.000357331
0.00582508 8.76841e-05 1.28058e-05
8.76841e-05 0.00314504 1.42284e-06
1.28058e-05 1.42284e-06 0.00313963
0.00047969 0.000153385 1.95025e-05
0.000153385 -0.000122211 1.28091e-05
1.95025e-05 1.28091e-05 -0.000220782
0.00565216 -5.4504e-05 0.000195118
-5.4504e-05 0.00304499 1.2341e-05
0.000195118 1.2341e-05 0.00304132
0.00180587 4.45438e-05 1.06753e-06
4.45438e-05 0.000106609 -4.1534e-07
1.06753e-06 -4.1534e-07 9.23044e-06
0.00179621 6.03913e-05 -1.81736e-06
6.03913e-05 6.49643e-05 4.18695e-07
-1.81736e-06 4.18695e-07 -8.99436e-06
0.0019267 9.79175e-05 2.73789e-06
9.79175e-05 8.67204e-05 1.9268e-07
2.73789e-06 1.9268e-07 2.43746e-05
0.00174998 -1.81408e-06 7.04793e-07
-1.81408e-06 0.000224262 -3.90737e-07
7.04793e-07 -3.90737e-07 0.000106648
0.00169169 3.05393e-06 7.07553e-08
3.05393e-06 4.86794e-05 4.10269e-09
7.07553e-08 4.10269e-09 -4.89225e-05
0.00171171 7.88893e-06 1.80604e-06
7.88893e-06 1.45585e-05 3.96085e-07
1.80604e-06 3.96085e-07 -5.28043e-05
0.00173732 -2.33289e-05 -4.3707e-07
-2.33289e-05 7.99051e-05 7.36314e-07
-4.3707e-07 7.36314e-07 -1.6769e-05
0.00175184 -2.05065e-05 2.77462e-06
-2.05065e-05 0.000218051 -2.74652e-07
2.77462e-06 -2.74652e-07 9.80054e-05
0.00081422 -9.74891e-06 -1.3259e-05
-9.74891e-06 -0.000146136 5.65232e-07
-1.3259e-05 5.65232e-07 -0.000269799
0.00168046 -5.63106e-05 2.73037e-06
-5.63106e-05 0.000174836 3.96206e-08
2.73037e-06 3.96206e-08 4.49291e-05
0.000898145 -2.89644e-05 -2.17128e-06
-2.89644e-05 -9.86725e-05 1.97278e-07
-2.17128e-06 1.97278e-07 -0.000225009
0.000583894 -6.5885e-06 -1.8715e-05
-6.5885e-06 -0.0001191 2.05634e-06
-1.8715e-05 2.05634e-06 -0.00019282
0.00100171 -5.4234e-05 1.19058e-05
-5.4234e-05 -3.18272e-05 -1.92018e-06
1.19058e-05 -1.92018e-06 -0.000160752
0.000563342 -3.18435e-05 8.55733e-07
-3.18435e-05 -0.000129408 -5.78386e-08
8.55733e-07 -5.78386e-08 -0.000203322
0.00560795 -0.000115239 -0.000240127
-0.000115239 0.00300018 9.82606e-06
-0.000240127 9.82606e-06 0.0030064
0.000558442 -4.83575e-05 1.78471e-05
-4.83575e-05 -0.000124913 -3.86787e-06
1.78471e-05 -3.86787e-06 -0.000202899
0.00564077 -5.36907e-05 7.71761e-06
-5.36907e-05 0.00301197 -5.57322e-08
7.71761e-06 -5.57322e-08 0.00302174
0.00158254 -2.12007e-05 0.0001923
-2.12007e-05 0.000586137 -1.07454e-05
0.0001923 -1.07454e-05 0.000573234
0.00168227 7.11849e-05 2.49261e-06
7.11849e-05 4.48652e-05 5.74466e-07
2.49261e-06 5.74466e-07 -6.18079e-05
0.00178568 9.69221e-05 -3.16812e-06
9.69221e-05 6.73066e-05 -9.61429e-07
-3.16812e-06 -9.61429e-07 -1.29491e-05
0.00150834 8.18518e-05 -9.53836e-07
8.18518e-05 7.10769e-05 2.49787e-07
-9.53836e-07 2.49787e-07 -6.11345e-05
0.00177197 9.92013e-05 6.42625e-07
9.92013e-05 0.000100635 1.89967e-07
6.42625e-07 1.89967e-07 -1.0163e-05
0.00198004 9.87971e-05 1.18634e-07
9.87971e-05 0.000169009 -3.02786e-06
1.18634e-07 -3.02786e-06 9.01398e-05
0.00104559 8.26876e-05 -1.25106e-05
8.26876e-05 -1.27298e-05 -2.33416e-06
-1.25106e-05 -2.33416e-06 -0.000141525
0.00150591 0.000131152 9.90908e-08
0.000131152 7.20405e-05 8.21014e-08
9.90908e-08 8.21014e-08 -7.03358e-05
0.00182536 0.000159786 3.46537e-07
0.000159786 0.000121911 -8.76237e-07
3.46537e-07 -8.76237e-07 -3.46728e-06
0.000526694 6.59117e-05 -1.75671e-05
6.59117e-05 -0.00014538 -5.30313e-06
-1.75671e-05 -5.30313e-06 -0.00022314
0.000885919 0.000110332 -2.92158e-06
0.000110332 -0.000102379 -2.61947e-07
-2.92158e-06 -2.61947e-07 -0.000238334
0.00174013 0.000185938 4.09596e-06
0.000185938 0.000230872 1.0698e-06
4.09596e-06 1.0698e-06 7.80632e-05
0.00578598 0.000191273 -0.000250066
0.000191273 0.0031082 -2.04771e-05
-0.000250066 -2.04771e-05 0.00310831
0.000522808 9.22589e-05 1.91242e-08
9.22589e-05 -0.000135805 1.78389e-07
1.91242e-08 1.78389e-07 -0.0002175
0.000705253 0.00012697 9.69794e-06
0.00012697 -0.00019383 3.67461e-06
9.69794e-06 3.67461e-06 -0.000336003
0.00579711 0.000169276 1.08102e-05
0.000169276 0.00312247 3.01692e-06
1.08102e-05 3.01692e-06 0.00311888
0.000510246 0.000118694 1.84367e-05
0.000118694 -0.000126482 9.99099e-06
1.84367e-05 9.99099e-06 -0.000215331
0.00576805 8.27484e-05 0.000220919
8.27484e-05 0.00310026 1.83635e-05
0.000220919 1.83635e-05 0.00310234
0.00173064 3.06142e-05 1.62874e-06
3.06142e-05 0.000211848 -1.06543e-08
1.62874e-06 -1.06543e-08 9.37343e-05
0.00175866 3.98651e-05 -1.49131e-06
3.98651e-05 8.17067e-05 1.04529e-07
-1.49131e-06 1.04529e-07 -1.71842e-05
0.00172799 5.77166e-05 -1.09477e-06
5.77166e-05 3.25912e-05 3.13982e-07
-1.09477e-06 3.13982e-07 -4.32814e-05
0.000806135 -7.47076e-06 -1.37818e-05
-7.47076e-06 -0.0001432 -1.48452e-07
-1.37818e-05 -1.48452e-07 -0.000265307
0.00175315 4.07836e-06 3.21549e-06
4.07836e-06 0.000226005 -2.0963e-07
3.21549e-06 -2.0963e-07 0.000108333
0.00169209 1.53369e-06 -1.50628e-06
1.53369e-06 4.70827e-05 6.40994e-07
-1.50628e-06 6.40994e-07 -4.86024e-05
0.0017572 -2.07589e-05 5.68854e-06
-2.07589e-05 0.000220577 8.47646e-08
5.68854e-06 8.47646e-08 0.000100475
0.000804797 -9.88088e-06 -1.59896e-06
-9.88088e-06 -0.000152605 8.52304e-08
-1.59896e-06 8.52304e-08 -0.000276496
0.000586059 -2.9344e-05 -1.90924e-05
-2.9344e-05 -0.000118784 8.40404e-07
-1.90924e-05 8.40404e-07 -0.000190298
0.000980921 -2.78688e-05 1.02795e-05
-2.78688e-05 -4.91536e-05 -1.21305e-06
1.02795e-05 -1.21305e-06 -0.000175122
0.000564479 4.3278e-06 3.26282e-07
4.3278e-06 -0.000131047 6.36967e-08
3.26282e-07 6.36967e-08 -0.000204081
0.00562959 -9.18713e-05 -0.000246345
-9.18713e-05 0.00301085 6.99182e-06
-0.000246345 6.99182e-06 0.00301933
0.000575334 -3.55233e-05 1.86614e-05
-3.55233e-05 -0.000120558 -2.6161e-06
1.86614e-05 -2.6161e-06 -0.000195635
0.00563726 -9.14557e-06 -3.04801e-06
-9.14557e-06 0.00300847 1.6969e-06
-3.04801e-06 1.6969e-06 0.00302011
0.00564537 -7.14556e-05 0.000240158
-7.14556e-05 0.00301348 -8.7156e-06
0.000240158 -8.7156e-06 0.00302437
0.00147751 4.86651e-05 -7.50889e-07
4.86651e-05 5.88159e-05 5.78839e-08
-7.50889e-07 5.78839e-08 -6.82808e-05
0.00174244 7.42858e-05 -1.6019e-06
7.42858e-05 7.8551e-05 -1.24273e-06
-1.6019e-06 -1.24273e-06 -2.37487e-05
0.00176828 0.000101128 -4.04676e-06
0.000101128 5.27517e-05 -2.13329e-06
-4.04676e-06 -2.13329e-06 -2.48241e-05
0.00104623 4.82355e-05 -1.22359e-05
4.82355e-05 -1.0275e-05 -1.79416e-06
-1.22359e-05 -1.79416e-06 -0.000133873
0.00149322 8.14726e-05 1.93248e-07
8.14726e-05 6.2667e-05 7.58824e-09
1.93248e-07 7.58824e-09 -6.99356e-05
0.00177447 9.80562e-05 -8.40786e-07
9.80562e-05 0.000101041 -1.8164e-06
-8.40786e-07 -1.8164e-06 -9.85387e-06
0.000553028 4.15036e-05 -1.71666e-05
4.15036e-05 -0.000134875 -3.80001e-06
-1.71666e-05 -3.80001e-06 -0.000210294
0.00101325 8.38514e-05 2.39321e-07
8.38514e-05 -3.15249e-05 2.46522e-07
2.39321e-07 2.46522e-07 -0.000160882
0.0015041 0.000130821 2.50775e-06
0.000130821 7.23346e-05 2.41277e-07
2.50775e-06 2.41277e-07 -7.02116e-05
0.00571199 0.000179988 -0.000261815
0.000179988 0.00306628 -1.76573e-05
-0.000261815 -1.76573e-05 0.00306772
0.000552946 6.91654e-05 3.34899e-07
6.91654e-05 -0.000129786 1.52393e-07
3.34899e-07 1.52393e-07 -0.000208106
0.000967548 0.000113682 9.73967e-06
0.000113682 -5.23741e-05 3.06305e-06
9.73967e-06 3.06305e-06 -0.000188019
0.00577185 0.000204873 6.26619e-06
0.000204873 0.00310645 2.76339e-06
6.26619e-06 2.76339e-06 0.00310387
0.00054886 9.31255e-05 1.76773e-05
9.31255e-05 -0.000120693 7.77371e-06
1.76773e-05 7.77371e-06 -0.000202765
0.00578139 0.000192797 0.000239663
0.000192797 0.00311368 2.35343e-05
0.000239663 2.35343e-05 0.00311029
0.00100331 1.45936e-05 -1.28626e-05
1.45936e-05 -2.27351e-05 -7.40079e-07
-1.28626e-05 -7.40079e-07 -0.000143592
0.00163124 2.62657e-05 3.66572e-06
2.62657e-05 0.000153433 1.01561e-07
3.66572e-06 1.01561e-07 3.50898e-05
0.00171636 3.4663e-05 -4.41295e-06
3.4663e-05 5.93696e-05 1.85032e-07
-4.41295e-06 1.85032e-07 -4.10388e-05
0.000616084 3.00258e-05 -1.96091e-05
3.00258e-05 -0.000108211 -4.83271e-07
-1.96091e-05 -4.83271e-07 -0.000172742
0.000785719 -1.84115e-06 -1.82002e-06
-1.84115e-06 -0.000156202 5.32774e-08
-1.82002e-06 5.32774e-08 -0.00027847
0.00175412 1.05011e-05 5.80328e-06
1.05011e-05 0.000226396 1.52717e-07
5.80328e-06 1.52717e-07 0.000108647
0.000794038 -9.62522e-06 1.01175e-05
-9.62522e-06 -0.00016001 -4.15762e-07
1.01175e-05 -4.15762e-07 -0.000284105
0.000580165 -4.60682e-06 2.83051e-07
-4.60682e-06 -0.000122009 3.34371e-07
2.83051e-07 3.34371e-07 -0.000193759
0.00559818 3.77662e-05 -0.000251674
3.77662e-05 0.00298776 -3.90977e-07
-0.000251674 -3.90977e-07 0.00300025
0.000541724 1.5746e-05 1.81734e-05
1.5746e-05 -0.000145598 -1.23174e-06
1.81734e-05 -1.23174e-06 -0.000217598
0.00560972 -9.06054e-05 -7.8377e-06
-9.06054e-05 0.00299984 1.57366e-06
-7.8377e-06 1.57366e-06 0.00300797
0.00560082 1.04573e-05 0.000231259
1.04573e-05 0.00298716 -3.94624e-06
0.000231259 -3.94624e-06 0.00299853
0.00102043 2.57861e-05 -1.26386e-05
2.57861e-05 -1.79511e-05 -1.39767e-06
-1.26386e-05 -1.39767e-06 -0.000139133
0.00148636 4.79171e-05 -1.50571e-07
4.79171e-05 6.41316e-05 -7.88267e-08
-1.50571e-07 -7.88267e-08 -6.05195e-05
0.00180535 7.70985e-05 -4.58719e-06
7.70985e-05 0.00011364 -2.21252e-06
-4.58719e-06 -2.21252e-06 1.57307e-05
0.00262177 5.11449e-05 -0.000120363
5.11449e-05 0.00109722 -3.87512e-06
-0.000120363 -3.87512e-06 0.00104873
0.00101241 5.01093e-05 2.77973e-07
5.01093e-05 -3.07781e-05 1.1259e-07
2.77973e-07 1.1259e-07 -0.000154789
0.00147956 8.10408e-05 2.18121e-06
8.10408e-05 5.50525e-05 -9.45236e-08
2.18121e-06 -9.45236e-08 -7.79487e-05
0.0056367 0.000140635 -0.000263476
0.000140635 0.00301913 -1.30644e-05
-0.000263476 -1.30644e-05 0.00302472
0.000587377 5.86779e-05 8.2403e-07
5.86779e-05 -0.00011258 3.57866e-07
8.2403e-07 3.57866e-07 -0.000189569
0.000984591 8.514e-05 1.23838e-05
8.514e-05 -4.80895e-05 2.77874e-06
1.23838e-05 2.77874e-06 -0.000177986
0.00575525 0.000192042 1.79054e-06
0.000192042 0.00309392 1.65635e-06
1.79054e-06 1.65635e-06 0.00309432
0.000589586 7.51047e-05 1.8009e-05
7.51047e-05 -0.000106949 6.10268e-06
1.8009e-05 6.10268e-06 -0.000186426
0.0057579 0.000232359 0.000250994
0.000232359 0.00310694 2.49363e-05
0.000250994 2.49363e-05 0.00309972
0.000662532 9.51506e-06 -1.63512e-05
9.51506e-06 -6.98827e-05 -1.79569e-06
-1.63512e-05 -1.79569e-06 -0.000142518
0.000888101 1.29266e-05 6.43379e-07
1.29266e-05 -9.2321e-05 2.5039e-07
6.43379e-07 2.5039e-07 -0.000213693
0.00152809 2.13429e-05 4.87747e-06
2.13429e-05 9.26307e-05 1.26303e-07
4.87747e-06 1.26303e-07 -2.59022e-05
0.00547149 -9.40677e-05 -0.000235635
-9.40677e-05 0.00292883 1.26626e-06
-0.000235635 1.26626e-06 0.00293152
0.000575981 7.87139e-06 -5.182e-07
7.87139e-06 -0.000127265 1.21879e-07
-5.182e-07 1.21879e-07 -0.000194424
0.000778314 3.12519e-06 1.00236e-05
3.12519e-06 -0.00016169 1.07614e-07
1.00236e-05 1.07614e-07 -0.000284078
0.000539783 2.06666e-05 1.83951e-05
2.06666e-05 -0.000146472 1.51975e-07
1.83951e-05 1.51975e-07 -0.000217593
0.00555311 1.94191e-06 2.45406e-06
1.94191e-06 0.00296549 -9.55902e-07
2.45406e-06 -9.55902e-07 0.00297457
0.0056202 -6.20497e-06 0.000240502
-6.20497e-06 0.00299652 -2.0818e-06
0.000240502 -2.0818e-06 0.00300942
0.002693 8.30651e-06 -0.000116898
8.30651e-06 0.00113677 -2.39888e-06
-0.000116898 -2.39888e-06 0.00108977
0.00101518 2.87647e-05 5.18853e-08
2.87647e-05 -2.2792e-05 7.79531e-08
5.18853e-08 7.79531e-08 -0.000144257
0.00149065 4.73252e-05 1.87202e-06
4.73252e-05 6.70232e-05 -2.55355e-07
1.87202e-06 -2.55355e-07 -5.51795e-05
0.00522679 -5.49218e-05 -8.44449e-05
-5.49218e-05 0.00278617 5.06738e-07
-8.44449e-05 5.06738e-07 0.00277244
0.00060329 5.10336e-05 5.27962e-08
5.10336e-05 -0.00010453 2.09141e-07
5.27962e-08 2.09141e-07 -0.000178456
0.000995368 5.25288e-05 1.21494e-05
5.25288e-05 -4.19318e-05 2.05498e-06
1.21494e-05 2.05498e-06 -0.000166297
0.00568929 0.00011148 -1.08194e-05
0.00011148 0.00304577 -1.24134e-06
-1.08194e-05 -1.24134e-06 0.00305305
0.000618768 8.09099e-05 1.94437e-05
8.09099e-05 -9.34008e-05 5.10792e-06
1.94437e-05 5.10792e-06 -0.000171055
0.00577029 0.000216192 0.000261925
0.000216192 0.00311019 2.27955e-05
0.000261925 2.27955e-05 0.0031071
0.00167651 -5.03035e-05 -0.000197644
-5.03035e-05 0.00063713 7.66155e-07
-0.000197644 7.66155e-07 0.000629388
0.00164604 2.61493e-05 -4.89025e-05
2.61493e-05 0.000510007 2.07491e-07
-4.89025e-05 2.07491e-07 0.000454685
0.000770076 1.37278e-05 1.24279e-05
1.37278e-05 -0.000163285 9.57917e-07
1.24279e-05 9.57917e-07 -0.000285237
0.00553124 -4.08054e-05 7.68371e-06
-4.08054e-05 0.0029589 1.44949e-06
7.68371e-06 1.44949e-06 0.00296588
0.000591511 -1.25375e-05 1.89394e-05
-1.25375e-05 -0.00011264 8.07758e-07
1.89394e-05 8.07758e-07 -0.000183077
0.00558827 -6.53787e-05 0.000254695
-6.53787e-05 0.00298765 -2.32009e-06
0.000254695 -2.32009e-06 0.00299722
0.00126739 1.18355e-05 -4.10878e-05
1.18355e-05 0.000416973 -6.88451e-07
-4.10878e-05 -6.88451e-07 0.00038286
0.00163562 1.30894e-05 -4.92771e-05
1.30894e-05 0.000507558 -7.07826e-07
-4.92771e-05 -7.07826e-07 0.000449084
0.000999031 3.03593e-05 1.23788e-05
3.03593e-05 -3.37895e-05 1.60456e-06
1.23788e-05 1.60456e-06 -0.000155565
0.00345782 5.18349e-05 9.35086e-05
5.18349e-05 0.00171415 2.2634e-06
9.35086e-05 2.2634e-06 0.00170325
0.000612062 6.12824e-05 1.97187e-05
6.12824e-05 -9.92542e-05 3.91887e-06
1.97187e-05 3.91887e-06 -0.00017323
0.00574326 0.000100881 0.000250495
0.000100881 0.00307224 1.38013e-05
0.000250495 1.38013e-05 0.00308248
0.00547782 -2.16402e-05 -8.9008e-06
-2.16402e-05 0.00292977 -2.07283e-06
-8.9008e-06 -2.07283e-06 0.00293588
0.000592821 4.41193e-05 2.03403e-05
4.41193e-05 -0.000120194 2.01804e-06
2.03403e-05 2.01804e-06 -0.000184448
0.00544682 4.89001e-05 0.000241456
4.89001e-05 0.00290559 7.54089e-08
0.000241456 7.54089e-08 0.00291545
0.00339302 2.68486e-05 0.000107037
2.68486e-05 0.00167974 3.39438e-06
0.000107037 3.39438e-06 0.00166925
0.000623007 5.30303e-06 1.88918e-05
5.30303e-06 -9.3994e-05 2.65227e-06
1.88918e-05 2.65227e-06 -0.000164758
0.00562003 -2.27806e-05 0.000241413
-2.27806e-05 0.00300153 6.06563e-06
0.000241413 6.06563e-06 0.0030114
0.00551157 -0.000126171 0.000237545
-0.000126171 0.00295535 -3.10069e-06
0.000237545 -3.10069e-06 0.00295662
0.00549753 -8.40977e-06 0.000237173
-8.40977e-06 0.00292695 3.20217e-06
0.000237173 3.20217e-06 0.00294003
