# vtk DataFile Version 2.0
Wound Healing Simulation
ASCII
DATASET UNSTRUCTURED_GRID
POINTS 3012 float
69.9759 18.75 4
67.2507 60.3285 4
69.976 18.75 2
73.0099 25.446 4
71.1327 20.9142 4
68.6801 16.6661 4
67.8276 19.9252 3.98713
67.2507 60.3286 2
71.1327 54.0858 4
68.6801 58.3339 4
65.6939 62.2254 4
65.314 59.0036 3.98816
74.6784 42.3946 4
73.7221 47.2057 4
69.9759 18.75 0
73.0099 25.446 2
68.6801 16.6661 2
71.1327 20.9142 2
67.8281 19.9268 2
74.6792 32.6053 4
73.7222 27.7943 4
72.1454 23.1494 4
70.6156 26.2224 3.98573
68.8877 21.9585 3.98674
67.2507 14.6715 4
66.6391 17.9698 3.98774
65.8027 21.0223 3.98151
67.2507 60.3285 0
71.1327 54.0858 2
68.6801 58.3339 2
65.694 62.2255 2
65.3146 59.0029 2
72.1454 51.8506 4
69.9759 56.25 4
68.8383 53.1128 3.98632
64.0165 64.0165 4
66.6126 57.1356 3.98785
63.8873 60.7685 3.98958
63.505 57.7779 3.98333
60.3285 67.2507 4
74.6792 42.3947 2
73.7222 47.2057 2
74.9194 39.9526 4
74.2788 44.8158 4
72.1689 42.0856 3.98393
73.0099 49.554 4
71.2506 46.5975 3.98542
73.0099 25.446 0
71.1327 20.9142 0
68.6801 16.6661 0
67.8276 19.9252 0.0128665
74.6792 32.6053 2
73.7222 27.7943 2
67.2508 14.6715 2
72.1455 23.1494 2
70.6156 26.2231 2
66.6397 17.9707 2
68.888 21.9602 2
65.8027 21.0217 2
74.9197 35.0474 4
74.2794 30.1841 4
72.1857 32.9434 3.98457
71.2794 28.4322 3.98564
69.8173 24.061 3.98628
68.3502 26.952 3.97741
66.7675 22.9321 3.97997
65.694 12.7746 4
65.3255 16.1006 3.98881
64.7193 19.1895 3.98292
63.8952 22.0299 3.97821
71.1327 54.0858 0
65.6939 62.2254 0
68.6801 58.3339 0
65.314 59.0036 0.0118376
72.1455 51.8506 2
69.9759 56.25 2
68.8386 53.1111 2
64.0165 64.0165 2
66.6133 57.1343 2
63.8878 60.7682 2
63.5051 57.7787 2
62.2254 65.694 4
58.8949 65.4157 3.99263
69.7707 50.9879 3.98592
67.7858 55.1682 3.98723
66.6544 52.2108 3.97947
62.3374 62.4296 3.99112
64.6663 56.0365 3.98318
62.2063 59.4114 3.98391
61.8301 56.6906 3.98067
58.3339 68.6801 4
60.3285 67.2508 2
73.7221 47.2057 0
74.6784 42.3946 0
74.9197 39.9526 2
74.2794 44.8159 2
72.1688 42.0857 2
73.0099 49.554 2
71.2506 46.5973 2
75 37.5 4
72.4059 39.8022 3.98329
71.7836 44.3527 3.9849
69.8062 41.7898 3.97592
70.5767 48.8126 3.98576
68.9158 46.0151 3.9771
74.6792 32.6053 0
73.7222 27.7943 0
67.2507 14.6715 0
72.1454 23.1494 0
70.6156 26.2224 0.0142681
68.8877 21.9585 0.0132555
66.6391 17.9698 0.0122567
65.8027 21.0223 0.0184883
74.9197 35.0474 2
74.2794 30.1841 2
72.1856 32.9433 2
71.2795 28.4324 2
65.694 12.7745 2
65.3261 16.1008 2
69.8174 24.0622 2
68.3501 26.9522 2
64.7196 19.1886 2
66.7673 22.932 2
63.8953 22.0292 2
72.4138 35.2242 3.98351
71.805 30.6766 3.98542
69.8426 33.2686 3.97661
68.9696 29.0386 3.9775
67.6154 24.9121 3.97849
66.1991 27.6341 3.97421
64.0165 10.9835 4
64.7636 23.827 3.97656
63.8915 14.3243 3.98996
63.5181 17.4396 3.98438
62.9154 20.3122 3.9795
62.1027 22.9358 3.97639
60.6848 11.0955 3.9917
57.6133 11.4406 3.98669
72.1454 51.8506 0
69.9759 56.25 0
68.8383 53.1128 0.0136789
64.0165 64.0165 0
63.8873 60.7685 0.0104238
66.6126 57.1356 0.0121539
63.505 57.7779 0.016673
62.2255 65.694 2
58.8951 65.4158 2
69.7708 50.9866 2
67.7864 55.1665 2
66.6542 52.2109 2
62.3378 62.4294 2
64.6665 56.0373 2
62.2063 59.4121 2
61.8303 56.6915 2
60.6696 63.9788 3.99194
57.0255 66.7365 3.99319
57.5589 63.6966 3.98731
67.5117 50.1774 3.97813
65.7076 54.1765 3.98163
64.5446 51.3891 3.97569
60.7754 60.9445 3.98497
62.8285 55.0761 3.98064
60.6636 58.1695 3.9808
60.3366 55.7974 3.97955
56.25 69.9759 4
58.3339 68.6801 2
60.3285 67.2507 0
58.9219 9.65382 3.99233
62.2254 9.30607 4
73.0099 49.554 0
74.2788 44.8158 0
71.2506 46.5975 0.0145757
72.1689 42.0856 0.0160674
74.9194 39.9526 0
75 37.5 2
72.4058 39.8024 2
71.7836 44.3527 2
69.8062 41.7898 2
70.5767 48.8119 2
68.9157 46.0148 2
72.4892 37.5121 3.98326
70.0425 39.6576 3.97474
69.4334 43.9077 3.97688
67.6004 41.4987 3.9725
68.2698 48.1075 3.97752
66.7147 45.4416 3.97398
74.9197 35.0474 0
74.2794 30.1841 0
72.1857 32.9434 0.0154296
71.2794 28.4322 0.0143581
65.694 12.7746 0
65.3255 16.1006 0.0111899
69.8173 24.061 0.0137162
68.3502 26.952 0.0225899
66.7675 22.9321 0.0200264
64.7193 19.1895 0.0170789
63.8952 22.0299 0.0217932
72.4137 35.2241 2
71.8051 30.6766 2
69.8426 33.2688 2
68.9696 29.0387 2
64.0165 10.9835 2
63.8918 14.3245 2
63.5183 17.4387 2
67.6152 24.9121 2
66.199 27.6339 2
62.9158 20.3113 2
64.7635 23.8265 2
62.1028 22.9352 2
60.6851 11.0957 2
57.6134 11.4399 2
70.0595 35.3923 3.97529
69.4704 31.1497 3.97742
67.6593 33.5907 3.97326
66.7771 29.622 3.97425
65.5296 25.6979 3.97515
64.1515 28.2536 3.97321
62.3427 12.6525 3.99092
62.8649 24.6325 3.97489
62.2023 15.777 3.98491
61.8211 18.6744 3.98121
61.2278 21.3315 3.97725
60.4363 23.7183 3.97571
59.2475 12.772 3.9852
55.8751 10.2273 3.98813
56.4065 13.1034 3.98348
69.7707 50.9879 0.0140815
62.2254 65.694 0
58.8949 65.4157 0.00736803
67.7858 55.1682 0.0127709
66.6544 52.2108 0.020525
62.3374 62.4296 0.00888414
62.2063 59.4114 0.0160851
64.6663 56.0365 0.0168173
61.8301 56.6906 0.0193313
60.6699 63.9787 2
57.0257 66.7366 2
57.5588 63.6974 2
67.5116 50.1773 2
65.7077 54.1771 2
64.5445 51.3896 2
60.7754 60.9454 2
62.8288 55.0771 2
60.6637 58.1704 2
60.3368 55.7982 2
55.0709 67.9334 3.99346
59.2207 62.3719 3.9857
55.8053 64.9141 3.98891
56.3284 62.0976 3.98409
65.3376 49.4109 3.97463
63.7143 53.2984 3.97831
62.4496 50.6579 3.97374
59.3368 59.5666 3.98263
61.0871 54.3195 3.97961
59.2956 57.0245 3.97858
59.2515 55.1956 3.9806
48.1034 68.5816 3.99026
50.9485 69.933 3.99389
54.0858 71.1327 4
56.25 69.976 2
58.3339 68.6801 0
57.059 8.33373 3.99274
60.3285 7.74928 4
58.9222 9.65383 2
62.2255 9.30602 2
70.5767 48.8126 0.014238
71.7836 44.3527 0.0150999
68.9158 46.0151 0.0229038
69.8062 41.7898 0.024085
72.4059 39.8022 0.0167145
75 37.5 0
72.4892 37.5122 2
70.0425 39.6576 2
69.4335 43.9076 2
67.6004 41.4987 2
68.2697 48.1073 2
66.7146 45.4417 2
70.1307 37.5218 3.97496
67.8362 39.513 3.97144
67.2281 43.4714 3.97366
65.5596 41.2119 3.9715
66.0741 47.4201 3.97443
64.6581 44.8517 3.973
72.4138 35.2242 0.0164855
71.805 30.6766 0.0145808
69.8426 33.2686 0.0233864
68.9696 29.0386 0.0224951
64.0165 10.9835 0
63.8915 14.3243 0.0100361
63.5181 17.4396 0.0156151
67.6154 24.9121 0.0215147
66.1991 27.6341 0.0257857
64.7636 23.827 0.0234382
62.9154 20.3122 0.0205036
62.1027 22.9358 0.0236098
60.6848 11.0955 0.00830242
57.6133 11.4406 0.0133056
70.0595 35.3925 2
69.4705 31.1499 2
67.6593 33.5907 2
66.7772 29.6219 2
62.343 12.6528 2
62.2023 15.7765 2
61.8215 18.6734 2
65.5295 25.6976 2
64.1514 28.2534 2
61.2282 21.3307 2
62.8649 24.6321 2
60.4366 23.7178 2
59.2475 12.7714 2
56.4065 13.1025 2
55.8751 10.2266 2
67.8729 35.5478 3.97206
67.2702 31.6217 3.97417
65.7024 33.9265 3.97191
64.6688 30.19 3.97314
63.5443 26.4113 3.97364
62.263 28.7747 3.97374
60.7772 14.2164 3.98479
61.0534 25.3316 3.97403
60.6178 17.1172 3.98268
60.2314 19.8042 3.97915
59.672 22.2468 3.97571
58.9891 24.3096 3.97647
54.0381 9.13088 3.9887
57.9121 14.3222 3.98316
54.7876 12.0026 3.98476
55.314 14.6341 3.98211
67.5117 50.1774 0.0218713
57.0255 66.7365 0.00680745
60.6696 63.9788 0.0080554
57.5589 63.6966 0.012688
65.7076 54.1765 0.0183689
64.5446 51.3891 0.02431
60.7754 60.9445 0.0150257
60.6636 58.1695 0.0192037
62.8285 55.0761 0.0193649
60.3366 55.7974 0.0204514
55.0711 67.9335 2
59.2207 62.3729 2
55.8052 64.9148 2
56.3284 62.0984 2
65.3376 49.4111 2
63.7145 53.2993 2
62.4497 50.6583 2
59.3369 59.5676 2
61.0874 54.3203 2
59.2958 57.0253 2
59.2519 55.1963 2
53.0427 69.0012 3.99371
53.9675 66.0162 3.98953
57.8829 60.8784 3.98333
54.6848 63.214 3.9855
55.2133 60.6255 3.98244
63.201 48.6656 3.97313
61.7514 52.5834 3.97667
60.2817 50.0273 3.97265
58.0225 58.2723 3.98017
59.3377 53.9593 3.97877
58.1341 55.8251 3.97659
50.11 67.8596 3.9901
47.464 66.586 3.98801
46.0571 69.1612 3.99047
48.1034 68.582 2
48.8027 70.7242 3.99404
50.9488 69.9331 2
51.8506 72.1454 4
54.0858 71.1327 2
56.25 69.9759 0
55.1032 7.13832 3.99296
58.3339 6.31992 4
57.0593 8.33365 2
60.3286 7.74926 2
58.9219 9.65382 0.00766724
62.2254 9.30607 0
68.2698 48.1075 0.0224761
69.4334 43.9077 0.0231181
66.7147 45.4416 0.0260153
67.6004 41.4987 0.0274955
70.0425 39.6576 0.0252555
72.4892 37.5121 0.0167358
70.1307 37.5219 2
67.8362 39.5131 2
67.2281 43.4715 2
65.5596 41.2121 2
66.0741 47.4202 2
64.658 44.8518 2
67.9328 37.5226 3.97166
65.7897 39.3718 3.97062
65.1813 43.0283 3.97258
63.7599 40.9325 3.97138
63.972 46.7206 3.9733
62.8138 44.2212 3.97338
70.0595 35.3923 0.024706
69.4704 31.1497 0.0225814
67.6593 33.5907 0.0267378
66.7771 29.622 0.0257483
62.3427 12.6525 0.00908354
62.2023 15.777 0.0150914
61.8211 18.6744 0.0187891
65.5296 25.6979 0.024853
64.1515 28.2536 0.0267851
62.8649 24.6325 0.0251141
61.2278 21.3315 0.0227527
60.4363 23.7183 0.0242933
59.2475 12.772 0.0147971
56.4065 13.1034 0.0165238
55.8751 10.2273 0.011869
67.8729 35.5478 2
67.2703 31.6216 2
65.7025 33.9264 2
64.6689 30.1899 2
60.7772 14.2159 2
60.6179 17.1163 2
60.2319 19.8033 2
63.5443 26.411 2
62.263 28.7745 2
59.6725 22.2461 2
61.0535 25.3313 2
58.9894 24.3092 2
57.9119 14.3215 2
55.3139 14.6332 2
54.0381 9.13028 2
54.7877 12.0017 2
65.8793 35.6671 3.97092
65.1921 32.1523 3.97289
64.2894 34.2493 3.97263
62.6017 30.6329 3.9725
61.6577 27.0683 3.97271
60.8566 29.1357 3.97407
59.3135 15.659 3.98316
59.3394 25.7878 3.97628
59.1298 18.3431 3.98149
58.7496 20.8407 3.97701
58.2957 23.0798 3.97443
57.9787 24.6536 3.97691
52.1127 8.14956 3.98904
53.0585 11.0092 3.98569
56.6787 15.7307 3.9823
53.8105 13.669 3.98313
54.3781 15.9852 3.98188
55.0709 67.9334 0.00653539
65.3376 49.4109 0.0253702
55.8053 64.9141 0.0110942
59.2207 62.3719 0.0143016
56.3284 62.0976 0.0159085
63.7143 53.2984 0.0216886
62.4496 50.6579 0.0262638
59.3368 59.5666 0.0173708
59.2956 57.0245 0.0214157
61.0871 54.3195 0.0203891
59.2515 55.1956 0.0193986
53.0429 69.0013 2
53.9674 66.0167 2
57.8829 60.8793 2
54.6846 63.2148 2
55.2132 60.6266 2
63.201 48.6659 2
61.7517 52.5842 2
60.2818 50.0277 2
58.0228 58.2733 2
59.3381 53.96 2
58.1344 55.8258 2
52.071 67.0026 3.98989
52.9539 64.2242 3.9867
56.6511 59.4989 3.98194
53.6823 61.6309 3.98363
54.2625 59.3319 3.98081
61.0009 47.8872 3.97231
59.7203 52.1156 3.97619
58.0334 49.6283 3.974
56.7819 56.9998 3.97658
57.1299 54.1348 3.97683
50.1099 67.86 2
49.3377 65.9263 3.98785
47.4638 66.5866 2
46.8928 64.7435 3.9865
45.5591 67.1036 3.98787
43.974 69.5935 3.99047
46.0571 69.1616 2
46.6094 71.3687 3.99421
48.1034 68.5816 0.00973979
48.803 70.7244 2
49.554 73.0099 4
50.9485 69.933 0.00610602
51.8506 72.1455 2
54.0858 71.1327 0
53.0642 6.06989 3.99315
55.1035 7.13822 2
56.25 5.02411 4
58.3339 6.3199 2
57.059 8.33373 0.00726168
60.3285 7.74928 0
66.0741 47.4201 0.025574
67.2281 43.4714 0.0263403
64.6581 44.8517 0.0269991
65.5596 41.2119 0.0285024
67.8362 39.513 0.0285591
70.1307 37.5218 0.0250406
67.9328 37.5226 2
65.7898 39.3718 2
65.1813 43.0284 2
63.7599 40.9326 2
63.9719 46.7207 2
62.8137 44.2213 2
65.8931 37.5027 3.97047
63.9021 39.2687 3.97068
63.3351 42.5543 3.97239
62.4363 40.701 3.97171
61.9749 45.925 3.9734
61.4595 43.689 3.97427
67.8729 35.5478 0.0279405
67.2702 31.6217 0.0258321
65.7024 33.9265 0.0280886
64.6688 30.19 0.0268649
60.7772 14.2164 0.0152061
60.6178 17.1172 0.0173221
60.2314 19.8042 0.0208548
63.5443 26.4113 0.026356
62.263 28.7747 0.0262553
61.0534 25.3316 0.0259695
59.672 22.2468 0.0242884
58.9891 24.3096 0.0235275
57.9121 14.3222 0.0168442
55.314 14.6341 0.0178887
54.0381 9.13088 0.0112987
54.7876 12.0026 0.0152395
65.8793 35.667 2
65.1923 32.1521 2
64.2895 34.2492 2
62.6019 30.6328 2
59.3134 15.6581 2
59.13 18.3421 2
58.7502 20.8397 2
61.6577 27.0681 2
60.8567 29.1356 2
58.2962 23.0793 2
59.3396 25.7877 2
57.979 24.6534 2
56.6785 15.7299 2
54.3779 15.9843 2
53.8105 13.668 2
52.1126 8.14904 2
53.0584 11.0085 2
64.0945 35.6325 3.97085
62.938 33.0449 3.97224
60.6227 30.6082 3.97217
59.5783 27.9037 3.97244
57.9429 16.9715 3.98235
57.7492 25.7158 3.97861
57.7217 19.4622 3.97994
57.3802 21.8265 3.97442
57.1964 23.935 3.97398
50.1127 7.28164 3.9893
51.2328 10.1179 3.98638
52.1726 12.7865 3.98433
55.5399 16.9591 3.98227
52.9788 15.2501 3.98148
53.7603 16.9666 3.982
53.0427 69.0012 0.00628796
53.9675 66.0162 0.0104674
63.201 48.6656 0.0268702
54.6848 63.214 0.0144966
57.8829 60.8784 0.0166749
55.2133 60.6255 0.017564
61.7514 52.5834 0.02333
60.2817 50.0273 0.0273507
58.0225 58.2723 0.0198308
58.1341 55.8251 0.0234068
59.3377 53.9593 0.0212275
52.0709 67.0031 2
52.9537 64.2249 2
56.6512 59.4999 2
53.6821 61.6319 2
54.2624 59.3331 2
61.0011 47.8875 2
59.7207 52.1162 2
58.0336 49.6284 2
56.7823 57.0009 2
57.1305 54.1352 2
51.1685 65.1331 3.98743
52.0468 62.5462 3.98489
55.484 58.2609 3.98112
52.836 60.1452 3.98194
53.6428 58.4821 3.98013
58.3148 46.8584 3.97462
57.5703 51.799 3.97573
56.2555 49.5638 3.98144
55.4776 55.8046 3.97613
55.3654 53.3926 3.97085
50.11 67.8596 0.00989641
49.3374 65.9268 2
48.6185 64.1297 3.98606
47.464 66.586 0.0119947
45.5589 67.1041 2
46.8926 64.744 2
46.3821 63.0622 3.98532
45.1331 65.205 3.9866
43.6322 67.4745 3.98801
41.8611 69.8811 3.9904
43.974 69.594 2
44.3767 71.8635 3.99416
46.0571 69.1612 0.00953489
46.6096 71.3689 2
47.2057 73.7222 4
48.8027 70.7242 0.00595961
49.554 73.0099 2
51.8506 72.1454 0
50.9538 5.1303 3.99335
53.0644 6.06976 2
54.0858 3.86728 4
55.1032 7.13832 0.00704027
56.25 5.02406 2
58.3339 6.31992 0
63.972 46.7206 0.0266991
65.1813 43.0283 0.0274214
62.8138 44.2212 0.0266161
63.7599 40.9325 0.0286164
65.7897 39.3718 0.0293761
67.9328 37.5226 0.0283428
65.8931 37.5027 2
63.9021 39.2688 2
63.3351 42.5544 2
62.4363 40.701 2
61.9749 45.9251 2
61.4594 43.689 2
63.9627 37.458 3.97056
62.161 39.3572 3.97128
61.2267 41.9631 3.97277
60.2593 44.7775 3.97397
65.8793 35.6671 0.0290814
65.1921 32.1523 0.02711
64.2894 34.2493 0.0273716
62.6017 30.6329 0.0275049
59.3135 15.659 0.0168447
59.1298 18.3431 0.0185113
58.7496 20.8407 0.0229949
61.6577 27.0683 0.0272852
60.8566 29.1357 0.025931
59.3394 25.7878 0.0237243
58.2957 23.0798 0.0255678
57.9787 24.6536 0.0230904
56.6787 15.7307 0.017699
54.3781 15.9852 0.0181237
53.8105 13.669 0.0168667
52.1127 8.14956 0.0109576
53.0585 11.0092 0.0143117
64.0945 35.6324 2
62.9382 33.0448 2
60.6228 30.6081 2
57.9429 16.9706 2
57.7222 19.4612 2
57.3809 21.8256 2
59.5784 27.9035 2
57.1969 23.9347 2
57.7495 25.7157 2
50.1127 7.28122 2
55.5398 16.9582 2
53.7601 16.9656 2
52.9787 15.2491 2
52.1725 12.7858 2
51.2327 10.1173 2
62.196 35.3589 3.97112
60.3023 32.7441 3.97259
58.6316 30.0708 3.97246
57.2995 27.3713 3.97237
56.64 18.1429 3.98223
56.3028 25.0916 3.97387
56.3641 20.5074 3.97701
56.118 22.8559 3.9714
48.0563 6.52484 3.98958
49.3245 9.326 3.98675
50.4333 11.985 3.98463
51.3786 14.4858 3.98294
54.4177 17.9074 3.98234
52.3628 17.0219 3.98108
52.071 67.0026 0.0101086
52.9539 64.2242 0.0133002
61.0009 47.8872 0.0276921
53.6823 61.6309 0.0163715
56.6511 59.4989 0.0180638
54.2625 59.3319 0.0191933
59.7203 52.1156 0.0238073
58.0334 49.6283 0.0260006
56.7819 56.9998 0.0234166
57.1299 54.1348 0.0231727
51.1682 65.1337 2
52.0466 62.547 2
55.4841 58.2622 2
52.8359 60.1462 2
53.6428 58.4833 2
58.3151 46.8586 2
57.5708 51.7993 2
56.2558 49.5639 2
55.4782 55.8058 2
55.3661 53.3934 2
50.3467 63.3878 3.98562
51.245 60.9444 3.98303
54.2236 57.2759 3.97976
52.3147 58.6449 3.98029
56.7338 44.1933 3.97449
55.5031 47.9071 3.97515
55.0784 51.3949 3.97175
54.0107 54.5548 3.97424
49.3377 65.9263 0.0121515
48.6183 64.1302 2
47.9624 62.4832 3.98489
45.5591 67.1036 0.0121346
46.8928 64.7435 0.0135032
43.632 67.4751 2
46.3819 63.0629 2
45.1329 65.2056 2
45.9875 61.5959 3.98446
44.7674 63.4636 3.98588
43.357 65.515 3.98679
41.6641 67.6937 3.98795
39.7027 70.0283 3.99028
41.8611 69.8815 2
42.1111 72.2083 3.99407
43.974 69.5935 0.00952736
44.3769 71.8638 2
44.8159 74.2794 4
46.6094 71.3687 0.00579461
47.2057 73.7222 2
49.554 73.0099 0
48.7843 4.32136 3.99358
50.9541 5.13017 2
51.8506 2.85458 4
53.0642 6.06989 0.00685063
54.0858 3.86728 2
56.25 5.02411 0
61.9749 45.925 0.0265999
63.3351 42.5543 0.0276078
61.4595 43.689 0.0257324
62.4363 40.701 0.0282877
63.9021 39.2687 0.0293156
65.8931 37.5027 0.029531
63.9626 37.458 2
62.1611 39.3572 2
61.2268 41.9632 2
60.2592 44.7775 2
61.9954 37.4454 3.97117
60.2558 39.851 3.97237
59.0079 42.925 3.97366
64.0945 35.6325 0.0291517
62.938 33.0449 0.027761
60.6227 30.6082 0.0278349
57.9429 16.9715 0.0176503
57.7217 19.4622 0.0200578
57.3802 21.8265 0.0255771
59.5783 27.9037 0.0275559
57.7492 25.7158 0.0213863
57.1964 23.935 0.0260194
55.5399 16.9591 0.0177276
53.7603 16.9666 0.0179978
52.9788 15.2501 0.0185201
50.1127 7.28164 0.0107009
52.1726 12.7865 0.015668
51.2328 10.1179 0.0136185
62.196 35.3589 2
60.3026 32.744 2
58.6317 30.0708 2
56.6401 18.1418 2
56.3649 20.5063 2
56.119 22.8556 2
57.2994 27.3711 2
56.3033 25.0918 2
48.0564 6.52436 2
49.3244 9.32559 2
54.4177 17.9063 2
52.3625 17.021 2
51.3785 14.4849 2
50.4332 11.9844 2
59.9028 35.1198 3.97207
58.0113 32.2674 3.97365
56.5572 29.3327 3.97181
55.4567 26.5894 3.97591
55.3463 19.1762 3.98191
54.9395 24.0446 3.97024
55.0086 21.5491 3.97446
45.9622 5.87985 3.98993
43.3734 7.46933 3.98801
47.3548 8.62002 3.98703
48.5999 11.2867 3.98519
49.7143 13.7334 3.98363
50.6345 16.1193 3.98096
53.1274 18.6461 3.98022
51.3044 18.0348 3.98571
51.1685 65.1331 0.0125669
52.0468 62.5462 0.0151077
58.3148 46.8584 0.0253781
52.836 60.1452 0.018063
55.484 58.2609 0.0188791
53.6428 58.4821 0.0198706
57.5703 51.799 0.024268
56.2555 49.5638 0.0185603
55.4776 55.8046 0.023867
55.3654 53.3926 0.0291534
50.3464 63.3883 2
51.2448 60.9453 2
54.2238 57.2773 2
52.3147 58.6459 2
56.7337 44.1932 2
55.5031 47.9074 2
55.079 51.3952 2
54.0114 54.5569 2
49.5923 61.753 3.9843
55.6544 41.7145 3.97524
50.5683 59.3383 3.9804
52.1891 56.5006 3.97688
54.2017 45.5761 3.97649
53.3493 49.3353 3.97538
52.6755 52.8572 3.9707
48.6185 64.1297 0.0139411
47.9621 62.4835 2
47.3295 61.0187 3.98391
43.6322 67.4745 0.0119908
45.1331 65.205 0.0133954
46.3821 63.0622 0.0146799
41.6639 67.6942 2
43.3568 65.5156 2
45.9873 61.5965 2
44.7672 63.4642 2
45.7665 60.6406 3.9836
44.4834 61.8459 3.98462
43.1467 63.7365 3.98577
41.5465 65.6531 3.98671
39.633 67.7735 3.98776
37.526 70.0534 3.99017
39.7027 70.0288 2
39.8179 72.4054 3.994
41.8611 69.8811 0.00960206
42.1113 72.2086 2
42.3947 74.6792 4
44.3767 71.8635 0.00584252
44.8159 74.2794 2
47.2057 73.7222 0
43.8515 5.35692 3.99018
46.5703 3.64592 3.99383
48.7846 4.32117 2
49.554 1.99015 4
50.9538 5.1303 0.0066493
51.8506 2.85453 2
54.0858 3.86728 0
60.2593 44.7775 0.026028
61.2267 41.9631 0.027235
62.161 39.3572 0.0287244
63.9627 37.458 0.0294417
61.9958 37.4454 2
60.2558 39.8511 2
59.0077 42.9251 2
59.7633 37.5685 3.97216
58.0103 40.663 3.97316
55.1292 39.7275 3.97511
62.196 35.3589 0.0288758
60.3023 32.7441 0.0274106
58.6316 30.0708 0.0275393
56.64 18.1429 0.0177678
56.3641 20.5074 0.0229871
56.118 22.8559 0.0285967
57.2995 27.3713 0.0276274
56.3028 25.0916 0.0261315
54.4177 17.9074 0.0176624
52.3628 17.0219 0.0189156
51.3786 14.4858 0.017062
48.0563 6.52484 0.0104159
49.3245 9.326 0.0132522
50.4333 11.985 0.0153693
59.9031 35.1198 2
45.9622 5.87939 2
43.3734 7.46886 2
58.0115 32.2674 2
56.5578 29.3327 2
55.3467 19.175 2
55.0095 21.5475 2
54.9403 24.0451 2
55.4567 26.5898 2
47.3548 8.61949 2
48.5998 11.2864 2
53.1275 18.6449 2
51.3044 18.0341 2
50.6343 16.1184 2
49.7142 13.7327 2
57.4131 34.7603 3.97438
55.7462 31.5151 3.97317
54.5126 28.394 3.97576
53.782 25.4869 3.97405
53.9737 20.1235 3.98165
53.5884 22.697 3.97125
41.3984 7.07447 3.98825
45.3595 7.99137 3.98732
42.865 9.41017 3.98654
46.666 10.6479 3.98529
47.7454 13.0939 3.9838
48.9319 15.3904 3.98273
50.0078 17.6889 3.97911
51.654 19.3108 3.98733
50.3467 63.3878 0.0143849
51.245 60.9444 0.0169747
56.7338 44.1933 0.0255084
55.5031 47.9071 0.0248499
52.3147 58.6449 0.019705
54.2236 57.2759 0.0202408
55.0784 51.3949 0.0282489
54.0107 54.5548 0.0257553
49.592 61.7535 2
55.6554 41.7145 2
50.5681 59.3393 2
52.1896 56.5018 2
54.2043 45.5761 2
53.3497 49.3348 2
52.6766 52.8571 2
48.8496 60.2114 3.98281
52.5646 42.6553 3.97617
49.7914 57.6375 3.97901
50.5987 54.4363 3.97537
51.8226 47.2807 3.97727
51.2235 50.9488 3.97008
48.1904 43.817 3.98965
47.9624 62.4832 0.015114
47.3292 61.0191 2
46.6192 59.8057 3.98296
41.6641 67.6937 0.0120542
43.357 65.515 0.0132148
44.7674 63.4636 0.014118
45.9875 61.5959 0.0155396
39.6329 67.7741 2
41.5463 65.6535 2
45.7661 60.6412 2
43.1465 63.7369 2
44.4831 61.8465 2
44.6238 60.3035 3.98396
42.9506 62.0949 3.98511
41.6001 63.8302 3.98573
39.6479 65.6215 3.98644
37.5634 67.756 3.98777
31.697 65.1401 3.98659
33.3919 67.4936 3.98767
35.3332 69.9635 3.99013
37.526 70.054 2
37.5095 72.46 3.99389
39.7027 70.0283 0.00971812
39.8179 72.4058 2
39.9526 74.9197 4
42.1111 72.2083 0.00593417
42.3947 74.6792 2
44.8159 74.2794 0
41.736 4.96601 3.99045
43.8515 5.35648 2
44.3256 3.10922 3.99395
46.5705 3.64569 2
47.2057 1.27793 4
48.7843 4.32136 0.00642123
49.554 1.99013 2
51.8506 2.85458 0
59.0079 42.925 0.0263364
60.2558 39.851 0.0276261
61.9954 37.4454 0.0288322
59.7639 37.5686 2
58.0105 40.6631 2
55.1295 39.7273 2
56.8346 37.8993 3.97483
49.6247 41.3444 3.98394
53.1689 39.3124 3.97623
39.4417 6.79791 3.98843
59.9028 35.1198 0.0279328
58.0113 32.2674 0.0263474
56.5572 29.3327 0.0281919
55.3463 19.1762 0.0180933
55.0086 21.5491 0.0255353
54.9395 24.0446 0.0297586
55.4567 26.5894 0.0240939
53.1274 18.6461 0.0197802
51.3044 18.0348 0.0142877
50.6345 16.1193 0.0190396
45.9622 5.87985 0.0100668
49.7143 13.7334 0.0163676
47.3548 8.62002 0.0129706
48.5999 11.2867 0.0148061
43.3734 7.46933 0.0119927
57.4142 34.7603 2
41.3985 7.07394 2
45.3595 7.99091 2
42.865 9.40968 2
55.7445 31.5152 2
54.513 28.3947 2
53.9742 20.1219 2
53.5892 22.6931 2
53.7827 25.4874 2
46.666 10.6474 2
47.7451 13.0935 2
51.6543 19.3102 2
50.0077 17.688 2
48.9317 15.3897 2
54.913 33.9705 3.97523
53.5048 30.4778 3.97306
52.5989 27.1871 3.97676
52.1529 24.0817 3.97329
52.3961 21.0475 3.98136
41.013 9.04326 3.98654
44.7231 9.99082 3.98564
42.4677 10.896 3.98468
46.0048 12.7224 3.98392
47.6818 14.5755 3.9835
48.1149 16.9784 3.98019
49.8192 19.5899 3.9769
49.5923 61.753 0.0156993
50.5683 59.3383 0.0196002
55.6544 41.7145 0.0247589
54.2017 45.5761 0.0235145
53.3493 49.3353 0.0246193
52.1891 56.5006 0.023116
52.6755 52.8572 0.0292953
48.8493 60.2119 2
52.5664 42.6546 2
49.7914 57.6386 2
50.5994 54.438 2
51.8238 47.2796 2
51.2246 50.9475 2
48.1899 43.8219 2
47.9881 58.7538 3.98202
50.1195 45.293 3.97494
48.6012 55.9283 3.98027
49.1354 52.6033 3.97449
49.6793 49.0551 3.97408
46.0373 39.8885 3.90388
46.4405 42.7029 3.95305
46.5143 45.8664 3.99276
43.8832 41.191 3.90834
42.0625 42.0276 3.87574
47.3295 61.0187 0.0160869
46.6188 59.8061 2
45.4689 58.8027 3.98332
39.633 67.7735 0.0122355
41.5465 65.6531 0.0132876
43.1467 63.7365 0.0142349
44.4834 61.8459 0.0153789
45.7665 60.6406 0.0163954
41.5999 63.8306 2
37.5633 67.7566 2
39.6477 65.6219 2
44.6235 60.3041 2
42.9503 62.0954 2
41.7537 62.5059 3.98548
42.4818 59.9964 3.98487
39.8936 63.5657 3.98552
37.6424 65.5206 3.98603
35.4634 67.6653 3.98772
33.5753 65.3536 3.98632
31.9594 63.3139 3.98561
29.883 64.7309 3.98661
31.697 65.1405 2
31.3764 67.2032 3.98775
33.3919 67.4941 2
33.1559 69.7569 3.99016
35.3332 69.9641 2
35.1949 72.3744 3.99386
37.526 70.0534 0.0098271
37.5095 72.4603 2
37.5 75 4
39.8179 72.4054 0.00599588
39.9526 74.9197 2
42.3947 74.6792 0
39.6235 4.71314 3.99059
41.7361 4.96553 2
42.062 2.71684 3.99411
43.8515 5.35692 0.00981517
44.3258 3.10897 2
44.8158 0.721173 4
46.5703 3.64592 0.00616837
47.2057 1.27779 2
49.554 1.99015 0
58.0103 40.663 0.0268379
59.7633 37.5685 0.0278389
55.1292 39.7275 0.0248917
49.6304 41.3473 2
56.8352 37.8994 2
53.1691 39.3116 2
54.0098 36.6292 3.97696
47.556 40.44 3.95848
50.5839 38.5141 3.98168
37.5154 6.6689 3.9884
39.4418 6.79737 2
39.2104 8.68567 3.98683
35.9408 8.48532 3.98709
57.4131 34.7603 0.0256153
55.7462 31.5151 0.0268319
54.5126 28.394 0.0242437
53.9737 20.1235 0.0183481
53.5884 22.697 0.0287537
53.782 25.4869 0.0259528
51.654 19.3108 0.0126658
50.0078 17.6889 0.0208882
48.9319 15.3904 0.0172743
45.3595 7.99137 0.0126839
47.7454 13.0939 0.016204
46.666 10.6479 0.0147062
41.3984 7.07447 0.0117548
42.865 9.41017 0.0134648
54.9157 33.9704 2
41.013 9.0427 2
44.7231 9.99043 2
42.4676 10.8955 2
53.5031 30.4766 2
52.5997 27.1889 2
52.397 21.0467 2
52.1542 24.0818 2
46.0045 12.7218 2
47.6815 14.5749 2
49.8195 19.5886 2
48.1147 16.9775 2
52.4608 32.8701 3.97684
51.3361 29.1446 3.97106
50.8015 25.7126 3.97288
49.9452 22.1692 3.97911
40.5684 11.5991 3.98453
43.8575 11.9115 3.98489
45.8032 15.411 3.98322
47.5053 19.2115 3.97804
46.3755 37.5037 3.90935
48.8496 60.2114 0.017188
49.7914 57.6375 0.0209947
52.5646 42.6553 0.0238269
51.8226 47.2807 0.0227291
51.2235 50.9488 0.0299231
50.5987 54.4363 0.024629
48.1904 43.817 0.0103501
47.9878 58.7543 2
50.1219 45.2947 2
48.6014 55.9296 2
49.1363 52.6068 2
49.6802 49.0541 2
46.05 39.8941 2
46.4521 42.7118 2
46.5128 45.8551 2
43.8972 41.1987 2
42.0678 42.0306 2
46.8403 57.3575 3.98299
44.6416 39.4714 3.89811
42.4315 40.8941 3.8926
48.1005 47.2554 3.97815
47.1716 54.2644 3.98104
47.5949 50.7595 3.97532
44.8158 47.4479 4.00078
45.115 41.9848 3.91049
44.9335 44.6122 3.95568
42.7007 42.7172 3.91037
40.931 42.3696 3.90292
46.6192 59.8057 0.0170449
45.4684 58.8033 2
43.8773 57.7281 3.98424
37.5634 67.756 0.0122294
39.6479 65.6215 0.0135617
41.6001 63.8302 0.0142695
42.9506 62.0949 0.0148897
44.6238 60.3035 0.0160353
35.4633 67.6659 2
41.7534 62.5062 2
39.8934 63.5661 2
37.6423 65.5211 2
42.4814 59.9971 2
40.6234 61.665 3.98482
40.4459 58.231 3.98475
37.8369 63.2272 3.98548
35.573 65.4428 3.9862
33.5753 65.354 2
31.9594 63.3143 2
33.629 63.354 3.98531
30.3783 62.8723 3.98575
32.1231 62.0214 3.98528
26.8679 61.5153 3.98477
28.0618 64.1586 3.98638
29.8831 64.7313 2
29.4057 66.7667 3.98779
31.697 65.1401 0.0134103
31.3764 67.2036 2
31.0131 69.4218 3.99012
33.3919 67.4936 0.0123264
33.1559 69.7573 2
32.8919 72.1486 3.99389
35.3332 69.9635 0.00987316
35.1948 72.3747 2
35.0474 74.9194 4
37.5095 72.46 0.00611481
37.5 75 2
39.9526 74.9197 0
35.6198 6.71985 3.9885
37.5225 4.61257 3.99073
39.6235 4.71268 2
39.7884 2.47329 3.99423
41.736 4.96601 0.00954645
42.0621 2.71656 2
42.3946 0.32156 4
44.3256 3.10922 0.00604796
44.8159 0.72056 2
47.2057 1.27793 0
49.6247 41.3444 0.0160556
56.8346 37.8993 0.0251652
53.1689 39.3124 0.0237718
47.5619 40.442 2
50.5874 38.5154 2
54.0098 36.629 2
51.3709 35.5837 3.96764
48.222 37.7721 3.97168
46.0354 35.1384 3.91041
43.882 33.8224 3.90441
42.0557 32.9884 3.874
37.4571 8.52738 3.98687
37.5154 6.66836 2
39.4417 6.79791 0.0115708
39.2105 8.68506 2
38.9755 10.1177 3.98634
35.8973 9.7645 3.98592
34.1492 8.81464 3.98696
35.9407 8.48465 2
54.913 33.9705 0.0247745
53.5048 30.4778 0.0269429
52.5989 27.1871 0.0232429
52.3961 21.0475 0.0186427
52.1529 24.0817 0.0267105
49.8192 19.5899 0.0231032
48.1149 16.9784 0.0198082
47.6818 14.5755 0.0165026
44.7231 9.99082 0.0143588
46.0048 12.7224 0.0160825
41.013 9.04326 0.0134596
42.4677 10.896 0.0153151
52.4627 32.8694 2
40.5683 11.5986 2
43.8572 11.9112 2
51.3385 29.1459 2
50.8032 25.7142 2
49.9461 22.1677 2
45.8027 15.4104 2
47.5055 19.2107 2
50.013 31.4032 3.9663
49.2985 27.4569 3.98066
49.4139 24.3815 3.97879
47.1903 21.9194 3.9757
38.3007 12.7229 3.9848
42.1009 14.2939 3.9836
44.8017 18.4436 3.98333
44.9254 37.5136 3.89987
46.3951 37.5093 2
47.9881 58.7538 0.0179844
48.6012 55.9283 0.0197285
50.1195 45.293 0.0250648
49.6793 49.0551 0.0259211
49.1354 52.6033 0.0255123
46.0373 39.8885 0.0961217
46.4405 42.7029 0.0469544
46.5143 45.8664 0.00723661
43.8832 41.191 0.0916631
42.0625 42.0276 0.124258
46.8399 57.3583 2
44.6572 39.4765 2
42.4328 40.8934 2
48.1014 47.2553 2
47.1721 54.2661 2
47.5964 50.7615 2
44.8185 47.4256 2
45.1254 41.9936 2
44.9459 44.6258 2
42.7206 42.7279 2
40.9365 42.3677 2
45.3999 55.9451 3.98417
42.78 39.2779 3.90636
40.8914 40.815 3.94985
46.1031 48.9293 3.98096
45.5501 52.5588 3.98251
43.4655 48.4791 4.00316
43.3601 46.185 3.96136
43.691 43.8041 3.90585
41.1921 43.886 3.91063
39.3106 42.7016 3.91663
45.4689 58.8027 0.0166771
43.8767 57.7288 2
42.1081 56.3559 3.98577
35.4634 67.6653 0.0122805
37.6424 65.5206 0.013975
39.8936 63.5657 0.0144823
41.7537 62.5059 0.014516
42.4818 59.9964 0.0151286
35.5729 65.4433 2
40.623 61.6653 2
37.8368 63.2275 2
40.4454 58.2316 2
38.9266 56.5276 3.98789
38.2508 60.3503 3.98528
35.6071 63.2209 3.98532
33.5753 65.3536 0.0136841
31.9594 63.3139 0.0143856
33.629 63.3543 2
30.3783 62.8727 2
32.123 62.0217 2
28.6807 62.2173 3.98553
33.3459 61.5346 3.98525
31.066 61.2388 3.98527
27.5665 59.614 3.98304
23.7887 59.0997 3.98259
25.0331 60.8875 3.98371
26.868 61.5155 2
26.2283 63.4907 3.98604
28.0619 64.159 2
27.4622 66.1903 3.98777
29.883 64.7309 0.0133869
29.4058 66.7672 2
28.9053 68.9472 3.99012
31.3764 67.2032 0.0122489
31.013 69.4222 2
30.6143 71.7797 3.9939
33.1559 69.7569 0.0098449
32.8918 72.1489 2
32.6054 74.6784 4
35.1949 72.3744 0.00614286
35.0474 74.9197 2
37.5 75 0
33.7223 6.97436 3.98821
35.4338 4.68295 3.9907
35.6198 6.71925 2
37.5139 2.38591 3.99432
37.5226 4.61212 2
39.6235 4.71314 0.00941104
39.7885 2.473 2
39.9526 0.0806499 4
42.062 2.71684 0.00588733
42.3947 0.320817 2
44.8158 0.721173 0
44.648 35.5437 3.89745
42.4299 34.1175 3.89157
47.556 40.44 0.0415209
50.5839 38.5141 0.0183235
54.0098 36.6292 0.0230377
48.2269 37.7714 2
51.3731 35.5827 2
46.0446 35.128 2
43.8989 33.8106 2
42.0612 32.9868 2
48.3854 34.2771 3.99243
45.1099 33.0341 3.90582
42.699 32.3032 3.91107
40.924 32.647 3.90636
37.3094 10.6207 3.98562
37.4571 8.52668 2
37.5154 6.6689 0.0116016
39.2104 8.68567 0.0131695
38.9755 10.117 2
34.7524 10.3698 3.98566
35.8973 9.76376 2
32.3758 9.36112 3.98639
34.149 8.81393 2
35.9408 8.48532 0.0129146
52.4608 32.8701 0.0231603
51.3361 29.1446 0.0289398
50.8015 25.7126 0.0271242
49.9452 22.1692 0.0208863
47.5053 19.2115 0.0219573
45.8032 15.411 0.0167751
43.8575 11.9115 0.0151069
40.5684 11.5991 0.0154726
50.0149 31.4022 2
38.3004 12.7222 2
42.1004 14.2935 2
49.3002 27.4584 2
49.4155 24.3803 2
47.1913 21.9203 2
44.8017 18.4429 2
47.8126 29.5581 3.97585
47.1139 25.1107 3.98241
44.2922 21.2913 3.98254
36.5803 12.9192 3.98424
38.6802 14.791 3.98365
41.75 17.8204 3.98171
42.9283 37.4958 3.90362
44.948 37.5127 2
46.3755 37.5037 0.09065
46.8403 57.3575 0.0170122
47.1716 54.2644 0.0189645
48.1005 47.2554 0.0218483
47.5949 50.7595 0.0246804
44.6416 39.4714 0.101886
45.115 41.9848 0.0895105
44.9335 44.6122 0.0443154
44.8158 47.4479 -0.000784228
42.7007 42.7172 0.0896286
42.4315 40.8941 0.107395
40.931 42.3696 0.0970801
45.3996 55.9461 2
42.785 39.2764 2
40.8919 40.8116 2
46.1042 48.9303 2
45.5514 52.5607 2
43.4672 48.5015 2
43.3837 46.1988 2
43.7063 43.814 2
41.2063 43.8905 2
39.3134 42.6993 2
43.7393 54.4575 3.98951
40.9869 39.1783 3.97387
39.2307 40.8999 3.97555
43.715 50.5389 3.99316
41.9726 47.7203 3.9874
41.881 45.2068 3.90301
39.4307 44.6288 3.91845
37.4941 42.8303 3.92263
43.8773 57.7281 0.0157644
42.1074 56.3567 2
40.421 54.9662 3.98765
35.573 65.4428 0.0138001
37.8369 63.2272 0.0145171
40.6234 61.665 0.0151832
40.4459 58.231 0.0152533
35.607 63.2212 2
38.2503 60.3503 2
38.9258 56.5289 2
38.0003 55.2867 3.98759
36.9354 57.6569 3.98556
35.3637 60.9345 3.98525
33.629 63.354 0.0146869
30.3783 62.8723 0.0142489
32.1231 62.0214 0.0147188
33.3457 61.5349 2
28.6808 62.2176 2
31.066 61.239 2
29.402 60.3082 3.98459
32.3555 59.7678 3.98489
28.0185 58.3935 3.98364
27.5666 59.6141 2
25.3756 58.6124 3.98128
22.7513 58.2578 3.97892
23.3984 60.3666 3.98211
23.7887 59.1001 2
25.0333 60.8879 2
24.4307 62.7827 3.98539
26.8679 61.5153 0.0152264
26.2284 63.491 2
25.5462 65.5001 3.98769
28.0618 64.1586 0.0136209
27.4623 66.1908 2
26.8348 68.3354 3.99007
29.4057 66.7667 0.012211
28.9052 68.9476 2
28.3694 71.2648 3.99392
31.0131 69.4218 0.0098796
30.6141 71.7799 2
30.1842 74.2788 4
32.8919 72.1486 0.00611353
32.6053 74.6792 2
35.0474 74.9194 0
31.7866 7.41418 3.98802
33.3456 4.92206 3.99061
33.7222 6.97374 2
35.2441 2.46206 3.99429
35.4339 4.68245 2
35.6198 6.71985 0.0115042
37.5 0 4
37.514 2.38561 2
37.5225 4.61257 0.00927111
39.7884 2.47329 0.00577382
39.9526 0.0802889 2
42.3946 0.32156 0
42.7884 35.722 3.90517
44.66 35.54 2
40.8906 34.196 3.95117
42.4317 34.1179 2
48.222 37.7721 0.0283232
51.3709 35.5837 0.0323572
46.0354 35.1384 0.0895903
43.882 33.8224 0.0955868
42.0557 32.9884 0.125995
48.3904 34.2725 2
45.1215 33.026 2
42.7157 32.2947 2
40.9257 32.6483 2
46.3454 31.5565 3.97638
43.6856 31.2199 3.90553
41.1968 31.124 3.90418
39.3024 32.3063 3.91653
35.6905 11.7645 3.98438
37.3094 10.62 2
37.4571 8.52738 0.0131258
38.9755 10.1177 0.0136589
33.0961 11.2062 3.98445
34.7523 10.3689 2
35.8973 9.7645 0.0140794
30.4804 10.0092 3.98568
32.3756 9.36036 2
34.1492 8.81464 0.0130378
50.013 31.4032 0.0337039
49.2985 27.4569 0.0193377
49.4139 24.3815 0.0212115
47.1903 21.9194 0.0243043
44.8017 18.4436 0.0166651
42.1009 14.2939 0.0163951
38.3007 12.7229 0.0151982
36.58 12.9185 2
47.8127 29.5563 2
38.6795 14.7904 2
41.7497 17.8196 2
47.1162 25.1119 2
44.2931 21.2902 2
45.575 27.6717 3.99758
43.8103 24.0142 3.99399
41.3431 20.6959 3.98138
35.7701 14.7433 3.98359
38.6806 17.5757 3.98223
41.0349 37.4868 3.9743
42.934 37.4967 2
44.9254 37.5136 0.100129
45.3999 55.9451 0.0158288
45.5501 52.5588 0.0174946
46.1031 48.9293 0.0190362
42.78 39.2779 0.0936384
43.691 43.8041 0.0941526
43.3601 46.185 0.0386405
43.4655 48.4791 -0.00316477
41.1921 43.886 0.0893703
40.8914 40.815 0.050151
39.3106 42.7016 0.0833743
43.7391 54.4593 2
40.9876 39.1762 2
39.2303 40.8976 2
43.7161 50.5467 2
41.9754 47.7327 2
41.9006 45.2158 2
37.4964 42.829 2
39.4464 44.6277 2
41.8849 53.0353 3.99685
39.2316 39.1802 3.97023
37.4962 40.9464 3.97592
35.684 42.7023 3.91764
40.952 49.7702 4.00384
39.7994 46.1041 3.89698
37.4954 44.8807 3.91913
42.1081 56.3559 0.0142267
40.42 54.9666 2
38.7301 53.9004 3.98844
35.6071 63.2209 0.0146817
38.2508 60.3503 0.0147196
38.9266 56.5276 0.012107
35.3634 60.9346 2
36.9346 57.6564 2
37.9992 55.2863 2
36.3191 55.421 3.98905
34.4873 58.5479 3.98529
33.3459 61.5346 0.0147451
28.6807 62.2173 0.0144734
31.066 61.2388 0.0147322
32.3554 59.7679 2
29.402 60.3083 2
30.294 57.8407 3.98562
28.0185 58.3937 2
26.9373 56.8428 3.98083
27.5665 59.614 0.0169587
25.3756 58.6128 2
23.8308 56.823 3.97596
21.3265 57.4163 3.97827
21.9901 59.6382 3.98176
22.7512 58.2583 2
22.7343 62.0337 3.98427
23.3985 60.3671 2
23.7887 59.0997 0.0174091
25.0331 60.8875 0.0162926
24.4308 62.7832 2
23.6801 64.7183 3.98723
26.2283 63.4907 0.0139598
25.5464 65.5005 2
24.8071 67.5964 3.98998
27.4622 66.1903 0.0122292
26.8348 68.3358 2
26.1646 70.6056 3.9939
28.9053 68.9472 0.00988124
28.3691 71.265 2
27.7943 73.7221 4
30.6143 71.7797 0.00609551
30.1841 74.2794 2
32.6054 74.6784 0
29.809 7.98734 3.98756
31.2507 5.32928 3.9903
31.7865 7.41341 2
32.9798 2.70016 3.99422
33.3457 4.92152 2
33.7223 6.97436 0.0117917
35.0474 0.080333 4
35.2441 2.46175 2
35.4338 4.68295 0.00929531
37.5 0 2
37.5139 2.38591 0.00568207
39.9526 0.0806499 0
40.9915 35.8078 3.97465
42.7913 35.7239 2
44.648 35.5437 0.102548
28.5411 10.6845 3.9856
39.2271 34.109 3.9733
40.8904 34.2002 2
42.4299 34.1175 0.108434
48.3854 34.2771 0.00757317
45.1099 33.0341 0.0941842
42.699 32.3032 0.0889303
40.924 32.647 0.0936413
46.359 31.5509 2
43.6933 31.2116 2
41.2116 31.1167 2
39.3044 32.3077 2
44.408 29.7326 3.9648
41.8899 29.8092 3.90818
39.4357 30.3784 3.91928
37.4849 32.1703 3.92259
34.0903 12.9221 3.98379
35.6904 11.7636 2
37.3094 10.6207 0.0143777
31.184 11.9743 3.98471
33.0961 11.2053 2
34.7524 10.3698 0.0143353
30.4803 10.0083 2
32.3758 9.36112 0.0136082
47.8126 29.5581 0.0241515
47.1139 25.1107 0.0175887
36.5803 12.9192 0.0157571
44.2922 21.2913 0.0174588
41.75 17.8204 0.0182926
38.6802 14.791 0.0163486
35.7695 14.7426 2
45.5763 27.6635 2
38.6801 17.5747 2
41.3431 20.694 2
43.8127 24.017 2
33.6054 15.8597 3.98337
43.0767 26.4935 3.99842
40.9217 23.2661 3.98748
38.4224 20.3025 3.98342
35.8466 17.4897 3.98362
39.2389 37.4863 3.96989
41.0356 37.487 2
42.9283 37.4958 0.0963769
43.7393 54.4575 0.01049
43.715 50.5389 0.00684442
40.9869 39.1783 0.0261263
41.881 45.2068 0.0969924
41.9726 47.7203 0.0126045
39.4307 44.6288 0.0815486
39.2307 40.8999 0.0244473
37.4941 42.8303 0.0773725
41.8843 53.0381 2
39.2322 39.1788 2
37.4964 40.9441 2
40.9525 49.7736 2
35.6824 42.7002 2
39.8209 46.1195 2
37.4929 44.8778 2
39.8293 51.9568 4.00112
37.4947 39.1942 3.96262
35.7638 40.906 3.97649
34.0624 42.3646 3.90395
35.5439 44.6287 3.91607
38.7419 48.7669 4.0026
37.4935 46.4249 3.89725
40.421 54.9662 0.0123504
38.7291 53.8993 2
36.7186 53.2569 3.99735
35.3637 60.9345 0.0147524
36.9354 57.6569 0.0144412
38.0003 55.2867 0.0124131
34.4869 58.5476 2
36.3183 55.4194 2
33.2222 55.5349 3.98672
32.3555 59.7678 0.0151084
29.402 60.3082 0.0154146
30.2941 57.8407 2
28.6778 55.3332 3.98109
28.0185 58.3935 0.016358
26.9372 56.8429 2
25.2971 55.1606 3.97714
21.7952 55.3629 3.97445
25.3756 58.6124 0.0187178
23.8306 56.8234 2
20.21 57.0459 3.98057
20.6401 58.7959 3.98065
21.3264 57.4168 2
21.164 61.1832 3.98342
21.9901 59.6388 2
22.7513 58.2578 0.0210804
21.8934 63.8461 3.98654
22.7344 62.0343 2
23.3984 60.3666 0.017889
24.4307 62.7827 0.0146074
23.6803 64.7187 2
22.8353 66.74 3.98983
25.5462 65.5001 0.0123111
24.8071 67.5968 2
24.0088 69.8067 3.99382
26.8348 68.3354 0.00993192
26.1643 70.6057 2
25.446 73.0099 4
28.3694 71.2648 0.00608219
27.7943 73.7222 2
30.1842 74.2788 0
27.8189 8.64703 3.98722
29.1526 5.87501 3.98997
29.8089 7.98656 2
30.725 3.09735 3.99401
31.2507 5.32864 2
31.7866 7.41418 0.011981
32.6053 0.320823 4
32.9798 2.69985 2
33.3456 4.92206 0.00939353
35.0474 0.0802903 2
35.2441 2.46206 0.00570977
37.5 0 0
39.2347 35.8046 3.97006
40.9918 35.8102 2
42.7884 35.722 0.0948343
28.5411 10.6838 2
26.62 11.3798 3.98533
29.2229 12.6308 3.98486
37.4901 34.0567 3.97258
39.2262 34.1098 2
40.8906 34.196 0.0488322
46.3454 31.5565 0.0236242
43.6856 31.2199 0.0944717
41.1968 31.124 0.0958239
39.3024 32.3063 0.0834708
44.4233 29.7236 2
41.9088 29.7975 2
39.4488 30.3771 2
37.4855 32.1708 2
42.3433 28.3597 3.94803
39.827 28.9023 3.90563
37.4921 30.1144 3.92003
35.6732 32.295 3.91644
31.9117 14.4667 3.98399
34.0901 12.9212 2
35.6905 11.7645 0.0156153
31.184 11.9735 2
33.0961 11.2062 0.0155456
30.4804 10.0092 0.0143156
45.575 27.6717 0.00242456
43.8103 24.0142 0.00601244
35.7701 14.7433 0.0164062
41.3431 20.6959 0.0186166
38.6806 17.5757 0.0177741
33.605 15.8595 2
35.8461 17.489 2
43.079 26.4924 2
38.4219 20.3014 2
40.9226 23.2611 2
33.5476 17.367 3.98495
40.4555 25.6108 4.01138
38.079 22.8281 3.99233
35.5828 20.055 3.98443
37.4947 37.4932 3.95395
39.2393 37.4859 2
41.0349 37.4868 0.0257025
41.8849 53.0353 0.00315488
40.952 49.7702 -0.00383848
39.2316 39.1802 0.0297688
39.7994 46.1041 0.103015
37.4954 44.8807 0.0808744
37.4962 40.9464 0.0240774
35.684 42.7023 0.0823575
39.8288 51.9577 2
37.4953 39.1928 2
35.7645 40.9047 2
38.739 48.7938 2
34.0595 42.3637 2
35.5342 44.6318 2
37.4901 46.4454 2
37.6749 51.0573 4.01261
35.7627 39.192 3.9708
34.108 40.8174 3.95053
32.9289 42.0187 3.87517
33.7836 43.8775 3.90796
35.1689 46.0983 3.90291
36.8705 48.4167 3.9883
38.7301 53.9004 0.0115643
36.718 53.2543 2
34.3549 52.5142 3.98969
34.4873 58.5479 0.0147055
36.3191 55.421 0.0109509
33.2221 55.5339 2
30.5048 53.4319 3.98354
30.294 57.8407 0.0143776
28.6777 55.3334 2
26.8635 53.457 3.97638
26.9373 56.8428 0.0191657
25.297 55.1608 2
23.5537 53.5012 3.97329
20.4482 53.2418 3.9716
19.9203 55.8488 3.97938
21.7951 55.3632 2
23.8308 56.823 0.0240409
19.4315 57.9071 3.98007
20.2099 57.0463 2
19.7029 60.2168 3.98228
20.6401 58.7964 2
21.3265 57.4163 0.0217295
20.2056 62.8672 3.98537
21.1641 61.1838 2
21.9901 59.6382 0.0182419
20.9368 65.769 3.9895
21.8936 63.8467 2
22.7343 62.0337 0.0157341
23.6801 64.7183 0.0127725
22.8354 66.7404 2
21.9113 68.8738 3.9937
24.8071 67.5964 0.0100171
24.0086 69.8068 2
23.1494 72.1454 4
26.1646 70.6056 0.00609808
25.446 73.0099 2
27.7943 73.7221 0
25.8581 9.37509 3.98686
27.0673 6.53913 3.98959
27.8188 8.64627 2
28.4872 3.64326 3.99382
29.1525 5.87436 2
29.809 7.98734 0.0124437
30.1841 0.720592 4
30.7249 3.09702 2
31.2507 5.32928 0.00970128
32.6053 0.320817 2
32.9798 2.70016 0.00578391
35.0474 0.080333 0
37.4945 35.7975 3.96123
39.2347 35.8051 2
40.9915 35.8078 0.025354
24.7748 12.0627 3.98537
23.7489 14.3467 3.98436
28.5411 10.6845 0.0143959
26.6201 11.3792 2
29.2229 12.6301 2
27.2891 13.3638 3.98466
29.7775 14.1892 3.98386
35.7584 34.093 3.97385
37.4896 34.0588 2
39.2271 34.109 0.0266993
37.4849 32.1703 0.0774144
44.408 29.7326 0.0352006
41.8899 29.8092 0.0918204
39.4357 30.3784 0.080725
42.3589 28.3476 2
39.8451 28.8866 2
37.4932 30.1183 2
35.6718 32.2956 2
40.0286 27.5198 3.96125
37.5008 28.5674 3.90176
35.5388 30.368 3.91862
34.0577 32.6266 3.9032
30.9231 16.822 3.98389
31.9116 14.466 2
34.0903 12.9221 0.0162082
31.184 11.9743 0.0152893
43.0767 26.4935 0.00157844
40.9217 23.2661 0.0125195
33.6054 15.8597 0.0166301
35.8466 17.4897 0.0163845
38.4224 20.3025 0.0165849
33.547 17.3673 2
35.5821 20.0536 2
40.4547 25.6081 2
38.0788 22.8278 2
32.8608 19.7705 3.98563
37.7995 25.1299 4.02537
35.2021 22.6107 3.98573
35.7536 37.4967 3.96985
37.4951 37.4932 2
39.2389 37.4863 0.0301132
39.8293 51.9568 -0.00112097
38.7419 48.7669 -0.0025984
37.4947 39.1942 0.0373843
37.4935 46.4249 0.102746
35.5439 44.6287 0.0839346
35.7638 40.906 0.0235113
34.0624 42.3646 0.0960489
37.6744 51.0642 2
35.7636 39.1908 2
34.1083 40.813 2
36.8685 48.4295 2
32.9232 42.0203 2
33.7732 43.8861 2
35.1464 46.1119 2
35.4381 50.1955 4.01179
34.0128 39.1873 3.97177
32.5554 40.8897 3.89204
32.2831 42.7037 3.90925
33.1175 45.1921 3.90866
34.2709 47.4791 3.96143
36.7186 53.2569 0.00265044
34.3548 52.5132 2
31.9778 51.2386 3.99146
33.2222 55.5349 0.0132817
30.505 53.433 2
28.4037 51.6388 3.9797
28.6778 55.3332 0.0189134
26.8636 53.457 2
25.0523 51.7777 3.97062
25.2971 55.1606 0.022859
23.5537 53.5011 2
21.9392 51.8248 3.97056
19.1787 51.6515 3.97181
18.9062 54.3247 3.97447
20.4482 53.2421 2
18.4379 56.739 3.98055
19.9202 55.8492 2
21.7952 55.3629 0.0255483
18.3641 59.1236 3.98033
19.4315 57.9076 2
20.21 57.0459 0.019433
18.6163 61.7747 3.98406
19.703 60.2175 2
20.6401 58.7959 0.0193517
19.1257 64.6798 3.98874
20.2058 62.8679 2
21.164 61.1832 0.0165768
19.8854 67.8104 3.99348
20.9368 65.7695 2
21.8934 63.8461 0.0134628
22.8353 66.74 0.0101668
21.9111 68.8739 2
20.9142 71.1327 4
24.0088 69.8067 0.006182
23.1494 72.1455 2
25.446 73.0099 0
23.0941 12.7774 3.98496
23.9706 10.1615 3.9867
25.0212 7.30923 3.98938
25.8581 9.37441 2
26.2789 4.32747 3.99359
27.0672 6.53848 2
27.8189 8.64703 0.012783
27.7943 1.27781 4
28.487 3.64297 2
29.1526 5.87501 0.0100275
30.1841 0.720551 2
30.725 3.09735 0.00599108
32.6053 0.320823 0
35.7574 35.8034 3.97085
37.4949 35.7989 2
39.2347 35.8046 0.0299392
24.775 12.0621 2
23.7492 14.3465 2
22.4773 15.0231 3.9838
25.3551 13.8959 3.98419
24.0217 15.6083 3.98334
26.62 11.3798 0.0146696
29.2229 12.6308 0.0151357
27.2892 13.3635 2
29.7776 14.1885 2
28.3533 15.9631 3.98421
34.1092 34.1807 3.95013
35.7589 34.0939 2
37.4901 34.0567 0.027421
35.6732 32.295 0.0835551
37.4921 30.1144 0.0799696
42.3433 28.3597 0.0519736
39.827 28.9023 0.0943662
40.0371 27.5084 2
37.5011 28.549 2
35.5257 30.3684 2
34.058 32.6273 2
37.6179 27.1906 3.96382
35.1539 28.886 3.90413
33.7731 31.1132 3.90685
32.9302 32.972 3.87531
30.2044 19.3238 3.98547
30.923 16.8216 2
31.9117 14.4667 0.0160061
40.4555 25.6108 -0.0113824
38.079 22.8281 0.00767311
33.5476 17.367 0.0150491
35.5828 20.055 0.0155651
32.8596 19.7714 2
35.2015 22.6075 2
37.8017 25.1336 2
32.3063 22.3812 3.98589
34.9576 25.1355 4.01124
33.9626 37.4969 3.97214
35.7539 37.4965 2
37.4947 37.4932 0.0460466
37.6749 51.0573 -0.0126079
36.8705 48.4167 0.0116995
35.7627 39.192 0.0292045
35.1689 46.0983 0.0970883
33.7836 43.8775 0.0920405
34.108 40.8174 0.0494711
32.9289 42.0187 0.124834
35.437 50.1997 2
34.0138 39.1847 2
32.5532 40.8875 2
34.2637 47.5086 2
32.2672 42.7097 2
33.0963 45.2103 2
33.2046 49.187 4.00797
32.2022 39.2797 3.90636
31.1008 41.1789 3.90615
31.3009 43.788 3.90491
32.2288 46.4056 3.95932
34.3549 52.5142 0.0103066
31.9778 51.2409 2
29.8174 49.7509 3.98515
30.5048 53.4319 0.0164619
28.4041 51.636 2
26.4701 50.016 3.97031
26.8635 53.457 0.0236242
25.0527 51.7768 2
23.3075 50.2186 3.97325
23.5537 53.5012 0.0267065
21.9395 51.8251 2
20.4376 50.3329 3.9722
17.9668 50.3438 3.97375
17.816 52.8065 3.97307
19.1791 51.6515 2
17.425 55.3546 3.97739
18.9061 54.3251 2
20.4482 53.2418 0.0284001
17.1284 57.8858 3.98112
18.4378 56.7395 2
19.9203 55.8488 0.0206206
17.1333 60.5578 3.98236
18.3642 59.1242 2
19.4315 57.9071 0.0199314
17.406 63.4725 3.98737
18.6163 61.7754 2
19.7029 60.2168 0.0177249
17.9415 66.6188 3.99316
19.1257 64.6804 2
20.2056 62.8672 0.0146331
18.75 69.9759 4
19.8851 67.8104 2
20.9368 65.769 0.0104966
21.9113 68.8738 0.00630197
20.9142 71.1327 2
23.1494 72.1454 0
21.5848 13.5974 3.9845
22.1887 11.0208 3.98623
23.0944 12.7773 2
23.0391 8.17458 3.98924
23.9707 10.1612 2
24.1165 5.14217 3.99342
25.021 7.30872 2
25.8581 9.37509 0.0131448
25.446 1.99014 4
26.2786 4.32724 2
27.0673 6.53913 0.010413
27.7943 1.27778 2
28.4872 3.64326 0.00617769
30.1841 0.720592 0
34.0051 35.8072 3.97276
35.7582 35.8041 2
37.4945 35.7975 0.0387652
21.3023 15.819 3.98297
24.7748 12.0627 0.0146301
23.7489 14.3467 0.0156394
25.3553 13.8955 2
22.4778 15.0231 2
24.0222 15.6082 2
23.2607 16.2398 3.98311
25.377 16.0759 3.98419
27.2891 13.3638 0.0153424
29.7775 14.1892 0.0161429
28.3536 15.9628 2
27.4359 18.7841 3.98481
32.5691 34.1031 3.8932
34.1111 34.183 2
35.7584 34.093 0.0261477
34.0577 32.6266 0.0967981
35.5388 30.368 0.0813767
37.5008 28.5674 0.0982405
40.0286 27.5198 0.0387513
37.6141 27.1565 2
32.9281 32.9706 2
35.1361 28.8682 2
33.7584 31.0976 2
35.0659 27.32 3.96925
33.0935 29.7981 3.90393
32.2737 32.2765 3.90687
29.5677 21.9174 3.9924
30.2039 19.324 2
30.9231 16.822 0.0161056
37.7995 25.1299 -0.0253728
35.2021 22.6107 0.014266
32.8608 19.7705 0.0143658
32.3056 22.383 2
34.963 25.139 2
31.662 25.5968 3.99605
32.0644 37.4992 3.90456
33.9633 37.4966 2
35.7536 37.4967 0.0301486
35.4381 50.1955 -0.011792
34.2709 47.4791 0.0385738
34.0128 39.1873 0.0282265
33.1175 45.1921 0.0913357
32.2831 42.7037 0.0907472
32.5554 40.8897 0.107962
33.2039 49.1714 2
32.199 39.2766 2
31.084 41.1864 2
32.2103 46.4216 2
31.2893 43.7986 2
31.094 48.0116 3.99983
30.338 39.4549 3.89816
29.8741 41.9761 3.90449
30.3807 44.9834 3.96038
31.9778 51.2386 0.00854144
29.8177 49.7457 2
27.8206 48.2146 3.97691
28.4037 51.6388 0.020304
26.471 50.0143 2
24.605 48.4984 3.97836
25.0523 51.7777 0.0293786
23.308 50.2186 2
21.6167 48.8121 3.97456
21.9392 51.8248 0.0294362
20.4382 50.3327 2
19.0075 49.1073 3.97622
16.8754 49.3425 3.97645
16.7566 51.4192 3.97402
17.9673 50.3439 2
16.3761 53.8829 3.97543
17.8162 52.8067 2
19.1787 51.6515 0.0281878
15.9684 56.4871 3.97959
17.4249 55.3552 2
18.9062 54.3247 0.025532
15.7459 59.2186 3.98199
17.1284 57.8863 2
18.4379 56.739 0.0194464
15.7864 62.1428 3.98547
17.1334 60.5586 2
18.3641 59.1236 0.0196725
16.0881 65.3013 3.99271
17.406 63.4731 2
18.6163 61.7747 0.0159388
16.6661 68.6801 4
17.9412 66.6188 2
19.1257 64.6798 0.0112639
18.75 69.9759 2
19.8854 67.8104 0.00652422
20.9142 71.1327 0
20.2167 14.5863 3.98375
21.5851 13.5974 2
20.5279 11.9904 3.98562
21.1422 9.14429 3.98912
22.189 11.0206 2
23.0941 12.7774 0.0150427
22.0155 6.08115 3.99329
23.0391 8.17425 2
23.9706 10.1615 0.0133013
23.1494 2.85457 4
24.1161 5.14204 2
25.0212 7.30923 0.0106215
25.446 1.99012 2
26.2789 4.32747 0.00640803
27.7943 1.27781 0
32.2094 35.7151 3.90598
34.007 35.8089 2
35.7574 35.8034 0.0291499
21.3025 15.8185 2
20.2993 16.9533 3.98312
22.0938 16.6243 3.9819
25.3551 13.8959 0.015808
22.4773 15.0231 0.0161993
24.0217 15.6083 0.0166647
25.3774 16.0757 2
23.2611 16.2398 2
24.2 18.4382 3.98165
27.0047 21.4416 3.98536
28.3533 15.9631 0.0157856
27.4357 18.7841 2
31.1093 33.8116 3.9044
32.5668 34.1064 2
34.1092 34.1807 0.0498717
32.9302 32.972 0.124687
33.7731 31.1132 0.093146
35.1539 28.886 0.0958659
37.6179 27.1906 0.036181
35.0498 27.3028 2
32.2674 32.2799 2
33.0743 29.7766 2
32.5016 28.052 3.98149
31.2782 31.2045 3.90605
28.775 24.3829 3.9871
29.5669 21.9187 2
30.2044 19.3238 0.0145323
34.9576 25.1355 -0.0112406
32.3063 22.3812 0.014107
31.6641 25.5854 2
29.6017 27.2886 3.97438
30.0569 37.4873 3.89946
32.0618 37.4984 2
33.9626 37.4969 0.0278586
33.2046 49.187 -0.00796954
32.2288 46.4056 0.0406773
32.2022 39.2797 0.0936358
31.3009 43.788 0.0950944
31.1008 41.1789 0.0938483
31.0954 48.0115 2
30.3232 39.4639 2
29.8626 41.9843 2
30.3658 44.9973 2
29.1178 46.5925 3.99873
28.9482 39.8658 3.90627
28.6073 43.1912 3.96329
29.8174 49.7509 0.0148492
27.8213 48.2092 2
25.8881 46.6895 3.97895
26.4701 50.016 0.0296861
24.6057 48.4985 2
22.7597 47.1086 3.97928
23.3075 50.2186 0.0267485
21.6175 48.8117 2
19.9554 47.6369 3.97827
20.4376 50.3329 0.0277966
19.0082 49.1074 2
17.6516 48.1899 3.97695
16.1277 48.6926 3.9782
16.8759 49.3428 2
15.8353 50.1799 3.97562
15.3656 52.4255 3.97501
16.757 51.4195 2
17.9668 50.3438 0.0262492
14.8594 54.9869 3.97747
16.3761 53.8833 2
17.816 52.8065 0.0269312
14.4541 57.7474 3.98129
15.9683 56.4877 2
17.425 55.3546 0.0226063
14.2642 60.697 3.98434
15.746 59.2193 2
17.1284 57.8858 0.0188849
14.3323 63.8606 3.99187
15.7864 62.1434 2
17.1333 60.5578 0.0176381
14.6715 67.2507 4
16.0877 65.3013 2
17.406 63.4725 0.0126324
16.6661 68.6801 2
17.9415 66.6188 0.00683876
18.75 69.9759 0
18.9304 15.7737 3.98289
20.2169 14.586 2
18.9776 13.1013 3.98482
21.5848 13.5974 0.015496
20.5283 11.9903 2
19.3416 10.2319 3.98888
19.9901 7.14581 3.99322
21.1423 9.14399 2
22.1887 11.0208 0.0137687
20.9142 3.86727 4
22.0151 6.08117 2
23.0391 8.17458 0.0107581
23.1494 2.85451 2
24.1165 5.14217 0.0065791
25.446 1.99014 0
30.3459 35.538 3.9008
32.2059 35.7165 2
34.0051 35.8072 0.0272443
21.3023 15.819 0.0170321
22.094 16.6239 2
20.2993 16.9525 2
19.2377 18.4002 3.98213
21.7778 17.8405 3.98211
25.377 16.0759 0.0158137
23.2607 16.2398 0.0168924
24.2001 18.4383 2
22.2708 19.8816 3.98014
24.5816 21.3091 3.98266
26.3973 23.7069 3.98036
27.005 21.4423 2
27.4359 18.7841 0.0151948
29.8746 33.0092 3.90379
31.0927 33.7921 2
32.5691 34.1031 0.106803
32.2737 32.2765 0.0931329
33.0935 29.7981 0.0960675
35.0659 27.32 0.0307494
32.4916 28.0445 2
31.2812 31.203 2
30.0599 29.5098 3.97246
27.8423 26.5242 3.97257
28.7754 24.388 2
29.5677 21.9174 0.00760329
31.662 25.5968 0.0039464
29.5956 27.2519 2
28.6053 37.4966 3.91078
30.0415 37.4901 2
32.0644 37.4992 0.0954449
31.094 48.0116 0.000170971
30.3807 44.9834 0.039621
30.338 39.4549 0.101841
29.8741 41.9761 0.0955098
29.1196 46.6095 2
28.9353 39.8724 2
28.593 43.1999 2
27.2056 44.8472 3.98357
26.7256 40.626 3.99007
27.8206 48.2146 0.0230894
25.8877 46.69 2
23.94 45.2381 3.97477
24.605 48.4984 0.0216427
22.7607 47.1077 2
20.8956 45.9186 3.97751
21.6167 48.8121 0.0254372
19.956 47.637 2
18.3002 46.7503 3.97662
19.0075 49.1073 0.0237758
17.6522 48.1903 2
16.3192 47.7226 3.97757
16.1282 48.6929 2
15.1832 49.0232 3.97663
16.8754 49.3425 0.0235453
15.8358 50.1802 2
14.4803 50.9922 3.97542
13.8214 53.4415 3.97648
15.3658 52.4259 2
16.7566 51.4192 0.0259802
13.2486 56.1743 3.97977
14.8593 54.9874 2
16.3761 53.8829 0.0245706
12.8461 59.1306 3.98412
14.4541 57.748 2
15.9684 56.4871 0.0204118
12.6778 62.3032 3.99061
14.2642 60.6974 2
15.7459 59.2186 0.0180138
12.7746 65.6939 4
14.332 63.8603 2
15.7864 62.1428 0.0145266
14.6714 67.2507 2
16.0881 65.3013 0.00728805
16.6661 68.6801 0
17.6641 17.1494 3.98212
18.9304 15.7732 2
17.5091 14.366 3.9838
20.2167 14.5863 0.0162541
18.9779 13.1009 2
17.6373 11.4508 3.98801
20.5279 11.9904 0.0143788
19.3418 10.2316 2
18.0502 8.33865 3.99318
18.75 5.0241 4
19.9897 7.14591 2
21.1422 9.14429 0.0108804
20.9142 3.86727 2
22.0155 6.08115 0.0067083
23.1494 2.85457 0
28.9469 35.1076 3.90463
30.3296 35.5332 2
32.2094 35.7151 0.0940228
22.0938 16.6243 0.0181018
20.2993 16.9533 0.0168772
21.7778 17.8398 2
19.2377 18.3994 2
17.9727 19.9327 3.98074
20.8695 19.3687 3.98176
24.2 18.4382 0.01835
22.271 19.8808 2
24.582 21.3096 2
22.3461 21.7067 3.98173
24.6783 23.1541 3.97978
25.4276 25.9345 3.97094
26.3984 23.7064 2
27.0047 21.4416 0.0146385
28.255 32.285 3.95165
29.8647 33.0074 2
31.1093 33.8116 0.0955959
31.2782 31.2045 0.0939527
32.5016 28.052 0.0185103
30.0379 29.4978 2
26.9654 29.1161 3.98791
27.8383 26.5217 2
28.775 24.3829 0.0128999
29.6017 27.2886 0.025625
26.8326 37.3543 3.96648
28.5921 37.4927 2
30.0569 37.4873 0.100543
29.1178 46.5925 0.00126529
28.6073 43.1912 0.0367098
28.9482 39.8658 0.0937307
27.2076 44.852 2
26.7183 40.6335 2
25.1966 43.1913 3.97063
23.9679 39.4292 3.97087
25.8881 46.6895 0.0210493
23.9352 45.2394 2
21.8577 43.9693 3.97722
22.7597 47.1086 0.0207188
20.8958 45.9184 2
18.9558 44.9824 3.97545
19.9554 47.6369 0.0217315
18.3006 46.7508 2
16.6102 46.2215 3.97335
17.6516 48.1899 0.0230548
16.3197 47.723 2
14.9145 47.6767 3.97546
16.1277 48.6926 0.0217956
15.1837 49.0236 2
13.7795 49.5515 3.97542
15.8353 50.1799 0.0243781
14.4806 50.9926 2
12.8889 51.8788 3.97606
12.1362 54.5314 3.9786
13.8215 53.442 2
15.3656 52.4255 0.0249947
11.5303 57.4621 3.98313
13.2485 56.1749 2
14.8594 54.9869 0.0225329
11.1323 60.6292 3.98946
12.846 59.131 2
14.4541 57.7474 0.0187075
10.9835 64.0165 4
12.6774 62.3028 2
14.2642 60.697 0.0156647
12.7745 65.694 2
14.3323 63.8606 0.00813259
14.6715 67.2507 0
16.3958 18.6435 3.98152
17.664 17.1487 2
16.0999 15.7751 3.98345
18.9304 15.7737 0.0171115
17.5093 14.3652 2
16.0191 12.8044 3.98626
18.9776 13.1013 0.0151765
17.6375 11.4502 2
16.2014 9.6618 3.99289
19.3416 10.2319 0.011123
18.0499 8.33879 2
16.6661 6.31991 4
18.75 5.02404 2
19.9901 7.14581 0.00677705
20.9142 3.86727 0
27.3402 34.7448 3.9533
28.9317 35.1023 2
30.3459 35.538 0.0991955
16.6723 21.3691 3.97776
21.7778 17.8405 0.0178939
19.2377 18.4002 0.0178709
20.8696 19.3679 2
17.9728 19.932 2
19.7136 21.5624 3.98365
22.2708 19.8816 0.0198585
24.5816 21.3091 0.0173399
22.3466 21.7054 2
24.6784 23.154 2
22.8252 24.59 3.97426
24.5078 28.5125 3.96736
25.425 25.9325 2
26.3973 23.7069 0.0196369
26.0973 31.6889 3.99175
28.2432 32.2752 2
29.8746 33.0092 0.0962103
30.0599 29.5098 0.0275433
26.972 29.1164 2
27.8423 26.5242 0.0274345
24.6492 36.8535 3.97903
26.8244 37.3584 2
28.6053 37.4966 0.0892223
27.2056 44.8472 0.016434
26.7256 40.626 0.00993085
25.1929 43.1945 2
23.9634 39.4311 2
22.9148 41.81 3.97891
21.6916 38.4997 3.97309
23.94 45.2381 0.0252256
21.8594 43.9706 2
19.7025 42.8967 3.97513
20.8956 45.9186 0.0224935
18.9556 44.9828 2
16.9348 44.3867 3.97269
18.3002 46.7503 0.0233766
16.6104 46.2219 2
14.8352 46.0963 3.97266
16.3192 47.7226 0.0224303
14.9149 47.6772 2
13.2881 48.0125 3.97415
15.1832 49.0232 0.0233669
13.78 49.5519 2
12.1091 50.2558 3.97554
14.4803 50.9922 0.0245844
12.8892 51.8793 2
11.1323 52.839 3.97777
10.3209 55.7131 3.98196
12.1362 54.5321 2
13.8214 53.4415 0.0235228
9.69876 58.8512 3.98823
11.5302 57.4628 2
13.2486 56.1743 0.0202261
9.30605 62.2254 4
11.1318 60.6289 2
12.8461 59.1306 0.0158825
10.9835 64.0165 2
12.6778 62.3032 0.0093931
12.7746 65.6939 0
15.1403 20.1782 3.97921
16.3959 18.6428 2
14.7451 17.2979 3.98223
17.6641 17.1494 0.0178764
16.0999 15.7742 2
14.4815 14.2865 3.98509
17.5091 14.366 0.0161958
16.0192 12.8037 2
14.4442 11.113 3.99232
17.6373 11.4508 0.0119921
16.2011 9.66189 2
14.6715 7.74927 4
18.0502 8.33865 0.00682126
16.6661 6.31988 2
18.75 5.0241 0
25.291 34.2536 3.98757
27.331 34.7438 2
28.9469 35.1076 0.0953686
17.8447 22.3139 3.98437
15.5176 22.9132 3.97492
16.6723 21.3682 2
20.8695 19.3687 0.0182364
17.9727 19.9327 0.0192624
19.7138 21.5615 2
19.6476 24.3675 3.97735
22.3461 21.7067 0.0182669
24.6783 23.1541 0.0202245
22.8234 24.5882 2
21.883 27.8076 3.96903
23.6797 31.1729 3.97161
24.5116 28.5122 2
25.4276 25.9345 0.0290638
26.0993 31.683 2
28.255 32.285 0.0483497
26.9654 29.1161 0.0120944
22.4204 36.2691 3.97539
24.643 36.8532 2
26.8326 37.3543 0.0335175
25.1966 43.1913 0.0293705
23.9679 39.4292 0.0291291
22.9132 41.8113 2
21.692 38.5005 2
20.6468 40.6348 3.97439
20.0439 37.7799 3.97507
21.8577 43.9693 0.0227783
19.7031 42.8972 2
17.33 42.1042 3.97351
18.9558 44.9824 0.0245508
16.9348 44.387 2
14.8334 44.205 3.97234
16.6102 46.2215 0.0266518
14.8354 46.0967 2
12.9605 46.2987 3.97276
14.9145 47.6767 0.0245415
13.2885 48.0129 2
11.482 48.5514 3.97419
13.7795 49.5515 0.0245816
12.1095 50.2562 2
10.2589 51.0814 3.97688
12.8889 51.8788 0.0239412
11.1325 52.8396 2
9.22997 53.8902 3.9811
8.38232 56.9833 3.98724
10.3208 55.7137 2
12.1362 54.5314 0.0213956
7.74927 60.3285 4
9.6982 58.8506 2
11.5303 57.4621 0.016871
9.306 62.2255 2
11.1323 60.6292 0.0105435
10.9835 64.0165 0
13.9526 21.7454 3.97709
15.1403 20.1774 2
13.4454 18.8952 3.98075
16.3958 18.6435 0.018483
14.7452 17.2971 2
13.0267 15.8792 3.98437
16.0999 15.7751 0.0165503
14.4816 14.2856 2
12.7816 12.6862 3.99132
16.0191 12.8044 0.0137391
14.4439 11.1131 2
12.7746 9.30605 4
16.2014 9.6618 0.00711245
14.6715 7.74924 2
16.6661 6.31991 0
22.9982 33.7897 3.97387
25.2832 34.2517 2
27.3402 34.7448 0.0466957
17.6141 24.033 3.97705
17.8446 22.313 2
14.3009 24.4455 3.97368
15.5172 22.9121 2
16.6723 21.3691 0.02224
19.0121 27.1867 3.96764
19.7136 21.5624 0.0163466
19.6463 24.3671 2
21.1242 30.6489 3.97111
22.8252 24.59 0.0257391
21.884 27.8074 2
23.6735 31.1731 2
24.5078 28.5125 0.0326356
26.0973 31.6889 0.00825377
20.1811 35.916 3.97401
22.4179 36.2702 2
24.6492 36.8535 0.0209672
22.9148 41.81 0.0210916
21.6916 38.4997 0.0269117
20.6438 40.6354 2
20.0427 37.7803 2
18.0255 39.0013 3.9736
19.7025 42.8967 0.0248726
17.3303 42.1046 2
14.7824 41.9204 3.97236
16.9348 44.3867 0.0273108
14.8335 44.2053 2
12.6985 44.3949 3.9728
14.8352 46.0963 0.0273446
12.9607 46.2992 2
10.9842 46.7348 3.97316
13.2881 48.0125 0.0258496
11.4824 48.5519 2
9.52337 49.2402 3.97549
12.1091 50.2558 0.0244647
10.2593 51.0818 2
8.26339 52.0022 3.98015
11.1323 52.839 0.022227
9.2301 53.8905 2
7.19135 55.0327 3.98681
6.31991 58.3339 4
8.38169 56.982 2
10.3209 55.7131 0.0180353
7.74924 60.3285 2
9.69876 58.8512 0.0117723
9.30605 62.2254 0
13.2225 25.3585 3.97917
12.8205 23.2754 3.9758
13.9524 21.7443 2
12.2308 20.5447 3.97948
15.1403 20.1782 0.020787
13.4455 18.8942 2
11.6562 17.5603 3.98385
14.7451 17.2979 0.0177723
13.0268 15.8785 2
11.219 14.371 3.98998
14.4815 14.2865 0.0149059
12.7813 12.6863 2
10.9835 10.9835 4
14.4442 11.113 0.00767979
12.7745 9.306 2
14.6715 7.74927 0
20.5542 33.3837 3.97306
22.9968 33.7904 2
25.291 34.2536 0.0124267
15.8888 26.3934 3.97133
17.6133 24.0322 2
17.8447 22.3139 0.0156335
14.3006 24.4449 2
15.5176 22.9132 0.0250801
18.3528 30.1604 3.96976
19.0123 27.1865 2
19.6476 24.3675 0.0226506
21.1216 30.6486 2
21.883 27.8076 0.0309713
23.6797 31.1729 0.028388
17.6711 35.9601 3.97304
20.1798 35.9162 2
22.4204 36.2691 0.0246061
20.6468 40.6348 0.0256105
20.0439 37.7799 0.0249312
18.0245 39.0015 2
14.2995 39.1762 3.97186
17.33 42.1042 0.0264944
14.7825 41.9207 2
12.3871 42.2783 3.97132
14.8334 44.205 0.0276609
12.6985 44.3952 2
10.5602 44.8039 3.97345
12.9605 46.2987 0.0272379
10.9845 46.7352 2
8.9065 47.3189 3.97448
11.482 48.5514 0.0258073
9.52372 49.2405 2
7.43112 50.0347 3.97875
10.2589 51.0814 0.0231214
8.26372 52.0023 2
6.13206 53.0066 3.98669
9.22997 53.8902 0.0189041
7.19087 55.031 2
5.0241 56.25 4
6.31988 58.3339 2
8.38232 56.9833 0.0127567
7.74927 60.3285 0
13.4608 26.8089 3.97198
11.9354 24.7851 3.97475
13.2223 25.358 2
11.1344 22.2307 3.97784
12.8204 23.2746 2
13.9526 21.7454 0.0229064
12.2307 20.5435 2
10.3863 19.3157 3.98299
13.4454 18.8952 0.0192522
11.6562 17.5594 2
9.75974 16.1547 3.98869
13.0267 15.8792 0.0156314
11.2187 14.3712 2
9.30607 12.7746 4
12.7816 12.6862 0.00867989
10.9835 10.9835 2
12.7746 9.30605 0
17.8329 33.103 3.97203
20.5533 33.3838 2
22.9982 33.7897 0.0261327
15.4737 29.6295 3.97147
15.8885 26.3933 2
17.6141 24.033 0.0229487
14.3009 24.4455 0.026324
18.3528 30.1605 2
19.0121 27.1867 0.0323597
21.1242 30.6489 0.0288892
14.9075 36.0155 3.97225
17.6709 35.9602 2
20.1811 35.916 0.0259877
12.5939 37.8287 3.97178
18.0255 39.0013 0.0263997
14.2995 39.1764 2
11.9044 40.1411 3.97071
14.7824 41.9204 0.0276405
12.3871 42.2786 2
10.1602 42.779 3.97188
12.6985 44.3949 0.0271991
10.5602 44.8043 2
8.38394 45.3212 3.97457
10.9842 46.7348 0.026836
8.90673 47.3193 2
6.72301 47.9995 3.9777
9.52337 49.2402 0.0245147
7.43143 50.0347 2
5.20911 50.9092 3.98636
8.26339 52.0022 0.01985
6.13186 53.0049 2
3.86727 54.0858 4
7.19135 55.0327 0.0131852
5.02404 56.25 2
6.31991 58.3339 0
12.9144 29.028 3.97013
11.3666 26.4856 3.97311
13.4606 26.8086 2
10.195 23.966 3.97585
11.9354 24.7846 2
13.2225 25.3585 0.0208276
9.23885 21.1358 3.98139
11.1344 22.2297 2
12.8205 23.2754 0.0242002
12.2308 20.5447 0.020518
10.3862 19.3146 2
8.4155 18.0262 3.98784
11.6562 17.5603 0.0161485
9.75928 16.155 2
7.74928 14.6715 4
11.219 14.371 0.0100228
9.30602 12.7745 2
10.9835 10.9835 0
14.4738 32.8577 3.97197
17.8351 33.1032 2
20.5542 33.3837 0.026939
15.4738 29.6295 2
15.8888 26.3934 0.0286697
18.3528 30.1604 0.0302356
12.8875 36.2075 3.97135
14.908 36.0157 2
17.6711 35.9601 0.0269607
12.5943 37.8288 2
11.262 38.3096 3.97112
14.2995 39.1762 0.0281404
11.9046 40.1413 2
9.7487 40.7546 3.97032
12.3871 42.2783 0.0286781
10.1603 42.7794 2
7.93361 43.2701 3.97332
10.5602 44.8039 0.0265507
8.38402 45.3215 2
6.12915 45.9048 3.97766
8.9065 47.3189 0.0255193
6.72323 47.9995 2
4.421 48.7499 3.98597
7.43112 50.0347 0.021251
5.20905 50.908 2
2.85457 51.8506 4
6.13206 53.0066 0.0133135
3.86727 54.0858 2
5.0241 56.25 0
12.0569 31.2529 3.97085
10.7787 28.4128 3.97221
12.9144 29.0279 2
9.411 25.7974 3.9745
11.3664 26.4852 2
13.4608 26.8089 0.0280234
8.22687 23.0223 3.97928
10.1951 23.9653 2
11.9354 24.7851 0.0252477
7.19768 19.9771 3.98704
9.23897 21.135 2
11.1344 22.2307 0.022156
10.3863 19.3157 0.0170073
8.41492 18.0271 2
6.31992 16.6661 4
9.75974 16.1547 0.011307
7.74926 14.6714 2
9.30607 12.7746 0
12.0787 34.2925 3.97131
14.4737 32.8578 2
17.8329 33.103 0.0279674
15.4737 29.6295 0.0285298
10.8263 36.6104 3.97111
12.8883 36.2076 2
14.9075 36.0155 0.0277513
12.5939 37.8287 0.0282211
11.2622 38.3097 2
9.34436 38.8234 3.97059
11.9044 40.1411 0.0292947
9.74884 40.7548 2
7.54721 41.2107 3.97156
10.1602 42.779 0.0281227
7.93364 43.2704 2
5.6414 43.768 3.97726
8.38394 45.3212 0.0254289
6.12924 45.9048 2
3.76678 46.5362 3.98589
6.72301 47.9995 0.0222995
4.42101 48.7493 2
1.99014 49.554 4
5.20911 50.9092 0.013638
2.85451 51.8506 2
3.86727 54.0858 0
10.9184 32.917 3.97152
10.0927 30.3804 3.97137
12.0568 31.2529 2
8.71919 27.7312 3.97395
10.7786 28.4127 2
12.9144 29.028 0.0298705
7.35313 24.9824 3.97793
9.411 25.797 2
11.3666 26.4856 0.0268863
6.11485 22.002 3.98621
8.22712 23.022 2
10.195 23.966 0.0241465
5.02411 18.75 4
7.19723 19.9786 2
9.23885 21.1358 0.0186108
8.4155 18.0262 0.0121635
6.3199 16.6661 2
7.74928 14.6715 0
10.4351 34.999 3.97122
12.0787 34.2925 2
14.4738 32.8577 0.0280336
9.01602 36.9847 3.97061
10.8269 36.6105 2
12.8875 36.2075 0.0286484
11.262 38.3096 0.0288772
9.34442 38.8236 2
7.22905 39.1814 3.97148
9.7487 40.7546 0.0296827
7.54734 41.2109 2
5.25817 41.6135 3.97539
7.93361 43.2701 0.0266766
5.64141 43.768 2
3.24468 44.2816 3.98542
6.12915 45.9048 0.0223387
3.76683 46.5361 2
1.27781 47.2057 4
4.421 48.7499 0.0140346
1.99012 49.554 2
2.85457 51.8506 0
10.086 33.8804 3.97148
9.38611 32.1528 3.97233
10.9183 32.9169 2
8.06921 29.6951 3.97294
10.0926 30.3803 2
12.0569 31.2529 0.0291478
6.59709 27.0086 3.97739
8.7192 27.7311 2
10.7787 28.4128 0.0277857
5.17039 24.0958 3.98584
7.35327 24.9823 2
9.411 25.7974 0.0254976
3.86728 20.9142 4
6.11469 22.0034 2
8.22687 23.0223 0.0207202
5.02406 18.75 2
7.19768 19.9771 0.0129641
6.31992 16.6661 0
8.84272 35.2788 3.97068
10.4352 34.999 2
12.0787 34.2925 0.0286903
7.01282 37.2056 3.97163
9.01606 36.9848 2
10.8263 36.6104 0.0288894
9.34436 38.8234 0.0294117
7.22911 39.1815 2
4.98701 39.4669 3.97434
7.54721 41.2107 0.0284391
5.25829 41.6135 2
2.85568 42.0021 3.98393
5.6414 43.768 0.0227425
3.2447 44.2819 2
0.720592 44.8159 4
3.76678 46.5362 0.0141077
1.27778 47.2057 2
1.99014 49.554 0
8.88322 33.6967 3.97162
10.086 33.8804 2
7.50735 31.6089 3.97324
9.38601 32.1527 2
10.9184 32.917 0.0284767
5.94278 29.0698 3.97666
8.06913 29.6951 2
10.0927 30.3804 0.0286272
4.35822 26.2484 3.9857
6.59716 27.0087 2
8.71919 27.7312 0.0260538
2.85458 23.1494 4
5.17029 24.0967 2
7.35313 24.9824 0.0220709
3.86728 20.9142 2
6.11485 22.002 0.0137907
5.02411 18.75 0
6.96336 35.3058 3.97137
8.84282 35.2788 2
10.4351 34.999 0.0287786
4.83715 37.3396 3.97478
7.01286 37.2057 2
9.01602 36.9847 0.02939
7.22905 39.1814 0.0285227
4.98705 39.467 2
2.60419 39.7139 3.98274
5.25817 41.6135 0.0246149
2.85583 42.0026 2
0.320823 42.3947 4
3.24468 44.2816 0.0145776
0.720551 44.8159 2
1.27781 47.2057 0
7.1221 33.4607 3.97275
8.8832 33.6967 2
10.086 33.8804 0.0285215
5.41424 31.1338 3.97631
7.50722 31.6088 2
9.38611 32.1528 0.0276745
3.68022 28.4441 3.98521
5.94274 29.0699 2
8.06921 29.6951 0.0270598
1.99015 25.446 4
4.35818 26.2489 2
6.59709 27.0086 0.0226138
2.85453 23.1494 2
5.17039 24.0958 0.0141569
3.86728 20.9142 0
4.85164 35.2516 3.97464
6.96346 35.3058 2
8.84272 35.2788 0.0293165
2.49559 37.4285 3.98309
4.8372 37.3398 2
7.01282 37.2056 0.0283734
4.98701 39.4669 0.0256646
2.60427 39.7144 2
0.080333 39.9526 4
2.85568 42.0021 0.016074
0.320817 42.3947 2
0.720592 44.8159 0
5.04431 33.1904 3.97575
7.12206 33.4606 2
8.88322 33.6967 0.0283771
3.14486 30.6664 3.98439
5.41411 31.134 2
7.50735 31.6089 0.0267572
1.27793 27.7943 4
3.68021 28.4442 2
5.94278 29.0698 0.0233447
1.99013 25.446 2
4.35822 26.2484 0.0143026
2.85458 23.1494 0
2.54779 35.159 3.983
4.85174 35.2518 2
6.96336 35.3058 0.0286266
0 37.5 4
2.4957 37.429 2
4.83715 37.3396 0.0252239
2.60419 39.7139 0.0172554
0.0802903 39.9526 2
0.320823 42.3947 0
2.76515 32.9058 3.98367
5.04426 33.1906 2
7.1221 33.4607 0.0272522
0.721173 30.1842 4
3.14482 30.6665 2
5.41424 31.1338 0.0236852
1.27779 27.7943 2
3.68022 28.4441 0.0147904
1.99015 25.446 0
0.0806499 35.0474 4
2.54792 35.1595 2
4.85164 35.2516 0.0253552
0 37.5 2
2.49559 37.4285 0.0169083
0.080333 39.9526 0
0.32156 32.6054 4
2.76518 32.9061 2
5.04431 33.1904 0.0242511
0.72056 30.1841 2
3.14486 30.6664 0.0156091
1.27793 27.7943 0
0.0802889 35.0474 2
2.54779 35.159 0.0169956
0 37.5 0
0.320817 32.6053 2
2.76515 32.9058 0.0163294
0.721173 30.1842 0
0.0806499 35.0474 0
0.32156 32.6054 0
CELLS 1910 17190
8 18 6 25 56 2 0 5 16
8 57 23 6 18 17 4 0 2
8 78 36 9 29 31 11 1 7
8 31 11 1 7 79 37 10 30
8 110 57 18 50 48 17 2 14
8 50 18 56 111 14 2 16 49
8 116 62 22 55 52 20 3 15
8 56 25 67 118 16 5 24 53
8 119 63 23 57 54 21 4 17
8 55 22 63 119 15 3 21 54
8 58 26 68 121 18 6 25 56
8 122 65 26 58 57 23 6 18
8 73 31 7 27 142 79 30 71
8 143 78 29 72 73 31 7 27
8 83 147 76 34 32 74 28 8
8 84 148 78 36 33 75 29 9
8 76 34 8 28 148 84 33 75
8 37 79 150 86 10 30 77 35
8 151 87 36 78 80 38 11 31
8 80 38 11 31 152 88 37 79
8 175 100 42 94 96 44 12 40
8 44 96 176 101 12 40 95 43
8 101 176 98 46 43 95 41 13
8 46 98 178 103 13 41 97 45
8 178 103 45 97 147 83 32 74
8 189 116 55 109 106 52 15 47
8 111 56 118 191 49 16 53 107
8 192 119 57 110 108 54 17 48
8 109 55 119 192 47 15 54 108
8 194 122 58 112 110 57 18 50
8 112 58 121 195 50 18 56 111
8 115 61 19 51 197 124 59 113
8 115 61 125 198 51 19 60 114
8 198 125 62 116 114 60 20 52
8 200 127 64 120 116 62 22 55
8 118 67 132 202 53 24 66 117
8 121 68 133 203 56 25 67 118
8 120 64 128 204 55 22 63 119
8 204 128 65 122 119 63 23 57
8 206 134 68 121 123 69 26 58
8 123 69 26 58 207 131 65 122
8 226 147 74 138 140 76 28 70
8 229 148 75 139 143 78 29 72
8 140 76 28 70 229 148 75 139
8 142 79 30 71 231 150 77 141
8 144 80 31 73 232 152 79 142
8 233 151 78 143 144 80 31 73
8 150 86 35 77 235 154 81 145
8 235 154 81 145 146 82 39 91
8 146 82 39 91 236 155 90 165
8 238 157 83 147 149 85 34 76
8 239 158 84 148 151 87 36 78
8 149 85 34 76 239 158 84 148
8 152 88 37 79 241 160 86 150
8 242 161 87 151 153 89 38 80
8 153 89 38 80 243 162 88 152
8 171 98 41 92 265 178 97 169
8 265 178 97 169 226 147 74 138
8 172 96 40 93 266 176 95 170
8 266 176 95 170 171 98 41 92
8 269 175 94 173 172 96 40 93
8 271 180 99 174 175 100 42 94
8 197 124 59 113 271 180 99 174
8 272 181 100 175 177 102 44 96
8 273 182 101 176 179 104 46 98
8 177 102 44 96 273 182 101 176
8 179 104 46 98 275 184 103 178
8 275 184 103 178 238 157 83 147
8 188 115 51 105 283 197 113 186
8 188 115 198 284 105 51 114 187
8 284 198 116 189 187 114 52 106
8 286 200 120 193 189 116 55 109
8 191 118 202 288 107 53 117 190
8 195 121 203 289 111 56 118 191
8 193 120 204 290 109 55 119 192
8 290 204 122 194 192 119 57 110
8 196 123 58 112 292 207 122 194
8 293 206 121 195 196 123 58 112
8 199 126 61 115 297 211 124 197
8 298 212 127 200 198 125 62 116
8 199 126 212 298 115 61 125 198
8 205 129 64 120 300 214 127 200
8 301 217 130 201 202 132 66 117
8 209 136 168 264 301 217 130 201
8 302 219 132 202 203 133 67 118
8 303 220 133 203 206 134 68 121
8 205 129 215 304 120 64 128 204
8 304 215 131 207 204 128 65 122
8 306 221 134 206 208 135 69 123
8 208 135 69 123 307 218 131 207
8 210 137 167 263 309 223 136 209
8 328 238 147 226 230 149 76 140
8 228 146 91 166 329 236 165 260
8 231 150 77 141 330 235 145 227
8 330 235 145 227 228 146 91 166
8 332 239 148 229 233 151 78 143
8 230 149 76 140 332 239 148 229
8 232 152 79 142 334 241 150 231
8 234 153 80 144 335 243 152 232
8 336 242 151 233 234 153 80 144
8 236 155 90 165 338 245 164 259
8 241 160 86 150 339 246 154 235
8 339 246 154 235 237 156 82 146
8 237 156 82 146 340 247 155 236
8 342 249 157 238 240 159 85 149
8 343 250 158 239 242 161 87 151
8 240 159 85 149 343 250 158 239
8 243 162 88 152 345 252 160 241
8 244 163 253 346 153 89 161 242
8 244 163 89 153 347 254 162 243
8 311 224 261 371 210 137 167 263
8 263 167 262 372 209 136 168 264
8 267 179 98 171 375 275 178 265
8 375 275 178 265 328 238 147 226
8 376 273 176 266 267 179 98 171
8 268 177 96 172 376 273 176 266
8 379 272 175 269 268 177 96 172
8 380 271 174 270 269 175 94 173
8 283 197 113 186 380 271 174 270
8 381 277 180 271 272 181 100 175
8 297 211 124 197 381 277 180 271
8 382 278 181 272 274 183 102 177
8 274 183 102 177 383 279 182 273
8 383 279 182 273 276 185 104 179
8 385 281 184 275 342 249 157 238
8 276 185 104 179 385 281 184 275
8 285 199 115 188 393 297 197 283
8 394 298 200 286 284 198 116 189
8 285 199 298 394 188 115 198 284
8 291 205 120 193 396 300 200 286
8 397 301 201 287 288 202 117 190
8 295 209 264 374 397 301 201 287
8 398 302 202 288 289 203 118 191
8 399 303 203 289 293 206 121 195
8 291 205 304 400 193 120 204 290
8 400 304 207 292 290 204 122 194
8 294 208 123 196 402 307 207 292
8 403 306 206 293 294 208 123 196
8 296 210 263 373 405 309 209 295
8 408 312 213 299 297 211 126 199
8 299 213 313 409 199 126 212 298
8 409 313 214 300 298 212 127 200
8 305 216 129 205 411 315 214 300
8 412 318 217 301 302 219 132 202
8 309 223 136 209 412 318 217 301
8 413 320 219 302 303 220 133 203
8 306 221 321 414 206 134 220 303
8 307 218 131 207 415 316 215 304
8 305 216 316 415 205 129 215 304
8 417 322 221 306 308 222 135 208
8 308 222 135 208 418 319 218 307
8 310 225 137 210 420 325 223 309
8 423 326 224 311 310 225 137 210
8 329 236 165 260 441 338 259 368
8 442 342 238 328 333 240 149 230
8 331 237 146 228 443 340 236 329
8 334 241 150 231 444 339 235 330
8 444 339 235 330 331 237 146 228
8 446 343 239 332 336 242 151 233
8 333 240 149 230 446 343 239 332
8 335 243 152 232 448 345 241 334
8 337 244 153 234 449 347 243 335
8 337 244 346 450 234 153 242 336
8 338 245 164 259 452 349 258 367
8 340 247 155 236 453 350 245 338
8 345 252 160 241 454 351 246 339
8 454 351 246 339 341 248 156 237
8 341 248 156 237 455 352 247 340
8 240 159 251 344 342 249 354 457
8 242 161 253 346 343 250 355 458
8 343 250 355 458 240 159 251 344
8 347 254 162 243 460 357 252 345
8 348 255 358 461 244 163 253 346
8 348 255 163 244 462 359 254 347
8 473 360 257 365 363 256 364 482
8 452 349 258 367 365 257 366 485
8 422 324 369 488 311 224 261 371
8 371 261 370 490 263 167 262 372
8 407 311 371 491 296 210 263 373
8 373 263 372 492 295 209 264 374
8 493 385 275 375 442 342 238 328
8 377 276 179 267 493 385 275 375
8 378 274 177 268 494 383 273 376
8 494 383 273 376 377 276 179 267
8 497 382 272 379 378 274 177 268
8 498 381 271 380 379 272 175 269
8 393 297 197 283 498 381 271 380
8 499 387 277 381 382 278 181 272
8 408 312 211 297 499 387 277 381
8 500 388 278 382 384 280 183 274
8 501 389 279 383 386 282 185 276
8 384 280 183 274 501 389 279 383
8 386 282 185 276 503 391 281 385
8 503 391 281 385 457 354 249 342
8 511 408 299 395 393 297 199 285
8 395 299 409 512 285 199 298 394
8 512 409 300 396 394 298 200 286
8 401 305 205 291 514 411 300 396
8 515 412 301 397 398 302 202 288
8 405 309 209 295 515 412 301 397
8 516 413 302 398 399 303 203 289
8 403 306 414 517 293 206 303 399
8 402 307 207 292 518 415 304 400
8 401 305 415 518 291 205 304 400
8 404 308 208 294 520 418 307 402
8 521 417 306 403 404 308 208 294
8 406 310 210 296 523 420 309 405
8 526 423 311 407 406 310 210 296
8 410 314 213 299 527 424 312 408
8 528 425 315 411 409 313 214 300
8 410 314 425 528 299 213 313 409
8 416 317 216 305 530 427 315 411
8 531 430 318 412 413 320 219 302
8 420 325 223 309 531 430 318 412
8 532 432 320 413 414 321 220 303
8 417 322 433 533 306 221 321 414
8 418 319 218 307 534 428 316 415
8 416 317 428 534 305 216 316 415
8 419 323 434 536 308 222 322 417
8 419 323 222 308 537 431 319 418
8 421 327 225 310 539 438 325 420
8 421 327 439 541 310 225 326 423
8 543 437 324 422 423 326 224 311
8 441 338 259 368 559 452 367 486
8 443 340 236 329 560 453 338 441
8 333 240 344 447 442 342 457 561
8 445 341 237 331 562 455 340 443
8 448 345 241 334 563 454 339 444
8 563 454 339 444 445 341 237 331
8 336 242 346 450 446 343 458 565
8 446 343 458 565 333 240 344 447
8 449 347 243 335 567 460 345 448
8 451 348 244 337 568 462 347 449
8 451 348 461 569 337 244 346 450
8 570 463 349 452 473 360 257 365
8 453 350 245 338 570 463 349 452
8 455 352 247 340 571 464 350 453
8 460 357 252 345 572 465 351 454
8 572 465 351 454 456 353 248 341
8 456 353 248 341 573 466 352 455
8 344 251 356 459 457 354 468 575
8 458 355 469 576 344 251 356 459
8 346 253 358 461 458 355 469 576
8 462 359 254 347 578 471 357 460
8 348 255 359 462 461 358 472 579
8 591 474 360 473 475 361 256 363
8 475 361 256 363 594 477 362 479
8 363 256 364 482 479 362 480 603
8 590 473 365 484 481 363 482 605
8 482 364 257 365 606 483 366 485
8 559 452 367 486 484 365 485 607
8 542 436 487 609 422 324 369 488
8 525 422 488 611 407 311 371 491
8 488 369 489 612 371 261 370 490
8 491 371 490 613 373 263 372 492
8 495 386 276 377 614 503 385 493
8 614 503 385 493 561 457 342 442
8 615 501 383 494 495 386 276 377
8 496 384 274 378 615 501 383 494
8 618 500 382 497 496 384 274 378
8 619 499 381 498 497 382 272 379
8 511 408 297 393 619 499 381 498
8 620 505 387 499 500 388 278 382
8 527 424 312 408 620 505 387 499
8 502 390 506 621 384 280 388 500
8 622 507 389 501 504 392 282 386
8 502 390 280 384 622 507 389 501
8 504 392 282 386 624 509 391 503
8 624 509 391 503 575 468 354 457
8 513 410 299 395 630 527 408 511
8 631 528 411 514 512 409 300 396
8 513 410 528 631 395 299 409 512
8 519 416 305 401 633 530 411 514
8 634 531 412 515 516 413 302 398
8 523 420 309 405 634 531 412 515
8 635 532 413 516 517 414 303 399
8 521 417 533 636 403 306 414 517
8 520 418 307 402 637 534 415 518
8 519 416 534 637 401 305 415 518
8 522 419 308 404 639 537 418 520
8 522 419 536 640 404 308 417 521
8 524 421 310 406 642 539 420 523
8 524 421 541 644 406 310 423 526
8 646 543 422 525 526 423 311 407
8 529 426 314 410 647 544 424 527
8 528 425 545 648 411 315 427 530
8 529 426 545 648 410 314 425 528
8 535 429 317 416 649 546 427 530
8 650 548 430 531 532 432 320 413
8 539 438 325 420 650 548 430 531
8 533 433 550 651 414 321 432 532
8 536 434 551 652 417 322 433 533
8 537 431 319 418 653 547 428 534
8 535 429 547 653 416 317 428 534
8 538 435 552 654 419 323 434 536
8 538 435 323 419 655 549 431 537
8 540 440 327 421 657 556 438 539
8 540 440 557 659 421 327 439 541
8 541 439 555 660 423 326 437 543
8 661 554 436 542 543 437 324 422
8 676 570 452 559 590 473 365 484
8 560 453 338 441 676 570 452 559
8 562 455 340 443 677 571 453 560
8 447 344 459 566 561 457 575 678
8 564 456 341 445 679 573 455 562
8 567 460 345 448 680 572 454 563
8 680 572 454 563 564 456 341 445
8 565 458 576 682 447 344 459 566
8 450 346 461 569 565 458 576 682
8 568 462 347 449 684 578 460 567
8 451 348 462 568 569 461 579 685
8 686 580 463 570 591 474 360 473
8 571 464 350 453 686 580 463 570
8 573 466 352 455 687 581 464 571
8 572 465 582 688 460 357 471 578
8 574 467 582 688 456 353 465 572
8 574 467 353 456 689 583 466 573
8 459 356 470 577 575 468 585 691
8 576 469 586 692 459 356 470 577
8 461 358 472 579 576 469 586 692
8 462 359 471 578 579 472 588 694
8 704 591 473 590 593 475 363 481
8 595 476 592 705 475 361 474 591
8 593 475 363 481 707 594 479 602
8 594 477 362 479 709 598 478 600
8 595 476 361 475 711 597 477 594
8 479 362 480 603 600 478 601 720
8 481 363 482 605 602 479 603 722
8 603 480 364 482 723 604 483 606
8 605 482 365 484 724 606 485 607
8 656 553 608 726 542 436 487 609
8 645 542 609 728 525 422 488 611
8 609 487 610 729 488 369 489 612
8 611 488 612 730 491 371 490 613
8 616 504 386 495 731 624 503 614
8 731 624 503 614 678 575 457 561
8 732 622 501 615 616 504 386 495
8 617 502 384 496 732 622 501 615
8 617 502 621 735 496 384 500 618
8 736 620 499 619 618 500 382 497
8 630 527 408 511 736 620 499 619
8 621 506 626 737 500 388 505 620
8 647 544 424 527 737 626 505 620
8 623 508 627 738 502 390 506 621
8 623 508 390 502 739 628 507 622
8 625 510 628 739 504 392 507 622
8 740 629 509 624 691 585 468 575
8 625 510 392 504 740 629 509 624
8 632 529 410 513 744 647 527 630
8 631 528 648 745 514 411 530 633
8 632 529 648 745 513 410 528 631
8 638 535 416 519 746 649 530 633
8 747 650 531 634 635 532 413 516
8 642 539 420 523 747 650 531 634
8 636 533 651 748 517 414 532 635
8 640 536 652 749 521 417 533 636
8 639 537 418 520 750 653 534 637
8 638 535 653 750 519 416 534 637
8 641 538 419 522 751 655 537 639
8 641 538 654 752 522 419 536 640
8 643 540 421 524 753 657 539 642
8 643 540 659 755 524 421 541 644
8 644 541 660 757 526 423 543 646
8 758 661 542 645 646 543 422 525
8 529 426 544 647 648 545 662 759
8 530 427 545 648 649 546 663 760
8 535 429 546 649 653 547 664 761
8 762 666 548 650 651 550 432 532
8 657 556 438 539 762 666 548 650
8 652 551 668 763 533 433 550 651
8 654 552 669 764 536 434 551 652
8 655 549 431 537 765 665 547 653
8 538 435 549 655 654 552 667 766
8 661 554 671 768 542 436 553 656
8 658 558 440 540 769 674 556 657
8 658 558 675 770 540 440 557 659
8 659 557 673 771 541 439 555 660
8 660 555 672 772 543 437 554 661
8 788 686 570 676 704 591 473 590
8 677 571 453 560 788 686 570 676
8 679 573 455 562 789 687 571 677
8 566 459 577 683 678 575 691 790
8 681 574 456 564 791 689 573 679
8 680 572 688 792 567 460 578 684
8 681 574 688 792 564 456 572 680
8 682 576 692 794 566 459 577 683
8 569 461 579 685 682 576 692 794
8 568 462 578 684 685 579 694 796
8 687 581 464 571 798 696 580 686
8 798 696 580 686 705 592 474 591
8 689 583 466 573 799 697 581 687
8 688 582 698 800 578 471 588 694
8 690 584 698 800 574 467 582 688
8 690 584 467 574 801 699 583 689
8 693 587 701 803 577 470 585 691
8 693 587 470 577 804 702 586 692
8 695 589 702 804 579 472 586 692
8 695 589 472 579 805 703 588 694
8 708 595 705 813 593 475 591 704
8 710 596 706 814 595 476 592 705
8 707 594 479 602 816 709 600 719
8 708 595 475 593 817 711 594 707
8 709 598 478 600 819 715 599 717
8 711 597 477 594 820 714 598 709
8 710 596 476 595 822 713 597 711
8 600 478 601 720 717 599 718 832
8 602 479 603 722 719 600 720 834
8 720 601 480 603 835 721 604 723
8 722 603 482 605 836 723 606 724
8 767 670 725 839 656 553 608 726
8 756 656 726 841 645 542 609 728
8 726 608 727 842 609 487 610 729
8 728 609 729 843 611 488 612 730
8 844 740 624 731 790 691 575 678
8 733 625 504 616 844 740 624 731
8 734 623 502 617 845 739 622 732
8 733 625 739 845 616 504 622 732
8 734 623 738 846 617 502 621 735
8 735 621 737 847 618 500 620 736
8 744 647 527 630 847 737 620 736
8 621 506 627 738 737 626 741 848
8 647 544 626 737 759 662 741 848
8 623 508 628 739 738 627 742 849
8 740 629 585 691 850 743 700 802
8 625 510 629 740 739 628 743 850
8 632 529 647 744 745 648 759 854
8 633 530 648 745 746 649 760 855
8 638 535 649 746 750 653 761 856
8 857 762 650 747 748 651 532 635
8 753 657 539 642 857 762 650 747
8 749 652 763 858 636 533 651 748
8 752 654 764 859 640 536 652 749
8 751 655 537 639 860 765 653 750
8 641 538 655 751 752 654 766 861
8 754 658 540 643 862 769 657 753
8 754 658 770 863 643 540 659 755
8 755 659 771 864 644 541 660 757
8 758 661 768 866 645 542 656 756
8 757 660 772 867 646 543 661 758
8 759 662 773 868 648 545 663 760
8 649 546 663 760 761 664 774 871
8 765 665 547 653 872 775 664 761
8 873 777 666 762 763 668 550 651
8 769 674 556 657 873 777 666 762
8 764 669 779 874 652 551 668 763
8 654 552 667 766 764 669 778 875
8 655 549 665 765 766 667 776 876
8 768 671 782 877 656 553 670 767
8 772 672 783 878 661 554 671 768
8 658 558 674 769 770 675 786 879
8 659 557 675 770 771 673 785 881
8 882 784 672 772 771 673 555 660
8 789 687 571 677 897 798 686 788
8 897 798 686 788 813 705 591 704
8 791 689 573 679 898 799 687 789
8 795 693 803 900 683 577 691 790
8 793 690 574 681 901 801 689 791
8 792 688 800 902 684 578 694 796
8 793 690 800 902 681 574 688 792
8 795 693 577 683 903 804 692 794
8 797 695 804 903 685 579 692 794
8 797 695 579 685 904 805 694 796
8 905 806 697 799 798 696 581 687
8 814 706 806 905 705 592 696 798
8 689 583 697 799 801 699 808 907
8 800 698 809 908 694 588 703 805
8 690 584 699 801 800 698 809 908
8 803 701 810 909 691 585 700 802
8 693 587 702 804 803 701 811 910
8 695 589 703 805 804 702 812 911
8 818 710 814 919 708 595 705 813
8 821 712 815 920 710 596 706 814
8 816 709 600 719 922 819 717 831
8 817 711 594 707 923 820 709 816
8 818 710 595 708 924 822 711 817
8 819 715 599 717 926 827 716 829
8 820 714 598 709 927 826 715 819
8 929 825 713 822 820 714 597 711
8 821 712 596 710 930 824 713 822
8 717 599 718 832 829 716 830 942
8 719 600 720 834 831 717 832 944
8 832 718 601 720 945 833 721 835
8 834 720 603 722 946 835 723 836
8 869 780 838 950 767 670 725 839
8 865 767 839 952 756 656 726 841
8 839 725 840 953 726 608 727 842
8 841 726 842 954 728 609 729 843
8 844 740 691 790 955 850 802 899
8 733 625 740 844 845 739 850 955
8 734 623 739 845 846 738 849 956
8 735 621 738 846 847 737 848 957
8 744 647 737 847 854 759 848 957
8 738 627 742 849 848 741 851 958
8 848 741 851 958 759 662 773 868
8 850 743 700 802 959 852 807 906
8 849 742 628 739 959 852 743 850
8 854 759 868 965 745 648 760 855
8 746 649 760 855 856 761 871 966
8 860 765 653 750 967 872 761 856
8 968 873 762 857 858 763 651 748
8 862 769 657 753 968 873 762 857
8 859 764 874 969 749 652 763 858
8 752 654 766 861 859 764 875 970
8 751 655 765 860 861 766 876 971
8 754 658 769 862 863 770 879 972
8 755 659 770 863 864 771 881 974
8 976 882 772 867 864 771 660 757
8 866 768 877 977 756 656 767 865
8 867 772 878 978 758 661 768 866
8 760 663 773 868 871 774 883 980
8 870 781 837 948 982 890 780 869
8 982 890 780 869 877 782 670 767
8 761 664 774 871 872 775 884 984
8 876 776 665 765 985 885 775 872
8 873 777 668 763 986 887 779 874
8 769 674 777 873 879 786 887 986
8 764 669 778 875 874 779 888 987
8 766 667 776 876 875 778 886 988
8 878 783 892 989 768 671 782 877
8 878 783 672 772 990 893 784 882
8 880 787 675 770 991 896 786 879
8 880 787 895 992 770 675 785 881
8 881 785 894 993 771 673 784 882
8 1006 905 799 898 897 798 687 789
8 919 814 905 1006 813 705 798 897
8 791 689 799 898 901 801 907 1007
8 900 803 909 1009 790 691 802 899
8 795 693 804 903 900 803 910 1010
8 902 800 908 1011 796 694 805 904
8 793 690 801 901 902 800 908 1011
8 797 695 805 904 903 804 911 1012
8 799 697 806 905 907 808 912 1013
8 920 815 912 1013 814 706 806 905
8 802 700 810 909 906 807 913 1014
8 801 699 808 907 908 809 914 1015
8 805 703 809 908 911 812 915 1016
8 803 701 811 910 909 810 916 1017
8 911 812 917 1018 804 702 811 910
8 925 821 920 1030 818 710 814 919
8 928 823 921 1031 821 712 815 920
8 922 819 717 831 1033 926 829 941
8 923 820 709 816 1034 927 819 922
8 1035 929 822 924 923 820 711 817
8 925 821 710 818 1036 930 822 924
8 1038 933 825 929 927 826 714 820
8 926 827 716 829 1039 935 828 939
8 927 826 715 819 1040 934 827 926
8 928 823 712 821 1041 931 824 930
8 1042 932 824 930 929 825 713 822
8 829 716 830 942 939 828 940 1058
8 831 717 832 944 941 829 942 1060
8 942 830 718 832 1061 943 833 945
8 944 832 720 834 1062 945 835 946
8 981 889 947 1064 870 781 837 948
8 948 837 949 1067 869 780 838 950
8 975 869 950 1069 865 767 839 952
8 950 838 951 1070 839 725 840 953
8 952 839 953 1071 841 726 842 954
8 955 850 802 899 1072 959 906 1008
8 956 849 739 845 1072 959 850 955
8 846 738 849 956 957 848 958 1073
8 957 848 958 1073 854 759 868 965
8 849 742 852 959 958 851 961 1076
8 960 853 961 1076 906 807 852 959
8 958 851 961 1076 868 773 883 980
8 960 853 807 906 1077 963 913 1014
8 855 760 868 965 966 871 980 1085
8 856 761 871 966 967 872 984 1086
8 971 876 765 860 1087 985 872 967
8 968 873 763 858 1088 986 874 969
8 862 769 873 968 972 879 986 1088
8 859 764 875 970 969 874 987 1089
8 861 766 876 971 970 875 988 1090
8 973 880 770 863 1091 991 879 972
8 973 880 992 1092 863 770 881 974
8 974 881 993 1093 864 771 882 976
8 979 870 948 1066 1094 982 869 975
8 1094 982 869 975 977 877 767 865
8 978 878 772 867 1095 990 882 976
8 978 878 989 1096 866 768 877 977
8 871 774 883 980 984 884 994 1099
8 983 891 999 1100 870 781 889 981
8 1101 1000 890 982 989 892 782 877
8 983 891 781 870 1101 1000 890 982
8 872 775 884 984 985 885 995 1103
8 876 776 885 985 988 886 996 1104
8 986 887 779 874 1105 998 888 987
8 879 786 887 986 991 896 998 1105
8 875 778 886 988 987 888 997 1106
8 990 893 1002 1107 878 783 892 989
8 1108 1003 893 990 993 894 784 882
8 880 787 896 991 992 895 1005 1109
8 993 894 785 881 1110 1004 895 992
8 898 799 905 1006 1007 907 1013 1120
8 1030 920 1013 1120 919 814 905 1006
8 901 801 907 1007 1011 908 1015 1121
8 899 802 909 1009 1008 906 1014 1122
8 900 803 910 1010 1009 909 1017 1123
8 1012 911 1018 1124 903 804 910 1010
8 904 805 908 1011 1012 911 1016 1125
8 1013 912 1020 1127 907 808 914 1015
8 1031 921 1020 1127 920 815 912 1013
8 1019 918 962 1075 1128 1021 913 1014
8 1128 1021 913 1014 1017 916 810 909
8 1015 914 1022 1129 908 809 915 1016
8 1016 915 1023 1130 911 812 917 1018
8 1018 917 1024 1131 910 811 916 1017
8 1037 928 1031 1148 925 821 920 1030
8 928 823 931 1041 1031 921 1032 1149
8 1033 926 829 941 1151 1039 939 1057
8 1034 927 819 922 1152 1040 926 1033
8 1153 1038 929 1035 1034 927 820 923
8 1154 1042 930 1036 1035 929 822 924
8 1037 928 821 925 1155 1041 930 1036
8 1039 935 828 939 1156 1047 938 1055
8 1157 1043 932 1042 1038 933 825 929
8 1038 933 826 927 1158 1045 934 1040
8 1040 934 827 926 1159 1046 935 1039
8 930 824 932 1042 1041 931 1044 1160
8 1051 936 1048 1165 1175 1052 937 1053
8 1156 1047 938 1055 1053 937 1054 1178
8 939 828 940 1058 1055 938 1056 1181
8 941 829 942 1060 1057 939 1058 1183
8 942 830 943 1061 1058 940 1059 1184
8 1060 942 832 944 1185 1061 945 1062
8 1082 964 1063 1188 981 889 947 1064
8 1097 981 1064 1190 979 870 948 1066
8 1064 947 1065 1191 948 837 949 1067
8 1066 948 1067 1193 975 869 950 1069
8 1067 949 1068 1194 950 838 951 1070
8 1069 950 1070 1195 952 839 953 1071
8 956 849 959 1072 1073 958 1076 1197
8 1074 960 1076 1197 1008 906 959 1072
8 1073 958 1076 1197 965 868 980 1085
8 1074 960 906 1008 1198 1077 1014 1122
8 1133 1026 1079 1199 1019 918 962 1075
8 1077 963 913 1014 1200 1080 962 1075
8 960 853 963 1077 1076 961 1078 1201
8 980 883 961 1076 1099 994 1078 1201
8 1210 1083 964 1082 1100 999 889 981
8 966 871 980 1085 1086 984 1099 1215
8 967 872 984 1086 1087 985 1103 1216
8 971 876 985 1087 1090 988 1104 1217
8 1088 986 874 969 1218 1105 987 1089
8 972 879 986 1088 1091 991 1105 1218
8 970 875 988 1090 1089 987 1106 1219
8 973 880 991 1091 1092 992 1109 1220
8 1093 993 881 974 1221 1110 992 1092
8 1222 1108 990 1095 1093 993 882 976
8 1223 1101 982 1094 1096 989 877 977
8 1098 983 870 979 1223 1101 982 1094
8 1095 990 1107 1224 978 878 989 1096
8 1098 983 1100 1225 979 870 981 1097
8 984 884 994 1099 1103 995 1111 1227
8 1102 1001 1115 1228 983 891 999 1100
8 1101 1000 892 989 1229 1116 1002 1107
8 1102 1001 891 983 1229 1116 1000 1101
8 985 885 995 1103 1104 996 1112 1230
8 988 886 996 1104 1106 997 1113 1231
8 1105 998 888 987 1232 1114 997 1106
8 991 896 998 1105 1109 1005 1114 1232
8 1108 1003 1117 1233 990 893 1002 1107
8 1108 1003 894 993 1233 1117 1004 1110
8 992 895 1005 1109 1110 1004 1118 1234
8 1120 1013 1127 1244 1007 907 1015 1121
8 1148 1031 1127 1244 1030 920 1013 1120
8 1121 1015 1129 1245 1011 908 1016 1125
8 1126 1019 1075 1196 1246 1128 1014 1122
8 1246 1128 1014 1122 1123 1017 909 1009
8 1124 1018 1131 1247 1010 910 1017 1123
8 1125 1016 1130 1248 1012 911 1018 1124
8 1127 1020 1137 1254 1015 914 1022 1129
8 1031 921 1032 1149 1127 1020 1137 1254
8 1134 1027 918 1019 1257 1140 1021 1128
8 1257 1140 1021 1128 1131 1024 916 1017
8 1129 1022 1141 1258 1016 915 1023 1130
8 1130 1023 1142 1259 1018 917 1024 1131
8 1261 1144 1025 1132 1133 1026 1079 1199
8 1255 1138 1025 1132 1135 1028 1144 1261
8 1133 1026 918 1019 1262 1145 1027 1134
8 1136 1029 1139 1256 1263 1146 1028 1135
8 1037 928 1041 1155 1148 1031 1149 1275
8 1041 931 1044 1160 1149 1032 1150 1276
8 1151 1039 939 1057 1278 1156 1055 1180
8 1152 1040 926 1033 1279 1159 1039 1151
8 1153 1038 927 1034 1280 1158 1040 1152
8 1281 1157 1042 1154 1153 1038 929 1035
8 1036 930 1042 1154 1155 1041 1160 1282
8 1283 1164 1046 1159 1156 1047 935 1039
8 1165 1048 1164 1283 1053 937 1047 1156
8 1157 1043 933 1038 1284 1161 1045 1158
8 1157 1043 1161 1284 1042 932 1044 1160
8 1040 934 1046 1159 1158 1045 1163 1285
8 1166 1049 1167 1292 1051 936 1048 1165
8 1166 1049 936 1051 1293 1168 1050 1172
8 1051 936 1052 1175 1172 1050 1173 1306
8 1174 1051 1165 1290 1308 1175 1053 1177
8 1053 937 1054 1178 1175 1052 1176 1309
8 1278 1156 1055 1180 1177 1053 1178 1311
8 1055 938 1056 1181 1178 1054 1179 1312
8 1057 939 1058 1183 1180 1055 1181 1314
8 1058 940 1059 1184 1181 1056 1182 1315
8 1060 942 1061 1185 1183 1058 1184 1316
8 1208 1081 1187 1321 1082 964 1063 1188
8 1209 1082 1188 1322 1097 981 1064 1190
8 1188 1063 1189 1323 1064 947 1065 1191
8 1190 1064 1191 1325 1066 948 1067 1193
8 1191 1065 1192 1326 1067 949 1068 1194
8 1067 1193 1069 950 1194 1327 1195 1070
8 1250 1133 1199 1330 1126 1019 1075 1196
8 1198 1077 1014 1122 1331 1200 1075 1196
8 1074 960 1077 1198 1197 1076 1201 1332
8 1085 980 1076 1197 1215 1099 1201 1332
8 1199 1079 1203 1333 1075 962 1080 1200
8 1132 1025 1119 1243 1199 1079 1203 1333
8 1201 1078 963 1077 1334 1202 1080 1200
8 1099 994 1078 1201 1227 1111 1202 1334
8 1343 1207 1081 1208 1210 1083 964 1082
8 1214 1084 1186 1319 1343 1207 1081 1208
8 1345 1210 1082 1209 1225 1100 981 1097
8 1346 1211 1083 1210 1228 1115 999 1100
8 1086 984 1099 1215 1216 1103 1227 1352
8 1087 985 1103 1216 1217 1104 1230 1353
8 1090 988 1104 1217 1219 1106 1231 1354
8 1218 1105 987 1089 1355 1232 1106 1219
8 1091 991 1105 1218 1220 1109 1232 1355
8 1092 992 1109 1220 1221 1110 1234 1356
8 1222 1108 1233 1357 1095 990 1107 1224
8 1222 1108 993 1093 1357 1233 1110 1221
8 1223 1101 989 1096 1358 1229 1107 1224
8 1226 1102 983 1098 1358 1229 1101 1223
8 1226 1102 1228 1359 1098 983 1100 1225
8 1103 995 1111 1227 1230 1112 1235 1360
8 1107 1002 1117 1233 1229 1116 1240 1362
8 1102 1001 1116 1229 1228 1115 1240 1362
8 1104 996 1112 1230 1231 1113 1236 1363
8 1364 1237 1114 1232 1231 1113 997 1106
8 1109 1005 1114 1232 1234 1118 1238 1365
8 1110 1004 1118 1234 1233 1117 1241 1366
8 1242 1374 1255 1138 1119 1243 1132 1025
8 1244 1127 1254 1376 1121 1015 1129 1245
8 1148 1031 1149 1275 1244 1127 1254 1376
8 1245 1129 1258 1377 1125 1016 1130 1248
8 1251 1134 1019 1126 1378 1257 1128 1246
8 1378 1257 1128 1246 1247 1131 1017 1123
8 1248 1130 1259 1379 1124 1018 1131 1247
8 1261 1381 1250 1133 1132 1249 1330 1199
8 1255 1380 1252 1135 1132 1249 1381 1261
8 1250 1133 1019 1126 1382 1262 1134 1251
8 1253 1136 1256 1385 1384 1263 1135 1252
8 1254 1137 1265 1387 1129 1022 1141 1258
8 1149 1032 1150 1276 1254 1137 1265 1387
8 1028 1135 1255 1138 1139 1256 1388 1266
8 1136 1029 1147 1264 1256 1139 1267 1389
8 1390 1268 1140 1257 1259 1142 1024 1131
8 1260 1143 1027 1134 1390 1268 1140 1257
8 1258 1141 1269 1391 1130 1023 1142 1259
8 1262 1145 1027 1134 1393 1271 1143 1260
8 1261 1144 1026 1133 1394 1272 1145 1262
8 1135 1028 1144 1261 1263 1146 1272 1394
8 1136 1029 1146 1263 1264 1147 1273 1395
8 1155 1041 1160 1282 1275 1149 1276 1405
8 1276 1150 1044 1160 1406 1277 1162 1286
8 1408 1283 1159 1279 1278 1156 1039 1151
8 1290 1165 1283 1408 1177 1053 1156 1278
8 1152 1040 1159 1279 1280 1158 1285 1409
8 1281 1157 1038 1153 1410 1284 1158 1280
8 1281 1157 1284 1410 1154 1042 1160 1282
8 1159 1046 1164 1283 1285 1163 1289 1412
8 1292 1167 1289 1412 1165 1048 1164 1283
8 1158 1045 1163 1285 1284 1161 1288 1413
8 1284 1161 1288 1413 1160 1044 1162 1286
8 1291 1166 1292 1418 1174 1051 1165 1290
8 1291 1166 1051 1174 1419 1293 1172 1305
8 1294 1169 1296 1421 1166 1049 1167 1292
8 1293 1168 1050 1172 1422 1295 1171 1303
8 1294 1169 1049 1166 1423 1297 1168 1293
8 1422 1295 1171 1303 1301 1170 1302 1435
8 1172 1050 1173 1306 1303 1171 1304 1438
8 1174 1051 1175 1308 1305 1172 1306 1440
8 1175 1052 1176 1309 1306 1173 1307 1441
8 1177 1053 1178 1311 1308 1175 1309 1443
8 1178 1054 1179 1312 1309 1176 1310 1444
8 1180 1055 1181 1314 1311 1178 1312 1446
8 1056 1181 1312 1179 1182 1315 1447 1313
8 1183 1058 1184 1316 1314 1181 1315 1448
8 1319 1186 1084 1214 1451 1317 1213 1350
8 1319 1186 1318 1453 1208 1081 1187 1321
8 1321 1187 1320 1456 1188 1063 1189 1323
8 1344 1208 1321 1457 1209 1082 1188 1322
8 1322 1188 1323 1458 1190 1064 1191 1325
8 1323 1189 1324 1459 1191 1065 1192 1326
8 1191 1325 1193 1067 1326 1460 1327 1194
8 1242 1374 1243 1119 1328 1462 1335 1204
8 1330 1199 1333 1465 1196 1075 1200 1331
8 1132 1249 1330 1199 1243 1375 1465 1333
8 1332 1201 1077 1198 1466 1334 1200 1331
8 1215 1099 1201 1332 1352 1227 1334 1466
8 1119 1243 1333 1203 1204 1335 1470 1338
8 1333 1203 1338 1470 1200 1080 1202 1334
8 1227 1111 1202 1334 1360 1235 1338 1470
8 1328 1462 1335 1204 1205 1336 1471 1339
8 1337 1206 1340 1472 1464 1329 1205 1336
8 1346 1211 1342 1479 1210 1083 1207 1343
8 1346 1211 1115 1228 1479 1342 1239 1361
8 1348 1212 1084 1214 1479 1342 1207 1343
8 1480 1343 1208 1344 1345 1210 1082 1209
8 1351 1214 1319 1454 1480 1343 1208 1344
8 1481 1346 1210 1345 1359 1228 1100 1225
8 1348 1212 1347 1483 1214 1084 1213 1350
8 1216 1103 1227 1352 1353 1230 1360 1488
8 1217 1104 1230 1353 1354 1231 1363 1489
8 1490 1364 1232 1355 1354 1231 1106 1219
8 1220 1109 1232 1355 1356 1234 1365 1491
8 1221 1110 1234 1356 1357 1233 1366 1492
8 1224 1107 1233 1357 1358 1229 1362 1493
8 1226 1102 1229 1358 1359 1228 1362 1493
8 1230 1112 1235 1360 1363 1236 1367 1496
8 1361 1239 1115 1228 1497 1371 1240 1362
8 1366 1241 1372 1498 1233 1117 1240 1362
8 1364 1237 1113 1231 1499 1368 1236 1363
8 1364 1237 1368 1499 1232 1114 1238 1365
8 1234 1118 1238 1365 1366 1241 1369 1500
8 1507 1373 1242 1374 1388 1266 1138 1255
8 1508 1374 1243 1375 1380 1255 1132 1249
8 1376 1254 1387 1509 1245 1129 1258 1377
8 1275 1149 1276 1405 1376 1254 1387 1509
8 1377 1258 1391 1510 1248 1130 1259 1379
8 1511 1390 1257 1378 1379 1259 1131 1247
8 1383 1260 1134 1251 1511 1390 1257 1378
8 1252 1135 1256 1385 1380 1255 1388 1512
8 1261 1381 1513 1394 1133 1250 1382 1262
8 1135 1252 1384 1263 1261 1381 1513 1394
8 1382 1262 1134 1251 1514 1393 1260 1383
8 1253 1136 1263 1384 1386 1264 1395 1516
8 1253 1136 1264 1386 1385 1256 1389 1517
8 1387 1265 1397 1519 1258 1141 1269 1391
8 1276 1150 1277 1406 1387 1265 1397 1519
8 1256 1139 1267 1389 1388 1266 1398 1520
8 1264 1147 1274 1396 1389 1267 1399 1521
8 1392 1270 1143 1260 1522 1400 1268 1390
8 1390 1268 1142 1259 1522 1400 1269 1391
8 1392 1270 1401 1523 1260 1143 1271 1393
8 1272 1394 1524 1402 1145 1262 1393 1271
8 1395 1273 1146 1263 1524 1402 1272 1394
8 1273 1395 1264 1147 1403 1526 1396 1274
8 1405 1276 1160 1282 1534 1406 1286 1411
8 1414 1287 1407 1535 1286 1162 1277 1406
8 1279 1159 1283 1408 1409 1285 1412 1537
8 1418 1292 1412 1537 1290 1165 1283 1408
8 1280 1158 1285 1409 1410 1284 1413 1538
8 1410 1284 1413 1538 1282 1160 1286 1411
8 1285 1163 1289 1412 1413 1288 1417 1540
8 1421 1296 1417 1540 1292 1167 1289 1412
8 1414 1287 1162 1286 1541 1416 1288 1413
8 1420 1294 1421 1545 1291 1166 1292 1418
8 1419 1293 1172 1305 1546 1422 1303 1437
8 1420 1294 1166 1291 1547 1423 1293 1419
8 1294 1169 1297 1423 1421 1296 1425 1548
8 1423 1297 1168 1293 1549 1424 1295 1422
8 1301 1170 1298 1427 1422 1295 1424 1549
8 1432 1300 1428 1554 1301 1170 1298 1427
8 1431 1299 1428 1554 1560 1430 1300 1432
8 1563 1433 1300 1432 1435 1302 1170 1301
8 1546 1422 1303 1437 1434 1301 1435 1565
8 1303 1171 1304 1438 1435 1302 1436 1566
8 1305 1172 1306 1440 1437 1303 1438 1568
8 1306 1173 1307 1441 1438 1304 1439 1569
8 1308 1175 1309 1443 1440 1306 1441 1571
8 1309 1176 1310 1444 1441 1307 1442 1572
8 1311 1178 1312 1446 1443 1309 1444 1574
8 1179 1312 1444 1310 1313 1447 1575 1445
8 1314 1181 1315 1448 1446 1312 1447 1576
8 1350 1213 1349 1486 1451 1317 1449 1579
8 1451 1317 1450 1581 1319 1186 1318 1453
8 1454 1319 1214 1351 1582 1451 1350 1487
8 1453 1318 1452 1584 1321 1187 1320 1456
8 1454 1319 1453 1585 1344 1208 1321 1457
8 1456 1320 1455 1586 1323 1189 1324 1459
8 1457 1321 1456 1587 1322 1188 1323 1458
8 1458 1323 1459 1588 1325 1191 1326 1460
8 1205 1336 1464 1329 1328 1462 1590 1461
8 1507 1373 1461 1590 1374 1242 1328 1462
8 1508 1374 1462 1591 1375 1243 1335 1467
8 1337 1206 1329 1464 1473 1341 1463 1594
8 1375 1243 1335 1467 1465 1333 1470 1596
8 1465 1333 1470 1596 1331 1200 1334 1466
8 1352 1227 1334 1466 1488 1360 1470 1596
8 1591 1462 1336 1468 1467 1335 1471 1597
8 1469 1337 1472 1598 1595 1464 1336 1468
8 1471 1339 1474 1600 1335 1204 1338 1470
8 1600 1474 1367 1496 1470 1338 1235 1360
8 1336 1205 1340 1472 1471 1339 1475 1601
8 1337 1206 1341 1473 1472 1340 1476 1602
8 1495 1370 1478 1609 1361 1239 1342 1479
8 1348 1212 1342 1479 1483 1347 1478 1609
8 1481 1346 1479 1610 1345 1210 1343 1480
8 1481 1346 1228 1359 1610 1479 1361 1494
8 1484 1348 1214 1351 1610 1479 1343 1480
8 1483 1347 1482 1612 1350 1213 1349 1486
8 1484 1348 1483 1613 1351 1214 1350 1487
8 1353 1230 1360 1488 1489 1363 1496 1616
8 1490 1364 1231 1354 1617 1499 1363 1489
8 1490 1364 1499 1617 1355 1232 1365 1491
8 1356 1234 1365 1491 1492 1366 1500 1619
8 1492 1366 1498 1620 1357 1233 1362 1493
8 1494 1361 1228 1359 1621 1497 1362 1493
8 1495 1370 1239 1361 1622 1504 1371 1497
8 1363 1236 1367 1496 1499 1368 1501 1623
8 1497 1371 1240 1362 1624 1505 1372 1498
8 1625 1503 1372 1498 1500 1369 1241 1366
8 1365 1238 1368 1499 1500 1369 1502 1626
8 1520 1398 1506 1633 1388 1266 1373 1507
8 1634 1507 1374 1508 1512 1388 1255 1380
8 1509 1387 1519 1635 1377 1258 1391 1510
8 1405 1276 1406 1534 1509 1387 1519 1635
8 1515 1392 1260 1383 1636 1522 1390 1511
8 1511 1390 1259 1379 1636 1522 1391 1510
8 1385 1256 1389 1517 1512 1388 1520 1637
8 1513 1394 1262 1382 1638 1524 1393 1514
8 1395 1516 1638 1524 1263 1384 1513 1394
8 1515 1392 1523 1639 1383 1260 1393 1514
8 1516 1395 1526 1640 1386 1264 1396 1518
8 1386 1264 1396 1518 1517 1389 1521 1641
8 1519 1397 1527 1643 1391 1269 1400 1522
8 1535 1407 1527 1643 1406 1277 1397 1519
8 1389 1267 1399 1521 1520 1398 1528 1644
8 1645 1529 1399 1521 1525 1404 1274 1396
8 1392 1270 1400 1522 1523 1401 1531 1646
8 1524 1402 1271 1393 1648 1532 1401 1523
8 1403 1526 1648 1532 1273 1395 1524 1402
8 1525 1404 1274 1396 1649 1533 1403 1526
8 1539 1414 1535 1657 1411 1286 1406 1534
8 1542 1415 1536 1658 1414 1287 1407 1535
8 1409 1285 1412 1537 1538 1413 1540 1660
8 1545 1421 1540 1660 1418 1292 1412 1537
8 1539 1414 1286 1411 1661 1541 1413 1538
8 1540 1417 1544 1663 1413 1288 1416 1541
8 1421 1296 1425 1548 1540 1417 1544 1663
8 1542 1415 1287 1414 1664 1543 1416 1541
8 1420 1294 1423 1547 1545 1421 1548 1666
8 1547 1423 1293 1419 1667 1549 1422 1546
8 1434 1301 1427 1553 1546 1422 1549 1667
8 1423 1297 1424 1549 1548 1425 1550 1668
8 1551 1426 1550 1668 1427 1298 1424 1549
8 1551 1426 1298 1427 1671 1552 1428 1554
8 1562 1432 1554 1674 1434 1301 1427 1553
8 1431 1299 1429 1558 1554 1428 1555 1675
8 1431 1299 1430 1560 1558 1429 1557 1680
8 1560 1430 1300 1432 1683 1559 1433 1563
8 1561 1431 1554 1674 1684 1560 1432 1562
8 1685 1563 1432 1562 1565 1435 1301 1434
8 1435 1302 1436 1566 1563 1433 1564 1686
8 1437 1303 1438 1568 1565 1435 1566 1688
8 1438 1304 1439 1569 1566 1436 1567 1689
8 1440 1306 1441 1571 1568 1438 1569 1691
8 1441 1307 1442 1572 1569 1439 1570 1692
8 1443 1309 1444 1574 1571 1441 1572 1694
8 1310 1444 1572 1442 1445 1575 1695 1573
8 1446 1312 1447 1576 1574 1444 1575 1696
8 1486 1349 1485 1614 1579 1449 1577 1699
8 1451 1317 1449 1579 1581 1450 1578 1701
8 1487 1350 1486 1615 1582 1451 1579 1702
8 1581 1450 1580 1704 1453 1318 1452 1584
8 1582 1451 1581 1705 1454 1319 1453 1585
8 1584 1452 1583 1706 1456 1320 1455 1586
8 1585 1453 1584 1707 1457 1321 1456 1587
8 1587 1456 1586 1708 1458 1323 1459 1588
8 1633 1506 1589 1710 1507 1373 1461 1590
8 1464 1329 1461 1590 1594 1463 1589 1710
8 1468 1336 1462 1591 1595 1464 1590 1711
8 1634 1507 1590 1711 1508 1374 1462 1591
8 1473 1341 1463 1594 1603 1477 1593 1716
8 1469 1337 1464 1595 1599 1473 1594 1717
8 1471 1597 1467 1335 1600 1718 1596 1470
8 1718 1600 1496 1616 1596 1470 1360 1488
8 1336 1468 1597 1471 1472 1598 1719 1601
8 1469 1337 1473 1599 1598 1472 1602 1720
8 1722 1604 1501 1623 1600 1474 1367 1496
8 1475 1601 1471 1339 1604 1722 1600 1474
8 1602 1476 1605 1723 1472 1340 1475 1601
8 1476 1602 1724 1606 1341 1473 1603 1477
8 1483 1347 1478 1609 1612 1482 1608 1731
8 1495 1370 1504 1622 1609 1478 1608 1731
8 1618 1495 1609 1732 1494 1361 1479 1610
8 1484 1348 1479 1610 1613 1483 1609 1732
8 1486 1349 1482 1612 1614 1485 1611 1733
8 1613 1483 1612 1734 1487 1350 1486 1615
8 1489 1363 1496 1616 1617 1499 1623 1736
8 1491 1365 1499 1617 1619 1500 1626 1737
8 1618 1495 1361 1494 1738 1622 1497 1621
8 1739 1625 1498 1620 1619 1500 1366 1492
8 1621 1497 1362 1493 1740 1624 1498 1620
8 1742 1631 1504 1622 1624 1505 1371 1497
8 1743 1628 1502 1626 1623 1501 1368 1499
8 1744 1630 1505 1624 1625 1503 1372 1498
8 1745 1629 1503 1625 1626 1502 1369 1500
8 1520 1398 1528 1644 1633 1506 1632 1751
8 1637 1520 1633 1752 1512 1388 1507 1634
8 1635 1519 1643 1753 1510 1391 1522 1636
8 1657 1535 1643 1753 1534 1406 1519 1635
8 1515 1392 1522 1636 1639 1523 1646 1754
8 1517 1389 1521 1641 1637 1520 1644 1755
8 1524 1638 1756 1648 1393 1514 1639 1523
8 1640 1526 1395 1516 1756 1648 1524 1638
8 1642 1525 1396 1518 1757 1649 1526 1640
8 1758 1645 1521 1641 1642 1525 1396 1518
8 1646 1531 1400 1522 1760 1650 1527 1643
8 1535 1407 1536 1658 1643 1527 1650 1760
8 1521 1399 1529 1645 1644 1528 1651 1761
8 1647 1530 1652 1762 1525 1404 1529 1645
8 1401 1523 1648 1532 1531 1646 1763 1655
8 1525 1404 1533 1649 1647 1530 1654 1765
8 1533 1649 1766 1656 1403 1526 1648 1532
8 1662 1542 1658 1774 1539 1414 1535 1657
8 1542 1415 1543 1664 1658 1536 1659 1775
8 1660 1540 1663 1777 1538 1413 1541 1661
8 1545 1421 1548 1666 1660 1540 1663 1777
8 1662 1542 1414 1539 1778 1664 1541 1661
8 1664 1543 1416 1541 1779 1665 1544 1663
8 1548 1425 1550 1668 1663 1544 1665 1779
8 1547 1423 1549 1667 1666 1548 1668 1781
8 1670 1551 1668 1781 1553 1427 1549 1667
8 1551 1426 1552 1671 1668 1550 1669 1782
8 1670 1551 1427 1553 1784 1671 1554 1674
8 1675 1555 1672 1785 1554 1428 1552 1671
8 1678 1556 1673 1789 1558 1429 1555 1675
8 1561 1431 1558 1681 1674 1554 1675 1790
8 1794 1677 1556 1678 1680 1557 1429 1558
8 1560 1430 1559 1683 1680 1557 1679 1797
8 1561 1431 1560 1684 1681 1558 1680 1798
8 1563 1433 1564 1686 1683 1559 1682 1800
8 1684 1560 1432 1562 1801 1683 1563 1685
8 1565 1435 1566 1688 1685 1563 1686 1802
8 1566 1436 1567 1689 1686 1564 1687 1803
8 1568 1438 1569 1691 1688 1566 1689 1805
8 1569 1439 1570 1692 1689 1567 1690 1806
8 1571 1441 1572 1694 1691 1569 1692 1808
8 1442 1572 1692 1570 1573 1695 1809 1693
8 1574 1444 1575 1696 1694 1572 1695 1810
8 1614 1485 1592 1712 1699 1577 1697 1813
8 1579 1449 1577 1699 1701 1578 1698 1815
8 1615 1486 1614 1735 1702 1579 1699 1816
8 1701 1578 1700 1818 1581 1450 1580 1704
8 1582 1451 1579 1702 1705 1581 1701 1819
8 1704 1580 1703 1820 1584 1452 1583 1706
8 1705 1581 1704 1821 1585 1453 1584 1707
8 1707 1584 1706 1822 1587 1456 1586 1708
8 1710 1589 1506 1633 1824 1709 1632 1751
8 1594 1463 1589 1710 1716 1593 1709 1824
8 1752 1633 1710 1825 1634 1507 1590 1711
8 1595 1464 1590 1711 1717 1594 1710 1825
8 1830 1714 1592 1712 1733 1611 1485 1614
8 1603 1477 1593 1716 1725 1607 1715 1834
8 1599 1473 1594 1717 1721 1603 1716 1835
8 1837 1722 1623 1736 1718 1600 1496 1616
8 1719 1601 1722 1837 1597 1471 1600 1718
8 1602 1720 1598 1472 1723 1838 1719 1601
8 1720 1602 1473 1599 1839 1724 1603 1721
8 1723 1605 1726 1840 1601 1475 1604 1722
8 1840 1726 1628 1743 1722 1604 1501 1623
8 1724 1606 1727 1841 1602 1476 1605 1723
8 1725 1607 1728 1842 1603 1477 1606 1724
8 1612 1482 1608 1731 1733 1611 1730 1849
8 1741 1627 1730 1849 1622 1504 1608 1731
8 1613 1483 1609 1732 1734 1612 1731 1850
8 1618 1495 1622 1738 1732 1609 1731 1850
8 1615 1486 1612 1734 1735 1614 1733 1851
8 1852 1743 1626 1737 1736 1623 1499 1617
8 1853 1745 1625 1739 1737 1626 1500 1619
8 1855 1742 1622 1738 1740 1624 1497 1621
8 1856 1744 1624 1740 1739 1625 1498 1620
8 1741 1627 1504 1622 1857 1746 1631 1742
8 1742 1631 1505 1624 1858 1749 1630 1744
8 1859 1747 1629 1745 1743 1628 1502 1626
8 1860 1748 1630 1744 1745 1629 1503 1625
8 1644 1528 1651 1761 1751 1632 1750 1865
8 1637 1520 1644 1755 1752 1633 1751 1866
8 1754 1646 1522 1636 1867 1760 1643 1753
8 1657 1535 1658 1774 1753 1643 1760 1867
8 1639 1523 1646 1754 1756 1648 1763 1868
8 1641 1521 1645 1758 1755 1644 1761 1869
8 1757 1649 1526 1640 1870 1766 1648 1756
8 1642 1525 1649 1757 1759 1647 1765 1871
8 1759 1647 1762 1872 1642 1525 1645 1758
8 1760 1650 1767 1874 1646 1531 1655 1763
8 1658 1536 1659 1775 1760 1650 1767 1874
8 1762 1652 1768 1875 1645 1529 1651 1761
8 1764 1653 1769 1876 1647 1530 1652 1762
8 1656 1766 1877 1773 1532 1648 1763 1655
8 1771 1879 1765 1654 1653 1764 1647 1530
8 1533 1649 1765 1654 1656 1766 1880 1772
8 1662 1542 1664 1778 1774 1658 1775 1887
8 1664 1543 1665 1779 1775 1659 1776 1888
8 1778 1664 1541 1661 1890 1779 1663 1777
8 1666 1548 1668 1781 1777 1663 1779 1890
8 1782 1669 1780 1891 1668 1550 1665 1779
8 1670 1551 1671 1784 1781 1668 1782 1893
8 1671 1552 1672 1785 1782 1669 1783 1894
8 1790 1675 1785 1896 1674 1554 1671 1784
8 1675 1555 1673 1789 1785 1672 1786 1897
8 1792 1676 1788 1903 1678 1556 1673 1789
8 1795 1678 1789 1904 1681 1558 1675 1790
8 1792 1676 1556 1678 1906 1791 1677 1794
8 1680 1557 1679 1797 1794 1677 1793 1909
8 1910 1794 1678 1795 1798 1680 1558 1681
8 1683 1559 1682 1800 1797 1679 1796 1912
8 1684 1560 1683 1801 1798 1680 1797 1913
8 1686 1564 1687 1803 1800 1682 1799 1915
8 1685 1563 1686 1802 1801 1683 1800 1916
8 1688 1566 1689 1805 1802 1686 1803 1917
8 1689 1567 1690 1806 1803 1687 1804 1918
8 1691 1569 1692 1808 1805 1689 1806 1920
8 1692 1570 1693 1809 1806 1690 1807 1921
8 1694 1572 1695 1810 1808 1692 1809 1922
8 1829 1713 1811 1926 1712 1592 1697 1813
8 1813 1697 1812 1928 1699 1577 1698 1815
8 1735 1614 1712 1828 1816 1699 1813 1929
8 1815 1698 1814 1931 1701 1578 1700 1818
8 1702 1579 1699 1816 1819 1701 1815 1932
8 1818 1700 1817 1933 1704 1580 1703 1820
8 1819 1701 1818 1934 1705 1581 1704 1821
8 1821 1704 1820 1935 1707 1584 1706 1822
8 1824 1709 1632 1751 1937 1823 1750 1865
8 1716 1593 1709 1824 1834 1715 1823 1937
8 1825 1710 1633 1752 1938 1824 1751 1866
8 1717 1594 1710 1825 1835 1716 1824 1938
8 1945 1830 1712 1828 1851 1733 1614 1735
8 1830 1714 1831 1946 1712 1592 1713 1829
8 1947 1832 1714 1830 1849 1730 1611 1733
8 1843 1729 1607 1725 1950 1833 1715 1834
8 1721 1603 1716 1835 1836 1725 1834 1951
8 1836 1725 1842 1953 1721 1603 1724 1839
8 1723 1838 1719 1601 1840 1954 1837 1722
8 1954 1840 1743 1852 1837 1722 1623 1736
8 1724 1839 1720 1602 1841 1955 1838 1723
8 1841 1727 1844 1956 1723 1605 1726 1840
8 1956 1844 1747 1859 1840 1726 1628 1743
8 1728 1842 1724 1606 1845 1957 1841 1727
8 1725 1607 1729 1843 1842 1728 1846 1958
8 1741 1627 1746 1857 1849 1730 1848 1965
8 1734 1612 1731 1850 1851 1733 1849 1966
8 1854 1741 1849 1966 1738 1622 1731 1850
8 1967 1859 1745 1853 1852 1743 1626 1737
8 1968 1860 1744 1856 1853 1745 1625 1739
8 1854 1741 1622 1738 1969 1857 1742 1855
8 1855 1742 1624 1740 1970 1858 1744 1856
8 1857 1746 1631 1742 1971 1861 1749 1858
8 1858 1749 1630 1744 1972 1863 1748 1860
8 1859 1747 1862 1973 1745 1629 1748 1860
8 1875 1768 1864 1977 1761 1651 1750 1865
8 1755 1644 1761 1869 1866 1751 1865 1978
8 1867 1760 1874 1979 1754 1646 1763 1868
8 1774 1658 1775 1887 1867 1760 1874 1979
8 1870 1766 1648 1756 1980 1877 1763 1868
8 1872 1762 1875 1981 1758 1645 1761 1869
8 1757 1649 1766 1870 1871 1765 1880 1982
8 1983 1879 1764 1873 1871 1765 1647 1759
8 1873 1764 1876 1984 1759 1647 1762 1872
8 1877 1773 1655 1763 1986 1881 1767 1874
8 1775 1659 1776 1888 1874 1767 1881 1986
8 1876 1769 1882 1987 1762 1652 1768 1875
8 1878 1770 1883 1988 1764 1653 1769 1876
8 1880 1772 1656 1766 1989 1886 1773 1877
8 1878 1770 1653 1764 1990 1884 1771 1879
8 1765 1654 1772 1880 1879 1771 1885 1991
8 1778 1664 1779 1890 1887 1775 1888 1997
8 1998 1889 1776 1888 1891 1780 1665 1779
8 1893 1782 1891 2000 1781 1668 1779 1890
8 1894 1783 1892 2001 1782 1669 1780 1891
8 1784 1671 1785 1896 1893 1782 1894 2003
8 1897 1786 1895 2004 1785 1672 1783 1894
8 1790 1675 1789 1904 1896 1785 1897 2006
8 1901 1787 1898 2007 1789 1673 1786 1897
8 1903 1788 1900 2013 1789 1673 1787 1901
8 1792 1676 1791 1906 1903 1788 1902 2016
8 1907 1792 1903 2017 1795 1678 1789 1904
8 1906 1791 1677 1794 2019 1905 1793 1909
8 1907 1792 1678 1795 2020 1906 1794 1910
8 1797 1679 1796 1912 1909 1793 1908 2022
8 1798 1680 1797 1913 1910 1794 1909 2023
8 1800 1682 1799 1915 1912 1796 1911 2025
8 1801 1683 1800 1916 1913 1797 1912 2026
8 1803 1687 1804 1918 1915 1799 1914 2028
8 1802 1686 1803 1917 1916 1800 1915 2029
8 1805 1689 1806 1920 1917 1803 1918 2030
8 1806 1690 1807 1921 1918 1804 1919 2031
8 1808 1692 1809 1922 1920 1806 1921 2032
8 1939 1826 1924 2037 1829 1713 1811 1926
8 1926 1811 1925 2039 1813 1697 1812 1928
8 1944 1829 1926 2040 1828 1712 1813 1929
8 1928 1812 1927 2042 1815 1698 1814 1931
8 1929 1813 1928 2043 1816 1699 1815 1932
8 1931 1814 1930 2044 1818 1700 1817 1933
8 1932 1815 1931 2045 1819 1701 1818 1934
8 1934 1818 1933 2046 1821 1704 1820 1935
8 2048 1936 1823 1937 1977 1864 1750 1865
8 1950 1833 1715 1834 2048 1936 1823 1937
8 1938 1824 1751 1866 2049 1937 1865 1978
8 1835 1716 1824 1938 1951 1834 1937 2049
8 1939 1826 1713 1829 2053 1942 1831 1946
8 1940 1827 1923 2035 2053 1942 1826 1939
8 1945 1830 1946 2058 1828 1712 1829 1944
8 2059 1947 1830 1945 1966 1849 1733 1851
8 1947 1832 1730 1849 2060 1948 1848 1965
8 1947 1832 1948 2060 1830 1714 1831 1946
8 1959 1847 1729 1843 2063 1949 1833 1950
8 1952 1843 1725 1836 2064 1950 1834 1951
8 1836 1725 1843 1952 1953 1842 1958 2066
8 1953 1842 1957 2067 1839 1724 1841 1955
8 1841 1955 1838 1723 1956 2068 1954 1840
8 2068 1956 1859 1967 1954 1840 1743 1852
8 1956 1844 1960 2069 1859 1747 1862 1973
8 1845 1957 1841 1727 1960 2069 1956 1844
8 1728 1842 1957 1845 1846 1958 2071 1961
8 1962 2072 1959 1847 1846 1958 1843 1729
8 1971 1861 1964 2077 1857 1746 1848 1965
8 1854 1741 1857 1969 1966 1849 1965 2078
8 1967 1859 1973 2079 1853 1745 1860 1968
8 1970 1858 1744 1856 2080 1972 1860 1968
8 1969 1857 1742 1855 2081 1971 1858 1970
8 1971 1861 1749 1858 2082 1974 1863 1972
8 1973 1862 1975 2083 1860 1748 1863 1972
8 1987 1882 1976 2086 1875 1768 1864 1977
8 1981 1875 1977 2087 1869 1761 1865 1978
8 1980 1877 1763 1868 2088 1986 1874 1979
8 1887 1775 1888 1997 1979 1874 1986 2088
8 1880 1982 2089 1989 1766 1870 1980 1877
8 1984 1876 1987 2090 1872 1762 1875 1981
8 1765 1871 1983 1879 1880 1982 2091 1991
8 1985 1878 1764 1873 2092 1990 1879 1983
8 1985 1878 1988 2093 1873 1764 1876 1984
8 2094 1992 1881 1986 1998 1889 1776 1888
8 1986 1881 1992 2094 1877 1773 1886 1989
8 1988 1883 1993 2095 1876 1769 1882 1987
8 1878 1770 1884 1990 1988 1883 1994 2096
8 1991 1885 1772 1880 2097 1996 1886 1989
8 1879 1771 1885 1991 1990 1884 1995 2098
8 2103 1998 1888 1997 2000 1891 1779 1890
8 2104 1999 1889 1998 2001 1892 1780 1891
8 2003 1894 2001 2106 1893 1782 1891 2000
8 2004 1895 2002 2107 1894 1783 1892 2001
8 2006 1897 2004 2109 1896 1785 1894 2003
8 2007 1898 2005 2110 1897 1786 1895 2004
8 2014 1901 2007 2112 1904 1789 1897 2006
8 2011 1899 2008 2113 1901 1787 1898 2007
8 2119 2010 1899 2011 2013 1900 1787 1901
8 2016 1902 2012 2122 1903 1788 1900 2013
8 2017 1903 2013 2123 1904 1789 1901 2014
8 1906 1791 1905 2019 2016 1902 2015 2125
8 1907 1792 1906 2020 2017 1903 2016 2126
8 1909 1793 1908 2022 2019 1905 2018 2128
8 2020 1906 1794 1910 2129 2019 1909 2023
8 1912 1796 1911 2025 2022 1908 2021 2131
8 1913 1797 1912 2026 2023 1909 2022 2132
8 1915 1799 1914 2028 2025 1911 2024 2134
8 1916 1800 1915 2029 2026 1912 2025 2135
8 1918 1804 1919 2031 2028 1914 2027 2136
8 1917 1803 1918 2030 2029 1915 2028 2137
8 1920 1806 1921 2032 2030 1918 2031 2138
8 1940 1827 1941 2054 2035 1923 2033 2140
8 2035 1923 2034 2143 1939 1826 1924 2037
8 2037 1924 2036 2146 1926 1811 1925 2039
8 2051 1939 2037 2147 1944 1829 1926 2040
8 2039 1925 2038 2149 1928 1812 1927 2042
8 2040 1926 2039 2150 1929 1813 1928 2043
8 2042 1927 2041 2151 1931 1814 1930 2044
8 2043 1928 2042 2152 1932 1815 1931 2045
8 2045 1931 2044 2153 1934 1818 1933 2046
8 2155 2047 1936 2048 2086 1976 1864 1977
8 2063 1949 1833 1950 2155 2047 1936 2048
8 2156 2048 1937 2049 2087 1977 1865 1978
8 2064 1950 1834 1951 2156 2048 1937 2049
8 2051 1939 1829 1944 2160 2053 1946 2058
8 2052 1940 2035 2144 2160 2053 1939 2051
8 2053 1942 1831 1946 2163 2057 1948 2060
8 2055 1943 1827 1940 2163 2057 1942 2053
8 2055 1943 2056 2164 1940 1827 1941 2054
8 2059 1947 1849 1966 2167 2060 1965 2078
8 2059 1947 2060 2167 1945 1830 1946 2058
8 2077 1964 2061 2168 1965 1848 1948 2060
8 2070 1963 1847 1959 2170 2062 1949 2063
8 2065 1959 1843 1952 2171 2063 1950 2064
8 2173 2072 1958 2066 2065 1959 1843 1952
8 1953 1842 1958 2066 2067 1957 2071 2174
8 2068 1956 2069 2175 1967 1859 1973 2079
8 2067 1957 2069 2175 1955 1841 1956 2068
8 1845 1957 2069 1960 1961 2071 2176 2073
8 2069 1960 2073 2176 1973 1862 1975 2083
8 2070 1963 2075 2177 1959 1847 1962 2072
8 1846 1958 2071 1961 1962 2072 2178 2074
8 2077 1964 1861 1971 2182 2076 1974 2082
8 2081 1971 2077 2183 1969 1857 1965 2078
8 2079 1973 2083 2184 1968 1860 1972 2080
8 2081 1971 1858 1970 2185 2082 1972 2080
8 2083 1975 2084 2186 1972 1863 1974 2082
8 2086 1976 1882 1987 2189 2085 1993 2095
8 2090 1987 2086 2190 1981 1875 1977 2087
8 2191 2094 1986 2088 2103 1998 1888 1997
8 2088 1986 2094 2191 1980 1877 1989 2089
8 1991 2091 2192 2097 1880 1982 2089 1989
8 2093 1988 2095 2193 1984 1876 1987 2090
8 1879 1983 2092 1990 1991 2091 2194 2098
8 1985 1878 1990 2092 2093 1988 2096 2195
8 2097 1996 1886 1989 2196 2099 1992 2094
8 2196 2099 1992 2094 2104 1999 1889 1998
8 1994 2096 1988 1883 2100 2197 2095 1993
8 2096 1994 1884 1990 2198 2101 1995 2098
8 1995 2098 2199 2102 1885 1991 2097 1996
8 2203 2104 1998 2103 2106 2001 1891 2000
8 2107 2002 2105 2204 2001 1892 1999 2104
8 2109 2004 2107 2206 2003 1894 2001 2106
8 2110 2005 2108 2207 2004 1895 2002 2107
8 2112 2007 2110 2209 2006 1897 2004 2109
8 2113 2008 2111 2210 2007 1898 2005 2110
8 2120 2011 2113 2212 2014 1901 2007 2112
8 2117 2009 2114 2213 2011 1899 2008 2113
8 2219 2116 2009 2117 2119 2010 1899 2011
8 2222 2118 2010 2119 2122 2012 1900 2013
8 2223 2119 2011 2120 2123 2013 1901 2014
8 2016 1902 2015 2125 2122 2012 2121 2225
8 2126 2016 2122 2226 2017 1903 2013 2123
8 2019 1905 2018 2128 2125 2015 2124 2228
8 2020 1906 2019 2129 2126 2016 2125 2229
8 2022 1908 2021 2131 2128 2018 2127 2231
8 2023 1909 2022 2132 2129 2019 2128 2232
8 2025 1911 2024 2134 2131 2021 2130 2234
8 2026 1912 2025 2135 2132 2022 2131 2235
8 1914 2028 2134 2024 2027 2136 2236 2133
8 2029 1915 2028 2137 2135 2025 2134 2237
8 2030 1918 2031 2138 2137 2028 2136 2238
8 2157 2050 2139 2240 2054 1941 2033 2140
8 2052 1940 2054 2161 2144 2035 2140 2242
8 2140 2033 2141 2243 2035 1923 2034 2143
8 2143 2034 2142 2246 2037 1924 2036 2146
8 2144 2035 2143 2247 2051 1939 2037 2147
8 2146 2036 2145 2249 2039 1925 2038 2149
8 2147 2037 2146 2250 2040 1926 2039 2150
8 2149 2038 2148 2251 2042 1927 2041 2151
8 2150 2039 2149 2252 2043 1928 2042 2152
8 2152 2042 2151 2253 2045 1931 2044 2153
8 2255 2154 2047 2155 2189 2085 1976 2086
8 2170 2062 1949 2063 2255 2154 2047 2155
8 2256 2155 2048 2156 2190 2086 1977 2087
8 2171 2063 1950 2064 2256 2155 2048 2156
8 2258 2159 2050 2157 2164 2056 1941 2054
8 2160 2053 1946 2058 2262 2163 2060 2167
8 2162 2055 1940 2052 2262 2163 2053 2160
8 2162 2055 2164 2263 2052 1940 2054 2161
8 2163 2057 1948 2060 2264 2165 2061 2168
8 2055 1943 2057 2163 2164 2056 2165 2264
8 2182 2076 2166 2268 2077 1964 2061 2168
8 2183 2077 2168 2269 2078 1965 2060 2167
8 2070 1963 2062 2170 2177 2075 2169 2271
8 2172 2070 1959 2065 2272 2170 2063 2171
8 2172 2070 2177 2273 2065 1959 2072 2173
8 2066 1958 2072 2173 2174 2071 2178 2274
8 2067 1957 2071 2174 2175 2069 2176 2275
8 2175 2069 2176 2275 2079 1973 2083 2184
8 2071 1961 2074 2178 2176 2073 2179 2276
8 2176 2073 2179 2276 2083 1975 2084 2186
8 2072 1962 2075 2177 2178 2074 2180 2277
8 2182 2076 1974 2082 2280 2181 2084 2186
8 2183 2077 1971 2081 2281 2182 2082 2185
8 2184 2083 2186 2282 2080 1972 2082 2185
8 2189 2085 1993 2095 2285 2188 2100 2197
8 2190 2086 1987 2090 2286 2189 2095 2193
8 2192 2097 1989 2089 2287 2196 2094 2191
8 2287 2196 2094 2191 2203 2104 1998 2103
8 2194 2098 1991 2091 2288 2199 2097 2192
8 2195 2096 2197 2289 2093 1988 2095 2193
8 2096 2195 2290 2198 1990 2092 2194 2098
8 2097 1996 2099 2196 2199 2102 2200 2291
8 2196 2099 1999 2104 2291 2200 2105 2204
8 2100 2197 2292 2201 1994 2096 2198 2101
8 1995 2098 2198 2101 2102 2199 2293 2202
8 2206 2107 2204 2296 2106 2001 2104 2203
8 2207 2108 2205 2297 2107 2002 2105 2204
8 2209 2110 2207 2299 2109 2004 2107 2206
8 2210 2111 2208 2300 2110 2005 2108 2207
8 2212 2113 2210 2302 2112 2007 2110 2209
8 2213 2114 2211 2303 2113 2008 2111 2210
8 2220 2117 2213 2305 2120 2011 2113 2212
8 2216 2115 2214 2306 2117 2009 2114 2213
8 2216 2115 2009 2117 2311 2217 2116 2219
8 2219 2116 2010 2119 2314 2218 2118 2222
8 2315 2219 2117 2220 2223 2119 2011 2120
8 2122 2012 2121 2225 2222 2118 2221 2317
8 2318 2222 2119 2223 2226 2122 2013 2123
8 2125 2015 2124 2228 2225 2121 2224 2320
8 2126 2016 2125 2229 2226 2122 2225 2321
8 2128 2018 2127 2231 2228 2124 2227 2323
8 2129 2019 2128 2232 2229 2125 2228 2324
8 2131 2021 2130 2234 2231 2127 2230 2326
8 2132 2022 2131 2235 2232 2128 2231 2327
8 2134 2024 2133 2236 2234 2130 2233 2328
8 2135 2025 2134 2237 2235 2131 2234 2329
8 2137 2028 2136 2238 2237 2134 2236 2330
8 2157 2050 2158 2259 2240 2139 2239 2332
8 2257 2157 2240 2334 2161 2054 2140 2242
8 2240 2139 2241 2335 2140 2033 2141 2243
8 2242 2140 2243 2337 2144 2035 2143 2247
8 2243 2141 2244 2338 2143 2034 2142 2246
8 2246 2142 2245 2341 2146 2036 2145 2249
8 2247 2143 2246 2342 2147 2037 2146 2250
8 2249 2145 2248 2343 2149 2038 2148 2251
8 2250 2146 2249 2344 2150 2039 2149 2252
8 2252 2149 2251 2345 2152 2042 2151 2253
8 2169 2271 2347 2254 2062 2170 2255 2154
8 2189 2085 2188 2285 2255 2154 2254 2347
8 2348 2255 2155 2256 2286 2189 2086 2190
8 2272 2170 2063 2171 2348 2255 2155 2256
8 2349 2258 2157 2257 2263 2164 2054 2161
8 2258 2159 2261 2351 2157 2050 2158 2259
8 2258 2159 2056 2164 2351 2261 2165 2264
8 2262 2163 2060 2167 2355 2264 2168 2269
8 2162 2055 2163 2262 2263 2164 2264 2355
8 2357 2266 2165 2264 2268 2166 2061 2168
8 2268 2166 2076 2182 2361 2267 2181 2280
8 2281 2182 2268 2362 2183 2077 2168 2269
8 2271 2169 2270 2364 2177 2075 2180 2277
8 2172 2070 2170 2272 2273 2177 2271 2365
8 2072 2173 2274 2178 2177 2273 2366 2277
8 2071 2174 2275 2176 2178 2274 2367 2276
8 2275 2176 2276 2367 2184 2083 2186 2282
8 2283 2187 2084 2186 2368 2278 2179 2276
8 2178 2074 2180 2277 2276 2179 2278 2368
8 2283 2187 2279 2370 2186 2084 2181 2280
8 2281 2182 2082 2185 2371 2280 2186 2282
8 2188 2285 2374 2284 2100 2197 2292 2201
8 2286 2189 2095 2193 2375 2285 2197 2289
8 2192 2097 2196 2287 2288 2199 2291 2376
8 2287 2196 2104 2203 2376 2291 2204 2296
8 2194 2098 2199 2288 2290 2198 2293 2377
8 2289 2197 2096 2195 2378 2292 2198 2290
8 2291 2200 2105 2204 2379 2294 2205 2297
8 2199 2102 2200 2291 2293 2202 2294 2379
8 2198 2101 2202 2293 2292 2201 2295 2380
8 2299 2207 2297 2383 2206 2107 2204 2296
8 2300 2208 2298 2384 2207 2108 2205 2297
8 2302 2210 2300 2386 2209 2110 2207 2299
8 2303 2211 2301 2387 2210 2111 2208 2300
8 2305 2213 2303 2389 2212 2113 2210 2302
8 2306 2214 2304 2390 2213 2114 2211 2303
8 2310 2216 2306 2392 2220 2117 2213 2305
8 2308 2215 2307 2393 2216 2115 2214 2306
8 2308 2215 2115 2216 2396 2309 2217 2311
8 2310 2216 2117 2220 2398 2311 2219 2315
8 2311 2217 2116 2219 2399 2312 2218 2314
8 2314 2218 2118 2222 2402 2313 2221 2317
8 2315 2219 2119 2223 2403 2314 2222 2318
8 2225 2121 2224 2320 2317 2221 2316 2405
8 2226 2122 2225 2321 2318 2222 2317 2406
8 2228 2124 2227 2323 2320 2224 2319 2408
8 2229 2125 2228 2324 2321 2225 2320 2409
8 2231 2127 2230 2326 2323 2227 2322 2411
8 2232 2128 2231 2327 2324 2228 2323 2412
8 2234 2130 2233 2328 2326 2230 2325 2413
8 2235 2131 2234 2329 2327 2231 2326 2414
8 2237 2134 2236 2330 2329 2234 2328 2415
8 2259 2158 2260 2352 2332 2239 2331 2417
8 2257 2157 2259 2350 2334 2240 2332 2419
8 2240 2139 2239 2332 2335 2241 2333 2420
8 2334 2240 2335 2422 2242 2140 2243 2337
8 2335 2241 2336 2423 2243 2141 2244 2338
8 2337 2243 2338 2425 2247 2143 2246 2342
8 2338 2244 2339 2426 2246 2142 2245 2341
8 2341 2245 2340 2428 2249 2145 2248 2343
8 2342 2246 2341 2429 2250 2146 2249 2344
8 2344 2249 2343 2430 2252 2149 2251 2345
8 2188 2285 2347 2254 2284 2374 2432 2346
8 2347 2254 2346 2432 2271 2169 2270 2364
8 2365 2271 2170 2272 2433 2347 2255 2348
8 2286 2189 2285 2375 2348 2255 2347 2433
8 2349 2258 2351 2435 2257 2157 2259 2350
8 2349 2258 2164 2263 2435 2351 2264 2355
8 2259 2158 2261 2351 2352 2260 2354 2437
8 2356 2265 2354 2437 2264 2165 2261 2351
8 2441 2357 2264 2355 2362 2268 2168 2269
8 2356 2265 2165 2264 2442 2358 2266 2357
8 2443 2359 2266 2357 2361 2267 2166 2268
8 2370 2279 2360 2446 2280 2181 2267 2361
8 2362 2268 2182 2281 2447 2361 2280 2371
8 2180 2277 2368 2278 2270 2364 2449 2363
8 2271 2365 2273 2177 2364 2450 2366 2277
8 2372 2283 2186 2282 2451 2368 2276 2367
8 2178 2274 2367 2276 2277 2366 2451 2368
8 2283 2187 2278 2368 2370 2279 2369 2452
8 2372 2283 2370 2453 2282 2186 2280 2371
8 2284 2374 2455 2373 2201 2292 2380 2295
8 2375 2285 2197 2289 2456 2374 2292 2378
8 2376 2291 2204 2296 2457 2379 2297 2383
8 2288 2199 2291 2376 2377 2293 2379 2457
8 2198 2290 2378 2292 2293 2377 2458 2380
8 2293 2202 2294 2379 2380 2295 2381 2459
8 2384 2298 2381 2459 2297 2205 2294 2379
8 2386 2300 2384 2463 2299 2207 2297 2383
8 2387 2301 2385 2464 2300 2208 2298 2384
8 2389 2303 2387 2466 2302 2210 2300 2386
8 2390 2304 2388 2467 2303 2211 2301 2387
8 2392 2306 2390 2469 2305 2213 2303 2389
8 2393 2307 2391 2470 2306 2214 2304 2390
8 2395 2308 2393 2472 2310 2216 2306 2392
8 2308 2215 2309 2396 2393 2307 2394 2473
8 2395 2308 2216 2310 2475 2396 2311 2398
8 2396 2309 2217 2311 2476 2397 2312 2399
8 2398 2311 2219 2315 2478 2399 2314 2403
8 2399 2312 2218 2314 2479 2400 2313 2402
8 2317 2221 2316 2405 2402 2313 2401 2482
8 2403 2314 2222 2318 2483 2402 2317 2406
8 2320 2224 2319 2408 2405 2316 2404 2485
8 2321 2225 2320 2409 2406 2317 2405 2486
8 2323 2227 2322 2411 2408 2319 2407 2488
8 2324 2228 2323 2412 2409 2320 2408 2489
8 2326 2230 2325 2413 2411 2322 2410 2490
8 2327 2231 2326 2414 2412 2323 2411 2491
8 2329 2234 2328 2415 2414 2326 2413 2492
8 2417 2331 2260 2352 2494 2416 2353 2438
8 2350 2259 2352 2436 2419 2332 2417 2496
8 2332 2239 2331 2417 2420 2333 2418 2497
8 2334 2240 2332 2419 2422 2335 2420 2499
8 2420 2333 2421 2500 2335 2241 2336 2423
8 2422 2335 2423 2502 2337 2243 2338 2425
8 2423 2336 2424 2503 2338 2244 2339 2426
8 2425 2338 2426 2505 2342 2246 2341 2429
8 2426 2339 2427 2506 2341 2245 2340 2428
8 2429 2341 2428 2507 2344 2249 2343 2430
8 2432 2346 2284 2374 2509 2431 2373 2455
8 2432 2346 2431 2509 2364 2270 2363 2449
8 2375 2285 2374 2456 2433 2347 2432 2510
8 2347 2433 2365 2271 2432 2510 2450 2364
8 2350 2259 2351 2435 2436 2352 2437 2514
8 2440 2356 2437 2514 2355 2264 2351 2435
8 2352 2260 2354 2437 2438 2353 2439 2516
8 2356 2265 2358 2442 2437 2354 2439 2516
8 2440 2356 2264 2355 2518 2442 2357 2441
8 2519 2443 2357 2441 2447 2361 2268 2362
8 2443 2359 2444 2520 2357 2266 2358 2442
8 2443 2359 2267 2361 2520 2444 2360 2446
8 2446 2360 2279 2370 2523 2445 2369 2452
8 2453 2370 2446 2524 2371 2280 2361 2447
8 2449 2363 2448 2525 2368 2278 2369 2452
8 2366 2277 2364 2450 2451 2368 2449 2526
8 2372 2283 2368 2451 2453 2370 2452 2527
8 2455 2373 2295 2380 2529 2454 2382 2460
8 2456 2374 2292 2378 2530 2455 2380 2458
8 2377 2293 2379 2457 2458 2380 2459 2531
8 2463 2384 2459 2531 2383 2297 2379 2457
8 2533 2461 2382 2460 2459 2381 2295 2380
8 2464 2385 2461 2533 2384 2298 2381 2459
8 2466 2387 2464 2537 2386 2300 2384 2463
8 2467 2388 2465 2538 2387 2301 2385 2464
8 2469 2390 2467 2540 2389 2303 2387 2466
8 2470 2391 2468 2541 2390 2304 2388 2467
8 2472 2393 2470 2543 2392 2306 2390 2469
8 2393 2307 2394 2473 2470 2391 2471 2544
8 2395 2308 2396 2475 2472 2393 2473 2546
8 2396 2309 2397 2476 2473 2394 2474 2547
8 2475 2396 2311 2398 2549 2476 2399 2478
8 2476 2397 2312 2399 2550 2477 2400 2479
8 2478 2399 2314 2403 2552 2479 2402 2483
8 2479 2400 2313 2402 2553 2480 2401 2482
8 2405 2316 2404 2485 2482 2401 2481 2556
8 2406 2317 2405 2486 2483 2402 2482 2557
8 2408 2319 2407 2488 2485 2404 2484 2559
8 2409 2320 2408 2489 2486 2405 2485 2560
8 2411 2322 2410 2490 2488 2407 2487 2561
8 2412 2323 2411 2491 2489 2408 2488 2562
8 2414 2326 2413 2492 2491 2411 2490 2563
8 2513 2434 2493 2565 2438 2353 2416 2494
8 2496 2417 2352 2436 2567 2494 2438 2515
8 2494 2416 2495 2568 2417 2331 2418 2497
8 2419 2332 2417 2496 2499 2420 2497 2570
8 2497 2418 2498 2571 2420 2333 2421 2500
8 2499 2420 2500 2573 2422 2335 2423 2502
8 2500 2421 2501 2574 2423 2336 2424 2503
8 2502 2423 2503 2576 2425 2338 2426 2505
8 2503 2424 2504 2577 2426 2339 2427 2506
8 2505 2426 2506 2578 2429 2341 2428 2507
8 2509 2431 2373 2455 2580 2508 2454 2529
8 2509 2431 2508 2580 2449 2363 2448 2525
8 2432 2510 2581 2509 2374 2456 2530 2455
8 2432 2510 2450 2364 2509 2581 2526 2449
8 2583 2511 2434 2513 2516 2439 2353 2438
8 2436 2352 2437 2514 2515 2438 2516 2588
8 2440 2356 2442 2518 2514 2437 2516 2588
8 2442 2358 2444 2520 2516 2439 2517 2589
8 2519 2443 2520 2591 2441 2357 2442 2518
8 2519 2443 2361 2447 2591 2520 2446 2524
8 2446 2360 2445 2523 2520 2444 2521 2592
8 2525 2448 2522 2593 2452 2369 2445 2523
8 2524 2446 2370 2453 2594 2523 2452 2527
8 2526 2449 2525 2595 2451 2368 2452 2527
8 2534 2462 2528 2597 2460 2382 2454 2529
8 2530 2455 2380 2458 2598 2529 2460 2532
8 2599 2533 2460 2532 2531 2459 2380 2458
8 2537 2464 2533 2599 2463 2384 2459 2531
8 2534 2462 2382 2460 2601 2535 2461 2533
8 2538 2465 2535 2601 2464 2385 2461 2533
8 2540 2467 2538 2604 2466 2387 2464 2537
8 2541 2468 2539 2605 2467 2388 2465 2538
8 2543 2470 2541 2607 2469 2390 2467 2540
8 2470 2391 2471 2544 2541 2468 2542 2608
8 2472 2393 2473 2546 2543 2470 2544 2610
8 2473 2394 2474 2547 2544 2471 2545 2611
8 2475 2396 2476 2549 2546 2473 2547 2613
8 2476 2397 2477 2550 2547 2474 2548 2614
8 2549 2476 2399 2478 2616 2550 2479 2552
8 2479 2400 2480 2553 2550 2477 2551 2617
8 2552 2479 2402 2483 2619 2553 2482 2557
8 2482 2401 2481 2556 2553 2480 2554 2620
8 2485 2404 2484 2559 2556 2481 2555 2623
8 2486 2405 2485 2560 2557 2482 2556 2624
8 2488 2407 2487 2561 2559 2484 2558 2625
8 2489 2408 2488 2562 2560 2485 2559 2626
8 2491 2411 2490 2563 2562 2488 2561 2627
8 2513 2434 2512 2585 2565 2493 2564 2630
8 2586 2513 2565 2632 2515 2438 2494 2567
8 2565 2493 2566 2633 2494 2416 2495 2568
8 2567 2494 2568 2635 2496 2417 2497 2570
8 2568 2495 2569 2636 2497 2418 2498 2571
8 2570 2497 2571 2638 2499 2420 2500 2573
8 2571 2498 2572 2639 2500 2421 2501 2574
8 2573 2500 2574 2641 2502 2423 2503 2576
8 2574 2501 2575 2642 2503 2424 2504 2577
8 2576 2503 2577 2643 2505 2426 2506 2578
8 2597 2528 2579 2645 2529 2454 2508 2580
8 2580 2508 2579 2645 2525 2448 2522 2593
8 2581 2509 2455 2530 2646 2580 2529 2598
8 2581 2509 2580 2646 2526 2449 2525 2595
8 2583 2511 2582 2648 2513 2434 2512 2585
8 2583 2511 2439 2516 2648 2582 2517 2589
8 2649 2583 2513 2586 2588 2516 2438 2515
8 2589 2517 2444 2520 2653 2587 2521 2592
8 2518 2442 2520 2591 2588 2516 2589 2654
8 2593 2522 2590 2655 2523 2445 2521 2592
8 2524 2446 2523 2594 2591 2520 2592 2656
8 2595 2525 2593 2657 2527 2452 2523 2594
8 2602 2536 2596 2659 2534 2462 2528 2597
8 2600 2534 2597 2660 2532 2460 2529 2598
8 2600 2534 2460 2532 2661 2601 2533 2599
8 2604 2538 2601 2661 2537 2464 2533 2599
8 2602 2536 2462 2534 2663 2603 2535 2601
8 2601 2535 2465 2538 2663 2603 2539 2605
8 2607 2541 2605 2665 2540 2467 2538 2604
8 2608 2542 2606 2666 2541 2468 2539 2605
8 2543 2470 2544 2610 2607 2541 2608 2668
8 2544 2471 2545 2611 2608 2542 2609 2669
8 2546 2473 2547 2613 2610 2544 2611 2671
8 2547 2474 2548 2614 2611 2545 2612 2672
8 2549 2476 2550 2616 2613 2547 2614 2674
8 2550 2477 2551 2617 2614 2548 2615 2675
8 2552 2479 2553 2619 2616 2550 2617 2677
8 2553 2480 2554 2620 2617 2551 2618 2678
8 2557 2482 2556 2624 2619 2553 2620 2680
8 2556 2481 2555 2623 2620 2554 2621 2681
8 2559 2484 2558 2625 2623 2555 2622 2683
8 2560 2485 2559 2626 2624 2556 2623 2684
8 2562 2488 2561 2627 2626 2559 2625 2685
8 2690 2629 2564 2630 2650 2584 2512 2585
8 2586 2513 2585 2651 2632 2565 2630 2691
8 2630 2564 2631 2692 2565 2493 2566 2633
8 2632 2565 2633 2694 2567 2494 2568 2635
8 2633 2566 2634 2695 2568 2495 2569 2636
8 2635 2568 2636 2697 2570 2497 2571 2638
8 2636 2569 2637 2698 2571 2498 2572 2639
8 2638 2571 2639 2700 2573 2500 2574 2641
8 2639 2572 2640 2701 2574 2501 2575 2642
8 2641 2574 2642 2702 2576 2503 2577 2643
8 2597 2528 2596 2659 2645 2579 2644 2704
8 2645 2579 2644 2704 2593 2522 2590 2655
8 2660 2597 2645 2705 2598 2529 2580 2646
8 2646 2580 2645 2705 2595 2525 2593 2657
8 2650 2584 2512 2585 2707 2647 2582 2648
8 2648 2582 2517 2589 2707 2647 2587 2653
8 2649 2583 2648 2708 2586 2513 2585 2651
8 2649 2583 2516 2588 2708 2648 2589 2654
8 2655 2590 2652 2710 2592 2521 2587 2653
8 2654 2589 2520 2591 2711 2653 2592 2656
8 2657 2593 2655 2712 2594 2523 2592 2656
8 2602 2536 2603 2663 2659 2596 2658 2714
8 2662 2602 2659 2715 2600 2534 2597 2660
8 2662 2602 2534 2600 2717 2663 2601 2661
8 2661 2601 2538 2604 2717 2663 2605 2665
8 2666 2606 2664 2718 2605 2539 2603 2663
8 2668 2608 2666 2720 2607 2541 2605 2665
8 2608 2542 2609 2669 2666 2606 2667 2721
8 2610 2544 2611 2671 2668 2608 2669 2723
8 2611 2545 2612 2672 2669 2609 2670 2724
8 2613 2547 2614 2674 2671 2611 2672 2726
8 2614 2548 2615 2675 2672 2612 2673 2727
8 2616 2550 2617 2677 2674 2614 2675 2729
8 2617 2551 2618 2678 2675 2615 2676 2730
8 2619 2553 2620 2680 2677 2617 2678 2732
8 2620 2554 2621 2681 2678 2618 2679 2733
8 2624 2556 2623 2684 2680 2620 2681 2735
8 2681 2621 2555 2623 2736 2682 2622 2683
8 2626 2559 2625 2685 2684 2623 2683 2737
8 2688 2628 2584 2650 2740 2686 2647 2707
8 2688 2628 2687 2742 2650 2584 2629 2690
8 2690 2629 2689 2745 2630 2564 2631 2692
8 2746 2690 2630 2691 2709 2650 2585 2651
8 2691 2630 2692 2747 2632 2565 2633 2694
8 2692 2631 2693 2748 2633 2566 2634 2695
8 2694 2633 2695 2750 2635 2568 2636 2697
8 2695 2634 2696 2751 2636 2569 2637 2698
8 2697 2636 2698 2753 2638 2571 2639 2700
8 2698 2637 2699 2754 2639 2572 2640 2701
8 2700 2639 2701 2755 2641 2574 2642 2702
8 2659 2596 2658 2714 2704 2644 2703 2757
8 2704 2644 2703 2757 2655 2590 2652 2710
8 2660 2597 2659 2715 2705 2645 2704 2758
8 2705 2645 2704 2758 2657 2593 2655 2712
8 2759 2706 2647 2707 2710 2652 2587 2653
8 2709 2650 2585 2651 2760 2707 2648 2708
8 2708 2648 2589 2654 2760 2707 2653 2711
8 2712 2655 2710 2761 2656 2592 2653 2711
8 2763 2713 2658 2714 2718 2664 2603 2663
8 2662 2602 2663 2717 2715 2659 2714 2764
8 2720 2666 2718 2767 2665 2605 2663 2717
8 2768 2719 2664 2718 2721 2667 2606 2666
8 2668 2608 2669 2723 2720 2666 2721 2770
8 2669 2609 2670 2724 2721 2667 2722 2771
8 2671 2611 2672 2726 2723 2669 2724 2773
8 2672 2612 2673 2727 2724 2670 2725 2774
8 2674 2614 2675 2729 2726 2672 2727 2776
8 2675 2615 2676 2730 2727 2673 2728 2777
8 2677 2617 2678 2732 2729 2675 2730 2779
8 2678 2618 2679 2733 2730 2676 2731 2780
8 2680 2620 2681 2735 2732 2678 2733 2782
8 2733 2679 2621 2681 2783 2734 2682 2736
8 2735 2681 2623 2684 2784 2736 2683 2737
8 2740 2686 2647 2707 2787 2738 2706 2759
8 2688 2628 2686 2740 2742 2687 2739 2789
8 2743 2688 2650 2709 2790 2740 2707 2760
8 2742 2687 2741 2792 2690 2629 2689 2745
8 2743 2688 2742 2793 2709 2650 2690 2746
8 2745 2689 2744 2795 2692 2631 2693 2748
8 2746 2690 2745 2796 2691 2630 2692 2747
8 2747 2692 2748 2797 2694 2633 2695 2750
8 2748 2693 2749 2798 2695 2634 2696 2751
8 2750 2695 2751 2800 2697 2636 2698 2753
8 2751 2696 2752 2801 2698 2637 2699 2754
8 2753 2698 2754 2802 2700 2639 2701 2755
8 2763 2713 2756 2804 2714 2658 2703 2757
8 2759 2706 2652 2710 2804 2756 2703 2757
8 2715 2659 2714 2764 2758 2704 2757 2805
8 2758 2704 2757 2805 2712 2655 2710 2761
8 2806 2759 2707 2760 2761 2710 2653 2711
8 2765 2716 2762 2808 2718 2664 2713 2763
8 2809 2763 2714 2764 2767 2718 2663 2717
8 2765 2716 2664 2718 2811 2766 2719 2768
8 2813 2768 2718 2767 2770 2721 2666 2720
8 2814 2769 2719 2768 2771 2722 2667 2721
8 2723 2669 2724 2773 2770 2721 2771 2816
8 2724 2670 2725 2774 2771 2722 2772 2817
8 2726 2672 2727 2776 2773 2724 2774 2819
8 2727 2673 2728 2777 2774 2725 2775 2820
8 2729 2675 2730 2779 2776 2727 2777 2822
8 2730 2676 2731 2780 2777 2728 2778 2823
8 2732 2678 2733 2782 2779 2730 2780 2825
8 2780 2731 2679 2733 2826 2781 2734 2783
8 2782 2733 2681 2735 2827 2783 2736 2784
8 2830 2785 2738 2787 2804 2756 2706 2759
8 2789 2739 2686 2740 2832 2786 2738 2787
8 2790 2740 2707 2760 2833 2787 2759 2806
8 2742 2687 2739 2789 2792 2741 2788 2835
8 2743 2688 2740 2790 2793 2742 2789 2836
8 2792 2741 2791 2838 2745 2689 2744 2795
8 2793 2742 2792 2839 2746 2690 2745 2796
8 2795 2744 2794 2841 2748 2693 2749 2798
8 2796 2745 2795 2842 2747 2692 2748 2797
8 2797 2748 2798 2843 2750 2695 2751 2800
8 2798 2749 2799 2844 2751 2696 2752 2801
8 2800 2751 2801 2845 2753 2698 2754 2802
8 2808 2762 2803 2847 2763 2713 2756 2804
8 2809 2763 2804 2848 2764 2714 2757 2805
8 2806 2759 2710 2761 2848 2804 2757 2805
8 2765 2716 2766 2811 2808 2762 2807 2850
8 2810 2765 2808 2851 2767 2718 2763 2809
8 2810 2765 2718 2767 2852 2811 2768 2813
8 2811 2766 2719 2768 2853 2812 2769 2814
8 2855 2814 2768 2813 2816 2771 2721 2770
8 2856 2815 2769 2814 2817 2772 2722 2771
8 2773 2724 2774 2819 2816 2771 2817 2858
8 2774 2725 2775 2820 2817 2772 2818 2859
8 2776 2727 2777 2822 2819 2774 2820 2861
8 2777 2728 2778 2823 2820 2775 2821 2862
8 2779 2730 2780 2825 2822 2777 2823 2864
8 2823 2778 2731 2780 2865 2824 2781 2826
8 2825 2780 2733 2782 2866 2826 2783 2827
8 2869 2828 2785 2830 2847 2803 2756 2804
8 2871 2829 2786 2832 2830 2785 2738 2787
8 2872 2830 2787 2833 2848 2804 2759 2806
8 2789 2739 2786 2832 2835 2788 2831 2874
8 2836 2789 2740 2790 2875 2832 2787 2833
8 2792 2741 2788 2835 2838 2791 2834 2877
8 2793 2742 2789 2836 2839 2792 2835 2878
8 2838 2791 2837 2880 2795 2744 2794 2841
8 2839 2792 2838 2881 2796 2745 2795 2842
8 2841 2794 2840 2882 2798 2749 2799 2844
8 2842 2795 2841 2883 2797 2748 2798 2843
8 2843 2798 2844 2884 2800 2751 2801 2845
8 2886 2846 2803 2847 2850 2807 2762 2808
8 2851 2808 2847 2887 2809 2763 2804 2848
8 2850 2807 2766 2811 2889 2849 2812 2853
8 2810 2765 2811 2852 2851 2808 2850 2890
8 2852 2811 2768 2813 2891 2853 2814 2855
8 2853 2812 2769 2814 2892 2854 2815 2856
8 2894 2856 2814 2855 2858 2817 2771 2816
8 2817 2772 2818 2859 2856 2815 2857 2895
8 2819 2774 2820 2861 2858 2817 2859 2897
8 2820 2775 2821 2862 2859 2818 2860 2898
8 2822 2777 2823 2864 2861 2820 2862 2900
8 2823 2778 2824 2865 2862 2821 2863 2901
8 2864 2823 2780 2825 2902 2865 2826 2866
8 2904 2867 2828 2869 2886 2846 2803 2847
8 2869 2828 2868 2906 2830 2785 2829 2871
8 2907 2869 2830 2872 2887 2847 2804 2848
8 2871 2829 2870 2909 2832 2786 2831 2874
8 2910 2871 2832 2875 2872 2830 2787 2833
8 2835 2788 2831 2874 2877 2834 2873 2912
8 2836 2789 2832 2875 2878 2835 2874 2913
8 2877 2834 2876 2915 2838 2791 2837 2880
8 2839 2792 2835 2878 2881 2838 2877 2916
8 2880 2837 2879 2917 2841 2794 2840 2882
8 2881 2838 2880 2918 2842 2795 2841 2883
8 2883 2841 2882 2919 2843 2798 2844 2884
8 2921 2885 2846 2886 2889 2849 2807 2850
8 2922 2886 2847 2887 2890 2850 2808 2851
8 2889 2849 2812 2853 2924 2888 2854 2892
8 2890 2850 2811 2852 2925 2889 2853 2891
8 2891 2853 2814 2855 2926 2892 2856 2894
8 2892 2854 2815 2856 2927 2893 2857 2895
8 2858 2817 2859 2897 2894 2856 2895 2929
8 2859 2818 2860 2898 2895 2857 2896 2930
8 2861 2820 2862 2900 2897 2859 2898 2932
8 2862 2821 2863 2901 2898 2860 2899 2933
8 2864 2823 2865 2902 2900 2862 2901 2934
8 2904 2867 2846 2886 2936 2903 2885 2921
8 2904 2867 2903 2936 2869 2828 2868 2906
8 2937 2904 2869 2907 2922 2886 2847 2887
8 2906 2868 2905 2939 2871 2829 2870 2909
8 2907 2869 2906 2940 2872 2830 2871 2910
8 2909 2870 2908 2942 2874 2831 2873 2912
8 2910 2871 2909 2943 2875 2832 2874 2913
8 2912 2873 2911 2945 2877 2834 2876 2915
8 2878 2835 2874 2913 2916 2877 2912 2946
8 2915 2876 2914 2947 2880 2837 2879 2917
8 2916 2877 2915 2948 2881 2838 2880 2918
8 2918 2880 2917 2949 2883 2841 2882 2919
8 2921 2885 2849 2889 2951 2920 2888 2924
8 2952 2921 2886 2922 2925 2889 2850 2890
8 2924 2888 2854 2892 2954 2923 2893 2927
8 2925 2889 2853 2891 2955 2924 2892 2926
8 2926 2892 2856 2894 2956 2927 2895 2929
8 2895 2857 2896 2930 2927 2893 2928 2957
8 2897 2859 2898 2932 2929 2895 2930 2959
8 2898 2860 2899 2933 2930 2896 2931 2960
8 2900 2862 2901 2934 2932 2898 2933 2961
8 2936 2903 2885 2921 2963 2935 2920 2951
8 2936 2903 2935 2963 2906 2868 2905 2939
8 2937 2904 2886 2922 2964 2936 2921 2952
8 2937 2904 2936 2964 2907 2869 2906 2940
8 2939 2905 2938 2966 2909 2870 2908 2942
8 2940 2906 2939 2967 2910 2871 2909 2943
8 2942 2908 2941 2969 2912 2873 2911 2945
8 2943 2909 2942 2970 2913 2874 2912 2946
8 2945 2911 2944 2971 2915 2876 2914 2947
8 2946 2912 2945 2972 2916 2877 2915 2948
8 2948 2915 2947 2973 2918 2880 2917 2949
8 2951 2920 2888 2924 2975 2950 2923 2954
8 2952 2921 2889 2925 2976 2951 2924 2955
8 2927 2893 2928 2957 2954 2923 2953 2978
8 2955 2924 2892 2926 2979 2954 2927 2956
8 2929 2895 2930 2959 2956 2927 2957 2980
8 2930 2896 2931 2960 2957 2928 2958 2981
8 2932 2898 2933 2961 2959 2930 2960 2982
8 2951 2920 2950 2975 2963 2935 2962 2984
8 2963 2935 2962 2984 2939 2905 2938 2966
8 2964 2936 2921 2952 2985 2963 2951 2976
8 2964 2936 2963 2985 2940 2906 2939 2967
8 2966 2938 2965 2987 2942 2908 2941 2969
8 2967 2939 2966 2988 2943 2909 2942 2970
8 2969 2941 2968 2989 2945 2911 2944 2971
8 2970 2942 2969 2990 2946 2912 2945 2972
8 2972 2945 2971 2991 2948 2915 2947 2973
8 2954 2923 2953 2978 2975 2950 2974 2993
8 2976 2951 2924 2955 2994 2975 2954 2979
8 2957 2928 2958 2981 2978 2953 2977 2995
8 2956 2927 2957 2980 2979 2954 2978 2996
8 2959 2930 2960 2982 2980 2957 2981 2997
8 2984 2962 2983 2999 2966 2938 2965 2987
8 2975 2950 2974 2993 2984 2962 2983 2999
8 2976 2951 2975 2994 2985 2963 2984 3000
8 2985 2963 2984 3000 2967 2939 2966 2988
8 2987 2965 2986 3001 2969 2941 2968 2989
8 2988 2966 2987 3002 2970 2942 2969 2990
8 2990 2969 2989 3003 2972 2945 2971 2991
8 2978 2953 2977 2995 2993 2974 2992 3004
8 2979 2954 2978 2996 2994 2975 2993 3005
8 2980 2957 2981 2997 2996 2978 2995 3006
8 2974 2993 2999 2983 2992 3004 3007 2998
8 2983 2999 2987 2965 2998 3007 3001 2986
8 3000 2984 2999 3008 2988 2966 2987 3002
8 2994 2975 2993 3005 3000 2984 2999 3008
8 3002 2987 3001 3009 2990 2969 2989 3003
8 2996 2978 2995 3006 3005 2993 3004 3010
8 3005 2993 3004 3010 3008 2999 3007 3011
8 3008 2999 3007 3011 3002 2987 3001 3009

CELL_TYPES 1910
12
12
12
12
12
12
12
12
12
12
12
12
12
12
12
12
12
12
12
12
12
12
12
12
12
12
12
12
12
12
12
12
12
12
12
12
12
12
12
12
12
12
12
12
12
12
12
12
12
12
12
12
12
12
12
12
12
12
12
12
12
12
12
12
12
12
12
12
12
12
12
12
12
12
12
12
12
12
12
12
12
12
12
12
12
12
12
12
12
12
12
12
12
12
12
12
12
12
12
12
12
12
12
12
12
12
12
12
12
12
12
12
12
12
12
12
12
12
12
12
12
12
12
12
12
12
12
12
12
12
12
12
12
12
12
12
12
12
12
12
12
12
12
12
12
12
12
12
12
12
12
12
12
12
12
12
12
12
12
12
12
12
12
12
12
12
12
12
12
12
12
12
12
12
12
12
12
12
12
12
12
12
12
12
12
12
12
12
12
12
12
12
12
12
12
12
12
12
12
12
12
12
12
12
12
12
12
12
12
12
12
12
12
12
12
12
12
12
12
12
12
12
12
12
12
12
12
12
12
12
12
12
12
12
12
12
12
12
12
12
12
12
12
12
12
12
12
12
12
12
12
12
12
12
12
12
12
12
12
12
12
12
12
12
12
12
12
12
12
12
12
12
12
12
12
12
12
12
12
12
12
12
12
12
12
12
12
12
12
12
12
12
12
12
12
12
12
12
12
12
12
12
12
12
12
12
12
12
12
12
12
12
12
12
12
12
12
12
12
12
12
12
12
12
12
12
12
12
12
12
12
12
12
12
12
12
12
12
12
12
12
12
12
12
12
12
12
12
12
12
12
12
12
12
12
12
12
12
12
12
12
12
12
12
12
12
12
12
12
12
12
12
12
12
12
12
12
12
12
12
12
12
12
12
12
12
12
12
12
12
12
12
12
12
12
12
12
12
12
12
12
12
12
12
12
12
12
12
12
12
12
12
12
12
12
12
12
12
12
12
12
12
12
12
12
12
12
12
12
12
12
12
12
12
12
12
12
12
12
12
12
12
12
12
12
12
12
12
12
12
12
12
12
12
12
12
12
12
12
12
12
12
12
12
12
12
12
12
12
12
12
12
12
12
12
12
12
12
12
12
12
12
12
12
12
12
12
12
12
12
12
12
12
12
12
12
12
12
12
12
12
12
12
12
12
12
12
12
12
12
12
12
12
12
12
12
12
12
12
12
12
12
12
12
12
12
12
12
12
12
12
12
12
12
12
12
12
12
12
12
12
12
12
12
12
12
12
12
12
12
12
12
12
12
12
12
12
12
12
12
12
12
12
12
12
12
12
12
12
12
12
12
12
12
12
12
12
12
12
12
12
12
12
12
12
12
12
12
12
12
12
12
12
12
12
12
12
12
12
12
12
12
12
12
12
12
12
12
12
12
12
12
12
12
12
12
12
12
12
12
12
12
12
12
12
12
12
12
12
12
12
12
12
12
12
12
12
12
12
12
12
12
12
12
12
12
12
12
12
12
12
12
12
12
12
12
12
12
12
12
12
12
12
12
12
12
12
12
12
12
12
12
12
12
12
12
12
12
12
12
12
12
12
12
12
12
12
12
12
12
12
12
12
12
12
12
12
12
12
12
12
12
12
12
12
12
12
12
12
12
12
12
12
12
12
12
12
12
12
12
12
12
12
12
12
12
12
12
12
12
12
12
12
12
12
12
12
12
12
12
12
12
12
12
12
12
12
12
12
12
12
12
12
12
12
12
12
12
12
12
12
12
12
12
12
12
12
12
12
12
12
12
12
12
12
12
12
12
12
12
12
12
12
12
12
12
12
12
12
12
12
12
12
12
12
12
12
12
12
12
12
12
12
12
12
12
12
12
12
12
12
12
12
12
12
12
12
12
12
12
12
12
12
12
12
12
12
12
12
12
12
12
12
12
12
12
12
12
12
12
12
12
12
12
12
12
12
12
12
12
12
12
12
12
12
12
12
12
12
12
12
12
12
12
12
12
12
12
12
12
12
12
12
12
12
12
12
12
12
12
12
12
12
12
12
12
12
12
12
12
12
12
12
12
12
12
12
12
12
12
12
12
12
12
12
12
12
12
12
12
12
12
12
12
12
12
12
12
12
12
12
12
12
12
12
12
12
12
12
12
12
12
12
12
12
12
12
12
12
12
12
12
12
12
12
12
12
12
12
12
12
12
12
12
12
12
12
12
12
12
12
12
12
12
12
12
12
12
12
12
12
12
12
12
12
12
12
12
12
12
12
12
12
12
12
12
12
12
12
12
12
12
12
12
12
12
12
12
12
12
12
12
12
12
12
12
12
12
12
12
12
12
12
12
12
12
12
12
12
12
12
12
12
12
12
12
12
12
12
12
12
12
12
12
12
12
12
12
12
12
12
12
12
12
12
12
12
12
12
12
12
12
12
12
12
12
12
12
12
12
12
12
12
12
12
12
12
12
12
12
12
12
12
12
12
12
12
12
12
12
12
12
12
12
12
12
12
12
12
12
12
12
12
12
12
12
12
12
12
12
12
12
12
12
12
12
12
12
12
12
12
12
12
12
12
12
12
12
12
12
12
12
12
12
12
12
12
12
12
12
12
12
12
12
12
12
12
12
12
12
12
12
12
12
12
12
12
12
12
12
12
12
12
12
12
12
12
12
12
12
12
12
12
12
12
12
12
12
12
12
12
12
12
12
12
12
12
12
12
12
12
12
12
12
12
12
12
12
12
12
12
12
12
12
12
12
12
12
12
12
12
12
12
12
12
12
12
12
12
12
12
12
12
12
12
12
12
12
12
12
12
12
12
12
12
12
12
12
12
12
12
12
12
12
12
12
12
12
12
12
12
12
12
12
12
12
12
12
12
12
12
12
12
12
12
12
12
12
12
12
12
12
12
12
12
12
12
12
12
12
12
12
12
12
12
12
12
12
12
12
12
12
12
12
12
12
12
12
12
12
12
12
12
12
12
12
12
12
12
12
12
12
12
12
12
12
12
12
12
12
12
12
12
12
12
12
12
12
12
12
12
12
12
12
12
12
12
12
12
12
12
12
12
12
12
12
12
12
12
12
12
12
12
12
12
12
12
12
12
12
12
12
12
12
12
12
12
12
12
12
12
12
12
12
12
12
12
12
12
12
12
12
12
12
12
12
12
12
12
12
12
12
12
12
12
12
12
12
12
12
12
12
12
12
12
12
12
12
12
12
12
12
12
12
12
12
12
12
12
12
12
12
12
12
12
12
12
12
12
12
12
12
12
12
12
12
12
12
12
12
12
12
12
12
12
12
12
12
12
12
12
12
12
12
12
12
12
12
12
12
12
12
12
12
12
12
12
12
12
12
12
12
12
12
12
12
12
12
12
12
12
12
12
12
12
12
12
12
12
12
12
12
12
12
12
12
12
12
12
12
12
12
12
12
12
12
12
12
12
12
12
12
12
12
12
12
12
12
12
12
12
12
12
12
12
12
12
12
12
12
12
12
12
12
12
12
12
12
12
12
12
12
12
12
12
12
12
12
12
12
12
12
12
12
12
12
12
12
12
12
12
12
12
12
12
12
12
12
12
12
12
12
12
12
12
12
12
12
12
12
12
12
12
12
12
12
12
12
12
12
12
12
12
12
12
12
12
12
12
12
12
12
12
12
12
12
12
12
12
12
12
12
12
12
12
12
12
12
12
12
12
12
12
12
12
12
12
12
12
12
12
12
12
12
12
12
12
12
12
12
12
12
12
12
12
12
12
12
12
12
12
12
12
12
12
12
12
12
12
12
12
12
12
12
12
12
12
12
12
12
12
12
12
12
12
12
12
12
12
12
12
12
12
12
12
12
12
12
12
12
12
12
12
12
12
12
12
12
12
12
12
12
12
12
12
12
12
12
12
12
12
12
12
12
12
12
12
12
12
12
12
12
12
12
12
12
12
12
12
12
12
12
12
12
12
12
12
12
12
12
12
12
12
12
12
12
12
12
12
12
12
12
12
12
12
12
12
12
12
12
12
12
12
12
12
12
12
12
12
12
12
12
12
12
12
12
12
12
12
12
12
12
12
12
12
12
12
12
12
12
12
12
12
12
12
12
12
12
12
12
12
12
12
12
12
12
12
12
12
12
12
12
12
12
12
12
12
12
12
12
12
12
12
12
12
12
12
12
12
12
12
12
12
12
12
12
12
12
12
12
12
12
12
12
12
12
12
12
12
12
12
12
12
12
12
12
12
12
12
12
12
12
12
12
12
12
12
12
12
12
12
12
12
12
12
12
12
12
12
12
12
12
12
12
12
12
12
12
12
12
12
12
12
12
12
12
12
12
12
12
12
12
12
12
12
12
12
12
12
12
12
12
12
12
12
12
12
12
12
12

POINT_DATA 3012
SCALARS Jp_lamdaP float 4
LOOKUP_TABLE default
1 1 1 1
1 1 1 1
1 1 1 1
0.999988 1 1 0.999988
0.999998 1 1 0.999998
1 1 1 1
0.999886 1 1 0.999886
1 1 1 1
1 1 1 1
1 1 1 1
1 1 1 1
0.999966 1 1 0.999966
0.999973 1 1 0.999973
0.99999 1 1 0.99999
1 1 1 1
0.99999 1 1 0.99999
1 1 1 1
0.999999 1 1 0.999999
0.999888 1 1 0.999888
1 1 1 1
0.999985 1 1 0.999985
0.999994 1 1 0.999994
0.999805 1 1 0.999805
0.999863 1 1 0.999863
1 1 1 1
0.999912 1 1 0.999912
0.999679 1 1 0.999679
1 1 1 1
0.999998 1 1 0.999998
1 1 1 1
1 1 1 1
0.99997 1 1 0.99997
0.999995 1 1 0.999995
1 1 1 1
0.99991 1 1 0.99991
1 1 1 1
0.999953 1 1 0.999953
0.999981 1 1 0.999981
0.999727 1 1 0.999727
1 1 1 1
1 1 1 1
0.999994 1 1 0.999994
1 1 1 1
0.999985 1 1 0.999985
0.999799 1 1 0.999799
1 1 1 1
0.999866 1 1 0.999866
0.999992 1 1 0.999992
0.999999 1 1 0.999999
1 1 1 1
0.999889 1 1 0.999889
0.999988 1 1 0.999988
0.999987 1 1 0.999987
1 1 1 1
0.999996 1 1 0.999996
0.999807 1 1 0.999807
0.999912 1 1 0.999912
0.999865 1 1 0.999865
0.999671 1 1 0.999671
1 1 1 1
0.999981 1 1 0.999981
0.999827 1 1 0.999827
0.99979 1 1 0.99979
0.999835 1 1 0.999835
0.999486 1 1 0.999486
0.999599 1 1 0.999599
1 1 1 1
0.999943 1 1 0.999943
0.999736 1 1 0.999736
0.999423 1 1 0.999423
1 1 1 1
1 1 1 1
1 1 1 1
0.999974 1 1 0.999974
1 1 1 1
1 1 1 1
0.999914 1 1 0.999914
1 1 1 1
0.999956 1 1 0.999956
0.999986 1 1 0.999986
0.999726 1 1 0.999726
1 1 1 1
1 1 1 1
0.999887 1 1 0.999887
0.999932 1 1 0.999932
0.999563 1 1 0.999563
0.999995 1 1 0.999995
0.999701 1 1 0.999701
0.999754 1 1 0.999754
0.999544 1 1 0.999544
1 1 1 1
1 1 1 1
1 1 1 1
1 1 1 1
1 1 1 1
0.99999 1 1 0.99999
0.999814 1 1 0.999814
0.999996 1 1 0.999996
0.999866 1 1 0.999866
1 1 1 1
0.999772 1 1 0.999772
0.999846 1 1 0.999846
0.999328 1 1 0.999328
0.999879 1 1 0.999879
0.999402 1 1 0.999402
0.999978 1 1 0.999978
0.999989 1 1 0.999989
1 1 1 1
0.999997 1 1 0.999997
0.999809 1 1 0.999809
0.999867 1 1 0.999867
0.999913 1 1 0.999913
0.999664 1 1 0.999664
1 1 1 1
0.999984 1 1 0.999984
0.999785 1 1 0.999785
0.99979 1 1 0.99979
1 1 1 1
0.999959 1 1 0.999959
0.999837 1 1 0.999837
0.99947 1 1 0.99947
0.999727 1 1 0.999727
0.999609 1 1 0.999609
0.999424 1 1 0.999424
0.999784 1 1 0.999784
0.999783 1 1 0.999783
0.999376 1 1 0.999376
0.999428 1 1 0.999428
0.999525 1 1 0.999525
0.999234 1 1 0.999234
1 1 1 1
0.999376 1 1 0.999376
0.999994 1 1 0.999994
0.999752 1 1 0.999752
0.999469 1 1 0.999469
0.999319 1 1 0.999319
1 1 1 1
0.999845 1 1 0.999845
1 1 1 1
1 1 1 1
0.999919 1 1 0.999919
1 1 1 1
0.999991 1 1 0.999991
0.99996 1 1 0.99996
0.999725 1 1 0.999725
1 1 1 1
1 1 1 1
0.999893 1 1 0.999893
0.999938 1 1 0.999938
0.999564 1 1 0.999564
0.999997 1 1 0.999997
0.999702 1 1 0.999702
0.999754 1 1 0.999754
0.999538 1 1 0.999538
1 1 1 1
1 1 1 1
0.999863 1 1 0.999863
0.999491 1 1 0.999491
0.999644 1 1 0.999644
0.999347 1 1 0.999347
0.999792 1 1 0.999792
0.999514 1 1 0.999514
0.99956 1 1 0.99956
0.999466 1 1 0.999466
1 1 1 1
1 1 1 1
1 1 1 1
1 1 1 1
1 1 1 1
1 1 1 1
1 1 1 1
0.999864 1 1 0.999864
0.99981 1 1 0.99981
1 1 1 1
1 1 1 1
0.999774 1 1 0.999774
0.999846 1 1 0.999846
0.999328 1 1 0.999328
0.999877 1 1 0.999877
0.999403 1 1 0.999403
0.999763 1 1 0.999763
0.999283 1 1 0.999283
0.999371 1 1 0.999371
0.999117 1 1 0.999117
0.999439 1 1 0.999439
0.999198 1 1 0.999198
1 1 1 1
0.999986 1 1 0.999986
0.999741 1 1 0.999741
0.999791 1 1 0.999791
1 1 1 1
0.999976 1 1 0.999976
0.999839 1 1 0.999839
0.999454 1 1 0.999454
0.99962 1 1 0.99962
0.999719 1 1 0.999719
0.999425 1 1 0.999425
0.999782 1 1 0.999782
0.999784 1 1 0.999784
0.999344 1 1 0.999344
0.99944 1 1 0.99944
1 1 1 1
0.99999 1 1 0.99999
0.999766 1 1 0.999766
0.999527 1 1 0.999527
0.999215 1 1 0.999215
0.999466 1 1 0.999466
0.999384 1 1 0.999384
0.999321 1 1 0.999321
1 1 1 1
0.999845 1 1 0.999845
0.999293 1 1 0.999293
0.999412 1 1 0.999412
0.999153 1 1 0.999153
0.99916 1 1 0.99916
0.999319 1 1 0.999319
0.999141 1 1 0.999141
0.999999 1 1 0.999999
0.999276 1 1 0.999276
0.999775 1 1 0.999775
0.999529 1 1 0.999529
0.999364 1 1 0.999364
0.999287 1 1 0.999287
0.999806 1 1 0.999806
0.999895 1 1 0.999895
0.999615 1 1 0.999615
0.999895 1 1 0.999895
1 1 1 1
1 1 1 1
0.999944 1 1 0.999944
0.999566 1 1 0.999566
0.999999 1 1 0.999999
0.999754 1 1 0.999754
0.999702 1 1 0.999702
0.999532 1 1 0.999532
1 1 1 1
1 1 1 1
0.999863 1 1 0.999863
0.999492 1 1 0.999492
0.999646 1 1 0.999646
0.999347 1 1 0.999347
0.999792 1 1 0.999792
0.999521 1 1 0.999521
0.999559 1 1 0.999559
0.999458 1 1 0.999458
1 1 1 1
0.999826 1 1 0.999826
0.999905 1 1 0.999905
0.999648 1 1 0.999648
0.999277 1 1 0.999277
0.999447 1 1 0.999447
0.99924 1 1 0.99924
0.999596 1 1 0.999596
0.999436 1 1 0.999436
0.99944 1 1 0.99944
0.999398 1 1 0.999398
0.999978 1 1 0.999978
1 1 1 1
1 1 1 1
1 1 1 1
1 1 1 1
1 1 1 1
1 1 1 1
1 1 1 1
1 1 1 1
0.999879 1 1 0.999879
0.999843 1 1 0.999843
0.999403 1 1 0.999403
0.999329 1 1 0.999329
0.999776 1 1 0.999776
1 1 1 1
0.999763 1 1 0.999763
0.999283 1 1 0.999283
0.999371 1 1 0.999371
0.999117 1 1 0.999117
0.99944 1 1 0.99944
0.999198 1 1 0.999198
0.999271 1 1 0.999271
0.99907 1 1 0.99907
0.999162 1 1 0.999162
0.999056 1 1 0.999056
0.999234 1 1 0.999234
0.999129 1 1 0.999129
0.99978 1 1 0.99978
0.999784 1 1 0.999784
0.999313 1 1 0.999313
0.999451 1 1 0.999451
1 1 1 1
0.999987 1 1 0.999987
0.999779 1 1 0.999779
0.999528 1 1 0.999528
0.999196 1 1 0.999196
0.999392 1 1 0.999392
0.999463 1 1 0.999463
0.999322 1 1 0.999322
1 1 1 1
0.999845 1 1 0.999845
0.999282 1 1 0.999282
0.999411 1 1 0.999411
0.999145 1 1 0.999145
0.99918 1 1 0.99918
0.999998 1 1 0.999998
0.999775 1 1 0.999775
0.999542 1 1 0.999542
0.999318 1 1 0.999318
0.999137 1 1 0.999137
0.999349 1 1 0.999349
0.999276 1 1 0.999276
0.999286 1 1 0.999286
0.999807 1 1 0.999807
0.999611 1 1 0.999611
0.999895 1 1 0.999895
0.999113 1 1 0.999113
0.999168 1 1 0.999168
0.999046 1 1 0.999046
0.999087 1 1 0.999087
0.999216 1 1 0.999216
0.999143 1 1 0.999143
0.999789 1 1 0.999789
0.999254 1 1 0.999254
0.999598 1 1 0.999598
0.999407 1 1 0.999407
0.999274 1 1 0.999274
0.999316 1 1 0.999316
0.999938 1 1 0.999938
0.999613 1 1 0.999613
0.999627 1 1 0.999627
0.999526 1 1 0.999526
0.999493 1 1 0.999493
1 1 1 1
1 1 1 1
0.999863 1 1 0.999863
0.999648 1 1 0.999648
0.999347 1 1 0.999347
0.999792 1 1 0.999792
0.999558 1 1 0.999558
0.999528 1 1 0.999528
0.999449 1 1 0.999449
1 1 1 1
0.999825 1 1 0.999825
0.999906 1 1 0.999906
0.999647 1 1 0.999647
0.999276 1 1 0.999276
0.999449 1 1 0.999449
0.99924 1 1 0.99924
0.999596 1 1 0.999596
0.999444 1 1 0.999444
0.999436 1 1 0.999436
0.99942 1 1 0.99942
1 1 1 1
0.999936 1 1 0.999936
0.999626 1 1 0.999626
0.999683 1 1 0.999683
0.999525 1 1 0.999525
0.999181 1 1 0.999181
0.999349 1 1 0.999349
0.999201 1 1 0.999201
0.999465 1 1 0.999465
0.999386 1 1 0.999386
0.999311 1 1 0.999311
0.999968 1 1 0.999968
0.999814 1 1 0.999814
0.999985 1 1 0.999985
0.99998 1 1 0.99998
1 1 1 1
1 1 1 1
1 1 1 1
1 1 1 1
1 1 1 1
1 1 1 1
1 1 1 1
1 1 1 1
1 1 1 1
1 1 1 1
1 1 1 1
0.99944 1 1 0.99944
0.999371 1 1 0.999371
0.999199 1 1 0.999199
0.999117 1 1 0.999117
0.999283 1 1 0.999283
0.999762 1 1 0.999762
0.99927 1 1 0.99927
0.99907 1 1 0.99907
0.999162 1 1 0.999162
0.999051 1 1 0.999051
0.999233 1 1 0.999233
0.999129 1 1 0.999129
0.999056 1 1 0.999056
0.99914 1.00013 1 0.999009
0.99909 1 1 0.99909
0.999148 1.00011 1 0.999042
0.999157 1 1 0.999157
0.999154 1 1 0.999154
0.999271 1 1 0.999271
0.999411 1 1 0.999411
0.999137 1 1 0.999137
0.9992 1 1 0.9992
0.999997 1 1 0.999997
0.999775 1 1 0.999775
0.999556 1 1 0.999556
0.999318 1 1 0.999318
0.999132 1 1 0.999132
0.999276 1 1 0.999276
0.999335 1 1 0.999335
0.999286 1 1 0.999286
0.999808 1 1 0.999808
0.999608 1 1 0.999608
0.999894 1 1 0.999894
0.999096 1 1 0.999096
0.999168 1 1 0.999168
0.999037 1 1 0.999037
0.999091 1 1 0.999091
0.999789 1 1 0.999789
0.999597 1 1 0.999597
0.999422 1 1 0.999422
0.999223 1 1 0.999223
0.999149 1 1 0.999149
0.999263 1 1 0.999263
0.999255 1 1 0.999255
0.999322 1 1 0.999322
0.999614 1 1 0.999614
0.999516 1 1 0.999516
0.999935 1 1 0.999935
0.999634 1 1 0.999634
0.999003 1 1 0.999003
0.999063 1 1 0.999063
0.998998 1 1 0.998998
0.999074 1 1 0.999074
0.999211 1 1 0.999211
0.99917 1 1 0.999167
0.999615 1 1 0.999615
0.999316 1 1 0.999316
0.999488 1 1 0.999488
0.999306 1 1 0.999306
0.999212 1 1 0.999212
0.999319 1 1 0.999319
0.999958 1 1 0.999958
0.999676 1 1 0.999676
0.999529 1 1 0.999529
0.999517 1 1 0.999517
0.999482 1 1 0.999482
1 1 1 1
0.999274 1 1 0.999274
0.999908 1 1 0.999908
0.999825 1 1 0.999825
0.999646 1 1 0.999646
0.99945 1 1 0.99945
0.99924 1 1 0.99924
0.999597 1 1 0.999597
0.999432 1 1 0.999432
0.999453 1 1 0.999453
0.999441 1 1 0.999441
1 1 1 1
0.999939 1 1 0.999939
0.999625 1 1 0.999625
0.999682 1 1 0.999682
0.99952 1 1 0.99952
0.99918 1 1 0.99918
0.999349 1 1 0.999349
0.999197 1 1 0.999197
0.999466 1 1 0.999466
0.999392 1 1 0.999392
0.999322 1 1 0.999322
0.999955 1 1 0.999955
0.999723 1 1 0.999723
0.999499 1 1 0.999499
0.999548 1 1 0.999548
0.999461 1 1 0.999461
0.999158 1 1 0.999158
0.999302 1 1 0.999302
0.999254 1 1 0.999254
0.999439 1 1.00009 0.999345
0.99925 1 1 0.99925
0.999971 1 1 0.999971
0.999766 1 1 0.999766
0.999801 1 1 0.999801
0.999688 1 1 0.999688
0.999824 1 1 0.999824
0.99999 1 1 0.99999
0.999987 1 1 0.999987
1 1 1 1
0.999982 1 1 0.999982
1 1 1 1
1 1 1 1
1 1 1 1
1 1 1 1
1 1 1 1
1 1 1 1
1 1 1 1
1 1 1 1
1 1 1 1
1 1 1 1
1 1 1 1
0.999232 1 1 0.999232
0.999162 1 1 0.999162
0.999129 1 1 0.999129
0.999047 1 1 0.999047
0.99907 1 1 0.99907
0.99927 1 1 0.99927
0.999056 1 1 0.999056
0.999134 1.00013 1 0.999002
0.999091 1 1 0.999091
0.999132 1.00009 1 0.99904
0.999156 1 1 0.999156
0.999153 1 1 0.999153
0.999076 1.00009 1 0.998981
0.999995 1.001 1 0.998991
0.999095 1.00001 1 0.999086
0.999415 1.00038 1 0.999032
0.999162 1 1 0.999162
0.99921 1.00004 1 0.999174
0.99908 1 1 0.99908
0.999168 1 1 0.999168
0.999028 1 1 0.999028
0.999095 1 1 0.999095
0.99979 1 1 0.99979
0.999595 1 1 0.999595
0.999437 1 1 0.999437
0.999229 1 1 0.999229
0.999155 1 1 0.999155
0.999255 1 1 0.999255
0.999251 1 1 0.999251
0.999327 1 1 0.999327
0.999616 1 1 0.999616
0.999506 1 1 0.999506
0.999932 1 1 0.999932
0.99964 1 1 0.99964
0.999041 1.00004 1 0.999004
0.999066 1 1 0.999066
0.998999 1 1 0.998999
0.999076 1 1 0.999076
0.999615 1 1 0.999615
0.9995 1 1 0.9995
0.999305 1 1 0.999305
0.999207 1 1 0.999207
0.999199 1 1 0.999195
0.999206 1 1 0.999206
0.999318 1 1 0.999318
0.999337 1 1 0.999337
0.99953 1 1 0.99953
0.999479 1 1 0.999479
0.999514 1 1 0.999514
0.99994 1 1 0.99994
0.999683 1 1 0.999683
0.999305 1.00034 1 0.998967
0.999014 1.00002 1 0.998993
0.999138 1.00005 1 0.99909
0.999254 1 1 0.99925
0.999537 1 1 0.999537
0.999386 1.00002 1 0.99937
0.999412 1 1 0.999412
0.999173 1 1 0.999173
0.999157 1 1 0.999157
0.999941 1 1 0.999941
0.99975 1 1 0.99975
0.99956 1 1 0.99956
0.999501 1 1 0.999501
0.999431 1 1 0.999431
0.999448 1 1 0.999448
1 1 1 1
0.999941 1 1 0.999941
0.999178 1 1 0.999178
0.999682 1 1 0.999682
0.999625 1 1 0.999625
0.999516 1 1 0.999516
0.99935 1 1 0.99935
0.999194 1 1 0.999194
0.999468 1 1 0.999468
0.999332 1 1 0.999332
0.999397 1 1 0.999397
0.999958 1 1 0.999958
0.999723 1 1 0.999723
0.999506 1 1 0.999506
0.999547 1 1 0.999547
0.999452 1 1 0.999452
0.999156 1 1 0.999156
0.999298 1 1 0.999298
0.99926 1 1 0.99926
0.999388 1 1.00005 0.999339
0.999232 1 1 0.999232
0.999757 1 1 0.999757
0.999561 1 1 0.999561
0.999511 1 1.0001 0.999412
0.999444 1 1 0.999444
0.999399 1 1 0.999399
0.999283 1 1 0.999283
0.999215 1 1 0.999215
0.999244 1 1 0.999244
0.999733 1 1.00047 0.99926
0.999092 1 1 0.999092
0.999974 1 1 0.999974
0.999775 1 1 0.999775
0.999625 1 1 0.999625
0.999789 1 1 0.999789
0.999824 1 1 0.999824
0.999671 1 1 0.999671
0.999577 1 1 0.999577
0.999667 1 1 0.999667
0.999834 1 1 0.999834
0.999992 1 1 0.999992
0.999991 1 1 0.999991
1 1 1 1
0.999988 1 1 0.999988
1 1 1 1
1 1 1 1
1 1 1 1
1 1 1 1
1 1 1 1
1 1 1 1
1 1 1 1
1 1 1 1
1 1 1 1
1 1 1 1
1 1 1 1
0.999154 1 1 0.999154
0.999091 1 1 0.999091
0.999152 1 1 0.999152
0.999114 1.00008 1 0.999039
0.999128 1.00013 1 0.998996
0.999056 1 1 0.999056
0.999111 1.00013 1 0.998979
0.999862 1.00087 1 0.998993
0.999083 1 1 0.99908
0.99935 1.00032 1 0.999027
0.999162 1 1 0.999162
0.999203 1.00001 1 0.99919
1.00042 1.00145 1 0.998965
1.00054 1.00154 1 0.999006
0.999526 1.00044 1 0.999084
0.999246 1.00001 1 0.99924
0.999076 1.00007 1 0.999004
0.999068 1 1 0.999068
0.999 1 1 0.999
0.999077 1 1 0.999077
0.999615 1 1 0.999615
0.999512 1 1 0.999512
0.999303 1 1 0.999303
0.999203 1 1 0.999203
0.999223 1 1 0.999223
0.999319 1 1 0.999319
0.9992 1 1 0.9992
0.999355 1 1 0.999355
0.99953 1 1 0.99953
0.999476 1 1 0.999476
0.999512 1 1 0.999512
0.999922 1 1 0.999922
0.999689 1 1 0.999689
0.99926 1.00029 1 0.99897
0.999101 1.0001 1 0.998998
0.999172 1.00007 1 0.999101
0.999536 1 1 0.999536
0.999427 1 1 0.999427
0.99917 1 1 0.99917
0.999246 1.00001 1 0.99924
0.999184 1 1 0.999184
0.999373 1 1 0.999369
0.999941 1 1 0.999941
0.9995 1 1 0.9995
0.999457 1 1 0.999457
0.99943 1 1 0.99943
0.999566 1 1 0.999566
0.999737 1 1 0.999737
0.99971 1.00074 1 0.998966
0.999406 1.00042 1 0.998984
0.999428 1.00029 1 0.999138
0.999677 1.00037 1 0.999311
0.99949 1 1 0.99949
0.999226 1 1 0.999226
0.999267 1 1 0.999267
0.999216 1 1.00015 0.99907
0.999955 1 1 0.999955
0.999788 1 1 0.999788
0.99961 1 1 0.99961
0.99943 1 1 0.99943
0.999459 1 1 0.999459
0.999396 1 1 0.999396
0.999961 1 1 0.999961
0.999723 1 1 0.999723
0.999154 1 1 0.999154
0.999546 1 1 0.999546
0.999513 1 1 0.999513
0.999443 1 1 0.999443
0.999295 1 1 0.999295
0.999267 1 1 0.999267
0.999332 1 1 0.999332
0.999214 1 1 0.999214
0.999758 1 1 0.999758
0.999566 1 1 0.999566
0.99947 1 1.00005 0.999423
0.99945 1 1 0.99945
0.999402 1 1 0.999402
0.999299 1.00002 1 0.999281
0.99922 1 1 0.99922
0.999296 1 1 0.999296
0.999748 1 1.0005 0.999251
0.999097 1 1.00003 0.999068
0.999597 1 1 0.999597
0.999442 1 1 0.999442
0.999781 1 1.00045 0.999331
0.999354 1 1 0.999354
1.00032 1.00107 1 0.999254
1.00044 1.00124 0.999872 0.999321
0.999071 1 1 0.999071
1.00108 1 1.00202 0.999063
0.999784 1 1 0.999784
0.999633 1 1 0.999633
0.999538 1 1 0.999538
0.999824 1 1 0.999824
0.999653 1 1 0.999653
0.999834 1 1 0.999834
0.999564 1 1 0.999564
0.999673 1 1 0.999673
0.999489 1 1 0.999489
0.999563 1 1 0.999563
0.999677 1 1 0.999677
0.999839 1 1 0.999839
0.999992 1 1 0.999992
0.999992 1 1 0.999992
1 1 1 1
0.999991 1 1 0.999991
1 1 1 1
1 1 1 1
1 1 1 1
1 1 1 1
1 1 1 1
1 1 1 1
1 1 1 1
1 1 1 1
1 1 1 1
1 1 1 1
1 1 1 1
0.999163 1 1 0.999163
0.999073 1 1 0.999073
0.999206 1 1 0.999206
0.999287 1.00027 1 0.999022
0.999716 1.00072 1 0.998995
0.99915 1.00017 1 0.998976
1.00024 1.00127 1 0.99897
1.00047 1.00147 1 0.999006
0.99961 1.00052 1 0.999091
0.999265 1.00003 1 0.999235
1.0012 1.00222 1 0.998985
1.00133 1.00228 1 0.999053
1.00005 1.0009 1 0.999157
0.999216 1.00024 1 0.998973
0.999175 1.00017 1 0.999002
0.999207 1.0001 1 0.999112
0.999535 1 1 0.999535
0.999442 1 1 0.999442
0.999227 1 1.00006 0.999167
0.999259 1.00003 1 0.999229
0.999368 1 1 0.999368
0.999212 1 1 0.999212
0.999499 1 1 0.999499
0.999465 1 1 0.999465
0.999429 1 1 0.999429
0.999941 1 1 0.999941
0.999572 1 1 0.999572
0.999724 1 1 0.999724
0.999908 1.00094 1 0.998968
0.99929 1.00031 1 0.998981
0.999359 1.00023 1 0.999125
0.999487 1 1 0.999487
0.999292 1 1 0.999292
0.999251 1 1.00018 0.999075
1.00027 1.00094 1 0.999325
0.999223 1 1 0.999223
0.999968 1 1 0.999968
0.999788 1 1 0.999788
0.999458 1 1 0.999458
0.999404 1 1 0.999404
0.999435 1 1 0.999435
0.9996 1 1 0.9996
1.00059 1.00159 1 0.998995
1.00032 1.00132 1 0.999002
1.00149 1.00233 0.999905 0.999259
1.00131 1.00197 1 0.99934
0.999417 1 1 0.999417
1.00028 1 1.00127 0.999011
0.999465 1 1.0003 0.999163
0.999993 1 1 0.999993
0.999862 1 1 0.999862
0.999791 1 1 0.999791
0.999624 1 1 0.999624
0.999476 1 1 0.999476
0.999341 1 1 0.999341
0.999445 1 1 0.999445
0.999393 1 1.00001 0.999384
0.999758 1 1 0.999758
0.999571 1 1 0.999571
0.99928 1 1 0.99928
0.999456 1 1 0.999456
0.999435 1 1 0.999435
0.999406 1 1 0.999406
0.999224 1 1 0.999224
0.999347 1 1 0.999347
0.999794 1 1.00055 0.999242
0.999044 1 1 0.999044
0.999593 1 1 0.999593
0.999451 1 1 0.999451
0.999854 1 1.00051 0.999341
0.999362 1 1 0.999362
1.00035 1.00111 1 0.999245
1.00013 1.00087 0.999949 0.99932
0.999168 1.00007 1 0.999095
1.00065 1 1.0016 0.999052
0.999503 1 1 0.999503
1.00035 1.00118 1 0.999169
0.999366 1 1 0.999366
0.999822 1 1.00058 0.999239
1.00328 1.00426 0.999722 0.999302
1.00033 1.00127 1 0.99906
1.00161 1 1.00265 0.998969
0.999641 1 1 0.999641
0.999538 1 1 0.999538
0.999456 1 1 0.999456
0.999834 1 1 0.999834
0.99968 1 1 0.99968
0.99955 1 1 0.99955
0.999839 1 1 0.999839
0.999676 1 1 0.999676
0.999478 1 1 0.999478
0.999577 1 1 0.999577
0.999423 1 1 0.999423
0.999476 1 1 0.999476
0.99959 1 1 0.99959
0.999695 1 1 0.999695
0.999837 1 1 0.999837
0.99999 1 1 0.99999
0.999991 1 1 0.999991
1 1 1 1
0.999992 1 1 0.999992
1 1 1 1
1 1 1 1
1 1 1 1
1 1 1 1
1 1 1 1
0.999998 1 1 0.999998
1 1 1 1
1 1 1 1
1 1 1 1
1 1 1 1
1 1 1 1
1 1 1 1
0.999276 1.00005 1 0.99923
0.999691 1.00059 1 0.999097
1.0004 1.0014 1 0.999006
1.00006 1.00109 1 0.998975
1.00127 1.00228 1 0.99899
1.00153 1.00249 1 0.999045
1.00017 1.001 1 0.999171
1.00132 1.00229 1 0.999035
1.0018 1.00271 1 0.99909
1.00017 1.00098 1 0.999195
1.00013 1.00116 1 0.998969
0.999183 1.0002 1 0.998979
0.999296 1.00018 1 0.999112
0.999485 1 1 0.999485
0.999316 1 1 0.999316
0.999144 1 1.00006 0.99908
1.00079 1.00145 1 0.999338
0.999221 1 1 0.999221
0.999457 1 1 0.999457
0.999412 1 1 0.999412
0.999439 1 1 0.999439
0.999981 1 1 0.999981
0.999789 1 1 0.999789
0.999589 1 1 0.999589
1.00041 1.00141 1 0.999
0.999991 1 1 0.999991
0.999853 1 1 0.999853
1.00035 1.00135 1 0.999002
1.00191 1.00268 1 0.999235
0.99943 1 1 0.99943
0.999909 1 1.00077 0.99914
0.999638 1 1.00062 0.999017
1.00087 1.00153 1 0.999339
0.999816 1 1 0.999816
0.999624 1 1 0.999624
0.999437 1 1 0.999437
0.999432 1 1.00002 0.999416
0.999325 1 1 0.999325
0.999478 1 1 0.999478
1.00135 1.0023 1 0.999045
1.00269 1.00361 1 0.999084
1.00363 1.00462 0.999601 0.999407
0.999228 1.00008 1 0.999144
0.999907 1 1.00053 0.999376
1.00229 1 1.00329 0.998995
0.999863 1 1 0.999863
0.999838 1 1 0.999838
0.999735 1 1 0.999735
0.999629 1 1 0.999629
0.999517 1 1 0.999517
0.999367 1 1 0.999367
0.999284 1 1.00002 0.999259
0.999422 1 1 0.999422
0.999588 1 1 0.999588
0.999459 1 1 0.999459
1.0005 1.00127 1 0.999236
0.999891 1.00057 1 0.999319
0.99937 1 1 0.99937
0.999896 1 1.00055 0.999351
0.999306 1.00015 1.00004 0.999118
1.00029 1 1.00125 0.999041
0.999502 1 1 0.999502
1.00046 1.00128 1 0.999185
0.999367 1 1 0.999367
1.00002 1 1.00079 0.999224
1.00249 1.00346 0.99974 0.999293
1.00075 1.00169 1 0.999066
1.00165 1 1.00268 0.99897
0.999404 1 1 0.999404
1.01086 1.01231 0.999313 0.99925
0.999297 1 1 0.999297
1.0015 1 1.0024 0.999098
1.00034 1.00403 0.997225 0.9991
1.00122 1.00012 1.00218 0.998927
1.00755 1.00981 0.998576 0.999186
0.999538 1 1 0.999538
0.999456 1 1 0.999456
0.999398 1 1 0.999398
0.999839 1 1 0.999839
0.999675 1 1 0.999675
0.999591 1 1 0.999591
0.999467 1 1 0.999467
0.999837 1 1 0.999837
0.999687 1 1 0.999687
0.99942 1 1 0.99942
0.999589 1 1 0.999589
0.999488 1 1 0.999488
0.999403 1 1 0.999403
0.999518 1 1 0.999518
0.999598 1 1 0.999598
0.999673 1 1 0.999673
0.999812 1 1 0.999812
0.999714 1 1 0.999714
0.999812 1 1 0.999812
0.999989 1 1 0.999989
0.99999 1 1 0.99999
1 1 1 1
0.999991 1 1 0.999991
1 1 1 1
1 1 1 1
1 1 1 1
1 1 1 1
1 1 1 1
1 1 1 1
0.999997 1 1 0.999997
1 1 1 1
1 1 1 1
1 1 1 1
1 1 1 1
1 1 1 1
1 1 1 1
1.00028 1.00109 1 0.999185
1.00175 1.00272 1 0.999036
1.00133 1.00234 1 0.998995
1.00152 1.00248 1 0.999034
1.00163 1.00253 1 0.999095
1.00001 1.00081 1 0.999204
1.00193 1.00281 1 0.999122
1.00767 1.01305 0.995381 0.999308
1.01073 1.01193 0.999501 0.999316
0.999896 1 1 0.999896
1.00024 1.00124 1 0.999005
1.00034 1.00133 1 0.999002
1.00225 1.00304 1 0.999211
0.999443 1 1 0.999443
1.00055 1 1.00143 0.999117
0.999192 1 1.00017 0.999024
1.00047 1.00113 1 0.999338
0.999429 1 1 0.999429
0.999448 1 1 0.999448
0.99931 1 1 0.99931
0.999988 1 1 0.999988
0.99948 1 1 0.99948
0.999842 1 1 0.999842
0.999623 1 1 0.999623
0.999843 1 1 0.999843
1.00124 1.0022 1 0.999042
0.999874 1 1 0.999874
0.999838 1 1 0.999838
0.999715 1 1 0.999715
1.00307 1.00399 1 0.999087
1.00246 1.00362 0.999469 0.999376
0.999728 1 1.00034 0.999383
1.00252 1 1.00353 0.998985
0.999422 1.00011 1.00016 0.999149
0.999643 1 1 0.999643
0.999511 1 1 0.999511
0.999405 1 1 0.999405
0.999402 1 1.00013 0.999276
0.999378 1 1 0.999378
1.00438 1.0053 1.00004 0.999043
1.00366 1.00709 0.997374 0.999222
1.00053 1.00159 0.999716 0.999229
1.00127 1 1.00224 0.999033
1.00213 1 1.00285 0.999283
0.999717 1 1 0.999717
0.999667 1 1 0.999667
0.999609 1 1 0.999609
0.999527 1 1 0.999527
0.99943 1 1 0.99943
0.999304 1 1 0.999304
1.00127 1 1.00204 0.99923
0.999501 1 1 0.999501
0.999368 1 1 0.999368
1.00054 1.00134 1 0.999201
1.00156 1.00257 0.999712 0.999284
1.00115 1.00208 1 0.999073
1.00018 1 1.00098 0.99921
1.00152 1 1.00255 0.998972
0.999414 1 1 0.999414
1.01038 1.01234 0.998798 0.999256
0.9993 1 1 0.9993
1.00136 1 1.00226 0.999101
1.00159 1.00463 0.99784 0.999132
1.00167 1.00008 1.00266 0.998922
1.00933 1.0119 0.998302 0.999155
0.999348 1 1 0.999348
0.999678 1.00946 0.991132 0.999173
0.999816 1 1.00055 0.999263
1.00485 1 1.00582 0.99903
1.00061 1.00055 1.00109 0.998966
0.958327 0.963882 0.998384 0.995847
1.00416 1.0005 1.00531 0.998352
0.991407 1.00982 0.982479 0.999269
0.927202 0.942762 0.985335 0.998133
0.930314 0.963723 0.966676 0.998611
0.999456 1 1 0.999456
0.999402 1 1 0.999402
0.999374 1 1 0.999374
0.999837 1 1 0.999837
0.999678 1 1 0.999678
0.999589 1 1 0.999589
0.999499 1 1 0.999499
0.999417 1 1 0.999417
0.999586 1 1 0.999586
0.999823 1 1 0.999823
0.999683 1 1 0.999683
0.99941 1 1 0.99941
0.999514 1 1 0.999514
0.999526 1 1 0.999526
0.999442 1 1 0.999442
0.999564 1 1 0.999564
0.999669 1 1 0.999669
0.999811 1 1 0.999811
0.999698 1 1 0.999698
0.999604 1 1 0.999604
0.999684 1 1 0.999684
0.999696 1 1 0.999696
0.999831 1 1 0.999831
0.999812 1 1 0.999812
0.999989 1 1 0.999989
0.999989 1 1 0.999989
1 1 1 1
0.99999 1 1 0.99999
1 1 1 1
1 1 1 1
1 1 1 1
1 1 1 1
1 1 1 1
1 1 1 1
1 1 1 1
1 1 1 1
0.999996 1 1 0.999996
1 1 1 1
1 1 1 1
1 1 1 1
1 1 1 1
1 1 1 1
1.00144 1.00234 1 0.999101
1.00165 1.00262 1 0.999034
0.999809 1.0006 1 0.999212
1.00908 1.01304 0.996768 0.999319
1.00185 1.00274 1 0.99912
1.01116 1.01221 0.999683 0.999279
1.01047 1.01142 1.00004 0.999026
0.978726 0.984914 0.995723 0.997986
1.01076 1.01221 0.999159 0.999411
0.999903 1 1 0.999903
0.999896 1 1 0.999896
0.999758 1 1 0.999758
0.999773 1 1 0.999773
1.00115 1.00212 1 0.999038
1.00354 1.00446 1 0.999091
1.00133 1.0025 0.999481 0.999345
0.999391 1 1 0.999391
1.00227 1 1.0033 0.998976
0.999417 1.00013 1.00013 0.999154
0.999389 1 1 0.999389
0.99956 1 1.00027 0.999293
0.999389 1 1 0.999389
0.999837 1 1 0.999837
0.999505 1 1 0.999505
0.999657 1 1 0.999657
0.999885 1 1 0.999885
0.999695 1 1 0.999695
1.00358 1.00449 1.00003 0.99906
0.999738 1 1 0.999738
0.999679 1 1 0.999679
0.999607 1 1 0.999607
1.00486 1.00734 0.998305 0.999229
0.999888 1.00112 0.999541 0.999228
1.00184 1 1.00256 0.999281
1.00116 1 1.00214 0.999023
0.999531 1 1 0.999531
0.999434 1 1 0.999434
1.0005 1 1.00127 0.999231
0.999424 1 1.00013 0.99929
1.01152 1.01248 0.999954 0.999096
1.00255 1.00586 0.997521 0.999191
1.00017 1.00047 1.00073 0.998977
1.00124 1 1.00206 0.999186
0.999571 1 1 0.999571
0.999555 1 1 0.999555
0.999394 1 1 0.999394
1.00175 1 1.00258 0.999169
0.95216 0.963719 0.992246 0.995727
0.999423 1 1 0.999423
0.999303 1 1 0.999303
1.00986 1.01232 0.998311 0.999262
1.00293 1.00521 0.99857 0.999165
1.00224 1.00003 1.0033 0.998917
1.00142 1 1.00232 0.999104
1.0113 1.01387 0.998341 0.999123
0.999354 1 1 0.999354
0.999541 1.00947 0.990989 0.999163
0.999589 1 1.00032 0.999265
1.00472 1 1.00569 0.999034
0.999941 1.00065 1.00032 0.998977
0.956939 0.964303 0.996265 0.996083
0.998538 0.997006 1.00391 0.99764
0.994884 1.01144 0.984321 0.999302
0.933617 0.945362 0.989767 0.997786
0.923207 0.958819 0.964284 0.998522
0.99936 1 1 0.99936
0.933568 0.943494 0.992042 0.997417
0.948344 0.966147 0.982798 0.998754
0.979106 1.00216 0.977813 0.999163
1.00259 1 1.00334 0.999255
1.00904 1 1.00995 0.999093
0.994162 1.01017 0.984813 0.999332
0.969297 0.970711 1.00297 0.995581
1.00668 1.00255 1.00668 0.997459
0.926255 0.949729 0.977203 0.998037
0.969536 0.996912 0.973425 0.99909
0.999406 1 1 0.999406
0.999375 1 1 0.999375
0.999371 1 1 0.999371
0.999833 1 1 0.999833
0.999693 1 1 0.999693
0.999573 1 1 0.999573
0.99951 1 1 0.99951
0.999416 1 1 0.999416
0.999811 1 1 0.999811
0.999527 1 1 0.999527
0.999578 1 1 0.999578
0.99968 1 1 0.99968
0.99943 1 1 0.99943
0.999484 1 1 0.999484
0.999594 1 1.0002 0.999397
0.999578 1 1 0.999578
0.999691 1 1 0.999691
0.999697 1 1 0.999697
0.99959 1 1 0.99959
0.99959 1 1 0.99959
0.999576 1 1 0.999576
0.999522 1 1 0.999522
0.999509 1 1 0.999509
0.999662 1 1 0.999662
0.999684 1 1 0.999684
0.999824 1 1 0.999824
0.999679 1 1 0.999679
0.999821 1 1 0.999821
0.999987 1 1 0.999987
0.999812 1 1 0.999812
0.999988 1 1 0.999988
1 1 1 1
0.999989 1 1 0.999989
1 1 1 1
1 1 1 1
1 1 1 1
1 1 1 1
1 1 1 1
0.999899 1 1 0.999899
1 1 1 1
1 1 1 1
1 1 1 1
0.999999 1 1 0.999999
1 1 1 1
1 1 1 1
1 1 1 1
1 1 1 1
1 1 1 1
1.01065 1.01341 0.997952 0.99933
1.0018 1.00269 1 0.999117
1.01155 1.01249 0.999829 0.999243
0.980389 0.98446 0.997434 0.998426
1.011 1.01202 0.999564 0.999426
1.01119 1.01215 1.00003 0.999011
1.01415 1.01341 1.00159 0.999136
0.985971 0.986526 1.00111 0.99833
0.960421 0.966892 0.998254 0.995044
0.919628 0.942412 0.978584 0.997181
0.925338 0.956355 0.968928 0.998596
0.999752 1 1 0.999752
0.999902 1 1 0.999902
0.999895 1 1 0.999895
0.999752 1 1 0.999752
0.99966 1 1 0.99966
0.999682 1 1 0.999682
0.999757 1 1 0.999757
0.999765 1 1 0.999765
1.00262 1.00352 1.00003 0.999076
1.00605 1.0077 0.999126 0.999236
0.999339 1.0008 0.999317 0.999227
1.00187 1 1.00259 0.99928
1.00151 1 1.0025 0.999013
0.999756 1 1.00053 0.999231
0.999522 1 1.00025 0.999277
0.999439 1 1 0.999439
0.999691 1 1 0.999691
0.999535 1 1 0.999535
0.999758 1 1 0.999758
0.999605 1 1 0.999605
1.01179 1.01326 0.999465 0.999075
0.999579 1 1 0.999579
0.999556 1 1 0.999556
1.0016 1.00518 0.997252 0.999188
1.00003 1.00061 1.0004 0.999014
1.00194 1 1.00278 0.999161
0.999388 1 1 0.999388
1.00161 1 1.00244 0.999173
1.00455 1.01429 0.991364 0.999029
0.997823 1.00101 0.997759 0.99905
1.00011 1 1.00103 0.999078
1.00439 1 1.00524 0.999156
0.999496 1 1 0.999496
0.999428 1 1 0.999428
0.999803 1 1.00054 0.99926
0.92696 0.945173 0.98287 0.997824
0.958862 0.965575 0.997097 0.995939
0.99936 1 1 0.99936
0.999296 1 1.00003 0.999268
0.99985 1.0097 0.99108 0.999154
0.999175 1.00077 0.99942 0.998989
1.00437 1 1.00533 0.999038
0.958278 0.965051 0.997977 0.994995
0.998341 0.997648 1.00238 0.998323
0.998405 1.01334 0.985916 0.999333
0.928138 0.945742 0.98399 0.997353
0.915527 0.953345 0.961839 0.998432
0.999359 1 1 0.999359
0.92767 0.945833 0.982854 0.997907
0.950338 0.964244 0.986799 0.998763
0.981055 1.00232 0.979617 0.999152
1.00217 1 1.00291 0.999261
1.00822 1 1.00912 0.999109
0.988243 1.00722 0.981819 0.999326
0.970905 0.972489 1.00312 0.995268
1.00204 0.998259 1.0056 0.998198
0.927831 0.949488 0.979848 0.997288
0.96432 0.994854 0.970266 0.999013
0.999349 1 1 0.999349
0.965067 0.968433 0.997447 0.999075
1.01173 1.01432 0.997932 0.999517
0.987064 1 0.987746 0.99931
1.00725 1 1.00786 0.999401
1.00813 1.00322 1.00527 0.999633
0.996117 0.994798 1.00248 0.998848
0.974839 0.97292 1.00659 0.995416
0.945527 0.97087 0.976578 0.997255
0.990832 1.01613 0.975775 0.999316
0.999376 1 1 0.999376
0.999363 1 1 0.999363
0.999802 1 1.00042 0.999381
0.999811 1 1 0.999811
0.999692 1 1 0.999692
0.999591 1 1 0.999591
0.999528 1 1 0.999528
0.999419 1 1 0.999419
0.999691 1 1 0.999691
0.999493 1 1 0.999493
0.999578 1 1 0.999578
0.999638 1 1.00024 0.999393
0.999939 1 1.00055 0.999385
0.999555 1 1.00009 0.999468
0.999583 1 1 0.999583
0.999697 1 1 0.999697
0.999576 1 1 0.999576
0.99959 1 1 0.99959
0.999575 1 1 0.999575
0.99952 1 1 0.99952
0.999546 1 1 0.999546
0.999514 1 1 0.999514
0.999476 1 1 0.999476
0.999425 1 1 0.999425
0.999413 1 1 0.999413
0.999482 1 1 0.999482
0.99951 1 1 0.99951
0.999632 1 1 0.999632
0.999661 1 1 0.999661
0.999811 1 1 0.999811
0.999684 1 1 0.999684
0.999824 1 1 0.999824
0.999985 1 1 0.999985
0.999812 1 1 0.999812
0.999987 1 1 0.999987
1 1 1 1
0.999988 1 1 0.999988
1 1 1 1
1 1 1 1
1 1 1 1
1 1 1 1
1 1 1 1
0.999908 1 1 0.999908
1 1 1 1
0.999899 1 1 0.999899
1 1 1 1
1 1 1 1
1 1 1 1
1 1 1 1
1 1 1 1
1 1 1 1
1 1 1 1
1 1 1 1
0.92868 0.943982 0.985696 0.998066
0.952348 0.964596 0.988329 0.998962
0.98342 0.98512 0.999506 0.998768
1.01106 1.01182 0.999806 0.99944
1.01196 1.01295 1.00003 0.998996
0.985607 0.985026 1.00148 0.999107
1.01311 1.01317 1.0008 0.999143
0.963158 0.969027 0.99804 0.995896
0.927538 0.943438 0.985082 0.998036
0.920592 0.955537 0.964865 0.998512
1.00077 0.998265 1.00315 0.999361
0.969984 0.971863 1.00229 0.995786
0.923485 0.948417 0.975648 0.998016
0.965048 0.991884 0.974042 0.998873
0.999624 1 1 0.999624
0.999761 1 1 0.999761
0.999902 1 1 0.999902
0.999746 1 1 0.999746
0.999671 1 1 0.999671
0.999641 1 1 0.999641
0.999684 1 1 0.999684
0.999702 1 1 0.999702
0.999745 1 1 0.999745
0.999756 1 1 0.999756
1.0121 1.01405 0.999025 0.999054
1.00064 1.0044 0.997063 0.999184
0.999901 1.00072 1.00013 0.999052
1.00239 1 1.00326 0.999135
1.00141 1 1.00223 0.999176
0.999381 1 1 0.999381
0.999556 1 1 0.999556
0.999587 1 1 0.999587
1.006 1.0144 0.99271 0.999
0.99949 1 1 0.99949
0.999414 1 1 0.999414
0.997719 1.00063 0.998064 0.999021
1.00045 1 1.00133 0.999114
1.00347 1 1.00434 0.999137
1.00047 1 1.00122 0.999253
1.00825 1.01266 0.996726 0.998918
1.00321 1 1.00399 0.999223
1.00407 1 1.00491 0.999166
0.999481 1 1 0.999481
0.999395 1 1 0.999395
0.999293 1 1 0.999293
0.965505 0.971131 0.995197 0.999006
0.929719 0.944518 0.987025 0.997271
0.955741 0.965399 0.994265 0.995707
0.999358 1 1 0.999358
1.00184 1 1.00258 0.999266
0.983016 1.0024 0.981501 0.999142
1.00762 1 1.0085 0.999124
0.926133 0.946074 0.981633 0.997239
0.969487 0.971712 1.00133 0.996385
1.00357 0.999635 1.00644 0.997507
0.986119 1.00483 0.98204 0.999328
0.931149 0.948998 0.983042 0.998118
0.950466 0.964498 0.986737 0.998697
0.957106 0.989767 0.968078 0.998889
0.999347 1 1 0.999347
0.961795 0.968374 0.994194 0.999007
1.01146 1.01406 0.997915 0.999522
0.990278 1 0.990953 0.999318
1.00738 1 1.00798 0.999404
1.0076 1.00315 1.00519 0.999247
0.997239 0.995301 1.00415 0.997805
0.97336 0.974393 1.00365 0.99531
0.950395 0.973706 0.977781 0.998239
0.983418 1.0094 0.975045 0.999199
0.999743 1 1.00021 0.999534
1.01801 1.01858 0.999791 0.999654
1.02367 1.02658 0.997429 0.999735
1.00785 1 1.00814 0.999716
0.997612 0.991665 1.00654 0.999459
0.980159 0.978771 1.00616 0.995287
0.974448 0.989232 0.986674 0.998359
0.98522 1.01181 0.974533 0.999167
0.999354 1 1 0.999354
0.999752 1 1.00036 0.999397
1.00076 1 1.0013 0.999458
0.999691 1 1 0.999691
0.999578 1 1 0.999578
0.999503 1 1 0.999503
0.999671 1 1.00028 0.99939
0.999583 1 1 0.999583
0.9995 1 1.00003 0.999469
1.00032 1 1.00093 0.999388
1.00031 1 1.00086 0.999458
0.99961 1 1.00021 0.999398
0.999503 1 1 0.999503
0.99959 1 1 0.99959
0.999574 1 1 0.999574
0.999517 1 1 0.999517
0.999516 1 1 0.999516
0.999546 1 1 0.999546
0.99948 1 1 0.99948
0.999447 1 1 0.999447
0.99945 1 1 0.99945
0.999394 1 1 0.999394
0.999429 1 1 0.999429
0.999397 1 1 0.999397
0.999342 1 1 0.999342
0.999504 1 1 0.999504
0.999446 1 1 0.999446
0.999494 1 1 0.999494
0.999586 1 1 0.999586
0.99951 1 1 0.99951
0.999632 1 1 0.999632
0.999789 1 1 0.999789
0.99966 1 1 0.99966
0.99981 1 1 0.99981
0.999981 1 1 0.999981
0.999824 1 1 0.999824
0.999984 1 1 0.999984
1 1 1 1
0.999986 1 1 0.999986
1 1 1 1
1 1 1 1
1 1 1 1
1 1 1 1
1 1 1 1
0.999862 1 1 0.999862
1 1 1 1
0.999888 1 1 0.999888
1 1 1 1
1 1 1 1
0.999899 1 1 0.999899
1 1 1 1
1 1 1 1
1 1 1 1
1 1 1 1
1 1 1 1
1 1 1 1
0.966264 0.969611 0.997384 0.999162
0.92867 0.943567 0.986566 0.997614
1.01035 1.01454 0.996379 0.999494
0.949027 0.962813 0.986765 0.998901
0.981622 0.983685 0.999701 0.998202
1.01216 1.01298 1.00004 0.99915
0.964315 0.968793 0.998605 0.996769
0.925517 0.944916 0.982184 0.997236
0.915832 0.954797 0.960701 0.998428
0.998197 0.998988 1.0002 0.999011
0.969858 0.970567 1.00372 0.995562
0.925725 0.951947 0.975153 0.997233
0.965484 0.992244 0.974136 0.998866
1.00021 1.00292 0.998164 0.999137
0.970495 0.970847 1.00428 0.995375
0.953478 0.975781 0.978919 0.998186
0.988498 1.01417 0.975439 0.999233
0.999548 1 1 0.999548
0.999637 1 1 0.999637
0.999769 1 1 0.999769
0.999682 1 1 0.999682
0.999569 1 1 0.999569
0.99965 1 1 0.99965
0.999686 1 1 0.999686
0.999686 1 1 0.999686
0.999714 1 1 0.999714
0.999734 1 1 0.999734
1.00769 1.01488 0.993941 0.998971
0.99738 1.00022 0.998169 0.998993
1.00074 1 1.00159 0.99915
1.00279 1 1.00367 0.999118
1.00119 1 1.00195 0.999246
0.999399 1 1 0.999399
0.999485 1 1 0.999485
0.999483 1 1 0.999483
1.00469 1.0103 0.995502 0.998938
0.999403 1 1 0.999403
0.999382 1 1.00009 0.999291
1.00166 1 1.00248 0.999184
1.00385 1 1.00468 0.999167
0.998211 1.00998 0.989196 0.999142
1.01508 1 1.01573 0.999362
1.00002 1 1.00078 0.999244
0.999415 1 1 0.999415
0.999293 1 1 0.999293
1.02109 1.02164 0.999768 0.999697
0.966351 0.970312 0.996813 0.999102
0.929529 0.945506 0.985041 0.998032
0.999345 1 1 0.999345
1.00729 1 1.00788 0.999407
0.992012 1 0.992682 0.999326
0.965841 0.96908 0.997517 0.999139
0.973139 0.972034 1.00592 0.995245
0.998987 0.995715 1.00464 0.998648
1.00219 1.002 1.00135 0.998837
0.946739 0.970302 0.9784 0.997257
1.01109 1.01382 0.99778 0.999527
0.980971 1.00668 0.975223 0.999215
0.999683 1 1.00014 0.999548
1.01816 1.01853 0.999921 0.999713
1.0244 1.02762 0.99712 0.99974
1.00747 0.999976 1.00789 0.999605
0.997693 0.993611 1.00496 0.999149
0.984055 0.980853 1.00811 0.995193
0.989136 1.01648 0.973814 0.999269
0.96462 0.982746 0.983636 0.997885
0.999975 1 1.00026 0.999711
1.02559 1.02738 0.998346 0.999907
1.02707 1.02994 0.997446 0.999767
0.989407 1.01346 0.977017 0.999236
1.00474 0.993124 1.01189 0.999807
0.981323 0.979672 1.00609 0.995626
0.95948 0.974872 0.985959 0.998227
0.99968 1 1.00027 0.999412
1.00051 1 1.00109 0.999422
1.00312 1 1.00355 0.999567
0.999582 1 1 0.999582
0.999469 1 1 0.999469
1.00077 1 1.00138 0.999391
0.999505 1 1 0.999505
0.999721 1 1.00033 0.999396
1.0007 1 1.00126 0.999433
0.999857 1 1.00035 0.999503
0.99942 1 1 0.99942
0.999518 1 1 0.999518
0.999546 1 1 0.999546
0.999485 1 1 0.999485
0.99945 1 1 0.99945
0.999451 1 1 0.999451
0.999421 1 1 0.999421
0.999418 1 1 0.999418
1.0005 1 1.00124 0.999266
0.999432 1 1 0.999432
0.999414 1 1.00002 0.999393
0.999243 1 1 0.999243
0.999351 1 1 0.999351
0.999481 1 1 0.999481
0.999344 1 1 0.999344
0.999579 1 1 0.999579
0.999495 1 1 0.999495
0.999478 1 1 0.999478
0.999507 1 1 0.999507
0.999597 1 1 0.999597
0.99976 1 1 0.99976
0.999632 1 1 0.999632
0.999788 1 1 0.999788
0.999975 1 1 0.999975
0.99981 1 1 0.99981
0.99998 1 1 0.99998
1 1 1 1
0.999983 1 1 0.999983
1 1 1 1
1 1 1 1
1 1 1 1
1 1 1 1
1 1 1 1
0.999801 1 1 0.999801
0.999972 1 1 0.999972
0.99986 1 1 0.99986
1 1 1 1
0.999989 1 1 0.999989
0.999868 1 1 0.999868
1 1 1 1
1 1 1 1
1 1 1 1
1 1 1 1
1 1 1 1
1 1 1 1
1.01891 1.01958 0.999662 0.999677
0.960807 0.969104 0.992466 0.998965
0.931343 0.943759 0.98947 0.997346
0.99964 1 1 0.99964
1.02567 1.02853 0.997425 0.999793
1.01115 1.01474 0.996968 0.999499
0.943571 0.962464 0.981591 0.998757
0.996557 0.999667 0.998261 0.998626
0.970867 0.971501 1.00364 0.995723
0.929887 0.955196 0.975398 0.998059
0.963347 0.990132 0.974138 0.998778
1.00223 1.00595 0.998127 0.99817
0.971213 0.970988 1.00476 0.995491
0.954776 0.975876 0.98054 0.997796
0.986191 1.01268 0.974683 0.999141
0.996208 0.997316 1.00112 0.997774
0.976998 0.973671 1.00896 0.994507
0.965657 0.985451 0.982401 0.997468
0.98615 1.01379 0.973564 0.999154
0.999474 1 1 0.999474
0.99954 1 1 0.99954
0.999649 1 1 0.999649
0.999553 1 1 0.999553
0.999584 1 1 0.999584
0.99966 1 1 0.99966
0.999691 1 1 0.999691
0.999726 1 1 0.999726
1.00105 1.00784 0.994298 0.998958
1.00006 1 1.00091 0.999146
0.999484 1 1 0.999484
1.00354 1 1.00438 0.999168
0.999456 1 1.00017 0.999289
0.999411 1 1 0.999411
0.999417 1 1 0.999417
1.002 1.00941 0.993507 0.999152
0.999305 1 1 0.999305
1.00084 1 1.0016 0.999238
1.0126 1 1.01327 0.999345
0.99942 1 1 0.99942
0.995455 1.00222 0.993708 0.999543
1.01308 1 1.01363 0.999455
0.999316 1 1 0.999316
0.999354 1 1 0.999354
1.02632 1.02711 0.999312 0.999915
1.02051 1.0211 0.999723 0.999702
0.967156 0.969331 0.998555 0.9992
0.999562 1 1 0.999562
1.00791 0.999908 1.00851 0.999495
1.01844 1.01868 0.999995 0.999771
0.979631 0.976019 1.00843 0.995308
1.0017 0.995346 1.00821 0.998187
0.964823 0.983794 0.983204 0.997471
1.02493 1.02843 0.996844 0.999744
0.993632 1.02174 0.973104 0.999371
1.00013 0.999956 1.00049 0.999678
1.02621 1.02807 0.998278 0.999907
1.02736 1.02999 0.997638 0.999811
1.00619 0.994533 1.01179 0.999931
0.986312 1.01172 0.975725 0.999141
0.980552 0.980307 1.00449 0.995775
0.961976 0.979891 0.984304 0.997372
1.00576 0.997414 1.0086 0.999771
1.02435 1.02632 0.998144 0.999929
1.02659 1.02883 0.998035 0.999791
0.965063 0.99194 0.97399 0.998887
0.963844 0.984232 0.981772 0.997468
0.999827 0.991135 1.00865 1.00012
0.977816 0.974341 1.00816 0.995439
1.00028 1 1.00089 0.999386
1.00223 1 1.00268 0.999551
1.01214 0.999947 1.01262 0.999581
0.999508 1 1 0.999508
0.99976 1 1.00037 0.999395
1.00095 1 1.00154 0.999408
0.999419 1 1 0.999419
0.999934 1 1.00043 0.999501
1.0028 1 1.00337 0.999431
0.99945 1 1 0.99945
0.999454 1 1 0.999454
0.999589 1 1.00018 0.99941
1.00264 1 1.00336 0.999276
0.999441 1 1 0.999441
1.00012 1 1.00083 0.999289
1.0012 1 1.00207 0.999135
0.999293 1 1.0001 0.999188
0.999433 1 1.00004 0.999389
0.999248 1 1.00003 0.999221
0.99941 1 1 0.99941
0.999455 1 1 0.999455
0.999368 1 1 0.999368
0.999571 1 1 0.999571
0.999479 1 1 0.999479
0.999346 1 1 0.999346
0.999732 1 1 0.999732
0.999575 1 1 0.999575
0.999486 1 1 0.999486
0.999609 1 1 0.999609
0.99976 1 1 0.99976
0.999966 1 1 0.999966
0.999788 1 1 0.999788
0.999973 1 1 0.999973
1 1 1 1
0.999978 1 1 0.999978
1 1 1 1
1 1 1 1
1 1 1 1
1 1 1 1
1 1 1 1
0.999772 1 1 0.999772
0.999954 1 1 0.999954
0.999812 1 1 0.999812
1 1 1 1
0.999971 1 1 0.999971
0.999859 1 1 0.999859
1 1 1 1
1 1 1 1
0.999978 1 1 0.999978
1 1 1 1
1 1 1 1
1 1 1 1
1.0271 1.02811 0.999119 0.999901
1.01879 1.01965 0.999473 0.99968
0.961496 0.968874 0.993405 0.998973
0.999645 1 1 0.999645
0.999612 1 1 0.999612
0.999557 1 1 0.999557
1.02613 1.02913 0.997323 0.999766
1.02634 1.02883 0.997779 0.999797
1.01239 1.01495 0.997973 0.999503
1.00884 1.00882 1.00102 0.998996
0.971943 0.970919 1.00564 0.995436
0.950522 0.972691 0.979907 0.997246
0.987781 1.0147 0.974258 0.999196
0.992093 0.994806 0.998614 0.998658
0.975787 0.973714 1.0068 0.995363
0.967512 0.98414 0.984828 0.998249
0.989421 1.01768 0.972946 0.999261
0.98361 0.988592 0.996276 0.998679
0.982296 0.976102 1.01087 0.995523
0.964049 0.978411 0.98712 0.998179
0.989057 1.01444 0.975649 0.99931
0.999456 1 1 0.999456
0.999473 1 1 0.999473
0.999533 1 1 0.999533
0.999552 1 1 0.999552
0.999598 1 1 0.999598
0.999695 1 1 0.999695
1.00634 1.00883 0.998371 0.999161
1.01005 1 1.01073 0.999328
0.999419 1 1 0.999419
1.00154 1 1.00231 0.999232
0.999316 1 1 0.999316
0.999416 1 1 0.999416
0.999352 1 1 0.999352
1.0007 1.00367 0.997508 0.999534
0.999335 1 1 0.999335
1.01257 0.998996 1.01412 0.99948
0.999396 1 1 0.999396
1.01721 0.996271 1.02127 0.999754
0.997841 0.997782 1.00044 0.999624
0.999338 1 1 0.999338
1.0229 1.02394 0.99904 0.999946
1.02581 1.0267 0.99921 0.999921
1.01986 1.02052 0.99965 0.999707
1.00033 0.999976 1.00071 0.999644
1.00123 0.994291 1.007 0.999978
1.02676 1.02868 0.998226 0.999908
0.988319 0.984016 1.00708 0.997312
0.969511 0.983719 0.987191 0.998345
1.02791 1.03011 0.998015 0.999854
0.988234 1.01388 0.97549 0.999197
1.0048 0.998157 1.00687 0.999788
1.02397 1.02558 0.998493 0.999934
1.02741 1.02911 0.998548 0.999795
1.00091 0.989836 1.01217 0.999035
0.965049 0.99246 0.973477 0.998874
0.965016 0.983119 0.983319 0.998237
0.983077 0.977908 1.00965 0.99568
1.02403 0.998448 1.02574 0.999889
1.02716 1.02796 0.999325 0.999899
1.01243 1.01606 0.996936 0.999489
0.925238 0.955874 0.969305 0.998602
0.951542 0.974282 0.978396 0.998225
0.986922 0.979419 1.01214 0.995571
0.979255 0.987285 0.993124 0.998733
1.00121 1 1.00167 0.999535
1.01322 0.999957 1.01369 0.999586
1.0195 1 1.01998 0.99953
0.999419 1 1 0.999419
1.00005 1 1.00055 0.999499
1.00224 1 1.00281 0.999441
1.01084 1 1.01155 0.999298
0.999719 1 1.00032 0.9994
1.00278 1 1.00353 0.999251
1.00684 1 1.00778 0.999061
0.999754 1 1.00044 0.999313
1.00178 1 1.00265 0.999131
1.00214 1 1.00312 0.999019
0.999203 1 1.00013 0.999077
0.999341 1 1 0.999337
0.999366 1 1.00019 0.999173
0.999251 1 1.00005 0.999199
0.999472 1 1 0.999472
0.999429 1 1 0.999429
0.99953 1 1 0.99953
0.999467 1 1 0.999467
0.999385 1 1 0.999385
0.999704 1 1 0.999704
0.999572 1 1 0.999572
0.999477 1 1 0.999477
0.99995 1 1 0.99995
0.999732 1 1 0.999732
0.99957 1 1 0.99957
0.99976 1 1 0.99976
0.999963 1 1 0.999963
1 1 1 1
0.999971 1 1 0.999971
1 1 1 1
1 1 1 1
1 1 1 1
1 1 1 1
1 1 1 1
0.999768 1 1 0.999768
0.99997 1 1 0.99997
0.999782 1 1 0.999782
1 1 1 1
0.99997 1 1 0.99997
0.999824 1 1 0.999824
1 1 1 1
1 1 1 1
0.999971 1 1 0.999971
1 1 1 1
1 1 1 1
1 1 1 1
1.02454 1.02618 0.998472 0.999927
1.02723 1.02833 0.999037 0.999902
1.01851 1.01968 0.999175 0.999684
0.999599 1 1 0.999599
0.999538 1 1 0.999538
0.99965 1 1 0.99965
0.99961 1 1 0.99961
0.999545 1 1 0.999545
0.999536 1 1 0.999536
0.999486 1 1 0.999486
1.02242 1.02477 0.997972 0.999734
1.02663 1.02948 0.997421 0.999808
1.02665 1.02914 0.997777 0.999801
0.993529 1.0223 0.972474 0.999369
0.992416 0.997325 0.997256 0.997816
0.978845 0.975337 1.00745 0.996176
0.967478 0.980469 0.989395 0.997327
0.984835 0.988859 0.997735 0.998191
0.980173 0.977192 1.00766 0.995427
0.966918 0.983654 0.985562 0.997385
0.983679 1.00954 0.975194 0.999173
0.976241 0.982525 0.994535 0.999064
0.97635 0.978812 1.00215 0.995346
0.980327 0.993264 0.988667 0.998289
0.96969 0.995538 0.974934 0.999078
0.999443 1 1 0.999443
0.999454 1 1 0.999454
0.999473 1 1 0.999473
0.999551 1 1 0.999551
1.0051 1.00489 1.00068 0.999525
1.01231 0.997868 1.01497 0.999504
0.999411 1 1 0.999411
0.999349 1 1 0.999349
0.999355 1 1 0.999355
0.999397 1 1 0.999397
0.999329 1 1 0.999329
1.00886 0.994122 1.01508 0.999742
0.998951 0.998841 1.00044 0.999672
0.999356 1 1 0.999356
1.01565 0.98961 1.02639 0.999933
1.00335 1 1.00395 0.999401
1.02682 1.02727 0.999645 0.999912
1.02166 1.02254 0.999185 0.999951
1.02541 1.02631 0.999198 0.999928
1.00372 0.998812 1.00511 0.999805
1.00212 0.989687 1.01249 1.00007
1.0236 1.0249 0.998792 0.999938
0.97754 0.974229 1.00797 0.99546
0.964199 0.978736 0.987784 0.997332
1.02778 1.02941 0.998619 0.999799
0.96323 0.990055 0.974078 0.998796
1.02596 0.997535 1.02863 0.999873
1.0272 1.02813 0.999189 0.9999
1.0135 1.01629 0.997756 0.999493
0.983628 0.990006 0.99371 0.999846
0.920291 0.955024 0.96506 0.99852
0.951078 0.972911 0.979682 0.997833
0.989088 0.979829 1.01364 0.995863
1.0122 0.996436 1.01598 0.999833
1.0199 1.0202 1.00004 0.999671
0.952957 0.965192 0.988342 0.99897
0.923197 0.946966 0.976834 0.99802
0.980029 0.97533 1.0094 0.995464
0.977621 0.987668 0.991593 0.99822
1.01446 1 1.01487 0.99959
1.02018 1 1.02066 0.999526
1.01459 1 1.01517 0.999428
1.00175 1 1.0023 0.999451
1.01132 1 1.01201 0.999321
1.00877 1 1.00971 0.999071
1.00303 1 1.00381 0.999225
1.00692 1 1.00789 0.999039
1.00357 1 1.00466 0.998915
1.00236 1 1.00323 0.999127
1.0019 1 1.0029 0.998998
1.00111 1 1.00216 0.998955
0.999051 1 1 0.999051
0.999211 1 1 0.999211
0.99934 1 1.00028 0.999057
0.999432 1 1 0.999432
0.999351 1 1 0.999349
0.999435 1 1.00028 0.999158
0.999504 1 1 0.999504
0.999468 1 1 0.999468
0.999447 1 1 0.999447
0.999663 1 1 0.999663
0.99954 1 1 0.99954
0.999479 1 1 0.999479
0.999924 1 1 0.999924
0.999705 1 1 0.999705
0.999573 1 1 0.999573
1 1 1 1
0.999948 1 1 0.999948
0.999733 1 1 0.999733
0.99996 1 1 0.99996
1 1 1 1
1 1 1 1
1 1 1 1
1 1 1 1
1 1 1 1
0.999598 1 1 0.999598
0.999743 1 1 0.999743
0.99996 1 1 0.99996
0.999768 1 1 0.999768
1 1 1 1
0.999973 1 1 0.999973
0.999791 1 1 0.999791
1 1 1 1
1 1 1 1
0.999985 1 1 0.999985
1 1 1 1
1 1 1 1
1 1 1 1
1.02604 1.02682 0.999336 0.999905
1.02425 1.0255 0.998852 0.999932
1.02739 1.02854 0.998978 0.999902
0.999603 1 1 0.999603
0.999531 1 1 0.999531
0.999509 1 1 0.999509
0.999526 1 1 0.999526
0.999493 1 1 0.999493
0.999608 1 1 0.999608
0.999533 1 1 0.999533
0.999537 1 1 0.999537
0.999483 1 1 0.999483
0.999485 1 1 0.999485
1.01122 1.01255 0.999178 0.999509
1.02319 1.02582 0.997699 0.999738
1.02681 1.02958 0.997465 0.999851
0.980901 1.00667 0.975192 0.999192
0.971926 0.985379 0.988006 0.998321
0.982325 0.986736 0.99778 0.997745
0.979557 0.979449 1.0046 0.995528
0.979813 0.982661 0.999008 0.998092
0.980927 0.978897 1.00662 0.995482
0.969739 0.986743 0.984893 0.997843
0.965718 0.993657 0.972853 0.999002
0.993806 0.982007 1.01366 0.998378
0.97828 0.980208 1.00242 0.995622
0.947555 0.971635 0.977889 0.997268
0.931119 0.964305 0.96694 0.998599
0.999534 1 1 0.999534
0.999443 1 1 0.999443
0.999452 1 1 0.999452
1.00142 0.992558 1.0092 0.999729
1.00013 1 1.00041 0.999724
0.999398 1 1 0.999398
0.999319 1 1 0.999319
0.999399 1 1.00003 0.999365
1.00384 1 1.00444 0.999399
1.01532 0.991252 1.02434 0.999936
1.00377 1 1.00435 0.99942
1.01118 0.997506 1.01406 0.999656
1.02 1.02032 1 0.999688
1.02622 1.02672 0.999593 0.99992
1.02037 1.02115 0.999277 0.999957
1.02773 0.996679 1.03131 0.999855
0.982521 0.989155 0.994781 0.998505
1.02727 1.0283 0.999098 0.999901
0.980503 0.977676 1.00838 0.994555
0.948609 0.971173 0.979389 0.997321
1.01497 1.01655 0.998948 0.999498
0.915838 0.954513 0.960984 0.998437
1.01273 0.996963 1.01598 0.999838
1.0199 1.02033 0.999899 0.999675
0.949725 0.963276 0.98701 0.998908
0.975247 0.987523 0.988782 0.998773
0.926097 0.951045 0.976446 0.997257
0.978585 0.976071 1.00765 0.994963
0.99294 0.995977 0.997339 0.99961
0.966612 0.96985 0.99749 0.999169
0.92061 0.941903 0.980141 0.997197
0.974403 0.972804 1.00628 0.995395
0.99639 0.994676 1.00294 0.998788
1.02042 1 1.02091 0.999522
1.01713 1 1.01772 0.999426
0.995578 1 0.996341 0.999234
1.01162 1 1.01228 0.999344
1.00831 1 1.00922 0.999092
1.00168 1 1.00272 0.998963
1.00688 1 1.00787 0.999018
1.0032 1 1.00429 0.998918
0.999019 1 1.00003 0.998985
1.00164 1 1.00267 0.998978
1.0006 1 1.00164 0.998963
0.999069 1 1 0.999069
0.999145 1 1 0.999145
0.999143 1 1 0.999143
0.999057 1 1 0.999057
0.999334 1 1 0.999334
0.999234 1 1.00005 0.999189
0.999481 1 1.00044 0.999037
0.999506 1 1 0.999506
0.999447 1 1 0.999447
0.999361 1 1 0.999361
0.99962 1 1 0.99962
0.999507 1 1 0.999507
0.999463 1 1 0.999463
0.999882 1 1 0.999882
0.999663 1 1 0.999663
0.999549 1 1 0.999549
1 1 1 1
0.999923 1 1 0.999923
0.999705 1 1 0.999705
1 1 1 1
1 1 1 1
0.999945 1 1 0.999945
1 1 1 1
1 1 1 1
1 1 1 1
0.999569 1 1 0.999569
0.999718 1 1 0.999718
0.999592 1 1 0.999592
0.99995 1 1 0.99995
0.999743 1 1 0.999743
1 1 1 1
0.999962 1 1 0.999962
0.999768 1 1 0.999768
1 1 1 1
1 1 1 1
0.999976 1 1 0.999976
1 1 1 1
1 1 1 1
1 1 1 1
1.01783 1.01809 1 0.999749
1.02688 1.02769 0.999312 0.999906
1.02395 1.02485 0.999182 0.999936
0.999513 1 1 0.999513
0.999608 1 1 0.999608
0.999523 1 1 0.999523
0.999534 1 1 0.999534
0.999516 1 1 0.999516
0.999492 1 1 0.999492
0.999468 1 1 0.999468
0.999477 1 1 0.999477
0.999537 1 1 0.999537
0.999481 1 1 0.999481
0.999484 1 1 0.999484
0.999475 1 1 0.999475
0.950755 0.966685 0.984764 0.998738
1.01055 1.01197 0.99908 0.999513
1.02417 1.02709 0.997424 0.999742
0.959382 0.989802 0.970375 0.998857
0.972039 0.989204 0.985148 0.997462
0.975572 0.978242 1.00192 0.995362
0.981544 0.980046 1.00239 0.999137
0.993288 0.980398 1.01377 0.999384
0.924624 0.959248 0.965331 0.998522
0.981614 0.97905 1.00764 0.995019
0.947861 0.971605 0.977355 0.998166
0.990499 0.988491 1.00265 0.999379
0.975787 0.974637 1.00543 0.995774
0.924107 0.947349 0.977404 0.998018
1.00008 1 1.00041 0.999672
0.999535 1 1 0.999535
0.999444 1 1 0.999444
1.01485 0.992904 1.02217 0.999934
1.00446 1 1.00506 0.999398
0.999425 1 1.00005 0.999374
1.00407 1 1.00465 0.999423
1.01047 0.998316 1.01251 0.999669
1.00889 0.999837 1.00939 0.999674
0.96531 0.97058 0.995662 0.998904
1.02006 1.02033 0.999986 0.999747
1.02572 1.02618 0.999616 0.999928
1.01321 0.997452 1.01596 0.999843
0.977304 0.990001 0.987993 0.999172
1.01973 1.0204 0.999666 0.999678
0.980529 0.97736 1.00698 0.99629
0.930172 0.954085 0.976823 0.998069
0.944052 0.963004 0.981531 0.998766
0.99257 0.996577 0.996346 0.999632
0.960787 0.969191 0.99235 0.998972
0.928741 0.94254 0.987277 0.998058
0.995352 0.992143 1.00536 0.997886
0.976066 0.975371 1.00526 0.995479
0.984619 1.00382 0.981401 0.999465
0.928497 0.94392 0.98555 0.998084
0.972939 0.972758 1.00452 0.995681
1.00292 1.00184 1.00333 0.997753
1.02061 1 1.0212 0.999424
0.992323 1 0.993067 0.99925
0.986206 1.00024 0.986763 0.999193
1.00805 1 1.00895 0.999112
1.00179 1.00012 1.00271 0.998966
0.999655 1.00052 1 0.999137
1.00287 1 1.00395 0.998921
0.999332 1 1.00034 0.998996
0.99951 1.00029 1 0.999222
1.00009 1 1.00112 0.998972
0.999075 1 1 0.999075
0.999268 1 1 0.999268
0.999299 1 1 0.999299
0.999181 1 1 0.999181
0.999162 1 1 0.999162
0.999255 1 1 0.999255
0.999158 1 1 0.999158
0.999063 1 1 0.999063
0.999461 1 1 0.999461
0.999333 1 1 0.999333
0.999258 1 1.00009 0.999166
0.999598 1 1 0.999598
0.999505 1 1 0.999505
0.999461 1 1 0.999461
0.999831 1 1 0.999831
0.999621 1 1 0.999621
0.999509 1 1 0.999509
1 1 1 1
0.999881 1 1 0.999881
0.999663 1 1 0.999663
1 1 1 1
1 1 1 1
0.999921 1 1 0.999921
1 1 1 1
1 1 1 1
1 1 1 1
0.999572 1 1 0.999572
0.999572 1 1 0.999572
0.99969 1 1 0.99969
0.999937 1 1 0.999937
0.999717 1 1 0.999717
0.999586 1 1 0.999586
1 1 1 1
0.999952 1 1 0.999952
0.999743 1 1 0.999743
1 1 1 1
1 1 1 1
0.999965 1 1 0.999965
1 1 1 1
1 1 1 1
1 1 1 1
0.965849 0.96925 0.997412 0.999077
1.018 1.01825 1 0.999754
1.02771 1.02852 0.999304 0.999906
0.999507 1 1 0.999507
0.999516 1 1 0.999516
0.999477 1 1 0.999477
0.999542 1 1 0.999542
0.999523 1 1 0.999523
0.99949 1 1 0.99949
0.999478 1 1 0.999478
0.999469 1 1 0.999469
0.999432 1 1 0.999432
0.999475 1 1 0.999475
0.999483 1 1 0.999483
0.999476 1 1 0.999476
0.928356 0.944296 0.985008 0.998082
0.950872 0.964831 0.98676 0.998756
1.01007 1.01146 0.999103 0.999517
0.918532 0.954569 0.963747 0.998444
0.94554 0.968322 0.979143 0.997272
0.989806 0.984047 1.00938 0.996506
0.998281 0.980324 1.02002 0.998326
0.990628 0.987968 1.00433 0.998367
0.926642 0.948696 0.979416 0.997281
0.97989 0.977314 1.00657 0.996087
0.992437 0.989413 1.00463 0.998433
0.976495 0.975299 1.00559 0.995657
1.00765 1 1.00819 0.999468
0.999932 1 1.00027 0.999666
0.999537 1 1 0.999537
1.00866 0.998108 1.0109 0.999681
1.00436 1 1.00494 0.999426
1.00855 0.999737 1.00918 0.999639
1.00152 1.00067 1.00146 0.999385
0.926404 0.94604 0.981346 0.997858
0.965706 0.969419 0.997116 0.999051
1.0199 1.02018 0.999918 0.999805
0.991053 0.996823 0.994554 0.999655
0.995916 0.991753 1.00547 0.998737
0.961626 0.969162 0.993238 0.998979
0.976762 0.973612 1.00783 0.99544
0.925622 0.943823 0.98342 0.997249
0.987685 1.00407 0.984235 0.999433
0.928633 0.943601 0.986495 0.99761
0.973069 0.971925 1.00569 0.995517
1.0025 0.998261 1.00563 0.998617
1.00722 1.01027 0.997738 0.999244
0.961496 0.967154 0.999151 0.994995
0.998182 1.00066 0.998595 0.998924
0.989028 1 0.989755 0.999266
0.988077 1.00039 0.988501 0.999178
0.990269 1.00116 0.98989 0.999226
1.00182 1.00023 1.00262 0.998969
0.999768 1.0008 0.999833 0.999133
1.00113 1.00241 0.999304 0.999418
0.999666 1 1.00066 0.999008
0.999577 1.00035 1 0.999223
1.00041 1.00098 1 0.999425
0.999081 1 1 0.999081
0.999268 1 1 0.999268
0.999404 1 1 0.999404
0.99938 1 1 0.99938
0.999316 1 1 0.999316
0.999287 1 1 0.999287
0.999247 1 1 0.999247
0.999183 1 1 0.999183
0.999178 1 1 0.999178
0.999367 1 1 0.999367
0.999272 1 1 0.999272
0.999173 1 1 0.999173
0.999569 1 1 0.999569
0.999459 1 1 0.999459
0.999333 1 1 0.999333
0.99979 1 1 0.99979
0.999599 1 1 0.999599
0.999504 1 1 0.999504
1 1 1 1
0.999831 1 1 0.999831
0.999623 1 1 0.999623
1 1 1 1
1 1 1 1
0.99988 1 1 0.99988
1 1 1 1
1 1 1 1
1 1 1 1
0.999557 1 1 0.999557
0.999562 1 1 0.999562
0.999664 1 1 0.999664
0.999574 1 1 0.999574
0.999689 1 1 0.999689
0.999914 1 1 0.999914
1 1 1 1
0.999939 1 1 0.999939
0.999717 1 1 0.999717
1 1 1 1
1 1 1 1
0.999955 1 1 0.999955
1 1 1 1
1 1 1 1
1 1 1 1
0.935133 0.945213 0.991876 0.997439
0.963201 0.968938 0.995114 0.99896
1.01828 1.01852 1 0.999758
0.999501 1 1 0.999501
0.999471 1 1 0.999471
0.999522 1 1 0.999522
0.999511 1 1 0.999511
0.999474 1 1 0.999474
0.999479 1 1 0.999479
0.99947 1 1 0.99947
0.999436 1 1 0.999436
0.999453 1 1 0.999453
0.999427 1 1 0.999427
0.999548 1 1.00026 0.999291
0.999473 1 1 0.999473
0.999478 1 1 0.999478
0.97216 0.97684 1.00029 0.994921
0.934131 0.946526 0.989146 0.997735
0.950311 0.963967 0.987134 0.998683
0.927777 0.949059 0.979445 0.998092
0.977712 0.974392 1.00874 0.994716
0.993299 0.989135 1.00481 0.999405
0.99515 0.992334 1.00388 0.998958
0.97633 0.976833 1.0037 0.995802
0.991366 0.998751 0.994196 0.9984
1.006 1.00132 1.0057 0.998983
1.00611 1 1.00666 0.999457
0.999659 1 1 0.999659
1.00764 1 1.00804 0.999606
1.00057 1.00098 1.00017 0.999416
0.954068 0.965271 0.992615 0.995747
0.930175 0.945509 0.986411 0.997334
0.966559 0.968389 0.998909 0.999201
0.990866 1.00465 0.986874 0.9994
1.00574 1.00094 1.00704 0.997772
0.93203 0.943718 0.99026 0.997329
0.973886 0.971796 1.00652 0.995658
1.00178 1.00991 0.992707 0.999235
0.963956 0.968735 0.999232 0.995831
1.00008 1.00279 0.999239 0.998051
1.00658 1.01026 0.997343 0.999007
0.998559 0.995591 1.00369 0.99929
0.989027 1.00051 0.989353 0.999162
0.992182 1.00114 0.991839 0.999207
1.00272 1.00873 0.994764 0.999276
0.999721 1.00099 0.999607 0.99913
1.00006 1.00159 0.999065 0.999412
1.00212 1.0036 0.999053 0.99947
0.999627 1.0004 1 0.999224
1.00011 1.0007 0.999994 0.999414
1.00023 1.00081 0.999987 0.999434
0.999267 1 1 0.999267
0.999396 1 1 0.999396
0.99939 1 1 0.99939
0.999399 1 1 0.999399
0.999331 1 1 0.999331
0.999334 1 1 0.999334
0.999283 1 1 0.999283
0.999278 1 1 0.999278
0.999315 1 1 0.999315
0.999244 1 1 0.999244
0.999186 1 1 0.999186
0.999512 1 1 0.999512
0.999378 1 1 0.999378
0.999289 1 1 0.999289
0.999759 1 1 0.999759
0.999568 1 1 0.999568
0.999457 1 1 0.999457
0.999998 1 1 0.999998
0.999791 1 1 0.999791
0.9996 1 1 0.9996
1 1 1 1
1 1 1 1
0.999831 1 1 0.999831
1 1 1 1
1 1 1 1
1 1 1 1
0.999529 1 1 0.999529
0.999558 1 1 0.999558
0.999625 1 1 0.999625
0.999553 1 1 0.999553
0.999655 1 1 0.999655
0.999875 1 1 0.999875
0.999689 1 1 0.999689
0.999914 1 1 0.999914
1 1 1 1
1 1 1 1
1 1 1 1
0.99994 1 1 0.99994
1 1 1 1
1 1 1 1
1 1 1 1
0.966222 0.970809 0.999494 0.995779
0.930737 0.947997 0.983793 0.997968
0.965287 0.968713 0.997426 0.999035
0.999466 1 1 0.999466
0.999528 1 1 0.999528
0.999478 1 1 0.999478
0.999512 1 1 0.999512
0.999477 1 1 0.999477
0.999491 1 1 0.999491
0.99944 1 1 0.99944
0.999438 1 1 0.999438
0.999423 1 1 0.999423
0.999419 1 1 0.999419
0.999324 1 1 0.999324
0.99907 1 1.00011 0.998956
0.999361 1 1.00006 0.999304
0.999472 1 1 0.999472
0.989563 0.994079 0.996789 0.998663
0.970824 0.973864 1.00126 0.995622
0.92762 0.946518 0.982739 0.997248
0.975147 0.974831 1.00478 0.995562
0.990322 0.990679 1.00017 0.999467
0.992591 0.997044 0.996317 0.999214
0.997193 1.00479 0.993324 0.999111
1.00309 1.00066 1.00337 0.999054
1.00507 1 1.00563 0.999444
0.99847 1.0011 0.997932 0.999442
0.986529 0.986386 1.0019 0.998246
0.961223 0.966874 0.998191 0.995956
0.928812 0.946051 0.983671 0.998077
0.998446 1.00941 0.989904 0.999226
1.00669 1.0058 1.00211 0.998768
0.965119 0.968419 0.999896 0.996697
1.00113 1.00812 0.994034 0.999028
0.995308 0.99589 1.00048 0.998936
1.00139 1.01391 0.988579 0.999065
1.0108 1.00934 1.0024 0.999042
0.994741 1.00124 0.994317 0.999189
1.00293 1.00841 0.995281 0.999275
1.0046 1.00805 0.997308 0.999266
0.999385 1.00109 0.998895 0.999405
1.00192 1.0033 0.999167 0.999463
1.00111 1.00201 0.999799 0.9993
0.999837 1.00043 1 0.999403
0.999959 1.00054 1 0.999424
0.999424 1.00014 1 0.999285
0.999388 1 1 0.999388
0.999398 1 1 0.999398
0.999291 1 1 0.999291
0.999419 1 1 0.999419
0.999342 1 1 0.999342
0.999283 1 1 0.999283
0.999279 1 1 0.999279
0.999275 1 1 0.999275
0.999316 1 1 0.999316
0.999437 1 1 0.999437
0.999327 1 1 0.999327
0.99924 1 1 0.99924
0.999716 1 1 0.999716
0.999512 1 1 0.999512
0.999389 1 1 0.999389
0.99999 1 1 0.99999
0.999759 1 1 0.999759
0.999566 1 1 0.999566
1 1 1 1
0.999996 1 1 0.999996
0.999792 1 1 0.999792
1 1 1 1
0.999999 1 1 0.999999
1 1 1 1
0.999501 1 1 0.999501
0.999536 1 1 0.999536
0.999601 1 1 0.999601
0.999558 1 1 0.999558
0.999622 1 1 0.999622
0.999831 1 1 0.999831
0.999645 1 1 0.999645
0.999876 1 1 0.999876
1 1 1 1
0.999915 1 1 0.999915
1 1 1 1
1 1 1 1
1 1 1 1
1 1 1 1
1 1 1 1
0.983237 0.986272 0.998301 0.99862
0.959827 0.967849 0.995971 0.995723
0.929171 0.948427 0.982375 0.997274
0.999414 1 1 0.999414
0.999482 1 1 0.999482
0.999512 1 1 0.999512
0.99949 1 1 0.99949
0.999473 1 1 0.999473
0.999529 1 1 0.999529
0.999424 1 1 0.999424
0.999419 1 1 0.999419
0.999434 1 1 0.999434
0.999352 1 1 0.999352
0.999105 1 1 0.999105
1.00253 1.00383 1 0.998701
0.999088 1 1.00013 0.998959
0.999316 1 1 0.999316
0.999897 1.00471 0.99597 0.999236
0.990356 0.995444 0.996611 0.998272
0.972665 0.974818 1.0014 0.996396
0.994773 0.998279 0.998085 0.998399
1.00176 1.00609 0.996628 0.999065
1.00158 1.00015 1.00231 0.999126
1.00118 1.00185 1.00002 0.999319
0.987745 0.985341 1.00349 0.998948
0.957968 0.966727 0.995135 0.995783
0.994592 1.00592 0.989682 0.999047
0.992982 0.995906 0.998519 0.998542
1.00305 1.01398 0.990168 0.999047
1.00865 1.00816 1.00136 0.999131
1.01313 1.01464 0.999492 0.99902
1.00609 1.00714 1 0.998956
1.00271 1.00778 0.995691 0.999275
1.00609 1.0087 0.998138 0.999273
1.00081 1.00167 1 0.999144
1.00161 1.00277 0.999384 0.999456
1.00167 1.00241 0.999957 0.999298
0.999256 1.00013 1 0.99913
0.999683 1.00027 1 0.999415
0.999489 1.00018 1 0.999306
0.999173 1 1 0.999173
0.999406 1 1 0.999406
0.999291 1 1 0.999291
0.999229 1 1 0.999229
0.999352 1 1 0.999352
0.999286 1 1 0.999286
0.999284 1 1 0.999284
0.999272 1 1 0.999272
0.999309 1 1 0.999309
0.999404 1 1 0.999404
0.999662 1 1 0.999662
0.999449 1 1 0.999449
0.999338 1 1 0.999338
0.999974 1 1 0.999974
0.999715 1 1 0.999715
0.999511 1 1 0.999511
1 1 1 1
0.999986 1 1 0.999986
0.999759 1 1 0.999759
1 1 1 1
0.999995 1 1 0.999995
1 1 1 1
0.999443 1 1 0.999443
0.999502 1 1 0.999502
0.999578 1 1 0.999578
0.999543 1 1 0.999543
0.999606 1 1 0.999606
0.99979 1 1 0.99979
0.999619 1 1 0.999619
0.99983 1 1 0.99983
1 1 1 1
0.999876 1 1 0.999876
1 1 1 1
1 1 1 1
1 1 1 1
1 1 1 1
1 1 1 1
1.00222 1.00572 0.997094 0.999428
0.982879 0.987573 0.997365 0.997877
0.96358 0.968237 0.999348 0.99584
0.999449 1 1 0.999449
0.999283 1 1 0.999283
0.999424 1 1 0.999424
0.999488 1 1 0.999488
0.999469 1 1 0.999469
0.999514 1 1 0.999514
0.999468 1.00028 1 0.999184
0.99945 1 1 0.99945
0.999379 1 1 0.999379
0.999207 1.00009 1 0.999116
1.0001 1.00131 1 0.998793
1.00523 1.00679 0.999519 0.998935
1.00173 1.00302 1 0.998715
0.998962 1 1 0.998962
1.00234 1.00691 0.996189 0.999267
0.988329 0.994916 0.995565 0.997805
1.0047 1.00712 0.998572 0.99902
1.00175 1.00241 1 0.99934
1.00173 1.00122 1.00116 0.999352
0.985883 0.98512 1.0027 0.998078
1.00511 1.01449 0.991711 0.999029
1.00627 1.00679 1.00027 0.999221
1.0131 1.01489 0.999187 0.999041
1.00716 1.00818 1 0.998991
1.00324 1.0042 1 0.999041
1.00371 1.00453 1 0.999182
1.00778 1.00957 0.998941 0.99928
1.00088 1.00173 1 0.99915
0.999776 1.00074 1 0.999039
1.00211 1.00282 1 0.999296
0.999321 1.00018 1 0.999143
0.999065 1 1 0.999065
0.999549 1.00022 1 0.999328
0.999171 1 1 0.999171
0.999132 1 1 0.999132
0.999291 1 1 0.999291
0.999228 1 1 0.999228
0.999229 1 1 0.999229
0.99929 1 1 0.99929
0.999285 1 1 0.999285
0.999366 1 1 0.999366
0.999301 1 1 0.999301
0.9994 1 1 0.9994
0.999614 1 1 0.999614
0.999953 1 1 0.999953
0.999662 1 1 0.999662
0.999461 1 1 0.999461
1 1 1 1
0.999968 1 1 0.999968
0.999715 1 1 0.999715
1 1 1 1
0.999982 1 1 0.999982
1 1 1 1
0.999337 1 1 0.999337
0.999432 1 1 0.999432
0.99953 1 1 0.99953
0.999503 1 1 0.999503
0.999579 1 1 0.999579
0.999757 1 1 0.999757
0.99961 1 1 0.99961
0.99979 1 1 0.99979
0.999997 1 1 0.999997
0.99983 1 1 0.99983
1 1 1 1
1 1 1 1
1 1 1 1
1 1 1 1
1 1 1 1
1.00234 1.00372 0.999381 0.99924
1.00124 1.00478 0.997079 0.999404
0.982548 0.986214 0.997766 0.998513
0.999428 1.0002 1 0.999233
0.999506 1 1 0.999506
0.999124 1 1 0.999124
0.999275 1 1 0.999275
0.999435 1 1 0.999435
1.00093 1.00204 1 0.998898
0.9995 1 1 0.9995
0.999371 1.0002 1 0.999176
1.00117 1.0023 1 0.998873
0.999294 1.00017 1 0.999127
1.00046 1.00169 1 0.998767
1.00406 1.00547 0.999671 0.99893
1.00056 1.00183 1 0.998729
1.00431 1.00851 0.996545 0.999297
1.00231 1.003 1 0.999308
1.00149 1.00215 1 0.999336
1.00226 1.00063 1.00224 0.999384
1.01324 1.0153 0.998911 0.999062
1.00859 1.00957 1 0.999025
1.00402 1.00499 1 0.999038
1.0041 1.00492 1 0.999183
1.00224 1.00311 1 0.999125
1.00091 1.00175 1 0.999156
0.999685 1.00064 1 0.999044
0.999389 1.00036 1 0.999028
0.999394 1.00024 1 0.999155
0.999061 1 1 0.999061
0.999052 1 1 0.999052
0.999168 1 1 0.999168
0.99913 1 1 0.99913
0.999149 1 1 0.999149
0.999228 1 1 0.999228
0.999228 1 1 0.999228
0.999304 1 1 0.999304
0.999286 1 1 0.999286
0.999366 1 1 0.999366
0.999566 1 1 0.999566
0.999397 1 1 0.999397
0.999614 1 1 0.999614
0.999933 1 1 0.999933
1 1 1 1
0.999947 1 1 0.999947
0.999662 1 1 0.999662
1 1 1 1
0.999962 1 1 0.999962
1 1 1 1
0.999154 1 1 0.999154
0.999253 1 1 0.999253
0.999324 1 1 0.999324
0.999473 1 1 0.999473
0.99942 1 1 0.99942
0.999532 1 1 0.999532
0.999727 1 1 0.999727
0.999579 1 1 0.999579
0.999757 1 1 0.999757
0.999986 1 1 0.999986
0.99979 1 1 0.99979
0.999998 1 1 0.999998
1 1 1 1
1 1 1 1
1 1 1 1
1 1 1 1
1.00157 1.00243 1 0.999138
1.00375 1.00492 0.999567 0.999269
1.00108 1.00465 0.997069 0.999379
0.999704 1.00072 1 0.998982
0.999374 1.00009 1 0.999281
0.999563 1 1 0.999563
0.999162 1.00002 1 0.999143
0.999267 1 1 0.999267
1.00325 1.00442 1 0.998836
1.00065 1.00178 1 0.998874
0.999289 1.00012 1 0.999167
1.00154 1.00267 1 0.998866
1.00095 1.00221 1 0.998741
1.00376 1.00505 0.99979 0.998925
1.00359 1.00438 1 0.999214
1.002 1.0027 1 0.999298
1.00122 1.00188 1 0.999332
1.00453 1.0055 1 0.999035
1.00429 1.00511 1 0.999184
1.00233 1.00321 1 0.999128
1.00149 1.00242 1 0.999079
0.999629 1.00058 1 0.999049
0.999272 1.00025 1 0.999025
0.99906 1.00003 1 0.999034
0.999057 1 1 0.999057
0.99905 1 1 0.99905
0.999086 1 1 0.999086
0.999128 1 1 0.999128
0.999148 1 1 0.999148
0.999233 1 1 0.999233
0.999228 1 1 0.999228
0.999304 1 1 0.999304
0.999506 1 1 0.999506
0.999367 1 1 0.999367
0.999565 1 1 0.999565
0.999917 1 1 0.999917
0.999613 1 1 0.999613
0.999928 1 1 0.999928
0.999999 1 1 0.999999
1 1 1 1
0.999941 1 1 0.999941
1 1 1 1
0.999054 1.00004 1 0.999013
0.999236 1 1 0.999236
0.999225 1 1 0.999225
0.999394 1 1 0.999394
0.999251 1 1 0.999251
0.999311 1 1 0.999311
0.999474 1 1 0.999474
0.999686 1 1 0.999686
0.999534 1 1 0.999534
0.999727 1 1 0.999727
0.999969 1 1 0.999969
0.999757 1 1 0.999757
0.99999 1 1 0.99999
1 1 1 1
1 1 1 1
1 1 1 1
1 1 1 1
1.00393 1.0049 1 0.999031
1.00161 1.00248 1 0.999136
1.00465 1.00556 0.999796 0.999297
1.00138 1.0025 1 0.998886
0.99964 1.00066 1 0.998985
0.999329 1 1 0.999329
0.999207 1.00004 1 0.999163
1.00318 1.00435 1 0.998836
1.00046 1.00161 1 0.99885
1.00171 1.00286 1 0.99886
1.00406 1.00494 1 0.999122
1.0036 1.00441 1 0.999189
1.00165 1.00236 1 0.999287
1.00306 1.00401 1 0.999053
1.00249 1.00336 1 0.99913
1.0016 1.00253 1 0.999079
0.999816 1.00076 1 0.999054
0.999158 1.00014 1 0.999021
0.999211 1.00018 1 0.999035
0.999061 1 1 0.999061
0.999049 1 1 0.999049
0.999086 1 1 0.999086
0.99918 1 1 0.99918
0.999147 1 1 0.999147
0.999232 1 1 0.999232
0.999443 1 1 0.999443
0.999303 1 1 0.999303
0.999505 1 1 0.999505
0.999902 1 1 0.999902
0.999565 1 1 0.999565
0.999913 1 1 0.999913
0.999998 1 1 0.999998
0.999924 1 1 0.999924
0.999999 1 1 0.999999
1 1 1 1
0.999086 1.00016 1 0.998925
0.999096 1 1 0.999096
0.999058 1.00002 1 0.999038
0.999339 1 1 0.999339
0.999235 1 1 0.999235
0.999296 1 1 0.999296
0.999611 1 1 0.999611
0.999393 1 1 0.999393
0.999249 1 1 0.999249
0.999475 1 1 0.999475
0.999686 1 1 0.999686
0.999949 1 1 0.999949
0.999727 1 1 0.999727
0.999974 1 1 0.999974
1 1 1 1
0.999994 1 1 0.999994
1 1 1 1
1 1 1 1
1.00285 1.00385 1 0.999001
1.00411 1.0051 1 0.999012
1.00183 1.00269 1 0.999134
1.00122 1.00234 1 0.998883
0.999561 1.00057 1 0.998988
1.00296 1.00413 1 0.998836
1.00379 1.00475 1 0.999047
1.00434 1.00522 1 0.999121
1.00363 1.00447 1 0.999165
1.00284 1.00379 1 0.999055
1.00121 1.00218 1 0.999029
1.00171 1.00263 1 0.999078
0.999981 1.00093 1 0.999054
0.999183 1.00012 1 0.999062
0.999354 1.00032 1 0.999036
0.999062 1 1 0.999062
0.999149 1 1 0.999149
0.999086 1 1 0.999086
0.99918 1 1 0.99918
0.999399 1 1 0.999399
0.999232 1 1 0.999232
0.999441 1 1 0.999441
0.999885 1 1 0.999885
0.999504 1 1 0.999504
0.999898 1 1 0.999898
0.999995 1 1 0.999995
0.99991 1 1 0.99991
0.999998 1 1 0.999998
0.999999 1 1 0.999999
0.999896 1.0009 1 0.999
0.998994 1 1 0.998994
0.999027 1.00011 1 0.998918
0.999226 1 1 0.999226
0.999107 1 1 0.999107
0.999063 1 1 0.999063
0.999527 1 1 0.999527
0.999316 1 1 0.999316
0.999234 1 1 0.999234
0.999922 1 1 0.999922
0.999613 1 1 0.999613
0.999392 1 1 0.999392
0.999687 1 1 0.999687
0.999955 1 1 0.999955
1 1 1 1
0.999979 1 1 0.999979
1 1 1 1
1 1 1 1
1.002 1.003 1 0.998997
1.00284 1.00385 1 0.998996
1.00429 1.0053 1 0.998993
1.00111 1.00223 1 0.998881
1.00197 1.00297 1 0.999002
1.00395 1.0049 1 0.999053
1.00462 1.0055 1 0.99912
1.00261 1.00356 1 0.999057
1.00126 1.00223 1 0.999029
0.999336 1.00029 1 0.999048
1.00016 1.0011 1 0.999054
0.999187 1.00012 1 0.999066
0.999125 1 1 0.999125
0.999064 1 1 0.999064
0.99915 1 1 0.99915
0.999373 1 1 0.999373
0.999179 1 1 0.999179
0.999399 1 1 0.999399
0.999867 1 1 0.999867
0.99944 1 1 0.99944
0.99988 1 1 0.99988
1 1 1 1
0.999894 1 1 0.999894
0.999996 1 1 0.999996
0.999999 1 1 0.999999
1.00001 1.00099 1 0.99902
0.999025 1 1 0.999025
0.999904 1.0009 1 0.999003
0.999113 1 1 0.999113
0.999008 1 1 0.999008
0.998969 1.00006 1 0.998911
0.999414 1 1 0.999414
0.999225 1 1 0.999225
0.999117 1 1 0.999117
0.99989 1 1 0.99989
0.999508 1 1 0.999508
0.999294 1 1 0.999294
1 1 1 1
0.999929 1 1 0.999929
0.999614 1 1 0.999614
0.999961 1 1 0.999961
1 1 1 1
1 1 1 1
1.00097 1.00197 1 0.999003
1.00231 1.00331 1 0.999005
1.00277 1.00378 1 0.998991
0.999845 1.00084 1 0.999003
1.00187 1.00287 1 0.998999
1.00411 1.00505 1 0.999058
1.0013 1.00227 1 0.99903
0.999373 1.00032 1 0.999048
0.999126 1 1 0.999126
0.999192 1.00012 1 0.999071
0.999143 1 1 0.999143
0.999314 1 1 0.999314
0.99915 1 1 0.99915
0.999373 1 1 0.999373
0.999852 1 1 0.999852
0.999398 1 1 0.999398
0.999865 1 1 0.999865
1 1 1 1
0.999874 1 1 0.999874
0.999996 1 1 0.999996
0.999997 1 1 0.999997
0.999517 1.00049 1 0.999029
0.999059 1 1 0.999059
1.00002 1.001 1 0.99902
0.999124 1 1 0.999124
0.999061 1.00003 1 0.99903
0.999915 1.00091 1 0.999006
0.999344 1 1 0.999344
0.999137 1 1 0.999137
0.999021 1 1 0.999021
0.999867 1 1 0.999867
0.999404 1 1 0.999404
0.999224 1 1 0.999224
1 1 1 1
0.999897 1 1 0.999897
0.999489 1 1 0.999489
1 1 1 1
0.999937 1 1 0.999937
1 1 1 1
0.999578 1.00056 1 0.999016
1.00074 1.00174 1 0.999004
1.00263 1.00363 1 0.999013
0.999084 1 1 0.999084
0.999732 1.00073 1 0.999005
1.00179 1.0028 1 0.998995
0.999413 1.00037 1 0.999048
0.999126 1 1 0.999126
0.999275 1 1 0.999275
0.999162 1 1 0.999162
0.999331 1 1 0.999331
0.999821 1 1 0.999821
0.999373 1 1 0.999373
0.99985 1 1 0.99985
1 1 1 1
0.999864 1 1 0.999864
1 1 1 1
0.999994 1 1 0.999994
0.999068 1.00001 1 0.999063
0.999413 1.00039 1 0.999027
0.999127 1 1 0.999127
0.999088 1.00003 1 0.999058
1.00003 1.00101 1 0.999021
0.999347 1 1 0.999347
0.999122 1 1 0.999122
0.999094 1.00006 1 0.999035
0.999851 1 1 0.999851
0.999356 1 1 0.999356
0.999161 1 1 0.999161
1 1 1 1
0.999871 1 1 0.999871
0.999395 1 1 0.999395
1 1 1 1
0.999904 1 1 0.999904
1 1 1 1
0.999101 1 1 0.999101
0.999413 1.00039 1 0.999019
1.00049 1.00149 1 0.999006
0.999247 1 1 0.999247
0.999084 1 1 0.999084
0.999586 1.00058 1 0.999008
0.999126 1 1 0.999126
0.99928 1 1 0.99928
0.999784 1 1 0.999784
0.999349 1 1 0.999349
0.999819 1 1 0.999819
1 1 1 1
0.999848 1 1 0.999848
1 1 1 1
1 1 1 1
0.999117 1 1 0.999117
0.99906 1 1 0.999058
0.999306 1.00028 1 0.999026
0.999333 1 1 0.999333
0.999127 1 1 0.999127
0.999119 1.00006 1 0.999058
0.999837 1 1 0.999837
0.999346 1 1 0.999346
0.99912 1 1 0.99912
1 1 1 1
0.999853 1 1 0.999853
0.999368 1 1 0.999368
1 1 1 1
0.999875 1 1 0.999875
1 1 1 1
0.999283 1 1 0.999283
0.999084 1 1 0.999084
0.999276 1.00025 1 0.999022
0.999763 1 1 0.999763
0.99925 1 1 0.99925
0.999084 1 1 0.999084
0.999285 1 1 0.999285
0.999782 1 1 0.999782
1 1 1 1
0.999816 1 1 0.999816
1 1 1 1
1 1 1 1
0.99931 1 1 0.99931
0.99911 1 1 0.99911
0.999052 1 1 0.999052
0.999831 1 1 0.999831
0.999332 1 1 0.999332
0.999126 1 1 0.999126
1 1 1 1
0.999837 1 1 0.999837
0.999345 1 1 0.999345
1 1 1 1
0.999856 1 1 0.999856
1 1 1 1
0.99976 1 1 0.99976
0.99927 1 1 0.99927
0.999067 1 1 0.999067
1 1 1 1
0.999762 1 1 0.999762
0.999252 1 1 0.999252
0.99978 1 1 0.99978
1 1 1 1
1 1 1 1
0.999803 1 1 0.999803
0.99931 1 1 0.99931
0.999103 1 1 0.999103
1 1 1 1
0.999818 1 1 0.999818
0.999331 1 1 0.999331
1 1 1 1
0.999838 1 1 0.999838
1 1 1 1
0.999952 1 1 0.999952
0.999777 1 1 0.999777
0.999256 1 1 0.999256
1 1 1 1
0.999762 1 1 0.999762
1 1 1 1
0.999964 1 1 0.999964
0.999799 1 1 0.999799
0.99931 1 1 0.99931
0.999986 1 1 0.999986
0.999817 1 1 0.999817
1 1 1 1
1 1 1 1
0.999766 1 1 0.999766
1 1 1 1
0.999979 1 1 0.999979
0.99979 1 1 0.99979
1 1 1 1
1 1 1 1
1 1 1 1

VECTORS lamdaE float
0.998991 1.00019 0.996676
0.999182 0.99932 0.99866
0.998908 1.00031 0.996737
0.999432 1.00001 0.99628
0.999057 1.00028 0.996548
0.99907 0.999835 0.996835
0.999745 1.00075 0.994562
0.999207 0.999194 0.998699
0.99897 1.00035 0.998561
0.99892 0.999774 0.998709
0.999344 0.998827 0.997327
0.999741 1.00048 0.994586
0.999697 1.00001 0.99585
0.999341 0.99989 0.996365
0.998813 1.00048 0.996805
0.99933 1.00003 0.996368
0.998999 0.999919 0.996898
0.998957 1.00039 0.996628
0.999811 1.0007 0.994561
0.999583 0.999997 0.998209
0.999504 0.999949 0.996235
0.999241 1.00016 0.996411
1.00063 0.999996 0.993806
1.00004 1.00054 0.994286
0.999244 0.999235 0.997104
0.999537 1.00078 0.994876
1.00113 1.00117 0.991683
0.999227 0.999061 0.998742
0.999032 1.00026 0.99752
0.999001 0.999833 0.997775
0.999322 0.998678 0.99882
0.999672 1.00057 0.994589
0.999289 1.00019 0.99637
0.999058 1.00036 0.996685
1.00028 1.00045 0.994575
0.999363 0.998149 0.999049
0.999843 1.00055 0.995141
0.999655 1.00022 0.994967
1.00044 1.00168 0.992119
0.999474 0.997673 0.999167
0.999683 1 0.998131
0.999422 0.99996 0.997322
0.99977 0.999998 0.998061
0.999394 0.999937 0.996245
1.00105 1.00002 0.992488
0.999277 1.00008 0.998481
1.00082 0.999943 0.994099
0.999229 1.00004 0.996454
0.998856 1.00054 0.996698
0.998927 1.00001 0.996972
0.999882 1.00061 0.994556
0.999552 0.999992 0.997153
0.999409 0.999926 0.996324
0.999194 0.999246 0.997165
0.999134 1.00023 0.996499
1.00067 0.999987 0.993777
0.999599 1.00073 0.994877
1.0001 1.00049 0.99428
1.00121 1.00119 0.991596
0.999669 1.00001 0.998137
0.999526 0.999975 0.996148
1.00087 1.00001 0.993872
1.0007 0.999902 0.993783
1.00036 1.00025 0.994015
1.00268 0.99993 0.990131
1.0017 1.00064 0.990901
0.999464 0.998526 0.997429
0.999399 1.00053 0.995353
1.00056 1.0016 0.992254
1.00191 1.00131 0.989702
0.999067 1.00019 0.998481
0.999343 0.99852 0.9989
0.999072 0.999594 0.998639
0.999605 1.00066 0.994591
0.999307 1.00018 0.998388
0.999024 1.00014 0.998531
1.00017 1.00047 0.993671
0.999389 0.998218 0.998356
0.99974 1.00068 0.994325
0.999616 1.00019 0.995419
1.00043 1.00167 0.992108
0.999447 0.997918 0.999081
0.999645 0.99885 0.996385
1.00054 1.00014 0.993366
1 1.00063 0.993958
1.00188 1.00062 0.990416
0.999591 0.99968 0.996261
1.00079 1.00133 0.991813
1.00018 1.00188 0.992413
1.00092 1.00192 0.990884
0.999522 0.997383 0.999236
0.999465 0.997623 0.999191
0.999463 1 0.998332
0.999626 1 0.998181
0.999754 1 0.998074
0.999488 0.999988 0.997213
1.00103 1.00002 0.993104
0.999329 1.00002 0.997393
1.00078 0.999943 0.993636
0.999762 0.999998 0.998069
1.00114 0.999971 0.992336
1.00092 0.999994 0.993884
1.00315 0.999776 0.988839
1.0007 0.99998 0.994255
1.00281 0.999849 0.989429
0.999627 0.999992 0.995987
0.999314 0.999886 0.996413
0.999138 0.99922 0.997236
0.999031 1.00031 0.996582
1.0007 0.999987 0.99375
1.00016 1.00042 0.994277
0.999662 1.00067 0.994872
1.00128 1.00123 0.99151
0.99971 1 0.998106
0.999427 0.99995 0.996252
1.00092 1 0.993014
1.00073 0.999885 0.993746
0.999397 0.9985 0.998159
0.999493 1.00047 0.995463
1.00041 1.00022 0.994002
1.00266 0.999926 0.99003
1.00064 1.00163 0.992166
1.00173 1.00069 0.99097
1.00191 1.00131 0.989706
1.00104 1.00002 0.992476
1.00071 0.999944 0.993698
1.00298 0.999826 0.989384
1.00275 0.999739 0.989914
1.00231 1.0002 0.990273
1.0037 0.999644 0.988265
0.999476 0.998041 0.999023
1.00253 1.00069 0.989117
0.999574 1.00005 0.995287
1.0001 1.0018 0.992516
1.00133 1.00196 0.990264
1.00241 1.00124 0.988828
0.999678 0.999148 0.995956
1.00008 1.00079 0.993638
0.999238 1.00017 0.998406
0.998982 0.999999 0.998572
1.00014 1.00049 0.993684
0.999407 0.998126 0.99904
0.999556 1.00026 0.995077
0.999664 1.00079 0.994317
1.00043 1.00165 0.992097
0.999437 0.997886 0.99911
0.99965 0.998796 0.996409
1.00052 1.00013 0.993888
0.999919 1.00064 0.994444
1.00187 1.00061 0.990433
0.999588 0.999651 0.995672
1.00077 1.00132 0.991824
1.00016 1.00189 0.992406
1.00093 1.00192 0.990836
0.999598 0.999259 0.996045
0.999723 0.998431 0.996669
1 1.00064 0.993901
1.00239 1.00017 0.98987
1.00126 1.00105 0.991192
1.00274 1.00065 0.988781
1.00012 1.00155 0.992837
1.00136 1.00146 0.99051
1.00058 1.00251 0.991097
1.0011 1.0022 0.990375
0.9996 0.997097 0.999282
0.999526 0.997328 0.999252
0.999459 0.997568 0.999214
0.999719 0.998784 0.99627
0.999501 0.997795 0.999109
0.999377 1.00007 0.998369
0.999526 0.999994 0.998272
1.00075 0.999922 0.993137
1.00098 1.00002 0.992592
0.999729 1 0.998093
0.999769 0.999999 0.998061
1.00113 0.999979 0.992343
1.00086 1 0.993425
1.00315 0.999777 0.988843
1.00064 0.999945 0.993288
1.0028 0.999857 0.989428
1.00115 0.999967 0.992309
1.00335 0.999724 0.988511
1.00294 0.999801 0.989219
1.00418 0.999445 0.98726
1.00267 0.999946 0.989592
1.00382 0.999504 0.987908
0.99974 1 0.99808
0.999327 0.999909 0.996361
1.00093 0.999986 0.992209
1.00077 0.999888 0.993708
0.999298 0.998441 0.998932
0.999586 1.00044 0.99557
1.00046 1.00018 0.993991
1.00265 0.999918 0.989929
1.00177 1.00075 0.991039
1.00073 1.00169 0.992077
1.00191 1.00131 0.989709
1.00105 1 0.992466
1.00075 0.99993 0.993664
1.00296 0.99981 0.989169
1.00275 0.99978 0.990015
0.99946 0.998086 0.998992
0.999581 1.00001 0.995624
1.00018 1.00181 0.992608
1.00229 1.00024 0.990278
1.00369 0.999579 0.988125
1.00126 1.00195 0.990252
1.00257 1.00071 0.989182
1.00241 1.00124 0.988836
0.999658 0.999218 0.995942
1.00008 1.00077 0.993634
1.00326 0.99976 0.98863
1.00274 0.999793 0.989845
1.00397 0.999585 0.987798
1.00382 0.999296 0.987977
1.0032 1.00008 0.988611
1.00425 0.999112 0.987619
0.999628 0.999567 0.995605
1.00315 1.00043 0.988235
1.00005 1.00166 0.992748
1.00061 1.00228 0.990965
1.00183 1.00211 0.989435
1.00281 1.00099 0.988431
1.00011 1.00127 0.99313
1.0001 1.00024 0.994155
1.00027 1.00186 0.992224
1.00046 1.00014 0.993427
0.999427 0.99785 0.999138
0.999651 0.998751 0.996434
0.999815 1.00075 0.994039
1.00186 1.00059 0.99045
0.999583 0.999619 0.99564
1.00013 1.00188 0.9924
1.00075 1.00131 0.991834
1.00094 1.00192 0.990789
0.999609 0.999197 0.996063
0.999716 0.998409 0.996686
1 1.00066 0.993908
1.00239 1.00019 0.989875
1.00123 1.00104 0.991216
1.00274 1.00065 0.988781
1.00009 1.00159 0.992838
1.00138 1.00147 0.99055
1.00057 1.00251 0.991091
1.00108 1.00219 0.990335
0.999799 0.998104 0.996855
1.00009 1.00109 0.993315
0.999999 1.00009 0.994479
1.00018 1.00172 0.992562
1.00334 1.00002 0.98825
1.00196 1.0012 0.989737
1.00326 1.00048 0.987956
1.0004 1.00239 0.991583
1.00168 1.00146 0.989993
1.00061 1.00328 0.990231
1.00126 1.00206 0.989943
1.00016 0.999066 0.995236
0.999926 0.997658 0.997053
0.999689 0.996847 0.999313
0.999612 0.99705 0.999292
0.999532 0.997272 0.999267
0.999781 0.998458 0.996493
0.999533 0.997544 0.999175
0.999716 0.998826 0.996248
0.999506 0.997826 0.999083
1.00065 0.999929 0.993286
1.00084 0.999992 0.992904
1.0028 0.999863 0.989427
1.00314 0.99978 0.988848
1.00112 0.999987 0.992349
0.999777 1 0.998056
1.00115 0.999971 0.992304
1.00335 0.999724 0.988512
1.00293 0.999814 0.989219
1.00419 0.99945 0.987259
1.00266 0.99996 0.989593
1.00382 0.999499 0.987908
1.00337 0.999713 0.988479
1.0044 0.999361 0.986922
1.00397 0.99945 0.987667
1.00466 0.99901 0.986818
1.00364 0.999679 0.988053
1.00435 0.998999 0.987408
1.00107 0.999994 0.992454
1.0008 0.99993 0.993628
1.00295 0.999789 0.988955
1.00276 0.999809 0.990117
0.999446 0.998143 0.99896
0.999603 1 0.995941
1.00028 1.00181 0.992699
1.00226 1.00028 0.990282
1.00368 0.999511 0.987986
1.00261 1.00074 0.989247
1.00119 1.00195 0.990239
1.0024 1.00123 0.988844
0.999641 0.999282 0.995927
1.00009 1.00075 0.993629
1.00324 0.999748 0.988568
1.00276 0.999785 0.98984
1.00399 0.999562 0.987715
1.00382 0.999364 0.988115
0.999619 0.999621 0.995603
1.00009 1.00168 0.992748
1.00061 1.00224 0.991074
1.00323 1.00013 0.98861
1.00425 0.999025 0.987582
1.00177 1.00212 0.989319
1.00314 1.00044 0.988235
1.00275 1.00095 0.98846
1.00012 1.00121 0.993137
1.00027 1.00182 0.992237
1.00009 1.00025 0.994143
1.00425 0.9995 0.987349
1.00379 0.999472 0.988108
1.00448 0.999303 0.987014
1.00438 0.998836 0.987516
1.00379 0.99958 0.987722
1.00458 0.99849 0.987507
1.0001 1.00152 0.992878
1.00348 1.00008 0.987916
1.00044 1.0021 0.991688
1.00087 1.00274 0.990037
1.0021 1.00212 0.988704
1.00301 1.00051 0.988725
1.00013 0.999866 0.994461
1.00036 1.00189 0.992053
1.00026 1.00143 0.992616
1.00026 1.00242 0.991749
1.00239 1.00019 0.98988
0.999708 0.998387 0.996703
0.999622 0.99913 0.996081
1 1.00066 0.993915
1.00121 1.00103 0.991241
1.00274 1.00065 0.988781
1.00005 1.00163 0.992839
1.00056 1.00251 0.991084
1.0014 1.00147 0.99059
1.00105 1.00219 0.990296
0.99979 0.998095 0.996862
1.00007 1.00113 0.993314
1.00001 1.00007 0.994491
1.00017 1.00175 0.992551
1.00335 1.00004 0.98824
1.00194 1.00121 0.989752
1.00325 1.00049 0.987957
1.00036 1.00239 0.991594
1.00171 1.00149 0.99004
1.00063 1.0033 0.990189
1.00123 1.00198 0.990181
0.999866 0.997858 0.996972
1.00005 0.999647 0.994844
1.00031 1.00201 0.992088
1.00017 1.00118 0.993113
1.00012 1.0026 0.99182
1.00389 0.999698 0.987531
1.00234 1.00116 0.989016
1.00352 1.00031 0.987639
1.00035 1.00347 0.990603
1.00187 1.00137 0.989716
1.00078 1.00339 0.989313
1.00012 0.999208 0.995153
1.00019 1.00004 0.994209
1.00018 0.998964 0.99529
1.00015 0.999087 0.995232
0.999964 0.997451 0.997558
0.999915 0.997638 0.997279
0.999819 0.996652 0.998461
0.999701 0.996806 0.999321
0.999623 0.997003 0.999302
0.999847 0.998205 0.996626
0.999599 0.99729 0.999218
0.999786 0.998478 0.996478
0.999538 0.997585 0.999156
0.999711 0.998871 0.996226
0.99951 0.997862 0.999056
1.00266 0.999971 0.989593
1.00293 0.999823 0.989219
1.00382 0.999501 0.987909
1.00419 0.999456 0.987258
1.00335 0.999724 0.988513
1.00116 0.999974 0.992301
1.00337 0.99971 0.988476
1.00441 0.999362 0.986922
1.00396 0.999465 0.987669
1.00467 0.998984 0.986785
1.00365 0.999673 0.988047
1.00435 0.999 0.987409
1.00442 0.999346 0.986897
1.00488 0.998914 0.986444
1.0045 0.998963 0.987154
1.00493 0.998643 0.986758
1.00416 0.999255 0.987496
1.00461 0.998395 0.987507
1.00321 0.999737 0.988505
1.00278 0.99977 0.989835
1.004 0.999546 0.987632
1.00382 0.999434 0.988252
0.999614 0.999662 0.9956
1.0001 1.00169 0.992749
1.00063 1.0022 0.991183
1.00326 1.00017 0.988608
1.00425 0.998937 0.987545
1.00313 1.00045 0.988236
1.00171 1.00213 0.989203
1.00269 1.00091 0.988489
1.00013 1.00116 0.993145
1.00028 1.00179 0.992249
1.00009 1.00026 0.994132
1.00427 0.999481 0.987204
1.00381 0.999435 0.98811
1.00446 0.99925 0.986985
1.00438 0.998881 0.987535
1.00012 1.00147 0.992887
1.00048 1.00209 0.991668
1.00084 1.00273 0.990176
1.00379 0.999681 0.987789
1.0046 0.998396 0.987502
1.00201 1.00219 0.988636
1.0035 1.00007 0.987906
1.00296 1.00041 0.988766
1.00036 1.0019 0.992068
1.00027 1.00244 0.991694
1.00013 0.999882 0.994455
1.00026 1.00137 0.992688
1.00472 0.999144 0.986587
1.00431 0.999124 0.987453
1.00475 0.998807 0.9869
1.00469 0.9984 0.9873
1.00428 0.99903 0.987426
1.00484 0.99818 0.987303
1.0004 1.00191 0.991955
1.0036 0.999254 0.988371
1.00043 1.00265 0.99097
1.00117 1.00318 0.98923
1.00226 1.00213 0.988226
1.00313 1.00036 0.988772
1.00016 0.999682 0.994612
1.00027 1.00096 0.993074
1.00037 1.00231 0.99164
1.00022 1.00218 0.992076
1.00027 1.00259 0.991538
0.999782 0.998087 0.99687
1.00336 1.00005 0.988229
1.00001 1.00005 0.994503
1.00006 1.00119 0.993315
1.00017 1.00178 0.992541
1.00192 1.00121 0.989767
1.00325 1.0005 0.987958
1.00033 1.0024 0.991606
1.00065 1.00332 0.990147
1.00174 1.00151 0.990088
1.0012 1.0019 0.990419
0.999859 0.99785 0.996977
1.00005 0.999638 0.994852
1.00029 1.00201 0.992088
1.00016 1.0012 0.993115
1.00012 1.00265 0.99175
1.0039 0.999714 0.987518
1.00234 1.00116 0.989024
1.00351 1.00033 0.987623
1.00032 1.00347 0.990617
1.00188 1.00139 0.989762
1.0009 1.00337 0.989402
1.00009 0.999391 0.995037
1.00018 1.00066 0.993616
1.00028 1.00299 0.991215
1.00008 1.0022 0.992279
1.00009 1.00329 0.991239
1.0042 0.999341 0.987289
1.0026 1.00096 0.988708
1.00338 0.999808 0.988236
1.00025 1.00452 0.989606
1.00165 1.00258 0.988942
1.00012 0.999218 0.995152
1.00017 1.00016 0.994026
1.00019 1.00006 0.994158
1.00015 1.00078 0.993678
1.00021 1.00002 0.994203
1.00022 0.998896 0.995298
1.00018 0.998968 0.995287
1.00002 0.997285 0.997609
1.00014 0.999104 0.995227
0.99997 0.997443 0.997565
0.999904 0.996437 0.998508
0.999905 0.997625 0.997503
0.999797 0.996614 0.998904
0.999714 0.996765 0.99933
0.999903 0.998001 0.996723
0.999851 0.998215 0.996619
0.999678 0.997064 0.999246
0.999594 0.997333 0.999206
0.999791 0.998497 0.996463
0.999542 0.99762 0.999135
1.00366 0.999666 0.988041
1.00396 0.999472 0.987671
1.00435 0.998999 0.987411
1.00469 0.998958 0.986753
1.00441 0.999362 0.986923
1.00338 0.999708 0.988474
1.00443 0.999346 0.986899
1.00488 0.99892 0.986416
1.00449 0.998975 0.987158
1.00492 0.998593 0.98677
1.00417 0.999248 0.987484
1.00463 0.998339 0.9875
1.0049 0.998969 0.986377
1.00507 0.998647 0.98642
1.00479 0.998365 0.98715
1.00499 0.99834 0.986852
1.00447 0.998674 0.987448
1.00485 0.997974 0.987558
1.00429 0.99946 0.987059
1.00382 0.999402 0.988112
1.00445 0.999195 0.986957
1.00439 0.998923 0.987553
1.00015 1.00142 0.992896
1.00052 1.00209 0.991648
1.0008 1.00273 0.990315
1.00378 0.999783 0.987856
1.00462 0.998303 0.987497
1.00351 1.00006 0.987896
1.00192 1.00226 0.988568
1.00291 1.00031 0.988807
1.00036 1.0019 0.992082
1.00029 1.00245 0.991639
1.00012 0.999896 0.994448
1.00026 1.0013 0.992759
1.00471 0.999147 0.986583
1.00431 0.999124 0.987456
1.00468 0.99878 0.987009
1.0047 0.998428 0.9873
1.00043 1.00191 0.991951
1.00043 1.0026 0.991082
1.00114 1.00325 0.989219
1.00428 0.999111 0.987439
1.00478 0.998092 0.987428
1.00225 1.0022 0.98818
1.00365 0.999285 0.988358
1.00307 1.0001 0.988863
1.0004 1.00229 0.991645
1.00028 1.0026 0.991524
1.00021 1.00219 0.99207
1.00015 0.999678 0.994539
1.00027 1.00091 0.99312
1.00499 0.998654 0.986535
1.00472 0.998556 0.987126
1.00493 0.998058 0.987156
1.00451 0.998432 0.987439
1.00041 1.0023 0.991559
1.00404 0.998647 0.988585
1.00031 1.00315 0.990457
1.00145 1.00373 0.988167
1.00265 1.00204 0.987743
1.00017 0.999532 0.994585
1.00026 1.00068 0.9935
1.0002 1.00171 0.992585
1.00036 1.00238 0.991584
1.00021 1.00271 0.991629
1.00035 1.00252 0.991413
0.999853 0.997843 0.996981
1.00005 0.999629 0.994861
1.0039 0.999728 0.987504
1.00015 1.00122 0.993117
1.00027 1.002 0.992088
1.00011 1.0027 0.99168
1.00234 1.00116 0.989033
1.00349 1.00034 0.987608
1.00028 1.00346 0.99063
1.00103 1.00334 0.989491
1.0019 1.00142 0.989809
1.00008 0.999396 0.99504
1.00018 1.00065 0.993624
1.00025 1.00296 0.991252
1.00009 1.00219 0.992277
1.00008 1.00334 0.991158
1.00418 0.99938 0.987287
1.00262 1.00096 0.988688
1.00344 0.999649 0.988361
1.00021 1.00449 0.989604
1.00165 1.00278 0.988756
1.00016 1.00035 0.99395
1.00012 1.00163 0.992693
1.00015 1.00396 0.990486
1.00005 1.00306 0.991401
1.00021 1.00359 0.990701
1.00448 0.998022 0.988023
1.00275 1.00133 0.988304
1.0037 0.998483 0.988349
1.00059 1.00474 0.989209
1.00137 1.00357 0.987741
1.00011 0.999229 0.995151
1.00018 1.00016 0.994076
1.00015 1.00093 0.993348
1.00019 1.00008 0.994107
1.00021 1.00002 0.994204
1.00014 1.00078 0.993602
1.00008 1.00134 0.993217
1.00013 1.00073 0.993604
1.00024 0.999974 0.994209
1.00023 0.998896 0.995267
1.00021 0.998894 0.995299
1.00007 0.997186 0.997614
1.00018 0.998972 0.995285
1.00002 0.997283 0.997612
0.999965 0.996276 0.998543
0.999977 0.99743 0.997574
0.999896 0.996414 0.998508
0.999773 0.996569 0.999354
0.999956 0.997808 0.996819
0.999907 0.998009 0.996718
0.999753 0.996859 0.999271
0.999856 0.998226 0.996612
0.999668 0.9971 0.999238
0.999591 0.997371 0.999193
1.00418 0.999242 0.987473
1.00449 0.99899 0.987161
1.00465 0.998285 0.987493
1.00491 0.99854 0.986782
1.00489 0.998925 0.986388
1.00443 0.999346 0.9869
1.00489 0.998991 0.986374
1.00507 0.998668 0.986405
1.0048 0.998394 0.987107
1.00502 0.998263 0.986846
1.00447 0.998672 0.987449
1.0048 0.99788 0.987651
1.00507 0.998696 0.986348
1.00511 0.998318 0.986654
1.005 0.997832 0.987303
1.00477 0.997883 0.987723
1.00471 0.99915 0.986578
1.00432 0.999123 0.98746
1.00461 0.998752 0.987119
1.00471 0.998457 0.987301
1.00045 1.00191 0.991947
1.00044 1.00254 0.991194
1.00112 1.00331 0.989208
1.00428 0.999192 0.987451
1.00474 0.998007 0.987552
1.00369 0.999316 0.988345
1.00223 1.00227 0.988134
1.003 0.999859 0.988954
1.00042 1.00228 0.99165
1.00031 1.0026 0.99151
1.00019 1.00221 0.992063
1.00015 0.999677 0.994467
1.00028 1.00087 0.993165
1.00496 0.998644 0.986595
1.00472 0.998582 0.987124
1.00491 0.998133 0.987195
1.00045 1.00229 0.991546
1.00042 1.0031 0.990575
1.00139 1.00383 0.988142
1.00459 0.998438 0.987455
1.00262 1.00184 0.98791
1.00381 0.998648 0.988697
1.00017 0.99951 0.994604
1.00038 1.00238 0.991582
1.00035 1.00252 0.991445
1.0002 1.00275 0.991591
1.00021 1.00169 0.992616
1.00026 1.00068 0.993439
1.00507 0.998333 0.986739
1.00495 0.997941 0.987323
1.00493 0.997959 0.987075
1.00504 0.997761 0.987271
1.00038 1.00255 0.991352
1.00351 1.0001 0.98791
1.00055 1.00415 0.989177
1.00174 1.00411 0.987394
1.00018 0.999376 0.994736
1.00026 1.00051 0.9937
1.00021 1.00146 0.992872
1.00016 1.00239 0.991977
1.00042 1.00249 0.991419
1.00034 1.00266 0.991342
1.00008 0.999399 0.995042
1.00018 1.00064 0.993631
1.00417 0.999423 0.987286
1.00009 1.00218 0.992276
1.00021 1.00295 0.991291
1.00007 1.00339 0.991076
1.00264 1.00096 0.988668
1.0035 0.999484 0.988485
1.00017 1.00447 0.989601
1.00165 1.003 0.988569
1.00017 1.00033 0.993954
1.00013 1.00162 0.992724
1.00011 1.00395 0.990569
1.00005 1.00309 0.991414
1.00015 1.00366 0.990688
1.00451 0.998106 0.987991
1.00281 1.00116 0.988308
1.00355 0.998315 0.989136
1.00048 1.00469 0.989199
1.00154 1.00394 0.987376
1.00014 1.00113 0.993156
1.00008 1.0025 0.991871
1.00014 1.00438 0.990057
1.00007 1.00373 0.990504
1.00507 0.996888 0.988243
1.00473 0.996941 0.988577
1.00299 1.00152 0.987356
1.00069 1.00481 0.987967
1.00018 1.00015 0.994125
1.00015 1.00094 0.993385
1.00009 1.00158 0.992921
1.00021 1.00002 0.994205
1.00013 1.00076 0.993526
1.00024 0.999962 0.99421
1.00008 1.00135 0.993156
1.00013 1.00072 0.993625
1.00004 1.00178 0.992803
1.00009 1.00122 0.993204
1.00014 1.00066 0.993635
1.00026 0.999964 0.994184
1.00023 0.998941 0.995215
1.00023 0.998896 0.995266
1.0001 0.997158 0.997587
1.00021 0.998889 0.9953
1.00007 0.997201 0.99761
1.00001 0.996197 0.998533
1.00003 0.997283 0.997616
0.999959 0.996254 0.998544
0.999887 0.996393 0.998506
1.00001 0.997611 0.996925
0.99996 0.997814 0.996815
0.999821 0.996664 0.999297
0.999912 0.998018 0.996714
0.999743 0.996893 0.999263
0.99966 0.997136 0.999229
1.00448 0.998669 0.98745
1.00481 0.998423 0.987065
1.00476 0.997786 0.987743
1.00506 0.998189 0.98684
1.00507 0.998689 0.98639
1.00488 0.999013 0.986372
1.00506 0.998694 0.986376
1.0051 0.998329 0.986651
1.005 0.997831 0.987303
1.00477 0.997837 0.987716
1.00511 0.998405 0.986577
1.00514 0.997724 0.987228
1.00506 0.997389 0.987624
1.00493 0.998634 0.986654
1.00471 0.998609 0.987122
1.0049 0.998205 0.987235
1.00049 1.00229 0.991533
1.00054 1.00305 0.990693
1.00134 1.00392 0.988117
1.00467 0.998444 0.987471
1.00359 0.998654 0.988808
1.00261 1.00165 0.988078
1.0004 1.00238 0.991581
1.00032 1.00252 0.991477
1.00019 1.00279 0.991553
1.00017 0.999485 0.994623
1.00021 1.00167 0.992648
1.00026 1.00066 0.993378
1.00508 0.998347 0.986696
1.00494 0.997927 0.987341
1.00498 0.997989 0.987086
1.00042 1.00256 0.991321
1.00048 1.00412 0.989434
1.0018 1.00406 0.987379
1.00488 0.997859 0.987528
1.00351 1.00003 0.987858
1.00018 0.999352 0.994824
1.00025 1.00051 0.993701
1.00037 1.00245 0.991415
1.00034 1.00256 0.991467
1.00016 1.00237 0.991943
1.0002 1.00148 0.992828
1.00511 0.997809 0.987135
1.00506 0.997387 0.98763
1.00511 0.997533 0.987209
1.00468 0.997588 0.988018
1.00015 1.00325 0.990922
1.00247 1.00307 0.986882
1.00092 1.00485 0.98841
1.00019 0.999193 0.99504
1.00018 1.00016 0.994111
1.00022 1.00044 0.993667
1.00018 1.00133 0.992978
1.0001 1.00215 0.992288
1.00004 1.00314 0.991335
1.00057 1.0017 0.991753
1.00025 1.0029 0.99187
1.00018 1.00032 0.993959
1.00014 1.00161 0.992755
1.00455 0.998199 0.987959
1.00004 1.00311 0.991427
1.00007 1.00394 0.990651
1.00008 1.00373 0.990676
1.00287 1.00098 0.988311
1.00341 0.998131 0.989917
1.00037 1.00462 0.989189
1.00171 1.00428 0.987011
1.00015 1.00116 0.993113
1.00008 1.00253 0.991884
1.00011 1.00437 0.990113
1.00013 1.00376 0.990557
1.00508 0.996895 0.988184
1.00457 0.997078 0.988635
1.00307 1.00143 0.987658
1.00088 1.00485 0.987802
1.00009 1.00187 0.992601
1.00507 0.996545 0.988324
1.00005 1.00352 0.99117
1.0004 1.0044 0.989512
1.00513 0.996119 0.98873
1.00445 0.998159 0.987894
1.00187 1.0041 0.987142
1.00015 1.00096 0.993422
1.00009 1.00158 0.992916
1.00003 1.00212 0.992482
1.00024 0.999952 0.994211
1.00014 1.00071 0.993646
1.00007 1.00136 0.993096
1.00026 0.999956 0.994183
1.00014 1.00067 0.993635
1.00005 1.0018 0.992748
1.00009 1.00122 0.99326
1.00005 1.00206 0.992466
1.00007 1.00162 0.99282
1.00009 1.00115 0.993339
1.00019 1.00061 0.993644
1.00026 1.00001 0.994127
1.00022 0.998995 0.995171
1.00023 0.998943 0.995216
1.00011 0.997162 0.99755
1.00023 0.9989 0.995265
1.0001 0.99718 0.997582
1.00004 0.996161 0.998513
1.00007 0.997216 0.997606
1.00001 0.996167 0.998537
0.999953 0.996232 0.998544
1.0002 0.999028 0.995179
1.00005 0.997423 0.997026
1.00001 0.997619 0.99692
0.999882 0.996475 0.999324
0.999963 0.997823 0.996811
0.999812 0.996696 0.999289
0.999734 0.996926 0.999255
1.00478 0.997787 0.987709
1.005 0.997829 0.987302
1.0051 0.998333 0.986648
1.00506 0.998692 0.986404
1.00511 0.998391 0.986594
1.00514 0.997742 0.987179
1.00506 0.997354 0.98764
1.00511 0.99783 0.987117
1.00517 0.997204 0.987728
1.00506 0.996305 0.988486
1.00509 0.99836 0.986653
1.00493 0.997917 0.987359
1.00503 0.998021 0.987096
1.00046 1.00257 0.991289
1.00041 1.00405 0.989691
1.00183 1.00402 0.987365
1.00474 0.997942 0.987784
1.00348 0.999946 0.987806
1.00032 1.00241 0.991411
1.00036 1.00247 0.991589
1.00015 1.00239 0.99191
1.00018 0.999328 0.994913
1.00025 1.00051 0.993702
1.00018 1.00151 0.992784
1.0051 0.997764 0.987231
1.0002 0.999187 0.995037
1.00017 1.00017 0.99407
1.00505 0.997439 0.987603
1.00509 0.997664 0.987142
1.00011 1.00322 0.991082
1.0009 1.00481 0.988267
1.00246 1.00295 0.986898
1.00468 0.997586 0.988056
1.00022 1.00044 0.993795
1.00018 1.00132 0.992976
1.00066 1.0018 0.991543
1.00013 1.00232 0.992294
1.00002 1.00324 0.99124
1.00012 1.00212 0.9923
1.00512 0.996908 0.988007
1.00514 0.997369 0.987627
1.00511 0.99647 0.988191
1.00372 0.99923 0.987915
1.00028 1.00316 0.991018
1.0015 1.00472 0.987419
1.00017 1.00004 0.994162
1.00019 1.00033 0.993919
1.0001 1.00103 0.99352
1.00016 1.00129 0.992949
1.00009 1.00204 0.992526
0.999927 1.00287 0.991698
0.999845 1.00422 0.990887
1.00026 1.00164 0.992397
1.00015 1.00119 0.993071
1.00008 1.00257 0.991897
1.0051 0.996885 0.988125
1.00441 0.997247 0.988695
1.00019 1.00378 0.99061
1.00009 1.00435 0.99017
1.00314 1.00136 0.987962
1.00107 1.00493 0.987637
1.00008 1.0019 0.992584
1.00509 0.996529 0.98835
1.00003 1.00342 0.991194
1.00038 1.00435 0.989472
1.00513 0.996005 0.988648
1.00449 0.998104 0.987991
1.00177 1.0043 0.987254
1.00002 1.00282 0.991845
1.00517 0.995796 0.989589
1.00038 1.00383 0.990522
1.00088 1.0047 0.988749
1.00497 0.996216 0.98867
1.00275 1.00174 0.987478
1.00086 1.00009 0.991911
1.00009 1.00158 0.99291
1.00003 1.00212 0.992478
1.0001 1.00231 0.992139
1.00026 0.999951 0.994181
1.00014 1.00068 0.993634
1.00008 1.00121 0.993316
1.00006 1.00182 0.992694
1.00026 1.00001 0.994124
1.00019 1.00061 0.993619
1.00006 1.00208 0.992443
1.0001 1.00113 0.993333
1.00007 1.00164 0.992868
1.00007 1.00193 0.992557
1.00007 1.0014 0.993103
1.00016 1.00103 0.993344
1.00026 1.00061 0.993496
1.00027 1.00005 0.993988
1.00021 1.00064 0.993667
1.00026 1.00006 0.993997
1.00022 0.999022 0.995153
1.00022 0.998995 0.995172
1.00014 0.997211 0.997081
1.00023 0.998947 0.995216
1.00012 0.997187 0.997331
1.00002 0.996105 0.999365
1.0001 0.997201 0.997577
1.00004 0.996126 0.998517
1.00001 0.996138 0.99854
1.00021 0.998915 0.99529
1.00021 0.99903 0.995175
1.00009 0.997276 0.997105
1.00005 0.997431 0.997243
0.999936 0.996315 0.999347
1.00001 0.997625 0.996915
0.999875 0.996508 0.999316
0.999804 0.996731 0.999281
1.00505 0.997325 0.987656
1.00515 0.997758 0.98713
1.00511 0.998382 0.986611
1.00512 0.997825 0.987107
1.00515 0.997202 0.987701
1.00506 0.996449 0.98844
1.00512 0.996775 0.988117
1.00206 1.00008 0.988551
1.00524 0.995526 0.989412
1.00018 0.999974 0.994324
1.0051 0.997718 0.987326
1.00505 0.997476 0.987576
1.00506 0.997824 0.987075
1.00007 1.0032 0.991243
1.00089 1.00481 0.988122
1.00245 1.00286 0.986915
1.00468 0.997634 0.988095
1.00075 1.00192 0.991335
0.999996 1.00174 0.992723
1.00001 1.00332 0.991145
1.0002 0.999185 0.995035
1.00014 1.00208 0.992311
1.00022 1.00043 0.993923
1.00018 1.00132 0.992974
1.00017 1.00018 0.994028
1.00512 0.996877 0.988051
1.00017 1.00003 0.994218
1.00019 1.00034 0.993915
1.00011 1.00102 0.993423
1.00514 0.99719 0.98763
1.00504 0.996699 0.988121
1.00037 1.00277 0.991094
1.00127 1.00474 0.987404
1.00375 0.999406 0.987912
1.00016 1.00129 0.993014
1.00009 1.00202 0.992504
1.0002 1.00198 0.992143
0.999849 1.00396 0.991044
0.999952 1.0029 0.991764
1.00515 0.996518 0.988422
1.00516 0.997812 0.987148
1.0048 0.996836 0.988461
1.00225 1.00236 0.988218
1.00025 1.00332 0.990836
1.00013 1.00083 0.993459
1.00012 1.00119 0.993178
1.00011 1.00156 0.99299
1.00005 1.00189 0.992612
1.00002 1.00253 0.992155
0.99984 1.00356 0.991307
0.999779 1.00423 0.990666
1.00008 1.00192 0.992567
1.00001 1.00332 0.991217
1.00512 0.996516 0.988377
1.00512 0.995903 0.988567
1.00453 0.998002 0.988088
1.00036 1.00431 0.989433
1.00165 1.00448 0.987367
1 1.00275 0.991945
1.00516 0.995648 0.989573
1.00024 1.00381 0.990553
1.00065 1.00472 0.988876
1.00503 0.995895 0.9888
1.00272 1.00189 0.98744
1.00082 1.0001 0.990769
1.00009 1.00314 0.991428
1.00503 0.995529 0.990538
1.00008 1.00409 0.990556
1.00077 1.00455 0.988595
1.00335 0.998061 0.988758
1.00116 0.995519 0.963165
0.996308 1.00107 0.980537
1.00023 0.999936 0.993311
0.998551 0.997623 0.953407
0.994448 0.998274 0.951881
1.00003 1.00213 0.992474
1.00007 1.00234 0.992189
1.00013 1.00209 0.992353
1.00026 1 0.994121
1.00019 1.00059 0.993594
1.00011 1.00112 0.993328
1.00007 1.00166 0.992917
1.00006 1.00208 0.99242
1.00016 1.00103 0.993306
1.00026 1.00005 0.994038
1.00026 1.0006 0.993528
1.00007 1.00194 0.99256
1.00008 1.0014 0.993097
1.00011 1.00127 0.993116
1.00009 1.00152 0.992962
1.00024 1.00096 0.993196
1.00031 1.00062 0.993384
1.00026 1.00005 0.993986
1.00028 1.00062 0.993515
1.00023 1.00096 0.993305
1.00015 1.00072 0.993607
1.00022 1.00065 0.993605
1.00025 1.00005 0.994107
1.00026 1.00007 0.993994
1.00022 0.999029 0.99515
1.00022 0.999019 0.995152
1.00013 0.997259 0.997061
1.00022 0.998993 0.995173
1.00014 0.997214 0.997079
1.00003 0.996113 0.999359
1.00013 0.997211 0.997111
1.00004 0.996109 0.998932
1.00005 0.996092 0.99852
1.00021 0.998831 0.995369
1.00021 0.99891 0.995289
1.00011 0.997167 0.997171
1.00021 0.99903 0.995172
1.00008 0.997269 0.997321
0.999979 0.996194 0.999365
1.00005 0.99745 0.99701
0.999928 0.996365 0.999338
0.999867 0.996539 0.999307
1.00513 0.997203 0.987674
1.00513 0.997822 0.987098
1.00507 0.996589 0.988393
1.00193 0.998968 0.988673
1.00511 0.99679 0.988164
1.00525 0.995846 0.989299
1.00526 0.996827 0.988246
0.998407 0.999781 0.977417
1.00332 0.997043 0.989039
1.00018 0.999938 0.994352
1.00018 0.999964 0.994324
1.00011 1.00074 0.99367
1.0001 1.00069 0.993748
1.00513 0.996855 0.988095
1.00515 0.997111 0.987633
1.005 0.996865 0.98805
1.00047 1.00242 0.991169
1.00103 1.00475 0.987389
1.00378 0.999615 0.987908
1.00015 1.00234 0.991884
0.999863 1.00372 0.991202
0.999976 1.00293 0.991829
1.00019 1.00035 0.99391
1.00008 1.002 0.992483
1.00017 1.0013 0.993078
1.00018 1.00002 0.994275
1.00011 1.001 0.993327
1.00502 0.996557 0.988455
1.00013 1.00084 0.993557
1.00011 1.00118 0.993218
1.00012 1.00152 0.992921
1.00516 0.997429 0.987246
1.00472 0.996979 0.988385
1.00032 1.00317 0.99082
1.0022 1.00262 0.988096
1.00007 1.00192 0.992605
0.999972 1.00251 0.992199
0.999807 1.00427 0.990669
0.999895 1.00373 0.991167
1.00522 0.99679 0.987988
1.00507 0.99674 0.987739
1.00335 0.99977 0.98852
1.00027 1.00395 0.990258
1.00014 1.00152 0.992823
1.00003 1.00174 0.992817
0.999993 1.00251 0.992139
0.999906 1.00432 0.990399
1.00025 0.995038 0.960716
0.999977 1.00269 0.992044
1.0001 1.00376 0.990584
1.00515 0.99547 0.989558
1.00508 0.995574 0.98893
1.0027 1.00205 0.987402
1.00042 1.00471 0.989002
1.00079 1.00008 0.989617
1 1.00317 0.991484
1.00503 0.995304 0.990461
1.00002 1.00408 0.990589
1.0007 1.00467 0.988582
1.00368 0.998081 0.988748
1.00111 0.995804 0.960861
0.996197 1.00086 0.976943
1.00018 0.99998 0.99363
0.997669 0.998116 0.953623
0.994424 0.998267 0.948335
0.999966 1.00298 0.991843
0.999497 0.995161 0.954148
0.994436 0.999892 0.952976
1.00425 0.995327 0.99144
0.99971 1.00448 0.990875
1.001 1.00287 0.989629
0.999348 0.999828 0.995976
0.998358 0.99873 0.963662
0.994891 1.00101 0.976385
0.996878 0.999591 0.955209
0.994243 0.999502 0.958984
1.00003 1.00237 0.992238
1.0001 1.00213 0.992345
1.00006 1.00169 0.993001
1.00025 1.00005 0.994089
1.00026 1.00059 0.99356
1.00016 1.00103 0.993268
1.00009 1.0014 0.993092
1.00006 1.00196 0.992562
1.00026 1.00006 0.993986
1.0001 1.00128 0.99314
1.00024 1.00096 0.993231
1.00031 1.00061 0.993445
1.00009 1.00152 0.992953
1.00022 1.00117 0.993005
1.00017 1.00115 0.993205
1.00032 1.00086 0.993205
1.00031 1.0006 0.993487
1.00028 1.00062 0.993513
1.00024 1.00095 0.993273
1.00032 1.00086 0.993189
1.00015 1.00108 0.993273
1.00025 1.00107 0.993151
0.999972 1.00181 0.992829
1.00011 1.00086 0.993542
1.00015 1.00073 0.993606
1.00022 1.00007 0.994122
1.00022 1.00065 0.993544
1.00025 1.00005 0.994071
1.00021 0.999041 0.99515
1.00026 1.00008 0.993991
1.00022 0.999024 0.995151
1.00009 0.997285 0.997508
1.00022 0.999018 0.995152
1.00012 0.997251 0.997284
1.00007 0.99614 0.998467
1.00014 0.997219 0.997078
1.00003 0.996119 0.999356
1.00007 0.996113 0.998499
1.00019 0.999921 0.994349
1.00021 0.998788 0.995415
1.00021 0.998829 0.99537
1.00013 0.997088 0.997226
1.00021 0.998905 0.995289
1.00012 0.997159 0.997172
1.00001 0.9961 0.99938
1.00007 0.997283 0.997526
0.99999 0.996237 0.99892
0.999964 0.996397 0.998447
1.00167 0.997987 0.988793
1.0051 0.996815 0.988211
1.00527 0.99616 0.989187
0.997916 0.999027 0.979442
1.00317 0.997635 0.989278
1.00528 0.996245 0.988317
1.00475 0.99737 0.988884
0.998842 0.997369 0.981422
0.999632 0.99571 0.962613
0.997625 0.998026 0.954086
0.994491 0.998115 0.951839
1.00009 1.00072 0.993647
1.00018 0.999939 0.994352
1.00018 0.999957 0.994324
1.00011 1.00075 0.993641
1.00006 1.00124 0.993259
1.00011 1.00109 0.993357
1.00011 1.00073 0.993712
1.0001 1.00071 0.993707
1.00494 0.996561 0.988489
1.00518 0.996946 0.987345
1.00462 0.997163 0.988307
1.0004 1.00298 0.990804
1.00216 1.00275 0.987973
0.999834 1.00429 0.990673
0.999949 1.00388 0.991026
0.999925 1.00249 0.992243
1.0001 1.00116 0.993257
1.00008 1.00195 0.992597
1.00013 1.00085 0.993656
1.00013 1.00149 0.992853
1.00515 0.996994 0.987872
1.00011 1.0015 0.992901
1.00005 1.00174 0.99278
1.00503 0.997011 0.98773
1.003 0.999482 0.988863
1.00039 1.00393 0.990001
1.00003 1.00253 0.992089
0.999915 1.00442 0.9904
1.00426 1.00058 0.987329
1.00429 0.99662 0.989853
1.00078 1.00197 0.989903
1.00007 1.00392 0.990777
1.00009 1.0016 0.992762
1.0001 1.00209 0.992376
1.00002 1.003 0.99157
0.999109 0.994864 0.952497
1.00081 0.995096 0.965351
0.99993 1.0032 0.991539
0.999956 1.00411 0.990622
1.00502 0.995115 0.990385
1.00403 0.998165 0.988739
1.00063 1.00481 0.98857
1.00079 0.99546 0.960338
0.99621 1.00091 0.978067
0.999944 1.00005 0.993955
0.997552 0.997684 0.955627
0.994378 0.998277 0.944775
0.999926 1.003 0.991838
0.999483 0.995239 0.952273
0.994468 0.99996 0.951481
1.00445 0.995746 0.99135
0.999626 1.00443 0.99092
1.00088 1.00262 0.989783
0.99961 0.998712 0.996577
0.99856 0.998803 0.961316
0.995102 1.00203 0.979132
0.996492 0.999771 0.954698
0.99433 0.999782 0.957071
0.999781 1.00277 0.992472
0.994269 1.0003 0.956422
0.994288 1.00318 0.97076
1.00157 0.998266 0.994021
0.999413 1.00408 0.992099
0.998245 1.00149 0.997065
0.996131 1.0007 0.983205
0.996042 1.0008 0.960905
0.995908 0.999643 0.956812
0.99468 0.998759 0.965847
1.00007 1.00215 0.992337
1.00005 1.00175 0.992912
0.999817 1.00099 0.993844
1.00026 1.00007 0.993986
1.0003 1.0006 0.993507
1.00024 1.00098 0.993266
1.00009 1.00128 0.993164
1.00009 1.00153 0.992944
1.00031 1.00059 0.993488
1.0002 1.00122 0.993038
1.00032 1.00085 0.993201
1.00013 1.0011 0.993304
1.00018 1.00049 0.993957
1.00033 1.00082 0.993183
1.00034 1.00083 0.993177
1.00029 1.00062 0.993511
1.00024 1.00093 0.993241
1.00031 1.00087 0.993192
1.00014 1.00108 0.99327
1.00025 1.00104 0.993144
1.00006 1.00133 0.993157
1.0003 1.00096 0.993111
1.00017 1.00123 0.993089
1.00003 1.00246 0.992082
0.999795 1.00383 0.991094
0.999907 1.00238 0.992278
0.999963 1.00187 0.992811
1.00008 1.0011 0.993376
1.00011 1.00088 0.993536
1.00019 1.00013 0.994117
1.00015 1.00075 0.993606
1.00023 1.00007 0.994121
1.00019 0.999081 0.995146
1.00025 1.00005 0.994036
1.00021 0.999037 0.995151
1.00007 0.997327 0.997513
1.00022 0.99902 0.995151
1.0001 0.997279 0.997288
1.00004 0.996146 0.998472
1.00013 0.997241 0.997063
1.00002 0.99614 0.999352
1.00003 0.996124 0.999354
1.00019 0.999978 0.994446
1.0002 0.998798 0.995411
1.00018 0.999934 0.994348
1.00013 0.997057 0.997256
1.00021 0.99879 0.995415
1.00021 0.998825 0.99537
1.00013 0.997092 0.997224
1.00002 0.996038 0.999392
1.0001 0.997158 0.997592
1.00002 0.996116 0.998949
1.00001 0.996244 0.99849
0.998997 0.995918 0.952732
0.994392 0.999135 0.955431
0.998197 0.998019 0.980887
1.00303 0.998421 0.989513
1.0053 0.99573 0.988384
0.998659 0.997314 0.984163
1.00474 0.997674 0.988859
1.0001 0.995275 0.964433
0.997806 0.9977 0.953117
0.99442 0.998075 0.948093
0.999979 0.997062 0.988238
0.997752 0.998131 0.966142
0.996577 0.999898 0.954946
0.994424 0.999716 0.956333
1.00011 1.00128 0.993129
1.0001 1.00071 0.993678
1.00018 0.999932 0.994351
1.00011 1.00075 0.993612
1.00006 1.00121 0.993313
1.0001 1.00128 0.993176
1.00012 1.00108 0.993333
1.00014 1.00092 0.993431
1.00012 1.00072 0.993664
1.0001 1.00071 0.993665
1.00502 0.997183 0.98776
1.00492 0.99729 0.987726
1.00265 0.999161 0.989209
1.00049 1.00395 0.989745
0.99993 1.00449 0.990402
1.00007 1.00256 0.992038
1.00006 1.00175 0.992743
1.00009 1.00149 0.992978
1.00433 0.999789 0.987354
1.00011 1.00162 0.992746
1.00011 1.00207 0.992337
1.00411 0.996724 0.989813
1.00072 1.00251 0.989991
1.00017 1.00391 0.99047
1.00005 1.00298 0.991592
1.00131 1.0035 0.990143
1.00129 0.99935 0.99299
0.999974 1.00297 0.991631
1.00009 1.0018 0.992651
1.00018 1.00184 0.992391
1.00023 1.00229 0.991934
0.994767 0.999216 0.961276
0.999265 0.995381 0.953709
1.00047 0.99516 0.960106
0.999885 1.00303 0.991834
0.99955 1.00437 0.990966
1.00474 0.996084 0.991258
1.00074 1.00239 0.989931
0.999459 0.995271 0.953818
0.998234 0.998738 0.963054
0.995013 1.00171 0.976276
0.999761 0.99742 0.997114
0.996758 0.999932 0.953341
0.994523 1 0.951458
0.994526 0.999882 0.956559
0.999702 1.00278 0.992477
0.994245 1.0001 0.957878
0.994161 1.00339 0.970559
1.00177 0.998294 0.993821
0.999177 1.00399 0.992149
0.998346 0.999304 0.998891
0.996002 1.0011 0.979316
0.996147 1.00174 0.96401
0.996771 0.999096 0.95632
0.995047 0.99893 0.9656
0.999218 1.00195 0.994566
0.99499 1.0022 0.97596
0.99618 1.00296 0.978948
0.997696 1.00154 0.997094
0.996753 1.00092 0.9889
0.995735 1.00074 0.963676
0.994961 0.99987 0.958638
0.996451 0.998957 0.963769
1.00003 1.00178 0.992824
0.999893 1.00093 0.993924
0.99955 0.999899 0.99532
1.00031 1.00059 0.993488
1.00032 1.00084 0.993196
1.00019 1.00126 0.993072
1.00009 1.00104 0.993401
1.00034 1.00083 0.993179
1.00032 1.00087 0.993163
1.00017 1.0003 0.994062
0.999851 1.00009 0.994841
1.00035 1.00029 0.993704
1.00033 1.00082 0.993139
1.00031 1.00087 0.993195
1.00014 1.00108 0.993267
1.00026 1.00101 0.993138
1.0003 1.00096 0.993112
1.00005 1.00137 0.993145
1.00018 1.0012 0.993096
1.00007 1.00164 0.99286
1.00023 1.00106 0.993144
0.999936 1.00259 0.992153
1.00004 1.00243 0.99214
0.999788 1.0036 0.991345
1.00015 1.00417 0.990194
0.999978 1.00296 0.991828
0.99977 1.0037 0.991279
0.999915 1.00239 0.992387
1.00005 1.00149 0.99294
0.999954 1.00193 0.992793
1.00008 1.00112 0.993366
1.00017 1.00024 0.994052
1.00011 1.0009 0.993531
1.00019 1.00014 0.994114
1.00016 0.999169 0.995129
1.00023 1.00008 0.99412
1.0002 0.999077 0.995147
1.00003 0.997397 0.997515
1.00022 0.999031 0.995152
1.00007 0.997327 0.997294
1 0.996215 0.998477
1.00012 0.997266 0.997067
1.00002 0.996159 0.998911
1.00002 0.996146 0.999352
1.00019 1.00008 0.994224
1.00019 0.998869 0.995365
1.00018 0.99998 0.994333
1.00012 0.997082 0.997251
1.0002 0.998801 0.995412
1.00018 0.999952 0.994346
1.00003 0.996019 0.999397
1.00013 0.997057 0.997256
1.00021 0.99879 0.995415
1.00013 0.997096 0.997222
1.00002 0.996047 0.999389
1.00001 0.996111 0.999376
0.994299 0.999143 0.960946
0.999034 0.99542 0.953146
0.994129 1.00334 0.970127
0.994409 0.999471 0.954078
0.999262 0.997268 0.979979
1.00474 0.997892 0.988794
0.9998 0.995581 0.966048
0.998252 0.998176 0.954893
0.994331 0.998189 0.944338
0.999504 0.997902 0.98636
0.998513 0.997764 0.961013
0.99658 0.99978 0.953957
0.994426 0.999509 0.95481
0.99624 0.998787 0.986328
0.997378 1.00014 0.960977
0.995535 0.999782 0.954854
0.995328 0.999468 0.962107
1.00013 1.00164 0.992797
1.0001 1.00128 0.993173
1.00011 1.00072 0.993708
1.00006 1.00119 0.993367
1.00014 1.00152 0.992806
1.0001 1.00126 0.993217
1.00012 1.00108 0.99331
1.00017 1.001 0.993356
1.00014 1.00091 0.993498
1.00013 1.00072 0.993616
1.00441 0.999125 0.987383
1.00396 0.996869 0.98977
1.00068 1.00302 0.990078
1.00026 1.00389 0.990163
1.00007 1.00298 0.991614
1.00012 1.00205 0.992299
1.00013 1.00163 0.992731
1.0001 1.00181 0.992645
1.00182 1.00186 0.990409
1.00018 1.00188 0.992431
1.00024 1.00226 0.991949
1.00133 0.999476 0.992611
1.00021 1.00268 0.991622
0.999051 1.00124 0.994803
0.999554 1.00038 0.99559
1.00027 1.00155 0.992269
1.00021 1.0018 0.992411
1.00027 1.00212 0.991982
0.996088 1.00098 0.978416
0.994788 0.999778 0.961301
0.999128 0.99588 0.952573
0.99963 1.00281 0.992479
0.998972 1.00395 0.992199
1.00181 0.998375 0.993647
0.994173 0.999859 0.960023
0.996901 1.00085 0.96057
0.995956 1.00074 0.981297
0.998832 0.998114 1.00085
0.995852 0.999499 0.956676
0.993936 1.00372 0.970371
0.995233 0.99905 0.965901
0.999153 1.00206 0.994434
0.994576 1.00173 0.978512
0.99618 1.00335 0.979178
0.99765 1.00217 0.99734
0.996458 1.00074 0.988944
0.996083 1.00096 0.960275
0.996022 0.998778 0.96575
0.994891 0.999557 0.958909
0.997729 1.00156 0.997721
0.999259 1.00305 0.984884
0.997059 1.00291 0.980729
0.995499 0.998967 0.962324
0.995012 1.00225 0.997214
0.995662 0.998968 0.966581
0.994589 0.999985 0.960109
0.999987 1.00085 0.994001
0.999694 1.00002 0.995008
0.999128 0.999392 0.996618
1.00034 1.00083 0.993182
1.0003 1.00092 0.993142
1.00018 1.00007 0.994167
1.00034 1.00085 0.993129
1.00034 1.00026 0.993695
1.00003 0.999874 0.994714
0.999546 0.999893 0.995415
1.00038 1.0006 0.993325
1.0003 1.00097 0.993113
1.00004 1.00142 0.993132
1.00019 1.00117 0.993104
1.00023 1.00106 0.993127
1.00009 1.00157 0.99292
0.999736 1.00202 0.99306
0.999859 1.00264 0.99221
0.99984 1.00399 0.990836
1.00006 1.0024 0.992198
0.999916 1.00356 0.991295
1.00007 1.00462 0.989625
1.00013 1.00441 0.989922
1.00001 1.00333 0.99131
1.00009 1.00422 0.990202
1.00006 1.00202 0.992507
0.999981 1.00299 0.991736
0.999744 1.00358 0.991464
0.999924 1.0024 0.992496
1.00005 1.00146 0.993027
1.00014 1.00047 0.993872
1.00008 1.00113 0.993357
1.00016 1.00026 0.994047
1.00011 0.999289 0.995088
1.0002 1.00014 0.994111
1.00016 0.999157 0.99513
0.999966 0.997514 0.997502
1.0002 0.99907 0.995148
1.00003 0.997405 0.997295
0.999953 0.99631 0.998479
1.00009 0.997316 0.997074
0.999989 0.996222 0.998914
0.999996 0.996186 0.999353
1.00021 1.00025 0.993882
1.00017 0.999016 0.995105
1.00019 1.00009 0.994221
1.0001 0.99717 0.997204
1.00019 0.99888 0.995282
1.00017 0.999983 0.994219
1.00001 0.996047 0.999393
1.00012 0.997077 0.997252
1.0002 0.998803 0.995413
1.00003 0.99602 0.999396
1.00013 0.997058 0.997255
1.00002 0.996057 0.999386
0.99532 1.00171 0.977471
0.994332 0.998879 0.960364
0.998989 0.995382 0.953763
1.00023 1.00101 0.993195
0.995178 1.00344 0.9811
0.994064 1.00322 0.969977
0.994396 0.999609 0.954114
0.999305 0.998857 0.984618
0.998398 0.998299 0.965973
0.996613 0.999899 0.952698
0.994505 0.999168 0.954095
0.996077 0.999553 0.981707
0.996248 1.00035 0.964776
0.996755 0.999791 0.956074
0.995366 0.999511 0.961404
0.995483 1.00108 0.977713
0.99549 1.00002 0.961627
0.995046 0.999798 0.958774
0.996141 0.999302 0.963638
1.00017 1.00177 0.992533
1.00012 1.00165 0.992775
1.0001 1.00128 0.993216
1.00018 1.00148 0.992813
1.00013 1.00152 0.992888
1.0001 1.00124 0.993258
1.00018 1.00101 0.993372
1.00015 1.0009 0.993565
1.00226 1.00023 0.990672
1.00139 0.999648 0.992231
1.0001 1.00182 0.992639
1.00043 1.00251 0.991612
1.00026 1.00219 0.991964
1.00017 1.00192 0.992471
1.0002 1.00185 0.992436
0.999787 1.00067 0.995109
1.00025 1.00211 0.992075
1.0004 1.00162 0.992279
0.999681 0.999652 0.995545
1.00024 1.00172 0.992564
0.997904 0.999264 0.998034
0.998654 1.00177 0.996107
1.00032 1.00125 0.99249
1.00027 1.00172 0.99245
1.00073 1.00262 0.984862
0.99623 1.00151 0.978242
0.994766 1.00033 0.961337
0.999057 1.00217 0.994309
0.997622 1.00213 0.997547
0.994187 1.0013 0.981042
0.995911 0.999827 0.964363
0.996442 1.00018 0.984723
0.994999 0.999792 0.958452
0.996279 1.00372 0.97941
0.995671 0.998768 0.967731
0.997891 1.00171 0.997103
0.999001 1.00314 0.985237
0.997242 1.00269 0.982335
0.995401 1.00302 0.999858
0.995611 0.999166 0.961387
0.995044 0.999168 0.964448
0.994693 0.999871 0.959355
0.996734 1.00135 0.999673
1.00214 1.0034 0.983772
0.995197 1.00264 0.982009
0.994456 0.999531 0.956333
0.994987 0.999753 0.958484
0.995571 0.999024 0.996549
0.995365 1.00012 0.960589
0.999819 1.00021 0.994703
0.999226 0.999689 0.996477
0.998139 0.998889 0.999406
1.00035 1.00089 0.99312
1.00033 1.00024 0.993687
1.00017 0.999757 0.994587
1.00033 1.00071 0.9933
0.999682 0.99955 0.995446
0.999395 1.00176 0.993919
1.00023 1.00107 0.993111
1.00011 1.0015 0.99298
0.999878 1.00203 0.992921
0.999339 1.0041 0.991623
0.999778 1.00269 0.992266
0.999724 1.0039 0.991072
1.00019 1.00496 0.989333
1.00079 1.00464 0.988528
1.00005 1.00352 0.991244
1.00019 1.00472 0.989396
1.00033 1.00405 0.990257
0.99989 1.00385 0.990803
1.00015 1.00426 0.990069
1.00005 1.00245 0.992103
1.00005 1.00331 0.991295
1.00003 1.00425 0.99021
1.00013 1.00085 0.993529
1.00005 1.002 0.992481
0.999983 1.00302 0.991644
1.00005 1.00143 0.993113
1.00014 1.00049 0.993862
1.00007 0.999467 0.995001
1.00016 1.00028 0.994041
1.00012 0.999282 0.995088
0.999918 0.997674 0.99703
1.00017 0.999146 0.995132
0.999986 0.99752 0.997063
0.999846 0.996429 0.999354
1.00005 0.997397 0.997075
0.99994 0.996311 0.998915
0.999959 0.996252 0.999354
1.00025 1.00032 0.993754
1.00016 0.999199 0.994927
1.00022 1.00025 0.993944
1.00007 0.997311 0.997122
1.00017 0.999028 0.995084
1.0002 1.0001 0.994217
0.99999 0.996128 0.99938
1.0001 0.997161 0.997207
1.00019 0.99889 0.995198
1.00002 0.99604 0.999395
1.00012 0.997074 0.997253
1.00003 0.996021 0.999396
0.999679 1.00277 0.984099
0.995217 1.00211 0.977563
0.994306 0.998849 0.960453
1.00021 1.00103 0.993215
1.00024 1.00107 0.99308
1.00015 1.0015 0.992889
0.996968 1.00416 0.979622
0.995003 1.00318 0.98132
0.994003 1.00309 0.969807
0.995495 1.00032 0.985162
0.996779 1.00013 0.960741
0.995619 0.999838 0.955989
0.995306 0.999462 0.961245
0.995274 1.00039 0.981543
0.996143 1.00041 0.962089
0.995166 0.999896 0.959919
0.995859 0.99939 0.965461
0.99549 1.00098 0.978793
0.995086 1.00004 0.964692
0.994512 0.999944 0.96081
0.994609 0.999008 0.965571
1.00024 1.00169 0.992523
1.00017 1.00179 0.992518
1.00012 1.00166 0.992753
1.00017 1.0015 0.992807
1.00012 1.00152 0.99297
1.00019 1.001 0.993387
1.00046 1.00002 0.995405
0.999648 0.998965 0.995503
1.00018 1.00192 0.99246
1.00053 1.00151 0.992289
1.00022 1.00214 0.992168
1.00027 1.00166 0.992488
1.00023 1.00173 0.9925
0.998098 1.00021 0.998139
1.00028 1.00124 0.992741
0.998408 1.00124 0.997069
1.0002 1.00133 0.992977
0.996564 0.998984 0.999554
0.998367 1.00045 0.998598
1.00005 1.00136 0.993098
1.00447 1.00383 0.982388
1.00139 1.00282 0.984244
0.996395 1.00207 0.978068
0.99805 1.00185 0.996471
0.99596 1.00139 0.998617
0.998744 1.00322 0.985591
0.995422 0.999561 0.971034
0.994589 0.999907 0.959917
0.997379 1.00243 0.98394
0.995551 0.999384 0.961237
0.996921 1.00141 0.999659
1.00289 1.00298 0.983216
0.995017 1.00235 0.982215
0.995116 1.00007 0.991275
0.994486 0.999597 0.954663
0.995405 0.99984 0.959004
0.995167 1.00008 0.965424
0.996111 1.00089 1.00235
0.999984 1.00239 0.984177
0.994164 1.00336 0.970285
0.994539 0.998042 0.951645
0.995224 0.999824 0.95505
0.995219 1.00005 0.964453
0.995409 0.999147 0.987447
0.999312 1.00003 0.996342
0.998263 0.998629 0.999302
0.998542 1.00006 0.99789
1.00029 1.0008 0.993275
0.99982 0.999175 0.995477
0.999237 1.00186 0.994093
0.999064 1.00344 0.992922
1.00003 1.00206 0.992783
0.999672 1.00407 0.991353
1.00016 1.00508 0.989238
0.999595 1.0038 0.99131
1.00021 1.00498 0.989284
1.00116 1.00498 0.987778
1.00154 1.00453 0.987412
1.0005 1.00388 0.989653
1.00079 1.00462 0.988485
1.00031 1.00483 0.989167
1.0003 1.00351 0.990716
1.00023 1.00388 0.99041
0.999975 1.00313 0.991428
0.999947 1.0038 0.990908
1.00016 1.00411 0.990217
1.00013 1.00136 0.993027
1.00007 1.00242 0.992109
1.00008 1.0033 0.991279
1.00002 0.999734 0.994814
1.00013 1.00085 0.993522
1.00005 1.00198 0.992454
1.00014 1.00051 0.993852
1.00007 0.999466 0.994998
0.999842 0.997877 0.996968
1.00012 0.999276 0.995087
0.999922 0.997678 0.997028
0.999792 0.996587 0.999342
0.999992 0.997517 0.997062
0.999872 0.996447 0.99891
0.999909 0.996346 0.999352
1.00026 1.0004 0.993737
1.00017 0.999343 0.994926
1.00024 1.00033 0.993793
1.00003 0.997488 0.997023
1.00017 0.999207 0.994989
1.00023 1.00025 0.994006
0.999951 0.996252 0.999359
1.00007 0.997301 0.997127
1.00017 0.999042 0.995064
0.999993 0.99611 0.999384
1.0001 0.997153 0.99721
1.00002 0.996032 0.999397
1.00195 1.00414 0.983065
0.999526 1.00269 0.984417
0.995117 1.00237 0.977696
1.00022 1.00119 0.992977
1.00014 1.00179 0.99263
1.0002 1.00105 0.993235
1.00023 1.00109 0.993068
1.00016 1.00149 0.992843
1.00016 1.00156 0.992806
1.00014 1.00172 0.992653
0.995951 1.00364 0.97854
0.997077 1.00393 0.98121
0.994821 1.00288 0.981539
0.995523 0.999457 0.967286
0.994801 1.00027 0.978448
0.996007 1.00075 0.962987
0.994647 0.99989 0.958989
0.995507 0.999617 0.977466
0.9952 1.00008 0.961495
0.994643 0.999868 0.960307
0.994881 0.999241 0.965346
0.995451 0.99787 0.983694
0.995098 1.0001 0.961247
0.995255 0.999844 0.958716
0.994232 0.999265 0.958902
1.00023 1.0015 0.99279
1.00023 1.00164 0.992518
1.00016 1.00179 0.992503
1.00017 1.00151 0.992802
0.998484 1.00142 0.998219
0.998296 1.00077 0.998015
1.0003 1.00157 0.992413
1.0002 1.00173 0.992551
1.00023 1.00134 0.992992
1.00021 1.00134 0.992911
1.00003 1.00141 0.993037
0.996231 1.00048 0.998457
0.99808 1.00052 0.998957
0.999877 1.00136 0.993371
0.995847 0.997939 0.999976
0.998608 1.00172 0.996898
1.00084 1.0027 0.984675
1.00568 1.00345 0.980883
1.00205 1.00301 0.983625
0.997158 1.00148 0.999644
0.995539 0.999183 0.997031
1.00362 1.0026 0.982661
0.99548 1.00011 0.960939
0.994725 0.999919 0.95843
0.994831 1.00204 0.98242
0.994672 0.99943 0.954167
0.996157 1.00066 1.00252
0.99983 1.00222 0.984507
0.994101 1.00314 0.970132
0.995053 0.999109 0.991887
0.994467 0.998175 0.948087
0.99665 0.999856 0.956134
0.995373 1.00009 0.962486
0.996466 1.00122 0.999941
0.99568 1.00177 0.977063
0.994462 0.999296 0.95558
0.996816 1.00002 0.954604
0.995733 1.00067 0.964496
0.994848 0.999783 0.981722
0.998442 0.998369 0.999188
0.998333 1.00038 0.99789
0.999988 0.998821 0.997052
0.999061 1.00198 0.994267
0.998724 1.00352 0.993153
1.00037 1.00381 0.990013
1.00002 1.00401 0.991082
1.00034 1.00509 0.989034
1.00145 1.00428 0.987538
1.00024 1.00499 0.989236
1.00118 1.00498 0.987663
1.00194 1.00397 0.986913
1.00237 1.0031 0.987116
1.00145 1.004 0.98826
1.00157 1.00454 0.987234
1.00051 1.00312 0.990297
1.00051 1.00383 0.989729
1.00079 1.0046 0.988442
1.0003 1.00322 0.990915
1.00027 1.00357 0.990683
1.00013 1.00372 0.990562
1.00014 1.00195 0.992388
0.999999 1.00305 0.991537
1 1.00374 0.991012
0.999998 1.00013 0.99445
1.00013 1.00134 0.993027
1.00008 1.00239 0.992116
0.999778 0.998098 0.996882
1.00002 0.999744 0.994806
1.00012 1.00086 0.993515
1.00007 0.999465 0.994995
0.999848 0.997883 0.996964
0.999708 0.996778 0.999327
0.999927 0.997683 0.997026
0.999781 0.996616 0.999338
0.999845 0.996475 0.999346
1.00021 1.0013 0.992937
1.00026 1.00049 0.993631
1.00015 0.999471 0.994818
1.00026 1.00039 0.993736
0.999979 0.997677 0.996926
1.00016 0.999357 0.994925
1.00022 1.00034 0.993831
0.999902 0.996406 0.999335
1.00003 0.997477 0.997029
1.00017 0.999214 0.99505
0.999956 0.996228 0.999365
1.00007 0.99729 0.997132
0.999998 0.996093 0.999389
0.999127 1.00337 0.984745
1.00271 1.00381 0.982616
0.999376 1.00261 0.984734
1.00022 1.00119 0.993005
1.00014 1.0018 0.992585
1.0001 1.00215 0.992249
1.00012 1.0017 0.992638
1.00011 1.00217 0.992344
1.00023 1.00109 0.993056
1.00017 1.00147 0.992797
1.00014 1.00157 0.99281
1.00018 1.0017 0.992596
1.00009 1.00183 0.992691
0.994293 1.00295 0.970719
0.996012 1.00393 0.978774
0.997265 1.00389 0.982797
0.995128 0.999378 0.965725
0.994531 0.99984 0.960651
0.995018 0.999445 0.975808
0.994986 1.00008 0.964307
0.995419 0.997242 0.978912
0.995156 1.00004 0.96438
0.994717 0.999794 0.959272
0.994313 0.999458 0.956956
0.995429 0.994811 0.983617
0.995185 1.00002 0.964977
0.996065 0.999936 0.956228
0.99446 0.99825 0.951347
0.999818 1.00123 0.99369
1.00018 1.00158 0.992763
1.00023 1.00162 0.992513
0.995849 1.00177 0.99739
0.997769 1.00043 0.99934
1.00023 1.00134 0.992845
1.00001 1.00149 0.992977
0.999882 1.0013 0.99341
0.99847 1.00157 0.996652
0.995703 0.997637 1.00006
0.998582 1.00209 0.995176
0.996533 1.00044 0.997476
0.995867 1.00147 0.977915
1.00148 1.00277 0.984131
1.0069 1.00307 0.979379
0.996153 1.00047 1.00269
0.994943 0.999096 0.985311
0.999685 1.00205 0.984839
0.995618 1.00006 0.960767
0.995461 0.999867 0.956633
0.99404 1.00288 0.969967
0.994384 0.998248 0.944522
0.996467 1.00099 1.00018
0.995568 1.00208 0.977186
0.994486 0.999482 0.954201
0.99491 0.999625 0.983763
0.996447 0.999971 0.954019
0.995708 1 0.961488
0.997938 0.999863 0.996457
0.994416 0.999222 0.961001
0.997319 0.99803 0.954062
0.997477 1.00118 0.960651
0.994934 1.00003 0.98348
0.998193 1.00064 0.997879
0.999791 0.998729 0.997091
1.0018 0.999144 0.992701
0.998396 1.00357 0.993382
1.00001 1.00388 0.990334
1.00238 1.00113 0.988535
1.00051 1.00509 0.988829
1.0015 1.00411 0.987575
1.0029 1.00169 0.987513
1.00119 1.00499 0.987547
1.00194 1.00393 0.986955
1.00309 1.00136 0.987393
1.00314 1.00094 0.98771
1.00198 1.00318 0.987631
1.00235 1.00297 0.987156
1.00119 1.00331 0.989239
1.00137 1.00407 0.988088
1.00158 1.00455 0.987056
1.00057 1.00274 0.990795
1.0005 1.0031 0.990425
1.00052 1.00378 0.989806
1.00027 1.00232 0.991778
1.00027 1.0032 0.990968
1.00023 1.00363 0.990648
0.999999 1.00073 0.99386
1.00015 1.00194 0.992389
1.00002 1.00297 0.991646
0.99969 0.998402 0.997184
0.999993 1.00015 0.994438
1.00013 1.00132 0.993027
0.999639 0.997032 0.998353
0.999774 0.99813 0.99709
1.00002 0.999753 0.994799
0.999855 0.99789 0.996961
0.999697 0.996817 0.99932
0.99977 0.996647 0.999333
1.00017 1.00165 0.992617
1.00026 1.00066 0.993462
1.0002 1.00135 0.992899
1.00012 0.999618 0.994745
1.00026 1.00051 0.993633
0.999922 0.997859 0.996846
1.00015 0.999494 0.994817
1.00026 1.0004 0.993736
0.999843 0.99658 0.999311
0.999975 0.997672 0.996931
1.00016 0.999378 0.994924
0.999908 0.996379 0.999342
1.00002 0.997468 0.997034
0.999962 0.996202 0.999372
0.995025 1.00148 0.980408
0.998875 1.00347 0.985055
1.00343 1.00354 0.982167
1.00005 1.00248 0.9921
1.00022 1.00122 0.993034
1.00015 1.00181 0.992539
1.00013 1.00172 0.992675
1.00013 1.00211 0.992297
1.00011 1.00214 0.992303
1.0001 1.00246 0.992015
1.00003 1.00216 0.992338
1.00011 1.00159 0.992813
1.00022 1.00168 0.99254
1.00008 1.00185 0.992666
1.00003 1.00219 0.992762
0.994431 0.999841 0.952702
0.994158 1.00324 0.970507
0.995999 1.00421 0.979006
0.994443 0.999679 0.95623
0.995265 0.999791 0.959189
0.995107 1.00011 0.961342
0.995174 0.996536 0.980738
0.995394 0.994804 0.986661
0.994437 0.998243 0.947898
0.995035 1.00007 0.961536
0.996553 0.99985 0.955404
0.99539 0.997108 0.986803
0.99592 1.00003 0.96587
0.996901 0.999931 0.953746
0.999376 1.00091 0.994774
0.999931 1.00119 0.99369
1.00013 1.00166 0.992736
0.995528 0.997336 1.00009
0.998564 1.00129 0.99642
0.999853 1.00124 0.99345
0.999012 1.002 0.99499
0.996245 1.00061 0.997653
0.997989 1.00117 0.99504
0.994657 1.00012 0.956449
0.996272 1.00139 0.980215
1.00211 1.00287 0.983587
0.996388 1.00087 1.00046
0.99494 0.999614 0.985126
0.995491 1.00232 0.977344
0.995657 0.999923 0.963804
0.996742 0.99997 0.952622
0.994463 0.999607 0.954289
0.997732 0.99977 0.996564
0.99447 0.998968 0.960392
0.997588 0.998083 0.953378
0.994856 1.00016 0.979125
0.996049 1.0008 0.964119
0.998797 0.999444 0.99656
0.99892 0.995962 0.952981
0.99741 1.00039 0.96439
0.995016 1.00079 0.977315
0.99952 0.998645 0.997141
1.00139 0.998857 0.993513
1.00346 0.99692 0.991226
0.999638 1.00398 0.990656
1.00241 1.00117 0.988508
1.00422 0.997296 0.989038
1.00154 1.00396 0.987613
1.00283 1.00156 0.987578
1.00408 0.998268 0.988457
1.00195 1.00389 0.986998
1.0031 1.00122 0.987408
1.00394 0.998669 0.988447
1.00358 0.999275 0.988651
1.00276 1.0015 0.987899
1.00314 1.00086 0.987801
1.00161 1.00277 0.988501
1.002 1.00312 0.987749
1.00234 1.00284 0.987196
1.00085 1.00275 0.99027
1.00106 1.00332 0.989254
1.00128 1.00413 0.987916
1.00051 1.00227 0.991415
1.00061 1.00275 0.990784
1.00049 1.00308 0.990553
1.00005 1.00137 0.993165
1.00029 1.00231 0.99179
1.00023 1.00319 0.99102
0.999643 0.998767 0.996435
1 1.00072 0.993848
1.00017 1.00192 0.99239
0.999506 0.997299 0.999274
0.999703 0.998445 0.996676
0.999988 1.00016 0.994426
0.999615 0.997028 0.999298
0.999782 0.998145 0.996848
0.999686 0.996856 0.999314
1.00011 1.00203 0.992444
1.00018 1.00163 0.992621
1.00023 1.00098 0.993201
1.00007 0.999775 0.994666
1.00025 1.00066 0.993466
1.0002 1.00137 0.99286
0.999863 0.998032 0.996789
1.00012 0.999621 0.994746
1.00026 1.00049 0.993633
0.999776 0.996757 0.999291
0.999917 0.997858 0.996849
1.00014 0.999509 0.994816
0.999849 0.996554 0.999318
0.99997 0.997665 0.996936
0.999914 0.996351 0.999349
0.9945 1.00022 0.956326
0.994849 1.00153 0.980522
0.99864 1.00354 0.985364
1.00003 1.00254 0.992051
1.00005 1.00288 0.991776
1.00003 1.00278 0.991825
1.00014 1.00172 0.992712
1.00014 1.00206 0.992345
1.0001 1.00212 0.992262
1.00005 1.00217 0.992311
1.00008 1.00248 0.991987
0.999934 1.00306 0.991769
1.00012 1.00171 0.992582
1.00007 1.00187 0.992641
0.999973 1.00204 0.992771
0.998523 0.998272 0.952376
0.994458 1.00001 0.951267
0.99397 1.00339 0.970325
0.994395 0.998237 0.94443
0.995431 0.999878 0.955831
0.995628 1.0001 0.965325
0.995326 0.994793 0.98312
0.995313 0.997123 0.983635
0.996541 0.99936 0.953515
0.995729 1.00005 0.963136
0.996441 0.997017 0.983238
0.997152 1.00098 0.960237
1.00089 1.00075 0.992828
0.999552 1.00077 0.994668
1.00003 1.00114 0.993692
0.995931 1.00087 0.997811
0.999348 1.00193 0.994795
0.998694 1.00149 0.994521
1.00146 0.999703 0.990653
0.999117 0.994916 0.952588
0.99466 1.00032 0.958921
0.996719 1.00129 0.982497
0.997595 0.999577 0.996721
0.994993 0.999985 0.980582
0.994421 0.998901 0.960492
0.996413 1.00125 0.960289
0.998243 0.999373 0.954868
0.998716 0.99964 0.995704
0.99898 0.995908 0.953209
0.998572 0.999129 0.960039
0.994897 1.00098 0.98056
0.999445 0.999559 0.995643
0.999536 0.997247 0.961642
0.996399 0.999753 0.983033
1.001 0.998542 0.994322
1.00324 0.996973 0.991134
1.00495 0.994934 0.99007
1.00243 1.00112 0.988481
1.00414 0.99739 0.988995
1.00477 0.995558 0.989633
1.00277 1.00144 0.987643
1.00412 0.998237 0.988405
1.00481 0.996158 0.989045
1.00312 1.00109 0.987424
1.00391 0.998652 0.988427
1.00433 0.997295 0.989047
1.00386 0.998468 0.989093
1.00357 0.999149 0.988756
1.00321 0.999985 0.988592
1.00247 1.00163 0.988376
1.00277 1.00154 0.987919
1.00314 1.00078 0.987892
1.00135 1.0025 0.98937
1.00165 1.00279 0.988634
1.00203 1.00307 0.987868
1.00071 1.00223 0.991051
1.00088 1.00275 0.99025
1.00094 1.00333 0.98927
1.00016 1.00162 0.992662
1.00054 1.00225 0.991419
1.00064 1.00275 0.990773
0.99962 0.999191 0.996016
1.00007 1.00129 0.993165
1.00031 1.00229 0.991802
0.99947 0.997542 0.999218
0.999643 0.99881 0.996411
1.00001 1.00071 0.993835
0.999531 0.997322 0.998774
0.999712 0.998456 0.996669
0.999602 0.997099 0.999283
1.00012 1.00242 0.99202
1.0001 1.00208 0.992396
1.00014 1.00145 0.992901
1.0002 1.00163 0.992626
1.00022 1.00098 0.993202
1 1.00005 0.994504
0.999803 0.998188 0.996749
1.00007 0.999766 0.994672
1.00024 1.00068 0.99347
0.999702 0.996933 0.999276
0.999858 0.998028 0.996791
1.00012 0.999623 0.994747
0.999784 0.996735 0.999297
0.999912 0.997858 0.996852
0.999855 0.996524 0.999326
0.999252 0.996148 0.953948
0.994406 1.00054 0.955498
0.994677 1.00159 0.980633
1.00002 1.00261 0.992002
1.00001 1.00289 0.991731
0.999992 1.00284 0.991844
1.00017 1.00294 0.991476
0.999952 1.00324 0.991532
1.00007 1.00218 0.992285
1.00007 1.00249 0.991959
0.999902 1.00295 0.991804
0.999805 1.00319 0.99136
1.00013 1.00243 0.991868
1.00177 1.00147 0.9902
0.999935 1.00206 0.992677
0.999953 1.0019 0.99278
0.999275 0.999301 0.95992
0.997692 0.998289 0.952749
0.994525 1.00003 0.951167
0.996931 0.999817 0.952136
0.995758 1.00072 0.961335
0.995125 0.997087 0.987675
0.99648 0.997149 0.985531
0.997101 0.999282 0.964696
0.999242 0.998675 0.980101
1.00325 0.999039 0.989658
1.00051 1.00057 0.992819
0.999689 1.00063 0.994559
0.99916 1.00174 0.99403
1.00219 1.00018 0.989786
1.00016 0.995589 0.960325
0.999275 0.995389 0.954001
0.994614 1.0006 0.961407
0.998596 0.999866 0.994827
0.994826 1.00139 0.977555
0.998995 0.995485 0.953673
0.997826 1.00024 0.96444
0.999655 0.999782 0.995745
1.00037 0.995987 0.963279
0.996256 1.00043 0.979453
1.00128 1.00187 0.991693
1.00024 0.996699 0.986842
1.00306 0.996975 0.991041
1.00475 0.995246 0.989803
1.00513 0.995661 0.989052
1.00407 0.997561 0.988953
1.00472 0.995824 0.989588
1.00514 0.995435 0.989157
1.00416 0.99819 0.988354
1.00483 0.996285 0.98899
1.00497 0.996322 0.988702
1.00388 0.99864 0.988408
1.00427 0.997435 0.988983
1.00446 0.997433 0.988811
1.00376 0.998286 0.98925
1.00368 0.999097 0.988726
1.00355 0.999033 0.988862
1.00321 0.999988 0.988565
1.00298 1.0005 0.988535
1.00204 1.00171 0.988886
1.00246 1.00166 0.988349
1.00278 1.00159 0.98794
1.00104 1.00217 0.990479
1.00133 1.00251 0.989462
1.00167 1.00282 0.988767
1.00025 1.00171 0.992342
1.00075 1.00223 0.991034
1.00091 1.00275 0.99023
0.999639 0.999655 0.995502
1.00018 1.00159 0.992671
1.00056 1.00224 0.991423
0.999449 0.997825 0.999135
0.999611 0.999263 0.995993
1.00008 1.00124 0.993165
0.999479 0.997592 0.999195
0.999642 0.998859 0.996387
0.99953 0.997363 0.99924
1.00027 1.00263 0.991547
1.00011 1.00239 0.992023
1.00014 1.0019 0.992403
1.00009 1.0021 0.992348
1.00013 1.00152 0.992829
0.999957 1.00052 0.994117
1.00022 1.00097 0.993203
1.00002 1.00003 0.994512
0.999727 0.998404 0.996679
0.999619 0.99711 0.999266
0.999797 0.998186 0.996752
1.00008 0.999754 0.994677
0.999711 0.99691 0.999281
0.999853 0.998024 0.996794
0.99979 0.99671 0.999303
1.00098 0.996382 0.962573
0.998922 0.996228 0.952795
0.994304 1.00093 0.955285
0.999986 1.003 0.991638
0.999938 1.0028 0.991911
0.999956 1.00324 0.991574
1.00015 1.00293 0.991485
1.00031 1.00323 0.990926
0.99992 1.00315 0.991463
0.999872 1.00282 0.99184
0.99996 1.00334 0.991162
1.00003 1.0027 0.991754
1.00047 1.00235 0.990835
1.0021 1.00149 0.990294
1.00345 0.999929 0.98804
1.00152 1.00138 0.990402
0.999742 1.0024 0.992772
0.999028 0.998837 0.978634
0.99912 0.999257 0.960684
0.99783 0.998634 0.954121
0.998175 1.00082 0.960211
0.996755 0.997244 0.987695
0.999602 0.998394 0.984408
1.00315 0.997734 0.990605
1.00328 0.998749 0.990025
1.00036 1.0004 0.992807
1.00344 1.0009 0.988899
0.999195 0.998383 0.980277
1.00075 0.995459 0.964906
0.999131 0.995869 0.952893
0.999846 0.999929 0.995824
0.996034 1.00112 0.981638
0.999969 0.995907 0.964974
1.00146 1.00097 0.991898
0.999689 0.997654 0.985141
1.00404 0.999898 0.988985
1.00469 0.997016 0.988831
1.00452 0.99559 0.989534
1.00506 0.995578 0.989027
1.00517 0.996118 0.988763
1.00462 0.996108 0.989542
1.00513 0.995563 0.989151
1.0051 0.996548 0.988367
1.00484 0.996395 0.988935
1.00494 0.996468 0.988664
1.00497 0.997366 0.987861
1.00421 0.997577 0.98892
1.00429 0.997499 0.988934
1.00412 0.998449 0.988279
1.00367 0.998103 0.989406
1.00365 0.998966 0.988808
1.00351 0.999847 0.988343
1.00322 0.999988 0.988538
1.00298 1.00052 0.988511
1.0027 1.00086 0.988803
1.00155 1.00166 0.989816
1.00202 1.00174 0.988975
1.00245 1.0017 0.988322
1.00046 1.00176 0.991931
1.00107 1.00216 0.990472
1.00132 1.00252 0.989553
0.999632 1.00019 0.994999
1.00028 1.00173 0.992342
1.00079 1.00222 0.991017
0.999455 0.998113 0.999013
0.999642 0.999698 0.995491
1.0002 1.00155 0.99268
0.999464 0.997869 0.999098
0.999604 0.999324 0.99597
0.999489 0.997636 0.999171
1.00042 1.00288 0.991046
1.00028 1.00261 0.991584
1.00026 1.0022 0.991974
1.00011 1.00238 0.992026
1.00014 1.00196 0.992343
0.999981 1.00103 0.993551
1.00013 1.00158 0.992758
0.999963 1.00051 0.994124
0.999647 0.998729 0.996501
1.00003 1 0.994519
0.999724 0.998388 0.996688
0.999536 0.997324 0.999246
0.999632 0.997087 0.999269
0.999791 0.998183 0.996755
0.99972 0.996892 0.999285
0.999159 0.998305 0.979598
1.00089 0.996441 0.95895
0.998855 0.996092 0.953758
1.00093 1.00282 0.990163
0.99996 1.00324 0.991616
1.00012 1.00292 0.991495
0.999967 1.00324 0.991451
1.00025 1.00331 0.990891
1.00031 1.00221 0.991587
1.00012 1.00352 0.990964
0.999995 1.00299 0.991641
1.00064 1.00235 0.99099
1.00179 1.00153 0.990337
1.00321 1.00018 0.988313
1.0049 0.998309 0.986731
1.00338 0.99983 0.987985
1.00132 1.00121 0.990604
1.0025 0.997516 0.992711
0.998912 0.999414 0.97714
0.999237 0.998879 0.961761
0.999425 0.998262 0.982028
1.00322 0.997059 0.991696
1.00296 0.998314 0.990399
1.0035 0.998483 0.987987
0.998963 0.997263 0.98274
1.00048 0.99554 0.960002
1.00169 1.00004 0.992097
0.999654 0.998717 0.98342
1.00399 0.99888 0.98907
1.00464 0.997317 0.989062
1.00524 0.996147 0.988526
1.00514 0.997526 0.987917
1.00499 0.995524 0.989001
1.00519 0.995827 0.988813
1.00509 0.996607 0.988479
1.00515 0.995624 0.989145
1.00509 0.996497 0.988379
1.00496 0.99766 0.987581
1.00491 0.996624 0.988627
1.00487 0.997394 0.987977
1.0046 0.998282 0.987525
1.00412 0.997562 0.989057
1.00415 0.998455 0.988263
1.00396 0.999225 0.987891
1.00361 0.998837 0.988889
1.00348 0.999748 0.988368
1.00317 1.0003 0.988398
1.00299 1.00053 0.988487
1.00265 1.00085 0.988757
1.00219 1.00107 0.989491
1.00087 1.00147 0.991462
1.00154 1.00167 0.98991
1.00198 1.00177 0.989065
0.999641 1.00065 0.994525
1.00048 1.00177 0.991928
1.00109 1.00215 0.990465
0.999396 0.998485 0.998875
0.999681 1.00013 0.994994
1.0003 1.00173 0.992343
0.999451 0.99817 0.998968
0.999643 0.999735 0.995481
0.999479 0.997916 0.999059
1.00076 1.00277 0.990326
1.0004 1.00285 0.991057
1.00044 1.00234 0.99155
1.00029 1.00258 0.991621
1.00024 1.00219 0.991995
1.00004 1.00146 0.993031
1.00014 1.00202 0.992283
0.999966 1.00108 0.99355
0.999577 0.999159 0.996187
0.999967 1.00051 0.994131
0.999648 0.998692 0.996521
0.999472 0.997571 0.999202
0.999722 0.998374 0.996696
0.999547 0.997287 0.999254
0.999643 0.997067 0.999272
1.00272 0.998076 0.991071
0.999157 0.998494 0.976214
1.00028 0.996871 0.963012
1.00102 1.00197 0.990543
1.00226 1.0016 0.988852
1.00071 1.00285 0.990277
1.00002 1.00329 0.991438
1.0002 1.0034 0.990854
1.00053 1.00218 0.991435
1.00315 0.999867 0.988814
1.00076 1.00235 0.991145
1.00134 1.00156 0.99038
1.00313 1.00018 0.98849
1.00475 0.998879 0.986441
1.0051 0.996964 0.987556
1.00491 0.998343 0.986769
1.00339 0.999822 0.987929
1.00276 0.997483 0.992884
0.998681 1.00027 0.974974
1.00354 0.996525 0.992771
1.00511 0.997048 0.98858
1.00335 0.99826 0.988239
0.999514 0.99631 0.978914
1.00393 0.997994 0.989168
1.00459 0.997681 0.989254
1.00519 0.996042 0.988721
1.00516 0.997187 0.987893
1.00511 0.996695 0.988148
1.00514 0.996698 0.987776
1.00522 0.995465 0.988864
1.00507 0.996487 0.988469
1.00501 0.997422 0.987726
1.00509 0.996503 0.98839
1.00493 0.997668 0.987583
1.00482 0.998241 0.987193
1.00477 0.997429 0.988092
1.00465 0.998284 0.9875
1.00445 0.998713 0.987463
1.00418 0.998461 0.988246
1.00397 0.99922 0.98788
1.00364 0.999796 0.987961
1.00345 0.99965 0.988394
1.00312 1.00027 0.988412
1.00261 1.0006 0.989098
1.00261 1.00085 0.98871
1.00214 1.00105 0.989463
1.00134 1.00099 0.991058
0.999739 1.00077 0.994158
1.00088 1.00148 0.991457
1.00153 1.00169 0.990003
0.999257 0.999004 0.998741
0.999715 1.00056 0.994515
1.0005 1.00179 0.991925
0.999375 0.998589 0.998831
0.999719 1.00011 0.994988
0.999452 0.998237 0.998924
1.00143 1.00231 0.989249
1.00076 1.00275 0.990221
1.00082 1.00226 0.990918
1.00039 1.00281 0.991069
1.00041 1.00233 0.991562
1.00012 1.00179 0.992626
1.00023 1.00218 0.992015
1.00001 1.00153 0.993026
0.999557 0.999625 0.995747
0.999954 1.00112 0.993549
0.999587 0.999097 0.996209
0.999436 0.997837 0.99912
0.999648 0.998653 0.996541
0.999474 0.997528 0.999218
0.999558 0.997256 0.99926
1.00507 0.996478 0.988146
1.00276 0.99784 0.990424
0.999217 0.997624 0.977617
1.00322 1.00025 0.988684
1.00082 1.00182 0.991095
1.00325 1.00009 0.987909
1.00231 1.00159 0.988788
1.00049 1.0029 0.990393
1.00473 0.998778 0.986772
1.00075 1.00214 0.991286
1.00327 0.999794 0.988687
1.00508 0.998252 0.986601
1.00307 1.00015 0.988668
1.00491 0.998848 0.9863
1.00506 0.997101 0.987588
1.00478 0.998433 0.9868
1.00286 0.997366 0.993073
1.00514 0.997114 0.987622
1.00513 0.997109 0.98854
1.00316 0.998062 0.988483
1.00512 0.995875 0.988921
1.00518 0.996936 0.987868
1.00506 0.99669 0.988258
1.00513 0.996776 0.987925
1.00513 0.997286 0.987541
1.00505 0.996415 0.988459
1.00499 0.99744 0.987725
1.00496 0.998057 0.987178
1.00491 0.997684 0.987586
1.00481 0.998302 0.987184
1.00463 0.998698 0.987169
1.0047 0.998286 0.987475
1.00447 0.998716 0.987447
1.00411 0.999231 0.987637
1.00398 0.999215 0.987868
1.00364 0.999793 0.987959
1.0031 1.00019 0.98858
1.00308 1.00024 0.988425
1.0026 1.00061 0.989101
1.00177 1.00061 0.990632
1.00208 1.00104 0.989435
1.00134 1.00101 0.991049
0.999853 1.00068 0.994861
0.999201 0.999627 0.996757
0.999813 1.00068 0.994598
1.00088 1.0015 0.991452
0.999241 0.999141 0.998694
0.999793 1.00047 0.994503
0.999359 0.99868 0.998784
1.0038 0.999229 0.988041
1.00225 1.00141 0.988648
1.00157 1.00229 0.989138
1.00127 1.002 0.990278
1.00076 1.00274 0.990115
1.00077 1.00226 0.99094
1.00029 1.00186 0.992257
1.00038 1.00232 0.991574
1.00009 1.0018 0.992627
0.999598 1.00009 0.995229
0.99998 1.00161 0.993021
0.99956 0.999578 0.995762
0.9994 0.998156 0.998995
0.999596 0.999038 0.99623
0.999429 0.997794 0.999148
0.999478 0.997484 0.999233
1.0051 0.997568 0.987248
1.0051 0.996714 0.988632
1.00286 0.997792 0.989781
1.00462 0.998707 0.9871
1.00291 1.00028 0.98906
1.00061 1.00165 0.99164
1.00343 1.00005 0.988042
1.00236 1.0016 0.988723
1.00517 0.998587 0.986358
1.00475 0.998884 0.986596
1.00339 0.99975 0.988559
1.00509 0.998244 0.986592
1.0051 0.998815 0.986159
1.00504 0.997186 0.987633
1.00519 0.997518 0.987332
1.00513 0.997035 0.987687
1.00515 0.997098 0.988502
1.00504 0.996696 0.988368
1.00512 0.996828 0.988073
1.00515 0.997214 0.98763
1.00516 0.997983 0.98689
1.00497 0.997459 0.987724
1.00491 0.998081 0.9872
1.0048 0.998819 0.986757
1.0048 0.998357 0.987175
1.00462 0.998698 0.987178
1.00429 0.999077 0.987433
1.00448 0.998719 0.987431
1.00411 0.999233 0.987634
1.00353 0.999731 0.988234
1.00364 0.999791 0.987957
1.0031 1.00019 0.988581
1.00217 1.00034 0.990139
1.0026 1.00061 0.989104
1.00177 1.00062 0.990619
1.00005 1.00048 0.99475
1.00134 1.00102 0.99104
0.999963 1.00065 0.994814
0.999091 1.0001 0.996605
0.999123 0.999719 0.997655
0.999912 1.0006 0.994995
0.999223 0.999268 0.998641
1.00472 0.998526 0.987125
1.00312 1.00034 0.988503
1.00365 0.998935 0.988619
1.00183 1.00159 0.989573
1.00236 1.00145 0.988621
1.00171 1.00226 0.989026
1.00123 1.00204 0.990285
1.0006 1.00173 0.99179
1.00072 1.00226 0.990961
1.00026 1.00184 0.992262
0.99966 1.00048 0.99474
1.00006 1.00179 0.992628
0.99957 1.00009 0.995236
0.999312 0.998602 0.998846
0.999564 0.999521 0.995774
0.999398 0.998096 0.999037
0.999425 0.997747 0.999176
1.00519 0.997906 0.986883
1.0051 0.997553 0.987246
1.00511 0.996892 0.989107
1.00507 0.998488 0.98654
1.00459 0.998803 0.987129
1.00262 1.00031 0.989438
1.0036 0.999992 0.988178
1.00517 0.998528 0.986347
1.00477 0.998986 0.986421
1.00508 0.998243 0.986582
1.00517 0.997906 0.986938
1.00519 0.997528 0.987286
1.00511 0.996977 0.987752
1.00516 0.998192 0.986677
1.00516 0.997138 0.987718
1.00514 0.997984 0.98692
1.00504 0.998648 0.9865
1.00486 0.998113 0.987223
1.00477 0.998826 0.986776
1.00444 0.999295 0.986911
1.00461 0.998699 0.987187
1.00429 0.999083 0.987431
1.00372 0.999549 0.988044
1.00411 0.999235 0.987632
1.00352 0.999731 0.988237
1.00251 1.00007 0.989783
1.0031 1.00019 0.988582
1.00219 1.00033 0.990127
1.0003 1.00023 0.994607
1.00178 1.00062 0.990605
1.00015 1.00046 0.994694
0.999094 1.00022 0.996538
1.00008 1.00058 0.994764
0.999009 1.00022 0.996659
0.998992 0.99976 0.998655
1.00491 0.998766 0.98666
1.00419 0.999129 0.987558
1.00459 0.998623 0.987311
1.00258 1.00086 0.989124
1.00312 1.00021 0.988523
1.00352 0.998648 0.989189
1.00109 1.00143 0.991118
1.00183 1.00161 0.989563
1.00248 1.0015 0.988594
1.00119 1.00208 0.990291
1.00057 1.00172 0.991799
0.999736 1.00077 0.994328
1.00024 1.00181 0.992267
0.999595 1.00056 0.994746
0.999159 0.999194 0.998705
0.999541 1.0001 0.995244
0.999327 0.998507 0.998896
0.999398 0.998039 0.999078
1.00515 0.998025 0.986798
1.00518 0.997896 0.986863
1.00511 0.997537 0.987245
1.00509 0.998342 0.986624
1.00456 0.998905 0.987156
1.00516 0.998461 0.986336
1.00514 0.998193 0.986724
1.00518 0.997941 0.986918
1.00519 0.997541 0.987241
1.00517 0.998147 0.986716
1.00511 0.998556 0.986468
1.00512 0.997983 0.98695
1.00502 0.99869 0.986456
1.00475 0.999215 0.98639
1.00474 0.998831 0.986795
1.00445 0.999304 0.986917
1.00388 0.999729 0.987569
1.0043 0.999086 0.987429
1.00373 0.999547 0.988038
1.00266 0.999906 0.989635
1.00352 0.99973 0.98824
1.00252 1.00005 0.989781
1.00054 1.00001 0.994452
1.0022 1.00031 0.990115
1.00038 1.00023 0.994542
0.99922 1.00015 0.996441
1.00026 1.00043 0.994645
0.99901 1.00031 0.996613
0.998918 1.00037 0.996721
1.00504 0.998431 0.986585
1.00453 0.998941 0.987095
1.00488 0.99873 0.986643
1.00345 0.999888 0.988316
1.0042 0.999202 0.98758
1.00446 0.998719 0.987503
1.00171 1.00086 0.990458
1.00257 1.00079 0.988972
1.00311 1.00007 0.988543
0.999884 1.00086 0.993943
1.00108 1.00142 0.991132
1.00183 1.00163 0.989553
1.00055 1.00172 0.991808
0.999642 1.00087 0.994341
0.999023 0.999807 0.998592
0.999525 1.00065 0.994752
0.999187 0.999062 0.998756
0.999347 0.998411 0.998943
1.00514 0.998232 0.986698
1.00516 0.998032 0.986795
1.00517 0.997888 0.986843
1.00512 0.9982 0.986708
1.0051 0.998492 0.986512
1.00515 0.9982 0.986727
1.00518 0.997976 0.986898
1.00517 0.998109 0.986755
1.00511 0.998516 0.986491
1.00494 0.998991 0.986405
1.005 0.998732 0.986411
1.00475 0.999265 0.986421
1.00421 0.999652 0.986904
1.00445 0.999316 0.986922
1.00388 0.999729 0.987562
1.00281 0.999951 0.989309
1.00373 0.999551 0.988032
1.00268 0.999892 0.989632
1.00064 0.999928 0.99332
1.00253 1.00003 0.989779
1.00058 0.999998 0.993896
0.999347 1.00009 0.998395
1.00047 1.00023 0.994479
0.99913 1.00021 0.996521
0.998923 1.00043 0.996674
1.00498 0.998478 0.986676
1.00467 0.998841 0.986852
1.00505 0.998473 0.986627
1.00387 0.999352 0.987729
1.00453 0.998969 0.987086
1.00486 0.998696 0.986626
1.00235 1.00015 0.989648
1.00347 0.999881 0.988312
1.00421 0.999276 0.987602
1.00016 1.00063 0.993589
1.00172 1.00082 0.990322
1.00255 1.00072 0.988819
0.99902 1.00025 0.998492
0.999799 1.00093 0.993962
1.00106 1.00141 0.991146
0.999554 1.00097 0.994354
0.999031 0.999669 0.998633
0.999214 0.998922 0.9988
1.00509 0.998406 0.986578
1.00514 0.998213 0.986705
1.00517 0.998041 0.986792
1.00495 0.99891 0.986441
1.0051 0.998479 0.986529
1.00515 0.998201 0.98673
1.0051 0.99847 0.986513
1.00494 0.998971 0.986402
1.00451 0.999367 0.986877
1.00475 0.999317 0.986452
1.0042 0.999701 0.987061
1.00314 0.9999 0.988452
1.00389 0.999724 0.987555
1.00282 0.999947 0.9893
1.00073 1.00001 0.993065
1.00269 0.99988 0.989627
1.00064 0.999927 0.993318
0.999391 1.00002 0.998376
1.00059 1 0.993384
0.999302 1.00007 0.997433
0.999042 1.00027 0.996598
1.00491 0.998642 0.986687
1.00472 0.998806 0.986921
1.005 0.998469 0.986685
1.00405 0.999303 0.987614
1.00469 0.998824 0.986843
1.00506 0.998514 0.986669
1.00276 0.999738 0.989306
1.00388 0.999429 0.98789
1.00453 0.998996 0.987078
1.00047 1.00022 0.993375
1.00239 1.00014 0.989601
1.00349 0.999872 0.988307
0.99914 1.00039 0.998416
1.00012 1.00065 0.993615
1.00173 1.00079 0.990185
0.998977 1.00014 0.998528
0.999724 1.00098 0.993985
0.999036 0.999516 0.998677
1.00495 0.998834 0.9865
1.00509 0.998447 0.98657
1.00514 0.998192 0.986712
1.00452 0.999243 0.986964
1.00495 0.99889 0.986458
1.00509 0.998474 0.986546
1.00494 0.998953 0.986399
1.00451 0.999372 0.986869
1.00346 0.999701 0.988062
1.0042 0.999752 0.987218
1.00312 0.99993 0.988603
1.00096 1.00006 0.992571
1.00284 0.999938 0.989293
1.00075 1.00001 0.993048
0.999449 1 0.998327
1.00064 0.999933 0.993316
0.999407 1.00001 0.998365
0.999337 1.00002 0.996383
1.00475 0.99894 0.986894
1.00494 0.998573 0.986691
1.00416 0.999212 0.987501
1.00471 0.998791 0.986915
1.00501 0.998459 0.986693
1.00296 0.999702 0.989278
1.00407 0.999303 0.987607
1.00472 0.998807 0.986834
1.00069 0.999924 0.993234
1.00276 0.999788 0.989407
1.00389 0.99951 0.988051
0.999309 1.00026 0.998369
1.00045 1.00021 0.993389
1.00244 1.00014 0.989553
0.999083 1.00032 0.998438
1.00006 1.00067 0.99364
0.998935 1.00003 0.998567
1.00447 0.999256 0.987062
1.00495 0.998866 0.986487
1.00508 0.998489 0.986562
1.00348 0.999602 0.98813
1.00452 0.999249 0.986965
1.00495 0.998867 0.986475
1.00451 0.99938 0.986861
1.00345 0.999713 0.988076
1.00118 1.00003 0.992194
1.0031 0.999959 0.988754
1.00098 1.00006 0.992551
0.999594 1.00001 0.998204
1.00077 1.00001 0.993033
0.999497 0.999998 0.99829
0.999432 0.999998 0.998349
1.00426 0.999242 0.98734
1.00473 0.998854 0.986859
1.00496 0.998504 0.986695
1.00309 0.999673 0.989053
1.00418 0.999214 0.987493
1.0047 0.998778 0.986909
1.00084 0.99984 0.993024
1.00295 0.999716 0.989274
1.00408 0.999303 0.9876
0.999461 1.00008 0.998323
1.00068 0.999914 0.993244
1.00277 0.999832 0.989508
0.999258 1.00026 0.998381
1.00043 1.00021 0.993403
0.999014 1.00028 0.998465
1.00342 0.999669 0.98843
1.00449 0.999236 0.986915
1.00495 0.998896 0.986473
1.00123 0.999964 0.992149
1.00348 0.999592 0.988121
1.00452 0.999254 0.986966
1.00343 0.999723 0.98809
1.00118 1.00002 0.992192
0.999763 1.00001 0.998065
1.001 1.00006 0.99253
0.999655 1.00001 0.998148
0.99954 0.999992 0.998245
1.00326 0.999677 0.988742
1.00428 0.999207 0.987262
1.00472 0.998769 0.986823
1.00102 0.999908 0.99381
1.00309 0.999683 0.989044
1.0042 0.999216 0.987485
0.99958 0.999972 0.998247
1.00084 0.999844 0.993032
1.00295 0.999729 0.98927
0.999416 1.0001 0.99834
1.00068 0.999909 0.993253
0.999205 1.00025 0.998392
1.00123 0.999969 0.992175
1.00342 0.999635 0.988336
1.00451 0.999212 0.986767
0.999827 1 0.998023
1.00123 0.999968 0.992149
1.00349 0.999585 0.988112
1.00119 1.00001 0.992187
0.999798 1.00001 0.998042
0.999725 1.00001 0.998097
1.00119 0.999967 0.993485
1.00326 0.999672 0.988746
1.00429 0.999173 0.987186
0.999478 0.999974 0.998338
1.00095 0.999917 0.992764
1.0031 0.999688 0.989034
0.999538 0.999997 0.998277
1.00083 0.999854 0.993041
0.999379 1.00012 0.998354
0.999803 1.00001 0.995651
1.00123 0.999967 0.992798
1.00342 0.999606 0.988242
0.999823 0.999998 0.998024
1.00123 0.999971 0.992154
0.999818 1 0.998025
0.999548 0.999993 0.995972
1.00112 0.999975 0.993001
1.00326 0.99967 0.98875
0.999552 0.999978 0.997145
1.00096 0.999933 0.99275
0.999502 1.00001 0.998304
0.999809 0.999995 0.998033
1.00118 0.999966 0.99225
0.999821 0.999997 0.998025
0.999651 0.999997 0.997008
1.00108 0.999977 0.99246
0.9996 0.999986 0.998224
0.999779 0.99999 0.998063
0.999695 0.999986 0.998136

TENSORS stress float
0.00119306 -1.24601e-05 7.62686e-05
-1.24601e-05 0.00029824 -8.58968e-06
7.62686e-05 -8.58968e-06 0.000278719
0.0033562 -8.359e-05 7.07646e-05
-8.359e-05 0.00144381 3.73623e-06
7.07646e-05 3.73623e-06 0.00143879
0.00121725 3.23427e-05 3.67449e-05
3.23427e-05 0.000321881 -2.66496e-06
3.67449e-05 -2.66496e-06 0.000295934
0.0016161 -1.7369e-05 9.26754e-05
-1.7369e-05 0.00049297 -6.59133e-06
9.26754e-05 -6.59133e-06 0.000471723
0.00131666 -1.80323e-05 8.17943e-05
-1.80323e-05 0.000361346 -8.6788e-06
8.17943e-05 -8.6788e-06 0.000339964
0.00112454 1.71664e-05 6.48213e-05
1.71664e-05 0.000255622 -7.73149e-06
6.48213e-05 -7.73149e-06 0.000237306
0.00111522 -3.8526e-06 8.98666e-06
-3.8526e-06 0.000211759 -4.74023e-06
8.98666e-06 -4.74023e-06 0.000159961
0.00329958 -9.93975e-05 2.87626e-06
-9.93975e-05 0.0014121 -3.29336e-07
2.87626e-06 -3.29336e-07 0.0014062
0.0041136 -0.00017508 1.80781e-06
-0.00017508 0.00187905 2.40643e-06
1.80781e-06 2.40643e-06 0.00185369
0.00334139 -0.00015101 9.8161e-06
-0.00015101 0.00146431 1.81921e-06
9.8161e-06 1.81921e-06 0.00144544
0.00116222 -3.43806e-05 5.49497e-05
-3.43806e-05 0.000250739 4.31806e-06
5.49497e-05 4.31806e-06 0.000241347
0.00074737 2.99596e-05 7.91152e-06
2.99596e-05 6.67108e-06 5.177e-06
7.91152e-06 5.177e-06 -3.75406e-05
0.00174644 -9.77619e-06 0.000109672
-9.77619e-06 0.000545361 1.08457e-06
0.000109672 1.08457e-06 0.000522757
0.00130736 1.72299e-05 1.72606e-05
1.72299e-05 0.000332374 1.63558e-06
1.72606e-05 1.63558e-06 0.000306513
0.00128431 8.55809e-05 -1.82503e-06
8.55809e-05 0.000370932 3.36583e-06
-1.82503e-06 3.36583e-06 0.000337126
0.00147906 7.80615e-07 3.95469e-05
7.80615e-07 0.000425642 -2.38221e-06
3.95469e-05 -2.38221e-06 0.000402162
0.00113748 4.09304e-05 3.06082e-05
4.09304e-05 0.000270179 -2.57811e-06
3.06082e-05 -2.57811e-06 0.000247681
0.00130892 3.32386e-05 4.2171e-05
3.32386e-05 0.000369229 -2.51407e-06
4.2171e-05 -2.51407e-06 0.000341192
0.00123539 -1.79556e-05 -1.5982e-05
-1.79556e-05 0.0002696 3.84442e-07
-1.5982e-05 3.84442e-07 0.000220697
0.00485865 -1.90341e-05 0.000110095
-1.90341e-05 0.00221875 -1.2968e-06
0.000110095 -1.2968e-06 0.00221399
0.00166462 -1.04459e-05 9.58893e-05
-1.04459e-05 0.000513418 -4.95902e-06
9.58893e-05 -4.95902e-06 0.000492752
0.00147597 -1.88851e-05 8.71466e-05
-1.88851e-05 0.000432856 -7.97725e-06
8.71466e-05 -7.97725e-06 0.000411251
0.00146178 -2.88575e-05 1.97473e-05
-2.88575e-05 0.000322576 -3.45627e-06
1.97473e-05 -3.45627e-06 0.000272288
0.00124036 4.01638e-07 9.06063e-06
4.01638e-07 0.000258639 -5.21149e-06
9.06063e-06 -5.21149e-06 0.000204393
0.00113931 4.25269e-05 5.07346e-05
4.25269e-05 0.000248705 -6.97649e-06
5.07346e-05 -6.97649e-06 0.000233271
0.00101632 2.29445e-06 8.61633e-06
2.29445e-06 0.000171423 -3.87815e-06
8.61633e-06 -3.87815e-06 0.000123653
0.00153853 -9.7251e-05 4.39154e-06
-9.7251e-05 0.00034125 -1.93769e-06
4.39154e-06 -1.93769e-06 0.000260203
0.0032239 -0.000107853 -5.47161e-05
-0.000107853 0.0013698 -3.06394e-06
-5.47161e-05 -3.06394e-06 0.00136346
0.00265052 -5.65594e-05 -4.1831e-05
-5.65594e-05 0.0010811 -8.02837e-07
-4.1831e-05 -8.02837e-07 0.00106005
0.00229679 -8.42116e-05 -2.81949e-05
-8.42116e-05 0.000894274 -6.48472e-07
-2.81949e-05 -6.48472e-07 0.000875664
0.00304932 -9.52773e-05 1.74511e-06
-9.52773e-05 0.00126563 -1.90558e-07
1.74511e-06 -1.90558e-07 0.00126357
0.000685425 2.14912e-05 -1.15399e-07
2.14912e-05 -2.10872e-05 -1.78926e-07
-1.15399e-07 -1.78926e-07 -6.56468e-05
0.00160692 2.98774e-05 8.96612e-05
2.98774e-05 0.000499296 5.63748e-06
8.96612e-05 5.63748e-06 0.000478103
0.0016517 1.67291e-05 7.9475e-05
1.67291e-05 0.000540767 6.54414e-06
7.9475e-05 6.54414e-06 0.000520101
0.0022448 7.99475e-05 5.0045e-05
7.99475e-05 0.000774101 5.97938e-06
5.0045e-05 5.97938e-06 0.000730291
0.00272883 -9.80368e-05 1.48718e-05
-9.80368e-05 0.00108694 1.34537e-06
1.48718e-05 1.34537e-06 0.0010873
0.00195646 4.02473e-05 3.8912e-05
4.02473e-05 0.000650386 4.72098e-06
3.8912e-05 4.72098e-06 0.000610628
0.000674459 -7.45857e-06 7.88652e-06
-7.45857e-06 -2.76114e-05 7.13105e-06
7.88652e-06 7.13105e-06 -6.71301e-05
0.000919478 6.764e-05 3.70454e-06
6.764e-05 6.35413e-05 9.39597e-07
3.70454e-06 9.39597e-07 -1.57509e-05
0.00251517 -6.78954e-05 4.04827e-05
-6.78954e-05 0.000959858 3.1735e-06
4.04827e-05 3.1735e-06 0.000968515
0.0050412 -9.68595e-06 6.47644e-07
-9.68595e-06 0.00231027 -6.25568e-07
6.47644e-07 -6.25568e-07 0.00230505
0.00304282 1.7437e-05 -4.38325e-05
1.7437e-05 0.0012557 -1.04345e-06
-4.38325e-05 -1.04345e-06 0.0012403
0.00518407 2.4611e-05 0.00011835
2.4611e-05 0.00238098 5.01853e-07
0.00011835 5.01853e-07 0.0023762
0.00135259 -1.12346e-06 1.31653e-05
-1.12346e-06 0.000353125 9.94652e-07
1.31653e-05 9.94652e-07 0.000326095
0.000787649 -3.89267e-06 1.47493e-05
-3.89267e-06 -7.30562e-05 2.27595e-06
1.47493e-05 2.27595e-06 -0.000131056
0.00450326 -7.44385e-06 3.09025e-05
-7.44385e-06 0.00204387 1.38038e-06
3.09025e-05 1.38038e-06 0.00203407
0.00237019 1.24205e-05 5.78164e-05
1.24205e-05 0.000792057 3.55216e-06
5.78164e-05 3.55216e-06 0.000751332
0.00133278 -5.5337e-06 -1.82271e-05
-5.5337e-06 0.000353654 2.09233e-06
-1.82271e-05 2.09233e-06 0.00032798
0.00134536 5.40939e-05 -6.40124e-06
5.40939e-05 0.000393503 3.00053e-06
-6.40124e-06 3.00053e-06 0.000363435
0.00116836 7.67384e-05 -5.40942e-06
7.67384e-05 0.000295751 2.69121e-06
-5.40942e-06 2.69121e-06 0.000267567
0.00129897 -3.5327e-05 -4.04655e-05
-3.5327e-05 0.000295957 5.47255e-06
-4.04655e-05 5.47255e-06 0.000250798
0.00321248 4.0487e-05 -4.48543e-05
4.0487e-05 0.00134362 -1.08298e-06
-4.48543e-05 -1.08298e-06 0.00132404
0.00149401 -3.07919e-06 3.9233e-05
-3.07919e-06 0.000427692 -1.58158e-06
3.9233e-05 -1.58158e-06 0.000404825
0.00110294 5.24597e-05 2.29498e-05
5.24597e-05 0.000233462 -2.30849e-06
2.29498e-05 -2.30849e-06 0.000216321
0.00140452 1.26324e-05 4.05225e-05
1.26324e-05 0.00040225 -2.73442e-06
4.05225e-05 -2.73442e-06 0.000377348
0.00150851 -3.64566e-05 -1.43737e-05
-3.64566e-05 0.000345206 3.10966e-07
-1.43737e-05 3.10966e-07 0.000296635
0.00112721 -4.57776e-06 -1.26838e-05
-4.57776e-06 0.000225341 3.36921e-07
-1.26838e-05 3.36921e-07 0.000179733
0.00133931 -2.89775e-05 -1.56635e-05
-2.89775e-05 0.000302148 4.47801e-07
-1.56635e-05 4.47801e-07 0.000253123
0.00166647 -0.000102591 -2.40435e-06
-0.000102591 0.000404432 8.5235e-07
-2.40435e-06 8.5235e-07 0.000322208
0.00501199 4.23384e-05 0.000108412
4.23384e-05 0.0022959 1.67441e-07
0.000108412 1.67441e-07 0.00229059
0.00163983 3.22203e-07 9.82628e-05
3.22203e-07 0.000499065 -3.55684e-06
9.82628e-05 -3.55684e-06 0.000477928
0.00227223 4.66572e-05 1.29092e-05
4.66572e-05 0.000739875 -1.10671e-06
1.29092e-05 -1.10671e-06 0.000690268
0.00148386 -2.88853e-05 2.13824e-05
-2.88853e-05 0.000327708 -2.51266e-06
2.13824e-05 -2.51266e-06 0.000278625
0.00136222 -1.85964e-05 1.52025e-05
-1.85964e-05 0.00029304 -4.52179e-06
1.52025e-05 -4.52179e-06 0.000241571
0.00196054 -8.17408e-05 6.95557e-06
-8.17408e-05 0.000438229 -1.98683e-06
6.95557e-06 -1.98683e-06 0.000353061
0.00126263 -8.62981e-05 6.6393e-06
-8.62981e-05 0.000147718 -3.1536e-06
6.6393e-06 -3.1536e-06 6.28699e-05
0.00121182 4.68662e-05 4.51183e-05
4.68662e-05 0.000266399 -6.71723e-06
4.51183e-05 -6.71723e-06 0.000257533
0.000959213 2.76242e-05 7.05401e-06
2.76242e-05 0.000146081 -3.17755e-06
7.05401e-06 -3.17755e-06 0.000105938
0.00134286 -8.34715e-05 3.06032e-06
-8.34715e-05 0.000279369 -1.27102e-06
3.06032e-06 -1.27102e-06 0.000202041
0.0011351 -0.000103172 2.92633e-06
-0.000103172 6.73392e-05 -1.15325e-06
2.92633e-06 -1.15325e-06 -3.70386e-05
0.00405414 -7.15827e-05 -7.6147e-05
-7.15827e-05 0.00182884 -4.38001e-06
-7.6147e-05 -4.38001e-06 0.00181816
0.00299663 -9.6987e-05 -4.86696e-05
-9.6987e-05 0.00123478 -3.01727e-06
-4.86696e-05 -3.01727e-06 0.0012337
0.00340948 -0.000111563 -6.18771e-05
-0.000111563 0.00148519 -3.23403e-06
-6.18771e-05 -3.23403e-06 0.00147478
0.000629511 2.09997e-05 -6.80434e-06
2.09997e-05 -4.66697e-05 -5.76188e-06
-6.80434e-06 -5.76188e-06 -9.1065e-05
0.00459599 -1.61406e-05 -2.83509e-06
-1.61406e-05 0.0020963 -3.39618e-07
-2.83509e-06 -3.39618e-07 0.00208923
0.00392445 -9.77636e-05 2.75467e-06
-9.77636e-05 0.00176905 -2.67555e-07
2.75467e-06 -2.67555e-07 0.00175477
0.000630015 7.46613e-05 -7.0454e-07
7.46613e-05 -8.30272e-05 -1.63648e-07
-7.0454e-07 -1.63648e-07 -0.000136217
0.00189594 -6.92645e-05 -1.91678e-05
-6.92645e-05 0.000637679 -6.33477e-07
-1.91678e-05 -6.33477e-07 0.000635314
0.000654094 4.66813e-05 -2.75701e-07
4.66813e-05 -4.03265e-05 -9.88627e-08
-2.75701e-07 -9.88627e-08 -8.8506e-05
0.00117351 -2.15856e-05 1.07363e-05
-2.15856e-05 0.000242982 4.35828e-07
1.07363e-05 4.35828e-07 0.000207302
0.000868151 6.57565e-05 1.8074e-07
6.57565e-05 3.52964e-05 -2.01907e-07
1.8074e-07 -2.01907e-07 -4.33262e-05
0.00267491 -7.52245e-05 4.5342e-05
-7.52245e-05 0.00104937 3.17557e-06
4.5342e-05 3.17557e-06 0.0010555
0.000710141 -5.47375e-05 1.13156e-06
-5.47375e-05 -1.31855e-05 4.34753e-06
1.13156e-06 4.34753e-06 -3.43971e-05
0.000772448 6.1466e-05 1.47458e-05
6.1466e-05 -3.56755e-05 6.62318e-06
1.47458e-05 6.62318e-06 -8.96562e-05
0.000803416 7.03238e-05 1.40969e-05
7.03238e-05 2.24197e-05 8.2961e-06
1.40969e-05 8.2961e-06 -2.96058e-05
0.00105514 8.38891e-05 6.80598e-06
8.38891e-05 2.18241e-05 3.08948e-06
6.80598e-06 3.08948e-06 -6.74168e-05
0.00158703 -5.34812e-05 2.27834e-05
-5.34812e-05 0.000465394 3.77771e-06
2.27834e-05 3.77771e-06 0.000438636
0.000969177 8.14933e-05 4.15778e-06
8.14933e-05 6.34126e-05 1.7629e-06
4.15778e-06 1.7629e-06 -1.72043e-05
0.000894766 4.89759e-05 3.60139e-06
4.89759e-05 7.00093e-05 1.70191e-06
3.60139e-06 1.70191e-06 -7.58405e-06
0.000880749 9.42463e-05 1.75174e-06
9.42463e-05 1.20401e-05 -5.45496e-07
1.75174e-06 -5.45496e-07 -8.4614e-05
0.00232964 -6.08068e-05 3.45319e-05
-6.08068e-05 0.000854652 3.23397e-06
3.45319e-05 3.23397e-06 0.000865958
0.00245223 -6.825e-05 9.35977e-07
-6.825e-05 0.000926439 -1.05547e-07
9.35977e-07 -1.05547e-07 0.000935276
0.00470842 2.87408e-05 -0.000105381
2.87408e-05 0.00214429 -3.52862e-06
-0.000105381 -3.52862e-06 0.0021395
0.00495038 1.52845e-06 -0.000107953
1.52845e-06 0.00226407 -1.40713e-06
-0.000107953 -1.40713e-06 0.00225948
0.00515829 2.65862e-05 3.58189e-06
2.65862e-05 0.00236997 -5.78434e-07
3.58189e-06 -5.78434e-07 0.00236407
0.00311294 -1.07389e-05 -4.41275e-05
-1.07389e-05 0.00129024 -5.38701e-07
-4.41275e-05 -5.38701e-07 0.00127354
0.0016417 9.20257e-06 2.52791e-05
9.20257e-06 0.000385945 1.11605e-07
2.52791e-05 1.11605e-07 0.000334751
0.00297155 1.52033e-06 -4.5415e-05
1.52033e-06 0.00122385 -1.31339e-06
-4.5415e-05 -1.31339e-06 0.00120818
0.00156587 2.7944e-05 2.27247e-05
2.7944e-05 0.000366138 4.32133e-07
2.27247e-05 4.32133e-07 0.000319103
0.00516864 9.08187e-05 0.000110741
9.08187e-05 0.00237826 1.55179e-06
0.000110741 1.55179e-06 0.00237009
0.000750329 -2.2361e-06 1.35428e-05
-2.2361e-06 -0.000100677 4.14401e-07
1.35428e-05 4.14401e-07 -0.00015978
0.00242822 -1.17712e-05 6.00685e-05
-1.17712e-05 0.000815402 2.59205e-06
6.00685e-05 2.59205e-06 0.000772809
0.00124124 1.75088e-05 8.66522e-06
1.75088e-05 9.09005e-06 1.70921e-06
8.66522e-06 1.70921e-06 -8.54078e-05
0.00229256 5.54326e-05 5.53184e-05
5.54326e-05 0.000763569 4.10553e-06
5.53184e-05 4.10553e-06 0.000721834
0.00119965 4.83687e-05 8.36258e-06
4.83687e-05 1.77822e-05 1.97084e-06
8.36258e-06 1.97084e-06 -7.24656e-05
0.00171987 1.86434e-05 -0.000106446
1.86434e-05 0.000536042 4.186e-07
-0.000106446 4.186e-07 0.000514252
0.0012921 -1.75356e-05 -1.86286e-05
-1.75356e-05 0.00032608 1.57006e-06
-1.86286e-05 1.57006e-06 0.000300672
0.00101027 6.63117e-05 -7.83386e-06
6.63117e-05 0.000188942 2.07646e-06
-7.83386e-06 2.07646e-06 0.000169407
0.00134911 1.52048e-05 -1.37379e-05
1.52048e-05 0.000377576 2.50471e-06
-1.37379e-05 2.50471e-06 0.000351081
0.00156676 -3.18976e-05 -5.05542e-05
-3.18976e-05 0.000373919 4.21588e-06
-5.05542e-05 4.21588e-06 0.000326977
0.00139872 -4.20466e-05 -4.46812e-05
-4.20466e-05 0.000327964 5.66458e-06
-4.46812e-05 5.66458e-06 0.000281983
0.00120998 -1.76857e-05 -3.51191e-05
-1.76857e-05 0.000263449 4.67106e-06
-3.51191e-05 4.67106e-06 0.000220792
0.00183108 -0.00010898 -1.00884e-05
-0.00010898 0.000487135 3.99594e-06
-1.00884e-05 3.99594e-06 0.000403598
0.00508397 -4.81879e-06 -2.69873e-06
-4.81879e-06 0.00233144 -5.40444e-07
-2.69873e-06 -5.40444e-07 0.0023264
0.00147253 -3.48097e-06 4.13452e-05
-3.48097e-06 0.000415883 -9.05258e-07
4.13452e-05 -9.05258e-07 0.000392288
0.0011592 6.85776e-06 -2.69305e-05
6.85776e-06 0.000136658 3.02213e-07
-2.69305e-05 3.02213e-07 8.39506e-05
0.00151124 -2.93844e-05 -1.4909e-05
-2.93844e-05 0.000339969 2.95658e-07
-1.4909e-05 2.95658e-07 0.000292397
0.00204524 6.89353e-05 3.69165e-05
6.89353e-05 0.000718958 -1.31275e-06
3.69165e-05 -1.31275e-06 0.00071447
0.00129593 2.83559e-05 -7.65705e-06
2.83559e-05 0.00032197 2.01646e-07
-7.65705e-06 2.01646e-07 0.000282351
0.0014374 -3.67283e-05 -1.45709e-05
-3.67283e-05 0.000328386 3.90005e-07
-1.45709e-05 3.90005e-07 0.000279742
0.00176645 -7.56033e-05 -4.80562e-06
-7.56033e-05 0.000334983 7.01294e-07
-4.80562e-06 7.01294e-07 0.000248778
0.00152076 -9.34241e-05 -1.89134e-06
-9.34241e-05 0.000369429 7.94016e-07
-1.89134e-06 7.94016e-07 0.000290366
0.00154851 -9.45749e-05 -1.16246e-06
-9.45749e-05 0.000298259 1.20335e-07
-1.16246e-06 1.20335e-07 0.00021384
0.0011415 -0.000102733 -5.2185e-08
-0.000102733 7.03276e-05 7.59104e-08
-5.2185e-08 7.59104e-08 -3.38647e-05
0.000750308 2.72796e-06 1.34793e-05
2.72796e-06 -9.27442e-05 -1.44031e-06
1.34793e-05 -1.44031e-06 -0.000150898
0.00145268 -2.25456e-05 2.00328e-05
-2.25456e-05 0.000309724 -2.13437e-06
2.00328e-05 -2.13437e-06 0.000260104
0.00162154 -8.185e-06 8.09384e-06
-8.185e-06 0.00022601 -1.68403e-06
8.09384e-06 -1.68403e-06 0.000136945
0.00157337 -5.57392e-05 8.11549e-06
-5.57392e-05 0.000221535 -1.33983e-06
8.11549e-06 -1.33983e-06 0.000136352
0.00148564 -8.49613e-05 7.85592e-06
-8.49613e-05 0.000216799 -3.0612e-06
7.85592e-06 -3.0612e-06 0.000129461
0.00183114 -9.00176e-05 2.53077e-06
-9.00176e-05 0.000284964 -6.3089e-07
2.53077e-06 -6.3089e-07 0.000180867
0.00285651 8.55257e-05 4.61169e-05
8.55257e-05 0.00114569 -2.95138e-06
4.61169e-05 -2.95138e-06 0.00114961
0.00118457 -9.92747e-05 3.13603e-06
-9.92747e-05 4.10134e-05 -1.57834e-06
3.13603e-06 -1.57834e-06 -6.42407e-05
0.000667937 6.11578e-05 2.50444e-06
6.11578e-05 -2.14163e-05 -4.79595e-06
2.50444e-06 -4.79595e-06 -6.03869e-05
0.000686864 -5.57802e-05 2.70889e-06
-5.57802e-05 -3.8563e-05 -1.17328e-06
2.70889e-06 -1.17328e-06 -0.000113255
0.0012378 -0.000111846 2.67383e-06
-0.000111846 0.000171576 -1.18459e-06
2.67383e-06 -1.18459e-06 6.74787e-05
0.0012727 -0.000115569 1.35166e-06
-0.000115569 9.86882e-05 -5.546e-07
1.35166e-06 -5.546e-07 -1.56852e-05
0.000611799 5.79831e-05 1.90581e-06
5.79831e-05 -6.41671e-05 -4.78847e-06
1.90581e-06 -4.78847e-06 -9.13472e-05
0.000795684 3.81807e-05 6.27347e-07
3.81807e-05 1.31529e-05 -2.53801e-06
6.27347e-07 -2.53801e-06 -4.2235e-05
0.00441127 -1.54356e-05 -9.21486e-05
-1.54356e-05 0.00200136 -4.33339e-06
-9.21486e-05 -4.33339e-06 0.00199488
0.00364905 -0.000109297 -6.50563e-05
-0.000109297 0.00162389 -4.06412e-06
-6.50563e-05 -4.06412e-06 0.00161024
0.000575163 6.54399e-05 -1.09914e-05
6.54399e-05 -0.000110322 -6.55798e-06
-1.09914e-05 -6.55798e-06 -0.000163493
0.00280368 -8.561e-05 -4.51985e-05
-8.561e-05 0.00112336 -2.94188e-06
-4.51985e-05 -2.94188e-06 0.00112671
0.000608865 -3.48358e-05 -2.26241e-06
-3.48358e-05 -5.47978e-05 -5.65166e-06
-2.26241e-06 -5.65166e-06 -9.37409e-05
0.000585962 4.14816e-05 -8.1301e-06
4.14816e-05 -7.12781e-05 -5.74891e-06
-8.1301e-06 -5.74891e-06 -0.00011993
0.000833258 6.40639e-05 -3.67136e-06
6.40639e-05 1.58407e-05 -1.40369e-06
-3.67136e-06 -1.40369e-06 -6.23594e-05
0.00264144 -7.58537e-05 9.1002e-07
-7.58537e-05 0.00103203 -1.37043e-07
9.1002e-07 -1.37043e-07 0.00103825
0.000679101 -5.13823e-05 1.03232e-07
-5.13823e-05 -3.10571e-05 9.96443e-08
1.03232e-07 9.96443e-08 -5.13455e-05
0.00145181 6.617e-05 2.04212e-05
6.617e-05 0.000329941 3.21327e-07
2.04212e-05 3.21327e-07 0.000281522
0.00128076 6.1491e-05 1.70521e-05
6.1491e-05 0.000283791 3.15421e-07
1.70521e-05 3.15421e-07 0.000237155
0.00104278 8.42144e-05 4.10041e-07
8.42144e-05 1.61605e-05 -1.74538e-07
4.10041e-07 -1.74538e-07 -7.29981e-05
0.000679835 -5.41659e-05 -2.82629e-08
-5.41659e-05 -2.03056e-05 1.04007e-07
-2.82629e-08 1.04007e-07 -5.22933e-05
0.000910885 7.80074e-05 1.48711e-07
7.80074e-05 3.30645e-05 3.31676e-07
1.48711e-07 3.31676e-07 -4.70859e-05
0.000837701 4.22453e-05 3.20277e-07
4.22453e-05 4.02392e-05 -2.88101e-07
3.20277e-07 -2.88101e-07 -3.70446e-05
0.000830694 9.1833e-05 -9.38239e-08
9.1833e-05 -1.54001e-05 -1.29279e-07
-9.38239e-08 -1.29279e-07 -0.000112389
0.000676132 -5.61553e-05 1.75815e-06
-5.61553e-05 -2.48946e-05 4.58245e-06
1.75815e-06 4.58245e-06 -5.16226e-05
0.000739851 -4.5494e-05 2.11343e-06
-4.5494e-05 -8.29011e-06 3.81334e-06
2.11343e-06 3.81334e-06 -2.32382e-05
0.000738665 -7.24545e-06 2.3214e-06
-7.24545e-06 -1.08227e-05 2.25546e-06
2.3214e-06 2.25546e-06 -6.46198e-05
0.00110023 7.39604e-05 7.66089e-06
7.39604e-05 2.70271e-06 2.73665e-06
7.66089e-06 2.73665e-06 -8.76874e-05
0.00101767 8.6779e-05 5.41254e-06
8.6779e-05 5.22247e-05 2.9238e-06
5.41254e-06 2.9238e-06 -3.29048e-05
0.0012556 0.000105643 3.70584e-06
0.000105643 6.29409e-05 1.78739e-06
3.70584e-06 1.78739e-06 -4.6264e-05
0.000855022 2.94653e-05 2.82162e-06
2.94653e-05 5.15914e-05 2.13713e-06
2.82162e-06 2.13713e-06 -1.99858e-05
0.000923908 9.74994e-05 1.39097e-06
9.74994e-05 -1.18273e-06 1.85932e-07
1.39097e-06 1.85932e-07 -9.87098e-05
0.00106177 9.90264e-05 2.037e-06
9.90264e-05 0.000137465 9.24352e-08
2.037e-06 9.24352e-08 3.92077e-05
0.00108068 0.000112268 -1.16056e-06
0.000112268 0.000107119 -1.66447e-06
-1.16056e-06 -1.66447e-06 1.18034e-06
0.00220175 -5.40894e-05 2.98353e-05
-5.40894e-05 0.000778145 3.329e-06
2.98353e-05 3.329e-06 0.000792027
0.00228301 -6.09407e-05 7.08116e-07
-6.09407e-05 0.000828995 -8.53392e-08
7.08116e-07 -8.53392e-08 0.000840577
0.0023886 -6.82268e-05 -3.44048e-05
-6.82268e-05 0.000892377 -3.04535e-06
-3.44048e-05 -3.04535e-06 0.000901498
0.000660225 4.69008e-05 2.61366e-06
4.69008e-05 -4.68792e-05 -4.12929e-06
2.61366e-06 -4.12929e-06 -6.75557e-05
0.00269397 7.70272e-05 4.1389e-05
7.70272e-05 0.00105471 -3.0551e-06
4.1389e-05 -3.0551e-06 0.00106132
0.00461332 1.68977e-05 -0.000101798
1.68977e-05 0.00209861 -4.14039e-06
-0.000101798 -4.14039e-06 0.00209347
0.00478458 2.44318e-06 -0.000104631
2.44318e-06 0.00218111 -2.3369e-06
-0.000104631 -2.3369e-06 0.00217667
0.000718352 3.4713e-05 -1.28748e-05
3.4713e-05 -8.52259e-05 -3.35908e-06
-1.28748e-05 -3.35908e-06 -0.000137829
0.000730679 1.82548e-05 -1.33509e-05
1.82548e-05 -9.75042e-05 -2.11115e-06
-1.33509e-05 -2.11115e-06 -0.000154973
0.00511736 -4.07371e-05 -0.00011018
-4.07371e-05 0.00234855 -2.577e-07
-0.00011018 -2.577e-07 0.00234318
0.00518225 7.53506e-06 -1.16163e-06
7.53506e-06 0.00238071 4.89641e-07
-1.16163e-06 4.89641e-07 0.00237555
0.000748543 -3.95575e-07 -1.23197e-07
-3.95575e-07 -0.000100818 -3.52806e-07
-1.23197e-07 -3.52806e-07 -0.000159965
0.00160297 1.00029e-05 2.39051e-05
1.00029e-05 0.000378277 4.20206e-07
2.39051e-05 4.20206e-07 0.000329831
0.00124141 2.12935e-05 1.77452e-07
2.12935e-05 9.67461e-06 -5.51784e-08
1.77452e-07 -5.51784e-08 -8.48586e-05
0.000671713 4.44036e-05 1.08238e-07
4.44036e-05 -0.000100593 -6.30223e-08
1.08238e-07 -6.30223e-08 -0.000152726
0.00119365 5.01901e-05 -1.72846e-08
5.01901e-05 1.52807e-05 -1.5451e-07
-1.72846e-08 -1.5451e-07 -7.52129e-05
0.00073156 -8.58686e-06 1.37959e-05
-8.58686e-06 -0.00011134 -4.46131e-07
1.37959e-05 -4.46131e-07 -0.000170784
0.00127006 7.57241e-06 8.90778e-06
7.57241e-06 8.03772e-06 3.47406e-07
8.90778e-06 3.47406e-07 -8.95248e-05
0.00122153 3.28031e-05 8.40148e-06
3.28031e-05 1.65698e-05 1.93658e-06
8.40148e-06 1.93658e-06 -7.46629e-05
0.00150659 2.13169e-05 3.91534e-06
2.13169e-05 6.5501e-05 1.28421e-06
3.91534e-06 1.28421e-06 -4.41903e-05
0.00115593 6.13628e-05 8.10133e-06
6.13628e-05 8.21578e-06 2.45957e-06
8.10133e-06 2.45957e-06 -8.20883e-05
0.00144999 5.614e-05 3.69772e-06
5.614e-05 6.82478e-05 8.03144e-07
3.69772e-06 8.03144e-07 -3.66006e-05
0.00512921 -1.26168e-06 -0.000119148
-1.26168e-06 0.0023538 -8.07696e-07
-0.000119148 -8.07696e-07 0.00234887
0.0012843 -1.97223e-05 -1.51455e-05
-1.97223e-05 0.000321524 1.08501e-06
-1.51455e-05 1.08501e-06 0.000295411
-2.48733e-05 -3.65221e-07 -1.3095e-05
-3.65221e-07 -0.000497957 2.4955e-06
-1.3095e-05 2.4955e-06 -0.000559778
0.00157299 -1.98106e-05 -5.17148e-05
-1.98106e-05 0.000370284 2.82871e-06
-5.17148e-05 2.82871e-06 0.000324265
0.00279655 0.000107158 -1.5787e-05
0.000107158 0.00113048 1.25914e-06
-1.5787e-05 1.25914e-06 0.00112708
0.00167154 5.53492e-06 -2.81916e-05
5.53492e-06 0.000512204 4.07061e-06
-2.81916e-05 4.07061e-06 0.000477566
0.00150328 -4.0143e-05 -4.79184e-05
-4.0143e-05 0.000360013 5.23133e-06
-4.79184e-05 5.23133e-06 0.000313343
0.00156708 -6.9606e-05 -1.52086e-05
-6.9606e-05 0.000228858 3.17823e-06
-1.52086e-05 3.17823e-06 0.000141663
0.00184813 -0.000103792 -1.0299e-05
-0.000103792 0.000456383 3.73265e-06
-1.0299e-05 3.73265e-06 0.000372276
0.00172319 -0.000103334 -7.98734e-06
-0.000103334 0.000472648 3.21525e-06
-7.98734e-06 3.21525e-06 0.00039179
0.00115069 -0.000102459 -2.44024e-06
-0.000102459 7.48066e-05 1.14919e-06
-2.44024e-06 1.14919e-06 -2.9223e-05
0.000743073 4.75714e-06 -1.0533e-08
4.75714e-06 -9.7555e-05 -3.16596e-07
-1.0533e-08 -3.16596e-07 -0.000155676
0.00150833 -1.64416e-05 -1.64393e-05
-1.64416e-05 0.000336568 1.00877e-07
-1.64393e-05 1.00877e-07 0.000288598
0.00122225 -7.71066e-06 -3.09252e-06
-7.71066e-06 1.4116e-05 4.57125e-08
-3.09252e-06 4.57125e-08 -7.74061e-05
0.00179534 -5.76912e-05 -2.36412e-06
-5.76912e-05 0.00033974 3.31506e-07
-2.36412e-06 3.31506e-07 0.000255809
0.00282916 8.43388e-05 -7.29339e-07
8.43388e-05 0.00113251 -1.58839e-07
-7.29339e-07 -1.58839e-07 0.00113615
0.00112084 3.6735e-05 1.95235e-06
3.6735e-05 0.000216345 2.42925e-07
1.95235e-06 2.42925e-07 0.000182466
0.00110041 -6.09834e-05 1.97322e-07
-6.09834e-05 0.000177541 -9.99346e-08
1.97322e-07 -9.99346e-08 0.0001028
0.0014902 -8.41705e-05 -2.2283e-06
-8.41705e-05 0.000220661 3.25537e-07
-2.2283e-06 3.25537e-07 0.000133272
0.0015124 -8.23077e-05 -1.89995e-06
-8.23077e-05 0.000114423 4.08926e-07
-1.89995e-06 4.08926e-07 9.02243e-06
0.00100279 -0.000100906 -3.86903e-07
-0.000100906 4.98932e-05 -1.43052e-07
-3.86903e-07 -1.43052e-07 -5.36463e-05
0.00144098 -0.000106158 3.42324e-09
-0.000106158 0.000174885 -1.44963e-07
3.42324e-09 -1.44963e-07 7.02622e-05
0.00125449 -0.000114222 1.05434e-07
-0.000114222 8.9261e-05 1.53352e-07
1.05434e-07 1.53352e-07 -2.48638e-05
0.000636613 6.05731e-05 -2.46564e-07
6.05731e-05 -4.8848e-05 5.1441e-08
-2.46564e-07 5.1441e-08 -7.69426e-05
0.000764744 3.08736e-05 -2.40822e-07
3.08736e-05 -4.44079e-06 1.60712e-07
-2.40822e-07 1.60712e-07 -5.94184e-05
0.00125187 -4.37283e-06 8.61468e-06
-4.37283e-06 5.2337e-06 -1.69432e-06
8.61468e-06 -1.69432e-06 -9.1195e-05
0.00154692 -2.59892e-05 7.66442e-06
-2.59892e-05 0.000205083 -1.39944e-06
7.66442e-06 -1.39944e-06 0.000120485
0.00187012 -1.29982e-05 2.67631e-06
-1.29982e-05 0.000276874 -9.60631e-07
2.67631e-06 -9.60631e-07 0.000172848
0.00125813 -5.54548e-05 4.48076e-06
-5.54548e-05 -3.63069e-05 -5.23313e-07
4.48076e-06 -5.23313e-07 -0.000139936
0.00151944 -0.000101972 3.21852e-06
-0.000101972 0.000163441 -1.18525e-06
3.21852e-06 -1.18525e-06 5.78234e-05
0.00177449 -8.79234e-05 4.04953e-07
-8.79234e-05 0.000202053 1.82361e-07
4.04953e-07 1.82361e-07 9.4371e-05
0.000568562 6.57309e-05 8.91901e-07
6.57309e-05 -7.90462e-05 -5.15287e-06
8.91901e-07 -5.15287e-06 -0.000113146
0.00136389 -0.000111042 1.10022e-06
-0.000111042 8.34168e-05 -1.15175e-06
1.10022e-06 -1.15175e-06 -3.04209e-05
0.000694241 -2.35927e-05 1.94836e-06
-2.35927e-05 -3.02713e-05 -1.1764e-06
1.94836e-06 -1.1764e-06 -0.000102734
0.000607077 -8.01805e-05 1.95637e-06
-8.01805e-05 -0.000110844 -1.56785e-06
1.95637e-06 -1.56785e-06 -0.000208281
0.00172557 -0.000142776 7.12548e-07
-0.000142776 0.000394912 -1.93926e-07
7.12548e-07 -1.93926e-07 0.000278565
0.0015253 -0.00012876 -7.98012e-07
-0.00012876 0.000195838 5.75219e-07
-7.98012e-07 5.75219e-07 7.8288e-05
0.000844976 4.10733e-06 1.44768e-06
4.10733e-06 4.30143e-05 -2.54291e-06
1.44768e-06 -2.54291e-06 -2.20189e-05
0.000781916 4.04682e-05 8.07988e-07
4.04682e-05 1.63889e-06 -1.95007e-06
8.07988e-07 -1.95007e-06 -4.55344e-05
0.000857452 -2.94554e-05 4.70515e-07
-2.94554e-05 4.49604e-05 -7.70371e-07
4.70515e-07 -7.70371e-07 -3.58447e-05
0.000629382 6.0372e-05 -1.18827e-05
6.0372e-05 -0.000106224 -5.65578e-06
-1.18827e-05 -5.65578e-06 -0.000159708
0.00259943 -7.64724e-05 -4.00173e-05
-7.64724e-05 0.00101006 -2.96116e-06
-4.00173e-05 -2.96116e-06 0.00101639
0.000654769 -4.73776e-05 -2.65019e-06
-4.73776e-05 -4.52697e-05 -3.91283e-06
-2.65019e-06 -3.91283e-06 -6.46204e-05
0.000554615 5.65888e-05 -9.31549e-06
5.65888e-05 -9.83375e-05 -6.35019e-06
-9.31549e-06 -6.35019e-06 -0.000149304
0.00102346 8.44626e-05 -6.57237e-06
8.44626e-05 7.00084e-06 -3.5396e-06
-6.57237e-06 -3.5396e-06 -8.21005e-05
0.000566445 -6.50753e-05 -7.55619e-07
-6.50753e-05 -7.68098e-05 -5.19882e-06
-7.55619e-07 -5.19882e-06 -0.000110956
0.000748131 3.73754e-05 -2.28904e-06
3.73754e-05 -7.38136e-06 -1.98254e-06
-2.28904e-06 -1.98254e-06 -8.37414e-05
0.000865488 7.46691e-05 -3.86406e-06
7.46691e-05 9.62335e-06 -1.20507e-06
-3.86406e-06 -1.20507e-06 -7.00895e-05
0.000776917 8.92751e-05 -2.3766e-06
8.92751e-05 -4.48558e-05 1.80115e-07
-2.3766e-06 1.80115e-07 -0.000142158
0.000641334 -6.01972e-05 2.34744e-07
-6.01972e-05 -4.31859e-05 8.53959e-08
2.34744e-07 8.53959e-08 -7.01906e-05
0.000712719 -4.28425e-05 -4.69354e-08
-4.28425e-05 -2.29478e-05 9.44418e-08
-4.69354e-08 9.44418e-08 -3.73862e-05
0.000765284 -3.26239e-05 1.42009e-07
-3.26239e-05 1.05441e-06 1.83261e-07
1.42009e-07 1.83261e-07 -5.09352e-05
0.00111343 7.55514e-05 3.22134e-07
7.55514e-05 1.04664e-05 -2.09577e-07
3.22134e-07 -2.09577e-07 -8.01344e-05
0.000966618 8.4577e-05 3.17683e-07
8.4577e-05 2.6793e-05 1.94422e-07
3.17683e-07 1.94422e-07 -5.79791e-05
0.00125383 0.000106326 2.40338e-07
0.000106326 6.2527e-05 7.90474e-08
2.40338e-07 7.90474e-08 -4.68336e-05
0.000816982 2.62019e-05 -2.44889e-07
2.62019e-05 3.37269e-05 -4.88836e-09
-2.44889e-07 -4.88836e-09 -3.7822e-05
0.00106089 0.000103909 -9.7748e-08
0.000103909 7.14761e-05 -9.32855e-08
-9.7748e-08 -9.32855e-08 -2.61372e-05
0.00101901 9.67411e-05 2.54851e-07
9.67411e-05 0.000115143 -3.6709e-07
2.54851e-07 -3.6709e-07 1.70243e-05
0.000945928 0.000106819 -7.51291e-07
0.000106819 3.63343e-05 5.53868e-07
-7.51291e-07 5.53868e-07 -6.97635e-05
0.000753089 -3.83612e-05 2.56488e-06
-3.83612e-05 -1.07679e-05 3.42902e-06
2.56488e-06 3.42902e-06 -2.12787e-05
0.000769767 4.02702e-06 2.64099e-06
4.02702e-06 2.51329e-06 1.85717e-06
2.64099e-06 1.85717e-06 -5.92522e-05
0.000751545 -3.72578e-05 8.09424e-07
-3.72578e-05 -9.50163e-06 2.20362e-06
8.09424e-07 2.20362e-06 -5.27859e-05
0.000871069 2.16236e-05 7.90801e-07
2.16236e-05 5.71775e-05 6.99784e-07
7.90801e-07 6.99784e-07 -1.89087e-05
0.00132814 9.08152e-05 4.5948e-06
9.08152e-05 4.8567e-05 1.13797e-06
4.5948e-06 1.13797e-06 -5.97175e-05
0.00118495 0.000110282 2.61156e-06
0.000110282 9.0297e-05 1.80258e-06
2.61156e-06 1.80258e-06 -1.39449e-05
0.00136613 0.000115907 1.55185e-06
0.000115907 7.66776e-05 1.8234e-06
1.55185e-06 1.8234e-06 -4.14901e-05
0.00106844 6.79903e-05 1.95578e-06
6.79903e-05 0.000152956 1.04319e-06
1.95578e-06 1.04319e-06 6.14094e-05
0.00115767 0.000115815 -3.40321e-07
0.000115815 9.73352e-05 6.04745e-08
-3.40321e-07 6.04745e-08 -7.6479e-06
0.00104904 0.000110816 4.94613e-07
0.000110816 0.000131843 -1.52217e-06
4.94613e-07 -1.52217e-06 1.77732e-05
0.000721419 9.8481e-05 -2.2145e-08
9.8481e-05 -0.000101676 -1.42696e-06
-2.2145e-08 -1.42696e-06 -0.000210817
0.00081651 -1.94357e-05 1.07245e-06
-1.94357e-05 4.80679e-06 1.6555e-06
1.07245e-06 1.6555e-06 -2.36421e-05
0.000759487 -2.93532e-05 1.78079e-06
-2.93532e-05 -2.15948e-05 3.34436e-06
1.78079e-06 3.34436e-06 -2.67381e-05
0.00213453 -4.78354e-05 2.6075e-05
-4.78354e-05 0.000733709 3.47991e-06
2.6075e-05 3.47991e-06 0.000749831
0.00218084 -5.41404e-05 9.01241e-07
-5.41404e-05 0.000765798 -8.55774e-08
9.01241e-07 -8.55774e-08 0.000779941
0.00224051 -6.05985e-05 -3.05904e-05
-6.05985e-05 0.000805415 -3.17797e-06
-3.05904e-05 -3.17797e-06 0.000817365
0.000691296 3.98726e-05 2.81525e-06
3.98726e-05 -3.91014e-05 -3.69702e-06
2.81525e-06 -3.69702e-06 -5.50213e-05
0.0025102 6.93997e-05 3.59743e-05
6.93997e-05 0.000951981 -3.17734e-06
3.59743e-05 -3.17734e-06 0.000961058
0.00067977 5.15047e-05 -1.66992e-07
5.15047e-05 -3.50051e-05 6.54831e-08
-1.66992e-07 6.54831e-08 -5.66791e-05
0.00271307 7.62033e-05 -7.21052e-07
7.62033e-05 0.00106475 -1.30907e-07
-7.21052e-07 -1.30907e-07 0.00107128
0.000672624 4.84684e-05 -1.24345e-05
4.84684e-05 -0.000100231 -4.40538e-06
-1.24345e-05 -4.40538e-06 -0.000152735
0.000742562 2.89449e-05 -1.30807e-05
2.89449e-05 -7.96126e-05 -2.60309e-06
-1.30807e-05 -2.60309e-06 -0.000134465
0.00117758 5.08987e-05 -8.19254e-06
5.08987e-05 7.45766e-06 -2.16949e-06
-8.19254e-06 -2.16949e-06 -8.32119e-05
0.00123907 2.29999e-05 -8.43413e-06
2.29999e-05 9.0295e-06 -1.80822e-06
-8.43413e-06 -1.80822e-06 -8.55076e-05
0.000755556 3.71784e-06 -1.38813e-05
3.71784e-06 -9.67503e-05 -1.18284e-06
-1.38813e-05 -1.18284e-06 -0.000155757
0.00520164 -3.57441e-05 -0.000116958
-3.57441e-05 0.00239017 8.28341e-07
-0.000116958 8.28341e-07 0.00238544
0.000754556 -1.29276e-06 1.01863e-07
-1.29276e-06 -9.99256e-05 -2.52249e-07
1.01863e-07 -2.52249e-07 -0.000159261
0.00127695 1.15202e-05 4.05738e-08
1.15202e-05 1.16665e-05 -4.47301e-07
4.05738e-08 -4.47301e-07 -8.58655e-05
0.00120698 3.30961e-05 -3.85294e-08
3.30961e-05 9.85822e-06 7.95512e-08
-3.85294e-08 7.95512e-08 -8.15145e-05
0.00152193 2.09999e-05 1.12045e-07
2.09999e-05 7.34471e-05 -6.15679e-08
1.12045e-07 -6.15679e-08 -3.62454e-05
0.00116027 6.34949e-05 1.15304e-07
6.34949e-05 1.13903e-05 -1.10263e-07
1.15304e-07 -1.10263e-07 -7.92283e-05
0.00145685 5.85479e-05 1.56719e-08
5.85479e-05 7.17701e-05 -6.11209e-08
1.56719e-08 -6.11209e-08 -3.32141e-05
0.00127952 -5.34641e-07 8.87859e-06
-5.34641e-07 1.09564e-05 -5.11266e-07
8.87859e-06 -5.11266e-07 -8.68117e-05
0.00153834 1.46367e-05 4.12313e-06
1.46367e-05 6.40054e-05 1.64753e-07
4.12313e-06 1.64753e-07 -4.88466e-05
0.00148683 3.82743e-05 3.77596e-06
3.82743e-05 7.30594e-05 1.29492e-06
3.77596e-06 1.29492e-06 -3.29096e-05
0.00165729 1.80952e-05 1.38613e-06
1.80952e-05 0.000101191 8.59225e-07
1.38613e-06 8.59225e-07 -1.03866e-05
0.00139818 7.49688e-05 3.56673e-06
7.49688e-05 5.81837e-05 8.44443e-07
3.56673e-06 8.44443e-07 -4.79176e-05
0.00158709 6.11382e-05 1.1192e-06
6.11382e-05 9.10749e-05 3.54849e-07
1.1192e-06 3.54849e-07 -1.61068e-05
0.000757699 8.45738e-06 -1.3244e-05
8.45738e-06 -9.09792e-05 7.29381e-07
-1.3244e-05 7.29381e-07 -0.000149234
0.00158268 -3.34466e-06 -5.27718e-05
-3.34466e-06 0.000373523 1.89587e-06
-5.27718e-05 1.89587e-06 0.000327168
0.000826115 -5.64289e-06 -8.94367e-06
-5.64289e-06 -0.000196269 2.01653e-06
-8.94367e-06 2.01653e-06 -0.000290289
0.00199694 -5.84778e-05 -1.36325e-05
-5.84778e-05 0.000446952 2.02892e-06
-1.36325e-05 2.02892e-06 0.000364426
0.00282564 8.34692e-05 -4.84583e-05
8.34692e-05 0.00113194 3.12766e-06
-4.84583e-05 3.12766e-06 0.00113523
0.00163461 3.68087e-05 -2.44894e-05
3.68087e-05 0.000491342 3.28357e-06
-2.44894e-05 3.28357e-06 0.00046006
0.00151988 -7.40074e-05 -5.51981e-06
-7.40074e-05 0.000396586 1.98246e-06
-5.51981e-06 1.98246e-06 0.000321511
0.00149428 -8.35567e-05 -1.20337e-05
-8.35567e-05 0.00022432 3.66831e-06
-1.20337e-05 3.66831e-06 0.00013689
0.00118772 -7.4403e-05 -5.29145e-06
-7.4403e-05 -5.92381e-05 1.06811e-06
-5.29145e-06 1.06811e-06 -0.000165925
0.00169715 -0.000113084 -4.02348e-06
-0.000113084 0.000308658 1.52967e-06
-4.02348e-06 1.52967e-06 0.000204653
0.000762718 -8.95924e-05 -2.17418e-06
-8.95924e-05 -7.42711e-05 8.39381e-07
-2.17418e-06 8.39381e-07 -0.000177229
0.00123539 -0.000112844 -6.91171e-07
-0.000112844 7.93802e-05 7.84786e-07
-6.91171e-07 7.84786e-07 -3.44961e-05
0.000663247 5.44206e-05 -2.00934e-06
5.44206e-05 -3.4981e-05 4.74658e-06
-2.00934e-06 4.74658e-06 -6.25096e-05
0.000735158 1.98929e-05 -1.81093e-06
1.98929e-05 -2.03151e-05 2.22436e-06
-1.81093e-06 2.22436e-06 -7.5646e-05
0.00106739 -6.82205e-07 -4.18847e-07
-6.82205e-07 -9.12153e-05 -3.27314e-07
-4.18847e-07 -3.27314e-07 -0.000188626
0.00158398 -2.81122e-05 -2.58326e-06
-2.81122e-05 0.000223491 2.63178e-07
-2.58326e-06 2.63178e-07 0.000138895
0.00177696 -1.02103e-05 -1.8721e-06
-1.02103e-05 0.000225286 4.13576e-07
-1.8721e-06 4.13576e-07 0.000120369
0.00156152 -5.97125e-05 9.5491e-07
-5.97125e-05 0.000125948 -1.64389e-07
9.5491e-07 -1.64389e-07 2.38444e-05
0.000624797 5.37486e-05 -1.49199e-07
5.37486e-05 -5.18889e-05 7.26789e-08
-1.49199e-07 7.26789e-08 -8.42455e-05
0.00082266 -3.44813e-05 -1.34328e-07
-3.44813e-05 3.69725e-05 -8.23658e-08
-1.34328e-07 -8.23658e-08 -3.60816e-05
0.000737728 -8.63854e-05 7.93259e-07
-8.63854e-05 -4.12208e-05 -6.50964e-07
7.93259e-07 -6.50964e-07 -0.000137695
0.00167341 -0.00010511 -8.21215e-07
-0.00010511 0.000243316 1.61412e-07
-8.21215e-07 1.61412e-07 0.000137634
0.00159087 -8.25317e-05 -5.73426e-07
-8.25317e-05 0.000103131 4.48158e-07
-5.73426e-07 4.48158e-07 -4.4421e-06
0.00139782 -0.000127893 -1.08156e-06
-0.000127893 0.00022301 5.27294e-07
-1.08156e-06 5.27294e-07 0.000106172
0.00135649 -0.00011028 -7.15696e-08
-0.00011028 7.97903e-05 -9.71172e-08
-7.15696e-08 -9.71172e-08 -3.40055e-05
0.00133588 -0.000120755 3.89363e-07
-0.000120755 9.86298e-05 7.48219e-07
3.89363e-07 7.48219e-07 -1.80855e-05
0.000790917 -1.83936e-06 -2.70459e-07
-1.83936e-06 1.30251e-05 -8.65033e-08
-2.70459e-07 -8.65033e-08 -5.16846e-05
0.000818964 -6.70275e-06 -4.78795e-07
-6.70275e-06 2.00467e-05 -2.59371e-07
-4.78795e-07 -2.59371e-07 -5.77134e-05
0.000769336 3.7128e-05 2.01465e-07
3.7128e-05 -5.4347e-06 2.38575e-07
2.01465e-07 2.38575e-07 -5.24854e-05
0.001921 2.072e-06 2.89783e-06
2.072e-06 0.000280688 -8.73297e-07
2.89783e-06 -8.73297e-07 0.000172586
0.0016317 -3.08315e-05 3.23701e-06
-3.08315e-05 0.000163859 -8.35441e-07
3.23701e-06 -8.35441e-07 6.27724e-05
0.00182725 -9.45008e-06 6.84071e-07
-9.45008e-06 0.000208861 -4.64384e-07
6.84071e-07 -4.64384e-07 9.78061e-05
0.00161431 -5.36654e-05 1.40277e-06
-5.36654e-05 0.000100598 -8.31135e-08
1.40277e-06 -8.31135e-08 -4.33277e-06
0.00125838 -9.88787e-05 2.0485e-06
-9.88787e-05 -3.10093e-05 -6.87577e-07
2.0485e-06 -6.87577e-07 -0.000143393
0.00169547 -7.84606e-05 -8.26828e-07
-7.84606e-05 0.000123587 6.62266e-07
-8.26828e-07 6.62266e-07 1.96807e-05
0.000800283 -1.76593e-05 2.38447e-06
-1.76593e-05 2.4739e-05 -1.82141e-06
2.38447e-06 -1.82141e-06 -4.65286e-05
0.00142258 -0.000115151 -1.25405e-06
-0.000115151 7.9981e-05 -9.17636e-07
-1.25405e-06 -9.17636e-07 -3.51589e-05
0.000913244 -8.89622e-05 1.12272e-06
-8.89622e-05 6.6192e-05 1.07454e-07
1.12272e-06 1.07454e-07 -2.31028e-05
0.000724172 -9.74934e-05 1.60409e-06
-9.74934e-05 -6.50183e-05 -2.10624e-06
1.60409e-06 -2.10624e-06 -0.000177386
0.0015214 -0.000140167 1.24854e-06
-0.000140167 0.000258815 5.77211e-07
1.24854e-06 5.77211e-07 0.000134291
0.00187657 -0.000144439 -2.5777e-06
-0.000144439 0.000357499 2.22274e-06
-2.5777e-06 2.22274e-06 0.000245651
0.000790226 3.23495e-05 1.42625e-06
3.23495e-05 2.42317e-07 -1.69483e-06
1.42625e-06 -1.69483e-06 -4.09291e-05
0.000894859 -4.24522e-05 1.16569e-06
-4.24522e-05 5.77494e-05 3.39382e-08
1.16569e-06 3.39382e-08 -2.37801e-05
0.000770542 -1.70616e-06 6.4415e-07
-1.70616e-06 -6.39295e-06 -1.39002e-06
6.4415e-07 -1.39002e-06 -7.89442e-05
0.000974616 -7.97335e-05 -1.78613e-07
-7.97335e-05 0.000111535 9.95117e-07
-1.78613e-07 9.95117e-07 2.11666e-05
0.00112069 7.72842e-05 -7.95031e-06
7.72842e-05 1.51626e-05 -3.20656e-06
-7.95031e-06 -3.20656e-06 -7.56716e-05
0.000683807 -4.07412e-05 -2.8181e-06
-4.07412e-05 -3.83912e-05 -3.50144e-06
-2.8181e-06 -3.50144e-06 -5.24017e-05
0.000607202 -5.72653e-05 -2.00682e-06
-5.72653e-05 -6.30688e-05 -4.52429e-06
-2.00682e-06 -4.52429e-06 -8.91505e-05
0.00078117 -4.26135e-05 -5.89555e-07
-4.26135e-05 1.04133e-05 -2.43429e-06
-5.89555e-07 -2.43429e-06 -4.2037e-05
0.000915794 8.23833e-05 -4.6756e-06
8.23833e-05 1.80976e-06 -2.61546e-06
-4.6756e-06 -2.61546e-06 -8.26554e-05
0.0012516 0.000106889 -3.5917e-06
0.000106889 6.18743e-05 -1.72059e-06
-3.5917e-06 -1.72059e-06 -4.7632e-05
0.000779759 2.01318e-05 -2.2847e-06
2.01318e-05 1.65983e-05 -1.91191e-06
-2.2847e-06 -1.91191e-06 -5.51787e-05
0.000984266 9.47532e-05 -2.14231e-06
9.47532e-05 9.70677e-05 -1.1295e-06
-2.14231e-06 -1.1295e-06 -9.54164e-07
0.00118993 0.000109992 -1.68246e-06
0.000109992 0.000140044 -3.54554e-07
-1.68246e-06 -3.54554e-07 4.23652e-05
0.00080655 0.000101108 -1.79324e-06
0.000101108 -3.68004e-05 1.06641e-06
-1.79324e-06 1.06641e-06 -0.00014304
0.000727674 -3.71936e-05 9.4595e-08
-3.71936e-05 -2.39977e-05 3.08517e-08
9.4595e-08 3.08517e-08 -3.43405e-05
0.00079082 7.14531e-06 5.90573e-08
7.14531e-06 1.69868e-05 -4.31676e-08
5.90573e-08 -4.31676e-08 -4.63015e-05
0.000767089 -4.06432e-05 -1.2778e-07
-4.06432e-05 -1.23962e-06 2.46417e-07
-1.2778e-07 2.46417e-07 -4.455e-05
0.000883543 1.06382e-05 2.55989e-07
1.06382e-05 6.28806e-05 -2.17304e-07
2.55989e-07 -2.17304e-07 -1.23965e-05
0.00135013 9.21865e-05 9.08536e-07
9.21865e-05 6.00116e-05 1.83529e-07
9.08536e-07 1.83529e-07 -4.8558e-05
0.00113966 0.000109102 8.63291e-08
0.000109102 6.8375e-05 4.81564e-08
8.63291e-08 4.81564e-08 -3.58295e-05
0.00137075 0.000116186 -1.98567e-08
0.000116186 7.94188e-05 6.43591e-07
-1.98567e-08 6.43591e-07 -3.87998e-05
0.00099117 7.0108e-05 3.36391e-07
7.0108e-05 0.000112693 2.64887e-07
3.36391e-07 2.64887e-07 2.21826e-05
0.00134104 0.000124001 -5.85997e-07
0.000124001 0.000194411 -1.01678e-06
-5.85997e-07 -1.01678e-06 8.9314e-05
0.00107205 0.000112439 2.35344e-07
0.000112439 0.000143317 -7.59462e-07
2.35344e-07 -7.59462e-07 2.85071e-05
0.000880968 0.000106169 -1.70962e-06
0.000106169 -1.41245e-05 -4.1656e-08
-1.70962e-06 -4.1656e-08 -0.000120877
0.000760192 -3.36945e-05 2.20287e-06
-3.36945e-05 -1.46203e-05 3.35679e-06
2.20287e-06 3.35679e-06 -2.2106e-05
0.000777224 -3.65455e-05 9.21845e-07
-3.65455e-05 -1.99814e-06 1.90122e-06
9.21845e-07 1.90122e-06 -3.89753e-05
0.000985787 3.46721e-05 1.36704e-06
3.46721e-05 0.000111889 4.96206e-07
1.36704e-06 4.96206e-07 2.90945e-05
0.000844841 5.48991e-06 6.04059e-07
5.48991e-06 3.82101e-05 1.2263e-06
6.04059e-07 1.2263e-06 -2.74451e-05
0.000937576 6.66533e-05 9.3512e-07
6.66533e-05 0.000101362 -2.02924e-07
9.3512e-07 -2.02924e-07 1.12926e-05
0.00145912 9.60533e-05 2.61702e-06
9.60533e-05 6.82645e-05 3.05383e-07
2.61702e-06 3.05383e-07 -4.60212e-05
0.00123511 0.000120122 6.56586e-07
0.000120122 8.32683e-05 1.85907e-06
6.56586e-07 1.85907e-06 -2.97697e-05
0.00149172 0.000124122 -6.62421e-07
0.000124122 0.00011445 1.57155e-06
-6.62421e-07 1.57155e-06 -6.71996e-06
0.00111961 0.00010983 2.73707e-06
0.00010983 0.000190035 2.48467e-06
2.73707e-06 2.48467e-06 7.90496e-05
0.00118878 0.000123029 1.15535e-06
0.000123029 9.3938e-05 2.84518e-07
1.15535e-06 2.84518e-07 -1.43848e-05
0.000386109 8.34005e-05 1.59855e-06
8.34005e-05 -0.000239089 -2.20855e-06
1.59855e-06 -2.20855e-06 -0.000362405
0.000809874 -2.35814e-05 1.24623e-06
-2.35814e-05 5.19382e-06 1.69122e-06
1.24623e-06 1.69122e-06 -2.51718e-05
0.000832351 3.91831e-06 4.26179e-07
3.91831e-06 2.31455e-05 6.73639e-07
4.26179e-07 6.73639e-07 -2.40866e-05
0.000828932 -1.40966e-05 7.98125e-07
-1.40966e-05 8.1334e-06 1.70142e-06
7.98125e-07 1.70142e-06 -1.89304e-05
0.000817472 -1.81135e-05 1.35566e-07
-1.81135e-05 5.95799e-06 -7.28392e-11
1.35566e-07 -7.28392e-11 -2.26128e-05
0.00129576 -3.13667e-05 1.90624e-06
-3.13667e-05 0.000262061 2.01835e-06
1.90624e-06 2.01835e-06 0.000261914
0.00102484 -3.20839e-05 7.91842e-07
-3.20839e-05 0.000121834 -2.4066e-08
7.91842e-07 -2.4066e-08 0.00011827
0.00100112 -2.84426e-05 2.1405e-05
-2.84426e-05 0.000112819 6.20165e-06
2.1405e-05 6.20165e-06 0.000125256
0.00212301 -4.78358e-05 1.04836e-06
-4.78358e-05 0.000726354 -7.85707e-08
1.04836e-06 -7.85707e-08 0.000742718
0.00216074 -5.40173e-05 -2.72464e-05
-5.40173e-05 0.00075386 -3.32894e-06
-2.72464e-05 -3.32894e-06 0.000768296
0.000706298 3.53435e-05 2.51644e-06
3.53435e-05 -3.88556e-05 -3.57355e-06
2.51644e-06 -3.57355e-06 -5.15515e-05
0.00238887 6.23648e-05 3.2139e-05
6.23648e-05 0.000880205 -3.34436e-06
3.2139e-05 -3.34436e-06 0.00089169
0.000711436 4.18163e-05 1.50513e-08
4.18163e-05 -2.81306e-05 5.65346e-08
1.50513e-08 5.65346e-08 -4.44477e-05
0.00255673 6.90394e-05 -9.11693e-07
6.90394e-05 0.000976771 -1.10514e-07
-9.11693e-07 -1.10514e-07 0.000985699
0.000700637 5.4653e-05 -8.85568e-07
5.4653e-05 -2.266e-05 4.59006e-06
-8.85568e-07 4.59006e-06 -4.51853e-05
0.00273766 7.57113e-05 -4.5557e-05
7.57113e-05 0.00107784 3.22992e-06
-4.5557e-05 3.22992e-06 0.00108419
0.00116977 6.57582e-05 -8.31715e-06
6.57582e-05 1.7064e-05 -2.62353e-06
-8.31715e-06 -2.62353e-06 -7.38424e-05
0.00120609 3.64052e-05 -8.15833e-06
3.64052e-05 1.00748e-05 -1.70411e-06
-8.15833e-06 -1.70411e-06 -8.14886e-05
0.00145717 5.69897e-05 -3.67955e-06
5.69897e-05 7.19539e-05 -9.21785e-07
-3.67955e-06 -9.21785e-07 -3.2991e-05
0.001538 2.09487e-05 -3.92724e-06
2.09487e-05 8.17475e-05 -1.38821e-06
-3.92724e-06 -1.38821e-06 -2.7946e-05
0.00127844 1.41112e-05 -8.94661e-06
1.41112e-05 1.25802e-05 -1.27658e-06
-8.94661e-06 -1.27658e-06 -8.49583e-05
0.000760967 5.68703e-06 -1.37979e-05
5.68703e-06 -9.65365e-05 -6.35547e-08
-1.37979e-05 -6.35547e-08 -0.000155986
0.00127767 1.33191e-06 -1.51212e-08
1.33191e-06 9.75808e-06 -1.33678e-07
-1.51212e-08 -1.33678e-07 -8.80589e-05
0.00155394 1.63897e-05 -3.8156e-08
1.63897e-05 7.19836e-05 -4.11469e-07
-3.8156e-08 -4.11469e-07 -4.08566e-05
0.00148412 3.53858e-05 7.47315e-08
3.53858e-05 7.22027e-05 1.96755e-07
7.47315e-08 1.96755e-07 -3.37008e-05
0.00162024 1.72924e-05 -1.53074e-08
1.72924e-05 7.9842e-05 -8.37971e-08
-1.53074e-08 -8.37971e-08 -3.2008e-05
0.0014113 7.56537e-05 -1.17002e-07
7.56537e-05 6.43633e-05 1.49764e-08
-1.17002e-07 1.49764e-08 -4.17951e-05
0.00158671 6.06801e-05 -2.46209e-08
6.06801e-05 9.09181e-05 5.81833e-08
-2.46209e-08 5.81833e-08 -1.62319e-05
0.00155182 5.97544e-06 4.45418e-06
5.97544e-06 6.90136e-05 -4.39034e-07
4.45418e-06 -4.39034e-07 -4.39701e-05
0.0016138 1.31895e-05 1.27291e-06
1.31895e-05 5.95145e-05 4.69485e-07
1.27291e-06 4.69485e-07 -5.57905e-05
0.00159983 3.89709e-05 1.29996e-06
3.89709e-05 8.41134e-05 9.04469e-07
1.29996e-06 9.04469e-07 -2.44048e-05
0.00185372 1.34497e-05 4.1164e-07
1.34497e-05 0.000176948 4.26377e-07
4.1164e-07 4.26377e-07 6.75419e-05
0.0015363 7.60925e-05 8.05331e-07
7.60925e-05 8.25201e-05 7.38694e-09
8.05331e-07 7.38694e-09 -2.67111e-05
0.00166942 5.14998e-05 -1.6757e-06
5.14998e-05 0.000102237 4.99086e-07
-1.6757e-06 4.99086e-07 1.17241e-06
0.000874347 9.47023e-07 -8.57366e-06
9.47023e-07 -0.000191913 9.17921e-07
-8.57366e-06 9.17921e-07 -0.000290354
0.001616 -3.20495e-05 -1.29787e-05
-3.20495e-05 0.000238955 1.75846e-06
-1.29787e-05 1.75846e-06 0.000154424
0.00167285 -3.83297e-06 -6.15395e-06
-3.83297e-06 0.000168353 1.86766e-06
-6.15395e-06 1.86766e-06 6.25664e-05
0.00186912 -6.41735e-05 -3.89902e-06
-6.41735e-05 0.000290422 3.74324e-07
-3.89902e-06 3.74324e-07 0.00018983
0.000668533 4.28821e-05 -3.96232e-06
4.28821e-05 -2.93123e-05 4.56247e-06
-3.96232e-06 4.56247e-06 -6.12807e-05
0.000887981 -3.97514e-05 -3.11656e-06
-3.97514e-05 7.12126e-05 1.56557e-06
-3.11656e-06 1.56557e-06 -2.16651e-06
0.000876486 -9.32117e-05 -6.49464e-07
-9.32117e-05 3.22718e-05 1.70701e-07
-6.49464e-07 1.70701e-07 -6.32641e-05
0.00183374 -0.000108468 -5.09683e-06
-0.000108468 0.000326536 1.76407e-06
-5.09683e-06 1.76407e-06 0.000220774
0.00140929 -7.71384e-05 -1.94745e-06
-7.71384e-05 5.22825e-06 2.03625e-07
-1.94745e-06 2.03625e-07 -0.00010223
0.00135095 -0.000109596 -1.3493e-06
-0.000109596 7.71166e-05 9.9145e-07
-1.3493e-06 9.9145e-07 -3.66409e-05
0.00106578 -0.00011285 -1.58663e-06
-0.00011285 4.88699e-05 1.19206e-06
-1.58663e-06 1.19206e-06 -6.84466e-05
0.00113771 -0.000112317 2.06637e-06
-0.000112317 -3.02767e-06 3.41115e-08
2.06637e-06 3.41115e-08 -0.000118882
0.000753314 -1.63512e-06 -2.48962e-06
-1.63512e-06 -8.88373e-06 1.93563e-06
-2.48962e-06 1.93563e-06 -7.27935e-05
0.000797889 -2.42369e-06 -1.11116e-06
-2.42369e-06 8.25483e-06 2.83002e-07
-1.11116e-06 2.83002e-07 -6.91312e-05
0.000754873 3.3791e-05 -7.71368e-07
3.3791e-05 -1.33804e-05 2.145e-06
-7.71368e-07 2.145e-06 -6.03278e-05
0.00173639 2.72133e-06 -1.89181e-06
2.72133e-06 0.000180716 1.71581e-07
-1.89181e-06 1.71581e-07 7.07844e-05
0.00163221 -3.56076e-05 -9.50004e-07
-3.56076e-05 0.000162673 8.57549e-08
-9.50004e-07 8.57549e-08 6.17296e-05
0.00167306 -6.69733e-06 -6.6955e-07
-6.69733e-06 0.000127167 6.98776e-07
-6.6955e-07 6.98776e-07 1.58381e-05
0.00170678 -5.26179e-05 2.97549e-07
-5.26179e-05 0.000150026 -1.07743e-07
2.97549e-07 -1.07743e-07 4.52852e-05
0.000808487 -2.13721e-05 1.84257e-07
-2.13721e-05 2.71885e-05 -2.23763e-07
1.84257e-07 -2.23763e-07 -4.36715e-05
0.00100494 -9.40271e-05 -1.67373e-07
-9.40271e-05 0.000112598 3.17911e-07
-1.67373e-07 3.17911e-07 2.27419e-05
0.00081975 -0.000100866 6.03651e-07
-0.000100866 -1.14824e-05 -9.51147e-07
6.03651e-07 -9.51147e-07 -0.000122457
0.00149943 -0.000105051 3.51181e-07
-0.000105051 9.85366e-05 -4.71059e-07
3.51181e-07 -4.71059e-07 -1.36503e-05
0.00162159 -7.64492e-05 1.87501e-07
-7.64492e-05 8.11632e-05 7.80113e-07
1.87501e-07 7.80113e-07 -2.21296e-05
0.00125779 -0.000128485 -6.98287e-08
-0.000128485 0.000124557 2.52057e-07
-6.98287e-08 2.52057e-07 -6.4208e-07
0.00142637 -0.000113904 -2.24911e-07
-0.000113904 8.07085e-05 4.85194e-08
-2.24911e-07 4.85194e-08 -3.42451e-05
0.00164156 -0.000135334 1.0506e-06
-0.000135334 0.000235285 6.83404e-07
1.0506e-06 6.83404e-07 0.000124806
0.000936829 -4.73471e-05 -1.99707e-07
-4.73471e-05 8.17017e-05 -2.08555e-07
-1.99707e-07 -2.08555e-07 -7.60669e-07
0.000946686 -8.27271e-05 -2.7897e-07
-8.27271e-05 9.68344e-05 3.60624e-07
-2.7897e-07 3.60624e-07 5.22997e-06
0.000786168 3.17785e-05 1.71327e-07
3.17785e-05 -1.62835e-06 8.32874e-08
1.71327e-07 8.32874e-08 -4.29113e-05
0.000771881 1.66503e-05 -1.14274e-07
1.66503e-05 -8.87962e-06 -5.0023e-07
-1.14274e-07 -5.0023e-07 -7.83153e-05
0.00168636 7.96381e-07 1.53922e-06
7.96381e-07 0.000113552 -1.08607e-06
1.53922e-06 -1.08607e-06 -1.50035e-06
0.00171142 -2.96505e-05 1.09378e-06
-2.96505e-05 0.000158978 2.17514e-08
1.09378e-06 2.17514e-08 5.3004e-05
0.00175906 -5.57739e-06 4.5112e-07
-5.57739e-06 0.000144765 -3.57975e-07
4.5112e-07 -3.57975e-07 3.53502e-05
0.00158267 -4.38356e-05 -1.32125e-07
-4.38356e-05 5.21469e-05 -8.777e-07
-1.32125e-07 -8.777e-07 -5.1638e-05
0.00150687 -0.000102554 -9.26473e-07
-0.000102554 5.20835e-05 -1.09318e-08
-9.26473e-07 -1.09318e-08 -5.90975e-05
0.00176508 -7.41939e-05 8.03771e-07
-7.41939e-05 0.000130052 1.61553e-07
8.03771e-07 1.61553e-07 2.70029e-05
0.000914279 -8.54858e-05 1.24945e-06
-8.54858e-05 6.87279e-05 4.66109e-07
1.24945e-06 4.66109e-07 -1.63263e-05
0.00125222 -0.000110574 -3.60669e-06
-0.000110574 -3.26992e-05 -7.3451e-08
-3.60669e-06 -7.3451e-08 -0.00013718
0.000655666 -8.8066e-05 -1.21727e-07
-8.8066e-05 -6.79566e-05 -8.93433e-07
-1.21727e-07 -8.93433e-07 -0.000169469
0.00110871 -0.000122131 1.8356e-06
-0.000122131 0.000118316 -1.4935e-06
1.8356e-06 -1.4935e-06 -7.30664e-06
0.00134621 -0.000139292 1.14498e-06
-0.000139292 0.00014683 2.30956e-06
1.14498e-06 2.30956e-06 1.65452e-05
0.00213627 -0.000155209 -1.09764e-06
-0.000155209 0.000477382 1.73777e-06
-1.09764e-06 1.73777e-06 0.000366546
0.000800888 2.22231e-05 1.6572e-06
2.22231e-05 2.07117e-06 -1.713e-06
1.6572e-06 -1.713e-06 -3.58617e-05
0.000736796 5.31929e-06 5.37331e-07
5.31929e-06 -2.58505e-05 -1.27222e-06
5.37331e-07 -1.27222e-06 -9.15039e-05
0.000958536 -9.79837e-05 2.19033e-07
-9.79837e-05 9.88607e-05 1.28498e-06
2.19033e-07 1.28498e-06 5.70241e-06
0.000968256 -6.14642e-05 8.58046e-07
-6.14642e-05 0.000105606 2.23835e-08
8.58046e-07 2.23835e-08 2.19385e-05
0.00094733 -9.75389e-05 -5.70776e-07
-9.75389e-05 0.00010023 1.89951e-06
-5.70776e-07 1.89951e-06 4.02914e-06
0.000703172 -3.61693e-05 -2.49411e-06
-3.61693e-05 -3.67339e-05 -3.40035e-06
-2.49411e-06 -3.40035e-06 -4.69235e-05
0.00137182 9.35769e-05 -2.98287e-06
9.35769e-05 7.13568e-05 -8.01173e-07
-2.98287e-06 -8.01173e-07 -3.75125e-05
0.000778179 -4.35114e-05 -8.69076e-07
-4.35114e-05 4.72338e-06 -1.93719e-06
-8.69076e-07 -1.93719e-06 -3.86594e-05
0.000835637 -6.45862e-06 -1.15025e-06
-6.45862e-06 4.11965e-05 -2.26453e-06
-1.15025e-06 -2.26453e-06 -2.15214e-05
0.000894355 5.09273e-07 -1.00778e-08
5.09273e-07 6.75902e-05 -9.61926e-07
-1.00778e-08 -9.61926e-07 -6.80883e-06
0.00110598 0.000108481 -2.6739e-06
0.000108481 5.2452e-05 -1.80333e-06
-2.6739e-06 -1.80333e-06 -5.17521e-05
0.00137128 0.000116323 -1.50289e-06
0.000116323 8.01219e-05 -5.44048e-07
-1.50289e-06 -5.44048e-07 -3.81531e-05
0.000926734 8.53561e-05 -1.47346e-06
8.53561e-05 8.13871e-05 -4.78399e-07
-1.47346e-06 -4.78399e-07 -9.65611e-06
0.00111025 0.0001149 -2.092e-06
0.0001149 0.000162738 -1.02058e-06
-2.092e-06 -1.02058e-06 4.71023e-05
0.00152632 0.00013228 -1.42351e-06
0.00013228 0.000292412 -1.3831e-06
-1.42351e-06 -1.3831e-06 0.000187203
0.00103513 0.000113586 -3.12994e-06
0.000113586 7.05313e-05 2.13271e-06
-3.12994e-06 2.13271e-06 -3.37989e-05
0.000737124 -3.28876e-05 9.54011e-08
-3.28876e-05 -2.6687e-05 2.83186e-08
9.54011e-08 2.83186e-08 -3.40613e-05
0.00078448 -3.67229e-05 -1.1301e-07
-3.67229e-05 1.79169e-06 8.07822e-08
-1.1301e-07 8.07822e-08 -3.51031e-05
0.000941587 4.24292e-05 3.71918e-07
4.24292e-05 8.94295e-05 -7.97949e-08
3.71918e-07 -7.97949e-08 6.48701e-06
0.000853994 -1.08012e-05 -4.90929e-08
-1.08012e-05 4.19383e-05 8.3667e-08
-4.90929e-08 8.3667e-08 -2.26593e-05
0.000894369 5.38111e-05 4.38628e-07
5.38111e-05 7.64894e-05 -2.80694e-07
4.38628e-07 -2.80694e-07 -1.29694e-05
0.00147179 9.68706e-05 1.16959e-06
9.68706e-05 7.4948e-05 3.56389e-07
1.16959e-06 3.56389e-07 -3.96406e-05
0.00123769 0.000120959 1.28668e-07
0.000120959 8.51222e-05 5.08435e-08
1.28668e-07 5.08435e-08 -2.79698e-05
0.00144745 0.000123908 8.58941e-07
0.000123908 9.23233e-05 9.33593e-07
8.58941e-07 9.33593e-07 -2.93185e-05
0.00102766 0.000105217 9.55064e-07
0.000105217 0.000143668 1.02941e-06
9.55064e-07 1.02941e-06 3.30618e-05
0.00133275 0.000128784 7.45756e-07
0.000128784 0.00017088 -9.99613e-07
7.45756e-07 -9.99613e-07 6.26194e-05
0.0008469 0.000106861 -1.60113e-06
0.000106861 -8.13659e-07 -8.88725e-07
-1.60113e-06 -8.88725e-07 -0.000124524
0.000797695 -2.92874e-05 1.20757e-06
-2.92874e-05 3.48979e-06 1.75105e-06
1.20757e-06 1.75105e-06 -2.95064e-05
0.000842739 -6.12596e-06 5.06643e-07
-6.12596e-06 3.00728e-05 1.09091e-06
5.06643e-07 1.09091e-06 -2.52962e-05
0.00106169 0.000100907 3.44829e-07
0.000100907 0.000162967 -1.88776e-07
3.44829e-07 -1.88776e-07 6.18996e-05
0.00090579 1.43753e-05 5.25513e-07
1.43753e-05 7.77933e-05 4.66402e-07
5.25513e-07 4.66402e-07 -9.02313e-07
0.00102868 5.33519e-05 3.06754e-07
5.33519e-05 0.000151534 -1.23655e-06
3.06754e-07 -1.23655e-06 5.35171e-05
0.00153632 9.57844e-05 -1.41854e-06
9.57844e-05 7.65815e-05 -1.087e-06
-1.41854e-06 -1.087e-06 -3.76493e-05
0.00130638 0.000131268 5.93506e-07
0.000131268 9.23576e-05 1.70297e-06
5.93506e-07 1.70297e-06 -2.41309e-05
0.00126541 0.000129664 -4.6428e-06
0.000129664 -7.53567e-06 3.092e-07
-4.6428e-06 3.092e-07 -0.000120804
0.000946498 0.000106111 2.96507e-07
0.000106111 0.000107933 2.22449e-06
2.96507e-07 2.22449e-06 -2.04168e-05
0.00122479 0.000135483 3.55813e-06
0.000135483 0.000137099 -8.013e-07
3.55813e-06 -8.013e-07 1.07532e-05
0.000807787 -2.23949e-05 5.15436e-08
-2.23949e-05 4.42333e-06 1.82098e-09
5.15436e-08 1.82098e-09 -2.59556e-05
0.000689796 -1.86369e-05 6.48124e-07
-1.86369e-05 -5.4539e-05 1.38189e-06
6.48124e-07 1.38189e-06 -0.00010251
0.00077575 -1.486e-05 -6.76654e-07
-1.486e-05 -8.47581e-06 -1.46017e-08
-6.76654e-07 -1.46017e-08 -5.53513e-05
0.00103969 1.34869e-05 1.04177e-06
1.34869e-05 0.000141433 -1.03954e-07
1.04177e-06 -1.03954e-07 8.29956e-05
0.000848141 1.1553e-05 1.6459e-06
1.1553e-05 2.88383e-05 7.96971e-07
1.6459e-06 7.96971e-07 -1.74368e-05
0.000834032 -6.29468e-06 7.98479e-07
-6.29468e-06 7.68971e-06 1.7015e-06
7.98479e-07 1.7015e-06 -1.86418e-05
0.000825615 -1.45801e-05 1.4067e-08
-1.45801e-05 6.55578e-06 2.09476e-08
1.4067e-08 2.09476e-08 -2.05598e-05
0.00129016 -2.55342e-05 1.35317e-06
-2.55342e-05 0.000253188 1.98701e-06
1.35317e-06 1.98701e-06 0.000254907
0.000815898 -1.72337e-05 -1.06321e-06
-1.72337e-05 5.70163e-06 -1.76063e-06
-1.06321e-06 -1.76063e-06 -2.29902e-05
0.00131189 -2.95879e-05 -3.84759e-06
-2.95879e-05 0.000270267 -1.16482e-06
-3.84759e-06 -1.16482e-06 0.000270419
0.000998786 -2.42688e-05 1.82463e-05
-2.42688e-05 0.0001036 6.16812e-06
1.82463e-05 6.16812e-06 0.000118055
0.00129939 -3.28502e-05 -9.15687e-06
-3.28502e-05 0.000270268 -3.11852e-06
-9.15687e-06 -3.11852e-06 0.000268515
0.00152099 -3.51678e-05 1.65389e-05
-3.51678e-05 0.000393833 2.0254e-06
1.65389e-05 2.0254e-06 0.000409205
0.00211213 -4.77196e-05 -2.39932e-05
-4.77196e-05 0.000719335 -3.47175e-06
-2.39932e-05 -3.47175e-06 0.000735958
0.000713694 3.19324e-05 2.09213e-06
3.19324e-05 -4.13034e-05 -3.54817e-06
2.09213e-06 -3.54817e-06 -5.15379e-05
0.000723611 3.61134e-05 -1.31984e-07
3.61134e-05 -2.9684e-05 1.98552e-08
-1.31984e-07 1.98552e-08 -4.25297e-05
0.00232661 5.60343e-05 2.86079e-05
5.60343e-05 0.000839269 -3.52134e-06
2.86079e-05 -3.52134e-06 0.000852842
0.00242127 6.23752e-05 -8.34765e-07
6.23752e-05 0.000898138 -9.76125e-08
-8.34765e-07 -9.76125e-08 0.000909394
0.000729139 4.45388e-05 -1.99976e-06
4.45388e-05 -1.8278e-05 3.98566e-06
-1.99976e-06 3.98566e-06 -3.51061e-05
0.00259133 6.82975e-05 -4.11588e-05
6.82975e-05 0.000995167 3.28124e-06
-4.11588e-05 3.28124e-06 0.00100402
0.00142639 7.65146e-05 -3.83183e-06
7.65146e-05 7.15346e-05 -8.18714e-07
-3.83183e-06 -8.18714e-07 -3.4691e-05
0.00148438 3.61005e-05 -3.74625e-06
3.61005e-05 7.28795e-05 -8.77898e-07
-3.74625e-06 -8.77898e-07 -3.31246e-05
0.00158674 6.13095e-05 -9.28277e-07
6.13095e-05 9.09427e-05 -2.2102e-07
-9.28277e-07 -2.2102e-07 -1.62172e-05
0.00158313 1.64214e-05 -1.3045e-06
1.64214e-05 5.84771e-05 -1.02458e-06
-1.3045e-06 -1.02458e-06 -5.3644e-05
0.00157366 1.9801e-05 -4.05851e-06
1.9801e-05 8.21002e-05 -9.66759e-07
-4.05851e-06 -9.66759e-07 -3.0762e-05
0.0012874 6.18116e-06 -8.86098e-06
6.18116e-06 1.43729e-05 1.72441e-07
-8.86098e-06 1.72441e-07 -8.34218e-05
0.00156259 1.01791e-05 5.63327e-08
1.01791e-05 7.45846e-05 -1.29165e-07
5.63327e-08 -1.29165e-07 -3.84418e-05
0.00160617 5.09887e-06 1.39551e-07
5.09887e-06 5.47432e-05 3.41096e-08
1.39551e-07 3.41096e-08 -6.09061e-05
0.00161812 3.82256e-05 1.28165e-08
3.82256e-05 9.39152e-05 1.87647e-07
1.28165e-08 1.87647e-07 -1.45329e-05
0.00177536 1.30209e-05 -1.48582e-08
1.30209e-05 0.000135375 -3.63427e-07
-1.48582e-08 -3.63427e-07 2.62803e-05
0.00153992 7.72665e-05 -1.72408e-07
7.72665e-05 8.36877e-05 1.12008e-07
-1.72408e-07 1.12008e-07 -2.57223e-05
0.00163415 5.09152e-05 -2.83701e-08
5.09152e-05 8.13117e-05 5.49034e-07
-2.83701e-08 5.49034e-07 -1.94627e-05
0.00165331 -2.02875e-08 2.15149e-06
-2.02875e-08 7.98006e-05 -3.25471e-07
2.15149e-06 -3.25471e-07 -3.66666e-05
0.0017804 1.47835e-05 1.46538e-07
1.47835e-05 0.000121942 3.61896e-07
1.46538e-07 3.61896e-07 8.16377e-06
0.00162826 3.00907e-05 -4.14343e-07
3.00907e-05 6.53804e-05 1.49344e-06
-4.14343e-07 1.49344e-06 -3.87186e-05
0.0017615 9.73056e-06 9.18346e-08
9.73056e-06 0.000115855 2.19984e-07
9.18346e-08 2.19984e-07 9.26423e-06
0.0015641 7.03042e-05 -1.396e-06
7.03042e-05 6.17988e-05 -7.07663e-07
-1.396e-06 -7.07663e-07 -4.34166e-05
0.00186652 4.3622e-05 -2.42693e-07
4.3622e-05 0.000178116 1.3047e-07
-2.42693e-07 1.3047e-07 8.15711e-05
0.00155408 2.80507e-06 -5.88827e-06
2.80507e-06 8.18077e-05 1.18792e-06
-5.88827e-06 1.18792e-06 -2.99357e-05
0.00162203 -3.71789e-05 -5.15967e-06
-3.71789e-05 0.000156123 9.2454e-07
-5.15967e-06 9.2454e-07 5.53607e-05
0.00152309 -6.06743e-06 -2.23165e-06
-6.06743e-06 4.75756e-05 1.41065e-06
-2.23165e-06 1.41065e-06 -6.40514e-05
0.00180002 -5.21432e-05 -1.59807e-06
-5.21432e-05 0.000199795 -6.36527e-08
-1.59807e-06 -6.36527e-08 9.52409e-05
0.000825569 -2.5203e-05 -2.68503e-06
-2.5203e-05 3.41428e-05 1.6056e-06
-2.68503e-06 1.6056e-06 -3.6327e-05
0.00109204 -9.88017e-05 -1.56477e-06
-9.88017e-05 0.000156806 5.67077e-07
-1.56477e-06 5.67077e-07 6.63838e-05
0.000910037 -0.000103775 -3.35361e-07
-0.000103775 3.94132e-05 2.27626e-07
-3.35361e-07 2.27626e-07 -7.01291e-05
0.00174023 -0.000111146 -1.53893e-06
-0.000111146 0.000227946 3.14505e-07
-1.53893e-06 3.14505e-07 0.000115962
0.00154884 -7.44573e-05 2.59303e-07
-7.44573e-05 3.9309e-05 1.59358e-07
2.59303e-07 1.59358e-07 -6.33668e-05
0.00143347 -0.000112858 9.52227e-07
-0.000112858 8.3194e-05 1.01813e-06
9.52227e-07 1.01813e-06 -3.15941e-05
0.000997757 -0.00011703 -8.24779e-07
-0.00011703 -7.95711e-06 2.23689e-07
-8.24779e-07 2.23689e-07 -0.00013384
0.00139892 -0.000125955 4.12533e-06
-0.000125955 0.000108803 -2.33075e-06
4.12533e-06 -2.33075e-06 -2.47984e-07
0.000953868 -3.76904e-05 -1.28329e-06
-3.76904e-05 9.0144e-05 -3.61826e-07
-1.28329e-06 -3.61826e-07 8.3901e-06
0.000923892 -6.42882e-05 -7.31028e-07
-6.42882e-05 8.00107e-05 -5.35266e-07
-7.31028e-07 -5.35266e-07 -9.71641e-06
0.000776833 2.9999e-05 -1.08238e-06
2.9999e-05 -6.44161e-06 1.87207e-06
-1.08238e-06 1.87207e-06 -4.77267e-05
0.000783108 2.91259e-05 -1.71301e-07
2.91259e-05 -4.50776e-06 3.49097e-07
-1.71301e-07 3.49097e-07 -7.21229e-05
0.00166837 1.44777e-06 -9.30948e-08
1.44777e-06 0.000104196 -2.644e-07
-9.30948e-08 -2.644e-07 -1.09588e-05
0.0017347 -2.70648e-05 -7.08397e-07
-2.70648e-05 0.000170801 1.66536e-07
-7.08397e-07 1.66536e-07 6.50206e-05
0.00166784 -6.21105e-06 -6.27924e-07
-6.21105e-06 0.00010168 7.45255e-07
-6.27924e-07 7.45255e-07 -6.59862e-06
0.00166112 -4.55047e-05 1.66691e-08
-4.55047e-05 9.30268e-05 -4.88363e-07
1.66691e-08 -4.88363e-07 -1.08495e-05
0.000977203 -7.04452e-05 -2.47716e-07
-7.04452e-05 9.92369e-05 1.11164e-07
-2.47716e-07 1.11164e-07 1.51553e-05
0.000750381 -9.17886e-05 5.26128e-07
-9.17886e-05 -1.77099e-05 -4.8868e-07
5.26128e-07 -4.8868e-07 -0.000117876
0.00111118 -0.000121506 1.06977e-07
-0.000121506 0.000121312 -1.78814e-07
1.06977e-07 -1.78814e-07 -4.63363e-06
0.00164944 -0.000105939 -3.70568e-07
-0.000105939 0.000128835 -4.68113e-07
-3.70568e-07 -4.68113e-07 1.7312e-05
0.00166114 -7.26733e-05 -4.34718e-07
-7.26733e-05 7.88088e-05 8.19176e-08
-4.34718e-07 8.19176e-08 -2.22402e-05
0.00133591 -0.000137378 -2.75732e-07
-0.000137378 0.000142621 6.14631e-07
-2.75732e-07 6.14631e-07 1.15753e-05
0.00144001 -0.00011497 -4.54182e-07
-0.00011497 6.24215e-05 1.19509e-06
-4.54182e-07 1.19509e-06 -4.22671e-05
0.0016841 -0.000138503 1.39752e-06
-0.000138503 0.000241103 -1.62995e-06
1.39752e-06 -1.62995e-06 0.000133603
0.00101033 -0.000100671 4.84038e-08
-0.000100671 0.000125204 -3.90967e-08
4.84038e-08 -3.90967e-08 3.19703e-05
0.000974283 -9.32958e-05 9.59903e-08
-9.32958e-05 0.000112404 1.81893e-07
9.59903e-08 1.81893e-07 1.69099e-05
0.00094585 -4.06723e-05 -3.24486e-07
-4.06723e-05 9.21224e-05 -2.04932e-08
-3.24486e-07 -2.04932e-08 9.82962e-06
0.00068197 2.6874e-05 -2.3913e-07
2.6874e-05 -6.10861e-05 5.15037e-09
-2.3913e-07 5.15037e-09 -0.000100115
0.000753936 2.2797e-05 7.22209e-08
2.2797e-05 -2.01358e-05 -3.39584e-07
7.22209e-08 -3.39584e-07 -8.31455e-05
0.00171336 2.18466e-06 7.36966e-07
2.18466e-06 9.71957e-05 -1.11305e-06
7.36966e-07 -1.11305e-06 -1.54437e-05
0.00165787 -1.28295e-05 9.97843e-07
-1.28295e-05 8.8883e-05 -4.35465e-07
9.97843e-07 -4.35465e-07 -1.68568e-05
0.00162869 -4.85511e-05 1.01044e-06
-4.85511e-05 4.86537e-05 -7.80113e-07
1.01044e-06 -7.80113e-07 -5.41948e-05
0.00140581 -8.79518e-05 1.81754e-07
-8.79518e-05 -3.39423e-05 -1.88522e-06
1.81754e-07 -1.88522e-06 -0.000139223
0.000927077 -9.80803e-05 -1.35035e-07
-9.80803e-05 7.92674e-05 1.22613e-06
-1.35035e-07 1.22613e-06 -1.47114e-05
0.00209205 -0.000142805 -1.49129e-06
-0.000142805 0.000357874 9.21038e-07
-1.49129e-06 9.21038e-07 0.000259258
0.000317268 -7.36295e-05 -1.7163e-07
-7.36295e-05 -0.000241065 -2.37343e-06
-1.7163e-07 -2.37343e-06 -0.000350298
0.00121218 -0.00013492 2.93063e-06
-0.00013492 0.000150564 -1.17994e-06
2.93063e-06 -1.17994e-06 8.87323e-06
0.00168698 -0.000156355 1.60823e-06
-0.000156355 0.000289417 2.47767e-06
1.60823e-06 2.47767e-06 0.000153859
0.000584101 2.04388e-05 1.29411e-06
2.04388e-05 -0.000116416 -2.4224e-06
1.29411e-06 -2.4224e-06 -0.000153934
0.000950786 7.70634e-07 1.40691e-06
7.70634e-07 8.72334e-05 -7.39359e-07
1.40691e-06 -7.39359e-07 2.81488e-05
0.00096757 -2.89888e-05 9.33136e-08
-2.89888e-05 0.000101177 -1.3987e-07
9.33136e-08 -1.3987e-07 2.73454e-05
0.000963958 -9.87699e-05 -5.69194e-07
-9.87699e-05 0.000101834 2.10439e-06
-5.69194e-07 2.10439e-06 7.36625e-06
0.00106454 -6.31097e-05 3.9294e-07
-6.31097e-05 0.000157745 1.25322e-06
3.9294e-07 1.25322e-06 6.69642e-05
0.00090026 -9.52441e-05 -2.73995e-07
-9.52441e-05 6.78715e-05 1.85163e-06
-2.73995e-07 1.85163e-06 -2.91001e-05
0.000715346 -3.2163e-05 -2.06252e-06
-3.2163e-05 -3.80562e-05 -3.38569e-06
-2.06252e-06 -3.38569e-06 -4.53282e-05
0.000791425 -3.58294e-05 -1.44124e-06
-3.58294e-05 5.27993e-06 -1.63705e-06
-1.44124e-06 -1.63705e-06 -3.14417e-05
0.00148823 9.7879e-05 -5.87499e-07
9.7879e-05 8.3522e-05 3.5191e-07
-5.87499e-07 3.5191e-07 -3.1373e-05
0.000872907 -2.90604e-05 3.53122e-08
-2.90604e-05 5.07327e-05 -1.13559e-06
3.53122e-08 -1.13559e-06 -1.28065e-05
0.000870754 3.72617e-05 -8.0812e-07
3.72617e-05 5.07322e-05 -3.29641e-07
-8.0812e-07 -3.29641e-07 -3.07129e-05
0.000853569 4.28645e-05 1.95542e-07
4.28645e-05 5.27863e-05 7.01446e-09
1.95542e-07 7.01446e-09 -3.60308e-05
0.00123802 0.000121637 -1.0293e-06
0.000121637 8.58094e-05 -1.92913e-06
-1.0293e-06 -1.92913e-06 -2.73186e-05
0.00139697 0.000123347 7.70703e-07
0.000123347 6.70214e-05 2.7629e-08
7.70703e-07 2.7629e-08 -5.50592e-05
0.000930186 0.000100232 -3.496e-07
0.000100232 9.39397e-05 -2.78284e-07
-3.496e-07 -2.78284e-07 -1.61782e-05
0.00129668 0.000129476 -1.57337e-06
0.000129476 0.000231661 1.24653e-06
-1.57337e-06 1.24653e-06 0.000107657
0.00147985 0.000134728 -2.25303e-06
0.000134728 0.000249607 -1.3483e-06
-2.25303e-06 -1.3483e-06 0.000141375
0.000799374 -2.83934e-05 5.41019e-09
-2.83934e-05 4.60816e-06 2.47e-08
5.41019e-09 2.47e-08 -2.83546e-05
0.00084455 -2.05878e-05 -2.44786e-07
-2.05878e-05 3.07726e-05 1.83587e-07
-2.44786e-07 1.83587e-07 -2.43771e-05
0.00100703 9.81598e-05 -4.83583e-07
9.81598e-05 0.000135489 -2.75425e-07
-4.83583e-07 -2.75425e-07 3.51034e-05
0.000894738 6.6247e-06 1.90705e-07
6.6247e-06 6.94466e-05 5.00699e-09
1.90705e-07 5.00699e-09 -7.81911e-06
0.000940678 6.1458e-05 1.30494e-07
6.1458e-05 0.000107254 -6.88422e-07
1.30494e-07 -6.88422e-07 7.03844e-06
0.00153761 9.80672e-05 -6.51425e-07
9.80672e-05 7.90402e-05 -3.01859e-07
-6.51425e-07 -3.01859e-07 -3.57765e-05
0.00132267 0.000131795 9.67476e-07
0.000131795 0.000100257 -1.76467e-08
9.67476e-07 -1.76467e-08 -1.64444e-05
0.00140002 0.000132956 7.92755e-07
0.000132956 5.71876e-05 2.0606e-06
7.92755e-07 2.0606e-06 -5.35798e-05
0.000776866 9.75604e-05 7.25427e-07
9.75604e-05 1.95422e-05 1.81543e-06
7.25427e-07 1.81543e-06 -0.000107935
0.00124267 0.000136061 -4.95873e-07
0.000136061 0.000147964 -1.14087e-06
-4.95873e-07 -1.14087e-06 1.83282e-05
0.000837817 -7.45305e-06 7.67152e-07
-7.45305e-06 2.58998e-05 9.42566e-07
7.67152e-07 9.42566e-07 -2.36989e-05
0.000771129 -1.2655e-05 -1.45393e-07
-1.2655e-05 -2.73486e-06 1.26454e-06
-1.45393e-07 1.26454e-06 -7.20341e-05
0.00107774 0.000107337 -3.97783e-07
0.000107337 0.000184975 -9.65702e-07
-3.97783e-07 -9.65702e-07 6.9087e-05
0.000802121 2.87792e-05 8.3705e-08
2.87792e-05 2.80804e-05 1.4328e-07
8.3705e-08 1.4328e-07 -6.4632e-05
0.00103453 7.59034e-05 -2.75423e-07
7.59034e-05 0.000150935 -1.64149e-06
-2.75423e-07 -1.64149e-06 4.32475e-05
0.00158315 9.46194e-05 -2.36501e-06
9.46194e-05 5.56318e-05 9.81777e-07
-2.36501e-06 9.81777e-07 -4.08012e-05
0.00174468 0.000165146 -8.44512e-07
0.000165146 0.000308419 -8.96849e-07
-8.44512e-07 -8.96849e-07 0.000181874
0.000510809 0.000108393 -2.38873e-07
0.000108393 -0.000450277 -7.95741e-07
-2.38873e-07 -7.95741e-07 -0.000553402
0.00170643 0.00014797 3.88688e-06
0.00014797 0.000491285 2.85228e-06
3.88688e-06 2.85228e-06 0.000351377
0.000147997 9.07682e-05 -2.97969e-07
9.07682e-05 -0.000416108 -8.52497e-07
-2.97969e-07 -8.52497e-07 -0.000560293
0.000807906 -2.04612e-05 -1.41221e-06
-2.04612e-05 4.82631e-06 -1.65829e-06
-1.41221e-06 -1.65829e-06 -2.55475e-05
0.000774264 -1.27949e-05 1.39728e-07
-1.27949e-05 -9.15718e-06 5.39836e-07
1.39728e-07 5.39836e-07 -5.69181e-05
0.000770793 -2.78597e-05 9.23266e-08
-2.78597e-05 -6.63915e-06 1.02643e-06
9.23266e-08 1.02643e-06 -6.63576e-05
0.000730239 -3.16943e-05 -7.63665e-07
-3.16943e-05 -3.35109e-05 -6.06245e-07
-7.63665e-07 -6.06245e-07 -8.0439e-05
0.000856708 -4.46879e-06 2.21951e-07
-4.46879e-06 3.24085e-05 -3.5408e-08
2.21951e-07 -3.5408e-08 -1.31738e-05
0.000891949 -1.9158e-05 1.92655e-07
-1.9158e-05 5.93242e-05 -3.80198e-07
1.92655e-07 -3.80198e-07 2.52031e-06
0.000993874 5.88529e-06 1.79577e-07
5.88529e-06 0.000118625 -3.00105e-07
1.79577e-07 -3.00105e-07 5.45693e-05
0.000793392 -3.44478e-05 1.63942e-07
-3.44478e-05 8.43032e-06 3.46855e-07
1.63942e-07 3.46855e-07 -4.89522e-05
0.000876961 -1.4657e-05 2.1581e-07
-1.4657e-05 3.88373e-05 6.95764e-07
2.1581e-07 6.95764e-07 -4.96601e-06
0.000825248 5.21324e-07 8.24425e-07
5.21324e-07 1.95279e-06 1.57241e-06
8.24425e-07 1.57241e-06 -2.45554e-05
0.000827861 -1.0397e-05 -1.47318e-07
-1.0397e-05 4.61966e-06 1.57988e-08
-1.47318e-07 1.57988e-08 -2.17687e-05
0.0012879 -1.90147e-05 1.16951e-06
-1.90147e-05 0.000247359 1.92272e-06
1.16951e-06 1.92272e-06 0.000250087
0.000822244 -1.4873e-05 -7.28358e-07
-1.4873e-05 4.94025e-06 -1.75273e-06
-7.28358e-07 -1.75273e-06 -2.2217e-05
0.00130508 -2.39158e-05 -3.20474e-06
-2.39158e-05 0.00026093 -1.15531e-06
-3.20474e-06 -1.15531e-06 0.000262806
0.000991877 -2.00951e-05 1.46808e-05
-2.00951e-05 9.40598e-05 6.14811e-06
1.46808e-05 6.14811e-06 0.000110011
0.00132421 -2.82599e-05 -7.80798e-06
-2.82599e-05 0.000276422 -4.35048e-06
-7.80798e-06 -4.35048e-06 0.000276794
0.00094314 -2.55383e-05 5.99214e-06
-2.55383e-05 7.3857e-05 2.35382e-06
5.99214e-06 2.35382e-06 8.80951e-05
0.0020325 -4.58599e-05 -6.19582e-06
-4.58599e-05 0.000670241 -1.52873e-06
-6.19582e-06 -1.52873e-06 0.000688042
0.000726549 2.85456e-05 1.56645e-06
2.85456e-05 -4.04319e-05 -3.50857e-06
1.56645e-06 -3.50857e-06 -4.83225e-05
0.000730214 3.23743e-05 -1.27905e-07
3.23743e-05 -3.26015e-05 1.94867e-08
-1.27905e-07 1.94867e-08 -4.29272e-05
0.00227713 4.9597e-05 2.50684e-05
4.9597e-05 0.000805591 -3.67692e-06
2.50684e-05 -3.67692e-06 0.000821083
0.000742202 3.70447e-05 -2.66527e-06
3.70447e-05 -1.97966e-05 3.6068e-06
-2.66527e-06 3.6068e-06 -3.28105e-05
0.0023386 5.58994e-05 -1.08999e-06
5.58994e-05 0.000846606 -9.2586e-08
-1.08999e-06 -9.2586e-08 0.000860006
0.00244918 6.18178e-05 -3.58406e-05
6.18178e-05 0.000913577 3.35285e-06
-3.58406e-05 3.35285e-06 0.000924717
0.00154531 7.84182e-05 -1.6282e-06
7.84182e-05 8.57651e-05 1.25906e-07
-1.6282e-06 1.25906e-07 -2.38224e-05
0.00163674 3.65923e-05 -8.92777e-07
3.65923e-05 0.0001039 -4.74447e-07
-8.92777e-07 -4.74447e-07 -4.44274e-06
0.00159199 5.02237e-05 1.56399e-06
5.02237e-05 5.69e-05 1.15993e-07
1.56399e-06 1.15993e-07 -4.35925e-05
0.00169453 1.25011e-05 -2.969e-07
1.25011e-05 9.24768e-05 -1.15896e-06
-2.969e-07 -1.15896e-06 -1.62966e-05
0.00159823 2.08283e-07 -1.30822e-06
2.08283e-07 4.98642e-05 -4.78375e-07
-1.30822e-06 -4.78375e-07 -6.61587e-05
0.00157065 1.35571e-05 -4.08623e-06
1.35571e-05 7.87366e-05 2.13124e-07
-4.08623e-06 2.13124e-07 -3.42992e-05
0.00165958 3.50339e-06 1.83379e-07
3.50339e-06 8.36392e-05 -1.31721e-07
1.83379e-07 -1.31721e-07 -3.30179e-05
0.00178516 1.06689e-05 1.31657e-07
1.06689e-05 0.000125861 -6.23935e-08
1.31657e-07 -6.23935e-08 1.18851e-05
0.00163137 2.83659e-05 -1.49754e-07
2.83659e-05 6.66306e-05 3.49466e-07
-1.49754e-07 3.49466e-07 -3.80698e-05
0.00172502 9.95126e-06 2.74931e-07
9.95126e-06 9.38204e-05 -5.41453e-07
2.74931e-07 -5.41453e-07 -1.24062e-05
0.00158542 7.15717e-05 -5.0582e-07
7.15717e-05 7.25771e-05 1.36486e-07
-5.0582e-07 1.36486e-07 -3.26396e-05
0.00172634 4.3034e-05 1.37228e-06
4.3034e-05 0.000106824 -3.17513e-07
1.37228e-06 -3.17513e-07 1.17922e-05
0.00175075 1.05662e-05 2.6113e-07
1.05662e-05 0.000103127 -1.0959e-07
2.6113e-07 -1.0959e-07 -1.21122e-05
0.00175872 1.02456e-05 -5.03719e-07
1.02456e-05 9.8728e-05 3.89096e-07
-5.03719e-07 3.89096e-07 -1.02858e-05
0.00172782 2.39944e-05 -5.24065e-08
2.39944e-05 8.84474e-05 9.48206e-07
-5.24065e-08 9.48206e-07 -9.91106e-06
0.00178175 6.42182e-05 -9.97362e-07
6.42182e-05 0.000136288 -3.88099e-07
-9.97362e-07 -3.88099e-07 4.10366e-05
0.00164915 2.06177e-06 -1.81438e-06
2.06177e-06 9.42339e-05 5.89447e-07
-1.81438e-06 5.89447e-07 -2.10232e-05
0.00176399 -2.61708e-05 -2.60453e-06
-2.61708e-05 0.000185657 6.01589e-07
-2.60453e-06 6.01589e-07 8.00355e-05
0.00158744 -6.79871e-06 -1.47674e-06
-6.79871e-06 6.40554e-05 1.8086e-06
-1.47674e-06 1.8086e-06 -4.30631e-05
0.00173776 -4.6591e-05 -3.80402e-07
-4.6591e-05 0.000132999 7.81103e-08
-3.80402e-07 7.81103e-08 2.90364e-05
0.00104233 -6.93568e-05 -1.44373e-06
-6.93568e-05 0.000133195 -2.84302e-07
-1.44373e-06 -2.84302e-07 4.85798e-05
0.000864061 -9.67283e-05 5.85135e-07
-9.67283e-05 4.23228e-05 -1.63359e-07
5.85135e-07 -1.63359e-07 -5.66147e-05
0.00110461 -0.000120437 -9.57636e-07
-0.000120437 0.000119616 1.66993e-06
-9.57636e-07 1.66993e-06 -6.61602e-06
0.0017914 -0.000109271 -3.91004e-07
-0.000109271 0.000205236 -1.09693e-07
-3.91004e-07 -1.09693e-07 9.33805e-05
0.00157682 -7.16048e-05 -1.65649e-06
-7.16048e-05 3.76023e-05 5.79592e-07
-1.65649e-06 5.79592e-07 -6.14529e-05
0.00159227 -0.000118413 2.40612e-06
-0.000118413 0.000139734 2.37758e-06
2.40612e-06 2.37758e-06 3.48333e-05
0.00130723 -0.000134603 -9.89254e-07
-0.000134603 0.0001289 -7.57163e-07
-9.89254e-07 -7.57163e-07 -2.84894e-06
0.0012629 -0.000122908 1.69549e-07
-0.000122908 2.13102e-05 -6.4955e-06
1.69549e-07 -6.4955e-06 -8.30136e-05
0.00105813 -0.000103194 -1.51025e-07
-0.000103194 0.00014965 -1.29651e-06
-1.51025e-07 -1.29651e-06 5.63245e-05
0.00101664 -9.37212e-05 -1.1042e-07
-9.37212e-05 0.000133024 -1.88802e-06
-1.1042e-07 -1.88802e-06 3.76712e-05
0.000914587 -2.28887e-05 1.50058e-07
-2.28887e-05 7.51144e-05 1.15337e-07
1.50058e-07 1.15337e-07 -6.35826e-06
0.000568528 2.70016e-05 -1.22519e-06
2.70016e-05 -0.000121743 1.80243e-06
-1.22519e-06 1.80243e-06 -0.000161627
0.000777459 3.59917e-05 -1.48207e-07
3.59917e-05 -9.89523e-06 3.64536e-07
-1.48207e-07 3.64536e-07 -7.10647e-05
0.00169321 1.82106e-06 -4.31968e-07
1.82106e-06 8.93838e-05 6.51489e-08
-4.31968e-07 6.51489e-08 -2.25797e-05
0.00167618 -1.35978e-05 -3.45444e-08
-1.35978e-05 9.88929e-05 -3.41764e-07
-3.45444e-08 -3.41764e-07 -7.01151e-06
0.0017505 -5.02287e-05 -8.46317e-07
-5.02287e-05 0.00011497 -1.64008e-07
-8.46317e-07 -1.64008e-07 1.224e-05
0.00102254 -0.000102593 -1.68009e-08
-0.000102593 0.000127632 2.55371e-07
-1.68009e-08 2.55371e-07 3.32927e-05
0.000742691 -9.44974e-05 1.2168e-06
-9.44974e-05 -2.10659e-05 -1.11264e-06
1.2168e-06 -1.11264e-06 -0.000130022
0.00117046 -0.000131952 -1.6405e-07
-0.000131952 0.000132044 -7.00312e-08
-1.6405e-07 -7.00312e-08 -1.0202e-05
0.00166007 -9.37015e-05 5.22093e-07
-9.37015e-05 9.49738e-05 -1.29511e-06
5.22093e-07 -1.29511e-06 -1.00505e-05
0.00156349 -0.000148171 -2.30409e-07
-0.000148171 0.000225514 -1.47081e-07
-2.30409e-07 -1.47081e-07 9.36706e-05
0.00157456 -0.000129263 -1.51686e-06
-0.000129263 0.000103645 1.10852e-07
-1.51686e-06 1.10852e-07 6.01039e-06
0.000579817 2.3425e-05 8.69141e-08
2.3425e-05 -0.000118872 -5.88169e-07
8.69141e-08 -5.88169e-07 -0.000156111
0.00101584 -0.000101473 -1.13768e-08
-0.000101473 0.000128466 1.06342e-07
-1.13768e-08 1.06342e-07 3.37718e-05
0.000922567 -9.60037e-05 -5.2959e-07
-9.60037e-05 8.02641e-05 2.2193e-07
-5.2959e-07 2.2193e-07 -1.63302e-05
0.0010483 -6.72055e-05 -3.13054e-07
-6.72055e-05 0.000152233 7.9662e-07
-3.13054e-07 7.9662e-07 5.9337e-05
0.000995212 -2.4609e-05 1.99911e-08
-2.4609e-05 0.000116462 2.42975e-08
1.99911e-08 2.42975e-08 4.25692e-05
0.000843835 1.38352e-05 -2.03395e-07
1.38352e-05 2.7469e-05 1.98391e-07
-2.03395e-07 1.98391e-07 -3.0582e-05
0.00180802 -3.05421e-06 4.34384e-07
-3.05421e-06 0.00013249 -8.47537e-07
4.34384e-07 -8.47537e-07 2.43888e-05
0.00174989 -1.73538e-05 -1.90968e-07
-1.73538e-05 0.000107146 -1.56788e-07
-1.90968e-07 -1.56788e-07 7.6612e-06
0.00141255 -5.91358e-05 1.68152e-06
-5.91358e-05 -7.32976e-05 -1.99643e-07
1.68152e-06 -1.99643e-07 -0.000177109
0.00189292 -0.000116914 8.44516e-07
-0.000116914 0.000154427 -3.40361e-06
8.44516e-07 -3.40361e-06 5.13162e-05
0.0009485 -0.000100277 -8.01378e-07
-0.000100277 9.19787e-05 1.27543e-06
-8.01378e-07 1.27543e-06 -6.06384e-06
0.00170864 -0.000151584 2.97792e-06
-0.000151584 0.0002059 2.8473e-06
2.97792e-06 2.8473e-06 8.65285e-05
0.00066399 -9.79963e-05 -4.30356e-07
-9.79963e-05 -7.0632e-05 -2.9387e-06
-4.30356e-07 -2.9387e-06 -0.000201234
0.00156437 -0.000157064 9.12472e-07
-0.000157064 0.000312096 1.1377e-06
9.12472e-07 1.1377e-06 0.000157075
0.000597177 1.9844e-05 8.13205e-07
1.9844e-05 -0.000111726 -2.38718e-06
8.13205e-07 -2.38718e-06 -0.000146672
0.00096256 -1.23881e-06 1.15044e-06
-1.23881e-06 9.17028e-05 -8.81662e-07
1.15044e-06 -8.81662e-07 3.67166e-05
0.00103744 -3.02214e-05 2.49644e-07
-3.02214e-05 0.000139429 5.3728e-07
2.49644e-07 5.3728e-07 6.87555e-05
0.000962957 -2.5943e-05 5.03802e-07
-2.5943e-05 0.000102643 -8.12389e-07
5.03802e-07 -8.12389e-07 1.84025e-05
0.00106104 -0.00010405 -3.30077e-07
-0.00010405 0.000149163 2.18918e-06
-3.30077e-07 2.18918e-06 5.18172e-05
0.000957798 -9.97747e-05 -1.34283e-06
-9.97747e-05 9.9551e-05 3.10195e-06
-1.34283e-06 3.10195e-06 1.58705e-07
0.000799824 -2.73085e-05 -1.53025e-06
-2.73085e-05 4.98045e-06 -1.61762e-06
-1.53025e-06 -1.61762e-06 -2.79015e-05
0.00084086 -3.19358e-05 -2.92441e-07
-3.19358e-05 2.88147e-05 -9.5378e-07
-2.92441e-07 -9.5378e-07 -2.62819e-05
0.0015447 0.000100582 5.8552e-07
0.000100582 8.45579e-05 7.36726e-07
5.8552e-07 7.36726e-07 -3.08724e-05
0.000895191 -3.45621e-06 -2.9026e-08
-3.45621e-06 6.7288e-05 -4.54646e-07
-2.9026e-08 -4.54646e-07 -8.6292e-06
0.000940407 9.48544e-05 -1.56569e-07
9.48544e-05 0.00010213 -2.11485e-07
-1.56569e-07 -2.11485e-07 2.42335e-06
0.000859872 4.82393e-05 -2.06226e-07
4.82393e-05 6.23512e-05 -6.36273e-08
-2.06226e-07 -6.36273e-08 -3.71273e-05
0.00134684 0.000132675 -5.75485e-07
0.000132675 0.000112126 -2.04664e-06
-5.75485e-07 -2.04664e-06 -4.80487e-06
0.00154001 0.000136606 2.13488e-06
0.000136606 0.000124327 -1.89656e-07
2.13488e-06 -1.89656e-07 1.60996e-05
0.000623817 9.00582e-05 3.59464e-07
9.00582e-05 -5.99902e-05 7.41066e-07
3.59464e-07 7.41066e-07 -0.000186689
0.00130091 0.000138732 -1.22529e-06
0.000138732 0.000180603 2.99564e-07
-1.22529e-06 2.99564e-07 4.73992e-05
0.000836805 -1.86941e-05 -2.68447e-07
-1.86941e-05 2.52197e-05 1.08125e-07
-2.68447e-07 1.08125e-07 -2.44691e-05
0.000822693 -4.66436e-06 3.72655e-08
-4.66436e-06 2.44631e-05 6.2495e-07
3.72655e-08 6.2495e-07 -4.46938e-05
0.00106826 0.000106661 6.45737e-08
0.000106661 0.00018282 -9.73811e-07
6.45737e-08 -9.73811e-07 6.81872e-05
0.000850148 6.45244e-06 -1.63276e-07
6.45244e-06 4.95824e-05 2.43935e-08
-1.63276e-07 2.43935e-08 -4.00417e-05
0.000940635 6.91573e-05 -9.66043e-07
6.91573e-05 0.000104122 -9.7509e-07
-9.66043e-07 -9.7509e-07 -3.27708e-06
0.00177289 9.82557e-05 -1.43596e-06
9.82557e-05 0.00015285 -3.38862e-07
-1.43596e-06 -3.38862e-07 5.56952e-05
0.00169461 0.000162218 1.70345e-06
0.000162218 0.000276146 2.83279e-07
1.70345e-06 2.83279e-07 0.000150911
0.000969866 0.000124797 -7.03019e-07
0.000124797 -0.0001961 6.19804e-07
-7.03019e-07 6.19804e-07 -0.000290395
0.00128508 0.000127187 1.12396e-06
0.000127187 0.000274099 1.28738e-06
1.12396e-06 1.28738e-06 0.000135086
0.000667638 0.000117331 -1.53991e-06
0.000117331 -0.000148741 -1.03001e-06
-1.53991e-06 -1.03001e-06 -0.000300736
0.000772792 -1.72566e-05 2.35371e-07
-1.72566e-05 -5.39747e-06 1.09396e-06
2.35371e-07 1.09396e-06 -6.76056e-05
0.000735386 2.94165e-05 1.32367e-07
2.94165e-05 -1.19087e-05 9.97437e-08
1.32367e-07 9.97437e-08 -9.75457e-05
0.00105665 0.000106516 3.235e-07
0.000106516 0.000177348 -7.98355e-07
3.235e-07 -7.98355e-07 5.16483e-05
0.000560225 4.44503e-05 -2.26498e-08
4.44503e-05 -9.73917e-05 1.26082e-07
-2.26498e-08 1.26082e-07 -0.000204936
0.00206112 7.8355e-05 -2.2934e-06
7.8355e-05 0.00023111 1.0673e-07
-2.2934e-06 1.0673e-07 0.000148027
0.00168914 0.000122784 1.89597e-06
0.000122784 5.76759e-05 1.54197e-06
1.89597e-06 1.54197e-06 -2.70413e-05
0.00145177 0.000163571 4.287e-07
0.000163571 0.000126853 -3.98266e-06
4.287e-07 -3.98266e-06 -1.26025e-05
0.000288703 8.40572e-05 -4.96752e-07
8.40572e-05 -0.000265508 1.49588e-06
-4.96752e-07 1.49588e-06 -0.000432578
0.000848388 2.43411e-06 -7.00588e-07
2.43411e-06 3.31992e-05 -3.95705e-07
-7.00588e-07 -3.95705e-07 -1.59424e-05
0.000854681 -1.08669e-05 -1.53173e-07
-1.08669e-05 3.95679e-05 3.76818e-07
-1.53173e-07 3.76818e-07 -2.07599e-05
0.000945186 -1.81116e-05 8.02691e-08
-1.81116e-05 9.10409e-05 5.14503e-07
8.02691e-08 5.14503e-07 2.39012e-05
0.000850822 -2.01841e-05 -7.51976e-07
-2.01841e-05 2.75906e-05 -6.81831e-07
-7.51976e-07 -6.81831e-07 -1.68531e-05
0.000746271 -3.67576e-05 1.88997e-07
-3.67576e-05 -1.82814e-05 -5.84741e-07
1.88997e-07 -5.84741e-07 -7.58864e-05
0.000863773 -1.3182e-05 4.75747e-08
-1.3182e-05 3.17468e-05 3.87391e-08
4.75747e-08 3.87391e-08 -1.20213e-05
0.000914763 1.48654e-05 -1.6744e-07
1.48654e-05 7.98991e-05 -3.33454e-07
-1.6744e-07 -3.33454e-07 1.2837e-05
0.000810495 -1.77071e-05 1.47834e-07
-1.77071e-05 1.98557e-05 2.9339e-07
1.47834e-07 2.9339e-07 -3.89018e-05
0.000943003 -2.96453e-06 2.98249e-07
-2.96453e-06 9.37835e-05 -6.45459e-08
2.98249e-07 -6.45459e-08 2.34329e-05
0.000817058 -3.76035e-05 -2.33984e-07
-3.76035e-05 2.5463e-05 3.67498e-07
-2.33984e-07 3.67498e-07 -3.96616e-05
0.000761598 9.70865e-06 3.65912e-07
9.70865e-06 -9.20205e-06 5.31335e-07
3.65912e-07 5.31335e-07 -6.59574e-05
0.000873405 2.22338e-06 3.99722e-07
2.22338e-06 3.54788e-05 6.30331e-07
3.99722e-07 6.30331e-07 -8.21207e-06
0.000817924 5.0245e-06 6.87948e-07
5.0245e-06 -1.62836e-06 1.50756e-06
6.87948e-07 1.50756e-06 -2.886e-05
0.00082417 -6.0698e-06 -2.46457e-07
-6.0698e-06 1.50605e-06 5.09695e-09
-2.46457e-07 5.09695e-09 -2.50868e-05
0.001295 -1.25776e-05 9.66095e-07
-1.25776e-05 0.000248412 1.85807e-06
9.66095e-07 1.85807e-06 0.00025134
0.000818818 -1.51994e-05 -3.82892e-07
-1.51994e-05 -5.0142e-08 -1.66561e-06
-3.82892e-07 -1.66561e-06 -2.64865e-05
0.00130976 -1.76336e-05 -2.56745e-06
-1.76336e-05 0.000259153 -1.19238e-06
-2.56745e-06 -1.19238e-06 0.000261822
0.000995409 -1.54702e-05 1.17422e-05
-1.54702e-05 9.18177e-05 6.24049e-06
1.17422e-05 6.24049e-06 0.000108368
0.00132406 -2.27769e-05 -6.04541e-06
-2.27769e-05 0.00027087 -4.29377e-06
-6.04541e-06 -4.29377e-06 0.00027281
0.000945006 -2.10115e-05 4.55827e-06
-2.10115e-05 6.88513e-05 2.35858e-06
4.55827e-06 2.35858e-06 8.47217e-05
0.000885528 -2.58224e-05 -2.26725e-06
-2.58224e-05 4.30984e-05 -1.59612e-06
-2.26725e-06 -1.59612e-06 5.73133e-05
0.000737075 2.47496e-05 1.09799e-06
2.47496e-05 -4.05178e-05 -3.42022e-06
1.09799e-06 -3.42022e-06 -4.59736e-05
0.000739492 2.88558e-05 -1.63541e-07
2.88558e-05 -3.3633e-05 2.00365e-08
-1.63541e-07 2.00365e-08 -4.15948e-05
0.00222484 4.28844e-05 2.12897e-05
4.28844e-05 0.000770932 -3.78895e-06
2.12897e-05 -3.78895e-06 0.000788264
0.000749021 3.28782e-05 -2.32186e-06
3.28782e-05 -2.26909e-05 3.52595e-06
-2.32186e-06 3.52595e-06 -3.31166e-05
0.00228822 4.96247e-05 -1.22098e-06
4.96247e-05 0.000812448 -8.61927e-08
-1.22098e-06 -8.61927e-08 0.000827745
0.00235486 5.56499e-05 -3.14127e-05
5.56499e-05 0.000856162 3.49545e-06
-3.14127e-05 3.49545e-06 0.00086941
0.00160845 7.29068e-05 1.33616e-06
7.29068e-05 8.41376e-05 1.21848e-06
1.33616e-06 1.21848e-06 -2.10724e-05
0.00163315 2.65946e-05 -8.67936e-08
2.65946e-05 6.71797e-05 -4.96456e-07
-8.67936e-08 -4.96456e-07 -3.81192e-05
0.00159517 4.24995e-05 2.00595e-06
4.24995e-05 4.00166e-05 -9.0927e-07
2.00595e-06 -9.0927e-07 -5.34982e-05
0.00170459 1.02036e-05 5.42844e-07
1.02036e-05 8.00138e-05 -1.31008e-06
5.42844e-07 -1.31008e-06 -2.58402e-05
0.00179081 7.78752e-06 4.11066e-08
7.78752e-06 0.000130486 -4.64754e-07
4.11066e-08 -4.64754e-07 1.62318e-05
0.00166219 2.24156e-06 -1.59619e-06
2.24156e-06 8.55441e-05 3.14843e-08
-1.59619e-06 3.14843e-08 -3.1273e-05
0.00176616 1.13395e-05 -6.57651e-08
1.13395e-05 0.000113349 -3.38284e-09
-6.57651e-08 -3.38284e-09 -1.45561e-06
0.00176375 6.39932e-06 1.9446e-07
6.39932e-06 0.00010213 -5.64216e-08
1.9446e-07 -5.64216e-08 -6.89948e-06
0.00172547 2.4815e-05 7.90765e-07
2.4815e-05 8.65854e-05 -1.34951e-07
7.90765e-07 -1.34951e-07 -1.17732e-05
0.00170989 5.99178e-05 1.18479e-07
5.99178e-05 9.74433e-05 -1.36737e-07
1.18479e-07 -1.36737e-07 2.54556e-06
0.00180332 6.43458e-06 -9.69981e-07
6.43458e-06 0.000117285 4.33471e-08
-9.69981e-07 4.33471e-08 6.68343e-06
0.00188293 9.33606e-06 -6.16612e-07
9.33606e-06 0.000143345 3.59607e-07
-6.16612e-07 3.59607e-07 4.51634e-05
0.00177353 4.53954e-05 1.14913e-07
4.53954e-05 9.50539e-05 7.00264e-07
1.14913e-07 7.00264e-07 2.91624e-06
0.00167047 1.64257e-06 -1.15159e-06
1.64257e-06 8.02525e-05 8.71328e-07
-1.15159e-06 8.71328e-07 -3.10458e-05
0.00169325 -1.44205e-05 -1.04293e-06
-1.44205e-05 0.000108398 3.31793e-07
-1.04293e-06 3.31793e-07 2.32784e-06
0.001868 -5.20174e-05 -6.32535e-07
-5.20174e-05 0.00017892 2.58929e-08
-6.32535e-07 2.58929e-08 7.63237e-05
0.00110529 -0.000106315 -2.86848e-07
-0.000106315 0.000169289 -4.52848e-07
-2.86848e-07 -4.52848e-07 7.46853e-05
0.00118896 -0.000116492 2.34235e-07
-0.000116492 0.00020988 4.26871e-07
2.34235e-07 4.26871e-07 0.000101081
0.00111892 -0.000128262 -1.70105e-06
-0.000128262 0.000108481 1.96926e-06
-1.70105e-06 1.96926e-06 -3.47314e-05
0.00192666 -9.97467e-05 -6.62109e-07
-9.97467e-05 0.000229936 3.70293e-08
-6.62109e-07 3.70293e-08 0.000125162
0.00109444 -0.000116637 -3.73682e-06
-0.000116637 -0.000132226 2.43928e-06
-3.73682e-06 2.43928e-06 -0.00022891
0.00148312 -0.000142189 -2.03779e-06
-0.000142189 0.000183503 -3.21169e-06
-2.03779e-06 -3.21169e-06 5.52682e-05
0.00106437 -0.000103984 3.43163e-07
-0.000103984 0.00015339 -1.76321e-06
3.43163e-07 -1.76321e-06 5.84815e-05
0.000882672 -9.33488e-05 -1.42485e-06
-9.33488e-05 6.06263e-05 -2.02149e-06
-1.42485e-06 -2.02149e-06 -3.53267e-05
0.00102079 -7.96827e-05 3.905e-07
-7.96827e-05 0.000142044 8.15641e-08
3.905e-07 8.15641e-08 4.61939e-05
0.000565359 2.45327e-05 -9.70284e-07
2.45327e-05 -0.000126599 1.19079e-06
-9.70284e-07 1.19079e-06 -0.000163566
0.00102329 -1.27974e-05 1.26745e-08
-1.27974e-05 0.000130109 7.46642e-08
1.26745e-08 7.46642e-08 5.733e-05
0.000729652 2.4338e-05 -1.77637e-07
2.4338e-05 -3.6042e-05 1.11348e-06
-1.77637e-07 1.11348e-06 -9.30787e-05
0.00179074 -1.21718e-06 -8.72929e-08
-1.21718e-06 0.000121492 -5.961e-08
-8.72929e-08 -5.961e-08 1.27768e-05
0.00172478 -1.8903e-05 7.07894e-07
-1.8903e-05 9.53481e-05 -1.2334e-07
7.07894e-07 -1.2334e-07 -3.96763e-06
0.00161774 -6.06419e-05 7.41981e-08
-6.06419e-05 3.20143e-05 -1.10394e-07
7.41981e-08 -1.10394e-07 -7.15887e-05
0.00103044 -0.000104296 -1.243e-08
-0.000104296 0.00013301 7.30767e-07
-1.243e-08 7.30767e-07 3.43867e-05
0.000782875 -0.000102698 -2.60686e-07
-0.000102698 -2.606e-06 3.18477e-07
-2.60686e-07 3.18477e-07 -0.000130451
0.00162017 -0.000159033 -1.91037e-06
-0.000159033 0.000337455 1.38202e-06
-1.91037e-06 1.38202e-06 0.000182447
0.00195855 -0.000119894 -6.5297e-07
-0.000119894 0.00019711 3.15335e-07
-6.5297e-07 3.15335e-07 9.56767e-05
0.00151535 -0.000144775 2.10481e-06
-0.000144775 0.000104347 -1.54427e-06
2.10481e-06 -1.54427e-06 -1.4894e-05
0.000699776 1.97752e-05 1.68415e-07
1.97752e-05 -5.71693e-05 -5.72542e-07
1.68415e-07 -5.72542e-07 -9.10147e-05
0.000947617 9.25455e-06 -3.07976e-07
9.25455e-06 8.33376e-05 1.69497e-07
-3.07976e-07 1.69497e-07 2.89043e-05
0.000847617 -9.31014e-05 -8.77046e-07
-9.31014e-05 3.72359e-05 2.35717e-07
-8.77046e-07 2.35717e-07 -5.91069e-05
0.00100475 -9.77123e-05 1.23112e-06
-9.77123e-05 0.000122877 8.66736e-07
1.23112e-06 8.66736e-07 2.59621e-05
0.000913347 -2.86284e-05 7.38404e-09
-2.86284e-05 7.73128e-05 -3.59699e-07
7.38404e-09 -3.59699e-07 -8.13623e-06
0.000973138 -2.67674e-05 -5.88631e-07
-2.67674e-05 0.000104944 8.47278e-07
-5.88631e-07 8.47278e-07 3.43253e-05
0.00177439 -5.72527e-06 -2.14835e-06
-5.72527e-06 9.63983e-05 -1.25019e-07
-2.14835e-06 -1.25019e-07 -3.78569e-06
0.00175261 -2.98813e-05 3.26299e-08
-2.98813e-05 8.39953e-05 4.31811e-07
3.26299e-08 4.31811e-07 -8.72781e-06
0.00168639 -8.14416e-05 1.2056e-07
-8.14416e-05 1.92705e-05 -8.32617e-07
1.2056e-07 -8.32617e-07 -7.96597e-05
0.00180594 -0.000147895 3.45022e-07
-0.000147895 0.000107057 -2.7656e-06
3.45022e-07 -2.7656e-06 8.68799e-06
0.000685752 -8.84725e-05 -1.55114e-06
-8.84725e-05 -3.09842e-05 9.0489e-07
-1.55114e-06 9.0489e-07 -0.000137035
0.00150617 -0.000160707 -1.17971e-06
-0.000160707 0.000212347 4.05456e-06
-1.17971e-06 4.05456e-06 4.85243e-05
0.00169339 -0.00015558 8.09812e-07
-0.00015558 0.00045319 -2.68554e-06
8.09812e-07 -2.68554e-06 0.000304326
0.00082315 1.59407e-05 5.69198e-07
1.59407e-05 5.97554e-06 -1.68979e-06
5.69198e-07 -1.68979e-06 -2.45946e-05
0.000830589 -4.61384e-05 9.13396e-07
-4.61384e-05 2.75061e-05 -8.94194e-07
9.13396e-07 -8.94194e-07 -2.30458e-05
0.000720413 9.81361e-06 5.08132e-07
9.81361e-06 -3.48419e-05 -1.42721e-06
5.08132e-07 -1.42721e-06 -9.04191e-05
0.000919685 -3.01607e-05 9.52434e-07
-3.01607e-05 7.85294e-05 -1.84792e-07
9.52434e-07 -1.84792e-07 9.36038e-06
0.000920753 1.19426e-05 -9.18877e-09
1.19426e-05 7.91369e-05 -2.60153e-07
-9.18877e-09 -2.60153e-07 2.32051e-06
0.000794312 -9.26665e-05 2.36021e-06
-9.26665e-05 3.43816e-05 1.86902e-06
2.36021e-06 1.86902e-06 -6.82114e-05
0.000805269 -9.01357e-05 -2.64211e-06
-9.01357e-05 -6.17561e-06 2.29537e-06
-2.64211e-06 2.29537e-06 -9.43255e-05
0.00183886 -0.000146407 -1.99507e-06
-0.000146407 0.000578302 2.83254e-06
-1.99507e-06 2.83254e-06 0.000478526
0.000845806 -3.1153e-05 -4.49355e-07
-3.1153e-05 2.98187e-05 -8.91282e-07
-4.49355e-07 -8.91282e-07 -1.99388e-05
0.000876063 4.32397e-06 -3.1954e-07
4.32397e-06 5.27552e-05 8.23224e-08
-3.1954e-07 8.23224e-08 -1.63011e-05
0.00197161 0.000101666 1.21683e-06
0.000101666 0.000255263 1.70959e-07
1.21683e-06 1.70959e-07 0.00015737
0.000899887 1.6706e-05 -2.75022e-07
1.6706e-05 7.75294e-05 -2.76092e-07
-2.75022e-07 -2.76092e-07 -1.28626e-05
0.00105747 0.00010594 -3.38393e-07
0.00010594 0.000179919 -2.1693e-06
-3.38393e-07 -2.1693e-06 6.65102e-05
0.000833132 6.18801e-05 -9.48183e-07
6.18801e-05 5.07442e-05 7.34938e-08
-9.48183e-07 7.34938e-08 -5.6356e-05
0.00161171 0.000157813 6.95546e-07
0.000157813 0.000226472 -3.69558e-07
6.95546e-07 -3.69558e-07 0.000102697
0.00140317 0.000140793 3.96663e-06
0.000140793 4.40825e-05 2.56053e-06
3.96663e-06 2.56053e-06 -4.13296e-05
0.000837385 0.0001049 8.0662e-07
0.0001049 4.30463e-05 1.20416e-06
8.0662e-07 1.20416e-06 -9.51373e-05
0.00112322 0.000140934 -3.54126e-06
0.000140934 8.40283e-05 -1.8854e-06
-3.54126e-06 -1.8854e-06 -7.50179e-05
0.000775386 -3.27571e-06 1.87167e-07
-3.27571e-06 -1.9028e-06 4.68903e-07
1.87167e-07 4.68903e-07 -6.62626e-05
0.000806737 3.88287e-05 -1.1651e-07
3.88287e-05 2.70626e-05 -8.89832e-07
-1.1651e-07 -8.89832e-07 -5.89853e-05
0.0010452 0.000106313 -5.59197e-07
0.000106313 0.000173831 -1.02214e-06
-5.59197e-07 -1.02214e-06 4.80979e-05
0.000830606 5.7918e-05 -4.19496e-07
5.7918e-05 4.43968e-05 -2.78337e-07
-4.19496e-07 -2.78337e-07 -6.35594e-05
0.00200208 7.43094e-05 1.04639e-07
7.43094e-05 0.000199653 2.09777e-07
1.04639e-07 2.09777e-07 0.000116046
0.00147738 0.000117282 2.22442e-06
0.000117282 -3.40658e-05 -1.32904e-06
2.22442e-06 -1.32904e-06 -0.00011981
0.00198055 0.000183461 -3.33861e-06
0.000183461 0.000398335 -3.10113e-07
-3.33861e-06 -3.10113e-07 0.000262273
0.000670355 0.000106647 1.24184e-06
0.000106647 -7.98716e-05 5.1968e-07
1.24184e-06 5.1968e-07 -0.000245412
0.000923111 -5.46074e-06 2.37778e-07
-5.46074e-06 7.92416e-05 2.32068e-07
2.37778e-07 2.32068e-07 7.68048e-06
0.00161299 4.43975e-05 -2.40795e-06
4.43975e-05 -4.36711e-06 2.93258e-07
-2.40795e-06 2.93258e-07 -8.35293e-05
0.00115568 9.376e-05 2.08369e-08
9.376e-05 0.000227135 1.5967e-06
2.08369e-08 1.5967e-06 0.000122182
0.00106829 0.000110823 1.29779e-07
0.000110823 0.000163693 5.71631e-07
1.29779e-07 5.71631e-07 2.98568e-05
0.00217575 9.78385e-05 -2.34128e-06
9.78385e-05 0.000224688 9.76658e-08
-2.34128e-06 9.76658e-08 0.000152575
0.00173691 0.000179806 3.08799e-06
0.000179806 0.000110347 -3.43002e-06
3.08799e-06 -3.43002e-06 -1.445e-06
0.00157747 0.000161669 -1.41295e-06
0.000161669 0.000324518 2.53815e-06
-1.41295e-06 2.53815e-06 0.000144982
0.000937434 -4.83234e-06 -1.25198e-06
-4.83234e-06 8.25616e-05 -2.27304e-07
-1.25198e-06 -2.27304e-07 2.32875e-05
0.000933853 -1.73231e-05 -6.83798e-08
-1.73231e-05 8.48476e-05 2.06934e-08
-6.83798e-08 2.06934e-08 1.77137e-05
0.000933008 -1.23017e-05 1.90419e-07
-1.23017e-05 8.9323e-05 6.96451e-07
1.90419e-07 6.96451e-07 1.48346e-05
0.000852204 -2.01988e-05 -3.27611e-07
-2.01988e-05 2.63543e-05 -6.96013e-07
-3.27611e-07 -6.96013e-07 -1.79125e-05
0.000848936 -8.58888e-06 1.3944e-08
-8.58888e-06 4.06307e-05 2.3696e-07
1.3944e-08 2.3696e-07 -1.82384e-05
0.000824153 9.74053e-07 -2.68365e-07
9.74053e-07 3.26211e-05 -6.34963e-07
-2.68365e-07 -6.34963e-07 -3.56351e-05
0.000862413 -1.77209e-05 -1.46541e-07
-1.77209e-05 3.15338e-05 1.76807e-08
-1.46541e-07 1.76807e-08 -1.34687e-05
0.00078353 -1.97554e-05 -5.11318e-07
-1.97554e-05 2.92131e-06 3.20626e-07
-5.11318e-07 3.20626e-07 -5.4336e-05
0.000913882 -2.22083e-05 2.96672e-07
-2.22083e-05 7.75383e-05 -3.73973e-07
2.96672e-07 -3.73973e-07 6.671e-06
0.000898356 3.81541e-06 1.10372e-07
3.81541e-06 7.15691e-05 4.9397e-07
1.10372e-07 4.9397e-07 5.26444e-06
0.000897493 -7.23943e-06 4.96805e-07
-7.23943e-06 6.80354e-05 -6.13368e-07
4.96805e-07 -6.13368e-07 -6.47314e-06
0.000825033 -3.81182e-05 4.22574e-08
-3.81182e-05 2.96224e-05 1.80958e-07
4.22574e-08 1.80958e-07 -4.08886e-05
0.000929145 1.10062e-05 3.83813e-07
1.10062e-05 8.46132e-05 -2.80988e-08
3.83813e-07 -2.80988e-08 2.13457e-05
0.000865255 7.44427e-06 1.19378e-06
7.44427e-06 4.55789e-05 3.20799e-07
1.19378e-06 3.20799e-07 -1.29381e-05
0.000869613 3.39699e-06 4.83096e-07
3.39699e-06 3.3566e-05 5.93197e-07
4.83096e-07 5.93197e-07 -1.0891e-05
0.000814101 9.18493e-06 4.43719e-07
9.18493e-06 -2.63628e-06 1.45421e-06
4.43719e-07 1.45421e-06 -3.06543e-05
0.000820955 -1.62673e-06 -1.63605e-07
-1.62673e-06 8.82728e-08 9.0586e-10
-1.63605e-07 9.0586e-10 -2.71702e-05
0.00129966 -6.15009e-06 7.36691e-07
-6.15009e-06 0.000249472 1.81766e-06
7.36691e-07 1.81766e-06 0.00025222
0.000827749 -1.24634e-05 -2.88005e-07
-1.24634e-05 3.55212e-06 -1.57038e-06
-2.88005e-07 -1.57038e-06 -2.31283e-05
0.00131912 -1.13706e-05 -1.89067e-06
-1.13706e-05 0.000261676 -1.22e-06
-1.89067e-06 -1.22e-06 0.000264451
0.00100339 -1.06947e-05 8.69368e-06
-1.06947e-05 9.34586e-05 6.3531e-06
8.69368e-06 6.3531e-06 0.00011018
0.00133408 -1.66836e-05 -4.50801e-06
-1.66836e-05 0.000272227 -4.26624e-06
-4.50801e-06 -4.26624e-06 0.000274774
0.000956396 -1.60812e-05 3.22828e-06
-1.60812e-05 7.03735e-05 2.39798e-06
3.22828e-06 2.39798e-06 8.70096e-05
0.000896887 -2.10606e-05 -1.66638e-06
-2.10606e-05 4.29374e-05 -1.56718e-06
-1.66638e-06 -1.56718e-06 5.88832e-05
0.000816148 1.18432e-05 2.62182e-07
1.18432e-05 -3.42577e-07 -1.63585e-06
2.62182e-07 -1.63585e-06 -2.8513e-05
0.000749385 2.0092e-05 9.03232e-07
2.0092e-05 -3.95024e-05 -3.3044e-06
9.03232e-07 -3.3044e-06 -4.26193e-05
0.00075315 2.51029e-05 -1.41726e-07
2.51029e-05 -3.21033e-05 2.54761e-08
-1.41726e-07 2.54761e-08 -3.76409e-05
0.00216388 3.57719e-05 1.75822e-05
3.57719e-05 0.00073221 -3.85467e-06
1.75822e-05 -3.85467e-06 0.000751354
0.000756065 2.92544e-05 -1.87036e-06
2.92544e-05 -2.48599e-05 3.4771e-06
-1.87036e-06 3.4771e-06 -3.29106e-05
0.00223535 4.30215e-05 -1.45494e-06
4.30215e-05 0.000777424 -8.05868e-08
-1.45494e-06 -8.05868e-08 0.000794552
0.00229801 4.95037e-05 -2.74481e-05
4.95037e-05 0.000818601 3.66913e-06
-2.74481e-05 3.66913e-06 0.000833734
0.00164021 5.56015e-05 9.77057e-07
5.56015e-05 5.95474e-05 -1.46768e-07
9.77057e-07 -1.46768e-07 -3.4958e-05
0.00171542 2.56418e-05 4.76244e-07
2.56418e-05 8.08773e-05 -9.19878e-07
4.76244e-07 -9.19878e-07 -1.74937e-05
0.00175525 6.42588e-06 7.72398e-07
6.42588e-06 9.83123e-05 -4.92729e-07
7.72398e-07 -4.92729e-07 -1.06979e-05
0.00178355 1.23087e-05 -1.3673e-07
1.23087e-05 0.000124419 -8.30677e-09
-1.3673e-07 -8.30677e-09 1.01247e-05
0.00179645 6.32678e-06 -2.05614e-07
6.32678e-06 0.000112996 5.85392e-08
-2.05614e-07 5.85392e-08 2.82377e-06
0.00185507 9.06898e-06 2.56167e-07
9.06898e-06 0.00012685 -8.89761e-08
2.56167e-07 -8.89761e-08 2.78927e-05
0.00174939 4.69995e-05 4.81314e-08
4.69995e-05 8.09875e-05 1.84199e-07
4.81314e-08 1.84199e-07 -1.07443e-05
0.00177826 -1.71625e-06 -1.61111e-06
-1.71625e-06 9.2538e-05 1.83517e-07
-1.61111e-06 1.83517e-07 -7.67667e-06
0.0019341 2.16972e-05 -1.86724e-06
2.16972e-05 0.000158667 2.66188e-07
-1.86724e-06 2.66188e-07 6.94065e-05
0.00176404 1.68053e-05 -1.10835e-06
1.68053e-05 6.18178e-05 4.40134e-07
-1.10835e-06 4.40134e-07 -1.28441e-05
0.00176902 5.76215e-07 1.63384e-07
5.76215e-07 0.000108063 4.95319e-07
1.63384e-07 4.95319e-07 -1.27032e-06
0.00170161 -2.05798e-05 5.58196e-07
-2.05798e-05 8.46486e-05 -1.79778e-07
5.58196e-07 -1.79778e-07 -1.45262e-05
0.00183938 -6.2922e-05 -1.1316e-06
-6.2922e-05 0.000145609 -5.60231e-07
-1.1316e-06 -5.60231e-07 4.21923e-05
0.00110364 -0.000107881 -1.52849e-07
-0.000107881 0.000169416 5.44009e-07
-1.52849e-07 5.44009e-07 7.02562e-05
0.00083731 -0.000104403 4.16523e-07
-0.000104403 3.10675e-05 3.30948e-06
4.16523e-07 3.30948e-06 -9.36857e-05
0.00163885 -0.000159146 -2.47149e-06
-0.000159146 0.00034376 2.71005e-06
-2.47149e-06 2.71005e-06 0.000189932
0.00202906 -0.00012307 3.87976e-06
-0.00012307 0.000242391 1.84262e-06
3.87976e-06 1.84262e-06 0.000142749
0.00122123 -0.000134051 -2.40263e-06
-0.000134051 -4.82234e-05 -2.13197e-06
-2.40263e-06 -2.13197e-06 -0.000167097
0.000631755 -8.21477e-05 -1.42578e-06
-8.21477e-05 -7.62088e-05 -8.12565e-07
-1.42578e-06 -8.12565e-07 -0.000171519
0.00110665 -0.000101781 3.14419e-06
-0.000101781 0.000175868 -2.99275e-06
3.14419e-06 -2.99275e-06 8.04752e-05
0.000839999 9.96274e-06 -1.12941e-07
9.96274e-06 3.36638e-05 -3.56954e-07
-1.12941e-07 -3.56954e-07 -4.82372e-05
0.000808146 1.93392e-05 -7.48088e-07
1.93392e-05 2.51639e-07 1.14006e-06
-7.48088e-07 1.14006e-06 -3.24751e-05
0.000939534 2.45202e-05 -7.31803e-07
2.45202e-05 7.91439e-05 1.13872e-06
-7.31803e-07 1.13872e-06 2.47846e-05
0.000906669 -9.54645e-06 -6.39803e-07
-9.54645e-06 7.01289e-05 1.13356e-06
-6.39803e-07 1.13356e-06 -9.36821e-07
0.00181975 -5.39109e-06 1.01784e-07
-5.39109e-06 0.000122256 2.06684e-07
1.01784e-07 2.06684e-07 2.35098e-05
0.000821637 1.49552e-05 2.67706e-08
1.49552e-05 4.85674e-06 1.8322e-08
2.67706e-08 1.8322e-08 -2.56766e-05
0.000766634 -1.74124e-06 -2.65981e-07
-1.74124e-06 -1.13984e-05 7.39335e-08
-2.65981e-07 7.39335e-08 -5.92077e-05
0.00178301 -3.19353e-05 -1.57963e-07
-3.19353e-05 9.98106e-05 -3.90471e-07
-1.57963e-07 -3.90471e-07 6.40987e-06
0.0017016 -8.08499e-05 -3.37901e-07
-8.08499e-05 3.01369e-05 4.16707e-07
-3.37901e-07 4.16707e-07 -7.13985e-05
0.000738988 -9.04615e-05 7.71405e-08
-9.04615e-05 2.05235e-07 1.89298e-06
7.71405e-08 1.89298e-06 -0.000104128
0.00136416 -0.000138719 -8.33045e-07
-0.000138719 0.000281795 3.20473e-07
-8.33045e-07 3.20473e-07 0.000128145
0.00130245 -0.000149377 1.18838e-06
-0.000149377 0.000101616 9.9824e-07
1.18838e-06 9.9824e-07 -5.54912e-05
0.00184897 -0.000152453 5.37668e-07
-0.000152453 0.00013336 -4.81684e-07
5.37668e-07 -4.81684e-07 3.51765e-05
0.000904658 -1.59799e-05 1.02478e-06
-1.59799e-05 6.27918e-05 -5.22099e-07
1.02478e-06 -5.22099e-07 9.12439e-06
0.000904115 -1.62338e-05 -4.57244e-07
-1.62338e-05 7.16423e-05 4.49366e-07
-4.57244e-07 4.49366e-07 1.59893e-06
0.000919741 -9.31165e-05 5.54438e-07
-9.31165e-05 4.93092e-05 4.50965e-07
5.54438e-07 4.50965e-07 -4.1409e-05
0.00126296 -0.000117094 1.56149e-06
-0.000117094 0.000274144 -1.34267e-06
1.56149e-06 -1.34267e-06 0.00018378
0.000757734 -6.46125e-05 -2.05649e-07
-6.46125e-05 1.23941e-05 3.44056e-07
-2.05649e-07 3.44056e-07 -8.89762e-05
0.000918048 6.17374e-06 8.84896e-08
6.17374e-06 7.91825e-05 -2.83169e-07
8.84896e-08 -2.83169e-07 1.02117e-06
0.00178581 -1.0448e-05 -3.54082e-06
-1.0448e-05 8.16536e-05 -1.1413e-07
-3.54082e-06 -1.1413e-07 -2.67137e-06
0.0020197 -3.1425e-05 2.30128e-06
-3.1425e-05 0.00019562 1.74064e-06
2.30128e-06 1.74064e-06 0.000103495
0.001825 -0.000133459 -3.00275e-06
-0.000133459 3.27356e-05 -3.93501e-06
-3.00275e-06 -3.93501e-06 -4.95194e-05
0.00117076 -0.000154821 -1.03103e-06
-0.000154821 -0.000117079 1.87704e-06
-1.03103e-06 1.87704e-06 -0.000234256
0.00105527 -8.96312e-05 -2.55427e-06
-8.96312e-05 0.000155285 -7.79063e-07
-2.55427e-06 -7.79063e-07 4.83795e-05
0.00182495 -0.00017877 -2.57387e-06
-0.00017877 0.000481691 -6.55678e-07
-2.57387e-06 -6.55678e-07 0.00029727
0.000684648 3.86693e-05 -1.08458e-06
3.86693e-05 -5.38283e-05 -1.28177e-06
-1.08458e-06 -1.28177e-06 -0.000101214
0.000833241 -1.71555e-05 4.01502e-07
-1.71555e-05 2.27325e-05 -9.68099e-07
4.01502e-07 -9.68099e-07 -2.65731e-05
0.00102999 -2.98276e-05 5.95192e-07
-2.98276e-05 0.000143473 -4.3497e-07
5.95192e-07 -4.3497e-07 8.15334e-05
0.0007524 1.8449e-05 -6.41056e-07
1.8449e-05 -5.84355e-06 -5.37355e-07
-6.41056e-07 -5.37355e-07 -7.72998e-05
0.00105608 -5.25767e-06 2.12185e-07
-5.25767e-06 0.000155353 -3.04807e-10
2.12185e-07 -3.04807e-10 7.96601e-05
0.000611716 -1.4511e-05 3.46677e-07
-1.4511e-05 -6.59381e-05 3.23191e-07
3.46677e-07 3.23191e-07 -0.000156585
0.00119221 -7.46221e-05 5.57978e-06
-7.46221e-05 0.000259369 1.79524e-07
5.57978e-06 1.79524e-07 0.000147002
0.000784413 -9.66712e-05 -7.57111e-06
-9.66712e-05 -7.05491e-08 2.70781e-06
-7.57111e-06 2.70781e-06 -8.39385e-05
0.000770861 1.14301e-05 -3.39826e-07
1.14301e-05 -2.37825e-06 -1.08417e-07
-3.39826e-07 -1.08417e-07 -6.88314e-05
0.000873322 4.48512e-05 -1.45506e-06
4.48512e-05 6.31744e-05 -1.55751e-06
-1.45506e-06 -1.55751e-06 -2.31005e-05
0.00194622 7.06976e-05 1.14309e-06
7.06976e-05 0.000168248 -3.34829e-07
1.14309e-06 -3.34829e-07 8.42036e-05
0.00132133 0.000113611 1.12999e-06
0.000113611 -9.72534e-05 6.20442e-07
1.12999e-06 6.20442e-07 -0.0001841
0.00111355 6.22928e-05 -1.6483e-06
6.22928e-05 0.000191186 -5.4444e-07
-1.6483e-06 -5.4444e-07 8.3642e-05
0.00104886 0.000106724 -1.24119e-06
0.000106724 0.000177544 -1.35969e-06
-1.24119e-06 -1.35969e-06 5.20339e-05
0.00252372 0.000203704 -1.77933e-07
0.000203704 0.000678202 1.44114e-06
-1.77933e-07 1.44114e-06 0.000545157
0.00111582 0.000131901 -8.43276e-07
0.000131901 0.000140413 -9.75331e-07
-8.43276e-07 -9.75331e-07 -2.44958e-05
0.000908989 1.29707e-05 2.1184e-07
1.29707e-05 7.47806e-05 -5.26417e-07
2.1184e-07 -5.26417e-07 1.3282e-06
0.00178897 4.32471e-05 -2.49583e-07
4.32471e-05 8.14472e-05 1.50877e-07
-2.49583e-07 1.50877e-07 2.98596e-06
0.000973861 7.31284e-05 6.51943e-08
7.31284e-05 0.000127915 8.59198e-07
6.51943e-08 8.59198e-07 2.60234e-05
0.000882843 0.000100364 1.01055e-07
0.000100364 6.84595e-05 -1.37564e-07
1.01055e-07 -1.37564e-07 -6.73567e-05
0.00187546 9.24676e-05 1.45169e-06
9.24676e-05 7.37199e-05 -1.11217e-08
1.45169e-06 -1.11217e-08 1.35699e-06
0.00193928 0.000185576 3.10815e-07
0.000185576 0.000205989 -1.1525e-06
3.10815e-07 -1.1525e-06 9.54973e-05
0.00173742 0.000170592 7.57837e-07
0.000170592 0.000417917 1.32641e-06
7.57837e-07 1.32641e-06 0.000238385
0.00102484 2.83489e-05 -4.05838e-07
2.83489e-05 0.000145902 5.98816e-07
-4.05838e-07 5.98816e-07 5.81216e-05
0.00204438 5.65618e-05 -6.90384e-06
5.65618e-05 0.000167574 -8.59596e-07
-6.90384e-06 -8.59596e-07 0.000109298
0.00164599 0.000118514 -2.115e-06
0.000118514 0.00046707 1.22201e-08
-2.115e-06 1.22201e-08 0.000351938
0.00184232 0.000161414 -2.8994e-06
0.000161414 0.000546139 6.21121e-07
-2.8994e-06 6.21121e-07 0.000387306
0.00197364 0.000177116 3.09928e-07
0.000177116 9.01066e-05 -1.12452e-07
3.09928e-07 -1.12452e-07 2.42724e-05
0.00126479 0.000161245 -2.50365e-06
0.000161245 5.19827e-05 2.36267e-07
-2.50365e-06 2.36267e-07 -0.000108868
0.000640829 7.34915e-05 1.1069e-05
7.34915e-05 -0.000278711 1.94317e-06
1.1069e-05 1.94317e-06 -0.000392576
0.000930506 -9.75654e-06 -1.15459e-07
-9.75654e-06 8.30179e-05 -5.33035e-07
-1.15459e-07 -5.33035e-07 1.57635e-05
0.000931562 -7.39069e-06 6.3494e-08
-7.39069e-06 8.86946e-05 4.24844e-08
6.3494e-08 4.24844e-08 1.41001e-05
0.000932687 4.12256e-06 1.45516e-07
4.12256e-06 8.48373e-05 -4.02772e-07
1.45516e-07 -4.02772e-07 5.45101e-06
0.000855985 -3.32379e-05 -1.74097e-07
-3.32379e-05 2.94893e-05 -7.0112e-07
-1.74097e-07 -7.0112e-07 -1.64602e-05
0.000799598 -4.62593e-05 -6.63022e-07
-4.62593e-05 1.18278e-05 1.54864e-07
-6.63022e-07 1.54864e-07 -4.57504e-05
0.000961907 4.57341e-05 -8.02669e-07
4.57341e-05 0.000108758 3.24531e-07
-8.02669e-07 3.24531e-07 4.10958e-05
0.00089747 -2.46848e-05 1.30038e-07
-2.46848e-05 6.87716e-05 -3.62299e-07
1.30038e-07 -3.62299e-07 -3.16719e-06
0.000854199 -2.00837e-05 -1.55718e-07
-2.00837e-05 2.90581e-05 3.93734e-08
-1.55718e-07 3.93734e-08 -1.78116e-05
0.000810839 -1.78585e-06 8.6702e-08
-1.78585e-06 1.18776e-05 -4.4383e-08
8.6702e-08 -4.4383e-08 -4.3786e-05
0.000902066 -1.05048e-05 4.05799e-07
-1.05048e-05 7.05626e-05 -5.24118e-07
4.05799e-07 -5.24118e-07 -4.35897e-06
0.000930451 -1.72938e-05 -1.25524e-07
-1.72938e-05 8.37584e-05 -7.5296e-08
-1.25524e-07 -7.5296e-08 2.10277e-05
0.000914473 -2.89038e-05 1.79378e-07
-2.89038e-05 7.73341e-05 -1.89659e-08
1.79378e-07 -1.89659e-08 7.45927e-06
0.000885633 -1.56229e-05 -5.75449e-08
-1.56229e-05 6.10465e-05 -4.83384e-07
-5.75449e-08 -4.83384e-07 -1.26532e-05
0.00090293 -4.24829e-06 4.65877e-07
-4.24829e-06 6.86774e-05 -5.14109e-07
4.65877e-07 -5.14109e-07 3.49651e-06
0.00095962 4.28602e-07 6.60258e-07
4.28602e-07 9.34817e-05 -2.78132e-07
6.60258e-07 -2.78132e-07 3.24894e-05
0.000833201 1.28094e-05 5.99903e-08
1.28094e-05 2.41868e-05 3.07656e-07
5.99903e-08 3.07656e-07 -3.59544e-05
0.000750535 -1.41979e-07 2.53394e-07
-1.41979e-07 -3.07096e-05 9.92625e-07
2.53394e-07 9.92625e-07 -7.68129e-05
0.000987478 -3.3806e-06 3.63974e-07
-3.3806e-06 0.000116245 -1.09299e-07
3.63974e-07 -1.09299e-07 5.3953e-05
0.000731365 5.10739e-06 -3.80412e-07
5.10739e-06 -3.79752e-05 1.01921e-06
-3.80412e-07 1.01921e-06 -8.53031e-05
0.000815191 1.19298e-05 2.62511e-07
1.19298e-05 -1.43595e-06 1.43265e-06
2.62511e-07 1.43265e-06 -2.98406e-05
0.000814332 1.86086e-06 -2.09542e-07
1.86086e-06 -2.51132e-06 2.79413e-09
-2.09542e-07 2.79413e-09 -3.04906e-05
0.000763003 5.69214e-07 2.76799e-07
5.69214e-07 -4.06317e-05 3.034e-06
2.76799e-07 3.034e-06 -4.13178e-05
0.000824348 -8.50016e-06 4.77558e-09
-8.50016e-06 2.01206e-06 -1.47415e-06
4.77558e-09 -1.47415e-06 -2.52756e-05
0.00104729 -4.8231e-06 -1.20258e-06
-4.8231e-06 0.000113289 -1.2681e-06
-1.20258e-06 -1.2681e-06 0.000114428
0.00208689 -7.3951e-06 5.33647e-06
-7.3951e-06 0.000677334 3.98645e-06
5.33647e-06 3.98645e-06 0.000700093
0.00134426 -1.05885e-05 -2.79108e-06
-1.05885e-05 0.000275453 -4.27497e-06
-2.79108e-06 -4.27497e-06 0.000278032
0.000965965 -1.09749e-05 1.74951e-06
-1.09749e-05 7.2535e-05 2.44549e-06
1.74951e-06 2.44549e-06 8.94525e-05
0.000913344 -1.58415e-05 -1.1787e-06
-1.58415e-05 4.68509e-05 -1.5445e-06
-1.1787e-06 -1.5445e-06 6.36926e-05
0.000823459 8.09801e-06 1.91138e-07
8.09801e-06 2.02559e-06 -1.58766e-06
1.91138e-07 -1.58766e-06 -2.43992e-05
0.000823958 1.11348e-05 -3.72803e-08
1.11348e-05 3.56082e-06 1.44467e-08
-3.72803e-08 1.44467e-08 -2.4636e-05
0.000758221 1.5167e-05 4.82769e-07
1.5167e-05 -3.91029e-05 -3.24177e-06
4.82769e-07 -3.24177e-06 -4.03758e-05
0.00104969 2.25884e-05 -4.87051e-07
2.25884e-05 0.000122718 3.40833e-08
-4.87051e-07 3.40833e-08 0.00012095
0.00211858 2.83924e-05 1.44472e-05
2.83924e-05 0.000702668 -3.93303e-06
1.44472e-05 -3.93303e-06 0.000723371
0.000767183 2.54459e-05 -1.33502e-06
2.54459e-05 -2.47659e-05 3.40609e-06
-1.33502e-06 3.40609e-06 -3.03814e-05
0.00217876 3.61112e-05 -1.54237e-06
3.61112e-05 0.000740971 -7.20066e-08
-1.54237e-06 -7.20066e-08 0.000759869
0.00225037 4.31087e-05 -2.36364e-05
4.31087e-05 0.000786352 3.80875e-06
-2.36364e-05 3.80875e-06 0.000803265
0.00171378 4.84738e-05 -6.09627e-07
4.84738e-05 6.15029e-05 -4.01924e-07
-6.09627e-07 -4.01924e-07 -2.98778e-05
0.00182533 9.46121e-06 1.1204e-06
9.46121e-06 0.000109199 -4.11099e-07
1.1204e-06 -4.11099e-07 9.45917e-06
0.00180121 2.43089e-06 6.36112e-07
2.43089e-06 0.000114905 -8.94267e-09
6.36112e-07 -8.94267e-09 5.13521e-06
0.00178936 9.02211e-07 2.12136e-07
9.02211e-07 9.6275e-05 7.11019e-08
2.12136e-07 7.11019e-08 -4.0424e-06
0.00183255 2.11136e-05 -3.08888e-07
2.11136e-05 0.000108309 2.00797e-07
-3.08888e-07 2.00797e-07 1.85938e-05
0.00177993 1.35224e-05 1.99064e-06
1.35224e-05 8.10479e-05 1.41864e-07
1.99064e-06 1.41864e-07 5.21625e-06
0.00170869 6.71159e-06 -2.12491e-06
6.71159e-06 4.00914e-05 -5.06524e-07
-2.12491e-06 -5.06524e-07 -4.17721e-05
0.00367027 -5.93439e-05 6.14746e-06
-5.93439e-05 0.000910161 1.6249e-06
6.14746e-06 1.6249e-06 0.000865218
0.00154124 1.87991e-05 -3.55544e-06
1.87991e-05 -9.44536e-05 3.23234e-07
-3.55544e-06 3.23234e-07 -0.000150395
0.00085844 2.08293e-05 1.14663e-07
2.08293e-05 3.5276e-05 -7.01548e-07
1.14663e-07 -7.01548e-07 -7.99612e-06
0.00186967 -5.21625e-06 1.81774e-06
-5.21625e-06 0.000150228 2.5527e-07
1.81774e-06 2.5527e-07 5.29402e-05
0.00178122 -3.31526e-05 -1.04963e-06
-3.31526e-05 9.91566e-05 -8.06248e-07
-1.04963e-06 -8.06248e-07 5.15679e-06
0.00173085 -7.9634e-05 1.60412e-06
-7.9634e-05 4.84403e-05 4.58649e-07
1.60412e-06 4.58649e-07 -5.50305e-05
0.000829972 -9.43078e-05 1.62897e-06
-9.43078e-05 5.1216e-05 1.28954e-06
1.62897e-06 1.28954e-06 -5.15802e-05
0.00112124 -0.000125766 7.87899e-07
-0.000125766 0.000157412 3.51045e-06
7.87899e-07 3.51045e-06 -3.26091e-06
0.00118024 -0.000142239 1.96243e-06
-0.000142239 3.42712e-05 -1.43963e-06
1.96243e-06 -1.43963e-06 -0.000117997
0.00198157 -0.000160241 1.6296e-06
-0.000160241 0.000205855 -5.33945e-07
1.6296e-06 -5.33945e-07 0.000107414
0.00105116 -9.85934e-05 4.37872e-06
-9.85934e-05 0.000114811 -3.37915e-06
4.37872e-06 -3.37915e-06 2.11243e-05
0.000634819 -8.61185e-05 -1.84953e-06
-8.61185e-05 -5.69679e-05 -7.65481e-06
-1.84953e-06 -7.65481e-06 -0.000137712
0.00068972 -5.97418e-05 -4.49335e-08
-5.97418e-05 -2.36304e-05 3.55661e-07
-4.49335e-08 3.55661e-07 -0.000125694
0.000822921 1.42054e-05 -7.03335e-07
1.42054e-05 5.33513e-06 1.74934e-06
-7.03335e-07 1.74934e-06 -2.51897e-05
0.000929525 -3.53523e-06 -1.29278e-07
-3.53523e-06 8.64248e-05 -4.02339e-07
-1.29278e-07 -4.02339e-07 6.92778e-06
0.00108109 -3.98488e-05 -4.56844e-07
-3.98488e-05 0.000159724 4.35361e-07
-4.56844e-07 4.35361e-07 0.000105788
0.000895949 -8.62454e-06 -6.74345e-07
-8.62454e-06 6.72557e-05 1.11755e-06
-6.74345e-07 1.11755e-06 -2.74326e-06
0.000695858 2.4772e-06 1.03571e-07
2.4772e-06 -5.20087e-05 8.55247e-07
1.03571e-07 8.55247e-07 -9.83622e-05
0.00181183 -1.08436e-05 -5.35278e-07
-1.08436e-05 9.63322e-05 -2.21816e-07
-5.35278e-07 -2.21816e-07 1.26566e-05
0.00076791 1.49581e-05 1.86878e-07
1.49581e-05 -9.38219e-06 -5.11759e-07
1.86878e-07 -5.11759e-07 -5.62515e-05
0.000839388 -2.97876e-05 -4.36164e-07
-2.97876e-05 2.94622e-05 3.56561e-08
-4.36164e-07 3.56561e-08 -2.23132e-05
0.000880268 -9.28374e-06 -6.98154e-07
-9.28374e-06 6.41629e-05 4.82125e-07
-6.98154e-07 4.82125e-07 3.71339e-07
0.00177742 -3.31716e-05 1.16522e-06
-3.31716e-05 6.10217e-05 -3.02031e-07
1.16522e-06 -3.02031e-07 -3.01916e-05
0.00180983 -0.000131973 -1.73263e-06
-0.000131973 4.23175e-05 6.53596e-07
-1.73263e-06 6.53596e-07 -4.15326e-05
0.000885529 -8.94984e-05 -4.01148e-07
-8.94984e-05 5.44208e-05 2.94155e-07
-4.01148e-07 2.94155e-07 -4.85619e-05
0.0011402 -0.000142023 1.29855e-07
-0.000142023 0.000144545 -7.04283e-07
1.29855e-07 -7.04283e-07 -4.38151e-05
0.0015311 -0.000170371 2.64882e-07
-0.000170371 6.92664e-05 3.85442e-07
2.64882e-07 3.85442e-07 -5.05678e-05
0.000857182 7.22269e-06 -1.64894e-07
7.22269e-06 5.06321e-05 4.14432e-09
-1.64894e-07 4.14432e-09 -2.04294e-05
0.000978094 -2.1948e-05 -1.31243e-07
-2.1948e-05 0.000117157 3.15175e-08
-1.31243e-07 3.15175e-08 3.92809e-05
0.000755027 -9.72857e-05 -4.53436e-06
-9.72857e-05 -9.43594e-06 1.05472e-06
-4.53436e-06 1.05472e-06 -9.8147e-05
0.00105922 -5.68254e-05 6.26724e-07
-5.68254e-05 0.000185838 -6.46362e-07
6.26724e-07 -6.46362e-07 7.73623e-05
0.000821362 -3.00124e-05 -7.24779e-08
-3.00124e-05 4.55632e-05 9.4136e-07
-7.24779e-08 9.4136e-07 -4.54793e-05
0.00204151 -3.69424e-05 -3.98508e-06
-3.69424e-05 0.000170179 6.8303e-07
-3.98508e-06 6.8303e-07 9.32153e-05
0.00233971 -7.03108e-05 1.46312e-06
-7.03108e-05 0.000292 1.19255e-06
1.46312e-06 1.19255e-06 0.000211608
0.00189773 -0.000187895 1.21542e-06
-0.000187895 0.000112678 -3.83766e-06
1.21542e-06 -3.83766e-06 2.14237e-05
0.00179569 -0.000186029 -5.95316e-06
-0.000186029 0.000375923 2.25271e-07
-5.95316e-06 2.25271e-07 0.000221402
0.000985239 -0.000100703 -1.01081e-06
-0.000100703 0.000138974 -1.70645e-06
-1.01081e-06 -1.70645e-06 1.50853e-06
0.0007091 1.50741e-05 5.75597e-08
1.50741e-05 -2.96201e-05 -8.63917e-07
5.75597e-08 -8.63917e-07 -9.19234e-05
0.000806602 4.61194e-05 -2.16077e-07
4.61194e-05 2.56235e-05 -8.74166e-07
-2.16077e-07 -8.74166e-07 -4.24568e-05
0.00106923 1.60263e-05 6.3634e-07
1.60263e-05 0.000163972 3.88467e-07
6.3634e-07 3.88467e-07 9.32557e-05
0.000839785 -4.35196e-05 1.09228e-06
-4.35196e-05 4.76042e-05 -5.69002e-09
1.09228e-06 -5.69002e-09 -3.00552e-05
0.00104489 5.33515e-06 5.61609e-07
5.33515e-06 0.000151489 6.11034e-07
5.61609e-07 6.11034e-07 7.14841e-05
0.000823574 -1.22674e-05 2.47489e-07
-1.22674e-05 5.33521e-05 -1.52221e-06
2.47489e-07 -1.52221e-06 -4.47949e-05
0.000708573 -7.13741e-05 7.41554e-06
-7.13741e-05 1.76562e-05 9.16566e-07
7.41554e-06 9.16566e-07 -0.000114536
0.000894368 3.49469e-05 -2.84509e-07
3.49469e-05 7.06676e-05 -1.4253e-06
-2.84509e-07 -1.4253e-06 -5.01618e-06
0.000794341 5.33812e-05 -5.32943e-08
5.33812e-05 3.02683e-05 6.98808e-08
-5.32943e-08 6.98808e-08 -6.86728e-05
0.00195226 4.15341e-05 2.49682e-06
4.15341e-05 0.000161237 -4.19128e-07
2.49682e-06 -4.19128e-07 8.34493e-05
0.00157459 8.69772e-05 3.28825e-06
8.69772e-05 -7.62915e-05 -6.82065e-07
3.28825e-06 -6.82065e-07 -0.000148558
0.0020869 0.000189496 7.52545e-07
0.000189496 0.000272462 -1.80353e-08
7.52545e-07 -1.80353e-08 0.000163614
0.00069097 8.99728e-05 9.10299e-07
8.99728e-05 -3.00258e-05 1.82783e-08
9.10299e-07 1.82783e-08 -0.000167605
0.00183066 0.000176469 1.00472e-06
0.000176469 0.000475805 1.09943e-06
1.00472e-06 1.09943e-06 0.000297587
0.00102392 2.07885e-05 -1.34105e-07
2.07885e-05 0.000144319 5.274e-08
-1.34105e-07 5.274e-08 5.93781e-05
0.00182393 5.43674e-05 -1.61298e-06
5.43674e-05 4.10345e-05 -3.97906e-07
-1.61298e-06 -3.97906e-07 -1.09162e-05
0.00122289 9.96547e-05 -7.90522e-07
9.96547e-05 0.000250178 3.75273e-07
-7.90522e-07 3.75273e-07 0.000137016
0.00136746 0.000134582 -6.54054e-07
0.000134582 0.000312506 5.29823e-07
-6.54054e-07 5.29823e-07 0.000155234
0.00189043 0.000166681 1.01025e-06
0.000166681 3.89304e-05 -4.57943e-07
1.01025e-06 -4.57943e-07 -2.61671e-05
0.00138086 0.000169143 -1.4297e-06
0.000169143 0.00011622 1.22309e-06
-1.4297e-06 1.22309e-06 -4.9194e-05
0.00176107 7.01588e-05 5.42079e-06
7.01588e-05 8.95464e-05 1.15741e-06
5.42079e-06 1.15741e-06 -3.00834e-05
0.00107563 4.1936e-05 -8.09972e-07
4.1936e-05 0.000170847 -9.71697e-07
-8.09972e-07 -9.71697e-07 7.63578e-05
0.00252235 0.000116555 -7.44631e-06
0.000116555 0.000367617 -6.81351e-06
-7.44631e-06 -6.81351e-06 0.000363929
0.00119706 0.000118675 -3.39394e-06
0.000118675 0.000250714 -1.57884e-06
-3.39394e-06 -1.57884e-06 0.000129345
0.00113723 0.00012993 -4.83947e-06
0.00012993 0.000182242 -9.33351e-07
-4.83947e-06 -9.33351e-07 -4.07109e-06
1.32128e-05 0.00016022 -4.68898e-06
0.00016022 -0.000729298 -2.08936e-06
-4.68898e-06 -2.08936e-06 -0.000849683
0.00685393 -4.79558e-05 -4.52749e-05
-4.79558e-05 0.00227569 -1.22714e-05
-4.52749e-05 -1.22714e-05 0.00156084
0.00328618 3.03522e-05 7.61439e-05
3.03522e-05 0.000262102 6.2594e-06
7.61439e-05 6.2594e-06 -0.000233319
0.000555732 0.000163188 9.11448e-06
0.000163188 -0.000428106 1.92612e-05
9.11448e-06 1.92612e-05 -0.000460382
-0.00182942 -0.000312045 -7.88642e-06
-0.000312045 -0.000838458 -1.05856e-05
-7.88642e-06 -1.05856e-05 -0.000833342
0.00239085 -0.000502337 -2.7052e-05
-0.000502337 0.000110166 -5.29887e-06
-2.7052e-05 -5.29887e-06 0.0011566
0.000941294 -9.16026e-06 -6.28445e-08
-9.16026e-06 9.36528e-05 -6.07943e-07
-6.28445e-08 -6.07943e-07 1.90743e-05
0.000952498 -1.73157e-06 2.67518e-07
-1.73157e-06 9.71722e-05 -3.23465e-07
2.67518e-07 -3.23465e-07 1.84188e-05
0.00101525 2.90087e-05 -9.73946e-08
2.90087e-05 0.000129657 -1.06968e-06
-9.73946e-08 -1.06968e-06 5.0669e-05
0.000836558 -4.28115e-05 1.85426e-07
-4.28115e-05 2.3202e-05 -7.68034e-07
1.85426e-07 -7.68034e-07 -2.59811e-05
0.000742589 2.29156e-05 -7.19829e-07
2.29156e-05 -2.26449e-05 -2.66415e-07
-7.19829e-07 -2.66415e-07 -7.97554e-05
0.000935182 -3.9133e-05 -7.20432e-09
-3.9133e-05 8.55523e-05 -1.38166e-07
-7.20432e-09 -1.38166e-07 2.27933e-05
0.000997473 -1.80318e-05 -3.99563e-07
-1.80318e-05 0.000121176 1.45907e-07
-3.99563e-07 1.45907e-07 5.23083e-05
0.000878091 -1.49018e-05 5.40373e-07
-1.49018e-05 5.7956e-05 -8.03857e-07
5.40373e-07 -8.03857e-07 -1.73911e-05
0.000888387 1.92406e-05 -5.49346e-07
1.92406e-05 5.82063e-05 -2.94086e-07
-5.49346e-07 -2.94086e-07 -4.91302e-06
0.000792397 -3.76622e-07 3.62978e-08
-3.76622e-07 -4.42577e-06 4.68246e-07
3.62978e-08 4.68246e-07 -5.20344e-05
0.000860207 1.16265e-05 -2.50166e-07
1.16265e-05 3.85521e-05 -4.58949e-08
-2.50166e-07 -4.58949e-08 -2.11231e-05
0.000898552 -1.45899e-05 -7.89248e-08
-1.45899e-05 6.77966e-05 2.8114e-07
-7.89248e-08 2.8114e-07 -5.69714e-06
0.000910682 -8.11894e-06 5.48915e-08
-8.11894e-06 7.22618e-05 -1.28121e-07
5.48915e-08 -1.28121e-07 7.10027e-06
0.00083245 1.13692e-05 5.8348e-07
1.13692e-05 2.75039e-05 -5.13557e-07
5.8348e-07 -5.13557e-07 -3.63846e-05
0.000928724 6.70762e-07 7.48158e-07
6.70762e-07 7.98455e-05 -6.996e-07
7.48158e-07 -6.996e-07 1.27027e-05
0.000870426 5.33068e-06 1.00654e-06
5.33068e-06 4.00357e-05 2.15211e-07
1.00654e-06 2.15211e-07 -2.24201e-05
0.00082271 1.24158e-06 9.31627e-07
1.24158e-06 1.2746e-05 2.144e-08
9.31627e-07 2.144e-08 -4.66512e-05
0.000718812 -3.50323e-05 -1.18161e-06
-3.50323e-05 -4.32032e-05 1.06377e-06
-1.18161e-06 1.06377e-06 -9.17288e-05
0.000922369 5.7859e-06 -1.60656e-07
5.7859e-06 7.25286e-05 2.41886e-07
-1.60656e-07 2.41886e-07 1.18116e-05
0.000998351 6.4331e-05 5.71347e-08
6.4331e-05 0.000115653 -3.17895e-07
5.71347e-08 -3.17895e-07 5.04126e-05
0.000839874 5.81966e-06 -4.10301e-07
5.81966e-06 3.67481e-05 2.73668e-07
-4.10301e-07 2.73668e-07 -2.35801e-05
0.000923121 1.01202e-05 4.77379e-07
1.01202e-05 7.64862e-05 -3.37976e-07
4.77379e-07 -3.37976e-07 1.66618e-05
0.000852536 -2.27983e-05 -1.20761e-06
-2.27983e-05 2.82483e-05 6.337e-07
-1.20761e-06 6.337e-07 -1.8405e-05
0.000739261 4.1518e-06 1.25918e-07
4.1518e-06 -3.08894e-05 3.82336e-07
1.25918e-07 3.82336e-07 -8.01101e-05
0.000820344 1.32208e-05 -8.24109e-08
1.32208e-05 1.43457e-06 1.50607e-06
-8.24109e-08 1.50607e-06 -2.7063e-05
0.000812323 4.41524e-06 -1.48243e-07
4.41524e-06 -3.15024e-06 1.97348e-09
-1.48243e-07 1.97348e-09 -3.14651e-05
0.000779128 5.22977e-06 -2.69409e-07
5.22977e-06 -3.08312e-05 4.31848e-06
-2.69409e-07 4.31848e-06 -3.20429e-05
0.000812429 -5.67441e-06 2.38026e-07
-5.67441e-06 -3.55503e-06 -1.41558e-06
2.38026e-07 -1.41558e-06 -3.14742e-05
0.000766455 6.46711e-07 1.72206e-07
6.46711e-07 -3.87634e-05 -8.4127e-09
1.72206e-07 -8.4127e-09 -3.94795e-05
0.00210311 -9.65612e-07 2.32873e-07
-9.65612e-07 0.00068566 4.03517e-06
2.32873e-07 4.03517e-06 0.000708302
0.000786188 -3.98818e-06 -5.66071e-07
-3.98818e-06 -2.75537e-05 -4.28678e-06
-5.66071e-07 -4.28678e-06 -2.80453e-05
0.00152802 -6.21475e-06 -2.974e-07
-6.21475e-06 0.000374934 1.86998e-08
-2.974e-07 1.86998e-08 0.000394784
0.000925476 -1.03946e-05 -6.90317e-07
-1.03946e-05 5.0041e-05 -1.53108e-06
-6.90317e-07 -1.53108e-06 6.72411e-05
0.000828065 3.72222e-06 -5.53584e-08
3.72222e-06 3.27513e-06 -1.6412e-06
-5.53584e-08 -1.6412e-06 -2.18806e-05
0.000823884 7.34017e-06 4.65583e-08
7.34017e-06 1.95563e-06 5.02135e-09
4.65583e-08 5.02135e-09 -2.44248e-05
0.000764106 1.0113e-05 2.7397e-07
1.0113e-05 -3.88666e-05 -3.18876e-06
2.7397e-07 -3.18876e-06 -3.87197e-05
0.000829036 1.04226e-05 -5.20336e-07
1.04226e-05 5.9741e-06 1.70773e-06
-5.20336e-07 1.70773e-06 -2.22326e-05
0.00104051 1.68922e-05 -2.54669e-07
1.68922e-05 0.000113215 -6.36772e-07
-2.54669e-07 -6.36772e-07 0.000113407
0.00208901 2.11821e-05 1.0717e-05
2.11821e-05 0.000682712 -3.99672e-06
1.0717e-05 -3.99672e-06 0.000704586
0.000768544 2.07843e-05 -9.36467e-07
2.07843e-05 -2.89849e-05 3.32881e-06
-9.36467e-07 3.32881e-06 -3.2414e-05
0.00215266 2.80854e-05 -6.00905e-06
2.80854e-05 0.000722196 1.11589e-06
-6.00905e-06 1.11589e-06 0.000742599
0.00219027 3.63198e-05 -1.95616e-05
3.63198e-05 0.000747934 3.90677e-06
-1.95616e-05 3.90677e-06 0.000766612
0.00173559 2.07989e-05 1.0538e-06
2.07989e-05 6.05535e-05 1.06737e-07
1.0538e-06 1.06737e-07 -2.96182e-05
0.00179952 2.75618e-06 1.56818e-06
2.75618e-06 9.99856e-05 1.8668e-08
1.56818e-06 1.8668e-08 -4.34288e-07
0.00178343 1.12705e-05 4.98324e-06
1.12705e-05 9.39751e-05 -2.28413e-07
4.98324e-06 -2.28413e-07 1.69814e-05
0.00173872 -2.22104e-05 6.27303e-06
-2.22104e-05 -5.70147e-05 1.62022e-06
6.27303e-06 1.62022e-06 -0.000118813
0.00184024 5.60211e-06 -4.70276e-07
5.60211e-06 0.00010699 3.21295e-08
-4.70276e-07 3.21295e-08 2.55781e-05
0.00180837 2.13204e-05 1.37381e-06
2.13204e-05 5.67583e-05 1.91218e-07
1.37381e-06 1.91218e-07 -3.13743e-06
0.00230675 1.66855e-05 -1.62938e-06
1.66855e-05 0.000295188 1.55705e-06
-1.62938e-06 1.55705e-06 0.000214452
0.00319584 -0.000112327 0.000140555
-0.000112327 0.000548775 2.0214e-05
0.000140555 2.0214e-05 0.00025946
0.0013379 -4.13333e-05 -5.33106e-06
-4.13333e-05 -0.000241433 -7.03273e-08
-5.33106e-06 -7.03273e-08 -0.000310815
0.000858644 2.57158e-05 -7.52464e-07
2.57158e-05 3.60804e-05 -7.77998e-07
-7.52464e-07 -7.77998e-07 -7.4712e-06
0.000852718 -1.33616e-05 6.59609e-07
-1.33616e-05 3.47471e-05 -4.46658e-08
6.59609e-07 -4.46658e-08 -1.03508e-05
0.00085626 -3.56302e-05 -4.12912e-08
-3.56302e-05 4.3197e-05 -3.9301e-08
-4.12912e-08 -3.9301e-08 -1.20511e-05
0.000860672 -2.69077e-05 -1.0447e-06
-2.69077e-05 5.59579e-05 1.01669e-07
-1.0447e-06 1.01669e-07 -4.43598e-06
0.00185752 -1.19546e-05 3.6931e-06
-1.19546e-05 0.000120989 -5.01831e-07
3.6931e-06 -5.01831e-07 3.79359e-05
0.00169301 -3.71397e-05 -5.09155e-07
-3.71397e-05 1.00764e-05 -5.27746e-07
-5.09155e-07 -5.27746e-07 -8.07648e-05
0.00178488 -0.000130662 -1.26762e-06
-0.000130662 4.54522e-05 2.15143e-06
-1.26762e-06 2.15143e-06 -4.08013e-05
0.000737704 -9.02287e-05 2.68753e-06
-9.02287e-05 -3.52624e-05 2.37791e-06
2.68753e-06 2.37791e-06 -0.000133394
0.000432253 -0.000104248 3.67822e-06
-0.000104248 -0.00020973 -1.08443e-06
3.67822e-06 -1.08443e-06 -0.000397477
0.00193582 -0.000187728 1.71764e-06
-0.000187728 0.000278885 -1.68818e-06
1.71764e-06 -1.68818e-06 0.000157603
0.000766836 -9.23319e-05 -6.59206e-06
-9.23319e-05 2.89463e-08 4.7371e-07
-6.59206e-06 4.7371e-07 -9.23098e-05
0.000961668 -4.19895e-05 -1.3824e-06
-4.19895e-05 0.000131098 -5.77026e-07
-1.3824e-06 -5.77026e-07 2.61037e-05
0.00102713 -4.69057e-05 -1.19934e-06
-4.69057e-05 0.000155101 1.66366e-06
-1.19934e-06 1.66366e-06 6.36459e-05
0.000852609 -5.11854e-06 -1.07448e-06
-5.11854e-06 3.61904e-05 1.03024e-06
-1.07448e-06 1.03024e-06 -1.55639e-05
0.000892715 -3.561e-05 -3.86808e-07
-3.561e-05 7.62468e-05 1.219e-07
-3.86808e-07 1.219e-07 -4.6339e-06
0.000968181 5.04719e-06 -7.01462e-07
5.04719e-06 0.00010803 5.74593e-07
-7.01462e-07 5.74593e-07 3.88695e-05
0.000853614 -3.58191e-06 2.44806e-08
-3.58191e-06 3.7362e-05 2.86426e-07
2.44806e-08 2.86426e-07 -9.64664e-06
0.000724126 2.12787e-05 3.07969e-07
2.12787e-05 -1.79005e-05 1.06658e-06
3.07969e-07 1.06658e-06 -8.38066e-05
0.00178634 -2.93776e-05 -6.08956e-07
-2.93776e-05 5.43303e-05 9.3782e-07
-6.08956e-07 9.3782e-07 -2.301e-05
0.000864625 1.21537e-05 4.8457e-07
1.21537e-05 5.24107e-05 -4.64605e-07
4.8457e-07 -4.64605e-07 -8.00029e-06
0.000827636 2.34051e-05 5.21421e-07
2.34051e-05 3.7235e-05 1.04996e-08
5.21421e-07 1.04996e-08 -3.0298e-05
0.000944179 4.71975e-05 -3.1918e-07
4.71975e-05 9.81574e-05 6.77372e-07
-3.1918e-07 6.77372e-07 2.59097e-05
0.00199804 -6.58799e-05 -3.30885e-06
-6.58799e-05 0.000107945 2.76138e-07
-3.30885e-06 2.76138e-07 2.38358e-05
0.00172794 -0.000175907 8.71804e-07
-0.000175907 3.77274e-05 -1.3641e-06
8.71804e-07 -1.3641e-06 -5.32963e-05
0.0009508 -0.000106686 -8.17577e-07
-0.000106686 0.000106492 -2.26482e-07
-8.17577e-07 -2.26482e-07 -2.61655e-05
0.00186305 -0.000189018 -7.72744e-07
-0.000189018 0.000415237 -6.32261e-07
-7.72744e-07 -6.32261e-07 0.00025634
0.000921849 -1.05087e-05 -3.67108e-07
-1.05087e-05 8.78837e-05 1.16039e-07
-3.67108e-07 1.16039e-07 1.17302e-05
0.000936179 -4.56455e-06 1.67201e-07
-4.56455e-06 0.000100394 7.8424e-07
1.67201e-07 7.8424e-07 1.86594e-05
0.000851332 -7.59949e-05 3.41307e-06
-7.59949e-05 8.5475e-05 -8.16136e-07
3.41307e-06 -8.16136e-07 -4.07638e-05
0.00101783 -4.37317e-05 5.41743e-07
-4.37317e-05 0.000158445 -1.09046e-06
5.41743e-07 -1.09046e-06 5.423e-05
0.00163373 -1.87309e-05 -2.56514e-06
-1.87309e-05 -8.71573e-05 2.26516e-06
-2.56514e-06 2.26516e-06 -0.000170209
0.00188992 -0.000153152 5.13823e-06
-0.000153152 1.10492e-05 -3.96855e-06
5.13823e-06 -3.96855e-06 -6.57838e-05
0.00188318 -0.000196506 -3.785e-06
-0.000196506 0.000271161 -1.02294e-06
-3.785e-06 -1.02294e-06 0.000146427
0.00119359 -0.000145982 -1.35891e-06
-0.000145982 0.000230965 -7.14373e-07
-1.35891e-06 -7.14373e-07 8.43732e-05
0.00083558 2.52606e-05 -8.07356e-07
2.52606e-05 4.19414e-05 -3.84882e-08
-8.07356e-07 -3.84882e-08 -3.397e-05
0.000867043 -3.35755e-05 6.36144e-07
-3.35755e-05 6.50752e-05 -4.92511e-07
6.36144e-07 -4.92511e-07 -1.10114e-05
0.000914653 -2.00306e-05 5.14799e-08
-2.00306e-05 8.54901e-05 -3.51646e-08
5.14799e-08 -3.51646e-08 3.08923e-06
0.000799169 -8.23009e-06 -1.27379e-06
-8.23009e-06 5.77835e-05 -4.7867e-08
-1.27379e-06 -4.7867e-08 -7.66165e-05
0.000453251 -4.58276e-05 -3.71658e-06
-4.58276e-05 -0.000992537 -7.02162e-06
-3.71658e-06 -7.02162e-06 -0.00141473
0.000990817 9.83693e-06 3.37997e-07
9.83693e-06 0.000125648 -7.71259e-07
3.37997e-07 -7.71259e-07 4.38812e-05
0.000793837 7.69802e-05 1.38529e-06
7.69802e-05 2.91283e-05 1.14342e-06
1.38529e-06 1.14342e-06 -8.16046e-05
0.00160107 5.23343e-05 6.29738e-06
5.23343e-05 -8.89745e-05 7.91936e-07
6.29738e-06 7.91936e-07 -0.000134626
0.00174936 0.000153762 9.41796e-07
0.000153762 -4.00742e-05 -6.06866e-07
9.41796e-07 -6.06866e-07 -0.000104719
0.00148857 0.000176948 9.91954e-07
0.000176948 0.000178472 3.20429e-06
9.91954e-07 3.20429e-06 6.98871e-06
0.000861154 0.000106085 2.89901e-06
0.000106085 6.19897e-05 1.06429e-06
2.89901e-06 1.06429e-06 -9.46135e-05
0.00285497 7.15628e-05 2.01862e-06
7.15628e-05 0.000461802 -1.80006e-06
2.01862e-06 -1.80006e-06 0.000321243
0.000957743 3.78792e-05 7.11319e-07
3.78792e-05 0.000113389 -4.6921e-07
7.11319e-07 -4.6921e-07 1.96806e-05
0.00209312 0.000109265 -4.60543e-06
0.000109265 0.000143079 -2.44853e-06
-4.60543e-06 -2.44853e-06 0.000147781
0.00104444 0.00011024 2.69363e-07
0.00011024 0.000173239 -3.23369e-07
2.69363e-07 -3.23369e-07 5.41127e-05
0.001074 0.000130147 -7.65553e-08
0.000130147 0.000158859 5.21514e-07
-7.65553e-08 5.21514e-07 -2.99203e-05
0.00102714 0.000200335 -2.90402e-06
0.000200335 -0.0002448 3.13633e-07
-2.90402e-06 3.13633e-07 -0.000359005
0.00214253 -0.000176068 -3.43116e-05
-0.000176068 -1.24204e-05 -1.21124e-05
-3.43116e-05 -1.21124e-05 -0.000643735
0.00357804 -4.13268e-05 4.46564e-06
-4.13268e-05 0.000325514 -1.20407e-05
4.46564e-06 -1.20407e-05 -0.000279172
0.000728785 0.000152846 5.63673e-06
0.000152846 -0.00033653 3.02814e-06
5.63673e-06 3.02814e-06 -0.000379142
-0.00193302 -0.000260767 2.56413e-05
-0.000260767 -0.000636569 6.2946e-06
2.56413e-05 6.2946e-06 -0.000903403
5.02828e-05 -0.000531682 1.11865e-05
-0.000531682 -0.0011459 -1.80906e-06
1.11865e-05 -1.80906e-06 4.44337e-05
0.00109211 6.60857e-05 -8.42476e-07
6.60857e-05 0.000190016 -1.71891e-06
-8.42476e-07 -1.71891e-06 9.78941e-05
0.000905686 7.76392e-05 -8.71091e-05
7.76392e-05 0.000732282 -2.21408e-05
-8.71091e-05 -2.21408e-05 0.000430904
0.00135155 -0.000302046 -4.33176e-05
-0.000302046 0.000400101 -2.76547e-05
-4.33176e-05 -2.76547e-05 0.000712865
0.00114874 0.000127922 -1.04414e-05
0.000127922 -0.000276442 -4.23736e-07
-1.04414e-05 -4.23736e-07 -0.000236625
0.00117979 6.57106e-05 -4.11549e-06
6.57106e-05 0.000270133 -2.32249e-06
-4.11549e-06 -2.32249e-06 0.00013827
0.00110121 0.000164128 -8.08478e-06
0.000164128 0.000140722 -3.6382e-06
-8.08478e-06 -3.6382e-06 -6.2605e-05
0.000605598 0.000184919 7.18403e-06
0.000184919 -0.000370841 3.60449e-05
7.18403e-06 3.60449e-05 -0.000327861
0.00651555 -0.000246437 -5.28988e-05
-0.000246437 0.00215903 -1.19676e-05
-5.28988e-05 -1.19676e-05 0.00109886
0.00226747 0.000123286 7.16518e-06
0.000123286 -0.000314435 2.38607e-05
7.16518e-06 2.38607e-05 -0.00117985
0.000202623 -0.000470818 -3.50143e-05
-0.000470818 -0.000258131 -9.55322e-06
-3.50143e-05 -9.55322e-06 6.38914e-05
0.000743706 -0.000265333 -3.56938e-05
-0.000265333 -0.00152262 5.82847e-06
-3.56938e-05 5.82847e-06 -0.000696687
0.000962674 -6.44231e-06 -2.57768e-10
-6.44231e-06 0.000105194 -4.09632e-07
-2.57768e-10 -4.09632e-07 2.68529e-05
0.000962645 1.89248e-05 -2.15752e-07
1.89248e-05 0.000102067 1.50637e-07
-2.15752e-07 1.50637e-07 2.40543e-05
0.00115943 5.71164e-05 -1.79576e-07
5.71164e-05 0.000212234 -1.90375e-06
-1.79576e-07 -1.90375e-06 0.000139585
0.000839177 2.11231e-06 -1.77636e-07
2.11231e-06 2.61893e-05 -2.17114e-07
-1.77636e-07 -2.17114e-07 -2.4118e-05
0.000895769 4.75462e-06 -6.25138e-07
4.75462e-06 5.65177e-05 -2.78404e-07
-6.25138e-07 -2.78404e-07 -2.11497e-06
0.000834765 -2.73544e-05 -2.76288e-07
-2.73544e-05 2.60508e-05 -4.04884e-07
-2.76288e-07 -4.04884e-07 -3.53152e-05
0.000927725 -1.13305e-05 -8.69832e-08
-1.13305e-05 8.0775e-05 -1.80126e-08
-8.69832e-08 -1.80126e-08 1.54868e-05
0.000926371 -1.69488e-05 -2.45065e-08
-1.69488e-05 8.28875e-05 6.62872e-07
-2.45065e-08 6.62872e-07 9.28753e-06
0.000737455 -2.64278e-06 4.30023e-07
-2.64278e-06 -3.2617e-05 3.85144e-07
4.30023e-07 3.85144e-07 -8.16936e-05
0.000860924 -8.7533e-06 -8.48953e-08
-8.7533e-06 4.29917e-05 -2.60907e-07
-8.48953e-08 -2.60907e-07 -2.06303e-05
0.000937577 -2.20737e-05 -1.79438e-07
-2.20737e-05 7.7803e-05 3.19004e-07
-1.79438e-07 3.19004e-07 1.446e-05
0.000894221 2.06715e-05 4.59418e-07
2.06715e-05 5.51923e-05 -1.84077e-07
4.59418e-07 -1.84077e-07 -6.2527e-06
0.000920266 2.67359e-06 5.57261e-08
2.67359e-06 7.53063e-05 8.83498e-09
5.57261e-08 8.83498e-09 7.94735e-06
0.000835096 -1.4339e-05 6.90417e-07
-1.4339e-05 2.02059e-05 -2.60369e-07
6.90417e-07 -2.60369e-07 -4.44634e-05
0.000976233 2.58151e-05 -3.26671e-08
2.58151e-05 0.000100259 -1.85281e-06
-3.26671e-08 -1.85281e-06 3.31882e-05
0.000950675 -5.64676e-05 1.71098e-07
-5.64676e-05 8.05562e-05 -7.89036e-08
1.71098e-07 -7.89036e-08 1.68789e-05
0.00093907 -3.65374e-05 -3.20341e-07
-3.65374e-05 8.00558e-05 -1.54331e-07
-3.20341e-07 -1.54331e-07 1.86039e-05
0.000939298 -4.31747e-06 -3.5997e-07
-4.31747e-06 8.06581e-05 -5.42934e-08
-3.5997e-07 -5.42934e-08 2.02052e-05
0.000945162 4.83264e-05 -3.33198e-07
4.83264e-05 8.40618e-05 -2.80883e-07
-3.33198e-07 -2.80883e-07 2.02801e-05
0.000925666 2.27249e-05 -1.15692e-08
2.27249e-05 7.37452e-05 -3.25329e-07
-1.15692e-08 -3.25329e-07 5.87848e-06
0.0008903 4.38934e-05 2.10914e-07
4.38934e-05 6.00785e-05 5.85871e-08
2.10914e-07 5.85871e-08 -3.76402e-06
0.000998904 6.28094e-05 -1.01931e-08
6.28094e-05 0.000111721 -3.7281e-07
-1.01931e-08 -3.7281e-07 4.51861e-05
0.000826436 2.3229e-05 1.09661e-06
2.3229e-05 3.64139e-05 1.44064e-06
1.09661e-06 1.44064e-06 -3.36034e-05
0.000843454 1.69338e-05 -1.54392e-08
1.69338e-05 3.51878e-05 3.52822e-07
-1.54392e-08 3.52822e-07 -2.24225e-05
0.000856813 2.06156e-06 -6.17308e-08
2.06156e-06 4.3849e-05 -2.86411e-08
-6.17308e-08 -2.86411e-08 -1.52638e-05
0.000845252 8.25768e-06 -8.31767e-07
8.25768e-06 2.38791e-05 5.82029e-07
-8.31767e-07 5.82029e-07 -2.1493e-05
0.000858416 1.20189e-05 3.45478e-07
1.20189e-05 3.58344e-05 -4.59102e-07
3.45478e-07 -4.59102e-07 -2.10461e-05
0.000806299 -1.48027e-05 7.2569e-09
-1.48027e-05 3.14495e-06 2.35044e-08
7.2569e-09 2.35044e-08 -4.37064e-05
0.0008225 1.43857e-05 -3.72418e-07
1.43857e-05 3.07673e-06 1.60652e-06
-3.72418e-07 1.60652e-06 -2.55637e-05
0.00075044 7.58379e-06 3.08948e-07
7.58379e-06 -2.35228e-05 -2.90687e-07
3.08948e-07 -2.90687e-07 -7.37141e-05
0.000816951 6.8804e-06 -1.56266e-07
6.8804e-06 -6.36756e-07 -4.31029e-09
-1.56266e-07 -4.31029e-09 -2.90227e-05
0.00135578 1.1502e-05 -2.79843e-06
1.1502e-05 0.000282564 4.28457e-06
-2.79843e-06 4.28457e-06 0.000284027
0.000810677 -3.04346e-06 4.99799e-07
-3.04346e-06 -4.14893e-06 -1.44778e-06
4.99799e-07 -1.44778e-06 -3.24069e-05
0.00106194 5.99872e-06 -1.26816e-06
5.99872e-06 0.000122006 6.31662e-07
-1.26816e-06 6.31662e-07 0.000122332
0.000979153 3.13855e-06 -2.66424e-06
3.13855e-06 7.80835e-05 3.94534e-06
-2.66424e-06 3.94534e-06 9.46426e-05
0.000770397 7.17673e-07 -4.3854e-08
7.17673e-07 -3.66095e-05 -3.0243e-06
-4.3854e-08 -3.0243e-06 -3.73626e-05
0.0021085 -4.7088e-07 2.17836e-06
-4.7088e-07 0.000688602 -1.99405e-10
2.17836e-06 -1.99405e-10 0.000711189
0.000986521 -3.82237e-06 -1.94531e-06
-3.82237e-06 8.18517e-05 -3.92641e-06
-1.94531e-06 -3.92641e-06 9.88356e-05
0.000850136 4.3091e-05 4.05635e-07
4.3091e-05 3.41841e-05 -1.95239e-07
4.05635e-07 -1.95239e-07 -1.1508e-05
0.000828444 -7.34839e-07 -1.0282e-07
-7.34839e-07 3.17405e-06 -1.62621e-06
-1.0282e-07 -1.62621e-06 -2.13201e-05
0.000828795 3.00319e-06 -5.72452e-08
3.00319e-06 3.54827e-06 -2.14506e-09
-5.72452e-08 -2.14506e-09 -2.15812e-05
0.000771844 4.79395e-06 -3.40151e-09
4.79395e-06 -3.65758e-05 -3.15452e-06
-3.40151e-09 -3.15452e-06 -3.53643e-05
0.000826159 6.63446e-06 -2.08405e-07
6.63446e-06 2.87817e-06 1.57789e-06
-2.08405e-07 1.57789e-06 -2.34667e-05
0.000765247 1.02987e-05 5.18785e-08
1.02987e-05 -3.85949e-05 -6.48299e-07
5.18785e-08 -6.48299e-07 -3.83693e-05
0.00205704 1.38551e-05 7.1194e-06
1.38551e-05 0.0006627 -4.03723e-06
7.1194e-06 -4.03723e-06 0.000685501
0.00131653 1.98474e-05 -1.23003e-06
1.98474e-05 0.000262879 1.9862e-06
-1.23003e-06 1.9862e-06 0.000264265
0.00154526 1.82623e-05 3.62699e-07
1.82623e-05 0.000389642 1.26739e-06
3.62699e-07 1.26739e-06 0.000408266
0.00102555 2.05945e-05 -1.48786e-05
2.05945e-05 0.000113176 6.53556e-06
-1.48786e-05 6.53556e-06 0.000127522
-0.000412344 2.08713e-05 8.9707e-06
2.08713e-05 -0.00113454 4.60794e-06
8.9707e-06 4.60794e-06 -0.00120945
0.00198283 4.28582e-06 2.7428e-06
4.28582e-06 0.000179727 -9.35379e-08
2.7428e-06 -9.35379e-08 9.87128e-05
0.00207106 2.33019e-05 2.30851e-06
2.33019e-05 0.000206174 -2.13282e-06
2.30851e-06 -2.13282e-06 0.000142476
0.00108811 -4.91514e-05 2.67323e-05
-4.91514e-05 -0.000319269 -1.97897e-06
2.67323e-05 -1.97897e-06 -0.000588494
0.00173692 -3.45721e-05 -1.65669e-06
-3.45721e-05 2.93626e-05 2.43703e-07
-1.65669e-06 2.43703e-07 -5.51389e-05
0.00182816 1.19924e-05 -3.68649e-06
1.19924e-05 5.5317e-06 -1.92939e-06
-3.68649e-06 -1.92939e-06 -7.21811e-05
0.00205072 1.96028e-05 -1.28516e-05
1.96028e-05 0.000221157 2.20648e-06
-1.28516e-05 2.20648e-06 0.000129923
0.00144496 -7.67632e-05 0.000128743
-7.67632e-05 -8.3068e-05 -4.02934e-06
0.000128743 -4.02934e-06 -0.000436984
0.00699752 7.01121e-05 -1.98906e-05
7.01121e-05 0.00225891 -4.65005e-07
-1.98906e-05 -4.65005e-07 0.00145963
0.00380585 0.000569466 -5.35358e-06
0.000569466 0.00169344 7.83518e-07
-5.35358e-06 7.83518e-07 0.00190909
0.00225674 0.000521075 -1.9404e-05
0.000521075 0.00051641 7.87921e-06
-1.9404e-05 7.87921e-06 0.00146755
0.000729942 -4.49734e-05 1.06622e-06
-4.49734e-05 -1.93795e-05 -5.89561e-07
1.06622e-06 -5.89561e-07 -7.70507e-05
0.000859615 -1.06404e-05 1.77749e-07
-1.06404e-05 3.75813e-05 -3.90534e-08
1.77749e-07 -3.90534e-08 -6.64294e-06
0.000851152 -4.88774e-05 -8.65711e-07
-4.88774e-05 3.65178e-05 8.30026e-07
-8.65711e-07 8.30026e-07 -1.04511e-05
0.000826932 -1.42279e-05 -3.25432e-07
-1.42279e-05 3.07536e-05 3.63826e-08
-3.25432e-07 3.63826e-08 -2.70143e-05
0.000844292 4.01709e-05 5.2747e-08
4.01709e-05 5.0083e-05 7.40753e-07
5.2747e-08 7.40753e-07 -1.83764e-05
0.000923155 5.87016e-05 2.59142e-07
5.87016e-05 8.47911e-05 8.04212e-07
2.59142e-07 8.04212e-07 2.06856e-05
0.000896667 -3.09159e-05 7.60329e-07
-3.09159e-05 6.90392e-05 -7.43441e-07
7.60329e-07 -7.43441e-07 1.14406e-05
0.000817262 -4.12489e-05 -5.41303e-07
-4.12489e-05 2.84637e-05 4.95292e-07
-5.41303e-07 4.95292e-07 -2.96159e-05
0.0016127 -1.99954e-05 3.85161e-06
-1.99954e-05 -2.068e-05 -1.36205e-06
3.85161e-06 -1.36205e-06 -9.79909e-05
0.0015157 -6.08874e-05 -4.156e-06
-6.08874e-05 -0.000154107 2.77964e-08
-4.156e-06 2.77964e-08 -0.000240852
0.00153135 -0.000164152 -3.87665e-06
-0.000164152 -4.98225e-05 2.81651e-06
-3.87665e-06 2.81651e-06 -0.000140566
0.000874995 -0.000110526 1.26592e-06
-0.000110526 5.41349e-05 1.63827e-06
1.26592e-06 1.63827e-06 -7.5954e-05
0.0017488 -0.000184003 2.04984e-06
-0.000184003 0.000361464 -1.0731e-07
2.04984e-06 -1.0731e-07 0.000195506
0.000971409 -7.87596e-05 -6.27402e-07
-7.87596e-05 0.000141554 -6.69402e-07
-6.27402e-07 -6.69402e-07 2.12478e-05
0.00120261 -7.32456e-05 1.57693e-07
-7.32456e-05 0.000258457 -4.39466e-08
1.57693e-07 -4.39466e-08 0.000148316
0.000832205 -2.05596e-05 -8.24804e-07
-2.05596e-05 5.11695e-05 4.35605e-07
-8.24804e-07 4.35605e-07 -3.18464e-05
0.000835904 6.86896e-06 4.21294e-07
6.86896e-06 4.23382e-05 4.91289e-07
4.21294e-07 4.91289e-07 -2.47321e-05
0.00100388 8.84428e-06 -8.05074e-07
8.84428e-06 0.000128158 -2.53185e-08
-8.05074e-07 -2.53185e-08 5.34378e-05
0.00103746 5.55054e-07 4.60322e-07
5.55054e-07 0.000143222 5.18643e-08
4.60322e-07 5.18643e-08 8.47763e-05
0.000822296 7.68905e-05 1.16024e-06
7.68905e-05 3.387e-05 1.36561e-06
1.16024e-06 1.36561e-06 -3.99026e-05
0.00160573 -1.55949e-05 -5.34875e-07
-1.55949e-05 -0.000102682 -2.8589e-06
-5.34875e-07 -2.8589e-06 -0.000183924
0.000863284 2.64298e-05 -3.03352e-07
2.64298e-05 5.73619e-05 3.43049e-07
-3.03352e-07 3.43049e-07 -1.69456e-05
0.000861418 -2.21112e-05 -3.5275e-07
-2.21112e-05 5.83724e-05 -3.47179e-07
-3.5275e-07 -3.47179e-07 -1.63906e-05
0.00220285 -0.000161885 9.61671e-07
-0.000161885 0.000177637 2.19724e-06
9.61671e-07 2.19724e-06 0.000100242
0.00102089 -0.000162013 1.42882e-06
-0.000162013 -0.000159405 -2.62569e-07
1.42882e-06 -2.62569e-07 -0.000275242
0.00116174 -0.000146274 5.64332e-07
-0.000146274 0.000207878 -1.16585e-06
5.64332e-07 -1.16585e-06 5.39072e-05
0.00098165 -2.30187e-05 1.19393e-07
-2.30187e-05 0.000121547 -3.53047e-07
1.19393e-07 -3.53047e-07 3.65937e-05
0.00098719 -2.50094e-05 5.84511e-07
-2.50094e-05 0.000158621 4.65006e-07
5.84511e-07 4.65006e-07 2.37748e-05
0.00291303 -0.000110695 -8.86273e-06
-0.000110695 0.000653131 9.26479e-06
-8.86273e-06 9.26479e-06 0.000568568
0.0024566 -0.000237218 -5.95198e-06
-0.000237218 0.000391235 -6.32141e-06
-5.95198e-06 -6.32141e-06 0.000319773
-0.000398844 -0.000108246 -4.23094e-06
-0.000108246 -0.000689903 -6.5527e-07
-4.23094e-06 -6.5527e-07 -0.000821033
0.00147961 -9.6779e-05 -4.28016e-06
-9.6779e-05 0.000399421 2.19995e-06
-4.28016e-06 2.19995e-06 0.000237746
0.000734923 -6.63866e-05 8.10156e-07
-6.63866e-05 -1.3438e-05 9.45972e-08
8.10156e-07 9.45972e-08 -8.85494e-05
0.000955682 -3.79544e-05 1.37034e-06
-3.79544e-05 0.000102308 1.19588e-07
1.37034e-06 1.19588e-07 2.21556e-05
0.000892392 -1.44511e-05 -2.43955e-06
-1.44511e-05 7.82668e-05 2.16686e-08
-2.43955e-06 2.16686e-08 -1.92388e-05
-0.0035581 -2.0407e-05 3.01917e-06
-2.0407e-05 -0.00162381 -6.69756e-07
3.01917e-06 -6.69756e-07 -0.00140021
0.00735696 -3.37181e-05 -2.46907e-05
-3.37181e-05 0.00250993 -5.5777e-07
-2.46907e-05 -5.5777e-07 0.00192947
0.000873084 3.60417e-05 1.6623e-06
3.60417e-05 7.33847e-05 -4.1476e-07
1.6623e-06 -4.1476e-07 -1.97573e-05
0.000961654 0.000105331 2.59584e-06
0.000105331 0.00013296 4.26548e-07
2.59584e-06 4.26548e-07 1.60377e-05
0.00167216 9.94076e-05 3.46769e-08
9.94076e-05 -7.91538e-05 3.51339e-06
3.46769e-08 3.51339e-06 -6.41488e-05
0.00220819 0.00024733 1.33991e-06
0.00024733 0.000322443 7.45772e-07
1.33991e-06 7.45772e-07 0.000215107
0.00103867 0.000130549 4.25221e-06
0.000130549 0.0001485 1.40022e-06
4.25221e-06 1.40022e-06 -4.07388e-05
0.00534813 6.9471e-05 4.09346e-05
6.9471e-05 0.00148063 -9.58151e-06
4.09346e-05 -9.58151e-06 0.000664921
0.00415409 -1.60952e-05 -7.26491e-05
-1.60952e-05 0.000538891 -2.40244e-05
-7.26491e-05 -2.40244e-05 6.15947e-05
0.000417733 0.000121806 -7.67514e-07
0.000121806 -0.000496734 -2.12298e-05
-7.67514e-07 -2.12298e-05 -0.00053299
0.00346999 -0.000454657 2.91831e-05
-0.000454657 0.00172914 1.54981e-05
2.91831e-05 1.54981e-05 0.00169554
-0.00234886 -0.000571338 6.99832e-06
-0.000571338 -0.00241003 -2.01136e-05
6.99832e-06 -2.01136e-05 -0.00106545
0.00100452 8.23048e-05 1.48518e-07
8.23048e-05 0.000150673 -3.66843e-07
1.48518e-07 -3.66843e-07 5.58163e-05
-0.00272442 -0.000118678 6.68732e-06
-0.000118678 -0.00129634 -7.52452e-07
6.68732e-06 -7.52452e-07 -0.00114819
-8.54553e-05 -0.000285372 -1.31289e-05
-0.000285372 -0.000198235 -3.71976e-06
-1.31289e-05 -3.71976e-06 -7.85618e-05
0.00227449 0.000165698 -2.29913e-06
0.000165698 0.000280606 -2.58142e-06
-2.29913e-06 -2.58142e-06 0.000318934
0.0009088 7.32472e-05 -7.84886e-08
7.32472e-05 0.000139287 -7.43821e-07
-7.84886e-08 -7.43821e-07 6.14164e-06
0.000591587 0.000128706 3.78662e-07
0.000128706 -0.000119736 4.19116e-07
3.78662e-07 4.19116e-07 -0.00031893
-2.75789e-05 0.000115581 1.56354e-05
0.000115581 -0.00062922 9.68343e-06
1.56354e-05 9.68343e-06 -0.000563122
0.00512213 -0.000187735 -2.23265e-06
-0.000187735 0.00136234 -1.37094e-06
-2.23265e-06 -1.37094e-06 0.000224616
0.00480696 0.000204074 -2.43327e-05
0.000204074 0.00101797 -1.70434e-05
-2.43327e-05 -1.70434e-05 0.000407399
0.00385839 -0.000648862 1.46041e-05
-0.000648862 0.00140342 -5.30675e-06
1.46041e-05 -5.30675e-06 0.00153178
0.000966602 -0.000325652 1.25317e-05
-0.000325652 -0.00157192 3.17764e-05
1.25317e-05 3.17764e-05 -0.000568504
0.00115209 5.26655e-05 -3.3416e-06
5.26655e-05 0.000235567 -3.3196e-06
-3.3416e-06 -3.3196e-06 0.000151799
-0.0012185 -9.93064e-05 -6.52633e-05
-9.93064e-05 -0.000414958 -1.26417e-05
-6.52633e-05 -1.26417e-05 -0.000690655
0.00199176 -3.09715e-05 -4.33176e-05
-3.09715e-05 0.000174951 -3.94559e-05
-4.33176e-05 -3.94559e-05 1.55762e-05
0.00101407 0.000124621 -1.4208e-05
0.000124621 -3.98199e-05 -6.81413e-06
-1.4208e-05 -6.81413e-06 -4.85507e-05
0.00156847 0.000138278 -1.35946e-05
0.000138278 0.000531083 -4.48221e-06
-1.35946e-05 -4.48221e-06 0.000373696
0.00130095 7.63342e-05 -2.33204e-05
7.63342e-05 0.000366824 -3.97417e-06
-2.33204e-05 -3.97417e-06 0.000306305
0.00378147 0.000439882 -0.000100229
0.000439882 0.000816433 1.27065e-05
-0.000100229 1.27065e-05 0.000311362
-0.000284784 -0.000237226 2.73541e-05
-0.000237226 -0.000831178 3.09693e-05
2.73541e-05 3.09693e-05 -0.00227647
0.00671392 -0.000651687 -5.38851e-05
-0.000651687 0.00180048 4.03061e-06
-5.38851e-05 4.03061e-06 0.00204105
0.000619468 -0.000152842 -1.20718e-05
-0.000152842 -0.00192402 -1.63109e-05
-1.20718e-05 -1.63109e-05 -0.0011764
0.000901014 2.7663e-05 3.94695e-07
2.7663e-05 7.33699e-05 1.46603e-06
3.94695e-07 1.46603e-06 -6.21947e-06
0.00107939 5.50204e-05 1.11749e-06
5.50204e-05 0.000170085 7.94977e-07
1.11749e-06 7.94977e-07 9.64978e-05
0.000645744 5.46637e-05 6.36838e-07
5.46637e-05 -4.5292e-05 -4.38938e-06
6.36838e-07 -4.38938e-06 -0.000111401
0.0007503 2.77523e-05 1.42255e-07
2.77523e-05 -2.57928e-05 -2.37486e-07
1.42255e-07 -2.37486e-07 -7.49238e-05
0.000954605 3.15268e-05 -6.38292e-07
3.15268e-05 9.05935e-05 -3.0641e-07
-6.38292e-07 -3.0641e-07 2.79971e-05
0.00100237 -3.62759e-05 -2.46224e-07
-3.62759e-05 0.000112754 2.62845e-07
-2.46224e-07 2.62845e-07 4.96491e-05
0.000862588 -1.55684e-05 -6.47798e-07
-1.55684e-05 4.53136e-05 -2.77377e-07
-6.47798e-07 -2.77377e-07 -1.84335e-05
0.000930705 -3.82533e-07 -8.4508e-07
-3.82533e-07 8.01085e-05 1.13779e-06
-8.4508e-07 1.13779e-06 1.28689e-05
0.000928095 1.8389e-05 3.94079e-07
1.8389e-05 7.49048e-05 -3.84935e-07
3.94079e-07 -3.84935e-07 1.30228e-05
0.000915821 -1.77664e-05 -5.31638e-08
-1.77664e-05 6.52301e-05 3.34018e-08
-5.31638e-08 3.34018e-08 3.10224e-07
0.000933801 -3.93969e-05 1.74765e-07
-3.93969e-05 7.27221e-05 9.40691e-08
1.74765e-07 9.40691e-08 8.14006e-06
0.000929842 8.33107e-06 1.40844e-07
8.33107e-06 7.65336e-05 -9.76858e-09
1.40844e-07 -9.76858e-09 1.14663e-05
0.00113788 -2.82595e-05 1.66158e-06
-2.82595e-05 0.000185197 -1.32379e-06
1.66158e-06 -1.32379e-06 0.000123909
0.000929554 -2.77705e-05 2.56177e-07
-2.77705e-05 6.39597e-05 -7.45022e-07
2.56177e-07 -7.45022e-07 -3.67553e-07
0.000932501 2.86555e-06 2.6956e-07
2.86555e-06 7.60826e-05 -1.26537e-07
2.6956e-07 -1.26537e-07 7.63647e-06
0.000945497 -2.9016e-05 1.26606e-08
-2.9016e-05 8.65305e-05 -4.25963e-07
1.26606e-08 -4.25963e-07 2.41734e-05
0.000880197 2.10098e-05 -2.68227e-07
2.10098e-05 4.50666e-05 -2.92856e-07
-2.68227e-07 -2.92856e-07 -1.63059e-05
0.000917442 -1.85768e-06 2.4198e-07
-1.85768e-06 6.89595e-05 -2.3883e-07
2.4198e-07 -2.3883e-07 1.62982e-06
0.000874344 4.25078e-05 -1.39765e-07
4.25078e-05 5.10784e-05 -5.34199e-09
-1.39765e-07 -5.34199e-09 -1.24287e-05
0.000947212 3.912e-05 -4.78131e-07
3.912e-05 8.08476e-05 -2.59011e-07
-4.78131e-07 -2.59011e-07 1.65345e-05
0.000836212 3.90326e-05 8.8683e-07
3.90326e-05 3.55466e-05 6.82442e-07
8.8683e-07 6.82442e-07 -2.96032e-05
0.000928217 3.93117e-05 4.26376e-07
3.93117e-05 7.31816e-05 -2.86636e-07
4.26376e-07 -2.86636e-07 4.53724e-06
0.00090117 3.64823e-05 2.69356e-07
3.64823e-05 6.1312e-05 3.20995e-09
2.69356e-07 3.20995e-09 -4.172e-06
0.00085534 1.17739e-05 1.50441e-06
1.17739e-05 4.97328e-05 5.49409e-07
1.50441e-06 5.49409e-07 -3.10581e-05
0.000763547 -4.95372e-05 8.16796e-08
-4.95372e-05 3.15155e-05 5.33848e-07
8.16796e-08 5.33848e-07 -7.14317e-05
0.00066651 1.05205e-05 -3.93306e-08
1.05205e-05 -4.22067e-05 5.19704e-07
-3.93306e-08 5.19704e-07 -0.000120181
0.000858869 2.32635e-05 2.50221e-07
2.32635e-05 5.45804e-05 4.46219e-07
2.50221e-07 4.46219e-07 -1.58932e-05
0.000855964 2.54948e-05 3.97282e-07
2.54948e-05 4.38947e-05 9.50063e-07
3.97282e-07 9.50063e-07 -1.62706e-05
0.000863856 1.29822e-05 -1.88883e-07
1.29822e-05 4.72457e-05 -6.29128e-08
-1.88883e-07 -6.29128e-08 -1.13481e-05
0.00084432 2.39586e-05 -4.10663e-07
2.39586e-05 2.65147e-05 6.54969e-07
-4.10663e-07 6.54969e-07 -1.98879e-05
0.000879606 1.16882e-05 2.36447e-07
1.16882e-05 5.39419e-05 -1.61973e-07
2.36447e-07 -1.61973e-07 -3.87749e-06
0.000856712 3.21748e-06 -9.98433e-08
3.21748e-06 3.06523e-05 7.05648e-09
-9.98433e-08 7.05648e-09 -1.52918e-05
0.000818185 1.82901e-05 -7.24428e-07
1.82901e-05 2.77642e-06 1.62013e-06
-7.24428e-07 1.62013e-06 -2.63606e-05
0.000758514 -2.00196e-06 4.54713e-07
-2.00196e-06 -2.40748e-05 -5.78667e-07
4.54713e-07 -5.78667e-07 -7.02761e-05
0.000820956 1.01891e-05 -6.86361e-08
1.01891e-05 2.02474e-06 -2.58659e-09
-6.86361e-08 -2.58659e-09 -2.65206e-05
0.00135068 1.7388e-05 -4.52516e-06
1.7388e-05 0.000282271 4.28856e-06
-4.52516e-06 4.28856e-06 0.000283338
0.000815183 1.44111e-06 6.02091e-07
1.44111e-06 -1.82971e-06 -1.50058e-06
6.02091e-07 -1.50058e-06 -3.01232e-05
0.00105918 1.14616e-05 -2.00472e-06
1.14616e-05 0.000122131 6.15231e-07
-2.00472e-06 6.15231e-07 0.0001222
0.000930183 1.00451e-05 -5.98614e-07
1.00451e-05 5.30519e-05 1.54409e-06
-5.98614e-07 1.54409e-06 6.95069e-05
0.000765151 5.51943e-06 2.48225e-07
5.51943e-06 -3.88211e-05 -3.03701e-06
2.48225e-07 -3.03701e-06 -3.9881e-05
0.00211706 6.64623e-06 1.99128e-06
6.64623e-06 0.000693745 1.60298e-08
1.99128e-06 1.60298e-08 0.000716133
0.00211237 2.67477e-08 9.34436e-07
2.67477e-08 0.000690697 -4.06031e-06
9.34436e-07 -4.06031e-06 0.00071323
0.00109322 2.90009e-05 -9.90903e-07
2.90009e-05 0.000162058 -4.02049e-07
-9.90903e-07 -4.02049e-07 0.000118341
0.000827293 -4.69055e-06 -2.68697e-07
-4.69055e-06 3.03617e-06 -1.5933e-06
-2.68697e-07 -1.5933e-06 -2.15759e-05
0.000851755 2.42075e-06 6.84839e-07
2.42075e-06 3.48116e-05 4.5865e-07
6.84839e-07 4.5865e-07 -1.05073e-05
0.00077737 -6.67893e-07 -1.14986e-07
-6.67893e-07 -3.40677e-05 -3.12065e-06
-1.14986e-07 -3.12065e-06 -3.23808e-05
0.0008314 -1.2359e-06 3.70103e-08
-1.2359e-06 4.73283e-06 2.34658e-09
3.70103e-08 2.34658e-09 -1.97715e-05
0.000827666 2.32677e-06 -1.56427e-07
2.32677e-06 2.81062e-06 1.5875e-06
-1.56427e-07 1.5875e-06 -2.22842e-05
0.000774842 5.01503e-06 -1.42754e-07
5.01503e-06 -3.49604e-05 1.04097e-08
-1.42754e-07 1.04097e-08 -3.37853e-05
0.00202911 6.5985e-06 3.17041e-06
6.5985e-06 0.000646059 -4.04869e-06
3.17041e-06 -4.04869e-06 0.000669481
0.00130738 1.33713e-05 -7.23876e-07
1.33713e-05 0.000254692 1.9346e-06
-7.23876e-07 1.9346e-06 0.000257648
0.00150564 1.23682e-05 2.05157e-06
1.23682e-05 0.000364708 3.7329e-08
2.05157e-06 3.7329e-08 0.00038454
0.00101158 1.51071e-05 -1.25085e-05
1.51071e-05 0.000100659 6.51444e-06
-1.25085e-05 6.51444e-06 0.000116581
-0.00509506 0.000116213 1.55909e-07
0.000116213 -0.00244821 3.73431e-06
1.55909e-07 3.73431e-06 -0.00240498
-0.0012602 0.000246439 -7.72045e-06
0.000246439 -0.000693605 1.62689e-05
-7.72045e-06 1.62689e-05 -0.000569163
0.00108066 -1.84941e-05 -0.000104517
-1.84941e-05 -0.000373849 -1.18625e-05
-0.000104517 -1.18625e-05 -0.000625958
0.0024313 -3.64922e-05 6.78077e-06
-3.64922e-05 0.000452555 -3.73527e-08
6.78077e-06 -3.73527e-08 0.000355144
0.00143877 7.42122e-06 -8.23735e-06
7.42122e-06 -0.000235621 -1.05219e-06
-8.23735e-06 -1.05219e-06 -0.000310473
0.00131899 -1.07304e-05 2.36297e-05
-1.07304e-05 2.05607e-05 -2.28345e-06
2.36297e-05 -2.28345e-06 -0.000248312
0.00215038 2.56419e-05 -1.09434e-07
2.56419e-05 0.000277573 1.57039e-06
-1.09434e-07 1.57039e-06 0.000190019
0.00520161 0.000251467 -2.05718e-05
0.000251467 0.00130877 -9.25505e-06
-2.05718e-05 -9.25505e-06 0.000634628
-0.00331493 0.000264817 -1.41633e-05
0.000264817 -0.00134522 -8.87115e-07
-1.41633e-05 -8.87115e-07 -0.00137623
-1.30197e-05 0.000550587 1.05478e-06
0.000550587 -0.000994596 -5.06462e-06
1.05478e-06 -5.06462e-06 0.000181674
0.00161288 -2.11451e-05 5.26113e-05
-2.11451e-05 0.000112589 -7.61031e-06
5.26113e-05 -7.61031e-06 -0.000129711
0.00674259 0.000410668 1.53949e-05
0.000410668 0.00216845 -5.20115e-06
1.53949e-05 -5.20115e-06 0.0012322
2.4426e-05 0.000478417 -3.56597e-05
0.000478417 -0.000311882 4.25001e-06
-3.56597e-05 4.25001e-06 8.52161e-05
0.00329978 0.000320518 -5.01388e-05
0.000320518 2.78494e-05 2.65386e-05
-5.01388e-05 2.65386e-05 0.000786196
0.000854947 3.77896e-05 -7.4821e-07
3.77896e-05 5.34055e-05 9.43142e-08
-7.4821e-07 9.43142e-08 -1.77003e-05
0.000779014 -9.11408e-06 3.58222e-08
-9.11408e-06 5.96604e-06 -3.1941e-07
3.58222e-08 -3.1941e-07 -5.10121e-05
0.000849023 -4.65608e-05 -8.30753e-07
-4.65608e-05 3.41768e-05 8.12539e-07
-8.30753e-07 8.12539e-07 -1.15573e-05
0.000771608 5.48743e-06 2.11373e-07
5.48743e-06 2.94973e-06 3.08136e-07
2.11373e-07 3.08136e-07 -5.6139e-05
0.000864892 4.67008e-05 7.43972e-07
4.67008e-05 6.18804e-05 7.28002e-07
7.43972e-07 7.28002e-07 -6.18545e-06
0.00090262 2.8943e-05 -7.60456e-07
2.8943e-05 7.85652e-05 4.11534e-07
-7.60456e-07 4.11534e-07 8.80637e-06
0.000886174 3.77638e-05 1.18068e-06
3.77638e-05 7.06483e-05 9.53417e-07
1.18068e-06 9.53417e-07 2.43905e-06
0.00084397 -2.60692e-05 5.70493e-07
-2.60692e-05 3.93439e-05 2.01849e-07
5.70493e-07 2.01849e-07 -2.2355e-05
0.000839419 -2.87833e-05 4.3376e-07
-2.87833e-05 4.07477e-05 -5.43636e-07
4.3376e-07 -5.43636e-07 -1.93033e-05
0.000766345 -3.82818e-05 -7.92781e-08
-3.82818e-05 2.45187e-06 5.07056e-07
-7.92781e-08 5.07056e-07 -5.7024e-05
0.00145071 -1.25065e-05 8.28245e-07
-1.25065e-05 -0.000184166 -1.92076e-06
8.28245e-07 -1.92076e-06 -0.000264178
0.00237153 -0.000165358 -2.02361e-06
-0.000165358 0.000274096 4.7054e-06
-2.02361e-06 4.7054e-06 0.000197215
9.11903e-05 -0.000123859 4.04494e-06
-0.000123859 -0.000624354 1.11226e-06
4.04494e-06 1.11226e-06 -0.00073077
0.00113138 -0.000147122 1.81008e-06
-0.000147122 0.000185441 4.28892e-07
1.81008e-06 4.28892e-07 2.58999e-05
0.00113796 -4.3839e-05 3.10568e-06
-4.3839e-05 0.000238709 -2.45617e-07
3.10568e-06 -2.45617e-07 0.000104025
0.00106345 -3.93201e-05 -1.35657e-07
-3.93201e-05 0.000164325 -4.44149e-07
-1.35657e-07 -4.44149e-07 7.76168e-05
0.000860433 -1.71303e-05 -9.89375e-07
-1.71303e-05 5.34905e-05 -2.02666e-07
-9.89375e-07 -2.02666e-07 -1.9504e-05
0.00088594 2.73119e-05 -5.60562e-07
2.73119e-05 7.02975e-05 5.19938e-08
-5.60562e-07 5.19938e-08 -2.48806e-06
0.00166279 -7.83194e-05 -6.22866e-06
-7.83194e-05 1.52895e-05 1.74384e-06
-6.22866e-06 1.74384e-06 -6.0784e-05
0.000797781 -3.05872e-05 -1.62951e-07
-3.05872e-05 1.95531e-05 1.01689e-07
-1.62951e-07 1.01689e-07 -5.64011e-05
0.000901405 -4.19418e-05 5.24307e-07
-4.19418e-05 7.29855e-05 -2.99233e-07
5.24307e-07 -2.99233e-07 -7.93517e-06
0.00216523 -0.000224705 1.48712e-06
-0.000224705 0.000253214 -1.45899e-06
1.48712e-06 -1.45899e-06 0.000179717
0.000256749 -0.000133777 1.03756e-06
-0.000133777 -0.000341392 8.68152e-07
1.03756e-06 8.68152e-07 -0.000474397
0.00121695 -8.79417e-05 2.87311e-06
-8.79417e-05 0.00025595 -5.64832e-07
2.87311e-06 -5.64832e-07 9.88915e-05
0.000962847 -2.85751e-05 -8.95113e-07
-2.85751e-05 0.000120504 -5.05521e-07
-8.95113e-07 -5.05521e-07 1.70938e-05
0.0025146 -0.000197345 3.09814e-06
-0.000197345 0.000686586 -5.88839e-06
3.09814e-06 -5.88839e-06 0.000537022
0.00197939 -0.0002129 -1.07925e-05
-0.0002129 0.000452856 1.41459e-06
-1.07925e-05 1.41459e-06 0.000352696
0.00084441 -1.99822e-06 -6.76569e-06
-1.99822e-06 8.42954e-05 4.94903e-06
-6.76569e-06 4.94903e-06 -5.04229e-05
0.000885041 2.31744e-05 4.64453e-07
2.31744e-05 6.56892e-05 1.10584e-06
4.64453e-07 1.10584e-06 -1.06348e-05
0.00081398 -7.92547e-05 1.25497e-06
-7.92547e-05 2.46767e-05 3.70966e-07
1.25497e-06 3.70966e-07 -5.75337e-05
0.000985913 -3.70539e-05 -2.55513e-08
-3.70539e-05 0.000105144 1.18295e-06
-2.55513e-08 1.18295e-06 2.10654e-05
0.00102076 4.19323e-06 -6.42303e-05
4.19323e-06 0.000883849 1.0823e-06
-6.42303e-05 1.0823e-06 0.000761692
0.0013515 -2.25923e-05 1.40079e-05
-2.25923e-05 0.000811319 3.71386e-06
1.40079e-05 3.71386e-06 0.000783098
-2.35493e-05 0.000190017 -4.21926e-05
0.000190017 -0.00124333 1.98121e-05
-4.21926e-05 1.98121e-05 -0.00179615
0.000915633 7.96127e-05 1.62125e-06
7.96127e-05 0.000106759 1.19323e-06
1.62125e-06 1.19323e-06 1.18195e-05
0.000647546 7.97036e-05 4.27116e-06
7.97036e-05 1.28009e-05 1.27414e-06
4.27116e-06 1.27414e-06 -0.00012199
0.00355955 0.000204627 5.28095e-06
0.000204627 0.000929243 -1.37374e-06
5.28095e-06 -1.37374e-06 0.000951141
7.61532e-05 9.28722e-05 7.63318e-06
9.28722e-05 -0.000381325 3.66625e-06
7.63318e-06 3.66625e-06 -0.000579888
0.00297786 -0.000289679 5.08467e-05
-0.000289679 0.00130366 9.87028e-06
5.08467e-05 9.87028e-06 0.00148273
0.000895101 -0.000263045 2.98933e-06
-0.000263045 -0.000648881 1.06992e-05
2.98933e-06 1.06992e-05 -0.00155393
0.0039801 0.000218877 -7.89194e-05
0.000218877 0.000406594 -5.6993e-05
-7.89194e-05 -5.6993e-05 -0.000371881
-0.00135382 6.45068e-05 1.15013e-05
6.45068e-05 -0.00123587 -5.29473e-06
1.15013e-05 -5.29473e-06 -0.00118632
-0.0023502 -0.000375766 4.95496e-05
-0.000375766 -0.0013102 1.92262e-05
4.95496e-05 1.92262e-05 -0.00123988
0.00129977 -0.000287302 3.93877e-05
-0.000287302 0.000497391 2.00053e-05
3.93877e-05 2.00053e-05 0.000601382
0.0035677 -0.000387509 5.09329e-05
-0.000387509 -4.62388e-05 3.05159e-05
5.09329e-05 3.05159e-05 0.00105646
0.000949972 6.10546e-05 5.09735e-07
6.10546e-05 0.000134035 -5.42412e-07
5.09735e-07 -5.42412e-07 4.89858e-05
2.05956e-05 -0.000122495 -2.03782e-05
-0.000122495 0.000187856 -5.01635e-06
-2.03782e-05 -5.01635e-06 6.77895e-05
0.0020988 -2.83248e-05 -3.60214e-06
-2.83248e-05 0.000207134 -9.13798e-06
-3.60214e-06 -9.13798e-06 4.78936e-05
0.00132621 0.000106696 -4.88471e-06
0.000106696 0.000154747 -7.87069e-07
-4.88471e-06 -7.87069e-07 9.62812e-05
0.000791154 7.45645e-05 -2.0664e-06
7.45645e-05 0.000145967 -4.72163e-07
-2.0664e-06 -4.72163e-07 -1.73175e-05
-0.000751083 7.09771e-05 1.22833e-05
7.09771e-05 -0.000657097 -1.56059e-05
1.22833e-05 -1.56059e-05 -0.00068716
0.00553134 0.000555062 -2.68217e-05
0.000555062 0.00153193 -1.06028e-05
-2.68217e-05 -1.06028e-05 0.000803234
0.0080319 -0.000395211 9.49552e-06
-0.000395211 0.00270665 5.30215e-06
9.49552e-06 5.30215e-06 0.00150908
0.000486222 -0.000358853 4.86801e-06
-0.000358853 -0.00115767 3.94533e-06
4.86801e-06 3.94533e-06 -0.00086912
0.00387951 -0.000205905 3.72093e-06
-0.000205905 0.000191403 1.12111e-06
3.72093e-06 1.12111e-06 0.000959595
0.00144815 0.000113264 -8.37338e-06
0.000113264 0.000427356 -8.07084e-06
-8.37338e-06 -8.07084e-06 0.000358863
0.00170035 -1.14694e-05 -3.23458e-05
-1.14694e-05 0.000124669 -1.24038e-05
-3.23458e-05 -1.24038e-05 -3.6185e-05
0.00132892 -7.03624e-06 -1.18117e-05
-7.03624e-06 -0.000152154 -2.15598e-05
-1.18117e-05 -2.15598e-05 -0.000231881
-0.000661613 -2.79021e-05 -1.65579e-05
-2.79021e-05 -0.000478564 -1.4704e-05
-1.65579e-05 -1.4704e-05 -0.000586204
0.00318583 0.000299303 -1.18507e-05
0.000299303 0.00107643 4.71865e-05
-1.18507e-05 4.71865e-05 0.000669001
0.00861525 -0.000280453 2.13043e-05
-0.000280453 0.00267765 -1.86987e-06
2.13043e-05 -1.86987e-06 0.00124102
-0.00301252 -0.000202293 -4.96301e-05
-0.000202293 -0.00277353 -2.61198e-05
-4.96301e-05 -2.61198e-05 -0.00300261
0.00440132 3.01907e-05 -1.27978e-06
3.01907e-05 0.000487981 -3.16611e-05
-1.27978e-06 -3.16611e-05 0.0012528
0.000938136 5.36244e-05 2.86414e-07
5.36244e-05 9.61736e-05 2.40588e-06
2.86414e-07 2.40588e-06 2.17016e-05
0.000898773 6.83322e-05 -6.57725e-07
6.83322e-05 8.51413e-05 -1.03289e-06
-6.57725e-07 -1.03289e-06 1.9709e-05
0.000476432 4.1134e-05 1.08632e-06
4.1134e-05 -0.000119889 -3.09809e-06
1.08632e-06 -3.09809e-06 -0.000173341
0.000930415 5.39857e-05 -1.06346e-06
5.39857e-05 7.25557e-05 -6.35312e-07
-1.06346e-06 -6.35312e-07 1.29149e-05
0.000920742 -2.79242e-05 5.47513e-11
-2.79242e-05 6.84313e-05 3.39099e-07
5.47513e-11 3.39099e-07 1.87767e-06
0.000993899 -1.80832e-05 -9.20501e-07
-1.80832e-05 0.000108493 6.06306e-07
-9.20501e-07 6.06306e-07 4.34518e-05
0.000875323 -7.20056e-06 -8.43769e-07
-7.20056e-06 4.92517e-05 1.34325e-06
-8.43769e-07 1.34325e-06 -1.45054e-05
0.00093477 8.30948e-06 3.60833e-07
8.30948e-06 7.24785e-05 -8.43205e-09
3.60833e-07 -8.43205e-09 7.32796e-06
0.000920834 -1.52545e-05 -2.05856e-07
-1.52545e-05 6.06471e-05 4.38343e-08
-2.05856e-07 4.38343e-08 -3.9276e-06
0.00098903 -2.24648e-05 3.61612e-07
-2.24648e-05 0.000107003 5.587e-07
3.61612e-07 5.587e-07 4.53082e-05
0.000954898 -3.70759e-05 5.4329e-07
-3.70759e-05 0.000104796 -5.90694e-08
5.4329e-07 -5.90694e-08 5.28938e-05
0.000975792 -3.95137e-05 2.09682e-06
-3.95137e-05 8.17216e-05 -9.90355e-07
2.09682e-06 -9.90355e-07 2.41965e-05
0.000853959 3.81748e-05 1.10855e-06
3.81748e-05 3.08461e-05 -1.24795e-07
1.10855e-06 -1.24795e-07 -3.71352e-05
0.000918418 -1.87677e-05 7.49787e-07
-1.87677e-05 6.72465e-05 -1.42233e-07
7.49787e-07 -1.42233e-07 1.55893e-06
0.000857996 4.48188e-05 -3.78706e-07
4.48188e-05 4.23502e-05 -2.18613e-07
-3.78706e-07 -2.18613e-07 -2.11635e-05
0.000912908 3.16746e-05 -6.64635e-07
3.16746e-05 6.12479e-05 -1.62221e-08
-6.64635e-07 -1.62221e-08 -2.33685e-06
0.000926316 3.83526e-05 -2.06403e-07
3.83526e-05 7.03193e-05 -7.35081e-08
-2.06403e-07 -7.35081e-08 3.15564e-06
0.00085426 4.19994e-05 3.41459e-07
4.19994e-05 4.68074e-05 3.38103e-07
3.41459e-07 3.38103e-07 -1.9197e-05
0.000900723 4.52679e-05 8.21684e-09
4.52679e-05 6.13334e-05 -1.00916e-07
8.21684e-09 -1.00916e-07 -4.56967e-06
0.000894072 2.74408e-05 1.84944e-06
2.74408e-05 6.43214e-05 7.39886e-07
1.84944e-06 7.39886e-07 -5.18966e-06
0.00090854 3.30483e-05 4.33676e-07
3.30483e-05 5.8947e-05 3.324e-08
4.33676e-07 3.324e-08 -4.80451e-06
0.000886668 -4.82342e-05 5.77901e-07
-4.82342e-05 7.98234e-05 2.76888e-07
5.77901e-07 2.76888e-07 -6.24967e-06
0.000938524 1.37343e-06 -1.51323e-07
1.37343e-06 9.43365e-05 -4.22602e-08
-1.51323e-07 -4.22602e-08 1.33214e-05
0.00076778 -3.91834e-05 3.48242e-07
-3.91834e-05 3.023e-05 2.43756e-06
3.48242e-07 2.43756e-06 -6.76674e-05
0.000995583 -0.000102742 -1.50675e-06
-0.000102742 0.000137533 3.72599e-06
-1.50675e-06 3.72599e-06 1.83394e-05
0.00107472 -2.76453e-05 7.27239e-07
-2.76453e-05 0.000177836 -3.09854e-07
7.27239e-07 -3.09854e-07 9.02471e-05
0.000769435 -5.32013e-05 3.58281e-07
-5.32013e-05 3.62759e-05 -2.07936e-06
3.58281e-07 -2.07936e-06 -6.41939e-05
0.000866556 1.07996e-05 -3.71335e-07
1.07996e-05 6.35974e-05 -5.77501e-07
-3.71335e-07 -5.77501e-07 -1.30449e-05
0.000717356 1.73274e-05 6.08038e-07
1.73274e-05 -2.67896e-05 1.0732e-06
6.08038e-07 1.0732e-06 -9.31972e-05
0.000893181 2.30857e-05 -4.83492e-07
2.30857e-05 7.37547e-05 -5.47402e-07
-4.83492e-07 -5.47402e-07 2.83966e-06
0.000874281 9.81051e-06 -7.18367e-08
9.81051e-06 5.38409e-05 3.34108e-07
-7.18367e-08 3.34108e-07 -6.59282e-06
0.000837925 2.65415e-05 -4.83879e-07
2.65415e-05 2.53811e-05 8.11528e-07
-4.83879e-07 8.11528e-07 -2.24767e-05
0.000880832 -7.13333e-06 1.56529e-07
-7.13333e-06 5.83289e-05 -4.3586e-07
1.56529e-07 -4.3586e-07 -1.75512e-06
0.00084805 3.86143e-06 -3.24569e-07
3.86143e-06 2.88734e-05 2.05696e-08
-3.24569e-07 2.05696e-08 -1.79115e-05
0.000813256 2.20988e-05 -9.27999e-07
2.20988e-05 3.8686e-06 1.64227e-06
-9.27999e-07 1.64227e-06 -2.62295e-05
0.000868454 -1.03865e-05 9.56757e-07
-1.03865e-05 3.75232e-05 -6.55079e-07
9.56757e-07 -6.55079e-07 -8.94103e-06
0.000821237 1.39672e-05 -1.49739e-07
1.39672e-05 4.00038e-06 -4.62581e-10
-1.49739e-07 -4.62581e-10 -2.49944e-05
0.0013438 2.32841e-05 -6.24873e-06
2.32841e-05 0.000282281 4.28073e-06
-6.24873e-06 4.28073e-06 0.000282668
0.000818553 5.21268e-06 9.30433e-07
5.21268e-06 4.68977e-07 -1.55956e-06
9.30433e-07 -1.55956e-06 -2.79524e-05
0.00105459 1.69611e-05 -2.67696e-06
1.69611e-05 0.00012238 5.91138e-07
-2.67696e-06 5.91138e-07 0.000122002
0.000925096 1.54991e-05 -1.12021e-06
1.54991e-05 5.38064e-05 1.56371e-06
-1.12021e-06 1.56371e-06 6.96268e-05
0.000762256 1.05372e-05 4.46656e-07
1.05372e-05 -3.88284e-05 -3.07661e-06
4.46656e-07 -3.07661e-06 -4.01407e-05
0.00152217 1.27095e-05 4.13954e-06
1.27095e-05 0.000373362 -1.20786e-06
4.13954e-06 -1.20786e-06 0.000392645
0.00211635 7.48475e-06 4.68095e-06
7.48475e-06 0.000693653 -4.0202e-06
4.68095e-06 -4.0202e-06 0.000716002
0.000911027 -2.71158e-05 6.93701e-07
-2.71158e-05 6.40796e-05 -3.52375e-07
6.93701e-07 -3.52375e-07 1.81499e-05
0.000826964 -8.96051e-06 -2.85717e-07
-8.96051e-06 4.59918e-06 -1.52688e-06
-2.85717e-07 -1.52688e-06 -2.09374e-05
0.000898326 -8.14792e-06 4.27052e-07
-8.14792e-06 5.81132e-05 1.53905e-07
4.27052e-07 1.53905e-07 1.34916e-05
0.000780522 -5.98828e-06 -3.56921e-07
-5.98828e-06 -3.14765e-05 -3.08907e-06
-3.56921e-07 -3.08907e-06 -3.00429e-05
0.000831753 -5.28694e-06 -3.47743e-08
-5.28694e-06 5.46048e-06 2.06989e-09
-3.47743e-08 2.06989e-09 -1.91754e-05
0.000859125 -3.23826e-05 -9.88916e-07
-3.23826e-05 3.64041e-05 1.12158e-06
-9.88916e-07 1.12158e-06 -7.13495e-06
0.0020153 -6.51861e-07 -6.41935e-07
-6.51861e-07 0.000638342 -4.04927e-06
-6.41935e-07 -4.04927e-06 0.000661969
0.000776703 -4.03916e-07 -7.18138e-08
-4.03916e-07 -3.44508e-05 3.93968e-09
-7.18138e-08 3.93968e-09 -3.27675e-05
0.000832943 -1.7728e-06 8.74158e-08
-1.7728e-06 5.51256e-06 1.60401e-06
8.74158e-08 1.60401e-06 -1.89908e-05
0.000778297 5.23809e-06 -1.75207e-07
5.23809e-06 -3.3089e-05 3.14489e-06
-1.75207e-07 3.14489e-06 -3.19555e-05
0.00203301 7.03798e-06 -2.1217e-06
7.03798e-06 0.000648353 -1.65339e-08
-2.1217e-06 -1.65339e-08 0.000671696
0.00206223 1.39286e-05 -9.31656e-06
1.39286e-05 0.000665665 4.01542e-06
-9.31656e-06 4.01542e-06 0.000688431
-0.00115278 0.000102147 -3.48084e-05
0.000102147 -0.000322482 3.4092e-06
-3.48084e-05 3.4092e-06 -0.000541321
-0.00106512 0.0002447 3.50856e-06
0.0002447 -0.000321746 2.25726e-06
3.50856e-06 2.25726e-06 -0.000345599
0.00169052 5.35901e-05 -5.81716e-05
5.35901e-05 -8.96268e-05 3.36604e-05
-5.81716e-05 3.36604e-05 -0.000208811
-0.00126413 0.000287932 3.84542e-05
0.000287932 -0.000667203 -1.53543e-05
3.84542e-05 -1.53543e-05 -0.000483794
0.00220816 5.95003e-05 -8.51935e-05
5.95003e-05 0.000308336 2.81611e-06
-8.51935e-05 2.81611e-06 -2.82979e-05
0.00187278 2.36033e-05 3.17933e-05
2.36033e-05 0.000141872 -4.47892e-06
3.17933e-05 -4.47892e-06 5.94149e-05
0.00140583 -0.00015905 -5.57213e-05
-0.00015905 -0.000373553 -1.33314e-05
-5.57213e-05 -1.33314e-05 -0.00096796
0.0064263 0.000466472 7.58491e-05
0.000466472 0.00311398 -2.12035e-05
7.58491e-05 -2.12035e-05 0.00321068
-0.00221758 0.00058643 1.15865e-05
0.00058643 -0.00248068 2.373e-05
1.15865e-05 2.373e-05 -0.00106989
0.0014466 5.49332e-05 -4.12306e-06
5.49332e-05 -0.000102134 1.1136e-06
-4.12306e-06 1.1136e-06 -0.000322926
0.0019354 0.000251794 1.34302e-05
0.000251794 -7.47118e-05 -1.62357e-05
1.34302e-05 -1.62357e-05 -0.00127197
0.00423818 0.000683186 -7.37896e-06
0.000683186 0.00116949 -8.45687e-06
-7.37896e-06 -8.45687e-06 0.00155833
0.00195358 0.000322382 -4.38213e-06
0.000322382 -0.000801184 7.73758e-06
-4.38213e-06 7.73758e-06 -6.286e-05
0.00184073 -1.74481e-05 -1.65003e-05
-1.74481e-05 -0.000246308 3.0029e-06
-1.65003e-05 3.0029e-06 -0.000470006
0.00429575 0.000414758 6.41133e-05
0.000414758 0.0011084 -5.0323e-05
6.41133e-05 -5.0323e-05 -0.000173838
-0.00401144 0.000243136 -8.22395e-05
0.000243136 -0.00329044 8.79783e-06
-8.22395e-05 8.79783e-06 -0.00304648
0.00120343 0.000178927 -1.65821e-05
0.000178927 -0.00162623 2.12617e-05
-1.65821e-05 2.12617e-05 -0.000911134
0.000959819 -1.92175e-05 1.06067e-06
-1.92175e-05 0.000108696 4.71147e-07
1.06067e-06 4.71147e-07 3.18309e-05
0.000904062 3.33683e-05 -1.3292e-06
3.33683e-05 7.93139e-05 -3.48226e-07
-1.3292e-06 -3.48226e-07 9.37078e-06
0.000851857 1.00073e-05 6.86375e-07
1.00073e-05 4.45481e-05 -2.12941e-07
6.86375e-07 -2.12941e-07 -1.21854e-05
0.000905625 5.29311e-05 1.93224e-06
5.29311e-05 8.42801e-05 8.11907e-07
1.93224e-06 8.11907e-07 1.65361e-05
0.000822955 1.13913e-05 -2.01426e-07
1.13913e-05 3.69522e-05 6.61961e-07
-2.01426e-07 6.61961e-07 -4.0143e-05
0.000937388 3.00999e-05 1.42985e-07
3.00999e-05 9.80624e-05 5.21645e-07
1.42985e-07 5.21645e-07 2.82408e-05
0.000850551 -7.0115e-06 -1.94087e-07
-7.0115e-06 4.8269e-05 9.67459e-07
-1.94087e-07 9.67459e-07 -1.78424e-05
0.00095196 5.91199e-05 -6.92379e-07
5.91199e-05 0.000104497 3.38622e-07
-6.92379e-07 3.38622e-07 3.5329e-05
0.000935212 2.26264e-05 -3.51939e-07
2.26264e-05 9.46792e-05 3.13093e-07
-3.51939e-07 3.13093e-07 2.92148e-05
0.000791483 -2.20415e-05 -8.68457e-07
-2.20415e-05 1.62645e-05 -3.03083e-07
-8.68457e-07 -3.03083e-07 -4.564e-05
0.000591413 -5.46173e-05 8.21892e-06
-5.46173e-05 -0.000525039 -4.07631e-07
8.21892e-06 -4.07631e-07 -0.000595689
0.00198139 -0.00021382 1.42754e-06
-0.00021382 0.000171882 4.07579e-06
1.42754e-06 4.07579e-06 9.64068e-05
0.000952176 -0.000161697 8.02339e-06
-0.000161697 2.76368e-05 5.44105e-07
8.02339e-06 5.44105e-07 -0.00010809
0.000957256 -7.53932e-05 6.34616e-06
-7.53932e-05 0.000115415 -1.2566e-06
6.34616e-06 -1.2566e-06 -3.93607e-05
0.00103865 -1.53918e-05 7.03661e-07
-1.53918e-05 0.000167182 -9.03373e-07
7.03661e-07 -9.03373e-07 5.70684e-05
0.00082391 -4.63882e-05 -4.68919e-07
-4.63882e-05 3.44349e-05 -4.00348e-07
-4.68919e-07 -4.00348e-07 -4.9051e-05
0.000861057 4.33236e-05 -7.75749e-08
4.33236e-05 5.31551e-05 -3.69526e-07
-7.75749e-08 -3.69526e-07 -2.39315e-05
0.000907307 -2.80753e-05 -1.49293e-07
-2.80753e-05 7.95881e-05 4.65891e-07
-1.49293e-07 4.65891e-07 1.5801e-06
0.00145461 -0.000154137 -1.27425e-06
-0.000154137 0.00014048 -5.22057e-07
-1.27425e-06 -5.22057e-07 3.49235e-05
0.000939729 6.1065e-07 -1.46327e-07
6.1065e-07 9.17118e-05 -3.19601e-07
-1.46327e-07 -3.19601e-07 9.65585e-06
0.000975035 -3.49785e-05 -4.78284e-07
-3.49785e-05 0.000102587 -1.05253e-07
-4.78284e-07 -1.05253e-07 1.57215e-05
0.00159978 -0.000193127 6.64914e-07
-0.000193127 0.000261743 -5.59767e-07
6.64914e-07 -5.59767e-07 0.000165805
0.00109618 -2.17103e-05 -2.07214e-06
-2.17103e-05 0.000197012 1.33229e-06
-2.07214e-06 1.33229e-06 6.54161e-05
-0.000313568 -0.000201142 1.51068e-06
-0.000201142 -0.000807537 -8.25597e-06
1.51068e-06 -8.25597e-06 -0.00075875
0.00161981 -7.40968e-05 -7.16483e-06
-7.40968e-05 0.000520965 9.26907e-06
-7.16483e-06 9.26907e-06 0.000372421
0.000578315 1.7773e-05 -2.34453e-06
1.7773e-05 -0.000118398 5.56162e-06
-2.34453e-06 5.56162e-06 -0.000202191
0.000896677 2.11664e-06 4.89726e-07
2.11664e-06 5.94552e-05 9.38209e-07
4.89726e-07 9.38209e-07 -1.75743e-05
0.000886239 2.12367e-05 -5.82109e-07
2.12367e-05 5.4616e-05 1.13225e-06
-5.82109e-07 1.13225e-06 -3.11621e-05
0.00141311 1.83114e-06 -1.34282e-05
1.83114e-06 -4.55222e-05 -3.0296e-07
-1.34282e-05 -3.0296e-07 -0.000178123
-1.67547e-06 -4.05127e-06 -1.15091e-05
-4.05127e-06 0.00037801 -1.37746e-06
-1.15091e-05 -1.37746e-06 0.000187277
-0.00545906 -6.10109e-05 -1.1338e-05
-6.10109e-05 -0.00275004 4.76339e-06
-1.1338e-05 4.76339e-06 -0.00262197
0.000797125 7.29026e-05 3.05811e-06
7.29026e-05 5.85616e-05 2.09796e-06
3.05811e-06 2.09796e-06 -2.82106e-05
0.000186189 2.27612e-05 5.35655e-06
2.27612e-05 -0.000152467 3.16541e-06
5.35655e-06 3.16541e-06 -0.000319689
0.00129689 7.9192e-05 1.12917e-05
7.9192e-05 0.000157225 -2.77799e-06
1.12917e-05 -2.77799e-06 7.73732e-05
-0.00121453 -6.70999e-05 2.18476e-05
-6.70999e-05 -0.000365238 3.88639e-06
2.18476e-05 3.88639e-06 -0.000605076
0.00350562 -0.000425859 5.15143e-06
-0.000425859 0.000757301 -3.70801e-06
5.15143e-06 -3.70801e-06 -0.000656011
0.00503827 0.000510934 7.27575e-05
0.000510934 0.00124815 -2.97789e-05
7.27575e-05 -2.97789e-05 0.000701357
0.000263154 7.27971e-05 -1.51581e-05
7.27971e-05 -0.00012329 1.28385e-05
-1.51581e-05 1.28385e-05 -8.05292e-05
0.00556108 -0.000603449 4.0905e-05
-0.000603449 0.00150397 3.25971e-05
4.0905e-05 3.25971e-05 0.00164516
0.00218543 -2.78998e-05 3.8133e-05
-2.78998e-05 0.0002219 2.11777e-05
3.8133e-05 2.11777e-05 6.60425e-05
0.00401631 -0.000183397 2.2726e-05
-0.000183397 0.000450928 1.66848e-05
2.2726e-05 1.66848e-05 0.00119925
0.00119553 0.000101163 1.1433e-06
0.000101163 0.000300924 -1.09614e-06
1.1433e-06 -1.09614e-06 0.0002324
0.00157645 -7.75986e-06 5.81836e-07
-7.75986e-06 8.15586e-05 -4.70741e-06
5.81836e-07 -4.70741e-06 -5.44195e-05
0.00175004 -8.3123e-06 -9.44859e-07
-8.3123e-06 9.21386e-05 -6.72013e-07
-9.44859e-07 -6.72013e-07 1.74966e-05
0.000224361 2.73559e-05 -1.00369e-07
2.73559e-05 -1.34668e-05 4.68486e-07
-1.00369e-07 4.68486e-07 -0.000119182
0.00354124 0.000389157 -2.0892e-05
0.000389157 0.000927697 -2.45316e-05
-2.0892e-05 -2.45316e-05 0.000639437
0.0039039 0.000118528 3.97606e-05
0.000118528 0.000617107 1.3468e-05
3.97606e-05 1.3468e-05 -0.0010323
0.00269053 1.53023e-05 2.29375e-07
1.53023e-05 -0.000668138 -1.09023e-05
2.29375e-07 -1.09023e-05 0.000143544
0.000624412 -0.000222096 -1.13879e-05
-0.000222096 -0.00076958 1.82626e-05
-1.13879e-05 1.82626e-05 -0.000894941
0.00107522 4.81834e-05 -4.06893e-06
4.81834e-05 0.000333897 -1.03702e-05
-4.06893e-06 -1.03702e-05 0.000300128
0.00104849 -1.13746e-06 -2.7847e-06
-1.13746e-06 6.9788e-05 2.70972e-06
-2.7847e-06 2.70972e-06 1.85041e-05
0.00191425 3.72591e-06 -2.11191e-06
3.72591e-06 0.000245873 -1.45728e-05
-2.11191e-06 -1.45728e-05 0.000170515
0.00113736 0.000158863 1.66204e-05
0.000158863 -0.00158627 -2.36197e-05
1.66204e-05 -2.36197e-05 -0.000930226
-0.00145464 5.90743e-05 9.23491e-06
5.90743e-05 -0.00073294 -9.59949e-06
9.23491e-06 -9.59949e-06 -0.000961845
0.00788558 1.15924e-05 6.03823e-05
1.15924e-05 0.00242284 1.87931e-05
6.03823e-05 1.87931e-05 0.00108433
-0.00154349 -5.13091e-05 1.57704e-05
-5.13091e-05 -0.000804015 -4.57002e-05
1.57704e-05 -4.57002e-05 -0.00103031
0.00116123 8.9207e-05 2.75959e-06
8.9207e-05 0.000219992 4.4427e-06
2.75959e-06 4.4427e-06 0.00015496
0.000596816 5.7281e-05 -1.07756e-06
5.7281e-05 -6.37492e-05 1.8768e-06
-1.07756e-06 1.8768e-06 -0.000120342
0.000239912 1.43943e-05 -1.07683e-07
1.43943e-05 -0.000195074 -4.00286e-06
-1.07683e-07 -4.00286e-06 -0.000253364
0.000941615 7.07419e-05 -4.3671e-07
7.07419e-05 7.76526e-05 9.38952e-08
-4.3671e-07 9.38952e-08 1.13878e-05
0.000908972 1.12206e-07 -7.09584e-07
1.12206e-07 5.40513e-05 2.97714e-07
-7.09584e-07 2.97714e-07 -9.58469e-06
0.000847447 -3.57792e-05 -2.24142e-06
-3.57792e-05 3.17518e-05 3.22444e-06
-2.24142e-06 3.22444e-06 -3.0919e-05
0.000917375 4.20168e-05 1.53062e-07
4.20168e-05 6.10105e-05 2.30263e-08
1.53062e-07 2.30263e-08 -5.13883e-06
0.000868363 -4.83684e-05 1.05544e-07
-4.83684e-05 2.8133e-05 -4.86188e-07
1.05544e-07 -4.86188e-07 -3.13358e-05
0.000946478 -5.83194e-05 1.96767e-06
-5.83194e-05 9.15582e-05 1.43415e-06
1.96767e-06 1.43415e-06 3.48365e-05
0.000728012 -1.76852e-05 1.1587e-06
-1.76852e-05 -2.51876e-06 4.39768e-07
1.1587e-06 4.39768e-07 -4.58033e-05
0.00092428 9.16928e-07 5.92531e-07
9.16928e-07 5.39705e-05 -6.29515e-07
5.92531e-07 -6.29515e-07 -5.74088e-06
0.000925083 3.88205e-05 -6.20154e-07
3.88205e-05 6.73131e-05 2.63119e-07
-6.20154e-07 2.63119e-07 1.89231e-06
0.000868617 4.49617e-05 -2.67996e-07
4.49617e-05 5.6e-05 -2.04451e-07
-2.67996e-07 -2.04451e-07 -1.08122e-05
0.000890161 4.83042e-05 -9.16142e-07
4.83042e-05 5.55249e-05 -2.74184e-07
-9.16142e-07 -2.74184e-07 -1.04363e-05
0.000898777 2.84563e-05 1.6776e-07
2.84563e-05 5.30108e-05 1.91504e-07
1.6776e-07 1.91504e-07 -1.06412e-05
0.000934723 2.87221e-05 6.55863e-07
2.87221e-05 8.47087e-05 2.9572e-07
6.55863e-07 2.9572e-07 1.59837e-05
0.000791263 -3.19974e-05 8.78919e-07
-3.19974e-05 3.83574e-05 9.89168e-07
8.78919e-07 9.89168e-07 -3.48285e-05
0.000833199 -2.55205e-05 -2.96126e-07
-2.55205e-05 5.30807e-05 -7.67887e-07
-2.96126e-07 -7.67887e-07 -2.98792e-05
0.000766393 -4.9457e-05 1.86766e-06
-4.9457e-05 3.63126e-05 1.41076e-06
1.86766e-06 1.41076e-06 -8.03979e-05
0.00102735 -8.01823e-06 -1.27585e-06
-8.01823e-06 0.000141381 -8.74561e-07
-1.27585e-06 -8.74561e-07 6.03509e-05
0.00101541 -5.31961e-05 -3.46914e-07
-5.31961e-05 0.000154284 8.03214e-07
-3.46914e-07 8.03214e-07 5.48301e-05
0.000584311 -8.48209e-05 -1.14164e-06
-8.48209e-05 -7.60235e-05 3.35752e-06
-1.14164e-06 3.35752e-06 -0.000203411
0.000891803 -9.80371e-05 -3.08364e-06
-9.80371e-05 8.52458e-05 9.58799e-07
-3.08364e-06 9.58799e-07 -3.75092e-05
0.000966221 -7.23236e-05 -7.77528e-07
-7.23236e-05 0.000125291 1.54105e-06
-7.77528e-07 1.54105e-06 2.65433e-05
0.000889908 -9.6645e-05 1.54043e-07
-9.6645e-05 8.53617e-05 2.84049e-07
1.54043e-07 2.84049e-07 -3.35114e-05
0.000908148 -3.76752e-06 4.87923e-07
-3.76752e-06 7.73055e-05 1.19786e-06
4.87923e-07 1.19786e-06 3.73388e-06
0.000988154 -3.02741e-05 -6.82919e-07
-3.02741e-05 0.000131823 -5.68873e-07
-6.82919e-07 -5.68873e-07 4.28997e-05
0.000775504 -5.64622e-05 6.72787e-07
-5.64622e-05 4.11887e-05 -3.43996e-06
6.72787e-07 -3.43996e-06 -5.68132e-05
0.00107001 1.08891e-05 -1.15243e-06
1.08891e-05 0.000171221 -1.57021e-06
-1.15243e-06 -1.57021e-06 9.5908e-05
0.000806254 1.49047e-05 6.02881e-08
1.49047e-05 2.02551e-05 -1.55386e-08
6.02881e-08 -1.55386e-08 -4.50574e-05
0.00083799 3.42757e-05 -1.25884e-07
3.42757e-05 2.88974e-05 1.01849e-06
-1.25884e-07 1.01849e-06 -2.2674e-05
0.000890403 -1.78542e-07 4.34023e-08
-1.78542e-07 6.36434e-05 -3.61733e-07
4.34023e-08 -3.61733e-07 2.20067e-06
0.000848036 1.43348e-05 -4.21724e-07
1.43348e-05 3.10491e-05 -6.68724e-08
-4.21724e-07 -6.68724e-08 -1.69901e-05
0.000806554 2.66866e-05 -1.12936e-06
2.66866e-05 4.79083e-06 1.65952e-06
-1.12936e-06 1.65952e-06 -2.67764e-05
0.000858092 -8.20491e-06 8.86546e-07
-8.20491e-06 3.42151e-05 -7.64675e-07
8.86546e-07 -7.64675e-07 -1.27669e-05
0.00081605 2.09266e-05 -9.18259e-08
2.09266e-05 4.78797e-06 1.60417e-09
-9.18259e-08 1.60417e-09 -2.51909e-05
0.00131216 2.90891e-05 -7.06252e-06
2.90891e-05 0.000271242 3.06012e-06
-7.06252e-06 3.06012e-06 0.00027044
0.000821958 1.03126e-05 1.02909e-06
1.03126e-05 3.96866e-06 -1.58488e-06
1.02909e-06 -1.58488e-06 -2.48876e-05
0.00105047 2.24493e-05 -3.31784e-06
2.24493e-05 0.000124134 5.54449e-07
-3.31784e-06 5.54449e-07 0.000122995
0.000916073 2.07321e-05 -1.67058e-06
2.07321e-05 5.36911e-05 1.5756e-06
-1.67058e-06 1.5756e-06 6.86052e-05
0.000761403 1.56801e-05 7.05354e-07
1.56801e-05 -3.65309e-05 -3.12304e-06
7.05354e-07 -3.12304e-06 -3.83147e-05
0.00151567 1.90871e-05 5.50535e-06
1.90871e-05 0.000373084 -1.14789e-06
5.50535e-06 -1.14789e-06 0.000391793
0.00211041 1.48841e-05 8.19976e-06
1.48841e-05 0.00069253 -3.94819e-06
8.19976e-06 -3.94819e-06 0.000714535
0.000710259 -1.63697e-06 -2.25978e-07
-1.63697e-06 -3.87142e-05 -9.83771e-07
-2.25978e-07 -9.83771e-07 -9.23708e-05
0.000602682 -1.34972e-05 -2.35495e-07
-1.34972e-05 -0.000112296 -1.88713e-06
-2.35495e-07 -1.88713e-06 -0.00014138
0.000931891 -1.42334e-05 3.16057e-08
-1.42334e-05 7.69906e-05 4.34931e-08
3.16057e-08 4.34931e-08 2.96766e-05
0.000781221 -1.12823e-05 -4.17858e-07
-1.12823e-05 -2.86585e-05 -3.07791e-06
-4.17858e-07 -3.07791e-06 -2.83051e-05
0.000711386 -9.31994e-06 5.64166e-08
-9.31994e-06 -5.69171e-05 1.80341e-08
5.64166e-08 1.80341e-08 -8.3364e-05
0.000705237 -3.99126e-05 1.29976e-07
-3.99126e-05 -4.3561e-05 7.43227e-07
1.29976e-07 7.43227e-07 -8.99776e-05
0.00201823 -7.7855e-06 -4.63462e-06
-7.7855e-06 0.000640954 -4.02364e-06
-4.63462e-06 -4.02364e-06 0.000664331
0.000775854 -5.76629e-06 -1.58796e-07
-5.76629e-06 -3.40313e-05 -3.29838e-09
-1.58796e-07 -3.29838e-09 -3.25613e-05
0.000833888 -5.95827e-06 9.56953e-08
-5.95827e-06 6.62888e-06 1.58885e-06
9.56953e-08 1.58885e-06 -1.80208e-05
0.00201543 -1.95343e-07 -2.05739e-06
-1.95343e-07 0.000638404 -3.19054e-10
-2.05739e-06 -3.19054e-10 0.000662023
0.000777438 -1.44379e-07 8.46403e-08
-1.44379e-07 -3.40726e-05 3.12904e-06
8.46403e-08 3.12904e-06 -3.2402e-05
0.00203696 7.46903e-06 -4.61798e-06
7.46903e-06 0.00065067 4.07092e-06
-4.61798e-06 4.07092e-06 0.000673927
0.000943205 1.79251e-05 -3.40583e-05
1.79251e-05 -0.00030124 1.1201e-05
-3.40583e-05 1.1201e-05 -0.000448135
0.00116081 0.000150349 9.24274e-07
0.000150349 0.000839849 -3.6582e-06
9.24274e-07 -3.6582e-06 0.000826746
0.000551998 -2.34014e-05 4.55747e-05
-2.34014e-05 0.000488112 -1.32472e-05
4.55747e-05 -1.32472e-05 0.000319249
0.000879776 1.78591e-05 -3.57997e-08
1.78591e-05 5.92545e-05 2.16307e-07
-3.57997e-08 2.16307e-07 -9.97571e-06
0.001648 3.10899e-05 -1.06327e-05
3.10899e-05 4.46337e-05 1.84769e-05
-1.06327e-05 1.84769e-05 -2.01394e-05
0.00165103 4.89369e-05 -1.55547e-05
4.89369e-05 -0.000104348 5.00099e-06
-1.55547e-05 5.00099e-06 -0.000249895
0.00136818 0.000342973 5.75337e-05
0.000342973 0.000603894 -3.28039e-05
5.75337e-05 -3.28039e-05 0.00100973
0.00301105 3.84836e-05 -3.16173e-05
3.84836e-05 0.000499853 3.87568e-06
-3.16173e-05 3.87568e-06 0.000246567
0.00906908 0.000536193 1.69805e-05
0.000536193 0.0032698 -1.49204e-05
1.69805e-05 -1.49204e-05 0.00224795
-0.00234559 0.000421561 4.27374e-05
0.000421561 -0.00201069 -7.26349e-06
4.27374e-05 -7.26349e-06 -0.00151906
0.00265112 0.000335994 3.51555e-05
0.000335994 -0.00033827 -2.54365e-05
3.51555e-05 -2.54365e-05 0.000359979
0.00249028 -5.24736e-05 -4.59979e-05
-5.24736e-05 -0.000184109 3.61956e-06
-4.59979e-05 3.61956e-06 -0.000600779
0.00670658 0.000370029 3.02167e-05
0.000370029 0.00234831 -1.34023e-05
3.02167e-05 -1.34023e-05 0.00111432
0.00369756 0.00045929 -3.82118e-06
0.00045929 0.000159237 5.36615e-07
-3.82118e-06 5.36615e-07 0.000311578
0.00298582 0.000196981 -5.43651e-06
0.000196981 -0.000601742 2.5873e-06
-5.43651e-06 2.5873e-06 0.000131692
0.00397341 -0.00023159 3.61248e-05
-0.00023159 0.000546464 -2.71673e-05
3.61248e-05 -2.71673e-05 -6.94767e-05
0.00712415 0.000381526 2.82467e-05
0.000381526 0.00255893 -3.8975e-06
2.82467e-05 -3.8975e-06 0.000830949
0.00241391 0.000257155 7.2106e-06
0.000257155 -0.000234847 3.92095e-05
7.2106e-06 3.92095e-05 -0.000326733
0.004337 4.90458e-05 -1.67888e-06
4.90458e-05 0.000333722 1.80213e-05
-1.67888e-06 1.80213e-05 0.00113251
0.000906232 -2.12246e-05 4.845e-07
-2.12246e-05 7.5948e-05 4.93876e-07
4.845e-07 4.93876e-07 -3.8853e-06
0.000923714 -3.30052e-05 4.92612e-07
-3.30052e-05 9.17193e-05 1.28597e-08
4.92612e-07 1.28597e-08 1.33125e-05
0.000950531 4.36498e-05 -9.481e-07
4.36498e-05 0.000105903 -1.21311e-07
-9.481e-07 -1.21311e-07 3.56239e-05
0.000893554 -1.44679e-05 -2.31455e-07
-1.44679e-05 6.52606e-05 4.9531e-08
-2.31455e-07 4.9531e-08 -7.3923e-06
0.000913761 3.98097e-05 -5.669e-07
3.98097e-05 8.58586e-05 3.4128e-07
-5.669e-07 3.4128e-07 9.917e-06
0.00096399 1.58235e-05 6.16834e-07
1.58235e-05 0.000114149 8.06805e-07
6.16834e-07 8.06805e-07 4.3716e-05
0.00100621 5.25619e-05 -4.83161e-07
5.25619e-05 0.000131585 1.186e-07
-4.83161e-07 1.186e-07 6.34634e-05
0.00103965 5.98753e-05 6.64449e-07
5.98753e-05 0.000153165 8.50653e-07
6.64449e-07 8.50653e-07 8.64984e-05
0.000199095 -0.000105493 2.15267e-05
-0.000105493 -0.000516921 -7.18117e-06
2.15267e-05 -7.18117e-06 -0.000574411
0.00137473 -0.000181329 5.8613e-06
-0.000181329 0.000143699 -1.99633e-06
5.8613e-06 -1.99633e-06 5.47406e-05
0.000915013 -9.85594e-05 -2.06578e-06
-9.85594e-05 9.03967e-05 -2.7809e-07
-2.06578e-06 -2.7809e-07 7.83805e-06
0.00149897 -4.61359e-05 3.18858e-06
-4.61359e-05 0.000389698 -2.16187e-06
3.18858e-06 -2.16187e-06 0.000262137
0.000946275 -4.2805e-05 -8.9556e-07
-4.2805e-05 8.77928e-05 -8.58808e-07
-8.9556e-07 -8.58808e-07 -3.25122e-07
0.00104044 -1.68268e-05 -8.93427e-07
-1.68268e-05 0.000140503 -5.70532e-07
-8.93427e-07 -5.70532e-07 6.22053e-05
0.000971027 9.45821e-06 -4.01588e-09
9.45821e-06 0.000103782 -1.67762e-07
-4.01588e-09 -1.67762e-07 2.442e-05
0.00121065 -0.000265141 -6.54397e-06
-0.000265141 -5.24229e-05 1.25577e-06
-6.54397e-06 1.25577e-06 -4.28386e-05
0.000951424 1.20006e-05 1.51912e-07
1.20006e-05 9.51046e-05 -4.19982e-07
1.51912e-07 -4.19982e-07 7.39966e-06
0.00106935 -2.62253e-05 -8.6983e-07
-2.62253e-05 0.0001385 6.39102e-08
-8.6983e-07 6.39102e-08 4.84972e-05
0.000849297 -6.15688e-05 -3.92152e-07
-6.15688e-05 0.000103672 2.17761e-06
-3.92152e-07 2.17761e-06 -2.49737e-05
0.00107424 -8.22518e-06 1.41087e-07
-8.22518e-06 0.000149648 8.70965e-07
1.41087e-07 8.70965e-07 7.64892e-05
-0.00109874 -0.000251771 1.88595e-05
-0.000251771 -0.00100025 -1.1774e-05
1.88595e-05 -1.1774e-05 -0.000949232
0.00146252 3.77346e-06 -8.79398e-06
3.77346e-06 0.000562611 1.39279e-05
-8.79398e-06 1.39279e-05 0.000422837
0.000567903 2.41195e-06 -8.75169e-07
2.41195e-06 -0.000130283 3.75234e-06
-8.75169e-07 3.75234e-06 -0.000204444
0.000963074 8.31399e-05 9.73114e-07
8.31399e-05 9.81012e-05 1.63164e-06
9.73114e-07 1.63164e-06 1.69345e-05
0.00129592 1.40643e-06 5.14077e-06
1.40643e-06 0.000279768 6.0512e-07
5.14077e-06 6.0512e-07 0.000219155
0.00126869 -5.23711e-06 1.67861e-05
-5.23711e-06 -9.84352e-05 -1.03453e-07
1.67861e-05 -1.03453e-07 -0.000234631
-0.00108066 -7.57593e-06 2.16985e-05
-7.57593e-06 -0.000157869 4.4885e-07
2.16985e-05 4.4885e-07 -0.000423566
0.00087075 8.19519e-05 7.25133e-06
8.19519e-05 0.000137956 4.07827e-06
7.25133e-06 4.07827e-06 7.05666e-05
6.66852e-05 5.18844e-05 5.65928e-06
5.18844e-05 -7.33388e-05 8.71625e-06
5.65928e-06 8.71625e-06 -0.000185998
0.00149591 -7.80299e-06 2.70213e-05
-7.80299e-06 5.63931e-05 1.96994e-06
2.70213e-05 1.96994e-06 -5.23954e-05
0.00643585 -0.000509977 6.0951e-05
-0.000509977 0.0019942 2.22113e-05
6.0951e-05 2.22113e-05 0.000487277
0.00456246 0.000461088 -3.31579e-05
0.000461088 0.00127758 -7.10425e-05
-3.31579e-05 -7.10425e-05 0.00061537
0.00333363 -0.000324517 1.07855e-05
-0.000324517 0.00024959 6.00091e-05
1.07855e-05 6.00091e-05 9.20888e-05
0.00224063 -8.78843e-06 4.68608e-06
-8.78843e-06 0.000390428 1.89669e-05
4.68608e-06 1.89669e-05 0.000318892
0.00118022 1.39095e-05 1.32926e-06
1.39095e-05 -0.00172032 7.64068e-06
1.32926e-06 7.64068e-06 -0.000867183
0.000872979 6.61366e-05 2.49572e-06
6.61366e-05 0.000218581 6.28802e-07
2.49572e-06 6.28802e-07 0.000174698
0.00105931 -4.44784e-07 -8.45844e-07
-4.44784e-07 7.58952e-05 2.73049e-07
-8.45844e-07 2.73049e-07 2.63043e-05
0.00145732 2.28716e-06 9.6749e-07
2.28716e-06 4.38916e-05 1.64127e-06
9.6749e-07 1.64127e-06 -1.91351e-05
-0.000484236 8.28653e-05 -3.37991e-06
8.28653e-05 -0.000179868 -1.82065e-06
-3.37991e-06 -1.82065e-06 -0.000328776
0.00295684 0.00018201 4.8434e-06
0.00018201 -0.000557828 -3.27034e-06
4.8434e-06 -3.27034e-06 0.000141765
0.00525416 0.00032109 4.00057e-05
0.00032109 0.00101735 3.20344e-06
4.00057e-05 3.20344e-06 -0.000223008
0.00304958 0.000127487 -4.95567e-05
0.000127487 0.000809066 -4.21775e-06
-4.95567e-05 -4.21775e-06 0.000548414
-0.000457194 3.79879e-05 2.60181e-06
3.79879e-05 -0.000279941 -1.29364e-05
2.60181e-06 -1.29364e-05 -0.000363592
0.00128033 3.18451e-06 -2.72079e-06
3.18451e-06 0.000331473 6.9485e-06
-2.72079e-06 6.9485e-06 0.000276034
0.00169731 2.13823e-05 1.29743e-05
2.13823e-05 8.55349e-05 -1.792e-05
1.29743e-05 -1.792e-05 1.39277e-05
0.00316694 0.000326849 4.56334e-05
0.000326849 -6.86013e-05 -2.71043e-05
4.56334e-05 -2.71043e-05 0.000698553
0.0022427 0.000322053 -1.27211e-05
0.000322053 -0.000281018 -4.63647e-05
-1.27211e-05 -4.63647e-05 -0.000337059
0.00167252 0.000263216 1.35829e-05
0.000263216 0.000269712 -1.21288e-05
1.35829e-05 -1.21288e-05 0.000339434
0.00257213 -0.00017467 0.000101831
-0.00017467 0.000525324 1.36007e-05
0.000101831 1.36007e-05 -0.00102683
0.000761144 7.63733e-05 -9.48538e-07
7.63733e-05 1.75056e-05 7.27126e-06
-9.48538e-07 7.27126e-06 -4.25099e-05
0.000817264 9.33398e-06 2.06021e-06
9.33398e-06 9.63462e-05 2.49924e-06
2.06021e-06 2.49924e-06 4.32564e-05
0.000230961 -4.70241e-05 1.08706e-05
-4.70241e-05 -5.46789e-05 -5.91574e-06
1.08706e-05 -5.91574e-06 -0.000148594
0.000972621 2.13949e-05 -7.73567e-07
2.13949e-05 8.70677e-05 2.26029e-07
-7.73567e-07 2.26029e-07 2.29421e-05
0.00080612 -5.15551e-05 -1.35468e-06
-5.15551e-05 -3.08183e-06 8.33605e-07
-1.35468e-06 8.33605e-07 -6.32995e-05
0.00100464 -6.02284e-05 -2.00395e-06
-6.02284e-05 0.000113194 1.84171e-06
-2.00395e-06 1.84171e-06 5.37285e-05
0.000934116 -1.26656e-05 -1.45839e-07
-1.26656e-05 6.33056e-05 -2.67059e-07
-1.45839e-07 -2.67059e-07 2.41211e-06
0.000659319 -1.99757e-05 -9.91525e-07
-1.99757e-05 -5.17473e-05 1.69902e-06
-9.91525e-07 1.69902e-06 -9.25718e-05
0.000792314 -5.08223e-05 1.70883e-06
-5.08223e-05 8.90423e-05 -7.41828e-07
1.70883e-06 -7.41828e-07 -1.0628e-05
0.000895131 2.01879e-05 -2.90001e-07
2.01879e-05 5.10901e-05 2.70561e-07
-2.90001e-07 2.70561e-07 -1.27474e-05
0.000982175 4.06879e-05 -4.63647e-07
4.06879e-05 0.000109181 2.31294e-07
-4.63647e-07 2.31294e-07 4.07985e-05
0.00101201 -3.08127e-05 4.56905e-07
-3.08127e-05 0.000146334 3.52536e-07
4.56905e-07 3.52536e-07 7.05626e-05
0.000589538 -4.18207e-05 2.94897e-06
-4.18207e-05 -3.07372e-06 1.91405e-06
2.94897e-06 1.91405e-06 -0.000132314
0.000757789 -4.74073e-06 -3.43992e-06
-4.74073e-06 1.54149e-05 -1.07406e-06
-3.43992e-06 -1.07406e-06 -6.47637e-05
0.000628533 -5.17866e-05 1.98828e-07
-5.17866e-05 -3.12202e-05 -1.75593e-07
1.98828e-07 -1.75593e-07 -0.000142516
0.00104475 -0.000117126 1.60526e-06
-0.000117126 0.000173103 1.69856e-06
1.60526e-06 1.69856e-06 2.15574e-05
0.00114974 -0.000120708 -4.10283e-06
-0.000120708 0.000172324 3.19532e-06
-4.10283e-06 3.19532e-06 3.04024e-05
0.00126461 -6.8182e-05 -9.4631e-07
-6.8182e-05 0.000279125 -1.33233e-06
-9.4631e-07 -1.33233e-06 0.000178001
0.000770998 -9.49767e-05 -6.99573e-07
-9.49767e-05 1.49903e-05 4.7032e-07
-6.99573e-07 4.7032e-07 -0.000116059
0.0014192 -0.000127651 -3.41544e-07
-0.000127651 0.000355562 -2.52755e-07
-3.41544e-07 -2.52755e-07 0.00023597
0.00063677 -7.2832e-05 -1.41029e-06
-7.2832e-05 -3.80729e-05 7.23713e-07
-1.41029e-06 7.23713e-07 -0.000145619
0.000930767 -9.98733e-05 2.26891e-07
-9.98733e-05 0.000104725 -5.29812e-07
2.26891e-07 -5.29812e-07 -1.58079e-05
0.000922462 -1.03567e-05 -4.08065e-07
-1.03567e-05 8.73581e-05 9.67467e-07
-4.08065e-07 9.67467e-07 7.79672e-06
0.00102067 -7.17715e-05 -1.15842e-06
-7.17715e-05 0.000151877 1.02792e-06
-1.15842e-06 1.02792e-06 5.29354e-05
0.000779638 -9.03397e-05 1.01781e-07
-9.03397e-05 3.06122e-05 -1.96158e-06
1.01781e-07 -1.96158e-06 -8.79037e-05
0.000852836 3.22853e-05 -4.10238e-08
3.22853e-05 4.01363e-05 1.20172e-06
-4.10238e-08 1.20172e-06 -1.71613e-05
0.000813313 -2.41398e-06 4.9827e-07
-2.41398e-06 2.72247e-05 4.02934e-08
4.9827e-07 4.02934e-08 -4.65776e-05
0.000901814 -3.28034e-05 7.4286e-07
-3.28034e-05 8.59495e-05 -2.04224e-06
7.4286e-07 -2.04224e-06 -4.3264e-06
0.000893276 1.11299e-05 -1.14629e-07
1.11299e-05 6.63057e-05 -9.81629e-07
-1.14629e-07 -9.81629e-07 2.11757e-06
0.000845677 2.23385e-05 -2.56451e-07
2.23385e-05 3.24904e-05 -1.17377e-07
-2.56451e-07 -1.17377e-07 -1.87988e-05
0.000799822 3.27295e-05 -1.14789e-06
3.27295e-05 6.79949e-06 1.67749e-06
-1.14789e-06 1.67749e-06 -2.71881e-05
0.000851921 2.07559e-06 5.57216e-07
2.07559e-06 3.33864e-05 -9.64635e-07
5.57216e-07 -9.64635e-07 -1.47782e-05
0.000808603 2.75815e-05 -2.80342e-08
2.75815e-05 5.63152e-06 -7.16117e-09
-2.80342e-08 -7.16117e-09 -2.59638e-05
0.000729995 2.96089e-05 -1.4066e-06
2.96089e-05 -3.69185e-05 3.29061e-06
-1.4066e-06 3.29061e-06 -4.24083e-05
0.0008195 1.92605e-05 9.7653e-07
1.92605e-05 6.03381e-06 -1.6177e-06
9.7653e-07 -1.6177e-06 -2.38097e-05
0.000750028 2.54786e-05 1.34261e-07
2.54786e-05 -3.28475e-05 1.38088e-08
1.34261e-07 1.38088e-08 -3.66863e-05
0.00203714 3.86934e-05 -4.80652e-06
3.86934e-05 0.000666074 1.53332e-06
-4.80652e-06 1.53332e-06 0.000685333
0.000760825 2.07893e-05 9.54481e-07
2.07893e-05 -3.28075e-05 -3.16304e-06
9.54481e-07 -3.16304e-06 -3.53865e-05
0.00150703 2.52508e-05 6.73697e-06
2.52508e-05 0.000372891 -1.07949e-06
6.73697e-06 -1.07949e-06 0.000390758
0.00210193 2.20858e-05 1.16066e-05
2.20858e-05 0.000691304 -3.84975e-06
1.16066e-05 -3.84975e-06 0.000712721
0.000735821 -2.17945e-05 5.05576e-08
-2.17945e-05 -3.09907e-05 -8.04687e-07
5.05576e-08 -8.04687e-07 -8.39944e-05
0.000575755 -1.70572e-05 -2.33474e-07
-1.70572e-05 -0.000123708 -1.87111e-06
-2.33474e-07 -1.87111e-06 -0.000155768
0.00082615 -3.49351e-06 -2.51962e-07
-3.49351e-06 2.25793e-05 -5.51326e-07
-2.51962e-07 -5.51326e-07 -3.03198e-05
0.000776742 -1.65672e-05 -4.94909e-07
-1.65672e-05 -2.72648e-05 -3.09857e-06
-4.94909e-07 -3.09857e-06 -2.8687e-05
0.000589864 -1.35753e-05 3.90675e-08
-1.35753e-05 -0.000119006 -5.69801e-07
3.90675e-08 -5.69801e-07 -0.000148379
0.000946623 -1.27954e-06 -1.92547e-07
-1.27954e-06 8.70778e-05 5.2106e-07
-1.92547e-07 5.2106e-07 3.81048e-05
0.00204444 -1.5044e-05 -8.1808e-06
-1.5044e-05 0.000657465 -4.00456e-06
-8.1808e-06 -4.00456e-06 0.000680082
0.000771798 -1.10367e-05 -1.02046e-07
-1.10367e-05 -3.37842e-05 -1.6799e-08
-1.02046e-07 -1.6799e-08 -3.33481e-05
0.000592012 -9.51542e-06 1.76361e-07
-9.51542e-06 -0.000120386 1.4574e-06
1.76361e-07 1.4574e-06 -0.000147735
0.00201625 -7.37768e-06 -2.19077e-06
-7.37768e-06 0.000639692 1.68805e-08
-2.19077e-06 1.68805e-08 0.00066313
0.000771971 -5.54943e-06 1.78265e-07
-5.54943e-06 -3.61506e-05 3.10689e-06
1.78265e-07 3.10689e-06 -3.46513e-05
0.00201672 2.64112e-07 -6.35526e-07
2.64112e-07 0.000639097 4.06701e-06
-6.35526e-07 4.06701e-06 0.000662696
0.00109732 1.01554e-05 1.95173e-06
1.01554e-05 7.39023e-05 3.0245e-06
1.95173e-06 3.0245e-06 8.18061e-06
0.00117998 1.37009e-05 -7.59833e-07
1.37009e-05 -0.000154267 3.32927e-07
-7.59833e-07 3.32927e-07 -0.000297169
0.00104605 0.000118037 4.4156e-05
0.000118037 0.000872568 -1.14399e-05
4.4156e-05 -1.14399e-05 0.000821996
0.000905691 1.662e-05 1.48138e-07
1.662e-05 7.07294e-05 5.42688e-08
1.48138e-07 5.42688e-08 3.8024e-06
0.000828333 -7.16519e-06 1.81705e-08
-7.16519e-06 2.51211e-05 3.51158e-08
1.81705e-08 3.51158e-08 -4.16601e-05
0.000963027 2.85175e-05 -4.4838e-07
2.85175e-05 0.000106073 7.75427e-07
-4.4838e-07 7.75427e-07 3.27149e-05
0.00193539 1.91907e-05 3.64733e-06
1.91907e-05 0.000268402 2.66088e-05
3.64733e-06 2.66088e-05 0.000191197
0.00150956 2.88085e-05 -4.46703e-06
2.88085e-05 -4.5015e-05 3.72957e-06
-4.46703e-06 3.72957e-06 -0.000116043
0.00159891 4.39815e-05 2.67854e-05
4.39815e-05 -0.000122707 -2.61391e-05
2.67854e-05 -2.61391e-05 -0.000302026
0.00412518 -8.13148e-05 -4.1521e-05
-8.13148e-05 0.000723009 9.87256e-06
-4.1521e-05 9.87256e-06 0.000374625
0.000891164 0.000260038 -1.91325e-05
0.000260038 -0.000229568 1.16102e-05
-1.91325e-05 1.16102e-05 -0.001599
0.00510743 0.000574432 6.01145e-05
0.000574432 0.00116297 -2.22872e-05
6.01145e-05 -2.22872e-05 0.00127379
0.00167631 0.000150889 9.89851e-06
0.000150889 -0.00143266 -2.11934e-05
9.89851e-06 -2.11934e-05 -0.000687894
0.00316851 -0.000242872 -1.12102e-05
-0.000242872 0.00034692 5.15125e-06
-1.12102e-05 5.15125e-06 3.7082e-05
0.00551051 0.000146844 2.85438e-05
0.000146844 0.00165777 -2.43598e-05
2.85438e-05 -2.43598e-05 0.000195618
0.000780183 8.40528e-05 -1.01918e-05
8.40528e-05 -0.000554734 4.88835e-06
-1.01918e-05 4.88835e-06 -0.000649127
0.00280428 3.34329e-05 -1.88402e-06
3.34329e-05 -0.000670028 8.47498e-07
-1.88402e-06 8.47498e-07 0.000162322
0.00442519 -0.000470327 4.65454e-06
-0.000470327 0.000849659 -5.8394e-05
4.65454e-06 -5.8394e-05 0.000507729
0.00755827 0.000109429 4.82274e-05
0.000109429 0.00290356 -1.24684e-05
4.82274e-05 -1.24684e-05 0.00119266
-0.00121418 6.6123e-05 1.76744e-05
6.6123e-05 -0.000757316 3.51014e-05
1.76744e-05 3.51014e-05 -0.00104374
0.000617265 -0.000130686 8.61093e-06
-0.000130686 -0.00187707 7.73224e-06
8.61093e-06 7.73224e-06 -0.0011285
0.000943907 -2.27229e-06 -1.82398e-08
-2.27229e-06 8.88732e-05 8.83351e-07
-1.82398e-08 8.83351e-07 1.08153e-05
0.000898051 -1.30857e-05 6.09252e-08
-1.30857e-05 7.38564e-05 -1.25447e-07
6.09252e-08 -1.25447e-07 -7.62854e-06
0.000899565 -4.09539e-05 -2.58182e-07
-4.09539e-05 7.94896e-05 -4.12449e-07
-2.58182e-07 -4.12449e-07 4.51793e-07
0.000898675 7.2283e-06 -2.51861e-07
7.2283e-06 6.85442e-05 -3.61739e-07
-2.51861e-07 -3.61739e-07 -4.4929e-06
0.00101027 7.46984e-05 1.17376e-06
7.46984e-05 0.000137412 3.43633e-08
1.17376e-06 3.43633e-08 6.28239e-05
0.00105279 5.84125e-05 -8.27521e-08
5.84125e-05 0.000157923 1.39365e-07
-8.27521e-08 1.39365e-07 8.86666e-05
0.0023792 -0.000312284 8.18354e-06
-0.000312284 0.000545598 -2.29853e-06
8.18354e-06 -2.29853e-06 0.000508364
-0.000360122 -3.72696e-05 7.95251e-06
-3.72696e-05 -0.000518755 -4.50319e-06
7.95251e-06 -4.50319e-06 -0.000640079
0.00105997 3.82814e-05 -3.95528e-08
3.82814e-05 0.00015666 -7.47323e-07
-3.95528e-08 -7.47323e-07 7.46732e-05
0.00130525 -6.91133e-05 2.71978e-06
-6.91133e-05 0.000259184 -5.99303e-06
2.71978e-06 -5.99303e-06 0.000163233
0.00107759 2.77113e-06 -3.25061e-07
2.77113e-06 0.000162218 -1.77848e-06
-3.25061e-07 -1.77848e-06 7.61696e-05
0.000955785 -1.05576e-05 3.10355e-07
-1.05576e-05 8.53546e-05 -2.69935e-07
3.10355e-07 -2.69935e-07 1.0998e-05
0.000943553 4.24034e-05 1.69847e-07
4.24034e-05 8.62438e-05 -2.36883e-08
1.69847e-07 -2.36883e-08 8.43506e-06
0.000822783 -0.00028941 -1.17665e-05
-0.00028941 -3.6363e-05 2.68092e-07
-1.17665e-05 2.68092e-07 -2.15582e-05
0.000865371 -1.82979e-05 9.32569e-07
-1.82979e-05 2.98607e-05 -1.39139e-06
9.32569e-07 -1.39139e-06 -4.27576e-05
0.000893427 6.93349e-06 3.98217e-07
6.93349e-06 0.000304272 -1.78409e-06
3.98217e-07 -1.78409e-06 0.000172714
0.000961049 5.22631e-06 1.39228e-06
5.22631e-06 9.36061e-05 6.59232e-07
1.39228e-06 6.59232e-07 2.46792e-05
-0.00203191 -0.000103025 1.05685e-05
-0.000103025 -0.000993585 -1.52709e-05
1.05685e-05 -1.52709e-05 -0.00125027
0.00118531 7.55144e-07 3.68672e-06
7.55144e-07 0.00039875 1.96992e-05
3.68672e-06 1.96992e-05 0.000368175
0.00097179 -1.64757e-05 6.79939e-07
-1.64757e-05 9.98794e-05 3.16003e-06
6.79939e-07 3.16003e-06 2.987e-05
0.00125445 1.36772e-06 -6.37387e-07
1.36772e-06 0.000420166 5.01114e-07
-6.37387e-07 5.01114e-07 0.000351307
0.000906811 1.95399e-06 2.23874e-07
1.95399e-06 7.16343e-05 1.68516e-07
2.23874e-07 1.68516e-07 9.26398e-06
0.00115384 -1.19352e-05 4.75452e-05
-1.19352e-05 -0.000131449 4.80239e-07
4.75452e-05 4.80239e-07 -0.000271767
0.000614506 7.56535e-05 8.04416e-06
7.56535e-05 7.09514e-05 9.22932e-06
8.04416e-06 9.22932e-06 1.78919e-05
0.00152496 0.000197824 7.26173e-06
0.000197824 0.00058208 -1.41033e-05
7.26173e-06 -1.41033e-05 0.000480037
0.00106178 -5.96502e-08 -2.42253e-06
-5.96502e-08 7.72717e-05 -2.15925e-06
-2.42253e-06 -2.15925e-06 2.93053e-05
0.00235573 0.00012138 -3.3193e-05
0.00012138 0.00015468 -3.49339e-06
-3.3193e-05 -3.49339e-06 -0.0010936
-0.00427027 2.23273e-05 -2.16323e-05
2.23273e-05 -0.00279165 4.71707e-05
-2.16323e-05 4.71707e-05 -0.00307275
0.000926844 1.90703e-06 2.69827e-07
1.90703e-06 -0.000205905 1.21588e-05
2.69827e-07 1.21588e-05 -0.00025981
0.00180197 0.00013423 -8.66881e-06
0.00013423 -0.00128172 2.20609e-05
-8.66881e-06 2.20609e-05 -0.000584416
0.000269562 3.61982e-05 -2.73492e-06
3.61982e-05 6.41653e-05 -3.51328e-06
-2.73492e-06 -3.51328e-06 -2.78663e-06
0.000910849 2.30095e-06 -1.17346e-06
2.30095e-06 0.000120554 1.31283e-06
-1.17346e-06 1.31283e-06 6.07189e-05
0.00152269 1.81884e-05 5.36443e-06
1.81884e-05 -2.65221e-05 -3.52764e-06
5.36443e-06 -3.52764e-06 -0.000105716
0.00201415 0.000304297 5.51979e-05
0.000304297 0.000172147 1.3539e-06
5.51979e-05 1.3539e-06 0.000117245
0.00193458 0.000322372 3.19188e-06
0.000322372 -0.000857977 -8.54884e-06
3.19188e-06 -8.54884e-06 -8.69677e-05
0.000720642 9.19021e-05 1.05944e-05
9.19021e-05 -0.000661362 -6.17554e-06
1.05944e-05 -6.17554e-06 -0.000663151
0.00722462 0.000182158 1.64016e-05
0.000182158 0.00282408 -1.84287e-05
1.64016e-05 -1.84287e-05 0.00115702
-0.00046028 1.0248e-05 -2.85609e-05
1.0248e-05 -7.49532e-05 -1.42263e-05
-2.85609e-05 -1.42263e-05 -0.000229951
0.00114497 7.76907e-06 -1.02544e-06
7.76907e-06 0.000107544 -1.74587e-06
-1.02544e-06 -1.74587e-06 4.09549e-05
0.00178224 4.57037e-05 5.6731e-05
4.57037e-05 -6.18367e-05 -3.13317e-05
5.6731e-05 -3.13317e-05 -0.000192699
0.00196993 0.000533993 1.93052e-05
0.000533993 0.000378073 -5.3674e-06
1.93052e-05 -5.3674e-06 0.0013147
-0.00489437 0.000255243 7.08832e-05
0.000255243 -0.00356302 -1.1008e-05
7.08832e-05 -1.1008e-05 -0.00330618
0.00776852 0.000203079 2.18394e-05
0.000203079 0.00280754 -4.71854e-05
2.18394e-05 -4.71854e-05 0.00102329
0.00332183 -9.93329e-05 -4.53821e-06
-9.93329e-05 0.000589644 0.000103608
-4.53821e-06 0.000103608 0.000592083
0.00143761 4.70294e-06 -7.6285e-06
4.70294e-06 0.000410855 9.16229e-06
-7.6285e-06 9.16229e-06 0.000363812
0.000126935 -3.83227e-05 3.24087e-06
-3.83227e-05 -0.000106141 1.59961e-06
3.24087e-06 1.59961e-06 -0.000214889
0.000473187 -6.81908e-05 4.45564e-06
-6.81908e-05 0.000118993 -5.7841e-06
4.45564e-06 -5.7841e-06 -4.4025e-05
0.000900635 -2.38105e-05 -3.28183e-07
-2.38105e-05 5.05021e-05 -2.41311e-07
-3.28183e-07 -2.41311e-07 -1.22435e-05
0.000549465 -1.91222e-05 -5.91229e-07
-1.91222e-05 -0.000122509 3.49413e-06
-5.91229e-07 3.49413e-06 -0.000160992
0.000734781 -1.38683e-05 2.25352e-07
-1.38683e-05 6.06148e-05 2.04689e-07
2.25352e-07 2.04689e-07 -2.9063e-05
0.000865599 -9.80621e-05 6.83425e-06
-9.80621e-05 0.000220636 -2.21645e-06
6.83425e-06 -2.21645e-06 2.92192e-05
0.00127974 -3.531e-05 -1.20235e-06
-3.531e-05 0.000278123 8.1142e-08
-1.20235e-06 8.1142e-08 0.000200288
0.00113645 -9.07715e-05 7.39545e-07
-9.07715e-05 0.000262418 4.32602e-07
7.39545e-07 4.32602e-07 0.000128451
0.00100238 -0.000117937 2.79189e-06
-0.000117937 0.000194964 3.74586e-06
2.79189e-06 3.74586e-06 -1.0714e-05
0.000460589 -4.99131e-05 -1.17179e-06
-4.99131e-05 -0.000115099 -1.71986e-06
-1.17179e-06 -1.71986e-06 -0.000220135
0.00106794 -0.000116205 -4.83195e-07
-0.000116205 0.000186188 1.43769e-07
-4.83195e-07 1.43769e-07 2.95897e-05
0.001682 -0.00016242 -9.20713e-07
-0.00016242 0.00044294 2.41348e-06
-9.20713e-07 2.41348e-06 0.000261812
0.00160159 -0.000157569 -4.1516e-06
-0.000157569 0.000350891 2.70267e-06
-4.1516e-06 2.70267e-06 0.000193844
0.000800004 -0.000101227 -1.5139e-06
-0.000101227 6.75597e-06 2.72641e-06
-1.5139e-06 2.72641e-06 -0.000116951
0.00104359 -0.000116628 -1.35544e-06
-0.000116628 0.000115666 9.04521e-07
-1.35544e-06 9.04521e-07 -2.73099e-05
0.00095389 -0.000104869 -1.27777e-06
-0.000104869 0.000104522 -1.29064e-06
-1.27777e-06 -1.29064e-06 -3.02252e-05
0.00118198 -0.000113321 6.96734e-07
-0.000113321 0.000228517 -8.23182e-07
6.96734e-07 -8.23182e-07 0.000118029
0.00109299 -0.000109767 1.89843e-06
-0.000109767 0.000186251 -9.76469e-07
1.89843e-06 -9.76469e-07 7.05792e-05
0.000724525 -3.55007e-05 3.73009e-08
-3.55007e-05 -5.72541e-06 1.47729e-06
3.73009e-08 1.47729e-06 -9.85618e-05
0.000876711 -7.99319e-05 5.02567e-07
-7.99319e-05 8.65403e-05 -1.61614e-07
5.02567e-07 -1.61614e-07 -2.01807e-05
0.000959571 -0.000101114 3.59078e-06
-0.000101114 0.000118911 -2.8392e-06
3.59078e-06 -2.8392e-06 6.58969e-07
0.000859828 3.49846e-05 -4.64895e-08
3.49846e-05 4.79912e-05 1.42014e-06
-4.64895e-08 1.42014e-06 -1.77912e-05
0.000934442 -2.23637e-05 -1.84143e-07
-2.23637e-05 9.50479e-05 -3.70999e-09
-1.84143e-07 -3.70999e-09 1.41769e-05
0.00108585 -7.09075e-05 4.71139e-08
-7.09075e-05 0.000183916 -6.18308e-07
4.71139e-08 -6.18308e-07 8.49666e-05
0.000786361 3.84802e-05 -9.85784e-07
3.84802e-05 5.60369e-06 1.80636e-06
-9.85784e-07 1.80636e-06 -3.22972e-05
0.000846259 2.53804e-05 -1.51084e-07
2.53804e-05 3.61927e-05 -1.46473e-07
-1.51084e-07 -1.46473e-07 -2.07871e-05
0.000724383 -1.92614e-06 2.9848e-07
-1.92614e-06 -1.97725e-05 -1.10821e-06
2.9848e-07 -1.10821e-06 -9.38137e-05
0.000853887 1.32791e-05 4.52764e-07
1.32791e-05 3.65823e-05 -1.21308e-06
4.52764e-07 -1.21308e-06 -1.45721e-05
0.000800096 3.51584e-05 -9.09212e-09
3.51584e-05 7.10114e-06 -3.049e-08
-9.09212e-09 -3.049e-08 -2.71296e-05
0.000715038 3.39775e-05 -1.71564e-06
3.39775e-05 -3.71406e-05 3.33176e-06
-1.71564e-06 3.33176e-06 -4.48916e-05
0.00081209 2.86444e-05 9.09558e-07
2.86444e-05 7.2272e-06 -1.72673e-06
9.09558e-07 -1.72673e-06 -2.43984e-05
0.000744783 3.01313e-05 9.14918e-08
3.01313e-05 -2.92047e-05 -3.73571e-09
9.14918e-08 -3.73571e-09 -3.47456e-05
0.00209303 4.18639e-05 -1.9525e-05
4.18639e-05 0.000701836 3.52365e-06
-1.9525e-05 3.52365e-06 0.000720021
0.000761763 2.58217e-05 1.2259e-06
2.58217e-05 -2.69879e-05 -3.20766e-06
1.2259e-06 -3.20766e-06 -3.08081e-05
0.00150096 3.14772e-05 7.9433e-06
3.14772e-05 0.000375885 -9.99529e-07
7.9433e-06 -9.99529e-07 0.000392462
0.00209252 2.9066e-05 1.47767e-05
2.9066e-05 0.000690803 -3.72998e-06
1.47767e-05 -3.72998e-06 0.000711363
0.000854582 1.26282e-05 -5.11338e-07
1.26282e-05 3.30607e-05 -4.71784e-07
-5.11338e-07 -4.71784e-07 -2.1009e-05
0.000793531 -1.95058e-05 -6.50131e-07
-1.95058e-05 -5.73416e-06 -1.38468e-06
-6.50131e-07 -1.38468e-06 -3.85874e-05
0.000778846 1.07054e-05 -6.85951e-07
1.07054e-05 -3.9986e-06 -4.81147e-07
-6.85951e-07 -4.81147e-07 -5.86046e-05
0.000769376 -2.17919e-05 -5.05036e-07
-2.17919e-05 -2.61447e-05 -3.17428e-06
-5.05036e-07 -3.17428e-06 -2.97872e-05
0.000693318 -1.73294e-05 -9.44335e-08
-1.73294e-05 -6.10863e-05 -6.05619e-07
-9.44335e-08 -6.05619e-07 -9.25182e-05
0.000949445 -4.82969e-06 -1.934e-08
-4.82969e-06 8.77807e-05 -9.69609e-08
-1.934e-08 -9.69609e-08 3.56282e-05
0.00208574 -2.23273e-05 -1.15883e-05
-2.23273e-05 0.000683339 -3.95858e-06
-1.15883e-05 -3.95858e-06 0.000704783
0.000764958 -1.62894e-05 -1.45025e-07
-1.62894e-05 -3.36137e-05 -1.58965e-08
-1.45025e-07 -1.58965e-08 -3.49326e-05
0.00057907 -1.3563e-05 7.78384e-08
-1.3563e-05 -0.000124612 7.52049e-07
7.78384e-08 7.52049e-07 -0.00015428
0.00203585 -1.46004e-05 -1.9851e-06
-1.46004e-05 0.000652452 3.22675e-08
-1.9851e-06 3.22675e-08 0.000675223
0.000763432 -1.08062e-05 3.84393e-07
-1.08062e-05 -3.83342e-05 3.08982e-06
3.84393e-07 3.08982e-06 -3.7822e-05
0.00201327 -6.95808e-06 3.15962e-06
-6.95808e-06 0.000637878 4.03189e-06
3.15962e-06 4.03189e-06 0.000661374
0.001149 3.86804e-06 1.98892e-06
3.86804e-06 0.000253132 -5.51211e-06
1.98892e-06 -5.51211e-06 0.000189266
0.00108514 8.98882e-06 -8.23416e-07
8.98882e-06 6.65094e-05 4.16746e-07
-8.23416e-07 4.16746e-07 4.02606e-06
0.00135187 9.1867e-06 3.28618e-05
9.1867e-06 -4.72174e-05 -1.6901e-06
3.28618e-05 -1.6901e-06 -0.000183467
0.000817506 -3.89268e-05 3.93832e-08
-3.89268e-05 1.59742e-05 -3.52762e-07
3.93832e-08 -3.52762e-07 -4.93682e-05
0.000962648 -1.55954e-05 -1.98751e-07
-1.55954e-05 9.95576e-05 -4.70197e-07
-1.98751e-07 -4.70197e-07 2.83522e-05
0.000932251 1.79242e-05 1.16117e-06
1.79242e-05 8.35747e-05 -1.49652e-07
1.16117e-06 -1.49652e-07 1.82894e-05
0.000835266 -2.19273e-05 2.37792e-08
-2.19273e-05 2.60777e-05 2.02056e-08
2.37792e-08 2.02056e-08 -3.90254e-05
0.000904853 7.58416e-06 3.94132e-09
7.58416e-06 7.20249e-05 3.00819e-07
3.94132e-09 3.00819e-07 -3.48575e-07
0.000944079 9.15223e-08 -7.77353e-07
9.15223e-08 9.09381e-05 2.29511e-07
-7.77353e-07 2.29511e-07 1.96997e-05
0.000908766 9.10885e-05 2.89343e-07
9.10885e-05 8.25772e-05 9.27874e-07
2.89343e-07 9.27874e-07 2.29069e-06
0.00130929 -1.6187e-07 1.12898e-05
-1.6187e-07 -0.000121151 3.34424e-05
1.12898e-05 3.34424e-05 -0.000211788
0.00139195 1.47554e-05 2.04075e-07
1.47554e-05 6.6205e-06 8.85993e-06
2.04075e-07 8.85993e-06 -5.96125e-05
0.00134035 2.63964e-05 2.38893e-06
2.63964e-05 -0.000161962 -1.49374e-05
2.38893e-06 -1.49374e-05 -0.000231447
0.00122577 2.05167e-05 7.80404e-07
2.05167e-05 -0.00172144 -1.64538e-05
7.80404e-07 -1.64538e-05 -0.000862181
0.00179567 -0.00025128 -3.54045e-05
-0.00025128 -0.000475882 6.17843e-05
-3.54045e-05 6.17843e-05 -0.000935943
0.00162552 0.000108393 4.19315e-05
0.000108393 -5.50578e-05 -1.62492e-05
4.19315e-05 -1.62492e-05 -0.00146532
0.00477741 0.000401465 3.20222e-05
0.000401465 0.00161058 -2.47609e-05
3.20222e-05 -2.47609e-05 0.00114084
0.00285542 -0.000394058 -2.37089e-05
-0.000394058 7.52431e-05 7.79021e-06
-2.37089e-05 7.79021e-06 -0.00043253
0.0021589 -0.00012214 4.04785e-05
-0.00012214 7.91585e-05 -3.59065e-05
4.04785e-05 -3.59065e-05 -0.00140177
0.00355599 1.45155e-05 -1.88984e-05
1.45155e-05 0.000896396 1.5946e-06
-1.88984e-05 1.5946e-06 0.000580718
0.00389844 -0.000177346 -5.36744e-06
-0.000177346 0.000198575 -1.28664e-05
-5.36744e-06 -1.28664e-05 0.000957903
0.00288965 -0.000240543 -8.24156e-06
-0.000240543 0.00027931 -7.43287e-06
-8.24156e-06 -7.43287e-06 0.000310047
0.0026501 -0.000334441 2.52678e-05
-0.000334441 -0.000301898 -7.64347e-05
2.52678e-05 -7.64347e-05 -0.00131904
-0.00203094 -0.000186066 4.27477e-05
-0.000186066 -0.00243582 2.52694e-05
4.27477e-05 2.52694e-05 -0.00274066
0.000690787 -0.000239923 2.99092e-05
-0.000239923 -0.00146843 -5.13241e-07
2.99092e-05 -5.13241e-07 -0.000692742
0.00103281 -4.68437e-05 -9.76685e-08
-4.68437e-05 0.000129318 1.54879e-06
-9.76685e-08 1.54879e-06 5.88089e-05
0.000848061 -1.27379e-06 1.01865e-07
-1.27379e-06 3.77953e-05 -4.32442e-08
1.01865e-07 -4.32442e-08 -3.99516e-05
0.000845034 -2.88875e-06 -4.90025e-07
-2.88875e-06 4.78225e-05 -1.21877e-06
-4.90025e-07 -1.21877e-06 -3.4833e-05
0.000898698 2.11331e-05 -4.50409e-08
2.11331e-05 6.97447e-05 -1.2648e-06
-4.50409e-08 -1.2648e-06 -4.06436e-06
0.00368996 -0.000343881 4.98731e-06
-0.000343881 0.00139691 5.11733e-06
4.98731e-06 5.11733e-06 0.00138145
0.000808109 -2.93915e-06 6.18909e-06
-2.93915e-06 0.000283828 -8.46023e-06
6.18909e-06 -8.46023e-06 0.000171384
0.000812861 -2.67481e-05 4.54812e-09
-2.67481e-05 4.37607e-06 -1.54719e-06
4.54812e-09 -1.54719e-06 -6.89485e-05
0.000915109 4.10459e-05 2.39453e-07
4.10459e-05 7.7668e-05 -1.71981e-06
2.39453e-07 -1.71981e-06 -2.35846e-06
0.00127799 1.11528e-06 1.67699e-06
1.11528e-06 0.000256105 -6.85879e-06
1.67699e-06 -6.85879e-06 0.00018224
0.000911927 -2.09603e-06 6.25669e-09
-2.09603e-06 6.53475e-05 9.96134e-08
6.25669e-09 9.96134e-08 -3.53995e-06
0.000892141 -1.11423e-05 -1.26276e-06
-1.11423e-05 6.21254e-05 -3.05183e-07
-1.26276e-06 -3.05183e-07 -1.09268e-05
0.000129735 -0.000120907 -7.38944e-06
-0.000120907 8.13396e-05 -5.89489e-06
-7.38944e-06 -5.89489e-06 -0.000158909
0.00103742 -1.26783e-05 -4.45238e-07
-1.26783e-05 0.000340072 4.78986e-06
-4.45238e-07 4.78986e-06 0.000316294
0.000881208 -1.5615e-05 1.41928e-06
-1.5615e-05 6.31353e-05 -7.57021e-07
1.41928e-06 -7.57021e-07 -4.66679e-06
0.000586867 3.24237e-05 -1.00338e-05
3.24237e-05 0.00074926 -3.00571e-05
-1.00338e-05 -3.00571e-05 8.41399e-05
0.00144346 -4.02795e-05 -8.6068e-07
-4.02795e-05 0.000539455 1.44572e-05
-8.6068e-07 1.44572e-05 0.000468456
0.00130559 6.64167e-07 -5.22535e-06
6.64167e-07 0.000287911 -4.19541e-07
-5.22535e-06 -4.19541e-07 0.00022327
0.000779508 1.6483e-06 3.90903e-08
1.6483e-06 0.000130537 1.40137e-07
3.90903e-08 1.40137e-07 5.53155e-05
0.000524897 2.62503e-06 -3.3921e-06
2.62503e-06 -0.000131486 7.05073e-07
-3.3921e-06 7.05073e-07 -0.000196368
0.00120531 4.58468e-05 6.77033e-07
4.58468e-05 0.000508416 6.23167e-06
6.77033e-07 6.23167e-06 0.000459486
0.00185402 0.000196011 -6.88405e-05
0.000196011 0.000421519 1.21714e-05
-6.88405e-05 1.21714e-05 0.000476116
0.000540113 1.58424e-06 -1.75492e-06
1.58424e-06 -9.15834e-05 -3.87776e-06
-1.75492e-06 -3.87776e-06 -0.000155426
0.00310719 0.00018093 6.52795e-05
0.00018093 0.000686785 -8.50019e-05
6.52795e-05 -8.50019e-05 -0.000819471
0.00476065 0.000439972 -3.25872e-05
0.000439972 0.0015539 2.87708e-05
-3.25872e-05 2.87708e-05 0.00116514
0.00133898 1.47552e-05 -2.98749e-06
1.47552e-05 -0.000153273 1.47777e-05
-2.98749e-06 1.47777e-05 -0.000230444
0.00293467 0.000331379 -3.59914e-05
0.000331379 -0.000160126 2.37993e-05
-3.59914e-05 2.37993e-05 0.000533655
-0.000407138 -2.57223e-05 2.68941e-05
-2.57223e-05 -4.37035e-05 -3.35009e-06
2.68941e-05 -3.35009e-06 -0.000210911
0.00108909 6.77243e-06 1.33643e-06
6.77243e-06 7.10837e-05 -5.63436e-07
1.33643e-06 -5.63436e-07 8.30451e-06
0.0016768 3.82759e-05 1.42097e-05
3.82759e-05 -0.000111476 -5.27581e-06
1.42097e-05 -5.27581e-06 -0.000277758
0.00192199 -2.35899e-05 -1.36758e-05
-2.35899e-05 1.43015e-05 2.33768e-05
-1.36758e-05 2.33768e-05 0.00015823
-8.17518e-05 0.000561546 -1.49903e-06
0.000561546 -0.00100381 4.2467e-06
-1.49903e-06 4.2467e-06 0.000158816
0.0036223 0.000490477 1.66629e-06
0.000490477 0.000206176 3.53291e-06
1.66629e-06 3.53291e-06 0.000408618
0.00222664 -0.000116923 4.00504e-05
-0.000116923 0.000280669 -1.81022e-05
4.00504e-05 -1.81022e-05 -0.00160948
0.00102807 -7.88459e-05 3.69405e-05
-7.88459e-05 0.000414261 -7.99557e-06
3.69405e-05 -7.99557e-06 0.000360235
0.000971861 1.08219e-05 3.13921e-05
1.08219e-05 -0.000291253 -9.80436e-06
3.13921e-05 -9.80436e-06 -0.00044947
-0.00116059 0.000249551 7.50282e-06
0.000249551 -0.000643884 -1.39583e-05
7.50282e-06 -1.39583e-05 -0.000519396
0.000210631 0.000493169 3.71932e-05
0.000493169 -0.000136603 2.46232e-06
3.71932e-05 2.46232e-06 0.000202546
0.0089636 0.000506121 2.59413e-05
0.000506121 0.00322845 -4.8312e-05
2.59413e-05 -4.8312e-05 0.00167303
0.00290176 -0.000303311 -5.86449e-05
-0.000303311 0.000264879 8.59453e-05
-5.86449e-05 8.59453e-05 -0.000131493
0.00017514 -4.24029e-05 -7.36174e-06
-4.24029e-05 -8.7377e-05 9.43514e-06
-7.36174e-06 9.43514e-06 -0.000207955
0.000390258 -3.45098e-05 -9.08147e-07
-3.45098e-05 8.99949e-05 -4.63086e-07
-9.08147e-07 -4.63086e-07 -7.66835e-05
0.00143459 -0.000155787 1.37162e-05
-0.000155787 0.00047042 -4.54435e-06
1.37162e-05 -4.54435e-06 0.000334907
0.000638654 1.67453e-05 -2.96477e-06
1.67453e-05 1.4197e-05 -8.71815e-07
-2.96477e-06 -8.71815e-07 -6.63905e-05
0.000321893 -5.36664e-05 9.4121e-07
-5.36664e-05 -3.62023e-05 -1.16751e-06
9.4121e-07 -1.16751e-06 -0.000231789
0.00109596 -0.000131807 6.42788e-06
-0.000131807 0.000209112 5.15628e-06
6.42788e-06 5.15628e-06 4.58613e-06
0.00168546 -0.000141164 -2.09861e-06
-0.000141164 0.00052816 -6.88284e-07
-2.09861e-06 -6.88284e-07 0.000388672
0.00125998 -0.000130074 3.05248e-07
-0.000130074 0.000312103 1.3126e-06
3.05248e-07 1.3126e-06 0.000107051
0.00124516 -0.00015751 -1.15608e-06
-0.00015751 0.000178547 1.11893e-08
-1.15608e-06 1.11893e-08 -1.84887e-05
0.00112305 -0.000117044 -1.56179e-06
-0.000117044 0.000214948 -2.06719e-06
-1.56179e-06 -2.06719e-06 5.33861e-05
0.0016039 -0.00015827 4.74295e-07
-0.00015827 0.000394338 2.44766e-07
4.74295e-07 2.44766e-07 0.000215133
0.0012946 -0.000153537 -7.33044e-07
-0.000153537 0.000156713 -1.08846e-06
-7.33044e-07 -1.08846e-06 -2.04199e-05
0.00150807 -0.000155264 -2.65663e-06
-0.000155264 0.000225334 -1.42238e-06
-2.65663e-06 -1.42238e-06 7.4729e-05
0.00174639 -0.000157672 -4.8231e-06
-0.000157672 0.000438922 4.09452e-06
-4.8231e-06 4.09452e-06 0.000296104
0.00142842 -0.000150437 -8.56236e-07
-0.000150437 0.000257551 4.39414e-07
-8.56236e-07 4.39414e-07 9.74531e-05
0.000618766 -8.95421e-05 1.55495e-07
-8.95421e-05 -9.28202e-05 -1.60892e-07
1.55495e-07 -1.60892e-07 -0.000204178
0.000871755 -0.000104241 1.68271e-06
-0.000104241 4.3719e-05 -4.31626e-07
1.68271e-06 -4.31626e-07 -7.89415e-05
0.000959754 -0.000113651 1.2311e-06
-0.000113651 7.03187e-05 -2.22415e-06
1.2311e-06 -2.22415e-06 -7.37081e-05
0.00102937 -0.000100228 -7.03414e-08
-0.000100228 0.00014474 6.54207e-07
-7.03414e-08 6.54207e-07 3.964e-05
0.00113162 -0.000110084 -1.75573e-07
-0.000110084 0.000203463 -4.66654e-07
-1.75573e-07 -4.66654e-07 9.26068e-05
0.000789166 -9.312e-05 3.42137e-06
-9.312e-05 2.88235e-05 -4.65187e-07
3.42137e-06 -4.65187e-07 -8.3069e-05
0.00083043 1.3161e-05 4.19815e-07
1.3161e-05 3.8903e-05 1.43772e-06
4.19815e-07 1.43772e-06 -3.94985e-05
0.000832705 -4.07209e-05 4.57413e-08
-4.07209e-05 5.16098e-05 5.35436e-07
4.57413e-08 5.35436e-07 -4.07376e-05
0.00110911 -8.75189e-05 1.20627e-06
-8.75189e-05 0.000207398 -1.50611e-06
1.20627e-06 -1.50611e-06 0.0001013
0.000772158 4.91982e-05 -7.1276e-07
4.91982e-05 4.41647e-06 2.14424e-06
-7.1276e-07 2.14424e-06 -4.06197e-05
0.00084486 1.95263e-05 -1.61117e-07
1.95263e-05 4.12463e-05 -9.77924e-08
-1.61117e-07 -9.77924e-08 -2.55031e-05
0.000940773 -3.16533e-05 3.2305e-07
-3.16533e-05 9.9579e-05 -9.95802e-07
3.2305e-07 -9.95802e-07 1.75221e-05
0.000723672 3.82618e-05 -2.98176e-06
3.82618e-05 -2.52334e-05 4.62104e-06
-2.98176e-06 4.62104e-06 -3.55461e-05
0.000785062 4.36441e-05 9.71633e-08
4.36441e-05 5.97462e-06 -9.01484e-08
9.71633e-08 -9.01484e-08 -3.26818e-05
0.000839641 1.86764e-05 2.96677e-07
1.86764e-05 3.23007e-05 -1.33067e-06
2.96677e-07 -1.33067e-06 -2.44155e-05
0.000799416 3.7708e-05 6.64605e-07
3.7708e-05 6.88855e-06 -1.85789e-06
6.64605e-07 -1.85789e-06 -2.75801e-05
0.000736955 3.47566e-05 4.51358e-08
3.47566e-05 -2.56907e-05 -2.45704e-08
4.51358e-08 -2.45704e-08 -3.3538e-05
0.00211087 4.84232e-05 -2.22262e-05
4.84232e-05 0.000719088 3.3851e-06
-2.22262e-05 3.3851e-06 0.00073548
0.000761929 3.07157e-05 1.51703e-06
3.07157e-05 -2.02287e-05 -3.25955e-06
1.51703e-06 -3.25955e-06 -2.583e-05
0.0020972 4.21937e-05 1.15284e-06
4.21937e-05 0.000705065 7.20572e-08
1.15284e-06 7.20572e-08 0.000723059
0.00208934 3.5834e-05 1.78074e-05
3.5834e-05 0.000694889 -3.61309e-06
1.78074e-05 -3.61309e-06 0.00071426
0.000893163 5.42527e-06 -1.22805e-07
5.42527e-06 6.10361e-05 -6.53269e-07
-1.22805e-07 -6.53269e-07 -7.36391e-06
0.00084737 2.69058e-05 -9.76489e-07
2.69058e-05 3.32648e-05 -1.01808e-06
-9.76489e-07 -1.01808e-06 -2.50493e-05
0.00078938 -2.65394e-05 -6.98205e-07
-2.65394e-05 -5.2843e-06 -1.58655e-06
-6.98205e-07 -1.58655e-06 -4.03273e-05
0.000853039 1.45024e-05 -1.30862e-07
1.45024e-05 3.16922e-05 -4.04125e-08
-1.30862e-07 -4.04125e-08 -2.21084e-05
0.000756361 -2.62371e-05 -8.56634e-07
-2.62371e-05 -2.73176e-05 -3.27199e-06
-8.56634e-07 -3.27199e-06 -3.32738e-05
0.000801868 -2.10348e-05 -1.22632e-07
-2.10348e-05 -8.0252e-07 3.14561e-09
-1.22632e-07 3.14561e-09 -3.38024e-05
0.000822276 3.83361e-06 1.207e-07
3.83361e-06 1.40902e-05 -3.91338e-08
1.207e-07 -3.91338e-08 -3.61982e-05
0.00213553 -2.95372e-05 -1.49183e-05
-2.95372e-05 0.000714864 -3.90823e-06
-1.49183e-05 -3.90823e-06 0.000734846
0.000755075 -2.13792e-05 -1.2209e-07
-2.13792e-05 -3.38103e-05 -1.74043e-08
-1.2209e-07 -1.74043e-08 -3.73375e-05
0.000809053 -1.79023e-05 9.09217e-08
-1.79023e-05 5.12133e-07 7.81404e-07
9.09217e-08 7.81404e-07 -3.02912e-05
0.0020755 -2.19273e-05 -1.90278e-06
-2.19273e-05 0.000677311 4.95954e-08
-1.90278e-06 4.95954e-08 0.000698951
0.000752299 -1.60186e-05 3.93937e-07
-1.60186e-05 -4.04098e-05 3.10724e-06
3.93937e-07 3.10724e-06 -4.16274e-05
0.00202933 -1.41306e-05 7.07341e-06
-1.41306e-05 0.000648534 3.99098e-06
7.07341e-06 3.99098e-06 0.000671447
0.00102971 -4.44178e-06 1.40096e-06
-4.44178e-06 7.91231e-05 -1.13944e-06
1.40096e-06 -1.13944e-06 1.47641e-05
0.000889961 3.00998e-06 1.19346e-06
3.00998e-06 0.000114872 -1.02043e-06
1.19346e-06 -1.02043e-06 4.68246e-05
0.0010699 7.80365e-06 -3.68747e-06
7.80365e-06 5.71401e-05 3.30547e-06
-3.68747e-06 3.30547e-06 -2.43133e-06
0.000851921 -4.84413e-06 -2.72783e-07
-4.84413e-06 3.86713e-05 -2.30204e-08
-2.72783e-07 -2.30204e-08 -2.91355e-05
0.000911665 -2.14462e-05 -1.43747e-07
-2.14462e-05 7.2057e-05 2.63247e-07
-1.43747e-07 2.63247e-07 3.85007e-07
0.000851361 -1.93423e-05 2.18213e-07
-1.93423e-05 4.3448e-05 -1.62114e-06
2.18213e-07 -1.62114e-06 -3.32628e-05
0.000809086 -2.74483e-05 -1.07155e-07
-2.74483e-05 1.84126e-05 -6.66139e-07
-1.07155e-07 -6.66139e-07 -5.27498e-05
0.00101763 2.65137e-05 -5.47603e-07
2.65137e-05 0.00013707 -1.79393e-07
-5.47603e-07 -1.79393e-07 5.73989e-05
0.000816486 -3.04135e-05 -3.3814e-08
-3.04135e-05 1.39515e-05 1.33797e-07
-3.3814e-08 1.33797e-07 -4.99169e-05
0.000833153 -1.30779e-05 2.73418e-07
-1.30779e-05 3.0732e-05 -4.92974e-07
2.73418e-07 -4.92974e-07 -4.04954e-05
0.000904863 1.11188e-05 -1.86449e-07
1.11188e-05 7.17292e-05 -5.31993e-08
-1.86449e-07 -5.31993e-08 2.93819e-07
0.000924952 2.45374e-05 8.33562e-08
2.45374e-05 8.17477e-05 3.56173e-07
8.33562e-08 3.56173e-07 5.27768e-06
0.000990317 1.58625e-05 -1.03684e-07
1.58625e-05 0.000122546 5.55474e-07
-1.03684e-07 5.55474e-07 4.6658e-05
0.00183931 -3.9207e-05 3.85976e-05
-3.9207e-05 0.000169272 4.04291e-05
3.85976e-05 4.04291e-05 -2.93462e-05
0.00172522 -3.07555e-07 2.3009e-06
-3.07555e-07 0.000120842 1.22828e-05
2.3009e-06 1.22828e-05 3.57483e-05
0.00102307 1.15792e-05 1.1098e-06
1.15792e-05 -0.000138111 -2.97502e-06
1.1098e-06 -2.97502e-06 -0.000191646
0.00412509 -0.000160866 -1.9795e-05
-0.000160866 0.000501977 -3.15825e-05
-1.9795e-05 -3.15825e-05 0.00125101
-0.00395853 0.000129444 -1.2108e-05
0.000129444 -0.00269427 -3.58005e-05
-1.2108e-05 -3.58005e-05 -0.00302288
0.00195158 -0.000359049 -7.76923e-05
-0.000359049 -0.000329993 7.33434e-05
-7.76923e-05 7.33434e-05 -0.000942603
0.00746664 0.000121219 -3.12379e-05
0.000121219 0.00225013 -4.37144e-05
-3.12379e-05 -4.37144e-05 0.0010363
0.00284808 -0.000294062 -4.27877e-05
-0.000294062 0.000152349 4.05743e-05
-4.27877e-05 4.05743e-05 -0.000181965
0.00819228 -0.000173579 3.98439e-05
-0.000173579 0.00285427 -2.03734e-06
3.98439e-05 -2.03734e-06 0.00140929
0.000523245 -0.000200869 1.94593e-05
-0.000200869 -0.000892791 -1.2709e-05
1.94593e-05 -1.2709e-05 -0.00107352
0.000847519 -0.000283957 -1.17267e-05
-0.000283957 -0.00150681 -3.12704e-05
-1.17267e-05 -3.12704e-05 -0.000603935
0.00295035 -0.000118768 -8.0242e-05
-0.000118768 0.000464803 -3.75208e-05
-8.0242e-05 -3.75208e-05 7.95741e-05
0.00806022 -0.000387781 -1.96533e-05
-0.000387781 0.00231488 5.10854e-05
-1.96533e-05 5.10854e-05 0.00124868
0.00775437 -0.000676201 2.99939e-05
-0.000676201 0.00225242 9.49546e-06
2.99939e-05 9.49546e-06 0.00245639
0.00241565 -0.000463866 1.60965e-05
-0.000463866 0.000142604 6.17488e-07
1.60965e-05 6.17488e-07 0.00118458
0.000796849 1.43479e-05 9.86937e-07
1.43479e-05 3.39245e-05 1.40914e-06
9.86937e-07 1.40914e-06 -3.004e-05
0.000982965 -3.67326e-05 -1.30366e-07
-3.67326e-05 0.000107008 3.62855e-07
-1.30366e-07 3.62855e-07 3.51956e-05
0.000813905 -1.84474e-06 1.716e-07
-1.84474e-06 1.84917e-05 -9.93169e-07
1.716e-07 -9.93169e-07 -5.87352e-05
0.0019157 -0.00012701 1.16747e-05
-0.00012701 0.000949042 2.77508e-06
1.16747e-05 2.77508e-06 0.000737903
0.000606372 -3.59903e-05 -3.223e-06
-3.59903e-05 0.000137629 -6.58321e-06
-3.223e-06 -6.58321e-06 0.00011853
0.000853439 -1.37654e-05 -7.71211e-07
-1.37654e-05 3.36676e-05 -3.1827e-07
-7.71211e-07 -3.1827e-07 -3.6139e-05
0.00089046 -4.85424e-05 -1.35541e-06
-4.85424e-05 5.90581e-05 -3.54733e-06
-1.35541e-06 -3.54733e-06 -1.2707e-05
0.000840955 -1.2366e-05 -5.28378e-07
-1.2366e-05 4.17327e-05 -4.43456e-07
-5.28378e-07 -4.43456e-07 -2.51428e-05
0.00047549 -3.43673e-05 1.48109e-06
-3.43673e-05 4.18386e-05 5.00571e-06
1.48109e-06 5.00571e-06 -3.07178e-05
-0.000137781 -1.01838e-05 2.28596e-05
-1.01838e-05 0.000287693 -2.55124e-05
2.28596e-05 -2.55124e-05 -0.000337204
-0.000240767 -1.64474e-05 -2.37881e-06
-1.64474e-05 -0.000351117 5.36478e-06
-2.37881e-06 5.36478e-06 -0.000442583
0.0011046 0.000126359 1.56767e-05
0.000126359 0.000484271 -1.72979e-05
1.56767e-05 -1.72979e-05 0.000147819
0.00130038 -1.13044e-06 2.53499e-05
-1.13044e-06 -7.83897e-05 2.1067e-07
2.53499e-05 2.1067e-07 -0.000224258
0.000870122 9.97324e-07 4.14334e-08
9.97324e-07 5.0799e-05 -2.48346e-07
4.14334e-08 -2.48346e-07 -1.54559e-05
0.0003172 1.80285e-06 3.21522e-07
1.80285e-06 -0.000150226 -1.85064e-07
3.21522e-07 -1.85064e-07 -0.000231613
-0.000845706 -4.11609e-05 -3.2154e-05
-4.11609e-05 -0.000210491 1.09167e-05
-3.2154e-05 1.09167e-05 -0.000404515
0.00135279 6.19761e-05 2.55581e-05
6.19761e-05 -0.000448996 -4.46364e-05
2.55581e-05 -4.46364e-05 -0.00058919
0.00103612 5.74788e-06 3.88636e-06
5.74788e-06 3.69222e-05 -4.40021e-06
3.88636e-06 -4.40021e-06 -2.26344e-05
0.00972487 0.000125113 6.66663e-05
0.000125113 0.00349144 6.11132e-06
6.66663e-05 6.11132e-06 0.00178115
0.00533558 0.00065109 -5.25629e-05
0.00065109 0.00130882 2.88921e-05
-5.25629e-05 2.88921e-05 0.00143129
0.00154739 3.29899e-05 -2.89533e-05
3.29899e-05 -0.000176551 2.49726e-05
-2.89533e-05 2.49726e-05 -0.000381547
-0.00218305 0.000595018 -1.00625e-05
0.000595018 -0.00242697 -2.20337e-05
-1.00625e-05 -2.20337e-05 -0.00103632
0.000290257 -4.02887e-05 -1.03596e-05
-4.02887e-05 9.06819e-05 -9.8137e-07
-1.03596e-05 -9.8137e-07 4.87601e-06
0.00116376 5.72162e-06 6.41751e-08
5.72162e-06 -0.000173512 -2.55355e-07
6.41751e-08 -2.55355e-07 -0.000328449
-0.00126338 0.000289769 -3.6648e-05
0.000289769 -0.000662699 1.37743e-05
-3.6648e-05 1.37743e-05 -0.000486489
0.00214439 -0.000270236 -1.16352e-05
-0.000270236 -4.10493e-05 2.87008e-05
-1.16352e-05 2.87008e-05 -0.000280713
0.00391419 0.000693402 8.98959e-06
0.000693402 0.00110915 8.55644e-06
8.98959e-06 8.55644e-06 0.0014229
0.00548582 9.09698e-05 3.84275e-05
9.09698e-05 0.00141659 -2.172e-05
3.84275e-05 -2.172e-05 -0.000219209
0.00256996 -0.000204925 2.7452e-05
-0.000204925 0.000717579 1.31982e-05
2.7452e-05 1.31982e-05 0.000826344
-0.00113253 9.42356e-05 3.3219e-05
9.42356e-05 -0.000310134 -2.81168e-06
3.3219e-05 -2.81168e-06 -0.000529884
0.00226415 0.000491048 1.00471e-05
0.000491048 0.00111258 -2.25339e-06
1.00471e-05 -2.25339e-06 0.00123303
0.0061392 0.000502726 -4.38892e-05
0.000502726 0.00183709 3.85298e-05
-4.38892e-05 3.85298e-05 0.000414465
0.00255334 -0.000437453 -1.1614e-05
-0.000437453 0.000253406 2.32983e-05
-1.1614e-05 2.32983e-05 -0.000355457
0.000402648 -1.6303e-06 -7.51376e-07
-1.6303e-06 0.000103212 6.39985e-06
-7.51376e-07 6.39985e-06 -6.20543e-05
0.000817444 -0.000129359 1.21933e-06
-0.000129359 0.000178128 -2.06599e-06
1.21933e-06 -2.06599e-06 2.16749e-05
0.00217276 -0.000180071 1.02355e-05
-0.000180071 0.000517318 2.01138e-06
1.02355e-05 2.01138e-06 0.000476521
-0.000231943 -8.68711e-06 -2.0375e-06
-8.68711e-06 -0.000300143 9.67059e-07
-2.0375e-06 9.67059e-07 -0.000498619
0.000588169 -0.000103365 3.51536e-06
-0.000103365 -3.0342e-05 -1.23305e-07
3.51536e-06 -1.23305e-07 -0.000233914
0.00114969 -0.00017664 -1.25902e-06
-0.00017664 -1.57514e-05 -1.55897e-06
-1.25902e-06 -1.55897e-06 -0.000170591
0.00146261 -0.000138814 -2.18401e-06
-0.000138814 0.000401628 -1.66231e-06
-2.18401e-06 -1.66231e-06 0.000197758
0.00118831 -0.000153652 -1.31639e-06
-0.000153652 0.000141306 -1.57146e-06
-1.31639e-06 -1.57146e-06 -5.022e-05
0.00173155 -0.000187586 -3.72111e-07
-0.000187586 0.000262942 -2.49987e-06
-3.72111e-07 -2.49987e-06 0.000120511
0.00148702 -0.000152167 4.13016e-07
-0.000152167 0.000327052 -1.90238e-06
4.13016e-07 -1.90238e-06 0.000149541
0.00130501 -0.000150443 4.42874e-07
-0.000150443 0.000159207 -1.17781e-06
4.42874e-07 -1.17781e-06 -1.25791e-05
0.00154433 -0.000157214 -2.13493e-06
-0.000157214 0.000166054 -3.87681e-06
-2.13493e-06 -3.87681e-06 2.95147e-05
0.00147682 -0.000141899 -1.81199e-06
-0.000141899 0.000131785 -2.43581e-06
-1.81199e-06 -2.43581e-06 4.02715e-06
0.00117255 -0.000133171 -2.68717e-06
-0.000133171 8.41356e-05 1.15475e-07
-2.68717e-06 1.15475e-07 -5.93549e-05
0.00132664 -0.000145489 6.6472e-07
-0.000145489 0.000129658 -8.68734e-07
6.6472e-07 -8.68734e-07 -1.91391e-05
0.00135474 -0.000132013 -2.36655e-06
-0.000132013 0.000250134 2.78426e-06
-2.36655e-06 2.78426e-06 0.000123861
0.00135017 -0.000139082 -1.87754e-07
-0.000139082 0.000233127 6.98135e-07
-1.87754e-07 6.98135e-07 8.85853e-05
0.00123734 -0.000142373 1.59685e-06
-0.000142373 0.000155412 -1.10955e-06
1.59685e-06 -1.10955e-06 -7.75588e-06
0.000958358 -0.000102489 -4.56679e-07
-0.000102489 8.53006e-05 -6.34544e-07
-4.56679e-07 -6.34544e-07 -1.89795e-05
0.00073785 -9.47418e-05 -2.43142e-07
-9.47418e-05 -2.81957e-05 -1.2625e-06
-2.43142e-07 -1.2625e-06 -0.000138357
0.000934128 -0.000106846 4.89495e-06
-0.000106846 7.56002e-05 -3.64712e-06
4.89495e-06 -3.64712e-06 -4.59658e-05
0.000895606 -4.9466e-05 -2.15142e-07
-4.9466e-05 6.86235e-05 1.39998e-06
-2.15142e-07 1.39998e-06 -2.00322e-05
0.00100156 -9.09586e-05 3.48308e-07
-9.09586e-05 0.000130323 5.15671e-07
3.48308e-07 5.15671e-07 2.68719e-05
0.00107269 -0.000106416 5.88158e-07
-0.000106416 0.000173898 5.04844e-07
5.88158e-07 5.04844e-07 6.27147e-05
0.000786631 6.69011e-05 -6.45128e-08
6.69011e-05 1.94279e-05 2.69022e-06
-6.45128e-08 2.69022e-06 -3.72188e-05
0.000866155 4.49054e-07 -5.86109e-09
4.49054e-07 5.88871e-05 -4.73725e-08
-5.86109e-09 -4.73725e-08 -2.09561e-05
0.000947307 -4.96462e-05 -2.71531e-07
-4.96462e-05 0.000112561 -4.68651e-07
-2.71531e-07 -4.68651e-07 2.05633e-05
0.00134629 5.03871e-05 -1.30915e-05
5.03871e-05 0.000319324 3.09185e-06
-1.30915e-05 3.09185e-06 0.000308567
0.000765125 4.6729e-05 -7.89648e-09
4.6729e-05 2.74845e-07 -1.93157e-07
-7.89648e-09 -1.93157e-07 -4.45503e-05
0.000831455 4.87944e-06 4.8419e-07
4.87944e-06 3.53198e-05 -1.47752e-06
4.8419e-07 -1.47752e-06 -3.23859e-05
0.000882123 3.2509e-05 -2.09686e-05
3.2509e-05 6.52108e-05 3.464e-06
-2.09686e-05 3.464e-06 7.36541e-05
0.00106041 4.34357e-05 -5.61401e-06
4.34357e-05 0.000156524 3.51601e-07
-5.61401e-06 3.51601e-07 0.000147399
0.000781423 4.82308e-05 2.69566e-07
4.82308e-05 4.84261e-06 -2.09092e-06
2.69566e-07 -2.09092e-06 -3.43954e-05
0.000760109 3.56374e-05 1.69763e-06
3.56374e-05 -1.35865e-05 -3.3272e-06
1.69763e-06 -3.3272e-06 -2.15402e-05
0.00212617 4.87813e-05 9.14917e-07
4.87813e-05 0.00072838 7.40578e-08
9.14917e-07 7.40578e-08 0.000744497
0.0021049 4.24627e-05 2.08279e-05
4.24627e-05 0.000710223 -3.48904e-06
2.08279e-05 -3.48904e-06 0.000728017
0.000822936 -1.16066e-05 1.72299e-08
-1.16066e-05 2.3927e-05 -1.31313e-06
1.72299e-08 -1.31313e-06 -4.7202e-05
0.000851744 5.69158e-06 -4.96317e-07
5.69158e-06 3.50308e-05 -1.42825e-06
-4.96317e-07 -1.42825e-06 -2.51011e-05
0.000885769 -1.29197e-05 6.47841e-09
-1.29197e-05 5.56362e-05 -2.37047e-08
6.47841e-09 -2.37047e-08 -1.21683e-05
0.000784738 -3.90673e-05 -5.08722e-07
-3.90673e-05 -2.17254e-06 -1.93864e-06
-5.08722e-07 -1.93864e-06 -3.99007e-05
0.000867235 -2.93788e-06 5.26347e-07
-2.93788e-06 4.16048e-05 -9.43795e-08
5.26347e-07 -9.43795e-08 -1.50922e-05
0.000743068 -3.02603e-05 -1.17393e-06
-3.02603e-05 -2.82836e-05 -3.4141e-06
-1.17393e-06 -3.4141e-06 -3.64118e-05
0.000799053 -2.30669e-05 -1.95416e-07
-2.30669e-05 4.28497e-07 1.69008e-08
-1.95416e-07 1.69008e-08 -3.46327e-05
0.000875468 3.30889e-05 1.01034e-06
3.30889e-05 4.86263e-05 6.75692e-07
1.01034e-06 6.75692e-07 -8.47264e-06
0.00218681 -3.63726e-05 -1.87779e-05
-3.63726e-05 0.000748017 -3.82416e-06
-1.87779e-05 -3.82416e-06 0.000766398
0.000744586 -2.58469e-05 -2.5462e-07
-2.58469e-05 -3.34668e-05 -2.3025e-09
-2.5462e-07 -2.3025e-09 -3.93537e-05
0.000818025 -2.10395e-05 2.8851e-07
-2.10395e-05 8.30139e-06 1.41506e-06
2.8851e-07 1.41506e-06 -2.48189e-05
0.002123 -2.9216e-05 -1.70992e-06
-2.9216e-05 0.000707528 6.38892e-08
-1.70992e-06 6.38892e-08 0.000727719
0.000741608 -2.10096e-05 4.70258e-07
-2.10096e-05 -4.09943e-05 3.1615e-06
4.70258e-07 3.1615e-06 -4.44176e-05
0.00206235 -2.14678e-05 1.04011e-05
-2.14678e-05 0.000669679 3.93729e-06
1.04011e-05 3.93729e-06 0.000691535
0.00163463 -1.15693e-05 2.64645e-05
-1.15693e-05 0.000205547 1.21856e-05
2.64645e-05 1.21856e-05 9.01892e-05
0.00102393 -2.91926e-06 7.61013e-07
-2.91926e-06 7.18265e-05 7.07734e-08
7.61013e-07 7.07734e-08 8.6414e-06
0.000633891 2.23935e-06 2.50841e-06
2.23935e-06 -2.17952e-05 3.12989e-06
2.50841e-06 3.12989e-06 -9.35169e-05
0.00094128 3.44571e-05 -7.0537e-07
3.44571e-05 0.000102607 -1.18285e-07
-7.0537e-07 -1.18285e-07 1.9226e-05
0.000932183 -8.99865e-06 1.51956e-07
-8.99865e-06 8.16562e-05 3.50297e-07
1.51956e-07 3.50297e-07 1.41842e-05
0.000902515 -2.49801e-05 1.41284e-07
-2.49801e-05 6.63835e-05 4.9382e-07
1.41284e-07 4.9382e-07 -5.95676e-06
0.000913723 -2.99701e-05 1.19113e-07
-2.99701e-05 7.36896e-05 -1.71585e-07
1.19113e-07 -1.71585e-07 2.84622e-06
0.000922325 -2.08823e-07 1.76076e-07
-2.08823e-07 8.14762e-05 -4.31746e-07
1.76076e-07 -4.31746e-07 4.2642e-06
0.000941031 1.633e-05 -7.29488e-08
1.633e-05 9.41679e-05 5.32054e-07
-7.29488e-08 5.32054e-07 1.5227e-05
0.000953587 2.28022e-05 -2.57369e-07
2.28022e-05 0.000103022 -1.39705e-06
-2.57369e-07 -1.39705e-06 1.95487e-05
0.000784103 -9.1285e-06 2.29597e-07
-9.1285e-06 1.16322e-05 -5.79161e-08
2.29597e-07 -5.79161e-08 -6.45876e-05
0.000870121 3.56622e-05 4.1733e-07
3.56622e-05 5.75675e-05 -2.15684e-07
4.1733e-07 -2.15684e-07 -1.57304e-05
0.000915249 -4.25059e-05 4.12115e-07
-4.25059e-05 6.86564e-05 -5.08657e-07
4.12115e-07 -5.08657e-07 -4.60661e-06
0.000940784 5.46459e-06 -7.18371e-08
5.46459e-06 9.56245e-05 1.2718e-07
-7.18371e-08 1.2718e-07 2.0539e-05
0.00142812 8.79509e-06 2.66163e-06
8.79509e-06 0.000361229 7.64951e-07
2.66163e-06 7.64951e-07 0.000284642
0.00126414 -0.000291131 4.40726e-05
-0.000291131 0.00042353 3.20147e-05
4.40726e-05 3.20147e-05 0.000649152
0.00197454 -3.33499e-05 3.95456e-06
-3.33499e-05 0.000221657 9.32441e-06
3.95456e-06 9.32441e-06 2.58506e-05
0.00207909 5.15907e-07 -2.34657e-06
5.15907e-07 0.000318483 -7.44035e-06
-2.34657e-06 -7.44035e-06 0.000238521
0.003402 -0.000346041 -4.30276e-05
-0.000346041 -6.28538e-05 -3.48381e-05
-4.30276e-05 -3.48381e-05 0.000960818
0.00429668 -0.00026691 -6.86764e-06
-0.00026691 0.000511677 -4.85101e-05
-6.86764e-06 -4.85101e-05 0.000297452
0.00268219 -8.92898e-05 -0.000104394
-8.92898e-05 -0.000259914 7.73505e-05
-0.000104394 7.73505e-05 -0.00125586
0.00223985 -0.000280683 -5.83364e-05
-0.000280683 8.76242e-05 9.09028e-05
-5.83364e-05 9.09028e-05 -0.000253746
0.00286456 -0.000175939 -3.31534e-06
-0.000175939 0.000576934 2.07212e-05
-3.31534e-06 2.07212e-05 0.000332132
0.000120474 -0.000488739 -1.25012e-05
-0.000488739 -0.00105343 -5.13135e-07
-1.25012e-05 -5.13135e-07 9.46898e-05
0.00481882 -0.000108609 9.86833e-06
-0.000108609 0.00121103 4.09536e-05
9.86833e-06 4.09536e-05 -0.000285698
0.000380659 -0.000349362 -3.48607e-06
-0.000349362 -0.00112005 2.22715e-06
-3.48607e-06 2.22715e-06 -0.000809591
0.00283645 0.000129264 -6.86711e-05
0.000129264 0.000408598 -4.0808e-05
-6.86711e-05 -4.0808e-05 0.000252643
0.00926638 -0.000463347 -9.31541e-06
-0.000463347 0.00329693 4.22738e-05
-9.31541e-06 4.22738e-05 0.00204
-2.88411e-05 -0.000433202 1.42509e-06
-0.000433202 -0.000210044 -1.66365e-05
1.42509e-06 -1.66365e-05 0.000102796
0.000651277 0.000109387 -1.0943e-06
0.000109387 -3.37844e-05 -9.72878e-07
-1.0943e-06 -9.72878e-07 -9.58522e-05
0.00103763 1.62198e-05 2.59505e-06
1.62198e-05 0.000154705 7.82876e-08
2.59505e-06 7.82876e-08 9.22529e-05
0.000927665 -1.85728e-05 -5.42394e-07
-1.85728e-05 8.16701e-05 -6.01641e-07
-5.42394e-07 -6.01641e-07 8.69622e-06
-0.0010089 -2.87364e-05 -1.90126e-05
-2.87364e-05 -0.00024964 -1.90292e-05
-1.90126e-05 -1.90292e-05 -0.000832354
1.80594e-05 -8.41666e-06 2.22682e-07
-8.41666e-06 -0.000206929 -5.85157e-06
2.22682e-07 -5.85157e-06 -0.000281068
0.000708445 9.90789e-06 5.42229e-07
9.90789e-06 -2.62548e-05 8.12784e-07
5.42229e-07 8.12784e-07 -9.23265e-05
0.000745853 4.76468e-05 2.10658e-06
4.76468e-05 0.000121554 9.13615e-07
2.10658e-06 9.13615e-07 2.71374e-05
0.000607552 8.82852e-05 4.30722e-06
8.82852e-05 0.000150155 -1.58935e-05
4.30722e-06 -1.58935e-05 -0.000106241
-0.000719065 9.01662e-05 1.00745e-05
9.01662e-05 -0.000670737 8.70852e-06
1.00745e-05 8.70852e-06 -0.000806103
0.000751466 -1.43372e-05 6.32476e-05
-1.43372e-05 0.000661052 -1.22576e-06
6.32476e-05 -1.22576e-06 0.000466833
0.00125672 -2.61342e-06 -3.69582e-06
-2.61342e-06 -2.42183e-05 4.88706e-07
-3.69582e-06 4.88706e-07 -0.000142956
0.000446783 1.49677e-06 4.05179e-06
1.49677e-06 -0.000178204 -1.356e-06
4.05179e-06 -1.356e-06 -0.000246768
-6.96737e-05 -2.97213e-05 5.97457e-06
-2.97213e-05 -6.82127e-05 4.09397e-06
5.97457e-06 4.09397e-06 -0.000168267
0.00161192 -0.000266631 2.09119e-05
-0.000266631 -0.000344206 -3.38758e-05
2.09119e-05 -3.38758e-05 -0.000493093
0.00136387 1.69604e-06 -3.12285e-05
1.69604e-06 -4.58674e-05 1.92534e-07
-3.12285e-05 1.92534e-07 -0.000195557
0.00183992 0.000102885 4.34011e-06
0.000102885 -0.000214482 3.62565e-06
4.34011e-06 3.62565e-06 -0.00160159
-0.00235193 0.000434377 -4.0079e-05
0.000434377 -0.00190371 4.65736e-06
-4.0079e-05 4.65736e-06 -0.00149165
0.00138704 0.000344046 -5.67427e-05
0.000344046 0.000590303 3.04487e-05
-5.67427e-05 3.04487e-05 0.00100058
0.00168382 -0.000168205 -3.27675e-06
-0.000168205 0.000218758 4.2427e-06
-3.27675e-06 4.2427e-06 0.000397172
0.00117547 0.000142676 -1.71378e-06
0.000142676 0.000850575 3.81367e-06
-1.71378e-06 3.81367e-06 0.000846121
-0.00361531 0.000241339 1.19822e-05
0.000241339 -0.00130438 -1.26872e-08
1.19822e-05 -1.26872e-08 -0.00145818
0.00336859 -0.000441936 -7.39764e-06
-0.000441936 0.000665244 1.16025e-05
-7.39764e-06 1.16025e-05 -0.000218372
0.00656064 0.000385674 -1.27832e-05
0.000385674 0.00200125 8.3282e-07
-1.27832e-05 8.3282e-07 0.000703234
0.000162423 -0.000163691 -3.05525e-06
-0.000163691 -0.000493156 9.26526e-06
-3.05525e-06 9.26526e-06 -0.000434127
-0.00538375 0.000119512 -6.8872e-07
0.000119512 -0.00258259 -7.74901e-06
-6.8872e-07 -7.74901e-06 -0.00254253
0.00664114 0.000366531 -8.63358e-06
0.000366531 0.00228802 5.67433e-06
-8.63358e-06 5.67433e-06 0.00114216
0.00369968 -0.000252469 -1.50481e-05
-0.000252469 0.000175777 2.66551e-05
-1.50481e-05 2.66551e-05 -0.00053614
-1.01754e-05 -9.12974e-05 -1.06703e-05
-9.12974e-05 -0.000200576 9.22602e-07
-1.06703e-05 9.22602e-07 -0.000393185
0.00118942 -0.000136759 -5.04345e-07
-0.000136759 4.54175e-05 1.0891e-07
-5.04345e-07 1.0891e-07 3.2341e-05
0.00203331 -0.000173946 5.39483e-06
-0.000173946 0.000196667 -1.90085e-06
5.39483e-06 -1.90085e-06 0.000220111
0.000133427 -7.75311e-05 -1.87956e-06
-7.75311e-05 -0.000240754 -4.00426e-06
-1.87956e-06 -4.00426e-06 -0.000445164
0.00128647 -0.000181568 -2.96923e-06
-0.000181568 4.92991e-05 -2.06173e-06
-2.96923e-06 -2.06173e-06 -0.00010535
0.00181343 -0.000210802 -2.79446e-06
-0.000210802 0.000115785 -1.36515e-06
-2.79446e-06 -1.36515e-06 1.84543e-05
0.00113358 -0.000150132 -5.5448e-07
-0.000150132 0.000106049 -2.99962e-06
-5.5448e-07 -2.99962e-06 -8.00402e-05
0.00142309 -0.000171613 1.59752e-06
-0.000171613 0.000109853 -5.10143e-07
1.59752e-06 -5.10143e-07 -3.27859e-05
0.00160879 -0.000160417 -1.88318e-06
-0.000160417 7.56332e-05 -3.71063e-06
-1.88318e-06 -3.71063e-06 -2.70203e-05
0.00132625 -0.000148003 2.30238e-07
-0.000148003 0.000166509 -4.3851e-07
2.30238e-07 -4.3851e-07 2.86502e-07
0.00140024 -0.000150031 -5.15022e-07
-0.000150031 8.80433e-05 -5.00263e-07
-5.15022e-07 -5.00263e-07 -4.69198e-05
0.0016612 -0.000140602 -1.11014e-06
-0.000140602 0.000135071 -2.57281e-06
-1.11014e-06 -2.57281e-06 3.27226e-05
0.00169545 -0.000132827 -2.21458e-06
-0.000132827 0.000198483 -2.32434e-06
-2.21458e-06 -2.32434e-06 9.52521e-05
0.00139434 -0.000137542 -2.7703e-06
-0.000137542 0.0001299 -1.44975e-06
-2.7703e-06 -1.44975e-06 7.92786e-07
0.00147953 -0.000139153 6.82495e-07
-0.000139153 0.000133841 4.86385e-07
6.82495e-07 4.86385e-07 8.03268e-06
0.000732535 -0.000106685 -2.70327e-06
-0.000106685 -0.00012034 1.34382e-06
-2.70327e-06 1.34382e-06 -0.000250062
0.00134107 -0.000139328 1.3146e-06
-0.000139328 0.00017178 -1.04552e-06
1.3146e-06 -1.04552e-06 2.98405e-05
0.00113412 -0.000135257 2.69053e-06
-0.000135257 2.82765e-05 5.24564e-08
2.69053e-06 5.24564e-08 -0.000118676
0.00102714 -0.000110606 -8.18292e-07
-0.000110606 0.000100678 1.23152e-06
-8.18292e-07 1.23152e-06 -9.84885e-06
0.00101289 -0.000114912 5.51535e-07
-0.000114912 7.57335e-05 -2.55956e-07
5.51535e-07 -2.55956e-07 -4.94067e-05
0.00094937 -0.000120194 2.21766e-06
-0.000120194 2.49897e-05 -2.18059e-06
2.21766e-06 -2.18059e-06 -0.00012127
0.000969418 -8.78179e-05 -1.77511e-06
-8.78179e-05 9.13022e-05 5.20314e-07
-1.77511e-06 5.20314e-07 -8.38588e-07
0.00104306 -0.000106224 -1.87611e-07
-0.000106224 0.000128364 -4.70582e-07
-1.87611e-07 -4.70582e-07 2.37902e-05
0.000860981 -0.000100153 3.58148e-07
-0.000100153 3.85061e-05 -1.98728e-06
3.58148e-07 -1.98728e-06 -7.0469e-05
0.000849511 1.69199e-05 -2.23995e-07
1.69199e-05 5.08823e-05 3.04394e-06
-2.23995e-07 3.04394e-06 -1.47773e-05
0.000943628 -4.52228e-05 7.85812e-07
-4.52228e-05 9.30337e-05 3.81087e-07
7.85812e-07 3.81087e-07 4.64318e-06
0.000968779 -8.03323e-05 8.17725e-07
-8.03323e-05 0.000113239 4.44215e-07
8.17725e-07 4.44215e-07 1.14843e-05
0.000657722 4.80157e-05 -2.47165e-06
4.80157e-05 -4.30957e-05 3.98512e-06
-2.47165e-06 3.98512e-06 -6.25973e-05
0.000765907 3.03451e-05 -4.15947e-07
3.03451e-05 4.17427e-06 -2.72771e-07
-4.15947e-07 -2.72771e-07 -5.01535e-05
0.000900153 -1.31048e-05 1.76992e-07
-1.31048e-05 7.77923e-05 -1.68502e-06
1.76992e-07 -1.68502e-06 -3.39055e-06
0.00221767 6.80352e-05 -9.66306e-06
6.80352e-05 0.000795109 1.34395e-06
-9.66306e-06 1.34395e-06 0.000805449
0.000714378 4.37972e-05 1.18747e-07
4.37972e-05 -2.08887e-05 -2.66643e-08
1.18747e-07 -2.66643e-08 -3.57348e-05
0.000756181 4.3268e-05 8.5489e-07
4.3268e-05 -4.44407e-06 -2.3109e-06
8.5489e-07 -2.3109e-06 -4.93568e-05
0.00216745 5.48087e-05 9.42825e-07
5.48087e-05 0.000758232 7.01106e-08
9.42825e-07 7.01106e-08 0.000772402
0.000757308 4.06042e-05 1.98315e-06
4.06042e-05 -6.87022e-06 -3.48055e-06
1.98315e-06 -3.48055e-06 -1.79148e-05
0.00214148 4.89609e-05 2.39319e-05
4.89609e-05 0.000737679 -3.37211e-06
2.39319e-05 -3.37211e-06 0.000753549
0.000956999 3.01512e-05 -3.98415e-07
3.01512e-05 0.000104674 -2.01441e-07
-3.98415e-07 -2.01441e-07 2.77894e-05
0.000854005 -3.83449e-06 8.32707e-08
-3.83449e-06 4.06446e-05 -3.15123e-07
8.32707e-08 -3.15123e-07 -3.12141e-05
0.000848701 -5.35148e-06 -4.13049e-07
-5.35148e-06 3.78807e-05 -1.61543e-06
-4.13049e-07 -1.61543e-06 -2.74016e-05
0.000773604 -4.60865e-05 -5.59407e-07
-4.60865e-05 -2.95035e-06 -2.23265e-06
-5.59407e-07 -2.23265e-06 -4.32115e-05
0.00083696 -1.36022e-05 6.11087e-07
-1.36022e-05 2.79876e-05 -6.80735e-08
6.11087e-07 -6.80735e-08 -3.23466e-05
0.000837058 4.71448e-07 5.25669e-07
4.71448e-07 3.26483e-05 8.29403e-07
5.25669e-07 8.29403e-07 -3.73103e-05
0.000739403 -3.39448e-05 -1.79186e-06
-3.39448e-05 -2.3961e-05 -3.54235e-06
-1.79186e-06 -3.54235e-06 -3.40293e-05
0.000789991 -3.11946e-05 -2.08747e-07
-3.11946e-05 -2.25123e-07 1.35207e-08
-2.08747e-07 1.35207e-08 -3.73572e-05
0.000846665 -1.06167e-05 1.05761e-06
-1.06167e-05 3.08028e-05 9.75801e-07
1.05761e-06 9.75801e-07 -2.58902e-05
0.00222543 -4.29301e-05 -2.22356e-05
-4.29301e-05 0.000775029 -3.71467e-06
-2.22356e-05 -3.71467e-06 0.000791783
0.000730655 -2.96957e-05 -1.73024e-07
-2.96957e-05 -3.46661e-05 8.46763e-09
-1.73024e-07 8.46763e-09 -4.27501e-05
0.000807598 -2.17772e-05 8.01708e-07
-2.17772e-05 5.22989e-06 1.56671e-06
8.01708e-07 1.56671e-06 -2.97961e-05
0.00217554 -3.62036e-05 -1.80006e-06
-3.62036e-05 0.000741347 8.10958e-08
-1.80006e-06 8.10958e-08 0.000759905
0.00072921 -2.54147e-05 5.68729e-07
-2.54147e-05 -4.15242e-05 3.29061e-06
5.68729e-07 3.29061e-06 -4.73328e-05
0.0021099 -2.87926e-05 1.36233e-05
-2.87926e-05 0.000699847 3.88826e-06
1.36233e-05 3.88826e-06 0.000720266
-0.00130259 -0.000124264 4.09461e-05
-0.000124264 -0.000492632 1.21292e-05
4.09461e-05 1.21292e-05 -0.000765725
0.00162596 -1.69699e-05 2.70241e-06
-1.69699e-05 0.000175806 5.16518e-06
2.70241e-06 5.16518e-06 6.23907e-05
0.0010222 -1.47934e-06 3.25709e-06
-1.47934e-06 6.65716e-05 1.41681e-06
3.25709e-06 1.41681e-06 4.48448e-06
0.00092151 1.39249e-05 -6.64184e-07
1.39249e-05 9.00715e-05 6.34069e-07
-6.64184e-07 6.34069e-07 7.98289e-06
0.00105724 9.0924e-05 -1.64107e-09
9.0924e-05 0.000174182 1.02744e-06
-1.64107e-09 1.02744e-06 8.02575e-05
0.000945236 3.40679e-05 -3.27564e-07
3.40679e-05 0.000106636 2.69041e-07
-3.27564e-07 2.69041e-07 1.89852e-05
0.00100862 -3.50125e-05 2.72958e-07
-3.50125e-05 0.000123768 -3.68417e-07
2.72958e-07 -3.68417e-07 5.32258e-05
0.000948496 1.5987e-05 4.81313e-07
1.5987e-05 9.32577e-05 5.77513e-07
4.81313e-07 5.77513e-07 1.76759e-05
0.000808145 -1.89848e-05 -7.15539e-07
-1.89848e-05 2.01739e-05 1.37398e-06
-7.15539e-07 1.37398e-06 -5.64081e-05
0.000818107 6.80047e-06 -4.77607e-07
6.80047e-06 3.27451e-05 -6.44448e-09
-4.77607e-07 -6.44448e-09 -4.6587e-05
0.000879547 1.07703e-05 2.14229e-07
1.07703e-05 6.31966e-05 -3.42501e-08
2.14229e-07 -3.42501e-08 -1.94151e-05
0.00100644 4.77154e-05 9.55006e-07
4.77154e-05 0.000148982 -1.13691e-06
9.55006e-07 -1.13691e-06 5.60735e-05
0.000807043 4.64084e-05 2.27656e-06
4.64084e-05 1.75238e-05 -2.05241e-06
2.27656e-06 -2.05241e-06 -6.20425e-05
0.000911111 2.95491e-05 -1.22151e-07
2.95491e-05 8.22684e-05 -6.25533e-07
-1.22151e-07 -6.25533e-07 5.63626e-06
0.00107866 2.86967e-05 6.06641e-07
2.86967e-05 0.000178832 4.03418e-07
6.06641e-07 4.03418e-07 0.000102253
-0.00161128 -0.000298326 9.25553e-06
-0.000298326 -0.000818698 2.35849e-05
9.25553e-06 2.35849e-05 -0.000823818
-2.83562e-05 -0.000290278 1.17691e-05
-0.000290278 -0.00017685 4.3363e-06
1.17691e-05 4.3363e-06 -5.50467e-05
0.00197974 -3.39221e-05 -3.2511e-05
-3.39221e-05 0.00019614 -2.19468e-05
-3.2511e-05 -2.19468e-05 3.79467e-07
-0.0022016 -0.000507658 -4.98395e-06
-0.000507658 -0.0022714 1.79703e-05
-4.98395e-06 1.79703e-05 -0.00102099
0.00441159 -0.000533099 -2.45561e-05
-0.000533099 0.00116408 -3.75195e-05
-2.45561e-05 -3.75195e-05 0.00127857
0.0036844 7.71469e-05 3.98307e-05
7.71469e-05 0.000706327 1.37874e-05
3.98307e-05 1.37874e-05 -0.000752846
0.00216585 -0.000162444 -8.63864e-05
-0.000162444 0.000215974 7.97343e-05
-8.63864e-05 7.97343e-05 -0.000372295
0.003163 0.000110621 -3.51292e-05
0.000110621 0.000459152 -8.09466e-06
-3.51292e-05 -8.09466e-06 0.000172811
0.00313974 -0.000577371 -9.54684e-06
-0.000577371 0.00109597 1.21095e-05
-9.54684e-06 1.21095e-05 0.00124451
0.00204421 -4.56626e-05 1.48262e-05
-4.56626e-05 3.05645e-06 3.06457e-05
1.48262e-05 3.06457e-05 -0.00137391
0.00170464 0.000252708 -9.75075e-05
0.000252708 4.18704e-05 -8.65098e-05
-9.75075e-05 -8.65098e-05 -0.000575352
0.00267073 0.000184479 -0.000111853
0.000184479 0.000478002 -3.82069e-05
-0.000111853 -3.82069e-05 -0.000918997
0.00232911 0.000258142 1.18945e-05
0.000258142 0.000676059 -7.8813e-06
1.18945e-05 -7.8813e-06 0.000547766
0.000860141 0.000109857 -1.27029e-06
0.000109857 6.6985e-05 -3.05339e-08
-1.27029e-06 -3.05339e-08 6.60612e-06
0.00123077 2.24637e-05 -4.00271e-07
2.24637e-05 0.000253131 -2.03342e-06
-4.00271e-07 -2.03342e-06 0.000190292
0.000225542 7.41994e-05 -2.90902e-05
7.41994e-05 -9.85736e-05 -1.44057e-05
-2.90902e-05 -1.44057e-05 -0.000283321
0.00151843 8.95348e-05 -2.93507e-06
8.95348e-05 0.000486174 -4.45285e-06
-2.93507e-06 -4.45285e-06 0.00038882
0.00111781 0.000180498 1.31463e-05
0.000180498 0.000179323 5.53181e-08
1.31463e-05 5.53181e-08 6.20296e-05
0.000968937 0.000223649 4.1077e-05
0.000223649 -0.000242477 2.5626e-05
4.1077e-05 2.5626e-05 -0.000295169
-0.00345973 -1.85465e-05 -1.65688e-05
-1.85465e-05 -0.00170934 -7.54068e-06
-1.65688e-05 -7.54068e-06 -0.0014039
-0.000117882 -5.66205e-06 1.0451e-05
-5.66205e-06 0.00029056 1.15882e-06
1.0451e-05 1.15882e-06 6.29091e-05
0.00123185 -5.67421e-06 -2.21117e-05
-5.67421e-06 4.15617e-05 3.63802e-07
-2.21117e-05 3.63802e-07 -4.88136e-05
0.000863533 -0.00015522 -3.50597e-05
-0.00015522 -0.000196844 -1.15573e-05
-3.50597e-05 -1.15573e-05 -2.3804e-05
0.00384098 -0.000498891 -5.68075e-05
-0.000498891 0.00077639 -5.2578e-06
-5.68075e-05 -5.2578e-06 0.000109812
0.00105421 0.000113353 -4.26336e-05
0.000113353 0.000857784 1.16318e-05
-4.26336e-05 1.16318e-05 0.000817372
0.000891077 0.000225865 2.80714e-05
0.000225865 -0.000245369 -4.26438e-05
2.80714e-05 -4.26438e-05 -0.00178366
0.00747003 0.000485284 -9.07974e-05
0.000485284 0.00372241 1.38772e-05
-9.07974e-05 1.38772e-05 0.00374905
0.00130547 -0.000243779 9.70816e-06
-0.000243779 9.04877e-06 1.14013e-06
9.70816e-06 1.14013e-06 8.72795e-06
-0.000894336 0.000223312 -1.12661e-05
0.000223312 -0.000238875 -2.81605e-06
-1.12661e-05 -2.81605e-06 -0.0002742
0.00235314 0.000230713 -9.97483e-06
0.000230713 0.000200529 1.50627e-05
-9.97483e-06 1.50627e-05 -0.00115235
0.00405689 -0.000216671 -8.33034e-07
-0.000216671 0.000801063 6.05736e-06
-8.33034e-07 6.05736e-06 0.000187506
-0.000262007 -0.000116359 -4.11259e-06
-0.000116359 -0.000616603 -5.89663e-06
-4.11259e-06 -5.89663e-06 -0.00074909
0.00714765 4.19846e-05 3.75647e-05
4.19846e-05 0.00241894 3.60178e-06
3.75647e-05 3.60178e-06 0.00152467
0.0019536 4.05034e-05 2.60916e-06
4.05034e-05 -0.000275707 -5.14679e-06
2.60916e-06 -5.14679e-06 -0.000607796
0.000245985 -0.000100266 -8.30019e-06
-0.000100266 -0.000405869 4.65491e-07
-8.30019e-06 4.65491e-07 -0.000394646
0.00131824 -0.000157651 -6.29903e-07
-0.000157651 -0.000148983 -6.78606e-07
-6.29903e-07 -6.78606e-07 -0.000130026
0.00222818 -0.000210935 -4.8319e-07
-0.000210935 0.000145978 -3.68432e-06
-4.8319e-07 -3.68432e-06 0.000150752
0.0012609 -0.00018006 -3.66526e-06
-0.00018006 3.14686e-05 -3.16001e-06
-3.66526e-06 -3.16001e-06 -0.000121537
0.00165826 -0.000201127 -1.34786e-06
-0.000201127 4.10238e-05 2.08123e-06
-1.34786e-06 2.08123e-06 -5.50689e-05
0.0017185 -0.000169049 -4.79868e-06
-0.000169049 -5.47236e-06 1.85693e-06
-4.79868e-06 1.85693e-06 -6.80043e-05
0.00114679 -0.000157009 2.47453e-06
-0.000157009 -2.69022e-05 1.80378e-06
2.47453e-06 1.80378e-06 -0.000170269
0.00160207 -0.000158313 -1.44316e-06
-0.000158313 6.75231e-05 3.12424e-07
-1.44316e-06 3.12424e-07 -3.49769e-05
0.00158734 -0.000132851 -9.90308e-07
-0.000132851 -2.46365e-05 -7.98481e-08
-9.90308e-07 -7.98481e-08 -9.97643e-05
0.00125996 -0.000143302 2.21085e-06
-0.000143302 1.23351e-05 2.00906e-06
2.21085e-06 2.00906e-06 -0.000121097
0.00150539 -0.000134441 2.58144e-07
-0.000134441 5.56831e-05 8.63144e-07
2.58144e-07 8.63144e-07 -4.6497e-05
0.0016711 -0.0001233 -1.91228e-06
-0.0001233 9.51239e-05 -2.98726e-07
-1.91228e-06 -2.98726e-07 1.23561e-05
0.0019592 -0.000124767 -5.74964e-07
-0.000124767 0.000309279 -1.18921e-06
-5.74964e-07 -1.18921e-06 0.000218857
0.00161591 -0.00012794 -1.50816e-06
-0.00012794 0.00015685 1.6251e-06
-1.50816e-06 1.6251e-06 5.60258e-05
0.00148763 -0.000125975 -8.31132e-07
-0.000125975 0.000131782 -3.29133e-06
-8.31132e-07 -3.29133e-06 2.2987e-05
0.00138248 -0.000131196 -2.91028e-06
-0.000131196 0.000153302 -4.07661e-07
-2.91028e-06 -4.07661e-07 2.94096e-05
0.00150421 -0.000140559 1.05445e-06
-0.000140559 0.000188346 -2.66568e-07
1.05445e-06 -2.66568e-07 5.92381e-05
0.00147539 -0.000136303 2.73195e-06
-0.000136303 0.000132104 2.96773e-06
2.73195e-06 2.96773e-06 8.28018e-06
0.000799777 -0.00010384 -2.94838e-06
-0.00010384 -6.15391e-05 2.31984e-06
-2.94838e-06 2.31984e-06 -0.000179623
0.00106621 -0.000120407 2.27208e-07
-0.000120407 5.54948e-05 -8.20579e-08
2.27208e-07 -8.20579e-08 -7.33625e-05
0.00150497 -0.000145275 4.51533e-06
-0.000145275 0.000257052 -2.07889e-06
4.51533e-06 -2.07889e-06 0.000116691
0.000950509 -9.40138e-05 -1.63956e-06
-9.40138e-05 6.77106e-05 7.27223e-07
-1.63956e-06 7.27223e-07 -2.8904e-05
0.00108348 -0.000112578 1.57151e-07
-0.000112578 0.000128307 -2.0918e-07
1.57151e-07 -2.0918e-07 1.76147e-05
0.000710454 -9.9787e-05 1.29588e-06
-9.9787e-05 -7.84381e-05 -3.2302e-06
1.29588e-06 -3.2302e-06 -0.000202588
0.000808089 -2.31334e-05 -2.47732e-06
-2.31334e-05 2.33023e-05 2.63851e-06
-2.47732e-06 2.63851e-06 -4.94568e-05
0.00101976 -9.0882e-05 2.06837e-08
-9.0882e-05 0.000116638 -4.63128e-08
2.06837e-08 -4.63128e-08 2.43657e-05
0.00112217 -0.000109655 1.08416e-06
-0.000109655 0.000168476 -7.79612e-07
1.08416e-06 -7.79612e-07 6.36432e-05
0.000597586 5.79142e-05 -1.32121e-06
5.79142e-05 -6.77388e-05 4.80516e-06
-1.32121e-06 4.80516e-06 -9.48303e-05
0.000797866 2.51836e-06 -3.35352e-08
2.51836e-06 2.32648e-05 4.5029e-08
-3.35352e-08 4.5029e-08 -4.32076e-05
0.000996486 -5.05445e-05 1.52483e-06
-5.05445e-05 0.000120904 -6.12965e-07
1.52483e-06 -6.12965e-07 3.19476e-05
0.0023887 6.92863e-05 -3.24845e-05
6.92863e-05 0.000891542 2.97966e-06
-3.24845e-05 2.97966e-06 0.000900672
0.000684741 5.16409e-05 -1.44204e-07
5.16409e-05 -2.76629e-05 -1.37598e-07
-1.44204e-07 -1.37598e-07 -4.80391e-05
0.000739895 7.2584e-06 2.1904e-06
7.2584e-06 -1.08012e-05 -2.78108e-06
2.1904e-06 -2.78108e-06 -6.48566e-05
0.00160282 5.31946e-05 1.26323e-05
5.31946e-05 0.000462719 -7.05811e-07
1.26323e-05 -7.05811e-07 0.000470701
0.000745522 4.61422e-05 2.07647e-06
4.61422e-05 -4.42558e-06 -3.81326e-06
2.07647e-06 -3.81326e-06 -1.95787e-05
0.00221195 5.53955e-05 2.76893e-05
5.53955e-05 0.000783544 -3.25239e-06
2.76893e-05 -3.25239e-06 0.000797198
0.000942534 4.6537e-05 2.1325e-07
4.6537e-05 9.93502e-05 7.48916e-07
2.1325e-07 7.48916e-07 1.53372e-05
0.000926457 3.63612e-06 -1.83123e-07
3.63612e-06 8.5493e-05 5.25304e-07
-1.83123e-07 5.25304e-07 1.03554e-05
0.00086472 -2.63835e-05 -2.1379e-07
-2.63835e-05 5.24743e-05 -1.32571e-06
-2.1379e-07 -1.32571e-06 -1.72194e-05
0.000907291 7.77289e-06 2.4798e-07
7.77289e-06 6.94676e-05 6.69776e-07
2.4798e-07 6.69776e-07 -3.4626e-06
0.000846668 -2.9929e-05 2.43362e-07
-2.9929e-05 3.42531e-05 -6.09026e-08
2.43362e-07 -6.09026e-08 -2.92462e-05
0.000748556 -4.57494e-05 -8.62336e-07
-4.57494e-05 -1.02477e-05 -2.36754e-06
-8.62336e-07 -2.36754e-06 -5.38557e-05
0.000735772 -3.80014e-05 -2.29673e-06
-3.80014e-05 -1.96547e-05 -3.61826e-06
-2.29673e-06 -3.61826e-06 -3.15064e-05
0.000775388 -4.15859e-05 -1.16836e-07
-4.15859e-05 -2.75983e-06 -1.22919e-08
-1.16836e-07 -1.22919e-08 -4.24967e-05
0.000844242 -4.83464e-05 -1.32998e-07
-4.83464e-05 2.98624e-05 1.41214e-06
-1.32998e-07 1.41214e-06 -2.87078e-05
0.00224653 -4.91194e-05 -2.55131e-05
-4.91194e-05 0.000793234 -3.54683e-06
-2.55131e-05 -3.54683e-06 0.000808392
0.000720323 -3.32293e-05 -2.2007e-07
-3.32293e-05 -3.39139e-05 2.2123e-08
-2.2007e-07 2.2123e-08 -4.39107e-05
0.000795206 -2.26233e-05 1.50235e-06
-2.26233e-05 1.77471e-06 1.8212e-06
1.50235e-06 1.8212e-06 -3.47946e-05
0.00222192 -4.28702e-05 -1.43577e-06
-4.28702e-05 0.000772464 9.17739e-08
-1.43577e-06 9.17739e-08 0.000789341
0.000717816 -2.91766e-05 1.01784e-06
-2.91766e-05 -4.12212e-05 3.44553e-06
1.01784e-06 3.44553e-06 -4.92741e-05
0.00215967 -3.59584e-05 1.67568e-05
-3.59584e-05 0.000732181 3.81535e-06
1.67568e-05 3.81535e-06 0.000750946
0.00154384 0.000101274 9.79285e-05
0.000101274 0.000931651 2.87571e-05
9.79285e-05 2.87571e-05 0.000617119
3.31277e-05 -0.000139818 4.8237e-06
-0.000139818 0.000165437 4.24587e-06
4.8237e-06 4.24587e-06 -2.33275e-05
0.00162725 -1.9924e-05 -2.32672e-05
-1.9924e-05 0.000151969 -2.40634e-06
-2.32672e-05 -2.40634e-06 4.04769e-05
0.000916706 -2.47358e-06 2.29045e-07
-2.47358e-06 8.62607e-05 7.23644e-07
2.29045e-07 7.23644e-07 4.97418e-06
0.000916744 1.32039e-05 -1.63093e-08
1.32039e-05 9.01537e-05 5.53497e-07
-1.63093e-08 5.53497e-07 2.91128e-06
0.000945812 8.53271e-05 -7.60355e-08
8.53271e-05 0.000118592 1.06918e-07
-7.60355e-08 1.06918e-07 2.53939e-05
0.00108928 0.000108454 8.05505e-07
0.000108454 0.000185635 8.98974e-07
8.05505e-07 8.98974e-07 8.56946e-05
0.000966962 7.23047e-05 -7.45368e-07
7.23047e-05 0.000132221 4.19556e-07
-7.45368e-07 4.19556e-07 3.46189e-05
0.000851663 2.00405e-05 2.4017e-07
2.00405e-05 5.02741e-05 9.23022e-07
2.4017e-07 9.23022e-07 -2.98491e-05
0.000849776 9.56491e-06 4.41134e-08
9.56491e-06 4.70259e-05 9.68424e-07
4.41134e-08 9.68424e-07 -3.54358e-05
0.000800804 4.98564e-05 -6.33445e-07
4.98564e-05 4.02996e-05 -6.94138e-07
-6.33445e-07 -6.94138e-07 -5.08583e-05
0.000230957 6.30791e-05 -3.28539e-07
6.30791e-05 -0.000251471 1.25507e-06
-3.28539e-07 1.25507e-06 -0.00035092
0.000856374 8.99865e-05 2.26455e-07
8.99865e-05 4.21977e-05 -1.81986e-06
2.26455e-07 -1.81986e-06 -5.09656e-05
0.00196053 0.000191504 3.8767e-06
0.000191504 0.000481254 -5.15553e-06
3.8767e-06 -5.15553e-06 0.000366731
0.000883045 5.35619e-05 -1.63099e-06
5.35619e-05 7.39772e-05 -3.27523e-07
-1.63099e-06 -3.27523e-07 -7.35326e-06
0.000830793 6.09811e-06 -3.19697e-07
6.09811e-06 4.39321e-05 -4.13871e-07
-3.19697e-07 -4.13871e-07 -2.95826e-05
0.00892896 -0.000105586 -3.61219e-05
-0.000105586 0.0027565 -1.37615e-05
-3.61219e-05 -1.37615e-05 0.0017022
-0.00211928 -0.000286023 -2.53751e-05
-0.000286023 -0.00084667 -7.67016e-07
-2.53751e-05 -7.67016e-07 -0.00109591
0.00126513 -0.000298271 -3.85145e-05
-0.000298271 0.000540025 -2.33333e-05
-3.85145e-05 -2.33333e-05 0.00062957
-0.00243075 -0.000353002 -2.05767e-05
-0.000353002 -0.00152924 -2.5901e-06
-2.05767e-05 -2.5901e-06 -0.00128389
0.00927675 -0.000387077 5.9703e-05
-0.000387077 0.00335516 1.74164e-05
5.9703e-05 1.74164e-05 0.00163644
0.00253392 7.34305e-05 5.67265e-06
7.34305e-05 0.000252006 1.91876e-05
5.67265e-06 1.91876e-05 0.000153546
0.00166177 0.000256787 -3.51435e-05
0.000256787 -9.12195e-05 -2.20827e-05
-3.51435e-05 -2.20827e-05 -0.000587511
0.00661296 -0.000305928 4.43615e-05
-0.000305928 0.00188939 1.76297e-05
4.43615e-05 1.76297e-05 0.000758382
0.00238111 0.000221495 -2.97811e-06
0.000221495 -5.39565e-05 -4.06624e-05
-2.97811e-06 -4.06624e-05 -0.000503849
0.00218905 0.000295928 1.42241e-05
0.000295928 0.000390512 1.13615e-05
1.42241e-05 1.13615e-05 0.000243556
0.000899382 0.000171504 6.69762e-07
0.000171504 2.37385e-05 -4.93705e-06
6.69762e-07 -4.93705e-06 -0.00011644
0.00094609 9.25696e-05 -3.78292e-06
9.25696e-05 0.000106109 2.45303e-06
-3.78292e-06 2.45303e-06 5.01014e-05
0.00190662 0.00022787 -3.63195e-05
0.00022787 0.000538163 -1.75961e-05
-3.63195e-05 -1.75961e-05 0.000431302
0.000510213 0.000217196 -1.42746e-05
0.000217196 -0.00044389 1.3737e-05
-1.42746e-05 1.3737e-05 -0.000508305
0.000379846 -5.91498e-05 3.41998e-06
-5.91498e-05 -0.00110496 -2.91544e-06
3.41998e-06 -2.91544e-06 -0.00155757
0.00160665 7.66327e-06 -6.43892e-06
7.66327e-06 0.000845204 -1.43667e-06
-6.43892e-06 -1.43667e-06 0.000852061
-0.000996149 2.20066e-06 -1.79218e-05
2.20066e-06 -7.13664e-05 1.26045e-07
-1.79218e-05 1.26045e-07 -0.000349368
0.00234029 -0.000303032 -3.98018e-05
-0.000303032 0.000460043 7.08591e-06
-3.98018e-05 7.08591e-06 0.000429433
0.00422078 -0.000248524 -2.15359e-06
-0.000248524 0.000762857 -1.98824e-05
-2.15359e-06 -1.98824e-05 -0.000104437
7.76755e-05 -3.06502e-05 -5.96468e-05
-3.06502e-05 0.000291936 2.05038e-05
-5.96468e-05 2.05038e-05 7.12345e-05
0.00799944 0.000449082 -2.91181e-05
0.000449082 0.0030282 1.94945e-05
-2.91181e-05 1.94945e-05 0.00176776
0.000684336 -0.000142571 7.68648e-07
-0.000142571 -0.000182156 -1.48032e-06
7.68648e-07 -1.48032e-06 -0.000271678
0.00523429 0.000192215 1.97059e-05
0.000192215 0.00140769 1.0785e-05
1.97059e-05 1.0785e-05 0.000632
0.00345785 1.45018e-05 4.11061e-05
1.45018e-05 0.000266347 -1.41241e-06
4.11061e-05 -1.41241e-06 -0.000264345
0.00257248 -0.000148455 -6.0344e-06
-0.000148455 0.000737085 1.48369e-06
-6.0344e-06 1.48369e-06 0.000591064
0.00182043 1.1338e-05 -6.21624e-05
1.1338e-05 0.000202106 -8.45269e-07
-6.21624e-05 -8.45269e-07 -9.07119e-05
0.000653299 -0.000138232 -1.10267e-06
-0.000138232 -0.000482244 -7.4364e-07
-1.10267e-06 -7.4364e-07 -0.000459212
0.00172845 -0.000199048 -5.51216e-07
-0.000199048 -7.62652e-05 1.68182e-06
-5.51216e-07 1.68182e-06 -8.9567e-05
0.00227403 -0.000143562 -5.18987e-06
-0.000143562 0.000156914 -1.39881e-06
-5.18987e-06 -1.39881e-06 0.000125958
0.00163273 -0.000195828 6.49414e-06
-0.000195828 3.38523e-05 2.54924e-06
6.49414e-06 2.54924e-06 -6.12182e-05
0.00182697 -0.000165843 8.41564e-08
-0.000165843 6.75132e-05 2.08566e-07
8.41564e-08 2.08566e-07 4.88035e-06
0.0018049 -0.000106394 -8.41571e-07
-0.000106394 1.53237e-05 1.73866e-06
-8.41571e-07 1.73866e-06 -4.18304e-05
0.00159442 -0.000155979 1.015e-06
-0.000155979 5.82329e-05 2.96822e-06
1.015e-06 2.96822e-06 -4.3989e-05
0.00174654 -0.00013609 1.30552e-07
-0.00013609 6.16555e-05 1.47955e-06
1.30552e-07 1.47955e-06 -1.49451e-05
0.00174308 -0.000107507 1.14077e-06
-0.000107507 5.47596e-05 2.5009e-06
1.14077e-06 2.5009e-06 -2.15463e-05
0.00137063 -0.000128976 3.10455e-06
-0.000128976 -1.31507e-05 3.62588e-06
3.10455e-06 3.62588e-06 -0.0001152
0.00161627 -0.000122922 -8.14368e-07
-0.000122922 7.28084e-05 1.14322e-06
-8.14368e-07 1.14322e-06 -1.17919e-05
0.00187791 -0.000113714 3.88916e-07
-0.000113714 0.000201172 6.49397e-07
3.88916e-07 6.49397e-07 0.000116731
0.00164956 -0.000117041 -2.24465e-06
-0.000117041 0.000150955 7.14062e-07
-2.24465e-06 7.14062e-07 6.34074e-05
0.00176819 -0.000118746 2.03758e-06
-0.000118746 0.000235174 -1.94652e-06
2.03758e-06 -1.94652e-06 0.000136437
0.00155425 -0.000123741 1.8208e-06
-0.000123741 0.000124718 4.01234e-06
1.8208e-06 4.01234e-06 2.62123e-05
0.00147419 -0.00012442 2.61657e-07
-0.00012442 0.000123853 -5.27795e-07
2.61657e-07 -5.27795e-07 1.48608e-05
0.00144865 -0.000121283 -1.14173e-06
-0.000121283 0.000138977 -1.41642e-06
-1.14173e-06 -1.41642e-06 2.65092e-05
0.000956067 -0.000108764 -3.46243e-06
-0.000108764 -3.72563e-05 9.88226e-07
-3.46243e-06 9.88226e-07 -0.000154859
0.00136937 -0.000129581 1.24358e-07
-0.000129581 0.000146936 -3.01896e-07
1.24358e-07 -3.01896e-07 2.26661e-05
0.00162233 -0.000143992 3.7488e-06
-0.000143992 0.000251181 8.17556e-07
3.7488e-06 8.17556e-07 0.00012202
0.00101384 -0.000102722 -2.42479e-06
-0.000102722 7.61618e-05 1.36774e-06
-2.42479e-06 1.36774e-06 -2.68136e-05
0.000903376 -0.000107799 -7.42843e-07
-0.000107799 -5.1119e-06 8.17591e-07
-7.42843e-07 8.17591e-07 -0.000122352
0.00136019 -0.000132151 3.30833e-06
-0.000132151 0.000210998 -1.77291e-06
3.30833e-06 -1.77291e-06 8.31308e-05
0.000748118 -3.98728e-05 -2.69594e-06
-3.98728e-05 -1.67337e-05 1.89434e-06
-2.69594e-06 1.89434e-06 -9.22361e-05
0.00103928 -9.88817e-05 8.48264e-08
-9.88817e-05 0.000112583 -2.20485e-07
8.48264e-08 -2.20485e-07 1.54675e-05
0.001147 -0.000114974 1.56874e-06
-0.000114974 0.000159804 -1.71138e-06
1.56874e-06 -1.71138e-06 4.88891e-05
0.000581156 5.84453e-05 -5.39415e-07
5.84453e-05 -7.46207e-05 5.45507e-06
-5.39415e-07 5.45507e-06 -0.000108841
0.000832345 -2.67369e-05 6.5346e-08
-2.67369e-05 3.49595e-05 2.71224e-07
6.5346e-08 2.71224e-07 -3.76625e-05
0.00106821 -8.49468e-05 1.81804e-06
-8.49468e-05 0.000140265 -5.63479e-07
1.81804e-06 -5.63479e-07 4.86419e-05
0.00262341 7.9068e-05 -3.67232e-05
7.9068e-05 0.00102125 2.93267e-06
-3.67232e-05 2.93267e-06 0.00102732
0.000643713 6.01583e-05 5.07796e-08
6.01583e-05 -4.19156e-05 -1.69197e-07
5.07796e-08 -1.69197e-07 -6.98377e-05
0.000771329 -2.36467e-05 2.32647e-06
-2.36467e-05 5.90431e-06 -2.60762e-06
2.32647e-06 -2.60762e-06 -5.93254e-05
0.00245457 6.99731e-05 5.97828e-07
6.99731e-05 0.000926557 9.76635e-08
5.97828e-07 9.76635e-08 0.000935321
0.000718495 5.47129e-05 7.52548e-07
5.47129e-05 -8.71117e-06 -4.48586e-06
7.52548e-07 -4.48586e-06 -2.99291e-05
0.00233154 6.22339e-05 3.2197e-05
6.22339e-05 0.00085496 -3.12643e-06
3.2197e-05 -3.12643e-06 0.000866178
0.00101307 9.74345e-05 2.70878e-07
9.74345e-05 0.000134994 3.4552e-07
2.70878e-07 3.4552e-07 3.95276e-05
0.000893183 6.62647e-05 3.42557e-07
6.62647e-05 7.60166e-05 1.2124e-07
3.42557e-07 1.2124e-07 -9.61688e-06
0.000799899 -1.77311e-05 -7.05596e-07
-1.77311e-05 2.16261e-05 -6.46623e-07
-7.05596e-07 -6.46623e-07 -5.66511e-05
0.000883979 -1.37075e-05 -6.29538e-08
-1.37075e-05 6.21964e-05 9.76251e-07
-6.29538e-08 9.76251e-07 -1.29215e-05
0.000836964 -3.71513e-05 7.92094e-08
-3.71513e-05 3.72992e-05 8.80338e-08
7.92094e-08 8.80338e-08 -3.27234e-05
0.000736583 -4.18403e-05 -1.00389e-06
-4.18403e-05 -1.16957e-05 -2.34636e-06
-1.00389e-06 -2.34636e-06 -6.14177e-05
0.000828448 -4.59612e-05 2.62921e-08
-4.59612e-05 2.42243e-05 1.59172e-06
2.62921e-08 1.59172e-06 -3.89277e-05
0.000762179 -4.55778e-05 8.76514e-12
-4.55778e-05 -4.01703e-06 -1.19928e-07
8.76514e-12 -1.19928e-07 -4.73307e-05
0.000729125 -4.45071e-05 -2.23364e-06
-4.45071e-05 -1.47774e-05 -3.76538e-06
-2.23364e-06 -3.76538e-06 -2.93669e-05
0.00225183 -5.51239e-05 -2.81573e-05
-5.51239e-05 0.000803597 -3.30856e-06
-2.81573e-05 -3.30856e-06 0.000817125
0.00071811 -3.70429e-05 -7.03339e-08
-3.70429e-05 -2.87771e-05 2.58639e-08
-7.03339e-08 2.58639e-08 -4.05363e-05
0.000774166 -3.69973e-05 1.49371e-06
-3.69973e-05 -4.16233e-06 2.01696e-06
1.49371e-06 2.01696e-06 -4.3374e-05
0.00224792 -4.90877e-05 -1.2725e-06
-4.90877e-05 0.000793132 9.75235e-08
-1.2725e-06 9.75235e-08 0.000808394
0.000705374 -3.25586e-05 1.44877e-06
-3.25586e-05 -4.16983e-05 3.59262e-06
1.44877e-06 3.59262e-06 -5.16299e-05
0.00221225 -4.26755e-05 2.05152e-05
-4.26755e-05 0.000766647 3.72763e-06
2.05152e-05 3.72763e-06 0.000783678
0.0072901 6.54156e-05 5.6572e-05
6.54156e-05 0.00219219 1.0808e-05
5.6572e-05 1.0808e-05 0.00138098
-0.00234302 -9.46424e-05 -4.94236e-06
-9.46424e-05 -0.00113963 7.09217e-07
-4.94236e-06 7.09217e-07 -0.00104842
-0.00106146 -9.51781e-05 -4.0314e-05
-9.51781e-05 -0.000361977 -4.01933e-06
-4.0314e-05 -4.01933e-06 -0.000653991
0.000876058 -7.00032e-06 1.79223e-07
-7.00032e-06 6.79777e-05 9.43015e-07
1.79223e-07 9.43015e-07 -1.90618e-05
0.000833646 8.35727e-05 -2.84694e-07
8.35727e-05 6.16045e-05 -2.46531e-07
-2.84694e-07 -2.46531e-07 -3.02579e-05
0.00103754 7.70224e-05 4.83915e-07
7.70224e-05 0.000170176 -1.58259e-08
4.83915e-07 -1.58259e-08 7.26186e-05
0.00101116 0.000104488 -8.70749e-07
0.000104488 0.000145318 -1.44627e-07
-8.70749e-07 -1.44627e-07 4.58207e-05
0.00113251 0.000113898 6.24574e-06
0.000113898 0.000197966 1.71169e-06
6.24574e-06 1.71169e-06 9.05057e-05
0.000650473 8.55399e-05 -8.46763e-07
8.55399e-05 -3.29654e-05 1.3557e-06
-8.46763e-07 1.3557e-06 -0.00013271
0.000572361 4.94112e-05 -3.48588e-07
4.94112e-05 -7.84236e-05 -9.66285e-08
-3.48588e-07 -9.66285e-08 -0.000169215
0.000601313 8.3203e-05 4.93553e-07
8.3203e-05 -6.22183e-05 5.57571e-08
4.93553e-07 5.57571e-08 -0.000165991
0.000790326 7.67157e-05 2.13417e-07
7.67157e-05 1.54645e-05 -3.66089e-08
2.13417e-07 -3.66089e-08 -7.95666e-05
0.000224777 8.25626e-05 1.57567e-06
8.25626e-05 -0.00031419 2.63037e-07
1.57567e-06 2.63037e-07 -0.000416771
0.00304702 0.000229149 1.36584e-06
0.000229149 0.00103119 -7.45749e-07
1.36584e-06 -7.45749e-07 0.000918576
0.00168242 0.000199608 3.33672e-06
0.000199608 0.0001649 -1.13447e-06
3.33672e-06 -1.13447e-06 3.65283e-05
0.00136341 0.000163594 1.33467e-06
0.000163594 0.00018828 -9.14933e-07
1.33467e-06 -9.14933e-07 7.84531e-05
0.000967041 5.73669e-05 -3.37753e-06
5.73669e-05 0.000130385 1.40032e-06
-3.37753e-06 1.40032e-06 4.86618e-05
0.00244514 -3.30152e-05 -2.40154e-05
-3.30152e-05 -0.000142379 -9.79756e-06
-2.40154e-05 -9.79756e-06 -0.000395657
0.00483742 -0.000104745 8.49028e-06
-0.000104745 0.00111572 1.54534e-06
8.49028e-06 1.54534e-06 9.86982e-05
0.00468482 -0.000491432 -3.69118e-05
-0.000491432 0.00220515 -2.89343e-05
-3.69118e-05 -2.89343e-05 0.00222768
0.00728674 -0.000148348 0.0001945
-0.000148348 0.00226382 5.86538e-05
0.0001945 5.86538e-05 0.000919867
0.00348338 0.000304016 4.67461e-05
0.000304016 0.00079291 4.77417e-05
4.67461e-05 4.77417e-05 0.000605793
0.00210028 0.000161011 -4.84865e-05
0.000161011 5.66266e-05 -1.58609e-05
-4.84865e-05 -1.58609e-05 -0.000213655
0.00193399 0.000223482 3.10116e-05
0.000223482 0.000115294 1.73236e-05
3.10116e-05 1.73236e-05 0.000101976
0.00197464 0.000284137 -2.05478e-06
0.000284137 0.000285362 5.24825e-06
-2.05478e-06 5.24825e-06 0.00015745
0.000238037 0.000128275 -2.74008e-06
0.000128275 -0.000292831 3.88425e-06
-2.74008e-06 3.88425e-06 -0.000428939
0.00202778 0.00029977 -6.97672e-05
0.00029977 0.000288348 -4.64376e-05
-6.97672e-05 -4.64376e-05 0.000225398
0.00329849 -9.30043e-05 -0.000142059
-9.30043e-05 0.000839175 -5.18556e-07
-0.000142059 -5.18556e-07 0.000435065
0.00722173 3.41677e-05 1.47637e-05
3.41677e-05 0.00244907 -2.33298e-06
1.47637e-05 -2.33298e-06 0.00179971
-0.00525733 -6.65057e-05 2.15708e-05
-6.65057e-05 -0.00276367 3.27039e-06
2.15708e-05 3.27039e-06 -0.00255981
0.00140454 -0.000161503 -8.73067e-07
-0.000161503 0.000161955 8.05827e-06
-8.73067e-07 8.05827e-06 9.33027e-05
0.0049952 -1.51534e-05 6.76407e-05
-1.51534e-05 0.00106004 -6.15263e-07
6.76407e-05 -6.15263e-07 0.000578418
0.00089773 -0.000171055 5.87884e-05
-0.000171055 -0.000535203 1.41168e-05
5.87884e-05 1.41168e-05 -0.00123602
0.00134446 -0.000106437 4.95942e-06
-0.000106437 0.00012225 -3.88862e-08
4.95942e-06 -3.88862e-08 2.94635e-05
0.00160917 7.60014e-05 -1.78654e-06
7.60014e-05 -1.95226e-05 -1.61696e-06
-1.78654e-06 -1.61696e-06 -0.000284401
0.00368088 -7.53803e-05 3.73301e-06
-7.53803e-05 0.0010636 -7.49514e-06
3.73301e-06 -7.49514e-06 0.00100633
0.00134519 4.34326e-05 2.23475e-05
4.34326e-05 -0.000118867 -1.66706e-06
2.23475e-05 -1.66706e-06 -0.000225109
0.00116974 -0.00018919 8.49052e-07
-0.00018919 -0.000322568 1.61011e-06
8.49052e-07 1.61011e-06 -0.000357716
0.00200386 -0.000140729 -3.27366e-07
-0.000140729 2.43436e-05 -6.70463e-07
-3.27366e-07 -6.70463e-07 -1.00611e-05
0.00219699 -4.0707e-05 2.03732e-06
-4.0707e-05 0.00019633 -1.76617e-06
2.03732e-06 -1.76617e-06 0.00014843
0.00186027 -0.000163541 5.99423e-06
-0.000163541 0.000100284 -1.88955e-07
5.99423e-06 -1.88955e-07 3.69202e-05
0.00190642 -0.000107702 2.02167e-06
-0.000107702 7.74199e-05 -3.51459e-07
2.02167e-06 -3.51459e-07 1.84433e-05
0.00189422 -5.61147e-05 1.62809e-06
-5.61147e-05 0.000121689 5.9283e-07
1.62809e-06 5.9283e-07 4.51736e-05
0.00186165 -0.000138197 3.8456e-06
-0.000138197 0.000125205 2.32146e-06
3.8456e-06 2.32146e-06 4.71616e-05
0.00180324 -0.000107936 9.42524e-07
-0.000107936 9.40475e-05 4.98915e-08
9.42524e-07 4.98915e-08 1.61183e-05
0.00188403 -8.5411e-05 -3.19063e-07
-8.5411e-05 0.000160355 2.28347e-06
-3.19063e-07 2.28347e-06 6.8963e-05
0.0015579 -0.000122272 1.17957e-06
-0.000122272 4.88022e-05 1.66107e-06
1.17957e-06 1.66107e-06 -3.76336e-05
0.00163753 -0.000110473 7.08633e-07
-0.000110473 8.94515e-05 -7.13886e-07
7.08633e-07 -7.13886e-07 5.39061e-06
0.00147089 -9.93085e-05 2.80711e-06
-9.93085e-05 3.50862e-05 9.02192e-07
2.80711e-06 9.02192e-07 -6.25132e-05
0.00134201 -0.000109254 -8.51028e-07
-0.000109254 -6.49339e-06 2.60107e-06
-8.51028e-07 2.60107e-06 -9.1151e-05
0.00159945 -0.000113323 -1.33023e-06
-0.000113323 0.000146468 -1.07879e-06
-1.33023e-06 -1.07879e-06 4.96011e-05
0.00175262 -0.000117087 3.49298e-07
-0.000117087 0.00025372 -8.6283e-07
3.49298e-07 -8.6283e-07 0.000145842
0.00145902 -0.000122817 1.22391e-06
-0.000122817 0.000114917 1.98848e-06
1.22391e-06 1.98848e-06 5.75e-06
0.00144696 -0.000120208 3.8653e-07
-0.000120208 0.000137749 -4.54831e-07
3.8653e-07 -4.54831e-07 2.50237e-05
0.00149158 -0.000119466 -1.99415e-06
-0.000119466 0.000192199 -1.78213e-07
-1.99415e-06 -1.78213e-07 8.06067e-05
0.000765706 -9.27532e-05 -4.19863e-06
-9.27532e-05 -9.92942e-05 1.65735e-06
-4.19863e-06 1.65735e-06 -0.000205154
0.00105296 -0.000111599 -5.90203e-07
-0.000111599 1.68038e-05 4.6204e-07
-5.90203e-07 4.6204e-07 -0.000100073
0.00135633 -0.000127979 2.86396e-06
-0.000127979 0.000140604 -3.19855e-07
2.86396e-06 -3.19855e-07 1.59577e-05
0.000830201 -6.51309e-05 -3.49103e-06
-6.51309e-05 1.27573e-05 2.03766e-06
-3.49103e-06 2.03766e-06 -6.7722e-05
0.00105942 -0.000104362 1.57668e-07
-0.000104362 9.85237e-05 6.67799e-08
1.57668e-07 6.67799e-08 -4.43305e-06
0.00101867 -0.000112261 1.19971e-06
-0.000112261 5.71919e-05 -6.18394e-07
1.19971e-06 -6.18394e-07 -5.92225e-05
0.00061951 3.80065e-05 -3.75208e-06
3.80065e-05 -5.4724e-05 5.21554e-06
-3.75208e-06 5.21554e-06 -9.38619e-05
0.000856524 -4.33939e-05 1.47167e-07
-4.33939e-05 4.09694e-05 1.2485e-08
1.47167e-07 1.2485e-08 -3.55926e-05
0.00111884 -0.000103146 2.28027e-06
-0.000103146 0.000152642 -1.33894e-06
2.28027e-06 -1.33894e-06 5.50821e-05
0.00288593 8.92295e-05 -4.27421e-05
8.92295e-05 0.00116389 2.94847e-06
-4.27421e-05 2.94847e-06 0.00116669
0.000640855 4.29867e-05 5.70575e-07
4.29867e-05 -4.62775e-05 -7.1704e-08
5.70575e-07 -7.1704e-08 -7.88288e-05
0.000849665 -3.02295e-05 3.04828e-06
-3.02295e-05 4.26629e-05 -2.21616e-06
3.04828e-06 -2.21616e-06 -2.97359e-05
0.00267856 7.87411e-05 7.58347e-07
7.87411e-05 0.00104997 1.19651e-07
7.58347e-07 1.19651e-07 0.00105579
0.000682946 5.31939e-05 1.62245e-06
5.31939e-05 -2.21707e-05 -4.90178e-06
1.62245e-06 -4.90178e-06 -4.94717e-05
0.00251291 6.98606e-05 3.73341e-05
6.98606e-05 0.000957412 -3.11613e-06
3.73341e-05 -3.11613e-06 0.000965963
0.00108245 0.000107145 -4.12764e-07
0.000107145 0.000162301 -9.9263e-07
-4.12764e-07 -9.9263e-07 5.92785e-05
0.00105516 9.98077e-05 2.5983e-07
9.98077e-05 0.000157267 1.49401e-07
2.5983e-07 1.49401e-07 6.21083e-05
0.000944095 4.74724e-05 -1.23398e-06
4.74724e-05 9.38597e-05 -3.95749e-07
-1.23398e-06 -3.95749e-07 8.14854e-06
0.000858437 8.4237e-05 1.79001e-07
8.4237e-05 6.13617e-05 -8.90805e-08
1.79001e-07 -8.90805e-08 -2.65238e-05
0.000800568 -3.2402e-06 -4.28674e-07
-3.2402e-06 2.2833e-05 -9.60714e-08
-4.28674e-07 -9.60714e-08 -5.68269e-05
0.00073892 -5.61232e-06 -2.14741e-06
-5.61232e-06 -7.57404e-06 -1.86778e-06
-2.14741e-06 -1.86778e-06 -6.68558e-05
0.000815252 -4.65421e-05 8.65657e-08
-4.65421e-05 2.67102e-05 1.26249e-06
8.65657e-08 1.26249e-06 -4.47464e-05
0.0007538 -4.15572e-05 1.39943e-07
-4.15572e-05 -2.62027e-06 -2.67556e-07
1.39943e-07 -2.67556e-07 -5.2308e-05
0.000712217 -5.37952e-05 -1.39271e-06
-5.37952e-05 -1.34894e-05 -4.12719e-06
-1.39271e-06 -4.12719e-06 -3.28991e-05
0.000777757 -4.59714e-05 9.85819e-07
-4.59714e-05 3.38714e-06 2.21542e-06
9.85819e-07 2.21542e-06 -3.97034e-05
0.000707443 -4.24314e-05 1.06215e-07
-4.24314e-05 -2.66273e-05 -3.12586e-08
1.06215e-07 -3.12586e-08 -4.08527e-05
0.00230043 -6.15513e-05 -3.11891e-05
-6.15513e-05 0.000837452 -3.07653e-06
-3.11891e-05 -3.07653e-06 0.000848981
0.00226057 -5.51506e-05 -7.52077e-07
-5.51506e-05 0.000807212 9.33293e-08
-7.52077e-07 9.33293e-08 0.000820838
0.000700934 -3.61219e-05 2.16366e-06
-3.61219e-05 -3.77039e-05 3.64233e-06
2.16366e-06 3.64233e-06 -4.93683e-05
0.00225121 -4.91412e-05 2.38475e-05
-4.91412e-05 0.000794168 3.60146e-06
2.38475e-05 3.60146e-06 0.000809502
0.00130465 -6.49214e-05 -5.73238e-05
-6.49214e-05 -0.000318141 1.953e-07
-5.73238e-05 1.953e-07 -0.000583354
0.00180697 -0.000138085 7.86402e-06
-0.000138085 -0.000423753 7.89443e-07
7.86402e-06 7.89443e-07 -0.00112755
0.00240942 -0.000307242 -4.64855e-05
-0.000307242 0.0010041 -1.21163e-05
-4.64855e-05 -1.21163e-05 0.00114998
0.00121782 0.000122902 6.43857e-06
0.000122902 0.000193631 1.69507e-06
6.43857e-06 1.69507e-06 8.03233e-05
0.0011231 8.01765e-05 2.88078e-07
8.01765e-05 0.000215906 -5.44501e-07
2.88078e-07 -5.44501e-07 0.00011843
0.000922169 9.98606e-05 -7.23827e-07
9.98606e-05 9.95659e-05 -3.65703e-07
-7.23827e-07 -3.65703e-07 5.51868e-07
0.000899091 9.87562e-05 2.58896e-07
9.87562e-05 9.8067e-05 3.14006e-07
2.58896e-07 3.14006e-07 -3.364e-06
0.00102212 0.000108879 -1.98179e-07
0.000108879 0.000143797 -8.12256e-07
-1.98179e-07 -8.12256e-07 3.57099e-05
0.000618431 9.3989e-05 -3.43319e-07
9.3989e-05 -9.11404e-05 1.58356e-06
-3.43319e-07 1.58356e-06 -0.000184912
0.00104113 0.000107626 -2.22768e-08
0.000107626 0.000164549 -1.48783e-06
-2.22768e-08 -1.48783e-06 5.58121e-05
0.000952579 7.2772e-05 -1.59296e-06
7.2772e-05 0.000104659 1.67676e-06
-1.59296e-06 1.67676e-06 6.96081e-06
0.000943783 0.00011787 2.42634e-07
0.00011787 5.53592e-05 -1.81904e-07
2.42634e-07 -1.81904e-07 -4.79227e-05
0.00222927 0.000192663 6.34447e-07
0.000192663 0.000627109 2.44399e-06
6.34447e-07 2.44399e-06 0.000516743
0.00163532 0.00017991 1.50516e-06
0.00017991 0.000179074 -1.62444e-06
1.50516e-06 -1.62444e-06 5.63184e-05
0.00184028 0.000167182 8.44922e-06
0.000167182 8.79153e-05 7.24833e-06
8.44922e-06 7.24833e-06 -3.85435e-05
0.00125949 0.000181436 2.28696e-07
0.000181436 -4.79629e-05 -4.39909e-08
2.28696e-07 -4.39909e-08 -0.000176157
0.000832025 0.000136214 -1.56054e-06
0.000136214 -7.76912e-05 3.90964e-06
-1.56054e-06 3.90964e-06 -0.000182504
0.000352991 6.04992e-05 -5.87323e-06
6.04992e-05 -0.000430062 1.77568e-06
-5.87323e-06 1.77568e-06 -0.000436055
0.00398316 -1.54744e-05 -1.21285e-05
-1.54744e-05 0.000443942 1.3523e-06
-1.21285e-05 1.3523e-06 0.000121786
0.00130287 -0.000153096 9.66046e-06
-0.000153096 -0.000574249 7.62328e-06
9.66046e-06 7.62328e-06 -0.00151027
0.0028703 0.000240534 5.32854e-05
0.000240534 0.000237773 2.2383e-05
5.32854e-05 2.2383e-05 -0.000169058
0.00128465 0.000184145 -1.00344e-05
0.000184145 -0.000104263 -4.30713e-08
-1.00344e-05 -4.30713e-08 -0.000132813
0.000406869 0.000201527 -1.82535e-05
0.000201527 -0.000427878 -1.25869e-05
-1.82535e-05 -1.25869e-05 -0.000561393
0.00261032 -8.89378e-05 1.44494e-05
-8.89378e-05 0.000498383 -4.34129e-06
1.44494e-05 -4.34129e-06 0.00039323
0.00133308 -6.14105e-06 -2.26385e-05
-6.14105e-06 1.2956e-05 2.51023e-06
-2.26385e-05 2.51023e-06 -0.000345761
0.000644102 0.000220966 4.51812e-05
0.000220966 -0.000993858 -1.24389e-05
4.51812e-05 -1.24389e-05 -0.00159924
0.000284726 -6.76559e-05 -4.70975e-06
-6.76559e-05 -0.000437509 1.18848e-05
-4.70975e-06 1.18848e-05 -0.000467167
0.00355501 0.000129915 3.36758e-05
0.000129915 0.000807792 -2.63328e-06
3.36758e-05 -2.63328e-06 0.000499903
0.00171329 -4.54476e-05 4.17699e-06
-4.54476e-05 4.06593e-05 -1.63893e-06
4.17699e-06 -1.63893e-06 6.4366e-06
0.00202618 5.68581e-05 1.08692e-06
5.68581e-05 0.000236822 -2.26058e-06
1.08692e-06 -2.26058e-06 0.000142007
0.00115056 1.71821e-05 5.75806e-06
1.71821e-05 -0.000342384 -2.84475e-06
5.75806e-06 -2.84475e-06 -0.000414638
0.00238351 2.79484e-05 -4.51787e-07
2.79484e-05 0.00037451 -2.95092e-06
-4.51787e-07 -2.95092e-06 0.000285362
0.00174415 -0.000135345 1.25974e-06
-0.000135345 -9.83615e-05 -5.4895e-07
1.25974e-06 -5.4895e-07 -0.000135286
0.0019743 -4.18611e-05 3.5317e-06
-4.18611e-05 7.03092e-05 3.20701e-07
3.5317e-06 3.20701e-07 1.77909e-05
0.00200515 -2.16108e-05 1.75739e-08
-2.16108e-05 0.000196955 -1.23244e-06
1.75739e-08 -1.23244e-06 0.000120272
0.00201725 -0.000108944 7.70507e-07
-0.000108944 0.000143399 1.8756e-08
7.70507e-07 1.8756e-08 8.19755e-05
0.00182964 -6.03932e-05 2.92773e-07
-6.03932e-05 8.55843e-05 -1.07511e-07
2.92773e-07 -1.07511e-07 7.83e-06
0.00180867 -4.73932e-05 1.7209e-07
-4.73932e-05 0.000130327 -3.87178e-07
1.7209e-07 -3.87178e-07 3.54478e-05
0.00187448 -0.000108699 -1.14528e-06
-0.000108699 0.000139337 -4.23841e-08
-1.14528e-06 -4.23841e-08 5.98145e-05
0.00180101 -8.75381e-05 -5.6053e-07
-8.75381e-05 0.000125191 -5.39357e-07
-5.6053e-07 -5.39357e-07 3.45182e-05
0.00152704 -7.51128e-05 2.97876e-07
-7.51128e-05 2.51096e-05 2.20222e-06
2.97876e-07 2.20222e-06 -7.72464e-05
0.0013873 -0.00010695 2.76218e-07
-0.00010695 -2.74021e-05 -3.00344e-06
2.76218e-07 -3.00344e-06 -0.00011105
0.00155071 -0.000100971 7.25131e-07
-0.000100971 7.49326e-05 -7.23919e-07
7.25131e-07 -7.23919e-07 -2.27992e-05
0.00152713 -0.000101181 5.39502e-07
-0.000101181 9.14227e-05 5.22625e-07
5.39502e-07 5.22625e-07 -1.59696e-05
0.00143103 -0.000107976 -3.33968e-06
-0.000107976 5.79302e-05 1.04999e-06
-3.33968e-06 1.04999e-06 -3.7081e-05
0.00156485 -0.000110431 -2.56603e-07
-0.000110431 0.000154491 -7.54766e-07
-2.56603e-07 -7.54766e-07 4.77134e-05
0.00145822 -0.000106206 -1.84552e-06
-0.000106206 0.000131526 1.88905e-07
-1.84552e-06 1.88905e-07 2.14511e-05
0.00144546 -0.000119136 1.90211e-06
-0.000119136 0.000136581 5.6698e-07
1.90211e-06 5.6698e-07 2.36052e-05
0.00129759 -0.000112062 4.84641e-07
-0.000112062 9.11668e-05 -2.97964e-07
4.84641e-07 -2.97964e-07 -2.07056e-05
0.00129233 -0.000106018 -4.01181e-06
-0.000106018 0.000129077 9.83977e-07
-4.01181e-06 9.83977e-07 2.44962e-05
0.000913064 -7.73413e-05 -4.50837e-06
-7.73413e-05 2.66232e-05 2.21547e-06
-4.50837e-06 2.21547e-06 -5.78095e-05
0.000895737 -9.76067e-05 -9.36041e-07
-9.76067e-05 -2.8856e-05 6.02804e-07
-9.36041e-07 6.02804e-07 -0.000133938
0.00113647 -0.000113782 2.06632e-06
-0.000113782 6.39686e-05 -1.78967e-07
2.06632e-06 -1.78967e-07 -5.21312e-05
0.000626207 -2.00437e-05 -6.41841e-06
-2.00437e-05 -5.12519e-05 5.52609e-06
-6.41841e-06 5.52609e-06 -9.59361e-05
0.000885602 -6.78916e-05 1.95645e-07
-6.78916e-05 4.19628e-05 -1.06422e-08
1.95645e-07 -1.06422e-08 -3.91163e-05
0.00110739 -0.000106289 2.81892e-06
-0.000106289 0.000121973 -1.26755e-06
2.81892e-06 -1.26755e-06 1.90225e-05
0.00306186 9.86504e-05 -4.83578e-05
9.86504e-05 0.00126548 2.93635e-06
-4.83578e-05 2.93635e-06 0.00126432
0.000667515 8.36016e-06 -1.99824e-07
8.36016e-06 -3.43461e-05 -1.4201e-07
-1.99824e-07 -1.4201e-07 -7.24265e-05
0.000924902 -4.87882e-05 3.67458e-06
-4.87882e-05 7.68949e-05 -2.24301e-06
3.67458e-06 -2.24301e-06 -2.33774e-07
0.00289218 8.73463e-05 1.08076e-06
8.73463e-05 0.00116783 1.64261e-07
1.08076e-06 1.64261e-07 0.00117041
0.000685814 3.3887e-05 4.66996e-06
3.3887e-05 -2.22106e-05 -4.89387e-06
4.66996e-06 -4.89387e-06 -5.52427e-05
0.00273203 7.77237e-05 4.33322e-05
7.77237e-05 0.00107782 -3.25956e-06
4.33322e-05 -3.25956e-06 0.00108347
0.000873884 0.000103532 -4.78691e-07
0.000103532 2.25818e-05 -9.18103e-07
-4.78691e-07 -9.18103e-07 -8.72006e-05
0.00100278 0.00010269 -5.81783e-08
0.00010269 0.000120471 -6.02474e-07
-5.81783e-08 -6.02474e-07 1.81031e-05
0.00108858 9.33865e-05 -9.63948e-07
9.33865e-05 0.000159217 -3.1831e-07
-9.63948e-07 -3.1831e-07 6.73198e-05
0.00109634 0.000102257 -2.11842e-07
0.000102257 0.000178871 -5.13917e-07
-2.11842e-07 -5.13917e-07 8.40269e-05
0.000922834 4.96438e-05 -7.75951e-07
4.96438e-05 8.27613e-05 -3.68565e-07
-7.75951e-07 -3.68565e-07 -2.24227e-06
0.000791377 1.31172e-05 -2.17802e-06
1.31172e-05 2.0156e-05 -1.54677e-06
-2.17802e-06 -1.54677e-06 -4.78146e-05
0.00080223 1.23757e-05 1.01684e-07
1.23757e-05 2.37831e-05 6.16717e-08
1.01684e-07 6.16717e-08 -5.66802e-05
0.000762939 -3.25765e-05 -2.35433e-07
-3.25765e-05 5.723e-06 -1.48915e-08
-2.35433e-07 -1.48915e-08 -5.31889e-05
0.000678914 -6.26139e-05 -7.00896e-07
-6.26139e-05 -2.11486e-05 -4.43911e-06
-7.00896e-07 -4.43911e-06 -4.7231e-05
0.000770262 -4.641e-05 9.67217e-07
-4.641e-05 6.75323e-06 2.37136e-06
9.67217e-07 2.37136e-06 -4.32566e-05
0.000687171 -5.07131e-05 9.50607e-08
-5.07131e-05 -2.77889e-05 -8.6382e-08
9.50607e-08 -8.6382e-08 -4.64269e-05
0.00241362 -6.86558e-05 -3.51859e-05
-6.86558e-05 0.000904812 -2.88919e-06
-3.51859e-05 -2.88919e-06 0.00091395
0.000694806 -4.0889e-05 2.66709e-06
-4.0889e-05 -3.36393e-05 3.6351e-06
2.66709e-06 3.6351e-06 -4.75712e-05
0.00228666 -6.14901e-05 -4.24148e-07
-6.14901e-05 0.000829074 8.1029e-08
-4.24148e-07 8.1029e-08 0.000840798
0.00226691 -5.50706e-05 2.71689e-05
-5.50706e-05 0.000809695 3.41668e-06
2.71689e-05 3.41668e-06 0.000823419
0.000499627 -2.02735e-05 1.34768e-06
-2.02735e-05 -0.000413135 -3.73162e-07
1.34768e-06 -3.73162e-07 -0.000449377
0.00325237 -4.81699e-05 2.19461e-06
-4.81699e-05 0.000381866 1.09655e-05
2.19461e-06 1.09655e-05 2.90795e-05
0.00585349 0.00015393 -7.58983e-05
0.00015393 0.0017651 -1.08495e-05
-7.58983e-05 -1.08495e-05 0.000968907
0.000819358 0.000100227 3.12536e-06
0.000100227 -3.74876e-05 1.19295e-06
3.12536e-06 1.19295e-06 -0.000139755
0.001435 0.000137397 3.90357e-06
0.000137397 0.000195231 -1.64417e-06
3.90357e-06 -1.64417e-06 7.53169e-05
0.000805783 0.000104615 -2.60042e-08
0.000104615 -1.18754e-05 -7.85601e-07
-2.60042e-08 -7.85601e-07 -0.000123317
0.00112038 0.000110541 -1.16388e-06
0.000110541 0.000213701 -1.88156e-06
-1.16388e-06 -1.88156e-06 0.000110886
0.000945833 0.00010552 -9.01193e-07
0.00010552 0.00010692 -1.06416e-06
-9.01193e-07 -1.06416e-06 -1.90957e-06
0.00100425 0.000114525 2.52915e-06
0.000114525 9.8839e-05 1.28921e-06
2.52915e-06 1.28921e-06 2.13844e-06
0.00162132 0.000165586 -2.68026e-06
0.000165586 0.000186238 -3.85671e-06
-2.68026e-06 -3.85671e-06 7.27591e-05
0.00153604 0.00014671 9.54718e-07
0.00014671 0.000361426 -2.97092e-08
9.54718e-07 -2.97092e-08 0.000257761
0.000969499 0.00013582 -2.1403e-06
0.00013582 1.0965e-06 6.19013e-06
-2.1403e-06 6.19013e-06 -0.000105951
0.00165228 0.000180007 -1.17765e-06
0.000180007 0.000195228 1.01489e-07
-1.17765e-06 1.01489e-07 7.39648e-05
0.00169339 0.000159046 -2.1365e-06
0.000159046 6.01485e-05 -6.47294e-07
-2.1365e-06 -6.47294e-07 -7.1603e-05
0.00148143 5.05265e-05 1.12368e-05
5.05265e-05 -0.00014148 4.17522e-06
1.12368e-05 4.17522e-06 -0.000232206
0.00197883 0.000166565 5.37916e-06
0.000166565 0.000164943 2.39423e-06
5.37916e-06 2.39423e-06 3.95095e-05
0.00124135 0.000177722 -4.88417e-06
0.000177722 -5.72533e-05 1.42809e-06
-4.88417e-06 1.42809e-06 -0.000185025
0.000998479 5.32236e-05 -8.29413e-07
5.32236e-05 -0.000109383 -4.73653e-07
-8.29413e-07 -4.73653e-07 -0.00012137
0.00486661 -0.000118391 4.70045e-05
-0.000118391 0.000773084 1.97739e-05
4.70045e-05 1.97739e-05 0.000419057
0.00158344 0.000171051 2.31594e-06
0.000171051 0.000131232 -7.65885e-06
2.31594e-06 -7.65885e-06 9.31986e-05
0.0015664 -1.7369e-05 6.98134e-06
-1.7369e-05 2.3376e-05 -1.21949e-06
6.98134e-06 -1.21949e-06 -5.29582e-05
0.00190064 -5.27173e-05 -1.59952e-06
-5.27173e-05 0.000183133 5.8902e-07
-1.59952e-06 5.8902e-07 5.65901e-05
0.000705885 7.01453e-05 5.15961e-05
7.01453e-05 -0.000501893 -2.31328e-07
5.15961e-05 -2.31328e-07 -0.000939982
-0.000157364 -2.51489e-05 -9.58715e-06
-2.51489e-05 -0.000915225 5.65828e-06
-9.58715e-06 5.65828e-06 -0.000931305
0.00253458 5.93132e-05 -3.38891e-05
5.93132e-05 0.000510351 3.74215e-06
-3.38891e-05 3.74215e-06 0.000431083
0.00129171 6.31733e-06 3.17376e-07
6.31733e-06 -0.000280298 3.59138e-06
3.17376e-07 3.59138e-06 -0.000344591
0.00218676 1.85011e-05 1.01099e-06
1.85011e-05 0.000241631 7.07468e-07
1.01099e-06 7.07468e-07 0.000153848
0.00194226 -1.78815e-05 1.08921e-06
-1.78815e-05 0.000124806 -6.40014e-09
1.08921e-06 -6.40014e-09 4.38724e-05
0.00154115 -5.98555e-06 1.19483e-06
-5.98555e-06 -9.22043e-05 -1.18773e-06
1.19483e-06 -1.18773e-06 -0.000176955
0.00168265 -4.47074e-05 5.03571e-06
-4.47074e-05 -9.66318e-05 1.55653e-06
5.03571e-06 1.55653e-06 -0.00015329
0.00176718 -2.26778e-05 -1.75014e-06
-2.26778e-05 6.98882e-05 -6.50866e-08
-1.75014e-06 -6.50866e-08 -6.17682e-06
0.00180293 -2.25093e-05 8.77299e-07
-2.25093e-05 0.000116008 -5.14014e-07
8.77299e-07 -5.14014e-07 2.51671e-05
0.00185059 -6.51966e-05 -2.82878e-06
-6.51966e-05 9.41491e-05 -7.06854e-07
-2.82878e-06 -7.06854e-07 1.57665e-05
0.00175004 -4.69949e-05 -6.62731e-07
-4.69949e-05 0.000101195 -2.44309e-07
-6.62731e-07 -2.44309e-07 6.28224e-06
0.00161413 -4.05858e-05 -6.90331e-07
-4.05858e-05 5.31781e-05 -4.38101e-07
-6.90331e-07 -4.38101e-07 -5.03749e-05
0.00172697 -8.96432e-05 -3.42084e-06
-8.96432e-05 9.4662e-05 -1.68639e-06
-3.42084e-06 -1.68639e-06 4.67585e-06
0.00164019 -7.68819e-05 4.63634e-07
-7.68819e-05 8.10342e-05 9.35126e-07
4.63634e-07 9.35126e-07 -2.14451e-05
0.00158959 -7.9301e-05 -4.86096e-07
-7.9301e-05 8.04541e-05 5.09949e-07
-4.86096e-07 5.09949e-07 -2.60448e-05
0.00163198 -0.000102645 -1.02575e-06
-0.000102645 0.000115529 -2.31413e-06
-1.02575e-06 -2.31413e-06 1.76686e-05
0.00153109 -0.000100341 2.63373e-07
-0.000100341 9.26604e-05 -1.13624e-07
2.63373e-07 -1.13624e-07 -1.46994e-05
0.00146376 -9.91408e-05 -1.63682e-06
-9.91408e-05 9.32701e-05 7.38545e-07
-1.63682e-06 7.38545e-07 -1.72671e-05
0.00137795 -0.000103863 -4.01197e-07
-0.000103863 5.57126e-05 -1.27655e-07
-4.01197e-07 -1.27655e-07 -4.99766e-05
0.00130661 -0.000101257 -1.52563e-07
-0.000101257 5.34986e-05 -2.67767e-07
-1.52563e-07 -2.67767e-07 -5.62094e-05
0.00126031 -9.65027e-05 -4.07896e-06
-9.65027e-05 7.51234e-05 1.11985e-06
-4.07896e-06 1.11985e-06 -2.9068e-05
0.00110033 -0.000104594 2.77514e-06
-0.000104594 -1.1455e-05 -3.0545e-07
2.77514e-06 -3.0545e-07 -0.000123626
0.00107726 -9.74274e-05 2.20002e-07
-9.74274e-05 1.72946e-05 -3.37098e-08
2.20002e-07 -3.37098e-08 -8.71751e-05
0.000976027 -7.9425e-05 -5.74756e-06
-7.9425e-05 2.28936e-05 2.41172e-06
-5.74756e-06 2.41172e-06 -6.2366e-05
0.000549349 -4.38526e-05 -7.97211e-06
-4.38526e-05 -9.65659e-05 5.98092e-06
-7.97211e-06 5.98092e-06 -0.000146159
0.000936297 -7.96192e-05 2.14909e-07
-7.96192e-05 3.89363e-05 4.1484e-08
2.14909e-07 4.1484e-08 -4.58169e-05
0.00102981 -0.000102721 2.0339e-06
-0.000102721 4.37174e-05 -3.20616e-07
2.0339e-06 -3.20616e-07 -6.06212e-05
0.00322623 0.000110728 -5.10273e-05
0.000110728 0.00136841 2.88342e-06
-5.10273e-05 2.88342e-06 0.00136187
0.000690239 -1.29791e-05 -3.06401e-07
-1.29791e-05 -2.09076e-05 -2.48371e-08
-3.06401e-07 -2.48371e-08 -6.64412e-05
0.00096418 -6.87101e-05 4.08766e-06
-6.87101e-05 8.39322e-05 -2.07449e-06
4.08766e-06 -2.07449e-06 1.84735e-06
0.00309051 9.80076e-05 1.25909e-06
9.80076e-05 0.00128312 2.1669e-07
1.25909e-06 2.1669e-07 0.0012813
0.000734554 5.89244e-06 6.43682e-06
5.89244e-06 -1.65481e-06 -4.97908e-06
6.43682e-06 -4.97908e-06 -3.97172e-05
0.00293028 8.62715e-05 4.88975e-05
8.62715e-05 0.00118851 -3.23843e-06
4.88975e-05 -3.23843e-06 0.00119075
0.000605488 9.79917e-05 -4.86876e-07
9.79917e-05 -0.000177273 -7.982e-07
-4.86876e-07 -7.982e-07 -0.000295545
0.00069937 9.53922e-05 1.09869e-08
9.53922e-05 -7.09313e-05 -1.54917e-07
1.09869e-08 -1.54917e-07 -0.000181282
0.00112916 0.000103609 -1.69976e-06
0.000103609 0.00015382 -4.79073e-07
-1.69976e-06 -4.79073e-07 5.49449e-05
0.00092066 9.80892e-05 -2.73623e-07
9.80892e-05 7.73036e-05 -4.55657e-07
-2.73623e-07 -4.55657e-07 -2.43804e-05
0.000987242 8.76472e-05 -2.28781e-07
8.76472e-05 0.000106787 -1.98812e-07
-2.28781e-07 -1.98812e-07 1.55876e-05
0.000891622 3.51482e-05 -2.85101e-06
3.51482e-05 7.1526e-05 -1.33686e-06
-2.85101e-06 -1.33686e-06 -3.2514e-06
0.000901112 5.13285e-05 1.65582e-07
5.13285e-05 7.15672e-05 -5.59245e-07
1.65582e-07 -5.59245e-07 -1.28004e-05
0.000789237 2.30954e-06 1.50697e-08
2.30954e-06 2.23151e-05 1.01282e-07
1.50697e-08 1.01282e-07 -4.65332e-05
0.000663202 -5.09533e-05 -2.82667e-06
-5.09533e-05 -2.76512e-05 -4.39088e-06
-2.82667e-06 -4.39088e-06 -5.88334e-05
0.000780742 -4.74088e-05 1.04808e-06
-4.74088e-05 1.68139e-05 2.37129e-06
1.04808e-06 2.37129e-06 -4.25498e-05
0.000648515 -6.04211e-05 -2.59256e-08
-6.04211e-05 -3.86899e-05 -1.25654e-07
-2.59256e-08 -1.25654e-07 -6.39813e-05
0.00258011 -7.66346e-05 -3.99422e-05
-7.66346e-05 0.000998929 -2.82992e-06
-3.99422e-05 -2.82992e-06 0.0010053
0.000661341 -4.74531e-05 2.7043e-06
-4.74531e-05 -4.25659e-05 3.75083e-06
2.7043e-06 3.75083e-06 -6.04256e-05
0.00237966 -6.86307e-05 -4.67044e-07
-6.86307e-05 0.000886191 8.41372e-08
-4.67044e-07 8.41372e-08 0.000895562
0.00228385 -6.1282e-05 2.96005e-05
-6.1282e-05 0.000826545 3.16944e-06
2.96005e-05 3.16944e-06 0.000838469
0.00146064 -7.25221e-06 1.21037e-05
-7.25221e-06 -0.000129572 7.22051e-07
1.21037e-05 7.22051e-07 -0.000204337
0.00109105 -4.74404e-05 -2.99196e-07
-4.74404e-05 -0.000183406 2.00277e-06
-2.99196e-07 2.00277e-06 -0.000234724
0.00246505 -9.7004e-05 7.39169e-05
-9.7004e-05 3.77244e-05 1.47826e-05
7.39169e-05 1.47826e-05 -0.000242344
0.00207293 0.000158579 1.99873e-06
0.000158579 0.00044279 -3.03412e-06
1.99873e-06 -3.03412e-06 0.000329731
0.000813471 0.000103279 -1.59298e-06
0.000103279 -2.64458e-05 7.20407e-07
-1.59298e-06 7.20407e-07 -0.000122959
0.000813307 0.000113262 -2.99767e-06
0.000113262 -0.000231453 1.4062e-06
-2.99767e-06 1.4062e-06 -0.000351003
0.00147049 0.000139347 4.99196e-07
0.000139347 0.000211693 1.61891e-07
4.99196e-07 1.61891e-07 9.09763e-05
0.000399656 8.63409e-05 -2.95615e-06
8.63409e-05 -0.000213547 9.12035e-07
-2.95615e-06 9.12035e-07 -0.000323211
0.00171392 0.000137348 -2.25441e-06
0.000137348 8.9178e-05 -4.07728e-06
-2.25441e-06 -4.07728e-06 -3.42474e-05
0.00137537 0.000134177 -1.38261e-06
0.000134177 0.000281739 -5.91624e-07
-1.38261e-06 -5.91624e-07 0.000182225
0.00169131 0.000165678 -3.93698e-07
0.000165678 0.000216271 2.33402e-07
-3.93698e-07 2.33402e-07 0.000102444
0.00175419 8.02845e-05 3.92736e-06
8.02845e-05 6.60442e-05 1.86515e-06
3.92736e-06 1.86515e-06 -4.8083e-05
0.00169582 0.000182028 1.83577e-06
0.000182028 0.000224098 3.3053e-06
1.83577e-06 3.3053e-06 0.000104289
0.00187541 0.000165938 -1.29491e-06
0.000165938 0.000141133 -8.97251e-07
-1.29491e-06 -8.97251e-07 7.91323e-06
0.0015991 6.00011e-05 -2.68045e-07
6.00011e-05 -6.35491e-05 -6.46513e-07
-2.68045e-07 -6.46513e-07 -0.000156007
0.00174613 0.000151337 -1.65008e-06
0.000151337 6.6575e-05 -1.34454e-06
-1.65008e-06 -1.34454e-06 -5.81544e-05
0.00105894 5.02598e-05 -4.84884e-06
5.02598e-05 -7.92128e-05 -6.46476e-06
-4.84884e-06 -6.46476e-06 -9.4567e-05
0.00169883 -9.86142e-06 3.36398e-06
-9.86142e-06 1.96268e-05 1.1458e-08
3.36398e-06 1.1458e-08 -6.7863e-05
0.00183899 -4.53095e-06 -1.10825e-06
-4.53095e-06 0.000160019 1.8385e-07
-1.10825e-06 1.8385e-07 8.3228e-05
0.00111956 -3.5159e-06 -1.39723e-05
-3.5159e-06 -0.0001726 2.79203e-06
-1.39723e-05 2.79203e-06 -0.0003187
0.00136727 -3.07764e-06 -3.79287e-06
-3.07764e-06 -0.000259653 3.02113e-06
-3.79287e-06 3.02113e-06 -0.000316038
0.0021018 1.06402e-05 6.39715e-06
1.06402e-05 0.000166346 2.11427e-06
6.39715e-06 2.11427e-06 7.96671e-05
0.00194383 -1.54222e-05 -2.80986e-06
-1.54222e-05 0.000124108 -1.53351e-07
-2.80986e-06 -1.53351e-07 4.40959e-05
0.00172742 -8.7811e-06 8.16661e-07
-8.7811e-06 1.18339e-05 4.21402e-07
8.16661e-07 4.21402e-07 -7.14671e-05
0.00171748 -1.31069e-05 1.35998e-06
-1.31069e-05 3.83272e-05 -5.16514e-07
1.35998e-06 -5.16514e-07 -5.26951e-05
0.00159998 -2.34797e-05 -2.9378e-06
-2.34797e-05 -1.90868e-05 2.13439e-07
-2.9378e-06 2.13439e-07 -9.48396e-05
0.00177874 -2.06128e-05 -7.28941e-09
-2.06128e-05 0.000105692 4.69046e-08
-7.28941e-09 4.69046e-08 1.46393e-05
0.00173894 -1.3381e-05 -3.74867e-07
-1.3381e-05 0.000100211 -4.60874e-07
-3.74867e-07 -4.60874e-07 -8.97841e-07
0.00170802 -4.69846e-05 -2.21906e-06
-4.69846e-05 8.06715e-05 -1.39891e-07
-2.21906e-06 -1.39891e-07 -1.43095e-05
0.00165786 -4.11751e-05 -1.982e-07
-4.11751e-05 7.75909e-05 1.67035e-07
-1.982e-07 1.67035e-07 -2.64145e-05
0.00166232 -4.26272e-05 -1.43852e-06
-4.26272e-05 0.000101843 -4.56206e-07
-1.43852e-06 -4.56206e-07 -5.1971e-06
0.00175616 -7.86341e-05 6.46307e-07
-7.86341e-05 0.00013836 -2.76593e-07
6.46307e-07 -2.76593e-07 3.57653e-05
0.00161408 -7.88619e-05 2.06481e-07
-7.88619e-05 9.21615e-05 5.10293e-07
2.06481e-07 5.10293e-07 -1.44271e-05
0.00153708 -8.18572e-05 -2.04878e-06
-8.18572e-05 8.93164e-05 2.13852e-07
-2.04878e-06 2.13852e-07 -1.91423e-05
0.00153709 -9.96028e-05 4.89823e-07
-9.96028e-05 9.49323e-05 -8.2699e-07
4.89823e-07 -8.2699e-07 -1.23986e-05
0.00146094 -9.83616e-05 1.44265e-07
-9.83616e-05 9.15018e-05 9.25323e-08
1.44265e-07 9.25323e-08 -1.8942e-05
0.00133349 -9.11261e-05 -3.95162e-06
-9.11261e-05 7.22007e-05 1.35471e-06
-3.95162e-06 1.35471e-06 -3.36614e-05
0.00116034 -9.64456e-05 1.63148e-06
-9.64456e-05 -2.18535e-05 -6.04495e-07
1.63148e-06 -6.04495e-07 -0.000131184
0.00125082 -9.54809e-05 2.54755e-08
-9.54809e-05 7.02192e-05 -1.09289e-07
2.54755e-08 -1.09289e-07 -3.38223e-05
0.00103132 -7.61428e-05 -6.8617e-06
-7.61428e-05 1.73532e-05 2.78115e-06
-6.8617e-06 2.78115e-06 -6.88689e-05
0.000864235 -8.88473e-05 3.49389e-06
-8.88473e-05 -9.34478e-05 -8.05856e-07
3.49389e-06 -8.05856e-07 -0.000197797
0.000988915 -8.01719e-05 2.42722e-07
-8.01719e-05 2.9546e-05 -3.03708e-08
2.42722e-07 -3.03708e-08 -5.58851e-05
0.00176089 -1.24611e-05 -8.00949e-06
-1.24611e-05 0.000548957 4.16592e-06
-8.00949e-06 4.16592e-06 0.000501015
0.00108314 3.2719e-05 -5.81645e-05
3.2719e-05 0.000223619 7.25317e-06
-5.81645e-05 7.25317e-06 0.000204242
0.00127086 -2.56798e-05 -1.06512e-06
-2.56798e-05 0.000286192 -8.89793e-08
-1.06512e-06 -8.89793e-08 0.000238386
0.000976764 -8.23563e-05 4.82387e-06
-8.23563e-05 6.04696e-05 -1.94819e-06
4.82387e-06 -1.94819e-06 -2.46714e-05
0.0033129 0.000106068 3.27358e-06
0.000106068 0.00141667 2.84983e-07
3.27358e-06 2.84983e-07 0.00141007
0.000765833 -2.90818e-05 7.87463e-06
-2.90818e-05 1.25279e-05 -5.39645e-06
7.87463e-06 -5.39645e-06 -3.21629e-05
0.00310571 9.24214e-05 5.63247e-05
9.24214e-05 0.00129275 -3.11836e-06
5.63247e-05 -3.11836e-06 0.0012911
0.0013497 0.000117837 -1.55533e-07
0.000117837 3.44891e-06 2.29004e-07
-1.55533e-07 2.29004e-07 -0.000106547
0.000801567 0.000108564 2.31976e-06
0.000108564 -0.00014222 1.35314e-06
2.31976e-06 1.35314e-06 -0.000261776
0.000819958 0.000108493 -2.03886e-07
0.000108493 -7.23554e-05 -1.05882e-07
-2.03886e-07 -1.05882e-07 -0.000192298
0.00114473 0.000109087 -2.16322e-06
0.000109087 0.0001258 -6.47498e-07
-2.16322e-06 -6.47498e-07 2.15509e-05
0.000522403 8.71583e-05 4.69573e-08
8.71583e-05 -0.000165699 7.85282e-07
4.69573e-08 7.85282e-07 -0.00027662
0.00102729 9.75175e-05 -3.37144e-07
9.75175e-05 0.000102363 -8.51618e-08
-3.37144e-07 -8.51618e-08 4.1897e-06
0.000956904 5.6831e-05 -3.38777e-06
5.6831e-05 9.40009e-05 -1.15537e-06
-3.38777e-06 -1.15537e-06 1.51625e-05
0.000895028 8.22739e-05 9.18054e-07
8.22739e-05 5.91953e-05 1.4703e-07
9.18054e-07 1.4703e-07 -3.13471e-05
0.000822237 2.91172e-05 -1.32335e-07
2.91172e-05 3.61848e-05 1.80252e-07
-1.32335e-07 1.80252e-07 -3.84225e-05
0.000705463 -2.51227e-05 -5.1387e-06
-2.51227e-05 -7.20925e-06 -4.41234e-06
-5.1387e-06 -4.41234e-06 -4.44732e-05
0.000804034 -1.56074e-05 1.22266e-06
-1.56074e-05 3.18317e-05 1.7131e-06
1.22266e-06 1.7131e-06 -3.67833e-05
0.000621475 -6.3612e-05 -9.57859e-08
-6.3612e-05 -4.74177e-05 -1.5313e-07
-9.57859e-08 -1.5313e-07 -7.99082e-05
0.00276105 -8.53327e-05 -4.4905e-05
-8.53327e-05 0.00110123 -2.86446e-06
-4.4905e-05 -2.86446e-06 0.00110417
0.000617751 -5.73059e-05 2.09869e-06
-5.73059e-05 -5.65825e-05 4.1215e-06
2.09869e-06 4.1215e-06 -8.09102e-05
0.00253841 -7.69542e-05 -5.52067e-07
-7.69542e-05 0.000976794 1.01141e-07
-5.52067e-07 1.01141e-07 0.000983382
0.00234757 -6.83069e-05 3.19723e-05
-6.83069e-05 0.000868414 2.907e-06
3.19723e-05 2.907e-06 0.000878085
0.00177303 2.46084e-05 5.44666e-06
2.46084e-05 6.3641e-05 8.12424e-07
5.44666e-06 8.12424e-07 -3.30155e-05
0.00202422 -1.13015e-05 -1.72332e-06
-1.13015e-05 0.000192692 -7.7142e-07
-1.72332e-06 -7.7142e-07 0.000120432
0.00223324 -9.06039e-05 -3.76579e-06
-9.06039e-05 0.000323979 2.73945e-07
-3.76579e-06 2.73945e-07 0.000254032
0.00168153 0.000126049 -5.63114e-06
0.000126049 9.9491e-05 -2.39777e-06
-5.63114e-06 -2.39777e-06 -1.75897e-05
0.00173142 0.000145841 -5.72015e-07
0.000145841 0.00028885 5.76695e-07
-5.72015e-07 5.76695e-07 0.000179787
0.000735893 0.000103766 -8.39863e-06
0.000103766 -5.33421e-05 1.02437e-06
-8.39863e-06 1.02437e-06 -0.000143873
0.00148117 0.000136576 2.31967e-06
0.000136576 0.000109481 1.43988e-06
2.31967e-06 1.43988e-06 -8.49706e-06
0.00152305 0.00014206 -2.76947e-06
0.00014206 0.000237101 6.24732e-07
-2.76947e-06 6.24732e-07 0.000115527
0.0020689 8.16229e-05 -1.44739e-06
8.16229e-05 0.000223932 1.19233e-06
-1.44739e-06 1.19233e-06 0.000105148
0.00166515 0.00013852 -2.71999e-06
0.00013852 6.41331e-05 -1.68865e-06
-2.71999e-06 -1.68865e-06 -6.25136e-05
0.0017612 0.000166281 2.21135e-06
0.000166281 0.000246605 5.46013e-06
2.21135e-06 5.46013e-06 0.000132176
0.00177418 8.18216e-05 -5.42565e-07
8.18216e-05 7.24543e-05 -3.5346e-08
-5.42565e-07 -3.5346e-08 -4.19367e-05
0.00211379 0.000173897 1.53133e-06
0.000173897 0.000249163 -2.02499e-07
1.53133e-06 -2.02499e-07 0.000114613
0.00176633 6.73888e-05 -1.31744e-05
6.73888e-05 2.85656e-05 -5.6244e-06
-1.31744e-05 -5.6244e-06 -6.46937e-05
0.00190563 -3.91836e-06 1.07099e-06
-3.91836e-06 0.000127647 1.33151e-07
1.07099e-06 1.33151e-07 3.37595e-05
0.00174478 -5.97427e-06 -3.48569e-07
-5.97427e-06 4.22282e-05 -4.54281e-07
-3.48569e-07 -4.54281e-07 -4.42787e-05
0.00199966 7.40805e-06 -7.71174e-06
7.40805e-06 0.000237139 2.53634e-06
-7.71174e-06 2.53634e-06 0.000160097
0.00202388 -1.37041e-05 -4.26853e-06
-1.37041e-05 0.000165452 1.0067e-06
-4.26853e-06 1.0067e-06 8.64636e-05
0.00190768 -1.12977e-05 2.35608e-06
-1.12977e-05 0.000112601 1.39981e-06
2.35608e-06 1.39981e-06 3.09318e-05
0.00179547 -1.21783e-05 -4.02981e-07
-1.21783e-05 7.70745e-05 -2.86607e-07
-4.02981e-07 -2.86607e-07 -1.24161e-05
0.00180519 -2.17851e-06 4.26522e-07
-2.17851e-06 0.000105076 -4.74879e-07
4.26522e-07 -4.74879e-07 1.84742e-06
0.00173591 -1.90695e-05 1.81552e-07
-1.90695e-05 8.56878e-05 5.75456e-07
1.81552e-07 5.75456e-07 -5.6037e-06
0.00166018 -1.49374e-05 -5.56544e-07
-1.49374e-05 6.3644e-05 4.30456e-08
-5.56544e-07 4.30456e-08 -3.76364e-05
0.00173389 -1.52915e-05 -1.31363e-06
-1.52915e-05 0.000124517 8.54775e-07
-1.31363e-06 8.54775e-07 1.36775e-05
0.00170267 -4.18535e-05 4.9618e-07
-4.18535e-05 0.000102313 5.73121e-07
4.9618e-07 5.73121e-07 -2.11029e-06
0.00164399 -4.2601e-05 -8.73851e-08
-4.2601e-05 9.28544e-05 -3.77941e-07
-8.73851e-08 -3.77941e-07 -1.41348e-05
0.00156019 -5.04263e-05 -2.27597e-06
-5.04263e-05 8.21611e-05 -4.66949e-07
-2.27597e-06 -4.66949e-07 -2.50487e-05
0.0016344 -7.82388e-05 1.57725e-06
-7.82388e-05 0.000101763 4.29271e-07
1.57725e-06 4.29271e-07 -4.91013e-06
0.00154012 -8.13178e-05 4.77099e-08
-8.13178e-05 9.06919e-05 4.19545e-07
4.77099e-08 4.19545e-07 -1.77389e-05
0.0014053 -7.79921e-05 -4.19405e-06
-7.79921e-05 7.21493e-05 7.89385e-07
-4.19405e-06 7.89385e-07 -3.28947e-05
0.00145835 -9.76309e-05 2.05884e-06
-9.76309e-05 8.98553e-05 -5.7206e-07
2.05884e-06 -5.7206e-07 -2.05001e-05
0.00132965 -9.03003e-05 1.18292e-07
-9.03003e-05 6.99815e-05 1.36369e-07
1.18292e-07 1.36369e-07 -3.57577e-05
0.00109423 -7.22448e-05 -7.63149e-06
-7.22448e-05 1.74922e-05 2.97308e-06
-7.63149e-06 2.97308e-06 -7.11764e-05
0.00124159 -9.44792e-05 3.70574e-06
-9.44792e-05 6.54786e-05 -1.24014e-06
3.70574e-06 -1.24014e-06 -3.84207e-05
0.00104215 -7.61764e-05 3.04489e-07
-7.61764e-05 2.23212e-05 -1.04566e-07
3.04489e-07 -1.04566e-07 -6.39863e-05
0.00187875 -1.07557e-05 -7.61072e-06
-1.07557e-05 0.000598287 4.29414e-06
-7.61072e-06 4.29414e-06 0.000549655
0.00100036 -8.1005e-05 5.80478e-06
-8.1005e-05 3.57626e-05 -2.29729e-06
5.80478e-06 -2.29729e-06 -4.98992e-05
0.00196334 -3.3665e-05 1.8213e-05
-3.3665e-05 0.000648445 -1.12981e-06
1.8213e-05 -1.12981e-06 0.000602457
0.00124668 -8.9588e-06 -7.68868e-05
-8.9588e-06 0.000319227 8.52728e-06
-7.68868e-05 8.52728e-06 0.000299574
0.00230685 5.06559e-05 -5.92111e-05
5.06559e-05 0.000886599 1.42808e-06
-5.92111e-05 1.42808e-06 0.000873295
0.00201765 -3.98644e-05 3.93419e-05
-3.98644e-05 0.000678401 -4.73383e-06
3.93419e-05 -4.73383e-06 0.000637046
0.00337191 8.47631e-05 6.94392e-05
8.47631e-05 0.00144871 -3.65118e-06
6.94392e-05 -3.65118e-06 0.00144371
0.00168055 0.000111421 -4.03477e-06
0.000111421 9.99094e-05 -3.62333e-06
-4.03477e-06 -3.62333e-06 -1.29927e-05
0.001592 0.000128858 4.34605e-06
0.000128858 0.000203854 3.66072e-07
4.34605e-06 3.66072e-07 9.0875e-05
0.00132628 0.000118669 1.45326e-06
0.000118669 8.92031e-07 1.08661e-06
1.45326e-06 1.08661e-06 -0.000100969
0.00116664 0.000113689 -2.42574e-06
0.000113689 9.05177e-05 -1.07857e-06
-2.42574e-06 -1.07857e-06 -1.89008e-05
0.00116405 0.000125129 -4.83979e-07
0.000125129 4.31383e-05 2.20824e-07
-4.83979e-07 2.20824e-07 -7.77437e-05
0.00101772 0.000118575 6.24537e-07
0.000118575 2.38376e-05 6.30349e-07
6.24537e-07 6.30349e-07 -9.77503e-05
0.00109447 0.000106862 -2.27776e-07
0.000106862 0.000102163 -1.14327e-07
-2.27776e-07 -1.14327e-07 -2.20725e-06
0.000987105 7.78948e-05 -3.8065e-06
7.78948e-05 8.63691e-05 -1.52036e-06
-3.8065e-06 -1.52036e-06 3.57167e-06
0.000922173 9.13343e-05 1.00974e-06
9.13343e-05 4.90696e-05 2.6107e-07
1.00974e-06 2.6107e-07 -4.83798e-05
0.000855978 5.35035e-05 -2.74989e-07
5.35035e-05 4.04594e-05 9.4933e-09
-2.74989e-07 9.4933e-09 -3.72476e-05
0.000749062 7.27725e-06 -6.52347e-06
7.27725e-06 1.21857e-05 -4.55641e-06
-6.52347e-06 -4.55641e-06 -3.04355e-05
0.000728917 2.34997e-05 1.67067e-06
2.34997e-05 -1.22429e-05 1.2699e-06
1.67067e-06 1.2699e-06 -8.63516e-05
0.0006367 -3.65805e-05 -3.08729e-08
-3.65805e-05 -4.18989e-05 -1.28828e-07
-3.08729e-08 -1.28828e-07 -7.88491e-05
0.00294723 -9.40171e-05 -5.11833e-05
-9.40171e-05 0.00121116 -2.76437e-06
-5.11833e-05 -2.76437e-06 0.00120978
0.000564792 -6.57058e-05 9.15969e-07
-6.57058e-05 -7.68957e-05 4.70888e-06
9.15969e-07 4.70888e-06 -0.000109521
0.00273103 -8.63595e-05 -8.29609e-07
-8.63595e-05 0.00108491 1.40368e-07
-8.29609e-07 1.40368e-07 0.00108815
0.00249846 -7.67849e-05 3.54313e-05
-7.67849e-05 0.000955329 2.69909e-06
3.54313e-05 2.69909e-06 0.000962249
0.00186463 2.79133e-05 -1.40829e-06
2.79133e-05 0.000101788 8.28699e-07
-1.40829e-06 8.28699e-07 -1.80699e-06
0.00172429 2.42889e-05 4.65355e-07
2.42889e-05 3.91994e-05 -1.93296e-07
4.65355e-07 -1.93296e-07 -5.74778e-05
0.00244258 -1.48454e-05 -2.26832e-05
-1.48454e-05 0.000445921 -2.19729e-06
-2.26832e-05 -2.19729e-06 0.000376027
0.00183713 7.5528e-05 -7.32871e-07
7.5528e-05 0.000128385 4.6449e-07
-7.32871e-07 4.6449e-07 1.24386e-05
0.00176662 0.000128259 4.38093e-08
0.000128259 0.000149188 -1.08393e-06
4.38093e-08 -1.08393e-06 3.17661e-05
0.00147002 0.000136001 -3.4312e-06
0.000136001 0.00017512 2.17067e-06
-3.4312e-06 2.17067e-06 7.00205e-05
0.00208449 0.00015744 1.53481e-06
0.00015744 0.000417064 1.10103e-07
1.53481e-06 1.10103e-07 0.000300802
0.00195808 8.01651e-05 -4.01935e-07
8.01651e-05 0.000164892 -1.28069e-07
-4.01935e-07 -1.28069e-07 4.61567e-05
0.00163237 0.000140145 1.0797e-06
0.000140145 4.67813e-05 6.72872e-07
1.0797e-06 6.72872e-07 -8.30553e-05
0.00172647 8.29915e-05 -2.77404e-06
8.29915e-05 4.71799e-05 -1.87542e-06
-2.77404e-06 -1.87542e-06 -6.7659e-05
0.00184037 5.28423e-06 8.60115e-07
5.28423e-06 9.86447e-05 -4.76992e-08
8.60115e-07 -4.76992e-08 -3.38719e-06
0.00185141 -2.57797e-06 -4.23899e-07
-2.57797e-06 9.88735e-05 -5.71305e-08
-4.23899e-07 -5.71305e-08 4.10341e-06
0.00178746 -1.92746e-06 -4.25318e-06
-1.92746e-06 6.46778e-05 6.22995e-07
-4.25318e-06 6.22995e-07 -2.09211e-05
0.00178985 8.01118e-06 -4.75317e-07
8.01118e-06 9.08085e-05 -3.22074e-07
-4.75317e-07 -3.22074e-07 -1.67352e-05
0.00184637 -1.06553e-05 -1.71705e-06
-1.06553e-05 0.000101759 6.374e-07
-1.71705e-06 6.374e-07 1.37485e-05
0.00178895 -1.71686e-06 -2.15023e-07
-1.71686e-06 9.72818e-05 9.16296e-08
-2.15023e-07 9.16296e-08 -5.68994e-06
0.00181302 1.82509e-06 1.60324e-07
1.82509e-06 0.000141842 -6.96051e-07
1.60324e-07 -6.96051e-07 2.98161e-05
0.00159495 -1.62337e-05 1.35922e-08
-1.62337e-05 3.42736e-05 7.39391e-07
1.35922e-08 7.39391e-07 -6.72147e-05
0.00167173 -1.51072e-05 -2.55596e-07
-1.51072e-05 9.32769e-05 5.41144e-07
-2.55596e-07 5.41144e-07 -1.75517e-05
0.0015565 -1.93451e-05 -2.88361e-06
-1.93451e-05 6.73618e-05 1.93095e-06
-2.88361e-06 1.93095e-06 -4.52945e-05
0.00162425 -4.20792e-05 1.26254e-06
-4.20792e-05 8.32082e-05 -2.66785e-07
1.26254e-06 -2.66785e-07 -2.37263e-05
0.00157306 -4.87906e-05 -1.3162e-07
-4.87906e-05 8.87345e-05 -4.88798e-07
-1.3162e-07 -4.88798e-07 -1.84666e-05
0.00142746 -5.52897e-05 -4.25277e-06
-5.52897e-05 6.44657e-05 1.44871e-07
-4.25277e-06 1.44871e-07 -3.94686e-05
0.00154325 -8.07049e-05 2.57627e-06
-8.07049e-05 9.21031e-05 5.66128e-07
2.57627e-06 5.66128e-07 -1.62921e-05
0.00140017 -7.71956e-05 3.44147e-08
-7.71956e-05 6.94743e-05 3.56174e-07
3.44147e-08 3.56174e-07 -3.54578e-05
0.00115373 -6.36447e-05 -8.26466e-06
-6.36447e-05 2.03613e-05 2.34283e-06
-8.26466e-06 2.34283e-06 -6.92088e-05
0.00132519 -8.94143e-05 4.15321e-06
-8.94143e-05 6.74363e-05 -1.07518e-06
4.15321e-06 -1.07518e-06 -3.81754e-05
0.00109876 -7.12457e-05 3.85778e-07
-7.12457e-05 1.83951e-05 1.08509e-07
3.85778e-07 1.08509e-07 -7.01347e-05
0.00201764 -2.82045e-05 -1.27347e-05
-2.82045e-05 0.000648637 3.57616e-06
-1.27347e-05 3.57616e-06 0.000603479
0.0010453 -7.5965e-05 6.77783e-06
-7.5965e-05 2.33695e-05 -2.87243e-06
6.77783e-06 -2.87243e-06 -6.30209e-05
0.00206965 -4.28942e-05 1.83004e-05
-4.28942e-05 0.000689802 -1.33834e-06
1.83004e-05 -1.33834e-06 0.000644758
0.00132939 -1.35691e-05 -8.03146e-05
-1.35691e-05 0.00036488 8.29065e-06
-8.03146e-05 8.29065e-06 0.000343625
0.00214547 -5.87532e-05 4.63829e-05
-5.87532e-05 0.000735565 -7.03761e-06
4.63829e-05 -7.03761e-06 0.000692261
0.00125476 3.47832e-05 -3.65806e-05
3.47832e-05 0.000334114 2.62945e-06
-3.65806e-05 2.62945e-06 0.000308083
0.00344965 0.000153247 1.0488e-05
0.000153247 0.00151668 -1.79678e-06
1.0488e-05 -1.79678e-06 0.00149756
0.00189243 7.97664e-05 -2.06071e-06
7.97664e-05 0.000196936 -1.15911e-06
-2.06071e-06 -1.15911e-06 8.07877e-05
0.0015717 0.000106648 -7.09776e-07
0.000106648 9.68594e-05 -3.26198e-06
-7.09776e-07 -3.26198e-06 -1.50465e-05
0.0017154 0.000113817 -3.00615e-06
0.000113817 0.000130363 1.28655e-06
-3.00615e-06 1.28655e-06 1.86374e-05
0.00163767 0.000125375 -1.73887e-06
0.000125375 0.000278915 -3.96464e-07
-1.73887e-06 -3.96464e-07 0.000170073
0.0014082 0.000125057 5.51915e-07
0.000125057 0.000104652 -1.58277e-06
5.51915e-07 -1.58277e-06 -7.49456e-06
0.0013397 0.000120655 2.55523e-06
0.000120655 1.68611e-05 1.90503e-06
2.55523e-06 1.90503e-06 -7.69264e-05
0.00101278 8.84002e-05 -5.01372e-06
8.84002e-05 6.18584e-05 -2.467e-06
-5.01372e-06 -2.467e-06 -2.68932e-05
0.00117392 0.000114566 -1.50186e-07
0.000114566 9.51075e-05 -8.38582e-08
-1.50186e-07 -8.38582e-08 -1.47013e-05
0.00153959 0.000142012 2.19576e-06
0.000142012 0.000235354 6.85452e-07
2.19576e-06 6.85452e-07 0.000113108
0.00103526 0.00010424 1.67695e-06
0.00010424 7.39017e-05 4.05461e-07
1.67695e-06 4.05461e-07 -3.05578e-05
0.000913752 7.3977e-05 -2.63127e-07
7.3977e-05 4.84501e-05 -1.96938e-07
-2.63127e-07 -1.96938e-07 -3.38834e-05
0.000784039 4.5128e-05 -8.46443e-06
4.5128e-05 2.91081e-05 -5.29977e-06
-8.46443e-06 -5.29977e-06 -1.97394e-05
0.000760548 5.01167e-05 2.42274e-06
5.01167e-05 -1.0148e-05 9.4899e-07
2.42274e-06 9.4899e-07 -8.69087e-05
0.000679639 2.66633e-06 9.45443e-08
2.66633e-06 -1.89118e-05 -3.03513e-08
9.45443e-08 -3.03513e-08 -6.23092e-05
0.00316873 -8.89037e-05 -6.36044e-05
-8.89037e-05 0.00134476 -3.00767e-06
-6.36044e-05 -3.00767e-06 0.00133989
0.000578921 -5.88543e-05 1.03636e-06
-5.88543e-05 -6.6375e-05 4.96807e-06
1.03636e-06 4.96807e-06 -0.000105817
0.00292448 -9.70445e-05 -1.2304e-06
-9.70445e-05 0.00119733 2.04934e-07
-1.2304e-06 2.04934e-07 0.00119616
0.00270823 -8.6997e-05 3.95347e-05
-8.6997e-05 0.00107225 2.59588e-06
3.95347e-05 2.59588e-06 0.00107587
0.0017806 2.9793e-05 -2.04581e-07
2.9793e-05 7.4852e-05 4.93825e-07
-2.04581e-07 4.93825e-07 -3.10117e-05
0.00180226 3.01401e-05 -7.6704e-07
3.01401e-05 6.72562e-05 1.77146e-07
-7.6704e-07 1.77146e-07 -3.68353e-05
0.00173707 2.39147e-05 -4.70647e-06
2.39147e-05 4.37252e-05 -1.2585e-06
-4.70647e-06 -1.2585e-06 -5.28613e-05
0.00183145 7.49824e-05 9.45883e-07
7.49824e-05 0.000122067 -1.61363e-07
9.45883e-07 -1.61363e-07 8.07818e-06
0.00184594 0.000130641 1.00357e-06
0.000130641 0.000196421 -3.35001e-08
1.00357e-06 -3.35001e-08 7.85629e-05
0.001833 7.82517e-05 1.31353e-06
7.82517e-05 9.95547e-05 -1.37512e-06
1.31353e-06 -1.37512e-06 -1.90729e-05
0.00182954 9.79724e-06 -8.68984e-07
9.79724e-06 0.000103016 3.07128e-08
-8.68984e-07 3.07128e-08 -3.99844e-06
0.00187084 7.36114e-06 2.58217e-07
7.36114e-06 0.000113294 -1.56549e-07
2.58217e-07 -1.56549e-07 1.08183e-05
0.00182555 -3.7592e-07 -5.18458e-07
-3.7592e-07 8.42541e-05 -1.35009e-07
-5.18458e-07 -1.35009e-07 -1.13602e-05
0.00179004 -8.14893e-07 -7.00141e-07
-8.14893e-07 9.20387e-05 1.11156e-07
-7.00141e-07 1.11156e-07 -1.47429e-05
0.00182746 4.5596e-06 3.53574e-07
4.5596e-06 0.000135584 -6.14042e-07
3.53574e-07 -6.14042e-07 2.33123e-05
0.00176416 -1.32327e-06 -4.49912e-07
-1.32327e-06 8.51507e-05 4.92091e-07
-4.49912e-07 4.92091e-07 -1.75549e-05
0.00175379 2.0399e-06 2.19973e-07
2.0399e-06 0.000111285 -1.7833e-07
2.19973e-07 -1.7833e-07 -1.65632e-06
0.00159935 -1.31076e-06 -6.79563e-07
-1.31076e-06 6.4195e-05 -3.63491e-07
-6.79563e-07 -3.63491e-07 -5.30477e-05
0.00161742 -1.54795e-05 7.15405e-07
-1.54795e-05 6.60088e-05 2.28664e-07
7.15405e-07 2.28664e-07 -4.48001e-05
0.00160445 -2.00032e-05 -7.35145e-07
-2.00032e-05 9.22491e-05 9.25196e-07
-7.35145e-07 9.25196e-07 -2.03642e-05
0.00147112 -2.60079e-05 -5.02411e-06
-2.60079e-05 7.38291e-05 1.80322e-06
-5.02411e-06 1.80322e-06 -3.46253e-05
0.00158749 -4.86765e-05 2.01013e-06
-4.86765e-05 9.60436e-05 -5.22117e-07
2.01013e-06 -5.22117e-07 -1.11806e-05
0.00144291 -5.43481e-05 -4.54237e-09
-5.43481e-05 7.18495e-05 -3.37158e-07
-4.54237e-09 -3.37158e-07 -3.20362e-05
0.00115743 -4.67291e-05 -8.38844e-06
-4.67291e-05 6.73912e-06 1.4066e-06
-8.38844e-06 1.4066e-06 -8.19516e-05
0.00139316 -7.62991e-05 4.34707e-06
-7.62991e-05 6.58267e-05 -8.56747e-08
4.34707e-06 -8.56747e-08 -3.89899e-05
0.0011488 -6.17667e-05 2.17036e-07
-6.17667e-05 1.66118e-05 3.34156e-07
2.17036e-07 3.34156e-07 -7.26573e-05
0.00215644 -3.57696e-05 -1.66917e-05
-3.57696e-05 0.000701285 2.6205e-06
-1.66917e-05 2.6205e-06 0.000657831
0.00109978 -7.03123e-05 7.76681e-06
-7.03123e-05 1.74405e-05 -2.73165e-06
7.76681e-06 -2.73165e-06 -7.09546e-05
0.00217049 -5.14407e-05 1.74712e-05
-5.14407e-05 0.000723523 -1.30019e-06
1.74712e-05 -1.30019e-06 0.000680121
0.00144794 -1.41582e-05 -8.4114e-05
-1.41582e-05 0.00041895 7.35652e-06
-8.4114e-05 7.35652e-06 0.000397423
0.00224635 -6.51313e-05 5.01013e-05
-6.51313e-05 0.000775933 -6.78951e-06
5.01013e-05 -6.78951e-06 0.000732939
0.00132303 3.41146e-05 -4.07106e-05
3.41146e-05 0.000371859 2.38926e-06
-4.07106e-05 2.38926e-06 0.000344405
0.00130742 8.61402e-05 2.57922e-06
8.61402e-05 0.000375169 -3.4434e-06
2.57922e-06 -3.4434e-06 0.000341414
0.00168728 3.25121e-05 -9.24437e-07
3.25121e-05 6.50999e-05 4.04594e-07
-9.24437e-07 4.04594e-07 -4.60094e-05
0.00162347 7.91093e-05 -3.11508e-06
7.91093e-05 9.19073e-05 -1.13538e-06
-3.11508e-06 -1.13538e-06 -2.0959e-05
0.00174935 7.78946e-05 -1.77455e-06
7.78946e-05 0.000122301 -7.02477e-07
-1.77455e-06 -7.02477e-07 5.83588e-06
0.00157948 0.000108117 -3.19626e-06
0.000108117 0.000170671 -1.16305e-06
-3.19626e-06 -1.16305e-06 6.19889e-05
0.00173003 0.000111684 1.37118e-06
0.000111684 0.000181819 5.6955e-07
1.37118e-06 5.6955e-07 6.97232e-05
0.00173193 0.000115642 4.36466e-06
0.000115642 0.000151994 2.64386e-06
4.36466e-06 2.64386e-06 4.14509e-05
0.000990829 8.80587e-05 -6.35408e-06
8.80587e-05 -9.64335e-09 -2.66547e-06
-6.35408e-06 -2.66547e-06 -9.16414e-05
0.00127251 0.00011412 1.86926e-06
0.00011412 8.41976e-05 9.38754e-07
1.86926e-06 9.38754e-07 -2.58327e-05
0.0012232 0.000121272 8.50844e-07
0.000121272 4.57937e-06 1.41488e-06
8.50844e-07 1.41488e-06 -0.000106707
0.000778684 7.40989e-05 -1.18445e-05
7.40989e-05 1.81003e-05 -6.13564e-06
-1.18445e-05 -6.13564e-06 -3.54523e-05
0.000976666 8.57396e-05 -4.22537e-07
8.57396e-05 4.33874e-05 -2.0167e-07
-4.22537e-07 -2.0167e-07 -4.49373e-05
0.00118435 0.000115566 2.72435e-06
0.000115566 0.00010139 1.11501e-06
2.72435e-06 1.11501e-06 -8.8262e-06
0.000858138 7.03475e-05 3.35346e-06
7.03475e-05 2.00116e-05 1.26781e-06
3.35346e-06 1.26781e-06 -6.19097e-05
0.000688328 3.9207e-05 -1.93531e-10
3.9207e-05 -1.52681e-05 1.20619e-08
-1.93531e-10 1.20619e-08 -6.42078e-05
0.00351364 -7.20632e-05 -7.43456e-05
-7.20632e-05 0.00154362 -4.47935e-06
-7.43456e-05 -4.47935e-06 0.0015347
0.000626887 -3.86754e-06 4.4249e-06
-3.86754e-06 -4.31952e-05 4.84311e-06
4.4249e-06 4.84311e-06 -8.59512e-05
0.00313118 -0.000107846 -2.70392e-06
-0.000107846 0.00132332 3.02184e-07
-2.70392e-06 3.02184e-07 0.0013169
0.00291158 -9.80446e-05 4.4121e-05
-9.80446e-05 0.0011882 2.56624e-06
4.4121e-05 2.56624e-06 0.00118762
0.00184714 1.60011e-05 -1.90898e-07
1.60011e-05 0.000123964 -2.63353e-07
-1.90898e-07 -2.63353e-07 1.60736e-05
0.00180562 2.93483e-05 -2.80083e-07
2.93483e-05 8.74469e-05 1.35121e-07
-2.80083e-07 1.35121e-07 -1.84667e-05
0.0017413 3.19689e-05 1.54348e-06
3.19689e-05 3.34403e-05 -7.63266e-07
1.54348e-06 -7.63266e-07 -7.11522e-05
0.00184024 7.44918e-05 1.96678e-06
7.44918e-05 0.000122768 -2.81551e-07
1.96678e-06 -2.81551e-07 1.07573e-05
0.00180024 -5.9123e-07 -3.97125e-07
-5.9123e-07 0.000112123 -3.36203e-07
-3.97125e-07 -3.36203e-07 3.44919e-07
0.00186232 7.5201e-06 -1.91882e-07
7.5201e-06 0.000119154 -4.17086e-08
-1.91882e-07 -4.17086e-08 1.21503e-05
0.00189251 8.92682e-06 7.05853e-08
8.92682e-06 0.000123448 1.93502e-07
7.05853e-08 1.93502e-07 2.0506e-05
0.00180403 -5.81188e-06 -1.11671e-06
-5.81188e-06 0.000100736 2.21237e-07
-1.11671e-06 2.21237e-07 -5.35206e-06
0.00179403 9.74382e-06 -1.94451e-07
9.74382e-06 0.000117078 -3.08963e-08
-1.94451e-07 -3.08963e-08 5.22929e-06
0.00183468 8.84412e-06 -8.57235e-07
8.84412e-06 0.000173121 -4.84279e-07
-8.57235e-07 -4.84279e-07 5.77616e-05
0.00169033 2.25687e-06 5.5714e-07
2.25687e-06 7.84911e-05 2.476e-07
5.5714e-07 2.476e-07 -3.53736e-05
0.00171734 -3.06737e-07 7.74505e-07
-3.06737e-07 0.000127414 -5.11879e-07
7.74505e-07 -5.11879e-07 1.0448e-05
0.00136624 -3.11287e-06 -4.20038e-06
-3.11287e-06 -9.50952e-06 8.15039e-07
-4.20038e-06 8.15039e-07 -0.000124081
0.0016458 -1.91184e-05 9.61971e-07
-1.91184e-05 0.000113888 -1.28783e-08
9.61971e-07 -1.28783e-08 1.33705e-06
0.00147105 -2.36659e-05 -5.50754e-07
-2.36659e-05 7.32959e-05 3.96982e-07
-5.50754e-07 3.96982e-07 -3.51091e-05
0.00116977 -2.51328e-05 -8.26003e-06
-2.51328e-05 4.47586e-07 1.65842e-06
-8.26003e-06 1.65842e-06 -9.06669e-05
0.00145359 -5.12857e-05 4.04558e-06
-5.12857e-05 7.68467e-05 -7.8454e-07
4.04558e-06 -7.8454e-07 -2.69028e-05
0.00117766 -4.67994e-05 -4.76916e-08
-4.67994e-05 1.62278e-05 -8.36383e-09
-4.76916e-08 -8.36383e-09 -7.23555e-05
0.000687851 -2.80426e-05 -1.26242e-05
-2.80426e-05 -9.40336e-05 2.69147e-06
-1.26242e-05 2.69147e-06 -0.000144788
0.00114428 -6.00895e-05 8.34487e-06
-6.00895e-05 1.29908e-05 -1.74302e-06
8.34487e-06 -1.74302e-06 -7.59795e-05
0.00146479 -4.74553e-05 2.16183e-05
-4.74553e-05 0.000328731 -8.44322e-07
2.16183e-05 -8.44322e-07 0.000282621
0.00459162 -5.06637e-06 -0.000100572
-5.06637e-06 0.00208898 3.74947e-06
-0.000100572 3.74947e-06 0.00208379
0.00232316 -5.97551e-05 5.28979e-05
-5.97551e-05 0.00079962 -5.952e-06
5.28979e-05 -5.952e-06 0.000757076
0.00139432 1.61323e-05 -3.85961e-05
1.61323e-05 0.000396853 2.52642e-06
-3.85961e-05 2.52642e-06 0.000372067
0.00135262 6.1583e-05 5.90434e-06
6.1583e-05 0.000393376 -2.99365e-06
5.90434e-06 -2.99365e-06 0.000362819
0.00169604 1.66342e-05 -9.70434e-08
1.66342e-05 7.6023e-05 -2.65951e-07
-9.70434e-08 -2.65951e-07 -3.38256e-05
0.00154025 4.13676e-05 -2.14848e-06
4.13676e-05 3.28752e-05 4.14039e-07
-2.14848e-06 4.14039e-07 -7.88211e-05
0.00182764 3.25043e-05 -4.14456e-07
3.25043e-05 0.000139932 -3.3314e-07
-4.14456e-07 -3.3314e-07 2.92888e-05
0.00117633 7.54453e-05 -4.67587e-06
7.54453e-05 -8.53425e-05 -1.81781e-06
-4.67587e-06 -1.81781e-06 -0.000194516
0.00165121 8.00145e-05 1.50635e-07
8.00145e-05 0.00010746 6.56677e-09
1.50635e-07 6.56677e-09 -5.60307e-06
0.00160993 7.62671e-05 2.94692e-07
7.62671e-05 4.96219e-05 -2.02249e-07
2.94692e-07 -2.02249e-07 -6.71895e-05
0.000650917 6.83959e-05 -9.11756e-06
6.83959e-05 -0.000237262 -3.08901e-06
-9.11756e-06 -3.08901e-06 -0.000331291
0.00161125 0.000110753 9.6525e-07
0.000110753 0.000186585 1.65403e-07
9.6525e-07 1.65403e-07 7.76978e-05
0.00190253 0.000117224 3.3134e-06
0.000117224 0.000274116 1.54828e-06
3.3134e-06 1.54828e-06 0.000161815
0.000726777 8.24318e-05 -1.29991e-05
8.24318e-05 -2.96546e-05 -6.04329e-06
-1.29991e-05 -6.04329e-06 -8.53307e-05
0.000777747 8.05726e-05 -6.08417e-08
8.05726e-05 -0.000115078 1.50876e-07
-6.08417e-08 1.50876e-07 -0.000207821
0.000903973 0.000102786 4.58313e-06
0.000102786 -0.000112323 2.3613e-06
4.58313e-06 2.3613e-06 -0.00022353
0.00401341 -6.99505e-05 -8.10032e-05
-6.99505e-05 0.00181656 -5.70587e-06
-8.10032e-05 -5.70587e-06 0.00180262
0.000667981 6.38949e-05 1.2269e-07
6.38949e-05 -3.51828e-05 4.77301e-08
1.2269e-07 4.77301e-08 -8.86682e-05
0.000939445 8.30862e-05 4.62863e-06
8.30862e-05 2.47971e-05 2.29734e-06
4.62863e-06 2.29734e-06 -6.31679e-05
0.000595707 3.32351e-05 6.77204e-06
3.32351e-05 -5.86907e-05 5.21054e-06
6.77204e-06 5.21054e-06 -0.000107675
0.00339128 -0.000102221 -4.72084e-06
-0.000102221 0.00147848 1.97254e-07
-4.72084e-06 1.97254e-07 0.00146833
0.00306763 -0.000109739 4.78059e-05
-0.000109739 0.00128628 2.52828e-06
4.78059e-05 2.52828e-06 0.00128034
0.00176304 2.89987e-06 -1.10603e-06
2.89987e-06 9.67231e-05 -3.52579e-07
-1.10603e-06 -3.52579e-07 -1.36294e-05
0.00183551 1.55074e-05 -4.39796e-07
1.55074e-05 0.000114993 4.44897e-08
-4.39796e-07 4.44897e-08 7.31791e-06
0.00183332 2.92268e-05 6.49208e-07
2.92268e-05 0.000101908 -2.39769e-07
6.49208e-07 -2.39769e-07 -4.05458e-06
0.00182635 1.00875e-05 -7.24383e-07
1.00875e-05 0.000160967 -2.5909e-07
-7.24383e-07 -2.5909e-07 4.60008e-05
0.00178773 3.13145e-06 -4.46317e-07
3.13145e-06 0.000106365 -2.12765e-08
-4.46317e-07 -2.12765e-08 -5.13536e-06
0.00188738 2.12343e-06 -2.86214e-07
2.12343e-06 0.000131032 2.41344e-07
-2.86214e-07 2.41344e-07 2.40975e-05
0.00175124 1.32084e-05 8.44139e-09
1.32084e-05 9.35042e-05 5.80977e-07
8.44139e-09 5.80977e-07 -1.78564e-05
0.00180262 1.14906e-05 7.99152e-07
1.14906e-05 0.000155627 -1.58834e-07
7.99152e-07 -1.58834e-07 4.02496e-05
0.00179829 5.45105e-06 -3.20064e-06
5.45105e-06 0.000194921 -2.16445e-08
-3.20064e-06 -2.16445e-08 8.26158e-05
0.00184261 7.30825e-07 2.39204e-06
7.30825e-07 0.000194366 -7.66741e-07
2.39204e-06 -7.66741e-07 7.76798e-05
0.00165033 -6.61016e-07 -1.46506e-08
-6.61016e-07 0.000142633 4.55043e-08
-1.46506e-08 4.55043e-08 3.00632e-05
0.000816909 -5.75245e-06 -1.00626e-05
-5.75245e-06 -0.000214671 2.27799e-06
-1.00626e-05 2.27799e-06 -0.000314433
0.00147841 -2.36483e-05 3.43603e-06
-2.36483e-05 7.65386e-05 -9.78937e-07
3.43603e-06 -9.78937e-07 -3.19134e-05
0.00119115 -2.28686e-05 -3.70337e-08
-2.28686e-05 1.05081e-05 -2.39685e-07
-3.70337e-08 -2.39685e-07 -8.0518e-05
0.00070097 -1.63032e-05 -1.25548e-05
-1.63032e-05 -9.47291e-05 2.01815e-06
-1.25548e-05 2.01815e-06 -0.000147583
0.00119158 -4.53854e-05 8.60331e-06
-4.53854e-05 2.23926e-05 -1.57186e-06
8.60331e-06 -1.57186e-06 -6.59937e-05
0.000689645 -2.37067e-05 -9.57486e-08
-2.37067e-05 -9.34772e-05 8.62255e-08
-9.57486e-08 8.62255e-08 -0.000144113
0.00458957 -1.03224e-05 -0.000101668
-1.03224e-05 0.0020849 2.83404e-06
-0.000101668 2.83404e-06 0.00208026
0.000751398 -4.45524e-05 1.43072e-05
-4.45524e-05 -5.40869e-05 -4.5949e-06
1.43072e-05 -4.5949e-06 -0.000105645
0.00302452 7.31545e-06 3.9579e-05
7.31545e-06 0.0012535 5.3752e-07
3.9579e-05 5.3752e-07 0.00123808
0.00134852 1.71868e-05 1.38016e-05
1.71868e-05 0.000376179 -2.35139e-06
1.38016e-05 -2.35139e-06 0.000350005
0.00172957 6.676e-06 -3.18829e-07
6.676e-06 0.000106857 -2.70748e-07
-3.18829e-07 -2.70748e-07 -3.60759e-06
0.00171823 2.16035e-05 -1.13985e-06
2.16035e-05 0.000123311 -5.31224e-07
-1.13985e-06 -5.31224e-07 1.41768e-05
0.00174248 1.56998e-05 4.66345e-08
1.56998e-05 9.92256e-05 -5.92449e-08
4.66345e-08 -5.92449e-08 -1.03584e-05
0.001441 5.05452e-05 -3.84323e-06
5.05452e-05 3.91261e-05 -4.86361e-07
-3.84323e-06 -4.86361e-07 -6.78022e-05
0.00156331 4.10087e-05 3.10047e-07
4.10087e-05 4.31055e-05 3.37758e-07
3.10047e-07 3.37758e-07 -6.84097e-05
0.00196571 3.23706e-05 3.39604e-08
3.23706e-05 0.000213513 -4.78923e-07
3.39604e-08 -4.78923e-07 0.000103341
0.00073514 5.70415e-05 -9.7998e-06
5.70415e-05 -0.000228108 -2.93324e-06
-9.7998e-06 -2.93324e-06 -0.000321534
0.00154798 8.52905e-05 -1.28624e-06
8.52905e-05 0.000113065 -4.82647e-07
-1.28624e-06 -4.82647e-07 5.36525e-06
0.00166566 8.05484e-05 3.2507e-06
8.05484e-05 0.000116193 5.22913e-07
3.2507e-06 5.22913e-07 2.93831e-06
0.000689193 7.22757e-05 -1.34905e-05
7.22757e-05 -7.52971e-05 -5.04543e-06
-1.34905e-05 -5.04543e-06 -0.000129622
0.000691135 7.03633e-05 -2.36967e-06
7.03633e-05 -0.000218338 -6.12237e-07
-2.36967e-06 -6.12237e-07 -0.000313006
0.00164247 0.000113385 5.21878e-06
0.000113385 0.000202181 1.45575e-06
5.21878e-06 1.45575e-06 9.3096e-05
0.004455 -8.11403e-05 -8.36753e-05
-8.11403e-05 0.00204783 -6.10959e-06
-8.36753e-05 -6.10959e-06 0.00203065
0.000660269 7.59359e-05 7.7144e-07
7.59359e-05 -6.2626e-05 2.00191e-07
7.7144e-07 2.00191e-07 -0.000117832
0.000557608 7.27196e-05 6.16732e-06
7.27196e-05 -0.000233687 3.07323e-06
6.16732e-06 3.07323e-06 -0.000327539
0.00377468 -8.99225e-05 -5.10772e-06
-8.99225e-05 0.00169196 3.77827e-07
-5.10772e-06 3.77827e-07 0.00167802
0.000557332 5.63266e-05 8.76009e-06
5.63266e-05 -8.9654e-05 5.84687e-06
8.76009e-06 5.84687e-06 -0.000142726
0.00324626 -0.000120973 5.18768e-05
-0.000120973 0.00140098 2.53065e-06
5.18768e-05 2.53065e-06 0.00138944
0.00180892 8.89169e-06 -8.57324e-07
8.89169e-06 0.000151698 -4.89963e-07
-8.57324e-07 -4.89963e-07 3.79739e-05
0.00179639 3.68478e-06 8.74745e-08
3.68478e-06 0.000117037 1.25286e-07
8.74745e-08 1.25286e-07 6.43658e-06
0.00182148 1.52028e-05 -2.47088e-08
1.52028e-05 0.000104703 9.92425e-08
-2.47088e-08 9.92425e-08 -2.76037e-06
0.00177352 -2.05662e-06 -3.54842e-06
-2.05662e-06 0.000178843 -1.46364e-07
-3.54842e-06 -1.46364e-07 6.77406e-05
0.00182731 9.74977e-06 6.77321e-07
9.74977e-06 0.000162211 -3.35059e-08
6.77321e-07 -3.35059e-08 4.75848e-05
0.00178668 9.48036e-06 1.17223e-06
9.48036e-06 0.000106658 2.40004e-07
1.17223e-06 2.40004e-07 -4.66327e-06
0.00177372 1.29007e-05 1.94734e-06
1.29007e-05 0.000139787 3.82382e-07
1.94734e-06 3.82382e-07 2.44005e-05
0.00178687 5.80379e-06 1.07295e-06
5.80379e-06 0.000188971 -2.38473e-07
1.07295e-06 -2.38473e-07 7.65524e-05
0.000903743 -3.15045e-07 -9.82183e-06
-3.15045e-07 -0.000195131 9.16364e-07
-9.82183e-06 9.16364e-07 -0.000297721
0.00193547 1.61436e-06 5.00571e-06
1.61436e-06 0.00029535 -1.14687e-06
5.00571e-06 -1.14687e-06 0.000184788
0.0010326 -3.64616e-06 -1.98315e-06
-3.64616e-06 -9.83257e-05 6.8691e-07
-1.98315e-06 6.8691e-07 -0.000196197
0.000712521 -6.55165e-06 -1.30253e-05
-6.55165e-06 -0.000105537 1.90133e-06
-1.30253e-05 1.90133e-06 -0.000163218
0.00122352 -2.22531e-05 8.3369e-06
-2.22531e-05 2.60885e-05 -2.23428e-06
8.3369e-06 -2.23428e-06 -6.48951e-05
0.000715106 -7.32187e-06 1.81608e-07
-7.32187e-06 -8.83902e-05 -1.92691e-07
1.81608e-07 -1.92691e-07 -0.00014137
0.00465484 -7.81104e-06 -0.000102039
-7.81104e-06 0.00211668 1.86213e-06
-0.000102039 1.86213e-06 0.00211208
0.000678586 -1.82375e-05 1.20146e-05
-1.82375e-05 -9.95205e-05 -2.40532e-06
1.20146e-05 -2.40532e-06 -0.00014983
0.00460457 1.44263e-06 1.83522e-06
1.44263e-06 0.002092 3.90857e-07
1.83522e-06 3.90857e-07 0.00208759
0.00151292 -1.16571e-05 8.87663e-05
-1.16571e-05 0.000445129 -3.65439e-06
8.87663e-05 -3.65439e-06 0.000424778
0.00194874 1.0866e-05 -7.57655e-07
1.0866e-05 0.000245952 -7.07602e-07
-7.57655e-07 -7.07602e-07 0.000136433
0.00170347 6.38645e-06 5.40157e-07
6.38645e-06 9.1217e-05 4.97562e-07
5.40157e-07 4.97562e-07 -1.87791e-05
0.00147391 2.12675e-05 -3.45936e-06
2.12675e-05 4.57772e-05 -7.90962e-07
-3.45936e-06 -7.90962e-07 -5.99172e-05
0.00165535 2.07269e-05 4.0858e-07
2.07269e-05 9.0443e-05 -4.38878e-07
4.0858e-07 -4.38878e-07 -1.87646e-05
0.00178811 1.47556e-05 1.27405e-06
1.47556e-05 0.000122007 -7.59126e-08
1.27405e-06 -7.59126e-08 1.26939e-05
0.00120832 4.50164e-05 -8.47621e-06
4.50164e-05 7.22836e-06 -1.99499e-06
-8.47621e-06 -1.99499e-06 -8.38448e-05
0.00148707 5.11761e-05 -1.29408e-07
5.11761e-05 6.19673e-05 3.89228e-07
-1.29408e-07 3.89228e-07 -4.49625e-05
0.00158873 4.06749e-05 1.62981e-06
4.06749e-05 5.45747e-05 5.0639e-07
1.62981e-06 5.0639e-07 -5.67647e-05
0.000686746 5.16269e-05 -1.34443e-05
5.16269e-05 -9.62302e-05 -4.08299e-06
-1.34443e-05 -4.08299e-06 -0.000149109
0.000964545 6.35934e-05 -2.59187e-06
6.35934e-05 -0.000105185 -5.66138e-07
-2.59187e-06 -5.66138e-07 -0.000197836
0.00192544 9.52124e-05 4.05023e-06
9.52124e-05 0.000314581 1.00312e-06
4.05023e-06 1.00312e-06 0.000208342
0.00469589 -1.48786e-05 -0.00010066
-1.48786e-05 0.00215004 -4.72607e-06
-0.00010066 -4.72607e-06 0.00214276
0.000654103 6.64965e-05 1.58744e-07
6.64965e-05 -9.23579e-05 2.34117e-07
1.58744e-07 2.34117e-07 -0.000146995
0.000733344 7.25856e-05 5.42881e-06
7.25856e-05 -0.000198433 2.10478e-06
5.42881e-06 2.10478e-06 -0.000293763
0.00422456 -4.80467e-05 3.70683e-06
-4.80467e-05 0.00192056 2.59308e-08
3.70683e-06 2.59308e-08 0.00190887
0.00056237 6.69105e-05 1.09794e-05
6.69105e-05 -0.000110953 6.03468e-06
1.09794e-05 6.03468e-06 -0.000166159
0.00355282 -0.000113691 6.04849e-05
-0.000113691 0.00157678 3.67445e-06
6.04849e-05 3.67445e-06 0.00156213
0.00178748 1.23874e-05 -3.03633e-06
1.23874e-05 0.000189942 -7.35792e-07
-3.03633e-06 -7.35792e-07 7.99757e-05
0.00183387 6.78559e-06 4.28083e-07
6.78559e-06 0.000166738 4.51128e-09
4.28083e-07 4.51128e-09 5.2796e-05
0.00183018 4.06017e-06 1.23235e-06
4.06017e-06 0.000137821 6.73412e-07
1.23235e-06 6.73412e-07 2.6976e-05
0.000915562 -1.21201e-05 -1.03083e-05
-1.21201e-05 -0.000191274 -2.27323e-07
-1.03083e-05 -2.27323e-07 -0.000292995
0.0017889 5.21444e-06 1.10176e-06
5.21444e-06 0.000187038 2.18428e-08
1.10176e-06 2.18428e-08 7.59234e-05
0.00182066 9.6139e-06 2.4145e-06
9.6139e-06 0.000159658 2.84412e-08
2.4145e-06 2.84412e-08 4.53921e-05
0.00177947 5.89326e-06 5.18485e-06
5.89326e-06 0.000185173 6.38532e-08
5.18485e-06 6.38532e-08 7.26295e-05
0.000901069 -8.59474e-07 -1.51684e-06
-8.59474e-07 -0.000195391 3.04885e-07
-1.51684e-06 3.04885e-07 -0.000297877
0.000770068 1.15846e-06 -1.38261e-05
1.15846e-06 -9.27156e-05 7.6357e-07
-1.38261e-05 7.6357e-07 -0.000153462
0.00123996 -7.0891e-07 6.7067e-06
-7.0891e-07 1.36689e-05 -1.24873e-06
6.7067e-06 -1.24873e-06 -8.23103e-05
0.000747312 2.89151e-06 2.98803e-07
2.89151e-06 -8.88963e-05 1.36996e-07
2.98803e-07 1.36996e-07 -0.000146601
0.00490569 -6.84188e-06 -0.000105904
-6.84188e-06 0.00224221 9.32291e-07
-0.000105904 9.32291e-07 0.00223703
0.000743218 2.61541e-06 1.23619e-05
2.61541e-06 -7.51462e-05 -2.0739e-06
1.23619e-05 -2.0739e-06 -0.000128018
0.00473002 3.91567e-05 5.58482e-06
3.91567e-05 0.00215683 1.68087e-07
5.58482e-06 1.68087e-07 0.00215049
0.00463299 4.90072e-06 0.000106845
4.90072e-06 0.0021057 -1.94417e-06
0.000106845 -1.94417e-06 0.00210167
0.001563 1.11275e-05 -3.66927e-06
1.11275e-05 8.6228e-05 -1.49267e-06
-3.66927e-06 -1.49267e-06 -2.09541e-05
0.0017244 9.66248e-06 5.29722e-07
9.66248e-06 0.000127165 4.40905e-07
5.29722e-07 4.40905e-07 1.73569e-05
0.00167711 6.22417e-06 8.57757e-07
6.22417e-06 7.54585e-05 8.0844e-07
8.57757e-07 8.0844e-07 -3.40661e-05
0.00122155 1.831e-05 -8.20508e-06
1.831e-05 2.30638e-06 -1.74995e-06
-8.20508e-06 -1.74995e-06 -8.93993e-05
0.00151386 2.16216e-05 2.38637e-07
2.16216e-05 6.5629e-05 -1.80107e-07
2.38637e-07 -1.80107e-07 -4.00974e-05
0.00158943 1.98336e-05 1.51567e-06
1.98336e-05 5.60609e-05 -3.80143e-07
1.51567e-06 -3.80143e-07 -5.3229e-05
0.000708873 3.10275e-05 -1.31008e-05
3.10275e-05 -9.88535e-05 -3.21923e-06
-1.31008e-05 -3.21923e-06 -0.000151823
0.00121038 4.60193e-05 -4.74094e-08
4.60193e-05 8.81729e-06 2.29997e-07
-4.74094e-08 2.29997e-07 -8.24935e-05
0.00153333 5.17657e-05 4.02142e-06
5.17657e-05 8.48637e-05 1.33147e-06
4.02142e-06 1.33147e-06 -2.20658e-05
0.00479749 1.51639e-05 -0.000111858
1.51639e-05 0.00219107 -3.89659e-06
-0.000111858 -3.89659e-06 0.00218664
0.000676782 5.05652e-05 2.6817e-08
5.05652e-05 -0.000101223 8.74093e-08
2.6817e-08 8.74093e-08 -0.000154172
0.00118305 7.01002e-05 6.22075e-06
7.01002e-05 1.19949e-05 1.97917e-06
6.22075e-06 1.97917e-06 -7.98677e-05
0.00455884 -6.77801e-06 4.84036e-06
-6.77801e-06 0.00208127 3.96487e-07
4.84036e-06 3.96487e-07 0.00207339
0.000620836 6.11872e-05 1.19596e-05
6.11872e-05 -0.000108869 5.2383e-06
1.19596e-05 5.2383e-06 -0.000163504
0.00401201 -5.55376e-05 7.69977e-05
-5.55376e-05 0.001809 4.45256e-06
7.69977e-05 4.45256e-06 0.00179898
0.00129843 4.97117e-06 -9.01716e-06
4.97117e-06 1.67734e-05 -6.80507e-07
-9.01716e-06 -6.80507e-07 -8.12458e-05
0.00160667 7.15379e-06 1.2165e-06
7.15379e-06 9.1865e-05 2.53033e-08
1.2165e-06 2.53033e-08 -1.99524e-05
0.00185732 3.58223e-06 1.93489e-06
3.58223e-06 0.000180732 7.83064e-07
1.93489e-06 7.83064e-07 6.65605e-05
0.000756228 1.5304e-05 -1.42778e-05
1.5304e-05 -0.000107639 -5.87626e-07
-1.42778e-05 -5.87626e-07 -0.000166758
0.000903373 -5.13858e-06 -1.72002e-06
-5.13858e-06 -0.000198286 2.41432e-08
-1.72002e-06 2.41432e-08 -0.000299991
0.00180308 1.21403e-05 5.68985e-06
1.21403e-05 0.00019458 1.09444e-07
5.68985e-06 1.09444e-07 8.34524e-05
0.000892751 -9.06317e-07 6.57845e-06
-9.06317e-07 -0.000198654 -3.45188e-08
6.57845e-06 -3.45188e-08 -0.000301022
0.00075038 5.81622e-06 9.4938e-08
5.81622e-06 -0.000103455 4.35402e-07
9.4938e-08 4.35402e-07 -0.000164161
0.0051918 2.64162e-05 -0.0001112
2.64162e-05 0.00238474 -3.92624e-07
-0.0001112 -3.92624e-07 0.00237937
0.000765368 1.19854e-05 1.30154e-05
1.19854e-05 -8.05769e-05 -1.30032e-06
1.30154e-05 -1.30032e-06 -0.000138472
0.00499843 -1.07121e-06 1.44338e-06
-1.07121e-06 0.00228794 4.63661e-07
1.44338e-06 4.63661e-07 0.00228297
0.00478279 9.99147e-06 0.000112093
9.99147e-06 0.00217938 -1.06982e-06
0.000112093 -1.06982e-06 0.00217527
0.00126702 7.34149e-06 -8.70104e-06
7.34149e-06 1.30777e-05 -1.91902e-06
-8.70104e-06 -1.91902e-06 -8.15445e-05
0.00145337 9.51097e-06 -4.67569e-08
9.51097e-06 2.61202e-05 -1.45087e-07
-4.67569e-08 -1.45087e-07 -8.191e-05
0.00150082 8.41604e-06 1.83534e-06
8.41604e-06 8.77145e-06 1.37286e-06
1.83534e-06 1.37286e-06 -0.000101327
0.00247344 1.00029e-05 -6.13184e-05
1.00029e-05 0.000831797 -1.95571e-06
-6.13184e-05 -1.95571e-06 0.000788938
0.00123094 1.96922e-05 1.4422e-07
1.96922e-05 7.16075e-06 5.42406e-08
1.4422e-07 5.42406e-08 -8.47732e-05
0.00155542 2.18324e-05 3.85968e-06
2.18324e-05 8.63087e-05 4.15951e-07
3.85968e-06 4.15951e-07 -1.94507e-05
0.00487276 2.01858e-05 -0.000118807
2.01858e-05 0.00222367 -2.88067e-06
-0.000118807 -2.88067e-06 0.00221976
0.000714663 3.27295e-05 2.09936e-08
3.27295e-05 -9.52169e-05 7.40187e-08
2.09936e-08 7.40187e-08 -0.000148287
0.0012106 4.6896e-05 8.57216e-06
4.6896e-05 9.4203e-06 2.40283e-06
8.57216e-06 2.40283e-06 -8.21255e-05
0.00472446 2.24974e-05 1.79524e-06
2.24974e-05 0.00215598 5.45927e-07
1.79524e-06 5.45927e-07 0.00215084
0.000671519 5.00767e-05 1.27558e-05
5.00767e-05 -0.000103558 4.20182e-06
1.27558e-05 4.20182e-06 -0.000156572
0.00441837 4.49393e-06 9.54544e-05
4.49393e-06 0.00200771 4.74304e-06
9.54544e-05 4.74304e-06 0.00200114
0.000787123 7.12678e-06 -1.52783e-05
7.12678e-06 -8.81758e-05 -1.76081e-06
-1.52783e-05 -1.76081e-06 -0.000148687
0.00110225 1.93628e-06 3.63928e-07
1.93628e-06 -8.76341e-05 5.47468e-07
3.63928e-07 5.47468e-07 -0.000186831
0.00142017 1.89682e-06 5.14288e-06
1.89682e-06 -9.34102e-06 8.00274e-07
5.14288e-06 8.00274e-07 -0.000122954
0.00529358 -4.1663e-05 -0.0001109
-4.1663e-05 0.00244097 -1.78053e-06
-0.0001109 -1.78053e-06 0.00243214
0.000761182 9.85241e-06 -9.37164e-08
9.85241e-06 -0.000103203 1.5656e-07
-9.37164e-08 1.5656e-07 -0.00016347
0.000900635 1.4886e-06 6.75606e-06
1.4886e-06 -0.000200411 2.85855e-07
6.75606e-06 2.85855e-07 -0.000302103
0.000747306 1.43677e-05 1.34868e-05
1.43677e-05 -0.000105473 2.56721e-07
1.34868e-05 2.56721e-07 -0.000166326
0.00525089 5.04118e-05 4.22178e-06
5.04118e-05 0.00241701 4.73563e-07
4.22178e-06 4.73563e-07 0.00240981
0.0051204 8.68802e-05 0.000113779
8.68802e-05 0.00235372 2.01806e-07
0.000113779 2.01806e-07 0.00234521
0.00257404 -1.08645e-05 -6.48784e-05
-1.08645e-05 0.000872874 -2.00238e-06
-6.48784e-05 -2.00238e-06 0.000827104
0.00126905 9.23615e-06 -7.40924e-08
9.23615e-06 1.41243e-05 -5.19642e-08
-7.40924e-08 -5.19642e-08 -8.04647e-05
0.00134437 8.03382e-06 3.53227e-06
8.03382e-06 -3.36552e-05 1.08551e-06
3.53227e-06 1.08551e-06 -0.000142533
0.00471855 4.28768e-05 -3.20934e-05
4.28768e-05 0.00214878 -1.39306e-06
-3.20934e-05 -1.39306e-06 0.00213808
0.000761165 1.24669e-05 -1.32942e-07
1.24669e-05 -7.98706e-05 1.63839e-07
-1.32942e-07 1.63839e-07 -0.000135012
0.00125321 2.19011e-05 8.468e-06
2.19011e-05 1.83451e-05 1.88195e-06
8.468e-06 1.88195e-06 -7.37589e-05
0.00483111 2.86558e-05 -1.65997e-06
2.86558e-05 0.00220467 5.11061e-07
-1.65997e-06 5.11061e-07 0.00220031
0.000716543 3.4742e-05 1.33765e-05
3.4742e-05 -9.31982e-05 3.52181e-06
1.33765e-05 3.52181e-06 -0.00014643
0.00466223 3.28305e-05 0.000106672
3.28305e-05 0.00212537 4.63728e-06
0.000106672 4.63728e-06 0.00211992
0.00176179 -1.67008e-05 -0.000111072
-1.67008e-05 0.000546562 -1.75599e-08
-0.000111072 -1.75599e-08 0.000521797
0.00168962 8.74812e-06 -2.63667e-05
8.74812e-06 0.000394376 5.38811e-07
-2.63667e-05 5.38811e-07 0.000341895
0.000907672 2.19541e-06 8.76922e-06
2.19541e-06 -0.000191076 1.57661e-06
8.76922e-06 1.57661e-06 -0.000291466
0.00528009 -4.90154e-05 4.56813e-06
-4.90154e-05 0.00243576 -1.05953e-06
4.56813e-06 -1.05953e-06 0.00242598
0.000752315 6.3735e-06 1.41955e-05
6.3735e-06 -0.000106525 9.26219e-07
1.41955e-05 9.26219e-07 -0.000167369
0.00527987 2.29183e-06 0.000120768
2.29183e-06 0.00242867 9.96718e-07
0.000120768 9.96718e-07 0.00242327
0.00147354 -7.74925e-05 -7.98199e-06
-7.74925e-05 0.000413927 -8.12075e-07
-7.98199e-06 -8.12075e-07 0.000380203
0.00168271 6.18151e-06 -2.54266e-05
6.18151e-06 0.000400568 1.09174e-07
-2.54266e-05 1.09174e-07 0.000348908
0.00127079 9.03356e-06 8.31621e-06
9.03356e-06 1.51791e-05 1.85492e-06
8.31621e-06 1.85492e-06 -7.94077e-05
0.0031865 1.33584e-05 4.52745e-05
1.33584e-05 0.00132406 4.97495e-07
4.52745e-05 4.97495e-07 0.00130751
0.000772836 1.97139e-05 1.37267e-05
1.97139e-05 -7.35768e-05 3.02341e-06
1.37267e-05 3.02341e-06 -0.000129015
0.0047962 3.9892e-05 0.000112071
3.9892e-05 0.00218886 3.98927e-06
0.000112071 3.98927e-06 0.00218398
0.00525038 -4.05278e-05 -5.53244e-06
-4.05278e-05 0.00241611 4.52705e-07
-5.53244e-06 4.52705e-07 0.00240931
0.000756219 1.63449e-05 1.42892e-05
1.63449e-05 -0.0001027 1.9372e-06
1.42892e-05 1.9372e-06 -0.000161456
0.00527397 4.87469e-05 0.000114486
4.87469e-05 0.00243129 -1.18073e-06
0.000114486 -1.18073e-06 0.00242236
0.00329789 9.38916e-06 5.08892e-05
9.38916e-06 0.00137789 2.0751e-07
5.08892e-05 2.0751e-07 0.00136018
0.000765001 9.91866e-06 1.37085e-05
9.91866e-06 -8.72519e-05 2.55676e-06
1.37085e-05 2.55676e-06 -0.00014543
0.00491752 2.1578e-05 0.000111515
2.1578e-05 0.00224695 2.66716e-06
0.000111515 2.66716e-06 0.00224247
0.00519156 -0.000132093 0.000106818
-0.000132093 0.00239779 -3.85522e-08
0.000106818 -3.85522e-08 0.00238324
0.00505905 -8.01613e-05 0.00010721
-8.01613e-05 0.00232268 9.73098e-07
0.00010721 9.73098e-07 0.00231415
