# vtk DataFile Version 2.0
Wound Healing Simulation
ASCII
DATASET UNSTRUCTURED_GRID
POINTS 3012 float
69.9759 18.75 4
67.2507 60.3285 4
69.976 18.75 2
73.0099 25.446 4
71.1327 20.9142 4
68.6801 16.6661 4
67.8266 19.9156 3.99239
67.2507 60.3286 2
71.1327 54.0858 4
68.6801 58.3339 4
65.6939 62.2254 4
65.3131 59.0099 3.99324
74.6784 42.3946 4
73.7221 47.2057 4
69.9759 18.75 0
73.0099 25.446 2
68.6801 16.6661 2
71.1327 20.9142 2
67.8266 19.9152 2
74.6792 32.6053 4
73.7222 27.7943 4
72.1454 23.1494 4
70.6164 26.213 3.99059
68.8872 21.948 3.99187
67.2507 14.6715 4
66.638 17.9618 3.9929
65.8044 21.0082 3.98779
67.2507 60.3285 0
71.1327 54.0858 2
68.6801 58.3339 2
65.694 62.2255 2
65.3131 59.0102 2
72.1454 51.8506 4
69.9759 56.25 4
68.838 53.1231 3.99174
64.0165 64.0165 4
66.6116 57.1434 3.99292
63.8866 60.7732 3.99362
63.5047 57.7908 3.98878
60.3285 67.2507 4
74.6792 42.3947 2
73.7222 47.2057 2
74.9194 39.9526 4
74.2788 44.8158 4
72.1713 42.0896 3.98974
73.0099 49.554 4
71.252 46.6052 3.99043
73.0099 25.446 0
71.1327 20.9142 0
68.6801 16.6661 0
67.8266 19.9156 0.00760665
74.6792 32.6053 2
73.7222 27.7943 2
67.2508 14.6715 2
72.1455 23.1494 2
70.6164 26.2126 2
66.6379 17.9614 2
68.8872 21.9476 2
65.8045 21.0078 2
74.9197 35.0474 4
74.2794 30.1841 4
72.1877 32.9388 3.98986
71.2806 28.4244 3.99005
69.8175 24.0505 3.99127
68.3563 26.9409 3.9866
66.7709 22.9185 3.98743
65.694 12.7746 4
65.3245 16.0945 3.99329
64.7197 19.1757 3.98833
63.901 22.0116 3.98615
71.1327 54.0858 0
65.6939 62.2254 0
68.6801 58.3339 0
65.3131 59.0099 0.00676029
72.1455 51.8506 2
69.9759 56.25 2
68.838 53.1235 2
64.0165 64.0165 2
66.6116 57.1438 2
63.8866 60.7735 2
63.5047 57.7912 2
62.2254 65.694 4
58.8937 65.4185 3.99386
69.771 50.9982 3.99115
67.785 55.1775 3.99244
66.6583 52.2241 3.98726
62.3366 62.4333 3.99383
64.6667 56.05 3.98844
62.2055 59.4229 3.98935
61.8319 56.7068 3.98683
58.3339 68.6801 4
60.3285 67.2508 2
73.7221 47.2057 0
74.6784 42.3946 0
74.9197 39.9526 2
74.2794 44.8159 2
72.1714 42.0898 2
73.0099 49.554 2
71.2521 46.6055 2
75 37.5 4
72.4086 39.804 3.98936
71.7855 44.3587 3.99014
69.815 41.7944 3.98624
70.5776 48.8218 3.99075
68.9229 46.0239 3.9867
74.6792 32.6053 0
73.7222 27.7943 0
67.2507 14.6715 0
72.1454 23.1494 0
70.6164 26.213 0.00940899
68.8872 21.948 0.00812649
66.638 17.9618 0.0071036
65.8044 21.0082 0.0122127
74.9197 35.0474 2
74.2794 30.1841 2
72.1877 32.9387 2
71.2807 28.4242 2
65.694 12.7745 2
65.3244 16.0941 2
69.8175 24.0501 2
68.3564 26.9407 2
64.7197 19.1753 2
66.771 22.9181 2
63.901 22.0114 2
72.4164 35.2214 3.98966
71.8066 30.6705 3.98989
69.8502 33.2632 3.98601
68.9758 29.0294 3.98617
67.6204 24.8994 3.98708
66.2117 27.6195 3.98493
64.0165 10.9835 4
64.7722 23.809 3.98593
63.8906 14.3199 3.99351
63.5172 17.4269 3.98895
62.9187 20.2946 3.98644
62.1133 22.9138 3.98537
60.684 11.0924 3.99369
57.6122 11.4351 3.98966
72.1454 51.8506 0
69.9759 56.25 0
68.838 53.1231 0.00825804
64.0165 64.0165 0
63.8866 60.7732 0.00638277
66.6116 57.1434 0.00707519
63.5047 57.7908 0.0112199
62.2255 65.694 2
58.8937 65.4188 2
69.771 50.9986 2
67.7849 55.1779 2
66.6583 52.2244 2
62.3366 62.4337 2
64.6667 56.0503 2
62.2054 59.4233 2
61.832 56.7071 2
60.6687 63.9821 3.99385
57.0242 66.7385 3.99389
57.5575 63.702 3.98986
67.5172 50.1896 3.98697
65.7096 54.1902 3.98786
64.554 51.4068 3.98552
60.7743 60.9541 3.98981
62.8316 55.093 3.98681
60.6645 58.184 3.98696
60.3404 55.8165 3.98599
56.25 69.9759 4
58.3339 68.6801 2
60.3285 67.2507 0
58.9209 9.65121 3.99373
62.2254 9.30607 4
73.0099 49.554 0
74.2788 44.8158 0
71.252 46.6052 0.00956579
72.1713 42.0896 0.0102556
74.9194 39.9526 0
75 37.5 2
72.4086 39.8041 2
71.7855 44.3589 2
69.815 41.7945 2
70.5776 48.8222 2
68.9229 46.0241 2
72.4919 37.5115 3.98932
70.0519 39.6594 3.98597
69.4412 43.9146 3.98652
67.617 41.5042 3.98479
68.2762 48.1181 3.98684
66.729 45.4528 3.98509
74.9197 35.0474 0
74.2794 30.1841 0
72.1877 32.9388 0.0101382
71.2806 28.4244 0.00994764
65.694 12.7746 0
65.3245 16.0945 0.00671289
69.8175 24.0505 0.00873225
68.3563 26.9409 0.0133956
66.7709 22.9185 0.0125706
64.7197 19.1757 0.0116668
63.901 22.0116 0.0138495
72.4164 35.2213 2
71.8066 30.6703 2
69.8503 33.2632 2
68.9759 29.0293 2
64.0165 10.9835 2
63.8906 14.3195 2
63.5172 17.4265 2
67.6205 24.8991 2
66.2118 27.6193 2
62.9187 20.2943 2
64.7722 23.8088 2
62.1133 22.9136 2
60.684 11.0921 2
57.6122 11.4347 2
70.0684 35.389 3.98609
69.477 31.1425 3.98609
67.6739 33.5842 3.98431
66.7897 29.6105 3.98439
65.5407 25.6812 3.98553
64.1713 28.2361 3.98426
62.342 12.6489 3.99363
62.8796 24.6106 3.98529
62.2009 15.7659 3.98936
61.8221 18.6586 3.98692
61.2348 21.3103 3.98535
60.4522 23.6934 3.98516
59.2465 12.7644 3.98964
55.8739 10.2233 3.98972
56.4062 13.0962 3.98702
69.771 50.9982 0.00885015
62.2254 65.694 0
58.8937 65.4185 0.00613854
67.785 55.1775 0.00755523
66.6583 52.2241 0.0127399
62.3366 62.4333 0.00617122
62.2055 59.4229 0.0106528
64.6667 56.05 0.0115618
61.8319 56.7068 0.0131687
60.6686 63.9824 2
57.0242 66.7388 2
57.5575 63.7024 2
67.5172 50.1898 2
65.7096 54.1906 2
64.554 51.4069 2
60.7743 60.9545 2
62.8317 55.0932 2
60.6645 58.1843 2
60.3405 55.8166 2
55.0697 67.9349 3.99392
59.2196 62.3795 3.98987
55.8035 64.9177 3.98988
56.3278 62.1041 3.98724
65.3496 49.4272 3.98529
63.7203 53.3161 3.98617
62.4657 50.6792 3.98465
59.3368 59.5784 3.9873
61.093 54.3395 3.98602
59.2982 57.042 3.98563
59.257 55.2167 3.98605
48.1022 68.5821 3.99017
50.9478 69.9336 3.99398
54.0858 71.1327 4
56.25 69.976 2
58.3339 68.6801 0
57.058 8.33166 3.99378
60.3285 7.74928 4
58.9209 9.65091 2
62.2255 9.30602 2
70.5776 48.8218 0.00925131
71.7855 44.3587 0.0098641
68.9229 46.0239 0.0133045
69.815 41.7944 0.0137641
72.4086 39.804 0.0106437
75 37.5 0
72.4919 37.5115 2
70.0519 39.6596 2
69.4412 43.9147 2
67.617 41.5044 2
68.2762 48.1183 2
66.729 45.453 2
70.1398 37.521 3.98597
67.8539 39.5156 3.98483
67.2431 43.4798 3.98489
65.5844 41.2185 3.98425
66.0874 47.434 3.98525
64.6801 44.8652 3.9846
72.4164 35.2214 0.0103434
71.8066 30.6705 0.0101134
69.8502 33.2632 0.0139914
68.9758 29.0294 0.0138313
64.0165 10.9835 0
63.8906 14.3199 0.00648525
63.5172 17.4269 0.0110544
67.6204 24.8994 0.0129221
66.2117 27.6195 0.0150676
64.7722 23.809 0.0140716
62.9187 20.2946 0.0135611
62.1133 22.9138 0.01463
60.684 11.0924 0.00631128
57.6122 11.4351 0.0103405
70.0685 35.389 2
69.4771 31.1424 2
67.674 33.5842 2
66.7898 29.6104 2
62.342 12.6486 2
62.2009 15.7655 2
61.8222 18.6583 2
65.5408 25.6809 2
64.1714 28.2359 2
61.2348 21.3102 2
62.8797 24.6104 2
60.4523 23.6933 2
59.2465 12.764 2
56.4062 13.0959 2
55.8739 10.2229 2
67.8896 35.5438 3.98465
67.2833 31.6128 3.98432
65.7243 33.9193 3.98375
64.6886 30.1766 3.98345
63.5623 26.3909 3.9849
62.2899 28.7547 3.98444
60.776 14.2069 3.98957
61.0747 25.3066 3.98511
60.6176 17.1035 3.98722
60.235 19.7853 3.98582
59.6835 22.2229 3.98465
59.01 24.2829 3.98546
54.0369 9.12773 3.98983
57.9118 14.3125 3.98716
54.7871 11.9978 3.98697
55.3143 14.6259 3.98585
67.5172 50.1896 0.0130319
57.0242 66.7385 0.00610969
60.6687 63.9821 0.00615394
57.5575 63.702 0.0101419
65.7096 54.1902 0.0121365
64.554 51.4068 0.0144779
60.7743 60.9541 0.0101918
60.6645 58.184 0.013043
62.8316 55.093 0.0131892
60.3404 55.8165 0.0140132
55.0697 67.9352 2
59.2196 62.3799 2
55.8035 64.918 2
56.3278 62.1045 2
65.3496 49.4273 2
63.7203 53.3163 2
62.4657 50.6793 2
59.3369 59.5787 2
61.0931 54.3396 2
59.2982 57.0422 2
59.2571 55.2168 2
53.0417 69.0022 3.99395
53.9656 66.0186 3.98993
57.8827 60.8879 3.98733
54.6837 63.2177 3.98726
55.2134 60.6328 3.98585
63.2205 48.6853 3.98469
61.762 52.6044 3.9852
60.3053 50.0513 3.98412
58.0236 58.2863 3.98596
59.3461 53.9816 3.98548
58.1387 55.8464 3.98451
50.1084 67.8605 3.99007
47.4626 66.586 3.98758
46.0562 69.1612 3.99024
48.1021 68.5825 2
48.8022 70.7246 3.99403
50.9478 69.9339 2
51.8506 72.1454 4
54.0858 71.1327 2
56.25 69.9759 0
55.1023 7.13669 3.99381
58.3339 6.31992 4
57.058 8.33136 2
60.3286 7.74926 2
58.9209 9.65121 0.0062692
62.2254 9.30607 0
68.2762 48.1181 0.0131638
69.4412 43.9146 0.0134768
66.729 45.4528 0.0149105
67.617 41.5042 0.0152085
70.0519 39.6594 0.0140254
72.4919 37.5115 0.0106824
70.1399 37.5211 2
67.854 39.5157 2
67.2432 43.4799 2
65.5844 41.2186 2
66.0875 47.4341 2
64.6801 44.8653 2
67.9501 37.5217 3.98472
65.8162 39.3746 3.98465
65.2042 43.0381 3.98416
63.7925 40.9398 3.98422
63.993 46.7374 3.98479
62.8436 44.2362 3.9847
70.0684 35.389 0.0139119
69.477 31.1425 0.0139086
67.6739 33.5842 0.0156938
66.7897 29.6105 0.0156104
62.342 12.6489 0.00636775
62.2009 15.7659 0.0106355
61.8221 18.6586 0.013079
65.5407 25.6812 0.0144749
64.1713 28.2361 0.0157391
62.8796 24.6106 0.0147081
61.2348 21.3103 0.0146528
60.4522 23.6934 0.0148442
59.2465 12.7644 0.010359
56.4062 13.0962 0.012977
55.8739 10.2233 0.0102765
67.8897 35.5439 2
67.2834 31.6128 2
65.7243 33.9193 2
64.6887 30.1765 2
60.776 14.2065 2
60.6176 17.1032 2
60.235 19.7851 2
63.5625 26.3907 2
62.29 28.7546 2
59.6836 22.2227 2
61.0748 25.3064 2
59.01 24.2828 2
57.9118 14.3122 2
55.3143 14.6257 2
54.0369 9.12735 2
54.7872 11.9975 2
65.904 35.6626 3.9839
65.2125 32.1426 3.98335
64.317 34.2414 3.98289
62.629 30.617 3.98353
61.6831 27.0447 3.98477
60.889 29.115 3.98519
59.3131 15.6473 3.98724
59.3669 25.7615 3.9858
59.1308 18.3271 3.98632
58.7565 20.8192 3.9849
58.312 23.0536 3.98419
58.003 24.6256 3.98629
52.1116 8.14709 3.98988
53.0579 11.0057 3.98708
56.6788 15.7197 3.9862
53.8106 13.6638 3.98552
54.3784 15.9761 3.98542
55.0697 67.9349 0.00607904
65.3496 49.4272 0.0147148
55.8035 64.9177 0.0101154
59.2196 62.3795 0.010131
56.3278 62.1041 0.0127592
63.7203 53.3161 0.0138286
62.4657 50.6792 0.0153516
59.3368 59.5784 0.0126959
59.2982 57.042 0.0143651
61.093 54.3395 0.0139799
59.257 55.2167 0.0139545
53.0417 69.0025 2
53.9656 66.019 2
57.8827 60.8882 2
54.6837 63.218 2
55.2134 60.6331 2
63.2205 48.6855 2
61.762 52.6046 2
60.3053 50.0513 2
58.0237 58.2866 2
59.3461 53.9816 2
58.1388 55.8465 2
52.0693 67.0042 3.98998
52.9526 64.2262 3.98728
56.6516 59.5097 3.98616
53.6818 61.6348 3.98579
54.2628 59.3402 3.98513
61.0292 47.9098 3.98447
59.7357 52.139 3.98488
58.0641 49.6542 3.98512
56.7844 57.017 3.98457
57.1396 54.1597 3.98415
50.1084 67.8609 2
49.3362 65.9266 3.98739
47.4626 66.5864 2
46.8918 64.7424 3.98594
45.5578 67.1033 3.9877
43.9735 69.5936 3.99026
46.0561 69.1616 2
46.609 71.369 3.99406
48.1022 68.5821 0.0098294
48.8021 70.7249 2
49.554 73.0099 4
50.9478 69.9336 0.00601688
51.8506 72.1455 2
54.0858 71.1327 0
53.0634 6.06858 3.99384
55.1023 7.1364 2
56.25 5.02411 4
58.3339 6.3199 2
57.058 8.33166 0.00621991
60.3285 7.74928 0
66.0874 47.434 0.0147536
67.2431 43.4798 0.0151119
64.6801 44.8652 0.015403
65.5844 41.2185 0.0157521
67.8539 39.5156 0.0151731
70.1398 37.521 0.0140318
67.9501 37.5218 2
65.8162 39.3747 2
65.2042 43.0383 2
63.7925 40.9399 2
63.993 46.7375 2
62.8435 44.2363 2
65.9189 37.5018 3.98458
63.9376 39.2721 3.9846
63.3657 42.5651 3.98394
62.4753 40.7089 3.98333
62.0042 45.9441 3.98509
61.4952 43.7053 3.98515
67.8896 35.5438 0.015353
67.2833 31.6128 0.015682
65.7243 33.9193 0.0162459
64.6886 30.1766 0.0165459
60.776 14.2069 0.0104297
60.6176 17.1035 0.012782
60.235 19.7853 0.0141765
63.5623 26.3909 0.015101
62.2899 28.7547 0.0155571
61.0747 25.3066 0.0148882
59.6835 22.2229 0.0153545
59.01 24.2829 0.0145414
57.9118 14.3125 0.0128404
55.3143 14.6259 0.0141454
54.0369 9.12773 0.0101666
54.7871 11.9978 0.013033
65.9041 35.6627 2
65.2125 32.1426 2
64.3171 34.2414 2
62.6291 30.617 2
59.3131 15.647 2
59.1309 18.3269 2
58.7566 20.8191 2
61.6833 27.0446 2
60.8891 29.1149 2
58.3121 23.0535 2
59.3671 25.7614 2
58.003 24.6256 2
56.6788 15.7195 2
54.3784 15.9759 2
53.8107 13.6635 2
52.1116 8.14669 2
53.058 11.0053 2
64.1262 35.6276 3.9832
62.9671 33.0334 3.98274
60.6572 30.5897 3.98396
59.6136 27.8792 3.98531
57.943 16.9581 3.98637
57.7797 25.6874 3.98681
57.7247 19.4446 3.9856
57.3916 21.8029 3.98381
57.2182 23.9067 3.98434
50.1118 7.27958 3.99005
51.2323 10.1153 3.98726
52.1726 12.7831 3.98529
55.5402 16.9474 3.98567
52.9791 15.2441 3.9848
53.7606 16.957 3.98511
53.0417 69.0022 0.00604754
53.9656 66.0186 0.0100675
63.2205 48.6853 0.0153094
54.6837 63.2177 0.012739
57.8827 60.8879 0.0126713
55.2134 60.6328 0.014146
61.762 52.6044 0.0148011
60.3053 50.0513 0.0158848
58.0236 58.2863 0.0140409
58.1387 55.8464 0.0154892
59.3461 53.9816 0.0145242
52.0692 67.0046 2
52.9526 64.2266 2
56.6516 59.51 2
53.6818 61.6351 2
54.2628 59.3405 2
61.0291 47.9098 2
59.7357 52.1391 2
58.0641 49.6541 2
56.7845 57.0172 2
57.1397 54.1597 2
51.167 65.1341 3.98727
52.046 62.5478 3.98558
55.4848 58.2731 3.98546
52.836 60.1497 3.9851
53.6433 58.4913 3.98491
58.3545 46.8832 3.9862
57.5902 51.8244 3.98426
56.2901 49.5935 3.98618
55.4824 55.8261 3.98357
55.3795 53.4205 3.98246
50.1084 67.8605 0.00993247
49.3362 65.9269 2
48.6175 64.1289 3.98572
47.4626 66.586 0.0124234
45.5578 67.1036 2
46.8918 64.7428 2
46.3813 63.0604 3.98476
45.1321 65.2039 3.98607
43.6311 67.4741 3.98779
41.8609 69.8813 3.99023
43.9734 69.594 2
44.3766 71.8638 3.99408
46.0562 69.1612 0.00976334
46.609 71.3692 2
47.2057 73.7222 4
48.8022 70.7246 0.00597497
49.554 73.0099 2
51.8506 72.1454 0
50.9532 5.12921 3.99398
53.0634 6.06828 2
54.0858 3.86728 4
55.1023 7.13669 0.00618913
56.25 5.02406 2
58.3339 6.31992 0
63.993 46.7374 0.015208
65.2042 43.0381 0.0158379
62.8436 44.2362 0.015303
63.7925 40.9398 0.0157807
65.8162 39.3746 0.0153547
67.9501 37.5217 0.0152811
65.9189 37.5019 2
63.9376 39.2722 2
63.3657 42.5652 2
62.4752 40.709 2
62.0041 45.9441 2
61.4952 43.7054 2
63.9979 37.4573 3.98502
62.2059 39.3614 3.98414
61.2667 41.9756 3.98377
60.2971 44.7976 3.98629
65.904 35.6626 0.0161031
65.2125 32.1426 0.0166496
64.317 34.2414 0.0171085
62.629 30.617 0.0164708
59.3131 15.6473 0.0127596
59.1308 18.3271 0.0136839
58.7565 20.8192 0.0151042
61.6831 27.0447 0.0152262
60.889 29.115 0.0148121
59.3669 25.7615 0.0142039
58.312 23.0536 0.0158075
58.003 24.6256 0.0137063
56.6788 15.7197 0.0138046
54.3784 15.9761 0.0145818
53.8106 13.6638 0.0144822
52.1116 8.14709 0.0101194
53.0579 11.0057 0.0129161
64.1263 35.6277 2
62.9671 33.0335 2
60.6573 30.5897 2
57.9431 16.9579 2
57.7248 19.4444 2
57.3916 21.8028 2
59.6138 27.8791 2
57.2183 23.9067 2
57.7798 25.6873 2
50.1118 7.27916 2
55.5402 16.9472 2
53.7607 16.9569 2
52.9792 15.2439 2
52.1727 12.7828 2
51.2323 10.1149 2
62.2351 35.3527 3.98323
60.3398 32.7291 3.98242
58.6735 30.0476 3.98473
57.341 27.3443 3.98637
56.6408 18.1285 3.98584
56.3324 25.0609 3.98561
56.3702 20.4882 3.98467
56.1352 22.8297 3.98272
48.0557 6.52314 3.99026
49.3242 9.32397 3.9873
50.4333 11.9827 3.98549
51.3788 14.4826 3.98414
54.4184 17.8956 3.98509
52.3631 17.0144 3.98433
52.0693 67.0042 0.0100185
52.9526 64.2262 0.0127249
61.0292 47.9098 0.0155274
53.6818 61.6348 0.0142107
56.6516 59.5097 0.0138404
54.2628 59.3402 0.0148707
59.7357 52.139 0.015124
58.0641 49.6542 0.0148782
56.7844 57.017 0.0154341
57.1396 54.1597 0.0158465
51.167 65.1344 2
52.046 62.5481 2
55.4849 58.2734 2
52.836 60.15 2
53.6434 58.4916 2
58.3544 46.8832 2
57.5902 51.8244 2
56.29 49.5933 2
55.4825 55.8262 2
55.3795 53.4204 2
50.3457 63.3877 3.98555
51.2446 60.9455 3.98432
54.2245 57.2887 3.98449
52.315 58.6511 3.98448
56.7859 44.2153 3.98703
55.5473 47.9341 3.9862
55.1033 51.4292 3.98297
54.0196 54.5796 3.9822
49.3362 65.9266 0.0126118
48.6175 64.1292 2
47.9616 62.4814 3.98462
45.5578 67.1033 0.0122997
46.8918 64.7424 0.0140558
43.6312 67.4745 2
46.3813 63.0606 2
45.1321 65.2043 2
45.9868 61.5932 3.98387
44.7665 63.4615 3.98491
43.356 65.5137 3.98612
41.6634 67.6934 3.9878
39.7027 70.0287 3.99017
41.8609 69.8817 2
42.1111 72.2086 3.9941
43.9735 69.5936 0.00974468
44.3765 71.8641 2
44.8159 74.2794 4
46.609 71.369 0.00593874
47.2057 73.7222 2
49.554 73.0099 0
48.7838 4.32046 3.9941
50.9532 5.12891 2
51.8506 2.85458 4
53.0634 6.06858 0.00616202
54.0858 3.86728 2
56.25 5.02411 0
62.0042 45.9441 0.014912
63.3657 42.5651 0.0160645
61.4952 43.7053 0.0148496
62.4753 40.7089 0.0166686
63.9376 39.2721 0.0153951
65.9189 37.5018 0.0154231
63.9979 37.4574 2
62.2059 39.3616 2
61.2666 41.9758 2
60.297 44.7977 2
62.0461 37.4446 3.98548
60.309 39.8572 3.98331
59.055 42.9439 3.98586
64.1262 35.6276 0.0168003
62.9671 33.0334 0.0172567
60.6572 30.5897 0.0160427
57.943 16.9581 0.0136275
57.7247 19.4446 0.0144009
57.3916 21.8029 0.0161925
59.6136 27.8792 0.0146857
57.7797 25.6874 0.0131864
57.2182 23.9067 0.0156586
55.5402 16.9474 0.0143252
53.7606 16.957 0.0148909
52.9791 15.2441 0.0151971
50.1118 7.27958 0.00995481
52.1726 12.7831 0.0147085
51.2323 10.1153 0.012735
62.2352 35.3528 2
60.3398 32.7292 2
58.6736 30.0475 2
56.6409 18.1282 2
56.3704 20.488 2
56.1352 22.8297 2
57.3412 27.3442 2
56.3325 25.0609 2
48.0556 6.52272 2
49.3243 9.32354 2
54.4184 17.8954 2
52.3632 17.0142 2
51.3789 14.4824 2
50.4334 11.9823 2
59.9537 35.111 3.98353
58.0559 32.2474 3.98292
56.6063 29.3052 3.98578
55.4998 26.5581 3.98753
55.3485 19.1617 3.98525
54.9646 24.015 3.98256
55.0192 21.5276 3.98356
45.9617 5.87865 3.99041
43.3735 7.46799 3.98815
47.3547 8.61815 3.98765
48.5999 11.2854 3.98518
49.7146 13.7312 3.98444
50.6345 16.116 3.98331
53.1288 18.6356 3.98459
51.3055 18.0283 3.9841
51.167 65.1341 0.0127301
52.046 62.5478 0.0144183
58.3545 46.8832 0.0138009
52.836 60.1497 0.0149024
55.4848 58.2731 0.0145353
53.6433 58.4913 0.0150883
57.5902 51.8244 0.0157364
56.2901 49.5935 0.013825
55.4824 55.8261 0.0164302
55.3795 53.4205 0.0175447
50.3457 63.3881 2
51.2446 60.9458 2
54.2246 57.2889 2
52.315 58.6514 2
56.7857 44.2154 2
55.5472 47.9338 2
55.1033 51.429 2
54.0197 54.5796 2
49.5916 61.7519 3.98436
55.7306 41.7311 3.98402
50.5681 59.3397 3.98314
52.1908 56.5113 3.98314
54.2627 45.5992 3.98729
53.3942 49.3692 3.98385
52.6928 52.8895 3.98064
48.6175 64.1289 0.0142772
47.9616 62.4817 2
47.329 61.0162 3.98388
43.6311 67.4741 0.0122092
45.1321 65.2039 0.0139304
46.3813 63.0604 0.0152355
41.6635 67.6938 2
43.356 65.5141 2
45.9868 61.5934 2
44.7665 63.4618 2
45.7658 60.6375 3.98324
44.4826 61.8428 3.9839
43.1457 63.7342 3.98491
41.5456 65.6518 3.98607
39.6327 67.7735 3.98775
37.5263 70.054 3.99011
39.7027 70.029 2
39.818 72.4058 3.99407
41.8609 69.8813 0.00976629
42.1111 72.2089 2
42.3947 74.6792 4
44.3766 71.8638 0.00591542
44.8159 74.2794 2
47.2057 73.7222 0
43.8512 5.35575 3.99064
46.5699 3.64523 3.99419
48.7838 4.32017 2
49.554 1.99015 4
50.9532 5.12921 0.00602065
51.8506 2.85453 2
54.0858 3.86728 0
60.2971 44.7976 0.013707
61.2667 41.9756 0.0162288
62.2059 39.3614 0.0158576
63.9979 37.4573 0.0149763
62.0461 37.4447 2
60.3089 39.8573 2
59.0548 42.944 2
59.8326 37.5667 3.98614
58.0788 40.6766 3.98431
55.2207 39.7356 3.98818
62.2351 35.3527 0.0167725
60.3398 32.7291 0.0175838
58.6735 30.0476 0.0152671
56.6408 18.1285 0.0141554
56.3702 20.4882 0.0153258
56.1352 22.8297 0.0172822
57.341 27.3443 0.0136347
56.3324 25.0609 0.0143884
54.4184 17.8956 0.0149099
52.3631 17.0144 0.0156719
51.3788 14.4826 0.0158564
48.0557 6.52314 0.00973617
49.3242 9.32397 0.0127019
50.4333 11.9827 0.0145127
59.9538 35.1112 2
45.9617 5.87822 2
43.3735 7.46759 2
58.0559 32.2474 2
56.6065 29.3052 2
55.3486 19.1615 2
55.0193 21.5275 2
54.9647 24.0151 2
55.4999 26.5581 2
47.3548 8.61772 2
48.6 11.2849 2
53.1288 18.6354 2
51.3056 18.0281 2
50.6346 16.1158 2
49.7147 13.7308 2
57.4756 34.7486 3.982
55.8025 31.4884 3.98436
54.5816 28.3633 3.98907
53.8191 25.4539 3.98442
53.9769 20.1086 3.98465
53.6052 22.6711 3.98195
41.3987 7.0733 3.98844
45.3595 7.98994 3.98796
42.8653 9.40914 3.98618
46.6663 10.6463 3.98565
47.7455 13.0933 3.98407
48.9319 15.3885 3.98292
50.0075 17.6836 3.98289
51.6576 19.3055 3.9845
50.3457 63.3877 0.0144544
51.2446 60.9455 0.0156831
56.7859 44.2153 0.0129684
55.5473 47.9341 0.0137955
52.315 58.6511 0.0155233
54.2245 57.2887 0.0155122
55.1033 51.4292 0.0170281
54.0196 54.5796 0.0177988
49.5916 61.7522 2
55.7304 41.7315 2
50.5681 59.34 2
52.1909 56.5117 2
54.2624 45.599 2
53.3941 49.3687 2
52.6928 52.8893 2
48.8491 60.2096 3.98359
52.6464 42.6712 3.98878
49.7916 57.6402 3.9827
50.6087 54.4463 3.98108
51.9 47.3079 3.98442
51.2565 50.9845 3.9788
48.3552 43.7484 3.97545
47.9616 62.4814 0.01538
47.3289 61.0165 2
46.6185 59.8028 3.98339
41.6634 67.6934 0.0122017
43.356 65.5137 0.0138836
44.7665 63.4615 0.0150946
45.9868 61.5932 0.0161328
39.6327 67.7739 2
41.5456 65.6521 2
45.7657 60.6377 2
43.1457 63.7345 2
44.4826 61.843 2
44.623 60.2998 3.98295
42.9497 62.0915 3.98388
41.5991 63.8277 3.98481
39.6473 65.6204 3.98594
37.5636 67.7563 3.98772
31.6981 65.1394 3.98592
33.3928 67.4939 3.98771
35.3337 69.9642 3.99011
37.5263 70.0544 2
37.5097 72.4604 3.99403
39.7027 70.0287 0.0098286
39.8179 72.4061 2
39.9526 74.9197 4
42.1111 72.2086 0.00590335
42.3947 74.6792 2
44.8159 74.2794 0
41.736 4.96506 3.99078
43.8512 5.35536 2
44.3254 3.10857 3.99436
46.5699 3.64493 2
47.2057 1.27793 4
48.7838 4.32046 0.00590339
49.554 1.99013 2
51.8506 2.85458 0
59.055 42.9439 0.0141379
60.309 39.8572 0.0166903
62.0461 37.4446 0.0145153
59.8326 37.5669 2
58.0787 40.6767 2
55.2207 39.7359 2
56.926 37.9024 3.98503
49.8197 41.31 3.98684
53.2729 39.3218 3.99272
39.442 6.79674 3.98851
59.9537 35.111 0.0164734
58.0559 32.2474 0.0170757
56.6063 29.3052 0.0142196
55.3485 19.1617 0.0147471
55.0192 21.5276 0.0164355
54.9646 24.015 0.0174448
55.4998 26.5581 0.0124747
53.1288 18.6356 0.015413
51.3055 18.0283 0.0159024
50.6345 16.116 0.0166926
45.9617 5.87865 0.00958986
49.7146 13.7312 0.0155636
47.3547 8.61815 0.0123516
48.5999 11.2854 0.0148199
43.3735 7.46799 0.0118547
57.4757 34.7488 2
41.3987 7.07289 2
45.3595 7.98948 2
42.8653 9.40871 2
55.8026 31.4884 2
54.5819 28.3632 2
53.977 20.1084 2
53.6053 22.671 2
53.8191 25.4541 2
46.6663 10.6459 2
47.7456 13.0929 2
51.6576 19.3053 2
50.0076 17.6834 2
48.932 15.3881 2
54.9862 33.9502 3.98135
53.5851 30.4467 3.98847
52.6573 27.1545 3.98744
52.1802 24.0431 3.98266
52.4041 21.0446 3.98368
41.0133 9.04205 3.9867
44.7235 9.98922 3.98609
42.4681 10.8954 3.98537
46.0051 12.7213 3.98355
47.6816 14.5745 3.98361
48.1138 16.9763 3.98106
49.8203 19.5772 3.98268
49.5916 61.7519 0.0156354
50.5681 59.3397 0.016862
55.7306 41.7311 0.0159845
54.2627 45.5992 0.0127117
53.3942 49.3692 0.01615
52.1908 56.5113 0.0168573
52.6928 52.8895 0.019356
48.8491 60.2099 2
52.6459 42.6714 2
49.7916 57.6404 2
50.609 54.4468 2
51.8996 47.3074 2
51.2565 50.9841 2
48.3544 43.748 2
47.9874 58.7518 3.98311
50.2317 45.3013 3.98321
48.6043 55.9303 3.9826
49.1552 52.6223 3.9794
49.7373 49.085 3.9803
46.1958 39.912 3.93453
46.6156 42.7877 4.00166
46.6473 45.7468 3.97444
44.0583 41.2556 3.98933
42.0888 41.9901 4.00173
47.329 61.0162 0.0161226
46.6185 59.803 2
45.4683 58.7988 3.98268
39.6327 67.7735 0.0122526
41.5456 65.6518 0.0139341
43.1457 63.7342 0.0150911
44.4826 61.8428 0.0160978
45.7658 60.6375 0.0167608
41.5991 63.828 2
37.5636 67.7566 2
39.6473 65.6207 2
44.6229 60.2999 2
42.9497 62.0918 2
41.7527 62.5024 3.98399
42.4804 59.9913 3.983
39.8927 63.5628 3.98456
37.6423 65.5198 3.9859
35.4639 67.6657 3.9877
33.5761 65.353 3.98594
31.9604 63.3117 3.98463
29.8843 64.7302 3.98582
31.6981 65.1397 2
31.3776 67.2035 3.98766
33.3928 67.4943 2
33.1566 69.7575 3.99012
35.3337 69.9646 2
35.1952 72.3749 3.99402
37.5263 70.054 0.00989048
37.5097 72.4607 2
37.5 75 4
39.818 72.4058 0.00593403
39.9526 74.9197 2
42.3947 74.6792 0
39.6236 4.71222 3.99092
41.7359 4.96468 2
42.0618 2.71629 3.99445
43.8512 5.35575 0.00936489
44.3253 3.10829 2
44.8158 0.721173 4
46.5699 3.64523 0.00581138
47.2057 1.27779 2
49.554 1.99015 0
58.0788 40.6766 0.0156879
59.8326 37.5667 0.0138552
55.2207 39.7356 0.011817
49.8196 41.3092 2
56.9259 37.9023 2
53.2731 39.3221 2
54.123 36.6244 3.98376
47.7442 40.4678 4.00885
50.7734 38.4886 3.99098
37.5158 6.6679 3.98877
39.442 6.79634 2
39.2109 8.68458 3.98689
35.9412 8.48406 3.98729
57.4756 34.7486 0.0180031
55.8025 31.4884 0.0156409
54.5816 28.3633 0.0109255
53.9769 20.1086 0.015349
53.6052 22.6711 0.0180464
53.8191 25.4539 0.0155789
51.6576 19.3055 0.0155039
50.0075 17.6836 0.0171115
48.9319 15.3885 0.0170784
45.3595 7.98994 0.0120414
47.7455 13.0933 0.0159335
46.6663 10.6463 0.0143493
41.3987 7.0733 0.0115556
42.8653 9.40914 0.0138164
54.9863 33.9507 2
41.0133 9.04161 2
44.7236 9.98874 2
42.4681 10.8949 2
53.5852 30.4464 2
52.6574 27.1547 2
52.4042 21.0445 2
52.1803 24.0431 2
46.0051 12.7209 2
47.6817 14.5741 2
49.8204 19.577 2
48.1138 16.9759 2
52.5369 32.8389 3.98363
51.4375 29.1102 3.99268
50.8478 25.6778 3.98012
49.954 22.1483 3.9832
40.5691 11.5983 3.98463
43.8578 11.9105 3.98414
45.8022 15.4113 3.98216
47.5053 19.2102 3.97962
46.5205 37.5085 3.93871
48.8491 60.2096 0.0164125
49.7916 57.6402 0.0173033
52.6464 42.6712 0.0112176
51.9 47.3079 0.015584
51.2565 50.9845 0.021199
50.6087 54.4463 0.0189225
48.3552 43.7484 0.0245534
47.9873 58.752 2
50.231 45.3011 2
48.6043 55.9307 2
49.1555 52.6229 2
49.7372 49.0843 2
46.192 39.9141 2
46.6167 42.7906 2
46.6464 45.7434 2
44.0581 41.2515 2
42.0902 41.9907 2
46.8402 57.354 3.98349
44.8105 39.5102 3.98442
42.4539 40.8658 3.9992
48.1912 47.2838 3.98191
47.1803 54.2635 3.98293
47.6306 50.7931 3.97625
44.9126 47.368 3.9741
45.2791 42.0309 3.93142
45.1058 44.6714 4.00146
42.8575 42.7456 3.98837
40.9338 42.3414 4.00303
46.6185 59.8028 0.0166055
45.4682 58.7989 2
43.8767 57.7224 3.98262
37.5636 67.7563 0.012276
39.6473 65.6204 0.0140609
41.5991 63.8277 0.0151932
42.9497 62.0915 0.0161239
44.623 60.2998 0.0170474
35.4639 67.6661 2
41.7527 62.5027 2
39.8927 63.5631 2
37.6423 65.5201 2
42.4803 59.9914 2
40.6223 61.6605 3.9837
40.4443 58.222 3.98276
37.8364 63.2244 3.9844
35.5734 65.4421 3.98587
33.5761 65.3533 2
31.9604 63.312 2
33.6297 63.3516 3.98461
30.3794 62.8701 3.98453
32.1236 62.0177 3.98402
26.8686 61.5135 3.98387
28.0631 64.158 3.98562
29.8843 64.7305 2
29.4073 66.7671 3.98757
31.6981 65.1394 0.0140778
31.3776 67.2039 2
31.0141 69.4225 3.99014
33.3928 67.4939 0.01229
33.1566 69.7579 2
32.8924 72.1491 3.994
35.3337 69.9642 0.00989324
35.1952 72.3751 2
35.0474 74.9194 4
37.5097 72.4604 0.00597306
37.5 75 2
39.9526 74.9197 0
35.6203 6.71872 3.98871
37.5229 4.61189 3.99093
39.6236 4.71185 2
39.7884 2.47278 3.99457
41.736 4.96506 0.0092192
42.0618 2.71602 2
42.3946 0.32156 4
44.3254 3.10857 0.00563527
44.8159 0.72056 2
47.2057 1.27793 0
49.8197 41.31 0.0131571
56.926 37.9024 0.0149677
53.2729 39.3218 0.00728051
47.7444 40.4669 2
50.7736 38.4884 2
54.1227 36.6247 2
51.5491 35.5649 3.97517
48.4126 37.7704 4.00883
46.177 35.1097 3.93937
44.0448 33.7623 3.98818
42.0827 33.022 3.99518
37.4575 8.52591 3.98738
37.5158 6.6675 2
39.442 6.79674 0.0114924
39.2108 8.68416 2
38.9759 10.1166 3.98618
35.8977 9.76308 3.9864
34.1496 8.81333 3.98706
35.9412 8.48365 2
54.9862 33.9502 0.018653
53.5851 30.4467 0.0115326
52.6573 27.1545 0.012562
52.4041 21.0446 0.0163204
52.1802 24.0431 0.0173419
49.8203 19.5772 0.0173185
48.1138 16.9763 0.0189383
47.6816 14.5745 0.0163869
44.7235 9.98922 0.0139056
46.0051 12.7213 0.0164531
41.0133 9.04205 0.013299
42.4681 10.8954 0.0146257
52.5372 32.8387 2
40.5691 11.5978 2
43.8578 11.91 2
51.4377 29.1105 2
50.8479 25.678 2
49.9541 22.1481 2
45.8022 15.4109 2
47.5053 19.2099 2
50.1525 31.3687 3.98878
49.3731 27.4303 3.98228
49.444 24.3584 3.98134
47.1942 21.893 3.97892
38.3013 12.7225 3.98348
42.1003 14.295 3.98267
44.8004 18.449 3.98027
45.0826 37.5126 3.98475
46.5187 37.5099 2
47.9874 58.7518 0.0168857
48.6043 55.9303 0.0174032
50.2317 45.3013 0.0167882
49.7373 49.085 0.0197035
49.1552 52.6223 0.0206027
46.1958 39.912 0.06547
46.6156 42.7877 -0.00165649
46.6473 45.7468 0.0255601
44.0583 41.2556 0.0106668
42.0888 41.9901 -0.0017324
46.8401 57.3542 2
44.8091 39.5063 2
42.453 40.866 2
48.1905 47.283 2
47.1804 54.2638 2
47.6307 50.7931 2
44.913 47.3617 2
45.2769 42.0324 2
45.1113 44.6762 2
42.8614 42.7402 2
40.9346 42.3425 2
45.4014 55.9394 3.98224
42.7827 39.2651 3.98863
40.89 40.8115 3.96221
46.1623 48.9711 3.98126
45.5694 52.5577 3.98349
43.5402 48.4892 3.95532
43.4866 46.2199 4.01733
43.8263 43.832 3.93113
41.3219 43.8977 3.9861
39.3048 42.6626 3.97145
45.4683 58.7988 0.017317
43.8766 57.7225 2
42.1077 56.3475 3.98296
35.4639 67.6657 0.0123036
37.6423 65.5198 0.0141005
39.8927 63.5628 0.0154372
41.7527 62.5024 0.0160112
42.4804 59.9913 0.0169959
35.5734 65.4425 2
40.6223 61.6608 2
37.8364 63.2247 2
40.4442 58.2219 2
38.9257 56.5149 3.9824
38.2498 60.3434 3.9831
35.6071 63.2181 3.98447
33.5761 65.353 0.0140571
31.9604 63.3117 0.0153709
33.6297 63.3519 2
30.3794 62.8704 2
32.1236 62.0179 2
28.6817 62.2153 3.98427
33.3461 61.5301 3.98334
31.0666 61.2344 3.98347
27.5669 59.6109 3.9837
23.7881 59.106 3.98555
25.0331 60.8886 3.98472
26.8686 61.5138 2
26.2295 63.4903 3.98535
28.0631 64.1583 2
27.464 66.1909 3.98744
29.8843 64.7302 0.0141753
29.4073 66.7674 2
28.9066 68.948 3.99011
31.3776 67.2035 0.0123403
31.0141 69.4228 2
30.6149 71.7802 3.994
33.1566 69.7575 0.00988373
32.8923 72.1494 2
32.6054 74.6784 4
35.1952 72.3749 0.00598354
35.0474 74.9197 2
37.5 75 0
33.7229 6.97313 3.98857
35.4344 4.68209 3.99096
35.6203 6.71833 2
37.5141 2.38549 3.99454
37.5229 4.61153 2
39.6236 4.71222 0.009078
39.7884 2.47252 2
39.9526 0.0806499 4
42.0618 2.71629 0.00554685
42.3947 0.320817 2
44.8158 0.721173 0
44.8002 35.5149 3.98355
42.4411 34.1511 4.00052
47.7442 40.4678 -0.00884855
50.7734 38.4886 0.00902172
54.123 36.6244 0.0162353
48.4133 37.7701 2
51.5486 35.5642 2
46.1744 35.1094 2
44.0451 33.766 2
42.0825 33.023 2
48.5714 34.2379 3.99942
45.2682 32.9898 3.93377
42.859 32.2636 3.98805
40.9299 32.6685 3.99928
37.3098 10.619 3.98559
37.4575 8.52548 2
37.5158 6.6679 0.0112254
39.2109 8.68458 0.0131125
38.9759 10.1162 2
34.7528 10.3686 3.98558
35.8976 9.76265 2
32.3762 9.35982 3.98651
34.1495 8.8129 2
35.9412 8.48406 0.0127082
52.5369 32.8389 0.0163655
51.4375 29.1102 0.00731682
50.8478 25.6778 0.0198812
49.954 22.1483 0.0167977
47.5053 19.2102 0.0203819
45.8022 15.4113 0.0178395
43.8578 11.9105 0.0158553
40.5691 11.5983 0.0153672
50.1525 31.3712 2
38.3014 12.7221 2
42.1004 14.2946 2
49.3733 27.4307 2
49.4442 24.3583 2
47.1943 21.8927 2
44.8004 18.4488 2
47.9326 29.5473 3.97816
47.1469 25.0758 3.97981
44.293 21.303 3.9775
36.5809 12.919 3.98356
38.6798 14.7933 3.9826
41.7492 17.825 3.98146
42.9082 37.5018 3.98852
45.0829 37.5123 2
46.5205 37.5085 0.0612891
46.8402 57.354 0.0165145
47.1803 54.2635 0.0170659
48.1912 47.2838 0.0180876
47.6306 50.7931 0.0237511
44.8105 39.5102 0.0155849
45.2791 42.0309 0.0685798
45.1058 44.6714 -0.0014558
44.9126 47.368 0.0258954
42.8575 42.7456 0.0116271
42.4539 40.8658 0.000800787
40.9338 42.3414 -0.00302537
45.4013 55.9394 2
42.7812 39.265 2
40.8888 40.8133 2
46.1624 48.9696 2
45.5696 52.5577 2
43.5406 48.4879 2
43.4917 46.2258 2
43.8281 43.834 2
41.3232 43.8923 2
39.3044 42.6669 2
43.7429 54.4487 3.98362
40.968 39.1853 3.95406
39.2326 40.8829 3.95177
43.7536 50.541 3.99209
42.0508 47.7476 4.02147
41.9846 45.2208 3.9179
39.5293 44.6702 3.98635
37.5044 42.788 3.95264
43.8767 57.7224 0.0173847
42.1075 56.3474 2
40.4218 54.9536 3.98221
35.5734 65.4421 0.0141309
37.8364 63.2244 0.0156034
40.6223 61.6605 0.016296
40.4443 58.222 0.0172362
35.6071 63.2184 2
38.2498 60.3436 2
38.9255 56.5147 2
38.0006 55.2686 3.98302
36.934 57.6437 3.98182
35.3634 60.9286 3.9833
33.6297 63.3516 0.0153878
30.3794 62.8701 0.0154713
32.1236 62.0177 0.015979
33.3461 61.5303 2
28.6817 62.2155 2
31.0666 61.2346 2
29.4024 60.3038 3.98304
32.3557 59.7607 3.98323
28.0188 58.3902 3.98481
27.5669 59.6111 2
25.3755 58.6155 3.98422
22.7499 58.2678 3.98427
23.3979 60.371 3.98542
23.788 59.1062 2
25.0331 60.8888 2
24.4316 62.7839 3.98572
26.8686 61.5135 0.016126
26.2295 63.4906 2
25.5481 65.501 3.98726
28.0631 64.158 0.01438
27.4639 66.1912 2
26.8365 68.3364 3.99007
29.4073 66.7671 0.0124302
28.9066 68.9483 2
28.3701 71.2654 3.99397
31.0141 69.4225 0.00986351
30.6149 71.7805 2
30.1842 74.2788 4
32.8924 72.1491 0.00599918
32.6053 74.6792 2
35.0474 74.9194 0
31.7873 7.4126 3.9883
33.3464 4.92107 3.99086
33.7229 6.97272 2
35.2444 2.46157 3.99457
35.4344 4.68173 2
35.6203 6.71872 0.0112878
37.5 0 4
37.5141 2.38523 2
37.5229 4.61189 0.0090678
39.7884 2.47278 0.00542774
39.9526 0.0802889 2
42.3946 0.32156 0
42.7736 35.7428 3.9904
44.7996 35.5171 2
40.8783 34.2008 3.96248
42.4406 34.1513 2
48.4126 37.7704 -0.00882848
51.5491 35.5649 0.0248338
46.177 35.1097 0.060627
44.0448 33.7623 0.0118229
42.0827 33.022 0.00482195
48.5703 34.238 2
45.2642 32.9885 2
42.8596 32.2691 2
40.9293 32.6658 2
46.5401 31.4797 4.003
43.8359 31.1845 3.93111
41.3272 31.1108 3.98578
39.2983 32.3625 3.97056
35.6913 11.7635 3.98428
37.3097 10.6186 2
37.4575 8.52591 0.012624
38.9759 10.1166 0.0138185
33.0967 11.2051 3.9849
34.7528 10.3682 2
35.8977 9.76308 0.0136027
30.481 10.0076 3.98606
32.3762 9.35939 2
34.1496 8.81333 0.0129445
50.1525 31.3687 0.0112211
49.3731 27.4303 0.0177212
49.444 24.3584 0.0186614
47.1942 21.893 0.0210783
44.8004 18.449 0.0197302
42.1003 14.295 0.0173274
38.3013 12.7225 0.0165178
36.5809 12.9185 2
47.9331 29.549 2
38.6799 14.7929 2
41.7492 17.8248 2
47.1472 25.0754 2
44.293 21.303 2
45.6687 27.7411 3.97651
43.8258 24.0074 3.9798
41.3436 20.7036 3.97998
35.7703 14.7443 3.98267
38.6804 17.5808 3.98127
41.0094 37.4916 3.94887
42.9083 37.5016 2
45.0826 37.5126 0.0152458
45.4014 55.9394 0.0177623
45.5694 52.5577 0.0165071
46.1623 48.9711 0.0187421
42.7827 39.2651 0.0113656
43.8263 43.832 0.0688651
43.4866 46.2199 -0.017331
43.5402 48.4892 0.0446775
41.3219 43.8977 0.0139023
40.89 40.8115 0.037787
39.3048 42.6626 0.0285484
43.7428 54.4487 2
40.9665 39.186 2
39.2317 40.8864 2
43.7536 50.5425 2
42.0506 47.7472 2
41.9858 45.2215 2
37.5041 42.7934 2
39.5302 44.6739 2
41.8906 53.0182 3.98174
39.2276 39.1775 3.94727
37.5071 40.9245 3.95146
35.7041 42.673 3.97689
40.9986 49.7667 4.0026
39.8651 46.1004 3.95012
37.4971 44.966 3.96317
42.1077 56.3475 0.0170365
40.4216 54.9534 2
38.7318 53.8859 3.98535
35.6071 63.2181 0.0155275
38.2498 60.3434 0.016897
38.9257 56.5149 0.0176037
35.3634 60.9288 2
36.934 57.6437 2
38.0006 55.2681 2
36.3197 55.3993 3.98139
34.4868 58.5377 3.98237
33.3461 61.5301 0.0166585
28.6817 62.2153 0.0157324
31.0666 61.2344 0.0165269
32.3557 59.7609 2
29.4024 60.3039 2
30.2947 57.8323 3.98291
28.0188 58.3904 2
26.9363 56.8443 3.9832
27.5669 59.6109 0.016297
25.3755 58.6157 2
23.8278 56.835 3.98332
21.3241 57.431 3.98506
21.9892 59.6464 3.98586
22.7498 58.268 2
22.7346 62.0372 3.98597
23.3979 60.3712 2
23.7881 59.106 0.0144503
25.0331 60.8886 0.0152814
24.4315 62.7842 2
23.6818 64.72 3.98729
26.2295 63.4903 0.0146507
25.548 65.5014 2
24.8091 67.5979 3.99001
27.464 66.1909 0.012556
26.8365 68.3368 2
26.1655 70.6063 3.99396
28.9066 68.948 0.0098867
28.3701 71.2657 2
27.7943 73.7221 4
30.6149 71.7802 0.00600465
30.1841 74.2794 2
32.6054 74.6784 0
29.8099 7.9855 3.98794
31.2517 5.32791 3.99068
31.7873 7.41217 2
32.9803 2.6996 3.99451
33.3464 4.92069 2
33.7229 6.97313 0.0114325
35.0474 0.080333 4
35.2444 2.46131 2
35.4344 4.68209 0.00903591
37.5 0 2
37.5141 2.38549 0.00545884
39.9526 0.0806499 0
40.9617 35.8083 3.95222
42.773 35.7429 2
44.8002 35.5149 0.0164514
28.542 10.6829 3.98562
39.2221 34.1454 3.95728
40.8771 34.1986 2
42.4411 34.1511 -0.000524042
48.5714 34.2379 0.000582593
45.2682 32.9898 0.0662264
42.859 32.2636 0.0119514
40.9299 32.6685 0.000724383
46.5409 31.4821 2
43.8334 31.1856 2
41.3303 31.1119 2
39.298 32.3574 2
44.5791 29.6553 4.00466
41.9938 29.7966 3.92697
39.534 30.3477 3.97762
37.4971 32.2415 3.94792
34.091 12.9212 3.98362
35.6913 11.7631 2
37.3098 10.619 0.0144086
31.1848 11.9733 3.98447
33.0966 11.2046 2
34.7528 10.3686 0.0144167
30.4809 10.0072 2
32.3762 9.35982 0.013485
47.9326 29.5473 0.0218395
47.1469 25.0758 0.0201884
36.5809 12.919 0.0164441
44.293 21.303 0.0225004
41.7492 17.825 0.0185415
38.6798 14.7933 0.0173958
35.7704 14.7439 2
45.6695 27.7405 2
38.6804 17.5805 2
41.3437 20.7036 2
43.8259 24.0078 2
33.6062 15.862 3.98209
43.1382 26.4235 3.98213
40.928 23.279 3.98172
38.4225 20.3127 3.97874
35.8468 17.495 3.98144
39.2328 37.4962 3.94459
41.0089 37.4913 2
42.9082 37.5018 0.0114834
43.7429 54.4487 0.0163842
43.7536 50.541 0.00790928
40.968 39.1853 0.0459428
41.9846 45.2208 0.0820959
42.0508 47.7476 -0.0214683
39.5293 44.6702 0.0136457
39.2326 40.8829 0.048231
37.5044 42.788 0.047364
41.8902 53.0182 2
39.2267 39.1792 2
37.5067 40.9281 2
40.9988 49.7646 2
35.704 42.6784 2
39.8639 46.1031 2
37.4968 44.9719 2
39.8283 51.9353 3.98108
37.5048 39.191 3.94877
35.7845 40.9007 3.95274
34.0725 42.3601 4.00193
35.4634 44.6683 3.98556
38.7646 48.8923 4.03067
37.4936 46.4042 3.948
40.4218 54.9536 0.0177933
38.7319 53.8849 2
36.7193 53.2241 3.98346
35.3634 60.9286 0.0167045
36.934 57.6437 0.0181752
38.0006 55.2686 0.0169776
34.4868 58.5377 2
36.3198 55.3992 2
33.2229 55.5168 3.98119
32.3557 59.7607 0.0167727
29.4024 60.3038 0.0169586
30.2947 57.8325 2
28.6734 55.3265 3.98144
28.0188 58.3902 0.0151932
26.9363 56.8445 2
25.2908 55.1744 3.98222
21.7894 55.3834 3.98342
25.3755 58.6155 0.0157795
23.8278 56.8352 2
20.2069 57.0632 3.98558
20.6387 58.8077 3.98595
21.324 57.4312 2
21.1637 61.1899 3.98656
21.9891 59.6467 2
22.7499 58.2678 0.0157299
21.8947 63.8494 3.98745
22.7346 62.0374 2
23.3979 60.371 0.0145839
24.4316 62.7839 0.0142751
23.6818 64.7203 2
22.8375 66.7422 3.98999
25.5481 65.501 0.0127364
24.8091 67.5983 2
24.0099 69.8077 3.99395
26.8365 68.3364 0.00992639
26.1654 70.6066 2
25.446 73.0099 4
28.3701 71.2654 0.00602537
27.7943 73.7222 2
30.1842 74.2788 0
27.8199 8.64484 3.9876
29.1537 5.87333 3.99044
29.8099 7.98508 2
30.7256 3.0966 3.99438
31.2517 5.32751 2
31.7873 7.4126 0.0117024
32.6053 0.320823 4
32.9803 2.69933 2
33.3464 4.92107 0.00913663
35.0474 0.0802903 2
35.2444 2.46157 0.00543367
37.5 0 0
39.2231 35.8268 3.94884
40.9607 35.8069 2
42.7736 35.7428 0.00960283
28.542 10.6825 2
26.6211 11.3776 3.98571
29.2239 12.6302 3.98453
37.4974 34.1125 3.95414
39.2211 34.1418 2
40.8783 34.2008 0.0375243
46.5401 31.4797 -0.00299676
43.8359 31.1845 0.0688926
41.3272 31.1108 0.0142233
39.2983 32.3625 0.029443
44.5853 29.6553 2
41.9927 29.7958 2
39.5355 30.3429 2
37.4974 32.2352 2
42.4409 28.3433 4.01887
39.8709 28.9098 3.94461
37.4969 30.0521 3.95207
35.6984 32.3585 3.96981
31.9128 14.4672 3.98328
34.091 12.9208 2
35.6913 11.7635 0.0157176
31.1848 11.9729 2
33.0967 11.2051 0.0150974
30.481 10.0076 0.0139367
45.6687 27.7411 0.0234861
43.8258 24.0074 0.0202023
35.7703 14.7443 0.0173334
41.3436 20.7036 0.0200249
38.6804 17.5808 0.0187297
33.6062 15.8615 2
35.8469 17.4946 2
43.1381 26.4211 2
38.4226 20.3126 2
40.9282 23.2793 2
33.5481 17.3724 3.98137
40.4946 25.5956 3.97556
38.0838 22.8506 3.98019
35.583 20.065 3.9802
37.5013 37.5096 3.94825
39.2325 37.4961 2
41.0094 37.4916 0.0511252
41.8906 53.0182 0.0182625
40.9986 49.7667 -0.00260044
39.2276 39.1775 0.0527335
39.8651 46.1004 0.0498779
37.4971 44.966 0.0368251
37.5071 40.9245 0.0485438
35.7041 42.673 0.0231051
39.8286 51.9336 2
37.5047 39.1926 2
35.7848 40.9048 2
38.764 48.8934 2
34.072 42.3619 2
35.4614 44.673 2
37.4906 46.4086 2
37.66 51.0728 3.97736
35.7865 39.2008 3.94614
34.1333 40.8353 3.96059
32.9179 42.0063 3.99884
33.6714 43.9122 3.98593
35.1344 46.106 3.94194
36.8773 48.5023 4.03326
38.7318 53.8859 0.014649
36.7193 53.224 2
34.3473 52.4981 3.98235
34.4868 58.5377 0.0176292
36.3197 55.3993 0.0186065
33.223 55.5165 2
30.4965 53.4323 3.97944
30.2947 57.8323 0.0170852
28.6734 55.3267 2
26.8517 53.4776 3.98055
26.9363 56.8443 0.016803
25.2908 55.1746 2
23.54 53.5234 3.98155
20.434 53.271 3.98275
19.9155 55.8689 3.98505
21.7893 55.3835 2
23.8278 56.835 0.016682
19.4292 57.9231 3.98577
20.2068 57.0634 2
19.7022 60.2265 3.9865
20.6387 58.8079 2
21.3241 57.431 0.0149424
20.2063 62.8727 3.98775
21.1637 61.1901 2
21.9892 59.6464 0.0141419
20.9389 65.7723 3.99007
21.8947 63.8497 2
22.7346 62.0372 0.0140348
23.6818 64.72 0.0127061
22.8375 66.7425 2
21.9126 68.8751 3.99394
24.8091 67.5979 0.00998818
24.0099 69.8079 2
23.1494 72.1454 4
26.1655 70.6063 0.00603991
25.446 73.0099 2
27.7943 73.7221 0
25.8593 9.37259 3.98745
27.0687 6.53702 3.9902
27.8199 8.64442 2
28.4879 3.64235 3.99423
29.1537 5.87292 2
29.8099 7.9855 0.0120588
30.1841 0.720592 4
30.7256 3.09632 2
31.2517 5.32791 0.00932322
32.6053 0.320817 2
32.9803 2.6996 0.00549359
35.0474 0.080333 0
37.4982 35.8336 3.94888
39.2227 35.8251 2
40.9617 35.8083 0.0477785
24.776 12.06 3.98585
23.7497 14.343 3.98534
28.542 10.6829 0.014378
26.621 11.3773 2
29.2238 12.6298 2
27.29 13.3624 3.9846
29.7788 14.1891 3.98427
35.7771 34.1388 3.95522
37.497 34.1085 2
39.2221 34.1454 0.0427157
37.4971 32.2415 0.0520758
44.5791 29.6553 -0.00466365
41.9938 29.7966 0.0730267
39.534 30.3477 0.0223778
42.4438 28.3398 2
39.87 28.9058 2
37.4975 30.0439 2
35.699 32.3538 2
40.0944 27.5001 4.02624
37.4968 28.6062 3.94364
35.4597 30.3452 3.97721
34.0721 32.6688 3.99796
30.9244 16.8241 3.98354
31.9128 14.4668 2
34.091 12.9212 0.0163813
31.1848 11.9733 0.0155268
43.1382 26.4235 0.0178722
40.928 23.279 0.0182806
33.6062 15.862 0.0179084
35.8468 17.495 0.018562
38.4225 20.3127 0.0212636
33.5482 17.372 2
35.5831 20.0647 2
40.4943 25.5925 2
38.084 22.8507 2
32.8601 19.7827 3.97936
37.786 25.1716 3.97528
35.2048 22.6268 3.97947
35.7727 37.517 3.94268
37.5015 37.5094 2
39.2328 37.4962 0.0554119
39.8283 51.9353 0.0189241
38.7646 48.8923 -0.0306706
37.5048 39.191 0.0512251
37.4936 46.4042 0.0520039
35.4634 44.6683 0.0144423
35.7845 40.9007 0.0472592
34.0725 42.3601 -0.00193435
37.6597 51.0731 2
35.7872 39.203 2
34.134 40.8373 2
36.8769 48.5066 2
32.9167 42.0066 2
33.6691 43.9094 2
35.1348 46.1099 2
35.4037 50.2529 3.98316
34.0544 39.2129 3.9521
32.5598 40.8801 3.99931
32.1399 42.7614 3.9882
33.0134 45.2313 3.92249
34.238 47.5267 4.02612
36.7193 53.2241 0.0165401
34.3474 52.4974 2
31.9584 51.2711 3.98118
33.2229 55.5168 0.0188087
30.4966 53.4323 2
28.3829 51.6777 3.97892
28.6734 55.3265 0.0185598
26.8516 53.4778 2
25.031 51.8217 3.97934
25.2908 55.1744 0.0177805
23.5399 53.5234 2
21.9174 51.8616 3.9822
19.1579 51.6837 3.98302
18.8966 54.3489 3.9839
20.434 53.2709 2
18.4346 56.7572 3.98588
19.9154 55.8691 2
21.7894 55.3834 0.0165765
18.3626 59.1371 3.98626
19.4291 57.9232 2
20.2069 57.0632 0.0144178
18.6163 61.7826 3.98769
19.7021 60.2267 2
20.6387 58.8077 0.0140495
19.1274 64.6844 3.99017
20.2063 62.873 2
21.1637 61.1899 0.0134405
19.8867 67.8122 3.99398
20.9389 65.7726 2
21.8947 63.8494 0.0125486
22.8375 66.7422 0.0100095
21.9125 68.8754 2
20.9142 71.1327 4
24.0099 69.8077 0.00604947
23.1494 72.1455 2
25.446 73.0099 0
23.0953 12.7739 3.98592
23.9721 10.1587 3.98736
25.0228 7.30681 3.99003
25.8593 9.37223 2
26.2797 4.32638 3.99406
27.0687 6.53662 2
27.8199 8.64484 0.012397
27.7943 1.27781 4
28.4879 3.64206 2
29.1537 5.87333 0.00956036
30.1841 0.720551 2
30.7256 3.0966 0.00561666
32.6053 0.320823 0
35.7751 35.835 3.94577
37.4986 35.8316 2
39.2231 35.8268 0.0511553
24.776 12.0597 2
23.7497 14.3428 2
22.478 15.0183 3.98551
25.3561 13.8933 3.98509
24.0225 15.604 3.98501
26.6211 11.3776 0.0142941
29.2239 12.6302 0.0154727
27.29 13.3621 2
29.7788 14.1887 2
28.355 15.9626 3.98413
34.13 34.2014 3.96051
35.7774 34.1354 2
37.4974 34.1125 0.0458562
35.6984 32.3585 0.0301939
37.4969 30.0521 0.0479294
42.4409 28.3433 -0.0188658
39.8709 28.9098 0.0553948
40.0958 27.4969 2
37.4982 28.5969 2
35.4595 30.341 2
34.0726 32.6663 2
37.6004 27.1481 4.02841
35.1188 28.9062 3.94499
33.6674 31.1118 3.98572
32.9206 33.03 3.99586
30.2047 19.3264 3.98473
30.9244 16.8238 2
31.9128 14.4672 0.0167166
40.4946 25.5956 0.0244354
38.0838 22.8506 0.0198115
33.5481 17.3724 0.01863
35.583 20.065 0.0197972
32.8602 19.7823 2
35.2051 22.6266 2
37.7855 25.1726 2
32.3059 22.4009 3.97984
34.9309 25.1406 3.97367
34.0021 37.5191 3.94773
35.7734 37.5172 2
37.5013 37.5096 0.0517527
37.66 51.0728 0.0226366
36.8773 48.5023 -0.0332602
35.7865 39.2008 0.0538623
35.1344 46.106 0.0580602
33.6714 43.9122 0.0140694
34.1333 40.8353 0.0394075
32.9179 42.0063 0.00115871
35.4036 50.2513 2
34.0557 39.2139 2
32.56 40.8807 2
34.2372 47.5323 2
32.137 42.7564 2
33.0135 45.2339 2
33.1536 49.2426 3.98344
32.2311 39.2849 3.99058
30.9482 41.267 3.98778
31.1696 43.8453 3.93001
32.1394 46.4654 4.01655
34.3473 52.4981 0.0176516
31.9585 51.2706 2
29.7789 49.7897 3.97996
30.4965 53.4323 0.0205556
28.3828 51.6781 2
26.4335 50.0653 3.97705
26.8517 53.4776 0.019449
25.031 51.8216 2
23.2745 50.2604 3.98258
23.54 53.5234 0.0184541
21.9175 51.8614 2
20.409 50.3701 3.9835
17.9419 50.3761 3.98453
17.8013 52.8342 3.98371
19.1581 51.6835 2
17.4191 55.3759 3.98502
18.8965 54.349 2
20.434 53.271 0.0172505
17.1265 57.9017 3.98648
18.4345 56.7573 2
19.9155 55.8689 0.0149463
17.1328 60.5686 3.9874
18.3626 59.1373 2
19.4292 57.9231 0.0142278
17.4073 63.4786 3.99017
18.6163 61.7829 2
19.7022 60.2265 0.0134972
17.9428 66.6212 3.99402
19.1274 64.6847 2
20.2063 62.8727 0.0122504
18.75 69.9759 4
19.8867 67.8124 2
20.9389 65.7723 0.00993419
21.9126 68.8751 0.00605554
20.9142 71.1327 2
23.1494 72.1454 0
21.5858 13.5929 3.98602
22.1903 11.0172 3.9873
23.0952 12.7736 2
23.041 8.17172 3.98996
23.9721 10.1583 2
24.1174 5.14092 3.99392
25.0228 7.30642 2
25.8593 9.37259 0.0125494
25.446 1.99014 4
26.2797 4.32609 2
27.0687 6.53702 0.00979585
27.7943 1.27778 2
28.4879 3.64235 0.00576591
30.1841 0.720592 0
34.0411 35.8246 3.94954
35.7764 35.8333 2
37.4982 35.8336 0.0511233
21.3026 15.8121 3.98544
24.776 12.06 0.0141499
23.7497 14.343 0.0146632
25.3561 13.8931 2
22.478 15.018 2
24.0225 15.6038 2
23.2613 16.2344 3.9849
25.378 16.0724 3.98471
27.29 13.3624 0.0153977
29.7788 14.1891 0.0157341
28.355 15.9623 2
27.4359 18.7824 3.98441
32.5642 34.1618 4.00152
34.1303 34.1991 2
35.7771 34.1388 0.0447805
34.0721 32.6688 0.0020387
35.4597 30.3452 0.0227948
37.4968 28.6062 0.0563555
40.0944 27.5001 -0.0262412
37.6 27.1423 2
32.9204 33.0305 2
35.1215 28.903 2
33.6651 31.1135 2
35.0062 27.2986 4.02136
32.9979 29.8003 3.92604
32.1432 32.274 3.98994
29.5655 21.9209 3.98644
30.2047 19.326 2
30.9244 16.8241 0.0164613
37.786 25.1716 0.0247203
35.2048 22.6268 0.020528
32.8601 19.7827 0.0206398
32.3063 22.4006 2
34.9306 25.1388 2
31.6127 25.577 3.97796
32.0964 37.522 3.98792
34.0032 37.5189 2
35.7727 37.517 0.0573209
35.4037 50.2529 0.0168401
34.238 47.5267 -0.0261191
34.0544 39.2129 0.0479024
33.0134 45.2313 0.0775074
32.1399 42.7614 0.0118027
32.5598 40.8801 0.000692985
33.1537 49.24 2
32.2322 39.2851 2
30.9475 41.2638 2
32.1365 46.4722 2
31.1692 43.8457 2
31.0202 47.9525 3.97657
30.1954 39.5152 3.98474
29.7276 42.041 3.93065
30.2302 45.065 4.00308
31.9584 51.2711 0.0188168
29.779 49.7915 2
27.7621 48.2588 3.98053
28.3829 51.6777 0.0210756
26.4335 50.0647 2
24.5549 48.5417 3.98409
25.031 51.8217 0.0206613
23.2747 50.26 2
21.5752 48.8514 3.98568
21.9174 51.8616 0.0178002
20.4093 50.3697 2
18.9745 49.1422 3.98608
16.8481 49.3731 3.98602
16.7379 51.4482 3.98436
17.9421 50.376 2
16.3664 53.9072 3.98458
17.8014 52.8342 2
19.1579 51.6837 0.0169826
15.9652 56.5054 3.9861
17.419 55.376 2
18.8966 54.3489 0.0161012
15.745 59.2318 3.98735
17.1265 57.9019 2
18.4346 56.7572 0.0141171
15.7872 62.1511 3.98998
17.1328 60.5688 2
18.3626 59.1371 0.0137394
16.0893 65.3043 3.99404
17.4073 63.479 2
18.6163 61.7826 0.0123116
16.6661 68.6801 4
17.9428 66.6215 2
19.1274 64.6844 0.00982514
18.75 69.9759 2
19.8867 67.8122 0.00601783
20.9142 71.1327 0
20.2173 14.5799 3.98596
21.5858 13.5925 2
20.5295 11.9861 3.9873
21.1442 9.14093 3.98991
22.1903 11.0169 2
23.0953 12.7739 0.0140792
22.0166 6.0797 3.99386
23.041 8.17134 2
23.9721 10.1587 0.012638
23.1494 2.85457 4
24.1174 5.14063 2
25.0228 7.30681 0.00996775
25.446 1.99012 2
26.2797 4.32638 0.00593507
27.7943 1.27781 0
32.2245 35.7582 3.99022
34.043 35.8233 2
35.7751 35.835 0.0542263
21.3025 15.8118 2
20.2987 16.9434 3.98572
22.094 16.617 3.9852
25.3561 13.8933 0.0149062
22.478 15.0183 0.0144909
24.0225 15.604 0.0149866
25.3779 16.0722 2
23.2613 16.2341 2
24.2 18.4318 3.98437
27.0026 21.44 3.98403
28.355 15.9626 0.0158685
27.4359 18.7822 2
30.9578 33.7795 3.98685
32.5636 34.161 2
34.13 34.2014 0.0394923
32.9206 33.03 0.0041438
33.6674 31.1118 0.0142752
35.1188 28.9062 0.0550096
37.6004 27.1481 -0.0284122
35.0059 27.2946 2
32.1428 32.2785 2
33.0006 29.8007 2
32.4079 28.0375 4.01327
31.1626 31.2015 3.9345
28.735 24.3885 3.9875
29.5658 21.9205 2
30.2047 19.3264 0.0152682
34.9309 25.1406 0.0263269
32.3059 22.4009 0.0201596
31.6115 25.5767 2
29.5189 27.2029 3.99112
29.9143 37.5209 3.9843
32.0971 37.5221 2
34.0021 37.5191 0.0522742
33.1536 49.2426 0.0165567
32.1394 46.4654 -0.0165539
32.2311 39.2849 0.00942367
31.1696 43.8453 0.0699946
30.9482 41.267 0.0122155
31.0202 47.947 2
30.1966 39.5139 2
29.7307 42.0432 2
30.2251 45.0704 2
29.021 46.5026 3.97497
28.8156 39.9159 3.93793
28.4391 43.2837 4.00385
29.7789 49.7897 0.0200379
27.7622 48.2573 2
25.809 46.7306 3.9888
26.4335 50.0653 0.0229469
24.5551 48.5411 2
22.6983 47.1485 3.9906
23.2745 50.2604 0.0174246
21.5756 48.8508 2
19.9103 47.6713 3.98858
20.409 50.3701 0.0164977
18.9747 49.1421 2
17.6169 48.2216 3.98696
16.0993 48.7211 3.98656
16.8483 49.3731 2
15.8135 50.2083 3.98541
15.3524 52.4513 3.9847
16.738 51.4482 2
17.9419 50.3761 0.0154712
14.8537 55.0077 3.98552
16.3664 53.9072 2
17.8013 52.8342 0.0162884
14.4529 57.7624 3.98719
15.9652 56.5056 2
17.4191 55.3759 0.0149826
14.2648 60.7074 3.98974
15.745 59.2321 2
17.1265 57.9017 0.0135208
14.3332 63.864 3.99394
15.7873 62.1514 2
17.1328 60.5686 0.0126047
14.6715 67.2507 4
16.0893 65.3046 2
17.4073 63.4786 0.00982631
16.6661 68.6801 2
17.9428 66.6212 0.00597691
18.75 69.9759 0
18.9302 15.7643 3.98605
20.2173 14.5796 2
18.9789 13.0953 3.98723
21.5858 13.5929 0.0139762
20.5295 11.9857 2
19.3437 10.228 3.98986
19.9913 7.14411 3.99385
21.1442 9.14053 2
22.1903 11.0172 0.0127014
20.9142 3.86727 4
22.0166 6.07941 2
23.041 8.17172 0.0100381
23.1494 2.85451 2
24.1174 5.14092 0.00608418
25.446 1.99014 0
30.1934 35.5264 3.9863
32.2263 35.758 2
34.0411 35.8246 0.0504637
21.3026 15.8121 0.014561
22.094 16.6168 2
20.2987 16.9431 2
19.236 18.3872 3.9857
21.7775 17.8305 3.98519
25.378 16.0724 0.0152886
23.2613 16.2344 0.0150969
24.2 18.4316 2
22.268 19.8685 3.98503
24.5776 21.2979 3.98423
26.3682 23.6979 3.98742
27.0028 21.4397 2
27.4359 18.7824 0.0155942
29.7374 33.0066 3.93498
30.9565 33.783 2
32.5642 34.1618 -0.00151614
32.1432 32.274 0.0100636
32.9979 29.8003 0.0739559
35.0062 27.2986 -0.0213562
32.407 28.0345 2
31.1648 31.2037 2
29.9142 29.4832 4.00472
27.7704 26.5133 3.97672
28.7343 24.3877 2
29.5655 21.9209 0.0135608
31.6127 25.577 0.0220397
29.5176 27.2029 2
28.4741 37.519 3.94083
29.9149 37.5218 2
32.0964 37.522 0.0120784
31.0202 47.9525 0.0234306
30.2302 45.065 -0.00308068
30.1954 39.5152 0.0152598
29.7276 42.041 0.0693523
29.0216 46.4992 2
28.8188 39.9164 2
28.4379 43.2849 2
27.0825 44.8634 3.97591
26.5482 40.6695 4.00327
27.7621 48.2588 0.019466
25.8096 46.7297 2
23.8347 45.2791 3.99245
24.5549 48.5417 0.015906
22.6987 47.1474 2
20.8277 45.9525 3.99114
21.5752 48.8514 0.0143182
19.9104 47.6713 2
18.2543 46.7807 3.98785
18.9745 49.1422 0.0139239
17.6171 48.2216 2
16.2857 47.7501 3.98636
16.0994 48.7212 2
15.1583 49.0503 3.9859
16.8481 49.3731 0.013981
15.8136 50.2083 2
14.4638 51.018 3.98518
13.813 53.4638 3.98532
15.3525 52.4513 2
16.7379 51.4482 0.0156445
13.2461 56.1913 3.98676
14.8537 55.0079 2
16.3664 53.9072 0.0154241
12.8467 59.1424 3.9894
14.4529 57.7626 2
15.9652 56.5054 0.0139024
12.6784 62.3071 3.99377
14.2648 60.7078 2
15.745 59.2318 0.012646
12.7746 65.6939 4
14.3332 63.8643 2
15.7872 62.1511 0.0100221
14.6714 67.2507 2
16.0893 65.3043 0.00596217
16.6661 68.6801 0
17.6634 17.1371 3.98603
18.9302 15.764 2
17.5097 14.3572 3.98713
20.2173 14.5799 0.0140398
18.9789 13.0949 2
17.6392 11.4457 3.9898
20.5295 11.9861 0.0127028
19.3437 10.2276 2
18.0516 8.33659 3.99385
18.75 5.0241 4
19.9913 7.14381 2
21.1442 9.14093 0.0100921
20.9142 3.86727 2
22.0166 6.0797 0.00613723
23.1494 2.85457 0
28.8038 35.1236 3.93684
30.1954 35.5306 2
32.2245 35.7582 0.00978196
22.094 16.617 0.0148048
20.2987 16.9434 0.0142762
21.7774 17.8302 2
19.2359 18.387 2
17.9684 19.9159 3.98574
20.8674 19.3543 3.98532
24.2 18.4318 0.0156286
22.268 19.8682 2
24.5778 21.2975 2
22.3388 21.6896 3.98513
24.656 23.1415 3.98646
25.3684 25.9232 3.98188
26.3678 23.6972 2
27.0026 21.44 0.0159709
28.1019 32.2589 4.00737
29.7396 33.0061 2
30.9578 33.7795 0.0131457
31.1626 31.2015 0.0655011
32.4079 28.0375 -0.0132706
29.9131 29.4823 2
26.8695 29.1234 3.96476
27.7692 26.5127 2
28.735 24.3885 0.0125034
29.5189 27.2029 0.0088778
26.6606 37.3576 4.00689
28.4767 37.518 2
29.9143 37.5209 0.0157036
29.021 46.5026 0.0250319
28.4391 43.2837 -0.00385471
28.8156 39.9159 0.0620728
27.0834 44.862 2
26.5488 40.6686 2
25.048 43.2298 3.98935
23.8016 39.4456 3.97575
25.809 46.7306 0.0112
23.8353 45.2798 2
21.7914 44.0024 3.98958
22.6983 47.1485 0.00939649
20.828 45.9528 2
18.9052 45.0112 3.98703
19.9103 47.6713 0.0114189
18.2545 46.7807 2
16.5698 46.2468 3.98582
17.6169 48.2216 0.0130411
16.2858 47.7502 2
14.8848 47.7022 3.98563
16.0993 48.7211 0.0134432
15.1584 49.0504 2
13.7599 49.5765 3.98542
15.8135 50.2083 0.0145932
14.4639 51.0181 2
12.8779 51.9014 3.98538
12.1319 54.5498 3.98639
13.813 53.4639 2
15.3524 52.4513 0.0153001
11.5304 57.4754 3.98881
13.2461 56.1915 2
14.8537 55.0077 0.0144753
11.1329 60.634 3.99359
12.8467 59.1428 2
14.4529 57.7624 0.0128098
10.9835 64.0165 4
12.6784 62.3075 2
14.2648 60.7074 0.0102554
12.7745 65.694 2
14.3332 63.864 0.00606386
14.6715 67.2507 0
16.3939 18.6279 3.98617
17.6634 17.1368 2
16.1 15.7641 3.98702
18.9302 15.7643 0.0139453
17.5097 14.3568 2
16.0206 12.7974 3.98965
18.9789 13.0953 0.0127744
17.6392 11.4453 2
16.2027 9.65916 3.99381
19.3437 10.228 0.0101353
18.0516 8.33628 2
16.6661 6.31991 4
18.75 5.02404 2
19.9913 7.14411 0.00614608
20.9142 3.86727 0
27.1729 34.7266 4.00873
28.8066 35.1228 2
30.1934 35.5264 0.0136981
16.6641 21.3475 3.98505
21.7775 17.8305 0.014812
19.236 18.3872 0.014301
20.8674 19.354 2
17.9684 19.9157 2
19.7061 21.5432 3.986
22.268 19.8685 0.014969
24.5776 21.2979 0.0157729
22.3388 21.6891 2
24.6557 23.141 2
22.7886 24.571 3.98356
24.4219 28.5058 3.97708
25.3674 25.9228 2
26.3682 23.6979 0.0125817
25.948 31.7074 3.97673
28.1015 32.2584 2
29.7374 33.0066 0.0650173
29.9142 29.4832 -0.00471794
26.8685 29.124 2
27.7704 26.5133 0.0232775
24.4805 36.8738 3.98371
26.66 37.358 2
28.4741 37.519 0.0591742
27.0825 44.8634 0.0240936
26.5482 40.6695 -0.00326998
25.0482 43.2289 2
23.8019 39.4469 2
22.8312 41.8398 3.98259
21.5632 38.509 3.98436
23.8347 45.2791 0.00754586
21.7918 44.0034 2
19.6467 42.9231 3.98497
20.8277 45.9525 0.00886145
18.9054 45.0113 2
16.8921 44.4101 3.98479
18.2543 46.7807 0.0121497
16.5699 46.2469 2
14.8012 46.1193 3.98478
16.2857 47.7501 0.013644
14.8849 47.7024 2
13.2644 48.0362 3.9851
15.1583 49.0503 0.0140953
13.7599 49.5766 2
12.0953 50.2777 3.98541
14.4638 51.018 0.0148246
12.8779 51.9015 2
11.1261 52.8576 3.98617
10.3199 55.7273 3.9882
12.1319 54.55 2
13.813 53.4638 0.0146832
9.6996 58.8576 3.99326
11.5304 57.4757 2
13.2461 56.1913 0.0132439
9.30605 62.2254 4
11.133 60.6343 2
12.8467 59.1424 0.0105956
10.9835 64.0165 2
12.6784 62.3071 0.00623031
12.7746 65.6939 0
15.1357 20.1596 3.9858
16.3938 18.6276 2
14.7446 17.2845 3.98686
17.6634 17.1371 0.0139658
16.1 15.7637 2
14.4827 14.2772 3.98944
17.5097 14.3572 0.012873
16.0206 12.797 2
14.4453 11.1098 3.9937
17.6392 11.4457 0.0102042
16.2027 9.65884 2
14.6715 7.74927 4
18.0516 8.33659 0.00615473
16.6661 6.31988 2
18.75 5.0241 0
25.1221 34.2807 3.98733
27.1722 34.7261 2
28.8038 35.1236 0.0631581
17.832 22.2918 3.98639
15.5041 22.8892 3.98431
16.664 21.3472 2
20.8674 19.3543 0.0146811
17.9684 19.9159 0.0142567
19.7061 21.5429 2
19.6182 24.3486 3.98519
22.3388 21.6896 0.0148651
24.656 23.1415 0.0135448
22.788 24.5705 2
21.8133 27.7956 3.97739
23.5797 31.1664 3.98276
24.4212 28.5061 2
25.3684 25.9232 0.018118
25.9479 31.7094 2
28.1019 32.2589 -0.00736534
26.8695 29.1234 0.0352408
22.2677 36.2655 3.99114
24.4802 36.8749 2
26.6606 37.3576 -0.00689197
25.048 43.2298 0.0106532
23.8016 39.4456 0.0242528
22.8311 41.8407 2
21.5634 38.5092 2
20.5573 40.653 3.98159
19.9312 37.7859 3.98664
21.7914 44.0024 0.0104235
19.6469 42.9234 2
17.28 42.1238 3.98335
18.9052 45.0112 0.0129655
16.8923 44.4103 2
14.7981 44.2248 3.98338
16.5698 46.2468 0.0141829
14.8012 46.1194 2
12.9337 46.3199 3.98434
14.8848 47.7022 0.0143733
13.2645 48.0363 2
11.4649 48.5723 3.98511
13.7599 49.5765 0.0145796
12.0953 50.2779 2
10.2507 51.0995 3.986
12.8779 51.9014 0.0146182
11.1261 52.8578 2
9.2279 53.9044 3.98776
8.38322 56.9913 3.99282
10.3199 55.7276 2
12.1319 54.5498 0.0136139
7.74927 60.3285 4
9.69963 58.8579 2
11.5304 57.4754 0.011186
9.306 62.2255 2
11.1329 60.634 0.00641182
10.9835 64.0165 0
13.9447 21.7246 3.98538
15.1357 20.1592 2
13.4437 18.8795 3.98667
16.3939 18.6279 0.013834
14.7446 17.2841 2
13.0277 15.868 3.98911
16.1 15.7641 0.0129774
14.4828 14.2768 2
12.7825 12.6825 3.99355
16.0206 12.7974 0.0103514
14.4454 11.1094 2
12.7746 9.30605 4
16.2027 9.65916 0.00619148
14.6715 7.74924 2
16.6661 6.31991 0
22.8658 33.7832 3.99048
25.1219 34.2819 2
27.1729 34.7266 -0.00873362
17.5907 24.0101 3.98527
17.8318 22.2914 2
14.283 24.4217 3.98323
15.5038 22.8888 2
16.6641 21.3475 0.0149478
18.9607 27.1719 3.97965
19.7061 21.5432 0.013998
19.6177 24.3483 2
21.0387 30.6401 3.98042
22.7886 24.571 0.0164412
21.8127 27.7957 2
23.5797 31.1672 2
24.4219 28.5058 0.0229204
25.948 31.7074 0.0232706
20.0426 35.9151 3.9888
22.2674 36.2657 2
24.4805 36.8738 0.0162911
22.8312 41.8398 0.0174148
21.5632 38.509 0.0156376
20.5574 40.6529 2
19.9312 37.7861 2
17.9386 39.0106 3.98471
19.6467 42.9231 0.0150254
17.2802 42.124 2
14.7404 41.9358 3.98294
16.8921 44.4101 0.0152064
14.7982 44.2249 2
12.6708 44.4122 3.98331
14.8012 46.1193 0.0152198
12.9337 46.3201 2
10.9648 46.7534 3.98444
13.2644 48.0362 0.0149013
11.4649 48.5725 2
9.51279 49.2573 3.98567
12.0953 50.2777 0.0145892
10.2507 51.0997 2
8.26009 52.0159 3.98747
11.1261 52.8576 0.0138322
9.22792 53.9047 2
7.19218 55.0422 3.99237
6.31991 58.3339 4
8.38325 56.9917 2
10.3199 55.7273 0.0117982
7.74924 60.3285 2
9.6996 58.8576 0.00673692
9.30605 62.2254 0
13.2032 25.3375 3.98528
12.8092 23.2542 3.98478
13.9446 21.7242 2
12.2272 20.5275 3.9865
15.1357 20.1596 0.0142045
13.4437 18.8792 2
11.6568 17.5477 3.98876
14.7446 17.2845 0.0131425
13.0278 15.8676 2
11.2198 14.3666 3.99334
14.4827 14.2772 0.0105618
12.7825 12.6821 2
10.9835 10.9835 4
14.4453 11.1098 0.00629956
12.7745 9.306 2
14.6715 7.74927 0
20.4376 33.377 3.98678
22.8655 33.7837 2
25.1221 34.2807 0.0126704
15.8569 26.3722 3.98178
17.5904 24.0097 2
17.832 22.2918 0.0136086
14.2828 24.4214 2
15.5041 22.8892 0.0156932
18.2919 30.1485 3.97975
18.9603 27.1718 2
19.6182 24.3486 0.014814
21.0387 30.6407 2
21.8133 27.7956 0.0226056
23.5797 31.1664 0.017235
17.5568 35.9588 3.98932
20.0423 35.9156 2
22.2677 36.2655 0.00886245
20.5573 40.653 0.0184137
19.9312 37.7859 0.0133613
17.9386 39.0107 2
14.2396 39.1846 3.98551
17.28 42.1238 0.0166536
14.7405 41.9359 2
12.3551 42.2922 3.98383
14.7981 44.2248 0.0166166
12.6709 44.4124 2
10.54 44.8191 3.98378
12.9337 46.3199 0.0156565
10.9648 46.7536 2
8.89419 47.3343 3.98508
11.4649 48.5723 0.0148946
9.51279 49.2576 2
7.42637 50.0476 3.9872
10.2507 51.0995 0.0140049
8.2601 52.0161 2
6.13259 53.0171 3.99191
9.2279 53.9044 0.0122393
7.19221 55.0426 2
5.0241 56.25 4
6.31988 58.3339 2
8.38322 56.9913 0.0071792
7.74927 60.3285 0
13.4356 26.7908 3.98266
11.921 24.765 3.98404
13.2029 25.3373 2
11.1283 22.2126 3.98605
12.8089 23.2538 2
13.9447 21.7246 0.0146161
12.2271 20.5271 2
10.3859 19.302 3.98843
13.4437 18.8795 0.013326
11.6568 17.5472 2
9.76064 16.1488 3.99313
13.0277 15.868 0.0108867
11.2198 14.3661 2
9.30607 12.7746 4
12.7825 12.6825 0.00645395
10.9835 10.9835 2
12.7746 9.30605 0
17.7472 33.0952 3.98498
20.4373 33.3775 2
22.8658 33.7832 0.00952176
15.4368 29.6148 3.98097
15.8565 26.372 2
17.5907 24.0101 0.0147257
14.283 24.4217 0.0167722
18.2919 30.1488 2
18.9607 27.1719 0.0203482
21.0387 30.6401 0.0195793
14.8257 36.0151 3.98784
17.5564 35.9591 2
20.0426 35.9151 0.0111978
12.5419 37.833 3.98493
17.9386 39.0106 0.0152868
14.2395 39.1848 2
11.8651 40.152 3.98582
14.7404 41.9358 0.0170609
12.3552 42.2924 2
10.1376 42.7909 3.98354
12.6708 44.4122 0.0166913
10.5401 44.8192 2
8.37104 45.3339 3.98464
10.9648 46.7534 0.0155603
8.89419 47.3345 2
6.71716 48.0113 3.98681
9.51279 49.2573 0.0143302
7.42635 50.0478 2
5.20905 50.92 3.99137
8.26009 52.0159 0.0125323
6.13262 53.0175 2
3.86727 54.0858 4
7.19218 55.0422 0.00763162
5.02404 56.25 2
6.31991 58.3339 0
12.8876 29.014 3.98116
11.349 26.4676 3.98338
13.4353 26.7907 2
10.1863 23.9484 3.98504
11.9207 24.7647 2
13.2032 25.3375 0.014719
9.23696 21.1216 3.98788
11.1282 22.2122 2
12.8092 23.2542 0.0152241
12.2272 20.5275 0.0134978
10.3859 19.3015 2
8.41648 18.0187 3.9929
11.6568 17.5477 0.0112381
9.76069 16.1484 2
7.74928 14.6715 4
11.2198 14.3666 0.00665996
9.30602 12.7745 2
10.9835 10.9835 0
14.4221 32.8481 3.98415
17.7469 33.0956 2
20.4376 33.377 0.0132207
15.4368 29.615 2
15.8569 26.3722 0.0182178
18.2919 30.1485 0.0202465
12.8276 36.2072 3.98602
14.8254 36.0153 2
17.5568 35.9588 0.0106799
12.5417 37.8332 2
11.2225 38.316 3.98459
14.2396 39.1846 0.014486
11.8651 40.1522 2
9.72113 40.7638 3.9851
12.3551 42.2922 0.0161661
10.1376 42.7911 2
7.91937 43.2802 3.98429
10.54 44.8191 0.0162211
8.37107 45.3341 2
6.12287 45.9149 3.9865
8.89419 47.3343 0.0149215
6.71714 48.0115 2
4.42029 48.7599 3.99077
7.42637 50.0476 0.0128021
5.20907 50.9204 2
2.85457 51.8506 4
6.13259 53.0171 0.00808505
3.86727 54.0858 2
5.0241 56.25 0
12.0258 31.2413 3.98442
10.7599 28.3987 3.98214
12.8876 29.0141 2
9.40019 25.7815 3.98434
11.3487 26.4674 2
13.4356 26.7908 0.017343
8.22333 23.0086 3.98695
10.1861 23.9481 2
11.921 24.765 0.015959
7.19847 19.968 3.99244
9.2369 21.1211 2
11.1283 22.2126 0.0139516
10.3859 19.302 0.0115739
8.41652 18.0182 2
6.31992 16.6661 4
9.76064 16.1488 0.00687096
7.74926 14.6714 2
9.30607 12.7746 0
12.0375 34.2866 3.98325
14.4219 32.8483 2
17.7472 33.0952 0.015016
15.4368 29.6148 0.0190336
10.7873 36.6119 3.98519
12.8273 36.2075 2
14.8257 36.0151 0.0121593
12.5419 37.833 0.015069
11.2223 38.3163 2
9.31497 38.8294 3.98525
11.8651 40.152 0.0141808
9.7211 40.764 2
7.5297 41.2189 3.9851
10.1376 42.7909 0.0164555
7.91935 43.2804 2
5.63436 43.7762 3.98621
8.37104 45.3339 0.0153581
6.12287 45.9151 2
3.76566 46.5448 3.9903
6.71716 48.0113 0.0131931
4.4203 48.7603 2
1.99014 49.554 4
5.20905 50.92 0.00862723
2.85451 51.8506 2
3.86727 54.0858 0
10.8888 32.9081 3.98421
10.0714 30.3692 3.98354
12.0256 31.2413 2
8.70753 27.7184 3.98342
10.7598 28.3987 2
12.8876 29.014 0.0188415
7.3483 24.9699 3.98635
9.4 25.7813 2
11.349 26.4676 0.016616
6.1152 21.9919 3.99158
8.22324 23.0082 2
10.1863 23.9484 0.014963
5.02411 18.75 4
7.19849 19.9675 2
9.23696 21.1216 0.0121213
8.41648 18.0187 0.00710229
6.3199 16.6661 2
7.74928 14.6715 0
10.4018 34.996 3.98384
12.0372 34.2867 2
14.4221 32.8481 0.0158514
8.98895 36.9863 3.98503
10.787 36.6121 2
12.8276 36.2072 0.0139759
11.2225 38.316 0.0154069
9.31483 38.8296 2
7.20923 39.1868 3.98566
9.72113 40.7638 0.0148991
7.52966 41.219 2
5.24934 41.6199 3.98625
7.91937 43.2802 0.0157072
5.63433 43.7764 2
3.24306 44.2886 3.99007
6.12287 45.9149 0.0135048
3.76566 46.5451 2
1.27781 47.2057 4
4.42029 48.7599 0.00922726
1.99012 49.554 2
2.85457 51.8506 0
10.0574 33.8742 3.98334
9.36354 32.1445 3.98448
10.8887 32.9081 2
8.05599 29.6848 3.98378
10.0712 30.3692 2
12.0258 31.2413 0.0155808
6.5916 26.998 3.98563
8.70742 27.7183 2
10.7599 28.3987 0.0178559
5.17018 24.0858 3.99077
7.34817 24.9696 2
9.40019 25.7815 0.0156649
3.86728 20.9142 4
6.1152 21.9914 2
8.22333 23.0086 0.0130462
5.02406 18.75 2
7.19847 19.968 0.00755713
6.31992 16.6661 0
8.8167 35.2767 3.98465
10.4016 34.9961 2
12.0375 34.2866 0.0167473
6.99454 37.207 3.98526
8.98874 36.9865 2
10.7873 36.6119 0.0148078
9.31497 38.8294 0.0147548
7.20911 39.187 2
4.97637 39.471 3.98682
7.5297 41.2189 0.014897
5.24929 41.6201 2
2.85338 42.0074 3.98974
5.63436 43.7762 0.013787
3.24304 44.2889 2
0.720592 44.8159 4
3.76566 46.5448 0.00970427
1.27778 47.2057 2
1.99014 49.554 0
8.85987 33.6912 3.98431
10.0572 33.8743 2
7.49243 31.601 3.98475
9.36336 32.1445 2
10.8888 32.9081 0.0157927
5.93641 29.0611 3.98547
8.05587 29.6847 2
10.0714 30.3692 0.0164609
4.35752 26.2396 3.99013
6.59151 26.9978 2
8.70753 27.7184 0.0165816
2.85458 23.1494 4
5.17015 24.0854 2
7.3483 24.9699 0.0136491
3.86728 20.9142 2
6.1152 21.9919 0.0084206
5.02411 18.75 0
6.94551 35.3038 3.98511
8.8165 35.2767 2
10.4018 34.996 0.0161637
4.82738 37.3407 3.98639
6.99438 37.2072 2
8.98895 36.9863 0.0149743
7.20923 39.1868 0.0143444
4.97626 39.4713 2
2.60106 39.7172 3.99006
5.24934 41.6199 0.013755
2.85335 42.0077 2
0.320823 42.3947 4
3.24306 44.2886 0.00993301
0.720551 44.8159 2
1.27781 47.2057 0
7.10591 33.4556 3.98487
8.8597 33.6913 2
10.0574 33.8742 0.0166551
5.40656 31.127 3.98606
7.49227 31.6009 2
9.36354 32.1445 0.0155189
3.67901 28.4367 3.98984
5.93631 29.061 2
8.05599 29.6848 0.0162178
1.99015 25.446 4
4.35748 26.2392 2
6.5916 26.998 0.0143666
2.85453 23.1494 2
5.17018 24.0858 0.00922586
3.86728 20.9142 0
4.84205 35.2498 3.9863
6.94535 35.3039 2
8.8167 35.2767 0.0153524
2.49273 37.4292 3.98949
4.82727 37.3409 2
6.99454 37.207 0.0147357
4.97637 39.471 0.0131831
2.60101 39.7174 2
0.080333 39.9526 4
2.85338 42.0074 0.0102558
0.320817 42.3947 2
0.720592 44.8159 0
5.03562 33.1859 3.98625
7.10576 33.4556 2
8.85987 33.6912 0.0156862
3.14298 30.6605 3.98999
5.40643 31.1269 2
7.49243 31.601 0.0152452
1.27793 27.7943 4
3.67896 28.4364 2
5.93641 29.0611 0.0145314
1.99013 25.446 2
4.35752 26.2396 0.0098665
2.85458 23.1494 0
2.545 35.1571 3.98951
4.84193 35.2499 2
6.94551 35.3038 0.0148914
0 37.5 4
2.49268 37.4294 2
4.82738 37.3407 0.0136118
2.60106 39.7172 0.00993765
0.0802903 39.9526 2
0.320823 42.3947 0
2.76273 32.9017 3.98987
5.03549 33.1859 2
7.10591 33.4556 0.0151315
0.721173 30.1842 4
3.14291 30.6603 2
5.40656 31.127 0.0139354
1.27779 27.7943 2
3.67901 28.4367 0.0101554
1.99015 25.446 0
0.0806499 35.0474 4
2.54494 35.1572 2
4.84205 35.2498 0.0137032
0 37.5 2
2.49273 37.4292 0.0105084
0.080333 39.9526 0
0.32156 32.6054 4
2.76267 32.9016 2
5.03562 33.1859 0.0137497
0.72056 30.1841 2
3.14298 30.6605 0.0100108
1.27793 27.7943 0
0.0802889 35.0474 2
2.545 35.1571 0.0104852
0 37.5 0
0.320817 32.6053 2
2.76273 32.9017 0.0101258
0.721173 30.1842 0
0.0806499 35.0474 0
0.32156 32.6054 0
CELLS 1910 17190
8 18 6 25 56 2 0 5 16
8 57 23 6 18 17 4 0 2
8 78 36 9 29 31 11 1 7
8 31 11 1 7 79 37 10 30
8 110 57 18 50 48 17 2 14
8 50 18 56 111 14 2 16 49
8 116 62 22 55 52 20 3 15
8 56 25 67 118 16 5 24 53
8 119 63 23 57 54 21 4 17
8 55 22 63 119 15 3 21 54
8 58 26 68 121 18 6 25 56
8 122 65 26 58 57 23 6 18
8 73 31 7 27 142 79 30 71
8 143 78 29 72 73 31 7 27
8 83 147 76 34 32 74 28 8
8 84 148 78 36 33 75 29 9
8 76 34 8 28 148 84 33 75
8 37 79 150 86 10 30 77 35
8 151 87 36 78 80 38 11 31
8 80 38 11 31 152 88 37 79
8 175 100 42 94 96 44 12 40
8 44 96 176 101 12 40 95 43
8 101 176 98 46 43 95 41 13
8 46 98 178 103 13 41 97 45
8 178 103 45 97 147 83 32 74
8 189 116 55 109 106 52 15 47
8 111 56 118 191 49 16 53 107
8 192 119 57 110 108 54 17 48
8 109 55 119 192 47 15 54 108
8 194 122 58 112 110 57 18 50
8 112 58 121 195 50 18 56 111
8 115 61 19 51 197 124 59 113
8 115 61 125 198 51 19 60 114
8 198 125 62 116 114 60 20 52
8 200 127 64 120 116 62 22 55
8 118 67 132 202 53 24 66 117
8 121 68 133 203 56 25 67 118
8 120 64 128 204 55 22 63 119
8 204 128 65 122 119 63 23 57
8 206 134 68 121 123 69 26 58
8 123 69 26 58 207 131 65 122
8 226 147 74 138 140 76 28 70
8 229 148 75 139 143 78 29 72
8 140 76 28 70 229 148 75 139
8 142 79 30 71 231 150 77 141
8 144 80 31 73 232 152 79 142
8 233 151 78 143 144 80 31 73
8 150 86 35 77 235 154 81 145
8 235 154 81 145 146 82 39 91
8 146 82 39 91 236 155 90 165
8 238 157 83 147 149 85 34 76
8 239 158 84 148 151 87 36 78
8 149 85 34 76 239 158 84 148
8 152 88 37 79 241 160 86 150
8 242 161 87 151 153 89 38 80
8 153 89 38 80 243 162 88 152
8 171 98 41 92 265 178 97 169
8 265 178 97 169 226 147 74 138
8 172 96 40 93 266 176 95 170
8 266 176 95 170 171 98 41 92
8 269 175 94 173 172 96 40 93
8 271 180 99 174 175 100 42 94
8 197 124 59 113 271 180 99 174
8 272 181 100 175 177 102 44 96
8 273 182 101 176 179 104 46 98
8 177 102 44 96 273 182 101 176
8 179 104 46 98 275 184 103 178
8 275 184 103 178 238 157 83 147
8 188 115 51 105 283 197 113 186
8 188 115 198 284 105 51 114 187
8 284 198 116 189 187 114 52 106
8 286 200 120 193 189 116 55 109
8 191 118 202 288 107 53 117 190
8 195 121 203 289 111 56 118 191
8 193 120 204 290 109 55 119 192
8 290 204 122 194 192 119 57 110
8 196 123 58 112 292 207 122 194
8 293 206 121 195 196 123 58 112
8 199 126 61 115 297 211 124 197
8 298 212 127 200 198 125 62 116
8 199 126 212 298 115 61 125 198
8 205 129 64 120 300 214 127 200
8 301 217 130 201 202 132 66 117
8 209 136 168 264 301 217 130 201
8 302 219 132 202 203 133 67 118
8 303 220 133 203 206 134 68 121
8 205 129 215 304 120 64 128 204
8 304 215 131 207 204 128 65 122
8 306 221 134 206 208 135 69 123
8 208 135 69 123 307 218 131 207
8 210 137 167 263 309 223 136 209
8 328 238 147 226 230 149 76 140
8 228 146 91 166 329 236 165 260
8 231 150 77 141 330 235 145 227
8 330 235 145 227 228 146 91 166
8 332 239 148 229 233 151 78 143
8 230 149 76 140 332 239 148 229
8 232 152 79 142 334 241 150 231
8 234 153 80 144 335 243 152 232
8 336 242 151 233 234 153 80 144
8 236 155 90 165 338 245 164 259
8 241 160 86 150 339 246 154 235
8 339 246 154 235 237 156 82 146
8 237 156 82 146 340 247 155 236
8 342 249 157 238 240 159 85 149
8 343 250 158 239 242 161 87 151
8 240 159 85 149 343 250 158 239
8 243 162 88 152 345 252 160 241
8 244 163 253 346 153 89 161 242
8 244 163 89 153 347 254 162 243
8 311 224 261 371 210 137 167 263
8 263 167 262 372 209 136 168 264
8 267 179 98 171 375 275 178 265
8 375 275 178 265 328 238 147 226
8 376 273 176 266 267 179 98 171
8 268 177 96 172 376 273 176 266
8 379 272 175 269 268 177 96 172
8 380 271 174 270 269 175 94 173
8 283 197 113 186 380 271 174 270
8 381 277 180 271 272 181 100 175
8 297 211 124 197 381 277 180 271
8 382 278 181 272 274 183 102 177
8 274 183 102 177 383 279 182 273
8 383 279 182 273 276 185 104 179
8 385 281 184 275 342 249 157 238
8 276 185 104 179 385 281 184 275
8 285 199 115 188 393 297 197 283
8 394 298 200 286 284 198 116 189
8 285 199 298 394 188 115 198 284
8 291 205 120 193 396 300 200 286
8 397 301 201 287 288 202 117 190
8 295 209 264 374 397 301 201 287
8 398 302 202 288 289 203 118 191
8 399 303 203 289 293 206 121 195
8 291 205 304 400 193 120 204 290
8 400 304 207 292 290 204 122 194
8 294 208 123 196 402 307 207 292
8 403 306 206 293 294 208 123 196
8 296 210 263 373 405 309 209 295
8 408 312 213 299 297 211 126 199
8 299 213 313 409 199 126 212 298
8 409 313 214 300 298 212 127 200
8 305 216 129 205 411 315 214 300
8 412 318 217 301 302 219 132 202
8 309 223 136 209 412 318 217 301
8 413 320 219 302 303 220 133 203
8 306 221 321 414 206 134 220 303
8 307 218 131 207 415 316 215 304
8 305 216 316 415 205 129 215 304
8 417 322 221 306 308 222 135 208
8 308 222 135 208 418 319 218 307
8 310 225 137 210 420 325 223 309
8 423 326 224 311 310 225 137 210
8 329 236 165 260 441 338 259 368
8 442 342 238 328 333 240 149 230
8 331 237 146 228 443 340 236 329
8 334 241 150 231 444 339 235 330
8 444 339 235 330 331 237 146 228
8 446 343 239 332 336 242 151 233
8 333 240 149 230 446 343 239 332
8 335 243 152 232 448 345 241 334
8 337 244 153 234 449 347 243 335
8 337 244 346 450 234 153 242 336
8 338 245 164 259 452 349 258 367
8 340 247 155 236 453 350 245 338
8 345 252 160 241 454 351 246 339
8 454 351 246 339 341 248 156 237
8 341 248 156 237 455 352 247 340
8 240 159 251 344 342 249 354 457
8 242 161 253 346 343 250 355 458
8 343 250 355 458 240 159 251 344
8 347 254 162 243 460 357 252 345
8 348 255 358 461 244 163 253 346
8 348 255 163 244 462 359 254 347
8 473 360 257 365 363 256 364 482
8 452 349 258 367 365 257 366 485
8 422 324 369 488 311 224 261 371
8 371 261 370 490 263 167 262 372
8 407 311 371 491 296 210 263 373
8 373 263 372 492 295 209 264 374
8 493 385 275 375 442 342 238 328
8 377 276 179 267 493 385 275 375
8 378 274 177 268 494 383 273 376
8 494 383 273 376 377 276 179 267
8 497 382 272 379 378 274 177 268
8 498 381 271 380 379 272 175 269
8 393 297 197 283 498 381 271 380
8 499 387 277 381 382 278 181 272
8 408 312 211 297 499 387 277 381
8 500 388 278 382 384 280 183 274
8 501 389 279 383 386 282 185 276
8 384 280 183 274 501 389 279 383
8 386 282 185 276 503 391 281 385
8 503 391 281 385 457 354 249 342
8 511 408 299 395 393 297 199 285
8 395 299 409 512 285 199 298 394
8 512 409 300 396 394 298 200 286
8 401 305 205 291 514 411 300 396
8 515 412 301 397 398 302 202 288
8 405 309 209 295 515 412 301 397
8 516 413 302 398 399 303 203 289
8 403 306 414 517 293 206 303 399
8 402 307 207 292 518 415 304 400
8 401 305 415 518 291 205 304 400
8 404 308 208 294 520 418 307 402
8 521 417 306 403 404 308 208 294
8 406 310 210 296 523 420 309 405
8 526 423 311 407 406 310 210 296
8 410 314 213 299 527 424 312 408
8 528 425 315 411 409 313 214 300
8 410 314 425 528 299 213 313 409
8 416 317 216 305 530 427 315 411
8 531 430 318 412 413 320 219 302
8 420 325 223 309 531 430 318 412
8 532 432 320 413 414 321 220 303
8 417 322 433 533 306 221 321 414
8 418 319 218 307 534 428 316 415
8 416 317 428 534 305 216 316 415
8 419 323 434 536 308 222 322 417
8 419 323 222 308 537 431 319 418
8 421 327 225 310 539 438 325 420
8 421 327 439 541 310 225 326 423
8 543 437 324 422 423 326 224 311
8 441 338 259 368 559 452 367 486
8 443 340 236 329 560 453 338 441
8 333 240 344 447 442 342 457 561
8 445 341 237 331 562 455 340 443
8 448 345 241 334 563 454 339 444
8 563 454 339 444 445 341 237 331
8 336 242 346 450 446 343 458 565
8 446 343 458 565 333 240 344 447
8 449 347 243 335 567 460 345 448
8 451 348 244 337 568 462 347 449
8 451 348 461 569 337 244 346 450
8 570 463 349 452 473 360 257 365
8 453 350 245 338 570 463 349 452
8 455 352 247 340 571 464 350 453
8 460 357 252 345 572 465 351 454
8 572 465 351 454 456 353 248 341
8 456 353 248 341 573 466 352 455
8 344 251 356 459 457 354 468 575
8 458 355 469 576 344 251 356 459
8 346 253 358 461 458 355 469 576
8 462 359 254 347 578 471 357 460
8 348 255 359 462 461 358 472 579
8 591 474 360 473 475 361 256 363
8 475 361 256 363 594 477 362 479
8 363 256 364 482 479 362 480 603
8 590 473 365 484 481 363 482 605
8 482 364 257 365 606 483 366 485
8 559 452 367 486 484 365 485 607
8 542 436 487 609 422 324 369 488
8 525 422 488 611 407 311 371 491
8 488 369 489 612 371 261 370 490
8 491 371 490 613 373 263 372 492
8 495 386 276 377 614 503 385 493
8 614 503 385 493 561 457 342 442
8 615 501 383 494 495 386 276 377
8 496 384 274 378 615 501 383 494
8 618 500 382 497 496 384 274 378
8 619 499 381 498 497 382 272 379
8 511 408 297 393 619 499 381 498
8 620 505 387 499 500 388 278 382
8 527 424 312 408 620 505 387 499
8 502 390 506 621 384 280 388 500
8 622 507 389 501 504 392 282 386
8 502 390 280 384 622 507 389 501
8 504 392 282 386 624 509 391 503
8 624 509 391 503 575 468 354 457
8 513 410 299 395 630 527 408 511
8 631 528 411 514 512 409 300 396
8 513 410 528 631 395 299 409 512
8 519 416 305 401 633 530 411 514
8 634 531 412 515 516 413 302 398
8 523 420 309 405 634 531 412 515
8 635 532 413 516 517 414 303 399
8 521 417 533 636 403 306 414 517
8 520 418 307 402 637 534 415 518
8 519 416 534 637 401 305 415 518
8 522 419 308 404 639 537 418 520
8 522 419 536 640 404 308 417 521
8 524 421 310 406 642 539 420 523
8 524 421 541 644 406 310 423 526
8 646 543 422 525 526 423 311 407
8 529 426 314 410 647 544 424 527
8 528 425 545 648 411 315 427 530
8 529 426 545 648 410 314 425 528
8 535 429 317 416 649 546 427 530
8 650 548 430 531 532 432 320 413
8 539 438 325 420 650 548 430 531
8 533 433 550 651 414 321 432 532
8 536 434 551 652 417 322 433 533
8 537 431 319 418 653 547 428 534
8 535 429 547 653 416 317 428 534
8 538 435 552 654 419 323 434 536
8 538 435 323 419 655 549 431 537
8 540 440 327 421 657 556 438 539
8 540 440 557 659 421 327 439 541
8 541 439 555 660 423 326 437 543
8 661 554 436 542 543 437 324 422
8 676 570 452 559 590 473 365 484
8 560 453 338 441 676 570 452 559
8 562 455 340 443 677 571 453 560
8 447 344 459 566 561 457 575 678
8 564 456 341 445 679 573 455 562
8 567 460 345 448 680 572 454 563
8 680 572 454 563 564 456 341 445
8 565 458 576 682 447 344 459 566
8 450 346 461 569 565 458 576 682
8 568 462 347 449 684 578 460 567
8 451 348 462 568 569 461 579 685
8 686 580 463 570 591 474 360 473
8 571 464 350 453 686 580 463 570
8 573 466 352 455 687 581 464 571
8 572 465 582 688 460 357 471 578
8 574 467 582 688 456 353 465 572
8 574 467 353 456 689 583 466 573
8 459 356 470 577 575 468 585 691
8 576 469 586 692 459 356 470 577
8 461 358 472 579 576 469 586 692
8 462 359 471 578 579 472 588 694
8 704 591 473 590 593 475 363 481
8 595 476 592 705 475 361 474 591
8 593 475 363 481 707 594 479 602
8 594 477 362 479 709 598 478 600
8 595 476 361 475 711 597 477 594
8 479 362 480 603 600 478 601 720
8 481 363 482 605 602 479 603 722
8 603 480 364 482 723 604 483 606
8 605 482 365 484 724 606 485 607
8 656 553 608 726 542 436 487 609
8 645 542 609 728 525 422 488 611
8 609 487 610 729 488 369 489 612
8 611 488 612 730 491 371 490 613
8 616 504 386 495 731 624 503 614
8 731 624 503 614 678 575 457 561
8 732 622 501 615 616 504 386 495
8 617 502 384 496 732 622 501 615
8 617 502 621 735 496 384 500 618
8 736 620 499 619 618 500 382 497
8 630 527 408 511 736 620 499 619
8 621 506 626 737 500 388 505 620
8 647 544 424 527 737 626 505 620
8 623 508 627 738 502 390 506 621
8 623 508 390 502 739 628 507 622
8 625 510 628 739 504 392 507 622
8 740 629 509 624 691 585 468 575
8 625 510 392 504 740 629 509 624
8 632 529 410 513 744 647 527 630
8 631 528 648 745 514 411 530 633
8 632 529 648 745 513 410 528 631
8 638 535 416 519 746 649 530 633
8 747 650 531 634 635 532 413 516
8 642 539 420 523 747 650 531 634
8 636 533 651 748 517 414 532 635
8 640 536 652 749 521 417 533 636
8 639 537 418 520 750 653 534 637
8 638 535 653 750 519 416 534 637
8 641 538 419 522 751 655 537 639
8 641 538 654 752 522 419 536 640
8 643 540 421 524 753 657 539 642
8 643 540 659 755 524 421 541 644
8 644 541 660 757 526 423 543 646
8 758 661 542 645 646 543 422 525
8 529 426 544 647 648 545 662 759
8 530 427 545 648 649 546 663 760
8 535 429 546 649 653 547 664 761
8 762 666 548 650 651 550 432 532
8 657 556 438 539 762 666 548 650
8 652 551 668 763 533 433 550 651
8 654 552 669 764 536 434 551 652
8 655 549 431 537 765 665 547 653
8 538 435 549 655 654 552 667 766
8 661 554 671 768 542 436 553 656
8 658 558 440 540 769 674 556 657
8 658 558 675 770 540 440 557 659
8 659 557 673 771 541 439 555 660
8 660 555 672 772 543 437 554 661
8 788 686 570 676 704 591 473 590
8 677 571 453 560 788 686 570 676
8 679 573 455 562 789 687 571 677
8 566 459 577 683 678 575 691 790
8 681 574 456 564 791 689 573 679
8 680 572 688 792 567 460 578 684
8 681 574 688 792 564 456 572 680
8 682 576 692 794 566 459 577 683
8 569 461 579 685 682 576 692 794
8 568 462 578 684 685 579 694 796
8 687 581 464 571 798 696 580 686
8 798 696 580 686 705 592 474 591
8 689 583 466 573 799 697 581 687
8 688 582 698 800 578 471 588 694
8 690 584 698 800 574 467 582 688
8 690 584 467 574 801 699 583 689
8 693 587 701 803 577 470 585 691
8 693 587 470 577 804 702 586 692
8 695 589 702 804 579 472 586 692
8 695 589 472 579 805 703 588 694
8 708 595 705 813 593 475 591 704
8 710 596 706 814 595 476 592 705
8 707 594 479 602 816 709 600 719
8 708 595 475 593 817 711 594 707
8 709 598 478 600 819 715 599 717
8 711 597 477 594 820 714 598 709
8 710 596 476 595 822 713 597 711
8 600 478 601 720 717 599 718 832
8 602 479 603 722 719 600 720 834
8 720 601 480 603 835 721 604 723
8 722 603 482 605 836 723 606 724
8 767 670 725 839 656 553 608 726
8 756 656 726 841 645 542 609 728
8 726 608 727 842 609 487 610 729
8 728 609 729 843 611 488 612 730
8 844 740 624 731 790 691 575 678
8 733 625 504 616 844 740 624 731
8 734 623 502 617 845 739 622 732
8 733 625 739 845 616 504 622 732
8 734 623 738 846 617 502 621 735
8 735 621 737 847 618 500 620 736
8 744 647 527 630 847 737 620 736
8 621 506 627 738 737 626 741 848
8 647 544 626 737 759 662 741 848
8 623 508 628 739 738 627 742 849
8 740 629 585 691 850 743 700 802
8 625 510 629 740 739 628 743 850
8 632 529 647 744 745 648 759 854
8 633 530 648 745 746 649 760 855
8 638 535 649 746 750 653 761 856
8 857 762 650 747 748 651 532 635
8 753 657 539 642 857 762 650 747
8 749 652 763 858 636 533 651 748
8 752 654 764 859 640 536 652 749
8 751 655 537 639 860 765 653 750
8 641 538 655 751 752 654 766 861
8 754 658 540 643 862 769 657 753
8 754 658 770 863 643 540 659 755
8 755 659 771 864 644 541 660 757
8 758 661 768 866 645 542 656 756
8 757 660 772 867 646 543 661 758
8 759 662 773 868 648 545 663 760
8 649 546 663 760 761 664 774 871
8 765 665 547 653 872 775 664 761
8 873 777 666 762 763 668 550 651
8 769 674 556 657 873 777 666 762
8 764 669 779 874 652 551 668 763
8 654 552 667 766 764 669 778 875
8 655 549 665 765 766 667 776 876
8 768 671 782 877 656 553 670 767
8 772 672 783 878 661 554 671 768
8 658 558 674 769 770 675 786 879
8 659 557 675 770 771 673 785 881
8 882 784 672 772 771 673 555 660
8 789 687 571 677 897 798 686 788
8 897 798 686 788 813 705 591 704
8 791 689 573 679 898 799 687 789
8 795 693 803 900 683 577 691 790
8 793 690 574 681 901 801 689 791
8 792 688 800 902 684 578 694 796
8 793 690 800 902 681 574 688 792
8 795 693 577 683 903 804 692 794
8 797 695 804 903 685 579 692 794
8 797 695 579 685 904 805 694 796
8 905 806 697 799 798 696 581 687
8 814 706 806 905 705 592 696 798
8 689 583 697 799 801 699 808 907
8 800 698 809 908 694 588 703 805
8 690 584 699 801 800 698 809 908
8 803 701 810 909 691 585 700 802
8 693 587 702 804 803 701 811 910
8 695 589 703 805 804 702 812 911
8 818 710 814 919 708 595 705 813
8 821 712 815 920 710 596 706 814
8 816 709 600 719 922 819 717 831
8 817 711 594 707 923 820 709 816
8 818 710 595 708 924 822 711 817
8 819 715 599 717 926 827 716 829
8 820 714 598 709 927 826 715 819
8 929 825 713 822 820 714 597 711
8 821 712 596 710 930 824 713 822
8 717 599 718 832 829 716 830 942
8 719 600 720 834 831 717 832 944
8 832 718 601 720 945 833 721 835
8 834 720 603 722 946 835 723 836
8 869 780 838 950 767 670 725 839
8 865 767 839 952 756 656 726 841
8 839 725 840 953 726 608 727 842
8 841 726 842 954 728 609 729 843
8 844 740 691 790 955 850 802 899
8 733 625 740 844 845 739 850 955
8 734 623 739 845 846 738 849 956
8 735 621 738 846 847 737 848 957
8 744 647 737 847 854 759 848 957
8 738 627 742 849 848 741 851 958
8 848 741 851 958 759 662 773 868
8 850 743 700 802 959 852 807 906
8 849 742 628 739 959 852 743 850
8 854 759 868 965 745 648 760 855
8 746 649 760 855 856 761 871 966
8 860 765 653 750 967 872 761 856
8 968 873 762 857 858 763 651 748
8 862 769 657 753 968 873 762 857
8 859 764 874 969 749 652 763 858
8 752 654 766 861 859 764 875 970
8 751 655 765 860 861 766 876 971
8 754 658 769 862 863 770 879 972
8 755 659 770 863 864 771 881 974
8 976 882 772 867 864 771 660 757
8 866 768 877 977 756 656 767 865
8 867 772 878 978 758 661 768 866
8 760 663 773 868 871 774 883 980
8 870 781 837 948 982 890 780 869
8 982 890 780 869 877 782 670 767
8 761 664 774 871 872 775 884 984
8 876 776 665 765 985 885 775 872
8 873 777 668 763 986 887 779 874
8 769 674 777 873 879 786 887 986
8 764 669 778 875 874 779 888 987
8 766 667 776 876 875 778 886 988
8 878 783 892 989 768 671 782 877
8 878 783 672 772 990 893 784 882
8 880 787 675 770 991 896 786 879
8 880 787 895 992 770 675 785 881
8 881 785 894 993 771 673 784 882
8 1006 905 799 898 897 798 687 789
8 919 814 905 1006 813 705 798 897
8 791 689 799 898 901 801 907 1007
8 900 803 909 1009 790 691 802 899
8 795 693 804 903 900 803 910 1010
8 902 800 908 1011 796 694 805 904
8 793 690 801 901 902 800 908 1011
8 797 695 805 904 903 804 911 1012
8 799 697 806 905 907 808 912 1013
8 920 815 912 1013 814 706 806 905
8 802 700 810 909 906 807 913 1014
8 801 699 808 907 908 809 914 1015
8 805 703 809 908 911 812 915 1016
8 803 701 811 910 909 810 916 1017
8 911 812 917 1018 804 702 811 910
8 925 821 920 1030 818 710 814 919
8 928 823 921 1031 821 712 815 920
8 922 819 717 831 1033 926 829 941
8 923 820 709 816 1034 927 819 922
8 1035 929 822 924 923 820 711 817
8 925 821 710 818 1036 930 822 924
8 1038 933 825 929 927 826 714 820
8 926 827 716 829 1039 935 828 939
8 927 826 715 819 1040 934 827 926
8 928 823 712 821 1041 931 824 930
8 1042 932 824 930 929 825 713 822
8 829 716 830 942 939 828 940 1058
8 831 717 832 944 941 829 942 1060
8 942 830 718 832 1061 943 833 945
8 944 832 720 834 1062 945 835 946
8 981 889 947 1064 870 781 837 948
8 948 837 949 1067 869 780 838 950
8 975 869 950 1069 865 767 839 952
8 950 838 951 1070 839 725 840 953
8 952 839 953 1071 841 726 842 954
8 955 850 802 899 1072 959 906 1008
8 956 849 739 845 1072 959 850 955
8 846 738 849 956 957 848 958 1073
8 957 848 958 1073 854 759 868 965
8 849 742 852 959 958 851 961 1076
8 960 853 961 1076 906 807 852 959
8 958 851 961 1076 868 773 883 980
8 960 853 807 906 1077 963 913 1014
8 855 760 868 965 966 871 980 1085
8 856 761 871 966 967 872 984 1086
8 971 876 765 860 1087 985 872 967
8 968 873 763 858 1088 986 874 969
8 862 769 873 968 972 879 986 1088
8 859 764 875 970 969 874 987 1089
8 861 766 876 971 970 875 988 1090
8 973 880 770 863 1091 991 879 972
8 973 880 992 1092 863 770 881 974
8 974 881 993 1093 864 771 882 976
8 979 870 948 1066 1094 982 869 975
8 1094 982 869 975 977 877 767 865
8 978 878 772 867 1095 990 882 976
8 978 878 989 1096 866 768 877 977
8 871 774 883 980 984 884 994 1099
8 983 891 999 1100 870 781 889 981
8 1101 1000 890 982 989 892 782 877
8 983 891 781 870 1101 1000 890 982
8 872 775 884 984 985 885 995 1103
8 876 776 885 985 988 886 996 1104
8 986 887 779 874 1105 998 888 987
8 879 786 887 986 991 896 998 1105
8 875 778 886 988 987 888 997 1106
8 990 893 1002 1107 878 783 892 989
8 1108 1003 893 990 993 894 784 882
8 880 787 896 991 992 895 1005 1109
8 993 894 785 881 1110 1004 895 992
8 898 799 905 1006 1007 907 1013 1120
8 1030 920 1013 1120 919 814 905 1006
8 901 801 907 1007 1011 908 1015 1121
8 899 802 909 1009 1008 906 1014 1122
8 900 803 910 1010 1009 909 1017 1123
8 1012 911 1018 1124 903 804 910 1010
8 904 805 908 1011 1012 911 1016 1125
8 1013 912 1020 1127 907 808 914 1015
8 1031 921 1020 1127 920 815 912 1013
8 1019 918 962 1075 1128 1021 913 1014
8 1128 1021 913 1014 1017 916 810 909
8 1015 914 1022 1129 908 809 915 1016
8 1016 915 1023 1130 911 812 917 1018
8 1018 917 1024 1131 910 811 916 1017
8 1037 928 1031 1148 925 821 920 1030
8 928 823 931 1041 1031 921 1032 1149
8 1033 926 829 941 1151 1039 939 1057
8 1034 927 819 922 1152 1040 926 1033
8 1153 1038 929 1035 1034 927 820 923
8 1154 1042 930 1036 1035 929 822 924
8 1037 928 821 925 1155 1041 930 1036
8 1039 935 828 939 1156 1047 938 1055
8 1157 1043 932 1042 1038 933 825 929
8 1038 933 826 927 1158 1045 934 1040
8 1040 934 827 926 1159 1046 935 1039
8 930 824 932 1042 1041 931 1044 1160
8 1051 936 1048 1165 1175 1052 937 1053
8 1156 1047 938 1055 1053 937 1054 1178
8 939 828 940 1058 1055 938 1056 1181
8 941 829 942 1060 1057 939 1058 1183
8 942 830 943 1061 1058 940 1059 1184
8 1060 942 832 944 1185 1061 945 1062
8 1082 964 1063 1188 981 889 947 1064
8 1097 981 1064 1190 979 870 948 1066
8 1064 947 1065 1191 948 837 949 1067
8 1066 948 1067 1193 975 869 950 1069
8 1067 949 1068 1194 950 838 951 1070
8 1069 950 1070 1195 952 839 953 1071
8 956 849 959 1072 1073 958 1076 1197
8 1074 960 1076 1197 1008 906 959 1072
8 1073 958 1076 1197 965 868 980 1085
8 1074 960 906 1008 1198 1077 1014 1122
8 1133 1026 1079 1199 1019 918 962 1075
8 1077 963 913 1014 1200 1080 962 1075
8 960 853 963 1077 1076 961 1078 1201
8 980 883 961 1076 1099 994 1078 1201
8 1210 1083 964 1082 1100 999 889 981
8 966 871 980 1085 1086 984 1099 1215
8 967 872 984 1086 1087 985 1103 1216
8 971 876 985 1087 1090 988 1104 1217
8 1088 986 874 969 1218 1105 987 1089
8 972 879 986 1088 1091 991 1105 1218
8 970 875 988 1090 1089 987 1106 1219
8 973 880 991 1091 1092 992 1109 1220
8 1093 993 881 974 1221 1110 992 1092
8 1222 1108 990 1095 1093 993 882 976
8 1223 1101 982 1094 1096 989 877 977
8 1098 983 870 979 1223 1101 982 1094
8 1095 990 1107 1224 978 878 989 1096
8 1098 983 1100 1225 979 870 981 1097
8 984 884 994 1099 1103 995 1111 1227
8 1102 1001 1115 1228 983 891 999 1100
8 1101 1000 892 989 1229 1116 1002 1107
8 1102 1001 891 983 1229 1116 1000 1101
8 985 885 995 1103 1104 996 1112 1230
8 988 886 996 1104 1106 997 1113 1231
8 1105 998 888 987 1232 1114 997 1106
8 991 896 998 1105 1109 1005 1114 1232
8 1108 1003 1117 1233 990 893 1002 1107
8 1108 1003 894 993 1233 1117 1004 1110
8 992 895 1005 1109 1110 1004 1118 1234
8 1120 1013 1127 1244 1007 907 1015 1121
8 1148 1031 1127 1244 1030 920 1013 1120
8 1121 1015 1129 1245 1011 908 1016 1125
8 1126 1019 1075 1196 1246 1128 1014 1122
8 1246 1128 1014 1122 1123 1017 909 1009
8 1124 1018 1131 1247 1010 910 1017 1123
8 1125 1016 1130 1248 1012 911 1018 1124
8 1127 1020 1137 1254 1015 914 1022 1129
8 1031 921 1032 1149 1127 1020 1137 1254
8 1134 1027 918 1019 1257 1140 1021 1128
8 1257 1140 1021 1128 1131 1024 916 1017
8 1129 1022 1141 1258 1016 915 1023 1130
8 1130 1023 1142 1259 1018 917 1024 1131
8 1261 1144 1025 1132 1133 1026 1079 1199
8 1255 1138 1025 1132 1135 1028 1144 1261
8 1133 1026 918 1019 1262 1145 1027 1134
8 1136 1029 1139 1256 1263 1146 1028 1135
8 1037 928 1041 1155 1148 1031 1149 1275
8 1041 931 1044 1160 1149 1032 1150 1276
8 1151 1039 939 1057 1278 1156 1055 1180
8 1152 1040 926 1033 1279 1159 1039 1151
8 1153 1038 927 1034 1280 1158 1040 1152
8 1281 1157 1042 1154 1153 1038 929 1035
8 1036 930 1042 1154 1155 1041 1160 1282
8 1283 1164 1046 1159 1156 1047 935 1039
8 1165 1048 1164 1283 1053 937 1047 1156
8 1157 1043 933 1038 1284 1161 1045 1158
8 1157 1043 1161 1284 1042 932 1044 1160
8 1040 934 1046 1159 1158 1045 1163 1285
8 1166 1049 1167 1292 1051 936 1048 1165
8 1166 1049 936 1051 1293 1168 1050 1172
8 1051 936 1052 1175 1172 1050 1173 1306
8 1174 1051 1165 1290 1308 1175 1053 1177
8 1053 937 1054 1178 1175 1052 1176 1309
8 1278 1156 1055 1180 1177 1053 1178 1311
8 1055 938 1056 1181 1178 1054 1179 1312
8 1057 939 1058 1183 1180 1055 1181 1314
8 1058 940 1059 1184 1181 1056 1182 1315
8 1060 942 1061 1185 1183 1058 1184 1316
8 1208 1081 1187 1321 1082 964 1063 1188
8 1209 1082 1188 1322 1097 981 1064 1190
8 1188 1063 1189 1323 1064 947 1065 1191
8 1190 1064 1191 1325 1066 948 1067 1193
8 1191 1065 1192 1326 1067 949 1068 1194
8 1067 1193 1069 950 1194 1327 1195 1070
8 1250 1133 1199 1330 1126 1019 1075 1196
8 1198 1077 1014 1122 1331 1200 1075 1196
8 1074 960 1077 1198 1197 1076 1201 1332
8 1085 980 1076 1197 1215 1099 1201 1332
8 1199 1079 1203 1333 1075 962 1080 1200
8 1132 1025 1119 1243 1199 1079 1203 1333
8 1201 1078 963 1077 1334 1202 1080 1200
8 1099 994 1078 1201 1227 1111 1202 1334
8 1343 1207 1081 1208 1210 1083 964 1082
8 1214 1084 1186 1319 1343 1207 1081 1208
8 1345 1210 1082 1209 1225 1100 981 1097
8 1346 1211 1083 1210 1228 1115 999 1100
8 1086 984 1099 1215 1216 1103 1227 1352
8 1087 985 1103 1216 1217 1104 1230 1353
8 1090 988 1104 1217 1219 1106 1231 1354
8 1218 1105 987 1089 1355 1232 1106 1219
8 1091 991 1105 1218 1220 1109 1232 1355
8 1092 992 1109 1220 1221 1110 1234 1356
8 1222 1108 1233 1357 1095 990 1107 1224
8 1222 1108 993 1093 1357 1233 1110 1221
8 1223 1101 989 1096 1358 1229 1107 1224
8 1226 1102 983 1098 1358 1229 1101 1223
8 1226 1102 1228 1359 1098 983 1100 1225
8 1103 995 1111 1227 1230 1112 1235 1360
8 1107 1002 1117 1233 1229 1116 1240 1362
8 1102 1001 1116 1229 1228 1115 1240 1362
8 1104 996 1112 1230 1231 1113 1236 1363
8 1364 1237 1114 1232 1231 1113 997 1106
8 1109 1005 1114 1232 1234 1118 1238 1365
8 1110 1004 1118 1234 1233 1117 1241 1366
8 1242 1374 1255 1138 1119 1243 1132 1025
8 1244 1127 1254 1376 1121 1015 1129 1245
8 1148 1031 1149 1275 1244 1127 1254 1376
8 1245 1129 1258 1377 1125 1016 1130 1248
8 1251 1134 1019 1126 1378 1257 1128 1246
8 1378 1257 1128 1246 1247 1131 1017 1123
8 1248 1130 1259 1379 1124 1018 1131 1247
8 1261 1381 1250 1133 1132 1249 1330 1199
8 1255 1380 1252 1135 1132 1249 1381 1261
8 1250 1133 1019 1126 1382 1262 1134 1251
8 1253 1136 1256 1385 1384 1263 1135 1252
8 1254 1137 1265 1387 1129 1022 1141 1258
8 1149 1032 1150 1276 1254 1137 1265 1387
8 1028 1135 1255 1138 1139 1256 1388 1266
8 1136 1029 1147 1264 1256 1139 1267 1389
8 1390 1268 1140 1257 1259 1142 1024 1131
8 1260 1143 1027 1134 1390 1268 1140 1257
8 1258 1141 1269 1391 1130 1023 1142 1259
8 1262 1145 1027 1134 1393 1271 1143 1260
8 1261 1144 1026 1133 1394 1272 1145 1262
8 1135 1028 1144 1261 1263 1146 1272 1394
8 1136 1029 1146 1263 1264 1147 1273 1395
8 1155 1041 1160 1282 1275 1149 1276 1405
8 1276 1150 1044 1160 1406 1277 1162 1286
8 1408 1283 1159 1279 1278 1156 1039 1151
8 1290 1165 1283 1408 1177 1053 1156 1278
8 1152 1040 1159 1279 1280 1158 1285 1409
8 1281 1157 1038 1153 1410 1284 1158 1280
8 1281 1157 1284 1410 1154 1042 1160 1282
8 1159 1046 1164 1283 1285 1163 1289 1412
8 1292 1167 1289 1412 1165 1048 1164 1283
8 1158 1045 1163 1285 1284 1161 1288 1413
8 1284 1161 1288 1413 1160 1044 1162 1286
8 1291 1166 1292 1418 1174 1051 1165 1290
8 1291 1166 1051 1174 1419 1293 1172 1305
8 1294 1169 1296 1421 1166 1049 1167 1292
8 1293 1168 1050 1172 1422 1295 1171 1303
8 1294 1169 1049 1166 1423 1297 1168 1293
8 1422 1295 1171 1303 1301 1170 1302 1435
8 1172 1050 1173 1306 1303 1171 1304 1438
8 1174 1051 1175 1308 1305 1172 1306 1440
8 1175 1052 1176 1309 1306 1173 1307 1441
8 1177 1053 1178 1311 1308 1175 1309 1443
8 1178 1054 1179 1312 1309 1176 1310 1444
8 1180 1055 1181 1314 1311 1178 1312 1446
8 1056 1181 1312 1179 1182 1315 1447 1313
8 1183 1058 1184 1316 1314 1181 1315 1448
8 1319 1186 1084 1214 1451 1317 1213 1350
8 1319 1186 1318 1453 1208 1081 1187 1321
8 1321 1187 1320 1456 1188 1063 1189 1323
8 1344 1208 1321 1457 1209 1082 1188 1322
8 1322 1188 1323 1458 1190 1064 1191 1325
8 1323 1189 1324 1459 1191 1065 1192 1326
8 1191 1325 1193 1067 1326 1460 1327 1194
8 1242 1374 1243 1119 1328 1462 1335 1204
8 1330 1199 1333 1465 1196 1075 1200 1331
8 1132 1249 1330 1199 1243 1375 1465 1333
8 1332 1201 1077 1198 1466 1334 1200 1331
8 1215 1099 1201 1332 1352 1227 1334 1466
8 1119 1243 1333 1203 1204 1335 1470 1338
8 1333 1203 1338 1470 1200 1080 1202 1334
8 1227 1111 1202 1334 1360 1235 1338 1470
8 1328 1462 1335 1204 1205 1336 1471 1339
8 1337 1206 1340 1472 1464 1329 1205 1336
8 1346 1211 1342 1479 1210 1083 1207 1343
8 1346 1211 1115 1228 1479 1342 1239 1361
8 1348 1212 1084 1214 1479 1342 1207 1343
8 1480 1343 1208 1344 1345 1210 1082 1209
8 1351 1214 1319 1454 1480 1343 1208 1344
8 1481 1346 1210 1345 1359 1228 1100 1225
8 1348 1212 1347 1483 1214 1084 1213 1350
8 1216 1103 1227 1352 1353 1230 1360 1488
8 1217 1104 1230 1353 1354 1231 1363 1489
8 1490 1364 1232 1355 1354 1231 1106 1219
8 1220 1109 1232 1355 1356 1234 1365 1491
8 1221 1110 1234 1356 1357 1233 1366 1492
8 1224 1107 1233 1357 1358 1229 1362 1493
8 1226 1102 1229 1358 1359 1228 1362 1493
8 1230 1112 1235 1360 1363 1236 1367 1496
8 1361 1239 1115 1228 1497 1371 1240 1362
8 1366 1241 1372 1498 1233 1117 1240 1362
8 1364 1237 1113 1231 1499 1368 1236 1363
8 1364 1237 1368 1499 1232 1114 1238 1365
8 1234 1118 1238 1365 1366 1241 1369 1500
8 1507 1373 1242 1374 1388 1266 1138 1255
8 1508 1374 1243 1375 1380 1255 1132 1249
8 1376 1254 1387 1509 1245 1129 1258 1377
8 1275 1149 1276 1405 1376 1254 1387 1509
8 1377 1258 1391 1510 1248 1130 1259 1379
8 1511 1390 1257 1378 1379 1259 1131 1247
8 1383 1260 1134 1251 1511 1390 1257 1378
8 1252 1135 1256 1385 1380 1255 1388 1512
8 1261 1381 1513 1394 1133 1250 1382 1262
8 1135 1252 1384 1263 1261 1381 1513 1394
8 1382 1262 1134 1251 1514 1393 1260 1383
8 1253 1136 1263 1384 1386 1264 1395 1516
8 1253 1136 1264 1386 1385 1256 1389 1517
8 1387 1265 1397 1519 1258 1141 1269 1391
8 1276 1150 1277 1406 1387 1265 1397 1519
8 1256 1139 1267 1389 1388 1266 1398 1520
8 1264 1147 1274 1396 1389 1267 1399 1521
8 1392 1270 1143 1260 1522 1400 1268 1390
8 1390 1268 1142 1259 1522 1400 1269 1391
8 1392 1270 1401 1523 1260 1143 1271 1393
8 1272 1394 1524 1402 1145 1262 1393 1271
8 1395 1273 1146 1263 1524 1402 1272 1394
8 1273 1395 1264 1147 1403 1526 1396 1274
8 1405 1276 1160 1282 1534 1406 1286 1411
8 1414 1287 1407 1535 1286 1162 1277 1406
8 1279 1159 1283 1408 1409 1285 1412 1537
8 1418 1292 1412 1537 1290 1165 1283 1408
8 1280 1158 1285 1409 1410 1284 1413 1538
8 1410 1284 1413 1538 1282 1160 1286 1411
8 1285 1163 1289 1412 1413 1288 1417 1540
8 1421 1296 1417 1540 1292 1167 1289 1412
8 1414 1287 1162 1286 1541 1416 1288 1413
8 1420 1294 1421 1545 1291 1166 1292 1418
8 1419 1293 1172 1305 1546 1422 1303 1437
8 1420 1294 1166 1291 1547 1423 1293 1419
8 1294 1169 1297 1423 1421 1296 1425 1548
8 1423 1297 1168 1293 1549 1424 1295 1422
8 1301 1170 1298 1427 1422 1295 1424 1549
8 1432 1300 1428 1554 1301 1170 1298 1427
8 1431 1299 1428 1554 1560 1430 1300 1432
8 1563 1433 1300 1432 1435 1302 1170 1301
8 1546 1422 1303 1437 1434 1301 1435 1565
8 1303 1171 1304 1438 1435 1302 1436 1566
8 1305 1172 1306 1440 1437 1303 1438 1568
8 1306 1173 1307 1441 1438 1304 1439 1569
8 1308 1175 1309 1443 1440 1306 1441 1571
8 1309 1176 1310 1444 1441 1307 1442 1572
8 1311 1178 1312 1446 1443 1309 1444 1574
8 1179 1312 1444 1310 1313 1447 1575 1445
8 1314 1181 1315 1448 1446 1312 1447 1576
8 1350 1213 1349 1486 1451 1317 1449 1579
8 1451 1317 1450 1581 1319 1186 1318 1453
8 1454 1319 1214 1351 1582 1451 1350 1487
8 1453 1318 1452 1584 1321 1187 1320 1456
8 1454 1319 1453 1585 1344 1208 1321 1457
8 1456 1320 1455 1586 1323 1189 1324 1459
8 1457 1321 1456 1587 1322 1188 1323 1458
8 1458 1323 1459 1588 1325 1191 1326 1460
8 1205 1336 1464 1329 1328 1462 1590 1461
8 1507 1373 1461 1590 1374 1242 1328 1462
8 1508 1374 1462 1591 1375 1243 1335 1467
8 1337 1206 1329 1464 1473 1341 1463 1594
8 1375 1243 1335 1467 1465 1333 1470 1596
8 1465 1333 1470 1596 1331 1200 1334 1466
8 1352 1227 1334 1466 1488 1360 1470 1596
8 1591 1462 1336 1468 1467 1335 1471 1597
8 1469 1337 1472 1598 1595 1464 1336 1468
8 1471 1339 1474 1600 1335 1204 1338 1470
8 1600 1474 1367 1496 1470 1338 1235 1360
8 1336 1205 1340 1472 1471 1339 1475 1601
8 1337 1206 1341 1473 1472 1340 1476 1602
8 1495 1370 1478 1609 1361 1239 1342 1479
8 1348 1212 1342 1479 1483 1347 1478 1609
8 1481 1346 1479 1610 1345 1210 1343 1480
8 1481 1346 1228 1359 1610 1479 1361 1494
8 1484 1348 1214 1351 1610 1479 1343 1480
8 1483 1347 1482 1612 1350 1213 1349 1486
8 1484 1348 1483 1613 1351 1214 1350 1487
8 1353 1230 1360 1488 1489 1363 1496 1616
8 1490 1364 1231 1354 1617 1499 1363 1489
8 1490 1364 1499 1617 1355 1232 1365 1491
8 1356 1234 1365 1491 1492 1366 1500 1619
8 1492 1366 1498 1620 1357 1233 1362 1493
8 1494 1361 1228 1359 1621 1497 1362 1493
8 1495 1370 1239 1361 1622 1504 1371 1497
8 1363 1236 1367 1496 1499 1368 1501 1623
8 1497 1371 1240 1362 1624 1505 1372 1498
8 1625 1503 1372 1498 1500 1369 1241 1366
8 1365 1238 1368 1499 1500 1369 1502 1626
8 1520 1398 1506 1633 1388 1266 1373 1507
8 1634 1507 1374 1508 1512 1388 1255 1380
8 1509 1387 1519 1635 1377 1258 1391 1510
8 1405 1276 1406 1534 1509 1387 1519 1635
8 1515 1392 1260 1383 1636 1522 1390 1511
8 1511 1390 1259 1379 1636 1522 1391 1510
8 1385 1256 1389 1517 1512 1388 1520 1637
8 1513 1394 1262 1382 1638 1524 1393 1514
8 1395 1516 1638 1524 1263 1384 1513 1394
8 1515 1392 1523 1639 1383 1260 1393 1514
8 1516 1395 1526 1640 1386 1264 1396 1518
8 1386 1264 1396 1518 1517 1389 1521 1641
8 1519 1397 1527 1643 1391 1269 1400 1522
8 1535 1407 1527 1643 1406 1277 1397 1519
8 1389 1267 1399 1521 1520 1398 1528 1644
8 1645 1529 1399 1521 1525 1404 1274 1396
8 1392 1270 1400 1522 1523 1401 1531 1646
8 1524 1402 1271 1393 1648 1532 1401 1523
8 1403 1526 1648 1532 1273 1395 1524 1402
8 1525 1404 1274 1396 1649 1533 1403 1526
8 1539 1414 1535 1657 1411 1286 1406 1534
8 1542 1415 1536 1658 1414 1287 1407 1535
8 1409 1285 1412 1537 1538 1413 1540 1660
8 1545 1421 1540 1660 1418 1292 1412 1537
8 1539 1414 1286 1411 1661 1541 1413 1538
8 1540 1417 1544 1663 1413 1288 1416 1541
8 1421 1296 1425 1548 1540 1417 1544 1663
8 1542 1415 1287 1414 1664 1543 1416 1541
8 1420 1294 1423 1547 1545 1421 1548 1666
8 1547 1423 1293 1419 1667 1549 1422 1546
8 1434 1301 1427 1553 1546 1422 1549 1667
8 1423 1297 1424 1549 1548 1425 1550 1668
8 1551 1426 1550 1668 1427 1298 1424 1549
8 1551 1426 1298 1427 1671 1552 1428 1554
8 1562 1432 1554 1674 1434 1301 1427 1553
8 1431 1299 1429 1558 1554 1428 1555 1675
8 1431 1299 1430 1560 1558 1429 1557 1680
8 1560 1430 1300 1432 1683 1559 1433 1563
8 1561 1431 1554 1674 1684 1560 1432 1562
8 1685 1563 1432 1562 1565 1435 1301 1434
8 1435 1302 1436 1566 1563 1433 1564 1686
8 1437 1303 1438 1568 1565 1435 1566 1688
8 1438 1304 1439 1569 1566 1436 1567 1689
8 1440 1306 1441 1571 1568 1438 1569 1691
8 1441 1307 1442 1572 1569 1439 1570 1692
8 1443 1309 1444 1574 1571 1441 1572 1694
8 1310 1444 1572 1442 1445 1575 1695 1573
8 1446 1312 1447 1576 1574 1444 1575 1696
8 1486 1349 1485 1614 1579 1449 1577 1699
8 1451 1317 1449 1579 1581 1450 1578 1701
8 1487 1350 1486 1615 1582 1451 1579 1702
8 1581 1450 1580 1704 1453 1318 1452 1584
8 1582 1451 1581 1705 1454 1319 1453 1585
8 1584 1452 1583 1706 1456 1320 1455 1586
8 1585 1453 1584 1707 1457 1321 1456 1587
8 1587 1456 1586 1708 1458 1323 1459 1588
8 1633 1506 1589 1710 1507 1373 1461 1590
8 1464 1329 1461 1590 1594 1463 1589 1710
8 1468 1336 1462 1591 1595 1464 1590 1711
8 1634 1507 1590 1711 1508 1374 1462 1591
8 1473 1341 1463 1594 1603 1477 1593 1716
8 1469 1337 1464 1595 1599 1473 1594 1717
8 1471 1597 1467 1335 1600 1718 1596 1470
8 1718 1600 1496 1616 1596 1470 1360 1488
8 1336 1468 1597 1471 1472 1598 1719 1601
8 1469 1337 1473 1599 1598 1472 1602 1720
8 1722 1604 1501 1623 1600 1474 1367 1496
8 1475 1601 1471 1339 1604 1722 1600 1474
8 1602 1476 1605 1723 1472 1340 1475 1601
8 1476 1602 1724 1606 1341 1473 1603 1477
8 1483 1347 1478 1609 1612 1482 1608 1731
8 1495 1370 1504 1622 1609 1478 1608 1731
8 1618 1495 1609 1732 1494 1361 1479 1610
8 1484 1348 1479 1610 1613 1483 1609 1732
8 1486 1349 1482 1612 1614 1485 1611 1733
8 1613 1483 1612 1734 1487 1350 1486 1615
8 1489 1363 1496 1616 1617 1499 1623 1736
8 1491 1365 1499 1617 1619 1500 1626 1737
8 1618 1495 1361 1494 1738 1622 1497 1621
8 1739 1625 1498 1620 1619 1500 1366 1492
8 1621 1497 1362 1493 1740 1624 1498 1620
8 1742 1631 1504 1622 1624 1505 1371 1497
8 1743 1628 1502 1626 1623 1501 1368 1499
8 1744 1630 1505 1624 1625 1503 1372 1498
8 1745 1629 1503 1625 1626 1502 1369 1500
8 1520 1398 1528 1644 1633 1506 1632 1751
8 1637 1520 1633 1752 1512 1388 1507 1634
8 1635 1519 1643 1753 1510 1391 1522 1636
8 1657 1535 1643 1753 1534 1406 1519 1635
8 1515 1392 1522 1636 1639 1523 1646 1754
8 1517 1389 1521 1641 1637 1520 1644 1755
8 1524 1638 1756 1648 1393 1514 1639 1523
8 1640 1526 1395 1516 1756 1648 1524 1638
8 1642 1525 1396 1518 1757 1649 1526 1640
8 1758 1645 1521 1641 1642 1525 1396 1518
8 1646 1531 1400 1522 1760 1650 1527 1643
8 1535 1407 1536 1658 1643 1527 1650 1760
8 1521 1399 1529 1645 1644 1528 1651 1761
8 1647 1530 1652 1762 1525 1404 1529 1645
8 1401 1523 1648 1532 1531 1646 1763 1655
8 1525 1404 1533 1649 1647 1530 1654 1765
8 1533 1649 1766 1656 1403 1526 1648 1532
8 1662 1542 1658 1774 1539 1414 1535 1657
8 1542 1415 1543 1664 1658 1536 1659 1775
8 1660 1540 1663 1777 1538 1413 1541 1661
8 1545 1421 1548 1666 1660 1540 1663 1777
8 1662 1542 1414 1539 1778 1664 1541 1661
8 1664 1543 1416 1541 1779 1665 1544 1663
8 1548 1425 1550 1668 1663 1544 1665 1779
8 1547 1423 1549 1667 1666 1548 1668 1781
8 1670 1551 1668 1781 1553 1427 1549 1667
8 1551 1426 1552 1671 1668 1550 1669 1782
8 1670 1551 1427 1553 1784 1671 1554 1674
8 1675 1555 1672 1785 1554 1428 1552 1671
8 1678 1556 1673 1789 1558 1429 1555 1675
8 1561 1431 1558 1681 1674 1554 1675 1790
8 1794 1677 1556 1678 1680 1557 1429 1558
8 1560 1430 1559 1683 1680 1557 1679 1797
8 1561 1431 1560 1684 1681 1558 1680 1798
8 1563 1433 1564 1686 1683 1559 1682 1800
8 1684 1560 1432 1562 1801 1683 1563 1685
8 1565 1435 1566 1688 1685 1563 1686 1802
8 1566 1436 1567 1689 1686 1564 1687 1803
8 1568 1438 1569 1691 1688 1566 1689 1805
8 1569 1439 1570 1692 1689 1567 1690 1806
8 1571 1441 1572 1694 1691 1569 1692 1808
8 1442 1572 1692 1570 1573 1695 1809 1693
8 1574 1444 1575 1696 1694 1572 1695 1810
8 1614 1485 1592 1712 1699 1577 1697 1813
8 1579 1449 1577 1699 1701 1578 1698 1815
8 1615 1486 1614 1735 1702 1579 1699 1816
8 1701 1578 1700 1818 1581 1450 1580 1704
8 1582 1451 1579 1702 1705 1581 1701 1819
8 1704 1580 1703 1820 1584 1452 1583 1706
8 1705 1581 1704 1821 1585 1453 1584 1707
8 1707 1584 1706 1822 1587 1456 1586 1708
8 1710 1589 1506 1633 1824 1709 1632 1751
8 1594 1463 1589 1710 1716 1593 1709 1824
8 1752 1633 1710 1825 1634 1507 1590 1711
8 1595 1464 1590 1711 1717 1594 1710 1825
8 1830 1714 1592 1712 1733 1611 1485 1614
8 1603 1477 1593 1716 1725 1607 1715 1834
8 1599 1473 1594 1717 1721 1603 1716 1835
8 1837 1722 1623 1736 1718 1600 1496 1616
8 1719 1601 1722 1837 1597 1471 1600 1718
8 1602 1720 1598 1472 1723 1838 1719 1601
8 1720 1602 1473 1599 1839 1724 1603 1721
8 1723 1605 1726 1840 1601 1475 1604 1722
8 1840 1726 1628 1743 1722 1604 1501 1623
8 1724 1606 1727 1841 1602 1476 1605 1723
8 1725 1607 1728 1842 1603 1477 1606 1724
8 1612 1482 1608 1731 1733 1611 1730 1849
8 1741 1627 1730 1849 1622 1504 1608 1731
8 1613 1483 1609 1732 1734 1612 1731 1850
8 1618 1495 1622 1738 1732 1609 1731 1850
8 1615 1486 1612 1734 1735 1614 1733 1851
8 1852 1743 1626 1737 1736 1623 1499 1617
8 1853 1745 1625 1739 1737 1626 1500 1619
8 1855 1742 1622 1738 1740 1624 1497 1621
8 1856 1744 1624 1740 1739 1625 1498 1620
8 1741 1627 1504 1622 1857 1746 1631 1742
8 1742 1631 1505 1624 1858 1749 1630 1744
8 1859 1747 1629 1745 1743 1628 1502 1626
8 1860 1748 1630 1744 1745 1629 1503 1625
8 1644 1528 1651 1761 1751 1632 1750 1865
8 1637 1520 1644 1755 1752 1633 1751 1866
8 1754 1646 1522 1636 1867 1760 1643 1753
8 1657 1535 1658 1774 1753 1643 1760 1867
8 1639 1523 1646 1754 1756 1648 1763 1868
8 1641 1521 1645 1758 1755 1644 1761 1869
8 1757 1649 1526 1640 1870 1766 1648 1756
8 1642 1525 1649 1757 1759 1647 1765 1871
8 1759 1647 1762 1872 1642 1525 1645 1758
8 1760 1650 1767 1874 1646 1531 1655 1763
8 1658 1536 1659 1775 1760 1650 1767 1874
8 1762 1652 1768 1875 1645 1529 1651 1761
8 1764 1653 1769 1876 1647 1530 1652 1762
8 1656 1766 1877 1773 1532 1648 1763 1655
8 1771 1879 1765 1654 1653 1764 1647 1530
8 1533 1649 1765 1654 1656 1766 1880 1772
8 1662 1542 1664 1778 1774 1658 1775 1887
8 1664 1543 1665 1779 1775 1659 1776 1888
8 1778 1664 1541 1661 1890 1779 1663 1777
8 1666 1548 1668 1781 1777 1663 1779 1890
8 1782 1669 1780 1891 1668 1550 1665 1779
8 1670 1551 1671 1784 1781 1668 1782 1893
8 1671 1552 1672 1785 1782 1669 1783 1894
8 1790 1675 1785 1896 1674 1554 1671 1784
8 1675 1555 1673 1789 1785 1672 1786 1897
8 1792 1676 1788 1903 1678 1556 1673 1789
8 1795 1678 1789 1904 1681 1558 1675 1790
8 1792 1676 1556 1678 1906 1791 1677 1794
8 1680 1557 1679 1797 1794 1677 1793 1909
8 1910 1794 1678 1795 1798 1680 1558 1681
8 1683 1559 1682 1800 1797 1679 1796 1912
8 1684 1560 1683 1801 1798 1680 1797 1913
8 1686 1564 1687 1803 1800 1682 1799 1915
8 1685 1563 1686 1802 1801 1683 1800 1916
8 1688 1566 1689 1805 1802 1686 1803 1917
8 1689 1567 1690 1806 1803 1687 1804 1918
8 1691 1569 1692 1808 1805 1689 1806 1920
8 1692 1570 1693 1809 1806 1690 1807 1921
8 1694 1572 1695 1810 1808 1692 1809 1922
8 1829 1713 1811 1926 1712 1592 1697 1813
8 1813 1697 1812 1928 1699 1577 1698 1815
8 1735 1614 1712 1828 1816 1699 1813 1929
8 1815 1698 1814 1931 1701 1578 1700 1818
8 1702 1579 1699 1816 1819 1701 1815 1932
8 1818 1700 1817 1933 1704 1580 1703 1820
8 1819 1701 1818 1934 1705 1581 1704 1821
8 1821 1704 1820 1935 1707 1584 1706 1822
8 1824 1709 1632 1751 1937 1823 1750 1865
8 1716 1593 1709 1824 1834 1715 1823 1937
8 1825 1710 1633 1752 1938 1824 1751 1866
8 1717 1594 1710 1825 1835 1716 1824 1938
8 1945 1830 1712 1828 1851 1733 1614 1735
8 1830 1714 1831 1946 1712 1592 1713 1829
8 1947 1832 1714 1830 1849 1730 1611 1733
8 1843 1729 1607 1725 1950 1833 1715 1834
8 1721 1603 1716 1835 1836 1725 1834 1951
8 1836 1725 1842 1953 1721 1603 1724 1839
8 1723 1838 1719 1601 1840 1954 1837 1722
8 1954 1840 1743 1852 1837 1722 1623 1736
8 1724 1839 1720 1602 1841 1955 1838 1723
8 1841 1727 1844 1956 1723 1605 1726 1840
8 1956 1844 1747 1859 1840 1726 1628 1743
8 1728 1842 1724 1606 1845 1957 1841 1727
8 1725 1607 1729 1843 1842 1728 1846 1958
8 1741 1627 1746 1857 1849 1730 1848 1965
8 1734 1612 1731 1850 1851 1733 1849 1966
8 1854 1741 1849 1966 1738 1622 1731 1850
8 1967 1859 1745 1853 1852 1743 1626 1737
8 1968 1860 1744 1856 1853 1745 1625 1739
8 1854 1741 1622 1738 1969 1857 1742 1855
8 1855 1742 1624 1740 1970 1858 1744 1856
8 1857 1746 1631 1742 1971 1861 1749 1858
8 1858 1749 1630 1744 1972 1863 1748 1860
8 1859 1747 1862 1973 1745 1629 1748 1860
8 1875 1768 1864 1977 1761 1651 1750 1865
8 1755 1644 1761 1869 1866 1751 1865 1978
8 1867 1760 1874 1979 1754 1646 1763 1868
8 1774 1658 1775 1887 1867 1760 1874 1979
8 1870 1766 1648 1756 1980 1877 1763 1868
8 1872 1762 1875 1981 1758 1645 1761 1869
8 1757 1649 1766 1870 1871 1765 1880 1982
8 1983 1879 1764 1873 1871 1765 1647 1759
8 1873 1764 1876 1984 1759 1647 1762 1872
8 1877 1773 1655 1763 1986 1881 1767 1874
8 1775 1659 1776 1888 1874 1767 1881 1986
8 1876 1769 1882 1987 1762 1652 1768 1875
8 1878 1770 1883 1988 1764 1653 1769 1876
8 1880 1772 1656 1766 1989 1886 1773 1877
8 1878 1770 1653 1764 1990 1884 1771 1879
8 1765 1654 1772 1880 1879 1771 1885 1991
8 1778 1664 1779 1890 1887 1775 1888 1997
8 1998 1889 1776 1888 1891 1780 1665 1779
8 1893 1782 1891 2000 1781 1668 1779 1890
8 1894 1783 1892 2001 1782 1669 1780 1891
8 1784 1671 1785 1896 1893 1782 1894 2003
8 1897 1786 1895 2004 1785 1672 1783 1894
8 1790 1675 1789 1904 1896 1785 1897 2006
8 1901 1787 1898 2007 1789 1673 1786 1897
8 1903 1788 1900 2013 1789 1673 1787 1901
8 1792 1676 1791 1906 1903 1788 1902 2016
8 1907 1792 1903 2017 1795 1678 1789 1904
8 1906 1791 1677 1794 2019 1905 1793 1909
8 1907 1792 1678 1795 2020 1906 1794 1910
8 1797 1679 1796 1912 1909 1793 1908 2022
8 1798 1680 1797 1913 1910 1794 1909 2023
8 1800 1682 1799 1915 1912 1796 1911 2025
8 1801 1683 1800 1916 1913 1797 1912 2026
8 1803 1687 1804 1918 1915 1799 1914 2028
8 1802 1686 1803 1917 1916 1800 1915 2029
8 1805 1689 1806 1920 1917 1803 1918 2030
8 1806 1690 1807 1921 1918 1804 1919 2031
8 1808 1692 1809 1922 1920 1806 1921 2032
8 1939 1826 1924 2037 1829 1713 1811 1926
8 1926 1811 1925 2039 1813 1697 1812 1928
8 1944 1829 1926 2040 1828 1712 1813 1929
8 1928 1812 1927 2042 1815 1698 1814 1931
8 1929 1813 1928 2043 1816 1699 1815 1932
8 1931 1814 1930 2044 1818 1700 1817 1933
8 1932 1815 1931 2045 1819 1701 1818 1934
8 1934 1818 1933 2046 1821 1704 1820 1935
8 2048 1936 1823 1937 1977 1864 1750 1865
8 1950 1833 1715 1834 2048 1936 1823 1937
8 1938 1824 1751 1866 2049 1937 1865 1978
8 1835 1716 1824 1938 1951 1834 1937 2049
8 1939 1826 1713 1829 2053 1942 1831 1946
8 1940 1827 1923 2035 2053 1942 1826 1939
8 1945 1830 1946 2058 1828 1712 1829 1944
8 2059 1947 1830 1945 1966 1849 1733 1851
8 1947 1832 1730 1849 2060 1948 1848 1965
8 1947 1832 1948 2060 1830 1714 1831 1946
8 1959 1847 1729 1843 2063 1949 1833 1950
8 1952 1843 1725 1836 2064 1950 1834 1951
8 1836 1725 1843 1952 1953 1842 1958 2066
8 1953 1842 1957 2067 1839 1724 1841 1955
8 1841 1955 1838 1723 1956 2068 1954 1840
8 2068 1956 1859 1967 1954 1840 1743 1852
8 1956 1844 1960 2069 1859 1747 1862 1973
8 1845 1957 1841 1727 1960 2069 1956 1844
8 1728 1842 1957 1845 1846 1958 2071 1961
8 1962 2072 1959 1847 1846 1958 1843 1729
8 1971 1861 1964 2077 1857 1746 1848 1965
8 1854 1741 1857 1969 1966 1849 1965 2078
8 1967 1859 1973 2079 1853 1745 1860 1968
8 1970 1858 1744 1856 2080 1972 1860 1968
8 1969 1857 1742 1855 2081 1971 1858 1970
8 1971 1861 1749 1858 2082 1974 1863 1972
8 1973 1862 1975 2083 1860 1748 1863 1972
8 1987 1882 1976 2086 1875 1768 1864 1977
8 1981 1875 1977 2087 1869 1761 1865 1978
8 1980 1877 1763 1868 2088 1986 1874 1979
8 1887 1775 1888 1997 1979 1874 1986 2088
8 1880 1982 2089 1989 1766 1870 1980 1877
8 1984 1876 1987 2090 1872 1762 1875 1981
8 1765 1871 1983 1879 1880 1982 2091 1991
8 1985 1878 1764 1873 2092 1990 1879 1983
8 1985 1878 1988 2093 1873 1764 1876 1984
8 2094 1992 1881 1986 1998 1889 1776 1888
8 1986 1881 1992 2094 1877 1773 1886 1989
8 1988 1883 1993 2095 1876 1769 1882 1987
8 1878 1770 1884 1990 1988 1883 1994 2096
8 1991 1885 1772 1880 2097 1996 1886 1989
8 1879 1771 1885 1991 1990 1884 1995 2098
8 2103 1998 1888 1997 2000 1891 1779 1890
8 2104 1999 1889 1998 2001 1892 1780 1891
8 2003 1894 2001 2106 1893 1782 1891 2000
8 2004 1895 2002 2107 1894 1783 1892 2001
8 2006 1897 2004 2109 1896 1785 1894 2003
8 2007 1898 2005 2110 1897 1786 1895 2004
8 2014 1901 2007 2112 1904 1789 1897 2006
8 2011 1899 2008 2113 1901 1787 1898 2007
8 2119 2010 1899 2011 2013 1900 1787 1901
8 2016 1902 2012 2122 1903 1788 1900 2013
8 2017 1903 2013 2123 1904 1789 1901 2014
8 1906 1791 1905 2019 2016 1902 2015 2125
8 1907 1792 1906 2020 2017 1903 2016 2126
8 1909 1793 1908 2022 2019 1905 2018 2128
8 2020 1906 1794 1910 2129 2019 1909 2023
8 1912 1796 1911 2025 2022 1908 2021 2131
8 1913 1797 1912 2026 2023 1909 2022 2132
8 1915 1799 1914 2028 2025 1911 2024 2134
8 1916 1800 1915 2029 2026 1912 2025 2135
8 1918 1804 1919 2031 2028 1914 2027 2136
8 1917 1803 1918 2030 2029 1915 2028 2137
8 1920 1806 1921 2032 2030 1918 2031 2138
8 1940 1827 1941 2054 2035 1923 2033 2140
8 2035 1923 2034 2143 1939 1826 1924 2037
8 2037 1924 2036 2146 1926 1811 1925 2039
8 2051 1939 2037 2147 1944 1829 1926 2040
8 2039 1925 2038 2149 1928 1812 1927 2042
8 2040 1926 2039 2150 1929 1813 1928 2043
8 2042 1927 2041 2151 1931 1814 1930 2044
8 2043 1928 2042 2152 1932 1815 1931 2045
8 2045 1931 2044 2153 1934 1818 1933 2046
8 2155 2047 1936 2048 2086 1976 1864 1977
8 2063 1949 1833 1950 2155 2047 1936 2048
8 2156 2048 1937 2049 2087 1977 1865 1978
8 2064 1950 1834 1951 2156 2048 1937 2049
8 2051 1939 1829 1944 2160 2053 1946 2058
8 2052 1940 2035 2144 2160 2053 1939 2051
8 2053 1942 1831 1946 2163 2057 1948 2060
8 2055 1943 1827 1940 2163 2057 1942 2053
8 2055 1943 2056 2164 1940 1827 1941 2054
8 2059 1947 1849 1966 2167 2060 1965 2078
8 2059 1947 2060 2167 1945 1830 1946 2058
8 2077 1964 2061 2168 1965 1848 1948 2060
8 2070 1963 1847 1959 2170 2062 1949 2063
8 2065 1959 1843 1952 2171 2063 1950 2064
8 2173 2072 1958 2066 2065 1959 1843 1952
8 1953 1842 1958 2066 2067 1957 2071 2174
8 2068 1956 2069 2175 1967 1859 1973 2079
8 2067 1957 2069 2175 1955 1841 1956 2068
8 1845 1957 2069 1960 1961 2071 2176 2073
8 2069 1960 2073 2176 1973 1862 1975 2083
8 2070 1963 2075 2177 1959 1847 1962 2072
8 1846 1958 2071 1961 1962 2072 2178 2074
8 2077 1964 1861 1971 2182 2076 1974 2082
8 2081 1971 2077 2183 1969 1857 1965 2078
8 2079 1973 2083 2184 1968 1860 1972 2080
8 2081 1971 1858 1970 2185 2082 1972 2080
8 2083 1975 2084 2186 1972 1863 1974 2082
8 2086 1976 1882 1987 2189 2085 1993 2095
8 2090 1987 2086 2190 1981 1875 1977 2087
8 2191 2094 1986 2088 2103 1998 1888 1997
8 2088 1986 2094 2191 1980 1877 1989 2089
8 1991 2091 2192 2097 1880 1982 2089 1989
8 2093 1988 2095 2193 1984 1876 1987 2090
8 1879 1983 2092 1990 1991 2091 2194 2098
8 1985 1878 1990 2092 2093 1988 2096 2195
8 2097 1996 1886 1989 2196 2099 1992 2094
8 2196 2099 1992 2094 2104 1999 1889 1998
8 1994 2096 1988 1883 2100 2197 2095 1993
8 2096 1994 1884 1990 2198 2101 1995 2098
8 1995 2098 2199 2102 1885 1991 2097 1996
8 2203 2104 1998 2103 2106 2001 1891 2000
8 2107 2002 2105 2204 2001 1892 1999 2104
8 2109 2004 2107 2206 2003 1894 2001 2106
8 2110 2005 2108 2207 2004 1895 2002 2107
8 2112 2007 2110 2209 2006 1897 2004 2109
8 2113 2008 2111 2210 2007 1898 2005 2110
8 2120 2011 2113 2212 2014 1901 2007 2112
8 2117 2009 2114 2213 2011 1899 2008 2113
8 2219 2116 2009 2117 2119 2010 1899 2011
8 2222 2118 2010 2119 2122 2012 1900 2013
8 2223 2119 2011 2120 2123 2013 1901 2014
8 2016 1902 2015 2125 2122 2012 2121 2225
8 2126 2016 2122 2226 2017 1903 2013 2123
8 2019 1905 2018 2128 2125 2015 2124 2228
8 2020 1906 2019 2129 2126 2016 2125 2229
8 2022 1908 2021 2131 2128 2018 2127 2231
8 2023 1909 2022 2132 2129 2019 2128 2232
8 2025 1911 2024 2134 2131 2021 2130 2234
8 2026 1912 2025 2135 2132 2022 2131 2235
8 1914 2028 2134 2024 2027 2136 2236 2133
8 2029 1915 2028 2137 2135 2025 2134 2237
8 2030 1918 2031 2138 2137 2028 2136 2238
8 2157 2050 2139 2240 2054 1941 2033 2140
8 2052 1940 2054 2161 2144 2035 2140 2242
8 2140 2033 2141 2243 2035 1923 2034 2143
8 2143 2034 2142 2246 2037 1924 2036 2146
8 2144 2035 2143 2247 2051 1939 2037 2147
8 2146 2036 2145 2249 2039 1925 2038 2149
8 2147 2037 2146 2250 2040 1926 2039 2150
8 2149 2038 2148 2251 2042 1927 2041 2151
8 2150 2039 2149 2252 2043 1928 2042 2152
8 2152 2042 2151 2253 2045 1931 2044 2153
8 2255 2154 2047 2155 2189 2085 1976 2086
8 2170 2062 1949 2063 2255 2154 2047 2155
8 2256 2155 2048 2156 2190 2086 1977 2087
8 2171 2063 1950 2064 2256 2155 2048 2156
8 2258 2159 2050 2157 2164 2056 1941 2054
8 2160 2053 1946 2058 2262 2163 2060 2167
8 2162 2055 1940 2052 2262 2163 2053 2160
8 2162 2055 2164 2263 2052 1940 2054 2161
8 2163 2057 1948 2060 2264 2165 2061 2168
8 2055 1943 2057 2163 2164 2056 2165 2264
8 2182 2076 2166 2268 2077 1964 2061 2168
8 2183 2077 2168 2269 2078 1965 2060 2167
8 2070 1963 2062 2170 2177 2075 2169 2271
8 2172 2070 1959 2065 2272 2170 2063 2171
8 2172 2070 2177 2273 2065 1959 2072 2173
8 2066 1958 2072 2173 2174 2071 2178 2274
8 2067 1957 2071 2174 2175 2069 2176 2275
8 2175 2069 2176 2275 2079 1973 2083 2184
8 2071 1961 2074 2178 2176 2073 2179 2276
8 2176 2073 2179 2276 2083 1975 2084 2186
8 2072 1962 2075 2177 2178 2074 2180 2277
8 2182 2076 1974 2082 2280 2181 2084 2186
8 2183 2077 1971 2081 2281 2182 2082 2185
8 2184 2083 2186 2282 2080 1972 2082 2185
8 2189 2085 1993 2095 2285 2188 2100 2197
8 2190 2086 1987 2090 2286 2189 2095 2193
8 2192 2097 1989 2089 2287 2196 2094 2191
8 2287 2196 2094 2191 2203 2104 1998 2103
8 2194 2098 1991 2091 2288 2199 2097 2192
8 2195 2096 2197 2289 2093 1988 2095 2193
8 2096 2195 2290 2198 1990 2092 2194 2098
8 2097 1996 2099 2196 2199 2102 2200 2291
8 2196 2099 1999 2104 2291 2200 2105 2204
8 2100 2197 2292 2201 1994 2096 2198 2101
8 1995 2098 2198 2101 2102 2199 2293 2202
8 2206 2107 2204 2296 2106 2001 2104 2203
8 2207 2108 2205 2297 2107 2002 2105 2204
8 2209 2110 2207 2299 2109 2004 2107 2206
8 2210 2111 2208 2300 2110 2005 2108 2207
8 2212 2113 2210 2302 2112 2007 2110 2209
8 2213 2114 2211 2303 2113 2008 2111 2210
8 2220 2117 2213 2305 2120 2011 2113 2212
8 2216 2115 2214 2306 2117 2009 2114 2213
8 2216 2115 2009 2117 2311 2217 2116 2219
8 2219 2116 2010 2119 2314 2218 2118 2222
8 2315 2219 2117 2220 2223 2119 2011 2120
8 2122 2012 2121 2225 2222 2118 2221 2317
8 2318 2222 2119 2223 2226 2122 2013 2123
8 2125 2015 2124 2228 2225 2121 2224 2320
8 2126 2016 2125 2229 2226 2122 2225 2321
8 2128 2018 2127 2231 2228 2124 2227 2323
8 2129 2019 2128 2232 2229 2125 2228 2324
8 2131 2021 2130 2234 2231 2127 2230 2326
8 2132 2022 2131 2235 2232 2128 2231 2327
8 2134 2024 2133 2236 2234 2130 2233 2328
8 2135 2025 2134 2237 2235 2131 2234 2329
8 2137 2028 2136 2238 2237 2134 2236 2330
8 2157 2050 2158 2259 2240 2139 2239 2332
8 2257 2157 2240 2334 2161 2054 2140 2242
8 2240 2139 2241 2335 2140 2033 2141 2243
8 2242 2140 2243 2337 2144 2035 2143 2247
8 2243 2141 2244 2338 2143 2034 2142 2246
8 2246 2142 2245 2341 2146 2036 2145 2249
8 2247 2143 2246 2342 2147 2037 2146 2250
8 2249 2145 2248 2343 2149 2038 2148 2251
8 2250 2146 2249 2344 2150 2039 2149 2252
8 2252 2149 2251 2345 2152 2042 2151 2253
8 2169 2271 2347 2254 2062 2170 2255 2154
8 2189 2085 2188 2285 2255 2154 2254 2347
8 2348 2255 2155 2256 2286 2189 2086 2190
8 2272 2170 2063 2171 2348 2255 2155 2256
8 2349 2258 2157 2257 2263 2164 2054 2161
8 2258 2159 2261 2351 2157 2050 2158 2259
8 2258 2159 2056 2164 2351 2261 2165 2264
8 2262 2163 2060 2167 2355 2264 2168 2269
8 2162 2055 2163 2262 2263 2164 2264 2355
8 2357 2266 2165 2264 2268 2166 2061 2168
8 2268 2166 2076 2182 2361 2267 2181 2280
8 2281 2182 2268 2362 2183 2077 2168 2269
8 2271 2169 2270 2364 2177 2075 2180 2277
8 2172 2070 2170 2272 2273 2177 2271 2365
8 2072 2173 2274 2178 2177 2273 2366 2277
8 2071 2174 2275 2176 2178 2274 2367 2276
8 2275 2176 2276 2367 2184 2083 2186 2282
8 2283 2187 2084 2186 2368 2278 2179 2276
8 2178 2074 2180 2277 2276 2179 2278 2368
8 2283 2187 2279 2370 2186 2084 2181 2280
8 2281 2182 2082 2185 2371 2280 2186 2282
8 2188 2285 2374 2284 2100 2197 2292 2201
8 2286 2189 2095 2193 2375 2285 2197 2289
8 2192 2097 2196 2287 2288 2199 2291 2376
8 2287 2196 2104 2203 2376 2291 2204 2296
8 2194 2098 2199 2288 2290 2198 2293 2377
8 2289 2197 2096 2195 2378 2292 2198 2290
8 2291 2200 2105 2204 2379 2294 2205 2297
8 2199 2102 2200 2291 2293 2202 2294 2379
8 2198 2101 2202 2293 2292 2201 2295 2380
8 2299 2207 2297 2383 2206 2107 2204 2296
8 2300 2208 2298 2384 2207 2108 2205 2297
8 2302 2210 2300 2386 2209 2110 2207 2299
8 2303 2211 2301 2387 2210 2111 2208 2300
8 2305 2213 2303 2389 2212 2113 2210 2302
8 2306 2214 2304 2390 2213 2114 2211 2303
8 2310 2216 2306 2392 2220 2117 2213 2305
8 2308 2215 2307 2393 2216 2115 2214 2306
8 2308 2215 2115 2216 2396 2309 2217 2311
8 2310 2216 2117 2220 2398 2311 2219 2315
8 2311 2217 2116 2219 2399 2312 2218 2314
8 2314 2218 2118 2222 2402 2313 2221 2317
8 2315 2219 2119 2223 2403 2314 2222 2318
8 2225 2121 2224 2320 2317 2221 2316 2405
8 2226 2122 2225 2321 2318 2222 2317 2406
8 2228 2124 2227 2323 2320 2224 2319 2408
8 2229 2125 2228 2324 2321 2225 2320 2409
8 2231 2127 2230 2326 2323 2227 2322 2411
8 2232 2128 2231 2327 2324 2228 2323 2412
8 2234 2130 2233 2328 2326 2230 2325 2413
8 2235 2131 2234 2329 2327 2231 2326 2414
8 2237 2134 2236 2330 2329 2234 2328 2415
8 2259 2158 2260 2352 2332 2239 2331 2417
8 2257 2157 2259 2350 2334 2240 2332 2419
8 2240 2139 2239 2332 2335 2241 2333 2420
8 2334 2240 2335 2422 2242 2140 2243 2337
8 2335 2241 2336 2423 2243 2141 2244 2338
8 2337 2243 2338 2425 2247 2143 2246 2342
8 2338 2244 2339 2426 2246 2142 2245 2341
8 2341 2245 2340 2428 2249 2145 2248 2343
8 2342 2246 2341 2429 2250 2146 2249 2344
8 2344 2249 2343 2430 2252 2149 2251 2345
8 2188 2285 2347 2254 2284 2374 2432 2346
8 2347 2254 2346 2432 2271 2169 2270 2364
8 2365 2271 2170 2272 2433 2347 2255 2348
8 2286 2189 2285 2375 2348 2255 2347 2433
8 2349 2258 2351 2435 2257 2157 2259 2350
8 2349 2258 2164 2263 2435 2351 2264 2355
8 2259 2158 2261 2351 2352 2260 2354 2437
8 2356 2265 2354 2437 2264 2165 2261 2351
8 2441 2357 2264 2355 2362 2268 2168 2269
8 2356 2265 2165 2264 2442 2358 2266 2357
8 2443 2359 2266 2357 2361 2267 2166 2268
8 2370 2279 2360 2446 2280 2181 2267 2361
8 2362 2268 2182 2281 2447 2361 2280 2371
8 2180 2277 2368 2278 2270 2364 2449 2363
8 2271 2365 2273 2177 2364 2450 2366 2277
8 2372 2283 2186 2282 2451 2368 2276 2367
8 2178 2274 2367 2276 2277 2366 2451 2368
8 2283 2187 2278 2368 2370 2279 2369 2452
8 2372 2283 2370 2453 2282 2186 2280 2371
8 2284 2374 2455 2373 2201 2292 2380 2295
8 2375 2285 2197 2289 2456 2374 2292 2378
8 2376 2291 2204 2296 2457 2379 2297 2383
8 2288 2199 2291 2376 2377 2293 2379 2457
8 2198 2290 2378 2292 2293 2377 2458 2380
8 2293 2202 2294 2379 2380 2295 2381 2459
8 2384 2298 2381 2459 2297 2205 2294 2379
8 2386 2300 2384 2463 2299 2207 2297 2383
8 2387 2301 2385 2464 2300 2208 2298 2384
8 2389 2303 2387 2466 2302 2210 2300 2386
8 2390 2304 2388 2467 2303 2211 2301 2387
8 2392 2306 2390 2469 2305 2213 2303 2389
8 2393 2307 2391 2470 2306 2214 2304 2390
8 2395 2308 2393 2472 2310 2216 2306 2392
8 2308 2215 2309 2396 2393 2307 2394 2473
8 2395 2308 2216 2310 2475 2396 2311 2398
8 2396 2309 2217 2311 2476 2397 2312 2399
8 2398 2311 2219 2315 2478 2399 2314 2403
8 2399 2312 2218 2314 2479 2400 2313 2402
8 2317 2221 2316 2405 2402 2313 2401 2482
8 2403 2314 2222 2318 2483 2402 2317 2406
8 2320 2224 2319 2408 2405 2316 2404 2485
8 2321 2225 2320 2409 2406 2317 2405 2486
8 2323 2227 2322 2411 2408 2319 2407 2488
8 2324 2228 2323 2412 2409 2320 2408 2489
8 2326 2230 2325 2413 2411 2322 2410 2490
8 2327 2231 2326 2414 2412 2323 2411 2491
8 2329 2234 2328 2415 2414 2326 2413 2492
8 2417 2331 2260 2352 2494 2416 2353 2438
8 2350 2259 2352 2436 2419 2332 2417 2496
8 2332 2239 2331 2417 2420 2333 2418 2497
8 2334 2240 2332 2419 2422 2335 2420 2499
8 2420 2333 2421 2500 2335 2241 2336 2423
8 2422 2335 2423 2502 2337 2243 2338 2425
8 2423 2336 2424 2503 2338 2244 2339 2426
8 2425 2338 2426 2505 2342 2246 2341 2429
8 2426 2339 2427 2506 2341 2245 2340 2428
8 2429 2341 2428 2507 2344 2249 2343 2430
8 2432 2346 2284 2374 2509 2431 2373 2455
8 2432 2346 2431 2509 2364 2270 2363 2449
8 2375 2285 2374 2456 2433 2347 2432 2510
8 2347 2433 2365 2271 2432 2510 2450 2364
8 2350 2259 2351 2435 2436 2352 2437 2514
8 2440 2356 2437 2514 2355 2264 2351 2435
8 2352 2260 2354 2437 2438 2353 2439 2516
8 2356 2265 2358 2442 2437 2354 2439 2516
8 2440 2356 2264 2355 2518 2442 2357 2441
8 2519 2443 2357 2441 2447 2361 2268 2362
8 2443 2359 2444 2520 2357 2266 2358 2442
8 2443 2359 2267 2361 2520 2444 2360 2446
8 2446 2360 2279 2370 2523 2445 2369 2452
8 2453 2370 2446 2524 2371 2280 2361 2447
8 2449 2363 2448 2525 2368 2278 2369 2452
8 2366 2277 2364 2450 2451 2368 2449 2526
8 2372 2283 2368 2451 2453 2370 2452 2527
8 2455 2373 2295 2380 2529 2454 2382 2460
8 2456 2374 2292 2378 2530 2455 2380 2458
8 2377 2293 2379 2457 2458 2380 2459 2531
8 2463 2384 2459 2531 2383 2297 2379 2457
8 2533 2461 2382 2460 2459 2381 2295 2380
8 2464 2385 2461 2533 2384 2298 2381 2459
8 2466 2387 2464 2537 2386 2300 2384 2463
8 2467 2388 2465 2538 2387 2301 2385 2464
8 2469 2390 2467 2540 2389 2303 2387 2466
8 2470 2391 2468 2541 2390 2304 2388 2467
8 2472 2393 2470 2543 2392 2306 2390 2469
8 2393 2307 2394 2473 2470 2391 2471 2544
8 2395 2308 2396 2475 2472 2393 2473 2546
8 2396 2309 2397 2476 2473 2394 2474 2547
8 2475 2396 2311 2398 2549 2476 2399 2478
8 2476 2397 2312 2399 2550 2477 2400 2479
8 2478 2399 2314 2403 2552 2479 2402 2483
8 2479 2400 2313 2402 2553 2480 2401 2482
8 2405 2316 2404 2485 2482 2401 2481 2556
8 2406 2317 2405 2486 2483 2402 2482 2557
8 2408 2319 2407 2488 2485 2404 2484 2559
8 2409 2320 2408 2489 2486 2405 2485 2560
8 2411 2322 2410 2490 2488 2407 2487 2561
8 2412 2323 2411 2491 2489 2408 2488 2562
8 2414 2326 2413 2492 2491 2411 2490 2563
8 2513 2434 2493 2565 2438 2353 2416 2494
8 2496 2417 2352 2436 2567 2494 2438 2515
8 2494 2416 2495 2568 2417 2331 2418 2497
8 2419 2332 2417 2496 2499 2420 2497 2570
8 2497 2418 2498 2571 2420 2333 2421 2500
8 2499 2420 2500 2573 2422 2335 2423 2502
8 2500 2421 2501 2574 2423 2336 2424 2503
8 2502 2423 2503 2576 2425 2338 2426 2505
8 2503 2424 2504 2577 2426 2339 2427 2506
8 2505 2426 2506 2578 2429 2341 2428 2507
8 2509 2431 2373 2455 2580 2508 2454 2529
8 2509 2431 2508 2580 2449 2363 2448 2525
8 2432 2510 2581 2509 2374 2456 2530 2455
8 2432 2510 2450 2364 2509 2581 2526 2449
8 2583 2511 2434 2513 2516 2439 2353 2438
8 2436 2352 2437 2514 2515 2438 2516 2588
8 2440 2356 2442 2518 2514 2437 2516 2588
8 2442 2358 2444 2520 2516 2439 2517 2589
8 2519 2443 2520 2591 2441 2357 2442 2518
8 2519 2443 2361 2447 2591 2520 2446 2524
8 2446 2360 2445 2523 2520 2444 2521 2592
8 2525 2448 2522 2593 2452 2369 2445 2523
8 2524 2446 2370 2453 2594 2523 2452 2527
8 2526 2449 2525 2595 2451 2368 2452 2527
8 2534 2462 2528 2597 2460 2382 2454 2529
8 2530 2455 2380 2458 2598 2529 2460 2532
8 2599 2533 2460 2532 2531 2459 2380 2458
8 2537 2464 2533 2599 2463 2384 2459 2531
8 2534 2462 2382 2460 2601 2535 2461 2533
8 2538 2465 2535 2601 2464 2385 2461 2533
8 2540 2467 2538 2604 2466 2387 2464 2537
8 2541 2468 2539 2605 2467 2388 2465 2538
8 2543 2470 2541 2607 2469 2390 2467 2540
8 2470 2391 2471 2544 2541 2468 2542 2608
8 2472 2393 2473 2546 2543 2470 2544 2610
8 2473 2394 2474 2547 2544 2471 2545 2611
8 2475 2396 2476 2549 2546 2473 2547 2613
8 2476 2397 2477 2550 2547 2474 2548 2614
8 2549 2476 2399 2478 2616 2550 2479 2552
8 2479 2400 2480 2553 2550 2477 2551 2617
8 2552 2479 2402 2483 2619 2553 2482 2557
8 2482 2401 2481 2556 2553 2480 2554 2620
8 2485 2404 2484 2559 2556 2481 2555 2623
8 2486 2405 2485 2560 2557 2482 2556 2624
8 2488 2407 2487 2561 2559 2484 2558 2625
8 2489 2408 2488 2562 2560 2485 2559 2626
8 2491 2411 2490 2563 2562 2488 2561 2627
8 2513 2434 2512 2585 2565 2493 2564 2630
8 2586 2513 2565 2632 2515 2438 2494 2567
8 2565 2493 2566 2633 2494 2416 2495 2568
8 2567 2494 2568 2635 2496 2417 2497 2570
8 2568 2495 2569 2636 2497 2418 2498 2571
8 2570 2497 2571 2638 2499 2420 2500 2573
8 2571 2498 2572 2639 2500 2421 2501 2574
8 2573 2500 2574 2641 2502 2423 2503 2576
8 2574 2501 2575 2642 2503 2424 2504 2577
8 2576 2503 2577 2643 2505 2426 2506 2578
8 2597 2528 2579 2645 2529 2454 2508 2580
8 2580 2508 2579 2645 2525 2448 2522 2593
8 2581 2509 2455 2530 2646 2580 2529 2598
8 2581 2509 2580 2646 2526 2449 2525 2595
8 2583 2511 2582 2648 2513 2434 2512 2585
8 2583 2511 2439 2516 2648 2582 2517 2589
8 2649 2583 2513 2586 2588 2516 2438 2515
8 2589 2517 2444 2520 2653 2587 2521 2592
8 2518 2442 2520 2591 2588 2516 2589 2654
8 2593 2522 2590 2655 2523 2445 2521 2592
8 2524 2446 2523 2594 2591 2520 2592 2656
8 2595 2525 2593 2657 2527 2452 2523 2594
8 2602 2536 2596 2659 2534 2462 2528 2597
8 2600 2534 2597 2660 2532 2460 2529 2598
8 2600 2534 2460 2532 2661 2601 2533 2599
8 2604 2538 2601 2661 2537 2464 2533 2599
8 2602 2536 2462 2534 2663 2603 2535 2601
8 2601 2535 2465 2538 2663 2603 2539 2605
8 2607 2541 2605 2665 2540 2467 2538 2604
8 2608 2542 2606 2666 2541 2468 2539 2605
8 2543 2470 2544 2610 2607 2541 2608 2668
8 2544 2471 2545 2611 2608 2542 2609 2669
8 2546 2473 2547 2613 2610 2544 2611 2671
8 2547 2474 2548 2614 2611 2545 2612 2672
8 2549 2476 2550 2616 2613 2547 2614 2674
8 2550 2477 2551 2617 2614 2548 2615 2675
8 2552 2479 2553 2619 2616 2550 2617 2677
8 2553 2480 2554 2620 2617 2551 2618 2678
8 2557 2482 2556 2624 2619 2553 2620 2680
8 2556 2481 2555 2623 2620 2554 2621 2681
8 2559 2484 2558 2625 2623 2555 2622 2683
8 2560 2485 2559 2626 2624 2556 2623 2684
8 2562 2488 2561 2627 2626 2559 2625 2685
8 2690 2629 2564 2630 2650 2584 2512 2585
8 2586 2513 2585 2651 2632 2565 2630 2691
8 2630 2564 2631 2692 2565 2493 2566 2633
8 2632 2565 2633 2694 2567 2494 2568 2635
8 2633 2566 2634 2695 2568 2495 2569 2636
8 2635 2568 2636 2697 2570 2497 2571 2638
8 2636 2569 2637 2698 2571 2498 2572 2639
8 2638 2571 2639 2700 2573 2500 2574 2641
8 2639 2572 2640 2701 2574 2501 2575 2642
8 2641 2574 2642 2702 2576 2503 2577 2643
8 2597 2528 2596 2659 2645 2579 2644 2704
8 2645 2579 2644 2704 2593 2522 2590 2655
8 2660 2597 2645 2705 2598 2529 2580 2646
8 2646 2580 2645 2705 2595 2525 2593 2657
8 2650 2584 2512 2585 2707 2647 2582 2648
8 2648 2582 2517 2589 2707 2647 2587 2653
8 2649 2583 2648 2708 2586 2513 2585 2651
8 2649 2583 2516 2588 2708 2648 2589 2654
8 2655 2590 2652 2710 2592 2521 2587 2653
8 2654 2589 2520 2591 2711 2653 2592 2656
8 2657 2593 2655 2712 2594 2523 2592 2656
8 2602 2536 2603 2663 2659 2596 2658 2714
8 2662 2602 2659 2715 2600 2534 2597 2660
8 2662 2602 2534 2600 2717 2663 2601 2661
8 2661 2601 2538 2604 2717 2663 2605 2665
8 2666 2606 2664 2718 2605 2539 2603 2663
8 2668 2608 2666 2720 2607 2541 2605 2665
8 2608 2542 2609 2669 2666 2606 2667 2721
8 2610 2544 2611 2671 2668 2608 2669 2723
8 2611 2545 2612 2672 2669 2609 2670 2724
8 2613 2547 2614 2674 2671 2611 2672 2726
8 2614 2548 2615 2675 2672 2612 2673 2727
8 2616 2550 2617 2677 2674 2614 2675 2729
8 2617 2551 2618 2678 2675 2615 2676 2730
8 2619 2553 2620 2680 2677 2617 2678 2732
8 2620 2554 2621 2681 2678 2618 2679 2733
8 2624 2556 2623 2684 2680 2620 2681 2735
8 2681 2621 2555 2623 2736 2682 2622 2683
8 2626 2559 2625 2685 2684 2623 2683 2737
8 2688 2628 2584 2650 2740 2686 2647 2707
8 2688 2628 2687 2742 2650 2584 2629 2690
8 2690 2629 2689 2745 2630 2564 2631 2692
8 2746 2690 2630 2691 2709 2650 2585 2651
8 2691 2630 2692 2747 2632 2565 2633 2694
8 2692 2631 2693 2748 2633 2566 2634 2695
8 2694 2633 2695 2750 2635 2568 2636 2697
8 2695 2634 2696 2751 2636 2569 2637 2698
8 2697 2636 2698 2753 2638 2571 2639 2700
8 2698 2637 2699 2754 2639 2572 2640 2701
8 2700 2639 2701 2755 2641 2574 2642 2702
8 2659 2596 2658 2714 2704 2644 2703 2757
8 2704 2644 2703 2757 2655 2590 2652 2710
8 2660 2597 2659 2715 2705 2645 2704 2758
8 2705 2645 2704 2758 2657 2593 2655 2712
8 2759 2706 2647 2707 2710 2652 2587 2653
8 2709 2650 2585 2651 2760 2707 2648 2708
8 2708 2648 2589 2654 2760 2707 2653 2711
8 2712 2655 2710 2761 2656 2592 2653 2711
8 2763 2713 2658 2714 2718 2664 2603 2663
8 2662 2602 2663 2717 2715 2659 2714 2764
8 2720 2666 2718 2767 2665 2605 2663 2717
8 2768 2719 2664 2718 2721 2667 2606 2666
8 2668 2608 2669 2723 2720 2666 2721 2770
8 2669 2609 2670 2724 2721 2667 2722 2771
8 2671 2611 2672 2726 2723 2669 2724 2773
8 2672 2612 2673 2727 2724 2670 2725 2774
8 2674 2614 2675 2729 2726 2672 2727 2776
8 2675 2615 2676 2730 2727 2673 2728 2777
8 2677 2617 2678 2732 2729 2675 2730 2779
8 2678 2618 2679 2733 2730 2676 2731 2780
8 2680 2620 2681 2735 2732 2678 2733 2782
8 2733 2679 2621 2681 2783 2734 2682 2736
8 2735 2681 2623 2684 2784 2736 2683 2737
8 2740 2686 2647 2707 2787 2738 2706 2759
8 2688 2628 2686 2740 2742 2687 2739 2789
8 2743 2688 2650 2709 2790 2740 2707 2760
8 2742 2687 2741 2792 2690 2629 2689 2745
8 2743 2688 2742 2793 2709 2650 2690 2746
8 2745 2689 2744 2795 2692 2631 2693 2748
8 2746 2690 2745 2796 2691 2630 2692 2747
8 2747 2692 2748 2797 2694 2633 2695 2750
8 2748 2693 2749 2798 2695 2634 2696 2751
8 2750 2695 2751 2800 2697 2636 2698 2753
8 2751 2696 2752 2801 2698 2637 2699 2754
8 2753 2698 2754 2802 2700 2639 2701 2755
8 2763 2713 2756 2804 2714 2658 2703 2757
8 2759 2706 2652 2710 2804 2756 2703 2757
8 2715 2659 2714 2764 2758 2704 2757 2805
8 2758 2704 2757 2805 2712 2655 2710 2761
8 2806 2759 2707 2760 2761 2710 2653 2711
8 2765 2716 2762 2808 2718 2664 2713 2763
8 2809 2763 2714 2764 2767 2718 2663 2717
8 2765 2716 2664 2718 2811 2766 2719 2768
8 2813 2768 2718 2767 2770 2721 2666 2720
8 2814 2769 2719 2768 2771 2722 2667 2721
8 2723 2669 2724 2773 2770 2721 2771 2816
8 2724 2670 2725 2774 2771 2722 2772 2817
8 2726 2672 2727 2776 2773 2724 2774 2819
8 2727 2673 2728 2777 2774 2725 2775 2820
8 2729 2675 2730 2779 2776 2727 2777 2822
8 2730 2676 2731 2780 2777 2728 2778 2823
8 2732 2678 2733 2782 2779 2730 2780 2825
8 2780 2731 2679 2733 2826 2781 2734 2783
8 2782 2733 2681 2735 2827 2783 2736 2784
8 2830 2785 2738 2787 2804 2756 2706 2759
8 2789 2739 2686 2740 2832 2786 2738 2787
8 2790 2740 2707 2760 2833 2787 2759 2806
8 2742 2687 2739 2789 2792 2741 2788 2835
8 2743 2688 2740 2790 2793 2742 2789 2836
8 2792 2741 2791 2838 2745 2689 2744 2795
8 2793 2742 2792 2839 2746 2690 2745 2796
8 2795 2744 2794 2841 2748 2693 2749 2798
8 2796 2745 2795 2842 2747 2692 2748 2797
8 2797 2748 2798 2843 2750 2695 2751 2800
8 2798 2749 2799 2844 2751 2696 2752 2801
8 2800 2751 2801 2845 2753 2698 2754 2802
8 2808 2762 2803 2847 2763 2713 2756 2804
8 2809 2763 2804 2848 2764 2714 2757 2805
8 2806 2759 2710 2761 2848 2804 2757 2805
8 2765 2716 2766 2811 2808 2762 2807 2850
8 2810 2765 2808 2851 2767 2718 2763 2809
8 2810 2765 2718 2767 2852 2811 2768 2813
8 2811 2766 2719 2768 2853 2812 2769 2814
8 2855 2814 2768 2813 2816 2771 2721 2770
8 2856 2815 2769 2814 2817 2772 2722 2771
8 2773 2724 2774 2819 2816 2771 2817 2858
8 2774 2725 2775 2820 2817 2772 2818 2859
8 2776 2727 2777 2822 2819 2774 2820 2861
8 2777 2728 2778 2823 2820 2775 2821 2862
8 2779 2730 2780 2825 2822 2777 2823 2864
8 2823 2778 2731 2780 2865 2824 2781 2826
8 2825 2780 2733 2782 2866 2826 2783 2827
8 2869 2828 2785 2830 2847 2803 2756 2804
8 2871 2829 2786 2832 2830 2785 2738 2787
8 2872 2830 2787 2833 2848 2804 2759 2806
8 2789 2739 2786 2832 2835 2788 2831 2874
8 2836 2789 2740 2790 2875 2832 2787 2833
8 2792 2741 2788 2835 2838 2791 2834 2877
8 2793 2742 2789 2836 2839 2792 2835 2878
8 2838 2791 2837 2880 2795 2744 2794 2841
8 2839 2792 2838 2881 2796 2745 2795 2842
8 2841 2794 2840 2882 2798 2749 2799 2844
8 2842 2795 2841 2883 2797 2748 2798 2843
8 2843 2798 2844 2884 2800 2751 2801 2845
8 2886 2846 2803 2847 2850 2807 2762 2808
8 2851 2808 2847 2887 2809 2763 2804 2848
8 2850 2807 2766 2811 2889 2849 2812 2853
8 2810 2765 2811 2852 2851 2808 2850 2890
8 2852 2811 2768 2813 2891 2853 2814 2855
8 2853 2812 2769 2814 2892 2854 2815 2856
8 2894 2856 2814 2855 2858 2817 2771 2816
8 2817 2772 2818 2859 2856 2815 2857 2895
8 2819 2774 2820 2861 2858 2817 2859 2897
8 2820 2775 2821 2862 2859 2818 2860 2898
8 2822 2777 2823 2864 2861 2820 2862 2900
8 2823 2778 2824 2865 2862 2821 2863 2901
8 2864 2823 2780 2825 2902 2865 2826 2866
8 2904 2867 2828 2869 2886 2846 2803 2847
8 2869 2828 2868 2906 2830 2785 2829 2871
8 2907 2869 2830 2872 2887 2847 2804 2848
8 2871 2829 2870 2909 2832 2786 2831 2874
8 2910 2871 2832 2875 2872 2830 2787 2833
8 2835 2788 2831 2874 2877 2834 2873 2912
8 2836 2789 2832 2875 2878 2835 2874 2913
8 2877 2834 2876 2915 2838 2791 2837 2880
8 2839 2792 2835 2878 2881 2838 2877 2916
8 2880 2837 2879 2917 2841 2794 2840 2882
8 2881 2838 2880 2918 2842 2795 2841 2883
8 2883 2841 2882 2919 2843 2798 2844 2884
8 2921 2885 2846 2886 2889 2849 2807 2850
8 2922 2886 2847 2887 2890 2850 2808 2851
8 2889 2849 2812 2853 2924 2888 2854 2892
8 2890 2850 2811 2852 2925 2889 2853 2891
8 2891 2853 2814 2855 2926 2892 2856 2894
8 2892 2854 2815 2856 2927 2893 2857 2895
8 2858 2817 2859 2897 2894 2856 2895 2929
8 2859 2818 2860 2898 2895 2857 2896 2930
8 2861 2820 2862 2900 2897 2859 2898 2932
8 2862 2821 2863 2901 2898 2860 2899 2933
8 2864 2823 2865 2902 2900 2862 2901 2934
8 2904 2867 2846 2886 2936 2903 2885 2921
8 2904 2867 2903 2936 2869 2828 2868 2906
8 2937 2904 2869 2907 2922 2886 2847 2887
8 2906 2868 2905 2939 2871 2829 2870 2909
8 2907 2869 2906 2940 2872 2830 2871 2910
8 2909 2870 2908 2942 2874 2831 2873 2912
8 2910 2871 2909 2943 2875 2832 2874 2913
8 2912 2873 2911 2945 2877 2834 2876 2915
8 2878 2835 2874 2913 2916 2877 2912 2946
8 2915 2876 2914 2947 2880 2837 2879 2917
8 2916 2877 2915 2948 2881 2838 2880 2918
8 2918 2880 2917 2949 2883 2841 2882 2919
8 2921 2885 2849 2889 2951 2920 2888 2924
8 2952 2921 2886 2922 2925 2889 2850 2890
8 2924 2888 2854 2892 2954 2923 2893 2927
8 2925 2889 2853 2891 2955 2924 2892 2926
8 2926 2892 2856 2894 2956 2927 2895 2929
8 2895 2857 2896 2930 2927 2893 2928 2957
8 2897 2859 2898 2932 2929 2895 2930 2959
8 2898 2860 2899 2933 2930 2896 2931 2960
8 2900 2862 2901 2934 2932 2898 2933 2961
8 2936 2903 2885 2921 2963 2935 2920 2951
8 2936 2903 2935 2963 2906 2868 2905 2939
8 2937 2904 2886 2922 2964 2936 2921 2952
8 2937 2904 2936 2964 2907 2869 2906 2940
8 2939 2905 2938 2966 2909 2870 2908 2942
8 2940 2906 2939 2967 2910 2871 2909 2943
8 2942 2908 2941 2969 2912 2873 2911 2945
8 2943 2909 2942 2970 2913 2874 2912 2946
8 2945 2911 2944 2971 2915 2876 2914 2947
8 2946 2912 2945 2972 2916 2877 2915 2948
8 2948 2915 2947 2973 2918 2880 2917 2949
8 2951 2920 2888 2924 2975 2950 2923 2954
8 2952 2921 2889 2925 2976 2951 2924 2955
8 2927 2893 2928 2957 2954 2923 2953 2978
8 2955 2924 2892 2926 2979 2954 2927 2956
8 2929 2895 2930 2959 2956 2927 2957 2980
8 2930 2896 2931 2960 2957 2928 2958 2981
8 2932 2898 2933 2961 2959 2930 2960 2982
8 2951 2920 2950 2975 2963 2935 2962 2984
8 2963 2935 2962 2984 2939 2905 2938 2966
8 2964 2936 2921 2952 2985 2963 2951 2976
8 2964 2936 2963 2985 2940 2906 2939 2967
8 2966 2938 2965 2987 2942 2908 2941 2969
8 2967 2939 2966 2988 2943 2909 2942 2970
8 2969 2941 2968 2989 2945 2911 2944 2971
8 2970 2942 2969 2990 2946 2912 2945 2972
8 2972 2945 2971 2991 2948 2915 2947 2973
8 2954 2923 2953 2978 2975 2950 2974 2993
8 2976 2951 2924 2955 2994 2975 2954 2979
8 2957 2928 2958 2981 2978 2953 2977 2995
8 2956 2927 2957 2980 2979 2954 2978 2996
8 2959 2930 2960 2982 2980 2957 2981 2997
8 2984 2962 2983 2999 2966 2938 2965 2987
8 2975 2950 2974 2993 2984 2962 2983 2999
8 2976 2951 2975 2994 2985 2963 2984 3000
8 2985 2963 2984 3000 2967 2939 2966 2988
8 2987 2965 2986 3001 2969 2941 2968 2989
8 2988 2966 2987 3002 2970 2942 2969 2990
8 2990 2969 2989 3003 2972 2945 2971 2991
8 2978 2953 2977 2995 2993 2974 2992 3004
8 2979 2954 2978 2996 2994 2975 2993 3005
8 2980 2957 2981 2997 2996 2978 2995 3006
8 2974 2993 2999 2983 2992 3004 3007 2998
8 2983 2999 2987 2965 2998 3007 3001 2986
8 3000 2984 2999 3008 2988 2966 2987 3002
8 2994 2975 2993 3005 3000 2984 2999 3008
8 3002 2987 3001 3009 2990 2969 2989 3003
8 2996 2978 2995 3006 3005 2993 3004 3010
8 3005 2993 3004 3010 3008 2999 3007 3011
8 3008 2999 3007 3011 3002 2987 3001 3009

CELL_TYPES 1910
12
12
12
12
12
12
12
12
12
12
12
12
12
12
12
12
12
12
12
12
12
12
12
12
12
12
12
12
12
12
12
12
12
12
12
12
12
12
12
12
12
12
12
12
12
12
12
12
12
12
12
12
12
12
12
12
12
12
12
12
12
12
12
12
12
12
12
12
12
12
12
12
12
12
12
12
12
12
12
12
12
12
12
12
12
12
12
12
12
12
12
12
12
12
12
12
12
12
12
12
12
12
12
12
12
12
12
12
12
12
12
12
12
12
12
12
12
12
12
12
12
12
12
12
12
12
12
12
12
12
12
12
12
12
12
12
12
12
12
12
12
12
12
12
12
12
12
12
12
12
12
12
12
12
12
12
12
12
12
12
12
12
12
12
12
12
12
12
12
12
12
12
12
12
12
12
12
12
12
12
12
12
12
12
12
12
12
12
12
12
12
12
12
12
12
12
12
12
12
12
12
12
12
12
12
12
12
12
12
12
12
12
12
12
12
12
12
12
12
12
12
12
12
12
12
12
12
12
12
12
12
12
12
12
12
12
12
12
12
12
12
12
12
12
12
12
12
12
12
12
12
12
12
12
12
12
12
12
12
12
12
12
12
12
12
12
12
12
12
12
12
12
12
12
12
12
12
12
12
12
12
12
12
12
12
12
12
12
12
12
12
12
12
12
12
12
12
12
12
12
12
12
12
12
12
12
12
12
12
12
12
12
12
12
12
12
12
12
12
12
12
12
12
12
12
12
12
12
12
12
12
12
12
12
12
12
12
12
12
12
12
12
12
12
12
12
12
12
12
12
12
12
12
12
12
12
12
12
12
12
12
12
12
12
12
12
12
12
12
12
12
12
12
12
12
12
12
12
12
12
12
12
12
12
12
12
12
12
12
12
12
12
12
12
12
12
12
12
12
12
12
12
12
12
12
12
12
12
12
12
12
12
12
12
12
12
12
12
12
12
12
12
12
12
12
12
12
12
12
12
12
12
12
12
12
12
12
12
12
12
12
12
12
12
12
12
12
12
12
12
12
12
12
12
12
12
12
12
12
12
12
12
12
12
12
12
12
12
12
12
12
12
12
12
12
12
12
12
12
12
12
12
12
12
12
12
12
12
12
12
12
12
12
12
12
12
12
12
12
12
12
12
12
12
12
12
12
12
12
12
12
12
12
12
12
12
12
12
12
12
12
12
12
12
12
12
12
12
12
12
12
12
12
12
12
12
12
12
12
12
12
12
12
12
12
12
12
12
12
12
12
12
12
12
12
12
12
12
12
12
12
12
12
12
12
12
12
12
12
12
12
12
12
12
12
12
12
12
12
12
12
12
12
12
12
12
12
12
12
12
12
12
12
12
12
12
12
12
12
12
12
12
12
12
12
12
12
12
12
12
12
12
12
12
12
12
12
12
12
12
12
12
12
12
12
12
12
12
12
12
12
12
12
12
12
12
12
12
12
12
12
12
12
12
12
12
12
12
12
12
12
12
12
12
12
12
12
12
12
12
12
12
12
12
12
12
12
12
12
12
12
12
12
12
12
12
12
12
12
12
12
12
12
12
12
12
12
12
12
12
12
12
12
12
12
12
12
12
12
12
12
12
12
12
12
12
12
12
12
12
12
12
12
12
12
12
12
12
12
12
12
12
12
12
12
12
12
12
12
12
12
12
12
12
12
12
12
12
12
12
12
12
12
12
12
12
12
12
12
12
12
12
12
12
12
12
12
12
12
12
12
12
12
12
12
12
12
12
12
12
12
12
12
12
12
12
12
12
12
12
12
12
12
12
12
12
12
12
12
12
12
12
12
12
12
12
12
12
12
12
12
12
12
12
12
12
12
12
12
12
12
12
12
12
12
12
12
12
12
12
12
12
12
12
12
12
12
12
12
12
12
12
12
12
12
12
12
12
12
12
12
12
12
12
12
12
12
12
12
12
12
12
12
12
12
12
12
12
12
12
12
12
12
12
12
12
12
12
12
12
12
12
12
12
12
12
12
12
12
12
12
12
12
12
12
12
12
12
12
12
12
12
12
12
12
12
12
12
12
12
12
12
12
12
12
12
12
12
12
12
12
12
12
12
12
12
12
12
12
12
12
12
12
12
12
12
12
12
12
12
12
12
12
12
12
12
12
12
12
12
12
12
12
12
12
12
12
12
12
12
12
12
12
12
12
12
12
12
12
12
12
12
12
12
12
12
12
12
12
12
12
12
12
12
12
12
12
12
12
12
12
12
12
12
12
12
12
12
12
12
12
12
12
12
12
12
12
12
12
12
12
12
12
12
12
12
12
12
12
12
12
12
12
12
12
12
12
12
12
12
12
12
12
12
12
12
12
12
12
12
12
12
12
12
12
12
12
12
12
12
12
12
12
12
12
12
12
12
12
12
12
12
12
12
12
12
12
12
12
12
12
12
12
12
12
12
12
12
12
12
12
12
12
12
12
12
12
12
12
12
12
12
12
12
12
12
12
12
12
12
12
12
12
12
12
12
12
12
12
12
12
12
12
12
12
12
12
12
12
12
12
12
12
12
12
12
12
12
12
12
12
12
12
12
12
12
12
12
12
12
12
12
12
12
12
12
12
12
12
12
12
12
12
12
12
12
12
12
12
12
12
12
12
12
12
12
12
12
12
12
12
12
12
12
12
12
12
12
12
12
12
12
12
12
12
12
12
12
12
12
12
12
12
12
12
12
12
12
12
12
12
12
12
12
12
12
12
12
12
12
12
12
12
12
12
12
12
12
12
12
12
12
12
12
12
12
12
12
12
12
12
12
12
12
12
12
12
12
12
12
12
12
12
12
12
12
12
12
12
12
12
12
12
12
12
12
12
12
12
12
12
12
12
12
12
12
12
12
12
12
12
12
12
12
12
12
12
12
12
12
12
12
12
12
12
12
12
12
12
12
12
12
12
12
12
12
12
12
12
12
12
12
12
12
12
12
12
12
12
12
12
12
12
12
12
12
12
12
12
12
12
12
12
12
12
12
12
12
12
12
12
12
12
12
12
12
12
12
12
12
12
12
12
12
12
12
12
12
12
12
12
12
12
12
12
12
12
12
12
12
12
12
12
12
12
12
12
12
12
12
12
12
12
12
12
12
12
12
12
12
12
12
12
12
12
12
12
12
12
12
12
12
12
12
12
12
12
12
12
12
12
12
12
12
12
12
12
12
12
12
12
12
12
12
12
12
12
12
12
12
12
12
12
12
12
12
12
12
12
12
12
12
12
12
12
12
12
12
12
12
12
12
12
12
12
12
12
12
12
12
12
12
12
12
12
12
12
12
12
12
12
12
12
12
12
12
12
12
12
12
12
12
12
12
12
12
12
12
12
12
12
12
12
12
12
12
12
12
12
12
12
12
12
12
12
12
12
12
12
12
12
12
12
12
12
12
12
12
12
12
12
12
12
12
12
12
12
12
12
12
12
12
12
12
12
12
12
12
12
12
12
12
12
12
12
12
12
12
12
12
12
12
12
12
12
12
12
12
12
12
12
12
12
12
12
12
12
12
12
12
12
12
12
12
12
12
12
12
12
12
12
12
12
12
12
12
12
12
12
12
12
12
12
12
12
12
12
12
12
12
12
12
12
12
12
12
12
12
12
12
12
12
12
12
12
12
12
12
12
12
12
12
12
12
12
12
12
12
12
12
12
12
12
12
12
12
12
12
12
12
12
12
12
12
12
12
12
12
12
12
12
12
12
12
12
12
12
12
12
12
12
12
12
12
12
12
12
12
12
12
12
12
12
12
12
12
12
12
12
12
12
12
12
12
12
12
12
12
12
12
12
12
12
12
12
12
12
12
12
12
12
12
12
12
12
12
12
12
12
12
12
12
12
12
12
12
12
12
12
12
12
12
12
12
12
12
12
12
12
12
12
12
12
12
12
12
12
12
12
12
12
12
12
12
12
12
12
12
12
12
12
12
12
12
12
12
12
12
12
12
12
12
12
12
12
12
12
12
12
12
12
12
12
12
12
12
12
12
12
12
12
12
12
12
12
12
12
12
12
12
12
12
12
12
12
12
12
12
12
12
12
12
12
12
12
12
12
12
12
12
12
12
12
12
12
12
12
12
12
12
12
12
12
12
12
12
12
12
12
12
12
12
12
12
12
12
12
12
12
12
12
12
12
12
12
12
12
12
12
12
12
12
12
12
12
12
12
12
12
12
12
12
12
12
12
12
12
12
12
12
12
12
12
12
12
12
12
12
12
12
12
12
12
12
12
12
12
12
12
12
12
12
12
12
12
12
12
12
12
12
12
12
12
12
12
12
12
12
12
12
12
12
12
12
12
12
12
12
12
12
12
12
12
12
12
12
12
12
12
12

POINT_DATA 3012
SCALARS Jp_lamdaP float 4
LOOKUP_TABLE default
1 1 1 1
1 1 1 1
1 1 1 1
1 1 1 1
1 1 1 1
1 1 1 1
0.999998 1 1 0.999998
1 1 1 1
1 1 1 1
1 1 1 1
1 1 1 1
1 1 1 1
1 1 1 1
1 1 1 1
1 1 1 1
1 1 1 1
1 1 1 1
1 1 1 1
0.999999 1 1 0.999999
1 1 1 1
1 1 1 1
1 1 1 1
0.999994 1 1 0.999994
0.999997 1 1 0.999997
1 1 1 1
0.999999 1 1 0.999999
0.999989 1 1 0.999989
1 1 1 1
1 1 1 1
1 1 1 1
1 1 1 1
1 1 1 1
1 1 1 1
1 1 1 1
1 1 1 1
1 1 1 1
1 1 1 1
1 1 1 1
0.999995 1 1 0.999995
1 1 1 1
1 1 1 1
1 1 1 1
1 1 1 1
1 1 1 1
0.999997 1 1 0.999997
1 1 1 1
0.999999 1 1 0.999999
1 1 1 1
1 1 1 1
1 1 1 1
0.999999 1 1 0.999999
1 1 1 1
1 1 1 1
1 1 1 1
1 1 1 1
0.999994 1 1 0.999994
1 1 1 1
0.999998 1 1 0.999998
0.999988 1 1 0.999988
1 1 1 1
1 1 1 1
0.999997 1 1 0.999997
0.999992 1 1 0.999992
0.999996 1 1 0.999996
0.999974 1 1 0.999974
0.999981 1 1 0.999981
1 1 1 1
1 1 1 1
0.999993 1 1 0.999993
0.999958 1 1 0.999958
1 1 1 1
1 1 1 1
1 1 1 1
1 1 1 1
1 1 1 1
1 1 1 1
1 1 1 1
1 1 1 1
1 1 1 1
1 1 1 1
0.999996 1 1 0.999996
1 1 1 1
1 1 1 1
1 1 1 1
1 1 1 1
0.999978 1 1 0.999978
1 1 1 1
0.999992 1 1 0.999992
0.999997 1 1 0.999997
0.999971 1 1 0.999971
1 1 1 1
1 1 1 1
1 1 1 1
1 1 1 1
1 1 1 1
1 1 1 1
0.999997 1 1 0.999997
1 1 1 1
1 1 1 1
1 1 1 1
0.999996 1 1 0.999996
0.999998 1 1 0.999998
0.999962 1 1 0.999962
1 1 1 1
0.999966 1 1 0.999966
1 1 1 1
1 1 1 1
1 1 1 1
1 1 1 1
0.999995 1 1 0.999995
0.999998 1 1 0.999998
1 1 1 1
0.999987 1 1 0.999987
1 1 1 1
1 1 1 1
0.999993 1 1 0.999993
0.999992 1 1 0.999992
1 1 1 1
1 1 1 1
0.999996 1 1 0.999996
0.999972 1 1 0.999972
0.999992 1 1 0.999992
0.999983 1 1 0.999983
0.999958 1 1 0.999958
0.999996 1 1 0.999996
0.999991 1 1 0.999991
0.999963 1 1 0.999963
0.999966 1 1 0.999966
0.999975 1 1 0.999975
0.999945 1 1 0.999945
1 1 1 1
0.999954 1 1 0.999954
1 1 1 1
0.999996 1 1 0.999996
0.999962 1 1 0.999962
0.999944 1 1 0.999944
1 1 1 1
0.999999 1 1 0.999999
1 1 1 1
1 1 1 1
1 1 1 1
1 1 1 1
1 1 1 1
1 1 1 1
0.999996 1 1 0.999996
1 1 1 1
1 1 1 1
1 1 1 1
1 1 1 1
0.999978 1 1 0.999978
1 1 1 1
0.999992 1 1 0.999992
0.999998 1 1 0.999998
0.999969 1 1 0.999969
1 1 1 1
1 1 1 1
0.999999 1 1 0.999999
0.999972 1 1 0.999972
0.999985 1 1 0.999985
0.999948 1 1 0.999948
0.999999 1 1 0.999999
0.999963 1 1 0.999963
0.999974 1 1 0.999974
0.999956 1 1 0.999956
1 1 1 1
1 1 1 1
1 1 1 1
1 1 1 1
1 1 1 1
1 1 1 1
1 1 1 1
1 1 1 1
0.999998 1 1 0.999998
1 1 1 1
1 1 1 1
0.999996 1 1 0.999996
0.999998 1 1 0.999998
0.999962 1 1 0.999962
1 1 1 1
0.999966 1 1 0.999966
0.999996 1 1 0.999996
0.999964 1 1 0.999964
0.999963 1 1 0.999963
0.999943 1 1 0.999943
0.999969 1 1 0.999969
0.999942 1 1 0.999942
1 1 1 1
1 1 1 1
0.99999 1 1 0.99999
0.999992 1 1 0.999992
1 1 1 1
1 1 1 1
0.999996 1 1 0.999996
0.99997 1 1 0.99997
0.999984 1 1 0.999984
0.999992 1 1 0.999992
0.999958 1 1 0.999958
0.999996 1 1 0.999996
0.999991 1 1 0.999991
0.999959 1 1 0.999959
0.999968 1 1 0.999968
1 1 1 1
1 1 1 1
0.999996 1 1 0.999996
0.999976 1 1 0.999976
0.999942 1 1 0.999942
0.999961 1 1 0.999961
0.999956 1 1 0.999956
0.999944 1 1 0.999944
1 1 1 1
0.999999 1 1 0.999999
0.999962 1 1 0.999962
0.999963 1 1 0.999963
0.999939 1 1 0.999939
0.999935 1 1 0.999935
0.999951 1 1 0.999951
0.999932 1 1 0.999932
1 1 1 1
0.999942 1 1 0.999942
0.999998 1 1 0.999998
0.999966 1 1 0.999966
0.999948 1 1 0.999948
0.999939 1 1 0.999939
0.999999 1 1 0.999999
0.999999 1 1 0.999999
0.999978 1 1 0.999978
1 1 1 1
1 1 1 1
1 1 1 1
1 1 1 1
0.999978 1 1 0.999978
1 1 1 1
0.999998 1 1 0.999998
0.999993 1 1 0.999993
0.999968 1 1 0.999968
1 1 1 1
1 1 1 1
0.999999 1 1 0.999999
0.999972 1 1 0.999972
0.999986 1 1 0.999986
0.999948 1 1 0.999948
0.999999 1 1 0.999999
0.999964 1 1 0.999964
0.999974 1 1 0.999974
0.999955 1 1 0.999955
1 1 1 1
0.999999 1 1 0.999999
0.999999 1 1 0.999999
0.999981 1 1 0.999981
0.999945 1 1 0.999945
0.999956 1 1 0.999956
0.999934 1 1 0.999934
0.999978 1 1 0.999978
0.999948 1 1 0.999948
0.999954 1 1 0.999954
0.999945 1 1 0.999945
1 1 1 1
1 1 1 1
1 1 1 1
1 1 1 1
1 1 1 1
1 1 1 1
1 1 1 1
1 1 1 1
1 1 1 1
1 1 1 1
0.999999 1 1 0.999999
0.999965 1 1 0.999965
0.999962 1 1 0.999962
0.999997 1 1 0.999997
1 1 1 1
0.999996 1 1 0.999996
0.999964 1 1 0.999964
0.999963 1 1 0.999963
0.999942 1 1 0.999942
0.999968 1 1 0.999968
0.999942 1 1 0.999942
0.999964 1 1 0.999964
0.999947 1 1 0.999947
0.999941 1 1 0.999941
0.999935 1 1 0.999935
0.999944 1 1 0.999944
0.999934 1 1 0.999934
0.999996 1 1 0.999996
0.999991 1 1 0.999991
0.999955 1 1 0.999955
0.999969 1 1 0.999969
1 1 1 1
1 1 1 1
0.999995 1 1 0.999995
0.999976 1 1 0.999976
0.99994 1 1 0.99994
0.999957 1 1 0.999957
0.999961 1 1 0.999961
0.999944 1 1 0.999944
1 1 1 1
0.999999 1 1 0.999999
0.99996 1 1 0.99996
0.999963 1 1 0.999963
0.999939 1 1 0.999939
0.999938 1 1 0.999938
1 1 1 1
0.999997 1 1 0.999997
0.999968 1 1 0.999968
0.999952 1 1 0.999952
0.999931 1 1 0.999931
0.999946 1 1 0.999946
0.999942 1 1 0.999942
0.999939 1 1 0.999939
0.999999 1 1 0.999999
0.999977 1 1 0.999977
0.999999 1 1 0.999999
0.999944 1 1 0.999944
0.999936 1 1 0.999936
0.999929 1 1 0.999929
0.999925 1 1 0.999925
0.999938 1 1 0.999938
0.99993 1 1 0.99993
0.999998 1 1 0.999998
0.999938 1 1 0.999938
0.999973 1 1 0.999973
0.999949 1 1 0.999949
0.999939 1 1 0.999939
0.999942 1 1 0.999942
0.999999 1 1 0.999999
0.999978 1 1 0.999978
0.999975 1 1 0.999975
0.999961 1 1 0.999961
0.999972 1 1 0.999972
1 1 1 1
1 1 1 1
0.999999 1 1 0.999999
0.999986 1 1 0.999986
0.999948 1 1 0.999948
0.999999 1 1 0.999999
0.999974 1 1 0.999974
0.999964 1 1 0.999964
0.999953 1 1 0.999953
1 1 1 1
0.999999 1 1 0.999999
0.999999 1 1 0.999999
0.999981 1 1 0.999981
0.999944 1 1 0.999944
0.999956 1 1 0.999956
0.999934 1 1 0.999934
0.999978 1 1 0.999978
0.99995 1 1 0.99995
0.999953 1 1 0.999953
0.999947 1 1 0.999947
1 1 1 1
0.999999 1 1 0.999999
0.99998 1 1 0.99998
0.999981 1 1 0.999981
0.999959 1 1 0.999959
0.999935 1 1 0.999935
0.999941 1 1 0.999941
0.999931 1 1 0.999931
0.999956 1 1 0.999956
0.999942 1 1 0.999942
0.999936 1 1 0.999936
1 1 1 1
0.999984 1 1 0.999984
1 1 1 1
1 1 1 1
1 1 1 1
1 1 1 1
1 1 1 1
1 1 1 1
1 1 1 1
1 1 1 1
1 1 1 1
1 1 1 1
1 1 1 1
1 1 1 1
1 1 1 1
0.999968 1 1 0.999968
0.999962 1 1 0.999962
0.999942 1 1 0.999942
0.999942 1 1 0.999942
0.999964 1 1 0.999964
0.999996 1 1 0.999996
0.999964 1 1 0.999964
0.999947 1 1 0.999947
0.99994 1 1 0.99994
0.999935 1 1 0.999935
0.999944 1 1 0.999944
0.999935 1 1 0.999935
0.999947 1 1 0.999947
0.999941 1 1 0.999941
0.999933 1 1 0.999933
0.999931 1 1 0.999931
0.999936 1 1 0.999936
0.999935 1 1 0.999935
0.999959 1 1 0.999959
0.999963 1 1 0.999963
0.999939 1 1 0.999939
0.99994 1 1 0.99994
1 1 1 1
0.999997 1 1 0.999997
0.999969 1 1 0.999969
0.999952 1 1 0.999952
0.99993 1 1 0.99993
0.999942 1 1 0.999942
0.999945 1 1 0.999945
0.999939 1 1 0.999939
0.999999 1 1 0.999999
0.999975 1 1 0.999975
0.999999 1 1 0.999999
0.999943 1 1 0.999943
0.999936 1 1 0.999936
0.999928 1 1 0.999928
0.999926 1 1 0.999926
0.999998 1 1 0.999998
0.999973 1 1 0.999973
0.99995 1 1 0.99995
0.999939 1 1 0.999939
0.99993 1 1 0.99993
0.999938 1 1 0.999938
0.999938 1 1 0.999938
0.999943 1 1 0.999943
0.999978 1 1 0.999978
0.999959 1 1 0.999959
0.999999 1 1 0.999999
0.999975 1 1 0.999975
0.999934 1 1 0.999934
0.999924 1 1 0.999924
0.999922 1 1 0.999922
0.999924 1 1 0.999924
0.999936 1 1 0.999936
0.999932 1 1 0.999932
0.999977 1 1 0.999977
0.999942 1 1 0.999942
0.999954 1 1 0.999954
0.999939 1 1 0.999939
0.999936 1 1 0.999936
0.999946 1 1 0.999946
0.999999 1 1 0.999999
0.999975 1 1 0.999975
0.999959 1 1 0.999959
0.999958 1 1 0.999958
0.99995 1 1 0.99995
1 1 1 1
0.999944 1 1 0.999944
0.999999 1 1 0.999999
0.999999 1 1 0.999999
0.999981 1 1 0.999981
0.999956 1 1 0.999956
0.999934 1 1 0.999934
0.999978 1 1 0.999978
0.999953 1 1 0.999953
0.999951 1 1 0.999951
0.999949 1 1 0.999949
1 1 1 1
0.999999 1 1 0.999999
0.99998 1 1 0.99998
0.999981 1 1 0.999981
0.999959 1 1 0.999959
0.999934 1 1 0.999934
0.999941 1 1 0.999941
0.99993 1 1 0.99993
0.999956 1 1 0.999956
0.999942 1 1 0.999942
0.999937 1 1 0.999937
0.999999 1 1 0.999999
0.999982 1 1 0.999982
0.999957 1 1 0.999957
0.99996 1 1 0.99996
0.999949 1 1 0.999949
0.999935 1 1 0.999935
0.999935 1 1 0.999935
0.99994 1 1 0.99994
0.999939 1 1 0.999939
0.999929 1 1 0.999929
1 1 1 1
0.99998 1 1 0.99998
0.999983 1 1 0.999983
0.999965 1 1 0.999965
0.999985 1 1 0.999985
1 1 1 1
1 1 1 1
1 1 1 1
1 1 1 1
1 1 1 1
1 1 1 1
1 1 1 1
1 1 1 1
1 1 1 1
1 1 1 1
1 1 1 1
1 1 1 1
1 1 1 1
1 1 1 1
1 1 1 1
0.999943 1 1 0.999943
0.99994 1 1 0.99994
0.999935 1 1 0.999935
0.999936 1 1 0.999936
0.999947 1 1 0.999947
0.999964 1 1 0.999964
0.999947 1 1 0.999947
0.999942 1 1 0.999942
0.999933 1 1 0.999933
0.99993 1 1 0.99993
0.999936 1 1 0.999936
0.999934 1 1 0.999934
0.999942 1 1 0.999942
0.99994 1 1 0.99994
0.999928 1 1 0.999928
0.999926 1 1 0.999926
0.999938 1 1 0.999938
0.999935 1 1 0.999935
0.999943 1 1 0.999943
0.999936 1 1 0.999936
0.999927 1 1 0.999927
0.999927 1 1 0.999927
0.999998 1 1 0.999998
0.999973 1 1 0.999973
0.999952 1 1 0.999952
0.99994 1 1 0.99994
0.99993 1 1 0.99993
0.999938 1 1 0.999938
0.999937 1 1 0.999937
0.999944 1 1 0.999944
0.999978 1 1 0.999978
0.999957 1 1 0.999957
0.999999 1 1 0.999999
0.999975 1 1 0.999975
0.999934 1 1 0.999934
0.999925 1 1 0.999925
0.999921 1 1 0.999921
0.999924 1 1 0.999924
0.999977 1 1 0.999977
0.999955 1 1 0.999955
0.999939 1 1 0.999939
0.999936 1 1 0.999936
0.999932 1 1 0.999932
0.999935 1 1 0.999935
0.999942 1 1 0.999942
0.999947 1 1 0.999947
0.999959 1 1 0.999959
0.999949 1 1 0.999949
0.999958 1 1 0.999958
0.999998 1 1 0.999998
0.999975 1 1 0.999975
0.999929 1 1 0.999929
0.999919 1 1 0.999919
0.999926 1 1 0.999926
0.999939 1 1 0.999939
0.999959 1 1 0.999959
0.999951 1 1 0.999951
0.999943 1 1 0.999943
0.99993 1 1 0.99993
0.999935 1 1 0.999935
0.999996 1 1 0.999996
0.999979 1 1 0.999979
0.999957 1 1 0.999957
0.999949 1 1 0.999949
0.999944 1 1 0.999944
0.999942 1 1 0.999942
1 1 1 1
0.999999 1 1 0.999999
0.999934 1 1 0.999934
0.999981 1 1 0.999981
0.99998 1 1 0.99998
0.999958 1 1 0.999958
0.999941 1 1 0.999941
0.99993 1 1 0.99993
0.999956 1 1 0.999956
0.999938 1 1 0.999938
0.999943 1 1 0.999943
1 1 1 1
0.999982 1 1 0.999982
0.999958 1 1 0.999958
0.999959 1 1 0.999959
0.999948 1 1 0.999948
0.999935 1 1 0.999935
0.999934 1 1 0.999934
0.999941 1 1 0.999941
0.999938 1 1 0.999938
0.999928 1 1 0.999928
0.999983 1 1 0.999983
0.999957 1 1 0.999957
0.999943 1 1 0.999943
0.999945 1 1 0.999945
0.99994 1 1 0.99994
0.999951 1 1 0.999951
0.999931 1 1 0.999931
0.999942 1 1 0.999942
0.999929 1 1 0.999929
0.999917 1 1 0.999917
1 1 1 1
0.999982 1 1 0.999982
0.999958 1 1 0.999958
0.999981 1 1 0.999981
0.999985 1 1 0.999985
0.999962 1 1 0.999962
0.999948 1 1 0.999948
0.99996 1 1 0.99996
0.999985 1 1 0.999985
1 1 1 1
1 1 1 1
1 1 1 1
1 1 1 1
1 1 1 1
1 1 1 1
1 1 1 1
1 1 1 1
1 1 1 1
1 1 1 1
1 1 1 1
1 1 1 1
1 1 1 1
1 1 1 1
1 1 1 1
0.999936 1 1 0.999936
0.999933 1 1 0.999933
0.999934 1 1 0.999934
0.999929 1 1 0.999929
0.999943 1 1 0.999943
0.999947 1 1 0.999947
0.999942 1 1 0.999942
0.99994 1 1 0.99994
0.999929 1 1 0.999929
0.999923 1 1 0.999923
0.999938 1 1 0.999938
0.999934 1 1 0.999934
0.999945 1 1 0.999945
0.999935 1 1 0.999935
0.999923 1 1 0.999923
0.999948 1 1 0.999948
0.999934 1 1 0.999934
0.999925 1 1 0.999925
0.99992 1 1 0.99992
0.999925 1 1 0.999925
0.999977 1 1 0.999977
0.999956 1 1 0.999956
0.999938 1 1 0.999938
0.999936 1 1 0.999936
0.999932 1 1 0.999932
0.999942 1 1 0.999942
0.999935 1 1 0.999935
0.999949 1 1 0.999949
0.999959 1 1 0.999959
0.999947 1 1 0.999947
0.999958 1 1 0.999958
0.999996 1 1 0.999996
0.999976 1 1 0.999976
0.999927 1 1 0.999927
0.99992 1 1 0.99992
0.999927 1 1 0.999927
0.999959 1 1 0.999959
0.999944 1 1 0.999944
0.999929 1 1 0.999929
0.999938 1 1 0.999938
0.999937 1 1 0.999937
0.999951 1 1 0.999951
0.999996 1 1 0.999996
0.999949 1 1 0.999949
0.999942 1 1 0.999942
0.999944 1 1 0.999944
0.999957 1 1 0.999957
0.999978 1 1 0.999978
0.999925 1 1 0.999925
0.999918 1 1 0.999918
0.999933 1 1 0.999933
0.999948 1 1 0.999948
0.999947 1 1 0.999947
0.999945 1 1 0.999945
0.999931 1 1 0.999931
0.999924 1 1 0.999924
0.999997 1 1 0.999997
0.999979 1 1 0.999979
0.999959 1 1 0.999959
0.99994 1 1 0.99994
0.999939 1 1 0.999939
0.999935 1 1 0.999935
1 1 1 1
0.999982 1 1 0.999982
0.999934 1 1 0.999934
0.999959 1 1 0.999959
0.999959 1 1 0.999959
0.999946 1 1 0.999946
0.999934 1 1 0.999934
0.999942 1 1 0.999942
0.999938 1 1 0.999938
0.999927 1 1 0.999927
0.999983 1 1 0.999983
0.999958 1 1 0.999958
0.999945 1 1 0.999945
0.999946 1 1 0.999946
0.99994 1 1 0.99994
0.999952 1 1 0.999952
0.999931 1 1 0.999931
0.999946 1 1 0.999946
0.999928 1 1 0.999928
0.999915 1 1 0.999915
0.999957 1 1 0.999957
0.999941 1 1 0.999941
0.999934 1 1 0.999934
0.999935 1 1 0.999935
0.999953 1 1 0.999953
0.999956 1 1 0.999956
0.999921 1 1 0.999921
0.999913 1 1 0.999913
0.999983 1 1 0.999983
0.99996 1 1 0.99996
0.999946 1 1 0.999946
0.999985 1 1 0.999985
0.99996 1 1 0.99996
0.999985 1 1 0.999985
0.999947 1 1 0.999947
0.999961 1 1 0.999961
0.999937 1 1 0.999937
0.999945 1 1 0.999945
0.99996 1 1 0.99996
0.999984 1 1 0.999984
1 1 1 1
1 1 1 1
1 1 1 1
1 1 1 1
1 1 1 1
1 1 1 1
1 1 1 1
1 1 1 1
1 1 1 1
1 1 1 1
1 1 1 1
1 1 1 1
1 1 1 1
1 1 1 1
1 1 1 1
0.999939 1 1 0.999939
0.999929 1 1 0.999929
0.999933 1 1 0.999933
0.99992 1 1 0.99992
0.99994 1 1 0.99994
0.999942 1 1 0.999942
0.999943 1 1 0.999943
0.999934 1 1 0.999934
0.999925 1 1 0.999925
0.999946 1 1 0.999946
0.99994 1 1 0.99994
0.99993 1 1 0.99993
0.999938 1 1 0.999938
0.999925 1 1 0.999925
0.999921 1 1 0.999921
0.999927 1 1 0.999927
0.999958 1 1 0.999958
0.999946 1 1 0.999946
0.999929 1 1 0.999929
0.999937 1 1 0.999937
0.999951 1 1 0.999951
0.999939 1 1 0.999939
0.999949 1 1 0.999949
0.999942 1 1 0.999942
0.999945 1 1 0.999945
0.999996 1 1 0.999996
0.999958 1 1 0.999958
0.999976 1 1 0.999976
0.999928 1 1 0.999928
0.999918 1 1 0.999918
0.999932 1 1 0.999932
0.999947 1 1 0.999947
0.999932 1 1 0.999932
0.999925 1 1 0.999925
0.99995 1 1 0.99995
0.999945 1 1 0.999945
0.999998 1 1 0.999998
0.999979 1 1 0.999979
0.99994 1 1 0.99994
0.999935 1 1 0.999935
0.99994 1 1 0.99994
0.999958 1 1 0.999958
0.999932 1 1 0.999932
0.999918 1 1 0.999918
0.99995 1 1 0.99995
0.999957 1 1 0.999957
0.999936 1 1 0.999936
0.999928 1 1 0.999928
0.999924 1 1 0.999924
1 1 1 1
0.999985 1 1 0.999985
0.999979 1 1 0.999979
0.999955 1 1 0.999955
0.99994 1 1 0.99994
0.99993 1 1 0.99993
0.999935 1 1 0.999935
0.999929 1 1 0.999929
0.999983 1 1 0.999983
0.999959 1 1 0.999959
0.999953 1 1 0.999953
0.999947 1 1 0.999947
0.999947 1 1 0.999947
0.999941 1 1 0.999941
0.999931 1 1 0.999931
0.99995 1 1 0.99995
0.999927 1 1 0.999927
0.999912 1 1 0.999912
0.999957 1 1 0.999957
0.999942 1 1 0.999942
0.999935 1 1 0.999935
0.999936 1 1 0.999936
0.999952 1 1 0.999952
0.999954 1 1 0.999954
0.999922 1 1 0.999922
0.999912 1 1 0.999912
0.999944 1 1 0.999944
0.999946 1 1 0.999946
0.999931 1 1 0.999931
0.999924 1 1 0.999924
0.999968 1 1 0.999968
0.999922 1 1 0.999922
0.999906 1 1 0.999906
0.999961 1 1 0.999961
0.999946 1 1 0.999946
0.999935 1 1 0.999935
0.999985 1 1 0.999985
0.999962 1 1 0.999962
0.999945 1 1 0.999945
0.999984 1 1 0.999984
0.99996 1 1 0.99996
0.999936 1 1 0.999936
0.999947 1 1 0.999947
0.99993 1 1 0.99993
0.999934 1 1 0.999934
0.999948 1 1 0.999948
0.999961 1 1 0.999961
0.999983 1 1 0.999983
1 1 1 1
1 1 1 1
1 1 1 1
1 1 1 1
1 1 1 1
1 1 1 1
1 1 1 1
1 1 1 1
1 1 1 1
1 1 1 1
1 1 1 1
1 1 1 1
1 1 1 1
1 1 1 1
1 1 1 1
1 1 1 1
0.999945 1 1 0.999945
0.999927 1 1 0.999927
0.999934 1 1 0.999934
0.99994 1 1 0.99994
0.999942 1 1 0.999942
0.999929 1 1 0.999929
0.99994 1 1 0.99994
0.999938 1 1 0.999938
0.999933 1 1 0.999933
0.999962 1 1 0.999962
0.999931 1 1 0.999931
0.999917 1 1 0.999917
0.999931 1 1 0.999931
0.999947 1 1 0.999947
0.999934 1 1 0.999934
0.999926 1 1 0.999926
0.999951 1 1 0.999951
0.999944 1 1 0.999944
0.99994 1 1 0.99994
0.999935 1 1 0.999935
0.999941 1 1 0.999941
1 1 1 1
0.999979 1 1 0.999979
0.999957 1 1 0.999957
0.999929 1 1 0.999929
1 1 1 1
0.999984 1 1 0.999984
0.999919 1 1 0.999919
0.999947 1 1 0.999947
0.999937 1 1 0.999937
0.999923 1 1 0.999923
0.999928 1 1 0.999928
0.999956 1 1 0.999956
0.999982 1 1 0.999982
0.999955 1 1 0.999955
0.999935 1 1 0.999935
0.999929 1 1 0.999929
0.999929 1 1 0.999929
0.99994 1 1 0.99994
0.999913 1 1 0.999913
0.999933 1 1 0.999933
0.999971 1 1 0.999971
0.999942 1 1 0.999942
0.99993 1 1 0.99993
0.999918 1 1 0.999918
0.999984 1 1 0.999984
0.999984 1 1 0.999984
0.999965 1 1 0.999965
0.999952 1 1 0.999952
0.99994 1 1 0.99994
0.999923 1 1 0.999923
0.99992 1 1 0.99992
0.999928 1 1 0.999928
0.999957 1 1 0.999957
0.999944 1 1 0.999944
0.99995 1 1 0.99995
0.999953 1 1 0.999953
0.999937 1 1 0.999937
0.999936 1 1 0.999936
0.999924 1 1 0.999924
0.999912 1 1 0.999912
0.999944 1 1 0.999944
0.999955 1 1 0.999955
0.999931 1 1 0.999931
0.999922 1 1 0.999922
0.999966 1 1 0.999966
0.999923 1 1 0.999923
0.999905 1 1 0.999905
0.999932 1 1 0.999932
0.999973 1 1 0.999973
0.999923 1 1 0.999923
0.999908 1 1 0.999908
0.999924 1 1 0.999924
0.999905 1 1.00001 0.999896
0.985596 1.00043 0.985278 0.999894
0.999946 1 1 0.999946
0.999935 1 1 0.999935
0.999929 1 1 0.999929
0.999984 1 1 0.999984
0.99996 1 1 0.99996
0.999949 1 1 0.999949
0.999934 1 1 0.999934
0.999983 1 1 0.999983
0.99996 1 1 0.99996
0.99993 1 1 0.99993
0.999948 1 1 0.999948
0.999935 1 1 0.999935
0.999926 1 1 0.999926
0.999937 1 1 0.999937
0.999948 1 1 0.999948
0.999957 1 1 0.999957
0.999979 1 1 0.999979
0.999963 1 1 0.999963
0.999979 1 1 0.999979
1 1 1 1
1 1 1 1
1 1 1 1
1 1 1 1
1 1 1 1
1 1 1 1
1 1 1 1
1 1 1 1
1 1 1 1
1 1 1 1
1 1 1 1
1 1 1 1
1 1 1 1
1 1 1 1
1 1 1 1
1 1 1 1
1 1 1 1
0.999943 1 1 0.999943
0.999929 1 1 0.999929
0.999944 1 1 0.999944
0.999939 1 1 0.999939
0.999933 1 1 0.999933
0.999975 1 1 0.999975
0.999936 1 1 0.999936
0.997916 1 0.997925 0.999991
1 1 1 1
0.99999 1 1 0.99999
0.999927 1 1 0.999927
0.99992 1 1 0.99992
0.999944 1 1 0.999944
0.999938 1 1 0.999938
0.999923 1 1 0.999923
0.999929 1 1 0.999929
0.999956 1 1 0.999956
0.999935 1 1 0.999935
0.999929 1 1 0.999929
0.999927 1 1 0.999927
1 1 1 1
0.99994 1 1 0.99994
0.999985 1 1 0.999985
0.999955 1 1 0.999955
0.999982 1 1 0.999982
0.999909 1 1 0.999909
0.999986 1 1 0.999986
0.999984 1 1 0.999984
0.999962 1 1 0.999962
0.999933 1 1 0.999933
0.999967 1 1 0.999967
0.99993 1 1 0.99993
0.999918 1 1 0.999918
0.999942 1 1 0.999942
0.999954 1 1 0.999954
0.99994 1 1 0.99994
0.999928 1 1 0.999928
0.999922 1 1 0.999922
0.999924 1 1 0.999924
0.999945 1 1.00004 0.9999
0.999576 1 0.999609 0.999967
0.999957 1 1 0.999957
0.999923 1 1 0.999923
0.999925 1 1 0.999925
0.999962 1 1 0.999962
0.999956 1 1 0.999956
0.999946 1 1 0.999946
0.999934 1 1 0.999934
0.999926 1 1 0.999926
0.999913 1 1 0.999913
0.999917 1 1 0.999917
0.999943 1 1 0.999943
0.999931 1 1 0.999931
0.999964 1 1 0.999964
0.999964 1 1 0.999964
0.999924 1 1 0.999924
0.999921 1 1 0.999921
0.999904 1 1 0.999904
0.999933 1 1 0.999933
0.999978 1 1 0.999978
0.999923 1 1 0.999923
0.999908 1 1 0.999908
0.99993 1 1 0.99993
1.00009 1 1.00019 0.999895
0.988604 1.00157 0.987148 0.999902
0.999925 1 1 0.999925
0.999911 1 1 0.999911
0.999916 1 1 0.999916
1.00055 1 1.00066 0.999889
0.999959 1 1.00008 0.999878
0.975743 0.976029 1.00001 0.999702
0.991118 1.00128 0.989919 0.999928
0.984405 1.0022 0.982385 0.999855
0.977268 0.98152 0.995673 0.999994
0.988742 1.0009 0.987847 1
0.999935 1 1 0.999935
0.999929 1 1 0.999929
0.999925 1 1 0.999925
0.999983 1 1 0.999983
0.999959 1 1 0.999959
0.999948 1 1 0.999948
0.999937 1 1 0.999937
0.99993 1 1 0.99993
0.999946 1 1 0.999946
0.99998 1 1 0.99998
0.999959 1 1 0.999959
0.999927 1 1 0.999927
0.999936 1 1 0.999936
0.999937 1 1 0.999937
0.999927 1 1 0.999927
0.999942 1 1 0.999942
0.999956 1 1 0.999956
0.999979 1 1 0.999979
0.99996 1 1 0.99996
0.999946 1 1 0.999946
0.999959 1 1 0.999959
0.99996 1 1 0.99996
0.999982 1 1 0.999982
0.999979 1 1 0.999979
1 1 1 1
1 1 1 1
1 1 1 1
1 1 1 1
1 1 1 1
1 1 1 1
1 1 1 1
1 1 1 1
1 1 1 1
1 1 1 1
1 1 1 1
1 1 1 1
1 1 1 1
1 1 1 1
1 1 1 1
1 1 1 1
1 1 1 1
1 1 1 1
0.999933 1 1 0.999933
0.999939 1 1 0.999939
0.999988 1 1 0.999988
0.99724 1 0.997248 0.999992
0.999936 1 1 0.999936
0.999989 1 1 0.999989
0.999961 1 1.00004 0.999923
0.993873 0.995478 0.998507 0.99988
0.999999 1 1 0.999999
0.999992 1 1 0.999992
0.99999 1 1 0.99999
0.999967 1 1 0.999967
0.999973 1 1 0.999973
0.999906 1 1 0.999906
0.999933 1 1 0.999933
0.999962 1 1 0.999962
0.999931 1 1 0.999931
0.999919 1 1 0.999919
0.999942 1 1 0.999942
0.999928 1 1 0.999928
0.999923 1 1 0.999923
0.999926 1 1 0.999926
0.999984 1 1 0.999984
0.999939 1 1 0.999939
0.999956 1 1 0.999956
0.999988 1 1 0.999988
0.999959 1 1 0.999959
0.999937 1 1.00003 0.999902
0.999964 1 1 0.999964
0.999957 1 1 0.999957
0.999948 1 1 0.999948
0.999742 1 0.999776 0.999966
0.999957 1 1 0.999957
0.999925 1 1 0.999925
0.999924 1 1 0.999924
0.999935 1 1 0.999935
0.999927 1 1 0.999927
0.999917 1 1 0.999917
0.999914 1 1 0.999914
0.999964 1 1.00003 0.999934
0.999534 1 0.999552 0.999982
0.999924 1 1 0.999924
0.999919 1 1 0.999919
0.999941 1 1 0.999941
0.999937 1 1 0.999937
0.999915 1 1 0.999915
0.999902 1 1 0.999902
0.975346 0.977505 0.998058 0.999732
0.999933 1 1 0.999933
0.999922 1 1 0.999922
0.999982 1 1 0.999982
0.999936 1 1 0.999936
1.0003 1 1.0004 0.999893
0.999907 1 1 0.999907
0.991905 1.00276 0.989263 0.999909
0.999925 1 1 0.999925
0.999912 1 1 0.999912
0.999917 1 1 0.999917
1.00041 1 1.00052 0.99989
0.999948 1 1.00006 0.999884
0.976466 0.975709 1.00105 0.99973
0.989642 1.00058 0.98924 0.999823
0.986467 1.00312 0.983547 0.999853
0.977558 0.982193 0.995338 0.999943
0.989851 1.00098 0.988878 1
0.999924 1 1 0.999924
0.977433 0.979592 0.997883 0.999913
0.995124 0.999765 0.995357 1
0.999862 1 1 0.999862
1.00054 1 1.00063 0.999908
1.00256 1 1.0027 0.999866
0.996568 1.00258 0.994169 0.999831
0.985199 0.980898 1.00478 0.999609
0.989323 1.00407 0.985514 0.999796
0.976132 0.986118 0.989886 0.999987
0.997061 1.00084 0.996221 1
0.999929 1 1 0.999929
0.999925 1 1 0.999925
0.999923 1 1 0.999923
0.999982 1 1 0.999982
0.99996 1 1 0.99996
0.999944 1 1 0.999944
0.999936 1 1 0.999936
0.999928 1 1 0.999928
0.999979 1 1 0.999979
0.999937 1 1 0.999937
0.999944 1 1 0.999944
0.999957 1 1 0.999957
0.999926 1 1 0.999926
0.99993 1 1 0.99993
0.999923 1 1 0.999923
0.999941 1 1 0.999941
0.999959 1 1 0.999959
0.99996 1 1 0.99996
0.999944 1 1 0.999944
0.999943 1 1 0.999943
0.999943 1 1 0.999943
0.999935 1 1 0.999935
0.99994 1 1 0.99994
0.999957 1 1 0.999957
0.999959 1 1 0.999959
0.999982 1 1 0.999982
0.999957 1 1 0.999957
0.999981 1 1 0.999981
1 1 1 1
0.999979 1 1 0.999979
1 1 1 1
1 1 1 1
1 1 1 1
1 1 1 1
1 1 1 1
1 1 1 1
1 1 1 1
1 1 1 1
0.999992 1 1 0.999992
1 1 1 1
1 1 1 1
1 1 1 1
1 1 1 1
1 1 1 1
1 1 1 1
1 1 1 1
1 1 1 1
1 1 1 1
0.99649 1 0.996498 0.999993
0.999937 1 1 0.999937
0.999979 1 1 0.999979
0.995545 0.995935 0.99967 0.999938
1.00035 1 1.00035 0.999997
0.999948 1 1.00003 0.999915
1.0015 1 1.00159 0.99991
0.999875 0.998364 1.00163 0.999887
0.977397 0.978024 0.999746 0.999613
0.975459 0.981015 0.99445 0.999886
0.990931 1.00024 0.990694 1
0.999968 1 1 0.999968
0.999992 1 1 0.999992
0.99999 1 1 0.99999
0.999967 1 1 0.999967
0.999953 1 1 0.999953
0.999958 1 1 0.999958
0.99997 1 1 0.99997
0.999971 1 1 0.999971
0.999931 1 1.00003 0.999905
0.999965 1 1 0.999965
0.999957 1 1 0.999957
0.999924 1 1 0.999924
0.999925 1 1 0.999925
0.999917 1 1 0.999917
0.999914 1 1 0.999914
0.999928 1 1 0.999928
0.999959 1 1 0.999959
0.999936 1 1 0.999936
0.999967 1 1 0.999967
0.999949 1 1 0.999949
0.999941 1 1.00001 0.999934
0.999941 1 1 0.999941
0.999938 1 1 0.999938
0.999395 1 0.999415 0.99998
0.999926 1 1 0.999926
0.999916 1 1 0.999916
0.999915 1 1 0.999915
0.999902 1 1 0.999902
0.992229 1 0.99226 0.99997
1.00002 1 1.00008 0.999938
0.999907 1 1 0.999907
0.999894 1 1 0.999894
0.999925 1 1 0.999925
0.99992 1 1 0.99992
0.999898 1 1 0.999898
0.974845 0.980813 0.993909 1.00001
0.977756 0.978149 0.999862 0.999736
0.999926 1 1 0.999926
0.999917 1 1 0.999917
0.999914 1 1 0.999914
0.99989 1 1 0.99989
1.00024 1 1.00035 0.99989
0.976639 0.977157 0.999863 0.999607
0.991802 0.999762 0.992093 0.999945
0.98831 1.00383 0.984683 0.999851
0.974731 0.981622 0.993099 0.99988
0.990799 1.00101 0.989794 1
0.999924 1 1 0.999924
0.975628 0.980324 0.995205 1
0.995348 1.00001 0.995332 1
0.999862 1 1 0.999862
1.00022 1 1.00031 0.999909
1.00237 1 1.0025 0.999871
0.996321 1.00184 0.99466 0.999828
0.98261 0.980105 1.00302 0.999539
0.984953 1.00234 0.982715 0.999935
0.976883 0.986279 0.990615 0.999857
0.99514 1.00087 0.994273 1
0.999922 1 1 0.999922
0.998466 0.999231 0.999235 1
0.99973 0.999551 1.00018 1
1.00489 1 1.00504 0.999854
1.00234 1 1.00244 0.999902
1.00237 1.00072 1.00175 0.999901
0.995171 1.00116 0.994073 0.999945
0.988743 0.985369 1.00387 0.999552
0.985213 0.995706 0.989626 0.999834
0.999675 1.00029 0.99939 1
0.999925 1 1 0.999925
0.999923 1 1 0.999923
0.999921 1 1 0.999921
0.999979 1 1 0.999979
0.999959 1 1 0.999959
0.999946 1 1 0.999946
0.999937 1 1 0.999937
0.999926 1 1 0.999926
0.999959 1 1 0.999959
0.999932 1 1 0.999932
0.999941 1 1 0.999941
0.999923 1 1 0.999923
0.99992 1 1 0.99992
0.999927 1 1 0.999927
0.999941 1 1 0.999941
0.99996 1 1 0.99996
0.999942 1 1 0.999942
0.999943 1 1 0.999943
0.999943 1 1 0.999943
0.999935 1 1 0.999935
0.99994 1 1 0.99994
0.999932 1 1 0.999932
0.99993 1 1 0.99993
0.999933 1 1 0.999933
0.999941 1 1 0.999941
0.999942 1 1 0.999942
0.99994 1 1 0.99994
0.999956 1 1 0.999956
0.999957 1 1 0.999957
0.999981 1 1 0.999981
0.999959 1 1 0.999959
0.999982 1 1 0.999982
1 1 1 1
0.999979 1 1 0.999979
1 1 1 1
1 1 1 1
1 1 1 1
1 1 1 1
1 1 1 1
1 1 1 1
1 1 1 1
1 1 1 1
0.999992 1 1 0.999992
1 1 1 1
0.999992 1 1 0.999992
1 1 1 1
1 1 1 1
1 1 1 1
1 1 1 1
1 1 1 1
1 1 1 1
1 1 1 1
1 1 1 1
0.976124 0.979979 0.996061 1.00001
0.998088 0.999969 0.998118 1
0.996361 0.995792 1.0006 0.999976
1.00064 1 1.00064 0.999995
0.999935 1 1.00003 0.999907
1.00012 0.998032 1.0021 0.999992
1.00071 1 1.0008 0.999913
0.979216 0.978752 1.00077 0.999702
0.97642 0.980992 0.99534 1
0.992112 1.00059 0.991527 1
1.00455 0.999466 1.00515 0.999938
0.982617 0.981094 1.00191 0.99964
0.976236 0.985399 0.990713 0.999989
0.994475 1.00201 0.992479 1
0.999947 1 1 0.999947
0.99997 1 1 0.99997
0.999992 1 1 0.999992
0.999966 1 1 0.999966
0.999955 1 1 0.999955
0.999952 1 1 0.999952
0.999959 1 1 0.999959
0.999964 1 1 0.999964
0.999968 1 1 0.999968
0.99997 1 1 0.99997
0.999892 1 0.999959 0.999933
0.999115 1 0.999135 0.999979
0.999928 1 1 0.999928
0.999913 1 1 0.999913
0.999903 1 1 0.999903
0.999916 1 1 0.999916
0.999939 1 1 0.999939
0.999942 1 1 0.999942
0.994651 1 0.994685 0.999966
0.999924 1 1 0.999924
0.999918 1 1 0.999918
0.99954 1 0.999597 0.999943
0.999904 1 1 0.999904
0.999893 1 1 0.999893
0.999897 1 1 0.999897
0.987466 1.00103 0.986501 0.999944
1.00089 1 1.001 0.999891
0.999879 1 1 0.999879
0.999924 1 1 0.999924
0.999912 1 1 0.999912
0.999902 1 1 0.999902
0.997383 0.999341 0.998039 1
0.975908 0.980085 0.995815 0.999924
0.975932 0.978044 0.998115 0.999724
0.999924 1 1 0.999924
0.99991 1 1 0.99991
0.999861 1 1 0.999861
1.00224 1 1.00237 0.999876
0.97497 0.980683 0.994264 0.999911
0.980364 0.979725 1.00092 0.999738
0.984703 1.00304 0.981911 0.999809
0.996706 1.00124 0.995648 0.999826
0.977799 0.985982 0.991714 0.999986
0.994497 1.00029 0.99421 1
0.993055 1.00166 0.991412 1
0.999922 1 1 0.999922
0.997958 0.999491 0.998466 1
0.999715 0.999418 1.0003 1
1.00532 1 1.00547 0.999853
1.00233 1 1.00243 0.999901
1.00443 1.00046 1.00412 0.999843
0.99246 1.00067 0.991987 0.999805
0.986412 0.984507 1.00239 0.999544
0.989721 0.99463 0.995089 0.999976
0.998789 1.0009 0.997888 0.999998
0.999919 1 1 0.999919
0.99935 0.99935 1 1
0.999588 0.999252 1.00034 1
1.00443 1 1.0045 0.999929
1.00299 0.998847 1.00419 0.999959
0.994229 0.989927 1.00476 0.999584
0.987433 1.00226 0.985251 0.999958
0.999353 0.999361 0.999996 0.999996
0.999923 1 1 0.999923
0.999921 1 1 0.999921
0.999917 1 1 0.999917
0.999959 1 1 0.999959
0.999941 1 1 0.999941
0.999933 1 1 0.999933
0.999922 1 1 0.999922
0.999941 1 1 0.999941
0.999927 1 1 0.999927
0.99992 1 1 0.99992
0.999923 1 1 0.999923
0.999918 1 1 0.999918
0.999929 1 1 0.999929
0.999943 1 1 0.999943
0.999943 1 1 0.999943
0.999936 1 1 0.999936
0.999932 1 1 0.999932
0.99994 1 1 0.99994
0.999931 1 1 0.999931
0.999929 1 1 0.999929
0.999925 1 1 0.999925
0.999927 1 1 0.999927
0.999933 1 1 0.999933
0.999934 1 1 0.999934
0.999937 1 1 0.999937
0.999952 1 1 0.999952
0.999943 1 1 0.999943
0.999943 1 1 0.999943
0.999956 1 1 0.999956
0.99994 1 1 0.99994
0.999956 1 1 0.999956
0.999981 1 1 0.999981
0.999957 1 1 0.999957
0.999981 1 1 0.999981
1 1 1 1
0.999982 1 1 0.999982
1 1 1 1
1 1 1 1
1 1 1 1
1 1 1 1
1 1 1 1
1 1 1 1
1 1 1 1
1 1 1 1
0.999986 1 1 0.999986
1 1 1 1
0.999989 1 1 0.999989
1 1 1 1
1 1 1 1
0.999992 1 1 0.999992
1 1 1 1
1 1 1 1
1 1 1 1
1 1 1 1
1 1 1 1
1 1 1 1
0.998796 0.999536 0.999259 1
0.975156 0.979067 0.996044 0.999961
0.999894 0.999772 1.00012 1
0.997554 0.999882 0.997672 1
0.997755 0.99687 1.00099 0.999901
0.999958 1 1.00004 0.999915
0.979482 0.978375 1.00133 0.9998
0.975852 0.981066 0.994794 0.999891
0.993297 1.0009 0.992403 1
1.00131 0.999951 1.00144 0.999913
0.983313 0.980397 1.00336 0.999617
0.977751 0.98567 0.992103 0.999861
0.994179 1.00094 0.993242 1
0.997816 1.00084 0.997049 0.999934
0.98854 0.98473 1.00433 0.999538
0.988877 0.995309 0.993559 0.999979
0.999154 0.999578 0.999575 1
0.999936 1 1 0.999936
0.99995 1 1 0.99995
0.999972 1 1 0.999972
0.999956 1 1 0.999956
0.999943 1 1 0.999943
0.999954 1 1 0.999954
0.99996 1 1 0.99996
0.999962 1 1 0.999962
0.999965 1 1 0.999965
0.999966 1 1 0.999966
0.997073 1 0.997111 0.999962
0.999169 1 0.999221 0.999948
0.999901 1 1 0.999901
0.999891 1 1 0.999891
0.999895 1 1 0.999895
0.999916 1 1 0.999916
0.999923 1 1 0.999923
0.999924 1 1 0.999924
0.988825 1.0004 0.988482 0.999941
0.999913 1 1 0.999913
0.999901 1 1 0.999901
1.00081 1 1.00092 0.999894
0.999891 1 1.00001 0.999879
0.994716 1.00081 0.994006 0.999904
1.0024 1 1.00253 0.999878
0.999882 1 1 0.999882
0.999915 1 1 0.999915
0.9999 1 1 0.9999
0.999261 0.99926 1 1
0.998256 0.999348 0.998906 1
0.976159 0.980813 0.995249 1.00001
0.999922 1 1 0.999922
1.00224 1 1.00234 0.999901
1.00568 1 1.00583 0.999852
0.998966 0.999737 0.999228 1
0.988488 0.985174 1.00384 0.999524
0.990482 1.00128 0.989269 0.999945
1.0054 1.00009 1.00552 0.999785
0.98291 0.992048 0.990938 0.99985
0.999704 0.99929 1.00041 1
0.999276 1.00025 0.999027 0.999997
0.999921 1 1 0.999921
0.999452 0.999452 1 1
0.999454 0.999149 1.0003 1
1.00451 1 1.0046 0.999912
1.00275 0.998722 1.0041 0.999926
0.996277 0.991882 1.00489 0.999547
0.999782 0.999612 1.00017 0.999997
0.993925 1.0004 0.993606 0.99992
0.999922 1 1 0.999922
1.00012 1.00012 0.999999 1
0.999233 0.999011 1.00022 1
0.998802 0.99953 0.999271 1
1.00331 0.999032 1.00433 0.999957
1.00401 0.993843 1.01056 0.999675
0.98445 1.00183 0.982716 0.999933
0.999921 1 1 0.999921
0.999917 1 1 0.999917
0.999922 1 1 0.999922
0.999941 1 1 0.999941
0.999927 1 1 0.999927
0.99992 1 1 0.99992
0.999929 1 1 0.999929
0.999918 1 1 0.999918
0.999923 1 1 0.999923
0.999922 1 1 0.999922
0.999919 1 1 0.999919
0.999933 1 1 0.999933
0.99994 1 1 0.99994
0.999931 1 1 0.999931
0.999925 1 1 0.999925
0.999928 1 1 0.999928
0.999922 1 1 0.999922
0.999931 1 1 0.999931
0.999919 1 1 0.999919
0.999932 1 1 0.999932
0.999935 1 1 0.999935
0.999925 1 1 0.999925
0.999938 1 1 0.999938
0.999952 1 1 0.999952
0.999937 1 1 0.999937
0.999961 1 1 0.999961
0.999951 1 1 0.999951
0.999945 1 1 0.999945
0.999945 1 1 0.999945
0.999957 1 1 0.999957
0.999981 1 1 0.999981
0.999956 1 1 0.999956
0.999981 1 1 0.999981
1 1 1 1
0.999981 1 1 0.999981
1 1 1 1
1 1 1 1
1 1 1 1
1 1 1 1
1 1 1 1
1 1 1 1
1 1 1 1
1 1 1 1
0.999981 1 1 0.999981
0.999998 1 1 0.999998
0.999986 1 1 0.999986
1 1 1 1
0.999999 1 1 0.999999
0.999987 1 1 0.999987
1 1 1 1
1 1 1 1
1 1 1 1
1 1 1 1
1 1 1 1
1 1 1 1
0.999548 0.999472 1.00008 1
0.997304 0.999484 0.997818 1
0.976727 0.979257 0.997493 0.999924
0.999956 1 1 0.999956
0.999896 0.999721 1.00017 1
0.999817 0.999653 1.00016 1
0.995834 0.999796 0.996036 1
0.998816 1.00033 0.998618 0.999873
0.985056 0.980468 1.00508 0.999597
0.979475 0.985624 0.993773 0.999988
0.994347 1.00099 0.993364 1
0.996184 1.00167 0.994695 0.999825
0.988459 0.98455 1.00442 0.999554
0.987302 0.994181 0.993171 0.999909
0.998892 1.00051 0.998382 0.999999
0.991497 1.00026 0.991427 0.999809
0.995449 0.99146 1.00459 0.999431
0.996229 0.999796 0.996568 0.999865
0.999769 0.999796 0.999978 0.999994
0.999926 1 1 0.999926
0.999935 1 1 0.999935
0.999952 1 1 0.999952
0.999941 1 1 0.999941
0.999945 1 1 0.999945
0.999955 1 1 0.999955
0.999963 1 1 0.999963
0.999967 1 1 0.999967
0.990432 1 0.990493 0.999938
1.00077 1 1.00087 0.999896
0.999923 1 1 0.999923
0.999915 1 1.00004 0.999879
0.9999 1 1 0.9999
0.999913 1 1 0.999913
0.999914 1 1 0.999914
0.992488 1.00052 0.992069 0.999902
0.9999 1 1 0.9999
0.9999 1 1.00002 0.999882
1.0024 1 1.00252 0.999878
0.999912 1 1 0.999912
1.00197 1 1.00207 0.999893
1.00211 1 1.00223 0.999881
0.999891 1 1 0.999891
0.9999 1 1 0.9999
1.00002 1.00002 1 1
0.999276 0.999275 1 1
0.998964 0.999355 0.999608 1
0.999922 1 1 0.999922
1.0048 1 1.00491 0.999895
0.999565 0.999564 1 1
0.995867 0.989425 1.00699 0.999527
1.00247 0.999256 1.00338 0.999835
0.992292 0.99983 0.992569 0.999891
0.999342 0.999012 1.00033 1
1.00025 0.999861 1.00039 0.999999
0.999923 1 1 0.999923
1.00014 1.00014 1 1
0.99952 0.999349 1.00017 1
1.00138 0.998541 1.00287 0.999969
0.998309 1.0004 0.997908 1
1.00153 0.996131 1.00572 0.999706
0.986493 1.00016 0.98646 0.999876
0.999937 1 1 0.999937
1.00014 1.00017 0.999979 1
0.999917 0.999685 1.00023 1
0.993662 1.00184 0.991834 1
0.99321 0.997575 0.995747 0.999877
1.00825 0.998278 1.00999 0.999998
1.0034 0.995214 1.00848 0.99974
0.999918 1 1 0.999918
0.999921 1 1 0.999921
0.999932 1 1.00001 0.999925
0.999929 1 1 0.999929
0.999917 1 1 0.999917
0.999922 1 1 0.999922
0.999919 1 1 0.999919
0.999922 1 1 0.999922
0.99991 1 1 0.99991
0.999925 1 1 0.999925
0.999928 1 1 0.999928
0.999921 1 1 0.999921
0.999911 1 1 0.999911
0.999934 1 1 0.999934
0.99992 1 1 0.99992
0.999911 1 1 0.999911
0.999923 1 1 0.999923
0.999935 1 1 0.999935
0.999925 1 1 0.999925
0.999942 1 1 0.999942
0.99995 1 1 0.99995
0.999939 1 1 0.999939
0.999963 1 1 0.999963
0.999951 1 1 0.999951
0.999937 1 1 0.999937
0.999982 1 1 0.999982
0.99996 1 1 0.99996
0.999949 1 1 0.999949
0.999958 1 1 0.999958
0.999981 1 1 0.999981
0.999999 1 1 0.999999
0.999981 1 1 0.999981
1 1 1 1
1 1 1 1
1 1 1 1
1 1 1 1
1 1 1 1
1 1 1 1
1 1 1 1
1 1 1 1
0.999978 1 1 0.999978
0.999998 1 1 0.999998
0.999982 1 1 0.999982
1 1 1 1
0.999998 1 1 0.999998
0.999986 1 1 0.999986
1 1 1 1
1 1 1 1
0.999999 1 1 0.999999
1 1 1 1
1 1 1 1
1 1 1 1
1.00001 1.00001 0.999997 1
0.999494 0.999449 1.00004 1
0.997332 0.999452 0.997877 1
0.999957 1 1 0.999957
0.999955 1 1 0.999955
0.999943 1 1 0.999943
0.999152 0.999044 1.00011 1
0.999808 0.999673 1.00013 1
0.99976 0.999533 1.00023 1
0.997992 1.00252 0.995555 0.99993
0.989227 0.9851 1.00463 0.999561
0.985546 0.995278 0.990377 0.999843
0.999642 0.999801 0.999842 0.999999
0.993323 0.999877 0.993513 0.999933
0.996418 0.990429 1.00648 0.999565
0.997447 1.00314 0.994379 0.999944
0.999932 0.999824 1.00011 0.999997
1.00116 0.999513 1.00169 0.999958
0.998398 0.995933 1.00286 0.999613
0.987231 1.00271 0.98465 0.999915
0.999905 1.00035 0.999558 0.999999
0.999924 1 1 0.999924
0.999926 1 1 0.999926
0.999933 1 1 0.999933
0.999941 1 1 0.999941
0.999947 1 1 0.999947
0.999964 1 1 0.999964
0.990006 1 0.990106 0.999899
1.00235 1 1.00248 0.999878
0.999914 1 1 0.999914
0.999906 1 1.00002 0.999881
0.9999 1 1 0.9999
0.999911 1 1 0.999911
0.999899 1 1 0.999899
1.00025 1 1.00036 0.99989
0.999891 1 1 0.999891
1.00221 1 1.00233 0.999879
0.999899 1 1 0.999899
1.00447 1 1.00457 0.999903
1.00018 1 1.00029 0.999885
0.999886 1 1 0.999886
1.00006 1.00006 0.999996 1
1.00004 1.00004 1 1
0.999291 0.99929 1 1
0.999924 1 1 0.999924
1.00283 0.998282 1.00458 0.999976
1.00015 1.00015 1 1
1.00297 0.998047 1.00511 0.999827
0.98315 1.00138 0.981856 0.999941
0.999785 0.999708 1.00008 1
0.999532 0.999772 0.99976 1
0.999939 1 1 0.999939
1.00012 1.00013 0.999986 1
0.999823 0.999633 1.00019 1
1.01021 0.998336 1.01196 0.999936
0.993714 1.00093 0.992789 1
0.994283 1.00274 0.991606 0.999959
0.996341 0.995268 1.00135 0.999724
0.999272 1 0.99931 0.999962
1 1.00001 0.999994 1
0.999888 0.999763 1.00012 1
0.989838 1.00022 0.989615 1
0.987693 0.994182 0.993493 0.999981
1.00258 0.994445 1.00853 0.999658
1.01359 0.997652 1.01605 0.999931
0.999919 1 1 0.999919
0.99997 1 1.00005 0.999925
1.00023 1 1.00032 0.99991
0.999919 1 1 0.999919
0.999923 1 1 0.999923
0.999911 1 1 0.999911
1.00034 1 1.00045 0.999888
0.99992 1 1 0.99992
0.999909 1 1 0.999909
0.999896 1 1 0.999896
0.999922 1 1 0.999922
0.999911 1 1 0.999911
0.999908 1 1 0.999908
0.999917 1 1 0.999917
0.999934 1 1 0.999934
0.999922 1 1 0.999922
0.999924 1 1 0.999924
0.999951 1 1 0.999951
0.999942 1 1 0.999942
0.999961 1 1 0.999961
0.999951 1 1 0.999951
0.999941 1 1 0.999941
0.999984 1 1 0.999984
0.999963 1 1 0.999963
0.999951 1 1 0.999951
1 1 1 1
0.999982 1 1 0.999982
0.99996 1 1 0.99996
0.999981 1 1 0.999981
1 1 1 1
1 1 1 1
0.999999 1 1 0.999999
1 1 1 1
1 1 1 1
1 1 1 1
1 1 1 1
1 1 1 1
0.999981 1 1 0.999981
1 1 1 1
0.99998 1 1 0.99998
1 1 1 1
0.999999 1 1 0.999999
0.999982 1 1 0.999982
1 1 1 1
1 1 1 1
0.999998 1 1 0.999998
1 1 1 1
1 1 1 1
1 1 1 1
1.00015 1.00016 0.999987 1
1.00002 1.00002 0.999996 1
0.999407 0.999406 1 1
0.999957 1 1 0.999957
0.999951 1 1 0.999951
0.999958 1 1 0.999958
0.999955 1 1 0.999955
0.999941 1 1 0.999941
0.999942 1 1 0.999942
0.999932 1 1 0.999932
0.999576 0.999267 1.00031 1
0.999459 0.999407 1.00005 1
0.999717 0.999627 1.00009 1
1.00011 0.999901 1.00021 0.999999
0.997242 1.00185 0.995602 0.999797
0.99932 0.992792 1.0069 0.999677
0.987116 1.00149 0.985808 0.999839
1.00136 0.998895 1.00259 0.999882
0.999053 0.996898 1.00252 0.999643
0.990297 1.0015 0.988969 0.999847
0.999504 1.00132 0.998193 0.999996
1.00887 0.999099 1.00981 0.999966
0.998901 0.997429 1.0018 0.999679
0.989826 1.00284 0.987079 0.999944
0.99749 1.00078 0.996717 1
0.999919 1 1 0.999919
0.999924 1 1 0.999924
0.999926 1 1 0.999926
0.99994 1 1 0.99994
0.998509 1.00001 0.998614 0.999887
1.00227 1 1.00239 0.999877
0.99991 1 1 0.99991
0.999898 1 1 0.999898
0.999891 1 1 0.999891
0.999901 1 1 0.999901
0.999886 1 1 0.999886
1.00419 0.999931 1.00435 0.999906
1.00012 1 1.00023 0.999888
0.99989 1 1 0.99989
1.0043 0.999599 1.00476 0.999943
1.00056 1 1.0007 0.999864
1.00002 1.00002 1 1
1.00002 1.00002 1 1
1.00005 1.00005 1 1
0.99994 1 1 0.99994
1.00885 0.998278 1.0106 0.999994
1.00009 1.0001 0.99999 1
1.00321 0.994476 1.00906 0.999727
0.982845 1.00027 0.982728 0.999853
0.999729 0.999582 1.00015 1
0.993641 1.00099 0.992655 1
0.99938 1 0.999421 0.999959
1.00002 1.00002 0.999993 1
0.999839 0.999628 1.00021 1
1.01826 0.999075 1.01919 1.00001
0.991023 1.00059 0.99044 1
0.986 0.993325 0.992713 0.999912
1.00187 0.994992 1.00722 0.999692
0.998334 1 0.998375 0.999959
0.999585 0.999451 1.00013 1
0.997638 0.99998 0.997658 1
0.974841 0.984698 0.990001 0.999989
0.996233 0.990205 1.00653 0.999561
1.0114 0.999755 1.01179 0.999863
1.00003 1 1.00011 0.999925
1.00017 1 1.00026 0.99991
1.00355 1 1.00367 0.999887
0.999912 1 1 0.999912
1.00012 1 1.00023 0.999891
1.00089 1 1.00102 0.999871
0.999907 1 1 0.999907
0.999894 1 1 0.999894
0.999892 1 1 0.999892
0.999911 1 1 0.999911
0.999906 1 1 0.999906
0.99991 1 1 0.99991
0.99992 1 1 0.99992
0.999927 1 1 0.999927
0.999916 1 1 0.999916
0.999944 1 1 0.999944
0.999935 1 1 0.999935
0.999921 1 1 0.999921
0.99996 1 1 0.99996
0.999949 1 1 0.999949
0.999943 1 1 0.999943
0.999983 1 1 0.999983
0.999962 1 1 0.999962
0.999953 1 1 0.999953
1 1 1 1
0.999984 1 1 0.999984
0.999963 1 1 0.999963
1 1 1 1
1 1 1 1
0.999982 1 1 0.999982
1 1 1 1
1 1 1 1
1 1 1 1
1 1 1 1
1 1 1 1
1 1 1 1
0.999961 1 1 0.999961
0.999981 1 1 0.999981
1 1 1 1
0.999981 1 1 0.999981
1 1 1 1
1 1 1 1
0.999981 1 1 0.999981
1 1 1 1
1 1 1 1
1 1 1 1
1 1 1 1
1 1 1 1
1 1 1 1
1.00013 1.00013 0.999999 1
1.00012 1.00013 0.999993 1
1.00003 1.00004 0.999996 1
0.999958 1 1 0.999958
0.99995 1 1 0.99995
0.99995 1 1 0.99995
0.999946 1 1 0.999946
0.999944 1 1 0.999944
0.999955 1 1 0.999955
0.999939 1 1 0.999939
0.999942 1 1 0.999942
0.999933 1 1 0.999933
0.999934 1 1 0.999934
0.99977 0.999565 1.0002 1
0.999436 0.999172 1.00026 1
0.999763 0.999742 1.00002 1
0.999976 1.00064 0.999337 0.999995
0.986309 1.00195 0.984459 0.999925
1.00345 0.9994 1.00423 0.999825
0.999909 0.995695 1.00456 0.999672
1.00942 0.998786 1.01076 0.99988
0.992249 0.997251 0.99531 0.999672
0.996356 1.00127 0.995194 0.999901
0.995795 1.00083 0.99497 1
1.01226 0.997882 1.0145 0.999912
0.999776 0.994512 1.00564 0.999657
0.985257 0.99546 0.989906 0.999842
0.991486 1.00069 0.990803 1
0.999927 1 1 0.999927
0.99992 1 1 0.99992
0.999923 1 1 0.999923
1.00401 0.999906 1.0042 0.99991
1.00007 1 1.00018 0.999891
0.999904 1 1 0.999904
0.999885 1 1 0.999885
0.999891 1 1 0.999891
1.00055 1 1.00068 0.999864
1.00417 0.999783 1.00445 0.999943
0.999885 1 1 0.999881
1.0019 0.999987 1.00201 0.9999
0.999256 0.999255 1 1
1.00004 1.00004 1 1
0.999979 0.999977 1 1
0.999586 1 0.999629 0.999957
1.01755 0.999045 1.01859 0.999927
1.00003 1.00004 0.999993 1
1.00146 0.992337 1.00961 0.999595
0.984374 0.994102 0.990371 0.999843
0.999807 0.999494 1.00031 1
0.992195 1.00092 0.991284 1
0.998065 1 0.998107 0.999958
0.999504 0.99943 1.00007 1
0.997116 0.999883 0.997232 1
1.01228 0.998568 1.0138 0.999928
0.976629 0.985116 0.991526 0.999858
0.996643 0.989432 1.00782 0.999476
0.999979 1 1.00005 0.999928
0.998678 0.999519 0.999159 1
0.97487 0.981185 0.993679 0.999884
0.98816 0.984259 1.00444 0.99953
0.992478 1.00021 0.992333 0.999933
1.0001 1 1.00019 0.999909
1.0032 1 1.00331 0.999887
1.00691 1 1.00705 0.999866
0.999946 1 1.00005 0.999894
1.00106 1 1.00119 0.999872
1.00033 1 1.00045 0.999882
0.999892 1 1 0.999892
0.999893 1 1 0.999893
0.999914 1 1 0.999914
0.999905 1 1 0.999905
0.999911 1 1 0.999911
0.999928 1 1 0.999928
0.999932 1 1 0.999932
0.999924 1 1 0.999924
0.999921 1 1 0.999921
0.999937 1 1 0.999937
0.999925 1 1 0.999925
0.999915 1 1 0.999915
0.999958 1 1 0.999958
0.999946 1 1 0.999946
0.999936 1 1 0.999936
0.99998 1 1 0.99998
0.999959 1 1 0.999959
0.999948 1 1 0.999948
1 1 1 1
0.999983 1 1 0.999983
0.999963 1 1 0.999963
1 1 1 1
1 1 1 1
0.999984 1 1 0.999984
1 1 1 1
1 1 1 1
1 1 1 1
1 1 1 1
1 1 1 1
1 1 1 1
0.99996 1 1 0.99996
0.999982 1 1 0.999982
0.99996 1 1 0.99996
0.999999 1 1 0.999999
0.999981 1 1 0.999981
1 1 1 1
1 1 1 1
0.999981 1 1 0.999981
1 1 1 1
1 1 1 1
1 1 1 1
1 1 1 1
1 1 1 1
1 1 1 1
0.999665 0.999664 1 1
1.00014 1.00014 0.999999 1
1.0001 1.0001 0.999996 1
0.999952 1 1 0.999952
0.999959 1 1 0.999959
0.999949 1 1 0.999949
0.999947 1 1 0.999947
0.999952 1 1 0.999952
0.999944 1 1 0.999944
0.999943 1 1 0.999943
0.999939 1 1 0.999939
0.999942 1 1 0.999942
0.999934 1 1 0.999934
0.999934 1 1 0.999934
0.999933 1 1 0.999933
0.995864 0.999676 0.996185 1
0.999731 0.999437 1.00029 1
0.999293 0.999085 1.00021 1
0.994465 1.00192 0.992561 1
0.995541 1.00089 0.994793 0.99986
0.99864 0.997187 1.00178 0.99968
1.00964 0.998858 1.01081 0.999987
1.01504 0.998189 1.01688 1
0.992428 1.00068 0.99175 1
0.99768 0.996837 1.00125 0.999599
0.987688 0.994143 0.993529 0.999978
1.00817 0.999043 1.00917 0.999965
0.996147 0.989996 1.00665 0.999567
0.976712 0.985237 0.991354 0.999993
0.999935 1 1 0.999935
0.999927 1 1 0.999927
0.999922 1 1 0.999922
1.00393 0.999903 1.00409 0.999942
1.00052 1 1.00065 0.999864
0.999891 1 1 0.999891
0.999889 1 1.00001 0.999883
1.00187 0.999992 1.00198 0.999901
0.99992 1 1 0.999916
0.996663 0.998933 0.997726 1
0.999458 0.999457 1 1
1.00005 1.00005 1 1
0.997617 1 0.997659 0.999958
1.0119 0.999478 1.01247 0.999961
0.999389 0.999388 1 1
1.00142 0.991656 1.01014 0.999711
0.978482 0.9851 0.993294 0.999988
0.995334 0.999788 0.995544 1
1.00023 1 1.0003 0.999929
0.996995 0.999466 0.997526 1
0.975388 0.980656 0.994628 1
0.992446 0.999866 0.992772 0.999805
0.988048 0.983962 1.00461 0.999547
0.991071 1.00061 0.990587 0.999879
0.976171 0.980453 0.995626 1.00001
0.982573 0.980703 1.00228 0.999633
0.985288 1.00196 0.983548 0.999806
1.00274 1 1.00285 0.999888
1.00699 1 1.00713 0.999864
1.00266 1 1.00277 0.999891
1.00121 1 1.00134 0.999874
1.00035 1 1.00046 0.999883
0.99993 1 1 0.99993
0.999894 1 1 0.999894
0.999915 1 1 0.999915
0.999948 1 1 0.999948
0.999912 1 1 0.999912
0.999928 1 1 0.999928
0.999947 1 1 0.999947
0.999943 1 1 0.999943
0.999931 1 1 0.999931
0.999933 1 1 0.999933
0.999933 1 1 0.999933
0.999925 1 1 0.999925
0.999922 1 1 0.999922
0.999953 1 1 0.999953
0.999937 1 1 0.999937
0.999923 1 1 0.999923
0.999977 1 1 0.999977
0.999958 1 1 0.999958
0.999947 1 1 0.999947
0.999999 1 1 0.999999
0.99998 1 1 0.99998
0.999959 1 1 0.999959
1 1 1 1
1 1 1 1
0.999983 1 1 0.999983
1 1 1 1
1 1 1 1
1 1 1 1
1 1 1 1
1 1 1 1
1 1 1 1
0.999964 1 1 0.999964
0.999961 1 1 0.999961
0.999982 1 1 0.999982
0.999999 1 1 0.999999
0.999982 1 1 0.999982
0.999959 1 1 0.999959
1 1 1 1
0.999999 1 1 0.999999
0.999981 1 1 0.999981
1 1 1 1
1 1 1 1
1 1 1 1
1 1 1 1
1 1 1 1
1 1 1 1
0.998247 0.999113 0.999133 1
0.999625 0.999624 1 1
1.00015 1.00015 1 1
0.999951 1 1 0.999951
0.999951 1 1 0.999951
0.999946 1 1 0.999946
0.999949 1 1 0.999949
0.999953 1 1 0.999953
0.999944 1 1 0.999944
0.99994 1 1 0.99994
0.999944 1 1 0.999944
0.999937 1 1 0.999937
0.999938 1 1 0.999938
0.999934 1 1 0.999934
0.999933 1 1 0.999933
0.978489 0.982079 0.996348 0.999997
0.996543 0.999904 0.996638 1
0.999696 0.999316 1.00038 1
0.993328 1.0007 0.992637 1
0.982288 0.992306 0.990045 0.999858
1.00194 0.99835 1.00388 0.999716
1.01361 0.998076 1.01565 0.99991
1.00895 0.999006 1.01009 0.999866
0.976871 0.985197 0.991675 0.999873
0.997796 0.991842 1.00636 0.999651
1.00586 0.999673 1.00637 0.999823
0.988717 0.985049 1.00413 0.999598
1.00016 1 1.00023 0.999926
0.999936 1 1 0.999936
0.999927 1 1 0.999927
1.00186 1 1.00196 0.999901
0.999895 1 1.00001 0.999884
0.999949 1 1.00003 0.999919
0.999954 1 1.00004 0.999916
0.97463 0.981479 0.993015 1.00001
0.997874 0.999174 0.998698 1
0.999671 0.99967 1 1
1.00068 1 1.00075 0.99993
0.993007 1.00023 0.992827 0.999947
0.996908 0.999435 0.99747 1
0.988727 0.984562 1.00468 0.999552
0.974808 0.980722 0.994082 0.999888
0.990837 1.00074 0.990218 0.999882
0.974979 0.979394 0.995532 0.999961
0.983632 0.980041 1.00406 0.999608
0.984975 1.00136 0.983699 0.999936
0.983425 1.00235 0.981229 0.999884
0.977432 0.977675 1.00015 0.999605
0.995871 1.00115 0.994788 0.999938
1.00728 1 1.00742 0.999862
1.00216 1 1.00227 0.999891
0.999656 1 0.999704 0.999952
1.00033 1 1.00044 0.999884
0.999931 1 1 0.999931
0.999919 1 0.999941 0.999978
0.999917 1 1 0.999917
0.999948 1 1 0.999948
0.999966 1 1 0.999966
0.999929 1 1 0.999929
0.999947 1 1 0.999947
0.999952 1 1 0.999952
0.999945 1 1 0.999945
0.999944 1 1 0.999944
0.999941 1 1 0.999941
0.999936 1 1 0.999936
0.999931 1 1 0.999931
0.999934 1 1 0.999934
0.999945 1 1 0.999945
0.999934 1 1 0.999934
0.999927 1 1 0.999927
0.999972 1 1 0.999972
0.999953 1 1 0.999953
0.999937 1 1 0.999937
0.999999 1 1 0.999999
0.999977 1 1 0.999977
0.999958 1 1 0.999958
1 1 1 1
0.999999 1 1 0.999999
0.99998 1 1 0.99998
1 1 1 1
1 1 1 1
1 1 1 1
1 1 1 1
1 1 1 1
1 1 1 1
0.999961 1 1 0.999961
0.999962 1 1 0.999962
0.999981 1 1 0.999981
0.999962 1 1 0.999962
0.999982 1 1 0.999982
0.999999 1 1 0.999999
1 1 1 1
0.999999 1 1 0.999999
0.999982 1 1 0.999982
1 1 1 1
1 1 1 1
0.999999 1 1 0.999999
1 1 1 1
1 1 1 1
1 1 1 1
0.978437 0.980977 0.997494 0.999916
0.99761 0.999251 0.998356 1
0.999585 0.999584 1 1
0.99995 1 1 0.99995
0.999946 1 1 0.999946
0.999952 1 1 0.999952
0.99995 1 1 0.99995
0.999944 1 1 0.999944
0.999941 1 1 0.999941
0.999944 1 1 0.999944
0.999937 1 1 0.999937
0.999939 1 1 0.999939
0.999934 1 1 0.999934
0.999934 1 1 0.999934
0.999937 1 1 0.999937
0.999932 1 1 0.999932
0.983306 0.98291 1.00086 0.99954
0.978646 0.982366 0.996263 0.999949
0.996048 1.00015 0.995903 1
0.978015 0.985519 0.992393 0.999992
0.995674 0.989657 1.00665 0.999435
1.00846 0.999133 1.00937 0.999965
1.00568 0.999319 1.00649 0.999882
0.98822 0.984869 1.00381 0.999595
1.00194 0.999866 1.00221 0.99986
1.00015 1 1.00026 0.999884
1.00035 1 1.00043 0.999924
0.999936 1 1 0.999936
0.999955 1 1.00003 0.999921
0.999942 1 1 0.999939
0.975415 0.977736 0.997893 0.999733
0.976159 0.980944 0.995196 0.999926
0.99892 0.999402 0.999517 1
0.990248 1.00097 0.989403 0.999885
0.987571 1.00336 0.984463 0.999794
0.9768 0.979753 0.997063 0.999922
0.985608 0.980013 1.00612 0.99959
0.982805 1.00185 0.981104 0.99988
0.979794 0.978806 1.00131 0.999698
0.993 1.00225 0.990943 0.999825
0.980491 1.00189 0.978709 0.999933
1.00573 0.998949 1.00684 0.999943
1.00158 1 1.00169 0.999892
0.998926 1 0.998973 0.999953
0.998789 1 0.998798 0.999991
0.999913 1 0.99998 0.999933
0.999883 1 0.999905 0.999978
0.999813 1 0.99983 0.999983
0.999948 1 1 0.999948
0.999965 1 1 0.999965
0.999959 1 1 0.999959
0.999946 1 1 0.999946
0.999952 1 1 0.999952
0.999946 1 1 0.999946
0.999946 1 1 0.999946
0.999941 1 1 0.999941
0.999945 1 1 0.999945
0.999941 1 1 0.999941
0.99994 1 1 0.99994
0.999942 1 1 0.999942
0.999935 1 1 0.999935
0.999932 1 1 0.999932
0.999966 1 1 0.999966
0.999946 1 1 0.999946
0.999936 1 1 0.999936
0.999998 1 1 0.999998
0.999972 1 1 0.999972
0.999953 1 1 0.999953
1 1 1 1
0.999999 1 1 0.999999
0.999977 1 1 0.999977
1 1 1 1
1 1 1 1
0.999999 1 1 0.999999
1 1 1 1
1 1 1 1
1 1 1 1
0.999957 1 1 0.999957
0.999961 1 1 0.999961
0.999976 1 1 0.999976
0.99996 1 1 0.99996
0.999979 1 1 0.999979
0.999999 1 1 0.999999
0.999982 1 1 0.999982
0.999999 1 1 0.999999
1 1 1 1
1 1 1 1
1 1 1 1
0.999999 1 1 0.999999
1 1 1 1
1 1 1 1
1 1 1 1
0.98048 0.980546 1.00023 0.999706
0.977157 0.982381 0.994678 1
0.998528 0.999388 0.999139 1
0.999946 1 1 0.999946
0.999952 1 1 0.999952
0.999945 1 1 0.999945
0.99995 1 1 0.99995
0.999948 1 1 0.999948
0.999945 1 1 0.999945
0.999936 1 1 0.999936
0.999939 1 1 0.999939
0.999935 1 1 0.999935
0.999937 1 1 0.999937
0.999934 1 1 0.999934
0.999894 1 1 0.999894
0.999934 1 1 0.999934
0.999935 1 1 0.999935
0.99643 0.998636 0.997811 0.999979
0.981477 0.981723 1.0001 0.999652
0.975627 0.981197 0.99443 0.999893
0.988719 0.985487 1.00371 0.999571
1.00609 0.999646 1.00649 0.999955
1.00187 0.999547 1.00238 0.999943
0.999604 1 0.999737 0.999867
1.00031 1 1.00043 0.999886
1.00054 1 1.00062 0.999922
0.999962 1 1 0.999962
1.00012 0.997796 1.00245 0.999884
0.978597 0.978552 1.00031 0.99974
0.976144 0.981479 0.994558 1.00001
0.982073 1.00119 0.981026 0.999877
0.993931 1.00318 0.990846 0.999933
0.980538 0.978271 1.00252 0.999798
0.98268 1.00103 0.981738 0.99993
1.00163 0.999612 1.0021 0.999915
0.988798 1 0.988832 0.999964
1.00239 1 1.00249 0.999907
0.99833 1 0.998376 0.999954
0.99864 1 0.998651 0.99999
0.99921 1 0.999239 0.999972
0.99992 1 0.999943 0.999977
0.999923 1 0.999942 0.999982
0.999958 1 1 0.999958
0.999964 1 1 0.999964
0.999958 1 1 0.999958
0.999942 1 1 0.999942
0.999951 1 1 0.999951
0.999946 1 1 0.999946
0.999937 1 1 0.999937
0.999947 1 1 0.999947
0.999941 1 1 0.999941
0.999938 1 1 0.999938
0.999941 1 1 0.999941
0.999939 1 1 0.999939
0.999944 1 1 0.999944
0.999959 1 1 0.999959
0.999944 1 1 0.999944
0.999935 1 1 0.999935
0.999995 1 1 0.999995
0.999966 1 1 0.999966
0.999948 1 1 0.999948
1 1 1 1
0.999997 1 1 0.999997
0.999972 1 1 0.999972
1 1 1 1
1 1 1 1
0.999998 1 1 0.999998
1 1 1 1
1 1 1 1
1 1 1 1
0.999956 1 1 0.999956
0.999959 1 1 0.999959
0.999973 1 1 0.999973
0.999961 1 1 0.999961
0.999976 1 1 0.999976
0.999999 1 1 0.999999
0.999978 1 1 0.999978
0.999999 1 1 0.999999
1 1 1 1
0.999999 1 1 0.999999
1 1 1 1
1 1 1 1
1 1 1 1
1 1 1 1
1 1 1 1
0.995375 0.996848 0.998528 0.999994
0.97754 0.978906 0.998896 0.999709
0.976166 0.982428 0.99371 0.999915
0.999945 1 1 0.999945
0.999946 1 1 0.999946
0.999951 1 1 0.999951
0.999944 1 1 0.999944
0.999948 1 1 0.999948
0.999944 1 1 0.999944
0.99994 1 1 0.99994
0.999935 1 1 0.999935
0.999938 1 1 0.999938
0.999938 1 1 0.999938
0.999915 1 1 0.999915
0.999857 1 1 0.999857
0.999898 1 1 0.999898
0.999933 1 1 0.999933
0.997896 1 0.998011 0.999885
0.996869 0.999784 0.99717 0.999914
0.982191 0.981723 1.00072 0.999759
1.00138 0.999922 1.00162 0.999832
0.999706 1 0.999866 0.99984
1.00048 1 1.00059 0.999887
1 1 1.00002 0.999982
1.00128 0.9974 1.00391 0.999984
0.976165 0.978463 0.997922 0.999729
0.985075 1.00027 0.98488 0.999927
0.998595 0.999881 0.99884 0.999873
0.991919 1 0.991958 0.999961
1.00132 1 1.00141 0.999918
0.999924 1 1 0.999924
0.999914 1 1 0.999914
0.998225 1 0.998236 0.999988
0.999514 1 0.999544 0.99997
0.999937 1 1 0.999937
0.99998 1 1 0.99998
0.999957 1 1 0.999957
0.999936 1 1 0.999936
0.999957 1 1 0.999957
0.999943 1 1 0.999943
0.999929 1 1 0.999929
0.999947 1 1 0.999947
0.999937 1 1 0.999937
0.999933 1 1 0.999933
0.999942 1 1 0.999942
0.999938 1 1 0.999938
0.999941 1 1 0.999941
0.999939 1 1 0.999939
0.999943 1 1 0.999943
0.999956 1 1 0.999956
0.999991 1 1 0.999991
0.99996 1 1 0.99996
0.999945 1 1 0.999945
1 1 1 1
0.999995 1 1 0.999995
0.999967 1 1 0.999967
1 1 1 1
1 1 1 1
0.999997 1 1 0.999997
1 1 1 1
1 1 1 1
1 1 1 1
0.999952 1 1 0.999952
0.999956 1 1 0.999956
0.999972 1 1 0.999972
0.99996 1 1 0.99996
0.999974 1 1 0.999974
0.999998 1 1 0.999998
0.999976 1 1 0.999976
0.999999 1 1 0.999999
1 1 1 1
0.999999 1 1 0.999999
1 1 1 1
1 1 1 1
1 1 1 1
1 1 1 1
1 1 1 1
0.998183 1 0.998211 0.999971
0.995515 0.997655 0.997963 0.999891
0.979371 0.979969 0.999659 0.99973
0.999942 1 1 0.999942
0.999935 1 1 0.999935
0.999944 1 1 0.999944
0.999944 1 1 0.999944
0.999947 1 1 0.999947
0.999944 1 1 0.999944
0.999918 1 1 0.999918
0.999939 1 1 0.999939
0.999943 1 1 0.999943
0.999914 1 1 0.999914
0.999875 1 1 0.999875
0.999913 1 1 0.999913
0.999861 1 1 0.999861
0.999902 1 1 0.999902
0.998089 1 0.9982 0.999889
0.996423 0.999886 0.99667 0.999865
0.999813 1 1 0.999813
0.999989 1 1 0.999989
1.00114 1 1.00116 0.999983
0.999746 0.996927 1.00293 0.999902
0.995171 1 0.995213 0.999958
1.00027 1 1.00034 0.999928
0.999812 1 0.999885 0.999927
0.999921 1 1 0.999921
0.999915 1 1 0.999915
0.99996 1 1 0.99996
0.999951 1 0.999982 0.999969
0.999938 1 1 0.999938
0.999922 1 1 0.999922
0.999957 1 1 0.999957
0.999935 1 1 0.999935
0.999923 1 1 0.999923
0.999944 1 1 0.999944
0.999929 1 1 0.999929
0.999926 1 1 0.999926
0.999937 1 1 0.999937
0.999933 1 1 0.999933
0.999936 1 1 0.999936
0.999938 1 1 0.999938
0.999941 1 1 0.999941
0.999953 1 1 0.999953
0.999942 1 1 0.999942
0.999956 1 1 0.999956
0.999986 1 1 0.999986
1 1 1 1
0.999991 1 1 0.999991
0.999962 1 1 0.999962
1 1 1 1
1 1 1 1
0.999994 1 1 0.999994
1 1 1 1
1 1 1 1
1 1 1 1
0.999944 1 1 0.999944
0.999951 1 1 0.999951
0.999968 1 1 0.999968
0.999956 1 1 0.999956
0.999972 1 1 0.999972
0.999996 1 1 0.999996
0.999975 1 1 0.999975
0.999998 1 1 0.999998
1 1 1 1
0.999999 1 1 0.999999
1 1 1 1
1 1 1 1
1 1 1 1
1 1 1 1
1 1 1 1
0.99998 1 1 0.99998
0.998302 1 0.998327 0.999975
0.995117 0.996877 0.998238 0.999996
0.999927 1 1 0.999927
0.999945 1 1 0.999945
0.999919 1 1 0.999919
0.999935 1 1 0.999935
0.999944 1 1 0.999944
0.999891 1 1 0.999891
0.999943 1 1 0.999943
0.999919 1 1 0.999919
0.999898 1 1 0.999898
0.999913 1 1 0.999913
0.99987 1 1 0.99987
0.999911 1 1 0.999911
0.999865 1 1 0.999865
0.998269 1 0.998376 0.999893
0.99999 1 1 0.99999
0.999987 1 1 0.999987
1.00223 1 1.00224 0.999984
0.999671 1 0.999741 0.99993
0.999927 1 1 0.999927
0.999912 1 1 0.999912
0.999961 1 1 0.999961
0.999951 1 1 0.999951
0.99994 1 1 0.99994
0.999924 1 1 0.999924
0.999925 1 1 0.999925
0.999935 1 1 0.999935
0.999922 1 1 0.999922
0.999922 1 1 0.999922
0.999929 1 1 0.999929
0.999926 1 1 0.999926
0.99993 1 1 0.99993
0.999933 1 1 0.999933
0.999936 1 1 0.999936
0.999947 1 1 0.999947
0.999941 1 1 0.999941
0.999953 1 1 0.999953
0.999981 1 1 0.999981
0.999955 1 1 0.999955
0.999986 1 1 0.999986
1 1 1 1
1 1 1 1
1 1 1 1
0.99999 1 1 0.99999
1 1 1 1
1 1 1 1
1 1 1 1
0.99992 1 1 0.99992
0.999935 1 1 0.999935
0.999943 1 1 0.999943
0.999963 1 1 0.999963
0.999949 1 1 0.999949
0.999968 1 1 0.999968
0.999995 1 1 0.999995
0.999972 1 1 0.999972
0.999997 1 1 0.999997
1 1 1 1
0.999998 1 1 0.999998
1 1 1 1
1 1 1 1
1 1 1 1
1 1 1 1
1 1 1 1
0.999958 1 1 0.999958
0.999978 1 1 0.999978
0.99843 1 0.998452 0.999978
0.999904 1 1 0.999904
0.999931 1 1 0.999931
0.999947 1 1 0.999947
0.999921 1 1 0.999921
0.999934 1 1 0.999934
0.999891 1 1 0.999891
0.99989 1 1 0.99989
0.999919 1 1 0.999919
0.999896 1 1 0.999896
0.999865 1 1 0.999865
0.999909 1 1 0.999909
0.999984 1 1 0.999984
0.999989 1 1 0.999989
0.999985 1 1 0.999985
0.99991 1 1 0.99991
0.999962 1 1 0.999962
0.99995 1 1 0.99995
0.99995 1 1 0.99995
0.999925 1 1 0.999925
0.999923 1 1 0.999923
0.999931 1 1 0.999931
0.999921 1 1 0.999921
0.999922 1 1 0.999922
0.999925 1 1 0.999925
0.999926 1 1 0.999926
0.99993 1 1 0.99993
0.999941 1 1 0.999941
0.999936 1 1 0.999936
0.999947 1 1 0.999947
0.999974 1 1 0.999974
0.999953 1 1 0.999953
0.999981 1 1 0.999981
1 1 1 1
0.999986 1 1 0.999986
1 1 1 1
1 1 1 1
1 1 1 1
1 1 1 1
1 1 1 1
0.999906 1 1 0.999906
0.999933 1 1 0.999933
0.999924 1 1 0.999924
0.999955 1 1 0.999955
0.999935 1 1 0.999935
0.999942 1 1 0.999942
0.999963 1 1 0.999963
0.999991 1 1 0.999991
0.999968 1 1 0.999968
0.999995 1 1 0.999995
1 1 1 1
0.999997 1 1 0.999997
1 1 1 1
1 1 1 1
1 1 1 1
1 1 1 1
1 1 1 1
0.999941 1 1 0.999941
0.999959 1 1 0.999959
0.999977 1 1 0.999977
0.999899 1 1 0.999899
0.999904 1 1 0.999904
0.999934 1 1 0.999934
0.999922 1 1 0.999922
0.999892 1 1 0.999892
0.999888 1 1 0.999888
0.999895 1 1 0.999895
0.999972 1 1 0.999972
0.999979 1 1 0.999979
0.999988 1 1 0.999988
0.999955 1 1 0.999955
0.999949 1 1 0.999949
0.99995 1 1 0.99995
0.999945 1 1 0.999945
0.999921 1 1 0.999921
0.999931 1 1 0.999931
0.999929 1 1 0.999929
0.999921 1 1 0.999921
0.999925 1 1 0.999925
0.999935 1 1 0.999935
0.999929 1 1 0.999929
0.999941 1 1 0.999941
0.999967 1 1 0.999967
0.999947 1 1 0.999947
0.999974 1 1 0.999974
1 1 1 1
0.999981 1 1 0.999981
1 1 1 1
1 1 1 1
1 1 1 1
1 1 1 1
1 1 1 1
0.999901 1 1 0.999901
0.999916 1 1 0.999916
0.999908 1 1 0.999908
0.99995 1 1 0.99995
0.999931 1 1 0.999931
0.999929 1 1 0.999929
0.999985 1 1 0.999985
0.999955 1 1 0.999955
0.999936 1 1 0.999936
0.999963 1 1 0.999963
0.999992 1 1 0.999992
1 1 1 1
0.999995 1 1 0.999995
1 1 1 1
1 1 1 1
1 1 1 1
1 1 1 1
1 1 1 1
0.999934 1 1 0.999934
0.999938 1 1 0.999938
0.999959 1 1 0.999959
0.999895 1 1 0.999895
0.999904 1 1 0.999904
0.999892 1 1 0.999892
0.999957 1 1 0.999957
0.999975 1 1 0.999975
0.999974 1 1 0.999974
0.999952 1 1 0.999952
0.999949 1 1 0.999949
0.99995 1 1 0.99995
0.999945 1 1 0.999945
0.999942 1 1 0.999942
0.999931 1 1 0.999931
0.99993 1 1 0.99993
0.999936 1 1 0.999936
0.999925 1 1 0.999925
0.999935 1 1 0.999935
0.999961 1 1 0.999961
0.999941 1 1 0.999941
0.999967 1 1 0.999967
1 1 1 1
0.999974 1 1 0.999974
1 1 1 1
1 1 1 1
1 1 1 1
1 1 1 1
1 1 1 1
0.999931 1 1 0.999931
0.999906 1 1 0.999906
0.999901 1 1 0.999901
0.999935 1 1 0.999935
0.999917 1 1 0.999917
0.999911 1 1 0.999911
0.999977 1 1 0.999977
0.999947 1 1 0.999947
0.99993 1 1 0.99993
1 1 1 1
0.999986 1 1 0.999986
0.999955 1 1 0.999955
0.999992 1 1 0.999992
1 1 1 1
1 1 1 1
1 1 1 1
1 1 1 1
1 1 1 1
0.999929 1 1 0.999929
0.999932 1 1 0.999932
0.999934 1 1 0.999934
0.999892 1 1 0.999892
0.999947 1 1 0.999947
0.999959 1 1 0.999959
0.999977 1 1 0.999977
0.999949 1 1 0.999949
0.99995 1 1 0.99995
0.999951 1 1 0.999951
0.999945 1 1 0.999945
0.999942 1 1 0.999942
0.999943 1 1 0.999943
0.99993 1 1 0.99993
0.999936 1 1 0.999936
0.999958 1 1 0.999958
0.999936 1 1 0.999936
0.999961 1 1 0.999961
0.999999 1 1 0.999999
0.999967 1 1 0.999967
1 1 1 1
1 1 1 1
1 1 1 1
1 1 1 1
1 1 1 1
0.999931 1 1 0.999931
0.999925 1 1 0.999925
0.999931 1 1 0.999931
0.999921 1 1 0.999921
0.99991 1 1 0.99991
0.9999 1 1 0.9999
0.999962 1 1 0.999962
0.999935 1 1 0.999935
0.999919 1 1 0.999919
1 1 1 1
0.999974 1 1 0.999974
0.999944 1 1 0.999944
1 1 1 1
1 1 1 1
0.999986 1 1 0.999986
1 1 1 1
1 1 1 1
1 1 1 1
0.999933 1 1 0.999933
0.999933 1 1 0.999933
0.999931 1 1 0.999931
0.999955 1 1 0.999955
0.999948 1 1 0.999948
0.99996 1 1 0.99996
0.999951 1 1 0.999951
0.999952 1 1 0.999952
0.999957 1 1 0.999957
0.999941 1 1 0.999941
0.999944 1 1 0.999944
0.99996 1 1 0.99996
0.999937 1 1 0.999937
0.999959 1 1 0.999959
0.999998 1 1 0.999998
0.999961 1 1 0.999961
0.999999 1 1 0.999999
1 1 1 1
1 1 1 1
1 1 1 1
1 1 1 1
0.99993 1 1 0.99993
0.999934 1 1 0.999934
0.99993 1 1 0.99993
0.999929 1 1 0.999929
0.999926 1 1 0.999926
0.99993 1 1 0.99993
0.999951 1 1 0.999951
0.999924 1 1 0.999924
0.999913 1 1 0.999913
1 1 1 1
0.99996 1 1 0.99996
0.999935 1 1 0.999935
1 1 1 1
1 1 1 1
0.999972 1 1 0.999972
1 1 1 1
1 1 1 1
1 1 1 1
0.999943 1 1 0.999943
0.999934 1 1 0.999934
0.999938 1 1 0.999938
0.99996 1 1 0.99996
0.999954 1 1 0.999954
0.999948 1 1 0.999948
0.999952 1 1 0.999952
0.999957 1 1 0.999957
0.999969 1 1 0.999969
0.999945 1 1 0.999945
0.999961 1 1 0.999961
0.999997 1 1 0.999997
0.999959 1 1 0.999959
0.999998 1 1 0.999998
1 1 1 1
0.999999 1 1 0.999999
1 1 1 1
1 1 1 1
0.999937 1 1 0.999937
0.999927 1 1 0.999927
0.999939 1 1 0.999939
0.999934 1 1 0.999934
0.999929 1 1 0.999929
0.999955 1 1 0.999955
0.999929 1 1 0.999929
0.999927 1 1 0.999927
0.999998 1 1 0.999998
0.999952 1 1 0.999952
0.999927 1 1 0.999927
1 1 1 1
1 1 1 1
0.999959 1 1 0.999959
1 1 1 1
1 1 1 1
1 1 1 1
0.999952 1 1 0.999952
0.999943 1 1 0.999943
0.999935 1 1 0.999935
0.999971 1 1 0.999971
0.999961 1 1 0.999961
0.999952 1 1 0.999952
0.999957 1 1 0.999957
0.999968 1 1 0.999968
0.999998 1 1 0.999998
0.999961 1 1 0.999961
0.999997 1 1 0.999997
1 1 1 1
0.999997 1 1 0.999997
1 1 1 1
1 1 1 1
0.999945 1 1 0.999945
0.999936 1 1 0.999936
0.999924 1 1 0.999924
0.99996 1 1 0.99996
0.999939 1 1 0.999939
0.999935 1 1 0.999935
0.999997 1 1 0.999997
0.999954 1 1 0.999954
0.999928 1 1 0.999928
1 1 1 1
0.999999 1 1 0.999999
0.999954 1 1 0.999954
1 1 1 1
1 1 1 1
1 1 1 1
0.999971 1 1 0.999971
0.999952 1 1 0.999952
0.999943 1 1 0.999943
0.999998 1 1 0.999998
0.999971 1 1 0.999971
0.999961 1 1 0.999961
0.999967 1 1 0.999967
0.999998 1 1 0.999998
1 1 1 1
0.999997 1 1 0.999997
1 1 1 1
1 1 1 1
0.999966 1 1 0.999966
0.999945 1 1 0.999945
0.999934 1 1 0.999934
0.999998 1 1 0.999998
0.99996 1 1 0.99996
0.999939 1 1 0.999939
1 1 1 1
0.999998 1 1 0.999998
0.999954 1 1 0.999954
1 1 1 1
0.999999 1 1 0.999999
1 1 1 1
0.999998 1 1 0.999998
0.999969 1 1 0.999969
0.999952 1 1 0.999952
1 1 1 1
0.999998 1 1 0.999998
0.999971 1 1 0.999971
0.999998 1 1 0.999998
1 1 1 1
1 1 1 1
0.999998 1 1 0.999998
0.999966 1 1 0.999966
0.999945 1 1 0.999945
1 1 1 1
0.999998 1 1 0.999998
0.99996 1 1 0.99996
1 1 1 1
0.999998 1 1 0.999998
1 1 1 1
1 1 1 1
0.999998 1 1 0.999998
0.999968 1 1 0.999968
1 1 1 1
0.999998 1 1 0.999998
1 1 1 1
1 1 1 1
0.999998 1 1 0.999998
0.999966 1 1 0.999966
1 1 1 1
0.999997 1 1 0.999997
1 1 1 1
1 1 1 1
0.999998 1 1 0.999998
1 1 1 1
1 1 1 1
0.999998 1 1 0.999998
1 1 1 1
1 1 1 1
1 1 1 1

VECTORS lamdaE float
0.999315 0.997981 0.998074
0.99945 0.997378 0.999271
0.999314 0.997949 0.998093
0.999042 0.999074 0.997621
0.999236 0.998306 0.99794
0.999383 0.997692 0.9982
0.999514 0.999025 0.996568
0.999462 0.997377 0.999282
0.999247 0.998183 0.999128
0.999395 0.997588 0.99925
0.999524 0.997147 0.998392
0.999613 0.998461 0.996742
0.998584 1.00023 0.997423
0.99886 0.999413 0.997617
0.999313 0.997917 0.998113
0.999035 0.999047 0.997645
0.999384 0.997659 0.998217
0.999234 0.99827 0.997961
0.999511 0.999042 0.996573
0.998644 0.999871 0.998914
0.998934 0.999448 0.997499
0.999142 0.99868 0.997785
0.999455 0.999792 0.995976
0.999485 0.999281 0.996391
0.999461 0.997422 0.998301
0.999542 0.998761 0.996755
0.999931 1.00041 0.994437
0.999474 0.997377 0.999293
0.999249 0.998229 0.998522
0.999399 0.997612 0.998727
0.999519 0.997153 0.999313
0.999609 0.998434 0.996749
0.999126 0.99864 0.997787
0.999316 0.997917 0.998095
0.999525 0.999247 0.99668
0.99959 0.996927 0.999345
0.999569 0.998706 0.997087
0.999652 0.998234 0.99688
0.999895 1.00009 0.994556
0.999698 0.996688 0.999347
0.998581 0.999962 0.998898
0.998836 0.999398 0.998285
0.998538 1.00015 0.998864
0.9987 0.999829 0.997541
0.999219 1.00072 0.995203
0.999007 0.998898 0.999022
0.999347 1.00006 0.996195
0.999028 0.999018 0.997669
0.999231 0.998233 0.997983
0.999385 0.997626 0.998234
0.999509 0.999058 0.996577
0.998634 0.999974 0.998184
0.998924 0.999431 0.997516
0.999463 0.997386 0.998314
0.999138 0.998644 0.997809
0.999453 0.999805 0.99598
0.999541 0.998771 0.996762
0.999483 0.999296 0.996395
0.99995 1.0004 0.994407
0.998579 1.00005 0.998899
0.998799 0.999788 0.997458
0.999275 1.00044 0.995979
0.999447 1 0.995802
0.99946 0.999544 0.996195
1.0002 1.00055 0.993744
0.999998 1.00044 0.994126
0.999564 0.997185 0.998368
0.999598 0.998453 0.996944
0.999858 1.00031 0.994686
1.00031 1.00066 0.993163
0.999263 0.998191 0.999144
0.999535 0.997157 0.999326
0.999409 0.997618 0.999255
0.999606 0.998406 0.996756
0.999131 0.998566 0.999053
0.999314 0.9979 0.999182
0.999519 0.999263 0.996101
0.999595 0.996945 0.998892
0.99957 0.998683 0.996592
0.999652 0.998206 0.997129
0.999882 1.00012 0.994551
0.999642 0.996801 0.999345
0.999807 0.997755 0.997044
0.999496 0.999565 0.995802
0.999534 0.99901 0.996318
1.00006 1.00045 0.993838
0.99971 0.997999 0.997446
0.999934 1.00022 0.994346
0.999871 0.99994 0.994767
1.00008 1.00075 0.993523
0.999743 0.996593 0.99935
0.999705 0.996705 0.999348
0.998894 0.999249 0.99899
0.998613 0.999907 0.998918
0.998543 1.00013 0.998871
0.998682 0.999787 0.998227
0.999215 1.00066 0.995595
0.999014 0.998979 0.998348
0.999359 1.0001 0.995874
0.998536 1.00018 0.998872
0.999208 1.00086 0.9951
0.999268 1.00033 0.99608
1.00011 1.00091 0.993274
0.999446 0.999758 0.996331
1.00014 1.00064 0.993493
0.998631 1.00008 0.997444
0.998914 0.999415 0.997533
0.999464 0.99735 0.998326
0.999134 0.998605 0.997834
0.999452 0.999818 0.995984
0.999482 0.999312 0.996398
0.99954 0.998782 0.996769
0.99997 1.0004 0.994377
0.998568 1.00007 0.998889
0.998789 0.999773 0.997468
0.999286 1.00048 0.995475
0.999445 1.00001 0.995803
0.99955 0.997149 0.998839
0.999595 0.998454 0.997096
0.999459 0.999557 0.996199
1.0002 1.00055 0.993668
0.99988 1.0003 0.994649
1.00001 1.00045 0.994163
1.00031 1.00066 0.99317
0.999229 1.00074 0.995173
0.999383 1.00021 0.995744
1.00026 1.00072 0.993322
1.00029 1.00055 0.993435
1.00009 1.0005 0.993888
1.00067 1.00055 0.992657
0.999626 0.99697 0.999324
1.00042 1.00055 0.99306
0.999676 0.998178 0.996883
0.999837 1.00014 0.994617
1.00019 1.0008 0.993286
1.00052 1.00067 0.992747
0.99979 0.997847 0.996961
0.999989 0.999535 0.99491
0.999173 0.998527 0.999078
0.999336 0.997887 0.999208
0.999495 0.999263 0.99609
0.999602 0.996974 0.999342
0.999651 0.998173 0.996909
0.999559 0.998658 0.996585
0.999868 1.00015 0.994547
0.999653 0.996818 0.999345
0.999807 0.997744 0.997044
0.999487 0.999542 0.996154
0.999527 0.998978 0.996623
1.00006 1.00047 0.993834
0.999716 0.997981 0.997008
0.999916 1.00026 0.994344
0.999861 0.999951 0.994765
1.00009 1.00075 0.993484
0.999767 0.997845 0.997035
0.999839 0.997677 0.997055
0.999968 0.999488 0.995009
1.00013 1.00047 0.99367
0.999981 1.00037 0.994092
1.00047 1.00058 0.992914
0.999899 0.99971 0.994938
1.00019 1.00065 0.993354
1.00002 1.00082 0.993598
1.0002 1.00102 0.993102
0.999782 0.996506 0.999354
0.999748 0.996608 0.999351
0.999712 0.996723 0.999349
0.999825 0.997756 0.996982
0.999685 0.996834 0.99933
0.999047 0.998883 0.999028
0.998739 0.999603 0.998956
0.999329 1.00017 0.995527
0.999196 1.00075 0.995234
0.998546 1.00011 0.998879
0.998535 1.00018 0.998867
0.999198 1.00088 0.995102
0.999275 1.0004 0.99575
1.00012 1.00091 0.993269
0.999442 0.999832 0.995672
1.00014 1.00064 0.993491
0.999206 1.00087 0.99509
1.00013 1.00098 0.993172
1.00012 1.00077 0.993395
1.00052 1.00085 0.992525
1.00015 1.00053 0.993575
1.00059 1.0006 0.992651
0.998555 1.00009 0.998881
0.998778 0.999759 0.997477
0.999295 1.00051 0.994976
0.999444 1.00002 0.995804
0.999534 0.997111 0.999313
0.999591 0.998454 0.997248
0.999459 0.999572 0.996203
1.00021 1.00055 0.993591
1.00003 1.00046 0.994201
0.999903 1.0003 0.994613
1.0003 1.00066 0.993176
0.999232 1.00073 0.995173
0.999386 1.0002 0.995742
1.00026 1.00071 0.993184
1.0003 1.00056 0.99348
0.999611 0.99696 0.999321
0.999671 0.998196 0.997108
0.999854 1.00011 0.994754
1.00009 1.0005 0.993886
1.00067 1.00054 0.992573
1.00017 1.0008 0.99327
1.00043 1.00055 0.9931
1.00051 1.00067 0.992754
0.999788 0.997861 0.996961
0.999986 0.999541 0.994912
1.00018 1.00086 0.993172
1.00031 1.0006 0.993339
1.00072 1.00069 0.992412
1.00077 1.00052 0.992304
1.00051 1.00053 0.992944
1.00087 1.00052 0.992227
0.999737 0.997984 0.996931
1.00062 1.0005 0.992689
0.999866 0.999926 0.994764
1.00005 1.0008 0.993443
1.0004 1.00095 0.992848
1.00062 1.0006 0.992633
0.999961 0.999602 0.994896
1 0.999479 0.994938
1.00011 1.00061 0.993622
0.99947 0.999561 0.995844
0.999663 0.996835 0.999346
0.999808 0.997732 0.997044
0.999514 0.998954 0.996364
1.00005 1.00049 0.993831
0.999711 0.997963 0.997006
0.999851 0.999962 0.994764
0.999897 1.00029 0.994343
1.00009 1.00074 0.993445
0.999767 0.997834 0.997036
0.999839 0.997667 0.997056
0.999969 0.999482 0.995008
1.00013 1.00048 0.993665
0.999964 1.0004 0.994092
1.00047 1.00058 0.992911
0.999894 0.999708 0.994939
1.00019 1.00065 0.993381
1.00002 1.00083 0.99359
1.0002 1.00101 0.993059
0.999869 0.997602 0.99707
0.999942 0.999551 0.995003
0.999988 0.999438 0.995018
1.00009 1.00055 0.993722
1.00058 1.00048 0.992782
1.00031 1.00066 0.993168
1.00066 1.00061 0.99249
1.00004 1.00069 0.993697
1.00034 1.0008 0.992949
1.0001 1.0013 0.992979
1.00027 1.0011 0.992772
1.00005 0.999184 0.995146
0.999928 0.997447 0.9971
0.999818 0.99642 0.999357
0.999786 0.996517 0.999355
0.999753 0.996623 0.999352
0.999852 0.997681 0.997004
0.999729 0.996724 0.999336
0.999824 0.997768 0.996982
0.999675 0.996817 0.999329
0.999412 0.999861 0.995665
0.999247 1.00048 0.99539
1.00014 1.00063 0.993489
1.00013 1.00091 0.993264
0.99919 1.00089 0.995104
0.998535 1.00018 0.998862
0.999206 1.00087 0.995088
1.00013 1.00098 0.993169
1.00013 1.00077 0.993392
1.00053 1.00085 0.992518
1.00015 1.00053 0.993571
1.00059 1.0006 0.992653
1.00015 1.00096 0.993145
1.00049 1.00095 0.992505
1.00057 1.00072 0.992568
1.00072 1.00078 0.992227
1.0006 1.0005 0.992725
1.00078 1.00052 0.99236
0.999237 1.00072 0.995173
0.999388 1.0002 0.99574
1.00027 1.00071 0.993046
1.0003 1.00056 0.993525
0.999597 0.99695 0.999318
0.999667 0.998213 0.997331
0.999872 1.00009 0.994892
1.00009 1.0005 0.993883
1.00066 1.00052 0.992489
1.00043 1.00055 0.993141
1.00015 1.0008 0.993254
1.00051 1.00066 0.992761
0.999787 0.997874 0.99696
0.999983 0.999546 0.994914
1.00018 1.00086 0.993122
1.00031 1.0006 0.993338
1.00071 1.00068 0.992398
1.00077 1.00053 0.992397
0.999737 0.997998 0.996929
0.999877 0.999916 0.994764
1.00005 1.00079 0.993499
1.00053 1.00053 0.992954
1.00087 1.00049 0.992205
1.00038 1.00094 0.992789
1.00063 1.0005 0.992691
1.00061 1.00058 0.992626
0.99996 0.999607 0.994898
1.00012 1.00059 0.993581
1 0.999486 0.994938
1.0006 1.00087 0.992495
1.0008 1.00055 0.992335
1.0009 1.00066 0.991982
1.001 1.0005 0.991947
1.0007 1.00045 0.992549
1.00097 1.00029 0.992217
0.999916 0.999726 0.994861
1.00071 1.00039 0.992617
1.00005 1.00069 0.993665
1.00019 1.00107 0.99291
1.00048 1.00105 0.992498
1.00067 1.00043 0.992773
1.00002 0.999412 0.994979
1.0001 1.00058 0.993669
1.00011 1.00065 0.993487
1.00018 1.00108 0.993113
1.00013 1.00049 0.99366
0.99984 0.997656 0.997057
0.999767 0.997823 0.997036
0.999971 0.999476 0.995007
0.999947 1.00044 0.994093
1.00047 1.00058 0.992908
0.999889 0.999705 0.99494
1.00002 1.00084 0.993582
1.0002 1.00065 0.993408
1.00019 1.001 0.993015
0.999869 0.997593 0.99707
0.999941 0.999546 0.995002
0.999989 0.999433 0.995018
1.00009 1.00055 0.993719
1.00058 1.00049 0.992778
1.00031 1.00066 0.993169
1.00066 1.00062 0.992486
1.00003 1.0007 0.993697
1.00034 1.00081 0.992991
1.00011 1.0013 0.992965
1.00025 1.00106 0.992854
0.999899 0.997526 0.997085
1.00001 0.999383 0.995037
1.00008 1.00055 0.993739
1.00009 1.00055 0.99371
1.00014 1.00116 0.993011
1.00076 1.00043 0.992452
1.00048 1.00077 0.992716
1.00074 1.00061 0.992347
1.0001 1.00128 0.993011
1.0004 1.00093 0.992719
1.00017 1.00158 0.992406
1.00003 0.999262 0.9951
1.0001 1.00038 0.993859
1.00007 0.999111 0.99518
1.00005 0.999181 0.995147
0.999955 0.997348 0.997552
0.999925 0.997441 0.997319
0.999865 0.996366 0.998494
0.999822 0.996426 0.999359
0.999789 0.996527 0.999356
0.99988 0.997609 0.997022
0.999766 0.996625 0.99934
0.999852 0.997692 0.997002
0.999723 0.996708 0.999334
0.999823 0.99778 0.996981
0.999664 0.996802 0.999327
1.00015 1.00054 0.993567
1.00013 1.00077 0.993389
1.00059 1.00061 0.992655
1.00054 1.00085 0.99251
1.00014 1.00098 0.993166
0.999203 1.00087 0.995088
1.00015 1.00096 0.993149
1.00049 1.00095 0.9925
1.00057 1.00072 0.992567
1.00072 1.00078 0.992234
1.0006 1.0005 0.992724
1.00077 1.00052 0.992366
1.00051 1.00097 0.992461
1.0006 1.00091 0.992343
1.00077 1.00065 0.992239
1.00082 1.00069 0.99213
1.00078 1.00041 0.992458
1.00089 1.00026 0.992439
1.00018 1.00086 0.993072
1.00031 1.00059 0.993337
1.0007 1.00067 0.992383
1.00077 1.00054 0.99249
0.999738 0.998013 0.996927
0.999887 0.999906 0.994765
1.00005 1.00079 0.993555
1.00054 1.00053 0.992963
1.00087 1.00045 0.992183
1.00063 1.00049 0.992692
1.00036 1.00094 0.99273
1.00061 1.00056 0.99262
0.999959 0.999613 0.994901
1.00013 1.00057 0.993539
0.999998 0.999493 0.994938
1.00058 1.00086 0.992458
1.0008 1.00056 0.992331
1.00092 1.00065 0.991931
1.001 1.0005 0.991968
0.99992 0.999727 0.994862
1.00006 1.00068 0.993666
1.00019 1.00108 0.992965
1.00071 1.00047 0.992574
1.00097 1.00024 0.992243
1.00046 1.00108 0.992447
1.00072 1.00038 0.992619
1.00066 1.00036 0.992807
1.00011 1.00056 0.993674
1.00018 1.00107 0.993054
1.00001 0.999419 0.994977
1.00011 1.00064 0.993486
1.00076 1.00086 0.992073
1.00109 1.0005 0.991836
1.00099 1.00068 0.991686
1.00111 1.00027 0.99191
1.0008 1.00026 0.992555
1.00106 0.999943 0.992386
1.00007 1.0006 0.993703
1.00075 1.00004 0.992872
1.00015 1.00097 0.993111
1.00026 1.00143 0.992521
1.00052 1.00113 0.992298
1.00073 1.00021 0.992858
1.00002 0.999371 0.995013
1.0001 1.00063 0.993489
1.0002 1.00093 0.993142
1.00015 1.0013 0.992907
1.00024 1.00123 0.992802
0.999869 0.997584 0.997071
1.00059 1.00049 0.992774
0.99999 0.999427 0.995018
0.999941 0.99954 0.995002
1.00008 1.00056 0.993716
1.0003 1.00066 0.993171
1.00067 1.00062 0.992483
1.00002 1.00071 0.993697
1.00011 1.00131 0.99295
1.00035 1.00082 0.993034
1.00024 1.00102 0.992936
0.999898 0.997519 0.997086
1.00001 0.999378 0.995037
1.00008 1.00056 0.993738
1.00009 1.00056 0.993708
1.00014 1.00116 0.992995
1.00077 1.00044 0.992442
1.00047 1.00078 0.992717
1.00074 1.00062 0.992329
1.00009 1.00128 0.993016
1.0004 1.00094 0.992745
1.0002 1.00156 0.99245
1.00002 0.999326 0.995063
1.0001 1.00054 0.993709
1.00014 1.00112 0.993024
1.00013 1.00124 0.992958
1.00016 1.00149 0.9927
1.00087 1.00024 0.992425
1.00054 1.00086 0.992503
1.00069 1.00039 0.992583
1.00012 1.00177 0.992461
1.00037 1.00158 0.992153
1.00004 0.999257 0.995102
1.0001 1.00048 0.993654
1.0001 1.00039 0.993796
1.00009 1.00124 0.993154
1.0001 1.00034 0.993907
1.00009 0.99906 0.995194
1.00007 0.999112 0.995181
0.999985 0.997264 0.997567
1.00005 0.999179 0.995149
0.999954 0.997357 0.997554
0.999908 0.996275 0.998505
0.999922 0.997434 0.997538
0.999862 0.996334 0.998928
0.999825 0.996431 0.99936
0.999907 0.997527 0.997049
0.999881 0.997617 0.99702
0.999802 0.996524 0.999344
0.999762 0.996612 0.999339
0.999852 0.997703 0.997001
0.999717 0.996691 0.999332
1.0006 1.00051 0.992722
1.00057 1.00072 0.992566
1.00077 1.00053 0.992372
1.00072 1.00078 0.992241
1.0005 1.00096 0.992496
1.00015 1.00096 0.993152
1.0005 1.00097 0.992468
1.00059 1.00091 0.992354
1.00077 1.00065 0.992241
1.00083 1.0007 0.992105
1.00078 1.00042 0.992455
1.00089 1.00025 0.992433
1.00061 1.00096 0.992303
1.00057 1.00094 0.992342
1.00089 1.00045 0.992151
1.00086 1.0008 0.992029
1.0009 1.00008 0.992527
1.00098 1.00003 0.992547
1.00056 1.00085 0.992422
1.0008 1.00056 0.992328
1.00093 1.00064 0.99188
1.001 1.00049 0.99199
0.999923 0.999727 0.994864
1.00007 1.00067 0.993666
1.00019 1.00109 0.993019
1.00071 1.0005 0.992599
1.00097 1.00018 0.992269
1.00072 1.00037 0.992621
1.00044 1.00112 0.992396
1.00066 1.0003 0.99284
1.00011 1.00054 0.993678
1.00019 1.00105 0.992995
1.00001 0.999426 0.994975
1.00012 1.00063 0.993484
1.00075 1.00086 0.992086
1.00108 1.0005 0.991847
1.00102 1.0007 0.991641
1.00111 1.00028 0.99192
1.00008 1.00058 0.993706
1.00015 1.00097 0.993152
1.00025 1.00145 0.992517
1.00081 1.0003 0.992536
1.00103 0.999907 0.992463
1.00051 1.00118 0.992273
1.00076 1.00004 0.992875
1.00072 1.00008 0.992952
1.0002 1.00092 0.993143
1.00025 1.00121 0.99277
1.00015 1.0013 0.992897
1.00002 0.999369 0.994924
1.00011 1.00063 0.993496
1.00082 1.0009 0.991907
1.0012 1.00049 0.991528
1.00119 0.999944 0.992103
1.00094 0.99978 0.992753
1.00018 1.00088 0.993217
1.00089 0.999497 0.993213
1.00013 1.00132 0.992776
1.00031 1.00181 0.992058
1.00062 1.00106 0.992172
1.00003 0.999302 0.994885
1.00009 1.00058 0.99374
1.00012 1.00144 0.992815
1.00026 1.00107 0.992879
1.00023 1.00162 0.992441
1.0003 1.0013 0.992551
0.999898 0.997512 0.997087
1.00001 0.999374 0.995036
1.00078 1.00044 0.992433
1.00009 1.00057 0.993705
1.00007 1.00057 0.993737
1.00014 1.00115 0.992979
1.00047 1.00078 0.992718
1.00073 1.00064 0.992311
1.00008 1.00128 0.99302
1.00022 1.00153 0.992495
1.0004 1.00094 0.992771
1.00002 0.999322 0.995063
1.0001 1.00054 0.993706
1.00014 1.00111 0.993065
1.00013 1.00126 0.992952
1.00016 1.00149 0.992659
1.00087 1.00027 0.992417
1.00055 1.00085 0.992485
1.0007 1.00036 0.992615
1.00011 1.00177 0.992432
1.00038 1.00163 0.992095
1.00011 1.00052 0.99372
1.00014 1.00131 0.9928
1.00016 1.00156 0.992592
1.00016 1.00159 0.992478
1.00023 1.00163 0.992416
1.00101 0.999365 0.993034
1.00056 1.00119 0.992211
1.00075 1.00011 0.992559
1.00022 1.00208 0.992075
1.00038 1.00195 0.991558
1.00004 0.999252 0.995104
1.0001 1.00048 0.993707
1.0001 1.00133 0.992853
1.0001 1.0004 0.993733
1.0001 1.00034 0.993908
1.00009 1.00124 0.993055
1.00008 1.00183 0.992542
1.00009 1.00119 0.993005
1.0001 1.00031 0.993942
1.0001 0.999037 0.995187
1.00009 0.999065 0.995195
1.00001 0.997191 0.997577
1.00007 0.999114 0.995182
0.999985 0.997274 0.997569
0.999946 0.996183 0.998515
0.999954 0.997365 0.997557
0.999907 0.996241 0.998505
0.999858 0.996302 0.999364
0.999939 0.997412 0.997101
0.99991 0.997534 0.997048
0.99984 0.996408 0.999352
0.999882 0.997625 0.997019
0.999798 0.996517 0.999343
0.999758 0.996599 0.999337
1.00078 1.00042 0.992452
1.00078 1.00066 0.992242
1.00089 1.00024 0.992428
1.00084 1.00071 0.992081
1.00058 1.00091 0.992366
1.0005 1.00097 0.992474
1.0006 1.00096 0.992301
1.00058 1.00093 0.992343
1.0009 1.00045 0.992131
1.00085 1.00084 0.991953
1.00089 1.0001 0.992534
1.00097 0.999971 0.992573
1.00052 1.00096 0.99245
1.00056 1.00103 0.992277
1.00091 1.00053 0.992075
1.00101 0.999448 0.993023
1.00074 1.00086 0.992099
1.00107 1.0005 0.991859
1.00106 1.00072 0.991595
1.00111 1.0003 0.99193
1.00009 1.00057 0.993709
1.00015 1.00096 0.993193
1.00025 1.00147 0.992514
1.00082 1.00034 0.992516
1.001 0.999869 0.992539
1.00076 1.00005 0.992879
1.00051 1.00122 0.992248
1.00071 0.999941 0.993047
1.0002 1.00092 0.993145
1.00026 1.00119 0.992738
1.00015 1.00131 0.992887
1.00002 0.999365 0.994835
1.00011 1.00062 0.993503
1.00086 1.00089 0.991838
1.00119 1.0005 0.99158
1.00117 0.999973 0.992132
1.00019 1.00088 0.993216
1.00015 1.0013 0.992832
1.00029 1.00185 0.992045
1.00095 0.999819 0.992712
1.0006 1.00097 0.99229
1.00086 0.99952 0.993189
1.00003 0.999288 0.994898
1.00026 1.00108 0.992876
1.00031 1.00127 0.992567
1.00022 1.0016 0.992477
1.00012 1.00145 0.992842
1.0001 1.00057 0.993649
1.00096 1.00083 0.991749
1.00125 1.00039 0.991544
1.00121 0.999504 0.992467
1.00113 0.999006 0.993189
1.00022 1.0011 0.992921
1.00086 1.00007 0.992672
1.00014 1.00179 0.992303
1.00035 1.00211 0.991725
1.00005 0.999144 0.995004
1.00009 1.00056 0.99377
1.0001 1.00145 0.99293
1.00016 1.00195 0.992194
1.0003 1.00124 0.992589
1.0003 1.00162 0.992239
1.00002 0.999317 0.995063
1.0001 1.00055 0.993704
1.00086 1.00031 0.99241
1.00013 1.00127 0.992946
1.00013 1.0011 0.993105
1.00016 1.0015 0.992618
1.00056 1.00085 0.992468
1.00072 1.00033 0.992648
1.00009 1.00178 0.992404
1.00039 1.00169 0.992036
1.00011 1.00052 0.99372
1.00014 1.00132 0.992838
1.00015 1.00155 0.992651
1.00016 1.0016 0.992525
1.0002 1.00162 0.992444
1.00102 0.999372 0.993078
1.00058 1.00113 0.992229
1.00072 1.00015 0.992715
1.0002 1.0021 0.992026
1.00039 1.00207 0.991495
1.00012 1.00136 0.992783
1.00016 1.0019 0.992188
1.0002 1.00189 0.992199
1.00021 1.0018 0.992146
1.00132 0.998759 0.993175
1.00113 0.998971 0.993128
1.00061 1.00157 0.991656
1.00023 1.00267 0.991198
1.0001 1.00049 0.99376
1.0001 1.00134 0.992906
1.00009 1.00192 0.992402
1.0001 1.00034 0.993909
1.00009 1.00125 0.992957
1.0001 1.00031 0.993942
1.00009 1.00183 0.99247
1.00009 1.0012 0.993044
1.00011 1.00222 0.992078
1.0001 1.00178 0.992428
1.0001 1.00116 0.993026
1.00009 1.00032 0.993946
1.00011 0.999041 0.995164
1.0001 0.999043 0.995187
1.00004 0.997135 0.99758
1.00009 0.99907 0.995195
1.00001 0.997202 0.997578
0.999981 0.996102 0.998521
0.999984 0.997283 0.997571
0.999945 0.99615 0.998514
0.999906 0.996207 0.998505
0.999976 0.997283 0.997157
0.999942 0.997421 0.997098
0.999879 0.996278 0.999366
0.999912 0.99754 0.997046
0.999836 0.996411 0.99935
0.999795 0.99651 0.999342
1.00088 1.00012 0.992541
1.00092 1.00046 0.992111
1.00095 0.999914 0.992599
1.00084 1.00087 0.991878
1.00059 1.00091 0.992344
1.00058 1.00097 0.992299
1.00055 1.00096 0.992374
1.00059 1.00102 0.992259
1.00089 1.00049 0.992147
1.00101 0.999428 0.992979
1.00055 1.00099 0.992342
1.00055 1.00109 0.992249
1.00103 0.999709 0.992658
1.00089 1.00087 0.991768
1.00117 1.0005 0.991633
1.00115 1 0.992161
1.00019 1.00088 0.993215
1.00018 1.00129 0.992889
1.00027 1.0019 0.992033
1.00096 0.99986 0.992671
1.00084 0.999539 0.993164
1.00059 1.00088 0.992407
1.00026 1.00109 0.992874
1.00031 1.00124 0.992583
1.00022 1.00157 0.992513
1.00003 0.999275 0.994911
1.00012 1.00147 0.992869
1.00011 1.00057 0.993558
1.0009 1.00082 0.991848
1.00128 1.00034 0.991521
1.00121 0.99958 0.992403
1.00023 1.0011 0.992917
1.00015 1.00176 0.992358
1.00034 1.00208 0.991764
1.00111 0.999017 0.993244
1.00085 1.00005 0.99266
1.00005 0.999134 0.995103
1.00009 1.00057 0.993768
1.0003 1.00126 0.992581
1.0003 1.00162 0.992246
1.00015 1.00193 0.992232
1.00011 1.00144 0.992883
1.00089 1.00068 0.992013
1.00134 1.00011 0.991666
1.00131 0.998515 0.993265
1.00119 0.998761 0.993401
1.00022 1.00141 0.992562
1.00049 1.00182 0.991717
1.00021 1.00225 0.991925
1.00007 0.999009 0.995284
1.0001 1.00015 0.994108
1.00008 1.00041 0.993754
1.00009 1.00154 0.992792
1.00013 1.00202 0.992177
1.00022 1.00219 0.991885
1.00029 1.00147 0.992366
1.00028 1.00203 0.992007
1.00011 1.00052 0.99372
1.00014 1.00133 0.992877
1.00104 0.99938 0.993121
1.00015 1.00161 0.992571
1.00015 1.00153 0.99271
1.00018 1.00161 0.992472
1.0006 1.00108 0.992247
1.00068 1.00019 0.992871
1.00019 1.00211 0.991978
1.00041 1.00217 0.991432
1.00012 1.00137 0.992777
1.00016 1.00187 0.992257
1.00019 1.00187 0.992249
1.00022 1.00181 0.992184
1.00131 0.998705 0.993166
1.00106 0.999167 0.993081
1.00064 1.00156 0.991707
1.00026 1.00263 0.991196
1.00011 1.002 0.992299
1.00103 0.999487 0.992849
1.00019 1.00234 0.991837
1.00023 1.00235 0.991683
1.00165 0.997705 0.993563
1.00102 1.00083 0.991498
1.00038 1.00303 0.990843
1.0001 1.00135 0.992958
1.00008 1.00193 0.992403
1.00008 1.00232 0.992018
1.0001 1.00031 0.993942
1.00009 1.0012 0.993083
1.00009 1.00184 0.992398
1.00009 1.00032 0.993945
1.0001 1.00117 0.993026
1.00011 1.00223 0.992023
1.00009 1.00179 0.992504
1.00015 1.00243 0.991765
1.00014 1.00219 0.991953
1.00011 1.00174 0.992527
1.00009 1.00119 0.993084
1.00009 1.00034 0.993927
1.00012 0.999055 0.995142
1.00011 0.999044 0.995164
1.00006 0.997106 0.997569
1.0001 0.999048 0.995187
1.00004 0.997148 0.997579
1.00001 0.996038 0.998522
1.00001 0.997212 0.997579
0.99998 0.99607 0.998521
0.999944 0.996117 0.998514
1.00009 0.998881 0.995377
1.00001 0.997164 0.997214
0.999978 0.997291 0.997154
0.999919 0.996157 0.999378
0.999945 0.997429 0.997095
0.999874 0.996288 0.999361
0.999832 0.996414 0.999347
1.001 0.999409 0.992936
1.00086 1.00044 0.99222
1.00062 1.001 0.992242
1.00059 1.00096 0.992298
1.00052 1.00099 0.992419
1.00055 1.00115 0.992203
1.001 0.999656 0.992773
1.00051 1.00107 0.992394
1.00068 1.00061 0.992411
1.0007 0.999626 0.993607
1.00084 1.00081 0.991948
1.00131 1.00029 0.991498
1.00121 0.999655 0.99234
1.00023 1.00111 0.992913
1.00015 1.00173 0.992414
1.00034 1.00205 0.991803
1.00109 0.999028 0.993299
1.00085 1.00003 0.992648
1.0003 1.00127 0.992572
1.0003 1.00162 0.992252
1.00015 1.00191 0.992271
1.00005 0.999125 0.995203
1.00008 1.00058 0.993766
1.00012 1.00143 0.992835
1.0009 1.00067 0.991946
1.00007 0.99901 0.995282
1.0001 1.00015 0.994051
1.00135 1.00006 0.991696
1.00128 0.998677 0.993118
1.00022 1.0014 0.992578
1.0002 1.00226 0.991856
1.00049 1.0017 0.991748
1.00118 0.998748 0.993374
1.00008 1.0004 0.993917
1.00008 1.00156 0.992783
1.0003 1.00147 0.992385
1.00028 1.00191 0.992041
1.00022 1.00221 0.991804
1.00013 1.00201 0.992203
1.00096 1.00097 0.991571
1.00138 0.999222 0.992473
1.00152 0.997248 0.994194
1.00084 1.00045 0.992379
1.0002 1.00175 0.99228
1.00026 1.00272 0.991419
1.00011 1 0.994116
1.00009 1.00026 0.994011
1.00008 1.00111 0.993325
1.00005 1.00151 0.992735
1.00012 1.0021 0.992209
1.00018 1.00254 0.991464
1.00021 1.00274 0.991407
1.00022 1.00194 0.99207
1.00012 1.00138 0.992771
1.00016 1.00184 0.992325
1.0013 0.998649 0.993157
1.001 0.999361 0.993033
1.00023 1.00183 0.992223
1.00018 1.00185 0.9923
1.00067 1.00155 0.991757
1.0003 1.00259 0.991194
1.0001 1.00199 0.992295
1.00095 0.999316 0.993112
1.00019 1.00229 0.991831
1.00024 1.00233 0.9916
1.00156 0.997813 0.993508
1.00107 1.00081 0.991533
1.00037 1.00311 0.990776
1.00009 1.0025 0.991867
1.00144 0.99773 0.993523
1.00023 1.00259 0.991563
1.00029 1.00327 0.990891
1.00171 0.999108 0.991742
1.0005 1.00304 0.990322
1.00372 0.996377 0.99059
1.00008 1.00193 0.992404
1.00007 1.00233 0.99202
1.0001 1.00257 0.991773
1.00009 1.00032 0.993944
1.00009 1.00117 0.993026
1.00009 1.00179 0.99258
1.00012 1.00223 0.991969
1.00009 1.00034 0.993927
1.00009 1.00119 0.99304
1.00016 1.00242 0.991744
1.00011 1.00175 0.992526
1.00014 1.0022 0.992019
1.00022 1.00243 0.991581
1.00014 1.00216 0.992092
1.00012 1.00177 0.992544
1.00009 1.00123 0.992946
1.00009 1.00036 0.993782
1.00008 1.00129 0.993137
1.00009 1.00037 0.993777
1.00011 0.999066 0.995134
1.00012 0.999055 0.995142
1.00008 0.997116 0.997126
1.00011 0.999047 0.995164
1.00006 0.997122 0.997353
1.00001 0.99597 0.999373
1.00004 0.997162 0.997578
1.00001 0.996007 0.998523
0.999979 0.996038 0.99852
1.0001 0.998768 0.995459
1.00009 0.998883 0.995376
1.00003 0.997052 0.997276
1 0.997172 0.997419
0.999953 0.996045 0.999392
0.999981 0.997299 0.997151
0.999914 0.996166 0.999374
0.99987 0.996298 0.999357
1.00096 0.999603 0.992887
1.00055 1.00122 0.992157
1.0005 1.00099 0.992496
1.00051 1.00106 0.992405
1.00066 1.00065 0.992424
1.00045 0.999845 0.993749
1.00057 1.0009 0.992486
1.00222 0.996086 0.996128
1.00004 0.998892 0.99521
1.00012 0.999882 0.994332
1.0009 1.00067 0.99188
1.00136 1.00002 0.991725
1.00125 0.998834 0.992971
1.00022 1.00138 0.992594
1.0002 1.00228 0.991788
1.00049 1.00157 0.991779
1.00117 0.998734 0.993348
1.00031 1.00148 0.992404
1.00028 1.00179 0.992074
1.00023 1.00223 0.991724
1.00007 0.999011 0.995281
1.00013 1.00199 0.992228
1.00008 1.0004 0.99408
1.00008 1.00157 0.992773
1.00009 1.00014 0.993994
1.00103 1.00092 0.991449
1.00011 0.999985 0.994187
1.00009 1.00027 0.99401
1.00008 1.00113 0.993212
1.00137 0.999243 0.992494
1.00149 0.997419 0.993978
1.00022 1.00172 0.992296
1.00021 1.00266 0.991402
1.00081 1.00036 0.992419
1.00005 1.00149 0.992815
1.00012 1.00211 0.992183
1.00022 1.00194 0.992061
1.00021 1.00259 0.991516
1.00017 1.00257 0.991521
1.00117 1.0009 0.99117
1.0017 0.996911 0.99407
1.00148 0.998429 0.993133
1.00043 1.00233 0.991517
1.00008 1.00228 0.99193
1.00008 1.00089 0.993273
1.00007 1.00129 0.992926
1.00004 1.00186 0.992593
1.00008 1.00231 0.992039
1.00016 1.00244 0.991642
1.00015 1.00325 0.990988
1.00017 1.00288 0.991267
1.0001 1.00198 0.992291
1.00019 1.00224 0.991826
1.00087 0.99915 0.993374
1.00146 0.997922 0.993454
1.00112 1.0008 0.991568
1.00025 1.0023 0.991518
1.00036 1.00317 0.990709
1.00009 1.00246 0.991896
1.00136 0.997662 0.993681
1.00021 1.00254 0.991543
1.00022 1.00323 0.990868
1.00179 0.99888 0.991915
1.00049 1.00319 0.990275
1.00382 0.996391 0.991506
1.00007 1.00277 0.991623
1.00222 0.998172 0.991065
1.00009 1.00311 0.991276
0.999929 1.00452 0.990175
1.00092 1.002 0.990261
0.994989 1.0035 0.979431
0.999903 0.999603 0.994232
1.0036 0.997486 0.989907
0.997013 0.996534 0.992529
1.00604 0.984827 0.997368
1.00006 1.00234 0.992022
1.00009 1.00255 0.991773
1.00016 1.00262 0.991545
1.00009 1.00034 0.993927
1.0001 1.0012 0.992996
1.00011 1.00175 0.992525
1.00013 1.0022 0.992084
1.00016 1.0024 0.991723
1.00012 1.00177 0.992469
1.00009 1.00036 0.993847
1.00009 1.00124 0.992995
1.00021 1.00244 0.991626
1.00015 1.00214 0.992068
1.00015 1.00212 0.992118
1.0002 1.00241 0.991696
1.00013 1.00184 0.992318
1.00009 1.00128 0.992906
1.00009 1.00037 0.993773
1.00008 1.00127 0.993062
1.00009 1.00191 0.992479
1.00008 1.00134 0.992965
1.00008 1.00129 0.993029
1.00009 1.00039 0.993879
1.00009 1.00037 0.993777
1.00011 0.999078 0.995137
1.00011 0.999065 0.995135
1.00008 0.99714 0.997118
1.00012 0.999056 0.995142
1.00008 0.997118 0.997126
1.00002 0.99596 0.99937
1.00007 0.997139 0.997137
1.00002 0.99597 0.998945
1.00001 0.995976 0.998523
1.00011 0.998691 0.995516
1.0001 0.99877 0.995458
1.00005 0.996964 0.997331
1.00009 0.998887 0.995374
1.00003 0.997049 0.997481
0.99998 0.995952 0.999406
1.00001 0.997188 0.997198
0.999946 0.996081 0.999384
0.999909 0.996176 0.999371
1.00064 1.0007 0.992436
1.0005 1.00105 0.992415
1.00024 1.00005 0.993891
1.00208 0.996175 0.996111
1.00052 1.0009 0.992486
1.00007 0.999261 0.994725
1.0005 1.00086 0.992102
0.998466 0.999752 0.992144
1.00022 0.999159 0.997144
1.00012 0.999811 0.994399
1.00012 0.99989 0.994328
1.00009 1.00075 0.993515
1.00008 1.0006 0.993691
1.0011 1.00086 0.991327
1.00135 0.999253 0.992514
1.00146 0.997596 0.993762
1.00024 1.00169 0.992312
1.00016 1.00259 0.991385
1.00078 1.00028 0.992458
1.00023 1.00194 0.992052
1.00021 1.00244 0.991626
1.00017 1.00259 0.991579
1.00009 1.00027 0.994009
1.00013 1.00211 0.992158
1.00005 1.00148 0.992895
1.00011 0.999968 0.994259
1.00008 1.00114 0.993099
1.00122 1.00075 0.991285
1.00008 1.00091 0.993389
1.00007 1.00127 0.993002
1.00003 1.00178 0.992631
1.00166 0.997127 0.994027
1.00143 0.998312 0.993144
1.00011 1.00232 0.991923
1.00038 1.00224 0.991559
1.00008 1.00234 0.992054
1.00017 1.00239 0.991706
1.00018 1.00283 0.99128
1.00014 1.00325 0.991019
1.00147 0.998958 0.992463
1.00208 0.996191 0.994178
1.00099 1.00131 0.99124
1.00014 1.00277 0.991457
1.00005 1.00191 0.992427
1.00006 1.00212 0.992193
1.00009 1.00309 0.991183
1.00013 1.00391 0.990351
0.995089 1.00148 0.97885
1.00008 1.00243 0.991925
1.0002 1.00249 0.991523
1.00128 0.997589 0.993839
1.00187 0.998651 0.992089
1.00048 1.00333 0.990229
1.00016 1.00321 0.990845
1.004 0.996338 0.99242
1.00006 1.00275 0.991645
1.00234 0.998144 0.991105
1.00008 1.00304 0.991298
0.99994 1.00443 0.990184
1.00098 1.00174 0.990474
0.994821 1.00258 0.980276
0.999933 0.999663 0.990402
1.00366 0.997269 0.989981
0.997568 0.996891 0.990222
1.00522 0.98548 0.99846
0.999968 1.00298 0.991586
0.997883 0.997863 0.987201
1.00571 0.989874 0.995587
1.00157 1.00086 0.990034
0.999857 1.00375 0.991012
0.999857 1.00534 0.989705
1.00308 0.998915 0.989387
0.995276 1.00348 0.978135
1.00016 0.99915 0.991696
0.99744 0.997653 0.991735
1.01177 0.983832 0.992839
1.00009 1.00254 0.991774
1.00016 1.00263 0.99155
1.00026 1.00252 0.991446
1.00009 1.00036 0.993912
1.00009 1.00124 0.993044
1.00012 1.00177 0.992393
1.00015 1.00213 0.992044
1.00019 1.00245 0.991671
1.00009 1.00037 0.993773
1.00015 1.00208 0.992101
1.00012 1.00184 0.9924
1.00009 1.00127 0.992971
1.00021 1.0024 0.991658
1.00016 1.00225 0.991875
1.00017 1.00264 0.99151
1.00011 1.00195 0.992298
1.00009 1.00129 0.993035
1.00008 1.00127 0.993061
1.00009 1.00191 0.992403
1.0001 1.00192 0.992379
1.00008 1.00199 0.992323
1.00009 1.00232 0.992015
1.00011 1.00206 0.992186
1.00008 1.00144 0.992871
1.00008 1.00134 0.992964
1.0001 1.00041 0.993842
1.00008 1.0013 0.992922
1.00009 1.00039 0.993818
1.0001 0.9991 0.995137
1.00009 1.00037 0.993777
1.00011 0.999075 0.995137
1.00006 0.997163 0.997546
1.00012 0.999063 0.995135
1.00007 0.997134 0.997334
1.00004 0.995964 0.998504
1.00008 0.99712 0.997125
1.00002 0.995958 0.99937
1.00003 0.995969 0.998516
1.00012 0.999833 0.994395
1.00012 0.998654 0.995543
1.00011 0.998695 0.995514
1.00006 0.996913 0.997365
1.0001 0.998771 0.995457
1.00005 0.996962 0.997331
0.999999 0.995883 0.999418
1.00002 0.997056 0.997675
0.999984 0.995981 0.998991
0.999963 0.996105 0.998549
1.00197 0.996235 0.996095
1.00045 1.00091 0.992486
1.00008 0.999621 0.994241
0.99847 0.999809 0.994734
1.00003 0.999283 0.997116
1.00066 1.00092 0.991822
1.00069 1.00205 0.992555
0.997389 1.00196 0.99225
0.994919 1.00324 0.975199
0.996671 0.998399 0.987474
1.00337 0.990479 0.996482
1.00009 1.00063 0.993544
1.00012 0.999817 0.994396
1.00012 0.999898 0.994324
1.00009 1.00076 0.993486
1.00009 1.0014 0.992951
1.0001 1.00115 0.993147
1.00007 1.00077 0.993578
1.00008 1.00062 0.993641
1.00126 1.00061 0.9914
1.00162 0.99734 0.993983
1.00138 0.998193 0.993154
1.00014 1.00237 0.991916
1.00034 1.00215 0.991601
1.00018 1.00279 0.991293
1.00013 1.00324 0.991049
1.00017 1.00234 0.99177
1.00007 1.00125 0.993079
1.00007 1.00236 0.992069
1.00008 1.00092 0.993504
1.00003 1.0017 0.992668
1.00148 0.999042 0.992407
1.00005 1.00188 0.992461
1.00006 1.00214 0.99223
1.00207 0.996179 0.994152
1.00088 1.00106 0.991392
1.00019 1.00287 0.991271
1.00009 1.0031 0.991197
1.00014 1.00383 0.990388
1.00266 0.995764 0.993425
1.0013 1.00052 0.991735
1.00031 1.00268 0.990659
1.00021 1.00412 0.99003
1.00005 1.00241 0.991923
1.00004 1.00289 0.99154
1.00004 1.00409 0.990408
0.998269 0.996619 0.989998
0.995149 1.00283 0.980263
1.00005 1.00273 0.991666
1.00006 1.00296 0.991319
1.00246 0.998184 0.991145
1.00105 1.00154 0.990687
0.999943 1.00434 0.990193
0.995141 1.00306 0.97436
0.999937 0.999752 0.996074
1.00372 0.997069 0.99005
0.997307 0.997875 0.987797
1.00418 0.986168 0.999552
0.999987 1.00295 0.991579
0.998152 0.997127 0.990058
1.00533 0.990369 0.996577
1.00162 1.00091 0.989984
0.999857 1.00376 0.991049
0.999761 1.00503 0.990021
1.00295 0.999312 0.98922
0.994869 1.00366 0.975049
1.00011 0.999413 0.996601
0.997562 0.997223 0.98792
1.01111 0.982184 0.994743
1.00009 1.00283 0.991413
1.00625 0.994179 0.992749
1.01511 0.989982 0.985738
0.999814 1.00459 0.990017
0.99963 1.00416 0.991249
1.00153 0.999894 0.995028
0.99988 0.996895 1.0007
0.994932 1.00387 0.976519
0.998558 0.997104 0.986541
1.01546 0.988207 0.984795
1.00016 1.00265 0.991555
1.00025 1.00254 0.991426
1.00014 1.00271 0.991471
1.00009 1.00037 0.993773
1.00009 1.00127 0.993037
1.00012 1.00183 0.992482
1.00016 1.00205 0.992085
1.00021 1.00239 0.991621
1.00009 1.00129 0.993033
1.00016 1.00223 0.99192
1.00011 1.00195 0.992301
1.00017 1.00265 0.99148
1.00013 1.00289 0.99131
1.00013 1.00253 0.991706
1.00011 1.00195 0.992325
1.00008 1.00128 0.993059
1.00009 1.00191 0.992328
1.0001 1.00192 0.992374
1.00008 1.00199 0.992318
1.00009 1.00227 0.992028
1.00006 1.00213 0.992195
1.00011 1.0024 0.991896
1.00006 1.00247 0.991807
1.00014 1.00218 0.992009
1.00012 1.00168 0.992452
1.00014 1.00177 0.992359
1.00011 1.00205 0.992194
1.0001 1.00145 0.99282
1.00008 1.00144 0.992868
1.0001 1.00047 0.99378
1.00008 1.00135 0.992963
1.0001 1.00042 0.99384
1.00008 0.999137 0.995126
1.00009 1.00039 0.993758
1.0001 0.999097 0.995137
1.00004 0.997202 0.997543
1.00011 0.999072 0.995137
1.00006 0.997158 0.997329
1.00003 0.995958 0.9985
1.00008 0.997128 0.997118
1.00002 0.995963 0.999368
1.00002 0.995956 0.999369
1.0001 0.999907 0.994503
1.00011 0.998672 0.995537
1.00011 0.999828 0.994396
1.00006 0.996899 0.997374
1.00012 0.998657 0.995541
1.00011 0.998698 0.995512
1.00006 0.996917 0.997364
1.00001 0.995847 0.999424
1.00004 0.996961 0.997728
1.00001 0.995889 0.999013
0.999997 0.995991 0.998592
0.997237 0.997551 0.990938
1.00483 0.992624 0.993682
0.998499 1.00006 0.996827
0.99983 0.999473 0.997088
1.00082 1.001 0.991541
0.997269 1.0023 0.997773
1.00081 1.0016 0.992486
0.995065 1.00302 0.978981
0.996696 0.998457 0.991728
1.00363 0.989722 0.996917
0.999061 1.00235 0.995164
0.994998 1.00383 0.979129
0.997446 0.997985 0.991365
1.0095 0.987213 0.99339
1.00007 1.0015 0.992781
1.00009 1.00062 0.993608
1.00012 0.999823 0.994393
1.00008 1.00077 0.993458
1.00009 1.00133 0.992999
1.00008 1.00145 0.992915
1.00009 1.00112 0.993171
1.00007 1.00105 0.993291
1.00007 1.00078 0.99351
1.00008 1.00064 0.993591
1.00149 0.999048 0.992351
1.00204 0.99623 0.994126
1.00076 1.00079 0.991544
1.00023 1.00296 0.991086
1.00014 1.00374 0.990425
1.00009 1.00311 0.991211
1.00005 1.00217 0.992268
1.00006 1.00185 0.992494
1.00241 0.995878 0.993171
1.00004 1.00244 0.991887
1.00003 1.00291 0.991473
1.00126 1.00022 0.991888
1.00034 1.00285 0.990688
1.00021 1.00418 0.98988
1.00005 1.00415 0.990313
1.00321 0.996127 0.991762
0.999951 1.00449 0.990084
1.00012 1.00466 0.989555
1.00004 1.00247 0.991859
1.00003 1.00307 0.991355
1.00005 1.00368 0.990791
1.0059 0.996561 0.988986
0.998331 0.997358 0.986802
0.995001 1.00179 0.97846
1.00001 1.00292 0.991571
0.999866 1.00376 0.991086
1.00166 1.00095 0.989933
0.999654 1.00473 0.990338
0.997818 0.997609 0.986959
0.994933 1.00287 0.982217
1.00017 0.998722 0.991895
1.00282 0.99958 0.989074
0.997425 0.996729 0.992555
1.00581 0.991342 0.996264
1.00949 0.985673 0.994119
1.00008 1.00296 0.991408
1.00583 0.994839 0.991967
1.01513 0.989732 0.985823
0.999821 1.00452 0.990035
0.999544 1.00416 0.991231
1.00222 1.00143 0.9903
1.00059 0.997874 0.993722
0.995121 1.00422 0.97727
0.999464 0.997031 0.990736
1.01368 0.988206 0.98619
0.999933 1.00277 0.991751
1.01487 0.996691 0.981551
1.01965 0.990246 0.978673
0.998387 1.00382 0.993667
0.998269 0.999254 1.00229
0.995392 1.00286 0.978636
1.00299 0.995556 0.987532
1.01495 0.991133 0.981427
1.00024 1.00256 0.991406
1.00016 1.0027 0.991467
1.00023 1.00273 0.991514
1.00009 1.00128 0.993032
1.00012 1.00196 0.992303
1.00016 1.0022 0.991965
1.00018 1.00267 0.991451
1.00011 1.00195 0.992323
1.00014 1.00253 0.991708
1.00011 1.0029 0.991321
0.999882 1.00313 0.991552
1.00013 1.00303 0.991184
1.00014 1.00248 0.991795
1.0001 1.00192 0.992369
1.00008 1.002 0.992313
1.00009 1.00223 0.992042
1.00011 1.00237 0.99192
1.00007 1.00214 0.9922
1.00007 1.00245 0.991833
1.00009 1.00255 0.991748
1.00005 1.00278 0.991596
1.00012 1.00246 0.991805
1.00014 1.00219 0.992005
1.00016 1.00194 0.992149
1.0002 1.0017 0.992367
1.00016 1.00137 0.99285
1.00012 1.00163 0.992554
1.00015 1.00176 0.992405
1.00012 1.0013 0.992846
1.00012 1.00204 0.992202
1.0001 1.00145 0.992824
1.0001 1.00052 0.993724
1.00008 1.00145 0.992866
1.0001 1.00048 0.993777
1.00007 0.999188 0.995103
1.0001 1.00042 0.993838
1.00008 0.999137 0.995125
1.00001 0.997259 0.997537
1.0001 0.999095 0.995136
1.00004 0.997199 0.997325
1.00001 0.996004 0.998498
1.00007 0.997151 0.997114
1.00002 0.995972 0.998934
1.00001 0.995963 0.999367
1.00009 1.00008 0.99424
1.0001 0.998724 0.995505
1.0001 0.999911 0.994366
1.00006 0.996913 0.997369
1.00011 0.998668 0.995538
1.00011 0.999824 0.994398
1.00001 0.995838 0.999425
1.00006 0.996899 0.997374
1.00012 0.99866 0.99554
1.00006 0.996921 0.997362
1.00001 0.995848 0.999423
0.999997 0.99589 0.999414
1.00544 0.99563 0.990457
0.997704 0.997878 0.988683
1.01369 0.991892 0.985777
1.00441 0.992087 0.994498
0.99717 1.00198 0.992922
1.00094 1.00116 0.992415
0.994993 1.00323 0.983033
0.99659 0.998794 0.98784
1.00381 0.98922 0.997352
0.999262 1.00179 0.993456
0.99472 1.00368 0.977762
0.997776 0.997282 0.987659
1.00995 0.9854 0.994642
1.00008 0.999683 0.996527
0.994723 1.00359 0.976614
0.999785 0.995863 0.991286
1.01501 0.9903 0.983785
1.00007 1.00202 0.992344
1.00007 1.00147 0.992857
1.00009 1.00061 0.993672
1.00008 1.00125 0.993047
1.00009 1.00176 0.992509
1.00008 1.00141 0.992966
1.00009 1.00108 0.993195
1.00008 1.00121 0.9932
1.00007 1.00103 0.99336
1.00007 1.0008 0.993442
1.00219 0.996055 0.992916
1.00122 0.999818 0.992041
1.00038 1.00304 0.990717
1.00021 1.00424 0.989729
1.00005 1.00419 0.990218
1.00003 1.00293 0.991405
1.00004 1.00248 0.991851
1.00004 1.00251 0.991854
1.00283 0.996422 0.991631
1.00002 1.00307 0.991406
1.00005 1.00374 0.990758
1 1.00455 0.990117
1.00015 1.00464 0.989554
1.00215 0.998999 0.991057
0.99951 1.00537 0.990087
1.00015 1.00434 0.98984
1.00005 1.00296 0.991419
1.00009 1.00362 0.990701
1.01418 0.9998 0.979548
1.00587 0.996493 0.989117
0.99829 0.996383 0.990301
1.00006 1.0031 0.991404
0.999452 1.00419 0.991214
0.999839 1.00436 0.990051
1.00594 0.995222 0.9909
0.994675 1.00394 0.975616
1.00014 0.99714 0.999877
1.00295 1.00314 0.985563
0.999 0.997951 0.986574
1.01511 0.989483 0.985907
1.01368 0.988801 0.985201
0.99994 1.00279 0.991751
1.01482 0.997276 0.980386
1.01975 0.990103 0.978328
0.998675 1.00366 0.993024
0.998827 0.999216 0.999413
0.99591 1.00341 0.975977
1.0158 0.992128 0.980667
1.00142 0.996649 0.987155
0.999872 1.00197 0.992519
1.01933 0.994603 0.974397
1.02124 0.989439 0.976744
1.01555 0.986766 0.986177
0.997295 1.00111 0.998003
0.995025 1.00039 0.983515
1.00262 0.999144 0.982413
1.00018 1.00269 0.991462
1.00019 1.00277 0.991454
0.999808 1.00319 0.991828
1.00011 1.00195 0.992322
1.00015 1.00252 0.99171
1.0001 1.00293 0.991331
1.00014 1.00246 0.991812
1.00012 1.0031 0.991166
0.999943 1.00299 0.991566
0.999975 1.0035 0.991109
1.00009 1.00301 0.991296
1.00012 1.00234 0.991945
1.00007 1.00215 0.992205
1.00008 1.00243 0.991859
1.00007 1.00274 0.991604
1.00008 1.00254 0.991736
1.00002 1.00297 0.991504
1.00009 1.00232 0.991988
1.00011 1.0027 0.991467
1.00014 1.00221 0.992001
1.00019 1.00197 0.992153
1.00026 1.00201 0.991848
1.00014 1.00168 0.992501
1.00013 1.00131 0.992922
1.00018 1.0017 0.992363
1.00014 1.00106 0.993123
1.00016 1.00138 0.992813
1.00011 1.00157 0.992657
1.00016 1.00176 0.99245
1.00012 1.0013 0.992876
1.00011 1.00049 0.993733
1.0001 1.00145 0.992829
1.0001 1.00052 0.993725
1.00005 0.999242 0.995077
1.0001 1.00048 0.993774
1.00007 0.99919 0.995101
0.999983 0.997313 0.99753
1.00008 0.999136 0.995123
1.00002 0.997257 0.997319
0.999979 0.996069 0.998493
1.00005 0.997193 0.997109
1 0.996017 0.998932
1 0.99599 0.999366
1.00009 1.00026 0.993889
1.00008 0.998846 0.995249
1.00009 1.00009 0.994236
1.00005 0.996963 0.997341
1.0001 0.998729 0.995416
1.0001 0.999915 0.994229
1.00001 0.995846 0.999423
1.00006 0.99691 0.99737
1.00011 0.998665 0.995539
1.00001 0.995837 0.999425
1.00006 0.9969 0.997374
1.00001 0.99585 0.999421
1.01373 0.997757 0.980802
1.00527 0.996072 0.990279
0.997791 0.99782 0.987407
1.00013 1.00128 0.992924
1.01807 0.991171 0.979592
1.01388 0.991851 0.985906
1.0047 0.992133 0.993859
0.999267 1.00125 0.991451
0.994841 1.00397 0.978618
0.998011 0.996721 0.992052
1.00947 0.988817 0.993476
1.00019 0.999464 0.991684
0.995205 1.00282 0.978283
1.00044 0.995131 0.988575
1.01411 0.990471 0.98545
0.999817 0.997599 0.993059
0.994795 1.00189 0.973712
1.00121 0.99862 0.982226
1.01429 0.994987 0.978708
1.00011 1.00236 0.991873
1.00007 1.00206 0.992287
1.00008 1.00145 0.992932
1.00011 1.00184 0.992393
1.00009 1.00173 0.992587
1.00008 1.00137 0.993017
1.00008 1.00119 0.993226
1.00007 1.00101 0.993428
1.00233 0.996776 0.991497
1.00005 1.00465 0.990151
1.00005 1.00254 0.991849
1.00018 1.00459 0.989553
1.00005 1.00379 0.990725
1.00001 1.00307 0.991458
1.00005 1.00296 0.991421
1.00193 0.99917 0.990923
1.00009 1.0036 0.990687
1.00017 1.00431 0.989845
0.999557 1.00538 0.990103
1.00011 1.0029 0.991313
1.00073 1.00168 0.991863
0.999645 1.00511 0.990284
1.00018 1.00422 0.990043
1.00011 1.00349 0.990753
1.0188 0.997152 0.973584
1.01417 0.999365 0.979541
1.00584 0.996509 0.989248
0.999954 1.00277 0.991751
0.99896 1.00348 0.992379
1.01478 0.997815 0.979221
0.99481 1.00345 0.977362
0.999615 1.00031 0.993733
1.00124 0.995082 0.986606
1.0198 0.989898 0.977984
1.0167 0.993009 0.979907
0.999955 1.00217 0.992458
1.01923 0.994597 0.97432
1.02117 0.989874 0.976245
0.997367 1.00104 0.99862
1.01457 0.98768 0.987629
0.995309 0.998594 0.983786
1.00145 0.998632 0.982671
0.999564 1.0009 0.994194
1.02081 0.992121 0.974378
1.0198 0.989534 0.978421
1.00972 0.985684 0.994625
1.00098 0.997466 0.984272
0.998392 0.996595 1.00428
0.996225 0.997199 0.981596
1.00013 1.00281 0.991394
0.999872 1.00304 0.991696
0.999323 1.00435 0.990979
1.00013 1.00244 0.991829
1.00011 1.00315 0.991148
1.00001 1.00279 0.991581
1.00008 1.003 0.991306
0.999948 1.00346 0.991169
0.999901 1.00393 0.990857
1.00009 1.0027 0.991613
1.00007 1.00253 0.991725
1.00003 1.003 0.991461
0.999878 1.00354 0.991069
1.00004 1.00217 0.992171
1.00008 1.0027 0.99154
1.00024 1.00283 0.991184
1.0003 1.00199 0.991894
1.00021 1.002 0.992158
1.00027 1.00206 0.991815
1.00015 1.00156 0.992712
1.00004 1.00143 0.992922
1.00015 1.00163 0.992554
1.00011 1.00099 0.993266
1.00013 1.00131 0.992915
1.00016 1.00171 0.992359
1.00012 1.00039 0.993817
1.00015 1.00106 0.993094
1.00016 1.00139 0.992777
1.00012 1.0013 0.992907
1.00012 1.00048 0.993737
1.00005 0.999266 0.995073
1.0001 1.00051 0.993726
1.00005 0.999243 0.995076
0.99996 0.997383 0.997088
1.00007 0.999193 0.995099
0.999992 0.997318 0.997093
0.999929 0.996145 0.999362
1.00002 0.997252 0.997101
0.999974 0.996081 0.998929
0.999984 0.996037 0.999364
1.0001 1.00037 0.993741
1.00007 0.999011 0.995109
1.00009 1.00027 0.993965
1.00004 0.997052 0.997286
1.00008 0.998858 0.995234
1.00009 1.00009 0.994232
0.999996 0.995884 0.999415
1.00005 0.996955 0.997344
1.0001 0.998736 0.995328
1.00001 0.995847 0.999424
1.00006 0.996907 0.99737
1.00001 0.995837 0.999425
1.01827 0.995602 0.975171
1.0138 0.997528 0.980807
1.00552 0.995709 0.990033
1.00013 1.00127 0.992968
1.00017 1.00119 0.992855
1.00014 1.00179 0.992445
1.0195 0.991511 0.977265
1.01818 0.992015 0.979226
1.01408 0.991816 0.986035
1.0002 0.9995 0.996608
0.994848 1.00372 0.977113
0.999054 0.998224 0.986126
1.01476 0.991403 0.985158
0.999671 0.998567 0.997914
0.995836 1.00133 0.978742
1.00211 0.998079 0.985056
1.01505 0.995599 0.978426
0.998384 0.995125 1.00218
0.994827 0.998374 0.982641
1.00379 1.0015 0.977831
1.01452 0.990671 0.983983
1.00014 1.00238 0.991795
1.00011 1.00235 0.991882
1.00007 1.0021 0.992229
1.00011 1.00186 0.992382
1.00009 1.00171 0.992666
1.00009 1.00117 0.993253
1.00179 0.999307 0.99079
0.99961 1.00539 0.990118
1.00006 1.00296 0.991423
1.00019 1.00428 0.98985
1.00009 1.00358 0.990673
1.0001 1.003 0.991262
1.00012 1.00348 0.990723
1.00082 1.00081 0.991718
1.00018 1.00416 0.990007
0.999628 1.00515 0.990089
1.00011 1.00343 0.990722
0.999703 1.00423 0.991857
0.999925 1.0047 0.989575
1.00014 1.00398 0.990231
1.02047 0.993913 0.973348
1.01876 0.996483 0.973505
1.01414 0.998877 0.979534
1.00003 1.00235 0.992396
0.997409 1.00041 0.99958
1.01912 0.994592 0.974243
0.995398 0.999138 0.991582
1.00448 0.997723 0.983221
1.02111 0.990379 0.975746
1.01533 0.988096 0.987401
0.999757 1.00092 0.993909
1.0207 0.992449 0.974179
1.01993 0.990309 0.97807
0.998027 0.996528 0.998836
1.0102 0.983892 0.995847
1.00053 0.998004 0.98825
0.99464 0.997527 0.985528
1.00051 1.00011 0.996327
1.01899 0.995205 0.974384
1.0151 0.990378 0.984961
1.00384 0.989083 0.996905
0.999492 0.995828 0.991878
0.995016 0.999018 0.983448
0.998334 0.994 0.999148
0.999949 1.00288 0.991564
0.999421 1.00439 0.990949
0.999123 1.0047 0.991187
1.00008 1.00298 0.991316
0.999909 1.00346 0.99123
0.9999 1.0039 0.990863
0.99969 1.00498 0.990156
1.00004 1.00302 0.991419
0.999932 1.00371 0.990985
1.00005 1.00394 0.990462
1.00006 1.0027 0.991614
1.00025 1.00285 0.991175
1.00037 1.00277 0.99113
1.00037 1.00215 0.991668
1.00018 1.00161 0.992414
1.0003 1.00203 0.991831
1.00028 1.00212 0.991782
1.00012 1.0013 0.993005
1.00012 1.00149 0.99275
1.00002 1.0011 0.993257
1.00005 1.00141 0.992974
1.00015 1.00158 0.992607
1.00009 1.00037 0.993908
1.00012 1.00098 0.993268
1.00013 1.00132 0.992907
1.00003 0.999261 0.995104
1.00012 1.00038 0.993822
1.00015 1.00105 0.993064
1.00012 1.00047 0.993742
1.00004 0.999266 0.995074
0.99993 0.997445 0.997088
1.00005 0.999245 0.995075
0.999962 0.997387 0.997087
0.999899 0.996258 0.99936
0.999996 0.99732 0.997093
0.999938 0.996159 0.998925
0.999957 0.996101 0.999362
1.00012 1.00039 0.9938
1.00006 0.999134 0.995177
1.0001 1.00038 0.993797
1.00001 0.997168 0.997215
1.00007 0.999014 0.995191
1.0001 1.00028 0.99404
0.999977 0.995953 0.999401
1.00003 0.997042 0.997289
1.00008 0.998871 0.995218
0.999999 0.995881 0.999418
1.00005 0.996947 0.997346
1.00001 0.995849 0.999424
1.0198 0.992946 0.975016
1.01828 0.995828 0.975112
1.01389 0.997434 0.980812
1.00018 1.00109 0.992944
1.00021 1.00133 0.992752
1.00012 1.00126 0.993011
1.00017 1.00119 0.992862
1.00014 1.00181 0.992385
1.00019 1.00166 0.992457
1.00017 1.00205 0.9921
1.01814 0.992487 0.978915
1.01941 0.992043 0.976936
1.01828 0.992856 0.97886
1.01583 0.996139 0.978144
0.999856 0.999035 0.992871
0.994848 1.00142 0.982812
1.00184 0.99742 0.982716
0.99854 0.997575 0.998601
0.996275 0.99804 0.979532
1.00232 1.0002 0.979105
1.01311 0.99035 0.984878
0.997147 0.996733 1.00185
0.996686 0.997221 0.978808
1.00413 0.997021 0.984778
1.01067 0.987257 0.991184
1.00013 1.00254 0.991684
1.00014 1.00242 0.991784
1.0001 1.00235 0.991891
1.00011 1.00188 0.992371
1.00092 0.999926 0.991572
0.999616 1.00518 0.989894
1.00009 1.0031 0.99121
1.00012 1.00347 0.990693
1.00019 1.00411 0.989972
1.0001 1.00341 0.990839
1.00016 1.00396 0.990228
0.999242 1.00335 0.993443
0.999921 1.00477 0.989557
1.00012 1.00395 0.990339
0.998185 1.00563 0.994812
1.00006 1.00483 0.989298
1.01867 0.997997 0.972796
1.02039 0.993526 0.973554
1.01872 0.995846 0.973426
0.999963 1.00096 0.993621
0.997595 0.996246 1.00384
1.02056 0.992785 0.973981
0.996036 0.997401 0.981014
1.00119 0.997004 0.984947
1.02005 0.991104 0.977719
1.00958 0.987013 0.99486
1.0002 1.0001 0.996065
1.01899 0.995466 0.97431
1.0153 0.99037 0.985133
0.998499 0.994004 1.00539
1.00382 0.988384 0.997735
0.999947 0.995228 0.989346
0.995107 0.999442 0.982336
1.00023 0.999247 0.997472
1.01427 0.997378 0.980355
1.00562 0.991353 0.993451
0.997129 0.998374 0.991472
0.994663 1.00301 0.979068
0.998815 0.994442 0.996786
0.999517 1.00445 0.990919
0.999183 1.00466 0.991126
0.999033 1.00535 0.990656
0.999899 1.00386 0.99087
0.999683 1.00488 0.990236
0.999882 1.00527 0.989558
0.999983 1.00386 0.990901
1.00007 1.00407 0.990365
1.00036 1.00343 0.990306
1.00025 1.00288 0.991166
1.00038 1.00275 0.991071
1.00044 1.0024 0.991262
1.00056 1.00159 0.991774
1.00036 1.00173 0.992127
1.00037 1.00216 0.991621
1.00014 1.00127 0.992819
1.00019 1.0016 0.992463
1.00029 1.00207 0.991768
1.00008 1.00108 0.993238
1.00011 1.00131 0.992971
1.0001 1.00143 0.992789
1.00003 1.00049 0.993903
1.00003 1.00108 0.993286
1.00006 1.00139 0.993025
1 0.99928 0.995145
1.00009 1.00036 0.993911
1.00012 1.00096 0.993271
0.999904 0.997514 0.997098
1.00003 0.99926 0.995107
1.00013 1.00037 0.993827
1.00004 0.999266 0.995075
0.999931 0.997448 0.997088
0.999862 0.996348 0.999359
0.999964 0.99739 0.997087
0.999894 0.996258 0.999359
0.999925 0.996176 0.99936
1.00018 1.00105 0.993039
1.00014 1.00041 0.993761
1.00005 0.999226 0.995097
1.00012 1.0004 0.993797
0.999987 0.997296 0.997141
1.00006 0.999137 0.995178
1.0001 1.0004 0.993853
0.999951 0.996049 0.999384
1.00001 0.997158 0.997219
1.00007 0.999017 0.995272
0.999981 0.995947 0.999405
1.00003 0.997031 0.997293
1 0.995878 0.99942
1.01836 0.996444 0.974111
1.01986 0.993286 0.9747
1.01828 0.996055 0.975053
1.00018 1.0011 0.992974
1.00021 1.00133 0.992717
1.0002 1.00128 0.992751
1.00021 1.00141 0.992597
1.00024 1.00148 0.99255
1.00016 1.00119 0.992869
1.00015 1.00182 0.992325
1.00019 1.00165 0.992459
1.00017 1.002 0.992125
1.00019 1.00192 0.99222
1.01359 0.993699 0.984456
1.01813 0.992498 0.978538
1.01935 0.992573 0.976608
1.01314 0.990864 0.983805
1.00546 0.999793 0.979272
0.998002 0.997847 0.996319
0.99473 0.997166 0.983807
0.996616 0.997967 0.997638
0.99468 0.998132 0.983397
1.00238 0.997553 0.984326
1.01015 0.985626 0.993043
0.995661 1.00016 0.996418
0.994755 0.999407 0.98239
0.999094 0.997698 0.986084
1.0048 0.987959 0.996619
1.00004 1.00219 0.992202
1.00013 1.00247 0.991777
1.00014 1.00246 0.991772
0.998791 1.00251 0.995035
0.999908 1.00484 0.98954
1.00008 1.00339 0.990955
1.00018 1.00395 0.990225
1.00008 1.00403 0.990376
1.00001 1.00484 0.989313
0.998172 1.00553 0.994796
0.999799 1.00458 0.989988
0.998733 1.00522 0.993879
1.01416 1.00052 0.979054
1.01861 0.997296 0.972777
1.02034 0.993141 0.97376
0.999857 1.00011 0.995818
0.998543 0.994 0.998967
1.01899 0.995731 0.974236
0.99487 0.998996 0.977866
0.998806 0.998602 0.986188
1.0155 0.990271 0.985304
1.00379 0.987891 0.998564
1.00033 0.999218 0.997488
1.01434 0.997152 0.980344
1.00515 0.990907 0.994301
0.998545 0.994058 1.00023
0.997791 0.997475 0.987653
0.995759 1.00327 0.973658
1.00026 0.999231 0.996486
1.00564 0.995325 0.990434
0.996895 0.998374 0.987282
0.994675 1.00429 0.975808
0.999959 0.996119 0.997506
0.999244 1.0046 0.991065
0.999061 1.00539 0.990689
0.999793 1.00544 0.989894
0.999683 1.00477 0.990317
0.999842 1.0052 0.989634
1.0005 1.00359 0.989936
1.00009 1.00422 0.990268
1.00037 1.00338 0.990345
1.00066 1.00191 0.991334
1.00039 1.00273 0.991012
1.00043 1.0023 0.991312
1.0007 1.00107 0.992019
1.0008 1.00057 0.992271
1.00049 1.00147 0.991992
1.00056 1.00151 0.9918
1.00027 1.0014 0.992557
1.00033 1.00177 0.992051
1.00036 1.00217 0.991574
1.00013 1.00097 0.993227
1.00014 1.00126 0.992872
1.00019 1.00159 0.992513
1.00001 1.00062 0.993821
1.00007 1.00108 0.993231
1.0001 1.00132 0.992936
0.999949 0.999386 0.995138
1.00004 1.00048 0.993902
1.00004 1.00107 0.993315
0.999857 0.997553 0.997549
0.999999 0.999284 0.995147
1.0001 1.00035 0.993914
0.999836 0.996427 0.998493
0.999897 0.997506 0.997318
1.00003 0.999259 0.99511
0.999932 0.997451 0.997089
0.999857 0.996342 0.999359
0.999889 0.996256 0.999359
1.00018 1.00104 0.993034
1.00014 1.00043 0.993741
1.00018 1.00106 0.99302
1.00004 0.999285 0.995052
1.00014 1.00041 0.993759
0.999958 0.997407 0.997083
1.00005 0.999227 0.995097
1.00012 1.00041 0.993793
0.99992 0.996163 0.999367
0.999984 0.997287 0.997145
1.00006 0.99914 0.995179
0.999956 0.99604 0.999389
1.00001 0.997147 0.997223
0.999984 0.995941 0.99941
1.01384 1.00018 0.977832
1.01828 0.996421 0.974059
1.01989 0.993637 0.974385
1.00019 1.00127 0.992835
1.00017 1.00111 0.993004
1.00021 1.00133 0.992682
1.0002 1.00143 0.992639
1.0002 1.00129 0.992786
1.00024 1.00145 0.992553
1.00023 1.00147 0.992534
1.00022 1.00161 0.992393
1.00019 1.00164 0.99246
1.00018 1.00195 0.99215
1.00019 1.0019 0.992211
1.00024 1.00187 0.992256
1.00473 0.992051 0.995567
1.01361 0.993592 0.984596
1.01814 0.99252 0.978161
1.00876 0.98929 0.992586
1.00182 0.996066 0.983683
0.996629 0.997196 0.97878
0.995698 0.99821 1.00578
0.99563 1.00018 1.00274
1.00404 0.988917 0.997122
0.995587 0.998707 0.978428
0.999189 0.997453 0.990125
0.996169 1.00078 1.00076
0.994856 1.00322 0.978361
0.99675 0.998255 0.992041
0.999927 1.00191 0.992729
1.00009 1.0021 0.992212
1.00013 1.0024 0.99187
0.998175 1.00542 0.994782
0.99997 1.00485 0.989329
1.00004 1.00411 0.990412
0.99984 1.00463 0.990057
0.99883 1.0051 0.993768
0.999373 1.00286 0.993524
1.0062 0.995671 0.991765
1.01389 1.00074 0.977434
1.01855 0.996635 0.972757
1.00043 0.999203 0.997505
0.998706 0.995086 1.00223
1.01443 0.997027 0.980334
0.994933 1.00188 0.982919
0.998143 0.996492 0.992294
1.00535 0.991147 0.993863
1.00045 0.999206 0.9966
1.0055 0.995727 0.990269
0.996869 0.998335 0.991564
1.0003 0.996341 0.993042
0.995226 1.00369 0.977409
1.00254 0.998606 0.990966
0.997428 0.996988 0.990991
0.995146 1.00437 0.978447
1.00018 0.997796 0.992302
0.99908 1.00542 0.990721
0.999561 1.00546 0.989862
1.00059 1.00248 0.990851
0.999797 1.00514 0.989711
1.00054 1.00333 0.989986
1.00129 0.999962 0.992128
1.00039 1.00329 0.990384
1.00066 1.00169 0.991421
1.00097 0.999609 0.992931
1.00042 1.0022 0.991362
1.00071 1.00096 0.992051
1.00097 0.999554 0.992933
1.00084 0.999858 0.992896
1.0007 1.00079 0.992285
1.00079 1.00052 0.992325
1.00039 1.00123 0.992363
1.00048 1.00146 0.992053
1.00057 1.00143 0.991825
1.00018 1.00102 0.993085
1.00024 1.0014 0.992549
1.0003 1.00181 0.991975
1.00002 1.00065 0.993756
1.00013 1.00098 0.993222
1.00014 1.00125 0.992924
0.999905 0.999551 0.995061
1.00002 1.0006 0.993824
1.00006 1.00108 0.993223
0.999816 0.997642 0.997116
0.999951 0.999395 0.995136
1.00005 1.00047 0.993901
0.999773 0.996482 0.999368
0.99986 0.997552 0.99712
0.999998 0.999287 0.995148
0.999821 0.99643 0.999361
0.999899 0.997501 0.997104
0.999852 0.996336 0.999359
1.00015 1.00107 0.993157
1.00017 1.00105 0.993055
1.00012 1.00048 0.993727
1.00003 0.999339 0.995027
1.00013 1.00044 0.993739
1.00018 1.00107 0.993001
0.999929 0.997491 0.997053
1.00004 0.999281 0.995053
1.00014 1.00042 0.993756
0.999886 0.996274 0.999355
0.999956 0.9974 0.997085
1.00005 0.999228 0.995098
0.999925 0.996154 0.999372
0.999982 0.997278 0.997148
0.99996 0.996031 0.999394
1.00594 0.994312 0.993013
1.01384 1.00024 0.977824
1.01818 0.996399 0.974006
1.0002 1.00127 0.992805
1.00017 1.00127 0.992877
1.00023 1.00135 0.992646
1.0002 1.00144 0.99268
1.0002 1.0013 0.992821
1.00024 1.00142 0.992556
1.00022 1.0016 0.992414
1.00023 1.00145 0.992551
1.00018 1.00176 0.992354
1.0002 1.00155 0.992586
1.00019 1.00188 0.992202
1.00022 1.00184 0.992242
0.996649 0.997164 0.99254
1.00429 0.991947 0.996529
1.0136 0.993492 0.984736
1.00327 0.989937 0.997625
0.998972 0.998266 0.986791
0.995365 0.999288 0.98474
0.995577 1.00034 0.996701
0.996302 1.00116 0.994885
0.997138 0.997876 0.988073
0.995433 1.00253 0.980708
0.99751 1.0009 0.992108
0.995155 1.00293 0.977971
0.999695 1.00324 0.99233
0.999955 1.00176 0.992762
1.00014 1.00202 0.992223
0.998906 1.00497 0.993661
0.999872 1.00468 0.990126
0.999855 1.00262 0.993593
1.00035 1.00094 0.993873
0.998589 0.996015 0.990066
1.00605 0.996057 0.990474
1.01361 1.00087 0.975813
1.00059 0.999186 0.996706
0.999464 0.995741 1.0012
1.00574 0.995303 0.990069
0.994854 1.00426 0.976367
0.996811 0.999323 0.987457
1.00212 0.998724 0.992234
0.997825 0.997652 0.988764
0.99479 1.00395 0.977034
1.00019 0.998485 0.997179
1.00311 0.997355 0.99007
0.995015 1.00318 0.974893
1.00013 0.999656 0.996852
0.999317 1.0055 0.98983
1.00048 1.00266 0.990806
1.00182 0.997578 0.993212
1.00058 1.00306 0.990037
1.00127 0.999622 0.992169
1.00159 0.996848 0.994523
1.00065 1.0015 0.991507
1.00099 0.999452 0.992955
1.00122 0.997993 0.993939
1.00072 1.00084 0.992083
1.00096 0.999545 0.992927
1.00098 0.999042 0.993384
1.00085 0.999633 0.993132
1.00084 0.999802 0.992952
1.00075 1.00016 0.99279
1.00061 1.00079 0.99248
1.00069 1.00082 0.992296
1.00077 1.00048 0.992378
1.00029 1.00097 0.992809
1.00039 1.00125 0.992423
1.00047 1.00144 0.992114
1.00005 1.0007 0.993649
1.00018 1.00102 0.993079
1.00021 1.00141 0.992542
0.999881 0.999712 0.994946
1.00003 1.00063 0.993759
1.00014 1.00098 0.993218
0.999764 0.997786 0.997075
0.999908 0.999558 0.995061
1.00003 1.00058 0.993828
0.999732 0.996628 0.999365
0.999817 0.997654 0.997115
0.999953 0.999404 0.995134
0.999779 0.996491 0.998934
0.999861 0.997563 0.99712
0.999812 0.996412 0.999363
1.00013 1.0011 0.993148
1.00015 1.00107 0.993097
1.00009 1.00056 0.993705
1.00016 1.00106 0.993076
1.00012 1.00048 0.993726
1.00001 0.999407 0.995003
0.999899 0.997561 0.997042
1.00003 0.999332 0.995027
1.00013 1.00044 0.993737
0.999851 0.996368 0.999349
0.999929 0.997484 0.997054
1.00005 0.999277 0.995053
0.999891 0.99627 0.999358
0.999954 0.997394 0.997087
0.999929 0.996144 0.999377
0.998004 0.997047 0.98759
1.0057 0.994456 0.993519
1.01383 1.0003 0.977816
1.0002 1.00128 0.992775
1.00023 1.00136 0.992647
1.00017 1.00126 0.992895
1.00014 1.0013 0.992917
1.0002 1.00142 0.992662
1.00023 1.00159 0.992436
1.00023 1.00144 0.992569
1.00018 1.00174 0.992353
1.00012 1.00155 0.992555
1.00013 1.00187 0.992323
1.00001 1.00182 0.992781
1.00019 1.00164 0.992487
1.00019 1.00182 0.992229
0.995664 1.00218 0.974499
0.996953 0.998115 0.990463
1.00444 0.992341 0.995945
0.997358 0.997238 0.992414
0.994893 1.00353 0.97278
0.99647 1.0009 1.00049
0.998176 1.00087 0.994734
0.99524 1.00217 0.978972
1.00002 0.998808 0.993486
1.00021 1.00408 0.99016
0.999606 1.00324 0.99223
0.999985 1.00162 0.992795
1.00036 1.0024 0.993654
1.00031 0.9997 0.994312
0.995372 1.00047 0.979149
0.998577 0.996454 0.987155
1.0059 0.996545 0.989183
1.00173 0.998812 0.993513
1.00038 0.998831 0.992147
0.997957 0.997197 0.98749
0.994905 1.00453 0.97797
1.00312 0.997693 0.989914
0.995095 1.00288 0.978944
1.0002 0.999496 0.991621
1.00362 0.995267 0.991412
0.99894 1.00231 0.995924
1.00038 1.00289 0.99076
1.00173 0.997784 0.993218
1.00217 0.995158 0.994987
1.00126 0.999238 0.99221
1.00152 0.996773 0.994484
1.00153 0.996421 0.994914
1.00102 0.999276 0.992979
1.00122 0.998063 0.993886
1.00114 0.998299 0.993803
1.00096 0.99954 0.992921
1.00098 0.999105 0.993349
1.00092 0.999345 0.993229
1.00083 0.999582 0.993186
1.0008 0.999951 0.992929
1.00085 0.999744 0.993007
1.00076 1.00016 0.99278
1.00071 1.00036 0.9927
1.00047 1.00072 0.992715
1.0006 1.00081 0.992466
1.00067 1.00085 0.992308
1.00012 1.00074 0.993463
1.00029 1.00098 0.992848
1.00039 1.00126 0.992484
0.999863 0.999918 0.994779
1.00006 1.00069 0.993649
1.00019 1.00103 0.993074
0.999715 0.997958 0.997002
0.999887 0.999713 0.994947
1.00004 1.00061 0.993762
0.999674 0.996766 0.999358
0.999767 0.9978 0.997071
0.99991 0.999566 0.99506
0.999722 0.996617 0.999364
0.999817 0.997667 0.997113
0.999766 0.996496 0.999365
1.0001 1.00116 0.993085
1.00012 1.0011 0.993151
1.00006 1.00068 0.99359
1.00015 1.00107 0.993038
1.00009 1.00058 0.993658
0.999975 0.999518 0.994966
1.00011 1.00049 0.993724
1.00001 0.999399 0.995004
0.999867 0.997638 0.997033
0.999813 0.996452 0.999347
0.9999 0.997553 0.997043
1.00003 0.999325 0.995027
0.999855 0.996373 0.99935
0.999928 0.997477 0.997055
0.999895 0.996266 0.999361
0.99538 1.00235 0.980133
0.998021 0.996981 0.990645
1.00592 0.994095 0.99382
1.00022 1.00137 0.992648
1.00016 1.00126 0.992913
1.0002 1.00142 0.992678
1.00014 1.0013 0.992924
1.00009 1.00145 0.992886
1.00014 1.00144 0.992733
1.00017 1.00172 0.992352
1.00014 1.00159 0.992559
1.00008 1.0019 0.992377
1.00007 1.0016 0.992581
1.0003 1.0017 0.9926
1.00048 1.00267 0.990872
1.00001 1.00174 0.992712
1.00017 1.00172 0.992389
0.999712 0.999096 0.997874
0.994853 1.00254 0.978937
0.996701 0.997999 0.987782
0.995128 1.00301 0.97733
0.998259 1.00015 0.99837
0.999984 0.999038 0.996181
1.0027 0.999498 0.990215
1.00011 1.00353 0.990353
0.999501 1.00324 0.99213
1.00025 0.998527 0.994752
0.997454 1.00274 0.991784
0.995459 1.00175 0.980654
0.998463 0.995734 0.990512
1.00309 0.998012 0.989759
1.0003 0.999434 0.996584
0.995053 1.00275 0.983161
1.00338 0.995551 0.991332
0.998978 1.00184 0.994063
1.00264 0.995782 0.993392
1.00049 1.00225 0.992373
1.00163 0.997891 0.993226
1.00212 0.995184 0.994985
1.00167 0.996634 0.994406
1.00144 0.996755 0.994445
1.00146 0.996627 0.994842
1.00129 0.998109 0.993726
1.0012 0.998144 0.993834
1.00113 0.998417 0.993753
1.00108 0.999211 0.993056
1.00099 0.999168 0.993313
1.0009 0.99939 0.993239
1.00085 0.999922 0.992818
1.00082 0.999534 0.993241
1.00079 0.999888 0.992968
1.00075 1.00023 0.992746
1.00077 1.00015 0.99277
1.00071 1.00036 0.992689
1.0006 1.00045 0.992823
1.00026 1.00062 0.993215
1.00046 1.00074 0.992754
1.00059 1.00083 0.992453
0.999873 1.00015 0.994535
1.00012 1.00073 0.993466
1.00028 1.001 0.992887
0.99966 0.998164 0.9969
0.999876 0.999905 0.994778
1.00007 1.00068 0.993649
0.99961 0.996938 0.999343
0.999718 0.997973 0.996997
0.999892 0.999713 0.994949
0.999662 0.99676 0.999354
0.99977 0.997815 0.997068
0.999712 0.996606 0.999362
1.00008 1.00124 0.993079
1.0001 1.00116 0.99313
1.00002 1.00082 0.99354
1.00012 1.0011 0.993155
1.00005 1.0007 0.993584
0.999932 0.999672 0.9949
1.00008 1.00059 0.993612
0.999976 0.999509 0.994966
0.999827 0.997746 0.997009
1.00001 0.99939 0.995004
0.999867 0.997627 0.997034
0.999769 0.996542 0.999345
0.999818 0.996464 0.999348
0.9999 0.997544 0.997043
0.99986 0.996378 0.999352
0.998611 0.999684 0.997341
0.995001 1.00161 0.978738
0.997765 0.997366 0.987364
1.00014 1.00146 0.992784
1.0002 1.00142 0.992694
1.00014 1.00129 0.992931
1.00014 1.00146 0.992733
1.00008 1.00146 0.992877
1.00004 1.00144 0.992883
1.00016 1.00162 0.992563
1.00003 1.00194 0.992432
1.00012 1.00164 0.992596
1.00011 1.00166 0.992796
1.00045 1.00182 0.99179
1.00176 1.00182 0.989173
1.00037 1.00257 0.991105
1.00002 1.00167 0.992642
1.003 0.997151 0.990216
0.999606 0.998989 0.995451
0.994948 1.00209 0.983139
1.00001 0.999415 0.991123
1.00274 1.00036 0.988654
1.00003 1.00291 0.990549
1.00025 1.00128 0.995445
0.997444 1.00305 0.996821
0.995304 1.00034 0.979034
1.00311 0.995871 0.991248
0.999022 1.00138 0.991871
1.00239 0.99593 0.993176
1.00053 1.0019 0.992713
1.00137 0.999126 0.992138
1.00048 1.00114 0.991525
1.00208 0.995299 0.994982
1.00163 0.99682 0.994376
1.00122 0.999291 0.992787
1.00141 0.996845 0.99477
1.00128 0.998214 0.993699
1.00123 0.999369 0.992638
1.00111 0.998537 0.993703
1.00104 0.999252 0.993104
1.00099 1.00001 0.992427
1.00088 0.999434 0.993249
1.00084 0.999926 0.992821
1.0008 1.00026 0.99259
1.00079 0.999824 0.993007
1.00075 1.00017 0.992761
1.00066 1.00036 0.992755
1.00071 1.00037 0.992678
1.0006 1.00045 0.992789
1.0004 1.00048 0.993158
0.99993 1.0003 0.994274
1.00025 1.00064 0.993262
1.00045 1.00077 0.992792
0.999609 0.998408 0.996748
0.99989 1.00012 0.994535
1.00013 1.00073 0.993469
0.99954 0.99714 0.999322
0.999665 0.998183 0.996893
0.999888 0.999893 0.994778
0.999597 0.996936 0.999337
0.999722 0.997988 0.996993
0.999651 0.996755 0.999349
1.0001 1.00127 0.992975
1.00008 1.00123 0.993082
1.00001 1.00092 0.993534
1.00011 1.00116 0.993175
1.00001 1.00083 0.993567
0.99989 0.999862 0.994798
1.00004 1.00073 0.993578
0.999931 0.999666 0.994899
0.999778 0.997898 0.99696
0.999976 0.999501 0.994966
0.999827 0.997733 0.99701
0.999717 0.996657 0.999338
0.999868 0.997616 0.997034
0.999777 0.996557 0.999346
0.999824 0.996476 0.999348
1.00174 0.996547 0.993904
0.998524 1.0002 0.993141
0.995314 1.00135 0.980488
1.0001 1.00136 0.992827
1.00037 1.00135 0.992458
1.00008 1.00148 0.992795
1.00015 1.00147 0.992733
1.00007 1.00147 0.992867
1.00007 1.00146 0.992871
1.00055 1.00146 0.991906
1.00016 1.00167 0.992611
0.999919 1.00162 0.992991
1.00043 1.00183 0.991741
1.00145 1.00136 0.990047
1.00205 0.999093 0.991351
1.00176 1.00167 0.989352
1.00026 1.00248 0.991339
1.00306 0.997299 0.99028
0.999263 0.999386 0.993265
1.0028 1.00131 0.987087
1.00008 0.999972 0.994069
1.00018 1.00082 0.995453
0.99746 1.00231 0.99224
1.0022 0.996094 0.992959
1.00058 1.00155 0.99305
1.00146 0.999072 0.992184
1.0006 1.0012 0.9918
1.00099 1.00083 0.991697
1.00042 1.00069 0.993192
1.00161 0.996944 0.994345
1.0012 0.999214 0.99285
1.0012 1.00016 0.991942
1.00126 0.998302 0.993673
1.0012 0.99941 0.992638
1.00113 1.00006 0.992049
1.001 0.999288 0.993153
1.00099 1.00001 0.992428
1.00092 1.00034 0.992246
1.00084 0.999929 0.992823
1.0008 1.00025 0.992589
1.00071 1.00042 0.992602
1.00075 1.00012 0.992775
1.00066 1.00034 0.992755
1.00048 1.00042 0.99307
1.0006 1.00044 0.992755
1.00039 1.00048 0.99314
1 1.00036 0.994064
0.999581 0.998657 0.996579
0.999945 1.00026 0.994277
1.00024 1.00065 0.99331
0.999472 0.997367 0.999292
0.999616 0.998433 0.996739
0.999906 1.0001 0.994536
0.999528 0.997141 0.999314
0.999671 0.998202 0.996886
0.999584 0.996935 0.999332
1.00018 1.0013 0.992692
1.0001 1.00126 0.992937
1.00004 1.00096 0.993433
1.00008 1.00121 0.993084
0.999996 1.00093 0.99353
0.99986 1.00006 0.994662
1 1.00085 0.993595
0.999886 0.99986 0.994797
0.99972 0.998094 0.996885
0.99993 0.99966 0.994899
0.999777 0.997883 0.996962
0.999651 0.996811 0.999325
0.999828 0.997719 0.997012
0.999727 0.996669 0.99934
0.999785 0.996571 0.999347
1.00127 0.998108 0.993963
1.00181 0.996996 0.99459
0.998305 1.00092 0.999129
1.00062 1.00118 0.99221
1.00006 1.00135 0.992944
1.00059 1.00124 0.991786
1.00036 1.00136 0.992431
1.00001 1.00149 0.992805
1.00133 1.00101 0.990788
1.0001 1.00148 0.992858
1.00055 1.0014 0.991947
1.00192 0.999497 0.990884
1.0004 1.00183 0.991692
1.0016 1.00137 0.989814
1.00211 0.999005 0.991253
1.00175 1.00152 0.98953
1.00312 0.997414 0.990346
1.00035 0.999767 0.994114
1.00001 0.999845 0.994112
1.00009 1.00036 0.995464
1.00152 0.998999 0.99223
1.0007 1.00125 0.992074
1.00109 1.00072 0.991619
1.00043 1.00056 0.993226
1.00059 1.00053 0.992794
1.00118 0.999154 0.992913
1.00121 1.00005 0.991998
1.00111 1.00032 0.99195
1.00117 0.999452 0.992637
1.00114 1.0001 0.992016
1.00106 1.00037 0.99194
1.00099 1.00001 0.99243
1.00093 1.00034 0.992239
1.00081 1.00049 0.992323
1.0008 1.00025 0.992588
1.00071 1.00042 0.992601
1.00054 1.00046 0.992908
1.00066 1.00032 0.992754
1.00047 1.00041 0.993072
1.00006 1.0004 0.993905
1.00037 1.00047 0.993122
1.00001 1.00033 0.994069
0.999554 0.998886 0.99692
0.999419 0.997646 0.998198
0.999583 0.998682 0.996821
0.99996 1.00023 0.994279
0.999462 0.997372 0.99928
0.999622 0.998458 0.99673
0.999515 0.997143 0.999306
1.00078 1.00089 0.991898
1.0003 1.00134 0.992374
1.00021 1.00129 0.992653
1.0001 1.00098 0.993297
1.00009 1.00125 0.9929
1.00003 1.00096 0.993434
0.999849 1.00024 0.994509
0.999987 1.00094 0.993527
0.999851 1.00007 0.994661
0.999653 0.998327 0.996791
0.999882 0.999857 0.994796
0.999717 0.998079 0.996889
0.999573 0.997008 0.999307
0.999776 0.997868 0.996965
0.999665 0.996816 0.999329
0.999738 0.996681 0.999343
1.0013 0.998877 0.99299
1.00122 0.998175 0.99382
1.00188 0.997486 0.995276
1.0012 1.00083 0.99121
1.00051 1.00118 0.992365
1.00001 1.00134 0.993061
1.00069 1.00118 0.991862
1.00035 1.00137 0.992404
1.00174 1.00012 0.990733
1.00134 1.00106 0.990714
1.00055 1.00135 0.991988
1.00201 0.999482 0.990825
1.00175 1.00137 0.98958
1.00216 0.998928 0.991154
1.00011 1.0002 0.993846
1.00029 0.999859 0.994096
0.999945 0.999725 0.994154
1.0012 1.0006 0.991542
1.00042 1.00044 0.993259
1.00061 1.0005 0.992777
1.00055 1.00058 0.99276
1.00121 0.999931 0.992055
1.00116 1.00025 0.991889
1.00104 1.00022 0.992125
1.00116 1.00015 0.991982
1.00106 1.00037 0.991933
1.00093 1.00053 0.992046
1.00094 1.00033 0.992232
1.00082 1.00048 0.992317
1.00062 1.00052 0.992677
1.00071 1.00041 0.9926
1.00054 1.00045 0.992906
1.00011 1.00046 0.993746
1.00047 1.00041 0.993074
1.00006 1.00038 0.993909
0.999519 0.999148 0.996752
1.00002 1.0003 0.994073
0.999553 0.998921 0.996894
0.999351 0.997915 0.99807
0.999412 0.997619 0.998718
0.999585 0.998708 0.997061
0.999452 0.997377 0.999268
1.0012 1.00064 0.991363
1.00056 1.0011 0.992313
1.00073 1.0008 0.992118
1.00017 1.00108 0.993038
1.00034 1.00135 0.992381
1.00024 1.00129 0.992614
1.00009 1.00099 0.993298
0.999847 1.00043 0.994329
1.00002 1.00096 0.993435
0.999834 1.00026 0.994508
0.999579 0.998582 0.996688
0.999842 1.00008 0.99466
0.999648 0.998312 0.996796
0.999483 0.997241 0.999285
0.999714 0.998064 0.996893
0.99959 0.997005 0.999313
0.999679 0.996822 0.999333
1.00111 0.999828 0.992403
1.00126 0.99889 0.992999
1.00117 0.998231 0.993677
1.00155 1.00014 0.990994
1.0012 1.00083 0.991218
1.0004 1.00119 0.99252
1.00079 1.00113 0.991938
1.00178 1.00013 0.990733
1.00134 1.00111 0.99064
1.0021 0.999467 0.990765
1.00022 1.00057 0.99339
1.00023 1.00026 0.993662
1.00024 0.999945 0.994078
1.0004 1.00089 0.992772
1.00063 1.00048 0.992761
1.00056 1.0006 0.992736
1.00073 1.0004 0.992586
1.00122 1.00019 0.991829
1.00103 1.00023 0.992131
1.00092 1.00051 0.992093
1.00106 1.00038 0.991926
1.00092 1.00053 0.992048
1.0007 1.00058 0.992454
1.00082 1.00048 0.992312
1.00062 1.00052 0.992672
1.00017 1.00051 0.993565
1.00054 1.00045 0.992903
1.00011 1.00044 0.993748
0.999477 0.999438 0.996567
1.00007 1.00035 0.993913
0.999521 0.99917 0.996725
0.999272 0.998224 0.997952
0.999553 0.998957 0.996868
0.99935 0.997886 0.998088
0.999404 0.997591 0.999241
1.00151 1.00035 0.991101
1.00099 1.00074 0.991726
1.00116 1.00067 0.991454
1.00038 1.00099 0.992843
1.00055 1.00108 0.992285
1.00068 1.00071 0.992338
0.999884 1.00063 0.994047
1.00017 1.00108 0.993037
1.00038 1.00137 0.992389
1.00008 1.001 0.993299
0.999828 1.00046 0.994328
0.999511 0.998861 0.996555
0.99982 1.00028 0.994506
0.999573 0.998566 0.996693
0.999388 0.997499 0.999261
0.999643 0.998296 0.996802
0.999503 0.997232 0.999292
0.999607 0.997003 0.999318
1.00112 1.0001 0.992124
1.0012 0.999792 0.992279
1.00122 0.998903 0.993007
1.00167 1.00009 0.990876
1.0012 1.00082 0.991226
1.00183 1.00013 0.990733
1.00028 1.00102 0.99284
1.00017 1.00065 0.993438
1.00035 1.00033 0.993478
1.00042 1.00094 0.992696
1.00049 1.00099 0.992509
1.00056 1.00062 0.992711
1.00072 1.00041 0.992585
1.00076 1.00052 0.99248
1.00102 1.00024 0.992137
1.00091 1.0005 0.992108
1.00069 1.00064 0.992402
1.00092 1.00053 0.99205
1.0007 1.00058 0.992452
1.00022 1.00056 0.993397
1.00062 1.00051 0.992667
1.00017 1.00051 0.993566
0.999424 0.999748 0.996339
1.00011 1.00043 0.99375
0.999484 0.999446 0.996536
0.99917 0.998594 0.997814
0.999522 0.999193 0.996698
0.999271 0.998187 0.997971
0.999349 0.997857 0.998105
1.00135 0.999761 0.992028
1.0013 1.0005 0.991324
1.00154 1.00032 0.99107
1.00069 1.00076 0.992355
1.00098 1.00076 0.99178
1.00111 1.00071 0.991546
1 1.00069 0.993724
1.00037 1.00098 0.99274
1.00054 1.00106 0.992257
0.999479 0.999164 0.996322
0.999864 1.00066 0.994048
1.00017 1.00109 0.993036
0.999807 1.00049 0.994327
0.9995 0.998844 0.996561
0.999298 0.997776 0.999227
0.999567 0.99855 0.996699
0.999407 0.997485 0.999268
0.999522 0.997222 0.999298
1.0008 1.00086 0.992004
1.00115 1.00007 0.992076
1.00129 0.999753 0.992154
1.0018 1.00005 0.990758
1.00038 1.00121 0.992447
1.00027 1.00103 0.99289
1.00012 1.00072 0.993487
1.00043 1.00099 0.99262
1.00046 1.00099 0.992545
1.00047 1.00088 0.992637
1.00072 1.0004 0.992583
1.00074 1.00051 0.992477
1.0006 1.00068 0.992577
1.0009 1.00049 0.992123
1.00068 1.00064 0.992414
1.00023 1.00067 0.993287
1.0007 1.00058 0.99245
1.00022 1.00057 0.993396
0.999388 1.00008 0.995488
1.00017 1.0005 0.993566
0.999445 0.999771 0.995986
0.99904 0.998857 0.999018
0.999491 0.999456 0.996505
0.999168 0.998554 0.997836
0.99927 0.99815 0.997991
1.00105 1.00037 0.99205
1.00126 1.00003 0.991869
1.0013 0.999815 0.992007
1.00091 1.00058 0.991863
1.00128 1.00047 0.991432
1.00156 1.00028 0.991038
1.0002 1.0006 0.993238
1.00069 1.00076 0.99235
1.00097 1.00077 0.991834
0.999509 0.999427 0.995987
0.999995 1.00071 0.993634
1.00036 1.00097 0.992636
0.99923 0.99808 0.999164
0.999459 0.999149 0.996333
0.999843 1.0007 0.994048
0.999489 0.998827 0.996568
0.999313 0.99776 0.999238
0.999428 0.997472 0.999275
1.00053 1.00117 0.992173
1.00073 1.00082 0.992134
1.00119 1.00004 0.992028
1.00038 1.0011 0.992583
1.00039 1.00123 0.992453
1.00025 1.00104 0.992939
1.00044 1.001 0.992581
1.00048 1.00086 0.992643
1.00032 1.00093 0.99292
1.00073 1.00051 0.992474
1.00058 1.00069 0.992631
1.00015 1.00078 0.993251
1.00067 1.00064 0.992425
1.00022 1.00067 0.993295
0.999321 1.00036 0.995352
1.00022 1.00057 0.993396
0.99941 1.00006 0.995484
0.998941 0.999188 0.998983
0.999465 0.999793 0.995635
0.999028 0.998917 0.998356
0.999167 0.998512 0.997858
1.00081 1.0009 0.992066
1.00102 1.00023 0.992161
1.00102 1.00035 0.992032
1.00094 1.00037 0.992116
1.00122 1.00005 0.991902
1.00124 0.99987 0.991986
1.00039 1.00054 0.992908
1.00094 1.00059 0.99197
1.00125 1.00043 0.99154
0.999568 0.999626 0.995644
1.00022 1.00062 0.993188
1.0007 1.00077 0.992346
0.999184 0.998399 0.999078
0.999482 0.999423 0.995999
0.99999 1.00073 0.993545
0.999237 0.998059 0.999185
0.999438 0.999133 0.996344
0.99933 0.997743 0.999249
1.0005 1.00104 0.992379
1.00057 1.00114 0.992178
1.00067 1.00078 0.992264
1.0003 1.00109 0.99279
1.0004 1.00112 0.992563
1.0004 1.00124 0.992459
1.00048 1.00084 0.992648
1.00033 1.00091 0.992921
0.999982 1.00098 0.993381
1.00056 1.00071 0.992686
1.00015 1.00079 0.993282
0.999226 1.00063 0.995296
1.00021 1.00068 0.993302
0.999338 1.00034 0.99535
0.998797 0.999534 0.998947
0.999433 1.00004 0.99548
0.998905 0.999224 0.998972
0.99902 0.99898 0.997689
1.00076 1.00073 0.992273
1.00081 1.00092 0.99198
1.00079 1.00045 0.992388
1.00101 1.00023 0.992176
1.001 1.00033 0.992014
1.00043 1.00048 0.993021
1.00096 1.00038 0.992102
1.00117 1.00008 0.991935
0.999597 0.999798 0.995385
1.00041 1.00054 0.992955
1.00096 1.00059 0.992077
0.999133 0.998714 0.998998
0.999541 0.999636 0.995654
1.00024 1.00064 0.993139
0.999186 0.998374 0.999104
0.999455 0.99942 0.99601
0.999245 0.998037 0.999205
1.00042 1.001 0.992673
1.00052 1.00102 0.992391
1.0006 1.00111 0.992183
0.999994 1.00109 0.993259
1.0003 1.0011 0.992791
1.00042 1.00113 0.992543
1.00034 1.00089 0.992923
0.999992 1.00097 0.993379
0.999116 1.00087 0.995283
1.00015 1.0008 0.993313
0.999232 1.00061 0.9953
0.998657 0.999838 0.998922
0.999355 1.00032 0.995348
0.998764 0.999569 0.998937
0.99887 0.99926 0.99896
1.00059 1.00077 0.99253
1.00076 1.00074 0.992229
1.0008 1.00093 0.991895
1.00031 1.00059 0.993163
1.00079 1.00045 0.992388
1.00099 1.00022 0.992192
0.999545 0.999977 0.995284
1.00045 1.00048 0.993011
1.00098 1.00038 0.992088
0.999055 0.999017 0.998942
0.999576 0.999811 0.995391
1.00043 1.00055 0.993002
0.999141 0.998689 0.999021
0.999513 0.999647 0.995664
0.99919 0.998349 0.999131
1.00005 1.00103 0.993291
1.00041 1.001 0.99264
1.00054 1.001 0.992403
0.99909 1.001 0.995206
0.999982 1.0011 0.993278
1.00031 1.0011 0.992791
1 1.00096 0.993378
0.999122 1.00085 0.995285
0.998519 1.00008 0.998918
0.999238 1.00059 0.995304
0.998619 0.999868 0.998921
0.998731 0.999603 0.998928
1.00015 1.00085 0.993268
1.00058 1.00077 0.992521
1.00077 1.00075 0.992185
0.9994 1.00016 0.996012
1.00032 1.0006 0.993155
1.00079 1.00046 0.992387
0.998919 0.999311 0.998925
0.999536 0.999994 0.99528
1.00046 1.00049 0.993
0.999073 0.998993 0.998957
0.999555 0.999824 0.995398
0.999148 0.998664 0.999044
0.999144 1.00091 0.995156
1.00006 1.00103 0.993248
1.0004 1.001 0.992608
0.998456 1.0002 0.998901
0.999096 1.00099 0.995201
0.999969 1.0011 0.993297
0.999128 1.00084 0.995286
0.9985 1.0001 0.998914
0.998582 0.999898 0.99892
0.999233 1.00049 0.99598
1.00015 1.00085 0.993262
1.00057 1.00076 0.992511
0.998769 0.999584 0.998938
0.999411 1.00027 0.995288
1.00033 1.0006 0.993147
0.998957 0.999287 0.998927
0.999527 1.00001 0.995277
0.999092 0.998969 0.998972
0.998497 1.00044 0.997381
0.999152 1.00084 0.995548
1.00006 1.00103 0.993204
0.998466 1.0002 0.998894
0.9991 1.00099 0.995198
0.998479 1.00011 0.998912
0.998599 1.0001 0.997468
0.999252 1.00058 0.995627
1.00016 1.00085 0.993256
0.998784 0.999692 0.998205
0.999393 1.0003 0.995279
0.998995 0.999262 0.99893
0.998501 1.00014 0.998882
0.999144 1.00093 0.995175
0.998477 1.0002 0.998884
0.998588 1.00006 0.998179
0.999236 1.00065 0.995253
0.998836 0.999564 0.998924
0.998532 1.0001 0.998894
0.998656 0.999866 0.998919

TENSORS stress float
0.00118458 2.35998e-05 1.26275e-05
2.35998e-05 0.000148956 -4.12305e-06
1.26275e-05 -4.12305e-06 0.000149016
0.00248884 -2.80606e-05 1.02823e-05
-2.80606e-05 0.000769573 2.81233e-06
1.02823e-05 2.81233e-06 0.000782207
0.00116336 2.44146e-05 4.62395e-06
2.44146e-05 0.00013853 -1.64813e-06
4.62395e-06 -1.64813e-06 0.000138909
0.00125312 2.41896e-05 1.54497e-05
2.41896e-05 0.000215538 -3.2249e-06
1.54497e-05 -3.2249e-06 0.00020468
0.00121141 2.42522e-05 1.34431e-05
2.42522e-05 0.000171738 -3.86997e-06
1.34431e-05 -3.86997e-06 0.000168511
0.00116209 2.28214e-05 1.18256e-05
2.28214e-05 0.000129651 -4.34796e-06
1.18256e-05 -4.34796e-06 0.000132702
0.00115045 1.97537e-05 4.59953e-06
1.97537e-05 0.000120907 -1.6765e-06
4.59953e-06 -1.6765e-06 0.000102799
0.00254101 -2.82622e-05 1.57648e-07
-2.82622e-05 0.000793996 -8.72151e-08
1.57648e-07 -8.72151e-08 0.00080669
0.00281205 -3.45696e-05 5.12595e-06
-3.45696e-05 0.000951696 9.02767e-07
5.12595e-06 9.02767e-07 0.000957521
0.0025896 -3.11299e-05 4.63235e-06
-3.11299e-05 0.000825418 1.03749e-06
4.63235e-06 1.03749e-06 0.000836275
0.00109693 -2.10239e-05 8.69738e-06
-2.10239e-05 8.08228e-05 2.8807e-06
8.69738e-06 2.8807e-06 8.92758e-05
0.000894874 -1.74667e-05 4.5825e-06
-1.74667e-05 -1.75035e-05 2.1819e-06
4.5825e-06 2.1819e-06 -2.97528e-05
0.00119086 -1.8656e-05 1.46804e-05
-1.8656e-05 0.000236574 6.19377e-07
1.46804e-05 6.19377e-07 0.000216848
0.00116178 -2.55747e-05 4.30367e-06
-2.55747e-05 0.000190583 4.66377e-07
4.30367e-06 4.66377e-07 0.00017729
0.00114023 2.52627e-05 -3.53249e-06
2.52627e-05 0.000127229 8.3346e-07
-3.53249e-06 8.3346e-07 0.000127927
0.00122478 2.51783e-05 5.73426e-06
2.51783e-05 0.000202295 -1.30895e-06
5.73426e-06 -1.30895e-06 0.000191735
0.00114228 2.36005e-05 4.33236e-06
2.36005e-05 0.000119687 -1.7109e-06
4.33236e-06 -1.7109e-06 0.000123056
0.00118343 2.50879e-05 4.93159e-06
2.50879e-05 0.000158081 -1.54412e-06
4.93159e-06 -1.54412e-06 0.000155213
0.00117305 1.98361e-05 -1.31049e-06
1.98361e-05 0.000132275 2.1598e-07
-1.31049e-06 2.1598e-07 0.000114129
0.00304853 3.47278e-05 1.54928e-05
3.47278e-05 0.00113533 -8.405e-07
1.54928e-05 -8.405e-07 0.00112871
0.00127641 2.33701e-05 1.65955e-05
2.33701e-05 0.000239665 -2.61256e-06
1.65955e-05 -2.61256e-06 0.00022542
0.00123222 2.45035e-05 1.43425e-05
2.45035e-05 0.000193304 -3.60518e-06
1.43425e-05 -3.60518e-06 0.000186342
0.00122021 1.70105e-05 4.43344e-06
1.70105e-05 0.00016572 -1.14967e-06
4.43344e-06 -1.14967e-06 0.000137843
0.00117388 2.05559e-05 4.53117e-06
2.05559e-05 0.000136874 -1.44294e-06
4.53117e-06 -1.44294e-06 0.000115641
0.00116266 2.19616e-05 1.12455e-05
2.19616e-05 0.000120781 -4.52609e-06
1.12455e-05 -4.52609e-06 0.00012653
0.00112527 1.91493e-05 4.44881e-06
1.91493e-05 0.000104132 -1.88459e-06
4.44881e-06 -1.88459e-06 8.92894e-05
0.0013934 3.65209e-06 1.5614e-06
3.65209e-06 0.000209899 -3.13321e-07
1.5614e-06 -3.13321e-07 0.000166714
0.0025942 -2.84901e-05 -1.00715e-05
-2.84901e-05 0.00081888 -2.8371e-06
-1.00715e-05 -2.8371e-06 0.000831633
0.00199447 -2.94102e-05 -3.9494e-06
-2.94102e-05 0.000552517 -8.25879e-07
-3.9494e-06 -8.25879e-07 0.000553825
0.00186976 -2.70133e-05 -3.52222e-06
-2.70133e-05 0.000473442 -9.10735e-07
-3.52222e-06 -9.10735e-07 0.000480608
0.00243806 -2.6396e-05 1.16656e-07
-2.6396e-05 0.000736939 -6.49614e-08
1.16656e-07 -6.49614e-08 0.000751492
0.000853815 -1.73816e-05 9.93244e-08
-1.73816e-05 -3.74162e-05 -4.90995e-08
9.93244e-08 -4.90995e-08 -4.94317e-05
0.00112426 -2.42774e-05 1.12987e-05
-2.42774e-05 0.000141865 1.93095e-06
1.12987e-05 1.93095e-06 0.000135242
0.00112604 -2.38445e-05 1.00602e-05
-2.38445e-05 0.000119818 2.39094e-06
1.00602e-05 2.39094e-06 0.00012053
0.0016794 -2.09469e-05 7.17112e-06
-2.09469e-05 0.000379541 1.59961e-06
7.17112e-06 1.59961e-06 0.000361157
0.00238152 -2.55836e-05 4.13186e-06
-2.55836e-05 0.000701215 1.24325e-06
4.13186e-06 1.24325e-06 0.000717576
0.00162107 -2.10545e-05 6.88097e-06
-2.10545e-05 0.000343219 1.9609e-06
6.88097e-06 1.9609e-06 0.000331559
0.000888745 -1.68238e-05 5.42916e-06
-1.68238e-05 -2.584e-05 3.42368e-06
5.42916e-06 3.42368e-06 -3.54683e-05
0.000990768 -3.55052e-06 2.46704e-06
-3.55052e-06 1.46566e-05 1.11467e-06
2.46704e-06 1.11467e-06 -2.55374e-05
0.00238058 -2.07081e-05 9.04165e-06
-2.07081e-05 0.000689022 3.43359e-06
9.04165e-06 3.43359e-06 0.000707278
0.00295857 -3.34009e-05 3.97722e-07
-3.34009e-05 0.00109792 -1.31163e-07
3.97722e-07 -1.31163e-07 0.00109065
0.00204243 -2.97941e-05 -4.57607e-06
-2.97941e-05 0.000622647 -5.47232e-07
-4.57607e-06 -5.47232e-07 0.000614356
0.00305212 -2.86199e-05 1.62204e-05
-2.86199e-05 0.00114938 2.00842e-07
1.62204e-05 2.00842e-07 0.00114083
0.00114716 -2.4182e-05 4.4396e-06
-2.4182e-05 0.000201419 3.55184e-07
4.4396e-06 3.55184e-07 0.000184835
0.000699266 -1.77107e-05 6.95937e-06
-1.77107e-05 -6.04601e-05 9.99644e-07
6.95937e-06 9.99644e-07 -9.98505e-05
0.00294039 -3.67195e-05 5.62423e-06
-3.67195e-05 0.00104153 6.76934e-07
5.62423e-06 6.76934e-07 0.00104178
0.00158602 -1.96948e-05 9.38667e-06
-1.96948e-05 0.00035599 1.45341e-06
9.38667e-06 1.45341e-06 0.000328497
0.00119369 2.62661e-05 -4.21701e-06
2.62661e-05 0.000187712 6.4422e-07
-4.21701e-06 6.4422e-07 0.000177457
0.00115193 2.59501e-05 -3.73368e-06
2.59501e-05 0.000142768 7.54354e-07
-3.73368e-06 7.54354e-07 0.000140266
0.00112208 2.44168e-05 -3.32461e-06
2.44168e-05 0.000109558 8.94926e-07
-3.32461e-06 8.94926e-07 0.000113242
0.00119606 1.98919e-05 -7.25364e-06
1.98919e-05 0.000143831 2.15339e-06
-7.25364e-06 2.15339e-06 0.000125646
0.00209484 2.87283e-05 -3.71799e-06
2.87283e-05 0.000671376 -1.99788e-07
-3.71799e-06 -1.99788e-07 0.000658662
0.00124365 2.44609e-05 6.18636e-06
2.44609e-05 0.000224621 -1.09727e-06
6.18636e-06 -1.09727e-06 0.000210534
0.00113478 2.26759e-05 4.10037e-06
2.26759e-05 0.000106757 -1.76537e-06
4.10037e-06 -1.76537e-06 0.000112817
0.00120235 2.53961e-05 5.29009e-06
2.53961e-05 0.000178914 -1.43727e-06
5.29009e-06 -1.43727e-06 0.000172325
0.0012399 1.71236e-05 -1.97317e-06
1.71236e-05 0.000175467 2.59856e-07
-1.97317e-06 2.59856e-07 0.000147598
0.00114843 1.92144e-05 -1.17394e-06
1.92144e-05 0.000115563 1.9595e-07
-1.17394e-06 1.9595e-07 0.000100731
0.00119563 2.06465e-05 -1.53113e-06
2.06465e-05 0.000147713 2.59611e-07
-1.53113e-06 2.59611e-07 0.000126444
0.00140467 2.88346e-06 -9.98318e-07
2.88346e-06 0.00021363 5.51492e-07
-9.98318e-07 5.51492e-07 0.000170213
0.00308802 3.50081e-05 1.54513e-05
3.50081e-05 0.00116214 -4.54378e-07
1.54513e-05 -4.54378e-07 0.00115426
0.00128313 2.20307e-05 1.74111e-05
2.20307e-05 0.00025799 -1.93279e-06
1.74111e-05 -1.93279e-06 0.000241254
0.00160431 2.11443e-05 3.75488e-06
2.11443e-05 0.000374405 -3.50382e-07
3.75488e-06 -3.50382e-07 0.000342591
0.00125212 1.53116e-05 4.56134e-06
1.53116e-05 0.000183428 -8.77992e-07
4.56134e-06 -8.77992e-07 0.000152781
0.00119299 1.95369e-05 4.40002e-06
1.95369e-05 0.000150338 -1.29165e-06
4.40002e-06 -1.29165e-06 0.000125815
0.00144411 -2.13911e-06 1.2112e-06
-2.13911e-06 0.000210406 -2.69808e-07
1.2112e-06 -2.69808e-07 0.000160552
0.00120247 3.84704e-06 1.76781e-06
3.84704e-06 0.000110659 -4.16978e-07
1.76781e-06 -4.16978e-07 6.44727e-05
0.00124409 2.09816e-05 1.10838e-05
2.09816e-05 0.000149211 -4.72223e-06
1.10838e-05 -4.72223e-06 0.000157172
0.00112864 1.86844e-05 4.23818e-06
1.86844e-05 9.83875e-05 -1.9506e-06
4.23818e-06 -1.9506e-06 8.71189e-05
0.00137551 5.88752e-06 1.55222e-06
5.88752e-06 0.000207306 -4.57869e-07
1.55222e-06 -4.57869e-07 0.00016683
0.00112239 -1.4391e-05 9.29788e-07
-1.4391e-05 4.35449e-05 -3.04047e-07
9.29788e-07 -3.04047e-07 -1.2218e-05
0.002898 -3.37306e-05 -1.1465e-05
-3.37306e-05 0.000992136 -2.32645e-06
-1.1465e-05 -2.32645e-06 0.000998099
0.00251676 -2.66258e-05 -9.70516e-06
-2.66258e-05 0.000773886 -2.97614e-06
-9.70516e-06 -2.97614e-06 0.000788465
0.00268442 -3.02878e-05 -1.0551e-05
-3.02878e-05 0.000870553 -2.66978e-06
-1.0551e-05 -2.66978e-06 0.000881308
0.000812981 -1.72986e-05 -4.35573e-06
-1.72986e-05 -5.7217e-05 -2.34612e-06
-4.35573e-06 -2.34612e-06 -6.89994e-05
0.00289511 -3.41998e-05 1.67504e-07
-3.41998e-05 0.00100547 -1.09869e-07
1.67504e-07 -1.09869e-07 0.00100829
0.00268947 -3.15682e-05 1.29992e-07
-3.15682e-05 0.000883662 -8.03971e-08
1.29992e-07 -8.03971e-08 0.000891947
0.00082935 -1.84135e-05 1.20754e-07
-1.84135e-05 -3.47701e-05 -7.02552e-08
1.20754e-07 -7.02552e-08 -5.73896e-05
0.00176156 -2.25254e-05 -3.168e-06
-2.25254e-05 0.000397713 -1.01968e-06
-3.168e-06 -1.01968e-06 0.000410954
0.000861838 -1.79679e-05 2.94067e-08
-1.79679e-05 -2.79496e-05 -3.07012e-08
2.94067e-08 -3.07012e-08 -4.28698e-05
0.00121418 -1.79819e-05 1.67365e-06
-1.79819e-05 0.000133012 4.88396e-07
1.67365e-06 4.88396e-07 0.000125255
0.000982268 -4.60545e-06 1.08412e-07
-4.60545e-06 1.19455e-05 -8.55748e-08
1.08412e-07 -8.55748e-08 -2.8463e-05
0.00236359 -2.26148e-05 9.2478e-06
-2.26148e-05 0.000686665 3.24683e-06
9.2478e-06 3.24683e-06 0.000704058
0.000922412 -1.36187e-05 3.56472e-06
-1.36187e-05 -2.74387e-05 2.69344e-06
3.56472e-06 2.69344e-06 -3.24188e-05
0.000762706 -1.47302e-05 6.49801e-06
-1.47302e-05 -6.31671e-05 2.23401e-06
6.49801e-06 2.23401e-06 -9.00753e-05
0.000826217 -1.85776e-05 5.97704e-06
-1.85776e-05 -3.95774e-05 2.86033e-06
5.97704e-06 2.86033e-06 -5.88062e-05
0.00099237 2.89553e-06 2.32185e-06
2.89553e-06 2.36359e-06 7.81093e-07
2.32185e-06 7.81093e-07 -4.62683e-05
0.0015604 -1.81448e-05 6.16298e-06
-1.81448e-05 0.000295298 2.40608e-06
6.16298e-06 2.40608e-06 0.000291203
0.000996088 3.11359e-07 2.42544e-06
3.11359e-07 1.45501e-05 1.06586e-06
2.42544e-06 1.06586e-06 -2.82651e-05
0.000996432 -8.1445e-06 2.31318e-06
-8.1445e-06 1.85854e-05 1.43056e-06
2.31318e-06 1.43056e-06 -1.88754e-05
0.00104375 1.01283e-05 1.20597e-06
1.01283e-05 2.74181e-05 3.32383e-07
1.20597e-06 3.32383e-07 -2.57873e-05
0.00238996 -1.88029e-05 8.70983e-06
-1.88029e-05 0.000688778 3.59119e-06
8.70983e-06 3.59119e-06 0.000707775
0.00243013 -2.07497e-05 1.5614e-07
-2.07497e-05 0.000712684 -5.87688e-08
1.5614e-07 -5.87688e-08 0.000730808
0.00304755 -3.60518e-05 -1.33715e-05
-3.60518e-05 0.00110663 -1.52467e-06
-1.33715e-05 -1.52467e-06 0.00110447
0.00300853 -3.47049e-05 -1.46005e-05
-3.47049e-05 0.00111871 -8.38818e-07
-1.46005e-05 -8.38818e-07 0.00111187
0.00304644 -3.28182e-05 9.35971e-07
-3.28182e-05 0.00114589 -1.66178e-07
9.35971e-07 -1.66178e-07 0.00113741
0.00203928 -2.87981e-05 -4.83642e-06
-2.87981e-05 0.000638222 -4.25482e-07
-4.83642e-06 -4.25482e-07 0.000627003
0.00117431 -1.7745e-05 2.76602e-06
-1.7745e-05 0.000171317 6.59337e-08
2.76602e-06 6.59337e-08 0.000135357
0.00208918 -3.05401e-05 -4.3687e-06
-3.05401e-05 0.000625818 -6.63056e-07
-4.3687e-06 -6.63056e-07 0.000620749
0.00122364 -1.83449e-05 2.31275e-06
-1.83449e-05 0.000178297 1.91245e-07
2.31275e-06 1.91245e-07 0.000148135
0.00309169 -2.93153e-06 1.51618e-05
-2.93153e-06 0.00116908 -5.74426e-08
1.51618e-05 -5.74426e-08 0.00116032
0.000723101 -1.34614e-05 4.97053e-06
-1.34614e-05 -4.71068e-05 1.75278e-07
4.97053e-06 1.75278e-07 -8.8082e-05
0.00157125 -2.45197e-05 9.71924e-06
-2.45197e-05 0.000358243 1.16883e-06
9.71924e-06 1.16883e-06 0.000327904
0.00101377 -1.47467e-05 1.89314e-06
-1.47467e-05 1.02754e-05 1.80569e-07
1.89314e-06 1.80569e-07 -4.61484e-05
0.00166424 -1.91786e-05 7.44335e-06
-1.91786e-05 0.000382877 1.0406e-06
7.44335e-06 1.0406e-06 0.000358431
0.00101624 -1.51156e-06 2.01404e-06
-1.51156e-06 7.56419e-06 3.49566e-07
2.01404e-06 3.49566e-07 -4.51266e-05
0.00115999 1.92443e-05 -1.4651e-05
1.92443e-05 0.000216189 6.13625e-07
-1.4651e-05 6.13625e-07 0.000197511
0.00121156 2.57126e-05 -4.48771e-06
2.57126e-05 0.000209925 5.60822e-07
-4.48771e-06 5.60822e-07 0.000195982
0.00110662 2.34109e-05 -3.16178e-06
2.34109e-05 9.26029e-05 9.4917e-07
-3.16178e-06 9.4917e-07 9.89751e-05
0.00116758 2.63302e-05 -3.94909e-06
2.63302e-05 0.00016216 6.91725e-07
-3.94909e-06 6.91725e-07 0.00015596
0.00126273 1.71148e-05 -8.45529e-06
1.71148e-05 0.000186727 1.66789e-06
-8.45529e-06 1.66789e-06 0.000158861
0.00121912 2.0704e-05 -7.60578e-06
2.0704e-05 0.000159363 1.96281e-06
-7.60578e-06 1.96281e-06 0.000138057
0.00117151 1.9262e-05 -6.84572e-06
1.9262e-05 0.000126949 2.29212e-06
-6.84572e-06 2.29212e-06 0.000112129
0.00141838 2.07504e-06 -3.4155e-06
2.07504e-06 0.000218488 1.43401e-06
-3.4155e-06 1.43401e-06 0.000174839
0.00306538 3.40435e-05 -8.59841e-07
3.40435e-05 0.00115241 -1.41603e-07
-8.59841e-07 -1.41603e-07 0.0011444
0.00124278 2.32743e-05 6.52939e-06
2.32743e-05 0.000239269 -7.85245e-07
6.52939e-06 -7.85245e-07 0.000222599
0.000952421 1.68067e-05 -3.77632e-06
1.68067e-05 5.53206e-05 2.23848e-07
-3.77632e-06 2.23848e-07 1.93621e-05
0.001262 1.51737e-05 -2.18412e-06
1.51737e-05 0.000188369 2.24421e-07
-2.18412e-06 2.24421e-07 0.000157723
0.00183756 2.37458e-05 5.97524e-06
2.37458e-05 0.000440423 -1.82956e-06
5.97524e-06 -1.82956e-06 0.000451807
0.00134402 1.94991e-05 -9.25506e-07
1.94991e-05 0.000203757 2.50578e-07
-9.25506e-07 2.50578e-07 0.000193748
0.00121505 1.99147e-05 -1.75608e-06
1.99147e-05 0.000161219 2.78752e-07
-1.75608e-06 2.78752e-07 0.000136684
0.00135608 -2.05763e-06 -8.7129e-07
-2.05763e-06 0.000166725 3.513e-07
-8.7129e-07 3.513e-07 0.000116147
0.00138983 4.68009e-06 -9.8683e-07
4.68009e-06 0.000212218 6.23358e-07
-9.8683e-07 6.23358e-07 0.000171459
0.00131541 3.21449e-06 -5.50321e-07
3.21449e-06 0.000164599 2.90053e-07
-5.50321e-07 2.90053e-07 0.000118758
0.00111096 -1.38828e-05 2.96576e-08
-1.38828e-05 3.85342e-05 -5.38837e-08
2.96576e-08 -5.38837e-08 -1.71714e-05
0.000711969 1.39167e-05 5.0503e-06
1.39167e-05 -5.51734e-05 -5.51647e-07
5.0503e-06 -5.51647e-07 -9.47897e-05
0.0012602 1.44404e-05 4.61364e-06
1.44404e-05 0.000194667 -6.23805e-07
4.61364e-06 -6.23805e-07 0.000162249
0.0012708 1.1877e-05 1.72407e-06
1.1877e-05 0.000121025 -1.00815e-07
1.72407e-06 -1.00815e-07 6.62334e-05
0.00129917 -1.85651e-06 1.69541e-06
-1.85651e-06 0.000130612 -3.65766e-07
1.69541e-06 -3.65766e-07 7.80071e-05
0.00122587 2.0878e-06 1.61415e-06
2.0878e-06 0.000114019 -4.56191e-07
1.61415e-06 -4.56191e-07 6.5472e-05
0.00137624 -1.55474e-05 2.83893e-07
-1.55474e-05 0.000132857 -2.09857e-07
2.83893e-07 -2.09857e-07 7.34194e-05
0.00253091 2.4673e-05 9.60531e-06
2.4673e-05 0.000770994 -3.15967e-06
9.60531e-06 -3.15967e-06 0.00078695
0.00114202 -1.38943e-05 7.40447e-07
-1.38943e-05 4.27366e-05 -1.52976e-07
7.40447e-07 -1.52976e-07 -1.32459e-05
0.000890239 1.69254e-05 4.10426e-06
1.69254e-05 -2.78176e-05 -2.25323e-06
4.10426e-06 -2.25323e-06 -3.7046e-05
0.000965822 7.74488e-06 2.19321e-06
7.74488e-06 8.23804e-06 -1.1954e-06
2.19321e-06 -1.1954e-06 -3.17667e-05
0.0011198 -1.39016e-05 9.64419e-07
-1.39016e-05 5.45365e-05 -5.86763e-07
9.64419e-07 -5.86763e-07 -1.01893e-06
0.00118485 -2.13333e-05 4.79702e-07
-2.13333e-05 5.4928e-05 6.74543e-08
4.79702e-07 6.74543e-08 -4.75421e-06
0.000882627 1.43389e-05 3.6771e-06
1.43389e-05 -4.46036e-05 -2.62061e-06
3.6771e-06 -2.62061e-06 -5.08485e-05
0.000989667 7.70394e-06 2.1473e-06
7.70394e-06 1.44634e-06 -1.67706e-06
2.1473e-06 -1.67706e-06 -3.21748e-05
0.00300536 -3.50807e-05 -1.22578e-05
-3.50807e-05 0.00105514 -2.11923e-06
-1.22578e-05 -2.11923e-06 0.00105836
0.00277849 -3.20605e-05 -1.08965e-05
-3.20605e-05 0.000925008 -2.48835e-06
-1.08965e-05 -2.48835e-06 0.000933532
0.000738086 -1.88821e-05 -4.70053e-06
-1.88821e-05 -7.69644e-05 -1.94012e-06
-4.70053e-06 -1.94012e-06 -9.96987e-05
0.00248609 -2.46978e-05 -9.56879e-06
-2.46978e-05 0.000751449 -3.14525e-06
-9.56879e-06 -3.14525e-06 0.000767497
0.000838833 -1.68402e-05 -4.07495e-06
-1.68402e-05 -5.05552e-05 -2.41739e-06
-4.07495e-06 -2.41739e-06 -5.95594e-05
0.000780312 -1.76189e-05 -4.65648e-06
-1.76189e-05 -6.68544e-05 -2.13004e-06
-4.65648e-06 -2.13004e-06 -8.16672e-05
0.000973884 -5.6148e-06 -2.38109e-06
-5.6148e-06 9.31243e-06 -1.41698e-06
-2.38109e-06 -1.41698e-06 -3.13106e-05
0.00242392 -2.2678e-05 1.50865e-07
-2.2678e-05 0.000715276 -6.42886e-08
1.50865e-07 -6.42886e-08 0.000732535
0.000908058 -1.35757e-05 8.05602e-08
-1.35757e-05 -3.45724e-05 -3.62351e-08
8.05602e-08 -3.62351e-08 -3.94657e-05
0.00121853 -1.79114e-05 2.15291e-06
-1.79114e-05 0.000160081 2.92388e-07
2.15291e-06 2.92388e-07 0.000135844
0.00120331 -2.01051e-05 1.86498e-06
-2.01051e-05 0.000145114 4.34461e-07
1.86498e-06 4.34461e-07 0.000128232
0.000996681 3.17579e-06 -3.56905e-08
3.17579e-06 5.1994e-06 -1.2445e-07
-3.56905e-08 -1.2445e-07 -4.35669e-05
0.000911095 -1.60655e-05 1.78859e-08
-1.60655e-05 -2.27897e-05 -2.18574e-08
1.78859e-08 -2.18574e-08 -2.96922e-05
0.000985468 -4.47982e-07 -2.32971e-08
-4.47982e-07 1.13114e-05 3.69479e-09
-2.32971e-08 3.69479e-09 -3.17216e-05
0.00097898 -9.52233e-06 8.72604e-08
-9.52233e-06 1.11087e-05 -2.1369e-10
8.72604e-08 -2.1369e-10 -2.64581e-05
0.000995603 1.02816e-05 -3.60029e-08
1.02816e-05 3.52155e-06 -1.18418e-07
-3.60029e-08 -1.18418e-07 -5.00319e-05
0.000916481 -1.48426e-05 3.87153e-06
-1.48426e-05 -2.59836e-05 2.52091e-06
3.87153e-06 2.52091e-06 -3.17047e-05
0.000928986 -1.24432e-05 3.22837e-06
-1.24432e-05 -2.7833e-05 2.8504e-06
3.22837e-06 2.8504e-06 -3.21523e-05
0.000998889 -1.05383e-05 2.21375e-06
-1.05383e-05 7.61463e-06 1.57522e-06
2.21375e-06 1.57522e-06 -2.49418e-05
0.00099401 1.63962e-06 2.23355e-06
1.63962e-06 -3.07076e-06 5.33754e-07
2.23355e-06 5.33754e-07 -5.3245e-05
0.000998055 2.85864e-06 2.35664e-06
2.85864e-06 1.21948e-05 1.03427e-06
2.35664e-06 1.03427e-06 -3.37846e-05
0.00113096 1.59364e-05 9.99279e-07
1.59364e-05 3.26097e-05 4.216e-07
9.99279e-07 4.216e-07 -2.48965e-05
0.000999965 -1.14996e-05 2.24019e-06
-1.14996e-05 1.61648e-05 1.50826e-06
2.24019e-06 1.50826e-06 -1.84405e-05
0.000984786 1.34401e-05 9.91317e-07
1.34401e-05 -1.18172e-05 3.96377e-07
9.91317e-07 3.96377e-07 -6.59712e-05
0.00106684 6.63402e-06 1.23281e-06
6.63402e-06 4.48821e-05 6.54961e-07
1.23281e-06 6.54961e-07 -8.12157e-06
0.00120208 2.22033e-05 1.36306e-07
2.22033e-05 9.52767e-05 -2.03462e-07
1.36306e-07 -2.03462e-07 3.66002e-05
0.00239204 -1.69172e-05 8.25696e-06
-1.69172e-05 0.00068559 3.72049e-06
8.25696e-06 3.72049e-06 0.000705274
0.00242919 -1.88366e-05 1.61643e-07
-1.88366e-05 0.000707593 -5.29721e-08
1.61643e-07 -5.29721e-08 0.000726476
0.00248055 -2.08055e-05 -9.05109e-06
-2.08055e-05 0.000736764 -3.49651e-06
-9.05109e-06 -3.49651e-06 0.000754753
0.000893183 1.31445e-05 3.34367e-06
1.31445e-05 -4.34445e-05 -2.78658e-06
3.34367e-06 -2.78658e-06 -4.88563e-05
0.00253004 2.26803e-05 9.42558e-06
2.26803e-05 0.000764137 -3.34742e-06
9.42558e-06 -3.34742e-06 0.000781159
0.003053 -3.58888e-05 -1.2895e-05
-3.58888e-05 0.00109252 -1.84192e-06
-1.2895e-05 -1.84192e-06 0.00109302
0.00301994 -3.55694e-05 -1.39035e-05
-3.55694e-05 0.00111024 -1.18662e-06
-1.39035e-05 -1.18662e-06 0.00110557
0.000715202 -1.35667e-05 -4.82122e-06
-1.35667e-05 -6.66149e-05 -1.07634e-06
-4.82122e-06 -1.07634e-06 -9.97088e-05
0.000707216 -1.17654e-05 -4.9235e-06
-1.17654e-05 -5.45006e-05 -7.5342e-07
-4.9235e-06 -7.5342e-07 -9.35834e-05
0.00303856 -3.38308e-05 -1.50788e-05
-3.38308e-05 0.00114137 -4.5348e-07
-1.50788e-05 -4.5348e-07 0.00113303
0.00307973 2.25197e-06 -6.25222e-08
2.25197e-06 0.00116336 -7.15504e-08
-6.25222e-08 -7.15504e-08 0.00115463
0.000712744 -1.11999e-05 4.65253e-08
-1.11999e-05 -5.12608e-05 -1.61739e-07
4.65253e-08 -1.61739e-07 -9.22343e-05
0.00120585 -1.82519e-05 2.482e-06
-1.82519e-05 0.000179425 1.43435e-07
2.482e-06 1.43435e-07 0.00014637
0.00102914 -1.34996e-05 1.67424e-08
-1.34996e-05 1.70722e-05 -4.20163e-08
1.67424e-08 -4.20163e-08 -3.93524e-05
0.000793611 -1.49278e-05 4.21829e-08
-1.49278e-05 -4.12796e-05 -8.43434e-08
4.21829e-08 -8.43434e-08 -7.10029e-05
0.00101998 -1.33067e-06 -5.6611e-08
-1.33067e-06 9.17088e-06 -3.22972e-08
-5.6611e-08 -3.22972e-08 -4.35414e-05
0.000707415 -1.2159e-06 5.05168e-06
-1.2159e-06 -5.46459e-05 -3.19487e-07
5.05168e-06 -3.19487e-07 -9.56438e-05
0.00101942 -1.20716e-05 1.78891e-06
-1.20716e-05 1.18952e-05 -4.66498e-08
1.78891e-06 -4.66498e-08 -4.57851e-05
0.00101937 -7.43865e-06 1.92386e-06
-7.43865e-06 1.12716e-05 2.99692e-07
1.92386e-06 2.99692e-07 -4.3159e-05
0.00114621 -1.63e-05 8.17011e-07
-1.63e-05 3.60311e-05 -1.53372e-07
8.17011e-07 -1.53372e-07 -2.66018e-05
0.00100409 1.32204e-07 2.1064e-06
1.32204e-07 3.76183e-07 4.18761e-07
2.1064e-06 4.18761e-07 -5.09643e-05
0.00118122 5.54727e-07 8.27745e-07
5.54727e-07 4.51111e-05 1.47382e-07
8.27745e-07 1.47382e-07 -1.46393e-05
0.00303817 3.2897e-05 -1.63345e-05
3.2897e-05 0.00114066 2.19355e-07
-1.63345e-05 2.19355e-07 0.00113251
0.00120304 2.47152e-05 -4.6309e-06
2.47152e-05 0.000220895 4.18437e-07
-4.6309e-06 4.18437e-07 0.000204271
0.00029004 1.31944e-05 -7.00776e-06
1.31944e-05 -0.000268695 9.35839e-07
-7.00776e-06 9.35839e-07 -0.000308834
0.0012726 1.48764e-05 -9.01364e-06
1.48764e-05 0.000193645 1.40782e-06
-9.01364e-06 1.40782e-06 0.000163004
0.00242815 2.73967e-05 -4.2061e-06
2.73967e-05 0.000730354 1.15662e-06
-4.2061e-06 1.15662e-06 0.000745124
0.00155763 2.0411e-05 -6.67105e-06
2.0411e-05 0.000308276 2.37402e-06
-6.67105e-06 2.37402e-06 0.000299527
0.00124152 2.01364e-05 -7.96229e-06
2.01364e-05 0.000174211 1.81188e-06
-7.96229e-06 1.81188e-06 0.000149656
0.00126336 -1.90421e-06 -2.92236e-06
-1.90421e-06 0.000120841 1.05744e-06
-2.92236e-06 1.05744e-06 6.95411e-05
0.00142824 2.62837e-06 -2.79672e-06
2.62837e-06 0.000218514 9.54612e-07
-2.79672e-06 9.54612e-07 0.000173014
0.00140593 3.51447e-06 -3.44852e-06
3.51447e-06 0.000217964 1.71442e-06
-3.44852e-06 1.71442e-06 0.000176922
0.00109917 -1.3419e-05 -8.16326e-07
-1.3419e-05 3.3349e-05 1.76085e-07
-8.16326e-07 1.76085e-07 -2.22996e-05
0.000709286 1.50707e-05 -6.5386e-08
1.50707e-05 -5.68011e-05 -6.84218e-08
-6.5386e-08 -6.84218e-08 -9.64136e-05
0.00126147 1.41284e-05 -2.34415e-06
1.41284e-05 0.000194968 1.98983e-07
-2.34415e-06 1.98983e-07 0.0001626
0.0010744 1.35373e-05 -4.13982e-07
1.35373e-05 2.47645e-05 5.33319e-08
-4.13982e-07 5.33319e-08 -3.13173e-05
0.00139093 -2.8114e-06 -4.03246e-07
-2.8114e-06 0.000174996 1.04094e-07
-4.03246e-07 1.04094e-07 0.000122814
0.0024645 2.45676e-05 -1.40169e-07
2.45676e-05 0.000739857 -6.59661e-08
-1.40169e-07 -6.59661e-08 0.000755882
0.00122953 1.83077e-05 2.54249e-07
1.83077e-05 0.000138588 -6.4972e-08
2.54249e-07 -6.4972e-08 0.000130743
0.00118311 7.32639e-06 6.2054e-08
7.32639e-06 0.000112425 1.19341e-08
6.2054e-08 1.19341e-08 7.37364e-05
0.00123797 1.73847e-06 -4.89445e-07
1.73847e-06 0.000119607 2.19411e-07
-4.89445e-07 2.19411e-07 7.10511e-05
0.00122099 -1.46058e-05 -4.32675e-07
-1.46058e-05 5.72796e-05 2.24423e-07
-4.32675e-07 2.24423e-07 -2.91695e-06
0.00102531 -1.26401e-05 -2.78991e-08
-1.26401e-05 1.04612e-05 -1.03806e-07
-2.78991e-08 -1.03806e-07 -4.52941e-05
0.00123198 -1.4019e-05 2.95464e-08
-1.4019e-05 8.58276e-05 2.92639e-08
2.95464e-08 2.92639e-08 3.02545e-05
0.00117636 -2.11775e-05 7.47067e-08
-2.11775e-05 5.11327e-05 -3.23362e-09
7.47067e-08 -3.23362e-09 -8.46022e-06
0.000897284 1.43946e-05 -5.94535e-08
1.43946e-05 -3.72323e-05 -4.01768e-08
-5.94535e-08 -4.01768e-08 -4.35864e-05
0.000992502 8.1303e-06 -9.17912e-08
8.1303e-06 3.12761e-06 -4.00713e-08
-9.17912e-08 -4.00713e-08 -3.05159e-05
0.00101426 1.35044e-05 1.98624e-06
1.35044e-05 3.68191e-06 -1.97535e-07
1.98624e-06 -1.97535e-07 -5.333e-05
0.00129497 4.38776e-06 1.74174e-06
4.38776e-06 0.000127058 -2.53502e-07
1.74174e-06 -2.53502e-07 7.3254e-05
0.00138555 1.39316e-05 5.28504e-07
1.39316e-05 0.000133331 3.05617e-08
5.28504e-07 3.05617e-08 7.07965e-05
0.00114875 -9.93933e-06 1.12303e-06
-9.93933e-06 1.16985e-05 -5.45257e-07
1.12303e-06 -5.45257e-07 -5.08034e-05
0.00126137 -1.43181e-05 3.90946e-07
-1.43181e-05 9.15756e-05 -2.45376e-07
3.90946e-07 -2.45376e-07 3.4746e-05
0.00133738 -1.6027e-05 -3.01884e-07
-1.6027e-05 9.4798e-05 -1.64527e-07
-3.01884e-07 -1.64527e-07 3.16549e-05
0.000867627 1.56217e-05 3.9199e-06
1.56217e-05 -4.59462e-05 -2.42603e-06
3.9199e-06 -2.42603e-06 -5.34147e-05
0.00119705 -1.96757e-05 1.18082e-07
-1.96757e-05 4.96822e-05 7.62336e-08
1.18082e-07 7.62336e-08 -9.41935e-06
0.000954987 1.0522e-05 2.26527e-06
1.0522e-05 -1.16719e-06 -1.21507e-06
2.26527e-06 -1.21507e-06 -3.86012e-05
0.000892869 -9.43473e-06 1.17157e-06
-9.43473e-06 -4.28664e-05 -8.55524e-07
1.17157e-06 -8.55524e-07 -9.71824e-05
0.0013597 -2.43169e-05 2.68426e-07
-2.43169e-05 0.000153268 -1.13484e-07
2.68426e-07 -1.13484e-07 9.28375e-05
0.00123662 -2.35031e-05 -6.20761e-08
-2.35031e-05 7.02067e-05 6.77837e-07
-6.20761e-08 6.77837e-07 9.90463e-06
0.00097676 8.91629e-06 2.34506e-06
8.91629e-06 -1.71961e-06 -1.49381e-06
2.34506e-06 -1.49381e-06 -3.59237e-05
0.000996127 7.36289e-06 1.86227e-06
7.36289e-06 2.76957e-06 -1.78512e-06
1.86227e-06 -1.78512e-06 -3.02463e-05
0.00106237 -5.40836e-06 1.24355e-06
-5.40836e-06 3.32677e-05 -8.23796e-07
1.24355e-06 -8.23796e-07 -1.81177e-05
0.000736945 -1.71799e-05 -4.76506e-06
-1.71799e-05 -7.32042e-05 -1.65032e-06
-4.76506e-06 -1.65032e-06 -9.98217e-05
0.00248408 -2.27498e-05 -9.37988e-06
-2.27498e-05 0.000743803 -3.33112e-06
-9.37988e-06 -3.33112e-06 0.000760928
0.000893966 -1.3534e-05 -3.36415e-06
-1.3534e-05 -4.15868e-05 -2.79086e-06
-3.36415e-06 -2.79086e-06 -4.63928e-05
0.000748437 -1.81397e-05 -4.6867e-06
-1.81397e-05 -7.60188e-05 -2.03134e-06
-4.6867e-06 -2.03134e-06 -9.45423e-05
0.00100163 3.23698e-06 -2.25936e-06
3.23698e-06 8.31581e-06 -9.85361e-07
-2.25936e-06 -9.85361e-07 -4.05879e-05
0.000864959 -1.59336e-05 -3.92712e-06
-1.59336e-05 -4.49399e-05 -2.46005e-06
-3.92712e-06 -2.46005e-06 -5.1727e-05
0.000962184 -1.14083e-05 -2.18352e-06
-1.14083e-05 3.9868e-06 -1.57366e-06
-2.18352e-06 -1.57366e-06 -3.36999e-05
0.000974592 -1.27402e-06 -2.45361e-06
-1.27402e-06 7.96683e-06 -1.09369e-06
-2.45361e-06 -1.09369e-06 -3.52841e-05
0.000946298 1.0416e-05 -1.23215e-06
1.0416e-05 -2.09576e-05 -5.44533e-07
-1.23215e-06 -5.44533e-07 -7.48551e-05
0.000900227 -1.47937e-05 6.34459e-08
-1.47937e-05 -3.39749e-05 -4.25282e-08
6.34459e-08 -4.25282e-08 -3.96071e-05
0.000915688 -1.24086e-05 8.3221e-08
-1.24086e-05 -3.44357e-05 -2.81435e-08
8.3221e-08 -2.81435e-08 -3.86706e-05
0.000993066 -1.01996e-05 7.69059e-08
-1.01996e-05 4.59247e-06 -3.67121e-08
7.69059e-08 -3.67121e-08 -2.79282e-05
0.00100704 2.22536e-06 -5.18124e-08
2.22536e-06 3.13658e-06 -9.20872e-08
-5.18124e-08 -9.20872e-08 -4.71199e-05
0.000989133 2.30229e-06 -4.36621e-08
2.30229e-06 9.65518e-06 -4.18704e-08
-4.36621e-08 -4.18704e-08 -3.65031e-05
0.00114122 1.6288e-05 6.88275e-08
1.6288e-05 3.73299e-05 2.40058e-08
6.88275e-08 2.40058e-08 -2.02171e-05
0.000981523 -1.23204e-05 -5.21107e-08
-1.23204e-05 7.64914e-06 4.89427e-08
-5.21107e-08 4.89427e-08 -2.69583e-05
0.00104235 1.44039e-05 -5.12796e-08
1.44039e-05 1.59005e-05 -6.24209e-08
-5.12796e-08 -6.24209e-08 -3.80061e-05
0.00106088 6.42166e-06 4.53937e-08
6.42166e-06 4.23521e-05 -1.26946e-07
4.53937e-08 -1.26946e-07 -1.07742e-05
0.00111336 2.1646e-05 -4.3493e-07
2.1646e-05 5.23291e-05 5.86443e-08
-4.3493e-07 5.86443e-08 -6.74728e-06
0.000935275 -1.13018e-05 2.88692e-06
-1.13018e-05 -2.81251e-05 2.96783e-06
2.88692e-06 2.96783e-06 -3.1778e-05
0.000997527 -1.15485e-05 2.33113e-06
-1.15485e-05 9.90114e-06 1.45642e-06
2.33113e-06 1.45642e-06 -2.31376e-05
0.00100318 -9.38278e-06 1.99962e-06
-9.38278e-06 7.40834e-06 1.71622e-06
1.99962e-06 1.71622e-06 -2.4716e-05
0.00106045 -6.71934e-07 1.33944e-06
-6.71934e-07 3.34235e-05 7.81274e-07
1.33944e-06 7.81274e-07 -1.65869e-05
0.00114142 1.12573e-05 1.06779e-06
1.12573e-05 2.69067e-05 1.62263e-07
1.06779e-06 1.62263e-07 -3.10535e-05
0.00111591 1.6912e-05 9.98436e-07
1.6912e-05 4.08071e-05 6.30942e-07
9.98436e-07 6.30942e-07 -1.50167e-05
0.00118981 1.9785e-05 5.07315e-07
1.9785e-05 4.31048e-05 3.72256e-07
5.07315e-07 3.72256e-07 -1.85004e-05
0.00107869 4.01061e-06 1.21572e-06
4.01061e-06 4.79226e-05 9.17166e-07
1.21572e-06 9.17166e-07 -3.35999e-06
0.00110397 2.21658e-05 1.98905e-07
2.21658e-05 3.28969e-05 2.48329e-07
1.98905e-07 2.48329e-07 -2.59179e-05
0.00111322 2.05952e-05 7.88654e-07
2.05952e-05 6.27783e-05 -3.26453e-08
7.88654e-07 -3.26453e-08 1.33621e-06
0.0010697 2.40762e-05 2.97688e-07
2.40762e-05 2.39427e-05 -1.62623e-07
2.97688e-07 -1.62623e-07 -3.83409e-05
0.0010163 -5.43908e-06 1.09386e-06
-5.43908e-06 6.12427e-06 1.91098e-06
1.09386e-06 1.91098e-06 -2.32361e-05
0.000942657 -9.04288e-06 2.20334e-06
-9.04288e-06 -3.12491e-05 3.12264e-06
2.20334e-06 3.12264e-06 -3.35284e-05
0.00238848 -1.5038e-05 7.69046e-06
-1.5038e-05 0.000679847 3.82805e-06
7.69046e-06 3.82805e-06 0.000700211
0.00242121 -1.69418e-05 1.72431e-07
-1.69418e-05 0.00069957 -4.71238e-08
1.72431e-07 -4.71238e-08 0.000719174
0.00246836 -1.88796e-05 -8.60256e-06
-1.88796e-05 0.00072639 -3.63583e-06
-8.60256e-06 -3.63583e-06 0.00074516
0.00090143 1.2079e-05 2.988e-06
1.2079e-05 -4.25066e-05 -2.88628e-06
2.988e-06 -2.88628e-06 -4.72098e-05
0.00251749 2.06984e-05 9.08484e-06
2.06984e-05 0.00075322 -3.5034e-06
9.08484e-06 -3.5034e-06 0.000771106
0.000906051 1.31848e-05 -8.56368e-08
1.31848e-05 -3.69498e-05 -3.59694e-08
-8.56368e-08 -3.59694e-08 -4.24611e-05
0.00246974 2.26119e-05 -1.46628e-07
2.26119e-05 0.000735534 -6.23002e-08
-1.46628e-07 -6.23002e-08 0.000752679
0.000725826 -1.43333e-05 -4.8601e-06
-1.43333e-05 -7.11672e-05 -1.3263e-06
-4.8601e-06 -1.3263e-06 -0.000101134
0.000710642 -1.25758e-05 -4.81047e-06
-1.25758e-05 -5.9171e-05 -8.87607e-07
-4.81047e-06 -8.87607e-07 -9.5351e-05
0.00102204 -1.34825e-06 -2.01073e-06
-1.34825e-06 9.98617e-06 -4.02174e-07
-2.01073e-06 -4.02174e-07 -4.27452e-05
0.00104837 -1.36206e-05 -1.90322e-06
-1.36206e-05 2.57122e-05 -2.93543e-07
-1.90322e-06 -2.93543e-07 -3.07468e-05
0.000704635 -7.50481e-06 -5.05665e-06
-7.50481e-06 -5.44876e-05 -5.00019e-07
-5.05665e-06 -5.00019e-07 -9.54215e-05
0.00307087 4.30405e-06 -1.54289e-05
4.30405e-06 0.00115907 -3.11059e-09
-1.54289e-05 -3.11059e-09 0.00115026
0.000706414 2.79897e-06 -2.2527e-08
2.79897e-06 -5.514e-05 -1.71557e-07
-2.2527e-08 -1.71557e-07 -9.61495e-05
0.00103556 -8.46348e-06 -3.36449e-08
-8.46348e-06 1.91711e-05 -8.80042e-08
-3.36449e-08 -8.80042e-08 -3.84854e-05
0.00102371 -8.22558e-06 -3.10989e-08
-8.22558e-06 1.31131e-05 -1.69194e-08
-3.10989e-08 -1.69194e-08 -4.13532e-05
0.00116787 -1.74581e-05 -1.59186e-08
-1.74581e-05 4.57031e-05 -6.19575e-08
-1.59186e-08 -6.19575e-08 -1.70151e-05
0.00101447 9.20269e-07 -6.62359e-08
9.20269e-07 5.12259e-06 -4.13469e-08
-6.62359e-08 -4.13469e-08 -4.6254e-05
0.0011814 2.45547e-06 -1.90878e-08
2.45547e-06 4.55246e-05 7.91531e-09
-1.90878e-08 7.91531e-09 -1.42384e-05
0.00104076 2.61824e-06 1.86847e-06
2.61824e-06 1.94892e-05 -2.37376e-07
1.86847e-06 -2.37376e-07 -3.82217e-05
0.00115016 -7.21869e-06 5.6509e-07
-7.21869e-06 4.16804e-05 -1.14747e-07
5.6509e-07 -1.14747e-07 -2.16404e-05
0.00117402 -6.81021e-06 8.97957e-07
-6.81021e-06 4.41464e-05 3.93825e-08
8.97957e-07 3.93825e-08 -1.71692e-05
0.00124968 -2.01849e-05 4.55018e-07
-2.01849e-05 6.76024e-05 -5.07846e-07
4.55018e-07 -5.07846e-07 2.64741e-06
0.00116716 7.16486e-06 8.08821e-07
7.16486e-06 3.71173e-05 8.38633e-08
8.08821e-07 8.38633e-08 -2.13765e-05
0.00123591 1.96933e-06 1.79141e-07
1.96933e-06 5.37504e-05 1.87987e-07
1.79141e-07 1.87987e-07 -8.05997e-06
0.000710366 1.63554e-05 -4.93813e-06
1.63554e-05 -5.67429e-05 4.13877e-07
-4.93813e-06 4.13877e-07 -9.63438e-05
0.00126187 1.35679e-05 -9.43055e-06
1.35679e-05 0.000194844 1.02385e-06
-9.43055e-06 1.02385e-06 0.000162535
0.000879885 1.4476e-05 -2.55661e-06
1.4476e-05 -7.06848e-05 3.1454e-07
-2.55661e-06 3.1454e-07 -0.000128022
0.00148385 -3.65351e-06 -2.51619e-06
-3.65351e-06 0.000219869 6.195e-07
-2.51619e-06 6.195e-07 0.000168114
0.00239902 2.44547e-05 -9.42253e-06
2.44547e-05 0.000709145 3.07389e-06
-9.42253e-06 3.07389e-06 0.00072524
0.00156952 1.92287e-05 -6.28902e-06
1.92287e-05 0.000305269 2.16561e-06
-6.28902e-06 2.16561e-06 0.000298828
0.00140161 6.77595e-06 -2.58549e-06
6.77595e-06 0.000217219 1.10574e-06
-2.58549e-06 1.10574e-06 0.000179846
0.00124782 1.49124e-06 -2.5467e-06
1.49124e-06 0.000124097 8.63341e-07
-2.5467e-06 8.63341e-07 7.5534e-05
0.00106585 -1.36804e-05 -1.14761e-06
-1.36804e-05 -1.82384e-05 7.55151e-07
-1.14761e-06 7.55151e-07 -7.91951e-05
0.00132098 -1.41958e-05 -6.86139e-07
-1.41958e-05 0.000128448 1.62107e-07
-6.86139e-07 1.62107e-07 7.32864e-05
0.000928616 -1.1267e-05 -9.52258e-07
-1.1267e-05 -3.4634e-05 4.17436e-07
-9.52258e-07 4.17436e-07 -9.05885e-05
0.0011667 -2.10096e-05 -2.83438e-07
-2.10096e-05 4.67973e-05 -9.42422e-08
-2.83438e-07 -9.42422e-08 -1.27064e-05
0.00091226 1.44492e-05 -3.83804e-06
1.44492e-05 -2.97235e-05 2.51234e-06
-3.83804e-06 2.51234e-06 -3.61849e-05
0.00099543 8.57871e-06 -2.2055e-06
8.57871e-06 4.84689e-06 1.54642e-06
-2.2055e-06 1.54642e-06 -2.88188e-05
0.000941815 1.53318e-05 6.99086e-08
1.53318e-05 -3.17368e-05 4.15818e-08
6.99086e-08 4.15818e-08 -8.92658e-05
0.00129063 2.5882e-06 -4.02435e-07
2.5882e-06 0.000124704 8.51085e-08
-4.02435e-07 8.51085e-08 7.09443e-05
0.00131209 1.58756e-05 -4.3277e-07
1.58756e-05 9.84757e-05 1.53927e-08
-4.3277e-07 1.53927e-08 3.57955e-05
0.00128803 -1.09529e-05 2.35358e-07
-1.09529e-05 7.99538e-05 -2.00422e-07
2.35358e-07 -2.00422e-07 1.83402e-05
0.000887668 1.56837e-05 -3.36781e-08
1.56837e-05 -3.61082e-05 -3.61736e-08
-3.36781e-08 -3.61736e-08 -4.37008e-05
0.000976057 9.43745e-06 -4.7414e-09
9.43745e-06 7.98702e-06 1.49517e-08
-4.7414e-09 1.49517e-08 -2.93555e-05
0.000971315 -9.50178e-06 3.19738e-07
-9.50178e-06 -4.59342e-06 -2.62825e-07
3.19738e-07 -2.62825e-07 -5.83694e-05
0.0013086 -1.4625e-05 -2.1495e-07
-1.4625e-05 0.000113505 6.81745e-08
-2.1495e-07 6.81745e-08 5.68152e-05
0.00125043 -1.47577e-05 -1.8233e-07
-1.47577e-05 5.22673e-05 2.81403e-07
-1.8233e-07 2.81403e-07 -1.09102e-05
0.00120342 -2.28837e-05 -2.9661e-07
-2.28837e-05 7.88443e-05 1.13343e-07
-2.9661e-07 1.13343e-07 1.78212e-05
0.00119708 -1.9575e-05 5.2296e-08
-1.9575e-05 4.95307e-05 6.40175e-08
5.2296e-08 6.40175e-08 -9.52119e-06
0.00118617 -2.28941e-05 2.24282e-07
-2.28941e-05 4.57612e-05 2.20425e-07
2.24282e-07 2.20425e-07 -1.44967e-05
0.000986062 9.1563e-06 -2.70005e-08
9.1563e-06 2.914e-06 -3.23729e-08
-2.70005e-08 -3.23729e-08 -3.13014e-05
0.00100106 -4.77688e-06 -2.78505e-08
-4.77688e-06 2.40317e-06 -5.8383e-08
-2.78505e-08 -5.8383e-08 -4.92521e-05
0.000997085 7.77403e-06 -1.0577e-07
7.77403e-06 3.57725e-06 -2.05957e-08
-1.0577e-07 -2.05957e-08 -2.94865e-05
0.00136345 2.16018e-05 5.28414e-07
2.16018e-05 0.000135333 6.54419e-08
5.28414e-07 6.54419e-08 7.23559e-05
0.00131428 4.49832e-06 9.53798e-07
4.49832e-06 9.02862e-05 -3.52288e-08
9.53798e-07 -3.52288e-08 2.79268e-05
0.00129186 1.7565e-05 5.63917e-07
1.7565e-05 7.00103e-05 4.54534e-08
5.63917e-07 4.54534e-08 3.70572e-06
0.00131921 -6.28058e-06 6.48034e-08
-6.28058e-06 7.30828e-05 -5.57665e-07
6.48034e-08 -5.57665e-07 7.63233e-06
0.00115459 -1.79383e-05 -5.60418e-08
-1.79383e-05 2.12997e-05 -2.64699e-07
-5.60418e-08 -2.64699e-07 -3.86823e-05
0.00131732 -1.35948e-05 -8.42816e-07
-1.35948e-05 7.3648e-05 -7.6694e-09
-8.42816e-07 -7.6694e-09 1.18758e-05
0.000962649 1.06343e-05 2.34879e-06
1.06343e-05 -3.46841e-06 -1.32349e-06
2.34879e-06 -1.32349e-06 -3.88077e-05
0.00121004 -2.07294e-05 -5.14272e-07
-2.07294e-05 4.66775e-05 2.56154e-07
-5.14272e-07 2.56154e-07 -1.23804e-05
0.00104493 -7.09593e-06 9.96446e-07
-7.09593e-06 3.12069e-05 -4.29358e-07
9.96446e-07 -4.29358e-07 -2.0421e-05
0.000978301 -2.10131e-05 7.53059e-07
-2.10131e-05 -1.29556e-05 -8.04236e-07
7.53059e-07 -8.04236e-07 -7.38298e-05
0.00126548 -2.5869e-05 5.05183e-07
-2.5869e-05 9.97462e-05 4.09081e-07
5.05183e-07 4.09081e-07 3.54706e-05
0.00136742 -2.51604e-05 -7.96414e-07
-2.51604e-05 0.000127524 1.3589e-06
-7.96414e-07 1.3589e-06 6.96152e-05
0.00100137 7.07285e-06 1.62462e-06
7.07285e-06 3.60145e-06 -1.76769e-06
1.62462e-06 -1.76769e-06 -2.86406e-05
0.00106143 -4.73248e-06 1.32238e-06
-4.73248e-06 3.35328e-05 -6.31014e-07
1.32238e-06 -6.31014e-07 -1.73104e-05
0.00092025 -4.3757e-06 1.48815e-06
-4.3757e-06 -3.58814e-05 -1.35605e-06
1.48815e-06 -1.35605e-06 -8.87332e-05
0.00124605 -2.04575e-05 3.80517e-07
-2.04575e-05 0.000119447 1.97331e-07
3.80517e-07 1.97331e-07 6.05913e-05
0.00101925 3.18214e-06 -2.2653e-06
3.18214e-06 8.91923e-06 -6.84074e-07
-2.2653e-06 -6.84074e-07 -4.14105e-05
0.000902386 -1.23739e-05 -3.02469e-06
-1.23739e-05 -4.10455e-05 -2.92404e-06
-3.02469e-06 -2.92404e-06 -4.51952e-05
0.000883585 -1.47425e-05 -3.68349e-06
-1.47425e-05 -4.21604e-05 -2.61919e-06
-3.68349e-06 -2.61919e-06 -4.77016e-05
0.000987811 -9.98598e-06 -2.13415e-06
-9.98598e-06 1.84612e-06 -1.66144e-06
-2.13415e-06 -1.66144e-06 -3.0642e-05
0.00098096 1.77827e-06 -2.27735e-06
1.77827e-06 7.46252e-06 -1.09093e-06
-2.27735e-06 -1.09093e-06 -3.8875e-05
0.00114916 1.65668e-05 -9.74135e-07
1.65668e-05 4.09846e-05 -4.18539e-07
-9.74135e-07 -4.18539e-07 -1.66036e-05
0.00096219 -1.30451e-05 -2.33627e-06
-1.30451e-05 -1.27498e-06 -1.47509e-06
-2.33627e-06 -1.47509e-06 -3.58872e-05
0.00105525 6.59982e-06 -1.14071e-06
6.59982e-06 3.99521e-05 -8.92045e-07
-1.14071e-06 -8.92045e-07 -1.32865e-05
0.00110383 1.5369e-05 -9.76013e-07
1.5369e-05 4.54201e-05 -4.54759e-07
-9.76013e-07 -4.54759e-07 -8.2365e-06
0.00102405 2.10789e-05 -1.22733e-06
2.10789e-05 9.12665e-06 -1.65964e-07
-1.22733e-06 -1.65964e-07 -5.03523e-05
0.000923337 -1.12691e-05 8.04914e-08
-1.12691e-05 -3.40205e-05 -2.2426e-08
8.04914e-08 -2.2426e-08 -3.76007e-05
0.000987697 -1.15898e-05 3.41013e-08
-1.15898e-05 5.10859e-06 -2.10371e-08
3.41013e-08 -2.10371e-08 -2.79088e-05
0.000998781 -9.21471e-06 7.63135e-08
-9.21471e-06 5.13822e-06 -2.35799e-08
7.63135e-08 -2.35799e-08 -2.69569e-05
0.00105733 -9.91911e-07 6.70139e-08
-9.91911e-07 3.22798e-05 -4.62715e-08
6.70139e-08 -4.62715e-08 -1.78096e-05
0.00116524 1.17256e-05 1.86716e-07
1.17256e-05 3.79835e-05 5.37301e-08
1.86716e-07 5.37301e-08 -2.00446e-05
0.00110937 1.72051e-05 2.94959e-08
1.72051e-05 3.78582e-05 8.50064e-09
2.94959e-08 8.50064e-09 -1.79594e-05
0.00119835 1.98402e-05 3.9876e-09
1.98402e-05 4.69378e-05 1.62057e-07
3.9876e-09 1.62057e-07 -1.47034e-05
0.00106137 3.11367e-06 -7.27045e-08
3.11367e-06 4.05295e-05 2.26328e-08
-7.27045e-08 2.26328e-08 -1.08085e-05
0.00119468 2.29268e-05 -2.28497e-07
2.29268e-05 7.68687e-05 -3.12912e-07
-2.28497e-07 -3.12912e-07 1.84137e-05
0.00111992 2.10976e-05 1.15641e-07
2.10976e-05 6.56675e-05 -2.19172e-07
1.15641e-07 -2.19172e-07 4.03271e-06
0.00107398 2.39128e-05 -7.64047e-07
2.39128e-05 2.76036e-05 -8.69912e-08
-7.64047e-07 -8.69912e-08 -3.37124e-05
0.000942724 -1.01678e-05 2.5535e-06
-1.01678e-05 -2.79055e-05 3.05438e-06
2.5535e-06 3.05438e-06 -3.08777e-05
0.00100637 -8.23633e-06 1.78566e-06
-8.23633e-06 6.91006e-06 1.80007e-06
1.78566e-06 1.80007e-06 -2.4675e-05
0.00107066 2.00281e-06 1.37464e-06
2.00281e-06 3.9095e-05 7.69188e-07
1.37464e-06 7.69188e-07 -1.08642e-05
0.00105919 -1.80578e-06 1.20423e-06
-1.80578e-06 3.27195e-05 9.62866e-07
1.20423e-06 9.62866e-07 -1.74032e-05
0.00109015 1.14557e-05 8.92502e-07
1.14557e-05 4.71325e-05 1.77247e-07
8.92502e-07 1.77247e-07 -1.30126e-05
0.00119581 1.11969e-05 5.53379e-07
1.11969e-05 3.51832e-05 -1.63609e-07
5.53379e-07 -1.63609e-07 -2.54269e-05
0.0011665 2.28179e-05 4.28086e-07
2.28179e-05 5.00907e-05 6.40536e-07
4.28086e-07 6.40536e-07 -1.05933e-05
0.00124376 2.01981e-05 -3.10827e-07
2.01981e-05 6.1123e-05 2.19218e-07
-3.10827e-07 2.19218e-07 -1.69443e-06
0.00112774 1.81126e-05 1.12487e-06
1.81126e-05 7.02064e-05 1.06059e-06
1.12487e-06 1.06059e-06 9.20383e-06
0.00115891 2.55417e-05 6.65781e-07
2.55417e-05 5.40986e-05 3.06065e-07
6.65781e-07 3.06065e-07 -7.61272e-06
0.000933057 2.34156e-05 9.58006e-07
2.34156e-05 -3.05112e-05 -2.70452e-07
9.58006e-07 -2.70452e-07 -9.91111e-05
0.00101429 -6.18952e-06 1.35842e-06
-6.18952e-06 7.16182e-06 1.90737e-06
1.35842e-06 1.90737e-06 -2.30856e-05
0.00106608 2.34894e-06 6.18139e-07
2.34894e-06 3.38226e-05 1.17396e-06
6.18139e-07 1.17396e-06 -1.39421e-05
0.00101823 -4.52795e-06 8.80968e-07
-4.52795e-06 4.81943e-06 1.90108e-06
8.80968e-07 1.90108e-06 -2.37724e-05
0.00101593 -5.38686e-06 5.95357e-08
-5.38686e-06 5.8839e-06 4.55904e-09
5.95357e-08 4.55904e-09 -2.34471e-05
0.00154469 -9.02407e-06 1.70193e-06
-9.02407e-06 0.000259988 1.95021e-06
1.70193e-06 1.95021e-06 0.000261442
0.00124475 -9.60728e-06 3.06843e-07
-9.60728e-06 0.000116756 2.14373e-09
3.06843e-07 2.14373e-09 0.00011597
0.00119109 -1.08353e-05 7.26001e-06
-1.08353e-05 8.94476e-05 6.35442e-06
7.26001e-06 6.35442e-06 0.000104535
0.00240946 -1.50519e-05 1.98205e-07
-1.50519e-05 0.000689819 -4.16865e-08
1.98205e-07 -4.16865e-08 0.000710141
0.00245078 -1.69711e-05 -8.05514e-06
-1.69711e-05 0.000713755 -3.75387e-06
-8.05514e-06 -3.75387e-06 0.000733276
0.000910388 1.10621e-05 2.65686e-06
1.10621e-05 -4.12643e-05 -2.9597e-06
2.65686e-06 -2.9597e-06 -4.5301e-05
0.00249528 1.87543e-05 8.62347e-06
1.87543e-05 0.000738313 -3.63107e-06
8.62347e-06 -3.63107e-06 0.000756989
0.000914839 1.21056e-05 -8.48466e-08
1.21056e-05 -3.58739e-05 -2.4729e-08
-8.48466e-08 -2.4729e-08 -4.06673e-05
0.00247073 2.06468e-05 -1.54472e-07
2.06468e-05 0.000730817 -5.78759e-08
-1.54472e-07 -5.78759e-08 0.000748829
0.000919067 1.32276e-05 -3.54862e-06
1.32276e-05 -3.03997e-05 2.68962e-06
-3.54862e-06 2.68962e-06 -3.60087e-05
0.00241059 2.25512e-05 -9.28152e-06
2.25512e-05 0.000707494 3.26619e-06
-9.28152e-06 3.26619e-06 0.000724757
0.0010265 1.62118e-06 -2.15792e-06
1.62118e-06 1.06197e-05 -4.8308e-07
-2.15792e-06 -4.8308e-07 -4.07901e-05
0.0010269 -7.55377e-06 -1.92326e-06
-7.55377e-06 1.43744e-05 -3.4353e-07
-1.92326e-06 -3.4353e-07 -4.00987e-05
0.00118083 4.53432e-07 -7.94347e-07
4.53432e-07 4.56861e-05 -1.23313e-07
-7.94347e-07 -1.23313e-07 -1.41376e-05
0.00118914 -1.83754e-05 -8.79932e-07
-1.83754e-05 5.51884e-05 2.47022e-08
-8.79932e-07 2.47022e-08 -7.6088e-06
0.0010501 -5.88258e-06 -1.87405e-06
-5.88258e-06 2.57455e-05 -1.43947e-07
-1.87405e-06 -1.43947e-07 -3.19093e-05
0.000699256 5.68528e-06 -4.97731e-06
5.68528e-06 -5.83773e-05 -1.45401e-08
-4.97731e-06 -1.45401e-08 -9.94316e-05
0.00103716 3.94395e-06 4.25531e-08
3.94395e-06 1.79957e-05 -7.48443e-08
4.25531e-08 -7.48443e-08 -3.96862e-05
0.00116683 -6.71091e-06 -5.60902e-08
-6.71091e-06 4.92772e-05 2.34272e-08
-5.60902e-08 2.34272e-08 -1.40956e-05
0.00117687 -1.03051e-05 1.25672e-08
-1.03051e-05 4.55788e-05 -5.36515e-08
1.25672e-08 -5.36515e-08 -1.58107e-05
0.00125412 -2.02843e-05 -4.48302e-08
-2.02843e-05 6.97949e-05 -9.42095e-08
-4.48302e-08 -9.42095e-08 4.92435e-06
0.00117635 7.26805e-06 -4.1448e-08
7.26805e-06 4.15756e-05 2.1489e-08
-4.1448e-08 2.1489e-08 -1.69623e-05
0.0012398 1.06613e-06 1.39388e-08
1.06613e-06 5.60666e-05 7.79063e-08
1.39388e-08 7.79063e-08 -5.72747e-06
0.00118532 1.13279e-05 8.28718e-07
1.13279e-05 5.68017e-05 -4.60405e-08
8.28718e-07 -4.60405e-08 -6.98558e-06
0.00120539 -1.11855e-05 1.67399e-07
-1.11855e-05 5.79039e-05 -3.87572e-07
1.67399e-07 -3.87572e-07 -6.61848e-06
0.00122904 -7.97447e-06 4.00064e-07
-7.97447e-06 5.19414e-05 -1.69446e-07
4.00064e-07 -1.69446e-07 -1.19087e-05
0.00129948 -2.08358e-05 7.93406e-07
-2.08358e-05 8.15795e-05 -4.67402e-07
7.93406e-07 -4.67402e-07 1.63303e-05
0.00122727 4.24674e-06 8.49766e-08
4.24674e-06 4.87311e-05 -6.87533e-08
8.49766e-08 -6.87533e-08 -1.15373e-05
0.00133113 -6.03505e-06 -5.7695e-07
-6.03505e-06 8.78776e-05 4.62789e-07
-5.7695e-07 4.62789e-07 2.8406e-05
0.000867626 1.5339e-05 -1.93056e-06
1.5339e-05 -6.79974e-05 1.81458e-07
-1.93056e-06 1.81458e-07 -0.000126025
0.0012876 -3.46423e-07 -2.5688e-06
-3.46423e-07 0.000122955 4.12868e-07
-2.5688e-06 4.12868e-07 6.92637e-05
0.00124249 2.11426e-05 -1.42183e-06
2.11426e-05 6.55176e-05 -9.73761e-09
-1.42183e-06 -9.73761e-09 2.61145e-06
0.00142742 -1.19315e-05 -7.12071e-07
-1.19315e-05 0.000148275 1.16569e-07
-7.12071e-07 1.16569e-07 8.75474e-05
0.000907626 1.57417e-05 -4.05346e-06
1.57417e-05 -2.63109e-05 2.33303e-06
-4.05346e-06 2.33303e-06 -3.40271e-05
0.000996788 8.38848e-06 -2.24144e-06
8.38848e-06 1.70094e-05 1.16351e-06
-2.24144e-06 1.16351e-06 -2.02462e-05
0.00105417 -9.64933e-06 -6.54302e-07
-9.64933e-06 3.57054e-05 3.40346e-07
-6.54302e-07 3.40346e-07 -1.75315e-05
0.00135627 -1.49073e-05 -8.09663e-07
-1.49073e-05 0.000135675 3.38831e-07
-8.09663e-07 3.38831e-07 7.91192e-05
0.00116428 -1.34757e-05 -2.40781e-08
-1.34757e-05 1.01241e-05 7.02264e-07
-2.40781e-08 7.02264e-07 -5.30904e-05
0.00119625 -1.94688e-05 -2.4722e-08
-1.94688e-05 4.89905e-05 5.65564e-08
-2.4722e-08 5.65564e-08 -1.00125e-05
0.00104943 -2.14808e-05 -7.82366e-07
-2.14808e-05 5.47218e-06 3.41787e-07
-7.82366e-07 3.41787e-07 -5.61436e-05
0.0011379 -2.22854e-05 3.17692e-07
-2.22854e-05 2.23158e-05 -4.53136e-07
3.17692e-07 -4.53136e-07 -3.7895e-05
0.000995225 9.36706e-06 -2.30254e-06
9.36706e-06 7.48758e-06 1.37482e-06
-2.30254e-06 1.37482e-06 -2.67407e-05
0.000940753 -4.26002e-06 -1.33027e-06
-4.26002e-06 -2.80007e-05 6.9595e-07
-1.33027e-06 6.9595e-07 -7.99244e-05
0.000998908 8.14965e-06 -1.95881e-06
8.14965e-06 4.79687e-06 1.70613e-06
-1.95881e-06 1.70613e-06 -2.83156e-05
0.00125034 2.07663e-05 -3.89394e-07
2.07663e-05 8.15002e-05 9.80428e-09
-3.89394e-07 9.80428e-09 1.81719e-05
0.00131635 -1.11161e-06 -1.71301e-07
-1.11161e-06 9.12023e-05 3.01619e-08
-1.71301e-07 3.01619e-08 2.88968e-05
0.00125263 1.98491e-05 -2.93615e-07
1.98491e-05 4.95205e-05 -1.13369e-07
-2.93615e-07 -1.13369e-07 -1.72932e-05
0.00134683 -5.07969e-06 -1.4654e-08
-5.07969e-06 8.66255e-05 -2.37062e-07
-1.4654e-08 -2.37062e-07 2.13933e-05
0.000979309 1.02486e-05 6.1847e-10
1.02486e-05 4.26515e-06 -1.44085e-08
6.1847e-10 -1.44085e-08 -3.10459e-05
0.00106147 -6.75862e-06 5.57146e-08
-6.75862e-06 3.83267e-05 8.81843e-09
5.57146e-08 8.81843e-09 -1.32441e-05
0.00105804 -2.15065e-05 1.63933e-07
-2.15065e-05 2.63571e-05 -2.66103e-07
1.63933e-07 -2.66103e-07 -3.40321e-05
0.00124864 -1.8499e-05 1.34541e-08
-1.8499e-05 6.6808e-05 -1.04414e-07
1.34541e-08 -1.04414e-07 6.9531e-06
0.00126222 -1.34989e-05 1.20247e-07
-1.34989e-05 4.67113e-05 3.97406e-07
1.20247e-07 3.97406e-07 -1.45171e-05
0.0011789 -2.52787e-05 4.54662e-08
-2.52787e-05 5.94634e-05 1.08447e-07
4.54662e-08 1.08447e-07 -5.54139e-06
0.00121718 -2.03427e-05 4.06179e-08
-2.03427e-05 4.9575e-05 9.85177e-08
4.06179e-08 9.85177e-08 -9.38245e-06
0.00129368 -2.43343e-05 3.57121e-07
-2.43343e-05 9.1698e-05 3.33706e-07
3.57121e-07 3.33706e-07 3.44778e-05
0.00106415 -5.04412e-06 3.80408e-08
-5.04412e-06 3.40341e-05 -4.53001e-08
3.80408e-08 -4.53001e-08 -1.66489e-05
0.00114435 -1.95616e-05 -3.15883e-07
-1.95616e-05 6.93274e-05 2.138e-07
-3.15883e-07 2.138e-07 9.99639e-06
0.00100099 6.99821e-06 -5.94516e-08
6.99821e-06 3.69447e-06 -1.8023e-09
-5.94516e-08 -1.8023e-09 -2.86043e-05
0.000924428 -4.21164e-06 3.39341e-07
-4.21164e-06 -3.43522e-05 -3.43826e-07
3.39341e-07 -3.43826e-07 -8.71647e-05
0.00127418 2.22537e-05 7.71663e-07
2.22537e-05 7.59934e-05 1.97669e-07
7.71663e-07 1.97669e-07 9.13421e-06
0.00143946 6.08368e-06 2.97279e-07
6.08368e-06 0.000123626 -3.3359e-08
2.97279e-07 -3.3359e-08 5.72151e-05
0.00117409 2.01298e-05 1.19321e-07
2.01298e-05 4.40783e-06 7.24487e-08
1.19321e-07 7.24487e-08 -6.49299e-05
0.0012712 -1.58115e-06 -6.62091e-07
-1.58115e-06 3.79448e-05 -9.45238e-07
-6.62091e-07 -9.45238e-07 -2.6439e-05
0.00122315 -1.80519e-05 -9.12136e-07
-1.80519e-05 4.37715e-05 9.32446e-08
-9.12136e-07 9.32446e-08 -1.49663e-05
0.00133115 -1.18419e-05 -5.39318e-07
-1.18419e-05 6.9773e-05 -1.16911e-07
-5.39318e-07 -1.16911e-07 1.17736e-05
0.00105283 -4.44934e-06 1.16999e-06
-4.44934e-06 3.21935e-05 -4.74943e-07
1.16999e-06 -4.74943e-07 -1.85463e-05
0.0012015 -2.00522e-05 -1.46048e-06
-2.00522e-05 3.60146e-05 6.02966e-07
-1.46048e-06 6.02966e-07 -1.85306e-05
0.000974027 -2.01446e-05 5.74361e-07
-2.01446e-05 -1.09466e-05 -5.07733e-07
5.74361e-07 -5.07733e-07 -6.94413e-05
0.0011428 -2.50995e-05 6.39676e-07
-2.50995e-05 6.30098e-05 -5.7424e-07
6.39676e-07 -5.7424e-07 -3.46737e-06
0.00122483 -2.75022e-05 6.14102e-07
-2.75022e-05 7.61035e-05 1.49689e-06
6.14102e-07 1.49689e-06 9.50706e-06
0.00137408 -2.523e-05 -4.20431e-07
-2.523e-05 0.000122755 9.31841e-07
-4.20431e-07 9.31841e-07 6.70251e-05
0.00100765 7.02074e-06 1.27509e-06
7.02074e-06 5.93622e-06 -1.79285e-06
1.27509e-06 -1.79285e-06 -2.57514e-05
0.000895835 -4.93766e-06 1.34308e-06
-4.93766e-06 -4.75975e-05 -1.59671e-06
1.34308e-06 -1.59671e-06 -0.000100358
0.00111245 -1.965e-05 6.94878e-07
-1.965e-05 5.15565e-05 5.5695e-08
6.94878e-07 5.5695e-08 -6.18489e-06
0.00115868 -1.89587e-05 7.82827e-07
-1.89587e-05 8.09889e-05 -9.34871e-08
7.82827e-07 -9.34871e-08 1.90021e-05
0.00122006 -2.36736e-05 3.57224e-07
-2.36736e-05 0.000101446 2.79641e-07
3.57224e-07 2.79641e-07 3.87771e-05
0.000911517 -1.1235e-05 -2.6972e-06
-1.1235e-05 -3.9866e-05 -3.02709e-06
-2.6972e-06 -3.02709e-06 -4.33725e-05
0.00118826 1.2195e-05 -7.5486e-07
1.2195e-05 4.87207e-05 -8.83202e-08
-7.5486e-07 -8.83202e-08 -9.37987e-06
0.000993738 -9.02047e-06 -1.91989e-06
-9.02047e-06 2.54271e-06 -1.77572e-06
-1.91989e-06 -1.77572e-06 -2.95196e-05
0.000977142 -1.11187e-05 -2.32592e-06
-1.11187e-05 -4.08843e-08 -1.52302e-06
-2.32592e-06 -1.52302e-06 -3.30265e-05
0.00105403 -1.30495e-06 -1.24016e-06
-1.30495e-06 3.10529e-05 -9.26011e-07
-1.24016e-06 -9.26011e-07 -1.9115e-05
0.0011033 1.75407e-05 -9.62838e-07
1.75407e-05 3.51295e-05 -6.2485e-07
-9.62838e-07 -6.2485e-07 -2.0683e-05
0.00120705 1.988e-05 -4.2068e-07
1.988e-05 5.08555e-05 -2.61121e-08
-4.2068e-07 -2.61121e-08 -1.08227e-05
0.00104496 1.90211e-06 -1.20821e-06
1.90211e-06 3.36015e-05 -7.97326e-07
-1.20821e-06 -7.97326e-07 -1.78007e-05
0.00112817 2.15717e-05 -9.23876e-07
2.15717e-05 6.92875e-05 -6.69102e-07
-9.23876e-07 -6.69102e-07 7.45991e-06
0.00128419 2.37053e-05 -8.34869e-07
2.37053e-05 0.000120269 -6.72704e-07
-8.34869e-07 -6.72704e-07 6.21748e-05
0.00108112 2.37723e-05 -1.77781e-06
2.37723e-05 3.25731e-05 3.29627e-07
-1.77781e-06 3.29627e-07 -2.77732e-05
0.000931737 -1.01413e-05 8.77913e-08
-1.01413e-05 -3.3247e-05 -1.90133e-08
8.77913e-08 -1.90133e-08 -3.61612e-05
0.00100361 -7.93751e-06 4.96158e-08
-7.93751e-06 5.404e-06 -1.44849e-08
4.96158e-08 -1.44849e-08 -2.61556e-05
0.00106155 1.10243e-06 -1.61941e-08
1.10243e-06 3.54956e-05 -5.7326e-09
-1.61941e-08 -5.7326e-09 -1.45453e-05
0.00105748 -1.96831e-06 2.49711e-08
-1.96831e-06 3.21356e-05 -1.58471e-08
2.49711e-08 -1.58471e-08 -1.80523e-05
0.00105415 1.07214e-05 7.37705e-08
1.07214e-05 2.96124e-05 -1.01926e-07
7.37705e-08 -1.01926e-07 -3.06557e-05
0.0012191 1.16981e-05 2.71587e-07
1.16981e-05 4.56582e-05 3.42357e-08
2.71587e-07 3.42357e-08 -1.50461e-05
0.00116498 2.29855e-05 4.05021e-08
2.29855e-05 4.96164e-05 7.85187e-08
4.05021e-08 7.85187e-08 -1.10961e-05
0.00122205 2.09543e-05 2.44159e-07
2.09543e-05 5.11031e-05 2.8883e-07
2.44159e-07 2.8883e-07 -1.2008e-05
0.00111152 1.87301e-05 3.13419e-07
1.87301e-05 6.29035e-05 3.26188e-07
3.13419e-07 3.26188e-07 1.92241e-06
0.00121026 2.56966e-05 1.64359e-07
2.56966e-05 7.89943e-05 -2.55955e-07
1.64359e-07 -2.55955e-07 1.75324e-05
0.00103712 2.43364e-05 -5.00253e-07
2.43364e-05 1.77624e-05 -3.35069e-07
-5.00253e-07 -3.35069e-07 -5.01969e-05
0.00101012 -6.97145e-06 1.62183e-06
-6.97145e-06 6.86661e-06 1.86143e-06
1.62183e-06 1.86143e-06 -2.41222e-05
0.00106177 -8.22638e-07 1.13625e-06
-8.22638e-07 3.30445e-05 1.05689e-06
1.13625e-06 1.05689e-06 -1.69644e-05
0.00106507 1.52258e-05 7.19336e-07
1.52258e-05 3.43279e-05 2.52284e-07
7.19336e-07 2.52284e-07 -2.55984e-05
0.00109551 7.95186e-06 7.27217e-07
7.95186e-06 5.11304e-05 3.56611e-07
7.27217e-07 3.56611e-07 -9.85316e-06
0.00118604 1.97628e-05 2.69048e-07
1.97628e-05 9.38239e-05 -2.60952e-07
2.69048e-07 -2.60952e-07 2.88202e-05
0.00121715 8.99355e-06 -5.35325e-07
8.99355e-06 3.37151e-05 -8.82684e-07
-5.35325e-07 -8.82684e-07 -2.58324e-05
0.00119148 2.61311e-05 3.6703e-07
2.61311e-05 5.59643e-05 5.1626e-07
3.6703e-07 5.1626e-07 -7.21528e-06
0.00108897 2.40963e-05 -5.81857e-07
2.40963e-05 -1.14463e-05 -4.73118e-07
-5.81857e-07 -4.73118e-07 -7.08945e-05
0.00111232 2.44633e-05 6.11145e-07
2.44633e-05 6.35814e-05 1.19495e-06
6.11145e-07 1.19495e-06 -5.48373e-06
0.00119959 2.79629e-05 1.46916e-06
2.79629e-05 7.99996e-05 -1.41539e-08
1.46916e-06 -1.41539e-08 9.31827e-06
0.00101169 -6.11093e-06 8.14785e-08
-6.11093e-06 5.79282e-06 -2.13284e-09
8.14785e-08 -2.13284e-09 -2.44118e-05
0.000903655 4.36477e-07 9.79082e-07
4.36477e-07 -4.49438e-05 1.65872e-06
9.79082e-07 1.65872e-06 -9.51609e-05
0.000983533 1.38216e-06 -1.68372e-08
1.38216e-06 -6.28174e-06 2.84435e-08
-1.68372e-08 2.84435e-08 -5.47117e-05
0.00125426 1.01806e-05 2.7035e-07
1.01806e-05 0.000132516 2.91444e-07
2.7035e-07 2.91444e-07 7.33003e-05
0.00106874 2.09341e-06 5.102e-07
2.09341e-06 3.47803e-05 1.15488e-06
5.102e-07 1.15488e-06 -1.22699e-05
0.00102184 -3.56657e-06 6.78139e-07
-3.56657e-06 4.51969e-06 1.8997e-06
6.78139e-07 1.8997e-06 -2.36083e-05
0.00102135 -4.5133e-06 5.37371e-08
-4.5133e-06 6.36363e-06 2.16572e-09
5.37371e-08 2.16572e-09 -2.22292e-05
0.00154309 -7.53654e-06 1.38375e-06
-7.53654e-06 0.000255721 1.96051e-06
1.38375e-06 1.96051e-06 0.000257905
0.00101597 -5.33514e-06 -9.76931e-07
-5.33514e-06 5.84984e-06 -1.89225e-06
-9.76931e-07 -1.89225e-06 -2.34545e-05
0.00156014 -8.72371e-06 -1.16741e-06
-8.72371e-06 0.000267652 -1.22845e-06
-1.16741e-06 -1.22845e-06 0.000269055
0.00121217 -9.30149e-06 6.3576e-06
-9.30149e-06 9.50413e-05 6.41425e-06
6.3576e-06 6.41425e-06 0.000110904
0.00154719 -9.80603e-06 -3.74244e-06
-9.80603e-06 0.000264918 -3.09716e-06
-3.74244e-06 -3.09716e-06 0.000265637
0.00177271 -1.20179e-05 4.44133e-06
-1.20179e-05 0.000374019 2.36244e-06
4.44133e-06 2.36244e-06 0.000392205
0.00243038 -1.50682e-05 -7.39374e-06
-1.50682e-05 0.000699769 -3.85096e-06
-7.39374e-06 -3.85096e-06 0.000720047
0.000919175 1.02007e-05 2.20724e-06
1.02007e-05 -4.01704e-05 -3.03616e-06
2.20724e-06 -3.03616e-06 -4.34033e-05
0.000923537 1.10841e-05 -8.0922e-08
1.10841e-05 -3.48971e-05 -1.94847e-08
-8.0922e-08 -1.94847e-08 -3.8999e-05
0.0024697 1.68315e-05 8.06183e-06
1.68315e-05 0.000721736 -3.73928e-06
8.06183e-06 -3.73928e-06 0.000741204
0.00246166 1.87174e-05 -1.59036e-07
1.87174e-05 0.000722151 -5.10967e-08
-1.59036e-07 -5.10967e-08 0.000740923
0.000928351 1.21339e-05 -3.20372e-06
1.21339e-05 -2.91961e-05 2.83347e-06
-3.20372e-06 2.83347e-06 -3.40794e-05
0.00242406 2.06113e-05 -9.08402e-06
2.06113e-05 0.00070848 3.44638e-06
-9.08402e-06 3.44638e-06 0.000726613
0.00118622 7.50303e-06 -8.79426e-07
7.50303e-06 4.63563e-05 -5.3264e-08
-8.79426e-07 -5.3264e-08 -1.22269e-05
0.00117963 -1.02476e-05 -8.13456e-07
-1.02476e-05 4.68729e-05 -1.34042e-07
-8.13456e-07 -1.34042e-07 -1.45466e-05
0.00124235 1.14042e-06 -4.7217e-08
1.14042e-06 5.77298e-05 -1.96623e-08
-4.7217e-08 -1.96623e-08 -4.03029e-06
0.00125389 -2.04527e-05 -4.35582e-07
-2.04527e-05 6.98275e-05 3.20219e-07
-4.35582e-07 3.20219e-07 5.03758e-06
0.00118423 -6.31295e-06 -7.45604e-07
-6.31295e-06 5.72205e-05 1.51789e-07
-7.45604e-07 1.51789e-07 -6.20084e-06
0.00103277 8.22279e-06 -1.76997e-06
8.22279e-06 1.61333e-05 9.02958e-08
-1.76997e-06 9.02958e-08 -4.15137e-05
0.00117647 1.20109e-05 8.32097e-08
1.20109e-05 5.3119e-05 -5.46093e-09
8.32097e-08 -5.46093e-09 -1.06302e-05
0.00120229 -1.57656e-05 -2.4396e-08
-1.57656e-05 5.72415e-05 -6.64315e-08
-2.4396e-08 -6.64315e-08 -7.25269e-06
0.00124115 -9.31004e-06 7.26718e-08
-9.31004e-06 5.77319e-05 -1.51452e-07
7.26718e-08 -1.51452e-07 -6.1175e-06
0.00131271 -2.1071e-05 -1.75944e-08
-2.1071e-05 8.70546e-05 -1.46127e-07
-1.75944e-08 -1.46127e-07 2.15149e-05
0.00123065 4.75529e-06 -5.64148e-08
4.75529e-06 5.04645e-05 8.5703e-08
-5.64148e-08 8.5703e-08 -9.87105e-06
0.00130859 -6.26656e-06 4.66172e-08
-6.26656e-06 7.67258e-05 2.80138e-07
4.66172e-08 2.80138e-07 1.72485e-05
0.00127285 4.99693e-06 4.22823e-07
4.99693e-06 8.98502e-05 3.0764e-07
4.22823e-07 3.0764e-07 2.4628e-05
0.00116087 -8.4888e-06 3.55708e-07
-8.4888e-06 3.91708e-05 -7.38801e-07
3.55708e-07 -7.38801e-07 -2.56529e-05
0.00119555 -1.30737e-05 4.10952e-07
-1.30737e-05 2.2875e-05 3.81872e-07
4.10952e-07 3.81872e-07 -4.0644e-05
0.001426 -2.30837e-05 3.60081e-07
-2.30837e-05 0.000140108 -3.59545e-07
3.60081e-07 -3.59545e-07 7.33143e-05
0.0012095 6.4793e-07 -6.74707e-07
6.4793e-07 2.65905e-05 -1.06627e-07
-6.74707e-07 -1.06627e-07 -3.09645e-05
0.00144071 -1.22086e-05 -5.2018e-07
-1.22086e-05 0.000131307 1.84656e-07
-5.2018e-07 1.84656e-07 7.42133e-05
0.00113275 1.97995e-05 -1.2183e-06
1.97995e-05 2.56273e-05 -9.38271e-08
-1.2183e-06 -9.38271e-08 -3.80548e-05
0.00131702 -3.44304e-06 -1.29011e-06
-3.44304e-06 9.15421e-05 2.26711e-07
-1.29011e-06 2.26711e-07 2.92203e-05
0.0012146 2.03028e-05 -8.6726e-07
2.03028e-05 2.95516e-05 -1.38561e-07
-8.6726e-07 -1.38561e-07 -3.77405e-05
0.00137432 -4.36712e-06 -2.2226e-07
-4.36712e-06 0.000100089 1.21564e-07
-2.2226e-07 1.21564e-07 3.5088e-05
0.000995136 9.80704e-06 -2.28516e-06
9.80704e-06 1.16189e-05 1.22356e-06
-2.28516e-06 1.22356e-06 -2.36659e-05
0.00107718 -6.82889e-06 -1.02221e-06
-6.82889e-06 4.50451e-05 5.44494e-07
-1.02221e-06 5.44494e-07 -6.46647e-06
0.00113384 -2.19444e-05 -3.11013e-07
-2.19444e-05 6.38768e-05 2.77667e-07
-3.11013e-07 2.77667e-07 3.9692e-06
0.00134267 -1.90098e-05 9.66572e-08
-1.90098e-05 0.000112288 5.83475e-08
9.66572e-08 5.83475e-08 5.25641e-05
0.00120928 -1.33935e-05 8.20059e-07
-1.33935e-05 2.07824e-05 6.15633e-07
8.20059e-07 6.15633e-07 -3.99011e-05
0.00122439 -1.99621e-05 6.10623e-07
-1.99621e-05 5.25043e-05 -7.05169e-08
6.10623e-07 -7.05169e-08 -6.35247e-06
0.00109104 -2.46882e-05 -5.51603e-07
-2.46882e-05 1.86208e-05 -1.90316e-08
-5.51603e-07 -1.90316e-08 -4.71176e-05
0.00121924 -2.35181e-05 9.6398e-07
-2.35181e-05 5.55802e-05 -1.53698e-06
9.6398e-07 -1.53698e-06 -9.54265e-07
0.00106618 -5.22928e-06 -1.25964e-06
-5.22928e-06 3.42193e-05 5.3656e-07
-1.25964e-06 5.3656e-07 -1.63049e-05
0.00104174 -1.86624e-05 -1.15633e-06
-1.86624e-05 1.87995e-05 2.54564e-07
-1.15633e-06 2.54564e-07 -4.10086e-05
0.0010011 7.23428e-06 -1.70274e-06
7.23428e-06 4.02353e-06 1.78218e-06
-1.70274e-06 1.78218e-06 -2.83342e-05
0.000928442 -4.17664e-06 -8.52846e-07
-4.17664e-06 -3.2877e-05 6.54682e-07
-8.52846e-07 6.54682e-07 -8.56568e-05
0.00126183 2.21583e-05 -2.30117e-08
2.21583e-05 7.09326e-05 -1.74077e-07
-2.30117e-08 -1.74077e-07 4.17552e-06
0.0014199 7.78878e-06 -1.37734e-07
7.78878e-06 0.000115078 7.56174e-08
-1.37734e-07 7.56174e-08 4.8752e-05
0.00124659 2.09144e-05 -3.97024e-07
2.09144e-05 3.6694e-05 -1.72395e-07
-3.97024e-07 -1.72395e-07 -3.31415e-05
0.0013138 -2.22854e-06 -1.01765e-07
-2.22854e-06 5.86886e-05 -1.21061e-07
-1.01765e-07 -1.21061e-07 -5.65956e-06
0.00106122 -5.01569e-06 5.4496e-08
-5.01569e-06 3.53607e-05 -3.45112e-08
5.4496e-08 -3.45112e-08 -1.52599e-05
0.00103268 -2.00095e-05 2.03849e-07
-2.00095e-05 1.74382e-05 -1.36573e-07
2.03849e-07 -1.36573e-07 -4.06037e-05
0.00115164 -2.51621e-05 -1.64984e-08
-2.51621e-05 6.81269e-05 -8.80881e-08
-1.64984e-08 -8.80881e-08 1.48077e-06
0.00127574 -1.81421e-05 -1.63746e-07
-1.81421e-05 6.90372e-05 -4.79463e-08
-1.63746e-07 -4.79463e-08 9.92144e-06
0.0012871 -1.22663e-05 2.51531e-07
-1.22663e-05 5.10576e-05 3.75912e-07
2.51531e-07 3.75912e-07 -6.06854e-06
0.00123442 -2.75271e-05 -2.07755e-08
-2.75271e-05 8.17879e-05 3.30478e-07
-2.07755e-08 3.30478e-07 1.46753e-05
0.00121554 -1.98214e-05 1.50128e-08
-1.98214e-05 4.28152e-05 2.59014e-07
1.50128e-08 2.59014e-07 -1.17116e-05
0.00126734 -2.45383e-05 2.99941e-07
-2.45383e-05 7.10486e-05 -1.12172e-06
2.99941e-07 -1.12172e-06 1.6957e-05
0.00111737 -1.95077e-05 5.73888e-08
-1.95077e-05 5.38321e-05 -2.21388e-08
5.73888e-08 -2.21388e-08 -3.88236e-06
0.00116474 -2.32039e-05 -1.74885e-07
-2.32039e-05 7.36667e-05 9.6868e-08
-1.74885e-07 9.6868e-08 1.07989e-05
0.00115484 -1.9245e-05 -5.00658e-08
-1.9245e-05 7.90805e-05 2.00134e-07
-5.00658e-08 2.00134e-07 1.69572e-05
0.000873102 6.73138e-06 -1.34922e-07
6.73138e-06 -5.9813e-05 -2.13234e-08
-1.34922e-07 -2.13234e-08 -9.22884e-05
0.000908777 -4.62316e-06 2.85808e-07
-4.62316e-06 -4.16649e-05 -4.09607e-07
2.85808e-07 -4.09607e-07 -9.43032e-05
0.00127549 2.28452e-05 2.18287e-07
2.28452e-05 7.11495e-05 4.27348e-07
2.18287e-07 4.27348e-07 2.50123e-06
0.00134368 1.71319e-05 3.05842e-08
1.71319e-05 6.56671e-05 1.20141e-07
3.05842e-08 1.20141e-07 -3.69777e-06
0.0013254 -2.67368e-06 -6.04704e-07
-2.67368e-06 5.47718e-05 -1.28222e-06
-6.04704e-07 -1.28222e-06 -5.71827e-06
0.00123182 -1.4305e-05 -1.10506e-06
-1.4305e-05 3.17525e-05 -2.61191e-07
-1.10506e-06 -2.61191e-07 -2.20249e-05
0.00110809 -2.02875e-05 5.62539e-07
-2.02875e-05 5.04511e-05 1.75418e-08
5.62539e-07 1.75418e-08 -6.39722e-06
0.00133159 -2.17811e-05 -9.99922e-07
-2.17811e-05 8.26798e-05 6.325e-07
-9.99922e-07 6.325e-07 3.47424e-05
0.000931551 -2.19269e-05 4.14742e-07
-2.19269e-05 -2.82086e-05 -8.14272e-07
4.14742e-07 -8.14272e-07 -9.18682e-05
0.0011852 -2.77175e-05 9.12542e-07
-2.77175e-05 8.09947e-05 -3.32869e-07
9.12542e-07 -3.32869e-07 8.07397e-06
0.00125119 -2.85261e-05 6.35956e-07
-2.85261e-05 7.86554e-05 1.70154e-06
6.35956e-07 1.70154e-06 1.14253e-05
0.000753539 6.25076e-06 1.21964e-06
6.25076e-06 -0.000119734 -2.4391e-06
1.21964e-06 -2.4391e-06 -0.000152165
0.00115282 -3.65761e-06 8.99486e-07
-3.65761e-06 7.8612e-05 -9.4795e-07
8.99486e-07 -9.4795e-07 2.84263e-05
0.00112628 -1.83878e-05 6.65506e-07
-1.83878e-05 6.89078e-05 -3.9731e-07
6.65506e-07 -3.9731e-07 5.26265e-06
0.00114112 -2.28017e-05 4.84011e-07
-2.28017e-05 6.04912e-05 1.23802e-07
4.84011e-07 1.23802e-07 -5.72725e-07
0.00120304 -2.40927e-05 4.94885e-07
-2.40927e-05 9.6951e-05 2.21281e-07
4.94885e-07 2.21281e-07 2.87596e-05
0.00112764 -2.37951e-05 1.13829e-07
-2.37951e-05 5.13459e-05 2.41492e-07
1.13829e-07 2.41492e-07 -1.40686e-05
0.000920873 -1.01151e-05 -2.3534e-06
-1.01151e-05 -3.85339e-05 -3.0984e-06
-2.3534e-06 -3.0984e-06 -4.13899e-05
0.00100133 -7.73046e-06 -1.75418e-06
-7.73046e-06 4.12243e-06 -1.85557e-06
-1.75418e-06 -1.85557e-06 -2.74128e-05
0.00124275 1.22798e-05 -1.17154e-07
1.22798e-05 5.62754e-05 1.90728e-07
-1.17154e-07 1.90728e-07 -4.52156e-06
0.00105506 -2.18111e-06 -1.18693e-06
-2.18111e-06 3.12185e-05 -1.0579e-06
-1.18693e-06 -1.0579e-06 -1.90343e-05
0.00105083 1.45915e-07 -1.33926e-06
1.45915e-07 3.11553e-05 -7.6917e-07
-1.33926e-06 -7.6917e-07 -1.89693e-05
0.00101803 9.86626e-06 -6.42157e-07
9.86626e-06 1.20348e-05 -2.72887e-07
-6.42157e-07 -2.72887e-07 -4.83502e-05
0.0011629 2.30918e-05 -4.10037e-07
2.30918e-05 4.88823e-05 -5.03164e-07
-4.10037e-07 -5.03164e-07 -1.18567e-05
0.00119883 2.16332e-05 3.31233e-07
2.16332e-05 4.03602e-05 2.50077e-07
3.31233e-07 2.50077e-07 -2.304e-05
0.00108883 1.92933e-05 -4.25988e-07
1.92933e-05 5.24962e-05 -3.44663e-07
-4.25988e-07 -3.44663e-07 -8.45259e-06
0.00113725 2.52079e-05 -1.08192e-06
2.52079e-05 6.41977e-05 -1.72371e-07
-1.08192e-06 -1.72371e-07 -3.11904e-06
0.00125959 2.58381e-05 -9.9651e-07
2.58381e-05 0.000102994 -5.31699e-07
-9.9651e-07 -5.31699e-07 4.17776e-05
0.00100785 -6.81328e-06 8.13224e-08
-6.81328e-06 5.61471e-06 -1.51296e-08
8.13224e-08 -1.51296e-08 -2.53439e-05
0.00106193 -7.03945e-07 -3.53844e-09
-7.03945e-07 3.31908e-05 -2.00925e-08
-3.53844e-09 -2.00925e-08 -1.68682e-05
0.00108163 1.57762e-05 -7.30936e-08
1.57762e-05 4.31173e-05 -1.07787e-07
-7.30936e-08 -1.07787e-07 -1.63813e-05
0.00109986 8.9965e-06 -6.21592e-08
8.9965e-06 5.35381e-05 -1.76713e-08
-6.21592e-08 -1.76713e-08 -7.61351e-06
0.00112443 1.9555e-05 -2.39421e-07
1.9555e-05 6.39871e-05 -1.01235e-07
-2.39421e-07 -1.01235e-07 -1.45389e-06
0.00123808 1.00691e-05 -3.00193e-07
1.00691e-05 4.47696e-05 -3.27876e-07
-3.00193e-07 -3.27876e-07 -1.50747e-05
0.00118534 2.59919e-05 3.89438e-07
2.59919e-05 5.21543e-05 7.51424e-08
3.89438e-07 7.51424e-08 -1.11534e-05
0.00114231 2.37505e-05 7.25669e-08
2.37505e-05 1.28078e-05 2.77062e-07
7.25669e-08 2.77062e-07 -4.61029e-05
0.00103468 2.37971e-05 2.84103e-07
2.37971e-05 2.67402e-05 5.10505e-07
2.84103e-07 5.10505e-07 -4.26531e-05
0.00121282 2.816e-05 2.235e-08
2.816e-05 8.62479e-05 -1.63505e-07
2.235e-08 -1.63505e-07 1.47061e-05
0.00106699 9.36784e-07 1.08772e-06
9.36784e-07 3.48025e-05 1.15955e-06
1.08772e-06 1.15955e-06 -1.49695e-05
0.00097264 1.00867e-05 1.10546e-06
1.00867e-05 -8.87288e-06 7.97085e-07
1.10546e-06 7.97085e-07 -7.17945e-05
0.00111945 2.401e-05 1.84724e-07
2.401e-05 6.21226e-05 1.835e-07
1.84724e-07 1.835e-07 -4.47002e-06
0.00101818 1.85898e-05 5.29774e-07
1.85898e-05 1.23014e-05 -4.79692e-08
5.29774e-07 -4.79692e-08 -5.54184e-05
0.00117824 2.30168e-05 2.23478e-08
2.30168e-05 8.48172e-05 -2.9191e-07
2.23478e-08 -2.9191e-07 1.63332e-05
0.00126295 1.22768e-05 -8.70088e-07
1.22768e-05 3.66272e-05 -6.28014e-07
-8.70088e-07 -6.28014e-07 -1.18082e-05
0.0012967 3.02141e-05 4.95387e-07
3.02141e-05 0.000107147 -4.95194e-07
4.95387e-07 -4.95194e-07 3.93797e-05
0.000834898 2.49181e-05 2.59527e-07
2.49181e-05 -0.00014312 -1.74548e-07
2.59527e-07 -1.74548e-07 -0.000201227
0.00134237 2.82522e-05 1.27202e-06
2.82522e-05 0.000167372 1.48529e-06
1.27202e-06 1.48529e-06 9.31228e-05
0.000892434 2.76867e-05 4.4459e-07
2.76867e-05 -6.80365e-05 1.9196e-07
4.4459e-07 1.9196e-07 -0.000146719
0.00100922 -6.02681e-06 -1.20827e-06
-6.02681e-06 4.48749e-06 -1.91454e-06
-1.20827e-06 -1.91454e-06 -2.56746e-05
0.000984799 8.65423e-07 2.67096e-07
8.65423e-07 -5.12936e-06 4.36411e-07
2.67096e-07 4.36411e-07 -5.48721e-05
0.000983739 9.35761e-06 6.58826e-07
9.35761e-06 -5.74122e-09 1.05425e-06
6.58826e-07 1.05425e-06 -6.2584e-05
0.000900839 -8.88202e-07 -5.72661e-07
-8.88202e-07 -4.64539e-05 -1.18889e-06
-5.72661e-07 -1.18889e-06 -9.55553e-05
0.00106684 3.09439e-06 3.97465e-08
3.09439e-06 3.39692e-05 1.75881e-08
3.97465e-08 1.75881e-08 -1.30913e-05
0.00111677 8.50238e-06 -1.51956e-07
8.50238e-06 6.52246e-05 -4.27704e-07
-1.51956e-07 -4.27704e-07 5.08066e-06
0.00121352 1.55609e-05 2.01214e-07
1.55609e-05 0.000116528 2.25232e-07
2.01214e-07 2.25232e-07 4.82467e-05
0.000972407 3.35471e-06 3.42791e-07
3.35471e-06 -5.81013e-06 1.09476e-06
3.42791e-07 1.09476e-06 -6.61387e-05
0.00106387 1.17638e-07 3.89371e-07
1.17638e-07 3.26976e-05 1.13322e-06
3.89371e-07 1.13322e-06 -1.38887e-05
0.00102658 -2.54878e-06 4.7309e-07
-2.54878e-06 5.23813e-06 1.88799e-06
4.7309e-07 1.88799e-06 -2.27783e-05
0.00102739 -3.58553e-06 5.0571e-08
-3.58553e-06 7.32523e-06 -3.74705e-11
5.0571e-08 -3.74705e-11 -2.0831e-05
0.00154226 -5.94126e-06 1.06149e-06
-5.94126e-06 0.000252082 1.97195e-06
1.06149e-06 1.97195e-06 0.000254879
0.00102455 -4.50273e-06 -7.71272e-07
-4.50273e-06 7.95515e-06 -1.87513e-06
-7.71272e-07 -1.87513e-06 -2.06406e-05
0.00155814 -7.2646e-06 -9.84355e-07
-7.2646e-06 0.000263187 -1.2329e-06
-9.84355e-07 -1.2329e-06 0.000265307
0.00121528 -7.72224e-06 5.30344e-06
-7.72224e-06 9.22602e-05 6.46053e-06
5.30344e-06 6.46053e-06 0.000108883
0.00157493 -8.4849e-06 -3.69803e-06
-8.4849e-06 0.000275008 -4.37671e-06
-3.69803e-06 -4.37671e-06 0.000276359
0.00115911 -9.5172e-06 2.09432e-06
-9.5172e-06 6.89882e-05 2.4409e-06
2.09432e-06 2.4409e-06 8.50862e-05
0.00235254 -1.39385e-05 -2.77048e-06
-1.39385e-05 0.000657744 -1.5994e-06
-2.77048e-06 -1.5994e-06 0.000679005
0.000928341 9.26274e-06 1.84211e-06
9.26274e-06 -3.95338e-05 -3.03898e-06
1.84211e-06 -3.03898e-06 -4.15576e-05
0.000934055 1.02056e-05 -1.34722e-07
1.02056e-05 -3.30813e-05 -1.39813e-08
-1.34722e-07 -1.39813e-08 -3.63703e-05
0.00243127 1.4962e-05 7.21969e-06
1.4962e-05 0.000698645 -3.79338e-06
7.21969e-06 -3.79338e-06 0.000719051
0.00093689 1.11051e-05 -2.86133e-06
1.11051e-05 -2.84218e-05 2.92418e-06
-2.86133e-06 2.92418e-06 -3.25906e-05
0.00244586 1.68111e-05 -1.72232e-07
1.68111e-05 0.000710379 -4.50109e-08
-1.72232e-07 -4.50109e-08 0.000729901
0.00242727 1.86889e-05 -8.75269e-06
1.86889e-05 0.000705629 3.5957e-06
-8.75269e-06 3.5957e-06 0.000724498
0.00123445 5.22622e-06 -2.48326e-07
5.22622e-06 5.23995e-05 2.06809e-07
-2.48326e-07 2.06809e-07 -8.00447e-06
0.00125663 -1.15158e-05 -2.12625e-07
-1.15158e-05 6.51126e-05 -1.31396e-07
-2.12625e-07 -1.31396e-07 1.25009e-06
0.00128458 -6.4924e-06 8.3975e-07
-6.4924e-06 6.47866e-05 -1.38203e-07
8.3975e-07 -1.38203e-07 5.3181e-06
0.00132493 -2.13078e-05 -6.18181e-07
-2.13078e-05 9.20971e-05 6.16312e-07
-6.18181e-07 6.16312e-07 2.62632e-05
0.00119793 -1.76877e-05 -1.73759e-07
-1.76877e-05 5.5896e-05 3.8661e-07
-1.73759e-07 3.8661e-07 -8.52936e-06
0.00116851 1.28828e-05 -5.74131e-07
1.28828e-05 4.98477e-05 3.0493e-08
-5.74131e-07 3.0493e-08 -1.38697e-05
0.00122788 7.58071e-06 6.01236e-08
7.58071e-06 6.92986e-05 2.14119e-07
6.01236e-08 2.14119e-07 4.02792e-06
0.00118159 -1.00511e-05 1.80857e-07
-1.00511e-05 4.79696e-05 9.6276e-08
1.80857e-07 9.6276e-08 -1.67383e-05
0.00121344 -1.36676e-05 7.20494e-08
-1.36676e-05 3.02555e-05 -3.04593e-08
7.20494e-08 -3.04593e-08 -3.34384e-05
0.00134037 -2.27858e-05 -4.5313e-07
-2.27858e-05 9.94959e-05 1.48299e-07
-4.5313e-07 1.48299e-07 3.16921e-05
0.00122652 4.46245e-07 -2.30955e-07
4.46245e-07 3.58962e-05 2.11237e-07
-2.30955e-07 2.11237e-07 -2.17343e-05
0.00134436 -1.12482e-05 8.66711e-07
-1.12482e-05 8.5126e-05 -4.61722e-07
8.66711e-07 -4.61722e-07 2.86059e-05
0.00118248 9.79306e-06 -1.46097e-07
9.79306e-06 5.4647e-05 3.55447e-07
-1.46097e-07 3.55447e-07 -9.32266e-06
0.00116276 -1.55918e-05 3.82466e-07
-1.55918e-05 4.15871e-05 -9.5552e-07
3.82466e-07 -9.5552e-07 -2.44357e-05
0.00126435 -1.92215e-05 -4.8308e-07
-1.92215e-05 5.47195e-05 6.03092e-07
-4.8308e-07 6.03092e-07 -1.00772e-05
0.00138049 -2.16285e-06 -1.00361e-06
-2.16285e-06 9.45006e-05 9.49748e-08
-1.00361e-06 9.49748e-08 4.55128e-05
0.00124935 2.20765e-05 -4.3916e-07
2.20765e-05 6.58143e-05 -5.5342e-07
-4.3916e-07 -5.5342e-07 -8.40674e-07
0.00139919 7.86759e-06 -8.18522e-07
7.86759e-06 0.000105944 1.80809e-07
-8.18522e-07 1.80809e-07 3.97347e-05
0.00130997 2.16035e-05 -9.71474e-07
2.16035e-05 6.47813e-05 -1.76519e-07
-9.71474e-07 -1.76519e-07 -5.55782e-06
0.00135435 -2.4618e-06 4.25729e-07
-2.4618e-06 7.85165e-05 4.14215e-07
4.25729e-07 4.14215e-07 1.41909e-05
0.00106914 -5.14065e-06 -1.13319e-06
-5.14065e-06 3.83143e-05 4.5709e-07
-1.13319e-06 4.5709e-07 -1.2184e-05
0.00109521 -1.98986e-05 -1.80209e-07
-1.98986e-05 4.75837e-05 1.33383e-07
-1.80209e-07 1.33383e-07 -1.0001e-05
0.00115976 -2.5221e-05 -4.43959e-07
-2.5221e-05 7.2921e-05 7.15102e-07
-4.43959e-07 7.15102e-07 6.10428e-06
0.00132826 -1.82268e-05 5.2932e-07
-1.82268e-05 9.42501e-05 -1.20619e-08
5.2932e-07 -1.20619e-08 3.47586e-05
0.00123903 -1.27608e-05 1.05478e-06
-1.27608e-05 3.04159e-05 1.01232e-06
1.05478e-06 1.01232e-06 -2.58298e-05
0.00123426 -1.95758e-05 1.29321e-06
-1.95758e-05 5.177e-05 -5.29938e-08
1.29321e-06 -5.29938e-08 -2.73527e-06
0.00124429 -2.75478e-05 -5.20294e-07
-2.75478e-05 8.75324e-05 -5.98768e-07
-5.20294e-07 -5.98768e-07 1.99115e-05
0.00116154 -2.38509e-05 -2.54754e-08
-2.38509e-05 1.98214e-05 -3.40337e-06
-2.54754e-08 -3.40337e-06 -3.26393e-05
0.00112265 -1.94927e-05 -6.6129e-07
-1.94927e-05 5.62666e-05 -2.51633e-08
-6.6129e-07 -2.51633e-08 -1.42242e-06
0.00111039 -2.27455e-05 -8.71822e-07
-2.27455e-05 4.63142e-05 -1.03325e-07
-8.71822e-07 -1.03325e-07 -1.67498e-05
0.00115074 -1.94003e-05 -9.16176e-07
-1.94003e-05 7.70449e-05 4.80471e-07
-9.16176e-07 4.80471e-07 1.47905e-05
0.000736661 6.17255e-06 -1.47325e-06
6.17255e-06 -0.000126475 1.76965e-06
-1.47325e-06 1.76965e-06 -0.00015973
0.000921563 -4.11723e-06 -6.62566e-07
-4.11723e-06 -3.58227e-05 7.31734e-07
-6.62566e-07 7.31734e-07 -8.83331e-05
0.00126387 2.26455e-05 1.9442e-07
2.26455e-05 6.20214e-05 -4.94399e-07
1.9442e-07 -4.94399e-07 -7.16745e-06
0.00137992 1.68143e-05 -1.64601e-07
1.68143e-05 8.49765e-05 2.69668e-07
-1.64601e-07 2.69668e-07 1.60833e-05
0.00135619 -2.37736e-06 -1.77648e-07
-2.37736e-06 7.16249e-05 1.65144e-07
-1.77648e-07 1.65144e-07 1.12214e-05
0.00112137 -1.9824e-05 4.62824e-08
-1.9824e-05 5.65781e-05 3.02283e-08
4.62824e-08 3.02283e-08 -2.65019e-07
0.00108063 -2.32386e-05 2.41271e-07
-2.32386e-05 4.18866e-05 -2.17241e-07
2.41271e-07 -2.17241e-07 -2.10802e-05
0.00116937 -2.75459e-05 -5.75067e-08
-2.75459e-05 7.54716e-05 -2.6098e-08
-5.75067e-08 -2.6098e-08 2.15066e-06
0.00126616 -1.43352e-05 4.74192e-08
-1.43352e-05 4.77142e-05 -1.80001e-07
4.74192e-08 -1.80001e-07 -6.65903e-06
0.00124008 -2.77192e-05 -1.00497e-07
-2.77192e-05 7.4155e-05 -4.70039e-07
-1.00497e-07 -4.70039e-07 8.54296e-06
0.00125276 -2.25003e-05 -2.22126e-07
-2.25003e-05 4.65555e-05 -3.42264e-07
-2.22126e-07 -3.42264e-07 -1.80615e-06
0.000740963 6.46586e-06 1.5213e-07
6.46586e-06 -0.000125645 -6.15962e-07
1.5213e-07 -6.15962e-07 -0.000157884
0.00114795 -2.28914e-05 -1.94598e-10
-2.28914e-05 6.40377e-05 5.44531e-09
-1.94598e-10 5.44531e-09 2.88652e-06
0.00112892 -2.378e-05 -5.88678e-07
-2.378e-05 5.11899e-05 1.24058e-07
-5.88678e-07 1.24058e-07 -1.39034e-05
0.00120691 -2.40051e-05 -3.29609e-07
-2.40051e-05 9.91989e-05 1.68359e-07
-3.29609e-07 1.68359e-07 3.14665e-05
0.00119938 -1.90537e-05 -1.13035e-07
-1.90537e-05 0.000104486 1.30093e-07
-1.13035e-07 1.30093e-07 4.10306e-05
0.00102807 -3.84575e-06 5.38036e-08
-3.84575e-06 1.69839e-05 1.95083e-07
5.38036e-08 1.95083e-07 -3.39521e-05
0.00140426 2.42929e-05 -1.6149e-07
2.42929e-05 0.000119759 1.58547e-06
-1.6149e-07 1.58547e-06 5.0183e-05
0.00138842 1.70012e-05 -1.1656e-07
1.70012e-05 8.19358e-05 -2.9681e-07
-1.1656e-07 -2.9681e-07 1.33395e-05
0.00127213 -4.96647e-06 -9.34325e-07
-4.96647e-06 2.37555e-05 -1.54056e-06
-9.34325e-07 -1.54056e-06 -3.06387e-05
0.00135929 -1.75844e-05 -1.21754e-06
-1.75844e-05 6.95275e-05 -3.47641e-07
-1.21754e-06 -3.47641e-07 2.47565e-05
0.00113311 -2.30562e-05 4.49989e-07
-2.30562e-05 5.98192e-05 1.03789e-08
4.49989e-07 1.03789e-08 -1.06232e-06
0.00128864 -2.75697e-05 3.80781e-07
-2.75697e-05 6.7678e-05 1.98378e-06
3.80781e-07 1.98378e-06 1.11856e-05
0.000987587 -2.45068e-05 2.75765e-07
-2.45068e-05 1.04994e-07 -9.56611e-07
2.75765e-07 -9.56611e-07 -7.06357e-05
0.00130021 -3.02601e-05 6.56309e-07
-3.02601e-05 0.00013408 5.63977e-07
6.56309e-07 5.63977e-07 5.64379e-05
0.000740516 5.33159e-06 9.49634e-07
5.33159e-06 -0.000128536 -2.35459e-06
9.49634e-07 -2.35459e-06 -0.000158957
0.00116258 -2.38733e-06 8.17425e-07
-2.38733e-06 8.32137e-05 -1.02374e-06
8.17425e-07 -1.02374e-06 3.34375e-05
0.00126466 -1.78356e-05 3.52661e-08
-1.78356e-05 0.000137997 1.81384e-07
3.52661e-08 1.81384e-07 7.5452e-05
0.00111955 -2.27009e-05 7.07629e-07
-2.27009e-05 6.43732e-05 -5.74503e-07
7.07629e-07 -5.74503e-07 -8.0203e-06
0.00110196 -2.38354e-05 2.59791e-07
-2.38354e-05 3.83846e-05 9.35679e-08
2.59791e-07 9.35679e-08 -2.63936e-05
0.00115399 -2.49508e-05 6.72536e-07
-2.49508e-05 6.54468e-05 3.64898e-07
6.72536e-07 3.64898e-07 -4.65022e-06
0.00100596 -6.66063e-06 -1.49651e-06
-6.66063e-06 4.54135e-06 -1.9131e-06
-1.49651e-06 -1.9131e-06 -2.63873e-05
0.00106254 -5.80123e-07 -1.17651e-06
-5.80123e-07 3.35589e-05 -1.13919e-06
-1.17651e-06 -1.13919e-06 -1.65517e-05
0.00125987 1.11944e-05 2.1273e-07
1.11944e-05 5.62672e-05 2.92015e-07
2.1273e-07 2.92015e-07 -3.88106e-06
0.00110434 9.35909e-06 -9.03976e-07
9.35909e-06 5.60079e-05 -4.5095e-07
-9.03976e-07 -4.5095e-07 -5.29834e-06
0.00110335 1.64199e-05 -6.55575e-07
1.64199e-05 5.43873e-05 -3.13957e-07
-6.55575e-07 -3.13957e-07 -4.69362e-06
0.00106713 1.94721e-05 -6.59813e-07
1.94721e-05 3.62599e-05 -1.72034e-07
-6.59813e-07 -1.72034e-07 -2.96334e-05
0.00118086 2.5872e-05 -2.76952e-07
2.5872e-05 4.90989e-05 -4.94603e-07
-2.76952e-07 -4.94603e-07 -1.43349e-05
0.00119976 2.34866e-05 4.14484e-07
2.34866e-05 3.89809e-05 5.62903e-07
4.14484e-07 5.62903e-07 -1.93949e-05
0.000957179 2.31395e-05 -3.54981e-07
2.31395e-05 -9.98346e-06 -2.69583e-07
-3.54981e-07 -2.69583e-07 -7.97113e-05
0.00123225 2.84201e-05 -8.03374e-07
2.84201e-05 9.5504e-05 -2.16837e-07
-8.03374e-07 -2.16837e-07 2.3089e-05
0.00106496 1.1075e-06 6.17948e-08
1.1075e-06 3.39431e-05 -2.77131e-08
6.17948e-08 -2.77131e-08 -1.58445e-05
0.00104954 1.12225e-05 3.18159e-07
1.12225e-05 2.87874e-05 2.63312e-07
3.18159e-07 2.63312e-07 -3.38396e-05
0.00116494 2.4363e-05 -9.11275e-08
2.4363e-05 8.49146e-05 -3.40432e-07
-9.11275e-08 -3.40432e-07 1.89459e-05
0.00107594 1.84123e-05 -3.01542e-07
1.84123e-05 4.12422e-05 1.95414e-08
-3.01542e-07 1.95414e-08 -2.60452e-05
0.00113595 2.27162e-05 -5.4017e-07
2.27162e-05 6.6344e-05 -3.49245e-07
-5.4017e-07 -3.49245e-07 -1.89e-06
0.00138326 1.19566e-05 -3.65546e-07
1.19566e-05 9.40414e-05 -3.47416e-07
-3.65546e-07 -3.47416e-07 4.59973e-05
0.0013182 3.03252e-05 3.61099e-07
3.03252e-05 0.000115236 -4.75841e-08
3.61099e-07 -4.75841e-08 4.79583e-05
0.0010206 2.57257e-05 -3.42482e-07
2.57257e-05 -4.91193e-05 7.41825e-07
-3.42482e-07 7.41825e-07 -0.000105964
0.0012364 2.74035e-05 5.68293e-07
2.74035e-05 0.000117405 5.46742e-07
5.68293e-07 5.46742e-07 4.25488e-05
0.00102644 2.87077e-05 -8.73648e-07
2.87077e-05 -3.76844e-06 -9.28802e-08
-8.73648e-07 -9.28802e-08 -8.35854e-05
0.000987765 1.28666e-05 9.65269e-07
1.28666e-05 -7.2063e-09 1.04571e-06
9.65269e-07 1.04571e-06 -6.34273e-05
0.00102779 2.20907e-05 7.18626e-07
2.20907e-05 1.96374e-05 8.00638e-08
7.18626e-07 8.00638e-08 -5.2582e-05
0.00116114 2.5598e-05 2.66914e-07
2.5598e-05 8.04552e-05 3.9855e-07
2.66914e-07 3.9855e-07 8.35271e-06
0.00100279 2.31203e-05 8.9968e-07
2.31203e-05 1.16221e-06 -8.56978e-08
8.9968e-07 -8.56978e-08 -7.09592e-05
0.00161139 3.8749e-06 -4.59242e-07
3.8749e-06 0.000171229 4.11659e-08
-4.59242e-07 4.11659e-08 0.000128241
0.00122756 2.33569e-05 9.84192e-07
2.33569e-05 3.2268e-06 -2.61297e-07
9.84192e-07 -2.61297e-07 -4.18838e-05
0.00122042 3.23881e-05 1.20806e-06
3.23881e-05 6.69865e-05 -1.06139e-06
1.20806e-06 -1.06139e-06 -8.2263e-06
0.000960883 2.76437e-05 7.65955e-07
2.76437e-05 -1.66528e-05 9.76844e-07
7.65955e-07 9.76844e-07 -0.000102713
0.00106679 1.37241e-06 -5.11331e-07
1.37241e-06 3.50832e-05 -7.8279e-07
-5.11331e-07 -7.8279e-07 -1.41851e-05
0.0010713 1.00772e-05 1.72301e-07
1.00772e-05 4.29072e-05 3.34751e-07
1.72301e-07 3.34751e-07 -1.92096e-05
0.00114602 1.84372e-05 3.54863e-07
1.84372e-05 8.40095e-05 3.90358e-07
3.54863e-07 3.90358e-07 1.38193e-05
0.00106628 3.52145e-06 -4.48647e-07
3.52145e-06 3.3803e-05 -1.1629e-06
-4.48647e-07 -1.1629e-06 -1.32671e-05
0.000979432 7.12081e-06 -4.71522e-07
7.12081e-06 -1.96541e-06 -1.19409e-06
-4.71522e-07 -1.19409e-06 -6.30465e-05
0.00106527 3.51029e-07 8.96031e-08
3.51029e-07 3.34234e-05 2.07686e-08
8.96031e-08 2.07686e-08 -1.31695e-05
0.00112335 1.35449e-05 -5.89861e-08
1.35449e-05 7.21342e-05 -3.483e-07
-5.89861e-08 -3.483e-07 3.13155e-06
0.00103503 5.17885e-06 1.22594e-07
5.17885e-06 2.494e-05 3.35571e-07
1.22594e-07 3.35571e-07 -3.50662e-05
0.00119121 1.71289e-05 3.24287e-07
1.71289e-05 0.000105338 2.72955e-07
3.24287e-07 2.72955e-07 3.05716e-05
0.00101108 -8.43921e-07 2.55218e-07
-8.43921e-07 1.61137e-05 9.5072e-07
2.55218e-07 9.5072e-07 -5.2941e-05
0.00097296 1.32252e-05 4.63062e-07
1.32252e-05 -5.92706e-06 1.10031e-06
4.63062e-07 1.10031e-06 -6.6016e-05
0.00106039 -3.96748e-06 2.02003e-07
-3.96748e-06 3.16185e-05 1.11378e-06
2.02003e-07 1.11378e-06 -1.49913e-05
0.00102999 -1.39554e-06 2.58682e-07
-1.39554e-06 5.97989e-06 1.86314e-06
2.58682e-07 1.86314e-06 -2.22363e-05
0.00103181 -2.5984e-06 5.4025e-08
-2.5984e-06 7.9023e-06 1.36833e-09
5.4025e-08 1.36833e-09 -2.01512e-05
0.00154158 -4.21945e-06 7.29652e-07
-4.21945e-06 0.000249033 1.97968e-06
7.29652e-07 1.97968e-06 0.000252267
0.0010325 -3.60951e-06 -5.72259e-07
-3.60951e-06 9.91495e-06 -1.86804e-06
-5.72259e-07 -1.86804e-06 -1.82684e-05
0.00155784 -5.69757e-06 -7.73033e-07
-5.69757e-06 0.000259791 -1.23262e-06
-7.73033e-07 -1.23262e-06 0.000262508
0.00121715 -6.05168e-06 4.13005e-06
-6.05168e-06 8.92984e-05 6.47587e-06
4.13005e-06 6.47587e-06 0.00010658
0.00157255 -7.06383e-06 -2.94254e-06
-7.06383e-06 0.000270354 -4.411e-06
-2.94254e-06 -4.411e-06 0.000272409
0.00116289 -7.89247e-06 1.64797e-06
-7.89247e-06 6.65408e-05 2.4566e-06
1.64797e-06 2.4566e-06 8.34019e-05
0.00110652 -9.60868e-06 -1.52374e-06
-9.60868e-06 4.31423e-05 -1.53385e-06
-1.52374e-06 -1.53385e-06 5.94814e-05
0.000939125 7.96312e-06 1.57794e-06
7.96312e-06 -3.86922e-05 -3.03566e-06
1.57794e-06 -3.03566e-06 -3.93637e-05
0.000945613 9.2592e-06 -8.88794e-08
9.2592e-06 -3.13221e-05 8.85406e-09
-8.88794e-08 8.85406e-09 -3.34189e-05
0.00238629 1.30087e-05 6.36408e-06
1.30087e-05 0.000672063 -3.81798e-06
6.36408e-06 -3.81798e-06 0.000693543
0.000948568 1.0211e-05 -2.49403e-06
1.0211e-05 -2.61632e-05 2.9817e-06
-2.49403e-06 2.9817e-06 -2.95078e-05
0.00241894 1.49257e-05 -2.37125e-07
1.49257e-05 0.000693018 -4.16338e-08
-2.37125e-07 -4.16338e-08 0.000713389
0.00242215 1.67954e-05 -8.28887e-06
1.67954e-05 0.000699088 3.71153e-06
-8.28887e-06 3.71153e-06 0.000718663
0.0012426 3.20685e-07 6.01899e-07
3.20685e-07 4.47764e-05 6.52038e-07
6.01899e-07 6.52038e-07 -1.29308e-05
0.00123434 -1.43335e-05 -4.94053e-08
-1.43335e-05 3.90834e-05 -1.49978e-07
-4.94053e-08 -1.49978e-07 -2.47931e-05
0.00125648 -1.03741e-05 1.88225e-06
-1.03741e-05 4.30729e-05 -1.58472e-06
1.88225e-06 -1.58472e-06 -1.28985e-05
0.00125953 -2.25079e-05 -1.08052e-06
-2.25079e-05 6.10525e-05 5.96958e-07
-1.08052e-06 5.96958e-07 -7.75503e-06
0.00120226 -1.2694e-05 -2.66551e-07
-1.2694e-05 5.68252e-05 7.90773e-07
-2.66551e-07 7.90773e-07 -7.79641e-06
0.00118729 7.35652e-06 -2.83054e-08
7.35652e-06 5.08564e-05 -3.23257e-08
-2.83054e-08 -3.23257e-08 -1.44981e-05
0.00119634 1.17514e-05 2.37547e-07
1.17514e-05 5.77285e-05 -5.1156e-08
2.37547e-07 -5.1156e-08 -6.92083e-06
0.0012155 -1.84691e-05 -3.34324e-07
-1.84691e-05 6.43531e-05 5.01777e-07
-3.34324e-07 5.01777e-07 -1.76455e-06
0.00122857 -1.84567e-05 2.37808e-07
-1.84567e-05 3.91317e-05 -8.33963e-09
2.37808e-07 -8.33963e-09 -2.47397e-05
0.00127869 -3.04239e-06 3.09868e-07
-3.04239e-06 4.49389e-05 -3.6159e-08
3.09868e-07 -3.6159e-08 -4.38848e-06
0.00116198 5.53675e-06 7.5345e-08
5.53675e-06 4.17879e-05 -3.47315e-07
7.5345e-08 -3.47315e-07 -2.34246e-05
0.00117827 -2.32679e-05 1.23181e-07
-2.32679e-05 5.02939e-05 -4.61003e-07
1.23181e-07 -4.61003e-07 -1.65416e-05
0.00130031 -1.11975e-05 -1.16159e-06
-1.11975e-05 5.4981e-05 1.00609e-06
-1.16159e-06 1.00609e-06 9.0348e-07
0.0012586 2.25057e-05 -3.75281e-07
2.25057e-05 5.57652e-05 -1.46212e-06
-3.75281e-07 -1.46212e-06 -1.39553e-05
0.001417 1.65664e-05 -1.47232e-07
1.65664e-05 0.000104671 4.57049e-07
-1.47232e-07 4.57049e-07 3.62516e-05
0.0013874 -2.16671e-06 7.14478e-07
-2.16671e-06 8.86258e-05 1.03523e-06
7.14478e-07 1.03523e-06 2.83191e-05
0.00113337 -1.92463e-05 -5.17916e-07
-1.92463e-05 6.2093e-05 9.12077e-08
-5.17916e-07 9.12077e-08 5.26014e-06
0.00122968 -2.45503e-05 -9.3205e-08
-2.45503e-05 0.000111956 2.5817e-07
-9.3205e-08 2.5817e-07 4.96837e-05
0.00115271 -2.73716e-05 -6.02722e-07
-2.73716e-05 6.95922e-05 8.09165e-07
-6.02722e-07 8.09165e-07 -4.1325e-06
0.00130361 -1.43449e-05 9.63186e-07
-1.43449e-05 6.51549e-05 2.35813e-07
9.63186e-07 2.35813e-07 1.01804e-05
0.00116527 -2.31634e-05 5.03097e-07
-2.31634e-05 6.30785e-06 -9.30086e-07
5.03097e-07 -9.30086e-07 -4.24625e-05
0.00123356 -2.69948e-05 -8.85915e-07
-2.69948e-05 7.18352e-05 -2.38326e-06
-8.85915e-07 -2.38326e-06 7.83679e-06
0.00115507 -2.29832e-05 -4.98745e-07
-2.29832e-05 6.7719e-05 -9.84462e-08
-4.98745e-07 -9.84462e-08 6.47999e-06
0.00112797 -2.37381e-05 -1.30353e-06
-2.37381e-05 5.00159e-05 1.05839e-07
-1.30353e-06 1.05839e-07 -1.47574e-05
0.00121068 -2.39162e-05 -1.09054e-06
-2.39162e-05 0.000101398 4.47464e-08
-1.09054e-06 4.47464e-08 3.4125e-05
0.000729903 6.68572e-06 -8.47611e-07
6.68572e-06 -0.000130841 1.17916e-06
-8.47611e-07 1.17916e-06 -0.000162889
0.00127561 -1.99581e-05 -7.26496e-07
-1.99581e-05 0.000141588 7.93563e-07
-7.26496e-07 7.93563e-07 7.83113e-05
0.000905553 -5.1971e-06 -8.17768e-07
-5.1971e-06 -4.35747e-05 1.24681e-06
-8.17768e-07 1.24681e-06 -9.52899e-05
0.00132738 2.36356e-05 -2.62267e-08
2.36356e-05 8.82609e-05 5.04837e-07
-2.62267e-08 5.04837e-07 1.95994e-05
0.00137049 1.61166e-05 1.44926e-07
1.61166e-05 7.00698e-05 2.43321e-07
1.44926e-07 2.43321e-07 1.58835e-06
0.00129323 -4.59842e-06 -1.24526e-07
-4.59842e-06 3.44935e-05 -2.04874e-07
-1.24526e-07 -2.04874e-07 -2.09412e-05
0.00114828 -2.32299e-05 5.62454e-08
-2.32299e-05 6.69807e-05 1.11126e-07
5.62454e-08 1.11126e-07 6.02638e-06
0.00103821 -2.48936e-05 -3.60439e-08
-2.48936e-05 2.43038e-05 4.25876e-08
-3.60439e-08 4.25876e-08 -4.57281e-05
0.0012812 -2.97707e-05 -4.60119e-07
-2.97707e-05 0.000125551 6.62654e-07
-4.60119e-07 6.62654e-07 4.84502e-05
0.00137906 -1.82112e-05 1.9027e-07
-1.82112e-05 8.14851e-05 1.84965e-07
1.9027e-07 1.84965e-07 3.71153e-05
0.001228 -2.71773e-05 -1.30142e-07
-2.71773e-05 3.81894e-05 -6.1031e-07
-1.30142e-07 -6.1031e-07 -1.83002e-05
0.000877923 5.59496e-06 1.78391e-07
5.59496e-06 -6.16811e-05 -5.87033e-07
1.78391e-07 -5.87033e-07 -9.11478e-05
0.0011527 -7.25895e-07 -3.92418e-08
-7.25895e-07 7.90712e-05 1.06427e-07
-3.92418e-08 1.06427e-07 2.921e-05
0.00110147 -2.38459e-05 -2.5786e-07
-2.38459e-05 3.83247e-05 8.77857e-08
-2.5786e-07 8.77857e-08 -2.6597e-05
0.00116689 -2.51085e-05 -5.21301e-08
-2.51085e-05 7.17815e-05 4.4247e-08
-5.21301e-08 4.4247e-08 1.72854e-06
0.00112419 -2.2594e-05 1.7596e-07
-2.2594e-05 6.71694e-05 -1.7548e-07
1.7596e-07 -1.7548e-07 -4.76111e-06
0.00121161 -1.89449e-05 -5.17233e-07
-1.89449e-05 0.000111337 6.96951e-07
-5.17233e-07 6.96951e-07 4.83302e-05
0.00130935 2.42812e-05 4.94546e-07
2.42812e-05 7.99489e-05 1.43923e-06
4.94546e-07 1.43923e-06 1.36209e-05
0.00143295 1.28161e-05 -3.80237e-07
1.28161e-05 9.30716e-05 -1.17853e-06
-3.80237e-07 -1.17853e-06 2.75066e-05
0.00133509 -1.06962e-05 -2.08075e-06
-1.06962e-05 3.66599e-05 -1.3136e-06
-2.08075e-06 -1.3136e-06 -4.02734e-06
0.0015142 -2.58852e-05 -9.91139e-07
-2.58852e-05 0.000136555 6.1861e-07
-9.91139e-07 6.1861e-07 9.51896e-05
0.00105373 -2.40128e-05 1.73846e-07
-2.40128e-05 2.33047e-05 -2.08442e-08
1.73846e-07 -2.08442e-08 -4.28144e-05
0.00130671 -3.08e-05 8.09764e-07
-3.08e-05 0.00012192 2.59816e-06
8.09764e-07 2.59816e-06 4.60502e-05
0.00131333 -2.95883e-05 4.15865e-07
-2.95883e-05 0.000155402 -1.10077e-06
4.15865e-07 -1.10077e-06 7.87784e-05
0.00101974 4.73426e-06 7.10118e-07
4.73426e-06 4.89669e-06 -1.75134e-06
7.10118e-07 -1.75134e-06 -2.22002e-05
0.00107472 -4.24559e-06 2.20638e-07
-4.24559e-06 3.70348e-05 -1.15103e-06
2.20638e-07 -1.15103e-06 -7.21434e-06
0.00085319 4.16339e-06 3.05614e-07
4.16339e-06 -6.7211e-05 -1.60583e-06
3.05614e-07 -1.60583e-06 -0.000116257
0.00117264 -1.42589e-05 1.55456e-07
-1.42589e-05 9.43907e-05 -1.56148e-07
1.55456e-07 -1.56148e-07 3.00438e-05
0.00109877 -2.18209e-05 7.5907e-07
-2.18209e-05 5.76065e-05 -5.47293e-07
7.5907e-07 -5.47293e-07 -1.53696e-05
0.001204 -2.48425e-05 1.0074e-06
-2.48425e-05 0.000101241 2.85235e-07
1.0074e-06 2.85235e-07 2.46762e-05
0.00108988 -2.50537e-05 5.74395e-07
-2.50537e-05 3.40455e-05 6.47125e-08
5.74395e-07 6.47125e-08 -3.41267e-05
0.00133251 -2.787e-05 1.75855e-07
-2.787e-05 0.000157359 4.20805e-07
1.75855e-07 4.20805e-07 8.28384e-05
0.00106259 1.33128e-06 -9.66305e-07
1.33128e-06 3.29025e-05 -1.20296e-06
-9.66305e-07 -1.20296e-06 -1.68986e-05
0.00112724 1.30797e-05 -5.74632e-07
1.30797e-05 6.68421e-05 -3.45677e-07
-5.74632e-07 -3.45677e-07 4.49194e-06
0.00150481 1.16272e-05 4.92169e-07
1.16272e-05 0.000152056 1.42821e-07
4.92169e-07 1.42821e-07 0.0001044
0.00113981 1.92919e-05 -9.71288e-07
1.92919e-05 7.29554e-05 7.29043e-08
-9.71288e-07 7.29043e-08 6.07889e-06
0.00121111 2.47229e-05 -6.98387e-07
2.47229e-05 0.000107928 -9.18985e-07
-6.98387e-07 -9.18985e-07 4.25945e-05
0.00107628 2.20168e-05 -8.04672e-07
2.20168e-05 3.962e-05 -4.29132e-07
-8.04672e-07 -4.29132e-07 -2.83346e-05
0.00133375 3.03796e-05 1.2168e-07
3.03796e-05 0.000120441 1.71192e-07
1.2168e-07 1.71192e-07 5.3664e-05
0.00119874 2.64873e-05 -2.37276e-07
2.64873e-05 4.12075e-05 1.85427e-06
-2.37276e-07 1.85427e-06 -1.4357e-05
0.00112728 2.65107e-05 -7.32834e-08
2.65107e-05 6.58302e-05 -1.84531e-07
-7.32834e-08 -1.84531e-07 -9.61657e-06
0.00114636 2.95942e-05 -1.91136e-06
2.95942e-05 5.36931e-05 -2.6893e-07
-1.91136e-06 -2.6893e-07 -2.72311e-05
0.000989946 1.24343e-05 2.63008e-07
1.24343e-05 1.20215e-06 3.24034e-07
2.63008e-07 3.24034e-07 -6.23204e-05
0.00109583 2.25794e-05 -2.56944e-07
2.25794e-05 5.24045e-05 -4.06091e-07
-2.56944e-07 -4.06091e-07 -1.89823e-05
0.00118074 2.57084e-05 -1.67474e-07
2.57084e-05 9.06324e-05 -4.14394e-07
-1.67474e-07 -4.14394e-07 1.9119e-05
0.00110966 2.34916e-05 -8.53338e-09
2.34916e-05 5.25306e-05 -1.89056e-07
-8.53338e-09 -1.89056e-07 -1.9225e-05
0.00147742 3.62458e-06 2.21101e-07
3.62458e-06 0.000106768 -7.48536e-07
2.21101e-07 -7.48536e-07 6.39952e-05
0.00122995 2.28211e-05 2.56345e-07
2.28211e-05 1.2512e-05 6.28988e-08
2.56345e-07 6.28988e-08 -3.43305e-05
0.00137614 3.35942e-05 -2.55543e-07
3.35942e-05 0.00013993 -7.98633e-08
-2.55543e-07 -7.98633e-08 6.53685e-05
0.000997744 2.83168e-05 1.21687e-07
2.83168e-05 -2.04845e-06 1.52819e-07
1.21687e-07 1.52819e-07 -8.78644e-05
0.00117137 2.18154e-05 2.16846e-07
2.18154e-05 9.49535e-05 1.536e-07
2.16846e-07 1.536e-07 2.33423e-05
0.00128139 -1.18228e-05 -1.42665e-06
-1.18228e-05 4.23116e-05 -5.52552e-08
-1.42665e-06 -5.52552e-08 -8.62599e-06
0.0012647 2.57398e-05 8.28866e-07
2.57398e-05 0.000134681 4.47332e-07
8.28866e-07 4.47332e-07 5.68221e-05
0.00119119 2.78811e-05 6.61214e-07
2.78811e-05 9.42654e-05 5.82957e-07
6.61214e-07 5.82957e-07 1.48045e-05
0.00161047 2.03639e-05 1.82361e-06
2.03639e-05 0.000134217 -1.19428e-06
1.82361e-06 -1.19428e-06 0.000101973
0.00122406 3.46758e-05 3.00001e-06
3.46758e-05 2.408e-05 -1.60011e-06
3.00001e-06 -1.60011e-06 -4.81273e-05
0.00144678 3.52288e-05 1.03418e-06
3.52288e-05 0.00020767 1.22604e-06
1.03418e-06 1.22604e-06 0.000116704
0.00115828 1.04877e-05 -3.42949e-07
1.04877e-05 8.55313e-05 -4.02494e-07
-3.42949e-07 -4.02494e-07 2.38824e-05
0.00113929 1.83345e-05 -4.73304e-08
1.83345e-05 8.11761e-05 -7.10712e-08
-4.73304e-08 -7.10712e-08 1.09707e-05
0.00114626 2.11181e-05 4.18041e-07
2.11181e-05 8.68904e-05 2.10351e-07
4.18041e-07 2.10351e-07 1.08707e-05
0.00106614 2.4276e-06 -2.99991e-07
2.4276e-06 3.39039e-05 -1.13956e-06
-2.99991e-07 -1.13956e-06 -1.27038e-05
0.00109604 7.80279e-06 -9.90363e-08
7.80279e-06 5.48438e-05 -3.93312e-07
-9.90363e-08 -3.93312e-07 -4.8066e-06
0.00103318 1.10241e-05 -3.53555e-07
1.10241e-05 2.77165e-05 -9.81839e-07
-3.53555e-07 -9.81839e-07 -4.20009e-05
0.00106283 -3.93144e-06 9.17474e-08
-3.93144e-06 3.28276e-05 1.74645e-08
9.17474e-08 1.74645e-08 -1.38165e-05
0.000974121 6.51975e-06 1.331e-08
6.51975e-06 -5.25585e-06 3.49742e-07
1.331e-08 3.49742e-07 -6.5309e-05
0.00112974 1.38086e-05 4.0317e-08
1.38086e-05 7.50653e-05 -3.49758e-07
4.0317e-08 -3.49758e-07 -3.03024e-07
0.00112345 6.22174e-06 9.60108e-08
6.22174e-06 7.12627e-05 3.10417e-07
9.60108e-08 3.10417e-07 2.9001e-06
0.00117369 2.13099e-05 2.14201e-07
2.13099e-05 9.41767e-05 1.9037e-08
2.14201e-07 1.9037e-08 1.52162e-05
0.00107415 3.85701e-07 2.62405e-07
3.85701e-07 4.45555e-05 7.20766e-07
2.62405e-07 7.20766e-07 -3.11067e-05
0.00114016 1.4255e-05 2.43501e-07
1.4255e-05 7.77525e-05 5.86953e-07
2.43501e-07 5.86953e-07 9.822e-06
0.00108541 5.05114e-06 3.31379e-07
5.05114e-06 4.97291e-05 7.5825e-07
3.31379e-07 7.5825e-07 -9.97002e-06
0.00106302 -5.06115e-06 5.18445e-08
-5.06115e-06 3.33597e-05 1.08844e-06
5.18445e-08 1.08844e-06 -1.35859e-05
0.00103106 -1.90122e-07 5.66105e-08
-1.90122e-07 6.21397e-06 1.83063e-06
5.66105e-08 1.83063e-06 -2.22626e-05
0.00103286 -1.46432e-06 4.66564e-08
-1.46432e-06 7.44688e-06 3.20498e-09
4.66564e-08 3.20498e-09 -2.07883e-05
0.00153891 -2.33211e-06 3.99702e-07
-2.33211e-06 0.000245828 1.9813e-06
3.99702e-07 1.9813e-06 0.000249204
0.00103635 -2.64996e-06 -3.60669e-07
-2.64996e-06 1.02275e-05 -1.85956e-06
-3.60669e-07 -1.85956e-06 -1.78598e-05
0.00155915 -4.01125e-06 -5.42436e-07
-4.01125e-06 0.000257735 -1.22811e-06
-5.42436e-07 -1.22811e-06 0.000260854
0.00121671 -4.28111e-06 2.85937e-06
-4.28111e-06 8.59181e-05 6.46328e-06
2.85937e-06 6.46328e-06 0.000103703
0.00157325 -5.5352e-06 -2.12383e-06
-5.5352e-06 0.000267438 -4.43224e-06
-2.12383e-06 -4.43224e-06 0.000270071
0.00116647 -6.16916e-06 1.15127e-06
-6.16916e-06 6.44066e-05 2.4602e-06
1.15127e-06 2.4602e-06 8.19269e-05
0.00111136 -7.91882e-06 -1.21486e-06
-7.91882e-06 4.12039e-05 -1.54873e-06
-1.21486e-06 -1.54873e-06 5.83085e-05
0.00102426 3.88626e-06 4.9075e-07
3.88626e-06 4.50028e-06 -1.77568e-06
4.9075e-07 -1.77568e-06 -2.09889e-05
0.000946861 6.5932e-06 1.21805e-06
6.5932e-06 -3.87015e-05 -3.06566e-06
1.21805e-06 -3.06566e-06 -3.80863e-05
0.000954587 7.96509e-06 -6.06207e-08
7.96509e-06 -3.13216e-05 4.4748e-09
-6.06207e-08 4.4748e-09 -3.20642e-05
0.00235387 1.09058e-05 5.58024e-06
1.09058e-05 0.000651638 -3.84849e-06
5.58024e-06 -3.84849e-06 0.000674121
0.000962474 9.2562e-06 -2.03539e-06
9.2562e-06 -2.33106e-05 3.02719e-06
-2.03539e-06 3.02719e-06 -2.54792e-05
0.00238058 1.30098e-05 -2.36947e-07
1.30098e-05 0.000669782 -3.29149e-08
-2.36947e-07 -3.29149e-08 0.000691164
0.00240696 1.49114e-05 -7.67859e-06
1.49114e-05 0.000687558 3.80881e-06
-7.67859e-06 3.80881e-06 0.000707894
0.00117685 -3.90791e-06 1.11558e-06
-3.90791e-06 -4.66476e-06 -1.74422e-07
1.11558e-06 -1.74422e-07 -5.43287e-05
0.00118886 -1.76578e-05 2.74445e-07
-1.76578e-05 2.17194e-05 -7.27695e-07
2.74445e-07 -7.27695e-07 -4.12273e-05
0.00126678 -1.89383e-05 -5.72972e-07
-1.89383e-05 8.63955e-05 1.57071e-06
-5.72972e-07 1.57071e-06 2.02449e-05
0.00120813 1.49142e-05 1.01256e-07
1.49142e-05 5.98175e-05 -6.58206e-07
1.01256e-07 -6.58206e-07 -5.49038e-06
0.00120907 5.93567e-06 1.59098e-07
5.93567e-06 6.67663e-05 -3.99698e-07
1.59098e-07 -3.99698e-07 2.28995e-06
0.00120744 -2.35126e-05 -5.33853e-08
-2.35126e-05 6.47635e-05 3.51662e-07
-5.33853e-08 3.51662e-07 -2.86393e-06
0.00127392 -1.09307e-05 -5.27343e-07
-1.09307e-05 4.5108e-05 2.86904e-07
-5.27343e-07 2.86904e-07 -7.62315e-06
0.00122434 1.26221e-06 6.53753e-07
1.26221e-06 7.65211e-05 -1.44704e-06
6.53753e-07 -1.44704e-06 1.11625e-05
0.00115585 -2.03484e-05 -1.13435e-06
-2.03484e-05 2.21749e-05 7.50059e-07
-1.13435e-06 7.50059e-07 -4.01237e-05
0.00129994 -2.07123e-05 -1.02222e-06
-2.07123e-05 9.58307e-05 -7.25542e-07
-1.02222e-06 -7.25542e-07 5.03382e-05
0.00125517 2.30278e-05 2.297e-07
2.30278e-05 5.89446e-05 -4.04855e-07
2.297e-07 -4.04855e-07 -8.80497e-06
0.00135907 1.49971e-05 1.55399e-07
1.49971e-05 6.1331e-05 5.23175e-07
1.55399e-07 5.23175e-07 -7.04417e-06
0.00130863 -4.29182e-06 7.19021e-07
-4.29182e-06 4.26109e-05 8.86338e-07
7.19021e-07 8.86338e-07 -1.38669e-05
0.00116227 -2.33923e-05 -3.64589e-07
-2.33923e-05 7.35954e-05 2.30691e-07
-3.64589e-07 2.30691e-07 1.2568e-05
0.00108727 -2.52683e-05 -2.33104e-07
-2.52683e-05 4.77512e-05 1.00123e-06
-2.33104e-07 1.00123e-06 -2.15689e-05
0.00125579 -2.91992e-05 -5.76355e-07
-2.91992e-05 0.000113889 5.41398e-07
-5.76355e-07 5.41398e-07 3.73487e-05
0.00141025 -1.89525e-05 2.68484e-06
-1.89525e-05 9.86687e-05 2.86267e-07
2.68484e-06 2.86267e-07 5.47017e-05
0.00117573 -2.68159e-05 -1.22975e-06
-2.68159e-05 1.27488e-05 -2.48176e-06
-1.22975e-06 -2.48176e-06 -4.37636e-05
0.00110029 -2.38489e-05 -8.04659e-07
-2.38489e-05 3.79321e-05 -4.89094e-08
-8.04659e-07 -4.89094e-08 -2.7131e-05
0.00118102 -2.52793e-05 -8.17696e-07
-2.52793e-05 7.86736e-05 -2.69844e-07
-8.17696e-07 -2.69844e-07 8.66644e-06
0.00112402 -2.24251e-05 -3.60867e-07
-2.24251e-05 6.7695e-05 2.64472e-08
-3.60867e-07 2.64472e-08 -3.7681e-06
0.00101521 5.92482e-06 -7.40873e-07
5.92482e-06 5.13268e-06 1.15725e-06
-7.40873e-07 1.15725e-06 -2.33818e-05
0.00114124 2.44479e-06 -6.32495e-07
2.44479e-06 7.42783e-05 1.30003e-06
-6.32495e-07 1.30003e-06 2.42844e-05
0.00115397 -1.88029e-05 -1.19627e-06
-1.88029e-05 8.24709e-05 1.25667e-06
-1.19627e-06 1.25667e-06 1.9035e-05
0.001236 2.34547e-05 8.15156e-08
2.34547e-05 4.32384e-05 3.54609e-07
8.15156e-08 3.54609e-07 -2.37293e-05
0.00102436 4.69461e-06 -5.32065e-08
4.69461e-06 6.98705e-06 -5.45565e-09
-5.32065e-08 -5.45565e-09 -2.01192e-05
0.000973889 1.30435e-07 -2.62331e-07
1.30435e-07 -1.19938e-05 -9.39292e-09
-2.62331e-07 -9.39292e-09 -5.67543e-05
0.00142965 1.26362e-05 1.33036e-07
1.26362e-05 9.04948e-05 4.86533e-07
1.33036e-07 4.86533e-07 2.55002e-05
0.00126265 -1.12078e-05 -1.7503e-07
-1.12078e-05 5.35214e-06 -2.87611e-07
-1.7503e-07 -2.87611e-07 -3.77746e-05
0.00104903 -2.39091e-05 -1.15373e-07
-2.39091e-05 2.09175e-05 3.43503e-07
-1.15373e-07 3.43503e-07 -4.49362e-05
0.00122874 -2.89713e-05 -1.68256e-07
-2.89713e-05 0.000114369 1.49574e-07
-1.68256e-07 1.49574e-07 3.69691e-05
0.00116811 -2.9218e-05 5.47959e-07
-2.9218e-05 5.34889e-05 6.15375e-07
5.47959e-07 6.15375e-07 -2.14522e-05
0.00142276 -2.61665e-05 8.32838e-08
-2.61665e-05 9.26992e-05 -7.39793e-07
8.32838e-08 -7.39793e-07 5.12094e-05
0.00109781 1.48245e-06 1.77849e-07
1.48245e-06 5.19386e-05 -4.73144e-07
1.77849e-07 -4.73144e-07 4.45179e-06
0.00116058 -1.21803e-05 -2.85687e-07
-1.21803e-05 8.92087e-05 4.69304e-07
-2.85687e-07 4.69304e-07 2.46433e-05
0.00115324 -2.55956e-05 2.79465e-07
-2.55956e-05 6.4245e-05 1.21388e-07
2.79465e-07 1.21388e-07 -3.75205e-06
0.00121916 -2.6866e-05 -5.93808e-07
-2.6866e-05 0.000101066 -1.34516e-07
-5.93808e-07 -1.34516e-07 2.74375e-05
0.00113446 -2.42666e-05 1.92969e-07
-2.42666e-05 6.70066e-05 1.7927e-07
1.92969e-07 1.7927e-07 -1.04896e-05
0.00112016 -2.20177e-05 3.0373e-07
-2.20177e-05 6.77755e-05 -3.45609e-07
3.0373e-07 -3.45609e-07 -4.84863e-06
0.00137247 2.55511e-05 9.55882e-07
2.55511e-05 0.000103504 7.80891e-07
9.55882e-07 7.80891e-07 3.12428e-05
0.0014413 6.55426e-06 -1.29256e-06
6.55426e-06 8.7054e-05 -2.07666e-06
-1.29256e-06 -2.07666e-06 3.46028e-05
0.00149501 -2.11954e-05 -3.44681e-06
-2.11954e-05 8.49469e-05 -2.25279e-07
-3.44681e-06 -2.25279e-07 6.11585e-05
0.0013782 -3.24122e-05 6.9561e-07
-3.24122e-05 0.000113887 2.84039e-06
6.9561e-07 2.84039e-06 5.25817e-05
0.00107538 -2.5848e-05 1.86273e-07
-2.5848e-05 3.75295e-05 -5.39177e-07
1.86273e-07 -5.39177e-07 -3.31684e-05
0.00144774 -3.38484e-05 -2.45277e-08
-3.38484e-05 0.000218081 -2.71472e-07
-2.45277e-08 -2.71472e-07 0.000134218
0.000883027 2.17872e-06 1.38179e-07
2.17872e-06 -5.8159e-05 -1.54187e-06
1.38179e-07 -1.54187e-06 -0.000101518
0.00106314 -3.87491e-06 5.32324e-07
-3.87491e-06 3.31669e-05 -1.07171e-06
5.32324e-07 -1.07171e-06 -1.26127e-05
0.00129011 -8.91077e-07 -1.16023e-07
-8.91077e-07 0.000150002 -1.4353e-07
-1.16023e-07 -1.4353e-07 9.30091e-05
0.000921974 -1.37898e-06 2.29883e-07
-1.37898e-06 -2.47632e-05 -8.28297e-07
2.29883e-07 -8.28297e-07 -8.96498e-05
0.00122379 -2.05029e-05 5.1332e-07
-2.05029e-05 0.000120169 -3.69446e-08
5.1332e-07 -3.69446e-08 4.72093e-05
0.000986802 -2.22691e-05 2.56951e-07
-2.22691e-05 8.08255e-07 -2.96115e-07
2.56951e-07 -2.96115e-07 -8.18041e-05
0.00128668 -2.72522e-05 1.26762e-06
-2.72522e-05 0.000145388 2.2921e-07
1.26762e-06 2.2921e-07 6.13361e-05
0.00111004 -2.74914e-05 2.74457e-07
-2.74914e-05 5.33398e-05 1.77484e-07
2.74457e-07 1.77484e-07 -2.03135e-05
0.000993572 1.24159e-05 -4.24374e-07
1.24159e-05 3.09985e-06 -4.32153e-07
-4.24374e-07 -4.32153e-07 -6.05402e-05
0.00115985 2.20663e-05 -1.3517e-06
2.20663e-05 8.32665e-05 -6.08039e-07
-1.3517e-06 -6.08039e-07 1.27444e-05
0.00134302 3.38565e-06 -3.23001e-07
3.38565e-06 4.19623e-05 -1.09105e-06
-3.23001e-07 -1.09105e-06 -5.783e-07
0.00123477 2.23032e-05 -4.36447e-07
2.23032e-05 2.28683e-05 8.47353e-07
-4.36447e-07 8.47353e-07 -2.56916e-05
0.00122382 2.41811e-05 -1.03851e-06
2.41811e-05 0.000107332 -2.28338e-07
-1.03851e-06 -2.28338e-07 3.59264e-05
0.0012099 2.5835e-05 -7.46235e-07
2.5835e-05 0.000105413 -1.05275e-06
-7.46235e-07 -1.05275e-06 3.44716e-05
0.00153907 3.48386e-05 -8.01076e-07
3.48386e-05 0.000216461 4.28365e-07
-8.01076e-07 4.28365e-07 0.00014253
0.00104799 2.91093e-05 -9.84784e-07
2.91093e-05 1.92505e-05 -8.30195e-07
-9.84784e-07 -8.30195e-07 -6.637e-05
0.00114461 2.19926e-05 -2.66714e-07
2.19926e-05 8.20767e-05 -3.26947e-07
-2.66714e-07 -3.26947e-07 1.04386e-05
0.00113025 -1.069e-05 2.05511e-08
-1.069e-05 -2.34609e-05 6.85348e-07
2.05511e-08 6.85348e-07 -7.10164e-05
0.0011799 2.50859e-05 1.73408e-07
2.50859e-05 9.28575e-05 3.11752e-07
1.73408e-07 3.11752e-07 1.51903e-05
0.00107528 2.67814e-05 2.10631e-07
2.67814e-05 3.65222e-05 -5.70371e-08
2.10631e-07 -5.70371e-08 -4.36994e-05
0.00139718 1.79046e-05 5.29516e-07
1.79046e-05 4.00133e-05 -3.48609e-07
5.29516e-07 -3.48609e-07 6.42915e-06
0.00142539 3.6786e-05 5.6933e-07
3.6786e-05 0.000116429 -7.70726e-07
5.6933e-07 -7.70726e-07 4.4861e-05
0.00142451 3.53776e-05 3.42214e-07
3.53776e-05 0.000198422 5.35544e-07
3.42214e-07 5.35544e-07 0.000106358
0.00122735 2.32087e-05 2.52614e-07
2.32087e-05 0.00012645 2.67807e-07
2.52614e-07 2.67807e-07 4.80407e-05
0.00135455 7.59769e-06 1.39363e-06
7.59769e-06 6.55058e-06 -2.73019e-06
1.39363e-06 -2.73019e-06 -2.62346e-05
0.0013664 2.76251e-05 2.94984e-07
2.76251e-05 0.000181275 -3.86108e-09
2.94984e-07 -3.86108e-09 9.95737e-05
0.00157142 3.43812e-05 -2.22044e-07
3.43812e-05 0.000278786 1.16374e-06
-2.22044e-07 1.16374e-06 0.000187171
0.00118564 3.94e-05 3.38192e-06
3.94e-05 -6.97852e-05 -1.30415e-06
3.38192e-06 -1.30415e-06 -0.000128386
0.00109915 3.74866e-05 7.432e-07
3.74866e-05 2.53675e-05 2.88588e-07
7.432e-07 2.88588e-07 -7.09059e-05
0.00200305 -6.09568e-05 -7.39532e-06
-6.09568e-05 -4.08017e-06 -9.40664e-06
-7.39532e-06 -9.40664e-06 3.92613e-05
0.0011333 1.8436e-05 -3.58271e-07
1.8436e-05 7.8704e-05 -5.64283e-07
-3.58271e-07 -5.64283e-07 8.47641e-06
0.00113368 2.09341e-05 -3.48622e-08
2.09341e-05 8.18572e-05 -5.91855e-08
-3.48622e-08 -5.91855e-08 5.77313e-06
0.00122131 2.19358e-05 3.64608e-07
2.19358e-05 0.000122883 -4.51006e-08
3.64608e-07 -4.51006e-08 4.32625e-05
0.0010644 -4.61417e-06 -4.58222e-08
-4.61417e-06 3.36057e-05 -1.11681e-06
-4.58222e-08 -1.11681e-06 -1.30622e-05
0.000976391 -5.39789e-07 -2.06468e-07
-5.39789e-07 -4.04355e-06 -4.02036e-07
-2.06468e-07 -4.02036e-07 -6.40637e-05
0.00123744 1.28435e-05 -1.91324e-07
1.28435e-05 0.000127191 -2.87991e-07
-1.91324e-07 -2.87991e-07 5.95042e-05
0.00106904 1.18703e-05 -4.7043e-07
1.18703e-05 4.51561e-05 -9.44811e-07
-4.7043e-07 -9.44811e-07 -3.08265e-05
0.00106203 -6.9533e-06 2.10999e-08
-6.9533e-06 3.29004e-05 1.87793e-08
2.10999e-08 1.87793e-08 -1.40797e-05
0.0010298 6.36055e-06 1.26937e-07
6.36055e-06 2.23355e-05 7.78804e-09
1.26937e-07 7.78804e-09 -3.77667e-05
0.00113655 2.08223e-05 -3.37494e-07
2.08223e-05 7.54207e-05 -4.9695e-07
-3.37494e-07 -4.9695e-07 -3.6641e-06
0.00113921 8.40456e-06 -2.99224e-08
8.40456e-06 7.74375e-05 -2.69851e-08
-2.99224e-08 -2.69851e-08 9.51577e-06
0.00114824 2.47226e-06 8.14484e-08
2.47226e-06 8.16802e-05 -6.86239e-09
8.14484e-08 -6.86239e-09 6.56952e-06
0.0011269 1.05606e-05 1.33058e-07
1.05606e-05 6.46048e-05 6.68099e-07
1.33058e-07 6.68099e-07 -1.59497e-05
0.00121624 1.48091e-05 1.07156e-07
1.48091e-05 0.000114282 1.57107e-07
1.07156e-07 1.57107e-07 4.00595e-05
0.00123492 1.77525e-05 1.43096e-07
1.77525e-05 0.000123471 2.46748e-07
1.43096e-07 2.46748e-07 5.55541e-05
0.000947661 2.28624e-06 4.41057e-08
2.28624e-06 -1.75557e-05 7.69331e-07
4.41057e-08 7.69331e-07 -7.87718e-05
0.000871976 4.83835e-08 -7.31861e-09
4.83835e-08 -5.97185e-05 1.49109e-06
-7.31861e-09 1.49109e-06 -0.000108194
0.00127175 8.43362e-07 2.76524e-08
8.43362e-07 0.00014247 3.33386e-07
2.76524e-08 3.33386e-07 8.27228e-05
0.00087608 4.66599e-08 -2.36646e-07
4.66599e-08 -5.77535e-05 1.4964e-06
-2.36646e-07 1.4964e-06 -0.000106253
0.00103261 1.06901e-06 -1.54609e-07
1.06901e-06 7.19356e-06 1.80386e-06
-1.54609e-07 1.80386e-06 -2.14238e-05
0.00103262 -2.67903e-07 5.25537e-08
-2.67903e-07 6.96559e-06 4.78657e-09
5.25537e-08 4.78657e-09 -2.15153e-05
0.000969636 -3.26495e-07 9.75196e-08
-3.26495e-07 -3.44817e-05 3.19786e-06
9.75196e-08 3.19786e-06 -3.41e-05
0.00103572 -1.53183e-06 -1.60721e-07
-1.53183e-06 8.90193e-06 -1.83162e-06
-1.60721e-07 -1.83162e-06 -1.93514e-05
0.00126478 -2.10982e-06 -3.04831e-07
-2.10982e-06 0.000111315 -1.24876e-06
-3.04831e-07 -1.24876e-06 0.000113145
0.00235376 -2.70701e-06 1.48575e-06
-2.70701e-06 0.000642058 4.01541e-06
1.48575e-06 4.01541e-06 0.000665936
0.00157686 -3.88984e-06 -1.2693e-06
-3.88984e-06 0.000266513 -4.43137e-06
-1.2693e-06 -4.43137e-06 0.000269515
0.00116865 -4.34147e-06 6.23982e-07
-4.34147e-06 6.22997e-05 2.45488e-06
6.23982e-07 2.45488e-06 8.03271e-05
0.00111652 -6.12288e-06 -8.85781e-07
-6.12288e-06 3.98423e-05 -1.55698e-06
-8.85781e-07 -1.55698e-06 5.76067e-05
0.00102717 2.78551e-06 3.38757e-07
2.78551e-06 3.65758e-06 -1.83381e-06
3.38757e-07 -1.83381e-06 -2.04188e-05
0.00102898 3.85818e-06 -6.27781e-08
3.85818e-06 6.72438e-06 -2.74668e-11
-6.27781e-08 -2.74668e-11 -1.87874e-05
0.000954839 5.10298e-06 8.99387e-07
5.10298e-06 -3.80115e-05 -3.07354e-06
8.99387e-07 -3.07354e-06 -3.61203e-05
0.00125014 6.90654e-06 -2.47502e-07
6.90654e-06 0.000109977 2.99881e-08
-2.47502e-07 2.99881e-08 0.000111886
0.00232071 8.77138e-06 4.58632e-06
8.77138e-06 0.000631415 -3.85127e-06
4.58632e-06 -3.85127e-06 0.000654847
0.000970153 7.96624e-06 -1.72284e-06
7.96624e-06 -2.39046e-05 3.03113e-06
-1.72284e-06 3.03113e-06 -2.47178e-05
0.0023453 1.09546e-05 -2.47575e-07
1.09546e-05 0.000647999 -2.76611e-08
-2.47575e-07 -2.76611e-08 0.0006704
0.0023739 1.29997e-05 -6.84803e-06
1.29997e-05 0.00066702 3.87071e-06
-6.84803e-06 3.87071e-06 0.000688309
0.0012546 -1.07651e-05 1.44555e-07
-1.07651e-05 3.85494e-05 -7.32569e-07
1.44555e-07 -7.32569e-07 -1.28418e-05
0.00123612 -2.374e-05 3.53625e-07
-2.374e-05 7.88903e-05 1.35044e-06
3.53625e-07 1.35044e-06 1.04866e-05
0.00125278 3.88487e-06 -2.22475e-09
3.88487e-06 9.0236e-05 -4.2283e-07
-2.22475e-09 -4.2283e-07 2.64339e-05
0.00122214 5.33931e-07 -3.49959e-07
5.33931e-07 7.54989e-05 -1.07495e-06
-3.49959e-07 -1.07495e-06 1.03037e-05
0.00116963 -2.01669e-05 -3.0776e-08
-2.01669e-05 3.12949e-05 2.57364e-07
-3.0776e-08 2.57364e-07 -3.11629e-05
0.00117519 -2.14537e-05 1.26166e-06
-2.14537e-05 5.25603e-05 3.35385e-07
1.26166e-06 3.35385e-07 6.83074e-06
0.00135803 -2.5886e-06 -1.12929e-06
-2.5886e-06 0.000132585 9.55707e-07
-1.12929e-06 9.55707e-07 6.9182e-05
0.00131395 -4.68061e-05 -9.91794e-06
-4.68061e-05 8.89577e-05 -8.23246e-06
-9.91794e-06 -8.23246e-06 8.98103e-05
0.000976407 -2.94377e-06 -1.78549e-06
-2.94377e-06 -3.29623e-05 -4.4991e-07
-1.78549e-06 -4.4991e-07 -5.97939e-05
0.00106375 -1.32641e-06 -1.38201e-07
-1.32641e-06 2.8124e-05 -1.01958e-06
-1.38201e-07 -1.01958e-06 -1.24822e-05
0.00115742 2.26129e-05 -4.97624e-07
2.26129e-05 4.0881e-06 -4.31772e-07
-4.97624e-07 -4.31772e-07 -6.35178e-05
0.00143498 1.24456e-05 7.99231e-07
1.24456e-05 9.21833e-05 1.22591e-06
7.99231e-07 1.22591e-06 2.7727e-05
0.00117645 -1.168e-05 1.96616e-06
-1.168e-05 -3.24808e-05 1.12327e-06
1.96616e-06 1.12327e-06 -7.80173e-05
0.00104724 -2.38336e-05 -4.19733e-07
-2.38336e-05 1.99406e-05 5.53775e-07
-4.19733e-07 5.53775e-07 -4.56554e-05
0.00114342 -2.83478e-05 -2.17239e-07
-2.83478e-05 7.30556e-05 1.42084e-06
-2.17239e-07 1.42084e-06 -5.12879e-06
0.00103065 -2.76849e-05 -2.84898e-07
-2.76849e-05 -1.44348e-05 -9.47994e-07
-2.84898e-07 -9.47994e-07 -8.84409e-05
0.00131455 -2.63212e-05 5.88456e-07
-2.63212e-05 4.11856e-05 -2.63661e-06
5.88456e-07 -2.63661e-06 -4.37654e-07
0.0012184 -2.61506e-05 -3.07903e-08
-2.61506e-05 9.53351e-05 -1.93613e-07
-3.07903e-08 -1.93613e-07 2.75059e-05
0.0011069 -2.58767e-05 -1.76572e-06
-2.58767e-05 4.53573e-05 -8.623e-07
-1.76572e-06 -8.623e-07 -2.73888e-05
0.00106332 -2.36858e-05 -9.93791e-07
-2.36858e-05 3.19868e-05 3.20084e-09
-9.93791e-07 3.20084e-09 -4.64371e-05
0.00102847 4.64335e-06 -8.20249e-07
4.64335e-06 8.82766e-06 1.74302e-06
-8.20249e-07 1.74302e-06 -1.82876e-05
0.00114556 -2.22697e-05 -8.60477e-08
-2.22697e-05 7.982e-05 9.16701e-08
-8.60477e-08 9.16701e-08 7.54652e-06
0.00134114 -9.85696e-07 -3.25864e-07
-9.85696e-07 0.000170446 6.04067e-07
-3.25864e-07 6.04067e-07 0.000124527
0.00115062 -1.15108e-05 -7.25081e-07
-1.15108e-05 8.4923e-05 1.04421e-06
-7.25081e-07 1.04421e-06 2.01897e-05
0.000871946 2.27914e-06 -4.31119e-07
2.27914e-06 -6.15702e-05 1.08529e-06
-4.31119e-07 1.08529e-06 -0.000106854
0.00134361 2.51942e-05 2.36155e-07
2.51942e-05 8.2441e-05 5.37531e-08
2.36155e-07 5.37531e-08 9.35755e-06
0.000974724 1.33812e-06 7.00147e-08
1.33812e-06 -1.37682e-05 -4.64334e-07
7.00147e-08 -4.64334e-07 -5.63494e-05
0.0010646 -3.65484e-06 3.68504e-08
-3.65484e-06 3.38531e-05 1.30126e-08
3.68504e-08 1.30126e-08 -1.19318e-05
0.00114002 7.32222e-07 -1.46171e-07
7.32222e-07 7.6957e-05 4.78233e-07
-1.46171e-07 4.78233e-07 1.878e-05
0.0014675 6.73966e-06 4.54299e-07
6.73966e-06 0.000100696 5.91408e-07
4.54299e-07 5.91408e-07 4.82772e-05
0.00135349 -2.20657e-05 -1.87077e-07
-2.20657e-05 1.89148e-05 -1.11091e-06
-1.87077e-07 -1.11091e-06 -7.98135e-06
0.00111814 -2.62267e-05 2.11429e-08
-2.62267e-05 5.62543e-05 1.59958e-07
2.11429e-08 1.59958e-07 -1.40753e-05
0.00116502 -3.13477e-05 3.15815e-07
-3.13477e-05 8.47995e-05 -6.55549e-08
3.15815e-07 -6.55549e-08 8.78022e-07
0.0012086 -3.09327e-05 -9.76466e-08
-3.09327e-05 3.38181e-05 5.66345e-07
-9.76466e-08 5.66345e-07 -2.6661e-05
0.00101112 -2.40803e-06 -3.52482e-08
-2.40803e-06 1.86353e-05 3.63356e-08
-3.52482e-08 3.63356e-08 -4.5311e-05
0.00122016 -2.07552e-05 2.15237e-07
-2.07552e-05 0.000117663 5.51488e-08
2.15237e-07 5.51488e-08 4.44241e-05
0.00112189 -2.75543e-05 -3.31742e-07
-2.75543e-05 5.85853e-05 -3.45191e-08
-3.31742e-07 -3.45191e-08 -1.51626e-05
0.00122656 -2.65114e-05 -2.21082e-08
-2.65114e-05 0.000115206 1.69938e-08
-2.21082e-08 1.69938e-08 3.29455e-05
0.00108597 -2.30922e-05 -6.2496e-07
-2.30922e-05 4.99123e-05 4.73904e-07
-6.2496e-07 4.73904e-07 -3.22257e-05
0.00134116 2.6617e-05 -1.78687e-08
2.6617e-05 6.81665e-05 -7.28066e-07
-1.78687e-08 -7.28066e-07 -7.75212e-06
0.00142856 -5.71007e-06 -3.07555e-06
-5.71007e-06 2.81876e-05 -3.03898e-06
-3.07555e-06 -3.03898e-06 9.34484e-06
0.0016013 -3.49299e-05 -6.93795e-07
-3.49299e-05 0.000145137 2.89662e-06
-6.93795e-07 2.89662e-06 0.000103983
0.00156509 -3.78347e-05 7.50959e-07
-3.78347e-05 0.000256414 2.08622e-07
7.50959e-07 2.08622e-07 0.000175746
0.000974786 -2.8631e-05 1.21313e-07
-2.8631e-05 1.95667e-06 -7.93616e-07
1.21313e-07 -7.93616e-07 -7.51222e-05
0.000874253 1.20365e-05 -4.75479e-08
1.20365e-05 -5.38488e-05 -9.86014e-07
-4.75479e-08 -9.86014e-07 -0.000110273
0.000925511 3.59254e-07 2.64386e-07
3.59254e-07 -2.59302e-05 -6.42653e-07
2.64386e-07 -6.42653e-07 -8.77111e-05
0.00117023 1.03132e-05 -1.66027e-08
1.03132e-05 0.00010031 1.96673e-07
-1.66027e-08 1.96673e-07 3.21278e-05
0.00117469 -2.01159e-05 5.75961e-07
-2.01159e-05 0.00010058 -5.18382e-07
5.75961e-07 -5.18382e-07 2.47944e-05
0.00103485 -2.17333e-05 -1.50428e-08
-2.17333e-05 2.53952e-05 1.52158e-07
-1.50428e-08 1.52158e-07 -5.49165e-05
0.00125475 -2.59214e-05 1.69785e-06
-2.59214e-05 0.000137717 -7.97446e-07
1.69785e-06 -7.97446e-07 4.69234e-05
0.00117142 -2.94915e-05 1.62044e-06
-2.94915e-05 9.27078e-05 4.02566e-07
1.62044e-06 4.02566e-07 6.37205e-06
0.00111521 2.17338e-05 -6.46612e-07
2.17338e-05 6.80371e-05 -8.45668e-07
-6.46612e-07 -8.45668e-07 -3.62228e-06
0.00109845 2.44772e-05 -4.52326e-07
2.44772e-05 5.2696e-05 1.23561e-07
-4.52326e-07 1.23561e-07 -2.47916e-05
0.000949638 -9.35504e-06 1.6745e-06
-9.35504e-06 -0.000102396 1.36221e-06
1.6745e-06 1.36221e-06 -0.00014661
0.00115441 1.54722e-05 8.9574e-07
1.54722e-05 -6.74842e-05 2.53279e-08
8.9574e-07 2.53279e-08 -0.000102425
0.00162961 3.89642e-05 -1.1904e-06
3.89642e-05 0.000210331 4.66061e-07
-1.1904e-06 4.66061e-07 0.000139373
0.000948155 2.55931e-05 -3.58172e-07
2.55931e-05 -2.66975e-05 -5.40258e-07
-3.58172e-07 -5.40258e-07 -0.00010765
0.00137834 3.5302e-05 -8.68668e-07
3.5302e-05 0.000177272 -1.19025e-07
-8.68668e-07 -1.19025e-07 8.41787e-05
0.0012119 2.30553e-05 1.91625e-08
2.30553e-05 0.000118924 2.72617e-08
1.91625e-08 2.72617e-08 4.09645e-05
0.0011827 7.47205e-06 -1.3941e-06
7.47205e-06 -6.76056e-05 1.11701e-07
-1.3941e-06 1.11701e-07 -9.86719e-05
0.00120887 2.61536e-05 -9.73053e-08
2.61536e-05 0.00010569 -3.39678e-08
-9.73053e-08 -3.39678e-08 2.39598e-05
0.00127098 3.1219e-05 -1.49391e-07
3.1219e-05 0.00013816 2.69268e-07
-1.49391e-07 2.69268e-07 4.62482e-05
0.00136653 3.90886e-05 1.55e-06
3.90886e-05 8.72316e-06 -1.00164e-06
1.55e-06 -1.00164e-06 -4.66768e-05
0.00121051 3.91268e-05 -4.58338e-07
3.91268e-05 8.27689e-05 8.97398e-07
-4.58338e-07 8.97398e-07 -1.60612e-05
0.00194698 -5.04709e-05 -1.14731e-06
-5.04709e-05 7.29143e-05 4.38284e-07
-1.14731e-06 4.38284e-07 9.66939e-05
0.00122371 2.31381e-05 -1.25931e-07
2.31381e-05 0.000127455 -2.68708e-07
-1.25931e-07 -2.68708e-07 4.52701e-05
0.00104733 4.51899e-05 7.33123e-06
4.51899e-05 -0.000224676 2.38806e-06
7.33123e-06 2.38806e-06 -0.00028444
0.0012793 2.71735e-05 -7.16482e-07
2.71735e-05 0.000153923 -1.53683e-07
-7.16482e-07 -1.53683e-07 6.66414e-05
0.00122436 3.45942e-05 -1.08868e-06
3.45942e-05 0.000153137 1.50421e-06
-1.08868e-06 1.50421e-06 4.31344e-05
0.000760178 5.01607e-05 2.00797e-06
5.01607e-05 -0.000185259 -9.03443e-07
2.00797e-06 -9.03443e-07 -0.000277657
0.00507302 2.24379e-05 -8.37928e-07
2.24379e-05 0.00161512 -2.3321e-06
-8.37928e-07 -2.3321e-06 0.00130179
0.000649019 -4.49361e-05 3.5047e-05
-4.49361e-05 -6.59648e-05 1.05091e-05
3.5047e-05 1.05091e-05 -0.000220344
0.00228912 -6.61573e-06 -1.05997e-05
-6.61573e-06 0.00013679 -6.27022e-06
-1.05997e-05 -6.27022e-06 0.000188639
-0.0029112 -4.45508e-05 -4.61705e-05
-4.45508e-05 -0.00146484 -1.41867e-05
-4.61705e-05 -1.41867e-05 -0.00147595
0.000831904 -5.5525e-05 -5.70203e-07
-5.5525e-05 7.88165e-06 3.76234e-07
-5.70203e-07 3.76234e-07 0.000174108
0.00112181 2.07595e-05 -3.33532e-07
2.07595e-05 7.71206e-05 -4.00734e-07
-3.33532e-07 -4.00734e-07 9.75316e-07
0.00117838 2.14087e-05 -3.2852e-08
2.14087e-05 0.000102513 -8.52202e-08
-3.2852e-08 -8.52202e-08 2.29455e-05
0.00116085 1.86126e-05 3.90906e-07
1.86126e-05 8.77349e-05 1.10223e-07
3.90906e-07 1.10223e-07 5.76361e-06
0.00106165 -8.56589e-06 7.36929e-08
-8.56589e-06 3.2741e-05 -1.0757e-06
7.36929e-08 -1.0757e-06 -1.42715e-05
0.000975239 8.87493e-06 -1.58651e-07
8.87493e-06 -4.51618e-06 -7.63248e-07
-1.58651e-07 -7.63248e-07 -6.50316e-05
0.00113757 2.55014e-06 -1.60225e-07
2.55014e-06 7.66989e-05 -6.42049e-07
-1.60225e-07 -6.42049e-07 8.85439e-06
0.00122289 6.80609e-06 -2.5854e-07
6.80609e-06 0.000118979 -6.4027e-07
-2.5854e-07 -6.4027e-07 4.44819e-05
0.00110011 1.87167e-05 -9.91412e-07
1.87167e-05 5.69771e-05 -8.59483e-07
-9.91412e-07 -8.59483e-07 -2.21842e-05
0.00112958 1.4945e-05 -1.18541e-07
1.4945e-05 7.16903e-05 -3.39753e-07
-1.18541e-07 -3.39753e-07 3.07444e-06
0.000966961 -4.47097e-07 -1.58724e-08
-4.47097e-07 -1.33243e-05 4.29289e-07
-1.58724e-08 4.29289e-07 -6.11711e-05
0.00101824 8.65769e-07 1.79792e-08
8.65769e-07 1.71275e-05 4.02451e-09
1.79792e-08 4.02451e-09 -4.36232e-05
0.00115998 1.26907e-05 1.4096e-09
1.26907e-05 8.20757e-05 1.97751e-07
1.4096e-09 1.97751e-07 1.96425e-06
0.00117758 1.40192e-05 -1.01825e-07
1.40192e-05 9.47194e-05 -3.37581e-07
-1.01825e-07 -3.37581e-07 2.03495e-05
0.00121867 2.18237e-05 -3.77708e-08
2.18237e-05 0.00011493 -9.67815e-08
-3.77708e-08 -9.67815e-08 4.09834e-05
0.00120023 1.58522e-05 4.39518e-08
1.58522e-05 0.000101913 4.08011e-07
4.39518e-08 4.08011e-07 2.25981e-05
0.00104054 1.62068e-05 1.94775e-07
1.62068e-05 2.77761e-05 9.36632e-07
1.94775e-07 9.36632e-07 -4.26999e-05
0.000946143 -1.28507e-06 5.47873e-08
-1.28507e-06 -1.79045e-05 3.87042e-07
5.47873e-08 3.87042e-07 -7.97196e-05
0.000871168 -5.46161e-06 -2.75667e-07
-5.46161e-06 -5.99616e-05 1.48641e-06
-2.75667e-07 1.48641e-06 -0.000108575
0.00114459 1.73099e-06 -4.40987e-08
1.73099e-06 7.97055e-05 6.56403e-07
-4.40987e-08 6.56403e-07 1.93849e-05
0.0012511 4.04241e-06 -5.91431e-08
4.04241e-06 0.000134984 2.01504e-07
-5.91431e-08 2.01504e-07 6.57202e-05
0.00108222 -6.37044e-06 -2.1706e-07
-6.37044e-06 5.03008e-05 7.77037e-07
-2.1706e-07 7.77037e-07 -1.13749e-05
0.00111666 -1.15073e-06 1.65728e-07
-1.15073e-06 6.66736e-05 -4.21833e-07
1.65728e-07 -4.21833e-07 5.90454e-06
0.00106276 -4.08808e-06 -2.93106e-07
-4.08808e-06 3.32756e-05 1.09919e-06
-2.93106e-07 1.09919e-06 -1.43592e-05
0.000879245 1.19735e-06 -1.71396e-08
1.19735e-06 -5.61764e-05 4.16862e-07
-1.71396e-08 4.16862e-07 -0.000104712
0.00103298 2.22955e-06 -3.41489e-07
2.22955e-06 8.06713e-06 1.79759e-06
-3.41489e-07 1.79759e-06 -2.06147e-05
0.0010325 9.96705e-07 4.13555e-08
9.96705e-07 7.06071e-06 6.62313e-09
4.13555e-08 6.62313e-09 -2.15444e-05
0.00099456 1.33898e-06 -3.88959e-07
1.33898e-06 -2.21932e-05 4.44469e-06
-3.88959e-07 4.44469e-06 -2.20513e-05
0.00103431 -3.4672e-07 5.43079e-08
-3.4672e-07 7.78084e-06 -1.81586e-06
5.43079e-08 -1.81586e-06 -2.07045e-05
0.000971574 -3.28089e-07 8.48441e-08
-3.28089e-07 -3.35247e-05 2.30052e-09
8.48441e-08 2.30052e-09 -3.316e-05
0.00236278 -6.00617e-07 7.06483e-08
-6.00617e-07 0.000645555 4.02105e-06
7.06483e-08 4.02105e-06 0.000669495
0.000991142 -1.98163e-06 -3.93677e-07
-1.98163e-06 -2.29923e-05 -4.463e-06
-3.93677e-07 -4.463e-06 -2.27104e-05
0.00176131 -2.49621e-06 -3.50674e-08
-2.49621e-06 0.000351121 3.26085e-08
-3.50674e-08 3.26085e-08 0.000372195
0.00112089 -4.22803e-06 -5.45481e-07
-4.22803e-06 3.88041e-05 -1.55704e-06
-5.45481e-07 -1.55704e-06 5.7078e-05
0.00102856 1.41251e-06 1.35479e-07
1.41251e-06 2.84961e-06 -1.81561e-06
1.35479e-07 -1.81561e-06 -2.02544e-05
0.00103189 2.75516e-06 -3.16771e-08
2.75516e-06 5.87084e-06 -4.76662e-09
-3.16771e-08 -4.76662e-09 -1.82213e-05
0.000961966 3.49238e-06 5.50284e-07
3.49238e-06 -3.68433e-05 -3.09943e-06
5.50284e-07 -3.09943e-06 -3.39074e-05
0.00103436 3.83737e-06 -6.1569e-07
3.83737e-06 9.28269e-06 1.77742e-06
-6.1569e-07 1.77742e-06 -1.62553e-05
0.00124131 5.31704e-06 -1.44253e-08
5.31704e-06 0.000102395 -5.84186e-07
-1.44253e-08 -5.84186e-07 0.000105654
0.00229114 6.59039e-06 3.4965e-06
6.59039e-06 0.000613754 -3.86181e-06
3.4965e-06 -3.86181e-06 0.000638001
0.000963136 6.59153e-06 -1.44016e-06
6.59153e-06 -3.07453e-05 3.03833e-06
-1.44016e-06 3.03833e-06 -3.04014e-05
0.00233958 8.64495e-06 -1.62547e-06
8.64495e-06 0.000641564 1.1395e-06
-1.62547e-06 1.1395e-06 0.000664688
0.00233797 1.09864e-05 -5.97748e-06
1.09864e-05 0.000644969 3.87726e-06
-5.97748e-06 3.87726e-06 0.000667282
0.00119919 -2.01156e-05 -2.05765e-07
-2.01156e-05 4.75577e-05 3.87949e-07
-2.05765e-07 3.87949e-07 -1.504e-05
0.00121987 -2.14e-07 -4.68332e-07
-2.14e-07 7.44735e-05 -9.03851e-07
-4.68332e-07 -9.03851e-07 9.4367e-06
0.00112974 -2.23595e-05 6.16075e-06
-2.23595e-05 4.47585e-05 2.07326e-06
6.16075e-06 2.07326e-06 -1.0711e-06
0.00106789 -4.45953e-05 -4.22041e-06
-4.45953e-05 -3.02562e-05 -2.63862e-06
-4.22041e-06 -2.63862e-06 -2.02904e-05
0.00114984 -3.1052e-06 -3.46202e-07
-3.1052e-06 3.82205e-05 -5.35824e-07
-3.46202e-07 -5.35824e-07 -2.5344e-05
0.00101227 -2.45234e-06 -3.46795e-09
-2.45234e-06 -2.15984e-05 -1.42689e-06
-3.46795e-09 -1.42689e-06 -5.53001e-05
0.000958431 1.93566e-05 -1.37333e-06
1.93566e-05 -8.04088e-05 3.50221e-06
-1.37333e-06 3.50221e-06 -0.000148852
0.00126116 -3.80089e-05 9.20337e-05
-3.80089e-05 -6.25575e-05 2.42862e-05
9.20337e-05 2.42862e-05 -0.000179801
0.00105691 -7.54066e-06 -8.30117e-06
-7.54066e-06 0.000183377 2.77045e-06
-8.30117e-06 2.77045e-06 0.000166997
0.00106684 -1.59143e-07 5.10141e-08
-1.59143e-07 2.88339e-05 -9.76376e-07
5.10141e-08 -9.76376e-07 -1.07439e-05
0.00107148 -2.17342e-06 -1.62819e-07
-2.17342e-06 3.19247e-05 5.36552e-09
-1.62819e-07 5.36552e-09 -8.76529e-06
0.0010672 1.27307e-05 -3.60062e-07
1.27307e-05 3.81535e-05 -5.53333e-07
-3.60062e-07 -5.53333e-07 -1.51594e-05
0.00107926 -4.27453e-06 -4.60286e-08
-4.27453e-06 4.39524e-05 -2.2765e-07
-4.60286e-08 -2.2765e-07 -6.87208e-06
0.00130817 2.47978e-05 -4.39896e-07
2.47978e-05 5.77918e-05 1.64927e-07
-4.39896e-07 1.64927e-07 -1.60554e-05
0.0014723 6.82452e-06 2.65778e-06
6.82452e-06 0.000103927 2.28321e-06
2.65778e-06 2.28321e-06 5.15924e-05
0.00122425 -2.29727e-05 1.32253e-06
-2.29727e-05 -4.11273e-05 -1.20549e-06
1.32253e-06 -1.20549e-06 -7.11805e-05
0.00115995 -2.65982e-05 -1.99778e-07
-2.65982e-05 7.45101e-05 8.28926e-07
-1.99778e-07 8.28926e-07 4.55228e-06
0.000877539 -2.88056e-05 4.16239e-07
-2.88056e-05 -5.07057e-05 8.15347e-08
4.16239e-07 8.15347e-08 -0.000134682
0.00105211 -2.95829e-05 -3.21732e-07
-2.95829e-05 -4.00916e-05 -2.25802e-06
-3.21732e-07 -2.25802e-06 -9.97479e-05
0.00113039 -2.75877e-05 -1.13142e-06
-2.75877e-05 6.21655e-05 5.42294e-08
-1.13142e-06 5.42294e-08 -1.16654e-05
0.0011688 -2.57931e-05 -1.4228e-06
-2.57931e-05 8.60845e-05 -3.38533e-07
-1.4228e-06 -3.38533e-07 5.62314e-06
0.00119032 -2.39498e-05 -8.68988e-07
-2.39498e-05 0.000101516 1.16364e-06
-8.68988e-07 1.16364e-06 1.98434e-05
0.00106894 -1.27302e-06 -4.13025e-07
-1.27302e-06 3.5923e-05 1.05623e-06
-4.13025e-07 1.05623e-06 -9.85742e-06
0.00121719 -2.11389e-05 -5.6348e-07
-2.11389e-05 0.00011548 3.01847e-07
-5.6348e-07 3.01847e-07 4.19573e-05
0.0011004 -3.97057e-06 -2.35462e-07
-3.97057e-06 6.21193e-05 9.19848e-07
-2.35462e-07 9.19848e-07 -8.95446e-07
0.0010656 1.55108e-06 -1.06593e-07
1.55108e-06 3.02593e-05 6.17405e-07
-1.06593e-07 6.17405e-07 -1.15564e-05
0.000988059 2.51182e-06 -3.1248e-07
2.51182e-06 2.99915e-06 1.32653e-06
-3.1248e-07 1.32653e-06 -5.63561e-05
0.00137877 2.59712e-05 1.59511e-07
2.59712e-05 8.38855e-05 1.07225e-06
1.59511e-07 1.07225e-06 1.01663e-05
0.00107128 1.28939e-05 -5.85293e-08
1.28939e-05 4.22466e-05 -4.08879e-07
-5.85293e-08 -4.08879e-07 -1.31129e-05
0.00100984 -4.68216e-06 2.1299e-07
-4.68216e-06 1.50779e-05 1.5515e-08
2.1299e-07 1.5515e-08 -4.58563e-05
0.00109748 4.87251e-06 8.3947e-08
4.87251e-06 6.45298e-05 8.55e-07
8.3947e-08 8.55e-07 -2.79861e-06
0.0014907 -6.27635e-06 -1.46193e-07
-6.27635e-06 6.84161e-05 1.82669e-07
-1.46193e-07 1.82669e-07 4.61226e-05
0.00129604 -3.2812e-05 -7.91579e-07
-3.2812e-05 -4.68886e-07 -1.04912e-06
-7.91579e-07 -1.04912e-06 -4.089e-05
0.0011147 -2.97027e-05 1.02024e-07
-2.97027e-05 6.7805e-05 -1.88877e-07
1.02024e-07 -1.88877e-07 -9.44138e-06
0.00134145 -3.58808e-05 1.90625e-07
-3.58808e-05 0.000151202 4.14634e-07
1.90625e-07 4.14634e-07 7.12958e-05
0.00122075 -1.9159e-05 -8.51345e-09
-1.9159e-05 0.000123401 -7.09502e-09
-8.51345e-09 -7.09502e-09 4.77166e-05
0.00107489 -2.23e-05 -4.55482e-07
-2.23e-05 4.41643e-05 8.27505e-07
-4.55482e-07 8.27505e-07 -3.52536e-05
0.00114671 -2.93505e-05 -2.57141e-07
-2.93505e-05 7.993e-05 -1.56789e-07
-2.57141e-07 -1.56789e-07 -6.09808e-06
0.00125687 -2.56898e-05 5.74138e-07
-2.56898e-05 0.000139719 -3.29123e-07
5.74138e-07 -3.29123e-07 4.92557e-05
0.0013389 2.42064e-05 -1.74554e-06
2.42064e-05 2.41768e-05 -3.97701e-06
-1.74554e-06 -3.97701e-06 -2.70742e-05
0.00160926 -3.38051e-05 -1.505e-06
-3.38051e-05 7.76087e-05 -1.61754e-06
-1.505e-06 -1.61754e-06 6.51969e-05
0.00154308 -4.30894e-05 2.18493e-06
-4.30894e-05 0.000180212 2.83216e-06
2.18493e-06 2.83216e-06 0.000102884
0.00118814 -3.66018e-05 9.84641e-07
-3.66018e-05 0.000102154 -3.71313e-07
9.84641e-07 -3.71313e-07 1.79939e-05
0.00104253 8.80752e-06 -2.42045e-07
8.80752e-06 3.67516e-05 -4.82429e-07
-2.42045e-07 -4.82429e-07 -3.31444e-05
0.00104737 -1.57146e-05 2.62431e-08
-1.57146e-05 3.89566e-05 -1.17941e-06
2.62431e-08 -1.17941e-06 -3.42824e-05
0.00110862 -2.20477e-05 1.81768e-07
-2.20477e-05 7.09501e-05 -8.00943e-07
1.81768e-07 -8.00943e-07 -1.71542e-05
0.00123385 -2.69632e-05 1.83406e-06
-2.69632e-05 0.000132463 1.59271e-07
1.83406e-06 1.59271e-07 3.2092e-05
0.00128948 2.62857e-05 4.49699e-06
2.62857e-05 -0.000425487 5.30243e-07
4.49699e-06 5.30243e-07 -0.000661636
0.00118885 2.28226e-05 -1.44054e-07
2.28226e-05 0.00010777 -2.92324e-07
-1.44054e-07 -2.92324e-07 3.02709e-05
0.00105578 2.4721e-05 2.95768e-08
2.4721e-05 3.22247e-05 2.52296e-07
2.95768e-08 2.52296e-07 -4.95409e-05
0.00104383 7.29104e-06 -1.60081e-06
7.29104e-06 -0.00012781 1.40408e-06
-1.60081e-06 1.40408e-06 -0.000157116
0.00155092 3.87146e-05 -1.64185e-06
3.87146e-05 8.88564e-05 -1.49249e-07
-1.64185e-06 -1.49249e-07 3.66489e-05
0.00131293 4.07391e-05 -1.73134e-06
4.07391e-05 0.000135935 1.37311e-06
-1.73134e-06 1.37311e-06 3.43742e-05
0.00100013 2.83419e-05 1.65933e-07
2.83419e-05 1.22479e-05 -2.12865e-07
1.65933e-07 -2.12865e-07 -8.00532e-05
0.00220513 -3.99125e-05 4.57674e-06
-3.99125e-05 0.000291049 9.00208e-06
4.57674e-06 9.00208e-06 0.000289162
0.00118641 2.27181e-05 7.8188e-08
2.27181e-05 0.000110283 -1.25833e-07
7.8188e-08 -1.25833e-07 2.83812e-05
0.00142273 4.52778e-05 2.19078e-06
4.52778e-05 -5.25017e-05 4.66577e-08
2.19078e-06 4.66577e-08 -0.000111166
0.00114451 2.5695e-05 7.73018e-08
2.5695e-05 8.97068e-05 -1.20794e-07
7.73018e-08 -1.20794e-07 2.86652e-06
0.0011399 3.34439e-05 -4.59862e-07
3.34439e-05 0.000109764 5.5597e-07
-4.59862e-07 5.5597e-07 1.05915e-06
0.000869716 4.95762e-05 1.19438e-07
4.95762e-05 -0.000139195 -5.28297e-07
1.19438e-07 -5.28297e-07 -0.000227583
0.000750558 2.22699e-05 -1.25776e-05
2.22699e-05 -0.000342753 -4.3393e-06
-1.25776e-05 -4.3393e-06 -0.000658979
0.00191395 -2.87497e-05 7.89716e-06
-2.87497e-05 0.00025328 -1.90632e-06
7.89716e-06 -1.90632e-06 -1.13334e-05
0.00226607 2.22724e-06 -2.06882e-06
2.22724e-06 0.00012813 -7.99372e-07
-2.06882e-06 -7.99372e-07 0.000170722
-0.000654964 -4.86805e-05 -1.05493e-05
-4.86805e-05 -0.000503581 -2.78081e-06
-1.05493e-05 -2.78081e-06 -0.000556371
0.000511657 -5.67159e-05 -1.68944e-06
-5.67159e-05 -0.000135303 5.05767e-07
-1.68944e-06 5.05767e-07 1.39729e-05
0.00113307 2.16262e-05 5.63764e-07
2.16262e-05 9.42186e-05 -1.68683e-07
5.63764e-07 -1.68683e-07 1.052e-05
0.000624072 1.84297e-05 -6.35509e-05
1.84297e-05 9.5071e-05 -7.73149e-06
-6.35509e-05 -7.73149e-06 -1.50697e-05
0.00140861 -3.0139e-05 7.34748e-06
-3.0139e-05 0.000518942 6.03786e-06
7.34748e-06 6.03786e-06 0.000587265
0.00145748 6.62309e-05 6.27271e-06
6.62309e-05 4.91163e-05 6.13545e-06
6.27271e-06 6.13545e-06 -3.87485e-05
0.001074 2.26936e-05 -2.12265e-07
2.26936e-05 8.29221e-05 -1.4601e-07
-2.12265e-07 -1.4601e-07 -1.45958e-05
0.00154543 3.83963e-05 -2.24224e-06
3.83963e-05 0.000330597 -1.66331e-07
-2.24224e-06 -1.66331e-07 0.000196503
0.0020017 5.38317e-06 -2.40598e-05
5.38317e-06 0.000139716 -2.65014e-05
-2.40598e-05 -2.65014e-05 8.51042e-05
0.00523035 -5.52877e-06 -4.59837e-05
-5.52877e-06 0.00150134 -1.88435e-05
-4.59837e-05 -1.88435e-05 0.0010486
0.00124982 2.62822e-05 2.80253e-05
2.62822e-05 0.000174576 2.06234e-05
2.80253e-05 2.06234e-05 -0.000216812
-2.32241e-06 -9.72079e-05 -4.48178e-05
-9.72079e-05 -7.05919e-05 -2.86836e-05
-4.48178e-05 -2.86836e-05 -5.9038e-05
-0.000661288 -3.27647e-05 5.72295e-06
-3.27647e-05 -0.000798955 -5.33216e-07
5.72295e-06 -5.33216e-07 -0.000730008
0.00113041 2.08213e-05 -5.16999e-07
2.08213e-05 7.97578e-05 -3.78247e-07
-5.16999e-07 -3.78247e-07 2.48873e-07
0.00118967 1.92748e-05 -2.23249e-07
1.92748e-05 0.000101889 4.0929e-08
-2.23249e-07 4.0929e-08 1.9896e-05
0.00119158 1.81866e-05 -2.79908e-08
1.81866e-05 9.24329e-05 1.35251e-08
-2.79908e-08 1.35251e-08 1.01639e-05
0.00106169 -1.1189e-06 1.80231e-08
-1.1189e-06 3.29796e-05 -6.14316e-07
1.80231e-08 -6.14316e-07 -1.42581e-05
0.00108728 -2.03234e-06 2.81312e-08
-2.03234e-06 5.10509e-05 -7.46499e-07
2.81312e-08 -7.46499e-07 -9.21656e-06
0.00102178 1.1403e-05 -3.51227e-07
1.1403e-05 1.87504e-05 -9.15457e-07
-3.51227e-07 -9.15457e-07 -5.05489e-05
0.00113548 1.42307e-05 -2.39422e-07
1.42307e-05 7.36715e-05 -8.52078e-07
-2.39422e-07 -8.52078e-07 -9.23395e-07
0.00119034 1.23239e-05 -3.07547e-07
1.23239e-05 9.83698e-05 -2.71202e-07
-3.07547e-07 -2.71202e-07 1.8633e-05
0.000875564 -7.90505e-07 3.78781e-08
-7.90505e-07 -5.78389e-05 4.2595e-07
3.78781e-08 4.2595e-07 -0.000106467
0.00115005 1.79234e-05 -1.79953e-07
1.79234e-05 8.08471e-05 -5.21676e-07
-1.79953e-07 -5.21676e-07 6.97909e-06
0.00113857 8.41187e-06 1.90228e-08
8.41187e-06 7.61088e-05 3.44181e-07
1.90228e-08 3.44181e-07 6.50538e-06
0.00103717 1.5559e-06 6.11612e-08
1.5559e-06 2.65136e-05 -3.38444e-07
6.11612e-08 -3.38444e-07 -3.46554e-05
0.00114924 1.57013e-05 5.31372e-08
1.57013e-05 7.66329e-05 2.4179e-07
5.31372e-08 2.4179e-07 -3.01636e-06
0.00110302 1.51495e-05 7.08044e-08
1.51495e-05 5.76365e-05 4.05336e-07
7.08044e-08 4.05336e-07 -1.92647e-05
0.00116141 1.43085e-05 2.79392e-07
1.43085e-05 8.73037e-05 3.28847e-07
2.79392e-07 3.28847e-07 5.03421e-06
0.00112223 -6.75009e-06 -1.22898e-07
-6.75009e-06 6.97322e-05 5.9665e-07
-1.22898e-07 5.9665e-07 -1.36477e-06
0.0011369 -5.89258e-06 -7.52023e-08
-5.89258e-06 7.57082e-05 2.89503e-07
-7.52023e-08 2.89503e-07 1.5093e-05
0.00114235 -1.26701e-06 -1.25702e-08
-1.26701e-06 7.86952e-05 -8.12488e-08
-1.25702e-08 -8.12488e-08 1.83718e-05
0.00114607 -3.18703e-06 -8.81718e-08
-3.18703e-06 8.34694e-05 -3.3205e-07
-8.81718e-08 -3.3205e-07 1.34528e-05
0.00113401 3.05538e-06 -1.49751e-07
3.05538e-06 7.71609e-05 6.89497e-07
-1.49751e-07 6.89497e-07 6.79067e-06
0.00111016 -9.02173e-06 -1.05148e-07
-9.02173e-06 6.72348e-05 5.70745e-07
-1.05148e-07 5.70745e-07 -3.9762e-06
0.00116342 -1.14156e-05 -3.68791e-08
-1.14156e-05 9.44227e-05 -7.47349e-08
-3.68791e-08 -7.47349e-08 1.85411e-05
0.00109592 -1.98853e-05 -8.27858e-07
-1.98853e-05 5.82911e-05 4.46279e-07
-8.27858e-07 4.46279e-07 -1.46985e-05
0.00108234 -9.90607e-06 -2.44859e-07
-9.90607e-06 5.11163e-05 7.92155e-07
-2.44859e-07 7.92155e-07 -1.19203e-05
0.00108875 -8.40668e-06 5.82806e-09
-8.40668e-06 5.35507e-05 -7.67713e-09
5.82806e-09 -7.67713e-09 -8.14521e-06
0.00106262 -5.93351e-06 -4.70568e-07
-5.93351e-06 3.31387e-05 1.1225e-06
-4.70568e-07 1.1225e-06 -1.50353e-05
0.000962979 -3.10773e-06 3.39064e-07
-3.10773e-06 -8.44778e-06 -1.21429e-06
3.39064e-07 -1.21429e-06 -7.02395e-05
0.000974966 -2.95531e-06 7.29989e-08
-2.95531e-06 -9.58953e-06 -1.10679e-08
7.29989e-08 -1.10679e-08 -5.78032e-05
0.0010306 3.18825e-06 -5.54549e-07
3.18825e-06 8.09866e-06 1.7928e-06
-5.54549e-07 1.7928e-06 -2.0737e-05
0.000883233 1.85665e-06 1.56403e-07
1.85665e-06 -5.42162e-05 -6.3326e-07
1.56403e-07 -6.3326e-07 -0.000102785
0.00103181 2.16378e-06 5.43568e-08
2.16378e-06 7.37366e-06 7.5639e-09
5.43568e-08 7.5639e-09 -2.12886e-05
0.00158767 3.18601e-06 -1.43356e-06
3.18601e-06 0.00027014 4.38547e-06
-1.43356e-06 4.38547e-06 0.000272917
0.00103238 9.24465e-07 2.43415e-07
9.24465e-07 6.9266e-06 -1.80859e-06
2.43415e-07 -1.80859e-06 -2.16659e-05
0.0012802 1.45371e-06 -3.4078e-07
1.45371e-06 0.000118157 6.14339e-07
-3.4078e-07 6.14339e-07 0.000119757
0.00117878 1.19463e-06 -9.08136e-07
1.19463e-06 6.39849e-05 3.92313e-06
-9.08136e-07 3.92313e-06 8.22095e-05
0.000973489 -3.29781e-07 8.25223e-08
-3.29781e-07 -3.25782e-05 -3.18874e-06
8.25223e-08 -3.18874e-06 -3.2231e-05
0.00235955 -5.09527e-07 4.60049e-07
-5.09527e-07 0.00064396 2.90237e-10
4.60049e-07 2.90237e-10 0.000667908
0.00116843 -2.07078e-06 -4.7967e-07
-2.07078e-06 6.00386e-05 -3.93043e-06
-4.7967e-07 -3.93043e-06 7.83111e-05
0.00107809 6.40361e-07 -8.18447e-09
6.40361e-07 3.49374e-05 -5.83487e-07
-8.18447e-09 -5.83487e-07 -4.81367e-06
0.00102956 3.82386e-08 -3.09159e-08
3.82386e-08 2.5636e-06 -1.82302e-06
-3.09159e-08 -1.82302e-06 -2.00742e-05
0.00103274 1.38062e-06 -5.23898e-08
1.38062e-06 4.86302e-06 -3.2815e-09
-5.23898e-08 -3.2815e-09 -1.82751e-05
0.00096684 1.75274e-06 2.84099e-07
1.75274e-06 -3.5716e-05 -3.10446e-06
2.84099e-07 -3.10446e-06 -3.21595e-05
0.00103568 2.72297e-06 -4.04098e-07
2.72297e-06 7.62711e-06 1.8251e-06
-4.04098e-07 1.8251e-06 -1.64769e-05
0.000962622 3.47694e-06 2.92175e-08
3.47694e-06 -3.6661e-05 -6.0814e-07
2.92175e-08 -6.0814e-07 -3.36953e-05
0.00226717 4.39987e-06 2.26083e-06
4.39987e-06 0.000599803 -3.86228e-06
2.26083e-06 -3.86228e-06 0.000624659
0.00151301 5.752e-06 -1.02231e-06
5.752e-06 0.000235998 1.8888e-06
-1.02231e-06 1.8888e-06 0.000240481
0.00174 6.17075e-06 -4.18762e-08
6.17075e-06 0.000343931 1.16609e-06
-4.18762e-08 1.16609e-06 0.000365241
0.00120418 7.59154e-06 -5.18779e-06
7.59154e-06 8.47079e-05 6.27076e-06
-5.18779e-06 6.27076e-06 0.000102178
0.000827955 -4.25744e-05 9.33832e-07
-4.25744e-05 -0.000146585 2.59456e-06
9.33832e-07 2.59456e-06 -0.000127888
0.000895526 -3.65139e-06 -1.76032e-08
-3.65139e-06 -7.68218e-05 -6.94034e-07
-1.76032e-08 -6.94034e-07 -0.000140621
0.000991508 -1.74141e-06 -2.49774e-07
-1.74141e-06 -3.65497e-05 -4.32911e-06
-2.49774e-07 -4.32911e-06 -7.7067e-05
0.000712904 -4.33315e-05 3.29187e-05
-4.33315e-05 -0.000113013 4.82756e-06
3.29187e-05 4.82756e-06 -0.000205404
0.000742009 -1.14076e-05 -2.77865e-06
-1.14076e-05 3.35409e-05 3.11965e-07
-2.77865e-06 3.11965e-07 2.38533e-05
0.00103231 2.14717e-05 -7.08232e-07
2.14717e-05 -5.27073e-05 -1.16091e-06
-7.08232e-07 -1.16091e-06 -0.000123855
0.00113563 3.52918e-05 -2.49957e-06
3.52918e-05 0.00013509 5.56686e-06
-2.49957e-06 5.56686e-06 7.05643e-05
0.000525415 -2.24778e-06 7.42211e-05
-2.24778e-06 -0.000299894 7.44507e-06
7.42211e-05 7.44507e-06 -0.000445947
0.00541037 -7.97902e-06 -1.89318e-05
-7.97902e-06 0.00141496 7.63821e-06
-1.89318e-05 7.63821e-06 0.00104422
0.00174347 6.7994e-05 -1.73997e-05
6.7994e-05 0.000719133 1.00629e-05
-1.73997e-05 1.00629e-05 0.000635533
0.000981151 4.11e-05 -3.31747e-07
4.11e-05 0.00021206 -1.51564e-06
-3.31747e-07 -1.51564e-06 0.00032247
0.000914816 -4.80937e-07 2.09576e-07
-4.80937e-07 -3.66275e-05 -1.05183e-06
2.09576e-07 -1.05183e-06 -8.90146e-05
0.00107123 -1.21096e-06 1.20778e-07
-1.21096e-06 3.10247e-05 1.6886e-08
1.20778e-07 1.6886e-08 -8.61244e-06
0.00107944 -3.50257e-06 -2.72475e-07
-3.50257e-06 3.58504e-05 1.07076e-06
-2.72475e-07 1.07076e-06 -4.93048e-06
0.00101874 1.20076e-05 -4.40269e-08
1.20076e-05 1.49276e-05 2.30242e-08
-4.40269e-08 2.30242e-08 -3.86609e-05
0.00118684 2.08971e-05 8.6401e-09
2.08971e-05 0.000100948 1.73231e-07
8.6401e-09 1.73231e-07 3.86315e-05
0.00113773 1.36592e-05 1.18844e-07
1.36592e-05 7.44714e-05 1.05877e-07
1.18844e-07 1.05877e-07 1.55302e-05
0.00112119 -3.64333e-07 1.69618e-07
-3.64333e-07 6.65873e-05 -1.3152e-06
1.69618e-07 -1.3152e-06 1.37503e-05
0.00102369 -9.00571e-06 -3.35774e-08
-9.00571e-06 1.72653e-05 3.95603e-07
-3.35774e-08 3.95603e-07 -3.41597e-05
0.00144586 2.54386e-05 7.3369e-07
2.54386e-05 0.000113866 1.80213e-06
7.3369e-07 1.80213e-06 4.2288e-05
0.00157799 -6.98196e-06 4.39536e-06
-6.98196e-06 0.000120457 1.66929e-06
4.39536e-06 1.66929e-06 9.42681e-05
0.000987086 -3.06649e-05 -2.55561e-06
-3.06649e-05 -0.000147842 -3.64785e-06
-2.55561e-06 -3.64785e-06 -0.000187531
0.00125814 -3.0798e-05 1.41391e-07
-3.0798e-05 0.000135331 4.04469e-07
1.41391e-07 4.04469e-07 5.79113e-05
0.00112078 -3.39397e-05 9.46428e-08
-3.39397e-05 4.74499e-05 -2.25627e-07
9.46428e-08 -2.25627e-07 -3.17085e-05
0.00112622 -2.92559e-05 -2.10501e-06
-2.92559e-05 6.92429e-05 -1.92368e-07
-2.10501e-06 -1.92368e-07 -1.64909e-05
0.00125494 -2.54263e-05 -1.86992e-07
-2.54263e-05 0.000139876 1.97791e-07
-1.86992e-07 1.97791e-07 4.97364e-05
0.001108 -2.27888e-05 -8.40788e-07
-2.27888e-05 5.96446e-05 1.14814e-06
-8.40788e-07 1.14814e-06 -1.88718e-05
0.00109629 -7.73251e-06 -2.07191e-07
-7.73251e-06 5.70964e-05 8.65133e-07
-2.07191e-07 8.65133e-07 -3.00675e-06
0.00126552 -1.80213e-05 -1.51802e-07
-1.80213e-05 0.000145609 5.1694e-07
-1.51802e-07 5.1694e-07 7.00287e-05
0.00126882 1.31077e-05 4.00173e-08
1.31077e-05 0.000138575 3.21235e-07
4.00173e-08 3.21235e-07 8.42964e-05
0.00102957 -9.27621e-07 5.71484e-08
-9.27621e-07 3.11708e-05 1.38094e-06
5.71484e-08 1.38094e-06 -3.53323e-05
0.00161539 2.60522e-05 1.51103e-06
2.60522e-05 0.000148049 -1.35504e-07
1.51103e-06 -1.35504e-07 9.62338e-05
0.00105879 7.13738e-06 -1.42168e-07
7.13738e-06 4.41861e-05 1.85089e-07
-1.42168e-07 1.85089e-07 -2.52919e-05
0.00112565 -1.63289e-05 7.53571e-08
-1.63289e-05 7.79008e-05 -3.42584e-07
7.53571e-08 -3.42584e-07 4.86571e-06
0.00144227 -3.29078e-05 -3.20631e-06
-3.29078e-05 1.65362e-07 -1.59835e-06
-3.20631e-06 -1.59835e-06 -1.07224e-05
0.000932336 -3.86767e-05 1.57241e-06
-3.86767e-05 -0.000103616 1.00609e-06
1.57241e-06 1.00609e-06 -0.000178273
0.00122013 -3.73061e-05 -2.74051e-07
-3.73061e-05 0.000113521 -8.14307e-08
-2.74051e-07 -8.14307e-08 2.70704e-05
0.00113654 -2.22047e-05 -9.11021e-08
-2.22047e-05 8.50697e-05 -3.09216e-07
-9.11021e-08 -3.09216e-07 -2.95592e-06
0.00117571 -2.63446e-05 6.42871e-07
-2.63446e-05 0.000103261 3.88615e-07
6.42871e-07 3.88615e-07 3.64053e-06
0.00246664 1.35873e-06 -7.19727e-06
1.35873e-06 0.000355662 2.24694e-06
-7.19727e-06 2.24694e-06 0.000386746
0.00191259 -5.94451e-05 4.25036e-06
-5.94451e-05 0.000329239 3.2532e-06
4.25036e-06 3.2532e-06 0.000262578
0.0003377 -3.9598e-05 2.38733e-07
-3.9598e-05 -0.000325207 -8.69916e-08
2.38733e-07 -8.69916e-08 -0.000417253
0.00127803 -3.48726e-05 1.60793e-06
-3.48726e-05 0.000148908 6.60364e-07
1.60793e-06 6.60364e-07 4.42223e-05
0.00103636 -1.42653e-05 -1.06549e-07
-1.42653e-05 3.61615e-05 -8.21493e-07
-1.06549e-07 -8.21493e-07 -4.12136e-05
0.0011525 -1.79866e-05 -1.2145e-07
-1.79866e-05 9.65956e-05 -7.88762e-07
-1.2145e-07 -7.88762e-07 1.30448e-05
0.0013018 -2.04985e-05 -2.02556e-07
-2.04985e-05 0.00017473 -1.10944e-06
-2.02556e-07 -1.10944e-06 7.41838e-05
-0.00181665 3.60303e-06 -5.70891e-05
3.60303e-06 -0.00075665 9.73994e-08
-5.70891e-05 9.73994e-08 -0.000697603
0.00506163 9.65467e-06 -2.10977e-05
9.65467e-06 0.0015211 8.17962e-07
-2.10977e-05 8.17962e-07 0.00125568
0.00115117 2.2323e-05 1.17218e-07
2.2323e-05 9.39993e-05 -1.35689e-07
1.17218e-07 -1.35689e-07 1.23887e-05
0.000998957 2.41016e-05 5.70787e-07
2.41016e-05 2.01606e-05 -5.32099e-07
5.70787e-07 -5.32099e-07 -6.6205e-05
0.0019231 4.55188e-05 -5.43763e-06
4.55188e-05 0.000180317 1.54161e-07
-5.43763e-06 1.54161e-07 0.000122368
0.00113379 4.99805e-05 -1.53804e-06
4.99805e-05 -1.96091e-05 3.80647e-07
-1.53804e-06 3.80647e-07 -0.000103733
0.00102878 3.19003e-05 -1.85937e-07
3.19003e-05 5.39213e-05 -9.5604e-07
-1.85937e-07 -9.5604e-07 -5.32754e-05
0.00560687 6.06996e-05 -5.02315e-06
6.06996e-05 0.00144784 2.18012e-06
-5.02315e-06 2.18012e-06 0.00105473
3.31855e-05 -4.56046e-05 -2.41929e-05
-4.56046e-05 -0.000158147 -8.94177e-06
-2.41929e-05 -8.94177e-06 -0.000344593
0.00222633 9.55296e-06 1.3483e-05
9.55296e-06 0.000112079 7.28462e-06
1.3483e-05 7.28462e-06 0.00014445
0.00246145 -7.76447e-05 1.96413e-05
-7.76447e-05 0.00106485 8.9781e-06
1.96413e-05 8.9781e-06 0.000985639
-1.19872e-05 -5.78754e-05 6.5501e-06
-5.78754e-05 -0.000404428 3.36245e-06
6.5501e-06 3.36245e-06 -0.000268991
0.00113697 2.16838e-05 2.25944e-07
2.16838e-05 9.42249e-05 -1.62633e-07
2.25944e-07 -1.62633e-07 1.06125e-05
-0.0014564 3.79185e-06 -1.33681e-05
3.79185e-06 -0.000505226 -1.31725e-06
-1.33681e-05 -1.31725e-06 -0.000498913
0.0011176 -2.80966e-05 -9.19818e-09
-2.80966e-05 0.000388193 -1.96532e-07
-9.19818e-09 -1.96532e-07 0.000447994
0.00157651 6.74574e-05 1.72266e-06
6.74574e-05 0.000104118 1.68831e-06
1.72266e-06 1.68831e-06 1.58695e-05
0.00113823 2.21813e-05 1.6365e-07
2.21813e-05 0.000112648 -9.33598e-07
1.6365e-07 -9.33598e-07 1.76144e-05
0.00119456 3.52448e-05 6.14833e-08
3.52448e-05 0.000169102 3.3839e-07
6.14833e-08 3.3839e-07 3.96812e-05
0.00196731 1.05409e-05 -1.9806e-05
1.05409e-05 0.000136437 -1.85621e-05
-1.9806e-05 -1.85621e-05 7.95066e-05
0.00380638 4.04456e-05 8.83077e-06
4.04456e-05 0.000712156 6.43268e-06
8.83077e-06 6.43268e-06 0.000171702
0.000160602 1.92271e-06 -6.74948e-06
1.92271e-06 -6.27755e-05 -1.07221e-05
-6.74948e-06 -1.07221e-05 -0.000238404
0.00184652 -0.000127782 -3.88326e-07
-0.000127782 0.000428483 3.91715e-06
-3.88326e-07 3.91715e-06 0.000344158
-0.000800306 -3.89914e-05 -8.14812e-07
-3.89914e-05 -0.000916467 -8.86284e-06
-8.14812e-07 -8.86284e-06 -0.000815653
0.00105884 1.40462e-05 -2.30593e-07
1.40462e-05 4.50564e-05 -3.05843e-07
-2.30593e-07 -3.05843e-07 -3.92715e-05
0.000171685 -5.43791e-06 1.0174e-05
-5.43791e-06 -0.000103875 4.03467e-06
1.0174e-05 4.03467e-06 -9.99765e-05
0.000705175 -8.96135e-06 1.06383e-05
-8.96135e-06 0.000119103 1.60987e-05
1.06383e-05 1.60987e-05 0.000102211
0.00138998 3.37153e-05 9.03906e-06
3.37153e-05 0.000245501 6.35584e-06
9.03906e-06 6.35584e-06 8.69428e-05
0.00131473 1.38894e-05 -4.46888e-06
1.38894e-05 0.000234911 -1.6162e-06
-4.46888e-06 -1.6162e-06 0.000124166
0.00224775 -8.05448e-06 -7.87465e-06
-8.05448e-06 0.00067704 -5.11041e-06
-7.87465e-06 -5.11041e-06 0.000646932
-0.00067246 4.15431e-05 -1.84049e-05
4.15431e-05 -0.000362735 -9.29943e-06
-1.84049e-05 -9.29943e-06 -0.000496538
0.00335607 -3.20152e-05 3.51408e-05
-3.20152e-05 0.000319809 1.97721e-05
3.51408e-05 1.97721e-05 -0.00022917
0.00202777 -0.000157053 -1.83224e-05
-0.000157053 0.000336542 -2.73735e-05
-1.83224e-05 -2.73735e-05 0.000237498
5.28265e-06 -1.35955e-05 5.7334e-06
-1.35955e-05 -0.000365748 1.91524e-06
5.7334e-06 1.91524e-06 -0.000375085
0.00122218 2.03212e-05 -3.98755e-07
2.03212e-05 0.000117923 3.87664e-07
-3.98755e-07 3.87664e-07 3.58806e-05
0.00115837 1.69692e-05 1.44709e-07
1.69692e-05 7.74091e-05 1.3445e-07
1.44709e-07 1.3445e-07 -5.16009e-06
0.00111094 1.68886e-05 6.06448e-07
1.68886e-05 6.61745e-05 3.39851e-07
6.06448e-07 3.39851e-07 -1.70146e-05
0.000880307 3.44596e-06 9.68974e-08
3.44596e-06 -5.55522e-05 -6.22498e-07
9.68974e-08 -6.22498e-07 -0.0001042
0.00112756 4.1954e-06 -1.79176e-08
4.1954e-06 7.06619e-05 -1.06258e-06
-1.79176e-08 -1.06258e-06 1.01293e-05
0.00123539 4.54928e-07 -1.94935e-08
4.54928e-07 0.000123909 -1.18182e-07
-1.94935e-08 -1.18182e-07 5.51677e-05
0.00108923 1.46326e-05 -1.86717e-07
1.46326e-05 5.038e-05 -9.9699e-07
-1.86717e-07 -9.9699e-07 -2.34096e-05
0.00109784 1.62424e-05 -6.24848e-08
1.62424e-05 5.10882e-05 -7.30386e-08
-6.24848e-08 -7.30386e-08 -2.89013e-05
0.0011331 3.3244e-06 1.07795e-07
3.3244e-06 7.39282e-05 -4.2962e-07
1.07795e-07 -4.2962e-07 1.32377e-05
0.00112498 1.42635e-05 3.27621e-08
1.42635e-05 6.83862e-05 9.03633e-08
3.27621e-08 9.03633e-08 -7.90921e-06
0.00113346 4.19193e-07 -4.82184e-08
4.19193e-07 7.51524e-05 1.00829e-07
-4.82184e-08 1.00829e-07 3.99667e-06
0.00115967 1.52142e-05 3.46587e-08
1.52142e-05 8.60864e-05 7.87767e-08
3.46587e-08 7.87767e-08 3.41654e-06
0.00110569 1.30657e-05 -4.79329e-08
1.30657e-05 6.54991e-05 -2.0141e-07
-4.79329e-08 -2.0141e-07 -2.00503e-05
0.00117209 9.59091e-06 1.0461e-07
9.59091e-06 9.52321e-05 6.55208e-07
1.0461e-07 6.55208e-07 1.54314e-05
0.00114736 5.26153e-06 9.46884e-08
5.26153e-06 8.23466e-05 5.54905e-07
9.46884e-08 5.54905e-07 1.1448e-05
0.00113917 -3.27953e-06 7.67746e-08
-3.27953e-06 7.72462e-05 -8.18537e-07
7.67746e-08 -8.18537e-07 1.69243e-05
0.00104321 -1.09734e-05 2.57839e-07
-1.09734e-05 3.2962e-05 -1.00612e-06
2.57839e-07 -1.00612e-06 -3.78172e-05
0.00114098 1.94835e-06 9.44597e-08
1.94835e-06 8.01098e-05 -7.94638e-09
9.44597e-08 -7.94638e-09 9.78807e-06
0.00111719 -9.76749e-06 -2.06396e-08
-9.76749e-06 7.05518e-05 1.00986e-08
-2.06396e-08 1.00986e-08 -7.55535e-07
0.00111794 -1.41575e-05 2.06972e-07
-1.41575e-05 7.2016e-05 -4.89037e-07
2.06972e-07 -4.89037e-07 -3.54861e-06
0.00108505 -1.53872e-05 -3.26684e-07
-1.53872e-05 5.73493e-05 9.09868e-07
-3.26684e-07 9.09868e-07 -1.58953e-05
0.00118266 -5.15771e-06 -2.56742e-07
-5.15771e-06 0.000102091 1.43591e-07
-2.56742e-07 1.43591e-07 2.46832e-05
0.0010124 -1.95188e-05 2.84912e-08
-1.95188e-05 2.38339e-05 2.65218e-07
2.84912e-08 2.65218e-07 -5.50816e-05
0.00113058 -2.1919e-05 -3.02599e-07
-2.1919e-05 7.23347e-05 -7.83976e-07
-3.02599e-07 -7.83976e-07 -3.00782e-06
0.000974931 -2.32135e-05 -4.7954e-08
-2.32135e-05 -4.42622e-06 7.30473e-08
-4.7954e-08 7.30473e-08 -7.30899e-05
0.00104042 -2.15598e-05 -7.22603e-07
-2.15598e-05 2.627e-05 -2.36775e-07
-7.22603e-07 -2.36775e-07 -4.36181e-05
0.00111206 -1.95962e-05 -3.17424e-07
-1.95962e-05 6.55848e-05 2.10546e-07
-3.17424e-07 2.10546e-07 -7.2582e-06
0.00109341 -1.5098e-05 -8.32428e-07
-1.5098e-05 5.47201e-05 1.08406e-06
-8.32428e-07 1.08406e-06 -8.87958e-06
0.00109145 -1.16699e-05 -5.96546e-09
-1.16699e-05 5.55348e-05 -1.75814e-08
-5.96546e-09 -1.75814e-08 -7.56948e-06
0.00105946 -5.74814e-06 -5.82368e-07
-5.74814e-06 3.19149e-05 1.15274e-06
-5.82368e-07 1.15274e-06 -1.71608e-05
0.0010933 -1.11473e-05 3.53458e-07
-1.11473e-05 5.58702e-05 -7.60588e-07
3.53458e-07 -7.60588e-07 -5.86813e-06
0.00106481 -4.95631e-06 6.64933e-08
-4.95631e-06 3.42113e-05 -1.40639e-08
6.64933e-08 -1.40639e-08 -1.39808e-05
0.00102558 4.00058e-06 -7.54987e-07
4.00058e-06 7.19136e-06 1.79954e-06
-7.54987e-07 1.79954e-06 -2.19975e-05
0.000886304 -2.14579e-06 3.65446e-07
-2.14579e-06 -5.28486e-05 -1.09887e-06
3.65446e-07 -1.09887e-06 -0.000101643
0.00102923 3.15073e-06 4.87804e-08
3.15073e-06 7.30653e-06 5.91765e-09
4.87804e-08 5.91765e-09 -2.15182e-05
0.00158512 4.90477e-06 -2.22636e-06
4.90477e-06 0.000270829 4.34974e-06
-2.22636e-06 4.34974e-06 0.000273294
0.00103017 2.09899e-06 4.58192e-07
2.09899e-06 6.44873e-06 -1.81495e-06
4.58192e-07 -1.81495e-06 -2.21918e-05
0.0012776 3.22427e-06 -5.44138e-07
3.22427e-06 0.000117978 6.13009e-07
-5.44138e-07 6.13009e-07 0.000119374
0.00112835 3.50161e-06 -5.72988e-07
3.50161e-06 4.03312e-05 1.54386e-06
-5.72988e-07 1.54386e-06 5.85772e-05
0.000974233 1.39133e-06 3.9877e-07
1.39133e-06 -3.21736e-05 -3.17109e-06
3.9877e-07 -3.17109e-06 -3.19381e-05
0.00236696 1.73044e-06 4.28978e-07
1.73044e-06 0.000647511 4.30096e-09
4.28978e-07 4.30096e-09 0.000671413
0.00235596 -4.17556e-07 5.77465e-07
-4.17556e-07 0.000642194 -4.01213e-06
5.77465e-07 -4.01213e-06 0.000666153
0.00130948 2.45084e-06 -2.11696e-07
2.45084e-06 0.000149539 -8.61472e-07
-2.11696e-07 -8.61472e-07 0.000110253
0.00103732 -1.1102e-06 -2.29976e-07
-1.1102e-06 6.78013e-06 -1.82383e-06
-2.29976e-07 -1.82383e-06 -1.60251e-05
0.00107144 -8.37739e-07 -1.10015e-08
-8.37739e-07 3.17547e-05 4.0784e-07
-1.10015e-08 4.0784e-07 -7.95953e-06
0.000969796 3.8964e-08 -8.12099e-08
3.8964e-08 -3.46822e-05 -3.11725e-06
-8.12099e-08 -3.11725e-06 -3.09462e-05
0.00103229 1.25942e-08 -3.13975e-08
1.25942e-08 3.929e-06 2.5658e-09
-3.13975e-08 2.5658e-09 -1.87439e-05
0.0010371 1.34889e-06 -2.39697e-07
1.34889e-06 6.96765e-06 1.83696e-06
-2.39697e-07 1.83696e-06 -1.62046e-05
0.000971202 1.77184e-06 -5.34794e-08
1.77184e-06 -3.35669e-05 -7.19831e-10
-5.34794e-08 -7.19831e-10 -3.00461e-05
0.00225539 2.18638e-06 1.0058e-06
2.18638e-06 0.000592836 -3.89743e-06
1.0058e-06 -3.89743e-06 0.000618011
0.00151032 3.93531e-06 -7.11016e-07
3.93531e-06 0.000232311 1.90781e-06
-7.11016e-07 1.90781e-06 0.000237865
0.00170819 4.2013e-06 5.38789e-07
4.2013e-06 0.000325608 1.45219e-08
5.38789e-07 1.45219e-08 0.00034778
0.00121005 5.68085e-06 -4.19605e-06
5.68085e-06 8.34999e-05 6.21191e-06
-4.19605e-06 6.21191e-06 0.000102145
-0.00377587 1.80335e-05 -3.14714e-05
1.80335e-05 -0.00183522 9.80511e-06
-3.14714e-05 9.80511e-06 -0.00182445
-0.00116187 2.6072e-05 3.62113e-07
2.6072e-05 -0.000948466 -7.0437e-07
3.62113e-07 -7.0437e-07 -0.000927249
0.000215941 -3.48463e-05 -3.11073e-05
-3.48463e-05 -0.000158141 -5.12362e-06
-3.11073e-05 -5.12362e-06 -0.000239951
0.000477888 -1.51166e-05 2.40106e-06
-1.51166e-05 -8.89262e-05 -6.25408e-07
2.40106e-06 -6.25408e-07 -9.26016e-05
0.001136 2.39337e-05 -4.43545e-06
2.39337e-05 -1.09308e-05 -2.70886e-06
-4.43545e-06 -2.70886e-06 -8.47949e-05
0.000304921 -9.92537e-06 1.27838e-05
-9.92537e-06 -1.36416e-05 1.3723e-07
1.27838e-05 1.3723e-07 -6.7023e-05
0.00125 3.83344e-05 1.07769e-06
3.83344e-05 0.000154892 2.4494e-06
1.07769e-06 2.4494e-06 8.90817e-05
0.00309096 -1.03271e-05 -1.55069e-05
-1.03271e-05 0.000583132 6.99886e-07
-1.55069e-05 6.99886e-07 0.000255023
-0.00134182 3.80079e-05 1.14111e-05
3.80079e-05 -0.000602611 -3.34954e-06
1.14111e-05 -3.34954e-06 -0.000622327
0.000497553 4.42436e-05 3.35083e-07
4.42436e-05 -6.61916e-05 1.50144e-06
3.35083e-07 1.50144e-06 3.55285e-05
0.000693971 2.04938e-05 1.44111e-05
2.04938e-05 0.000124445 -1.15307e-05
1.44111e-05 -1.15307e-05 3.62728e-06
0.00447797 1.69203e-05 -2.09655e-05
1.69203e-05 0.00125769 1.51777e-05
-2.09655e-05 1.51777e-05 0.000896582
0.000212271 8.47446e-05 -3.27202e-05
8.47446e-05 1.06233e-05 3.17001e-05
-3.27202e-05 3.17001e-05 3.22867e-05
0.00120125 3.02087e-05 3.58563e-06
3.02087e-05 0.000322707 -3.73941e-06
3.58563e-06 -3.73941e-06 0.000405404
0.00101247 8.0252e-06 -1.05694e-07
8.0252e-06 1.82198e-05 -1.05012e-06
-1.05694e-07 -1.05012e-06 -4.61837e-05
0.00100414 -2.09438e-07 1.27079e-07
-2.09438e-07 6.75176e-06 -4.23198e-07
1.27079e-07 -4.23198e-07 -4.49815e-05
0.00107636 -1.94593e-06 1.22092e-07
-1.94593e-06 3.35861e-05 1.00891e-06
1.22092e-07 1.00891e-06 -6.11284e-06
0.0009704 1.10903e-05 1.62953e-08
1.10903e-05 -8.24741e-06 6.39406e-07
1.62953e-08 6.39406e-07 -6.21125e-05
0.00113741 2.03366e-05 3.81349e-07
2.03366e-05 7.65655e-05 8.77025e-07
3.81349e-07 8.77025e-07 1.51213e-05
0.00117924 1.02138e-05 4.81426e-08
1.02138e-05 9.83308e-05 -4.69177e-07
4.81426e-08 -4.69177e-07 3.54808e-05
0.00110232 4.2282e-06 1.76883e-07
4.2282e-06 5.7549e-05 9.31471e-07
1.76883e-07 9.31471e-07 -1.0031e-06
0.00110804 -7.6198e-09 1.44074e-07
-7.6198e-09 6.20588e-05 -3.58041e-07
1.44074e-07 -3.58041e-07 4.99247e-06
0.00104403 -1.81957e-06 3.41322e-08
-1.81957e-06 2.88758e-05 -4.70465e-07
3.41322e-08 -4.70465e-07 -2.46813e-05
0.000966849 -1.36671e-05 -4.35996e-07
-1.36671e-05 -1.00688e-05 1.13716e-06
-4.35996e-07 1.13716e-06 -6.20871e-05
0.00175711 2.75763e-05 4.19747e-06
2.75763e-05 0.000205576 5.00251e-06
4.19747e-06 5.00251e-06 0.00015402
0.00132594 -3.18969e-05 -3.95197e-06
-3.18969e-05 -5.22175e-05 -2.33421e-06
-3.95197e-06 -2.33421e-06 -6.07226e-05
0.000300017 -3.41707e-05 -3.93902e-07
-3.41707e-05 -0.000397865 -1.13579e-06
-3.93902e-07 -1.13579e-06 -0.00046977
0.00122914 -3.77729e-05 -1.14036e-06
-3.77729e-05 0.000114118 4.61292e-07
-1.14036e-06 4.61292e-07 2.53792e-05
0.0011216 -2.57655e-05 -3.98599e-07
-2.57655e-05 7.59994e-05 2.54619e-07
-3.98599e-07 2.54619e-07 -2.28742e-05
0.00116302 -2.23496e-05 -1.78905e-07
-2.23496e-05 9.84963e-05 2.82555e-07
-1.78905e-07 2.82555e-07 1.05505e-05
0.00120133 -1.8818e-05 1.63585e-07
-1.8818e-05 0.000115567 1.49018e-07
1.63585e-07 1.49018e-07 4.27586e-05
0.00107349 6.39463e-06 2.55971e-07
6.39463e-06 5.07891e-05 8.72673e-07
2.55971e-07 8.72673e-07 -1.8243e-05
0.00176496 -7.35362e-06 -2.63816e-06
-7.35362e-06 3.01978e-05 -7.72059e-07
-2.63816e-06 -7.72059e-07 4.79269e-05
0.00101747 -7.9457e-06 -2.18675e-08
-7.9457e-06 2.76658e-05 -2.0095e-07
-2.18675e-08 -2.0095e-07 -5.02343e-05
0.00107353 -1.8182e-05 7.37305e-08
-1.8182e-05 5.8452e-05 -4.13947e-07
7.37305e-08 -4.13947e-07 -2.59233e-05
0.00148647 -5.51564e-05 1.64058e-06
-5.51564e-05 0.000124317 1.32466e-06
1.64058e-06 1.32466e-06 6.54453e-05
0.000795974 -4.32978e-05 -1.09539e-06
-4.32978e-05 -0.000107681 2.95876e-07
-1.09539e-06 2.95876e-07 -0.000199974
0.00117528 -3.35747e-05 7.43387e-07
-3.35747e-05 9.7054e-05 -1.03705e-07
7.43387e-07 -1.03705e-07 -9.55559e-06
0.00124956 -2.03067e-05 -5.04293e-08
-2.03067e-05 0.000149264 -3.71297e-07
-5.04293e-08 -3.71297e-07 4.75078e-05
0.0027242 -3.37632e-05 -5.4722e-06
-3.37632e-05 0.000366254 8.21861e-06
-5.4722e-06 8.21861e-06 0.000417628
0.000931872 -4.59782e-05 6.29559e-07
-4.59782e-05 1.79535e-05 6.9964e-07
6.29559e-07 6.9964e-07 -9.61262e-05
0.00118263 -1.94383e-05 -7.47925e-07
-1.94383e-05 0.000109666 1.34951e-07
-7.47925e-07 1.34951e-07 -2.31783e-06
0.00101719 5.72285e-06 -7.29387e-09
5.72285e-06 2.78582e-05 2.87229e-07
-7.29387e-09 2.87229e-07 -5.04916e-05
0.0011199 -1.62475e-05 -1.32759e-07
-1.62475e-05 8.23769e-05 -3.82355e-07
-1.32759e-07 -3.82355e-07 -3.92005e-06
0.00126468 -1.67642e-05 -8.32196e-08
-1.67642e-05 0.000154211 -5.56847e-07
-8.32196e-08 -5.56847e-07 5.95144e-05
0.000787777 2.3774e-06 1.31106e-05
2.3774e-06 0.000215981 7.04658e-07
1.31106e-05 7.04658e-07 0.000205882
0.00147574 7.02938e-06 4.44753e-07
7.02938e-06 0.0005266 -2.89519e-06
4.44753e-07 -2.89519e-06 0.000478158
0.000997567 6.06211e-05 -4.41411e-05
6.06211e-05 -0.000582567 6.17961e-06
-4.41411e-05 6.17961e-06 -0.000835606
0.00114249 2.17545e-05 2.64675e-08
2.17545e-05 9.49197e-05 -1.3071e-07
2.64675e-08 -1.3071e-07 1.14004e-05
0.00122695 2.18866e-05 1.37322e-06
2.18866e-05 0.000153315 -1.02689e-06
1.37322e-06 -1.02689e-06 6.07955e-05
0.0016605 6.86445e-05 -2.86438e-06
6.86445e-05 0.00014165 -1.8594e-06
-2.86438e-06 -1.8594e-06 5.31748e-05
0.000827143 3.24998e-05 2.82322e-06
3.24998e-05 9.34931e-07 2.10925e-07
2.82322e-06 2.10925e-07 -0.000124471
0.00236547 -3.57863e-05 1.5574e-05
-3.57863e-05 0.00101012 5.15161e-06
1.5574e-05 5.15161e-06 0.000969381
0.000747176 -2.77809e-05 5.44072e-05
-2.77809e-05 -0.000352717 3.65126e-05
5.44072e-05 3.65126e-05 -0.000637463
0.00117643 1.67467e-05 -6.76324e-05
1.67467e-05 -6.54475e-05 -5.70262e-05
-6.76324e-05 -5.70262e-05 -0.000325162
0.00179029 1.38455e-05 6.39944e-06
1.38455e-05 7.35079e-05 -5.99693e-07
6.39944e-06 -5.99693e-07 1.10362e-05
-0.00182986 -9.21853e-05 3.80933e-05
-9.21853e-05 -0.00115379 3.52307e-05
3.80933e-05 3.52307e-05 -0.00114584
0.0030044 -2.54117e-05 -2.82657e-06
-2.54117e-05 0.00152684 -4.33319e-06
-2.82657e-06 -4.33319e-06 0.00158145
0.00101851 -4.78383e-05 -1.34063e-05
-4.78383e-05 0.000175412 -1.47252e-05
-1.34063e-05 -1.47252e-05 0.000275529
0.00119198 1.61647e-05 -9.57197e-08
1.61647e-05 0.000112175 1.01143e-07
-9.57197e-08 1.01143e-07 2.72116e-05
0.00075289 -7.10715e-06 4.62201e-06
-7.10715e-06 0.000222539 1.43379e-06
4.62201e-06 1.43379e-06 0.000227359
0.000560053 -9.3969e-06 2.79255e-06
-9.3969e-06 2.91248e-05 4.57334e-06
2.79255e-06 4.57334e-06 1.43271e-05
0.00126974 3.79048e-05 2.14204e-06
3.79048e-05 0.000191521 3.9677e-06
2.14204e-06 3.9677e-06 3.20881e-05
0.00101922 1.12326e-05 -3.21374e-07
1.12326e-05 9.97733e-05 -6.35805e-07
-3.21374e-07 -6.35805e-07 -1.25323e-05
0.00218496 -3.56762e-06 6.1916e-06
-3.56762e-06 0.000494474 1.19081e-05
6.1916e-06 1.19081e-05 0.000376177
0.0021566 7.17548e-05 -1.38418e-05
7.17548e-05 0.000532478 -3.87214e-05
-1.38418e-05 -3.87214e-05 0.000232542
0.00539703 -7.12551e-05 4.97359e-06
-7.12551e-05 0.00139991 3.25435e-06
4.97359e-06 3.25435e-06 0.000924029
-0.000217643 -0.00012414 5.77609e-06
-0.00012414 -0.000437585 1.40636e-05
5.77609e-06 1.40636e-05 -0.000526196
0.000619122 -2.00559e-05 -2.3858e-06
-2.00559e-05 -3.22347e-05 -1.89329e-06
-2.3858e-06 -1.89329e-06 -2.3101e-05
0.000966843 1.16115e-05 6.97312e-08
1.16115e-05 1.34994e-05 -4.37671e-07
6.97312e-08 -4.37671e-07 -6.75317e-05
0.00177482 1.65414e-06 1.1788e-05
1.65414e-06 0.000828919 4.09657e-06
1.1788e-05 4.09657e-06 0.000776026
0.000956241 3.51218e-06 8.04234e-06
3.51218e-06 0.000198644 3.19324e-06
8.04234e-06 3.19324e-06 0.000152262
0.000388164 -4.6875e-07 2.62468e-06
-4.6875e-07 -8.93574e-05 6.08722e-06
2.62468e-06 6.08722e-06 -0.000193535
-0.000324746 3.65438e-05 1.00576e-05
3.65438e-05 -9.43654e-05 2.22555e-05
1.00576e-05 2.22555e-05 -0.000156954
0.00475299 -8.72461e-05 -1.67567e-05
-8.72461e-05 0.000985759 -2.37964e-05
-1.67567e-05 -2.37964e-05 0.000437155
-0.000137319 -0.000107151 -1.08385e-05
-0.000107151 -0.00102097 -3.45637e-05
-1.08385e-05 -3.45637e-05 -0.000817609
0.000385966 -6.2942e-06 -7.34868e-07
-6.2942e-06 -0.000158101 -2.09003e-06
-7.34868e-07 -2.09003e-06 -0.000195093
0.0011191 1.66285e-05 -6.49136e-08
1.66285e-05 5.9466e-05 -1.65716e-07
-6.49136e-08 -1.65716e-07 -2.3429e-05
0.0011588 1.4793e-05 1.07069e-07
1.4793e-05 8.72423e-05 1.90593e-07
1.07069e-07 1.90593e-07 4.18393e-06
0.00151261 1.34104e-05 -1.70902e-07
1.34104e-05 0.000252267 -3.81508e-07
-1.70902e-07 -3.81508e-07 0.000169847
0.00113133 1.33863e-05 -7.16659e-08
1.33863e-05 7.30776e-05 -1.15027e-06
-7.16659e-08 -1.15027e-06 1.23116e-05
0.00114763 6.88909e-06 -5.84557e-08
6.88909e-06 8.18911e-05 -3.85789e-07
-5.84557e-08 -3.85789e-07 1.07022e-05
0.00114931 1.29083e-05 -3.67782e-08
1.29083e-05 8.02891e-05 -3.27824e-07
-3.67782e-08 -3.27824e-07 4.60076e-06
0.00116279 1.5046e-05 -3.07925e-07
1.5046e-05 8.71686e-05 -3.15157e-07
-3.07925e-07 -3.15157e-07 4.1253e-06
0.00114333 1.20317e-05 4.39775e-08
1.20317e-05 8.05479e-05 1.36674e-08
4.39775e-08 1.36674e-08 9.54658e-06
0.00119927 1.34038e-05 6.54527e-08
1.34038e-05 0.000107821 2.84166e-07
6.54527e-08 2.84166e-07 2.80096e-05
0.00108427 1.30188e-05 -1.10451e-07
1.30188e-05 5.63521e-05 -2.39795e-07
-1.10451e-07 -2.39795e-07 -2.91589e-05
0.00106388 1.21472e-05 3.58699e-07
1.21472e-05 6.76581e-05 2.6651e-07
3.58699e-07 2.6651e-07 -1.7088e-05
0.00113743 7.23039e-06 4.09425e-07
7.23039e-06 8.13303e-05 2.60437e-07
4.09425e-07 2.60437e-07 -6.10666e-06
0.00124571 9.83431e-06 6.14721e-08
9.83431e-06 0.000130406 4.15895e-07
6.14721e-08 4.15895e-07 5.17446e-05
0.00114717 1.28246e-07 1.56076e-07
1.28246e-07 8.27117e-05 -6.80269e-07
1.56076e-07 -6.80269e-07 1.243e-05
0.00112338 -9.58994e-06 1.34256e-07
-9.58994e-06 7.34451e-05 -6.46297e-07
1.34256e-07 -6.46297e-07 2.05981e-06
0.00107102 -1.69114e-05 4.80282e-07
-1.69114e-05 4.89932e-05 -1.13972e-06
4.80282e-07 -1.13972e-06 -2.62515e-05
0.00118649 -4.0294e-06 -4.39385e-09
-4.0294e-06 0.000103304 -2.80366e-07
-4.39385e-09 -2.80366e-07 2.63238e-05
0.00110655 -1.2503e-05 -1.60461e-08
-1.2503e-05 6.77636e-05 1.76774e-07
-1.60461e-08 1.76774e-07 -5.46241e-06
0.00105681 -1.80009e-05 6.21679e-08
-1.80009e-05 4.43158e-05 -1.86428e-07
6.21679e-08 -1.86428e-07 -3.416e-05
0.00111498 -2.02906e-05 -7.90932e-07
-2.02906e-05 7.23293e-05 -5.16388e-08
-7.90932e-07 -5.16388e-08 -7.48586e-06
0.00110855 -2.05e-05 5.57043e-08
-2.05e-05 7.37378e-05 2.53165e-07
5.57043e-08 2.53165e-07 -8.7622e-06
0.00118777 -2.47244e-05 -5.51699e-08
-2.47244e-05 0.000103983 -8.40191e-08
-5.51699e-08 -8.40191e-08 2.5102e-05
0.0011422 -2.20591e-05 -3.76608e-07
-2.20591e-05 7.81994e-05 -9.35368e-08
-3.76608e-07 -9.35368e-08 2.73143e-06
0.00102196 -2.42792e-05 -2.78263e-07
-2.42792e-05 1.68174e-05 3.43134e-07
-2.78263e-07 3.43134e-07 -5.61046e-05
0.00113759 -2.57017e-05 -9.36225e-07
-2.57017e-05 6.73248e-05 1.03006e-06
-9.36225e-07 1.03006e-06 -2.13274e-06
0.00121624 -2.26349e-05 -3.43647e-07
-2.26349e-05 0.000108525 -4.08919e-07
-3.43647e-07 -4.08919e-07 4.54965e-05
0.00102662 -2.37613e-05 4.65567e-07
-2.37613e-05 2.11093e-05 -6.79553e-07
4.65567e-07 -6.79553e-07 -4.62964e-05
0.00112001 -2.21322e-05 3.27191e-07
-2.21322e-05 6.44296e-05 -1.53636e-07
3.27191e-07 -1.53636e-07 -4.95324e-06
0.000992002 -1.51684e-05 -9.1239e-07
-1.51684e-05 2.09375e-06 4.59212e-07
-9.1239e-07 4.59212e-07 -6.04856e-05
0.00112588 -1.93849e-05 1.36275e-07
-1.93849e-05 7.17711e-05 4.90612e-08
1.36275e-07 4.90612e-08 -9.24463e-07
0.00109482 -1.48363e-05 -1.51389e-07
-1.48363e-05 5.54043e-05 3.4471e-07
-1.51389e-07 3.4471e-07 -8.13364e-06
0.00106511 -4.75461e-06 -7.34122e-07
-4.75461e-06 3.45287e-05 1.20379e-06
-7.34122e-07 1.20379e-06 -1.532e-05
0.00110046 -1.28027e-05 3.3352e-07
-1.28027e-05 5.986e-05 -8.14859e-07
3.3352e-07 -8.14859e-07 -3.28195e-06
0.00106478 -5.72661e-06 2.51162e-08
-5.72661e-06 3.44814e-05 -2.053e-08
2.51162e-08 -2.053e-08 -1.4642e-05
0.00101893 4.80424e-06 -9.71633e-07
4.80424e-06 5.68033e-06 1.80062e-06
-9.71633e-07 1.80062e-06 -2.40392e-05
0.00106675 -4.01051e-06 5.47727e-07
-4.01051e-06 3.51611e-05 -1.12855e-06
5.47727e-07 -1.12855e-06 -1.30491e-05
0.00102453 3.99486e-06 5.97364e-08
3.99486e-06 6.62086e-06 4.32057e-09
5.97364e-08 4.32057e-09 -2.25728e-05
0.00158311 6.51944e-06 -2.97732e-06
6.51944e-06 0.000272517 4.30505e-06
-2.97732e-06 4.30505e-06 0.00027452
0.00102756 3.11631e-06 6.60367e-07
3.11631e-06 6.37176e-06 -1.81968e-06
6.60367e-07 -1.81968e-06 -2.24413e-05
0.00127533 4.8693e-06 -7.44329e-07
4.8693e-06 0.000118851 6.08998e-07
-7.44329e-07 6.08998e-07 0.000119912
0.00112546 5.48178e-06 -8.94386e-07
5.48178e-06 4.12073e-05 1.5335e-06
-8.94386e-07 1.5335e-06 5.90816e-05
0.000973812 3.06412e-06 7.4527e-07
3.06412e-06 -3.13493e-05 -3.14921e-06
7.4527e-07 -3.14921e-06 -3.13183e-05
0.00175353 3.87341e-06 1.18836e-06
3.87341e-06 0.000347191 -1.2154e-06
1.18836e-06 -1.2154e-06 0.000368175
0.00235905 1.89171e-06 1.80261e-06
1.89171e-06 0.000643869 -4.00151e-06
1.80261e-06 -4.00151e-06 0.000667768
0.0011343 -3.28541e-06 -6.22557e-08
-3.28541e-06 6.66206e-05 -9.45582e-07
-6.22557e-08 -9.45582e-07 2.38656e-05
0.00103443 -2.34712e-06 -3.93588e-07
-2.34712e-06 6.71611e-06 -1.79521e-06
-3.93588e-07 -1.79521e-06 -1.6694e-05
0.00110046 -1.33226e-06 1.08305e-07
-1.33226e-06 4.7901e-05 1.48535e-07
1.08305e-07 1.48535e-07 7.35371e-06
0.000973246 -1.57166e-06 -4.32273e-07
-1.57166e-06 -3.26117e-05 -3.10093e-06
-4.32273e-07 -3.10093e-06 -2.90183e-05
0.00103256 -1.1324e-06 -5.03349e-08
-1.1324e-06 4.48023e-06 1.91837e-09
-5.03349e-08 1.91837e-09 -1.82947e-05
0.00106426 -1.42306e-06 -8.5412e-08
-1.42306e-06 2.83116e-05 1.39322e-06
-8.5412e-08 1.39322e-06 -1.136e-05
0.00225176 6.29776e-09 -3.84697e-07
6.29776e-09 0.000590738 -3.9017e-06
-3.84697e-07 -3.9017e-06 0.00061599
0.000970155 5.89375e-08 -9.90937e-08
5.89375e-08 -3.4497e-05 -3.05275e-09
-9.90937e-08 -3.05275e-09 -3.0768e-05
0.00103453 -1.35264e-08 -3.64196e-08
-1.35264e-08 5.04646e-06 1.85075e-06
-3.64196e-08 1.85075e-06 -1.76585e-05
0.000975475 1.79053e-06 -3.98794e-07
1.79053e-06 -3.14654e-05 3.09608e-06
-3.98794e-07 3.09608e-06 -2.79795e-05
0.00225166 2.24891e-06 -4.35882e-07
2.24891e-06 0.000591134 -4.50515e-09
-4.35882e-07 -4.50515e-09 0.000616293
0.00226633 4.3747e-06 -3.01392e-06
4.3747e-06 0.000599615 3.87154e-06
-3.01392e-06 3.87154e-06 0.000624398
-0.00129357 1.35632e-05 8.60194e-06
1.35632e-05 -0.000996366 -2.1618e-06
8.60194e-06 -2.1618e-06 -0.00100725
-0.000737941 1.20624e-05 2.03754e-05
1.20624e-05 -0.000321133 -4.89377e-06
2.03754e-05 -4.89377e-06 -0.000355697
0.000547342 2.74206e-06 1.57228e-05
2.74206e-06 5.11845e-05 -6.10609e-06
1.57228e-05 -6.10609e-06 2.74564e-05
-0.00121369 2.94378e-05 -6.66639e-06
2.94378e-05 -0.000991121 1.50823e-06
-6.66639e-06 1.50823e-06 -0.000958687
0.000828597 7.03124e-06 -3.59631e-05
7.03124e-06 -0.00016231 -3.50573e-06
-3.59631e-05 -3.50573e-06 -0.000259327
0.0012697 4.01543e-05 3.63951e-06
4.01543e-05 0.000134861 -6.31502e-07
3.63951e-06 -6.31502e-07 6.78667e-05
0.000892695 -3.72329e-05 -1.09378e-05
-3.72329e-05 -0.000139492 -1.95022e-06
-1.09378e-05 -1.95022e-06 -0.000396688
0.00231333 4.09255e-05 6.17201e-05
4.09255e-05 0.0010388 -2.25167e-05
6.17201e-05 -2.25167e-05 0.000952656
8.82261e-05 4.65584e-05 2.84213e-06
4.65584e-05 -0.000294731 -3.33352e-06
2.84213e-06 -3.33352e-06 -0.000201947
0.00122405 2.15847e-05 -3.42018e-06
2.15847e-05 0.000173388 1.21394e-06
-3.42018e-06 1.21394e-06 5.41693e-05
0.00236495 -4.89858e-05 4.22116e-06
-4.89858e-05 0.000170928 -3.26251e-06
4.22116e-06 -3.26251e-06 -0.000323683
0.00208895 0.000116953 -2.37713e-07
0.000116953 0.000588096 4.38332e-06
-2.37713e-07 4.38332e-06 0.000517185
0.000784482 2.16669e-05 -2.93856e-06
2.16669e-05 7.33541e-05 -1.92257e-06
-2.93856e-06 -1.92257e-06 0.000168718
0.000797197 -1.14936e-05 4.88898e-06
-1.14936e-05 0.000188723 -5.14069e-06
4.88898e-06 -5.14069e-06 3.3743e-05
0.00262414 1.47398e-05 4.10482e-05
1.47398e-05 2.05639e-05 -2.0203e-05
4.10482e-05 -2.0203e-05 -0.000565709
-0.00120567 0.000125667 -2.34959e-05
0.000125667 -0.00102713 4.48079e-05
-2.34959e-05 4.48079e-05 -0.00106618
0.000109789 -5.20044e-07 1.26896e-05
-5.20044e-07 -0.000279504 7.86996e-07
1.26896e-05 7.86996e-07 -0.000300822
0.00114858 -2.7548e-06 2.14907e-07
-2.7548e-06 8.72556e-05 -6.83887e-07
2.14907e-07 -6.83887e-07 1.59529e-05
0.00110863 9.92251e-06 -2.62314e-07
9.92251e-06 6.4325e-05 -1.9932e-07
-2.62314e-07 -1.9932e-07 7.90003e-07
0.00109437 6.3279e-08 2.03488e-07
6.3279e-08 5.05926e-05 2.66342e-07
2.03488e-07 2.66342e-07 -4.91896e-07
0.00108941 1.98116e-05 5.39192e-07
1.98116e-05 5.29091e-05 1.38715e-06
5.39192e-07 1.38715e-06 -7.67125e-06
0.00107666 6.51306e-06 -2.5516e-08
6.51306e-06 4.87919e-05 -2.16985e-07
-2.5516e-08 -2.16985e-07 -1.95185e-05
0.00120391 7.48901e-06 8.00863e-08
7.48901e-06 0.000109873 4.0761e-07
8.00863e-08 4.0761e-07 4.77345e-05
0.00106767 -2.86846e-06 -4.04202e-07
-2.86846e-06 4.09237e-05 1.71819e-06
-4.04202e-07 1.71819e-06 -1.71804e-05
0.0012375 1.1516e-05 -2.2329e-07
1.1516e-05 0.000125503 -5.97412e-07
-2.2329e-07 -5.97412e-07 6.66959e-05
0.00118892 5.41037e-06 1.7625e-08
5.41037e-06 0.000101263 4.46772e-07
1.7625e-08 4.46772e-07 4.49157e-05
0.000966858 -4.30931e-06 -1.56807e-07
-4.30931e-06 -8.81588e-06 3.35405e-07
-1.56807e-07 3.35405e-07 -6.31029e-05
0.00126456 -1.61579e-05 -2.32834e-06
-1.61579e-05 -0.000198637 1.88756e-06
-2.32834e-06 1.88756e-06 -0.000195808
0.000908477 -4.99473e-05 -2.21875e-06
-4.99473e-05 -0.000154508 2.09246e-07
-2.21875e-06 2.09246e-07 -0.000206056
0.00131825 -4.74628e-05 -6.78178e-07
-4.74628e-05 0.00013991 1.5377e-06
-6.78178e-07 1.5377e-06 4.73132e-05
0.00109419 -3.24947e-05 -1.03235e-06
-3.24947e-05 5.55194e-05 -2.62902e-07
-1.03235e-06 -2.62902e-07 -5.30138e-05
0.00119473 -2.06547e-05 2.88222e-07
-2.06547e-05 0.00012248 3.15549e-07
2.88222e-07 3.15549e-07 1.95123e-05
0.000998761 -1.86834e-05 1.46589e-07
-1.86834e-05 2.22736e-05 -1.24002e-07
1.46589e-07 -1.24002e-07 -6.29291e-05
0.000999746 -2.68845e-06 -3.17159e-08
-2.68845e-06 1.97179e-05 2.74117e-07
-3.17159e-08 2.74117e-07 -5.87119e-05
0.00107136 -7.70855e-06 -3.92363e-08
-7.70855e-06 5.43361e-05 7.26195e-07
-3.92363e-08 7.26195e-07 -2.42904e-05
0.00180729 -3.62807e-05 7.69051e-07
-3.62807e-05 -4.02421e-05 4.62437e-07
7.69051e-07 4.62437e-07 4.3056e-06
0.00117047 -1.03623e-05 5.79935e-08
-1.03623e-05 0.000107547 -2.67208e-07
5.79935e-08 -2.67208e-07 2.18582e-05
0.00129891 -1.82864e-05 2.6048e-07
-1.82864e-05 0.00017103 3.43549e-08
2.6048e-07 3.43549e-08 7.57589e-05
0.0013145 -4.80128e-05 2.6456e-07
-4.80128e-05 0.000195063 -8.46152e-07
2.6456e-07 -8.46152e-07 8.23226e-05
0.00123202 -1.97428e-05 -1.39941e-07
-1.97428e-05 0.000131042 -1.29515e-07
-1.39941e-07 -1.29515e-07 1.91593e-05
0.00219734 -5.23184e-05 -1.50439e-05
-5.23184e-05 0.000300449 1.26212e-05
-1.50439e-05 1.26212e-05 0.000265483
0.00087827 -1.53753e-05 -8.21176e-07
-1.53753e-05 4.94264e-05 -8.85411e-08
-8.21176e-07 -8.85411e-08 -8.12846e-05
0.00119879 -1.51581e-05 -6.73677e-08
-1.51581e-05 0.000114279 6.48362e-08
-6.73677e-08 6.48362e-08 6.88775e-06
0.00111003 7.63101e-06 -1.10964e-07
7.63101e-06 7.48194e-05 -2.39478e-10
-1.10964e-07 -2.39478e-10 -1.0088e-05
0.00117903 -4.11221e-07 -9.36384e-08
-4.11221e-07 0.000108345 -4.46016e-07
-9.36384e-08 -4.46016e-07 1.30074e-05
0.00166055 2.29146e-06 4.94312e-06
2.29146e-06 0.00078473 1.0631e-06
4.94312e-06 1.0631e-06 0.000715027
-0.000282544 3.5858e-06 4.98122e-06
3.5858e-06 -0.00040427 -3.70161e-07
4.98122e-06 -3.70161e-07 -0.000420574
-0.00388126 2.10529e-06 5.71389e-05
2.10529e-06 -0.00195658 -1.90464e-07
5.71389e-05 -1.90464e-07 -0.00190737
0.0013343 1.806e-05 6.35651e-08
1.806e-05 0.000184086 5.84356e-07
6.35651e-08 5.84356e-07 9.84462e-05
0.000746621 9.8611e-06 1.70276e-06
9.8611e-06 -2.40558e-05 -1.1777e-06
1.70276e-06 -1.1777e-06 -0.000137497
0.00102075 4.19021e-05 2.62197e-06
4.19021e-05 7.21309e-05 -4.80921e-06
2.62197e-06 -4.80921e-06 -8.58402e-05
-0.00064333 -5.21637e-06 -3.46561e-06
-5.21637e-06 -0.00060174 -1.59751e-06
-3.46561e-06 -1.59751e-06 -0.000609888
0.00171979 -2.92569e-05 1.02867e-06
-2.92569e-05 -0.00040439 2.02625e-05
1.02867e-06 2.02625e-05 -0.00100348
-8.89919e-05 3.39039e-05 -1.26618e-05
3.39039e-05 -0.000123368 -2.78232e-05
-1.26618e-05 -2.78232e-05 -0.000271744
0.00261326 -6.10163e-06 4.89445e-05
-6.10163e-06 0.000520523 1.46302e-05
4.89445e-05 1.46302e-05 0.000322476
0.00346317 -0.000158272 4.62176e-05
-0.000158272 0.00114244 5.52071e-05
4.62176e-05 5.52071e-05 0.000994674
0.000378303 -1.00393e-05 -1.39603e-05
-1.00393e-05 -8.21307e-05 -7.40028e-06
-1.39603e-05 -7.40028e-06 -9.46232e-05
0.0002288 -1.67451e-05 -1.14083e-05
-1.67451e-05 -0.000257339 -5.30818e-06
-1.14083e-05 -5.30818e-06 -0.000263611
0.00102113 1.55045e-05 6.5005e-07
1.55045e-05 3.95489e-05 7.62203e-07
6.5005e-07 7.62203e-07 -4.1611e-05
0.00130201 2.42e-06 1.68585e-06
2.42e-06 0.000538864 9.747e-07
1.68585e-06 9.747e-07 0.000480046
0.00072328 3.70983e-06 3.98047e-07
3.70983e-06 5.0772e-05 2.76871e-08
3.98047e-07 2.76871e-08 3.29509e-06
0.000270519 4.56295e-07 7.42499e-06
4.56295e-07 -0.000174811 1.19776e-06
7.42499e-06 1.19776e-06 -0.000294774
0.000942257 3.8715e-05 -1.51193e-05
3.8715e-05 0.000359789 -1.73546e-06
-1.51193e-05 -1.73546e-06 0.000202045
0.00524977 -2.19196e-05 1.37261e-05
-2.19196e-05 0.00089744 8.98849e-06
1.37261e-05 8.98849e-06 0.000328137
0.000714744 -4.48709e-06 -1.38192e-06
-4.48709e-06 6.73542e-05 1.14574e-06
-1.38192e-06 1.14574e-06 2.4286e-05
0.00182564 -0.000132935 3.31257e-06
-0.000132935 -4.56727e-06 9.57492e-06
3.31257e-06 9.57492e-06 3.5753e-05
0.000781188 3.7977e-06 -2.17019e-07
3.7977e-06 -7.9187e-05 -4.53939e-06
-2.17019e-07 -4.53939e-06 -0.000149118
0.000819974 8.16403e-06 2.84474e-06
8.16403e-06 0.000130902 8.65746e-07
2.84474e-06 8.65746e-07 5.03338e-05
0.000847228 -4.84191e-06 -5.6521e-07
-4.84191e-06 9.7277e-05 1.57989e-06
-5.6521e-07 1.57989e-06 4.53717e-05
-2.19597e-05 -2.31059e-07 -1.22727e-05
-2.31059e-07 -0.000392388 2.27153e-06
-1.22727e-05 2.27153e-06 -0.000387104
-0.000973348 4.21451e-06 -8.03916e-06
4.21451e-06 -0.000644657 -9.85033e-07
-8.03916e-06 -9.85033e-07 -0.000709081
0.00686046 -4.20285e-05 -1.56126e-05
-4.20285e-05 0.00191233 6.57459e-06
-1.56126e-05 6.57459e-06 0.00132708
0.000692981 -4.1088e-06 5.76249e-06
-4.1088e-06 -0.000926264 -3.80991e-05
5.76249e-06 -3.80991e-05 -0.000622104
0.00120984 1.44678e-05 -1.75338e-08
1.44678e-05 0.000110031 1.41802e-07
-1.75338e-08 1.41802e-07 2.70609e-05
0.00134213 1.07604e-05 -4.65901e-07
1.07604e-05 0.000173743 -6.07627e-07
-4.65901e-07 -6.07627e-07 9.04175e-05
0.00133438 1.42452e-05 3.71009e-07
1.42452e-05 0.000205485 1.25156e-06
3.71009e-07 1.25156e-06 0.0001233
0.00113659 1.87873e-05 -8.38085e-08
1.87873e-05 7.74989e-05 -5.40666e-07
-8.38085e-08 -5.40666e-07 6.39754e-06
0.00121779 1.80667e-05 2.45943e-09
1.80667e-05 0.000116335 -7.20419e-08
2.45943e-09 -7.20419e-08 3.65064e-05
0.00110504 1.28511e-05 -6.61022e-07
1.28511e-05 6.78836e-05 -3.25688e-07
-6.61022e-07 -3.25688e-07 -1.76984e-05
0.00123726 9.98199e-06 -4.21168e-08
9.98199e-06 0.000126431 -1.05138e-07
-4.21168e-08 -1.05138e-07 4.7978e-05
0.00117628 5.22276e-06 1.79187e-07
5.22276e-06 0.000101733 1.09041e-07
1.79187e-07 1.09041e-07 1.38033e-05
0.0010518 1.33862e-05 -4.39423e-07
1.33862e-05 5.60585e-05 5.33503e-07
-4.39423e-07 5.33503e-07 -2.77669e-05
0.00110906 1.34877e-05 6.01245e-07
1.34877e-05 9.02054e-05 3.51906e-08
6.01245e-07 3.51906e-08 -3.61321e-07
0.00113441 -1.13036e-05 -3.4315e-07
-1.13036e-05 8.40422e-05 6.52299e-07
-3.4315e-07 6.52299e-07 -2.29875e-06
0.00119373 -3.20966e-06 -8.30213e-08
-3.20966e-06 0.000106095 -7.48774e-07
-8.30213e-08 -7.48774e-07 2.95418e-05
0.00112995 -9.96048e-06 5.14528e-08
-9.96048e-06 7.90914e-05 -2.90251e-07
5.14528e-08 -2.90251e-07 5.87849e-06
0.00109695 -1.67292e-05 1.8191e-08
-1.67292e-05 6.28223e-05 -4.08905e-07
1.8191e-08 -4.08905e-07 -1.5221e-05
0.00111771 -1.94516e-05 1.16912e-07
-1.94516e-05 7.62659e-05 -9.71451e-08
1.16912e-07 -9.71451e-08 -5.88273e-06
0.00106419 -1.85757e-05 -2.93758e-07
-1.85757e-05 4.80884e-05 2.00534e-07
-2.93758e-07 2.00534e-07 -3.17903e-05
0.00115034 -2.31862e-05 -5.67679e-07
-2.31862e-05 9.8735e-05 8.33383e-07
-5.67679e-07 8.33383e-07 1.42499e-05
0.00112228 -2.41099e-05 3.04066e-07
-2.41099e-05 7.46014e-05 -3.77983e-07
3.04066e-07 -3.77983e-07 -1.85238e-06
0.00100096 -2.61245e-05 4.38044e-08
-2.61245e-05 1.51054e-05 8.56263e-07
4.38044e-08 8.56263e-07 -6.85254e-05
0.00116078 -2.21999e-05 5.47316e-07
-2.21999e-05 8.72583e-05 6.74497e-08
5.47316e-07 6.74497e-08 1.16731e-05
0.00117188 -2.56896e-05 5.2531e-08
-2.56896e-05 8.73567e-05 4.86758e-07
5.2531e-08 4.86758e-07 1.44004e-05
0.00103963 -2.69591e-05 -3.73665e-07
-2.69591e-05 1.52201e-05 1.04664e-06
-3.73665e-07 1.04664e-06 -6.09736e-05
0.00112505 -2.46854e-05 -7.65791e-07
-2.46854e-05 6.66167e-05 3.32608e-07
-7.65791e-07 3.32608e-07 -1.56005e-06
0.00112755 -2.16779e-05 -9.86803e-07
-2.16779e-05 6.76827e-05 3.93858e-07
-9.86803e-07 3.93858e-07 5.62228e-06
0.00106516 -2.49844e-05 -3.77248e-07
-2.49844e-05 3.41603e-05 1.13593e-07
-3.77248e-07 1.13593e-07 -3.54186e-05
0.0011113 -1.61331e-05 -7.72741e-07
-1.61331e-05 5.68754e-05 2.84932e-07
-7.72741e-07 2.84932e-07 -1.7357e-06
0.00117465 -2.26014e-05 1.64224e-08
-2.26014e-05 8.82347e-05 -1.67494e-07
1.64224e-08 -1.67494e-07 2.47959e-05
0.00107731 -2.42392e-05 6.01547e-07
-2.42392e-05 4.61907e-05 -1.09348e-06
6.01547e-07 -1.09348e-06 -1.99563e-05
0.00120159 -2.27003e-05 1.17975e-06
-2.27003e-05 0.00010352 -2.99785e-07
1.17975e-06 -2.99785e-07 3.46426e-05
0.0010384 -1.5759e-05 4.78076e-08
-1.5759e-05 2.45291e-05 -1.79118e-08
4.78076e-08 -1.79118e-08 -3.77333e-05
0.00106885 -4.26369e-06 -1.01208e-06
-4.26369e-06 3.49096e-05 1.1369e-06
-1.01208e-06 1.1369e-06 -1.46333e-05
0.00109521 -1.3774e-05 5.04225e-07
-1.3774e-05 5.56145e-05 -3.71915e-07
5.04225e-07 -3.71915e-07 -7.86505e-06
0.0010646 -4.51049e-06 8.07285e-08
-4.51049e-06 3.41247e-05 1.6621e-08
8.07285e-08 1.6621e-08 -1.56766e-05
0.00101489 5.81786e-06 -1.17859e-06
5.81786e-06 5.43918e-06 1.82268e-06
-1.17859e-06 1.82268e-06 -2.48573e-05
0.00107046 -5.87461e-06 6.37486e-07
-5.87461e-06 3.72188e-05 -1.17962e-06
6.37486e-07 -1.17962e-06 -1.19565e-05
0.00101948 4.83401e-06 5.03985e-08
4.83401e-06 5.9566e-06 -2.64114e-10
5.03985e-08 -2.64114e-10 -2.37921e-05
0.00155265 8.06623e-06 -3.12858e-06
8.06623e-06 0.000260936 3.03178e-06
-3.12858e-06 3.03178e-06 0.000262492
0.00102347 3.99224e-06 8.80567e-07
3.99224e-06 6.05444e-06 -1.81607e-06
8.80567e-07 -1.81607e-06 -2.31449e-05
0.00127222 6.4109e-06 -9.12578e-07
6.4109e-06 0.000120067 6.07331e-07
-9.12578e-07 6.07331e-07 0.000120646
0.00112032 7.37651e-06 -1.20586e-06
7.37651e-06 4.19191e-05 1.51914e-06
-1.20586e-06 1.51914e-06 5.92514e-05
0.000972163 4.64158e-06 1.09041e-06
4.64158e-06 -3.01814e-05 -3.12293e-06
1.09041e-06 -3.12293e-06 -3.04978e-05
0.00175683 6.00134e-06 1.58599e-06
6.00134e-06 0.000350861 -1.20418e-06
1.58599e-06 -1.20418e-06 0.000371488
0.00236202 4.17515e-06 3.01217e-06
4.17515e-06 0.000646521 -3.98237e-06
3.01217e-06 -3.98237e-06 0.000670207
0.000874732 -1.41291e-06 -3.2052e-07
-1.41291e-06 -5.85365e-05 -1.55686e-06
-3.2052e-07 -1.55686e-06 -0.000105521
0.000781179 -3.55455e-06 -5.67168e-07
-3.55455e-06 -0.000114349 -2.34277e-06
-5.67168e-07 -2.34277e-06 -0.000140739
0.00113841 -3.05003e-06 4.15071e-08
-3.05003e-06 6.84738e-05 1.1206e-07
4.15071e-08 1.1206e-07 2.5653e-05
0.000978557 -3.24128e-06 -7.40359e-07
-3.24128e-06 -2.88449e-05 -3.07191e-06
-7.40359e-07 -3.07191e-06 -2.58191e-05
0.000904729 -2.35014e-06 -1.46879e-08
-2.35014e-06 -5.63249e-05 -4.58421e-10
-1.46879e-08 -4.58421e-10 -8.05426e-05
0.000890682 -4.65607e-06 1.12752e-07
-4.65607e-06 -5.40727e-05 1.16532e-06
1.12752e-07 1.16532e-06 -9.58937e-05
0.00224788 -2.15291e-06 -1.76988e-06
-2.15291e-06 0.000589303 -3.88885e-06
-1.76988e-06 -3.88885e-06 0.000614483
0.000969709 -1.55292e-06 -8.24042e-08
-1.55292e-06 -3.43613e-05 4.43767e-09
-8.24042e-08 4.43767e-09 -3.07423e-05
0.00102771 -1.15468e-06 1.28332e-07
-1.15468e-06 2.13284e-06 1.79908e-06
1.28332e-07 1.79908e-06 -2.06105e-05
0.00225166 5.57231e-08 -4.93306e-07
5.57231e-08 0.000590691 1.06117e-09
-4.93306e-07 1.06117e-09 0.000615945
0.000970608 7.88102e-08 -1.26107e-07
7.88102e-08 -3.4267e-05 3.12153e-06
-1.26107e-07 3.12153e-06 -3.05454e-05
0.00224813 2.30921e-06 -1.66879e-06
2.30921e-06 0.000589541 3.89082e-06
-1.66879e-06 3.89082e-06 0.000614681
0.000864542 -9.49461e-07 8.71433e-06
-9.49461e-07 0.000281012 -2.98119e-06
8.71433e-06 -2.98119e-06 0.000219293
0.000775895 1.49463e-05 1.57241e-07
1.49463e-05 0.000210712 8.50697e-07
1.57241e-07 8.50697e-07 0.00020975
0.000732718 1.97044e-06 8.23259e-05
1.97044e-06 0.000147031 -1.25259e-05
8.23259e-05 -1.25259e-05 5.0282e-05
0.00108818 1.12734e-05 -5.17701e-07
1.12734e-05 4.85017e-05 -5.32057e-07
-5.17701e-07 -5.32057e-07 -1.32548e-05
0.000432608 -1.53558e-05 5.25403e-06
-1.53558e-05 -9.30051e-05 -7.17357e-06
5.25403e-06 -7.17357e-06 -0.000138056
0.000747413 3.17359e-06 3.55271e-06
3.17359e-06 0.000174481 -6.31855e-07
3.55271e-06 -6.31855e-07 0.000152618
0.000713493 3.36117e-05 -1.31047e-05
3.36117e-05 0.000113854 1.07801e-05
-1.31047e-05 1.07801e-05 0.00016101
0.00098019 1.32149e-05 -2.67502e-05
1.32149e-05 -0.000125135 7.58588e-06
-2.67502e-05 7.58588e-06 -0.000274253
0.00448702 9.24402e-06 -2.61701e-06
9.24402e-06 0.00133736 1.04398e-07
-2.61701e-06 1.04398e-07 0.000867396
-0.00111782 8.76642e-05 3.9057e-05
8.76642e-05 -0.000723237 -2.74164e-05
3.9057e-05 -2.74164e-05 -0.000731959
0.00251653 1.84391e-05 -9.02151e-06
1.84391e-05 0.00115827 1.54562e-06
-9.02151e-06 1.54562e-06 0.00122772
0.00213764 -4.36315e-05 -1.9154e-05
-4.36315e-05 0.000442441 7.9662e-06
-1.9154e-05 7.9662e-06 0.000174959
0.00484355 5.44902e-05 1.80861e-05
5.44902e-05 0.00117501 -2.44678e-05
1.80861e-05 -2.44678e-05 0.000684551
4.99068e-05 0.000134094 -2.09527e-06
0.000134094 -0.000692018 1.02287e-05
-2.09527e-06 1.02287e-05 -0.000731015
0.00126832 4.28377e-06 1.52051e-06
4.28377e-06 0.00040841 -3.71137e-06
1.52051e-06 -3.71137e-06 0.000405373
0.000744272 -8.02109e-05 2.60956e-05
-8.02109e-05 -0.000243817 -4.15085e-05
2.60956e-05 -4.15085e-05 -0.000517897
0.00546299 9.2887e-05 1.65033e-05
9.2887e-05 0.000753368 -4.66498e-05
1.65033e-05 -4.66498e-05 0.000103
0.00100984 0.000130021 1.1273e-05
0.000130021 -0.000723367 4.34554e-05
1.1273e-05 4.34554e-05 -0.000713235
0.000424366 1.91425e-08 2.59317e-06
1.91425e-08 -0.000106849 6.14289e-06
2.59317e-06 6.14289e-06 -0.000171718
0.00108721 2.58274e-07 -2.08783e-07
2.58274e-07 5.49549e-05 -6.80573e-07
-2.08783e-07 -6.80573e-07 -2.24983e-05
0.00112878 -6.1449e-06 5.54913e-08
-6.1449e-06 7.75969e-05 1.92527e-08
5.54913e-08 1.92527e-08 5.50528e-06
0.00120329 1.21941e-05 -2.16361e-08
1.21941e-05 0.00010969 6.91951e-07
-2.16361e-08 6.91951e-07 4.70264e-05
0.00107886 1.39265e-05 -4.14434e-07
1.39265e-05 4.84511e-05 -8.75368e-07
-4.14434e-07 -8.75368e-07 -2.12728e-05
0.00115722 1.3034e-05 -3.79792e-08
1.3034e-05 8.77361e-05 3.48374e-07
-3.79792e-08 3.48374e-07 2.03495e-05
0.00122875 2.3192e-06 1.41403e-07
2.3192e-06 0.000121568 1.33752e-06
1.41403e-07 1.33752e-06 6.01011e-05
0.00126377 1.10435e-05 -1.20089e-07
1.10435e-05 0.000137742 5.22066e-08
-1.20089e-07 5.22066e-08 7.92993e-05
0.00126963 1.10807e-05 1.90647e-07
1.10807e-05 0.000140332 1.26765e-06
1.90647e-07 1.26765e-06 8.47367e-05
0.00058398 -3.95246e-05 1.0838e-06
-3.95246e-05 -0.000593298 -3.09202e-06
1.0838e-06 -3.09202e-06 -0.000547732
0.00172983 -5.03631e-05 -5.66803e-07
-5.03631e-05 0.000389242 -3.32542e-07
-5.66803e-07 -3.32542e-07 0.00027734
0.00112877 -2.0788e-05 5.52483e-08
-2.0788e-05 8.24121e-05 8.78595e-07
5.52483e-08 8.78595e-07 3.498e-06
0.00125874 -1.96789e-05 3.32376e-07
-1.96789e-05 0.000141409 -1.1441e-07
3.32376e-07 -1.1441e-07 2.95856e-05
0.0013306 -1.93393e-05 2.81094e-07
-1.93393e-05 0.000186736 6.41884e-07
2.81094e-07 6.41884e-07 9.08875e-05
0.00121865 -4.48441e-06 7.55609e-08
-4.48441e-06 0.000131607 -1.01508e-07
7.55609e-08 -1.01508e-07 4.6535e-05
0.00113092 6.63272e-06 -3.0469e-08
6.63272e-06 8.471e-05 2.5862e-08
-3.0469e-08 2.5862e-08 -2.1771e-07
0.00150979 -4.06309e-05 1.27111e-07
-4.06309e-05 -2.94712e-05 -2.66686e-07
1.27111e-07 -2.66686e-07 -4.1652e-05
0.0011485 -2.64018e-06 -7.99465e-08
-2.64018e-06 9.25392e-05 2.18425e-07
-7.99465e-08 2.18425e-07 -2.89569e-06
0.00122146 -1.5327e-05 6.00871e-07
-1.5327e-05 0.000123169 9.6644e-08
6.00871e-07 9.6644e-08 1.58976e-05
0.00107589 -1.88844e-05 -2.06809e-07
-1.88844e-05 0.000139302 3.2752e-07
-2.06809e-07 3.2752e-07 1.0165e-05
0.00105247 1.2748e-05 -1.26312e-07
1.2748e-05 4.15001e-05 4.6088e-07
-1.26312e-07 4.6088e-07 -4.42148e-05
0.00250653 -4.36579e-05 -1.12828e-05
-4.36579e-05 0.000666931 2.31638e-05
-1.12828e-05 2.31638e-05 0.000571814
0.0012434 1.30137e-06 3.33136e-07
1.30137e-06 0.000209115 -1.21108e-06
3.33136e-07 -1.21108e-06 8.55565e-05
0.00139469 -7.2419e-06 -3.47815e-07
-7.2419e-06 0.000207421 -2.70934e-07
-3.47815e-07 -2.70934e-07 0.000102968
0.00116763 1.28905e-05 -1.02793e-07
1.28905e-05 9.83182e-05 2.58489e-08
-1.02793e-07 2.58489e-08 4.18457e-06
0.00132636 1.66752e-06 1.70133e-06
1.66752e-06 0.000468472 1.7518e-07
1.70133e-06 1.7518e-07 0.00037845
0.00140251 3.02451e-06 -4.46645e-06
3.02451e-06 0.000620006 2.31892e-07
-4.46645e-06 2.31892e-07 0.000550262
-0.00130626 4.599e-06 -2.19194e-06
4.599e-06 -0.000995816 1.12873e-07
-2.19194e-06 1.12873e-07 -0.00101748
0.00104495 1.75188e-05 -2.2994e-07
1.75188e-05 4.9842e-05 7.38569e-07
-2.2994e-07 7.38569e-07 -3.12285e-05
0.000100429 -5.74622e-06 -6.54505e-07
-5.74622e-06 -0.000279873 2.7441e-06
-6.54505e-07 2.7441e-06 -0.000419028
0.000819853 3.2878e-06 -1.14397e-05
3.2878e-06 0.000242407 -2.35213e-06
-1.14397e-05 -2.35213e-06 0.000177703
0.00321032 -0.000103147 6.39216e-06
-0.000103147 0.000351233 9.5352e-06
6.39216e-06 9.5352e-06 -0.000305873
0.00349854 6.91491e-05 -7.52745e-06
6.91491e-05 0.00118067 -4.38538e-05
-7.52745e-06 -4.38538e-05 0.000932522
0.00199768 -0.000140526 -1.82732e-06
-0.000140526 -0.000355643 6.03727e-05
-1.82732e-06 6.03727e-05 -0.000178035
0.000407219 4.04121e-06 -6.77442e-06
4.04121e-06 -0.00014896 -3.59326e-06
-6.77442e-06 -3.59326e-06 -0.000197349
0.00101638 -2.8873e-06 1.30391e-06
-2.8873e-06 0.000274783 2.74645e-08
1.30391e-06 2.74645e-08 0.000225888
0.0011719 4.80439e-06 -4.58433e-07
4.80439e-06 0.000108805 -8.45334e-07
-4.58433e-07 -8.45334e-07 3.75007e-05
0.000663662 8.05887e-06 3.98371e-07
8.05887e-06 3.51041e-05 3.25004e-07
3.98371e-07 3.25004e-07 -4.6266e-05
0.000790602 -5.6385e-06 -2.10188e-06
-5.6385e-06 6.32558e-05 2.24018e-07
-2.10188e-06 2.24018e-07 7.19795e-06
0.00018331 -4.17032e-06 1.00392e-06
-4.17032e-06 -0.00010557 -3.56495e-06
1.00392e-06 -3.56495e-06 -0.000147525
0.00137837 3.76391e-06 -1.46668e-06
3.76391e-06 0.000453819 3.97651e-06
-1.46668e-06 3.97651e-06 0.000473411
0.00341143 -7.26379e-06 4.13138e-06
-7.26379e-06 0.000109018 1.49874e-05
4.13138e-06 1.49874e-05 -0.000293099
0.00337089 1.10527e-05 5.74309e-06
1.10527e-05 7.23438e-05 1.37705e-06
5.74309e-06 1.37705e-06 0.000481756
0.000493904 -6.95166e-07 6.77901e-07
-6.95166e-07 -0.000188956 -3.5226e-06
6.77901e-07 -3.5226e-06 -0.000239182
0.000871813 -1.26915e-06 1.05424e-06
-1.26915e-06 0.000122064 2.50985e-07
1.05424e-06 2.50985e-07 4.87815e-05
0.000509337 -1.36902e-05 -5.70955e-06
-1.36902e-05 -8.7555e-05 8.87338e-06
-5.70955e-06 8.87338e-06 -0.000132386
0.00125889 3.11905e-05 -3.09331e-06
3.11905e-05 0.000339767 5.60034e-06
-3.09331e-06 5.60034e-06 0.000440694
0.00154508 0.000132338 -4.43521e-06
0.000132338 -0.000398063 -4.7878e-05
-4.43521e-06 -4.7878e-05 -0.000347298
0.00143988 -3.74988e-08 1.52773e-06
-3.74988e-08 0.000682492 -1.02344e-05
1.52773e-06 -1.02344e-05 0.000594323
0.00485721 -1.88734e-05 1.99839e-05
-1.88734e-05 0.000961794 1.85415e-05
1.99839e-05 1.85415e-05 0.000169144
0.00114909 7.00162e-06 3.63304e-07
7.00162e-06 8.46998e-05 -4.03031e-07
3.63304e-07 -4.03031e-07 4.6465e-07
0.00104293 1.31091e-05 7.08046e-07
1.31091e-05 6.07754e-05 -7.67131e-07
7.08046e-07 -7.67131e-07 -2.20321e-05
0.000778509 1.39879e-05 3.98377e-07
1.39879e-05 -4.10079e-05 7.45135e-08
3.98377e-07 7.45135e-08 -0.000138689
0.00122198 1.02539e-05 -8.11597e-08
1.02539e-05 0.000119128 -4.37149e-07
-8.11597e-08 -4.37149e-07 4.09022e-05
0.00120322 5.02909e-06 -1.16793e-07
5.02909e-06 0.000116051 -3.87112e-07
-1.16793e-07 -3.87112e-07 2.76688e-05
0.000984209 1.40016e-05 -1.52329e-06
1.40016e-05 1.63989e-05 1.85382e-06
-1.52329e-06 1.85382e-06 -6.62514e-05
0.00111312 -1.16392e-05 -1.31777e-07
-1.16392e-05 7.39515e-05 2.11236e-07
-1.31777e-07 2.11236e-07 -1.22451e-05
0.00106853 8.65241e-06 -1.04908e-07
8.65241e-06 7.24234e-05 8.99608e-08
-1.04908e-07 8.99608e-08 -1.74142e-05
0.00116898 -1.55244e-05 6.12461e-08
-1.55244e-05 0.000127332 1.17269e-06
6.12461e-08 1.17269e-06 3.19435e-05
0.00113447 -1.94565e-05 1.89546e-07
-1.94565e-05 8.26021e-05 -3.63712e-07
1.89546e-07 -3.63712e-07 7.49039e-07
0.00101604 -1.68593e-05 5.10298e-08
-1.68593e-05 2.50878e-05 1.32479e-07
5.10298e-08 1.32479e-07 -5.48559e-05
0.00116602 -2.35417e-05 6.35576e-08
-2.35417e-05 0.000104933 4.79755e-07
6.35576e-08 4.79755e-07 1.99381e-05
0.000919239 -2.5447e-05 -8.45145e-07
-2.5447e-05 1.2229e-06 1.7115e-06
-8.45145e-07 1.7115e-06 -9.07827e-05
0.00104614 -2.33879e-05 3.41792e-07
-2.33879e-05 4.02834e-05 2.29123e-08
3.41792e-07 2.29123e-08 -3.37471e-05
0.00101501 -2.5971e-05 4.93009e-07
-2.5971e-05 2.4548e-05 -4.06013e-07
4.93009e-07 -4.06013e-07 -5.83483e-05
0.00121005 -3.10635e-05 -3.75005e-07
-3.10635e-05 0.000104323 9.14307e-07
-3.75005e-07 9.14307e-07 1.74886e-05
0.00119879 -2.85775e-05 -1.21865e-06
-2.85775e-05 8.9082e-05 1.10814e-06
-1.21865e-06 1.10814e-06 1.35434e-05
0.00131672 -2.7077e-05 4.49295e-07
-2.7077e-05 0.000155489 -4.16791e-08
4.49295e-07 -4.16791e-08 8.25032e-05
0.00109941 -2.76564e-05 -9.71225e-08
-2.76564e-05 4.37027e-05 -4.32143e-08
-9.71225e-08 -4.32143e-08 -3.30333e-05
0.00125346 -2.51677e-05 -7.87879e-08
-2.51677e-05 0.000128654 6.52494e-08
-7.87879e-08 6.52494e-08 6.31702e-05
0.00102241 -1.8831e-05 -5.81356e-07
-1.8831e-05 2.53483e-05 2.63151e-07
-5.81356e-07 2.63151e-07 -3.74699e-05
0.00112699 -2.45939e-05 3.42929e-07
-2.45939e-05 6.7243e-05 -6.51336e-08
3.42929e-07 -6.51336e-08 -1.54627e-07
0.00110288 -1.26546e-05 -9.20994e-07
-1.26546e-05 5.54976e-05 1.34585e-07
-9.20994e-07 1.34585e-07 -1.38244e-06
0.00113923 -2.17516e-05 -4.74075e-07
-2.17516e-05 7.30816e-05 3.2341e-07
-4.74075e-07 3.2341e-07 1.09143e-05
0.000992294 -2.4266e-05 1.90755e-07
-2.4266e-05 7.75834e-07 -4.49176e-07
1.90755e-07 -4.49176e-07 -6.89226e-05
0.00106951 -4.29382e-06 -1.2123e-06
-4.29382e-06 3.42008e-05 9.77164e-07
-1.2123e-06 9.77164e-07 -1.40654e-05
0.00107002 -1.59395e-05 3.92093e-08
-1.59395e-05 3.64119e-05 7.94867e-08
3.92093e-08 7.94867e-08 -2.24599e-05
0.00113169 -2.25818e-05 1.18508e-06
-2.25818e-05 6.72959e-05 -3.08435e-07
1.18508e-06 -3.08435e-07 3.44666e-06
0.00108472 -1.6278e-05 8.91523e-07
-1.6278e-05 4.69763e-05 -4.85475e-07
8.91523e-07 -4.85475e-07 -1.49735e-05
0.00106492 -3.82815e-06 6.83093e-08
-3.82815e-06 3.27737e-05 2.83297e-08
6.83093e-08 2.83297e-08 -1.66631e-05
0.00101313 6.5281e-06 -1.44739e-06
6.5281e-06 5.66346e-06 1.81793e-06
-1.44739e-06 1.81793e-06 -2.4839e-05
0.00106505 -4.33507e-06 8.51875e-07
-4.33507e-06 3.41663e-05 -1.09604e-06
8.51875e-07 -1.09604e-06 -1.55877e-05
0.00101412 5.88817e-06 6.80329e-08
5.88817e-06 5.12071e-06 7.84646e-09
6.80329e-08 7.84646e-09 -2.51929e-05
0.000935701 8.78767e-06 -1.92987e-06
8.78767e-06 -3.81951e-05 3.03117e-06
-1.92987e-06 3.03117e-06 -4.00898e-05
0.00102007 4.86457e-06 1.07806e-06
4.86457e-06 6.26266e-06 -1.82552e-06
1.07806e-06 -1.82552e-06 -2.35165e-05
0.000949828 7.4933e-06 8.47674e-08
7.4933e-06 -3.4812e-05 1.5114e-08
8.47674e-08 1.5114e-08 -3.61723e-05
0.00234414 1.13613e-05 -2.34479e-06
1.13613e-05 0.000645849 1.57915e-06
-2.34479e-06 1.57915e-06 0.000668297
0.000968623 6.11017e-06 1.45242e-06
6.11017e-06 -2.91552e-05 -3.08944e-06
1.45242e-06 -3.08944e-06 -2.99647e-05
0.00176009 8.07237e-06 1.94414e-06
8.07237e-06 0.000355451 -1.18992e-06
1.94414e-06 -1.18992e-06 0.000375559
0.00236545 6.41812e-06 4.13773e-06
6.41812e-06 0.000650364 -3.9566e-06
4.13773e-06 -3.9566e-06 0.000673682
0.000864 1.27103e-07 -6.42157e-07
1.27103e-07 -6.45625e-05 -1.53741e-06
-6.42157e-07 -1.53741e-06 -0.000113492
0.000764879 -4.42184e-06 -7.66308e-07
-4.42184e-06 -0.000119522 -2.36007e-06
-7.66308e-07 -2.36007e-06 -0.000148154
0.00101361 -2.31366e-06 -8.45201e-08
-2.31366e-06 8.75943e-06 -4.85762e-07
-8.45201e-08 -4.85762e-07 -3.75808e-05
0.000980446 -4.87092e-06 -1.03801e-06
-4.87092e-06 -2.58666e-05 -3.04825e-06
-1.03801e-06 -3.04825e-06 -2.38908e-05
0.000771075 -3.56252e-06 -9.66104e-08
-3.56252e-06 -0.000119015 -5.80005e-07
-9.66104e-08 -5.80005e-07 -0.000145624
0.0011431 -2.172e-06 2.08963e-07
-2.172e-06 7.05927e-05 1.16619e-06
2.08963e-07 1.16619e-06 2.77024e-05
0.00225535 -4.34846e-06 -2.98277e-06
-4.34846e-06 0.000594285 -3.88011e-06
-2.98277e-06 -3.88011e-06 0.00061912
0.000969392 -3.23121e-06 -7.22571e-08
-3.23121e-06 -3.33539e-05 -2.88507e-09
-7.22571e-08 -2.88507e-09 -3.02561e-05
0.000775964 -2.35011e-06 2.95788e-07
-2.35011e-06 -0.000118921 1.79274e-06
2.95788e-07 1.79274e-06 -0.000143948
0.00225409 -2.10406e-06 -4.81549e-07
-2.10406e-06 0.000592236 6.72174e-09
-4.81549e-07 6.72174e-09 0.000617409
0.000966411 -1.5336e-06 2.58281e-07
-1.5336e-06 -3.59946e-05 3.11101e-06
2.58281e-07 3.11101e-06 -3.23503e-05
0.0022513 1.05894e-07 -3.91041e-07
1.05894e-07 0.000590518 3.88881e-06
-3.91041e-07 3.88881e-06 0.000615776
0.000785597 -1.28238e-05 1.81706e-06
-1.28238e-05 0.000134902 -1.96209e-06
1.81706e-06 -1.96209e-06 5.55525e-05
0.000773486 -1.12157e-06 -2.7247e-07
-1.12157e-06 0.000222565 4.12399e-07
-2.7247e-07 4.12399e-07 0.000161671
0.000614065 1.35026e-05 -8.63206e-06
1.35026e-05 0.000105641 3.6465e-06
-8.63206e-06 3.6465e-06 0.00010433
0.00113212 1.52782e-05 -1.95226e-07
1.52782e-05 6.99022e-05 5.36628e-08
-1.95226e-07 5.36628e-08 8.64465e-06
0.00101122 1.72357e-05 -6.06867e-07
1.72357e-05 5.84148e-06 -5.02541e-07
-6.06867e-07 -5.02541e-07 -5.60393e-05
0.00119617 1.80214e-05 -1.44634e-08
1.80214e-05 0.000102353 3.11101e-07
-1.44634e-08 3.11101e-07 3.3356e-05
0.000614206 -1.38649e-06 -1.27129e-06
-1.38649e-06 -3.7557e-06 9.82888e-07
-1.27129e-06 9.82888e-07 -6.05081e-05
0.000814128 -1.56188e-05 4.65091e-07
-1.56188e-05 0.000148709 -2.75144e-07
4.65091e-07 -2.75144e-07 0.000100552
0.000951881 3.49465e-06 -8.10721e-06
3.49465e-06 0.000302025 7.02144e-06
-8.10721e-06 7.02144e-06 0.000281793
0.000501348 -1.10679e-05 -1.70582e-05
-1.10679e-05 8.32245e-05 1.54356e-05
-1.70582e-05 1.54356e-05 -9.00292e-05
0.00332607 -3.71688e-06 -2.63925e-06
-3.71688e-06 0.000410306 -9.86609e-06
-2.63925e-06 -9.86609e-06 -0.000170216
0.00296472 0.000163149 1.28772e-05
0.000163149 0.000880441 -2.40517e-05
1.28772e-05 -2.40517e-05 0.000767139
0.00151637 -2.79182e-07 -7.76904e-06
-2.79182e-07 0.000606186 -9.72045e-07
-7.76904e-06 -9.72045e-07 0.000587884
0.000312763 -5.13305e-05 -1.22131e-05
-5.13305e-05 -1.57768e-05 9.40494e-06
-1.22131e-05 9.40494e-06 -0.000167749
0.00650772 7.04252e-05 2.41389e-05
7.04252e-05 0.00158176 -4.20396e-05
2.41389e-05 -4.20396e-05 0.00101383
0.000878523 0.000115846 5.51326e-06
0.000115846 -0.00040986 7.3944e-06
5.51326e-06 7.3944e-06 -0.00040578
0.000712072 2.30318e-06 3.39317e-06
2.30318e-06 9.32567e-05 -8.90725e-07
3.39317e-06 -8.90725e-07 2.75536e-05
-0.00183222 -5.26933e-05 1.71475e-05
-5.26933e-05 -0.001042 -3.77743e-05
1.71475e-05 -3.77743e-05 -0.00113869
0.00556916 0.000106787 1.47263e-05
0.000106787 0.000705354 -3.77204e-05
1.47263e-05 -3.77204e-05 0.000465526
0.0013948 5.30426e-06 -5.03022e-06
5.30426e-06 -0.00064026 3.48172e-05
-5.03022e-06 3.48172e-05 -0.00045758
4.57833e-05 2.26307e-06 -4.75512e-06
2.26307e-06 -0.000309508 2.32703e-06
-4.75512e-06 2.32703e-06 -0.000331715
0.00111634 1.61128e-05 -6.95011e-07
1.61128e-05 6.61675e-05 -2.94364e-08
-6.95011e-07 -2.94364e-08 -1.22033e-05
0.0010897 -7.60515e-07 2.43494e-08
-7.60515e-07 5.6503e-05 -2.89649e-07
2.43494e-08 -2.89649e-07 -2.08902e-05
0.00110586 -9.67421e-06 8.05951e-08
-9.67421e-06 6.64163e-05 7.36497e-07
8.05951e-08 7.36497e-07 -6.45522e-06
0.00110234 1.44547e-05 -2.78106e-07
1.44547e-05 5.98336e-05 -6.30168e-07
-2.78106e-07 -6.30168e-07 -1.01212e-05
0.00123852 1.84086e-05 3.05421e-07
1.84086e-05 0.000127077 1.05346e-06
3.05421e-07 1.05346e-06 6.05808e-05
0.00128882 1.07568e-05 2.90616e-08
1.07568e-05 0.000149379 8.31499e-07
2.90616e-08 8.31499e-07 9.13048e-05
0.00100567 -2.77442e-05 1.01259e-05
-2.77442e-05 -0.000273386 -1.05256e-05
1.01259e-05 -1.05256e-05 -0.000266345
0.00129035 -1.69072e-05 5.08909e-07
-1.69072e-05 0.000236793 1.20955e-07
5.08909e-07 1.20955e-07 0.000109361
0.00115167 5.71356e-06 9.54847e-08
5.71356e-06 9.44912e-05 2.55699e-07
9.54847e-08 2.55699e-07 9.53997e-06
0.00125545 -1.57803e-05 1.23224e-06
-1.57803e-05 0.000137531 -8.31735e-09
1.23224e-06 -8.31735e-09 3.04394e-05
0.0011194 -4.30196e-06 2.42781e-07
-4.30196e-06 7.72749e-05 6.90652e-07
2.42781e-07 6.90652e-07 -1.82568e-05
0.00110589 1.31832e-05 2.71674e-07
1.31832e-05 6.85556e-05 3.89683e-07
2.71674e-07 3.89683e-07 -1.81261e-05
0.00112 1.29424e-05 1.57503e-07
1.29424e-05 7.47414e-05 3.27425e-07
1.57503e-07 3.27425e-07 -1.96779e-05
0.00128171 -3.64291e-05 4.30788e-06
-3.64291e-05 5.06579e-05 1.1213e-06
4.30788e-06 1.1213e-06 -2.99528e-05
0.0012358 -9.74358e-06 -1.42534e-07
-9.74358e-06 0.000131234 -4.13253e-07
-1.42534e-07 -4.13253e-07 2.65499e-05
0.00117337 4.30892e-06 3.2397e-07
4.30892e-06 0.00016718 2.80763e-07
3.2397e-07 2.80763e-07 3.92423e-05
0.00102818 1.58127e-05 -8.61126e-07
1.58127e-05 3.01635e-05 -3.56644e-07
-8.61126e-07 -3.56644e-07 -6.42118e-05
0.0024242 -1.72055e-05 -7.4152e-06
-1.72055e-05 0.000777623 2.44642e-05
-7.4152e-06 2.44642e-05 0.000660339
0.00107221 -1.52405e-06 1.97617e-07
-1.52405e-06 5.52889e-05 -2.88418e-06
1.97617e-07 -2.88418e-06 -6.04385e-05
0.00107699 8.49411e-07 -4.41864e-07
8.49411e-07 5.99947e-05 -3.45668e-07
-4.41864e-07 -3.45668e-07 -4.15598e-05
0.0010216 2.48996e-06 6.39361e-07
2.48996e-06 0.000228286 -1.56806e-07
6.39361e-07 -1.56806e-07 0.000144577
0.000846269 1.05529e-06 7.51796e-07
1.05529e-06 0.00016499 4.41883e-07
7.51796e-07 4.41883e-07 7.48729e-05
0.0010925 3.67988e-06 -1.44885e-05
3.67988e-06 0.000422837 1.05565e-06
-1.44885e-05 1.05565e-06 0.000353152
0.00151869 1.23732e-05 -2.25371e-07
1.23732e-05 0.000275876 3.1177e-06
-2.25371e-07 3.1177e-06 0.00020316
0.00132504 -9.69714e-06 7.1015e-06
-9.69714e-06 0.000421006 -1.25754e-06
7.1015e-06 -1.25754e-06 0.000382544
0.000499415 7.92011e-06 -1.85906e-06
7.92011e-06 -6.55232e-05 -1.84863e-07
-1.85906e-06 -1.84863e-07 -0.000147729
0.00252021 -4.48257e-05 2.52141e-07
-4.48257e-05 3.25594e-05 -1.03266e-05
2.52141e-07 -1.03266e-05 -3.09411e-05
0.00084538 2.45539e-06 1.07785e-06
2.45539e-06 -0.000815956 3.84735e-05
1.07785e-06 3.84735e-05 -0.00049379
0.000786955 -6.48192e-06 -5.27633e-07
-6.48192e-06 6.23025e-05 1.01732e-06
-5.27633e-07 1.01732e-06 2.03376e-06
0.00144854 8.49918e-08 7.44859e-06
8.49918e-08 0.000536006 -1.90973e-06
7.44859e-06 -1.90973e-06 0.000541067
0.000978859 -5.5715e-06 2.26213e-06
-5.5715e-06 1.61374e-05 2.55603e-06
2.26213e-06 2.55603e-06 -3.62324e-05
0.000846995 -2.24626e-06 3.7322e-07
-2.24626e-06 0.0001094 9.78793e-07
3.7322e-07 9.78793e-07 3.41857e-05
0.000880219 -1.46148e-05 -1.12521e-06
-1.46148e-05 0.000147138 4.38362e-07
-1.12521e-06 4.38362e-07 9.94073e-05
0.000650221 3.58652e-05 -2.67893e-06
3.58652e-05 0.000109487 -8.52761e-07
-2.67893e-06 -8.52761e-07 -0.00023158
0.000877524 2.42083e-05 2.18843e-06
2.42083e-05 0.000116439 1.95755e-06
2.18843e-06 1.95755e-06 0.000225584
-5.49234e-05 0.000112083 -3.35038e-06
0.000112083 -0.000711739 -9.25941e-06
-3.35038e-06 -9.25941e-06 -0.000635713
0.00554139 1.72341e-05 9.41057e-06
1.72341e-05 0.000587466 -2.10102e-05
9.41057e-06 -2.10102e-05 0.000744724
0.00186432 -2.25437e-06 2.04836e-06
-2.25437e-06 0.000581596 -1.04819e-05
2.04836e-06 -1.04819e-05 0.000531458
0.000813549 -1.03939e-05 -2.82938e-06
-1.03939e-05 0.000136258 1.37108e-06
-2.82938e-06 1.37108e-06 5.39517e-05
0.000581706 4.85115e-06 -1.62201e-05
4.85115e-06 3.91202e-05 7.30633e-06
-1.62201e-05 7.30633e-06 1.72441e-05
0.000884282 4.2163e-05 1.49518e-06
4.2163e-05 0.000123803 1.666e-06
1.49518e-06 1.666e-06 0.000254229
-0.0012933 0.000124172 3.08712e-05
0.000124172 -0.0010047 -4.70929e-05
3.08712e-05 -4.70929e-05 -0.0010551
0.00738363 8.7503e-05 -5.94294e-06
8.7503e-05 0.0018002 -3.68743e-06
-5.94294e-06 -3.68743e-06 0.00147445
-0.000444458 -2.49008e-05 -1.58669e-05
-2.49008e-05 -0.000214628 5.59909e-05
-1.58669e-05 5.59909e-05 -0.000807788
0.000778431 1.19331e-05 9.11842e-07
1.19331e-05 -7.19297e-05 -3.07884e-06
9.11842e-07 -3.07884e-06 -0.000155278
0.00104825 1.38368e-05 1.05355e-06
1.38368e-05 8.51692e-05 -1.33725e-06
1.05355e-06 -1.33725e-06 -1.28457e-05
0.00108181 2.55491e-06 4.12737e-07
2.55491e-06 0.000123644 8.82565e-07
4.12737e-07 8.82565e-07 2.286e-05
0.00109793 -1.27605e-05 4.86607e-08
-1.27605e-05 6.65931e-05 -4.31942e-07
4.86607e-08 -4.31942e-07 -1.94011e-05
0.00103333 7.34873e-06 -9.1024e-07
7.34873e-06 5.84698e-05 6.29004e-07
-9.1024e-07 6.29004e-07 -3.08502e-05
0.00113228 -1.19672e-05 1.25408e-08
-1.19672e-05 0.00010898 4.05515e-07
1.25408e-08 4.05515e-07 1.38023e-05
0.00102947 -2.39166e-05 6.83806e-07
-2.39166e-05 8.69116e-05 2.63651e-07
6.83806e-07 2.63651e-07 -2.46433e-05
0.00118045 -2.3889e-05 4.8001e-07
-2.3889e-05 0.000110376 -2.93997e-07
4.8001e-07 -2.93997e-07 2.4889e-05
0.00121435 -2.87848e-05 -3.13495e-07
-2.87848e-05 0.000140677 4.08566e-07
-3.13495e-07 4.08566e-07 4.73184e-05
0.00118023 -3.35322e-05 -6.59839e-07
-3.35322e-05 0.00011344 1.83963e-06
-6.59839e-07 1.83963e-06 1.35947e-05
0.0010398 -2.59132e-05 3.57242e-07
-2.59132e-05 3.90365e-05 -9.87487e-07
3.57242e-07 -9.87487e-07 -4.31292e-05
0.00123952 -3.12067e-05 -1.54476e-07
-3.12067e-05 0.00011871 1.14695e-08
-1.54476e-07 1.14695e-08 3.16792e-05
0.00145576 -3.49157e-05 -1.37491e-06
-3.49157e-05 0.000211398 7.78209e-07
-1.37491e-06 7.78209e-07 0.000124513
0.00132827 -3.08108e-05 -9.80466e-07
-3.08108e-05 0.000146304 8.98808e-07
-9.80466e-07 8.98808e-07 6.78451e-05
0.00100711 -2.43373e-05 -5.29448e-07
-2.43373e-05 5.14162e-06 9.68208e-07
-5.29448e-07 9.68208e-07 -6.35358e-05
0.0011419 -2.81942e-05 -1.26085e-07
-2.81942e-05 6.2117e-05 1.75976e-07
-1.26085e-07 1.75976e-07 -1.42788e-05
0.00116193 -2.83722e-05 3.15533e-07
-2.83722e-05 7.35706e-05 -6.42479e-07
3.15533e-07 -6.42479e-07 -3.72069e-06
0.00122886 -2.29102e-05 -6.19131e-08
-2.29102e-05 0.000117429 -1.32443e-08
-6.19131e-08 -1.32443e-08 5.61535e-05
0.00114699 -2.40174e-05 5.48668e-07
-2.40174e-05 7.82404e-05 -4.92868e-07
5.48668e-07 -4.92868e-07 1.3424e-05
0.000984852 -8.21619e-06 -4.92857e-07
-8.21619e-06 6.18746e-06 5.48559e-07
-4.92857e-07 5.48559e-07 -5.14442e-05
0.0011 -1.93682e-05 1.11352e-07
-1.93682e-05 6.2222e-05 -8.799e-08
1.11352e-07 -8.799e-08 2.35052e-08
0.00112884 -2.44988e-05 1.59841e-06
-2.44988e-05 6.7818e-05 -9.41024e-07
1.59841e-06 -9.41024e-07 1.199e-06
0.00105595 -8.35295e-07 -1.36293e-06
-8.35295e-07 3.04908e-05 8.25363e-07
-1.36293e-06 8.25363e-07 -1.68317e-05
0.00111079 -1.30206e-05 -2.20811e-07
-1.30206e-05 5.85708e-05 -3.64393e-08
-2.20811e-07 -3.64393e-08 1.786e-06
0.00115472 -2.18619e-05 3.15936e-07
-2.18619e-05 8.03294e-05 -7.13473e-08
3.15936e-07 -7.13473e-08 1.80443e-05
0.00100909 7.31245e-06 -1.76122e-06
7.31245e-06 4.93977e-06 1.7266e-06
-1.76122e-06 1.7266e-06 -2.52974e-05
0.00106766 -3.70844e-06 7.93673e-08
-3.70844e-06 3.29369e-05 5.79521e-08
7.93673e-08 5.79521e-08 -1.51987e-05
0.00103156 -1.59604e-05 1.06351e-06
-1.59604e-05 1.72759e-05 -1.97954e-07
1.06351e-06 -1.97954e-07 -4.18624e-05
0.00106101 -3.26937e-06 1.09535e-06
-3.26937e-06 3.06317e-05 -1.0153e-06
1.09535e-06 -1.0153e-06 -1.8696e-05
0.00100911 6.68322e-06 9.65022e-08
6.68322e-06 3.85315e-06 2.43129e-08
9.65022e-08 2.43129e-08 -2.66416e-05
0.000929456 1.00096e-05 -2.26297e-06
1.00096e-05 -3.79643e-05 2.98143e-06
-2.26297e-06 2.98143e-06 -4.03198e-05
0.00101346 5.97228e-06 1.30078e-06
5.97228e-06 4.85613e-06 -1.80937e-06
1.30078e-06 -1.80937e-06 -2.54755e-05
0.00094557 8.80016e-06 7.84163e-08
8.80016e-06 -3.35216e-05 1.65721e-08
7.84163e-08 1.65721e-08 -3.54453e-05
0.00241266 1.27503e-05 -6.45617e-06
1.27503e-05 0.00068293 3.80778e-06
-6.45617e-06 3.80778e-06 0.000704512
0.00096286 7.48268e-06 1.79348e-06
7.48268e-06 -2.8724e-05 -3.05151e-06
1.79348e-06 -3.05151e-06 -3.01031e-05
0.00175579 1.01032e-05 2.24316e-06
1.01032e-05 0.000357267 -1.17061e-06
2.24316e-06 -1.17061e-06 0.00037675
0.0023703 8.60616e-06 5.16263e-06
8.60616e-06 0.000655708 -3.9146e-06
5.16263e-06 -3.9146e-06 0.000678522
0.00104911 6.45539e-06 -7.90948e-07
6.45539e-06 2.41573e-05 -9.83387e-07
-7.90948e-07 -9.83387e-07 -2.42919e-05
0.00101208 -5.20715e-06 -9.89992e-07
-5.20715e-06 3.07077e-06 -1.74153e-06
-9.89992e-07 -1.74153e-06 -2.57104e-05
0.000962174 2.92116e-06 -3.27053e-07
2.92116e-06 -1.64002e-05 -4.6579e-07
-3.27053e-07 -4.6579e-07 -6.48954e-05
0.000977828 -6.38003e-06 -1.34837e-06
-6.38003e-06 -2.42186e-05 -3.03176e-06
-1.34837e-06 -3.03176e-06 -2.36036e-05
0.000892827 -4.56443e-06 -1.71419e-07
-4.56443e-06 -5.71034e-05 -5.80727e-07
-1.71419e-07 -5.80727e-07 -8.50393e-05
0.00115327 -3.38848e-06 1.93921e-07
-3.38848e-06 7.64408e-05 6.03491e-07
1.93921e-07 6.03491e-07 3.07433e-05
0.00227647 -6.54359e-06 -4.05272e-06
-6.54359e-06 0.000606865 -3.87282e-06
-4.05272e-06 -3.87282e-06 0.000631079
0.000966975 -4.87162e-06 -7.28732e-08
-4.87162e-06 -3.24266e-05 -5.61802e-09
-7.28732e-08 -5.61802e-09 -3.03564e-05
0.000760565 -3.56485e-06 3.55314e-07
-3.56485e-06 -0.00012385 1.18784e-06
3.55314e-07 1.18784e-06 -0.000150682
0.00226308 -4.29266e-06 -4.10315e-07
-4.29266e-06 0.000597825 1.26385e-08
-4.10315e-07 1.26385e-08 0.000622696
0.000960152 -3.22017e-06 5.85599e-07
-3.22017e-06 -3.79025e-05 3.08909e-06
5.85599e-07 3.08909e-06 -3.47322e-05
0.00226127 -2.05596e-06 1.01903e-06
-2.05596e-06 0.000595651 3.90372e-06
1.01903e-06 3.90372e-06 0.000620811
0.000714325 -1.98299e-06 1.17525e-08
-1.98299e-06 4.73894e-05 -1.35045e-06
1.17525e-08 -1.35045e-06 -2.55015e-05
0.000896994 -1.28141e-05 5.66109e-07
-1.28141e-05 0.000205049 -1.95729e-07
5.66109e-07 -1.95729e-07 0.00012556
0.000786934 -1.26859e-06 -9.4841e-06
-1.26859e-06 0.000229331 3.28158e-06
-9.4841e-06 3.28158e-06 0.000169227
0.0010197 1.62403e-05 -5.67346e-07
1.62403e-05 8.49193e-06 -3.38767e-07
-5.67346e-07 -3.38767e-07 -5.19412e-05
0.00118452 2.12549e-05 -1.85027e-07
2.12549e-05 8.79178e-05 1.93045e-07
-1.85027e-07 1.93045e-07 2.42833e-05
0.00117786 1.81553e-05 4.07866e-07
1.81553e-05 9.22658e-05 7.22877e-07
4.07866e-07 7.22877e-07 3.14594e-05
0.00100563 1.70001e-05 2.14579e-08
1.70001e-05 3.5499e-06 2.94562e-08
2.14579e-08 2.94562e-08 -5.82629e-05
0.00114024 1.82562e-05 2.16446e-07
1.82562e-05 7.49294e-05 3.12824e-07
2.16446e-07 3.12824e-07 5.24158e-06
0.00116424 2.17586e-05 -3.14064e-07
2.17586e-05 8.19575e-05 1.64909e-08
-3.14064e-07 1.64909e-08 1.36792e-05
0.00115604 2.2036e-05 2.19475e-08
2.2036e-05 8.16389e-05 4.46733e-07
2.19475e-08 4.46733e-07 7.85229e-06
0.000899479 9.69282e-06 -7.36931e-06
9.69282e-06 0.000203003 -3.82528e-06
-7.36931e-06 -3.82528e-06 0.00015076
0.000706002 -1.83221e-06 7.30819e-07
-1.83221e-06 5.58301e-05 2.07888e-07
7.30819e-07 2.07888e-07 -4.20571e-06
0.00119351 -1.59551e-05 -3.80888e-06
-1.59551e-05 0.000388522 -4.45657e-07
-3.80888e-06 -4.45657e-07 0.000337191
0.000971398 4.18592e-06 1.31533e-07
4.18592e-06 0.000275345 -3.76037e-06
1.31533e-07 -3.76037e-06 0.00020876
0.0027107 -8.20662e-05 -5.45791e-05
-8.20662e-05 0.000775446 6.16579e-05
-5.45791e-05 6.16579e-05 0.000448266
0.00052507 8.87038e-05 3.43826e-05
8.87038e-05 -0.000802201 -5.02136e-05
3.43826e-05 -5.02136e-05 -0.00130998
0.00495255 0.000129634 1.53996e-06
0.000129634 0.00110128 -2.15434e-05
1.53996e-06 -2.15434e-05 0.00120965
0.00142756 -7.57558e-05 -3.20061e-05
-7.57558e-05 0.000324563 2.92259e-05
-3.20061e-05 2.92259e-05 0.000141791
0.00463541 4.32738e-05 9.05443e-06
4.32738e-05 0.000284691 -3.73604e-05
9.05443e-06 -3.73604e-05 -0.000133118
0.00360128 1.29257e-05 -8.57088e-06
1.29257e-05 0.000109647 -6.60675e-07
-8.57088e-06 -6.60675e-07 0.000405843
0.000570073 -4.07423e-06 3.80425e-06
-4.07423e-06 -4.26761e-05 2.80594e-06
3.80425e-06 2.80594e-06 -4.88659e-05
-0.000264614 -4.32357e-05 9.8458e-06
-4.32357e-05 -0.000301157 -9.57401e-06
9.8458e-06 -9.57401e-06 -0.000422373
0.00411698 -3.54867e-05 -6.76506e-06
-3.54867e-05 7.39744e-05 -0.000105156
-6.76506e-06 -0.000105156 -0.000475904
0.000960702 -8.69719e-05 2.66856e-06
-8.69719e-05 -0.000455222 3.63753e-05
2.66856e-06 3.63753e-05 -0.000349461
-0.000745409 -2.2436e-05 -5.78125e-06
-2.2436e-05 -0.000809392 1.50877e-06
-5.78125e-06 1.50877e-06 -0.000764157
0.00113473 2.32554e-05 -2.2734e-06
2.32554e-05 7.76866e-05 3.20024e-07
-2.2734e-06 3.20024e-07 -2.79207e-06
0.0011636 1.39538e-05 -4.8059e-08
1.39538e-05 8.94282e-05 -5.40992e-08
-4.8059e-08 -5.40992e-08 1.07502e-05
0.00109421 -1.12871e-06 4.14997e-08
-1.12871e-06 5.9009e-05 -8.61691e-08
4.14997e-08 -8.61691e-08 -1.83132e-05
0.00112503 1.43632e-05 -5.5758e-08
1.43632e-05 7.07918e-05 -2.74542e-07
-5.5758e-08 -2.74542e-07 6.44322e-07
4.72291e-05 -3.08301e-05 1.18351e-05
-3.08301e-05 -0.00056976 -1.68174e-05
1.18351e-05 -1.68174e-05 -0.00063783
0.001113 6.9733e-07 5.24677e-07
6.9733e-07 0.00012891 -9.98743e-07
5.24677e-07 -9.98743e-07 -2.21399e-06
0.00115886 1.41689e-05 6.74239e-07
1.41689e-05 9.55392e-05 6.42022e-07
6.74239e-07 6.42022e-07 7.86492e-06
0.00106822 1.26502e-05 5.92402e-08
1.26502e-05 4.92599e-05 5.24407e-07
5.92402e-08 5.24407e-07 -4.54418e-05
0.00107411 -9.53286e-06 -1.58551e-07
-9.53286e-06 5.38106e-05 -2.01125e-07
-1.58551e-07 -2.01125e-07 -5.1034e-05
0.00111471 1.72341e-05 -4.24667e-07
1.72341e-05 7.3827e-05 -1.15438e-07
-4.24667e-07 -1.15438e-07 -1.92613e-05
0.00111919 2.53089e-06 -1.10311e-07
2.53089e-06 7.86789e-05 -2.25045e-07
-1.10311e-07 -2.25045e-07 -2.27888e-05
0.000630022 -9.93355e-06 7.13431e-06
-9.93355e-06 1.11189e-05 -2.86681e-06
7.13431e-06 -2.86681e-06 -9.13819e-05
0.0010707 -2.46419e-06 2.46254e-07
-2.46419e-06 5.72709e-05 -1.27971e-06
2.46254e-07 -1.27971e-06 -5.78875e-05
0.00112327 1.4119e-05 -6.25706e-07
1.4119e-05 8.49961e-05 3.52707e-08
-6.25706e-07 3.52707e-08 -1.56019e-05
0.000639516 1.29748e-05 6.53625e-06
1.29748e-05 0.000204864 2.49906e-05
6.53625e-06 2.49906e-05 0.000119704
0.00126809 -1.09805e-06 1.99159e-07
-1.09805e-06 0.000142265 -2.27138e-06
1.99159e-07 -2.27138e-06 2.02321e-05
0.00123529 2.86323e-06 -1.35188e-06
2.86323e-06 0.000416367 -2.32834e-08
-1.35188e-06 -2.32834e-08 0.000319639
0.000807682 1.00309e-06 3.27189e-07
1.00309e-06 9.48876e-05 1.61355e-08
3.27189e-07 1.61355e-08 1.3004e-05
0.000388053 5.20605e-07 -7.80524e-08
5.20605e-07 -0.000124692 3.95587e-07
-7.80524e-08 3.95587e-07 -0.000214945
0.00151977 -9.99363e-06 -3.09648e-06
-9.99363e-06 0.000248553 7.23465e-06
-3.09648e-06 7.23465e-06 0.000193878
-0.000922144 -6.68641e-07 3.29488e-06
-6.68641e-07 -0.000485635 1.46558e-05
3.29488e-06 1.46558e-05 -0.000553186
0.000796952 -3.16437e-06 5.5194e-07
-3.16437e-06 8.14808e-05 7.61631e-07
5.5194e-07 7.61631e-07 4.28753e-06
0.00394317 6.03622e-05 -3.81979e-07
6.03622e-05 0.000559785 -5.3079e-05
-3.81979e-07 -5.3079e-05 -0.000257018
0.00544332 0.000126919 -4.49768e-06
0.000126919 0.00136968 2.22553e-05
-4.49768e-06 2.22553e-05 0.00156879
0.00125872 -1.55659e-05 3.03994e-06
-1.55659e-05 0.000386311 -1.3356e-06
3.03994e-06 -1.3356e-06 0.000335505
0.00239248 2.05626e-05 7.24663e-06
2.05626e-05 0.00106338 -2.97627e-06
7.24663e-06 -2.97627e-06 0.00115162
0.00110411 -6.3566e-07 -2.101e-06
-6.3566e-07 0.00020227 -9.23839e-07
-2.101e-06 -9.23839e-07 0.000158626
0.000930374 -9.98126e-06 -1.35042e-06
-9.98126e-06 0.000209878 2.62129e-07
-1.35042e-06 2.62129e-07 0.000127451
0.000828455 4.2495e-06 -3.30254e-06
4.2495e-06 0.000191697 7.7656e-07
-3.30254e-06 7.7656e-07 0.000171774
0.000234218 -6.68958e-06 1.21e-06
-6.68958e-06 0.000168415 9.7228e-06
1.21e-06 9.7228e-06 -4.11355e-05
0.000396816 4.55575e-05 -3.71603e-07
4.55575e-05 -0.00015231 -2.42948e-06
-3.71603e-07 -2.42948e-06 -2.91067e-05
-0.00028865 0.000129267 4.22881e-06
0.000129267 -0.000767446 -1.14501e-05
4.22881e-06 -1.14501e-05 -0.000813933
0.00193836 4.91438e-05 8.82292e-06
4.91438e-05 -0.000397591 -2.83269e-05
8.82292e-06 -2.83269e-05 -0.000948122
0.000589156 -3.89104e-06 5.2309e-06
-3.89104e-06 1.94384e-05 -2.01236e-05
5.2309e-06 -2.01236e-05 -1.19489e-05
0.000913133 -9.78349e-07 -9.39105e-06
-9.78349e-07 0.000299853 2.66428e-06
-9.39105e-06 2.66428e-06 0.000237154
-0.00127453 2.496e-05 -7.36409e-08
2.496e-05 -0.00104306 1.3174e-06
-7.36409e-08 1.3174e-06 -0.00101316
5.36696e-05 8.65363e-05 3.74889e-05
8.65363e-05 -3.16053e-05 -3.45304e-05
3.74889e-05 -3.45304e-05 -8.5748e-06
0.00560094 0.00010312 1.46286e-05
0.00010312 0.00130308 -3.44052e-05
1.46286e-05 -3.44052e-05 0.000796403
0.00170984 -7.17974e-05 -2.95728e-05
-7.17974e-05 0.000315658 8.09481e-05
-2.95728e-05 8.09481e-05 -0.000138119
0.00131561 1.33565e-05 -4.98422e-07
1.33565e-05 0.000210715 -3.42277e-06
-4.98422e-07 -3.42277e-06 0.000112124
0.00112135 4.08752e-06 -5.13013e-08
4.08752e-06 0.000136463 -2.73268e-07
-5.13013e-08 -2.73268e-07 3.61574e-05
0.000804563 -1.21102e-05 2.18846e-06
-1.21102e-05 4.13471e-05 1.72052e-06
2.18846e-06 1.72052e-06 -0.000101838
0.00109412 -1.18991e-05 -1.73883e-07
-1.18991e-05 8.99161e-05 -4.96013e-07
-1.73883e-07 -4.96013e-07 -5.00879e-06
0.00097304 -2.3711e-05 2.17399e-07
-2.3711e-05 5.79039e-05 -9.49757e-08
2.17399e-07 -9.49757e-08 -5.05876e-05
0.00130248 -3.94422e-05 8.74337e-07
-3.94422e-05 0.000200016 2.53238e-07
8.74337e-07 2.53238e-07 7.71676e-05
0.00147929 -3.18195e-05 3.2537e-07
-3.18195e-05 0.000265748 -6.82994e-07
3.2537e-07 -6.82994e-07 0.000171061
0.00128322 -3.47804e-05 -1.8146e-07
-3.47804e-05 0.000162262 5.20458e-07
-1.8146e-07 5.20458e-07 6.10112e-05
0.00118878 -3.75579e-05 -2.07325e-06
-3.75579e-05 8.51089e-05 -3.60788e-07
-2.07325e-06 -3.60788e-07 -1.35474e-05
0.00126799 -3.13656e-05 3.12467e-07
-3.13656e-05 0.000132568 -9.58867e-07
3.12467e-07 -9.58867e-07 4.53492e-05
0.0013664 -3.41462e-05 -2.70019e-07
-3.41462e-05 0.000166982 1.45098e-08
-2.70019e-07 1.45098e-08 7.95735e-05
0.00131678 -3.29479e-05 -7.12284e-07
-3.29479e-05 0.000135369 -4.30969e-07
-7.12284e-07 -4.30969e-07 5.17018e-05
0.00125887 -2.90044e-05 -8.85262e-07
-2.90044e-05 9.13255e-05 -7.9672e-07
-8.85262e-07 -7.9672e-07 1.71615e-05
0.00134139 -2.88782e-05 -1.01216e-06
-2.88782e-05 0.000151856 1.25326e-06
-1.01216e-06 1.25326e-06 8.00713e-05
0.0012598 -3.02324e-05 -1.38097e-07
-3.02324e-05 0.00011349 4.31286e-08
-1.38097e-07 4.31286e-08 3.44737e-05
0.00097334 -2.25767e-05 -3.72644e-07
-2.25767e-05 -9.32021e-06 2.69776e-07
-3.72644e-07 2.69776e-07 -7.23134e-05
0.0010835 -2.49324e-05 3.40387e-07
-2.49324e-05 4.17916e-05 -8.56408e-08
3.40387e-07 -8.56408e-08 -2.63172e-05
0.00108997 -2.78744e-05 6.40635e-07
-2.78744e-05 3.74017e-05 -8.03158e-07
6.40635e-07 -8.03158e-07 -3.98453e-05
0.00112292 -1.47094e-05 -3.2159e-07
-1.47094e-05 6.80453e-05 3.30196e-07
-3.2159e-07 3.30196e-07 1.0296e-05
0.00115777 -2.22245e-05 1.01531e-07
-2.22245e-05 8.38167e-05 -1.52946e-07
1.01531e-07 -1.52946e-07 2.21262e-05
0.00104314 -2.29004e-05 1.12095e-06
-2.29004e-05 2.90931e-05 -7.26311e-07
1.12095e-06 -7.26311e-07 -3.50612e-05
0.00103629 3.53193e-06 -1.01661e-06
3.53193e-06 2.73008e-05 8.65953e-07
-1.01661e-06 8.65953e-07 -2.08395e-05
0.00102662 -7.54752e-06 -1.34941e-07
-7.54752e-06 2.5823e-05 1.46034e-07
-1.34941e-07 1.46034e-07 -3.14411e-05
0.00117478 -1.98593e-05 5.19855e-07
-1.98593e-05 9.77309e-05 -3.63939e-07
5.19855e-07 -3.63939e-07 3.61606e-05
0.000996004 8.77738e-06 -1.96494e-06
8.77738e-06 1.6648e-06 1.60106e-06
-1.96494e-06 1.60106e-06 -2.84053e-05
0.00106469 -1.03494e-06 -1.16428e-07
-1.03494e-06 3.41348e-05 -1.96091e-08
-1.16428e-07 -1.96091e-08 -1.30866e-05
0.0011166 -1.32825e-05 5.26279e-07
-1.32825e-05 6.06226e-05 -2.72384e-07
5.26279e-07 -2.72384e-07 3.94129e-06
0.000961231 1.12393e-05 -3.48997e-06
1.12393e-05 -1.94453e-05 3.99966e-06
-3.48997e-06 3.99966e-06 -2.22613e-05
0.00100507 7.49749e-06 7.28194e-08
7.49749e-06 3.15519e-06 3.41929e-08
7.28194e-08 3.41929e-08 -2.70573e-05
0.00106566 -3.29187e-06 1.32143e-06
-3.29187e-06 3.15967e-05 -8.33046e-07
1.32143e-06 -8.33046e-07 -1.641e-05
0.00100561 6.84645e-06 1.60655e-06
6.84645e-06 2.29177e-06 -1.75084e-06
1.60655e-06 -1.75084e-06 -2.81959e-05
0.000936743 1.00343e-05 9.81691e-08
1.00343e-05 -3.44605e-05 2.85202e-08
9.81691e-08 2.85202e-08 -3.6837e-05
0.0024257 1.47937e-05 -7.15055e-06
1.47937e-05 0.000693357 3.72388e-06
-7.15055e-06 3.72388e-06 0.000714248
0.000955067 8.81258e-06 2.11304e-06
8.81258e-06 -2.90315e-05 -3.00506e-06
2.11304e-06 -3.00506e-06 -3.09828e-05
0.00239538 1.27769e-05 2.17359e-07
1.27769e-05 0.000674926 3.18819e-08
2.17359e-07 3.18819e-08 0.00069652
0.00237432 1.07343e-05 6.03085e-06
1.07343e-05 0.000661213 -3.85421e-06
6.03085e-06 -3.85421e-06 0.000683445
0.00110267 1.54705e-05 -5.88912e-07
1.54705e-05 4.88623e-05 -2.32981e-07
-5.88912e-07 -2.32981e-07 -1.04098e-05
0.00106236 4.48897e-06 -8.77212e-07
4.48897e-06 2.91886e-05 -9.45021e-07
-8.77212e-07 -9.45021e-07 -1.9633e-05
0.00100078 -5.66583e-06 -1.2671e-06
-5.66583e-06 -9.58242e-07 -1.71673e-06
-1.2671e-06 -1.71673e-06 -3.09962e-05
0.00106255 6.76687e-06 -3.24706e-08
6.76687e-06 3.06294e-05 7.93293e-09
-3.24706e-08 7.93293e-09 -1.79064e-05
0.000969237 -7.70109e-06 -1.6987e-06
-7.70109e-06 -2.49223e-05 -3.01309e-06
-1.6987e-06 -3.01309e-06 -2.57747e-05
0.00101518 -5.23155e-06 -8.48299e-08
-5.23155e-06 4.68766e-06 1.16089e-08
-8.48299e-08 1.16089e-08 -2.41065e-05
0.00106072 6.85894e-06 2.52766e-07
6.85894e-06 3.18773e-05 6.52932e-07
2.52766e-07 6.52932e-07 -1.61439e-05
0.00230987 -8.69607e-06 -5.0528e-06
-8.69607e-06 0.000626309 -3.87094e-06
-5.0528e-06 -3.87094e-06 0.000649674
0.000961867 -6.38818e-06 -8.09259e-08
-6.38818e-06 -3.19201e-05 -8.77871e-09
-8.09259e-08 -8.77871e-09 -3.12077e-05
0.00102016 -4.72369e-06 5.09965e-07
-4.72369e-06 5.0169e-06 1.18213e-06
5.09965e-07 1.18213e-06 -2.22222e-05
0.00228486 -6.49328e-06 -3.54897e-07
-6.49328e-06 0.000610601 1.87457e-08
-3.54897e-07 1.87457e-08 0.000634883
0.000953258 -4.87126e-06 8.79818e-07
-4.87126e-06 -3.91091e-05 3.06862e-06
8.79818e-07 3.06862e-06 -3.69432e-05
0.00227064 -4.23421e-06 2.38025e-06
-4.23421e-06 0.000601274 3.86892e-06
2.38025e-06 3.86892e-06 0.000626181
0.000776116 7.17896e-06 -1.42762e-06
7.17896e-06 0.000129331 -2.86339e-06
-1.42762e-06 -2.86339e-06 4.18879e-05
0.000800986 -2.93888e-06 -5.73013e-08
-2.93888e-06 0.000101371 -1.50041e-06
-5.73013e-08 -1.50041e-06 2.60674e-05
0.00100863 -1.2771e-05 -6.91754e-07
-1.2771e-05 0.000275362 1.18793e-06
-6.91754e-07 1.18793e-06 0.000195689
0.0010616 1.61001e-05 6.48259e-08
1.61001e-05 2.95358e-05 2.89924e-08
6.48259e-08 2.89924e-08 -3.06591e-05
0.00113758 2.07542e-05 2.1969e-07
2.07542e-05 6.4819e-05 1.39015e-07
2.1969e-07 1.39015e-07 8.50345e-07
0.00107406 1.67249e-05 -3.88479e-07
1.67249e-05 3.44985e-05 -1.52681e-07
-3.88479e-07 -1.52681e-07 -2.88124e-05
0.00107304 2.06446e-05 -6.33855e-07
2.06446e-05 3.4027e-05 -1.61019e-07
-6.33855e-07 -1.61019e-07 -3.15631e-05
0.00118733 2.19606e-05 6.00373e-08
2.19606e-05 8.75702e-05 3.19199e-07
6.00373e-08 3.19199e-07 2.12332e-05
0.000999826 1.67603e-05 6.72518e-07
1.67603e-05 1.15181e-06 4.93455e-07
6.72518e-07 4.93455e-07 -6.05929e-05
0.00108457 1.91196e-05 4.62367e-07
1.91196e-05 4.76436e-05 3.86044e-07
4.62367e-07 3.86044e-07 -2.27569e-05
0.00115831 2.17199e-05 6.16959e-09
2.17199e-05 7.88865e-05 6.40466e-09
6.16959e-09 6.40466e-09 1.06695e-05
0.00112877 2.13676e-05 3.09983e-07
2.13676e-05 6.77895e-05 2.37687e-07
3.09983e-07 2.37687e-07 -5.4863e-06
0.00121094 2.29221e-05 -1.88662e-07
2.29221e-05 0.000105543 4.27654e-07
-1.88662e-07 4.27654e-07 3.36177e-05
0.000623095 -1.18994e-05 -9.0032e-06
-1.18994e-05 0.000110484 -1.35731e-05
-9.0032e-06 -1.35731e-05 7.70078e-05
0.000635334 9.17556e-06 -2.057e-06
9.17556e-06 3.84567e-05 -8.00001e-07
-2.057e-06 -8.00001e-07 -1.57883e-05
0.000829682 -2.23466e-06 -9.34412e-07
-2.23466e-06 0.000134648 -1.91125e-06
-9.34412e-07 -1.91125e-06 7.14197e-05
9.87177e-05 -1.04484e-06 1.30391e-05
-1.04484e-06 -0.000319933 2.86615e-06
1.30391e-05 2.86615e-06 -0.000342668
0.00152518 1.09404e-05 -2.74632e-06
1.09404e-05 -0.000533344 -3.39115e-05
-2.74632e-06 -3.39115e-05 -0.000331518
0.0012315 -8.01948e-05 -3.66319e-05
-8.01948e-05 0.000118277 0.000107404
-3.66319e-05 0.000107404 -0.000186969
0.00553806 9.81117e-05 6.72453e-06
9.81117e-05 0.000839465 -2.22896e-05
6.72453e-06 -2.22896e-05 0.000522596
0.000706709 -6.17342e-05 -1.01569e-05
-6.17342e-05 -4.96152e-06 1.68436e-05
-1.01569e-05 1.68436e-05 -0.000326464
0.00632465 5.50577e-06 -8.58724e-06
5.50577e-06 0.000589297 4.46705e-06
-8.58724e-06 4.46705e-06 0.000826963
0.00227923 -0.000122889 9.71668e-07
-0.000122889 0.000150486 -7.99714e-06
9.71668e-07 -7.99714e-06 0.000122721
-0.000766116 -2.63581e-05 -2.96303e-07
-2.63581e-05 -0.00085048 6.7341e-06
-2.96303e-07 6.7341e-06 -0.00077753
0.000339862 -1.9202e-05 7.30552e-06
-1.9202e-05 -1.36843e-05 -4.27794e-05
7.30552e-06 -4.27794e-05 -0.000453318
0.00620984 -0.000112672 6.9805e-06
-0.000112672 0.00131147 3.37401e-05
6.9805e-06 3.37401e-05 0.000891085
0.00320199 -0.000160709 8.55372e-06
-0.000160709 0.000891081 2.37942e-05
8.55372e-06 2.37942e-05 0.000824004
0.000931147 -5.1965e-05 -8.22507e-07
-5.1965e-05 0.000137715 5.62654e-08
-8.22507e-07 5.62654e-08 0.000261879
0.00109627 2.68102e-05 -7.1923e-07
2.68102e-05 6.4951e-05 1.02728e-06
-7.1923e-07 1.02728e-06 -8.95735e-06
0.00117214 2.34058e-05 -5.00307e-07
2.34058e-05 9.54286e-05 2.055e-08
-5.00307e-07 2.055e-08 1.62315e-05
0.00120964 1.10373e-05 3.30473e-07
1.10373e-05 0.000112123 -2.54484e-07
3.30473e-07 -2.54484e-07 3.31396e-05
-0.000895086 -2.15138e-06 -4.7475e-06
-2.15138e-06 -0.000632994 -1.91319e-05
-4.7475e-06 -1.91319e-05 -0.000722811
0.00106533 -5.26384e-06 -2.69881e-07
-5.26384e-06 5.83096e-05 5.57207e-07
-2.69881e-07 5.57207e-07 -5.668e-05
0.0012022 1.85502e-05 8.4209e-07
1.85502e-05 0.000117968 2.28745e-07
8.4209e-07 2.28745e-07 2.61736e-05
0.00116747 4.40656e-06 4.46354e-07
4.40656e-06 0.000100209 -8.83352e-08
4.46354e-07 -8.83352e-08 -1.16895e-06
0.00117348 1.44687e-05 7.89919e-07
1.44687e-05 0.000113069 3.0351e-08
7.89919e-07 3.0351e-08 1.24415e-05
0.00112604 4.29439e-07 -4.86295e-07
4.29439e-07 7.86858e-05 -1.2232e-06
-4.86295e-07 -1.2232e-06 -4.3522e-05
0.000515396 3.26214e-06 -5.84909e-06
3.26214e-06 0.00014594 1.03962e-05
-5.84909e-06 1.03962e-05 6.03443e-05
0.00101561 2.42727e-05 -2.90371e-06
2.42727e-05 3.90608e-05 -3.38172e-07
-2.90371e-06 -3.38172e-07 -6.94325e-05
0.000634252 1.83161e-05 -1.16388e-06
1.83161e-05 0.000138964 2.36752e-05
-1.16388e-06 2.36752e-05 5.00839e-05
0.00180216 -1.57903e-06 -1.13346e-05
-1.57903e-06 0.000874027 -4.92143e-07
-1.13346e-05 -4.92143e-07 0.000800586
0.000755658 2.70983e-06 -9.5617e-07
2.70983e-06 0.000113317 -4.29901e-07
-9.5617e-07 -4.29901e-07 1.68974e-05
0.000624974 -5.23193e-07 -2.58377e-08
-5.23193e-07 -1.93543e-05 -9.23983e-08
-2.58377e-08 -9.23983e-08 -9.95116e-05
0.000188642 4.8093e-06 3.21929e-06
4.8093e-06 -0.000249124 1.53602e-05
3.21929e-06 1.53602e-05 -0.000282327
0.0010547 2.93307e-05 5.67975e-07
2.93307e-05 0.00043948 -2.76451e-05
5.67975e-07 -2.76451e-05 -0.000243278
0.00104999 -9.56039e-06 1.08708e-07
-9.56039e-06 0.000285285 -3.67928e-07
1.08708e-07 -3.67928e-07 0.000202685
0.00761917 7.41911e-05 9.32248e-06
7.41911e-05 0.00189972 -2.48735e-05
9.32248e-06 -2.48735e-05 0.00115791
0.00289638 0.000159955 -1.67522e-05
0.000159955 0.00093608 2.55827e-05
-1.67522e-05 2.55827e-05 0.000783954
0.00102118 3.604e-06 8.93923e-06
3.604e-06 0.000311519 -9.44749e-06
8.93923e-06 -9.44749e-06 0.000293783
1.95969e-05 4.84764e-05 -5.62416e-06
4.84764e-05 -0.000353591 3.22434e-06
-5.62416e-06 3.22434e-06 -0.000241814
0.000784834 1.13928e-06 9.25004e-07
1.13928e-06 0.000112056 -2.81697e-07
9.25004e-07 -2.81697e-07 7.96186e-05
0.00081709 -1.0269e-06 5.69135e-07
-1.0269e-06 0.000238125 -4.85825e-07
5.69135e-07 -4.85825e-07 0.000176133
-0.00130065 2.82542e-05 7.62346e-06
2.82542e-05 -0.00106943 -1.7938e-06
7.62346e-06 -1.7938e-06 -0.00102765
0.000299888 -3.91931e-05 -3.93471e-06
-3.91931e-05 -4.65535e-05 3.07269e-05
-3.93471e-06 3.07269e-05 -0.000427383
0.00214904 0.000122193 -8.44401e-07
0.000122193 0.00067295 -4.1004e-06
-8.44401e-07 -4.1004e-06 0.000587581
0.00587751 5.03615e-05 1.44885e-05
5.03615e-05 0.00125334 -1.3493e-05
1.44885e-05 -1.3493e-05 0.000460201
0.000401205 -1.01117e-05 8.61968e-06
-1.01117e-05 -0.000107666 -1.2346e-05
8.61968e-06 -1.2346e-05 -0.000172927
-0.00129968 1.05412e-05 -9.07646e-06
1.05412e-05 -0.00100613 2.11532e-06
-9.07646e-06 2.11532e-06 -0.0010143
0.00186133 7.41707e-05 2.04417e-05
7.41707e-05 0.000775227 -1.25607e-05
2.04417e-05 -1.25607e-05 0.000694014
0.00251856 2.47393e-05 -4.21853e-05
2.47393e-05 -2.12208e-06 1.57152e-05
-4.21853e-05 1.57152e-05 -0.000619783
0.000306044 -2.63314e-05 -1.47814e-05
-2.63314e-05 -0.000232268 4.15222e-05
-1.47814e-05 4.15222e-05 -0.000403319
0.00115608 7.14422e-06 4.91244e-07
7.14422e-06 0.000145503 -7.38923e-07
4.91244e-07 -7.38923e-07 4.60206e-05
0.00100461 -1.06421e-05 -2.03372e-07
-1.06421e-05 0.00013019 -2.57142e-07
-2.03372e-07 -2.57142e-07 -6.98459e-06
0.00170716 -5.64326e-05 4.16001e-07
-5.64326e-05 0.000445819 5.92881e-07
4.16001e-07 5.92881e-07 0.000282039
0.000931902 -2.35204e-05 -6.60708e-08
-2.35204e-05 3.60471e-05 -7.97611e-07
-6.60708e-08 -7.97611e-07 -6.97331e-05
0.00113209 -3.63736e-05 6.22435e-07
-3.63736e-05 0.000124246 -1.72168e-07
6.22435e-07 -1.72168e-07 1.21929e-06
0.00138188 -4.79572e-05 -2.16577e-06
-4.79572e-05 0.000164966 -2.92177e-06
-2.16577e-06 -2.92177e-06 5.86495e-05
0.00143424 -3.65454e-05 3.18773e-07
-3.65454e-05 0.00023442 -7.9893e-07
3.18773e-07 -7.9893e-07 0.000131684
0.00121387 -3.76777e-05 -4.74792e-07
-3.76777e-05 9.5657e-05 -9.11198e-07
-4.74792e-07 -9.11198e-07 -2.2748e-06
0.00142918 -3.70628e-05 -1.3655e-06
-3.70628e-05 0.000164969 -1.89988e-06
-1.3655e-06 -1.89988e-06 8.49141e-05
0.00127152 -3.33009e-05 5.83868e-07
-3.33009e-05 0.000120082 -8.29629e-07
5.83868e-07 -8.29629e-07 3.21369e-05
0.00121547 -3.16308e-05 3.66257e-07
-3.16308e-05 8.63289e-05 -5.05727e-07
3.66257e-07 -5.05727e-07 3.60941e-06
0.00129821 -2.88858e-05 -7.2452e-07
-2.88858e-05 9.3814e-05 -2.02877e-06
-7.2452e-07 -2.02877e-06 2.5144e-05
0.00126853 -2.59438e-05 -4.01489e-07
-2.59438e-05 6.673e-05 -1.20723e-06
-4.01489e-07 -1.20723e-06 3.39828e-06
0.0011855 -2.75187e-05 -7.69918e-07
-2.75187e-05 6.16707e-05 1.02284e-07
-7.69918e-07 1.02284e-07 -9.89623e-06
0.00120202 -2.81792e-05 3.49429e-08
-2.81792e-05 6.27012e-05 -4.85853e-07
3.49429e-08 -4.85853e-07 -1.08188e-05
0.00119846 -2.5652e-05 -6.03819e-07
-2.5652e-05 8.86297e-05 9.5226e-07
-6.03819e-07 9.5226e-07 2.26657e-05
0.00120157 -2.77712e-05 -2.14231e-07
-2.77712e-05 8.64533e-05 2.10722e-07
-2.14231e-07 2.10722e-07 1.36292e-05
0.00118501 -2.95842e-05 4.54803e-07
-2.95842e-05 7.77987e-05 -5.5265e-07
4.54803e-07 -5.5265e-07 -1.78205e-06
0.00109082 -1.94562e-05 -5.51835e-07
-1.94562e-05 4.75212e-05 1.24465e-07
-5.51835e-07 1.24465e-07 -9.81977e-06
0.00102893 -2.29933e-05 -7.21392e-08
-2.29933e-05 1.77604e-05 -2.9656e-07
-7.21392e-08 -2.9656e-07 -4.46401e-05
0.00116115 -2.55383e-05 1.01196e-06
-2.55383e-05 7.90173e-05 -1.16416e-06
1.01196e-06 -1.16416e-06 1.14778e-05
0.00104376 1.97913e-06 -9.19353e-07
1.97913e-06 3.36129e-05 8.8223e-07
-9.19353e-07 8.8223e-07 -1.60796e-05
0.00106595 -1.31836e-05 1.29926e-07
-1.31836e-05 4.14393e-05 1.34483e-07
1.29926e-07 1.34483e-07 -1.63904e-05
0.00108547 -2.15577e-05 5.77559e-07
-2.15577e-05 4.9607e-05 -2.53776e-07
5.77559e-07 -2.53776e-07 -1.2495e-05
0.000977177 1.07444e-05 -1.97876e-06
1.07444e-05 -1.96696e-06 1.53911e-06
-1.97876e-06 1.53911e-06 -3.2838e-05
0.00105359 2.38295e-06 -5.03005e-08
2.38295e-06 3.47794e-05 -3.12263e-08
-5.03005e-08 -3.12263e-08 -1.33031e-05
0.00106896 -7.2685e-06 1.80816e-07
-7.2685e-06 4.57134e-05 -1.98519e-07
1.80816e-07 -1.98519e-07 -1.11802e-05
0.00153019 1.38661e-05 -4.94329e-06
1.38661e-05 0.000263516 2.70725e-06
-4.94329e-06 2.70725e-06 0.000263414
0.00100048 8.9715e-06 5.65129e-09
8.9715e-06 3.94987e-06 1.27629e-08
5.65129e-09 1.27629e-08 -2.61328e-05
0.00107165 -9.13477e-07 1.09027e-06
-9.13477e-07 3.69292e-05 -8.25077e-07
1.09027e-06 -8.25077e-07 -1.01845e-05
0.00118753 1.33452e-05 -6.70413e-06
1.33452e-05 9.08349e-05 3.53282e-06
-6.70413e-06 3.53282e-06 0.000105418
0.00124931 1.19124e-05 -1.35677e-06
1.19124e-05 0.000122071 5.74636e-07
-1.35677e-06 5.74636e-07 0.000120781
0.00100111 7.68335e-06 1.85966e-06
7.68335e-06 1.39988e-06 -1.6264e-06
1.85966e-06 -1.6264e-06 -2.87873e-05
0.000944154 1.00607e-05 2.48229e-06
1.00607e-05 -3.09004e-05 -2.924e-06
2.48229e-06 -2.924e-06 -3.32975e-05
0.00240022 1.47958e-05 2.0157e-07
1.47958e-05 0.000681327 3.82301e-08
2.0157e-07 3.82301e-08 0.000702278
0.00237723 1.27986e-05 6.76272e-06
1.27986e-05 0.000666499 -3.78105e-06
6.76272e-06 -3.78105e-06 0.000688108
0.00105195 1.08913e-05 -6.59872e-07
1.08913e-05 2.46391e-05 -3.20664e-07
-6.59872e-07 -3.20664e-07 -3.45953e-05
0.00106835 1.64033e-06 -1.04285e-06
1.64033e-06 3.22482e-05 -8.50643e-07
-1.04285e-06 -8.50643e-07 -1.68579e-05
0.00108019 1.39362e-05 -1.03895e-08
1.39362e-05 3.81438e-05 3.77167e-08
-1.03895e-08 3.77167e-08 -2.13532e-05
0.000999561 -6.35943e-06 -1.50903e-06
-6.35943e-06 -4.76891e-07 -1.68896e-06
-1.50903e-06 -1.68896e-06 -3.12849e-05
0.0010661 4.7722e-06 -2.63522e-08
4.7722e-06 3.11234e-05 -1.16795e-09
-2.63522e-08 -1.16795e-09 -1.77664e-05
0.000955629 -8.82426e-06 -2.10517e-06
-8.82426e-06 -2.80601e-05 -2.97082e-06
-2.10517e-06 -2.97082e-06 -3.01628e-05
0.0010077 -5.555e-06 -7.90934e-08
-5.555e-06 2.29799e-06 1.61084e-08
-7.90934e-08 1.61084e-08 -2.77471e-05
0.00107531 7.08762e-06 7.86872e-07
7.08762e-06 3.67696e-05 1.09503e-06
7.86872e-07 1.09503e-06 -1.18501e-05
0.00235171 -1.07798e-05 -6.00102e-06
-1.07798e-05 0.000650488 -3.86383e-06
-6.00102e-06 -3.86383e-06 0.000672867
0.000953206 -7.70883e-06 -9.65233e-08
-7.70883e-06 -3.25754e-05 -6.9236e-09
-9.65233e-08 -6.9236e-09 -3.33484e-05
0.00101808 -5.26555e-06 8.22318e-07
-5.26555e-06 6.20478e-06 1.75715e-06
8.22318e-07 1.75715e-06 -2.2602e-05
0.00231759 -8.6625e-06 -3.17438e-07
-8.6625e-06 0.000629624 2.41808e-08
-3.17438e-07 2.41808e-08 0.000653083
0.000945624 -6.39585e-06 1.17311e-06
-6.39585e-06 -3.97587e-05 3.05125e-06
1.17311e-06 3.05125e-06 -3.89478e-05
0.00229313 -6.43642e-06 3.54407e-06
-6.43642e-06 0.000614271 3.84627e-06
3.54407e-06 3.84627e-06 0.000638623
0.000493098 -8.11804e-06 -1.27926e-05
-8.11804e-06 5.92206e-05 -4.81531e-06
-1.27926e-05 -4.81531e-06 -1.90955e-05
0.000646231 7.02235e-06 -5.77426e-07
7.02235e-06 4.96757e-05 -1.06085e-06
-5.77426e-07 -1.06085e-06 -3.84077e-05
0.00086566 -3.81217e-06 -1.07814e-06
-3.81217e-06 0.000142102 -4.53635e-07
-1.07814e-06 -4.53635e-07 6.43451e-05
0.00115563 1.69705e-05 -1.72045e-07
1.69705e-05 7.49304e-05 3.68989e-07
-1.72045e-07 3.68989e-07 1.24999e-05
0.00110376 1.55882e-05 6.01141e-07
1.55882e-05 5.06879e-05 3.79462e-07
6.01141e-07 3.79462e-07 -9.26251e-06
0.00109001 2.02479e-05 5.25191e-07
2.02479e-05 4.14091e-05 7.3458e-08
5.25191e-07 7.3458e-08 -2.28915e-05
0.00113793 2.12428e-05 -1.93643e-07
2.12428e-05 6.62253e-05 -1.71355e-07
-1.93643e-07 -1.71355e-07 9.71695e-07
0.00113714 1.77647e-05 -1.7347e-07
1.77647e-05 6.53367e-05 -1.85903e-07
-1.7347e-07 -1.85903e-07 2.32482e-06
0.00115286 2.1536e-05 2.70812e-07
2.1536e-05 7.04243e-05 2.15958e-07
2.70812e-07 2.15958e-07 4.27427e-06
0.00112066 2.15735e-05 -3.0791e-07
2.15735e-05 5.57145e-05 4.5018e-08
-3.0791e-07 4.5018e-08 -1.07566e-05
0.00109696 2.16165e-05 -2.05946e-07
2.16165e-05 4.58221e-05 1.5884e-07
-2.05946e-07 1.5884e-07 -2.28055e-05
0.00115177 2.16737e-05 3.59929e-07
2.16737e-05 7.55411e-05 -1.41294e-08
3.59929e-07 -1.41294e-08 7.38401e-06
0.00110146 2.12987e-05 7.29062e-07
2.12987e-05 5.38767e-05 -7.55032e-08
7.29062e-07 -7.55032e-08 -1.89024e-05
0.00117059 2.25126e-05 -1.40386e-07
2.25126e-05 8.56601e-05 -3.09934e-08
-1.40386e-07 -3.09934e-08 1.37488e-05
0.00135625 2.42236e-05 5.37141e-07
2.42236e-05 0.000171241 6.1763e-07
5.37141e-07 6.1763e-07 0.000100036
0.00167851 -3.68302e-05 -6.76354e-06
-3.68302e-05 0.00072367 -3.00062e-06
-6.76354e-06 -3.00062e-06 0.000774845
0.000602139 -1.26508e-05 -2.60174e-06
-1.26508e-05 9.87136e-05 -3.01923e-06
-2.60174e-06 -3.01923e-06 6.67646e-05
0.000399753 8.59644e-06 3.20785e-06
8.59644e-06 -0.000108633 2.67605e-06
3.20785e-06 2.67605e-06 -0.000164922
0.00149918 -3.57427e-05 1.36504e-05
-3.57427e-05 0.000531127 1.17978e-05
1.36504e-05 1.17978e-05 0.00059201
0.00129143 -0.000113146 5.48387e-06
-0.000113146 -0.000708076 -6.01233e-05
5.48387e-06 -6.01233e-05 -0.000635388
0.00387732 2.92032e-05 -3.38632e-06
2.92032e-05 -3.4189e-05 0.000103996
-3.38632e-06 0.000103996 -0.000578724
-0.000275332 -3.42826e-05 -2.11001e-05
-3.42826e-05 -2.67686e-05 3.00186e-05
-2.11001e-05 3.00186e-05 -0.000122999
0.000780861 -3.6124e-07 -7.62153e-06
-3.6124e-07 0.000438148 -8.4374e-06
-7.62153e-06 -8.4374e-06 0.000245102
0.000492155 -5.26595e-05 2.07373e-06
-5.26595e-05 -8.11113e-05 -5.85368e-07
2.07373e-06 -5.85368e-07 2.43094e-05
0.00598728 -5.52086e-05 1.18103e-05
-5.52086e-05 0.000745038 3.71408e-05
1.18103e-05 3.71408e-05 0.000368853
-0.00112344 -0.000121671 -3.93706e-06
-0.000121671 -0.000904135 -1.27253e-05
-3.93706e-06 -1.27253e-05 -0.000937103
0.000354989 3.88557e-05 -1.79592e-05
3.88557e-05 0.000110316 -3.14884e-05
-1.79592e-05 -3.14884e-05 -2.20782e-05
0.0046718 -0.000142696 2.05141e-05
-0.000142696 0.000937611 3.51002e-05
2.05141e-05 3.51002e-05 0.000354534
2.02396e-05 -9.68592e-05 3.80684e-05
-9.68592e-05 -9.45314e-05 2.49296e-05
3.80684e-05 2.49296e-05 -7.01703e-05
0.00110071 3.28661e-05 -1.98223e-06
3.28661e-05 7.33769e-05 9.77817e-07
-1.98223e-06 9.77817e-07 5.91515e-06
0.0011549 2.6242e-05 1.61186e-06
2.6242e-05 8.78858e-05 1.98195e-07
1.61186e-06 1.98195e-07 1.46106e-05
0.00121162 2.35686e-05 2.85855e-07
2.35686e-05 0.000114131 -6.23512e-07
2.85855e-07 -6.23512e-07 3.62139e-05
0.000419276 -2.22806e-06 3.53236e-06
-2.22806e-06 9.8603e-05 -4.70873e-06
3.53236e-06 -4.70873e-06 1.3103e-05
0.00103428 1.20363e-06 3.46335e-07
1.20363e-06 3.76767e-05 -8.95805e-08
3.46335e-07 -8.95805e-08 -8.42959e-05
0.00122454 1.46477e-05 3.04898e-06
1.46477e-05 0.000141342 2.04625e-07
3.04898e-06 2.04625e-07 4.06984e-05
0.00125597 2.53219e-05 2.52095e-09
2.53219e-05 0.000155351 -4.40364e-08
2.52095e-09 -4.40364e-08 4.76934e-05
0.000679011 1.95352e-05 4.02603e-06
1.95352e-05 0.000152854 9.53503e-06
4.02603e-06 9.53503e-06 5.92443e-05
-0.000471814 4.48501e-05 -2.79802e-06
4.48501e-05 -0.000518987 9.23468e-06
-2.79802e-06 9.23468e-06 -0.000591028
0.00230856 -2.88952e-06 -1.16927e-05
-2.88952e-06 0.00115406 -2.07245e-07
-1.16927e-05 -2.07245e-07 0.00116221
0.000652587 8.05146e-08 -1.0499e-06
8.05146e-08 0.000160494 -9.93302e-07
-1.0499e-06 -9.93302e-07 7.74181e-05
0.000301263 2.65026e-06 -8.42242e-09
2.65026e-06 -0.000173744 -3.44472e-07
-8.42242e-09 -3.44472e-07 -0.00026989
0.00116013 -4.70135e-07 -1.0888e-05
-4.70135e-07 0.000298518 1.83185e-05
-1.0888e-05 1.83185e-05 0.00024935
0.00119339 -2.82185e-05 4.78153e-06
-2.82185e-05 0.000387138 -3.00804e-05
4.78153e-06 -3.00804e-05 0.000196328
0.000803626 -1.09795e-06 1.08333e-05
-1.09795e-06 0.000227833 -2.98369e-06
1.08333e-05 -2.98369e-06 0.000166563
0.00115837 6.56338e-05 -2.26134e-05
6.56338e-05 -0.000343016 3.24711e-05
-2.26134e-05 3.24711e-05 -0.000971432
-0.00110927 9.00667e-05 -4.34462e-05
9.00667e-05 -0.0006662 2.89071e-05
-4.34462e-05 2.89071e-05 -0.000680187
0.000787791 3.20911e-05 1.26887e-05
3.20911e-05 0.000137517 -1.17148e-05
1.26887e-05 -1.17148e-05 0.000194879
0.00115725 -5.95651e-06 2.19364e-06
-5.95651e-06 0.00023878 9.27071e-07
2.19364e-06 9.27071e-07 0.0001759
0.000791978 1.19793e-05 -1.98192e-08
1.19793e-05 0.00021314 -8.51219e-07
-1.98192e-08 -8.51219e-07 0.000215851
-0.00158763 3.88521e-05 -1.21568e-05
3.88521e-05 -0.000681441 4.07427e-06
-1.21568e-05 4.07427e-06 -0.000698648
0.00225895 -6.80003e-05 -1.48687e-05
-6.80003e-05 0.000485074 3.95287e-05
-1.48687e-05 3.95287e-05 6.97746e-05
0.00495161 6.25141e-05 -1.02781e-05
6.25141e-05 0.00125855 9.29129e-06
-1.02781e-05 9.29129e-06 0.000731384
0.00207778 -2.90869e-05 1.78704e-05
-2.90869e-05 0.000208249 -1.28315e-05
1.78704e-05 -1.28315e-05 0.00020918
-0.00392062 2.34652e-05 3.17132e-05
2.34652e-05 -0.00194384 -1.22242e-05
3.17132e-05 -1.22242e-05 -0.00191942
0.0049805 3.35134e-05 1.97568e-05
3.35134e-05 0.0014989 -1.73744e-05
1.97568e-05 -1.73744e-05 0.00110234
0.000603928 -4.933e-05 -2.61106e-05
-4.933e-05 -0.000237349 3.56683e-05
-2.61106e-05 3.56683e-05 -0.000600161
0.00118906 -9.69406e-06 -1.01544e-06
-9.69406e-06 0.000210861 -8.27736e-07
-1.01544e-06 -8.27736e-07 8.07809e-05
0.00115205 -4.58203e-05 6.7339e-07
-4.58203e-05 0.000197296 9.31719e-07
6.7339e-07 9.31719e-07 2.26273e-05
0.00118928 -6.88701e-05 -3.29327e-06
-6.88701e-05 7.43827e-05 -1.01427e-07
-3.29327e-06 -1.01427e-07 -3.4148e-05
0.000972156 -3.36566e-05 -1.46215e-07
-3.36566e-05 5.35699e-05 -1.45869e-07
-1.46215e-07 -1.45869e-07 -6.94929e-05
0.00120257 -4.63256e-05 -1.16081e-06
-4.63256e-05 7.254e-05 -1.44541e-06
-1.16081e-06 -1.44541e-06 -3.19085e-05
0.00177293 -4.68482e-05 -2.13715e-06
-4.68482e-05 0.00025473 -4.13524e-06
-2.13715e-06 -4.13524e-06 0.00019425
0.00120288 -3.74096e-05 9.48903e-07
-3.74096e-05 8.82129e-05 -1.31e-06
9.48903e-07 -1.31e-06 -8.8916e-06
0.00121889 -3.46291e-05 6.21888e-07
-3.46291e-05 6.16978e-05 -7.11113e-07
6.21888e-07 -7.11113e-07 -1.64398e-05
0.00137492 -2.88071e-05 -3.30775e-07
-2.88071e-05 9.43408e-05 -3.0339e-06
-3.30775e-07 -3.0339e-06 4.32942e-05
0.00111603 -3.03212e-05 9.84115e-07
-3.03212e-05 3.80503e-05 -1.81907e-07
9.84115e-07 -1.81907e-07 -4.3707e-05
0.0012089 -2.7806e-05 -9.16401e-08
-2.7806e-05 4.84669e-05 -4.99536e-07
-9.16401e-08 -4.99536e-07 -1.92543e-05
0.00126847 -2.35186e-05 1.85445e-07
-2.35186e-05 4.38403e-05 -1.98408e-06
1.85445e-07 -1.98408e-06 -6.9665e-06
0.00124584 -2.16399e-05 4.01182e-08
-2.16399e-05 4.78604e-05 -9.59594e-07
4.01182e-08 -9.59594e-07 -5.29518e-06
0.00129254 -2.64004e-05 -7.04755e-07
-2.64004e-05 8.94293e-05 -6.75773e-07
-7.04755e-07 -6.75773e-07 2.48464e-05
0.00122631 -2.49962e-05 2.85561e-07
-2.49962e-05 4.73166e-05 3.37361e-07
2.85561e-07 3.37361e-07 -1.52511e-05
0.00103658 -2.44352e-05 -8.92859e-07
-2.44352e-05 -2.43997e-06 4.73063e-07
-8.92859e-07 4.73063e-07 -6.92341e-05
0.00121993 -2.76177e-05 4.06065e-07
-2.76177e-05 7.93508e-05 -3.33493e-07
4.06065e-07 -3.33493e-07 8.45939e-06
0.00113825 -2.72777e-05 7.36835e-07
-2.72777e-05 3.06709e-05 2.72073e-08
7.36835e-07 2.72073e-08 -4.21795e-05
0.00110413 -2.20914e-05 -5.0425e-07
-2.20914e-05 4.97837e-05 6.0401e-07
-5.0425e-07 6.0401e-07 -9.16831e-06
0.00109312 -2.47045e-05 7.5295e-08
-2.47045e-05 4.0313e-05 -7.09781e-08
7.5295e-08 -7.09781e-08 -2.58321e-05
0.0010593 -2.66438e-05 5.68584e-07
-2.66438e-05 1.98996e-05 -7.77654e-07
5.68584e-07 -7.77654e-07 -5.39627e-05
0.00104643 -2.07359e-06 -1.08543e-06
-2.07359e-06 3.37671e-05 6.48554e-07
-1.08543e-06 6.48554e-07 -1.67798e-05
0.00110912 -1.90298e-05 -8.20272e-08
-1.90298e-05 5.59236e-05 -1.05181e-07
-8.20272e-08 -1.05181e-07 -1.45065e-06
0.00108792 -2.34485e-05 2.65293e-07
-2.34485e-05 4.6488e-05 -7.67621e-07
2.65293e-07 -7.67621e-07 -1.53282e-05
0.000965621 1.23952e-05 -2.00038e-06
1.23952e-05 -2.24262e-06 1.54392e-06
-2.00038e-06 1.54392e-06 -3.48522e-05
0.00105063 8.9515e-07 9.20699e-08
8.9515e-07 3.59926e-05 7.64457e-08
9.20699e-08 7.64457e-08 -1.35615e-05
0.00100906 -1.14286e-05 6.32423e-07
-1.14286e-05 1.48887e-05 -1.46822e-07
6.32423e-07 -1.46822e-07 -4.30278e-05
0.000893005 1.39437e-05 -3.20136e-06
1.39437e-05 -4.35286e-05 2.60798e-06
-3.20136e-06 2.60798e-06 -4.71806e-05
0.000993956 1.09649e-05 -1.52735e-08
1.09649e-05 6.1115e-06 -6.70862e-09
-1.52735e-08 -6.70862e-09 -2.48287e-05
0.00107154 1.35196e-06 9.3238e-07
1.35196e-06 4.25927e-05 -8.92423e-07
9.3238e-07 -8.92423e-07 -5.43786e-06
0.00235026 1.96804e-05 -3.52529e-06
1.96804e-05 0.000665707 1.3927e-06
-3.52529e-06 1.3927e-06 0.000685586
0.000909478 1.26038e-05 6.78216e-08
1.26038e-05 -4.03267e-05 3.48154e-08
6.78216e-08 3.48154e-08 -4.32784e-05
0.00100483 9.1452e-06 1.95015e-06
9.1452e-06 6.17482e-06 -1.5605e-06
1.95015e-06 -1.5605e-06 -2.39202e-05
0.00241757 1.67988e-05 1.5557e-07
1.67988e-05 0.000693767 4.23341e-08
1.5557e-07 4.23341e-08 0.000714051
0.000933232 1.13074e-05 2.82001e-06
1.13074e-05 -3.27471e-05 -2.80068e-06
2.82001e-06 -2.80068e-06 -3.54277e-05
0.00237502 1.48075e-05 7.39573e-06
1.48075e-05 0.000669452 -3.67477e-06
7.39573e-06 -3.67477e-06 0.00069046
0.00120105 9.05114e-06 -3.19907e-07
9.05114e-06 9.96863e-05 2.18076e-07
-3.19907e-07 2.18076e-07 4.14871e-05
0.00107967 9.57587e-06 -9.81247e-08
9.57587e-06 3.87126e-05 -1.22861e-07
-9.81247e-08 -1.22861e-07 -2.0339e-05
0.00106896 -8.44403e-07 -1.08609e-06
-8.44403e-07 3.42703e-05 -7.73828e-07
-1.08609e-06 -7.73828e-07 -1.52537e-05
0.00100236 -7.47056e-06 -1.75356e-06
-7.47056e-06 2.38945e-06 -1.61677e-06
-1.75356e-06 -1.61677e-06 -2.89908e-05
0.00106509 2.54589e-06 -5.06698e-08
2.54589e-06 3.09653e-05 1.88789e-08
-5.06698e-08 1.88789e-08 -1.82152e-05
0.00105767 1.27381e-05 5.5734e-07
1.27381e-05 2.74145e-05 3.02312e-07
5.5734e-07 3.02312e-07 -3.23133e-05
0.000942739 -9.88062e-06 -2.49121e-06
-9.88062e-06 -3.10456e-05 -2.89996e-06
-2.49121e-06 -2.89996e-06 -3.3994e-05
0.00100323 -6.16699e-06 -6.53941e-08
-6.16699e-06 1.01826e-06 7.49466e-09
-6.53941e-08 7.49466e-09 -2.97541e-05
0.00106946 5.36181e-06 8.90563e-07
5.36181e-06 3.28696e-05 1.02487e-06
8.90563e-07 1.02487e-06 -1.60911e-05
0.00238772 -1.27916e-05 -6.84987e-06
-1.27916e-05 0.000672045 -3.8123e-06
-6.84987e-06 -3.8123e-06 0.000693492
0.000941693 -8.81526e-06 -1.0867e-07
-8.81526e-06 -3.47192e-05 9.14598e-09
-1.0867e-07 9.14598e-09 -3.67615e-05
0.00101486 -5.44555e-06 1.1252e-06
-5.44555e-06 5.66991e-06 1.74662e-06
1.1252e-06 1.74662e-06 -2.43818e-05
0.00235995 -1.07642e-05 -2.81558e-07
-1.07642e-05 0.000654033 3.02714e-08
-2.81558e-07 3.02714e-08 0.000676507
0.000936719 -7.71745e-06 1.49495e-06
-7.71745e-06 -4.04497e-05 3.04572e-06
1.49495e-06 3.04572e-06 -4.1142e-05
0.00232537 -8.62182e-06 4.56746e-06
-8.62182e-06 0.000632968 3.82913e-06
4.56746e-06 3.82913e-06 0.000656521
3.8527e-05 -1.62412e-05 -7.75175e-06
-1.62412e-05 -0.000181712 -4.39685e-06
-7.75175e-06 -4.39685e-06 -0.000175502
0.000504486 -5.01072e-06 -3.26227e-07
-5.01072e-06 6.83375e-05 -1.55199e-06
-3.26227e-07 -1.55199e-06 -9.98343e-06
0.000497929 6.85674e-06 1.38804e-06
6.85674e-06 -4.11721e-05 7.45681e-07
1.38804e-06 7.45681e-07 -0.000129949
0.00113411 1.68721e-05 8.88494e-08
1.68721e-05 6.40154e-05 1.48852e-07
8.88494e-08 1.48852e-07 1.27427e-06
0.00116441 1.87907e-05 -1.51499e-07
1.87907e-05 8.09846e-05 4.14321e-07
-1.51499e-07 4.14321e-07 1.88563e-05
0.00112678 2.20182e-05 -3.11844e-08
2.20182e-05 5.79399e-05 4.03157e-07
-3.11844e-08 4.03157e-07 -6.88078e-06
0.00120348 2.18478e-05 1.68338e-07
2.18478e-05 9.8735e-05 -2.46386e-07
1.68338e-07 -2.46386e-07 3.38167e-05
0.00120183 1.87945e-05 1.94824e-07
1.87945e-05 9.69545e-05 -1.66392e-07
1.94824e-07 -1.66392e-07 3.42377e-05
0.00111781 2.11067e-05 4.48848e-07
2.11067e-05 5.3036e-05 2.1489e-07
4.48848e-07 2.1489e-07 -1.29303e-05
0.00112823 2.1846e-05 -8.79964e-08
2.1846e-05 6.06908e-05 -1.17331e-08
-8.79964e-08 -1.17331e-08 -7.66984e-06
0.0011375 2.17278e-05 4.52343e-08
2.17278e-05 6.3677e-05 2.77642e-08
4.52343e-08 2.77642e-08 -2.56483e-06
0.0011464 2.28025e-05 -3.37301e-07
2.28025e-05 7.42304e-05 2.64557e-07
-3.37301e-07 2.64557e-07 4.35867e-06
0.00123974 2.34001e-05 4.01702e-07
2.34001e-05 0.000116479 1.8546e-06
4.01702e-07 1.8546e-06 4.99229e-05
0.00112906 2.20936e-05 4.14142e-08
2.20936e-05 6.52473e-05 -4.21926e-07
4.14142e-08 -4.21926e-07 -6.65285e-06
0.00121206 2.30358e-05 2.91436e-08
2.30358e-05 0.000103374 -6.86993e-08
2.91436e-08 -6.86993e-08 3.20655e-05
-0.00292132 -5.98567e-05 4.18735e-05
-5.98567e-05 -0.00146858 1.71019e-05
4.18735e-05 1.71019e-05 -0.00148784
0.000931821 -3.59422e-05 3.87573e-07
-3.59422e-05 0.000302857 4.67753e-08
3.87573e-07 4.67753e-08 0.000350739
0.000548562 -1.31736e-05 1.37673e-05
-1.31736e-05 6.84614e-05 7.37329e-06
1.37673e-05 7.37329e-06 3.81661e-05
9.48679e-05 -5.24759e-05 -1.47405e-06
-5.24759e-05 -0.0002729 -3.23638e-06
-1.47405e-06 -3.23638e-06 -0.000186163
0.00404251 -0.000161257 -2.71778e-05
-0.000161257 0.00136195 -5.18656e-05
-2.71778e-05 -5.18656e-05 0.00127817
0.00184175 -8.10986e-05 1.08179e-05
-8.10986e-05 -0.000663297 3.22586e-05
1.08179e-05 3.22586e-05 -0.000925073
0.000693907 8.61784e-06 3.59572e-06
8.61784e-06 0.000155465 2.86427e-05
3.59572e-06 2.86427e-05 -0.000290839
0.00128804 5.80633e-05 -9.88824e-06
5.80633e-05 0.000266233 -3.04326e-05
-9.88824e-06 -3.04326e-05 -7.95792e-05
0.00184098 -0.000125041 -4.43049e-07
-0.000125041 0.000444303 -4.65404e-06
-4.43049e-07 -4.65404e-06 0.000388509
0.00448851 -6.64681e-05 1.99991e-05
-6.64681e-05 0.000825436 3.66322e-05
1.99991e-05 3.66322e-05 0.000321154
-5.33764e-05 6.70491e-05 -3.48945e-05
6.70491e-05 -0.000542085 -7.82119e-05
-3.48945e-05 -7.82119e-05 -0.000877911
0.00330438 -2.59018e-06 6.50787e-06
-2.59018e-06 0.00040378 1.86314e-05
6.50787e-06 1.86314e-05 -0.000122681
0.00165328 4.50919e-05 3.10855e-06
4.50919e-05 0.000374723 -1.60059e-06
3.10855e-06 -1.60059e-06 0.000295078
0.000987905 3.01659e-05 5.16749e-08
3.01659e-05 1.74862e-05 -1.50037e-07
5.16749e-08 -1.50037e-07 -4.89084e-05
0.00121702 2.57294e-05 2.27351e-06
2.57294e-05 0.000112545 -1.01078e-06
2.27351e-06 -1.01078e-06 3.98976e-05
0.000655134 2.19883e-05 -7.48386e-07
2.19883e-05 0.000137005 -5.4444e-06
-7.48386e-07 -5.4444e-06 4.01374e-05
0.00150524 2.66291e-05 2.54409e-06
2.66291e-05 0.000275239 2.68238e-07
2.54409e-06 2.68238e-07 0.000168328
0.000970878 5.55089e-05 1.52371e-06
5.55089e-05 0.000128614 2.57986e-06
1.52371e-06 2.57986e-06 5.8893e-05
-0.00076065 5.06297e-05 4.88084e-06
5.06297e-05 -0.000702524 2.9248e-06
4.88084e-06 2.9248e-06 -0.000761156
-0.00165128 4.88441e-06 5.41348e-05
4.88441e-06 -0.00074203 -1.89667e-06
5.41348e-05 -1.89667e-06 -0.000661263
0.000512625 -2.0437e-06 -5.50819e-06
-2.0437e-06 8.48839e-05 4.35978e-07
-5.50819e-06 4.35978e-07 7.78122e-05
-0.000565003 1.73736e-06 1.21061e-05
1.73736e-06 -0.000595799 -1.90266e-06
1.21061e-05 -1.90266e-06 -0.000688477
0.00148592 4.31491e-06 -1.10364e-05
4.31491e-06 0.000381652 1.23878e-05
-1.10364e-05 1.23878e-05 0.000335172
-0.000179543 -4.24515e-05 -9.19484e-06
-4.24515e-05 -0.00012561 4.37765e-06
-9.19484e-06 4.37765e-06 -0.000359758
0.000609121 1.08173e-05 9.44231e-06
1.08173e-05 9.41587e-05 -3.28805e-06
9.44231e-06 -3.28805e-06 9.7457e-05
0.00335959 1.12326e-05 3.58942e-05
1.12326e-05 0.000411576 -2.50655e-05
3.58942e-05 -2.50655e-05 -0.000189031
0.00278288 3.52132e-05 -6.78304e-05
3.52132e-05 0.00129427 2.55911e-05
-6.78304e-05 2.55911e-05 0.00120197
0.00121804 -2.59702e-05 -3.60291e-06
-2.59702e-05 -4.78743e-05 6.46719e-07
-3.60291e-06 6.46719e-07 -8.28986e-05
-0.000627275 1.6424e-05 -2.16393e-05
1.6424e-05 -0.000294641 5.28256e-06
-2.16393e-05 5.28256e-06 -0.000320224
0.00223209 -3.31953e-05 -6.46883e-06
-3.31953e-05 0.000132922 4.57587e-06
-6.46883e-06 4.57587e-06 -0.000413286
0.000246094 -2.07369e-05 5.2847e-06
-2.07369e-05 2.82332e-05 2.54595e-06
5.2847e-06 2.54595e-06 -0.000213503
0.00149708 -3.2956e-05 1.3637e-05
-3.2956e-05 -0.000241725 -8.91366e-06
1.3637e-05 -8.91366e-06 -0.000181762
0.00547759 8.07075e-06 1.66267e-05
8.07075e-06 0.00144652 -9.70141e-06
1.66267e-05 -9.70141e-06 0.00105257
0.00105342 9.37124e-06 -5.92611e-06
9.37124e-06 0.000372764 3.36077e-07
-5.92611e-06 3.36077e-07 0.000177566
0.00055454 -3.424e-05 6.58951e-07
-3.424e-05 -6.62904e-05 -2.96123e-06
6.58951e-07 -2.96123e-06 -0.00025492
0.00103858 -6.56128e-05 -6.17464e-08
-6.56128e-05 9.69905e-06 -3.06971e-07
-6.17464e-08 -3.06971e-07 -9.70937e-05
0.00132941 -6.22298e-05 -1.01426e-05
-6.22298e-05 -2.49978e-05 2.03115e-06
-1.01426e-05 2.03115e-06 -5.73712e-05
0.00100052 -4.43244e-05 -1.73798e-07
-4.43244e-05 -3.12852e-05 -3.71594e-09
-1.73798e-07 -3.71594e-09 -0.000133647
0.00129341 -4.2993e-05 -1.7348e-07
-4.2993e-05 2.02962e-05 1.4945e-07
-1.7348e-07 1.4945e-07 -3.78046e-05
0.00165637 -3.02073e-05 3.7708e-07
-3.02073e-05 0.000149615 -1.68565e-06
3.7708e-07 -1.68565e-06 0.000131937
0.00102069 -3.22983e-05 2.19679e-06
-3.22983e-05 -3.49527e-05 1.02954e-06
2.19679e-06 1.02954e-06 -0.000111287
0.00123057 -2.76599e-05 9.50736e-08
-2.76599e-05 2.13316e-05 -1.0938e-07
9.50736e-08 -1.0938e-07 -2.85035e-05
0.0012805 -2.11668e-05 1.51136e-06
-2.11668e-05 1.34131e-05 -1.38104e-06
1.51136e-06 -1.38104e-06 -1.80101e-05
0.00110966 -2.67041e-05 6.4362e-07
-2.67041e-05 -1.52557e-06 1.09848e-06
6.4362e-07 1.09848e-06 -6.82842e-05
0.00123586 -2.32641e-05 2.14509e-07
-2.32641e-05 2.81452e-05 3.66431e-07
2.14509e-07 3.66431e-07 -2.26618e-05
0.00120586 -1.8621e-05 9.73382e-07
-1.8621e-05 9.29572e-06 -4.87395e-07
9.73382e-07 -4.87395e-07 -3.41544e-05
0.00128031 -1.85558e-05 2.85408e-07
-1.85558e-05 6.2864e-05 -3.53256e-07
2.85408e-07 -3.53256e-07 1.32976e-05
0.00125512 -2.13855e-05 -1.77758e-07
-2.13855e-05 5.17259e-05 7.80431e-07
-1.77758e-07 7.80431e-07 -5.71719e-07
0.00126559 -2.25527e-05 -2.80723e-08
-2.25527e-05 6.80094e-05 -1.33734e-06
-2.80723e-08 -1.33734e-06 1.19099e-05
0.00125702 -2.46916e-05 -7.6079e-07
-2.46916e-05 8.17841e-05 -3.10893e-07
-7.6079e-07 -3.10893e-07 1.89711e-05
0.00128737 -2.62001e-05 3.3793e-07
-2.62001e-05 8.89295e-05 -4.88408e-08
3.3793e-07 -4.88408e-08 2.42784e-05
0.00119019 -2.4116e-05 9.50261e-07
-2.4116e-05 3.0904e-05 1.72007e-06
9.50261e-07 1.72007e-06 -3.09229e-05
0.000993273 -2.20022e-05 -1.08266e-06
-2.20022e-05 -1.56473e-05 8.96177e-07
-1.08266e-06 8.96177e-07 -7.6823e-05
0.00116001 -2.5403e-05 5.75367e-08
-2.5403e-05 5.76161e-05 -2.50876e-08
5.75367e-08 -2.50876e-08 -8.65045e-06
0.00124485 -2.76226e-05 1.13882e-06
-2.76226e-05 9.24533e-05 -6.17641e-07
1.13882e-06 -6.17641e-07 2.22567e-05
0.00104353 -7.26767e-06 -9.32709e-07
-7.26767e-06 3.0688e-05 6.48429e-07
-9.32709e-07 6.48429e-07 -2.11865e-05
0.00112127 -2.18206e-05 4.22941e-08
-2.18206e-05 5.75594e-05 -4.5281e-08
4.22941e-08 -4.5281e-08 -1.43388e-06
0.000996048 -2.38386e-05 5.1942e-07
-2.38386e-05 -4.20933e-06 -1.0488e-06
5.1942e-07 -1.0488e-06 -7.05299e-05
0.000957366 1.34105e-05 -2.13053e-06
1.34105e-05 -2.82966e-06 1.44914e-06
-2.13053e-06 1.44914e-06 -3.74528e-05
0.00105506 -3.23238e-06 -4.54381e-08
-3.23238e-06 3.69328e-05 2.76296e-08
-4.54381e-08 2.76296e-08 -1.34894e-05
0.00112607 -1.8538e-05 5.47769e-07
-1.8538e-05 6.3695e-05 -4.51724e-07
5.47769e-07 -4.51724e-07 6.28853e-06
0.000877618 1.51978e-05 -3.40146e-06
1.51978e-05 -4.5132e-05 2.51695e-06
-3.40146e-06 2.51695e-06 -5.01425e-05
0.000984497 1.26587e-05 5.69231e-08
1.26587e-05 6.77771e-06 2.12584e-08
5.69231e-08 2.12584e-08 -2.58756e-05
0.00105807 -3.04868e-07 1.10572e-06
-3.04868e-07 3.86636e-05 -6.8888e-07
1.10572e-06 -6.8888e-07 -1.07537e-05
0.0024276 2.08581e-05 -8.53037e-06
2.08581e-05 0.000708377 3.30992e-06
-8.53037e-06 3.30992e-06 0.000727167
0.000911487 1.39985e-05 2.81762e-08
1.39985e-05 -3.44888e-05 1.91351e-08
2.81762e-08 1.91351e-08 -3.82447e-05
0.00101087 1.11873e-05 1.93552e-06
1.11873e-05 1.42567e-05 -1.5661e-06
1.93552e-06 -1.5661e-06 -1.67536e-05
0.00174457 1.74953e-05 2.97074e-06
1.74953e-05 0.00036905 -1.03484e-06
2.97074e-06 -1.03484e-06 0.000386032
0.000928132 1.26541e-05 3.11257e-06
1.26541e-05 -3.12422e-05 -2.66779e-06
3.11257e-06 -2.66779e-06 -3.42827e-05
0.00236224 1.68008e-05 7.87314e-06
1.68008e-05 0.00066749 -3.53876e-06
7.87314e-06 -3.53876e-06 0.000687937
0.00115191 7.32862e-06 -3.7159e-07
7.32862e-06 7.80947e-05 3.09488e-07
-3.7159e-07 3.09488e-07 1.96414e-05
0.00112005 6.62834e-06 1.71525e-07
6.62834e-06 5.99978e-05 3.27509e-07
1.71525e-07 3.27509e-07 1.25504e-06
0.00106162 -3.35e-06 -1.13855e-06
-3.35e-06 3.39383e-05 -6.68902e-07
-1.13855e-06 -6.68902e-07 -1.62934e-05
0.0011069 8.23999e-06 3.74476e-07
8.23999e-06 5.2553e-05 4.21043e-08
3.74476e-07 4.21043e-08 -6.31425e-06
0.00106053 -5.77597e-07 2.14389e-08
-5.77597e-07 3.05672e-05 1.46149e-08
2.14389e-08 1.46149e-08 -1.90077e-05
0.00100475 -9.00856e-06 -1.92844e-06
-9.00856e-06 5.9128e-06 -1.52385e-06
-1.92844e-06 -1.52385e-06 -2.61243e-05
0.000933707 -1.10316e-05 -2.84098e-06
-1.10316e-05 -3.21173e-05 -2.79683e-06
-2.84098e-06 -2.79683e-06 -3.56735e-05
0.00100083 -7.21939e-06 -7.35708e-08
-7.21939e-06 1.34417e-06 1.28492e-08
-7.35708e-08 1.28492e-08 -2.99849e-05
0.00106234 3.11641e-06 9.98028e-07
3.11641e-06 2.99179e-05 9.34887e-07
9.98028e-07 9.34887e-07 -1.93315e-05
0.00240413 -1.47647e-05 -7.51958e-06
-1.47647e-05 0.000684038 -3.71526e-06
-7.51958e-06 -3.71526e-06 0.000704732
0.000931048 -9.85819e-06 -9.06659e-08
-9.85819e-06 -3.67154e-05 2.08688e-08
-9.06659e-08 2.08688e-08 -3.96053e-05
0.00100698 -5.9784e-06 1.40086e-06
-5.9784e-06 2.55468e-06 1.70413e-06
1.40086e-06 1.70413e-06 -2.81825e-05
0.00240107 -1.27825e-05 -2.46233e-07
-1.27825e-05 0.000678118 3.68817e-08
-2.46233e-07 3.68817e-08 0.00069961
0.000928041 -8.80664e-06 1.86952e-06
-8.80664e-06 -4.1238e-05 3.02171e-06
1.86952e-06 3.02171e-06 -4.32206e-05
0.0023673 -1.07454e-05 5.52406e-06
-1.07454e-05 0.000657141 3.81447e-06
5.52406e-06 3.81447e-06 0.000679714
0.000326585 8.4785e-06 6.30278e-05
8.4785e-06 -0.000103262 6.51214e-06
6.30278e-05 6.51214e-06 -0.00019852
0.00133058 -1.80345e-05 -4.74274e-07
-1.80345e-05 0.000582249 -1.1334e-06
-4.74274e-07 -1.1334e-06 0.000595498
0.000504942 -1.99555e-06 1.20332e-05
-1.99555e-06 7.07125e-05 1.49063e-06
1.20332e-05 1.49063e-06 -7.56949e-06
0.00111077 1.66332e-05 5.02455e-07
1.66332e-05 5.21909e-05 1.16168e-08
5.02455e-07 1.16168e-08 -1.085e-05
0.00112129 2.19023e-05 4.34132e-07
2.19023e-05 5.57804e-05 1.53026e-07
4.34132e-07 1.53026e-07 -9.0666e-06
0.0011573 1.91652e-05 8.6921e-08
1.91652e-05 7.81107e-05 5.21889e-08
8.6921e-08 5.21889e-08 1.61707e-05
0.00114625 2.13663e-05 2.65876e-08
2.13663e-05 7.59665e-05 3.93935e-07
2.65876e-08 3.93935e-07 1.38798e-05
0.00113689 2.23879e-05 -3.59446e-07
2.23879e-05 6.62616e-05 4.0896e-07
-3.59446e-07 4.0896e-07 1.20622e-06
0.00115989 2.20788e-05 1.74233e-07
2.20788e-05 7.5716e-05 -1.43437e-07
1.74233e-07 -1.43437e-07 7.62506e-06
0.0011539 2.187e-05 4.31485e-07
2.187e-05 7.1404e-05 -1.15357e-07
4.31485e-07 -1.15357e-07 5.39571e-06
0.00109785 2.23996e-05 -1.45794e-07
2.23996e-05 5.08777e-05 -4.46897e-08
-1.45794e-07 -4.46897e-08 -1.89217e-05
0.000943681 2.1882e-05 -7.1167e-08
2.1882e-05 -2.05926e-05 6.47532e-07
-7.1167e-08 6.47532e-07 -8.76173e-05
0.00109404 2.54106e-05 -4.7479e-09
2.54106e-05 5.34691e-05 1.37174e-06
-4.7479e-09 1.37174e-06 -1.74394e-05
0.00137002 3.23029e-05 6.91999e-07
3.23029e-05 0.000195247 9.41898e-08
6.91999e-07 9.41898e-08 0.000128607
0.00118351 2.34623e-05 -3.29348e-07
2.34623e-05 9.06372e-05 -1.99467e-08
-3.29348e-07 -1.99467e-08 2.26542e-05
0.00106418 2.18169e-05 -3.08724e-08
2.18169e-05 3.3902e-05 -5.87672e-07
-3.08724e-08 -5.87672e-07 -3.75238e-05
0.00680163 -1.73015e-06 -1.03029e-05
-1.73015e-06 0.00172595 -5.83558e-07
-1.03029e-05 -5.83558e-07 0.00129713
7.00582e-05 -6.69134e-05 9.79741e-06
-6.69134e-05 -0.00019089 3.39382e-06
9.79741e-06 3.39382e-06 -0.000250039
0.00195108 -3.53619e-05 2.84989e-06
-3.53619e-05 0.000896347 3.99258e-06
2.84989e-06 3.99258e-06 0.000945627
-0.00157596 -9.48134e-05 -3.0898e-05
-9.48134e-05 -0.00102112 -3.3179e-05
-3.0898e-05 -3.3179e-05 -0.00100648
0.00552787 -0.000128751 2.21582e-05
-0.000128751 0.0010101 4.96024e-05
2.21582e-05 4.96024e-05 0.000240527
0.000972869 4.19412e-05 2.51663e-06
4.19412e-05 0.000403775 -9.44979e-06
2.51663e-06 -9.44979e-06 0.000264637
0.00134281 7.23813e-05 -1.97295e-05
7.23813e-05 0.000236549 -2.12388e-05
-1.97295e-05 -2.12388e-05 1.7772e-05
0.00443453 -7.40934e-05 1.09548e-05
-7.40934e-05 0.000979979 1.31928e-05
1.09548e-05 1.31928e-05 0.000542387
0.000944334 4.77819e-05 -3.85419e-05
4.77819e-05 -7.44967e-05 -3.34986e-05
-3.85419e-05 -3.34986e-05 -0.000281772
0.0014008 5.11668e-05 1.09514e-05
5.11668e-05 0.000205406 -9.11392e-07
1.09514e-05 -9.11392e-07 9.9366e-05
0.00114339 4.09338e-05 -1.79428e-06
4.09338e-05 0.000141543 -2.28633e-06
-1.79428e-06 -2.28633e-06 5.86804e-05
0.000882927 2.75966e-05 1.53477e-06
2.75966e-05 -3.44807e-05 -1.41212e-06
1.53477e-06 -1.41212e-06 -9.98431e-05
0.00223109 6.46458e-05 -7.06031e-06
6.46458e-05 0.000699368 -7.96109e-06
-7.06031e-06 -7.96109e-06 0.000632289
0.000105251 6.14666e-05 -3.22444e-06
6.14666e-05 -0.000403521 -1.50803e-06
-3.22444e-06 -1.50803e-06 -0.000446755
0.00134383 6.23841e-05 -5.71183e-06
6.23841e-05 -0.000462231 -3.64535e-06
-5.71183e-06 -3.64535e-06 -0.000680291
0.00149912 1.15159e-05 4.67641e-07
1.15159e-05 0.000458873 4.00513e-06
4.67641e-07 4.00513e-06 0.000433394
-0.00123012 -1.49702e-06 3.01859e-06
-1.49702e-06 -0.000951229 1.98177e-08
3.01859e-06 1.98177e-08 -0.000972624
0.000629674 -2.74693e-05 -1.26831e-05
-2.74693e-05 -0.000181613 7.68064e-06
-1.26831e-05 7.68064e-06 -0.000255138
0.00243988 -5.04042e-05 2.47205e-05
-5.04042e-05 0.000751603 -1.99645e-05
2.47205e-05 -1.99645e-05 0.000307276
0.000464679 8.40331e-06 -8.41047e-05
8.40331e-06 -1.66281e-05 1.69622e-05
-8.41047e-05 1.69622e-05 -0.000104509
0.00473558 2.6535e-05 7.89638e-08
2.6535e-05 0.00146821 3.53921e-06
7.89638e-08 3.53921e-06 0.000960712
0.00176001 -3.14911e-05 1.45509e-06
-3.14911e-05 -0.000112577 -6.25843e-07
1.45509e-06 -6.25843e-07 -5.23326e-05
0.00320178 2.05991e-05 1.45994e-05
2.05991e-05 0.000619791 -1.09961e-06
1.45994e-05 -1.09961e-06 0.000274387
0.00186941 -1.31326e-05 2.21625e-05
-1.31326e-05 0.000382727 -8.09199e-06
2.21625e-05 -8.09199e-06 5.77447e-05
0.00234894 -1.06998e-05 2.78049e-07
-1.06998e-05 7.45597e-05 -7.5232e-06
2.78049e-07 -7.5232e-06 0.000185852
0.00097872 3.13951e-05 -1.61325e-05
3.13951e-05 0.000316177 1.15345e-05
-1.61325e-05 1.15345e-05 0.000182707
0.00100395 -6.3024e-05 5.68026e-06
-6.3024e-05 -9.81786e-08 -2.39726e-06
5.68026e-06 -2.39726e-06 -0.000104822
0.0013623 -6.06955e-05 -2.3677e-06
-6.06955e-05 -5.75673e-06 8.94273e-07
-2.3677e-06 8.94273e-07 -3.1995e-05
0.00162364 -2.64945e-05 -4.67227e-07
-2.64945e-05 5.94214e-05 2.05836e-06
-4.67227e-07 2.05836e-06 6.76452e-05
0.000732879 -3.88103e-05 3.6955e-06
-3.88103e-05 -0.000253801 3.1002e-06
3.6955e-06 3.1002e-06 -0.000308915
0.00127244 -2.89188e-05 5.98021e-07
-2.89188e-05 -3.23902e-05 1.2974e-06
5.98021e-07 1.2974e-06 -4.94345e-05
0.00137339 -1.46184e-05 2.74469e-06
-1.46184e-05 1.63704e-05 1.22793e-06
2.74469e-06 1.22793e-06 5.99789e-06
0.00109097 -2.66269e-05 9.23138e-07
-2.66269e-05 -5.04457e-05 2.62864e-06
9.23138e-07 2.62864e-06 -9.89239e-05
0.00128016 -2.13409e-05 4.0087e-07
-2.13409e-05 1.45764e-05 1.08972e-06
4.0087e-07 1.08972e-06 -1.77322e-05
0.00124258 -1.36378e-05 2.0888e-06
-1.36378e-05 6.4637e-06 5.60231e-07
2.0888e-06 5.60231e-07 -2.8176e-05
0.00121914 -2.30925e-05 6.76618e-07
-2.30925e-05 1.99622e-05 2.34766e-06
6.76618e-07 2.34766e-06 -3.08721e-05
0.00126916 -1.93393e-05 1.63252e-07
-1.93393e-05 3.99284e-05 6.13134e-07
1.63252e-07 6.13134e-07 -4.22233e-06
0.00123746 -1.54298e-05 7.79686e-07
-1.54298e-05 3.28256e-05 1.49075e-07
7.79686e-07 1.49075e-07 -1.39527e-05
0.00123928 -1.88562e-05 -5.36191e-07
-1.88562e-05 4.38058e-05 4.04692e-07
-5.36191e-07 4.04692e-07 -4.98683e-06
0.00129916 -1.97249e-05 6.34925e-07
-1.97249e-05 7.89405e-05 -7.09544e-07
6.34925e-07 -7.09544e-07 2.54997e-05
0.00126378 -2.11437e-05 2.35501e-07
-2.11437e-05 5.51944e-05 2.00233e-06
2.35501e-07 2.00233e-06 3.76903e-06
0.00127229 -2.24815e-05 2.26818e-08
-2.24815e-05 7.04117e-05 -2.47187e-07
2.26818e-08 -2.47187e-07 1.42617e-05
0.00126705 -2.20793e-05 -1.49775e-07
-2.20793e-05 7.47378e-05 -6.69926e-07
-1.49775e-07 -6.69926e-07 1.66261e-05
0.00106661 -2.15041e-05 -1.07269e-06
-2.15041e-05 1.59759e-06 3.31007e-07
-1.07269e-06 3.31007e-07 -5.87785e-05
0.00125071 -2.46678e-05 3.01966e-08
-2.46678e-05 7.9511e-05 -1.35123e-07
3.01966e-08 -1.35123e-07 1.6413e-05
0.00129083 -2.60862e-05 9.09451e-07
-2.60862e-05 9.25886e-05 6.06855e-07
9.09451e-07 6.06855e-07 2.78511e-05
0.00107024 -1.29468e-05 -1.00641e-06
-1.29468e-05 3.64521e-05 7.69993e-07
-1.00641e-06 7.69993e-07 -1.72521e-05
0.00106139 -2.255e-05 -2.12817e-07
-2.255e-05 1.81351e-05 2.65863e-07
-2.12817e-07 2.65863e-07 -4.27459e-05
0.00127222 -2.62574e-05 7.8223e-07
-2.62574e-05 0.000112494 -6.08857e-07
7.8223e-07 -6.08857e-07 4.67508e-05
0.000956222 1.21317e-05 -2.12359e-06
1.21317e-05 -2.87069e-07 1.37098e-06
-2.12359e-06 1.37098e-06 -3.75798e-05
0.0010607 -7.37893e-06 -4.05086e-08
-7.37893e-06 3.80631e-05 -1.46999e-09
-4.05086e-08 -1.46999e-09 -1.37691e-05
0.00113959 -2.15354e-05 5.88976e-07
-2.15354e-05 6.58902e-05 -7.00949e-07
5.88976e-07 -7.00949e-07 6.85522e-06
0.000863409 1.61737e-05 -3.66787e-06
1.61737e-05 -4.61091e-05 2.4018e-06
-3.66787e-06 2.4018e-06 -5.2903e-05
0.000977231 1.29458e-05 4.34857e-08
1.29458e-05 6.33815e-06 8.93775e-09
4.34857e-08 8.93775e-09 -2.82526e-05
0.00106229 -4.18652e-06 1.10952e-06
-4.18652e-06 3.94464e-05 -6.52545e-07
1.10952e-06 -6.52545e-07 -1.08511e-05
0.00243373 2.28808e-05 -8.74516e-06
2.28808e-05 0.000717699 3.15786e-06
-8.74516e-06 3.15786e-06 0.000735406
0.000903089 1.52531e-05 5.14404e-08
1.52531e-05 -3.28525e-05 1.82567e-08
5.14404e-08 1.82567e-08 -3.79922e-05
0.00100333 1.29217e-05 2.028e-06
1.29217e-05 1.57744e-05 -1.46239e-06
2.028e-06 -1.46239e-06 -1.69221e-05
0.00237732 2.08257e-05 1.28879e-07
2.08257e-05 0.000684654 4.99806e-08
1.28879e-07 4.99806e-08 0.00070353
0.0009297 1.40485e-05 3.32859e-06
1.40485e-05 -2.5589e-05 -2.5672e-06
3.32859e-06 -2.5672e-06 -2.94466e-05
0.00234183 1.87997e-05 8.20536e-06
1.87997e-05 0.000662393 -3.3859e-06
8.20536e-06 -3.3859e-06 0.000682216
0.00107063 1.12949e-05 -3.42667e-07
1.12949e-05 4.14056e-05 1.9351e-07
-3.42667e-07 1.9351e-07 -1.81648e-05
0.00114449 7.82397e-06 9.49351e-08
7.82397e-06 7.49597e-05 1.43611e-07
9.49351e-08 1.43611e-07 1.6508e-05
0.000949696 -5.37113e-06 -1.31483e-06
-5.37113e-06 -1.6514e-05 -7.16829e-07
-1.31483e-06 -7.16829e-07 -6.85961e-05
0.00103902 4.43045e-06 6.99031e-07
4.43045e-06 2.02919e-05 3.75836e-07
6.99031e-07 3.75836e-07 -3.89966e-05
0.00100087 -4.09814e-06 3.99107e-09
-4.09814e-06 4.79517e-06 4.613e-08
3.99107e-09 4.613e-08 -4.59836e-05
0.00100279 -1.09259e-05 -2.01088e-06
-1.09259e-05 8.95151e-06 -1.41557e-06
-2.01088e-06 -1.41557e-06 -2.41511e-05
0.00105201 -3.26146e-07 1.14137e-06
-3.26146e-07 2.68341e-05 8.19743e-07
1.14137e-06 8.19743e-07 -2.27942e-05
0.000997869 -8.71571e-06 -4.3638e-08
-8.71571e-06 2.3489e-06 1.96053e-08
-4.3638e-08 1.96053e-08 -2.96322e-05
0.000927583 -1.23147e-05 -3.14292e-06
-1.23147e-05 -3.14524e-05 -2.66622e-06
-3.14292e-06 -2.66622e-06 -3.56548e-05
0.00240311 -1.67414e-05 -8.0057e-06
-1.67414e-05 0.000687651 -3.58827e-06
-8.0057e-06 -3.58827e-06 0.000707691
0.000922541 -1.09948e-05 -7.92396e-08
-1.09948e-05 -3.76441e-05 2.84026e-08
-7.92396e-08 2.84026e-08 -4.11271e-05
0.000999461 -6.98739e-06 1.64699e-06
-6.98739e-06 3.83169e-07 1.66153e-06
1.64699e-06 1.66153e-06 -3.08961e-05
0.00242835 -1.47584e-05 -2.00173e-07
-1.47584e-05 0.000695468 4.11657e-08
-2.00173e-07 4.11657e-08 0.000716123
0.000919659 -9.8361e-06 2.27314e-06
-9.8361e-06 -4.2239e-05 2.9459e-06
2.27314e-06 2.9459e-06 -4.50711e-05
0.00241511 -1.27816e-05 6.43861e-06
-1.27816e-05 0.000684532 3.79674e-06
6.43861e-06 3.79674e-06 0.000706064
0.0055583 3.85389e-05 4.41992e-06
3.85389e-05 0.00160868 9.48723e-07
4.41992e-06 9.48723e-07 0.00132045
-0.00120175 -5.26178e-06 1.31718e-05
-5.26178e-06 -0.000453089 1.10637e-06
1.31718e-05 1.10637e-06 -0.000433618
0.000504414 -1.65625e-05 7.47274e-06
-1.65625e-05 0.000106592 2.11114e-06
7.47274e-06 2.11114e-06 0.000115077
0.00111864 2.1821e-05 7.19778e-07
2.1821e-05 5.50255e-05 -2.18335e-07
7.19778e-07 -2.18335e-07 -9.85825e-06
0.00115201 1.95546e-05 3.52041e-07
1.95546e-05 7.60957e-05 -2.37944e-07
3.52041e-07 -2.37944e-07 1.43417e-05
0.00116206 2.2654e-05 -9.53823e-09
2.2654e-05 7.86269e-05 1.56317e-09
-9.53823e-09 1.56317e-09 1.37095e-05
0.00115163 2.17752e-05 6.62664e-09
2.17752e-05 7.8404e-05 -2.70016e-08
6.62664e-09 -2.70016e-08 1.64151e-05
0.0011682 2.23813e-05 5.59438e-07
2.23813e-05 9.16175e-05 4.50935e-07
5.59438e-07 4.50935e-07 2.83918e-05
0.00107065 2.23586e-05 -2.98778e-07
2.23586e-05 3.9824e-05 6.01394e-07
-2.98778e-07 6.01394e-07 -2.48076e-05
0.00104035 2.19036e-05 1.64779e-07
2.19036e-05 2.32969e-05 -4.10278e-07
1.64779e-07 -4.10278e-07 -4.64221e-05
0.00104712 2.26465e-05 4.11927e-07
2.26465e-05 2.86722e-05 -7.94408e-08
4.11927e-07 -7.94408e-08 -3.84314e-05
0.00105382 2.50557e-05 4.97305e-07
2.50557e-05 3.881e-05 -1.06595e-07
4.97305e-07 -1.06595e-07 -3.18181e-05
0.000882186 2.49157e-05 5.90485e-07
2.49157e-05 -4.57149e-05 4.46446e-07
5.90485e-07 4.46446e-07 -0.000112955
0.00184456 3.5932e-05 1.06112e-06
3.5932e-05 0.000399473 9.57914e-07
1.06112e-06 9.57914e-07 0.000332333
0.00133111 4.45468e-05 1.07593e-06
4.45468e-05 0.000133569 -2.51952e-06
1.07593e-06 -2.51952e-06 4.40522e-05
0.00114576 3.00748e-05 2.77396e-08
3.00748e-05 8.59112e-05 4.44746e-07
2.77396e-08 4.44746e-07 1.89852e-05
0.00109725 2.32355e-05 -6.91773e-07
2.32355e-05 5.05363e-05 -1.99264e-06
-6.91773e-07 -1.99264e-06 -1.8831e-05
0.000784391 -3.22451e-06 -2.40396e-05
-3.22451e-06 0.000125123 -9.18618e-06
-2.40396e-05 -9.18618e-06 7.49933e-05
0.00312729 -8.99403e-06 -1.78204e-05
-8.99403e-06 0.00040063 -2.5354e-06
-1.78204e-05 -2.5354e-06 7.29178e-05
0.00150317 -7.3889e-05 -1.94606e-05
-7.3889e-05 0.000617944 -8.48806e-06
-1.94606e-05 -8.48806e-06 0.000540693
0.00305769 -2.96647e-05 2.79302e-05
-2.96647e-05 0.000180779 -2.30394e-07
2.79302e-05 -2.30394e-07 -0.000348842
0.00186437 7.00273e-05 1.18836e-05
7.00273e-05 0.000642879 2.43839e-05
1.18836e-05 2.43839e-05 0.000525703
0.000492141 3.81505e-05 -7.36156e-06
3.81505e-05 -0.000106262 -1.74074e-06
-7.36156e-06 -1.74074e-06 -0.000196627
0.00106274 1.22776e-05 1.57114e-05
1.22776e-05 -0.000143038 7.40442e-06
1.57114e-05 7.40442e-06 -0.000219043
0.000801222 5.1429e-05 6.97654e-07
5.1429e-05 -9.17909e-05 2.88025e-06
6.97654e-07 2.88025e-06 -0.00019566
0.000582771 3.61679e-05 -4.01916e-07
3.61679e-05 -0.000115213 3.07421e-07
-4.01916e-07 3.07421e-07 -0.00020139
0.00120374 7.35401e-05 -1.78107e-05
7.35401e-05 1.32006e-06 -1.76055e-05
-1.78107e-05 -1.76055e-05 -2.74575e-05
0.000999491 1.97921e-05 -7.40512e-05
1.97921e-05 -3.82184e-05 -5.48469e-06
-7.40512e-05 -5.48469e-06 -0.000200825
0.0050731 5.10656e-05 1.75989e-05
5.10656e-05 0.00145808 -2.23727e-06
1.75989e-05 -2.23727e-06 0.00120559
-0.00381877 2.97093e-06 -5.44052e-05
2.97093e-06 -0.00200257 2.40138e-06
-5.44052e-05 2.40138e-06 -0.00193201
0.00190166 -2.76784e-05 -7.5312e-06
-2.76784e-05 -4.0855e-05 5.50208e-06
-7.5312e-06 5.50208e-06 1.99304e-05
0.000366659 1.71904e-05 2.15586e-05
1.71904e-05 7.65662e-05 -1.06787e-05
2.15586e-05 -1.06787e-05 -0.000147296
0.000716595 -2.44894e-05 1.42289e-05
-2.44894e-05 -0.000208617 1.96895e-06
1.42289e-05 1.96895e-06 -0.000492371
0.0018903 -1.93527e-05 -2.70362e-06
-1.93527e-05 -0.000109741 1.62876e-06
-2.70362e-06 1.62876e-06 -1.63944e-05
0.000962751 4.44819e-05 4.09534e-06
4.44819e-05 0.000108714 -2.08471e-06
4.09534e-06 -2.08471e-06 -2.31113e-05
0.00237426 2.16804e-05 7.35575e-06
2.16804e-05 0.000285863 -6.32833e-06
7.35575e-06 -6.32833e-06 0.000342722
0.000840659 4.12762e-05 3.44013e-06
4.12762e-05 -1.22214e-05 -3.72502e-06
3.44013e-06 -3.72502e-06 -7.54628e-05
0.00120489 -5.84046e-05 4.2543e-06
-5.84046e-05 -7.75315e-05 1.10768e-06
4.2543e-06 1.10768e-06 -9.80297e-05
0.00141771 -2.51611e-05 3.12819e-06
-2.51611e-05 -3.37417e-05 3.28769e-07
3.12819e-06 3.28769e-07 -2.31508e-05
0.00141038 7.48661e-06 1.77786e-06
7.48661e-06 1.66945e-05 2.75176e-06
1.77786e-06 2.75176e-06 6.01275e-06
0.000959334 -2.81325e-05 2.48205e-06
-2.81325e-05 -0.000178546 2.95208e-06
2.48205e-06 2.95208e-06 -0.000195959
0.00137871 -1.50163e-05 7.86625e-07
-1.50163e-05 2.68768e-05 8.90666e-07
7.86625e-07 8.90666e-07 1.35511e-05
0.00135925 -1.79659e-06 2.02849e-06
-1.79659e-06 4.69366e-05 1.42309e-06
2.02849e-06 1.42309e-06 1.30581e-05
0.00127331 -2.14185e-05 4.80632e-08
-2.14185e-05 1.33465e-05 2.63462e-06
4.80632e-08 2.63462e-06 -1.9944e-05
0.00130412 -1.40674e-05 7.07594e-08
-1.40674e-05 3.84985e-05 5.14708e-07
7.07594e-08 5.14708e-07 2.63334e-06
0.00130854 -8.52177e-06 9.68309e-07
-8.52177e-06 5.10776e-05 5.23826e-07
9.68309e-07 5.23826e-07 3.81628e-06
0.00132778 -2.00167e-05 -5.35982e-07
-2.00167e-05 6.84371e-05 1.42549e-06
-5.35982e-07 1.42549e-06 2.35815e-05
0.00125343 -1.63544e-05 -2.87674e-07
-1.63544e-05 4.283e-05 -1.91092e-08
-2.87674e-07 -1.91092e-08 -4.17423e-06
0.00124775 -1.68419e-05 9.89404e-07
-1.68419e-05 4.91576e-05 1.47569e-07
9.89404e-07 1.47569e-07 -5.06182e-06
0.00120009 -1.91499e-05 -8.63607e-07
-1.91499e-05 2.5739e-05 8.61982e-07
-8.63607e-07 8.61982e-07 -2.22986e-05
0.00124313 -1.91257e-05 -2.98889e-07
-1.91257e-05 5.17299e-05 -2.57365e-07
-2.98889e-07 -2.57365e-07 -9.86796e-07
0.00129126 -2.01179e-05 2.82859e-07
-2.01179e-05 8.15529e-05 -4.3544e-07
2.82859e-07 -4.3544e-07 2.47226e-05
0.00128031 -2.24067e-05 1.73439e-07
-2.24067e-05 7.34233e-05 9.34594e-07
1.73439e-07 9.34594e-07 1.72224e-05
0.00126208 -2.19986e-05 7.27308e-08
-2.19986e-05 7.21829e-05 -2.11008e-07
7.27308e-08 -2.11008e-07 1.39449e-05
0.00124827 -2.06137e-05 -4.15457e-07
-2.06137e-05 7.64054e-05 -2.16583e-07
-4.15457e-07 -2.16583e-07 1.88223e-05
0.000957437 -1.40732e-05 -1.48087e-06
-1.40732e-05 -3.17888e-05 7.64436e-07
-1.48087e-06 7.64436e-07 -8.70111e-05
0.00113166 -2.20842e-05 -2.03832e-07
-2.20842e-05 3.43614e-05 1.23205e-07
-2.03832e-07 1.23205e-07 -2.5798e-05
0.00124394 -2.46435e-05 7.54899e-07
-2.46435e-05 7.6972e-05 -4.90504e-08
7.54899e-07 -4.90504e-08 1.35948e-05
0.000971756 7.02201e-06 -2.10165e-06
7.02201e-06 7.83011e-06 1.38892e-06
-2.10165e-06 1.38892e-06 -3.28962e-05
0.00107408 -1.20391e-05 1.87366e-08
-1.20391e-05 3.82895e-05 6.46496e-08
1.87366e-08 6.46496e-08 -1.53833e-05
0.00113266 -2.31456e-05 5.30204e-07
-2.31456e-05 5.33886e-05 -3.73161e-07
5.30204e-07 -3.73161e-07 -7.19893e-06
0.000842235 1.69314e-05 -3.92539e-06
1.69314e-05 -4.98006e-05 2.26936e-06
-3.92539e-06 2.26936e-06 -5.88173e-05
0.000978079 1.04998e-05 1.8444e-08
1.04998e-05 9.05356e-06 -3.2663e-08
1.8444e-08 -3.2663e-08 -2.81282e-05
0.00107721 -7.65604e-06 1.0413e-06
-7.65604e-06 4.51139e-05 -7.77176e-07
1.0413e-06 -7.77176e-07 -6.67334e-06
0.00245953 2.48171e-05 -9.03221e-06
2.48171e-05 0.000737417 3.01889e-06
-9.03221e-06 3.01889e-06 0.000753732
0.00089162 1.62326e-05 6.31581e-08
1.62326e-05 -3.26017e-05 2.76459e-08
6.31581e-08 2.76459e-08 -3.95333e-05
0.000995977 1.25144e-05 2.1164e-06
1.25144e-05 1.49814e-05 -1.33954e-06
2.1164e-06 -1.33954e-06 -1.95786e-05
0.00238281 2.27971e-05 1.35826e-07
2.27971e-05 0.000693841 5.68345e-08
1.35826e-07 5.68345e-08 0.000711573
0.000928417 1.53089e-05 3.57296e-06
1.53089e-05 -2.06498e-05 -2.45701e-06
3.57296e-06 -2.45701e-06 -2.5917e-05
0.00232683 2.07804e-05 8.46931e-06
2.07804e-05 0.000660829 -3.25354e-06
8.46931e-06 -3.25354e-06 0.00067979
0.00111807 1.55553e-05 -3.97101e-07
1.55553e-05 6.66709e-05 -7.35569e-08
-3.97101e-07 -7.35569e-08 6.54196e-06
0.00114325 1.22844e-05 3.74477e-08
1.22844e-05 7.6487e-05 4.48338e-08
3.74477e-08 4.48338e-08 1.73832e-05
0.000957153 -3.55463e-06 -1.13461e-06
-3.55463e-06 -8.33229e-06 -5.28033e-07
-1.13461e-06 -5.28033e-07 -6.17505e-05
0.00113655 8.31753e-06 5.02069e-07
8.31753e-06 7.15665e-05 5.34303e-08
5.02069e-07 5.34303e-08 1.31185e-05
0.000947223 -5.41191e-06 -1.73241e-07
-5.41191e-06 -1.67398e-05 -1.81976e-07
-1.73241e-07 -1.81976e-07 -6.90266e-05
0.000995906 -1.27619e-05 -2.06242e-06
-1.27619e-05 1.07476e-05 -1.27478e-06
-2.06242e-06 -1.27478e-06 -2.39404e-05
0.000940403 -4.81882e-06 1.12134e-06
-4.81882e-06 -2.41996e-05 7.37078e-07
1.12134e-06 7.37078e-07 -7.55283e-05
0.000991863 -1.06589e-05 -1.80327e-08
-1.06589e-05 3.53319e-06 2.10353e-08
-1.80327e-08 2.10353e-08 -2.95172e-05
0.00092334 -1.37149e-05 -3.3755e-06
-1.37149e-05 -2.89996e-05 -2.52639e-06
-3.3755e-06 -2.52639e-06 -3.41761e-05
0.000991328 -8.42222e-06 1.8881e-06
-8.42222e-06 -1.0535e-06 1.58319e-06
1.8881e-06 1.58319e-06 -3.29795e-05
0.000914974 -1.22616e-05 -6.27047e-08
-1.22616e-05 -3.77636e-05 3.26049e-08
-6.27047e-08 3.26049e-08 -4.18724e-05
0.00239219 -1.87438e-05 -8.33704e-06
-1.87438e-05 0.000686956 -3.44135e-06
-8.33704e-06 -3.44135e-06 0.000706297
0.0024393 -1.67407e-05 -1.7061e-07
-1.67407e-05 0.000704903 4.61256e-08
-1.7061e-07 4.61256e-08 0.000724847
0.000911214 -1.09588e-05 2.63642e-06
-1.09588e-05 -4.32528e-05 2.84798e-06
2.63642e-06 2.84798e-06 -4.66616e-05
0.00245304 -1.47609e-05 7.26507e-06
-1.47609e-05 0.000707126 3.74552e-06
7.26507e-06 3.74552e-06 0.000727741
0.000432936 -1.63479e-05 -3.24953e-05
-1.63479e-05 -9.12798e-05 -6.29706e-06
-3.24953e-05 -6.29706e-06 -0.000138528
0.00159997 3.98969e-05 -1.34183e-05
3.98969e-05 -0.000319396 -4.74883e-06
-1.34183e-05 -4.74883e-06 -0.000586531
0.0025365 -5.22756e-05 -1.73946e-05
-5.22756e-05 0.000988718 -3.67872e-06
-1.73946e-05 -3.67872e-06 0.0009651
0.00119435 2.428e-05 1.14438e-06
2.428e-05 9.97712e-05 5.00839e-07
1.14438e-06 5.00839e-07 3.55036e-05
0.00118392 2.28865e-05 3.41575e-07
2.28865e-05 8.95132e-05 -3.99741e-07
3.41575e-07 -3.99741e-07 2.47272e-05
0.0011532 2.20685e-05 2.18336e-07
2.20685e-05 7.90164e-05 -3.14277e-07
2.18336e-07 -3.14277e-07 1.71352e-05
0.00112876 2.29248e-05 1.60257e-08
2.29248e-05 6.75303e-05 -1.75111e-08
1.60257e-08 -1.75111e-08 2.80522e-06
0.0011321 2.2487e-05 -1.73438e-07
2.2487e-05 7.52953e-05 -2.08191e-07
-1.73438e-07 -2.08191e-07 1.18639e-05
0.000989197 2.37825e-05 -3.07491e-07
2.37825e-05 8.50427e-06 6.77809e-07
-3.07491e-07 6.77809e-07 -5.49345e-05
0.00117494 2.36484e-05 6.92304e-07
2.36484e-05 8.94687e-05 -7.63596e-07
6.92304e-07 -7.63596e-07 2.22608e-05
0.00103008 2.48902e-05 -4.14503e-07
2.48902e-05 3.21484e-05 -1.80991e-06
-4.14503e-07 -1.80991e-06 -3.82372e-05
0.00110317 2.67902e-05 -9.2175e-08
2.67902e-05 5.79432e-05 -9.86233e-09
-9.2175e-08 -9.86233e-09 -9.21177e-06
0.00142796 3.22193e-05 2.68618e-08
3.22193e-05 0.000215434 -1.02815e-07
2.68618e-08 -1.02815e-07 0.000150022
0.00126659 3.69793e-05 1.28627e-06
3.69793e-05 0.000105345 -1.73251e-06
1.28627e-06 -1.73251e-06 2.96759e-05
0.00152901 4.28397e-05 -5.10024e-06
4.28397e-05 0.000113131 -1.23432e-06
-5.10024e-06 -1.23432e-06 1.3128e-05
0.00116827 4.20747e-05 1.94829e-06
4.20747e-05 6.50779e-05 2.05019e-06
1.94829e-06 2.05019e-06 -2.17568e-05
0.000958699 2.81497e-05 -1.35959e-06
2.81497e-05 -6.24631e-06 6.40931e-07
-1.35959e-06 6.40931e-07 -7.34592e-05
0.00125836 -3.91679e-05 7.26993e-06
-3.91679e-05 -0.000246827 7.91978e-06
7.26993e-06 7.91978e-06 -0.000295988
0.000745828 1.24133e-05 1.90198e-06
1.24133e-05 -0.000109389 8.7466e-07
1.90198e-06 8.7466e-07 -0.000200026
0.00056044 -1.26216e-05 -2.96074e-05
-1.26216e-05 -0.000489624 -2.1335e-05
-2.96074e-05 -2.1335e-05 -0.000747052
0.00237534 7.18353e-05 1.23461e-05
7.18353e-05 0.00036031 2.55148e-05
1.23461e-05 2.55148e-05 0.000185849
0.00160738 2.07632e-05 6.58825e-06
2.07632e-05 5.22634e-05 1.75483e-06
6.58825e-06 1.75483e-06 -4.48985e-05
0.000133252 5.13702e-05 -1.1277e-09
5.13702e-05 -0.000424342 8.42851e-06
-1.1277e-09 8.42851e-06 -0.000525517
0.00164076 -6.41706e-06 8.50544e-06
-6.41706e-06 0.000485833 -4.56695e-06
8.50544e-06 -4.56695e-06 0.000443366
0.000192008 8.01782e-06 -1.34662e-05
8.01782e-06 -3.83375e-05 -3.81442e-07
-1.34662e-05 -3.81442e-07 -0.000119064
0.000878274 9.52898e-05 4.53032e-05
9.52898e-05 -0.000716355 -4.98727e-06
4.53032e-05 -4.98727e-06 -0.000940241
0.00139677 -2.99586e-05 7.08397e-07
-2.99586e-05 -0.000312898 4.1077e-06
7.08397e-07 4.1077e-06 -0.000233102
0.000831294 2.98536e-05 3.02145e-05
2.98536e-05 -0.00012767 -8.97994e-06
3.02145e-05 -8.97994e-06 -0.000309239
0.00181652 9.81701e-06 3.3516e-06
9.81701e-06 2.99398e-05 6.93333e-07
3.3516e-06 6.93333e-07 7.2794e-05
0.000965139 4.42027e-05 9.68841e-07
4.42027e-05 4.85284e-05 -2.29424e-06
9.68841e-07 -2.29424e-06 -1.61981e-05
0.00132844 4.00815e-05 -1.20304e-06
4.00815e-05 5.09898e-07 1.75419e-06
-1.20304e-06 1.75419e-06 -5.58409e-05
0.000384676 2.76436e-05 -1.14571e-06
2.76436e-05 -0.000352317 -3.86755e-06
-1.14571e-06 -3.86755e-06 -0.000427841
0.00138427 -2.36831e-05 3.35138e-06
-2.36831e-05 -4.48406e-05 1.29046e-06
3.35138e-06 1.29046e-06 -3.07165e-05
0.00148883 6.30412e-06 2.41698e-07
6.30412e-06 6.47371e-05 9.92296e-08
2.41698e-07 9.92296e-08 4.95093e-05
0.00149013 1.90587e-05 5.88657e-07
1.90587e-05 0.000125915 9.19178e-07
5.88657e-07 9.19178e-07 7.56346e-05
0.00142262 -1.52518e-05 -1.51e-06
-1.52518e-05 5.53768e-05 9.31491e-07
-1.51e-06 9.31491e-07 3.93655e-05
0.00141321 -1.88339e-06 -3.45466e-07
-1.88339e-06 7.59557e-05 -2.20051e-07
-3.45466e-07 -2.20051e-07 4.10765e-05
0.00139335 4.04691e-06 1.24698e-06
4.04691e-06 7.97931e-05 1.02407e-06
1.24698e-06 1.02407e-06 2.78478e-05
0.00137483 -1.45215e-05 -1.95752e-06
-1.45215e-05 7.4876e-05 4.21082e-07
-1.95752e-06 4.21082e-07 3.77734e-05
0.00131113 -9.54417e-06 -6.74857e-07
-9.54417e-06 5.64097e-05 -4.11478e-07
-6.74857e-07 -4.11478e-07 9.28047e-06
0.00126829 -1.12848e-05 7.00067e-07
-1.12848e-05 4.57523e-05 7.53817e-07
7.00067e-07 7.53817e-07 -1.23765e-05
0.00126691 -1.72375e-05 -1.52166e-06
-1.72375e-05 5.16178e-05 -2.49348e-07
-1.52166e-06 -2.49348e-07 4.39815e-06
0.001247 -1.65727e-05 4.63811e-08
-1.65727e-05 4.90984e-05 -2.0047e-07
4.63811e-08 -2.0047e-07 -5.11357e-06
0.00124676 -1.83362e-05 3.97867e-07
-1.83362e-05 5.60585e-05 7.2539e-08
3.97867e-07 7.2539e-08 -2.37918e-06
0.0011857 -1.85738e-05 -9.36523e-07
-1.85738e-05 2.38486e-05 4.75378e-07
-9.36523e-07 4.75378e-07 -2.81414e-05
0.00122858 -1.92683e-05 -5.62562e-08
-1.92683e-05 5.06907e-05 -1.92794e-07
-5.62562e-08 -1.92794e-07 -5.69485e-06
0.00119269 -1.84796e-05 -3.04817e-07
-1.84796e-05 4.33367e-05 -1.64944e-07
-3.04817e-07 -1.64944e-07 -1.42499e-05
0.00125834 -2.19245e-05 3.84602e-07
-2.19245e-05 7.0215e-05 3.70123e-07
3.84602e-07 3.70123e-07 1.18489e-05
0.00118317 -2.01196e-05 9.78228e-08
-2.01196e-05 4.48425e-05 -1.39092e-07
9.78228e-08 -1.39092e-07 -1.3054e-05
0.00113513 -1.513e-05 -1.03835e-06
-1.513e-05 4.04585e-05 3.18434e-07
-1.03835e-06 3.18434e-07 -1.42641e-05
0.000992542 1.46461e-06 -2.28598e-06
1.46461e-06 1.37356e-05 1.26591e-06
-2.28598e-06 1.26591e-06 -3.01377e-05
0.00102913 -1.40897e-05 -3.25991e-07
-1.40897e-05 3.99457e-06 2.57289e-07
-3.25991e-07 2.57289e-07 -5.08643e-05
0.00119316 -2.26234e-05 6.16593e-07
-2.26234e-05 6.54614e-05 -1.65656e-07
6.16593e-07 -1.65656e-07 5.52124e-06
0.000815141 1.74549e-05 -4.12169e-06
1.74549e-05 -5.64593e-05 2.22612e-06
-4.12169e-06 2.22612e-06 -6.83186e-05
0.000984635 5.06987e-06 7.7504e-08
5.06987e-06 1.24142e-05 5.54735e-09
7.7504e-08 5.54735e-09 -2.81384e-05
0.00107986 -1.12306e-05 1.10075e-06
-1.12306e-05 4.10074e-05 -6.99619e-07
1.10075e-06 -6.99619e-07 -1.26329e-05
0.00250161 2.66764e-05 -9.3442e-06
2.66764e-05 0.000765849 2.86814e-06
-9.3442e-06 2.86814e-06 0.000780534
0.000877085 1.70057e-05 2.61834e-08
1.70057e-05 -3.31741e-05 3.52896e-09
2.61834e-08 3.52896e-09 -4.23698e-05
0.000999268 8.71675e-06 2.14426e-06
8.71675e-06 1.81096e-05 -1.33523e-06
2.14426e-06 -1.33523e-06 -1.8966e-05
0.00240748 2.46883e-05 1.45065e-07
2.46883e-05 0.000713187 6.44246e-08
1.45065e-07 6.44246e-08 0.000729492
0.000919628 1.62878e-05 3.86832e-06
1.62878e-05 -1.91823e-05 -2.32132e-06
3.86832e-06 -2.32132e-06 -2.62522e-05
0.0023324 2.27064e-05 8.76705e-06
2.27064e-05 0.000670227 -3.12972e-06
8.76705e-06 -3.12972e-06 0.000687984
0.00106229 1.95061e-05 -2.84467e-07
1.95061e-05 3.7854e-05 -1.44224e-07
-2.84467e-07 -1.44224e-07 -2.35027e-05
0.00109724 1.57338e-05 -7.04997e-08
1.57338e-05 5.65814e-05 -1.27556e-07
-7.04997e-08 -1.27556e-07 -3.46596e-06
0.00106534 8.23896e-07 -8.84965e-07
8.23896e-07 4.62043e-05 -2.72186e-07
-8.84965e-07 -2.72186e-07 -7.89635e-06
0.00121708 1.34055e-05 3.38027e-07
1.34055e-05 0.000112158 -1.93626e-07
3.38027e-07 -1.93626e-07 5.35131e-05
0.000999551 -3.70154e-06 -1.50061e-07
-3.70154e-06 1.30492e-05 -1.4992e-07
-1.50061e-07 -1.4992e-07 -4.01928e-05
0.000989774 -1.35125e-05 -2.06773e-06
-1.35125e-05 1.3048e-05 -1.1467e-06
-2.06773e-06 -1.1467e-06 -2.37147e-05
0.00094475 -5.45436e-06 8.80612e-07
-5.45436e-06 -1.69522e-05 3.33763e-07
8.80612e-07 3.33763e-07 -6.94453e-05
0.000982273 -1.25217e-05 -2.10287e-08
-1.25217e-05 4.15728e-06 2.46801e-08
-2.10287e-08 2.46801e-08 -3.04989e-05
0.000917736 -1.5112e-05 -3.59925e-06
-1.5112e-05 -2.60609e-05 -2.37018e-06
-3.59925e-06 -2.37018e-06 -3.26993e-05
0.000980951 -1.0375e-05 2.0272e-06
-1.0375e-05 -1.8798e-06 1.47938e-06
2.0272e-06 1.47938e-06 -3.48775e-05
0.000906829 -1.36507e-05 -4.06667e-08
-1.36507e-05 -3.71884e-05 2.66769e-08
-4.06667e-08 2.66769e-08 -4.22494e-05
0.00238132 -2.07544e-05 -8.58306e-06
-2.07544e-05 0.00068735 -3.29338e-06
-8.58306e-06 -3.29338e-06 0.000705775
0.000902245 -1.22077e-05 2.96867e-06
-1.22077e-05 -4.41419e-05 2.73462e-06
2.96867e-06 2.73462e-06 -4.81555e-05
0.00243957 -1.87545e-05 -1.51528e-07
-1.87545e-05 0.000709506 5.15169e-08
-1.51528e-07 5.15169e-08 0.00072873
0.00247521 -1.67489e-05 7.90207e-06
-1.67489e-05 0.000722028 3.64266e-06
7.90207e-06 3.64266e-06 0.000741875
0.0009906 -5.68807e-05 9.29797e-06
-5.68807e-05 -0.000222694 6.61396e-07
9.29797e-06 6.61396e-07 -0.000234325
0.00113509 4.93711e-06 -6.5507e-06
4.93711e-06 -3.11938e-05 4.87563e-06
-6.5507e-06 4.87563e-06 -0.000151145
0.00424196 4.03731e-05 -4.70444e-05
4.03731e-05 0.00101525 -1.69532e-05
-4.70444e-05 -1.69532e-05 0.000747332
0.000982552 2.35727e-05 7.65076e-07
2.35727e-05 -7.41827e-07 5.73201e-07
7.65076e-07 5.73201e-07 -6.42054e-05
0.00128996 2.7643e-05 9.30426e-07
2.7643e-05 0.000124028 -3.03876e-07
9.30426e-07 -3.03876e-07 5.7464e-05
0.00103368 2.33529e-05 2.30362e-07
2.33529e-05 2.71863e-05 -1.39207e-08
2.30362e-07 -1.39207e-08 -3.71968e-05
0.00118512 2.34801e-05 1.83722e-07
2.34801e-05 9.42162e-05 -6.66853e-07
1.83722e-07 -6.66853e-07 2.94225e-05
0.00110385 2.26779e-05 -2.4443e-07
2.26779e-05 6.26044e-05 -4.04527e-07
-2.4443e-07 -4.04527e-07 -1.03193e-06
0.00110112 2.50131e-05 9.61223e-08
2.50131e-05 6.02535e-05 2.37208e-07
9.61223e-08 2.37208e-07 -3.34959e-06
0.00122384 3.33248e-05 4.45123e-08
3.33248e-05 7.41123e-05 -7.6814e-07
4.45123e-08 -7.6814e-07 1.53285e-06
0.0013095 2.85488e-05 3.72736e-07
2.85488e-05 0.000154759 -4.26322e-07
3.72736e-07 -4.26322e-07 8.76924e-05
0.00102164 2.85971e-05 -3.17182e-06
2.85971e-05 3.60042e-05 -1.30625e-06
-3.17182e-06 -1.30625e-06 -2.76607e-05
0.00114577 3.61194e-05 1.04741e-07
3.61194e-05 4.80764e-05 -8.88282e-08
1.04741e-07 -8.88282e-08 -2.8312e-05
0.00119054 3.55401e-05 6.23465e-07
3.55401e-05 -2.63369e-05 -1.4e-06
6.23465e-07 -1.4e-06 -0.000115641
0.00159215 3.00901e-06 -2.70782e-06
3.00901e-06 0.000101352 3.62904e-06
-2.70782e-06 3.62904e-06 3.92146e-05
0.00158347 4.1244e-05 -2.11365e-06
4.1244e-05 0.000138126 7.23758e-07
-2.11365e-06 7.23758e-07 4.07986e-05
0.00100902 3.97589e-05 -1.38325e-07
3.97589e-05 -1.56462e-06 5.23212e-06
-1.38325e-07 5.23212e-06 -8.57038e-05
0.00183122 -3.52035e-05 1.37538e-06
-3.52035e-05 2.60858e-05 -2.82255e-07
1.37538e-06 -2.82255e-07 -2.42281e-05
0.00111227 7.17022e-06 5.75276e-05
7.17022e-06 -0.000103001 1.57846e-05
5.75276e-05 1.57846e-05 -0.000236284
0.0022479 2.95884e-05 -6.32693e-06
2.95884e-05 0.000297923 -4.26018e-07
-6.32693e-06 -4.26018e-07 0.00017907
0.00130829 1.18311e-06 2.27419e-07
1.18311e-06 0.00011624 -2.9669e-06
2.27419e-07 -2.9669e-06 7.24453e-05
0.000895682 -1.23427e-05 3.36637e-06
-1.23427e-05 0.000110967 -9.25318e-07
3.36637e-06 -9.25318e-07 7.90208e-05
0.000942126 3.36832e-05 3.16044e-05
3.36832e-05 -0.000115618 3.09084e-06
3.16044e-05 3.09084e-06 -0.000221891
0.00143004 -2.61151e-06 5.51496e-06
-2.61151e-06 -0.000139509 -1.57925e-06
5.51496e-06 -1.57925e-06 -0.000118015
0.000985738 4.61021e-05 -4.66866e-06
4.61021e-05 6.50312e-05 -7.64414e-08
-4.66866e-06 -7.64414e-08 -1.9749e-07
0.00152131 4.08871e-05 -2.26329e-06
4.08871e-05 8.79533e-05 8.21777e-07
-2.26329e-06 8.21777e-07 3.4126e-05
0.00105727 3.24817e-05 3.73786e-07
3.24817e-05 -2.5915e-05 1.45445e-06
3.73786e-07 1.45445e-06 -9.83698e-05
0.00128518 3.11609e-05 -9.82562e-07
3.11609e-05 6.39197e-05 -1.55536e-06
-9.82562e-07 -1.55536e-06 -6.37175e-06
0.00137792 2.7692e-05 -3.50076e-07
2.7692e-05 0.000165818 -1.85473e-06
-3.50076e-07 -1.85473e-06 0.000109996
0.00148267 4.93666e-06 -2.3112e-06
4.93666e-06 7.15721e-05 -1.84812e-06
-2.3112e-06 -1.84812e-06 5.14033e-05
0.00142256 1.79605e-05 -4.47291e-07
1.79605e-05 9.33656e-05 -1.32693e-06
-4.47291e-07 -1.32693e-06 4.41086e-05
0.00147052 2.29116e-05 3.92982e-08
2.29116e-05 0.000123989 3.22877e-07
3.92982e-08 3.22877e-07 6.04333e-05
0.00144068 -1.98873e-06 -3.46467e-06
-1.98873e-06 9.19788e-05 -1.0193e-06
-3.46467e-06 -1.0193e-06 5.62176e-05
0.00136596 4.03207e-06 -1.96807e-07
4.03207e-06 6.92657e-05 -2.7964e-07
-1.96807e-07 -2.7964e-07 1.70134e-05
0.00123669 3.14059e-06 4.27728e-07
3.14059e-06 1.7287e-05 9.20103e-07
4.27728e-07 9.20103e-07 -4.45625e-05
0.00130899 -1.04772e-05 -2.40705e-06
-1.04772e-05 5.93735e-05 -9.8688e-07
-2.40705e-06 -9.8688e-07 1.24021e-05
0.00127575 -1.07735e-05 1.05213e-07
-1.07735e-05 4.94163e-05 -1.25107e-07
1.05213e-07 -1.25107e-07 -8.70419e-06
0.00126243 -1.39403e-05 2.54456e-07
-1.39403e-05 5.23447e-05 5.06637e-07
2.54456e-07 5.06637e-07 -9.59014e-06
0.00124729 -1.62713e-05 -9.1269e-07
-1.62713e-05 4.95121e-05 -5.48791e-07
-9.1269e-07 -5.48791e-07 -4.69079e-06
0.00124541 -1.79886e-05 5.00234e-09
-1.79886e-05 5.51043e-05 -1.43965e-07
5.00234e-09 -1.43965e-07 -3.29798e-06
0.00122281 -1.81359e-05 -1.70611e-07
-1.81359e-05 5.3832e-05 9.28885e-08
-1.70611e-07 9.28885e-08 -5.51336e-06
0.00116547 -1.84809e-05 -2.67702e-07
-1.84809e-05 1.96305e-05 1.87836e-07
-2.67702e-07 1.87836e-07 -3.63119e-05
0.00116281 -1.81475e-05 -9.25588e-08
-1.81475e-05 2.86536e-05 -8.56808e-08
-9.25588e-08 -8.56808e-08 -2.88361e-05
0.00115939 -1.45517e-05 -9.36005e-07
-1.45517e-05 4.46555e-05 1.72019e-07
-9.36005e-07 1.72019e-07 -1.04191e-05
0.0011176 -1.96416e-05 7.58329e-07
-1.96416e-05 1.31006e-05 -3.53431e-08
7.58329e-07 -3.53431e-08 -4.51147e-05
0.00105522 -1.4057e-05 -4.07501e-08
-1.4057e-05 2.77754e-06 3.51004e-08
-4.07501e-08 3.51004e-08 -5.2118e-05
0.00100809 -6.3745e-07 -2.37904e-06
-6.3745e-07 1.50533e-05 9.94322e-07
-2.37904e-06 9.94322e-07 -3.10202e-05
0.000841347 1.80229e-05 -4.40123e-06
1.80229e-05 -3.91684e-05 2.15517e-06
-4.40123e-06 2.15517e-06 -5.40223e-05
0.000991968 4.96114e-07 6.10103e-08
4.96114e-07 1.1834e-05 6.1717e-08
6.10103e-08 6.1717e-08 -3.18118e-05
0.00110286 -1.41489e-05 8.16369e-07
-1.41489e-05 4.07118e-05 -3.04072e-07
8.16369e-07 -3.04072e-07 -1.37832e-05
0.00257284 2.85192e-05 -9.64606e-06
2.85192e-05 0.000808523 2.72348e-06
-9.64606e-06 2.72348e-06 0.00082134
0.000858509 1.75557e-05 5.07329e-08
1.75557e-05 -3.57091e-05 -1.05651e-09
5.07329e-08 -1.05651e-09 -4.77997e-05
0.000998821 3.30649e-06 2.23665e-06
3.30649e-06 1.76375e-05 -1.27664e-06
2.23665e-06 -1.27664e-06 -2.27425e-05
0.0024534 2.65299e-05 1.26809e-07
2.65299e-05 0.000743458 6.54676e-08
1.26809e-07 6.54676e-08 0.000758089
0.000911271 1.7069e-05 4.08309e-06
1.7069e-05 -1.6852e-05 -2.24802e-06
4.08309e-06 -2.24802e-06 -2.62271e-05
0.0023566 2.45665e-05 9.07989e-06
2.45665e-05 0.000689494 -2.97896e-06
9.07989e-06 -2.97896e-06 0.000705787
0.000938147 2.17444e-05 -2.42996e-07
2.17444e-05 -2.98879e-05 -3.56757e-07
-2.42996e-07 -3.56757e-07 -9.41228e-05
0.000985772 1.92866e-05 -3.00609e-08
1.92866e-05 7.62319e-07 -7.13197e-08
-3.00609e-08 -7.13197e-08 -6.09446e-05
0.00109054 6.6807e-06 -9.18416e-07
6.6807e-06 5.52197e-05 -2.0843e-07
-9.18416e-07 -2.0843e-07 -2.03861e-08
0.00107667 1.58564e-05 1.21275e-07
1.58564e-05 4.66101e-05 -2.74208e-07
1.21275e-07 -2.74208e-07 -1.3354e-05
0.00104366 -2.8196e-07 1.75924e-08
-2.8196e-07 3.6513e-05 2.45508e-08
1.75924e-08 2.45508e-08 -1.76591e-05
0.000989474 -1.22257e-05 -2.11579e-06
-1.22257e-05 1.70726e-05 -1.00349e-06
-2.11579e-06 -1.00349e-06 -2.20889e-05
0.00104168 -3.87223e-06 8.26785e-07
-3.87223e-06 3.43072e-05 2.10646e-07
8.26785e-07 2.10646e-07 -1.87585e-05
0.000972506 -1.37153e-05 -7.60957e-09
-1.37153e-05 5.00442e-06 8.40254e-09
-7.60957e-09 8.40254e-09 -3.177e-05
0.000909567 -1.63822e-05 -3.81042e-06
-1.63822e-05 -2.31523e-05 -2.21669e-06
-3.81042e-06 -2.21669e-06 -3.17517e-05
0.00096854 -1.22761e-05 2.09345e-06
-1.22761e-05 -2.48091e-06 1.36615e-06
2.09345e-06 1.36615e-06 -3.7105e-05
0.000896652 -1.5038e-05 -4.30555e-08
-1.5038e-05 -3.63466e-05 2.60522e-08
-4.30555e-08 2.60522e-08 -4.28582e-05
0.00237893 -2.27235e-05 -8.82361e-06
-2.27235e-05 0.000693344 -3.14039e-06
-8.82361e-06 -3.14039e-06 0.000710526
0.000890238 -1.35853e-05 3.24504e-06
-1.35853e-05 -4.54276e-05 2.60098e-06
3.24504e-06 2.60098e-06 -5.03713e-05
0.0024367 -2.07978e-05 -1.36893e-07
-2.07978e-05 0.000713509 5.52048e-08
-1.36893e-07 5.52048e-08 0.000731846
0.00248684 -1.87701e-05 8.36407e-06
-1.87701e-05 0.000732017 3.50783e-06
8.36407e-06 3.50783e-06 0.000751124
0.00147094 -2.28459e-05 1.10271e-06
-2.28459e-05 0.000109527 3.34479e-07
1.10271e-06 3.34479e-07 7.74288e-05
0.00128856 -5.45257e-05 -2.49451e-07
-5.45257e-05 4.50491e-06 -2.87506e-06
-2.49451e-07 -2.87506e-06 -7.25866e-06
-0.000264803 -1.57179e-06 2.60089e-05
-1.57179e-06 -0.000177226 7.79818e-06
2.60089e-05 7.79818e-06 -0.000219972
0.00148297 3.03169e-05 1.12155e-06
3.03169e-05 0.00019307 -5.86788e-07
1.12155e-06 -5.86788e-07 0.000125356
0.00100704 2.42251e-05 -2.68552e-07
2.42251e-05 1.50785e-05 1.017e-07
-2.68552e-07 1.017e-07 -4.7303e-05
0.000858768 2.59603e-05 -6.28403e-07
2.59603e-05 -0.00010885 -2.12579e-09
-6.28403e-07 -2.12579e-09 -0.000181183
0.00124402 2.73058e-05 5.37047e-08
2.73058e-05 0.000102278 3.29866e-08
5.37047e-08 3.29866e-08 3.53819e-05
0.00087617 2.24317e-05 -4.80685e-07
2.24317e-05 -4.36969e-05 2.11586e-07
-4.80685e-07 2.11586e-07 -0.000108223
0.00145925 3.41424e-05 -4.05411e-07
3.41424e-05 0.000110684 -2.80552e-06
-4.05411e-07 -2.80552e-06 3.07101e-05
0.00121654 2.62474e-05 -2.94925e-07
2.62474e-05 0.000113687 -5.53419e-07
-2.94925e-07 -5.53419e-07 4.99141e-05
0.00120627 3.28664e-05 5.73271e-08
3.28664e-05 6.48889e-05 8.6541e-07
5.73271e-08 8.6541e-07 -6.95401e-06
0.0013112 2.28108e-06 8.5905e-07
2.28108e-06 -3.05715e-05 3.33056e-06
8.5905e-07 3.33056e-06 -0.000100068
0.00101851 3.51257e-05 -3.44313e-07
3.51257e-05 -1.21206e-05 1.44285e-06
-3.44313e-07 1.44285e-06 -8.9235e-05
0.00141383 3.76812e-05 -2.06706e-07
3.76812e-05 6.48247e-05 -5.30768e-07
-2.06706e-07 -5.30768e-07 -2.66667e-05
0.00149892 2.30122e-06 5.31041e-08
2.30122e-06 5.01119e-05 5.28425e-07
5.31041e-08 5.28425e-07 -1.2563e-05
0.00161098 3.92827e-05 9.13967e-08
3.92827e-05 0.000150468 1.71064e-06
9.13967e-08 1.71064e-06 5.58086e-05
0.00234128 -3.16236e-05 -1.14227e-05
-3.16236e-05 0.000268231 -9.94792e-06
-1.14227e-05 -9.94792e-06 0.000216866
0.00137681 -6.6696e-06 4.54377e-07
-6.6696e-06 0.000152912 -1.56834e-06
4.54377e-07 -1.56834e-06 0.000110926
0.000897101 1.29844e-06 1.04239e-06
1.29844e-06 -7.4509e-05 6.51591e-07
1.04239e-06 6.51591e-07 -0.000117679
0.000115436 -1.75435e-05 -2.9702e-06
-1.75435e-05 -0.00027815 1.93838e-06
-2.9702e-06 1.93838e-06 -0.000300564
0.00165357 4.14534e-05 -4.77234e-06
4.14534e-05 0.000145793 -3.86282e-06
-4.77234e-06 -3.86282e-06 9.48526e-05
0.00169363 3.69211e-05 5.4611e-06
3.69211e-05 0.00028418 5.61421e-06
5.4611e-06 5.61421e-06 0.000214792
0.00134664 3.19253e-05 -1.07699e-06
3.19253e-05 8.23049e-05 -1.23338e-06
-1.07699e-06 -1.23338e-06 1.20555e-05
0.00138188 2.70719e-05 6.25648e-07
2.70719e-05 0.000160655 2.06088e-06
6.25648e-07 2.06088e-06 0.000105887
0.00130262 2.68686e-05 -1.28885e-06
2.68686e-05 0.00010183 -2.98024e-06
-1.28885e-06 -2.98024e-06 4.33459e-05
0.00136335 1.68706e-05 -2.07083e-06
1.68706e-05 6.5507e-05 -2.15192e-06
-2.07083e-06 -2.15192e-06 1.71444e-05
0.00139831 2.17162e-05 -3.48663e-08
2.17162e-05 8.79355e-05 -3.9509e-07
-3.48663e-08 -3.9509e-07 2.55562e-05
0.00140758 2.22539e-05 -9.80067e-07
2.22539e-05 0.000104071 -8.89663e-07
-9.80067e-07 -8.89663e-07 3.95212e-05
0.00134117 3.92157e-06 -1.67624e-06
3.92157e-06 5.9996e-05 -1.14169e-06
-1.67624e-06 -1.14169e-06 7.42627e-06
0.00129681 3.84903e-06 2.22e-07
3.84903e-06 4.58917e-05 1.57614e-07
2.22e-07 1.57614e-07 -1.65345e-05
0.00131212 2.5849e-06 -9.7998e-08
2.5849e-06 6.3189e-05 4.44109e-07
-9.7998e-08 4.44109e-07 -1.59742e-06
0.00128267 -1.0199e-05 -8.10934e-07
-1.0199e-05 5.28319e-05 -9.82231e-07
-8.10934e-07 -9.82231e-07 -5.28079e-06
0.00127241 -1.34148e-05 6.91807e-08
-1.34148e-05 5.64475e-05 -7.33508e-08
6.91807e-08 -7.33508e-08 -5.51042e-06
0.00123619 -1.53822e-05 -2.43414e-07
-1.53822e-05 5.112e-05 3.5807e-07
-2.43414e-07 3.5807e-07 -1.10664e-05
0.00124472 -1.7681e-05 -3.52735e-07
-1.7681e-05 5.44585e-05 -3.59763e-07
-3.52735e-07 -3.59763e-07 -3.9088e-06
0.00122156 -1.79462e-05 -1.64612e-08
-1.79462e-05 5.29233e-05 -9.31308e-08
-1.64612e-08 -9.31308e-08 -6.39275e-06
0.00116711 -1.44252e-05 -8.15597e-07
-1.44252e-05 4.31254e-05 2.18099e-07
-8.15597e-07 2.18099e-07 -1.36281e-05
0.00113408 -1.77793e-05 2.71046e-07
-1.77793e-05 1.44709e-05 -1.71489e-08
2.71046e-07 -1.71489e-08 -4.29166e-05
0.00114518 -1.39755e-05 -2.33417e-08
-1.39755e-05 3.8137e-05 -1.80013e-08
-2.33417e-08 -1.80013e-08 -1.691e-05
0.00101458 -7.79211e-07 -2.28502e-06
-7.79211e-07 1.32702e-05 7.32889e-07
-2.28502e-06 7.32889e-07 -3.44461e-05
0.00097372 -1.29351e-05 9.93991e-07
-1.29351e-05 -3.56458e-05 -2.27176e-07
9.93991e-07 -2.27176e-07 -9.07121e-05
0.000997754 -1.09817e-06 -1.07158e-08
-1.09817e-06 8.83548e-06 7.75476e-08
-1.07158e-08 7.75476e-08 -3.70123e-05
0.00159193 2.23031e-05 -3.90951e-06
2.23031e-05 0.000331731 1.12063e-06
-3.90951e-06 1.12063e-06 0.000317509
0.00120669 2.30552e-05 -1.1709e-05
2.30552e-05 0.000147764 4.25962e-06
-1.1709e-05 4.25962e-06 0.000151101
0.00123884 1.98654e-05 -2.20981e-07
1.98654e-05 0.000155014 6.66309e-08
-2.20981e-07 6.66309e-08 0.000141639
0.000991979 -4.71593e-07 2.35361e-06
-4.71593e-07 1.02091e-05 -1.07381e-06
2.35361e-06 -1.07381e-06 -3.32083e-05
0.00253036 2.83298e-05 1.26049e-07
2.83298e-05 0.000788732 7.27437e-08
1.26049e-07 7.27437e-08 0.000801448
0.000901819 1.76531e-05 4.29557e-06
1.76531e-05 -1.49829e-05 -2.18477e-06
4.29557e-06 -2.18477e-06 -2.73049e-05
0.00240398 2.63611e-05 9.44228e-06
2.63611e-05 0.000720475 -2.85072e-06
9.44228e-06 -2.85072e-06 0.000735058
0.00111664 2.662e-05 2.68621e-07
2.662e-05 -2.73923e-06 6.35233e-08
2.68621e-07 6.35233e-08 -7.17073e-05
0.000938194 2.35145e-05 3.44823e-07
2.35145e-05 -4.17796e-05 -5.06561e-08
3.44823e-07 -5.06561e-08 -0.000109184
0.000968712 2.23092e-05 -3.14938e-08
2.23092e-05 -1.776e-05 -2.69269e-08
-3.14938e-08 -2.69269e-08 -8.23108e-05
0.00110615 1.1977e-05 -8.46921e-07
1.1977e-05 5.78191e-05 -3.17067e-07
-8.46921e-07 -3.17067e-07 1.19395e-06
0.00090734 1.90367e-05 1.20079e-07
1.90367e-05 -3.72728e-05 7.45242e-08
1.20079e-07 7.45242e-08 -9.93222e-05
0.00105958 5.85834e-06 -2.11897e-08
5.85834e-06 4.11482e-05 3.44602e-08
-2.11897e-08 3.44602e-08 -1.40872e-05
0.000995465 -9.21707e-06 -2.16832e-06
-9.21707e-06 2.21945e-05 -8.37071e-07
-2.16832e-06 -8.37071e-07 -1.93478e-05
0.00102228 -1.37605e-06 8.71756e-07
-1.37605e-06 2.69559e-05 2.88258e-07
8.71756e-07 2.88258e-07 -2.72856e-05
0.000968417 -1.29469e-05 -4.31841e-08
-1.29469e-05 7.68522e-06 1.1048e-08
-4.31841e-08 1.1048e-08 -3.1547e-05
0.000899088 -1.74405e-05 -4.04582e-06
-1.74405e-05 -2.02426e-05 -2.04845e-06
-4.04582e-06 -2.04845e-06 -3.11952e-05
0.000954987 -1.37911e-05 2.12895e-06
-1.37911e-05 -3.16398e-06 1.22917e-06
2.12895e-06 1.22917e-06 -3.99468e-05
0.000883793 -1.62932e-05 -3.49752e-08
-1.62932e-05 -3.55395e-05 2.09411e-08
-3.49752e-08 2.09411e-08 -4.4005e-05
0.0023895 -2.45955e-05 -9.10105e-06
-2.45955e-05 0.000707202 -2.98475e-06
-9.10105e-06 -2.98475e-06 0.000722799
0.00087539 -1.49632e-05 3.46576e-06
-1.49632e-05 -4.6726e-05 2.45913e-06
3.46576e-06 2.45913e-06 -5.31089e-05
0.00243836 -2.2813e-05 -1.37852e-07
-2.2813e-05 0.000721103 6.02163e-08
-1.37852e-07 6.02163e-08 0.000738258
0.00249228 -2.08345e-05 8.67085e-06
-2.08345e-05 0.000739772 3.35328e-06
8.67085e-06 3.35328e-06 0.000758019
0.00146757 -2.81456e-05 1.82077e-06
-2.81456e-05 9.98609e-05 1.43343e-06
1.82077e-06 1.43343e-06 5.37872e-05
0.00147062 -2.32109e-05 1.83137e-06
-2.32109e-05 0.000100127 -1.44756e-06
1.83137e-06 -1.44756e-06 6.61778e-05
0.00175662 -5.26074e-05 -9.73933e-06
-5.26074e-05 0.000308265 -6.57521e-06
-9.73933e-06 -6.57521e-06 0.000296249
0.00137795 2.97994e-05 -3.96268e-07
2.97994e-05 8.35776e-05 -1.40085e-06
-3.96268e-07 -1.40085e-06 8.79623e-06
0.00135945 2.91876e-05 -3.34568e-08
2.91876e-05 0.000143262 2.40278e-07
-3.34568e-08 2.40278e-07 7.68607e-05
0.00101008 2.47328e-05 -1.53889e-06
2.47328e-05 2.07776e-05 -4.61188e-07
-1.53889e-06 -4.61188e-07 -4.05042e-05
0.00120347 2.83891e-05 2.6112e-07
2.83891e-05 4.98639e-05 4.63993e-07
2.6112e-07 4.63993e-07 -2.11859e-05
0.00119405 2.69416e-05 -9.05424e-07
2.69416e-05 7.84822e-05 4.60025e-07
-9.05424e-07 4.60025e-07 1.12749e-05
0.00137549 5.04483e-06 -1.69713e-07
5.04483e-06 2.59148e-05 1.16018e-06
-1.69713e-07 1.16018e-06 -4.88841e-05
0.00143542 3.42371e-05 -7.16649e-07
3.42371e-05 9.91105e-05 -1.0343e-06
-7.16649e-07 -1.0343e-06 1.81077e-05
0.00117814 3.23642e-05 -5.44332e-08
3.23642e-05 5.09258e-05 2.50498e-06
-5.44332e-08 2.50498e-06 -2.01999e-05
0.00148163 2.65047e-06 9.89094e-08
2.65047e-06 4.39816e-05 7.75978e-07
9.89094e-08 7.75978e-07 -2.58313e-05
0.00162266 3.97742e-05 -9.43534e-07
3.97742e-05 0.00014916 6.12796e-07
-9.43534e-07 6.12796e-07 5.5502e-05
0.00142402 2.01116e-06 3.96351e-06
2.01116e-06 7.65371e-06 -2.25443e-06
3.96351e-06 -2.25443e-06 -5.56007e-05
0.000786796 -1.53853e-06 3.86421e-07
-1.53853e-06 -0.000105471 -5.16105e-07
3.86421e-07 -5.16105e-07 -0.000152842
0.00121554 -5.01332e-06 -6.42032e-07
-5.01332e-06 8.46657e-05 -4.87658e-07
-6.42032e-07 -4.87658e-07 4.18801e-05
0.000492143 1.46891e-06 2.57772e-06
1.46891e-06 -0.000262198 4.33444e-06
2.57772e-06 4.33444e-06 -0.00030478
0.00143452 3.28419e-05 1.98676e-06
3.28419e-05 0.000113001 -1.28838e-06
1.98676e-06 -1.28838e-06 4.28285e-05
0.00134801 2.62226e-05 2.17735e-06
2.62226e-05 0.000138413 5.12954e-06
2.17735e-06 5.12954e-06 8.46195e-05
0.00129587 2.67249e-05 -7.96991e-07
2.67249e-05 9.66989e-05 -3.0667e-07
-7.96991e-07 -3.0667e-07 3.81856e-05
0.00119255 2.2854e-05 6.15988e-08
2.2854e-05 5.37256e-05 -1.42289e-06
6.15988e-08 -1.42289e-06 -5.31908e-06
0.00131141 2.03613e-05 -2.78504e-07
2.03613e-05 4.46178e-05 -3.42986e-07
-2.78504e-07 -3.42986e-07 -1.65274e-05
0.0013911 2.13246e-05 -3.11979e-07
2.13246e-05 9.04114e-05 -1.38904e-07
-3.11979e-07 -1.38904e-07 2.57661e-05
0.00130103 1.82515e-05 -9.4352e-07
1.82515e-05 5.83433e-05 -1.83836e-06
-9.4352e-07 -1.83836e-06 -3.93924e-06
0.00135718 4.45607e-06 -4.72452e-07
4.45607e-06 7.45596e-05 -3.12568e-07
-4.72452e-07 -3.12568e-07 1.15649e-05
0.00130574 2.25352e-06 2.08412e-08
2.25352e-06 6.01108e-05 3.83071e-07
2.08412e-08 3.83071e-07 -4.75401e-06
0.00127076 -2.98962e-06 -4.77629e-07
-2.98962e-06 5.69614e-05 2.91553e-07
-4.77629e-07 2.91553e-07 -7.84192e-06
0.00128159 -1.28041e-05 -7.31487e-08
-1.28041e-05 6.0183e-05 -6.47909e-07
-7.31487e-08 -6.47909e-07 -1.79716e-06
0.00124488 -1.52105e-05 3.91772e-08
-1.52105e-05 5.4667e-05 1.76554e-11
3.91772e-08 1.76554e-11 -7.53742e-06
0.00118143 -1.35779e-05 -8.81039e-07
-1.35779e-05 4.30029e-05 3.53884e-07
-8.81039e-07 3.53884e-07 -1.62029e-05
0.00122068 -1.77926e-05 1.77093e-07
-1.77926e-05 5.21837e-05 -2.83336e-07
1.77093e-07 -2.83336e-07 -7.10386e-06
0.00116158 -1.40577e-05 9.60433e-09
-1.40577e-05 4.02701e-05 -5.94406e-08
9.60433e-09 -5.94406e-08 -1.64772e-05
0.00101398 -1.86605e-06 -2.09724e-06
-1.86605e-06 8.74681e-06 5.86466e-07
-2.09724e-06 5.86466e-07 -4.06705e-05
0.00113053 -1.34242e-05 8.36934e-07
-1.34242e-05 3.14118e-05 -1.78989e-07
8.36934e-07 -1.78989e-07 -2.3608e-05
0.0010021 -1.15388e-06 -7.53315e-08
-1.15388e-06 6.46526e-06 6.46479e-08
-7.53315e-08 6.46479e-08 -4.10772e-05
0.00161942 2.3636e-05 -3.94967e-06
2.3636e-05 0.000350254 9.48637e-07
-3.94967e-06 9.48637e-07 0.000332956
0.000987975 -1.62684e-06 2.36945e-06
-1.62684e-06 2.87488e-06 -8.23756e-07
2.36945e-06 -8.23756e-07 -4.27476e-05
0.00160384 2.2134e-05 2.29381e-06
2.2134e-05 0.000337825 -7.78358e-07
2.29381e-06 -7.78358e-07 0.000323195
0.00119848 2.38271e-05 -1.25861e-05
2.38271e-05 0.000151883 4.0766e-06
-1.25861e-05 4.0766e-06 0.000152372
0.00190774 2.65859e-05 -6.44907e-06
2.65859e-05 0.000490792 1.64413e-06
-6.44907e-06 1.64413e-06 0.000497874
0.00163683 2.12125e-05 6.74109e-06
2.12125e-05 0.000349378 -1.96029e-06
6.74109e-06 -1.96029e-06 0.000337505
0.0024879 2.81183e-05 9.95602e-06
2.81183e-05 0.000768952 -2.74519e-06
9.95602e-06 -2.74519e-06 0.000781567
0.00130835 2.64121e-05 -4.51829e-07
2.64121e-05 4.95053e-05 -1.35257e-06
-4.51829e-07 -1.35257e-06 -2.26785e-05
0.00131653 2.65031e-05 9.88756e-07
2.65031e-05 0.000117409 -3.14396e-08
9.88756e-07 -3.14396e-08 5.11651e-05
0.00115532 2.69752e-05 5.93593e-07
2.69752e-05 2.01753e-05 4.87994e-07
5.93593e-07 4.87994e-07 -4.62342e-05
0.00110637 1.64625e-05 -6.74825e-07
1.64625e-05 5.13094e-05 -6.43213e-07
-6.74825e-07 -6.43213e-07 -8.22238e-06
0.00109784 2.51529e-05 -1.52707e-07
2.51529e-05 3.26011e-05 6.35731e-08
-1.52707e-07 6.35731e-08 -3.47234e-05
0.000999228 2.28764e-05 2.09357e-07
2.28764e-05 -5.621e-06 4.18512e-07
2.09357e-07 4.18512e-07 -7.04917e-05
0.00108558 1.17537e-05 1.76549e-08
1.17537e-05 4.87453e-05 -3.0374e-08
1.76549e-08 -3.0374e-08 -7.90758e-06
0.00100107 -5.01048e-06 -2.106e-06
-5.01048e-06 2.62966e-05 -8.19391e-07
-2.106e-06 -8.19391e-07 -1.7921e-05
0.00102924 5.02754e-06 7.17217e-07
5.02754e-06 2.73565e-05 1.69671e-07
7.17217e-07 1.69671e-07 -2.78731e-05
0.000974043 -1.01955e-05 -6.1506e-08
-1.01955e-05 1.3259e-05 1.76637e-08
-6.1506e-08 1.76637e-08 -2.8433e-05
0.000887245 -1.8258e-05 -4.26001e-06
-1.8258e-05 -1.7243e-05 -1.86548e-06
-4.26001e-06 -1.86548e-06 -3.0753e-05
0.0009478 -1.37478e-05 2.09918e-06
-1.37478e-05 -1.48232e-06 1.10719e-06
2.09918e-06 1.10719e-06 -4.07897e-05
0.000868641 -1.73311e-05 -4.51028e-08
-1.73311e-05 -3.4755e-05 2.57982e-08
-4.51028e-08 2.57982e-08 -4.55673e-05
0.00241426 -2.63261e-05 -9.43628e-06
-2.63261e-05 0.000729246 -2.81652e-06
-9.43628e-06 -2.81652e-06 0.000742981
0.000857906 -1.62014e-05 3.68358e-06
-1.62014e-05 -4.7983e-05 2.2962e-06
3.68358e-06 2.2962e-06 -5.6314e-05
0.00244949 -2.47403e-05 -1.33389e-07
-2.47403e-05 0.000734879 6.38789e-08
-1.33389e-07 6.38789e-08 0.000750515
0.00249824 -2.28964e-05 8.88375e-06
-2.28964e-05 0.000749085 3.19122e-06
8.88375e-06 3.19122e-06 0.00076621
0.00136393 -2.23778e-05 -4.14825e-07
-2.23778e-05 7.78664e-05 2.83486e-06
-4.14825e-07 2.83486e-06 2.03804e-05
0.00137895 -2.72113e-05 2.54001e-07
-2.72113e-05 6.02985e-05 -8.91673e-07
2.54001e-07 -8.91673e-07 1.42075e-05
0.00149473 -2.39478e-05 2.26857e-06
-2.39478e-05 0.000100988 -1.83144e-06
2.26857e-06 -1.83144e-06 6.52467e-05
0.00114967 8.75411e-06 -5.80542e-07
8.75411e-06 -6.46652e-05 6.13746e-07
-5.80542e-07 6.13746e-07 -0.000137123
0.00138749 2.94683e-05 8.61011e-08
2.94683e-05 8.83473e-05 -4.62836e-07
8.61011e-08 -4.62836e-07 1.36296e-05
0.00125981 2.82399e-05 -1.09771e-06
2.82399e-05 0.000104648 8.64944e-07
-1.09771e-06 8.64944e-07 3.9549e-05
0.00155168 3.08437e-05 -4.42752e-08
3.08437e-05 0.000210258 3.12457e-07
-4.42752e-08 3.12457e-07 0.000140486
0.00151013 6.12418e-06 4.699e-08
6.12418e-06 8.78531e-05 3.31066e-08
4.699e-08 3.31066e-08 1.31479e-05
0.00140368 3.42558e-05 -4.93647e-07
3.42558e-05 8.3984e-05 5.67673e-07
-4.93647e-07 5.67673e-07 1.93539e-06
0.0016581 3.01841e-06 -5.93791e-07
3.01841e-06 0.000121307 -1.71778e-06
-5.93791e-07 -1.71778e-06 5.11796e-05
0.00102628 -2.4907e-07 1.58102e-06
-2.4907e-07 3.71319e-06 3.07899e-08
1.58102e-06 3.07899e-08 -4.97505e-05
0.00100732 -4.54689e-07 -7.88333e-08
-4.54689e-07 -9.10769e-06 -9.03963e-08
-7.88333e-08 -9.03963e-08 -5.83581e-05
0.00107024 -2.9333e-06 -1.59628e-06
-2.9333e-06 2.35069e-05 1.17747e-06
-1.59628e-06 1.17747e-06 -2.00323e-05
0.00119333 2.17725e-05 5.8716e-07
2.17725e-05 7.02678e-05 -5.9416e-07
5.8716e-07 -5.9416e-07 9.48396e-06
0.00132953 2.69372e-05 9.07448e-07
2.69372e-05 0.000110572 1.64907e-06
9.07448e-07 1.64907e-06 5.19964e-05
0.00120026 2.30222e-05 4.1469e-07
2.30222e-05 5.72035e-05 6.62129e-09
4.1469e-07 6.62129e-09 -2.20424e-06
0.00123873 2.18768e-05 5.95786e-08
2.18768e-05 5.86142e-05 -3.32556e-07
5.95786e-08 -3.32556e-07 -7.77775e-07
0.001387 2.05245e-05 1.97113e-07
2.05245e-05 8.2682e-05 6.42002e-07
1.97113e-07 6.42002e-07 1.79162e-05
0.00129141 1.79232e-05 -5.28742e-07
1.79232e-05 5.48017e-05 -5.32748e-07
-5.28742e-07 -5.32748e-07 -7.49847e-06
0.00129147 1.60031e-05 -8.85092e-07
1.60031e-05 6.7189e-05 -1.20632e-06
-8.85092e-07 -1.20632e-06 2.83645e-06
0.00129998 2.46726e-06 6.34179e-07
2.46726e-06 5.73246e-05 2.72505e-07
6.34179e-07 2.72505e-07 -7.62815e-06
0.00126446 -1.80098e-06 2.28689e-08
-1.80098e-06 5.41884e-05 1.38964e-07
2.28689e-08 1.38964e-07 -1.06361e-05
0.00120325 -8.46921e-06 -1.05991e-06
-8.46921e-06 4.62113e-05 2.50042e-07
-1.05991e-06 2.50042e-07 -1.52574e-05
0.00125318 -1.49722e-05 3.89828e-07
-1.49722e-05 5.80439e-05 -3.65283e-07
3.89828e-07 -3.65283e-07 -4.17773e-06
0.00118161 -1.33001e-05 4.14823e-08
-1.33001e-05 4.26399e-05 3.91004e-08
4.14823e-08 3.91004e-08 -1.65742e-05
0.00102412 -3.63596e-06 -2.05052e-06
-3.63596e-06 8.06479e-06 5.47492e-07
-2.05052e-06 5.47492e-07 -4.32147e-05
0.0011561 -1.36239e-05 7.98642e-07
-1.36239e-05 3.74536e-05 -3.14264e-07
7.98642e-07 -3.14264e-07 -1.9288e-05
0.00100716 -1.72325e-06 -7.30249e-08
-1.72325e-06 5.09442e-06 3.12142e-08
-7.30249e-08 3.12142e-08 -4.4252e-05
0.00164009 2.46049e-05 -3.78692e-06
2.46049e-05 0.000366309 7.90309e-07
-3.78692e-06 7.90309e-07 0.000345627
0.000989798 -1.48238e-06 2.27972e-06
-1.48238e-06 -2.73506e-07 -6.38373e-07
2.27972e-06 -6.38373e-07 -4.76402e-05
0.00161748 2.34724e-05 2.40876e-06
2.34724e-05 0.000349305 -7.36486e-07
2.40876e-06 -7.36486e-07 0.00033168
0.00122376 2.46904e-05 -1.33093e-05
2.46904e-05 0.000173788 3.77977e-06
-1.33093e-05 3.77977e-06 0.00017122
0.00161741 2.19849e-05 8.36814e-06
2.19849e-05 0.000344672 -2.65985e-06
8.36814e-06 -2.65985e-06 0.000329635
0.00117873 2.46236e-05 -4.58687e-06
2.46236e-05 0.000142171 1.62575e-06
-4.58687e-06 1.62575e-06 0.00014295
0.00260746 3.11628e-05 4.53261e-06
3.11628e-05 0.000833315 -1.02427e-06
4.53261e-06 -1.02427e-06 0.000844093
0.00149943 1.16073e-05 -7.23173e-07
1.16073e-05 0.000111097 -2.2311e-07
-7.23173e-07 -2.2311e-07 3.87199e-05
0.00132152 2.53454e-05 1.5152e-07
2.53454e-05 7.65179e-05 -1.20979e-06
1.5152e-07 -1.20979e-06 7.12219e-06
0.00135621 2.69261e-05 -5.97341e-07
2.69261e-05 7.70694e-05 6.58297e-07
-5.97341e-07 6.58297e-07 5.54622e-06
0.00134689 2.08103e-05 -3.38337e-07
2.08103e-05 0.000149063 -1.69339e-07
-3.38337e-07 -1.69339e-07 8.84327e-05
0.00122049 2.60954e-05 3.75116e-07
2.60954e-05 7.10287e-05 -2.97418e-07
3.75116e-07 -2.97418e-07 4.58661e-06
0.00118095 2.7217e-05 6.86646e-07
2.7217e-05 3.6847e-05 7.71904e-07
6.86646e-07 7.71904e-07 -2.69871e-05
0.00100559 7.52734e-07 -2.02924e-06
7.52734e-07 2.64152e-05 -1.03276e-06
-2.02924e-06 -1.03276e-06 -2.15112e-05
0.00110699 1.68043e-05 -2.16764e-09
1.68043e-05 5.18363e-05 -9.84556e-08
-2.16764e-09 -9.84556e-08 -7.73769e-06
0.00125928 2.68143e-05 4.60562e-07
2.68143e-05 0.000107827 5.84663e-07
4.60562e-07 5.84663e-07 4.05803e-05
0.00106281 1.16088e-05 7.15496e-07
1.16088e-05 3.86091e-05 1.59385e-07
7.15496e-07 1.59385e-07 -1.80685e-05
0.000982113 -6.15605e-06 -2.06814e-08
-6.15605e-06 1.91112e-05 -2.26851e-08
-2.06814e-08 -2.26851e-08 -2.53187e-05
0.00088113 -1.89393e-05 -4.32537e-06
-1.89393e-05 -1.17293e-05 -1.78403e-06
-4.32537e-06 -1.78403e-06 -2.81688e-05
0.000952969 -1.12023e-05 2.11907e-06
-1.12023e-05 4.49727e-06 9.49004e-07
2.11907e-06 9.49004e-07 -3.73465e-05
0.000851132 -1.81029e-05 -4.72524e-08
-1.81029e-05 -3.44004e-05 2.70569e-08
-4.72524e-08 2.70569e-08 -4.77684e-05
0.00245273 -2.79005e-05 -9.83002e-06
-2.79005e-05 0.000758701 -2.63772e-06
-9.83002e-06 -2.63772e-06 0.000770409
0.000838592 -1.72206e-05 3.88546e-06
-1.72206e-05 -4.90794e-05 2.13188e-06
3.88546e-06 2.13188e-06 -5.97515e-05
0.00247184 -2.65244e-05 -1.34619e-07
-2.65244e-05 0.000755505 6.8915e-08
-1.34619e-07 6.8915e-08 0.000769336
0.00250998 -2.48738e-05 9.10645e-06
-2.48738e-05 0.000762793 3.02859e-06
9.10645e-06 3.02859e-06 0.000778469
0.00137315 -1.78181e-05 3.40513e-07
-1.78181e-05 8.45978e-05 1.56563e-06
3.40513e-07 1.56563e-06 2.3195e-05
0.00142808 -2.23951e-05 -5.53536e-08
-2.23951e-05 0.000100079 6.6716e-07
-5.53536e-08 6.6716e-07 4.17826e-05
0.00128268 -2.6233e-05 -1.13987e-06
-2.6233e-05 1.72717e-05 -3.12738e-06
-1.13987e-06 -3.12738e-06 -2.88415e-05
0.00132387 8.31181e-06 -1.09738e-07
8.31181e-06 7.48959e-06 -1.913e-07
-1.09738e-07 -1.913e-07 -6.56204e-05
0.00138529 2.90562e-05 -5.49716e-08
2.90562e-05 8.75027e-05 4.6167e-07
-5.49716e-08 4.6167e-07 1.28649e-05
0.00166497 7.25081e-06 4.13159e-07
7.25081e-06 0.000158935 -1.20516e-06
4.13159e-07 -1.20516e-06 8.4358e-05
0.0010785 -1.10726e-06 8.43012e-07
-1.10726e-06 2.62198e-05 1.97931e-07
8.43012e-07 1.97931e-07 -3.48339e-05
0.0010593 1.1358e-08 5.27364e-07
1.1358e-08 2.48655e-05 -3.26549e-08
5.27364e-07 -3.26549e-08 -2.86505e-05
0.00121363 3.93195e-07 -9.47578e-08
3.93195e-07 8.08462e-05 4.83486e-07
-9.47578e-08 4.83486e-07 2.96965e-05
0.00120646 2.01993e-05 -4.12795e-07
2.01993e-05 7.55044e-05 2.14894e-07
-4.12795e-07 2.14894e-07 1.37888e-05
0.00121334 1.98564e-05 4.50275e-07
1.98564e-05 7.27534e-05 -1.93659e-07
4.50275e-07 -1.93659e-07 9.12393e-06
0.00120065 2.31651e-05 2.89988e-07
2.31651e-05 5.73134e-05 1.09303e-06
2.89988e-07 1.09303e-06 -2.46087e-06
0.00121854 2.16576e-05 1.96152e-07
2.16576e-05 4.94379e-05 4.92673e-07
1.96152e-07 4.92673e-07 -9.99359e-06
0.00135083 2.2544e-05 2.08318e-07
2.2544e-05 0.00011148 -3.63245e-07
2.08318e-07 -3.63245e-07 5.0464e-05
0.00127949 1.70113e-05 4.04433e-07
1.70113e-05 5.02153e-05 7.063e-07
4.04433e-07 7.063e-07 -1.20963e-05
0.00126513 1.42955e-05 -2.97834e-07
1.42955e-05 5.52726e-05 -3.31782e-07
-2.97834e-07 -3.31782e-07 -8.88148e-06
0.00121039 8.68764e-06 -1.43383e-06
8.68764e-06 5.01867e-05 -2.753e-07
-1.43383e-06 -2.753e-07 -1.22227e-05
0.00125688 -2.09775e-06 4.22246e-07
-2.09775e-06 5.07636e-05 1.14761e-08
4.22246e-07 1.14761e-08 -1.40465e-05
0.00119987 -7.68561e-06 1.64472e-08
-7.68561e-06 4.44179e-05 3.9153e-08
1.64472e-08 3.9153e-08 -1.70545e-05
0.00103083 -2.95072e-06 -2.10922e-06
-2.95072e-06 6.30646e-06 3.96261e-07
-2.10922e-06 3.96261e-07 -4.67369e-05
0.00118255 -1.29831e-05 9.76485e-07
-1.29831e-05 4.26231e-05 -2.71241e-07
9.76485e-07 -2.71241e-07 -1.65988e-05
0.00101746 -3.04826e-06 -3.75845e-08
-3.04826e-06 4.95398e-06 7.13226e-08
-3.75845e-08 7.13226e-08 -4.63347e-05
0.00159003 2.08466e-05 -3.64997e-06
2.08466e-05 0.000348923 6.46705e-07
-3.64997e-06 6.46705e-07 0.000324491
0.000999557 -1.65603e-06 2.17296e-06
-1.65603e-06 1.04788e-06 -5.85196e-07
2.17296e-06 -5.85196e-07 -4.82218e-05
0.00162938 2.26211e-05 2.57066e-06
2.26211e-05 0.000360381 -6.7641e-07
2.57066e-06 -6.7641e-07 0.000339478
0.00123985 2.51458e-05 -1.40656e-05
2.51458e-05 0.000193705 3.45126e-06
-1.40656e-05 3.45126e-06 0.000187537
0.00161662 2.28738e-05 8.50472e-06
2.28738e-05 0.000348833 -2.37166e-06
8.50472e-06 -2.37166e-06 0.000330892
0.001196 2.54946e-05 -4.84893e-06
2.54946e-05 0.000160107 1.51128e-06
-4.84893e-06 1.51128e-06 0.000157889
0.00115829 2.54535e-05 3.53427e-06
2.54535e-05 0.000132174 -8.4519e-07
3.53427e-06 -8.4519e-07 0.000133238
0.0014846 -1.13227e-05 1.3641e-07
-1.13227e-05 0.000114886 1.05724e-06
1.3641e-07 1.05724e-06 5.49817e-05
0.00136913 1.38676e-05 -8.45556e-07
1.38676e-05 6.89563e-05 -1.89981e-07
-8.45556e-07 -1.89981e-07 -2.39581e-06
0.00149546 1.12011e-05 -3.15869e-07
1.12011e-05 0.00010624 -4.1276e-07
-3.15869e-07 -4.1276e-07 3.37435e-05
0.0013045 2.17399e-05 -6.62442e-07
2.17399e-05 9.70887e-05 -6.58511e-07
-6.62442e-07 -6.58511e-07 3.34087e-05
0.0013785 2.56128e-05 3.5373e-07
2.56128e-05 0.00010589 4.22857e-07
3.5373e-07 4.22857e-07 3.69382e-05
0.00140926 2.74988e-05 7.21068e-07
2.74988e-05 0.000107159 1.49303e-06
7.21068e-07 1.49303e-06 3.62841e-05
0.000980499 5.11677e-06 -2.15552e-06
5.11677e-06 3.69065e-06 -8.82876e-07
-2.15552e-06 -8.82876e-07 -4.73834e-05
0.00115657 1.98604e-05 4.44906e-07
1.98604e-05 5.67838e-05 4.13629e-07
4.44906e-07 4.13629e-07 -4.85043e-06
0.00112658 2.57345e-05 3.49612e-07
2.57345e-05 2.5742e-05 9.41951e-07
3.49612e-07 9.41951e-07 -4.0911e-05
0.000881358 -1.96214e-05 -4.2207e-06
-1.96214e-05 -6.34579e-06 -1.87313e-06
-4.2207e-06 -1.87313e-06 -2.66195e-05
0.000986928 -7.16106e-07 1.2519e-08
-7.16106e-07 1.94338e-05 -5.62775e-08
1.2519e-08 -5.62775e-08 -2.86761e-05
0.00110718 1.70611e-05 6.7445e-07
1.70611e-05 5.21576e-05 4.40525e-07
6.7445e-07 4.40525e-07 -7.45606e-06
0.000962003 -7.33214e-06 2.10635e-06
-7.33214e-06 1.141e-05 8.2614e-07
2.10635e-06 8.2614e-07 -3.3235e-05
0.000830783 -1.86543e-05 -2.67536e-08
-1.86543e-05 -3.53926e-05 -1.41545e-08
-2.67536e-08 -1.41545e-08 -5.16803e-05
0.00252078 -2.93416e-05 -1.03963e-05
-2.93416e-05 0.00080226 -2.512e-06
-1.03963e-05 -2.512e-06 0.000811754
0.000815485 -1.79496e-05 4.10889e-06
-1.79496e-05 -5.1331e-05 1.95443e-06
4.10889e-06 1.95443e-06 -6.45581e-05
0.00250577 -2.81433e-05 -1.33572e-07
-2.81433e-05 0.000782694 7.33635e-08
-1.33572e-07 7.33635e-08 0.000794528
0.00253047 -2.67163e-05 9.3552e-06
-2.67163e-05 0.000782247 2.86105e-06
9.3552e-06 2.86105e-06 0.000796173
0.00128377 -2.13749e-05 1.03278e-06
-2.13749e-05 7.65004e-05 -5.73565e-07
1.03278e-06 -5.73565e-07 9.05829e-06
0.00136862 -1.73818e-05 -1.71603e-07
-1.73818e-05 7.88107e-05 3.41233e-07
-1.71603e-07 3.41233e-07 1.71296e-05
0.00147669 -2.23498e-05 -3.59969e-07
-2.23498e-05 0.000115001 -1.67763e-06
-3.59969e-07 -1.67763e-06 5.58995e-05
0.0015033 7.89822e-06 8.32522e-07
7.89822e-06 8.22973e-05 -4.38449e-07
8.32522e-07 -4.38449e-07 8.50534e-06
0.00112421 -2.8858e-06 8.14528e-08
-2.8858e-06 3.99306e-05 4.98663e-07
8.14528e-08 4.98663e-07 -2.56686e-05
0.00112367 -1.51779e-06 -3.64662e-07
-1.51779e-06 4.94774e-05 -1.45723e-08
-3.64662e-07 -1.45723e-08 -1.11323e-05
0.00109302 2.46294e-07 -9.91604e-07
2.46294e-07 4.62035e-05 7.85978e-08
-9.91604e-07 7.85978e-08 -7.34466e-06
0.00120458 1.86863e-05 -1.17929e-06
1.86863e-05 7.36692e-05 1.27928e-06
-1.17929e-06 1.27928e-06 1.10249e-05
0.00119857 2.06057e-05 2.66016e-07
2.06057e-05 6.78399e-05 2.55123e-07
2.66016e-07 2.55123e-07 4.45964e-06
0.00120158 2.21793e-05 -3.37789e-07
2.21793e-05 6.76797e-05 -4.41749e-07
-3.37789e-07 -4.41749e-07 5.75751e-06
0.00119698 2.14178e-05 5.116e-07
2.14178e-05 3.94912e-05 1.51419e-06
5.116e-07 1.51419e-06 -1.99624e-05
0.00129515 2.23014e-05 2.24473e-07
2.23014e-05 8.56188e-05 3.86139e-07
2.24473e-07 3.86139e-07 2.45596e-05
0.00121035 2.1447e-05 -8.25058e-07
2.1447e-05 5.93326e-05 -6.89537e-07
-8.25058e-07 -6.89537e-07 -1.90361e-06
0.00123722 1.40401e-05 2.31642e-07
1.40401e-05 4.26921e-05 5.63011e-07
2.31642e-07 5.63011e-07 -2.12997e-05
0.00119084 1.0009e-05 -1.86985e-07
1.0009e-05 4.16051e-05 8.17427e-08
-1.86985e-07 8.17427e-08 -2.07068e-05
0.00104638 9.07755e-06 -2.16778e-06
9.07755e-06 1.44155e-05 1.99686e-07
-2.16778e-06 1.99686e-07 -4.04295e-05
0.00119379 -4.60101e-06 1.03746e-06
-4.60101e-06 4.14228e-05 -1.70149e-07
1.03746e-06 -1.70149e-07 -2.00704e-05
0.00103047 -2.53076e-06 -2.19134e-08
-2.53076e-06 6.38755e-06 4.88768e-08
-2.19134e-08 4.88768e-08 -4.67033e-05
0.000717094 1.25213e-05 -4.79891e-06
1.25213e-05 -7.17557e-05 1.03242e-06
-4.79891e-06 1.03242e-06 -0.000104578
0.00101189 -2.48047e-06 2.17555e-06
-2.48047e-06 2.33017e-06 -4.5307e-07
2.17555e-06 -4.5307e-07 -4.89673e-05
0.00117351 1.7121e-05 3.0874e-06
1.7121e-05 0.000143614 -6.09713e-07
3.0874e-06 -6.09713e-07 0.00011653
0.00297717 3.58326e-05 -1.26713e-05
3.58326e-05 0.00105604 1.86823e-06
-1.26713e-05 1.86823e-06 0.00105664
0.00161957 2.12898e-05 8.77167e-06
2.12898e-05 0.00035494 -2.11278e-06
8.77167e-06 -2.11278e-06 0.000333784
0.00120782 2.59828e-05 -5.14748e-06
2.59828e-05 0.000178007 1.39426e-06
-5.14748e-06 1.39426e-06 0.000172227
0.00116599 2.63198e-05 3.71435e-06
2.63198e-05 0.00014539 -7.48083e-07
3.71435e-06 -7.48083e-07 0.000143524
0.00144573 -1.84451e-05 8.36992e-07
-1.84451e-05 0.000128503 -7.4975e-07
8.36992e-07 -7.4975e-07 6.47573e-05
0.00135053 -5.72585e-06 -4.26641e-07
-5.72585e-06 6.01606e-05 9.0843e-07
-4.26641e-07 9.0843e-07 -2.99153e-06
0.00135137 -1.09698e-05 1.95317e-07
-1.09698e-05 5.56298e-05 2.27705e-08
1.95317e-07 2.27705e-08 -4.91411e-06
0.00102901 1.49509e-05 -1.36351e-06
1.49509e-05 -5.95079e-05 -4.79698e-07
-1.36351e-06 -4.79698e-07 -0.000126625
0.00140972 1.37764e-05 1.20706e-07
1.37764e-05 9.05633e-05 1.03169e-08
1.20706e-07 1.03169e-08 2.04635e-05
0.00149069 1.08373e-05 4.71844e-07
1.08373e-05 0.000100885 -6.06444e-07
4.71844e-07 -6.06444e-07 2.82867e-05
0.000784348 7.01138e-06 -2.78007e-06
7.01138e-06 -0.000111496 -1.3033e-06
-2.78007e-06 -1.3033e-06 -0.000166439
0.00131081 2.18465e-05 2.61254e-07
2.18465e-05 0.000100037 1.39706e-08
2.61254e-07 1.39706e-08 3.62832e-05
0.0014416 2.59517e-05 5.50354e-07
2.59517e-05 0.000137953 1.24968e-06
5.50354e-07 1.24968e-06 6.94634e-05
0.000872979 -1.5691e-05 -4.67331e-06
-1.5691e-05 -1.13948e-05 -1.78112e-06
-4.67331e-06 -1.78112e-06 -3.59405e-05
0.00086543 3.87615e-06 -3.21779e-08
3.87615e-06 -5.18807e-05 7.58219e-08
-3.21779e-08 7.58219e-08 -0.000103943
0.00096786 1.88734e-05 1.16305e-06
1.88734e-05 -3.47065e-05 1.13399e-06
1.16305e-06 1.13399e-06 -9.73496e-05
0.00265783 -3.07395e-05 -1.1389e-05
-3.07395e-05 0.000877477 -2.4828e-06
-1.1389e-05 -2.4828e-06 0.000884415
0.000810579 -1.90993e-05 -4.43655e-08
-1.90993e-05 -3.91219e-05 -6.94761e-08
-4.43655e-08 -6.94761e-08 -5.9223e-05
0.000968364 -2.21752e-06 1.95568e-06
-2.21752e-06 1.25162e-05 9.26457e-07
1.95568e-06 9.26457e-07 -3.57786e-05
0.00078023 -1.83709e-05 4.28832e-06
-1.83709e-05 -5.91397e-05 1.81676e-06
4.28832e-06 1.81676e-06 -7.5277e-05
0.00256442 -2.96402e-05 -1.203e-07
-2.96402e-05 0.000821969 7.31334e-08
-1.203e-07 7.31334e-08 0.000831631
0.00256078 -2.83828e-05 9.66976e-06
-2.83828e-05 0.000807568 2.686e-06
9.66976e-06 2.686e-06 0.000819532
0.00114887 -2.16217e-05 2.10201e-07
-2.16217e-05 3.73555e-05 2.97676e-07
2.10201e-07 2.97676e-07 -3.06077e-05
0.00121124 -2.04592e-05 -3.57235e-07
-2.04592e-05 4.67157e-05 -7.64791e-07
-3.57235e-07 -7.64791e-07 -1.93265e-05
0.0013658 -1.6925e-05 -3.26068e-07
-1.6925e-05 7.38534e-05 -9.39092e-07
-3.26068e-07 -9.39092e-07 1.18915e-05
0.00116013 8.79256e-06 1.53561e-07
8.79256e-06 5.678e-05 5.58601e-08
1.53561e-07 5.58601e-08 -6.74596e-06
0.00118662 -1.09324e-06 -4.00658e-08
-1.09324e-06 6.95601e-05 2.6928e-07
-4.00658e-08 2.6928e-07 3.96853e-06
0.00117063 -1.98839e-06 -1.57736e-06
-1.98839e-06 7.35556e-05 -4.44545e-08
-1.57736e-06 -4.44545e-08 1.3399e-05
0.00119147 2.1031e-05 -2.1144e-07
2.1031e-05 6.65203e-05 2.77266e-07
-2.1144e-07 2.77266e-07 3.40267e-06
0.00119052 2.20972e-05 9.47065e-08
2.20972e-05 6.19207e-05 2.50292e-07
9.47065e-08 2.50292e-07 1.59332e-07
0.0012117 2.04918e-05 -4.38134e-07
2.04918e-05 8.69668e-05 -3.78868e-07
-4.38134e-07 -3.78868e-07 2.72931e-05
0.00124376 2.20783e-05 5.83006e-07
2.20783e-05 6.17852e-05 1.55654e-06
5.83006e-07 1.55654e-06 6.77956e-07
0.0012535 2.20586e-05 8.76982e-09
2.20586e-05 8.22459e-05 4.13903e-08
8.76982e-09 4.13903e-08 2.14185e-05
0.000915551 1.8678e-05 -2.42364e-06
1.8678e-05 -4.16668e-05 -3.27141e-07
-2.42364e-06 -3.27141e-07 -9.77478e-05
0.00116895 8.91807e-06 9.58431e-07
8.91807e-06 3.19047e-05 4.49107e-07
9.58431e-07 4.49107e-07 -3.02965e-05
0.00102858 8.94364e-06 -1.33834e-08
8.94364e-06 6.59735e-06 1.18635e-07
-1.33834e-08 1.18635e-07 -4.81995e-05
0.000714894 1.23913e-05 -4.85118e-06
1.23913e-05 -6.47376e-05 7.01225e-07
-4.85118e-06 7.01225e-07 -0.000100474
0.00102818 -2.03672e-06 2.18028e-06
-2.03672e-06 5.55995e-06 -3.14478e-07
2.18028e-06 -3.14478e-07 -4.75765e-05
0.000753108 1.28471e-05 4.24209e-08
1.28471e-05 -5.64704e-05 1.05713e-07
4.24209e-08 1.05713e-07 -8.92e-05
0.00309622 3.69583e-05 -1.32895e-05
3.69583e-05 0.00112562 1.5074e-06
-1.32895e-05 1.5074e-06 0.00112379
0.000751748 1.39079e-05 6.50925e-06
1.39079e-05 -6.40556e-05 -1.87553e-06
6.50925e-06 -1.87553e-06 -9.38093e-05
0.00205669 3.09547e-05 2.67586e-06
3.09547e-05 0.000608151 2.10014e-07
2.67586e-06 2.10014e-07 0.000603578
0.00117284 2.68574e-05 3.89787e-06
2.68574e-05 0.000160891 -6.54819e-07
3.89787e-06 -6.54819e-07 0.000155508
0.00146318 -2.38146e-05 2.58361e-07
-2.38146e-05 0.000163417 -1.3831e-07
2.58361e-07 -1.3831e-07 9.63903e-05
0.00129591 -1.5427e-05 -2.27707e-07
-1.5427e-05 5.81404e-05 -2.29378e-07
-2.27707e-07 -2.29378e-07 -3.80666e-06
0.00130554 -1.75936e-05 -4.16018e-07
-1.75936e-05 6.25102e-05 -1.43688e-08
-4.16018e-07 -1.43688e-08 -1.38089e-06
0.00119432 -6.67672e-08 -1.12652e-06
-6.67672e-08 1.697e-05 6.44863e-07
-1.12652e-06 6.44863e-07 -4.62769e-05
0.00129111 -6.10601e-06 3.54512e-07
-6.10601e-06 3.56483e-05 -2.09149e-07
3.54512e-07 -2.09149e-07 -2.74008e-05
0.00121972 -1.06624e-05 2.63334e-07
-1.06624e-05 -2.88085e-06 -5.92139e-07
2.63334e-07 -5.92139e-07 -6.40676e-05
0.000800033 7.42882e-06 -2.99223e-06
7.42882e-06 -0.000121794 -1.02897e-06
-2.99223e-06 -1.02897e-06 -0.000179222
0.00126815 1.67192e-05 -3.61094e-07
1.67192e-05 5.50931e-05 4.76545e-08
-3.61094e-07 4.76545e-08 -1.09063e-05
0.00143979 1.3601e-05 9.25559e-07
1.3601e-05 0.000107408 -4.09189e-07
9.25559e-07 -4.09189e-07 3.85426e-05
0.000852283 -1.01927e-05 -5.09715e-06
-1.01927e-05 -2.57067e-05 -1.63743e-06
-5.09715e-06 -1.63743e-06 -5.41949e-05
0.00080382 7.86732e-06 -5.81539e-07
7.86732e-06 -0.000103692 -3.65672e-07
-5.81539e-07 -3.65672e-07 -0.000159177
0.00131622 2.19888e-05 1.16716e-06
2.19888e-05 0.000102536 8.03562e-07
1.16716e-06 8.03562e-07 3.8711e-05
0.00285243 -3.21569e-05 -1.268e-05
-3.21569e-05 0.000978872 -2.38362e-06
-1.268e-05 -2.38362e-06 0.000983045
0.000798975 -1.68539e-05 -2.44249e-07
-1.68539e-05 -4.50051e-05 1.87858e-08
-2.44249e-07 1.87858e-08 -6.94705e-05
0.000750661 2.66289e-06 1.86577e-06
2.66289e-06 -0.000107335 1.12923e-06
1.86577e-06 1.12923e-06 -0.000160381
0.00268031 -3.11059e-05 -1.11652e-07
-3.11059e-05 0.000887657 7.69487e-08
-1.11652e-07 7.69487e-08 0.000894858
0.000738017 -1.8569e-05 4.34951e-06
-1.8569e-05 -7.2705e-05 1.85061e-06
4.34951e-06 1.85061e-06 -9.26347e-05
0.00260754 -2.99029e-05 1.00267e-05
-2.99029e-05 0.000841371 2.5091e-06
1.00267e-05 2.5091e-06 0.000851211
0.00113177 -1.02444e-05 -2.30908e-07
-1.02444e-05 3.20193e-05 3.09716e-07
-2.30908e-07 3.09716e-07 -3.30476e-05
0.0012055 -2.11994e-05 5.6921e-07
-2.11994e-05 6.18649e-05 -6.05401e-07
5.6921e-07 -6.05401e-07 -5.77812e-06
0.0011425 -1.9554e-05 -1.23967e-06
-1.9554e-05 1.86857e-05 -1.20774e-06
-1.23967e-06 -1.20774e-06 -4.5956e-05
0.00119395 5.33908e-06 -2.35383e-07
5.33908e-06 8.08269e-05 8.71301e-08
-2.35383e-07 8.71301e-08 1.91924e-05
0.0012107 8.97241e-06 -1.31229e-07
8.97241e-06 7.99071e-05 -9.46348e-08
-1.31229e-07 -9.46348e-08 1.61327e-05
0.00124671 1.22777e-06 -2.42934e-07
1.22777e-06 9.81607e-05 3.20447e-07
-2.42934e-07 3.20447e-07 3.25552e-05
0.0011794 2.20124e-05 1.79519e-07
2.20124e-05 5.61379e-05 1.8735e-07
1.79519e-07 1.8735e-07 -5.46306e-06
0.00120327 2.04592e-05 2.136e-07
2.04592e-05 8.20177e-05 3.19571e-08
2.136e-07 3.19571e-08 2.2495e-05
0.000850062 1.53553e-05 -2.09693e-06
1.53553e-05 -5.70633e-05 -3.11649e-07
-2.09693e-06 -3.11649e-07 -0.000113093
0.00129956 2.27073e-05 9.22443e-07
2.27073e-05 0.000106483 9.01126e-07
9.22443e-07 9.01126e-07 4.6069e-05
0.000981613 1.92705e-05 -3.89091e-07
1.92705e-05 -9.56984e-06 3.19844e-08
-3.89091e-07 3.19844e-08 -6.54023e-05
0.000717869 1.52417e-05 -4.9483e-06
1.52417e-05 -5.26288e-05 4.29193e-07
-4.9483e-06 4.29193e-07 -9.05945e-05
0.00101161 8.79359e-06 2.05203e-06
8.79359e-06 -8.28609e-07 6.42071e-08
2.05203e-06 6.42071e-08 -5.55788e-05
0.000732769 1.42229e-05 4.27548e-08
1.42229e-05 -5.77241e-05 6.05914e-08
4.27548e-08 6.05914e-08 -9.33825e-05
0.0030913 3.67042e-05 -1.40335e-05
3.67042e-05 0.00113908 1.14744e-06
-1.40335e-05 1.14744e-06 0.00113477
0.000790006 1.30595e-05 4.8452e-06
1.30595e-05 -4.07758e-05 -7.74919e-07
4.8452e-06 -7.74919e-07 -7.34102e-05
0.00301681 3.59863e-05 1.59728e-07
3.59863e-05 0.00109055 1.29068e-07
1.59728e-07 1.29068e-07 0.00108843
0.0011437 2.4524e-05 1.17959e-05
2.4524e-05 0.000163633 -1.59277e-06
1.17959e-05 -1.59277e-06 0.00015395
0.00135963 -2.17923e-05 -5.25532e-07
-2.17923e-05 0.000117004 1.05222e-07
-5.25532e-07 1.05222e-07 5.28683e-05
0.00136364 -2.31729e-05 2.85855e-07
-2.31729e-05 0.000115162 3.78818e-08
2.85855e-07 3.78818e-08 4.71403e-05
0.00120341 -1.55912e-05 -7.28549e-07
-1.55912e-05 3.67919e-05 1.62539e-07
-7.28549e-07 1.62539e-07 -2.45626e-05
0.00127473 -1.55726e-05 1.68002e-07
-1.55726e-05 4.88945e-05 -2.97099e-07
1.68002e-07 -2.97099e-07 -1.29021e-05
0.00116753 -1.67554e-05 -1.37312e-07
-1.67554e-05 -2.37102e-06 7.39175e-07
-1.37312e-07 7.39175e-07 -6.64186e-05
0.00103796 -8.07116e-07 -2.44125e-06
-8.07116e-07 -1.03897e-05 4.30528e-08
-2.44125e-06 4.30528e-08 -6.6243e-05
0.00123411 7.12998e-08 1.91725e-08
7.12998e-08 3.4808e-05 1.76805e-07
1.91725e-08 1.76805e-07 -2.85643e-05
0.00123314 -6.42635e-06 2.44667e-07
-6.42635e-06 1.17633e-05 -1.20015e-06
2.44667e-07 -1.20015e-06 -5.11773e-05
0.000818982 -7.24505e-06 -5.34094e-06
-7.24505e-06 -4.35022e-05 -1.33995e-06
-5.34094e-06 -1.33995e-06 -7.51877e-05
0.000941998 8.85336e-06 -6.97511e-07
8.85336e-06 -5.43097e-05 -1.84578e-07
-6.97511e-07 -1.84578e-07 -0.000111245
0.00150922 1.84119e-05 9.65228e-07
1.84119e-05 0.000170594 3.89791e-07
9.65228e-07 3.89791e-07 0.000105714
0.00303628 -3.34256e-05 -1.39657e-05
-3.34256e-05 0.00107538 -2.18145e-06
-1.39657e-05 -2.18145e-06 0.00107689
0.000792767 -1.12048e-05 -1.62899e-07
-1.12048e-05 -5.20536e-05 4.94135e-08
-1.62899e-07 4.94135e-08 -8.0552e-05
0.000826365 8.7849e-06 1.66149e-06
8.7849e-06 -9.44642e-05 6.94317e-07
1.66149e-06 6.94317e-07 -0.000150491
0.00286368 -3.25784e-05 -1.49125e-07
-3.25784e-05 0.000983963 1.09529e-07
-1.49125e-07 1.09529e-07 0.000988453
0.000724564 -1.80404e-05 4.40018e-06
-1.80404e-05 -7.87452e-05 1.97636e-06
4.40018e-06 1.97636e-06 -0.00010315
0.00270304 -3.13987e-05 1.05011e-05
-3.13987e-05 0.000897888 2.37529e-06
1.05011e-05 2.37529e-06 0.000905361
0.00124131 -7.80442e-06 -4.07509e-07
-7.80442e-06 9.27466e-05 1.45713e-07
-4.07509e-07 1.45713e-07 3.06945e-05
0.00118812 -1.35635e-05 -5.12569e-08
-1.35635e-05 5.75691e-05 -9.32623e-08
-5.12569e-08 -9.32623e-08 -7.26488e-06
0.00126435 -2.09515e-05 1.80261e-07
-2.09515e-05 8.75334e-05 -1.14758e-06
1.80261e-07 -1.14758e-06 2.01921e-05
0.000883498 -4.46346e-07 -1.86133e-06
-4.46346e-07 -4.1423e-05 2.10679e-07
-1.86133e-06 2.10679e-07 -9.91218e-05
0.0012002 8.54659e-06 2.21332e-07
8.54659e-06 8.38092e-05 -2.72325e-08
2.21332e-07 -2.72325e-08 2.2222e-05
0.001262 9.40195e-06 2.55158e-08
9.40195e-06 0.000103344 5.6897e-08
2.55158e-08 5.6897e-08 3.9335e-05
0.00119437 2.01346e-05 7.8973e-07
2.01346e-05 7.68367e-05 3.0233e-07
7.8973e-07 3.0233e-07 1.74742e-05
0.00086965 1.53726e-05 -3.97317e-07
1.53726e-05 -4.84811e-05 -9.42383e-08
-3.97317e-07 -9.42383e-08 -0.000104472
0.000702596 1.63754e-05 -4.91978e-06
1.63754e-05 -4.83917e-05 1.77282e-09
-4.91978e-06 1.77282e-09 -8.80025e-05
0.00104518 1.98303e-05 1.676e-06
1.98303e-05 2.14357e-05 4.49103e-07
1.676e-06 4.49103e-07 -3.41562e-05
0.000714337 1.73716e-05 6.96362e-08
1.73716e-05 -5.49962e-05 2.04294e-07
6.96362e-08 2.04294e-07 -9.28687e-05
0.00305466 3.59577e-05 -1.47082e-05
3.59577e-05 0.0011366 7.69311e-07
-1.47082e-05 7.69311e-07 0.00113021
0.000751893 1.63498e-05 4.81859e-06
1.63498e-05 -5.01281e-05 -5.43777e-07
4.81859e-06 -5.43777e-07 -8.5714e-05
0.00302233 3.56728e-05 2.05329e-07
3.56728e-05 0.00110889 1.1854e-07
2.05329e-07 1.1854e-07 0.00110432
0.00294268 3.49654e-05 1.39829e-05
3.49654e-05 0.00105792 -1.32042e-06
1.39829e-05 -1.32042e-06 0.00105552
0.00123627 -2.095e-05 -7.75064e-07
-2.095e-05 7.36321e-05 1.35323e-07
-7.75064e-07 1.35323e-07 1.15003e-05
0.00131895 -2.15535e-05 5.65062e-08
-2.15535e-05 9.67042e-05 3.00654e-07
5.65062e-08 3.00654e-07 3.20967e-05
0.00125817 -2.24896e-05 7.22454e-08
-2.24896e-05 6.39431e-05 5.53345e-07
7.22454e-08 5.53345e-07 -5.04776e-06
0.00103564 -1.34867e-05 -2.1193e-06
-1.34867e-05 2.89219e-07 -3.85406e-08
-2.1193e-06 -3.85406e-08 -5.51337e-05
0.0012076 -1.55725e-05 1.91355e-07
-1.55725e-05 3.88602e-05 -1.95832e-07
1.91355e-07 -1.95832e-07 -2.2512e-05
0.0012544 -1.57014e-05 -8.27122e-08
-1.57014e-05 4.00119e-05 -6.03815e-07
-8.27122e-08 -6.03815e-07 -2.16291e-05
0.000765906 -1.08897e-05 -5.35181e-06
-1.08897e-05 -6.33128e-05 -8.63031e-07
-5.35181e-06 -8.63031e-07 -9.7064e-05
0.00106712 -2.37962e-07 7.04931e-09
-2.37962e-07 2.7077e-06 2.21029e-07
7.04931e-09 2.21029e-07 -5.32469e-05
0.00127256 1.57235e-07 1.18497e-06
1.57235e-07 5.20254e-05 -2.63443e-07
1.18497e-06 -2.63443e-07 -1.14742e-05
0.00315078 -3.4361e-05 -1.49857e-05
-3.4361e-05 0.00114053 -1.85555e-06
-1.49857e-05 -1.85555e-06 0.00113965
0.000777918 -7.53508e-06 -8.91634e-08
-7.53508e-06 -6.13975e-05 1.25511e-07
-8.91634e-08 1.25511e-07 -9.31171e-05
0.00108179 1.03489e-05 1.89509e-06
1.03489e-05 1.21266e-05 6.57031e-07
1.89509e-06 6.57031e-07 -4.4315e-05
0.00306071 -3.39787e-05 -1.40535e-07
-3.39787e-05 0.00108637 1.26556e-07
-1.40535e-07 1.26556e-07 0.00108817
0.00073286 -1.24771e-05 4.75969e-06
-1.24771e-05 -7.85412e-05 1.85407e-06
4.75969e-06 1.85407e-06 -0.000107048
0.0028752 -3.29776e-05 1.13702e-05
-3.29776e-05 0.000989132 2.30287e-06
1.13702e-05 2.30287e-06 0.000993947
0.00102575 -1.11922e-05 -1.66868e-06
-1.11922e-05 2.2187e-05 -6.4295e-08
-1.66868e-06 -6.4295e-08 -3.47633e-05
0.00116382 -1.10816e-05 1.49474e-07
-1.10816e-05 5.5975e-05 6.0634e-08
1.49474e-07 6.0634e-08 -6.45894e-06
0.00123923 -1.81793e-05 6.89606e-07
-1.81793e-05 8.06107e-05 -4.48524e-07
6.89606e-07 -4.48524e-07 1.59827e-05
0.000694241 6.74269e-06 -4.81827e-06
6.74269e-06 -4.95656e-05 2.07365e-07
-4.81827e-06 2.07365e-07 -9.04213e-05
0.000876588 3.11683e-06 -2.85334e-07
3.11683e-06 -4.36459e-05 1.30122e-07
-2.85334e-07 1.30122e-07 -0.000101153
0.00120645 1.15932e-05 5.99161e-07
1.15932e-05 8.68001e-05 -7.18125e-09
5.99161e-07 -7.18125e-09 2.52428e-05
0.00089045 1.57299e-05 1.38823e-06
1.57299e-05 -3.9334e-05 1.69067e-07
1.38823e-06 1.69067e-07 -9.52963e-05
0.000700082 1.64767e-05 -1.89047e-08
1.64767e-05 -5.02402e-05 -9.1247e-08
-1.89047e-08 -9.1247e-08 -8.97614e-05
0.00295507 3.4346e-05 -1.48189e-05
3.4346e-05 0.00110287 3.45621e-07
-1.48189e-05 3.45621e-07 0.00109497
0.000711466 1.92214e-05 4.9749e-06
1.92214e-05 -5.70949e-05 2.09688e-09
4.9749e-06 2.09688e-09 -9.48676e-05
0.00297462 3.47096e-05 3.57842e-07
3.47096e-05 0.00110147 1.56182e-07
3.57842e-07 1.56182e-07 0.0010949
0.00295137 3.45012e-05 1.49034e-05
3.45012e-05 0.00107776 -9.59322e-07
1.49034e-05 -9.59322e-07 0.00107295
0.00102387 -1.84696e-05 -1.93371e-06
-1.84696e-05 1.17515e-05 -1.29851e-07
-1.93371e-06 -1.29851e-07 -4.44151e-05
0.00118894 -2.05356e-05 -8.82182e-09
-2.05356e-05 5.14018e-05 8.28386e-08
-8.82182e-09 8.28386e-08 -1.08325e-05
0.00128276 -2.13558e-05 3.60168e-07
-2.13558e-05 7.86409e-05 1.0005e-07
3.60168e-07 1.0005e-07 1.35434e-05
0.00164011 -2.26622e-05 -8.39802e-06
-2.26622e-05 0.000378312 -6.40755e-07
-8.39802e-06 -6.40755e-07 0.000348615
0.00105306 -1.27997e-05 1.54476e-07
-1.27997e-05 8.15141e-06 -5.01552e-08
1.54476e-07 -5.01552e-08 -4.73429e-05
0.00121199 -1.55599e-05 8.94391e-07
-1.55599e-05 4.10246e-05 -5.85133e-07
8.94391e-07 -5.85133e-07 -2.03657e-05
0.00312133 -3.46821e-05 -1.53405e-05
-3.46821e-05 0.00114092 -1.41757e-06
-1.53405e-05 -1.41757e-06 0.001138
0.000756046 -9.81791e-06 -9.14667e-09
-9.81791e-06 -6.71023e-05 1.80784e-07
-9.14667e-09 1.80784e-07 -0.000100966
0.00109576 3.1532e-07 2.59644e-06
3.1532e-07 1.55703e-05 4.456e-07
2.59644e-06 4.456e-07 -4.04878e-05
0.00319534 -3.50174e-05 -1.49897e-07
-3.50174e-05 0.00116037 1.4345e-07
-1.49897e-07 1.4345e-07 0.00115973
0.000739045 -7.64503e-06 5.17002e-06
-7.64503e-06 -7.82858e-05 1.65072e-06
5.17002e-06 1.65072e-06 -0.000110034
0.00307932 -3.44655e-05 1.27035e-05
-3.44655e-05 0.00109465 2.19247e-06
1.27035e-05 2.19247e-06 0.00109674
0.000674685 -8.03648e-06 -7.09098e-06
-8.03648e-06 -6.46756e-05 -6.51221e-07
-7.09098e-06 -6.51221e-07 -0.000105489
0.000973653 -1.04375e-05 1.03046e-07
-1.04375e-05 -3.57072e-06 6.12478e-08
1.03046e-07 6.12478e-08 -6.09047e-05
0.00108917 -1.33623e-05 7.6409e-07
-1.33623e-05 2.05001e-05 -5.34575e-08
7.6409e-07 -5.34575e-08 -4.22829e-05
0.00291565 -2.18428e-06 -1.37646e-05
-2.18428e-06 0.00109067 3.98353e-08
-1.37646e-05 3.98353e-08 0.00108191
0.000702793 6.09442e-06 1.11002e-07
6.09442e-06 -4.5903e-05 2.12702e-07
1.11002e-07 2.12702e-07 -8.68133e-05
0.000870529 6.68873e-06 1.25918e-06
6.68873e-06 -4.55303e-05 1.50059e-07
1.25918e-06 1.50059e-07 -0.000102827
0.000699371 1.73393e-05 4.721e-06
1.73393e-05 -5.12477e-05 -1.89383e-07
4.721e-06 -1.89383e-07 -9.07028e-05
0.0029184 3.37121e-05 6.93951e-07
3.37121e-05 0.00108704 1.02445e-07
6.93951e-07 1.02445e-07 0.00107901
0.00289789 3.37184e-05 1.51768e-05
3.37184e-05 0.00106789 -4.88843e-07
1.51768e-05 -4.88843e-07 0.00106115
0.00154408 -2.36728e-05 -1.04742e-05
-2.36728e-05 0.000349263 -9.51792e-07
-1.04742e-05 -9.51792e-07 0.000317145
0.00103839 -1.72749e-05 5.67597e-08
-1.72749e-05 1.81864e-05 2.68594e-08
5.67597e-08 2.68594e-08 -3.79913e-05
0.00114026 -2.00788e-05 5.70218e-07
-2.00788e-05 2.85501e-05 3.72765e-09
5.70218e-07 3.72765e-09 -3.37858e-05
0.00306261 -3.76172e-05 -6.44709e-06
-3.76172e-05 0.00112833 -4.43201e-07
-6.44709e-06 -4.43201e-07 0.00112351
0.000769612 -1.57706e-05 2.33636e-08
-1.57706e-05 -4.69838e-05 6.32495e-08
2.33636e-08 6.32495e-08 -8.26778e-05
0.00107068 -1.18207e-05 2.35074e-06
-1.18207e-05 1.60775e-05 -6.10245e-08
2.35074e-06 -6.10245e-08 -3.94747e-05
0.0032117 -3.54562e-05 -1.83797e-07
-3.54562e-05 0.00118122 1.52657e-07
-1.83797e-07 1.52657e-07 0.00117846
0.000746983 -8.43881e-06 5.44537e-06
-8.43881e-06 -7.05396e-05 1.26249e-06
5.44537e-06 1.26249e-06 -0.000104511
0.00324239 -3.56957e-05 1.39949e-05
-3.56957e-05 0.0011814 1.9825e-06
1.39949e-05 1.9825e-06 0.00118099
0.00116604 -1.60647e-05 -1.33559e-05
-1.60647e-05 0.000234173 -3.33714e-07
-1.33559e-05 -3.33714e-07 0.000212788
0.00117014 -1.33098e-05 -2.83125e-06
-1.33098e-05 0.000176089 1.08554e-07
-2.83125e-06 1.08554e-07 0.000138717
0.00092027 -9.55097e-06 1.78859e-06
-9.55097e-06 -2.99157e-05 2.07932e-07
1.78859e-06 2.07932e-07 -8.76349e-05
0.00293249 9.63618e-07 3.86439e-07
9.63618e-07 0.00109811 8.74905e-08
3.86439e-07 8.74905e-08 0.00108929
0.000707097 4.68032e-06 4.83802e-06
4.68032e-06 -4.42049e-05 2.03605e-07
4.83802e-06 2.03605e-07 -8.51416e-05
0.00287409 3.35804e-05 1.37989e-05
3.35804e-05 0.00106786 -1.90647e-07
1.37989e-05 -1.90647e-07 0.00105964
0.00111975 -2.27787e-05 -4.5664e-06
-2.27787e-05 0.000199467 -3.53437e-07
-4.5664e-06 -3.53437e-07 0.000180578
0.00121649 -2.09692e-05 -2.75238e-06
-2.09692e-05 0.000187959 -6.38369e-08
-2.75238e-06 -6.38369e-08 0.000152715
0.00105378 -1.63652e-05 1.9168e-06
-1.63652e-05 2.50451e-05 1.77727e-07
1.9168e-06 1.77727e-07 -3.11523e-05
0.00219265 -2.98164e-05 5.19252e-06
-2.98164e-05 0.000702862 4.14161e-07
5.19252e-06 4.14161e-07 0.000692105
0.000740546 -1.399e-05 5.36206e-06
-1.399e-05 -5.9252e-05 8.47126e-07
5.36206e-06 8.47126e-07 -9.51675e-05
0.00330385 -3.63696e-05 1.50928e-05
-3.63696e-05 0.00122236 1.65398e-06
1.50928e-05 1.65398e-06 0.00121976
0.00294275 -3.28238e-05 -6.38113e-07
-3.28238e-05 0.00109923 1.62535e-07
-6.38113e-07 1.62535e-07 0.00109073
0.000718903 -1.11232e-05 5.0716e-06
-1.11232e-05 -4.29396e-05 6.83042e-07
5.0716e-06 6.83042e-07 -8.36109e-05
0.00295266 2.74345e-06 1.471e-05
2.74345e-06 0.00110683 4.24769e-08
1.471e-05 4.24769e-08 0.00109797
0.00206738 -2.80817e-05 5.24025e-06
-2.80817e-05 0.000662772 2.62137e-07
5.24025e-06 2.62137e-07 0.000649488
0.000727152 -1.63834e-05 5.11507e-06
-1.63834e-05 -4.88306e-05 8.15671e-07
5.11507e-06 8.15671e-07 -8.73074e-05
0.00322601 -3.62028e-05 1.557e-05
-3.62028e-05 0.00120145 1.24548e-06
1.557e-05 1.24548e-06 0.00119685
0.00300301 -3.41101e-05 1.51232e-05
-3.41101e-05 0.00112531 4.97462e-07
1.51232e-05 4.97462e-07 0.0011171
0.00308755 -3.53871e-05 1.53802e-05
-3.53871e-05 0.00115298 8.75251e-07
1.53802e-05 8.75251e-07 0.00114642
