# vtk DataFile Version 2.0
Wound Healing Simulation
ASCII
DATASET UNSTRUCTURED_GRID
POINTS 3012 float
69.9759 18.75 4
67.2507 60.3285 4
69.976 18.75 2
73.0099 25.446 4
71.1327 20.9142 4
68.6801 16.6661 4
67.822 19.9262 3.97476
67.2507 60.3286 2
71.1327 54.0858 4
68.6801 58.3339 4
65.6939 62.2254 4
65.3089 58.999 3.97312
74.6784 42.3946 4
73.7221 47.2057 4
69.9759 18.75 0
73.0099 25.446 2
68.6801 16.6661 2
71.1327 20.9142 2
67.8228 19.9303 2
74.6792 32.6053 4
73.7222 27.7943 4
72.1454 23.1494 4
70.6116 26.2215 3.97457
68.8824 21.9578 3.97514
67.2507 14.6715 4
66.6333 17.9729 3.9735
65.7772 21.032 3.96332
67.2507 60.3285 0
71.1327 54.0858 2
68.6801 58.3339 2
65.694 62.2255 2
65.3098 58.9945 2
72.1454 51.8506 4
69.9759 56.25 4
68.833 53.1137 3.9747
64.0165 64.0165 4
66.6071 57.1327 3.9745
63.8821 60.7631 3.97279
63.4916 57.7637 3.96482
60.3285 67.2507 4
74.6792 42.3947 2
73.7222 47.2057 2
74.9194 39.9526 4
74.2788 44.8158 4
72.1663 42.0857 3.97598
73.0099 49.554 4
71.2468 46.5981 3.97445
73.0099 25.446 0
71.1327 20.9142 0
68.6801 16.6661 0
67.822 19.9262 0.0252431
74.6792 32.6053 2
73.7222 27.7943 2
67.2508 14.6715 2
72.1455 23.1494 2
70.6111 26.2224 2
66.6347 17.9777 2
68.8828 21.9608 2
65.7745 21.0343 2
74.9197 35.0474 4
74.2794 30.1841 4
72.1831 32.9444 3.97641
71.276 28.4323 3.9749
69.8126 24.0596 3.97486
68.3369 26.9556 3.96416
66.7453 22.9388 3.96354
65.694 12.7746 4
65.3193 16.1058 3.97162
64.6978 19.2027 3.96315
63.782 22.0761 3.96426
71.1327 54.0858 0
65.6939 62.2254 0
68.6801 58.3339 0
65.3089 58.999 0.0268756
72.1455 51.8506 2
69.9759 56.25 2
68.8332 53.111 2
64.0165 64.0165 2
66.6083 57.1285 2
63.8834 60.758 2
63.4894 57.7635 2
62.2254 65.694 4
58.8915 65.4127 3.98249
69.7658 50.9896 3.97442
67.7802 55.1674 3.97482
66.6275 52.2043 3.96361
62.3324 62.4245 3.9766
64.6494 56.0266 3.9639
62.1949 59.3906 3.96477
61.7584 56.6477 3.96112
58.3339 68.6801 4
60.3285 67.2508 2
73.7221 47.2057 0
74.6784 42.3946 0
74.9197 39.9526 2
74.2794 44.8159 2
72.1655 42.0855 2
73.0099 49.554 2
71.2462 46.5976 2
75 37.5 4
72.4037 39.8025 3.97717
71.7804 44.3531 3.97578
69.7984 41.7898 3.96661
70.5723 48.8139 3.97416
68.9026 46.0131 3.96529
74.6792 32.6053 0
73.7222 27.7943 0
67.2507 14.6715 0
72.1454 23.1494 0
70.6116 26.2215 0.0254325
68.8824 21.9578 0.02486
66.6333 17.9729 0.0265037
65.7772 21.032 0.036683
74.9197 35.0474 2
74.2794 30.1841 2
72.1823 32.9447 2
71.2755 28.4327 2
65.694 12.7745 2
65.3209 16.111 2
69.8124 24.0614 2
68.3389 26.9566 2
64.6916 19.2053 2
66.7453 22.9407 2
63.7813 22.0771 2
72.4116 35.225 3.97723
71.802 30.6774 3.97589
69.8347 33.2715 3.96664
68.9599 29.0418 3.96502
67.5983 24.9167 3.96377
66.0752 27.6662 3.96878
64.0165 10.9835 4
64.6438 23.8684 3.96592
63.8854 14.3308 3.97206
63.5024 17.4575 3.96307
62.8078 20.3641 3.96232
61.8905 23.0207 3.96881
60.6806 11.102 3.97747
57.6049 11.4767 3.96874
72.1454 51.8506 0
69.9759 56.25 0
68.833 53.1137 0.0252962
64.0165 64.0165 0
63.8821 60.7631 0.027207
66.6071 57.1327 0.025495
63.4916 57.7637 0.0351784
62.2255 65.694 2
58.8937 65.4085 2
69.7656 50.9878 2
67.7808 55.1636 2
66.627 52.2029 2
62.3346 62.4195 2
64.6434 56.0249 2
62.192 59.3904 2
61.7573 56.6481 2
60.6657 63.9733 3.97919
57.0223 66.7335 3.98522
57.5515 63.6721 3.971
67.4867 50.1724 3.96399
65.6842 54.1685 3.96364
64.4075 51.3472 3.9661
60.7672 60.9172 3.96785
62.7317 55.0327 3.96338
60.6111 58.1245 3.95987
60.1989 55.7244 3.96485
56.25 69.9759 4
58.3339 68.6801 2
60.3285 67.2507 0
58.9179 9.66005 3.97881
62.2254 9.30607 4
73.0099 49.554 0
74.2788 44.8158 0
71.2468 46.5981 0.0255513
72.1663 42.0857 0.024017
74.9194 39.9526 0
75 37.5 2
72.4035 39.8025 2
71.7802 44.3525 2
69.7976 41.7896 2
70.5718 48.813 2
68.905 46.0127 2
72.4871 37.5126 3.97678
70.0361 39.6582 3.9671
69.4247 43.9071 3.96631
67.4906 41.4877 3.97347
68.2488 48.1039 3.96451
66.5763 45.4155 3.97102
74.9197 35.0474 0
74.2794 30.1841 0
72.1831 32.9444 0.0235876
71.276 28.4323 0.0250984
65.694 12.7746 0
65.3193 16.1058 0.0283828
69.8126 24.0596 0.0251368
68.3369 26.9556 0.0358414
66.7453 22.9388 0.0364619
64.6978 19.2027 0.0368528
63.782 22.0761 0.0357446
72.4114 35.225 2
71.8017 30.6779 2
69.8339 33.2721 2
68.9596 29.0426 2
64.0165 10.9835 2
63.8874 14.3362 2
63.4992 17.459 2
67.5995 24.9181 2
66.0742 27.6671 2
62.8062 20.365 2
64.6425 23.8696 2
61.8894 23.0217 2
60.6833 11.1067 2
57.6058 11.4698 2
70.0529 35.3944 3.96717
69.4613 31.1529 3.96569
67.5551 33.6046 3.97255
66.6546 29.6492 3.96993
65.407 25.7346 3.96753
63.9021 28.3168 3.97561
62.3375 12.659 3.97561
62.6358 24.7109 3.9712
62.1892 15.8018 3.965
61.7312 18.7299 3.96009
61.0264 21.4241 3.96564
60.1315 23.8393 3.97282
59.2386 12.811 3.96558
55.8678 10.2611 3.97251
56.3927 13.175 3.96934
69.7658 50.9896 0.0255766
62.2254 65.694 0
58.8915 65.4127 0.0175121
67.7802 55.1674 0.0251795
66.6275 52.2043 0.0363944
62.3324 62.4245 0.0233977
62.1949 59.3906 0.035226
64.6494 56.0266 0.0360999
61.7584 56.6477 0.0388827
60.6679 63.9703 2
57.025 66.7308 2
57.5524 63.6765 2
67.4877 50.1713 2
65.681 54.1669 2
64.4068 51.3467 2
60.7654 60.9188 2
62.7304 55.0327 2
60.6133 58.1262 2
60.1974 55.7244 2
55.0681 67.9311 3.98728
59.2127 62.3358 3.96832
55.7999 64.8992 3.9735
56.3151 62.0423 3.97156
65.191 49.3723 3.96757
63.591 53.2543 3.96465
62.1887 50.5795 3.97023
59.3122 59.5229 3.96075
60.9014 54.2422 3.96746
59.1681 56.9459 3.96123
59.0564 55.1021 3.96796
48.0994 68.5734 3.98313
50.9459 69.9311 3.98935
54.0858 71.1327 4
56.25 69.976 2
58.3339 68.6801 0
57.0554 8.33898 3.98122
60.3285 7.74928 4
58.9211 9.66416 2
62.2255 9.30602 2
70.5723 48.8139 0.0258395
71.7804 44.3531 0.0242246
68.9026 46.0131 0.0347143
69.7984 41.7898 0.03339
72.4037 39.8025 0.022831
75 37.5 0
72.4864 37.5126 2
70.0359 39.6582 2
69.424 43.9065 2
67.4884 41.4875 2
68.251 48.1031 2
66.5746 45.4149 2
70.1242 37.5232 3.9672
67.7359 39.5089 3.97358
67.1008 43.453 3.97208
65.3047 41.1868 3.97635
65.9276 47.3868 3.96954
64.3757 44.7983 3.97629
72.4116 35.225 0.0227697
71.802 30.6774 0.0241148
69.8347 33.2715 0.0333602
68.9599 29.0418 0.0349825
64.0165 10.9835 0
63.8854 14.3308 0.0279417
63.5024 17.4575 0.0369326
67.5983 24.9167 0.0362338
66.0752 27.6662 0.0312231
64.6438 23.8684 0.0340807
62.8078 20.3641 0.037677
61.8905 23.0207 0.0311889
60.6806 11.102 0.0225348
57.6049 11.4767 0.0312552
70.0527 35.3947 2
69.461 31.1536 2
67.5531 33.6051 2
66.6524 29.65 2
62.3401 12.6643 2
62.1873 15.803 2
61.7298 18.7305 2
65.4056 25.7358 2
63.8998 28.3182 2
61.0254 21.4249 2
62.6341 24.7121 2
60.1296 23.8407 2
59.239 12.8116 2
56.3941 13.1726 2
55.8702 10.2597 2
67.7741 35.5555 3.97304
67.1592 31.6423 3.97166
65.4614 33.9536 3.97667
64.4121 30.2446 3.97621
63.3041 26.4823 3.97357
61.8985 28.87 3.97591
60.7674 14.2475 3.966
60.7246 25.4458 3.97513
60.5594 17.1721 3.95934
60.0415 19.9041 3.96194
59.3781 22.3771 3.96849
58.6103 24.4634 3.97444
54.0333 9.14926 3.97191
57.8944 14.3813 3.96385
54.7744 12.0736 3.96717
55.2897 14.7234 3.96382
67.4867 50.1724 0.0360104
57.0223 66.7335 0.0147799
60.6657 63.9733 0.0208061
57.5515 63.6721 0.0290033
65.6842 54.1685 0.0363642
64.4075 51.3472 0.0339007
60.7672 60.9172 0.0321492
60.6111 58.1245 0.0401303
62.7317 55.0327 0.0366242
60.1989 55.7244 0.0351466
55.0707 67.929 2
59.2125 62.3388 2
55.8007 64.8975 2
56.3137 62.0424 2
65.1897 49.3715 2
63.5908 53.2541 2
62.1879 50.5789 2
59.3139 59.5267 2
60.9013 54.2422 2
59.1744 56.9476 2
59.0611 55.103 2
53.0401 68.9992 3.98874
53.9628 66.0039 3.97742
57.8661 60.8311 3.96824
54.672 63.1694 3.97075
55.1919 60.5619 3.97519
62.9237 48.593 3.97252
61.5235 52.5037 3.96874
59.9061 49.9137 3.97286
57.9459 58.206 3.96049
59.0872 53.856 3.96974
57.9112 55.7176 3.96315
50.106 67.8511 3.98206
47.4599 66.5687 3.97755
46.0535 69.1529 3.98454
48.1006 68.5731 2
48.7999 70.7224 3.9899
50.948 69.9302 2
51.8506 72.1454 4
54.0858 71.1327 2
56.25 69.9759 0
55.1004 7.14331 3.98496
58.3339 6.31992 4
57.0587 8.34263 2
60.3286 7.74926 2
58.9179 9.66005 0.0211914
62.2254 9.30607 0
68.2488 48.1039 0.0354933
69.4247 43.9071 0.0336904
66.5763 45.4155 0.0289787
67.4906 41.4877 0.0265326
70.0361 39.6582 0.0329028
72.4871 37.5126 0.0232182
70.1235 37.5233 2
67.7335 39.5088 2
67.0994 43.4527 2
65.3017 41.1863 2
65.9264 47.3861 2
64.3742 44.7975 2
67.8363 37.5244 3.97341
65.5443 39.3607 3.97655
64.9152 42.9867 3.97658
63.3955 40.8978 3.97657
63.6842 46.6564 3.97466
62.4111 44.143 3.97621
70.0529 35.3944 0.0328345
69.4613 31.1529 0.0343062
67.5551 33.6046 0.0274506
66.6546 29.6492 0.0300721
62.3375 12.659 0.0243852
62.1892 15.8018 0.0350047
61.7312 18.7299 0.0399059
65.407 25.7346 0.0324656
63.9021 28.3168 0.0243916
62.6358 24.7109 0.0287979
61.0264 21.4241 0.0343622
60.1315 23.8393 0.0271801
59.2386 12.811 0.034417
56.3927 13.175 0.0306593
55.8678 10.2611 0.0274901
67.7715 35.5558 2
67.1577 31.6429 2
65.4575 33.9543 2
64.4093 30.2459 2
60.7668 14.2487 2
60.555 17.1729 2
60.0395 19.9051 2
63.3021 26.4836 2
61.8964 28.8707 2
59.3794 22.3778 2
60.7224 25.4472 2
58.6077 24.465 2
57.8931 14.3821 2
55.2913 14.7199 2
54.0359 9.14884 2
54.7752 12.0704 2
65.6429 35.6819 3.97657
64.9345 32.1939 3.97628
63.9646 34.2824 3.97646
62.2157 30.7091 3.9761
61.3092 27.1746 3.97565
60.4131 29.2501 3.97618
59.2837 15.7134 3.95974
58.9235 25.9415 3.97608
58.9916 18.4392 3.95984
58.4803 20.9773 3.96373
57.9319 23.2417 3.96994
57.564 24.8285 3.97542
52.1091 8.16425 3.9759
53.0473 11.0619 3.96914
56.6415 15.8136 3.95937
53.7878 13.7624 3.96675
54.3274 16.0948 3.96012
55.0681 67.9311 0.0127232
65.191 49.3723 0.0324256
55.7999 64.8992 0.0264954
59.2127 62.3358 0.0316814
56.3151 62.0423 0.028437
63.591 53.2543 0.0353521
62.1887 50.5795 0.0297677
59.3122 59.5229 0.039245
59.1681 56.9459 0.0387665
60.9014 54.2422 0.0325404
59.0564 55.1021 0.0320431
53.0425 68.998 2
53.964 66.0032 2
57.8651 60.8323 2
54.6713 63.1707 2
55.1894 60.5618 2
62.9221 48.5921 2
61.5239 52.5036 2
59.9072 49.9134 2
57.944 58.2073 2
59.0914 53.8565 2
57.9073 55.7161 2
52.0671 66.993 3.98066
52.9459 64.1975 3.97477
56.6152 59.4398 3.96353
53.6588 61.5627 3.97223
54.2228 59.2639 3.97099
60.58 47.7772 3.9742
59.3962 52.0032 3.97079
57.5658 49.479 3.97408
56.6524 56.9076 3.96274
56.8171 54.0032 3.96676
50.1071 67.8507 2
49.3332 65.9088 3.9777
47.4605 66.5681 2
46.8872 64.7163 3.97621
45.5558 67.0868 3.97929
43.9712 69.5852 3.98562
46.0547 69.1531 2
46.6065 71.3668 3.99057
48.0994 68.5734 0.0168718
48.8018 70.7218 2
49.554 73.0099 4
50.9459 69.9311 0.0106461
51.8506 72.1455 2
54.0858 71.1327 0
53.0628 6.0737 3.98824
55.1038 7.14487 2
56.25 5.02411 4
58.3339 6.3199 2
57.0554 8.33898 0.0187813
60.3285 7.74928 0
65.9276 47.3868 0.0304575
67.1008 43.453 0.0279178
64.3757 44.7983 0.0237136
65.3047 41.1868 0.0236494
67.7359 39.5089 0.0264152
70.1242 37.5232 0.0328011
67.834 37.5245 2
65.5411 39.3604 2
64.9119 42.9858 2
63.3949 40.8974 2
63.6823 46.6555 2
62.4101 44.1428 2
65.6534 37.5049 3.97653
63.5454 39.2531 3.97663
62.9481 42.5029 3.97626
61.9866 40.6591 3.97661
61.5562 45.8283 3.97577
60.9597 43.6027 3.97605
67.7741 35.5555 0.026959
67.1592 31.6423 0.0283366
65.4614 33.9536 0.0233313
64.4121 30.2446 0.0237854
60.7674 14.2475 0.034001
60.5594 17.1721 0.0406642
60.0415 19.9041 0.0380609
63.3041 26.4823 0.0264306
61.8985 28.87 0.0240945
60.7246 25.4458 0.0248705
59.3781 22.3771 0.0315107
58.6103 24.4634 0.0255621
57.8944 14.3813 0.0361534
55.2897 14.7234 0.0361752
54.0333 9.14926 0.0280888
54.7744 12.0736 0.0328345
65.6393 35.682 2
64.9312 32.1948 2
63.9632 34.2827 2
62.2142 30.7093 2
59.2828 15.7123 2
59.0015 18.4369 2
58.4789 20.9787 2
61.3073 27.1757 2
60.4127 29.2508 2
57.9219 23.2451 2
58.9223 25.9426 2
57.568 24.83 2
56.6376 15.8143 2
54.333 16.089 2
53.7866 13.7524 2
52.1113 8.16375 2
53.0489 11.0597 2
63.7556 35.6519 3.97642
62.5405 33.0987 3.97614
60.1268 30.7156 3.97583
59.1089 28.0466 3.97594
57.8638 17.0592 3.9586
57.2742 25.9041 3.97593
57.5051 19.5962 3.95967
57.0288 21.9991 3.96431
56.7566 24.1263 3.97091
50.1103 7.29303 3.98149
51.2249 10.1508 3.97269
52.1528 12.8694 3.96727
55.4622 17.07 3.9579
52.9383 15.3635 3.96299
53.6838 17.0952 3.95734
53.0401 68.9992 0.0112611
53.9628 66.0039 0.0225785
62.9237 48.593 0.0274797
54.672 63.1694 0.0292459
57.8661 60.8311 0.0317591
55.1919 60.5619 0.0248121
61.5235 52.5037 0.0312617
59.9061 49.9137 0.0271398
57.9459 58.206 0.0395096
57.9112 55.7176 0.0368458
59.0872 53.856 0.0302602
52.0682 66.9928 2
52.9455 64.1998 2
56.614 59.4403 2
53.6571 61.5637 2
54.2185 59.2657 2
60.5795 47.7766 2
59.3978 52.0031 2
57.5654 49.4784 2
56.6479 56.9109 2
56.8141 54.002 2
51.1634 65.1145 3.97685
52.0294 62.5029 3.97144
55.4096 58.1855 3.96066
52.7936 60.0581 3.96964
53.5828 58.4044 3.96607
57.7398 46.6991 3.97586
57.1741 51.656 3.97094
55.7076 49.3906 3.97329
55.2943 55.6928 3.96324
55.0005 53.2476 3.96309
50.106 67.8511 0.0179425
49.3335 65.9082 2
48.6112 64.1044 3.97793
47.4599 66.5687 0.0224451
45.5564 67.0877 2
46.8878 64.7154 2
46.3733 63.0267 3.98211
45.1294 65.1791 3.97765
43.6296 67.4592 3.98122
41.859 69.8721 3.98532
43.9721 69.5855 2
44.3739 71.8614 3.99098
46.0535 69.1529 0.015462
46.608 71.3666 2
47.2057 73.7222 4
48.7999 70.7224 0.0101038
49.554 73.0099 2
51.8506 72.1454 0
50.9538 5.13425 3.99022
53.0653 6.0745 2
54.0858 3.86728 4
55.1004 7.14331 0.0150395
56.25 5.02406 2
58.3339 6.31992 0
63.6842 46.6564 0.0253367
64.9152 42.9867 0.0234181
62.4111 44.143 0.0237893
63.3955 40.8978 0.02343
65.5443 39.3607 0.0234487
67.8363 37.5244 0.0265896
65.6498 37.5049 2
63.545 39.253 2
62.9476 42.5026 2
61.9877 40.6589 2
61.555 45.8275 2
60.9596 43.6029 2
63.6097 37.4595 3.97653
61.6936 39.3333 3.97676
60.7041 41.893 3.9766
59.7141 44.6548 3.97611
65.6429 35.6819 0.0234323
64.9345 32.1939 0.0237235
63.9646 34.2824 0.0235384
62.2157 30.7091 0.0238961
59.2837 15.7134 0.0402626
58.9916 18.4392 0.040156
58.4803 20.9773 0.0362723
61.3092 27.1746 0.0243497
60.4131 29.2501 0.0238185
58.9235 25.9415 0.0239168
57.9319 23.2417 0.0300646
57.564 24.8285 0.0245753
56.6415 15.8136 0.0406254
54.3274 16.0948 0.039876
53.7878 13.7624 0.0332529
52.1091 8.16425 0.0240979
53.0473 11.0619 0.030863
63.7549 35.652 2
62.5409 33.099 2
60.1274 30.7158 2
57.8663 17.0586 2
57.5214 19.5919 2
57.0242 22.0019 2
59.1085 28.0472 2
56.7709 24.1272 2
57.2766 25.9065 2
50.1123 7.2906 2
55.4673 17.0674 2
53.695 17.0853 2
52.9363 15.3557 2
52.1537 12.873 2
51.227 10.1473 2
61.7373 35.387 3.97651
59.7445 32.8239 3.97607
58.0396 30.2111 3.9757
56.7495 27.5641 3.97632
56.5114 18.2623 3.95967
55.7975 25.3061 3.97506
56.0922 20.6731 3.9606
55.699 23.0587 3.96419
48.0558 6.53278 3.98576
49.3201 9.3476 3.9755
50.4183 12.0455 3.9712
51.3414 14.5828 3.96349
54.3012 18.0439 3.95913
52.2987 17.1648 3.95836
52.0671 66.993 0.0193422
52.9459 64.1975 0.0252282
60.58 47.7772 0.0258043
53.6588 61.5627 0.0277733
56.6152 59.4398 0.036466
54.2228 59.2639 0.0290096
59.3962 52.0032 0.0292055
57.5658 49.479 0.025922
56.6524 56.9076 0.037257
56.8171 54.0032 0.033241
51.1633 65.1142 2
52.0282 62.5043 2
55.407 58.1866 2
52.7924 60.061 2
53.5801 58.4069 2
57.7395 46.6984 2
57.171 51.6548 2
55.7029 49.3892 2
55.2913 55.6926 2
55.0005 53.2479 2
50.336 63.3622 3.97815
51.2106 60.8723 3.97485
54.1185 57.1905 3.96648
52.2249 58.5514 3.9659
55.9585 44.0225 3.97641
54.8532 47.712 3.9752
54.5803 51.2273 3.96589
53.758 54.4268 3.96541
49.3332 65.9088 0.0223027
48.611 64.1025 2
47.948 62.4517 3.9821
45.5558 67.0868 0.0207124
46.8872 64.7163 0.023792
43.63 67.4598 2
46.3732 63.0271 2
45.13 65.1785 2
45.9732 61.5555 3.99006
44.7617 63.4247 3.97689
43.3558 65.4912 3.9783
41.6622 67.6776 3.98089
39.7014 70.0181 3.98473
41.8598 69.8726 2
42.1087 72.2056 3.99135
43.9712 69.5852 0.0143791
44.3752 71.8612 2
44.8159 74.2794 4
46.6065 71.3668 0.00943133
47.2057 73.7222 2
49.554 73.0099 0
48.7852 4.32448 3.9911
50.9555 5.13378 2
51.8506 2.85458 4
53.0628 6.0737 0.0117621
54.0858 3.86728 2
56.25 5.02411 0
61.5562 45.8283 0.0242253
62.9481 42.5029 0.0237444
60.9597 43.6027 0.0239481
61.9866 40.6591 0.0233907
63.5454 39.2531 0.0233702
65.6534 37.5049 0.023473
63.6092 37.4594 2
61.6949 39.3333 2
60.7058 41.8931 2
59.7146 44.6544 2
61.5221 37.446 3.97692
59.654 39.8064 3.97679
58.3335 42.8172 3.97599
63.7556 35.6519 0.0235837
62.5405 33.0987 0.023863
60.1268 30.7156 0.0241737
57.8638 17.0592 0.0414002
57.5051 19.5962 0.040328
57.0288 21.9991 0.0356886
59.1089 28.0466 0.0240583
57.2742 25.9041 0.0240676
56.7566 24.1263 0.0290897
55.4622 17.07 0.0420986
53.6838 17.0952 0.0426631
52.9383 15.3635 0.0370148
50.1103 7.29303 0.0185072
52.1528 12.8694 0.0327311
51.2249 10.1508 0.0273063
61.7384 35.3871 2
59.7449 32.8237 2
58.0408 30.2104 2
56.5139 18.261 2
56.117 20.6662 2
55.7088 23.0628 2
56.7502 27.5659 2
55.8052 25.3118 2
48.0568 6.53167 2
49.322 9.34552 2
54.3189 18.0419 2
52.2907 17.1582 2
51.3381 14.5837 2
50.4204 12.0453 2
59.2888 35.1589 3.97657
57.3073 32.3782 3.97557
55.8953 29.5173 3.976
54.8481 26.8367 3.9755
55.1796 19.3201 3.96211
54.4776 24.2751 3.9734
54.6793 21.743 3.9606
45.9626 5.88637 3.98777
43.3744 7.48059 3.98344
47.3532 8.63456 3.98049
48.5896 11.3264 3.97322
49.6821 13.8016 3.96813
50.5781 16.2357 3.96102
52.9947 18.8128 3.96336
51.2159 18.2227 3.96008
51.1634 65.1145 0.0231526
52.0294 62.5029 0.0285642
57.7398 46.6991 0.0241415
52.7936 60.0581 0.0303622
55.4096 58.1855 0.0393353
53.5828 58.4044 0.0339277
57.1741 51.656 0.0290618
55.7076 49.3906 0.0267116
55.2943 55.6928 0.0367623
55.0005 53.2476 0.0369146
50.3353 63.3608 2
51.2087 60.8714 2
54.1168 57.192 2
52.2204 58.5535 2
55.9593 44.0229 2
54.851 47.7106 2
54.5766 51.2262 2
53.7555 54.4284 2
49.5698 61.7227 3.97499
54.6888 41.6214 3.974
50.5016 59.2606 3.96983
52.0283 56.3964 3.96599
53.3598 45.3453 3.97433
52.7104 49.1377 3.96961
52.2814 52.7068 3.95998
48.6112 64.1044 0.0220729
47.9472 62.4481 2
47.3057 60.9822 3.99427
43.6296 67.4592 0.0187775
45.1294 65.1791 0.0223475
46.3733 63.0267 0.017887
41.663 67.677 2
43.3571 65.4919 2
45.9728 61.556 2
44.762 63.4235 2
45.7401 60.6012 3.99107
44.4738 61.7987 3.97905
43.1434 63.7009 3.9782
41.5459 65.6297 3.97613
39.632 67.7548 3.98001
37.5258 70.0424 3.98391
39.702 70.0182 2
39.8161 72.4023 3.99137
41.859 69.8721 0.0146779
42.1096 72.2059 2
42.3947 74.6792 4
44.3739 71.8614 0.00901683
44.8159 74.2794 2
47.2057 73.7222 0
43.852 5.36298 3.98705
46.5715 3.64885 3.99168
48.786 4.32416 2
49.554 1.99015 4
50.9538 5.13425 0.00978018
51.8506 2.85453 2
54.0858 3.86728 0
59.7141 44.6548 0.0238946
60.7041 41.893 0.0233996
61.6936 39.3333 0.0232402
63.6097 37.4595 0.0234728
61.5229 37.4459 2
59.6557 39.8059 2
58.3343 42.8176 2
59.1435 37.5659 3.97733
57.2559 40.5872 3.97731
54.0873 39.6381 3.97546
61.7373 35.387 0.023488
59.7445 32.8239 0.0239306
58.0396 30.2111 0.0243035
56.5114 18.2623 0.0403343
56.0922 20.6731 0.0393964
55.699 23.0587 0.0358117
56.7495 27.5641 0.0236775
55.7975 25.3061 0.0249447
54.3012 18.0439 0.0408724
52.2987 17.1648 0.0416443
51.3414 14.5828 0.0365113
48.0558 6.53278 0.0142449
49.3201 9.3476 0.0245045
50.4183 12.0455 0.0288023
59.2896 35.1583 2
45.9631 5.88496 2
43.3747 7.47803 2
57.3081 32.3789 2
55.8949 29.5167 2
55.1698 19.3259 2
54.7191 21.7436 2
54.4792 24.282 2
54.8473 26.838 2
47.3548 8.63185 2
48.5919 11.3234 2
53.0069 18.7846 2
51.2216 18.2151 2
50.5751 16.2352 2
49.6811 13.8065 2
56.627 34.8176 3.97713
54.948 31.6668 3.97558
53.8089 28.6301 3.97703
53.2262 25.7536 3.97451
53.7683 20.293 3.96067
53.218 22.9339 3.95805
41.4004 7.08447 3.98338
45.3599 8.00026 3.98667
42.8667 9.42771 3.9762
46.6624 10.6716 3.97836
47.7196 13.1392 3.97307
48.8844 15.4774 3.96829
49.9202 17.7976 3.95679
51.5092 19.5094 3.97466
50.336 63.3622 0.0218475
51.2106 60.8723 0.0251501
55.9585 44.0225 0.023591
54.8532 47.712 0.0247983
52.2249 58.5514 0.0340974
54.1185 57.1905 0.0335221
54.5803 51.2273 0.0341095
53.758 54.4268 0.0345878
49.5684 61.7205 2
54.6799 41.617 2
50.4981 59.2633 2
52.0317 56.4004 2
53.3546 45.3433 2
52.7073 49.1356 2
52.2844 52.707 2
48.8051 60.1721 3.97956
51.4332 42.4909 3.98343
49.6801 57.5559 3.96384
50.3324 54.3193 3.96148
51.0299 47.048 3.97562
50.7147 50.7787 3.95467
47.1285 43.5299 3.97329
47.948 62.4517 0.0179044
47.3045 60.9787 2
46.5806 59.7726 3.99356
41.6622 67.6776 0.0191135
43.3558 65.4912 0.0217036
44.7617 63.4247 0.0231119
45.9732 61.5555 0.00994089
39.633 67.7554 2
41.5469 65.6273 2
45.7403 60.6016 2
43.143 63.6997 2
44.4722 61.7999 2
44.5971 60.2555 3.9958
42.9426 62.053 3.97486
41.5987 63.7984 3.97702
39.6469 65.594 3.97549
37.5633 67.7357 3.97824
31.6984 65.1121 3.97513
33.3933 67.4739 3.97814
35.3341 69.9531 3.98426
37.5259 70.044 2
37.509 72.4565 3.99193
39.7014 70.0181 0.0152748
39.8168 72.4023 2
39.9526 74.9197 4
42.1087 72.2056 0.00864714
42.3947 74.6792 2
44.8159 74.2794 0
41.7368 4.97101 3.98797
43.8523 5.3611 2
44.3271 3.11175 3.99236
46.572 3.64832 2
47.2057 1.27793 4
48.7852 4.32448 0.0089019
49.554 1.99013 2
51.8506 2.85458 0
58.3335 42.8172 0.0240094
59.654 39.8064 0.0232054
61.5221 37.446 0.0230775
59.1449 37.5663 2
57.2575 40.5888 2
54.0785 39.6463 2
55.9799 37.8741 3.97683
48.4585 41.2103 3.96999
52.0187 39.2728 3.98166
39.444 6.80775 3.98376
59.2888 35.1589 0.023434
57.3073 32.3782 0.0244348
55.8953 29.5173 0.0239984
55.1796 19.3201 0.0378918
54.6793 21.743 0.0394001
54.4776 24.2751 0.0265966
54.8481 26.8367 0.024503
52.9947 18.8128 0.0366382
51.2159 18.2227 0.0399224
50.5781 16.2357 0.03898
45.9626 5.88637 0.0122343
49.6821 13.8016 0.0318702
47.3532 8.63456 0.0195063
48.5896 11.3264 0.0267833
43.3744 7.48059 0.0165581
56.6266 34.8175 2
41.4005 7.08408 2
45.3605 7.99828 2
42.867 9.42539 2
54.9502 31.6662 2
53.8079 28.6314 2
53.7734 20.3097 2
53.204 22.9382 2
53.2226 25.7544 2
46.6643 10.6662 2
47.7206 13.1348 2
51.5308 19.5078 2
49.9199 17.8027 2
48.8771 15.4917 2
53.9085 34.0201 3.97486
52.6428 30.728 3.97522
51.9213 27.4885 3.975
51.7209 24.3817 3.97838
52.1613 21.2569 3.97569
41.0136 9.05843 3.97712
44.7266 10.0024 3.98552
42.4592 10.9116 4.00495
45.982 12.747 3.96803
47.6422 14.6537 3.96595
48.0294 17.0528 3.96675
49.7234 19.91 3.98117
49.5698 61.7227 0.0250051
50.5016 59.2606 0.030165
54.6888 41.6214 0.0260003
53.3598 45.3453 0.0256675
52.7104 49.1377 0.0303926
52.0283 56.3964 0.0340073
52.2814 52.7068 0.0400222
48.8019 60.1687 2
51.4453 42.5023 2
49.677 57.556 2
50.3342 54.322 2
51.0326 47.0473 2
50.7191 50.7785 2
47.1389 43.5638 2
47.9159 58.6841 3.99008
49.1197 45.0735 3.98102
48.4278 55.8388 3.95806
48.7818 52.4679 3.9763
49.0672 48.8532 3.96994
44.8537 39.7671 3.84582
45.3609 42.4569 3.88696
45.6452 45.522 3.98247
42.6961 40.9899 3.65147
41.4897 41.7402 3.45096
47.3057 60.9822 0.00572571
46.5792 59.7677 2
45.4172 58.7671 3.99491
39.632 67.7548 0.0199915
41.5459 65.6297 0.0238657
43.1434 63.7009 0.0217994
44.4738 61.7987 0.0209469
45.7401 60.6012 0.00892885
41.599 63.7957 2
37.564 67.7375 2
39.6484 65.5946 2
44.5982 60.2569 2
42.9406 62.0528 2
41.7464 62.4592 3.97681
42.46 59.947 3.98318
39.8939 63.5304 3.97633
37.6417 65.49 3.97475
35.4639 67.6455 3.97818
33.5764 65.3234 3.97429
31.9609 63.2708 3.97686
29.8865 64.7018 3.97921
31.698 65.1116 2
31.3784 67.185 3.9786
33.3928 67.4751 2
33.1578 69.7467 3.98419
35.3336 69.9546 2
35.1959 72.3712 3.99201
37.5258 70.0424 0.0160874
37.5094 72.4571 2
37.5 75 4
39.8161 72.4023 0.0086253
39.9526 74.9197 2
42.3947 74.6792 0
39.6249 4.71867 3.98899
41.7368 4.97046 2
42.0636 2.71877 3.99274
43.852 5.36298 0.0129532
44.3271 3.11078 2
44.8158 0.721173 4
46.5715 3.64885 0.00831609
47.2057 1.27779 2
49.554 1.99015 0
57.2559 40.5872 0.0226919
59.1435 37.5659 0.0226717
54.0873 39.6381 0.0245357
48.4811 41.218 2
55.982 37.8707 2
52.0129 39.2367 2
52.8764 36.6139 3.9776
46.389 40.2865 3.8929
49.3962 38.5018 3.98264
37.518 6.67718 3.98504
39.4446 6.80601 2
39.2115 8.70059 3.98149
35.9441 8.49815 3.98322
56.627 34.8176 0.0228724
54.948 31.6668 0.0244209
53.8089 28.6301 0.0229683
53.7683 20.293 0.0393329
53.218 22.9339 0.0419547
53.2262 25.7536 0.0254877
51.5092 19.5094 0.0253367
49.9202 17.7976 0.0432123
48.8844 15.4774 0.0317092
45.3599 8.00026 0.0133319
47.7196 13.1392 0.0269293
46.6624 10.6716 0.0216444
41.4004 7.08447 0.0166219
42.8667 9.42771 0.0238011
53.9065 34.0164 2
41.0147 9.05987 2
44.7263 9.9996 2
42.4605 10.913 2
52.636 30.7253 2
51.9295 27.4905 2
52.1587 21.2668 2
51.707 24.3854 2
45.9832 12.7393 2
47.6343 14.6248 2
49.7436 19.897 2
48.0261 17.0638 2
51.3995 32.9457 3.982
50.4765 29.4494 3.97731
50.2258 25.9834 3.97003
49.7266 22.5092 3.98581
40.5627 11.6204 3.98432
43.8375 11.9163 3.9754
45.7592 15.5026 3.98996
47.4313 19.5241 3.98089
45.3122 37.4834 3.84471
48.8051 60.1721 0.0204387
49.6801 57.5559 0.0361647
51.4332 42.4909 0.0165675
51.0299 47.048 0.0243796
50.7147 50.7787 0.045325
50.3324 54.3193 0.0385189
47.1285 43.5299 0.0267058
47.912 58.6899 2
49.1357 45.0892 2
48.4237 55.8412 2
48.783 52.4733 2
49.0722 48.8555 2
44.957 39.793 2
45.389 42.4771 2
45.6532 45.5419 2
42.7542 41.0448 2
41.5292 41.7649 2
46.7372 57.2895 3.98072
43.4051 39.3478 3.64946
41.8696 40.6867 3.45509
47.3227 47.0995 3.98378
46.9376 54.1421 3.95916
47.1515 50.6089 3.97734
44.206 47.1511 3.98481
44.0113 41.7993 3.84488
44.1427 44.2568 3.88021
41.7727 42.3803 3.69748
40.537 42.0284 3.42051
46.5806 59.7726 0.00643923
45.4171 58.7658 2
43.8246 57.6458 3.98322
37.5633 67.7357 0.0217632
39.6469 65.594 0.0245145
41.5987 63.7984 0.0229791
42.9426 62.053 0.0251413
44.5971 60.2555 0.00420285
35.464 67.6477 2
41.7447 62.4618 2
39.8932 63.5306 2
37.6427 65.4921 2
42.4626 59.9444 2
40.6166 61.6001 3.98247
40.4235 58.121 3.98485
37.837 63.1863 3.97257
35.573 65.4129 3.97648
33.5764 65.3234 2
31.9629 63.2744 2
33.6296 63.3143 3.97549
30.3812 62.8336 3.98146
32.1304 61.9735 3.98744
26.8842 61.45 3.98099
28.068 64.1308 3.97991
29.886 64.7018 2
29.4084 66.7477 3.97871
31.6984 65.1121 0.0248678
31.3781 67.1848 2
31.0157 69.4124 3.98408
33.3933 67.4739 0.0218608
33.1571 69.7477 2
32.8941 72.1456 3.99132
35.3341 69.9531 0.0157423
35.1956 72.372 2
35.0474 74.9194 4
37.509 72.4565 0.00807158
37.5 75 2
39.9526 74.9197 0
35.6224 6.72873 3.98417
37.5248 4.61766 3.98933
39.6249 4.71713 2
39.7901 2.4754 3.99285
41.7368 4.97101 0.0120349
42.0633 2.71835 2
42.3946 0.32156 4
44.3271 3.11175 0.007638
44.8159 0.72056 2
47.2057 1.27793 0
48.4585 41.2103 0.0300136
55.9799 37.8741 0.0231746
52.0187 39.2728 0.0183356
46.4088 40.2938 2
49.3947 38.4977 2
52.8806 36.6418 2
50.2025 35.5561 3.97434
47.0437 37.7518 3.89733
44.8815 35.1984 3.84484
42.7463 33.9609 3.65104
41.5272 33.2134 3.44982
37.4594 8.53787 3.98435
37.5184 6.67667 2
39.444 6.80775 0.0162386
39.2133 8.69819 2
38.9755 10.137 3.98588
35.9001 9.78105 3.98007
34.154 8.83016 3.98112
35.945 8.49568 2
53.9085 34.0201 0.0251366
52.6428 30.728 0.0247841
51.9213 27.4885 0.0249958
52.1613 21.2569 0.0243139
51.7209 24.3817 0.0216187
49.7234 19.91 0.0188298
48.0294 17.0528 0.0332544
47.6422 14.6537 0.0340501
44.7266 10.0024 0.0144822
45.982 12.747 0.0319678
41.0136 9.05843 0.0228845
42.4592 10.9116 -0.00494602
51.4124 32.938 2
40.5656 11.6244 2
43.8369 11.9078 2
50.4933 29.4502 2
50.2217 25.9914 2
49.7096 22.4926 2
45.7468 15.4461 2
47.4345 19.5548 2
48.9894 31.5593 3.98498
48.588 27.7523 3.9762
48.9881 24.6237 3.98093
47.0511 22.2964 3.99039
38.2987 12.7538 3.97725
42.0795 14.3332 3.98109
44.7468 18.63 3.97336
43.8259 37.484 3.66334
45.4121 37.4874 2
47.9159 58.6841 0.00992236
48.4278 55.8388 0.0419433
49.1197 45.0735 0.0189808
49.0672 48.8532 0.0300585
48.7818 52.4679 0.0237022
44.8537 39.7671 0.154183
45.3609 42.4569 0.113041
45.6452 45.522 0.0175331
42.6961 40.9899 0.348533
41.4897 41.7402 0.549036
46.7336 57.296 2
43.4813 39.3745 2
41.8795 40.6997 2
47.3308 47.0971 2
46.9323 54.1466 2
47.1538 50.6182 2
44.2413 47.1502 2
44.0754 41.8341 2
44.2007 44.2854 2
41.8285 42.4423 2
40.5723 42.045 2
45.2648 55.8665 4.00061
42.2134 39.1821 3.46566
40.4261 40.5689 3.5656
45.5565 48.7421 4.00152
45.2157 52.4017 3.98639
42.973 48.1438 3.99339
42.8528 45.7821 3.87574
42.9425 43.563 3.82976
40.6726 43.3567 3.67133
39.1616 42.2857 3.47748
45.4172 58.7671 0.00508957
43.8223 57.6554 2
42.0473 56.2217 3.98952
35.4639 67.6455 0.0218185
37.6417 65.49 0.0252481
39.8939 63.5304 0.0236693
41.7464 62.4592 0.0231865
42.46 59.947 0.0168212
35.5739 65.4163 2
40.6166 61.5981 2
37.8376 63.1849 2
40.4238 58.1255 2
38.9027 56.3627 3.99396
38.2449 60.2812 3.98213
35.6071 63.1805 3.97226
33.5764 65.3234 0.0257121
31.9609 63.2708 0.0231418
33.6317 63.3158 2
30.3827 62.8362 2
32.1327 61.9763 2
28.6892 62.1724 3.98006
33.3492 61.4792 3.97934
31.0812 61.2001 3.9857
27.6009 59.5446 3.97894
23.8372 59.0176 3.99251
25.0555 60.8156 3.97676
26.8854 61.4508 2
26.2381 63.4606 3.97564
28.0674 64.129 2
27.4657 66.1707 3.97848
29.8865 64.7018 0.020785
29.4079 66.7469 2
28.9083 68.9375 3.98302
31.3784 67.185 0.0214029
31.0148 69.4122 2
30.6171 71.7773 3.99069
33.1578 69.7467 0.0158119
32.8932 72.1461 2
32.6054 74.6784 4
35.1959 72.3712 0.00798739
35.0474 74.9197 2
37.5 75 0
33.7255 6.98487 3.98282
35.4369 4.68776 3.9889
35.6229 6.72744 2
37.5159 2.38777 3.99297
37.5247 4.61695 2
39.6249 4.71867 0.0110136
39.7897 2.47456 2
39.9526 0.0806499 4
42.0636 2.71877 0.00726334
42.3947 0.320817 2
44.8158 0.721173 0
43.4261 35.6152 3.65441
41.895 34.262 3.4412
46.389 40.2865 0.107099
49.3962 38.5018 0.0173576
52.8764 36.6139 0.0224003
47.04 37.7325 2
50.2158 35.5596 2
44.9668 35.1803 2
42.7902 33.9108 2
41.555 33.188 2
47.2555 34.3692 3.94004
44.0683 33.1619 3.83565
41.8268 32.5754 3.6956
40.5667 32.9345 3.41954
37.3117 10.6353 3.98134
37.4609 8.53791 2
37.518 6.67718 0.014963
39.2115 8.70059 0.0185141
38.9793 10.1349 2
34.7571 10.391 3.97966
35.9027 9.77597 2
32.381 9.37651 3.9774
34.1533 8.82581 2
35.9441 8.49815 0.0167816
51.3995 32.9457 0.0180036
50.4765 29.4494 0.0226862
50.2258 25.9834 0.0299744
49.7266 22.5092 0.0141882
47.4313 19.5241 0.019111
45.7592 15.5026 0.0100441
43.8375 11.9163 0.0246018
40.5627 11.6204 0.0156776
49.0101 31.543 2
38.3006 12.7489 2
42.0861 14.3462 2
48.5878 27.7541 2
48.9803 24.6304 2
47.0364 22.2977 2
44.7517 18.6991 2
46.9211 29.7479 3.983
46.6717 25.3387 3.97353
44.1946 21.6344 3.98152
36.5861 12.9677 3.97483
38.6761 14.8705 3.97571
41.7172 17.9638 3.97708
42.3827 37.4625 3.50205
43.8899 37.4855 2
45.3122 37.4834 0.15529
46.7372 57.2895 0.0192825
46.9376 54.1421 0.0408424
47.3227 47.0995 0.0162205
47.1515 50.6089 0.0226645
43.4051 39.3478 0.350538
44.0113 41.7993 0.155116
44.1427 44.2568 0.119794
44.206 47.1511 0.0151874
41.7727 42.3803 0.302523
41.8696 40.6867 0.544909
40.537 42.0284 0.579486
45.2611 55.8695 2
42.2197 39.1895 2
40.4694 40.5561 2
45.5579 48.7623 2
45.2109 52.4044 2
43.0087 48.1592 2
42.9121 45.8353 2
42.992 43.5962 2
40.7177 43.4283 2
39.1554 42.306 2
43.5855 54.3195 3.99731
40.5242 39.0259 3.58796
39.0575 40.6469 3.53494
43.292 50.2342 4.0033
41.6198 47.2856 3.92351
41.5283 44.878 3.83937
39.3482 44.006 3.63988
37.5033 42.4102 3.52479
43.8246 57.6458 0.0167806
42.0517 56.2143 2
40.3609 54.7798 3.99478
35.573 65.4129 0.0235218
37.837 63.1863 0.0274265
40.6166 61.6001 0.017535
40.4235 58.121 0.0151543
35.6086 63.1777 2
38.2432 60.2807 2
38.9055 56.3444 2
37.9765 55.0386 3.99484
36.9257 57.5578 3.99132
35.3644 60.8771 3.98002
33.6296 63.3143 0.0245066
30.3812 62.8336 0.0185396
32.1304 61.9735 0.0125626
33.3508 61.4793 2
28.6903 62.1767 2
31.0833 61.2052 2
29.4269 60.2563 3.97737
32.3691 59.6897 3.99626
28.0746 58.3316 4.01625
27.6027 59.5426 2
25.4262 58.5385 3.97888
22.8272 58.1737 3.96827
23.4262 60.2824 3.97624
23.8395 59.0178 2
25.0574 60.8147 2
24.4445 62.7397 3.97605
26.8842 61.45 0.0190084
26.2384 63.4591 2
25.5508 65.4797 3.97704
28.068 64.1308 0.0200917
27.4654 66.1711 2
26.8382 68.3251 3.9827
29.4084 66.7477 0.021291
28.9076 68.9369 2
28.3723 71.2625 3.98986
31.0157 69.4124 0.0159237
30.6159 71.7769 2
30.1842 74.2788 4
32.8941 72.1456 0.00867746
32.6053 74.6792 2
35.0474 74.9194 0
31.7899 7.42428 3.98137
33.3494 4.92752 3.98785
33.7253 6.98233 2
35.2463 2.46363 3.99301
35.4367 4.68708 2
35.6224 6.72873 0.0158311
37.5 0 4
37.5151 2.38734 2
37.5248 4.61766 0.0106653
39.7901 2.4754 0.00715227
39.9526 0.0802889 2
42.3946 0.32156 0
42.208 35.7408 3.44683
43.5111 35.5852 2
40.4726 34.38 3.56655
41.8959 34.2445 2
47.0437 37.7518 0.102672
50.2025 35.5561 0.0256552
44.8815 35.1984 0.155159
42.7463 33.9609 0.34896
41.5272 33.2134 0.550175
47.2875 34.3847 2
44.1136 33.1225 2
41.8787 32.5126 2
40.5982 32.9177 2
45.383 31.7945 3.89753
42.9943 31.3966 3.82197
40.7177 31.6027 3.67101
39.1797 32.6944 3.47294
35.6965 11.7893 3.97617
37.3162 10.6345 2
37.4594 8.53787 0.0156504
38.9755 10.137 0.0141181
33.1023 11.2292 3.9727
34.7568 10.383 2
35.9001 9.78105 0.0199348
30.4868 10.0285 3.97695
32.3802 9.37512 2
34.154 8.83016 0.0188847
48.9894 31.5593 0.0150243
48.588 27.7523 0.0237978
48.9881 24.6237 0.0190686
47.0511 22.2964 0.00960869
44.7468 18.63 0.0266421
42.0795 14.3332 0.0189122
38.2987 12.7538 0.022745
36.5832 12.9459 2
46.9252 29.6929 2
38.6753 14.8493 2
41.7095 17.9657 2
46.6703 25.3397 2
44.1783 21.6122 2
44.9135 27.8885 3.99366
43.5355 24.2757 4.02383
41.2727 20.9788 3.99132
35.7708 14.8075 3.98053
38.6579 17.6916 3.9835
40.5805 37.4421 3.60601
42.396 37.4672 2
43.8259 37.484 0.336662
45.2648 55.8665 -0.000614189
45.2157 52.4017 0.0136071
45.5565 48.7421 -0.00151772
42.2134 39.1821 0.534344
42.9425 43.563 0.170243
42.8528 45.7821 0.12426
42.973 48.1438 0.00661161
40.6726 43.3567 0.328672
40.4261 40.5689 0.434397
39.1616 42.2857 0.522519
43.5822 54.316 2
40.5398 39.0268 2
39.0552 40.6448 2
43.2839 50.2481 2
41.6203 47.3204 2
41.5501 44.9239 2
37.4991 42.4337 2
39.3684 44.0779 2
41.7353 52.7798 4.00024
39.0664 39.0696 3.53941
37.5059 40.7013 3.57353
35.8532 42.2961 3.47379
40.7699 49.3712 3.9937
39.6965 45.5939 3.80375
37.5008 44.2791 3.67629
42.0473 56.2217 0.0104766
40.3606 54.7881 2
38.7177 53.5712 3.99659
35.6071 63.1805 0.02774
38.2449 60.2812 0.0178747
38.9027 56.3627 0.00603771
35.364 60.8669 2
36.9273 57.5685 2
37.9761 55.0348 2
36.314 55.1244 3.99748
34.4933 58.4719 3.99339
33.3492 61.4792 0.0206571
28.6892 62.1724 0.0199391
31.0812 61.2001 0.0143034
32.3686 59.6919 2
29.4283 60.2566 2
30.3435 57.7736 3.98688
28.0779 58.3293 2
27.0498 56.7771 3.96935
27.6009 59.5446 0.0210635
25.4289 58.5376 2
23.9617 56.7272 3.96013
21.4533 57.3127 3.95835
22.029 59.557 3.97982
22.8291 58.1749 2
22.7519 61.9785 3.97291
23.4279 60.2825 2
23.8372 59.0176 0.00749395
25.0555 60.8156 0.023237
24.4454 62.7413 2
23.687 64.6942 3.97483
26.2381 63.4606 0.0243583
25.5508 65.4812 2
24.8106 67.5865 3.98173
27.4657 66.1707 0.0215194
26.8373 68.3264 2
26.1677 70.6031 3.98956
28.9083 68.9375 0.0169811
28.3711 71.2621 2
27.7943 73.7221 4
30.6171 71.7773 0.00930884
30.1841 74.2794 2
32.6054 74.6784 0
29.8128 8.00049 3.9795
31.2548 5.33423 3.98686
31.7893 7.42277 2
32.9824 2.70183 3.99258
33.3489 4.92605 2
33.7255 6.98487 0.0171805
35.0474 0.080333 4
35.2455 2.4634 2
35.4369 4.68776 0.0111023
37.5 0 2
37.5159 2.38777 0.00703204
39.9526 0.0806499 0
40.5834 35.8877 3.59505
42.2181 35.7414 2
43.4261 35.6152 0.34559
28.5471 10.7027 3.97701
39.0705 34.3327 3.53066
40.4846 34.3859 2
41.895 34.262 0.558797
47.2555 34.3692 0.0599612
44.0683 33.1619 0.164345
41.8268 32.5754 0.304404
40.5667 32.9345 0.580459
45.418 31.7769 2
43.0423 31.3585 2
40.7628 31.5302 2
39.1808 32.6732 2
43.7835 30.0317 3.88846
41.5537 30.0739 3.83985
39.3776 30.9611 3.63936
37.532 32.5788 3.52197
34.1003 12.9534 3.97534
35.6967 11.7759 2
37.3117 10.6353 0.0186634
31.193 12.0009 3.97785
33.1029 11.2276 2
34.7571 10.391 0.020338
30.4842 10.0231 2
32.381 9.37651 0.0225999
46.9211 29.7479 0.0170047
46.6717 25.3387 0.0264728
36.5861 12.9677 0.0251722
44.1946 21.6344 0.0184827
41.7172 17.9638 0.0229215
38.6761 14.8705 0.0242867
35.7739 14.8133 2
44.9066 27.8862 2
38.6577 17.6953 2
41.2561 20.9692 2
43.5214 24.2569 2
33.6176 15.9114 3.98807
42.6911 26.7195 3.98156
40.7717 23.5834 3.99411
38.3827 20.4743 3.99445
35.8451 17.5763 3.98761
39.0874 37.4866 3.54898
40.5879 37.4473 2
42.3827 37.4625 0.497949
43.5855 54.3195 0.00268746
43.292 50.2342 -0.00330122
40.5242 39.0259 0.412038
41.5283 44.878 0.160627
41.6198 47.2856 0.0764868
39.3482 44.006 0.36012
39.0575 40.6469 0.465064
37.5033 42.4102 0.475208
41.7262 52.7806 2
39.058 39.0575 2
37.5007 40.6938 2
40.7497 49.3853 2
35.8548 42.3142 2
39.7158 45.6553 2
37.496 44.3459 2
39.7074 51.567 4.00257
37.5107 39.0705 3.5812
35.9627 40.6621 3.53622
34.4706 42.0456 3.42223
35.6513 44.0234 3.63254
38.6513 48.2476 3.93254
37.5323 45.8877 3.83792
40.3609 54.7798 0.00522263
38.7164 53.5708 2
36.7675 52.8987 3.99688
35.3644 60.8771 0.0199819
36.9257 57.5578 0.00868298
37.9765 55.0386 0.0051559
34.4915 58.4721 2
36.3177 55.1139 2
33.2774 55.3277 3.99291
32.3691 59.6897 0.00373581
29.4269 60.2563 0.0226328
30.3463 57.7686 2
28.85 55.2815 3.98971
28.0746 58.3316 -0.0162536
27.0534 56.7747 2
25.5021 55.0573 3.95449
22.0206 55.2393 3.96077
25.4262 58.5385 0.0211218
23.9648 56.7287 2
20.3284 56.9443 3.96278
20.6921 58.7126 3.9643
21.4563 57.3138 2
21.1877 61.1071 3.97243
22.0304 59.5582 2
22.8272 58.1737 0.0317256
21.9032 63.8125 3.97405
22.7534 61.9794 2
23.4262 60.2824 0.0237558
24.4445 62.7397 0.0239483
23.6869 64.6938 2
22.8393 66.7282 3.97848
25.5508 65.4797 0.0229633
24.8096 67.5869 2
24.012 69.8049 3.98947
26.8382 68.3251 0.0173042
26.1659 70.6033 2
25.446 73.0099 4
28.3723 71.2625 0.010138
27.7943 73.7222 2
30.1842 74.2788 0
27.8227 8.66017 3.97999
29.157 5.88115 3.98501
29.8112 7.99652 2
30.7279 3.09862 3.99228
31.2541 5.3328 2
31.7899 7.42428 0.0186348
32.6053 0.320823 4
32.9812 2.70133 2
33.3494 4.92752 0.0121468
35.0474 0.0802903 2
35.2463 2.46363 0.00698993
37.5 0 0
39.0439 35.911 3.55095
40.5648 35.8861 2
42.208 35.7408 0.553175
28.5446 10.6998 2
26.6261 11.401 3.97744
29.234 12.6514 3.9813
37.5298 34.2938 3.57331
39.0907 34.3484 2
40.4726 34.38 0.433453
45.383 31.7945 0.102465
42.9943 31.3966 0.178032
40.7177 31.6027 0.328993
39.1797 32.6944 0.527058
43.8128 29.9996 2
41.5825 30.0297 2
39.3896 30.8906 2
37.5349 32.5524 2
41.9751 28.7269 3.86137
39.7021 29.3635 3.82608
37.5289 30.7092 3.68203
35.872 32.6945 3.47992
31.9305 14.4999 3.98149
34.1004 12.9582 2
35.6965 11.7893 0.0238298
31.1906 11.9918 2
33.1023 11.2292 0.027303
30.4868 10.0285 0.0230532
44.9135 27.8885 0.00634259
43.5355 24.2757 -0.0238332
35.7708 14.8075 0.0194741
41.2727 20.9788 0.00867982
38.6579 17.6916 0.0165002
33.6105 15.8942 2
35.8401 17.5663 2
42.7356 26.6975 2
38.3665 20.5275 2
40.7632 23.5694 2
33.5533 17.4557 3.98351
40.2062 26.036 3.96036
38.0272 23.3362 3.99752
35.5529 20.2407 3.99625
37.5185 37.4855 3.59686
39.0719 37.4776 2
40.5805 37.4421 0.39399
41.7353 52.7798 -0.000241451
40.7699 49.3712 0.0063048
39.0664 39.0696 0.460586
39.6965 45.5939 0.196248
37.5008 44.2791 0.32371
37.5059 40.7013 0.426467
35.8532 42.2961 0.526206
39.688 51.5685 2
37.5119 39.0684 2
35.9592 40.6507 2
38.6703 48.3086 2
34.4406 42.0617 2
35.6328 44.0893 2
37.5218 45.9476 2
37.6815 50.5556 3.99343
35.9786 39.0797 3.55074
34.5852 40.5953 3.56943
33.512 41.7599 3.4536
34.3454 43.3715 3.66383
35.2679 45.6225 3.82453
36.9201 47.8563 3.89706
38.7177 53.5712 0.00340813
36.7627 52.863 2
34.4673 52.2212 3.99912
34.4933 58.4719 0.00660827
36.314 55.1244 0.00251855
33.2828 55.3358 2
30.6936 53.2432 3.99617
30.3435 57.7736 0.0131209
28.8526 55.2763 2
27.1466 53.3423 3.95701
27.0498 56.7771 0.0306545
25.5061 55.0578 2
23.8797 53.3493 3.95432
20.8426 53.0755 3.95822
20.1184 55.7289 3.96152
22.0209 55.2408 2
23.9617 56.7272 0.0398679
19.5101 57.816 3.96214
20.3256 56.9463 2
19.7287 60.1398 3.97471
20.6915 58.7139 2
21.4533 57.3127 0.0416496
20.2188 62.8172 3.97149
21.1888 61.1088 2
22.029 59.557 0.0201834
20.9414 65.7537 3.97568
21.9035 63.8159 2
22.7519 61.9785 0.0270948
23.687 64.6942 0.025175
22.8384 66.7284 2
21.9147 68.8719 3.98856
24.8106 67.5865 0.018267
24.0096 69.8041 2
23.1494 72.1454 4
26.1677 70.6031 0.0104367
25.446 73.0099 2
27.7943 73.7221 0
25.8622 9.39004 3.97845
27.0717 6.54553 3.98355
27.8203 8.65791 2
28.4904 3.64457 3.99141
29.1557 5.87881 2
29.8128 8.00049 0.0205018
30.1841 0.720592 4
30.7262 3.09831 2
31.2548 5.33423 0.013144
32.6053 0.320817 2
32.9824 2.70183 0.00742461
35.0474 0.080333 0
37.5141 35.906 3.57524
39.0269 35.9007 2
40.5834 35.8877 0.404947
24.7844 12.0876 3.97617
23.7697 14.4032 3.97816
28.5471 10.7027 0.0229855
26.6234 11.397 2
29.2308 12.6498 2
27.3014 13.3863 3.97742
29.798 14.2104 3.98369
35.9707 34.3327 3.53752
37.5382 34.2986 2
39.0705 34.3327 0.469344
37.532 32.5788 0.478028
43.7835 30.0317 0.111537
41.5537 30.0739 0.16015
39.3776 30.9611 0.360638
42.0116 28.6636 2
39.727 29.3037 2
37.5308 30.6422 2
35.8745 32.6777 2
39.8661 27.9966 3.8738
37.4892 29.0912 3.82967
35.6845 30.9787 3.64159
34.489 32.9471 3.42389
30.9484 16.8548 3.99306
31.9237 14.4847 2
34.1003 12.9534 0.0246648
31.193 12.0009 0.0221543
42.6911 26.7195 0.0184359
40.7717 23.5834 0.00588899
33.6176 15.9114 0.011935
35.8451 17.5763 0.0123925
38.3827 20.4743 0.005554
33.5455 17.4624 2
35.5574 20.249 2
40.2731 26.013 2
38.0172 23.3014 2
32.9019 19.8646 3.99555
37.6677 25.6718 3.96393
35.2663 22.9895 4.00395
35.9563 37.4809 3.55165
37.5087 37.4848 2
39.0874 37.4866 0.451017
39.7074 51.567 -0.00256994
38.6513 48.2476 0.0674598
37.5107 39.0705 0.418803
37.5323 45.8877 0.162076
35.6513 44.0234 0.367459
35.9627 40.6621 0.463777
34.4706 42.0456 0.577771
37.6617 50.5951 2
36.0016 39.0674 2
34.5436 40.5926 2
36.9102 47.9194 2
33.4739 41.7869 2
34.2962 43.4406 2
35.247 45.6779 2
35.5677 49.7506 3.98433
34.4796 39.0712 3.59228
33.1401 40.7131 3.44711
33.2274 42.3982 3.70181
33.5117 44.8856 3.82858
34.5144 47.0116 3.8697
36.7675 52.8987 0.00312167
34.4549 52.2333 2
32.27 51.0363 4.00801
33.2774 55.3277 0.00709154
30.6978 53.2436 2
28.7525 51.442 3.98122
28.85 55.2815 0.0102928
27.1493 53.3395 2
25.4644 51.5822 3.95286
25.5021 55.0573 0.0455105
23.8825 53.3561 2
22.4148 51.6363 3.95224
19.7099 51.4635 3.96187
19.2239 54.1806 3.96139
20.8462 53.0736 2
18.587 56.6342 3.96305
20.1175 55.7302 2
22.0206 55.2393 0.0392276
18.4025 59.0506 3.96426
19.5078 57.8176 2
20.3284 56.9443 0.0372189
18.6331 61.7106 3.97163
19.7295 60.1417 2
20.6921 58.7126 0.0357023
19.1311 64.6639 3.97444
20.2195 62.8211 2
21.1877 61.1071 0.0275705
19.889 67.808 3.98596
20.9406 65.7531 2
21.9032 63.8125 0.0259526
22.8393 66.7282 0.0215248
21.9119 68.8705 2
20.9142 71.1327 4
24.012 69.8049 0.0105271
23.1494 72.1455 2
25.446 73.0099 0
23.1073 12.8181 3.97689
23.9748 10.1784 3.97551
25.0252 7.31678 3.98186
25.8591 9.38767 2
26.2822 4.32868 3.99049
27.0698 6.5443 2
27.8227 8.66017 0.0200149
27.7943 1.27781 4
28.4879 3.64438 2
29.157 5.88115 0.014995
30.1841 0.720551 2
30.7279 3.09862 0.00772425
32.6053 0.320823 0
35.9599 35.8948 3.53997
37.5377 35.9148 2
39.0439 35.911 0.449054
24.7805 12.0881 2
23.7698 14.4064 2
22.5053 15.0949 3.97736
25.3712 13.9467 3.97169
24.06 15.662 3.98676
26.6261 11.401 0.0225556
29.234 12.6514 0.0186982
27.3017 13.3839 2
29.7896 14.2091 2
28.3861 15.9769 3.98587
34.605 34.4027 3.56451
35.9702 34.3349 2
37.5298 34.2938 0.426689
35.872 32.6945 0.52008
37.5289 30.7092 0.317966
41.9751 28.7269 0.138628
39.7021 29.3635 0.173916
39.8946 27.9496 2
37.4889 29.0335 2
35.6699 30.9043 2
34.4541 32.9322 2
37.6274 27.7257 3.87087
35.3296 29.3787 3.82414
34.3489 31.6199 3.66991
33.5294 33.2311 3.45133
30.2462 19.4584 3.98084
30.9393 16.8413 2
31.9305 14.4999 0.0185107
40.2062 26.036 0.039639
38.0272 23.3362 0.00248447
33.5533 17.4557 0.0164857
35.5529 20.2407 0.00374782
32.903 19.892 2
35.2568 22.9797 2
37.7124 25.6517 2
32.4625 22.6055 3.99736
35.1489 25.5769 3.98957
34.4406 37.505 3.61092
35.9554 37.4923 2
37.5185 37.4855 0.40314
37.6815 50.5556 0.00656973
36.9201 47.8563 0.102939
35.9786 39.0797 0.44926
35.2679 45.6225 0.175466
34.3454 43.3715 0.336171
34.5852 40.5953 0.430568
33.512 41.7599 0.546395
35.5497 49.7647 2
34.4714 39.0701 2
33.1321 40.7258 2
34.4804 47.0712 2
33.1805 42.4595 2
33.4826 44.9335 2
33.4419 48.8528 3.97289
32.813 39.2238 3.4517
32.2895 41.0112 3.65253
32.056 43.5783 3.82797
32.7128 46.0029 3.87004
34.4673 52.2212 0.000880632
32.2833 51.0419 2
30.3014 49.5899 4.00074
30.6936 53.2432 0.00383102
28.757 51.4398 2
26.9889 49.8058 3.97484
27.1466 53.3423 0.0429922
25.466 51.5848 2
23.8708 49.9913 3.96619
23.8797 53.3493 0.0456817
22.4181 51.6342 2
21.0426 50.1217 3.96427
18.4857 50.1685 3.97042
18.2525 52.6448 3.96443
19.7068 51.4627 2
17.6792 55.2313 3.96237
19.2231 54.1802 2
20.8426 53.0755 0.0417833
17.2206 57.8042 3.96082
18.584 56.6353 2
20.1184 55.7289 0.0384838
17.1483 60.4996 3.96618
18.4019 59.0517 2
19.5101 57.816 0.0378646
17.4147 63.4388 3.96906
18.6347 61.7116 2
19.7287 60.1398 0.0252865
17.945 66.6154 3.98406
19.1307 64.6621 2
20.2188 62.8172 0.028505
18.75 69.9759 4
19.8861 67.8055 2
20.9414 65.7537 0.0243219
21.9147 68.8719 0.0114445
20.9142 71.1327 2
23.1494 72.1454 0
21.6036 13.6523 3.97435
22.1954 11.0483 3.97315
23.1052 12.8191 2
23.0424 8.18365 3.97911
23.9724 10.1806 2
24.12 5.14355 3.98997
25.0225 7.31551 2
25.8622 9.39004 0.0215509
25.446 1.99014 4
26.2791 4.32933 2
27.0717 6.54553 0.0164508
27.7943 1.27778 2
28.4904 3.64457 0.00858746
30.1841 0.720592 0
34.5103 35.9308 3.58702
35.9728 35.9103 2
37.5141 35.906 0.424762
21.341 15.8993 3.97607
24.7844 12.0876 0.0238283
23.7697 14.4032 0.021839
25.37 13.9215 2
22.5069 15.0888 2
24.064 15.6665 2
23.3113 16.3025 3.96589
25.4174 16.1319 3.98654
27.3014 13.3863 0.0225827
29.798 14.2104 0.0163139
28.3767 15.9928 2
27.4858 18.8922 3.98296
33.1525 34.2853 3.45769
34.5616 34.4151 2
35.9707 34.3327 0.462475
34.489 32.9471 0.576105
35.6845 30.9787 0.35841
37.4892 29.0912 0.170331
39.8661 27.9966 0.126199
37.5986 27.6865 2
33.4956 33.206 2
35.3265 29.3152 2
34.3041 31.5491 2
35.2159 27.8158 3.88435
33.5022 30.0955 3.83067
33.2472 32.5921 3.6999
29.7782 22.0625 4.00727
30.2475 19.4748 2
30.9484 16.8548 0.00694393
37.6677 25.6718 0.0360665
35.2663 22.9895 -0.00395497
32.9019 19.8646 0.00445431
32.4639 22.5927 2
35.176 25.5687 2
32.0473 25.878 4.00775
32.6366 37.502 3.5002
34.4492 37.4985 2
35.9563 37.4809 0.44835
35.5677 49.7506 0.0156657
34.5144 47.0116 0.130302
34.4796 39.0712 0.407718
33.5117 44.8856 0.171417
33.2274 42.3982 0.298188
33.1401 40.7131 0.55289
33.4242 48.8536 2
32.8198 39.2329 2
32.2427 41.0634 2
32.6863 46.0561 2
32.0028 43.6128 2
31.6516 47.6972 3.98221
31.6042 39.3664 3.65473
30.9751 41.8222 3.83977
31.1367 44.6385 3.88028
32.27 51.0363 -0.00801282
30.3094 49.6199 2
28.4746 47.9805 3.96881
28.7525 51.442 0.018777
26.9891 49.8086 2
25.2924 48.2467 3.96575
25.4644 51.5822 0.0471371
23.8745 49.9898 2
22.3368 48.5661 3.97117
22.4148 51.6363 0.0477567
21.0434 50.1204 2
19.6101 48.909 3.97373
17.3605 49.1845 3.97514
17.1929 51.2675 3.96947
18.4877 50.1667 2
16.696 53.7532 3.96568
18.2497 52.6446 2
19.7099 51.4635 0.0381258
16.1255 56.396 3.96197
17.6791 55.2315 2
19.2239 54.1806 0.0386132
15.7693 59.1675 3.96211
17.2154 57.8062 2
18.587 56.6342 0.0369461
15.7938 62.1001 3.96814
17.1502 60.5016 2
18.4025 59.0506 0.0357388
16.0915 65.2975 3.98186
17.4137 63.4435 2
18.6331 61.7106 0.0283661
16.6661 68.6801 4
17.9422 66.6124 2
19.1311 64.6639 0.0255575
18.75 69.9759 2
19.889 67.808 0.0140352
20.9142 71.1327 0
20.2398 14.6594 3.96812
21.6014 13.6637 2
20.5381 12.0338 3.97358
21.1458 9.15704 3.9769
22.1923 11.0465 2
23.1073 12.8181 0.0231105
22.0192 6.08212 3.9891
23.0401 8.18429 2
23.9748 10.1784 0.0244918
23.1494 2.85457 4
24.1161 5.1445 2
25.0252 7.31678 0.0181432
25.446 1.99012 2
26.2822 4.32868 0.00951416
27.7943 1.27781 0
32.803 35.7856 3.46598
34.4906 35.9305 2
35.9599 35.8948 0.460029
21.3448 15.8926 2
20.3586 17.026 3.96617
22.1445 16.6993 3.96363
25.3712 13.9467 0.0283119
22.5053 15.0949 0.0226399
24.06 15.662 0.0132429
25.4191 16.129 2
23.3162 16.2984 2
24.2681 18.5826 3.97069
27.211 21.687 3.99383
28.3861 15.9769 0.0141321
27.4835 18.9338 2
32.3274 33.9793 3.64688
33.1467 34.2691 2
34.605 34.4027 0.435486
33.5294 33.2311 0.54867
34.3489 31.6199 0.330092
35.3296 29.3787 0.175861
37.6274 27.7257 0.129129
35.2162 27.7682 2
33.1742 32.5291 2
33.4716 30.0525 2
32.9561 28.4594 3.89252
32.0632 31.4115 3.81868
29.1821 24.558 4.00966
29.763 22.0902 2
30.2462 19.4584 0.0191595
35.1489 25.5769 0.0104327
32.4625 22.6055 0.00264185
32.0358 25.851 2
30.2029 27.5422 3.97623
31.1969 37.4906 3.65999
32.6393 37.5013 2
34.4406 37.505 0.38908
33.4419 48.8528 0.0271108
32.7128 46.0029 0.129959
32.813 39.2238 0.548299
32.056 43.5783 0.17203
32.2895 41.0112 0.347474
31.6028 47.7236 2
31.5246 39.3859 2
30.9235 41.8623 2
31.0924 44.6786 2
29.9091 46.3059 3.98938
30.1429 39.7857 3.84786
29.656 42.9299 3.89295
30.3014 49.5899 -0.000738552
28.4729 47.9826 2
26.7159 46.4116 3.98025
26.9889 49.8058 0.0251623
25.2944 48.2452 2
23.5957 46.8285 3.97321
23.8708 49.9913 0.0338127
22.3374 48.5661 2
20.6254 47.4155 3.97652
21.0426 50.1217 0.0357332
19.6111 48.9073 2
18.2019 48.0144 3.97696
16.5924 48.5461 3.97656
17.3606 49.1834 2
16.2551 50.0417 3.97367
15.7035 52.3026 3.96953
17.1943 51.2664 2
18.4857 50.1685 0.0295834
15.0816 54.8895 3.96413
16.6969 53.7528 2
18.2525 52.6448 0.0355737
14.5145 57.6953 3.9613
16.1262 56.3962 2
17.6792 55.2313 0.0376289
14.2719 60.6668 3.96715
15.7723 59.1681 2
17.2206 57.8042 0.0391762
14.3365 63.8538 3.97757
15.7947 62.1015 2
17.1483 60.4996 0.0338222
14.6715 67.2507 4
16.0892 65.2938 2
17.4147 63.4388 0.0309411
16.6661 68.6801 2
17.945 66.6154 0.0159425
18.75 69.9759 0
18.961 15.8412 3.97483
20.2415 14.6568 2
18.992 13.1576 3.97248
21.6036 13.6523 0.0256454
20.5364 12.0337 2
19.3465 10.2483 3.97388
19.9939 7.14759 3.987
21.143 9.15746 2
22.1954 11.0483 0.0268542
20.9142 3.86727 4
22.0148 6.08455 2
23.0424 8.18365 0.0208861
23.1494 2.85451 2
24.12 5.14355 0.0100285
25.446 1.99014 0
31.6314 35.6303 3.64939
32.8049 35.7768 2
34.5103 35.9308 0.412984
21.341 15.8993 0.0239264
22.1476 16.6923 2
20.3608 17.0224 2
19.3742 18.4987 3.95773
21.8434 17.9524 3.9766
25.4174 16.1319 0.0134571
23.3113 16.3025 0.0341121
24.2573 18.6039 2
22.4594 20.0274 3.97648
24.7941 21.5436 3.98828
26.8091 23.8393 3.98497
27.2159 21.6007 2
27.4858 18.8922 0.0170414
31.027 33.176 3.84057
32.2808 33.9252 2
33.1525 34.2853 0.54231
33.2472 32.5921 0.300099
33.5022 30.0955 0.169326
35.2159 27.8158 0.115647
32.9175 28.4267 2
32.0072 31.3668 2
30.8272 29.8378 3.91828
28.4705 26.7238 3.99749
29.1693 24.5535 2
29.7782 22.0625 -0.0072688
32.0473 25.878 -0.00774997
30.195 27.5173 2
29.702 37.4874 3.84588
31.1281 37.4887 2
32.6366 37.502 0.4998
31.6516 47.6972 0.0177945
31.1367 44.6385 0.119719
31.6042 39.3664 0.345265
30.9751 41.8222 0.16023
29.912 46.3113 2
30.0648 39.8013 2
29.6239 42.9557 2
28.1997 44.6328 3.96827
27.8986 40.5006 3.92984
28.4746 47.9805 0.0311893
26.7148 46.4124 2
24.9118 44.9419 3.97934
25.2924 48.2467 0.0342473
23.5947 46.8276 2
21.6586 45.7007 3.97786
22.3368 48.5661 0.0288275
20.6261 47.4142 2
18.9434 46.5684 3.97645
19.6101 48.909 0.0262716
18.2027 48.013 2
16.8375 47.5703 3.97624
16.5938 48.545 2
15.6031 48.8935 3.97552
17.3605 49.1845 0.0248642
16.257 50.0406 2
14.8153 50.8807 3.97291
14.052 53.3521 3.96711
15.7047 52.302 2
17.1929 51.2675 0.0305322
13.3562 56.1189 3.96128
15.0818 54.8892 2
16.696 53.7532 0.0343198
12.8598 59.1063 3.96537
14.5191 57.6949 2
16.1255 56.396 0.0380316
12.6825 62.2967 3.97568
14.2732 60.6667 2
15.7693 59.1675 0.0378939
12.7746 65.6939 4
14.3343 63.8504 2
15.7938 62.1001 0.0318641
14.6714 67.2507 2
16.0915 65.2975 0.0181377
16.6661 68.6801 0
17.7364 17.2245 3.96205
18.961 15.8399 2
17.5285 14.4249 3.96775
20.2398 14.6594 0.0318806
18.9917 13.1621 2
17.6444 11.4745 3.97301
20.5381 12.0338 0.0264202
19.3429 10.2491 2
18.0541 8.3412 3.98463
18.75 5.0241 4
19.9891 7.15044 2
21.1458 9.15704 0.0230977
20.9142 3.86727 2
22.0192 6.08212 0.0108992
23.1494 2.85457 0
30.1713 35.2126 3.84635
31.5523 35.6062 2
32.803 35.7856 0.534021
22.1445 16.6993 0.0363731
20.3586 17.026 0.0338321
21.8423 17.951 2
19.3667 18.4922 2
18.2173 20.0555 3.9616
21.0409 19.4979 3.96571
24.2681 18.5826 0.0293122
22.4503 20.0335 2
24.801 21.5287 2
22.6463 21.8739 3.98023
25.0885 23.275 3.97267
26.0784 26.0973 3.97878
26.8064 23.8334 2
27.211 21.687 0.00617445
29.4206 32.5245 3.89296
30.9537 33.1408 2
32.3274 33.9793 0.353116
32.0632 31.4115 0.181325
32.9561 28.4594 0.107481
30.8048 29.8272 2
27.8487 29.3076 4.01353
28.4589 26.7278 2
29.1821 24.558 -0.00965543
30.2029 27.5422 0.0237744
28.0535 37.3686 3.8926
29.6262 37.4825 2
31.1969 37.4906 0.340011
29.9091 46.3059 0.0106249
29.656 42.9299 0.107052
30.1429 39.7857 0.152139
28.1953 44.6877 2
27.8662 40.5027 2
26.2958 43.0174 3.98468
25.1764 39.4342 3.97171
26.7159 46.4116 0.0197461
24.9016 44.944 2
22.8316 43.7377 3.97524
23.5957 46.8285 0.0267949
21.6554 45.7019 2
19.7249 44.8065 3.97603
20.6254 47.4155 0.0234845
18.9433 46.5689 2
17.2003 46.0695 3.97602
18.2019 48.0144 0.0230431
16.8386 47.5697 2
15.372 47.5483 3.97585
16.5924 48.5461 0.0234399
15.605 48.8926 2
14.1259 49.448 3.97497
16.2551 50.0417 0.0263255
14.8167 50.8799 2
13.1212 51.7989 3.96971
12.2624 54.48 3.96346
14.0524 53.3516 2
15.7035 52.3026 0.0304741
11.5478 57.4455 3.96316
13.3569 56.1187 2
15.0816 54.8895 0.0358733
11.1379 60.6216 3.97121
12.8616 59.1055 2
14.5145 57.6953 0.0387015
10.9835 64.0165 4
12.6807 62.2922 2
14.2719 60.6668 0.0328512
12.7745 65.694 2
14.3365 63.8538 0.0224259
14.6715 67.2507 0
16.5483 18.734 3.9617
17.7283 17.2205 2
16.1234 15.828 3.96426
18.961 15.8412 0.0251659
17.5289 14.4221 2
16.0284 12.8442 3.9694
18.992 13.1576 0.027524
17.6422 11.4836 2
16.2053 9.66564 3.98209
19.3465 10.2483 0.0261221
18.049 8.34624 2
16.6661 6.31991 4
18.75 5.02404 2
19.9939 7.14759 0.0130037
20.9142 3.86727 0
28.5654 34.8561 3.89543
30.0805 35.1748 2
31.6314 35.6303 0.350613
16.9618 21.4929 3.9676
21.8434 17.9524 0.0233955
19.3742 18.4987 0.0422749
21.0294 19.4935 2
18.218 20.0534 2
20.0507 21.7182 3.97178
22.4594 20.0274 0.0235199
24.7941 21.5436 0.0117246
22.6444 21.879 2
25.0795 23.282 2
23.3907 24.7628 3.97179
25.402 28.6966 3.9838
26.0714 26.1038 2
26.8091 23.8393 0.0150344
27.2768 31.884 3.98158
29.383 32.5022 2
31.027 33.176 0.15943
30.8272 29.8378 0.0817195
27.8609 29.2831 2
28.4705 26.7238 0.00251233
25.8768 36.8468 3.97261
28.0311 37.3689 2
29.702 37.4874 0.154121
28.1997 44.6328 0.0317314
27.8986 40.5006 0.070158
26.273 43.0405 2
25.1496 39.4384 2
24.0522 41.7554 3.98188
22.8947 38.5204 3.97897
24.9118 44.9419 0.0206558
22.8294 43.7388 2
20.6123 42.7596 3.97521
21.6586 45.7007 0.0221445
19.7256 44.807 2
17.6137 44.2514 3.97542
18.9434 46.5684 0.023553
17.2008 46.0697 2
15.338 45.9758 3.97562
16.8375 47.5703 0.0237593
15.3734 47.5475 2
13.6574 47.9139 3.97559
15.6031 48.8935 0.0244799
14.1277 49.4472 2
12.3539 50.1828 3.97184
14.8153 50.8807 0.0270864
13.1221 51.7981 2
11.258 52.7946 3.96504
10.3494 55.7001 3.96349
12.2629 54.4794 2
14.052 53.3521 0.0328928
9.70465 58.8453 3.97244
11.5505 57.444 2
13.3562 56.1189 0.0387192
9.30605 62.2254 4
11.1365 60.6173 2
12.8598 59.1063 0.0346346
10.9835 64.0165 2
12.6825 62.2967 0.02432
12.7746 65.6939 0
15.3431 20.2733 3.96401
16.5516 18.7336 2
14.8001 17.3521 3.96264
17.7364 17.2245 0.0379545
16.1254 15.8264 2
14.4904 14.3243 3.96823
17.5285 14.4249 0.0322454
16.028 12.841 2
14.4477 11.1177 3.97949
17.6444 11.4745 0.0269875
16.2007 9.67145 2
14.6715 7.74927 4
18.0541 8.3412 0.0153664
16.6661 6.31988 2
18.75 5.0241 0
26.5243 34.3719 3.97405
28.5483 34.864 2
30.1713 35.2126 0.153654
18.2288 22.4628 3.97501
15.8681 23.0369 3.97167
16.9654 21.4927 2
21.0409 19.4979 0.0342855
18.2173 20.0555 0.0384022
20.0507 21.7162 2
20.1809 24.5599 3.97196
22.6463 21.8739 0.0197736
25.0885 23.275 0.0273297
23.3863 24.7642 2
22.7648 28.0353 3.97151
24.8426 31.3862 3.98241
25.408 28.6829 2
26.0784 26.0973 0.0212185
27.2491 31.8454 2
29.4206 32.5245 0.107041
27.8487 29.3076 -0.013532
23.6261 36.3035 3.97825
25.8551 36.8416 2
28.0535 37.3686 0.107397
26.2958 43.0174 0.0153165
25.1764 39.4342 0.0282925
24.0305 41.7537 2
22.8803 38.516 2
21.7297 40.5802 3.97443
21.0733 37.7986 3.97675
22.8316 43.7377 0.0247603
20.6125 42.7597 2
18.0951 42.0061 3.97565
19.7249 44.8065 0.0239719
17.6141 44.2516 2
15.3875 44.0987 3.97532
17.2003 46.0695 0.0239801
15.3385 45.9756 2
13.3581 46.2061 3.97566
15.372 47.5483 0.0241527
13.659 47.9131 2
11.7442 48.4846 3.97384
14.1259 49.448 0.0250331
12.3557 50.1818 2
10.3891 51.0422 3.96642
13.1212 51.7989 0.030288
11.2587 52.7938 2
9.26079 53.8811 3.96368
8.38814 56.9801 3.97388
10.354 55.698 2
12.2624 54.48 0.0365399
7.74927 60.3285 4
9.70333 58.8411 2
11.5478 57.4455 0.0368365
9.306 62.2255 2
11.1379 60.6216 0.0287876
10.9835 64.0165 0
14.1822 21.8365 3.96766
15.342 20.2721 2
13.5321 18.9494 3.96225
16.5483 18.734 0.0383014
14.8012 17.3511 2
13.0367 15.9093 3.96836
16.1234 15.828 0.0357366
14.4926 14.3227 2
12.7857 12.6932 3.9766
16.0284 12.8442 0.0305972
14.4446 11.1248 2
12.7746 9.30605 4
16.2053 9.66564 0.0179147
14.6715 7.74924 2
16.6661 6.31991 0
24.1982 33.8854 3.98097
26.5043 34.3721 2
28.5654 34.8561 0.104575
18.1054 24.1964 3.97331
18.2375 22.4633 2
14.7018 24.5651 3.97366
15.8698 23.0366 2
16.9618 21.4929 0.0323968
19.7271 27.3984 3.97394
20.0507 21.7182 0.0282233
20.1742 24.5581 2
22.1465 30.8484 3.97436
23.3907 24.7628 0.0282089
22.7648 28.0377 2
24.8062 31.3873 2
25.402 28.6966 0.0161959
27.2768 31.884 0.0184211
21.1884 35.9653 3.97665
23.624 36.3032 2
25.8768 36.8468 0.0273896
24.0522 41.7554 0.0181245
22.8947 38.5204 0.0210257
21.7346 40.5831 2
21.0737 37.7978 2
18.8613 38.9797 3.97702
20.6123 42.7596 0.0247949
18.095 42.006 2
15.3725 41.8534 3.97597
17.6137 44.2514 0.0245816
15.3871 44.0987 2
13.1213 44.3178 3.97566
15.338 45.9758 0.0243786
13.3594 46.2055 2
11.2596 46.6742 3.97543
13.6574 47.9139 0.0244094
11.7464 48.4835 2
9.65924 49.2053 3.96807
12.3539 50.1828 0.0281576
10.3902 51.0412 2
8.29088 51.9963 3.96388
11.258 52.7946 0.034965
9.26246 53.8791 2
7.19726 55.0321 3.97487
6.31991 58.3339 4
8.38689 56.9759 2
10.3494 55.7001 0.0365089
7.74924 60.3285 2
9.70465 58.8453 0.0275577
9.30605 62.2254 0
13.5605 25.4569 3.97616
13.085 23.3622 3.97069
14.1819 21.8358 2
12.3524 20.5987 3.96378
15.3431 20.2733 0.0359898
13.5326 18.9485 2
11.6706 17.582 3.96604
14.8001 17.3521 0.0373578
13.0404 15.9083 2
11.2239 14.3792 3.97255
14.4904 14.3243 0.0317714
12.7836 12.6993 2
10.9835 10.9835 4
14.4477 11.1177 0.0205091
12.7745 9.306 2
14.6715 7.74927 0
21.5366 33.5079 3.97627
24.2023 33.8696 2
26.5243 34.3719 0.0259491
16.4322 26.5479 3.97461
18.1088 24.1961 2
18.2288 22.4628 0.0249856
14.7008 24.565 2
15.8681 23.0369 0.0283301
19.1298 30.3369 3.97463
19.7274 27.3989 2
20.1809 24.5599 0.028038
22.165 30.8497 2
22.7648 28.0353 0.0284856
24.8426 31.3862 0.0175903
18.461 36.0031 3.97778
21.191 35.9654 2
23.6261 36.3035 0.021747
21.7297 40.5802 0.0255749
21.0733 37.7986 0.0232511
18.8601 38.9789 2
14.8666 39.1559 3.97693
18.0951 42.0061 0.0243519
15.3719 41.8532 2
12.8156 42.2283 3.97599
15.3875 44.0987 0.0246778
13.1219 44.3175 2
10.8477 44.751 3.97622
13.3581 46.2061 0.0243359
11.2623 46.6731 2
9.04627 47.2885 3.96938
11.7442 48.4846 0.0261648
9.6606 49.2043 2
7.45324 50.0311 3.964
10.3891 51.0422 0.0335753
8.29063 51.9946 2
6.1378 53.0079 3.97508
9.26079 53.8811 0.0363161
7.19644 55.0283 2
5.0241 56.25 4
6.31988 58.3339 2
8.38814 56.9801 0.0261204
7.74927 60.3285 0
13.8451 26.9151 3.97578
12.1936 24.8597 3.97383
13.5599 25.4569 2
11.2825 22.2815 3.96582
13.0852 23.3622 2
14.1822 21.8365 0.0323436
12.3546 20.5986 2
10.4082 19.3311 3.96417
13.5321 18.9494 0.0377527
11.6744 17.5816 2
9.76491 16.1625 3.97159
13.0367 15.9093 0.0316383
11.2227 14.3848 2
9.30607 12.7746 4
12.7857 12.6932 0.0233955
10.9835 10.9835 2
12.7746 9.30605 0
18.621 33.1943 3.97593
21.5347 33.5116 2
24.1982 33.8854 0.0190278
16.0582 29.7629 3.97536
16.4317 26.5477 2
18.1054 24.1964 0.0266871
14.7018 24.5651 0.0263356
19.128 30.3367 2
19.7271 27.3984 0.026059
22.1465 30.8484 0.0256385
15.5028 36.0387 3.97743
18.4607 36.0037 2
21.1884 35.9653 0.0233494
13.0465 37.8281 3.97697
18.8613 38.9797 0.0229807
14.8662 39.1558 2
12.3145 40.114 3.97652
15.3725 41.8534 0.0240258
12.8159 42.2278 2
10.4482 42.7396 3.97605
13.1213 44.3178 0.0243357
10.8499 44.7499 2
8.52201 45.2962 3.97062
11.2596 46.6742 0.024572
9.04744 47.2877 2
6.74018 47.9972 3.96422
9.65924 49.2053 0.0319292
7.45185 50.0298 2
5.21437 50.9114 3.97465
8.29088 51.9963 0.0361248
6.13745 53.0051 2
3.86727 54.0858 4
7.19726 55.0321 0.0251254
5.02404 56.25 2
6.31991 58.3339 0
13.3273 29.1188 3.97509
11.6391 26.5538 3.97476
13.8448 26.9153 2
10.3344 24.0074 3.96796
12.1966 24.8604 2
13.5605 25.4569 0.0238383
9.2741 21.148 3.96434
11.2826 22.2815 2
13.085 23.3622 0.0293065
12.3524 20.5987 0.036222
10.4183 19.3331 2
8.42095 18.0319 3.97353
11.6706 17.582 0.0339607
9.76425 16.1671 2
7.74928 14.6715 4
11.2239 14.3792 0.027452
9.30602 12.7745 2
10.9835 10.9835 0
15.0433 32.9254 3.97623
18.6199 33.1938 2
21.5366 33.5079 0.023733
16.0583 29.7629 2
16.4322 26.5479 0.0253885
19.1298 30.3369 0.0253731
13.35 36.2217 3.97673
15.5025 36.0387 2
18.461 36.0031 0.0222228
13.0463 37.828 2
11.6373 38.3038 3.97678
14.8666 39.1559 0.0230697
12.3151 40.1139 2
10.0236 40.7326 3.97629
12.8156 42.2283 0.0240057
10.4514 42.7391 2
8.06194 43.252 3.97204
10.8477 44.751 0.0237812
8.52455 45.2954 2
6.14059 45.9033 3.96481
9.04627 47.2885 0.0306192
6.73813 47.9964 2
4.42544 48.7518 3.97429
7.45324 50.0311 0.036004
5.21443 50.9095 2
2.85457 51.8506 4
6.1378 53.0079 0.0249217
3.86727 54.0858 2
5.0241 56.25 0
12.4563 31.3135 3.97597
11.0505 28.4717 3.97577
13.3275 29.1188 2
9.54921 25.8324 3.96905
11.6419 26.5545 2
13.8451 26.9151 0.0242156
8.25662 23.0294 3.96454
10.3364 24.008 2
12.1936 24.8597 0.0261734
7.20308 19.9797 3.97483
9.28046 21.1498 2
11.2825 22.2815 0.0341834
10.4082 19.3311 0.035831
8.41982 18.036 2
6.31992 16.6661 4
9.76491 16.1625 0.0284126
7.74926 14.6714 2
9.30607 12.7746 0
12.4921 34.3276 3.97652
15.0427 32.9261 2
18.621 33.1943 0.0240725
16.0582 29.7629 0.0246392
11.1714 36.6206 3.97657
13.3498 36.2217 2
15.5028 36.0387 0.0225737
13.0465 37.8281 0.023028
11.6383 38.3034 2
9.60197 38.816 3.9766
12.3145 40.114 0.0234761
10.0266 40.7321 2
7.6639 41.2004 3.97278
10.4482 42.7396 0.0239479
8.06306 43.2515 2
5.65132 43.7666 3.96546
8.52201 45.2962 0.0293784
6.14038 45.9026 2
3.77074 46.5369 3.9744
6.74018 47.9972 0.0357844
4.42598 48.7507 2
1.99014 49.554 4
5.21437 50.9114 0.0253491
2.85451 51.8506 2
3.86727 54.0858 0
11.2594 32.9589 3.97649
10.3561 30.4262 3.97599
12.4565 31.314 2
8.85569 27.7608 3.96955
11.0529 28.4725 2
13.3273 29.1188 0.0249125
7.37594 24.9863 3.96453
9.55112 25.8331 2
11.6391 26.5538 0.0252395
6.12005 22.0017 3.97542
8.25833 23.0308 2
10.3344 24.0074 0.032043
5.02411 18.75 4
7.2025 19.9833 2
9.2741 21.148 0.035664
8.42095 18.0319 0.0264654
6.3199 16.6661 2
7.74928 14.6715 0
10.7538 35.0193 3.97649
12.4915 34.3277 2
15.0433 32.9254 0.0237735
9.25767 36.9887 3.9767
11.1725 36.6206 2
13.35 36.2217 0.023275
11.6373 38.3038 0.023219
9.60518 38.8156 2
7.33843 39.1775 3.97285
10.0236 40.7326 0.0237099
7.66608 41.1999 2
5.26617 41.6127 3.96589
8.06194 43.252 0.027959
5.65174 43.7659 2
3.24817 44.2815 3.97518
6.14059 45.9033 0.0351891
3.77127 46.5364 2
1.27781 47.2057 4
4.42544 48.7518 0.0257134
1.99012 49.554 2
2.85457 51.8506 0
10.3864 33.9073 3.97622
9.62998 32.1854 3.9764
11.2608 32.9594 2
8.19227 29.7177 3.97044
10.3587 30.4271 2
12.4563 31.3135 0.0240327
6.61276 27.0108 3.96475
8.85748 27.7615 2
11.0505 28.4717 0.0242296
5.17511 24.094 3.97514
7.37476 24.9872 2
9.54921 25.8324 0.030946
3.86728 20.9142 4
6.1198 22.0043 2
8.25662 23.0294 0.0354636
5.02406 18.75 2
7.20308 19.9797 0.0251681
6.31992 16.6661 0
9.07013 35.2924 3.97689
10.7554 35.0194 2
12.4921 34.3276 0.023481
7.11555 37.2068 3.97251
9.26104 36.9885 2
11.1714 36.6206 0.0234252
9.60197 38.816 0.0234019
7.34103 39.1772 2
4.99324 39.4667 3.96662
7.6639 41.2004 0.0272223
5.2669 41.6123 2
2.85841 42.0017 3.97564
5.65132 43.7666 0.0345396
3.24843 44.281 2
0.720592 44.8159 4
3.77074 46.5369 0.0256009
1.27778 47.2057 2
1.99014 49.554 0
9.10984 33.7184 3.97694
10.3888 33.9076 2
7.62004 31.625 3.97128
9.63317 32.1861 2
11.2594 32.9589 0.0235139
5.95248 29.0712 3.96508
8.19393 29.7182 2
10.3561 30.4262 0.0240096
4.36227 26.2468 3.97484
6.61027 27.0113 2
8.85569 27.7608 0.0304471
2.85458 23.1494 4
5.1753 24.0956 2
7.37594 24.9863 0.0354705
3.86728 20.9142 2
6.12005 22.0017 0.0245779
5.02411 18.75 0
7.06413 35.3117 3.97209
9.07393 35.2924 2
10.7538 35.0193 0.0235081
4.84332 37.3398 3.96709
7.11849 37.2067 2
9.25767 36.9887 0.023303
7.33843 39.1775 0.0271452
4.99398 39.4665 2
2.60624 39.7133 3.97621
5.26617 41.6127 0.0341085
2.85902 42.0015 2
0.320823 42.3947 4
3.24817 44.2815 0.0248192
0.720551 44.8159 2
1.27781 47.2057 0
7.22763 33.4714 3.97181
9.11355 33.7188 2
10.3864 33.9073 0.0237784
5.42235 31.1348 3.96576
7.62214 31.6254 2
9.62998 32.1854 0.0235959
3.68363 28.4433 3.97486
5.95247 29.0716 2
8.19227 29.7177 0.0295593
1.99015 25.446 4
4.3628 26.2476 2
6.61276 27.0108 0.0352459
2.85453 23.1494 2
5.17511 24.094 0.0248578
3.86728 20.9142 0
4.85757 35.2522 3.96695
7.06627 35.3118 2
9.07013 35.2924 0.0231135
2.49766 37.4281 3.9771
4.84351 37.3399 2
7.11555 37.2068 0.0274863
4.99324 39.4667 0.0333783
2.60695 39.7137 2
0.080333 39.9526 4
2.85841 42.0017 0.0243641
0.320817 42.3947 2
0.720592 44.8159 0
5.05114 33.1913 3.96655
7.22996 33.4717 2
9.10984 33.7184 0.0230636
3.14766 30.6662 3.97552
5.42279 31.1355 2
7.62004 31.625 0.0287169
1.27793 27.7943 4
3.68422 28.4436 2
5.95248 29.0712 0.0349184
1.99013 25.446 2
4.36227 26.2468 0.0251606
2.85458 23.1494 0
2.54973 35.1588 3.97684
4.85841 35.2525 2
7.06413 35.3117 0.0279073
0 37.5 4
2.49786 37.4285 2
4.84332 37.3398 0.032912
2.60624 39.7133 0.0237931
0.0802903 39.9526 2
0.320823 42.3947 0
2.76745 32.9058 3.97675
5.05149 33.1917 2
7.22763 33.4714 0.0281863
0.721173 30.1842 4
3.14815 30.6668 2
5.42235 31.1348 0.0342449
1.27779 27.7943 2
3.68363 28.4433 0.025136
1.99015 25.446 0
0.0806499 35.0474 4
2.55053 35.1594 2
4.85757 35.2522 0.0330499
0 37.5 2
2.49766 37.4281 0.0228993
0.080333 39.9526 0
0.32156 32.6054 4
2.76775 32.9064 2
5.05114 33.1913 0.0334519
0.72056 30.1841 2
3.14766 30.6662 0.0244794
1.27793 27.7943 0
0.0802889 35.0474 2
2.54973 35.1588 0.0231582
0 37.5 0
0.320817 32.6053 2
2.76745 32.9058 0.0232463
0.721173 30.1842 0
0.0806499 35.0474 0
0.32156 32.6054 0
CELLS 1910 17190
8 18 6 25 56 2 0 5 16
8 57 23 6 18 17 4 0 2
8 78 36 9 29 31 11 1 7
8 31 11 1 7 79 37 10 30
8 110 57 18 50 48 17 2 14
8 50 18 56 111 14 2 16 49
8 116 62 22 55 52 20 3 15
8 56 25 67 118 16 5 24 53
8 119 63 23 57 54 21 4 17
8 55 22 63 119 15 3 21 54
8 58 26 68 121 18 6 25 56
8 122 65 26 58 57 23 6 18
8 73 31 7 27 142 79 30 71
8 143 78 29 72 73 31 7 27
8 83 147 76 34 32 74 28 8
8 84 148 78 36 33 75 29 9
8 76 34 8 28 148 84 33 75
8 37 79 150 86 10 30 77 35
8 151 87 36 78 80 38 11 31
8 80 38 11 31 152 88 37 79
8 175 100 42 94 96 44 12 40
8 44 96 176 101 12 40 95 43
8 101 176 98 46 43 95 41 13
8 46 98 178 103 13 41 97 45
8 178 103 45 97 147 83 32 74
8 189 116 55 109 106 52 15 47
8 111 56 118 191 49 16 53 107
8 192 119 57 110 108 54 17 48
8 109 55 119 192 47 15 54 108
8 194 122 58 112 110 57 18 50
8 112 58 121 195 50 18 56 111
8 115 61 19 51 197 124 59 113
8 115 61 125 198 51 19 60 114
8 198 125 62 116 114 60 20 52
8 200 127 64 120 116 62 22 55
8 118 67 132 202 53 24 66 117
8 121 68 133 203 56 25 67 118
8 120 64 128 204 55 22 63 119
8 204 128 65 122 119 63 23 57
8 206 134 68 121 123 69 26 58
8 123 69 26 58 207 131 65 122
8 226 147 74 138 140 76 28 70
8 229 148 75 139 143 78 29 72
8 140 76 28 70 229 148 75 139
8 142 79 30 71 231 150 77 141
8 144 80 31 73 232 152 79 142
8 233 151 78 143 144 80 31 73
8 150 86 35 77 235 154 81 145
8 235 154 81 145 146 82 39 91
8 146 82 39 91 236 155 90 165
8 238 157 83 147 149 85 34 76
8 239 158 84 148 151 87 36 78
8 149 85 34 76 239 158 84 148
8 152 88 37 79 241 160 86 150
8 242 161 87 151 153 89 38 80
8 153 89 38 80 243 162 88 152
8 171 98 41 92 265 178 97 169
8 265 178 97 169 226 147 74 138
8 172 96 40 93 266 176 95 170
8 266 176 95 170 171 98 41 92
8 269 175 94 173 172 96 40 93
8 271 180 99 174 175 100 42 94
8 197 124 59 113 271 180 99 174
8 272 181 100 175 177 102 44 96
8 273 182 101 176 179 104 46 98
8 177 102 44 96 273 182 101 176
8 179 104 46 98 275 184 103 178
8 275 184 103 178 238 157 83 147
8 188 115 51 105 283 197 113 186
8 188 115 198 284 105 51 114 187
8 284 198 116 189 187 114 52 106
8 286 200 120 193 189 116 55 109
8 191 118 202 288 107 53 117 190
8 195 121 203 289 111 56 118 191
8 193 120 204 290 109 55 119 192
8 290 204 122 194 192 119 57 110
8 196 123 58 112 292 207 122 194
8 293 206 121 195 196 123 58 112
8 199 126 61 115 297 211 124 197
8 298 212 127 200 198 125 62 116
8 199 126 212 298 115 61 125 198
8 205 129 64 120 300 214 127 200
8 301 217 130 201 202 132 66 117
8 209 136 168 264 301 217 130 201
8 302 219 132 202 203 133 67 118
8 303 220 133 203 206 134 68 121
8 205 129 215 304 120 64 128 204
8 304 215 131 207 204 128 65 122
8 306 221 134 206 208 135 69 123
8 208 135 69 123 307 218 131 207
8 210 137 167 263 309 223 136 209
8 328 238 147 226 230 149 76 140
8 228 146 91 166 329 236 165 260
8 231 150 77 141 330 235 145 227
8 330 235 145 227 228 146 91 166
8 332 239 148 229 233 151 78 143
8 230 149 76 140 332 239 148 229
8 232 152 79 142 334 241 150 231
8 234 153 80 144 335 243 152 232
8 336 242 151 233 234 153 80 144
8 236 155 90 165 338 245 164 259
8 241 160 86 150 339 246 154 235
8 339 246 154 235 237 156 82 146
8 237 156 82 146 340 247 155 236
8 342 249 157 238 240 159 85 149
8 343 250 158 239 242 161 87 151
8 240 159 85 149 343 250 158 239
8 243 162 88 152 345 252 160 241
8 244 163 253 346 153 89 161 242
8 244 163 89 153 347 254 162 243
8 311 224 261 371 210 137 167 263
8 263 167 262 372 209 136 168 264
8 267 179 98 171 375 275 178 265
8 375 275 178 265 328 238 147 226
8 376 273 176 266 267 179 98 171
8 268 177 96 172 376 273 176 266
8 379 272 175 269 268 177 96 172
8 380 271 174 270 269 175 94 173
8 283 197 113 186 380 271 174 270
8 381 277 180 271 272 181 100 175
8 297 211 124 197 381 277 180 271
8 382 278 181 272 274 183 102 177
8 274 183 102 177 383 279 182 273
8 383 279 182 273 276 185 104 179
8 385 281 184 275 342 249 157 238
8 276 185 104 179 385 281 184 275
8 285 199 115 188 393 297 197 283
8 394 298 200 286 284 198 116 189
8 285 199 298 394 188 115 198 284
8 291 205 120 193 396 300 200 286
8 397 301 201 287 288 202 117 190
8 295 209 264 374 397 301 201 287
8 398 302 202 288 289 203 118 191
8 399 303 203 289 293 206 121 195
8 291 205 304 400 193 120 204 290
8 400 304 207 292 290 204 122 194
8 294 208 123 196 402 307 207 292
8 403 306 206 293 294 208 123 196
8 296 210 263 373 405 309 209 295
8 408 312 213 299 297 211 126 199
8 299 213 313 409 199 126 212 298
8 409 313 214 300 298 212 127 200
8 305 216 129 205 411 315 214 300
8 412 318 217 301 302 219 132 202
8 309 223 136 209 412 318 217 301
8 413 320 219 302 303 220 133 203
8 306 221 321 414 206 134 220 303
8 307 218 131 207 415 316 215 304
8 305 216 316 415 205 129 215 304
8 417 322 221 306 308 222 135 208
8 308 222 135 208 418 319 218 307
8 310 225 137 210 420 325 223 309
8 423 326 224 311 310 225 137 210
8 329 236 165 260 441 338 259 368
8 442 342 238 328 333 240 149 230
8 331 237 146 228 443 340 236 329
8 334 241 150 231 444 339 235 330
8 444 339 235 330 331 237 146 228
8 446 343 239 332 336 242 151 233
8 333 240 149 230 446 343 239 332
8 335 243 152 232 448 345 241 334
8 337 244 153 234 449 347 243 335
8 337 244 346 450 234 153 242 336
8 338 245 164 259 452 349 258 367
8 340 247 155 236 453 350 245 338
8 345 252 160 241 454 351 246 339
8 454 351 246 339 341 248 156 237
8 341 248 156 237 455 352 247 340
8 240 159 251 344 342 249 354 457
8 242 161 253 346 343 250 355 458
8 343 250 355 458 240 159 251 344
8 347 254 162 243 460 357 252 345
8 348 255 358 461 244 163 253 346
8 348 255 163 244 462 359 254 347
8 473 360 257 365 363 256 364 482
8 452 349 258 367 365 257 366 485
8 422 324 369 488 311 224 261 371
8 371 261 370 490 263 167 262 372
8 407 311 371 491 296 210 263 373
8 373 263 372 492 295 209 264 374
8 493 385 275 375 442 342 238 328
8 377 276 179 267 493 385 275 375
8 378 274 177 268 494 383 273 376
8 494 383 273 376 377 276 179 267
8 497 382 272 379 378 274 177 268
8 498 381 271 380 379 272 175 269
8 393 297 197 283 498 381 271 380
8 499 387 277 381 382 278 181 272
8 408 312 211 297 499 387 277 381
8 500 388 278 382 384 280 183 274
8 501 389 279 383 386 282 185 276
8 384 280 183 274 501 389 279 383
8 386 282 185 276 503 391 281 385
8 503 391 281 385 457 354 249 342
8 511 408 299 395 393 297 199 285
8 395 299 409 512 285 199 298 394
8 512 409 300 396 394 298 200 286
8 401 305 205 291 514 411 300 396
8 515 412 301 397 398 302 202 288
8 405 309 209 295 515 412 301 397
8 516 413 302 398 399 303 203 289
8 403 306 414 517 293 206 303 399
8 402 307 207 292 518 415 304 400
8 401 305 415 518 291 205 304 400
8 404 308 208 294 520 418 307 402
8 521 417 306 403 404 308 208 294
8 406 310 210 296 523 420 309 405
8 526 423 311 407 406 310 210 296
8 410 314 213 299 527 424 312 408
8 528 425 315 411 409 313 214 300
8 410 314 425 528 299 213 313 409
8 416 317 216 305 530 427 315 411
8 531 430 318 412 413 320 219 302
8 420 325 223 309 531 430 318 412
8 532 432 320 413 414 321 220 303
8 417 322 433 533 306 221 321 414
8 418 319 218 307 534 428 316 415
8 416 317 428 534 305 216 316 415
8 419 323 434 536 308 222 322 417
8 419 323 222 308 537 431 319 418
8 421 327 225 310 539 438 325 420
8 421 327 439 541 310 225 326 423
8 543 437 324 422 423 326 224 311
8 441 338 259 368 559 452 367 486
8 443 340 236 329 560 453 338 441
8 333 240 344 447 442 342 457 561
8 445 341 237 331 562 455 340 443
8 448 345 241 334 563 454 339 444
8 563 454 339 444 445 341 237 331
8 336 242 346 450 446 343 458 565
8 446 343 458 565 333 240 344 447
8 449 347 243 335 567 460 345 448
8 451 348 244 337 568 462 347 449
8 451 348 461 569 337 244 346 450
8 570 463 349 452 473 360 257 365
8 453 350 245 338 570 463 349 452
8 455 352 247 340 571 464 350 453
8 460 357 252 345 572 465 351 454
8 572 465 351 454 456 353 248 341
8 456 353 248 341 573 466 352 455
8 344 251 356 459 457 354 468 575
8 458 355 469 576 344 251 356 459
8 346 253 358 461 458 355 469 576
8 462 359 254 347 578 471 357 460
8 348 255 359 462 461 358 472 579
8 591 474 360 473 475 361 256 363
8 475 361 256 363 594 477 362 479
8 363 256 364 482 479 362 480 603
8 590 473 365 484 481 363 482 605
8 482 364 257 365 606 483 366 485
8 559 452 367 486 484 365 485 607
8 542 436 487 609 422 324 369 488
8 525 422 488 611 407 311 371 491
8 488 369 489 612 371 261 370 490
8 491 371 490 613 373 263 372 492
8 495 386 276 377 614 503 385 493
8 614 503 385 493 561 457 342 442
8 615 501 383 494 495 386 276 377
8 496 384 274 378 615 501 383 494
8 618 500 382 497 496 384 274 378
8 619 499 381 498 497 382 272 379
8 511 408 297 393 619 499 381 498
8 620 505 387 499 500 388 278 382
8 527 424 312 408 620 505 387 499
8 502 390 506 621 384 280 388 500
8 622 507 389 501 504 392 282 386
8 502 390 280 384 622 507 389 501
8 504 392 282 386 624 509 391 503
8 624 509 391 503 575 468 354 457
8 513 410 299 395 630 527 408 511
8 631 528 411 514 512 409 300 396
8 513 410 528 631 395 299 409 512
8 519 416 305 401 633 530 411 514
8 634 531 412 515 516 413 302 398
8 523 420 309 405 634 531 412 515
8 635 532 413 516 517 414 303 399
8 521 417 533 636 403 306 414 517
8 520 418 307 402 637 534 415 518
8 519 416 534 637 401 305 415 518
8 522 419 308 404 639 537 418 520
8 522 419 536 640 404 308 417 521
8 524 421 310 406 642 539 420 523
8 524 421 541 644 406 310 423 526
8 646 543 422 525 526 423 311 407
8 529 426 314 410 647 544 424 527
8 528 425 545 648 411 315 427 530
8 529 426 545 648 410 314 425 528
8 535 429 317 416 649 546 427 530
8 650 548 430 531 532 432 320 413
8 539 438 325 420 650 548 430 531
8 533 433 550 651 414 321 432 532
8 536 434 551 652 417 322 433 533
8 537 431 319 418 653 547 428 534
8 535 429 547 653 416 317 428 534
8 538 435 552 654 419 323 434 536
8 538 435 323 419 655 549 431 537
8 540 440 327 421 657 556 438 539
8 540 440 557 659 421 327 439 541
8 541 439 555 660 423 326 437 543
8 661 554 436 542 543 437 324 422
8 676 570 452 559 590 473 365 484
8 560 453 338 441 676 570 452 559
8 562 455 340 443 677 571 453 560
8 447 344 459 566 561 457 575 678
8 564 456 341 445 679 573 455 562
8 567 460 345 448 680 572 454 563
8 680 572 454 563 564 456 341 445
8 565 458 576 682 447 344 459 566
8 450 346 461 569 565 458 576 682
8 568 462 347 449 684 578 460 567
8 451 348 462 568 569 461 579 685
8 686 580 463 570 591 474 360 473
8 571 464 350 453 686 580 463 570
8 573 466 352 455 687 581 464 571
8 572 465 582 688 460 357 471 578
8 574 467 582 688 456 353 465 572
8 574 467 353 456 689 583 466 573
8 459 356 470 577 575 468 585 691
8 576 469 586 692 459 356 470 577
8 461 358 472 579 576 469 586 692
8 462 359 471 578 579 472 588 694
8 704 591 473 590 593 475 363 481
8 595 476 592 705 475 361 474 591
8 593 475 363 481 707 594 479 602
8 594 477 362 479 709 598 478 600
8 595 476 361 475 711 597 477 594
8 479 362 480 603 600 478 601 720
8 481 363 482 605 602 479 603 722
8 603 480 364 482 723 604 483 606
8 605 482 365 484 724 606 485 607
8 656 553 608 726 542 436 487 609
8 645 542 609 728 525 422 488 611
8 609 487 610 729 488 369 489 612
8 611 488 612 730 491 371 490 613
8 616 504 386 495 731 624 503 614
8 731 624 503 614 678 575 457 561
8 732 622 501 615 616 504 386 495
8 617 502 384 496 732 622 501 615
8 617 502 621 735 496 384 500 618
8 736 620 499 619 618 500 382 497
8 630 527 408 511 736 620 499 619
8 621 506 626 737 500 388 505 620
8 647 544 424 527 737 626 505 620
8 623 508 627 738 502 390 506 621
8 623 508 390 502 739 628 507 622
8 625 510 628 739 504 392 507 622
8 740 629 509 624 691 585 468 575
8 625 510 392 504 740 629 509 624
8 632 529 410 513 744 647 527 630
8 631 528 648 745 514 411 530 633
8 632 529 648 745 513 410 528 631
8 638 535 416 519 746 649 530 633
8 747 650 531 634 635 532 413 516
8 642 539 420 523 747 650 531 634
8 636 533 651 748 517 414 532 635
8 640 536 652 749 521 417 533 636
8 639 537 418 520 750 653 534 637
8 638 535 653 750 519 416 534 637
8 641 538 419 522 751 655 537 639
8 641 538 654 752 522 419 536 640
8 643 540 421 524 753 657 539 642
8 643 540 659 755 524 421 541 644
8 644 541 660 757 526 423 543 646
8 758 661 542 645 646 543 422 525
8 529 426 544 647 648 545 662 759
8 530 427 545 648 649 546 663 760
8 535 429 546 649 653 547 664 761
8 762 666 548 650 651 550 432 532
8 657 556 438 539 762 666 548 650
8 652 551 668 763 533 433 550 651
8 654 552 669 764 536 434 551 652
8 655 549 431 537 765 665 547 653
8 538 435 549 655 654 552 667 766
8 661 554 671 768 542 436 553 656
8 658 558 440 540 769 674 556 657
8 658 558 675 770 540 440 557 659
8 659 557 673 771 541 439 555 660
8 660 555 672 772 543 437 554 661
8 788 686 570 676 704 591 473 590
8 677 571 453 560 788 686 570 676
8 679 573 455 562 789 687 571 677
8 566 459 577 683 678 575 691 790
8 681 574 456 564 791 689 573 679
8 680 572 688 792 567 460 578 684
8 681 574 688 792 564 456 572 680
8 682 576 692 794 566 459 577 683
8 569 461 579 685 682 576 692 794
8 568 462 578 684 685 579 694 796
8 687 581 464 571 798 696 580 686
8 798 696 580 686 705 592 474 591
8 689 583 466 573 799 697 581 687
8 688 582 698 800 578 471 588 694
8 690 584 698 800 574 467 582 688
8 690 584 467 574 801 699 583 689
8 693 587 701 803 577 470 585 691
8 693 587 470 577 804 702 586 692
8 695 589 702 804 579 472 586 692
8 695 589 472 579 805 703 588 694
8 708 595 705 813 593 475 591 704
8 710 596 706 814 595 476 592 705
8 707 594 479 602 816 709 600 719
8 708 595 475 593 817 711 594 707
8 709 598 478 600 819 715 599 717
8 711 597 477 594 820 714 598 709
8 710 596 476 595 822 713 597 711
8 600 478 601 720 717 599 718 832
8 602 479 603 722 719 600 720 834
8 720 601 480 603 835 721 604 723
8 722 603 482 605 836 723 606 724
8 767 670 725 839 656 553 608 726
8 756 656 726 841 645 542 609 728
8 726 608 727 842 609 487 610 729
8 728 609 729 843 611 488 612 730
8 844 740 624 731 790 691 575 678
8 733 625 504 616 844 740 624 731
8 734 623 502 617 845 739 622 732
8 733 625 739 845 616 504 622 732
8 734 623 738 846 617 502 621 735
8 735 621 737 847 618 500 620 736
8 744 647 527 630 847 737 620 736
8 621 506 627 738 737 626 741 848
8 647 544 626 737 759 662 741 848
8 623 508 628 739 738 627 742 849
8 740 629 585 691 850 743 700 802
8 625 510 629 740 739 628 743 850
8 632 529 647 744 745 648 759 854
8 633 530 648 745 746 649 760 855
8 638 535 649 746 750 653 761 856
8 857 762 650 747 748 651 532 635
8 753 657 539 642 857 762 650 747
8 749 652 763 858 636 533 651 748
8 752 654 764 859 640 536 652 749
8 751 655 537 639 860 765 653 750
8 641 538 655 751 752 654 766 861
8 754 658 540 643 862 769 657 753
8 754 658 770 863 643 540 659 755
8 755 659 771 864 644 541 660 757
8 758 661 768 866 645 542 656 756
8 757 660 772 867 646 543 661 758
8 759 662 773 868 648 545 663 760
8 649 546 663 760 761 664 774 871
8 765 665 547 653 872 775 664 761
8 873 777 666 762 763 668 550 651
8 769 674 556 657 873 777 666 762
8 764 669 779 874 652 551 668 763
8 654 552 667 766 764 669 778 875
8 655 549 665 765 766 667 776 876
8 768 671 782 877 656 553 670 767
8 772 672 783 878 661 554 671 768
8 658 558 674 769 770 675 786 879
8 659 557 675 770 771 673 785 881
8 882 784 672 772 771 673 555 660
8 789 687 571 677 897 798 686 788
8 897 798 686 788 813 705 591 704
8 791 689 573 679 898 799 687 789
8 795 693 803 900 683 577 691 790
8 793 690 574 681 901 801 689 791
8 792 688 800 902 684 578 694 796
8 793 690 800 902 681 574 688 792
8 795 693 577 683 903 804 692 794
8 797 695 804 903 685 579 692 794
8 797 695 579 685 904 805 694 796
8 905 806 697 799 798 696 581 687
8 814 706 806 905 705 592 696 798
8 689 583 697 799 801 699 808 907
8 800 698 809 908 694 588 703 805
8 690 584 699 801 800 698 809 908
8 803 701 810 909 691 585 700 802
8 693 587 702 804 803 701 811 910
8 695 589 703 805 804 702 812 911
8 818 710 814 919 708 595 705 813
8 821 712 815 920 710 596 706 814
8 816 709 600 719 922 819 717 831
8 817 711 594 707 923 820 709 816
8 818 710 595 708 924 822 711 817
8 819 715 599 717 926 827 716 829
8 820 714 598 709 927 826 715 819
8 929 825 713 822 820 714 597 711
8 821 712 596 710 930 824 713 822
8 717 599 718 832 829 716 830 942
8 719 600 720 834 831 717 832 944
8 832 718 601 720 945 833 721 835
8 834 720 603 722 946 835 723 836
8 869 780 838 950 767 670 725 839
8 865 767 839 952 756 656 726 841
8 839 725 840 953 726 608 727 842
8 841 726 842 954 728 609 729 843
8 844 740 691 790 955 850 802 899
8 733 625 740 844 845 739 850 955
8 734 623 739 845 846 738 849 956
8 735 621 738 846 847 737 848 957
8 744 647 737 847 854 759 848 957
8 738 627 742 849 848 741 851 958
8 848 741 851 958 759 662 773 868
8 850 743 700 802 959 852 807 906
8 849 742 628 739 959 852 743 850
8 854 759 868 965 745 648 760 855
8 746 649 760 855 856 761 871 966
8 860 765 653 750 967 872 761 856
8 968 873 762 857 858 763 651 748
8 862 769 657 753 968 873 762 857
8 859 764 874 969 749 652 763 858
8 752 654 766 861 859 764 875 970
8 751 655 765 860 861 766 876 971
8 754 658 769 862 863 770 879 972
8 755 659 770 863 864 771 881 974
8 976 882 772 867 864 771 660 757
8 866 768 877 977 756 656 767 865
8 867 772 878 978 758 661 768 866
8 760 663 773 868 871 774 883 980
8 870 781 837 948 982 890 780 869
8 982 890 780 869 877 782 670 767
8 761 664 774 871 872 775 884 984
8 876 776 665 765 985 885 775 872
8 873 777 668 763 986 887 779 874
8 769 674 777 873 879 786 887 986
8 764 669 778 875 874 779 888 987
8 766 667 776 876 875 778 886 988
8 878 783 892 989 768 671 782 877
8 878 783 672 772 990 893 784 882
8 880 787 675 770 991 896 786 879
8 880 787 895 992 770 675 785 881
8 881 785 894 993 771 673 784 882
8 1006 905 799 898 897 798 687 789
8 919 814 905 1006 813 705 798 897
8 791 689 799 898 901 801 907 1007
8 900 803 909 1009 790 691 802 899
8 795 693 804 903 900 803 910 1010
8 902 800 908 1011 796 694 805 904
8 793 690 801 901 902 800 908 1011
8 797 695 805 904 903 804 911 1012
8 799 697 806 905 907 808 912 1013
8 920 815 912 1013 814 706 806 905
8 802 700 810 909 906 807 913 1014
8 801 699 808 907 908 809 914 1015
8 805 703 809 908 911 812 915 1016
8 803 701 811 910 909 810 916 1017
8 911 812 917 1018 804 702 811 910
8 925 821 920 1030 818 710 814 919
8 928 823 921 1031 821 712 815 920
8 922 819 717 831 1033 926 829 941
8 923 820 709 816 1034 927 819 922
8 1035 929 822 924 923 820 711 817
8 925 821 710 818 1036 930 822 924
8 1038 933 825 929 927 826 714 820
8 926 827 716 829 1039 935 828 939
8 927 826 715 819 1040 934 827 926
8 928 823 712 821 1041 931 824 930
8 1042 932 824 930 929 825 713 822
8 829 716 830 942 939 828 940 1058
8 831 717 832 944 941 829 942 1060
8 942 830 718 832 1061 943 833 945
8 944 832 720 834 1062 945 835 946
8 981 889 947 1064 870 781 837 948
8 948 837 949 1067 869 780 838 950
8 975 869 950 1069 865 767 839 952
8 950 838 951 1070 839 725 840 953
8 952 839 953 1071 841 726 842 954
8 955 850 802 899 1072 959 906 1008
8 956 849 739 845 1072 959 850 955
8 846 738 849 956 957 848 958 1073
8 957 848 958 1073 854 759 868 965
8 849 742 852 959 958 851 961 1076
8 960 853 961 1076 906 807 852 959
8 958 851 961 1076 868 773 883 980
8 960 853 807 906 1077 963 913 1014
8 855 760 868 965 966 871 980 1085
8 856 761 871 966 967 872 984 1086
8 971 876 765 860 1087 985 872 967
8 968 873 763 858 1088 986 874 969
8 862 769 873 968 972 879 986 1088
8 859 764 875 970 969 874 987 1089
8 861 766 876 971 970 875 988 1090
8 973 880 770 863 1091 991 879 972
8 973 880 992 1092 863 770 881 974
8 974 881 993 1093 864 771 882 976
8 979 870 948 1066 1094 982 869 975
8 1094 982 869 975 977 877 767 865
8 978 878 772 867 1095 990 882 976
8 978 878 989 1096 866 768 877 977
8 871 774 883 980 984 884 994 1099
8 983 891 999 1100 870 781 889 981
8 1101 1000 890 982 989 892 782 877
8 983 891 781 870 1101 1000 890 982
8 872 775 884 984 985 885 995 1103
8 876 776 885 985 988 886 996 1104
8 986 887 779 874 1105 998 888 987
8 879 786 887 986 991 896 998 1105
8 875 778 886 988 987 888 997 1106
8 990 893 1002 1107 878 783 892 989
8 1108 1003 893 990 993 894 784 882
8 880 787 896 991 992 895 1005 1109
8 993 894 785 881 1110 1004 895 992
8 898 799 905 1006 1007 907 1013 1120
8 1030 920 1013 1120 919 814 905 1006
8 901 801 907 1007 1011 908 1015 1121
8 899 802 909 1009 1008 906 1014 1122
8 900 803 910 1010 1009 909 1017 1123
8 1012 911 1018 1124 903 804 910 1010
8 904 805 908 1011 1012 911 1016 1125
8 1013 912 1020 1127 907 808 914 1015
8 1031 921 1020 1127 920 815 912 1013
8 1019 918 962 1075 1128 1021 913 1014
8 1128 1021 913 1014 1017 916 810 909
8 1015 914 1022 1129 908 809 915 1016
8 1016 915 1023 1130 911 812 917 1018
8 1018 917 1024 1131 910 811 916 1017
8 1037 928 1031 1148 925 821 920 1030
8 928 823 931 1041 1031 921 1032 1149
8 1033 926 829 941 1151 1039 939 1057
8 1034 927 819 922 1152 1040 926 1033
8 1153 1038 929 1035 1034 927 820 923
8 1154 1042 930 1036 1035 929 822 924
8 1037 928 821 925 1155 1041 930 1036
8 1039 935 828 939 1156 1047 938 1055
8 1157 1043 932 1042 1038 933 825 929
8 1038 933 826 927 1158 1045 934 1040
8 1040 934 827 926 1159 1046 935 1039
8 930 824 932 1042 1041 931 1044 1160
8 1051 936 1048 1165 1175 1052 937 1053
8 1156 1047 938 1055 1053 937 1054 1178
8 939 828 940 1058 1055 938 1056 1181
8 941 829 942 1060 1057 939 1058 1183
8 942 830 943 1061 1058 940 1059 1184
8 1060 942 832 944 1185 1061 945 1062
8 1082 964 1063 1188 981 889 947 1064
8 1097 981 1064 1190 979 870 948 1066
8 1064 947 1065 1191 948 837 949 1067
8 1066 948 1067 1193 975 869 950 1069
8 1067 949 1068 1194 950 838 951 1070
8 1069 950 1070 1195 952 839 953 1071
8 956 849 959 1072 1073 958 1076 1197
8 1074 960 1076 1197 1008 906 959 1072
8 1073 958 1076 1197 965 868 980 1085
8 1074 960 906 1008 1198 1077 1014 1122
8 1133 1026 1079 1199 1019 918 962 1075
8 1077 963 913 1014 1200 1080 962 1075
8 960 853 963 1077 1076 961 1078 1201
8 980 883 961 1076 1099 994 1078 1201
8 1210 1083 964 1082 1100 999 889 981
8 966 871 980 1085 1086 984 1099 1215
8 967 872 984 1086 1087 985 1103 1216
8 971 876 985 1087 1090 988 1104 1217
8 1088 986 874 969 1218 1105 987 1089
8 972 879 986 1088 1091 991 1105 1218
8 970 875 988 1090 1089 987 1106 1219
8 973 880 991 1091 1092 992 1109 1220
8 1093 993 881 974 1221 1110 992 1092
8 1222 1108 990 1095 1093 993 882 976
8 1223 1101 982 1094 1096 989 877 977
8 1098 983 870 979 1223 1101 982 1094
8 1095 990 1107 1224 978 878 989 1096
8 1098 983 1100 1225 979 870 981 1097
8 984 884 994 1099 1103 995 1111 1227
8 1102 1001 1115 1228 983 891 999 1100
8 1101 1000 892 989 1229 1116 1002 1107
8 1102 1001 891 983 1229 1116 1000 1101
8 985 885 995 1103 1104 996 1112 1230
8 988 886 996 1104 1106 997 1113 1231
8 1105 998 888 987 1232 1114 997 1106
8 991 896 998 1105 1109 1005 1114 1232
8 1108 1003 1117 1233 990 893 1002 1107
8 1108 1003 894 993 1233 1117 1004 1110
8 992 895 1005 1109 1110 1004 1118 1234
8 1120 1013 1127 1244 1007 907 1015 1121
8 1148 1031 1127 1244 1030 920 1013 1120
8 1121 1015 1129 1245 1011 908 1016 1125
8 1126 1019 1075 1196 1246 1128 1014 1122
8 1246 1128 1014 1122 1123 1017 909 1009
8 1124 1018 1131 1247 1010 910 1017 1123
8 1125 1016 1130 1248 1012 911 1018 1124
8 1127 1020 1137 1254 1015 914 1022 1129
8 1031 921 1032 1149 1127 1020 1137 1254
8 1134 1027 918 1019 1257 1140 1021 1128
8 1257 1140 1021 1128 1131 1024 916 1017
8 1129 1022 1141 1258 1016 915 1023 1130
8 1130 1023 1142 1259 1018 917 1024 1131
8 1261 1144 1025 1132 1133 1026 1079 1199
8 1255 1138 1025 1132 1135 1028 1144 1261
8 1133 1026 918 1019 1262 1145 1027 1134
8 1136 1029 1139 1256 1263 1146 1028 1135
8 1037 928 1041 1155 1148 1031 1149 1275
8 1041 931 1044 1160 1149 1032 1150 1276
8 1151 1039 939 1057 1278 1156 1055 1180
8 1152 1040 926 1033 1279 1159 1039 1151
8 1153 1038 927 1034 1280 1158 1040 1152
8 1281 1157 1042 1154 1153 1038 929 1035
8 1036 930 1042 1154 1155 1041 1160 1282
8 1283 1164 1046 1159 1156 1047 935 1039
8 1165 1048 1164 1283 1053 937 1047 1156
8 1157 1043 933 1038 1284 1161 1045 1158
8 1157 1043 1161 1284 1042 932 1044 1160
8 1040 934 1046 1159 1158 1045 1163 1285
8 1166 1049 1167 1292 1051 936 1048 1165
8 1166 1049 936 1051 1293 1168 1050 1172
8 1051 936 1052 1175 1172 1050 1173 1306
8 1174 1051 1165 1290 1308 1175 1053 1177
8 1053 937 1054 1178 1175 1052 1176 1309
8 1278 1156 1055 1180 1177 1053 1178 1311
8 1055 938 1056 1181 1178 1054 1179 1312
8 1057 939 1058 1183 1180 1055 1181 1314
8 1058 940 1059 1184 1181 1056 1182 1315
8 1060 942 1061 1185 1183 1058 1184 1316
8 1208 1081 1187 1321 1082 964 1063 1188
8 1209 1082 1188 1322 1097 981 1064 1190
8 1188 1063 1189 1323 1064 947 1065 1191
8 1190 1064 1191 1325 1066 948 1067 1193
8 1191 1065 1192 1326 1067 949 1068 1194
8 1067 1193 1069 950 1194 1327 1195 1070
8 1250 1133 1199 1330 1126 1019 1075 1196
8 1198 1077 1014 1122 1331 1200 1075 1196
8 1074 960 1077 1198 1197 1076 1201 1332
8 1085 980 1076 1197 1215 1099 1201 1332
8 1199 1079 1203 1333 1075 962 1080 1200
8 1132 1025 1119 1243 1199 1079 1203 1333
8 1201 1078 963 1077 1334 1202 1080 1200
8 1099 994 1078 1201 1227 1111 1202 1334
8 1343 1207 1081 1208 1210 1083 964 1082
8 1214 1084 1186 1319 1343 1207 1081 1208
8 1345 1210 1082 1209 1225 1100 981 1097
8 1346 1211 1083 1210 1228 1115 999 1100
8 1086 984 1099 1215 1216 1103 1227 1352
8 1087 985 1103 1216 1217 1104 1230 1353
8 1090 988 1104 1217 1219 1106 1231 1354
8 1218 1105 987 1089 1355 1232 1106 1219
8 1091 991 1105 1218 1220 1109 1232 1355
8 1092 992 1109 1220 1221 1110 1234 1356
8 1222 1108 1233 1357 1095 990 1107 1224
8 1222 1108 993 1093 1357 1233 1110 1221
8 1223 1101 989 1096 1358 1229 1107 1224
8 1226 1102 983 1098 1358 1229 1101 1223
8 1226 1102 1228 1359 1098 983 1100 1225
8 1103 995 1111 1227 1230 1112 1235 1360
8 1107 1002 1117 1233 1229 1116 1240 1362
8 1102 1001 1116 1229 1228 1115 1240 1362
8 1104 996 1112 1230 1231 1113 1236 1363
8 1364 1237 1114 1232 1231 1113 997 1106
8 1109 1005 1114 1232 1234 1118 1238 1365
8 1110 1004 1118 1234 1233 1117 1241 1366
8 1242 1374 1255 1138 1119 1243 1132 1025
8 1244 1127 1254 1376 1121 1015 1129 1245
8 1148 1031 1149 1275 1244 1127 1254 1376
8 1245 1129 1258 1377 1125 1016 1130 1248
8 1251 1134 1019 1126 1378 1257 1128 1246
8 1378 1257 1128 1246 1247 1131 1017 1123
8 1248 1130 1259 1379 1124 1018 1131 1247
8 1261 1381 1250 1133 1132 1249 1330 1199
8 1255 1380 1252 1135 1132 1249 1381 1261
8 1250 1133 1019 1126 1382 1262 1134 1251
8 1253 1136 1256 1385 1384 1263 1135 1252
8 1254 1137 1265 1387 1129 1022 1141 1258
8 1149 1032 1150 1276 1254 1137 1265 1387
8 1028 1135 1255 1138 1139 1256 1388 1266
8 1136 1029 1147 1264 1256 1139 1267 1389
8 1390 1268 1140 1257 1259 1142 1024 1131
8 1260 1143 1027 1134 1390 1268 1140 1257
8 1258 1141 1269 1391 1130 1023 1142 1259
8 1262 1145 1027 1134 1393 1271 1143 1260
8 1261 1144 1026 1133 1394 1272 1145 1262
8 1135 1028 1144 1261 1263 1146 1272 1394
8 1136 1029 1146 1263 1264 1147 1273 1395
8 1155 1041 1160 1282 1275 1149 1276 1405
8 1276 1150 1044 1160 1406 1277 1162 1286
8 1408 1283 1159 1279 1278 1156 1039 1151
8 1290 1165 1283 1408 1177 1053 1156 1278
8 1152 1040 1159 1279 1280 1158 1285 1409
8 1281 1157 1038 1153 1410 1284 1158 1280
8 1281 1157 1284 1410 1154 1042 1160 1282
8 1159 1046 1164 1283 1285 1163 1289 1412
8 1292 1167 1289 1412 1165 1048 1164 1283
8 1158 1045 1163 1285 1284 1161 1288 1413
8 1284 1161 1288 1413 1160 1044 1162 1286
8 1291 1166 1292 1418 1174 1051 1165 1290
8 1291 1166 1051 1174 1419 1293 1172 1305
8 1294 1169 1296 1421 1166 1049 1167 1292
8 1293 1168 1050 1172 1422 1295 1171 1303
8 1294 1169 1049 1166 1423 1297 1168 1293
8 1422 1295 1171 1303 1301 1170 1302 1435
8 1172 1050 1173 1306 1303 1171 1304 1438
8 1174 1051 1175 1308 1305 1172 1306 1440
8 1175 1052 1176 1309 1306 1173 1307 1441
8 1177 1053 1178 1311 1308 1175 1309 1443
8 1178 1054 1179 1312 1309 1176 1310 1444
8 1180 1055 1181 1314 1311 1178 1312 1446
8 1056 1181 1312 1179 1182 1315 1447 1313
8 1183 1058 1184 1316 1314 1181 1315 1448
8 1319 1186 1084 1214 1451 1317 1213 1350
8 1319 1186 1318 1453 1208 1081 1187 1321
8 1321 1187 1320 1456 1188 1063 1189 1323
8 1344 1208 1321 1457 1209 1082 1188 1322
8 1322 1188 1323 1458 1190 1064 1191 1325
8 1323 1189 1324 1459 1191 1065 1192 1326
8 1191 1325 1193 1067 1326 1460 1327 1194
8 1242 1374 1243 1119 1328 1462 1335 1204
8 1330 1199 1333 1465 1196 1075 1200 1331
8 1132 1249 1330 1199 1243 1375 1465 1333
8 1332 1201 1077 1198 1466 1334 1200 1331
8 1215 1099 1201 1332 1352 1227 1334 1466
8 1119 1243 1333 1203 1204 1335 1470 1338
8 1333 1203 1338 1470 1200 1080 1202 1334
8 1227 1111 1202 1334 1360 1235 1338 1470
8 1328 1462 1335 1204 1205 1336 1471 1339
8 1337 1206 1340 1472 1464 1329 1205 1336
8 1346 1211 1342 1479 1210 1083 1207 1343
8 1346 1211 1115 1228 1479 1342 1239 1361
8 1348 1212 1084 1214 1479 1342 1207 1343
8 1480 1343 1208 1344 1345 1210 1082 1209
8 1351 1214 1319 1454 1480 1343 1208 1344
8 1481 1346 1210 1345 1359 1228 1100 1225
8 1348 1212 1347 1483 1214 1084 1213 1350
8 1216 1103 1227 1352 1353 1230 1360 1488
8 1217 1104 1230 1353 1354 1231 1363 1489
8 1490 1364 1232 1355 1354 1231 1106 1219
8 1220 1109 1232 1355 1356 1234 1365 1491
8 1221 1110 1234 1356 1357 1233 1366 1492
8 1224 1107 1233 1357 1358 1229 1362 1493
8 1226 1102 1229 1358 1359 1228 1362 1493
8 1230 1112 1235 1360 1363 1236 1367 1496
8 1361 1239 1115 1228 1497 1371 1240 1362
8 1366 1241 1372 1498 1233 1117 1240 1362
8 1364 1237 1113 1231 1499 1368 1236 1363
8 1364 1237 1368 1499 1232 1114 1238 1365
8 1234 1118 1238 1365 1366 1241 1369 1500
8 1507 1373 1242 1374 1388 1266 1138 1255
8 1508 1374 1243 1375 1380 1255 1132 1249
8 1376 1254 1387 1509 1245 1129 1258 1377
8 1275 1149 1276 1405 1376 1254 1387 1509
8 1377 1258 1391 1510 1248 1130 1259 1379
8 1511 1390 1257 1378 1379 1259 1131 1247
8 1383 1260 1134 1251 1511 1390 1257 1378
8 1252 1135 1256 1385 1380 1255 1388 1512
8 1261 1381 1513 1394 1133 1250 1382 1262
8 1135 1252 1384 1263 1261 1381 1513 1394
8 1382 1262 1134 1251 1514 1393 1260 1383
8 1253 1136 1263 1384 1386 1264 1395 1516
8 1253 1136 1264 1386 1385 1256 1389 1517
8 1387 1265 1397 1519 1258 1141 1269 1391
8 1276 1150 1277 1406 1387 1265 1397 1519
8 1256 1139 1267 1389 1388 1266 1398 1520
8 1264 1147 1274 1396 1389 1267 1399 1521
8 1392 1270 1143 1260 1522 1400 1268 1390
8 1390 1268 1142 1259 1522 1400 1269 1391
8 1392 1270 1401 1523 1260 1143 1271 1393
8 1272 1394 1524 1402 1145 1262 1393 1271
8 1395 1273 1146 1263 1524 1402 1272 1394
8 1273 1395 1264 1147 1403 1526 1396 1274
8 1405 1276 1160 1282 1534 1406 1286 1411
8 1414 1287 1407 1535 1286 1162 1277 1406
8 1279 1159 1283 1408 1409 1285 1412 1537
8 1418 1292 1412 1537 1290 1165 1283 1408
8 1280 1158 1285 1409 1410 1284 1413 1538
8 1410 1284 1413 1538 1282 1160 1286 1411
8 1285 1163 1289 1412 1413 1288 1417 1540
8 1421 1296 1417 1540 1292 1167 1289 1412
8 1414 1287 1162 1286 1541 1416 1288 1413
8 1420 1294 1421 1545 1291 1166 1292 1418
8 1419 1293 1172 1305 1546 1422 1303 1437
8 1420 1294 1166 1291 1547 1423 1293 1419
8 1294 1169 1297 1423 1421 1296 1425 1548
8 1423 1297 1168 1293 1549 1424 1295 1422
8 1301 1170 1298 1427 1422 1295 1424 1549
8 1432 1300 1428 1554 1301 1170 1298 1427
8 1431 1299 1428 1554 1560 1430 1300 1432
8 1563 1433 1300 1432 1435 1302 1170 1301
8 1546 1422 1303 1437 1434 1301 1435 1565
8 1303 1171 1304 1438 1435 1302 1436 1566
8 1305 1172 1306 1440 1437 1303 1438 1568
8 1306 1173 1307 1441 1438 1304 1439 1569
8 1308 1175 1309 1443 1440 1306 1441 1571
8 1309 1176 1310 1444 1441 1307 1442 1572
8 1311 1178 1312 1446 1443 1309 1444 1574
8 1179 1312 1444 1310 1313 1447 1575 1445
8 1314 1181 1315 1448 1446 1312 1447 1576
8 1350 1213 1349 1486 1451 1317 1449 1579
8 1451 1317 1450 1581 1319 1186 1318 1453
8 1454 1319 1214 1351 1582 1451 1350 1487
8 1453 1318 1452 1584 1321 1187 1320 1456
8 1454 1319 1453 1585 1344 1208 1321 1457
8 1456 1320 1455 1586 1323 1189 1324 1459
8 1457 1321 1456 1587 1322 1188 1323 1458
8 1458 1323 1459 1588 1325 1191 1326 1460
8 1205 1336 1464 1329 1328 1462 1590 1461
8 1507 1373 1461 1590 1374 1242 1328 1462
8 1508 1374 1462 1591 1375 1243 1335 1467
8 1337 1206 1329 1464 1473 1341 1463 1594
8 1375 1243 1335 1467 1465 1333 1470 1596
8 1465 1333 1470 1596 1331 1200 1334 1466
8 1352 1227 1334 1466 1488 1360 1470 1596
8 1591 1462 1336 1468 1467 1335 1471 1597
8 1469 1337 1472 1598 1595 1464 1336 1468
8 1471 1339 1474 1600 1335 1204 1338 1470
8 1600 1474 1367 1496 1470 1338 1235 1360
8 1336 1205 1340 1472 1471 1339 1475 1601
8 1337 1206 1341 1473 1472 1340 1476 1602
8 1495 1370 1478 1609 1361 1239 1342 1479
8 1348 1212 1342 1479 1483 1347 1478 1609
8 1481 1346 1479 1610 1345 1210 1343 1480
8 1481 1346 1228 1359 1610 1479 1361 1494
8 1484 1348 1214 1351 1610 1479 1343 1480
8 1483 1347 1482 1612 1350 1213 1349 1486
8 1484 1348 1483 1613 1351 1214 1350 1487
8 1353 1230 1360 1488 1489 1363 1496 1616
8 1490 1364 1231 1354 1617 1499 1363 1489
8 1490 1364 1499 1617 1355 1232 1365 1491
8 1356 1234 1365 1491 1492 1366 1500 1619
8 1492 1366 1498 1620 1357 1233 1362 1493
8 1494 1361 1228 1359 1621 1497 1362 1493
8 1495 1370 1239 1361 1622 1504 1371 1497
8 1363 1236 1367 1496 1499 1368 1501 1623
8 1497 1371 1240 1362 1624 1505 1372 1498
8 1625 1503 1372 1498 1500 1369 1241 1366
8 1365 1238 1368 1499 1500 1369 1502 1626
8 1520 1398 1506 1633 1388 1266 1373 1507
8 1634 1507 1374 1508 1512 1388 1255 1380
8 1509 1387 1519 1635 1377 1258 1391 1510
8 1405 1276 1406 1534 1509 1387 1519 1635
8 1515 1392 1260 1383 1636 1522 1390 1511
8 1511 1390 1259 1379 1636 1522 1391 1510
8 1385 1256 1389 1517 1512 1388 1520 1637
8 1513 1394 1262 1382 1638 1524 1393 1514
8 1395 1516 1638 1524 1263 1384 1513 1394
8 1515 1392 1523 1639 1383 1260 1393 1514
8 1516 1395 1526 1640 1386 1264 1396 1518
8 1386 1264 1396 1518 1517 1389 1521 1641
8 1519 1397 1527 1643 1391 1269 1400 1522
8 1535 1407 1527 1643 1406 1277 1397 1519
8 1389 1267 1399 1521 1520 1398 1528 1644
8 1645 1529 1399 1521 1525 1404 1274 1396
8 1392 1270 1400 1522 1523 1401 1531 1646
8 1524 1402 1271 1393 1648 1532 1401 1523
8 1403 1526 1648 1532 1273 1395 1524 1402
8 1525 1404 1274 1396 1649 1533 1403 1526
8 1539 1414 1535 1657 1411 1286 1406 1534
8 1542 1415 1536 1658 1414 1287 1407 1535
8 1409 1285 1412 1537 1538 1413 1540 1660
8 1545 1421 1540 1660 1418 1292 1412 1537
8 1539 1414 1286 1411 1661 1541 1413 1538
8 1540 1417 1544 1663 1413 1288 1416 1541
8 1421 1296 1425 1548 1540 1417 1544 1663
8 1542 1415 1287 1414 1664 1543 1416 1541
8 1420 1294 1423 1547 1545 1421 1548 1666
8 1547 1423 1293 1419 1667 1549 1422 1546
8 1434 1301 1427 1553 1546 1422 1549 1667
8 1423 1297 1424 1549 1548 1425 1550 1668
8 1551 1426 1550 1668 1427 1298 1424 1549
8 1551 1426 1298 1427 1671 1552 1428 1554
8 1562 1432 1554 1674 1434 1301 1427 1553
8 1431 1299 1429 1558 1554 1428 1555 1675
8 1431 1299 1430 1560 1558 1429 1557 1680
8 1560 1430 1300 1432 1683 1559 1433 1563
8 1561 1431 1554 1674 1684 1560 1432 1562
8 1685 1563 1432 1562 1565 1435 1301 1434
8 1435 1302 1436 1566 1563 1433 1564 1686
8 1437 1303 1438 1568 1565 1435 1566 1688
8 1438 1304 1439 1569 1566 1436 1567 1689
8 1440 1306 1441 1571 1568 1438 1569 1691
8 1441 1307 1442 1572 1569 1439 1570 1692
8 1443 1309 1444 1574 1571 1441 1572 1694
8 1310 1444 1572 1442 1445 1575 1695 1573
8 1446 1312 1447 1576 1574 1444 1575 1696
8 1486 1349 1485 1614 1579 1449 1577 1699
8 1451 1317 1449 1579 1581 1450 1578 1701
8 1487 1350 1486 1615 1582 1451 1579 1702
8 1581 1450 1580 1704 1453 1318 1452 1584
8 1582 1451 1581 1705 1454 1319 1453 1585
8 1584 1452 1583 1706 1456 1320 1455 1586
8 1585 1453 1584 1707 1457 1321 1456 1587
8 1587 1456 1586 1708 1458 1323 1459 1588
8 1633 1506 1589 1710 1507 1373 1461 1590
8 1464 1329 1461 1590 1594 1463 1589 1710
8 1468 1336 1462 1591 1595 1464 1590 1711
8 1634 1507 1590 1711 1508 1374 1462 1591
8 1473 1341 1463 1594 1603 1477 1593 1716
8 1469 1337 1464 1595 1599 1473 1594 1717
8 1471 1597 1467 1335 1600 1718 1596 1470
8 1718 1600 1496 1616 1596 1470 1360 1488
8 1336 1468 1597 1471 1472 1598 1719 1601
8 1469 1337 1473 1599 1598 1472 1602 1720
8 1722 1604 1501 1623 1600 1474 1367 1496
8 1475 1601 1471 1339 1604 1722 1600 1474
8 1602 1476 1605 1723 1472 1340 1475 1601
8 1476 1602 1724 1606 1341 1473 1603 1477
8 1483 1347 1478 1609 1612 1482 1608 1731
8 1495 1370 1504 1622 1609 1478 1608 1731
8 1618 1495 1609 1732 1494 1361 1479 1610
8 1484 1348 1479 1610 1613 1483 1609 1732
8 1486 1349 1482 1612 1614 1485 1611 1733
8 1613 1483 1612 1734 1487 1350 1486 1615
8 1489 1363 1496 1616 1617 1499 1623 1736
8 1491 1365 1499 1617 1619 1500 1626 1737
8 1618 1495 1361 1494 1738 1622 1497 1621
8 1739 1625 1498 1620 1619 1500 1366 1492
8 1621 1497 1362 1493 1740 1624 1498 1620
8 1742 1631 1504 1622 1624 1505 1371 1497
8 1743 1628 1502 1626 1623 1501 1368 1499
8 1744 1630 1505 1624 1625 1503 1372 1498
8 1745 1629 1503 1625 1626 1502 1369 1500
8 1520 1398 1528 1644 1633 1506 1632 1751
8 1637 1520 1633 1752 1512 1388 1507 1634
8 1635 1519 1643 1753 1510 1391 1522 1636
8 1657 1535 1643 1753 1534 1406 1519 1635
8 1515 1392 1522 1636 1639 1523 1646 1754
8 1517 1389 1521 1641 1637 1520 1644 1755
8 1524 1638 1756 1648 1393 1514 1639 1523
8 1640 1526 1395 1516 1756 1648 1524 1638
8 1642 1525 1396 1518 1757 1649 1526 1640
8 1758 1645 1521 1641 1642 1525 1396 1518
8 1646 1531 1400 1522 1760 1650 1527 1643
8 1535 1407 1536 1658 1643 1527 1650 1760
8 1521 1399 1529 1645 1644 1528 1651 1761
8 1647 1530 1652 1762 1525 1404 1529 1645
8 1401 1523 1648 1532 1531 1646 1763 1655
8 1525 1404 1533 1649 1647 1530 1654 1765
8 1533 1649 1766 1656 1403 1526 1648 1532
8 1662 1542 1658 1774 1539 1414 1535 1657
8 1542 1415 1543 1664 1658 1536 1659 1775
8 1660 1540 1663 1777 1538 1413 1541 1661
8 1545 1421 1548 1666 1660 1540 1663 1777
8 1662 1542 1414 1539 1778 1664 1541 1661
8 1664 1543 1416 1541 1779 1665 1544 1663
8 1548 1425 1550 1668 1663 1544 1665 1779
8 1547 1423 1549 1667 1666 1548 1668 1781
8 1670 1551 1668 1781 1553 1427 1549 1667
8 1551 1426 1552 1671 1668 1550 1669 1782
8 1670 1551 1427 1553 1784 1671 1554 1674
8 1675 1555 1672 1785 1554 1428 1552 1671
8 1678 1556 1673 1789 1558 1429 1555 1675
8 1561 1431 1558 1681 1674 1554 1675 1790
8 1794 1677 1556 1678 1680 1557 1429 1558
8 1560 1430 1559 1683 1680 1557 1679 1797
8 1561 1431 1560 1684 1681 1558 1680 1798
8 1563 1433 1564 1686 1683 1559 1682 1800
8 1684 1560 1432 1562 1801 1683 1563 1685
8 1565 1435 1566 1688 1685 1563 1686 1802
8 1566 1436 1567 1689 1686 1564 1687 1803
8 1568 1438 1569 1691 1688 1566 1689 1805
8 1569 1439 1570 1692 1689 1567 1690 1806
8 1571 1441 1572 1694 1691 1569 1692 1808
8 1442 1572 1692 1570 1573 1695 1809 1693
8 1574 1444 1575 1696 1694 1572 1695 1810
8 1614 1485 1592 1712 1699 1577 1697 1813
8 1579 1449 1577 1699 1701 1578 1698 1815
8 1615 1486 1614 1735 1702 1579 1699 1816
8 1701 1578 1700 1818 1581 1450 1580 1704
8 1582 1451 1579 1702 1705 1581 1701 1819
8 1704 1580 1703 1820 1584 1452 1583 1706
8 1705 1581 1704 1821 1585 1453 1584 1707
8 1707 1584 1706 1822 1587 1456 1586 1708
8 1710 1589 1506 1633 1824 1709 1632 1751
8 1594 1463 1589 1710 1716 1593 1709 1824
8 1752 1633 1710 1825 1634 1507 1590 1711
8 1595 1464 1590 1711 1717 1594 1710 1825
8 1830 1714 1592 1712 1733 1611 1485 1614
8 1603 1477 1593 1716 1725 1607 1715 1834
8 1599 1473 1594 1717 1721 1603 1716 1835
8 1837 1722 1623 1736 1718 1600 1496 1616
8 1719 1601 1722 1837 1597 1471 1600 1718
8 1602 1720 1598 1472 1723 1838 1719 1601
8 1720 1602 1473 1599 1839 1724 1603 1721
8 1723 1605 1726 1840 1601 1475 1604 1722
8 1840 1726 1628 1743 1722 1604 1501 1623
8 1724 1606 1727 1841 1602 1476 1605 1723
8 1725 1607 1728 1842 1603 1477 1606 1724
8 1612 1482 1608 1731 1733 1611 1730 1849
8 1741 1627 1730 1849 1622 1504 1608 1731
8 1613 1483 1609 1732 1734 1612 1731 1850
8 1618 1495 1622 1738 1732 1609 1731 1850
8 1615 1486 1612 1734 1735 1614 1733 1851
8 1852 1743 1626 1737 1736 1623 1499 1617
8 1853 1745 1625 1739 1737 1626 1500 1619
8 1855 1742 1622 1738 1740 1624 1497 1621
8 1856 1744 1624 1740 1739 1625 1498 1620
8 1741 1627 1504 1622 1857 1746 1631 1742
8 1742 1631 1505 1624 1858 1749 1630 1744
8 1859 1747 1629 1745 1743 1628 1502 1626
8 1860 1748 1630 1744 1745 1629 1503 1625
8 1644 1528 1651 1761 1751 1632 1750 1865
8 1637 1520 1644 1755 1752 1633 1751 1866
8 1754 1646 1522 1636 1867 1760 1643 1753
8 1657 1535 1658 1774 1753 1643 1760 1867
8 1639 1523 1646 1754 1756 1648 1763 1868
8 1641 1521 1645 1758 1755 1644 1761 1869
8 1757 1649 1526 1640 1870 1766 1648 1756
8 1642 1525 1649 1757 1759 1647 1765 1871
8 1759 1647 1762 1872 1642 1525 1645 1758
8 1760 1650 1767 1874 1646 1531 1655 1763
8 1658 1536 1659 1775 1760 1650 1767 1874
8 1762 1652 1768 1875 1645 1529 1651 1761
8 1764 1653 1769 1876 1647 1530 1652 1762
8 1656 1766 1877 1773 1532 1648 1763 1655
8 1771 1879 1765 1654 1653 1764 1647 1530
8 1533 1649 1765 1654 1656 1766 1880 1772
8 1662 1542 1664 1778 1774 1658 1775 1887
8 1664 1543 1665 1779 1775 1659 1776 1888
8 1778 1664 1541 1661 1890 1779 1663 1777
8 1666 1548 1668 1781 1777 1663 1779 1890
8 1782 1669 1780 1891 1668 1550 1665 1779
8 1670 1551 1671 1784 1781 1668 1782 1893
8 1671 1552 1672 1785 1782 1669 1783 1894
8 1790 1675 1785 1896 1674 1554 1671 1784
8 1675 1555 1673 1789 1785 1672 1786 1897
8 1792 1676 1788 1903 1678 1556 1673 1789
8 1795 1678 1789 1904 1681 1558 1675 1790
8 1792 1676 1556 1678 1906 1791 1677 1794
8 1680 1557 1679 1797 1794 1677 1793 1909
8 1910 1794 1678 1795 1798 1680 1558 1681
8 1683 1559 1682 1800 1797 1679 1796 1912
8 1684 1560 1683 1801 1798 1680 1797 1913
8 1686 1564 1687 1803 1800 1682 1799 1915
8 1685 1563 1686 1802 1801 1683 1800 1916
8 1688 1566 1689 1805 1802 1686 1803 1917
8 1689 1567 1690 1806 1803 1687 1804 1918
8 1691 1569 1692 1808 1805 1689 1806 1920
8 1692 1570 1693 1809 1806 1690 1807 1921
8 1694 1572 1695 1810 1808 1692 1809 1922
8 1829 1713 1811 1926 1712 1592 1697 1813
8 1813 1697 1812 1928 1699 1577 1698 1815
8 1735 1614 1712 1828 1816 1699 1813 1929
8 1815 1698 1814 1931 1701 1578 1700 1818
8 1702 1579 1699 1816 1819 1701 1815 1932
8 1818 1700 1817 1933 1704 1580 1703 1820
8 1819 1701 1818 1934 1705 1581 1704 1821
8 1821 1704 1820 1935 1707 1584 1706 1822
8 1824 1709 1632 1751 1937 1823 1750 1865
8 1716 1593 1709 1824 1834 1715 1823 1937
8 1825 1710 1633 1752 1938 1824 1751 1866
8 1717 1594 1710 1825 1835 1716 1824 1938
8 1945 1830 1712 1828 1851 1733 1614 1735
8 1830 1714 1831 1946 1712 1592 1713 1829
8 1947 1832 1714 1830 1849 1730 1611 1733
8 1843 1729 1607 1725 1950 1833 1715 1834
8 1721 1603 1716 1835 1836 1725 1834 1951
8 1836 1725 1842 1953 1721 1603 1724 1839
8 1723 1838 1719 1601 1840 1954 1837 1722
8 1954 1840 1743 1852 1837 1722 1623 1736
8 1724 1839 1720 1602 1841 1955 1838 1723
8 1841 1727 1844 1956 1723 1605 1726 1840
8 1956 1844 1747 1859 1840 1726 1628 1743
8 1728 1842 1724 1606 1845 1957 1841 1727
8 1725 1607 1729 1843 1842 1728 1846 1958
8 1741 1627 1746 1857 1849 1730 1848 1965
8 1734 1612 1731 1850 1851 1733 1849 1966
8 1854 1741 1849 1966 1738 1622 1731 1850
8 1967 1859 1745 1853 1852 1743 1626 1737
8 1968 1860 1744 1856 1853 1745 1625 1739
8 1854 1741 1622 1738 1969 1857 1742 1855
8 1855 1742 1624 1740 1970 1858 1744 1856
8 1857 1746 1631 1742 1971 1861 1749 1858
8 1858 1749 1630 1744 1972 1863 1748 1860
8 1859 1747 1862 1973 1745 1629 1748 1860
8 1875 1768 1864 1977 1761 1651 1750 1865
8 1755 1644 1761 1869 1866 1751 1865 1978
8 1867 1760 1874 1979 1754 1646 1763 1868
8 1774 1658 1775 1887 1867 1760 1874 1979
8 1870 1766 1648 1756 1980 1877 1763 1868
8 1872 1762 1875 1981 1758 1645 1761 1869
8 1757 1649 1766 1870 1871 1765 1880 1982
8 1983 1879 1764 1873 1871 1765 1647 1759
8 1873 1764 1876 1984 1759 1647 1762 1872
8 1877 1773 1655 1763 1986 1881 1767 1874
8 1775 1659 1776 1888 1874 1767 1881 1986
8 1876 1769 1882 1987 1762 1652 1768 1875
8 1878 1770 1883 1988 1764 1653 1769 1876
8 1880 1772 1656 1766 1989 1886 1773 1877
8 1878 1770 1653 1764 1990 1884 1771 1879
8 1765 1654 1772 1880 1879 1771 1885 1991
8 1778 1664 1779 1890 1887 1775 1888 1997
8 1998 1889 1776 1888 1891 1780 1665 1779
8 1893 1782 1891 2000 1781 1668 1779 1890
8 1894 1783 1892 2001 1782 1669 1780 1891
8 1784 1671 1785 1896 1893 1782 1894 2003
8 1897 1786 1895 2004 1785 1672 1783 1894
8 1790 1675 1789 1904 1896 1785 1897 2006
8 1901 1787 1898 2007 1789 1673 1786 1897
8 1903 1788 1900 2013 1789 1673 1787 1901
8 1792 1676 1791 1906 1903 1788 1902 2016
8 1907 1792 1903 2017 1795 1678 1789 1904
8 1906 1791 1677 1794 2019 1905 1793 1909
8 1907 1792 1678 1795 2020 1906 1794 1910
8 1797 1679 1796 1912 1909 1793 1908 2022
8 1798 1680 1797 1913 1910 1794 1909 2023
8 1800 1682 1799 1915 1912 1796 1911 2025
8 1801 1683 1800 1916 1913 1797 1912 2026
8 1803 1687 1804 1918 1915 1799 1914 2028
8 1802 1686 1803 1917 1916 1800 1915 2029
8 1805 1689 1806 1920 1917 1803 1918 2030
8 1806 1690 1807 1921 1918 1804 1919 2031
8 1808 1692 1809 1922 1920 1806 1921 2032
8 1939 1826 1924 2037 1829 1713 1811 1926
8 1926 1811 1925 2039 1813 1697 1812 1928
8 1944 1829 1926 2040 1828 1712 1813 1929
8 1928 1812 1927 2042 1815 1698 1814 1931
8 1929 1813 1928 2043 1816 1699 1815 1932
8 1931 1814 1930 2044 1818 1700 1817 1933
8 1932 1815 1931 2045 1819 1701 1818 1934
8 1934 1818 1933 2046 1821 1704 1820 1935
8 2048 1936 1823 1937 1977 1864 1750 1865
8 1950 1833 1715 1834 2048 1936 1823 1937
8 1938 1824 1751 1866 2049 1937 1865 1978
8 1835 1716 1824 1938 1951 1834 1937 2049
8 1939 1826 1713 1829 2053 1942 1831 1946
8 1940 1827 1923 2035 2053 1942 1826 1939
8 1945 1830 1946 2058 1828 1712 1829 1944
8 2059 1947 1830 1945 1966 1849 1733 1851
8 1947 1832 1730 1849 2060 1948 1848 1965
8 1947 1832 1948 2060 1830 1714 1831 1946
8 1959 1847 1729 1843 2063 1949 1833 1950
8 1952 1843 1725 1836 2064 1950 1834 1951
8 1836 1725 1843 1952 1953 1842 1958 2066
8 1953 1842 1957 2067 1839 1724 1841 1955
8 1841 1955 1838 1723 1956 2068 1954 1840
8 2068 1956 1859 1967 1954 1840 1743 1852
8 1956 1844 1960 2069 1859 1747 1862 1973
8 1845 1957 1841 1727 1960 2069 1956 1844
8 1728 1842 1957 1845 1846 1958 2071 1961
8 1962 2072 1959 1847 1846 1958 1843 1729
8 1971 1861 1964 2077 1857 1746 1848 1965
8 1854 1741 1857 1969 1966 1849 1965 2078
8 1967 1859 1973 2079 1853 1745 1860 1968
8 1970 1858 1744 1856 2080 1972 1860 1968
8 1969 1857 1742 1855 2081 1971 1858 1970
8 1971 1861 1749 1858 2082 1974 1863 1972
8 1973 1862 1975 2083 1860 1748 1863 1972
8 1987 1882 1976 2086 1875 1768 1864 1977
8 1981 1875 1977 2087 1869 1761 1865 1978
8 1980 1877 1763 1868 2088 1986 1874 1979
8 1887 1775 1888 1997 1979 1874 1986 2088
8 1880 1982 2089 1989 1766 1870 1980 1877
8 1984 1876 1987 2090 1872 1762 1875 1981
8 1765 1871 1983 1879 1880 1982 2091 1991
8 1985 1878 1764 1873 2092 1990 1879 1983
8 1985 1878 1988 2093 1873 1764 1876 1984
8 2094 1992 1881 1986 1998 1889 1776 1888
8 1986 1881 1992 2094 1877 1773 1886 1989
8 1988 1883 1993 2095 1876 1769 1882 1987
8 1878 1770 1884 1990 1988 1883 1994 2096
8 1991 1885 1772 1880 2097 1996 1886 1989
8 1879 1771 1885 1991 1990 1884 1995 2098
8 2103 1998 1888 1997 2000 1891 1779 1890
8 2104 1999 1889 1998 2001 1892 1780 1891
8 2003 1894 2001 2106 1893 1782 1891 2000
8 2004 1895 2002 2107 1894 1783 1892 2001
8 2006 1897 2004 2109 1896 1785 1894 2003
8 2007 1898 2005 2110 1897 1786 1895 2004
8 2014 1901 2007 2112 1904 1789 1897 2006
8 2011 1899 2008 2113 1901 1787 1898 2007
8 2119 2010 1899 2011 2013 1900 1787 1901
8 2016 1902 2012 2122 1903 1788 1900 2013
8 2017 1903 2013 2123 1904 1789 1901 2014
8 1906 1791 1905 2019 2016 1902 2015 2125
8 1907 1792 1906 2020 2017 1903 2016 2126
8 1909 1793 1908 2022 2019 1905 2018 2128
8 2020 1906 1794 1910 2129 2019 1909 2023
8 1912 1796 1911 2025 2022 1908 2021 2131
8 1913 1797 1912 2026 2023 1909 2022 2132
8 1915 1799 1914 2028 2025 1911 2024 2134
8 1916 1800 1915 2029 2026 1912 2025 2135
8 1918 1804 1919 2031 2028 1914 2027 2136
8 1917 1803 1918 2030 2029 1915 2028 2137
8 1920 1806 1921 2032 2030 1918 2031 2138
8 1940 1827 1941 2054 2035 1923 2033 2140
8 2035 1923 2034 2143 1939 1826 1924 2037
8 2037 1924 2036 2146 1926 1811 1925 2039
8 2051 1939 2037 2147 1944 1829 1926 2040
8 2039 1925 2038 2149 1928 1812 1927 2042
8 2040 1926 2039 2150 1929 1813 1928 2043
8 2042 1927 2041 2151 1931 1814 1930 2044
8 2043 1928 2042 2152 1932 1815 1931 2045
8 2045 1931 2044 2153 1934 1818 1933 2046
8 2155 2047 1936 2048 2086 1976 1864 1977
8 2063 1949 1833 1950 2155 2047 1936 2048
8 2156 2048 1937 2049 2087 1977 1865 1978
8 2064 1950 1834 1951 2156 2048 1937 2049
8 2051 1939 1829 1944 2160 2053 1946 2058
8 2052 1940 2035 2144 2160 2053 1939 2051
8 2053 1942 1831 1946 2163 2057 1948 2060
8 2055 1943 1827 1940 2163 2057 1942 2053
8 2055 1943 2056 2164 1940 1827 1941 2054
8 2059 1947 1849 1966 2167 2060 1965 2078
8 2059 1947 2060 2167 1945 1830 1946 2058
8 2077 1964 2061 2168 1965 1848 1948 2060
8 2070 1963 1847 1959 2170 2062 1949 2063
8 2065 1959 1843 1952 2171 2063 1950 2064
8 2173 2072 1958 2066 2065 1959 1843 1952
8 1953 1842 1958 2066 2067 1957 2071 2174
8 2068 1956 2069 2175 1967 1859 1973 2079
8 2067 1957 2069 2175 1955 1841 1956 2068
8 1845 1957 2069 1960 1961 2071 2176 2073
8 2069 1960 2073 2176 1973 1862 1975 2083
8 2070 1963 2075 2177 1959 1847 1962 2072
8 1846 1958 2071 1961 1962 2072 2178 2074
8 2077 1964 1861 1971 2182 2076 1974 2082
8 2081 1971 2077 2183 1969 1857 1965 2078
8 2079 1973 2083 2184 1968 1860 1972 2080
8 2081 1971 1858 1970 2185 2082 1972 2080
8 2083 1975 2084 2186 1972 1863 1974 2082
8 2086 1976 1882 1987 2189 2085 1993 2095
8 2090 1987 2086 2190 1981 1875 1977 2087
8 2191 2094 1986 2088 2103 1998 1888 1997
8 2088 1986 2094 2191 1980 1877 1989 2089
8 1991 2091 2192 2097 1880 1982 2089 1989
8 2093 1988 2095 2193 1984 1876 1987 2090
8 1879 1983 2092 1990 1991 2091 2194 2098
8 1985 1878 1990 2092 2093 1988 2096 2195
8 2097 1996 1886 1989 2196 2099 1992 2094
8 2196 2099 1992 2094 2104 1999 1889 1998
8 1994 2096 1988 1883 2100 2197 2095 1993
8 2096 1994 1884 1990 2198 2101 1995 2098
8 1995 2098 2199 2102 1885 1991 2097 1996
8 2203 2104 1998 2103 2106 2001 1891 2000
8 2107 2002 2105 2204 2001 1892 1999 2104
8 2109 2004 2107 2206 2003 1894 2001 2106
8 2110 2005 2108 2207 2004 1895 2002 2107
8 2112 2007 2110 2209 2006 1897 2004 2109
8 2113 2008 2111 2210 2007 1898 2005 2110
8 2120 2011 2113 2212 2014 1901 2007 2112
8 2117 2009 2114 2213 2011 1899 2008 2113
8 2219 2116 2009 2117 2119 2010 1899 2011
8 2222 2118 2010 2119 2122 2012 1900 2013
8 2223 2119 2011 2120 2123 2013 1901 2014
8 2016 1902 2015 2125 2122 2012 2121 2225
8 2126 2016 2122 2226 2017 1903 2013 2123
8 2019 1905 2018 2128 2125 2015 2124 2228
8 2020 1906 2019 2129 2126 2016 2125 2229
8 2022 1908 2021 2131 2128 2018 2127 2231
8 2023 1909 2022 2132 2129 2019 2128 2232
8 2025 1911 2024 2134 2131 2021 2130 2234
8 2026 1912 2025 2135 2132 2022 2131 2235
8 1914 2028 2134 2024 2027 2136 2236 2133
8 2029 1915 2028 2137 2135 2025 2134 2237
8 2030 1918 2031 2138 2137 2028 2136 2238
8 2157 2050 2139 2240 2054 1941 2033 2140
8 2052 1940 2054 2161 2144 2035 2140 2242
8 2140 2033 2141 2243 2035 1923 2034 2143
8 2143 2034 2142 2246 2037 1924 2036 2146
8 2144 2035 2143 2247 2051 1939 2037 2147
8 2146 2036 2145 2249 2039 1925 2038 2149
8 2147 2037 2146 2250 2040 1926 2039 2150
8 2149 2038 2148 2251 2042 1927 2041 2151
8 2150 2039 2149 2252 2043 1928 2042 2152
8 2152 2042 2151 2253 2045 1931 2044 2153
8 2255 2154 2047 2155 2189 2085 1976 2086
8 2170 2062 1949 2063 2255 2154 2047 2155
8 2256 2155 2048 2156 2190 2086 1977 2087
8 2171 2063 1950 2064 2256 2155 2048 2156
8 2258 2159 2050 2157 2164 2056 1941 2054
8 2160 2053 1946 2058 2262 2163 2060 2167
8 2162 2055 1940 2052 2262 2163 2053 2160
8 2162 2055 2164 2263 2052 1940 2054 2161
8 2163 2057 1948 2060 2264 2165 2061 2168
8 2055 1943 2057 2163 2164 2056 2165 2264
8 2182 2076 2166 2268 2077 1964 2061 2168
8 2183 2077 2168 2269 2078 1965 2060 2167
8 2070 1963 2062 2170 2177 2075 2169 2271
8 2172 2070 1959 2065 2272 2170 2063 2171
8 2172 2070 2177 2273 2065 1959 2072 2173
8 2066 1958 2072 2173 2174 2071 2178 2274
8 2067 1957 2071 2174 2175 2069 2176 2275
8 2175 2069 2176 2275 2079 1973 2083 2184
8 2071 1961 2074 2178 2176 2073 2179 2276
8 2176 2073 2179 2276 2083 1975 2084 2186
8 2072 1962 2075 2177 2178 2074 2180 2277
8 2182 2076 1974 2082 2280 2181 2084 2186
8 2183 2077 1971 2081 2281 2182 2082 2185
8 2184 2083 2186 2282 2080 1972 2082 2185
8 2189 2085 1993 2095 2285 2188 2100 2197
8 2190 2086 1987 2090 2286 2189 2095 2193
8 2192 2097 1989 2089 2287 2196 2094 2191
8 2287 2196 2094 2191 2203 2104 1998 2103
8 2194 2098 1991 2091 2288 2199 2097 2192
8 2195 2096 2197 2289 2093 1988 2095 2193
8 2096 2195 2290 2198 1990 2092 2194 2098
8 2097 1996 2099 2196 2199 2102 2200 2291
8 2196 2099 1999 2104 2291 2200 2105 2204
8 2100 2197 2292 2201 1994 2096 2198 2101
8 1995 2098 2198 2101 2102 2199 2293 2202
8 2206 2107 2204 2296 2106 2001 2104 2203
8 2207 2108 2205 2297 2107 2002 2105 2204
8 2209 2110 2207 2299 2109 2004 2107 2206
8 2210 2111 2208 2300 2110 2005 2108 2207
8 2212 2113 2210 2302 2112 2007 2110 2209
8 2213 2114 2211 2303 2113 2008 2111 2210
8 2220 2117 2213 2305 2120 2011 2113 2212
8 2216 2115 2214 2306 2117 2009 2114 2213
8 2216 2115 2009 2117 2311 2217 2116 2219
8 2219 2116 2010 2119 2314 2218 2118 2222
8 2315 2219 2117 2220 2223 2119 2011 2120
8 2122 2012 2121 2225 2222 2118 2221 2317
8 2318 2222 2119 2223 2226 2122 2013 2123
8 2125 2015 2124 2228 2225 2121 2224 2320
8 2126 2016 2125 2229 2226 2122 2225 2321
8 2128 2018 2127 2231 2228 2124 2227 2323
8 2129 2019 2128 2232 2229 2125 2228 2324
8 2131 2021 2130 2234 2231 2127 2230 2326
8 2132 2022 2131 2235 2232 2128 2231 2327
8 2134 2024 2133 2236 2234 2130 2233 2328
8 2135 2025 2134 2237 2235 2131 2234 2329
8 2137 2028 2136 2238 2237 2134 2236 2330
8 2157 2050 2158 2259 2240 2139 2239 2332
8 2257 2157 2240 2334 2161 2054 2140 2242
8 2240 2139 2241 2335 2140 2033 2141 2243
8 2242 2140 2243 2337 2144 2035 2143 2247
8 2243 2141 2244 2338 2143 2034 2142 2246
8 2246 2142 2245 2341 2146 2036 2145 2249
8 2247 2143 2246 2342 2147 2037 2146 2250
8 2249 2145 2248 2343 2149 2038 2148 2251
8 2250 2146 2249 2344 2150 2039 2149 2252
8 2252 2149 2251 2345 2152 2042 2151 2253
8 2169 2271 2347 2254 2062 2170 2255 2154
8 2189 2085 2188 2285 2255 2154 2254 2347
8 2348 2255 2155 2256 2286 2189 2086 2190
8 2272 2170 2063 2171 2348 2255 2155 2256
8 2349 2258 2157 2257 2263 2164 2054 2161
8 2258 2159 2261 2351 2157 2050 2158 2259
8 2258 2159 2056 2164 2351 2261 2165 2264
8 2262 2163 2060 2167 2355 2264 2168 2269
8 2162 2055 2163 2262 2263 2164 2264 2355
8 2357 2266 2165 2264 2268 2166 2061 2168
8 2268 2166 2076 2182 2361 2267 2181 2280
8 2281 2182 2268 2362 2183 2077 2168 2269
8 2271 2169 2270 2364 2177 2075 2180 2277
8 2172 2070 2170 2272 2273 2177 2271 2365
8 2072 2173 2274 2178 2177 2273 2366 2277
8 2071 2174 2275 2176 2178 2274 2367 2276
8 2275 2176 2276 2367 2184 2083 2186 2282
8 2283 2187 2084 2186 2368 2278 2179 2276
8 2178 2074 2180 2277 2276 2179 2278 2368
8 2283 2187 2279 2370 2186 2084 2181 2280
8 2281 2182 2082 2185 2371 2280 2186 2282
8 2188 2285 2374 2284 2100 2197 2292 2201
8 2286 2189 2095 2193 2375 2285 2197 2289
8 2192 2097 2196 2287 2288 2199 2291 2376
8 2287 2196 2104 2203 2376 2291 2204 2296
8 2194 2098 2199 2288 2290 2198 2293 2377
8 2289 2197 2096 2195 2378 2292 2198 2290
8 2291 2200 2105 2204 2379 2294 2205 2297
8 2199 2102 2200 2291 2293 2202 2294 2379
8 2198 2101 2202 2293 2292 2201 2295 2380
8 2299 2207 2297 2383 2206 2107 2204 2296
8 2300 2208 2298 2384 2207 2108 2205 2297
8 2302 2210 2300 2386 2209 2110 2207 2299
8 2303 2211 2301 2387 2210 2111 2208 2300
8 2305 2213 2303 2389 2212 2113 2210 2302
8 2306 2214 2304 2390 2213 2114 2211 2303
8 2310 2216 2306 2392 2220 2117 2213 2305
8 2308 2215 2307 2393 2216 2115 2214 2306
8 2308 2215 2115 2216 2396 2309 2217 2311
8 2310 2216 2117 2220 2398 2311 2219 2315
8 2311 2217 2116 2219 2399 2312 2218 2314
8 2314 2218 2118 2222 2402 2313 2221 2317
8 2315 2219 2119 2223 2403 2314 2222 2318
8 2225 2121 2224 2320 2317 2221 2316 2405
8 2226 2122 2225 2321 2318 2222 2317 2406
8 2228 2124 2227 2323 2320 2224 2319 2408
8 2229 2125 2228 2324 2321 2225 2320 2409
8 2231 2127 2230 2326 2323 2227 2322 2411
8 2232 2128 2231 2327 2324 2228 2323 2412
8 2234 2130 2233 2328 2326 2230 2325 2413
8 2235 2131 2234 2329 2327 2231 2326 2414
8 2237 2134 2236 2330 2329 2234 2328 2415
8 2259 2158 2260 2352 2332 2239 2331 2417
8 2257 2157 2259 2350 2334 2240 2332 2419
8 2240 2139 2239 2332 2335 2241 2333 2420
8 2334 2240 2335 2422 2242 2140 2243 2337
8 2335 2241 2336 2423 2243 2141 2244 2338
8 2337 2243 2338 2425 2247 2143 2246 2342
8 2338 2244 2339 2426 2246 2142 2245 2341
8 2341 2245 2340 2428 2249 2145 2248 2343
8 2342 2246 2341 2429 2250 2146 2249 2344
8 2344 2249 2343 2430 2252 2149 2251 2345
8 2188 2285 2347 2254 2284 2374 2432 2346
8 2347 2254 2346 2432 2271 2169 2270 2364
8 2365 2271 2170 2272 2433 2347 2255 2348
8 2286 2189 2285 2375 2348 2255 2347 2433
8 2349 2258 2351 2435 2257 2157 2259 2350
8 2349 2258 2164 2263 2435 2351 2264 2355
8 2259 2158 2261 2351 2352 2260 2354 2437
8 2356 2265 2354 2437 2264 2165 2261 2351
8 2441 2357 2264 2355 2362 2268 2168 2269
8 2356 2265 2165 2264 2442 2358 2266 2357
8 2443 2359 2266 2357 2361 2267 2166 2268
8 2370 2279 2360 2446 2280 2181 2267 2361
8 2362 2268 2182 2281 2447 2361 2280 2371
8 2180 2277 2368 2278 2270 2364 2449 2363
8 2271 2365 2273 2177 2364 2450 2366 2277
8 2372 2283 2186 2282 2451 2368 2276 2367
8 2178 2274 2367 2276 2277 2366 2451 2368
8 2283 2187 2278 2368 2370 2279 2369 2452
8 2372 2283 2370 2453 2282 2186 2280 2371
8 2284 2374 2455 2373 2201 2292 2380 2295
8 2375 2285 2197 2289 2456 2374 2292 2378
8 2376 2291 2204 2296 2457 2379 2297 2383
8 2288 2199 2291 2376 2377 2293 2379 2457
8 2198 2290 2378 2292 2293 2377 2458 2380
8 2293 2202 2294 2379 2380 2295 2381 2459
8 2384 2298 2381 2459 2297 2205 2294 2379
8 2386 2300 2384 2463 2299 2207 2297 2383
8 2387 2301 2385 2464 2300 2208 2298 2384
8 2389 2303 2387 2466 2302 2210 2300 2386
8 2390 2304 2388 2467 2303 2211 2301 2387
8 2392 2306 2390 2469 2305 2213 2303 2389
8 2393 2307 2391 2470 2306 2214 2304 2390
8 2395 2308 2393 2472 2310 2216 2306 2392
8 2308 2215 2309 2396 2393 2307 2394 2473
8 2395 2308 2216 2310 2475 2396 2311 2398
8 2396 2309 2217 2311 2476 2397 2312 2399
8 2398 2311 2219 2315 2478 2399 2314 2403
8 2399 2312 2218 2314 2479 2400 2313 2402
8 2317 2221 2316 2405 2402 2313 2401 2482
8 2403 2314 2222 2318 2483 2402 2317 2406
8 2320 2224 2319 2408 2405 2316 2404 2485
8 2321 2225 2320 2409 2406 2317 2405 2486
8 2323 2227 2322 2411 2408 2319 2407 2488
8 2324 2228 2323 2412 2409 2320 2408 2489
8 2326 2230 2325 2413 2411 2322 2410 2490
8 2327 2231 2326 2414 2412 2323 2411 2491
8 2329 2234 2328 2415 2414 2326 2413 2492
8 2417 2331 2260 2352 2494 2416 2353 2438
8 2350 2259 2352 2436 2419 2332 2417 2496
8 2332 2239 2331 2417 2420 2333 2418 2497
8 2334 2240 2332 2419 2422 2335 2420 2499
8 2420 2333 2421 2500 2335 2241 2336 2423
8 2422 2335 2423 2502 2337 2243 2338 2425
8 2423 2336 2424 2503 2338 2244 2339 2426
8 2425 2338 2426 2505 2342 2246 2341 2429
8 2426 2339 2427 2506 2341 2245 2340 2428
8 2429 2341 2428 2507 2344 2249 2343 2430
8 2432 2346 2284 2374 2509 2431 2373 2455
8 2432 2346 2431 2509 2364 2270 2363 2449
8 2375 2285 2374 2456 2433 2347 2432 2510
8 2347 2433 2365 2271 2432 2510 2450 2364
8 2350 2259 2351 2435 2436 2352 2437 2514
8 2440 2356 2437 2514 2355 2264 2351 2435
8 2352 2260 2354 2437 2438 2353 2439 2516
8 2356 2265 2358 2442 2437 2354 2439 2516
8 2440 2356 2264 2355 2518 2442 2357 2441
8 2519 2443 2357 2441 2447 2361 2268 2362
8 2443 2359 2444 2520 2357 2266 2358 2442
8 2443 2359 2267 2361 2520 2444 2360 2446
8 2446 2360 2279 2370 2523 2445 2369 2452
8 2453 2370 2446 2524 2371 2280 2361 2447
8 2449 2363 2448 2525 2368 2278 2369 2452
8 2366 2277 2364 2450 2451 2368 2449 2526
8 2372 2283 2368 2451 2453 2370 2452 2527
8 2455 2373 2295 2380 2529 2454 2382 2460
8 2456 2374 2292 2378 2530 2455 2380 2458
8 2377 2293 2379 2457 2458 2380 2459 2531
8 2463 2384 2459 2531 2383 2297 2379 2457
8 2533 2461 2382 2460 2459 2381 2295 2380
8 2464 2385 2461 2533 2384 2298 2381 2459
8 2466 2387 2464 2537 2386 2300 2384 2463
8 2467 2388 2465 2538 2387 2301 2385 2464
8 2469 2390 2467 2540 2389 2303 2387 2466
8 2470 2391 2468 2541 2390 2304 2388 2467
8 2472 2393 2470 2543 2392 2306 2390 2469
8 2393 2307 2394 2473 2470 2391 2471 2544
8 2395 2308 2396 2475 2472 2393 2473 2546
8 2396 2309 2397 2476 2473 2394 2474 2547
8 2475 2396 2311 2398 2549 2476 2399 2478
8 2476 2397 2312 2399 2550 2477 2400 2479
8 2478 2399 2314 2403 2552 2479 2402 2483
8 2479 2400 2313 2402 2553 2480 2401 2482
8 2405 2316 2404 2485 2482 2401 2481 2556
8 2406 2317 2405 2486 2483 2402 2482 2557
8 2408 2319 2407 2488 2485 2404 2484 2559
8 2409 2320 2408 2489 2486 2405 2485 2560
8 2411 2322 2410 2490 2488 2407 2487 2561
8 2412 2323 2411 2491 2489 2408 2488 2562
8 2414 2326 2413 2492 2491 2411 2490 2563
8 2513 2434 2493 2565 2438 2353 2416 2494
8 2496 2417 2352 2436 2567 2494 2438 2515
8 2494 2416 2495 2568 2417 2331 2418 2497
8 2419 2332 2417 2496 2499 2420 2497 2570
8 2497 2418 2498 2571 2420 2333 2421 2500
8 2499 2420 2500 2573 2422 2335 2423 2502
8 2500 2421 2501 2574 2423 2336 2424 2503
8 2502 2423 2503 2576 2425 2338 2426 2505
8 2503 2424 2504 2577 2426 2339 2427 2506
8 2505 2426 2506 2578 2429 2341 2428 2507
8 2509 2431 2373 2455 2580 2508 2454 2529
8 2509 2431 2508 2580 2449 2363 2448 2525
8 2432 2510 2581 2509 2374 2456 2530 2455
8 2432 2510 2450 2364 2509 2581 2526 2449
8 2583 2511 2434 2513 2516 2439 2353 2438
8 2436 2352 2437 2514 2515 2438 2516 2588
8 2440 2356 2442 2518 2514 2437 2516 2588
8 2442 2358 2444 2520 2516 2439 2517 2589
8 2519 2443 2520 2591 2441 2357 2442 2518
8 2519 2443 2361 2447 2591 2520 2446 2524
8 2446 2360 2445 2523 2520 2444 2521 2592
8 2525 2448 2522 2593 2452 2369 2445 2523
8 2524 2446 2370 2453 2594 2523 2452 2527
8 2526 2449 2525 2595 2451 2368 2452 2527
8 2534 2462 2528 2597 2460 2382 2454 2529
8 2530 2455 2380 2458 2598 2529 2460 2532
8 2599 2533 2460 2532 2531 2459 2380 2458
8 2537 2464 2533 2599 2463 2384 2459 2531
8 2534 2462 2382 2460 2601 2535 2461 2533
8 2538 2465 2535 2601 2464 2385 2461 2533
8 2540 2467 2538 2604 2466 2387 2464 2537
8 2541 2468 2539 2605 2467 2388 2465 2538
8 2543 2470 2541 2607 2469 2390 2467 2540
8 2470 2391 2471 2544 2541 2468 2542 2608
8 2472 2393 2473 2546 2543 2470 2544 2610
8 2473 2394 2474 2547 2544 2471 2545 2611
8 2475 2396 2476 2549 2546 2473 2547 2613
8 2476 2397 2477 2550 2547 2474 2548 2614
8 2549 2476 2399 2478 2616 2550 2479 2552
8 2479 2400 2480 2553 2550 2477 2551 2617
8 2552 2479 2402 2483 2619 2553 2482 2557
8 2482 2401 2481 2556 2553 2480 2554 2620
8 2485 2404 2484 2559 2556 2481 2555 2623
8 2486 2405 2485 2560 2557 2482 2556 2624
8 2488 2407 2487 2561 2559 2484 2558 2625
8 2489 2408 2488 2562 2560 2485 2559 2626
8 2491 2411 2490 2563 2562 2488 2561 2627
8 2513 2434 2512 2585 2565 2493 2564 2630
8 2586 2513 2565 2632 2515 2438 2494 2567
8 2565 2493 2566 2633 2494 2416 2495 2568
8 2567 2494 2568 2635 2496 2417 2497 2570
8 2568 2495 2569 2636 2497 2418 2498 2571
8 2570 2497 2571 2638 2499 2420 2500 2573
8 2571 2498 2572 2639 2500 2421 2501 2574
8 2573 2500 2574 2641 2502 2423 2503 2576
8 2574 2501 2575 2642 2503 2424 2504 2577
8 2576 2503 2577 2643 2505 2426 2506 2578
8 2597 2528 2579 2645 2529 2454 2508 2580
8 2580 2508 2579 2645 2525 2448 2522 2593
8 2581 2509 2455 2530 2646 2580 2529 2598
8 2581 2509 2580 2646 2526 2449 2525 2595
8 2583 2511 2582 2648 2513 2434 2512 2585
8 2583 2511 2439 2516 2648 2582 2517 2589
8 2649 2583 2513 2586 2588 2516 2438 2515
8 2589 2517 2444 2520 2653 2587 2521 2592
8 2518 2442 2520 2591 2588 2516 2589 2654
8 2593 2522 2590 2655 2523 2445 2521 2592
8 2524 2446 2523 2594 2591 2520 2592 2656
8 2595 2525 2593 2657 2527 2452 2523 2594
8 2602 2536 2596 2659 2534 2462 2528 2597
8 2600 2534 2597 2660 2532 2460 2529 2598
8 2600 2534 2460 2532 2661 2601 2533 2599
8 2604 2538 2601 2661 2537 2464 2533 2599
8 2602 2536 2462 2534 2663 2603 2535 2601
8 2601 2535 2465 2538 2663 2603 2539 2605
8 2607 2541 2605 2665 2540 2467 2538 2604
8 2608 2542 2606 2666 2541 2468 2539 2605
8 2543 2470 2544 2610 2607 2541 2608 2668
8 2544 2471 2545 2611 2608 2542 2609 2669
8 2546 2473 2547 2613 2610 2544 2611 2671
8 2547 2474 2548 2614 2611 2545 2612 2672
8 2549 2476 2550 2616 2613 2547 2614 2674
8 2550 2477 2551 2617 2614 2548 2615 2675
8 2552 2479 2553 2619 2616 2550 2617 2677
8 2553 2480 2554 2620 2617 2551 2618 2678
8 2557 2482 2556 2624 2619 2553 2620 2680
8 2556 2481 2555 2623 2620 2554 2621 2681
8 2559 2484 2558 2625 2623 2555 2622 2683
8 2560 2485 2559 2626 2624 2556 2623 2684
8 2562 2488 2561 2627 2626 2559 2625 2685
8 2690 2629 2564 2630 2650 2584 2512 2585
8 2586 2513 2585 2651 2632 2565 2630 2691
8 2630 2564 2631 2692 2565 2493 2566 2633
8 2632 2565 2633 2694 2567 2494 2568 2635
8 2633 2566 2634 2695 2568 2495 2569 2636
8 2635 2568 2636 2697 2570 2497 2571 2638
8 2636 2569 2637 2698 2571 2498 2572 2639
8 2638 2571 2639 2700 2573 2500 2574 2641
8 2639 2572 2640 2701 2574 2501 2575 2642
8 2641 2574 2642 2702 2576 2503 2577 2643
8 2597 2528 2596 2659 2645 2579 2644 2704
8 2645 2579 2644 2704 2593 2522 2590 2655
8 2660 2597 2645 2705 2598 2529 2580 2646
8 2646 2580 2645 2705 2595 2525 2593 2657
8 2650 2584 2512 2585 2707 2647 2582 2648
8 2648 2582 2517 2589 2707 2647 2587 2653
8 2649 2583 2648 2708 2586 2513 2585 2651
8 2649 2583 2516 2588 2708 2648 2589 2654
8 2655 2590 2652 2710 2592 2521 2587 2653
8 2654 2589 2520 2591 2711 2653 2592 2656
8 2657 2593 2655 2712 2594 2523 2592 2656
8 2602 2536 2603 2663 2659 2596 2658 2714
8 2662 2602 2659 2715 2600 2534 2597 2660
8 2662 2602 2534 2600 2717 2663 2601 2661
8 2661 2601 2538 2604 2717 2663 2605 2665
8 2666 2606 2664 2718 2605 2539 2603 2663
8 2668 2608 2666 2720 2607 2541 2605 2665
8 2608 2542 2609 2669 2666 2606 2667 2721
8 2610 2544 2611 2671 2668 2608 2669 2723
8 2611 2545 2612 2672 2669 2609 2670 2724
8 2613 2547 2614 2674 2671 2611 2672 2726
8 2614 2548 2615 2675 2672 2612 2673 2727
8 2616 2550 2617 2677 2674 2614 2675 2729
8 2617 2551 2618 2678 2675 2615 2676 2730
8 2619 2553 2620 2680 2677 2617 2678 2732
8 2620 2554 2621 2681 2678 2618 2679 2733
8 2624 2556 2623 2684 2680 2620 2681 2735
8 2681 2621 2555 2623 2736 2682 2622 2683
8 2626 2559 2625 2685 2684 2623 2683 2737
8 2688 2628 2584 2650 2740 2686 2647 2707
8 2688 2628 2687 2742 2650 2584 2629 2690
8 2690 2629 2689 2745 2630 2564 2631 2692
8 2746 2690 2630 2691 2709 2650 2585 2651
8 2691 2630 2692 2747 2632 2565 2633 2694
8 2692 2631 2693 2748 2633 2566 2634 2695
8 2694 2633 2695 2750 2635 2568 2636 2697
8 2695 2634 2696 2751 2636 2569 2637 2698
8 2697 2636 2698 2753 2638 2571 2639 2700
8 2698 2637 2699 2754 2639 2572 2640 2701
8 2700 2639 2701 2755 2641 2574 2642 2702
8 2659 2596 2658 2714 2704 2644 2703 2757
8 2704 2644 2703 2757 2655 2590 2652 2710
8 2660 2597 2659 2715 2705 2645 2704 2758
8 2705 2645 2704 2758 2657 2593 2655 2712
8 2759 2706 2647 2707 2710 2652 2587 2653
8 2709 2650 2585 2651 2760 2707 2648 2708
8 2708 2648 2589 2654 2760 2707 2653 2711
8 2712 2655 2710 2761 2656 2592 2653 2711
8 2763 2713 2658 2714 2718 2664 2603 2663
8 2662 2602 2663 2717 2715 2659 2714 2764
8 2720 2666 2718 2767 2665 2605 2663 2717
8 2768 2719 2664 2718 2721 2667 2606 2666
8 2668 2608 2669 2723 2720 2666 2721 2770
8 2669 2609 2670 2724 2721 2667 2722 2771
8 2671 2611 2672 2726 2723 2669 2724 2773
8 2672 2612 2673 2727 2724 2670 2725 2774
8 2674 2614 2675 2729 2726 2672 2727 2776
8 2675 2615 2676 2730 2727 2673 2728 2777
8 2677 2617 2678 2732 2729 2675 2730 2779
8 2678 2618 2679 2733 2730 2676 2731 2780
8 2680 2620 2681 2735 2732 2678 2733 2782
8 2733 2679 2621 2681 2783 2734 2682 2736
8 2735 2681 2623 2684 2784 2736 2683 2737
8 2740 2686 2647 2707 2787 2738 2706 2759
8 2688 2628 2686 2740 2742 2687 2739 2789
8 2743 2688 2650 2709 2790 2740 2707 2760
8 2742 2687 2741 2792 2690 2629 2689 2745
8 2743 2688 2742 2793 2709 2650 2690 2746
8 2745 2689 2744 2795 2692 2631 2693 2748
8 2746 2690 2745 2796 2691 2630 2692 2747
8 2747 2692 2748 2797 2694 2633 2695 2750
8 2748 2693 2749 2798 2695 2634 2696 2751
8 2750 2695 2751 2800 2697 2636 2698 2753
8 2751 2696 2752 2801 2698 2637 2699 2754
8 2753 2698 2754 2802 2700 2639 2701 2755
8 2763 2713 2756 2804 2714 2658 2703 2757
8 2759 2706 2652 2710 2804 2756 2703 2757
8 2715 2659 2714 2764 2758 2704 2757 2805
8 2758 2704 2757 2805 2712 2655 2710 2761
8 2806 2759 2707 2760 2761 2710 2653 2711
8 2765 2716 2762 2808 2718 2664 2713 2763
8 2809 2763 2714 2764 2767 2718 2663 2717
8 2765 2716 2664 2718 2811 2766 2719 2768
8 2813 2768 2718 2767 2770 2721 2666 2720
8 2814 2769 2719 2768 2771 2722 2667 2721
8 2723 2669 2724 2773 2770 2721 2771 2816
8 2724 2670 2725 2774 2771 2722 2772 2817
8 2726 2672 2727 2776 2773 2724 2774 2819
8 2727 2673 2728 2777 2774 2725 2775 2820
8 2729 2675 2730 2779 2776 2727 2777 2822
8 2730 2676 2731 2780 2777 2728 2778 2823
8 2732 2678 2733 2782 2779 2730 2780 2825
8 2780 2731 2679 2733 2826 2781 2734 2783
8 2782 2733 2681 2735 2827 2783 2736 2784
8 2830 2785 2738 2787 2804 2756 2706 2759
8 2789 2739 2686 2740 2832 2786 2738 2787
8 2790 2740 2707 2760 2833 2787 2759 2806
8 2742 2687 2739 2789 2792 2741 2788 2835
8 2743 2688 2740 2790 2793 2742 2789 2836
8 2792 2741 2791 2838 2745 2689 2744 2795
8 2793 2742 2792 2839 2746 2690 2745 2796
8 2795 2744 2794 2841 2748 2693 2749 2798
8 2796 2745 2795 2842 2747 2692 2748 2797
8 2797 2748 2798 2843 2750 2695 2751 2800
8 2798 2749 2799 2844 2751 2696 2752 2801
8 2800 2751 2801 2845 2753 2698 2754 2802
8 2808 2762 2803 2847 2763 2713 2756 2804
8 2809 2763 2804 2848 2764 2714 2757 2805
8 2806 2759 2710 2761 2848 2804 2757 2805
8 2765 2716 2766 2811 2808 2762 2807 2850
8 2810 2765 2808 2851 2767 2718 2763 2809
8 2810 2765 2718 2767 2852 2811 2768 2813
8 2811 2766 2719 2768 2853 2812 2769 2814
8 2855 2814 2768 2813 2816 2771 2721 2770
8 2856 2815 2769 2814 2817 2772 2722 2771
8 2773 2724 2774 2819 2816 2771 2817 2858
8 2774 2725 2775 2820 2817 2772 2818 2859
8 2776 2727 2777 2822 2819 2774 2820 2861
8 2777 2728 2778 2823 2820 2775 2821 2862
8 2779 2730 2780 2825 2822 2777 2823 2864
8 2823 2778 2731 2780 2865 2824 2781 2826
8 2825 2780 2733 2782 2866 2826 2783 2827
8 2869 2828 2785 2830 2847 2803 2756 2804
8 2871 2829 2786 2832 2830 2785 2738 2787
8 2872 2830 2787 2833 2848 2804 2759 2806
8 2789 2739 2786 2832 2835 2788 2831 2874
8 2836 2789 2740 2790 2875 2832 2787 2833
8 2792 2741 2788 2835 2838 2791 2834 2877
8 2793 2742 2789 2836 2839 2792 2835 2878
8 2838 2791 2837 2880 2795 2744 2794 2841
8 2839 2792 2838 2881 2796 2745 2795 2842
8 2841 2794 2840 2882 2798 2749 2799 2844
8 2842 2795 2841 2883 2797 2748 2798 2843
8 2843 2798 2844 2884 2800 2751 2801 2845
8 2886 2846 2803 2847 2850 2807 2762 2808
8 2851 2808 2847 2887 2809 2763 2804 2848
8 2850 2807 2766 2811 2889 2849 2812 2853
8 2810 2765 2811 2852 2851 2808 2850 2890
8 2852 2811 2768 2813 2891 2853 2814 2855
8 2853 2812 2769 2814 2892 2854 2815 2856
8 2894 2856 2814 2855 2858 2817 2771 2816
8 2817 2772 2818 2859 2856 2815 2857 2895
8 2819 2774 2820 2861 2858 2817 2859 2897
8 2820 2775 2821 2862 2859 2818 2860 2898
8 2822 2777 2823 2864 2861 2820 2862 2900
8 2823 2778 2824 2865 2862 2821 2863 2901
8 2864 2823 2780 2825 2902 2865 2826 2866
8 2904 2867 2828 2869 2886 2846 2803 2847
8 2869 2828 2868 2906 2830 2785 2829 2871
8 2907 2869 2830 2872 2887 2847 2804 2848
8 2871 2829 2870 2909 2832 2786 2831 2874
8 2910 2871 2832 2875 2872 2830 2787 2833
8 2835 2788 2831 2874 2877 2834 2873 2912
8 2836 2789 2832 2875 2878 2835 2874 2913
8 2877 2834 2876 2915 2838 2791 2837 2880
8 2839 2792 2835 2878 2881 2838 2877 2916
8 2880 2837 2879 2917 2841 2794 2840 2882
8 2881 2838 2880 2918 2842 2795 2841 2883
8 2883 2841 2882 2919 2843 2798 2844 2884
8 2921 2885 2846 2886 2889 2849 2807 2850
8 2922 2886 2847 2887 2890 2850 2808 2851
8 2889 2849 2812 2853 2924 2888 2854 2892
8 2890 2850 2811 2852 2925 2889 2853 2891
8 2891 2853 2814 2855 2926 2892 2856 2894
8 2892 2854 2815 2856 2927 2893 2857 2895
8 2858 2817 2859 2897 2894 2856 2895 2929
8 2859 2818 2860 2898 2895 2857 2896 2930
8 2861 2820 2862 2900 2897 2859 2898 2932
8 2862 2821 2863 2901 2898 2860 2899 2933
8 2864 2823 2865 2902 2900 2862 2901 2934
8 2904 2867 2846 2886 2936 2903 2885 2921
8 2904 2867 2903 2936 2869 2828 2868 2906
8 2937 2904 2869 2907 2922 2886 2847 2887
8 2906 2868 2905 2939 2871 2829 2870 2909
8 2907 2869 2906 2940 2872 2830 2871 2910
8 2909 2870 2908 2942 2874 2831 2873 2912
8 2910 2871 2909 2943 2875 2832 2874 2913
8 2912 2873 2911 2945 2877 2834 2876 2915
8 2878 2835 2874 2913 2916 2877 2912 2946
8 2915 2876 2914 2947 2880 2837 2879 2917
8 2916 2877 2915 2948 2881 2838 2880 2918
8 2918 2880 2917 2949 2883 2841 2882 2919
8 2921 2885 2849 2889 2951 2920 2888 2924
8 2952 2921 2886 2922 2925 2889 2850 2890
8 2924 2888 2854 2892 2954 2923 2893 2927
8 2925 2889 2853 2891 2955 2924 2892 2926
8 2926 2892 2856 2894 2956 2927 2895 2929
8 2895 2857 2896 2930 2927 2893 2928 2957
8 2897 2859 2898 2932 2929 2895 2930 2959
8 2898 2860 2899 2933 2930 2896 2931 2960
8 2900 2862 2901 2934 2932 2898 2933 2961
8 2936 2903 2885 2921 2963 2935 2920 2951
8 2936 2903 2935 2963 2906 2868 2905 2939
8 2937 2904 2886 2922 2964 2936 2921 2952
8 2937 2904 2936 2964 2907 2869 2906 2940
8 2939 2905 2938 2966 2909 2870 2908 2942
8 2940 2906 2939 2967 2910 2871 2909 2943
8 2942 2908 2941 2969 2912 2873 2911 2945
8 2943 2909 2942 2970 2913 2874 2912 2946
8 2945 2911 2944 2971 2915 2876 2914 2947
8 2946 2912 2945 2972 2916 2877 2915 2948
8 2948 2915 2947 2973 2918 2880 2917 2949
8 2951 2920 2888 2924 2975 2950 2923 2954
8 2952 2921 2889 2925 2976 2951 2924 2955
8 2927 2893 2928 2957 2954 2923 2953 2978
8 2955 2924 2892 2926 2979 2954 2927 2956
8 2929 2895 2930 2959 2956 2927 2957 2980
8 2930 2896 2931 2960 2957 2928 2958 2981
8 2932 2898 2933 2961 2959 2930 2960 2982
8 2951 2920 2950 2975 2963 2935 2962 2984
8 2963 2935 2962 2984 2939 2905 2938 2966
8 2964 2936 2921 2952 2985 2963 2951 2976
8 2964 2936 2963 2985 2940 2906 2939 2967
8 2966 2938 2965 2987 2942 2908 2941 2969
8 2967 2939 2966 2988 2943 2909 2942 2970
8 2969 2941 2968 2989 2945 2911 2944 2971
8 2970 2942 2969 2990 2946 2912 2945 2972
8 2972 2945 2971 2991 2948 2915 2947 2973
8 2954 2923 2953 2978 2975 2950 2974 2993
8 2976 2951 2924 2955 2994 2975 2954 2979
8 2957 2928 2958 2981 2978 2953 2977 2995
8 2956 2927 2957 2980 2979 2954 2978 2996
8 2959 2930 2960 2982 2980 2957 2981 2997
8 2984 2962 2983 2999 2966 2938 2965 2987
8 2975 2950 2974 2993 2984 2962 2983 2999
8 2976 2951 2975 2994 2985 2963 2984 3000
8 2985 2963 2984 3000 2967 2939 2966 2988
8 2987 2965 2986 3001 2969 2941 2968 2989
8 2988 2966 2987 3002 2970 2942 2969 2990
8 2990 2969 2989 3003 2972 2945 2971 2991
8 2978 2953 2977 2995 2993 2974 2992 3004
8 2979 2954 2978 2996 2994 2975 2993 3005
8 2980 2957 2981 2997 2996 2978 2995 3006
8 2974 2993 2999 2983 2992 3004 3007 2998
8 2983 2999 2987 2965 2998 3007 3001 2986
8 3000 2984 2999 3008 2988 2966 2987 3002
8 2994 2975 2993 3005 3000 2984 2999 3008
8 3002 2987 3001 3009 2990 2969 2989 3003
8 2996 2978 2995 3006 3005 2993 3004 3010
8 3005 2993 3004 3010 3008 2999 3007 3011
8 3008 2999 3007 3011 3002 2987 3001 3009

CELL_TYPES 1910
12
12
12
12
12
12
12
12
12
12
12
12
12
12
12
12
12
12
12
12
12
12
12
12
12
12
12
12
12
12
12
12
12
12
12
12
12
12
12
12
12
12
12
12
12
12
12
12
12
12
12
12
12
12
12
12
12
12
12
12
12
12
12
12
12
12
12
12
12
12
12
12
12
12
12
12
12
12
12
12
12
12
12
12
12
12
12
12
12
12
12
12
12
12
12
12
12
12
12
12
12
12
12
12
12
12
12
12
12
12
12
12
12
12
12
12
12
12
12
12
12
12
12
12
12
12
12
12
12
12
12
12
12
12
12
12
12
12
12
12
12
12
12
12
12
12
12
12
12
12
12
12
12
12
12
12
12
12
12
12
12
12
12
12
12
12
12
12
12
12
12
12
12
12
12
12
12
12
12
12
12
12
12
12
12
12
12
12
12
12
12
12
12
12
12
12
12
12
12
12
12
12
12
12
12
12
12
12
12
12
12
12
12
12
12
12
12
12
12
12
12
12
12
12
12
12
12
12
12
12
12
12
12
12
12
12
12
12
12
12
12
12
12
12
12
12
12
12
12
12
12
12
12
12
12
12
12
12
12
12
12
12
12
12
12
12
12
12
12
12
12
12
12
12
12
12
12
12
12
12
12
12
12
12
12
12
12
12
12
12
12
12
12
12
12
12
12
12
12
12
12
12
12
12
12
12
12
12
12
12
12
12
12
12
12
12
12
12
12
12
12
12
12
12
12
12
12
12
12
12
12
12
12
12
12
12
12
12
12
12
12
12
12
12
12
12
12
12
12
12
12
12
12
12
12
12
12
12
12
12
12
12
12
12
12
12
12
12
12
12
12
12
12
12
12
12
12
12
12
12
12
12
12
12
12
12
12
12
12
12
12
12
12
12
12
12
12
12
12
12
12
12
12
12
12
12
12
12
12
12
12
12
12
12
12
12
12
12
12
12
12
12
12
12
12
12
12
12
12
12
12
12
12
12
12
12
12
12
12
12
12
12
12
12
12
12
12
12
12
12
12
12
12
12
12
12
12
12
12
12
12
12
12
12
12
12
12
12
12
12
12
12
12
12
12
12
12
12
12
12
12
12
12
12
12
12
12
12
12
12
12
12
12
12
12
12
12
12
12
12
12
12
12
12
12
12
12
12
12
12
12
12
12
12
12
12
12
12
12
12
12
12
12
12
12
12
12
12
12
12
12
12
12
12
12
12
12
12
12
12
12
12
12
12
12
12
12
12
12
12
12
12
12
12
12
12
12
12
12
12
12
12
12
12
12
12
12
12
12
12
12
12
12
12
12
12
12
12
12
12
12
12
12
12
12
12
12
12
12
12
12
12
12
12
12
12
12
12
12
12
12
12
12
12
12
12
12
12
12
12
12
12
12
12
12
12
12
12
12
12
12
12
12
12
12
12
12
12
12
12
12
12
12
12
12
12
12
12
12
12
12
12
12
12
12
12
12
12
12
12
12
12
12
12
12
12
12
12
12
12
12
12
12
12
12
12
12
12
12
12
12
12
12
12
12
12
12
12
12
12
12
12
12
12
12
12
12
12
12
12
12
12
12
12
12
12
12
12
12
12
12
12
12
12
12
12
12
12
12
12
12
12
12
12
12
12
12
12
12
12
12
12
12
12
12
12
12
12
12
12
12
12
12
12
12
12
12
12
12
12
12
12
12
12
12
12
12
12
12
12
12
12
12
12
12
12
12
12
12
12
12
12
12
12
12
12
12
12
12
12
12
12
12
12
12
12
12
12
12
12
12
12
12
12
12
12
12
12
12
12
12
12
12
12
12
12
12
12
12
12
12
12
12
12
12
12
12
12
12
12
12
12
12
12
12
12
12
12
12
12
12
12
12
12
12
12
12
12
12
12
12
12
12
12
12
12
12
12
12
12
12
12
12
12
12
12
12
12
12
12
12
12
12
12
12
12
12
12
12
12
12
12
12
12
12
12
12
12
12
12
12
12
12
12
12
12
12
12
12
12
12
12
12
12
12
12
12
12
12
12
12
12
12
12
12
12
12
12
12
12
12
12
12
12
12
12
12
12
12
12
12
12
12
12
12
12
12
12
12
12
12
12
12
12
12
12
12
12
12
12
12
12
12
12
12
12
12
12
12
12
12
12
12
12
12
12
12
12
12
12
12
12
12
12
12
12
12
12
12
12
12
12
12
12
12
12
12
12
12
12
12
12
12
12
12
12
12
12
12
12
12
12
12
12
12
12
12
12
12
12
12
12
12
12
12
12
12
12
12
12
12
12
12
12
12
12
12
12
12
12
12
12
12
12
12
12
12
12
12
12
12
12
12
12
12
12
12
12
12
12
12
12
12
12
12
12
12
12
12
12
12
12
12
12
12
12
12
12
12
12
12
12
12
12
12
12
12
12
12
12
12
12
12
12
12
12
12
12
12
12
12
12
12
12
12
12
12
12
12
12
12
12
12
12
12
12
12
12
12
12
12
12
12
12
12
12
12
12
12
12
12
12
12
12
12
12
12
12
12
12
12
12
12
12
12
12
12
12
12
12
12
12
12
12
12
12
12
12
12
12
12
12
12
12
12
12
12
12
12
12
12
12
12
12
12
12
12
12
12
12
12
12
12
12
12
12
12
12
12
12
12
12
12
12
12
12
12
12
12
12
12
12
12
12
12
12
12
12
12
12
12
12
12
12
12
12
12
12
12
12
12
12
12
12
12
12
12
12
12
12
12
12
12
12
12
12
12
12
12
12
12
12
12
12
12
12
12
12
12
12
12
12
12
12
12
12
12
12
12
12
12
12
12
12
12
12
12
12
12
12
12
12
12
12
12
12
12
12
12
12
12
12
12
12
12
12
12
12
12
12
12
12
12
12
12
12
12
12
12
12
12
12
12
12
12
12
12
12
12
12
12
12
12
12
12
12
12
12
12
12
12
12
12
12
12
12
12
12
12
12
12
12
12
12
12
12
12
12
12
12
12
12
12
12
12
12
12
12
12
12
12
12
12
12
12
12
12
12
12
12
12
12
12
12
12
12
12
12
12
12
12
12
12
12
12
12
12
12
12
12
12
12
12
12
12
12
12
12
12
12
12
12
12
12
12
12
12
12
12
12
12
12
12
12
12
12
12
12
12
12
12
12
12
12
12
12
12
12
12
12
12
12
12
12
12
12
12
12
12
12
12
12
12
12
12
12
12
12
12
12
12
12
12
12
12
12
12
12
12
12
12
12
12
12
12
12
12
12
12
12
12
12
12
12
12
12
12
12
12
12
12
12
12
12
12
12
12
12
12
12
12
12
12
12
12
12
12
12
12
12
12
12
12
12
12
12
12
12
12
12
12
12
12
12
12
12
12
12
12
12
12
12
12
12
12
12
12
12
12
12
12
12
12
12
12
12
12
12
12
12
12
12
12
12
12
12
12
12
12
12
12
12
12
12
12
12
12
12
12
12
12
12
12
12
12
12
12
12
12
12
12
12
12
12
12
12
12
12
12
12
12
12
12
12
12
12
12
12
12
12
12
12
12
12
12
12
12
12
12
12
12
12
12
12
12
12
12
12
12
12
12
12
12
12
12
12
12
12
12
12
12
12
12
12
12
12
12
12
12
12
12
12
12
12
12
12
12
12
12
12
12
12
12
12
12
12
12
12
12
12
12
12
12
12
12
12
12
12
12
12
12
12
12
12
12
12
12
12
12
12
12
12
12
12
12
12
12
12
12
12
12
12
12
12
12
12
12
12
12
12
12
12
12
12
12
12
12
12
12
12
12
12
12
12
12
12
12
12
12
12
12
12
12
12
12
12
12
12
12
12
12
12
12
12
12
12
12
12
12
12
12
12
12
12
12
12
12
12
12
12
12
12
12
12
12
12
12
12
12
12
12
12
12
12
12
12
12
12
12
12
12
12
12
12
12
12
12
12
12
12
12
12
12
12
12
12
12
12
12
12
12
12
12
12
12
12
12
12
12
12
12
12
12
12
12
12
12
12
12
12
12
12
12
12
12
12
12
12
12
12
12
12
12
12
12
12
12
12
12
12
12
12
12
12
12
12
12
12
12
12
12
12
12
12
12
12
12
12
12
12
12
12
12
12
12
12
12
12
12
12
12
12
12
12
12
12
12
12
12
12
12
12
12
12
12
12
12
12
12
12
12
12
12
12
12
12
12
12
12
12
12
12
12
12
12
12
12
12
12
12
12
12
12
12
12
12
12
12
12
12
12
12
12
12
12
12
12
12
12
12
12
12
12
12
12
12
12
12
12
12
12
12
12
12
12
12
12
12
12
12
12
12
12
12
12
12
12
12
12
12
12
12
12
12
12
12
12
12
12
12

POINT_DATA 3012
SCALARS Jp_lamdaP float 4
LOOKUP_TABLE default
0.999619 1 1 0.999619
1 1 1 1
0.99963 1 1 0.99963
0.999563 1 1 0.999563
0.999621 1 1 0.999621
0.999597 1 1 0.999597
1.00106 1.00234 1 0.998721
1 1 1 1
1 1 1 1
1 1 1 1
0.999693 1 1 0.999693
0.999038 1.00023 1 0.998811
0.999571 1 1 0.999571
0.999572 1 1 0.999572
0.999633 1 1 0.999633
0.999592 1 1 0.999592
0.999604 1 1 0.999604
0.99964 1 1 0.99964
1.00116 1.00244 1 0.998722
1 1 1 1
0.999547 1 1 0.999547
0.999597 1 1 0.999597
0.99916 1.00056 1 0.998602
1.00067 1.00197 1 0.998701
0.999596 1 1 0.999596
1.00009 1.00136 1 0.99873
1.01898 1.02168 1 0.997363
1 1 1 1
0.999803 1 1 0.999803
0.999816 1 1 0.999816
1 1 1 1
0.999074 1.00025 1 0.998821
0.999597 1 1 0.999597
0.999625 1 1 0.999625
1.00153 1.00265 1 0.998885
1 1 1 1
1.00027 1.00131 1 0.998964
0.998911 1 1 0.998911
1.01056 1.01326 1 0.997336
1 1 1 1
1 1 1 1
0.999787 1 1 0.999787
1 1 1 1
0.999582 1 1 0.999582
0.998535 1 1 0.998535
1 1 1 1
0.998984 1.0002 1 0.998789
0.999617 1 1 0.999617
0.999654 1 1 0.999654
0.999606 1 1 0.999606
1.00127 1.00255 1 0.998727
0.999772 1 1 0.999772
0.999573 1 1 0.999573
0.999611 1 1 0.999611
0.999623 1 1 0.999623
0.998998 1.0004 1 0.998597
1.00039 1.00166 1 0.998733
1.00065 1.00195 1 0.998702
1.01906 1.02177 1 0.99735
1 1 1 1
0.999552 1 1 0.999552
0.998833 1 1 0.998833
0.998622 1.00005 1 0.998577
0.999807 1.00115 1 0.998654
1.02143 1.02438 1 0.997115
1.01987 1.02271 1 0.997222
0.999662 1 1 0.999662
0.998826 1 1 0.998826
1.01617 1.01877 1 0.997447
1.03924 1.04292 1 0.996472
1 1 1 1
1 1 1 1
1 1 1 1
0.99896 1.00013 1 0.998829
1 1 1 1
1 1 1 1
1.00125 1.00257 1 0.998681
0.999884 1 1 0.999884
0.999684 1.0009 1 0.998781
0.999094 1 1.00005 0.999043
1.00913 1.01183 1 0.997332
1 1 1 1
1.00138 1 1.00168 0.999696
1.00085 1.00225 1 0.9986
1.00102 1.00231 1 0.998713
1.02343 1.0266 1 0.996917
0.999699 1 1.00038 0.999323
1.01516 1.01797 1 0.997235
1.00551 1.00804 1 0.997491
1.02197 1.02546 1 0.99659
1 1 1 1
1 1 1 1
1 1 1 1
1 1 1 1
1 1 1 1
0.99979 1 1 0.99979
0.998675 1 1 0.998675
0.999787 1 1 0.999787
0.999271 1.00059 1 0.998682
1 1 1 1
0.998556 1 1 0.998556
0.998789 1 1 0.998789
1.01887 1.02217 1 0.99677
1.00005 1.00123 1 0.998821
1.02435 1.02765 1 0.996786
0.999593 1 1 0.999593
0.999597 1 1 0.999597
0.999621 1 1 0.999621
0.999645 1 1 0.999645
0.998864 1.00027 1 0.998595
1.00065 1.00195 1 0.998704
1.00058 1.00184 1 0.998738
1.01911 1.02183 1 0.997336
1 1 1 1
0.999576 1 1 0.999576
0.998586 1 1 0.998586
0.998604 1.00003 1 0.99857
0.999832 1 1 0.999832
0.999053 1.00015 1 0.998907
0.999714 1.00106 1 0.998653
1.02155 1.02454 1 0.997082
1.0162 1.01882 1 0.997431
1.02026 1.02307 1 0.997247
1.03917 1.04284 1 0.99648
0.998579 1 1 0.998579
0.99858 1 1 0.99858
1.01814 1.02117 1 0.997032
1.02106 1.02409 1 0.99704
1.02108 1.02402 1 0.997129
1.04988 1.05361 1 0.996453
1 1 1 1
1.04283 1.04653 1 0.996465
0.99932 1 1.0003 0.99902
1.00979 1.01241 1 0.997414
1.03582 1.03948 1 0.996479
1.04452 1.0483 1 0.996396
1.00146 1 1.00208 0.999383
1.00656 1 1.00835 0.998225
1 1 1 1
1 1 1 1
1.00113 1.00244 1 0.998687
1 1 1 1
0.999211 1 1.00023 0.998985
0.999545 1.00076 1 0.998788
1.00819 1.01089 1 0.997329
1 1 1 1
1.00109 1 1.00137 0.99972
1.00112 1.00239 1 0.998727
1.00081 1.00198 1 0.99883
1.02282 1.02599 1 0.996917
0.99999 1 1.00074 0.999247
1.01455 1.01736 1 0.997237
1.00419 1.00667 1.00004 0.997489
1.02339 1.0269 1 0.996582
1.00116 1 1.00168 0.999475
1.00039 1 1.00054 0.999847
1.00389 1 1.00536 0.998537
1.02542 1.02869 1 0.996821
1.02 1.02299 1 0.997074
1.04601 1.04985 1 0.99634
1.00188 1.00342 1.00068 0.997785
1.03199 1.03555 1 0.996564
1.01514 1.01795 1.00057 0.996673
1.03155 1.03522 1 0.996446
1 1 1 1
1 1 1 1
1 1 1 1
1.00149 1 1.00195 0.999542
1 1 1 1
1 1 1 1
1 1 1 1
0.999404 1.00083 1 0.998578
0.998569 1 1 0.998569
1 1 1 1
1 1 1 1
0.998557 1 1 0.998557
0.998693 1.00001 1 0.998683
1.01963 1.02293 1 0.996771
1.00016 1.00157 1 0.998589
1.02417 1.02748 1 0.996785
0.998555 1 1 0.998555
1.01743 1.02076 1 0.996743
1.02134 1.02463 1 0.996791
1.05498 1.05876 1 0.996435
1.02575 1.02906 1 0.996785
1.05655 1.06035 1 0.996415
1 1 1 1
0.999602 1 1 0.999602
0.998314 1 1 0.998314
0.998564 1 1 0.998564
1 1 1 1
0.999455 1.00046 1 0.998991
0.999629 1.00098 1 0.998653
1.02167 1.0247 1 0.997049
1.02076 1.02355 1 0.997271
1.01616 1.01879 1 0.997415
1.03917 1.04283 1 0.996489
0.998576 1 1 0.998576
0.998573 1 1 0.998573
1.01808 1.02125 1 0.996899
1.02119 1.0242 1 0.997058
1 1 1 1
0.999262 1.00005 1.00014 0.999079
1.01138 1.01392 1 0.997497
1.02133 1.02427 1 0.997123
1.04981 1.05356 1 0.996448
1.03546 1.03913 1 0.996474
1.04308 1.04674 1 0.996499
1.04411 1.04788 1 0.996405
1.00128 1 1.00191 0.999371
1.00528 1 1.00707 0.998227
1.01736 1.02067 1 0.996764
1.01911 1.02213 1 0.997044
1.05197 1.05568 1 0.996484
1.05063 1.05461 0.999778 0.996444
1.04692 1.05058 1 0.99652
1.05478 1.05888 0.99954 0.996595
1.00042 1 1.00122 0.999202
1.04742 1.05109 1 0.996504
1.00429 1.0066 1.00011 0.997606
1.02942 1.03299 1 0.996538
1.0418 1.04566 1 0.996305
1.0441 1.04763 1 0.996631
1.00321 1.00054 1.00471 0.997976
1.00594 1 1.00742 0.998531
1.00369 1.00071 1.00546 0.997529
1.00115 1.00252 1 0.998631
1 1 1 1
1.00038 1 1.00064 0.999743
1.00038 1.00163 1 0.998748
1.0223 1.02546 1 0.996916
1.00018 1 1.00093 0.999248
1.0026 1.00509 1.00004 0.997487
1.01343 1.01624 1 0.997239
1.02474 1.02826 1 0.996574
1.00114 1 1.00165 0.999497
0.999981 1 1.00012 0.999865
1.00481 1 1.00628 0.998537
1.02477 1.02804 1 0.996818
1.01937 1.02236 1 0.997077
1.04614 1.04999 1 0.996335
1.00062 1.00233 1.00051 0.997789
1.03302 1.03658 1 0.996566
1.01571 1.01863 1.00047 0.996666
1.03247 1.03616 1 0.996445
0.999924 1 1 0.999924
1.00209 1.00074 1.00322 0.998131
1.00345 1 1.0045 0.998956
1.00506 1.00073 1.0065 0.997847
1.05047 1.05434 1 0.996325
1.04026 1.04397 1 0.996444
1.04888 1.05275 1 0.996322
1.00816 1.01068 1.00049 0.997016
1.03666 1.0403 1 0.996503
1.0279 1.03003 1.00158 0.996365
1.04028 1.04406 1 0.996384
0.999614 1 1 0.999614
0.99998 1 1 0.99998
1 1 1 1
1 1 1 1
1 1 1 1
1.00074 1 1.00105 0.999694
1 1 1 1
1.00174 1 1.00222 0.999527
1 1 1 1
1.00045 1.00187 1 0.99859
0.998744 1.00017 1 0.998578
1.02428 1.02758 1 0.996784
1.02037 1.02368 1 0.996771
0.998559 1 1 0.998559
1 1 1 1
0.998555 1 1 0.998555
1.01777 1.0211 1 0.996743
1.02218 1.02547 1 0.99679
1.05404 1.05781 1 0.996434
1.02525 1.02856 1 0.996781
1.05631 1.06011 1 0.996412
1.01706 1.02038 1 0.996741
1.0528 1.05659 1 0.996412
1.05661 1.06039 1 0.996439
1.05745 1.06449 0.996619 0.996755
1.05481 1.05865 1 0.996367
1.05947 1.06409 0.999003 0.996649
0.998574 1 1 0.998574
0.998566 1 1 0.998566
1.01803 1.02133 1 0.996767
1.02131 1.02431 1 0.997076
1 1 1 1
0.999139 1 1 0.999139
1.01285 1.0153 1 0.99758
1.02156 1.02451 1 0.997117
1.04975 1.05349 1 0.996442
1.04318 1.04681 1 0.996533
1.03527 1.03894 1 0.996469
1.04381 1.04757 1 0.996414
1.00128 1 1.00192 0.999359
1.00461 1.00002 1.00638 0.998229
1.01725 1.02056 1 0.996749
1.01921 1.02224 1 0.997038
1.05166 1.05554 0.999817 0.99651
1.05096 1.05484 0.999876 0.996445
1.0001 1 1.00091 0.999191
1.00591 1.00822 1.0001 0.997604
1.02872 1.03226 1 0.996567
1.047 1.05068 1 0.9965
1.0544 1.05868 0.999307 0.996641
1.04159 1.04546 1 0.996291
1.04724 1.05091 1 0.996509
1.04421 1.04774 1 0.996627
1.0032 1.00082 1.00441 0.997977
1.00435 1.0009 1.00594 0.997528
1.00616 1 1.00764 0.998531
1.05128 1.05502 1 0.996459
1.05198 1.05596 0.999718 0.996518
1.05717 1.06305 0.997778 0.996687
1.05547 1.06056 0.998548 0.996648
1.05015 1.05412 0.999623 0.996607
1.04819 1.0564 0.99528 0.99694
1.00056 1.00217 1.0006 0.997802
1.04607 1.04993 0.99954 0.99678
1.01639 1.01962 1 0.996829
1.03365 1.03764 1 0.996156
1.04024 1.04411 1 0.996299
1.0381 1.04141 0.999927 0.996894
1.0041 1 1.00528 0.998821
1.00059 1.00253 1.00067 0.997394
1.00865 1 1.01098 0.99769
1.00353 1.00364 1.00266 0.997246
1.02418 1.02745 1 0.996815
0.999883 1 1 0.999883
1.0013 1 1.00178 0.99952
1.00654 1 1.00802 0.998537
1.0187 1.02168 1 0.997079
1.0462 1.05006 1 0.99633
0.999317 1.00112 1.00041 0.997794
1.01598 1.01905 1.00033 0.996659
1.03425 1.03781 1 0.996568
1.03235 1.03603 1 0.996444
0.999936 1 1 0.999936
1.00267 1.0004 1.00414 0.998133
1.00323 1 1.00427 0.998965
1.00514 1.0004 1.00691 0.997841
1.05048 1.05436 1 0.996319
1.04041 1.04412 1 0.996442
1.04842 1.05229 1 0.99632
1.00647 1.00902 1.00045 0.997023
1.03629 1.03993 1 0.996499
1.0265 1.02848 1.00173 0.996352
1.03997 1.04366 1 0.996469
0.999962 1 1 0.999962
1.0011 1 1.00183 0.999269
1.00389 1.00452 1.00191 0.997472
1.00676 1 1.00855 0.998219
1.00263 1.00186 1.00322 0.997565
1.05383 1.05764 1 0.996396
1.0425 1.04629 1 0.996379
1.04371 1.04741 1 0.996469
1.01121 1.01261 1.00199 0.996628
1.03536 1.03898 1 0.996518
1.02326 1.02633 1.00086 0.996154
0.99956 1 1 0.99956
0.999014 1 1 0.999014
0.999658 1 1 0.999658
0.999616 1 1 0.999616
0.999988 1 1 0.999988
0.999983 1 1 0.999983
1 1 1 1
1 1 1 1
1 1 1 1
1.00002 1 1.00018 0.999841
1 1 1 1
1.00119 1 1.00151 0.999678
1 1 1 1
1.00161 1 1.0021 0.999512
1 1 1 1
1.02481 1.02812 1 0.996778
1.02274 1.02603 1 0.996789
1.05578 1.05959 1 0.996409
1.05306 1.05683 1 0.996432
1.01816 1.02149 1 0.996743
0.998554 1 1 0.998554
1.01712 1.02045 1 0.996741
1.05253 1.05631 1 0.996412
1.05555 1.05933 1 0.996437
1.05755 1.06496 0.996255 0.996773
1.05431 1.05816 1 0.996363
1.0596 1.06407 0.99915 0.996647
1.05142 1.05522 1 0.996404
1.05733 1.06465 0.996335 0.996777
1.05831 1.06456 0.9974 0.996723
1.05281 1.06233 0.99403 0.99699
1.05686 1.06068 0.999867 0.996531
1.05326 1.06395 0.99293 0.996995
1.01716 1.02049 1 0.996735
1.01934 1.02237 1 0.997033
1.05136 1.05542 0.999621 0.996535
1.05133 1.05508 1 0.996446
0.999769 1 1.00059 0.999181
1.00773 1.01008 1.00008 0.997603
1.02865 1.03216 1 0.996597
1.0471 1.0508 1 0.99648
1.054 1.05852 0.999038 0.996688
1.04708 1.05075 1 0.996513
1.04128 1.04518 1 0.996276
1.04437 1.04791 1 0.996622
1.00295 1.00114 1.00383 0.997978
1.00501 1.00121 1.00629 0.997526
1.00621 1 1.0077 0.99853
1.05133 1.05508 1 0.996439
1.052 1.056 0.999699 0.996516
1.05669 1.06292 0.997402 0.996733
1.05516 1.06022 0.998602 0.996627
1.00199 1.00342 1.00078 0.9978
1.01701 1.02025 1 0.996826
1.03237 1.03628 1.00003 0.996194
1.05041 1.05424 0.999795 0.99657
1.0479 1.05666 0.994698 0.99699
1.04108 1.04498 1 0.99626
1.04629 1.05015 0.999542 0.996782
1.03907 1.04234 0.999937 0.99693
1.00214 1.00358 1.00117 0.997394
1.00383 1.00386 1.00277 0.997209
1.00436 1 1.00555 0.998817
1.00819 1 1.01048 0.997731
1.05674 1.06308 0.997308 0.996728
1.05767 1.06351 0.997831 0.996676
1.04779 1.05765 0.99375 0.996906
1.04654 1.05833 0.991814 0.997017
1.04724 1.05283 0.997757 0.996921
1.04533 1.05625 0.992472 0.99717
1.00557 1.00844 1 0.997147
1.03917 1.04547 0.99681 0.997148
1.02019 1.02388 1 0.996394
1.03087 1.03486 1.00018 0.995975
1.04163 1.0455 1 0.996293
1.04027 1.04344 1 0.99696
1.00057 1 1.0015 0.99907
1.01006 1 1.01209 0.997991
1.00344 1.00638 1 0.997079
1.005 1.00117 1.00645 0.997395
1.00492 1.00541 1.00244 0.997086
0.999948 1 1 0.999948
1.05043 1.05432 1 0.996312
1.00245 1 1.00348 0.998974
1.00318 1.00024 1.00481 0.998135
1.00494 1.0001 1.00703 0.997835
1.04061 1.04433 1 0.99644
1.04802 1.0519 1 0.996317
1.00557 1.00805 1.00051 0.997029
1.02685 1.02863 1.00193 0.99634
1.03605 1.0397 1 0.996494
1.04039 1.04399 1 0.996552
0.999968 1 1 0.999968
1.00064 1 1.00136 0.999279
1.00212 1.00331 1.00134 0.997476
1.00795 1 1.00976 0.998216
1.00266 1.0015 1.00363 0.997541
1.05367 1.05748 1 0.99639
1.0423 1.04609 1 0.996377
1.04374 1.04745 1 0.996457
1.01204 1.0133 1.00213 0.99663
1.03807 1.0417 1 0.996508
1.02362 1.02656 1.00096 0.99618
0.999709 1 1.00025 0.99946
1.00337 1 1.00479 0.998594
1.00137 1.00378 1.00048 0.997119
1.00872 1.00145 1.00943 0.997849
1.00349 1.00397 1.00203 0.99749
1.05086 1.05473 0.999728 0.996611
1.03796 1.04165 1 0.996461
1.04331 1.04682 0.99997 0.996683
1.00431 1.00408 1.00379 0.996461
1.0214 1.02536 1 0.996134
0.999563 1 1 0.999563
0.99893 1 1 0.99893
0.999086 1 1.0001 0.998988
0.998859 1 1.00013 0.99873
0.999113 1 1.00007 0.999044
0.999684 1 1 0.999684
0.99966 1 1 0.99966
0.999995 1 1 0.999995
0.999618 1 1 0.999618
0.99999 1 1 0.99999
1 1 1 1
0.999985 1 1 0.999985
1 1 1 1
1 1 1 1
0.999944 1 1 0.999944
1.0004 1 1.00058 0.99982
1 1 1 1
1 1 1 1
1.00171 1 1.00205 0.999661
1 1 1 1
1.05385 1.0577 1 0.996358
1.05479 1.05856 1 0.996435
1.05995 1.06428 0.999281 0.996645
1.05772 1.0655 0.995895 0.99679
1.05217 1.05596 1 0.996413
1.01714 1.02046 1 0.996741
1.0515 1.05529 1 0.996405
1.05714 1.06439 0.996405 0.996772
1.05891 1.06512 0.99744 0.996723
1.05218 1.06223 0.993498 0.99702
1.0576 1.06141 0.99989 0.996524
1.05356 1.06391 0.993235 0.997017
1.05712 1.06397 0.996805 0.996747
1.05062 1.06109 0.993147 0.996966
1.05295 1.0637 0.992812 0.99706
1.0525 1.06568 0.990463 0.997141
1.05457 1.06072 0.997362 0.996833
1.05198 1.06639 0.989238 0.997223
1.0513 1.05508 1 0.996419
1.052 1.05602 0.999681 0.996514
1.0562 1.06276 0.99704 0.996778
1.05474 1.05978 0.998629 0.996606
1.00327 1.00452 1.00096 0.997798
1.01638 1.01962 1 0.996822
1.03044 1.03415 1.00018 0.996233
1.05065 1.05431 1 0.996533
1.04763 1.05689 0.99418 0.99704
1.0464 1.05025 0.999543 0.996784
1.04173 1.04568 1 0.996222
1.03931 1.0425 0.999969 0.996966
1.00379 1.00462 1.00179 0.997394
1.00397 1.0039 1.0029 0.997172
1.00457 1 1.00577 0.998814
1.00747 1.00006 1.00966 0.997771
1.0567 1.06305 0.997293 0.996728
1.05723 1.06292 0.997988 0.996657
1.04791 1.05785 0.993648 0.996938
1.0475 1.05861 0.99248 0.997
1.00626 1.00915 1 0.99714
1.01862 1.02223 1.00003 0.996434
1.03069 1.03446 1.00039 0.995964
1.04765 1.05279 0.998241 0.99687
1.04413 1.05542 0.992063 0.997227
1.03774 1.04162 1 0.996278
1.0401 1.04634 0.996878 0.997148
1.0411 1.04421 1 0.997022
1.0031 1.00603 1 0.99708
1.00439 1.00557 1.00175 0.997078
1.00617 1.00146 1.00733 0.99739
1.0012 1 1.00217 0.999035
1.0097 1 1.01169 0.998033
1.04909 1.05984 0.992891 0.996951
1.04907 1.06041 0.992306 0.996978
1.0449 1.0604 0.988137 0.997211
1.04038 1.05215 0.991559 0.997233
1.00905 1.01229 1 0.9968
1.04436 1.05088 0.996464 0.997323
1.01121 1.01483 1.00029 0.99615
1.02602 1.02984 1.00051 0.995783
1.03396 1.03782 1 0.996282
0.999562 1 1.00028 0.999278
1.00656 1 1.00819 0.998381
1.00715 1 1.00943 0.997732
1.00376 1.00683 1.00001 0.996946
1.00504 1.00157 1.0064 0.997086
1.0059 1.00666 1.00233 0.996922
0.999974 1 1 0.999974
1 1 1.00071 0.999289
1.05349 1.05731 1 0.996384
1.00931 1 1.01111 0.998213
0.999805 1.00159 1.00074 0.99748
1.00261 1.0012 1.0039 0.997516
1.04192 1.04571 1 0.996375
1.04376 1.04748 1 0.996446
1.01195 1.01305 1.00229 0.996632
1.02276 1.02586 1.00077 0.996205
1.0408 1.04446 1 0.996499
0.999519 1 1.00005 0.999465
1.00374 1 1.00515 0.998598
1.00258 1.00507 1.00041 0.997111
1.00954 1.00115 1.01056 0.997842
1.00373 1.00451 1.00174 0.997487
1.05043 1.0542 0.999812 0.996604
1.03883 1.04253 1 0.996448
1.0435 1.047 0.999946 0.996708
1.00547 1.00581 1.00324 0.996424
1.01999 1.02392 1.00006 0.996104
0.999886 1 1.00103 0.998854
1.00947 1 1.01134 0.998157
1.00355 1.0046 1.002 0.996969
1.00927 1.00439 1.00726 0.997613
1.01224 1.01393 1.001 0.997343
1.04648 1.05399 0.995755 0.997102
1.03915 1.04296 1 0.996349
1.04204 1.04554 0.999965 0.996689
1.00733 1.00669 1.00433 0.996326
1.00968 1.01382 1 0.995913
0.999566 1 1 0.999566
0.998948 1 1 0.998948
0.998663 1 1 0.998663
0.999024 1 1.00006 0.998962
0.999076 1 1.00003 0.999043
0.999004 1 1.0003 0.998703
0.999033 1 1.0004 0.998636
0.999385 1 1.00074 0.998642
0.999076 1 1 0.999072
0.999679 1 1 0.999679
0.999684 1 1 0.999684
0.999999 1 1 0.999999
0.999662 1 1 0.999662
0.999996 1 1 0.999996
1 1 1 1
0.999992 1 1 0.999992
1 1 1 1
1 1 1 1
0.999989 1 1 0.999989
0.999925 1 1 0.999925
1 1 1 1
1.00087 1 1.00107 0.9998
1 1 1 1
1 1 1 1
1.05831 1.06209 0.999919 0.996518
1.05927 1.06543 0.997486 0.996723
1.05379 1.06377 0.993554 0.99704
1.05152 1.0621 0.99297 0.99705
1.05697 1.06415 0.996481 0.996767
1.05165 1.05545 1 0.996405
1.05706 1.06374 0.996978 0.996728
1.0512 1.06128 0.993531 0.996959
1.05214 1.06304 0.992682 0.997045
1.05125 1.06516 0.989755 0.997152
1.05426 1.06012 0.997635 0.996834
1.04977 1.06494 0.988468 0.997261
1.05129 1.06098 0.993914 0.996941
1.05243 1.06679 0.989362 0.997139
1.05282 1.0678 0.988702 0.997237
1.04645 1.06218 0.987869 0.997284
1.05672 1.06308 0.997279 0.996727
1.05687 1.06241 0.998142 0.996638
1.04808 1.05809 0.993554 0.99697
1.04855 1.05901 0.993122 0.996982
1.00759 1.01048 1 0.997132
1.0179 1.0215 1 0.996474
1.03056 1.03415 1.00058 0.995953
1.04804 1.05278 0.998674 0.99682
1.04287 1.05457 0.991603 0.997283
1.0413 1.04751 0.996917 0.997149
1.0348 1.03868 1 0.996263
1.04333 1.04638 1 0.997084
1.00217 1.00511 1 0.99708
1.00415 1.00633 1.00076 0.997071
1.00746 1.00145 1.00864 0.997384
1.00169 1 1.00269 0.999001
1.00956 1 1.01151 0.998076
1.04935 1.06004 0.992939 0.996953
1.04962 1.06104 0.992245 0.996973
1.0449 1.05963 0.988864 0.997203
1.00864 1.01188 1 0.996796
1.01177 1.01538 1.00026 0.99619
1.02431 1.02788 1.00076 0.995772
1.04078 1.05215 0.991953 0.997219
1.03749 1.04124 1 0.996395
1.04073 1.0475 0.996245 0.997289
0.999574 1 1.00026 0.999318
1.00375 1.00666 1.00018 0.996939
1.00379 1.0053 1.00146 0.997042
1.00755 1.00287 1.00762 0.997079
1.00755 1 1.00981 0.997757
1.00658 1 1.00825 0.998346
1.05084 1.06474 0.989881 0.997028
1.04886 1.06757 0.985283 0.997141
1.03866 1.05824 0.984163 0.997292
1.03767 1.05465 0.98643 0.997433
1.00753 1.01096 1 0.996606
1.03612 1.04064 0.99876 0.996887
1.00517 1.00779 1.00165 0.995754
1.0142 1.0176 1.00104 0.995623
0.99959 1 1 0.99959
1.00146 1 1.00275 0.998713
1.0067 1 1.00868 0.998036
1.00686 1 1.00961 0.997278
1.00338 1.00491 1.0017 0.996779
1.00871 1.00324 1.00873 0.996753
0.999471 1 1 0.999471
1.0043 1 1.00571 0.998603
1.05016 1.05385 0.999899 0.996598
1.01018 1.00074 1.01163 0.997836
1.00384 1.00649 1.00027 0.997103
1.00334 1.00434 1.00152 0.997484
1.03988 1.0436 1 0.996436
1.04377 1.04727 0.999928 0.996734
1.00703 1.00793 1.00273 0.996388
1.01856 1.0223 1.00027 0.996075
0.999792 1 1.00094 0.998857
1.00982 1 1.0117 0.998142
1.00403 1.00508 1.00198 0.996978
1.00872 1.00446 1.00664 0.997618
1.01324 1.01539 1.00048 0.997411
1.04808 1.05563 0.995687 0.997149
1.03862 1.0424 1 0.996376
1.04317 1.04663 0.999933 0.996765
1.00755 1.00668 1.00458 0.996293
1.00968 1.01387 1.00003 0.995838
1.00091 1 1.00238 0.998533
1.00984 1.00089 1.01119 0.997776
1.00981 1.00914 1.00378 0.996885
1.011 1.01218 1.00161 0.997227
1.04481 1.07132 0.977793 0.997402
1.04257 1.04791 0.997729 0.997171
1.02613 1.03022 1 0.996029
1.01262 1.01246 1.00426 0.995914
0.998966 1 1 0.998966
0.99872 1 1.00004 0.998675
0.998652 1 1 0.998652
0.999207 1 1.00017 0.999041
0.999218 1 1.00054 0.998676
0.999105 1 1.00003 0.99907
0.998861 1 1.00021 0.998647
0.999624 1 1.00097 0.998652
0.998716 1 1 0.998716
1.00001 1 1.00152 0.9985
0.999663 1 1.00106 0.998606
0.999053 1 1 0.999053
0.999645 1 1 0.999645
0.999677 1 1 0.999677
1 1 1 1
0.999684 1 1 0.999684
0.999999 1 1 0.999999
1 1 1 1
0.999997 1 1 0.999997
1 1 1 1
1 1 1 1
1 1 1 1
0.999979 1 1 0.999979
1 1 1 1
0.999906 1 1 0.999906
1 1 1 1
1 1 1 1
1.05388 1.05945 0.997903 0.996836
1.05146 1.06251 0.992544 0.99703
1.04766 1.06356 0.987718 0.9973
1.05003 1.0647 0.989024 0.997163
1.05179 1.06148 0.993903 0.996952
1.05695 1.06348 0.997145 0.996709
1.05107 1.06085 0.993818 0.996941
1.05227 1.06646 0.989537 0.99713
1.05134 1.06695 0.988105 0.997236
1.04758 1.06304 0.988133 0.997294
1.05348 1.06674 0.990459 0.997084
1.05398 1.0734 0.984572 0.99729
1.05261 1.07378 0.982895 0.997352
1.04959 1.06024 0.992981 0.996955
1.05012 1.0616 0.992199 0.996969
1.04501 1.05886 0.989693 0.997195
1.00863 1.01188 1 0.996793
1.01164 1.01529 1.00018 0.99623
1.02226 1.02575 1.00085 0.99576
1.04123 1.0522 0.992354 0.997205
1.03651 1.04377 0.995781 0.997256
1.0399 1.04354 1 0.996508
1.00311 1.00561 1.00058 0.996931
0.999447 1.00197 1.00033 0.997161
1.00937 1.00384 1.00846 0.997072
0.999606 1 1.00025 0.999358
1.00704 1.00007 1.0092 0.997781
1.00681 1 1.00851 0.99831
1.05163 1.06525 0.990152 0.997036
1.04815 1.06729 0.984875 0.997146
1.03891 1.05797 0.984659 0.997284
1.0049 1.00833 1 0.996599
1.0051 1.0079 1.0014 0.99583
1.01439 1.01785 1.0009 0.995708
1.03792 1.05432 0.986975 0.997436
1.03273 1.03799 0.998064 0.996866
0.999656 1 1 0.999656
1.00149 1 1.00278 0.998711
1.00079 1.00335 1.00062 0.996824
1.01082 1.00253 1.0114 0.996907
1.00647 1.0004 1.00876 0.997326
1.0065 1 1.00852 0.997997
1.05136 1.07116 0.984255 0.997211
1.03997 1.06879 0.975722 0.997246
1.03568 1.05813 0.981265 0.997479
1.02798 1.04212 0.988971 0.997438
1.00243 1.0048 1.00133 0.996311
1.01565 1.01831 1.0014 0.995999
1.006 1.00784 1.00264 0.995545
0.999825 1 1 0.999825
0.999307 1 1 0.999307
0.999269 1 1.00025 0.999015
1.00214 1 1.00392 0.99823
1.0075 1 1.00988 0.997645
1.00946 1.0005 1.01191 0.997073
1.00018 1.00192 1.00134 0.996932
1.03459 1.00122 1.03626 0.997175
0.999632 1 1.00077 0.998861
1.01033 1 1.01223 0.998127
1.04972 1.05727 0.995649 0.997196
1.00956 1.00563 1.0063 0.997622
1.00473 1.0056 1.00215 0.996986
1.01402 1.01655 1.00004 0.997479
1.03791 1.04166 1 0.996402
1.04421 1.04764 0.99989 0.99684
1.00768 1.00662 1.00482 0.996261
1.00941 1.01371 1 0.995763
1.00138 1 1.00289 0.998496
1.00874 1.00038 1.0106 0.997781
1.01249 1.01143 1.00415 0.99691
1.01054 1.01188 1.00142 0.997264
1.04671 1.07364 0.977437 0.997421
1.04408 1.04887 0.998307 0.997119
1.02564 1.02967 1 0.99608
1.01429 1.01467 1.00377 0.995861
1.00251 1 1.00422 0.998294
1.04935 1.07831 0.975649 0.997428
1.00327 1.00076 1.0051 0.997419
1.01225 1.01293 1.00268 0.996666
1.03734 1.05926 0.981732 0.997529
1.02254 1.02657 0.999895 0.99617
1.01055 1.01169 1.00323 0.995649
0.998687 1 1 0.998687
0.998599 0.999945 1.00001 0.998641
0.999051 1 1.00031 0.998742
0.999068 1 1 0.999068
0.999793 1 1.00113 0.998662
0.998937 1 1.00028 0.998658
0.999049 1 1 0.999049
0.999752 1 1.00114 0.998611
0.998733 1 1 0.998733
0.999636 1 1.00112 0.998515
0.998815 1 1 0.998815
0.998763 1 1.00016 0.998602
1.00001 1 1.00164 0.998376
0.998651 1 1.00011 0.998542
0.998979 1 1 0.998979
0.999603 1 1 0.999603
0.999642 1 1 0.999642
1 1 1 1
0.999675 1 1 0.999675
1 1 1 1
1 1 1 1
1 1 1 1
1 1 1 1
1 1 1 1
0.999852 1 1 0.999852
1 1 1 1
0.999998 1 1 0.999998
1 1 1 1
0.99997 1 1 0.99997
1 1 1 1
1 1 1 1
1.04868 1.06389 0.988365 0.997304
1.04985 1.06603 0.987554 0.997234
1.0521 1.06608 0.989731 0.997121
1.05083 1.06071 0.993729 0.996941
1.05311 1.06665 0.990176 0.997103
1.05378 1.07284 0.984911 0.997281
1.05032 1.0714 0.982922 0.99736
1.05353 1.07334 0.984234 0.997272
1.0639 1.08545 0.982723 0.99738
1.05828 1.08341 0.979108 0.997646
1.0524 1.06572 0.990426 0.997044
1.04736 1.06703 0.984366 0.997152
1.03909 1.05771 0.985075 0.997276
1.00411 1.00749 1.00006 0.996592
1.00578 1.00864 1.00126 0.995908
1.017 1.0205 1.00078 0.995794
1.03823 1.05377 0.987781 0.99744
1.02942 1.03512 0.997645 0.996845
1.0014 1.00369 1.00086 0.99687
1.01415 1.0031 1.014 0.997058
1.00732 1.00068 1.00928 0.997374
0.999722 1 1 0.999722
1.00138 1 1.00267 0.998709
1.00648 1 1.00854 0.997958
1.05123 1.07148 0.983837 0.997222
0.999819 1 1 0.999819
0.999271 1 1 0.999271
1.04075 1.06795 0.97722 0.997248
1.03395 1.0569 0.980788 0.997448
1.00321 1.00494 1.00189 0.996395
1.00607 1.00724 1.00332 0.995542
1.016 1.01955 1.00053 0.995989
1.02691 1.04173 0.988334 0.997412
0.999365 1 1.00027 0.999099
1.00214 1 1.00393 0.998222
1.00165 1.00183 1.003 0.996826
1.02992 1.00127 1.03136 0.997329
1.0075 1.00034 1.0101 0.99709
1.007 1 1.00936 0.997661
1.06111 1.08522 0.980391 0.997334
1.0212 1.06633 0.96019 0.997383
1.02277 1.049 0.977312 0.997629
1.00877 1.02281 0.989113 0.99713
1.00532 1.00277 1.00607 0.9965
1.00571 1.00468 1.0055 0.995546
0.999231 1 1 0.999231
0.999271 1 1 0.999271
0.998967 1 1 0.998967
0.998705 1 1.00027 0.998432
1.00557 1 1.00762 0.997965
1.00571 1.00021 1.00822 0.997302
1.05001 1.00003 1.05302 0.997113
1.00108 1.00049 1.00307 0.997531
1.002 1 1.00354 0.998459
1.00728 1 1.00951 0.997786
1.04787 1.07493 0.977328 0.997441
1.04513 1.04944 0.998829 0.997066
1.01011 1.01168 1.00115 0.9973
1.01542 1.01407 1.00441 0.996934
1.0255 1.02945 1.00004 0.99613
1.01633 1.0172 1.00335 0.995808
1.00265 1 1.00439 0.998275
1.05223 1.08183 0.975093 0.997486
1.0038 1.00045 1.00592 0.997449
1.01039 1.01111 1.00269 0.996603
1.03632 1.05837 0.981608 0.997504
1.02156 1.0255 0.999909 0.996254
1.01172 1.01259 1.00348 0.995665
1.00583 1 1.00787 0.997978
1.01338 1.04874 0.968301 0.997912
1.0044 1.00324 1.00402 0.997149
1.00487 1.00494 1.00379 0.99615
1.01774 1.03004 0.990964 0.997067
1.0027 1.00463 1.00221 0.995874
0.975089 1.00337 0.974499 0.997242
0.99843 0.999717 1.00008 0.998631
0.999155 0.999367 1.00105 0.998742
0.999581 1 1.00091 0.998668
0.999046 1 1 0.999046
1.00009 1 1.00148 0.998617
0.999035 1 1.00051 0.998531
0.998751 1 1 0.998751
0.998979 1 1 0.998979
0.998781 1 1.00025 0.998535
0.998781 1 1 0.998781
0.999899 1 1.00152 0.998377
0.998728 1 1.00015 0.998582
0.998956 1 1.00019 0.99877
0.998779 1 1.00058 0.998197
1.00089 1 1.00254 0.998349
0.998524 1 1.00011 0.998419
0.998833 1 1 0.998833
0.999224 1 1.00062 0.998601
0.998868 1 1.00007 0.998802
0.999583 1 1 0.999583
0.9996 1 1 0.9996
1 1 1 1
0.999638 1 1 0.999638
1 1 1 1
1 1 1 1
1 1 1 1
1 1 1 1
1 1 1 1
0.99988 1 1 0.99988
0.999852 1 1 0.999852
1 1 1 1
1 1 1 1
1 1 1 1
0.999996 1 1 0.999996
1 1 1 1
1 1 1 1
1.04826 1.06937 0.982847 0.997368
1.05343 1.07226 0.98513 0.997272
1.0528 1.06661 0.989893 0.997122
1.05349 1.07322 0.984305 0.99727
1.06136 1.0831 0.982514 0.997376
1.05733 1.08148 0.98005 0.997569
1.06618 1.0922 0.978679 0.997445
0.971405 1.01605 0.960401 0.995476
1.01485 1.04809 0.969886 0.998351
0.999377 1 1 0.999377
1.05112 1.07177 0.983451 0.997232
1.04165 1.06718 0.97877 0.99725
1.0321 1.05578 0.980103 0.997418
1.00007 1.00278 1.00082 0.996478
1.00465 1.00511 1.00402 0.995537
1.01508 1.01917 1.00001 0.99598
1.02565 1.04133 0.987531 0.997385
0.998855 1.00199 1.00015 0.996723
1.0232 1.00038 1.02539 0.997486
1.00529 1.00001 1.00819 0.997108
0.999814 1 1 0.999814
1.00769 1 1.01004 0.997676
0.999459 1 1.00028 0.999182
1.0022 1 1.004 0.998213
0.999235 1 1 0.999235
1.05759 1.08541 0.976969 0.997341
0.999276 1 1 0.999276
0.999271 1 1 0.999271
0.998752 1.00008 0.999745 0.998932
1.02572 1.0668 0.964015 0.997381
1.02309 1.04913 0.977545 0.997581
1.00178 1.00214 1.00312 0.996529
1.00959 1.0084 1.00554 0.995672
1.00778 1.02056 0.990334 0.997113
0.998821 1 1.00033 0.998488
1.00557 1 1.00767 0.997915
1.00794 1.00031 1.01024 0.997414
1.03985 1.00011 1.04272 0.997137
1.00509 1.00032 1.00743 0.997352
1.03807 1.0738 0.969198 0.997448
1.00295 1.0557 0.952385 0.997537
1.01527 1.03175 0.986718 0.99728
0.991572 1.0086 0.986203 0.996871
1.00367 1 1.00653 0.997157
0.998802 1 1 0.998802
0.998737 1 1 0.998737
0.999811 1 1.00114 0.998677
1.00565 1 1.00745 0.998219
1.00838 1 1.0106 0.997806
1.03707 0.99988 1.0399 0.997398
1.03098 1.00168 1.03187 0.997472
1.00261 1 1.00436 0.998255
1.00398 1 1.00652 0.997478
1.05419 1.08617 0.972951 0.997543
1.03583 1.05832 0.981229 0.997477
1.02096 1.02481 0.999899 0.996338
1.00799 1.00879 1.00268 0.996541
1.01247 1.01321 1.0036 0.995682
1.00538 1 1.00737 0.99802
1.01301 1.04922 0.967465 0.997952
1.00156 1.00205 1.00236 0.997159
1.00396 1.00374 1.00408 0.996152
1.01672 1.03006 0.989839 0.997185
1.00321 1.00463 1.00273 0.995867
0.974785 1.00336 0.975187 0.996242
1.00605 1.00065 1.00754 0.997876
1.00204 1.0242 0.980418 0.997897
1.0005 1.00137 1.00212 0.997013
1.00433 1.0015 1.00644 0.99641
0.992142 1.00605 0.989199 0.996939
0.91445 0.977026 0.960091 0.974859
0.910808 0.96844 0.952855 0.987023
0.968828 0.98446 0.986694 0.997393
0.72997 0.838131 0.916234 0.950575
0.648965 0.799168 0.86802 0.93552
0.999103 0.998797 1.00156 0.998743
1.00057 0.999215 1.00264 0.998721
1.00026 1 1.00156 0.998704
0.998978 1 1 0.998978
0.998653 1 1.00013 0.998528
0.999498 1 1.00112 0.998379
0.998695 1 1.00013 0.998562
0.998747 1 1 0.998747
1.00153 1 1.00321 0.998325
0.998869 1 1 0.998869
0.998503 1 1.00006 0.998439
0.998984 1 1.00026 0.998725
0.999072 1 1.00083 0.998241
1.00275 1 1.0045 0.998253
1.00329 1 1.00492 0.998378
1.00224 1 1.00399 0.998261
0.998921 1 1.00058 0.998342
0.998799 1 1 0.998799
0.998845 1 1.00041 0.998433
0.999058 1 1.00061 0.998445
0.999025 1 1.0004 0.99863
0.999284 1 1.00072 0.998562
0.998921 1 1 0.998921
0.99894 1 1.00014 0.998799
0.999577 1 1 0.999577
0.999583 1 1 0.999583
1 1 1 1
0.999598 1 1 0.999598
1 1 1 1
1 1 1 1
1 1 1 1
1 1 1 1
1 1 1 1
0.999913 1 1 0.999913
0.999877 1 1 0.999877
1 1 1 1
0.999853 1 1 0.999853
1 1 1 1
1 1 1 1
1 1 1 1
1 1 1 1
1 1 1 1
1.05847 1.08043 0.982251 0.997373
1.05353 1.07314 0.984418 0.997268
1.05679 1.07976 0.98118 0.997494
0.972529 1.01587 0.961614 0.995554
1.06315 1.08953 0.978289 0.997445
1.02724 1.05161 0.978568 0.998221
1.04564 1.06377 0.985346 0.997574
0.927332 0.979896 0.959662 0.986136
0.991279 1.01935 0.975995 0.996378
0.9994 1 1 0.9994
0.999372 1 1 0.999372
0.998914 1 1 0.998914
0.999011 1 1 0.999011
1.05512 1.0856 0.974503 0.997348
1.02983 1.06667 0.967999 0.997379
1.02353 1.04908 0.978063 0.997534
1.00047 1.00091 1.00301 0.996559
1.01442 1.0135 1.00513 0.995798
1.00699 1.01877 0.991322 0.997095
1.01829 1 1.02105 0.997295
1.0322 1.0002 1.03493 0.99716
1.00358 1.00021 1.00598 0.997401
0.999271 1 1 0.999271
1.00392 1 1.00606 0.997865
0.998886 1 1.00034 0.998546
0.999322 1 1 0.999322
0.998911 1.00018 0.999835 0.998895
1.0359 1.07376 0.967195 0.997463
0.998838 1 1 0.998838
0.998808 1.00009 0.999917 0.9988
0.999533 0.999913 1.00078 0.998839
1.00858 1.05852 0.955183 0.997528
1.01505 1.03177 0.986479 0.997279
1.00359 1.00064 1.00583 0.997139
0.994853 1.00867 0.989324 0.996945
1.00405 1 1.0059 0.998156
1.00762 1 1.00995 0.99769
1.0377 1.00166 1.03862 0.997452
1.03742 1.00019 1.04002 0.997316
0.995946 1.04617 0.954232 0.997651
0.995285 1.03567 0.963385 0.997527
1.00562 1.01243 0.996318 0.996946
0.982684 1.00095 0.983856 0.99786
1.00055 1 1.00202 0.998535
1.00177 1 1.00337 0.998405
1.01446 0.999696 1.01657 0.998225
1.05797 1.00005 1.06058 0.997484
0.892176 0.968076 0.948483 0.971654
1.00573 1 1.00769 0.998061
0.999285 1.00091 1.00121 0.997167
1.01406 1.0494 0.968264 0.997994
1.01579 1.02955 0.989304 0.997303
1.00366 1.00452 1.0033 0.995858
1.00352 1.00292 1.00447 0.996152
0.975172 1.00464 0.97533 0.995215
1.00456 1.00016 1.00648 0.997932
1.0015 1.02527 0.978889 0.99788
1.00029 1.00146 1.00181 0.997028
1.00459 1.00208 1.00611 0.996414
0.995769 1.00719 0.991705 0.996933
0.912057 0.983274 0.954581 0.971704
0.904142 0.9649 0.952069 0.984205
0.972773 0.985132 0.990006 0.997422
0.726459 0.833419 0.915924 0.951675
0.635113 0.789147 0.864595 0.930851
1.00184 0.99971 1.00404 0.998102
0.757631 0.85377 0.929999 0.954189
0.686026 0.806024 0.908765 0.936571
0.987799 1.00612 0.983869 0.997892
1.00774 1.00159 1.00863 0.997533
1.01347 1.00506 1.01109 0.997309
0.962706 0.976516 0.988116 0.997715
0.894278 0.9569 0.960477 0.973014
0.876385 0.938047 0.950895 0.982511
0.717933 0.832622 0.90313 0.954741
0.706013 0.852973 0.886179 0.934019
1.0021 0.998664 1.00467 0.998773
1.0011 0.999497 1.00293 0.998677
1.00526 1 1.00643 0.998839
0.998904 1 1 0.998904
0.99846 1 1 0.99846
1.00215 1 1.00385 0.998302
0.999676 1 1.00139 0.998286
0.99868 1 1 0.99868
0.9988 1 1 0.9988
1.00308 1 1.00485 0.998239
1.00259 1 1.00432 0.998269
0.998564 1 1.00018 0.998382
1.00361 1 1.00521 0.998407
1.00526 1 1.00694 0.998329
1.01345 1 1.01495 0.998521
1.00103 1 1.00285 0.998189
0.998938 1 1.00054 0.998399
0.998569 1 1.00014 0.998428
0.999441 1 1.00099 0.998456
0.999735 1 1.00148 0.998262
0.999288 1 1.00079 0.998496
1.00138 1 1.00289 0.998491
1.00563 1 1.00737 0.998278
0.999891 1 1.0013 0.998592
0.998906 1 1.00027 0.998632
0.998959 1 1 0.998959
0.999049 1 1.00053 0.998522
0.998892 1 1 0.998892
0.999565 1 1 0.999565
0.998969 1 1.00017 0.998795
0.999579 1 1 0.999579
0.999999 1 1 0.999999
0.999583 1 1 0.999583
1 1 1 1
1 1 1 1
1 1 1 1
1 1 1 1
1 1 1 1
0.999352 1 1 0.999352
0.999919 1 1 0.999919
0.999909 1 1 0.999909
1 1 1 1
0.999873 1 1 0.999873
1 1 1 1
1 1 1 1
1 1 1 1
1 1 1 1
1 1 1 1
0.974341 1.0156 0.963578 0.995636
1.06095 1.08669 0.978813 0.997444
1.03505 1.05487 0.983086 0.998089
0.920001 0.974073 0.956658 0.987279
0.990603 1.01913 0.975361 0.996558
1.04469 1.06775 0.980833 0.997529
1.00166 1.02815 0.977469 0.996693
0.934664 0.9752 0.969399 0.988688
0.912964 0.97709 0.960638 0.972655
0.728315 0.83604 0.912526 0.954656
0.613688 0.756919 0.867459 0.93465
0.998956 1 1 0.998956
0.999398 1 1 0.999398
0.999368 1 1 0.999368
0.998909 1 1 0.998909
0.998686 1 1 0.998686
0.998694 1 1 0.998694
0.998877 1 1 0.998877
0.998969 1 1 0.998969
1.03256 1.07422 0.963643 0.997477
1.01469 1.06252 0.957357 0.997518
1.01456 1.03181 0.985961 0.997279
1.00326 1.00184 1.00431 0.997123
0.997557 1.0082 0.992406 0.99702
1.04199 1.0012 1.04343 0.997429
1.03756 1.0008 1.0396 0.997236
1.00816 1 1.01061 0.997575
0.998504 1.00015 0.99949 0.998863
1.00412 1 1.00604 0.998091
0.998877 1 1 0.998877
0.999002 1 1 0.999002
0.994845 1.04692 0.952477 0.99767
1.00039 1 1.00185 0.998546
1.00219 1 1.00373 0.99846
0.993237 1.03405 0.962934 0.997501
1.00275 1.01295 0.992813 0.997089
0.985035 1.00121 0.986077 0.997734
1.02345 1.00001 1.02548 0.998004
1.05387 1.00144 1.05498 0.997519
0.977713 1.02771 0.953634 0.997603
0.987469 1.01111 0.979051 0.997518
0.976101 1.00166 0.976864 0.997563
0.986261 1.00118 0.987054 0.998025
1.00496 1 1.00687 0.99811
1.01184 1 1.01367 0.9982
1.05096 1 1.05324 0.997834
0.761785 0.863284 0.922895 0.956151
0.909872 0.975836 0.955471 0.975856
1.00199 0.999523 1.00449 0.997989
0.999979 1.00131 1.00163 0.997045
1.00111 1.02667 0.977189 0.997865
0.998855 1.00871 0.99328 0.996928
1.00498 1.00286 1.00571 0.996422
0.909782 0.974616 0.959321 0.973061
0.908753 0.97242 0.948934 0.984818
0.974486 0.98394 0.992927 0.997447
0.732475 0.835257 0.917717 0.955573
0.622448 0.779471 0.862337 0.926032
1.00115 0.999702 1.00335 0.998103
0.758908 0.861181 0.922757 0.955008
0.670743 0.791896 0.906944 0.933916
0.987762 1.00717 0.982806 0.997887
1.00779 1.00203 1.00822 0.997551
1.01168 1.00336 1.01086 0.99746
0.955879 0.97053 0.986978 0.997898
0.905552 0.969081 0.963031 0.970316
0.872082 0.934502 0.947396 0.985021
0.724353 0.830817 0.915056 0.95279
0.705515 0.859483 0.879794 0.933014
1.00328 1 1.00467 0.998615
0.716676 0.818346 0.934228 0.937417
0.788159 0.892217 0.934667 0.945119
0.986883 0.994632 0.993539 0.998662
1.01511 1.00262 1.01389 0.998588
0.964751 0.962082 1.00529 0.997498
0.884166 0.924867 0.969284 0.986288
0.858266 0.922637 0.960198 0.968791
0.728861 0.824874 0.926458 0.953743
0.75678 0.90384 0.893231 0.937378
1.00201 0.999251 1.00411 0.998652
1.0042 1 1.00541 0.998798
1.00684 0.999345 1.00843 0.999074
0.998801 1 1 0.998801
0.998422 1 1 0.998422
1.00332 1 1.00505 0.998276
1.0037 1 1.00548 0.998225
1.00366 1 1.00523 0.998436
0.998831 1 1.00043 0.998397
1.0039 1 1.0056 0.998304
1.00106 1 1.00288 0.998191
1.01283 0.999812 1.01445 0.998581
1.03252 0.99874 1.03476 0.999094
1.00753 1 1.00921 0.998341
1.00036 1 1.00221 0.998148
0.99848 1 1.00006 0.998424
0.999901 1 1.00144 0.998467
1.00019 1 1.00194 0.998253
0.99966 1 1.00118 0.998483
0.999996 1 1.00141 0.998585
1.00314 1 1.00473 0.998422
1.00253 1 1.00416 0.998379
1.00232 0.999643 1.00408 0.998603
0.99929 1 1.00094 0.998349
0.998941 1.00029 1.00093 0.997721
1.00475 1 1.00658 0.998175
1.00471 1 1.00644 0.998279
1.00425 1 1.00579 0.998471
1.00064 1 1.00206 0.99859
0.998945 1 1.00001 0.998937
0.999077 1 1.00044 0.998633
0.998964 1 1 0.998961
0.999552 1 1 0.999552
0.998863 1 1 0.998863
0.999567 1 1 0.999567
0.999994 1 1 0.999994
0.99958 1 1 0.99958
0.999998 1 1 0.999998
1 1 1 1
1 1 1 1
1 1 1 1
1 1 1 1
0.999358 1 1 0.999358
0.999895 1 1 0.999895
0.999354 1 1 0.999354
1 1 1 1
0.99992 1 1 0.99992
0.999905 1 1 0.999905
1 1 1 1
1 1 1 1
1 1 1 1
1 1 1 1
1 1 1 1
0.75179 0.852047 0.927239 0.951571
0.676335 0.800646 0.902885 0.935598
0.920175 0.976475 0.953962 0.987821
0.992193 1.0191 0.976776 0.996746
1.04669 1.07168 0.979153 0.997484
0.917174 0.95828 0.966695 0.990079
1.0022 1.02731 0.978637 0.996853
0.925378 0.98935 0.960644 0.973659
0.725603 0.837452 0.910565 0.951542
0.616544 0.768096 0.86316 0.929946
0.948796 0.996038 0.959684 0.992587
0.91014 0.968422 0.9654 0.973501
0.717402 0.832816 0.902905 0.954051
0.69263 0.844789 0.878548 0.933227
1.00007 1 1.00155 0.998522
0.998993 1 1 0.998993
0.999396 1 1 0.999396
0.998905 1 1 0.998905
0.998769 1 1.00002 0.998747
0.999554 1 1.00109 0.998469
0.99867 1 1 0.99867
0.998545 1 1 0.998545
0.998835 1 1 0.998835
0.998927 1 1 0.998927
0.99411 1.04696 0.951724 0.997689
0.989936 1.0313 0.962318 0.997478
1.00081 1.01381 0.989924 0.997232
0.987264 1.00144 0.988204 0.997609
1.04805 1.00318 1.04729 0.997553
1.03288 1.00027 1.0349 0.997785
1.00131 1 1.0028 0.998515
1.00016 0.999896 1.00171 0.998557
0.978289 1.02809 0.953771 0.997679
1.00601 1 1.00796 0.99807
1.0116 1 1.01347 0.998152
0.983992 1.00921 0.977494 0.997458
0.974011 1.00138 0.974943 0.997662
0.986602 1.00199 0.986651 0.99796
1.04431 0.999955 1.04668 0.997785
0.976171 1.00364 0.974672 0.997906
0.96797 0.998942 0.970586 0.998361
1.01351 1.00086 1.01449 0.998181
1.00872 1 1.01073 0.998014
1.0104 1 1.01251 0.997924
1.02756 1 1.02968 0.997942
0.743429 0.834257 0.941876 0.946119
0.768244 0.862056 0.931819 0.956383
0.898411 0.972327 0.950812 0.97178
1.00056 0.999416 1.00305 0.998102
1.00745 1.00205 1.00784 0.997567
0.990269 1.00824 0.984256 0.997884
1.01026 1.00203 1.01063 0.997606
0.755829 0.85631 0.922558 0.95675
0.89961 0.965512 0.958847 0.971734
0.869969 0.931539 0.950425 0.982619
0.952962 0.966518 0.987878 0.998073
0.718936 0.832231 0.909612 0.949707
0.669713 0.791792 0.904701 0.934916
0.69958 0.852404 0.876814 0.936017
1.00342 0.999786 1.00505 0.998601
0.718621 0.820368 0.931435 0.940457
0.800382 0.903686 0.937386 0.944846
0.986602 0.992622 0.995174 0.998755
1.01534 1.00176 1.01504 0.998541
0.961959 0.960423 1.00362 0.99799
0.876222 0.928744 0.958879 0.983907
0.880942 0.933702 0.970616 0.972057
0.745281 0.844737 0.92795 0.950767
0.74599 0.893413 0.888438 0.93984
1.00746 0.998788 1.00926 0.999431
0.818708 0.909982 0.945469 0.951588
0.789427 0.901885 0.922225 0.949126
0.984734 0.970021 1.01546 0.999715
0.90893 0.92588 0.991009 0.990599
0.884682 0.920172 0.990481 0.970671
0.798046 0.885403 0.950214 0.948561
0.786049 0.933345 0.896344 0.939577
1.004 1 1.00525 0.998756
1.00733 0.99893 1.00936 0.999066
1.02361 0.995577 1.02883 0.999354
0.998988 1 1.00059 0.998395
1.00101 1 1.00282 0.998194
1.00208 1 1.00381 0.998278
1.01246 0.999619 1.01422 0.998641
1.00084 1 1.0027 0.998147
1.0071 1 1.00878 0.998332
1.03745 0.999562 1.03876 0.999173
1.04475 0.995971 1.04956 0.999446
1.03688 0.999143 1.03874 0.999068
1.00146 1 1.00319 0.998271
1.00038 1 1.00214 0.998245
0.999698 1 1.00123 0.99847
0.998832 1 1.00016 0.998676
1.00219 1 1.0038 0.998399
1.00223 1 1.00381 0.998424
1.0034 0.99992 1.00486 0.998622
1.00152 1 1.00309 0.998443
1.00788 0.998895 1.01004 0.998962
0.996622 1.00043 0.997721 0.998465
0.999901 1.00062 1.00092 0.998363
0.998643 1 1.00069 0.99795
1.00204 1.00367 1.00153 0.996851
1.00295 1.00021 1.00468 0.998067
0.998847 1.00008 1.00079 0.997977
1.0045 1 1.00633 0.998186
1.00789 1 1.0096 0.998302
1.0034 1 1.00512 0.99828
1.00396 1 1.0055 0.99847
0.999476 1 1.00065 0.998829
1.00104 1 1.00246 0.998587
0.998935 1 1 0.998935
0.999533 1 1 0.999533
0.998963 1 1 0.998963
0.999553 1 1 0.999553
0.999985 1 1 0.999985
0.99957 1 1 0.99957
0.999992 1 1 0.999992
1 1 1 1
0.999997 1 1 0.999997
1 1 1 1
1 1 1 1
0.99911 1 1 0.99911
0.999851 1 1 0.999851
0.999282 1 1 0.999282
1 1 1 1
0.9999 1 1 0.9999
0.999355 1 1 0.999355
1 1 1 1
1 1 1 1
0.999921 1 1 0.999921
1 1 1 1
1 1 1 1
1 1 1 1
0.709891 0.816101 0.924952 0.940435
0.758736 0.859159 0.925944 0.953744
0.793792 0.901964 0.931951 0.944331
0.672672 0.798205 0.902102 0.934186
0.91792 0.967834 0.960373 0.987562
1.00019 1.02677 0.977022 0.997023
0.929301 0.986623 0.966625 0.974422
0.736408 0.84051 0.91762 0.954801
0.622755 0.782453 0.860289 0.925155
0.948091 0.990522 0.965184 0.99169
0.902886 0.967636 0.963141 0.968792
0.731377 0.841054 0.91326 0.952188
0.691514 0.846881 0.877308 0.930735
0.921243 0.975 0.95533 0.989046
0.873781 0.925729 0.974963 0.968123
0.754706 0.862242 0.922743 0.948566
0.75163 0.901125 0.892524 0.934543
1.00173 1 1.00351 0.998223
0.999351 1 1.00078 0.998569
0.999029 1 1 0.999029
0.998808 1 1 0.998808
0.998508 1 1.0004 0.998107
0.998866 1 1.00035 0.998516
0.998646 1 1 0.998646
0.998513 1 1 0.998513
0.998593 1 1.00001 0.998585
0.998793 1 1 0.998793
0.979467 1.02924 0.953781 0.997755
0.982527 1.00806 0.977216 0.9974
0.970976 1.00129 0.971903 0.99776
0.989322 1.00326 0.988186 0.997898
1.03662 1 1.03898 0.997734
1.01133 1 1.01325 0.998105
1.00645 1 1.00843 0.998031
1.0079 1 1.00994 0.997971
0.97416 1.00387 0.972422 0.997928
1.00902 1 1.01114 0.997908
1.02768 1 1.02982 0.997924
0.966744 0.99949 0.968834 0.998352
1.0093 1.00197 1.00919 0.998138
0.951535 0.981036 0.971581 0.9983
0.980495 0.986173 0.995007 0.999233
1.03946 0.999601 1.04155 0.998391
1.00477 1 1.00685 0.997935
1.0195 1 1.02151 0.998036
0.829522 0.917238 0.946699 0.955288
0.743548 0.833301 0.943867 0.945358
0.75742 0.85677 0.927202 0.953451
1.00341 0.999762 1.00507 0.998587
1.01587 1.00074 1.01665 0.998494
0.983118 0.990604 0.993586 0.998849
0.720157 0.821432 0.931472 0.941208
0.873197 0.926614 0.973052 0.968451
0.880795 0.926608 0.964627 0.985415
0.953367 0.955928 0.998839 0.998479
0.748489 0.850587 0.922262 0.95414
0.807651 0.909449 0.94007 0.944681
0.750243 0.895956 0.890763 0.940055
1.00581 0.998725 1.00772 0.99938
0.816198 0.909228 0.941775 0.953181
0.78923 0.901457 0.922343 0.949218
0.986864 0.973647 1.01404 0.999543
0.921525 0.936384 0.993675 0.990395
0.856589 0.912929 0.970244 0.967063
0.785614 0.932579 0.896096 0.94009
0.813001 0.892359 0.958944 0.950077
1.00083 0.977781 1.02386 0.999711
0.80072 0.896218 0.931301 0.95935
0.816855 0.926973 0.926482 0.951132
0.75021 0.899636 0.892085 0.934781
0.958784 0.947924 1.01396 0.997532
0.914325 0.935991 1.00502 0.971976
0.860012 0.931821 0.969391 0.952079
1.00822 0.998497 1.01069 0.999057
1.02335 0.995788 1.02843 0.99927
1.02325 0.984084 1.04025 0.999566
1.00091 1 1.00277 0.998147
1.00595 1 1.00765 0.998322
1.04189 0.999625 1.04306 0.999251
1.002 1 1.00373 0.998277
1.03615 0.999228 1.03791 0.999079
1.04636 0.995776 1.05141 0.999421
1.03547 0.991052 1.04535 0.999489
1.02246 0.998338 1.02513 0.999058
1.00169 1 1.00327 0.998419
1.00172 1 1.0033 0.998425
1.0043 1 1.00566 0.998644
1.0073 0.999251 1.00913 0.998933
1.00116 1 1.00272 0.998441
1.00207 1 1.00324 0.99884
0.997727 1.00016 0.998814 0.998747
1.00256 1.00038 1.00469 0.99749
1.00044 1.0012 1.00086 0.998382
0.999367 1.00094 1.00058 0.997855
0.99893 1.00134 1.00101 0.996579
1.01391 1.01616 1.00129 0.996504
1.00275 1.00229 1.00276 0.997703
1.00073 1.00245 1.00138 0.996909
1.00955 1 1.01148 0.998088
1.0041 1.00069 1.00536 0.998066
0.998875 1 1.00065 0.99823
1.00451 1 1.00632 0.998196
1.00715 1 1.00882 0.998337
1.00097 1 1.00229 0.998685
1.00382 1 1.00535 0.99847
0.999442 1 1.00061 0.99883
0.999465 1 1 0.999465
0.998932 1 1 0.998932
0.99953 1 1 0.99953
0.999978 1 1 0.999978
0.999554 1 1 0.999554
0.999983 1 1 0.999983
1 1 1 1
0.999989 1 1 0.999989
1 1 1 1
1 1 1 1
0.998853 1 1 0.998853
0.999652 1 1 0.999652
0.999107 1 1 0.999107
1 1 1 1
0.999799 1 1 0.999799
0.999207 1 1 0.999207
1 1 1 1
1 1 1 1
0.999905 1 1 0.999905
1 1 1 1
1 1 1 1
1 1 1 1
0.816662 0.91491 0.937548 0.952073
0.709657 0.816146 0.922135 0.942945
0.753784 0.854703 0.925201 0.953225
0.998393 1 1 0.998393
0.796021 0.900001 0.929305 0.951751
0.792655 0.901616 0.931125 0.94418
0.678338 0.806718 0.897698 0.936686
0.956456 0.993672 0.971718 0.990562
0.897361 0.957842 0.963028 0.972824
0.734269 0.853814 0.906238 0.948964
0.685734 0.833836 0.882016 0.932393
0.918089 0.970331 0.959559 0.986036
0.878832 0.929982 0.972511 0.971711
0.759533 0.858278 0.932437 0.949071
0.747939 0.896119 0.892342 0.935339
0.874204 0.927858 0.958626 0.982838
0.869271 0.911473 0.984252 0.968959
0.826433 0.903651 0.962107 0.95057
0.787535 0.932651 0.898761 0.939521
1.00108 1 1.00308 0.998002
1.003 1 1.00483 0.998178
0.998865 1 1.00025 0.998617
0.998213 1 1.00002 0.998197
0.998741 1 1.00056 0.998178
0.998563 1 1 0.998563
0.998518 1 1 0.998518
0.998649 1 1.00003 0.998624
0.971383 1.00457 0.968963 0.997942
0.965638 1.00076 0.9665 0.998351
1.00753 1 1.00962 0.997927
1.00521 1.00297 1.00415 0.998093
1.02943 1 1.03159 0.997905
1.00867 1 1.0108 0.997893
1.00536 1 1.00743 0.997946
0.954621 0.980706 0.974949 0.998414
1.01786 1 1.01984 0.998059
1.02915 1.0003 1.03046 0.998429
0.977704 0.987831 0.990456 0.999285
1.00731 1 1.00923 0.9981
0.945089 0.963741 0.982555 0.998056
1.00216 0.984083 1.0189 0.999475
1.0524 0.997211 1.05689 0.998536
1.01826 0.999911 1.02015 0.998231
0.810125 0.898662 0.936794 0.962303
0.829156 0.917412 0.946263 0.955124
0.74531 0.8321 0.948247 0.944582
1.00374 0.998648 1.00578 0.999331
0.989672 0.976638 1.01398 0.999374
0.816274 0.910856 0.938652 0.954733
0.882708 0.913509 0.994653 0.971477
0.910314 0.934277 0.98715 0.987035
0.811069 0.890703 0.959904 0.94863
0.790195 0.902672 0.922165 0.949283
0.786573 0.933031 0.896264 0.940605
1.00552 0.985026 1.02114 0.999669
0.80237 0.897728 0.931679 0.959319
0.816552 0.924809 0.926213 0.95328
0.968126 0.953656 1.01583 0.999355
0.746061 0.894308 0.891774 0.935476
0.890526 0.919059 0.999378 0.969558
0.865113 0.937204 0.97 0.951628
0.998161 0.971861 1.02733 0.999741
0.827487 0.919639 0.935494 0.961839
0.793333 0.896428 0.929587 0.952029
0.690013 0.842778 0.877124 0.933432
0.824739 0.902664 0.96173 0.95003
0.94776 0.947292 1.00605 0.99448
0.922858 0.934539 1.02255 0.965727
1.02106 0.996703 1.02527 0.999188
1.02532 0.984478 1.04197 0.999534
1.01319 0.972622 1.04214 0.999582
1.00291 1 1.00463 0.998283
1.03876 0.999289 1.04045 0.999091
1.05005 0.996722 1.05414 0.999396
1.01763 0.998617 1.02001 0.999045
1.0352 0.992878 1.04316 0.999488
1.01017 0.987936 1.02329 0.999235
1.0069 0.999748 1.00826 0.998903
1.00092 1 1.00248 0.998441
1.00478 1 1.00597 0.998819
1.01126 0.999724 1.01344 0.998123
0.999028 1 1 0.999028
0.999984 1.00028 1.00202 0.99769
1.0025 1.00115 1.00516 0.996219
1.00516 1.00746 1.00188 0.995843
1.00013 1.00198 1.0004 0.997756
0.999572 1.002 1.00119 0.996385
1.01511 1.01805 1.00053 0.996591
1.00885 1.0091 1.00261 0.99715
1.01293 1.01511 1.00125 0.9966
1.00756 1.00007 1.00962 0.997892
1.00527 1.00425 1.00335 0.997675
0.999101 1.00086 1.00128 0.996968
1.00587 1 1.00739 0.998485
1.00884 1 1.01075 0.998108
1.00535 1.00117 1.00613 0.998065
1.00662 1 1.00826 0.998373
1.0015 1 1.00281 0.998685
0.999586 1 1.00025 0.999338
0.999592 1 1.00076 0.99883
0.99947 1 1.00001 0.99946
0.999971 1 1 0.999971
0.999527 1 1 0.999527
0.999977 1 1 0.999977
1 1 1 1
0.999981 1 1 0.999981
1 1 1 1
1 1 1 1
0.998764 1 1 0.998764
0.999496 1 1 0.999496
0.9989 1 1 0.9989
1 1 1 1
0.999636 1 1 0.999636
0.999105 1 1 0.999105
1 1 1 1
1 1 1 1
0.999748 1 1 0.999748
1 1 1 1
1 1 1 1
1 1 1 1
0.807316 0.899314 0.934565 0.960556
0.81912 0.914336 0.940969 0.952065
0.710465 0.815919 0.923278 0.943111
0.998431 1 1 0.998431
0.998356 1 1 0.998356
0.998314 1 1 0.998314
0.816554 0.928741 0.924636 0.950867
0.792535 0.899408 0.92576 0.951839
0.791525 0.901026 0.930541 0.944043
0.924341 0.976215 0.958297 0.988067
0.858328 0.921864 0.961854 0.968005
0.753905 0.843821 0.936728 0.953789
0.758278 0.904803 0.897479 0.933792
0.877029 0.932816 0.953894 0.985639
0.878719 0.917554 0.988071 0.969237
0.807097 0.882633 0.961138 0.951392
0.785937 0.933036 0.896148 0.939959
0.87862 0.923658 0.967371 0.983325
0.894811 0.923107 0.998904 0.97041
0.860041 0.929746 0.971284 0.952377
0.76077 0.907011 0.894798 0.93738
0.998742 1 1.00064 0.9981
1.00172 1 1.00376 0.997969
1.00289 1 1.00476 0.998133
0.998197 1 1.00001 0.998185
0.998589 1 1.00034 0.998251
0.998524 1 1 0.998524
0.95599 0.977133 0.979818 0.998514
0.973503 0.987051 0.986947 0.999318
1.00572 1 1.00778 0.997958
1.02058 1.0005 1.02164 0.998466
1.01818 1 1.02014 0.998081
1.00943 1 1.01135 0.998101
1.01553 0.998476 1.01886 0.998261
0.952927 0.963819 0.990532 0.99815
1.04951 0.996266 1.05483 0.998678
1.00596 0.979831 1.02733 0.999358
1.01043 0.99764 1.01442 0.998419
0.975104 0.958851 1.01914 0.997853
1.00817 0.976055 1.03358 0.99935
1.03569 0.985456 1.05224 0.998792
0.840527 0.925275 0.94204 0.964298
0.812257 0.899473 0.93793 0.962798
0.828558 0.917484 0.945671 0.954959
1.01111 0.991974 1.01967 0.999627
0.957017 0.950726 1.00858 0.998056
0.803711 0.898639 0.93232 0.959289
0.886433 0.907282 1.00346 0.973651
0.859926 0.93505 0.968695 0.949378
0.816926 0.923304 0.926066 0.955424
0.758668 0.90388 0.898607 0.934053
0.993844 0.968915 1.02596 0.999776
0.828245 0.918899 0.936317 0.96265
0.794657 0.899672 0.927689 0.952122
0.94341 0.942884 1.01004 0.990616
0.689581 0.844826 0.876669 0.93107
0.802191 0.880436 0.958529 0.950549
0.931786 0.941077 1.01995 0.97076
1.00219 0.957584 1.04787 0.99877
0.808166 0.898208 0.936542 0.96072
0.802493 0.908095 0.935391 0.94475
0.613321 0.754956 0.868619 0.935269
0.746143 0.853996 0.921176 0.94847
0.896247 0.920104 1.00456 0.969648
0.921723 0.938065 0.994762 0.987753
1.02606 0.984799 1.04242 0.999501
1.01789 0.979687 1.03943 0.999586
1.01015 0.982792 1.02834 0.999508
1.0119 0.998977 1.01392 0.999032
1.03202 0.994135 1.03864 0.999487
1.0139 0.985487 1.02953 0.999319
1.00799 0.999264 1.00995 0.998797
1.00753 1 1.00874 0.998796
1.00898 0.999893 1.01119 0.997925
1.0212 1.00086 1.02395 0.996458
0.997309 1.00005 0.999362 0.997893
1.00394 1.00137 1.00637 0.996228
1.00456 1.00252 1.00672 0.995343
1.00669 1.00938 1.00191 0.995434
1.0084 1.01115 1.00108 0.996207
1.00508 1.00733 1.00199 0.99579
0.999879 1.00246 1.00124 0.996192
1.00788 1.0099 1.0011 0.996907
1.01553 1.01842 1.00048 0.996678
1.00281 1.00071 1.00464 0.997468
1.01062 1.01067 1.00274 0.997223
1.01252 1.01469 1.00117 0.996696
1.00969 1 1.01154 0.998174
1.00725 1.0006 1.00878 0.997888
1.00782 1.00634 1.00383 0.997646
1.00024 1 1.00106 0.999177
1.00513 1 1.00665 0.998483
1.00775 1 1.00964 0.998128
1.00141 1 1.00273 0.998685
0.999682 1 1.00035 0.999333
0.99995 1 1 0.99995
0.999457 1 1 0.999456
0.999966 1 1 0.999966
1 1 1 1
0.999976 1 1 0.999976
1 1 1 1
1 1 1 1
0.998724 1 1 0.998724
0.999472 1 1 0.999472
0.998792 1 1 0.998792
0.999997 1 1 0.999997
0.99954 1 1 0.99954
0.998947 1 1 0.998947
1 1 1 1
1 1 1 1
0.999619 1 1 0.999619
1 1 1 1
1 1 1 1
1 1 1 1
0.826549 0.919427 0.93486 0.961623
0.810183 0.900216 0.936967 0.960533
0.820883 0.913244 0.944096 0.952092
1.00105 1 1.00282 0.998236
1.00112 1 1.00302 0.998108
0.998468 1 1 0.998468
0.998342 1 1 0.998342
0.998309 1 1 0.998309
0.998784 1 1.00049 0.998294
0.998294 1 1 0.998294
0.791445 0.905635 0.920953 0.948921
0.819097 0.926948 0.927186 0.953045
0.791665 0.897632 0.926481 0.951932
0.785339 0.933541 0.89455 0.940415
0.873874 0.931247 0.954452 0.983173
0.878311 0.913494 0.991802 0.969433
0.816036 0.894628 0.957064 0.953073
0.867733 0.924795 0.955151 0.982355
0.89476 0.916076 1.01039 0.966686
0.863412 0.935149 0.969524 0.952311
0.747823 0.895539 0.888508 0.939838
0.898222 0.930441 0.97998 0.985094
0.909484 0.926457 1.01585 0.966367
0.802221 0.888802 0.951137 0.948956
0.707307 0.855612 0.885283 0.933789
1.01799 1 1.01962 0.998398
1.00033 1 1.00221 0.998123
1.00278 1 1.00486 0.997937
0.998175 1 1 0.998175
0.961416 0.964713 0.998303 0.998276
1.00789 0.97775 1.03161 0.999236
1.00881 1 1.01073 0.998102
1.01258 0.998291 1.01605 0.998291
1.04098 0.993239 1.04931 0.998821
1.00948 0.999238 1.01185 0.998421
1.03802 0.985533 1.05455 0.998779
0.975022 0.958563 1.02076 0.996484
1.00673 0.966849 1.04177 0.999501
1.01175 0.98721 1.02598 0.998906
0.953665 0.929266 1.03035 0.99603
1.00932 0.962334 1.04957 0.999295
0.811505 0.898198 0.938758 0.962422
0.838493 0.924213 0.939597 0.965574
0.814436 0.900134 0.939277 0.963288
0.989402 0.964441 1.02608 0.999805
0.949317 0.94707 1.00757 0.99484
0.826994 0.91731 0.935723 0.963471
0.931506 0.944708 1.02028 0.966426
0.806632 0.887791 0.954076 0.952318
0.796172 0.901879 0.9271 0.952209
0.68487 0.832007 0.882557 0.932692
1.00327 0.960137 1.04601 0.998958
0.809766 0.901379 0.935112 0.960701
0.796366 0.903155 0.93347 0.944605
0.924076 0.938316 0.994463 0.990307
0.616952 0.767382 0.8639 0.930629
0.750009 0.850237 0.929832 0.948685
0.895124 0.917479 1.00892 0.967007
0.994598 0.965814 1.03272 0.997171
0.818412 0.917048 0.93708 0.952365
0.676296 0.799045 0.904006 0.936256
0.719735 0.835062 0.902849 0.954638
0.860002 0.898937 0.985977 0.970294
0.884213 0.916497 0.980595 0.983867
1.02413 0.983974 1.04123 0.99959
1.0124 0.980364 1.03318 0.99951
0.983194 0.977832 1.00619 0.999301
1.01891 0.983646 1.03647 0.999402
1.00547 0.991663 1.01505 0.99889
1.00207 1.0008 1.00353 0.997749
1.00685 1.00003 1.00912 0.997726
1.01906 1.0008 1.02198 0.99634
1.01033 1.00054 1.01437 0.995478
1.00576 1.00186 1.00768 0.996238
1.00528 1.00229 1.00777 0.995251
1.00182 1.00231 1.00448 0.995049
1.02395 1.02846 1 0.995618
1.0151 1.01867 1.00077 0.995733
1.00703 1.00951 1.00218 0.995377
1.00661 1.01 1.00013 0.996509
1.00716 1.01018 1.00074 0.996271
1.0051 1.00714 1.00225 0.995737
1.00529 1.00722 1.00112 0.996971
1.00762 1.00968 1.00108 0.99688
1.01568 1.01854 1.00043 0.996764
1.00602 1.00042 1.00785 0.997773
1.0037 1.00154 1.00463 0.997541
1.01213 1.01197 1.00288 0.997296
1.00392 1 1.00503 0.998903
1.00835 1 1.01019 0.99818
1.00701 1.00114 1.008 0.997885
0.999911 1 1 0.999911
1.00091 1 1.00174 0.99917
1.00476 1 1.00629 0.998482
0.999946 1 1.00062 0.999329
0.999941 1 1 0.999941
1 1 1 1
0.999961 1 1 0.999961
1 1 1 1
1 1 1 1
1.00395 1 1.00573 0.998229
0.999322 1 1.00075 0.99857
0.999344 1 1 0.999344
0.99872 1 1 0.99872
0.999983 1 1 0.999983
0.999475 1 1 0.999475
0.99882 1 1 0.99882
1 1 1 1
0.999998 1 1 0.999998
0.999583 1 1 0.999583
1 1 1 1
1 1 1 1
1 1 1 1
0.800837 0.896625 0.931128 0.959233
0.824302 0.916829 0.934155 0.962451
0.811003 0.902751 0.93531 0.960504
1.00173 1 1.00349 0.998247
1.00289 1 1.00478 0.998113
1.00056 1 1.00243 0.998132
1.00323 1 1.00512 0.998122
1.0075 1 1.00944 0.99808
0.998648 1 1.00032 0.998328
0.998305 1 1 0.998305
0.998723 1 1.00043 0.998297
0.9983 1 1 0.9983
1.01105 1 1.01271 0.998361
0.788778 0.894189 0.933623 0.94483
0.79151 0.904221 0.922348 0.949046
0.820524 0.926301 0.927342 0.955211
0.750035 0.897518 0.888961 0.940061
0.860969 0.933713 0.970869 0.949759
0.86278 0.920481 0.955528 0.980939
0.903144 0.923962 1.00769 0.97001
0.892952 0.933051 0.974638 0.981928
0.918461 0.937634 1.00975 0.970092
0.81657 0.892921 0.961636 0.950976
0.70746 0.862458 0.879475 0.932696
0.908334 0.924587 0.998083 0.984308
0.900765 0.918158 1.01063 0.970739
0.733129 0.828163 0.928525 0.95339
0.648741 0.798619 0.869034 0.934749
1.01787 1 1.01891 0.998973
1.0195 1 1.02112 0.998412
1.00314 1 1.005 0.998145
0.976622 0.960562 1.02177 0.995055
1.00881 0.960562 1.05058 0.99966
1.00965 1 1.01125 0.998422
1.04197 0.984953 1.05919 0.998767
1.01381 0.990634 1.02451 0.998912
1.01552 0.970044 1.04763 0.999283
0.958788 0.93897 1.02523 0.995975
1.0166 0.991783 1.0257 0.999345
0.97013 0.956175 1.0181 0.996558
0.828615 0.917134 0.946178 0.954877
0.815051 0.900326 0.940157 0.962908
0.836187 0.922816 0.937187 0.966856
1.0045 0.966568 1.04016 0.999121
0.919461 0.935002 0.997325 0.986015
0.813952 0.904491 0.936738 0.960674
0.898046 0.92406 1.00467 0.967333
0.743023 0.833811 0.934732 0.953339
0.789455 0.898241 0.930544 0.94449
0.622337 0.780848 0.860793 0.925894
0.992231 0.964051 1.03191 0.997405
0.818938 0.913864 0.940968 0.952345
0.673205 0.797858 0.902546 0.934872
0.894228 0.926572 0.979434 0.985357
0.733061 0.842285 0.913558 0.952676
0.856098 0.906814 0.975364 0.967918
0.951015 0.950098 1.00533 0.995663
0.710625 0.817079 0.924292 0.940952
0.728753 0.835868 0.912683 0.955261
0.870908 0.926128 0.971241 0.96822
0.8624 0.915481 0.955181 0.98622
1.01143 0.977496 1.03522 0.999512
0.985443 0.974702 1.01175 0.999276
0.994801 0.991797 1.0046 0.99844
1.00161 0.982447 1.02054 0.998979
1.00195 1.00074 1.00337 0.997836
0.998007 1.0021 0.999119 0.996791
1.01685 1.00071 1.01998 0.996221
1.00905 1.00095 1.01267 0.995481
0.999162 1.00206 1.00137 0.995744
1.00548 1.002 1.00836 0.995161
1.00206 1.0033 1.0037 0.995084
1.02147 1.02573 1 0.995843
1.04632 1.05027 1 0.996242
1.03426 1.03871 1.00002 0.995706
1.02411 1.02859 1 0.995647
1.01811 1.02217 1 0.996022
1.01372 1.01703 1.00107 0.995679
1.00775 1.01003 1.00244 0.99532
1.01051 1.01389 1 0.996665
1.00497 1.00839 1.00002 0.996584
1.00569 1.00907 1.00032 0.996335
1.00203 1.0026 1.00208 0.997357
1.00416 1.00587 1.0013 0.99701
1.00761 1.00968 1.0011 0.996854
1.00847 1 1.01003 0.99845
1.00692 1.00089 1.00828 0.997776
1.00464 1.00223 1.0048 0.997612
0.999995 1 1.00015 0.999844
1.00428 1 1.00539 0.998895
1.00761 1 1.00944 0.998186
0.999993 1 1 0.999993
0.999898 1 1 0.999898
1.00146 1 1.0023 0.999163
0.999932 1 1 0.999932
1 1 1 1
1 1 1 1
1.00578 1 1.00768 0.998116
1.00183 1 1.00342 0.99841
1.00486 1 1.00666 0.998208
0.999524 1 1.00032 0.999207
0.999534 1 1.00097 0.998567
0.999958 1 1 0.999958
0.999348 1 1 0.999348
0.998716 1 1 0.998716
1 1 1 1
0.999988 1 1 0.999988
0.999478 1 1 0.999478
1 1 1 1
1 1 1 1
1 1 1 1
0.814986 0.910688 0.936951 0.955132
0.804384 0.899317 0.932476 0.95921
0.824634 0.913966 0.936651 0.963283
0.999235 1.00072 1.00039 0.998126
1.00176 1 1.0035 0.998258
1.00225 1 1.00414 0.998118
1.00096 1 1.00286 0.998111
1.00054 1 1.00238 0.998156
1.00446 1 1.00628 0.99819
1.01241 1 1.0147 0.997743
1.01605 1 1.01792 0.998157
0.998483 1 1.00018 0.9983
0.998306 1 1 0.998306
1.01141 1 1.01309 0.998345
1.02541 0.999754 1.02715 0.998556
0.686186 0.805403 0.910162 0.936074
0.800349 0.905342 0.935911 0.944566
0.79236 0.903954 0.923518 0.949141
0.702314 0.856296 0.876584 0.935651
0.815798 0.894371 0.960168 0.949987
0.912988 0.930776 1.01495 0.966443
0.893301 0.925235 0.982519 0.982664
0.906885 0.92478 0.994269 0.986302
0.636233 0.790504 0.865262 0.930175
0.894364 0.917668 1.0074 0.967445
0.748906 0.847162 0.930276 0.950275
0.907255 0.933817 0.983724 0.987629
0.882757 0.91755 0.989816 0.971979
0.719665 0.834605 0.904583 0.953238
0.994844 1 0.995305 0.999537
1.01694 1 1.01798 0.998978
1.01995 1 1.02156 0.998424
0.958381 0.941047 1.02251 0.996001
1.02206 0.977945 1.04587 0.999273
1.0154 0.994691 1.02192 0.998919
1.01552 0.991713 1.02468 0.999344
0.966485 0.954756 1.01574 0.996603
0.991485 0.985314 1.00856 0.997724
0.743583 0.833478 0.946289 0.942783
0.825622 0.916245 0.941773 0.956806
0.815566 0.9015 0.939064 0.963382
0.993345 0.96328 1.03373 0.997561
0.884304 0.922541 0.971931 0.986235
0.817357 0.910848 0.942236 0.95237
0.864409 0.89979 0.991548 0.968868
0.738053 0.857178 0.906754 0.94957
0.680371 0.807314 0.899117 0.937319
0.951628 0.94704 1.00915 0.995734
0.710673 0.816857 0.922192 0.943415
0.726817 0.837732 0.911185 0.952168
0.86109 0.916742 0.955687 0.982847
0.878021 0.933012 0.968388 0.97178
0.94612 0.961745 0.985808 0.997916
0.74926 0.848957 0.927122 0.95194
0.91199 0.970826 0.965026 0.97344
0.868559 0.928734 0.951773 0.982596
0.988736 0.972891 1.01704 0.999257
0.986177 0.991621 0.995976 0.998528
0.994835 1.00105 0.996252 0.997534
1.00227 1.00082 1.00353 0.997923
1.0011 1.0025 1.00185 0.996767
1.00056 1.00441 0.999428 0.996738
1.00786 1.00134 1.01108 0.995485
0.999082 1.00167 1.00167 0.995752
1.02537 1.03025 0.998571 0.996692
1.00236 1.00408 1.00319 0.995119
1.02021 1.02446 1 0.995854
1.0469 1.05099 0.999246 0.996856
1.04886 1.05235 0.999762 0.996917
1.04848 1.05252 1 0.996157
1.0468 1.0507 1 0.996288
1.036 1.04023 1 0.995931
1.03255 1.03694 1 0.995768
1.02367 1.02812 1 0.995677
1.02478 1.02853 1 0.996354
1.01843 1.02233 1.00014 0.996047
1.01244 1.01539 1.00148 0.995624
1.00637 1.0094 1 0.997
1.01015 1.01354 1 0.99666
1.00323 1.0066 1 0.996658
1.00353 1.00032 1.00521 0.997997
1.00398 1.00429 1.00234 0.997352
1.00264 1.00415 1.00145 0.997049
1.00123 1 1.00154 0.999691
1.00636 1.00001 1.00791 0.998447
1.00692 1.0014 1.00776 0.997778
1 1 1 1
1.00037 1 1.00055 0.999818
1.00404 1 1.00516 0.998888
1 1 1 1
0.999886 1 1 0.999886
1 1 1 1
1.00038 1.00055 1.00185 0.997981
1.00468 1 1.0066 0.998099
1.00549 1 1.00725 0.99826
1.0007 1 1.00164 0.999061
1.00249 1 1.00409 0.998407
1.00568 1 1.00751 0.998187
0.999921 1 1 0.999921
0.999312 1 1.0001 0.999212
0.999319 1 1.00076 0.998564
1 1 1 1
0.999965 1 1 0.999965
0.999353 1 1 0.999353
1 1 1 1
0.999993 1 1 0.999993
1 1 1 1
0.716614 0.818491 0.933374 0.938028
0.816805 0.912415 0.93724 0.955157
0.808198 0.902294 0.933825 0.959189
1.00151 1.00028 1.00313 0.998103
1.00573 1.00299 1.00498 0.997756
1.00959 1.00028 1.0114 0.997931
1.00238 1 1.00429 0.998099
1.00027 1 1.00209 0.99818
1.00489 1 1.00661 0.998298
1.01523 1 1.01715 0.998113
1.01211 1.0001 1.01423 0.997811
1.01542 1.00092 1.01681 0.997718
0.985824 1.00111 0.985744 0.998968
1.01003 1 1.01173 0.998328
1.02124 0.999874 1.02287 0.998534
0.727918 0.834261 0.918748 0.949695
0.670271 0.790938 0.907878 0.933428
0.80792 0.911675 0.938352 0.944415
0.624342 0.781552 0.863182 0.925471
0.752143 0.851156 0.926648 0.953622
0.882344 0.912005 0.998126 0.969293
0.912879 0.930306 0.997577 0.98365
0.895313 0.925421 0.98189 0.985309
0.72283 0.829453 0.9156 0.951784
0.864473 0.907286 0.983401 0.968895
0.88185 0.930983 0.960005 0.986687
0.861072 0.930228 0.955514 0.968753
1.00229 1 1.00327 0.999021
0.995776 1 0.996291 0.999483
1.01614 1 1.01717 0.998983
0.962453 0.953179 1.01312 0.996652
1.01414 0.990899 1.02413 0.999344
0.992675 0.987033 1.00807 0.997667
0.978359 0.9908 0.990699 0.996714
0.763325 0.865306 0.922686 0.956063
0.74266 0.831644 0.94661 0.943369
0.827142 0.917921 0.93993 0.958693
0.954894 0.953863 1.0052 0.9959
0.864312 0.916451 0.959082 0.983343
0.711843 0.817316 0.923065 0.943545
0.855473 0.921886 0.958265 0.968374
0.739254 0.843079 0.91774 0.955445
0.949021 0.964241 0.987371 0.996804
0.759425 0.858884 0.926717 0.95412
0.905619 0.969671 0.963755 0.969068
0.87155 0.931092 0.95011 0.985203
0.958057 0.983596 0.9762 0.997782
0.918044 0.979132 0.96386 0.972766
0.916254 0.973407 0.953054 0.987652
0.977042 0.990461 0.987834 0.9986
0.990901 1.00145 0.991935 0.997506
0.982088 1.008 0.976851 0.997382
1.00303 1.00284 1.00346 0.996744
0.999926 1.00456 0.998648 0.996733
1.02404 1.03805 0.989071 0.9974
0.998902 1.00129 1.00186 0.99576
1.02411 1.02988 0.997717 0.996672
1.04011 1.0524 0.99085 0.997449
1.01932 1.02355 1 0.995865
1.04576 1.05052 0.99862 0.996849
1.04566 1.05311 0.995486 0.997421
1.04505 1.04941 0.99854 0.997299
1.04973 1.0534 0.999522 0.99699
1.04765 1.05105 1 0.996767
1.04996 1.05394 1 0.996221
1.04851 1.05254 1 0.996176
1.04767 1.05152 1 0.996334
1.03783 1.04182 1 0.996169
1.03771 1.04191 1 0.995961
1.03087 1.03519 1 0.99583
1.0193 1.02268 1 0.996697
1.02424 1.02799 1 0.996351
1.01867 1.02251 1.00017 0.996073
0.999464 1.00151 1.00026 0.997691
1.00791 1.01095 1 0.996997
1.01057 1.01397 1 0.996655
1.00195 1 1.00252 0.999433
1.00349 1.00062 1.00489 0.997997
1.00652 1.00618 1.003 0.997347
1 1 1 1
1.00192 1 1.00225 0.999666
1.00532 1.00003 1.00685 0.998444
0.999992 1 1 0.999992
1.00096 1 1.00116 0.999804
1 1 1 1
0.999404 1.00154 1 0.997871
1.00125 1.00036 1.00289 0.997999
1.00488 1 1.00678 0.998113
1.00287 1 1.0048 0.998082
1.00581 1 1.00757 0.99826
1.00299 1 1.0041 0.998887
0.999871 1 1 0.999871
1.00028 1 1.00122 0.999063
1.00354 1 1.00514 0.998404
1 1 1 1
0.999932 1 1 0.999932
0.999216 1 1 0.999216
1 1 1 1
0.999973 1 1 0.999973
1 1 1 1
0.756719 0.853594 0.929294 0.95396
0.719173 0.820151 0.934022 0.938821
0.816983 0.913034 0.936791 0.955176
1.00403 1 1.00596 0.998081
1.01174 1 1.01401 0.997766
1.00339 1.00191 1.00365 0.99783
1.00424 1.0064 1.00095 0.996907
1.0118 1.00136 1.01267 0.997783
1.0138 1 1.01575 0.998071
1.01028 1 1.01242 0.99788
1.01775 1.00079 1.01918 0.997808
0.999288 1.00281 0.998994 0.997497
0.97686 1.00172 0.976614 0.99853
0.974545 1.00035 0.976451 0.997698
0.98582 1.00087 0.985943 0.999005
1.01585 1 1.01736 0.998514
0.894916 0.960193 0.959406 0.971452
0.723247 0.829552 0.916715 0.951061
0.668371 0.79033 0.905067 0.93439
0.720188 0.833549 0.910807 0.948611
0.874643 0.918042 0.98315 0.969055
0.8994 0.921509 0.98816 0.987703
0.882573 0.929743 0.960392 0.988415
0.884655 0.936899 0.970638 0.972801
0.908266 0.966496 0.951609 0.98754
0.99377 1.00132 0.994233 0.998218
1.00102 1 1.00202 0.998999
0.996945 1 0.997515 0.999428
0.994978 0.990062 1.00733 0.997652
0.983825 0.993641 0.993122 0.996978
0.894368 0.966303 0.95254 0.971672
0.769499 0.863783 0.931428 0.956432
0.740631 0.828145 0.947386 0.943993
0.953404 0.969495 0.987723 0.995626
0.877517 0.938378 0.951526 0.982782
0.755822 0.855361 0.926626 0.953598
0.896878 0.95788 0.962476 0.972819
0.964939 0.983236 0.983489 0.997867
0.927508 0.989408 0.962925 0.973531
0.913626 0.969336 0.956802 0.98508
0.97375 1.00366 0.972864 0.997257
0.946146 0.993166 0.960882 0.991439
0.991207 1.00374 0.98999 0.997502
0.980603 1.00772 0.975687 0.997335
0.995204 1.03648 0.9624 0.997686
0.999281 1.00445 0.998123 0.996728
1.02555 1.03897 0.989686 0.997371
1.03705 1.06016 0.980419 0.997736
1.0227 1.02946 0.996775 0.996652
1.03978 1.05256 0.990407 0.997425
1.03433 1.05187 0.985624 0.997664
1.04429 1.04975 0.997945 0.996842
1.04546 1.05335 0.9951 0.997399
1.04273 1.05246 0.99324 0.9975
1.04505 1.04977 0.998143 0.997354
1.04365 1.04764 0.99908 0.99711
1.05032 1.0542 0.999252 0.997063
1.04747 1.05087 1 0.996758
1.04935 1.05298 1 0.996554
1.04713 1.05108 1 0.996246
1.04974 1.05374 1 0.996209
1.0485 1.0525 1 0.996195
1.03291 1.03655 1 0.996489
1.03769 1.04168 1 0.996176
1.03955 1.04374 1 0.995991
1.00363 1.00619 1 0.997457
1.0186 1.02198 1 0.996696
1.02345 1.0272 1 0.996348
1.00032 1 1.00118 0.999144
1.00095 1.00275 1.00051 0.997691
1.00909 1.01213 1 0.996993
1 1 1 1
1.00166 1 1.00225 0.999408
1.00295 1.00088 1.00408 0.997998
1 1 1 1
1.00226 1 1.00262 0.99964
1 1 1 1
1.00621 1.00919 1 0.997047
0.999832 1.00198 1 0.997857
1.00063 1.00049 1.00226 0.997888
1.00262 1 1.00461 0.998019
1.00424 1 1.00618 0.998078
1.00483 1 1.0062 0.998644
1.00671 1 1.00846 0.998261
1.00286 1 1.00398 0.998887
1.00033 1 1.00053 0.9998
1 1 1 1
0.999883 1 1 0.999883
0.999728 1 1.00066 0.999065
1 1 1 1
0.999943 1 1 0.999943
1 1 1 1
0.917351 0.979512 0.960783 0.974766
0.75865 0.860759 0.923036 0.954863
0.722621 0.822493 0.93734 0.937305
1.01344 1 1.01588 0.9976
1.00132 1.00146 1.00196 0.997905
1.00999 1.00154 1.01074 0.997729
1.0052 1.00707 1.00115 0.996996
1.01668 1.02004 1.00016 0.996546
0.999988 1.00266 1 0.99734
1.02149 1.0011 1.02251 0.997895
1.0004 1.00346 0.99964 0.9973
0.983061 1.00219 0.982368 0.998513
0.995491 1.00205 0.995907 0.997542
0.972388 1.00345 0.971229 0.997753
0.994452 1.00143 0.995749 0.997267
0.976634 1.00082 0.977969 0.997818
0.990005 1.00073 0.990235 0.999043
0.91731 0.974312 0.953386 0.987527
0.902301 0.967248 0.960251 0.971469
0.730012 0.830747 0.920337 0.954804
0.880337 0.936208 0.971178 0.968229
0.890817 0.930881 0.967197 0.989418
0.910065 0.961027 0.955473 0.991101
0.980984 1.00377 0.979942 0.997307
0.991672 1.00067 0.992821 0.998174
0.999588 1 1.00061 0.998978
0.985361 0.995499 0.992573 0.997223
0.93262 0.973354 0.969883 0.987904
0.909589 0.973472 0.957547 0.975802
0.757807 0.858046 0.926304 0.953442
0.963852 0.979107 0.986443 0.997948
0.918921 0.97537 0.954755 0.986772
0.93008 0.986889 0.967394 0.9742
0.966889 1.00188 0.967675 0.997316
0.94533 0.989131 0.964754 0.990634
0.967907 1.02461 0.947171 0.997348
0.988823 1.0173 0.975776 0.996135
0.978002 1.00745 0.973414 0.99728
0.992734 1.03455 0.961808 0.997682
1.00544 1.06054 0.950242 0.997686
1.02764 1.04046 0.990316 0.997343
1.03668 1.0599 0.98033 0.997715
1.034 1.05689 0.980677 0.997614
1.03992 1.05298 0.990172 0.9974
1.03453 1.05132 0.986358 0.997644
1.04353 1.05839 0.988464 0.997467
1.04555 1.05373 0.994841 0.997377
1.04084 1.05023 0.993546 0.997492
1.04406 1.05153 0.995657 0.997221
1.04525 1.05028 0.997799 0.997409
1.04399 1.04791 0.999104 0.997156
1.04798 1.05145 0.999922 0.99678
1.0474 1.05081 1 0.99675
1.04943 1.05307 1 0.996543
1.04896 1.05269 1 0.996448
1.04028 1.04402 1 0.996414
1.04734 1.05129 1 0.996244
1.04947 1.05347 1 0.996197
1.01175 1.01453 1 0.997255
1.03175 1.03538 1 0.996493
1.0375 1.04147 1 0.996183
0.999148 1 1.00024 0.998909
1.0058 1.00836 1.00001 0.997455
1.01773 1.0211 1 0.996695
1 1 1 1
0.999991 1 1.00086 0.999127
1.00241 1.00396 1.00076 0.997692
1 1 1 1
1.00155 1 1.00217 0.999384
1 1 1 1
1.01774 1.02118 1 0.996638
1.00835 1.0113 1 0.997078
1.00615 1.00813 1.00066 0.997376
0.999464 1.00162 1 0.997842
1.00022 1.00018 1.0022 0.997841
1.00317 1.00052 1.00433 0.998323
1.00362 1 1.00559 0.998043
1.00523 1 1.00659 0.998645
1.00193 1 1.00224 0.999698
1.00316 1 1.00428 0.998887
1.00022 1 1.00041 0.999811
1 1 1 1
1 1 1 1
0.999896 1 1 0.999896
1 1 1 1
0.922702 0.974793 0.957779 0.988289
0.907963 0.97861 0.95543 0.97109
0.752934 0.853606 0.922137 0.956542
1.03337 1.03704 1.00007 0.996393
1.00819 1.00136 1.00917 0.997676
1.0063 1.00788 1.00135 0.997086
1.00029 1.00297 1 0.997331
1.01552 1.01863 1.00042 0.996527
1.0046 1.00749 0.999839 0.997288
1.00011 1.00302 1 0.997104
0.984653 1.00188 0.984286 0.998496
0.993522 1.0025 0.993476 0.997553
0.965984 1.00245 0.965916 0.997626
1.00568 1.0129 0.995994 0.996873
0.997785 1.00703 0.993493 0.997313
0.994979 1.00205 0.995693 0.997236
0.977632 1.00134 0.978344 0.997938
0.978827 1.00613 0.975005 0.997808
0.911794 0.971106 0.952078 0.986182
0.901881 0.968645 0.957999 0.971895
0.904888 0.954432 0.958799 0.988831
0.983935 1.00516 0.98076 0.998084
0.991584 1.0002 0.99325 0.998123
0.981349 1.00683 0.978934 0.995665
0.917714 0.95813 0.96813 0.989348
0.897125 0.970448 0.951268 0.971802
0.964457 0.999686 0.9673 0.997374
0.952956 0.99118 0.971552 0.989587
0.971862 1.02602 0.949618 0.997468
0.991941 1.01715 0.978715 0.99642
0.992274 1.04213 0.954528 0.997519
1.04501 1.06308 0.985591 0.997375
0.989611 1.03205 0.96111 0.997676
1.01022 1.0619 0.95355 0.99767
1.02376 1.06935 0.959788 0.997469
1.03558 1.05913 0.980026 0.997695
1.03161 1.05536 0.979831 0.997611
1.04344 1.06533 0.982058 0.99735
1.03438 1.05058 0.986921 0.997625
1.04184 1.05699 0.988154 0.99748
1.04601 1.05742 0.992015 0.99717
1.0388 1.04795 0.993769 0.997485
1.04455 1.05201 0.995679 0.997219
1.05 1.05453 0.998801 0.996894
1.04426 1.04811 0.999124 0.997202
1.04841 1.05182 0.999935 0.996824
1.05096 1.05462 1 0.996531
1.04951 1.05316 1 0.996532
1.0487 1.05245 1 0.996432
1.04275 1.04646 1 0.996454
1.0185 1.02143 1 0.997133
1.03968 1.04341 1 0.996426
1.04753 1.05148 1 0.996242
0.999292 1.00053 1 0.998758
1.01305 1.01584 1 0.997254
1.03079 1.03441 1 0.996497
1 1 1 1
0.999093 1.00012 1.00008 0.998895
1.00823 1.0108 1 0.997454
1 1 1 1
0.999546 1 1.00044 0.99911
1 1 1 1
1.03245 1.03622 1 0.996358
1.01977 1.02321 1 0.996634
1.01667 1.01976 1 0.996968
1.01099 1.01391 1.00001 0.997108
1.00571 1.0078 1.00056 0.997368
1.00326 1.00312 1.00215 0.997988
0.99975 1 1.00196 0.997793
1.00372 1.0002 1.00521 0.998325
1.0019 1 1.00236 0.999544
1.0047 1 1.00606 0.998647
1.00103 1 1.00132 0.99971
1 1 1 1
0.999892 1 1.00007 0.999822
1 1 1 1
1 1 1 1
0.976865 1.01057 0.969064 0.99751
0.917383 0.972207 0.957302 0.985696
0.906594 0.969952 0.958527 0.97512
1.02383 1.02705 1.00001 0.996848
1.04337 1.04704 1 0.9965
1.03143 1.03495 1.00013 0.996467
1.00098 1.00367 1 0.997321
1.01428 1.01709 1.00073 0.996506
1.00602 1.00982 0.998967 0.997267
1.02462 1.03007 0.997882 0.996819
0.992928 1.00359 0.991786 0.997565
0.962867 1.00189 0.963463 0.997497
1.0068 1.01476 0.995175 0.996971
1.02352 1.03502 0.992148 0.996713
1.00197 1.0257 0.979292 0.997527
1.00154 1.00899 0.995338 0.997266
0.996262 1.00262 0.996441 0.997204
0.983144 1.00783 0.977391 0.998074
0.915863 0.974135 0.954746 0.984744
0.984126 1.00534 0.979989 0.998885
1.02474 1.04941 0.978472 0.997975
0.979332 1.00561 0.977979 0.995796
0.921268 0.969156 0.963022 0.987088
0.97485 1.02777 0.950807 0.997583
0.994963 1.01749 0.981073 0.996721
0.989233 1.04259 0.95104 0.99767
1.04412 1.06428 0.983622 0.997395
1.0401 1.07564 0.969493 0.997383
1.07617 1.09652 0.983884 0.997522
1.0149 1.06402 0.95607 0.997654
1.02956 1.07093 0.963807 0.997469
1.04675 1.07525 0.976174 0.997256
1.02945 1.05397 0.979078 0.997607
1.04314 1.06442 0.982618 0.99735
1.04665 1.06326 0.987201 0.997136
1.04024 1.05564 0.987887 0.997493
1.04659 1.05799 0.992036 0.997167
1.05089 1.05849 0.995902 0.996903
1.04502 1.05246 0.995703 0.997217
1.0504 1.0549 0.998837 0.996893
1.05424 1.05787 1 0.996571
1.04883 1.05218 0.999949 0.996868
1.05048 1.05412 1 0.996545
1.04601 1.04974 1 0.99645
1.04846 1.05223 1 0.996416
1.0427 1.04641 1 0.996454
1.02076 1.02376 1 0.99707
1.00078 1.00208 1 0.998704
1.01839 1.02132 1 0.997132
1.0393 1.04301 1 0.996439
1 1 1 1
0.999638 1.00089 1 0.998746
1.01427 1.01707 1 0.997254
1 1 1 1
0.999004 1.00012 1 0.998882
1 1 1 1
1.0409 1.04473 1 0.996331
1.03196 1.03574 1 0.996352
1.02612 1.02955 1 0.996669
1.02101 1.02446 1 0.99663
1.01583 1.01892 1 0.996975
1.00637 1.00834 1.00035 0.997698
1.00452 1.00671 1.00046 0.997361
1.00262 1.00206 1.00257 0.997991
1.0005 1 1.00119 0.99931
1.00518 1 1.00686 0.998327
1.00191 1 1.00235 0.999562
1 1 1 1
1.00069 1 1.00097 0.999721
1 1 1 1
1 1 1 1
1.00416 1.04134 0.96626 0.997968
0.973823 1.00952 0.96786 0.996672
0.918605 0.974162 0.955958 0.986413
1.03833 1.04179 0.999968 0.996703
1.02522 1.02825 1 0.997049
1.05828 1.06199 0.999917 0.996591
1.0439 1.04758 1 0.996483
1.02955 1.03294 1.00018 0.996542
1.04875 1.05789 0.994755 0.996594
1.00752 1.0124 0.997929 0.997247
1.0248 1.02971 0.998473 0.996757
1.04312 1.06735 0.980357 0.99688
1.0065 1.0165 0.993067 0.997069
1.02425 1.03579 0.992177 0.996649
1.00294 1.02817 0.977839 0.997563
1.00262 1.00925 0.996201 0.997217
0.988083 1.00956 0.980378 0.99832
1.06225 1.0873 0.97935 0.99756
1.02809 1.04928 0.981766 0.998
0.978164 1.0044 0.977868 0.995924
0.986936 1.04224 0.949004 0.997819
1.04204 1.06431 0.981616 0.997415
1.03531 1.07431 0.966198 0.997406
1.07838 1.09905 0.983633 0.997514
1.06419 1.08928 0.97951 0.9974
1.0351 1.07214 0.967901 0.997469
1.04746 1.07457 0.977441 0.997265
1.04779 1.0685 0.983404 0.997164
1.0428 1.06347 0.983178 0.997349
1.0467 1.06309 0.987431 0.997116
1.0496 1.06087 0.992464 0.996891
1.04719 1.05857 0.99206 0.997164
1.05124 1.05881 0.995931 0.996899
1.05721 1.06124 0.999603 0.996598
1.0508 1.05526 0.998871 0.996892
1.05414 1.05777 1 0.996574
1.05044 1.05421 1 0.996422
1.05 1.05363 1 0.99656
1.04597 1.04969 1 0.996456
1.02158 1.02465 1 0.997002
1.04258 1.04629 1 0.996454
1.02102 1.02402 1 0.997069
1.00207 1.00314 1 0.998933
0.99958 1 1 0.99958
1.00117 1.00237 1 0.998802
1.01791 1.02084 1 0.997132
1 1 1 1
1.00002 1.00129 1 0.998734
1 1 1 1
1.06363 1.06725 0.999923 0.996687
1.04982 1.05354 1 0.996474
1.04171 1.04554 1 0.99634
1.034 1.0376 1 0.996535
1.03193 1.03571 1 0.996347
1.02727 1.0307 1 0.996666
1.01161 1.0142 1 0.997451
1.01566 1.01873 1 0.996981
1.00477 1.0066 1.00048 0.9977
0.999151 1 1.00012 0.99903
1.00177 1.00096 1.00282 0.997992
1.00083 1 1.0015 0.999329
1 1 1 1
1.00147 1 1.00189 0.999579
1 1 1 1
1 1 1 1
1.05362 1.08521 0.973505 0.997307
1.00894 1.04825 0.96441 0.998014
0.970616 1.00962 0.965378 0.995847
1.05438 1.06059 0.997514 0.996624
1.0349 1.0383 0.99997 0.996753
1.02631 1.02914 1 0.997247
1.0567 1.06037 0.999924 0.996607
1.04446 1.04817 1 0.996467
1.05578 1.07803 0.982439 0.996859
1.04529 1.0548 0.994407 0.996554
1.02478 1.02894 0.999266 0.996694
1.04108 1.06516 0.980457 0.996876
1.028 1.03892 0.992875 0.996585
1.00799 1.03514 0.976114 0.997607
1.06419 1.08538 0.982929 0.997501
1.06533 1.08986 0.979839 0.997597
1.03072 1.04953 0.984018 0.998027
1.03212 1.07433 0.963189 0.997427
1.0817 1.10256 0.983535 0.997506
1.06439 1.0903 0.978775 0.997406
1.05435 1.07019 0.987908 0.997266
1.04818 1.07383 0.978786 0.997275
1.04823 1.06825 0.984057 0.997151
1.05127 1.06305 0.991964 0.996928
1.04678 1.06295 0.987662 0.997097
1.05035 1.06162 0.992476 0.996889
1.05876 1.06418 0.99829 0.996614
1.05157 1.05912 0.995962 0.996895
1.05726 1.0613 0.999593 0.996598
1.05359 1.05741 1 0.996386
1.05407 1.05769 1 0.996577
1.05041 1.05417 1 0.996426
1.02275 1.02592 1 0.996912
1.0459 1.04962 1 0.996462
1.02236 1.02544 1 0.997002
1.00183 1.00288 1 0.998947
1.02134 1.02435 1 0.997067
1.00208 1.00316 1 0.998927
0.999606 1 1 0.999606
0.999799 1 1 0.999799
1.00175 1.00284 1 0.998908
1 1 1 1
1.05732 1.06313 0.997829 0.996694
1.05482 1.05848 1 0.996549
1.06242 1.066 0.999829 0.996813
1.04484 1.04853 1 0.996487
1.05197 1.0557 1 0.996462
1.04254 1.04637 1 0.996348
1.03499 1.0386 1 0.996526
1.01687 1.01967 1 0.997247
1.02817 1.03162 1 0.996663
1.00987 1.01245 1 0.997452
0.999392 1.00057 1 0.998818
1.00303 1.00481 1.00052 0.997703
0.99945 1 1.0004 0.999048
1 1 1 1
1.00127 1 1.00192 0.99935
1 1 1 1
1 1 1 1
1.05486 1.07923 0.980173 0.997194
1.04978 1.08111 0.973647 0.997304
1.01197 1.05213 0.963705 0.998052
1.05491 1.06957 0.989473 0.99678
1.05143 1.05787 0.997278 0.996623
1.03183 1.03515 0.999992 0.996803
1.0549 1.05856 0.999925 0.996623
1.0542 1.07608 0.982779 0.996835
1.04175 1.05163 0.994065 0.996514
1.0344 1.05798 0.980781 0.996873
1.05854 1.07359 0.98862 0.997328
1.06245 1.08342 0.983143 0.997461
1.06803 1.09186 0.9805 0.997633
1.05304 1.0648 0.991765 0.997167
1.06393 1.09089 0.977816 0.997413
1.05424 1.07024 0.987764 0.997252
1.05322 1.06397 0.992846 0.997032
1.04869 1.068 0.984733 0.997138
1.05133 1.06316 0.991913 0.99693
1.05895 1.06561 0.99711 0.996634
1.05107 1.06232 0.992494 0.996888
1.05821 1.06362 0.998301 0.996614
1.05477 1.05861 1 0.996364
1.0572 1.06125 0.999584 0.996598
1.05376 1.05758 1 0.996389
1.0235 1.02676 1 0.996827
1.05032 1.05408 1 0.996431
1.02351 1.02668 1 0.996913
1.00096 1.00204 1 0.998921
1.02321 1.02629 1 0.997002
1.00161 1.00268 1 0.998935
0.99961 1 1 0.99961
1.00205 1.00313 1 0.998925
0.999615 1 1 0.999615
1 1 1 1
1.05496 1.06371 0.995155 0.9966
1.05706 1.06111 0.999668 0.99652
1.059 1.06485 0.997809 0.996691
1.05126 1.05493 1 0.996526
1.05624 1.05992 0.999945 0.996588
1.06142 1.06496 0.999737 0.996939
1.0232 1.02618 1 0.997091
1.04455 1.04824 1 0.996477
1.05425 1.058 1 0.996449
1.03606 1.03968 1 0.996518
1.01662 1.01943 1 0.997248
1.00152 1.0028 1 0.998721
1.00855 1.01112 1 0.997453
0.999378 1.00055 1 0.998833
1 1 1 1
0.999724 1 1.00066 0.999066
1 1 1 1
1 1 1 1
1.05299 1.06921 0.98773 0.99707
1.05491 1.07957 0.979925 0.997176
1.04861 1.08 0.973561 0.997301
1.0544 1.06909 0.989427 0.996797
1.04813 1.05481 0.997036 0.996623
1.05378 1.0753 0.983117 0.996811
1.05493 1.06677 0.991721 0.997165
1.05869 1.07372 0.988653 0.997322
1.06084 1.08163 0.98331 0.997421
1.05351 1.06503 0.991971 0.997187
1.05221 1.06169 0.994064 0.996985
1.05413 1.07032 0.987596 0.997238
1.05347 1.06391 0.993167 0.996993
1.05866 1.06593 0.99645 0.996723
1.05142 1.06331 0.99186 0.996932
1.0585 1.06521 0.997057 0.996637
1.05478 1.05864 1 0.996354
1.05785 1.06325 0.998297 0.996615
1.05566 1.05951 1 0.996366
1.02333 1.02664 1 0.996774
1.054 1.05781 1 0.996392
1.0239 1.02716 1 0.996828
1.00001 1.00114 1 0.998865
1.02431 1.02748 1 0.996914
1.0007 1.0018 1 0.998903
0.999587 1 1 0.999587
1.00138 1.00245 1 0.998926
0.999629 1 1 0.999629
0.999619 1 1 0.999619
1.05448 1.06512 0.993127 0.996859
1.05823 1.06295 0.999102 0.996447
1.05506 1.06489 0.994121 0.996628
1.05421 1.05794 1 0.996476
1.05637 1.06036 0.999728 0.996507
1.06066 1.06654 0.997795 0.996689
1.02586 1.02896 1 0.996989
1.05114 1.05483 1 0.996503
1.05747 1.06116 0.999896 0.996626
1.00275 1.00405 1 0.998703
1.02293 1.02592 1 0.997093
1.04451 1.04821 1 0.996466
1.01575 1.01855 1 0.997249
1.00076 1.00203 1 0.998733
1 1 1 1
0.999133 1.00028 1 0.998849
1 1 1 1
1 1 1 1
1.05182 1.06377 0.991681 0.997059
1.05335 1.06937 0.987916 0.997061
1.05435 1.07923 0.979726 0.997158
1.05392 1.06865 0.98937 0.996813
1.05276 1.06057 0.995678 0.996943
1.05501 1.06682 0.99173 0.997176
1.05889 1.07383 0.98874 0.997316
1.054 1.06526 0.992201 0.997207
1.05236 1.06199 0.993924 0.996994
1.05887 1.0651 0.997437 0.996706
1.05375 1.06387 0.99351 0.996953
1.05905 1.06582 0.996964 0.996671
1.0541 1.05834 0.999578 0.996417
1.05798 1.06472 0.997017 0.996639
1.05563 1.05949 1 0.996356
1.02188 1.02522 1 0.996737
1.05634 1.06019 1 0.996368
1.02312 1.02643 1 0.996775
0.999037 1.00044 1 0.9986
1.02442 1.02768 1 0.996829
0.999668 1.00092 1 0.998748
1 1 1 1
1.00043 1.00154 1 0.998887
0.999613 1 1 0.999613
0.999642 1 1 0.999642
1.053 1.06172 0.994818 0.996953
1.05722 1.06321 0.99778 0.996582
1.05496 1.06478 0.993905 0.99685
1.05493 1.05879 1 0.996357
1.05727 1.06243 0.998681 0.996457
1.0552 1.0661 0.993097 0.996656
1.02536 1.02862 1 0.996828
1.05417 1.0579 1 0.996476
1.05571 1.05966 0.999774 0.996493
1.002 1.00329 1 0.99871
1.02519 1.02832 1 0.996952
1.05085 1.05456 1 0.996481
1 1 1 1
1.00246 1.00375 1 0.998714
1.02245 1.02543 1 0.997094
1.00036 1.00162 1 0.998746
1 1 1 1
1 1 1 1
1.05121 1.05876 0.995905 0.996953
1.05218 1.06387 0.991921 0.997065
1.05364 1.06952 0.988062 0.997053
1.05856 1.06394 0.998291 0.996646
1.05219 1.06037 0.995315 0.996955
1.0551 1.06689 0.991734 0.997187
1.05246 1.06228 0.993736 0.997004
1.05849 1.06488 0.997287 0.996707
1.05305 1.0571 0.999692 0.996471
1.05935 1.06566 0.997458 0.996619
1.05449 1.05852 0.999784 0.996405
1.0201 1.02351 1 0.996667
1.05663 1.06049 1 0.996359
1.0214 1.02474 1 0.996738
0.998587 1.00002 1 0.998568
1.02293 1.02624 1 0.996775
0.998826 1.00023 1 0.998598
1 1 1 1
0.999216 1.0006 1 0.998613
0.999784 1 1 0.999784
0.999634 1 1 0.999634
1.05113 1.05848 0.996138 0.996911
1.05822 1.0633 0.998562 0.996655
1.05279 1.06138 0.994932 0.99696
1.0551 1.05897 1 0.996347
1.05823 1.06391 0.998086 0.996567
1.05539 1.06441 0.994674 0.99684
1.02404 1.02738 1 0.996743
1.05452 1.05836 1 0.996369
1.05627 1.06188 0.998249 0.996467
1.00054 1.00186 1 0.998686
1.025 1.02828 1 0.996816
1.05413 1.05785 1 0.996477
1 1 1 1
1.00232 1.00361 1 0.998719
1.02477 1.02794 1 0.996914
1 1 1 1
1.0022 1.00348 1 0.998726
1 1 1 1
1.05788 1.06309 0.99841 0.99669
1.0508 1.05837 0.9959 0.996938
1.05247 1.06389 0.992172 0.997072
1.05241 1.05642 0.999734 0.996468
1.05795 1.06365 0.997966 0.996667
1.05163 1.06017 0.994965 0.996967
1.05815 1.06466 0.997163 0.996708
1.05287 1.05703 0.99959 0.996471
1.01896 1.02238 1 0.996661
1.05489 1.05871 1 0.996394
1.01993 1.02332 1 0.996686
0.998527 1 1 0.998527
1.02079 1.02413 1 0.99674
0.998566 1 1 0.998566
1 1 1 1
0.998659 1.00006 1 0.998596
1 1 1 1
0.999608 1 1 0.999608
1.05893 1.06389 0.998669 0.996666
1.0504 1.0583 0.995594 0.996931
1.05417 1.05799 1 0.996392
1.05869 1.06379 0.998542 0.996654
1.05263 1.0611 0.995036 0.996968
1.02181 1.02512 1 0.996766
1.05429 1.05816 1 0.996344
1.05927 1.06463 0.998406 0.996552
0.999234 1.0006 1 0.998633
1.02409 1.02742 1 0.996762
1.05399 1.05782 1 0.996381
1 1 1 1
1.00093 1.00224 1 0.998692
1.02471 1.028 1 0.996803
1 1 1 1
1.00259 1.00387 1 0.998728
1 1 1 1
1.05249 1.05637 0.999836 0.996492
1.05776 1.06287 0.998504 0.996678
1.05042 1.05799 0.995908 0.996923
1.01842 1.02181 1 0.996676
1.05222 1.0563 0.999667 0.996468
1.05728 1.06333 0.997618 0.996688
1.05269 1.05696 0.999491 0.996471
1.01908 1.02249 1 0.99666
0.998507 1 1 0.998507
1.01979 1.02316 1 0.996705
0.998525 1 1 0.998525
1 1 1 1
0.998564 1 1 0.998564
1 1 1 1
1 1 1 1
1.05358 1.05737 1 0.996417
1.05858 1.06377 0.998408 0.996712
1.04966 1.05812 0.995039 0.996952
1.02036 1.02366 1 0.996772
1.05377 1.05759 1 0.996389
1.05915 1.06428 0.998522 0.996653
0.998635 1.00005 1 0.998587
1.02228 1.02559 1 0.996764
1.05357 1.05744 1 0.99634
1 1 1 1
0.999635 1.001 1 0.998637
1.02438 1.02769 1 0.99678
1 1 1 1
1.00127 1.00257 1 0.998698
1 1 1 1
1.01883 1.02217 1 0.996736
1.0522 1.0562 0.999744 0.99647
1.05763 1.06268 0.998576 0.996666
0.998528 1 1 0.998528
1.01859 1.02199 1 0.996674
1.05204 1.05618 0.999611 0.996468
1.01919 1.02261 1 0.996658
0.998507 1 1 0.998507
1 1 1 1
0.998523 1 1 0.998523
1 1 1 1
1 1 1 1
1.01949 1.0228 1 0.996764
1.0532 1.05705 0.999915 0.996442
1.05827 1.06364 0.99819 0.996759
0.998809 1 1 0.998809
1.02072 1.02403 1 0.996771
1.05338 1.05721 1 0.996386
1 1 1 1
0.998783 1.00019 1 0.998588
1.02258 1.02591 1 0.996762
1 1 1 1
0.999902 1.00126 1 0.99864
1 1 1 1
0.998515 1 1 0.998515
1.01898 1.02234 1 0.996717
1.05194 1.05605 0.999663 0.996447
1 1 1 1
0.998527 1 1 0.998527
1.01875 1.02216 1 0.996671
0.998506 1 1 0.998506
1 1 1 1
1 1 1 1
0.998775 1 1 0.998775
1.01976 1.02307 1 0.996764
1.05277 1.05671 0.999797 0.996468
1 1 1 1
0.998569 1 1 0.998569
1.02105 1.02436 1 0.996769
1 1 1 1
0.998995 1.00041 1 0.998589
1 1 1 1
0.999567 1 1 0.999567
0.998657 1 1 0.998657
1.01911 1.02249 1 0.996698
1 1 1 1
0.998528 1 1 0.998528
1 1 1 1
0.99958 1 1 0.99958
0.99867 1 1 0.99867
1.02007 1.02338 1 0.996765
0.999787 1 1 0.999787
0.99859 1.00002 1 0.99857
1 1 1 1
1 1 1 1
0.99855 1 1 0.99855
1 1 1 1
0.999789 1 1 0.999789
0.998564 1 1 0.998564
1 1 1 1
1 1 1 1
1 1 1 1

VECTORS lamdaE float
1.00171 1.00005 0.993326
1.00129 1.0008 0.996657
1.00119 1.00028 0.993656
1.00175 1.00006 0.993219
1.00176 0.999936 0.993362
1.00169 1.00029 0.993104
1.00299 1.00049 0.990272
1.0013 1.00077 0.996623
1.00112 1.00012 0.997233
1.00063 1.00089 0.997245
1.00108 1.00108 0.993141
1.00288 1.0012 0.988703
1.00122 1 0.99387
1.00104 0.999997 0.993975
1.00072 1.00053 0.993958
1.0014 1.00004 0.993586
1.00112 1.00067 0.993398
1.00134 0.999997 0.993709
1.00323 1.00033 0.990115
1.00124 1.00002 0.996874
1.00163 1.00011 0.993323
1.00179 0.999974 0.993276
1.00308 1.00016 0.990495
1.00308 1.00022 0.990417
1.00178 1.0005 0.992745
1.00289 1.00098 0.98994
1.00527 1.00101 0.985664
1.00131 1.00073 0.996617
1.00136 0.999995 0.995361
1.001 1.00063 0.995324
1.00118 1.00085 0.996672
1.00278 1.00138 0.988723
1.00165 0.999787 0.993407
1.00143 1.00014 0.993505
1.00338 1.00009 0.990718
1.00012 1.00114 0.997506
1.00323 1.00067 0.99049
1.00247 1.00199 0.988617
1.00486 1.0014 0.985196
1.00032 0.999813 0.997774
1.00126 0.999993 0.996853
1.00126 0.999991 0.995367
1.00116 0.99997 0.996929
1.00081 1.00001 0.994247
1.00292 0.999956 0.990011
1.00122 0.999948 0.997153
1.00339 1.00006 0.990781
1.00105 0.999961 0.993953
1.00094 1.00006 0.994044
1.00059 1.00107 0.993671
1.00345 1.00015 0.989974
1.00104 1.00004 0.995553
1.00126 1.00013 0.993688
1.00116 1.001 0.993025
1.00142 0.999944 0.993638
1.00324 1.00011 0.99031
1.00318 1.00073 0.98979
1.00328 1.00012 0.990253
1.00527 1.00099 0.985706
1.00114 1 0.996926
1.00148 1.00008 0.99355
1.00264 0.999994 0.991801
1.00292 1.00018 0.990707
1.00311 1.00014 0.990441
1.00525 1.00016 0.986506
1.00525 1.00038 0.986231
1.0014 1.00056 0.993018
1.00258 1.0019 0.989537
1.00528 1.00141 0.985255
1.00528 1.00019 0.98572
1.00166 1.00001 0.996732
1.00106 1.00074 0.99687
1.00137 1.00054 0.996669
1.00268 1.00153 0.988731
1.00171 0.999906 0.996672
1.00154 1.00019 0.996753
1.00325 1.00003 0.989256
1.0004 1.00091 0.995683
1.00298 1.00067 0.98903
1.00234 1.0022 0.989602
1.00497 1.00127 0.985183
1.00061 1.00025 0.997378
1.00048 1.00231 0.991775
1.0034 1 0.989106
1.00328 1.00013 0.989181
1.00528 1.00043 0.985604
1.00171 1.00267 0.991102
1.00515 1.00094 0.98522
1.00392 1.0028 0.985422
1.00535 1.00145 0.984264
1.00013 0.998994 0.998187
1.00017 0.999548 0.997947
1.00159 0.999974 0.996665
1.00132 0.999991 0.996833
1.0012 0.999977 0.996921
1.00108 1 0.995546
1.00296 0.999947 0.990725
1.00142 0.999952 0.99528
1.00328 1.00008 0.990066
1.00116 0.999983 0.996947
1.00275 0.99983 0.990357
1.00317 1.00004 0.991117
1.005 0.999252 0.987347
1.00341 1.00004 0.990701
1.00526 0.999529 0.986632
1.00119 0.999997 0.993929
1.00087 1.00011 0.994057
1.00054 1.00151 0.9933
1.00106 0.999902 0.993996
1.00341 1.00011 0.990124
1.00347 1.00003 0.990097
1.00344 1.00047 0.989651
1.00526 1.00096 0.985745
1.00119 0.999983 0.996937
1.0011 1.00009 0.993912
1.00283 0.999948 0.990642
1.00308 1.00014 0.990518
1.00117 1.00102 0.994807
1.00296 1.00169 0.989597
1.00329 1.00009 0.990268
1.00525 1 0.986704
1.00526 1.0014 0.985311
1.00525 1.00056 0.986105
1.00528 1.0002 0.985752
1.00273 0.999864 0.990381
1.00276 1.00007 0.991015
1.00491 0.999042 0.988244
1.00512 0.999629 0.987239
1.00525 1.00005 0.986603
1.00534 0.998328 0.987759
1.00068 1.00088 0.99712
1.00529 0.999427 0.986469
1.00195 1.00288 0.988419
1.00507 1.00171 0.984553
1.00527 1.00107 0.984942
1.00525 0.997979 0.987807
1.00108 1.00304 0.989925
1.00227 1.00442 0.986658
1.00173 0.999923 0.996692
1.00153 1.00024 0.996741
1.00327 1 0.989239
1.00062 1.00058 0.997267
1.00195 1.0025 0.988862
1.00301 1.00065 0.989052
1.00504 1.00118 0.985175
1.00044 1.00024 0.997524
1.0004 1.0024 0.99179
1.00342 1.00003 0.989895
1.00332 1.00018 0.989915
1.00528 1.00044 0.985577
1.00128 1.00284 0.989762
1.00519 1.0009 0.985207
1.00416 1.00239 0.985397
1.00535 1.00135 0.98444
1.00087 1.00261 0.990701
1.00026 1.00168 0.992827
1.00192 1.00464 0.987538
1.00528 1.00015 0.985908
1.00527 1.00067 0.985353
1.00529 0.999198 0.986794
1.00322 1.00333 0.985984
1.00531 1.00043 0.985537
1.00521 1.00215 0.983883
1.00531 1.00026 0.985341
1.00005 0.99846 0.998503
1.00005 0.998933 0.998319
1.00008 0.999422 0.998108
1.00078 1.00294 0.990621
1.00039 1.00071 0.997377
1.00171 0.999933 0.996651
1.00142 0.999986 0.996743
1.00313 1.00013 0.989417
1.00281 0.999959 0.990095
1.00119 0.999976 0.996902
1.00114 0.999975 0.996943
1.00273 0.999843 0.990348
1.00309 1.00003 0.990409
1.00497 0.99927 0.987346
1.00327 1.00009 0.989208
1.00524 0.99956 0.986625
1.00268 0.999829 0.990445
1.00495 0.999127 0.987551
1.00509 0.999391 0.987036
1.00532 0.9963 0.989932
1.00528 0.999851 0.986247
1.00536 0.99718 0.988979
1.00115 0.999982 0.996937
1.0007 1.00016 0.994272
1.00286 0.999941 0.989634
1.00326 1.00013 0.990326
1.00043 1.00161 0.997064
1.00341 1.00128 0.989661
1.00346 1.00005 0.990097
1.00525 0.999833 0.986902
1.00526 1.00072 0.985975
1.00523 1.00139 0.98537
1.00527 1.0002 0.985784
1.0027 0.999858 0.990385
1.00292 1.0001 0.990826
1.00495 0.999013 0.987974
1.00516 0.999809 0.987045
1.00083 1.00091 0.996998
1.00221 1.00262 0.98933
1.0049 1.00202 0.984823
1.00525 1.0001 0.986559
1.00535 0.997962 0.988167
1.00528 1.00096 0.985016
1.00529 0.999569 0.986419
1.00525 0.998007 0.987821
1.00112 1.00298 0.989905
1.00232 1.00432 0.986658
1.00491 0.999183 0.987568
1.005 0.999377 0.987786
1.00532 0.997005 0.989209
1.00536 0.997119 0.988929
1.00531 0.998611 0.987377
1.00526 0.995714 0.990342
1.00141 1.00311 0.989174
1.00526 0.996857 0.988964
1.00431 1.00264 0.984848
1.00533 1.00176 0.983992
1.00524 0.99954 0.986406
1.00522 0.996274 0.989683
1.0031 1.0037 0.985736
1.00156 1.00497 0.987479
1.00389 1.00232 0.986099
1.00329 1.00002 0.989199
1.00024 1.00007 0.99769
1.00029 1.00247 0.991804
1.00316 1.00017 0.989227
1.00528 1.00045 0.98555
1.00122 1.003 0.989676
1.00437 1.002 0.985372
1.00526 1.00086 0.985187
1.00535 1.00123 0.984617
1.00082 1.00271 0.990714
1.00013 1.00173 0.992859
1.0016 1.00474 0.98751
1.00528 1.00017 0.98588
1.00527 1.00068 0.985329
1.00529 0.999198 0.986773
1.00336 1.00316 0.985994
1.0053 1.00054 0.985436
1.00531 1.00209 0.983835
1.00532 0.999977 0.985559
1.00014 1.0009 0.993743
1.00275 1.00381 0.986701
1.00115 1.00474 0.988468
1.00308 1.00239 0.98744
1.0053 0.998479 0.987566
1.00529 0.999909 0.986042
1.00524 0.997096 0.988746
1.00483 1.00228 0.984353
1.00523 0.99869 0.987288
1.00534 1.0013 0.984633
1.00535 0.998989 0.986632
1.00023 1.00246 0.992069
1.00027 0.999597 0.994813
1.00006 0.997919 0.998711
1.00002 0.998337 0.998584
0.999983 0.998798 0.998428
1.00033 1.00267 0.991547
1.00019 1.00033 0.997645
1.00084 1.00283 0.990578
1.0005 1.00073 0.997289
1.00325 1.00012 0.989208
1.00297 1.00002 0.98977
1.0052 0.999594 0.986621
1.00496 0.999294 0.987345
1.00275 0.999861 0.990346
1.00119 0.999963 0.996941
1.00271 0.999821 0.990447
1.00493 0.999138 0.987557
1.0051 0.999393 0.987031
1.00532 0.996321 0.98994
1.00527 0.999868 0.986223
1.00534 0.997161 0.98898
1.00491 0.99911 0.987623
1.0053 0.996182 0.990121
1.00537 0.996655 0.989506
1.00531 0.994946 0.991253
1.0053 0.997792 0.988335
1.00523 0.995109 0.991025
1.00271 0.999857 0.990394
1.00309 1.00007 0.990637
1.00498 0.998963 0.987707
1.00518 0.999979 0.98685
1.00098 1.00096 0.99685
1.00261 1.00244 0.99002
1.00481 1.00227 0.985089
1.00526 1.00014 0.986515
1.00535 0.997602 0.988574
1.00528 0.999717 0.986371
1.00531 1.00084 0.985088
1.00524 0.998034 0.987835
1.00116 1.00291 0.989886
1.00238 1.00419 0.986659
1.00492 0.998968 0.987779
1.00503 0.999347 0.98776
1.00532 0.996881 0.989354
1.00538 0.997515 0.988525
1.00147 1.00307 0.989179
1.00417 1.00284 0.984878
1.00532 1.00189 0.983851
1.0053 0.998832 0.987222
1.00524 0.995515 0.990554
1.00525 0.999304 0.986643
1.00526 0.996885 0.988956
1.00522 0.996241 0.989592
1.00312 1.00387 0.985683
1.00379 1.00256 0.985897
1.00153 1.00482 0.987528
1.00531 0.996797 0.989463
1.00535 0.997115 0.989083
1.00527 0.995154 0.99106
1.00528 0.995009 0.991035
1.00525 0.995948 0.989898
1.00523 0.994925 0.990942
1.0036 1.00346 0.985214
1.00523 0.99528 0.990422
1.0053 1.00273 0.983168
1.00527 1.00068 0.984978
1.00521 0.997874 0.988015
1.00519 0.995778 0.990127
1.00093 1.00508 0.988119
1.00466 1.00273 0.984596
1.00301 1.00354 0.986217
1.00507 1.00234 0.984601
1.00527 1.00019 0.985852
1.00006 1.00175 0.992887
1.00067 1.00293 0.990737
1.0013 1.00474 0.987481
1.00528 1.00068 0.985303
1.00529 0.999201 0.986752
1.0035 1.00285 0.98601
1.00534 1.00207 0.983787
1.0053 1.00065 0.985334
1.00532 0.999697 0.985777
1.00012 1.00085 0.993785
1.00264 1.00366 0.986747
1.00095 1.00486 0.988445
1.00303 1.00238 0.987475
1.0053 0.998482 0.987545
1.00529 0.999906 0.986019
1.00524 0.997083 0.988745
1.00496 1.00226 0.984339
1.00523 0.998874 0.98706
1.00531 1.00117 0.98461
1.00534 0.998849 0.986804
1.00022 1.0001 0.994432
1.00078 1.00414 0.989694
1.00386 1.00228 0.986018
1.00218 1.00387 0.987964
1.00377 1.00004 0.988714
1.00525 0.996247 0.989646
1.00523 0.997911 0.98788
1.00523 0.995877 0.98978
1.00509 1.00204 0.984222
1.00526 0.997605 0.988123
1.00515 1.00003 0.985832
1.00041 1.00264 0.991578
1.00033 1.00423 0.990195
1.00009 1.00217 0.992601
1.0002 1.00248 0.99207
1.00022 0.999307 0.995834
1.00025 0.999537 0.995225
1.00023 0.997491 0.997308
1.00005 0.997862 0.998753
0.999996 0.99823 0.998651
0.999933 1.00209 0.992784
1 0.999805 0.998035
1.00044 1.00258 0.99154
1.00031 1.00042 0.997537
1.00092 1.00273 0.990535
1.00063 1.00077 0.997201
1.00525 0.999885 0.986201
1.00511 0.999385 0.987024
1.00533 0.997167 0.988983
1.00532 0.996338 0.989947
1.00491 0.999149 0.987564
1.0027 0.999807 0.990445
1.0049 0.99911 0.987628
1.0053 0.996188 0.990124
1.00535 0.996679 0.989517
1.0053 0.994941 0.991257
1.00531 0.997776 0.988321
1.00525 0.995089 0.991043
1.00531 0.99623 0.990084
1.00529 0.994958 0.991301
1.00528 0.99494 0.991224
1.00524 0.994959 0.991223
1.00524 0.995552 0.990473
1.00525 0.994888 0.991009
1.00492 0.998754 0.987991
1.00505 0.99933 0.987734
1.00532 0.996792 0.989497
1.0054 0.997901 0.988122
1.00155 1.00304 0.989189
1.00396 1.00317 0.984916
1.00534 1.00202 0.983712
1.00528 0.99904 0.987067
1.00522 0.995319 0.990767
1.00527 0.996916 0.988948
1.00525 0.999071 0.98688
1.00521 0.99619 0.9895
1.00316 1.00415 0.985627
1.0037 1.00268 0.985694
1.0015 1.00464 0.987575
1.00531 0.996584 0.989711
1.00534 0.997072 0.989096
1.00528 0.995062 0.991157
1.00527 0.995215 0.990835
1.00354 1.00365 0.98522
1.00529 1.00275 0.983222
1.00527 1.00086 0.984774
1.00526 0.996192 0.98964
1.00524 0.994922 0.990921
1.00522 0.997745 0.98799
1.00523 0.995299 0.990396
1.0052 0.995682 0.990168
1.00437 1.00301 0.984575
1.00491 1.00232 0.984366
1.00112 1.00492 0.988135
1.00288 1.00347 0.986222
1.00528 0.99496 0.991345
1.00529 0.995243 0.990817
1.00523 0.994949 0.991278
1.00523 0.994907 0.990974
1.00525 0.99494 0.990765
1.00528 0.994912 0.990767
1.0052 1.003 0.983306
1.00522 0.994964 0.990624
1.00525 1.00217 0.983591
1.00522 0.999817 0.985773
1.0052 0.997113 0.988525
1.00522 0.995758 0.990025
1.00066 1.00459 0.989131
1.00171 1.00505 0.986491
1.00513 1.00324 0.98308
1.00469 1.00281 0.985459
1.00493 1.00381 0.983075
1.00007 1.00077 0.993828
1.0053 0.998484 0.987524
1.00074 1.00499 0.988422
1.00248 1.00365 0.986791
1.00301 1.00226 0.987508
1.00529 0.999906 0.985998
1.00524 0.99707 0.988744
1.00519 1.00206 0.984322
1.0053 1.00109 0.984588
1.00523 0.999046 0.986834
1.00534 0.998729 0.986976
1.0002 1.00004 0.994462
1.00054 1.00429 0.989704
1.00412 1.00191 0.986098
1.00183 1.00392 0.987886
1.00375 1.00008 0.988232
1.00525 0.996218 0.989655
1.00523 0.997892 0.987879
1.00523 0.995828 0.989783
1.00512 1.00212 0.984135
1.00527 0.997695 0.987944
1.00519 1.00005 0.985997
1.00048 1.00328 0.990876
1.0012 1.005 0.988646
1.0045 1.00182 0.985453
1.00289 1.00191 0.988386
1.00488 1.00049 0.987536
1.00527 0.995241 0.990438
1.00522 0.996613 0.988921
1.00523 0.995444 0.989915
1.00498 1.00129 0.98468
1.00514 0.998674 0.986879
1.00039 1.0027 0.991572
1.00055 1.00378 0.990055
1.00009 1.00432 0.990182
1.00054 1.00439 0.990038
1.00012 1.00403 0.990793
1.00001 1.00187 0.993005
1.00004 1.00218 0.992618
1.00017 0.999081 0.996089
1.00018 1.00251 0.992072
1.00024 0.999244 0.995871
1.00026 0.997218 0.997475
1.00024 0.999507 0.995627
1.00014 0.997548 0.99808
1.00005 0.997767 0.998789
0.999788 1.00097 0.994102
1.00003 1.00197 0.99278
0.999805 0.999067 0.998484
1.00013 0.999865 0.997874
1.00053 1.00244 0.991535
1.00041 1.00051 0.997437
1.00532 0.997757 0.988307
1.00532 0.996683 0.989529
1.00526 0.995073 0.991061
1.0053 0.994935 0.991261
1.00531 0.996193 0.990127
1.0049 0.999111 0.987632
1.00531 0.996233 0.990083
1.00529 0.994959 0.991308
1.00528 0.994941 0.99124
1.00525 0.99496 0.991201
1.00524 0.995501 0.99049
1.00525 0.994887 0.991002
1.00528 0.994959 0.991331
1.00525 0.994941 0.991317
1.00524 0.99495 0.99111
1.00528 0.994938 0.991146
1.00527 0.994928 0.990834
1.00532 0.994898 0.990859
1.00531 0.996368 0.989958
1.00534 0.997033 0.989109
1.00528 0.994949 0.991255
1.00525 0.995429 0.990634
1.00347 1.00373 0.985226
1.00525 1.00273 0.983271
1.00526 1.00097 0.984567
1.00526 0.996435 0.989382
1.00525 0.994908 0.990899
1.00524 0.995317 0.990368
1.00523 0.997624 0.987967
1.00521 0.995534 0.990214
1.00398 1.00353 0.984558
1.00495 1.00244 0.984134
1.00131 1.00479 0.988151
1.00279 1.00321 0.986229
1.00528 0.994961 0.991339
1.0053 0.995215 0.990861
1.00523 0.994946 0.991252
1.00523 0.994913 0.99099
1.005 1.00322 0.983321
1.00525 1.00225 0.983473
1.00522 0.999791 0.985758
1.00526 0.994959 0.990724
1.00528 0.994908 0.990747
1.0052 0.997109 0.988527
1.00522 0.994936 0.990608
1.00522 0.995568 0.990154
1.00511 1.00334 0.983151
1.0048 1.00405 0.98288
1.00414 1.00256 0.985493
1.00065 1.00441 0.989195
1.00163 1.00506 0.986624
1.00524 0.994949 0.991267
1.00525 0.994936 0.991093
1.0053 0.994896 0.990693
1.00527 0.994894 0.990717
1.00518 1.00335 0.982738
1.00524 0.994973 0.990505
1.00515 1.00147 0.984
1.00518 0.999159 0.986343
1.00519 0.996756 0.988735
1.00002 1.00371 0.990815
1.00131 1.00508 0.987903
1.00233 1.00505 0.986096
1.00493 1.00448 0.982468
1.00504 1.00281 0.984255
1.00492 1.00342 0.982655
1.00018 0.999997 0.994491
1.00035 1.0045 0.989714
1.00525 0.996191 0.989665
1.00148 1.00406 0.987808
1.00436 1.00178 0.986183
1.00376 1.00028 0.987756
1.00523 0.997872 0.987877
1.00523 0.995781 0.989785
1.00519 1.00209 0.98405
1.0052 1.00008 0.986164
1.00529 0.99777 0.987763
1.00041 1.00338 0.990876
1.00076 1.00508 0.988633
1.00479 1.00169 0.985146
1.00277 1.00185 0.9884
1.00448 0.999911 0.987327
1.00526 0.995201 0.990462
1.00524 0.996631 0.988898
1.00524 0.995485 0.989883
1.00501 1.00132 0.98478
1.00514 0.998789 0.986839
1.00079 1.00446 0.989577
1.00066 1.00443 0.988699
1.00485 1.00205 0.984647
1.00364 1.00064 0.987509
1.00494 1.00103 0.986181
1.00524 0.994909 0.990521
1.00527 0.99679 0.988485
1.00529 0.995822 0.989301
1.00504 1.00025 0.985827
1.00512 0.999038 0.98669
1.00036 1.00273 0.991566
1.00056 1.0039 0.990024
0.999968 1.00397 0.990717
0.999943 1.00436 0.990166
0.999971 1.00417 0.99079
0.999958 1.00469 0.990176
0.999944 1.00339 0.991599
0.999762 1.00484 0.990239
0.99993 1.00373 0.99135
0.999996 1.00186 0.993036
1 1.00185 0.993009
1.00009 0.998993 0.996294
1.00001 1.00213 0.992633
1.00018 0.999051 0.996126
1.00022 0.997093 0.997639
1.00026 0.999187 0.995913
1.00022 0.997272 0.997471
1.00003 0.997578 0.998874
0.999811 0.999915 0.995122
0.99984 1.001 0.994054
0.999736 0.998424 0.9988
1.00017 1.00183 0.992777
0.999932 0.999242 0.998319
1.00025 1.00002 0.997727
1.00524 0.995449 0.990507
1.00529 0.99494 0.991256
1.00526 0.994888 0.990995
1.00526 0.994962 0.991179
1.00529 0.99496 0.991316
1.00531 0.996237 0.990083
1.00528 0.994961 0.991345
1.00525 0.994941 0.99132
1.00524 0.99495 0.991119
1.00528 0.994936 0.991134
1.00527 0.994934 0.99086
1.00531 0.994897 0.990801
1.00525 0.994946 0.991314
1.00528 0.994927 0.99123
1.0053 0.99493 0.990996
1.00531 0.994859 0.990671
1.00528 0.994961 0.991334
1.0053 0.99519 0.990904
1.00523 0.994942 0.991226
1.00522 0.994918 0.991006
1.00485 1.00326 0.983335
1.00525 1.00237 0.983359
1.00522 0.999818 0.985742
1.00526 0.994987 0.990682
1.00528 0.994905 0.990727
1.00522 0.994932 0.990592
1.0052 0.997074 0.988525
1.0052 0.995496 0.990281
1.00477 1.00348 0.983219
1.00479 1.00418 0.982688
1.00371 1.00271 0.985525
1.00066 1.00418 0.989271
1.00161 1.00508 0.986759
1.00524 0.99495 0.991259
1.00525 0.994937 0.991116
1.0053 0.994902 0.990721
1.00518 1.00336 0.982793
1.00514 1.00171 0.98389
1.00517 0.999177 0.986346
1.00526 0.994895 0.990721
1.00519 0.996642 0.988956
1.00524 0.994982 0.990472
0.999957 1.00352 0.991057
1.00471 1.00436 0.982556
1.00466 1.00481 0.982258
1.00469 1.00309 0.98438
1.0027 1.00474 0.986051
1.00104 1.00509 0.987929
1.00528 0.994934 0.991174
1.0053 0.994909 0.990889
1.0053 0.994892 0.990609
1.00525 0.994857 0.990595
1.00505 1.00327 0.983031
1.00519 0.995243 0.990385
1.00503 1.00104 0.984751
1.00512 0.999021 0.986551
0.999938 1.0018 0.992754
1.00035 1.00495 0.989593
1.00194 1.00508 0.987492
1.00321 1.00481 0.984713
1.00452 1.00475 0.983342
1.00485 1.00398 0.982927
1.00033 1.00346 0.990877
1.0003 1.00511 0.98862
1.00524 0.99516 0.990486
1.00266 1.00173 0.988408
1.00514 1.00154 0.984835
1.00379 0.999923 0.987112
1.00526 0.996649 0.988875
1.00524 0.995524 0.989849
1.00503 1.00145 0.984877
1.00516 0.998926 0.986799
1.00058 1.0045 0.989588
1.00114 1.0044 0.98844
1.00484 1.00205 0.984622
1.00398 1.00068 0.987523
1.00472 1.00131 0.98599
1.00525 0.994962 0.990543
1.00527 0.99669 0.988717
1.00528 0.995868 0.989393
1.00501 1.00024 0.98584
1.00507 0.999282 0.986467
0.999611 1.00442 0.989919
1.00092 1.00343 0.988824
1.00484 1.00101 0.985697
1.00468 1.00051 0.986001
1.00534 0.994843 0.990432
1.00527 0.99534 0.990142
1.00524 0.998017 0.987148
1.0051 0.999587 0.986047
1.00076 1.00387 0.989993
1.00013 1.00395 0.99064
0.999182 1.00371 0.993016
0.999815 1.00431 0.99079
0.999357 1.00497 0.990314
0.999915 1.00372 0.991333
0.999596 1.00348 0.992018
0.99984 1.00491 0.990166
0.999752 1.001 0.994322
0.999746 1.00446 0.990933
0.999719 1.0046 0.990414
1.00007 1.00351 0.991343
0.99996 1.00208 0.992815
0.999956 1.00187 0.993026
0.999973 0.999029 0.996412
0.999976 1.00184 0.993015
1.0001 0.998985 0.996313
1.00014 0.99711 0.997748
1.00019 0.999017 0.996165
1.00021 0.997117 0.997631
1.00018 0.997329 0.997458
0.999955 0.999133 0.995726
0.999812 1.00005 0.995055
0.999724 0.997918 0.998977
0.999851 1.00111 0.994003
0.999785 0.99853 0.998713
1.00008 0.999303 0.998139
1.00527 0.99494 0.990886
1.00525 0.99495 0.991127
1.0053 0.994895 0.990743
1.00527 0.994934 0.991121
1.00525 0.994941 0.991324
1.00528 0.994963 0.991358
1.00525 0.994945 0.991324
1.00528 0.994925 0.991225
1.0053 0.994925 0.990975
1.00531 0.994857 0.990682
1.00528 0.994927 0.991254
1.00528 0.994918 0.991142
1.00533 0.994883 0.990778
1.00523 0.994951 0.991251
1.00525 0.994937 0.991139
1.0053 0.994909 0.990748
1.00523 1.00331 0.982852
1.00514 1.00188 0.983778
1.00516 0.999061 0.986346
1.00525 0.994895 0.990724
1.00525 0.994992 0.990437
1.00522 0.996432 0.989174
1.00458 1.00421 0.982642
1.00482 1.00506 0.981884
1.0043 1.00318 0.984505
0.999993 1.00334 0.991307
1.00314 1.00444 0.986006
1.00071 1.00509 0.987946
1.00528 0.994936 0.991193
1.0053 0.994905 0.990857
1.0053 0.994889 0.990601
1.00504 1.0033 0.983053
1.00495 1.00093 0.984664
1.00512 0.998799 0.98689
1.00525 0.99486 0.990565
1.00503 0.995266 0.990332
0.999947 1.00179 0.992973
1.00025 1.00493 0.98957
1.00454 1.00353 0.983198
1.0047 1.00385 0.983124
1.0036 1.00448 0.984862
1.00168 1.00508 0.987294
1.00529 0.994909 0.991124
1.00533 0.994852 0.990605
1.0053 0.994884 0.990562
1.0052 0.994888 0.990372
1.00444 1.00245 0.98414
1.00515 0.996557 0.989095
1.00498 1.00103 0.985021
1.00013 1.00086 0.993828
1.00024 1.00204 0.992608
0.999568 1.00367 0.991735
1.00083 1.00503 0.988665
1.00155 1.00507 0.98658
1.00413 1.0043 0.983354
1.00326 1.00436 0.984822
1.00372 1.00517 0.984568
1.0003 1.00455 0.989599
1.00159 1.00438 0.98818
1.00527 0.995012 0.990564
1.00435 0.999727 0.987539
1.00483 1.00204 0.984602
1.00463 1.00159 0.985807
1.00527 0.996567 0.98895
1.00527 0.995897 0.989488
1.005 1.00016 0.985851
1.00501 0.999461 0.986245
1.00026 1.00415 0.989742
1.00146 1.00354 0.988542
1.00491 1.00101 0.985553
1.00498 1.00073 0.986176
1.00535 0.99482 0.990429
1.00529 0.995295 0.990079
1.00519 0.99796 0.987262
1.00512 0.99967 0.986071
0.99954 1.00439 0.990454
1.00538 0.994888 0.990424
1.00311 1.00288 0.988134
1.00488 1.00034 0.985989
1.0053 0.994773 0.990773
1.00519 0.997143 0.987109
1.00506 1.00059 0.98562
1.00026 1.00396 0.990562
0.999035 1.00354 0.992934
0.997979 1.00228 0.996061
0.999918 1.00364 0.991316
0.999864 1.005 0.990092
0.99847 1.00422 0.992431
1.00009 1.0034 0.991331
0.999733 1.00468 0.990427
0.998734 1.00187 0.994725
0.999863 1.0044 0.990806
0.999301 0.999603 0.997268
0.9989 1.0029 0.993547
0.999648 1.00501 0.990275
1.00031 1.00453 0.989819
1.00019 1.00362 0.990933
0.999927 1.00234 0.992623
0.999894 1.00222 0.992794
0.999849 0.999218 0.996476
0.999912 1.00197 0.993015
0.999989 0.999065 0.996412
1.00002 0.997237 0.997831
1.00011 0.998964 0.996335
1.00015 0.997123 0.997743
1.0002 0.997147 0.997618
1.00013 1.00081 0.993927
1.00003 0.998693 0.996057
0.99994 0.999231 0.99568
0.9998 0.997559 0.999069
0.999812 1.00016 0.994991
0.999759 0.998043 0.998936
0.999867 0.998674 0.998595
1.0053 0.994856 0.990692
1.0053 0.99492 0.990954
1.00528 0.994924 0.991219
1.00525 0.994945 0.991334
1.00528 0.994924 0.99126
1.00528 0.994916 0.991153
1.00531 0.994886 0.990737
1.00528 0.994911 0.991196
1.00535 0.994901 0.990992
1.0055 0.995099 0.991083
1.00527 0.994938 0.991211
1.0053 0.994899 0.990825
1.00531 0.994889 0.990592
1.0048 1.00338 0.983078
1.00501 1.00132 0.984602
1.00489 0.998674 0.987221
1.00525 0.994871 0.990535
1.005 0.99536 0.990281
1.00419 1.00399 0.983057
1.00438 1.00433 0.983274
1.00367 1.00407 0.985009
0.999951 1.00169 0.99319
1.00015 1.00498 0.989545
1.00148 1.00508 0.987092
1.00529 0.994907 0.991104
1.00012 1.00085 0.993818
1.00016 1.00207 0.992458
1.00533 0.994866 0.990618
1.00528 0.994887 0.990571
1.0047 1.00269 0.984044
1.00475 1.00092 0.98527
1.00507 0.996475 0.989007
1.00521 0.994876 0.990329
0.999669 1.0036 0.991894
1.0008 1.00504 0.988613
1.00348 1.00424 0.98469
1.0037 1.00476 0.983868
1.00433 1.00439 0.983323
1.00173 1.00507 0.986529
1.00538 0.994869 0.990853
1.00533 0.994845 0.99049
1.00524 0.99485 0.990488
1.00518 0.994899 0.990399
1.00397 1.00212 0.985482
1.00461 1.00016 0.98696
1.0001 1.0025 0.992011
0.999923 1.00216 0.992842
1.00158 1.00054 0.992267
1.00061 1.00385 0.989866
1.00107 1.0051 0.988096
1.00269 1.00451 0.986242
1.00264 1.00509 0.984123
1.00215 1.00133 0.989186
1.00075 1.00394 0.989567
1.00204 1.00372 0.988257
1.00535 0.994798 0.990426
1.00531 0.995302 0.990018
1.00523 1.00116 0.98635
1.00495 1.00105 0.985407
1.00515 0.997922 0.987374
1.00515 0.999782 0.986097
1.00017 1.00401 0.990334
1.00539 0.994914 0.990658
1.00234 1.00308 0.988343
1.005 1.00045 0.985854
1.0053 0.99479 0.990788
1.00519 0.997324 0.987312
1.00494 1.00047 0.98558
0.999232 1.00503 0.991669
1.00495 0.994777 0.990767
1.00236 1.00237 0.988254
1.00466 1.00159 0.984809
1.0051 0.995596 0.989976
1.00371 1.00099 0.986294
0.998807 0.994852 0.985897
0.998793 1.0036 0.992859
0.997684 1.00259 0.996102
0.997861 1.00176 0.997257
1 1.00344 0.991319
0.999638 1.00487 0.990441
1.00034 1.00413 0.990682
0.998219 1.00212 0.995145
1.00012 1.00372 0.990934
1.00022 1.00448 0.989917
0.999236 0.999371 0.997177
0.999701 1.00497 0.990279
0.999337 1.00295 0.993078
0.997986 1.00144 0.997396
1.0004 1.00404 0.990295
1.00009 1.0049 0.990039
1.00073 1.00433 0.98956
1.00014 1.00402 0.99037
1.00037 1.00486 0.989866
1.00008 1.00428 0.990163
0.999901 1.00239 0.992576
0.999913 1.00236 0.992607
0.999725 0.999289 0.99594
0.999884 1.00221 0.992772
0.999834 0.999258 0.996153
0.99999 0.99737 0.999092
0.999998 0.999109 0.996414
1.00004 0.997213 0.997828
1.00016 0.997134 0.997732
1.00004 1.00066 0.994122
1.00015 1.00069 0.99396
1.00008 0.998426 0.996297
1.00002 0.99871 0.996342
0.999859 0.99728 0.99914
0.999916 0.999359 0.995633
0.9998 0.997638 0.999048
0.999794 0.998078 0.998896
1.00529 0.994889 0.990697
1.00528 0.994915 0.991163
1.00528 0.994922 0.991267
1.00528 0.994911 0.991197
1.00534 0.994901 0.990959
1.00549 0.995024 0.990863
1.00543 0.994874 0.990983
1.00128 0.994836 0.981338
1.00486 0.995076 0.991871
1.00013 1.0019 0.992757
1.00529 0.994906 0.991083
1.00533 0.994877 0.99063
1.00527 0.994881 0.990579
1.00477 1.00238 0.983925
1.00499 1.00043 0.985499
1.00483 0.996309 0.988915
1.00522 0.994866 0.990289
1.00406 1.00336 0.984612
1.00433 1.00437 0.98324
1.00416 1.00436 0.983288
1.0001 1.00087 0.99381
1.00233 1.00508 0.986476
0.999729 1.00353 0.992037
1.00077 1.00505 0.988559
1.00011 1.00208 0.992311
1.00537 0.994862 0.990855
1.00007 1.00246 0.992182
0.999895 1.00224 0.99287
1.00105 1.00076 0.992691
1.00534 0.994847 0.990465
1.00522 0.994847 0.990444
1.0032 1.00307 0.98558
1.00483 0.998905 0.987431
1.00517 0.994901 0.990343
1.00045 1.00385 0.990065
1.00133 1.00508 0.987934
1.00251 1.0026 0.988419
1.00323 1.00503 0.983838
1.00311 1.0037 0.986401
1.00536 0.994764 0.99099
1.00525 0.994812 0.990708
1.00519 0.994903 0.990007
1.0051 0.996733 0.990494
1.00176 1.00147 0.989427
0.999499 1.00346 0.99186
1.0016 1.00089 0.991595
1.0001 1.00028 0.993047
1.00094 1.00433 0.990008
1.00063 1.00498 0.989086
1.00095 1.0041 0.988187
1.00164 1.00013 0.991585
1.00115 1.00353 0.990205
1.00136 1.00325 0.988556
1.0054 0.994962 0.990882
1.00531 0.994768 0.990795
1.00518 0.99747 0.987514
1.00507 1.00052 0.985714
1.00483 1.00032 0.985546
0.999722 1.00476 0.991683
1.00466 0.994815 0.990975
1.00263 1.00229 0.988097
1.00479 1.00156 0.984735
1.00505 0.995481 0.990271
1.00398 1.00089 0.986372
0.99857 0.995959 0.983969
0.998124 1.00439 0.99329
1.00313 0.995488 0.991119
1.00325 1.00242 0.986057
1.00304 1.00117 0.986958
1.00353 0.997535 0.990622
0.999958 0.994878 0.942679
0.995121 0.994772 0.964114
0.995753 0.999066 0.987876
0.998988 0.994795 0.856413
0.994707 0.994854 0.817567
0.997504 1.00273 0.996134
0.997481 1.0019 0.997414
0.997386 1.00308 0.997019
1.00009 1.00376 0.990935
1.0002 1.00441 0.990014
0.999849 1.00492 0.990284
0.999629 1.00313 0.992589
0.999124 0.998942 0.997078
0.999982 1.00495 0.990103
1.00019 1.004 0.990449
1.00063 1.00436 0.989567
0.998377 1.00053 0.996853
0.99994 1.00432 0.990688
1.00047 1.0044 0.990773
0.998554 1.00425 0.992815
0.99994 1.00471 0.990453
1.00057 1.00465 0.989029
1.00016 1.00411 0.99033
1.00025 1.00499 0.98942
1.00038 1.00404 0.990754
0.999686 1.00491 0.990613
1.00019 1.0048 0.989871
1.00025 1.00406 0.990461
1.00013 1.00426 0.990168
0.999898 1.00245 0.992562
0.99991 1.00242 0.992581
0.9997 0.999337 0.995975
0.999872 1.00246 0.992591
0.99971 0.999331 0.995937
0.99994 0.997363 0.999125
0.99981 0.999312 0.995833
0.999957 0.997369 0.998481
1.00007 0.997193 0.997823
0.999915 1.00048 0.994464
1.00002 1.00071 0.994127
1.00009 0.998237 0.99649
1.00018 1.00057 0.993992
1.00007 0.998371 0.996588
0.999915 0.996976 0.9992
1.00004 0.99878 0.995999
0.999858 0.997416 0.99911
0.999811 0.997744 0.99903
1.00533 0.9949 0.990927
1.00528 0.994911 0.991199
1.00547 0.994905 0.990649
1.00057 0.994835 0.981505
1.00543 0.994875 0.990982
1.00471 0.994961 0.991725
1.00533 0.995543 0.991173
0.996097 0.99489 0.963967
1.00171 0.99506 0.983181
1.00018 1.00159 0.993045
1.0001 1.00206 0.992719
0.999433 1.00382 0.991825
0.999856 1.00249 0.992514
1.00537 0.994859 0.990856
1.00534 0.994856 0.990438
1.00522 0.994853 0.990401
1.00411 1.00357 0.985685
1.00464 0.997142 0.987934
1.00516 0.994903 0.99029
1.00213 1.00317 0.987609
1.00472 1.00485 0.983541
1.00332 1.00199 0.986549
0.999846 1.00235 0.992902
1.00115 1.00508 0.987788
1.00035 1.00393 0.990265
0.999977 1.0026 0.992349
1.00049 1.00108 0.993088
1.00537 0.994773 0.990992
0.999846 1.00346 0.99161
1.00158 1.00052 0.991909
0.998143 1.00107 0.995793
1.00526 0.994831 0.990634
1.00519 0.994959 0.990022
1.00311 1.00037 0.989452
1.00471 0.995803 0.990709
1.00105 1.00444 0.989296
1.00089 1.0046 0.988172
1.00144 1.00137 0.991533
1.00254 1.0034 0.987579
1.00425 0.995343 0.991434
1.00515 0.994999 0.990979
1.00509 0.995796 0.989703
1.00352 0.996144 0.993454
0.997739 1.00463 0.99363
1.0013 1.00155 0.991019
0.998033 1.00459 0.993368
0.999164 1.00446 0.991744
0.999994 0.994889 0.928819
0.999928 1.00457 0.991698
1.0027 1.00261 0.98793
1.00427 0.994838 0.991214
1.00501 0.995398 0.99056
1.00415 1.00083 0.986428
1.00469 1.00164 0.984651
0.998447 0.99674 0.981892
0.99872 1.00418 0.993244
1.00302 0.995815 0.991004
1.00322 1.00283 0.986035
1.00363 1.00102 0.98708
1.00381 0.997675 0.990392
0.999945 0.994864 0.929375
0.995509 0.994802 0.960706
0.995723 0.999507 0.988131
0.997945 0.994767 0.861215
0.99472 0.994851 0.809097
0.999086 1.00421 0.991903
0.999757 0.994819 0.867361
0.994728 0.994819 0.809249
1.0005 0.999247 0.992585
1.00155 1.00197 0.98951
1.00151 0.999653 0.992512
0.99491 0.998011 0.990846
0.997549 0.994813 0.941789
0.99489 0.994779 0.956669
0.996181 0.994827 0.880144
0.994732 0.994822 0.798896
0.997122 1.00213 0.997583
0.997203 1.00253 0.99691
0.997262 1.00464 0.995887
1.00027 1.00394 0.990525
1.00058 1.00435 0.989576
0.999494 1.00505 0.990168
0.999625 1.00457 0.991079
0.998907 0.999777 0.996319
1.00022 1.00403 0.990332
1.0002 1.00446 0.990601
0.999818 1.00488 0.990239
1.00073 1.00465 0.989173
0.998489 1.00403 0.993119
0.99934 1.00421 0.992381
0.99721 1.00502 0.993983
0.999996 1.00506 0.989619
1.0005 1.0047 0.989474
1.00041 1.00498 0.989394
1.00015 1.00356 0.99109
1.00017 1.00498 0.989973
1.00003 1.00327 0.991718
0.999107 1.00233 0.992704
0.998929 1.00499 0.991302
0.999408 1.00477 0.990798
0.999799 1.00472 0.990638
1.00011 1.00413 0.990524
1.00005 1.0048 0.989876
1.00026 1.00405 0.990389
0.999989 1.00247 0.992415
1.00019 1.00425 0.990174
0.999924 1.00239 0.992573
0.999898 0.999309 0.996403
0.999874 1.00244 0.992585
0.999751 0.999306 0.99623
0.999893 0.99733 0.997971
0.999698 0.999341 0.995932
0.999933 0.997378 0.999135
0.999945 0.997399 0.997866
1.00029 1.00157 0.992844
0.999923 1.00035 0.994608
0.999916 1.00052 0.994457
1.00005 0.998163 0.9966
0.999999 1.00078 0.994132
1.00009 0.998202 0.996486
0.999963 0.996852 0.999233
1.00007 0.998366 0.996834
0.999916 0.997151 0.998618
0.99988 0.99748 0.997923
1.00009 0.994818 0.981644
1.00545 0.994873 0.990978
1.00463 0.995214 0.991566
0.996328 0.994836 0.964488
1.00186 0.995046 0.983566
1.00528 0.995517 0.991158
1.00344 0.996186 0.986316
0.997418 0.994843 0.966983
0.999953 0.994862 0.941268
0.997342 0.994811 0.881728
0.994663 0.994811 0.81612
0.999671 1.00259 0.992557
1.00019 1.00155 0.993031
1.0002 1.00195 0.992679
0.999758 1.00325 0.992014
0.998933 1.00433 0.992556
1.00053 1.00218 0.99182
1.00023 1.00304 0.991749
1.00013 1.00226 0.992389
1.00539 0.994792 0.990985
1.00527 0.994846 0.990566
1.00518 0.995049 0.990032
1.00305 1.00078 0.989473
1.00457 0.995483 0.990918
1.00118 1.00193 0.991462
1.00388 1.00361 0.986983
1.00199 1.00487 0.987267
1.00146 1.00025 0.992213
1.00121 1.00457 0.988542
1.00039 1.00316 0.991375
0.996764 1.00192 0.998473
1.00426 0.994881 0.991721
0.998138 1.00435 0.993521
1.00098 1.00185 0.991912
1.00487 0.994905 0.990949
1.0047 0.995826 0.990086
1.00278 0.996305 0.993138
0.999508 1.00505 0.991498
1.00023 1.00311 0.991988
1.00338 0.994983 0.990847
1.00377 0.998595 0.990577
1.00449 0.995481 0.991468
1.00083 0.997506 0.994515
0.99924 1.00483 0.991217
0.998591 1.00474 0.992394
0.999361 1.00505 0.99205
0.999788 0.994921 0.869674
1.00019 0.994865 0.943284
0.999813 1.00363 0.993207
1.00339 1.00312 0.986027
1.00291 0.996471 0.990886
1.00409 0.997838 0.990176
1.00413 1.00096 0.98723
0.999987 0.994846 0.940926
0.995806 0.994798 0.960234
0.995723 0.999506 0.988425
0.997436 0.994826 0.879644
0.99474 0.994835 0.800126
0.999375 1.00422 0.991872
0.999813 0.994854 0.866207
0.994696 0.994801 0.80249
1.00056 0.999206 0.992518
1.00158 1.00217 0.989526
1.00139 0.999797 0.992937
0.994904 0.999057 0.991637
0.998247 0.99485 0.935272
0.994948 0.994796 0.957669
0.995608 0.994853 0.879941
0.994749 0.994818 0.797162
0.998242 1.00428 0.994592
0.994723 0.994797 0.799094
0.994743 0.994775 0.806603
0.996951 1.00183 0.996885
0.999887 1.00169 0.995072
0.994906 0.99929 0.988621
0.995065 0.994873 0.959596
0.995197 0.994777 0.930517
0.994751 0.994878 0.884467
0.994831 0.994847 0.805104
0.997294 1.00194 0.996808
0.997789 1.00401 0.995581
0.996565 1.00389 0.996301
1.00026 1.00396 0.990333
1.00082 1.00453 0.989319
0.999888 1.00502 0.990023
0.999844 1.00455 0.990431
0.998077 1.00386 0.993424
1.00049 1.00475 0.989456
0.999414 1.00395 0.991965
1.00025 1.00499 0.989641
0.996816 1.00492 0.99431
0.995975 1.00516 0.996621
0.998612 1.00483 0.992407
1.00057 1.00505 0.989507
1.00056 1.00474 0.989368
1 1.00315 0.991418
1.00006 1.00491 0.989917
1.00015 1.00311 0.991617
0.998855 1.00288 0.993281
0.998874 1.00448 0.991765
0.998447 1.00511 0.991922
0.998545 1.00262 0.994366
1.00028 1.00199 0.992592
1.00299 0.999255 0.990805
0.999014 1.0049 0.99109
0.999177 1.00488 0.991343
0.999488 1.00503 0.990071
0.999499 1.00494 0.99081
1.00009 1.0042 0.990414
0.999707 1.0048 0.990661
1.00013 1.00413 0.99057
1.00002 1.00257 0.992156
1.00028 1.0041 0.990318
0.999972 1.00247 0.992428
1.00003 0.999292 0.996178
0.999927 1.00237 0.992585
0.999878 0.999282 0.996048
1.00001 0.997257 0.997812
0.999744 0.999293 0.99594
0.999951 0.997318 0.999146
0.999929 0.997372 0.999144
1.00037 1.00197 0.992675
0.999959 1.0005 0.994435
1.00018 1.00176 0.992857
1.00005 0.998117 0.996645
0.999911 1.00037 0.994605
0.999907 1.00058 0.99445
1.00006 0.998162 0.99659
0.999992 0.996765 0.999248
1.00007 0.998219 0.99699
0.999972 0.996857 0.998696
0.999932 0.997159 0.998096
0.99975 0.994829 0.853799
0.9947 0.994783 0.798713
0.996395 0.994842 0.964925
1.0015 0.994899 0.984064
1.00527 0.99478 0.991157
0.997135 0.994967 0.966268
1.00351 0.99513 0.986851
1.00048 0.99487 0.937408
0.997913 0.994772 0.861892
0.994706 0.994837 0.807961
0.997808 0.994761 0.97297
0.997993 0.99485 0.942154
0.996504 0.994844 0.880068
0.994763 0.994835 0.806307
0.999961 1.0035 0.991756
0.999813 1.00237 0.992669
1.00013 1.00168 0.993021
0.999885 1.00296 0.992203
0.998739 1.00416 0.992975
1.00031 1.00357 0.990727
1.0002 1.00297 0.991715
1.0006 1.00346 0.990325
1.00018 1.00304 0.991628
0.999957 1.00263 0.99226
1.00407 0.994765 0.991993
1.00473 0.994847 0.990918
1.00426 0.995817 0.990472
1.00227 0.99678 0.992817
1.00067 1.00262 0.992223
0.999508 1.00512 0.989664
1.00034 1.00197 0.992914
0.998351 1.00413 0.993388
1.00241 0.995063 0.991324
0.999317 1.00493 0.990986
0.998291 1.00495 0.992318
1.00345 0.997739 0.990713
1.00417 0.995532 0.99172
1.001 0.99788 0.99475
0.999143 1.00502 0.991663
1.00018 0.99534 0.989768
1.00115 0.998843 0.99391
0.998233 1.00188 0.995603
0.998711 1.00447 0.990654
0.998268 1.00498 0.99157
0.998714 1.00504 0.992171
0.994719 0.994833 0.82234
0.999786 0.994881 0.875165
1.00001 0.994879 0.929234
0.999279 1.00418 0.991818
1.00184 1.00242 0.98951
1.00062 0.998991 0.992442
1.00114 0.999815 0.993366
0.999819 0.994887 0.8794
0.997788 0.994825 0.929602
0.994856 0.994814 0.956732
0.994904 1.00036 0.992317
0.996473 0.994826 0.864557
0.994667 0.994793 0.808412
0.994784 0.99483 0.812116
0.99813 1.00366 0.994297
0.99471 0.994808 0.809093
0.994766 0.994781 0.805993
0.997114 1.00029 0.997498
0.999394 1.00152 0.994962
0.994891 0.998102 0.990887
0.995347 0.994822 0.958449
0.996221 0.995441 0.941934
0.994713 0.997145 0.866562
0.995041 0.994845 0.815378
0.996902 1.00352 0.997416
0.994775 0.994824 0.814834
0.994813 0.994802 0.803515
0.994952 1.00229 0.999977
0.995174 0.996847 0.967515
0.994823 0.996556 0.940423
0.99501 0.9951 0.859434
0.995541 0.994884 0.825205
0.998258 1.00287 0.995236
0.996928 1.00419 0.996436
0.995579 1.00416 0.998269
1.00036 1.0048 0.989436
1.00039 1.00506 0.989666
0.999535 1.00363 0.991549
0.996648 1.00475 0.99464
1.00015 1.00506 0.989523
0.998538 1.00488 0.992365
0.995694 1.00513 0.996915
0.995004 1.00493 0.998324
0.995883 1.00515 0.996791
0.999256 1.0051 0.991614
1.0001 1.00504 0.989856
1.0002 1.00273 0.991517
0.998469 1.00325 0.993842
0.998502 1.00509 0.992025
0.99921 1.00438 0.99174
0.9983 1.00303 0.994461
0.998487 1.00451 0.992763
0.995897 1.00514 0.996675
1.00192 0.997875 0.99417
0.999806 1.00167 0.993371
1.00151 1.00066 0.991409
1.00486 1.00008 0.987248
1.0021 1.00142 0.990691
1.00187 0.998908 0.992669
0.999572 1.00464 0.990842
0.999733 1.00513 0.989502
0.999496 1.0047 0.991384
0.999869 1.00507 0.990073
1.00021 1.00457 0.989806
0.999916 1.0048 0.990819
1.00034 1.004 0.990401
1.00011 1.00278 0.991886
1.00031 1.00386 0.990615
1.00011 1.00256 0.992163
1.00016 0.999356 0.995925
1.00002 1.0024 0.992442
1.00002 0.999304 0.995787
1.0001 0.997316 0.997645
0.999886 0.999251 0.995751
1 0.997266 0.998477
0.999963 0.997288 0.999126
1.00028 1.00259 0.991785
1.00011 1.00063 0.994127
1.00025 1.00202 0.992491
1.00005 0.998164 0.99659
0.999977 1.00045 0.994444
1.00017 1.00173 0.992869
1.00002 0.996719 0.999258
1.00004 0.998119 0.996645
0.999912 1.0004 0.994603
1.00007 0.998151 0.996579
0.999992 0.996803 0.999245
0.999958 0.996855 0.999229
0.994692 0.994769 0.801428
0.999743 0.994844 0.866276
0.994753 0.99477 0.803813
0.994716 0.994777 0.798263
0.997321 0.994875 0.964524
1.00339 0.99479 0.987389
0.999803 0.99484 0.932843
0.998983 0.994819 0.881503
0.994753 0.994836 0.799595
0.99841 0.994821 0.971973
0.998409 0.995464 0.928007
0.995752 0.995485 0.87874
0.994727 0.994825 0.798863
0.99507 0.99482 0.96445
0.996156 0.995387 0.929004
0.99486 0.997395 0.858822
0.994829 0.99487 0.804912
1.00069 1.00457 0.990451
0.999606 1.00346 0.991876
1.00001 1.00207 0.992777
0.998392 1.00379 0.993399
1.00097 1.0036 0.989559
1.00022 1.0035 0.990929
0.999732 1.00343 0.991615
1.00112 1.00288 0.990399
1.00068 1.00359 0.990405
1.00025 1.00281 0.991508
1.002 0.994785 0.991788
1.00317 0.997135 0.990854
1.00371 0.995626 0.991974
1.00067 0.99724 0.995
1.00031 1.00499 0.991255
0.99866 1.0051 0.992254
0.999376 1.00502 0.990752
0.999963 1.00463 0.99036
0.999857 0.995841 0.990312
0.999212 1.005 0.991292
0.999448 1.00494 0.991999
1.001 0.998623 0.994474
0.999289 1.00069 0.995411
0.996409 1.0003 0.989247
0.99676 0.999528 1.0002
0.996175 1.00411 0.996302
0.998939 1.00433 0.992274
0.997521 1.0051 0.993817
0.994803 0.994812 0.821106
0.994713 0.994811 0.818116
0.999801 0.994897 0.857429
0.998185 1.0034 0.994064
0.999116 1.00113 0.994849
0.997318 0.999739 0.99811
0.994684 0.994791 0.807388
0.99625 0.995161 0.930326
0.995442 0.994853 0.957875
0.994853 0.996229 0.993493
0.994766 0.996725 0.885578
0.994773 0.994785 0.80613
0.995233 0.994849 0.816761
0.997265 1.00343 0.997351
0.994785 0.994825 0.817624
0.994799 0.994803 0.8045
0.995208 1.00152 0.999058
0.995185 0.996005 0.969384
0.994808 0.995884 0.928662
0.995205 0.994872 0.820957
0.99509 0.998629 0.86802
0.994914 1.00466 1.00019
0.994792 0.99483 0.807742
0.994869 0.994832 0.813507
0.99482 0.994865 0.805141
0.994773 0.998751 0.989853
0.994867 0.998007 0.943626
0.997681 0.996236 0.877005
0.997371 1.00478 0.996595
0.995722 1.00471 0.998031
0.995074 1.00502 0.999171
1.00006 1.00506 0.989541
0.998558 1.00499 0.992319
0.995478 1.00519 0.997202
0.998863 1.0051 0.99161
0.99597 1.00517 0.996796
0.995107 1.005 0.998257
0.994946 1.00519 0.998484
0.995607 1.00511 0.99706
0.998356 1.00509 0.992149
0.999467 1.00443 0.991714
0.998263 1.00364 0.994575
0.996134 1.00496 0.996553
0.998411 1.00465 0.992722
0.998782 1.00179 0.99521
0.999164 0.997978 0.998059
1.00229 0.999812 0.989841
0.999394 1.00132 0.994089
1.00203 1.00056 0.991012
1.00454 1.00155 0.985986
1.00489 1.00249 0.984283
1.00396 0.998956 0.989799
1.00393 1.00009 0.987611
1.00104 1.00487 0.988638
1.00131 1.00185 0.991095
1.00063 0.998583 0.994506
1.00014 1.00445 0.990596
0.999992 1.00512 0.9895
1.0003 1.00508 0.989046
1.00026 1.00507 0.990078
1.00037 1.00451 0.989807
1.00015 1.00318 0.99133
1.00047 1.00388 0.990386
1.00017 1.00267 0.991878
1.00019 0.999471 0.995756
1.00011 1.00256 0.992169
1.00013 0.99939 0.995526
1.0002 0.997359 0.997462
1.00003 0.999323 0.99546
1.00009 0.997295 0.998357
1.00004 0.997252 0.999062
1.00063 1.00275 0.990941
1.00014 1.00099 0.9934
1.00043 1.00245 0.99178
1.00012 0.998216 0.996429
1.00008 1.00064 0.993969
1.00018 1.00207 0.99231
1.00005 0.996731 0.999242
1.00006 0.998134 0.996601
0.999991 1.00038 0.994452
1.00002 0.996743 0.999255
1.00003 0.998137 0.996646
0.999992 0.996784 0.999242
0.994819 0.994819 0.811292
0.9947 0.994806 0.81479
0.999733 0.994815 0.865126
1.00115 1.00266 0.990441
0.994816 0.994801 0.810028
0.994755 0.994772 0.803772
0.994748 0.994783 0.811603
0.998957 0.994854 0.971211
0.997493 0.994826 0.941446
0.996188 0.994853 0.862077
0.994693 0.994827 0.808341
0.99622 0.994823 0.962169
0.996312 0.996349 0.940492
0.994763 0.996073 0.862314
0.994841 0.994864 0.808617
0.994812 0.994777 0.956385
0.994809 0.994935 0.938291
0.995529 0.999796 0.871596
0.995163 0.994894 0.82545
0.99944 1.00465 0.991036
1.00007 1.00436 0.990434
0.999795 1.00339 0.991997
1.00082 1.00275 0.990709
1.00074 1.00402 0.989788
1.00016 1.00384 0.991128
1.00113 1.00302 0.990347
1.00068 1.00364 0.990478
0.998663 0.997369 0.990703
1.00043 0.998227 0.994961
1.00018 1.00471 0.99006
1.00045 0.999744 0.995228
0.999672 1.00476 0.991832
0.999702 1.00506 0.991016
0.998814 1.00425 0.992241
0.995995 0.999756 0.989823
0.99799 1.00491 0.993957
0.997089 1.00328 0.996576
0.996168 1.00034 1.0003
0.998452 1.004 0.993625
0.994769 1.00158 0.987056
0.995378 1.00277 0.998719
0.995819 1.00487 0.997273
0.997164 1.00509 0.99533
0.994776 0.994811 0.813086
0.994806 0.994814 0.818462
0.994703 0.994796 0.813768
0.997476 1.00348 0.99726
0.995455 1.00055 0.998117
0.994802 0.994827 0.820222
0.99476 0.996131 0.941427
0.995565 0.996025 0.96658
0.995227 0.997513 0.866313
0.994801 0.994805 0.805258
0.994893 0.994864 0.816699
0.995282 1.00456 0.999885
0.994795 0.994827 0.807866
0.99487 0.994843 0.814046
0.994794 0.999351 0.993594
0.994836 0.994854 0.808752
0.994849 0.996469 0.935812
0.996224 0.997441 0.879234
0.994819 1.00327 0.99834
0.994838 0.99484 0.815328
0.994803 0.994806 0.81139
0.994761 0.994824 0.806302
0.995942 0.999777 0.870385
0.994863 1.00106 0.973815
0.995609 0.997555 0.92876
0.996051 1.00501 0.997804
0.995105 1.00514 0.999162
0.994889 1.00523 0.998368
0.998322 1.00512 0.991604
0.995666 1.0052 0.996805
0.994979 1.00517 0.998204
0.995631 1.00498 0.997002
0.994945 1.00515 0.9985
0.997612 1.00226 0.997957
0.996157 1.00486 0.996413
0.998274 1.00472 0.992705
0.9985 1.00203 0.995849
0.998642 1.00114 0.99365
0.996542 0.998214 1.00174
1.00194 0.999615 0.991146
1.00441 1.00455 0.982276
1.00445 1.0029 0.984167
1.0025 1.00045 0.990556
1.00433 1.0019 0.985445
1.0051 1.00226 0.984033
1.00507 1.00011 0.986467
1.00457 1.00224 0.984611
1.00227 1.00244 0.988769
1.00342 0.999649 0.989557
1.00312 1.0001 0.988002
1.00051 1.00513 0.988425
1.00055 1.00485 0.988861
1.00047 1.00219 0.991487
1.00021 1.0051 0.989499
1.00049 1.00505 0.989071
1.00022 1.00418 0.990269
1.00051 1.00462 0.989808
1.00022 1.00323 0.991315
1.00016 0.999698 0.99483
1.0003 1.00263 0.991872
1.00021 0.999484 0.994997
1.00012 0.99736 0.998899
1.00013 0.999462 0.995177
1.00015 0.99735 0.99822
1.00011 0.997286 0.998981
1.00053 1.00293 0.990876
1.00031 1.00143 0.992725
1.00056 1.0028 0.991102
1.00019 0.998373 0.996171
1.00023 1.00095 0.993322
1.00047 1.00243 0.991771
1.00008 0.996725 0.999205
1.00013 0.99819 0.996443
1.00009 1.00063 0.993812
1.00005 0.996717 0.999248
1.00007 0.998101 0.996613
1.00001 0.996782 0.999253
0.994797 0.994829 0.815434
0.994815 0.994817 0.811622
0.994693 0.994822 0.814548
1.00108 1.00266 0.990599
1.00055 1.00323 0.990373
1.00128 1.00172 0.991466
0.994874 0.994838 0.812549
0.994816 0.994796 0.810859
0.994755 0.994759 0.803838
0.996885 0.994802 0.962535
0.995414 0.994758 0.928566
0.994799 0.99746 0.884032
0.994834 0.994847 0.802956
0.995001 0.994936 0.958517
0.994879 0.997005 0.93427
0.995519 0.997442 0.86829
0.995157 0.994884 0.820906
0.99551 0.995048 0.955848
0.994835 0.997109 0.938723
0.996533 0.996081 0.878652
0.994839 0.994848 0.806285
0.999617 1.00259 0.992612
1.00013 1.00387 0.990842
1.00014 1.004 0.990416
1.00097 1.00264 0.990648
1.0004 1.00431 0.990019
1.00109 1.00321 0.990295
0.996035 0.998494 0.99057
0.996061 1.00129 1.00055
0.999324 1.00349 0.992209
0.998351 1.00252 0.996755
0.998356 1.0045 0.994089
0.997825 1.00382 0.994215
0.996707 1.00471 0.995628
0.99477 1.00213 0.98692
0.995517 1.00516 0.997642
0.995328 1.00348 0.998067
0.996756 1.00501 0.995454
0.995021 1.00196 0.985004
0.995348 1.00525 0.995116
0.994943 1.00413 0.998834
0.994852 0.994837 0.812176
0.994781 0.99482 0.81225
0.994809 0.994812 0.815863
0.995689 1.00393 0.999546
0.994816 0.999557 0.989367
0.994792 0.994826 0.808
0.994827 0.997567 0.935373
0.996791 0.996242 0.864002
0.994871 0.994843 0.814562
0.994829 0.994841 0.803351
0.994797 1.00313 0.998824
0.994828 0.994841 0.815367
0.99482 0.994804 0.812287
0.994872 1.00002 0.971284
0.994719 0.994822 0.799292
0.995727 0.999052 0.86621
0.994889 0.99565 0.942473
0.994871 1.00519 0.990036
0.994789 0.994836 0.815917
0.994773 0.994784 0.805208
0.994677 0.99482 0.817609
0.994805 0.997376 0.857815
0.994859 0.998247 0.937854
0.99487 1.00126 0.965625
0.995111 1.00511 0.999114
0.994913 1.00523 0.998293
0.996006 1.00426 0.997408
0.995868 1.00475 0.99695
0.994941 1.0051 0.998537
0.996251 1.0039 0.997916
0.999183 0.999313 0.998132
0.998155 1.00238 0.996473
1.00108 1.00086 0.992663
1.00219 1.005 0.985839
1.00139 0.999435 0.992739
1.00429 1.00425 0.983234
1.00427 1.00459 0.982366
1.005 1.0013 0.98443
1.00504 1.00177 0.984456
1.00444 1.003 0.984004
1.0044 1.00219 0.984922
1.0051 1.0016 0.984673
1.00511 1.00214 0.984124
1.00429 1.00035 0.987458
1.00468 1.00019 0.986783
1.00421 1.00198 0.984941
1.001 1.00487 0.98794
1.00216 1.00278 0.9887
1.00284 1.00044 0.989306
1.00049 1.00479 0.989241
1.00086 1.00511 0.98843
1.00026 1.00485 0.989085
1.00073 1.00502 0.989097
1.00039 1.00399 0.990279
1.00008 1.00034 0.994284
1.00035 1.00311 0.9913
1.00018 0.999743 0.994804
1.00014 0.997506 0.998859
1.00023 0.999487 0.994998
1.00018 0.997391 0.998143
1.00015 0.997366 0.998912
1.00084 1.00323 0.990473
1.00043 1.00172 0.992436
1.00069 1.00275 0.990935
1.00027 0.99861 0.995799
1.00031 1.00142 0.992811
1.00056 1.00278 0.991267
1.00012 0.996793 0.999147
1.0002 0.998316 0.99619
1.00028 1.00091 0.993246
1.00008 0.996741 0.999217
1.00013 0.998164 0.996458
1.00005 0.996737 0.999255
0.994834 0.994838 0.814262
0.994799 0.994844 0.815581
0.994813 0.994826 0.811978
0.999912 1.00496 0.989719
1.00098 1.00418 0.990409
1.0009 1.00274 0.990766
1.00048 1.00363 0.990264
1.00067 1.00188 0.991711
1.00025 1.00294 0.991343
0.999856 1.00163 0.993182
0.99483 0.994811 0.804299
0.994881 0.994848 0.813186
0.994808 0.994825 0.811708
0.994895 0.994879 0.81641
0.995333 0.995149 0.956611
0.994827 0.997938 0.928936
0.995608 0.99491 0.882324
0.995118 0.995199 0.955155
0.99486 0.99825 0.925847
0.995691 0.997443 0.879813
0.994915 0.994847 0.816391
0.995796 0.996426 0.959494
0.994961 0.998414 0.927758
0.994897 0.995564 0.860187
0.994742 0.994822 0.799988
0.997385 1.0046 0.994646
0.999312 1.00317 0.992997
1.00022 1.00404 0.990648
1.001 1.00289 0.990595
0.994822 1.0018 0.98688
0.995381 1.00395 0.997296
0.997377 1.00472 0.994804
0.9968 1.00463 0.995934
0.995338 1.00515 0.998106
0.996494 1.00501 0.995596
0.995363 1.00424 0.99887
0.995511 1.00149 0.981745
0.995206 1.00524 0.995305
0.995747 1.00406 0.997652
0.995064 1.00417 0.979426
0.995256 1.00303 0.999082
0.994775 0.99482 0.813831
0.994843 0.994836 0.815552
0.994788 0.994835 0.811394
0.994787 1.00318 0.999294
0.994865 1.00029 0.974572
0.994818 0.994839 0.815452
0.995014 0.997668 0.929865
0.996451 0.995729 0.880661
0.994828 0.994828 0.813083
0.994686 0.994827 0.808485
0.994883 1.0048 0.990951
0.994806 0.994837 0.81609
0.994758 0.994784 0.805224
0.994865 0.999844 0.965658
0.994715 0.994829 0.809503
0.994731 0.997049 0.860617
0.994856 0.998431 0.925703
0.994885 1.00463 0.984911
0.994834 0.994816 0.811465
0.99469 0.994788 0.800354
0.996183 0.994831 0.881709
0.994764 0.996376 0.937753
0.99479 0.999976 0.959097
0.994928 1.00529 0.998617
0.995461 1.00452 0.997491
0.996656 1.00055 0.998587
0.9952 1.00511 0.997866
0.99731 1.00103 0.998509
1.00191 1.00054 0.992506
1.00359 1.00042 0.991684
1.0031 1.00503 0.985094
1.00411 1.00305 0.983878
1.00392 1.00401 0.984191
1.0044 1.00455 0.982316
1.00449 1.00362 0.983275
1.00524 0.999379 0.985892
1.00512 1.00072 0.985273
1.00505 1.00148 0.98437
1.0051 1.00158 0.984571
1.00502 1.00161 0.984463
1.00437 1.00314 0.983839
1.00512 1.00135 0.985166
1.00507 1.00183 0.98455
1.00512 1.00203 0.98422
1.00289 1.00298 0.987398
1.00365 1.00081 0.987923
1.00434 1.00023 0.987103
1.00069 1.00504 0.98827
1.00139 1.00464 0.987999
1.00182 1.00319 0.988628
1.0002 1.00093 0.9935
1.00063 1.00463 0.989258
1.00113 1.00509 0.988435
1.00049 1.00389 0.990288
1.0001 1.0004 0.99425
1.00009 0.997758 0.998774
1.00019 0.999788 0.994779
1.00014 0.997498 0.998844
1.00016 0.997346 0.998878
1.00015 1.00509 0.989908
1.00073 1.00461 0.989518
1.00063 1.00218 0.991675
1.00064 1.00341 0.99045
1.00027 0.998977 0.995409
1.00043 1.00174 0.992429
1.00072 1.00272 0.990995
1.00014 0.996952 0.999055
1.00026 0.998602 0.99582
1.00032 1.00143 0.992894
1.00011 0.996784 0.999165
1.00021 0.998285 0.996212
1.00008 0.996726 0.999229
0.9948 0.994838 0.808318
0.99482 0.994833 0.814331
0.994808 0.994834 0.815723
1.00018 1.005 0.989709
1.00016 1.00358 0.990614
1.00068 1.00297 0.989171
0.999149 1.00442 0.990602
1.00124 1.00331 0.990864
1.00065 1.00399 0.990153
1.00047 1.00203 0.991954
1.00028 1.00324 0.991371
1.00024 1.00153 0.993269
0.998903 1.00394 0.993377
0.994755 0.994774 0.807066
0.994813 0.994813 0.805359
0.994883 0.994838 0.813756
0.995137 0.994848 0.817691
0.995551 0.996086 0.865208
0.994867 0.995081 0.95414
0.994818 0.997107 0.938135
0.995386 0.996221 0.95564
0.994869 0.996045 0.939792
0.995037 0.998675 0.868906
0.994757 0.994823 0.798302
0.99491 0.998272 0.958715
0.994847 0.999967 0.939338
0.994794 0.995768 0.884599
0.994712 0.994867 0.819139
0.998568 1.00133 0.99626
0.997025 1.0044 0.995101
0.999307 1.00298 0.993399
0.995481 1.0022 0.978208
0.995015 1.00522 0.995389
0.996286 1.00492 0.995729
0.994915 1.00454 0.9989
0.996027 1.00399 0.997626
0.995153 1.00233 0.99947
0.994883 1.00236 0.978976
0.996089 1.00102 1.00017
0.995536 1.00022 0.985744
0.99481 0.994821 0.82025
0.994791 0.994831 0.813006
0.994832 0.994834 0.81899
0.994912 1.00441 0.991235
0.994842 0.999795 0.963296
0.994823 0.994843 0.816258
0.994834 0.99882 0.937638
0.994771 0.997404 0.881493
0.994746 0.994763 0.805438
0.994744 0.99484 0.801132
0.995341 1.00479 0.985627
0.994816 0.994821 0.811672
0.994713 0.99479 0.799955
0.995026 0.998906 0.960178
0.995568 0.994975 0.87967
0.994816 0.99725 0.932138
0.995216 1.0025 0.98267
0.994696 0.994777 0.802295
0.997564 0.99482 0.88283
0.995949 0.995361 0.929295
0.994848 0.996111 0.961082
0.995615 1.00506 0.997592
0.996154 1.0021 0.998481
0.998895 1.00188 0.995739
0.995697 1.00331 0.998891
1.00066 1.00066 0.993555
1.00405 0.998471 0.989878
1.00393 1.00502 0.984334
1.00393 1.0033 0.983771
1.00449 1.00007 0.986205
1.00464 1.00458 0.982266
1.00457 1.00312 0.983368
1.00501 0.999479 0.986306
1.00532 0.996811 0.988219
1.00525 0.998908 0.986265
1.00524 0.999305 0.985963
1.00517 1.00063 0.985444
1.00512 1.00075 0.985193
1.00507 1.00161 0.984309
1.0052 1.002 0.984315
1.00507 1.00149 0.984579
1.00499 1.0015 0.984468
1.00454 1.00157 0.986019
1.00462 1.00173 0.985361
1.00503 1.00209 0.984427
1.00142 1.00466 0.987204
1.00265 1.00303 0.987381
1.00319 1.00115 0.988385
1.00018 1.00199 0.993562
1.001 1.00498 0.98829
1.00175 1.00434 0.988059
1.00016 0.998362 0.996484
1.00019 1.00113 0.993874
1.00077 1.0045 0.989274
1.00013 1.00049 0.994214
1.00011 0.997857 0.998714
1.00014 0.997522 0.998825
1.00095 1.00458 0.988941
1.00098 1.00511 0.988789
0.999576 1.0051 0.989849
1.00052 1.00337 0.990704
1.0006 1.00451 0.989492
1.00023 0.999405 0.995048
1.00053 1.00234 0.991696
1.00063 1.0035 0.990421
1.00013 0.997228 0.998969
1.00028 0.998945 0.995427
1.00043 1.00176 0.992423
1.00013 0.996951 0.999084
1.00025 0.998573 0.99584
1.00011 0.996781 0.999183
0.994782 0.994822 0.82122
0.994805 0.994838 0.808473
0.994807 0.99485 0.814405
1.00253 1.00133 0.988443
0.999838 1.00503 0.989696
0.99989 1.0036 0.990845
1.0001 1.00508 0.990252
1.00166 1.00252 0.989298
1.00049 1.00325 0.992006
1.00332 1.00261 0.98694
0.997607 1.00496 0.992623
1.00007 1.00337 0.991394
1.00004 1.00095 0.993354
0.998275 1.0038 0.993316
0.998332 1.00409 0.993843
0.99473 0.994813 0.809777
0.994772 0.994779 0.806502
0.994813 0.994814 0.806213
0.994798 0.994952 0.812978
0.994946 0.998064 0.867461
0.994855 0.998405 0.927929
0.995137 0.995066 0.955619
0.994952 0.998657 0.958431
0.994731 0.994939 0.810444
0.99487 0.996474 0.931109
0.994739 0.997352 0.866924
0.994882 0.996405 0.963691
0.994817 0.997986 0.940868
0.995657 0.994852 0.881747
0.999984 0.994831 1.00047
0.99847 1.00132 0.996165
0.996786 1.00428 0.995528
0.99491 1.00187 0.978795
0.995268 1.00139 0.999818
0.996542 1.00395 0.997615
0.997102 1.00031 1.00043
0.995161 0.999133 0.985885
0.996186 0.998483 0.992241
0.99471 0.994827 0.817043
0.994807 0.994814 0.821343
0.994802 0.994831 0.812076
0.994983 1.00448 0.985865
0.99485 0.999964 0.95974
0.994799 0.994828 0.812085
0.994829 0.997948 0.926939
0.995964 0.994842 0.863541
0.994756 0.994807 0.812914
0.994809 1.00485 0.982563
0.994705 0.994819 0.815388
0.99769 0.994763 0.862927
0.994862 0.995743 0.956863
0.996088 0.996098 0.940919
0.994886 1.00208 0.989465
0.999796 0.99485 0.853952
0.997784 0.994831 0.942919
0.994844 0.994819 0.955828
0.995356 1.0033 0.9984
0.998213 1.00151 0.995561
1.00103 1.00198 0.992078
0.999685 1.00055 0.994602
1.00333 0.999086 0.989661
1.00455 0.99878 0.988306
1.00384 1.00356 0.98366
1.00441 1.00024 0.986105
1.00507 0.996522 0.988637
1.00462 1.00254 0.983464
1.00494 0.999333 0.986279
1.00533 0.995787 0.989272
1.00528 0.995475 0.99005
1.00529 0.99698 0.988207
1.00533 0.996764 0.988328
1.00526 0.998811 0.986436
1.00524 0.998888 0.986451
1.00523 0.999256 0.986035
1.00526 1.0011 0.984698
1.00518 1.00053 0.985396
1.00512 1.00075 0.985113
1.00518 1.00164 0.984571
1.00509 1.00197 0.984358
1.00503 1.00138 0.984586
1.00283 1.00342 0.98652
1.00422 1.00193 0.985929
1.00403 1.00212 0.985559
1.00039 1.00265 0.991426
1.0019 1.0046 0.98722
1.00247 1.00327 0.987361
0.999864 0.999307 0.998313
1.00028 1.00193 0.992409
1.00126 1.00489 0.98831
1.00013 0.998299 0.998504
1.00021 1.0012 0.993352
1.00013 0.997914 0.998646
1.00339 1.00262 0.98769
1.00106 1.00439 0.988805
1.00125 1.00502 0.988353
1.00065 1.00423 0.989686
1.00068 1.00513 0.988767
0.999795 1.00517 0.989794
1.00013 1.00015 0.994526
1.00049 1.00336 0.990717
1.00047 1.00438 0.989464
1.00011 0.997429 0.998885
1.00022 0.999377 0.995066
1.00042 1.00244 0.991715
1.00012 0.99717 0.998993
1.00028 0.998916 0.995443
1.00012 0.996904 0.999113
0.994725 0.994795 0.801475
0.994802 0.994824 0.821566
0.994811 0.994837 0.80866
1.00238 1.0022 0.988312
1.00484 1.00182 0.986439
1.00241 1.00313 0.987581
0.999881 1.005 0.989898
1.00297 1.00216 0.989424
0.998986 1.0023 0.993108
0.998695 1.00452 0.992088
1.00215 1.00312 0.98801
1.00217 1.00178 0.989758
0.998898 0.999664 0.996387
0.999068 1.00384 0.99324
0.998614 1.00433 0.993705
0.998546 0.994802 0.856304
0.9947 0.994802 0.803315
0.994779 0.994783 0.806652
0.994751 0.994844 0.801224
0.994804 0.997194 0.885738
0.994857 0.997146 0.926769
0.994853 0.996942 0.956977
0.994866 0.996741 0.96141
0.995895 0.996117 0.879808
0.99484 0.996348 0.928511
0.994862 0.997372 0.964778
0.995719 0.994774 0.929389
0.99963 0.995368 1.00245
0.99964 0.995889 1.00045
0.99826 1.00119 0.99615
0.994858 0.998885 0.98619
0.997686 0.999585 1.00069
0.996607 0.998691 0.991837
0.996196 0.996634 0.990264
0.999792 0.994933 0.868565
0.994701 0.994815 0.81426
0.994813 0.994816 0.822244
0.994796 1.00497 0.982923
0.994853 0.994883 0.955055
0.994699 0.99483 0.814983
0.995325 0.994764 0.929903
0.998676 0.99482 0.882807
0.994898 1.00007 0.986124
0.999759 0.994855 0.866535
0.998014 0.994955 0.929144
0.994836 0.994791 0.957241
0.996515 0.998339 0.987288
0.999968 0.994887 0.941889
0.995129 0.994813 0.962998
0.997269 1.00089 0.995377
1.00011 1.00085 0.992093
1.00357 0.999569 0.99082
1.00247 1.00005 0.989463
1.00426 0.998691 0.988252
1.00518 0.996255 0.989195
1.00437 1.00046 0.98601
1.00492 0.997033 0.988584
1.00529 0.994909 0.990081
1.00489 0.999207 0.986249
1.00533 0.995811 0.989218
1.00527 0.994917 0.990524
1.00528 0.99507 0.990557
1.00528 0.995442 0.990174
1.00524 0.995797 0.990009
1.00529 0.997354 0.988187
1.00529 0.997028 0.988344
1.00535 0.996703 0.988439
1.0053 0.999664 0.985976
1.00526 0.998861 0.986386
1.00524 0.998844 0.986637
1.00531 1.00169 0.984172
1.00528 1.00111 0.984727
1.00518 1.00047 0.985348
1.0036 1.00276 0.985947
1.00514 1.0017 0.984577
1.00491 1.00195 0.984403
1.00086 1.00306 0.990303
1.00288 1.00346 0.986485
1.00404 1.00199 0.985843
1.00011 0.999546 0.998007
1.00055 1.00254 0.991405
1.00225 1.0045 0.987236
1.00005 0.999195 0.997131
1.00044 1.00179 0.992424
1.00015 0.998558 0.998377
1.00453 1.00082 0.98715
1.00259 1.00259 0.987756
1.00136 1.00459 0.987883
1.001 1.00434 0.98866
1.00087 1.00507 0.988396
1.00098 1.00477 0.988814
1.00016 1.00094 0.99371
1.00057 1.00435 0.989664
1.00016 1.00513 0.988746
1.00008 0.997833 0.998726
1.00013 1.00003 0.994554
1.0005 1.00339 0.990731
1.0001 0.997454 0.998911
1.00021 0.999348 0.995094
1.00012 0.997152 0.999018
0.999715 0.994817 0.866702
0.994709 0.994803 0.807345
0.994811 0.994824 0.821952
1.00207 1.00247 0.988184
1.00265 1.00354 0.986721
1.00445 1.00233 0.986401
1.00492 1.00345 0.983551
1.00219 1.00299 0.988145
0.999486 1.00482 0.991603
1.0018 1.00353 0.989072
1.00151 1.00181 0.990427
1.00454 0.99665 0.989506
1.00213 0.998627 0.993444
1.00211 0.996441 0.995015
1.00021 0.998874 0.996081
0.999727 1.00272 0.993566
0.997602 0.994847 0.939444
0.998577 0.994771 0.860915
0.994673 0.994797 0.80902
0.996052 0.994847 0.865492
0.994822 0.997736 0.938511
0.994872 0.995848 0.962801
0.994859 0.996727 0.966445
0.996468 0.996945 0.941744
0.995737 0.994792 0.965413
0.998941 0.996838 1.00032
0.99885 0.996015 1.0025
0.999288 0.997081 1.00036
0.997101 0.998026 0.99155
0.99726 0.997086 0.990396
0.999984 0.994895 0.928661
0.999793 0.994887 0.874494
0.994687 0.994797 0.811599
0.994907 0.999261 0.982456
0.995113 0.994779 0.95617
0.999786 0.994813 0.865579
0.997637 0.994814 0.942253
0.996267 0.998121 0.98753
1.00012 0.994868 0.937581
0.99584 0.994829 0.960859
1.00041 0.994978 0.986839
0.997971 0.994797 0.971147
0.999267 0.999277 0.992144
1.00271 0.998035 0.990855
1.0051 0.995149 0.991272
1.00412 0.998383 0.988187
1.00513 0.996071 0.989107
1.00529 0.99483 0.990376
1.00469 0.997482 0.988532
1.00529 0.994972 0.990031
1.00527 0.994821 0.990509
1.00532 0.995824 0.989165
1.00526 0.994946 0.990495
1.00529 0.994844 0.990633
1.00528 0.995024 0.990614
1.00527 0.995228 0.990554
1.00528 0.995404 0.990297
1.00524 0.995779 0.990012
1.00522 0.996301 0.989499
1.00529 0.998419 0.98736
1.00529 0.997416 0.988171
1.00529 0.997075 0.98848
1.00535 1.00119 0.98455
1.0053 0.99976 0.98583
1.00527 0.998915 0.986336
1.00443 1.00206 0.985295
1.00527 1.00171 0.984231
1.0053 1.00112 0.984755
1.00132 1.00316 0.989262
1.0034 1.00304 0.985956
1.00491 1.00193 0.984582
1.00025 1.00032 0.997583
1.00097 1.00288 0.990291
1.00309 1.00355 0.986449
1.00018 0.999752 0.997852
1.00069 1.00241 0.991383
1.00018 0.999146 0.998091
1.00518 1.00278 0.984083
1.00414 1.00077 0.987087
1.00286 1.00278 0.987039
1.00208 1.00256 0.987836
1.00143 1.00452 0.987725
1.00127 1.00504 0.987969
1.00063 1.00512 0.988434
1.00071 1.00491 0.98878
1.00024 1.00173 0.992745
1.00006 0.998379 0.998466
1.00011 1.00089 0.993733
1.0004 1.00443 0.989643
1.00006 0.99774 0.998786
1.00014 0.999927 0.994565
1.00008 0.997403 0.998935
0.999965 0.994886 0.94247
0.999814 0.994853 0.865853
0.994686 0.994791 0.801369
1.00231 1.00468 0.985856
1.00372 1.00269 0.986364
1.0033 1.00293 0.98746
1.00448 1.00327 0.983926
1.00518 1.00069 0.98501
1.00365 1.00009 0.987147
1.00067 1.00229 0.991059
1.00454 0.995876 0.989975
1.00211 0.99833 0.99348
1.00433 0.995326 0.990589
1.00362 0.997338 0.992546
1.00225 0.997238 0.993669
1.00171 0.996696 0.994854
0.99969 0.999616 0.995786
0.995651 0.994802 0.963716
0.998532 0.995816 0.934816
0.997444 0.994829 0.878499
0.995681 0.995788 0.929133
0.994898 0.996751 0.96683
0.995533 0.99571 0.971136
0.999268 0.994807 0.991989
0.999793 0.996136 0.999703
0.998124 0.996568 1.00258
0.998685 0.998913 0.990572
0.997365 0.994985 0.965497
1.00004 0.994874 0.942992
0.999806 0.994909 0.85666
0.995905 0.998164 0.987889
0.996299 0.99483 0.961158
0.999775 0.994834 0.932817
0.999744 0.995892 0.987248
0.998323 0.994835 0.970226
1.00293 0.99554 0.989238
1.00354 0.996034 0.984697
1.0017 0.996987 0.990878
1.00459 0.995133 0.991293
1.00526 0.994846 0.990727
1.00507 0.996015 0.989021
1.00529 0.994827 0.990325
1.00531 0.994905 0.990471
1.00529 0.995053 0.989979
1.00527 0.994834 0.99049
1.00532 0.994896 0.9905
1.00525 0.994981 0.990466
1.00529 0.99486 0.990641
1.00531 0.994898 0.990634
1.00527 0.994982 0.99067
1.00527 0.995186 0.990564
1.00524 0.995631 0.990308
1.00524 0.995768 0.990014
1.00522 0.996315 0.9895
1.00526 0.99761 0.988311
1.0053 1.0002 0.985633
1.00529 0.998606 0.987108
1.00528 0.997481 0.988155
1.00524 1.00108 0.984938
1.00533 1.00122 0.9846
1.00531 0.999861 0.985685
1.00204 1.00277 0.988448
1.00422 1.00233 0.985311
1.00523 1.00173 0.984289
1.00067 1.00082 0.997131
1.00142 1.00307 0.98925
1.00322 1.00332 0.985964
1.00047 1.00046 0.997403
1.00101 1.00276 0.990288
1.00034 0.999965 0.997671
1.00525 1.00148 0.9846
1.00517 1.0023 0.984207
1.00459 1.00206 0.985067
1.00409 1.00133 0.987024
1.00295 1.00285 0.986831
1.00233 1.00403 0.987036
1.00144 1.00447 0.987571
1.00111 1.00504 0.987982
1.00049 1.00242 0.991739
1.00045 1.00511 0.988752
1.00013 1.00189 0.992764
1.00004 0.99921 0.998157
1.00003 0.998324 0.998564
1.00006 1.00092 0.993763
1.00005 0.997716 0.998837
0.996619 0.994885 0.96593
0.999908 0.994878 0.92816
0.999818 0.994883 0.878807
1.00527 0.998527 0.986827
1.00453 1.00284 0.986795
1.00409 1.00305 0.984298
1.0043 0.999869 0.987621
1.00518 1.0009 0.98497
1.005 0.997199 0.988548
1.00491 0.996611 0.990452
1.00189 0.99751 0.993534
1.00475 0.995965 0.990618
1.00333 0.997724 0.991574
1.00457 0.996685 0.989727
1.00328 0.994894 0.99429
1.00223 0.996802 0.993784
1.00164 0.996898 0.994684
0.998653 0.994781 0.990594
0.995755 0.99481 0.962167
0.998312 0.994813 0.929231
0.995235 0.996209 0.970799
0.99888 0.994828 0.994718
1.00004 0.995425 0.999033
1.0023 0.994872 0.981413
0.997387 0.994878 0.965218
0.999995 0.994881 0.928796
0.998762 0.996158 0.987653
0.998602 0.99485 0.969586
1.00206 0.9951 0.989768
1.00325 0.995486 0.98553
1.00387 0.995473 0.990644
1.00524 0.996213 0.990764
1.00409 0.995029 0.991309
1.00524 0.994863 0.990649
1.00538 0.994913 0.990324
1.00529 0.994824 0.990276
1.00529 0.99489 0.990481
1.00536 0.994896 0.990427
1.00528 0.994848 0.990472
1.00531 0.994888 0.990515
1.00532 0.994907 0.990631
1.00528 0.994875 0.99065
1.00531 0.994897 0.990626
1.00527 0.995006 0.990754
1.00526 0.995145 0.990574
1.00524 0.9955 0.990387
1.00526 0.996645 0.989359
1.00523 0.996325 0.9895
1.00526 0.997507 0.988412
1.00529 0.99975 0.986263
1.00529 1.00091 0.985047
1.00532 1.00038 0.985454
1.0053 0.99879 0.986856
1.0029 1.00145 0.98842
1.0051 1.00124 0.984934
1.00532 1.00124 0.984651
1.00106 1.00102 0.996752
1.00228 1.00248 0.988425
1.00402 1.00254 0.985334
1.0008 1.00088 0.996983
1.00158 1.00298 0.989246
1.00061 1.00058 0.997249
1.00524 1.00005 0.985622
1.00524 1.00148 0.984517
1.00515 1.00145 0.984711
1.00518 1.00179 0.984333
1.00483 1.00185 0.984975
1.00318 1.00331 0.986474
1.00316 1.00253 0.986623
1.00226 1.00415 0.987052
1.00076 1.00283 0.990725
1.00099 1.00509 0.987981
1.0003 1.00255 0.991765
1.00006 0.999926 0.997816
0.999978 1.00197 0.992784
0.999991 0.999018 0.998272
1.00001 0.998159 0.998652
1.00017 0.995213 0.986391
0.996522 0.99489 0.962075
0.99998 0.994862 0.942246
1.00524 0.996745 0.988706
1.00524 0.996481 0.989032
1.00527 0.998239 0.987103
1.00491 0.999224 0.988089
1.00517 1.00118 0.984935
1.00511 0.997143 0.988782
1.00526 0.995395 0.989571
1.00499 0.995746 0.990647
1.00307 0.998247 0.990609
1.00439 0.997055 0.990172
1.00514 0.994948 0.990814
1.00372 0.994787 0.993049
1.00292 0.994928 0.993982
1.00251 0.996377 0.993913
0.999334 0.994773 0.990642
0.995862 0.994819 0.960863
0.998886 0.994929 0.997584
1.005 0.994921 0.990424
1.00224 0.995065 0.981548
0.997571 0.994871 0.963913
1.00174 0.994795 0.990244
1.00298 0.994815 0.986378
1.00393 0.995209 0.991315
1.00524 0.995452 0.990857
1.00543 0.994816 0.990854
1.00552 0.99484 0.99109
1.00527 0.994879 0.990569
1.0054 0.99491 0.990304
1.00537 0.994895 0.990538
1.00528 0.994874 0.990491
1.00536 0.994896 0.990453
1.00532 0.994911 0.990637
1.0053 0.994879 0.99053
1.00532 0.994907 0.990627
1.00527 0.994908 0.99089
1.0053 0.994897 0.990618
1.00528 0.994995 0.990728
1.00526 0.995871 0.990067
1.00524 0.995366 0.990465
1.00526 0.996589 0.989379
1.00531 0.999127 0.986863
1.00525 0.997407 0.988513
1.00529 0.999641 0.986393
1.00528 1.00065 0.985337
1.00308 1.00064 0.988855
1.00526 1.00092 0.98506
1.00533 1.00055 0.985275
1.00141 1.00091 0.996526
1.00291 1.00141 0.988406
1.00491 1.00148 0.984928
1.0012 1.00106 0.99662
1.00244 1.0023 0.988391
1.00098 1.00099 0.996812
1.00524 0.998178 0.987477
1.00524 0.999901 0.985827
1.00527 1.00102 0.984986
1.00523 1.00145 0.984427
1.00521 1.00144 0.984673
1.00371 1.00254 0.986195
1.00509 1.00171 0.984887
1.00318 1.00295 0.986463
1.00113 1.00318 0.989678
1.00206 1.00412 0.987075
1.00069 1.00296 0.990743
1.00022 1.00074 0.997446
1.00017 1.0027 0.991789
0.999994 0.999807 0.997949
0.999936 0.998896 0.99838
1.00428 0.995203 0.991869
1.00021 0.995092 0.984155
0.996502 0.994915 0.961782
1.00527 0.99559 0.989879
1.00524 0.996289 0.989054
1.00524 0.99547 0.9902
1.00524 0.996557 0.988995
1.00527 0.997916 0.987374
1.00536 0.994865 0.990211
1.00514 0.997301 0.989007
1.00526 0.995649 0.98958
1.00532 0.994794 0.990579
1.00426 0.997394 0.990615
1.00514 0.995034 0.990494
1.00334 0.994952 0.993316
1.00226 0.995405 0.993682
0.999703 0.994769 0.99046
1.00552 0.99486 0.99083
1.00505 0.995319 0.990395
1.00198 0.995338 0.981773
1.00386 0.994807 0.991977
1.00519 0.994806 0.990963
1.0054 0.994826 0.990886
1.00555 0.994849 0.991033
1.0054 0.994862 0.991004
1.00542 0.994907 0.990288
1.00536 0.994896 0.990553
1.00531 0.994904 0.990846
1.00536 0.994895 0.990479
1.00533 0.994911 0.99063
1.00526 0.99492 0.990959
1.00533 0.994908 0.990624
1.00528 0.994909 0.990871
1.00528 0.995297 0.990716
1.00528 0.994985 0.990703
1.00527 0.995901 0.990047
1.00533 0.998433 0.987599
1.00527 0.996533 0.989399
1.0053 0.99913 0.986886
1.00528 1.00046 0.985563
1.00529 0.999531 0.986524
1.00529 1.00064 0.985354
1.00308 1.00033 0.990919
1.00175 1.00019 0.993181
1.00311 1.00066 0.989712
1.00525 1.00093 0.985071
1.00141 1.00088 0.996562
1.003 1.00123 0.988392
1.00127 1.00113 0.996543
1.00522 0.995349 0.99055
1.00524 0.996854 0.988986
1.00523 0.998148 0.987682
1.00527 1.0003 0.98566
1.00524 0.999758 0.986033
1.00527 1.00107 0.984911
1.00449 1.00141 0.985708
1.00526 1.00142 0.984633
1.00389 1.00204 0.986169
1.00193 1.00287 0.988693
1.00335 1.00259 0.98645
1.0011 1.00325 0.989665
1.00056 1.00129 0.996988
1.00057 1.00302 0.990768
1.00009 1.00049 0.997593
0.999923 0.999639 0.998071
1.00547 0.994804 0.99081
1.00423 0.995093 0.991513
1.00061 0.99489 0.981987
1.00528 0.99494 0.990562
1.00524 0.995625 0.989772
1.00523 0.995859 0.989405
1.00523 0.995632 0.99015
1.00523 0.996639 0.988957
1.00538 0.994832 0.990573
1.00535 0.994866 0.990196
1.00526 0.99583 0.989585
1.00528 0.994793 0.990623
1.00512 0.995087 0.990173
1.00315 0.994695 0.993577
1.00533 0.994894 0.991126
1.00553 0.994845 0.990888
1.00516 0.995504 0.990362
1.00537 0.994836 0.990896
1.00558 0.994868 0.990978
1.00541 0.994864 0.990953
1.00531 0.994914 0.991143
1.00536 0.994899 0.990568
1.00532 0.994905 0.990807
1.00527 0.994938 0.991061
1.00533 0.994911 0.990623
1.00526 0.994919 0.990958
1.0053 0.994984 0.991071
1.00528 0.994909 0.990853
1.00526 0.995311 0.990697
1.00535 0.99777 0.988287
1.00527 0.995932 0.990027
1.00532 0.998445 0.987619
1.00527 1.00027 0.985786
1.0053 0.999134 0.98691
1.00529 1.00044 0.98559
1.00315 1.00013 0.991012
1.00529 1.00062 0.98537
1.0033 1.00022 0.990782
1.00181 0.999853 0.993388
1.00142 1.0005 0.995003
1.00331 1.00065 0.990389
1.00139 1.00086 0.996599
1.00522 0.994907 0.99101
1.00523 0.996498 0.989397
1.00522 0.995281 0.990656
1.00528 0.999336 0.98661
1.00525 0.996897 0.98898
1.00523 0.998119 0.987887
1.00526 1.00031 0.985605
1.0051 1.00076 0.985429
1.00526 1.00112 0.984836
1.0047 1.00118 0.985706
1.00271 1.00179 0.988363
1.00405 1.00164 0.986147
1.00173 1.00305 0.988707
1.00094 1.00155 0.996602
1.00097 1.00338 0.989664
1.00038 1.00113 0.997175
1 1.00036 0.997734
1.00533 0.994895 0.990829
1.0054 0.994808 0.990871
1.004 0.995098 0.991159
1.00528 0.994864 0.990801
1.00527 0.994989 0.990502
1.00521 0.995648 0.989673
1.00522 0.995793 0.990097
1.00537 0.994833 0.990574
1.00534 0.994867 0.990181
1.00524 0.994797 0.990666
1.00528 0.994936 0.991194
1.00532 0.994896 0.991098
1.00553 0.994821 0.990942
1.00529 0.994933 0.99123
1.00542 0.994865 0.990902
1.0053 0.994915 0.991134
1.00527 0.994936 0.991177
1.00532 0.994907 0.990768
1.00526 0.994938 0.991071
1.00531 0.994926 0.991191
1.00526 0.994918 0.990958
1.00529 0.994989 0.991052
1.00536 0.997205 0.988907
1.00525 0.995325 0.990677
1.00536 0.997789 0.988296
1.00526 1.00006 0.986054
1.00531 0.998456 0.98764
1.00529 1.00024 0.985815
1.00318 1.00013 0.990956
1.0053 1.00041 0.985616
1.00335 1.00005 0.990844
1.00187 0.999774 0.99337
1.00351 1.00009 0.990654
1.00133 1.00004 0.993707
1.00075 1.00086 0.997182
1.00521 0.994889 0.991089
1.00523 0.995675 0.990298
1.00521 0.994959 0.990971
1.00528 0.99892 0.987092
1.00523 0.996205 0.989641
1.00523 0.995214 0.990763
1.00529 1.00031 0.985641
1.00528 0.999324 0.986575
1.00525 0.996939 0.988976
1.00526 1.00032 0.985548
1.00515 1.00068 0.985429
1.00295 1.00092 0.988791
1.00483 1.00096 0.985708
1.00254 1.00201 0.988401
1.00115 1.00138 0.996559
1.00164 1.00314 0.98871
1.00081 1.00142 0.996742
1.00022 1.00095 0.997345
1.00528 0.994939 0.99101
1.00534 0.994893 0.990777
1.00535 0.994808 0.990935
1.00529 0.994865 0.990801
1.00526 0.995048 0.990441
1.00537 0.994835 0.990575
1.00527 0.99495 0.991217
1.00528 0.994933 0.991215
1.00532 0.994898 0.99107
1.00528 0.994936 0.991227
1.00524 0.994945 0.991343
1.0053 0.994916 0.991125
1.00527 0.994938 0.991201
1.00531 0.994951 0.991212
1.00526 0.994938 0.99108
1.00531 0.994927 0.991178
1.00535 0.996758 0.989437
1.00528 0.994992 0.991033
1.00538 0.997203 0.988901
1.00519 0.999888 0.986391
1.00536 0.997808 0.988305
1.00528 1.00004 0.986073
1.00311 1.00022 0.990928
1.0053 1.00022 0.985843
1.00335 1.00008 0.990776
1.00189 0.99986 0.993251
1.00353 0.999975 0.990685
1.00145 0.99983 0.993717
1.00087 1.00026 0.99401
1.0052 0.994945 0.991114
1.00524 0.99502 0.991019
1.00519 0.994887 0.991054
1.00534 0.997856 0.988133
1.00524 0.995723 0.990244
1.00521 0.995005 0.990932
1.00529 1.00007 0.985926
1.00529 0.998523 0.987437
1.00524 0.995911 0.989885
1.00303 1.0003 0.989283
1.00528 1.00033 0.98562
1.00528 0.999312 0.986541
1.00525 1.00059 0.985424
1.00292 1.00096 0.988799
1.00122 1.00097 0.996698
1.00236 1.00227 0.988432
1.00112 1.00136 0.996548
1.00067 1.00133 0.996903
1.00527 0.994952 0.991163
1.00529 0.99494 0.990982
1.00534 0.99489 0.990726
1.0053 0.994866 0.990802
1.00522 0.994961 0.991356
1.00527 0.994946 0.991223
1.00527 0.994929 0.991235
1.00528 0.99494 0.991225
1.00524 0.994943 0.991338
1.00529 0.995076 0.991104
1.00527 0.99494 0.991226
1.00532 0.995039 0.991125
1.00533 0.996357 0.989947
1.00531 0.994928 0.991164
1.00536 0.996745 0.989427
1.0051 0.999674 0.986752
1.00541 0.997214 0.988895
1.00521 0.999842 0.986404
1.00306 1.00032 0.989317
1.00529 1.00002 0.986094
1.00328 1.00019 0.989928
1.00163 0.999943 0.996666
1.00353 1.00003 0.990597
1.00151 0.999842 0.993607
1.00105 0.999885 0.994047
1.00521 0.994961 0.991198
1.00526 0.994944 0.991089
1.0052 0.994946 0.991145
1.00538 0.997042 0.988964
1.00525 0.995215 0.990758
1.00518 0.994885 0.991018
1.00529 0.99953 0.986502
1.00533 0.997847 0.988149
1.00525 0.99577 0.990189
1.00316 0.999915 0.989473
1.00528 0.999892 0.98608
1.00529 0.998123 0.987781
1.00136 1.0005 0.996799
1.00308 1.00024 0.989277
1.00529 1.00034 0.985595
1.00292 1.00099 0.988816
1.00127 1.00099 0.996641
1.00107 1.00133 0.996582
1.00521 0.994963 0.991287
1.00527 0.994956 0.99116
1.00529 0.994941 0.990954
1.00527 0.995127 0.991155
1.00523 0.994959 0.991331
1.00527 0.994941 0.991229
1.00525 0.994941 0.991332
1.00529 0.995129 0.991101
1.00532 0.996668 0.989586
1.00532 0.995142 0.991039
1.00534 0.996664 0.989583
1.005 0.999063 0.98761
1.00537 0.996718 0.989417
1.0051 0.999666 0.986758
1.00298 1.00019 0.989589
1.00523 0.999801 0.986416
1.00309 1.00027 0.989327
1.00154 1.00002 0.996671
1.00331 1.00019 0.989079
1.00146 0.999963 0.995173
1.00114 0.999818 0.993962
1.00517 0.994958 0.991342
1.00526 0.994962 0.991241
1.0052 0.994963 0.991204
1.00538 0.997194 0.988844
1.00527 0.994942 0.991125
1.0052 0.994947 0.991176
1.00526 0.99935 0.986744
1.00538 0.997446 0.98856
1.00526 0.995416 0.990497
1.00322 0.999862 0.989456
1.00528 0.999489 0.986524
1.00533 0.997845 0.988164
1.00153 1.0001 0.996799
1.00319 0.999871 0.989469
1.00527 0.999708 0.986233
1.00137 1.00052 0.996766
1.00311 1.00017 0.989272
1.00123 1.00103 0.996585
1.00525 0.995184 0.991063
1.00521 0.994962 0.991308
1.00527 0.99496 0.991157
1.00532 0.996685 0.989589
1.00526 0.995173 0.991128
1.00523 0.994957 0.991306
1.00529 0.995181 0.991097
1.00532 0.996702 0.989593
1.00494 0.998877 0.987893
1.00534 0.996956 0.98922
1.00502 0.999257 0.987321
1.0029 1.00005 0.989878
1.0051 0.999653 0.986763
1.00295 1.00021 0.989599
1.00142 1.00004 0.996711
1.00311 1.00023 0.989335
1.0015 1.00003 0.996679
1.00156 0.99993 0.993377
1.00524 0.995254 0.991038
1.00518 0.994956 0.991276
1.00535 0.996977 0.989159
1.00526 0.994961 0.99125
1.0052 0.994965 0.991211
1.00521 0.999638 0.986564
1.00538 0.997211 0.98885
1.00527 0.994941 0.991161
1.0032 0.999967 0.98942
1.00525 0.999544 0.986548
1.00537 0.997853 0.988159
1.00161 0.999931 0.996737
1.00324 0.999853 0.989453
1.00528 0.999447 0.986547
1.00153 1.00014 0.996804
1.00323 0.999837 0.989465
1.00141 1.00054 0.996731
1.00532 0.996786 0.989456
1.00524 0.995223 0.99109
1.00522 0.994961 0.991329
1.00492 0.998824 0.987968
1.00532 0.996724 0.98959
1.00526 0.995222 0.991102
1.00532 0.996741 0.9896
1.00497 0.998849 0.987858
1.00278 0.999956 0.990173
1.00504 0.999454 0.987032
1.00288 1.00005 0.989889
1.00135 1.00002 0.996777
1.00295 1.00022 0.989611
1.00138 1.00006 0.996741
1.00147 1.00004 0.996697
1.00532 0.996861 0.989388
1.00523 0.995118 0.991158
1.00519 0.994954 0.99121
1.0051 0.99957 0.986862
1.00535 0.996991 0.989166
1.00525 0.994959 0.99126
1.00311 1.00004 0.989519
1.00518 0.999693 0.98656
1.00537 0.997226 0.988857
1.00159 0.999928 0.996686
1.0032 0.999985 0.989418
1.00525 0.999726 0.986354
1.00162 0.999958 0.996762
1.00325 0.999855 0.989449
1.00155 1.00015 0.996798
1.00494 0.999258 0.987436
1.00532 0.996622 0.989673
1.00524 0.995265 0.991116
1.00271 0.999868 0.990394
1.00492 0.998792 0.987962
1.00531 0.996757 0.989591
1.00499 0.998815 0.987823
1.00279 0.999929 0.990183
1.00127 1.00002 0.996829
1.00286 1.00006 0.989898
1.00131 1.00003 0.99679
1.00132 1.00008 0.996763
1.00501 0.999395 0.987203
1.00532 0.996707 0.989559
1.00523 0.994964 0.991278
1.00308 1.00005 0.991193
1.00508 0.999577 0.986868
1.00535 0.997009 0.989174
1.00149 0.999965 0.996701
1.00309 1.00008 0.989517
1.00514 0.999753 0.986554
1.00161 0.999935 0.996704
1.00319 1.00001 0.989414
1.00163 0.999969 0.996784
1.00282 0.999863 0.990288
1.00494 0.99906 0.987648
1.00532 0.996455 0.989888
1.00117 0.999979 0.996909
1.0027 0.999864 0.990389
1.00494 0.998762 0.987957
1.00278 0.999904 0.99019
1.00123 1.00001 0.996859
1.00128 1.00005 0.996812
1.00302 0.999953 0.991441
1.00499 0.999402 0.987207
1.00532 0.996568 0.989729
1.00085 1.00001 0.997316
1.00295 1.00006 0.989787
1.00505 0.999577 0.986874
1.00151 0.999975 0.996698
1.00307 1.00014 0.989514
1.00164 0.999938 0.996723
1.00115 0.999935 0.994049
1.00284 0.99987 0.990976
1.00493 0.99886 0.987859
1.00119 0.999982 0.996919
1.00271 0.999865 0.990392
1.00124 0.999994 0.996881
1.00066 0.999996 0.994493
1.00292 0.999933 0.990777
1.00497 0.999414 0.987211
1.00109 1 0.995529
1.00294 1.00006 0.989811
1.00154 0.999974 0.996701
1.00118 0.999966 0.996913
1.00271 0.99986 0.990382
1.00115 0.999983 0.996918
1.00095 0.999963 0.995706
1.00281 0.999926 0.990173
1.00141 0.999992 0.99674
1.0012 0.999968 0.996913
1.00126 0.999977 0.996839

TENSORS stress float
0.00233112 -0.000161295 0.000269889
-0.000161295 0.00114083 -4.70487e-05
0.000269889 -4.70487e-05 0.00111435
0.00724111 8.08333e-05 0.000316391
8.08333e-05 0.00425175 3.66873e-05
0.000316391 3.66873e-05 0.00425962
0.00193846 -9.12903e-05 0.000112218
-9.12903e-05 0.000891058 -1.82974e-05
0.000112218 -1.82974e-05 0.000852177
0.00227748 -9.10465e-05 0.000259711
-9.10465e-05 0.00108346 -2.68193e-05
0.000259711 -2.68193e-05 0.00106689
0.00234661 -0.000141462 0.000263313
-0.000141462 0.0011408 -4.14258e-05
0.000263313 -4.14258e-05 0.00111786
0.00231965 -0.000165938 0.000281391
-0.000165938 0.00113431 -4.88682e-05
0.000281391 -4.88682e-05 0.00110791
0.00190506 -0.000156267 5.35308e-05
-0.000156267 0.00076857 -1.50136e-05
5.35308e-05 -1.50136e-05 0.000648862
0.00718489 7.30491e-05 -7.92591e-06
7.30491e-05 0.00420798 -1.89008e-06
-7.92591e-06 -1.89008e-06 0.00422055
0.00669165 0.000228232 0.000156177
0.000228232 0.00390288 1.59591e-05
0.000156177 1.59591e-05 0.00387498
0.00670709 -3.78514e-06 9.13172e-05
-3.78514e-06 0.00389095 4.87815e-06
9.13172e-05 4.87815e-06 0.00387146
0.00205891 0.00021204 0.000292348
0.00021204 0.000978555 3.9607e-05
0.000292348 3.9607e-05 0.000966753
0.00035996 0.000264916 2.66203e-05
0.000264916 -0.000166647 2.04321e-05
2.66203e-05 2.04321e-05 -0.000313185
0.00185226 -3.27121e-05 0.000253092
-3.27121e-05 0.000814858 4.15582e-06
0.000253092 4.15582e-06 0.00081673
0.00156275 3.57898e-06 6.7901e-05
3.57898e-06 0.000652245 2.02065e-06
6.7901e-05 2.02065e-06 0.000604277
0.00163069 -9.03655e-05 -6.0994e-05
-9.03655e-05 0.000708729 1.14164e-05
-6.0994e-05 1.14164e-05 0.000651233
0.00192602 -9.05173e-05 8.43018e-05
-9.05173e-05 0.000879161 -5.33451e-06
8.43018e-05 -5.33451e-06 0.000843592
0.00195212 -7.98795e-05 0.000122195
-7.98795e-05 0.000904014 -1.97722e-05
0.000122195 -1.97722e-05 0.000861238
0.00193736 -9.7325e-05 0.000100074
-9.7325e-05 0.000884649 -1.4026e-05
0.000100074 -1.4026e-05 0.000848649
0.00199458 -0.000192446 -4.25351e-05
-0.000192446 0.000823681 6.42548e-06
-4.25351e-05 6.42548e-06 0.000713213
0.0062815 -0.000150346 0.000330374
-0.000150346 0.00365279 -1.48417e-05
0.000330374 -1.48417e-05 0.00367284
0.00221727 -6.75929e-05 0.000256538
-6.75929e-05 0.00104651 -1.98296e-05
0.000256538 -1.98296e-05 0.00103331
0.00234163 -0.000117142 0.000261651
-0.000117142 0.00112853 -3.44413e-05
0.000261651 -3.44413e-05 0.00110908
0.00187225 -0.000144742 7.26294e-05
-0.000144742 0.000750637 -1.13793e-05
7.26294e-05 -1.13793e-05 0.000648622
0.00189836 -0.000157941 6.18215e-05
-0.000157941 0.000758617 -1.45578e-05
6.18215e-05 -1.45578e-05 0.000647997
0.00232946 -0.000145726 0.000287609
-0.000145726 0.00112821 -4.58861e-05
0.000287609 -4.58861e-05 0.00110436
0.00190792 -0.000156037 4.758e-05
-0.000156037 0.000790827 -1.53346e-05
4.758e-05 -1.53346e-05 0.000657976
0.00207271 -0.000352177 2.00028e-05
-0.000352177 0.000624839 -8.69041e-06
2.00028e-05 -8.69041e-06 0.000395098
0.00715157 5.67667e-05 -0.000316376
5.67667e-05 0.0041758 -2.71499e-05
-0.000316376 -2.71499e-05 0.00419291
0.00436952 0.000168059 -0.000151189
0.000168059 0.00242704 -1.74808e-05
-0.000151189 -1.74808e-05 0.00240402
0.0044003 8.69705e-05 -0.000152911
8.69705e-05 0.00245225 -1.59511e-05
-0.000152911 -1.59511e-05 0.00243095
0.00708224 -1.32572e-06 -3.07765e-06
-1.32572e-06 0.00415291 -6.60895e-07
-3.07765e-06 -6.60895e-07 0.00416182
0.000405254 0.000248464 -7.09134e-07
0.000248464 -0.000136265 -1.35286e-06
-7.09134e-07 -1.35286e-06 -0.000282924
0.00192157 7.19496e-05 0.000263297
7.19496e-05 0.000857575 2.52602e-05
0.000263297 2.52602e-05 0.000845841
0.00205087 0.000162871 0.000270807
0.000162871 0.000973159 3.90382e-05
0.000270807 3.90382e-05 0.000948826
0.00286637 0.00022028 0.000161437
0.00022028 0.00136195 2.41128e-05
0.000161437 2.41128e-05 0.00127525
0.00619149 -0.000276515 2.12645e-05
-0.000276515 0.00365262 4.33691e-06
2.12645e-05 4.33691e-06 0.003601
0.00299045 0.000299069 0.000170315
0.000299069 0.00148381 2.99285e-05
0.000170315 2.99285e-05 0.00137937
0.000398351 0.000233951 2.60502e-05
0.000233951 -0.000133581 2.81566e-05
2.60502e-05 2.81566e-05 -0.000280685
0.000878967 0.000285831 1.62894e-05
0.000285831 -2.02297e-05 6.27128e-06
1.62894e-05 6.27128e-06 -0.000258946
0.00506836 -0.000114216 0.000190815
-0.000114216 0.0029494 1.96402e-05
0.000190815 1.96402e-05 0.0029447
0.00626629 8.51086e-05 3.15397e-06
8.51086e-05 0.0036288 -1.96054e-06
3.15397e-06 -1.96054e-06 0.00365665
0.00412001 9.51895e-05 -0.000126607
9.51895e-05 0.00226587 -5.96488e-06
-0.000126607 -5.96488e-06 0.00225483
0.00610567 5.78433e-05 0.000320802
5.78433e-05 0.00353051 4.50574e-06
0.000320802 4.50574e-06 0.00355919
0.00145068 8.99008e-05 6.89616e-05
8.99008e-05 0.000586919 4.60665e-06
6.89616e-05 4.60665e-06 0.000544103
0.000480906 1.2118e-05 1.48983e-05
1.2118e-05 -0.000152594 1.62253e-06
1.48983e-05 1.62253e-06 -0.000241785
0.00651849 0.000240445 0.000186681
0.000240445 0.00381588 1.833e-05
0.000186681 1.833e-05 0.00379002
0.00290732 8.0821e-05 0.0001517
8.0821e-05 0.00136669 9.81901e-06
0.0001517 9.81901e-06 0.00130653
0.0015131 -9.08689e-05 -8.23682e-05
-9.08689e-05 0.000636866 1.07669e-05
-8.23682e-05 1.07669e-05 0.000581799
0.0015423 -0.000116546 -7.4201e-05
-0.000116546 0.000659964 1.36455e-05
-7.4201e-05 1.36455e-05 0.000600282
0.00169214 -4.8628e-05 -4.87175e-05
-4.8628e-05 0.000741069 9.50805e-06
-4.87175e-05 9.50805e-06 0.0006835
0.00204511 -0.000194426 -0.0001459
-0.000194426 0.000846341 2.78751e-05
-0.0001459 2.78751e-05 0.000748062
0.0039399 -2.53755e-05 -0.000128546
-2.53755e-05 0.00216434 -1.53289e-06
-0.000128546 -1.53289e-06 0.00215328
0.0018704 -7.01183e-05 8.92855e-05
-7.01183e-05 0.00084224 -4.22386e-06
8.92855e-05 -4.22386e-06 0.000811207
0.00201221 -5.84915e-05 0.00012961
-5.84915e-05 0.000939474 -1.92792e-05
0.00012961 -1.92792e-05 0.000894377
0.00193855 -9.4522e-05 9.08656e-05
-9.4522e-05 0.000884215 -9.20708e-06
9.08656e-05 -9.20708e-06 0.000848848
0.00194406 -0.000122496 -3.43974e-05
-0.000122496 0.000784958 2.53067e-06
-3.43974e-05 2.53067e-06 0.000695384
0.00200114 -0.00019817 -4.97124e-05
-0.00019817 0.000841776 7.43244e-06
-4.97124e-05 7.43244e-06 0.000721949
0.00198641 -0.000174728 -3.68875e-05
-0.000174728 0.000812564 4.61001e-06
-3.68875e-05 4.61001e-06 0.0007106
0.00210619 -0.000355221 -1.04911e-05
-0.000355221 0.000643731 2.73728e-06
-1.04911e-05 2.73728e-06 0.000414545
0.00608869 -4.42823e-08 0.000316815
-4.42823e-08 0.00351763 -2.86391e-06
0.000316815 -2.86391e-06 0.0035476
0.00212849 -4.21961e-05 0.000251067
-4.21961e-05 0.000994394 -1.37011e-05
0.000251067 -1.37011e-05 0.000985231
0.00245021 -1.30085e-05 5.40608e-05
-1.30085e-05 0.00110935 -1.02756e-06
5.40608e-05 -1.02756e-06 0.00103928
0.0018334 -0.000117112 6.5489e-05
-0.000117112 0.000725738 -7.35918e-06
6.5489e-05 -7.35918e-06 0.000633113
0.00189217 -0.000153068 6.87388e-05
-0.000153068 0.000758168 -1.35711e-05
6.87388e-05 -1.35711e-05 0.000652043
0.00193407 -0.000228947 7.94292e-06
-0.000228947 0.000459468 -2.82732e-06
7.94292e-06 -2.82732e-06 0.000285578
0.00195284 -0.00030847 1.63474e-05
-0.00030847 0.000509691 -6.18315e-06
1.63474e-05 -6.18315e-06 0.00030493
0.00189881 -0.000102534 0.000257305
-0.000102534 0.000863453 -3.74093e-05
0.000257305 -3.74093e-05 0.000843145
0.00195858 -0.000123351 3.81143e-05
-0.000123351 0.000838561 -1.42447e-05
3.81143e-05 -1.42447e-05 0.000701669
0.0020654 -0.000385891 2.27062e-05
-0.000385891 0.000667232 -9.64131e-06
2.27062e-05 -9.64131e-06 0.000415016
0.00178427 -0.000465941 7.34415e-06
-0.000465941 0.000207674 -7.96806e-07
7.34415e-06 -7.96806e-07 -6.84702e-05
0.00709701 0.000283743 -0.000361749
0.000283743 0.00415704 -4.2002e-05
-0.000361749 -4.2002e-05 0.00416348
0.00692037 -3.07419e-05 -0.000280379
-3.07419e-05 0.00405323 -2.15906e-05
-0.000280379 -2.15906e-05 0.0040638
0.00708175 0.000135786 -0.000332439
0.000135786 0.0041294 -3.2363e-05
-0.000332439 -3.2363e-05 0.00414798
0.000383286 0.00023614 -2.53959e-05
0.00023614 -0.000143173 -2.08079e-05
-2.53959e-05 -2.08079e-05 -0.000292214
0.00696352 0.000251076 -2.26419e-06
0.000251076 0.00406736 -2.46943e-06
-2.26419e-06 -2.46943e-06 0.00407917
0.00710842 0.0002376 -9.02825e-06
0.0002376 0.00415568 -3.22743e-06
-9.02825e-06 -3.22743e-06 0.00416531
0.000343171 0.000138072 3.64919e-07
0.000138072 -0.000236697 -2.70838e-07
3.64919e-07 -2.70838e-07 -0.000356975
0.0038667 -7.99232e-05 -0.000125464
-7.99232e-05 0.00216242 -5.94116e-06
-0.000125464 -5.94116e-06 0.00213057
0.000298177 0.000214379 8.25715e-07
0.000214379 -0.000215113 -5.36521e-07
8.25715e-07 -5.36521e-07 -0.000355538
0.00180419 0.000247769 6.19339e-05
0.000247769 0.000758385 3.87827e-06
6.19339e-05 3.87827e-06 0.000635864
0.000911507 0.000286113 7.9347e-07
0.000286113 8.10857e-06 2.28616e-07
7.9347e-07 2.28616e-07 -0.000229485
0.00581174 -0.000135513 0.00021595
-0.000135513 0.00342802 2.66998e-05
0.00021595 2.66998e-05 0.00341175
0.00058229 8.40123e-05 1.97075e-05
8.40123e-05 3.76578e-05 1.42669e-05
1.97075e-05 1.42669e-05 -4.30376e-05
0.000457306 0.000107599 1.47526e-05
0.000107599 -0.000182375 1.10972e-05
1.47526e-05 1.10972e-05 -0.000295783
0.00046033 0.000167745 1.94307e-05
0.000167745 -0.00014949 1.89123e-05
1.94307e-05 1.89123e-05 -0.000277957
0.00123218 0.000276628 1.55749e-05
0.000276628 2.19547e-05 5.88651e-06
1.55749e-05 5.88651e-06 -0.00019117
0.00312975 0.0002381 0.000153648
0.0002381 0.00160623 2.23635e-05
0.000153648 2.23635e-05 0.00152111
0.00102768 0.000305709 2.08147e-05
0.000305709 1.03722e-05 7.39554e-06
2.08147e-05 7.39554e-06 -0.000227933
0.000873472 0.000283087 1.40845e-05
0.000283087 8.30457e-05 5.8563e-06
1.40845e-05 5.8563e-06 -0.000161013
0.00138755 0.000476023 4.72614e-06
0.000476023 0.000171656 -2.63396e-06
4.72614e-06 -2.63396e-06 -0.000156441
0.00400683 -0.000129656 0.000123843
-0.000129656 0.00226154 9.23134e-06
0.000123843 9.23134e-06 0.00225777
0.00455711 -0.000171256 2.44398e-05
-0.000171256 0.0026323 -4.89428e-07
2.44398e-05 -4.89428e-07 0.00261517
0.00677343 6.7871e-05 -0.000341642
6.7871e-05 0.00393106 -1.76366e-05
-0.000341642 -1.76366e-05 0.00395754
0.00636681 7.65044e-05 -0.000332472
7.65044e-05 0.00368799 -1.07441e-05
-0.000332472 -1.07441e-05 0.00371704
0.00620002 8.38134e-05 -1.79003e-08
8.38134e-05 0.0035947 -3.9857e-06
-1.79003e-08 -3.9857e-06 0.00362033
0.00395452 3.66018e-05 -0.000137532
3.66018e-05 0.00216324 -7.50406e-06
-0.000137532 -7.50406e-06 0.00215761
0.00159289 3.97955e-05 6.55066e-05
3.97955e-05 0.000551214 1.83341e-06
6.55066e-05 1.83341e-06 0.000480695
0.00429961 0.000155792 -0.000129967
0.000155792 0.00238457 -7.88947e-06
-0.000129967 -7.88947e-06 0.00236509
0.00163336 9.50927e-05 6.6894e-05
9.50927e-05 0.000566426 3.40854e-06
6.6894e-05 3.40854e-06 0.000483979
0.00614202 0.000118099 0.000323289
0.000118099 0.00356703 7.32397e-06
0.000323289 7.32397e-06 0.00358787
0.000377969 1.0307e-05 1.81801e-05
1.0307e-05 -0.000212393 7.31303e-07
1.81801e-05 7.31303e-07 -0.000297511
0.00280813 4.21484e-05 0.000148416
4.21484e-05 0.00131167 6.50237e-06
0.000148416 6.50237e-06 0.00125782
0.00112416 7.09065e-05 1.13608e-05
7.09065e-05 -4.92796e-05 5.49228e-07
1.13608e-05 5.49228e-07 -0.000184085
0.00280953 0.000127059 0.000156514
0.000127059 0.00130596 1.34475e-05
0.000156514 1.34475e-05 0.001238
0.00122987 0.00015623 8.40473e-06
0.00015623 -2.71782e-05 1.34631e-06
8.40473e-06 1.34631e-06 -0.000186227
0.0018727 4.10906e-05 -0.000252033
4.10906e-05 0.000825648 3.41444e-06
-0.000252033 3.41444e-06 0.000830064
0.00145529 -2.11572e-05 -6.76993e-05
-2.11572e-05 0.00059286 3.17511e-06
-6.76993e-05 3.17511e-06 0.000544581
0.00168488 -1.93401e-05 -4.27935e-05
-1.93401e-05 0.000735352 8.90837e-06
-4.27935e-05 8.90837e-06 0.000675804
0.00151244 -0.000107841 -8.33481e-05
-0.000107841 0.000639631 1.33662e-05
-8.33481e-05 1.33662e-05 0.000582265
0.0020751 -0.000100972 -0.000136388
-0.000100972 0.000856564 1.334e-05
-0.000136388 1.334e-05 0.000779465
0.00208273 -0.000160803 -0.000140905
-0.000160803 0.000860343 2.34857e-05
-0.000140905 2.34857e-05 0.000772045
0.002046 -0.000214497 -0.000151396
-0.000214497 0.000863317 2.96942e-05
-0.000151396 2.96942e-05 0.000755146
0.00214312 -0.000358401 -3.63587e-05
-0.000358401 0.000666082 1.2908e-05
-3.63587e-05 1.2908e-05 0.000437555
0.00618571 -0.000110218 2.396e-06
-0.000110218 0.00359175 -1.95003e-06
2.396e-06 -1.95003e-06 0.0036137
0.00176413 2.59615e-05 9.61904e-05
2.59615e-05 0.000768119 -4.9242e-06
9.61904e-05 -4.9242e-06 0.000746617
0.00116923 -1.30262e-05 -6.85772e-05
-1.30262e-05 0.00028934 2.23826e-06
-6.85772e-05 2.23826e-06 0.000218412
0.00188532 -8.087e-05 -3.75263e-05
-8.087e-05 0.00074965 3.18614e-06
-3.75263e-05 3.18614e-06 0.000667743
0.00461801 -6.10063e-05 0.000267548
-6.10063e-05 0.00259548 -2.00273e-05
0.000267548 -2.00273e-05 0.00258957
0.0026005 -0.000208405 -4.66215e-05
-0.000208405 0.0012326 4.53918e-06
-4.66215e-05 4.53918e-06 0.00110899
0.00197907 -0.000149694 -3.41726e-05
-0.000149694 0.000806553 3.28584e-06
-3.41726e-05 3.28584e-06 0.000711269
0.00200698 -0.000229459 -9.4877e-06
-0.000229459 0.000501459 1.79633e-06
-9.4877e-06 1.79633e-06 0.000331618
0.00210727 -0.000392881 -8.99753e-06
-0.000392881 0.00069341 2.49746e-06
-8.99753e-06 2.49746e-06 0.000440159
0.00203341 -0.000311916 -9.28698e-06
-0.000311916 0.000560879 2.44583e-06
-9.28698e-06 2.44583e-06 0.00035442
0.00183296 -0.000468787 9.51606e-07
-0.000468787 0.000239793 -1.99713e-07
9.51606e-07 -1.99713e-07 -3.60462e-05
0.000412237 8.77478e-06 1.89457e-05
8.77478e-06 -0.000194244 -6.18464e-07
1.89457e-05 -6.18464e-07 -0.000275651
0.00172954 -8.17743e-06 5.58896e-05
-8.17743e-06 0.000649795 -2.74514e-06
5.58896e-05 -2.74514e-06 0.000571236
0.0018855 -7.67094e-05 9.2536e-06
-7.67094e-05 0.000436138 -2.79272e-07
9.2536e-06 -2.79272e-07 0.000316999
0.00186945 -0.000180225 9.25653e-06
-0.000180225 0.000412512 -1.07539e-06
9.25653e-06 -1.07539e-06 0.000261133
0.00196487 -0.000269947 1.16266e-05
-0.000269947 0.000490185 -4.10842e-06
1.16266e-05 -4.10842e-06 0.000305514
0.00195953 -0.000326192 -4.08293e-07
-0.000326192 0.000178514 -2.64339e-07
-4.08293e-07 -2.64339e-07 -6.27601e-07
0.00655934 8.00264e-05 0.000241264
8.00264e-05 0.00385042 -1.94855e-05
0.000241264 -1.94855e-05 0.00385034
0.00176993 -0.000426799 5.05371e-06
-0.000426799 0.000142229 -6.0917e-07
5.05371e-06 -6.0917e-07 -0.000101036
0.00020395 -0.000191957 2.01887e-05
-0.000191957 -0.00027041 -2.2651e-05
2.01887e-05 -2.2651e-05 -0.000400812
0.000961793 -0.000310114 1.79201e-05
-0.000310114 3.64931e-05 -1.01598e-05
1.79201e-05 -1.01598e-05 -0.000219715
0.00190677 -0.00052338 1.095e-05
-0.00052338 0.000350999 -1.25179e-06
1.095e-05 -1.25179e-06 3.22885e-05
0.00198441 -0.000537745 2.44343e-06
-0.000537745 0.000228377 2.42949e-06
2.44343e-06 2.42949e-06 -3.1548e-05
0.000451849 -0.000161592 2.281e-05
-0.000161592 -7.62888e-05 -1.8182e-05
2.281e-05 -1.8182e-05 -0.000186367
0.000717095 -0.000147914 -6.5588e-07
-0.000147914 0.000139926 -1.17598e-06
-6.5588e-07 -1.17598e-06 -0.000111039
0.00705219 0.00027597 -0.000369007
0.00027597 0.00412925 -3.93707e-05
-0.000369007 -3.93707e-05 0.00413776
0.00712537 0.000227271 -0.000349585
0.000227271 0.00416436 -3.88292e-05
-0.000349585 -3.88292e-05 0.00417781
0.000330237 0.000136257 -1.82533e-05
0.000136257 -0.000246401 -1.3681e-05
-1.82533e-05 -1.3681e-05 -0.000367086
0.00619128 -0.00010613 -0.000225845
-0.00010613 0.00362938 -1.69525e-05
-0.000225845 -1.69525e-05 0.00362844
0.000244367 0.000209693 -2.28694e-05
0.000209693 -0.000230294 -2.16922e-05
-2.28694e-05 -2.16922e-05 -0.000361202
0.000374974 0.000207763 -2.17343e-05
0.000207763 -0.000166162 -1.87876e-05
-2.17343e-05 -1.87876e-05 -0.000308345
0.000911496 0.000284044 -1.79674e-05
0.000284044 1.32113e-05 -7.04318e-06
-1.79674e-05 -7.04318e-06 -0.000223311
0.00562538 -0.000118993 -5.66766e-06
-0.000118993 0.00329402 1.50126e-06
-5.66766e-06 1.50126e-06 0.00328781
0.000529733 6.67246e-05 1.7477e-06
6.67246e-05 7.44811e-06 3.61284e-07
1.7477e-06 3.61284e-07 -6.98871e-05
0.0016866 0.000151128 6.92566e-05
0.000151128 0.000598707 6.22678e-06
6.92566e-05 6.22678e-06 0.000501409
0.00167745 0.000215154 7.11246e-05
0.000215154 0.000628205 7.25576e-06
7.11246e-05 7.25576e-06 0.000514508
0.0012054 0.000275729 3.19947e-09
0.000275729 1.04116e-05 -3.3931e-07
3.19947e-09 -3.3931e-07 -0.000203698
0.000421274 0.000183284 -3.89472e-07
0.000183284 -0.00010129 -3.84839e-07
-3.89472e-07 -3.84839e-07 -0.000215317
0.00102623 0.000302498 1.46169e-06
0.000302498 1.32277e-05 1.29615e-07
1.46169e-06 1.29615e-07 -0.000224021
0.000780887 0.000265241 4.07988e-07
0.000265241 1.92683e-05 -1.00387e-06
4.07988e-07 -1.00387e-06 -0.000218324
0.00153299 0.000498972 -4.66363e-07
0.000498972 0.000250617 -4.64805e-07
-4.66363e-07 -4.64805e-07 -8.11075e-05
0.000421739 0.000141694 1.96025e-05
0.000141694 -7.87519e-05 1.72326e-05
1.96025e-05 1.72326e-05 -0.000181845
0.000628558 2.75387e-05 1.11056e-05
2.75387e-05 8.0652e-05 1.32459e-05
1.11056e-05 1.32459e-05 1.858e-05
0.00141918 0.000233849 5.00498e-06
0.000233849 0.000605174 3.46017e-06
5.00498e-06 3.46017e-06 0.000378014
0.00125869 0.000240944 1.141e-05
0.000240944 3.27803e-06 4.19055e-06
1.141e-05 4.19055e-06 -0.000191535
0.00117994 0.000303403 1.9958e-05
0.000303403 4.07347e-05 7.29617e-06
1.9958e-05 7.29617e-06 -0.000188833
0.0019774 0.000457578 4.08061e-06
0.000457578 0.000251575 -2.9858e-07
4.08061e-06 -2.9858e-07 3.94553e-06
0.000602801 0.000228649 1.02025e-05
0.000228649 -1.29832e-05 5.79043e-06
1.02025e-05 5.79043e-06 -0.000243502
0.00193101 0.000541214 5.56621e-06
0.000541214 0.000389782 -1.5705e-06
5.56621e-06 -1.5705e-06 7.58481e-05
0.00128857 0.000457116 1.98868e-06
0.000457116 0.00022359 -3.19451e-06
1.98868e-06 -3.19451e-06 -0.00012156
0.00159488 0.00057481 -5.98633e-06
0.00057481 0.000188077 -5.61629e-06
-5.98633e-06 -5.61629e-06 -0.000158105
0.00351612 -0.00013572 8.17054e-05
-0.00013572 0.00194275 5.18096e-06
8.17054e-05 5.18096e-06 0.0019379
0.00392713 -0.00017023 1.64587e-05
-0.00017023 0.0022189 -1.07857e-06
1.64587e-05 -1.07857e-06 0.00220438
0.0043994 -0.000217787 -9.25941e-05
-0.000217787 0.00253991 -8.54932e-06
-9.25941e-05 -8.54932e-06 0.0025111
0.000551506 -0.000149017 2.22537e-05
-0.000149017 7.42107e-06 -1.59274e-05
2.22537e-05 -1.59274e-05 -8.94484e-05
0.00596087 0.000128617 0.000201979
0.000128617 0.00350755 -1.94534e-05
0.000201979 -1.94534e-05 0.00349555
0.00696884 0.000229967 -0.000367082
0.000229967 0.00406999 -3.24198e-05
-0.000367082 -3.24198e-05 0.00408555
0.00647331 0.000101061 -0.000335539
0.000101061 0.0037509 -1.51357e-05
-0.000335539 -1.51357e-05 0.00377818
0.000389145 0.000100336 -1.86889e-05
0.000100336 -0.000218789 -5.84158e-06
-1.86889e-05 -5.84158e-06 -0.000319386
0.000342597 4.28994e-05 -1.8469e-05
4.28994e-05 -0.000233455 -2.68119e-06
-1.8469e-05 -2.68119e-06 -0.000323382
0.00614257 -4.48487e-06 -0.000318799
-4.48487e-06 0.00354948 -2.86718e-06
-0.000318799 -2.86718e-06 0.00357955
0.00608077 3.28572e-06 -6.97023e-08
3.28572e-06 0.00351223 -1.10905e-06
-6.97023e-08 -1.10905e-06 0.00354249
0.00035416 7.42115e-07 5.67421e-08
7.42115e-07 -0.000230071 2.20257e-07
5.67421e-08 2.20257e-07 -0.000313457
0.00158596 4.22322e-05 6.60781e-05
4.22322e-05 0.00054046 3.20713e-06
6.60781e-05 3.20713e-06 0.000467075
0.00108081 7.42969e-05 1.72772e-07
7.42969e-05 -8.0677e-05 -1.13723e-07
1.72772e-07 -1.13723e-07 -0.000216657
0.000371317 8.84763e-05 -7.12667e-07
8.84763e-05 -0.000233316 -3.88368e-07
-7.12667e-07 -3.88368e-07 -0.000341118
0.0012066 0.000157857 -5.15e-09
0.000157857 -3.94401e-05 -1.83775e-07
-5.15e-09 -1.83775e-07 -0.000199777
0.000354067 -3.21876e-05 1.87058e-05
-3.21876e-05 -0.000231171 -9.0212e-07
1.87058e-05 -9.0212e-07 -0.000311563
0.00107982 3.12681e-05 1.08587e-05
3.12681e-05 -6.62448e-05 1.52766e-07
1.08587e-05 1.52766e-07 -0.000195106
0.00113231 0.000114481 9.84938e-06
0.000114481 -6.18064e-05 1.16891e-06
9.84938e-06 1.16891e-06 -0.000207396
0.00187854 0.000117337 1.41915e-06
0.000117337 3.97476e-05 -3.37777e-07
1.41915e-06 -3.37777e-07 -5.65233e-05
0.00126997 0.000198239 8.50176e-06
0.000198239 -5.40431e-06 2.54355e-06
8.50176e-06 2.54355e-06 -0.000181434
0.00207019 0.000272168 1.78198e-07
0.000272168 0.000174711 -9.29218e-07
1.78198e-07 -9.29218e-07 3.33441e-05
0.00610277 -7.18853e-05 -0.000322452
-7.18853e-05 0.00353362 3.75226e-06
-0.000322452 3.75226e-06 0.00355959
0.00141299 -0.000159371 -6.83089e-05
-0.000159371 0.000585892 8.46009e-06
-6.83089e-05 8.46009e-06 0.000531871
-0.000233188 -7.75917e-06 -1.17795e-05
-7.75917e-06 -0.00059223 1.63387e-06
-1.17795e-05 1.63387e-06 -0.00068991
0.00201622 -7.25987e-05 -0.000134647
-7.25987e-05 0.000824589 9.1367e-06
-0.000134647 9.1367e-06 0.000752943
0.00699121 0.000240129 -4.15006e-05
0.000240129 0.00411498 3.47864e-06
-4.15006e-05 3.47864e-06 0.00406849
0.00313782 -0.0002872 -0.000157688
-0.0002872 0.00157077 3.0923e-05
-0.000157688 3.0923e-05 0.00145365
0.00209139 -0.00012954 -0.000138508
-0.00012954 0.00086424 1.8395e-05
-0.000138508 1.8395e-05 0.000782508
0.00206664 -0.000229646 -2.89177e-05
-0.000229646 0.000535118 5.48885e-06
-2.89177e-05 5.48885e-06 0.000369489
0.00208961 -0.000313928 -3.2538e-05
-0.000313928 0.000595224 1.11583e-05
-3.2538e-05 1.11583e-05 0.000387426
0.00212963 -0.000396567 -3.79243e-05
-0.000396567 0.000707477 1.3871e-05
-3.79243e-05 1.3871e-05 0.000454152
0.00187582 -0.000471323 -5.97385e-06
-0.000471323 0.000267686 5.8208e-07
-5.97385e-06 5.8208e-07 -7.83866e-06
0.000354374 3.83043e-06 2.82879e-09
3.83043e-06 -0.000228717 3.59283e-07
2.82879e-09 3.59283e-07 -0.000311125
0.00186655 -9.08073e-05 -3.59954e-05
-9.08073e-05 0.000743733 5.5739e-07
-3.59954e-05 5.5739e-07 0.000666544
0.00154322 -7.23843e-05 -1.14969e-05
-7.23843e-05 0.000219119 7.52878e-07
-1.14969e-05 7.52878e-07 9.58595e-05
0.00194072 -0.00018136 -9.76865e-06
-0.00018136 0.000455373 1.62417e-06
-9.76865e-06 1.62417e-06 0.000301827
0.00678598 7.89993e-05 4.8081e-06
7.89993e-05 0.00399521 4.14799e-07
4.8081e-06 4.14799e-07 0.00399309
0.00176286 -0.000200841 6.71248e-06
-0.000200841 0.000727038 7.34556e-07
6.71248e-06 7.34556e-07 0.000587377
0.00139022 -0.000339779 6.62673e-07
-0.000339779 0.000303978 -1.25625e-06
6.62673e-07 -1.25625e-06 4.64306e-05
0.0020095 -0.000273181 -9.60956e-06
-0.000273181 0.000515305 2.54532e-06
-9.60956e-06 2.54532e-06 0.000329861
0.00206274 -0.000334063 2.62054e-07
-0.000334063 0.000240465 -2.26435e-07
2.62054e-07 -2.26435e-07 6.7296e-05
0.00189722 -0.000522454 1.11136e-06
-0.000522454 0.0003457 -1.52899e-07
1.11136e-06 -1.52899e-07 2.85663e-05
0.00188455 -0.000430955 4.38694e-07
-0.000430955 0.000218181 -2.63283e-07
4.38694e-07 -2.63283e-07 -2.57388e-05
0.00202727 -0.000539631 8.73295e-07
-0.000539631 0.000260134 1.68544e-07
8.73295e-07 1.68544e-07 1.40996e-07
0.00045165 -0.000175026 1.95613e-06
-0.000175026 -8.19436e-05 3.73183e-07
1.95613e-06 3.73183e-07 -0.000191546
0.000714658 -0.000198585 1.62471e-06
-0.000198585 0.000131073 4.83879e-07
1.62471e-06 4.83879e-07 -0.000114074
0.00107972 -3.58277e-05 1.11649e-05
-3.58277e-05 -6.2518e-05 -5.22241e-07
1.11649e-05 -5.22241e-07 -0.000191418
0.00195482 -0.000125701 8.50664e-06
-0.000125701 0.000475479 -5.12103e-07
8.50664e-06 -5.12103e-07 0.00034355
0.0018357 -0.000126934 1.67775e-06
-0.000126934 4.3003e-05 -7.89042e-08
1.67775e-06 -7.89042e-08 -6.61338e-05
0.00191717 -0.000268344 -4.36027e-08
-0.000268344 0.000113101 6.96139e-07
-4.36027e-08 6.96139e-07 -2.62575e-05
0.00188584 -0.000385157 2.57677e-07
-0.000385157 0.000164716 2.0714e-07
2.57677e-07 2.0714e-07 -4.21218e-05
0.00209131 -0.000372811 3.61583e-06
-0.000372811 0.000155716 -1.12385e-06
3.61583e-06 -1.12385e-06 1.74655e-05
0.000296319 -0.000178255 2.02685e-05
-0.000178255 -0.000189015 -2.16472e-05
2.02685e-05 -2.16472e-05 -0.000312963
0.0020186 -0.00049424 1.34849e-06
-0.00049424 0.000197377 1.51625e-06
1.34849e-06 1.51625e-06 -1.79336e-05
0.000742996 -0.000268807 1.23016e-05
-0.000268807 -7.42633e-06 -9.50565e-06
1.23016e-05 -9.50565e-06 -0.000254443
0.00161232 -0.000547903 1.42449e-05
-0.000547903 0.000254468 -1.97448e-06
1.42449e-05 -1.97448e-06 -0.000106919
0.00221767 -0.000604228 3.46842e-06
-0.000604228 0.000445868 1.47452e-06
3.46842e-06 1.47452e-06 0.000127041
0.00230122 -0.000577664 3.12233e-07
-0.000577664 0.000394781 3.70745e-06
3.12233e-07 3.70745e-06 0.000163212
0.000427096 -0.000204784 8.49569e-07
-0.000204784 -7.20699e-05 -4.78366e-06
8.49569e-07 -4.78366e-06 -0.000332601
0.000913039 -0.000137177 -3.25015e-07
-0.000137177 0.000289503 -1.55551e-06
-3.25015e-07 -1.55551e-06 6.37925e-05
0.000888403 -0.000274632 -8.25989e-07
-0.000274632 0.000224465 1.82778e-06
-8.25989e-07 1.82778e-06 -7.23572e-05
0.00034368 0.000113562 -1.72346e-05
0.000113562 -0.000249417 -1.0581e-05
-1.72346e-05 -1.0581e-05 -0.00036425
0.00511577 -0.000165957 -0.000157627
-0.000165957 0.00298109 -1.25238e-05
-0.000157627 -1.25238e-05 0.00296597
0.000376404 5.53396e-05 -1.47288e-05
5.53396e-05 -8.78826e-05 -1.39953e-05
-1.47288e-05 -1.39953e-05 -0.000158521
0.000298597 0.000166567 -1.97593e-05
0.000166567 -0.000242019 -1.67925e-05
-1.97593e-05 -1.67925e-05 -0.000371512
0.00117007 0.000274635 -1.66374e-05
0.000274635 -7.19529e-06 -6.48196e-06
-1.66374e-05 -6.48196e-06 -0.000222298
0.000382875 0.000174486 -2.29367e-05
0.000174486 -0.000128577 -1.97746e-05
-2.29367e-05 -1.97746e-05 -0.000241105
0.000655648 0.000248921 -1.26366e-05
0.000248921 -5.95164e-05 -7.73721e-06
-1.26366e-05 -7.73721e-06 -0.0002913
0.00108227 0.000301986 -2.17656e-05
0.000301986 5.45618e-05 -8.3988e-06
-2.17656e-05 -8.3988e-06 -0.00018156
0.00165087 0.000519033 -6.41474e-06
0.000519033 0.000311533 1.20002e-06
-6.41474e-06 1.20002e-06 -2.30458e-05
0.000480188 0.000141185 -1.96555e-06
0.000141185 -5.06451e-05 1.45151e-06
-1.96555e-06 1.45151e-06 -0.00014563
0.00043268 5.6226e-06 1.10258e-06
5.6226e-06 -3.37566e-05 4.35001e-07
1.10258e-06 4.35001e-07 -9.5041e-05
0.000722348 0.000150678 2.08364e-06
0.000150678 0.000150609 -4.94893e-07
2.08364e-06 -4.94893e-07 -5.83174e-05
0.00123017 0.000240425 -1.56123e-07
0.000240425 -9.02178e-06 -3.02639e-07
-1.56123e-07 -3.02639e-07 -0.000204964
0.00113656 0.000299648 3.5774e-07
0.000299648 1.89511e-05 -2.04811e-07
3.5774e-07 -2.04811e-07 -0.000210724
0.00195034 0.000455632 -3.21657e-07
0.000455632 0.000233061 -1.39643e-07
-3.21657e-07 -1.39643e-07 -1.46242e-05
0.000688891 0.000230602 -3.07318e-07
0.000230602 4.25953e-05 5.53779e-08
-3.07318e-07 5.53779e-08 -0.000184481
0.001889 0.000534478 -2.96021e-07
0.000534478 0.000359797 -4.18337e-07
-2.96021e-07 -4.18337e-07 4.58279e-05
0.00140071 0.000474213 -2.49752e-07
0.000474213 0.000287678 -1.11276e-06
-2.49752e-07 -1.11276e-06 -6.19791e-05
0.00159498 0.000585281 -8.07023e-07
0.000585281 0.000169129 2.05896e-06
-8.07023e-07 2.05896e-06 -0.000176514
0.000528662 -9.35466e-06 3.27075e-06
-9.35466e-06 2.62769e-05 1.16125e-05
3.27075e-06 1.16125e-05 -2.37363e-05
0.00107687 0.000203335 5.69725e-06
0.000203335 0.00034121 2.57416e-06
5.69725e-06 2.57416e-06 0.00011184
0.00100872 0.000104498 2.59451e-06
0.000104498 0.000329142 5.79776e-06
2.59451e-06 5.79776e-06 0.000160876
0.000875611 0.000219935 1.59526e-07
0.000219935 0.000260214 1.25761e-06
1.59526e-07 1.25761e-06 -1.59666e-05
0.00201852 0.000403813 1.44555e-06
0.000403813 0.000215097 -1.80891e-06
1.44555e-06 -1.80891e-06 5.28871e-06
0.00191534 0.000503086 5.31105e-06
0.000503086 0.000288665 -3.58908e-07
5.31105e-06 -3.58908e-07 3.77167e-06
0.00212501 0.000523225 2.27407e-07
0.000523225 0.000254129 -1.35976e-06
2.27407e-07 -1.35976e-06 2.20035e-05
0.000972092 0.000365551 2.89519e-06
0.000365551 0.00010101 -6.16871e-07
2.89519e-06 -6.16871e-07 -0.000206028
0.0023087 0.000652612 -4.0123e-06
0.000652612 0.000517679 -2.79521e-06
-4.0123e-06 -2.79521e-06 0.000198405
0.00195249 0.000642584 -5.63124e-06
0.000642584 0.000527246 -8.28365e-06
-5.63124e-06 -8.28365e-06 0.000115489
0.00200552 0.000635007 -1.52692e-06
0.000635007 0.000329692 -2.44351e-06
-1.52692e-06 -2.44351e-06 -3.59634e-06
0.000576839 5.82575e-05 1.75269e-06
5.82575e-05 7.73796e-05 5.5712e-06
1.75269e-06 5.5712e-06 -8.47579e-06
0.00047351 -8.53471e-06 2.12065e-06
-8.53471e-06 -1.87752e-05 8.22224e-06
2.12065e-06 8.22224e-06 -5.26265e-05
0.0030551 -0.000123807 5.34611e-05
-0.000123807 0.00164111 4.6228e-06
5.34611e-05 4.6228e-06 0.00163918
0.00337178 -0.000152798 9.77507e-06
-0.000152798 0.00185466 -9.47378e-07
9.77507e-06 -9.47378e-07 0.00184479
0.00373255 -0.000187653 -6.44799e-05
-0.000187653 0.00209888 -5.20383e-06
-6.44799e-05 -5.20383e-06 0.0020787
0.000401982 -0.000131715 2.03156e-05
-0.000131715 -6.29067e-05 -1.49778e-05
2.03156e-05 -1.49778e-05 -0.00014494
0.00532199 0.000158962 0.00015992
0.000158962 0.00312121 -1.78843e-05
0.00015992 -1.78843e-05 0.00310152
0.000489758 -0.000150897 1.6104e-06
-0.000150897 -3.45756e-05 5.97293e-07
1.6104e-06 5.97293e-07 -0.00013468
0.00615769 0.000108461 5.96623e-06
0.000108461 0.00362528 6.0534e-07
5.96623e-06 6.0534e-07 0.00361604
0.00037228 0.000113916 -1.82382e-05
0.000113916 -0.000231058 -8.26973e-06
-1.82382e-05 -8.26973e-06 -0.000341259
0.00035898 3.47683e-05 -1.70003e-05
3.47683e-05 -0.000232591 -3.19433e-06
-1.70003e-05 -3.19433e-06 -0.000325179
0.00116477 0.000158641 -8.65703e-06
0.000158641 -6.45479e-05 -1.69037e-06
-8.65703e-06 -1.69037e-06 -0.000226207
0.00109456 7.80621e-05 -1.1529e-05
7.80621e-05 -7.71608e-05 -7.40912e-07
-1.1529e-05 -7.40912e-07 -0.00021395
0.000412989 -7.58634e-06 -1.88833e-05
-7.58634e-06 -0.000196147 -5.5323e-07
-1.88833e-05 -5.5323e-07 -0.000277797
0.00617546 -0.000101219 -0.000329335
-0.000101219 0.00358401 5.84195e-06
-0.000329335 5.84195e-06 0.00360808
0.000400805 -2.71598e-06 5.43189e-08
-2.71598e-06 -0.000202733 -7.08672e-07
5.43189e-08 -7.08672e-07 -0.000282981
0.00105912 3.6517e-05 -1.31607e-07
3.6517e-05 -8.11381e-05 8.2662e-08
-1.31607e-07 8.2662e-08 -0.000210504
0.00115436 0.000117275 -3.59016e-08
0.000117275 -5.53482e-05 8.14091e-08
-3.59016e-08 8.14091e-08 -0.000201751
0.00191048 0.000116195 -2.34152e-07
0.000116195 6.94064e-05 3.40611e-07
-2.34152e-07 3.40611e-07 -2.66747e-05
0.00123375 0.000199122 -3.08649e-07
0.000199122 -2.35328e-05 -2.65912e-07
-3.08649e-07 -2.65912e-07 -0.000201019
0.00199778 0.000268608 -1.75519e-07
0.000268608 0.000129485 1.37484e-07
-1.75519e-07 1.37484e-07 -1.18084e-05
0.00104687 -4.02703e-06 1.09365e-05
-4.02703e-06 -8.22878e-05 -3.79805e-07
1.09365e-05 -3.79805e-07 -0.000209732
0.001871 5.73162e-05 2.03632e-06
5.73162e-05 4.87867e-05 3.26116e-08
2.03632e-06 3.26116e-08 -3.91565e-05
0.00198033 0.000192471 7.6823e-07
0.000192471 0.000104277 -1.02501e-06
7.6823e-07 -1.02501e-06 -1.05372e-05
0.00210803 0.000145814 5.12518e-06
0.000145814 7.49188e-05 7.32614e-07
5.12518e-06 7.32614e-07 3.3056e-05
0.00202808 0.000340925 8.73161e-07
0.000340925 0.000171776 -1.05445e-06
8.73161e-07 -1.05445e-06 -1.72568e-06
0.0020467 0.000293869 2.54386e-06
0.000293869 6.70173e-05 4.5259e-07
2.54386e-06 4.5259e-07 -3.23375e-05
0.000387106 -3.38691e-06 -1.79592e-05
-3.38691e-06 -0.000204805 8.66271e-07
-1.79592e-05 8.66271e-07 -0.000289449
0.0019655 -4.65872e-05 -0.000132261
-4.65872e-05 0.00079591 6.18341e-06
-0.000132261 6.18341e-06 0.000730101
0.00116423 -6.73021e-05 -1.87534e-05
-6.73021e-05 -2.08822e-05 1.58041e-06
-1.87534e-05 1.58041e-06 -0.000148661
0.00196043 -0.000180023 -2.81845e-05
-0.000180023 0.000465587 4.08347e-06
-2.81845e-05 4.08347e-06 0.000310025
0.00701158 5.41576e-05 -0.000277713
5.41576e-05 0.00413061 2.78773e-05
-0.000277713 2.78773e-05 0.00413093
0.00345676 -0.000286315 -0.000167573
-0.000286315 0.00179017 2.67133e-05
-0.000167573 2.67133e-05 0.00168096
0.00192641 -0.000389227 -2.95086e-05
-0.000389227 0.000641213 1.16929e-05
-2.95086e-05 1.16929e-05 0.000376907
0.00204378 -0.000275656 -3.04228e-05
-0.000275656 0.000533757 8.55193e-06
-3.04228e-05 8.55193e-06 0.000347763
0.00216206 -0.000341871 -1.81472e-06
-0.000341871 0.000299973 -3.92427e-07
-1.81472e-06 -3.92427e-07 0.000132674
0.00200057 -0.00043505 -3.81778e-06
-0.00043505 0.000296681 1.01337e-06
-3.81778e-06 1.01337e-06 5.21001e-05
0.00190147 -0.00052301 -8.64971e-06
-0.00052301 0.000347253 5.53544e-07
-8.64971e-06 5.53544e-07 3.14755e-05
0.00206588 -0.000541544 -7.40589e-07
-0.000541544 0.000288113 -2.07447e-06
-7.40589e-07 -2.07447e-06 2.79831e-05
0.000415544 -0.000184506 -2.18835e-05
-0.000184506 -0.00010009 1.93677e-05
-2.18835e-05 1.93677e-05 -0.00021527
0.000665898 -0.000224632 1.46556e-07
-0.000224632 0.000105982 1.00471e-06
1.46556e-07 1.00471e-06 -0.000142851
0.00109999 -3.0902e-05 4.63039e-07
-3.0902e-05 -5.12484e-05 5.11107e-08
4.63039e-07 5.11107e-08 -0.000176238
0.00193459 -0.000125808 -1.00868e-05
-0.000125808 0.000459792 1.32939e-06
-1.00868e-05 1.32939e-06 0.000328071
0.00187435 -0.00012393 8.28605e-07
-0.00012393 6.50882e-05 -2.38738e-07
8.28605e-07 -2.38738e-07 -3.8952e-05
0.00191816 -0.000268958 -2.58352e-06
-0.000268958 0.000119569 8.60951e-07
-2.58352e-06 8.60951e-07 -2.78937e-05
0.000413139 -0.000200815 3.83767e-07
-0.000200815 -0.000115787 2.66338e-07
3.83767e-07 2.66338e-07 -0.000241118
0.000771072 -0.000278288 -6.43858e-07
-0.000278288 4.21351e-06 -1.35564e-08
-6.43858e-07 -1.35564e-08 -0.000246763
0.00157627 -0.000542024 2.04141e-06
-0.000542024 0.000238892 -2.7665e-07
2.04141e-06 -2.7665e-07 -0.000123036
0.00193145 -0.000386137 -2.77933e-06
-0.000386137 0.000198487 8.56703e-07
-2.77933e-06 8.56703e-07 -1.14272e-05
0.00210015 -0.000375098 2.34207e-06
-0.000375098 0.000154432 -8.6386e-07
2.34207e-06 -8.6386e-07 2.20419e-05
0.00225878 -0.000612152 -5.58899e-07
-0.000612152 0.000466561 -8.3907e-07
-5.58899e-07 -8.3907e-07 0.000149448
0.00205809 -0.000497101 5.2012e-07
-0.000497101 0.000223807 3.90091e-08
5.2012e-07 3.90091e-08 7.80264e-06
0.00213182 -0.000569519 7.40069e-07
-0.000569519 0.000281692 8.79704e-07
7.40069e-07 8.79704e-07 4.93645e-05
0.00064259 -0.000212539 3.42794e-07
-0.000212539 6.38537e-05 -6.48487e-07
3.42794e-07 -6.48487e-07 -0.000196661
0.000717524 -0.000219297 1.23375e-06
-0.000219297 8.99751e-05 8.61592e-07
1.23375e-06 8.61592e-07 -0.000188631
0.000726033 -0.00015386 5.97317e-07
-0.00015386 0.000177761 9.35754e-08
5.97317e-07 9.35754e-08 -5.29578e-05
0.00182642 -5.82728e-05 1.88116e-06
-5.82728e-05 3.93759e-05 -1.54402e-07
1.88116e-06 -1.54402e-07 -5.9375e-05
0.00198162 -0.000192886 -5.07414e-07
-0.000192886 0.000136502 6.05691e-07
-5.07414e-07 6.05691e-07 1.8683e-05
0.00200816 -0.000136198 7.27656e-06
-0.000136198 3.24648e-05 -7.93101e-07
7.27656e-06 -7.93101e-07 -2.33673e-05
0.0020869 -0.000309453 2.16462e-06
-0.000309453 0.000109177 -1.06024e-06
2.16462e-06 -1.06024e-06 1.23554e-05
0.00199474 -0.000443271 7.36739e-08
-0.000443271 0.000130987 1.38087e-06
7.36739e-08 1.38087e-06 -4.11007e-05
0.00211847 -0.000392716 3.96854e-06
-0.000392716 9.99518e-05 -1.2766e-06
3.96854e-06 -1.2766e-06 1.20523e-05
0.00061759 -0.000243369 7.45808e-06
-0.000243369 -3.52343e-06 -7.97652e-06
7.45808e-06 -7.97652e-06 -0.000247619
0.00202284 -0.000523892 1.03155e-06
-0.000523892 0.000154685 7.2483e-07
1.03155e-06 7.2483e-07 -3.47966e-05
0.00141251 -0.000508491 1.11632e-05
-0.000508491 0.00029096 -3.65393e-06
1.11632e-05 -3.65393e-06 -8.15338e-05
0.00196282 -0.000687435 7.67844e-06
-0.000687435 0.000372388 2.36825e-06
7.67844e-06 2.36825e-06 -2.76487e-05
0.00232319 -0.000640535 6.41816e-06
-0.000640535 0.000467251 3.48025e-06
6.41816e-06 3.48025e-06 0.000167803
0.00233429 -0.000599581 1.07985e-08
-0.000599581 0.000422274 1.8877e-06
1.07985e-08 1.8877e-06 0.000196069
0.000431239 -0.000119741 -5.60722e-07
-0.000119741 1.37336e-05 -5.77767e-06
-5.60722e-07 -5.77767e-06 -0.000185657
0.00135241 -0.000339081 1.92342e-07
-0.000339081 0.00042301 -5.07769e-06
1.92342e-07 -5.07769e-06 0.000140185
0.000577712 -0.00021991 -1.23121e-06
-0.00021991 0.000119792 5.03514e-06
-1.23121e-06 5.03514e-06 -0.000215337
0.00179739 -0.000423654 -4.46298e-06
-0.000423654 0.000731963 2.82891e-06
-4.46298e-06 2.82891e-06 0.000398156
0.00119858 0.000240061 -1.27135e-05
0.000240061 -2.3721e-05 -4.71116e-06
-1.27135e-05 -4.71116e-06 -0.000220829
0.000324916 -2.08798e-05 1.96615e-07
-2.08798e-05 -8.59549e-05 -1.4176e-05
1.96615e-07 -1.4176e-05 -0.000153051
0.000437806 0.00011489 -2.27843e-05
0.00011489 -7.38655e-05 -1.47154e-05
-2.27843e-05 -1.47154e-05 -0.000164654
-3.80215e-05 0.000114644 -3.52262e-06
0.000114644 -0.000311845 -1.79675e-06
-3.52262e-06 -1.79675e-06 -0.000528079
0.00111558 0.000297678 -2.06656e-05
0.000297678 1.15378e-05 -7.84667e-06
-2.06656e-05 -7.84667e-06 -0.000218491
0.00192298 0.00045342 -3.84075e-06
0.00045342 0.000214809 3.5234e-07
-3.84075e-06 3.5234e-07 -3.28525e-05
0.000555906 0.000216314 -7.06813e-06
0.000216314 -4.16152e-05 -3.69451e-06
-7.06813e-06 -3.69451e-06 -0.000262042
0.00137995 0.000475518 -4.79469e-06
0.000475518 0.000270171 2.48695e-07
-4.79469e-06 2.48695e-07 -7.99914e-05
0.00189643 0.000532973 -6.26764e-06
0.000532973 0.000360008 9.51709e-07
-6.26764e-06 9.51709e-07 4.49172e-05
0.00156689 0.000589656 4.15988e-06
0.000589656 0.000140531 8.30247e-06
4.15988e-06 8.30247e-06 -0.000202772
0.00044038 -2.42867e-05 -3.75395e-06
-2.42867e-05 -2.06821e-05 8.89622e-07
-3.75395e-06 8.89622e-07 -7.38399e-05
0.00063668 0.000212342 -1.43643e-06
0.000212342 8.04768e-05 -7.51684e-07
-1.43643e-06 -7.51684e-07 -0.000156898
0.000637829 8.94862e-05 1.12319e-06
8.94862e-05 9.91328e-05 -4.51989e-07
1.12319e-06 -4.51989e-07 -6.39149e-05
0.000799504 0.000204755 -6.95682e-07
0.000204755 0.000192116 3.05642e-07
-6.95682e-07 3.05642e-07 -7.04128e-05
0.00199961 0.000402079 -1.48147e-06
0.000402079 0.00020272 -1.18914e-06
-1.48147e-06 -1.18914e-06 -7.15546e-06
0.00188554 0.00050148 -5.28723e-07
0.00050148 0.000269155 -2.56324e-07
-5.28723e-07 -2.56324e-07 -1.61171e-05
0.00210123 0.000519598 2.25575e-07
0.000519598 0.000243348 2.04953e-07
2.25575e-07 2.04953e-07 1.21106e-05
0.00118414 0.000378185 3.32576e-06
0.000378185 0.000250724 -1.1529e-07
3.32576e-06 -1.1529e-07 -5.64469e-05
0.0022032 0.00063545 5.76074e-07
0.00063545 0.000461553 5.73161e-07
5.76074e-07 5.73161e-07 0.000143069
0.00169405 0.000615331 -1.06882e-06
0.000615331 0.000369898 -1.90459e-06
-1.06882e-06 -1.90459e-06 -3.80587e-05
0.00200253 0.000622981 -5.03763e-06
0.000622981 0.000333089 2.24831e-06
-5.03763e-06 2.24831e-06 9.16915e-06
0.000543617 -1.45207e-05 2.15529e-06
-1.45207e-05 3.06469e-05 9.50759e-06
2.15529e-06 9.50759e-06 -9.57054e-06
0.000938332 7.9429e-05 1.26276e-06
7.9429e-05 0.000295753 7.57828e-06
1.26276e-06 7.57828e-06 0.000163934
0.00072716 0.000251628 -7.57802e-07
0.000251628 3.92762e-05 2.18097e-06
-7.57802e-07 2.18097e-06 -0.000213625
0.00152511 0.000189827 1.27343e-06
0.000189827 0.000731665 -1.35097e-06
1.27343e-06 -1.35097e-06 0.000450639
0.00108782 0.000283962 -2.87902e-06
0.000283962 0.000320466 5.10226e-06
-2.87902e-06 5.10226e-06 7.71288e-05
0.00216786 0.000462757 1.45739e-07
0.000462757 0.000212129 -3.1073e-06
1.45739e-07 -3.1073e-06 2.54849e-05
0.00210937 0.000586333 -1.23811e-06
0.000586333 0.000316434 -1.78381e-06
-1.23811e-06 -1.78381e-06 3.73012e-05
0.00211909 0.000568797 -2.69208e-06
0.000568797 0.000235039 -1.60826e-06
-2.69208e-06 -1.60826e-06 8.57302e-06
0.00150568 0.000568615 4.34207e-06
0.000568615 0.000430551 -1.55534e-06
4.34207e-06 -1.55534e-06 1.79986e-05
0.00238227 0.000696902 -3.5383e-06
0.000696902 0.000510397 -2.47156e-06
-3.5383e-06 -2.47156e-06 0.000193939
0.00167301 0.000661939 6.9547e-06
0.000661939 0.00028926 -4.70472e-06
6.9547e-06 -4.70472e-06 -0.000108805
0.00055566 5.38784e-05 1.60383e-06
5.38784e-05 5.85412e-05 5.85466e-06
1.60383e-06 5.85466e-06 -3.35689e-05
0.000688033 0.0001181 -6.84579e-07
0.0001181 0.000192842 3.21882e-06
-6.84579e-07 3.21882e-06 4.72913e-05
0.000594975 6.30481e-05 1.35357e-06
6.30481e-05 9.45735e-05 5.02651e-06
1.35357e-06 5.02651e-06 1.3958e-05
0.000523861 1.63893e-05 -6.64869e-07
1.63893e-05 4.45938e-05 -6.23779e-08
-6.64869e-07 -6.23779e-08 -4.09538e-05
0.00139597 -2.91915e-05 1.63929e-06
-2.91915e-05 0.000567438 4.88237e-06
1.63929e-06 4.88237e-06 0.000540936
0.000922134 -2.1781e-05 2.27317e-07
-2.1781e-05 0.000267355 -1.56203e-07
2.27317e-07 -1.56203e-07 0.000235681
0.000853421 -4.6116e-05 3.91324e-05
-4.6116e-05 0.000225034 1.0175e-05
3.91324e-05 1.0175e-05 0.000221919
0.00301921 -0.000129315 8.50207e-06
-0.000129315 0.0016192 -8.10222e-07
8.50207e-06 -8.10222e-07 0.00161576
0.00326397 -0.00015637 -5.13418e-05
-0.00015637 0.00178726 -4.60434e-06
-5.13418e-05 -4.60434e-06 0.0017763
0.000367508 -7.76455e-05 1.11166e-05
-7.76455e-05 -6.45254e-05 -1.24653e-05
1.11166e-05 -1.24653e-05 -0.000129069
0.00467655 0.000176541 0.000112516
0.000176541 0.00271471 -1.26492e-05
0.000112516 -1.26492e-05 0.00269163
0.000520542 -0.000124478 -8.44075e-07
-0.000124478 1.2695e-05 8.69785e-07
-8.44075e-07 8.69785e-07 -7.51062e-05
0.00558818 0.000135656 -5.32353e-06
0.000135656 0.00328463 2.65276e-08
-5.32353e-06 2.65276e-08 0.00326912
0.000486441 -0.000150806 -2.13777e-05
-0.000150806 -3.95937e-05 1.68625e-05
-2.13777e-05 1.68625e-05 -0.00014217
0.00637936 0.000112295 -0.000232126
0.000112295 0.0037691 2.62743e-05
-0.000232126 2.62743e-05 0.00375734
0.0011764 0.000199112 -9.3893e-06
0.000199112 -5.52637e-05 -3.01817e-06
-9.3893e-06 -3.01817e-06 -0.000234158
0.001163 0.000121189 -1.11301e-05
0.000121189 -5.53629e-05 -1.02535e-06
-1.11301e-05 -1.02535e-06 -0.0002028
0.00196734 0.000262903 -1.07917e-06
0.000262903 0.000112612 1.27617e-06
-1.07917e-06 1.27617e-06 -2.78089e-05
0.00193378 0.000115001 -1.34894e-06
0.000115001 9.36748e-05 1.19293e-06
-1.34894e-06 1.19293e-06 -2.24332e-06
0.00103306 4.13122e-05 -1.08514e-05
4.13122e-05 -9.97659e-05 -1.1683e-08
-1.08514e-05 -1.1683e-08 -0.000229692
0.000360645 2.88114e-05 -1.87061e-05
2.88114e-05 -0.000230169 -6.19115e-07
-1.87061e-05 -6.19115e-07 -0.000308921
0.00104119 -2.39094e-08 -4.19489e-08
-2.39094e-08 -8.58028e-05 -3.82093e-08
-4.19489e-08 -3.82093e-08 -0.000213264
0.00189421 5.80907e-05 -4.39084e-08
5.80907e-05 6.75169e-05 1.79689e-07
-4.39084e-08 1.79689e-07 -2.04117e-05
0.00197068 0.000188032 -1.08648e-07
0.000188032 0.000105223 2.35686e-09
-1.08648e-07 2.35686e-09 -8.97073e-06
0.00210495 0.000142157 -1.63315e-07
0.000142157 6.3831e-05 2.07995e-08
-1.63315e-07 2.07995e-08 2.60457e-05
0.00201429 0.000338404 -5.55699e-07
0.000338404 0.000165423 -1.55814e-08
-5.55699e-07 -1.55814e-08 -7.66063e-06
0.00208238 0.000296977 -3.37227e-07
0.000296977 9.23808e-05 3.87972e-07
-3.37227e-07 3.87972e-07 -8.25663e-06
0.00188435 -4.48526e-07 2.27838e-06
-4.48526e-07 6.82011e-05 1.00468e-07
2.27838e-06 1.00468e-07 -1.85747e-05
0.00207557 6.89823e-05 4.13161e-06
6.89823e-05 5.03789e-05 3.63077e-07
4.13161e-06 3.63077e-07 1.98629e-05
0.00205549 0.000214185 4.0228e-06
0.000214185 5.19339e-05 1.00997e-06
4.0228e-06 1.00997e-06 -9.92623e-06
0.00202786 0.000127538 5.4595e-06
0.000127538 -1.37818e-06 8.36888e-07
5.4595e-06 8.36888e-07 -1.47948e-05
0.00216445 0.000389888 1.63988e-06
0.000389888 0.000171226 -7.07426e-07
1.63988e-06 -7.07426e-07 2.78735e-05
0.00213619 0.000312434 2.50199e-06
0.000312434 2.43292e-05 6.42804e-07
2.50199e-06 6.42804e-07 -1.70315e-05
0.00111353 -2.69412e-05 -1.17283e-05
-2.69412e-05 -4.39101e-05 7.21152e-07
-1.17283e-05 7.21152e-07 -0.000165114
0.00193646 -0.000126609 -2.83074e-05
-0.000126609 0.000458223 2.9161e-06
-2.83074e-05 2.9161e-06 0.000326622
0.00196698 -0.000120129 -2.13751e-06
-0.000120129 0.000122055 -3.68216e-07
-2.13751e-06 -3.68216e-07 2.35963e-05
0.00191446 -0.000269102 -2.95211e-06
-0.000269102 0.000122679 6.83024e-07
-2.95211e-06 6.83024e-07 -3.29906e-05
0.000556786 -0.000233627 -2.65697e-05
-0.000233627 -2.62196e-05 2.1704e-05
-2.65697e-05 2.1704e-05 -0.000152978
0.000833293 -0.000289249 -1.31458e-05
-0.000289249 3.94789e-05 9.26651e-06
-1.31458e-05 9.26651e-06 -0.000215793
0.00157764 -0.000542873 -1.03243e-05
-0.000542873 0.000242275 2.14668e-06
-1.03243e-05 2.14668e-06 -0.000122165
0.00195931 -0.000385833 -4.43293e-06
-0.000385833 0.000220173 1.25498e-06
-4.43293e-06 1.25498e-06 7.43539e-06
0.00211308 -0.000377577 -8.66948e-08
-0.000377577 0.000155169 -3.25736e-07
-8.66948e-08 -3.25736e-07 2.89378e-05
0.00209818 -0.000500049 -1.29787e-06
-0.000500049 0.000250594 -1.09118e-06
-1.29787e-06 -1.09118e-06 3.38604e-05
0.00230236 -0.000619358 -2.84229e-06
-0.000619358 0.000490364 -4.26891e-06
-2.84229e-06 -4.26891e-06 0.00017528
0.00193988 -0.000556248 3.05541e-07
-0.000556248 0.00015437 -2.04042e-06
3.05541e-07 -2.04042e-06 -7.70465e-05
0.00103278 -0.000236952 -6.15073e-06
-0.000236952 0.000301883 5.58616e-06
-6.15073e-06 5.58616e-06 4.51373e-05
0.000389774 -0.000174053 2.68499e-06
-0.000174053 -0.000126734 1.90082e-07
2.68499e-06 1.90082e-07 -0.000399744
0.000473218 -0.000185013 -2.50546e-07
-0.000185013 1.89854e-05 1.1935e-06
-2.50546e-07 1.1935e-06 -0.000212327
0.00187803 -5.5073e-05 1.03681e-06
-5.5073e-05 7.01962e-05 -9.35207e-08
1.03681e-06 -9.35207e-08 -2.41874e-05
0.00193944 -0.00019968 -1.8425e-06
-0.00019968 0.000109575 4.93454e-08
-1.8425e-06 4.93454e-08 -9.37977e-06
0.00205356 -0.000134416 2.0913e-06
-0.000134416 5.55275e-05 -2.93978e-07
2.0913e-06 -2.93978e-07 6.1698e-06
0.00203159 -0.000298363 -1.25782e-06
-0.000298363 7.94931e-05 4.72322e-07
-1.25782e-06 4.72322e-07 -1.97201e-05
0.000743796 -0.000257491 9.42676e-07
-0.000257491 7.4002e-05 -3.7751e-07
9.42676e-07 -3.7751e-07 -0.000176294
0.00150113 -0.000520783 -6.93431e-07
-0.000520783 0.000341821 -4.10772e-07
-6.93431e-07 -4.10772e-07 -3.28575e-05
0.00187542 -0.000677416 5.283e-07
-0.000677416 0.00033182 1.10697e-06
5.283e-07 1.10697e-06 -7.05448e-05
0.0019521 -0.000438266 -1.03648e-06
-0.000438266 0.000109586 9.68595e-07
-1.03648e-06 9.68595e-07 -6.83601e-05
0.00212984 -0.00039845 4.86513e-07
-0.00039845 9.63587e-05 -3.1902e-07
4.86513e-07 -3.1902e-07 1.30467e-05
0.00218077 -0.000634803 -2.75092e-07
-0.000634803 0.000364129 3.78248e-07
-2.75092e-07 3.78248e-07 6.41256e-05
0.00201948 -0.00052258 -4.19021e-07
-0.00052258 0.000149786 8.25644e-07
-4.19021e-07 8.25644e-07 -3.96858e-05
0.00225068 -0.000582931 5.88295e-07
-0.000582931 0.00036115 -4.51138e-07
5.88295e-07 -4.51138e-07 0.000141614
0.00104186 -0.000320345 -1.5846e-06
-0.000320345 0.000238783 6.11104e-07
-1.5846e-06 6.11104e-07 -5.17701e-05
0.00105628 -0.000346413 -1.60256e-06
-0.000346413 0.000255534 2.19579e-06
-1.60256e-06 2.19579e-06 -6.70924e-05
0.000686129 -0.000139175 9.623e-08
-0.000139175 0.000169098 -8.6229e-07
9.623e-08 -8.6229e-07 -3.35853e-05
0.00013239 -0.000139151 2.18116e-06
-0.000139151 -0.00019154 -1.53862e-06
2.18116e-06 -1.53862e-06 -0.000496336
0.00207947 -7.16642e-05 6.47233e-06
-7.16642e-05 7.58832e-05 -3.65554e-07
6.47233e-06 -3.65554e-07 3.59699e-05
0.00198713 -0.000217835 4.6236e-06
-0.000217835 1.05278e-05 -1.13423e-06
4.6236e-06 -1.13423e-06 -6.24026e-05
0.00203381 -0.000125837 6.58389e-06
-0.000125837 4.00243e-05 -8.95069e-07
6.58389e-06 -8.95069e-07 2.9241e-05
0.00210394 -0.000321441 1.3718e-06
-0.000321441 2.99668e-05 -6.37265e-07
1.3718e-06 -6.37265e-07 -3.89788e-06
0.00203829 -0.000470136 -2.84394e-08
-0.000470136 0.00010494 -6.10382e-07
-2.84394e-08 -6.10382e-07 -3.61192e-05
0.00216092 -0.000416514 3.71044e-06
-0.000416514 7.39711e-05 -1.38567e-06
3.71044e-06 -1.38567e-06 8.21412e-06
0.00137499 -0.000437512 7.31013e-06
-0.000437512 0.000392898 -5.78057e-06
7.31013e-06 -5.78057e-06 4.95984e-05
0.00205984 -0.000558405 -1.96316e-06
-0.000558405 0.000146036 9.47718e-08
-1.96316e-06 9.47718e-08 -1.97286e-05
0.00171072 -0.000694231 -6.91032e-06
-0.000694231 0.000399393 4.45777e-06
-6.91032e-06 4.45777e-06 -5.10707e-05
0.00212121 -0.000744824 6.29003e-06
-0.000744824 0.000426213 2.76579e-06
6.29003e-06 2.76579e-06 1.96501e-05
0.00213533 -0.000642597 3.80331e-06
-0.000642597 0.000296009 3.59511e-06
3.80331e-06 3.59511e-06 4.97484e-06
0.00229414 -0.000619581 -9.04276e-06
-0.000619581 0.000353318 -1.72507e-06
-9.04276e-06 -1.72507e-06 0.000122332
0.000497755 -0.000126741 -1.82368e-06
-0.000126741 4.26171e-05 -6.584e-06
-1.82368e-06 -6.584e-06 -0.000110831
-7.20057e-05 -0.000143344 -2.77087e-06
-0.000143344 -0.000215439 -1.304e-06
-2.77087e-06 -1.304e-06 -0.000552296
0.00129789 -0.000457582 -1.51006e-06
-0.000457582 0.000378191 -3.27996e-06
-1.51006e-06 -3.27996e-06 1.16395e-05
0.00265863 -0.000456669 -3.00809e-06
-0.000456669 0.00134791 9.65349e-06
-3.00809e-06 9.65349e-06 0.00100323
0.001591 -0.000467867 -1.56733e-05
-0.000467867 0.000604314 8.64947e-06
-1.56733e-05 8.64947e-06 0.000213048
0.000277827 -3.04769e-05 -1.55801e-06
-3.04769e-05 -0.000120862 -1.08923e-05
-1.55801e-06 -1.08923e-05 -0.000172844
0.00197698 0.000399806 -3.83906e-06
0.000399806 0.000188513 -3.03057e-07
-3.83906e-06 -3.03057e-07 -2.13205e-05
0.000274932 4.88728e-05 -4.65059e-07
4.88728e-05 -0.000117895 -6.77301e-06
-4.65059e-07 -6.77301e-06 -0.000277971
0.000312354 0.000207033 -7.03047e-06
0.000207033 -0.000149214 2.81887e-07
-7.03047e-06 2.81887e-07 -0.000367863
0.000612731 0.000192082 -9.16179e-07
0.000192082 5.56445e-05 2.81408e-06
-9.16179e-07 2.81408e-06 -0.0001924
0.00184485 0.000499096 -5.12395e-06
0.000499096 0.000242406 3.12982e-07
-5.12395e-06 3.12982e-07 -4.31692e-05
0.00207983 0.000516296 1.03733e-06
0.000516296 0.000233558 1.95612e-06
1.03733e-06 1.95612e-06 3.13781e-06
0.00138017 0.000413133 -1.87727e-06
0.000413133 0.000397327 -3.22027e-06
-1.87727e-06 -3.22027e-06 7.73856e-05
0.00157781 0.000612241 1.20715e-06
0.000612241 0.000291572 4.49056e-06
1.20715e-06 4.49056e-06 -0.000119997
0.00208042 0.000615843 1.98092e-06
0.000615843 0.00039314 4.05529e-06
1.98092e-06 4.05529e-06 7.61464e-05
0.00204959 0.000621474 5.66028e-06
0.000621474 0.000365151 1.12505e-05
5.66028e-06 1.12505e-05 4.69735e-05
0.000448758 -1.03078e-05 -8.45402e-07
-1.03078e-05 -2.79771e-05 2.73019e-07
-8.45402e-07 2.73019e-07 -6.74926e-05
0.000587582 5.8164e-05 -2.67945e-07
5.8164e-05 8.07916e-05 4.61933e-07
-2.67945e-07 4.61933e-07 -4.69197e-05
0.000907104 0.000286515 1.52165e-06
0.000286515 0.000162558 1.73227e-06
1.52165e-06 1.73227e-06 -9.3247e-05
0.000620137 0.000134847 7.49438e-07
0.000134847 0.0001506 -1.48281e-06
7.49438e-07 -1.48281e-06 -0.000117394
0.000423887 0.000200545 -1.25257e-06
0.000200545 -0.000127693 3.42278e-06
-1.25257e-06 3.42278e-06 -0.000349625
0.0021416 0.00046118 -1.93294e-06
0.00046118 0.000196117 -1.95726e-06
-1.93294e-06 -1.95726e-06 9.8518e-06
0.0020694 0.000581685 5.10893e-07
0.000581685 0.000294148 1.83239e-07
5.10893e-07 1.83239e-07 1.61206e-05
0.00205909 0.000564998 1.65456e-06
0.000564998 0.000199677 1.33709e-07
1.65456e-06 1.33709e-07 -2.64975e-05
0.00153174 0.000571306 1.78174e-06
0.000571306 0.000451371 -4.65767e-07
1.78174e-06 -4.65767e-07 3.47815e-05
0.00227511 0.000684971 2.58384e-06
0.000684971 0.000428005 4.81406e-07
2.58384e-06 4.81406e-07 0.000111822
0.00202604 0.00069874 -3.99531e-06
0.00069874 0.000514796 7.00424e-08
-3.99531e-06 7.00424e-08 0.000111742
0.000648642 6.07823e-05 8.89482e-07
6.07823e-05 0.000117578 6.12852e-06
8.89482e-07 6.12852e-06 1.32105e-05
0.00173538 0.00021011 -1.55763e-08
0.00021011 0.000872946 1.38743e-06
-1.55763e-08 1.38743e-06 0.000642991
0.00107896 0.000408859 -8.84536e-07
0.000408859 0.000266784 5.55891e-06
-8.84536e-07 5.55891e-06 -5.25887e-05
0.00111988 0.000148129 5.36669e-06
0.000148129 0.000388863 -1.80894e-06
5.36669e-06 -1.80894e-06 0.000129075
0.00299641 0.00042694 -4.14041e-06
0.00042694 0.00139494 2.48661e-07
-4.14041e-06 2.48661e-07 0.00112881
0.00213181 0.000486662 -3.90132e-06
0.000486662 0.000158465 -2.142e-06
-3.90132e-06 -2.142e-06 -1.42861e-05
0.00209594 0.000634929 -2.66516e-06
0.000634929 0.000275251 -1.36681e-06
-2.66516e-06 -1.36681e-06 -7.83745e-07
0.0020216 0.00061786 3.82754e-06
0.00061786 0.000134388 -4.39339e-07
3.82754e-06 -4.39339e-07 -0.000104124
0.00115113 0.000607489 1.16084e-05
0.000607489 0.000233428 -4.93721e-06
1.16084e-05 -4.93721e-06 -0.000218629
0.00170028 0.000688768 1.24076e-05
0.000688768 0.000202309 -2.14941e-06
1.24076e-05 -2.14941e-06 -0.000162657
0.000583135 4.81871e-05 -3.7809e-07
4.81871e-05 7.40852e-05 1.49344e-07
-3.7809e-07 1.49344e-07 -1.6415e-05
0.000362442 8.2131e-05 1.07764e-06
8.2131e-05 -4.54675e-05 3.26324e-06
1.07764e-06 3.26324e-06 -0.000177648
0.000242847 6.72875e-05 5.23366e-08
6.72875e-05 -0.000108901 -4.77096e-07
5.23366e-08 -4.77096e-07 -0.000236554
0.00120939 0.000185415 -2.15297e-06
0.000185415 0.000530419 -1.50366e-06
-2.15297e-06 -1.50366e-06 0.000363475
0.000765171 0.000130642 1.38953e-07
0.000130642 0.000246104 3.16765e-06
1.38953e-07 3.16765e-06 0.000108546
0.000539606 7.06612e-05 1.85775e-06
7.06612e-05 6.51217e-05 4.20409e-06
1.85775e-06 4.20409e-06 -1.2438e-05
0.000518483 2.03465e-05 -8.37056e-07
2.03465e-05 4.72096e-05 -2.3733e-09
-8.37056e-07 -2.3733e-09 -3.26442e-05
0.00132694 -1.36983e-05 1.491e-06
-1.36983e-05 0.000522745 4.21888e-06
1.491e-06 4.21888e-06 0.000500513
0.000531771 3.5928e-05 -5.31314e-07
3.5928e-05 4.35092e-05 -5.60023e-06
-5.31314e-07 -5.60023e-06 -3.79587e-05
0.00139634 -2.22381e-05 -9.21346e-06
-2.22381e-05 0.000566557 -1.70729e-06
-9.21346e-06 -1.70729e-06 0.000542149
0.000767321 -3.25335e-05 3.69148e-05
-3.25335e-05 0.000164143 9.92529e-06
3.69148e-05 9.92529e-06 0.000165731
0.00143154 -2.81613e-05 -1.73141e-05
-2.81613e-05 0.000592752 -6.42717e-06
-1.73141e-05 -6.42717e-06 0.000564796
0.00182968 -7.6234e-05 3.78941e-05
-7.6234e-05 0.00085058 1.38168e-06
3.78941e-05 1.38168e-06 0.000849669
0.00292958 -0.000126223 -4.33125e-05
-0.000126223 0.00156121 -4.75741e-06
-4.33125e-05 -4.75741e-06 0.00155838
0.000279382 6.81718e-05 -5.29974e-06
6.81718e-05 -9.2582e-05 -9.68417e-06
-5.29974e-06 -9.68417e-06 -0.000152595
0.000407362 -5.84042e-05 -6.13479e-07
-5.84042e-05 -3.60913e-05 5.54416e-07
-6.13479e-07 5.54416e-07 -0.000107238
0.00379129 0.000191444 1.99935e-05
0.000191444 0.00214073 -7.59875e-06
1.99935e-05 -7.59875e-06 0.00211474
0.00483576 0.000136893 -1.69834e-05
0.000136893 0.00280967 -1.70656e-06
-1.69834e-05 -1.70656e-06 0.0027953
0.000530462 -0.000128714 -1.89722e-05
-0.000128714 1.46762e-05 1.43097e-05
-1.89722e-05 1.43097e-05 -7.60884e-05
0.0057996 0.000136839 -0.000197336
0.000136839 0.00342613 2.60552e-05
-0.000197336 2.60552e-05 0.00340653
0.00199616 0.000335962 -1.84659e-06
0.000335962 0.000155883 1.23431e-06
-1.84659e-06 1.23431e-06 -1.68518e-05
0.00192718 0.000185851 -8.21625e-07
0.000185851 8.31012e-05 1.22438e-06
-8.21625e-07 1.22438e-06 -3.12443e-05
0.0021034 0.000300664 -2.48276e-06
0.000300664 0.000106821 4.98983e-07
-2.48276e-06 4.98983e-07 4.71045e-06
0.00210298 0.000138524 -4.62908e-06
0.000138524 5.29794e-05 -6.6476e-07
-4.62908e-06 -6.6476e-07 1.92497e-05
0.00192224 6.01173e-05 -2.06936e-06
6.01173e-05 8.99863e-05 3.64125e-07
-2.06936e-06 3.64125e-07 2.0774e-06
0.00105036 4.74832e-06 -1.05985e-05
4.74832e-06 -7.99484e-05 1.85718e-07
-1.05985e-05 1.85718e-07 -0.000207295
0.00188934 2.55357e-06 9.80998e-08
2.55357e-06 7.20382e-05 1.39848e-07
9.80998e-08 1.39848e-07 -1.48111e-05
0.00207017 6.02088e-05 -7.0887e-07
6.02088e-05 4.9792e-05 -1.69162e-08
-7.0887e-07 -1.69162e-08 1.9131e-05
0.0020948 0.000215434 4.37125e-08
0.000215434 7.34134e-05 2.13425e-07
4.37125e-08 2.13425e-07 1.1467e-05
0.00203489 0.000127734 7.22981e-08
0.000127734 -3.29568e-06 6.81337e-08
7.22981e-08 6.81337e-08 -1.16815e-05
0.00213166 0.000390212 -4.18571e-07
0.000390212 0.000144075 1.15895e-07
-4.18571e-07 1.15895e-07 5.6229e-07
0.00211484 0.000304578 1.6893e-07
0.000304578 1.21578e-05 1.21856e-07
1.6893e-07 1.21856e-07 -2.96403e-05
0.00205361 -5.89303e-06 5.12826e-06
-5.89303e-06 4.71542e-05 1.27636e-07
5.12826e-06 1.27636e-07 1.45096e-05
0.00205014 5.55051e-05 4.76468e-06
5.55051e-05 2.16433e-05 2.8901e-07
4.76468e-06 2.8901e-07 2.36335e-05
0.00208168 0.000204737 1.82963e-06
0.000204737 8.57454e-08 2.20703e-07
1.82963e-06 2.20703e-07 -1.55067e-05
0.00212972 0.000133141 1.05342e-06
0.000133141 -8.3435e-06 3.75387e-07
1.05342e-06 3.75387e-07 1.12587e-05
0.00209136 0.000388217 1.02271e-06
0.000388217 5.9459e-05 2.94765e-07
1.02271e-06 2.94765e-07 -4.75639e-05
0.0022921 0.000309782 1.84749e-06
0.000309782 4.61153e-05 3.99159e-07
1.84749e-06 3.99159e-07 4.05129e-05
0.00192309 -5.17734e-05 -2.09853e-06
-5.17734e-05 9.73451e-05 -1.69338e-07
-2.09853e-06 -1.69338e-07 7.35912e-06
0.00191098 -0.000205016 -2.97716e-06
-0.000205016 8.98816e-05 -2.71893e-07
-2.97716e-06 -2.71893e-07 -2.98201e-05
0.00206845 -0.000132735 -2.82828e-06
-0.000132735 5.86707e-05 1.89738e-07
-2.82828e-06 1.89738e-07 1.55086e-05
0.00198994 -0.000288411 -3.72018e-06
-0.000288411 6.00436e-05 9.64193e-07
-3.72018e-06 9.64193e-07 -4.15299e-05
0.000727266 -0.000259237 -1.04148e-05
-0.000259237 5.96327e-05 9.34107e-06
-1.04148e-05 9.34107e-06 -0.000193684
0.00144798 -0.000513147 -1.15512e-05
-0.000513147 0.000311276 2.72378e-06
-1.15512e-05 2.72378e-06 -6.01067e-05
0.00167999 -0.000654981 1.2048e-06
-0.000654981 0.000229309 -2.08891e-06
1.2048e-06 -2.08891e-06 -0.00017318
0.00191064 -0.000433232 -2.29311e-06
-0.000433232 8.96588e-05 5.15187e-07
-2.29311e-06 5.15187e-07 -9.4403e-05
0.00211972 -0.000402516 -1.9288e-06
-0.000402516 7.9739e-05 6.66703e-07
-1.9288e-06 6.66703e-07 7.90725e-07
0.00202063 -0.000521294 -1.09784e-06
-0.000521294 0.000148446 6.51838e-07
-1.09784e-06 6.51838e-07 -4.09687e-05
0.00204565 -0.000635361 -4.88915e-06
-0.000635361 0.000266314 -3.33339e-06
-4.88915e-06 -3.33339e-06 -3.66651e-05
0.00211943 -0.000569991 5.37768e-06
-0.000569991 0.00027453 -3.88847e-06
5.37768e-06 -3.88847e-06 5.96701e-05
0.000818797 -0.000300793 -6.79113e-07
-0.000300793 0.000110518 3.3409e-06
-6.79113e-07 3.3409e-06 -0.0001851
0.00103555 -0.000322581 3.41303e-06
-0.000322581 0.000212897 4.9118e-07
3.41303e-06 4.9118e-07 -9.89828e-05
0.000979343 -0.00014967 -2.91438e-07
-0.00014967 0.000345977 5.42793e-06
-2.91438e-07 5.42793e-06 0.000141723
-0.000441626 -8.56541e-05 9.14403e-07
-8.56541e-05 -0.000578869 -6.398e-06
9.14403e-07 -6.398e-06 -0.000857314
0.0020811 -7.16387e-05 -2.21442e-07
-7.16387e-05 7.68891e-05 7.18685e-08
-2.21442e-07 7.18685e-08 3.70416e-05
0.00202474 -0.000219623 2.69517e-06
-0.000219623 4.07186e-05 -7.52958e-07
2.69517e-06 -7.52958e-07 -3.34078e-05
0.00200632 -0.000124509 8.21286e-07
-0.000124509 1.72697e-05 -2.03529e-07
8.21286e-07 -2.03529e-07 7.78254e-06
0.00210362 -0.000320866 -5.74898e-07
-0.000320866 3.7117e-05 1.51421e-07
-5.74898e-07 1.51421e-07 -2.87078e-06
0.00125483 -0.000409654 -2.9292e-06
-0.000409654 0.000299937 1.6093e-07
-2.9292e-06 1.6093e-07 -3.17053e-05
0.00161772 -0.000672978 1.37646e-06
-0.000672978 0.000354464 -2.02089e-07
1.37646e-06 -2.02089e-07 -9.02979e-05
0.00205586 -0.000752824 -5.78558e-07
-0.000752824 0.000383616 4.59364e-07
-5.78558e-07 4.59364e-07 -3.01301e-05
0.00200511 -0.000463266 -1.27061e-06
-0.000463266 9.07045e-05 4.43825e-07
-1.27061e-06 4.43825e-07 -5.46237e-05
0.00212666 -0.000415272 1.0453e-06
-0.000415272 5.36554e-05 -3.04134e-07
1.0453e-06 -3.04134e-07 -7.82024e-06
0.00213626 -0.00064625 -4.58499e-07
-0.00064625 0.000321266 4.26627e-07
-4.58499e-07 4.26627e-07 2.80867e-05
0.00202386 -0.00055795 -9.18769e-07
-0.00055795 0.000116047 9.37841e-07
-9.18769e-07 9.37841e-07 -5.03325e-05
0.00218627 -0.000608802 3.87327e-06
-0.000608802 0.000278536 -4.29096e-06
3.87327e-06 -4.29096e-06 5.41442e-05
0.00149124 -0.000479742 -8.79062e-07
-0.000479742 0.000505552 -1.29971e-06
-8.79062e-07 -1.29971e-06 0.00013393
0.00137008 -0.000442485 -1.28453e-06
-0.000442485 0.00045072 1.50962e-06
-1.28453e-06 1.50962e-06 7.10814e-05
0.00101127 -0.000303737 1.96123e-06
-0.000303737 0.00029974 -1.01045e-06
1.96123e-06 -1.01045e-06 -2.11565e-05
0.000297255 -9.78344e-05 -2.50051e-06
-9.78344e-05 -8.54705e-05 1.08311e-06
-2.50051e-06 1.08311e-06 -0.00023999
-4.58951e-05 -0.000110478 -1.21579e-06
-0.000110478 -0.000223672 -1.25514e-06
-1.21579e-06 -1.25514e-06 -0.000539131
0.00199665 -7.11712e-05 4.11835e-06
-7.11712e-05 -8.40925e-06 -2.04781e-07
4.11835e-06 -2.04781e-07 -5.39105e-06
0.00204612 -0.000192261 2.8757e-06
-0.000192261 -5.89678e-06 -6.44742e-07
2.8757e-06 -6.44742e-07 -1.42995e-05
0.00217684 -0.000380789 4.11554e-07
-0.000380789 -5.42362e-06 -4.13896e-07
4.11554e-07 -4.13896e-07 -1.9598e-05
0.00214807 -0.000490391 1.4207e-06
-0.000490391 8.85607e-05 -1.68986e-06
1.4207e-06 -1.68986e-06 5.56171e-06
0.00144235 -0.000570804 -4.19064e-06
-0.000570804 0.000398634 2.86443e-07
-4.19064e-06 2.86443e-07 -2.38026e-05
0.00230155 -0.000672665 -7.80356e-06
-0.000672665 0.000191 -5.03634e-06
-7.80356e-06 -5.03634e-06 -2.6237e-06
0.00139641 -0.000739082 -2.20169e-05
-0.000739082 0.000207167 8.27285e-06
-2.20169e-05 8.27285e-06 -0.000268286
0.00219673 -0.000816976 9.4858e-07
-0.000816976 0.000433082 1.0711e-06
9.4858e-07 1.0711e-06 7.23864e-06
0.00200485 -0.000618487 -1.39618e-05
-0.000618487 0.000236307 8.06714e-07
-1.39618e-05 8.06714e-07 -4.08894e-05
9.0642e-05 -2.27137e-05 -2.44158e-06
-2.27137e-05 -0.000200648 -5.85083e-06
-2.44158e-06 -5.85083e-06 -0.000320456
0.00102323 -0.000171505 -3.66805e-06
-0.000171505 0.000471223 -8.03416e-07
-3.66805e-06 -8.03416e-07 0.000185539
0.000933328 -0.000255444 -9.15945e-07
-0.000255444 0.000364832 -3.37308e-06
-9.15945e-07 -3.37308e-06 4.57881e-05
0.00196637 -0.000598198 -1.62677e-05
-0.000598198 0.00079341 5.23846e-06
-1.62677e-05 5.23846e-06 0.000361983
0.00202108 -0.000396105 -2.07492e-06
-0.000396105 0.000878737 9.56672e-06
-2.07492e-06 9.56672e-06 0.000531344
0.000715762 -0.000418961 -1.75298e-05
-0.000418961 4.89238e-06 1.70648e-05
-1.75298e-05 1.70648e-05 -0.000385794
0.000371507 -7.89972e-06 -2.70444e-06
-7.89972e-06 -7.59191e-05 -8.9534e-06
-2.70444e-06 -8.9534e-06 -0.000114807
0.000450749 4.29802e-05 -4.25865e-07
4.29802e-05 2.53525e-07 -7.77361e-06
-4.25865e-07 -7.77361e-06 -0.000123854
0.00211935 0.000459741 -3.11499e-06
0.000459741 0.000183022 -5.1137e-07
-3.11499e-06 -5.1137e-07 -2.86803e-06
-0.000167313 4.7114e-05 1.73558e-07
4.7114e-05 -0.000351293 -4.60581e-07
1.73558e-07 -4.60581e-07 -0.000610153
0.00142455 0.00032324 1.32467e-06
0.00032324 0.000488921 -2.04352e-07
1.32467e-06 -2.04352e-07 0.000237302
7.48217e-05 0.000151621 -4.02986e-06
0.000151621 -0.000372423 6.29948e-07
-4.02986e-06 6.29948e-07 -0.000581909
0.00203393 0.000576936 2.18776e-06
0.000576936 0.00027601 2.04834e-06
2.18776e-06 2.04834e-06 -7.96528e-07
0.00200921 0.000561911 2.77414e-06
0.000561911 0.000170352 1.18332e-06
2.77414e-06 1.18332e-06 -5.56017e-05
0.00152952 0.000566721 -3.527e-07
0.000566721 0.000458373 1.1293e-06
-3.527e-07 1.1293e-06 3.99661e-05
0.00231502 0.000721169 -5.21756e-06
0.000721169 0.000704644 4.46573e-06
-5.21756e-06 4.46573e-06 0.000303201
0.00215623 0.000673147 2.03015e-06
0.000673147 0.000337213 3.33898e-06
2.03015e-06 3.33898e-06 2.10878e-05
0.000615922 5.48874e-05 -1.75757e-07
5.48874e-05 9.93041e-05 5.42533e-07
-1.75757e-07 5.42533e-07 -4.1196e-06
0.000748145 9.89114e-05 -1.23112e-06
9.89114e-05 0.000242722 -1.45778e-07
-1.23112e-06 -1.45778e-07 2.97535e-05
0.00115373 0.000422533 7.89763e-07
0.000422533 0.000296049 2.04258e-06
7.89763e-07 2.04258e-06 -2.88718e-05
0.000751165 0.000111872 9.0277e-07
0.000111872 0.000151349 -1.18025e-06
9.0277e-07 -1.18025e-06 -0.000103386
0.000889117 0.000246209 3.74896e-06
0.000246209 5.48148e-05 -2.49002e-06
3.74896e-06 -2.49002e-06 -0.000174888
0.00207354 0.000484931 -2.2963e-06
0.000484931 0.000129819 -1.37721e-06
-2.2963e-06 -1.37721e-06 -4.40926e-05
0.00213704 0.000638479 2.06252e-06
0.000638479 0.000295414 6.30538e-07
2.06252e-06 6.30538e-07 1.86889e-05
0.00206961 0.000618081 1.18721e-06
0.000618081 0.000158864 1.85819e-07
1.18721e-06 1.85819e-07 -7.84839e-05
0.00145 0.000655034 2.18799e-06
0.000655034 0.000396697 7.3244e-07
2.18799e-06 7.3244e-07 -6.16026e-05
0.00181878 0.000705069 -1.96781e-06
0.000705069 0.000293561 -2.0568e-06
-1.96781e-06 -2.0568e-06 -7.91414e-05
0.00126581 0.000152633 1.33262e-06
0.000152633 0.000550484 3.44351e-06
1.33262e-06 3.44351e-06 0.000382305
-0.000296028 1.28795e-05 -6.09152e-07
1.28795e-05 -0.000372353 5.64612e-07
-6.09152e-07 5.64612e-07 -0.000642847
0.00140476 0.000512737 -4.13229e-07
0.000512737 0.000449661 -3.37134e-06
-4.13229e-07 -3.37134e-06 6.40774e-05
5.72896e-05 0.000169813 5.69008e-06
0.000169813 -0.000435165 8.99389e-07
5.69008e-06 8.99389e-07 -0.000663508
0.0022618 0.00055624 6.4888e-08
0.00055624 0.000867856 -3.893e-06
6.4888e-08 -3.893e-06 0.000538876
0.00206456 0.000532981 -5.07008e-07
0.000532981 2.82671e-05 -4.25597e-07
-5.07008e-07 -4.25597e-07 -0.000111822
0.00219807 0.000701413 9.32423e-06
0.000701413 0.000293149 -2.5373e-06
9.32423e-06 -2.5373e-06 -1.50785e-05
0.00218156 0.000655961 9.48318e-06
0.000655961 0.000185012 1.3529e-06
9.48318e-06 1.3529e-06 -7.20165e-05
0.0016849 0.000707573 1.35737e-05
0.000707573 0.00048452 -1.19427e-07
1.35737e-05 -1.19427e-07 2.54955e-05
0.0021284 0.000815103 5.15575e-06
0.000815103 0.000497156 -6.99106e-07
5.15575e-06 -6.99106e-07 8.10679e-05
0.000561134 3.97933e-05 -1.32197e-06
3.97933e-05 5.87457e-05 -6.02718e-06
-1.32197e-06 -6.02718e-06 -3.02913e-05
0.000520885 9.42687e-05 1.19301e-06
9.42687e-05 5.87522e-05 -4.53025e-08
1.19301e-06 -4.53025e-08 -7.66423e-05
0.000244901 7.53659e-05 -4.52939e-07
7.53659e-05 -0.000117676 8.06821e-07
-4.52939e-07 8.06821e-07 -0.000238376
-7.2238e-05 -2.09153e-05 1.49494e-06
-2.09153e-05 -0.000303609 -4.07209e-06
1.49494e-06 -4.07209e-06 -0.000430485
0.00060316 7.48684e-05 -7.01097e-07
7.48684e-05 0.000142628 2.14184e-07
-7.01097e-07 2.14184e-07 9.40418e-06
0.000479607 0.000101615 2.97918e-07
0.000101615 5.62635e-05 -1.71119e-07
2.97918e-07 -1.71119e-07 -8.61821e-05
0.000617657 0.000144848 -2.36176e-06
0.000144848 0.000153847 -5.20519e-06
-2.36176e-06 -5.20519e-06 1.40382e-05
0.00032282 4.6045e-05 -3.09088e-06
4.6045e-05 -2.22842e-05 2.72857e-07
-3.09088e-06 2.72857e-07 -0.00017488
0.000686603 0.000106018 -1.23713e-07
0.000106018 0.000183333 2.81833e-06
-1.23713e-07 2.81833e-06 6.47041e-05
0.000547823 7.76248e-05 2.77837e-06
7.76248e-05 7.27723e-05 4.11001e-06
2.77837e-06 4.11001e-06 -6.12651e-06
0.000508892 2.7278e-05 -2.70544e-06
2.7278e-05 4.30533e-05 5.86222e-08
-2.70544e-06 5.86222e-08 -3.27152e-05
0.00128542 1.59338e-06 2.09065e-06
1.59338e-06 0.000499568 3.67342e-06
2.09065e-06 3.67342e-06 0.000479606
0.000383662 -7.0082e-05 3.86464e-06
-7.0082e-05 -2.9159e-05 -4.66998e-06
3.86464e-06 -4.66998e-06 -0.000113257
0.00135568 -9.88757e-06 -8.0313e-06
-9.88757e-06 0.000540499 -1.71522e-06
-8.0313e-06 -1.71522e-06 0.000519722
0.000735752 -2.33288e-05 3.18649e-05
-2.33288e-05 0.000142919 9.64702e-06
3.18649e-05 9.64702e-06 0.000147002
0.00141487 -1.75892e-05 -1.48532e-05
-1.75892e-05 0.000577275 -8.11981e-06
-1.48532e-05 -8.11981e-06 0.000554096
0.000755185 -3.88523e-05 1.33578e-05
-3.88523e-05 0.000156602 3.64121e-06
1.33578e-05 3.64121e-06 0.000155329
0.00272868 -0.000120239 -8.04187e-07
-0.000120239 0.00142582 -3.22689e-06
-8.04187e-07 -3.22689e-06 0.00142348
0.000274369 6.60304e-05 -4.35503e-06
6.60304e-05 -0.00010402 -6.22397e-06
-4.35503e-06 -6.22397e-06 -0.000148475
0.000393921 2.53458e-06 -3.67736e-06
2.53458e-06 -3.65375e-05 3.30024e-07
-3.67736e-06 3.30024e-07 -9.01041e-05
0.00315003 0.000167577 -4.82447e-06
0.000167577 0.00172744 -7.56419e-06
-4.82447e-06 -7.56419e-06 0.00171045
0.000568513 -9.04315e-05 -1.31751e-05
-9.04315e-05 5.73574e-05 1.24432e-05
-1.31751e-05 1.24432e-05 -1.52666e-05
0.00410863 0.000142662 -3.70484e-05
0.000142662 0.00233482 -6.69441e-08
-3.70484e-05 -6.69441e-08 0.00232169
0.0051307 0.000107527 -0.000176846
0.000107527 0.00298931 2.10891e-05
-0.000176846 2.10891e-05 0.00298125
0.0021001 0.000390454 -2.49698e-06
0.000390454 0.000118179 1.05641e-06
-2.49698e-06 1.05641e-06 -2.54835e-05
0.00214015 0.00021564 -3.76266e-06
0.00021564 0.000100282 -5.75455e-07
-3.76266e-06 -5.75455e-07 3.85321e-05
0.00209171 0.000296155 -8.65287e-07
0.000296155 -3.69745e-07 -4.08325e-08
-8.65287e-07 -4.08325e-08 -4.26249e-05
0.00204345 0.000128103 -1.75887e-06
0.000128103 -3.87689e-06 -3.4793e-07
-1.75887e-06 -3.4793e-07 -7.30961e-06
0.00206224 5.28873e-05 -5.81866e-06
5.28873e-05 4.76453e-05 -1.15645e-07
-5.81866e-06 -1.15645e-07 1.67149e-05
0.00189286 4.89178e-06 -2.21869e-06
4.89178e-06 7.40478e-05 2.29648e-07
-2.21869e-06 2.29648e-07 -1.28341e-05
0.002063 -7.05986e-06 -6.64295e-08
-7.05986e-06 5.80452e-05 1.88187e-08
-6.64295e-08 1.88187e-08 2.37579e-05
0.00204672 5.63017e-05 1.24221e-06
5.63017e-05 2.26034e-05 3.90097e-08
1.24221e-06 3.90097e-08 2.09588e-05
0.00209837 0.000203032 -1.94698e-07
0.000203032 1.45826e-05 -6.22034e-08
-1.94698e-07 -6.22034e-08 5.25178e-07
0.0021137 0.000134225 6.24184e-07
0.000134225 -2.33924e-05 1.80618e-07
6.24184e-07 1.80618e-07 2.89771e-06
0.00210658 0.00038888 -4.70472e-07
0.00038888 7.87315e-05 3.06166e-07
-4.70472e-07 3.06166e-07 -3.05309e-05
0.00222332 0.000310094 2.64847e-06
0.000310094 1.54919e-06 3.29767e-07
2.64847e-06 3.29767e-07 2.76935e-06
0.00200164 -1.3324e-05 3.93643e-06
-1.3324e-05 8.63532e-07 2.0901e-07
3.93643e-06 2.0901e-07 -3.14015e-06
0.00212418 6.40575e-05 -3.66694e-07
6.40575e-05 -2.2909e-05 7.56845e-08
-3.66694e-07 7.56845e-08 1.39664e-05
0.00219534 0.000205753 -1.35654e-06
0.000205753 -1.66311e-05 -3.72999e-07
-1.35654e-06 -3.72999e-07 7.73476e-06
0.00226314 0.000426247 -1.01609e-06
0.000426247 2.86699e-05 2.87655e-07
-1.01609e-06 2.87655e-07 3.30031e-06
0.00208301 -7.1765e-05 -6.6938e-06
-7.1765e-05 7.76243e-05 4.80061e-07
-6.6938e-06 4.80061e-07 3.78179e-05
0.00205593 -0.000222001 -1.7993e-06
-0.000222001 6.71639e-05 2.50626e-07
-1.7993e-06 2.50626e-07 -8.29405e-06
0.00197675 -0.000123547 -4.71581e-06
-0.000123547 -6.75351e-06 7.23023e-07
-4.71581e-06 7.23023e-07 -1.50813e-05
0.00210811 -0.000320662 -5.20069e-06
-0.000320662 4.55028e-05 1.15591e-06
-5.20069e-06 1.15591e-06 -4.47056e-07
0.00102158 -0.000392568 -7.50504e-06
-0.000392568 0.000143035 3.31794e-06
-7.50504e-06 3.31794e-06 -0.000186534
0.00158655 -0.000660083 1.3459e-05
-0.000660083 0.000342381 -4.55288e-06
1.3459e-05 -4.55288e-06 -9.83621e-05
0.00205561 -0.000768163 -3.66465e-06
-0.000768163 0.000380149 -2.56982e-06
-3.66465e-06 -2.56982e-06 -4.26449e-05
0.00197647 -0.00045699 -3.83385e-06
-0.00045699 7.89515e-05 1.34822e-06
-3.83385e-06 1.34822e-06 -7.03492e-05
0.0021021 -0.000415027 -2.75014e-07
-0.000415027 3.93075e-05 1.21792e-06
-2.75014e-07 1.21792e-06 -1.77292e-05
0.00200392 -0.000559486 -3.18159e-07
-0.000559486 9.39658e-05 1.85224e-06
-3.18159e-07 1.85224e-06 -7.32862e-05
0.00208135 -0.000632238 -3.96941e-06
-0.000632238 0.000307866 -2.30607e-06
-3.96941e-06 -2.30607e-06 1.84985e-05
0.00219023 -0.000602211 1.39899e-05
-0.000602211 0.000269809 -6.16367e-06
1.39899e-05 -6.16367e-06 5.133e-05
0.000963122 -0.000414206 -8.26315e-07
-0.000414206 0.000179627 1.0498e-06
-8.26315e-07 1.0498e-06 -0.000175031
0.00130842 -0.000442005 1.75952e-05
-0.000442005 0.000393397 -7.56866e-06
1.75952e-05 -7.56866e-06 1.98422e-05
0.000168893 -0.000167298 -5.40983e-08
-0.000167298 -0.000230637 -1.17507e-05
-5.40983e-08 -1.17507e-05 -0.000536869
9.93552e-05 -8.9253e-05 3.2839e-07
-8.9253e-05 -0.00021156 4.96305e-06
3.2839e-07 4.96305e-06 -0.000367683
0.000136832 -9.18832e-05 4.80899e-06
-9.18832e-05 -0.000122923 -3.0995e-07
4.80899e-06 -3.0995e-07 -0.000426281
0.00198335 -7.95663e-05 1.23641e-07
-7.95663e-05 -1.86576e-05 -1.5735e-07
1.23641e-07 -1.5735e-07 -1.68463e-05
0.00207707 -0.000193567 1.49826e-06
-0.000193567 9.97097e-06 -1.75163e-08
1.49826e-06 -1.75163e-08 1.56033e-06
0.00218344 -0.000374372 -6.51808e-07
-0.000374372 1.57318e-05 8.44936e-08
-6.51808e-07 8.44936e-08 -3.92493e-06
0.00154486 -0.00058086 -1.32921e-06
-0.00058086 0.000461768 -6.76496e-07
-1.32921e-06 -6.76496e-07 3.86058e-05
0.00152476 -0.000735149 3.81196e-06
-0.000735149 0.000284867 -7.99025e-07
3.81196e-06 -7.99025e-07 -0.000186525
0.00218901 -0.000825407 -4.09578e-07
-0.000825407 0.00043497 -3.83568e-07
-4.09578e-07 -3.83568e-07 2.4491e-06
0.00213019 -0.000486327 4.61245e-07
-0.000486327 8.15093e-05 3.94741e-08
4.61245e-07 3.94741e-08 -4.03988e-06
0.00217127 -0.00065384 2.64271e-06
-0.00065384 0.000308861 -3.94009e-06
2.64271e-06 -3.94009e-06 2.76458e-05
0.00221566 -0.000650249 -1.41763e-06
-0.000650249 0.000171871 -2.63886e-07
-1.41763e-06 -2.63886e-07 -1.57118e-05
2.80149e-05 4.46301e-05 -1.94963e-06
4.46301e-05 -0.000251134 -9.52008e-07
-1.94963e-06 -9.52008e-07 -0.000359327
0.00134057 -0.000517216 1.47921e-07
-0.000517216 0.000403541 -1.97795e-06
1.47921e-07 -1.97795e-06 -5.87834e-06
0.0014974 -0.000514442 -4.18652e-06
-0.000514442 0.000514193 1.37458e-06
-4.18652e-06 1.37458e-06 9.24058e-05
0.00168528 -0.000377639 -1.16142e-06
-0.000377639 0.000699132 2.46331e-06
-1.16142e-06 2.46331e-06 0.000336299
0.00130792 -0.000299606 1.71427e-06
-0.000299606 0.0005909 -2.00146e-06
1.71427e-06 -2.00146e-06 0.000265042
0.000419305 -9.1641e-05 -9.04955e-07
-9.1641e-05 7.84603e-05 1.25113e-06
-9.04955e-07 1.25113e-06 -0.000191916
0.00208026 -0.000102178 7.84751e-07
-0.000102178 -3.27506e-05 1.68468e-07
7.84751e-07 1.68468e-07 -5.11104e-06
0.00224552 -0.000260898 -4.22156e-08
-0.000260898 -3.05807e-05 1.99758e-07
-4.22156e-08 1.99758e-07 1.3234e-05
0.00225688 -0.000461132 4.39206e-07
-0.000461132 1.13766e-05 -4.4905e-07
4.39206e-07 -4.4905e-07 1.0789e-05
0.00228983 -0.000583636 3.02112e-07
-0.000583636 7.29884e-05 -2.87822e-06
3.02112e-07 -2.87822e-06 9.75685e-06
0.0017661 -0.000682582 -1.52201e-05
-0.000682582 0.000561875 6.54221e-06
-1.52201e-05 6.54221e-06 9.97591e-05
0.00250194 -0.000770645 -9.89313e-06
-0.000770645 0.000395983 -7.57053e-06
-9.89313e-06 -7.57053e-06 0.000133077
0.00192021 -0.000860578 -5.04088e-05
-0.000860578 0.000499283 7.73654e-06
-5.04088e-05 7.73654e-06 -1.57075e-05
0.00230272 -0.000881878 -2.99185e-05
-0.000881878 0.000520717 1.37138e-06
-2.99185e-05 1.37138e-06 6.83652e-05
-0.000105525 5.01708e-05 -6.18574e-06
5.01708e-05 -0.000338845 -2.83715e-06
-6.18574e-06 -2.83715e-06 -0.000419797
0.000966194 -2.10119e-06 -3.66624e-06
-2.10119e-06 0.000404872 1.19481e-07
-3.66624e-06 1.19481e-07 0.000209119
0.00199038 -0.000308094 -6.81813e-06
-0.000308094 0.00108588 2.48738e-07
-6.81813e-06 2.48738e-07 0.000765631
0.000790204 -0.000191251 1.2999e-07
-0.000191251 0.000209198 -6.32726e-06
1.2999e-07 -6.32726e-06 -0.000116883
0.00290407 -0.000737545 -2.46849e-05
-0.000737545 0.00134521 1.50798e-05
-2.46849e-05 1.50798e-05 0.000874954
0.00170779 -0.000514364 -2.32835e-06
-0.000514364 0.000692542 2.07115e-05
-2.32835e-06 2.07115e-05 0.000229849
0.000555541 4.00296e-05 -1.0268e-06
4.00296e-05 6.23231e-05 -6.33326e-06
-1.0268e-06 -6.33326e-06 -3.96164e-05
-0.00034681 2.94362e-05 9.69572e-07
2.94362e-05 -0.000450152 -6.01315e-07
9.69572e-07 -6.01315e-07 -0.000649348
0.00200979 0.000483409 -1.70651e-06
0.000483409 9.62715e-05 -7.97228e-07
-1.70651e-06 -7.97228e-07 -7.89449e-05
0.000288975 8.45746e-05 -2.73996e-06
8.45746e-05 -0.000147242 2.79812e-06
-2.73996e-06 2.79812e-06 -0.000394446
0.00133338 0.000449287 -4.89244e-07
0.000449287 0.00039034 -5.25355e-06
-4.89244e-07 -5.25355e-06 5.74215e-05
-0.00110246 4.75135e-05 -6.00972e-06
4.75135e-05 -0.00120394 -4.37099e-06
-6.00972e-06 -4.37099e-06 -0.00138123
0.00217731 0.000642334 3.5545e-06
0.000642334 0.000313733 1.94254e-06
3.5545e-06 1.94254e-06 3.61997e-05
0.00209737 0.000616074 -5.78131e-06
0.000616074 0.000170708 3.22872e-07
-5.78131e-06 3.22872e-07 -6.5168e-05
0.00184784 0.000713588 -6.28138e-06
0.000713588 0.000622428 4.50539e-06
-6.28138e-06 4.50539e-06 0.000154373
0.00200266 0.000728335 -7.9205e-06
0.000728335 0.000427675 1.53097e-06
-7.9205e-06 1.53097e-06 4.44222e-05
0.000832101 0.000115988 -6.44467e-07
0.000115988 0.000266406 3.49301e-08
-6.44467e-07 3.49301e-08 0.000111347
0.000440472 0.000103012 1.87632e-06
0.000103012 8.43278e-05 -5.36818e-07
1.87632e-06 -5.36818e-07 -0.000200742
0.00131374 0.000494685 -3.7125e-06
0.000494685 0.000390148 -1.26604e-06
-3.7125e-06 -1.26604e-06 1.09909e-05
0.000941952 0.000201294 -3.07613e-08
0.000201294 0.000105573 -4.08171e-08
-3.07613e-08 -4.08171e-08 -0.000119882
0.00188125 0.000461756 1.86459e-06
0.000461756 0.000611212 -2.85126e-06
1.86459e-06 -2.85126e-06 0.000312546
0.00222399 0.000549465 -2.47131e-06
0.000549465 0.000112039 -8.49399e-07
-2.47131e-06 -8.49399e-07 -2.98622e-05
0.00234909 0.000701569 2.85741e-06
0.000701569 0.00039086 -6.17242e-07
2.85741e-06 -6.17242e-07 8.97919e-05
0.00235678 0.000678813 1.74056e-06
0.000678813 0.000285263 2.75395e-06
1.74056e-06 2.75395e-06 2.45487e-05
0.00162222 0.000705767 4.34184e-06
0.000705767 0.000448462 1.12385e-06
4.34184e-06 1.12385e-06 -1.43842e-05
0.00202306 0.000830672 -4.89339e-06
0.000830672 0.000437202 5.4191e-07
-4.89339e-06 5.4191e-07 6.54828e-06
-0.00110722 1.09578e-05 -4.80708e-06
1.09578e-05 -0.000937023 6.49914e-06
-4.80708e-06 6.49914e-06 -0.00108575
-0.000932533 0.000195285 1.48035e-06
0.000195285 -0.000714367 7.35795e-07
1.48035e-06 7.35795e-07 -0.00104287
0.00155873 0.000560982 5.18584e-06
0.000560982 0.000494288 -2.59997e-06
5.18584e-06 -2.59997e-06 9.58462e-05
0.000606313 0.00029935 5.51061e-06
0.00029935 -0.000206179 -6.19954e-07
5.51061e-06 -6.19954e-07 -0.000459824
0.00249583 0.000555475 4.72733e-06
0.000555475 -3.04236e-05 1.8549e-06
4.72733e-06 1.8549e-06 -8.92639e-07
0.00265947 0.000676967 8.46324e-06
0.000676967 0.000389036 1.00667e-06
8.46324e-06 1.00667e-06 0.00018362
0.00228122 0.000811849 8.18563e-06
0.000811849 0.000366156 -3.72583e-06
8.18563e-06 -3.72583e-06 -1.35091e-05
0.00168239 0.000805777 2.93969e-06
0.000805777 0.000344749 -1.33117e-06
2.93969e-06 -1.33117e-06 -0.000143834
0.000882166 0.000141169 -5.55045e-07
0.000141169 0.000299236 -2.99272e-06
-5.55045e-07 -2.99272e-06 0.000151603
0.000487533 0.00013463 -1.797e-06
0.00013463 5.14553e-05 -9.57794e-07
-1.797e-06 -9.57794e-07 -8.38962e-05
0.00131892 0.000125437 -8.74049e-06
0.000125437 0.0005806 -3.79067e-06
-8.74049e-06 -3.79067e-06 0.00047576
0.000451804 4.77862e-05 1.89112e-07
4.77862e-05 2.11496e-05 -3.21978e-06
1.89112e-07 -3.21978e-06 -9.29386e-05
-0.000350536 4.30373e-05 5.38589e-07
4.30373e-05 -0.000459695 -1.38467e-06
5.38589e-07 -1.38467e-06 -0.000590734
0.00060698 5.66025e-05 -7.85207e-07
5.66025e-05 0.000134571 1.96287e-07
-7.85207e-07 1.96287e-07 1.52737e-05
0.000505217 0.000146441 8.67263e-07
0.000146441 0.000105722 1.05279e-06
8.67263e-07 1.05279e-06 -3.41216e-05
0.000497735 6.95284e-05 7.16954e-07
6.95284e-05 0.000101995 3.62483e-07
7.16954e-07 3.62483e-07 -6.31072e-05
0.00064973 0.000126207 4.77273e-06
0.000126207 0.000130617 -3.88189e-06
4.77273e-06 -3.88189e-06 4.51161e-05
0.000740842 3.17499e-05 2.50774e-06
3.17499e-05 0.000246207 -4.72322e-06
2.50774e-06 -4.72322e-06 8.86532e-05
0.000117132 7.0922e-05 -3.68566e-07
7.0922e-05 -0.000149651 2.72623e-06
-3.68566e-07 2.72623e-06 -0.000301401
0.000670066 0.000117209 1.92322e-06
0.000117209 0.000173691 4.02169e-06
1.92322e-06 4.02169e-06 5.13805e-05
0.000455117 8.23174e-05 2.76854e-06
8.23174e-05 2.07911e-05 3.98973e-06
2.76854e-06 3.98973e-06 -6.42524e-05
0.00044448 1.83142e-05 -1.55711e-06
1.83142e-05 5.12532e-06 -3.53712e-07
-1.55711e-06 -3.53712e-07 -7.14878e-05
0.00123981 8.85552e-06 1.06895e-06
8.85552e-06 0.000476351 3.19093e-06
1.06895e-06 3.19093e-06 0.000456751
0.000432454 -4.19249e-05 8.96863e-07
-4.19249e-05 -7.81074e-06 -3.5803e-06
8.96863e-07 -3.5803e-06 -8.1258e-05
0.00132677 -4.021e-06 -7.64569e-06
-4.021e-06 0.000525335 -1.7208e-06
-7.64569e-06 -1.7208e-06 0.00050635
0.000719183 -1.35348e-05 2.91009e-05
-1.35348e-05 0.000134865 9.5127e-06
2.91009e-05 9.5127e-06 0.000139988
0.00137104 -1.77533e-05 -1.11541e-05
-1.77533e-05 0.000550356 -7.36403e-06
-1.11541e-05 -7.36403e-06 0.000530343
0.000740814 -2.8136e-05 1.15439e-05
-2.8136e-05 0.000144534 3.62388e-06
1.15439e-05 3.62388e-06 0.000146685
0.000733413 -4.10531e-05 7.92538e-07
-4.10531e-05 0.000142668 -3.61035e-06
7.92538e-07 -3.61035e-06 0.000140121
0.000368384 4.65765e-05 -1.86238e-06
4.65765e-05 -6.80574e-05 -4.32214e-06
-1.86238e-06 -4.32214e-06 -9.70074e-05
0.000385957 6.99988e-05 -6.95076e-07
6.99988e-05 -3.35546e-05 2.86711e-07
-6.95076e-07 2.86711e-07 -7.94784e-05
0.00264238 0.000127009 3.264e-06
0.000127009 0.00139271 -5.75832e-06
3.264e-06 -5.75832e-06 0.001387
0.000503309 4.77857e-07 -7.21128e-06
4.77857e-07 3.32022e-05 1.0559e-05
-7.21128e-06 1.0559e-05 -2.27481e-05
0.00329593 0.000162445 -2.21497e-05
0.000162445 0.00181704 -2.2509e-06
-2.21497e-05 -2.2509e-06 0.00180089
0.00427582 8.33864e-05 -0.000145008
8.33864e-05 0.00243507 1.54705e-05
-0.000145008 1.54705e-05 0.00243594
0.0021241 0.000389413 -8.06172e-07
0.000389413 0.000100117 4.27227e-07
-8.06172e-07 4.27227e-07 -1.13019e-05
0.00211597 0.000201937 -3.7487e-06
0.000201937 2.85041e-05 -7.4823e-07
-3.7487e-06 -7.4823e-07 1.59495e-05
0.00215281 0.000310194 1.04396e-06
0.000310194 -4.45545e-05 7.42738e-07
1.04396e-06 7.42738e-07 -3.65729e-05
0.00209492 0.000135461 8.63793e-07
0.000135461 -4.08654e-05 -9.40477e-08
8.63793e-07 -9.40477e-08 -7.63675e-06
0.00204267 5.72775e-05 -3.77737e-06
5.72775e-05 2.28579e-05 -3.60188e-07
-3.77737e-06 -3.60188e-07 1.77046e-05
0.00207654 -1.01065e-05 -7.38114e-06
-1.01065e-05 7.16316e-05 5.40603e-08
-7.38114e-06 5.40603e-08 3.57958e-05
0.00201325 -1.16889e-05 1.57212e-07
-1.16889e-05 9.40474e-06 -1.4934e-08
1.57212e-07 -1.4934e-08 6.19473e-06
0.00210639 6.68401e-05 1.12133e-06
6.68401e-05 -2.99621e-05 1.20008e-07
1.12133e-06 1.20008e-07 5.05878e-06
0.00218852 0.000212427 1.09372e-06
0.000212427 -2.25537e-05 2.02226e-07
1.09372e-06 2.02226e-07 5.57089e-06
0.00225644 0.00041439 5.41988e-07
0.00041439 1.75988e-05 1.56888e-07
5.41988e-07 1.56888e-07 -5.97411e-06
0.0020733 -1.68556e-05 -8.42528e-07
-1.68556e-05 -3.99628e-05 9.25188e-08
-8.42528e-07 9.25188e-08 -1.1185e-05
0.00223363 0.000118353 -2.82451e-06
0.000118353 -6.61396e-05 -4.16885e-07
-2.82451e-06 -4.16885e-07 1.03825e-05
0.00242572 0.000321771 6.58248e-07
0.000321771 -2.71361e-06 -4.50989e-07
6.58248e-07 -4.50989e-07 4.65229e-05
0.0019705 -8.78267e-05 -3.70603e-06
-8.78267e-05 -2.8641e-05 1.82599e-07
-3.70603e-06 1.82599e-07 -2.79502e-05
0.00210876 -0.00019431 -3.15873e-06
-0.00019431 2.70845e-05 4.73534e-07
-3.15873e-06 4.73534e-07 1.86234e-05
0.00218249 -0.000367155 -1.88296e-06
-0.000367155 3.30521e-05 5.4777e-07
-1.88296e-06 5.4777e-07 7.21234e-06
0.00168921 -0.00059828 2.80165e-06
-0.00059828 0.000545219 -1.16273e-06
2.80165e-06 -1.16273e-06 0.000119586
0.00155751 -0.000713467 2.48185e-05
-0.000713467 0.000310365 -8.13523e-06
2.48185e-05 -8.13523e-06 -0.000150756
0.00200376 -0.000813518 8.7054e-07
-0.000813518 0.000340358 -6.03363e-08
8.7054e-07 -6.03363e-08 -9.30664e-05
0.00211234 -0.000482315 -1.49805e-06
-0.000482315 7.39377e-05 1.46937e-06
-1.49805e-06 1.46937e-06 -1.41334e-05
0.00216403 -0.000630304 8.62563e-06
-0.000630304 0.000172168 2.90807e-06
8.62563e-06 2.90807e-06 -7.5258e-06
0.00225573 -0.000687842 1.36605e-05
-0.000687842 0.000334461 -6.97591e-06
1.36605e-05 -6.97591e-06 4.8899e-05
0.00093772 -0.000460487 8.63222e-06
-0.000460487 0.000151194 -6.42653e-06
8.63222e-06 -6.42653e-06 -0.000243503
0.00175199 -0.000561615 2.01219e-05
-0.000561615 0.000688382 -1.71932e-05
2.01219e-05 -1.71932e-05 0.000256272
0.00102653 -0.000383993 -2.83503e-06
-0.000383993 0.00032394 -8.81731e-06
-2.83503e-06 -8.81731e-06 -5.84401e-05
0.000212094 3.92421e-05 4.1419e-06
3.92421e-05 -0.000138825 1.9336e-06
4.1419e-06 1.9336e-06 -0.000242453
0.00191005 -0.000331662 2.47316e-06
-0.000331662 0.000935082 4.23236e-06
2.47316e-06 4.23236e-06 0.000617435
-0.000346773 5.25109e-06 7.01473e-06
5.25109e-06 -0.000415877 -3.92863e-07
7.01473e-06 -3.92863e-07 -0.000670218
0.0020954 -9.93524e-05 -5.71125e-07
-9.93524e-05 -2.30912e-05 1.32716e-07
-5.71125e-07 1.32716e-07 2.46013e-06
0.00221679 -0.000269355 1.23636e-07
-0.000269355 -5.22135e-05 -1.09877e-07
1.23636e-07 -1.09877e-07 -6.47624e-06
0.00224627 -0.000453002 -6.66164e-07
-0.000453002 1.00243e-05 3.33665e-07
-6.66164e-07 3.33665e-07 7.07676e-06
0.00181184 -0.000686399 -7.52803e-07
-0.000686399 0.00060512 8.74909e-07
-7.52803e-07 8.74909e-07 0.000142052
0.00138613 -0.000786589 6.56868e-06
-0.000786589 0.00019136 -2.31063e-06
6.56868e-06 -2.31063e-06 -0.000303957
0.00245272 -0.000875022 -3.27213e-06
-0.000875022 0.00060894 -4.67147e-07
-3.27213e-06 -4.67147e-07 0.000172041
0.00226094 -0.000592737 2.67576e-07
-0.000592737 5.82767e-05 -3.73781e-07
2.67576e-07 -3.73781e-07 -1.33392e-05
0.00198888 -0.000707477 2.44227e-06
-0.000707477 0.000117336 -8.82442e-07
2.44227e-06 -8.82442e-07 -0.000127089
0.000222184 6.04917e-05 -1.93709e-06
6.04917e-05 -0.000133218 -1.37986e-06
-1.93709e-06 -1.37986e-06 -0.000210951
0.000658759 -3.72937e-05 -1.00321e-06
-3.72937e-05 0.000199708 9.93961e-07
-1.00321e-06 9.93961e-07 1.41107e-05
0.000992307 -0.000519008 -2.887e-06
-0.000519008 0.000163477 1.78479e-06
-2.887e-06 1.78479e-06 -0.000247939
0.00134567 -0.000446516 -5.75082e-06
-0.000446516 0.00047786 1.61123e-06
-5.75082e-06 1.61123e-06 2.28737e-05
0.00153468 -0.000237998 -9.73486e-07
-0.000237998 0.000666846 -1.6636e-06
-9.73486e-07 -1.6636e-06 0.000332936
0.00108526 -0.000217604 -2.48716e-07
-0.000217604 0.000504522 1.80753e-06
-2.48716e-07 1.80753e-06 0.000196903
0.00220913 -0.000137361 -2.14044e-06
-0.000137361 -6.48101e-05 1.18233e-06
-2.14044e-06 1.18233e-06 1.21662e-05
0.00236199 -0.000387676 -2.02743e-06
-0.000387676 -9.41693e-05 8.78774e-07
-2.02743e-06 8.78774e-07 7.191e-06
0.00234693 -0.000558733 2.29934e-06
-0.000558733 1.46749e-05 -1.11484e-06
2.29934e-06 -1.11484e-06 1.67632e-05
0.00241542 -0.000759082 5.46655e-06
-0.000759082 0.000167299 -4.04556e-06
5.46655e-06 -4.04556e-06 1.32364e-05
0.00100207 -0.000627665 -1.25014e-05
-0.000627665 0.000104929 -7.13745e-06
-1.25014e-05 -7.13745e-06 -0.000349186
0.00272032 -0.000954951 -7.67172e-06
-0.000954951 0.00067167 -1.84592e-06
-7.67172e-06 -1.84592e-06 0.000262756
0.00243562 -0.00100066 -5.70455e-05
-0.00100066 0.000725745 -1.6944e-06
-5.70455e-05 -1.6944e-06 0.000162241
0.000545659 4.46419e-05 -6.55629e-08
4.46419e-05 5.31191e-05 -1.17943e-07
-6.55629e-08 -1.17943e-07 -5.28594e-06
0.000728509 -0.000153468 3.94105e-06
-0.000153468 0.000234417 -1.29204e-06
3.94105e-06 -1.29204e-06 0.000113317
0.000286602 8.91717e-05 -8.80741e-06
8.91717e-05 -4.2246e-05 -5.0879e-08
-8.80741e-06 -5.0879e-08 -0.000168646
0.000922186 -7.00582e-05 -4.77384e-06
-7.00582e-05 0.000391608 3.67866e-06
-4.77384e-06 3.67866e-06 0.00014988
-0.00022883 -0.000160554 2.1441e-06
-0.000160554 -0.00037374 -9.01749e-06
2.1441e-06 -9.01749e-06 -0.000662574
0.000410583 -0.00019861 6.96787e-06
-0.00019861 2.03429e-05 -4.59693e-06
6.96787e-06 -4.59693e-06 -0.00039829
0.00119548 -0.000573664 -4.03088e-05
-0.000573664 0.00030985 2.99317e-05
-4.03088e-05 2.99317e-05 -0.000102187
0.00307361 -0.000586119 -3.21502e-05
-0.000586119 0.00173835 1.91497e-05
-3.21502e-05 1.91497e-05 0.0010358
0.000241352 5.91647e-05 -1.64017e-07
5.91647e-05 -0.00012529 -1.75057e-06
-1.64017e-07 -1.75057e-06 -0.000259869
0.00116907 0.000251874 -6.92534e-07
0.000251874 0.00051946 2.84708e-07
-6.92534e-07 2.84708e-07 0.000227593
0.00237964 0.000566202 -2.19168e-06
0.000566202 0.000193506 -1.24091e-06
-2.19168e-06 -1.24091e-06 4.95418e-05
0.000476905 0.000193225 -5.11804e-06
0.000193225 -0.000174177 -7.45303e-07
-5.11804e-06 -7.45303e-07 -0.000419346
0.00120967 0.000476794 -2.47286e-06
0.000476794 0.000322701 -2.04815e-07
-2.47286e-06 -2.04815e-07 -5.205e-05
0.00181576 0.000404581 -6.91537e-06
0.000404581 0.000551409 -1.77095e-06
-6.91537e-06 -1.77095e-06 0.000273236
0.00247652 0.000697367 -7.14547e-06
0.000697367 0.000476036 -1.33589e-07
-7.14547e-06 -1.33589e-07 0.000183589
0.00251264 0.000700042 -1.05209e-05
0.000700042 0.000374752 5.31988e-06
-1.05209e-05 5.31988e-06 0.000110968
0.00159317 0.00071146 -5.66748e-06
0.00071146 0.00042725 1.70771e-06
-5.66748e-06 1.70771e-06 -4.0038e-05
0.00183751 0.000838879 -8.42473e-06
0.000838879 0.000328437 2.03513e-07
-8.42473e-06 2.03513e-07 -0.000114338
-0.000208433 7.33995e-05 1.25398e-06
7.33995e-05 -0.000362267 1.38241e-06
1.25398e-06 1.38241e-06 -0.000540265
0.000143964 0.000287566 5.24444e-07
0.000287566 -4.32356e-05 -2.36468e-06
5.24444e-07 -2.36468e-06 -0.000380381
0.00156251 0.000572437 2.21577e-06
0.000572437 0.000475103 2.10446e-07
2.21577e-06 2.10446e-07 6.78478e-05
0.00185084 0.000415948 -4.53185e-06
0.000415948 0.000601909 1.54331e-06
-4.53185e-06 1.54331e-06 0.000323182
0.00245192 0.000532705 5.96445e-07
0.000532705 -8.1765e-05 -9.09795e-07
5.96445e-07 -9.09795e-07 -3.77943e-05
0.00258251 0.000680877 3.30721e-06
0.000680877 0.000342547 5.66797e-09
3.30721e-06 5.66797e-09 0.000127588
0.00218631 0.000786773 -2.71453e-06
0.000786773 0.000330953 9.34137e-09
-2.71453e-06 9.34137e-09 -3.93245e-05
0.0019228 0.000825809 1.3312e-06
0.000825809 0.000467171 1.65884e-07
1.3312e-06 1.65884e-07 -1.70287e-05
-0.000541721 3.68971e-05 -3.90455e-06
3.68971e-05 -0.000555549 4.72458e-06
-3.90455e-06 4.72458e-06 -0.000726831
0.00232726 0.000399377 1.15336e-05
0.000399377 -0.000195276 3.02446e-06
1.15336e-05 3.02446e-06 -0.000103194
0.00281192 0.000577534 7.44985e-06
0.000577534 0.00156455 9.14247e-06
7.44985e-06 9.14247e-06 0.00119211
0.00142931 0.000559269 3.9104e-06
0.000559269 0.000314082 -4.30154e-06
3.9104e-06 -4.30154e-06 -6.67634e-05
0.00256371 0.000663191 -1.26263e-05
0.000663191 0.000136064 -7.92325e-06
-1.26263e-05 -7.92325e-06 8.42232e-05
0.00129345 0.000734743 4.14752e-06
0.000734743 -0.000292274 -8.90424e-06
4.14752e-06 -8.90424e-06 -0.000640588
0.00283777 0.000956703 1.79526e-06
0.000956703 0.000932994 3.45011e-06
1.79526e-06 3.45011e-06 0.000419192
0.000704074 0.000133476 -1.24438e-06
0.000133476 0.000190249 -2.87932e-06
-1.24438e-06 -2.87932e-06 5.09859e-05
0.000576303 0.000123466 -3.69114e-06
0.000123466 0.000139233 -1.4427e-06
-3.69114e-06 -1.4427e-06 2.77378e-05
0.000707244 0.000103 -3.02553e-06
0.000103 0.00023925 4.56214e-06
-3.02553e-06 4.56214e-06 0.000165695
0.00046369 9.48896e-06 1.43416e-06
9.48896e-06 4.4215e-05 -3.85657e-06
1.43416e-06 -3.85657e-06 -7.46748e-05
0.000578705 8.80977e-05 2.78784e-06
8.80977e-05 0.000155765 -1.83664e-06
2.78784e-06 -1.83664e-06 -1.30646e-05
-0.00053359 0.000104002 -3.25865e-06
0.000104002 -0.000507712 6.84649e-06
-3.25865e-06 6.84649e-06 -0.000637125
0.000534031 2.49221e-05 -1.61026e-06
2.49221e-05 9.20086e-05 1.0763e-08
-1.61026e-06 1.0763e-08 -3.30139e-05
0.000268259 -2.80456e-06 -8.26707e-07
-2.80456e-06 -3.83312e-05 -2.67945e-07
-8.26707e-07 -2.67945e-07 -0.000200912
3.20709e-05 6.67832e-05 -2.05889e-06
6.67832e-05 -0.000225667 2.45572e-06
-2.05889e-06 2.45572e-06 -0.000297787
0.000749359 0.000120189 1.1825e-06
0.000120189 0.00026531 -1.65258e-06
1.1825e-06 -1.65258e-06 9.69086e-05
0.00180523 0.000162349 -1.32533e-06
0.000162349 0.000842972 -2.01196e-06
-1.32533e-06 -2.01196e-06 0.000794834
0.000236231 2.96477e-05 1.0586e-05
2.96477e-05 -9.94011e-05 -8.54716e-06
1.0586e-05 -8.54716e-06 -0.000188519
0.000352064 0.000119584 6.81513e-07
0.000119584 2.58101e-05 3.16553e-06
6.81513e-07 3.16553e-06 -0.000150925
0.000550785 5.94947e-05 1.19372e-06
5.94947e-05 0.000129409 4.39217e-06
1.19372e-06 4.39217e-06 -4.33604e-05
0.000544061 2.8903e-05 2.12943e-06
2.8903e-05 8.69867e-05 3.50445e-06
2.12943e-06 3.50445e-06 -3.87784e-05
0.000484747 -6.45124e-05 -1.27216e-06
-6.45124e-05 3.46338e-05 3.16231e-06
-1.27216e-06 3.16231e-06 -4.98715e-05
0.000477146 1.36009e-05 5.08853e-07
1.36009e-05 2.45534e-05 -4.20185e-07
5.08853e-07 -4.20185e-07 -5.3505e-05
0.00131049 2.96187e-05 3.46977e-06
2.96187e-05 0.000528755 3.42411e-06
3.46977e-06 3.42411e-06 0.000507279
0.000480079 8.98925e-06 6.15875e-07
8.98925e-06 1.62875e-05 -3.71655e-06
6.15875e-07 -3.71655e-06 -5.28605e-05
0.00132568 1.55574e-05 -7.52228e-06
1.55574e-05 0.000531387 -1.8043e-06
-7.52228e-06 -1.8043e-06 0.000511428
0.000746066 -6.5675e-06 2.42195e-05
-6.5675e-06 0.0001571 9.16911e-06
2.42195e-05 9.16911e-06 0.000161713
0.00134697 -1.17634e-05 -8.74249e-06
-1.17634e-05 0.000537808 -7.05735e-06
-8.74249e-06 -7.05735e-06 0.000519499
0.00076365 -1.85453e-05 9.19749e-06
-1.85453e-05 0.000160134 3.60903e-06
9.19749e-06 3.60903e-06 0.000163707
0.000752255 -3.06152e-05 6.20595e-07
-3.06152e-05 0.000149716 -3.1321e-06
6.20595e-07 -3.1321e-06 0.000150993
0.000616767 -1.57291e-05 1.55497e-06
-1.57291e-05 9.20989e-05 -1.35478e-06
1.55497e-06 -1.35478e-06 3.82431e-05
0.000383789 2.83571e-05 -1.38344e-07
2.83571e-05 -7.09581e-05 -3.7913e-06
-1.38344e-07 -3.7913e-06 -9.13927e-05
0.000404919 4.89684e-05 3.21441e-07
4.89684e-05 -4.24348e-05 2.80449e-07
3.21441e-07 2.80449e-07 -7.28539e-05
0.00243542 9.91239e-05 9.41429e-06
9.91239e-05 0.00124953 -4.92851e-06
9.41429e-06 -4.92851e-06 0.00125151
0.000459278 5.68067e-05 4.28506e-06
5.68067e-05 4.85873e-06 7.64719e-06
4.28506e-06 7.64719e-06 -3.7999e-05
0.00284835 0.000138719 -4.75873e-06
0.000138719 0.0015258 -5.5132e-07
-4.75873e-06 -5.5132e-07 0.00151738
0.00353267 0.000116711 -5.90666e-05
0.000116711 0.00195492 6.66259e-06
-5.90666e-05 6.66259e-06 0.00194855
0.002255 0.000403409 1.06789e-06
0.000403409 9.61491e-06 1.4898e-07
1.06789e-06 1.4898e-07 -1.21592e-05
0.00218456 0.000219262 3.65699e-07
0.000219262 -2.56008e-05 3.57487e-07
3.65699e-07 3.57487e-07 5.7403e-06
0.00208908 7.05959e-05 4.44983e-07
7.05959e-05 -3.5885e-05 -1.20627e-07
4.44983e-07 -1.20627e-07 -2.93666e-06
0.00202324 -9.96071e-06 -4.0979e-06
-9.96071e-06 1.71956e-05 -2.79201e-07
-4.0979e-06 -2.79201e-07 1.47474e-05
0.00208266 -1.17209e-05 -9.52071e-07
-1.17209e-05 -3.54687e-05 -3.49183e-08
-9.52071e-07 -3.49183e-08 -3.87944e-06
0.00222241 0.000111959 6.76222e-08
0.000111959 -6.35263e-05 4.1305e-07
6.76222e-08 4.1305e-07 1.04795e-05
0.00234439 0.000328917 -1.16579e-06
0.000328917 -3.84982e-05 -1.61243e-07
-1.16579e-06 -1.61243e-07 9.45243e-06
0.00220234 -1.14802e-05 -2.87999e-06
-1.14802e-05 -8.21788e-05 3.23914e-07
-2.87999e-06 3.23914e-07 4.21401e-06
0.00246207 0.000167638 2.20159e-06
0.000167638 -5.38179e-05 -1.48132e-06
2.20159e-06 -1.48132e-06 3.48612e-05
0.00260067 0.000127917 1.24364e-05
0.000127917 9.81542e-05 1.2425e-05
1.24364e-05 1.2425e-05 0.000193791
0.00211162 -9.70939e-05 -7.02378e-07
-9.70939e-05 -1.24014e-05 -1.19368e-07
-7.02378e-07 -1.19368e-07 1.09949e-05
0.00219099 -0.000279204 -3.60287e-07
-0.000279204 -7.34662e-05 -3.29723e-07
-3.60287e-07 -3.29723e-07 -2.51779e-05
0.00224207 -0.000444394 2.42114e-08
-0.000444394 1.28634e-05 -1.87224e-07
2.42114e-08 -1.87224e-07 8.21965e-06
0.00134348 -0.000639064 1.12055e-05
-0.000639064 0.000319469 -4.33248e-06
1.12055e-05 -4.33248e-06 -0.000135356
0.00197564 -0.000856833 3.58887e-05
-0.000856833 0.00052905 -2.93431e-06
3.58887e-05 -2.93431e-06 1.77275e-05
0.00204137 -0.000800136 1.58135e-05
-0.000800136 0.000382908 -2.07751e-06
1.58135e-05 -2.07751e-06 -2.68635e-05
0.00222716 -0.000598717 2.19513e-06
-0.000598717 4.56229e-05 2.92565e-06
2.19513e-06 2.92565e-06 -3.58276e-05
0.00195073 -0.000690392 1.34121e-05
-0.000690392 0.000116326 4.56225e-06
1.34121e-05 4.56225e-06 -0.000120501
0.00054319 -0.000455789 2.03333e-05
-0.000455789 -0.000102193 -2.16968e-05
2.03333e-05 -2.16968e-05 -0.000505394
0.00133235 -0.000420959 1.73559e-05
-0.000420959 0.000522653 -2.12722e-05
1.73559e-05 -2.12722e-05 5.60346e-05
0.0013031 -0.000170592 -4.41404e-06
-0.000170592 0.000483976 3.0874e-06
-4.41404e-06 3.0874e-06 0.000175426
0.000408524 1.59666e-05 2.7187e-06
1.59666e-05 -1.72843e-05 9.51757e-07
2.7187e-06 9.51757e-07 -9.08637e-05
0.000455493 2.41433e-05 7.68222e-06
2.41433e-05 6.33186e-05 6.83166e-07
7.68222e-06 6.83166e-07 -0.000114307
0.000303192 -0.000153677 1.93001e-06
-0.000153677 -6.699e-06 7.135e-06
1.93001e-06 7.135e-06 -0.00029938
0.00221878 -0.000140079 5.66081e-07
-0.000140079 -6.81285e-05 -3.86924e-08
5.66081e-07 -3.86924e-08 1.14222e-05
0.000477038 6.8927e-06 1.87027e-06
6.8927e-06 1.00338e-05 3.56327e-07
1.87027e-06 3.56327e-07 -4.84235e-05
0.000385562 -7.8054e-05 -2.76916e-06
-7.8054e-05 -1.90368e-05 -6.97492e-07
-2.76916e-06 -6.97492e-07 -0.000117554
0.002336 -0.000376685 -2.32842e-07
-0.000376685 -8.60193e-05 9.24743e-08
-2.32842e-07 9.24743e-08 3.76413e-06
0.00229567 -0.000544149 -1.88293e-06
-0.000544149 -4.76043e-06 4.20703e-07
-1.88293e-06 4.20703e-07 5.13478e-06
0.00185725 -0.000745266 -1.01787e-06
-0.000745266 0.000609457 2.09885e-06
-1.01787e-06 2.09885e-06 0.000120232
0.00195037 -0.000935848 1.02994e-05
-0.000935848 0.000472922 2.82834e-07
1.02994e-05 2.82834e-07 -8.13729e-05
0.00223818 -0.000903491 1.83857e-06
-0.000903491 0.000383117 -5.81769e-06
1.83857e-06 -5.81769e-06 -8.64271e-06
0.00237296 -0.000755713 2.90938e-06
-0.000755713 0.000142664 -9.2202e-07
2.90938e-06 -9.2202e-07 -6.1508e-06
0.000646577 1.01563e-05 -9.58876e-07
1.01563e-05 0.000192774 -1.40849e-06
-9.58876e-07 -1.40849e-06 6.21882e-05
0.000773149 -6.29427e-05 1.51211e-06
-6.29427e-05 0.000295488 2.16954e-06
1.51211e-06 2.16954e-06 5.64479e-05
0.00142554 -0.000575211 5.79743e-06
-0.000575211 0.000476438 6.91978e-06
5.79743e-06 6.91978e-06 4.97954e-05
0.00134661 -0.000432955 1.28596e-05
-0.000432955 0.000657089 -9.12376e-06
1.28596e-05 -9.12376e-06 5.73313e-05
0.000968197 -0.000183226 -2.25748e-08
-0.000183226 0.000304765 -3.08597e-07
-2.25748e-08 -3.08597e-07 -6.71847e-05
0.000142758 -0.000124279 8.81571e-07
-0.000124279 -0.000131605 -2.89942e-06
8.81571e-07 -2.89942e-06 -0.000430506
0.00222383 -0.000164481 5.00382e-07
-0.000164481 -0.000227597 1.01944e-06
5.00382e-07 1.01944e-06 -0.00011584
0.00234845 -0.000486458 -5.61731e-07
-0.000486458 -0.000237105 3.06633e-06
-5.61731e-07 3.06633e-06 -1.08925e-05
0.00260216 -0.000761727 -4.51246e-06
-0.000761727 0.000110087 -2.33118e-06
-4.51246e-06 -2.33118e-06 7.56247e-05
0.00260747 -0.000986785 1.27059e-05
-0.000986785 0.000362254 -5.50717e-06
1.27059e-05 -5.50717e-06 0.000106468
0.00118348 -0.000707278 -5.2848e-06
-0.000707278 0.00026019 -2.05205e-05
-5.2848e-06 -2.05205e-05 -0.000244406
0.00331787 -0.00118923 -1.36976e-05
-0.00118923 0.00113264 6.12328e-06
-1.36976e-05 6.12328e-06 0.000534968
0.000218887 5.88863e-05 -2.80987e-06
5.88863e-05 -0.000120298 -4.4922e-06
-2.80987e-06 -4.4922e-06 -0.00022551
0.000508296 -4.72213e-05 4.63413e-06
-4.72213e-05 6.48075e-05 8.37293e-07
4.63413e-06 8.37293e-07 -2.85303e-05
0.00131563 -0.000180935 -4.03721e-06
-0.000180935 0.000534372 1.66675e-05
-4.03721e-06 1.66675e-05 0.000410085
0.000380087 1.16366e-05 -4.57536e-06
1.16366e-05 6.07884e-06 5.43299e-06
-4.57536e-06 5.43299e-06 -0.000168389
0.000803834 -0.000120719 -5.33208e-06
-0.000120719 0.000298944 9.5499e-06
-5.33208e-06 9.5499e-06 3.74078e-05
0.00123087 -9.80764e-05 1.37696e-05
-9.80764e-05 0.000460553 -1.49775e-05
1.37696e-05 -1.49775e-05 0.00019281
-0.000948195 -0.000354272 -2.18344e-06
-0.000354272 -0.000372762 -2.23292e-06
-2.18344e-06 -2.23292e-06 -0.00124742
0.000260727 -0.000608033 -6.22798e-05
-0.000608033 -0.0002833 3.07805e-05
-6.22798e-05 3.07805e-05 -0.000658305
0.000404698 0.000108644 -9.92547e-07
0.000108644 5.3387e-05 -2.40536e-06
-9.92547e-07 -2.40536e-06 -0.000163264
0.00141895 0.000342154 -1.16326e-05
0.000342154 0.000719178 -6.60329e-06
-1.16326e-05 -6.60329e-06 0.000397266
0.00240987 0.000509155 -8.68109e-06
0.000509155 -0.000123174 -2.24884e-06
-8.68109e-06 -2.24884e-06 -6.74719e-05
0.00257478 0.000689618 -8.27458e-06
0.000689618 0.000341066 -8.49039e-07
-8.27458e-06 -8.49039e-07 0.0001158
0.00333723 0.000512575 -6.38805e-06
0.000512575 0.00153052 1.75024e-06
-6.38805e-06 1.75024e-06 0.00124627
0.00156036 0.000581169 -6.29461e-06
0.000581169 0.000457066 -1.95243e-06
-6.29461e-06 -1.95243e-06 4.16351e-05
0.00212738 0.000765534 -6.30883e-06
0.000765534 0.000315813 2.11759e-06
-6.30883e-06 2.11759e-06 -4.63098e-05
0.00222572 0.000849526 -6.31821e-06
0.000849526 0.000627573 -4.24681e-07
-6.31821e-06 -4.24681e-07 0.000146851
0.00021639 0.000125868 1.62031e-06
0.000125868 -4.59245e-05 -1.10746e-06
1.62031e-06 -1.10746e-06 -0.000263236
0.00247281 0.000384104 -2.23512e-06
0.000384104 -0.000101981 -2.02685e-06
-2.23512e-06 -2.02685e-06 -3.70509e-06
0.00149414 0.000387351 1.21625e-06
0.000387351 0.000726236 1.94623e-06
1.21625e-06 1.94623e-06 0.000405968
0.00162673 0.000574248 2.19322e-06
0.000574248 0.000466658 1.26823e-06
2.19322e-06 1.26823e-06 7.94783e-05
0.00262912 0.000655866 1.43484e-06
0.000655866 0.000195448 2.91713e-07
1.43484e-06 2.91713e-07 0.000140993
0.00178903 0.000783045 -1.98484e-06
0.000783045 4.35819e-06 -4.83345e-06
-1.98484e-06 -4.83345e-06 -0.000350571
0.00228254 0.000873695 -3.46576e-07
0.000873695 0.00063213 1.46681e-07
-3.46576e-07 1.46681e-07 0.000135474
0.00137954 0.000332475 -2.67107e-06
0.000332475 0.000794065 -4.08831e-07
-2.67107e-06 -4.08831e-07 0.000499085
0.00366187 0.000580251 -8.19919e-05
0.000580251 0.000580434 -2.07199e-05
-8.19919e-05 -2.07199e-05 0.000761018
0.000713274 0.000483054 -1.01678e-05
0.000483054 0.000188419 6.02943e-06
-1.01678e-05 6.02943e-06 -0.00017821
0.00152285 0.000654928 -4.40617e-06
0.000654928 0.000340313 -8.46526e-06
-4.40617e-06 -8.46526e-06 -0.000107524
0.00249184 0.000875209 -3.38288e-05
0.000875209 0.000248989 -2.14485e-05
-3.38288e-05 -2.14485e-05 1.04429e-05
0.00115402 0.000753571 -2.44256e-05
0.000753571 -4.40034e-05 -3.59651e-06
-2.44256e-05 -3.59651e-06 -0.000494778
0.000466344 0.000948865 3.53462e-05
0.000948865 -0.00196899 -3.69739e-05
3.53462e-05 -3.69739e-05 -0.00146959
-7.03315e-05 0.000142629 4.97488e-06
0.000142629 -0.000223114 -9.48889e-07
4.97488e-06 -9.48889e-07 -0.000347743
0.000468706 0.000117025 2.95234e-06
0.000117025 0.000133188 2.40981e-06
2.95234e-06 2.40981e-06 4.58244e-05
0.00136144 0.000156911 1.73816e-06
0.000156911 0.000655589 2.45896e-06
1.73816e-06 2.45896e-06 0.000579579
0.000381568 -6.54396e-05 1.31844e-06
-6.54396e-05 2.99175e-06 -4.62328e-06
1.31844e-06 -4.62328e-06 -0.000124789
0.000351301 -3.12698e-05 -5.25822e-07
-3.12698e-05 1.18433e-05 -1.92747e-06
-5.25822e-07 -1.92747e-06 -0.00014798
0.00130841 0.00021757 2.14612e-07
0.00021757 0.000618258 2.21964e-07
2.14612e-07 2.21964e-07 0.00043784
-0.000241418 4.28396e-05 -7.1446e-06
4.28396e-05 -0.000372389 1.51853e-05
-7.1446e-06 1.51853e-05 -0.00044126
0.000504739 -1.59073e-05 -2.45196e-07
-1.59073e-05 7.99866e-05 -1.82642e-07
-2.45196e-07 -1.82642e-07 -5.52801e-05
0.000409904 7.56768e-05 2.20056e-07
7.56768e-05 1.59893e-05 -7.47129e-07
2.20056e-07 -7.47129e-07 -0.000137844
0.00116991 0.000137498 2.75342e-06
0.000137498 0.000445414 4.4851e-06
2.75342e-06 4.4851e-06 0.000400488
0.000432725 7.81028e-05 1.66041e-06
7.81028e-05 5.34394e-05 8.12644e-07
1.66041e-06 8.12644e-07 -0.000110164
0.000682544 6.88837e-05 -9.98007e-07
6.88837e-05 0.000173891 -2.09137e-06
-9.98007e-07 -2.09137e-06 7.12924e-05
0.00142293 0.000145201 -3.69093e-06
0.000145201 0.000654494 -1.41239e-05
-3.69093e-06 -1.41239e-05 0.000597648
0.000822839 0.000152855 -2.62269e-06
0.000152855 0.000239242 -2.63415e-06
-2.62269e-06 -2.63415e-06 9.07772e-05
0.000933091 0.000139669 1.71698e-06
0.000139669 0.000360374 2.59871e-06
1.71698e-06 2.59871e-06 0.000183578
0.000888183 0.000111456 -4.81883e-07
0.000111456 0.000335718 1.99899e-06
-4.81883e-07 1.99899e-06 0.000153072
0.000214971 -2.45843e-05 -1.47803e-06
-2.45843e-05 -0.000125566 2.04687e-06
-1.47803e-06 2.04687e-06 -0.000254697
0.00123131 -0.000103002 5.93007e-07
-0.000103002 0.000606344 -1.31316e-06
5.93007e-07 -1.31316e-06 0.000399124
0.00013409 -4.6885e-05 -1.08052e-06
-4.6885e-05 -0.000171175 3.86819e-06
-1.08052e-06 3.86819e-06 -0.000305578
0.000433858 3.40131e-06 -2.21018e-06
3.40131e-06 8.91007e-06 3.01411e-06
-2.21018e-06 3.01411e-06 -7.98624e-05
0.000452964 4.02582e-05 2.5207e-06
4.02582e-05 1.89015e-05 -1.2707e-07
2.5207e-06 -1.2707e-07 -6.81579e-05
0.000363684 2.12849e-05 -7.67911e-07
2.12849e-05 -6.5061e-05 4.71582e-06
-7.67911e-07 4.71582e-06 -9.05625e-05
0.000402481 4.83957e-06 -1.98072e-06
4.83957e-06 -1.23059e-05 -4.06324e-06
-1.98072e-06 -4.06324e-06 -9.67248e-05
0.000875849 1.67132e-05 -3.84676e-06
1.67132e-05 0.00025373 -1.5253e-06
-3.84676e-06 -1.5253e-06 0.000231024
0.0026546 -1.82641e-06 2.25596e-05
-1.82641e-06 0.00136692 5.69766e-06
2.25596e-05 5.69766e-06 0.00137933
0.00141103 3.21163e-05 -1.22105e-05
3.21163e-05 0.000586722 -7.2032e-06
-1.22105e-05 -7.2032e-06 0.000566097
0.000766998 -8.99596e-06 8.3893e-06
-8.99596e-06 0.000166848 3.53482e-06
8.3893e-06 3.53482e-06 0.000170784
0.000811333 -2.07009e-05 8.58664e-07
-2.07009e-05 0.000186667 -2.87538e-06
8.58664e-07 -2.87538e-06 0.000189775
0.000466876 1.34532e-05 -2.02673e-06
1.34532e-05 4.90569e-06 -2.32835e-06
-2.02673e-06 -2.32835e-06 -4.91418e-05
0.000546616 -3.02301e-05 7.22638e-07
-3.02301e-05 5.13691e-05 -3.47176e-07
7.22638e-07 -3.47176e-07 -4.38652e-06
0.000475713 2.33945e-05 3.06594e-07
2.33945e-05 -1.92889e-05 -3.48667e-06
3.06594e-07 -3.48667e-06 -3.54224e-05
0.000794337 4.11242e-05 1.62907e-09
4.11242e-05 0.000191433 1.79535e-07
1.62907e-09 1.79535e-07 0.000171887
0.00227279 7.68492e-05 7.41402e-06
7.68492e-05 0.00113761 -4.73019e-06
7.41402e-06 -4.73019e-06 0.00114503
0.000466149 6.00755e-05 5.28657e-06
6.00755e-05 2.84388e-06 5.92413e-06
5.28657e-06 5.92413e-06 -3.15878e-05
0.00252038 0.000105912 -2.7743e-06
0.000105912 0.00130532 -2.77929e-07
-2.7743e-06 -2.77929e-07 0.00130562
0.00292366 0.00014417 1.22125e-05
0.00014417 0.00157443 8.43735e-06
1.22125e-05 8.43735e-06 0.00156478
0.00225652 0.000335515 -6.88879e-07
0.000335515 -8.19722e-05 5.56926e-07
-6.88879e-07 5.56926e-07 -3.40239e-05
0.00220701 0.000107149 3.9654e-06
0.000107149 -6.46192e-05 2.33466e-07
3.9654e-06 2.33466e-07 8.05188e-06
0.00209243 -7.2386e-06 5.70784e-07
-7.2386e-06 -3.14024e-05 -3.62715e-07
5.70784e-07 -3.62715e-07 3.04425e-06
0.00218521 -6.8526e-06 5.47905e-08
-6.8526e-06 -9.15803e-05 -3.05121e-07
5.47905e-08 -3.05121e-07 -5.38543e-06
0.00240741 0.000173866 -5.60145e-08
0.000173866 -7.39922e-05 4.07353e-07
-5.60145e-08 4.07353e-07 1.38707e-05
0.00241628 0.000103502 8.11651e-06
0.000103502 -2.88923e-05 -6.67365e-06
8.11651e-06 -6.67365e-06 5.97506e-05
0.00249377 3.53264e-06 -1.96504e-06
3.53264e-06 -0.000107705 -1.31839e-06
-1.96504e-06 -1.31839e-06 2.76555e-05
0.00474512 0.00099198 7.30478e-05
0.00099198 -0.000632154 1.55642e-05
7.30478e-05 1.55642e-05 0.000202572
0.00298683 8.63184e-05 -2.27639e-05
8.63184e-05 0.000471193 3.0938e-05
-2.27639e-05 3.0938e-05 0.000710134
0.000478959 0.000113859 -2.77821e-06
0.000113859 5.19582e-05 -1.08458e-06
-2.77821e-06 -1.08458e-06 -4.90542e-05
0.00222233 -0.000140962 1.512e-06
-0.000140962 -7.48126e-05 -1.30503e-06
1.512e-06 -1.30503e-06 7.21839e-06
0.00231126 -0.000365729 2.15288e-06
-0.000365729 -7.79447e-05 -5.04015e-07
2.15288e-06 -5.04015e-07 -7.67667e-09
0.00224922 -0.000533029 1.10269e-07
-0.000533029 -2.54144e-05 8.23602e-07
1.10269e-07 8.23602e-07 -6.65723e-06
0.00138194 -0.000699764 4.17572e-06
-0.000699764 0.000340557 1.03025e-05
4.17572e-06 1.03025e-05 -0.000135162
0.0022758 -0.000961714 3.48742e-05
-0.000961714 0.000657262 9.17734e-06
3.48742e-05 9.17734e-06 0.000106325
0.00122112 -0.000790121 -5.30201e-07
-0.000790121 -0.000190655 -9.17021e-07
-5.30201e-07 -9.17021e-07 -0.000554753
0.0023431 -0.000755197 -3.25024e-06
-0.000755197 0.000123828 2.17668e-06
-3.25024e-06 2.17668e-06 -1.91299e-05
0.00159073 -0.000565574 4.90725e-05
-0.000565574 0.000484062 -3.93515e-05
4.90725e-05 -3.93515e-05 0.000103349
0.00148394 -0.000469205 2.57734e-05
-0.000469205 0.000675375 -4.12591e-05
2.57734e-05 -4.12591e-05 0.000127549
0.000446361 -6.73831e-05 6.19948e-07
-6.73831e-05 -6.42186e-05 8.61605e-06
6.19948e-07 8.61605e-06 -0.00039266
0.000474285 1.07017e-05 2.62953e-06
1.07017e-05 9.83107e-06 9.34218e-07
2.62953e-06 9.34218e-07 -4.96294e-05
0.0015569 -0.000136314 1.06877e-06
-0.000136314 0.000756656 1.00656e-05
1.06877e-06 1.00656e-05 0.000435663
0.000880704 -2.34143e-05 8.0253e-06
-2.34143e-05 0.000353069 -1.56141e-06
8.0253e-06 -1.56141e-06 0.000217234
0.000642297 -6.34711e-05 3.70889e-06
-6.34711e-05 0.000202706 -3.18226e-06
3.70889e-06 -3.18226e-06 -3.03726e-05
6.1982e-05 -4.53992e-05 -3.90612e-06
-4.53992e-05 -0.000232943 -7.46186e-07
-3.90612e-06 -7.46186e-07 -0.000325909
0.00230479 -0.000183189 -1.77782e-07
-0.000183189 -0.00020909 2.55391e-07
-1.77782e-07 2.55391e-07 -6.9433e-05
0.000334771 3.07575e-05 5.55443e-07
3.07575e-05 -3.51941e-05 -2.70027e-06
5.55443e-07 -2.70027e-06 -0.000145122
0.000595942 -6.51221e-05 2.96252e-06
-6.51221e-05 0.000140576 1.09657e-06
2.96252e-06 1.09657e-06 3.51107e-05
0.00102662 -0.000148814 5.44677e-06
-0.000148814 0.000354463 -1.08332e-07
5.44677e-06 -1.08332e-07 0.000242503
0.00236355 -0.000501757 2.16059e-06
-0.000501757 -0.000209192 -9.5488e-07
2.16059e-06 -9.5488e-07 -2.36325e-05
0.00248146 -0.00075243 4.51394e-07
-0.00075243 4.42095e-05 -4.23888e-07
4.51394e-07 -4.23888e-07 1.11574e-05
0.000557081 -0.000561946 7.1876e-06
-0.000561946 -0.000107985 -1.09987e-07
7.1876e-06 -1.09987e-07 -0.000539172
0.00277359 -0.00113675 2.10071e-05
-0.00113675 0.000801158 5.10256e-07
2.10071e-05 5.10256e-07 0.000230562
0.00251752 -0.000984571 -6.42998e-07
-0.000984571 0.000327246 2.20742e-06
-6.42998e-07 2.20742e-06 6.10183e-05
0.000276771 -2.61928e-05 -2.7945e-07
-2.61928e-05 -5.7574e-05 2.92544e-07
-2.7945e-07 2.92544e-07 -0.00022586
0.00117945 -0.000145744 2.91056e-08
-0.000145744 0.000556612 3.40056e-06
2.91056e-08 3.40056e-06 0.000268423
0.00194509 -0.000825206 1.83295e-07
-0.000825206 0.000702964 1.83531e-06
1.83295e-07 1.83531e-06 0.000220146
0.000187097 -0.000274954 -1.71999e-06
-0.000274954 5.93323e-05 4.31486e-06
-1.71999e-06 4.31486e-06 -0.000614672
0.00128839 -0.000142982 1.51915e-06
-0.000142982 0.000498381 6.27467e-06
1.51915e-06 6.27467e-06 0.000224836
0.00274784 -0.000349684 -8.394e-06
-0.000349684 4.72564e-05 4.37506e-06
-8.394e-06 4.37506e-06 0.000201762
0.0021183 -0.000560027 -1.51322e-05
-0.000560027 -0.000332792 7.66373e-06
-1.51322e-05 7.66373e-06 -6.8898e-05
0.00227055 -0.000885477 -7.94694e-06
-0.000885477 5.95608e-05 -4.19144e-06
-7.94694e-06 -4.19144e-06 -0.000129958
0.00486167 -0.00135743 -2.65848e-06
-0.00135743 0.00177299 -2.51786e-06
-2.65848e-06 -2.51786e-06 0.00137484
-0.000198646 -0.000667691 -1.75344e-05
-0.000667691 -0.000583213 -4.52017e-06
-1.75344e-05 -4.52017e-06 -0.0010457
-8.02743e-06 -2.93893e-05 1.1003e-06
-2.93893e-05 -0.000247574 2.69614e-06
1.1003e-06 2.69614e-06 -0.000359681
0.000941385 -4.66667e-06 -5.20503e-06
-4.66667e-06 0.000264012 1.60178e-05
-5.20503e-06 1.60178e-05 0.000151686
-0.00144522 -0.000146355 -7.20329e-06
-0.000146355 -0.00118678 2.73443e-06
-7.20329e-06 2.73443e-06 -0.00127361
0.0021368 -0.00031686 -3.13722e-05
-0.00031686 0.00112541 2.95169e-05
-3.13722e-05 2.95169e-05 0.000885195
0.000985599 -0.000131209 -4.65918e-06
-0.000131209 0.000419108 2.76569e-05
-4.65918e-06 2.76569e-05 0.000154121
-0.00144215 -0.000141188 6.09958e-06
-0.000141188 -0.000470645 -2.17839e-06
6.09958e-06 -2.17839e-06 -0.00126749
0.000643163 -0.000882675 -2.47242e-05
-0.000882675 0.000255534 1.24142e-05
-2.47242e-05 1.24142e-05 -0.000439462
0.00173935 0.000343938 -5.59861e-06
0.000343938 0.000909489 -6.30325e-06
-5.59861e-06 -6.30325e-06 0.000654915
-0.000376126 0.000144843 -5.43683e-06
0.000144843 -0.000442422 -1.94974e-06
-5.43683e-06 -1.94974e-06 -0.000700994
0.00261958 0.000359788 1.94306e-06
0.000359788 -1.62531e-05 1.61604e-06
1.94306e-06 1.61604e-06 9.78019e-05
0.00263975 0.00064528 1.1846e-05
0.00064528 0.000214272 6.21303e-06
1.1846e-05 6.21303e-06 0.000162169
0.00222116 0.000824325 5.47102e-06
0.000824325 0.000263577 3.42205e-06
5.47102e-06 3.42205e-06 -9.60744e-05
0.00166765 0.000570841 -2.45357e-06
0.000570841 0.000525466 3.04906e-06
-2.45357e-06 3.04906e-06 0.000136437
0.00172704 0.000793664 2.17955e-06
0.000793664 0.000330632 3.92305e-06
2.17955e-06 3.92305e-06 -0.000148977
0.00224052 0.000392591 9.80196e-07
0.000392591 0.00124759 -9.67862e-07
9.80196e-07 -9.67862e-07 0.000989774
0.00287169 0.000467913 6.99078e-06
0.000467913 0.000161871 3.65758e-06
6.99078e-06 3.65758e-06 0.000381859
0.00104171 0.000440683 -4.72117e-06
0.000440683 0.000352961 5.37225e-06
-4.72117e-06 5.37225e-06 2.47392e-05
0.00168488 0.000681455 3.25065e-06
0.000681455 0.000474891 -8.7346e-07
3.25065e-06 -8.7346e-07 8.12473e-06
0.00247569 0.000857549 -2.91558e-06
0.000857549 0.000257268 -3.86456e-06
-2.91558e-06 -3.86456e-06 4.12801e-05
0.00188604 0.000848914 -4.40577e-06
0.000848914 0.000369092 5.64288e-06
-4.40577e-06 5.64288e-06 -0.000104458
0.00309829 0.00128919 3.57558e-05
0.00128919 -0.000851769 7.54954e-06
3.57558e-05 7.54954e-06 -0.000532481
6.3703e-05 0.000282081 9.90714e-07
0.000282081 2.2017e-05 2.61045e-07
9.90714e-07 2.61045e-07 -0.000260763
0.00282303 0.00085761 -8.51332e-05
0.00085761 0.000257396 -4.11181e-05
-8.51332e-05 -4.11181e-05 0.000228248
0.000528046 0.000435694 -9.56684e-06
0.000435694 -0.000156543 4.03319e-06
-9.56684e-06 4.03319e-06 -0.000502627
-2.04283e-05 0.000524174 -2.99085e-06
0.000524174 -0.000532895 -1.83487e-05
-2.99085e-06 -1.83487e-05 -0.000964175
0.00168765 0.00095174 -4.29862e-05
0.00095174 2.59382e-05 -1.62854e-05
-4.29862e-05 -1.62854e-05 -0.000287524
0.015243 0.000494099 -0.000582921
0.000494099 0.00202991 -9.45925e-05
-0.000582921 -9.45925e-05 0.00180732
0.00328199 0.00197541 -7.38371e-05
0.00197541 -0.00255569 -6.9741e-05
-7.38371e-05 -6.9741e-05 -0.000829054
0.00071806 0.00150033 1.95635e-05
0.00150033 -0.000809968 -2.39431e-07
1.95635e-05 -2.39431e-07 -0.00104865
0.00405837 -0.00266181 0.00182393
-0.00266181 0.00250842 0.000332257
0.00182393 0.000332257 -0.00149424
0.0246294 -0.0100183 -5.00216e-05
-0.0100183 0.0104882 8.3095e-05
-5.00216e-05 8.3095e-05 0.00643064
0.000261291 0.000128028 7.33282e-06
0.000128028 3.33619e-05 1.99668e-06
7.33282e-06 1.99668e-06 -6.37325e-05
0.000850334 0.000126118 -2.17512e-06
0.000126118 0.000376684 -2.9252e-06
-2.17512e-06 -2.9252e-06 0.000291788
0.00167515 0.000274068 2.8798e-06
0.000274068 0.000910092 -1.17486e-06
2.8798e-06 -1.17486e-06 0.000774619
0.000498498 -5.84719e-05 2.8304e-07
-5.84719e-05 8.63067e-05 -3.08399e-06
2.8304e-07 -3.08399e-06 -5.46822e-05
0.00040631 6.98904e-05 -5.65337e-07
6.98904e-05 1.78676e-05 -3.90623e-06
-5.65337e-07 -3.90623e-06 -0.000136535
0.000725644 -1.71184e-05 -4.06731e-07
-1.71184e-05 0.000236395 -2.00604e-06
-4.06731e-07 -2.00604e-06 7.09981e-05
0.000961683 9.34521e-05 -2.38531e-06
9.34521e-05 0.00033845 1.06737e-05
-2.38531e-06 1.06737e-05 0.000229565
0.000116969 9.45731e-05 3.75096e-06
9.45731e-05 -0.000209093 8.35104e-06
3.75096e-06 8.35104e-06 -0.000247483
0.000813992 0.000163099 -1.31692e-06
0.000163099 0.000322015 -1.58198e-07
-1.31692e-06 -1.58198e-07 0.000123169
0.000398327 -1.62945e-05 3.20258e-07
-1.62945e-05 1.63304e-07 1.1207e-06
3.20258e-07 1.1207e-06 -0.000135329
0.000711241 6.10591e-05 -8.22351e-07
6.10591e-05 0.000217681 3.91772e-08
-8.22351e-07 3.91772e-08 4.24976e-05
0.000250453 9.97475e-05 -1.26491e-06
9.97475e-05 -8.40225e-05 -2.74071e-06
-1.26491e-06 -2.74071e-06 -0.000137666
0.000690449 0.000128878 -1.57018e-06
0.000128878 0.000176847 -2.98083e-07
-1.57018e-06 -2.98083e-07 3.11021e-05
0.0022011 0.000266045 -1.55108e-06
0.000266045 0.00116942 -2.06104e-07
-1.55108e-06 -2.06104e-07 0.000962333
0.000196865 0.000106635 -6.20754e-07
0.000106635 -2.87763e-05 -4.2966e-06
-6.20754e-07 -4.2966e-06 -0.00020099
0.000880679 0.000106012 2.8515e-06
0.000106012 0.000346093 3.20174e-07
2.8515e-06 3.20174e-07 0.000162076
0.000216907 -1.41528e-06 2.94791e-08
-1.41528e-06 -0.000116494 1.39747e-07
2.94791e-08 1.39747e-07 -0.000284461
0.000320301 -7.31627e-05 -8.58467e-07
-7.31627e-05 -4.79525e-05 5.29386e-07
-8.58467e-07 5.29386e-07 -0.000185508
0.000527234 -2.79238e-05 -7.96416e-07
-2.79238e-05 9.9042e-05 -1.39623e-06
-7.96416e-07 -1.39623e-06 -6.95062e-05
0.00140625 -3.25844e-05 8.40639e-07
-3.25844e-05 0.000648696 -1.15511e-05
8.40639e-07 -1.15511e-05 0.00048448
0.000763855 -5.52008e-05 -1.70046e-06
-5.52008e-05 0.000293227 -9.50739e-07
-1.70046e-06 -9.50739e-07 0.000122103
0.000725892 -8.58507e-05 1.92161e-06
-8.58507e-05 0.00024575 -9.23626e-07
1.92161e-06 -9.23626e-07 6.94435e-05
0.00064135 -0.000129612 -1.99122e-06
-0.000129612 0.000162186 4.3668e-06
-1.99122e-06 4.3668e-06 1.99627e-05
0.000234086 -2.62524e-05 2.49544e-07
-2.62524e-05 -0.000102918 9.56105e-07
2.49544e-07 9.56105e-07 -0.000242045
0.000495781 -6.25512e-05 -1.90393e-06
-6.25512e-05 3.86558e-05 3.94861e-06
-1.90393e-06 3.94861e-06 -4.46522e-05
0.000495014 -4.20048e-05 2.00571e-06
-4.20048e-05 4.51864e-05 1.15215e-07
2.00571e-06 1.15215e-07 -4.2446e-05
0.000417429 2.01557e-06 3.16346e-06
2.01557e-06 -2.75359e-05 6.55509e-06
3.16346e-06 6.55509e-06 -5.46469e-05
0.000490279 5.68318e-05 -1.43913e-06
5.68318e-05 3.59832e-05 -3.46679e-06
-1.43913e-06 -3.46679e-06 -4.66527e-05
0.00038454 3.21389e-05 3.94117e-07
3.21389e-05 -5.00889e-05 8.94275e-08
3.94117e-07 8.94275e-08 -7.64708e-05
0.00257406 7.27516e-06 8.54614e-06
7.27516e-06 0.00131783 5.47629e-06
8.54614e-06 5.47629e-06 0.00132978
0.000439226 4.75947e-05 -3.97646e-06
4.75947e-05 -1.8258e-05 -7.71316e-06
-3.97646e-06 -7.71316e-06 -4.63502e-05
0.00171244 -3.62362e-06 -5.39366e-06
-3.62362e-06 0.000769521 1.86364e-07
-5.39366e-06 1.86364e-07 0.000776855
0.000812872 -1.02207e-05 5.8835e-07
-1.02207e-05 0.000191162 -2.44135e-06
5.8835e-07 -2.44135e-06 0.000195039
0.00041708 1.10309e-05 -1.85191e-07
1.10309e-05 -3.28484e-05 -1.71328e-06
-1.85191e-07 -1.71328e-06 -7.70471e-05
0.000514323 -4.05802e-05 1.52831e-07
-4.05802e-05 3.84652e-05 6.60395e-08
1.52831e-07 6.60395e-08 -1.77822e-05
0.000507242 1.14919e-05 1.38293e-06
1.14919e-05 -2.80891e-06 -3.26121e-06
1.38293e-06 -3.26121e-06 -1.53198e-05
0.000480059 -4.3264e-05 -1.45262e-06
-4.3264e-05 9.97737e-06 1.02577e-07
-1.45262e-06 1.02577e-07 -4.63697e-05
0.000789257 2.84107e-05 -1.44193e-07
2.84107e-05 0.000180312 -7.4062e-07
-1.44193e-07 -7.4062e-07 0.000166415
0.00204953 5.59979e-05 4.64147e-06
5.59979e-05 0.000988619 -4.7163e-06
4.64147e-06 -4.7163e-06 0.00100082
0.000457212 3.76767e-05 1.40825e-06
3.76767e-05 -2.22541e-05 4.03767e-06
1.40825e-06 4.03767e-06 -4.48089e-05
0.00242378 8.403e-05 -5.04265e-06
8.403e-05 0.00123709 1.25184e-06
-5.04265e-06 1.25184e-06 0.00124264
0.00267413 0.000116088 5.21734e-06
0.000116088 0.00140591 6.54068e-06
5.21734e-06 6.54068e-06 0.00140396
0.00235314 0.000182907 -4.07528e-07
0.000182907 -9.14625e-05 -7.51658e-07
-4.07528e-07 -7.51658e-07 -4.10671e-06
0.00217535 -5.15908e-06 3.12169e-06
-5.15908e-06 -9.59571e-05 -7.94105e-07
3.12169e-06 -7.94105e-07 -1.04262e-05
0.00216706 7.36866e-05 -7.50735e-06
7.36866e-05 -0.000209401 4.58294e-06
-7.50735e-06 4.58294e-06 -0.000121741
0.00258298 0.000748555 0.000104145
0.000748555 -0.00176231 2.37128e-05
0.000104145 2.37128e-05 -0.000814101
0.00246796 -2.83929e-05 2.78572e-07
-2.83929e-05 -9.91015e-05 -3.01053e-06
2.78572e-07 -3.01053e-06 3.42626e-05
0.00230705 7.47369e-05 -1.73991e-06
7.47369e-05 5.72134e-05 -1.00511e-05
-1.73991e-06 -1.00511e-05 0.000231263
0.00292287 -4.90623e-05 -2.59402e-05
-4.90623e-05 0.000533735 -3.89328e-06
-2.59402e-05 -3.89328e-06 0.000591674
0.00336315 0.000269728 -3.21558e-05
0.000269728 -0.00212607 -4.53008e-05
-3.21558e-05 -4.53008e-05 -0.000790852
0.00238502 0.000254665 0.000142189
0.000254665 -0.00111482 5.34721e-05
0.000142189 5.34721e-05 -0.00051566
0.000583877 9.13439e-05 3.47434e-07
9.13439e-05 0.000121363 -9.73003e-07
3.47434e-07 -9.73003e-07 2.08589e-05
0.000576662 -4.35527e-06 1.65993e-07
-4.35527e-06 0.000128143 -1.38035e-07
1.65993e-07 -1.38035e-07 1.81336e-05
0.000326002 -9.48369e-05 -6.15371e-06
-9.48369e-05 -2.21379e-05 2.51295e-06
-6.15371e-06 2.51295e-06 -0.000142433
0.000364277 -4.57373e-05 -3.59297e-06
-4.57373e-05 9.72176e-06 2.10981e-06
-3.59297e-06 2.10981e-06 -0.000113388
0.00237841 -0.000203308 -3.40545e-06
-0.000203308 -0.000187302 -2.18451e-06
-3.40545e-06 -2.18451e-06 -2.92766e-05
0.00234821 -0.000510164 -6.25082e-08
-0.000510164 -0.000191774 -1.96546e-06
-6.25082e-08 -1.96546e-06 -4.59036e-05
0.00238243 -0.000742362 -2.36105e-06
-0.000742362 -6.13006e-06 1.97451e-06
-2.36105e-06 1.97451e-06 -4.02865e-05
0.00398353 -0.000952412 2.44387e-05
-0.000952412 0.00185904 1.42662e-05
2.44387e-05 1.42662e-05 0.00135193
0.000307766 -0.00086494 -2.6066e-06
-0.00086494 -0.000591368 4.4795e-06
-2.6066e-06 4.4795e-06 -0.00110472
0.00241435 -0.000982606 -1.36087e-06
-0.000982606 0.000282149 -1.22578e-06
-1.36087e-06 -1.22578e-06 6.39415e-06
0.000700356 -0.000744518 2.67131e-05
-0.000744518 -3.91649e-05 -2.68844e-05
2.67131e-05 -2.68844e-05 -0.000555317
0.00353481 -0.000375139 1.37287e-05
-0.000375139 0.00170816 -5.7898e-06
1.37287e-05 -5.7898e-06 0.00128962
-0.000394704 -3.11038e-05 -7.29525e-06
-3.11038e-05 -0.000602466 7.47494e-06
-7.29525e-06 7.47494e-06 -0.00083444
0.000681985 -7.04448e-05 3.95763e-06
-7.04448e-05 0.000196074 -9.39646e-07
3.95763e-06 -9.39646e-07 8.99207e-05
0.000508693 -0.000131189 -6.25132e-06
-0.000131189 0.00015955 -1.35448e-05
-6.25132e-06 -1.35448e-05 -0.000133949
0.000459147 -2.39525e-05 5.9138e-06
-2.39525e-05 5.83563e-05 -2.27277e-06
5.9138e-06 -2.27277e-06 -0.000106278
0.000550934 -5.32887e-07 4.46494e-07
-5.32887e-07 0.000126715 1.51284e-06
4.46494e-07 1.51284e-06 4.63481e-06
0.000733837 -8.39805e-05 -9.2605e-06
-8.39805e-05 0.000169598 -6.02556e-07
-9.2605e-06 -6.02556e-07 7.17436e-05
0.00267878 -0.000330503 2.17597e-06
-0.000330503 1.717e-05 1.58999e-06
2.17597e-06 1.58999e-06 0.000188449
0.000459631 -3.14469e-05 -8.36345e-07
-3.14469e-05 6.763e-05 2.58518e-06
-8.36345e-07 2.58518e-06 -6.70796e-05
0.00081356 -5.65787e-05 7.83892e-06
-5.65787e-05 0.000200995 -8.28854e-07
7.83892e-06 -8.28854e-07 8.01925e-05
-0.00105779 -4.77289e-05 6.54813e-06
-4.77289e-05 -0.00087206 -1.20415e-06
6.54813e-06 -1.20415e-06 -0.00093601
0.00212926 -0.000575893 7.50559e-07
-0.000575893 -0.000344864 -1.21992e-06
7.50559e-07 -1.21992e-06 -0.00010358
0.00234671 -0.000895665 2.28471e-06
-0.000895665 9.58762e-05 -1.46321e-06
2.28471e-06 -1.46321e-06 -9.03288e-05
0.00204438 -0.000964706 -6.63674e-06
-0.000964706 0.000663588 9.73234e-07
-6.63674e-06 9.73234e-07 0.000146108
0.00273495 -0.00113331 -5.99383e-06
-0.00113331 0.00061258 1.56899e-06
-5.99383e-06 1.56899e-06 0.000248182
0.00151412 -0.000175601 6.01937e-06
-0.000175601 0.000732382 -3.55383e-06
6.01937e-06 -3.55383e-06 0.000493996
-0.00023307 -4.18662e-05 6.87034e-06
-4.18662e-05 -0.00036143 8.68103e-06
6.87034e-06 8.68103e-06 -0.000627472
0.00179605 -0.00115392 -2.22184e-07
-0.00115392 0.00099236 -2.40693e-06
-2.22184e-07 -2.40693e-06 0.000196441
0.00144018 -0.000457961 -1.01329e-05
-0.000457961 0.000697975 -1.85633e-07
-1.01329e-05 -1.85633e-07 0.00016971
0.00358853 -0.000488127 -4.91445e-05
-0.000488127 0.000488807 1.14753e-05
-4.91445e-05 1.14753e-05 0.000771116
0.00276413 -0.000748856 -4.09526e-05
-0.000748856 0.000245138 1.27416e-05
-4.09526e-05 1.27416e-05 0.000311157
0.00269511 -0.00103984 3.23428e-06
-0.00103984 0.00049964 -1.55119e-05
3.23428e-06 -1.55119e-05 0.000142948
0.00318903 -0.00116029 1.35216e-05
-0.00116029 0.0010964 1.47917e-05
1.35216e-05 1.47917e-05 0.000709525
1.40804e-05 -8.54865e-05 -2.97012e-06
-8.54865e-05 -0.000113713 -7.1481e-06
-2.97012e-06 -7.1481e-06 -0.000255767
0.00035446 -0.000148948 -1.46361e-05
-0.000148948 1.29425e-05 7.9784e-08
-1.46361e-05 7.9784e-08 -0.000204666
2.11119e-05 -0.000196312 -5.85168e-06
-0.000196312 0.000102198 5.60465e-05
-5.85168e-06 5.60465e-05 -0.000247391
8.53274e-05 -0.00101194 -3.71774e-06
-0.00101194 0.000718592 -2.99233e-05
-3.71774e-06 -2.99233e-05 -0.00045499
0.00332295 -0.000451341 6.55716e-05
-0.000451341 -0.00568042 -2.55381e-05
6.55716e-05 -2.55381e-05 -0.00573586
0.00249108 0.000340972 3.79644e-06
0.000340972 0.001378 -3.23858e-06
3.79644e-06 -3.23858e-06 0.00112262
0.00142501 0.000414396 -1.64642e-06
0.000414396 0.000574503 -2.7277e-07
-1.64642e-06 -2.7277e-07 0.000268704
0.00189066 0.000375509 5.38015e-05
0.000375509 -0.000391358 1.62111e-05
5.38015e-05 1.62111e-05 -0.000137865
0.00250595 0.000843835 2.51037e-05
0.000843835 0.000293711 1.19776e-05
2.51037e-05 1.19776e-05 9.61345e-05
0.00237956 0.000910803 1.05476e-05
0.000910803 0.000656261 1.2683e-05
1.05476e-05 1.2683e-05 0.000165614
0.00141092 0.000653788 9.65678e-06
0.000653788 0.000344989 9.45487e-06
9.65678e-06 9.45487e-06 -0.000128317
0.00548919 0.00165761 0.000111126
0.00165761 4.58552e-05 3.39271e-05
0.000111126 3.39271e-05 0.000163121
0.001195 0.000337969 5.0927e-06
0.000337969 0.000671539 -1.761e-08
5.0927e-06 -1.761e-08 0.00039834
0.00264327 0.000813713 -2.64277e-05
0.000813713 0.000143912 9.15519e-07
-2.64277e-05 9.15519e-07 0.00015685
0.000933568 0.000486828 -6.23073e-06
0.000486828 0.000137744 4.52724e-06
-6.23073e-06 4.52724e-06 -0.000230656
0.00154248 0.00074156 4.91561e-07
0.00074156 0.000363283 -7.25192e-06
4.91561e-07 -7.25192e-06 -0.000113687
0.00242568 0.00100802 -1.15293e-05
0.00100802 0.000433022 -3.09649e-07
-1.15293e-05 -3.09649e-07 9.54733e-05
0.00510946 -0.000624083 -0.000178837
-0.000624083 -0.00523411 -0.000104252
-0.000178837 -0.000104252 -0.00591193
0.00686031 0.00208486 -0.000159348
0.00208486 -0.000729374 -6.59385e-05
-0.000159348 -6.59385e-05 0.000722699
0.00148247 0.00150557 -6.05359e-07
0.00150557 -0.000378617 3.53895e-06
-6.05359e-07 3.53895e-06 -0.000738812
0.00231268 -0.00244612 0.000633044
-0.00244612 0.00335173 0.000233129
0.000633044 0.000233129 7.32982e-05
0.0170816 -0.010364 -0.000536724
-0.010364 0.00886556 -0.000481658
-0.000536724 -0.000481658 0.004597
0.000483846 0.00026042 -1.3504e-05
0.00026042 8.30692e-05 -2.7087e-06
-1.3504e-05 -2.7087e-06 -0.000151134
0.00186837 0.000517561 0.00091536
0.000517561 0.00458391 7.89361e-05
0.00091536 7.89361e-05 0.00248123
0.0049333 -0.00397348 -0.000167574
-0.00397348 0.0067322 -0.000223226
-0.000167574 -0.000223226 0.000598303
0.00346747 0.00133489 -6.7034e-05
0.00133489 0.000730997 -2.00316e-05
-6.7034e-05 -2.00316e-05 0.000494179
0.000558708 0.000385795 -3.00905e-05
0.000385795 -0.000103113 -7.04348e-06
-3.00905e-05 -7.04348e-06 -0.000424141
0.00110783 0.000759425 -3.96685e-05
0.000759425 0.000168113 -3.22182e-05
-3.96685e-05 -3.22182e-05 -0.000236405
-0.000437537 0.0013323 7.28959e-05
0.0013323 -0.00106461 0.000103526
7.28959e-05 0.000103526 -0.00143741
0.012904 0.00285265 8.47229e-05
0.00285265 0.00109672 -1.02509e-05
8.47229e-05 -1.02509e-05 0.000638621
0.00543125 0.00309463 -6.11237e-05
0.00309463 -0.000411606 -5.98015e-05
-6.11237e-05 -5.98015e-05 0.000656826
0.018399 -0.00713902 0.00113554
-0.00713902 0.00636992 0.00052112
0.00113554 0.00052112 0.00152306
0.0145508 -0.00319422 -0.00014431
-0.00319422 0.00487744 0.000672686
-0.00014431 0.000672686 0.00256592
0.000546149 9.62726e-05 2.1633e-06
9.62726e-05 0.000228049 -4.04565e-06
2.1633e-06 -4.04565e-06 0.000126256
0.000255436 0.000149657 7.61185e-06
0.000149657 4.71339e-05 1.48239e-06
7.61185e-06 1.48239e-06 -7.57719e-05
0.00182175 0.00031489 3.11158e-06
0.00031489 0.0010243 -3.43014e-06
3.11158e-06 -3.43014e-06 0.000820826
0.000587572 2.24926e-06 1.82871e-06
2.24926e-06 0.000147088 2.14326e-07
1.82871e-06 2.14326e-07 -6.20216e-06
0.000606728 7.27636e-05 9.89801e-08
7.27636e-05 0.000142671 -2.42066e-06
9.89801e-08 -2.42066e-06 -2.50862e-05
-0.000110641 3.78247e-05 -1.34711e-06
3.78247e-05 -0.000284186 5.70898e-07
-1.34711e-06 5.70898e-07 -0.00045506
0.000849576 0.00013406 -7.17732e-06
0.00013406 0.000300754 2.03497e-06
-7.17732e-06 2.03497e-06 0.000149095
-0.00031285 7.37747e-05 -2.67453e-06
7.37747e-05 -0.000455436 1.0576e-06
-2.67453e-06 1.0576e-06 -0.000505586
0.000333579 -1.26171e-05 -1.82949e-07
-1.26171e-05 -3.44425e-05 7.24194e-07
-1.82949e-07 7.24194e-07 -0.000176378
0.00139629 0.000166349 2.43099e-06
0.000166349 0.00064061 6.73984e-07
2.43099e-06 6.73984e-07 0.000452957
0.00050742 6.23246e-05 -3.20018e-07
6.23246e-05 0.000123488 -2.99709e-07
-3.20018e-07 -2.99709e-07 -6.88923e-05
0.000800397 4.22222e-05 1.4817e-06
4.22222e-05 0.000287637 -3.02305e-07
1.4817e-06 -3.02305e-07 9.56789e-05
0.000160539 0.000100349 -7.43492e-07
0.000100349 -4.84683e-05 -3.34265e-06
-7.43492e-07 -3.34265e-06 -0.000220225
0.0015358 0.000152798 -2.49946e-06
0.000152798 0.000758306 -2.85598e-06
-2.49946e-06 -2.85598e-06 0.000580435
-0.000363478 6.98302e-05 -7.33027e-06
6.98302e-05 -0.000202987 -4.72665e-06
-7.33027e-06 -4.72665e-06 -0.000471195
0.000297364 -6.61916e-05 -8.95773e-08
-6.61916e-05 -2.42098e-05 1.54228e-06
-8.95773e-08 1.54228e-06 -0.00021119
0.000746599 -8.63479e-05 -2.48018e-06
-8.63479e-05 0.000260758 -1.18387e-06
-2.48018e-06 -1.18387e-06 7.21425e-05
0.000828942 -6.01853e-05 -3.87322e-07
-6.01853e-05 0.000312397 -8.43381e-07
-3.87322e-07 -8.43381e-07 0.000126013
0.000656236 -4.34065e-05 -4.0844e-06
-4.34065e-05 0.000161594 8.18136e-07
-4.0844e-06 8.18136e-07 1.74364e-05
0.00107707 1.3414e-05 -7.92812e-06
1.3414e-05 0.00051008 -5.60945e-06
-7.92812e-06 -5.60945e-06 0.000299088
0.000853282 -9.48825e-05 2.48952e-06
-9.48825e-05 0.000282387 -1.24174e-05
2.48952e-06 -1.24174e-05 0.000149312
-0.00136316 2.24356e-06 -5.44397e-06
2.24356e-06 -0.00106603 -8.68096e-06
-5.44397e-06 -8.68096e-06 -0.00118964
8.59323e-05 -3.95179e-05 1.93268e-06
-3.95179e-05 -0.000108159 -2.31723e-06
1.93268e-06 -2.31723e-06 -0.000311227
0.000186542 -7.2841e-05 9.24067e-07
-7.2841e-05 -0.000109775 1.21485e-07
9.24067e-07 1.21485e-07 -0.000251726
0.00079832 -0.000124514 -1.04937e-06
-0.000124514 0.000297041 4.57835e-07
-1.04937e-06 4.57835e-07 0.000133946
0.000508247 -9.0539e-05 -1.28866e-06
-9.0539e-05 5.85199e-05 3.2235e-06
-1.28866e-06 3.2235e-06 -6.72157e-05
0.000439993 -9.88254e-05 3.67706e-06
-9.88254e-05 2.80662e-05 3.73422e-07
3.67706e-06 3.73422e-07 -0.000120989
0.000549885 -0.000121667 9.77194e-09
-0.000121667 0.000101551 1.32131e-07
9.77194e-09 1.32131e-07 -3.99789e-05
0.000524974 -6.19386e-05 -2.2713e-06
-6.19386e-05 5.4202e-05 5.24784e-06
-2.2713e-06 5.24784e-06 -3.07622e-05
0.000369213 -6.92312e-06 7.86405e-07
-6.92312e-06 6.06447e-07 -9.6826e-07
7.86405e-07 -9.6826e-07 -0.00015144
0.00047638 8.06105e-08 2.44291e-06
8.06105e-08 3.41503e-05 1.54995e-07
2.44291e-06 1.54995e-07 -5.42523e-05
0.00144689 -3.83356e-05 -1.12263e-05
-3.83356e-05 0.000615855 7.01096e-06
-1.12263e-05 7.01096e-06 0.000592917
0.000454178 7.15486e-05 -2.03506e-06
7.15486e-05 1.95612e-05 -3.18036e-06
-2.03506e-06 -3.18036e-06 -6.72955e-05
0.000854112 -2.04637e-05 -4.43937e-06
-2.04637e-05 0.000247967 7.32052e-07
-4.43937e-06 7.32052e-07 0.000222928
0.00079645 3.23144e-06 -3.16451e-06
3.23144e-06 0.000194161 4.77564e-06
-3.16451e-06 4.77564e-06 0.000198303
0.000363064 -2.56587e-05 4.30088e-06
-2.56587e-05 -6.42002e-05 -5.14353e-06
4.30088e-06 -5.14353e-06 -8.9844e-05
0.00259375 4.48213e-06 8.15185e-06
4.48213e-06 0.00133071 -2.17795e-09
8.15185e-06 -2.17795e-09 0.00134258
0.000868092 4.28579e-06 -1.08939e-05
4.28579e-06 0.000237478 -5.50898e-06
-1.08939e-05 -5.50898e-06 0.000240524
0.000502942 7.07097e-05 2.66469e-06
7.07097e-05 7.12616e-05 7.15712e-07
2.66469e-06 7.15712e-07 -3.47591e-05
0.00044407 5.7012e-05 -2.30268e-06
5.7012e-05 -3.30884e-06 -2.42094e-06
-2.30268e-06 -2.42094e-06 -5.38961e-05
0.00046394 -8.97218e-07 1.55961e-06
-8.97218e-07 9.78214e-06 1.85008e-07
1.55961e-06 1.85008e-07 -4.25586e-05
0.000464768 9.84689e-06 1.30171e-06
9.84689e-06 -2.88322e-05 -3.1066e-06
1.30171e-06 -3.1066e-06 -3.98628e-05
0.000552086 -6.79162e-05 -2.08166e-06
-6.79162e-05 7.15611e-05 1.99595e-06
-2.08166e-06 1.99595e-06 1.00816e-05
0.000462137 1.28472e-05 1.4606e-07
1.28472e-05 -3.16565e-05 -7.27642e-07
1.4606e-07 -7.27642e-07 -4.40109e-05
0.00203203 3.91106e-05 3.05077e-06
3.91106e-05 0.000972732 -4.76074e-06
3.05077e-06 -4.76074e-06 0.000987517
0.00110727 3.73688e-05 -2.01245e-08
3.73688e-05 0.000383542 1.64029e-06
-2.01245e-08 1.64029e-06 0.000370715
0.00149054 4.84604e-05 -5.29915e-07
4.84604e-05 0.000634654 1.42207e-06
-5.29915e-07 1.42207e-06 0.000641793
0.000898077 5.27361e-05 -3.75972e-06
5.27361e-05 0.000265211 8.65893e-06
-3.75972e-06 8.65893e-06 0.000263737
0.000998259 0.000537396 7.62039e-05
0.000537396 -0.00250856 1.65766e-05
7.62039e-05 1.65766e-05 -0.00152815
0.00243769 -5.17105e-05 -2.11024e-06
-5.17105e-05 -8.30968e-05 6.32147e-06
-2.11024e-06 6.32147e-06 4.11375e-05
0.00224693 7.30448e-05 3.3314e-05
7.30448e-05 4.5294e-05 -1.28462e-05
3.3314e-05 -1.28462e-05 0.000185203
0.00299129 0.000488589 -6.5577e-05
0.000488589 -0.00216364 -3.98919e-05
-6.5577e-05 -3.98919e-05 -0.000463464
0.00290522 0.000120283 5.65531e-05
0.000120283 -0.000629015 -1.85479e-06
5.65531e-05 -1.85479e-06 -9.20548e-05
0.00279331 -5.21725e-05 1.24992e-06
-5.21725e-05 0.000385561 -1.02943e-05
1.24992e-06 -1.02943e-05 0.000479468
0.00506902 -0.000434473 -6.49184e-05
-0.000434473 0.00107149 -2.49627e-05
-6.49184e-05 -2.49627e-05 0.00135118
0.00361956 -0.000391478 2.9893e-05
-0.000391478 -0.000658921 -4.52928e-06
2.9893e-05 -4.52928e-06 0.000310499
0.0180686 -0.000969385 7.71637e-05
-0.000969385 0.00301474 -4.8443e-05
7.71637e-05 -4.8443e-05 0.00219146
0.0155735 0.00663318 0.00170122
0.00663318 0.00611361 -0.000470459
0.00170122 -0.000470459 0.00233186
0.0224579 0.00764682 8.30949e-05
0.00764682 0.0144332 2.22663e-05
8.30949e-05 2.22663e-05 0.0103431
0.000132619 -0.000101674 5.44069e-07
-0.000101674 -0.000142134 -4.89924e-07
5.44069e-07 -4.89924e-07 -0.000258168
0.000531567 -5.67456e-06 1.69621e-06
-5.67456e-06 8.67854e-05 -4.04063e-08
1.69621e-06 -4.04063e-08 -1.30193e-05
0.000613897 -9.09544e-05 -8.94843e-07
-9.09544e-05 0.00015803 3.30229e-06
-8.94843e-07 3.30229e-06 4.14241e-05
0.0005331 -3.58697e-05 1.23751e-06
-3.58697e-05 9.68929e-05 2.9014e-07
1.23751e-06 2.9014e-07 -2.15295e-05
0.000936694 0.0001217 -5.0522e-06
0.0001217 0.000411262 1.14345e-06
-5.0522e-06 1.14345e-06 0.000270874
0.000525933 0.000139712 6.21018e-07
0.000139712 7.67152e-05 7.43273e-06
6.21018e-07 7.43273e-06 -5.15115e-05
0.000953503 3.68823e-06 2.59907e-06
3.68823e-06 0.000383593 4.03944e-06
2.59907e-06 4.03944e-06 0.000237756
0.00051782 -2.57279e-05 -1.5191e-06
-2.57279e-05 8.77798e-05 1.31359e-06
-1.5191e-06 1.31359e-06 -3.26299e-05
0.00266512 -0.000316917 1.26237e-05
-0.000316917 2.88832e-06 -5.04891e-06
1.26237e-05 -5.04891e-06 0.000204505
0.00217957 -0.000602609 1.40417e-05
-0.000602609 -0.000346517 -6.6253e-06
1.40417e-05 -6.6253e-06 -0.000127502
0.00243676 -0.000905592 6.55734e-07
-0.000905592 0.000138839 6.16715e-06
6.55734e-07 6.16715e-06 -4.12409e-05
0.00256156 -0.000997718 1.61991e-05
-0.000997718 0.000908532 6.93718e-06
1.61991e-05 6.93718e-06 0.000413819
0.0022078 -0.00109481 -2.45356e-05
-0.00109481 0.000323636 3.61428e-06
-2.45356e-05 3.61428e-06 -4.93709e-05
0.00172602 -0.00120833 3.87091e-05
-0.00120833 0.00105222 -1.32706e-05
3.87091e-05 -1.32706e-05 0.000154471
0.00469356 -0.000814134 7.2856e-06
-0.000814134 0.00236152 7.42823e-06
7.2856e-06 7.42823e-06 0.00192511
0.00152606 -0.000318928 1.38242e-05
-0.000318928 0.000807148 -5.0533e-05
1.38242e-05 -5.0533e-05 0.000442998
0.00058691 -0.000115182 1.94041e-06
-0.000115182 4.01088e-05 -2.00129e-07
1.94041e-06 -2.00129e-07 -6.28293e-05
0.00100844 -8.64977e-05 1.20481e-05
-8.64977e-05 0.000381228 -2.34786e-05
1.20481e-05 -2.34786e-05 0.00015739
0.000983592 -5.36381e-05 3.93563e-06
-5.36381e-05 0.000388155 1.15352e-06
3.93563e-06 1.15352e-06 0.000242986
0.000773117 1.07657e-05 9.57894e-06
1.07657e-05 0.000294202 -7.58887e-06
9.57894e-06 -7.58887e-06 0.000265937
0.00246484 -0.000429928 -5.56767e-07
-0.000429928 -0.000129624 2.90115e-06
-5.56767e-07 2.90115e-06 0.000196521
0.000413492 -9.17353e-05 -4.44298e-06
-9.17353e-05 0.000116457 -9.1938e-07
-4.44298e-06 -9.1938e-07 -2.68472e-05
0.00135019 -0.000207904 -9.22444e-06
-0.000207904 0.0006069 4.17325e-06
-9.22444e-06 4.17325e-06 0.000422949
0.00171996 -0.000679058 8.78545e-06
-0.000679058 -0.000366398 -4.0604e-06
8.78545e-06 -4.0604e-06 -0.000236313
0.00196348 -0.000919889 1.80355e-06
-0.000919889 9.5332e-05 1.68793e-06
1.80355e-06 1.68793e-06 -0.000179458
0.000987076 -0.000886062 -3.95122e-06
-0.000886062 -0.000173674 -8.7296e-06
-3.95122e-06 -8.7296e-06 -0.000484589
0.00186133 -0.000397122 1.36093e-07
-0.000397122 0.00110681 -2.77074e-05
1.36093e-07 -2.77074e-05 0.00068308
0.00147066 -0.000710425 9.71042e-06
-0.000710425 0.00126847 4.07127e-06
9.71042e-06 4.07127e-06 0.000353338
0.00569158 -0.000952654 -5.84192e-05
-0.000952654 0.00146362 3.03023e-05
-5.84192e-05 3.03023e-05 0.00168418
0.00405881 -0.00105104 -4.63919e-05
-0.00105104 0.00126321 1.02811e-05
-4.63919e-05 1.02811e-05 0.00104179
0.00225842 -0.00107555 1.5151e-05
-0.00107555 0.000373768 -2.74827e-06
1.5151e-05 -2.74827e-06 8.43548e-05
-0.00109171 -0.000484619 -1.47337e-06
-0.000484619 -0.00103931 1.44027e-05
-1.47337e-06 1.44027e-05 -0.00115806
0.000437866 -0.000158265 1.0364e-06
-0.000158265 0.000169998 8.39445e-06
1.0364e-06 8.39445e-06 -7.4858e-05
0.000375628 -0.00017881 4.62166e-06
-0.00017881 0.000208748 1.13694e-06
4.62166e-06 1.13694e-06 -9.05615e-05
0.00210676 -0.000252506 -1.19374e-05
-0.000252506 0.00157842 -2.47614e-05
-1.19374e-05 -2.47614e-05 0.00084827
-0.00717727 -0.000463776 0.000666015
-0.000463776 -0.00397985 -4.07219e-05
0.000666015 -4.07219e-05 -0.0042462
0.0119478 -0.000398702 7.68569e-05
-0.000398702 0.000625913 3.03281e-05
7.68569e-05 3.03281e-05 0.00101897
0.00310621 0.000440458 1.17332e-05
0.000440458 0.00175247 -1.13321e-05
1.17332e-05 -1.13321e-05 0.00151212
0.00173169 0.000586373 -2.30305e-06
0.000586373 0.000666658 6.96242e-06
-2.30305e-06 6.96242e-06 0.000264203
0.00292377 0.000774738 0.000107979
0.000774738 0.000311039 4.72369e-05
0.000107979 4.72369e-05 0.000351022
0.00318424 0.00107793 2.8794e-05
0.00107793 0.000846079 1.31285e-05
2.8794e-05 1.31285e-05 0.000486087
0.00300496 0.000941285 2.1081e-05
0.000941285 0.00119577 7.95458e-06
2.1081e-05 7.95458e-06 0.000679799
0.0167676 0.000782667 0.000100967
0.000782667 0.00271934 -5.36738e-05
0.000100967 -5.36738e-05 0.00223348
0.00852936 0.00263468 -0.000244133
0.00263468 -0.00103409 -3.55691e-05
-0.000244133 -3.55691e-05 0.000778959
0.00157825 0.00142175 1.19436e-05
0.00142175 -0.000130707 -3.12409e-05
1.19436e-05 -3.12409e-05 -0.000613707
0.0145381 -0.00509399 -0.000582882
-0.00509399 0.00629691 1.29231e-05
-0.000582882 1.29231e-05 0.00279649
0.0077145 -0.0110189 -0.00272044
-0.0110189 0.00714286 -0.00163131
-0.00272044 -0.00163131 0.00241526
0.00101194 0.000352137 3.25431e-06
0.000352137 0.00047391 -2.38979e-06
3.25431e-06 -2.38979e-06 0.000199803
-0.00114472 -0.00300448 0.000585858
-0.00300448 -0.00246465 8.88862e-05
0.000585858 8.88862e-05 -0.00493827
-0.00155146 -0.00307809 -0.000619482
-0.00307809 0.00680301 -0.000206422
-0.000619482 -0.000206422 0.000640557
0.00360558 0.00124718 -1.72342e-05
0.00124718 0.000759763 2.19491e-06
-1.72342e-05 2.19491e-06 0.000585133
0.000832689 0.000483512 -9.87372e-06
0.000483512 0.000120105 8.56089e-06
-9.87372e-06 8.56089e-06 -0.000254819
0.00154411 0.000883762 6.26796e-06
0.000883762 0.000403216 1.86461e-06
6.26796e-06 1.86461e-06 -5.3375e-05
0.00119233 0.00133754 5.66419e-05
0.00133754 9.60533e-05 4.1991e-05
5.66419e-05 4.1991e-05 -0.000226131
0.0142164 0.00312396 -0.000157753
0.00312396 0.000647853 -0.000102054
-0.000157753 -0.000102054 -0.000870418
0.00403799 0.00323034 -2.41281e-05
0.00323034 -0.000809698 -3.96032e-05
-2.41281e-05 -3.96032e-05 0.000443568
0.0191173 -0.00574638 0.000639103
-0.00574638 0.00800221 -1.84314e-05
0.000639103 -1.84314e-05 0.00304629
0.0184936 -0.00480853 9.13255e-05
-0.00480853 0.00431371 0.000785389
9.13255e-05 0.000785389 0.00132118
0.00193629 0.000422559 -2.04416e-05
0.000422559 0.000982786 -1.66286e-05
-2.04416e-05 -1.66286e-05 0.000740402
-0.0101347 0.00133451 -0.000135906
0.00133451 0.00431201 -0.000148891
-0.000135906 -0.000148891 -0.00297773
0.00560074 0.00111001 -0.000434331
0.00111001 0.00453992 -0.000540197
-0.000434331 -0.000540197 -0.000456045
0.00260637 0.000925079 -3.48104e-05
0.000925079 0.000624845 -1.03824e-05
-3.48104e-05 -1.03824e-05 0.000553895
0.00282841 0.000933433 -8.24217e-05
0.000933433 0.00123818 -3.07469e-05
-8.24217e-05 -3.07469e-05 0.000811984
0.00126283 0.000985641 -9.79338e-05
0.000985641 0.000941868 -2.73594e-05
-9.79338e-05 -2.73594e-05 0.000200329
-0.00264868 0.002059 6.55926e-06
0.002059 -0.00110687 -3.48115e-05
6.55926e-06 -3.48115e-05 -0.00129455
0.0019551 0.00396326 0.000475384
0.00396326 -0.00196653 0.000143054
0.000475384 0.000143054 -0.00390239
0.0196582 -0.00731882 0.000116639
-0.00731882 0.0107466 0.000781454
0.000116639 0.000781454 0.00513766
0.00915418 -0.000519154 -0.000195206
-0.000519154 -0.00199189 -0.000176926
-0.000195206 -0.000176926 -0.00114222
-0.00058054 0.000141089 9.45882e-07
0.000141089 -0.000422222 -5.19794e-06
9.45882e-07 -5.19794e-06 -0.000571625
0.00180186 0.000337272 1.07716e-05
0.000337272 0.000996271 2.58395e-06
1.07716e-05 2.58395e-06 0.000789774
-0.000633694 8.43553e-05 -2.59582e-06
8.43553e-05 -0.000408574 -1.53152e-06
-2.59582e-06 -1.53152e-06 -0.000584286
0.0003388 5.21474e-05 2.23551e-06
5.21474e-05 -3.27602e-05 1.42484e-06
2.23551e-06 1.42484e-06 -0.00017453
0.00104931 9.11176e-05 1.10162e-07
9.11176e-05 0.000454393 -1.59527e-06
1.10162e-07 -1.59527e-06 0.000256641
0.000571105 2.95328e-05 -2.0125e-06
2.95328e-05 0.000170008 1.45259e-06
-2.0125e-06 1.45259e-06 -3.29872e-05
0.000426665 0.000106594 6.41392e-06
0.000106594 5.10633e-05 5.87577e-06
6.41392e-06 5.87577e-06 -0.000141301
-0.00068538 4.04882e-05 -4.0891e-06
4.04882e-05 -0.000549763 1.12873e-06
-4.0891e-06 1.12873e-06 -0.000715424
0.000772916 3.98738e-05 3.45418e-07
3.98738e-05 0.000280716 -7.65299e-07
3.45418e-07 -7.65299e-07 8.99863e-05
0.000719404 9.62369e-05 6.89499e-07
9.62369e-05 0.00024247 -1.57403e-07
6.89499e-07 -1.57403e-07 7.18587e-05
0.000837052 -3.97262e-05 -1.30345e-06
-3.97262e-05 0.000327634 2.19262e-06
-1.30345e-06 2.19262e-06 0.000126437
-0.00102893 3.44403e-05 2.0756e-06
3.44403e-05 -0.000597299 5.01399e-07
2.0756e-06 5.01399e-07 -0.000856268
0.000435087 6.39969e-05 -3.09927e-06
6.39969e-05 0.000464054 5.69088e-06
-3.09927e-06 5.69088e-06 8.06045e-05
0.000634766 -2.38799e-05 -9.46144e-07
-2.38799e-05 0.000297459 -6.63342e-06
-9.46144e-07 -6.63342e-06 7.88065e-05
0.00148246 -1.36534e-05 -2.07025e-06
-1.36534e-05 0.000779928 2.54234e-06
-2.07025e-06 2.54234e-06 0.000542231
0.000803973 -8.50818e-05 -3.23563e-07
-8.50818e-05 0.000297147 -1.53245e-06
-3.23563e-07 -1.53245e-06 0.000107151
0.000165601 -0.00010141 5.06719e-06
-0.00010141 -0.000155833 1.11365e-05
5.06719e-06 1.11365e-05 -0.000289067
0.000655413 -8.98155e-05 5.10936e-07
-8.98155e-05 0.000221171 -8.63996e-07
5.10936e-07 -8.63996e-07 2.5683e-05
0.000760864 -9.52116e-05 -2.40664e-06
-9.52116e-05 0.000214619 -5.97807e-07
-2.40664e-06 -5.97807e-07 8.17068e-05
-0.000319493 -6.76969e-05 2.15635e-06
-6.76969e-05 -0.000409494 5.1452e-06
2.15635e-06 5.1452e-06 -0.000525477
-0.000137253 -5.70026e-05 -1.91375e-07
-5.70026e-05 -0.000269227 -4.72392e-06
-1.91375e-07 -4.72392e-06 -0.000433021
-6.82632e-05 -3.45909e-05 -8.71313e-06
-3.45909e-05 -0.000160687 -3.4156e-06
-8.71313e-06 -3.4156e-06 -0.000350273
6.09897e-05 -0.000100936 2.14944e-06
-0.000100936 -0.000143733 -8.08062e-06
2.14944e-06 -8.08062e-06 -0.000273282
0.000976076 -0.000122207 1.38512e-05
-0.000122207 0.00029411 -1.62061e-05
1.38512e-05 -1.62061e-05 0.000183786
0.00132802 -0.000289385 -1.42673e-06
-0.000289385 0.000449281 4.19713e-06
-1.42673e-06 4.19713e-06 0.000256074
-0.000147337 -6.40948e-05 -7.26621e-06
-6.40948e-05 -0.000269591 -2.11999e-06
-7.26621e-06 -2.11999e-06 -0.000464836
0.000600245 -5.29711e-05 1.8364e-06
-5.29711e-05 0.000197239 -8.12011e-07
1.8364e-06 -8.12011e-07 5.92109e-07
-0.000293205 -3.03669e-05 2.77658e-06
-3.03669e-05 -0.00038024 -1.65892e-07
2.77658e-06 -1.65892e-07 -0.000569812
0.00067138 -0.00013092 -7.76533e-07
-0.00013092 0.000219709 -4.292e-07
-7.76533e-07 -4.292e-07 5.37548e-05
0.000427123 -3.21415e-05 5.67819e-07
-3.21415e-05 9.97983e-06 1.09352e-06
5.67819e-07 1.09352e-06 -0.000119598
0.000737623 -0.00013071 -2.68742e-08
-0.00013071 0.000244958 3.60299e-07
-2.68742e-08 3.60299e-07 9.11859e-05
0.000620016 -8.87764e-05 -5.76398e-07
-8.87764e-05 0.000145465 2.12667e-07
-5.76398e-07 2.12667e-07 9.20061e-06
0.000375307 3.1692e-05 6.71913e-08
3.1692e-05 -4.167e-05 4.72999e-06
6.71913e-08 4.72999e-06 -0.000128814
0.000557402 -0.000117527 8.69918e-07
-0.000117527 0.000100019 -2.75515e-06
8.69918e-07 -2.75515e-06 -3.92541e-05
0.000505133 -4.47537e-05 -5.48143e-07
-4.47537e-05 3.74919e-05 1.2083e-07
-5.48143e-07 1.2083e-07 -4.42743e-05
0.0014176 1.77501e-05 -7.99744e-06
1.77501e-05 0.000588153 7.55166e-06
-7.99744e-06 7.55166e-06 0.000566055
0.000478398 -6.72474e-05 1.40269e-06
-6.72474e-05 2.94706e-05 -3.67581e-06
1.40269e-06 -3.67581e-06 -5.51867e-05
0.000861294 -2.12693e-05 -8.27116e-06
-2.12693e-05 0.000244859 8.57949e-07
-8.27116e-06 8.57949e-07 0.000220179
0.000744892 1.1574e-05 1.25605e-06
1.1574e-05 0.000151905 2.23599e-06
1.25605e-06 2.23599e-06 0.000155163
0.00041672 -2.38927e-05 3.22171e-06
-2.38927e-05 -3.38186e-05 -4.73475e-06
3.22171e-06 -4.73475e-06 -5.86244e-05
0.00256234 1.13269e-05 7.1766e-06
1.13269e-05 0.00130983 1.48872e-08
7.1766e-06 1.48872e-08 0.00132222
0.00258933 7.69779e-07 2.88533e-06
7.69779e-07 0.00132785 -5.0665e-06
2.88533e-06 -5.0665e-06 0.00133975
0.00104149 8.3413e-05 -5.9621e-07
8.3413e-05 0.000412606 7.72229e-07
-5.9621e-07 7.72229e-07 0.000300728
0.000501275 6.61072e-05 -1.63926e-06
6.61072e-05 3.65351e-05 -2.70283e-06
-1.63926e-06 -2.70283e-06 -1.95787e-05
0.000533562 -1.38447e-05 -3.78347e-07
-1.38447e-05 9.58346e-05 7.92959e-07
-3.78347e-07 7.92959e-07 -1.1228e-05
0.000462269 8.49258e-06 1.35058e-06
8.49258e-06 -3.07633e-05 -3.42287e-06
1.35058e-06 -3.42287e-06 -4.10379e-05
0.000439332 -1.11785e-05 1.23766e-06
-1.11785e-05 -8.00976e-06 -2.09409e-07
1.23766e-06 -2.09409e-07 -5.73711e-05
0.000510061 -6.22743e-05 -2.06356e-06
-6.22743e-05 4.35478e-05 2.17933e-06
-2.06356e-06 2.17933e-06 -1.17338e-05
0.000467594 7.32835e-06 -5.21666e-07
7.32835e-06 -2.73963e-05 2.30724e-09
-5.21666e-07 2.30724e-09 -3.8397e-05
0.00199619 2.46438e-05 -2.34317e-06
2.46438e-05 0.000947013 -4.84821e-06
-2.34317e-06 -4.84821e-06 0.000963441
0.00113379 2.4836e-05 -7.42362e-07
2.4836e-05 0.000396842 2.03706e-06
-7.42362e-07 2.03706e-06 0.000387322
0.00131112 3.10964e-05 -2.21829e-06
3.10964e-05 0.000513154 -3.49444e-08
-2.21829e-06 -3.49444e-08 0.000524497
0.00080953 3.74635e-05 -7.06422e-06
3.74635e-05 0.00020083 7.54068e-06
-7.06422e-06 7.54068e-06 0.000204995
-0.00806244 0.00156821 0.00065796
0.00156821 -0.00269491 -7.71238e-05
0.00065796 -7.71238e-05 -0.00596374
6.39803e-05 0.000657545 0.00143982
0.000657545 0.00734661 -0.000341751
0.00143982 -0.000341751 0.00298065
0.00217441 0.000454751 -0.000165279
0.000454751 -0.00268678 -3.23957e-05
-0.000165279 -3.23957e-05 -0.000707783
0.00202503 -1.17107e-05 1.36958e-05
-1.17107e-05 -0.00108942 -2.94977e-05
1.36958e-05 -2.94977e-05 -0.000495157
0.00176074 -8.00979e-05 1.4009e-05
-8.00979e-05 -0.000341354 2.43532e-05
1.4009e-05 2.43532e-05 -0.000232662
-0.00168622 8.52029e-06 -0.000110705
8.52029e-06 -0.00218557 -3.02391e-05
-0.000110705 -3.02391e-05 -0.000797352
0.00391375 -0.000488657 3.51883e-06
-0.000488657 0.000253937 5.43304e-06
3.51883e-06 5.43304e-06 0.000504463
0.012402 -0.000167134 0.000214713
-0.000167134 -0.00129816 -9.53452e-05
0.000214713 -9.53452e-05 -0.00185447
0.00260944 0.00436448 -3.08749e-07
0.00436448 0.00121721 -7.24703e-05
-3.08749e-07 -7.24703e-05 -0.00269728
0.0167686 0.00893293 -0.000617228
0.00893293 0.0111674 0.000282883
-0.000617228 0.000282883 0.0069846
0.00177542 -0.000957609 1.13669e-05
-0.000957609 -0.00274657 -3.70911e-05
1.13669e-05 -3.70911e-05 -0.00125022
0.0158183 -0.0029156 0.000251043
-0.0029156 0.00150907 -7.30818e-05
0.000251043 -7.30818e-05 0.000244202
0.0203412 0.00681603 0.00041007
0.00681603 0.00681524 -0.000542039
0.00041007 -0.000542039 0.00201516
0.0225957 0.00489472 -0.000333598
0.00489472 0.00739987 0.00030658
-0.000333598 0.00030658 0.00452418
0.00101186 0.000175177 -3.41806e-06
0.000175177 0.000464608 3.20875e-06
-3.41806e-06 3.20875e-06 0.000278904
0.000322491 4.09045e-05 4.60994e-07
4.09045e-05 -3.85669e-05 -1.03402e-06
4.60994e-07 -1.03402e-06 -0.00014658
0.000542536 -9.85633e-05 1.72995e-06
-9.85633e-05 0.000106705 1.50783e-06
1.72995e-06 1.50783e-06 6.61197e-08
0.00068737 5.5609e-06 6.69912e-06
5.5609e-06 0.000203978 -1.56681e-06
6.69912e-06 -1.56681e-06 7.89565e-05
0.000823125 8.5965e-05 2.86292e-06
8.5965e-05 0.000349968 1.02651e-06
2.86292e-06 1.02651e-06 0.00021295
0.000489119 3.12001e-05 2.40703e-08
3.12001e-05 9.19331e-05 8.47422e-06
2.40703e-08 8.47422e-06 -7.82629e-05
0.00074031 9.59732e-05 5.13635e-07
9.59732e-05 0.00024061 3.21032e-06
5.13635e-07 3.21032e-06 9.88827e-05
0.000443735 7.0376e-05 5.47623e-06
7.0376e-05 1.75795e-05 2.85737e-06
5.47623e-06 2.85737e-06 -0.000126716
0.000669812 -2.10887e-05 2.57102e-06
-2.10887e-05 0.000202487 -1.18603e-06
2.57102e-06 -1.18603e-06 5.88041e-05
0.00046117 -1.60533e-05 2.17478e-06
-1.60533e-05 4.33153e-05 -2.71564e-06
2.17478e-06 -2.71564e-06 -6.93889e-05
0.00131773 -0.000358941 3.76116e-05
-0.000358941 -0.000746502 -1.18811e-05
3.76116e-05 -1.18811e-05 -0.000384084
0.00108857 -0.000625928 2.77706e-05
-0.000625928 -0.000709053 -9.18623e-06
2.77706e-05 -9.18623e-06 -0.000541569
0.00102013 -0.000781764 1.44053e-06
-0.000781764 -0.00043054 8.0631e-06
1.44053e-06 8.0631e-06 -0.000621182
-0.000165921 -0.000739268 -2.03685e-05
-0.000739268 -0.000800186 1.73087e-06
-2.03685e-05 1.73087e-06 -0.00107779
0.00245229 -0.000511456 7.3081e-06
-0.000511456 0.00160715 3.83951e-05
7.3081e-06 3.83951e-05 0.000903304
-0.000558765 -0.000576499 -7.55741e-06
-0.000576499 -0.000341981 -8.02561e-06
-7.55741e-06 -8.02561e-06 -0.000918128
0.00141757 -0.000282192 7.21266e-06
-0.000282192 0.000657124 -5.82207e-06
7.21266e-06 -5.82207e-06 0.000498138
0.000417185 -6.29581e-05 9.82969e-07
-6.29581e-05 9.94566e-05 2.64136e-06
9.82969e-07 2.64136e-06 -3.76035e-05
0.00254872 -0.000672848 1.40994e-05
-0.000672848 -0.000256341 -9.65014e-06
1.40994e-05 -9.65014e-06 8.53827e-05
0.000456094 -7.76423e-05 3.78372e-07
-7.76423e-05 0.000179407 1.79647e-06
3.78372e-07 1.79647e-06 -7.42938e-05
-0.000161666 -0.00021882 -2.55136e-06
-0.00021882 -0.000106926 -5.83382e-06
-2.55136e-06 -5.83382e-06 -0.000410133
0.00181657 -0.000833086 1.90471e-05
-0.000833086 -5.48364e-06 -1.2053e-06
1.90471e-05 -1.2053e-06 -8.80973e-05
0.00197054 -0.00103734 -1.43535e-06
-0.00103734 0.000148813 6.61679e-07
-1.43535e-06 6.61679e-07 -5.89769e-05
0.000294988 -0.000768314 2.00376e-05
-0.000768314 -0.000222876 -1.67878e-05
2.00376e-05 -1.67878e-05 -0.000480491
0.000969786 -0.000375029 1.06937e-05
-0.000375029 0.000926971 -2.12506e-05
1.06937e-05 -2.12506e-05 0.000187528
0.00200532 -0.0010133 -7.10665e-05
-0.0010133 -6.4516e-05 4.70121e-05
-7.10665e-05 4.70121e-05 -0.00029618
0.00116275 -0.00079752 -2.63365e-05
-0.00079752 -0.00012759 3.05958e-06
-2.63365e-05 3.05958e-06 -0.000145991
-0.00026993 -0.000632267 -6.21504e-05
-0.000632267 -0.000104849 3.80512e-05
-6.21504e-05 3.80512e-05 -0.00053339
-0.00219738 -0.000204482 -9.18748e-06
-0.000204482 -0.00148165 1.26507e-05
-9.18748e-06 1.26507e-05 -0.00172712
-0.00122792 -1.83035e-05 3.18039e-08
-1.83035e-05 -0.000773491 1.20054e-05
3.18039e-08 1.20054e-05 -0.00107354
0.000841089 -9.30468e-05 7.47966e-06
-9.30468e-05 0.000543547 -1.50195e-05
7.47966e-06 -1.50195e-05 0.000151234
-0.00269785 0.00140668 -0.000481229
0.00140668 0.00749577 2.29162e-05
-0.000481229 2.29162e-05 0.00199071
-1.58595e-05 -0.00177148 -1.73001e-05
-0.00177148 0.00277092 6.09179e-07
-1.73001e-05 6.09179e-07 0.00151846
0.00340826 0.000996837 -0.00014358
0.000996837 -0.00574465 -2.10357e-05
-0.00014358 -2.10357e-05 -0.00591688
0.000523327 0.000313671 1.39489e-05
0.000313671 0.000211375 -3.33395e-06
1.39489e-05 -3.33395e-06 -6.42523e-05
0.00181373 0.000673203 1.49958e-05
0.000673203 0.000747856 2.36391e-05
1.49958e-05 2.36391e-05 0.000300702
0.00353595 0.00110112 7.65214e-05
0.00110112 0.000705569 2.78906e-05
7.65214e-05 2.78906e-05 0.000580806
0.00138976 0.000929951 1.7558e-05
0.000929951 0.000351484 2.46647e-05
1.7558e-05 2.46647e-05 -0.000146589
0.0137181 -0.00349473 0.000279418
-0.00349473 0.00547651 9.03508e-05
0.000279418 9.03508e-05 0.00362092
0.00360425 0.00185095 -0.000407078
0.00185095 -0.00503004 -9.77816e-05
-0.000407078 -9.77816e-05 -0.00637883
0.00540171 0.00313655 5.13535e-05
0.00313655 0.000350408 2.90612e-05
5.13535e-05 2.90612e-05 0.00112621
0.00324628 0.0013964 6.15918e-05
0.0013964 0.00135827 -6.57572e-06
6.15918e-05 -6.57572e-06 0.00106693
0.0113106 -0.00344948 -0.000474376
-0.00344948 0.00471779 -0.000369208
-0.000474376 -0.000369208 0.000351342
0.000444341 -0.0042621 -0.000877433
-0.0042621 0.00749551 -0.000252941
-0.000877433 -0.000252941 0.00123409
0.0274453 -0.00637287 0.000875075
-0.00637287 0.00816152 0.000420496
0.000875075 0.000420496 0.00470586
0.000295985 0.000278288 1.74907e-05
0.000278288 1.9934e-05 -4.68739e-06
1.74907e-05 -4.68739e-06 -0.000211514
-0.0039435 0.000457155 -0.000195525
0.000457155 0.00635773 -3.42069e-05
-0.000195525 -3.42069e-05 0.000118659
0.0063095 0.00152125 -0.000167747
0.00152125 0.00361912 -0.000186142
-0.000167747 -0.000186142 -0.00195358
0.00179375 0.000952121 9.09651e-06
0.000952121 0.00029252 2.75002e-06
9.09651e-06 2.75002e-06 0.000148881
0.000777154 0.000709681 1.64624e-05
0.000709681 0.000237941 5.83364e-06
1.64624e-05 5.83364e-06 -0.000200727
0.000871604 0.00110473 -6.69486e-05
0.00110473 0.000590465 -6.67158e-05
-6.69486e-05 -6.67158e-05 -2.03679e-05
0.00407614 0.00360444 3.83831e-05
0.00360444 0.0011557 3.83205e-05
3.83831e-05 3.83205e-05 0.001091
0.0158663 0.00510337 1.03923e-05
0.00510337 0.00293623 7.35416e-06
1.03923e-05 7.35416e-06 0.00069085
0.00986692 -0.00410718 9.18926e-05
-0.00410718 0.00517011 -0.000110296
9.18926e-05 -0.000110296 -0.000799735
0.016395 -0.00218887 -2.00303e-05
-0.00218887 0.00235162 -7.1271e-05
-2.00303e-05 -7.1271e-05 0.00334495
0.000716259 0.000543844 -1.52031e-05
0.000543844 0.000259852 -9.8562e-06
-1.52031e-05 -9.8562e-06 -6.23374e-05
0.00171444 0.000264203 -0.000403384
0.000264203 0.00250576 -0.000102468
-0.000403384 -0.000102468 -0.00281868
0.0013416 0.00102947 -0.000152367
0.00102947 -0.000114661 -0.000187282
-0.000152367 -0.000187282 -0.0017942
-0.000772349 0.000349523 -6.33814e-06
0.000349523 -0.000168714 -2.10141e-05
-6.33814e-06 -2.10141e-05 -0.000462659
-0.00125274 0.000769497 -0.00018888
0.000769497 0.000893984 -1.25355e-05
-0.00018888 -1.25355e-05 0.000109098
0.0117156 0.00552778 0.0001305
0.00552778 0.00386982 -3.86766e-05
0.0001305 -3.86766e-05 -0.00079322
-0.0010539 -0.00601227 -2.31174e-05
-0.00601227 3.95528e-05 0.000236208
-2.31174e-05 0.000236208 -0.00556869
0.0128231 -3.07795e-05 6.98365e-05
-3.07795e-05 -0.00157436 -0.0003383
6.98365e-05 -0.0003383 0.000835455
0.000862293 0.000214487 -3.30616e-06
0.000214487 0.000373358 1.88835e-05
-3.30616e-06 1.88835e-05 0.000211467
0.000943144 0.000257654 -9.42753e-06
0.000257654 0.000564115 -5.53975e-06
-9.42753e-06 -5.53975e-06 0.000340682
-0.000332419 0.000141943 1.01011e-06
0.000141943 -1.31086e-05 -2.04852e-06
1.01011e-06 -2.04852e-06 -0.000352221
0.000514631 8.66917e-05 -5.75596e-07
8.66917e-05 9.57424e-05 -9.4323e-07
-5.75596e-07 -9.4323e-07 -7.842e-05
0.00129159 -2.85951e-05 -2.40397e-06
-2.85951e-05 0.000633894 3.68847e-06
-2.40397e-06 3.68847e-06 0.000416657
-6.62578e-05 7.78292e-05 3.20534e-06
7.78292e-05 -0.000256583 2.18306e-06
3.20534e-06 2.18306e-06 -0.000420873
-0.00124046 4.72273e-05 2.40157e-06
4.72273e-05 -0.000713034 1.10602e-06
2.40157e-06 1.10602e-06 -0.00097189
0.000527422 -2.09017e-05 1.28431e-06
-2.09017e-05 0.000135718 4.97845e-07
1.28431e-06 4.97845e-07 -6.57312e-05
0.000477631 5.29028e-05 7.30812e-07
5.29028e-05 0.000190799 -2.33194e-06
7.30812e-07 -2.33194e-06 -2.07417e-05
8.19561e-05 4.84754e-05 2.711e-06
4.84754e-05 0.000312541 2.89038e-06
2.711e-06 2.89038e-06 -0.000116499
-0.000560777 5.61304e-05 -2.87404e-06
5.61304e-05 8.18062e-05 1.23721e-05
-2.87404e-06 1.23721e-05 -0.000439541
0.000594931 1.205e-05 -2.44338e-06
1.205e-05 0.000600483 -5.64245e-06
-2.44338e-06 -5.64245e-06 0.000189659
0.00144483 3.09102e-05 -2.11999e-06
3.09102e-05 0.000776114 -7.02419e-07
-2.11999e-06 -7.02419e-07 0.000573154
0.000857311 -0.000169106 3.84137e-06
-0.000169106 0.00034491 2.01501e-06
3.84137e-06 2.01501e-06 0.000149404
0.000190595 -6.72039e-05 1.5781e-06
-6.72039e-05 -0.000162018 6.08097e-06
1.5781e-06 6.08097e-06 -0.000283569
9.44225e-05 -8.84885e-05 6.26342e-06
-8.84885e-05 -0.000148782 1.66447e-05
6.26342e-06 1.66447e-05 -0.00024891
0.000203422 -3.4666e-05 1.97419e-06
-3.4666e-05 -6.48373e-06 1.98716e-06
1.97419e-06 1.98716e-06 -0.000184345
0.000510884 -4.68323e-05 -1.15088e-07
-4.68323e-05 0.000118228 1.10836e-06
-1.15088e-07 1.10836e-06 -4.07598e-05
0.00021442 -5.28391e-05 -1.20727e-06
-5.28391e-05 -3.85769e-05 -1.80494e-06
-1.20727e-06 -1.80494e-06 -0.00016969
0.000419648 -7.34666e-05 -7.17989e-06
-7.34666e-05 7.10046e-05 -5.15239e-06
-7.17989e-06 -5.15239e-06 -6.56259e-05
0.000579715 -8.84669e-05 8.80928e-06
-8.84669e-05 0.000365963 -8.19926e-06
8.80928e-06 -8.19926e-06 0.000191143
0.00148334 -0.000284775 2.28637e-06
-0.000284775 0.000518741 5.40405e-06
2.28637e-06 5.40405e-06 0.000424957
0.000527195 -0.000134578 -1.59412e-05
-0.000134578 3.75507e-05 -4.8991e-07
-1.59412e-05 -4.8991e-07 -7.63239e-05
0.000552177 -0.000240687 7.45027e-06
-0.000240687 1.18487e-05 6.70559e-06
7.45027e-06 6.70559e-06 -0.000164604
0.00237252 -0.000629837 -3.95691e-06
-0.000629837 0.00104458 2.23449e-05
-3.95691e-06 2.23449e-05 0.000673252
0.00189679 -0.000271988 4.77704e-06
-0.000271988 0.000872484 -1.04173e-05
4.77704e-06 -1.04173e-05 0.000666037
0.000661292 -0.00022818 -5.82993e-06
-0.00022818 7.23951e-05 -6.80903e-06
-5.82993e-06 -6.80903e-06 -8.35433e-05
0.000500707 -9.01051e-05 -3.60879e-07
-9.01051e-05 0.000104723 -1.04094e-06
-3.60879e-07 -1.04094e-06 -8.87815e-05
-0.000387078 -4.66013e-05 -5.76635e-07
-4.66013e-05 -0.000413032 -1.38225e-06
-5.76635e-07 -1.38225e-06 -0.000649388
0.00117759 -5.42533e-05 1.20477e-06
-5.42533e-05 0.000543761 1.39951e-06
1.20477e-06 1.39951e-06 0.000352419
0.000707785 -0.00014581 3.72378e-07
-0.00014581 0.000246614 -9.49232e-08
3.72378e-07 -9.49232e-08 4.5418e-05
0.000381862 -6.46959e-05 5.81738e-07
-6.46959e-05 -3.33642e-05 1.13375e-06
5.81738e-07 1.13375e-06 -0.000167625
0.00148201 -0.00021869 -2.8111e-06
-0.00021869 0.000749326 -3.09041e-07
-2.8111e-06 -3.09041e-07 0.000555978
0.000696279 -0.000120941 -5.32499e-07
-0.000120941 0.000182265 6.39442e-09
-5.32499e-07 6.39442e-09 4.45457e-05
0.00051424 -4.34606e-07 -1.62708e-06
-4.34606e-07 3.80602e-05 3.56681e-06
-1.62708e-06 3.56681e-06 -4.94157e-05
0.000719202 -0.000137306 8.84254e-07
-0.000137306 0.00020958 -2.36528e-06
8.84254e-07 -2.36528e-06 6.87568e-05
0.000584613 -6.19794e-05 -7.12166e-08
-6.19794e-05 8.72735e-05 1.15406e-07
-7.12166e-08 1.15406e-07 -1.06702e-08
0.00144714 8.96977e-06 -1.31935e-05
8.96977e-06 0.000602619 7.92064e-06
-1.31935e-05 7.92064e-06 0.000578137
0.000535416 -7.27226e-05 1.72023e-06
-7.27226e-05 6.55962e-05 -4.91759e-06
1.72023e-06 -4.91759e-06 -2.24908e-05
0.000856077 -1.58789e-05 -9.61437e-06
-1.58789e-05 0.000234487 7.47328e-07
-9.61437e-06 7.47328e-07 0.00020867
0.000808942 2.0807e-05 1.22847e-06
2.0807e-05 0.000189523 3.01801e-06
1.22847e-06 3.01801e-06 0.000190637
0.000421864 -3.67484e-05 2.94937e-06
-3.67484e-05 -3.55082e-05 -5.249e-06
2.94937e-06 -5.249e-06 -6.23431e-05
0.00166418 1.95623e-05 1.22417e-05
1.95623e-05 0.000737756 -1.52178e-06
1.22417e-05 -1.52178e-06 0.000745771
0.00251902 9.69788e-06 1.3763e-05
9.69788e-06 0.00128165 -5.18953e-06
1.3763e-05 -5.18953e-06 0.00129429
0.00047907 5.85232e-05 1.68761e-06
5.85232e-05 3.21769e-05 -7.7396e-07
1.68761e-06 -7.7396e-07 -7.43333e-05
0.00058818 6.77614e-05 -1.07499e-06
6.77614e-05 8.54078e-05 -2.18564e-06
-1.07499e-06 -2.18564e-06 2.61641e-05
0.00057364 5.68314e-06 6.87698e-07
5.68314e-06 0.000107968 8.53568e-07
6.87698e-07 8.53568e-07 2.26066e-06
0.00045274 6.14746e-06 2.08248e-06
6.14746e-06 -3.61206e-05 -3.79002e-06
2.08248e-06 -3.79002e-06 -4.70389e-05
0.000481846 5.72051e-05 -1.009e-08
5.72051e-05 1.91868e-05 -1.8792e-07
-1.009e-08 -1.8792e-07 -3.3803e-05
0.000493121 -0.000115141 -3.03966e-06
-0.000115141 5.88035e-05 9.76489e-07
-3.03966e-06 9.76489e-07 -4.08912e-05
0.00201535 1.06192e-05 -7.55374e-06
1.06192e-05 0.000956926 -4.8975e-06
-7.55374e-06 -4.8975e-06 0.000974336
0.000442243 6.63049e-06 -2.59776e-07
6.63049e-06 -4.30013e-05 2.97078e-08
-2.59776e-07 2.97078e-08 -5.32559e-05
0.000491385 -5.82489e-06 -1.61335e-06
-5.82489e-06 1.9463e-05 2.22304e-06
-1.61335e-06 2.22304e-06 -2.65854e-05
0.000456174 4.98736e-06 -1.9259e-06
4.98736e-06 -3.52705e-05 3.34887e-06
-1.9259e-06 3.34887e-06 -4.62476e-05
0.00204791 2.62236e-05 -5.57069e-06
2.62236e-05 0.000980172 -1.1907e-07
-5.57069e-06 -1.1907e-07 0.000996234
0.00201859 4.04768e-05 -3.83078e-06
4.04768e-05 0.000964541 4.78065e-06
-3.83078e-06 4.78065e-06 0.000979216
-0.00591512 -0.00199044 -0.000224588
-0.00199044 0.0064839 6.17057e-05
-0.000224588 6.17057e-05 0.00199094
0.00281349 0.00174131 -0.000310496
0.00174131 0.00114809 0.000100323
-0.000310496 0.000100323 -0.00150004
0.00292362 -0.00108662 -0.000653851
-0.00108662 0.00129156 0.000279333
-0.000653851 0.000279333 -0.00348755
0.00123658 0.00122957 0.00124521
0.00122957 0.00720431 -0.000335351
0.00124521 -0.000335351 0.00229628
0.00358181 0.000710363 -5.5074e-05
0.000710363 -0.000804784 1.26431e-05
-5.5074e-05 1.26431e-05 0.000295006
0.00317416 -0.000551556 9.73197e-05
-0.000551556 -0.000200305 1.20448e-05
9.73197e-05 1.20448e-05 2.4368e-06
0.00107591 -0.000398136 0.000332536
-0.000398136 -0.00568673 -5.35564e-05
0.000332536 -5.35564e-05 -0.00697009
0.0249057 0.00379225 -0.00107606
0.00379225 0.0110274 7.53942e-05
-0.00107606 7.53942e-05 0.00732499
0.00922857 0.0104951 -0.00261088
0.0104951 0.00699494 0.0016208
-0.00261088 0.0016208 0.00242369
0.00507976 -0.000793949 3.79945e-05
-0.000793949 -0.000608822 5.65545e-06
3.79945e-05 5.65545e-06 0.00036143
0.00847029 -0.00279024 0.00019612
-0.00279024 -0.00266564 -0.000158761
0.00019612 -0.000158761 -0.00468101
0.0213946 0.00628509 -0.000376738
0.00628509 0.00727244 -0.000123868
-0.000376738 -0.000123868 0.00239138
0.0168753 0.00488649 4.99278e-05
0.00488649 0.00431298 0.000437651
4.99278e-05 0.000437651 0.00127665
0.00171973 -0.0020289 -0.000120945
-0.0020289 -0.00360976 3.7737e-05
-0.000120945 3.7737e-05 -0.00202646
0.00665418 -0.00440835 0.00051529
-0.00440835 -0.000226123 -0.000239966
0.00051529 -0.000239966 -0.0038014
0.010094 0.00371738 5.16666e-05
0.00371738 0.00272004 -0.000910072
5.16666e-05 -0.000910072 -0.00230344
0.00912552 0.000472443 -0.000339096
0.000472443 -0.00178465 2.49546e-05
-0.000339096 2.49546e-05 -0.00133864
0.00247424 -7.80581e-05 9.95669e-07
-7.80581e-05 0.00143769 1.77463e-05
9.95669e-07 1.77463e-05 0.00115959
0.000282468 9.29597e-05 -1.61013e-06
9.29597e-05 -2.92337e-05 -2.24051e-06
-1.61013e-06 -2.24051e-06 -0.000175442
0.000523155 0.000106852 2.80832e-06
0.000106852 7.54761e-05 -7.29451e-07
2.80832e-06 -7.29451e-07 -2.77927e-05
7.05817e-05 -1.78207e-05 5.40222e-06
-1.78207e-05 -0.000154351 -3.65251e-06
5.40222e-06 -3.65251e-06 -0.00025457
0.000440698 0.000112471 4.17095e-06
0.000112471 3.38525e-05 6.96035e-06
4.17095e-06 6.96035e-06 -0.00015177
0.000461347 5.24555e-05 -8.15951e-08
5.24555e-05 6.57087e-05 1.82316e-06
-8.15951e-08 1.82316e-06 -9.18781e-05
0.000170214 2.52967e-05 1.54686e-06
2.52967e-05 -0.000119448 -3.59865e-06
1.54686e-06 -3.59865e-06 -0.000251738
0.00090528 0.000185298 5.9194e-06
0.000185298 0.000346987 9.51166e-06
5.9194e-06 9.51166e-06 0.000166266
0.000916429 0.000141773 -2.91758e-07
0.000141773 0.000364819 -5.21273e-07
-2.91758e-07 -5.21273e-07 0.000186464
0.00033656 -9.35545e-06 -3.81258e-06
-9.35545e-06 -2.33226e-05 -6.73531e-06
-3.81258e-06 -6.73531e-06 -0.00016002
0.000437554 -0.000524911 9.26498e-05
-0.000524911 -0.00140785 -5.12672e-05
9.26498e-05 -5.12672e-05 -0.00100637
0.000108569 -0.000676568 7.431e-06
-0.000676568 -0.000978542 -6.63821e-06
7.431e-06 -6.63821e-06 -0.000964876
0.00129654 -0.00095717 -1.4322e-05
-0.00095717 -0.000282379 2.28045e-05
-1.4322e-05 2.28045e-05 -0.000371548
-0.00118724 -0.000752347 3.56995e-06
-0.000752347 -0.00102806 -1.70163e-06
3.56995e-06 -1.70163e-06 -0.00136088
0.00345194 -0.000490316 -3.22774e-05
-0.000490316 0.00217247 7.49007e-05
-3.22774e-05 7.49007e-05 0.00162534
0.000881546 -0.000221988 -2.61303e-06
-0.000221988 0.000549368 7.03562e-06
-2.61303e-06 7.03562e-06 0.000222902
0.000390751 0.000121321 -2.15356e-06
0.000121321 0.000121855 -1.65431e-05
-2.15356e-06 -1.65431e-05 -0.000125323
0.000706612 -4.4915e-05 -3.29535e-06
-4.4915e-05 0.000318676 8.9237e-06
-3.29535e-06 8.9237e-06 3.72137e-05
0.00201948 -0.000944035 -1.49288e-05
-0.000944035 -0.000152006 -2.48949e-06
-1.49288e-05 -2.48949e-06 -0.000183841
0.000743383 -4.02447e-05 1.36721e-06
-4.02447e-05 0.000387085 4.62655e-06
1.36721e-06 4.62655e-06 0.000102566
0.00231177 -0.000335932 3.00944e-06
-0.000335932 0.00141806 -2.53262e-06
3.00944e-06 -2.53262e-06 0.00100541
0.0013928 -0.000820435 1.07899e-05
-0.000820435 -5.93995e-06 1.07783e-06
1.07899e-05 1.07783e-06 -4.10637e-05
0.000487135 -0.00068805 -3.57005e-05
-0.00068805 0.000251244 9.44173e-06
-3.57005e-05 9.44173e-06 -0.00013944
0.00209755 -0.00163409 6.70962e-05
-0.00163409 1.19829e-05 -2.6944e-05
6.70962e-05 -2.6944e-05 -0.000163192
-0.000165588 -0.000556975 -4.82051e-06
-0.000556975 -0.000295829 2.30244e-05
-4.82051e-06 2.30244e-05 -0.000398562
-0.00159553 -0.000101313 1.78729e-05
-0.000101313 -0.000684911 -2.04724e-06
1.78729e-05 -2.04724e-06 -0.00116961
0.00052367 5.30024e-05 -4.23445e-06
5.30024e-05 0.000195588 5.80984e-06
-4.23445e-06 5.80984e-06 -1.70848e-05
0.000361277 -4.85246e-05 3.5532e-06
-4.85246e-05 0.000277105 -3.67749e-06
3.5532e-06 -3.67749e-06 -6.30967e-05
0.00136538 0.000182419 -6.02184e-05
0.000182419 0.0020067 -2.32825e-05
-6.02184e-05 -2.32825e-05 -0.00237025
-0.00714068 0.000456869 -0.000433211
0.000456869 0.00690966 -2.14906e-05
-0.000433211 -2.14906e-05 0.00137746
-0.0136736 -0.00295523 -0.000844903
-0.00295523 -0.00498006 -6.09576e-06
-0.000844903 -6.09576e-06 -0.00632084
-0.000351388 0.000259436 1.3057e-05
0.000259436 -0.000298581 -3.7857e-06
1.3057e-05 -3.7857e-06 -0.000564137
-0.00089941 0.000544388 -2.0141e-06
0.000544388 -0.000597334 1.03344e-05
-2.0141e-06 1.03344e-05 -0.00104813
0.00256929 0.00113438 3.98836e-05
0.00113438 0.000717513 3.3872e-05
3.98836e-05 3.3872e-05 0.000514052
-0.00528923 0.00220839 0.000104445
0.00220839 0.00706898 6.19649e-05
0.000104445 6.19649e-05 0.00205923
0.00682339 0.00435059 -0.000373399
0.00435059 -0.000197756 -0.000190669
-0.000373399 -0.000190669 -0.00340965
0.000955754 0.00231223 0.000451913
0.00231223 -3.54405e-05 0.000172323
0.000451913 0.000172323 -8.87561e-05
-0.000256922 0.00100298 6.26309e-06
0.00100298 -9.30105e-05 -4.90895e-05
6.26309e-06 -4.90895e-05 -0.00039861
0.0288352 -0.00405222 -0.000152161
-0.00405222 0.00972711 -0.000422873
-0.000152161 -0.000422873 0.00545213
0.00692667 0.00198065 0.000656615
0.00198065 0.00342965 0.000234115
0.000656615 0.000234115 -0.00264521
0.0139703 -0.00167352 0.000180168
-0.00167352 0.00249452 4.85898e-05
0.000180168 4.85898e-05 0.00379875
0.00137121 0.000612188 5.296e-06
0.000612188 0.000717884 -1.5845e-06
5.296e-06 -1.5845e-06 0.000380703
0.00384829 0.000753435 -2.24189e-05
0.000753435 0.00348094 1.10586e-05
-2.24189e-05 1.10586e-05 -0.000548418
0.00187363 0.000916485 8.32985e-05
0.000916485 0.000194829 -4.07559e-06
8.32985e-05 -4.07559e-06 -0.00150148
-0.000466775 0.000547706 -2.11134e-06
0.000547706 -0.000107028 -5.45492e-06
-2.11134e-06 -5.45492e-06 -0.000473101
-0.000192732 0.00146133 -0.000128026
0.00146133 0.000694371 -6.66388e-05
-0.000128026 -6.66388e-05 -0.000600233
0.00205614 0.00539079 0.000258318
0.00539079 0.0010584 0.000121416
0.000258318 0.000121416 -0.00338741
0.0104134 -0.000225308 3.91238e-06
-0.000225308 -0.00349305 -0.000223769
3.91238e-06 -0.000223769 -0.000774197
0.00691833 -0.0026948 -8.60637e-05
-0.0026948 0.00403173 -0.00018167
-8.60637e-05 -0.00018167 -0.00141308
0.00101587 0.000488285 -7.70116e-06
0.000488285 0.000832537 -1.51815e-05
-7.70116e-06 -1.51815e-05 0.000440039
-0.00343025 0.000349083 2.10407e-05
0.000349083 0.000227719 3.74403e-05
2.10407e-05 3.74403e-05 -0.000510655
0.00571808 -0.000362321 0.000151639
-0.000362321 -0.000142976 -0.000155302
0.000151639 -0.000155302 -0.00154512
0.00891374 0.000612861 0.000317114
0.000612861 -0.0016881 -1.90011e-05
0.000317114 -1.90011e-05 -0.00116105
-0.00277797 0.000174207 4.88393e-05
0.000174207 -7.81582e-05 -2.49029e-05
4.88393e-05 -2.49029e-05 -0.000960396
0.01237 0.00379354 0.000368782
0.00379354 0.00625212 0.00010194
0.000368782 0.00010194 0.000577688
0.00375586 -0.000688428 1.05822e-06
-0.000688428 0.0031358 0.000413209
1.05822e-06 0.000413209 -0.000823848
0.00316771 0.000494927 2.69189e-05
0.000494927 0.00194587 1.2027e-05
2.69189e-05 1.2027e-05 0.00166012
0.000389158 0.000241108 -7.02792e-06
0.000241108 0.000445373 -1.80332e-06
-7.02792e-06 -1.80332e-06 6.33505e-05
0.000238063 0.000213284 4.24536e-06
0.000213284 0.000519956 -4.42731e-06
4.24536e-06 -4.42731e-06 3.01446e-05
0.000332484 0.000130038 1.52314e-06
0.000130038 2.23296e-05 -2.85351e-06
1.52314e-06 -2.85351e-06 -0.000182487
0.000618482 0.000105062 1.05534e-06
0.000105062 0.000255477 9.68276e-07
1.05534e-06 9.68276e-07 6.14736e-05
0.00011619 -4.94674e-06 6.94918e-06
-4.94674e-06 0.000356428 -3.67226e-06
6.94918e-06 -3.67226e-06 -8.28647e-05
0.000500305 3.66122e-05 1.9128e-07
3.66122e-05 0.000168327 -8.00528e-07
1.9128e-07 -8.00528e-07 -1.55675e-05
0.000808816 -4.10584e-05 -5.30679e-07
-4.10584e-05 0.000743801 -2.56709e-06
-5.30679e-07 -2.56709e-06 0.000326935
-4.53408e-05 2.78303e-05 7.73062e-08
2.78303e-05 0.000392135 -5.36749e-07
7.73062e-08 -5.36749e-07 -0.000124036
-5.41132e-05 -3.48799e-05 -1.93065e-06
-3.48799e-05 0.000353833 1.31371e-05
-1.93065e-06 1.31371e-05 -9.44398e-05
0.000327147 -3.26455e-05 -1.2771e-06
-3.26455e-05 0.000390304 -8.5264e-06
-1.2771e-06 -8.5264e-06 6.53532e-05
3.72201e-05 -6.12119e-05 5.46365e-06
-6.12119e-05 -0.000140358 9.24144e-06
5.46365e-06 9.24144e-06 -0.000293918
0.00118111 -4.92032e-05 5.02874e-07
-4.92032e-05 0.000522519 4.22674e-06
5.02874e-07 4.22674e-06 0.000366596
0.00121813 -7.84138e-05 -1.55488e-05
-7.84138e-05 0.000583735 1.31896e-05
-1.55488e-05 1.31896e-05 0.000450688
0.000739912 -9.38715e-05 5.08797e-06
-9.38715e-05 0.000442074 -5.39084e-07
5.08797e-06 -5.39084e-07 0.000276392
0.00036449 -5.35201e-05 -1.234e-06
-5.35201e-05 4.05406e-05 -1.50781e-06
-1.234e-06 -1.50781e-06 -9.43016e-05
0.00067212 -0.000222001 -7.2124e-07
-0.000222001 0.000214671 4.42086e-06
-7.2124e-07 4.42086e-06 7.72868e-05
0.000311916 -0.000184751 -1.54363e-05
-0.000184751 -8.05765e-05 -4.82547e-07
-1.54363e-05 -4.82547e-07 -0.000132368
-0.000980638 -0.000287761 1.19449e-05
-0.000287761 -0.000814292 2.32503e-05
1.19449e-05 2.32503e-05 -0.00112077
6.5024e-05 -0.000148786 4.79473e-06
-0.000148786 -0.000223473 -5.57038e-07
4.79473e-06 -5.57038e-07 -0.000339147
0.00116089 -0.000312569 -4.67752e-06
-0.000312569 0.000369982 1.16586e-05
-4.67752e-06 1.16586e-05 0.000171851
0.00218106 -0.000636281 -6.88461e-06
-0.000636281 0.000922457 1.44393e-05
-6.88461e-06 1.44393e-05 0.000521596
0.00179858 -0.000610335 -7.24154e-06
-0.000610335 0.00058944 -5.97277e-07
-7.24154e-06 -5.97277e-07 0.000166344
0.00169636 -0.000418875 7.17712e-07
-0.000418875 0.000700255 1.23463e-06
7.17712e-07 1.23463e-06 0.00043889
0.000547905 -0.000390668 9.23746e-06
-0.000390668 -8.24403e-05 -4.17391e-06
9.23746e-06 -4.17391e-06 -0.000385749
0.00124371 -0.000192221 2.52125e-06
-0.000192221 0.000578453 -3.26432e-06
2.52125e-06 -3.26432e-06 0.000296183
0.00113561 -0.000233964 -8.53803e-06
-0.000233964 0.000447991 2.01657e-06
-8.53803e-06 2.01657e-06 0.000229892
-0.000275715 -0.000133848 1.78209e-05
-0.000133848 -0.000488706 -1.70494e-05
1.78209e-05 -1.70494e-05 -0.000597143
0.001269 -0.000123737 -2.13423e-06
-0.000123737 0.000553264 1.84225e-06
-2.13423e-06 1.84225e-06 0.000359379
0.00024462 -9.42017e-05 8.24936e-07
-9.42017e-05 -2.93039e-05 8.97383e-08
8.24936e-07 8.97383e-08 -0.000262948
0.000266817 -5.56309e-05 1.07496e-06
-5.56309e-05 -9.76689e-05 5.66889e-07
1.07496e-06 5.66889e-07 -0.000257017
0.00168011 -0.000264424 -2.19848e-06
-0.000264424 0.000858531 -4.1381e-07
-2.19848e-06 -4.1381e-07 0.000641927
0.000672275 -0.000109082 -3.44897e-07
-0.000109082 0.000166803 -2.17894e-08
-3.44897e-07 -2.17894e-08 1.68368e-05
0.000377408 5.93564e-06 2.55669e-06
5.93564e-06 -3.51616e-05 4.37938e-06
2.55669e-06 4.37938e-06 -0.000138708
0.000811972 -0.000151045 -7.82594e-08
-0.000151045 0.000267633 -2.10067e-06
-7.82594e-08 -2.10067e-06 0.000118338
0.000465463 4.90985e-06 -2.21778e-06
4.90985e-06 1.88364e-05 -1.88312e-07
-2.21778e-06 -1.88312e-07 -7.69011e-05
0.00144548 1.49935e-06 -1.90093e-05
1.49935e-06 0.000601613 5.56306e-06
-1.90093e-05 5.56306e-06 0.000575345
0.000586568 -7.10826e-05 2.29819e-06
-7.10826e-05 9.42776e-05 -4.75104e-06
2.29819e-06 -4.75104e-06 3.68575e-06
0.000873329 -1.18998e-05 -9.32337e-06
-1.18998e-05 0.000239931 5.51983e-07
-9.32337e-06 5.51983e-07 0.000212629
0.000839238 3.09832e-05 4.71672e-07
3.09832e-05 0.000206062 3.20907e-06
4.71672e-07 3.20907e-06 0.000204691
0.000443505 -2.97407e-05 3.08615e-06
-2.97407e-05 -2.89334e-05 -6.3106e-06
3.08615e-06 -6.3106e-06 -5.74929e-05
0.00174137 3.18407e-05 1.53004e-05
3.18407e-05 0.000783971 -1.25314e-06
1.53004e-05 -1.25314e-06 0.000790524
0.00254611 2.33934e-05 1.88804e-05
2.33934e-05 0.00129605 -5.52478e-06
1.88804e-05 -5.52478e-06 0.00130844
0.000301346 2.08458e-05 2.03557e-06
2.08458e-05 -6.23666e-05 2.47778e-06
2.03557e-06 2.47778e-06 -0.000199695
0.0001282 2.1589e-05 2.55794e-07
2.1589e-05 -0.000210163 -3.83915e-06
2.55794e-07 -3.83915e-06 -0.000276673
0.000611136 5.71389e-05 1.0899e-07
5.71389e-05 0.000127291 2.56188e-07
1.0899e-07 2.56188e-07 9.91967e-06
0.000454594 6.43783e-06 1.85615e-06
6.43783e-06 -3.70651e-05 -3.98312e-06
1.85615e-06 -3.98312e-06 -4.95608e-05
0.000315973 7.88006e-06 1.67591e-06
7.88006e-06 -9.33742e-05 5.25577e-08
1.67591e-06 5.25577e-08 -0.000149641
0.00022585 -9.50656e-05 -1.06712e-06
-9.50656e-05 -0.000114093 -5.02751e-07
-1.06712e-06 -5.02751e-07 -0.000219216
0.00206774 -3.48472e-06 -1.22579e-05
-3.48472e-06 0.00098916 -4.93299e-06
-1.22579e-05 -4.93299e-06 0.00100663
0.000448983 4.90801e-06 2.1171e-08
4.90801e-06 -3.93288e-05 -6.68356e-08
2.1171e-08 -6.68356e-08 -4.99561e-05
0.000421248 -1.40868e-05 -3.17436e-06
-1.40868e-05 -2.46017e-05 2.49452e-06
-3.17436e-06 2.49452e-06 -7.40397e-05
0.00203655 1.20102e-05 -4.79476e-06
1.20102e-05 0.000970846 5.46476e-09
-4.79476e-06 5.46476e-09 0.000987993
0.000443623 5.78209e-06 -1.73875e-06
5.78209e-06 -4.15069e-05 3.32379e-06
-1.73875e-06 3.32379e-06 -5.18439e-05
0.00201548 2.72522e-05 2.3773e-06
2.72522e-05 0.000959588 4.945e-06
2.3773e-06 4.945e-06 0.000975635
-0.000474205 -0.000960847 -0.000274181
-0.000960847 -0.000125777 0.000110581
-0.000274181 0.000110581 -0.00364397
0.00225649 0.000864013 -0.000139659
0.000864013 0.00838472 3.16075e-05
-0.000139659 3.16075e-05 0.00363077
0.00284201 0.000128485 -0.00102384
0.000128485 0.00410441 0.00022566
-0.00102384 0.00022566 0.00210512
0.000712129 0.000124998 7.15481e-06
0.000124998 0.000195244 7.13587e-06
7.15481e-06 7.13587e-06 3.37826e-05
0.00547378 -0.00106501 -0.000125027
-0.00106501 0.00339806 0.000268194
-0.000125027 0.000268194 0.00108843
0.00422559 -0.0013992 -0.000295981
-0.0013992 0.00182674 2.96768e-05
-0.000295981 2.96768e-05 -0.00297547
0.0132902 0.00429274 0.00033998
0.00429274 0.00870056 -0.000387946
0.00033998 -0.000387946 0.00364686
0.00760004 -0.00125195 0.000137514
-0.00125195 0.000633717 -2.18849e-05
0.000137514 -2.18849e-05 0.00114182
0.0133043 -0.00265847 0.000286874
-0.00265847 0.000888543 -0.00016461
0.000286874 -0.00016461 0.000100861
0.0119208 0.0051423 -0.000781892
0.0051423 0.00195212 0.00044095
-0.000781892 0.00044095 -0.00257191
0.0146331 0.00454038 0.000153209
0.00454038 0.00611496 0.000250519
0.000153209 0.000250519 0.00305643
0.00778674 -0.0026089 -0.000116114
-0.0026089 2.71074e-05 -3.71439e-06
-0.000116114 -3.71439e-06 0.000757656
0.0166592 -0.00485994 2.26098e-05
-0.00485994 0.00341642 -3.79214e-05
2.26098e-05 -3.79214e-05 0.000893888
0.00941027 0.00297289 0.000136258
0.00297289 0.00410856 -0.000384879
0.000136258 -0.000384879 -0.000976741
0.013105 0.0012805 5.80998e-06
0.0012805 0.00014403 4.64086e-05
5.80998e-06 4.64086e-05 -0.000101657
0.00280421 -0.00264722 -6.95453e-05
-0.00264722 4.18762e-05 8.59516e-05
-6.95453e-05 8.59516e-05 0.000272645
0.010253 -0.00491916 0.000200319
-0.00491916 0.00435002 -0.000114089
0.000200319 -0.000114089 9.33704e-05
0.0102712 -0.00032028 0.000118202
-0.00032028 0.00535444 -0.000477851
0.000118202 -0.000477851 0.00194919
0.0127767 0.000135125 -0.00016095
0.000135125 -0.00120557 0.00028083
-0.00016095 0.00028083 0.000713514
0.000404354 8.43172e-05 6.54998e-06
8.43172e-05 0.00010822 1.42462e-05
6.54998e-06 1.42462e-05 -0.000105579
0.000639681 -0.000127398 6.09333e-07
-0.000127398 0.000270504 3.42502e-08
6.09333e-07 3.42502e-08 2.31711e-05
0.000800097 0.000113989 2.36112e-06
0.000113989 0.000313625 -4.84878e-06
2.36112e-06 -4.84878e-06 0.000155816
0.000514037 0.000147159 4.42833e-06
0.000147159 4.5641e-05 1.41146e-05
4.42833e-06 1.41146e-05 -9.94252e-05
0.000837509 0.000203458 2.40821e-07
0.000203458 0.000316204 3.1787e-07
2.40821e-07 3.1787e-07 0.000115931
0.001084 0.000117277 -4.52933e-06
0.000117277 0.000478968 -5.36741e-06
-4.52933e-06 -5.36741e-06 0.000312457
0.00106473 0.000181704 -1.58678e-06
0.000181704 0.000452224 3.93132e-08
-1.58678e-06 3.93132e-08 0.000267556
0.00106434 0.000192724 1.12778e-06
0.000192724 0.000476827 1.52265e-06
1.12778e-06 1.52265e-06 0.000287598
0.000746892 -0.00072328 0.000130339
-0.00072328 -0.000923204 -7.4205e-05
0.000130339 -7.4205e-05 -0.000720333
8.26157e-05 -0.000709443 -3.44347e-05
-0.000709443 -0.000811223 -8.8445e-07
-3.44347e-05 -8.8445e-07 -0.0007524
0.000893301 -0.000223711 4.83828e-06
-0.000223711 0.000452304 -3.14941e-05
4.83828e-06 -3.14941e-05 0.000153799
0.00188318 -0.00073944 2.28082e-05
-0.00073944 0.000989025 -2.11079e-05
2.28082e-05 -2.11079e-05 0.000635836
0.00247723 -0.000503406 -2.26849e-05
-0.000503406 0.00145607 2.33566e-05
-2.26849e-05 2.33566e-05 0.00104773
0.00164728 -0.000167199 6.54137e-06
-0.000167199 0.000937259 -2.2433e-05
6.54137e-06 -2.2433e-05 0.000633688
6.4504e-05 -8.94163e-07 3.69221e-06
-8.94163e-07 -9.77869e-05 7.229e-06
3.69221e-06 7.229e-06 -0.000306962
0.000726405 -0.00138509 -8.88892e-06
-0.00138509 -0.000555331 -5.69637e-06
-8.88892e-06 -5.69637e-06 -0.000713214
0.00138151 -1.96532e-05 -9.77735e-07
-1.96532e-05 0.000903053 -3.65933e-07
-9.77735e-07 -3.65933e-07 0.000557256
3.68817e-05 -0.000240976 -5.73769e-06
-0.000240976 0.000194617 6.66181e-06
-5.73769e-06 6.66181e-06 -0.000255967
-0.00052374 -0.000441483 2.37502e-05
-0.000441483 -0.000562696 -8.02838e-07
2.37502e-05 -8.02838e-07 -0.000544747
0.000837307 0.000118794 3.08795e-06
0.000118794 0.000390252 8.49574e-06
3.08795e-06 8.49574e-06 0.000198562
0.000157228 -0.00133135 -7.16595e-05
-0.00133135 -0.000135291 -2.62774e-05
-7.16595e-05 -2.62774e-05 -0.000519226
-0.00106887 -0.000460673 -1.92418e-05
-0.000460673 -0.00048954 2.66628e-05
-1.92418e-05 2.66628e-05 -0.000830846
0.00014137 0.000159474 1.32372e-05
0.000159474 0.000451593 -2.31666e-05
1.32372e-05 -2.31666e-05 -7.26841e-05
0.00155548 0.00025899 -1.01064e-06
0.00025899 0.0010672 4.04814e-08
-1.01064e-06 4.04814e-08 0.000726052
-0.00119636 0.000118583 0.00014822
0.000118583 0.00190936 3.30172e-05
0.00014822 3.30172e-05 0.000759675
0.00030401 -3.50992e-06 0.000174429
-3.50992e-06 0.00126328 -3.56659e-05
0.000174429 -3.56659e-05 -0.00318494
-0.012405 -0.000402698 -0.000312838
-0.000402698 0.00640586 2.85799e-05
-0.000312838 2.85799e-05 0.000608446
0.00175008 0.000633387 2.08464e-05
0.000633387 0.00102826 3.57103e-06
2.08464e-05 3.57103e-06 0.000685386
-0.000579885 0.000773468 1.38732e-05
0.000773468 -0.000200381 1.07516e-05
1.38732e-05 1.07516e-05 -0.000693527
0.00569764 0.0010178 0.000376525
0.0010178 0.00403305 7.97545e-05
0.000376525 7.97545e-05 0.00119477
0.00818283 0.00417873 0.000251434
0.00417873 0.00301816 0.000211694
0.000251434 0.000211694 -0.00112867
0.00431589 0.00280555 -0.000121634
0.00280555 0.00243439 -0.000113989
-0.000121634 -0.000113989 0.000955826
0.0042476 -0.00234905 -0.000168056
-0.00234905 0.00454567 -0.000475784
-0.000168056 -0.000475784 0.000288045
0.00298193 0.00073923 0.000142888
0.00073923 0.000479629 0.000187836
0.000142888 0.000187836 -0.00120989
0.00826441 -0.00033608 -5.17709e-05
-0.00033608 -0.00548371 -0.000248045
-5.17709e-05 -0.000248045 -0.00236058
0.00100624 0.000572765 4.9668e-06
0.000572765 0.000777924 1.07566e-06
4.9668e-06 1.07566e-06 0.000349289
-0.00280937 0.000170507 -2.73325e-06
0.000170507 0.000331583 4.21911e-06
-2.73325e-06 4.21911e-06 -0.0005565
0.00491224 -0.00020458 0.000131833
-0.00020458 -0.000204064 2.05992e-05
0.000131833 2.05992e-05 -0.0010023
-0.00186464 0.000495258 -1.63322e-05
0.000495258 -0.00021297 -1.18161e-05
-1.63322e-05 -1.18161e-05 -0.00100651
0.0128717 0.00145674 -1.09786e-06
0.00145674 0.000126532 -5.07695e-05
-1.09786e-06 -5.07695e-05 -0.000117642
0.00303615 0.00215933 0.000254939
0.00215933 0.00424232 0.000152563
0.000254939 0.000152563 -0.00168709
0.00817355 0.000737958 -0.000189081
0.000737958 0.0034438 6.18555e-06
-0.000189081 6.18555e-06 -0.000580994
0.000282677 0.000483335 8.3529e-06
0.000483335 0.000547455 -2.28463e-05
8.3529e-06 -2.28463e-05 -2.8834e-05
0.00177797 -2.73867e-05 7.33708e-07
-2.73867e-05 0.000569229 -9.29732e-06
7.33708e-07 -9.29732e-06 -0.000112277
0.0040391 -0.00144437 0.000111517
-0.00144437 0.00339024 -0.000258753
0.000111517 -0.000258753 0.00137988
0.022413 0.00539291 0.000330656
0.00539291 0.00726508 -0.000304192
0.000330656 -0.000304192 0.00430433
0.00973059 -0.000248065 -0.000132464
-0.000248065 0.00561352 0.000505593
-0.000132464 0.000505593 0.00191992
-0.000288794 0.000474447 -3.99749e-05
0.000474447 0.000719028 -0.000136842
-3.99749e-05 -0.000136842 -6.78179e-05
0.0047162 0.00137348 0.000277441
0.00137348 0.00658388 2.76874e-05
0.000277441 2.76874e-05 -0.00213286
0.00127573 0.000378698 8.83693e-06
0.000378698 0.00095137 1.16477e-05
8.83693e-06 1.16477e-05 0.000548866
0.000707357 0.000278496 4.38075e-06
0.000278496 0.000790762 3.69473e-06
4.38075e-06 3.69473e-06 0.000321935
0.000566467 -4.45624e-05 -1.15589e-05
-4.45624e-05 0.000880545 7.39527e-06
-1.15589e-05 7.39527e-06 0.000465218
-0.000775441 -1.97128e-05 2.1126e-06
-1.97128e-05 -0.000640554 -4.82974e-07
2.1126e-06 -4.82974e-07 -0.0008087
5.66517e-05 -2.71224e-05 4.04102e-06
-2.71224e-05 0.000339569 2.21639e-06
4.04102e-06 2.21639e-06 -0.00011811
-7.04788e-05 4.30639e-05 2.8383e-06
4.30639e-05 0.000398222 -6.91614e-06
2.8383e-06 -6.91614e-06 -0.000131825
0.000113416 -2.81157e-05 1.45173e-07
-2.81157e-05 0.000201738 7.66646e-07
1.45173e-07 7.66646e-07 -7.02555e-05
-0.000102324 -4.83643e-05 2.6122e-06
-4.83643e-05 0.000314265 1.33857e-06
2.6122e-06 1.33857e-06 -0.000134418
0.00172045 -0.000411815 5.59566e-06
-0.000411815 0.0011512 -1.01823e-05
5.59566e-06 -1.01823e-05 0.000807001
0.000460615 -8.09552e-05 -5.53979e-06
-8.09552e-05 0.00025925 6.06768e-06
-5.53979e-06 6.06768e-06 9.96265e-05
0.000112069 6.43514e-06 -8.28268e-08
6.43514e-06 -0.000109748 2.65102e-06
-8.28268e-08 2.65102e-06 -0.000242183
0.00129227 -0.000304369 3.73164e-07
-0.000304369 0.000591935 5.89925e-06
3.73164e-07 5.89925e-06 0.000414719
-0.00345472 -6.32988e-05 1.95342e-05
-6.32988e-05 -0.00206763 2.37486e-05
1.95342e-05 2.37486e-05 -0.0024118
-0.000599043 -0.000100625 1.57625e-05
-0.000100625 -0.000542294 -2.05191e-06
1.57625e-05 -2.05191e-06 -0.000556092
-0.000131782 -0.000348337 -1.53967e-06
-0.000348337 -0.000352164 -5.92351e-06
-1.53967e-06 -5.92351e-06 -0.000621773
0.00142556 -0.000605884 -1.91527e-06
-0.000605884 0.000429313 1.03692e-06
-1.91527e-06 1.03692e-06 -7.55351e-05
0.00176257 -0.000716225 -9.98807e-06
-0.000716225 0.000522426 1.28521e-06
-9.98807e-06 1.28521e-06 4.60075e-05
0.00156648 -0.000369745 6.5429e-06
-0.000369745 0.00060262 -5.68407e-06
6.5429e-06 -5.68407e-06 0.000385465
0.00139129 -0.00054053 7.37196e-07
-0.00054053 0.000431701 3.98003e-07
7.37196e-07 3.98003e-07 4.3463e-05
0.00163036 -0.000614593 3.22936e-06
-0.000614593 0.000445091 -3.91905e-06
3.22936e-06 -3.91905e-06 2.77271e-05
0.00151847 -0.000462595 -2.91283e-06
-0.000462595 0.000491953 8.45522e-06
-2.91283e-06 8.45522e-06 0.000162015
0.00105828 -0.000515422 2.25679e-06
-0.000515422 0.000141876 -4.56614e-06
2.25679e-06 -4.56614e-06 -0.000251771
0.00089411 -0.000199108 5.1034e-07
-0.000199108 0.000289655 -5.4668e-06
5.1034e-07 -5.4668e-06 2.47037e-05
0.00105327 -0.000367556 -5.40488e-06
-0.000367556 0.000306721 2.80082e-06
-5.40488e-06 2.80082e-06 3.96456e-05
-0.000929855 -0.000191492 1.96966e-06
-0.000191492 -0.000984643 -9.97935e-06
1.96966e-06 -9.97935e-06 -0.00122958
-6.33825e-05 -6.58853e-05 4.595e-07
-6.58853e-05 -0.000268801 -2.7124e-06
4.595e-07 -2.7124e-06 -0.000487481
0.000306992 -0.000151751 2.71713e-07
-0.000151751 2.3562e-05 2.14489e-07
2.71713e-07 2.14489e-07 -0.000257957
0.000132442 -0.000183272 1.2407e-05
-0.000183272 -0.000122952 4.96524e-07
1.2407e-05 4.96524e-07 -0.00035288
0.000745619 -0.0001459 -2.21245e-08
-0.0001459 0.000269898 1.30732e-06
-2.21245e-08 1.30732e-06 4.16777e-05
0.000698612 -0.000129205 1.1714e-07
-0.000129205 0.000187869 3.74031e-07
1.1714e-07 3.74031e-07 1.16431e-05
0.000496014 -1.31666e-05 1.28918e-06
-1.31666e-05 2.88812e-05 6.11907e-06
1.28918e-06 6.11907e-06 -8.46007e-05
0.00115792 -0.000170224 -1.25456e-06
-0.000170224 0.00049242 -9.94665e-07
-1.25456e-06 -9.94665e-07 0.000324094
0.000587792 -1.99651e-05 -1.25818e-06
-1.99651e-05 8.41601e-05 -3.40698e-07
-1.25818e-06 -3.40698e-07 -1.32489e-05
0.000375375 5.09227e-05 2.84538e-06
5.09227e-05 -6.63486e-05 7.42172e-06
2.84538e-06 7.42172e-06 -0.000106558
0.000711636 -7.36944e-05 1.67806e-06
-7.36944e-05 0.000164163 -3.74667e-06
1.67806e-06 -3.74667e-06 7.11509e-05
0.000443805 -2.46975e-06 -1.68081e-06
-2.46975e-06 -3.49221e-05 -7.85838e-08
-1.68081e-06 -7.85838e-08 -6.77182e-05
0.00266413 9.26461e-05 -1.7296e-06
9.26461e-05 0.00137268 2.69376e-06
-1.7296e-06 2.69376e-06 0.00137639
0.000469572 -2.20367e-05 3.17468e-06
-2.20367e-05 -1.6768e-05 -6.49469e-06
3.17468e-06 -6.49469e-06 -4.75938e-05
0.00178276 4.5482e-05 1.84134e-05
4.5482e-05 0.000809663 -1.04585e-06
1.84134e-05 -1.04585e-06 0.000814051
0.00264307 3.95488e-05 2.59664e-05
3.95488e-05 0.00135614 -5.7832e-06
2.59664e-05 -5.7832e-06 0.00136744
0.00025622 2.82837e-05 2.85787e-06
2.82837e-05 -0.000109328 1.75543e-06
2.85787e-06 1.75543e-06 -0.000234523
0.000202795 1.09517e-05 2.02832e-06
1.09517e-05 -0.000164574 -2.59604e-06
2.02832e-06 -2.59604e-06 -0.000242614
0.000455124 3.84929e-05 -5.17898e-07
3.84929e-05 2.94458e-05 -1.26625e-06
-5.17898e-07 -1.26625e-06 -0.000100782
0.000478142 7.99742e-06 1.64989e-06
7.99742e-06 -2.27283e-05 -4.48439e-06
1.64989e-06 -4.48439e-06 -3.83424e-05
0.000177573 1.86124e-05 -6.5976e-07
1.86124e-05 -0.000179727 -1.81409e-06
-6.5976e-07 -1.81409e-06 -0.000248442
0.000658398 5.99911e-05 -2.97678e-07
5.99911e-05 0.000170942 1.35669e-06
-2.97678e-07 1.35669e-06 4.40198e-05
0.00209405 -1.71458e-05 -1.75885e-05
-1.71458e-05 0.00100455 -4.85555e-06
-1.75885e-05 -4.85555e-06 0.00102184
0.000457276 4.20228e-06 -7.29999e-07
4.20228e-06 -3.59246e-05 -8.08637e-08
-7.29999e-07 -8.08637e-08 -4.80449e-05
9.26265e-05 1.7373e-05 1.41745e-06
1.7373e-05 -0.000231594 2.00638e-06
1.41745e-06 2.00638e-06 -0.000291824
0.0020557 -2.35392e-06 -4.11743e-06
-2.35392e-06 0.000981442 5.49308e-08
-4.11743e-06 5.49308e-08 0.000998997
0.000439286 4.33338e-06 -2.01028e-06
4.33338e-06 -4.60427e-05 3.58973e-06
-2.01028e-06 3.58973e-06 -5.63141e-05
0.0020807 1.35641e-05 8.00481e-06
1.35641e-05 0.000999386 5.01215e-06
8.00481e-06 5.01215e-06 0.00101609
0.000506176 -5.63846e-05 0.000159786
-5.63846e-05 0.0026847 7.28405e-05
0.000159786 7.28405e-05 0.00178289
-0.00036315 -0.000440799 -6.01828e-05
-0.000440799 0.000451384 -7.61396e-06
-6.01828e-05 -7.61396e-06 -0.00374601
0.000228129 0.000851359 -8.01223e-05
0.000851359 0.00799172 -5.605e-05
-8.01223e-05 -5.605e-05 0.00300099
0.000792239 0.000141166 8.18752e-07
0.000141166 0.00023103 2.23998e-07
8.18752e-07 2.23998e-07 8.18092e-05
4.17451e-05 8.58756e-05 7.27007e-06
8.58756e-05 -0.000247421 5.17903e-06
7.27007e-06 5.17903e-06 -0.000383563
0.00118529 0.000210888 1.22883e-05
0.000210888 0.000481684 9.49701e-06
1.22883e-05 9.49701e-06 0.000328671
0.00674388 -0.000539753 -0.000137194
-0.000539753 -0.000315248 0.000221066
-0.000137194 0.000221066 -0.00158027
0.00545136 -0.00133946 0.000110923
-0.00133946 0.00303275 1.34933e-05
0.000110923 1.34933e-05 0.001452
0.00463897 -0.00212687 0.00023308
-0.00212687 0.00192863 -0.000283109
0.00023308 -0.000283109 -0.0029029
0.00939207 -0.00316902 -5.50154e-06
-0.00316902 0.000154684 -4.45344e-05
-5.50154e-06 -4.45344e-05 0.00106266
0.00145783 -0.00389622 -0.000503492
-0.00389622 -0.00218063 8.5843e-05
-0.000503492 8.5843e-05 -0.00445856
0.0269787 0.00479081 0.000294346
0.00479081 0.0115975 0.000197229
0.000294346 0.000197229 0.0057464
0.00777153 -0.000332933 0.000340589
-0.000332933 -0.00244789 -0.00026749
0.000340589 -0.00026749 -0.00292088
0.00372956 -0.0030184 -2.92536e-05
-0.0030184 -0.000307023 1.79518e-05
-2.92536e-05 1.79518e-05 0.000401891
0.00742964 -0.00493951 -0.000148673
-0.00493951 0.00270284 2.16087e-05
-0.000148673 2.16087e-05 -0.00213306
-0.000434794 0.00401517 -9.76388e-05
0.00401517 0.00471089 -0.000333854
-9.76388e-05 -0.000333854 -0.000629262
0.0108261 -5.63449e-05 -9.33416e-05
-5.63449e-05 -0.00341092 0.000156267
-9.33416e-05 0.000156267 -0.000743735
0.000652236 -0.00208766 -0.000122349
-0.00208766 0.000790033 5.5115e-05
-0.000122349 5.5115e-05 0.000366488
0.0107844 -0.00340362 -0.000338865
-0.00340362 0.00603907 0.000207374
-0.000338865 0.000207374 0.000750366
0.000947714 -0.000225814 6.06721e-05
-0.000225814 0.00274787 -0.000348755
6.06721e-05 -0.000348755 -0.00134517
0.00942946 -0.000570778 0.000129991
-0.000570778 -0.0019137 8.44694e-05
0.000129991 8.44694e-05 -0.00129282
0.00013287 0.000104971 1.13236e-05
0.000104971 -0.00013362 2.41962e-05
1.13236e-05 2.41962e-05 -0.000274015
0.000674352 1.10005e-06 2.51079e-06
1.10005e-06 0.000252563 -2.96157e-06
2.51079e-06 -2.96157e-06 2.99555e-05
0.000295809 -0.000165211 2.92871e-06
-0.000165211 -2.48529e-05 -1.22739e-05
2.92871e-06 -1.22739e-05 -0.000232594
0.000642585 0.000144655 -1.94471e-06
0.000144655 0.000131571 1.94282e-06
-1.94471e-06 1.94282e-06 -2.10018e-05
0.000771684 0.000153279 1.77071e-06
0.000153279 0.000279592 -7.64548e-06
1.77071e-06 -7.64548e-06 8.98074e-05
0.00116725 0.000204747 -5.28249e-06
0.000204747 0.000517544 -5.86988e-06
-5.28249e-06 -5.86988e-06 0.000332183
-1.31084e-05 -0.00119261 4.08582e-05
-0.00119261 -0.000816533 -1.84536e-05
4.08582e-05 -1.84536e-05 -0.000943969
0.000996147 -0.000423918 2.24182e-05
-0.000423918 0.000263472 -2.23301e-05
2.24182e-05 -2.23301e-05 0.00030663
0.000159924 0.00010398 -2.37881e-06
0.00010398 -2.47102e-05 -1.99983e-05
-2.37881e-06 -1.99983e-05 -0.000253462
0.00259603 -0.000506245 6.84105e-05
-0.000506245 0.00159598 -2.79384e-05
6.84105e-05 -2.79384e-05 0.00119149
0.0018769 -0.000150862 1.23316e-06
-0.000150862 0.00114556 1.02025e-06
1.23316e-06 1.02025e-06 0.000837021
-0.000166382 0.000101331 4.65564e-06
0.000101331 -0.000162729 4.12437e-06
4.65564e-06 4.12437e-06 -0.000379995
0.000358312 8.42188e-05 1.4008e-06
8.42188e-05 0.000308038 2.44565e-07
1.4008e-06 2.44565e-07 1.79696e-05
0.000922423 -0.00138271 -4.35334e-05
-0.00138271 0.000204432 2.38043e-06
-4.35334e-05 2.38043e-06 -0.000253083
0.000161369 -3.59929e-05 -5.14094e-06
-3.59929e-05 0.000510566 3.55015e-06
-5.14094e-06 3.55015e-06 -3.88578e-05
0.000790473 -0.000396516 -1.01866e-05
-0.000396516 0.000659747 -6.1202e-06
-1.01866e-05 -6.1202e-06 0.000213023
0.000657878 0.000176693 4.74609e-06
0.000176693 0.00047497 -9.49869e-06
4.74609e-06 -9.49869e-06 0.000208669
-0.0018291 -0.000371163 -2.79784e-05
-0.000371163 3.79488e-05 -2.34213e-05
-2.79784e-05 -2.34213e-05 -0.000923993
0.00077636 -0.000236209 -2.87396e-05
-0.000236209 0.0010125 3.09677e-06
-2.87396e-05 3.09677e-06 0.000510655
-0.00118735 -1.48832e-05 -1.32077e-05
-1.48832e-05 -0.000144411 3.09931e-07
-1.32077e-05 3.09931e-07 -0.000674144
-0.00012607 0.000259052 -1.28117e-05
0.000259052 -0.000563435 3.00546e-06
-1.28117e-05 3.00546e-06 -0.00209975
-0.00195953 0.00028191 7.66607e-05
0.00028191 0.00164205 -1.12169e-05
7.66607e-05 -1.12169e-05 0.000452164
-0.000613798 -0.000151047 0.00036472
-0.000151047 0.000601333 3.46005e-05
0.00036472 3.46005e-05 -0.00383405
0.000234579 0.00056337 5.77701e-06
0.00056337 0.00030733 1.82085e-05
5.77701e-06 1.82085e-05 -0.000149553
0.000124444 0.000861894 -2.45454e-05
0.000861894 0.000422372 -1.50153e-05
-2.45454e-05 -1.50153e-05 -0.000294746
-0.00252353 0.000121432 -6.24996e-05
0.000121432 0.000434793 -2.75536e-05
-6.24996e-05 -2.75536e-05 -0.000604148
-0.00480173 0.000745152 8.64152e-05
0.000745152 0.00287949 0.000203281
8.64152e-05 0.000203281 -0.00272676
0.000580598 0.00102127 -0.000166838
0.00102127 -0.00145887 -0.000502916
-0.000166838 -0.000502916 -0.00642041
0.00410595 -3.2589e-05 9.40664e-05
-3.2589e-05 -0.00031615 8.73597e-05
9.40664e-05 8.73597e-05 -0.000563177
0.00709446 -0.000120899 -0.000329802
-0.000120899 -0.002365 0.000260494
-0.000329802 0.000260494 -0.00299902
0.000179072 0.000396918 -1.361e-06
0.000396918 0.000532942 -5.89729e-07
-1.361e-06 -5.89729e-07 3.21406e-05
0.00115718 5.23932e-05 3.6022e-05
5.23932e-05 0.000493341 -5.46473e-06
3.6022e-05 -5.46473e-06 -0.000170916
0.00453209 -0.00102479 -0.000105409
-0.00102479 0.00302376 -2.99344e-06
-0.000105409 -2.99344e-06 0.00138968
-0.000529501 0.000733409 -0.00014445
0.000733409 0.00130399 -8.77635e-06
-0.00014445 -8.77635e-06 -0.000256154
0.0161515 0.00543411 -3.1648e-05
0.00543411 0.00431837 -0.000428855
-3.1648e-05 -0.000428855 0.0012434
0.00105005 0.00348243 9.3289e-05
0.00348243 0.00498574 0.000348616
9.3289e-05 0.000348616 -0.000644404
0.00515325 0.000914737 6.55287e-05
0.000914737 0.00598653 -1.8265e-05
6.55287e-05 -1.8265e-05 -0.00151732
0.000369168 -8.70842e-07 3.72949e-05
-8.70842e-07 0.00139901 -2.44348e-05
3.72949e-05 -2.44348e-05 0.000262743
1.41869e-05 -0.000152617 -0.000145091
-0.000152617 0.00287641 3.08015e-06
-0.000145091 3.08015e-06 0.00176482
0.00172776 -0.000951268 0.000769959
-0.000951268 0.000613275 -0.000267457
0.000769959 -0.000267457 -0.00449285
0.0216485 0.00826394 -7.86166e-05
0.00826394 0.0146151 -1.17537e-05
-7.86166e-05 -1.17537e-05 0.0102896
0.0085871 0.0040689 -6.02841e-05
0.0040689 0.00284407 0.000883961
-6.02841e-05 0.000883961 -0.00213346
0.012111 -0.00387198 0.000323134
-0.00387198 0.00640911 -0.000258026
0.000323134 -0.000258026 0.000270383
0.0032239 -0.000807249 -7.02919e-05
-0.000807249 0.00331348 3.55413e-05
-7.02919e-05 3.55413e-05 0.00228736
0.000863909 0.000261484 -4.89052e-06
0.000261484 0.000895505 2.69179e-06
-4.89052e-06 2.69179e-06 0.000446923
-1.82037e-05 -6.29004e-05 -5.28094e-06
-6.29004e-05 0.000470239 -4.1952e-06
-5.28094e-06 -4.1952e-06 9.95096e-06
0.00118242 -0.000551709 4.48199e-05
-0.000551709 0.000929732 -1.23765e-05
4.48199e-05 -1.23765e-05 0.000374456
0.000273775 -7.59017e-05 -2.32167e-06
-7.59017e-05 0.000251427 6.52985e-06
-2.32167e-06 6.52985e-06 2.61943e-05
-0.000115126 -6.84713e-05 -2.45499e-06
-6.84713e-05 0.000270424 -1.57953e-05
-2.45499e-06 -1.57953e-05 -0.000151489
0.000545454 -0.000319687 -4.79999e-06
-0.000319687 0.000594918 3.8277e-07
-4.79999e-06 3.8277e-07 0.000231997
0.0012251 -0.000665977 2.54338e-05
-0.000665977 0.000552876 -1.70482e-05
2.54338e-05 -1.70482e-05 0.000221168
0.0018752 -0.000391693 1.00047e-06
-0.000391693 0.000972216 1.15703e-07
1.00047e-06 1.15703e-07 0.000735333
0.00154407 -0.00065446 1.57536e-05
-0.00065446 0.000688589 -2.83492e-06
1.57536e-05 -2.83492e-06 0.00026725
0.00120425 -0.000624949 8.23941e-06
-0.000624949 0.000492218 2.55604e-06
8.23941e-06 2.55604e-06 -0.000181659
0.000604908 -0.000370954 -5.95136e-06
-0.000370954 5.38947e-05 -8.09847e-06
-5.95136e-06 -8.09847e-06 -0.000164368
0.00212607 -0.000693014 -3.26315e-06
-0.000693014 0.000801681 -1.94996e-06
-3.26315e-06 -1.94996e-06 0.000297673
0.00191597 -0.000826538 -1.20416e-05
-0.000826538 0.000564111 -7.24832e-07
-1.20416e-05 -7.24832e-07 -3.63092e-05
0.00205785 -0.000913976 -1.38307e-05
-0.000913976 0.000489343 2.34032e-06
-1.38307e-05 2.34032e-06 -4.08636e-05
0.00191136 -0.000783977 -4.97643e-06
-0.000783977 0.000571453 4.89946e-07
-4.97643e-06 4.89946e-07 8.93557e-05
0.0016914 -0.000708619 -4.62851e-06
-0.000708619 0.000470301 9.18366e-07
-4.62851e-06 9.18366e-07 -7.81994e-06
0.00126041 -0.000529716 2.03748e-06
-0.000529716 0.000327383 -7.30013e-06
2.03748e-06 -7.30013e-06 -6.61219e-05
0.00143562 -0.000555837 8.64039e-06
-0.000555837 0.000400415 -2.48358e-06
8.64039e-06 -2.48358e-06 1.17575e-05
0.00162339 -0.000623093 6.55713e-06
-0.000623093 0.000444863 -1.65413e-06
6.55713e-06 -1.65413e-06 2.57442e-05
0.00108851 -0.000286966 4.84024e-07
-0.000286966 0.00029074 -1.22729e-07
4.84024e-07 -1.22729e-07 3.03141e-05
0.00114736 -0.000431889 5.69658e-06
-0.000431889 0.000259144 -4.66649e-06
5.69658e-06 -4.66649e-06 -6.3465e-05
0.00021012 -0.00040973 -2.70504e-06
-0.00040973 -0.000375923 -8.18513e-06
-2.70504e-06 -8.18513e-06 -0.000738366
7.91243e-05 -8.10658e-05 -1.15827e-07
-8.10658e-05 -0.000169637 -3.58898e-06
-1.15827e-07 -3.58898e-06 -0.000435366
0.00102902 -0.000239304 -3.83824e-07
-0.000239304 0.000388589 5.74451e-07
-3.83824e-07 5.74451e-07 0.000116638
0.000441407 -0.00031586 -3.63864e-06
-0.00031586 -6.97934e-05 -1.79847e-06
-3.63864e-06 -1.79847e-06 -0.00034138
0.000556703 -5.71947e-05 -2.38345e-07
-5.71947e-05 6.20418e-05 6.96455e-06
-2.38345e-07 6.96455e-06 -7.16048e-05
0.000774712 -0.000122532 -3.18793e-07
-0.000122532 0.000249654 5.0373e-08
-3.18793e-07 5.0373e-08 2.84355e-05
-0.000117892 -0.000120942 1.02346e-07
-0.000120942 -0.000235784 4.31907e-06
1.02346e-07 4.31907e-06 -0.000503816
0.00127575 -0.00015957 3.7979e-07
-0.00015957 0.00056214 -4.66459e-07
3.7979e-07 -4.66459e-07 0.000373014
0.00061717 -6.08068e-05 -4.48705e-07
-6.08068e-05 0.000104129 -3.28588e-07
-4.48705e-07 -3.28588e-07 -1.27749e-05
0.000329764 2.0905e-05 2.07092e-06
2.0905e-05 -9.08642e-05 9.77561e-06
2.07092e-06 9.77561e-06 -0.000137438
0.000705752 -6.82036e-05 5.75837e-07
-6.82036e-05 0.000157255 -4.5196e-06
5.75837e-07 -4.5196e-06 5.73598e-05
0.000466906 1.01297e-05 -3.41227e-06
1.01297e-05 -1.57846e-05 -3.02974e-07
-3.41227e-06 -3.02974e-07 -5.28576e-05
0.00286399 9.85888e-05 -4.0886e-05
9.85888e-05 0.00150662 4.85068e-06
-4.0886e-05 4.85068e-06 0.00151023
0.000486744 -1.38278e-05 3.0802e-06
-1.38278e-05 -1.0734e-05 -6.51174e-06
3.0802e-06 -6.51174e-06 -4.25337e-05
0.00179992 6.28292e-05 2.18728e-05
6.28292e-05 0.000822724 -7.44272e-07
2.18728e-05 -7.44272e-07 0.00082446
0.00276129 5.95815e-05 3.21653e-05
5.95815e-05 0.00143208 -5.40726e-06
3.21653e-05 -5.40726e-06 0.00144132
0.000858026 0.000110643 5.85078e-06
0.000110643 0.000281814 2.49791e-07
5.85078e-06 2.49791e-07 0.000135813
0.000509147 5.07282e-05 3.0404e-06
5.07282e-05 3.05867e-05 -2.14525e-06
3.0404e-06 -2.14525e-06 -5.43479e-05
0.000446485 5.16581e-05 -7.44286e-07
5.16581e-05 2.6706e-05 -1.40357e-06
-7.44286e-07 -1.40357e-06 -0.000111076
0.000471313 8.48159e-06 1.21284e-06
8.48159e-06 -2.704e-05 -5.51603e-06
1.21284e-06 -5.51603e-06 -4.74521e-05
0.000309739 4.13053e-05 -2.38688e-06
4.13053e-05 -9.52741e-05 -1.94882e-06
-2.38688e-06 -1.94882e-06 -0.000172887
0.000659713 8.28544e-05 -1.85881e-06
8.28544e-05 0.000163682 -3.55958e-06
-1.85881e-06 -3.55958e-06 3.23603e-05
0.00218707 -3.28345e-05 -2.12494e-05
-3.28345e-05 0.00106361 -4.93617e-06
-2.12494e-05 -4.93617e-06 0.00107957
0.000451347 -1.45988e-06 2.08543e-07
-1.45988e-06 -4.08274e-05 -1.46826e-07
2.08543e-07 -1.46826e-07 -5.57577e-05
0.000116365 1.60401e-05 -1.91004e-06
1.60401e-05 -0.000219041 2.60337e-07
-1.91004e-06 2.60337e-07 -0.000289026
0.00212913 -1.65691e-05 -5.62398e-06
-1.65691e-05 0.00102703 1.30295e-07
-5.62398e-06 1.30295e-07 0.00104421
0.000450786 4.02962e-07 -3.00247e-06
4.02962e-07 -4.04782e-05 3.78504e-06
-3.00247e-06 3.78504e-06 -5.22794e-05
0.00209618 -8.58414e-07 1.29553e-05
-8.58414e-07 0.00100727 4.99726e-06
1.29553e-05 4.99726e-06 0.00102462
0.00169637 -0.000294789 -7.66052e-05
-0.000294789 0.000416673 3.40309e-05
-7.66052e-05 3.40309e-05 -0.000284445
-0.00096434 -0.000200391 7.88587e-05
-0.000200391 0.00226636 -4.33797e-06
7.88587e-05 -4.33797e-06 0.00109975
-0.000974016 -0.000386882 0.000162512
-0.000386882 0.000805729 -0.000175295
0.000162512 -0.000175295 -0.00394733
0.000117195 4.9621e-05 4.5407e-06
4.9621e-05 -0.000170655 8.52734e-06
4.5407e-06 8.52734e-06 -0.000332963
0.00260163 0.000108363 3.06628e-06
0.000108363 0.00138213 8.43922e-06
3.06628e-06 8.43922e-06 0.0011916
0.000721587 0.000157416 -5.09625e-06
0.000157416 0.000195868 -6.32462e-06
-5.09625e-06 -6.32462e-06 4.68876e-05
0.000311822 8.4387e-05 1.0388e-06
8.4387e-05 -8.151e-05 1.00668e-06
1.0388e-06 1.00668e-06 -0.000215358
0.000309198 8.87565e-05 4.85456e-07
8.87565e-05 -9.06545e-05 -1.28421e-06
4.85456e-07 -1.28421e-06 -0.000212162
0.000344718 0.000102747 8.80413e-06
0.000102747 -4.42989e-05 1.92723e-06
8.80413e-06 1.92723e-06 -0.000177748
0.000112075 0.000113968 1.66923e-05
0.000113968 -0.000164595 6.43574e-06
1.66923e-05 6.43574e-06 -0.000283172
0.00223726 0.00124028 0.000245885
0.00124028 -0.000400847 0.000253421
0.000245885 0.000253421 -0.0018552
0.00552943 -0.000337395 -6.22611e-05
-0.000337395 -0.000139113 5.35434e-05
-6.22611e-05 5.35434e-05 -0.00129259
0.00427774 -0.000807239 0.000262334
-0.000807239 0.00303874 -0.000118878
0.000262334 -0.000118878 0.00150861
0.00867671 -0.000202522 -1.8372e-06
-0.000202522 -0.00574813 0.000187475
-1.8372e-06 0.000187475 -0.00231272
0.00590088 -0.00344353 -0.000128237
-0.00344353 0.000904817 3.42903e-05
-0.000128237 3.42903e-05 0.00125597
0.00113725 -0.00446185 -0.000313839
-0.00446185 0.00156067 0.000102242
-0.000313839 0.000102242 -0.00433108
0.0168144 0.00453132 0.00015321
0.00453132 0.00757584 -0.000182975
0.00015321 -0.000182975 0.00253828
0.00237047 -0.00268578 -6.16407e-05
-0.00268578 0.000162664 2.5364e-05
-6.16407e-05 2.5364e-05 0.000549484
-0.00144225 -0.000988035 -5.73828e-05
-0.000988035 0.00418937 5.40019e-05
-5.73828e-05 5.40019e-05 -0.00317946
0.00980863 0.000552424 0.000230316
0.000552424 0.00383449 -3.04604e-05
0.000230316 -3.04604e-05 4.08422e-05
0.0162797 -0.00201171 -8.05222e-05
-0.00201171 0.00210777 -1.36843e-05
-8.05222e-05 -1.36843e-05 0.00324662
-0.0016387 -0.000581278 -0.000171739
-0.000581278 0.000425631 0.000161734
-0.000171739 0.000161734 0.000233643
0.00281096 0.00215615 -0.00021658
0.00215615 0.00545596 -0.000115885
-0.00021658 -0.000115885 -0.00210451
-0.000788109 -0.00572931 3.87545e-06
-0.00572931 -9.25213e-05 -0.000252812
3.87545e-06 -0.000252812 -0.00560652
0.0149055 -0.00303519 0.00016609
-0.00303519 0.00467226 -0.000674225
0.00016609 -0.000674225 0.00260394
0.000529197 1.94474e-05 1.89791e-05
1.94474e-05 0.000322552 1.61741e-07
1.89791e-05 1.61741e-07 6.02074e-05
0.000792869 0.000188006 -1.6458e-06
0.000188006 0.000308561 -4.15391e-06
-1.6458e-06 -4.15391e-06 0.000150334
0.000886848 -1.47966e-05 -1.59833e-06
-1.47966e-05 0.000403289 -6.61578e-06
-1.59833e-06 -6.61578e-06 0.000154887
0.000984236 0.000158036 -6.1465e-06
0.000158036 0.000371055 -1.21228e-05
-6.1465e-06 -1.21228e-05 0.000199407
0.000516072 -0.0011797 4.53331e-05
-0.0011797 4.90538e-05 3.21042e-05
4.53331e-05 3.21042e-05 -0.000460774
0.00234318 -0.000386418 8.42412e-06
-0.000386418 0.00158355 -2.57393e-05
8.42412e-06 -2.57393e-05 0.00105453
0.000925885 0.000110759 -1.63368e-05
0.000110759 0.000505313 -2.27694e-05
-1.63368e-05 -2.27694e-05 0.000309654
0.00091322 3.53339e-05 -1.37187e-07
3.53339e-05 0.000619217 -8.29989e-06
-1.37187e-07 -8.29989e-06 0.00035965
0.000292945 -3.37896e-05 -1.28121e-06
-3.37896e-05 0.000588533 1.4495e-05
-1.28121e-06 1.4495e-05 0.000107327
0.000275945 8.10456e-05 2.12225e-06
8.10456e-05 0.00017635 3.77782e-06
2.12225e-06 3.77782e-06 -4.14301e-05
0.000145871 2.34893e-06 6.93866e-07
2.34893e-06 0.000588227 8.85247e-07
6.93866e-07 8.85247e-07 7.73337e-05
0.000288549 -0.000479999 -8.97802e-06
-0.000479999 0.00109741 7.08387e-06
-8.97802e-06 7.08387e-06 -0.000176197
0.000396941 -0.000136471 6.99629e-06
-0.000136471 0.000954865 -2.97623e-06
6.99629e-06 -2.97623e-06 0.000458197
-0.000598017 0.00011219 4.06732e-06
0.00011219 -0.000157793 -1.32393e-05
4.06732e-06 -1.32393e-05 -0.000434171
0.00138551 5.79596e-05 -0.000138958
5.79596e-05 0.00344671 -2.03172e-05
-0.000138958 -2.03172e-05 0.00147917
0.00108926 0.000366086 -2.06995e-05
0.000366086 0.00126749 7.90569e-06
-2.06995e-05 7.90569e-06 0.000699
-0.00217711 5.02651e-05 -8.86944e-05
5.02651e-05 0.00193848 -3.01781e-05
-8.86944e-05 -3.01781e-05 0.000683825
0.00106638 9.22619e-05 1.94429e-05
9.22619e-05 6.30379e-05 8.20671e-06
1.94429e-05 8.20671e-06 -0.000674943
-0.00313434 0.000402533 -2.87406e-05
0.000402533 0.00118234 -6.97961e-05
-2.87406e-05 -6.97961e-05 -8.33503e-05
0.000350706 0.000318063 -2.56862e-05
0.000318063 0.000719114 5.00616e-06
-2.56862e-05 5.00616e-06 0.000308119
-0.00131875 0.000874002 0.000158448
0.000874002 0.000203769 0.000112164
0.000158448 0.000112164 -0.000642224
0.000775754 4.53099e-05 7.39195e-05
4.53099e-05 0.000442435 -7.28753e-06
7.39195e-05 -7.28753e-06 2.42365e-05
0.00589448 -0.00230475 0.000274244
-0.00230475 0.00599819 -0.000188399
0.000274244 -0.000188399 -0.00258641
0.0195296 0.00387174 -0.000189492
0.00387174 0.00843993 0.000169296
-0.000189492 0.000169296 0.00339516
0.0032736 -0.000733486 -0.000234314
-0.000733486 0.00226684 0.000115013
-0.000234314 0.000115013 0.000887197
0.0136396 0.00487917 -0.000108649
0.00487917 0.00620394 -0.00024336
-0.000108649 -0.00024336 0.00293536
0.000474024 0.00023886 -5.64421e-05
0.00023886 0.00128759 1.33862e-05
-5.64421e-05 1.33862e-05 0.000210108
-3.04348e-05 -0.000254665 -8.80528e-05
-0.000254665 0.0022673 1.10332e-06
-8.80528e-05 1.10332e-06 0.00143804
0.0031052 -0.00157475 0.000288079
-0.00157475 0.00161468 -4.36134e-05
0.000288079 -4.36134e-05 -0.00332321
-0.00300924 -0.000113377 5.2028e-05
-0.000113377 -0.000443155 3.27083e-05
5.2028e-05 3.27083e-05 -0.000954128
0.0158734 0.0094561 0.000676499
0.0094561 0.0112078 -0.00028133
0.000676499 -0.00028133 0.00686327
0.00913095 0.0031574 -0.000162242
0.0031574 0.00431396 0.00038746
-0.000162242 0.00038746 -0.000732424
-0.00309676 -0.00123367 0.000182188
-0.00123367 0.00294022 -0.000149421
0.000182188 -0.000149421 -0.00490862
-0.00121273 -0.000421759 5.96537e-06
-0.000421759 0.000428872 -3.03726e-05
5.96537e-06 -3.03726e-05 -0.000671656
0.000469994 -0.000866183 0.000317672
-0.000866183 -0.000134265 -8.09773e-05
0.000317672 -8.09773e-05 -0.00362219
-0.000185018 0.000904883 -0.00135813
0.000904883 0.00763336 0.000346864
-0.00135813 0.000346864 0.00320614
0.0203171 0.00729187 -0.000570472
0.00729187 0.00666064 0.000541351
-0.000570472 0.000541351 0.00184586
0.00703905 -0.003689 -0.000191271
-0.003689 0.00326597 6.19836e-05
-0.000191271 6.19836e-05 -0.000380294
0.00281906 -0.00168369 4.03545e-05
-0.00168369 0.00294817 -5.43944e-07
4.03545e-05 -5.43944e-07 0.00197994
0.000176257 -5.18227e-05 2.8277e-06
-5.18227e-05 0.000532525 -9.21938e-06
2.8277e-06 -9.21938e-06 4.09187e-05
1.26345e-05 -0.000394553 3.98884e-06
-0.000394553 0.000375926 -1.91784e-06
3.98884e-06 -1.91784e-06 -0.000205356
-0.000131324 -0.000705217 -5.03095e-06
-0.000705217 5.2836e-06 1.16027e-06
-5.03095e-06 1.16027e-06 -0.000342331
-0.000442317 -0.000222221 -2.37776e-07
-0.000222221 0.000133611 6.83187e-06
-2.37776e-07 6.83187e-06 -0.000242013
-0.00072881 -0.000394138 6.94302e-08
-0.000394138 -0.000401401 2.07897e-06
6.94302e-08 2.07897e-06 -0.000696937
0.00314729 -0.000952811 3.91134e-05
-0.000952811 0.0013465 -1.78434e-05
3.91134e-05 -1.78434e-05 0.000915856
0.00650622 -0.00126615 -1.21925e-05
-0.00126615 0.00341456 -2.41911e-06
-1.21925e-05 -2.41911e-06 0.00290883
0.00289515 -0.000855737 1.03489e-05
-0.000855737 0.00133273 -2.91686e-06
1.03489e-05 -2.91686e-06 0.00066621
0.00188638 -0.000907244 4.32232e-06
-0.000907244 0.000491415 -1.74592e-05
4.32232e-06 -1.74592e-05 -0.000169584
0.00221687 -0.000699252 -9.99457e-06
-0.000699252 0.000825645 -7.89671e-06
-9.99457e-06 -7.89671e-06 0.000336701
0.00219647 -0.000867827 1.3916e-06
-0.000867827 0.000708535 -2.08773e-06
1.3916e-06 -2.08773e-06 9.42917e-05
0.00267374 -0.00100648 -5.15519e-06
-0.00100648 0.00086227 -1.14929e-05
-5.15519e-06 -1.14929e-05 0.000255867
0.00221633 -0.000792788 -5.21949e-06
-0.000792788 0.000394106 -4.48513e-06
-5.21949e-06 -4.48513e-06 -1.67836e-05
0.00256406 -0.000968132 -9.93649e-06
-0.000968132 0.000744167 1.79868e-06
-9.93649e-06 1.79868e-06 0.000231545
0.00239748 -0.000958132 -3.13563e-06
-0.000958132 0.000672418 6.16094e-09
-3.13563e-06 6.16094e-09 0.000129141
0.00176931 -0.000744246 7.06916e-06
-0.000744246 0.000511632 -3.6815e-06
7.06916e-06 -3.6815e-06 5.66383e-05
0.00159405 -0.000731725 2.97001e-06
-0.000731725 0.000390221 -1.07216e-06
2.97001e-06 -1.07216e-06 -7.21725e-05
0.00150273 -0.000684463 7.15445e-06
-0.000684463 0.000346914 -4.86978e-07
7.15445e-06 -4.86978e-07 -0.000129419
0.00163556 -0.000503218 8.78206e-06
-0.000503218 0.000563275 5.03649e-06
8.78206e-06 5.03649e-06 0.000210449
0.00151085 -0.000561065 -1.36073e-06
-0.000561065 0.000453933 -2.2248e-06
-1.36073e-06 -2.2248e-06 6.20061e-05
0.00163525 -0.000632706 6.31503e-06
-0.000632706 0.000455573 2.57683e-06
6.31503e-06 2.57683e-06 3.50984e-05
0.00122837 -0.000227199 7.6454e-07
-0.000227199 0.000461341 -4.46236e-06
7.6454e-07 -4.46236e-06 0.000193679
0.000844607 -0.000274266 -3.70528e-06
-0.000274266 0.000165675 2.62738e-06
-3.70528e-06 2.62738e-06 -8.93288e-05
0.000823304 -0.000406135 -3.28668e-07
-0.000406135 5.67265e-05 -1.22201e-05
-3.28668e-07 -1.22201e-05 -0.000259787
-4.92248e-06 -7.43093e-05 -2.18201e-06
-7.43093e-05 -0.000274318 4.72987e-06
-2.18201e-06 4.72987e-06 -0.000455455
0.000783586 -0.00015345 2.70168e-07
-0.00015345 0.000268313 8.46329e-07
2.70168e-07 8.46329e-07 -1.43222e-06
0.000682704 -0.000270125 3.91937e-06
-0.000270125 0.00020512 1.45911e-06
3.91937e-06 1.45911e-06 -8.03e-05
0.00034083 -1.87186e-05 -6.75201e-06
-1.87186e-05 -9.74103e-05 1.48623e-05
-6.75201e-06 1.48623e-05 -0.00014789
0.00067047 -8.02999e-05 7.55253e-07
-8.02999e-05 0.000125929 1.51444e-07
7.55253e-07 1.51444e-07 -8.58042e-06
0.00141681 -0.000204544 -1.16397e-06
-0.000204544 0.000644604 2.23678e-06
-1.16397e-06 2.23678e-06 0.000420845
0.00072725 -7.11886e-05 1.75285e-07
-7.11886e-05 0.000170758 -5.42505e-06
1.75285e-07 -5.42505e-06 5.21168e-05
0.000431963 6.92497e-06 -6.41115e-07
6.92497e-06 -3.28818e-05 -5.17654e-07
-6.41115e-07 -5.17654e-07 -7.71935e-05
0.00299318 0.000125109 -4.08729e-05
0.000125109 0.00159843 4.83786e-06
-4.08729e-05 4.83786e-06 0.00159577
0.000518572 -3.19095e-06 2.42742e-06
-3.19095e-06 1.21112e-05 -7.91421e-06
2.42742e-06 -7.91421e-06 -2.2941e-05
0.00282878 0.00010077 5.12633e-06
0.00010077 0.00148444 6.05447e-07
5.12633e-06 6.05447e-07 0.00148771
0.00271832 7.87824e-05 3.49293e-05
7.87824e-05 0.00140752 -4.92373e-06
3.49293e-05 -4.92373e-06 0.00141488
0.00113297 0.000101808 4.20848e-06
0.000101808 0.000558278 -1.95388e-06
4.20848e-06 -1.95388e-06 0.000320475
0.00121304 0.000146553 7.03748e-06
0.000146553 0.000561971 -1.88293e-06
7.03748e-06 -1.88293e-06 0.000366193
0.00054173 3.87749e-05 4.69141e-06
3.87749e-05 4.57214e-05 -4.46832e-06
4.69141e-06 -4.46832e-06 -4.98325e-05
0.000599156 0.000113025 1.80626e-07
0.000113025 0.000122976 -2.07085e-07
1.80626e-07 -2.07085e-07 -2.09079e-05
0.00044604 -8.43448e-07 2.05238e-06
-8.43448e-07 -3.98356e-05 -6.74037e-06
2.05238e-06 -6.74037e-06 -6.53674e-05
0.000521265 5.34946e-05 2.29826e-07
5.34946e-05 3.84129e-05 -2.2623e-07
2.29826e-07 -2.2623e-07 -4.64919e-05
0.000564617 5.71345e-05 -5.66472e-06
5.71345e-05 8.71846e-05 -2.73157e-06
-5.66472e-06 -2.73157e-06 -4.15649e-05
0.00233366 -4.92316e-05 -2.74073e-05
-4.92316e-05 0.00115846 -5.13405e-06
-2.74073e-05 -5.13405e-06 0.00117208
0.000461931 3.19823e-06 -8.34406e-07
3.19823e-06 -3.2401e-05 -1.61008e-07
-8.34406e-07 -1.61008e-07 -5.22779e-05
0.000462347 5.85954e-05 -4.23022e-06
5.85954e-05 3.02338e-06 -3.60039e-08
-4.23022e-06 -3.60039e-08 -7.42967e-05
0.00219082 -3.22733e-05 -4.87795e-06
-3.22733e-05 0.00106597 2.46122e-07
-4.87795e-06 2.46122e-07 0.001082
0.000462448 1.79825e-07 -3.04664e-06
1.79825e-07 -3.45574e-05 4.15486e-06
-3.04664e-06 4.15486e-06 -4.90832e-05
0.00212429 -1.6058e-05 1.68268e-05
-1.6058e-05 0.00102383 4.86401e-06
1.68268e-05 4.86401e-06 0.00104101
-0.00256663 0.00032527 -1.52278e-05
0.00032527 0.00057437 -5.92636e-05
-1.52278e-05 -5.92636e-05 -0.00014895
0.00180495 -0.000236435 -1.58609e-05
-0.000236435 0.000716872 -5.59625e-06
-1.58609e-05 -5.59625e-06 0.000210694
-6.67977e-05 -0.000243132 1.15259e-05
-0.000243132 0.00208239 -4.31809e-05
1.15259e-05 -4.31809e-05 0.00115481
0.000792265 0.000108059 6.69972e-07
0.000108059 0.000309148 -1.59934e-06
6.69972e-07 -1.59934e-06 0.000101728
3.15378e-05 9.72421e-05 6.34761e-06
9.72421e-05 -0.000214594 -2.43277e-06
6.34761e-06 -2.43277e-06 -0.000396189
-0.00167767 -7.06084e-06 -4.89189e-07
-7.06084e-06 -0.00132723 -9.85769e-06
-4.89189e-07 -9.85769e-06 -0.00149068
-0.00125392 1.46651e-05 -1.39787e-06
1.46651e-05 -0.000972119 2.10916e-05
-1.39787e-06 2.10916e-05 -0.00115596
0.00275242 0.00038965 6.06636e-07
0.00038965 0.00150142 4.98725e-07
6.06636e-07 4.98725e-07 0.00122022
0.00110626 5.23594e-05 -7.0015e-06
5.23594e-05 0.00040683 -5.0469e-06
-7.0015e-06 -5.0469e-06 0.000271991
0.000428308 0.000114468 -1.21469e-05
0.000114468 -9.35136e-06 -1.06137e-05
-1.21469e-05 -1.06137e-05 -0.0001291
0.000873185 4.59835e-05 1.30265e-06
4.59835e-05 0.000274482 -3.77115e-07
1.30265e-06 -3.77115e-07 0.000148703
0.00104314 0.000178321 -1.31507e-06
0.000178321 0.000409004 -3.56675e-06
-1.31507e-06 -3.56675e-06 0.000283726
0.00141373 0.000146725 8.67558e-06
0.000146725 0.000803368 -1.88154e-05
8.67558e-06 -1.88154e-05 0.000556603
0.00611915 0.0011902 0.000455297
0.0011902 0.00437357 0.00052713
0.000455297 0.00052713 -0.00049216
0.00261279 0.000987834 2.34812e-05
0.000987834 0.000203436 9.17139e-05
2.34812e-05 9.17139e-05 -0.00149336
0.00486444 -0.000257146 6.40151e-05
-0.000257146 -0.000225504 -2.0706e-05
6.40151e-05 -2.0706e-05 -0.000883172
0.0142622 -0.00149626 -0.000293664
-0.00149626 0.00216745 -0.00013534
-0.000293664 -0.00013534 0.00388296
-0.00281379 0.00116598 7.93584e-05
0.00116598 -0.00237015 0.000427179
7.93584e-05 0.000427179 -0.00730552
0.00225112 -0.00271204 -5.05436e-05
-0.00271204 0.000612041 -3.89665e-05
-5.05436e-05 -3.89665e-05 0.000772267
0.00769384 -0.00221065 -0.000172418
-0.00221065 0.00535595 3.85321e-05
-0.000172418 3.85321e-05 -0.000119179
0.000898969 -0.00116194 -0.000117091
-0.00116194 0.00102471 0.00012516
-0.000117091 0.00012516 0.000638591
0.0101393 -4.4868e-05 -0.000190714
-4.4868e-05 0.00698133 -5.09509e-07
-0.000190714 -5.09509e-07 0.000168746
0.00651924 -0.00273084 9.85815e-05
-0.00273084 0.0041281 0.000203854
9.85815e-05 0.000203854 -0.00119562
0.0186904 -0.00459704 -9.34135e-05
-0.00459704 0.00410375 -0.000780778
-9.34135e-05 -0.000780778 0.00127874
0.00193469 0.000169965 -0.00015214
0.000169965 0.00291749 0.000112281
-0.00015214 0.000112281 0.0016189
0.0123071 0.00277076 -0.000249159
0.00277076 0.00732419 -1.33098e-05
-0.000249159 -1.33098e-05 0.00182641
0.0202933 -0.00745876 -6.85776e-05
-0.00745876 0.0107164 -0.00078099
-6.85776e-05 -0.00078099 0.00505579
0.0249984 -0.00961374 9.67378e-05
-0.00961374 0.010731 -7.41648e-05
9.67378e-05 -7.41648e-05 0.006711
0.000859664 0.000298532 2.02258e-05
0.000298532 0.000537528 -1.22568e-05
2.02258e-05 -1.22568e-05 0.000179782
-5.93939e-05 4.44743e-05 4.28774e-06
4.44743e-05 4.08142e-05 1.99514e-06
4.28774e-06 1.99514e-06 -0.000275556
0.00107524 0.000197882 -1.85664e-05
0.000197882 0.000503241 -1.90839e-05
-1.85664e-05 -1.90839e-05 0.000329328
0.00258303 -0.000804381 6.66511e-05
-0.000804381 0.00191837 1.31207e-05
6.66511e-05 1.31207e-05 0.000389435
-0.000348029 -0.000126753 4.16366e-05
-0.000126753 0.000731997 -2.76386e-05
4.16366e-05 -2.76386e-05 0.000163703
-0.00012239 7.43463e-05 -6.98988e-06
7.43463e-05 -7.47838e-05 -2.25705e-06
-6.98988e-06 -2.25705e-06 -0.000284632
-0.000395775 -5.03407e-05 1.50036e-05
-5.03407e-05 0.000312369 -2.77815e-06
1.50036e-05 -2.77815e-06 -0.000239673
-2.64705e-05 0.000136496 -8.48401e-07
0.000136496 0.000153324 -9.15198e-07
-8.48401e-07 -9.15198e-07 -0.000129314
0.000183674 0.000322957 1.55321e-05
0.000322957 0.000616571 2.69544e-06
1.55321e-05 2.69544e-06 3.04563e-05
-0.00232091 -5.60002e-06 0.000236011
-5.60002e-06 0.00101788 -2.92702e-05
0.000236011 -2.92702e-05 -0.000963682
-0.000651605 0.000449804 2.75039e-06
0.000449804 -0.000328436 1.56562e-05
2.75039e-06 1.56562e-05 -0.000726992
0.00263589 0.000963387 -0.000146168
0.000963387 0.0022083 -9.4676e-05
-0.000146168 -9.4676e-05 0.000701114
0.00108964 0.000161689 0.000206879
0.000161689 0.00175961 7.17812e-05
0.000206879 7.17812e-05 -0.00268801
-0.00247372 0.000251047 -8.35436e-05
0.000251047 0.00167878 1.26262e-05
-8.35436e-05 1.26262e-05 0.000248705
0.00269937 -0.000273164 -3.99736e-05
-0.000273164 0.000976949 -3.43234e-06
-3.99736e-05 -3.43234e-06 0.000942728
-0.000296577 0.000555211 0.000114918
0.000555211 0.000671901 1.38806e-05
0.000114918 1.38806e-05 -0.000466931
0.0012947 0.000309296 -0.000113099
0.000309296 0.00269368 0.000107684
-0.000113099 0.000107684 0.00117549
-0.000465494 -0.000267125 -7.1763e-06
-0.000267125 0.00189568 -1.81982e-05
-7.1763e-06 -1.81982e-05 0.000840849
0.0165737 -0.00452763 0.00025478
-0.00452763 0.00871756 -0.000124971
0.00025478 -0.000124971 0.00217704
0.0237243 0.00533502 -0.000227294
0.00533502 0.0112643 -0.000182012
-0.000227294 -0.000182012 0.00538177
0.0052302 -0.00183996 -0.000323374
-0.00183996 0.0027192 0.00027817
-0.000323374 0.00027817 -0.00186995
0.00836636 0.0109448 0.00270747
0.0109448 0.00702451 -0.00165733
0.00270747 -0.00165733 0.00243415
0.00116058 -0.000584943 4.39301e-05
-0.000584943 0.00161127 -1.33126e-05
4.39301e-05 -1.33126e-05 0.000436379
-0.000365449 -0.000613367 5.35543e-05
-0.000613367 0.000521907 1.1948e-05
5.35543e-05 1.1948e-05 -0.00360792
0.00110678 0.00137108 -0.0012806
0.00137108 0.00725521 0.000335714
-0.0012806 0.000335714 0.00242009
0.000282936 -0.000911793 2.20886e-05
-0.000911793 0.00135611 2.96629e-05
2.20886e-05 2.96629e-05 0.000507775
0.0205845 0.00683497 0.000385442
0.00683497 0.00691026 0.000106267
0.000385442 0.000106267 0.00194288
0.0078548 -0.00562411 0.000241161
-0.00562411 0.00265194 -8.33701e-05
0.000241161 -8.33701e-05 -0.00140796
0.000408398 -0.00135778 1.22237e-06
-0.00135778 0.000531617 2.88652e-05
1.22237e-06 2.88652e-05 -0.000425189
-0.00579016 -0.00191726 0.000165129
-0.00191726 0.0062857 -9.14356e-05
0.000165129 -9.14356e-05 0.00199736
0.0166907 0.00680354 -0.00172059
0.00680354 0.00660941 0.000524321
-0.00172059 0.000524321 0.00283126
0.00640355 -0.00418665 -0.000480607
-0.00418665 -0.000581039 0.000203106
-0.000480607 0.000203106 -0.00372309
0.00051105 -0.00208883 0.000193709
-0.00208883 -8.68179e-05 -0.000136494
0.000193709 -0.000136494 0.000849738
0.00129747 -0.000590972 -0.000111003
-0.000590972 0.000948895 3.50001e-05
-0.000111003 3.50001e-05 0.000423608
0.000835865 -0.000661847 -9.42987e-06
-0.000661847 0.00059266 1.20678e-05
-9.42987e-06 1.20678e-05 0.000183669
0.00301834 -0.000975623 1.65745e-05
-0.000975623 0.00137962 -1.90569e-05
1.65745e-05 -1.90569e-05 0.000947038
-0.00108753 -0.000230164 9.91061e-06
-0.000230164 -0.000434329 7.11099e-06
9.91061e-06 7.11099e-06 -0.000725703
0.00119166 -0.000703752 2.47759e-06
-0.000703752 0.000317879 -3.34411e-06
2.47759e-06 -3.34411e-06 -7.85296e-05
0.00324478 -0.00109405 7.59652e-06
-0.00109405 0.00103041 -5.05403e-06
7.59652e-06 -5.05403e-06 0.000592381
0.00424338 -0.00103639 -2.8777e-05
-0.00103639 0.00200254 8.49626e-07
-2.8777e-05 8.49626e-07 0.00134657
0.00150894 -0.000826645 -1.77331e-06
-0.000826645 0.000283886 -1.44889e-06
-1.77331e-06 -1.44889e-06 -0.000351779
0.00219393 -0.00103444 -3.80304e-07
-0.00103444 0.000401007 -1.10821e-05
-3.80304e-07 -1.10821e-05 -0.000109678
0.00286866 -0.000958913 5.72959e-06
-0.000958913 0.00106887 7.24136e-06
5.72959e-06 7.24136e-06 0.00043715
0.00230243 -0.000962092 1.82138e-06
-0.000962092 0.000632452 -4.3063e-06
1.82138e-06 -4.3063e-06 4.82062e-05
0.00261337 -0.000852895 -3.33648e-06
-0.000852895 0.000572469 -9.20005e-06
-3.33648e-06 -9.20005e-06 0.000162422
0.00180995 -0.00054442 -4.07638e-06
-0.00054442 1.12901e-06 -2.20404e-06
-4.07638e-06 -2.20404e-06 -0.00025199
0.00194469 -0.000789024 -6.66143e-07
-0.000789024 0.000182955 -1.57641e-06
-6.66143e-07 -1.57641e-06 -0.000225715
0.00223004 -0.000799668 3.21655e-06
-0.000799668 0.000390955 -2.68563e-06
3.21655e-06 -2.68563e-06 -1.99762e-05
0.00239949 -0.000854294 -4.95547e-06
-0.000854294 0.000711197 -5.69311e-07
-4.95547e-06 -5.69311e-07 0.000250115
0.00252889 -0.000963273 -3.27761e-06
-0.000963273 0.000733141 -3.80526e-08
-3.27761e-06 -3.80526e-08 0.000216061
0.0025928 -0.000985718 9.73365e-06
-0.000985718 0.000772041 -5.34248e-06
9.73365e-06 -5.34248e-06 0.000218544
0.00190316 -0.00065514 7.05374e-06
-0.00065514 0.000644173 -4.80039e-07
7.05374e-06 -4.80039e-07 0.000226177
0.00152338 -0.000705852 2.37487e-06
-0.000705852 0.000378293 -5.9561e-07
2.37487e-06 -5.9561e-07 -6.43818e-05
0.00131829 -0.00068787 4.06749e-06
-0.00068787 0.000232376 1.44519e-06
4.06749e-06 1.44519e-06 -0.000212363
0.00139028 -0.000353405 1.80416e-07
-0.000353405 0.00046668 7.27502e-07
1.80416e-07 7.27502e-07 0.000186699
0.00119159 -0.00043998 1.1965e-06
-0.00043998 0.000306924 1.19305e-07
1.1965e-06 1.19305e-07 -2.90441e-05
0.00162371 -0.000569314 -4.87163e-06
-0.000569314 0.000532545 6.47564e-07
-4.87163e-06 6.47564e-07 0.000136434
-0.000278005 -0.000116998 -2.25645e-06
-0.000116998 -0.00045992 2.20956e-06
-2.25645e-06 2.20956e-06 -0.000693076
0.000684792 -0.000241385 -1.11087e-06
-0.000241385 0.000145564 -9.4076e-07
-1.11087e-06 -9.4076e-07 -0.000135499
0.000871593 -0.000290307 -3.71621e-06
-0.000290307 0.000210181 2.87402e-08
-3.71621e-06 2.87402e-08 -4.76591e-05
0.00191821 7.8046e-06 -5.246e-05
7.8046e-06 0.000909909 9.4841e-06
-5.246e-05 9.4841e-06 0.000856907
0.000716544 -0.000127396 -2.85627e-07
-0.000127396 0.000159895 -3.98185e-07
-2.85627e-07 -3.98185e-07 -2.08693e-05
0.00131222 -0.000223606 6.93796e-07
-0.000223606 0.000599971 4.65897e-06
6.93796e-07 4.65897e-06 0.000321963
0.000755062 3.06579e-05 -5.69354e-05
3.06579e-05 0.000172667 6.38269e-06
-5.69354e-05 6.38269e-06 0.00016099
0.00117006 2.38359e-06 -1.88523e-05
2.38359e-06 0.000431791 -6.31195e-07
-1.88523e-05 -6.31195e-07 0.000383069
0.000866023 -0.00010128 3.91605e-06
-0.00010128 0.000241936 -5.85528e-06
3.91605e-06 -5.85528e-06 0.000106095
0.00059215 -3.16357e-06 3.37075e-06
-3.16357e-06 6.32272e-05 -1.00411e-05
3.37075e-06 -1.00411e-05 1.98577e-05
0.0030953 0.000125235 9.10049e-06
0.000125235 0.00166329 7.86592e-07
9.10049e-06 7.86592e-07 0.00166076
0.00284704 0.000100608 3.99992e-05
0.000100608 0.00149611 -4.78909e-06
3.99992e-05 -4.78909e-06 0.00149963
0.000943708 0.000177884 1.3373e-05
0.000177884 0.000395729 -1.13865e-06
1.3373e-05 -1.13865e-06 0.000143763
0.00152477 0.000190964 5.14132e-06
0.000190964 0.000778084 -2.08536e-06
5.14132e-06 -2.08536e-06 0.000539136
-0.00030296 3.43099e-05 1.25616e-06
3.43099e-05 -0.0003763 -8.95085e-08
1.25616e-06 -8.95085e-08 -0.000582605
0.000617135 5.39688e-05 2.7997e-06
5.39688e-05 0.000102647 -6.55775e-06
2.7997e-06 -6.55775e-06 -1.09895e-05
0.000751244 0.000117821 5.00375e-07
0.000117821 0.000242373 2.35175e-07
5.00375e-07 2.35175e-07 6.54804e-05
0.000437942 9.94242e-06 -9.69586e-07
9.94242e-06 -3.82649e-05 -8.9539e-06
-9.69586e-07 -8.9539e-06 -7.05161e-05
0.000556481 4.96284e-05 -9.76283e-08
4.96284e-05 6.27881e-05 -4.26731e-07
-9.76283e-08 -4.26731e-07 -3.49564e-05
0.000663516 4.87123e-05 -5.1726e-06
4.87123e-05 0.000187472 6.32651e-07
-5.1726e-06 6.32651e-07 2.9207e-05
0.00259556 -6.84901e-05 -3.61512e-05
-6.84901e-05 0.00132935 -5.02505e-06
-3.61512e-05 -5.02505e-06 0.00133959
0.000435806 2.67571e-06 -2.02616e-07
2.67571e-06 -4.54945e-05 -5.86002e-08
-2.02616e-07 -5.86002e-08 -7.11066e-05
0.000527833 5.94929e-05 -1.9812e-06
5.94929e-05 4.3844e-05 2.54696e-06
-1.9812e-06 2.54696e-06 -4.16484e-05
0.00235919 -5.00812e-05 -6.32774e-06
-5.00812e-05 0.00117482 3.93455e-07
-6.32774e-06 3.93455e-07 0.00118824
0.000422849 -1.14088e-05 -5.38514e-06
-1.14088e-05 -5.68037e-05 5.14198e-06
-5.38514e-06 5.14198e-06 -7.63155e-05
0.0022154 -3.10262e-05 2.23573e-05
-3.10262e-05 0.00108153 4.8467e-06
2.23573e-05 4.8467e-06 0.00109768
0.00670009 0.000812563 0.000385935
0.000812563 0.00413627 8.93235e-05
0.000385935 8.93235e-05 0.00156852
-0.00221199 0.000233215 -4.83941e-06
0.000233215 0.000514144 -9.41167e-06
-4.83941e-06 -9.41167e-06 -0.000493104
0.000509105 0.000244988 -9.58005e-06
0.000244988 0.000819201 -1.2328e-05
-9.58005e-06 -1.2328e-05 0.000140445
-0.000556986 0.000123963 -1.00672e-05
0.000123963 -0.00070594 2.72446e-06
-1.00672e-05 2.72446e-06 -0.000880386
6.43393e-06 3.04235e-05 -6.7431e-06
3.04235e-05 -0.000234651 -2.08448e-06
-6.7431e-06 -2.08448e-06 -0.000401176
-0.000246797 5.30226e-05 -4.2385e-06
5.30226e-05 -0.000386217 -1.19145e-05
-4.2385e-06 -1.19145e-05 -0.000556067
0.00155827 8.17765e-05 2.76605e-06
8.17765e-05 0.000739896 6.35193e-07
2.76605e-06 6.35193e-07 0.000564073
0.000243701 0.000120402 -3.257e-06
0.000120402 -0.000152109 -4.28669e-06
-3.257e-06 -4.28669e-06 -0.000323668
0.00243554 0.000343713 -9.4555e-06
0.000343713 0.00130201 -3.72357e-06
-9.4555e-06 -3.72357e-06 0.0010831
0.0011297 0.00027434 -4.21069e-06
0.00027434 0.000414678 -1.28444e-05
-4.21069e-06 -1.28444e-05 8.63232e-05
-0.00145233 0.000132433 1.35419e-06
0.000132433 -0.000793295 4.71578e-07
1.35419e-06 4.71578e-07 -0.00117302
0.000574574 0.000128384 -8.04455e-06
0.000128384 0.000122671 -4.09489e-06
-8.04455e-06 -4.09489e-06 -1.88462e-05
-0.00013871 5.56081e-05 -1.51327e-05
5.56081e-05 -0.0003876 -7.83859e-06
-1.51327e-05 -7.83859e-06 -0.000469356
-0.000423332 3.17451e-05 -1.12509e-06
3.17451e-05 -0.000320397 1.96774e-06
-1.12509e-06 1.96774e-06 -0.000567304
0.00096406 0.000343643 2.02943e-05
0.000343643 0.000670954 -6.60138e-07
2.02943e-05 -6.60138e-07 0.000210489
0.0045811 -0.00388603 9.72053e-05
-0.00388603 0.00680197 0.000247307
9.72053e-05 0.000247307 0.000469228
0.00690587 0.00164165 0.000170359
0.00164165 0.00347133 0.000182817
0.000170359 0.000182817 -0.0019061
0.00346565 0.00059357 -3.15714e-05
0.00059357 0.000807663 -8.15214e-05
-3.15714e-05 -8.15214e-05 -0.00113848
0.0276585 -0.00605536 -0.000870425
-0.00605536 0.00794179 -0.000416075
-0.000870425 -0.000416075 0.00464442
0.00555688 -0.00169452 0.000296385
-0.00169452 0.00411933 0.00052946
0.000296385 0.00052946 0.000242565
0.00297578 -0.00179797 -0.000268065
-0.00179797 0.00517162 0.000115661
-0.000268065 0.000115661 -0.00237172
-0.00158352 -0.000617157 0.000113475
-0.000617157 0.00111439 1.98126e-05
0.000113475 1.98126e-05 7.76672e-05
-0.00073554 -0.000151471 0.00013015
-0.000151471 0.00124864 5.24049e-05
0.00013015 5.24049e-05 0.000422426
0.0177882 -0.0101988 0.000501032
-0.0101988 0.00899234 0.000472756
0.000501032 0.000472756 0.0046401
0.00215963 0.00174895 -0.000113765
0.00174895 0.00454768 -9.25911e-05
-0.000113765 -9.25911e-05 -0.00224327
0.00965168 -0.00413106 -0.000138521
-0.00413106 0.00514872 0.000121758
-0.000138521 0.000121758 -0.00094792
0.000229636 0.000788719 -2.01979e-05
0.000788719 0.00118593 5.15612e-05
-2.01979e-05 5.15612e-05 0.000690274
0.0108857 0.00457134 -0.000136507
0.00457134 0.00365406 3.99812e-06
-0.000136507 3.99812e-06 -0.000257056
0.0179132 -0.00723811 -0.000896954
-0.00723811 0.00599008 -0.000503174
-0.000896954 -0.000503174 0.000858504
0.000452846 0.000598057 8.11028e-06
0.000598057 -0.00014498 -1.22156e-05
8.11028e-06 -1.22156e-05 -0.000306253
0.000494466 0.000208881 7.50334e-06
0.000208881 0.000291006 5.95899e-06
7.50334e-06 5.95899e-06 -9.30987e-06
-0.000231197 4.59228e-05 -1.58608e-05
4.59228e-05 -7.04741e-05 -3.12776e-06
-1.58608e-05 -3.12776e-06 -0.000379846
-0.00356368 -0.000322856 -0.000126481
-0.000322856 0.000112562 -6.23341e-05
-0.000126481 -6.23341e-05 -0.00176853
-0.000604354 0.000239124 7.35623e-06
0.000239124 -6.02691e-05 -1.43583e-05
7.35623e-06 -1.43583e-05 -0.000606288
0.00116299 0.000247838 -5.81909e-06
0.000247838 0.000821191 1.27729e-05
-5.81909e-06 1.27729e-05 0.000515077
0.00124352 0.000730668 1.30438e-05
0.000730668 0.000654011 3.67287e-06
1.30438e-05 3.67287e-06 0.000219475
-0.000384756 0.000561975 4.05313e-05
0.000561975 0.000802529 -3.24506e-05
4.05313e-05 -3.24506e-05 -0.000484038
0.00109155 0.00152355 7.53611e-05
0.00152355 0.000220135 4.61505e-06
7.53611e-05 4.61505e-06 -0.000721138
-0.00642054 0.00121169 0.000401956
0.00121169 0.00572905 -1.22845e-06
0.000401956 -1.22845e-06 -0.00179708
0.0022814 -0.000250575 -1.17776e-05
-0.000250575 0.00210036 7.38542e-05
-1.17776e-05 7.38542e-05 -0.000904806
-0.00284253 -3.99662e-05 -1.69619e-05
-3.99662e-05 0.00112764 6.41833e-05
-1.69619e-05 6.41833e-05 -5.65272e-05
-0.000617858 -0.000328215 -6.36114e-05
-0.000328215 0.000763245 1.73564e-05
-6.36114e-05 1.73564e-05 -0.000474707
-0.00162762 -0.000546813 -7.62033e-05
-0.000546813 -0.00021465 6.04415e-05
-7.62033e-05 6.04415e-05 -2.90645e-05
-0.000501064 -0.000553235 -0.000210939
-0.000553235 0.000991761 0.000137595
-0.000210939 0.000137595 -0.00345988
-0.00103308 -0.00428504 0.000266589
-0.00428504 0.00205159 -0.000109267
0.000266589 -0.000109267 -0.0040901
0.0126905 0.00563191 0.0007663
0.00563191 0.00193676 -0.000468436
0.0007663 -0.000468436 -0.00263531
0.0125282 0.00425412 -0.000436244
0.00425412 0.00856897 0.000372326
-0.000436244 0.000372326 0.00338231
0.00109007 -0.000956088 -1.4844e-05
-0.000956088 0.0013935 -2.24069e-08
-1.4844e-05 -2.24069e-08 0.000481759
0.00236938 0.000736344 0.000158756
0.000736344 0.00818748 -3.05112e-05
0.000158756 -3.05112e-05 0.0034873
0.0020854 0.00465504 8.12752e-06
0.00465504 0.0011507 7.74837e-05
8.12752e-06 7.74837e-05 -0.00285178
0.00252186 -0.00297933 8.64582e-05
-0.00297933 0.000827588 -4.86945e-05
8.64582e-05 -4.86945e-05 0.00105926
0.0166147 -0.00470582 7.67008e-06
-0.00470582 0.00274343 2.84674e-06
7.67008e-06 2.84674e-06 0.000834524
0.00321841 -0.00183921 -1.50414e-07
-0.00183921 0.00131761 1.89952e-05
-1.50414e-07 1.89952e-05 0.00086052
-0.0076346 0.00144568 -0.000691462
0.00144568 -0.00204935 0.000113888
-0.000691462 0.000113888 -0.00527426
0.0159005 -0.00301166 -0.000228375
-0.00301166 0.00168322 6.66379e-05
-0.000228375 6.66379e-05 0.000455151
0.00401228 -0.00295919 0.000120581
-0.00295919 1.76725e-05 -7.61397e-05
0.000120581 -7.61397e-05 0.000784075
0.000472946 -0.000534763 -4.94869e-06
-0.000534763 0.000452302 9.74678e-06
-4.94869e-06 9.74678e-06 -9.91053e-07
0.00164196 -0.000942605 2.51736e-06
-0.000942605 0.000526333 -4.14117e-06
2.51736e-06 -4.14117e-06 0.000204247
0.00464385 -0.00110549 2.22775e-05
-0.00110549 0.00182624 -1.73887e-05
2.22775e-05 -1.73887e-05 0.0014401
-0.00032224 -0.000514335 -6.8618e-06
-0.000514335 -0.000449602 9.81356e-06
-6.8618e-06 9.81356e-06 -0.000843181
0.00165943 -0.000908831 -3.11253e-06
-0.000908831 0.000217191 1.17877e-06
-3.11253e-06 1.17877e-06 -0.00021744
0.00333013 -0.00114924 2.35319e-06
-0.00114924 0.000882216 -8.08973e-06
2.35319e-06 -8.08973e-06 0.000439297
0.00146018 -0.000791807 -9.93414e-06
-0.000791807 0.000236579 9.89467e-06
-9.93414e-06 9.89467e-06 -0.000377974
0.00205886 -0.00100912 -8.27338e-07
-0.00100912 0.000336927 2.4507e-06
-8.27338e-07 2.4507e-06 -0.000176669
0.00202405 -0.000811267 -3.31654e-06
-0.000811267 7.34251e-05 -5.30722e-06
-3.31654e-06 -5.30722e-06 -0.000242904
0.0017258 -0.000892856 3.22073e-06
-0.000892856 0.000294229 4.37374e-06
3.22073e-06 4.37374e-06 -0.000265782
0.00211567 -0.000785257 -1.71374e-06
-0.000785257 0.000301533 1.64945e-06
-1.71374e-06 1.64945e-06 -9.23213e-05
0.00213257 -0.000580553 -2.5825e-06
-0.000580553 0.000118831 -3.2273e-06
-2.5825e-06 -3.2273e-06 -0.000101764
0.00194428 -0.000487107 -4.20633e-06
-0.000487107 7.50675e-05 -6.33394e-08
-4.20633e-06 -6.33394e-08 -0.000107267
0.00176798 -0.000559979 -4.70043e-06
-0.000559979 -2.83471e-06 -1.65943e-06
-4.70043e-06 -1.65943e-06 -0.000267983
0.00187738 -0.000544143 1.68082e-06
-0.000544143 4.26723e-05 2.64602e-06
1.68082e-06 2.64602e-06 -0.000206932
0.00175115 -0.000685668 -5.50835e-06
-0.000685668 0.000130944 -2.79446e-06
-5.50835e-06 -2.79446e-06 -0.000236105
0.00212813 -0.000798483 2.84777e-06
-0.000798483 0.00031417 -1.54072e-07
2.84777e-06 -1.54072e-07 -9.13999e-05
0.00222968 -0.000801696 5.79273e-06
-0.000801696 0.000385077 1.12245e-06
5.79273e-06 1.12245e-06 -2.44961e-05
0.00181041 -0.000717566 -1.4148e-06
-0.000717566 0.000395872 -2.0617e-06
-1.4148e-06 -2.0617e-06 -3.2979e-05
0.00223198 -0.000841219 2.13131e-06
-0.000841219 0.00060586 -6.8962e-07
2.13131e-06 -6.8962e-07 0.000144614
0.00242796 -0.000948638 3.31298e-06
-0.000948638 0.000684619 -2.7123e-06
3.31298e-06 -2.7123e-06 0.000165066
0.00126633 -0.000426124 -7.51329e-06
-0.000426124 0.000282498 3.52297e-06
-7.51329e-06 3.52297e-06 -3.2451e-05
0.00163222 -0.000616373 1.66275e-06
-0.000616373 0.000471894 9.27286e-07
1.66275e-06 9.27286e-07 6.64792e-05
0.00125053 -0.000661999 -3.27543e-06
-0.000661999 0.00023055 1.65585e-06
-3.27543e-06 1.65585e-06 -0.000198488
0.000493971 -0.000226026 -8.16969e-06
-0.000226026 -6.79411e-05 -8.62007e-08
-8.16969e-06 -8.62007e-08 -0.000285485
0.00104216 -0.000335075 1.25035e-06
-0.000335075 0.000237138 -8.49706e-07
1.25035e-06 -8.49706e-07 -3.82723e-05
0.000571727 -0.000362978 -8.20828e-06
-0.000362978 -5.37444e-05 3.1487e-07
-8.20828e-06 3.1487e-07 -0.000370572
0.000332161 -6.94673e-05 -1.42285e-05
-6.94673e-05 -0.00011647 1.37991e-05
-1.42285e-05 1.37991e-05 -0.000197294
0.000866468 -0.000202793 3.29731e-06
-0.000202793 0.000261102 1.48157e-06
3.29731e-06 1.48157e-06 1.77528e-05
0.000577616 -0.000268075 -1.65432e-07
-0.000268075 9.60897e-05 1.34456e-06
-1.65432e-07 1.34456e-06 -0.000192729
0.00403548 0.000248292 8.2959e-06
0.000248292 0.0023061 6.16562e-06
8.2959e-06 6.16562e-06 0.00226476
0.000431522 -4.12239e-05 3.90898e-07
-4.12239e-05 -4.32577e-05 -2.05356e-07
3.90898e-07 -2.05356e-07 -0.000109742
0.00127773 -0.000127142 1.97802e-07
-0.000127142 0.000511585 -5.86295e-06
1.97802e-07 -5.86295e-06 0.000325303
0.0034755 0.000143185 9.65564e-06
0.000143185 0.00191223 7.1115e-07
9.65564e-06 7.1115e-07 0.00190515
0.000565214 -1.75911e-05 5.82468e-06
-1.75911e-05 4.44161e-05 -1.18639e-05
5.82468e-06 -1.18639e-05 -9.56115e-06
0.00313167 0.000116557 5.87477e-05
0.000116557 0.00168445 -5.25301e-06
5.87477e-05 -5.25301e-06 0.00168415
0.0022739 0.000375921 5.43322e-06
0.000375921 0.00112751 1.5255e-06
5.43322e-06 1.5255e-06 0.000869298
0.000728402 0.000185579 3.11216e-07
0.000185579 0.000267596 -4.79019e-06
3.11216e-07 -4.79019e-06 8.83721e-06
0.00143103 0.000229967 -5.81701e-07
0.000229967 0.000720213 -4.7358e-06
-5.81701e-07 -4.7358e-06 0.000447685
0.00075778 8.62456e-05 2.06781e-06
8.62456e-05 0.000191286 -6.70467e-06
2.06781e-06 -6.70467e-06 5.39597e-05
0.000810494 0.000110168 5.36802e-07
0.000110168 0.000315258 1.45674e-06
5.36802e-07 1.45674e-06 8.98677e-05
0.000218293 0.000118426 -2.61019e-06
0.000118426 -2.4648e-06 2.76436e-06
-2.61019e-06 2.76436e-06 -0.00024679
0.000534257 4.21241e-07 -1.64075e-06
4.21241e-07 3.12092e-05 -1.11399e-05
-1.64075e-06 -1.11399e-05 -1.05381e-05
0.000555149 4.5801e-05 -2.94645e-07
4.5801e-05 6.70465e-05 -2.20938e-07
-2.94645e-07 -2.20938e-07 -4.70884e-05
0.000195033 8.80412e-05 -5.48483e-06
8.80412e-05 -0.0001331 2.65786e-06
-5.48483e-06 2.65786e-06 -0.000289622
0.00271235 -8.50414e-05 -4.46888e-05
-8.50414e-05 0.00140914 -5.11943e-06
-4.46888e-05 -5.11943e-06 0.00141659
0.00040389 -2.33049e-05 2.89849e-06
-2.33049e-05 -5.67442e-05 -2.4518e-07
2.89849e-06 -2.4518e-07 -8.98224e-05
0.000475521 4.61715e-05 -3.54313e-06
4.61715e-05 1.72448e-05 4.17938e-06
-3.54313e-06 4.17938e-06 -8.12514e-05
0.00253097 -6.83266e-05 -6.95423e-06
-6.83266e-05 0.00128815 5.24648e-07
-6.95423e-06 5.24648e-07 0.00129832
0.000426696 2.93813e-07 -2.63841e-06
2.93813e-07 -5.1286e-05 6.48215e-06
-2.63841e-06 6.48215e-06 -7.63958e-05
0.00231527 -4.9225e-05 2.41486e-05
-4.9225e-05 0.00114682 4.87516e-06
2.41486e-05 4.87516e-06 0.00116051
-0.00933098 0.0011186 -0.000151406
0.0011186 0.00431444 7.95005e-05
-0.000151406 7.95005e-05 -0.00266636
0.00630361 0.000617869 1.35896e-05
0.000617869 0.00384165 -9.91519e-07
1.35896e-05 -9.91519e-07 0.001395
-0.0017374 0.000158727 6.96976e-05
0.000158727 0.00053571 3.59389e-05
6.96976e-05 3.59389e-05 -0.000738734
0.000144733 0.000158946 3.82376e-08
0.000158946 -0.000223199 4.11691e-06
3.82376e-08 4.11691e-06 -0.000439648
0.00333017 0.00073211 1.7801e-05
0.00073211 0.00170892 1.26869e-05
1.7801e-05 1.26869e-05 0.00131491
0.000416883 0.000181097 -8.85219e-06
0.000181097 9.01317e-05 3.75296e-06
-8.85219e-06 3.75296e-06 -0.000261371
0.000355441 6.67034e-05 -8.009e-06
6.67034e-05 1.86208e-06 -2.30721e-05
-8.009e-06 -2.30721e-05 -0.000183148
0.00311335 0.000349098 3.75396e-06
0.000349098 0.00160518 -1.66913e-06
3.75396e-06 -1.66913e-06 0.00140977
-0.00113001 1.3486e-05 -1.42996e-05
1.3486e-05 -0.000890252 1.06829e-05
-1.42996e-05 1.06829e-05 -0.00104825
-9.56735e-05 0.000148515 -1.03425e-06
0.000148515 -9.37086e-05 7.81935e-06
-1.03425e-06 7.81935e-06 -0.000402205
0.000454827 0.000160209 -3.58552e-06
0.000160209 7.33647e-05 -5.98462e-06
-3.58552e-06 -5.98462e-06 -0.00025912
0.00157511 0.000599781 8.05581e-06
0.000599781 0.000776895 -2.32871e-05
8.05581e-06 -2.32871e-05 0.000288147
-0.000426572 0.000497717 -1.91113e-05
0.000497717 -0.000574073 5.60436e-05
-1.91113e-05 5.60436e-05 -0.000732165
0.00149184 6.55195e-05 -1.73833e-05
6.55195e-05 0.00080224 1.80782e-05
-1.73833e-05 1.80782e-05 0.000585018
0.00164644 0.000336781 7.21626e-06
0.000336781 0.00106988 -9.69708e-06
7.21626e-06 -9.69708e-06 0.000661347
0.00163607 -0.00280838 -0.00185512
-0.00280838 0.00214813 -0.000280483
-0.00185512 -0.000280483 -0.00229906
-0.0014134 -0.00299417 0.000618611
-0.00299417 0.00693693 0.000201477
0.000618611 0.000201477 0.000605959
0.00767467 0.0020806 -0.00066435
0.0020806 0.00320639 -0.000226484
-0.00066435 -0.000226484 -0.00262725
0.00815586 -0.0109137 0.00268747
-0.0109137 0.00711732 0.00160761
0.00268747 0.00160761 0.00218749
0.0283734 -0.00419505 5.06333e-05
-0.00419505 0.00990401 0.00040779
5.06333e-05 0.00040779 0.00557943
-0.0035951 0.00144088 -2.42721e-05
0.00144088 0.00256401 -0.000197294
-2.42721e-05 -0.000197294 -0.00343068
-0.0025329 0.000152577 -0.000341109
0.000152577 0.00117064 -6.14451e-05
-0.000341109 -6.14451e-05 -0.000612219
0.000703813 0.00080579 7.80167e-05
0.00080579 0.00168046 5.64505e-05
7.80167e-05 5.64505e-05 0.00126644
0.0210348 -0.00557085 -0.000740252
-0.00557085 0.00881739 1.39268e-05
-0.000740252 1.39268e-05 0.00379443
-0.00233948 0.00356066 -0.000139968
0.00356066 0.000433284 -4.91706e-05
-0.000139968 -4.91706e-05 -0.00440634
0.00341349 0.00251372 2.423e-05
0.00251372 0.00109439 -7.7414e-05
2.423e-05 -7.7414e-05 0.00183553
0.00402461 0.00564906 -0.00048918
0.00564906 -0.00193803 -0.0001158
-0.00048918 -0.0001158 -0.00442618
0.00332372 0.00127473 2.48112e-05
0.00127473 0.00127915 -7.58726e-06
2.48112e-05 -7.58726e-06 0.00089299
0.00107902 0.000626184 -4.58041e-06
0.000626184 0.000299275 -2.7831e-06
-4.58041e-06 -2.7831e-06 0.000137478
-0.00022495 0.000181145 -1.50643e-05
0.000181145 -0.000150137 1.35468e-05
-1.50643e-05 1.35468e-05 -0.000444026
-0.00168153 0.000405367 -9.55196e-05
0.000405367 0.000192211 -7.16691e-05
-9.55196e-05 -7.16691e-05 -0.000911728
0.00192381 0.000828676 -4.4469e-05
0.000828676 0.000954373 -2.48907e-05
-4.4469e-05 -2.48907e-05 0.000516227
0.00214242 0.00167184 1.08378e-05
0.00167184 0.000629758 -8.87211e-06
1.08378e-05 -8.87211e-06 -0.000298281
-0.00108342 0.00172451 0.000102923
0.00172451 -0.00187343 5.40985e-05
0.000102923 5.40985e-05 -0.00226362
-0.00656595 -0.000557892 -0.000691675
-0.000557892 -0.00399245 5.49467e-05
-0.000691675 5.49467e-05 -0.00441971
-0.00926729 0.000516896 0.000459962
0.000516896 0.00607524 1.84652e-05
0.000459962 1.84652e-05 -0.000698078
0.00288102 -5.73216e-05 -0.00014232
-5.73216e-05 0.00211618 3.39434e-05
-0.00014232 3.39434e-05 0.000202969
0.00198101 -0.00111038 -6.39501e-05
-0.00111038 0.00141291 -4.5468e-05
-6.39501e-05 -4.5468e-05 0.000537122
-0.000865971 -0.00217222 8.77963e-05
-0.00217222 -0.000592794 4.30084e-05
8.77963e-05 4.30084e-05 -0.000339833
0.00081881 0.000847328 0.00010902
0.000847328 0.00786426 5.58455e-05
0.00010902 5.58455e-05 0.00295296
0.00316858 -0.00403746 0.000539151
-0.00403746 -0.00180822 -0.000103535
0.000539151 -0.000103535 -0.00363766
0.0246585 0.00399366 0.00102858
0.00399366 0.0108959 -9.53412e-05
0.00102858 -9.53412e-05 0.00719032
0.00168034 -0.00193901 -2.12253e-05
-0.00193901 0.000405119 3.84282e-06
-2.12253e-05 3.84282e-06 -0.000318791
0.00287493 0.001779 0.000311275
0.001779 0.00120605 -9.51982e-05
0.000311275 -9.51982e-05 -0.00152232
0.0075838 -0.00265729 -0.000192859
-0.00265729 -0.00298957 0.000159674
-0.000192859 0.000159674 -0.00499083
0.00315915 -0.00288144 -8.32259e-06
-0.00288144 -0.000801652 2.54824e-05
-8.32259e-06 2.54824e-05 0.000357584
0.00260393 -0.00160436 7.59857e-05
-0.00160436 0.000229711 -2.08598e-05
7.59857e-05 -2.08598e-05 1.19322e-05
0.0183158 -0.000972462 -9.6848e-05
-0.000972462 0.00352337 5.95859e-05
-9.6848e-05 5.95859e-05 0.00244702
0.00272775 -0.00203862 0.000136095
-0.00203862 -0.00339744 -8.56616e-05
0.000136095 -8.56616e-05 -0.00158287
-0.000809444 -0.000749099 -2.38215e-05
-0.000749099 -0.00089354 3.65785e-05
-2.38215e-05 3.65785e-05 -0.00104801
0.000262279 -0.000667731 -4.11191e-05
-0.000667731 -0.000564245 4.40222e-06
-4.11191e-05 4.40222e-06 -0.000735606
0.0062993 -0.00125551 6.18877e-05
-0.00125551 0.00236686 -2.58135e-05
6.18877e-05 -2.58135e-05 0.00211201
0.000143756 -0.000715435 -9.11449e-06
-0.000715435 -0.000538744 4.98837e-06
-9.11449e-06 4.98837e-06 -0.000963092
0.00220554 -0.00100567 -2.97898e-06
-0.00100567 0.000304823 -3.20972e-06
-2.97898e-06 -3.20972e-06 -0.00010249
0.00287242 -0.000904252 -1.6097e-07
-0.000904252 0.000351691 -4.80834e-06
-1.6097e-07 -4.80834e-06 0.000134883
0.00213205 -0.00100939 6.65936e-06
-0.00100939 0.000380896 1.02006e-05
6.65936e-06 1.02006e-05 -0.00013919
0.00229392 -0.000830194 -1.72682e-06
-0.000830194 0.000228767 2.76995e-07
-1.72682e-06 2.76995e-07 -8.80339e-05
0.00219171 -0.000603508 -8.07912e-07
-0.000603508 1.22686e-05 -7.19486e-07
-8.07912e-07 -7.19486e-07 -0.000107468
0.00172412 -0.00073116 8.31685e-06
-0.00073116 8.55285e-05 7.04696e-06
8.31685e-06 7.04696e-06 -0.000295058
0.00206304 -0.00056762 -3.62975e-07
-0.00056762 7.69407e-05 2.54638e-06
-3.62975e-07 2.54638e-06 -0.000135317
0.002145 -0.000546157 -2.83218e-06
-0.000546157 8.65414e-05 2.16653e-06
-2.83218e-06 2.16653e-06 -5.1968e-05
0.00210158 -0.000516134 -4.2133e-06
-0.000516134 0.000156934 1.50472e-06
-4.2133e-06 1.50472e-06 -3.50135e-06
0.0020714 -0.000497679 -3.08009e-06
-0.000497679 0.000145603 3.11589e-06
-3.08009e-06 3.11589e-06 -3.30736e-05
0.00212981 -0.000503542 -2.45007e-06
-0.000503542 0.000238447 -3.03794e-06
-2.45007e-06 -3.03794e-06 4.32842e-05
0.00209033 -0.000594479 -6.47575e-06
-0.000594479 0.000222924 -2.58358e-06
-6.47575e-06 -2.58358e-06 -5.26856e-05
0.00200727 -0.000577689 1.5934e-06
-0.000577689 0.000151902 9.88546e-07
1.5934e-06 9.88546e-07 -0.000113979
0.0019565 -0.000546001 5.31111e-06
-0.000546001 8.72652e-05 7.12885e-06
5.31111e-06 7.12885e-06 -0.000159231
0.00200107 -0.000685034 -7.44218e-06
-0.000685034 0.000345078 -2.82426e-06
-7.44218e-06 -2.82426e-06 -2.79089e-05
0.00175544 -0.00069455 -5.97464e-07
-0.00069455 0.000119055 1.3986e-07
-5.97464e-07 1.3986e-07 -0.000251995
0.00228919 -0.000807224 8.06762e-06
-0.000807224 0.00042979 1.44598e-06
8.06762e-06 1.44598e-06 2.72632e-05
0.00143924 -0.0005362 -1.20364e-05
-0.0005362 0.000257028 3.23927e-06
-1.20364e-05 3.23927e-06 -0.000104746
0.00191566 -0.000729877 -5.3096e-07
-0.000729877 0.000459532 8.31676e-07
-5.3096e-07 8.31676e-07 2.84437e-05
0.00210802 -0.000834991 4.57281e-06
-0.000834991 0.00052506 5.70948e-07
4.57281e-06 5.70948e-07 6.21728e-05
0.000658656 -0.000226146 -8.04842e-06
-0.000226146 2.70617e-06 5.63036e-06
-8.04842e-06 5.63036e-06 -0.00021878
0.00128349 -0.000435576 1.42477e-06
-0.000435576 0.000283777 3.38775e-07
1.42477e-06 3.38775e-07 -3.53805e-05
0.00126122 -0.000569873 -2.34662e-06
-0.000569873 0.000231591 2.15943e-06
-2.34662e-06 2.15943e-06 -0.000160413
0.000493557 -0.000145793 -2.52124e-05
-0.000145793 -4.81077e-05 1.51904e-05
-2.52124e-05 1.51904e-05 -0.000149703
0.000604361 -0.000226075 -2.70576e-06
-0.000226075 3.08751e-05 7.87763e-07
-2.70576e-06 7.87763e-07 -0.000207465
0.000584693 -0.0003375 1.98067e-06
-0.0003375 -5.54814e-05 -1.15447e-06
1.98067e-06 -1.15447e-06 -0.000337953
0.00450981 0.000219071 -9.32319e-05
0.000219071 0.00260718 8.63436e-06
-9.32319e-05 8.63436e-06 0.00257701
0.000558968 -8.81785e-05 1.92487e-06
-8.81785e-05 2.09785e-05 -1.83593e-07
1.92487e-06 -1.83593e-07 -6.59834e-05
0.00161225 -0.000287376 7.16346e-06
-0.000287376 0.000723223 -3.09875e-06
7.16346e-06 -3.09875e-06 0.000474872
0.00262437 0.000135779 5.73464e-05
0.000135779 0.00138715 1.43278e-06
5.73464e-05 1.43278e-06 0.00136067
0.000641384 -4.80619e-05 1.23111e-05
-4.80619e-05 8.28386e-05 -1.37502e-05
1.23111e-05 -1.37502e-05 1.28218e-05
0.00370783 0.00013272 8.90025e-05
0.00013272 0.00205933 -5.89184e-06
8.90025e-05 -5.89184e-06 0.00205488
0.00185048 0.000375715 2.8753e-06
0.000375715 0.000737367 -4.13623e-06
2.8753e-06 -4.13623e-06 0.000499142
0.000425964 0.000166182 -4.75219e-06
0.000166182 -7.08844e-05 -1.08356e-08
-4.75219e-06 -1.08356e-08 -0.000275249
0.000444678 0.000182847 9.30904e-07
0.000182847 4.83288e-05 -7.78869e-06
9.30904e-07 -7.78869e-06 -0.00020529
0.000302422 0.000146944 -2.16243e-06
0.000146944 -2.39317e-05 1.01432e-05
-2.16243e-06 1.01432e-05 -0.00025706
0.000671535 0.000112276 5.29821e-07
0.000112276 0.000222885 2.1658e-07
5.29821e-07 2.1658e-07 -2.7371e-05
0.00110475 0.000130208 -3.98882e-07
0.000130208 0.000402409 -9.56556e-06
-3.98882e-07 -9.56556e-06 0.00023621
0.000591744 4.14013e-05 -6.25327e-06
4.14013e-05 6.59365e-05 -1.35343e-05
-6.25327e-06 -1.35343e-05 1.36145e-05
0.000711621 7.82299e-05 5.18906e-07
7.82299e-05 0.000167546 -1.59439e-07
5.18906e-07 -1.59439e-07 3.03783e-05
-0.000465633 2.27035e-05 -6.2322e-06
2.27035e-05 -0.000516914 1.11872e-06
-6.2322e-06 1.11872e-06 -0.000715892
0.00299965 -9.97285e-05 -6.36497e-05
-9.97285e-05 0.00160006 -5.76695e-06
-6.36497e-05 -5.76695e-06 0.00160445
0.000391376 1.9516e-05 1.08421e-06
1.9516e-05 -5.77365e-05 -3.37706e-07
1.08421e-06 -3.37706e-07 -9.90854e-05
0.000627406 5.80206e-05 -3.55038e-06
5.80206e-05 0.000117883 6.89692e-06
-3.55038e-06 6.89692e-06 1.12106e-06
0.00275769 -8.80327e-05 -7.76373e-06
-8.80327e-05 0.0014388 6.63471e-07
-7.76373e-06 6.63471e-07 0.00144515
0.000358676 -1.34609e-05 -1.06162e-06
-1.34609e-05 -8.36687e-05 8.08949e-06
-1.06162e-06 8.08949e-06 -0.000116527
0.00253355 -6.85533e-05 3.01369e-05
-6.85533e-05 0.00128955 5.08817e-06
3.01369e-05 5.08817e-06 0.00129951
0.00175877 -2.20187e-05 -0.0010193
-2.20187e-05 0.00413846 -7.06438e-05
-0.0010193 -7.06438e-05 0.00187679
-0.00577559 0.000107036 3.02846e-05
0.000107036 0.00543049 -1.06782e-05
3.02846e-05 -1.06782e-05 -0.00183116
0.00606669 0.000299683 -0.000307302
0.000299683 0.00367915 -8.29847e-05
-0.000307302 -8.29847e-05 0.00140319
-0.000421079 5.68796e-05 4.77253e-06
5.68796e-05 -0.000566427 -6.36907e-06
4.77253e-06 -6.36907e-06 -0.000785511
0.000420327 0.000115669 7.03383e-06
0.000115669 1.94918e-05 6.93689e-06
7.03383e-06 6.93689e-06 -0.000306732
0.0029849 0.000666 -3.60455e-06
0.000666 0.00152672 3.65528e-06
-3.60455e-06 3.65528e-06 0.00114119
0.00229965 0.000766536 1.84744e-05
0.000766536 0.00095912 9.08878e-06
1.84744e-05 9.08878e-06 0.000465206
0.000877788 0.000504867 1.13541e-05
0.000504867 0.000383982 7.70198e-06
1.13541e-05 7.70198e-06 -4.89836e-05
0.00158445 0.00023344 -8.55385e-06
0.00023344 0.000914164 6.61142e-06
-8.55385e-06 6.61142e-06 0.000609171
0.0016684 0.00024158 1.03999e-05
0.00024158 0.000855041 9.71129e-06
1.03999e-05 9.71129e-06 0.000541845
0.000791743 0.000517976 -4.35167e-06
0.000517976 0.000361001 -2.89805e-07
-4.35167e-06 -2.89805e-07 -0.000122446
0.000191466 0.000694407 1.83484e-05
0.000694407 -0.000403817 -9.42848e-06
1.83484e-05 -9.42848e-06 -0.000776833
0.00268679 0.000929151 -8.58023e-06
0.000929151 0.00103413 2.71606e-05
-8.58023e-06 2.71606e-05 0.000764503
0.0015794 0.000970434 3.24556e-05
0.000970434 0.000118619 1.2712e-05
3.24556e-05 1.2712e-05 -3.91336e-05
0.00149924 0.000710178 -4.93323e-06
0.000710178 0.000567178 -2.94664e-06
-4.93323e-06 -2.94664e-06 0.000313477
0.00206421 0.000455375 -7.03395e-06
0.000455375 0.00119782 3.37066e-05
-7.03395e-06 3.37066e-05 0.000801957
0.0139365 0.00295699 -0.000136389
0.00295699 0.0014727 5.86138e-05
-0.000136389 5.86138e-05 0.000372987
0.00383701 -0.00240862 -0.000646728
-0.00240862 0.0042225 -0.000224351
-0.000646728 -0.000224351 0.000753173
0.000705213 -0.0043092 0.000950286
-0.0043092 0.00767052 0.000235795
0.000950286 0.000235795 0.00123894
0.0107437 -0.00326873 0.000366794
-0.00326873 0.00437728 0.000321598
0.000366794 0.000321598 -0.000140551
0.0139894 0.00561933 -0.000109921
0.00561933 0.00461984 -5.59033e-05
-0.000109921 -5.59033e-05 0.000522826
-0.00299084 0.000320058 -4.6988e-05
0.000320058 0.000214883 -4.17663e-05
-4.6988e-05 -4.17663e-05 -0.000305054
0.00205878 0.00215232 -7.15536e-05
0.00215232 0.000507262 -2.71046e-05
-7.15536e-05 -2.71046e-05 0.00139048
0.0166828 0.0054476 1.98646e-05
0.0054476 0.00312094 3.91988e-05
1.98646e-05 3.91988e-05 0.000592706
0.00682538 0.00408995 -0.00010951
0.00408995 -0.000297042 -0.000118524
-0.00010951 -0.000118524 0.00035322
0.00182509 0.00133287 4.73633e-06
0.00133287 0.000215801 6.0373e-06
4.73633e-06 6.0373e-06 -8.41794e-05
0.00161245 0.00100914 1.20351e-05
0.00100914 0.000463344 -4.31914e-06
1.20351e-05 -4.31914e-06 0.000140029
0.00171533 0.000631305 -3.23588e-05
0.000631305 0.00077755 5.91981e-06
-3.23588e-05 5.91981e-06 0.000607386
0.00245295 0.00180243 -7.42802e-05
0.00180243 0.000629374 -2.77246e-05
-7.42802e-05 -2.77246e-05 -0.000278231
0.00149749 0.00203287 8.50641e-05
0.00203287 -0.000769099 4.5282e-05
8.50641e-05 4.5282e-05 -0.00127033
0.00302806 -0.000289546 -0.000139744
-0.000289546 -0.00528749 5.20705e-05
-0.000139744 5.20705e-05 -0.00554383
0.000518231 -0.00192792 1.3289e-05
-0.00192792 0.00257611 1.98083e-05
1.3289e-05 1.98083e-05 0.0012457
-0.0125793 -0.000338478 0.000365547
-0.000338478 0.00670326 -2.27266e-05
0.000365547 -2.27266e-05 0.000808058
0.000999882 -0.00220124 -6.7869e-05
-0.00220124 -0.00025319 3.13887e-05
-6.7869e-05 3.13887e-05 -0.00119852
0.00630373 -0.00367903 2.83949e-05
-0.00367903 0.000310892 4.94059e-05
2.83949e-05 4.94059e-05 0.000958626
0.00310448 0.000150473 0.00109563
0.000150473 0.00427818 -0.000260179
0.00109563 -0.000260179 0.00220414
0.0146136 -0.00283339 -0.000330133
-0.00283339 0.00151416 0.000177223
-0.000330133 0.000177223 0.000853431
0.00175658 -0.00158188 -3.07333e-05
-0.00158188 -0.000162803 2.96448e-06
-3.07333e-05 2.96448e-06 -0.000499871
0.0117174 -0.000161249 -0.000214176
-0.000161249 -0.00151377 7.76219e-05
-0.000214176 7.76219e-05 -0.00221225
0.00722851 -0.00236176 9.73875e-05
-0.00236176 -0.000609964 1.0799e-05
9.73875e-05 1.0799e-05 0.000471669
0.00367924 -0.00135446 6.55677e-05
-0.00135446 0.000258887 -4.39749e-05
6.55677e-05 -4.39749e-05 0.000113489
0.00243753 -0.000891043 8.56644e-06
-0.000891043 -0.00243752 3.18879e-06
8.56644e-06 3.18879e-06 -0.000980384
-0.00451258 -0.000206014 1.08312e-05
-0.000206014 -0.00316436 1.66269e-05
1.08312e-05 1.66269e-05 -0.00315855
0.0014123 -0.000801237 -2.02483e-05
-0.000801237 -0.000336236 2.64238e-06
-2.02483e-05 2.64238e-06 -0.000347695
0.00379526 -0.000848119 3.8895e-05
-0.000848119 0.000725511 -1.45099e-05
3.8895e-05 -1.45099e-05 0.000778833
0.00120387 -0.000885213 -9.83604e-06
-0.000885213 -0.000215369 7.51452e-06
-9.83604e-06 7.51452e-06 -0.000592774
0.00227001 -0.000847197 -3.97835e-06
-0.000847197 2.98165e-05 3.25945e-06
-3.97835e-06 3.25945e-06 -0.000180785
0.00249924 -0.000685639 5.3376e-06
-0.000685639 -1.00174e-05 -7.32301e-07
5.3376e-06 -7.32301e-07 -3.23239e-05
0.00221939 -0.000807435 -3.10168e-06
-0.000807435 0.00020266 9.2573e-06
-3.10168e-06 9.2573e-06 -0.000105208
0.00218946 -0.000601622 4.79723e-07
-0.000601622 1.01222e-05 1.41991e-06
4.79723e-07 1.41991e-06 -0.000106805
0.00233542 -0.000598317 -6.81945e-07
-0.000598317 7.25626e-05 6.47192e-07
-6.81945e-07 6.47192e-07 1.66109e-05
0.00194726 -0.000549078 5.40284e-06
-0.000549078 1.0074e-05 5.81632e-06
5.40284e-06 5.81632e-06 -0.000192349
0.0021154 -0.00054338 4.31672e-08
-0.00054338 6.79628e-05 1.27761e-06
4.31672e-08 1.27761e-06 -6.8052e-05
0.00226924 -0.000581415 -2.30963e-06
-0.000581415 0.000135711 1.8916e-06
-2.30963e-06 1.8916e-06 1.31416e-05
0.0021101 -0.000524002 -4.55233e-06
-0.000524002 0.000152872 2.15533e-06
-4.55233e-06 2.15533e-06 -4.68743e-06
0.00221895 -0.000517653 -1.44959e-06
-0.000517653 0.000272254 -3.90735e-07
-1.44959e-06 -3.90735e-07 0.000101602
0.00218009 -0.000507298 2.5131e-06
-0.000507298 0.000206609 4.66701e-06
2.5131e-06 4.66701e-06 3.18356e-05
0.00211815 -0.000502671 6.97344e-07
-0.000502671 0.000230097 -5.91681e-07
6.97344e-07 -5.91681e-07 3.52109e-05
0.00203242 -0.000520484 -3.30023e-06
-0.000520484 0.000181928 -2.14694e-06
-3.30023e-06 -2.14694e-06 -3.3481e-05
0.00212496 -0.000579526 -3.81086e-06
-0.000579526 0.000319084 -4.20136e-06
-3.81086e-06 -4.20136e-06 3.09441e-05
0.00215514 -0.000602841 -5.14981e-07
-0.000602841 0.000266316 5.14315e-08
-5.14981e-07 5.14315e-08 -1.22571e-05
0.00224229 -0.000594491 7.86042e-06
-0.000594491 0.000305813 4.02368e-06
7.86042e-06 4.02368e-06 3.9421e-05
0.00170272 -0.000576047 -1.12336e-05
-0.000576047 0.000265385 2.46429e-06
-1.12336e-05 2.46429e-06 -9.20122e-05
0.00192653 -0.000676278 -1.94504e-06
-0.000676278 0.000299313 -3.37258e-07
-1.94504e-06 -3.37258e-07 -7.43973e-05
0.00177733 -0.000704682 5.96596e-06
-0.000704682 0.000117284 2.19374e-06
5.96596e-06 2.19374e-06 -0.000257978
0.000843047 -0.000276147 -1.186e-05
-0.000276147 4.15065e-05 8.2296e-06
-1.186e-05 8.2296e-06 -0.000197226
0.00144879 -0.000536702 4.90443e-07
-0.000536702 0.000268861 3.2587e-07
4.90443e-07 3.2587e-07 -9.2347e-05
0.00201609 -0.000740046 3.24062e-06
-0.000740046 0.000522714 2.44718e-06
3.24062e-06 2.44718e-06 9.01924e-05
0.000264515 -0.000190768 -2.13411e-05
-0.000190768 -0.000196892 1.93828e-05
-2.13411e-05 1.93828e-05 -0.000324999
0.000613893 -0.000230391 -4.18133e-07
-0.000230391 -2.0491e-05 3.03292e-07
-4.18133e-07 3.03292e-07 -0.000248238
0.00107975 -0.000412889 8.61069e-06
-0.000412889 0.000148055 -1.61723e-06
8.61069e-06 -1.61723e-06 -0.000166031
0.00536138 0.000157995 -0.000158163
0.000157995 0.00312538 1.04502e-05
-0.000158163 1.04502e-05 0.00311134
0.000501688 -0.000166618 -4.11195e-06
-0.000166618 -4.01814e-05 -8.80186e-07
-4.11195e-06 -8.80186e-07 -0.00014786
0.00119612 -0.000280183 5.77252e-06
-0.000280183 0.000420881 -3.21426e-06
5.77252e-06 -3.21426e-06 0.000163739
0.00475561 0.000177626 2.12161e-05
0.000177626 0.00275382 2.64086e-07
2.12161e-05 2.64086e-07 0.00273466
0.000662618 -0.000114219 2.25781e-05
-0.000114219 8.27828e-05 -1.46689e-05
2.25781e-05 -1.46689e-05 -9.11606e-06
0.00421898 0.00014101 0.000121451
0.00014101 0.0023938 -8.43879e-06
0.000121451 -8.43879e-06 0.00238686
0.00239279 0.000668444 6.70899e-06
0.000668444 0.00103229 1.03035e-07
6.70899e-06 1.03035e-07 0.000610639
0.000723836 0.000288107 -1.70727e-06
0.000288107 4.67822e-05 -3.02259e-06
-1.70727e-06 -3.02259e-06 -0.000184426
0.000354006 0.000172417 4.81571e-06
0.000172417 -0.000140751 2.27991e-06
4.81571e-06 2.27991e-06 -0.000352035
-0.000756209 5.32054e-05 -2.31214e-06
5.32054e-05 -0.000798298 1.47212e-06
-2.31214e-06 1.47212e-06 -0.00100253
0.000333177 0.000141042 4.0867e-07
0.000141042 -5.86176e-05 2.03449e-06
4.0867e-07 2.03449e-06 -0.000289115
0.00101974 0.000125968 -5.52466e-07
0.000125968 0.000353897 -1.22605e-05
-5.52466e-07 -1.22605e-05 0.000151644
0.00021117 6.94808e-05 -3.42635e-06
6.94808e-05 -8.11479e-05 2.62592e-06
-3.42635e-06 2.62592e-06 -0.00031853
0.000596006 9.60372e-05 -6.26642e-08
9.60372e-05 9.91534e-05 6.33833e-07
-6.26642e-08 6.33833e-07 -6.99708e-05
0.000537746 5.25048e-05 -9.45774e-06
5.25048e-05 2.93767e-05 -1.62581e-05
-9.45774e-06 -1.62581e-05 -3.73643e-05
0.00336298 -0.000107396 -9.21826e-05
-0.000107396 0.00184092 -7.71547e-06
-9.21826e-05 -7.71547e-06 0.00184302
0.000399746 1.84881e-05 1.41255e-06
1.84881e-05 -4.871e-05 -4.55299e-07
1.41255e-06 -4.55299e-07 -0.000101983
0.000384195 6.11685e-05 -3.19832e-06
6.11685e-05 -3.41584e-05 7.83642e-06
-3.19832e-06 7.83642e-06 -0.000167875
0.00290389 -0.000107307 -8.8853e-06
-0.000107307 0.00153999 8.45496e-07
-8.8853e-06 8.45496e-07 0.00154193
0.000276634 -5.44609e-05 -7.59988e-06
-5.44609e-05 -0.000121469 1.06865e-05
-7.59988e-06 1.06865e-05 -0.000166819
0.0026877 -8.75583e-05 3.74612e-05
-8.75583e-05 0.00139434 5.16136e-06
3.74612e-05 5.16136e-06 0.00140042
0.0154133 0.000668671 0.000540277
0.000668671 0.00172796 0.000131195
0.000540277 0.000131195 0.00161084
-0.00058139 -0.00334289 -0.000610578
-0.00334289 -0.00222248 -9.10966e-05
-0.000610578 -9.10966e-05 -0.00495911
-0.0094891 0.00163257 -0.000235493
0.00163257 0.00496103 -0.000129986
-0.000235493 -0.000129986 -0.0024758
8.64629e-06 5.36927e-05 1.51585e-05
5.36927e-05 -0.00023324 -1.05234e-05
1.51585e-05 -1.05234e-05 -0.00057379
0.00156414 0.000489685 -8.19644e-06
0.000489685 0.000668262 -1.07402e-06
-8.19644e-06 -1.07402e-06 0.000315457
0.00266325 0.00069369 -1.0949e-05
0.00069369 0.00141468 -2.82666e-06
-1.0949e-05 -2.82666e-06 0.00093564
0.00142264 0.000651985 1.08497e-06
0.000651985 0.000429627 -9.16116e-07
1.08497e-06 -9.16116e-07 -3.38576e-05
0.00152868 0.000716068 1.16783e-05
0.000716068 0.0002837 1.95583e-05
1.16783e-05 1.95583e-05 -0.000157872
-0.000543211 0.000513902 3.50345e-05
0.000513902 -0.000783495 8.98806e-06
3.50345e-05 8.98806e-06 -0.00116321
0.000119995 0.000390799 -1.4326e-05
0.000390799 3.28148e-05 9.58987e-06
-1.4326e-05 9.58987e-06 -0.000462043
-0.000224833 0.000622941 7.70636e-06
0.000622941 -0.000660515 -1.77009e-06
7.70636e-06 -1.77009e-06 -0.00100702
0.00224186 0.000882734 9.88895e-06
0.000882734 0.000835132 7.26804e-06
9.88895e-06 7.26804e-06 0.000521725
-0.000101302 0.000655578 6.38123e-06
0.000655578 -0.000720253 -6.27807e-06
6.38123e-06 -6.27807e-06 -0.000998048
0.00389548 0.00113779 6.72628e-06
0.00113779 0.00137782 1.32615e-05
6.72628e-06 1.32615e-05 0.00115552
0.00137922 0.000955596 2.22767e-05
0.000955596 2.75002e-05 7.02232e-06
2.22767e-05 7.02232e-06 -0.000292376
0.00057195 0.000841208 4.58797e-06
0.000841208 -0.000465145 -2.2479e-07
4.58797e-06 -2.2479e-07 -0.00054174
0.00081589 0.000586514 -4.25562e-06
0.000586514 0.000171602 -5.97063e-05
-4.25562e-06 -5.97063e-05 -5.18191e-05
0.00468207 0.00196922 2.38315e-05
0.00196922 -0.00206998 3.13767e-05
2.38315e-05 3.13767e-05 -0.000264333
0.0140306 0.003587 0.000313949
0.003587 0.000520507 0.000172457
0.000313949 0.000172457 -0.000943909
0.0124022 -0.00497333 0.000638542
-0.00497333 0.00602093 -4.9155e-05
0.000638542 -4.9155e-05 0.00209885
0.00587579 0.00573156 0.000639567
0.00573156 -0.00114519 0.000353456
0.000639567 0.000353456 -0.00526693
-0.000120254 0.00148033 -5.32353e-05
0.00148033 6.02943e-05 9.83068e-06
-5.32353e-05 9.83068e-06 0.000729075
0.00382388 0.00273598 -0.000104196
0.00273598 -0.000809255 -5.48612e-05
-0.000104196 -5.48612e-05 0.000246311
0.00638135 0.00240911 6.61189e-05
0.00240911 0.00114994 3.4829e-05
6.61189e-05 3.4829e-05 0.000912429
0.00468224 0.00176392 2.23823e-05
0.00176392 0.00148722 9.53678e-06
2.23823e-05 9.53678e-06 0.00108928
0.00017447 0.000791014 -2.94417e-05
0.000791014 -0.000288469 4.29033e-06
-2.94417e-05 4.29033e-06 -0.000532231
0.0075692 0.00281009 -0.000192234
0.00281009 0.00204838 -2.08113e-05
-0.000192234 -2.08113e-05 0.00133194
0.00317837 -0.000604312 1.00603e-05
-0.000604312 -0.00102079 2.00329e-05
1.00603e-05 2.00329e-05 -2.55963e-05
0.011665 -0.000590406 -5.37256e-05
-0.000590406 0.000753702 -2.09931e-05
-5.37256e-05 -2.09931e-05 0.000964087
-0.0129811 -0.00317005 0.000894535
-0.00317005 -0.00490768 1.01404e-06
0.000894535 1.01404e-06 -0.00640869
0.00109224 -0.00139172 -0.000122061
-0.00139172 -0.000395267 3.77953e-05
-0.000122061 3.77953e-05 -0.000677228
0.00846121 -0.00287262 -2.71425e-05
-0.00287262 -0.000708358 8.68765e-05
-2.71425e-05 8.68765e-05 0.000614861
0.0012264 -0.000312496 -0.000320972
-0.000312496 -0.0054696 4.03382e-05
-0.000320972 4.03382e-05 -0.00688841
0.00307962 -0.00117451 3.51815e-05
-0.00117451 -8.65471e-05 1.2446e-06
3.51815e-05 1.2446e-06 6.72213e-05
0.00523585 -0.000845014 -5.45041e-05
-0.000845014 -0.000727618 1.72155e-06
-5.45041e-05 1.72155e-06 0.000300794
0.00624796 -0.000996771 5.31509e-05
-0.000996771 0.00143818 -3.54868e-05
5.31509e-05 -3.54868e-05 0.00182713
0.00592702 -0.000536951 0.000116362
-0.000536951 0.00127084 -1.15005e-06
0.000116362 -1.15005e-06 0.0016309
-0.00315254 -0.000404101 1.09709e-05
-0.000404101 -0.00293735 1.22409e-05
1.09709e-05 1.22409e-05 -0.0026605
0.00215239 -0.000714736 -7.82577e-06
-0.000714736 -0.000221357 2.24897e-06
-7.82577e-06 2.24897e-06 -4.64736e-05
0.00239583 -0.000541922 2.57265e-05
-0.000541922 -0.000255191 -6.5106e-06
2.57265e-05 -6.5106e-06 3.32554e-05
0.00185174 -0.000813236 2.0362e-06
-0.000813236 -0.000199362 5.51211e-06
2.0362e-06 5.51211e-06 -0.000409959
0.00243028 -0.000680266 1.31369e-06
-0.000680266 -4.23039e-05 1.68432e-06
1.31369e-06 1.68432e-06 -6.55687e-05
0.00247977 -0.000596557 1.55539e-06
-0.000596557 1.90331e-05 -2.7597e-07
1.55539e-06 -2.7597e-07 2.67999e-05
0.00221923 -0.000604625 3.10732e-06
-0.000604625 2.57734e-05 4.96646e-06
3.10732e-06 4.96646e-06 -9.10348e-05
0.00229451 -0.000591663 2.44297e-07
-0.000591663 6.18804e-05 4.36201e-07
2.44297e-07 4.36201e-07 1.16322e-06
0.00229128 -0.000525892 -2.13267e-06
-0.000525892 4.96493e-05 2.78918e-07
-2.13267e-06 2.78918e-07 -8.59592e-06
0.0021015 -0.000542739 3.86002e-06
-0.000542739 5.79465e-05 8.45647e-07
3.86002e-06 8.45647e-07 -7.69829e-05
0.00224798 -0.000575628 -8.86468e-08
-0.000575628 0.000148675 2.73083e-09
-8.86468e-08 2.73083e-09 2.39006e-05
0.00213947 -0.000511698 2.33787e-08
-0.000511698 0.000126327 7.1186e-07
2.33787e-08 7.1186e-07 -3.9687e-06
0.00213033 -0.000532521 -1.33832e-06
-0.000532521 0.000155745 1.01923e-06
-1.33832e-06 1.01923e-06 5.17928e-07
0.00215315 -0.000508059 -1.69363e-06
-0.000508059 0.000227084 1.98342e-07
-1.69363e-06 1.98342e-07 5.97403e-05
0.00222991 -0.000507855 -2.43458e-06
-0.000507855 0.000293314 -1.46117e-07
-2.43458e-06 -1.46117e-07 0.000107352
0.00211545 -0.000501059 4.57822e-06
-0.000501059 0.00022725 2.12484e-06
4.57822e-06 2.12484e-06 3.30012e-05
0.00207195 -0.00052313 -3.48134e-07
-0.00052313 0.000205695 -7.71694e-08
-3.48134e-07 -7.71694e-08 -1.02815e-05
0.00211783 -0.000519415 -1.16274e-06
-0.000519415 0.000278022 -2.42338e-06
-1.16274e-06 -2.42338e-06 3.95185e-05
0.00178524 -0.000512621 -8.49771e-06
-0.000512621 0.000216381 -9.21715e-07
-8.49771e-06 -9.21715e-07 -8.43572e-05
0.00206136 -0.000580144 -7.05045e-07
-0.000580144 0.00027729 -1.24871e-06
-7.05045e-07 -1.24871e-06 -1.70494e-05
0.00222158 -0.00061175 4.75775e-06
-0.00061175 0.000311247 2.6893e-06
4.75775e-06 2.6893e-06 2.95237e-05
0.00103694 -0.000321445 -1.79294e-05
-0.000321445 4.71241e-05 9.60678e-06
-1.79294e-05 9.60678e-06 -0.000203057
0.00175467 -0.000573176 -2.03356e-07
-0.000573176 0.000307924 9.64145e-07
-2.03356e-07 9.64145e-07 -4.63069e-05
0.00186523 -0.000668447 3.12893e-06
-0.000668447 0.000262339 1.91879e-06
3.12893e-06 1.91879e-06 -0.000112175
0.000261542 -0.000198616 -1.82216e-05
-0.000198616 -0.000222983 2.10611e-05
-1.82216e-05 2.10611e-05 -0.000361363
0.000789849 -0.000282298 1.45315e-06
-0.000282298 2.09893e-06 -1.08062e-07
1.45315e-06 -1.08062e-07 -0.000241449
0.00148384 -0.000539065 1.22736e-05
-0.000539065 0.000297894 -2.28993e-06
1.22736e-05 -2.28993e-06 -6.29894e-05
0.00646294 7.7676e-05 -0.000237479
7.7676e-05 0.00378711 1.54599e-05
-0.000237479 1.54599e-05 0.00378872
0.0003558 -0.000201103 -1.76199e-06
-0.000201103 -0.000140051 -3.25619e-07
-1.76199e-06 -3.25619e-07 -0.000269188
0.000613117 -0.000237188 9.5791e-06
-0.000237188 -1.6289e-05 -6.67345e-06
9.5791e-06 -6.67345e-06 -0.000250475
0.00583104 0.000112874 -8.30392e-06
0.000112874 0.00341708 -1.98063e-06
-8.30392e-06 -1.98063e-06 0.0034093
0.000407516 -0.000165499 2.07462e-05
-0.000165499 -9.11804e-05 -1.72763e-05
2.07462e-05 -1.72763e-05 -0.000205565
0.00518318 0.000115217 0.000188795
0.000115217 0.00301708 -1.83769e-05
0.000188795 -1.83769e-05 0.00301011
0.00187217 0.000676095 -4.58866e-06
0.000676095 0.000541283 4.37949e-06
-4.58866e-06 4.37949e-06 0.000121683
0.0018296 0.000600543 -1.50747e-06
0.000600543 0.000657333 -1.39213e-06
-1.50747e-06 -1.39213e-06 0.000258206
0.00097027 0.000363509 -1.31604e-06
0.000363509 0.000143431 -2.82457e-06
-1.31604e-06 -2.82457e-06 -0.000151899
0.00131081 0.000379252 -9.07853e-06
0.000379252 0.000458778 -2.65066e-06
-9.07853e-06 -2.65066e-06 0.000190887
0.000352561 0.00018924 1.854e-06
0.00018924 -0.000124306 -4.46072e-07
1.854e-06 -4.46072e-07 -0.000347562
0.000795595 0.000242471 -2.90599e-06
0.000242471 0.00020063 -7.09339e-06
-2.90599e-06 -7.09339e-06 -3.7552e-05
5.93537e-05 8.81412e-05 -3.03653e-07
8.81412e-05 -0.000246626 3.33804e-06
-3.03653e-07 3.33804e-06 -0.000464593
0.000635334 0.000142403 9.85043e-07
0.000142403 0.00013302 -5.5184e-07
9.85043e-07 -5.5184e-07 -8.15664e-05
0.000701384 9.33191e-05 -1.73344e-05
9.33191e-05 0.00011872 -1.81289e-05
-1.73344e-05 -1.81289e-05 3.42475e-05
0.000216569 6.69722e-05 -2.92087e-06
6.69722e-05 -0.000115987 1.07745e-05
-2.92087e-06 1.07745e-05 -0.000294779
0.00052343 5.98191e-05 1.94687e-07
5.98191e-05 2.55013e-05 -1.69902e-07
1.94687e-07 -1.69902e-07 -4.0234e-05
0.00407685 -0.000131356 -0.000118773
-0.000131356 0.00230915 -1.0453e-05
-0.000118773 -1.0453e-05 0.00230372
0.00335796 -0.000130978 -1.18603e-05
-0.000130978 0.00184115 1.02889e-06
-1.18603e-05 1.02889e-06 0.00183692
0.000370108 4.78139e-05 6.48692e-06
4.78139e-05 -6.62618e-05 1.35277e-05
6.48692e-06 1.35277e-05 -0.000118297
0.00291826 -0.000109635 4.5805e-05
-0.000109635 0.00154943 5.32529e-06
4.5805e-05 5.32529e-06 0.00155062
0.0038566 0.000198883 9.30394e-05
0.000198883 -0.00145395 3.14595e-05
9.30394e-05 3.14595e-05 0.000216708
0.00561218 -0.000916969 0.000201194
-0.000916969 -0.00471683 9.50822e-05
0.000201194 9.50822e-05 -0.005526
0.0135865 -0.00363324 -0.00025167
-0.00363324 0.00576641 -0.000110481
-0.00025167 -0.000110481 0.00382816
0.00155336 0.000690886 5.51362e-06
0.000690886 9.52422e-05 9.29303e-06
5.51362e-06 9.29303e-06 -0.000277285
0.00477662 0.00091124 -1.40767e-05
0.00091124 0.00261251 -1.6864e-06
-1.40767e-05 -1.6864e-06 0.00210434
0.000601823 0.00054335 -1.06221e-05
0.00054335 -6.35668e-05 -6.85146e-06
-1.06221e-05 -6.85146e-06 -0.000497774
0.00152796 0.000768786 1.29117e-06
0.000768786 0.000458124 -3.41378e-06
1.29117e-06 -3.41378e-06 2.1035e-05
0.00176469 0.000744211 -1.68878e-06
0.000744211 0.000451397 3.76871e-06
-1.68878e-06 3.76871e-06 -3.28477e-06
0.00156896 0.000804601 2.2088e-05
0.000804601 0.000267049 1.29313e-05
2.2088e-05 1.29313e-05 -0.000123277
0.00256436 0.000927614 -4.48816e-05
0.000927614 0.00101587 -2.58156e-06
-4.48816e-05 -2.58156e-06 0.000589304
0.000495205 0.000683664 1.54735e-05
0.000683664 -0.000136186 -3.67159e-05
1.54735e-05 -3.67159e-05 -0.000429243
0.00197242 0.000936889 5.98875e-07
0.000936889 0.000458805 -1.64804e-06
5.98875e-07 -1.64804e-06 0.000118981
0.00225694 0.000968146 9.40691e-06
0.000968146 0.000380885 -2.91992e-06
9.40691e-06 -2.91992e-06 0.000307811
0.00227391 0.000982294 1.66346e-05
0.000982294 0.000351919 -3.43247e-06
1.66346e-05 -3.43247e-06 2.49734e-06
0.00193769 0.000832795 2.57192e-05
0.000832795 0.00024619 2.40171e-05
2.57192e-05 2.40171e-05 4.49221e-05
0.000764354 0.000884707 -7.34569e-06
0.000884707 -0.000301213 -6.31089e-06
-7.34569e-06 -6.31089e-06 -0.000590923
0.000368763 0.000811577 -2.12908e-05
0.000811577 -0.000560687 -2.53242e-05
-2.12908e-05 -2.53242e-05 -0.000624225
0.00151815 0.00088347 5.4411e-05
0.00088347 -0.00115438 3.72084e-05
5.4411e-05 3.72084e-05 -0.000684179
0.00612035 0.00206166 -9.72673e-05
0.00206166 -0.0014924 -2.98306e-05
-9.72673e-05 -2.98306e-05 0.000216298
0.00436631 0.00244227 0.000613184
0.00244227 -0.00500189 0.000146284
0.000613184 0.000146284 -0.00651412
0.00246814 0.00222758 -0.00020028
0.00222758 -0.000619749 -8.18193e-05
-0.00020028 -8.18193e-05 0.000265785
0.00482047 0.00196166 -3.08673e-05
0.00196166 0.000787538 -9.52922e-06
-3.08673e-05 -9.52922e-06 0.000644854
0.00544445 0.00188625 -0.000159217
0.00188625 0.00176556 -4.831e-05
-0.000159217 -4.831e-05 0.00134743
0.00296039 -0.000243714 -5.47291e-05
-0.000243714 -0.000563541 -1.8003e-05
-5.47291e-05 -1.8003e-05 -0.000131531
-0.000657357 -0.000339125 9.8803e-05
-0.000339125 -0.00155594 2.21045e-05
9.8803e-05 2.21045e-05 -0.000393783
0.00405715 0.000743873 0.000249854
0.000743873 -0.00533267 -1.90856e-05
0.000249854 -1.90856e-05 -0.00551691
0.00057099 -0.000886296 -5.53838e-05
-0.000886296 -0.0013407 7.76074e-05
-5.53838e-05 7.76074e-05 -0.000984917
0.00686006 -0.000949114 -0.000179801
-0.000949114 0.000184932 5.2976e-05
-0.000179801 5.2976e-05 0.000741464
0.00273062 -0.000737639 -2.33804e-05
-0.000737639 -0.000506605 1.18275e-05
-2.33804e-05 1.18275e-05 -1.29384e-05
0.00442171 -0.000529131 -1.07626e-05
-0.000529131 0.000447958 -2.83468e-06
-1.07626e-05 -2.83468e-06 0.000716006
0.00303495 -0.000409111 6.92278e-05
-0.000409111 1.73329e-05 -1.0245e-05
6.92278e-05 -1.0245e-05 0.000380468
0.00380879 -0.000116438 5.29028e-05
-0.000116438 0.00106942 1.03101e-06
5.29028e-05 1.03101e-06 0.00110894
0.000423369 -0.0005615 -2.14542e-05
-0.0005615 -0.00118689 1.3124e-05
-2.14542e-05 1.3124e-05 -0.00089424
0.00228216 -0.000563371 -2.83301e-06
-0.000563371 -0.00033845 1.18108e-06
-2.83301e-06 1.18108e-06 -6.60407e-05
0.00248612 -0.000466387 4.1355e-06
-0.000466387 -0.000200741 -1.32661e-06
4.1355e-06 -1.32661e-06 2.56481e-05
0.00235212 -0.000669471 -1.50638e-06
-0.000669471 -7.40864e-05 3.14608e-06
-1.50638e-06 3.14608e-06 -9.5489e-05
0.00245801 -0.0005809 3.80074e-09
-0.0005809 2.82248e-05 -4.97737e-07
3.80074e-09 -4.97737e-07 4.27242e-05
0.00234944 -0.000455184 -1.01709e-06
-0.000455184 -3.03196e-05 -1.26151e-07
-1.01709e-06 -1.26151e-07 -7.99028e-06
0.00225153 -0.000583296 -1.23984e-07
-0.000583296 5.15237e-05 6.01467e-07
-1.23984e-07 6.01467e-07 -1.23189e-05
0.00228138 -0.000530324 -8.41291e-07
-0.000530324 5.51668e-05 6.1901e-08
-8.41291e-07 6.1901e-08 -2.67535e-06
0.00217436 -0.000447082 -1.37959e-06
-0.000447082 6.36331e-05 9.93104e-07
-1.37959e-06 9.93104e-07 -1.01208e-05
0.00222316 -0.000569152 4.49732e-07
-0.000569152 0.0001596 -1.4545e-06
4.49732e-07 -1.4545e-06 3.34694e-05
0.00212436 -0.000511994 9.80757e-07
-0.000511994 0.00011371 -4.50367e-07
9.80757e-07 -4.50367e-07 -1.70183e-05
0.00211012 -0.00047162 -1.33844e-06
-0.00047162 0.000156773 3.48341e-07
-1.33844e-06 3.48341e-07 5.26166e-06
0.00208558 -0.000498779 -1.26592e-06
-0.000498779 0.000181358 9.5663e-07
-1.26592e-06 9.5663e-07 1.7224e-05
0.00216572 -0.000501697 -1.63159e-06
-0.000501697 0.000245292 6.48814e-07
-1.63159e-06 6.48814e-07 6.31085e-05
0.00219896 -0.000493704 -1.37603e-06
-0.000493704 0.000288487 -1.76184e-06
-1.37603e-06 -1.76184e-06 8.49412e-05
0.00210816 -0.000525842 3.04627e-06
-0.000525842 0.000226896 2.51029e-06
3.04627e-06 2.51029e-06 1.03104e-05
0.00212147 -0.000521674 2.77721e-07
-0.000521674 0.000280417 -3.66815e-07
2.77721e-07 -3.66815e-07 4.26204e-05
0.00190911 -0.000457893 -5.93287e-06
-0.000457893 0.000254123 3.41472e-07
-5.93287e-06 3.41472e-07 -5.0853e-06
0.00113027 -0.000323304 -2.045e-05
-0.000323304 3.3401e-05 8.68299e-06
-2.045e-05 8.68299e-06 -0.000211055
0.0017982 -0.000511881 -1.08426e-06
-0.000511881 0.000232615 -6.73223e-07
-1.08426e-06 -6.73223e-07 -7.08277e-05
0.00198738 -0.000580092 2.33254e-06
-0.000580092 0.000228694 1.36061e-06
2.33254e-06 1.36061e-06 -7.18126e-05
0.00036643 -0.000240738 -2.27238e-05
-0.000240738 -0.000169105 1.96327e-05
-2.27238e-05 1.96327e-05 -0.000321999
0.000944376 -0.000317368 2.06133e-06
-0.000317368 -1.62866e-05 6.87933e-08
2.06133e-06 6.87933e-08 -0.000267681
0.00180035 -0.000570579 9.95882e-06
-0.000570579 0.00034466 -4.84749e-07
9.95882e-06 -4.84749e-07 -6.58836e-06
0.00714514 3.22369e-05 -0.00027996
3.22369e-05 0.00419228 2.06355e-05
-0.00027996 2.06355e-05 0.00419906
0.00038235 -0.000251855 -1.17506e-06
-0.000251855 -0.000137621 1.14669e-06
-1.17506e-06 1.14669e-06 -0.000287746
0.000668277 -0.000286453 1.2194e-05
-0.000286453 -8.18952e-05 -7.7256e-06
1.2194e-05 -7.7256e-06 -0.00033029
0.00666139 6.21545e-05 -4.67659e-06
6.21545e-05 0.00391435 -1.76284e-07
-4.67659e-06 -1.76284e-07 0.00391438
0.00062224 -0.000249972 2.61966e-05
-0.000249972 2.44125e-05 -2.03399e-05
2.61966e-05 -2.03399e-05 -0.000107212
0.00609989 0.000126129 0.000218003
0.000126129 0.00360407 -2.64419e-05
0.000218003 -2.64419e-05 0.00358638
0.00161899 0.00063048 -2.51003e-06
0.00063048 0.000202732 6.26732e-06
-2.51003e-06 6.26732e-06 -0.000169103
0.00175403 0.00066917 -1.5928e-06
0.00066917 0.000456554 5.96565e-07
-1.5928e-06 5.96565e-07 3.60226e-05
0.00127477 0.000477171 -8.02279e-06
0.000477171 0.000205936 -1.98238e-07
-8.02279e-06 -1.98238e-07 -0.000127303
0.00126251 0.000534998 -6.27847e-06
0.000534998 0.00026844 -1.82557e-06
-6.27847e-06 -1.82557e-06 -0.000108257
0.00108215 0.000354485 -4.06796e-06
0.000354485 0.000200359 -1.98374e-06
-4.06796e-06 -1.98374e-06 -8.66698e-05
0.00108212 0.000251699 -9.44941e-06
0.000251699 0.000311865 -2.98304e-06
-9.44941e-06 -2.98304e-06 7.65336e-05
0.000129178 0.000160939 -3.3808e-06
0.000160939 -0.000275208 -1.05045e-06
-3.3808e-06 -1.05045e-06 -0.000495426
0.000824578 0.000176224 -5.519e-07
0.000176224 0.00019664 -1.34513e-07
-5.519e-07 -1.34513e-07 -2.51187e-05
0.000511553 0.000140255 -2.55294e-05
0.000140255 -2.73513e-05 -1.79424e-05
-2.55294e-05 -1.79424e-05 -0.000121815
0.000431972 0.000110726 8.97146e-07
0.000110726 -7.49894e-06 1.13622e-05
8.97146e-07 1.13622e-05 -0.0002079
0.000461715 8.63405e-05 -9.41946e-07
8.63405e-05 -2.58509e-05 -3.10068e-07
-9.41946e-07 -3.10068e-07 -0.000104906
0.00466659 -0.000153395 -0.000143242
-0.000153395 0.00269897 -1.40571e-05
-0.000143242 -1.40571e-05 0.00268458
0.000301122 6.41472e-05 1.0228e-05
6.41472e-05 -0.000108939 1.59946e-05
1.0228e-05 1.59946e-05 -0.000172221
0.00384965 -0.000150331 -1.12133e-05
-0.000150331 0.00216941 1.19527e-06
-1.12133e-05 1.19527e-06 0.00215869
0.00319749 -0.000136691 5.43591e-05
-0.000136691 0.00173883 5.95628e-06
5.43591e-05 5.95628e-06 0.00173256
0.000740867 0.000191202 -3.51109e-06
0.000191202 -0.00184212 8.90629e-06
-3.51109e-06 8.90629e-06 -0.00103117
0.00501419 8.96795e-05 6.74121e-05
8.96795e-05 -0.000938256 2.13465e-05
6.74121e-05 2.13465e-05 0.000637119
0.014937 0.000843083 -5.1028e-06
0.000843083 0.00200662 2.39378e-05
-5.1028e-06 2.39378e-05 0.00198465
0.00198326 0.000803489 -1.12426e-06
0.000803489 0.000320914 5.48759e-06
-1.12426e-06 5.48759e-06 -4.26266e-05
0.00219607 0.000763439 1.37158e-07
0.000763439 0.000290598 4.2998e-06
1.37158e-07 4.2998e-06 -3.25132e-05
0.00157464 0.000695207 -5.87486e-07
0.000695207 0.000119016 -4.04713e-06
-5.87486e-07 -4.04713e-06 -0.00025011
0.00289322 0.000940538 -1.56527e-05
0.000940538 0.00126366 1.40262e-06
-1.56527e-05 1.40262e-06 0.000794028
0.0020811 0.000780379 -5.57181e-06
0.000780379 0.000670295 -9.95665e-06
-5.57181e-06 -9.95665e-06 0.000200164
0.00212366 0.000894588 7.63786e-06
0.000894588 0.000549644 3.90314e-06
7.63786e-06 3.90314e-06 0.000147972
0.00213375 0.000897321 -2.05744e-06
0.000897321 0.000192102 -3.26917e-06
-2.05744e-06 -3.26917e-06 -0.000138372
0.00231778 0.0010041 -1.68099e-05
0.0010041 0.000603441 5.65801e-06
-1.68099e-05 5.65801e-06 0.000257877
0.000917274 0.000828467 -1.71571e-05
0.000828467 -0.000448897 1.98112e-05
-1.71571e-05 1.98112e-05 -0.000386194
0.00279328 0.00104453 5.78776e-07
0.00104453 0.000650533 3.47931e-06
5.78776e-07 3.47931e-06 0.000290677
0.00278333 0.000892363 -4.54408e-06
0.000892363 0.000423928 4.5792e-06
-4.54408e-06 4.5792e-06 0.000186006
0.00135179 0.000424412 4.25416e-05
0.000424412 -0.000280594 1.59886e-05
4.25416e-05 1.59886e-05 -0.000200326
0.000384635 0.000685764 8.96133e-06
0.000685764 -0.000568217 -4.88976e-06
8.96133e-06 -4.88976e-06 -0.000752287
0.00105287 0.00091632 -3.55016e-05
0.00091632 -0.000144624 -4.59578e-06
-3.55016e-05 -4.59578e-06 -0.000444029
0.00324894 0.00103332 1.16278e-05
0.00103332 -0.000195234 9.28865e-06
1.16278e-05 9.28865e-06 0.000124642
0.00762157 0.00173025 -3.7502e-05
0.00173025 -0.000734268 -4.2914e-05
-3.7502e-05 -4.2914e-05 0.000588661
0.00472423 0.00165944 -5.13878e-05
0.00165944 0.00118276 -6.37587e-05
-5.13878e-05 -6.37587e-05 0.00110608
0.00259956 -9.93947e-05 4.63611e-05
-9.93947e-05 0.000156838 5.15698e-06
4.63611e-05 5.15698e-06 0.000362075
0.00291632 -0.000240415 -6.9302e-05
-0.000240415 -0.000581612 4.50241e-06
-6.9302e-05 4.50241e-06 -7.24349e-05
0.0044794 0.000426613 2.37304e-05
0.000426613 -0.000166656 -2.19164e-05
2.37304e-05 -2.19164e-05 0.000670201
0.000822705 -0.000620615 -7.34465e-05
-0.000620615 -0.00154056 5.44218e-05
-7.34465e-05 5.44218e-05 -0.00100616
0.00270891 -0.000568224 -0.000100348
-0.000568224 -0.000482871 1.02479e-06
-0.000100348 1.02479e-06 -0.000302672
0.00274961 -0.000400714 8.25151e-06
-0.000400714 -8.03355e-05 -2.67984e-06
8.25151e-06 -2.67984e-06 0.000304421
0.00258375 -0.000106547 -1.77647e-05
-0.000106547 0.000259468 7.78808e-07
-1.77647e-05 7.78808e-07 0.000327842
0.00255677 -0.000259817 1.50924e-05
-0.000259817 -3.02329e-05 -1.34256e-06
1.50924e-05 -1.34256e-06 0.000138918
0.00236464 1.82648e-05 1.08239e-05
1.82648e-05 -0.00012748 2.38225e-06
1.08239e-05 2.38225e-06 -3.7561e-05
0.00231857 -0.000594441 -1.91518e-05
-0.000594441 -0.000333974 5.49301e-06
-1.91518e-05 5.49301e-06 -8.52335e-05
0.00251096 -0.000484957 -2.66209e-06
-0.000484957 -0.000185752 7.97632e-07
-2.66209e-06 7.97632e-07 2.1828e-06
0.00242209 -0.000336088 -3.80454e-07
-0.000336088 -0.000106286 -7.71138e-07
-3.80454e-07 -7.71138e-07 3.50365e-06
0.00243397 -0.000566098 -3.50242e-06
-0.000566098 3.26704e-05 6.09158e-07
-3.50242e-06 6.09158e-07 5.37414e-05
0.0023597 -0.000453145 3.77354e-08
-0.000453145 -1.1204e-05 -1.98031e-07
3.77354e-08 -1.98031e-07 6.37206e-06
0.00225998 -0.000374429 -5.72472e-07
-0.000374429 1.01289e-05 4.46192e-07
-5.72472e-07 4.46192e-07 4.1795e-06
0.00227501 -0.000535165 -3.89187e-07
-0.000535165 6.22124e-05 -8.39408e-07
-3.89187e-07 -8.39408e-07 4.3742e-06
0.00218268 -0.000446757 4.64111e-07
-0.000446757 6.42617e-05 -1.12411e-07
4.64111e-07 -1.12411e-07 -9.36144e-06
0.0021299 -0.000406268 -2.49271e-06
-0.000406268 0.000100039 1.06415e-06
-2.49271e-06 1.06415e-06 7.71711e-07
0.00211154 -0.00051234 2.34186e-06
-0.00051234 0.000102498 -1.52173e-06
2.34186e-06 -1.52173e-06 -2.86556e-05
0.00207692 -0.000469045 7.17527e-07
-0.000469045 0.000131554 -4.48688e-07
7.17527e-07 -4.48688e-07 -1.99729e-05
0.00206805 -0.000440656 -1.58583e-06
-0.000440656 0.000163702 -9.88767e-07
-1.58583e-06 -9.88767e-07 -7.69579e-06
0.00209776 -0.000495424 -3.41821e-07
-0.000495424 0.000194642 1.60531e-06
-3.41821e-07 1.60531e-06 1.62354e-05
0.00216445 -0.000492441 -3.72619e-07
-0.000492441 0.000267742 -1.676e-07
-3.72619e-07 -1.676e-07 6.47514e-05
0.00190285 -0.000423501 -4.56954e-06
-0.000423501 0.000201059 1.89975e-07
-4.56954e-06 1.89975e-07 -3.06223e-05
0.00212401 -0.000523825 2.20343e-06
-0.000523825 0.000282188 2.27406e-06
2.20343e-06 2.27406e-06 4.51086e-05
0.00194859 -0.000462902 -8.21936e-07
-0.000462902 0.000278637 -1.08968e-08
-8.21936e-07 -1.08968e-08 2.03848e-05
0.00114007 -0.000286427 -1.8139e-05
-0.000286427 -6.06108e-07 8.1152e-06
-1.8139e-05 8.1152e-06 -0.00022357
0.000248376 -0.000204138 -1.91941e-05
-0.000204138 -0.00026294 1.84358e-05
-1.91941e-05 1.84358e-05 -0.000405314
0.00110416 -0.000321427 4.66447e-07
-0.000321427 1.74154e-05 -5.45767e-08
4.66447e-07 -5.45767e-08 -0.000226548
0.00181539 -0.000512079 6.40812e-06
-0.000512079 0.000250099 -9.5982e-07
6.40812e-06 -9.5982e-07 -5.63041e-05
0.00752024 -5.56448e-05 -0.000323265
-5.56448e-05 0.0044024 2.55149e-05
-0.000323265 2.55149e-05 0.00441793
0.000335491 -0.000236416 -1.03791e-06
-0.000236416 -0.000198204 1.46071e-06
-1.03791e-06 1.46071e-06 -0.000345562
0.000852725 -0.000312661 1.68741e-05
-0.000312661 -7.77495e-05 -7.57056e-06
1.68741e-05 -7.57056e-06 -0.000330289
0.00736585 -1.97946e-06 -1.15499e-06
-1.97946e-06 0.00432777 8.86728e-07
-1.15499e-06 8.86728e-07 0.00433632
0.000475469 -0.000255332 2.43229e-05
-0.000255332 -8.56095e-05 -2.10677e-05
2.43229e-05 -2.10677e-05 -0.000236012
0.00698964 2.10485e-05 0.000289002
2.10485e-05 0.00411141 -2.71629e-05
0.000289002 -2.71629e-05 0.00411641
0.0019253 0.000684931 -4.28983e-07
0.000684931 0.000244568 6.67113e-06
-4.28983e-07 6.67113e-06 -9.46847e-05
0.00170151 0.000644626 -2.41073e-08
0.000644626 0.000258934 7.4047e-07
-2.41073e-08 7.4047e-07 -0.000113858
0.00164639 0.000542714 -8.42235e-06
0.000542714 0.000315787 1.31018e-06
-8.42235e-06 1.31018e-06 -2.50166e-05
0.00153606 0.000647823 7.92532e-07
0.000647823 0.000315228 -3.296e-06
7.92532e-07 -3.296e-06 -0.000102148
0.00133351 0.000477941 -8.92346e-07
0.000477941 0.00024868 1.3261e-07
-8.92346e-07 1.3261e-07 -8.37894e-05
0.00102892 0.000266807 -1.27754e-05
0.000266807 0.000183129 -4.32482e-06
-1.27754e-05 -4.32482e-06 -4.64508e-05
0.00136391 0.000357108 1.69419e-06
0.000357108 0.000371979 -9.54684e-07
1.69419e-06 -9.54684e-07 9.07533e-05
0.000519535 0.000205498 9.49474e-07
0.000205498 -4.40885e-05 9.08227e-07
9.49474e-07 9.08227e-07 -0.000271243
0.000443683 0.000208352 -2.9106e-05
0.000208352 -8.52492e-05 -1.97983e-05
-2.9106e-05 -1.97983e-05 -0.000198033
0.000317165 0.000126614 1.55377e-06
0.000126614 -0.000111722 6.94982e-06
1.55377e-06 6.94982e-06 -0.000338784
0.000549342 0.0001226 -4.07164e-07
0.0001226 1.87204e-06 -6.61338e-07
-4.07164e-07 -6.61338e-07 -9.17891e-05
0.0056862 -0.000172156 -0.000186326
-0.000172156 0.00336072 -1.99967e-05
-0.000186326 -1.99967e-05 0.00333619
0.000407948 8.13864e-05 1.50667e-05
8.13864e-05 -5.36497e-05 1.83926e-05
1.50667e-05 1.83926e-05 -0.000131199
0.00453305 -0.000179897 -1.13608e-05
-0.000179897 0.00262159 1.37562e-06
-1.13608e-05 1.37562e-06 0.00260059
0.00369687 -0.000164868 7.61158e-05
-0.000164868 0.00207508 7.49739e-06
7.61158e-05 7.49739e-06 0.00205995
0.00155148 0.000202539 3.40919e-05
0.000202539 -0.000346401 1.80075e-05
3.40919e-05 1.80075e-05 -8.55848e-05
0.00255525 0.000252184 -2.46816e-05
0.000252184 -0.00119363 -2.17535e-06
-2.46816e-05 -2.17535e-06 -0.000314731
0.00441153 0.000376365 0.000235006
0.000376365 -0.00171916 7.0135e-05
0.000235006 7.0135e-05 0.000304097
0.00255596 0.000814666 -8.23869e-06
0.000814666 0.000453763 3.25572e-07
-8.23869e-06 3.25572e-07 0.000144989
0.00189176 0.000817638 -7.14937e-06
0.000817638 0.000245488 -5.32426e-06
-7.14937e-06 -5.32426e-06 -0.000115219
0.00225582 0.000618041 1.9538e-06
0.000618041 0.000201768 4.83106e-06
1.9538e-06 4.83106e-06 -3.28203e-05
0.002225 0.000755701 1.49592e-06
0.000755701 0.000312132 5.08499e-07
1.49592e-06 5.08499e-07 -8.67651e-06
0.00155964 0.000695925 4.52978e-06
0.000695925 0.000119211 -1.17911e-05
4.52978e-06 -1.17911e-05 -0.000245746
0.00233377 0.000696524 -2.56957e-06
0.000696524 0.000117278 9.54871e-07
-2.56957e-06 9.54871e-07 -8.44737e-05
0.0027452 0.000992047 -7.6145e-06
0.000992047 0.00087382 -4.19514e-06
-7.6145e-06 -4.19514e-06 0.000457757
0.00250635 0.000913674 1.12286e-06
0.000913674 0.000420805 2.2263e-07
1.12286e-06 2.2263e-07 8.29171e-05
0.00212767 0.00044985 -1.4394e-05
0.00044985 -0.000180315 -1.1265e-06
-1.4394e-05 -1.1265e-06 -0.000157012
0.00344473 0.00113165 -6.36577e-06
0.00113165 0.00100669 7.78384e-06
-6.36577e-06 7.78384e-06 0.000640009
0.00257512 0.000873639 9.08139e-08
0.000873639 0.000307981 -6.69569e-07
9.08139e-08 -6.69569e-07 6.82178e-05
0.000680732 0.000417587 -2.87087e-06
0.000417587 -0.000669142 1.62456e-06
-2.87087e-06 1.62456e-06 -0.000565771
-0.00137506 0.000515276 -2.49686e-05
0.000515276 -0.0014785 -1.10556e-05
-2.49686e-05 -1.10556e-05 -0.00163018
0.00381404 0.00114136 -0.000133935
0.00114136 9.55623e-05 -4.45986e-05
-0.000133935 -4.45986e-05 0.000295233
0.002291 0.000122904 -1.60459e-06
0.000122904 -0.000178751 -1.03065e-06
-1.60459e-06 -1.03065e-06 -6.10906e-05
0.00280593 -8.23796e-05 6.21003e-07
-8.23796e-05 0.000390189 -5.42458e-07
6.21003e-07 -5.42458e-07 0.000523958
0.00267609 -0.000269531 -0.000102168
-0.000269531 -0.00071017 9.79469e-07
-0.000102168 9.79469e-07 -0.000142469
0.00199511 -0.000378096 -7.53206e-05
-0.000378096 -0.000461026 8.22574e-06
-7.53206e-05 8.22574e-06 -5.62036e-05
0.00146496 -0.000113365 -1.66614e-05
-0.000113365 -0.000480124 1.25946e-06
-1.66614e-05 1.25946e-06 -0.000386076
0.00252151 -0.000264558 1.94588e-06
-0.000264558 -7.46688e-05 -1.85651e-06
1.94588e-06 -1.85651e-06 0.000120955
0.00246098 2.39118e-05 -2.87836e-06
2.39118e-05 -9.26638e-05 6.2259e-08
-2.87836e-06 6.2259e-08 -2.73817e-06
0.00245018 -7.76034e-05 -3.40275e-08
-7.76034e-05 -0.000109957 -9.69324e-07
-3.40275e-08 -9.69324e-07 1.63608e-05
0.00252851 -0.000500242 -4.82079e-06
-0.000500242 -0.000167902 7.11415e-07
-4.82079e-06 7.11415e-07 -1.91086e-05
0.00236962 -0.000323642 3.64483e-07
-0.000323642 -0.000120535 -2.15635e-07
3.64483e-07 -2.15635e-07 -1.92088e-05
0.00230261 -0.000247994 3.93989e-07
-0.000247994 -3.11523e-05 -2.29964e-07
3.93989e-07 -2.29964e-07 3.12527e-05
0.00237029 -0.000451343 -5.82662e-08
-0.000451343 8.90699e-06 1.032e-07
-5.82662e-08 1.032e-07 2.14842e-05
0.00225005 -0.000370881 1.12392e-07
-0.000370881 7.50566e-06 2.12003e-07
1.12392e-07 2.12003e-07 3.41507e-07
0.00214356 -0.000313619 -2.73198e-06
-0.000313619 4.74839e-05 9.60855e-07
-2.73198e-06 9.60855e-07 7.99362e-06
0.00219059 -0.000446356 2.03459e-06
-0.000446356 6.44566e-05 -1.11163e-06
2.03459e-06 -1.11163e-06 -9.02904e-06
0.0021248 -0.000405889 6.12196e-07
-0.000405889 9.34965e-05 -1.9061e-07
6.12196e-07 -1.9061e-07 -6.01638e-06
0.00212561 -0.000379207 -2.31393e-06
-0.000379207 0.000157101 3.59792e-08
-2.31393e-06 3.59792e-08 2.32353e-05
0.00204291 -0.000466492 2.25427e-06
-0.000466492 0.000105812 -1.03294e-06
2.25427e-06 -1.03294e-06 -4.57315e-05
0.00209533 -0.000442549 -2.39603e-07
-0.000442549 0.000180967 -2.12865e-07
-2.39603e-07 -2.12865e-07 8.95464e-06
0.00195163 -0.00038361 -2.75546e-06
-0.00038361 0.000182235 -3.02904e-07
-2.75546e-06 -3.02904e-07 -1.97843e-05
0.00213116 -0.000491098 1.05164e-06
-0.000491098 0.000247599 1.39725e-06
1.05164e-06 1.39725e-06 4.52435e-05
0.00192569 -0.000425023 -6.26589e-07
-0.000425023 0.00021677 1.9315e-07
-6.26589e-07 1.9315e-07 -1.47316e-05
0.00115175 -0.000252132 -1.46139e-05
-0.000252132 -1.49979e-05 6.79914e-06
-1.46139e-05 6.79914e-06 -0.000220848
0.00198861 -0.000467844 5.09324e-06
-0.000467844 0.000303679 -1.11292e-07
5.09324e-06 -1.11292e-07 4.64239e-05
0.00116935 -0.000287452 1.08743e-07
-0.000287452 1.42004e-05 1.28979e-07
1.08743e-07 1.28979e-07 -0.000208005
0.00280823 -0.000199757 -5.22971e-05
-0.000199757 0.00133174 1.34006e-05
-5.22971e-05 1.34006e-05 0.00122042
0.00243614 -0.000115693 -0.000278112
-0.000115693 0.00118889 3.90824e-05
-0.000278112 3.90824e-05 0.00117077
0.00160074 -0.000218829 -1.50844e-05
-0.000218829 0.000584866 -1.27604e-08
-1.50844e-05 -1.27604e-08 0.000452798
0.00110479 -0.00032045 1.94372e-05
-0.00032045 2.13666e-05 -8.07652e-06
1.94372e-05 -8.07652e-06 -0.000222028
0.0075154 -7.22252e-05 -8.16202e-06
-7.22252e-05 0.00440811 1.66187e-06
-8.16202e-06 1.66187e-06 0.00442002
0.00026281 -0.000263213 2.55539e-05
-0.000263213 -0.000241551 -1.97419e-05
2.55539e-05 -1.97419e-05 -0.000391831
0.00752236 -2.23308e-05 0.000314346
-2.23308e-05 0.00443124 -3.13336e-05
0.000314346 -3.13336e-05 0.00443631
0.00212833 0.000471626 -1.49725e-07
0.000471626 0.000120131 7.88314e-07
-1.49725e-07 7.88314e-07 -5.16516e-05
0.00219259 0.000623511 3.29755e-06
0.000623511 0.000305157 6.06033e-06
3.29755e-06 6.06033e-06 3.40105e-05
0.00218432 0.000705072 4.97743e-07
0.000705072 0.000401536 1.65259e-07
4.97743e-07 1.65259e-07 6.27944e-05
0.00186476 0.000571939 -8.15743e-06
0.000571939 0.000336109 2.11762e-06
-8.15743e-06 2.11762e-06 8.45433e-06
0.00181064 0.00066325 6.0512e-06
0.00066325 0.000328078 -4.24288e-06
6.0512e-06 -4.24288e-06 -4.70597e-05
0.0016079 0.000544219 -3.00844e-07
0.000544219 0.000281986 7.68721e-07
-3.00844e-07 7.68721e-07 -6.14099e-05
0.000751514 0.000290173 -1.74844e-05
0.000290173 -9.40177e-05 -5.36769e-06
-1.74844e-05 -5.36769e-06 -0.000330477
0.00133601 0.000475762 8.29553e-06
0.000475762 0.000251023 1.39909e-06
8.29553e-06 1.39909e-06 -8.0558e-05
0.000661733 0.000246241 7.93049e-07
0.000246241 -4.25821e-05 8.23845e-08
7.93049e-07 8.23845e-08 -0.000266796
0.000532427 0.000273818 -2.91597e-05
0.000273818 -4.15356e-05 -2.08743e-05
-2.91597e-05 -2.08743e-05 -0.000180306
0.000395991 0.000191778 6.14736e-06
0.000191778 -0.000131422 2.15316e-06
6.14736e-06 2.15316e-06 -0.000351469
0.000451144 0.000187676 2.52677e-06
0.000187676 -8.49126e-05 -1.18611e-06
2.52677e-06 -1.18611e-06 -0.000193633
0.00666972 -0.000114876 -0.000245215
-0.000114876 0.00395339 -2.529e-05
-0.000245215 -2.529e-05 0.00393747
0.000376509 0.000114317 2.15619e-05
0.000114317 -0.000104434 1.84174e-05
2.15619e-05 1.84174e-05 -0.000192175
0.00525138 -0.000180032 -3.00009e-06
-0.000180032 0.00307482 -8.14205e-07
-3.00009e-06 -8.14205e-07 0.00305257
0.00429385 -0.000196583 9.9821e-05
-0.000196583 0.00247475 1.03241e-05
9.9821e-05 1.03241e-05 0.00244902
0.00233863 0.000228954 -7.16674e-06
0.000228954 -0.000197822 -1.62354e-06
-7.16674e-06 -1.62354e-06 -4.11013e-05
0.00203201 0.000154849 1.77511e-05
0.000154849 -0.000227698 -3.12448e-06
1.77511e-05 -3.12448e-06 9.82659e-05
0.00525558 0.00036623 -0.000120768
0.00036623 -2.1101e-05 -1.78972e-06
-0.000120768 -1.78972e-06 0.000912897
0.00227412 0.000567566 -2.78775e-06
0.000567566 0.000145074 1.35944e-06
-2.78775e-06 1.35944e-06 -3.27032e-05
0.00228704 0.000774233 -4.26737e-06
0.000774233 0.000336853 -4.23255e-07
-4.26737e-06 -4.23255e-07 3.48789e-05
0.00182189 0.000832953 -2.20216e-06
0.000832953 0.000184731 -1.08257e-05
-2.20216e-06 -1.08257e-05 -0.00017274
0.00233491 0.000609546 2.6008e-06
0.000609546 0.000269065 1.42131e-06
2.6008e-06 1.42131e-06 3.74903e-05
0.00225202 0.000747879 2.54735e-07
0.000747879 0.000332867 -5.4751e-06
2.54735e-07 -5.4751e-06 1.4264e-05
0.00250083 0.000453753 -1.0805e-07
0.000453753 8.73986e-06 4.48948e-07
-1.0805e-07 4.48948e-07 2.06053e-05
0.00231817 0.000701305 -8.27394e-07
0.000701305 0.000123298 1.27739e-07
-8.27394e-07 1.27739e-07 -7.782e-05
0.00278767 0.000920171 -7.04362e-06
0.000920171 0.000600644 -2.60938e-06
-7.04362e-06 -2.60938e-06 0.00025602
0.00207408 0.000434632 7.74992e-08
0.000434632 -0.000183984 -2.59707e-07
7.74992e-08 -2.59707e-07 -0.000157791
0.00226815 0.000840747 1.41587e-05
0.000840747 0.000125639 2.2548e-06
1.41587e-05 2.2548e-06 -0.000111991
-9.36793e-05 0.000373218 -4.15196e-05
0.000373218 -0.001125 -1.83378e-05
-4.15196e-05 -1.83378e-05 -0.000992971
0.00243692 9.5618e-05 2.66378e-07
9.5618e-05 -5.09645e-05 1.38524e-07
2.66378e-07 1.38524e-07 4.34517e-05
0.00226461 0.000128905 -9.66296e-07
0.000128905 -0.000194429 6.52275e-07
-9.66296e-07 6.52275e-07 -8.04459e-05
0.00286797 -6.45938e-05 -5.10834e-05
-6.45938e-05 0.000516468 -3.79714e-07
-5.10834e-05 -3.79714e-07 0.000592925
0.00245513 -0.000263393 -2.44586e-05
-0.000263393 -0.000144125 3.45352e-06
-2.44586e-05 3.45352e-06 7.76929e-05
0.00257031 3.47376e-05 -6.59281e-06
3.47376e-05 -5.49329e-05 -2.69001e-06
-6.59281e-06 -2.69001e-06 3.42011e-05
0.00241423 -8.69035e-05 -2.62423e-07
-8.69035e-05 -0.000147291 -1.2494e-07
-2.62423e-07 -1.2494e-07 -1.56942e-05
0.00216826 -7.44422e-05 3.34169e-07
-7.44422e-05 -4.72016e-05 3.92566e-08
3.34169e-07 3.92566e-08 2.09293e-06
0.0023154 -0.000310399 4.51142e-07
-0.000310399 -0.000134206 -7.74537e-08
4.51142e-07 -7.74537e-08 -4.19016e-05
0.00225044 -0.000253775 -1.34523e-07
-0.000253775 -5.72686e-05 3.08675e-08
-1.34523e-07 3.08675e-08 -2.26635e-06
0.0021108 -0.000211035 -1.52798e-06
-0.000211035 8.33894e-06 1.02363e-07
-1.52798e-06 1.02363e-07 -1.58124e-06
0.00223795 -0.00036726 6.49843e-07
-0.00036726 3.41826e-06 6.11696e-08
6.49843e-07 6.11696e-08 -4.94016e-06
0.00214212 -0.000314654 1.71997e-07
-0.000314654 4.11675e-05 5.97762e-08
1.71997e-07 5.97762e-08 1.48696e-06
0.0021551 -0.000304895 -3.35251e-06
-0.000304895 0.000122969 7.9647e-07
-3.35251e-06 7.9647e-07 3.00525e-05
0.00212366 -0.000405576 3.22962e-06
-0.000405576 8.95192e-05 -1.29281e-06
3.22962e-06 -1.29281e-06 -1.02232e-05
0.00207852 -0.000376357 -1.47691e-07
-0.000376357 0.000124945 -2.69202e-07
-1.47691e-07 -2.69202e-07 -8.94919e-06
0.00193595 -0.000326782 -1.82711e-06
-0.000326782 0.000130926 -3.60711e-07
-1.82711e-06 -3.60711e-07 -4.01074e-05
0.00212361 -0.000444583 2.15337e-06
-0.000444583 0.000198765 2.51017e-07
2.15337e-06 2.51017e-07 2.61016e-05
0.00196649 -0.000384692 -5.78643e-07
-0.000384692 0.000193095 2.5962e-09
-5.78643e-07 2.5962e-09 -8.81255e-06
0.00114866 -0.000222339 -1.15976e-05
-0.000222339 -3.78623e-05 5.20438e-06
-1.15976e-05 5.20438e-06 -0.000230138
0.00194711 -0.000426364 3.6813e-06
-0.000426364 0.000231757 -2.4739e-08
3.6813e-06 -2.4739e-08 4.70968e-07
0.00118769 -0.000254019 -4.86312e-08
-0.000254019 -9.41231e-08 2.06137e-07
-4.86312e-08 2.06137e-07 -0.00020518
0.0027924 -0.000189731 -5.98951e-05
-0.000189731 0.00131449 1.30072e-05
-5.98951e-05 1.30072e-05 0.00121262
0.00119197 -0.000288442 1.76003e-05
-0.000288442 2.44868e-05 -7.70565e-06
1.76003e-05 -7.70565e-06 -0.000197043
0.00295129 -0.000237052 5.15043e-05
-0.000237052 0.0014232 -8.28781e-06
5.15043e-05 -8.28781e-06 0.00132034
0.00237912 -0.000147158 -0.000270786
-0.000147158 0.00115979 4.35469e-05
-0.000270786 4.35469e-05 0.0011388
0.00473662 -0.000133648 -0.000265284
-0.000133648 0.00266076 2.89891e-05
-0.000265284 2.89891e-05 0.00265595
0.00303323 -0.000294891 0.000168895
-0.000294891 0.00149332 -2.83782e-05
0.000168895 -2.83782e-05 0.00138845
0.00749423 -8.4039e-05 0.000320549
-8.4039e-05 0.00440353 -3.5334e-05
0.000320549 -3.5334e-05 0.00441111
0.00230108 0.000465596 -2.31233e-06
0.000465596 0.000204787 -5.64638e-07
-2.31233e-06 -5.64638e-07 6.78253e-05
0.00199221 0.000483256 4.91569e-07
0.000483256 0.00014026 1.64586e-06
4.91569e-07 1.64586e-06 -6.48792e-05
0.0021659 0.000464264 2.14586e-07
0.000464264 0.000152517 -1.45484e-06
2.14586e-07 -1.45484e-06 -1.24871e-05
0.00195349 0.000524702 -5.80695e-06
0.000524702 0.00027076 2.32936e-06
-5.80695e-06 2.32936e-06 -1.14603e-05
0.00227015 0.000632717 7.62301e-07
0.000632717 0.000338158 4.0869e-07
7.62301e-07 4.0869e-07 6.55885e-05
0.00245224 0.000727657 2.48082e-07
0.000727657 0.000564102 -5.80683e-06
2.48082e-07 -5.80683e-06 0.000225148
0.00179348 0.000568432 4.68993e-07
0.000568432 0.000283407 5.57657e-07
4.68993e-07 5.57657e-07 -4.52769e-05
0.00104435 0.000337897 -2.53965e-05
0.000337897 4.52248e-06 -6.78532e-06
-2.53965e-05 -6.78532e-06 -0.000242509
0.00156941 0.000544883 1.02264e-05
0.000544883 0.000249824 8.11191e-07
1.02264e-05 8.11191e-07 -9.58409e-05
0.000900964 0.000297579 -1.66502e-06
0.000297579 6.81008e-06 -2.90464e-07
-1.66502e-06 -2.90464e-07 -0.000228289
0.000343231 0.000272566 -2.68487e-05
0.000272566 -0.000176473 -2.00017e-05
-2.68487e-05 -2.00017e-05 -0.000327192
0.000410257 0.00022712 1.05201e-05
0.00022712 -0.000193857 3.18621e-06
1.05201e-05 3.18621e-06 -0.000412811
0.000325128 0.000230051 3.35125e-06
0.000230051 -0.000172911 4.94441e-07
3.35125e-06 4.94441e-07 -0.000305524
0.00743049 -2.1925e-05 -0.000295351
-2.1925e-05 0.004398 -3.17643e-05
-0.000295351 -3.17643e-05 0.00439221
0.000311316 0.000144936 2.40585e-05
0.000144936 -0.000169682 1.87282e-05
2.40585e-05 1.87282e-05 -0.000275034
0.00628864 -0.000148522 7.13935e-06
-0.000148522 0.00371481 -2.72198e-06
7.13935e-06 -2.72198e-06 0.00369687
0.00503297 -0.000224684 0.000126995
-0.000224684 0.00295621 1.28289e-05
0.000126995 1.28289e-05 0.00292109
0.00244154 0.000269067 3.71515e-07
0.000269067 -5.63493e-05 6.95121e-07
3.71515e-07 6.95121e-07 3.14876e-05
0.00223513 0.000233351 1.93316e-06
0.000233351 -0.00022813 -3.33785e-07
1.93316e-06 -3.33785e-07 -7.16541e-05
0.00219879 0.000110827 -7.08199e-05
0.000110827 -0.000279099 -9.03925e-06
-7.08199e-05 -9.03925e-06 0.00011449
0.00226283 0.000404819 1.03436e-06
0.000404819 1.51911e-05 3.52748e-07
1.03436e-06 3.52748e-07 -2.46133e-05
0.0022296 0.000561757 -7.58391e-07
0.000561757 0.000139665 3.1804e-07
-7.58391e-07 3.1804e-07 -3.60844e-05
0.00201095 0.000732665 6.81281e-06
0.000732665 0.000213908 -2.80923e-06
6.81281e-06 -2.80923e-06 -8.10075e-05
0.00241355 0.000600836 -1.07041e-06
0.000600836 0.000336089 -3.01251e-06
-1.07041e-06 -3.01251e-06 0.000107723
0.00244206 0.000435914 -1.04495e-06
0.000435914 -9.76898e-06 -1.50558e-07
-1.04495e-06 -1.50558e-07 3.66842e-06
0.00229133 0.000705394 -2.98324e-06
0.000705394 0.000122812 -3.12298e-07
-2.98324e-06 -3.12298e-07 -7.75486e-05
0.00201675 0.000424072 1.34726e-05
0.000424072 -0.000156186 5.48934e-07
1.34726e-05 5.48934e-07 -0.000130047
0.00222247 7.31667e-05 1.91427e-06
7.31667e-05 -3.08052e-05 3.21901e-07
1.91427e-06 3.21901e-07 1.24382e-05
0.00236406 9.01798e-05 1.80718e-07
9.01798e-05 -8.2092e-05 7.30384e-09
1.80718e-07 7.30384e-09 1.0292e-05
0.00220232 0.000140311 -7.17457e-06
0.000140311 -0.000229232 -1.50389e-06
-7.17457e-06 -1.50389e-06 -0.000120277
0.00207615 -1.37143e-05 -2.41644e-06
-1.37143e-05 -1.43306e-05 2.90335e-07
-2.41644e-06 2.90335e-07 2.90265e-06
0.00237885 -0.000102841 3.92541e-07
-0.000102841 -0.00018342 1.40249e-07
3.92541e-07 1.40249e-07 -4.47812e-05
0.0021807 -7.787e-05 -6.1898e-07
-7.787e-05 -4.32344e-05 2.51533e-07
-6.1898e-07 2.51533e-07 5.99387e-06
0.00203838 -0.000114188 -2.9367e-06
-0.000114188 -2.53874e-05 3.31187e-07
-2.9367e-06 3.31187e-07 -2.65674e-05
0.00219962 -0.000259364 1.53541e-07
-0.000259364 -8.23324e-05 1.93029e-07
1.53541e-07 1.93029e-07 -3.49626e-05
0.00210503 -0.000208375 9.95482e-07
-0.000208375 4.23479e-06 -3.03473e-07
9.95482e-07 -3.03473e-07 -4.75145e-06
0.00215767 -0.000213657 -2.51779e-06
-0.000213657 9.47251e-05 4.80352e-07
-2.51779e-06 4.80352e-07 3.56776e-05
0.00214155 -0.0003154 2.90866e-06
-0.0003154 3.53727e-05 -9.29576e-07
2.90866e-06 -9.29576e-07 -4.46549e-06
0.00210524 -0.000299097 1.56204e-07
-0.000299097 9.41345e-05 -2.94393e-07
1.56204e-07 -2.94393e-07 1.68826e-06
0.00193583 -0.000255595 -1.54978e-06
-0.000255595 0.000104977 -5.01789e-07
-1.54978e-06 -5.01789e-07 -3.54202e-05
0.0020309 -0.000373216 2.81569e-06
-0.000373216 9.32999e-05 -7.53169e-07
2.81569e-06 -7.53169e-07 -4.05405e-05
0.0019892 -0.000328989 -3.51554e-07
-0.000328989 0.000165847 1.00914e-08
-3.51554e-07 1.00914e-08 -5.07925e-06
0.00116876 -0.000191593 -1.01518e-05
-0.000191593 -4.12005e-05 3.60505e-06
-1.01518e-05 3.60505e-06 -0.000220033
0.00198289 -0.000385606 1.91349e-06
-0.000385606 0.000205407 4.52616e-08
1.91349e-06 4.52616e-08 3.68757e-06
0.00119771 -0.000223614 -2.29305e-07
-0.000223614 -1.44196e-05 2.38422e-07
-2.29305e-07 2.38422e-07 -0.000205587
0.00275794 -0.000179202 -6.70523e-05
-0.000179202 0.00129475 1.24433e-05
-6.70523e-05 1.24433e-05 0.00119759
0.0012171 -0.000255724 1.39479e-05
-0.000255724 1.01228e-05 -6.42189e-06
1.39479e-05 -6.42189e-06 -0.000194169
0.00288778 -0.000210832 4.70331e-05
-0.000210832 0.00137502 -6.54628e-06
4.70331e-05 -6.54628e-06 0.00128148
0.0023709 -0.00012473 -0.000263776
-0.00012473 0.00114582 3.81409e-05
-0.000263776 3.81409e-05 0.00112745
0.00307039 -0.000243711 0.000162422
-0.000243711 0.00149302 -2.93578e-05
0.000162422 -2.93578e-05 0.00140135
0.00197953 -8.37074e-05 -0.000108845
-8.37074e-05 0.000909288 1.63536e-05
-0.000108845 1.63536e-05 0.000874314
0.00685968 -1.97077e-05 0.000101705
-1.97077e-05 0.00398616 -5.60368e-06
0.000101705 -5.60368e-06 0.00396698
0.00227213 0.000402145 -1.30473e-06
0.000402145 0.000146919 -6.29632e-07
-1.30473e-06 -6.29632e-07 5.60151e-05
0.00215781 0.000439723 -2.98946e-06
0.000439723 0.000180063 -8.16883e-07
-2.98946e-06 -8.16883e-07 1.5963e-05
0.00229288 0.000467025 -3.46989e-06
0.000467025 0.000191096 -9.09419e-08
-3.46989e-06 -9.09419e-08 5.29326e-05
0.00194194 0.000446261 -2.92338e-06
0.000446261 0.000196726 5.13279e-07
-2.92338e-06 5.13279e-07 -4.04482e-05
0.00198539 0.000490662 -1.12151e-06
0.000490662 0.000115829 -2.34608e-06
-1.12151e-06 -2.34608e-06 -8.60086e-05
0.00220393 0.000456943 -3.37411e-06
0.000456943 0.000184984 -3.91412e-06
-3.37411e-06 -3.91412e-06 2.67904e-05
0.00122733 0.000327055 -2.4436e-05
0.000327055 3.63064e-05 -7.00928e-06
-2.4436e-05 -7.00928e-06 -0.000195485
0.00188841 0.000520014 1.30712e-06
0.000520014 0.000230936 4.45718e-07
1.30712e-06 4.45718e-07 -5.1258e-05
0.00234286 0.000640984 1.29461e-06
0.000640984 0.000367899 -4.88012e-06
1.29461e-06 -4.88012e-06 9.41237e-05
0.00174143 0.000566915 9.72237e-06
0.000566915 0.000242387 -9.9215e-07
9.72237e-06 -9.9215e-07 -8.7753e-05
0.00102821 0.00033308 -1.98749e-06
0.00033308 -5.14967e-06 -5.7723e-08
-1.98749e-06 -5.7723e-08 -0.000250214
0.000281557 0.000249238 -2.57129e-05
0.000249238 -0.000230287 -1.84816e-05
-2.57129e-05 -1.84816e-05 -0.000378172
0.000866067 0.000292349 1.80971e-05
0.000292349 -8.68431e-06 6.51892e-06
1.80971e-05 6.51892e-06 -0.000241139
0.000334498 0.000258773 1.28114e-06
0.000258773 -0.000176158 1.40838e-06
1.28114e-06 1.40838e-06 -0.0003273
0.00762331 6.70038e-05 -0.000311144
6.70038e-05 0.00450243 -3.8294e-05
-0.000311144 -3.8294e-05 0.00449777
0.000248832 0.000206006 2.4062e-05
0.000206006 -0.000224515 2.07082e-05
2.4062e-05 2.07082e-05 -0.000353236
0.00713428 -6.90317e-05 4.55318e-06
-6.90317e-05 0.00420875 -5.89095e-07
4.55318e-06 -5.89095e-07 0.00420395
0.00587176 -0.000176963 0.000176125
-0.000176963 0.00345076 1.18537e-05
0.000176125 1.18537e-05 0.00343094
0.00221561 0.000214963 3.54118e-07
0.000214963 -2.09695e-05 -1.42563e-07
3.54118e-07 -1.42563e-07 7.38317e-06
0.00241198 0.000274094 -2.22219e-07
0.000274094 -8.35281e-05 5.62179e-07
-2.22219e-07 5.62179e-07 6.38239e-06
0.00221916 0.000235719 3.48628e-06
0.000235719 -0.000228751 6.74376e-07
3.48628e-06 6.74376e-07 -7.1737e-05
0.00226725 0.000399704 -8.62618e-08
0.000399704 2.07138e-05 6.65331e-08
-8.62618e-08 6.65331e-08 -1.64142e-05
0.00219567 0.000555882 1.59541e-07
0.000555882 0.000143834 -8.63566e-07
1.59541e-07 -8.63566e-07 -2.99073e-05
0.0024032 0.000419854 1.9749e-06
0.000419854 -2.34466e-05 -2.47911e-07
1.9749e-06 -2.47911e-07 -8.86116e-06
0.00211181 6.59772e-05 -3.67508e-07
6.59772e-05 -1.07248e-05 1.52758e-07
-3.67508e-07 1.52758e-07 4.02695e-06
0.00220941 6.90326e-05 3.30251e-07
6.90326e-05 -3.68795e-05 -1.99857e-07
3.30251e-07 -1.99857e-07 6.99984e-06
0.00229643 8.45514e-05 -8.06176e-07
8.45514e-05 -0.000111412 -9.46385e-08
-8.06176e-07 -9.46385e-08 -2.05152e-05
0.00207786 -1.15134e-05 -8.46674e-07
-1.15134e-05 -1.39292e-05 6.29153e-08
-8.46674e-07 6.29153e-08 1.7077e-06
0.00205067 -3.69751e-05 -5.70291e-06
-3.69751e-05 2.62296e-05 5.70798e-07
-5.70291e-06 5.70798e-07 2.09893e-05
0.0021942 -8.10766e-05 -3.19437e-07
-8.10766e-05 -3.90415e-05 2.62353e-07
-3.19437e-07 2.62353e-07 1.03252e-05
0.00205797 -0.000114 -1.54487e-06
-0.000114 -6.67738e-06 2.52244e-07
-1.54487e-06 2.52244e-07 -1.09354e-05
0.00208916 -0.000134854 -6.32754e-06
-0.000134854 4.35815e-05 6.21627e-07
-6.32754e-06 6.21627e-07 4.38459e-06
0.00209891 -0.000206033 3.65425e-06
-0.000206033 1.62306e-07 -8.28349e-07
3.65425e-06 -8.28349e-07 -7.97298e-06
0.00213017 -0.000213369 2.6693e-06
-0.000213369 8.05717e-05 -4.87721e-07
2.6693e-06 -4.87721e-07 2.16039e-05
0.00197569 -0.000186956 5.10512e-07
-0.000186956 0.000113593 -1.10494e-06
5.10512e-07 -1.10494e-06 -2.26668e-06
0.00204702 -0.000294212 3.39477e-06
-0.000294212 5.91154e-05 -1.35153e-06
3.39477e-06 -1.35153e-06 -3.30637e-05
0.00198531 -0.000259644 -2.02041e-07
-0.000259644 0.000129784 1.05273e-08
-2.02041e-07 1.05273e-08 -1.09899e-05
0.00118393 -0.000154513 -1.07948e-05
-0.000154513 -3.73348e-05 2.31617e-06
-1.07948e-05 2.31617e-06 -0.000201758
0.00203115 -0.000330837 1.06621e-06
-0.000330837 0.000192815 1.79553e-07
1.06621e-06 1.79553e-07 2.19507e-05
0.00120059 -0.000190023 -3.80917e-07
-0.000190023 -2.58081e-05 2.96614e-07
-3.80917e-07 2.96614e-07 -0.0002032
0.0026678 -0.000176494 -6.91077e-05
-0.000176494 0.00124281 1.0424e-05
-6.91077e-05 1.0424e-05 0.00114929
0.00123996 -0.000224707 1.09971e-05
-0.000224707 4.22632e-06 -4.82724e-06
1.09971e-05 -4.82724e-06 -0.000185827
0.00283736 -0.000179125 4.49511e-05
-0.000179125 0.00133983 -5.02423e-06
4.49511e-05 -5.02423e-06 0.00125273
0.00236799 -0.000103458 -0.000261561
-0.000103458 0.00113711 3.19341e-05
-0.000261561 3.19341e-05 0.00112014
0.00298144 -0.00020259 0.000158092
-0.00020259 0.00142579 -2.50231e-05
0.000158092 -2.50231e-05 0.00134446
0.00196121 -8.42118e-05 -9.86551e-05
-8.42118e-05 0.000892524 1.29664e-05
-9.86551e-05 1.29664e-05 0.000859899
0.00164579 -8.04926e-05 6.53662e-05
-8.04926e-05 0.000712342 -1.08157e-05
6.53662e-05 -1.08157e-05 0.000658468
0.00210256 0.000250685 -1.44059e-06
0.000250685 1.19698e-07 -6.83633e-07
-1.44059e-06 -6.83633e-07 -2.91913e-05
0.00215638 0.000364435 -3.32821e-06
0.000364435 0.000142507 -2.47837e-07
-3.32821e-06 -2.47837e-07 2.19386e-05
0.00221773 0.000401552 -4.32654e-07
0.000401552 9.08974e-05 -1.58346e-07
-4.32654e-07 -1.58346e-07 9.50338e-06
0.00206924 0.000408308 -7.25018e-08
0.000408308 0.000214599 6.76261e-07
-7.25018e-08 6.76261e-07 1.59177e-05
0.00214982 0.000436825 -1.57848e-06
0.000436825 0.000183109 -6.51388e-07
-1.57848e-06 -6.51388e-07 1.82496e-05
0.00227696 0.000468732 2.37826e-06
0.000468732 0.00017234 4.59081e-07
2.37826e-06 4.59081e-07 3.27376e-05
0.00126001 0.000282118 -1.87705e-05
0.000282118 1.48069e-05 -6.20174e-06
-1.87705e-05 -6.20174e-06 -0.000193587
0.00191181 0.000449472 1.79944e-06
0.000449472 0.00016972 -3.36243e-07
1.79944e-06 -3.36243e-07 -6.2703e-05
0.00198829 0.000499029 -1.71937e-06
0.000499029 9.77078e-05 -5.10679e-06
-1.71937e-06 -5.10679e-06 -0.000101048
0.000284374 0.000198113 -2.21782e-05
0.000198113 -0.000251897 -1.598e-05
-2.21782e-05 -1.598e-05 -0.000385592
0.00117506 0.000322352 -5.86974e-07
0.000322352 6.33705e-06 3.63418e-08
-5.86974e-07 3.63418e-08 -0.000225272
0.00181557 0.000515413 7.56316e-06
0.000515413 0.0001844 -1.65251e-06
7.56316e-06 -1.65251e-06 -9.79182e-05
0.00111573 0.000334442 2.64938e-05
0.000334442 5.27197e-05 8.48535e-06
2.64938e-05 8.48535e-06 -0.000190739
0.00027186 0.000237792 4.38693e-07
0.000237792 -0.000231971 1.0621e-06
4.38693e-07 1.0621e-06 -0.000380809
0.00741811 0.000166054 -0.000314675
0.000166054 0.00436058 -4.23621e-05
-0.000314675 -4.23621e-05 0.00435762
0.000294777 0.000236092 2.2496e-05
0.000236092 -0.000197325 1.92278e-05
2.2496e-05 1.92278e-05 -0.000346128
0.00751247 4.12704e-05 7.63666e-06
4.12704e-05 0.00442079 5.86992e-07
7.63666e-06 5.86992e-07 0.00442464
0.00688694 -0.000100482 0.000241825
-0.000100482 0.00405042 1.53247e-05
0.000241825 1.53247e-05 0.00404621
0.00213238 0.000130273 -2.43837e-06
0.000130273 1.94055e-05 -5.57833e-07
-2.43837e-06 -5.57833e-07 2.74028e-05
0.00220464 0.000219492 7.17715e-07
0.000219492 -3.08495e-05 3.51404e-07
7.17715e-07 3.51404e-07 -5.19514e-06
0.00236525 0.000279361 -3.63918e-07
0.000279361 -0.000117123 -6.19096e-07
-3.63918e-07 -6.19096e-07 -2.54684e-05
0.0022664 0.000393413 1.43401e-06
0.000393413 2.2586e-05 -2.13268e-07
1.43401e-06 -2.13268e-07 -1.13945e-05
0.00202114 2.22651e-05 -5.70276e-06
2.22651e-05 3.30152e-05 3.78951e-07
-5.70276e-06 3.78951e-07 1.2786e-05
0.0021047 5.68325e-05 -3.32661e-08
5.68325e-05 -1.4908e-05 -2.97948e-08
-3.32661e-08 -2.97948e-08 6.27851e-07
0.00219542 6.48009e-05 -1.03214e-06
6.48009e-05 -4.29448e-05 -7.58676e-08
-1.03214e-06 -7.58676e-08 1.03947e-06
0.00207867 -8.43871e-06 -4.74389e-07
-8.43871e-06 -1.36414e-05 -3.37407e-07
-4.74389e-07 -3.37407e-07 1.36054e-07
0.00205463 -3.12563e-05 -7.10685e-07
-3.12563e-05 2.44437e-05 -1.47066e-07
-7.10685e-07 -1.47066e-07 2.07019e-05
0.00191356 -5.82416e-05 -5.38292e-06
-5.82416e-05 -5.0107e-05 5.11384e-07
-5.38292e-06 5.11384e-07 -9.44599e-05
0.00207644 -0.000113894 3.30381e-06
-0.000113894 1.13669e-05 -3.5687e-08
3.30381e-06 -3.5687e-08 3.83339e-06
0.00207403 -0.000136216 -1.89244e-06
-0.000136216 4.21474e-05 3.72139e-07
-1.89244e-06 3.72139e-07 -4.27112e-06
0.00206174 -0.000126751 -2.00663e-06
-0.000126751 0.00015571 -2.22178e-07
-2.00663e-06 -2.22178e-07 6.32895e-05
0.00210953 -0.000212221 7.41238e-06
-0.000212221 7.05385e-05 -1.33134e-06
7.41238e-06 -1.33134e-06 1.1842e-05
0.00197456 -0.000185723 1.40054e-06
-0.000185723 0.000104054 -5.76131e-07
1.40054e-06 -5.76131e-07 -1.1376e-05
0.00115776 -0.000115897 -1.1716e-05
-0.000115897 -5.03445e-05 1.60264e-06
-1.1716e-05 1.60264e-06 -0.000201694
0.00206525 -0.000262619 1.61559e-06
-0.000262619 0.000175725 3.66138e-07
1.61559e-06 3.66138e-07 3.50559e-05
0.00118182 -0.000153297 -7.76769e-08
-0.000153297 -3.86294e-05 1.49553e-07
-7.76769e-08 1.49553e-07 -0.00020204
0.000354221 -9.08587e-05 -1.9347e-05
-9.08587e-05 -0.000232773 5.933e-06
-1.9347e-05 5.933e-06 -0.000334693
0.00124235 -0.000189015 9.77273e-06
-0.000189015 -5.17085e-06 -3.16254e-06
9.77273e-06 -3.16254e-06 -0.000181115
0.00158327 -0.00011614 6.62697e-05
-0.00011614 0.000542095 -5.23932e-06
6.62697e-05 -5.23932e-06 0.000452782
0.00680811 -0.000173314 -0.000347132
-0.000173314 0.0039617 2.67109e-05
-0.000347132 2.67109e-05 0.00398228
0.00292551 -0.00016171 0.000155037
-0.00016171 0.00138475 -1.97319e-05
0.000155037 -1.97319e-05 0.0013102
0.00196139 -8.07792e-05 -8.9508e-05
-8.07792e-05 0.000891471 8.49097e-06
-8.9508e-05 8.49097e-06 0.000858661
0.00156786 -0.000102643 7.73886e-05
-0.000102643 0.000667046 -1.26686e-05
7.73886e-05 -1.26686e-05 0.000612202
0.00204933 0.000169602 -3.38572e-06
0.000169602 1.39866e-05 -1.02993e-06
-3.38572e-06 -1.02993e-06 -1.34007e-05
0.00206715 0.000276112 -1.94971e-06
0.000276112 5.55961e-05 -4.33555e-08
-1.94971e-06 -4.33555e-08 -2.55669e-05
0.00211861 0.000244686 -1.7177e-07
0.000244686 2.18838e-05 -6.22179e-08
-1.7177e-07 -6.22179e-08 -1.34079e-05
0.00207631 0.000331891 3.60045e-07
0.000331891 0.000188554 1.34783e-06
3.60045e-07 1.34783e-06 3.01056e-05
0.00208613 0.000360526 9.61594e-07
0.000360526 9.74772e-05 2.14918e-07
9.61594e-07 2.14918e-07 -2.27134e-05
0.00216374 0.000401183 9.15367e-07
0.000401183 3.51749e-05 2.12287e-07
9.15367e-07 2.12287e-07 -3.68994e-05
0.00129643 0.000248139 -1.41258e-05
0.000248139 1.89559e-05 -3.93076e-06
-1.41258e-05 -3.93076e-06 -0.000167398
0.00205222 0.000404417 2.11217e-06
0.000404417 0.000204818 5.3065e-07
2.11217e-06 5.3065e-07 7.39476e-06
0.00213217 0.000432941 9.90975e-07
0.000432941 0.000180207 -1.34279e-06
9.90975e-07 -1.34279e-06 1.48686e-05
0.000321546 0.000140586 -1.9383e-05
0.000140586 -0.000251612 -1.24856e-05
-1.9383e-05 -1.24856e-05 -0.000369212
0.00120497 0.000279234 4.922e-07
0.000279234 -1.75267e-05 4.66621e-07
4.922e-07 4.66621e-07 -0.000223569
0.00186874 0.000450724 6.69399e-06
0.000450724 0.000135267 -1.91961e-06
6.69399e-06 -1.91961e-06 -9.1902e-05
0.00720344 0.000237686 -0.000321726
0.000237686 0.00421635 -4.20556e-05
-0.000321726 -4.20556e-05 0.00421716
0.00031121 0.000191048 9.44044e-08
0.000191048 -0.000236864 7.05523e-07
9.44044e-08 7.05523e-07 -0.000370958
0.00115557 0.000319659 2.55276e-05
0.000319659 -8.46248e-07 7.61568e-06
2.55276e-05 7.61568e-06 -0.000232466
0.000366963 0.000230595 2.26811e-05
0.000230595 -0.000170125 1.78048e-05
2.26811e-05 1.78048e-05 -0.000320781
0.00746718 0.000158889 1.08405e-05
0.000158889 0.00438507 1.76902e-06
1.08405e-05 1.76902e-06 0.00438863
0.00741467 1.5649e-06 0.000295397
1.5649e-06 0.00434781 2.18024e-05
0.000295397 2.18024e-05 0.00435615
0.00199087 7.48167e-05 -7.39829e-06
7.48167e-05 1.80506e-05 -1.26061e-07
-7.39829e-06 -1.26061e-07 -7.38917e-06
0.0021222 0.00012636 7.71714e-08
0.00012636 1.44104e-05 3.07691e-10
7.71714e-08 3.07691e-10 2.07253e-05
0.00219646 0.000224014 9.74973e-08
0.000224014 -3.92723e-05 1.19911e-07
9.74973e-08 1.19911e-07 -1.59742e-05
0.00195378 6.50198e-06 -6.72396e-06
6.50198e-06 -7.42593e-07 2.33278e-07
-6.72396e-06 2.33278e-07 -5.16947e-05
0.00200294 2.73138e-05 5.12132e-07
2.73138e-05 1.742e-05 9.89628e-10
5.12132e-07 9.89628e-10 2.55382e-07
0.00209948 4.66912e-05 -2.20025e-07
4.66912e-05 -1.82478e-05 -1.00268e-07
-2.20025e-07 -1.00268e-07 -1.84169e-06
0.00205955 -2.61039e-05 3.50263e-06
-2.61039e-05 2.27431e-05 -3.87065e-07
3.50263e-06 -3.87065e-07 2.0962e-05
0.0019826 -5.71035e-05 -1.11666e-06
-5.71035e-05 -1.63842e-06 1.37428e-07
-1.11666e-06 1.37428e-07 -4.4514e-05
0.00188718 -6.15946e-05 -1.08574e-06
-6.15946e-05 5.5493e-05 -1.12959e-07
-1.08574e-06 -1.12959e-07 -3.78511e-05
0.0020758 -0.000137716 2.96667e-06
-0.000137716 5.28958e-05 -7.10766e-08
2.96667e-06 -7.10766e-08 -5.41885e-07
0.00197171 -0.000127366 5.60719e-07
-0.000127366 0.00010052 2.57737e-08
5.60719e-07 2.57737e-08 -3.52321e-07
0.00125116 -7.18979e-05 -1.15609e-05
-7.18979e-05 1.77189e-05 6.73327e-07
-1.15609e-05 6.73327e-07 -0.000113722
0.00195214 -0.000186094 3.06899e-06
-0.000186094 8.00801e-05 -1.9832e-07
3.06899e-06 -1.9832e-07 -3.54031e-05
0.00114147 -0.000110764 8.08551e-09
-0.000110764 -5.66209e-05 3.77678e-08
8.08551e-09 3.77678e-08 -0.000206858
0.000372419 -2.49282e-05 -1.8054e-05
-2.49282e-05 -0.000223656 3.21863e-06
-1.8054e-05 3.21863e-06 -0.000317786
0.00118218 -0.000150681 1.03079e-05
-0.000150681 -3.88634e-05 -2.02416e-06
1.03079e-05 -2.02416e-06 -0.000201015
0.000368847 -7.62252e-05 -3.08399e-07
-7.62252e-05 -0.000222863 5.04524e-07
-3.08399e-07 5.04524e-07 -0.000324862
0.00670713 -6.3188e-05 -0.000336018
-6.3188e-05 0.00389247 1.66459e-05
-0.000336018 1.66459e-05 0.0039185
0.000434883 -7.93026e-05 1.40014e-05
-7.93026e-05 -0.000186921 -8.23431e-06
1.40014e-05 -8.23431e-06 -0.000294698
0.00428132 -0.000113004 0.000147607
-0.000113004 0.00236635 -8.04445e-06
0.000147607 -8.04445e-06 0.00235025
0.00154477 -9.35716e-05 8.36556e-05
-9.35716e-05 0.000651126 -1.22402e-05
8.36556e-05 -1.22402e-05 0.00059719
0.00205606 0.000132427 -8.14796e-06
0.000132427 6.41052e-05 -8.09754e-07
-8.14796e-06 -8.09754e-07 3.05189e-05
0.00212545 0.000204396 -3.56804e-06
0.000204396 0.000104234 -2.15711e-08
-3.56804e-06 -2.15711e-08 3.45988e-05
0.00203817 0.000163913 -6.88739e-07
0.000163913 1.05844e-05 -1.57314e-07
-6.88739e-07 -1.57314e-07 -1.66974e-05
0.00200123 0.00025869 -5.46635e-07
0.00025869 0.00012699 9.41942e-07
-5.46635e-07 9.41942e-07 -1.32873e-05
0.00211772 0.000277066 -3.23199e-08
0.000277066 8.61843e-05 -6.37191e-08
-3.23199e-08 -6.37191e-08 2.78506e-06
0.00213053 0.000238654 2.71163e-06
0.000238654 4.10387e-05 8.09189e-07
2.71163e-06 8.09189e-07 -1.18871e-07
0.00124883 0.000199993 -1.13824e-05
0.000199993 -1.41868e-05 -2.48894e-06
-1.13824e-05 -2.48894e-06 -0.000182675
0.00204044 0.000328031 2.55817e-06
0.000328031 0.000174658 8.83445e-07
2.55817e-06 8.83445e-07 9.67681e-06
0.00203021 0.000357335 2.09377e-06
0.000357335 6.19342e-05 -1.31877e-07
2.09377e-06 -1.31877e-07 -5.78342e-05
0.000336298 9.94058e-05 -1.78523e-05
9.94058e-05 -0.000252418 -9.08976e-06
-1.78523e-05 -9.08976e-06 -0.000360028
0.00124065 0.000242921 -1.60861e-07
0.000242921 -1.31347e-05 5.55689e-07
-1.60861e-07 5.55689e-07 -0.000198356
0.00204509 0.000401499 4.76424e-06
0.000401499 0.00020175 5.1452e-07
4.76424e-06 5.1452e-07 5.34395e-06
0.00701898 0.000286495 -0.000337261
0.000286495 0.00410376 -4.03669e-05
-0.000337261 -4.03669e-05 0.00410565
0.000321481 0.000140133 5.62538e-08
0.000140133 -0.000255207 4.01824e-07
5.62538e-08 4.01824e-07 -0.000373576
0.00113999 0.000277112 1.84617e-05
0.000277112 -5.7877e-05 5.88357e-06
1.84617e-05 5.88357e-06 -0.000261908
0.00720601 0.000256287 1.39388e-05
0.000256287 0.0042267 4.21564e-06
1.39388e-05 4.21564e-06 0.00422497
0.000291968 0.000182134 2.00742e-05
0.000182134 -0.000251249 1.59025e-05
2.00742e-05 1.59025e-05 -0.000385452
0.00735608 0.000127116 0.000324698
0.000127116 0.00430167 3.10446e-05
0.000324698 3.10446e-05 0.00431436
0.00191982 5.73849e-05 -6.94724e-06
5.73849e-05 -2.09838e-05 1.16705e-07
-6.94724e-06 1.16705e-07 -7.53199e-05
0.00201832 8.10402e-05 -9.32486e-07
8.10402e-05 4.15912e-05 -1.65683e-07
-9.32486e-07 -1.65683e-07 1.56376e-05
0.00210928 0.000122769 2.11705e-06
0.000122769 8.51145e-06 3.45652e-07
2.11705e-06 3.45652e-07 1.30076e-05
0.0018785 -8.2298e-06 -4.1735e-07
-8.2298e-06 5.68143e-05 -1.49487e-07
-4.1735e-07 -1.49487e-07 -3.5011e-05
0.00198228 7.81594e-06 -1.49112e-06
7.81594e-06 1.82382e-05 7.91922e-08
-1.49112e-06 7.91922e-08 -2.98031e-05
0.00198418 3.34654e-05 6.18166e-06
3.34654e-05 1.63717e-06 -1.33129e-07
6.18166e-06 -1.33129e-07 -1.26173e-05
0.00204953 -5.5981e-05 2.90952e-06
-5.5981e-05 4.57168e-05 -1.91835e-07
2.90952e-06 -1.91835e-07 4.0715e-06
0.00193354 -6.15473e-05 1.45044e-06
-6.15473e-05 8.76406e-05 2.42832e-08
1.45044e-06 2.42832e-08 -4.60491e-06
0.00121088 -3.16931e-05 -1.13022e-05
-3.16931e-05 1.66846e-06 -8.67634e-08
-1.13022e-05 -8.67634e-08 -0.000122147
0.00186079 -0.000127829 9.58854e-07
-0.000127829 3.08358e-05 2.39869e-07
9.58854e-07 2.39869e-07 -7.85781e-05
0.0011602 -7.0691e-05 1.03124e-06
-7.0691e-05 -3.937e-05 -1.81748e-07
1.03124e-06 -1.81748e-07 -0.00017515
0.000365754 -9.09089e-06 -1.83123e-05
-9.09089e-06 -0.000226882 1.95392e-06
-1.83123e-05 1.95392e-06 -0.000316744
0.00111609 -0.000106849 1.06095e-05
-0.000106849 -6.74319e-05 -1.46049e-06
1.06095e-05 -1.46049e-06 -0.000216771
0.000335784 -3.66843e-05 8.88445e-07
-3.66843e-05 -0.000245873 -3.11901e-07
8.88445e-07 -3.11901e-07 -0.000339497
0.00649239 -0.00015811 -0.000336976
-0.00015811 0.00377556 1.80499e-05
-0.000336976 1.80499e-05 0.00379503
0.000352354 -6.0225e-05 1.74558e-05
-6.0225e-05 -0.000233659 -4.42178e-06
1.74558e-05 -4.42178e-06 -0.000334773
0.00664753 -0.00010003 7.77146e-06
-0.00010003 0.0038588 3.25711e-08
7.77146e-06 3.25711e-08 0.00388396
0.00186575 -3.90194e-05 0.000260245
-3.90194e-05 0.000821661 -1.80961e-05
0.000260245 -1.80961e-05 0.000812403
0.00203592 0.000135951 -6.84526e-06
0.000135951 5.26915e-05 -5.46728e-07
-6.84526e-06 -5.46728e-07 -1.24633e-05
0.00201257 0.000133625 -1.73907e-06
0.000133625 2.67338e-05 -1.26168e-07
-1.73907e-06 -1.26168e-07 -2.41871e-06
0.0019551 0.000187502 -2.31708e-07
0.000187502 9.31899e-05 9.12192e-07
-2.31708e-07 9.12192e-07 -2.59885e-05
0.00212913 0.000204107 7.29621e-07
0.000204107 0.000102243 2.17974e-08
7.29621e-07 2.17974e-08 3.30998e-05
0.00202854 0.000158089 4.30063e-06
0.000158089 7.56086e-06 5.90782e-07
4.30063e-06 5.90782e-07 -1.94996e-05
0.00119368 0.000151376 -1.08006e-05
0.000151376 -3.28318e-05 -1.65933e-06
-1.08006e-05 -1.65933e-06 -0.000192471
0.00200856 0.000256852 1.86819e-07
0.000256852 0.000138883 5.09705e-08
1.86819e-07 5.09705e-08 -1.08194e-06
0.00216446 0.00027768 3.24566e-06
0.00027768 0.000114456 3.75942e-07
3.24566e-06 3.75942e-07 2.87147e-05
0.000355855 7.21245e-05 -1.74778e-05
7.21245e-05 -0.000240512 -6.36898e-06
-1.74778e-05 -6.36898e-06 -0.000342692
0.0012173 0.000198854 5.36834e-07
0.000198854 -2.97471e-05 5.67025e-07
5.36834e-07 5.67025e-07 -0.000201665
0.001999 0.000323756 1.85371e-06
0.000323756 0.000158267 3.32742e-07
1.85371e-06 3.32742e-07 -1.32047e-05
0.00685673 0.000292162 -0.000352417
0.000292162 0.00401248 -3.71177e-05
-0.000352417 -3.71177e-05 0.00401444
0.000358085 0.000103269 3.43031e-07
0.000103269 -0.000241644 2.332e-07
3.43031e-07 2.332e-07 -0.000350231
0.0011838 0.000237359 1.09357e-05
0.000237359 -4.65215e-05 4.46291e-06
1.09357e-05 4.46291e-06 -0.00023043
0.00706839 0.000311734 1.02577e-05
0.000311734 0.00414737 5.10719e-06
1.02577e-05 5.10719e-06 0.00414346
0.000352582 0.000140097 1.83887e-05
0.000140097 -0.000239569 1.28903e-05
1.83887e-05 1.28903e-05 -0.000358551
0.00729072 0.000262156 0.000343325
0.000262156 0.00427196 4.12647e-05
0.000343325 4.12647e-05 0.00427617
0.00184898 5.41408e-05 1.17088e-06
5.41408e-05 4.00642e-05 -8.46153e-08
1.17088e-06 -8.46153e-08 -5.62347e-05
0.00198597 5.88564e-05 -3.28015e-06
5.88564e-05 2.99739e-05 -1.03061e-07
-3.28015e-06 -1.03061e-07 -2.51638e-05
0.00204533 8.67302e-05 7.14789e-06
8.67302e-05 6.48339e-05 2.40739e-07
7.14789e-06 2.40739e-07 3.83372e-05
0.0011717 -1.17245e-05 -1.17787e-05
-1.17245e-05 -1.72463e-05 -2.72855e-07
-1.17787e-05 -2.72855e-07 -0.000139128
0.00192112 -4.29716e-06 1.9811e-06
-4.29716e-06 8.75527e-05 -1.39009e-08
1.9811e-06 -1.39009e-08 -3.68974e-06
0.00201452 8.5897e-06 2.83553e-06
8.5897e-06 3.98511e-05 -3.41154e-08
2.83553e-06 -3.41154e-08 -5.0575e-06
0.00198531 -6.19851e-05 3.62112e-06
-6.19851e-05 0.000123572 1.50909e-07
3.62112e-06 1.50909e-07 3.23982e-05
0.00118577 -3.32343e-05 7.81429e-07
-3.32343e-05 -1.77741e-05 -8.82724e-08
7.81429e-07 -8.82724e-08 -0.00014191
0.000376759 -3.25515e-05 -1.89058e-05
-3.25515e-05 -0.000217903 7.66093e-07
-1.89058e-05 7.66093e-07 -0.000303626
0.00106714 -6.87927e-05 1.20703e-05
-6.87927e-05 -9.78777e-05 -1.12686e-06
1.20703e-05 -1.12686e-06 -0.000237961
0.000354131 2.22887e-06 4.03302e-07
2.22887e-06 -0.000235579 9.87863e-08
4.03302e-07 9.87863e-08 -0.00032414
0.006404 -0.000127854 -0.000337071
-0.000127854 0.00371895 1.35535e-05
-0.000337071 1.35535e-05 0.0037418
0.000372476 -4.49658e-05 1.83999e-05
-4.49658e-05 -0.000220565 -2.99058e-06
1.83999e-05 -2.99058e-06 -0.000315336
0.0064984 -5.30986e-05 -2.93241e-06
-5.30986e-05 0.00376615 3.04953e-06
-2.93241e-06 3.04953e-06 0.00379378
0.00659895 -0.000113558 0.00033605
-0.000113558 0.00382984 -1.61368e-05
0.00033605 -1.61368e-05 0.00385505
0.00191792 0.000118257 -3.92527e-07
0.000118257 7.85094e-05 2.5736e-07
-3.92527e-07 2.5736e-07 -2.70066e-05
0.00204179 0.000134159 -3.08674e-06
0.000134159 4.95203e-05 -4.31873e-07
-3.08674e-06 -4.31873e-07 -9.98936e-06
0.00197248 0.000135344 6.3611e-06
0.000135344 -8.47207e-06 6.17758e-07
6.3611e-06 6.17758e-07 -3.31811e-05
0.00117974 0.000102642 -1.15574e-05
0.000102642 -2.88431e-05 -1.01156e-06
-1.15574e-05 -1.01156e-06 -0.000175174
0.00198638 0.000186699 3.21058e-07
0.000186699 0.000117887 -1.37549e-07
3.21058e-07 -1.37549e-07 -1.1472e-06
0.00213157 0.0002037 3.72178e-06
0.0002037 9.95016e-05 -1.57285e-07
3.72178e-06 -1.57285e-07 3.08559e-05
0.000378154 4.9824e-05 -1.71588e-05
4.9824e-05 -0.000224238 -4.21731e-06
-1.71588e-05 -4.21731e-06 -0.000321851
0.00118912 0.000153563 2.50579e-07
0.000153563 -3.55656e-05 2.88315e-07
2.50579e-07 2.88315e-07 -0.000196624
0.00202032 0.000255374 9.91546e-07
0.000255374 0.000152905 -9.58845e-07
9.91546e-07 -9.58845e-07 1.32107e-05
0.00671208 0.000243051 -0.000361552
0.000243051 0.00392001 -3.02398e-05
-0.000361552 -3.02398e-05 0.00393064
0.000380029 7.91556e-05 7.94556e-07
7.91556e-05 -0.000226663 1.9818e-07
7.94556e-07 1.9818e-07 -0.000330403
0.00118199 0.000197467 8.81021e-06
0.000197467 -5.06677e-05 3.20507e-06
8.81021e-06 3.20507e-06 -0.000225895
0.00693601 0.000309869 5.57855e-06
0.000309869 0.00406725 3.49503e-06
5.57855e-06 3.49503e-06 0.0040671
0.000382123 0.000109109 1.7324e-05
0.000109109 -0.000228115 9.96399e-06
1.7324e-05 9.96399e-06 -0.000338274
0.00712556 0.00034707 0.00035433
0.00034707 0.00419306 4.7586e-05
0.00035433 4.7586e-05 0.00418412
0.00108618 2.89596e-05 -1.19652e-05
2.89596e-05 -7.05685e-05 -5.88168e-07
-1.19652e-05 -5.88168e-07 -0.000201658
0.00192152 5.19471e-05 2.16183e-06
5.19471e-05 8.6838e-05 9.49186e-09
2.16183e-06 9.49186e-09 -4.93313e-06
0.00205748 6.07806e-05 1.88939e-06
6.07806e-05 8.39407e-05 7.82039e-08
1.88939e-06 7.82039e-08 2.81467e-05
0.000415372 3.20133e-05 -1.93909e-05
3.20133e-05 -0.000200907 -9.7088e-07
-1.93909e-05 -9.7088e-07 -0.000277805
0.00114154 -6.39395e-06 5.55412e-07
-6.39395e-06 -3.95007e-05 2.80648e-08
5.55412e-07 2.80648e-08 -0.000161413
0.00195749 1.09991e-06 4.16417e-06
1.09991e-06 0.000113921 -2.73868e-08
4.16417e-06 -2.73868e-08 2.31547e-05
0.00115515 -3.43013e-05 1.27737e-05
-3.43013e-05 -4.10302e-05 -4.26487e-07
1.27737e-05 -4.26487e-07 -0.000165474
0.000372665 -5.91562e-06 4.89596e-07
-5.91562e-06 -0.000220674 3.7266e-07
4.89596e-07 3.7266e-07 -0.00030629
0.00627678 9.28974e-06 -0.000338207
9.28974e-06 0.00363116 2.1672e-06
-0.000338207 2.1672e-06 0.00366181
0.000326516 1.41097e-05 1.77442e-05
1.41097e-05 -0.000254709 -8.50754e-07
1.77442e-05 -8.50754e-07 -0.000341773
0.00635469 -0.000125242 -7.95281e-06
-0.000125242 0.00368993 2.11476e-06
-7.95281e-06 2.11476e-06 0.00371228
0.00642356 -3.53141e-05 0.000322793
-3.53141e-05 0.00371943 -8.78105e-06
0.000322793 -8.78105e-06 0.00374726
0.00114962 6.14822e-05 -1.19137e-05
6.14822e-05 -3.81315e-05 -9.96297e-07
-1.19137e-05 -9.96297e-07 -0.000174239
0.0019631 0.000115209 -2.76195e-07
0.000115209 0.000106747 -3.87877e-07
-2.76195e-07 -3.87877e-07 5.60868e-06
0.00202269 0.000131617 3.9695e-07
0.000131617 2.95407e-05 -5.50984e-07
3.9695e-07 -5.50984e-07 -2.4663e-05
0.00271794 6.69003e-05 -0.000154589
6.69003e-05 0.00125814 -5.565e-06
-0.000154589 -5.565e-06 0.00120379
0.00115337 0.000104501 3.05004e-07
0.000104501 -4.77087e-05 1.6962e-07
3.05004e-07 1.6962e-07 -0.000194977
0.00202952 0.000186188 1.28237e-06
0.000186188 0.00015032 -1.13665e-06
1.28237e-06 -1.13665e-06 3.14361e-05
0.00654038 0.000175838 -0.000358927
0.000175838 0.00380554 -2.14995e-05
-0.000358927 -2.14995e-05 0.00382602
0.000386125 6.85034e-05 1.16651e-06
6.85034e-05 -0.000216018 5.24581e-07
1.16651e-06 5.24581e-07 -0.000316007
0.00118636 0.000155328 1.09495e-05
0.000155328 -3.57244e-05 2.1377e-06
1.09495e-05 2.1377e-06 -0.00019812
0.0067894 0.00025887 9.24619e-07
0.00025887 0.00396995 1.56948e-06
9.24619e-07 1.56948e-06 0.00397898
0.000389805 8.79392e-05 1.74897e-05
8.79392e-05 -0.000219803 7.50782e-06
1.74897e-05 7.50782e-06 -0.000325727
0.00701722 0.000346216 0.000364328
0.000346216 0.00413197 4.65623e-05
0.000364328 4.65623e-05 0.00412476
0.000504458 1.26157e-05 -1.53474e-05
1.26157e-05 -0.000134209 -2.01709e-06
-1.53474e-05 -2.01709e-06 -0.000220359
0.00110529 2.85302e-05 -1.70779e-09
2.85302e-05 -6.29033e-05 1.66039e-07
-1.70779e-09 1.66039e-07 -0.000190709
0.00198914 4.83607e-05 4.2568e-06
4.83607e-05 0.000130152 -1.67513e-07
4.2568e-06 -1.67513e-07 4.28557e-05
0.00609212 -0.000103877 -0.000319439
-0.000103877 0.00353424 4.59593e-06
-0.000319439 4.59593e-06 0.00355354
0.000372783 9.95113e-06 -5.88923e-07
9.95113e-06 -0.000223395 -1.54462e-07
-5.88923e-07 -1.54462e-07 -0.000302937
0.00112832 -2.36945e-06 1.2732e-05
-2.36945e-06 -5.12569e-05 2.78179e-08
1.2732e-05 2.78179e-08 -0.000173133
0.000331098 2.08432e-05 1.81003e-05
2.08432e-05 -0.000248585 5.14457e-07
1.81003e-05 5.14457e-07 -0.000332844
0.0062118 -2.60149e-05 1.88445e-06
-2.60149e-05 0.00359714 -1.7338e-06
1.88445e-06 -1.7338e-06 0.00362275
0.00633865 -4.85826e-05 0.000326839
-4.85826e-05 0.00366746 -6.28172e-06
0.000326839 -6.28172e-06 0.00369607
0.00278889 1.88128e-05 -0.000147761
1.88128e-05 0.00130329 -3.07574e-06
-0.000147761 -3.07574e-06 0.00125353
0.00111825 6.45744e-05 5.10348e-08
6.45744e-05 -5.99868e-05 -7.84417e-08
5.10348e-08 -7.84417e-08 -0.000196939
0.00202476 0.000112595 1.93616e-06
0.000112595 0.000146704 -7.89937e-07
1.93616e-06 -7.89937e-07 5.01897e-05
0.00598928 -2.84857e-05 -0.0001443
-2.84857e-05 0.00347202 1.23692e-07
-0.0001443 1.23692e-07 0.00346128
0.000379867 6.01821e-05 2.36505e-07
6.01821e-05 -0.000216999 2.94617e-07
2.36505e-07 2.94617e-07 -0.000310318
0.00111842 0.00010631 1.17783e-05
0.00010631 -7.21445e-05 1.31737e-06
1.17783e-05 1.31737e-06 -0.000220356
0.00662226 0.000152878 -1.0623e-05
0.000152878 0.00385137 -1.85094e-06
-1.0623e-05 -1.85094e-06 0.003873
0.00039788 9.10936e-05 1.9086e-05
9.10936e-05 -0.000207247 6.01767e-06
1.9086e-05 6.01767e-06 -0.000308721
0.00688501 0.000283293 0.000369735
0.000283293 0.00403557 3.89716e-05
0.000369735 3.89716e-05 0.00404238
0.00184777 -5.3843e-05 -0.000251126
-5.3843e-05 0.000816697 1.5299e-06
-0.000251126 1.5299e-06 0.000818039
0.00157142 3.25334e-05 -6.38215e-05
3.25334e-05 0.00053286 1.63916e-08
-6.38215e-05 1.63916e-08 0.00047032
0.00111593 3.069e-05 1.25552e-05
3.069e-05 -5.99584e-05 5.81627e-07
1.25552e-05 5.81627e-07 -0.000184561
0.00616513 -5.05998e-05 6.66712e-06
-5.05998e-05 0.00357347 2.87162e-06
6.66712e-06 2.87162e-06 0.00359851
0.000389174 -1.10214e-05 1.87028e-05
-1.10214e-05 -0.000206425 8.9828e-07
1.87028e-05 8.9828e-07 -0.000289946
0.00624241 -8.79927e-05 0.000337852
-8.79927e-05 0.00362107 -5.72698e-06
0.000337852 -5.72698e-06 0.00364608
0.0014038 2.39671e-05 -6.73842e-05
2.39671e-05 0.000564675 -1.20191e-06
-6.73842e-05 -1.20191e-06 0.000524312
0.00156837 2.0838e-05 -6.4979e-05
2.0838e-05 0.000532546 -1.62073e-06
-6.4979e-05 -1.62073e-06 0.000464901
0.00109029 6.63187e-05 1.18929e-05
6.63187e-05 -7.97521e-05 8.14682e-07
1.18929e-05 8.14682e-07 -0.000217509
0.00396038 7.29467e-05 0.000126872
7.29467e-05 0.00216888 4.05646e-06
0.000126872 4.05646e-06 0.00216222
0.000398927 7.03898e-05 1.94892e-05
7.03898e-05 -0.000205021 4.38883e-06
1.94892e-05 4.38883e-06 -0.000298267
0.0067039 0.000140005 0.000351852
0.000140005 0.00389441 2.33571e-05
0.000351852 2.33571e-05 0.00391976
0.00611249 -1.96231e-05 -8.72378e-06
-1.96231e-05 0.00354396 -3.41707e-06
-8.72378e-06 -3.41707e-06 0.00356756
0.000383273 5.14709e-05 2.0385e-05
5.14709e-05 -0.000221597 2.57652e-06
2.0385e-05 2.57652e-06 -0.000298042
0.00607404 3.36692e-05 0.000325401
3.36692e-05 0.00351151 1.63409e-07
0.000325401 1.63409e-07 0.00354035
0.00380973 3.42779e-05 0.000137819
3.42779e-05 0.00207987 5.6177e-06
0.000137819 5.6177e-06 0.0020758
0.000409689 1.04478e-05 1.87648e-05
1.04478e-05 -0.000196815 2.53299e-06
1.87648e-05 2.53299e-06 -0.000282862
0.00645639 8.34829e-06 0.000338238
8.34829e-06 0.00374009 1.05588e-05
0.000338238 1.05588e-05 0.00376794
0.00617055 -0.000115671 0.000324269
-0.000115671 0.0035841 -4.43001e-06
0.000324269 -4.43001e-06 0.00360354
0.00622915 1.41688e-05 0.000329203
1.41688e-05 0.00359885 6.1813e-06
0.000329203 6.1813e-06 0.00362972
